# vtk DataFile Version 2.0
Wound Healing Simulation
ASCII
DATASET UNSTRUCTURED_GRID
POINTS 3012 float
69.9759 18.75 4
67.2507 60.3285 4
69.976 18.75 2
73.0099 25.446 4
71.1327 20.9142 4
68.6801 16.6661 4
67.8259 19.9261 3.98335
67.2507 60.3286 2
71.1327 54.0858 4
68.6801 58.3339 4
65.6939 62.2254 4
65.3126 59.0017 3.98351
74.6784 42.3946 4
73.7221 47.2057 4
69.9759 18.75 0
73.0099 25.446 2
68.6801 16.6661 2
71.1327 20.9142 2
67.8263 19.9289 2
74.6792 32.6053 4
73.7222 27.7943 4
72.1454 23.1494 4
70.6145 26.221 3.98327
68.8862 21.9581 3.98398
67.2507 14.6715 4
66.6373 17.9718 3.98262
65.7974 21.0253 3.97481
67.2507 60.3285 0
71.1327 54.0858 2
68.6801 58.3339 2
65.694 62.2255 2
65.3138 58.9987 2
72.1454 51.8506 4
69.9759 56.25 4
68.8366 53.1131 3.98292
64.0165 64.0165 4
66.6109 57.134 3.9831
63.8862 60.7666 3.98563
63.5007 57.7717 3.97594
60.3285 67.2507 4
74.6792 42.3947 2
73.7222 47.2057 2
74.9194 39.9526 4
74.2788 44.8158 4
72.1684 42.0857 3.98197
73.0099 49.554 4
71.2496 46.5982 3.98218
73.0099 25.446 0
71.1327 20.9142 0
68.6801 16.6661 0
67.8259 19.9261 0.0166524
74.6792 32.6053 2
73.7222 27.7943 2
67.2508 14.6715 2
72.1455 23.1494 2
70.6146 26.2215 2
66.6381 17.975 2
68.8865 21.9601 2
65.7969 21.0256 2
74.9197 35.0474 4
74.2794 30.1841 4
72.1851 32.9432 3.98234
71.2785 28.4313 3.98269
69.816 24.0597 3.98375
68.3474 26.951 3.9733
66.7631 22.933 3.97424
65.694 12.7746 4
65.3242 16.1029 3.98414
64.7136 19.1955 3.97471
63.886 22.0361 3.97102
71.1327 54.0858 0
65.6939 62.2254 0
68.6801 58.3339 0
65.3126 59.0017 0.0164876
72.1455 51.8506 2
69.9759 56.25 2
68.8369 53.111 2
64.0165 64.0165 2
66.6117 57.1307 2
63.8877 60.7645 2
63.5004 57.7722 2
62.2254 65.694 4
58.895 65.4144 3.99167
69.7692 50.989 3.98291
67.7839 55.1673 3.98289
66.6495 52.2093 3.97296
62.3367 62.4279 3.98819
64.6609 56.0315 3.97508
62.2033 59.4048 3.97769
61.8217 56.6797 3.97127
58.3339 68.6801 4
60.3285 67.2508 2
73.7221 47.2057 0
74.6784 42.3946 0
74.9197 39.9526 2
74.2794 44.8159 2
72.1681 42.0857 2
73.0099 49.554 2
71.2495 46.5979 2
75 37.5 4
72.4056 39.8022 3.98211
71.7828 44.353 3.98219
69.8042 41.7897 3.97211
70.5754 48.8137 3.98252
68.9126 46.015 3.97222
74.6792 32.6053 0
73.7222 27.7943 0
67.2507 14.6715 0
72.1454 23.1494 0
70.6145 26.221 0.0167311
68.8862 21.9581 0.0160199
66.6373 17.9718 0.0173751
65.7974 21.0253 0.0251948
74.9197 35.0474 2
74.2794 30.1841 2
72.1847 32.9434 2
71.2785 28.4317 2
65.694 12.7745 2
65.3254 16.1056 2
69.8161 24.0608 2
68.3473 26.9513 2
64.7131 19.1955 2
66.7627 22.9334 2
63.8854 22.0361 2
72.4134 35.2241 3.98213
71.8042 30.6762 3.98251
69.8402 33.268 3.97255
68.9666 29.0377 3.97295
67.6118 24.9117 3.97356
66.1941 27.6343 3.96948
64.0165 10.9835 4
64.7559 23.8302 3.9703
63.8908 14.3264 3.98662
63.5137 17.4469 3.97668
62.9047 20.3228 3.96998
62.0899 22.9454 3.96908
60.6844 11.0973 3.98901
57.6125 11.447 3.98204
72.1454 51.8506 0
69.9759 56.25 0
68.8366 53.1131 0.0170831
64.0165 64.0165 0
63.8862 60.7666 0.0143725
66.6109 57.134 0.0168976
63.5007 57.7717 0.0240641
62.2255 65.694 2
58.8958 65.4141 2
69.7693 50.9878 2
67.7844 55.1645 2
66.6491 52.2087 2
62.338 62.4266 2
64.6604 56.0314 2
62.2033 59.4058 2
61.8214 56.6806 2
60.6693 63.9774 3.99009
57.0259 66.7351 3.99231
57.5585 63.6927 3.98452
67.5077 50.1769 3.97252
65.7019 54.1732 3.97371
64.5363 51.3845 3.96891
60.7736 60.9387 3.98028
62.8183 55.0663 3.97067
60.6575 58.1585 3.97242
60.324 55.7815 3.97031
56.25 69.9759 4
58.3339 68.6801 2
60.3285 67.2507 0
58.9216 9.65561 3.98999
62.2254 9.30607 4
73.0099 49.554 0
74.2788 44.8158 0
71.2496 46.5982 0.017817
72.1684 42.0857 0.0180293
74.9194 39.9526 0
75 37.5 2
72.4055 39.8024 2
71.7827 44.3527 2
69.804 41.7894 2
70.5755 48.8132 2
68.9125 46.0146 2
72.489 37.512 3.98193
70.0413 39.6572 3.97199
69.4307 43.9076 3.97224
67.5968 41.4972 3.96903
68.2662 48.1073 3.97225
66.7092 45.4395 3.96879
74.9197 35.0474 0
74.2794 30.1841 0
72.1851 32.9432 0.0176604
71.2785 28.4313 0.0173066
65.694 12.7746 0
65.3242 16.1029 0.0158602
69.816 24.0597 0.0162503
68.3474 26.951 0.0266968
66.7631 22.933 0.0257632
64.7136 19.1955 0.0252893
63.886 22.0361 0.0289839
72.4133 35.2241 2
71.8041 30.6765 2
69.8399 33.2682 2
68.9666 29.0379 2
64.0165 10.9835 2
63.8921 14.3284 2
63.5135 17.4463 2
67.6115 24.9121 2
66.194 27.6343 2
62.9042 20.3225 2
64.7555 23.8302 2
62.0894 22.9453 2
60.6855 11.0984 2
57.6127 11.4462 2
70.0579 35.3917 3.97214
69.4674 31.1491 3.97258
67.655 33.5906 3.96931
66.7718 29.6225 3.96926
65.5233 25.6991 3.96982
64.1432 28.2563 3.96931
62.3422 12.6545 3.98802
62.8545 24.6387 3.96927
62.2 15.7839 3.97967
61.8118 18.687 3.97063
61.212 21.346 3.96807
60.4175 23.7322 3.96863
59.2466 12.7784 3.98075
55.8744 10.2333 3.98378
56.4051 13.1148 3.97837
69.7692 50.989 0.0170872
62.2254 65.694 0
58.895 65.4144 0.00832554
67.7839 55.1673 0.0171136
66.6495 52.2093 0.0270367
62.3367 62.4279 0.0118055
62.2033 59.4048 0.0223137
64.6609 56.0315 0.0249199
61.8217 56.6797 0.0287286
60.6703 63.9766 2
57.0265 66.735 2
57.5586 63.6939 2
67.5075 50.1764 2
65.7014 54.1728 2
64.5359 51.3845 2
60.7737 60.94 2
62.8179 55.0668 2
60.6574 58.1597 2
60.3239 55.7819 2
55.0715 67.9321 3.99262
59.2197 62.3669 3.98162
55.8054 64.9107 3.98715
56.327 62.0905 3.98015
65.3309 49.4079 3.96868
63.7041 53.291 3.96923
62.4369 50.6492 3.96779
59.3332 59.557 3.9766
61.072 54.3048 3.96912
59.2863 57.0075 3.97001
59.236 55.1758 3.97395
48.1034 68.5788 3.98849
50.9491 69.9317 3.99283
54.0858 71.1327 4
56.25 69.976 2
58.3339 68.6801 0
57.0589 8.33565 3.99069
60.3285 7.74928 4
58.9226 9.65632 2
62.2255 9.30602 2
70.5754 48.8137 0.0174761
71.7828 44.353 0.017807
68.9126 46.015 0.0277828
69.8042 41.7897 0.0278944
72.4056 39.8022 0.0178922
75 37.5 0
72.4887 37.5121 2
70.0412 39.6571 2
69.4306 43.9073 2
67.5965 41.497 2
68.2662 48.1069 2
66.7091 45.4394 2
70.1293 37.5213 3.97212
67.8339 39.512 3.96908
67.2232 43.4696 3.96894
65.5432 41.2084 3.96995
66.0679 47.4177 3.96871
64.644 44.8463 3.96905
72.4134 35.2241 0.0178703
71.8042 30.6762 0.0174865
69.8402 33.268 0.0274467
68.9666 29.0377 0.0270454
64.0165 10.9835 0
63.8908 14.3264 0.0133802
63.5137 17.4469 0.0233243
67.6118 24.9117 0.026445
66.1941 27.6343 0.0305242
64.7559 23.8302 0.029701
62.9047 20.3228 0.0300217
62.0899 22.9454 0.0309209
60.6844 11.0973 0.0109877
57.6125 11.447 0.0179625
70.0579 35.3918 2
69.4673 31.1493 2
67.6547 33.5907 2
66.7718 29.6225 2
62.3434 12.656 2
62.1998 15.7831 2
61.8116 18.6861 2
65.5231 25.6991 2
64.143 28.2563 2
61.2116 21.3457 2
62.8541 24.6386 2
60.4178 23.7323 2
59.2467 12.7779 2
56.4049 13.1138 2
55.8746 10.2324 2
67.8699 35.5473 3.96918
67.2647 31.6221 3.96922
65.6901 33.9275 3.97005
64.6577 30.1928 3.96926
63.5356 26.4152 3.96922
62.2419 28.7811 3.97192
60.776 14.2228 3.98068
61.0365 25.3418 3.97
60.6125 17.1285 3.97561
60.2161 19.8226 3.96678
59.6497 22.2644 3.96673
58.9621 24.3277 3.97041
54.0376 9.13598 3.98501
57.9103 14.333 3.97904
54.7866 12.0136 3.97976
55.3117 14.65 3.97697
67.5077 50.1769 0.027479
57.0259 66.7351 0.00769459
60.6693 63.9774 0.00991442
57.5585 63.6927 0.0154844
65.7019 54.1732 0.0262907
64.5363 51.3845 0.0310868
60.7736 60.9387 0.0197189
60.6575 58.1585 0.0275773
62.8183 55.0663 0.0293348
60.324 55.7815 0.0296898
55.0719 67.9321 2
59.2198 62.3681 2
55.8054 64.9118 2
56.327 62.0918 2
65.3306 49.4078 2
63.7037 53.2911 2
62.4371 50.6492 2
59.3332 59.5583 2
61.0719 54.3049 2
59.2864 57.0077 2
59.2361 55.1758 2
53.0433 68.9999 3.99274
53.9678 66.0133 3.98802
57.8806 60.8701 3.97865
54.6842 63.2083 3.98295
55.2107 60.6154 3.97793
63.1855 48.6583 3.96812
61.7365 52.5717 3.96788
60.2508 50.011 3.96817
58.0164 58.2588 3.97256
59.3183 53.9398 3.96769
58.1202 55.8011 3.96713
50.1101 67.8568 3.98844
47.4637 66.5812 3.98579
46.0569 69.1581 3.98852
48.1034 68.5793 2
48.8032 70.723 3.99292
50.9495 69.9318 2
51.8506 72.1454 4
54.0858 71.1327 2
56.25 69.9759 0
55.1035 7.14023 3.9913
58.3339 6.31992 4
57.0597 8.33599 2
60.3286 7.74926 2
58.9216 9.65561 0.0100139
62.2254 9.30607 0
68.2662 48.1073 0.0277529
69.4307 43.9076 0.0277616
66.7092 45.4395 0.0312062
67.5968 41.4972 0.0309652
70.0413 39.6572 0.0280144
72.489 37.512 0.0180705
70.1292 37.5213 2
67.8339 39.5119 2
67.223 43.4694 2
65.5428 41.2083 2
66.0679 47.4175 2
64.6437 44.8462 2
67.9303 37.5217 3.96918
65.7744 39.3692 3.97017
65.1673 43.0235 3.96956
63.7161 40.9269 3.97248
63.9543 46.7141 3.96853
62.7807 44.2117 3.97231
70.0579 35.3917 0.0278648
69.4674 31.1491 0.0274226
67.655 33.5906 0.0306923
66.7718 29.6225 0.0307395
62.3422 12.6545 0.0119787
62.2 15.7839 0.0203257
61.8118 18.687 0.0293735
65.5233 25.6991 0.0301799
64.1432 28.2563 0.0306939
62.8545 24.6387 0.030733
61.212 21.346 0.0319284
60.4175 23.7322 0.031368
59.2466 12.7784 0.0192495
56.4051 13.1148 0.0216321
55.8744 10.2333 0.0162159
67.8698 35.5473 2
67.2647 31.6221 2
65.6899 33.9275 2
64.6575 30.1928 2
60.7759 14.2221 2
60.6122 17.1272 2
60.2162 19.822 2
63.5354 26.4151 2
62.2414 28.7812 2
59.6506 22.2644 2
61.0364 25.342 2
58.9619 24.328 2
57.9099 14.3321 2
55.3112 14.6492 2
54.0377 9.13524 2
54.7865 12.0125 2
65.8638 35.6666 3.97001
65.1762 32.1549 3.9696
64.2569 34.2502 3.97215
62.564 30.6388 3.97209
61.6348 27.0765 3.97059
60.8171 29.1453 3.97495
59.3108 15.6693 3.97826
59.3043 25.8042 3.97286
59.12 18.3595 3.9719
58.7265 20.8629 3.96452
58.2675 23.1009 3.96625
57.9398 24.6742 3.97189
52.1123 8.15406 3.98601
53.058 11.0189 3.98125
56.6757 15.7452 3.97824
53.8087 13.6848 3.97754
54.3745 16.0046 3.97753
55.0715 67.9321 0.00738131
65.3309 49.4079 0.0313213
55.8054 64.9107 0.0128463
59.2197 62.3669 0.0183791
56.327 62.0905 0.0198494
63.7041 53.291 0.030773
62.4369 50.6492 0.0322138
59.3332 59.557 0.0233966
59.2863 57.0075 0.029989
61.072 54.3048 0.0308845
59.236 55.1758 0.0260513
53.0437 68.9999 2
53.9677 66.014 2
57.8804 60.8713 2
54.6842 63.2096 2
55.2108 60.6169 2
63.1854 48.6582 2
61.7364 52.5716 2
60.2508 50.0108 2
58.0163 58.2604 2
59.3186 53.9396 2
58.1203 55.8008 2
52.0713 66.9999 3.98834
52.954 64.2195 3.98486
56.6472 59.4873 3.97636
53.6811 61.6226 3.98059
54.2585 59.3188 3.9761
60.9591 47.8723 3.96914
59.6935 52.0971 3.96769
57.9814 49.6028 3.97094
56.7723 56.9764 3.96959
57.1057 54.1078 3.96627
50.1101 67.8574 2
49.3376 65.9216 3.9857
47.4637 66.5818 2
46.8931 64.7363 3.98427
45.5588 67.0984 3.98576
43.9738 69.5904 3.98854
46.0569 69.1586 2
46.6098 71.3674 3.99292
48.1034 68.5788 0.0115058
48.8036 70.7232 2
49.554 73.0099 4
50.9491 69.9317 0.00716622
51.8506 72.1455 2
54.0858 71.1327 0
53.0647 6.07181 3.99158
55.1041 7.14035 2
56.25 5.02411 4
58.3339 6.3199 2
57.0589 8.33565 0.00931101
60.3285 7.74928 0
66.0679 47.4177 0.0312921
67.2232 43.4696 0.0310553
64.644 44.8463 0.0309498
65.5432 41.2084 0.0300548
67.8339 39.512 0.0309163
70.1293 37.5213 0.0278769
67.9301 37.5217 2
65.7739 39.3691 2
65.1671 43.0234 2
63.7156 40.9268 2
63.9538 46.7139 2
62.7799 44.2115 2
65.8765 37.5012 3.96996
63.8534 39.2649 3.97217
63.2921 42.5464 3.9723
62.3702 40.6944 3.97515
61.9383 45.9129 3.97104
61.4002 43.6768 3.97546
67.8699 35.5473 0.0308229
67.2647 31.6221 0.0307779
65.6901 33.9275 0.0299512
64.6577 30.1928 0.0307368
60.776 14.2228 0.0193214
60.6125 17.1285 0.02439
60.2161 19.8226 0.0332162
63.5356 26.4152 0.0307785
62.2419 28.7811 0.0280826
61.0365 25.3418 0.0299992
59.6497 22.2644 0.0332684
58.9621 24.3277 0.0295922
57.9103 14.333 0.0209604
55.3117 14.65 0.0230259
54.0376 9.13598 0.0149899
54.7866 12.0136 0.0202398
65.8635 35.6666 2
65.1762 32.1549 2
64.2568 34.2502 2
62.5637 30.6388 2
59.3103 15.6684 2
59.12 18.3583 2
58.7273 20.8631 2
61.6342 27.0766 2
60.817 29.1455 2
58.2679 23.1012 2
59.3046 25.8045 2
57.9397 24.6747 2
56.675 15.7442 2
54.3737 16.004 2
53.8085 13.6837 2
52.1124 8.15343 2
53.0579 11.018 2
64.0516 35.6322 3.97172
62.8857 33.048 3.97262
60.5639 30.6167 3.97527
59.5317 27.9175 3.97413
57.9377 16.986 3.97668
57.7009 25.7362 3.97443
57.7058 19.484 3.96887
57.3466 21.8522 3.96357
57.1533 23.9582 3.96876
50.1125 7.28529 3.98703
51.2327 10.1264 3.98263
52.1716 12.8007 3.97958
55.535 16.9772 3.97775
52.976 15.2705 3.97534
53.755 16.988 3.97964
53.0433 68.9999 0.00725951
53.9678 66.0133 0.011979
63.1855 48.6583 0.0318786
54.6842 63.2083 0.0170495
57.8806 60.8701 0.0213487
55.2107 60.6154 0.0220694
61.7365 52.5717 0.0321243
60.2508 50.011 0.031826
58.0164 58.2588 0.0274412
58.1202 55.8011 0.0328657
59.3183 53.9398 0.0323139
52.0712 67.0005 2
52.9538 64.2202 2
56.647 59.4883 2
53.681 61.624 2
54.2586 59.3203 2
60.9582 47.872 2
59.6943 52.097 2
57.9797 49.6022 2
56.7718 56.981 2
57.1061 54.1076 2
51.1686 65.1286 3.98553
52.0466 62.5394 3.98268
55.478 58.2467 3.97692
52.8334 60.1342 3.97835
53.6367 58.4683 3.9796
58.2432 46.8352 3.97386
57.5364 51.7724 3.96841
56.1864 49.5372 3.97111
55.4613 55.7752 3.9666
55.3328 53.3649 3.96539
50.1101 67.8568 0.0115605
49.3375 65.9222 2
48.6188 64.123 3.98442
47.4637 66.5812 0.0142093
45.5587 67.0989 2
46.8929 64.7368 2
46.3827 63.0532 3.98368
45.1333 65.1973 3.9842
43.6319 67.469 3.98581
41.8608 69.8778 3.9884
43.9738 69.5909 2
44.3771 71.8623 3.9928
46.0569 69.1581 0.0114795
46.6101 71.3677 2
47.2057 73.7222 4
48.8032 70.723 0.00708389
49.554 73.0099 2
51.8506 72.1454 0
50.9546 5.13197 3.99204
53.0652 6.07177 2
54.0858 3.86728 4
55.1035 7.14023 0.00870367
56.25 5.02406 2
58.3339 6.31992 0
63.9543 46.7141 0.031472
65.1673 43.0235 0.0304357
62.7807 44.2117 0.0276944
63.7161 40.9269 0.0275206
65.7744 39.3692 0.0298282
67.9303 37.5217 0.0308164
65.8761 37.5012 2
63.8528 39.2648 2
63.2916 42.5463 2
62.3695 40.6943 2
61.9373 45.9126 2
61.3991 43.6765 2
63.9149 37.4561 3.97169
62.0836 39.3527 3.97387
61.1497 41.9526 3.97535
60.2001 44.7616 3.97522
65.8638 35.6666 0.029992
65.1762 32.1549 0.0303962
64.2569 34.2502 0.0278467
62.564 30.6388 0.0279063
59.3108 15.6693 0.0217432
59.12 18.3595 0.0281019
58.7265 20.8629 0.035484
61.6348 27.0765 0.0294141
60.8171 29.1453 0.0250456
59.3043 25.8042 0.0271427
58.2675 23.1009 0.0337458
57.9398 24.6742 0.0281101
56.6757 15.7452 0.0217622
54.3745 16.0046 0.0224679
53.8087 13.6848 0.0224577
52.1123 8.15406 0.0139854
53.058 11.0189 0.0187509
64.0511 35.6322 2
62.8852 33.0481 2
60.5641 30.6169 2
57.9372 16.9849 2
57.7061 19.4824 2
57.3473 21.8524 2
59.5312 27.9179 2
57.1523 23.9589 2
57.7018 25.7367 2
50.1126 7.28475 2
55.5343 16.9762 2
53.7542 16.9871 2
52.9755 15.2693 2
52.1713 12.7998 2
51.2325 10.1257 2
62.1186 35.3601 3.97324
60.2124 32.7493 3.97533
58.553 30.0844 3.97627
57.2327 27.3931 3.97546
56.6315 18.1618 3.97627
56.2448 25.1156 3.9719
56.3403 20.5339 3.96688
56.0725 22.8842 3.96442
48.0564 6.52783 3.98808
49.3247 9.33316 3.98337
50.4331 11.9974 3.98072
51.3764 14.5039 3.97729
54.4096 17.9278 3.97871
52.3576 17.0471 3.9748
52.0713 66.9999 0.0116648
52.954 64.2195 0.0151387
60.9591 47.8723 0.0308592
53.6811 61.6226 0.0194073
56.6472 59.4873 0.0236351
54.2585 59.3188 0.0239017
59.6935 52.0971 0.0323081
57.9814 49.6028 0.0290604
56.7723 56.9764 0.0304123
57.1057 54.1078 0.0337297
51.1684 65.1292 2
52.0463 62.5403 2
55.4778 58.2478 2
52.8334 60.1358 2
53.6366 58.4691 2
58.2425 46.8346 2
57.5363 51.772 2
56.1853 49.5366 2
55.4619 55.7761 2
55.3336 53.3649 2
50.3469 63.3813 3.98395
51.244 60.9352 3.98025
54.2132 57.2632 3.97679
52.3099 58.6299 3.97664
56.6038 44.1648 3.97753
55.413 47.8759 3.97337
55.0336 51.3726 3.96782
53.9843 54.5223 3.96638
49.3376 65.9216 0.0142973
48.6187 64.1235 2
47.9628 62.4747 3.98356
45.5588 67.0984 0.0142399
46.8931 64.7363 0.0157303
43.6318 67.4696 2
46.3826 63.0537 2
45.1331 65.198 2
45.9883 61.5853 3.98346
44.768 63.4536 3.98327
43.3573 65.5068 3.98412
41.6639 67.6877 3.98549
39.7024 70.0249 3.9885
41.8609 69.8784 2
42.1114 72.2072 3.99273
43.9738 69.5904 0.0114571
44.3774 71.8626 2
44.8159 74.2794 4
46.6098 71.3674 0.00708361
47.2057 73.7222 2
49.554 73.0099 0
48.7851 4.32275 3.99251
50.9549 5.13183 2
51.8506 2.85458 4
53.0647 6.07181 0.00841727
54.0858 3.86728 2
56.25 5.02411 0
61.9383 45.9129 0.0289603
63.2921 42.5464 0.0276959
61.4002 43.6768 0.0245382
62.3702 40.6944 0.0248528
63.8534 39.2649 0.0278348
65.8765 37.5012 0.0300402
63.9141 37.4561 2
62.0829 39.3527 2
61.149 41.9523 2
60.1989 44.7612 2
61.922 37.4437 3.97363
60.1574 39.8422 3.9767
58.9007 42.9069 3.97678
64.0516 35.6322 0.0282838
62.8857 33.048 0.027382
60.5639 30.6167 0.0247315
57.9377 16.986 0.0233207
57.7058 19.484 0.0311252
57.3466 21.8522 0.036427
59.5317 27.9175 0.0258651
57.7009 25.7362 0.0255704
57.1533 23.9582 0.0312399
55.535 16.9772 0.022254
53.755 16.988 0.0203573
52.976 15.2705 0.0246638
50.1125 7.28529 0.0129676
52.1716 12.8007 0.0204244
51.2327 10.1264 0.0173717
62.1174 35.3602 2
60.2113 32.7495 2
58.5526 30.0849 2
56.631 18.1605 2
56.3407 20.531 2
56.0733 22.8848 2
57.2345 27.3936 2
56.246 25.1163 2
48.0565 6.5271 2
49.3246 9.33261 2
54.4091 17.9269 2
52.3567 17.0464 2
51.3758 14.5028 2
50.4328 11.9968 2
59.7985 35.1211 3.97626
57.8899 32.2795 3.97687
56.4684 29.3539 3.97677
55.3769 26.6167 3.97564
55.3321 19.1963 3.97547
54.8808 24.075 3.96683
54.9744 21.5797 3.96502
45.9625 5.88252 3.98876
43.374 7.47388 3.98577
47.3553 8.62568 3.98438
48.6002 11.2975 3.98123
49.7129 13.7485 3.97981
50.6308 16.1405 3.97701
53.1166 18.6707 3.97451
51.2944 18.0608 3.98097
51.1686 65.1286 0.0144669
52.0466 62.5394 0.0173172
58.2432 46.8352 0.0261376
52.8334 60.1342 0.0216461
55.478 58.2467 0.0230769
53.6367 58.4683 0.0204023
57.5364 51.7724 0.0315851
56.1864 49.5372 0.0288906
55.4613 55.7752 0.0334007
55.3328 53.3649 0.0346118
50.3466 63.3818 2
51.2437 60.9361 2
54.2131 57.2643 2
52.3097 58.6307 2
56.6032 44.1642 2
55.4113 47.8751 2
55.0336 51.3723 2
53.9852 54.5237 2
49.5923 61.7448 3.98259
55.478 41.6843 3.9773
50.5653 59.3267 3.97629
52.1755 56.483 3.97063
54.0575 45.5368 3.9768
53.2541 49.3064 3.97079
52.6318 52.8284 3.96581
48.6188 64.123 0.015583
47.9626 62.4751 2
47.3297 61.0086 3.98334
43.6319 67.469 0.0141873
45.1333 65.1973 0.0157987
46.3827 63.0532 0.0163162
41.6639 67.6882 2
43.3571 65.5076 2
45.9883 61.586 2
44.7679 63.4543 2
45.7666 60.6294 3.98176
44.4843 61.8341 3.98282
43.1472 63.7257 3.98278
41.5467 65.6442 3.98339
39.6329 67.7673 3.98512
37.526 70.0499 3.98837
39.7025 70.0255 2
39.818 72.4042 3.99255
41.8608 69.8778 0.0116036
42.1116 72.2075 2
42.3947 74.6792 4
44.3771 71.8623 0.00719683
44.8159 74.2794 2
47.2057 73.7222 0
43.8519 5.35929 3.98897
46.5711 3.64715 3.99275
48.7854 4.32247 2
49.554 1.99015 4
50.9546 5.13197 0.00795675
51.8506 2.85453 2
54.0858 3.86728 0
60.2001 44.7616 0.0247802
61.1497 41.9526 0.0246487
62.0836 39.3527 0.0261263
63.9149 37.4561 0.0283107
61.921 37.4437 2
60.1565 39.8419 2
58.8999 42.9065 2
59.6544 37.5645 3.97734
57.8719 40.6451 3.97751
54.9187 39.7019 3.97699
62.1186 35.3601 0.026761
60.2124 32.7493 0.024672
58.553 30.0844 0.0237309
56.6315 18.1618 0.0237304
56.3403 20.5339 0.0331174
56.0725 22.8842 0.0355846
57.2327 27.3931 0.0245414
56.2448 25.1156 0.0281019
54.4096 17.9278 0.0212894
52.3576 17.0471 0.0251975
51.3764 14.5039 0.0227082
48.0564 6.52783 0.0119243
49.3247 9.33316 0.0166347
50.4331 11.9974 0.0192769
59.797 35.1213 2
45.9624 5.88214 2
43.3739 7.47347 2
57.8904 32.28 2
56.4677 29.3545 2
55.332 19.1954 2
54.9754 21.5787 2
54.8805 24.0765 2
55.3716 26.6179 2
47.3553 8.62474 2
48.5999 11.297 2
53.1165 18.6698 2
51.2938 18.06 2
50.6301 16.1396 2
49.7123 13.748 2
57.2554 34.7694 3.97759
55.6214 31.5356 3.97814
54.4007 28.4279 3.97845
53.7153 25.5199 3.97323
53.9537 20.149 3.97443
53.5413 22.7346 3.96045
41.3992 7.07898 3.98636
45.3601 7.99576 3.98575
42.866 9.41753 3.98323
46.6668 10.6568 3.98187
47.7448 13.1075 3.98108
48.9293 15.4082 3.97786
50.0007 17.7095 3.97854
51.6375 19.3361 3.98195
50.3469 63.3813 0.0160518
51.244 60.9352 0.0197506
56.6038 44.1648 0.022469
55.413 47.8759 0.0266321
52.3099 58.6299 0.0233624
54.2132 57.2632 0.0232083
55.0336 51.3726 0.0321761
53.9843 54.5223 0.0336176
49.5919 61.7451 2
55.4777 41.684 2
50.5651 59.3277 2
52.1754 56.4838 2
54.0608 45.536 2
53.2573 49.3061 2
52.6338 52.8281 2
48.8485 60.2012 3.98077
52.3406 42.6102 3.97924
49.7845 57.6202 3.97646
50.5692 54.4132 3.96781
51.6899 47.2412 3.97594
51.1523 50.9238 3.96511
47.9809 43.7664 3.99115
47.9628 62.4747 0.0164377
47.3297 61.0089 2
46.6187 59.7946 3.98267
41.6639 67.6877 0.0145088
43.3573 65.5068 0.0158829
44.768 63.4536 0.0167331
45.9883 61.5853 0.0165363
39.633 67.768 2
41.5465 65.6445 2
45.7664 60.6301 2
43.1472 63.7265 2
44.4843 61.8348 2
44.6234 60.2913 3.98238
42.9513 62.0817 3.98134
41.6006 63.8187 3.98276
39.648 65.6118 3.98256
37.5635 67.7495 3.98496
31.6967 65.1306 3.98336
33.3921 67.4868 3.98485
35.3334 69.9599 3.98835
37.526 70.0506 2
37.5095 72.4588 3.99244
39.7024 70.0249 0.0114981
39.8181 72.4046 2
39.9526 74.9197 4
42.1114 72.2072 0.00727168
42.3947 74.6792 2
44.8159 74.2794 0
41.7365 4.9684 3.98935
43.8519 5.35883 2
44.3263 3.11021 3.9931
46.5713 3.64696 2
47.2057 1.27793 4
48.7851 4.32275 0.00748859
49.554 1.99013 2
51.8506 2.85458 0
58.9007 42.9069 0.023216
60.1574 39.8422 0.0233017
61.922 37.4437 0.0263689
59.6537 37.5644 2
57.8704 40.6447 2
54.9196 39.7004 2
56.6595 37.8884 3.97797
49.3737 41.3121 3.98918
52.9398 39.3046 3.98198
39.4426 6.80243 3.98646
59.7985 35.1211 0.0237371
57.8899 32.2795 0.0231344
56.4684 29.3539 0.0232254
55.3321 19.1963 0.0245339
54.9744 21.5797 0.0349803
54.8808 24.075 0.0331691
55.3769 26.6167 0.0243556
53.1166 18.6707 0.0254914
51.2944 18.0608 0.0190293
50.6308 16.1405 0.0229918
45.9625 5.88252 0.0112428
49.7129 13.7485 0.0201938
47.3553 8.62568 0.0156184
48.6002 11.2975 0.0187671
43.374 7.47388 0.0142302
57.2534 34.7697 2
41.3991 7.07853 2
45.36 7.99547 2
42.8658 9.41715 2
55.6214 31.5359 2
54.3964 28.4292 2
53.954 20.1486 2
53.5418 22.732 2
53.7131 25.5213 2
46.6665 10.6556 2
47.7442 13.1069 2
51.6373 19.3352 2
50 17.7085 2
48.9284 15.4078 2
54.7083 33.9753 3.97686
53.3577 30.5121 3.97803
52.5002 27.2317 3.97515
52.0882 24.1278 3.97336
52.3665 21.0711 3.97802
41.0139 9.05009 3.98349
44.7245 9.9972 3.98331
42.4689 10.9053 3.98331
46.005 12.7353 3.97933
47.6796 14.5913 3.97811
48.1082 16.9962 3.97674
49.8099 19.6506 3.97651
49.5923 61.7448 0.0174141
50.5653 59.3267 0.0237134
55.478 41.6843 0.022698
54.0575 45.5368 0.0232021
53.2541 49.3064 0.0292111
52.1755 56.483 0.0293712
52.6318 52.8284 0.0341878
48.8483 60.201 2
52.3461 42.6097 2
49.7843 57.6213 2
50.5697 54.414 2
51.6927 47.2405 2
51.1543 50.9229 2
47.9862 43.7795 2
47.9848 58.7404 3.97924
49.9284 45.2485 3.97855
48.5852 55.9114 3.97746
49.0889 52.575 3.97237
49.5836 49.0229 3.97075
45.7777 39.8602 3.88987
46.2205 42.6462 3.92964
46.3424 45.8096 3.99092
43.6098 41.1445 3.83294
41.919 42.0136 3.73454
47.3297 61.0086 0.0166572
46.6182 59.795 2
45.4673 58.7912 3.9818
39.6329 67.7673 0.0148757
41.5467 65.6442 0.0166085
43.1472 63.7257 0.0172214
44.4843 61.8341 0.0171794
45.7666 60.6294 0.0182426
41.6006 63.8191 2
37.5635 67.7502 2
39.6479 65.6125 2
44.6233 60.2919 2
42.9513 62.0824 2
41.7542 62.4925 3.9816
42.4805 59.9806 3.98231
39.8943 63.5526 3.9817
37.6424 65.5109 3.98283
35.4635 67.6586 3.9848
33.5752 65.3437 3.98285
31.9592 63.3019 3.98277
29.8827 64.7218 3.98407
31.6967 65.1314 2
31.3766 67.1967 3.9851
33.3921 67.4875 2
33.1562 69.7532 3.98816
35.3334 69.9607 2
35.1947 72.3731 3.99238
37.526 70.0499 0.0116296
37.5095 72.4592 2
37.5 75 4
39.818 72.4042 0.00744691
39.9526 74.9197 2
42.3947 74.6792 0
39.6242 4.71561 3.9896
41.7365 4.96793 2
42.0626 2.71774 3.99322
43.8519 5.35929 0.0110254
44.3265 3.10992 2
44.8158 0.721173 4
46.5711 3.64715 0.00724995
47.2057 1.27779 2
49.554 1.99015 0
57.8719 40.6451 0.0224887
59.6544 37.5645 0.0226621
54.9187 39.7019 0.0230124
49.3899 41.3153 2
56.6578 37.8888 2
52.9416 39.3058 2
53.7865 36.6318 3.97715
47.2999 40.3882 3.93674
50.3147 38.509 3.9921
37.5165 6.67356 3.98668
39.4426 6.80191 2
39.2115 8.69257 3.98423
35.9423 8.49247 3.98447
57.2554 34.7694 0.0224053
55.6214 31.5356 0.0218643
54.4007 28.4279 0.0215477
53.9537 20.149 0.0255747
53.5413 22.7346 0.0395547
53.7153 25.5199 0.026771
51.6375 19.3361 0.0180525
50.0007 17.7095 0.0214598
48.9293 15.4082 0.0221398
45.3601 7.99576 0.0142517
47.7448 13.1075 0.0189192
46.6668 10.6568 0.018128
41.3992 7.07898 0.0136397
42.866 9.41753 0.0167659
54.7105 33.9745 2
41.0138 9.04983 2
44.7241 9.9971 2
42.4685 10.9053 2
53.353 30.511 2
52.5048 27.2332 2
52.3672 21.0699 2
52.0897 24.1289 2
46.0044 12.7337 2
47.6789 14.5905 2
49.8097 19.6491 2
48.1073 16.9958 2
52.2708 32.8932 3.9802
51.1841 29.1842 3.97741
50.7045 25.7638 3.97264
49.9169 22.234 3.97807
40.5702 11.6101 3.98076
43.8586 11.9207 3.98002
45.8 15.43 3.98027
47.4988 19.2641 3.97702
46.1144 37.4859 3.89728
48.8485 60.2012 0.0192271
49.7845 57.6202 0.0235379
52.3406 42.6102 0.0207636
51.6899 47.2412 0.0240599
51.1523 50.9238 0.034886
50.5692 54.4132 0.0321852
47.9809 43.7664 0.00884921
47.9844 58.7412 2
49.9351 45.2527 2
48.5847 55.9135 2
49.0893 52.5775 2
49.5868 49.0225 2
45.8051 39.8684 2
46.2402 42.6613 2
46.3424 45.8039 2
43.6331 41.1641 2
41.931 42.023 2
46.834 57.3425 3.98277
44.3566 39.4257 3.83325
42.2661 40.8763 3.77477
47.9504 47.2135 3.97636
47.1457 54.2318 3.97502
47.5268 50.7295 3.966
44.69 47.3939 3.98457
44.8809 41.9477 3.88733
44.813 44.5437 3.94382
42.4635 42.6596 3.84207
40.8249 42.3536 3.76748
46.6187 59.7946 0.0173313
45.4667 58.7916 2
43.8737 57.7149 3.98447
37.5635 67.7495 0.0150407
39.648 65.6118 0.0174378
41.6006 63.8187 0.0172384
42.9513 62.0817 0.0186596
44.6234 60.2913 0.0176197
35.4635 67.6596 2
41.7542 62.493 2
39.8942 63.5531 2
37.6424 65.5117 2
42.4807 59.9812 2
40.6236 61.6493 3.9818
40.4429 58.2086 3.98141
37.8374 63.2139 3.98089
35.573 65.4326 3.98255
33.5753 65.3443 2
31.959 63.3026 2
33.6289 63.3413 3.98222
30.378 62.8608 3.98309
32.1228 62.0078 3.9833
26.8679 61.5037 3.98234
28.0615 64.1496 3.98371
29.8827 64.7226 2
29.4059 66.7605 3.98532
31.6967 65.1306 0.0166387
31.3767 67.1975 2
31.0135 69.4182 3.98814
33.3921 67.4868 0.0151481
33.1562 69.7539 2
32.8916 72.1473 3.99243
35.3334 69.9599 0.0116495
35.1947 72.3736 2
35.0474 74.9194 4
37.5095 72.4588 0.00755827
37.5 75 2
39.9526 74.9197 0
35.6211 6.72461 3.98635
37.5235 4.61515 3.98965
39.6242 4.7151 2
39.7889 2.47417 3.99327
41.7365 4.9684 0.0106535
42.0627 2.71744 2
42.3946 0.32156 4
44.3263 3.11021 0.0069008
44.8159 0.72056 2
47.2057 1.27793 0
49.3737 41.3121 0.0108155
56.6595 37.8884 0.0220294
52.9398 39.3046 0.0180244
47.3167 40.4017 2
50.3275 38.5068 2
53.7933 36.6331 2
51.1085 35.5749 3.97889
47.9582 37.7408 3.95022
45.7784 35.1329 3.8906
43.6159 33.8458 3.83007
41.9277 32.9866 3.7314
37.4584 8.53415 3.98463
37.5164 6.67286 2
39.4426 6.80243 0.0135395
39.2114 8.69202 2
38.9771 10.127 3.98332
35.8991 9.77331 3.9828
34.1509 8.82203 3.98402
35.942 8.4917 2
54.7083 33.9753 0.0231405
53.3577 30.5121 0.0219664
52.5002 27.2317 0.0248535
52.3665 21.0711 0.0219808
52.0882 24.1278 0.0266395
49.8099 19.6506 0.0234857
48.1082 16.9962 0.0232643
47.6796 14.5913 0.0218866
44.7245 9.9972 0.0166911
46.005 12.7353 0.0206685
41.0139 9.05009 0.0165122
42.4689 10.9053 0.0166895
52.2749 32.8944 2
40.5703 11.6106 2
43.8577 11.9209 2
51.1967 29.1848 2
50.7073 25.7661 2
49.9175 22.2324 2
45.7991 15.428 2
47.4982 19.2636 2
49.8034 31.425 3.97953
49.1763 27.5322 3.97571
49.3478 24.4481 3.98478
47.1721 22.0017 3.97394
38.303 12.7374 3.97975
42.1017 14.3101 3.9784
44.7973 18.4766 3.97716
44.6542 37.4945 3.83608
46.1546 37.4934 2
47.9848 58.7404 0.0207581
48.5852 55.9114 0.0225437
49.9284 45.2485 0.0214484
49.5836 49.0229 0.029251
49.0889 52.575 0.0276273
45.7777 39.8602 0.110128
46.2205 42.6462 0.0703595
46.3424 45.8096 0.00907872
43.6098 41.1445 0.167056
41.919 42.0136 0.265458
46.8331 57.3435 2
44.3758 39.4395 2
42.2584 40.878 2
47.9506 47.2161 2
47.1453 54.2364 2
47.5283 50.7319 2
44.6945 47.3712 2
44.901 41.9625 2
44.8285 44.5608 2
42.496 42.6835 2
40.8249 42.3542 2
45.3887 55.9338 3.98922
42.5873 39.2713 3.78703
40.7243 40.7926 3.85363
46.0057 48.8955 3.98364
45.5018 52.5243 3.98169
43.365 48.4204 4.0014
43.3074 46.0946 3.93293
43.5379 43.7417 3.88367
41.0314 43.8129 3.83637
39.2811 42.6988 3.78221
45.4673 58.7912 0.0182002
43.8732 57.7149 2
42.1031 56.3376 3.98702
35.4635 67.6586 0.0151958
37.6424 65.5109 0.0171654
39.8943 63.5526 0.0182998
41.7542 62.4925 0.018399
42.4805 59.9806 0.0176909
35.5731 65.4338 2
40.6236 61.65 2
37.8372 63.2145 2
40.4429 58.2099 2
38.9219 56.5004 3.98857
38.2504 60.3309 3.9806
35.6071 63.2069 3.98081
33.5752 65.3437 0.0171463
31.9592 63.3019 0.0172344
33.6287 63.342 2
30.3778 62.8614 2
32.1227 62.0085 2
28.6806 62.2054 3.98275
33.3457 61.5198 3.98239
31.066 61.225 3.98272
27.5676 59.5997 3.98147
23.792 59.0864 3.98065
25.0337 60.8762 3.98129
26.868 61.5043 2
26.2281 63.4819 3.9837
28.0617 64.1503 2
27.4624 66.1845 3.98537
29.8827 64.7218 0.0159303
29.406 66.7612 2
28.9056 68.9438 3.9881
31.3766 67.1967 0.0149016
31.0134 69.4189 2
30.6139 71.7782 3.99246
33.1562 69.7532 0.0118365
32.8915 72.1477 2
32.6054 74.6784 4
35.1947 72.3731 0.00761617
35.0474 74.9197 2
37.5 75 0
33.7238 6.97927 3.98589
35.4351 4.68537 3.98946
35.621 6.72397 2
37.5143 2.38679 3.99327
37.5235 4.61464 2
39.6242 4.71561 0.0104005
39.789 2.47385 2
39.9526 0.0806499 4
42.0626 2.71774 0.00677766
42.3947 0.320817 2
44.8158 0.721173 0
44.3712 35.5628 3.82812
42.2768 34.1158 3.77046
47.2999 40.3882 0.0632601
50.3147 38.509 0.0078988
53.7865 36.6318 0.0228518
47.9709 37.7485 2
51.1197 35.5753 2
45.7991 35.1163 2
43.6419 33.8271 2
41.9386 32.9772 2
48.133 34.3063 3.97385
44.8875 33.0413 3.87893
42.4786 32.3413 3.8377
40.8356 32.649 3.76545
37.3114 10.6307 3.98195
37.4582 8.53316 2
37.5165 6.67356 0.0133213
39.2115 8.69257 0.0157733
38.9772 10.1263 2
34.7544 10.3796 3.98201
35.8991 9.77252 2
32.3777 9.36895 3.98324
34.1506 8.82145 2
35.9423 8.49247 0.0155271
52.2708 32.8932 0.0198014
51.1841 29.1842 0.0225874
50.7045 25.7638 0.027362
49.9169 22.234 0.0219269
47.4988 19.2641 0.0229795
45.8 15.43 0.0197343
43.8586 11.9207 0.0199785
40.5702 11.6101 0.0192378
49.8126 31.4204 2
38.3028 12.7364 2
42.1011 14.3122 2
49.1794 27.5342 2
49.3498 24.4463 2
47.1715 21.9997 2
44.7966 18.4816 2
47.6448 29.5279 3.98983
47.0431 25.1909 3.98343
44.2801 21.3699 3.97579
36.5828 12.9337 3.97981
38.6819 14.8114 3.97835
41.748 17.8529 3.97772
42.7064 37.487 3.79466
44.6695 37.4949 2
46.1144 37.4859 0.102717
46.834 57.3425 0.0172258
47.1457 54.2318 0.0249821
47.9504 47.2135 0.0236367
47.5268 50.7295 0.0339986
44.3566 39.4257 0.166751
44.8809 41.9477 0.112669
44.813 44.5437 0.0561801
44.69 47.3939 0.0154339
42.4635 42.6596 0.157931
42.2661 40.8763 0.225227
40.8249 42.3536 0.232523
45.3881 55.9339 2
42.5828 39.2693 2
40.7148 40.7849 2
46.0055 48.8995 2
45.5028 52.5291 2
43.3676 48.4392 2
43.3336 46.1207 2
43.5587 43.7627 2
41.0541 43.8366 2
39.2736 42.6903 2
43.7244 54.4437 3.99707
40.8229 39.1655 3.88513
39.1541 40.8775 3.88232
43.6403 50.4752 4.00213
41.9091 47.6412 3.96632
41.8367 45.1655 3.88845
39.3458 44.534 3.8468
37.4969 42.8091 3.80054
43.8737 57.7149 0.0155292
42.1023 56.338 2
40.413 54.9444 3.99078
35.573 65.4326 0.0174468
37.8374 63.2139 0.0191094
40.6236 61.6493 0.0182006
40.4429 58.2086 0.0185918
35.607 63.208 2
38.2503 60.3318 2
38.922 56.5022 2
37.9973 55.2524 3.98644
36.9328 57.6289 3.97948
35.3637 60.9169 3.98216
33.6289 63.3413 0.0177752
30.378 62.8608 0.0169129
32.1228 62.0078 0.0166993
33.3455 61.5207 2
28.6805 62.206 2
31.066 61.2256 2
29.4025 60.2934 3.98179
32.3566 59.7522 3.98584
28.0235 58.3799 3.98631
27.5677 59.6002 2
25.3788 58.5982 3.97933
22.7578 58.2427 3.97342
23.3998 60.3554 3.97962
23.7921 59.0872 2
25.0338 60.8769 2
24.4308 62.7743 3.98318
26.8679 61.5037 0.0176649
26.2283 63.4826 2
25.5464 65.4944 3.98529
28.0615 64.1496 0.0162947
27.4625 66.1851 2
26.8351 68.3322 3.98813
29.4059 66.7605 0.0146819
28.9056 68.9444 2
28.3689 71.2634 3.99256
31.0135 69.4182 0.0118588
30.6137 71.7786 2
30.1842 74.2788 4
32.8916 72.1473 0.00757401
32.6053 74.6792 2
35.0474 74.9194 0
31.7882 7.41924 3.98537
33.3472 4.92455 3.98917
33.7236 6.97864 2
35.2444 2.46287 3.99327
35.4351 4.68488 2
35.6211 6.72461 0.0136531
37.5 0 4
37.5143 2.38649 2
37.5235 4.61515 0.0103497
39.7889 2.47417 0.00673303
39.9526 0.0802889 2
42.3946 0.32156 0
42.5906 35.7102 3.78828
44.3845 35.5509 2
40.7333 34.2056 3.85189
42.268 34.116 2
47.9582 37.7408 0.0497769
51.1085 35.5749 0.0211145
45.7784 35.1329 0.109403
43.6159 33.8458 0.169926
41.9277 32.9866 0.268601
48.1486 34.2868 2
44.9086 33.0284 2
42.5038 32.3202 2
40.8348 32.6477 2
46.1597 31.5667 3.94962
43.5401 31.258 3.88207
41.0431 31.1903 3.83607
39.2902 32.3068 3.78124
35.6932 11.7764 3.98075
37.3116 10.6295 2
37.4584 8.53415 0.0153703
38.9771 10.127 0.0166801
33.0983 11.2168 3.98069
34.7544 10.3788 2
35.8991 9.77331 0.0171964
30.4823 10.0172 3.98258
32.3774 9.3685 2
34.1509 8.82203 0.0159765
49.8034 31.425 0.0204736
49.1763 27.5322 0.0242891
49.3478 24.4481 0.0152184
47.1721 22.0017 0.0260563
44.7973 18.4766 0.0228449
42.1017 14.3101 0.0216044
38.303 12.7374 0.0202546
36.5826 12.9328 2
47.6469 29.5106 2
38.6811 14.8108 2
41.747 17.8577 2
47.0467 25.1895 2
44.2792 21.3579 2
45.4514 27.6617 4.00158
43.7667 24.0963 4.00278
41.3365 20.7475 3.97876
35.7728 14.7618 3.97844
38.6817 17.6027 3.97757
40.8693 37.4807 3.89495
42.7104 37.4883 2
44.6542 37.4945 0.163918
45.3887 55.9338 0.0107832
45.5018 52.5243 0.0183074
46.0057 48.8955 0.016355
42.5873 39.2713 0.21297
43.5379 43.7417 0.116328
43.3074 46.0946 0.06707
43.365 48.4204 -0.0013971
41.0314 43.8129 0.163634
40.7243 40.7926 0.146367
39.2811 42.6988 0.217794
43.7238 54.4443 2
40.8129 39.1599 2
39.1419 40.8649 2
43.6403 50.4906 2
41.8993 47.6565 2
41.8583 45.1872 2
37.498 42.7974 2
39.3632 44.553 2
41.8647 53.0163 3.99353
39.1687 39.1649 3.91803
37.4968 40.9176 3.89886
35.7181 42.7001 3.78209
40.8747 49.6961 4.00031
39.8057 46.0619 3.87093
37.4955 44.7583 3.83408
42.1031 56.3376 0.0129768
40.4126 54.9445 2
38.7267 53.8648 3.99599
35.6071 63.2069 0.0191937
38.2504 60.3309 0.0193989
38.9219 56.5004 0.0114292
35.3635 60.9178 2
36.9327 57.6302 2
37.9975 55.2533 2
36.3192 55.3782 3.98819
34.4876 58.529 3.98648
33.3457 61.5198 0.0176053
28.6806 62.2054 0.0172454
31.066 61.225 0.0172771
32.3565 59.753 2
29.4025 60.2939 2
30.3001 57.825 3.98561
28.0235 58.3804 2
26.9496 56.8305 3.97897
27.5676 59.5997 0.0185318
25.3789 58.599 2
23.8437 56.8008 3.9716
21.3365 57.3972 3.97276
21.9933 59.6259 3.97872
22.7577 58.2442 2
22.7348 62.0253 3.98188
23.3999 60.3562 2
23.792 59.0864 0.0193488
25.0337 60.8762 0.0187056
24.431 62.775 2
23.6803 64.7126 3.985
26.2281 63.4819 0.0162954
25.5465 65.4951 2
24.8073 67.5934 3.98807
27.4624 66.1845 0.0146257
26.8351 68.3328 2
26.164 70.6042 3.99265
28.9056 68.9438 0.0119016
28.3686 71.2637 2
27.7943 73.7221 4
30.6139 71.7782 0.00753947
30.1841 74.2794 2
32.6054 74.6784 0
29.8107 7.99266 3.98469
31.2524 5.33168 3.98859
31.788 7.41864 2
32.9801 2.70107 3.99309
33.3471 4.92399 2
33.7238 6.97927 0.0141149
35.0474 0.080333 4
35.2444 2.46259 2
35.4351 4.68537 0.010537
37.5 0 2
37.5143 2.38679 0.00673298
39.9526 0.0806499 0
40.824 35.8087 3.88675
42.5854 35.7134 2
44.3712 35.5628 0.171876
28.543 10.6929 3.98212
39.161 34.1267 3.8817
40.7218 34.2131 2
42.2768 34.1158 0.22954
48.133 34.3063 0.0261526
44.8875 33.0413 0.121069
42.4786 32.3413 0.162301
40.8356 32.649 0.234551
46.1819 31.5573 2
43.554 31.2404 2
41.0646 31.1656 2
39.2834 32.3145 2
44.3339 29.7648 3.94018
41.8545 29.8387 3.89071
39.3668 30.4667 3.84729
37.5079 32.1994 3.80023
34.0933 12.9354 3.97966
35.6932 11.7754 2
37.3114 10.6307 0.0180497
31.1861 11.9853 3.98095
33.0984 11.2163 2
34.7544 10.3796 0.0179926
30.4821 10.0166 2
32.3777 9.36895 0.016761
47.6448 29.5279 0.010167
47.0431 25.1909 0.0165729
36.5828 12.9337 0.0201899
44.2801 21.3699 0.0242139
41.748 17.8529 0.0222754
38.6819 14.8114 0.0216452
35.7724 14.7613 2
45.4541 27.6604 2
38.6799 17.6043 2
41.3348 20.7373 2
43.7682 24.087 2
33.6086 15.8793 3.97809
42.9956 26.5029 3.99695
40.8982 23.3163 4.00571
38.4172 20.3636 3.9761
35.8488 17.5168 3.97757
39.1824 37.4836 3.92764
40.8584 37.4796 2
42.7064 37.487 0.205337
43.7244 54.4437 0.00293323
43.6403 50.4752 -0.00212887
40.8229 39.1655 0.114867
41.8367 45.1655 0.111553
41.9091 47.6412 0.0336764
39.3458 44.534 0.1532
39.1541 40.8775 0.117683
37.4969 42.8091 0.199461
41.867 53.0155 2
39.1523 39.1636 2
37.4961 40.9034 2
40.8898 49.7064 2
35.7239 42.6927 2
39.8297 46.0866 2
37.4924 44.7712 2
39.8002 51.9165 3.99634
37.4956 39.1832 3.93575
35.8382 40.8885 3.88106
34.1693 42.3528 3.76667
35.6337 44.5404 3.845
38.6787 48.7112 3.98033
37.4884 46.3705 3.87568
40.413 54.9444 0.00922411
38.7272 53.8639 2
36.7266 53.2049 4.00296
35.3637 60.9169 0.0178394
36.9328 57.6289 0.0205194
37.9973 55.2524 0.0135607
34.4873 58.5299 2
36.3193 55.3819 2
33.2323 55.5136 3.99108
32.3566 59.7522 0.0141565
29.4025 60.2934 0.0182129
30.3002 57.8257 2
28.7 55.3203 3.97913
28.0235 58.3799 0.0136919
26.9492 56.831 2
25.3213 55.1387 3.97402
21.8186 55.3438 3.96847
25.3788 58.5982 0.0206701
23.8432 56.8029 2
20.2221 57.0256 3.9781
20.6458 58.7813 3.97642
21.3361 57.3989 2
21.1656 61.1738 3.98022
21.9932 59.6271 2
22.7578 58.2427 0.0265799
21.8938 63.8404 3.9843
22.735 62.0262 2
23.3998 60.3554 0.0203811
24.4308 62.7743 0.0168241
23.6804 64.7133 2
22.8355 66.7369 3.98795
25.5464 65.4944 0.0147127
24.8073 67.5941 2
24.0083 69.8053 3.99271
26.8351 68.3322 0.0118696
26.1638 70.6044 2
25.446 73.0099 4
28.3689 71.2634 0.00743565
27.7943 73.7222 2
30.1842 74.2788 0
27.8205 8.65247 3.98435
29.1544 5.87745 3.98801
29.8105 7.99195 2
30.7252 3.09827 3.99281
31.2522 5.33118 2
31.7882 7.41924 0.0146258
32.6053 0.320823 4
32.98 2.70075 2
33.3472 4.92455 0.0108316
35.0474 0.0802903 2
35.2444 2.46287 0.00672522
37.5 0 0
39.1774 35.8146 3.91655
40.8117 35.8133 2
42.5906 35.7102 0.211719
28.543 10.6924 2
26.6217 11.3883 3.98234
29.225 12.6421 3.98173
37.5024 34.0913 3.89725
39.146 34.1396 2
40.7333 34.2056 0.148106
46.1597 31.5667 0.0503806
43.5401 31.258 0.117931
41.0431 31.1903 0.16393
39.2902 32.3068 0.21876
44.3531 29.7487 2
41.8718 29.8204 2
39.3812 30.4464 2
37.5102 32.2119 2
42.3354 28.4095 3.92222
39.8553 28.9363 3.8896
37.5234 30.2426 3.83399
35.7302 32.3051 3.78105
31.9151 14.4812 3.97996
34.0934 12.9349 2
35.6932 11.7764 0.0192517
31.1863 11.9848 2
33.0983 11.2168 0.0193132
30.4823 10.0172 0.0174168
45.4514 27.6617 -0.00158048
43.7667 24.0963 -0.00278175
35.7728 14.7618 0.0215616
41.3365 20.7475 0.0212444
38.6817 17.6027 0.022431
33.6078 15.8792 2
35.8471 17.517 2
43.0017 26.5007 2
38.418 20.3581 2
40.897 23.3039 2
33.5509 17.3908 3.97987
40.3809 25.6573 4.00278
38.0702 22.9065 3.99445
35.5812 20.0905 3.97869
37.4957 37.4949 3.94819
39.1661 37.4841 2
40.8693 37.4807 0.105054
41.8647 53.0163 0.00646561
40.8747 49.6961 -0.000306305
39.1687 39.1649 0.0819658
39.8057 46.0619 0.129073
37.4955 44.7583 0.16592
37.4968 40.9176 0.101138
35.7181 42.7001 0.217914
39.8085 51.9166 2
37.4946 39.1788 2
35.851 40.8761 2
38.6812 48.7441 2
34.1696 42.3539 2
35.6186 44.5602 2
37.4882 46.3948 2
37.639 50.9963 4.00976
35.8253 39.1829 3.91799
34.2708 40.8034 3.85329
33.0696 42.0148 3.73289
33.9518 43.8036 3.83513
35.1504 46.0429 3.88189
36.8659 48.3495 3.94997
38.7267 53.8648 0.0040077
36.7264 53.2093 2
34.3685 52.4727 3.99439
34.4876 58.529 0.0135241
36.3192 55.3782 0.0118065
33.2319 55.5142 2
30.5298 53.3694 3.97935
30.3001 57.825 0.0143891
28.6996 55.3215 2
26.8998 53.431 3.97331
26.9496 56.8305 0.0210315
25.3208 55.142 2
23.5931 53.4724 3.96598
20.489 53.2133 3.96098
19.9388 55.828 3.97154
21.8175 55.3454 2
23.8437 56.8008 0.0284003
19.4395 57.8867 3.97559
20.2215 57.0271 2
19.7061 60.2052 3.97776
20.6455 58.7823 2
21.3365 57.3972 0.0272365
20.2064 62.8609 3.98246
21.1657 61.175 2
21.9933 59.6259 0.0212834
20.9369 65.7659 3.98763
21.8939 63.8412 2
22.7348 62.0253 0.0181226
23.6803 64.7126 0.0150029
22.8356 66.7376 2
21.9108 68.8723 3.9926
24.8073 67.5934 0.0119284
24.0079 69.8055 2
23.1494 72.1454 4
26.164 70.6042 0.0073457
25.446 73.0099 2
27.7943 73.7221 0
25.8597 9.38086 3.9839
27.0691 6.54162 3.98735
27.8203 8.65187 2
28.4873 3.64427 3.99252
29.1541 5.87688 2
29.8107 7.99266 0.0153098
30.1841 0.720592 4
30.725 3.09799 2
31.2524 5.33168 0.0114131
32.6053 0.320817 2
32.9801 2.70107 0.00691101
35.0474 0.080333 0
37.4977 35.812 3.93581
39.1584 35.8165 2
40.824 35.8087 0.113254
24.7765 12.0713 3.98266
23.7512 14.3575 3.98175
28.543 10.6929 0.0178767
26.6217 11.3878 2
29.2252 12.6415 2
27.2911 13.3747 3.9822
29.7804 14.2022 3.98124
35.8477 34.1216 3.88111
37.5 34.1057 2
39.161 34.1267 0.118303
37.5079 32.1994 0.199765
44.3339 29.7648 0.0598181
41.8545 29.8387 0.109294
39.3668 30.4667 0.152715
42.3588 28.3862 2
39.8693 28.9087 2
37.5219 30.2327 2
35.7382 32.3127 2
40.0415 27.5686 3.91793
37.5313 28.6282 3.88329
35.6646 30.4722 3.84846
34.1894 32.6497 3.76614
30.9266 16.839 3.98033
31.915 14.4811 2
34.0933 12.9354 0.0203428
31.1861 11.9853 0.0190506
42.9956 26.5029 0.00304654
40.8982 23.3163 -0.00570702
33.6086 15.8793 0.0219119
35.8488 17.5168 0.0224292
38.4172 20.3636 0.0238993
33.5497 17.3916 2
35.5829 20.0951 2
40.3831 25.6457 2
38.0664 22.9005 2
32.8611 19.7995 3.98084
37.7979 25.2192 4.00907
35.1957 22.6608 3.98823
35.8149 37.5006 3.92957
37.4939 37.4936 2
39.1824 37.4836 0.0723641
39.8002 51.9165 0.00365788
38.6787 48.7112 0.019674
37.4956 39.1832 0.064252
37.4884 46.3705 0.124321
35.6337 44.5404 0.155002
35.8382 40.8885 0.118937
34.1693 42.3528 0.233329
37.648 51.0099 2
35.8406 39.1795 2
34.2813 40.7961 2
36.8587 48.3727 2
33.0587 42.025 2
33.9327 43.8262 2
35.1359 46.0658 2
35.4836 50.1305 4.00196
34.1798 39.1842 3.88879
32.7168 40.884 3.77262
32.5212 42.6615 3.84183
33.1515 45.1603 3.88848
34.2781 47.4186 3.92737
36.7266 53.2049 -0.00295569
34.3687 52.4783 2
32.0267 51.1798 4.0021
33.2323 55.5136 0.00892181
30.5293 53.3741 2
28.4498 51.5835 3.9774
28.7 55.3203 0.0208715
26.8988 53.4338 2
25.106 51.735 3.96242
25.3213 55.1387 0.0259775
23.5921 53.4749 2
21.9969 51.7933 3.96115
19.2283 51.6275 3.96463
18.9356 54.3009 3.96372
20.4881 53.2126 2
18.4505 56.7189 3.97518
19.9379 55.8296 2
21.8186 55.3438 0.0315262
18.3692 59.1079 3.97494
19.439 57.8877 2
20.2221 57.0256 0.0218974
18.618 61.7664 3.97966
19.7061 60.2065 2
20.6458 58.7813 0.023577
19.1259 64.6763 3.98668
20.2065 62.8621 2
21.1656 61.1738 0.0197834
19.8848 67.8089 3.9925
20.9369 65.7666 2
21.8938 63.8404 0.0156983
22.8355 66.7369 0.0120464
21.9104 68.8724 2
20.9142 71.1327 4
24.0083 69.8053 0.00728568
23.1494 72.1455 2
25.446 73.0099 0
23.0958 12.7863 3.98231
23.9721 10.1677 3.98367
25.0229 7.31201 3.98681
25.8596 9.38034 2
26.279 4.32859 3.99216
27.0688 6.54114 2
27.8205 8.65247 0.0156488
27.7943 1.27781 4
28.487 3.64399 2
29.1544 5.87745 0.0119921
30.1841 0.720551 2
30.7252 3.09827 0.00718838
32.6053 0.320823 0
35.8254 35.8206 3.91816
37.4949 35.8159 2
39.1774 35.8146 0.0834483
24.7767 12.0711 2
23.7518 14.3573 2
22.4801 15.0344 3.98129
25.3573 13.9065 3.98169
24.0248 15.6205 3.98087
26.6217 11.3883 0.0176554
29.225 12.6421 0.0182657
27.2915 13.3743 2
29.7805 14.2018 2
28.3566 15.9764 3.98155
34.2798 34.2058 3.85285
35.8585 34.1344 2
37.5024 34.0913 0.102755
35.7302 32.3051 0.218951
37.5234 30.2426 0.166006
42.3354 28.4095 0.0777821
39.8553 28.9363 0.1104
40.052 27.5488 2
37.5353 28.6038 2
35.6419 30.4463 2
34.1842 32.6496 2
37.6137 27.2658 3.93241
35.1922 28.9434 3.88741
33.9701 31.1975 3.83552
33.0961 32.9864 3.73349
30.2078 19.3428 3.98521
30.926 16.8395 2
31.9151 14.4812 0.020042
40.3809 25.6573 -0.00277587
38.0702 22.9065 0.00554673
33.5509 17.3908 0.0201325
35.5812 20.0905 0.0213094
32.8619 19.8007 2
35.1942 22.6569 2
37.7823 25.2113 2
32.3097 22.4212 3.99168
34.9967 25.2069 4.00468
34.1271 37.5027 3.89661
35.8291 37.4994 2
37.4957 37.4949 0.0518129
37.639 50.9963 -0.00976243
36.8659 48.3495 0.0500293
35.8253 39.1829 0.0820148
35.1504 46.0429 0.118115
33.9518 43.8036 0.164873
34.2708 40.8034 0.146711
33.0696 42.0148 0.267108
35.4808 50.147 2
34.1965 39.179 2
32.7242 40.8846 2
34.2702 47.4533 2
32.4999 42.6811 2
33.1364 45.1807 2
33.2747 49.1235 4.00093
32.3999 39.2852 3.79053
31.3696 41.1509 3.83201
31.4588 43.743 3.8865
32.284 46.3414 3.92581
34.3685 52.4727 0.00560885
32.025 51.1879 2
29.8968 49.6997 3.99027
30.5298 53.3694 0.0206537
28.4479 51.5834 2
26.546 49.9716 3.97159
26.8998 53.431 0.026693
25.1042 51.7331 2
23.3819 50.1811 3.96999
23.5931 53.4724 0.0340171
21.9958 51.792 2
20.4995 50.3066 3.96773
18.0182 50.3235 3.96879
17.8559 52.7853 3.96344
19.2268 51.6269 2
17.4454 55.3334 3.96676
18.9345 54.3007 2
20.489 53.2133 0.0390244
17.1368 57.8698 3.97464
18.4496 56.7198 2
19.9388 55.828 0.028461
17.1366 60.5473 3.97672
18.369 59.1091 2
19.4395 57.8867 0.0244146
17.4067 63.468 3.98402
18.6181 61.7677 2
19.7061 60.2052 0.0222386
17.9412 66.6174 3.99224
19.1259 64.6773 2
20.2064 62.8609 0.0175445
18.75 69.9759 4
19.8844 67.809 2
20.9369 65.7659 0.0123734
21.9108 68.8723 0.00739761
20.9142 71.1327 2
23.1494 72.1454 0
21.5869 13.6068 3.98176
22.1902 11.0272 3.98322
23.0963 12.7862 2
23.0407 8.17764 3.98645
23.9721 10.1673 2
24.1165 5.14345 3.99186
25.0225 7.31153 2
25.8597 9.38086 0.016103
25.446 1.99014 4
26.2786 4.3284 2
27.0691 6.54162 0.0126474
27.7943 1.27778 2
28.4873 3.64427 0.00747642
30.1841 0.720592 0
34.1731 35.8218 3.88648
35.8388 35.8216 2
37.4977 35.812 0.0641915
21.3056 15.8303 3.9814
24.7765 12.0713 0.0173378
23.7512 14.3575 0.0182543
25.3578 13.9063 2
22.4808 15.0343 2
24.0255 15.6205 2
23.2644 16.2526 3.98019
25.3803 16.0889 3.98128
27.2911 13.3747 0.017804
29.7804 14.2022 0.0187618
28.3569 15.9766 2
27.4401 18.7998 3.9839
32.7374 34.1174 3.77049
34.2955 34.2147 2
35.8477 34.1216 0.11889
34.1894 32.6497 0.233857
35.6646 30.4722 0.151535
37.5313 28.6282 0.116706
40.0415 27.5686 0.0820699
37.6144 27.2356 2
33.0814 32.9779 2
35.1799 28.9202 2
33.9504 31.168 2
35.0726 27.3944 3.9352
33.1752 29.845 3.88461
32.5432 32.3335 3.83231
29.5808 21.9374 3.99726
30.2083 19.3454 2
30.9266 16.839 0.0196686
37.7979 25.2192 -0.00906952
35.1957 22.6608 0.0117669
32.8611 19.7995 0.0191558
32.3081 22.4202 2
35.0101 25.2 2
31.7355 25.6427 4.00283
32.2807 37.5045 3.79658
34.1429 37.5036 2
35.8149 37.5006 0.0704294
35.4836 50.1305 -0.00196379
34.2781 47.4186 0.0726342
34.1798 39.1842 0.111214
33.1515 45.1603 0.111519
32.5212 42.6615 0.158168
32.7168 40.884 0.227382
33.2688 49.116 2
32.4078 39.2814 2
31.3465 41.166 2
32.2596 46.3658 2
31.4381 43.761 2
31.1999 47.9549 3.99261
30.6204 39.4334 3.82967
30.1052 41.9567 3.88017
30.485 44.9303 3.94063
32.0267 51.1798 -0.00209671
29.8933 49.6988 2
27.9348 48.1656 3.97022
28.4498 51.5835 0.0225967
26.5443 49.97 2
24.7072 48.4549 3.97321
25.106 51.735 0.0375753
23.3814 50.1791 2
21.7217 48.7773 3.97068
21.9969 51.7933 0.0388529
20.498 50.3056 2
19.0807 49.0842 3.9723
16.9243 49.325 3.97219
16.7954 51.401 3.96644
18.0186 50.3228 2
16.4027 53.8645 3.96538
17.8543 52.7851 2
19.2283 51.6275 0.0353718
15.9815 56.4701 3.96935
17.4446 55.3339 2
18.9356 54.3009 0.0362772
15.7509 59.2076 3.97552
17.1364 57.8712 2
18.4505 56.7189 0.0248153
15.788 62.1368 3.98048
17.1366 60.5489 2
18.3692 59.1079 0.0250571
16.0881 65.3 3.9915
17.4066 63.4692 2
18.618 61.7664 0.0203448
16.6661 68.6801 4
17.9406 66.6174 2
19.1259 64.6763 0.0133194
18.75 69.9759 2
19.8848 67.8089 0.00749597
20.9142 71.1327 0
20.2192 14.596 3.98086
21.5873 13.6068 2
20.5294 11.9973 3.98261
21.1435 9.14758 3.98617
22.1903 11.027 2
23.0958 12.7863 0.0176927
22.0156 6.08255 3.99167
23.0404 8.17721 2
23.9721 10.1677 0.0163259
23.1494 2.85457 4
24.1161 5.14331 2
25.0229 7.31201 0.0131891
25.446 1.99012 2
26.279 4.32859 0.0078382
27.7943 1.27781 0
32.4043 35.7185 3.78584
34.1876 35.8283 2
35.8254 35.8206 0.0818399
21.3063 15.8301 2
20.3038 16.9641 3.98186
22.0976 16.6368 3.97907
25.3573 13.9065 0.0183055
22.4801 15.0344 0.018707
24.0248 15.6205 0.0191257
25.3809 16.0889 2
23.2651 16.2525 2
24.2047 18.4546 3.97799
27.0205 21.4605 3.99039
28.3566 15.9764 0.0184464
27.4412 18.8001 2
31.402 33.8561 3.83356
32.7479 34.117 2
34.2798 34.2058 0.147147
33.0961 32.9864 0.266509
33.9701 31.1975 0.164481
35.1922 28.9434 0.112595
37.6137 27.2658 0.0675949
35.0547 27.3603 2
32.5005 32.3147 2
33.1582 29.8177 2
32.5975 28.1212 3.94854
31.4648 31.2654 3.887
28.8386 24.4094 3.98145
29.578 21.9415 2
30.2078 19.3428 0.0147873
34.9967 25.2069 -0.00468062
32.3097 22.4212 0.00832196
31.7412 25.6271 2
29.7081 27.3237 3.96657
30.3247 37.4954 3.83579
32.2829 37.5015 2
34.1271 37.5027 0.103386
33.2747 49.1235 -0.000932368
32.284 46.3414 0.0741946
32.3999 39.2852 0.209467
31.4588 43.743 0.113501
31.3696 41.1509 0.167988
31.1963 47.9577 2
30.5992 39.4468 2
30.0849 41.9704 2
30.4657 44.9465 2
29.2666 46.5561 4.00128
29.2024 39.8537 3.8898
28.8197 43.1548 3.94271
29.8968 49.6997 0.00972685
27.9306 48.1618 2
26.0326 46.638 3.9753
26.546 49.9716 0.0284109
24.707 48.4524 2
22.8932 47.0615 3.97473
23.3819 50.1811 0.030013
21.7215 48.776 2
20.0489 47.6082 3.97719
20.4995 50.3066 0.0322732
19.0817 49.0832 2
17.7125 48.1714 3.97587
16.1695 48.6772 3.97456
16.9253 49.3243 2
15.8704 50.1642 3.96931
15.3898 52.4107 3.96635
16.7947 51.4006 2
18.0182 50.3235 0.031209
14.8767 54.9708 3.96606
16.4023 53.8644 2
17.8559 52.7853 0.036559
14.4618 57.7358 3.97242
15.9811 56.4711 2
17.4454 55.3334 0.0332351
14.2666 60.6903 3.97908
15.7508 59.2092 2
17.1368 57.8698 0.0253628
14.3329 63.8589 3.98948
15.7878 62.1381 2
17.1366 60.5473 0.0232779
14.6715 67.2507 4
16.0874 65.2997 2
17.4067 63.468 0.015984
16.6661 68.6801 2
17.9412 66.6174 0.00775696
18.75 69.9759 0
18.9334 15.7831 3.9805
20.2197 14.596 2
18.9793 13.1083 3.98163
21.5869 13.6068 0.0182413
20.5298 11.9972 2
19.3427 10.2355 3.98573
19.9902 7.14721 3.99161
21.1434 9.14729 2
22.1902 11.0272 0.0167755
20.9142 3.86727 4
22.015 6.08256 2
23.0407 8.17764 0.013548
23.1494 2.85451 2
24.1165 5.14345 0.00814109
25.446 1.99014 0
30.6375 35.5773 3.8327
32.4134 35.72 2
34.1731 35.8218 0.113525
21.3056 15.8303 0.018605
22.0983 16.6368 2
20.3045 16.9634 2
19.2466 18.4122 3.97791
21.7826 17.8542 3.97988
25.3803 16.0889 0.0187189
23.2644 16.2526 0.0198086
24.2057 18.4546 2
22.2839 19.8998 3.97492
24.6004 21.3302 3.98455
26.4483 23.7268 3.96972
27.0201 21.4603 2
27.4401 18.7998 0.0160959
30.1344 33.0501 3.88515
31.3765 33.824 2
32.7374 34.1174 0.229514
32.5432 32.3335 0.167694
33.1752 29.845 0.11539
35.0726 27.3944 0.0648019
32.5893 28.108 2
31.4565 31.2433 2
30.196 29.5602 3.95911
27.9489 26.5496 3.97836
28.8391 24.4197 2
29.5808 21.9374 0.00274421
31.7355 25.6427 -0.00283145
29.7061 27.2887 2
28.8645 37.5121 3.89785
30.3163 37.4989 2
32.2807 37.5045 0.203419
31.1999 47.9549 0.00738504
30.485 44.9303 0.0593672
30.6204 39.4334 0.17033
30.1052 41.9567 0.119832
29.2634 46.5711 2
29.1802 39.8724 2
28.7941 43.1723 2
27.401 44.8514 3.98262
26.9745 40.5839 3.96445
27.9348 48.1656 0.0297773
26.0292 46.6399 2
24.1198 45.193 3.97648
24.7072 48.4549 0.026793
22.8937 47.0598 2
21.0208 45.8805 3.97884
21.7217 48.7773 0.0293191
20.0509 47.607 2
18.3819 46.7291 3.97796
19.0807 49.0842 0.0276995
17.7131 48.1706 2
16.3704 47.707 3.97571
16.1702 48.6767 2
15.2139 49.0099 3.97211
16.9243 49.325 0.0278068
15.8712 50.1638 2
14.5024 50.9803 3.96813
13.8369 53.4298 3.9678
15.3901 52.4105 2
16.7954 51.401 0.033555
13.2594 56.162 3.96915
14.8766 54.971 2
16.4027 53.8645 0.0346229
12.8497 59.1237 3.97777
14.4617 57.7369 2
15.9815 56.4701 0.0306473
12.6787 62.3012 3.98712
14.2664 60.6914 2
15.7509 59.2076 0.024479
12.7746 65.6939 4
14.3318 63.8583 2
15.788 62.1368 0.0195182
14.6714 67.2507 2
16.0881 65.3 0.00850388
16.6661 68.6801 0
17.6692 17.1594 3.97754
18.9339 15.7828 2
17.5111 14.3731 3.98045
20.2192 14.596 0.0191401
18.9798 13.1081 2
17.6383 11.4546 3.98475
20.5294 11.9973 0.0173919
19.3428 10.2353 2
18.0504 8.33994 3.99159
18.75 5.0241 4
19.9896 7.14747 2
21.1435 9.14758 0.0138264
20.9142 3.86727 2
22.0156 6.08255 0.00833066
23.1494 2.85457 0
29.2224 35.1305 3.89399
30.6171 35.5607 2
32.4043 35.7185 0.214163
22.0976 16.6368 0.0209258
20.3038 16.9641 0.0181432
21.7833 17.854 2
19.2473 18.4114 2
17.9876 19.9453 3.9738
20.8809 19.385 3.97748
24.2047 18.4546 0.0220098
22.2844 19.8995 2
24.6004 21.3308 2
22.371 21.7271 3.97754
24.7211 23.174 3.97311
25.5307 25.9557 3.96997
26.4519 23.7267 2
27.0205 21.4605 0.009614
28.5083 32.3472 3.93947
30.1095 33.0409 2
31.402 33.8561 0.16644
31.4648 31.2654 0.112997
32.5975 28.1212 0.0514582
30.1816 29.5528 2
27.1235 29.1375 4.00422
27.9452 26.5531 2
28.8386 24.4094 0.0185498
29.7081 27.3237 0.0334257
27.0964 37.3672 3.94669
28.8309 37.5037 2
30.3247 37.4954 0.164207
29.2666 46.5561 -0.00127679
28.8197 43.1548 0.0572923
29.2024 39.8537 0.110201
27.3949 44.8688 2
26.9606 40.601 2
25.42 43.1629 3.98279
24.225 39.4395 3.97865
26.0326 46.638 0.0247001
24.1144 45.1919 2
22.0141 43.9349 3.97895
22.8932 47.0615 0.0252738
21.0208 45.8795 2
19.0649 44.9601 3.97848
20.0489 47.6082 0.0228111
18.3836 46.7283 2
16.676 46.2058 3.97621
17.7125 48.1714 0.0241336
16.371 47.7065 2
14.9537 47.6644 3.97336
16.1695 48.6772 0.0254438
15.2148 49.0095 2
13.7985 49.542 3.96949
15.8704 50.1642 0.0306943
14.5031 50.98 2
12.9024 51.8707 3.96832
12.1472 54.5227 3.97025
13.8373 53.4297 2
15.3898 52.4107 0.0336468
11.5359 57.4552 3.9747
13.2595 56.1626 2
14.8767 54.9708 0.0339364
11.1335 60.6271 3.98539
12.8496 59.1244 2
14.4618 57.7358 0.0275786
10.9835 64.0165 4
12.6775 62.2998 2
14.2666 60.6903 0.0209213
12.7745 65.694 2
14.3329 63.8589 0.0105173
14.6715 67.2507 0
16.4044 18.6548 3.9749
17.6696 17.1587 2
16.1026 15.7828 3.97943
18.9334 15.7831 0.0195041
17.5115 14.3725 2
16.0201 12.8085 3.98285
18.9793 13.1083 0.0183738
17.6385 11.4542 2
16.2017 9.66282 3.99139
19.3427 10.2355 0.014268
18.0498 8.34044 2
16.6661 6.31991 4
18.75 5.02404 2
19.9902 7.14721 0.00838776
20.9142 3.86727 0
27.6198 34.7842 3.93932
29.1975 35.1125 2
30.6375 35.5773 0.167302
16.6947 21.3853 3.96561
21.7826 17.8542 0.0201181
19.2466 18.4122 0.0220949
20.8815 19.3846 2
17.9881 19.9442 2
19.7363 21.5816 3.9758
22.2839 19.8998 0.0250849
24.6004 21.3302 0.0154544
22.3712 21.7271 2
24.7226 23.1732 2
22.8859 24.6082 3.97065
24.6655 28.535 3.97636
25.5286 25.9544 2
26.4483 23.7268 0.0302757
26.3524 31.7138 3.98789
28.4823 32.33 2
30.1344 33.0501 0.114854
30.196 29.5602 0.0408908
27.1373 29.129 2
27.9489 26.5496 0.0216405
24.9231 36.8589 3.98883
27.0748 37.3642 2
28.8645 37.5121 0.102145
27.401 44.8514 0.0173767
26.9745 40.5839 0.0355533
25.407 43.1686 2
24.2125 39.4389 2
23.1235 41.7995 3.97979
21.9432 38.5119 3.9777
24.1198 45.193 0.0235212
22.0137 43.9357 2
19.8604 42.8784 3.97788
21.0208 45.8805 0.021156
19.0655 44.9594 2
17.0268 44.373 3.97672
18.3819 46.7291 0.0220367
16.6768 46.2053 2
14.8865 46.0849 3.97404
16.3704 47.707 0.0242947
14.9543 47.6642 2
13.3088 48.0047 3.9704
15.2139 49.0099 0.0278899
13.7993 49.5418 2
12.1206 50.2503 3.9688
14.5024 50.9803 0.0318726
12.9028 51.8706 2
11.142 52.834 3.97012
10.327 55.7081 3.97408
12.1475 54.5227 2
13.8369 53.4298 0.0321958
9.70056 58.849 3.98299
11.5359 57.4555 2
13.2594 56.162 0.0308487
9.30605 62.2254 4
11.1321 60.6251 2
12.8497 59.1237 0.0222342
10.9835 64.0165 2
12.6787 62.3012 0.0128774
12.7746 65.6939 0
15.1547 20.1927 3.96854
16.4048 18.6539 2
14.7497 17.3064 3.97667
17.6692 17.1594 0.0224609
16.1029 15.7817 2
14.4829 14.2912 3.98132
17.5111 14.3731 0.0195543
16.0203 12.8078 2
14.4446 11.1139 3.9906
17.6383 11.4546 0.0152473
16.201 9.66346 2
14.6715 7.74927 4
18.0504 8.33994 0.00840682
16.6661 6.31988 2
18.75 5.0241 0
25.5761 34.2712 3.99098
27.5987 34.7757 2
29.2224 35.1305 0.106009
17.8749 22.3332 3.97718
15.541 22.9249 3.96976
16.6951 21.3848 2
20.8809 19.385 0.0225155
17.9876 19.9453 0.0262012
19.7367 21.5811 2
19.7055 24.3884 3.96954
22.371 21.7271 0.0224632
24.7211 23.174 0.0268882
22.8866 24.6078 2
22.0339 27.8348 3.97148
23.9121 31.1984 3.97526
24.6736 28.536 2
25.5307 25.9557 0.0300312
26.3417 31.6975 2
28.5083 32.3472 0.0605312
27.1235 29.1375 -0.00422401
22.6738 36.2841 3.98089
24.9025 36.8554 2
27.0964 37.3672 0.0533088
25.42 43.1629 0.0172107
24.225 39.4395 0.0213486
23.1175 41.7981 2
21.937 38.5111 2
20.8624 40.6389 3.97655
20.2651 37.794 3.97761
22.0141 43.9349 0.0210482
19.8609 42.8784 2
17.4675 42.0943 3.97722
19.0649 44.9601 0.0215213
17.0281 44.3724 2
14.9081 44.1954 3.97414
16.676 46.2058 0.0237898
14.887 46.0847 2
12.9878 46.2917 3.97086
14.9537 47.6644 0.0266359
13.3093 48.0045 2
11.4915 48.5479 3.96875
13.7985 49.542 0.0305093
12.121 50.2502 2
10.2674 51.0788 3.96994
12.9024 51.8707 0.0316802
11.1425 52.8339 2
9.23553 53.888 3.97435
8.38432 56.9816 3.98224
10.3273 55.7079 2
12.1472 54.5227 0.0297503
7.74927 60.3285 4
9.69931 58.8462 2
11.5359 57.4552 0.0252956
9.306 62.2255 2
11.1335 60.6271 0.0146132
10.9835 64.0165 0
13.9693 21.7582 3.96816
15.1551 20.1919 2
13.4535 18.9057 3.97152
16.4044 18.6548 0.0251044
14.7501 17.3051 2
13.0287 15.8847 3.97993
16.1026 15.7828 0.0205723
14.483 14.2901 2
12.7821 12.6874 3.98901
16.0201 12.8085 0.0171537
14.4439 11.1147 2
12.7746 9.30605 4
16.2017 9.66282 0.0086126
14.6715 7.74924 2
16.6661 6.31991 0
23.2487 33.8104 3.98055
25.5555 34.267 2
27.6198 34.7842 0.0606756
17.6633 24.0494 3.97116
17.8753 22.3327 2
14.3325 24.4542 3.96979
15.5417 22.9247 2
16.6947 21.3853 0.0343873
19.1334 27.2128 3.97077
19.7363 21.5816 0.0242039
19.7057 24.3881 2
21.3174 30.6748 3.9732
22.8859 24.6082 0.0293508
22.038 27.8351 2
23.9 31.1992 2
24.6655 28.535 0.0236407
26.3524 31.7138 0.0121077
20.3902 35.9333 3.97715
22.67 36.2804 2
24.9231 36.8589 0.0111708
23.1235 41.7995 0.0202095
21.9432 38.5119 0.0223041
20.8614 40.6395 2
20.2659 37.7943 2
18.2044 39.0016 3.97779
19.8604 42.8784 0.0221222
17.4686 42.0937 2
14.8871 41.9142 3.97433
17.0268 44.373 0.0232759
14.909 44.1952 2
12.7408 44.3879 3.97102
14.8865 46.0849 0.0259618
12.9881 46.2915 2
10.9939 46.7319 3.96858
13.3088 48.0047 0.0296014
11.4917 48.5478 2
9.53043 49.2393 3.96945
12.1206 50.2503 0.031197
10.2677 51.0787 2
8.26831 52.0018 3.974
11.142 52.834 0.0298776
9.2359 53.8875 2
7.1932 55.0322 3.9831
6.31991 58.3339 4
8.38348 56.9784 2
10.327 55.7081 0.0259186
7.74924 60.3285 2
9.70056 58.849 0.017013
9.30605 62.2254 0
13.2424 25.365 3.97124
12.8351 23.284 3.96897
13.97 21.7579 2
12.2414 20.5555 3.96976
15.1547 20.1927 0.031464
13.4541 18.9046 2
11.6598 17.5667 3.97721
14.7497 17.3064 0.0233324
13.0289 15.8835 2
11.2197 14.3727 3.98692
14.4829 14.2912 0.0186841
12.7812 12.6883 2
10.9835 10.9835 4
14.4446 11.1139 0.00939673
12.7745 9.306 2
14.6715 7.74927 0
20.7514 33.4055 3.97537
23.254 33.8122 2
25.5761 34.2712 0.00901722
15.9638 26.4073 3.97122
17.6635 24.0491 2
17.8749 22.3332 0.022818
14.3329 24.4541 2
15.541 22.9249 0.030236
18.491 30.1815 3.97397
19.1327 27.2128 2
19.7055 24.3884 0.0304557
21.3252 30.6751 2
22.0339 27.8348 0.0285161
23.9121 31.1984 0.0247375
17.8229 35.9676 3.97825
20.3875 35.9336 2
22.6738 36.2841 0.0191055
20.8624 40.6389 0.0234491
20.2651 37.794 0.022386
18.2064 39.0018 2
14.4029 39.1741 3.97535
17.4675 42.0943 0.0227836
14.8881 41.9142 2
12.443 42.273 3.97163
14.9081 44.1954 0.0258644
12.7412 44.3877 2
10.5751 44.8005 3.96879
12.9878 46.2917 0.0291433
10.9941 46.7318 2
8.91256 47.3186 3.96892
11.4915 48.5479 0.0312525
9.53064 49.2391 2
7.43526 50.0354 3.97338
10.2674 51.0788 0.030056
8.26864 52.0013 2
6.1338 53.0073 3.98367
9.23553 53.888 0.0256451
7.19266 55.0294 2
5.0241 56.25 4
6.31988 58.3339 2
8.38432 56.9816 0.0177624
7.74927 60.3285 0
13.4955 26.8178 3.97057
11.9451 24.7894 3.9699
13.2425 25.3649 2
11.1447 22.238 3.97001
12.8356 23.2838 2
13.9693 21.7582 0.0318385
12.2423 20.5549 2
10.3918 19.322 3.97466
13.4535 18.9057 0.0284804
11.6602 17.5657 2
9.76086 16.1567 3.98459
13.0287 15.8847 0.0200672
11.2186 14.3741 2
9.30607 12.7746 4
12.7821 12.6874 0.0109922
10.9835 10.9835 2
12.7746 9.30605 0
17.9927 33.1174 3.97663
20.7506 33.4054 2
23.2487 33.8104 0.0194521
15.5718 29.6426 3.97282
15.9636 26.4072 2
17.6633 24.0494 0.0288422
14.3325 24.4542 0.0302111
18.4912 30.1816 2
19.1334 27.2128 0.0292335
21.3174 30.6748 0.0268012
15.0151 36.0198 3.97552
17.8242 35.9678 2
20.3902 35.9333 0.0228527
12.6652 37.8284 3.97455
18.2044 39.0016 0.0222124
14.4035 39.1739 2
11.9617 40.138 3.9723
14.8871 41.9142 0.0256677
12.4434 42.2729 2
10.181 42.7758 3.96893
12.7408 44.3879 0.0289791
10.5751 44.8004 2
8.39039 45.3205 3.96861
10.9939 46.7319 0.0314183
8.91263 47.3185 2
6.72654 48.0006 3.97285
9.53043 49.2393 0.0305515
7.43544 50.0349 2
5.21064 50.9106 3.98351
8.26831 52.0018 0.025998
6.1335 53.0053 2
3.86727 54.0858 4
7.1932 55.0322 0.0168958
5.02404 56.25 2
6.31991 58.3339 0
12.9628 29.0363 3.97024
11.3789 26.4887 3.96908
13.4951 26.8176 2
10.2021 23.9689 3.97035
11.9456 24.7892 2
13.2424 25.365 0.0287553
9.24454 21.1401 3.97374
11.1454 22.2377 2
12.8351 23.284 0.031034
12.2414 20.5555 0.0302377
10.3925 19.3216 2
8.41711 18.0285 3.98269
11.6598 17.5667 0.0227949
9.75975 16.159 2
7.74928 14.6715 4
11.2197 14.3727 0.0130791
9.30602 12.7745 2
10.9835 10.9835 0
14.5748 32.8662 3.97441
17.9941 33.1178 2
20.7514 33.4055 0.0246269
15.5723 29.6427 2
15.9638 26.4073 0.0287833
18.491 30.1815 0.0260303
12.9617 36.2094 3.97328
15.0169 36.0198 2
17.8229 35.9676 0.0217487
12.666 37.8283 2
11.3101 38.3085 3.97268
14.4029 39.1741 0.0246481
11.9627 40.1379 2
9.77236 40.7525 3.96939
12.443 42.273 0.0283698
10.1814 42.7757 2
7.9397 43.2692 3.96838
10.5751 44.8005 0.0312145
8.39047 45.3203 2
6.13281 45.9057 3.9723
8.91256 47.3186 0.031076
6.72657 48.0003 2
4.42224 48.7514 3.98299
7.43526 50.0354 0.0266215
5.2105 50.9095 2
2.85457 51.8506 4
6.1338 53.0073 0.0163313
3.86727 54.0858 2
5.0241 56.25 0
12.1096 31.2591 3.97137
10.7958 28.4163 3.96894
12.9633 29.0363 2
9.41689 25.7985 3.96966
11.3791 26.4885 2
13.4955 26.8178 0.0294278
8.23103 23.0236 3.97401
10.2027 23.9688 2
11.9451 24.7894 0.0300962
7.1994 19.9788 3.98242
9.24536 21.1401 2
11.1447 22.238 0.0299881
10.3918 19.322 0.0253406
8.41647 18.0314 2
6.31992 16.6661 4
9.76086 16.1567 0.0154097
7.74926 14.6714 2
9.30607 12.7746 0
12.1409 34.2959 3.97362
14.5758 32.8663 2
17.9927 33.1174 0.0233737
15.5718 29.6426 0.0271766
10.8722 36.6107 3.97216
12.9627 36.2093 2
15.0151 36.0198 0.0244813
12.6652 37.8284 0.0254521
11.3109 38.3084 2
9.36501 38.8223 3.96996
11.9617 40.138 0.0276987
9.77296 40.7524 2
7.55109 41.2106 3.96841
10.181 42.7758 0.0310724
7.93978 43.2691 2
5.64497 43.7685 3.97188
8.39039 45.3205 0.0313919
6.13289 45.9054 2
3.7679 46.5371 3.9824
6.72654 48.0006 0.0271493
4.42218 48.7509 2
1.99014 49.554 4
5.21064 50.9106 0.0164886
2.85451 51.8506 2
3.86727 54.0858 0
10.9549 32.9205 3.97259
10.1136 30.3833 3.96911
12.1104 31.2591 2
8.72479 27.7319 3.96916
10.796 28.4162 2
12.9628 29.0363 0.0297628
7.35652 24.9824 3.97325
9.41717 25.7983 2
11.3789 26.4887 0.0309211
6.11618 22.0023 3.98342
8.23164 23.0238 2
10.2021 23.9689 0.0296481
5.02411 18.75 4
7.19915 19.9814 2
9.24454 21.1401 0.0262607
8.41711 18.0285 0.0173051
6.3199 16.6661 2
7.74928 14.6715 0
10.4784 35.0003 3.97192
12.1418 34.2959 2
14.5748 32.8662 0.0255926
9.03355 36.9843 3.9702
10.8734 36.6107 2
12.9617 36.2094 0.0267182
11.3101 38.3085 0.0273237
9.3656 38.8222 2
7.23143 39.1815 3.96883
9.77236 40.7525 0.0306145
7.55131 41.2104 2
5.26046 41.614 3.97135
7.9397 43.2692 0.03162
5.64505 43.7682 2
3.24572 44.2819 3.98206
6.13281 45.9057 0.0276973
3.76799 46.5368 2
1.27781 47.2057 4
4.42224 48.7514 0.0170145
1.99012 49.554 2
2.85457 51.8506 0
10.1158 33.8821 3.97227
9.40209 32.1552 3.96972
10.9554 32.9205 2
8.07379 29.6954 3.96897
10.1139 30.3833 2
12.1096 31.2591 0.0286342
6.60036 27.0083 3.97273
8.72481 27.7318 2
10.7958 28.4163 0.0310648
5.17154 24.0951 3.98351
7.35684 24.9825 2
9.41689 25.7985 0.0303355
3.86728 20.9142 4
6.11611 22.004 2
8.23103 23.0236 0.0259885
5.02406 18.75 2
7.1994 19.9788 0.0175777
6.31992 16.6661 0
8.85797 35.2793 3.97039
10.4789 35.0003 2
12.1409 34.2959 0.0263814
7.01504 37.2055 3.96902
9.03374 36.9842 2
10.8722 36.6107 0.0278406
9.36501 38.8223 0.030045
7.23161 39.1814 2
4.98828 39.4672 3.97139
7.55109 41.2106 0.0315864
5.26068 41.6137 2
2.85632 42.0023 3.98173
5.64497 43.7685 0.0281238
3.24582 44.2819 2
0.720592 44.8159 4
3.7679 46.5371 0.0175985
1.27778 47.2057 2
1.99014 49.554 0
8.89537 33.698 3.97031
10.1162 33.882 2
7.51131 31.609 3.96911
9.40239 32.1552 2
10.9549 32.9205 0.0274128
5.94553 29.0692 3.97251
8.07372 29.6953 2
10.1136 30.3833 0.0308907
4.35932 26.2475 3.98292
6.60042 27.0083 2
8.72479 27.7319 0.0308409
2.85458 23.1494 4
5.17153 24.0958 2
7.35652 24.9824 0.0267472
3.86728 20.9142 2
6.11618 22.0023 0.0165795
5.02411 18.75 0
6.96518 35.3057 3.96916
8.85841 35.2792 2
10.4784 35.0003 0.0280769
4.8383 37.3396 3.97194
7.0151 37.2054 2
9.03355 36.9843 0.0297996
7.23143 39.1815 0.0311719
4.98846 39.4671 2
2.60446 39.7139 3.98143
5.26046 41.614 0.0286472
2.85654 42.0024 2
0.320823 42.3947 4
3.24572 44.2819 0.0179381
0.720551 44.8159 2
1.27781 47.2057 0
7.12506 33.4607 3.96933
8.89554 33.698 2
10.1158 33.8821 0.0277309
5.41646 31.1332 3.97239
7.51135 31.609 2
9.40209 32.1552 0.0302796
3.68109 28.4434 3.98242
5.94547 29.0693 2
8.07379 29.6954 0.0310261
1.99015 25.446 4
4.35933 26.2477 2
6.60036 27.0083 0.0272713
2.85453 23.1494 2
5.17154 24.0951 0.0164877
3.86728 20.9142 0
4.85256 35.2512 3.97215
6.96542 35.3057 2
8.85797 35.2793 0.0296123
2.49583 37.4285 3.98199
4.83834 37.3396 2
7.01504 37.2055 0.0309815
4.98828 39.4672 0.0286111
2.60469 39.7143 2
0.080333 39.9526 4
2.85632 42.0023 0.0182691
0.320817 42.3947 2
0.720592 44.8159 0
5.04588 33.1898 3.97239
7.1252 33.4606 2
8.89537 33.698 0.0296949
3.14544 30.666 3.98205
5.41649 31.1334 2
7.51131 31.609 0.0308873
1.27793 27.7943 4
3.68112 28.4435 2
5.94553 29.0692 0.0274883
1.99013 25.446 2
4.35932 26.2475 0.017078
2.85458 23.1494 0
2.54794 35.159 3.98203
4.85281 35.2514 2
6.96518 35.3057 0.0308437
0 37.5 4
2.49592 37.4289 2
4.8383 37.3396 0.028056
2.60446 39.7139 0.0185729
0.0802903 39.9526 2
0.320823 42.3947 0
2.7655 32.9057 3.98216
5.04601 33.19 2
7.12506 33.4607 0.0306707
0.721173 30.1842 4
3.14556 30.6665 2
5.41646 31.1332 0.0276079
1.27779 27.7943 2
3.68109 28.4434 0.0175767
1.99015 25.446 0
0.0806499 35.0474 4
2.54823 35.1594 2
4.85256 35.2512 0.0278498
0 37.5 2
2.49583 37.4285 0.0180111
0.080333 39.9526 0
0.32156 32.6054 4
2.76564 32.9062 2
5.04588 33.1898 0.0276129
0.72056 30.1841 2
3.14544 30.666 0.0179514
1.27793 27.7943 0
0.0802889 35.0474 2
2.54794 35.159 0.0179657
0 37.5 0
0.320817 32.6053 2
2.7655 32.9057 0.0178438
0.721173 30.1842 0
0.0806499 35.0474 0
0.32156 32.6054 0
CELLS 1910 17190
8 18 6 25 56 2 0 5 16
8 57 23 6 18 17 4 0 2
8 78 36 9 29 31 11 1 7
8 31 11 1 7 79 37 10 30
8 110 57 18 50 48 17 2 14
8 50 18 56 111 14 2 16 49
8 116 62 22 55 52 20 3 15
8 56 25 67 118 16 5 24 53
8 119 63 23 57 54 21 4 17
8 55 22 63 119 15 3 21 54
8 58 26 68 121 18 6 25 56
8 122 65 26 58 57 23 6 18
8 73 31 7 27 142 79 30 71
8 143 78 29 72 73 31 7 27
8 83 147 76 34 32 74 28 8
8 84 148 78 36 33 75 29 9
8 76 34 8 28 148 84 33 75
8 37 79 150 86 10 30 77 35
8 151 87 36 78 80 38 11 31
8 80 38 11 31 152 88 37 79
8 175 100 42 94 96 44 12 40
8 44 96 176 101 12 40 95 43
8 101 176 98 46 43 95 41 13
8 46 98 178 103 13 41 97 45
8 178 103 45 97 147 83 32 74
8 189 116 55 109 106 52 15 47
8 111 56 118 191 49 16 53 107
8 192 119 57 110 108 54 17 48
8 109 55 119 192 47 15 54 108
8 194 122 58 112 110 57 18 50
8 112 58 121 195 50 18 56 111
8 115 61 19 51 197 124 59 113
8 115 61 125 198 51 19 60 114
8 198 125 62 116 114 60 20 52
8 200 127 64 120 116 62 22 55
8 118 67 132 202 53 24 66 117
8 121 68 133 203 56 25 67 118
8 120 64 128 204 55 22 63 119
8 204 128 65 122 119 63 23 57
8 206 134 68 121 123 69 26 58
8 123 69 26 58 207 131 65 122
8 226 147 74 138 140 76 28 70
8 229 148 75 139 143 78 29 72
8 140 76 28 70 229 148 75 139
8 142 79 30 71 231 150 77 141
8 144 80 31 73 232 152 79 142
8 233 151 78 143 144 80 31 73
8 150 86 35 77 235 154 81 145
8 235 154 81 145 146 82 39 91
8 146 82 39 91 236 155 90 165
8 238 157 83 147 149 85 34 76
8 239 158 84 148 151 87 36 78
8 149 85 34 76 239 158 84 148
8 152 88 37 79 241 160 86 150
8 242 161 87 151 153 89 38 80
8 153 89 38 80 243 162 88 152
8 171 98 41 92 265 178 97 169
8 265 178 97 169 226 147 74 138
8 172 96 40 93 266 176 95 170
8 266 176 95 170 171 98 41 92
8 269 175 94 173 172 96 40 93
8 271 180 99 174 175 100 42 94
8 197 124 59 113 271 180 99 174
8 272 181 100 175 177 102 44 96
8 273 182 101 176 179 104 46 98
8 177 102 44 96 273 182 101 176
8 179 104 46 98 275 184 103 178
8 275 184 103 178 238 157 83 147
8 188 115 51 105 283 197 113 186
8 188 115 198 284 105 51 114 187
8 284 198 116 189 187 114 52 106
8 286 200 120 193 189 116 55 109
8 191 118 202 288 107 53 117 190
8 195 121 203 289 111 56 118 191
8 193 120 204 290 109 55 119 192
8 290 204 122 194 192 119 57 110
8 196 123 58 112 292 207 122 194
8 293 206 121 195 196 123 58 112
8 199 126 61 115 297 211 124 197
8 298 212 127 200 198 125 62 116
8 199 126 212 298 115 61 125 198
8 205 129 64 120 300 214 127 200
8 301 217 130 201 202 132 66 117
8 209 136 168 264 301 217 130 201
8 302 219 132 202 203 133 67 118
8 303 220 133 203 206 134 68 121
8 205 129 215 304 120 64 128 204
8 304 215 131 207 204 128 65 122
8 306 221 134 206 208 135 69 123
8 208 135 69 123 307 218 131 207
8 210 137 167 263 309 223 136 209
8 328 238 147 226 230 149 76 140
8 228 146 91 166 329 236 165 260
8 231 150 77 141 330 235 145 227
8 330 235 145 227 228 146 91 166
8 332 239 148 229 233 151 78 143
8 230 149 76 140 332 239 148 229
8 232 152 79 142 334 241 150 231
8 234 153 80 144 335 243 152 232
8 336 242 151 233 234 153 80 144
8 236 155 90 165 338 245 164 259
8 241 160 86 150 339 246 154 235
8 339 246 154 235 237 156 82 146
8 237 156 82 146 340 247 155 236
8 342 249 157 238 240 159 85 149
8 343 250 158 239 242 161 87 151
8 240 159 85 149 343 250 158 239
8 243 162 88 152 345 252 160 241
8 244 163 253 346 153 89 161 242
8 244 163 89 153 347 254 162 243
8 311 224 261 371 210 137 167 263
8 263 167 262 372 209 136 168 264
8 267 179 98 171 375 275 178 265
8 375 275 178 265 328 238 147 226
8 376 273 176 266 267 179 98 171
8 268 177 96 172 376 273 176 266
8 379 272 175 269 268 177 96 172
8 380 271 174 270 269 175 94 173
8 283 197 113 186 380 271 174 270
8 381 277 180 271 272 181 100 175
8 297 211 124 197 381 277 180 271
8 382 278 181 272 274 183 102 177
8 274 183 102 177 383 279 182 273
8 383 279 182 273 276 185 104 179
8 385 281 184 275 342 249 157 238
8 276 185 104 179 385 281 184 275
8 285 199 115 188 393 297 197 283
8 394 298 200 286 284 198 116 189
8 285 199 298 394 188 115 198 284
8 291 205 120 193 396 300 200 286
8 397 301 201 287 288 202 117 190
8 295 209 264 374 397 301 201 287
8 398 302 202 288 289 203 118 191
8 399 303 203 289 293 206 121 195
8 291 205 304 400 193 120 204 290
8 400 304 207 292 290 204 122 194
8 294 208 123 196 402 307 207 292
8 403 306 206 293 294 208 123 196
8 296 210 263 373 405 309 209 295
8 408 312 213 299 297 211 126 199
8 299 213 313 409 199 126 212 298
8 409 313 214 300 298 212 127 200
8 305 216 129 205 411 315 214 300
8 412 318 217 301 302 219 132 202
8 309 223 136 209 412 318 217 301
8 413 320 219 302 303 220 133 203
8 306 221 321 414 206 134 220 303
8 307 218 131 207 415 316 215 304
8 305 216 316 415 205 129 215 304
8 417 322 221 306 308 222 135 208
8 308 222 135 208 418 319 218 307
8 310 225 137 210 420 325 223 309
8 423 326 224 311 310 225 137 210
8 329 236 165 260 441 338 259 368
8 442 342 238 328 333 240 149 230
8 331 237 146 228 443 340 236 329
8 334 241 150 231 444 339 235 330
8 444 339 235 330 331 237 146 228
8 446 343 239 332 336 242 151 233
8 333 240 149 230 446 343 239 332
8 335 243 152 232 448 345 241 334
8 337 244 153 234 449 347 243 335
8 337 244 346 450 234 153 242 336
8 338 245 164 259 452 349 258 367
8 340 247 155 236 453 350 245 338
8 345 252 160 241 454 351 246 339
8 454 351 246 339 341 248 156 237
8 341 248 156 237 455 352 247 340
8 240 159 251 344 342 249 354 457
8 242 161 253 346 343 250 355 458
8 343 250 355 458 240 159 251 344
8 347 254 162 243 460 357 252 345
8 348 255 358 461 244 163 253 346
8 348 255 163 244 462 359 254 347
8 473 360 257 365 363 256 364 482
8 452 349 258 367 365 257 366 485
8 422 324 369 488 311 224 261 371
8 371 261 370 490 263 167 262 372
8 407 311 371 491 296 210 263 373
8 373 263 372 492 295 209 264 374
8 493 385 275 375 442 342 238 328
8 377 276 179 267 493 385 275 375
8 378 274 177 268 494 383 273 376
8 494 383 273 376 377 276 179 267
8 497 382 272 379 378 274 177 268
8 498 381 271 380 379 272 175 269
8 393 297 197 283 498 381 271 380
8 499 387 277 381 382 278 181 272
8 408 312 211 297 499 387 277 381
8 500 388 278 382 384 280 183 274
8 501 389 279 383 386 282 185 276
8 384 280 183 274 501 389 279 383
8 386 282 185 276 503 391 281 385
8 503 391 281 385 457 354 249 342
8 511 408 299 395 393 297 199 285
8 395 299 409 512 285 199 298 394
8 512 409 300 396 394 298 200 286
8 401 305 205 291 514 411 300 396
8 515 412 301 397 398 302 202 288
8 405 309 209 295 515 412 301 397
8 516 413 302 398 399 303 203 289
8 403 306 414 517 293 206 303 399
8 402 307 207 292 518 415 304 400
8 401 305 415 518 291 205 304 400
8 404 308 208 294 520 418 307 402
8 521 417 306 403 404 308 208 294
8 406 310 210 296 523 420 309 405
8 526 423 311 407 406 310 210 296
8 410 314 213 299 527 424 312 408
8 528 425 315 411 409 313 214 300
8 410 314 425 528 299 213 313 409
8 416 317 216 305 530 427 315 411
8 531 430 318 412 413 320 219 302
8 420 325 223 309 531 430 318 412
8 532 432 320 413 414 321 220 303
8 417 322 433 533 306 221 321 414
8 418 319 218 307 534 428 316 415
8 416 317 428 534 305 216 316 415
8 419 323 434 536 308 222 322 417
8 419 323 222 308 537 431 319 418
8 421 327 225 310 539 438 325 420
8 421 327 439 541 310 225 326 423
8 543 437 324 422 423 326 224 311
8 441 338 259 368 559 452 367 486
8 443 340 236 329 560 453 338 441
8 333 240 344 447 442 342 457 561
8 445 341 237 331 562 455 340 443
8 448 345 241 334 563 454 339 444
8 563 454 339 444 445 341 237 331
8 336 242 346 450 446 343 458 565
8 446 343 458 565 333 240 344 447
8 449 347 243 335 567 460 345 448
8 451 348 244 337 568 462 347 449
8 451 348 461 569 337 244 346 450
8 570 463 349 452 473 360 257 365
8 453 350 245 338 570 463 349 452
8 455 352 247 340 571 464 350 453
8 460 357 252 345 572 465 351 454
8 572 465 351 454 456 353 248 341
8 456 353 248 341 573 466 352 455
8 344 251 356 459 457 354 468 575
8 458 355 469 576 344 251 356 459
8 346 253 358 461 458 355 469 576
8 462 359 254 347 578 471 357 460
8 348 255 359 462 461 358 472 579
8 591 474 360 473 475 361 256 363
8 475 361 256 363 594 477 362 479
8 363 256 364 482 479 362 480 603
8 590 473 365 484 481 363 482 605
8 482 364 257 365 606 483 366 485
8 559 452 367 486 484 365 485 607
8 542 436 487 609 422 324 369 488
8 525 422 488 611 407 311 371 491
8 488 369 489 612 371 261 370 490
8 491 371 490 613 373 263 372 492
8 495 386 276 377 614 503 385 493
8 614 503 385 493 561 457 342 442
8 615 501 383 494 495 386 276 377
8 496 384 274 378 615 501 383 494
8 618 500 382 497 496 384 274 378
8 619 499 381 498 497 382 272 379
8 511 408 297 393 619 499 381 498
8 620 505 387 499 500 388 278 382
8 527 424 312 408 620 505 387 499
8 502 390 506 621 384 280 388 500
8 622 507 389 501 504 392 282 386
8 502 390 280 384 622 507 389 501
8 504 392 282 386 624 509 391 503
8 624 509 391 503 575 468 354 457
8 513 410 299 395 630 527 408 511
8 631 528 411 514 512 409 300 396
8 513 410 528 631 395 299 409 512
8 519 416 305 401 633 530 411 514
8 634 531 412 515 516 413 302 398
8 523 420 309 405 634 531 412 515
8 635 532 413 516 517 414 303 399
8 521 417 533 636 403 306 414 517
8 520 418 307 402 637 534 415 518
8 519 416 534 637 401 305 415 518
8 522 419 308 404 639 537 418 520
8 522 419 536 640 404 308 417 521
8 524 421 310 406 642 539 420 523
8 524 421 541 644 406 310 423 526
8 646 543 422 525 526 423 311 407
8 529 426 314 410 647 544 424 527
8 528 425 545 648 411 315 427 530
8 529 426 545 648 410 314 425 528
8 535 429 317 416 649 546 427 530
8 650 548 430 531 532 432 320 413
8 539 438 325 420 650 548 430 531
8 533 433 550 651 414 321 432 532
8 536 434 551 652 417 322 433 533
8 537 431 319 418 653 547 428 534
8 535 429 547 653 416 317 428 534
8 538 435 552 654 419 323 434 536
8 538 435 323 419 655 549 431 537
8 540 440 327 421 657 556 438 539
8 540 440 557 659 421 327 439 541
8 541 439 555 660 423 326 437 543
8 661 554 436 542 543 437 324 422
8 676 570 452 559 590 473 365 484
8 560 453 338 441 676 570 452 559
8 562 455 340 443 677 571 453 560
8 447 344 459 566 561 457 575 678
8 564 456 341 445 679 573 455 562
8 567 460 345 448 680 572 454 563
8 680 572 454 563 564 456 341 445
8 565 458 576 682 447 344 459 566
8 450 346 461 569 565 458 576 682
8 568 462 347 449 684 578 460 567
8 451 348 462 568 569 461 579 685
8 686 580 463 570 591 474 360 473
8 571 464 350 453 686 580 463 570
8 573 466 352 455 687 581 464 571
8 572 465 582 688 460 357 471 578
8 574 467 582 688 456 353 465 572
8 574 467 353 456 689 583 466 573
8 459 356 470 577 575 468 585 691
8 576 469 586 692 459 356 470 577
8 461 358 472 579 576 469 586 692
8 462 359 471 578 579 472 588 694
8 704 591 473 590 593 475 363 481
8 595 476 592 705 475 361 474 591
8 593 475 363 481 707 594 479 602
8 594 477 362 479 709 598 478 600
8 595 476 361 475 711 597 477 594
8 479 362 480 603 600 478 601 720
8 481 363 482 605 602 479 603 722
8 603 480 364 482 723 604 483 606
8 605 482 365 484 724 606 485 607
8 656 553 608 726 542 436 487 609
8 645 542 609 728 525 422 488 611
8 609 487 610 729 488 369 489 612
8 611 488 612 730 491 371 490 613
8 616 504 386 495 731 624 503 614
8 731 624 503 614 678 575 457 561
8 732 622 501 615 616 504 386 495
8 617 502 384 496 732 622 501 615
8 617 502 621 735 496 384 500 618
8 736 620 499 619 618 500 382 497
8 630 527 408 511 736 620 499 619
8 621 506 626 737 500 388 505 620
8 647 544 424 527 737 626 505 620
8 623 508 627 738 502 390 506 621
8 623 508 390 502 739 628 507 622
8 625 510 628 739 504 392 507 622
8 740 629 509 624 691 585 468 575
8 625 510 392 504 740 629 509 624
8 632 529 410 513 744 647 527 630
8 631 528 648 745 514 411 530 633
8 632 529 648 745 513 410 528 631
8 638 535 416 519 746 649 530 633
8 747 650 531 634 635 532 413 516
8 642 539 420 523 747 650 531 634
8 636 533 651 748 517 414 532 635
8 640 536 652 749 521 417 533 636
8 639 537 418 520 750 653 534 637
8 638 535 653 750 519 416 534 637
8 641 538 419 522 751 655 537 639
8 641 538 654 752 522 419 536 640
8 643 540 421 524 753 657 539 642
8 643 540 659 755 524 421 541 644
8 644 541 660 757 526 423 543 646
8 758 661 542 645 646 543 422 525
8 529 426 544 647 648 545 662 759
8 530 427 545 648 649 546 663 760
8 535 429 546 649 653 547 664 761
8 762 666 548 650 651 550 432 532
8 657 556 438 539 762 666 548 650
8 652 551 668 763 533 433 550 651
8 654 552 669 764 536 434 551 652
8 655 549 431 537 765 665 547 653
8 538 435 549 655 654 552 667 766
8 661 554 671 768 542 436 553 656
8 658 558 440 540 769 674 556 657
8 658 558 675 770 540 440 557 659
8 659 557 673 771 541 439 555 660
8 660 555 672 772 543 437 554 661
8 788 686 570 676 704 591 473 590
8 677 571 453 560 788 686 570 676
8 679 573 455 562 789 687 571 677
8 566 459 577 683 678 575 691 790
8 681 574 456 564 791 689 573 679
8 680 572 688 792 567 460 578 684
8 681 574 688 792 564 456 572 680
8 682 576 692 794 566 459 577 683
8 569 461 579 685 682 576 692 794
8 568 462 578 684 685 579 694 796
8 687 581 464 571 798 696 580 686
8 798 696 580 686 705 592 474 591
8 689 583 466 573 799 697 581 687
8 688 582 698 800 578 471 588 694
8 690 584 698 800 574 467 582 688
8 690 584 467 574 801 699 583 689
8 693 587 701 803 577 470 585 691
8 693 587 470 577 804 702 586 692
8 695 589 702 804 579 472 586 692
8 695 589 472 579 805 703 588 694
8 708 595 705 813 593 475 591 704
8 710 596 706 814 595 476 592 705
8 707 594 479 602 816 709 600 719
8 708 595 475 593 817 711 594 707
8 709 598 478 600 819 715 599 717
8 711 597 477 594 820 714 598 709
8 710 596 476 595 822 713 597 711
8 600 478 601 720 717 599 718 832
8 602 479 603 722 719 600 720 834
8 720 601 480 603 835 721 604 723
8 722 603 482 605 836 723 606 724
8 767 670 725 839 656 553 608 726
8 756 656 726 841 645 542 609 728
8 726 608 727 842 609 487 610 729
8 728 609 729 843 611 488 612 730
8 844 740 624 731 790 691 575 678
8 733 625 504 616 844 740 624 731
8 734 623 502 617 845 739 622 732
8 733 625 739 845 616 504 622 732
8 734 623 738 846 617 502 621 735
8 735 621 737 847 618 500 620 736
8 744 647 527 630 847 737 620 736
8 621 506 627 738 737 626 741 848
8 647 544 626 737 759 662 741 848
8 623 508 628 739 738 627 742 849
8 740 629 585 691 850 743 700 802
8 625 510 629 740 739 628 743 850
8 632 529 647 744 745 648 759 854
8 633 530 648 745 746 649 760 855
8 638 535 649 746 750 653 761 856
8 857 762 650 747 748 651 532 635
8 753 657 539 642 857 762 650 747
8 749 652 763 858 636 533 651 748
8 752 654 764 859 640 536 652 749
8 751 655 537 639 860 765 653 750
8 641 538 655 751 752 654 766 861
8 754 658 540 643 862 769 657 753
8 754 658 770 863 643 540 659 755
8 755 659 771 864 644 541 660 757
8 758 661 768 866 645 542 656 756
8 757 660 772 867 646 543 661 758
8 759 662 773 868 648 545 663 760
8 649 546 663 760 761 664 774 871
8 765 665 547 653 872 775 664 761
8 873 777 666 762 763 668 550 651
8 769 674 556 657 873 777 666 762
8 764 669 779 874 652 551 668 763
8 654 552 667 766 764 669 778 875
8 655 549 665 765 766 667 776 876
8 768 671 782 877 656 553 670 767
8 772 672 783 878 661 554 671 768
8 658 558 674 769 770 675 786 879
8 659 557 675 770 771 673 785 881
8 882 784 672 772 771 673 555 660
8 789 687 571 677 897 798 686 788
8 897 798 686 788 813 705 591 704
8 791 689 573 679 898 799 687 789
8 795 693 803 900 683 577 691 790
8 793 690 574 681 901 801 689 791
8 792 688 800 902 684 578 694 796
8 793 690 800 902 681 574 688 792
8 795 693 577 683 903 804 692 794
8 797 695 804 903 685 579 692 794
8 797 695 579 685 904 805 694 796
8 905 806 697 799 798 696 581 687
8 814 706 806 905 705 592 696 798
8 689 583 697 799 801 699 808 907
8 800 698 809 908 694 588 703 805
8 690 584 699 801 800 698 809 908
8 803 701 810 909 691 585 700 802
8 693 587 702 804 803 701 811 910
8 695 589 703 805 804 702 812 911
8 818 710 814 919 708 595 705 813
8 821 712 815 920 710 596 706 814
8 816 709 600 719 922 819 717 831
8 817 711 594 707 923 820 709 816
8 818 710 595 708 924 822 711 817
8 819 715 599 717 926 827 716 829
8 820 714 598 709 927 826 715 819
8 929 825 713 822 820 714 597 711
8 821 712 596 710 930 824 713 822
8 717 599 718 832 829 716 830 942
8 719 600 720 834 831 717 832 944
8 832 718 601 720 945 833 721 835
8 834 720 603 722 946 835 723 836
8 869 780 838 950 767 670 725 839
8 865 767 839 952 756 656 726 841
8 839 725 840 953 726 608 727 842
8 841 726 842 954 728 609 729 843
8 844 740 691 790 955 850 802 899
8 733 625 740 844 845 739 850 955
8 734 623 739 845 846 738 849 956
8 735 621 738 846 847 737 848 957
8 744 647 737 847 854 759 848 957
8 738 627 742 849 848 741 851 958
8 848 741 851 958 759 662 773 868
8 850 743 700 802 959 852 807 906
8 849 742 628 739 959 852 743 850
8 854 759 868 965 745 648 760 855
8 746 649 760 855 856 761 871 966
8 860 765 653 750 967 872 761 856
8 968 873 762 857 858 763 651 748
8 862 769 657 753 968 873 762 857
8 859 764 874 969 749 652 763 858
8 752 654 766 861 859 764 875 970
8 751 655 765 860 861 766 876 971
8 754 658 769 862 863 770 879 972
8 755 659 770 863 864 771 881 974
8 976 882 772 867 864 771 660 757
8 866 768 877 977 756 656 767 865
8 867 772 878 978 758 661 768 866
8 760 663 773 868 871 774 883 980
8 870 781 837 948 982 890 780 869
8 982 890 780 869 877 782 670 767
8 761 664 774 871 872 775 884 984
8 876 776 665 765 985 885 775 872
8 873 777 668 763 986 887 779 874
8 769 674 777 873 879 786 887 986
8 764 669 778 875 874 779 888 987
8 766 667 776 876 875 778 886 988
8 878 783 892 989 768 671 782 877
8 878 783 672 772 990 893 784 882
8 880 787 675 770 991 896 786 879
8 880 787 895 992 770 675 785 881
8 881 785 894 993 771 673 784 882
8 1006 905 799 898 897 798 687 789
8 919 814 905 1006 813 705 798 897
8 791 689 799 898 901 801 907 1007
8 900 803 909 1009 790 691 802 899
8 795 693 804 903 900 803 910 1010
8 902 800 908 1011 796 694 805 904
8 793 690 801 901 902 800 908 1011
8 797 695 805 904 903 804 911 1012
8 799 697 806 905 907 808 912 1013
8 920 815 912 1013 814 706 806 905
8 802 700 810 909 906 807 913 1014
8 801 699 808 907 908 809 914 1015
8 805 703 809 908 911 812 915 1016
8 803 701 811 910 909 810 916 1017
8 911 812 917 1018 804 702 811 910
8 925 821 920 1030 818 710 814 919
8 928 823 921 1031 821 712 815 920
8 922 819 717 831 1033 926 829 941
8 923 820 709 816 1034 927 819 922
8 1035 929 822 924 923 820 711 817
8 925 821 710 818 1036 930 822 924
8 1038 933 825 929 927 826 714 820
8 926 827 716 829 1039 935 828 939
8 927 826 715 819 1040 934 827 926
8 928 823 712 821 1041 931 824 930
8 1042 932 824 930 929 825 713 822
8 829 716 830 942 939 828 940 1058
8 831 717 832 944 941 829 942 1060
8 942 830 718 832 1061 943 833 945
8 944 832 720 834 1062 945 835 946
8 981 889 947 1064 870 781 837 948
8 948 837 949 1067 869 780 838 950
8 975 869 950 1069 865 767 839 952
8 950 838 951 1070 839 725 840 953
8 952 839 953 1071 841 726 842 954
8 955 850 802 899 1072 959 906 1008
8 956 849 739 845 1072 959 850 955
8 846 738 849 956 957 848 958 1073
8 957 848 958 1073 854 759 868 965
8 849 742 852 959 958 851 961 1076
8 960 853 961 1076 906 807 852 959
8 958 851 961 1076 868 773 883 980
8 960 853 807 906 1077 963 913 1014
8 855 760 868 965 966 871 980 1085
8 856 761 871 966 967 872 984 1086
8 971 876 765 860 1087 985 872 967
8 968 873 763 858 1088 986 874 969
8 862 769 873 968 972 879 986 1088
8 859 764 875 970 969 874 987 1089
8 861 766 876 971 970 875 988 1090
8 973 880 770 863 1091 991 879 972
8 973 880 992 1092 863 770 881 974
8 974 881 993 1093 864 771 882 976
8 979 870 948 1066 1094 982 869 975
8 1094 982 869 975 977 877 767 865
8 978 878 772 867 1095 990 882 976
8 978 878 989 1096 866 768 877 977
8 871 774 883 980 984 884 994 1099
8 983 891 999 1100 870 781 889 981
8 1101 1000 890 982 989 892 782 877
8 983 891 781 870 1101 1000 890 982
8 872 775 884 984 985 885 995 1103
8 876 776 885 985 988 886 996 1104
8 986 887 779 874 1105 998 888 987
8 879 786 887 986 991 896 998 1105
8 875 778 886 988 987 888 997 1106
8 990 893 1002 1107 878 783 892 989
8 1108 1003 893 990 993 894 784 882
8 880 787 896 991 992 895 1005 1109
8 993 894 785 881 1110 1004 895 992
8 898 799 905 1006 1007 907 1013 1120
8 1030 920 1013 1120 919 814 905 1006
8 901 801 907 1007 1011 908 1015 1121
8 899 802 909 1009 1008 906 1014 1122
8 900 803 910 1010 1009 909 1017 1123
8 1012 911 1018 1124 903 804 910 1010
8 904 805 908 1011 1012 911 1016 1125
8 1013 912 1020 1127 907 808 914 1015
8 1031 921 1020 1127 920 815 912 1013
8 1019 918 962 1075 1128 1021 913 1014
8 1128 1021 913 1014 1017 916 810 909
8 1015 914 1022 1129 908 809 915 1016
8 1016 915 1023 1130 911 812 917 1018
8 1018 917 1024 1131 910 811 916 1017
8 1037 928 1031 1148 925 821 920 1030
8 928 823 931 1041 1031 921 1032 1149
8 1033 926 829 941 1151 1039 939 1057
8 1034 927 819 922 1152 1040 926 1033
8 1153 1038 929 1035 1034 927 820 923
8 1154 1042 930 1036 1035 929 822 924
8 1037 928 821 925 1155 1041 930 1036
8 1039 935 828 939 1156 1047 938 1055
8 1157 1043 932 1042 1038 933 825 929
8 1038 933 826 927 1158 1045 934 1040
8 1040 934 827 926 1159 1046 935 1039
8 930 824 932 1042 1041 931 1044 1160
8 1051 936 1048 1165 1175 1052 937 1053
8 1156 1047 938 1055 1053 937 1054 1178
8 939 828 940 1058 1055 938 1056 1181
8 941 829 942 1060 1057 939 1058 1183
8 942 830 943 1061 1058 940 1059 1184
8 1060 942 832 944 1185 1061 945 1062
8 1082 964 1063 1188 981 889 947 1064
8 1097 981 1064 1190 979 870 948 1066
8 1064 947 1065 1191 948 837 949 1067
8 1066 948 1067 1193 975 869 950 1069
8 1067 949 1068 1194 950 838 951 1070
8 1069 950 1070 1195 952 839 953 1071
8 956 849 959 1072 1073 958 1076 1197
8 1074 960 1076 1197 1008 906 959 1072
8 1073 958 1076 1197 965 868 980 1085
8 1074 960 906 1008 1198 1077 1014 1122
8 1133 1026 1079 1199 1019 918 962 1075
8 1077 963 913 1014 1200 1080 962 1075
8 960 853 963 1077 1076 961 1078 1201
8 980 883 961 1076 1099 994 1078 1201
8 1210 1083 964 1082 1100 999 889 981
8 966 871 980 1085 1086 984 1099 1215
8 967 872 984 1086 1087 985 1103 1216
8 971 876 985 1087 1090 988 1104 1217
8 1088 986 874 969 1218 1105 987 1089
8 972 879 986 1088 1091 991 1105 1218
8 970 875 988 1090 1089 987 1106 1219
8 973 880 991 1091 1092 992 1109 1220
8 1093 993 881 974 1221 1110 992 1092
8 1222 1108 990 1095 1093 993 882 976
8 1223 1101 982 1094 1096 989 877 977
8 1098 983 870 979 1223 1101 982 1094
8 1095 990 1107 1224 978 878 989 1096
8 1098 983 1100 1225 979 870 981 1097
8 984 884 994 1099 1103 995 1111 1227
8 1102 1001 1115 1228 983 891 999 1100
8 1101 1000 892 989 1229 1116 1002 1107
8 1102 1001 891 983 1229 1116 1000 1101
8 985 885 995 1103 1104 996 1112 1230
8 988 886 996 1104 1106 997 1113 1231
8 1105 998 888 987 1232 1114 997 1106
8 991 896 998 1105 1109 1005 1114 1232
8 1108 1003 1117 1233 990 893 1002 1107
8 1108 1003 894 993 1233 1117 1004 1110
8 992 895 1005 1109 1110 1004 1118 1234
8 1120 1013 1127 1244 1007 907 1015 1121
8 1148 1031 1127 1244 1030 920 1013 1120
8 1121 1015 1129 1245 1011 908 1016 1125
8 1126 1019 1075 1196 1246 1128 1014 1122
8 1246 1128 1014 1122 1123 1017 909 1009
8 1124 1018 1131 1247 1010 910 1017 1123
8 1125 1016 1130 1248 1012 911 1018 1124
8 1127 1020 1137 1254 1015 914 1022 1129
8 1031 921 1032 1149 1127 1020 1137 1254
8 1134 1027 918 1019 1257 1140 1021 1128
8 1257 1140 1021 1128 1131 1024 916 1017
8 1129 1022 1141 1258 1016 915 1023 1130
8 1130 1023 1142 1259 1018 917 1024 1131
8 1261 1144 1025 1132 1133 1026 1079 1199
8 1255 1138 1025 1132 1135 1028 1144 1261
8 1133 1026 918 1019 1262 1145 1027 1134
8 1136 1029 1139 1256 1263 1146 1028 1135
8 1037 928 1041 1155 1148 1031 1149 1275
8 1041 931 1044 1160 1149 1032 1150 1276
8 1151 1039 939 1057 1278 1156 1055 1180
8 1152 1040 926 1033 1279 1159 1039 1151
8 1153 1038 927 1034 1280 1158 1040 1152
8 1281 1157 1042 1154 1153 1038 929 1035
8 1036 930 1042 1154 1155 1041 1160 1282
8 1283 1164 1046 1159 1156 1047 935 1039
8 1165 1048 1164 1283 1053 937 1047 1156
8 1157 1043 933 1038 1284 1161 1045 1158
8 1157 1043 1161 1284 1042 932 1044 1160
8 1040 934 1046 1159 1158 1045 1163 1285
8 1166 1049 1167 1292 1051 936 1048 1165
8 1166 1049 936 1051 1293 1168 1050 1172
8 1051 936 1052 1175 1172 1050 1173 1306
8 1174 1051 1165 1290 1308 1175 1053 1177
8 1053 937 1054 1178 1175 1052 1176 1309
8 1278 1156 1055 1180 1177 1053 1178 1311
8 1055 938 1056 1181 1178 1054 1179 1312
8 1057 939 1058 1183 1180 1055 1181 1314
8 1058 940 1059 1184 1181 1056 1182 1315
8 1060 942 1061 1185 1183 1058 1184 1316
8 1208 1081 1187 1321 1082 964 1063 1188
8 1209 1082 1188 1322 1097 981 1064 1190
8 1188 1063 1189 1323 1064 947 1065 1191
8 1190 1064 1191 1325 1066 948 1067 1193
8 1191 1065 1192 1326 1067 949 1068 1194
8 1067 1193 1069 950 1194 1327 1195 1070
8 1250 1133 1199 1330 1126 1019 1075 1196
8 1198 1077 1014 1122 1331 1200 1075 1196
8 1074 960 1077 1198 1197 1076 1201 1332
8 1085 980 1076 1197 1215 1099 1201 1332
8 1199 1079 1203 1333 1075 962 1080 1200
8 1132 1025 1119 1243 1199 1079 1203 1333
8 1201 1078 963 1077 1334 1202 1080 1200
8 1099 994 1078 1201 1227 1111 1202 1334
8 1343 1207 1081 1208 1210 1083 964 1082
8 1214 1084 1186 1319 1343 1207 1081 1208
8 1345 1210 1082 1209 1225 1100 981 1097
8 1346 1211 1083 1210 1228 1115 999 1100
8 1086 984 1099 1215 1216 1103 1227 1352
8 1087 985 1103 1216 1217 1104 1230 1353
8 1090 988 1104 1217 1219 1106 1231 1354
8 1218 1105 987 1089 1355 1232 1106 1219
8 1091 991 1105 1218 1220 1109 1232 1355
8 1092 992 1109 1220 1221 1110 1234 1356
8 1222 1108 1233 1357 1095 990 1107 1224
8 1222 1108 993 1093 1357 1233 1110 1221
8 1223 1101 989 1096 1358 1229 1107 1224
8 1226 1102 983 1098 1358 1229 1101 1223
8 1226 1102 1228 1359 1098 983 1100 1225
8 1103 995 1111 1227 1230 1112 1235 1360
8 1107 1002 1117 1233 1229 1116 1240 1362
8 1102 1001 1116 1229 1228 1115 1240 1362
8 1104 996 1112 1230 1231 1113 1236 1363
8 1364 1237 1114 1232 1231 1113 997 1106
8 1109 1005 1114 1232 1234 1118 1238 1365
8 1110 1004 1118 1234 1233 1117 1241 1366
8 1242 1374 1255 1138 1119 1243 1132 1025
8 1244 1127 1254 1376 1121 1015 1129 1245
8 1148 1031 1149 1275 1244 1127 1254 1376
8 1245 1129 1258 1377 1125 1016 1130 1248
8 1251 1134 1019 1126 1378 1257 1128 1246
8 1378 1257 1128 1246 1247 1131 1017 1123
8 1248 1130 1259 1379 1124 1018 1131 1247
8 1261 1381 1250 1133 1132 1249 1330 1199
8 1255 1380 1252 1135 1132 1249 1381 1261
8 1250 1133 1019 1126 1382 1262 1134 1251
8 1253 1136 1256 1385 1384 1263 1135 1252
8 1254 1137 1265 1387 1129 1022 1141 1258
8 1149 1032 1150 1276 1254 1137 1265 1387
8 1028 1135 1255 1138 1139 1256 1388 1266
8 1136 1029 1147 1264 1256 1139 1267 1389
8 1390 1268 1140 1257 1259 1142 1024 1131
8 1260 1143 1027 1134 1390 1268 1140 1257
8 1258 1141 1269 1391 1130 1023 1142 1259
8 1262 1145 1027 1134 1393 1271 1143 1260
8 1261 1144 1026 1133 1394 1272 1145 1262
8 1135 1028 1144 1261 1263 1146 1272 1394
8 1136 1029 1146 1263 1264 1147 1273 1395
8 1155 1041 1160 1282 1275 1149 1276 1405
8 1276 1150 1044 1160 1406 1277 1162 1286
8 1408 1283 1159 1279 1278 1156 1039 1151
8 1290 1165 1283 1408 1177 1053 1156 1278
8 1152 1040 1159 1279 1280 1158 1285 1409
8 1281 1157 1038 1153 1410 1284 1158 1280
8 1281 1157 1284 1410 1154 1042 1160 1282
8 1159 1046 1164 1283 1285 1163 1289 1412
8 1292 1167 1289 1412 1165 1048 1164 1283
8 1158 1045 1163 1285 1284 1161 1288 1413
8 1284 1161 1288 1413 1160 1044 1162 1286
8 1291 1166 1292 1418 1174 1051 1165 1290
8 1291 1166 1051 1174 1419 1293 1172 1305
8 1294 1169 1296 1421 1166 1049 1167 1292
8 1293 1168 1050 1172 1422 1295 1171 1303
8 1294 1169 1049 1166 1423 1297 1168 1293
8 1422 1295 1171 1303 1301 1170 1302 1435
8 1172 1050 1173 1306 1303 1171 1304 1438
8 1174 1051 1175 1308 1305 1172 1306 1440
8 1175 1052 1176 1309 1306 1173 1307 1441
8 1177 1053 1178 1311 1308 1175 1309 1443
8 1178 1054 1179 1312 1309 1176 1310 1444
8 1180 1055 1181 1314 1311 1178 1312 1446
8 1056 1181 1312 1179 1182 1315 1447 1313
8 1183 1058 1184 1316 1314 1181 1315 1448
8 1319 1186 1084 1214 1451 1317 1213 1350
8 1319 1186 1318 1453 1208 1081 1187 1321
8 1321 1187 1320 1456 1188 1063 1189 1323
8 1344 1208 1321 1457 1209 1082 1188 1322
8 1322 1188 1323 1458 1190 1064 1191 1325
8 1323 1189 1324 1459 1191 1065 1192 1326
8 1191 1325 1193 1067 1326 1460 1327 1194
8 1242 1374 1243 1119 1328 1462 1335 1204
8 1330 1199 1333 1465 1196 1075 1200 1331
8 1132 1249 1330 1199 1243 1375 1465 1333
8 1332 1201 1077 1198 1466 1334 1200 1331
8 1215 1099 1201 1332 1352 1227 1334 1466
8 1119 1243 1333 1203 1204 1335 1470 1338
8 1333 1203 1338 1470 1200 1080 1202 1334
8 1227 1111 1202 1334 1360 1235 1338 1470
8 1328 1462 1335 1204 1205 1336 1471 1339
8 1337 1206 1340 1472 1464 1329 1205 1336
8 1346 1211 1342 1479 1210 1083 1207 1343
8 1346 1211 1115 1228 1479 1342 1239 1361
8 1348 1212 1084 1214 1479 1342 1207 1343
8 1480 1343 1208 1344 1345 1210 1082 1209
8 1351 1214 1319 1454 1480 1343 1208 1344
8 1481 1346 1210 1345 1359 1228 1100 1225
8 1348 1212 1347 1483 1214 1084 1213 1350
8 1216 1103 1227 1352 1353 1230 1360 1488
8 1217 1104 1230 1353 1354 1231 1363 1489
8 1490 1364 1232 1355 1354 1231 1106 1219
8 1220 1109 1232 1355 1356 1234 1365 1491
8 1221 1110 1234 1356 1357 1233 1366 1492
8 1224 1107 1233 1357 1358 1229 1362 1493
8 1226 1102 1229 1358 1359 1228 1362 1493
8 1230 1112 1235 1360 1363 1236 1367 1496
8 1361 1239 1115 1228 1497 1371 1240 1362
8 1366 1241 1372 1498 1233 1117 1240 1362
8 1364 1237 1113 1231 1499 1368 1236 1363
8 1364 1237 1368 1499 1232 1114 1238 1365
8 1234 1118 1238 1365 1366 1241 1369 1500
8 1507 1373 1242 1374 1388 1266 1138 1255
8 1508 1374 1243 1375 1380 1255 1132 1249
8 1376 1254 1387 1509 1245 1129 1258 1377
8 1275 1149 1276 1405 1376 1254 1387 1509
8 1377 1258 1391 1510 1248 1130 1259 1379
8 1511 1390 1257 1378 1379 1259 1131 1247
8 1383 1260 1134 1251 1511 1390 1257 1378
8 1252 1135 1256 1385 1380 1255 1388 1512
8 1261 1381 1513 1394 1133 1250 1382 1262
8 1135 1252 1384 1263 1261 1381 1513 1394
8 1382 1262 1134 1251 1514 1393 1260 1383
8 1253 1136 1263 1384 1386 1264 1395 1516
8 1253 1136 1264 1386 1385 1256 1389 1517
8 1387 1265 1397 1519 1258 1141 1269 1391
8 1276 1150 1277 1406 1387 1265 1397 1519
8 1256 1139 1267 1389 1388 1266 1398 1520
8 1264 1147 1274 1396 1389 1267 1399 1521
8 1392 1270 1143 1260 1522 1400 1268 1390
8 1390 1268 1142 1259 1522 1400 1269 1391
8 1392 1270 1401 1523 1260 1143 1271 1393
8 1272 1394 1524 1402 1145 1262 1393 1271
8 1395 1273 1146 1263 1524 1402 1272 1394
8 1273 1395 1264 1147 1403 1526 1396 1274
8 1405 1276 1160 1282 1534 1406 1286 1411
8 1414 1287 1407 1535 1286 1162 1277 1406
8 1279 1159 1283 1408 1409 1285 1412 1537
8 1418 1292 1412 1537 1290 1165 1283 1408
8 1280 1158 1285 1409 1410 1284 1413 1538
8 1410 1284 1413 1538 1282 1160 1286 1411
8 1285 1163 1289 1412 1413 1288 1417 1540
8 1421 1296 1417 1540 1292 1167 1289 1412
8 1414 1287 1162 1286 1541 1416 1288 1413
8 1420 1294 1421 1545 1291 1166 1292 1418
8 1419 1293 1172 1305 1546 1422 1303 1437
8 1420 1294 1166 1291 1547 1423 1293 1419
8 1294 1169 1297 1423 1421 1296 1425 1548
8 1423 1297 1168 1293 1549 1424 1295 1422
8 1301 1170 1298 1427 1422 1295 1424 1549
8 1432 1300 1428 1554 1301 1170 1298 1427
8 1431 1299 1428 1554 1560 1430 1300 1432
8 1563 1433 1300 1432 1435 1302 1170 1301
8 1546 1422 1303 1437 1434 1301 1435 1565
8 1303 1171 1304 1438 1435 1302 1436 1566
8 1305 1172 1306 1440 1437 1303 1438 1568
8 1306 1173 1307 1441 1438 1304 1439 1569
8 1308 1175 1309 1443 1440 1306 1441 1571
8 1309 1176 1310 1444 1441 1307 1442 1572
8 1311 1178 1312 1446 1443 1309 1444 1574
8 1179 1312 1444 1310 1313 1447 1575 1445
8 1314 1181 1315 1448 1446 1312 1447 1576
8 1350 1213 1349 1486 1451 1317 1449 1579
8 1451 1317 1450 1581 1319 1186 1318 1453
8 1454 1319 1214 1351 1582 1451 1350 1487
8 1453 1318 1452 1584 1321 1187 1320 1456
8 1454 1319 1453 1585 1344 1208 1321 1457
8 1456 1320 1455 1586 1323 1189 1324 1459
8 1457 1321 1456 1587 1322 1188 1323 1458
8 1458 1323 1459 1588 1325 1191 1326 1460
8 1205 1336 1464 1329 1328 1462 1590 1461
8 1507 1373 1461 1590 1374 1242 1328 1462
8 1508 1374 1462 1591 1375 1243 1335 1467
8 1337 1206 1329 1464 1473 1341 1463 1594
8 1375 1243 1335 1467 1465 1333 1470 1596
8 1465 1333 1470 1596 1331 1200 1334 1466
8 1352 1227 1334 1466 1488 1360 1470 1596
8 1591 1462 1336 1468 1467 1335 1471 1597
8 1469 1337 1472 1598 1595 1464 1336 1468
8 1471 1339 1474 1600 1335 1204 1338 1470
8 1600 1474 1367 1496 1470 1338 1235 1360
8 1336 1205 1340 1472 1471 1339 1475 1601
8 1337 1206 1341 1473 1472 1340 1476 1602
8 1495 1370 1478 1609 1361 1239 1342 1479
8 1348 1212 1342 1479 1483 1347 1478 1609
8 1481 1346 1479 1610 1345 1210 1343 1480
8 1481 1346 1228 1359 1610 1479 1361 1494
8 1484 1348 1214 1351 1610 1479 1343 1480
8 1483 1347 1482 1612 1350 1213 1349 1486
8 1484 1348 1483 1613 1351 1214 1350 1487
8 1353 1230 1360 1488 1489 1363 1496 1616
8 1490 1364 1231 1354 1617 1499 1363 1489
8 1490 1364 1499 1617 1355 1232 1365 1491
8 1356 1234 1365 1491 1492 1366 1500 1619
8 1492 1366 1498 1620 1357 1233 1362 1493
8 1494 1361 1228 1359 1621 1497 1362 1493
8 1495 1370 1239 1361 1622 1504 1371 1497
8 1363 1236 1367 1496 1499 1368 1501 1623
8 1497 1371 1240 1362 1624 1505 1372 1498
8 1625 1503 1372 1498 1500 1369 1241 1366
8 1365 1238 1368 1499 1500 1369 1502 1626
8 1520 1398 1506 1633 1388 1266 1373 1507
8 1634 1507 1374 1508 1512 1388 1255 1380
8 1509 1387 1519 1635 1377 1258 1391 1510
8 1405 1276 1406 1534 1509 1387 1519 1635
8 1515 1392 1260 1383 1636 1522 1390 1511
8 1511 1390 1259 1379 1636 1522 1391 1510
8 1385 1256 1389 1517 1512 1388 1520 1637
8 1513 1394 1262 1382 1638 1524 1393 1514
8 1395 1516 1638 1524 1263 1384 1513 1394
8 1515 1392 1523 1639 1383 1260 1393 1514
8 1516 1395 1526 1640 1386 1264 1396 1518
8 1386 1264 1396 1518 1517 1389 1521 1641
8 1519 1397 1527 1643 1391 1269 1400 1522
8 1535 1407 1527 1643 1406 1277 1397 1519
8 1389 1267 1399 1521 1520 1398 1528 1644
8 1645 1529 1399 1521 1525 1404 1274 1396
8 1392 1270 1400 1522 1523 1401 1531 1646
8 1524 1402 1271 1393 1648 1532 1401 1523
8 1403 1526 1648 1532 1273 1395 1524 1402
8 1525 1404 1274 1396 1649 1533 1403 1526
8 1539 1414 1535 1657 1411 1286 1406 1534
8 1542 1415 1536 1658 1414 1287 1407 1535
8 1409 1285 1412 1537 1538 1413 1540 1660
8 1545 1421 1540 1660 1418 1292 1412 1537
8 1539 1414 1286 1411 1661 1541 1413 1538
8 1540 1417 1544 1663 1413 1288 1416 1541
8 1421 1296 1425 1548 1540 1417 1544 1663
8 1542 1415 1287 1414 1664 1543 1416 1541
8 1420 1294 1423 1547 1545 1421 1548 1666
8 1547 1423 1293 1419 1667 1549 1422 1546
8 1434 1301 1427 1553 1546 1422 1549 1667
8 1423 1297 1424 1549 1548 1425 1550 1668
8 1551 1426 1550 1668 1427 1298 1424 1549
8 1551 1426 1298 1427 1671 1552 1428 1554
8 1562 1432 1554 1674 1434 1301 1427 1553
8 1431 1299 1429 1558 1554 1428 1555 1675
8 1431 1299 1430 1560 1558 1429 1557 1680
8 1560 1430 1300 1432 1683 1559 1433 1563
8 1561 1431 1554 1674 1684 1560 1432 1562
8 1685 1563 1432 1562 1565 1435 1301 1434
8 1435 1302 1436 1566 1563 1433 1564 1686
8 1437 1303 1438 1568 1565 1435 1566 1688
8 1438 1304 1439 1569 1566 1436 1567 1689
8 1440 1306 1441 1571 1568 1438 1569 1691
8 1441 1307 1442 1572 1569 1439 1570 1692
8 1443 1309 1444 1574 1571 1441 1572 1694
8 1310 1444 1572 1442 1445 1575 1695 1573
8 1446 1312 1447 1576 1574 1444 1575 1696
8 1486 1349 1485 1614 1579 1449 1577 1699
8 1451 1317 1449 1579 1581 1450 1578 1701
8 1487 1350 1486 1615 1582 1451 1579 1702
8 1581 1450 1580 1704 1453 1318 1452 1584
8 1582 1451 1581 1705 1454 1319 1453 1585
8 1584 1452 1583 1706 1456 1320 1455 1586
8 1585 1453 1584 1707 1457 1321 1456 1587
8 1587 1456 1586 1708 1458 1323 1459 1588
8 1633 1506 1589 1710 1507 1373 1461 1590
8 1464 1329 1461 1590 1594 1463 1589 1710
8 1468 1336 1462 1591 1595 1464 1590 1711
8 1634 1507 1590 1711 1508 1374 1462 1591
8 1473 1341 1463 1594 1603 1477 1593 1716
8 1469 1337 1464 1595 1599 1473 1594 1717
8 1471 1597 1467 1335 1600 1718 1596 1470
8 1718 1600 1496 1616 1596 1470 1360 1488
8 1336 1468 1597 1471 1472 1598 1719 1601
8 1469 1337 1473 1599 1598 1472 1602 1720
8 1722 1604 1501 1623 1600 1474 1367 1496
8 1475 1601 1471 1339 1604 1722 1600 1474
8 1602 1476 1605 1723 1472 1340 1475 1601
8 1476 1602 1724 1606 1341 1473 1603 1477
8 1483 1347 1478 1609 1612 1482 1608 1731
8 1495 1370 1504 1622 1609 1478 1608 1731
8 1618 1495 1609 1732 1494 1361 1479 1610
8 1484 1348 1479 1610 1613 1483 1609 1732
8 1486 1349 1482 1612 1614 1485 1611 1733
8 1613 1483 1612 1734 1487 1350 1486 1615
8 1489 1363 1496 1616 1617 1499 1623 1736
8 1491 1365 1499 1617 1619 1500 1626 1737
8 1618 1495 1361 1494 1738 1622 1497 1621
8 1739 1625 1498 1620 1619 1500 1366 1492
8 1621 1497 1362 1493 1740 1624 1498 1620
8 1742 1631 1504 1622 1624 1505 1371 1497
8 1743 1628 1502 1626 1623 1501 1368 1499
8 1744 1630 1505 1624 1625 1503 1372 1498
8 1745 1629 1503 1625 1626 1502 1369 1500
8 1520 1398 1528 1644 1633 1506 1632 1751
8 1637 1520 1633 1752 1512 1388 1507 1634
8 1635 1519 1643 1753 1510 1391 1522 1636
8 1657 1535 1643 1753 1534 1406 1519 1635
8 1515 1392 1522 1636 1639 1523 1646 1754
8 1517 1389 1521 1641 1637 1520 1644 1755
8 1524 1638 1756 1648 1393 1514 1639 1523
8 1640 1526 1395 1516 1756 1648 1524 1638
8 1642 1525 1396 1518 1757 1649 1526 1640
8 1758 1645 1521 1641 1642 1525 1396 1518
8 1646 1531 1400 1522 1760 1650 1527 1643
8 1535 1407 1536 1658 1643 1527 1650 1760
8 1521 1399 1529 1645 1644 1528 1651 1761
8 1647 1530 1652 1762 1525 1404 1529 1645
8 1401 1523 1648 1532 1531 1646 1763 1655
8 1525 1404 1533 1649 1647 1530 1654 1765
8 1533 1649 1766 1656 1403 1526 1648 1532
8 1662 1542 1658 1774 1539 1414 1535 1657
8 1542 1415 1543 1664 1658 1536 1659 1775
8 1660 1540 1663 1777 1538 1413 1541 1661
8 1545 1421 1548 1666 1660 1540 1663 1777
8 1662 1542 1414 1539 1778 1664 1541 1661
8 1664 1543 1416 1541 1779 1665 1544 1663
8 1548 1425 1550 1668 1663 1544 1665 1779
8 1547 1423 1549 1667 1666 1548 1668 1781
8 1670 1551 1668 1781 1553 1427 1549 1667
8 1551 1426 1552 1671 1668 1550 1669 1782
8 1670 1551 1427 1553 1784 1671 1554 1674
8 1675 1555 1672 1785 1554 1428 1552 1671
8 1678 1556 1673 1789 1558 1429 1555 1675
8 1561 1431 1558 1681 1674 1554 1675 1790
8 1794 1677 1556 1678 1680 1557 1429 1558
8 1560 1430 1559 1683 1680 1557 1679 1797
8 1561 1431 1560 1684 1681 1558 1680 1798
8 1563 1433 1564 1686 1683 1559 1682 1800
8 1684 1560 1432 1562 1801 1683 1563 1685
8 1565 1435 1566 1688 1685 1563 1686 1802
8 1566 1436 1567 1689 1686 1564 1687 1803
8 1568 1438 1569 1691 1688 1566 1689 1805
8 1569 1439 1570 1692 1689 1567 1690 1806
8 1571 1441 1572 1694 1691 1569 1692 1808
8 1442 1572 1692 1570 1573 1695 1809 1693
8 1574 1444 1575 1696 1694 1572 1695 1810
8 1614 1485 1592 1712 1699 1577 1697 1813
8 1579 1449 1577 1699 1701 1578 1698 1815
8 1615 1486 1614 1735 1702 1579 1699 1816
8 1701 1578 1700 1818 1581 1450 1580 1704
8 1582 1451 1579 1702 1705 1581 1701 1819
8 1704 1580 1703 1820 1584 1452 1583 1706
8 1705 1581 1704 1821 1585 1453 1584 1707
8 1707 1584 1706 1822 1587 1456 1586 1708
8 1710 1589 1506 1633 1824 1709 1632 1751
8 1594 1463 1589 1710 1716 1593 1709 1824
8 1752 1633 1710 1825 1634 1507 1590 1711
8 1595 1464 1590 1711 1717 1594 1710 1825
8 1830 1714 1592 1712 1733 1611 1485 1614
8 1603 1477 1593 1716 1725 1607 1715 1834
8 1599 1473 1594 1717 1721 1603 1716 1835
8 1837 1722 1623 1736 1718 1600 1496 1616
8 1719 1601 1722 1837 1597 1471 1600 1718
8 1602 1720 1598 1472 1723 1838 1719 1601
8 1720 1602 1473 1599 1839 1724 1603 1721
8 1723 1605 1726 1840 1601 1475 1604 1722
8 1840 1726 1628 1743 1722 1604 1501 1623
8 1724 1606 1727 1841 1602 1476 1605 1723
8 1725 1607 1728 1842 1603 1477 1606 1724
8 1612 1482 1608 1731 1733 1611 1730 1849
8 1741 1627 1730 1849 1622 1504 1608 1731
8 1613 1483 1609 1732 1734 1612 1731 1850
8 1618 1495 1622 1738 1732 1609 1731 1850
8 1615 1486 1612 1734 1735 1614 1733 1851
8 1852 1743 1626 1737 1736 1623 1499 1617
8 1853 1745 1625 1739 1737 1626 1500 1619
8 1855 1742 1622 1738 1740 1624 1497 1621
8 1856 1744 1624 1740 1739 1625 1498 1620
8 1741 1627 1504 1622 1857 1746 1631 1742
8 1742 1631 1505 1624 1858 1749 1630 1744
8 1859 1747 1629 1745 1743 1628 1502 1626
8 1860 1748 1630 1744 1745 1629 1503 1625
8 1644 1528 1651 1761 1751 1632 1750 1865
8 1637 1520 1644 1755 1752 1633 1751 1866
8 1754 1646 1522 1636 1867 1760 1643 1753
8 1657 1535 1658 1774 1753 1643 1760 1867
8 1639 1523 1646 1754 1756 1648 1763 1868
8 1641 1521 1645 1758 1755 1644 1761 1869
8 1757 1649 1526 1640 1870 1766 1648 1756
8 1642 1525 1649 1757 1759 1647 1765 1871
8 1759 1647 1762 1872 1642 1525 1645 1758
8 1760 1650 1767 1874 1646 1531 1655 1763
8 1658 1536 1659 1775 1760 1650 1767 1874
8 1762 1652 1768 1875 1645 1529 1651 1761
8 1764 1653 1769 1876 1647 1530 1652 1762
8 1656 1766 1877 1773 1532 1648 1763 1655
8 1771 1879 1765 1654 1653 1764 1647 1530
8 1533 1649 1765 1654 1656 1766 1880 1772
8 1662 1542 1664 1778 1774 1658 1775 1887
8 1664 1543 1665 1779 1775 1659 1776 1888
8 1778 1664 1541 1661 1890 1779 1663 1777
8 1666 1548 1668 1781 1777 1663 1779 1890
8 1782 1669 1780 1891 1668 1550 1665 1779
8 1670 1551 1671 1784 1781 1668 1782 1893
8 1671 1552 1672 1785 1782 1669 1783 1894
8 1790 1675 1785 1896 1674 1554 1671 1784
8 1675 1555 1673 1789 1785 1672 1786 1897
8 1792 1676 1788 1903 1678 1556 1673 1789
8 1795 1678 1789 1904 1681 1558 1675 1790
8 1792 1676 1556 1678 1906 1791 1677 1794
8 1680 1557 1679 1797 1794 1677 1793 1909
8 1910 1794 1678 1795 1798 1680 1558 1681
8 1683 1559 1682 1800 1797 1679 1796 1912
8 1684 1560 1683 1801 1798 1680 1797 1913
8 1686 1564 1687 1803 1800 1682 1799 1915
8 1685 1563 1686 1802 1801 1683 1800 1916
8 1688 1566 1689 1805 1802 1686 1803 1917
8 1689 1567 1690 1806 1803 1687 1804 1918
8 1691 1569 1692 1808 1805 1689 1806 1920
8 1692 1570 1693 1809 1806 1690 1807 1921
8 1694 1572 1695 1810 1808 1692 1809 1922
8 1829 1713 1811 1926 1712 1592 1697 1813
8 1813 1697 1812 1928 1699 1577 1698 1815
8 1735 1614 1712 1828 1816 1699 1813 1929
8 1815 1698 1814 1931 1701 1578 1700 1818
8 1702 1579 1699 1816 1819 1701 1815 1932
8 1818 1700 1817 1933 1704 1580 1703 1820
8 1819 1701 1818 1934 1705 1581 1704 1821
8 1821 1704 1820 1935 1707 1584 1706 1822
8 1824 1709 1632 1751 1937 1823 1750 1865
8 1716 1593 1709 1824 1834 1715 1823 1937
8 1825 1710 1633 1752 1938 1824 1751 1866
8 1717 1594 1710 1825 1835 1716 1824 1938
8 1945 1830 1712 1828 1851 1733 1614 1735
8 1830 1714 1831 1946 1712 1592 1713 1829
8 1947 1832 1714 1830 1849 1730 1611 1733
8 1843 1729 1607 1725 1950 1833 1715 1834
8 1721 1603 1716 1835 1836 1725 1834 1951
8 1836 1725 1842 1953 1721 1603 1724 1839
8 1723 1838 1719 1601 1840 1954 1837 1722
8 1954 1840 1743 1852 1837 1722 1623 1736
8 1724 1839 1720 1602 1841 1955 1838 1723
8 1841 1727 1844 1956 1723 1605 1726 1840
8 1956 1844 1747 1859 1840 1726 1628 1743
8 1728 1842 1724 1606 1845 1957 1841 1727
8 1725 1607 1729 1843 1842 1728 1846 1958
8 1741 1627 1746 1857 1849 1730 1848 1965
8 1734 1612 1731 1850 1851 1733 1849 1966
8 1854 1741 1849 1966 1738 1622 1731 1850
8 1967 1859 1745 1853 1852 1743 1626 1737
8 1968 1860 1744 1856 1853 1745 1625 1739
8 1854 1741 1622 1738 1969 1857 1742 1855
8 1855 1742 1624 1740 1970 1858 1744 1856
8 1857 1746 1631 1742 1971 1861 1749 1858
8 1858 1749 1630 1744 1972 1863 1748 1860
8 1859 1747 1862 1973 1745 1629 1748 1860
8 1875 1768 1864 1977 1761 1651 1750 1865
8 1755 1644 1761 1869 1866 1751 1865 1978
8 1867 1760 1874 1979 1754 1646 1763 1868
8 1774 1658 1775 1887 1867 1760 1874 1979
8 1870 1766 1648 1756 1980 1877 1763 1868
8 1872 1762 1875 1981 1758 1645 1761 1869
8 1757 1649 1766 1870 1871 1765 1880 1982
8 1983 1879 1764 1873 1871 1765 1647 1759
8 1873 1764 1876 1984 1759 1647 1762 1872
8 1877 1773 1655 1763 1986 1881 1767 1874
8 1775 1659 1776 1888 1874 1767 1881 1986
8 1876 1769 1882 1987 1762 1652 1768 1875
8 1878 1770 1883 1988 1764 1653 1769 1876
8 1880 1772 1656 1766 1989 1886 1773 1877
8 1878 1770 1653 1764 1990 1884 1771 1879
8 1765 1654 1772 1880 1879 1771 1885 1991
8 1778 1664 1779 1890 1887 1775 1888 1997
8 1998 1889 1776 1888 1891 1780 1665 1779
8 1893 1782 1891 2000 1781 1668 1779 1890
8 1894 1783 1892 2001 1782 1669 1780 1891
8 1784 1671 1785 1896 1893 1782 1894 2003
8 1897 1786 1895 2004 1785 1672 1783 1894
8 1790 1675 1789 1904 1896 1785 1897 2006
8 1901 1787 1898 2007 1789 1673 1786 1897
8 1903 1788 1900 2013 1789 1673 1787 1901
8 1792 1676 1791 1906 1903 1788 1902 2016
8 1907 1792 1903 2017 1795 1678 1789 1904
8 1906 1791 1677 1794 2019 1905 1793 1909
8 1907 1792 1678 1795 2020 1906 1794 1910
8 1797 1679 1796 1912 1909 1793 1908 2022
8 1798 1680 1797 1913 1910 1794 1909 2023
8 1800 1682 1799 1915 1912 1796 1911 2025
8 1801 1683 1800 1916 1913 1797 1912 2026
8 1803 1687 1804 1918 1915 1799 1914 2028
8 1802 1686 1803 1917 1916 1800 1915 2029
8 1805 1689 1806 1920 1917 1803 1918 2030
8 1806 1690 1807 1921 1918 1804 1919 2031
8 1808 1692 1809 1922 1920 1806 1921 2032
8 1939 1826 1924 2037 1829 1713 1811 1926
8 1926 1811 1925 2039 1813 1697 1812 1928
8 1944 1829 1926 2040 1828 1712 1813 1929
8 1928 1812 1927 2042 1815 1698 1814 1931
8 1929 1813 1928 2043 1816 1699 1815 1932
8 1931 1814 1930 2044 1818 1700 1817 1933
8 1932 1815 1931 2045 1819 1701 1818 1934
8 1934 1818 1933 2046 1821 1704 1820 1935
8 2048 1936 1823 1937 1977 1864 1750 1865
8 1950 1833 1715 1834 2048 1936 1823 1937
8 1938 1824 1751 1866 2049 1937 1865 1978
8 1835 1716 1824 1938 1951 1834 1937 2049
8 1939 1826 1713 1829 2053 1942 1831 1946
8 1940 1827 1923 2035 2053 1942 1826 1939
8 1945 1830 1946 2058 1828 1712 1829 1944
8 2059 1947 1830 1945 1966 1849 1733 1851
8 1947 1832 1730 1849 2060 1948 1848 1965
8 1947 1832 1948 2060 1830 1714 1831 1946
8 1959 1847 1729 1843 2063 1949 1833 1950
8 1952 1843 1725 1836 2064 1950 1834 1951
8 1836 1725 1843 1952 1953 1842 1958 2066
8 1953 1842 1957 2067 1839 1724 1841 1955
8 1841 1955 1838 1723 1956 2068 1954 1840
8 2068 1956 1859 1967 1954 1840 1743 1852
8 1956 1844 1960 2069 1859 1747 1862 1973
8 1845 1957 1841 1727 1960 2069 1956 1844
8 1728 1842 1957 1845 1846 1958 2071 1961
8 1962 2072 1959 1847 1846 1958 1843 1729
8 1971 1861 1964 2077 1857 1746 1848 1965
8 1854 1741 1857 1969 1966 1849 1965 2078
8 1967 1859 1973 2079 1853 1745 1860 1968
8 1970 1858 1744 1856 2080 1972 1860 1968
8 1969 1857 1742 1855 2081 1971 1858 1970
8 1971 1861 1749 1858 2082 1974 1863 1972
8 1973 1862 1975 2083 1860 1748 1863 1972
8 1987 1882 1976 2086 1875 1768 1864 1977
8 1981 1875 1977 2087 1869 1761 1865 1978
8 1980 1877 1763 1868 2088 1986 1874 1979
8 1887 1775 1888 1997 1979 1874 1986 2088
8 1880 1982 2089 1989 1766 1870 1980 1877
8 1984 1876 1987 2090 1872 1762 1875 1981
8 1765 1871 1983 1879 1880 1982 2091 1991
8 1985 1878 1764 1873 2092 1990 1879 1983
8 1985 1878 1988 2093 1873 1764 1876 1984
8 2094 1992 1881 1986 1998 1889 1776 1888
8 1986 1881 1992 2094 1877 1773 1886 1989
8 1988 1883 1993 2095 1876 1769 1882 1987
8 1878 1770 1884 1990 1988 1883 1994 2096
8 1991 1885 1772 1880 2097 1996 1886 1989
8 1879 1771 1885 1991 1990 1884 1995 2098
8 2103 1998 1888 1997 2000 1891 1779 1890
8 2104 1999 1889 1998 2001 1892 1780 1891
8 2003 1894 2001 2106 1893 1782 1891 2000
8 2004 1895 2002 2107 1894 1783 1892 2001
8 2006 1897 2004 2109 1896 1785 1894 2003
8 2007 1898 2005 2110 1897 1786 1895 2004
8 2014 1901 2007 2112 1904 1789 1897 2006
8 2011 1899 2008 2113 1901 1787 1898 2007
8 2119 2010 1899 2011 2013 1900 1787 1901
8 2016 1902 2012 2122 1903 1788 1900 2013
8 2017 1903 2013 2123 1904 1789 1901 2014
8 1906 1791 1905 2019 2016 1902 2015 2125
8 1907 1792 1906 2020 2017 1903 2016 2126
8 1909 1793 1908 2022 2019 1905 2018 2128
8 2020 1906 1794 1910 2129 2019 1909 2023
8 1912 1796 1911 2025 2022 1908 2021 2131
8 1913 1797 1912 2026 2023 1909 2022 2132
8 1915 1799 1914 2028 2025 1911 2024 2134
8 1916 1800 1915 2029 2026 1912 2025 2135
8 1918 1804 1919 2031 2028 1914 2027 2136
8 1917 1803 1918 2030 2029 1915 2028 2137
8 1920 1806 1921 2032 2030 1918 2031 2138
8 1940 1827 1941 2054 2035 1923 2033 2140
8 2035 1923 2034 2143 1939 1826 1924 2037
8 2037 1924 2036 2146 1926 1811 1925 2039
8 2051 1939 2037 2147 1944 1829 1926 2040
8 2039 1925 2038 2149 1928 1812 1927 2042
8 2040 1926 2039 2150 1929 1813 1928 2043
8 2042 1927 2041 2151 1931 1814 1930 2044
8 2043 1928 2042 2152 1932 1815 1931 2045
8 2045 1931 2044 2153 1934 1818 1933 2046
8 2155 2047 1936 2048 2086 1976 1864 1977
8 2063 1949 1833 1950 2155 2047 1936 2048
8 2156 2048 1937 2049 2087 1977 1865 1978
8 2064 1950 1834 1951 2156 2048 1937 2049
8 2051 1939 1829 1944 2160 2053 1946 2058
8 2052 1940 2035 2144 2160 2053 1939 2051
8 2053 1942 1831 1946 2163 2057 1948 2060
8 2055 1943 1827 1940 2163 2057 1942 2053
8 2055 1943 2056 2164 1940 1827 1941 2054
8 2059 1947 1849 1966 2167 2060 1965 2078
8 2059 1947 2060 2167 1945 1830 1946 2058
8 2077 1964 2061 2168 1965 1848 1948 2060
8 2070 1963 1847 1959 2170 2062 1949 2063
8 2065 1959 1843 1952 2171 2063 1950 2064
8 2173 2072 1958 2066 2065 1959 1843 1952
8 1953 1842 1958 2066 2067 1957 2071 2174
8 2068 1956 2069 2175 1967 1859 1973 2079
8 2067 1957 2069 2175 1955 1841 1956 2068
8 1845 1957 2069 1960 1961 2071 2176 2073
8 2069 1960 2073 2176 1973 1862 1975 2083
8 2070 1963 2075 2177 1959 1847 1962 2072
8 1846 1958 2071 1961 1962 2072 2178 2074
8 2077 1964 1861 1971 2182 2076 1974 2082
8 2081 1971 2077 2183 1969 1857 1965 2078
8 2079 1973 2083 2184 1968 1860 1972 2080
8 2081 1971 1858 1970 2185 2082 1972 2080
8 2083 1975 2084 2186 1972 1863 1974 2082
8 2086 1976 1882 1987 2189 2085 1993 2095
8 2090 1987 2086 2190 1981 1875 1977 2087
8 2191 2094 1986 2088 2103 1998 1888 1997
8 2088 1986 2094 2191 1980 1877 1989 2089
8 1991 2091 2192 2097 1880 1982 2089 1989
8 2093 1988 2095 2193 1984 1876 1987 2090
8 1879 1983 2092 1990 1991 2091 2194 2098
8 1985 1878 1990 2092 2093 1988 2096 2195
8 2097 1996 1886 1989 2196 2099 1992 2094
8 2196 2099 1992 2094 2104 1999 1889 1998
8 1994 2096 1988 1883 2100 2197 2095 1993
8 2096 1994 1884 1990 2198 2101 1995 2098
8 1995 2098 2199 2102 1885 1991 2097 1996
8 2203 2104 1998 2103 2106 2001 1891 2000
8 2107 2002 2105 2204 2001 1892 1999 2104
8 2109 2004 2107 2206 2003 1894 2001 2106
8 2110 2005 2108 2207 2004 1895 2002 2107
8 2112 2007 2110 2209 2006 1897 2004 2109
8 2113 2008 2111 2210 2007 1898 2005 2110
8 2120 2011 2113 2212 2014 1901 2007 2112
8 2117 2009 2114 2213 2011 1899 2008 2113
8 2219 2116 2009 2117 2119 2010 1899 2011
8 2222 2118 2010 2119 2122 2012 1900 2013
8 2223 2119 2011 2120 2123 2013 1901 2014
8 2016 1902 2015 2125 2122 2012 2121 2225
8 2126 2016 2122 2226 2017 1903 2013 2123
8 2019 1905 2018 2128 2125 2015 2124 2228
8 2020 1906 2019 2129 2126 2016 2125 2229
8 2022 1908 2021 2131 2128 2018 2127 2231
8 2023 1909 2022 2132 2129 2019 2128 2232
8 2025 1911 2024 2134 2131 2021 2130 2234
8 2026 1912 2025 2135 2132 2022 2131 2235
8 1914 2028 2134 2024 2027 2136 2236 2133
8 2029 1915 2028 2137 2135 2025 2134 2237
8 2030 1918 2031 2138 2137 2028 2136 2238
8 2157 2050 2139 2240 2054 1941 2033 2140
8 2052 1940 2054 2161 2144 2035 2140 2242
8 2140 2033 2141 2243 2035 1923 2034 2143
8 2143 2034 2142 2246 2037 1924 2036 2146
8 2144 2035 2143 2247 2051 1939 2037 2147
8 2146 2036 2145 2249 2039 1925 2038 2149
8 2147 2037 2146 2250 2040 1926 2039 2150
8 2149 2038 2148 2251 2042 1927 2041 2151
8 2150 2039 2149 2252 2043 1928 2042 2152
8 2152 2042 2151 2253 2045 1931 2044 2153
8 2255 2154 2047 2155 2189 2085 1976 2086
8 2170 2062 1949 2063 2255 2154 2047 2155
8 2256 2155 2048 2156 2190 2086 1977 2087
8 2171 2063 1950 2064 2256 2155 2048 2156
8 2258 2159 2050 2157 2164 2056 1941 2054
8 2160 2053 1946 2058 2262 2163 2060 2167
8 2162 2055 1940 2052 2262 2163 2053 2160
8 2162 2055 2164 2263 2052 1940 2054 2161
8 2163 2057 1948 2060 2264 2165 2061 2168
8 2055 1943 2057 2163 2164 2056 2165 2264
8 2182 2076 2166 2268 2077 1964 2061 2168
8 2183 2077 2168 2269 2078 1965 2060 2167
8 2070 1963 2062 2170 2177 2075 2169 2271
8 2172 2070 1959 2065 2272 2170 2063 2171
8 2172 2070 2177 2273 2065 1959 2072 2173
8 2066 1958 2072 2173 2174 2071 2178 2274
8 2067 1957 2071 2174 2175 2069 2176 2275
8 2175 2069 2176 2275 2079 1973 2083 2184
8 2071 1961 2074 2178 2176 2073 2179 2276
8 2176 2073 2179 2276 2083 1975 2084 2186
8 2072 1962 2075 2177 2178 2074 2180 2277
8 2182 2076 1974 2082 2280 2181 2084 2186
8 2183 2077 1971 2081 2281 2182 2082 2185
8 2184 2083 2186 2282 2080 1972 2082 2185
8 2189 2085 1993 2095 2285 2188 2100 2197
8 2190 2086 1987 2090 2286 2189 2095 2193
8 2192 2097 1989 2089 2287 2196 2094 2191
8 2287 2196 2094 2191 2203 2104 1998 2103
8 2194 2098 1991 2091 2288 2199 2097 2192
8 2195 2096 2197 2289 2093 1988 2095 2193
8 2096 2195 2290 2198 1990 2092 2194 2098
8 2097 1996 2099 2196 2199 2102 2200 2291
8 2196 2099 1999 2104 2291 2200 2105 2204
8 2100 2197 2292 2201 1994 2096 2198 2101
8 1995 2098 2198 2101 2102 2199 2293 2202
8 2206 2107 2204 2296 2106 2001 2104 2203
8 2207 2108 2205 2297 2107 2002 2105 2204
8 2209 2110 2207 2299 2109 2004 2107 2206
8 2210 2111 2208 2300 2110 2005 2108 2207
8 2212 2113 2210 2302 2112 2007 2110 2209
8 2213 2114 2211 2303 2113 2008 2111 2210
8 2220 2117 2213 2305 2120 2011 2113 2212
8 2216 2115 2214 2306 2117 2009 2114 2213
8 2216 2115 2009 2117 2311 2217 2116 2219
8 2219 2116 2010 2119 2314 2218 2118 2222
8 2315 2219 2117 2220 2223 2119 2011 2120
8 2122 2012 2121 2225 2222 2118 2221 2317
8 2318 2222 2119 2223 2226 2122 2013 2123
8 2125 2015 2124 2228 2225 2121 2224 2320
8 2126 2016 2125 2229 2226 2122 2225 2321
8 2128 2018 2127 2231 2228 2124 2227 2323
8 2129 2019 2128 2232 2229 2125 2228 2324
8 2131 2021 2130 2234 2231 2127 2230 2326
8 2132 2022 2131 2235 2232 2128 2231 2327
8 2134 2024 2133 2236 2234 2130 2233 2328
8 2135 2025 2134 2237 2235 2131 2234 2329
8 2137 2028 2136 2238 2237 2134 2236 2330
8 2157 2050 2158 2259 2240 2139 2239 2332
8 2257 2157 2240 2334 2161 2054 2140 2242
8 2240 2139 2241 2335 2140 2033 2141 2243
8 2242 2140 2243 2337 2144 2035 2143 2247
8 2243 2141 2244 2338 2143 2034 2142 2246
8 2246 2142 2245 2341 2146 2036 2145 2249
8 2247 2143 2246 2342 2147 2037 2146 2250
8 2249 2145 2248 2343 2149 2038 2148 2251
8 2250 2146 2249 2344 2150 2039 2149 2252
8 2252 2149 2251 2345 2152 2042 2151 2253
8 2169 2271 2347 2254 2062 2170 2255 2154
8 2189 2085 2188 2285 2255 2154 2254 2347
8 2348 2255 2155 2256 2286 2189 2086 2190
8 2272 2170 2063 2171 2348 2255 2155 2256
8 2349 2258 2157 2257 2263 2164 2054 2161
8 2258 2159 2261 2351 2157 2050 2158 2259
8 2258 2159 2056 2164 2351 2261 2165 2264
8 2262 2163 2060 2167 2355 2264 2168 2269
8 2162 2055 2163 2262 2263 2164 2264 2355
8 2357 2266 2165 2264 2268 2166 2061 2168
8 2268 2166 2076 2182 2361 2267 2181 2280
8 2281 2182 2268 2362 2183 2077 2168 2269
8 2271 2169 2270 2364 2177 2075 2180 2277
8 2172 2070 2170 2272 2273 2177 2271 2365
8 2072 2173 2274 2178 2177 2273 2366 2277
8 2071 2174 2275 2176 2178 2274 2367 2276
8 2275 2176 2276 2367 2184 2083 2186 2282
8 2283 2187 2084 2186 2368 2278 2179 2276
8 2178 2074 2180 2277 2276 2179 2278 2368
8 2283 2187 2279 2370 2186 2084 2181 2280
8 2281 2182 2082 2185 2371 2280 2186 2282
8 2188 2285 2374 2284 2100 2197 2292 2201
8 2286 2189 2095 2193 2375 2285 2197 2289
8 2192 2097 2196 2287 2288 2199 2291 2376
8 2287 2196 2104 2203 2376 2291 2204 2296
8 2194 2098 2199 2288 2290 2198 2293 2377
8 2289 2197 2096 2195 2378 2292 2198 2290
8 2291 2200 2105 2204 2379 2294 2205 2297
8 2199 2102 2200 2291 2293 2202 2294 2379
8 2198 2101 2202 2293 2292 2201 2295 2380
8 2299 2207 2297 2383 2206 2107 2204 2296
8 2300 2208 2298 2384 2207 2108 2205 2297
8 2302 2210 2300 2386 2209 2110 2207 2299
8 2303 2211 2301 2387 2210 2111 2208 2300
8 2305 2213 2303 2389 2212 2113 2210 2302
8 2306 2214 2304 2390 2213 2114 2211 2303
8 2310 2216 2306 2392 2220 2117 2213 2305
8 2308 2215 2307 2393 2216 2115 2214 2306
8 2308 2215 2115 2216 2396 2309 2217 2311
8 2310 2216 2117 2220 2398 2311 2219 2315
8 2311 2217 2116 2219 2399 2312 2218 2314
8 2314 2218 2118 2222 2402 2313 2221 2317
8 2315 2219 2119 2223 2403 2314 2222 2318
8 2225 2121 2224 2320 2317 2221 2316 2405
8 2226 2122 2225 2321 2318 2222 2317 2406
8 2228 2124 2227 2323 2320 2224 2319 2408
8 2229 2125 2228 2324 2321 2225 2320 2409
8 2231 2127 2230 2326 2323 2227 2322 2411
8 2232 2128 2231 2327 2324 2228 2323 2412
8 2234 2130 2233 2328 2326 2230 2325 2413
8 2235 2131 2234 2329 2327 2231 2326 2414
8 2237 2134 2236 2330 2329 2234 2328 2415
8 2259 2158 2260 2352 2332 2239 2331 2417
8 2257 2157 2259 2350 2334 2240 2332 2419
8 2240 2139 2239 2332 2335 2241 2333 2420
8 2334 2240 2335 2422 2242 2140 2243 2337
8 2335 2241 2336 2423 2243 2141 2244 2338
8 2337 2243 2338 2425 2247 2143 2246 2342
8 2338 2244 2339 2426 2246 2142 2245 2341
8 2341 2245 2340 2428 2249 2145 2248 2343
8 2342 2246 2341 2429 2250 2146 2249 2344
8 2344 2249 2343 2430 2252 2149 2251 2345
8 2188 2285 2347 2254 2284 2374 2432 2346
8 2347 2254 2346 2432 2271 2169 2270 2364
8 2365 2271 2170 2272 2433 2347 2255 2348
8 2286 2189 2285 2375 2348 2255 2347 2433
8 2349 2258 2351 2435 2257 2157 2259 2350
8 2349 2258 2164 2263 2435 2351 2264 2355
8 2259 2158 2261 2351 2352 2260 2354 2437
8 2356 2265 2354 2437 2264 2165 2261 2351
8 2441 2357 2264 2355 2362 2268 2168 2269
8 2356 2265 2165 2264 2442 2358 2266 2357
8 2443 2359 2266 2357 2361 2267 2166 2268
8 2370 2279 2360 2446 2280 2181 2267 2361
8 2362 2268 2182 2281 2447 2361 2280 2371
8 2180 2277 2368 2278 2270 2364 2449 2363
8 2271 2365 2273 2177 2364 2450 2366 2277
8 2372 2283 2186 2282 2451 2368 2276 2367
8 2178 2274 2367 2276 2277 2366 2451 2368
8 2283 2187 2278 2368 2370 2279 2369 2452
8 2372 2283 2370 2453 2282 2186 2280 2371
8 2284 2374 2455 2373 2201 2292 2380 2295
8 2375 2285 2197 2289 2456 2374 2292 2378
8 2376 2291 2204 2296 2457 2379 2297 2383
8 2288 2199 2291 2376 2377 2293 2379 2457
8 2198 2290 2378 2292 2293 2377 2458 2380
8 2293 2202 2294 2379 2380 2295 2381 2459
8 2384 2298 2381 2459 2297 2205 2294 2379
8 2386 2300 2384 2463 2299 2207 2297 2383
8 2387 2301 2385 2464 2300 2208 2298 2384
8 2389 2303 2387 2466 2302 2210 2300 2386
8 2390 2304 2388 2467 2303 2211 2301 2387
8 2392 2306 2390 2469 2305 2213 2303 2389
8 2393 2307 2391 2470 2306 2214 2304 2390
8 2395 2308 2393 2472 2310 2216 2306 2392
8 2308 2215 2309 2396 2393 2307 2394 2473
8 2395 2308 2216 2310 2475 2396 2311 2398
8 2396 2309 2217 2311 2476 2397 2312 2399
8 2398 2311 2219 2315 2478 2399 2314 2403
8 2399 2312 2218 2314 2479 2400 2313 2402
8 2317 2221 2316 2405 2402 2313 2401 2482
8 2403 2314 2222 2318 2483 2402 2317 2406
8 2320 2224 2319 2408 2405 2316 2404 2485
8 2321 2225 2320 2409 2406 2317 2405 2486
8 2323 2227 2322 2411 2408 2319 2407 2488
8 2324 2228 2323 2412 2409 2320 2408 2489
8 2326 2230 2325 2413 2411 2322 2410 2490
8 2327 2231 2326 2414 2412 2323 2411 2491
8 2329 2234 2328 2415 2414 2326 2413 2492
8 2417 2331 2260 2352 2494 2416 2353 2438
8 2350 2259 2352 2436 2419 2332 2417 2496
8 2332 2239 2331 2417 2420 2333 2418 2497
8 2334 2240 2332 2419 2422 2335 2420 2499
8 2420 2333 2421 2500 2335 2241 2336 2423
8 2422 2335 2423 2502 2337 2243 2338 2425
8 2423 2336 2424 2503 2338 2244 2339 2426
8 2425 2338 2426 2505 2342 2246 2341 2429
8 2426 2339 2427 2506 2341 2245 2340 2428
8 2429 2341 2428 2507 2344 2249 2343 2430
8 2432 2346 2284 2374 2509 2431 2373 2455
8 2432 2346 2431 2509 2364 2270 2363 2449
8 2375 2285 2374 2456 2433 2347 2432 2510
8 2347 2433 2365 2271 2432 2510 2450 2364
8 2350 2259 2351 2435 2436 2352 2437 2514
8 2440 2356 2437 2514 2355 2264 2351 2435
8 2352 2260 2354 2437 2438 2353 2439 2516
8 2356 2265 2358 2442 2437 2354 2439 2516
8 2440 2356 2264 2355 2518 2442 2357 2441
8 2519 2443 2357 2441 2447 2361 2268 2362
8 2443 2359 2444 2520 2357 2266 2358 2442
8 2443 2359 2267 2361 2520 2444 2360 2446
8 2446 2360 2279 2370 2523 2445 2369 2452
8 2453 2370 2446 2524 2371 2280 2361 2447
8 2449 2363 2448 2525 2368 2278 2369 2452
8 2366 2277 2364 2450 2451 2368 2449 2526
8 2372 2283 2368 2451 2453 2370 2452 2527
8 2455 2373 2295 2380 2529 2454 2382 2460
8 2456 2374 2292 2378 2530 2455 2380 2458
8 2377 2293 2379 2457 2458 2380 2459 2531
8 2463 2384 2459 2531 2383 2297 2379 2457
8 2533 2461 2382 2460 2459 2381 2295 2380
8 2464 2385 2461 2533 2384 2298 2381 2459
8 2466 2387 2464 2537 2386 2300 2384 2463
8 2467 2388 2465 2538 2387 2301 2385 2464
8 2469 2390 2467 2540 2389 2303 2387 2466
8 2470 2391 2468 2541 2390 2304 2388 2467
8 2472 2393 2470 2543 2392 2306 2390 2469
8 2393 2307 2394 2473 2470 2391 2471 2544
8 2395 2308 2396 2475 2472 2393 2473 2546
8 2396 2309 2397 2476 2473 2394 2474 2547
8 2475 2396 2311 2398 2549 2476 2399 2478
8 2476 2397 2312 2399 2550 2477 2400 2479
8 2478 2399 2314 2403 2552 2479 2402 2483
8 2479 2400 2313 2402 2553 2480 2401 2482
8 2405 2316 2404 2485 2482 2401 2481 2556
8 2406 2317 2405 2486 2483 2402 2482 2557
8 2408 2319 2407 2488 2485 2404 2484 2559
8 2409 2320 2408 2489 2486 2405 2485 2560
8 2411 2322 2410 2490 2488 2407 2487 2561
8 2412 2323 2411 2491 2489 2408 2488 2562
8 2414 2326 2413 2492 2491 2411 2490 2563
8 2513 2434 2493 2565 2438 2353 2416 2494
8 2496 2417 2352 2436 2567 2494 2438 2515
8 2494 2416 2495 2568 2417 2331 2418 2497
8 2419 2332 2417 2496 2499 2420 2497 2570
8 2497 2418 2498 2571 2420 2333 2421 2500
8 2499 2420 2500 2573 2422 2335 2423 2502
8 2500 2421 2501 2574 2423 2336 2424 2503
8 2502 2423 2503 2576 2425 2338 2426 2505
8 2503 2424 2504 2577 2426 2339 2427 2506
8 2505 2426 2506 2578 2429 2341 2428 2507
8 2509 2431 2373 2455 2580 2508 2454 2529
8 2509 2431 2508 2580 2449 2363 2448 2525
8 2432 2510 2581 2509 2374 2456 2530 2455
8 2432 2510 2450 2364 2509 2581 2526 2449
8 2583 2511 2434 2513 2516 2439 2353 2438
8 2436 2352 2437 2514 2515 2438 2516 2588
8 2440 2356 2442 2518 2514 2437 2516 2588
8 2442 2358 2444 2520 2516 2439 2517 2589
8 2519 2443 2520 2591 2441 2357 2442 2518
8 2519 2443 2361 2447 2591 2520 2446 2524
8 2446 2360 2445 2523 2520 2444 2521 2592
8 2525 2448 2522 2593 2452 2369 2445 2523
8 2524 2446 2370 2453 2594 2523 2452 2527
8 2526 2449 2525 2595 2451 2368 2452 2527
8 2534 2462 2528 2597 2460 2382 2454 2529
8 2530 2455 2380 2458 2598 2529 2460 2532
8 2599 2533 2460 2532 2531 2459 2380 2458
8 2537 2464 2533 2599 2463 2384 2459 2531
8 2534 2462 2382 2460 2601 2535 2461 2533
8 2538 2465 2535 2601 2464 2385 2461 2533
8 2540 2467 2538 2604 2466 2387 2464 2537
8 2541 2468 2539 2605 2467 2388 2465 2538
8 2543 2470 2541 2607 2469 2390 2467 2540
8 2470 2391 2471 2544 2541 2468 2542 2608
8 2472 2393 2473 2546 2543 2470 2544 2610
8 2473 2394 2474 2547 2544 2471 2545 2611
8 2475 2396 2476 2549 2546 2473 2547 2613
8 2476 2397 2477 2550 2547 2474 2548 2614
8 2549 2476 2399 2478 2616 2550 2479 2552
8 2479 2400 2480 2553 2550 2477 2551 2617
8 2552 2479 2402 2483 2619 2553 2482 2557
8 2482 2401 2481 2556 2553 2480 2554 2620
8 2485 2404 2484 2559 2556 2481 2555 2623
8 2486 2405 2485 2560 2557 2482 2556 2624
8 2488 2407 2487 2561 2559 2484 2558 2625
8 2489 2408 2488 2562 2560 2485 2559 2626
8 2491 2411 2490 2563 2562 2488 2561 2627
8 2513 2434 2512 2585 2565 2493 2564 2630
8 2586 2513 2565 2632 2515 2438 2494 2567
8 2565 2493 2566 2633 2494 2416 2495 2568
8 2567 2494 2568 2635 2496 2417 2497 2570
8 2568 2495 2569 2636 2497 2418 2498 2571
8 2570 2497 2571 2638 2499 2420 2500 2573
8 2571 2498 2572 2639 2500 2421 2501 2574
8 2573 2500 2574 2641 2502 2423 2503 2576
8 2574 2501 2575 2642 2503 2424 2504 2577
8 2576 2503 2577 2643 2505 2426 2506 2578
8 2597 2528 2579 2645 2529 2454 2508 2580
8 2580 2508 2579 2645 2525 2448 2522 2593
8 2581 2509 2455 2530 2646 2580 2529 2598
8 2581 2509 2580 2646 2526 2449 2525 2595
8 2583 2511 2582 2648 2513 2434 2512 2585
8 2583 2511 2439 2516 2648 2582 2517 2589
8 2649 2583 2513 2586 2588 2516 2438 2515
8 2589 2517 2444 2520 2653 2587 2521 2592
8 2518 2442 2520 2591 2588 2516 2589 2654
8 2593 2522 2590 2655 2523 2445 2521 2592
8 2524 2446 2523 2594 2591 2520 2592 2656
8 2595 2525 2593 2657 2527 2452 2523 2594
8 2602 2536 2596 2659 2534 2462 2528 2597
8 2600 2534 2597 2660 2532 2460 2529 2598
8 2600 2534 2460 2532 2661 2601 2533 2599
8 2604 2538 2601 2661 2537 2464 2533 2599
8 2602 2536 2462 2534 2663 2603 2535 2601
8 2601 2535 2465 2538 2663 2603 2539 2605
8 2607 2541 2605 2665 2540 2467 2538 2604
8 2608 2542 2606 2666 2541 2468 2539 2605
8 2543 2470 2544 2610 2607 2541 2608 2668
8 2544 2471 2545 2611 2608 2542 2609 2669
8 2546 2473 2547 2613 2610 2544 2611 2671
8 2547 2474 2548 2614 2611 2545 2612 2672
8 2549 2476 2550 2616 2613 2547 2614 2674
8 2550 2477 2551 2617 2614 2548 2615 2675
8 2552 2479 2553 2619 2616 2550 2617 2677
8 2553 2480 2554 2620 2617 2551 2618 2678
8 2557 2482 2556 2624 2619 2553 2620 2680
8 2556 2481 2555 2623 2620 2554 2621 2681
8 2559 2484 2558 2625 2623 2555 2622 2683
8 2560 2485 2559 2626 2624 2556 2623 2684
8 2562 2488 2561 2627 2626 2559 2625 2685
8 2690 2629 2564 2630 2650 2584 2512 2585
8 2586 2513 2585 2651 2632 2565 2630 2691
8 2630 2564 2631 2692 2565 2493 2566 2633
8 2632 2565 2633 2694 2567 2494 2568 2635
8 2633 2566 2634 2695 2568 2495 2569 2636
8 2635 2568 2636 2697 2570 2497 2571 2638
8 2636 2569 2637 2698 2571 2498 2572 2639
8 2638 2571 2639 2700 2573 2500 2574 2641
8 2639 2572 2640 2701 2574 2501 2575 2642
8 2641 2574 2642 2702 2576 2503 2577 2643
8 2597 2528 2596 2659 2645 2579 2644 2704
8 2645 2579 2644 2704 2593 2522 2590 2655
8 2660 2597 2645 2705 2598 2529 2580 2646
8 2646 2580 2645 2705 2595 2525 2593 2657
8 2650 2584 2512 2585 2707 2647 2582 2648
8 2648 2582 2517 2589 2707 2647 2587 2653
8 2649 2583 2648 2708 2586 2513 2585 2651
8 2649 2583 2516 2588 2708 2648 2589 2654
8 2655 2590 2652 2710 2592 2521 2587 2653
8 2654 2589 2520 2591 2711 2653 2592 2656
8 2657 2593 2655 2712 2594 2523 2592 2656
8 2602 2536 2603 2663 2659 2596 2658 2714
8 2662 2602 2659 2715 2600 2534 2597 2660
8 2662 2602 2534 2600 2717 2663 2601 2661
8 2661 2601 2538 2604 2717 2663 2605 2665
8 2666 2606 2664 2718 2605 2539 2603 2663
8 2668 2608 2666 2720 2607 2541 2605 2665
8 2608 2542 2609 2669 2666 2606 2667 2721
8 2610 2544 2611 2671 2668 2608 2669 2723
8 2611 2545 2612 2672 2669 2609 2670 2724
8 2613 2547 2614 2674 2671 2611 2672 2726
8 2614 2548 2615 2675 2672 2612 2673 2727
8 2616 2550 2617 2677 2674 2614 2675 2729
8 2617 2551 2618 2678 2675 2615 2676 2730
8 2619 2553 2620 2680 2677 2617 2678 2732
8 2620 2554 2621 2681 2678 2618 2679 2733
8 2624 2556 2623 2684 2680 2620 2681 2735
8 2681 2621 2555 2623 2736 2682 2622 2683
8 2626 2559 2625 2685 2684 2623 2683 2737
8 2688 2628 2584 2650 2740 2686 2647 2707
8 2688 2628 2687 2742 2650 2584 2629 2690
8 2690 2629 2689 2745 2630 2564 2631 2692
8 2746 2690 2630 2691 2709 2650 2585 2651
8 2691 2630 2692 2747 2632 2565 2633 2694
8 2692 2631 2693 2748 2633 2566 2634 2695
8 2694 2633 2695 2750 2635 2568 2636 2697
8 2695 2634 2696 2751 2636 2569 2637 2698
8 2697 2636 2698 2753 2638 2571 2639 2700
8 2698 2637 2699 2754 2639 2572 2640 2701
8 2700 2639 2701 2755 2641 2574 2642 2702
8 2659 2596 2658 2714 2704 2644 2703 2757
8 2704 2644 2703 2757 2655 2590 2652 2710
8 2660 2597 2659 2715 2705 2645 2704 2758
8 2705 2645 2704 2758 2657 2593 2655 2712
8 2759 2706 2647 2707 2710 2652 2587 2653
8 2709 2650 2585 2651 2760 2707 2648 2708
8 2708 2648 2589 2654 2760 2707 2653 2711
8 2712 2655 2710 2761 2656 2592 2653 2711
8 2763 2713 2658 2714 2718 2664 2603 2663
8 2662 2602 2663 2717 2715 2659 2714 2764
8 2720 2666 2718 2767 2665 2605 2663 2717
8 2768 2719 2664 2718 2721 2667 2606 2666
8 2668 2608 2669 2723 2720 2666 2721 2770
8 2669 2609 2670 2724 2721 2667 2722 2771
8 2671 2611 2672 2726 2723 2669 2724 2773
8 2672 2612 2673 2727 2724 2670 2725 2774
8 2674 2614 2675 2729 2726 2672 2727 2776
8 2675 2615 2676 2730 2727 2673 2728 2777
8 2677 2617 2678 2732 2729 2675 2730 2779
8 2678 2618 2679 2733 2730 2676 2731 2780
8 2680 2620 2681 2735 2732 2678 2733 2782
8 2733 2679 2621 2681 2783 2734 2682 2736
8 2735 2681 2623 2684 2784 2736 2683 2737
8 2740 2686 2647 2707 2787 2738 2706 2759
8 2688 2628 2686 2740 2742 2687 2739 2789
8 2743 2688 2650 2709 2790 2740 2707 2760
8 2742 2687 2741 2792 2690 2629 2689 2745
8 2743 2688 2742 2793 2709 2650 2690 2746
8 2745 2689 2744 2795 2692 2631 2693 2748
8 2746 2690 2745 2796 2691 2630 2692 2747
8 2747 2692 2748 2797 2694 2633 2695 2750
8 2748 2693 2749 2798 2695 2634 2696 2751
8 2750 2695 2751 2800 2697 2636 2698 2753
8 2751 2696 2752 2801 2698 2637 2699 2754
8 2753 2698 2754 2802 2700 2639 2701 2755
8 2763 2713 2756 2804 2714 2658 2703 2757
8 2759 2706 2652 2710 2804 2756 2703 2757
8 2715 2659 2714 2764 2758 2704 2757 2805
8 2758 2704 2757 2805 2712 2655 2710 2761
8 2806 2759 2707 2760 2761 2710 2653 2711
8 2765 2716 2762 2808 2718 2664 2713 2763
8 2809 2763 2714 2764 2767 2718 2663 2717
8 2765 2716 2664 2718 2811 2766 2719 2768
8 2813 2768 2718 2767 2770 2721 2666 2720
8 2814 2769 2719 2768 2771 2722 2667 2721
8 2723 2669 2724 2773 2770 2721 2771 2816
8 2724 2670 2725 2774 2771 2722 2772 2817
8 2726 2672 2727 2776 2773 2724 2774 2819
8 2727 2673 2728 2777 2774 2725 2775 2820
8 2729 2675 2730 2779 2776 2727 2777 2822
8 2730 2676 2731 2780 2777 2728 2778 2823
8 2732 2678 2733 2782 2779 2730 2780 2825
8 2780 2731 2679 2733 2826 2781 2734 2783
8 2782 2733 2681 2735 2827 2783 2736 2784
8 2830 2785 2738 2787 2804 2756 2706 2759
8 2789 2739 2686 2740 2832 2786 2738 2787
8 2790 2740 2707 2760 2833 2787 2759 2806
8 2742 2687 2739 2789 2792 2741 2788 2835
8 2743 2688 2740 2790 2793 2742 2789 2836
8 2792 2741 2791 2838 2745 2689 2744 2795
8 2793 2742 2792 2839 2746 2690 2745 2796
8 2795 2744 2794 2841 2748 2693 2749 2798
8 2796 2745 2795 2842 2747 2692 2748 2797
8 2797 2748 2798 2843 2750 2695 2751 2800
8 2798 2749 2799 2844 2751 2696 2752 2801
8 2800 2751 2801 2845 2753 2698 2754 2802
8 2808 2762 2803 2847 2763 2713 2756 2804
8 2809 2763 2804 2848 2764 2714 2757 2805
8 2806 2759 2710 2761 2848 2804 2757 2805
8 2765 2716 2766 2811 2808 2762 2807 2850
8 2810 2765 2808 2851 2767 2718 2763 2809
8 2810 2765 2718 2767 2852 2811 2768 2813
8 2811 2766 2719 2768 2853 2812 2769 2814
8 2855 2814 2768 2813 2816 2771 2721 2770
8 2856 2815 2769 2814 2817 2772 2722 2771
8 2773 2724 2774 2819 2816 2771 2817 2858
8 2774 2725 2775 2820 2817 2772 2818 2859
8 2776 2727 2777 2822 2819 2774 2820 2861
8 2777 2728 2778 2823 2820 2775 2821 2862
8 2779 2730 2780 2825 2822 2777 2823 2864
8 2823 2778 2731 2780 2865 2824 2781 2826
8 2825 2780 2733 2782 2866 2826 2783 2827
8 2869 2828 2785 2830 2847 2803 2756 2804
8 2871 2829 2786 2832 2830 2785 2738 2787
8 2872 2830 2787 2833 2848 2804 2759 2806
8 2789 2739 2786 2832 2835 2788 2831 2874
8 2836 2789 2740 2790 2875 2832 2787 2833
8 2792 2741 2788 2835 2838 2791 2834 2877
8 2793 2742 2789 2836 2839 2792 2835 2878
8 2838 2791 2837 2880 2795 2744 2794 2841
8 2839 2792 2838 2881 2796 2745 2795 2842
8 2841 2794 2840 2882 2798 2749 2799 2844
8 2842 2795 2841 2883 2797 2748 2798 2843
8 2843 2798 2844 2884 2800 2751 2801 2845
8 2886 2846 2803 2847 2850 2807 2762 2808
8 2851 2808 2847 2887 2809 2763 2804 2848
8 2850 2807 2766 2811 2889 2849 2812 2853
8 2810 2765 2811 2852 2851 2808 2850 2890
8 2852 2811 2768 2813 2891 2853 2814 2855
8 2853 2812 2769 2814 2892 2854 2815 2856
8 2894 2856 2814 2855 2858 2817 2771 2816
8 2817 2772 2818 2859 2856 2815 2857 2895
8 2819 2774 2820 2861 2858 2817 2859 2897
8 2820 2775 2821 2862 2859 2818 2860 2898
8 2822 2777 2823 2864 2861 2820 2862 2900
8 2823 2778 2824 2865 2862 2821 2863 2901
8 2864 2823 2780 2825 2902 2865 2826 2866
8 2904 2867 2828 2869 2886 2846 2803 2847
8 2869 2828 2868 2906 2830 2785 2829 2871
8 2907 2869 2830 2872 2887 2847 2804 2848
8 2871 2829 2870 2909 2832 2786 2831 2874
8 2910 2871 2832 2875 2872 2830 2787 2833
8 2835 2788 2831 2874 2877 2834 2873 2912
8 2836 2789 2832 2875 2878 2835 2874 2913
8 2877 2834 2876 2915 2838 2791 2837 2880
8 2839 2792 2835 2878 2881 2838 2877 2916
8 2880 2837 2879 2917 2841 2794 2840 2882
8 2881 2838 2880 2918 2842 2795 2841 2883
8 2883 2841 2882 2919 2843 2798 2844 2884
8 2921 2885 2846 2886 2889 2849 2807 2850
8 2922 2886 2847 2887 2890 2850 2808 2851
8 2889 2849 2812 2853 2924 2888 2854 2892
8 2890 2850 2811 2852 2925 2889 2853 2891
8 2891 2853 2814 2855 2926 2892 2856 2894
8 2892 2854 2815 2856 2927 2893 2857 2895
8 2858 2817 2859 2897 2894 2856 2895 2929
8 2859 2818 2860 2898 2895 2857 2896 2930
8 2861 2820 2862 2900 2897 2859 2898 2932
8 2862 2821 2863 2901 2898 2860 2899 2933
8 2864 2823 2865 2902 2900 2862 2901 2934
8 2904 2867 2846 2886 2936 2903 2885 2921
8 2904 2867 2903 2936 2869 2828 2868 2906
8 2937 2904 2869 2907 2922 2886 2847 2887
8 2906 2868 2905 2939 2871 2829 2870 2909
8 2907 2869 2906 2940 2872 2830 2871 2910
8 2909 2870 2908 2942 2874 2831 2873 2912
8 2910 2871 2909 2943 2875 2832 2874 2913
8 2912 2873 2911 2945 2877 2834 2876 2915
8 2878 2835 2874 2913 2916 2877 2912 2946
8 2915 2876 2914 2947 2880 2837 2879 2917
8 2916 2877 2915 2948 2881 2838 2880 2918
8 2918 2880 2917 2949 2883 2841 2882 2919
8 2921 2885 2849 2889 2951 2920 2888 2924
8 2952 2921 2886 2922 2925 2889 2850 2890
8 2924 2888 2854 2892 2954 2923 2893 2927
8 2925 2889 2853 2891 2955 2924 2892 2926
8 2926 2892 2856 2894 2956 2927 2895 2929
8 2895 2857 2896 2930 2927 2893 2928 2957
8 2897 2859 2898 2932 2929 2895 2930 2959
8 2898 2860 2899 2933 2930 2896 2931 2960
8 2900 2862 2901 2934 2932 2898 2933 2961
8 2936 2903 2885 2921 2963 2935 2920 2951
8 2936 2903 2935 2963 2906 2868 2905 2939
8 2937 2904 2886 2922 2964 2936 2921 2952
8 2937 2904 2936 2964 2907 2869 2906 2940
8 2939 2905 2938 2966 2909 2870 2908 2942
8 2940 2906 2939 2967 2910 2871 2909 2943
8 2942 2908 2941 2969 2912 2873 2911 2945
8 2943 2909 2942 2970 2913 2874 2912 2946
8 2945 2911 2944 2971 2915 2876 2914 2947
8 2946 2912 2945 2972 2916 2877 2915 2948
8 2948 2915 2947 2973 2918 2880 2917 2949
8 2951 2920 2888 2924 2975 2950 2923 2954
8 2952 2921 2889 2925 2976 2951 2924 2955
8 2927 2893 2928 2957 2954 2923 2953 2978
8 2955 2924 2892 2926 2979 2954 2927 2956
8 2929 2895 2930 2959 2956 2927 2957 2980
8 2930 2896 2931 2960 2957 2928 2958 2981
8 2932 2898 2933 2961 2959 2930 2960 2982
8 2951 2920 2950 2975 2963 2935 2962 2984
8 2963 2935 2962 2984 2939 2905 2938 2966
8 2964 2936 2921 2952 2985 2963 2951 2976
8 2964 2936 2963 2985 2940 2906 2939 2967
8 2966 2938 2965 2987 2942 2908 2941 2969
8 2967 2939 2966 2988 2943 2909 2942 2970
8 2969 2941 2968 2989 2945 2911 2944 2971
8 2970 2942 2969 2990 2946 2912 2945 2972
8 2972 2945 2971 2991 2948 2915 2947 2973
8 2954 2923 2953 2978 2975 2950 2974 2993
8 2976 2951 2924 2955 2994 2975 2954 2979
8 2957 2928 2958 2981 2978 2953 2977 2995
8 2956 2927 2957 2980 2979 2954 2978 2996
8 2959 2930 2960 2982 2980 2957 2981 2997
8 2984 2962 2983 2999 2966 2938 2965 2987
8 2975 2950 2974 2993 2984 2962 2983 2999
8 2976 2951 2975 2994 2985 2963 2984 3000
8 2985 2963 2984 3000 2967 2939 2966 2988
8 2987 2965 2986 3001 2969 2941 2968 2989
8 2988 2966 2987 3002 2970 2942 2969 2990
8 2990 2969 2989 3003 2972 2945 2971 2991
8 2978 2953 2977 2995 2993 2974 2992 3004
8 2979 2954 2978 2996 2994 2975 2993 3005
8 2980 2957 2981 2997 2996 2978 2995 3006
8 2974 2993 2999 2983 2992 3004 3007 2998
8 2983 2999 2987 2965 2998 3007 3001 2986
8 3000 2984 2999 3008 2988 2966 2987 3002
8 2994 2975 2993 3005 3000 2984 2999 3008
8 3002 2987 3001 3009 2990 2969 2989 3003
8 2996 2978 2995 3006 3005 2993 3004 3010
8 3005 2993 3004 3010 3008 2999 3007 3011
8 3008 2999 3007 3011 3002 2987 3001 3009

CELL_TYPES 1910
12
12
12
12
12
12
12
12
12
12
12
12
12
12
12
12
12
12
12
12
12
12
12
12
12
12
12
12
12
12
12
12
12
12
12
12
12
12
12
12
12
12
12
12
12
12
12
12
12
12
12
12
12
12
12
12
12
12
12
12
12
12
12
12
12
12
12
12
12
12
12
12
12
12
12
12
12
12
12
12
12
12
12
12
12
12
12
12
12
12
12
12
12
12
12
12
12
12
12
12
12
12
12
12
12
12
12
12
12
12
12
12
12
12
12
12
12
12
12
12
12
12
12
12
12
12
12
12
12
12
12
12
12
12
12
12
12
12
12
12
12
12
12
12
12
12
12
12
12
12
12
12
12
12
12
12
12
12
12
12
12
12
12
12
12
12
12
12
12
12
12
12
12
12
12
12
12
12
12
12
12
12
12
12
12
12
12
12
12
12
12
12
12
12
12
12
12
12
12
12
12
12
12
12
12
12
12
12
12
12
12
12
12
12
12
12
12
12
12
12
12
12
12
12
12
12
12
12
12
12
12
12
12
12
12
12
12
12
12
12
12
12
12
12
12
12
12
12
12
12
12
12
12
12
12
12
12
12
12
12
12
12
12
12
12
12
12
12
12
12
12
12
12
12
12
12
12
12
12
12
12
12
12
12
12
12
12
12
12
12
12
12
12
12
12
12
12
12
12
12
12
12
12
12
12
12
12
12
12
12
12
12
12
12
12
12
12
12
12
12
12
12
12
12
12
12
12
12
12
12
12
12
12
12
12
12
12
12
12
12
12
12
12
12
12
12
12
12
12
12
12
12
12
12
12
12
12
12
12
12
12
12
12
12
12
12
12
12
12
12
12
12
12
12
12
12
12
12
12
12
12
12
12
12
12
12
12
12
12
12
12
12
12
12
12
12
12
12
12
12
12
12
12
12
12
12
12
12
12
12
12
12
12
12
12
12
12
12
12
12
12
12
12
12
12
12
12
12
12
12
12
12
12
12
12
12
12
12
12
12
12
12
12
12
12
12
12
12
12
12
12
12
12
12
12
12
12
12
12
12
12
12
12
12
12
12
12
12
12
12
12
12
12
12
12
12
12
12
12
12
12
12
12
12
12
12
12
12
12
12
12
12
12
12
12
12
12
12
12
12
12
12
12
12
12
12
12
12
12
12
12
12
12
12
12
12
12
12
12
12
12
12
12
12
12
12
12
12
12
12
12
12
12
12
12
12
12
12
12
12
12
12
12
12
12
12
12
12
12
12
12
12
12
12
12
12
12
12
12
12
12
12
12
12
12
12
12
12
12
12
12
12
12
12
12
12
12
12
12
12
12
12
12
12
12
12
12
12
12
12
12
12
12
12
12
12
12
12
12
12
12
12
12
12
12
12
12
12
12
12
12
12
12
12
12
12
12
12
12
12
12
12
12
12
12
12
12
12
12
12
12
12
12
12
12
12
12
12
12
12
12
12
12
12
12
12
12
12
12
12
12
12
12
12
12
12
12
12
12
12
12
12
12
12
12
12
12
12
12
12
12
12
12
12
12
12
12
12
12
12
12
12
12
12
12
12
12
12
12
12
12
12
12
12
12
12
12
12
12
12
12
12
12
12
12
12
12
12
12
12
12
12
12
12
12
12
12
12
12
12
12
12
12
12
12
12
12
12
12
12
12
12
12
12
12
12
12
12
12
12
12
12
12
12
12
12
12
12
12
12
12
12
12
12
12
12
12
12
12
12
12
12
12
12
12
12
12
12
12
12
12
12
12
12
12
12
12
12
12
12
12
12
12
12
12
12
12
12
12
12
12
12
12
12
12
12
12
12
12
12
12
12
12
12
12
12
12
12
12
12
12
12
12
12
12
12
12
12
12
12
12
12
12
12
12
12
12
12
12
12
12
12
12
12
12
12
12
12
12
12
12
12
12
12
12
12
12
12
12
12
12
12
12
12
12
12
12
12
12
12
12
12
12
12
12
12
12
12
12
12
12
12
12
12
12
12
12
12
12
12
12
12
12
12
12
12
12
12
12
12
12
12
12
12
12
12
12
12
12
12
12
12
12
12
12
12
12
12
12
12
12
12
12
12
12
12
12
12
12
12
12
12
12
12
12
12
12
12
12
12
12
12
12
12
12
12
12
12
12
12
12
12
12
12
12
12
12
12
12
12
12
12
12
12
12
12
12
12
12
12
12
12
12
12
12
12
12
12
12
12
12
12
12
12
12
12
12
12
12
12
12
12
12
12
12
12
12
12
12
12
12
12
12
12
12
12
12
12
12
12
12
12
12
12
12
12
12
12
12
12
12
12
12
12
12
12
12
12
12
12
12
12
12
12
12
12
12
12
12
12
12
12
12
12
12
12
12
12
12
12
12
12
12
12
12
12
12
12
12
12
12
12
12
12
12
12
12
12
12
12
12
12
12
12
12
12
12
12
12
12
12
12
12
12
12
12
12
12
12
12
12
12
12
12
12
12
12
12
12
12
12
12
12
12
12
12
12
12
12
12
12
12
12
12
12
12
12
12
12
12
12
12
12
12
12
12
12
12
12
12
12
12
12
12
12
12
12
12
12
12
12
12
12
12
12
12
12
12
12
12
12
12
12
12
12
12
12
12
12
12
12
12
12
12
12
12
12
12
12
12
12
12
12
12
12
12
12
12
12
12
12
12
12
12
12
12
12
12
12
12
12
12
12
12
12
12
12
12
12
12
12
12
12
12
12
12
12
12
12
12
12
12
12
12
12
12
12
12
12
12
12
12
12
12
12
12
12
12
12
12
12
12
12
12
12
12
12
12
12
12
12
12
12
12
12
12
12
12
12
12
12
12
12
12
12
12
12
12
12
12
12
12
12
12
12
12
12
12
12
12
12
12
12
12
12
12
12
12
12
12
12
12
12
12
12
12
12
12
12
12
12
12
12
12
12
12
12
12
12
12
12
12
12
12
12
12
12
12
12
12
12
12
12
12
12
12
12
12
12
12
12
12
12
12
12
12
12
12
12
12
12
12
12
12
12
12
12
12
12
12
12
12
12
12
12
12
12
12
12
12
12
12
12
12
12
12
12
12
12
12
12
12
12
12
12
12
12
12
12
12
12
12
12
12
12
12
12
12
12
12
12
12
12
12
12
12
12
12
12
12
12
12
12
12
12
12
12
12
12
12
12
12
12
12
12
12
12
12
12
12
12
12
12
12
12
12
12
12
12
12
12
12
12
12
12
12
12
12
12
12
12
12
12
12
12
12
12
12
12
12
12
12
12
12
12
12
12
12
12
12
12
12
12
12
12
12
12
12
12
12
12
12
12
12
12
12
12
12
12
12
12
12
12
12
12
12
12
12
12
12
12
12
12
12
12
12
12
12
12
12
12
12
12
12
12
12
12
12
12
12
12
12
12
12
12
12
12
12
12
12
12
12
12
12
12
12
12
12
12
12
12
12
12
12
12
12
12
12
12
12
12
12
12
12
12
12
12
12
12
12
12
12
12
12
12
12
12
12
12
12
12
12
12
12
12
12
12
12
12
12
12
12
12
12
12
12
12
12
12
12
12
12
12
12
12
12
12
12
12
12
12
12
12
12
12
12
12
12
12
12
12
12
12
12
12
12
12
12
12
12
12
12
12
12
12
12
12
12
12
12
12
12
12
12
12
12
12
12
12
12
12
12
12
12
12
12
12
12
12
12
12
12
12
12
12
12
12
12
12
12
12
12
12
12
12
12
12
12
12
12
12
12
12
12
12
12
12
12
12
12
12
12
12
12
12
12
12
12
12
12
12
12
12
12
12
12
12
12
12
12
12
12
12
12
12
12
12
12
12
12
12
12
12
12
12
12
12
12
12
12
12
12
12
12
12
12
12
12
12
12
12
12
12
12
12
12
12
12
12
12
12
12
12
12
12
12
12
12
12
12
12
12
12
12
12
12
12
12
12
12
12
12
12
12
12
12
12
12
12
12
12
12
12
12
12
12
12
12
12
12
12
12
12
12
12
12
12
12
12
12
12
12
12
12
12
12
12
12
12
12
12
12
12
12
12
12
12
12
12
12
12
12
12
12
12
12
12
12
12
12
12
12
12
12
12
12
12
12
12
12
12
12
12
12
12
12
12
12
12
12
12
12
12
12
12
12
12
12
12
12
12
12
12
12
12
12
12
12
12
12
12
12
12
12
12
12
12
12
12
12
12
12
12
12
12
12
12
12
12
12
12
12
12
12
12
12
12
12
12
12
12
12
12
12
12
12
12
12
12
12
12
12
12
12
12
12
12
12
12
12
12
12
12
12
12
12
12
12
12
12
12
12
12
12
12
12
12
12
12
12
12
12
12
12
12
12
12
12
12
12

POINT_DATA 3012
SCALARS Jp_lamdaP float 4
LOOKUP_TABLE default
0.99995 1 1 0.99995
1 1 1 1
0.999953 1 1 0.999953
0.999922 1 1 0.999922
0.999946 1 1 0.999946
0.999957 1 1 0.999957
0.999637 1 1 0.999637
1 1 1 1
1 1 1 1
1 1 1 1
0.999997 1 1 0.999997
0.999802 1 1 0.999802
0.999883 1 1 0.999883
0.999915 1 1 0.999915
0.999953 1 1 0.999953
0.999929 1 1 0.999929
0.999961 1 1 0.999961
0.99995 1 1 0.99995
0.99964 1 1 0.99964
1 1 1 1
0.99991 1 1 0.99991
0.999935 1 1 0.999935
0.99952 1 1 0.99952
0.999602 1 1 0.999602
0.999977 1 1 0.999977
0.999685 1 1 0.999685
0.999126 1 1 0.999126
1 1 1 1
0.999966 1 1 0.999966
0.999979 1 1 0.999979
1 1 1 1
0.99981 1 1 0.99981
0.999928 1 1 0.999928
0.99995 1 1 0.99995
0.999683 1 1 0.999683
1 1 1 1
0.999773 1 1 0.999773
0.999863 1 1 0.999863
0.999223 1 1 0.999223
1 1 1 1
1 1 1 1
0.999956 1 1 0.999956
1 1 1 1
0.999904 1 1 0.999904
0.999465 1 1 0.999465
1 1 1 1
0.999609 1 1 0.999609
0.999936 1 1 0.999936
0.999953 1 1 0.999953
0.999964 1 1 0.999964
0.999644 1 1 0.999644
0.999941 1 1 0.999941
0.999918 1 1 0.999918
0.999982 1 1 0.999982
0.999942 1 1 0.999942
0.999521 1 1 0.999521
0.999689 1 1 0.999689
0.999605 1 1 0.999605
0.999112 1 1 0.999112
1 1 1 1
0.999895 1 1 0.999895
0.999559 1 1 0.999559
0.999493 1 1 0.999493
0.999559 1 1 0.999559
0.998848 1 1 0.998848
0.998983 1 1 0.998983
0.999996 1 1 0.999996
0.999781 1 1 0.999781
0.99924 1 1 0.99924
0.998605 1 1 0.998605
1 1 1 1
1 1 1 1
1 1 1 1
0.999817 1 1 0.999817
1 1 1 1
1 1 1 1
0.999655 1 1 0.999655
1 1 1 1
0.99976 1 1 0.99976
0.99988 1 1 0.99988
0.999221 1 1 0.999221
1 1 1 1
0.999996 1 1 0.999996
0.999607 1 1 0.999607
0.999693 1 1 0.999693
0.998855 1 1 0.998855
0.999932 1 1 0.999932
0.999136 1 1 0.999136
0.999314 1 1 0.999314
0.998858 1 1 0.998858
1 1 1 1
1 1 1 1
1 1 1 1
1 1 1 1
1 1 1 1
0.999948 1 1 0.999948
0.999511 1 1 0.999511
0.999959 1 1 0.999959
0.999591 1 1 0.999591
1 1 1 1
0.999436 1 1 0.999436
0.999577 1 1 0.999577
0.998539 1 1 0.998539
0.999634 1 1 0.999634
0.998647 1 1 0.998647
0.999895 1 1 0.999895
0.999925 1 1 0.999925
0.999986 1 1 0.999986
0.999947 1 1 0.999947
0.999523 1 1 0.999523
0.999609 1 1 0.999609
0.999694 1 1 0.999694
0.999098 1 1 0.999098
1 1 1 1
0.999904 1 1 0.999904
0.99946 1 1 0.99946
0.999494 1 1 0.999494
0.999998 1 1 0.999998
0.999816 1 1 0.999816
0.999562 1 1 0.999562
0.998818 1 1 0.998818
0.999221 1 1 0.999221
0.999004 1 1 0.999004
0.998607 1 1 0.998607
0.999454 1 1 0.999454
0.999468 1 1 0.999468
0.998646 1 1 0.998646
0.998752 1 1 0.998752
0.998873 1 1 0.998873
0.998744 1.00038 1 0.998365
1 1 1 1
0.998527 1 1 0.998527
0.999921 1 1 0.999921
0.999305 1 1 0.999305
0.998688 1 1 0.998688
0.999149 1.00075 1 0.998397
0.999977 1 1 0.999977
0.999591 1 1 0.999591
1 1 1 1
1 1 1 1
0.999661 1 1 0.999661
1 1 1 1
0.999894 1 1 0.999894
0.999764 1 1 0.999764
0.999219 1 1 0.999219
1 1 1 1
0.999998 1 1 0.999998
0.999634 1 1 0.999634
0.999719 1 1 0.999719
0.998857 1 1 0.998857
0.999947 1 1 0.999947
0.999138 1 1 0.999138
0.999314 1 1 0.999314
0.998844 1 1 0.998844
0.999977 1 1 0.999977
1 1 1 1
0.999684 1 1 0.999684
0.998749 1 1 0.998749
0.999001 1 1 0.999001
0.999095 1.00067 1 0.998428
0.999431 1 1 0.999431
0.998752 1 1 0.998752
0.999026 1 1.0001 0.998927
0.998718 1 1 0.998718
1 1 1 1
1 1 1 1
1 1 1 1
0.999992 1 1 0.999992
1 1 1 1
1 1 1 1
1 1 1 1
0.99957 1 1 0.99957
0.999485 1 1 0.999485
1 1 1 1
1 1 1 1
0.999438 1 1 0.999438
0.999559 1 1 0.999559
0.99854 1 1 0.99854
0.999592 1 1 0.999592
0.998647 1 1 0.998647
0.999425 1 1 0.999425
0.99848 1 1 0.99848
0.998603 1 1 0.998603
1.00092 1.00278 1 0.99815
0.998687 1 1 0.998687
0.999983 1.00173 1 0.998257
1 1 1 1
0.999913 1 1 0.999913
0.999356 1 1 0.999356
0.999495 1 1 0.999495
1 1 1 1
0.99985 1 1 0.99985
0.999565 1 1 0.999565
0.998787 1 1 0.998787
0.999025 1 1 0.999025
0.999202 1 1 0.999202
0.99861 1 1 0.99861
0.999452 1 1 0.999452
0.999468 1 1 0.999468
0.998583 1 1 0.998583
0.998775 1 1 0.998775
1 1 1 1
0.999908 1 1 0.999908
0.999332 1 1 0.999332
0.998874 1 1 0.998874
0.998772 1.00044 1 0.99833
0.998684 1 1 0.998684
0.998557 1.00001 1 0.998546
0.999207 1.00081 1 0.9984
0.999971 1 1 0.999971
0.999591 1 1 0.999591
0.998494 1 1 0.998494
0.998706 1 1 0.998706
1.00004 1.00181 1 0.998231
0.99892 1.00067 1 0.998247
0.998516 1.00006 1 0.998457
1.0019 1.0037 1 0.998207
0.999955 1 1 0.999955
0.999501 1.00116 1 0.99834
0.999393 1 1 0.999393
0.99884 1 1 0.99884
0.998912 1.00044 1 0.998475
1.00127 1.00293 1 0.998344
0.999496 1 1 0.999496
0.999704 1 1 0.999704
0.999194 1 1 0.999194
0.999621 1 1 0.999621
1 1 1 1
1 1 1 1
0.999716 1 1 0.999716
0.99886 1 1 0.99886
0.99996 1 1 0.99996
0.999313 1 1 0.999313
0.999141 1 1 0.999141
0.998831 1 1 0.998831
0.999984 1 1 0.999984
1 1 1 1
0.999685 1 1 0.999685
0.99875 1 1 0.99875
0.999005 1 1 0.999005
0.998888 1.00046 1 0.998428
0.999432 1 1 0.999432
0.998762 1 1 0.998762
0.998946 1 1.00002 0.998925
0.998707 1 1 0.998707
1 1 1 1
0.99955 1 1 0.99955
0.999812 1 1 0.999812
0.999295 1 1 0.999295
0.999825 1.0015 1 0.998332
0.99869 1.00009 1 0.998599
1.0023 1.00408 1 0.998229
0.999101 1 1.00004 0.999059
0.999258 1.00065 1 0.998604
0.999667 1 1.00098 0.998686
0.998618 1.00002 1 0.998597
0.999951 1 1 0.999951
1 1 1 1
1 1 1 1
1 1 1 1
1 1 1 1
0.999998 1 1 0.999998
1 1 1 1
0.999988 1 1 0.999988
1 1 1 1
0.999594 1 1 0.999594
0.999535 1 1 0.999535
0.998647 1 1 0.998647
0.99854 1 1 0.99854
0.999441 1 1 0.999441
1 1 1 1
0.999424 1 1 0.999424
0.99848 1 1 0.99848
0.998603 1 1 0.998603
1.00076 1.00261 1 0.998149
0.998686 1 1 0.998686
1.00004 1.00179 1 0.998257
0.998466 1 1 0.998466
1.00121 1.00312 1 0.998092
1.00036 1.00215 1 0.998211
1.00788 1.00982 1 0.998074
1.00009 1.00181 1 0.998289
1.00559 1.00745 1 0.998151
0.999448 1 1 0.999448
0.999468 1 1 0.999468
0.998521 1 1 0.998521
0.998798 1 1 0.998798
1 1 1 1
0.999896 1 1 0.999896
0.999358 1 1 0.999358
0.998875 1 1 0.998875
0.998795 1.0005 1 0.998295
0.998586 1.00002 1 0.998566
0.998679 1 1 0.998679
0.999254 1.00085 1 0.998404
0.999965 1 1 0.999965
0.999591 1 1 0.999591
0.998474 1 1 0.998474
0.998705 1 1 0.998705
1.00022 1.002 1 0.998219
0.999076 1.00079 1 0.998283
0.999947 1 1 0.999947
0.999392 1 1 0.999392
0.99887 1 1 0.99887
0.998537 1.00008 1 0.998458
1.00224 1.00404 1 0.998202
0.998896 1.00045 1 0.998446
0.999824 1.00149 1 0.998341
1.0015 1.00316 1 0.998344
0.999498 1 1 0.999498
0.999193 1 1 0.999193
0.999702 1 1 0.999702
1.00062 1.00245 1 0.998167
1.00008 1.00183 1 0.998254
1.007 1.00895 1 0.998071
1.00355 1.00543 1 0.998133
1.00067 1.0024 1 0.998274
1.00767 1.00946 1 0.998231
0.999447 1 1 0.999447
1.00328 1.00498 1 0.998314
0.999054 1 1 0.999054
0.998665 1.00011 1 0.998556
0.999658 1.00135 1 0.998312
1.00543 1.00703 1 0.998411
0.999792 1 1 0.999792
0.999176 1 1 0.999176
0.99925 1 1 0.99925
0.999053 1 1 0.999053
0.99875 1 1 0.99875
1 1 1 1
0.999991 1 1 0.999991
0.999687 1 1 0.999687
0.99901 1 1 0.99901
0.998713 1.00029 1 0.998427
0.999433 1 1 0.999433
0.998922 1 1 0.998922
0.998772 1 1 0.998772
0.998696 1 1 0.998696
1 1 1 1
0.99955 1 1 0.99955
0.999816 1 1 0.999816
0.999293 1 1 0.999293
0.999583 1.00126 1 0.99833
0.998677 1.00008 1 0.998601
1.00201 1.00378 1 0.998229
0.999111 1 1.00005 0.999062
0.999015 1.0004 1 0.998617
0.999636 1 1.00096 0.998677
0.998673 1.00001 1 0.998658
1 1 1 1
0.999888 1 1 0.999888
0.999186 1 1 0.999186
0.99942 1 1 0.99942
0.999077 1 1 0.999077
1.00339 1.00523 1 0.998168
1.0007 1.00229 1 0.998407
1.00479 1.00662 1 0.998179
1.00014 1 1.00135 0.998785
0.999028 1.0005 1 0.998531
0.999246 1 1.0008 0.998448
0.99994 1 1 0.99994
0.99968 1 1 0.99968
0.999958 1 1 0.999958
0.999953 1 1 0.999953
1 1 1 1
1 1 1 1
1 1 1 1
1 1 1 1
1 1 1 1
1 1 1 1
1 1 1 1
0.999997 1 1 0.999997
1 1 1 1
0.999984 1 1 0.999984
1 1 1 1
0.998686 1 1 0.998686
0.998603 1 1 0.998603
1.00009 1.00184 1 0.998257
1.00058 1.00244 1 0.998148
0.99848 1 1 0.99848
0.999424 1 1 0.999424
0.998465 1 1 0.998465
1.00115 1.00306 1 0.998092
1.00019 1.00198 1 0.998211
1.00803 1.00998 1 0.998074
1.00007 1.00178 1 0.998288
1.00507 1.00693 1 0.998151
1.00119 1.00311 1 0.998077
1.00966 1.01165 1 0.998029
1.00672 1.00863 1 0.998112
1.01369 1.0156 1 0.998113
1.00427 1.00612 1 0.998165
1.0101 1.01188 1 0.998241
0.998455 1 1 0.998455
0.998704 1 1 0.998704
1.00038 1.00218 1 0.998206
0.999232 1.00091 1 0.998319
0.999938 1 1 0.999938
0.99939 1 1 0.99939
0.9989 1 1 0.9989
0.99856 1.0001 1 0.998459
1.00258 1.00439 1 0.998196
1.00015 1.00181 1 0.998343
0.998874 1.00046 1 0.998417
1.00179 1.00345 1 0.998344
0.9995 1 1 0.9995
0.999191 1 1 0.999191
0.9997 1 1 0.9997
1.0008 1.00267 1 0.998137
1.00003 1.00178 1 0.998254
1.00701 1.00896 1 0.998065
1.0041 1.00598 1 0.99814
0.999448 1 1 0.999448
0.999049 1 1 0.999049
0.998717 1.00009 1.00003 0.998595
1.00098 1.0027 1 0.998283
1.00725 1.00902 1 0.998245
0.999838 1.00155 1 0.99829
1.00337 1.00506 1 0.998315
1.00493 1.00652 1 0.998424
0.999179 1 1 0.999179
0.999036 1 1 0.999036
0.999789 1 1 0.999789
0.999265 1 1 0.999265
1.00811 1.01011 1 0.998015
1.00654 1.00845 1 0.998106
1.01397 1.01595 1 0.998051
1.00947 1.01131 1 0.998179
1.00584 1.00756 1 0.998288
1.01058 1.01229 1 0.998311
0.999151 1 1 0.999151
1.00662 1.00819 1 0.998443
0.998811 1 1 0.998811
0.999444 1.00092 1.00018 0.998348
1.00343 1.00521 1 0.998227
1.007 1.00858 1 0.998435
0.999841 1 1 0.999841
0.999357 1 1 0.999357
0.999042 1 1 0.999042
0.999073 1 1 0.999073
0.998989 1 1 0.998989
1 1 1 1
0.999305 1.00098 1 0.998327
0.99982 1 1 0.99982
0.99955 1 1 0.99955
0.999291 1 1 0.999291
0.998649 1.00005 1 0.998603
1.00166 1.00344 1 0.998228
0.999065 1 1 0.999065
0.999666 1 1.001 0.998668
0.998755 1.00013 1 0.99863
0.998719 1 1 0.998719
1 1 1 1
0.999893 1 1 0.999893
0.999186 1 1 0.999186
0.999421 1 1 0.999421
0.99906 1 1 0.99906
1.0036 1.00545 1 0.998164
1.00016 1.00176 1 0.998408
1.00482 1.00666 1 0.998173
1.00004 1 1.00125 0.998788
0.999218 1.00067 1 0.998545
0.999429 1.00004 1.00092 0.998467
0.999922 1 1 0.999922
0.999534 1 1 0.999534
0.999308 1 1.00037 0.998937
0.999178 1 1 0.999178
0.999123 1 1.00018 0.998942
1.00712 1.00898 1 0.998161
1.00167 1.00333 1 0.998337
1.00523 1.00694 1 0.998303
1.00218 1 1.00362 0.998569
0.998758 1.00043 1 0.99833
0.999943 1 1 0.999943
0.999621 1 1 0.999621
0.999663 1 1 0.999663
0.999499 1 1 0.999499
0.999686 1 1 0.999686
0.999961 1 1 0.999961
0.999959 1 1 0.999959
1 1 1 1
0.999956 1 1 0.999956
1 1 1 1
1 1 1 1
1 1 1 1
1 1 1 1
1 1 1 1
1 1 1 1
1 1 1 1
1 1 1 1
1 1 1 1
0.999995 1 1 0.999995
1 1 1 1
1.00007 1.00179 1 0.998286
1.00001 1.00181 1 0.99821
1.00456 1.00642 1 0.998151
1.00818 1.01013 1 0.998073
1.0011 1.00301 1 0.998092
0.998465 1 1 0.998465
1.00121 1.00314 1 0.998077
1.00974 1.01175 1 0.998022
1.00649 1.00839 1 0.998113
1.01355 1.01546 1 0.998122
1.00443 1.00628 1 0.998162
1.01019 1.01196 1 0.998247
1.00916 1.01119 1 0.997997
1.01527 1.01724 1 0.998057
1.01156 1.0134 1 0.998187
1.01332 1.01517 1 0.998169
1.00921 1.01101 1 0.998218
1.01223 1.01392 1 0.998335
1.00101 1.00291 1 0.998106
0.999984 1.00173 1 0.998253
1.00703 1.00899 1 0.998059
1.00466 1.00653 1 0.998146
0.999449 1 1 0.999449
0.999044 1 1 0.999044
0.998874 1.00006 1.00018 0.998634
1.0013 1.00302 1 0.998293
1.00681 1.00857 1 0.99826
1.00339 1.00508 1 0.998317
1.00002 1.00175 1 0.998267
1.00445 1.00602 1 0.998436
0.999182 1 1 0.999182
0.99902 1 1 0.99902
0.999785 1 1 0.999785
0.999281 1 1 0.999281
1.00812 1.01013 1 0.998016
1.00662 1.00853 1 0.998102
1.01369 1.01566 1 0.998057
1.00889 1.01074 1 0.998174
0.999149 1 1 0.999149
0.998875 1 1.00003 0.998844
0.999604 1.00087 1.00039 0.998343
1.00557 1.0073 1 0.998277
1.01062 1.0123 1 0.998346
1.00346 1.00525 1 0.998217
1.00638 1.00795 1 0.998444
1.00729 1.00883 1 0.998466
0.999043 1 1 0.999043
0.998985 1 1 0.998985
0.999104 1 1.00003 0.99907
0.999815 1 1 0.999815
0.99937 1 1 0.99937
1.01511 1.01712 1 0.99803
1.01322 1.01517 1 0.99808
1.0115 1.01324 1 0.998279
1.00898 1.0106 1 0.998398
0.999006 1 1 0.999006
1.00862 1.0101 1 0.99854
0.998939 1 1.00029 0.998651
1.00081 1.00218 1.00051 0.998125
1.00619 1.00803 1 0.998168
0.99983 1 1 0.99983
0.999493 1 1 0.999493
0.999186 1 1 0.999186
0.999003 1 1 0.999003
0.998983 1 1.00005 0.998935
0.998939 1 1 0.998939
1 1 1 1
0.999898 1 1 0.999898
1.00383 1.00568 1 0.998161
0.999421 1 1 0.999421
0.999186 1 1 0.999186
0.999043 1 1 0.999043
0.999697 1.00129 1 0.998409
1.00477 1.00662 1 0.998166
0.999968 1 1.00118 0.998792
0.999325 1.0001 1.00075 0.998486
0.999467 1.00091 1 0.998558
0.999926 1 1 0.999926
0.999535 1 1 0.999535
0.99925 1 1.00031 0.998945
0.999177 1 1 0.999177
0.999147 1 1.00022 0.998928
1.00714 1.009 1 0.998158
1.0016 1.00328 1 0.998331
1.0052 1.00689 1 0.998323
1.00162 1 1.00307 0.998554
0.998854 1.0005 1.00006 0.9983
0.999608 1 1 0.999608
0.999259 1 1 0.999259
1.00065 1 1.00187 0.998781
0.999251 1 1.00029 0.998958
0.999209 1 1.00038 0.998833
1.01051 1.01209 1 0.998436
1.0017 1.00345 1 0.998251
1.00504 1.0067 1 0.998348
1.00272 1.00001 1.00429 0.998424
0.998557 1.00046 1 0.998097
0.999946 1 1 0.999946
0.999635 1 1 0.999635
0.999414 1 1 0.999414
0.999646 1 1 0.999646
0.999687 1 1 0.999687
0.999474 1 1 0.999474
0.999347 1 1 0.999347
0.999463 1 1 0.999463
0.999691 1 1 0.999691
0.999958 1 1 0.999958
0.999961 1 1 0.999961
1 1 1 1
0.999961 1 1 0.999961
1 1 1 1
1 1 1 1
1 1 1 1
1 1 1 1
1 1 1 1
1 1 1 1
1 1 1 1
1 1 1 1
0.999999 1 1 0.999999
1 1 1 1
1 1 1 1
1.00457 1.00642 1 0.998159
1.00626 1.00816 1 0.998113
1.01027 1.01204 1 0.998252
1.01344 1.01534 1 0.998132
1.00982 1.01183 1 0.998014
1.00123 1.00316 1 0.998078
1.00925 1.01128 1 0.99799
1.01533 1.01731 1 0.998054
1.01183 1.01368 1 0.998172
1.01354 1.01539 1 0.998171
1.0086 1.0104 1 0.998219
1.01217 1.01384 1 0.998359
1.01457 1.01658 1 0.998024
1.01476 1.01665 1 0.998137
1.0139 1.01565 1 0.998271
1.01188 1.01347 1 0.998431
1.00812 1.01013 1 0.998017
1.00667 1.00859 1 0.998098
1.0134 1.01537 1 0.998063
1.00832 1.01017 1 0.998169
0.999147 1 1 0.999147
0.998877 1 1 0.998877
0.999768 1.00085 1.00058 0.998339
1.00527 1.00702 1 0.998266
1.01067 1.0123 1 0.998382
1.00623 1.00779 1 0.998446
1.00343 1.00523 1 0.998207
1.00742 1.00893 1 0.998498
0.999043 1 1 0.999043
0.998982 1 1 0.998982
0.999121 1 1.00005 0.999067
0.999788 1 1 0.999788
0.999384 1 1 0.999384
1.01478 1.01678 1 0.998033
1.01307 1.01501 1 0.998087
1.01131 1.01306 1 0.998279
0.999002 1 1 0.999002
0.998941 1 1.00026 0.998684
1.00107 1.0022 1.00076 0.998117
1.00919 1.01082 1 0.998388
1.00604 1.00784 1 0.998214
1.00809 1.00957 1 0.998533
0.999834 1 1 0.999834
0.999001 1 1 0.999001
0.998961 1 1 0.998961
0.999045 1 1.00012 0.998927
0.999194 1 1 0.999194
0.999473 1 1 0.999473
1.01461 1.01658 1 0.998067
1.01376 1.01567 0.999942 0.998179
1.01113 1.01279 1 0.998359
1.01139 1.01289 1 0.998526
0.998912 1 1 0.998912
1.00582 1.0075 1 0.998335
0.999981 1 1.00165 0.998339
1.00176 1.00273 1.00104 0.997993
0.999874 1 1 0.999874
0.999563 1 1 0.999563
0.99928 1 1 0.99928
0.999017 1 1.00003 0.998985
0.998932 1 1 0.998932
0.998986 1 1.00013 0.998858
0.99993 1 1 0.99993
0.999536 1 1 0.999536
1.00724 1.0091 1 0.998154
0.999176 1 1 0.999176
0.999109 1 1.00016 0.998953
0.999275 1 1.00036 0.998915
1.00148 1.00316 1 0.998324
1.00527 1.00694 1 0.998343
1.0011 1 1.00257 0.998538
0.999064 1.00053 1.00027 0.99827
0.999609 1 1 0.999609
0.999268 1 1 0.999268
1.00065 1 1.00186 0.998798
0.999446 1 1.00048 0.998963
0.99907 1 1.00021 0.998858
1.01061 1.01218 1 0.99845
1.00169 1.00345 1 0.998249
1.00525 1.00684 1 0.998423
1.00295 1 1.00455 0.998407
0.998499 1.00041 1.00003 0.998064
0.999364 1 1 0.999364
0.999031 1 1 0.999031
1.00242 1 1.00376 0.998663
0.999187 1 1.00044 0.99875
1.01689 1.01863 0.999739 0.998551
1.01039 1.01199 0.999872 0.998549
1.00272 1.00465 1 0.998078
1.00249 1.00015 1.00426 0.998092
0.999649 1 1 0.999649
0.999425 1 1 0.999425
0.999288 1 1 0.999288
0.999686 1 1 0.999686
0.999449 1 1 0.999449
0.999691 1 1 0.999691
0.999329 1 1 0.999329
0.999472 1 1 0.999472
0.999224 1 1 0.999224
0.999323 1 1 0.999323
0.999464 1 1 0.999464
0.999687 1 1 0.999687
0.999954 1 1 0.999954
0.999958 1 1 0.999958
1 1 1 1
0.999961 1 1 0.999961
1 1 1 1
1 1 1 1
1 1 1 1
1 1 1 1
1 1 1 1
1 1 1 1
1 1 1 1
1 1 1 1
1 1 1 1
1 1 1 1
1 1 1 1
1.008 1.0098 1 0.998219
1.01209 1.01396 1 0.998158
1.01211 1.01375 1 0.998382
1.01375 1.0156 1 0.998173
1.01541 1.01739 1 0.998051
1.00935 1.01139 1 0.997984
1.01454 1.01655 1 0.998029
1.01419 1.01609 1 0.998134
1.01362 1.01537 1 0.998274
1.01288 1.01448 1 0.998427
1.01464 1.01658 1 0.998097
1.01739 1.01923 0.999918 0.998276
1.01669 1.01838 0.999946 0.9984
1.01445 1.01645 1 0.998037
1.01292 1.01486 1 0.998094
1.0111 1.01284 1 0.998279
0.998998 1 1 0.998998
0.998895 1 1.00018 0.998717
1.00119 1.00224 1.00085 0.99811
1.0093 1.01093 1 0.998379
1.00775 1.00923 1 0.998527
1.00615 1.00791 1 0.99826
0.998998 1 1 0.998998
0.998983 1 1 0.998983
0.999062 1 1.00014 0.998919
0.999838 1 1 0.999838
0.999203 1 1 0.999203
0.999452 1 1 0.999452
1.01506 1.01702 1 0.99807
1.01388 1.01575 0.999977 0.998182
1.01096 1.01263 1 0.998347
0.998904 1 1 0.998904
0.999796 1 1.0014 0.9984
1.00192 1.00302 1.0009 0.998005
1.01156 1.01304 1 0.998541
1.0062 1.00789 1 0.998328
0.999898 1 1 0.999898
0.999564 1 1 0.999564
0.998937 1 1 0.998937
0.998975 1 1.00008 0.998892
0.999049 1 1.00006 0.998987
0.999264 1 1 0.999264
1.01743 1.0195 0.999785 0.998192
1.0125 1.01545 0.998797 0.998294
1.01291 1.01487 0.999539 0.998532
1.00979 1.01122 1 0.998584
0.999636 1 1.00088 0.998753
1.00213 1.00274 1.0014 0.997994
1.00085 1.00004 1.00264 0.998175
0.999952 1 1 0.999952
0.999702 1 1 0.999702
0.999575 1 1 0.999575
0.999313 1 1 0.999313
0.999078 1 1 0.999078
0.998986 1 1.00013 0.998855
0.998964 1 1 0.998964
1.00405 1 1.00509 0.998966
0.99961 1 1 0.99961
0.999278 1 1 0.999278
1.01059 1.01214 1 0.998464
0.999509 1 1.00054 0.998968
1.00084 1 1.00203 0.998815
0.998918 1 1.00004 0.998883
1.00169 1.00345 1 0.998247
1.00535 1.00686 1 0.998498
1.00318 1 1.0048 0.99839
0.998317 1.00029 1 0.998031
0.999353 1 1 0.999353
0.999073 1 1.00003 0.999039
1.0028 1 1.00412 0.998678
0.99914 1 1.00037 0.99877
1.01673 1.01847 0.999746 0.99855
1.00966 1.0112 0.999949 0.998532
1.00315 1.00504 1 0.998115
1.00206 1.00023 1.00377 0.998064
0.999207 1 1 0.999207
1.01661 1.02 0.998153 0.998517
0.999477 1 1.00062 0.998857
1.00116 1 1.00268 0.998486
1.01586 1.0178 0.999447 0.998642
1.00614 1.00801 1 0.998152
1.00355 1.00239 1.00323 0.997929
0.999436 1 1 0.999436
0.999287 1 1 0.999287
0.999166 1 1 0.999166
0.999691 1 1 0.999691
0.999482 1 1 0.999482
0.99931 1 1 0.99931
0.999687 1 1 0.999687
0.999465 1 1 0.999465
0.999207 1 1 0.999207
0.999342 1 1 0.999342
0.999127 1 1 0.999127
0.999203 1 1 0.999203
0.999345 1 1 0.999345
0.99947 1 1 0.99947
0.999675 1 1 0.999675
0.99995 1 1 0.99995
0.999953 1 1 0.999953
1 1 1 1
0.999957 1 1 0.999957
1 1 1 1
1 1 1 1
1 1 1 1
1 1 1 1
1 1 1 1
0.99997 1 1 0.99997
1 1 1 1
1 1 1 1
1 1 1 1
1 1 1 1
1 1 1 1
1 1 1 1
1.01388 1.01549 1 0.998423
1.01334 1.01509 1 0.998277
1.01361 1.01551 1 0.998131
1.01451 1.01651 1 0.998034
1.01443 1.01636 1 0.998109
1.01734 1.01922 0.999885 0.998264
1.01709 1.01878 0.999935 0.998414
1.01825 1.02035 0.999704 0.998242
1.02068 1.02334 0.999009 0.998391
1.00864 1.01679 0.99341 0.998572
1.01549 1.01746 1 0.998073
1.01404 1.01589 1 0.998185
1.01091 1.0126 1 0.998335
0.998953 1 1.00006 0.998897
0.999721 1 1.00126 0.998461
1.00187 1.00309 1.00078 0.998017
1.01185 1.01331 1 0.998556
1.0061 1.00779 1 0.99832
0.998942 1 1 0.998942
0.998972 1 1.00005 0.998924
0.999139 1 1.00015 0.998988
0.999923 1 1 0.999923
0.999564 1 1 0.999564
0.999248 1 1 0.999248
1.01732 1.01934 0.999814 0.998208
0.999948 1 1 0.999948
0.999687 1 1 0.999687
1.01242 1.01495 0.99921 0.998292
1.01409 1.01591 0.999711 0.998501
0.999636 1 1.00084 0.998797
1.00152 1.00008 1.0033 0.99814
1.00175 1.00291 1.00084 0.998002
1.0091 1.01054 1 0.998576
0.999617 1 1 0.999617
0.999311 1 1 0.999311
0.998923 1 1 0.998923
1.00184 1 1.0028 0.999039
0.998944 1 1.00011 0.998834
0.999083 1 1 0.999083
1.01956 1.02248 0.998782 0.998361
1.01351 1.01729 0.997858 0.998419
1.01228 1.01561 0.997992 0.99873
1.00323 1.00495 0.999951 0.998337
1.0011 1 1.00234 0.998756
1.00405 1.00063 1.00547 0.99796
0.999707 1 1 0.999707
0.999658 1 1 0.999658
0.999495 1 1 0.999495
0.999313 1 1 0.999313
0.999157 1 1 0.999157
0.998901 1 1 0.998901
1.00642 1 1.00766 0.998766
0.99946 1 1.0004 0.999064
0.999343 1 1 0.999343
0.999106 1 1.00006 0.999048
1.01666 1.01839 0.999746 0.998549
1.00923 1.01073 1 0.998515
0.999124 1 1.00034 0.998789
1.00307 1 1.00438 0.998694
1.00374 1.00556 1.00004 0.998153
1.00172 1.00034 1.00335 0.998037
0.999203 1 1 0.999203
1.01639 1.02042 0.997509 0.998536
0.999353 1 1.00049 0.998866
1.00115 1 1.00269 0.998464
1.01564 1.01756 0.999493 0.998621
1.00694 1.00877 1 0.998179
1.00352 1.0021 1.00348 0.997938
0.999227 1 1.00022 0.999005
1.01736 1.02362 0.99513 0.998747
0.999353 1 1.00065 0.998703
1.00226 1.00023 1.00379 0.998249
1.00767 1.01214 0.997225 0.998363
1.00197 1.00179 1.00221 0.997978
1.00563 1.00829 0.998499 0.998855
0.999286 1 1 0.999286
0.999165 1 1 0.999165
0.999066 1 1 0.999066
0.999686 1 1 0.999686
0.999465 1 1 0.999465
0.999361 1 1 0.999361
0.999191 1 1 0.999191
0.999674 1 1 0.999674
0.999461 1 1 0.999461
0.999119 1 1 0.999119
0.999345 1 1 0.999345
0.999219 1 1 0.999219
0.999109 1 1 0.999109
0.999248 1 1 0.999248
0.999346 1 1 0.999346
0.999426 1 1 0.999426
0.999629 1 1 0.999629
0.999498 1 1 0.999498
0.999631 1 1 0.999631
0.999947 1 1 0.999947
0.999949 1 1 0.999949
1 1 1 1
0.999952 1 1 0.999952
1 1 1 1
1 1 1 1
1 1 1 1
1 1 1 1
1 1 1 1
0.999979 1 1 0.999979
0.999967 1 1 0.999967
1 1 1 1
1 1 1 1
1 1 1 1
1 1 1 1
1 1 1 1
1 1 1 1
1.01747 1.01914 0.999928 0.998427
1.01732 1.01924 0.999856 0.998252
1.01427 1.01618 1 0.99812
1.01827 1.02036 0.999713 0.99824
1.01989 1.02253 0.99903 0.998389
1.00986 1.01714 0.994263 0.998572
1.01712 1.02256 0.996221 0.998459
1.00712 1.01596 0.992835 0.998452
1.01548 1.02393 0.992883 0.998857
0.999765 1 1 0.999765
1.01725 1.01921 0.999852 0.998223
1.01223 1.01435 0.999618 0.998291
1.01498 1.01672 0.999818 0.998471
0.999661 1 1.00082 0.998841
1.00228 1.00016 1.00402 0.998105
1.00175 1.0033 1.00045 0.998009
1.00848 1.00992 1 0.998568
0.998882 1 1 0.998882
0.999608 1 1.00049 0.999114
0.998889 1 1.00008 0.998814
0.999944 1 1 0.999944
0.999088 1 1 0.999088
0.99966 1 1 0.99966
0.999309 1 1 0.999309
0.999672 1 1 0.999672
1.01934 1.02307 0.997978 0.998367
0.999727 1 1 0.999727
0.999658 1 1 0.999658
0.999463 1 1 0.999463
1.01377 1.01761 0.997799 0.998422
1.0117 1.01472 0.998338 0.998687
1.00038 1 1.00161 0.998772
1.00377 1.00028 1.00553 0.997964
1.00329 1.00484 1.00012 0.99834
0.999335 1 1 0.999335
0.999144 1 1 0.999144
1.00084 1 1.00183 0.999012
1.00526 1 1.00647 0.9988
0.998919 1 1 0.998919
1.01336 1.01952 0.995516 0.998436
1.0133 1.01949 0.99538 0.998539
1.00729 1.01038 0.998437 0.998505
1.00453 1.0031 1.00323 0.998209
1.00348 1 1.00478 0.998711
0.999463 1 1 0.999463
0.999379 1 1 0.999379
0.999292 1 1 0.999292
0.999154 1 1 0.999154
0.999011 1 1 0.999011
1.00377 1 1.00497 0.998804
1.00788 1 1.00919 0.998704
0.999199 1 1 0.999199
0.999204 1 1.00033 0.998875
1.01616 1.02075 0.996944 0.998555
1.01524 1.01718 0.999498 0.998599
1.0074 1.00921 1 0.998207
1.00112 1 1.00268 0.998443
1.00321 1.00166 1.0036 0.997948
0.999215 1 1.00018 0.999031
1.01703 1.02381 0.994623 0.998751
0.999341 1 1.00062 0.998719
1.00241 1.00009 1.00408 0.99826
1.00863 1.01242 0.99784 0.998416
1.0025 1.00185 1.00269 0.997967
1.00585 1.00863 0.998647 0.9986
0.999136 1 1.00024 0.998893
1.00392 1.01495 0.990398 0.99873
1.00054 1 1.00187 0.998672
1.00454 1 1.00636 0.998187
1.00297 1.00376 1.00104 0.998176
0.958866 0.974377 0.993096 0.990922
0.987993 0.989878 1.00223 0.995874
0.981998 1.00132 0.981703 0.998987
0.8979 0.925914 0.977856 0.991705
0.876413 0.932267 0.948259 0.991383
0.999164 1 1 0.999164
0.999077 1 1 0.999077
0.999078 1 1 0.999078
0.999673 1 1 0.999673
0.999451 1 1 0.999451
0.999344 1 1 0.999344
0.999235 1 1 0.999235
0.99911 1 1 0.99911
0.99933 1 1 0.99933
0.999646 1 1 0.999646
0.999439 1 1 0.999439
0.999115 1 1 0.999115
0.999245 1 1 0.999245
0.999253 1 1 0.999253
0.999184 1 1 0.999184
0.999289 1 1 0.999289
0.999403 1 1 0.999403
0.999625 1 1 0.999625
0.999455 1 1 0.999455
0.999353 1 1 0.999353
0.999471 1 1 0.999471
0.999474 1 1 0.999474
0.999669 1 1 0.999669
0.99963 1 1 0.99963
0.999945 1 1 0.999945
0.999946 1 1 0.999946
1 1 1 1
0.999949 1 1 0.999949
1 1 1 1
1 1 1 1
1 1 1 1
1 1 1 1
1 1 1 1
0.999984 1 1 0.999984
0.999977 1 1 0.999977
1 1 1 1
0.999964 1 1 0.999964
1 1 1 1
1 1 1 1
1 1 1 1
1 1 1 1
1 1 1 1
1.01919 1.02178 0.999068 0.998387
1.01821 1.0203 0.999718 0.998238
1.01095 1.01739 0.995084 0.998572
1.00741 1.01572 0.993322 0.998482
1.01664 1.02203 0.996258 0.998458
1.01751 1.02511 0.993784 0.998803
1.02116 1.02581 0.997019 0.998448
0.972203 0.984914 0.991894 0.995161
1.01344 1.01935 0.995462 0.998731
0.999775 1 1 0.999775
0.999765 1 1 0.999765
0.999532 1 1 0.999532
0.999559 1 1 0.999559
1.01918 1.02368 0.997229 0.998374
1.01417 1.0179 0.997903 0.998426
1.01132 1.01391 0.998803 0.998642
0.999559 1 1.00077 0.998788
1.00332 1 1.00536 0.997968
1.00341 1.00494 1.00013 0.998344
1.00222 1 1.00326 0.99896
1.0041 1 1.00528 0.998833
0.998937 1 1 0.998937
0.999657 1 1 0.999657
0.999132 1 1 0.999132
0.999357 1 1 0.999357
0.999747 1 1 0.999747
0.999431 1 1 0.999431
1.012 1.01774 0.995906 0.998451
0.999497 1 1 0.999497
0.999398 1 1 0.999398
0.999294 1 1 0.999294
1.01527 1.02093 0.995906 0.998551
1.00604 1.00945 0.998118 0.998501
1.00338 1 1.00468 0.998707
1.0044 1.00338 1.00282 0.998197
0.999158 1 1 0.999158
0.999016 1 1 0.999016
1.00752 1 1.00882 0.998705
1.00466 1 1.00588 0.998784
1.01717 1.02326 0.99558 0.998456
0.999935 1.0155 0.98611 0.998538
1.00453 1.00559 1.00073 0.998222
1.00167 1 1.00306 0.998609
0.999229 1 1 0.999229
0.999201 1 1 0.999201
0.999968 1 1.00101 0.998957
1.01306 1 1.01451 0.998572
0.948111 0.971902 0.984782 0.990597
0.999238 1 1.00018 0.999057
0.999417 1 1.00068 0.998735
1.0162 1.02383 0.993789 0.998755
1.0097 1.0127 0.99857 0.998469
1.00328 1.00203 1.0033 0.997956
1.00273 1 1.00447 0.998271
1.00554 1.00874 0.998486 0.998339
0.999322 1 1.00041 0.998912
1.00312 1.01456 0.989993 0.998716
1.00007 1 1.00139 0.99868
1.00429 1 1.00611 0.998189
1.00328 1.00488 1.00022 0.998194
0.956564 0.974151 0.990896 0.990968
0.98383 0.988818 1.00036 0.994599
0.983866 1.00027 0.984554 0.999035
0.90167 0.926337 0.98183 0.991385
0.863269 0.921941 0.945159 0.990691
0.999555 1 1.00057 0.998987
0.912881 0.936325 0.983632 0.991186
0.909352 0.937016 0.978304 0.991998
0.980434 1.00545 0.976382 0.998703
1.00473 1 1.00603 0.998712
1.00963 1.00113 1.01017 0.998343
0.983317 0.99737 0.986728 0.99917
0.96326 0.973097 0.99939 0.990495
0.978032 0.978993 1.00486 0.99419
0.882019 0.926201 0.960317 0.99165
0.913419 0.961071 0.957184 0.992932
0.999088 1 1 0.999088
0.999075 1 1 0.999075
0.999205 1 1 0.999205
0.999663 1 1 0.999663
0.999451 1 1 0.999451
0.999313 1 1 0.999313
0.999243 1 1 0.999243
0.999122 1 1 0.999122
0.999625 1 1 0.999625
0.999253 1 1 0.999253
0.999306 1 1 0.999306
0.999422 1 1 0.999422
0.999177 1 1 0.999177
0.999206 1 1 0.999206
0.99939 1 1.0002 0.999193
0.999286 1 1 0.999286
0.999436 1 1 0.999436
0.999454 1 1 0.999454
0.999338 1 1 0.999338
0.999316 1 1 0.999316
0.99933 1 1 0.99933
0.99927 1 1 0.99927
0.999226 1 1 0.999226
0.999451 1 1 0.999451
0.999471 1 1 0.999471
0.99967 1 1 0.99967
0.99945 1 1 0.99945
0.999655 1 1 0.999655
0.999944 1 1 0.999944
0.999629 1 1 0.999629
0.999945 1 1 0.999945
1 1 1 1
0.999946 1 1 0.999946
1 1 1 1
1 1 1 1
1 1 1 1
1 1 1 1
1 1 1 1
0.999766 1 1 0.999766
0.999985 1 1 0.999985
0.999983 1 1 0.999983
1 1 1 1
0.999975 1 1 0.999975
1 1 1 1
1 1 1 1
1 1 1 1
1 1 1 1
1 1 1 1
1.00861 1.01579 0.994413 0.998513
1.01616 1.02163 0.996179 0.998456
1.02014 1.02651 0.995033 0.99875
0.973997 0.983861 0.994082 0.995868
1.01305 1.01907 0.995304 0.998783
1.02218 1.02748 0.99641 0.998429
1.01772 1.02306 0.99624 0.998538
0.977993 0.986446 0.995233 0.99618
0.958984 0.975141 0.993538 0.989827
0.880324 0.918814 0.967284 0.990515
0.865041 0.915403 0.953387 0.991185
0.999522 1 1 0.999522
0.999775 1 1 0.999775
0.999764 1 1 0.999764
0.999522 1 1 0.999522
0.999373 1 1 0.999373
0.999409 1 1 0.999409
0.999533 1 1 0.999533
0.999543 1 1 0.999543
1.01044 1.01599 0.996066 0.998466
1.01731 1.02286 0.996014 0.998562
1.00484 1.00856 0.99781 0.998497
1.00347 1 1.00477 0.998702
1.00429 1.00339 1.00272 0.998184
1.00716 1 1.00847 0.998706
1.00571 1 1.00695 0.998764
0.999022 1 1 0.999022
0.999417 1 1 0.999417
0.999161 1 1 0.999161
0.99953 1 1 0.99953
0.999297 1 1 0.999297
1.01724 1.02381 0.995135 0.998434
0.999247 1 1 0.999247
0.999204 1 1 0.999204
1.00146 1.01417 0.988924 0.998523
1.00429 1.00614 0.999867 0.9983
1.00339 1.00007 1.00477 0.998561
1.00064 1 1.0017 0.998945
1.01161 1 1.01305 0.998576
1.01553 1.02207 0.995193 0.998394
0.98446 1.00434 0.981662 0.99852
0.999518 1 1.00103 0.998488
1.00696 1 1.00835 0.998618
0.999134 1 1 0.999134
0.999833 1 1.00081 0.999023
1.00693 1 1.00818 0.998753
0.902111 0.937903 0.970096 0.991487
0.954972 0.972937 0.990124 0.991326
0.999421 1 1.00049 0.998932
0.999748 1 1.00106 0.998689
1.00328 1.01459 0.990135 0.998704
1.00365 1.00615 0.999307 0.998212
1.00389 1 1.00571 0.998191
0.957555 0.974403 0.992881 0.989756
0.984949 0.990815 0.998744 0.99533
0.986299 0.999544 0.987656 0.999082
0.896066 0.92743 0.974912 0.991045
0.84995 0.910718 0.942705 0.989995
0.999351 1 1.00036 0.998987
0.906865 0.939103 0.973857 0.991594
0.908197 0.933992 0.980458 0.991763
0.983204 1.00628 0.978352 0.998692
1.00428 1 1.00556 0.998728
1.00891 1.00061 1.00989 0.998417
0.976465 0.994452 0.982699 0.999201
0.964805 0.975877 0.998746 0.989895
0.979602 0.982157 1.00199 0.995413
0.883457 0.922062 0.967218 0.990606
0.911824 0.960873 0.956063 0.992564
1.0008 1 1.0017 0.999101
0.928283 0.940648 0.993745 0.993067
0.979536 0.983193 1.00084 0.995447
0.987871 1.00077 0.988046 0.999059
1.01032 1.00025 1.01102 0.999052
0.998962 0.991929 1.00758 0.999517
0.970413 0.97753 0.996205 0.9965
0.96371 0.967642 1.00606 0.989934
0.90555 0.945373 0.966878 0.990689
0.936912 0.978465 0.963076 0.994244
0.999072 1 1 0.999072
0.999182 1 1 0.999182
0.999758 1 1.00042 0.999337
0.999625 1 1 0.999625
0.999441 1 1 0.999441
0.999323 1 1 0.999323
0.999252 1 1 0.999252
0.99917 1 1 0.99917
0.999436 1 1 0.999436
0.999216 1 1 0.999216
0.999286 1 1 0.999286
0.999449 1 1.00024 0.999204
0.999855 1 1.00055 0.999301
0.999291 1 1.00009 0.999204
0.999288 1 1 0.999288
0.999453 1 1 0.999453
0.999323 1 1 0.999323
0.999316 1 1 0.999316
0.999328 1 1 0.999328
0.99927 1 1 0.99927
0.999295 1 1 0.999295
0.999249 1 1 0.999249
0.999243 1 1 0.999243
0.999077 1 1 0.999077
0.999564 1 1.00068 0.998889
0.999131 1 1 0.999131
0.999224 1 1 0.999224
0.999409 1 1 0.999409
0.99945 1 1 0.99945
0.999662 1 1 0.999662
0.99947 1 1 0.99947
0.99967 1 1 0.99967
0.999944 1 1 0.999944
0.99964 1 1 0.99964
0.999944 1 1 0.999944
1 1 1 1
0.999945 1 1 0.999945
1 1 1 1
1 1 1 1
1 1 1 1
1 1 1 1
1 1 1 1
0.999783 1 1 0.999783
0.999981 1 1 0.999981
0.999766 1 1 0.999766
1 1 1 1
0.999985 1 1 0.999985
0.999982 1 1 0.999982
1 1 1 1
1 1 1 1
1 1 1 1
1 1 1 1
1 1 1 1
0.904819 0.932738 0.978211 0.991674
0.915239 0.93799 0.983112 0.992506
0.976474 0.985009 0.994971 0.996346
1.01307 1.01871 0.995617 0.998835
1.02312 1.02893 0.995938 0.99841
0.976802 0.984342 0.995032 0.997295
1.01843 1.0229 0.997065 0.998556
0.96077 0.976105 0.993213 0.991016
0.893571 0.923896 0.975505 0.991464
0.855492 0.912179 0.946869 0.990481
0.996431 1.00001 0.998339 0.998078
0.962405 0.972732 0.998497 0.990873
0.875908 0.922296 0.957883 0.991462
0.91136 0.956749 0.960115 0.99213
0.999319 1 1 0.999319
0.999536 1 1 0.999536
0.999774 1 1 0.999774
0.999512 1 1 0.999512
0.999393 1 1 0.999393
0.999348 1 1 0.999348
0.999409 1 1 0.999409
0.999446 1 1 0.999446
0.999514 1 1 0.999514
0.999528 1 1 0.999528
1.01733 1.02414 0.99493 0.998413
1.00216 1.01208 0.991683 0.998509
1.00404 1.00668 0.998995 0.998379
1.00491 1.00017 1.00623 0.998513
1.00954 1 1.01098 0.998581
1.00121 1 1.00228 0.998933
0.999208 1 1 0.999208
0.999266 1 1 0.999266
1.01316 1.02208 0.992883 0.998382
0.999127 1 1 0.999127
0.999755 1 1.00075 0.999003
0.986137 1.00397 0.983743 0.998465
0.999899 1 1.00133 0.998568
1.00651 1 1.00797 0.998555
1.00643 1 1.0077 0.998737
1.00264 1.00794 0.996117 0.998617
0.992155 1 0.993194 0.998954
1.00894 1 1.01026 0.998693
0.999118 1 1 0.999118
0.999227 1 1.00024 0.998991
1.00215 1 1.00331 0.998837
0.929081 0.943358 0.991045 0.993765
0.908451 0.937681 0.977611 0.991015
0.952326 0.974707 0.986331 0.990579
0.998988 1 1 0.998988
1.00377 1 1.00503 0.998744
0.985959 1.00689 0.980505 0.998681
1.00823 1 1.00976 0.99849
0.90356 0.936969 0.973176 0.990924
0.963401 0.973877 0.997823 0.991401
0.977346 0.983061 0.999936 0.99425
0.973776 0.992369 0.982013 0.999237
0.886757 0.922279 0.969814 0.991411
0.910178 0.93755 0.979001 0.991629
0.906739 0.958713 0.953108 0.992319
1.00127 1 1.00217 0.999102
0.927991 0.943045 0.990803 0.993172
0.981324 0.984444 1.00141 0.995426
0.99019 1.00034 0.990738 0.999104
1.01006 1.00001 1.01102 0.999041
0.998514 0.993062 1.00631 0.99919
0.971387 0.977068 0.999269 0.994914
0.962379 0.97051 1.00152 0.990113
0.909298 0.949907 0.965157 0.991806
0.929147 0.971881 0.961797 0.994004
1.00176 0.999868 1.0024 0.999492
0.980475 0.984027 0.999796 0.996594
0.981403 0.981401 1.00287 0.99714
1.00956 0.997786 1.01209 0.999715
0.984722 0.981156 1.0056 0.998049
0.966769 0.968666 1.00845 0.989684
0.940551 0.9658 0.981592 0.99212
0.941299 0.985767 0.960873 0.993773
0.99916 1 1 0.99916
0.999697 1 1.00036 0.999342
1.00075 1 1.0013 0.999451
0.999435 1 1 0.999435
0.999285 1 1 0.999285
0.999227 1 1 0.999227
0.999497 1 1.00028 0.999216
0.999288 1 1 0.999288
0.999233 1 1.00003 0.999202
1.00026 1 1.00093 0.999324
1.00031 1 1.00086 0.999451
0.999493 1 1.00023 0.999261
0.999221 1 1 0.999221
0.999316 1 1 0.999316
0.999327 1 1 0.999327
0.99927 1 1 0.99927
0.999252 1 1 0.999252
0.999293 1 1 0.999293
0.999247 1 1 0.999247
0.999193 1 1 0.999193
0.99926 1 1 0.99926
0.999073 1 1 0.999073
0.999091 1 1 0.999091
0.999628 1 1.00069 0.998939
0.999925 1 1.00126 0.998667
0.999082 1 1 0.999082
0.999431 1 1.00049 0.998944
0.999157 1 1 0.999157
0.999313 1 1 0.999313
0.999222 1 1 0.999222
0.999407 1 1 0.999407
0.999638 1 1 0.999638
0.999448 1 1 0.999448
0.999661 1 1 0.999661
0.999943 1 1 0.999943
0.99967 1 1 0.99967
0.999944 1 1 0.999944
1 1 1 1
0.999944 1 1 0.999944
1 1 1 1
1 1 1 1
1 1 1 1
1 1 1 1
1 1 1 1
0.999705 1 1 0.999705
0.999977 1 1 0.999977
0.999748 1 1 0.999748
1 1 1 1
0.999982 1 1 0.999982
0.999766 1 1 0.999766
1 1 1 1
1 1 1 1
0.999985 1 1 0.999985
1 1 1 1
1 1 1 1
1 1 1 1
0.93253 0.944331 0.99373 0.993734
0.905782 0.935288 0.977123 0.991126
0.981098 0.986304 0.999399 0.99532
0.906698 0.932029 0.98049 0.992179
0.972614 0.983258 0.993345 0.995802
1.01836 1.02279 0.997089 0.998573
0.961301 0.97672 0.99194 0.99221
0.89422 0.927411 0.973285 0.990677
0.847283 0.910089 0.940604 0.989777
0.993134 0.998637 0.996969 0.997513
0.96451 0.973399 1.0008 0.990074
0.882251 0.926861 0.961106 0.99039
0.908464 0.955473 0.958612 0.991852
0.98872 0.993659 0.997806 0.997217
0.96832 0.969661 1.00902 0.989693
0.909545 0.951408 0.964064 0.991634
0.934414 0.978907 0.960668 0.993629
0.999208 1 1 0.999208
0.999339 1 1 0.999339
0.99955 1 1 0.99955
0.999412 1 1 0.999412
0.999236 1 1 0.999236
0.999361 1 1 0.999361
0.999408 1 1 0.999408
0.999428 1 1 0.999428
0.999466 1 1 0.999466
0.999496 1 1 0.999496
1.01097 1.02262 0.990229 0.998371
0.988771 1.00397 0.986425 0.998411
1.00024 1 1.00159 0.998647
1.00668 1 1.0082 0.998492
1.00649 1 1.00778 0.998721
0.999637 1 1.00065 0.998983
0.999121 1 1 0.999121
0.999121 1 1 0.999121
0.996939 1.00705 0.991312 0.998636
0.9991 1 1.0001 0.999002
1.00232 1 1.00349 0.998833
0.990337 1 0.991431 0.998896
1.00759 1 1.00892 0.998684
0.976136 0.997257 0.979723 0.999078
1.00836 1 1.00907 0.999294
1.00231 1 1.00345 0.998864
0.99903 1 1 0.99903
1.00177 1 1.00294 0.998837
0.977279 0.980609 0.999424 0.997179
0.932686 0.94364 0.994422 0.993936
0.90497 0.935809 0.975022 0.991819
1.00182 1 1.00272 0.999102
1.00971 0.999671 1.01102 0.99903
0.990967 1 0.991814 0.999146
0.935418 0.946536 0.994585 0.993635
0.97026 0.9708 1.00988 0.989669
0.973072 0.97805 0.998857 0.996049
0.991055 0.991879 1.00033 0.998837
0.908639 0.947799 0.967701 0.990682
0.982236 0.984753 1.00205 0.995405
0.924506 0.968086 0.960681 0.994068
1.00176 0.999749 1.00252 0.999486
0.979668 0.982762 0.999897 0.996954
0.985086 0.984263 1.0037 0.997151
1.00991 0.998466 1.01189 0.99958
0.983353 0.980792 1.00502 0.997602
0.968112 0.97146 1.00731 0.989317
0.942064 0.988768 0.958286 0.994239
0.928198 0.958654 0.976491 0.99154
1.00352 0.998489 1.00533 0.999711
0.981708 0.983158 0.999646 0.998878
0.990868 0.992671 1.00073 0.997458
0.936884 0.980447 0.961683 0.993642
0.99834 0.984698 1.01442 0.999437
0.976973 0.974584 1.01245 0.990125
0.920179 0.942986 0.983682 0.992002
0.999614 1 1.00027 0.999347
1.0005 1 1.00109 0.999411
1.00312 1 1.00355 0.999566
0.999288 1 1 0.999288
0.999199 1 1 0.999199
1.00073 1 1.00138 0.999348
0.999226 1 1 0.999226
0.999646 1 1.00038 0.999264
1.00069 1 1.00126 0.999425
0.999847 1 1.00035 0.999492
0.999359 1 1.00011 0.999249
0.999255 1 1 0.999255
0.999292 1 1 0.999292
0.999251 1 1 0.999251
0.999256 1 1 0.999256
0.999202 1 1 0.999202
0.999514 1 1.00029 0.999222
0.999126 1 1 0.999126
1.00131 1 1.00256 0.998749
0.999105 1 1 0.999105
0.999479 1 1.00056 0.998924
0.999527 1 1.001 0.998524
0.999816 1 1.00118 0.99864
0.999215 1 1.00024 0.998977
0.999782 1 1.00111 0.998678
0.999243 1 1 0.999243
0.999061 1 1 0.999061
0.999301 1 1.0003 0.998998
0.999182 1 1 0.999182
0.999335 1 1 0.999335
0.999593 1 1 0.999593
0.999406 1 1 0.999406
0.999637 1 1 0.999637
0.999937 1 1 0.999937
0.99966 1 1 0.99966
0.999941 1 1 0.999941
1 1 1 1
0.999943 1 1 0.999943
1 1 1 1
1 1 1 1
1 1 1 1
1 1 1 1
1 1 1 1
0.999603 1 1 0.999603
0.999918 1 1 0.999918
0.999704 1 1 0.999704
1 1 1 1
0.999956 1 1 0.999956
0.999713 1 1 0.999713
1 1 1 1
1 1 1 1
0.999984 1 1 0.999984
1 1 1 1
1 1 1 1
1 1 1 1
0.978583 0.982155 0.999427 0.996935
0.924234 0.94287 0.986784 0.993363
0.90672 0.933291 0.980454 0.990898
0.999367 1 1 0.999367
0.977374 0.97852 1.00136 0.99747
0.982478 0.986035 1.00109 0.995303
0.899768 0.930992 0.974303 0.991951
0.992393 0.998779 0.996721 0.996875
0.969399 0.975278 1.00328 0.990725
0.888051 0.934254 0.958986 0.991199
0.902637 0.951714 0.956375 0.991696
0.990215 0.995416 0.999168 0.995604
0.960722 0.966337 1.00405 0.990182
0.91563 0.952872 0.969341 0.991308
0.93337 0.977888 0.960876 0.993339
0.978072 0.982835 1.00064 0.994516
0.971973 0.965849 1.01787 0.988675
0.927906 0.960048 0.975117 0.991184
0.938774 0.984247 0.959781 0.993767
0.999109 1 1 0.999109
0.999197 1 1 0.999197
0.999359 1 1 0.999359
0.999232 1 1 0.999232
0.999261 1 1 0.999261
0.999375 1 1 0.999375
0.999433 1 1 0.999433
0.999486 1 1 0.999486
0.990978 1.00589 0.986508 0.998651
0.988011 1 0.98916 0.998839
0.999123 1 1 0.999123
1.00585 1 1.00718 0.998675
1.00236 1 1.00353 0.998828
0.999085 1 1.00007 0.999014
0.999048 1 1.00001 0.999034
0.981792 0.999543 0.983137 0.999089
1.00165 1 1.00279 0.998866
1.00302 1 1.00416 0.998863
1.00323 1 1.00392 0.999309
0.999063 1 1 0.999063
0.974846 0.990682 0.98453 0.999476
1.01193 0.998863 1.01363 0.999454
1.00136 1 1.00241 0.998955
0.999706 1 1.00072 0.998987
0.982123 0.983651 0.99935 0.999097
0.977013 0.98006 0.999662 0.997228
0.937445 0.944417 0.998496 0.994112
1.00163 0.999732 1.00242 0.999482
1.01139 0.999305 1.01266 0.999448
0.978716 0.981558 0.999792 0.997312
0.97477 0.969978 1.0151 0.989987
0.981117 0.977981 1.0074 0.995837
0.932719 0.961482 0.979013 0.990881
0.987965 0.986285 1.00455 0.997162
0.944167 0.992984 0.9559 0.994704
1.00387 0.998636 1.00556 0.999678
0.979817 0.982114 0.99877 0.998891
0.989989 0.990971 1.00114 0.997873
1.00679 0.991534 1.01547 0.999917
0.934822 0.979407 0.960878 0.993339
0.972214 0.971011 1.01136 0.989996
0.929402 0.956543 0.980532 0.990917
1.00735 0.995837 1.0118 0.999771
0.989879 0.992133 0.998519 0.999208
0.978325 0.980246 1.00056 0.997485
0.911956 0.958958 0.958494 0.992168
0.927344 0.962121 0.972582 0.991026
0.985647 0.980471 1.00591 0.999371
0.978331 0.967908 1.02202 0.988994
1.00026 1 1.00089 0.999371
1.00199 0.99962 1.00282 0.99955
1.00501 0.992894 1.01262 0.999582
0.99923 1 1 0.99923
0.999632 1 1.00037 0.999267
1.00094 1 1.00154 0.9994
0.999254 1 1.00001 0.999244
1.00001 1 1.00052 0.999492
1.00524 0.999063 1.00686 0.999332
0.999251 1 1 0.999251
0.999211 1 1 0.999211
1.00008 1 1.00088 0.999195
1.00639 1 1.00754 0.998859
0.999178 1 1 0.999178
1.00077 1 1.00197 0.998809
1.00252 1 1.00413 0.998402
1.00014 1 1.00188 0.99827
0.999304 1 1.0004 0.998909
0.999571 1 1.00109 0.998481
0.999244 1 1.00053 0.99872
1.00009 1 1.00122 0.998869
0.999732 1 1.00106 0.998675
0.999165 1 1 0.999165
0.999234 1 1.00026 0.998973
0.999675 1 1.00099 0.998689
0.999521 1 1 0.999521
0.999235 1 1 0.999235
0.999039 1 1 0.999039
0.999356 1 1 0.999356
0.999591 1 1 0.999591
0.999924 1 1 0.999924
0.999636 1 1 0.999636
0.999935 1 1 0.999935
1 1 1 1
0.99994 1 1 0.99994
1 1 1 1
1 1 1 1
1 1 1 1
1 1 1 1
1 1 1 1
0.999563 1 1 0.999563
0.999882 1 1 0.999882
0.999623 1 1 0.999623
1 1 1 1
0.999916 1 1 0.999916
0.999702 1 1 0.999702
1 1 1 1
1 1 1 1
0.999936 1 1 0.999936
1 1 1 1
1 1 1 1
1 1 1 1
0.977527 0.980061 0.998539 0.998874
0.977841 0.98158 0.999246 0.996942
0.924374 0.943823 0.985895 0.993406
0.999376 1 1 0.999376
0.999339 1 1 0.999339
0.999256 1 1 0.999256
0.989651 0.991172 1.00102 0.997452
0.979468 0.97983 1.00215 0.997489
0.983312 0.985791 1.00221 0.995287
0.996314 0.995488 1.00398 0.996859
0.962159 0.967114 1.00517 0.989757
0.909238 0.946804 0.969307 0.990733
0.936576 0.980697 0.961394 0.99336
0.973925 0.978094 0.999818 0.995918
0.966769 0.965714 1.0115 0.989709
0.925473 0.95328 0.978424 0.992239
0.940453 0.987541 0.95784 0.994234
0.964112 0.971832 0.996695 0.995345
0.980871 0.97174 1.01973 0.98987
0.920673 0.941626 0.985582 0.992052
0.935708 0.977001 0.96332 0.994203
0.999103 1 1 0.999103
0.999107 1 1 0.999107
0.999186 1 1 0.999186
0.99923 1 1 0.99923
0.999285 1 1 0.999285
0.999438 1 1 0.999438
0.988297 1.00185 0.987365 0.999099
0.998496 1 0.999172 0.999324
0.999038 1 1 0.999038
1.00373 1 1.00487 0.998862
1.00175 1 1.00286 0.998894
0.999048 1 1 0.999048
0.999791 1 1.0008 0.998994
0.98578 0.994032 0.992221 0.999473
1.00237 1 1.00336 0.999017
1.00748 0.99594 1.01211 0.99948
0.999094 1 1 0.999094
1.00187 0.985684 1.0167 0.999724
0.993351 0.992614 1.00116 0.99958
1.00015 1 1.00102 0.999132
0.995045 0.996057 0.999502 0.999482
0.982158 0.983887 0.999039 0.999203
0.976558 0.979534 0.999686 0.997275
1.00434 0.998952 1.00575 0.999644
1.00203 0.993219 1.00916 0.999715
0.978432 0.981545 0.997923 0.998903
0.976653 0.970151 1.01406 0.992742
0.932988 0.954687 0.984871 0.992283
0.989326 0.989561 1.00148 0.998289
0.93781 0.982011 0.961355 0.993377
1.00657 0.99635 1.01048 0.999788
0.988496 0.991815 0.997355 0.999296
0.980675 0.981468 1.00169 0.997503
0.984048 0.976679 1.01023 0.997345
0.908743 0.957178 0.957145 0.991905
0.922762 0.956533 0.972395 0.992081
0.988395 0.973593 1.02562 0.98984
1.0084 0.983249 1.02574 0.999844
0.978597 0.980902 0.998756 0.998893
0.98203 0.987614 0.998973 0.995369
0.863967 0.915119 0.9524 0.991288
0.910995 0.952613 0.964349 0.991666
0.980748 0.973191 1.01818 0.989774
0.958895 0.97127 0.990748 0.996479
1.00076 0.99913 1.0021 0.999534
1.00833 0.995123 1.01369 0.999586
1.01899 0.998912 1.02058 0.999529
0.999239 1 1 0.999239
1.00036 1 1.00087 0.999492
1.00505 0.999565 1.00613 0.999369
1.01604 1 1.01702 0.999038
1.00059 1 1.00142 0.999167
1.00651 1 1.00773 0.998793
1.01303 1 1.01475 0.998305
1.00031 1 1.00145 0.99887
1.00337 1 1.005 0.998387
1.00317 1 1.00516 0.998022
1.00056 1.00068 1.00191 0.997973
0.999591 1 1.00108 0.998515
1.00013 1 1.00189 0.998245
0.999663 1 1.00123 0.998438
0.99983 1 1.00098 0.998853
0.999253 1 1.00048 0.998774
0.999884 1 1.00087 0.999017
1.00015 1 1.00125 0.998894
0.9996 1 1.00089 0.998711
0.999416 1 1 0.999416
0.999167 1 1 0.999167
0.999259 1 1.00029 0.998969
0.999893 1 1 0.999893
0.99952 1 1 0.99952
0.999228 1 1 0.999228
0.999589 1 1 0.999589
0.99992 1 1 0.99992
1 1 1 1
0.999932 1 1 0.999932
1 1 1 1
1 1 1 1
1 1 1 1
1 1 1 1
1 1 1 1
0.999561 1 1 0.999561
0.999901 1 1 0.999901
0.999576 1 1 0.999576
1 1 1 1
0.999907 1 1 0.999907
0.999643 1 1 0.999643
1 1 1 1
1 1 1 1
0.999915 1 1 0.999915
1 1 1 1
1 1 1 1
1 1 1 1
0.989855 0.991769 0.998866 0.999204
0.979878 0.981966 0.998985 0.998888
0.978023 0.980932 1.00008 0.996952
0.999322 1 1 0.999322
0.999228 1 1 0.999228
0.999385 1 1 0.999385
0.999337 1 1 0.999337
0.999241 1 1 0.999241
0.999243 1 1 0.999243
0.999167 1 1 0.999167
0.979985 0.980675 1.00218 0.997123
0.987976 0.989063 1.00103 0.997869
0.982031 0.981147 1.0034 0.997507
0.944012 0.992365 0.956342 0.994701
0.966648 0.972772 0.99906 0.99464
0.972784 0.969372 1.01283 0.990811
0.928501 0.95005 0.986211 0.990982
0.963781 0.972278 0.996506 0.994736
0.971141 0.966711 1.01522 0.989527
0.931324 0.957186 0.98163 0.991189
0.928872 0.971554 0.961881 0.993956
0.957738 0.969638 0.991564 0.996131
0.970793 0.969807 1.01185 0.98929
0.943079 0.96766 0.982308 0.99215
0.911479 0.959845 0.956466 0.992833
0.999149 1 1 0.999149
0.999102 1 1 0.999102
0.999105 1 1 0.999105
0.999227 1 1 0.999227
0.994922 0.997138 0.998305 0.999471
1.00345 0.993479 1.01053 0.999505
0.999033 1 1 0.999033
0.999596 1 1.0006 0.999001
1.00304 1 1.00396 0.999079
0.99909 1 1 0.99909
1.00045 1 1.00133 0.999118
0.997495 0.984209 1.01414 0.999369
0.994583 0.993891 1.00103 0.999662
0.999346 1 1.00017 0.999174
1.00378 0.981523 1.0233 0.999385
1.00271 0.99662 1.00676 0.999357
0.98248 0.983665 0.999675 0.999119
0.992683 0.993778 0.999342 0.999555
0.982679 0.984015 0.999332 0.99931
1.006 0.996985 1.00924 0.999805
0.985845 0.976942 1.00975 0.99937
0.986897 0.991256 0.996215 0.999386
0.976438 0.967909 1.01985 0.989177
0.926043 0.9524 0.981343 0.99081
0.983222 0.982727 1.00299 0.997521
0.90365 0.953005 0.956098 0.991752
1.01326 0.985212 1.02863 0.99985
0.979853 0.982232 0.99867 0.998907
0.983498 0.987535 1.00056 0.995351
0.962222 0.973049 0.990557 0.9983
0.856122 0.912721 0.946902 0.990587
0.91317 0.95195 0.967698 0.991283
0.981921 0.971326 1.02111 0.99001
0.9999 0.984315 1.01629 0.999555
0.979615 0.983023 0.99955 0.996981
0.916517 0.939073 0.983247 0.99261
0.878379 0.922785 0.959957 0.991585
0.971976 0.966273 1.01614 0.989927
0.951831 0.968945 0.987043 0.995233
1.01248 0.998044 1.01487 0.99959
1.01867 0.997425 1.02178 0.999522
1.01322 1 1.01384 0.999389
1.00486 1 1.00546 0.999406
1.01576 0.999719 1.01698 0.999089
1.00975 1 1.01129 0.998485
1.00678 1 1.00806 0.998727
1.01241 1 1.01417 0.998264
1.00661 1.00017 1.0085 0.997949
1.00419 1 1.00583 0.998373
1.00338 1 1.00541 0.997983
1.00297 1.00168 1.00344 0.997845
1.00052 1.00257 1 0.997959
0.999196 1.00028 1.00077 0.998152
1.00075 1.00064 1.00218 0.997929
0.998826 1 1.00013 0.9987
0.999292 1 1.00074 0.99855
1.00011 1 1.0019 0.998219
0.999714 1 1.00082 0.998892
0.999874 1 1.00103 0.998846
0.999253 1 1.00043 0.998828
0.99927 1 1 0.99927
0.999731 1 1.00069 0.999041
1.0002 1 1.00128 0.998919
0.999818 1 1 0.999818
0.999417 1 1 0.999417
0.999169 1 1 0.999169
1 1 1 1
0.999889 1 1 0.999889
0.999519 1 1 0.999519
0.999917 1 1 0.999917
1 1 1 1
1 1 1 1
1 1 1 1
1 1 1 1
1 1 1 1
0.999318 1 1 0.999318
0.999528 1 1 0.999528
0.999879 1 1 0.999879
0.99956 1 1 0.99956
1 1 1 1
0.999905 1 1 0.999905
0.99959 1 1 0.99959
1 1 1 1
1 1 1 1
0.999931 1 1 0.999931
1 1 1 1
1 1 1 1
1 1 1 1
0.980777 0.982349 0.999507 0.998893
0.988277 0.991389 0.997567 0.999293
0.981082 0.983881 0.998252 0.998902
0.99933 1 1 0.99933
0.999215 1 1 0.999215
0.999158 1 1 0.999158
0.999216 1 1 0.999216
0.999147 1 1 0.999147
0.999335 1 1 0.999335
0.999225 1 1 0.999225
0.999244 1 1 0.999244
0.999162 1 1 0.999162
0.999192 1 1 0.999192
0.977676 0.981752 1.00046 0.995388
0.983238 0.983056 1.00306 0.997138
0.985854 0.986683 1.00088 0.998285
0.925467 0.969035 0.960776 0.994029
0.931914 0.952191 0.986226 0.992374
0.955487 0.966499 0.994544 0.994029
0.977392 0.973902 1.01398 0.989746
0.95934 0.970399 0.99403 0.994542
0.983433 0.977456 1.01661 0.989674
0.930255 0.960411 0.976706 0.991701
0.911182 0.96039 0.955984 0.992447
0.97689 0.97665 1.0049 0.995371
0.973127 0.972913 1.01033 0.989995
0.903932 0.945014 0.96559 0.990614
0.875572 0.93187 0.947944 0.991183
0.999382 1 1 0.999382
0.999151 1 1 0.999151
0.999101 1 1 0.999101
0.993797 0.982191 1.01282 0.999013
0.994658 0.993985 1.00093 0.999748
0.999085 1 1 0.999085
1.00116 1 1.00206 0.999105
0.999527 1 1.00034 0.999182
1.00318 0.997508 1.00634 0.99935
1.0015 0.98045 1.02207 0.99941
1.00413 1 1.00475 0.999375
1.00269 0.988499 1.01521 0.999167
0.978637 0.981984 0.999451 0.997139
0.982068 0.983526 0.999292 0.999225
0.990047 0.991572 0.998834 0.999628
1.01688 0.986158 1.03131 0.999854
0.964097 0.975551 0.992339 0.995888
0.980475 0.983575 0.997926 0.99892
0.975694 0.972234 1.0156 0.988148
0.909306 0.946443 0.969736 0.990745
0.9845 0.987509 1.00163 0.995335
0.849513 0.911507 0.941511 0.989885
0.99877 0.983273 1.01615 0.999619
0.979677 0.983144 0.999485 0.996988
0.907957 0.933172 0.980546 0.992283
0.952614 0.970465 0.985436 0.996113
0.884307 0.927376 0.962691 0.990513
0.962093 0.963967 1.00902 0.98913
0.979623 0.984494 0.996002 0.999045
0.933675 0.945196 0.993943 0.99383
0.882702 0.919803 0.968742 0.990629
0.972192 0.971976 1.01056 0.989769
0.964417 0.972926 0.994961 0.996274
1.01762 0.995765 1.02244 0.999515
1.01518 0.999747 1.01607 0.999374
0.993237 1 0.994269 0.998962
1.01536 0.999495 1.01675 0.99914
1.01016 1.00024 1.01139 0.998553
1.00244 1.00152 1.00272 0.998213
1.01158 1 1.01339 0.998222
1.00542 1.0003 1.00717 0.997959
0.999539 1.00147 1.00003 0.998042
1.00344 1 1.0055 0.997944
1.00317 1.00266 1.00265 0.997859
1.0039 1.00585 1 0.998067
1.00405 1.00589 1 0.998165
1.00013 1.00209 1.00002 0.998023
1.00064 1.00268 1 0.99797
0.998411 1.00002 1 0.99839
0.99932 1.00014 1.00107 0.998112
1.00093 1.00061 1.00244 0.997885
0.998841 1 1 0.998841
0.998767 1 1.00002 0.998743
0.998903 1 1.00032 0.998585
0.999121 1 1 0.999121
0.999813 1 1.00091 0.998905
0.999932 1 1.0011 0.998838
0.999681 1 1 0.999681
0.999308 1 1.00004 0.999271
0.999586 1 1.00052 0.999065
1 1 1 1
0.999814 1 1 0.999814
0.999417 1 1 0.999417
1 1 1 1
1 1 1 1
0.999884 1 1 0.999884
1 1 1 1
1 1 1 1
1 1 1 1
0.999252 1 1 0.999252
0.999486 1 1 0.999486
0.999308 1 1 0.999308
0.999861 1 1 0.999861
0.999528 1 1 0.999528
1 1 1 1
0.999881 1 1 0.999881
0.99956 1 1 0.99956
1 1 1 1
1 1 1 1
0.999909 1 1 0.999909
1 1 1 1
1 1 1 1
1 1 1 1
0.981059 0.984214 0.999458 0.997336
0.979191 0.981515 0.998724 0.998907
0.986734 0.990845 0.996465 0.999383
0.999149 1 1 0.999149
0.999338 1 1 0.999338
0.999202 1 1 0.999202
0.999229 1 1 0.999229
0.999171 1 1 0.999171
0.999142 1 1 0.999142
0.999082 1 1 0.999082
0.999128 1 1 0.999128
0.999245 1 1 0.999245
0.999157 1 1 0.999157
0.999187 1 1 0.999187
0.99923 1 1 0.99923
0.908409 0.935828 0.978649 0.991878
0.979576 0.983043 1.00111 0.995365
0.985556 0.984482 1.00395 0.997153
0.906517 0.958269 0.953445 0.992186
0.937101 0.965977 0.978711 0.991209
0.97134 0.969422 1.01278 0.989338
0.961379 0.969458 0.996122 0.995526
0.97721 0.976164 1.00431 0.996776
0.863203 0.922095 0.9451 0.990512
0.976105 0.971575 1.01585 0.988984
0.907941 0.949437 0.96436 0.991635
0.972248 0.977725 0.997343 0.997047
0.967357 0.965194 1.01189 0.990463
0.880151 0.925162 0.959659 0.991339
1.00005 1 1.00041 0.999643
0.999384 1 1 0.999384
0.999154 1 1 0.999154
1.00242 0.982754 1.0206 0.999428
1.00444 0.99918 1.00593 0.999342
0.99961 1 1.00042 0.99919
1.00429 1 1.00492 0.999377
1.0014 0.98869 1.01366 0.999205
1.00461 0.995869 1.00939 0.999397
0.92954 0.943771 0.991821 0.993043
0.978626 0.981369 0.999599 0.997605
0.982073 0.983373 0.999345 0.999331
0.997251 0.981871 1.01599 0.999683
0.952263 0.972506 0.982364 0.996763
0.980302 0.983241 1.00001 0.996997
0.969251 0.966714 1.01192 0.990814
0.8918 0.936195 0.960922 0.991319
0.900152 0.931544 0.974039 0.992056
0.979037 0.985236 0.994607 0.999096
0.925048 0.943484 0.986916 0.993458
0.895991 0.924303 0.977591 0.991589
0.964028 0.970287 0.998856 0.994687
0.962218 0.968924 1.0029 0.990208
0.968977 0.991052 0.97836 0.999352
0.905185 0.933448 0.977769 0.99177
0.964232 0.973624 0.999702 0.990649
0.977475 0.984311 0.998572 0.994475
1.01787 0.999438 1.01909 0.999359
0.989674 1 0.990637 0.999027
0.982074 1.00173 0.981634 0.998718
1.01084 1.00037 1.01187 0.99862
1.00279 1.00173 1.00286 0.998208
1.00066 1.00283 0.999428 0.998403
1.00453 1.00045 1.00612 0.997968
0.999553 1.00106 1.00044 0.998057
1.00668 1.0083 1 0.998397
1.00348 1.00366 1.00195 0.997873
1.00376 1.00569 1 0.998071
1.00828 1.00988 1 0.998415
1.00825 1.00985 1 0.998416
1.00328 1.00514 1 0.998147
1.00415 1.00598 1 0.998184
0.999791 1.00158 1 0.998213
1.0003 1.00225 1 0.998054
1.00072 1.00275 1 0.997982
0.998674 1 1 0.998674
0.998723 1.00019 1.00014 0.998399
0.999587 1.00004 1.00148 0.998072
0.999023 1 1 0.999023
0.998837 1 1 0.998837
0.998786 1 1 0.998786
0.999518 1 1 0.999518
0.999158 1 1.00003 0.999124
0.999902 1 1.00099 0.998918
0.999999 1 1 0.999999
0.999678 1 1 0.999678
0.999339 1 1.00007 0.999271
1 1 1 1
1 1 1 1
0.99981 1 1 0.99981
1 1 1 1
1 1 1 1
1 1 1 1
0.999232 1 1 0.999232
0.999254 1 1 0.999254
0.999429 1 1 0.999429
0.99984 1 1 0.99984
0.999486 1 1 0.999486
0.999298 1 1 0.999298
1 1 1 1
0.999863 1 1 0.999863
0.999527 1 1 0.999527
1 1 1 1
1 1 1 1
0.999884 1 1 0.999884
1 1 1 1
1 1 1 1
1 1 1 1
0.927899 0.940773 0.993161 0.993107
0.979953 0.983107 0.99944 0.99735
0.977975 0.981083 0.997909 0.998921
0.999138 1 1 0.999138
0.999098 1 1 0.999098
0.999078 1 1 0.999078
0.999241 1 1 0.999241
0.999184 1 1 0.999184
0.999137 1 1 0.999137
0.999126 1 1 0.999126
0.99908 1 1 0.99908
0.99901 1 1 0.99901
0.999209 1 1 0.999209
0.999181 1 1 0.999181
0.999229 1 1 0.999229
0.893724 0.923075 0.976515 0.991488
0.905406 0.931902 0.979762 0.991637
0.981923 0.98474 1.0018 0.995346
0.850175 0.910984 0.942829 0.98984
0.906785 0.946525 0.967123 0.990582
0.980924 0.976752 1.01322 0.991164
0.979437 0.974145 1.01028 0.995197
0.968684 0.974264 0.998676 0.995591
0.880924 0.921053 0.965723 0.990378
0.962158 0.963056 1.00857 0.990578
0.969708 0.975185 0.998376 0.996001
0.964332 0.971527 1.00256 0.990056
1.00738 1 1.00819 0.9992
0.999877 1 1.00027 0.99961
0.999386 1 1 0.999386
0.9971 0.985953 1.01207 0.999242
1.00454 1 1.00517 0.999379
1.00547 0.997014 1.00918 0.999307
0.999215 1.00067 0.999839 0.998707
0.901899 0.938527 0.969159 0.991554
0.933585 0.944458 0.994881 0.993573
0.978759 0.981224 0.999418 0.998069
0.977559 0.985888 0.992383 0.999163
0.963415 0.969806 0.997769 0.995631
0.925519 0.94434 0.986483 0.993499
0.964569 0.968229 1.00644 0.989845
0.897825 0.929682 0.974717 0.990783
0.972364 0.991593 0.981516 0.999074
0.907092 0.936102 0.977615 0.991197
0.967 0.975072 1.00173 0.990012
0.980277 0.982313 1.00213 0.995811
0.986142 0.998154 0.988816 0.99914
0.959619 0.976313 0.993128 0.989702
0.98557 0.991088 0.997816 0.99661
0.986051 1 0.986946 0.999093
0.982747 1.00192 0.982138 0.998699
0.983056 1.00449 0.979996 0.998636
1.00291 1.00206 1.00266 0.998202
1.00027 1.00323 0.998648 0.998398
1.00705 1.01111 0.997227 0.998762
0.999393 1.00061 1.00071 0.998072
1.00668 1.0083 1 0.998393
1.01313 1.01445 1 0.998702
1.00355 1.00548 1 0.998076
1.00773 1.00933 1 0.998415
1.01019 1.01158 1 0.998629
1.00836 1.00981 1 0.998555
1.0081 1.00967 1 0.998445
1.00622 1.00787 1 0.998361
1.00241 1.00418 1 0.998236
1.00364 1.0055 1 0.99815
1.00427 1.00608 1 0.998203
0.998952 1.00052 1 0.998437
1.00002 1.00178 1 0.998244
1.00049 1.00241 1 0.998085
0.998908 1 1 0.998908
0.998668 1 1 0.998668
0.998882 1.0003 1.00017 0.998408
0.999394 1 1 0.999394
0.999023 1 1 0.999023
0.998833 1 1 0.998833
0.999984 1 1 0.999984
0.999518 1 1 0.999518
0.999201 1 1.00007 0.999127
1 1 1 1
0.999996 1 1 0.999996
0.999675 1 1 0.999675
1 1 1 1
1 1 1 1
1 1 1 1
0.999166 1 1 0.999166
0.99922 1 1 0.99922
0.999367 1 1 0.999367
0.999256 1 1 0.999256
0.999429 1 1 0.999429
0.999798 1 1 0.999798
1 1 1 1
0.999841 1 1 0.999841
0.999486 1 1 0.999486
1 1 1 1
1 1 1 1
0.999865 1 1 0.999865
1 1 1 1
1 1 1 1
1 1 1 1
0.912349 0.935672 0.98374 0.99119
0.927664 0.94258 0.991311 0.992803
0.978172 0.981294 0.999452 0.997364
0.999126 1 1 0.999126
0.999058 1 1 0.999058
0.999118 1 1 0.999118
0.999 1 1 0.999
0.999025 1 1 0.999025
0.999124 1 1 0.999124
0.999078 1 1 0.999078
0.999021 1 1 0.999021
0.998943 1 1 0.998943
0.999059 1 1 0.999059
0.99898 1.00014 1.00026 0.998579
0.999297 1 1.00006 0.999237
0.999228 1 1 0.999228
0.963564 0.978362 0.99544 0.989386
0.89772 0.923866 0.980329 0.991196
0.907081 0.934657 0.978813 0.991503
0.880981 0.920875 0.965211 0.99116
0.96884 0.965553 1.0148 0.988775
0.970818 0.972753 1.00086 0.997157
0.972488 0.977488 0.998002 0.996876
0.965964 0.973198 1.00195 0.990638
0.983819 0.99475 0.993097 0.995885
1.00366 1.00132 1.0039 0.998442
1.00584 1 1.00666 0.999182
0.999577 1 1 0.999577
1.00597 0.998718 1.00804 0.999227
0.999338 1.00101 0.999681 0.998645
0.949397 0.973611 0.984401 0.990582
0.908227 0.938358 0.976567 0.991115
0.938435 0.945236 0.998688 0.99411
0.975827 0.992479 0.984416 0.998787
0.976318 0.978072 1.0037 0.994531
0.907675 0.934671 0.979993 0.990944
0.96948 0.974986 1.0038 0.990585
0.984713 0.999086 0.986473 0.999129
0.960816 0.976851 0.992686 0.990833
0.987022 0.992786 0.998977 0.995212
1.00086 1.00562 0.996597 0.998664
0.991848 0.996936 0.997208 0.997682
0.983235 1.00224 0.982333 0.998681
0.985274 1.00402 0.982712 0.998592
1.00316 1.01871 0.986041 0.998679
1.00008 1.00358 0.998123 0.998393
1.00579 1.00988 0.997193 0.998754
1.01326 1.01812 0.996377 0.998851
1.00664 1.00827 1 0.998389
1.01329 1.01474 0.99989 0.998688
1.01307 1.01437 0.999971 0.998741
1.00725 1.00885 1 0.998415
1.01028 1.01168 1 0.998617
1.00875 1.01015 1 0.998613
1.00865 1.01008 1 0.998586
1.00699 1.00854 1 0.998455
1.008 1.00955 1 0.998474
1.00611 1.00776 1 0.998356
1.00329 1.00497 1 0.998325
0.999534 1.00118 1 0.998353
1.00227 1.00404 1 0.998229
1.00392 1.00577 1 0.998153
0.998746 1 1 0.998746
0.998964 1.00051 1 0.998458
1.00029 1.00202 1 0.998275
0.999296 1 1 0.999296
0.998904 1 1 0.998904
0.998663 1 1 0.998663
0.999941 1 1 0.999941
0.999395 1 1 0.999395
0.999024 1 1 0.999024
1 1 1 1
0.999973 1 1 0.999973
0.999517 1 1 0.999517
1 1 1 1
0.999993 1 1 0.999993
1 1 1 1
0.99903 1 1 0.99903
0.999166 1 1 0.999166
0.999266 1 1 0.999266
0.999207 1 1 0.999207
0.999349 1 1 0.999349
0.999713 1 1 0.999713
0.999429 1 1 0.999429
0.999799 1 1 0.999799
1 1 1 1
1 1 1 1
1 1 1 1
0.999843 1 1 0.999843
1 1 1 1
1 1 1 1
1 1 1 1
0.962878 0.977841 0.993818 0.990823
0.906155 0.937922 0.974254 0.991662
0.934569 0.946329 0.994678 0.992857
0.999039 1 1 0.999039
0.999137 1 1 0.999137
0.999034 1 1 0.999034
0.999007 1 1 0.999007
0.998839 1 1 0.998839
0.998993 1 1 0.998993
0.999032 1 1 0.999032
0.998893 1 1 0.998893
0.999099 1 1.00007 0.99903
0.998803 1 1 0.998803
1.00074 1.00209 1 0.998654
0.999207 1.00101 1.00009 0.998109
0.999325 1.00063 1.00006 0.998637
0.999402 1 1.00014 0.999264
0.981749 0.992167 0.993414 0.996059
0.963689 0.977094 0.995973 0.990269
0.89235 0.924877 0.973823 0.990765
0.973763 0.975826 1.00813 0.989843
0.970644 0.97885 0.994002 0.9976
0.988339 0.995997 0.994867 0.99743
0.995332 1.00444 0.992312 0.998612
1.00105 1.00067 1.00184 0.998535
1.00479 1 1.00563 0.999164
0.997625 1.00112 0.997932 0.998574
0.978477 0.98614 0.996299 0.995916
0.956234 0.973771 0.99062 0.991289
0.903734 0.936051 0.97336 0.991899
0.985135 1.00055 0.985462 0.999115
0.992706 0.993591 1.00285 0.996275
0.961519 0.977423 0.991663 0.991999
0.994834 1.00445 0.99174 0.998674
0.989901 0.996373 0.996353 0.997142
1.00953 1.02067 0.990634 0.998439
1.00777 1.01455 0.994926 0.998382
0.987418 1.00344 0.985463 0.998548
1.00468 1.01871 0.987539 0.998672
1.01085 1.02157 0.990821 0.998676
1.00464 1.00891 0.997011 0.998746
1.01329 1.01773 0.996799 0.99884
1.01218 1.01567 0.9979 0.99866
1.01353 1.0151 0.999777 0.998674
1.01261 1.01403 0.999874 0.998728
1.01013 1.01164 0.999972 0.998536
1.01029 1.01171 1 0.998604
1.00836 1.00976 1 0.998618
1.00793 1.00952 1 0.998428
1.00893 1.01032 1 0.998617
1.00671 1.00825 1 0.998476
1.00361 1.00527 1 0.998351
1.00603 1.00769 1 0.998351
1.0032 1.00489 1 0.998319
0.999913 1.00153 1 0.99839
0.998593 1 1 0.998593
0.999548 1.00118 1 0.998372
1.00214 1.00393 1 0.998223
0.99917 1 1 0.99917
0.998745 1 1 0.998745
0.998981 1.0005 1 0.998478
0.999877 1 1 0.999877
0.999294 1 1 0.999294
0.9989 1 1 0.9989
1 1 1 1
0.999928 1 1 0.999928
0.999396 1 1 0.999396
1 1 1 1
0.999962 1 1 0.999962
1 1 1 1
0.998883 1 1 0.998883
0.999042 1 1 0.999042
0.999162 1 1 0.999162
0.999167 1 1 0.999167
0.999253 1 1 0.999253
0.999597 1 1 0.999597
0.999332 1 1 0.999332
0.999715 1 1 0.999715
0.999999 1 1 0.999999
0.999801 1 1 0.999801
1 1 1 1
1 1 1 1
1 1 1 1
1 1 1 1
1 1 1 1
0.975348 0.986272 0.992669 0.996228
0.957198 0.975711 0.990503 0.990431
0.902488 0.935812 0.973208 0.99094
0.999221 1.00058 1.00001 0.998633
0.999043 1 1 0.999043
0.999013 1 1 0.999013
0.998983 1 1 0.998983
0.998906 1 1.00008 0.998829
0.998973 1 1 0.998973
0.998843 1 1 0.998843
0.999122 1 1.00012 0.999001
0.998843 1 1 0.998843
1.00005 1.00139 1 0.998654
1.00105 1.00285 1 0.998201
1.00368 1.0058 0.999965 0.997927
1.00001 1.00181 1.00013 0.998077
0.999944 1.00125 1 0.998696
1.00004 1.00623 0.994859 0.998992
0.982587 0.993531 0.993537 0.995418
0.966764 0.97802 0.997143 0.991322
0.98568 0.994073 0.99532 0.99622
1 1.00636 0.994891 0.998783
1.00045 1.0002 1.00162 0.998629
1.00319 1.00668 0.997988 0.99854
0.977896 0.984769 0.996042 0.996966
0.953498 0.97466 0.987529 0.990641
0.988146 1.00273 0.986756 0.99868
0.989569 0.996214 0.996797 0.996521
1.00887 1.0212 0.989466 0.998443
1.00732 1.01267 0.996231 0.998478
1.01615 1.02514 0.992803 0.998415
1.01434 1.01799 0.998048 0.99836
1.00629 1.0186 0.989233 0.998665
1.01249 1.02256 0.991463 0.998685
1.00762 1.0145 0.994682 0.998527
1.01321 1.01714 0.997302 0.998829
1.01341 1.01651 0.998292 0.998657
1.01034 1.01243 0.999519 0.998411
1.01221 1.01372 0.999792 0.998715
1.01016 1.01163 0.999992 0.998554
1.00948 1.01119 1 0.99831
1.00802 1.00941 1 0.998623
1.00752 1.00911 1 0.998429
1.00543 1.00714 1 0.998295
1.00644 1.00796 1 0.998497
1.00373 1.00538 1 0.99836
0.999918 1.00157 1 0.998347
1.00309 1.00478 1 0.998313
0.999894 1.00152 1 0.998374
0.998557 1 1 0.998557
0.99905 1 1 0.99905
0.998615 1 1 0.998615
0.999567 1.00118 1 0.998391
0.999798 1 1 0.999798
0.999168 1 1 0.999168
0.998744 1 1 0.998744
1 1 1 1
0.999866 1 1 0.999866
0.999293 1 1 0.999293
1 1 1 1
0.999916 1 1 0.999916
1 1 1 1
0.998676 1 1 0.998676
0.998886 1 1 0.998886
0.999044 1 1 0.999044
0.999053 1 1 0.999053
0.999168 1 1 0.999168
0.999484 1 1 0.999484
0.999241 1 1 0.999241
0.999597 1 1 0.999597
0.999987 1 1 0.999987
0.999716 1 1 0.999716
0.999999 1 1 0.999999
1 1 1 1
1 1 1 1
1 1 1 1
1 1 1 1
1.00529 1.0102 0.996126 0.999005
0.975101 0.987089 0.99285 0.994969
0.961378 0.974508 0.995494 0.990992
0.999873 1.00116 1 0.998718
1.00159 1.00323 1 0.998358
0.999039 1.00028 1.0001 0.998663
0.998972 1 1 0.998972
0.999018 1 1.0002 0.998819
0.999075 1.00014 1 0.998933
1.00192 1.00359 1 0.998337
0.998883 1 1 0.998883
0.99917 1.00052 1 0.998653
1.00116 1.00292 1 0.998241
1.00551 1.00765 1 0.997874
1.01143 1.0142 0.999024 0.998245
1.00285 1.00501 0.99993 0.997922
1.00058 1.00254 1 0.998046
1.00324 1.00897 0.99526 0.999058
0.981218 0.992621 0.993839 0.99464
1.00215 1.00773 0.995505 0.998955
1.01363 1.01609 0.998778 0.9988
1.00219 1.00539 0.998209 0.9986
0.975304 0.984988 0.994558 0.995586
1.00811 1.02188 0.988055 0.99845
1.00624 1.01079 0.996915 0.998575
1.01478 1.02521 0.991356 0.998456
1.01648 1.01965 0.998514 0.998376
1.01097 1.01758 0.995092 0.998404
1.02052 1.02299 0.999077 0.998502
1.01381 1.02369 0.991644 0.998693
1.00762 1.01428 0.994891 0.998531
1.0122 1.01606 0.997879 0.998322
1.01459 1.01731 0.99867 0.998655
1.01046 1.01242 0.999659 0.998412
1.01157 1.01336 1 0.998227
1.01014 1.01158 1 0.998571
1.00919 1.0109 1 0.998309
1.00833 1.01016 1 0.998192
1.00711 1.00869 1 0.998429
1.00551 1.00723 1 0.998295
1.0006 1.00233 1 0.998278
1.00384 1.00548 1 0.998368
1.00007 1.00173 1 0.998348
0.998502 1 1 0.998502
0.999869 1.00151 1 0.998359
0.998548 1 1 0.998548
0.998971 1 1 0.998971
0.999728 1 1 0.999728
0.99905 1 1 0.99905
0.998636 1 1 0.998636
1 1 1 1
0.999787 1 1 0.999787
0.999167 1 1 0.999167
1 1 1 1
0.999855 1 1 0.999855
1 1 1 1
0.998798 1.00037 1 0.998432
0.998652 1 1 0.998652
0.998862 1 1 0.998862
0.998889 1 1 0.998889
0.999047 1 1 0.999047
0.999376 1 1 0.999376
0.999175 1 1 0.999175
0.999483 1 1 0.999483
0.999953 1 1 0.999953
0.999597 1 1 0.999597
0.999991 1 1 0.999991
1 1 1 1
1 1 1 1
1 1 1 1
1 1 1 1
1.01216 1.01578 0.997816 0.998616
1.00362 1.00934 0.9955 0.99883
0.973979 0.986135 0.991893 0.995745
1.00451 1.00619 1 0.998332
0.999469 1.0006 1 0.998871
1.0074 1.00924 1 0.998182
1.00144 1.0031 1 0.998343
0.998838 1 1.00014 0.998693
1.01091 1.01298 1 0.997963
0.999178 1.00028 1 0.998893
1.002 1.00371 1 0.99829
1.01456 1.01657 1 0.998026
1.00123 1.00296 1 0.998281
1.00609 1.00826 1 0.997851
1.01004 1.01257 0.999249 0.99825
1.00151 1.0036 1 0.997916
1.00584 1.01099 0.995777 0.999128
1.02064 1.02222 0.999862 0.998593
1.01345 1.01598 0.998717 0.998799
1.00146 1.00409 0.998718 0.998658
1.01366 1.02538 0.990053 0.998498
1.01817 1.02098 0.998848 0.998392
1.01155 1.01818 0.995071 0.998415
1.02115 1.02394 0.998758 0.99851
1.02014 1.02285 0.998951 0.998404
1.00765 1.01399 0.995208 0.998536
1.01237 1.01573 0.998357 0.998328
1.01469 1.01682 0.999696 0.998207
1.01059 1.01243 0.999774 0.998413
1.01102 1.01283 1 0.998215
1.01106 1.01298 1 0.998104
1.0089 1.01062 1 0.998307
1.00816 1.00999 1 0.998191
1.00228 1.0041 1 0.998183
1.0056 1.00731 1 0.998295
1.00092 1.00264 1 0.998279
0.998465 1.00005 1 0.998416
1.00023 1.00188 1 0.99835
0.998504 1 1 0.998504
0.998901 1 1 0.998901
0.998539 1 1 0.998539
0.99897 1 1 0.99897
0.999722 1 1 0.999722
0.999942 1 1 0.999942
0.999735 1 1 0.999735
0.999049 1 1 0.999049
1 1 1 1
0.999777 1 1 0.999777
1 1 1 1
1.00921 1.011 1 0.998226
1.0008 1.00247 1 0.998332
0.998589 1.00018 1 0.99841
0.998695 1 1 0.998695
0.998628 1 1 0.998628
0.998866 1 1 0.998866
0.999259 1 1 0.999259
0.99905 1 1 0.99905
0.999377 1 1 0.999377
0.999897 1 1 0.999897
0.999483 1 1 0.999483
0.999964 1 1 0.999964
1 1 1 1
0.999996 1 1 0.999996
1 1 1 1
1 1 1 1
1.01984 1.02153 0.999976 0.998369
1.01599 1.01926 0.998096 0.998692
1.0034 1.00962 0.995183 0.998655
1.01263 1.01462 1 0.998041
1.00366 1.00526 1 0.998411
0.999021 1 1 0.999021
1.00784 1.00965 1 0.998206
1.00129 1.00296 1 0.998328
1.01795 1.01999 1 0.997999
1.01036 1.01246 1 0.99793
1.0022 1.00397 1 0.998242
1.01472 1.01673 1 0.998019
1.00761 1.0098 1 0.997827
1.01081 1.01327 0.999308 0.998257
1.02253 1.02424 0.999844 0.998488
1.02149 1.02302 0.999917 0.998592
1.01393 1.01618 0.998989 0.998798
1.01237 1.01902 0.995044 0.998426
1.02205 1.02504 0.998566 0.998518
1.02012 1.02337 0.998394 0.99842
1.01957 1.02136 1 0.998252
1.0126 1.01543 0.998876 0.998334
1.0145 1.01647 0.999862 0.998202
1.01375 1.0157 1 0.998084
1.01048 1.0123 1 0.998203
1.01107 1.01299 1 0.998104
1.00483 1.00674 1 0.998099
1.00799 1.00982 1 0.998189
1.00258 1.00441 1 0.998182
0.998638 1.00032 1 0.998321
1.00123 1.00296 1 0.998279
0.998512 1.0001 1 0.998416
0.998814 1 1 0.998814
0.998505 1 1 0.998505
0.998899 1 1 0.998899
0.99971 1 1 0.99971
0.998969 1 1 0.998969
0.999717 1 1 0.999717
0.999941 1 1 0.999941
0.999971 1 1 0.999971
0.999742 1 1 0.999742
1 1 1 1
1.01198 1.01395 1 0.998058
1.00175 1.00343 1 0.998334
1.00875 1.01045 1 0.998314
0.998599 1.00004 1 0.998556
1.0011 1.00278 1 0.998329
0.998389 1 1 0.998389
0.998695 1 1 0.998695
0.999125 1 1 0.999125
0.998871 1 1 0.998871
0.999261 1 1 0.999261
0.999828 1 1 0.999828
0.999379 1 1 0.999379
0.999912 1 1 0.999912
1 1 1 1
0.999976 1 1 0.999976
1 1 1 1
1 1 1 1
1.02028 1.02207 1 0.998246
1.0189 1.02062 0.999945 0.998367
1.01781 1.02087 0.99823 0.998766
1.01702 1.01906 1 0.997991
1.01216 1.01414 1 0.998045
1.0028 1.00431 1 0.998491
1.00826 1.01004 1 0.998231
1.01762 1.01967 1 0.997989
1.00958 1.01171 1 0.997898
1.0129 1.01492 1 0.998012
1.02089 1.02261 1 0.998315
1.02217 1.02391 0.999853 0.998454
1.02217 1.02373 0.999893 0.998591
1.01874 1.0206 1 0.998184
1.02 1.02386 0.997783 0.998435
1.01944 1.02132 0.999908 0.998251
1.01595 1.01785 1 0.99813
1.01431 1.01615 1 0.998196
1.01391 1.01586 1 0.998086
1.00762 1.00959 1 0.99805
1.01108 1.013 1 0.998104
1.00494 1.00685 1 0.9981
0.999312 1.00107 1 0.99824
1.00287 1.0047 1 0.998182
0.998823 1.0005 1 0.998321
0.998725 1 1 0.998725
0.998558 1.00014 1 0.998417
0.998812 1 1 0.998812
0.999692 1 1 0.999692
0.998897 1 1 0.998897
0.999705 1 1 0.999705
0.999942 1 1 0.999942
0.999713 1 1 0.999713
0.999942 1 1 0.999942
1 1 1 1
1.01288 1.01495 1 0.997961
1.0044 1.00627 1 0.998142
1.01222 1.01416 1 0.998087
0.998621 1.00012 1 0.998504
1.00171 1.00339 1 0.99833
1.00831 1.00993 1 0.998401
0.998975 1 1 0.998975
0.998617 1.00007 1 0.998552
1.00143 1.00311 1 0.998326
0.998695 1 1 0.998695
0.999126 1 1 0.999126
0.999752 1 1 0.999752
0.999263 1 1 0.999263
0.999839 1 1 0.999839
1 1 1 1
0.999926 1 1 0.999926
1 1 1 1
1 1 1 1
1.01906 1.02095 1 0.998148
1.02052 1.02233 1 0.998229
1.01929 1.02102 0.999948 0.998365
1.01661 1.01865 1 0.997994
1.01171 1.01369 1 0.998049
1.01765 1.01971 1 0.997979
1.01818 1.02003 1 0.998186
1.02084 1.02257 1 0.998309
1.0216 1.02336 0.99986 0.998419
1.01897 1.02081 1 0.998194
1.01577 1.0177 1 0.9981
1.01925 1.02121 0.999837 0.99825
1.01586 1.01777 1 0.998116
1.0096 1.01157 1 0.998057
1.01405 1.01599 1 0.998088
1.00746 1.00943 1 0.998053
1.00052 1.00235 1 0.99817
1.00509 1.00701 1 0.998101
0.999677 1.00144 1 0.998239
0.998656 1 1 0.998656
0.999015 1.0007 1 0.998321
0.998724 1 1 0.998724
0.999661 1 1 0.999661
0.99881 1 1 0.99881
0.999684 1 1 0.999684
0.999934 1 1 0.999934
0.999701 1 1 0.999701
0.999945 1 1 0.999945
0.999942 1 1 0.999942
1.01487 1.01682 1 0.998079
1.00642 1.00843 1 0.998008
1.01315 1.01522 1 0.997962
0.999284 1.00094 1 0.998344
1.00418 1.00604 1 0.998152
1.0124 1.01431 1 0.998116
0.998853 1 1 0.998853
0.998568 1.0001 1 0.998466
1.00166 1.00334 1 0.998327
0.999685 1 1 0.999685
0.998977 1 1 0.998977
0.998631 1.00008 1 0.998549
0.999128 1 1 0.999128
0.999761 1 1 0.999761
1 1 1 1
0.999851 1 1 0.999851
1 1 1 1
1 1 1 1
1.01674 1.01866 1 0.998119
1.01878 1.02068 1 0.998146
1.02056 1.02238 1 0.998212
1.01619 1.01823 1 0.997996
1.01624 1.01821 1 0.998072
1.01867 1.02051 1 0.998193
1.02083 1.02257 1 0.998303
1.01919 1.02103 1 0.998204
1.01569 1.01762 1 0.998105
1.00959 1.01155 1 0.998061
1.01581 1.01774 1 0.998102
1.00937 1.01134 1 0.998056
1.00181 1.0037 1 0.99812
1.00728 1.00925 1 0.998056
1.00094 1.00277 1 0.998171
0.998592 1 1 0.998592
1.00002 1.00179 1 0.998239
0.998655 1 1 0.998655
0.999589 1 1 0.999589
0.998723 1 1 0.998723
0.999638 1 1 0.999638
1 1 1 1
0.999678 1 1 0.999678
0.99994 1 1 0.99994
0.999946 1 1 0.999946
1.01438 1.0163 1 0.998109
1.00756 1.00953 1 0.998045
1.01465 1.0166 1 0.998079
1.00064 1.00247 1 0.998173
1.0064 1.00839 1 0.998027
1.01347 1.01554 1 0.997963
0.998684 1 1 0.998684
0.999283 1.00094 1 0.998342
1.00399 1.00584 1 0.998163
0.999641 1 1 0.999641
0.99882 1 1 0.99882
0.99852 1.00009 1 0.998427
1 1 1 1
0.999694 1 1 0.999694
0.998979 1 1 0.998979
0.999771 1 1 0.999771
1 1 1 1
1 1 1 1
1.01575 1.01771 1 0.998077
1.01719 1.0191 1 0.998128
1.0185 1.02039 1 0.998144
1.0103 1.01231 1 0.998015
1.01559 1.01755 1 0.998073
1.01914 1.02098 1 0.9982
1.0156 1.01753 1 0.998111
1.00964 1.01161 1 0.998062
1.00226 1.00412 1 0.998147
1.00913 1.01109 1 0.998055
1.00204 1.00389 1 0.998151
0.998469 1 1 0.998469
1.00137 1.00321 1 0.998173
0.998592 1 1 0.998592
0.999543 1 1 0.999543
0.998654 1 1 0.998654
0.999586 1 1 0.999586
1 1 1 1
0.999611 1 1 0.999611
0.999964 1 1 0.999964
0.999944 1 1 0.999944
1.01274 1.01467 1 0.998096
1.00794 1.00988 1 0.998082
1.01432 1.01624 1 0.99811
1.00125 1.00307 1 0.998179
1.00786 1.00984 1 0.998044
1.01444 1.01639 1 0.998079
0.998585 1 1 0.998585
1.00056 1.00235 1 0.998213
1.00636 1.00833 1 0.998047
0.999612 1 1 0.999612
0.998671 1 1 0.998671
0.999279 1.00094 1 0.99834
1 1 1 1
0.999649 1 1 0.999649
0.998786 1 1 0.998786
1 1 1 1
0.999705 1 1 0.999705
1 1 1 1
1.01042 1.01241 1 0.998043
1.0153 1.01726 1 0.998075
1.01768 1.01958 1 0.998136
1.00181 1.0037 1 0.998121
1.01033 1.01233 1 0.998024
1.015 1.01695 1 0.998074
1.00972 1.01168 1 0.998062
1.00228 1.00414 1 0.998147
0.998419 1 1 0.998419
1.00226 1.00408 1 0.998182
0.9985 1 1 0.9985
0.999479 1 1 0.999479
0.998592 1 1 0.998592
0.99954 1 1 0.99954
1 1 1 1
0.999584 1 1 0.999584
1 1 1 1
0.999935 1 1 0.999935
1.008 1.00992 1 0.998097
1.01289 1.01482 1 0.998098
1.00087 1.0027 1 0.998181
1.00782 1.00976 1 0.998082
1.01425 1.01617 1 0.99811
0.998595 1 1 0.998595
1.00118 1.00301 1 0.998176
1.00815 1.01013 1 0.998043
0.999581 1 1 0.999581
0.998609 1 1 0.998609
1.00048 1.00223 1 0.998254
1 1 1 1
0.999617 1 1 0.999617
0.998658 1 1 0.998658
1 1 1 1
0.999657 1 1 0.999657
1 1 1 1
1.0015 1.00335 1 0.998153
1.01032 1.0123 1 0.998043
1.01477 1.01673 1 0.998072
0.998406 1 1 0.998406
1.00183 1.00372 1 0.998121
1.0103 1.0123 1 0.998033
1.0023 1.00416 1 0.998147
0.998424 1 1 0.998424
0.999425 1 1 0.999425
0.998531 1 1 0.998531
0.999475 1 1 0.999475
1 1 1 1
0.999536 1 1 0.999536
1 1 1 1
1 1 1 1
1.00067 1.00251 1 0.998169
1.00772 1.00965 1 0.998096
1.01304 1.01497 1 0.998101
0.998568 1 1 0.998568
1.00106 1.00289 1 0.998179
1.00768 1.00962 1 0.998081
0.999543 1 1 0.999543
0.998594 1 1 0.998594
1.00114 1.00297 1 0.998173
1 1 1 1
0.999584 1 1 0.999584
0.998632 1 1 0.998632
1 1 1 1
0.999623 1 1 0.999623
1 1 1 1
0.998478 1 1 0.998478
1.00148 1.00337 1 0.998122
1.01026 1.01224 1 0.998042
0.999411 1 1 0.999411
0.998407 1 1 0.998407
1.00185 1.00374 1 0.998121
0.998428 1 1 0.998428
0.999424 1 1 0.999424
1 1 1 1
0.999472 1 1 0.999472
1 1 1 1
1 1 1 1
0.998526 1 1 0.998526
1.00072 1.00257 1 0.998158
1.00747 1.00939 1 0.998094
0.999566 1 1 0.999566
0.998566 1 1 0.998566
1.00126 1.00309 1 0.998177
1 1 1 1
0.999545 1 1 0.999545
0.998592 1 1 0.998592
1 1 1 1
0.999587 1 1 0.999587
1 1 1 1
0.999411 1 1 0.999411
0.998454 1 1 0.998454
1.00147 1.00339 1 0.99809
1 1 1 1
0.99941 1 1 0.99941
0.998407 1 1 0.998407
0.999422 1 1 0.999422
1 1 1 1
1 1 1 1
0.999519 1 1 0.999519
0.998527 1 1 0.998527
1.00076 1.00262 1 0.998148
1 1 1 1
0.999505 1 1 0.999505
0.998565 1 1 0.998565
1 1 1 1
0.999546 1 1 0.999546
1 1 1 1
0.999855 1 1 0.999855
0.999461 1 1 0.999461
0.998429 1 1 0.998429
1 1 1 1
0.99941 1 1 0.99941
1 1 1 1
0.999873 1 1 0.999873
0.999494 1 1 0.999494
0.998527 1 1 0.998527
0.999942 1 1 0.999942
0.999504 1 1 0.999504
1 1 1 1
1 1 1 1
0.999426 1 1 0.999426
1 1 1 1
0.999933 1 1 0.999933
0.999462 1 1 0.999462
1 1 1 1
1 1 1 1
1 1 1 1

VECTORS lamdaE float
0.999744 1.00019 0.995637
0.999656 1.00011 0.998048
0.99952 1.00038 0.995761
1 0.999922 0.995532
0.999805 1.00002 0.99574
0.999706 1.00026 0.995528
1.0009 1.00052 0.993012
0.999625 0.999983 0.998107
0.999617 1.00024 0.998174
0.999322 1.00053 0.998223
0.999639 0.999737 0.996242
1.00057 1.00111 0.992577
1.00002 1.00002 0.995331
0.999755 0.999954 0.995634
0.999319 1.0006 0.995858
0.999832 0.9999 0.995701
0.99949 1.00052 0.995651
0.999612 1.0001 0.995877
1.00103 1.00039 0.992955
0.999994 1 0.997842
1.00005 0.999976 0.995389
0.99993 0.999908 0.995667
1.00128 0.99995 0.992908
1.00106 1.00015 0.993104
0.999606 0.99996 0.995869
1.00065 1.00105 0.992869
1.00328 1.00038 0.98906
0.999573 0.99988 0.998183
0.999734 1.00012 0.996866
0.999484 1.0004 0.996911
0.999583 0.999548 0.998305
1.00046 1.00122 0.992592
0.999969 0.999848 0.99553
0.999737 1.00038 0.995551
1.00138 1.00016 0.993239
0.999377 0.998937 0.998742
1.00097 1.00083 0.993339
1.00026 1.00105 0.993162
1.00197 1.00218 0.989006
0.999464 0.998166 0.998998
1.00003 1.00001 0.997805
0.999881 0.999982 0.996739
1.00002 1 0.997799
0.999741 1.00002 0.995632
1.00153 1.00006 0.99183
0.999778 0.999953 0.998116
1.00158 1.00007 0.992991
0.999659 0.999845 0.995871
0.999432 1.00019 0.996
0.999259 1.00084 0.995767
1.00115 1.00023 0.99291
0.999908 1.00001 0.996707
0.999867 0.999968 0.995571
0.999438 1.00016 0.995987
0.999755 0.999912 0.995823
1.00135 0.999909 0.992843
1.00077 1.00095 0.992828
1.00116 1.00005 0.993052
1.00327 1.0004 0.989068
0.999992 1 0.997828
1.00006 1.00001 0.995337
1.00139 1.00001 0.993261
1.00133 0.999996 0.992765
1.00121 0.999959 0.993022
1.00365 0.99989 0.988829
1.00344 0.999978 0.988863
0.999606 0.999251 0.996506
0.999954 1.00142 0.993518
1.00278 1.00125 0.989065
1.00443 0.999948 0.986773
0.99987 1.00014 0.997946
0.999527 0.999332 0.998452
0.999627 1.00022 0.998023
1.00036 1.0013 0.992611
0.999985 0.999973 0.997927
0.999778 1.0003 0.997959
1.00129 1.00012 0.992132
0.999447 0.999013 0.997794
1.00078 1.00092 0.992266
1.00014 1.00109 0.993791
1.00198 1.00213 0.989003
0.999522 0.998526 0.998794
0.999612 0.999611 0.995762
1.00147 0.99993 0.992055
1.00118 1.00042 0.992124
1.00366 1.00015 0.987936
0.999906 1.00066 0.995089
1.00276 1.00124 0.988504
1.00114 1.00296 0.989783
1.00287 1.0024 0.987068
0.999465 0.997839 0.99913
0.999423 0.998101 0.999054
1.00002 0.999966 0.997868
1.00002 1 0.997817
1.00004 1 0.9978
0.999877 1 0.996729
1.00155 1.00004 0.992439
0.999884 0.999952 0.996787
1.00153 1.00009 0.992451
1.00004 0.999999 0.9978
1.00149 0.999994 0.991917
1.00158 1.0001 0.992982
1.00389 0.999827 0.987847
1.00153 0.999973 0.99313
1.00386 0.999959 0.987791
0.999997 1.00001 0.995397
0.999682 0.99995 0.995757
0.999246 1.00038 0.996137
0.999582 0.999901 0.995973
1.00143 0.999901 0.992778
1.00126 0.999955 0.993006
1.00089 1.0008 0.992791
1.00325 1.00042 0.989076
1.00003 1 0.997812
0.999869 1 0.995523
1.00148 0.999992 0.992265
1.0014 0.999978 0.992693
0.999493 0.999393 0.997464
1.00019 1.00131 0.993658
1.00129 0.999909 0.992965
1.00367 0.999874 0.988694
1.00277 1.00133 0.989035
1.00344 1.00005 0.988964
1.0044 0.999976 0.986784
1.00148 1.00001 0.991952
1.00136 0.999999 0.992698
1.00382 0.999757 0.988388
1.00371 0.999863 0.988494
1.0036 0.999834 0.988701
1.00478 0.999582 0.986806
0.999535 0.998816 0.998673
1.00453 0.999755 0.9868
0.999793 1.00116 0.993763
1.00153 1.00242 0.989415
1.00403 1.00096 0.986569
1.00497 0.999608 0.986064
0.999772 1.00031 0.994695
1.00019 1.00261 0.991714
0.999965 1.00001 0.997935
0.999724 1.00027 0.997968
1.00129 1.0001 0.992136
0.999483 0.998804 0.998722
0.999962 1.00127 0.993347
1.00072 1.00097 0.992278
1.00199 1.0021 0.988999
0.999466 0.998462 0.998873
0.999616 0.999532 0.995803
1.00148 0.999963 0.992634
1.00115 1.00045 0.992703
1.00365 1.00015 0.987938
0.999803 1.00068 0.994343
1.00276 1.00122 0.988513
1.0011 1.00295 0.989789
1.00288 1.00239 0.987003
0.999662 1.00019 0.995097
0.999688 0.999041 0.996206
1.0001 1.00183 0.992684
1.00379 1.00001 0.987843
1.00331 1.00056 0.988144
1.00473 0.999969 0.986186
1.00063 1.00291 0.990752
1.00382 1.00111 0.986518
1.00185 1.00368 0.987783
1.00321 1.00238 0.986609
0.999528 0.997567 0.999183
0.999451 0.997793 0.999149
0.99939 0.998041 0.999096
0.999767 0.999913 0.995111
0.999549 0.998512 0.998803
1.00001 0.999962 0.997903
1.00001 0.999989 0.997837
1.00147 1.00009 0.991898
1.00148 1.00005 0.991888
1.00001 1.00001 0.997809
1.00002 1 0.997802
1.00149 1 0.991915
1.00152 1.00009 0.99243
1.0039 0.999826 0.987845
1.00145 0.999994 0.991996
1.00386 0.999959 0.987787
1.00149 0.999986 0.991929
1.00391 0.999761 0.987885
1.00387 0.999896 0.98782
1.00492 0.999307 0.986552
1.00384 0.999989 0.987794
1.0049 0.999578 0.986324
1.00002 0.999999 0.997804
0.999688 1.00001 0.995711
1.00149 0.999988 0.991353
1.00148 0.999968 0.992619
0.99929 0.999454 0.998571
1.00046 1.00114 0.993784
1.00137 0.999878 0.99291
1.00368 0.999845 0.988559
1.00343 1.00011 0.989065
1.00276 1.00143 0.989005
1.00437 1 0.986795
1.00147 0.999995 0.991952
1.00144 0.999999 0.992617
1.00383 0.999748 0.988095
1.00373 0.999898 0.98858
0.999541 0.99889 0.998621
0.999946 1.00103 0.994175
1.00161 1.0025 0.989581
1.0036 0.999865 0.98869
1.00477 0.999496 0.986694
1.00394 1.00094 0.98653
1.00453 0.999799 0.986913
1.00497 0.99963 0.986084
0.99977 1.00034 0.994689
1.00024 1.00252 0.991721
1.00389 0.999753 0.987926
1.00378 0.999832 0.988398
1.00487 0.99937 0.986832
1.00481 0.999397 0.986581
1.0047 0.999586 0.98687
1.00514 0.998965 0.986571
0.999779 1.0007 0.994251
1.00503 0.999304 0.986309
1.00074 1.00289 0.990376
1.00275 1.00262 0.986841
1.00478 1.00058 0.985805
1.00512 0.999402 0.986111
1.00039 1.00271 0.991309
1.00014 1.00211 0.992299
1.00058 1.0035 0.99022
1.00141 0.999944 0.992097
0.999416 0.998384 0.99895
0.99962 0.999442 0.995843
1.00103 1.00052 0.992171
1.00366 1.00015 0.98794
0.999753 1.00072 0.994286
1.00105 1.00295 0.989797
1.00276 1.0012 0.988523
1.00289 1.00238 0.986937
0.999656 1.00012 0.995124
0.999689 0.998987 0.996232
1.00003 1.00191 0.992699
1.00378 1.00003 0.987841
1.00332 1.00056 0.988152
1.00474 0.999961 0.986176
1.00056 1.00295 0.990766
1.00387 1.00115 0.986535
1.00183 1.00372 0.98777
1.00323 1.00228 0.986613
0.999789 0.99864 0.99642
1.00031 1.00246 0.99169
1.00001 1.00106 0.993595
1.00028 1.00323 0.991037
1.00483 0.999804 0.986196
1.00444 1.00039 0.986298
1.0051 0.99972 0.985783
1.00108 1.00395 0.988984
1.00444 1.00067 0.985873
1.0021 1.00406 0.986793
1.00394 1.00155 0.986043
1.00026 0.999849 0.994381
0.999965 0.998175 0.996555
0.999622 0.997311 0.999209
0.999532 0.997513 0.999192
0.999443 0.997733 0.999167
0.999792 0.999516 0.995479
0.999547 0.998246 0.998912
0.999764 0.999963 0.995091
0.999567 0.998559 0.998758
1.00145 1.00002 0.99199
1.00148 1.00008 0.991874
1.00386 0.999962 0.987782
1.0039 0.999825 0.987843
1.0015 1.00001 0.991914
1.00004 1 0.997795
1.00149 0.999988 0.991929
1.0039 0.999766 0.987883
1.00387 0.999902 0.987817
1.00492 0.99931 0.986546
1.00383 1.00001 0.987787
1.0049 0.999579 0.986316
1.0039 0.999749 0.987917
1.00493 0.999205 0.986637
1.00491 0.999445 0.98644
1.00518 0.998479 0.986927
1.00488 0.99969 0.986237
1.00519 0.998873 0.986499
1.00148 0.999982 0.991951
1.00152 0.999984 0.992536
1.00384 0.999725 0.987804
1.00375 0.999929 0.988666
0.999552 0.998967 0.998564
1.0001 1.00099 0.994522
1.00174 1.00255 0.989745
1.00359 0.999884 0.98868
1.00477 0.999408 0.986582
1.00454 0.999845 0.987026
1.00385 1.0009 0.986492
1.00498 0.999652 0.986103
0.999774 1.00037 0.994683
1.00029 1.00243 0.991729
1.00388 0.999715 0.987852
1.0038 0.999822 0.988385
1.00488 0.99931 0.98686
1.00481 0.99948 0.986676
0.999817 1.0007 0.99425
1.00085 1.00286 0.990348
1.00271 1.0027 0.986953
1.0047 0.999623 0.986871
1.00514 0.998845 0.986655
1.0048 1.00048 0.9857
1.00501 0.999307 0.986332
1.00512 0.999367 0.986113
1.00041 1.00263 0.991321
1.0005 1.00354 0.990237
1.00016 1.0021 0.992289
1.00491 0.999293 0.986831
1.00485 0.999367 0.986819
1.00516 0.998569 0.986926
1.00516 0.998775 0.986641
1.0051 0.99892 0.986539
1.00517 0.997874 0.987516
1.0005 1.00273 0.991035
1.00515 0.99869 0.986653
1.00157 1.00336 0.988542
1.00381 1.00262 0.985075
1.00512 1.00037 0.985303
1.00514 0.998749 0.986745
1.00015 1.00156 0.992832
1.00083 1.00302 0.990211
1.00026 1.00368 0.990475
1.00086 1.00355 0.9898
1.00378 1.00004 0.987838
0.999684 0.998946 0.996258
0.999647 1.00007 0.995152
0.999992 1.00197 0.992713
1.00332 1.00055 0.98816
1.00475 0.999956 0.986166
1.00048 1.00301 0.990779
1.00181 1.00374 0.987757
1.00394 1.00118 0.986552
1.00324 1.0022 0.986617
0.999788 0.998616 0.996429
1.00028 1.00251 0.991691
1.00001 1.00104 0.99362
1.0002 1.00334 0.991029
1.00483 0.999803 0.986187
1.00444 1.0004 0.98629
1.00511 0.999719 0.985768
1.00104 1.00393 0.988999
1.0045 1.00075 0.985913
1.00216 1.00413 0.986729
1.00375 1.00122 0.986613
0.999889 0.998358 0.996511
1.00009 1.00043 0.994109
1.00062 1.00362 0.990096
1.00015 1.00248 0.99202
1.00022 1.00423 0.990164
1.00513 0.999467 0.985996
1.00493 1.00002 0.985721
1.00513 0.999344 0.986107
1.00134 1.00475 0.98767
1.00486 1.00028 0.9856
1.00299 1.00299 0.985699
1.00023 0.999923 0.99436
1.00023 1.00105 0.99327
1.00028 0.999825 0.994386
1.00026 0.999863 0.994379
1.00001 0.997993 0.997102
0.999953 0.998164 0.996817
0.999779 0.997123 0.998193
0.999634 0.997268 0.999214
0.99954 0.997461 0.999201
0.999843 0.999153 0.995758
0.999565 0.99799 0.999
0.99979 0.999563 0.995457
0.999571 0.998287 0.998876
0.999762 1.00001 0.995071
0.999586 0.998611 0.998712
1.00383 1.00002 0.987781
1.00387 0.999907 0.987814
1.00489 0.999589 0.986308
1.00492 0.999312 0.98654
1.0039 0.999771 0.987881
1.00149 0.999991 0.991928
1.0039 0.999747 0.987917
1.00492 0.999207 0.986636
1.0049 0.999457 0.986433
1.00518 0.998403 0.987021
1.00488 0.999695 0.986229
1.00518 0.998895 0.986491
1.00492 0.99918 0.986673
1.00516 0.998274 0.987199
1.00519 0.998622 0.986745
1.00517 0.997525 0.987894
1.00516 0.999184 0.986242
1.00517 0.997621 0.987749
1.00388 0.999678 0.987777
1.00381 0.99982 0.988373
1.00488 0.999256 0.986887
1.00481 0.999563 0.986771
0.99986 1.00069 0.994249
1.00089 1.00287 0.99032
1.00269 1.00279 0.987065
1.0047 0.999659 0.986872
1.00514 0.998722 0.986738
1.005 0.99931 0.986355
1.00482 1.00037 0.985596
1.00512 0.99933 0.986115
1.00044 1.00256 0.991332
1.00047 1.00353 0.990254
1.00019 1.00208 0.99228
1.00491 0.999255 0.986747
1.00486 0.999364 0.986809
1.00516 0.998443 0.987037
1.00516 0.998812 0.986649
1.00055 1.00269 0.991025
1.00164 1.00333 0.988502
1.00362 1.00269 0.985331
1.00509 0.999045 0.986497
1.00517 0.997715 0.987703
1.00511 1.00037 0.985186
1.00515 0.998685 0.986679
1.00514 0.998663 0.986849
1.00087 1.00302 0.990216
1.00084 1.00358 0.989756
1.00017 1.00157 0.992821
1.00021 1.00364 0.990562
1.00517 0.99844 0.987019
1.00516 0.998642 0.986964
1.00516 0.997737 0.987671
1.00516 0.997279 0.988121
1.00517 0.998095 0.987322
1.00512 0.996877 0.988589
1.00112 1.0029 0.989815
1.00514 0.997573 0.98774
1.00184 1.00401 0.986961
1.0047 1.00231 0.984413
1.00517 1.00004 0.985292
1.00511 0.99835 0.98713
1.00016 1.00118 0.993216
1.00015 1.00321 0.991129
1.00108 1.00305 0.989773
1.00041 1.00424 0.989808
1.00107 1.00319 0.98978
0.999785 0.998598 0.996438
1.00483 0.999803 0.986178
1 1.001 0.993644
1.00023 1.0026 0.991692
1.00013 1.00345 0.991021
1.00444 1.0004 0.986281
1.00511 0.999715 0.985754
1.00105 1.00387 0.989015
1.00224 1.00418 0.986665
1.00457 1.00083 0.985953
1.00359 1.00091 0.987176
0.999886 0.998353 0.996515
1.0001 1.0004 0.99412
1.00063 1.00357 0.990105
1.00007 1.00256 0.992029
1.00016 1.00433 0.990073
1.00513 0.999477 0.985977
1.00496 1.00002 0.985703
1.00512 0.999348 0.986073
1.00128 1.00479 0.987694
1.00477 1.00035 0.985756
1.00321 1.00288 0.985762
1.00018 1.00008 0.994297
1.00015 1.0017 0.992789
1.0008 1.00438 0.98903
0.99997 1.00379 0.991049
1.00038 1.00451 0.989744
1.00513 0.998753 0.986679
1.00509 0.999815 0.985646
1.0051 0.998335 0.986871
1.00162 1.00481 0.98695
1.0046 1.00119 0.985087
1.00023 0.999935 0.994358
1.00023 1.00106 0.99319
1.00021 1.00107 0.99323
1.00017 1.00177 0.992783
1.00022 1.00108 0.993264
1.00027 0.999851 0.994371
1.00027 0.999831 0.994386
1.00007 0.997877 0.997106
1.00025 0.999877 0.994376
1.00002 0.997995 0.997102
0.999883 0.996895 0.998217
0.999943 0.998158 0.997074
0.99975 0.997078 0.998712
0.999646 0.997223 0.99922
0.999901 0.998841 0.995974
0.999838 0.999194 0.995741
0.999606 0.997754 0.999061
0.999582 0.998034 0.998972
0.999786 0.999612 0.995435
0.999594 0.998327 0.998836
1.00487 0.999699 0.986221
1.0049 0.99946 0.986425
1.00518 0.998915 0.986483
1.00518 0.998327 0.987115
1.00492 0.999208 0.986636
1.0039 0.999746 0.987917
1.00492 0.99918 0.986675
1.00516 0.998284 0.987202
1.00519 0.998634 0.986745
1.00517 0.997387 0.988065
1.00516 0.999197 0.986222
1.00517 0.997499 0.987863
1.00516 0.998319 0.987163
1.00514 0.997505 0.987951
1.00517 0.997229 0.988186
1.00514 0.99661 0.988851
1.00514 0.998096 0.987296
1.00514 0.996668 0.988814
1.00491 0.999214 0.986662
1.00486 0.999368 0.986799
1.00516 0.998313 0.987148
1.00515 0.998847 0.986657
1.00061 1.00266 0.991015
1.00172 1.00331 0.988462
1.00342 1.0027 0.985587
1.00509 0.999172 0.986455
1.00516 0.997555 0.98789
1.00514 0.998681 0.986705
1.00512 1.0004 0.98507
1.00513 0.998582 0.986954
1.00085 1.00307 0.990222
1.00074 1.00369 0.989711
1.00018 1.00158 0.992809
1.00017 1.00359 0.990649
1.00517 0.998445 0.987015
1.00515 0.998685 0.986874
1.00516 0.997679 0.987759
1.00516 0.99738 0.988
1.00113 1.003 0.989777
1.00184 1.00399 0.987179
1.00458 1.00211 0.984392
1.00516 0.998229 0.987161
1.00513 0.996698 0.988712
1.00515 1.0001 0.985276
1.00513 0.997596 0.98775
1.00514 0.998153 0.987203
1.00112 1.00304 0.989764
1.00105 1.00316 0.989821
1.00035 1.00432 0.989788
1.00016 1.00117 0.993143
1.00012 1.00315 0.991217
1.00516 0.997583 0.987924
1.00514 0.997298 0.988182
1.00512 0.996201 0.989285
1.00511 0.996769 0.988552
1.00124 1.00349 0.989006
1.00511 0.997175 0.988311
1.00204 1.00381 0.986404
1.00505 1.00183 0.984212
1.00513 0.999558 0.985682
1.00012 1.00083 0.993433
1.00013 1.00267 0.991885
1.00018 1.00389 0.990592
1.00126 1.00283 0.989732
1.00052 1.00448 0.98934
1.0013 1.0026 0.989682
0.999882 0.998352 0.996518
1.0001 1.00038 0.994131
1.00514 0.999486 0.985957
1 1.00264 0.992039
1.00057 1.00359 0.990113
1.00009 1.00444 0.989981
1.00499 1.00002 0.985685
1.00512 0.999353 0.986039
1.00121 1.00485 0.987717
1.0034 1.00281 0.985825
1.00468 1.00042 0.985919
1.00018 1.00008 0.994298
1.00013 1.0017 0.992804
1.00077 1.00443 0.989004
0.999902 1.00387 0.991045
1.00031 1.00445 0.989765
1.00513 0.998783 0.986656
1.0051 0.99982 0.985606
1.0051 0.998356 0.986921
1.0016 1.00475 0.986831
1.00459 1.00133 0.985136
1.00021 1.00123 0.993148
0.999901 1.00298 0.991799
1.00099 1.00424 0.98871
0.999926 1.0047 0.99013
1.00074 1.00391 0.989566
1.00513 0.997072 0.988183
1.00509 0.999531 0.985911
1.00507 0.998165 0.987045
1.00274 1.00386 0.986304
1.00462 1.00077 0.985177
1.00022 0.999945 0.994355
1.00023 1.00105 0.993224
1.00006 1.00183 0.992725
1.00019 1.00108 0.99319
1.00021 1.0011 0.993263
1.00011 1.00181 0.992728
1.00003 1.00223 0.992505
1.00011 1.00187 0.992599
1.0002 1.00116 0.993225
1.00023 0.999942 0.994341
1.00026 0.999863 0.99437
1.00011 0.997824 0.997081
1.00027 0.999839 0.994386
1.00007 0.99789 0.997102
0.999959 0.996759 0.998217
1.00002 0.997997 0.997103
0.999871 0.996868 0.998223
0.999718 0.997022 0.999242
0.999955 0.998535 0.996194
0.999899 0.99887 0.995959
0.999665 0.997509 0.99911
0.999833 0.999238 0.995724
0.999615 0.997796 0.999043
0.999602 0.998072 0.998941
1.00516 0.99921 0.986202
1.00519 0.998648 0.986745
1.00518 0.997375 0.987977
1.00516 0.997249 0.988237
1.00516 0.998294 0.987205
1.00492 0.99918 0.986677
1.00517 0.998371 0.9871
1.00514 0.99759 0.987894
1.00517 0.997299 0.988098
1.00513 0.996446 0.988996
1.00514 0.998123 0.987291
1.00514 0.996456 0.988951
1.00515 0.997683 0.987829
1.00512 0.996564 0.988872
1.00514 0.996051 0.98935
1.00512 0.996464 0.989008
1.00516 0.998449 0.987011
1.00515 0.998727 0.986784
1.00516 0.997624 0.987848
1.00516 0.997483 0.987879
1.00118 1.00304 0.989738
1.00184 1.00398 0.987397
1.00444 1.00192 0.984372
1.00515 0.998363 0.986999
1.00514 0.996523 0.988834
1.00512 0.997619 0.987761
1.00514 1.00013 0.985259
1.00516 0.997958 0.987277
1.00117 1.00305 0.989755
1.0011 1.00303 0.989862
1.0003 1.00441 0.989767
1.00015 1.00117 0.993069
1.0001 1.00308 0.991305
1.00516 0.997599 0.987924
1.00514 0.997328 0.98816
1.00512 0.996297 0.989145
1.00131 1.00349 0.988968
1.00224 1.00393 0.986509
1.00493 1.00161 0.984174
1.00512 0.996809 0.988534
1.00511 0.999369 0.985903
1.00512 0.997136 0.988162
1.00012 1.00078 0.993493
1.00133 1.00276 0.989705
1.00121 1.00249 0.989993
1.00057 1.00456 0.989252
1.00018 1.00389 0.990616
1.00012 1.00266 0.991825
1.00511 0.996964 0.98846
1.00516 0.996007 0.98941
1.0051 0.995751 0.989529
1.00513 0.996102 0.989246
1.00149 1.00359 0.988534
1.00511 0.997913 0.987365
1.00304 1.00346 0.985281
1.00505 1.00131 0.984417
1.00014 1.00031 0.993915
1.00012 1.00225 0.992324
1.00017 1.00333 0.991231
1.00017 1.00465 0.989767
1.00149 1.00245 0.989572
1.00132 1.00333 0.989063
1.00017 1.00008 0.994299
1.0001 1.00168 0.99282
1.00513 0.998813 0.986633
0.99984 1.00393 0.991042
1.00074 1.00446 0.988979
1.00018 1.00434 0.989787
1.00511 0.999822 0.985567
1.0051 0.998381 0.986971
1.00161 1.00473 0.986712
1.0046 1.00145 0.985185
1.0002 1.00122 0.993157
0.999956 1.00293 0.991828
1.001 1.00431 0.988719
0.999835 1.00477 0.990093
1.00058 1.0037 0.989928
1.00512 0.99705 0.988372
1.00508 0.999516 0.985975
1.00507 0.998263 0.987007
1.00258 1.00401 0.986218
1.00477 1.00069 0.985043
0.999985 1.0021 0.992513
0.99981 1.00398 0.990792
1.00145 1.00376 0.988409
1.0001 1.0047 0.989163
1.00511 0.995586 0.98969
1.00499 0.997264 0.988386
1.00504 0.999477 0.9859
1.00318 1.00224 0.985587
1.00024 1.00104 0.993258
1.00007 1.00185 0.992741
0.999882 1.00247 0.992522
1.00019 1.00112 0.993261
1.00006 1.00184 0.992674
1.0002 1.00116 0.99322
1.00001 1.00221 0.992487
1.00012 1.00187 0.992625
0.999971 1.00244 0.992371
1.00007 1.00229 0.99231
1.00013 1.00195 0.992451
1.0002 1.00127 0.993108
1.00019 1.00003 0.994314
1.00023 0.999939 0.994339
1.00014 0.997809 0.997047
1.00026 0.999861 0.99437
1.00011 0.997848 0.997075
1.00002 0.996676 0.998194
1.00008 0.997904 0.9971
0.999951 0.996727 0.998224
0.999861 0.996843 0.998225
1.00002 0.998215 0.996403
0.999959 0.998551 0.996178
0.999737 0.997229 0.999162
0.999895 0.998904 0.995943
0.999667 0.997561 0.999095
0.999626 0.997834 0.999023
1.00514 0.998147 0.987285
1.00517 0.997371 0.98801
1.00513 0.996247 0.989088
1.00512 0.996284 0.989141
1.00514 0.997676 0.987837
1.00517 0.998425 0.987036
1.00515 0.997676 0.987843
1.00512 0.996622 0.988823
1.00514 0.996079 0.989308
1.00513 0.996417 0.989053
1.0051 0.996924 0.988625
1.00517 0.995446 0.989978
1.00516 0.995415 0.989747
1.00516 0.997614 0.987923
1.00514 0.997357 0.988139
1.00512 0.996395 0.989006
1.00139 1.00349 0.988931
1.00245 1.00405 0.986613
1.00481 1.00144 0.984136
1.00512 0.996847 0.988516
1.00512 0.997092 0.988013
1.0051 0.999198 0.986124
1.0014 1.0027 0.989678
1.00107 1.00242 0.990304
1.0006 1.00467 0.989164
1.00013 1.00073 0.993552
1.00018 1.00388 0.99064
1.00011 1.00264 0.991765
1.00511 0.997018 0.98849
1.00517 0.995924 0.989474
1.0051 0.995756 0.98957
1.00151 1.0036 0.988502
1.00288 1.00362 0.985572
1.00501 1.00109 0.984566
1.00513 0.996144 0.989183
1.00511 0.997891 0.987332
1.00014 1.00029 0.994048
1.00012 1.00225 0.992317
1.00133 1.00237 0.989665
1.00124 1.00336 0.989377
1.00021 1.00457 0.989832
1.00015 1.00338 0.991165
1.00515 0.995574 0.989901
1.00516 0.995189 0.990062
1.0051 0.995466 0.989854
1.00512 0.996325 0.989042
1.00159 1.00342 0.987956
1.00504 0.999811 0.985583
1.00398 1.00322 0.984818
1.00018 0.999964 0.994422
1.00015 1.00124 0.993238
1.0001 1.00179 0.992617
1.00006 1.00313 0.99153
1.00007 1.00403 0.990559
1.00008 1.00448 0.989756
1.00196 1.00118 0.989643
1.00123 1.00303 0.990247
1.00018 1.00123 0.993166
1 1.00291 0.991857
1.00512 0.997032 0.988561
0.999873 1.00486 0.990054
1.00099 1.0044 0.988728
1.00039 1.00355 0.99029
1.00507 0.999496 0.986041
1.00507 0.998352 0.986971
1.00241 1.00411 0.986135
1.00494 1.0006 0.984908
1.00001 1.00214 0.992455
0.999872 1.004 0.990793
1.00137 1.00385 0.988476
1.00034 1.0047 0.989266
1.00512 0.995489 0.98982
1.00501 0.997329 0.988172
1.00505 0.999455 0.985921
1.00355 1.00239 0.985427
0.999835 1.00301 0.991992
1.00509 0.995019 0.990232
1.00019 1.00478 0.989932
1.00157 1.00437 0.987538
1.00498 0.996005 0.989839
1.00488 0.998582 0.98663
1.00446 1.00132 0.985396
1.00006 1.00188 0.992757
0.999874 1.00246 0.992505
0.999717 1.00297 0.992319
1.0002 1.00114 0.993215
1.00012 1.00187 0.992652
0.999963 1.00222 0.99247
1.00021 1.00126 0.993097
1.00013 1.00195 0.992473
0.999932 1.00248 0.992333
1.0001 1.00224 0.992346
1.00009 1.00244 0.992179
1.00006 1.00244 0.992179
1.00014 1.00247 0.99205
1.00026 1.00201 0.992236
1.00022 1.00138 0.992964
1.00016 1.00011 0.994283
1.00019 1.00004 0.994313
1.00016 0.997839 0.996994
1.00023 0.999953 0.994336
1.00014 0.997842 0.997041
1.00006 0.996613 0.998173
1.00012 0.997873 0.99707
1.00002 0.99664 0.998201
0.999944 0.996697 0.998228
1.00016 0.999836 0.994587
1.00007 0.997969 0.996559
1.00002 0.998228 0.996389
0.999817 0.996962 0.999206
0.999962 0.998573 0.996162
0.999734 0.997292 0.999146
0.99967 0.99761 0.99908
1.00514 0.99637 0.989098
1.00514 0.996108 0.989266
1.00513 0.99668 0.988775
1.00515 0.997668 0.987857
1.00511 0.996865 0.988692
1.00516 0.995461 0.98998
1.00516 0.995465 0.989733
1.00516 0.995313 0.990071
1.00519 0.995038 0.990301
1.005 0.994964 0.990688
1.0051 0.997074 0.98852
1.00517 0.995843 0.989539
1.0051 0.995746 0.98961
1.00153 1.00361 0.98847
1.00273 1.00378 0.985863
1.00497 1.00085 0.984716
1.00513 0.996194 0.989122
1.0051 0.997854 0.9873
1.00119 1.00232 0.989758
1.0012 1.00338 0.989687
1.00016 1.00457 0.989897
1.00014 1.00026 0.994182
1.00014 1.00224 0.99231
1.00012 1.00344 0.991098
1.00515 0.995511 0.989904
1.00017 0.999978 0.99442
1.00013 1.00125 0.993181
1.00516 0.995222 0.990071
1.0051 0.995431 0.989818
1.00138 1.00358 0.988302
1.00382 1.00319 0.984769
1.00501 0.999694 0.985563
1.00507 0.996355 0.988934
1.00011 1.00177 0.99279
1.00009 1.00309 0.991515
1.00213 1.00146 0.989412
1.00079 1.00306 0.990523
1.00011 1.00459 0.989775
1.00006 1.00399 0.990626
1.00519 0.995086 0.99019
1.00507 0.994949 0.990432
1.0051 0.995157 0.989892
1.00504 0.996699 0.98831
1.00177 1.00292 0.988454
1.0043 1.00268 0.984788
1.00012 1.00113 0.993235
1.00014 1.0014 0.993088
1.00011 1.00224 0.992433
1.00005 1.00297 0.991518
1.00001 1.00371 0.99116
1.00029 1.00411 0.990018
0.999632 1.00476 0.990188
1.00134 1.00134 0.990698
1.00004 1.00216 0.992398
0.999942 1.00399 0.990796
1.00514 0.995384 0.98995
1.00503 0.997416 0.987958
1.00057 1.00473 0.989369
1.0013 1.00391 0.98854
1.00504 0.999434 0.985942
1.00392 1.00257 0.985264
0.999857 1.003 0.991956
1.0051 0.994989 0.990287
1.00002 1.00473 0.990032
1.00158 1.0042 0.987506
1.00497 0.995871 0.989725
1.0048 0.998613 0.986854
1.00439 1.00152 0.985437
0.999851 1.00423 0.991072
1.00474 0.995122 0.991516
1.00097 1.00461 0.989261
1.00252 1.00404 0.986908
1.0048 0.996835 0.988756
1.00403 1.00062 0.986295
0.999616 0.997966 0.991864
0.999864 1.00246 0.992489
0.999685 1.003 0.99231
0.999945 1.00307 0.991947
1.0002 1.00127 0.993086
1.00012 1.00197 0.992495
1.00013 1.0022 0.992384
0.999908 1.00247 0.992295
1.00022 1.00137 0.99296
1.00023 1.00204 0.992235
1.0001 1.00249 0.992071
1.00012 1.00248 0.992054
1.00009 1.0024 0.992201
1.00023 1.0023 0.992052
1.00025 1.00263 0.991705
1.00019 1.0025 0.99194
1.00034 1.00212 0.991986
1.00025 1.00143 0.992755
1.00027 1.00193 0.99242
1.00025 1.00144 0.992745
1.00016 1.00015 0.994242
1.00016 1.00011 0.994282
1.00018 0.997912 0.996413
1.00019 1.00004 0.994312
1.00017 0.997876 0.996721
1.00003 0.996558 0.999213
1.00014 0.997875 0.997035
1.00006 0.996572 0.998179
1.00001 0.996605 0.998205
1.00013 0.999728 0.994725
1.00016 0.999822 0.994589
1.0001 0.997807 0.996681
1.00006 0.997973 0.996811
0.99989 0.99675 0.999241
1.00003 0.998237 0.996376
0.99981 0.997025 0.999194
0.999732 0.997358 0.999129
1.00516 0.995518 0.989719
1.00516 0.995472 0.989981
1.00511 0.996804 0.988759
1.00514 0.995323 0.990067
1.00518 0.995028 0.990257
1.005 0.994985 0.990482
1.00517 0.994907 0.990371
1.00083 0.997123 0.988381
1.00443 0.994944 0.992706
1.00008 1.00107 0.993522
1.00516 0.995442 0.989907
1.00515 0.995265 0.990079
1.0051 0.995403 0.989783
1.00117 1.00371 0.988648
1.00366 1.00318 0.98472
1.00501 0.999603 0.985544
1.005 0.996402 0.988824
1.00236 1.00162 0.989188
1.00034 1.00308 0.990808
1.00018 1.00463 0.989795
1.00016 0.999999 0.994418
1.00006 1.00394 0.990694
1.00013 1.00174 0.992962
1.00009 1.00307 0.991499
1.00012 1.00124 0.993123
1.0052 0.994999 0.990231
1.00011 1.00112 0.993331
1.00014 1.00141 0.993086
1.00013 1.00222 0.992328
1.00505 0.994982 0.990425
1.00511 0.995264 0.989783
1.00186 1.0028 0.988512
1.00397 1.00233 0.985055
1.00499 0.996971 0.988261
1.00004 1.00296 0.991611
1.00004 1.00366 0.991045
1.00126 1.00176 0.990481
0.999797 1.00475 0.990259
1.00032 1.004 0.99008
1.0051 0.994993 0.990477
1.0051 0.994849 0.990463
1.00506 0.995931 0.98917
1.0044 0.999188 0.987936
1.00124 1.0031 0.989328
1.00007 1.00219 0.992258
1.00013 1.00243 0.991888
0.999946 1.00324 0.991569
0.999923 1.00406 0.990985
0.999987 1.00405 0.99062
0.99987 1.0046 0.990078
0.999985 1.00437 0.990263
0.999894 1.00299 0.991918
0.999837 1.00471 0.990133
1.00511 0.99496 0.990341
1.00496 0.995717 0.989611
1.00476 0.998622 0.987077
1.00158 1.00399 0.987476
1.00436 1.0017 0.985479
0.999811 1.00409 0.991216
1.00465 0.995062 0.991556
1.00064 1.00445 0.989451
1.00221 1.00414 0.986901
1.00478 0.996662 0.989043
1.00415 1.00054 0.986231
0.999616 0.997883 0.990034
0.99999 1.00425 0.990727
1.00416 0.995877 0.991677
1.00057 1.00444 0.989482
1.00238 1.00277 0.98732
1.00419 0.998077 0.987743
1.00075 0.995592 0.956884
0.996295 0.997146 0.975694
0.997986 1.00147 0.991556
0.999854 0.996536 0.919746
0.994907 0.998174 0.904056
0.999668 1.003 0.9923
0.999795 1.00318 0.992006
1.00012 1.0024 0.992204
1.00022 1.00137 0.992957
1.00026 1.00198 0.992234
1.00012 1.00249 0.992058
1.00013 1.00235 0.992221
1.00012 1.00256 0.991962
1.00022 1.00246 0.991892
1.00025 1.00141 0.992823
1.00034 1.00211 0.992002
1.00023 1.0023 0.992029
1.00022 1.00265 0.99174
1.00027 1.00263 0.991718
1.00016 1.00244 0.991911
1.00032 1.00255 0.991673
1.00039 1.00211 0.991863
1.00026 1.00147 0.992694
1.00035 1.00202 0.992148
1.00029 1.00213 0.992141
1.00016 1.00198 0.99246
1.00027 1.00195 0.992358
1.00024 1.00134 0.992958
1.00025 1.00144 0.992735
1.00019 1.00015 0.994204
1.00016 1.00016 0.994242
1.00017 0.997978 0.996388
1.00016 1.00012 0.994282
1.00018 0.997919 0.996412
1.00004 0.996563 0.999205
1.00018 0.997912 0.996449
1.00006 0.996559 0.998677
1.00006 0.996532 0.998183
1.00011 0.999676 0.994827
1.00014 0.999732 0.994723
1.00013 0.997684 0.99676
1.00017 0.999806 0.99459
1.0001 0.997777 0.996934
0.999947 0.996571 0.99927
1.00007 0.998013 0.996525
0.99988 0.996833 0.999224
0.999804 0.997073 0.999182
1.00517 0.995017 0.990213
1.00513 0.995336 0.990063
1.005 0.994993 0.990276
1.00077 0.996849 0.988483
1.00516 0.994908 0.990346
1.00435 0.995364 0.992403
1.0049 0.996093 0.991071
0.997182 0.997168 0.973656
1.00152 0.996233 0.990112
1.00009 1.00103 0.993549
1.0001 1.00104 0.993517
0.999977 1.00217 0.99257
1.00006 1.00194 0.992678
1.0052 0.994925 0.990271
1.00504 0.995005 0.990418
1.00511 0.99537 0.989673
1.00208 1.00259 0.98857
1.00358 1.00188 0.985318
1.00497 0.997267 0.98821
1.0011 1.0023 0.990256
0.99999 1.00476 0.990329
1.00033 1.00389 0.990142
1.00012 1.00144 0.993083
1.00006 1.00361 0.99093
1.00005 1.00296 0.991705
1.00011 1.00112 0.993428
1.00012 1.00223 0.992221
1.00511 0.994952 0.990464
1.00005 1.00225 0.992383
1.00013 1.00245 0.992008
0.999901 1.00305 0.991779
1.00509 0.994863 0.99042
1.00506 0.995774 0.989173
1.00154 1.00272 0.989283
1.00426 0.999102 0.988064
0.999947 1.00403 0.990949
1.00008 1.00403 0.990463
0.999999 1.00451 0.990264
1.00016 1.00451 0.990048
1.00494 0.994853 0.990931
1.00508 0.995077 0.990319
1.00448 0.997398 0.989113
1.00162 1.00165 0.990288
0.999964 1.0034 0.991311
0.999991 1.00366 0.991015
0.999602 1.00461 0.990745
0.999776 1.00514 0.989829
1.00014 0.994944 0.951883
0.99975 1.00398 0.991359
1.00025 1.00435 0.989641
1.00459 0.995001 0.991589
1.00476 0.9965 0.989331
1.00427 1.00042 0.986165
1.00184 1.00423 0.986892
0.999707 0.9977 0.988162
0.999843 1.00432 0.990852
1.00427 0.995696 0.991643
1.00045 1.00445 0.989537
1.00255 1.00253 0.987311
1.00441 0.998076 0.987884
1.0015 0.99583 0.95092
0.996019 0.997304 0.971792
0.997898 1.00146 0.991446
0.999826 0.997258 0.922169
0.994716 0.998148 0.896263
0.999819 1.00365 0.991657
0.999898 0.995328 0.926489
0.995141 0.998595 0.90559
1.00304 0.999048 0.990764
1.00017 1.00427 0.990216
1.00267 1.00133 0.987711
0.997274 1.00287 0.991774
0.999885 0.996891 0.955675
0.994857 0.997702 0.970196
0.998481 0.998193 0.925254
0.994768 0.999593 0.904777
0.999655 1.00328 0.992065
1.00001 1.00265 0.992135
0.999989 1.00148 0.993601
1.00025 1.00138 0.992891
1.00035 1.00212 0.992017
1.00015 1.00252 0.991844
1.0002 1.00265 0.991776
1.00024 1.00231 0.992006
1.00027 1.00145 0.992698
1.00024 1.00268 0.991668
1.00031 1.00253 0.991703
1.00039 1.0021 0.991922
1.00019 1.00234 0.991971
1.00023 1.00276 0.991683
1.00018 1.00219 0.992059
1.00043 1.00256 0.991411
1.00042 1.0021 0.991948
1.00037 1.00199 0.992136
1.0003 1.00213 0.992141
1.00043 1.00212 0.991882
1.00014 1.00231 0.992172
1.00022 1.00206 0.992185
0.999829 1.00309 0.991884
1.00005 1.00215 0.992474
1.00016 1.00199 0.992458
1.0002 1.00132 0.993036
1.00027 1.00197 0.992296
1.00025 1.00135 0.992907
1.00023 1.00011 0.994189
1.00026 1.00145 0.992726
1.00019 1.00015 0.994206
1.00013 0.998007 0.996936
1.00016 1.00016 0.994241
1.00016 0.997968 0.996663
1.00009 0.996595 0.9981
1.00018 0.997927 0.996411
1.00004 0.99657 0.999203
1.0001 0.996562 0.998141
1.00011 1.00109 0.993452
1.0001 0.999673 0.994843
1.00011 0.999672 0.994826
1.00014 0.997626 0.996791
1.00014 0.999736 0.994721
1.00013 0.997663 0.996759
0.999993 0.996456 0.999284
1.00008 0.997786 0.997168
0.999961 0.996644 0.998758
0.999923 0.996882 0.998185
1.0006 0.996632 0.988608
1.00516 0.994911 0.990322
1.00427 0.995797 0.992099
0.996524 0.996862 0.975225
1.00129 0.996308 0.990347
1.00494 0.995604 0.990889
1.00374 0.996329 0.989976
0.997549 0.996396 0.978023
1.00007 0.995548 0.955087
0.999379 0.997884 0.926909
0.994661 0.99813 0.902614
0.999973 1.00204 0.992553
1.00009 1.00104 0.993547
1.00012 1.00102 0.993511
1 1.00217 0.992528
0.99997 1.00293 0.991888
1.00019 1.00245 0.992017
1.0001 1.00212 0.992481
1.00003 1.00203 0.992604
1.00512 0.994901 0.990449
1.00508 0.994875 0.990372
1.00507 0.995544 0.989179
1.0017 1.00243 0.98924
1.00419 0.99903 0.988191
1.00001 1.00455 0.990265
1.00042 1.00443 0.990019
1.00019 1.00404 0.990307
1.0001 1.00245 0.992128
0.999947 1.00404 0.990911
1.00005 1.00232 0.99251
0.999936 1.00284 0.99199
1.00493 0.994924 0.990972
0.999963 1.00339 0.991392
0.999977 1.00365 0.991145
1.00504 0.995018 0.990212
1.00402 0.997211 0.989503
1.00174 1.00148 0.990161
0.999765 1.0047 0.990518
0.999981 1.00498 0.989855
1.0029 0.99806 0.991563
1.00442 0.996124 0.990983
1.00292 0.997723 0.990775
1.00087 1.00221 0.990637
0.999975 1.00391 0.990784
0.999749 1.0045 0.990599
0.999696 1.00521 0.990102
0.999932 0.994858 0.926605
1.00071 0.994992 0.959444
0.999731 1.00436 0.990978
1.00035 1.00437 0.989593
1.00431 0.995507 0.991614
1.00461 0.998135 0.988025
1.00271 1.00239 0.987306
1.00039 0.995275 0.955187
0.996459 0.997564 0.971207
0.997794 1.00125 0.991319
0.998788 0.996936 0.928642
0.994682 0.998136 0.888387
0.99975 1.00362 0.991682
0.999922 0.995785 0.925292
0.99523 0.998461 0.901811
1.00299 0.998937 0.990754
1.00008 1.00419 0.990323
1.00235 1.00135 0.988385
0.997659 1.00251 0.992391
1.00112 0.99687 0.951034
0.994898 0.997202 0.97376
0.998588 0.998958 0.925572
0.994928 0.999558 0.902712
0.999357 1.00306 0.993278
0.995309 0.998075 0.907026
0.995051 1.00009 0.922255
1.00012 1.00118 0.992813
0.999313 1.00415 0.992272
0.996551 1.00283 0.993116
0.99484 0.999406 0.974386
0.997833 0.998542 0.949464
0.995282 0.999909 0.9303
0.994742 0.998127 0.912184
0.999966 1.00285 0.992066
1.00002 1.0014 0.993545
0.999744 1.00022 0.994764
1.00027 1.00144 0.992702
1.00038 1.0021 0.991981
1.0003 1.0025 0.991733
1.00023 1.00273 0.991618
1.0002 1.00227 0.992032
1.00041 1.00212 0.991937
1.00024 1.00271 0.991666
1.00043 1.00259 0.991409
1.00002 1.00223 0.992209
0.999113 1.00267 0.993299
1.00027 1.00296 0.991416
1.00055 1.00235 0.99154
1.0004 1.00197 0.992124
1.00031 1.00211 0.992141
1.00044 1.00212 0.99188
1.00015 1.00231 0.992159
1.00023 1.00204 0.992229
0.999982 1.00263 0.992087
1.0003 1.00198 0.992092
1.00001 1.00221 0.992435
1.00014 1.00282 0.991689
0.999705 1.0048 0.990074
0.999603 1.00369 0.991489
0.99984 1.00313 0.991872
0.999956 1.00238 0.992396
1.00006 1.00216 0.99247
1.00015 1.00135 0.993072
1.00015 1.00202 0.992456
1.00021 1.00132 0.993039
1.00024 1.00005 0.994198
1.00026 1.00136 0.992855
1.00023 1.00009 0.994192
1.00011 0.998033 0.996945
1.00019 1.00014 0.994207
1.00014 0.997994 0.996663
1.00006 0.996617 0.998108
1.00018 0.997949 0.996387
1.00003 0.996601 0.999197
1.00004 0.996578 0.9992
1.00015 1.00118 0.993494
1.00012 0.999724 0.994768
1.0001 1.0011 0.993453
1.00015 0.997601 0.996795
1.0001 0.999667 0.994844
1.00011 0.999675 0.994825
1.00014 0.997622 0.996788
1.00002 0.996396 0.999288
1.00011 0.997655 0.997241
1.00001 0.996476 0.998791
0.999993 0.996635 0.998272
0.999863 0.995964 0.920866
0.995147 0.99781 0.905369
0.99773 0.996475 0.975854
1.00107 0.996339 0.990591
1.00497 0.995061 0.99071
0.996867 0.995915 0.979785
1.00379 0.995973 0.990199
1.00136 0.99575 0.954844
0.999821 0.99699 0.920632
0.994659 0.998102 0.894815
0.998352 0.996603 0.98298
0.999622 0.997507 0.955915
0.998465 0.998692 0.923652
0.994734 0.999191 0.903469
1.0001 1.00288 0.991654
1 1.00202 0.992627
1.0001 1.00102 0.993545
1.00002 1.00213 0.992486
0.999966 1.00283 0.991973
1.00022 1.0027 0.99173
1.00019 1.00244 0.992008
1.00017 1.0023 0.992104
1.00011 1.00211 0.992407
1.00001 1.00209 0.992531
1.00489 0.994851 0.991022
1.00507 0.994975 0.990121
1.00353 0.997042 0.9899
1.00178 1.00142 0.990034
1.0002 1.00488 0.989881
0.999922 1.00477 0.99029
0.999949 1.00364 0.991276
0.999924 1.00337 0.991472
1.00306 0.997436 0.991772
0.999959 1.00395 0.990751
0.999752 1.00461 0.990479
1.00431 0.996059 0.990703
1.00252 0.997667 0.991577
1.00114 1.00234 0.990109
0.999908 1.00516 0.989998
0.999967 0.998998 0.993573
1.00174 0.997612 0.994251
0.99976 1.00392 0.990729
0.999921 1.004 0.990738
0.999853 1.0046 0.990271
0.99973 1.00514 0.990054
0.994768 0.997976 0.919324
0.99993 0.994905 0.929434
1.00015 0.994944 0.951785
0.999626 1.00373 0.991707
1 1.00406 0.990431
1.00297 0.998794 0.990749
1.00211 1.00143 0.989055
0.999889 0.995529 0.929897
0.999473 0.996806 0.951122
0.994899 0.996582 0.970276
0.998043 1.00158 0.992947
0.998508 0.998232 0.918554
0.995173 0.998299 0.902738
0.994983 0.999507 0.906468
0.999146 1.00301 0.993286
0.995214 0.997474 0.911587
0.995238 1.00023 0.921656
1.00045 1.00122 0.992771
0.998955 1.00422 0.992265
0.996351 1.0007 0.995706
0.994848 0.998566 0.972469
0.997555 0.998746 0.956472
0.997247 0.999891 0.923276
0.994747 0.9981 0.916301
0.998073 1.00241 0.995777
0.99507 0.997847 0.932754
0.994571 0.997926 0.935415
0.996112 1.00244 0.998959
0.994861 1.00001 0.980749
0.995597 1.00001 0.956056
0.994813 0.999954 0.922107
0.994821 0.996724 0.91331
1.00004 1.00133 0.993489
0.999765 1.00034 0.994932
0.998734 1.00139 0.996276
1.0004 1.00214 0.991927
1.00044 1.00262 0.991407
1.00026 1.00263 0.99165
0.999875 1.00229 0.99236
1.00049 1.0024 0.991526
1.00025 1.00291 0.991437
0.999131 1.00257 0.993503
0.997295 1.00348 0.995647
0.999233 1.00364 0.992596
1.00041 1.00248 0.991652
1.00045 1.00211 0.991877
1.00015 1.00232 0.992146
1.00024 1.00205 0.992272
1.00029 1.00203 0.992098
0.999987 1.00266 0.992082
1.00006 1.0022 0.992438
1.00009 1.00243 0.992244
0.999633 1.00192 0.993326
1.0006 1.00137 0.992124
1.00016 1.0027 0.991806
0.999796 1.00407 0.990811
1.00077 1.00495 0.988434
0.999821 1.00436 0.990956
0.999578 1.00486 0.990394
0.999678 1.00368 0.99157
0.999838 1.00277 0.992048
0.999856 1.00317 0.991859
0.999992 1.00237 0.992389
1.00011 1.00146 0.993042
1.00009 1.00214 0.992466
1.00018 1.00135 0.993071
1.00023 1.00007 0.994206
1.00022 1.00132 0.993041
1.00025 1.00006 0.994199
1.00008 0.998058 0.99697
1.00023 1.0001 0.994195
1.00012 0.998022 0.996678
1.00001 0.996702 0.998119
1.00016 0.997971 0.996388
1.00003 0.996632 0.998651
1.00003 0.996614 0.999197
1.00016 1.00136 0.993114
1.00015 0.999797 0.994648
1.00011 1.00123 0.993343
1.00016 0.997617 0.996767
1.00012 0.999714 0.994771
1.00007 1.00114 0.993454
1.00003 0.996373 0.999289
1.00015 0.997601 0.996796
1.00011 0.999653 0.994845
1.00015 0.997619 0.996786
1.00002 0.996406 0.999287
0.99999 0.996469 0.999281
0.994895 0.996642 0.913592
0.999899 0.995521 0.924613
0.995156 1.00017 0.92173
0.995206 0.998274 0.903038
0.997586 0.995513 0.976625
1.00379 0.996007 0.990431
1.00073 0.996187 0.954265
0.999835 0.996921 0.927689
0.994679 0.998135 0.886991
0.998311 0.997038 0.981866
1.00129 0.997208 0.947681
0.998564 0.999031 0.924224
0.994749 0.999416 0.899273
0.99502 0.998955 0.977892
0.99815 0.99964 0.948858
0.995888 0.999811 0.919654
0.994753 0.997857 0.906423
1.00009 1.00335 0.99125
1.00007 1.00287 0.991751
0.999987 1.00206 0.9927
0.999954 1.00274 0.992059
1.00032 1.00286 0.991275
1.00021 1.00265 0.991787
1.00015 1.00245 0.991997
1.0003 1.00226 0.992037
1.00021 1.00224 0.992188
1.00012 1.00211 0.992332
1.00334 0.997058 0.991971
1.00415 0.996015 0.990426
1.00221 0.997656 0.992371
1.00146 1.00233 0.989593
1.00004 1.00512 0.989895
0.999788 1.0047 0.99036
0.999991 1.00393 0.990719
0.999974 1.00399 0.990744
1.00031 0.999029 0.993849
0.99992 1.00463 0.990293
0.999842 1.00514 0.990063
1.00182 0.997536 0.993863
1.00025 1.00368 0.990591
0.998666 0.997144 0.995428
0.998614 0.998873 0.998862
0.999472 1.0044 0.991065
0.999987 1.00446 0.990248
0.999815 1.00505 0.989937
0.994747 0.997632 0.938379
0.994787 0.997741 0.917995
0.999891 0.995028 0.923027
0.998942 1.00296 0.993289
0.998674 1.0042 0.992243
1.00071 1.00124 0.992739
0.995194 0.99667 0.913042
0.997932 0.998655 0.949864
0.994849 0.997956 0.973242
0.9964 0.999788 0.998507
0.996269 0.999575 0.930118
0.995603 1.00039 0.921063
0.994788 0.998059 0.916377
0.998093 1.00239 0.995986
0.995149 0.996935 0.935468
0.994624 0.997958 0.935278
0.996348 1.00295 0.998219
0.994856 0.999905 0.981629
0.996244 0.999993 0.949502
0.99479 0.997176 0.914803
0.994849 0.999976 0.927198
0.996684 1.00336 0.998059
0.99444 0.994887 0.956192
0.994597 0.997153 0.938305
0.994761 0.997906 0.906634
0.994918 1.00159 0.994327
0.995679 0.999802 0.958491
0.994887 1.00001 0.92569
0.999865 1.00046 0.9951
0.998856 1.00124 0.996023
0.996603 1.00305 0.9982
1.00044 1.00245 0.991513
1.00022 1.00288 0.991457
0.999087 1.00259 0.993712
1.00032 1.00241 0.991744
0.999267 1.00354 0.992624
0.997584 1.00356 0.995159
0.997115 1.00396 0.996136
0.999293 1.00287 0.993154
1.00029 1.00207 0.992105
0.999987 1.0027 0.992077
1.00012 1.00219 0.992441
0.999757 1.00193 0.993252
1.00009 1.00234 0.992264
0.999651 1.00218 0.993152
1.00015 1.00171 0.992621
1.00044 1.00324 0.990423
1.0002 1.00258 0.991924
1.00011 1.00399 0.990661
1.00095 1.00429 0.98825
1.00103 1.00458 0.988066
0.999946 1.00479 0.990138
1.00063 1.00486 0.988567
0.999889 1.00343 0.991559
0.999766 1.00442 0.99087
0.999441 1.00488 0.990715
0.999751 1.00367 0.991651
0.999868 1.00273 0.992134
1.00008 1.00165 0.992921
1.00002 1.00236 0.992382
1.00014 1.00145 0.99304
1.0002 1.00015 0.994188
1.00019 1.00134 0.993069
1.00024 1.00006 0.994206
1.00002 0.998107 0.997001
1.00025 1.00005 0.9942
1.00009 0.998049 0.996707
0.999941 0.996798 0.998144
1.00014 0.997989 0.996406
0.999987 0.996714 0.998657
0.999995 0.99668 0.999199
1.00024 1.00149 0.992666
1.00018 0.999959 0.994231
1.00017 1.00137 0.993113
1.00016 0.997693 0.996683
1.00015 0.999805 0.994534
1.00009 1.00124 0.993192
1.00003 0.996404 0.999281
1.00016 0.997617 0.996771
1.00012 0.999701 0.994774
1.00003 0.996378 0.999289
1.00015 0.9976 0.996797
1.00002 0.996414 0.999286
0.994881 0.996138 0.936577
0.99491 0.996788 0.916439
0.999881 0.995975 0.925552
1.00037 1.00226 0.991813
0.994627 0.998514 0.938375
0.995325 1.00019 0.921219
0.995327 0.998442 0.905738
0.998355 0.997309 0.980375
0.999707 0.997589 0.955583
0.99844 0.998718 0.916808
0.994735 0.999644 0.901082
0.995768 0.998716 0.973976
0.997533 0.999119 0.955401
0.997374 0.999903 0.922968
0.994742 0.998208 0.907687
0.994945 0.998849 0.970213
0.995403 1.00067 0.954684
0.994846 0.999934 0.926849
0.994796 0.99708 0.913177
1.00021 1.00357 0.990784
1.0001 1.00339 0.991177
1.00009 1.00283 0.991848
1.00034 1.00274 0.991358
1.00033 1.00282 0.991377
1.0002 1.00262 0.991845
1.00032 1.00226 0.992055
1.00024 1.0022 0.992271
1.00054 0.999272 0.994101
1.00189 0.997511 0.993456
0.999997 1.00399 0.99075
1.00073 1.00354 0.990444
1.00001 1.00514 0.99007
0.999879 1.00471 0.990314
1.00001 1.00442 0.9903
0.998544 0.998051 0.995886
0.999877 1.00509 0.989928
0.999925 1.00374 0.991124
0.998696 0.998497 0.99886
0.999998 1.00411 0.990508
0.997128 0.998674 0.995937
0.99703 0.999871 1.00103
0.999679 1.00474 0.990603
0.999972 1.00497 0.990046
0.994443 0.995616 0.959951
0.994708 0.997783 0.939059
0.994808 0.997342 0.916682
0.998 1.0024 0.996215
0.99631 1.0031 0.997453
0.995127 0.996314 0.938135
0.995692 1 0.956762
0.994848 0.999031 0.978114
0.99492 0.999963 0.926309
0.994649 0.99801 0.935148
0.994759 0.997554 0.916279
0.996737 1.0031 0.997925
0.994444 0.995083 0.956119
0.994544 0.996955 0.94281
0.994933 1.00256 0.997403
0.994761 0.998245 0.907846
0.995175 0.999411 0.954603
0.995211 1 0.928995
0.995762 1.00368 0.998554
0.994353 0.994776 0.961536
0.994625 0.998567 0.938626
0.994755 0.999257 0.903726
0.995725 0.999944 0.925982
0.995151 0.998985 0.988115
0.995879 1.00102 0.94734
0.998888 1.00092 0.995756
0.996742 1.00336 0.99766
0.995605 1.0037 1.00013
1.00026 1.0023 0.991836
0.999276 1.0034 0.99265
0.997967 1.00341 0.994661
0.999352 1.00278 0.993124
0.997148 1.0036 0.996065
0.997792 1.00391 0.995022
0.999887 1.00194 0.993177
1.00005 1.00228 0.992283
0.999807 1.00231 0.993091
0.999355 1.00413 0.991343
0.999677 1.00204 0.993112
1.00025 1.0031 0.990786
1.00111 1.0044 0.988295
1.00279 1.00341 0.9862
1.00043 1.00391 0.990509
1.00114 1.00439 0.988014
1.0018 1.00365 0.988319
1.00006 1.00496 0.989271
1.00107 1.00447 0.988284
0.999783 1.00425 0.990854
0.999995 1.00476 0.990114
1.00049 1.00481 0.988701
1.00003 1.00208 0.992561
0.999858 1.00341 0.991537
0.999717 1.00449 0.990785
0.999901 1.00269 0.99222
1.0001 1.00164 0.992912
1.00015 1.00031 0.994121
1.00016 1.00144 0.993038
1.0002 1.00015 0.994188
0.999974 0.998229 0.99648
1.00025 1.00006 0.994205
1.00005 0.998103 0.996474
0.999813 0.996902 0.999223
1.0001 0.998024 0.996438
0.999925 0.996805 0.998671
0.999948 0.996755 0.999204
1.00028 1.00159 0.992498
1.00023 1.00015 0.99394
1.00025 1.00151 0.992749
1.00016 0.997826 0.996552
1.00019 0.999971 0.994196
1.00018 1.00138 0.993112
1.00001 0.996495 0.999258
1.00016 0.997693 0.99669
1.00014 0.999817 0.99442
1.00003 0.996394 0.999284
1.00016 0.997617 0.996775
1.00003 0.996383 0.999289
0.994469 0.995253 0.956796
0.994877 0.997318 0.936368
0.994915 0.997553 0.916583
1.00035 1.00227 0.991881
1.00035 1.00219 0.991882
1.00038 1.00256 0.991571
0.994609 0.997012 0.937929
0.994616 0.99819 0.938252
0.995463 1.00062 0.92071
0.99532 0.998305 0.976369
0.998483 0.999874 0.947949
0.995221 0.999905 0.930073
0.994761 0.998567 0.904862
0.995163 0.99829 0.9733
0.996398 1.00002 0.952701
0.994798 0.999976 0.928378
0.99477 0.997263 0.91457
0.994891 0.998704 0.969364
0.99563 1.00003 0.956152
0.99487 1 0.926205
0.994735 0.998444 0.911778
1.00034 1.00323 0.990878
1.00022 1.00353 0.990792
1.00012 1.00342 0.991104
1.00035 1.00276 0.991339
1.00032 1.00279 0.99148
1.00035 1.00224 0.992073
0.998348 0.998593 0.99633
0.998494 0.998276 0.99887
1.00005 1.00437 0.990353
1.00035 1.00303 0.991184
0.999924 1.00511 0.98992
1.00009 1.00413 0.990379
0.999828 1.00493 0.990048
0.997041 0.998197 0.996305
0.999646 1.00433 0.991188
0.996737 1.00047 1.00064
1.00001 1.00412 0.99081
0.995679 0.997928 0.99679
0.997013 1.00277 0.997738
0.999191 1.00508 0.991444
0.994313 0.995557 0.96673
0.994389 0.995531 0.961719
0.994679 0.998098 0.939715
0.996956 1.00306 0.99779
0.995342 1.00239 0.995007
0.994461 0.995227 0.956044
0.995031 0.999371 0.958769
0.994877 0.999987 0.922858
0.9945 0.996793 0.947317
0.994773 0.998626 0.90512
0.995644 1.00412 0.998858
0.994326 0.994723 0.963187
0.994613 0.998163 0.938512
0.994937 0.999275 0.983888
0.994749 0.99946 0.899686
0.99482 0.999967 0.927504
0.995532 1.00081 0.955059
0.99493 1.00335 0.999022
0.994465 0.994867 0.957334
0.995194 1.00004 0.922282
0.99466 0.998118 0.903549
0.996057 0.998906 0.919826
0.996185 1 0.95498
0.995722 1.00017 0.977659
0.997004 1.00367 0.997175
0.995752 1.00278 1.00013
0.996487 1.00323 0.998497
0.999426 1.00268 0.993095
0.997082 1.00335 0.995994
0.997283 1.0042 0.995264
0.999211 1.00314 0.993352
0.999969 1.00244 0.993031
1.00012 1.00394 0.990955
1.00096 1.00493 0.98799
1.00004 1.00298 0.991155
1.00122 1.00437 0.988127
1.00303 1.00441 0.985437
1.00443 1.00259 0.984116
1.00235 1.00312 0.986938
1.00278 1.00369 0.986043
1.00133 1.00446 0.987779
1.00136 1.00375 0.988947
1.00151 1.00336 0.988809
0.999875 1.00488 0.989779
1.00016 1.00496 0.989377
1.00111 1.00437 0.988506
0.999953 1.00298 0.991788
0.999879 1.00415 0.990864
1.00003 1.00473 0.990089
1.00008 1.0006 0.99394
1.00006 1.00207 0.992549
0.999828 1.00339 0.991515
1.00012 1.00164 0.992903
1.00015 1.00031 0.99412
0.999888 0.99841 0.996448
1.00021 1.00014 0.994188
0.999977 0.998225 0.996478
0.999746 0.99706 0.999216
1.00005 0.998091 0.996471
0.999843 0.996926 0.998686
0.999886 0.996849 0.99921
1.00034 1.00163 0.992493
1.00029 1.0003 0.993879
1.0003 1.00159 0.992543
1.00015 0.997995 0.9964
1.00024 1.00015 0.994015
1.00026 1.00152 0.992833
0.999977 0.996633 0.999228
1.00016 0.997822 0.996561
1.00019 0.99998 0.99416
1.00001 0.996474 0.999266
1.00016 0.997693 0.996696
1.00003 0.996387 0.999287
0.994371 0.994717 0.961277
0.994439 0.994857 0.956719
0.994883 0.997508 0.936261
1.00026 1.00231 0.991889
1.00018 1.00284 0.99164
1.00031 1.00228 0.991949
1.00032 1.00222 0.99189
1.00034 1.0026 0.991542
1.00027 1.00251 0.991758
1.00046 1.00263 0.991386
0.994574 0.997864 0.934979
0.994566 0.997051 0.942477
0.994604 0.997717 0.93813
0.994754 0.997397 0.915957
0.994851 0.998692 0.970534
0.995336 1.00003 0.951638
0.994841 0.999967 0.931335
0.99496 0.99888 0.968726
0.995108 1.00004 0.950362
0.995062 0.999981 0.930162
0.994732 0.998221 0.916055
0.995808 0.997216 0.972613
0.995074 1.00054 0.949409
0.994798 0.999929 0.92269
0.994742 0.999543 0.904292
0.999986 1.0033 0.991455
1.00033 1.00323 0.990882
1.00022 1.00351 0.990799
1.00037 1.00277 0.991321
0.997108 0.998169 0.996678
0.996657 1.00094 1.00026
1.0001 1.00419 0.990249
0.999879 1.00488 0.99005
0.999774 1.00394 0.991778
0.999902 1.00404 0.990827
0.999089 1.00515 0.991418
0.995597 0.998964 0.994295
0.996586 1.00355 0.998063
0.998737 1.00437 0.992488
0.995412 0.999125 0.992825
0.997638 1.00486 0.995986
0.994427 0.995149 0.960573
0.994253 0.995131 0.968919
0.994326 0.995251 0.963484
0.995393 1.00457 0.999098
0.995119 0.997952 0.989092
0.9943 0.994633 0.964856
0.996664 1.00104 0.947886
0.995177 0.999963 0.930295
0.9946 0.997769 0.938393
0.994717 0.999623 0.901453
0.995077 1.00197 0.999394
0.994404 0.994748 0.957274
0.995421 0.999988 0.921761
0.994897 1.00083 0.97953
0.994655 0.998071 0.895696
0.997353 0.999895 0.922652
0.994975 1.00001 0.949768
0.995405 1.00374 0.993996
0.994995 0.995584 0.937486
0.995176 0.997689 0.906254
0.998629 0.997439 0.925126
0.995601 0.999971 0.955621
0.994895 0.999484 0.972521
0.996048 1.00161 1.00002
0.996017 1.00396 0.998492
0.998435 0.999833 0.998205
0.996813 1.00443 0.995506
0.998356 1.00336 0.993761
1.00257 1.00045 0.989919
1.00089 1.00374 0.990564
1.00126 1.0049 0.987848
1.00273 1.00327 0.985798
1.00133 1.00438 0.987961
1.00298 1.00448 0.985225
1.00419 1.0028 0.984242
1.00505 1.00094 0.984427
1.0046 1.00277 0.984305
1.00459 1.00258 0.983859
1.00191 1.00323 0.987594
1.00234 1.00318 0.987198
1.00277 1.00401 0.985885
1.00092 1.00446 0.988777
1.00126 1.00369 0.98896
1.00121 1.0031 0.989295
1.00001 1.00402 0.990644
0.999937 1.00482 0.989895
1.00029 1.00497 0.989485
0.999989 1.00124 0.993432
1.00003 1.00289 0.991784
0.999966 1.00404 0.990873
0.999799 0.998624 0.996389
1.00008 1.00062 0.993928
1.0001 1.00206 0.992537
1.00016 1.00031 0.994118
0.99989 0.998417 0.996444
0.999653 0.997248 0.999208
0.999981 0.998221 0.996477
0.999736 0.997093 0.999214
0.999812 0.996962 0.999216
1.00026 1.00241 0.991864
1.00038 1.00171 0.992374
1.00032 1.00046 0.99366
1.00034 1.00165 0.992483
1.00012 0.998203 0.996239
1.00028 1.00032 0.993877
1.00029 1.00162 0.992589
0.999932 0.996806 0.999191
1.00014 0.997994 0.99641
1.00024 1.00016 0.994091
0.999983 0.996602 0.999237
1.00015 0.99782 0.99657
1.00002 0.996448 0.999273
0.994387 0.994644 0.956291
0.99434 0.994707 0.962967
0.994408 0.994822 0.956637
1.00031 1.00226 0.991913
1.00013 1.00288 0.991601
1.00005 1.00321 0.991379
1.00013 1.00276 0.991636
1.00016 1.00326 0.991303
1.00031 1.00225 0.991897
1.0003 1.00264 0.991513
1.00027 1.00251 0.991754
1.00041 1.00265 0.991406
1.00014 1.00277 0.991813
0.995035 0.99975 0.921992
0.994602 0.998039 0.934878
0.994524 0.997124 0.947022
0.994765 0.998 0.916142
0.994875 0.999986 0.923409
0.994898 0.99906 0.967368
0.994965 1.00023 0.955692
0.995078 0.997501 0.969304
0.995414 1.00031 0.955729
0.994897 0.999959 0.928298
0.994947 0.999411 0.902113
0.995349 0.995487 0.974015
0.994966 1.00039 0.956536
0.99555 0.999888 0.929642
0.994949 0.998177 0.90242
0.99906 1.00242 0.993834
0.999967 1.00339 0.991505
1.00031 1.00326 0.990885
0.995437 0.999568 0.991768
0.996123 1.0042 0.998347
0.999869 1.004 0.990844
0.998721 1.00524 0.991391
0.998748 1.00437 0.992529
0.997109 1.0045 0.995912
0.995073 0.999497 0.993094
0.996933 1.00325 0.996568
0.995887 1.0009 0.992564
0.994742 0.997364 0.938465
0.994327 0.995152 0.962276
0.994173 0.994835 0.97111
0.995185 1.00075 0.999828
0.994905 1.00077 0.975145
0.994346 0.994755 0.957203
0.996972 1.00024 0.952744
0.995222 0.999914 0.929724
0.995571 1.00036 0.921257
0.994671 0.998144 0.887804
0.995438 1.00372 0.994337
0.994974 0.996673 0.937268
0.995279 0.99809 0.903923
0.994901 0.999485 0.973637
0.998579 0.998755 0.925303
0.996335 0.999986 0.951753
0.996314 1.00073 0.992069
0.994965 0.996318 0.914569
0.999253 0.997398 0.927859
0.997886 0.998519 0.949888
0.994837 0.998209 0.974759
0.995649 1.00458 0.998465
0.998291 0.999929 0.998158
1.00296 0.998245 0.993004
0.997564 1.00344 0.994131
1.00162 1.00088 0.990427
1.00385 0.998482 0.988403
1.00158 1.00482 0.987704
1.0028 1.00338 0.985856
1.00441 1.0003 0.986088
1.00294 1.00452 0.985014
1.00412 1.00269 0.984322
1.00503 0.999733 0.985652
1.0051 0.999379 0.985922
1.00508 1.00148 0.983944
1.00505 1.00088 0.984481
1.00392 1.00276 0.985164
1.00436 1.00269 0.984167
1.00475 1.00256 0.983602
1.00164 1.00385 0.987952
1.00183 1.00321 0.987914
1.00232 1.00326 0.987459
1.0006 1.00409 0.989554
1.00079 1.00443 0.98888
1.00115 1.00363 0.988971
0.999946 1.00231 0.992409
1.00009 1.00393 0.990652
1 1.00477 0.99001
0.999702 0.99897 0.996739
1.00001 1.00126 0.993408
1.0001 1.0028 0.99178
0.999571 0.997492 0.998101
0.999797 0.998668 0.996632
1.00008 1.00064 0.993917
0.999891 0.998425 0.996441
0.999644 0.99729 0.999203
0.999726 0.997125 0.999212
1.00019 1.00277 0.991584
1.00036 1.00191 0.992208
1.00023 1.00247 0.991831
1.00032 1.00063 0.993497
1.00035 1.00175 0.992369
1.00007 0.998415 0.996099
1.00031 1.00047 0.993659
1.00036 1.00164 0.992473
0.999876 0.997014 0.999152
1.00012 0.998199 0.996248
1.00028 1.00033 0.993874
0.999939 0.996771 0.999202
1.00014 0.997993 0.996419
0.999989 0.996573 0.999246
0.995202 0.995582 0.93952
0.994411 0.994782 0.956223
0.994318 0.994697 0.964664
1.00015 1.00311 0.991375
1.00031 1.00228 0.991937
1.0001 1.00293 0.991561
1.00018 1.00277 0.991669
1.00013 1.00314 0.991424
1.0001 1.00326 0.991308
1.0001 1.00361 0.990961
0.999966 1.00334 0.991245
1.0003 1.00247 0.99175
1.00035 1.00266 0.991427
1.0001 1.00282 0.99176
0.999503 1.00322 0.992779
0.995137 0.998803 0.904716
0.995348 0.999885 0.92138
0.994627 0.998217 0.93478
0.995162 0.999266 0.90587
0.994907 0.999935 0.927911
0.995006 1.00056 0.949527
0.995811 0.997506 0.967084
0.995443 0.995516 0.975824
0.99477 0.998161 0.894921
0.995284 1.00002 0.952684
0.997299 0.999896 0.922524
0.995118 0.99663 0.976743
0.995658 1.00003 0.95727
0.999127 0.997635 0.922549
0.998969 1.00103 0.995506
0.99925 1.00234 0.993804
0.999929 1.00347 0.991554
0.994901 0.999557 0.993339
0.996915 1.00405 0.99584
0.998837 1.00424 0.992568
0.997995 1.00289 0.996335
0.995552 1.00114 0.992703
0.997376 1.00087 0.993676
0.994824 0.99909 0.913271
0.994737 0.996319 0.942816
0.994196 0.994959 0.963979
0.995353 1.00442 0.994706
0.994905 0.999316 0.974308
0.994911 0.99703 0.93713
0.995278 1.00001 0.950951
0.998634 0.997421 0.918054
0.995498 0.998031 0.906579
0.996439 1.00111 0.992097
0.995019 0.996354 0.917339
0.999839 0.996573 0.921595
0.994857 0.998329 0.970789
0.997518 0.998617 0.956299
0.998123 0.999021 0.994045
0.999853 0.995775 0.921445
0.999433 0.997815 0.955806
0.994885 0.997715 0.970284
0.998086 1.00021 0.998175
1.00219 0.997595 0.993641
1.00396 0.998013 0.990314
1.00074 1.00129 0.990938
1.00363 0.999094 0.988317
1.00478 0.997553 0.987986
1.00285 1.00348 0.985914
1.00423 1.00046 0.986084
1.00494 0.997942 0.987605
1.00403 1.0026 0.984399
1.00503 0.999663 0.985642
1.0051 0.997668 0.987606
1.00515 0.998031 0.987189
1.00512 1.00022 0.985129
1.0051 0.999315 0.98595
1.00493 1.00119 0.984501
1.00499 1.0014 0.984124
1.00505 1.00082 0.984533
1.00284 1.00324 0.986325
1.00357 1.00274 0.985344
1.00412 1.00259 0.984028
1.00143 1.00352 0.988637
1.00171 1.0038 0.987922
1.00177 1.00316 0.988234
1.00025 1.00302 0.991224
1.00064 1.00407 0.989565
1.00067 1.00439 0.988984
0.999644 0.999522 0.995713
1.00004 1.00222 0.992389
1.00017 1.00383 0.990658
0.999454 0.997735 0.999173
0.999699 0.999045 0.996159
1.00003 1.00127 0.993384
0.999559 0.997489 0.999187
0.999791 0.998697 0.996356
0.999637 0.997335 0.999198
1.0003 1.00286 0.991392
1.00022 1.00276 0.991571
1.00033 1.00222 0.991944
1.00028 1.00085 0.993353
1.00032 1.00194 0.992209
1.00023 1.00249 0.991797
1.00002 0.998614 0.996007
1.00031 1.00064 0.993498
1.00033 1.00178 0.992365
0.999811 0.997219 0.999119
1.00007 0.998409 0.996106
1.00031 1.00049 0.993657
0.999882 0.99697 0.999164
1.00011 0.998195 0.996257
0.999946 0.996732 0.999213
0.995179 0.998209 0.907402
0.995098 0.995722 0.939327
0.994434 0.994929 0.956153
1.00004 1.00326 0.991333
1.00042 1.00336 0.990938
1.00002 1.00363 0.991032
1.0002 1.00278 0.991703
1.0002 1.00306 0.991468
1 1.0033 0.991313
1.00006 1.00332 0.991229
1.00006 1.00364 0.990958
0.999985 1.00411 0.990718
1.00005 1.00142 0.992947
1.00016 1.00275 0.991707
0.999559 1.00295 0.992658
0.99983 0.996675 0.91884
0.995106 0.998805 0.900734
0.995591 1.00008 0.920798
0.994666 0.998157 0.887366
0.996566 0.998745 0.929174
0.995043 1.00003 0.952929
0.995585 0.995293 0.9734
0.994945 0.996981 0.97504
0.998552 0.998658 0.924387
0.996327 1 0.951285
0.995426 0.998217 0.975853
0.999125 0.998158 0.949524
1.00187 0.998897 0.992911
0.9992 1.00096 0.995264
0.999391 1.00224 0.993788
0.994972 1.0016 0.992812
0.998731 1.00261 0.996093
0.997798 1.00107 0.993081
1.00051 0.998832 0.989999
0.999916 0.99485 0.926592
0.994853 0.998247 0.914905
0.994715 0.995667 0.947093
0.996575 1.00125 0.992226
0.99487 0.998389 0.969548
0.995115 0.996997 0.917466
0.998186 0.998017 0.949213
0.999855 0.997236 0.928717
0.997951 0.999014 0.992196
0.999901 0.99549 0.925204
1.00129 0.996902 0.948172
0.994918 0.997352 0.973417
0.99919 0.996267 0.99375
1.00006 0.996353 0.954984
0.995813 0.998102 0.975773
1.00144 0.996877 0.994251
1.00384 0.997307 0.990283
1.00501 0.996674 0.989283
1.00328 0.999722 0.988233
1.00459 0.99764 0.987976
1.00482 0.996656 0.988843
1.00409 1.00063 0.986081
1.00482 0.998034 0.987565
1.00507 0.996061 0.989103
1.00503 0.999597 0.985633
1.0051 0.997623 0.987604
1.00513 0.9964 0.988842
1.00513 0.997254 0.988157
1.00515 0.997886 0.98735
1.00516 0.998898 0.986482
1.00516 1.00029 0.985138
1.00512 1.00024 0.98513
1.0051 0.999251 0.985978
1.00428 1.0016 0.985208
1.00483 1.00122 0.984578
1.00492 1.0013 0.984303
1.00225 1.00328 0.987427
1.00291 1.00321 0.986304
1.00322 1.00276 0.985523
1.00076 1.00295 0.99037
1.00152 1.00347 0.988615
1.00176 1.00377 0.987893
0.999696 1.00026 0.994869
1.00033 1.00289 0.991225
1.00071 1.00401 0.989575
0.999454 0.997988 0.999079
0.999642 0.999619 0.99567
1.00012 1.00215 0.99237
0.999486 0.997759 0.998596
0.999694 0.999097 0.996139
0.999558 0.997559 0.999175
1.00042 1.00292 0.991124
1.00019 1.00294 0.9914
1.00024 1.00265 0.991627
1.00026 1.00276 0.991557
1.00028 1.00227 0.991944
1.00022 1.00115 0.993142
0.999933 0.998815 0.995957
1.00027 1.00084 0.993358
1.00027 1.002 0.99221
0.99974 0.997407 0.999097
1.00001 0.998608 0.996012
1.00031 1.00064 0.993499
0.999818 0.997184 0.999129
1.00007 0.998408 0.996113
0.99989 0.996928 0.999176
0.999886 0.995194 0.926652
0.995164 0.998377 0.908333
0.995075 0.995825 0.93912
0.999947 1.00343 0.991291
0.999961 1.00385 0.990893
1.00024 1.00334 0.991121
1.00106 1.00345 0.98964
0.999974 1.00429 0.990564
1.00012 1.00334 0.991213
1.00005 1.00365 0.990956
0.999911 1.00396 0.990864
1.00013 1.00382 0.989852
1.00067 1.00135 0.992199
1.00403 0.999479 0.988023
0.999839 1.00156 0.99328
0.999728 1.00263 0.992534
1.00032 0.997033 0.954374
0.99981 0.996896 0.921638
0.995083 0.998601 0.901893
0.999011 0.998435 0.916692
0.995745 0.999976 0.954412
0.995113 0.996897 0.977131
0.995139 0.998114 0.977924
0.997454 0.998446 0.957483
0.996491 0.998566 0.976482
1.00382 0.996563 0.991265
1.00143 0.999102 0.992959
0.999443 1.00093 0.995011
0.998286 1.00108 0.992539
1.00144 0.999465 0.988633
1.00011 0.995066 0.951857
0.999917 0.994889 0.929593
0.994928 0.997102 0.916624
0.997677 0.99911 0.990324
0.99484 0.99718 0.970566
0.999878 0.995819 0.926109
0.999824 0.997798 0.955741
0.998778 0.99765 0.9941
1.0014 0.996032 0.95437
0.996005 0.997825 0.972621
1.00084 0.998016 0.992045
0.999317 0.996548 0.980676
1.00369 0.996544 0.990285
1.00501 0.996144 0.989183
1.00504 0.995499 0.989975
1.00444 0.99778 0.987966
1.00475 0.996663 0.988824
1.00507 0.995221 0.989958
1.00468 0.998121 0.987525
1.00506 0.996096 0.989083
1.00513 0.995256 0.98987
1.00511 0.997581 0.987601
1.00513 0.996411 0.988803
1.00511 0.996334 0.989144
1.00514 0.997064 0.988279
1.00515 0.997998 0.987415
1.00514 0.99774 0.987511
1.00516 0.998911 0.986467
1.00516 0.999503 0.98591
1.00497 1.00024 0.985436
1.00515 1.00033 0.985116
1.00513 1.00025 0.985132
1.00346 1.00214 0.986455
1.00432 1.00163 0.985174
1.00471 1.00124 0.984656
1.0013 1.00277 0.989532
1.00231 1.00323 0.987399
1.003 1.00318 0.986282
0.999904 1.00078 0.993957
1.00081 1.0029 0.990367
1.00156 1.00347 0.988593
0.999497 0.998365 0.998903
0.999723 1.00029 0.99484
1.00043 1.00276 0.991227
0.999488 0.998053 0.99903
0.999644 0.999708 0.995625
0.999514 0.997795 0.999119
1.00114 1.00305 0.989679
1.00045 1.00283 0.991114
1.0003 1.00293 0.991162
1.0001 1.003 0.991409
1.00021 1.00271 0.991574
1.00018 1.00162 0.992737
1.00025 1.0023 0.991944
1.00021 1.00115 0.99315
0.999837 0.999055 0.995894
0.999666 0.997577 0.999084
0.999935 0.998799 0.995962
1.00026 1.00084 0.993364
0.999746 0.997383 0.999103
1.00001 0.998605 0.996018
0.999825 0.997142 0.999138
1.00088 0.995011 0.957688
0.99991 0.995802 0.925215
0.995062 0.998721 0.906126
0.999901 1.00407 0.990754
1.00009 1.00326 0.991305
1.00003 1.00425 0.990617
1.00096 1.0034 0.989736
1.00172 1.00402 0.987851
1.00028 1.00401 0.989883
0.999831 1.00384 0.991008
1.00052 1.00388 0.989511
1.00054 1.00175 0.991985
1.00209 1.00119 0.989023
1.00406 0.999068 0.989022
1.00461 0.997483 0.988514
1.00351 0.999364 0.988731
0.999461 1.00192 0.993616
0.995705 0.997981 0.975621
1.00054 0.996281 0.952912
0.99917 0.997159 0.928489
0.99872 0.998888 0.949485
0.994868 0.998248 0.979178
0.996661 0.998509 0.98094
1.00064 0.998251 0.992252
1.00382 0.996336 0.991557
1.00127 0.999228 0.993008
1.00268 1.0002 0.987207
0.997601 0.996738 0.976895
1.00055 0.995122 0.959471
0.999879 0.994945 0.923085
0.998512 0.998484 0.994354
0.995956 0.99725 0.974761
1.00078 0.996314 0.953565
1.00084 0.998072 0.992179
0.998666 0.996802 0.979703
1.00347 0.997474 0.991006
1.00372 0.996914 0.989156
1.00498 0.995679 0.989061
1.00503 0.995428 0.989917
1.0051 0.994822 0.990488
1.00469 0.996665 0.988806
1.00506 0.995236 0.989924
1.00507 0.995024 0.990349
1.00505 0.996137 0.989062
1.00513 0.995352 0.98984
1.00512 0.995809 0.989677
1.00513 0.99642 0.988764
1.00511 0.996325 0.989047
1.00514 0.997224 0.988127
1.00514 0.996878 0.988401
1.00515 0.997875 0.987571
1.00517 0.998997 0.986458
1.00516 0.998928 0.986452
1.00516 0.999561 0.98588
1.00501 0.99976 0.985992
1.00434 1.00049 0.986269
1.00499 1.00031 0.98544
1.00515 1.00039 0.985095
1.0022 1.00211 0.988625
1.00341 1.00211 0.986471
1.00437 1.00166 0.98514
1.00009 1.00125 0.993126
1.00134 1.00279 0.989514
1.00236 1.00318 0.98737
0.999592 0.998824 0.998642
0.99996 1.00076 0.993947
1.00087 1.00285 0.990362
0.999553 0.998465 0.998813
0.999744 1.00034 0.994812
0.999534 0.99812 0.998969
1.0017 1.00363 0.988103
1.0012 1.00305 0.989711
1.0008 1.00302 0.990251
1.00044 1.00279 0.991104
1.00035 1.00293 0.991077
1.00028 1.00206 0.992139
1.00018 1.00278 0.991521
1.00017 1.00162 0.992745
0.999748 0.999401 0.995708
1.0002 1.00114 0.993159
0.999845 0.999016 0.995905
0.999603 0.997741 0.999066
0.999672 0.99756 0.999088
0.999937 0.998785 0.995968
0.999751 0.997353 0.99911
0.996746 0.996807 0.977347
1.00076 0.99524 0.950793
0.999873 0.994929 0.930047
1.00345 1.00268 0.98612
1.00009 1.00421 0.990669
1.00086 1.00336 0.989833
1.00045 1.00406 0.989747
1.00161 1.00407 0.987807
1.00205 1.00189 0.988889
1.00089 1.00392 0.989172
1.00044 1.0021 0.991773
1.00232 1.00115 0.989173
1.00406 0.998932 0.988678
1.00477 0.998169 0.987488
1.00422 0.996337 0.990551
1.00451 0.997543 0.988187
1.00293 0.999157 0.98944
0.999962 0.99851 0.993728
0.996129 0.998113 0.973952
1.00032 0.996392 0.951929
0.996793 0.998163 0.978748
1.00066 0.99731 0.99436
1.00333 0.996185 0.991831
1.00168 0.996235 0.989247
0.996961 0.995805 0.978905
1.00012 0.99499 0.95203
1.00059 0.998574 0.992345
0.998733 0.996984 0.978419
1.00329 0.99695 0.991247
1.00364 0.996498 0.989324
1.00487 0.994921 0.990952
1.00469 0.996752 0.990784
1.00506 0.995328 0.989864
1.00509 0.994861 0.990406
1.00508 0.994875 0.99044
1.00504 0.995251 0.989889
1.00506 0.99501 0.990345
1.00511 0.995409 0.989995
1.00514 0.995443 0.989811
1.00513 0.99578 0.989613
1.00512 0.99683 0.988573
1.00511 0.996316 0.988949
1.00513 0.997239 0.988129
1.00518 0.99847 0.986881
1.00515 0.997751 0.987728
1.00517 0.998904 0.986561
1.00506 0.999503 0.98609
1.00516 0.999614 0.98585
1.00502 0.999772 0.985908
1.00452 0.99998 0.986588
1.00305 1.00093 0.988285
1.00427 1.00056 0.986352
1.005 1.00038 0.985444
1.00049 1.0013 0.99238
1.00218 1.00213 0.988632
1.00336 1.00209 0.986486
0.999628 0.999316 0.998387
1.00024 1.0011 0.993105
1.00138 1.00279 0.989498
0.999635 0.998915 0.99855
1.00003 1.00073 0.993936
0.999613 0.998546 0.998716
1.00295 1.00296 0.986354
1.00167 1.00365 0.988133
1.00144 1.00327 0.989019
1.00126 1.00305 0.989743
1.00083 1.00299 0.990267
1.00044 1.00249 0.991462
1.0004 1.00292 0.990992
1.0002 1.00218 0.992137
0.999706 0.999881 0.995298
1.00014 1.00164 0.992752
0.999761 0.999335 0.995729
0.999565 0.997936 0.999011
0.999854 0.998979 0.995915
0.999604 0.997721 0.999074
0.999676 0.997543 0.999092
1.00097 0.997132 0.991988
0.997132 0.996208 0.973705
1.00011 0.995123 0.958553
1.00335 1.00089 0.987234
1.00497 0.999148 0.98651
1.00329 1.0024 0.986297
1.0006 1.00412 0.98961
1.0015 1.00409 0.987752
1.00234 1.00181 0.988685
1.00498 0.998407 0.987563
1.00255 1.00113 0.989321
1.00398 0.998802 0.98833
1.00471 0.998185 0.987734
1.00503 0.997064 0.98835
1.00447 0.995624 0.990665
1.0043 0.996403 0.990207
1.00461 0.997551 0.987862
1.0001 0.998651 0.993849
0.996089 0.998225 0.971849
1.00081 0.996682 0.996503
1.00448 0.995229 0.991981
1.0014 0.996594 0.989395
0.9973 0.995235 0.97629
1.00332 0.996566 0.991465
1.00358 0.996585 0.989514
1.00488 0.994984 0.991122
1.00476 0.996065 0.990647
1.0051 0.994939 0.990303
1.00509 0.995071 0.990346
1.00507 0.994935 0.990322
1.00507 0.994886 0.990436
1.00516 0.995247 0.989971
1.00506 0.994986 0.990342
1.00511 0.995462 0.98989
1.00512 0.996341 0.988998
1.00513 0.995755 0.989548
1.00512 0.996843 0.988577
1.00518 0.998146 0.987224
1.00513 0.997255 0.988132
1.00517 0.998474 0.986898
1.0051 0.999352 0.98616
1.00517 0.998808 0.986665
1.00506 0.999481 0.986105
1.00461 0.999875 0.986548
1.00503 0.999792 0.985824
1.0045 0.999988 0.986536
1.00338 1.00025 0.988368
1.0009 1.00088 0.992017
1.00302 1.00096 0.988292
1.00421 1.00063 0.986435
0.999652 0.999839 0.99815
1.00057 1.00123 0.992357
1.00215 1.00219 0.988639
0.99967 0.99944 0.9983
1.00036 1.00101 0.993081
0.999678 0.999011 0.998462
1.00441 1.00054 0.985927
1.00296 1.00284 0.986306
1.00239 1.00302 0.987429
1.00164 1.00365 0.988162
1.00136 1.00328 0.989053
1.00078 1.00282 0.990585
1.00086 1.00296 0.990283
1.00037 1.00258 0.991464
0.99979 1.0004 0.994652
1.00014 1.00227 0.992137
0.999715 0.999815 0.995321
0.999557 0.998233 0.998881
0.999774 0.999274 0.99575
0.999556 0.997905 0.999034
0.999606 0.997708 0.99908
1.00461 0.995059 0.991346
1.00107 0.996702 0.990713
0.996536 0.995703 0.974291
1.00509 0.998224 0.987258
1.00334 1.00042 0.98779
1.00515 0.998539 0.986879
1.00496 0.999331 0.986477
1.00312 1.00215 0.986487
1.00509 0.997583 0.987699
1.00262 1.00169 0.98849
1.00498 0.998434 0.987337
1.00514 0.996269 0.98881
1.00467 0.998248 0.987983
1.00496 0.997146 0.988306
1.00451 0.995722 0.990778
1.00422 0.996548 0.989851
1.00006 0.998758 0.993975
1.0051 0.995132 0.990011
1.00449 0.995719 0.992033
1.00115 0.996666 0.989519
1.00489 0.994992 0.9913
1.00478 0.99534 0.990515
1.0051 0.994937 0.990356
1.00511 0.994994 0.990315
1.00517 0.995077 0.99019
1.00506 0.994898 0.990432
1.00516 0.995248 0.989989
1.00517 0.996064 0.989254
1.00511 0.995521 0.989786
1.00512 0.996433 0.988907
1.00516 0.997926 0.987474
1.00512 0.996855 0.988582
1.00517 0.998157 0.987231
1.00514 0.999216 0.986245
1.00517 0.998477 0.986914
1.0051 0.999348 0.986178
1.00469 0.999822 0.986444
1.00506 0.999459 0.98612
1.0046 0.999883 0.986558
1.00349 1.00009 0.988337
1.00449 0.999994 0.986483
1.00338 1.00026 0.988355
1.00103 1.00046 0.993411
0.99988 0.999986 0.99547
1.00095 1.00083 0.99266
1.00298 1.00099 0.988298
0.999716 0.999944 0.998064
1.0007 1.0011 0.99234
0.999717 0.999539 0.998202
1.00519 0.998553 0.986864
1.00501 0.99932 0.986338
1.00445 1.00056 0.985978
1.00358 1.00159 0.986604
1.00298 1.00273 0.98626
1.00235 1.00307 0.987436
1.00144 1.00272 0.989468
1.00129 1.0033 0.989087
1.0007 1.00284 0.990612
1.00002 1.0009 0.993807
1.00029 1.00267 0.991467
0.999757 1.00039 0.994665
0.999553 0.998677 0.998666
0.999723 0.999746 0.995343
0.999535 0.99817 0.998933
0.999552 0.997877 0.999053
1.00515 0.995545 0.989531
1.0048 0.995059 0.991617
1.00142 0.996174 0.98945
1.00512 0.997826 0.987448
1.00498 0.998288 0.987309
1.00338 0.99998 0.988326
1.00515 0.998593 0.986853
1.00495 0.999508 0.986443
1.00511 0.996506 0.989026
1.00508 0.997594 0.987617
1.005 0.998474 0.98711
1.00513 0.996266 0.988831
1.00494 0.997193 0.988261
1.00458 0.995856 0.990911
1.00514 0.995161 0.990299
1.00512 0.995164 0.990138
1.00452 0.996206 0.99209
1.0051 0.994912 0.990404
1.00512 0.994972 0.990284
1.00518 0.995006 0.990224
1.00516 0.996137 0.989313
1.00516 0.99525 0.990007
1.00517 0.996089 0.989216
1.00514 0.997745 0.987724
1.00513 0.996526 0.988816
1.00517 0.997929 0.987473
1.00516 0.999075 0.986367
1.00517 0.998168 0.987238
1.00514 0.999213 0.986257
1.00477 0.999801 0.986322
1.00509 0.999344 0.986196
1.00469 0.999821 0.986452
1.00359 1.00007 0.988181
1.00458 0.999891 0.986567
1.00349 1.00009 0.988331
1.00113 1.00014 0.993585
1.00337 1.00027 0.988343
1.00116 1.00037 0.993377
0.99988 1.00003 0.995583
0.999766 1.00021 0.996696
1.00109 1.00075 0.993197
0.999765 1.00007 0.997987
1.00518 0.998242 0.987183
1.00511 0.999016 0.986575
1.0052 0.998418 0.986919
1.00441 1.00009 0.986614
1.00502 0.999309 0.986321
1.00447 1.00059 0.986029
1.00362 1.0016 0.986575
1.00238 1.00183 0.988565
1.00232 1.00313 0.987444
1.0014 1.00269 0.989487
1.00032 1.00127 0.992892
1.00062 1.00287 0.990638
0.9999 1.00098 0.993826
0.999532 0.999303 0.998394
0.999717 1.00039 0.994677
0.999529 0.998581 0.99875
0.999523 0.998111 0.998977
1.0051 0.995755 0.989594
1.00514 0.995571 0.989523
1.00491 0.995046 0.991856
1.00513 0.997213 0.988234
1.00512 0.997838 0.987454
1.00485 0.998353 0.987363
1.00515 0.998653 0.986826
1.00511 0.996498 0.988898
1.00507 0.997611 0.987535
1.00511 0.996264 0.988851
1.00519 0.996003 0.98943
1.00514 0.995224 0.990174
1.00515 0.995166 0.990265
1.00513 0.996688 0.988708
1.00518 0.994938 0.990257
1.00516 0.996162 0.989253
1.00511 0.997524 0.988132
1.00518 0.996115 0.989178
1.00514 0.99774 0.987727
1.00516 0.998934 0.986525
1.00517 0.997937 0.987473
1.00515 0.999075 0.986377
1.00485 0.99975 0.986242
1.00513 0.99921 0.986269
1.00477 0.999796 0.98633
1.00369 1.00008 0.987995
1.00469 0.999821 0.986459
1.0036 1.00005 0.98818
1.00122 1.00002 0.993564
1.0035 1.00008 0.988324
1.00124 1.00009 0.993519
0.999895 0.999945 0.99567
1.00129 1.00027 0.993351
0.999663 1.00019 0.995701
0.999454 1.00047 0.998145
1.00516 0.998197 0.987175
1.00514 0.998864 0.986644
1.00518 0.998263 0.987097
1.00466 0.999605 0.987003
1.00509 0.998902 0.986602
1.0052 0.998285 0.986973
1.00319 1.00062 0.988266
1.00444 1.00007 0.986599
1.00504 0.999296 0.986305
1.00366 1.00162 0.986546
1.0024 1.00179 0.988559
1.00068 1.00123 0.992233
1.00137 1.00266 0.989508
1.00018 1.00139 0.992924
0.999544 1 0.998122
0.999803 1.00106 0.993843
0.999507 0.999167 0.9985
0.999511 0.998475 0.998824
1.00515 0.99658 0.988735
1.00512 0.995654 0.98963
1.00514 0.995605 0.989516
1.00513 0.99715 0.988277
1.00512 0.997843 0.98746
1.00511 0.996487 0.98877
1.00515 0.996794 0.98871
1.00519 0.99607 0.98935
1.00514 0.995288 0.990049
1.00512 0.996698 0.9888
1.00511 0.997615 0.987929
1.00516 0.996185 0.989194
1.00511 0.997625 0.987945
1.00515 0.998632 0.986889
1.00513 0.99773 0.987729
1.00515 0.998924 0.986534
1.00491 0.999656 0.986224
1.00514 0.999068 0.986386
1.00484 0.999748 0.986253
1.00379 1.00006 0.987815
1.00477 0.99979 0.986339
1.00369 1.00006 0.987999
1.0013 1.00006 0.99339
1.00361 1.00004 0.988179
1.00132 0.999985 0.993474
0.999962 0.999909 0.99561
1.00134 1.00004 0.993463
0.999703 1.00001 0.99581
0.999461 1.00038 0.995801
1.00516 0.997637 0.987828
1.00516 0.998862 0.986537
1.00516 0.998064 0.987312
1.00477 0.999405 0.986856
1.00514 0.99892 0.986588
1.00519 0.998283 0.98701
1.00352 0.999984 0.988344
1.00464 0.999515 0.986884
1.00508 0.998789 0.986629
1.00099 1.00072 0.9921
1.00322 1.00061 0.988266
1.00446 1.00005 0.986584
1.00243 1.00177 0.988553
1.00058 1.00132 0.992249
0.999601 1.0005 0.997959
1.00005 1.0015 0.992953
0.99949 0.999853 0.998224
0.999486 0.999012 0.998597
1.00514 0.996913 0.988503
1.00515 0.996556 0.988774
1.00513 0.995553 0.989666
1.00512 0.99709 0.98832
1.00513 0.997693 0.987846
1.00515 0.996783 0.988735
1.00518 0.996136 0.989269
1.00512 0.99671 0.988892
1.00511 0.997552 0.987983
1.00513 0.998549 0.987061
1.0051 0.997724 0.987758
1.00515 0.998747 0.986755
1.00496 0.999416 0.986349
1.00514 0.998922 0.986542
1.0049 0.999657 0.986234
1.00389 1.00002 0.987658
1.00483 0.99975 0.986263
1.00379 1.00006 0.98782
1.0014 1.00011 0.99197
1.0037 1.00005 0.988003
1.00139 1.00003 0.992701
0.999929 0.99995 0.997949
1.00141 0.999962 0.993386
0.999792 0.999906 0.995763
0.999524 1.00008 0.995932
1.00515 0.997512 0.988022
1.00516 0.998648 0.986811
1.00515 0.997714 0.987781
1.00488 0.99925 0.986545
1.00516 0.998851 0.986593
1.00516 0.997929 0.987449
1.00366 0.999731 0.98805
1.00478 0.999419 0.986858
1.00514 0.998977 0.986533
1.00116 1.00019 0.992285
1.00352 0.999934 0.988229
1.00461 0.99942 0.986766
0.999653 1.00055 0.997959
1.00095 1.00076 0.992104
1.00323 1.0006 0.988265
1.00049 1.00138 0.992278
0.99955 1.00036 0.998007
0.999442 0.999681 0.998329
1.00514 0.997609 0.987893
1.00514 0.996927 0.9885
1.00514 0.996529 0.988813
1.00514 0.998515 0.987014
1.00513 0.997634 0.987898
1.00515 0.996771 0.988761
1.00511 0.997485 0.988038
1.00513 0.998531 0.987067
1.00495 0.999303 0.986701
1.00515 0.998862 0.986621
1.00495 0.999507 0.986393
1.00397 0.999885 0.98741
1.00489 0.999652 0.986245
1.00389 1.00002 0.987661
1.00148 1.00011 0.991829
1.00379 1.00005 0.987823
1.00141 1.00011 0.991964
0.999959 0.999973 0.997906
1.00141 1.00001 0.992087
0.999862 0.999933 0.996826
0.999622 0.999886 0.995913
1.00515 0.997795 0.987708
1.00517 0.99854 0.986855
1.00515 0.997493 0.98803
1.00493 0.999297 0.986524
1.00517 0.99869 0.986733
1.00515 0.997791 0.987734
1.00382 0.999616 0.987875
1.00488 0.999326 0.986641
1.00517 0.998841 0.986649
1.00129 0.999909 0.992329
1.00367 0.999733 0.988026
1.00478 0.999434 0.986861
0.999758 1.00031 0.998001
1.00116 1.00018 0.992289
1.00353 0.999884 0.988114
0.999654 1.00047 0.997943
1.00092 1.00078 0.992107
0.999471 1.00026 0.998078
1.00516 0.998379 0.987156
1.00514 0.997642 0.98784
1.00514 0.996942 0.988497
1.00492 0.999177 0.986868
1.00514 0.998463 0.987085
1.00512 0.997583 0.98795
1.00513 0.998514 0.987072
1.00495 0.999307 0.986698
1.00398 0.999773 0.98751
1.00494 0.999601 0.986437
1.00397 0.999926 0.987489
1.00155 1.00007 0.991738
1.00389 1.00001 0.987665
1.00148 1.00011 0.991824
0.999998 1 0.997842
1.00141 1.00011 0.991957
0.99997 0.999984 0.997879
0.999932 0.999878 0.995549
1.00517 0.998506 0.986948
1.00515 0.997669 0.987793
1.00494 0.999248 0.986574
1.00517 0.998548 0.986851
1.00515 0.997471 0.988038
1.00389 0.99968 0.987987
1.00492 0.999299 0.986518
1.00517 0.998732 0.986655
1.00142 0.999838 0.992172
1.00382 0.999664 0.987961
1.00489 0.999405 0.986738
0.999903 1.00007 0.997969
1.00129 0.999901 0.992337
1.00369 0.999729 0.988001
0.999741 1.00031 0.997984
1.00116 1.00018 0.99229
0.999621 1.00045 0.997942
1.00491 0.999134 0.986938
1.00516 0.998419 0.987103
1.00513 0.997677 0.987787
1.00392 0.999698 0.987689
1.00492 0.999189 0.986869
1.00514 0.998407 0.987156
1.00495 0.999311 0.986696
1.00399 0.999768 0.987487
1.00157 1.00004 0.991745
1.00396 0.999963 0.987567
1.00155 1.00007 0.991737
1.00005 1.00001 0.997792
1.00148 1.00011 0.99182
1.00002 1.00001 0.997826
0.999988 0.999992 0.997856
1.00493 0.999198 0.986651
1.00517 0.998384 0.987059
1.00515 0.997544 0.987877
1.00389 0.999705 0.987957
1.00493 0.99925 0.986566
1.00517 0.998556 0.986847
1.00149 0.999915 0.991998
1.00389 0.999688 0.987982
1.00492 0.999301 0.986512
1 0.999949 0.997895
1.00142 0.999853 0.992178
1.00382 0.999704 0.988047
0.999857 1.0001 0.997987
1.00129 0.999907 0.992346
0.999744 1.0003 0.997959
1.00389 0.999743 0.987944
1.00491 0.999098 0.986854
1.00516 0.998457 0.98705
1.00153 0.999989 0.991864
1.00393 0.999687 0.987666
1.00492 0.9992 0.98687
1.004 0.99976 0.987465
1.00156 1.00003 0.991752
1.00009 1.00001 0.997754
1.00154 1.00007 0.991736
1.00007 1.00001 0.997773
1.00003 1.00001 0.997811
1.00389 0.999714 0.987958
1.00492 0.999127 0.986687
1.00517 0.998264 0.98717
1.00157 0.999993 0.993073
1.0039 0.999702 0.987953
1.00492 0.999253 0.986558
1.00004 0.999948 0.997829
1.00148 0.999935 0.992003
1.00388 0.999696 0.987977
0.999972 0.999983 0.997924
1.00141 0.999878 0.992183
0.999829 1.00011 0.997996
1.00154 0.99998 0.991882
1.00389 0.9997 0.987855
1.00491 0.999059 0.986771
1.00006 1 0.997773
1.00152 0.999991 0.991866
1.00395 0.999678 0.987644
1.00156 1.00002 0.991755
1.00008 1.00001 0.997756
1.00008 1.00002 0.997761
1.00162 0.999984 0.993022
1.0039 0.999709 0.987958
1.00492 0.999055 0.986723
0.999768 0.999984 0.99809
1.0015 0.999995 0.991918
1.00391 0.999698 0.98795
1.00003 0.99996 0.997859
1.00148 0.999956 0.992007
0.999941 1 0.997952
1.00003 1 0.995358
1.00156 0.999978 0.992481
1.0039 0.99966 0.987766
1.00006 1 0.997777
1.00152 0.999991 0.991873
1.00009 1.00001 0.997753
0.999742 1 0.99565
1.00156 0.999984 0.992475
1.0039 0.999705 0.987957
0.999892 0.999984 0.996727
1.00151 0.999991 0.991923
1.00001 0.999973 0.997886
1.00004 0.999994 0.997792
1.00149 0.999981 0.991944
1.00004 1 0.997785
0.999887 0.999994 0.996728
1.0015 0.999988 0.991932
1.00003 0.999972 0.997835
1.00003 0.999989 0.997806
1.00002 0.999984 0.997814

TENSORS stress float
0.00157996 -6.89975e-05 0.000145404
-6.89975e-05 0.000554986 -1.75815e-05
0.000145404 -1.75815e-05 0.000534086
0.0047352 -0.000109204 0.000137394
-0.000109204 0.00237826 1.12945e-05
0.000137394 1.12945e-05 0.00236192
0.00144962 6.18618e-06 7.21126e-05
6.18618e-06 0.000493759 -6.17969e-06
7.21126e-05 -6.17969e-06 0.000462414
0.00173228 -4.36556e-05 0.000145599
-4.36556e-05 0.000620991 -1.1686e-05
0.000145599 -1.1686e-05 0.000602168
0.00164217 -6.26102e-05 0.000141575
-6.26102e-05 0.00058539 -1.61608e-05
0.000141575 -1.61608e-05 0.000565395
0.00141758 -6.10624e-05 0.000143837
-6.10624e-05 0.000460514 -1.67284e-05
0.000143837 -1.67284e-05 0.00044159
0.00141988 -3.3928e-05 1.74767e-05
-3.3928e-05 0.000399973 -7.84729e-06
1.74767e-05 -7.84729e-06 0.000326375
0.00454904 -0.000138343 9.40093e-06
-0.000138343 0.00227407 -1.32359e-06
9.40093e-06 -1.32359e-06 0.00225652
0.00505102 -3.07557e-05 4.70808e-05
-3.07557e-05 0.00252198 2.27063e-06
4.70808e-05 2.27063e-06 0.00250886
0.00471405 -0.000304228 -1.30717e-05
-0.000304228 0.00240987 5.89989e-06
-1.30717e-05 5.89989e-06 0.00235565
0.00152624 2.27895e-05 0.000126244
2.27895e-05 0.000524091 1.01193e-05
0.000126244 1.01193e-05 0.000513425
0.00074507 0.000130713 1.73081e-05
0.000130713 3.13333e-05 1.13274e-05
1.73081e-05 1.13274e-05 -4.09544e-05
0.00163131 -2.43598e-05 0.000159951
-2.43598e-05 0.000557068 1.83692e-06
0.000159951 1.83692e-06 0.000541992
0.00126587 -2.23092e-05 1.70085e-05
-2.23092e-05 0.000367155 1.45186e-06
1.70085e-05 1.45186e-06 0.000333664
0.00139523 2.8708e-05 -1.58962e-05
2.8708e-05 0.000462918 4.22755e-06
-1.58962e-05 4.22755e-06 0.000429198
0.00148924 -3.84533e-05 5.58202e-05
-3.84533e-05 0.000491177 -3.27271e-06
5.58202e-05 -3.27271e-06 0.000466481
0.00140064 2.60414e-05 7.69253e-05
2.60414e-05 0.000474055 -5.30171e-06
7.69253e-05 -5.30171e-06 0.000438392
0.00145617 -1.50732e-05 6.35096e-05
-1.50732e-05 0.000485132 -6.07652e-06
6.35096e-05 -6.07652e-06 0.000459676
0.00148431 -7.9808e-05 -2.72324e-05
-7.9808e-05 0.000423161 2.11611e-06
-2.72324e-05 2.11611e-06 0.000358812
0.00518787 -0.000103358 0.000174571
-0.000103358 0.00260231 -3.94281e-06
0.000174571 -3.94281e-06 0.00259893
0.00171685 -2.8512e-05 0.000148907
-2.8512e-05 0.00060898 -8.88187e-06
0.000148907 -8.88187e-06 0.000590233
0.00171366 -5.52254e-05 0.000142963
-5.52254e-05 0.000616317 -1.41348e-05
0.000142963 -1.41348e-05 0.000597237
0.00145741 -7.42675e-05 3.61336e-05
-7.42675e-05 0.000382504 -5.49029e-06
3.61336e-05 -5.49029e-06 0.000319629
0.00143203 -5.37287e-05 2.58593e-05
-5.37287e-05 0.000386539 -6.84076e-06
2.58593e-05 -6.84076e-06 0.000321595
0.00121525 -2.33889e-05 0.00012134
-2.33889e-05 0.000345411 -1.32873e-05
0.00012134 -1.32873e-05 0.000330235
0.00131651 -1.45104e-05 1.05338e-05
-1.45104e-05 0.000365794 -9.0978e-06
1.05338e-05 -9.0978e-06 0.00028366
0.0019791 -0.000185376 1.11746e-05
-0.000185376 0.000573646 -4.20527e-06
1.11746e-05 -4.20527e-06 0.000453955
0.00436527 -0.000170163 -0.000105638
-0.000170163 0.00217443 -6.79204e-06
-0.000105638 -6.79204e-06 0.00215348
0.00325355 1.5037e-05 -8.37974e-05
1.5037e-05 0.00150307 -4.76494e-06
-8.37974e-05 -4.76494e-06 0.00148426
0.00304554 -9.01216e-05 -7.16945e-05
-9.01216e-05 0.00141539 -2.07467e-06
-7.16945e-05 -2.07467e-06 0.00138647
0.00408602 -0.000140161 7.32107e-06
-0.000140161 0.00200388 -5.864e-07
7.32107e-06 -5.864e-07 0.0019915
0.000635743 0.00011659 -5.30196e-07
0.00011659 -2.6561e-05 -4.05798e-07
-5.30196e-07 -4.05798e-07 -9.73475e-05
0.00153104 4.7882e-05 0.000148421
4.7882e-05 0.000509958 1.04854e-05
0.000148421 1.04854e-05 0.000491391
0.00173172 0.000101987 0.000150525
0.000101987 0.000637715 1.46968e-05
0.000150525 1.46968e-05 0.000618373
0.00250593 0.000146855 9.17002e-05
0.000146855 0.000984061 1.08861e-05
9.17002e-05 1.08861e-05 0.000928018
0.00328076 -0.000175841 1.20962e-05
-0.000175841 0.00155085 2.07679e-06
1.20962e-05 2.07679e-06 0.00153198
0.0025295 0.000153993 8.69137e-05
0.000153993 0.00102931 1.18158e-05
8.69137e-05 1.18158e-05 0.000969768
0.000687819 7.73366e-05 1.55841e-05
7.73366e-05 9.05888e-06 1.35279e-05
1.55841e-05 1.35279e-05 -5.29282e-05
0.000952395 0.000145111 7.15944e-06
0.000145111 8.56431e-05 3.96943e-06
7.15944e-06 3.96943e-06 -4.45338e-05
0.00275337 -0.000101192 6.56023e-05
-0.000101192 0.00123149 2.46095e-06
6.56023e-05 2.46095e-06 0.00123447
0.00523878 5.04144e-05 4.1683e-06
5.04144e-05 0.00262046 -9.5638e-07
4.1683e-06 -9.5638e-07 0.00262284
0.00325807 3.06954e-05 -6.77473e-05
3.06954e-05 0.00149704 -2.11535e-06
-6.77473e-05 -2.11535e-06 0.00148077
0.00521544 5.62131e-05 0.000173561
5.62131e-05 0.00260882 1.23296e-06
0.000173561 1.23296e-06 0.00261061
0.00131634 3.07584e-05 1.91687e-05
3.07584e-05 0.000394282 1.42411e-06
1.91687e-05 1.42411e-06 0.000362496
0.00072396 3.25751e-06 1.60489e-05
3.25751e-06 -6.22884e-05 1.8369e-06
1.60489e-05 1.8369e-06 -0.0001281
0.00495058 0.000153794 7.57247e-05
0.000153794 0.0024762 6.07955e-06
7.57247e-05 6.07955e-06 0.00245719
0.00256981 3.85126e-05 9.1721e-05
3.85126e-05 0.000990866 5.36825e-06
9.1721e-05 5.36825e-06 0.000943206
0.00119141 -6.72655e-05 -3.31178e-05
-6.72655e-05 0.000336164 4.28004e-06
-3.31178e-05 4.28004e-06 0.000301899
0.00129077 -2.50859e-05 -2.73015e-05
-2.50859e-05 0.000395839 4.18084e-06
-2.73015e-05 4.18084e-06 0.000365977
0.00144255 0.000101738 -1.79096e-06
0.000101738 0.000513699 5.92811e-06
-1.79096e-06 5.92811e-06 0.000465895
0.00150182 -9.83968e-05 -7.86806e-05
-9.83968e-05 0.000425651 1.10832e-05
-7.86806e-05 1.10832e-05 0.000366652
0.00331615 2.17656e-05 -7.30568e-05
2.17656e-05 0.00153615 -1.11782e-06
-7.30568e-05 -1.11782e-06 0.00151592
0.00148978 -3.64642e-05 6.17126e-05
-3.64642e-05 0.000489857 -2.41874e-06
6.17126e-05 -2.41874e-06 0.000464138
0.00123484 3.50532e-05 6.19147e-05
3.50532e-05 0.000376491 -4.32253e-06
6.19147e-05 -4.32253e-06 0.00034778
0.00148389 -3.15777e-05 5.81737e-05
-3.15777e-05 0.000490706 -4.96e-06
5.81737e-05 -4.96e-06 0.000467149
0.00150046 -7.14146e-05 -2.155e-05
-7.14146e-05 0.000403284 7.61833e-07
-2.155e-05 7.61833e-07 0.000344152
0.00141554 -5.93863e-05 -3.11194e-05
-5.93863e-05 0.000407077 1.20128e-06
-3.11194e-05 1.20128e-06 0.000335861
0.00148671 -8.3633e-05 -2.27099e-05
-8.3633e-05 0.000411889 1.61646e-06
-2.27099e-05 1.61646e-06 0.00035186
0.00198254 -0.000183819 -5.20918e-06
-0.000183819 0.000574853 1.45411e-06
-5.20918e-06 1.45411e-06 0.000455508
0.00517154 5.62241e-05 0.00016573
5.62241e-05 0.0025854 -1.59023e-07
0.00016573 -1.59023e-07 0.00258704
0.00171268 -1.30514e-05 0.000151804
-1.30514e-05 0.000605835 -6.031e-06
0.000151804 -6.031e-06 0.000587521
0.00236126 4.4131e-05 2.08504e-05
4.4131e-05 0.000885606 -1.18027e-06
2.08504e-05 -1.18027e-06 0.000829029
0.00145723 -6.88867e-05 3.16101e-05
-6.88867e-05 0.000377521 -4.2429e-06
3.16101e-05 -4.2429e-06 0.000314353
0.00145328 -6.85349e-05 3.26771e-05
-6.85349e-05 0.000384476 -6.13492e-06
3.26771e-05 -6.13492e-06 0.000322192
0.00196134 -0.000113943 1.03377e-05
-0.000113943 0.000511626 -2.4213e-06
1.03377e-05 -2.4213e-06 0.000405383
0.00153254 -0.000144309 1.28352e-05
-0.000144309 0.000297769 -4.51066e-06
1.28352e-05 -4.51066e-06 0.000183497
0.00110424 2.75423e-05 8.808e-05
2.75423e-05 0.000281991 -9.78231e-06
8.808e-05 -9.78231e-06 0.00026811
0.000921052 1.25715e-05 8.63098e-06
1.25715e-05 0.000171879 -7.71995e-06
8.63098e-06 -7.71995e-06 0.000103047
0.00188016 -0.000190393 9.47198e-06
-0.000190393 0.000559833 -4.68812e-06
9.47198e-06 -4.68812e-06 0.000432706
0.00127269 -0.000172164 7.15527e-06
-0.000172164 8.22756e-05 -1.09989e-06
7.15527e-06 -1.09989e-06 -6.32722e-05
0.00522694 5.98479e-05 -0.000173604
5.98479e-05 0.00261726 -1.1333e-05
-0.000173604 -1.1333e-05 0.00261731
0.00383434 -0.00015415 -9.18226e-05
-0.00015415 0.00186227 -3.97864e-06
-9.18226e-05 -3.97864e-06 0.00184919
0.0047834 -0.000131737 -0.000127764
-0.000131737 0.00240257 -8.50806e-06
-0.000127764 -8.50806e-06 0.00238655
0.000523543 0.00011339 -1.57796e-05
0.00011339 -8.73042e-05 -1.15451e-05
-1.57796e-05 -1.15451e-05 -0.00015663
0.00526147 0.000104481 -2.61143e-06
0.000104481 0.00263367 -1.39365e-06
-2.61143e-06 -1.39365e-06 0.00263298
0.00523624 -1.64173e-05 -8.04182e-06
-1.64173e-05 0.00263643 -1.33463e-07
-8.04182e-06 -1.33463e-07 0.00262995
0.000582348 0.000109954 -4.07511e-07
0.000109954 -0.000108215 -2.33713e-07
-4.07511e-07 -2.33713e-07 -0.000180827
0.00220535 -0.000102688 -3.95268e-05
-0.000102688 0.000927294 -2.31384e-07
-3.95268e-05 -2.31384e-07 0.000912398
0.000587238 0.000143414 -1.21575e-06
0.000143414 -7.20806e-05 -1.60662e-07
-1.21575e-06 -1.60662e-07 -0.000146022
0.00132817 5.5733e-05 2.54951e-05
5.5733e-05 0.000383123 3.21954e-07
2.54951e-05 3.21954e-07 0.000328858
0.00089913 0.00013809 4.07816e-07
0.00013809 5.36224e-05 -2.72807e-07
4.07816e-07 -2.72807e-07 -7.53142e-05
0.0031389 -0.000102196 8.72312e-05
-0.000102196 0.00145119 3.40655e-06
8.72312e-05 3.40655e-06 0.00145282
0.000609463 -6.33315e-05 -1.35599e-07
-6.33315e-05 2.95178e-06 6.23997e-06
-1.35599e-07 6.23997e-06 -3.0494e-05
0.000697008 7.89819e-05 1.69666e-05
7.89819e-05 -6.1403e-05 7.92856e-06
1.69666e-05 7.92856e-06 -0.000130523
0.00072602 0.000128305 2.1309e-05
0.000128305 -1.47999e-05 1.27118e-05
2.1309e-05 1.27118e-05 -9.09943e-05
0.00104586 0.000125515 1.18147e-05
0.000125515 3.0517e-06 4.60293e-06
1.18147e-05 4.60293e-06 -0.000120609
0.00196326 -3.96926e-06 5.14661e-05
-3.96926e-06 0.000756889 6.33809e-06
5.14661e-05 6.33809e-06 0.000718359
0.000983415 0.00014668 9.14207e-06
0.00014668 4.57306e-05 4.87456e-06
9.14207e-06 4.87456e-06 -8.36746e-05
0.00095512 0.000132165 6.15133e-06
0.000132165 0.000142909 4.19804e-06
6.15133e-06 4.19804e-06 1.71737e-05
0.000941597 0.000172164 3.15022e-06
0.000172164 2.86428e-05 7.17547e-07
3.15022e-06 7.17547e-07 -0.000133503
0.00246621 -9.97127e-05 4.15572e-05
-9.97127e-05 0.00106449 2.49224e-06
4.15572e-05 2.49224e-06 0.00106801
0.00262811 -0.000111365 4.45799e-06
-0.000111365 0.00116288 -3.00815e-07
4.45799e-06 -3.00815e-07 0.00116307
0.0052462 6.11712e-06 -0.000167136
6.11712e-06 0.00262207 -6.7236e-06
-0.000167136 -6.7236e-06 0.0026236
0.00524347 4.41266e-05 -0.000174521
4.41266e-05 0.0026223 -3.39085e-06
-0.000174521 -3.39085e-06 0.00262509
0.00524486 7.6997e-05 -8.26822e-08
7.6997e-05 0.00263188 -1.59324e-06
-8.26822e-08 -1.59324e-06 0.00262954
0.0032616 -3.26271e-06 -8.22479e-05
-3.26271e-06 0.0014975 -2.23795e-06
-8.22479e-05 -2.23795e-06 0.00148308
0.00164379 2.14881e-05 3.90551e-05
2.14881e-05 0.00046252 5.3746e-07
3.90551e-05 5.3746e-07 0.000406021
0.00329461 7.12782e-05 -6.83552e-05
7.12782e-05 0.00151775 -3.17686e-06
-6.83552e-05 -3.17686e-06 0.00150088
0.00166035 5.52575e-05 3.7582e-05
5.52575e-05 0.000477687 1.11252e-06
3.7582e-05 1.11252e-06 0.000419412
0.0052394 0.000143355 0.00017728
0.000143355 0.00263833 3.56636e-06
0.00017728 3.56636e-06 0.00262972
0.000658852 2.50454e-06 1.69332e-05
2.50454e-06 -9.82276e-05 4.40857e-07
1.69332e-05 4.40857e-07 -0.000163345
0.00259997 9.5617e-06 9.28136e-05
9.5617e-06 0.00100608 3.55191e-06
9.28136e-05 3.55191e-06 0.000959333
0.00110363 2.81118e-05 1.16679e-05
2.81118e-05 -2.09174e-06 1.30469e-06
1.16679e-05 1.30469e-06 -0.000113541
0.00249432 8.12226e-05 9.18221e-05
8.12226e-05 0.000956409 6.57106e-06
9.18221e-05 6.57106e-06 0.00090649
0.00110919 6.79054e-05 1.14147e-05
6.79054e-05 1.08458e-05 2.43984e-06
1.14147e-05 2.43984e-06 -0.000104333
0.00164728 3.09061e-05 -0.000158336
3.09061e-05 0.000568032 1.0628e-06
-0.000158336 1.0628e-06 0.000553109
0.00124322 -4.47916e-07 -2.05367e-05
-4.47916e-07 0.000357437 1.77637e-06
-2.05367e-05 1.77637e-06 0.000325791
0.00126437 0.000120493 5.04306e-07
0.000120493 0.000420047 5.91111e-06
5.04306e-07 5.91111e-06 0.00037251
0.00122797 -4.83678e-05 -3.36504e-05
-4.83678e-05 0.000355878 4.36754e-06
-3.36504e-05 4.36754e-06 0.000325048
0.00159728 -5.24437e-05 -7.87115e-05
-5.24437e-05 0.000451846 6.36087e-06
-7.87115e-05 6.36087e-06 0.000398108
0.00153487 -8.46023e-05 -7.70988e-05
-8.46023e-05 0.000433707 9.94531e-06
-7.70988e-05 9.94531e-06 0.000378029
0.00145288 -9.71006e-05 -7.83277e-05
-9.71006e-05 0.000416562 1.13515e-05
-7.83277e-05 1.13515e-05 0.000354185
0.00199572 -0.000183308 -2.10452e-05
-0.000183308 0.000581969 6.73349e-06
-2.10452e-05 6.73349e-06 0.000462833
0.00523139 -8.07231e-05 2.11178e-06
-8.07231e-05 0.0026248 -1.15787e-06
2.11178e-06 -1.15787e-06 0.00262204
0.00147925 4.22399e-05 7.05303e-05
4.22399e-05 0.000482255 -1.97699e-06
7.05303e-05 -1.97699e-06 0.000457061
0.00113033 3.7912e-06 -4.16644e-05
3.7912e-06 0.000174454 6.23796e-07
-4.16644e-05 6.23796e-07 0.000116285
0.0015153 -4.08025e-05 -2.55154e-05
-4.08025e-05 0.000405178 9.17607e-07
-2.55154e-05 9.17607e-07 0.000346849
0.00240362 6.82041e-05 8.91806e-05
6.82041e-05 0.0010362 -7.29065e-07
8.91806e-05 -7.29065e-07 0.00102622
0.00159036 -2.32369e-05 -2.33977e-05
-2.32369e-05 0.000539271 -7.22423e-07
-2.33977e-05 -7.22423e-07 0.000475543
0.00150277 -7.89784e-05 -2.09371e-05
-7.89784e-05 0.00041006 1.12246e-06
-2.09371e-05 1.12246e-06 0.000351155
0.00178551 -0.000105717 -7.30206e-06
-0.000105717 0.000410493 1.24887e-06
-7.30206e-06 1.24887e-06 0.000303105
0.00193689 -0.000194952 -4.32345e-06
-0.000194952 0.000592242 1.07325e-06
-4.32345e-06 1.07325e-06 0.000463758
0.0017818 -0.000153902 -2.74672e-06
-0.000153902 0.000438971 5.75572e-07
-2.74672e-06 5.75572e-07 0.000325438
0.00125585 -0.000170247 3.6786e-07
-0.000170247 7.40607e-05 2.77518e-07
3.6786e-07 2.77518e-07 -7.1216e-05
0.000690167 9.12851e-06 1.72593e-05
9.12851e-06 -8.04927e-05 -1.22601e-06
1.72593e-05 -1.22601e-06 -0.000143953
0.00145221 1.66545e-05 2.39155e-05
1.66545e-05 0.000368961 -2.48825e-06
2.39155e-05 -2.48825e-06 0.000307255
0.0016039 -2.37065e-05 1.18844e-05
-2.37065e-05 0.000286297 -1.14321e-06
1.18844e-05 -1.14321e-06 0.000182062
0.00158424 -8.21041e-05 1.16772e-05
-8.21041e-05 0.000290538 -2.19533e-06
1.16772e-05 -2.19533e-06 0.000182889
0.00155897 -0.000123716 1.26136e-05
-0.000123716 0.000292664 -3.68055e-06
1.26136e-05 -3.68055e-06 0.000181468
0.0017576 -0.000121706 3.11901e-06
-0.000121706 0.000305917 -7.48052e-07
3.11901e-06 -7.48052e-07 0.000176055
0.00342491 0.000132712 8.18391e-05
0.000132712 0.00161807 -2.67199e-06
8.18391e-05 -2.67199e-06 0.00161204
0.00131775 -0.000154168 6.2296e-06
-0.000154168 9.05138e-05 -2.0361e-06
6.2296e-06 -2.0361e-06 -4.88628e-05
0.000466934 -8.94248e-06 6.66284e-06
-8.94248e-06 -9.3652e-05 -8.8119e-06
6.66284e-06 -8.8119e-06 -0.000145947
0.000702053 -0.000125037 5.36434e-06
-0.000125037 -3.08801e-05 -4.95269e-06
5.36434e-06 -4.95269e-06 -0.000155983
0.00134296 -0.000196364 7.14641e-06
-0.000196364 0.000166388 -2.01786e-06
7.14641e-06 -2.01786e-06 6.17957e-06
0.00134656 -0.00018351 4.18073e-06
-0.00018351 6.81231e-05 2.39e-07
4.18073e-06 2.39e-07 -8.5868e-05
0.000503675 3.04171e-05 3.15129e-06
3.04171e-05 -6.89562e-05 -7.61812e-06
3.15129e-06 -7.61812e-06 -0.000110448
0.000678111 6.53048e-06 1.01007e-06
6.53048e-06 1.91642e-05 -3.63861e-06
1.01007e-06 -3.63861e-06 -6.59767e-05
0.00526744 0.000112085 -0.000184361
0.000112085 0.00263888 -1.21189e-05
-0.000184361 -1.21189e-05 0.0026377
0.00505286 -3.43467e-05 -0.000153176
-3.43467e-05 0.00253217 -9.62316e-06
-0.000153176 -9.62316e-06 0.00252819
0.000579634 0.000101259 -1.65814e-05
0.000101259 -0.000110662 -8.98003e-06
-1.65814e-05 -8.98003e-06 -0.000183235
0.00333686 -0.000135467 -7.72872e-05
-0.000135467 0.0015725 -2.6041e-06
-7.72872e-05 -2.6041e-06 0.00156604
0.000480526 4.30853e-05 -8.60501e-06
4.30853e-05 -9.60884e-05 -1.0223e-05
-8.60501e-06 -1.0223e-05 -0.000152566
0.000516301 0.00013235 -1.77249e-05
0.00013235 -0.000108324 -1.12936e-05
-1.77249e-05 -1.12936e-05 -0.000182717
0.00086124 0.000132999 -7.26942e-06
0.000132999 3.06057e-05 -4.75793e-06
-7.26942e-06 -4.75793e-06 -9.73678e-05
0.00300795 -0.000115329 4.88126e-06
-0.000115329 0.00138059 -2.40594e-07
4.88126e-06 -2.40594e-07 0.00137956
0.000561238 -7.28104e-05 4.00482e-07
-7.28104e-05 -2.12651e-05 2.27662e-07
4.00482e-07 2.27662e-07 -5.60665e-05
0.00160551 9.87819e-05 3.6883e-05
9.87819e-05 0.000457916 1.81428e-06
3.6883e-05 1.81428e-06 0.00039632
0.00153365 0.000138492 3.47369e-05
0.000138492 0.000447523 1.4213e-06
3.47369e-05 1.4213e-06 0.000380308
0.00105215 0.000127747 1.62998e-07
0.000127747 7.7069e-06 -1.76683e-07
1.62998e-07 -1.76683e-07 -0.000116498
0.000626832 -2.78513e-06 -5.65034e-07
-2.78513e-06 -2.75598e-06 1.34074e-07
-5.65034e-07 1.34074e-07 -4.88164e-05
0.000969151 0.000145369 5.70214e-07
0.000145369 3.79607e-05 1.19082e-07
5.70214e-07 1.19082e-07 -9.11648e-05
0.000846363 0.000120089 1.91957e-07
0.000120089 8.06582e-05 -2.68775e-07
1.91957e-07 -2.68775e-07 -4.27683e-05
0.000887926 0.000168785 5.69114e-08
0.000168785 -3.03718e-06 4.95338e-09
5.69114e-08 4.95338e-09 -0.000165653
0.000627222 -3.23961e-05 4.50556e-06
-3.23961e-05 8.45938e-06 7.12949e-06
4.50556e-06 7.12949e-06 -3.11995e-05
0.00062886 -7.15e-05 -2.03799e-06
-7.15e-05 7.9734e-06 5.30832e-06
-2.03799e-06 5.30832e-06 -1.99256e-05
0.000686481 1.47415e-05 2.2081e-06
1.47415e-05 3.7125e-05 3.49839e-06
2.2081e-06 3.49839e-06 -4.21057e-05
0.00107725 0.000105973 1.16934e-05
0.000105973 5.3551e-06 3.96835e-06
1.16934e-05 3.96835e-06 -0.000114867
0.0010112 0.000140969 1.09866e-05
0.000140969 1.53291e-05 4.96307e-06
1.09866e-05 4.96307e-06 -0.000112046
0.00131748 0.000159828 6.48459e-06
0.000159828 7.37958e-05 1.71612e-06
6.48459e-06 1.71612e-06 -7.54584e-05
0.000904437 0.000104318 4.91952e-06
0.000104318 0.000145111 4.12909e-06
4.91952e-06 4.12909e-06 3.17837e-05
0.000892511 0.000165578 4.20427e-06
0.000165578 -7.73186e-05 1.98543e-06
4.20427e-06 1.98543e-06 -0.000235025
0.00109996 0.000179598 2.77752e-06
0.000179598 0.000193857 1.46015e-06
2.77752e-06 1.46015e-06 2.91487e-05
0.00126659 0.00020884 -3.57285e-06
0.00020884 0.000187502 -8.45153e-07
-3.57285e-06 -8.45153e-07 1.26701e-05
0.00231719 -8.86961e-05 3.41604e-05
-8.86961e-05 0.000971962 2.8506e-06
3.41604e-05 2.8506e-06 0.000978456
0.00239212 -9.92893e-05 2.0538e-06
-9.92893e-05 0.0010225 -2.18422e-07
2.0538e-06 -2.18422e-07 0.00102597
0.00251373 -0.000111271 -4.01273e-05
-0.000111271 0.00109906 -2.41371e-06
-4.01273e-05 -2.41371e-06 0.00109902
0.000520689 4.13315e-05 2.14405e-06
4.13315e-05 -5.87445e-05 -6.70627e-06
2.14405e-06 -6.70627e-06 -9.57035e-05
0.0032049 0.000122738 6.98654e-05
0.000122738 0.00148792 -2.67306e-06
6.98654e-05 -2.67306e-06 0.00148488
0.00525993 0.000137992 -0.000185976
0.000137992 0.00263905 -1.15615e-05
-0.000185976 -1.15615e-05 0.00263502
0.00521416 3.0134e-05 -0.000169871
3.0134e-05 0.00260399 -4.9505e-06
-0.000169871 -4.9505e-06 0.00260704
0.000688726 6.47241e-05 -1.7461e-05
6.47241e-05 -7.3223e-05 -4.34033e-06
-1.7461e-05 -4.34033e-06 -0.00014024
0.000670421 2.68461e-05 -1.74953e-05
2.68461e-05 -8.77418e-05 -2.13773e-06
-1.74953e-05 -2.13773e-06 -0.000154168
0.00520606 -3.60577e-05 -0.000167146
-3.60577e-05 0.00260231 -8.0858e-07
-0.000167146 -8.0858e-07 0.00260513
0.00521294 1.62578e-05 -5.31083e-07
1.62578e-05 0.00260657 2.88282e-07
-5.31083e-07 2.88282e-07 0.00260897
0.000654326 -1.52177e-06 -1.36159e-07
-1.52177e-06 -0.000101373 -1.87156e-07
-1.36159e-07 -1.87156e-07 -0.000165904
0.00162703 2.24284e-05 3.85461e-05
2.24284e-05 0.000455263 9.90867e-07
3.85461e-05 9.90867e-07 0.000398931
0.00110982 3.23296e-05 1.11537e-07
3.23296e-05 1.58802e-06 -1.40771e-07
1.11537e-07 -1.40771e-07 -0.00011009
0.000658096 5.85166e-05 -1.21881e-07
5.85166e-05 -8.68953e-05 -1.88077e-07
-1.21881e-07 -1.88077e-07 -0.000154343
0.00110388 7.03887e-05 -5.76589e-08
7.03887e-05 8.17535e-06 -1.52904e-07
-5.76589e-08 -1.52904e-07 -0.00010741
0.000645302 -1.9013e-05 1.72617e-05
-1.9013e-05 -0.000107895 -5.15478e-07
1.72617e-05 -5.15478e-07 -0.000171467
0.00110686 1.23492e-05 1.15294e-05
1.23492e-05 -3.26702e-06 4.81167e-07
1.15294e-05 4.81167e-07 -0.000113928
0.00110251 4.85275e-05 1.15797e-05
4.85275e-05 2.28845e-06 1.93641e-06
1.15797e-05 1.93641e-06 -0.000110688
0.00140188 4.01962e-05 4.15442e-06
4.01962e-05 6.32069e-05 3.88705e-07
4.15442e-06 3.88705e-07 -6.1932e-05
0.0011017 8.61194e-05 1.14177e-05
8.61194e-05 1.14826e-05 3.14508e-06
1.14177e-05 3.14508e-06 -0.000106045
0.00140014 8.51275e-05 4.3034e-06
8.51275e-05 8.0466e-05 6.57697e-07
4.3034e-06 6.57697e-07 -5.18752e-05
0.00520758 -4.69068e-05 -0.000175423
-4.69068e-05 0.00260588 -4.45321e-07
-0.000175423 -4.45321e-07 0.00260667
0.00127455 -8.81911e-05 -1.98449e-05
-8.81911e-05 0.000378148 2.21725e-06
-1.98449e-05 2.21725e-06 0.000344076
-0.000186163 -6.59538e-07 -1.34577e-05
-6.59538e-07 -0.000574364 2.1638e-06
-1.34577e-05 2.1638e-06 -0.00064706
0.00159275 -3.55655e-05 -7.99739e-05
-3.55655e-05 0.000445133 4.70213e-06
-7.99739e-05 4.70213e-06 0.000390996
0.00355377 0.00020533 -1.14739e-05
0.00020533 0.00172069 2.32973e-06
-1.14739e-05 2.32973e-06 0.00169231
0.00225242 -9.43526e-05 -6.76134e-05
-9.43526e-05 0.000896434 1.0193e-05
-6.76134e-05 1.0193e-05 0.000842076
0.00158213 -6.99808e-05 -7.78015e-05
-6.99808e-05 0.000449915 8.32455e-06
-7.78015e-05 8.32455e-06 0.00039559
0.00158687 -9.70073e-05 -2.29739e-05
-9.70073e-05 0.000296229 4.40257e-06
-2.29739e-05 4.40257e-06 0.000187847
0.00202211 -0.000163272 -1.97868e-05
-0.000163272 0.000575371 5.92599e-06
-1.97868e-05 5.92599e-06 0.000462661
0.00203049 -0.000201289 -1.83606e-05
-0.000201289 0.000646065 7.1093e-06
-1.83606e-05 7.1093e-06 0.000515939
0.00123474 -0.00016807 -6.01228e-06
-0.00016807 6.35237e-05 1.58085e-06
-6.01228e-06 1.58085e-06 -8.14628e-05
0.000648639 8.86798e-06 -1.28146e-08
8.86798e-06 -0.000103449 -1.36457e-07
-1.28146e-08 -1.36457e-07 -0.000167199
0.00154486 -4.61574e-05 -2.64033e-05
-4.61574e-05 0.000418431 2.85262e-07
-2.64033e-05 2.85262e-07 0.00036014
0.00117772 -2.03452e-05 -5.2617e-06
-2.03452e-05 4.45672e-05 2.34165e-07
-5.2617e-06 2.34165e-07 -6.347e-05
0.00181486 -8.4892e-05 -3.68619e-06
-8.4892e-05 0.000419474 5.13625e-07
-3.68619e-06 5.13625e-07 0.000313514
0.00347251 0.000126309 -2.42319e-06
0.000126309 0.00164487 -4.00778e-07
-2.42319e-06 -4.00778e-07 0.00163983
0.00128673 -1.83797e-05 1.46165e-06
-1.83797e-05 0.000371715 5.69018e-07
1.46165e-06 5.69018e-07 0.000316678
0.00127586 -0.000154165 6.21523e-07
-0.000154165 0.000293403 -8.56139e-07
6.21523e-07 -8.56139e-07 0.000167389
0.00157069 -0.000122701 -4.06582e-06
-0.000122701 0.000299409 7.96722e-07
-4.06582e-06 7.96722e-07 0.000188259
0.00146988 -0.00011231 -2.63555e-06
-0.00011231 0.000141612 5.67743e-07
-2.63555e-06 5.67743e-07 1.07375e-05
0.00101904 -0.000175159 -3.50214e-07
-0.000175159 -1.47712e-05 -3.04926e-07
-3.50214e-07 -3.04926e-07 -0.000173166
0.00155659 -0.000163099 1.78074e-07
-0.000163099 0.000225936 -1.72207e-07
1.78074e-07 -1.72207e-07 8.75295e-05
0.00141427 -0.000187496 4.70552e-07
-0.000187496 0.000106336 1.45967e-07
4.70552e-07 1.45967e-07 -4.78948e-05
0.000543073 2.48941e-05 -6.78361e-07
2.48941e-05 -4.77781e-05 9.33902e-08
-6.78361e-07 9.33902e-08 -8.92318e-05
0.000672337 -8.01677e-06 -3.45172e-07
-8.01677e-06 1.45639e-05 4.34237e-08
-3.45172e-07 4.34237e-08 -7.12933e-05
0.00109956 -1.00467e-05 1.14272e-05
-1.00467e-05 -5.93306e-06 -1.02879e-06
1.14272e-05 -1.02879e-06 -0.000115861
0.00160655 -4.80526e-05 1.14548e-05
-4.80526e-05 0.000293477 -1.58894e-06
1.14548e-05 -1.58894e-06 0.000188129
0.00175102 -3.23207e-05 2.93334e-06
-3.23207e-05 0.000271636 -2.31161e-07
2.93334e-06 -2.31161e-07 0.000151306
0.00126301 -8.52352e-05 5.15435e-06
-8.52352e-05 1.49208e-05 -7.96133e-07
5.15435e-06 -7.96133e-07 -0.000114197
0.00165437 -0.000148299 4.78838e-06
-0.000148299 0.000261805 -1.15582e-06
4.78838e-06 -1.15582e-06 0.00012774
0.00165333 -0.000127818 -3.66435e-07
-0.000127818 0.000177938 4.43517e-07
-3.66435e-07 4.43517e-07 4.6983e-05
0.000466035 8.14453e-06 5.40855e-06
8.14453e-06 -9.29449e-05 -8.15462e-06
5.40855e-06 -8.15462e-06 -0.000138817
0.00144389 -0.000168348 2.66121e-06
-0.000168348 0.000103814 -1.26858e-07
2.66121e-06 -1.26858e-07 -4.08985e-05
0.000625477 -9.38444e-05 3.54018e-06
-9.38444e-05 -2.60567e-05 -3.21485e-06
3.54018e-06 -3.21485e-06 -0.000139639
0.000627533 -0.000155387 5.81398e-06
-0.000155387 -0.000141616 -4.79833e-06
5.81398e-06 -4.79833e-06 -0.000307395
0.00186058 -0.000242348 3.67132e-06
-0.000242348 0.000397558 3.877e-07
3.67132e-06 3.877e-07 0.000223936
0.00167991 -0.00020961 -5.84458e-07
-0.00020961 0.000212434 2.35203e-06
-5.84458e-07 2.35203e-06 5.73401e-05
0.000747317 -4.51795e-05 2.45863e-06
-4.51795e-05 5.89052e-05 -3.24297e-06
2.45863e-06 -3.24297e-06 -3.90887e-05
0.000638602 9.456e-06 1.29038e-06
9.456e-06 -1.30045e-06 -3.17799e-06
1.29038e-06 -3.17799e-06 -7.72198e-05
0.000869919 -8.53943e-05 1.21621e-06
-8.53943e-05 0.000130885 -6.51882e-07
1.21621e-06 -6.51882e-07 8.05314e-06
0.000621297 8.03906e-05 -1.61668e-05
8.03906e-05 -0.000100208 -7.01476e-06
-1.61668e-05 -7.01476e-06 -0.000169714
0.00287422 -0.000126471 -5.30543e-05
-0.000126471 0.00130771 -2.1817e-06
-5.30543e-05 -2.1817e-06 0.00130386
0.000496792 -7.48273e-05 1.2627e-06
-7.48273e-05 -5.68525e-05 -5.69069e-06
1.2627e-06 -5.69069e-06 -9.17354e-05
0.000534331 0.000121591 -1.72615e-05
0.000121591 -0.000116473 -1.0665e-05
-1.72615e-05 -1.0665e-05 -0.000191546
0.00106076 0.000130381 -1.213e-05
0.000130381 1.35125e-05 -4.94968e-06
-1.213e-05 -4.94968e-06 -0.000111268
0.000464292 -1.14126e-05 -5.11703e-06
-1.14126e-05 -9.21146e-05 -8.49298e-06
-5.11703e-06 -8.49298e-06 -0.00013786
0.000716016 0.000106023 -4.51258e-06
0.000106023 6.55835e-06 -4.41065e-06
-4.51258e-06 -4.41065e-06 -0.000114434
0.000943932 0.000143303 -8.58976e-06
0.000143303 2.41648e-05 -4.7651e-06
-8.58976e-06 -4.7651e-06 -0.000104602
0.000796887 0.000162691 -4.33461e-06
0.000162691 -5.58371e-05 -1.78593e-06
-4.33461e-06 -1.78593e-06 -0.000218533
0.000546679 -4.16507e-05 1.34869e-06
-4.16507e-05 -3.59725e-05 2.72771e-07
1.34869e-06 2.72771e-07 -7.53211e-05
0.000588556 -6.6217e-05 -2.71629e-07
-6.6217e-05 -1.70863e-05 1.65534e-07
-2.71629e-07 1.65534e-07 -4.34248e-05
0.00064535 -2.24168e-05 4.00113e-07
-2.24168e-05 1.03195e-05 3.85969e-07
4.00113e-07 3.85969e-07 -6.40066e-05
0.00108061 0.000108203 4.40638e-08
0.000108203 8.18442e-06 -1.74634e-07
4.40638e-08 -1.74634e-07 -0.000112605
0.00101676 0.000142358 4.30085e-07
0.000142358 1.95572e-05 -2.10356e-07
4.30085e-07 -2.10356e-07 -0.000108103
0.0013146 0.00016015 2.14641e-07
0.00016015 7.34668e-05 1.40833e-08
2.14641e-07 1.40833e-08 -7.59794e-05
0.0007947 9.22483e-05 -5.35028e-08
9.22483e-05 8.4811e-05 1.31846e-07
-5.35028e-08 1.31846e-07 -2.68578e-05
0.00112057 0.000180507 -1.01167e-07
0.000180507 5.13671e-05 -7.48938e-08
-1.01167e-07 -7.48938e-08 -0.000107886
0.00106904 0.000175874 5.07975e-07
0.000175874 0.000177584 -5.56155e-07
5.07975e-07 -5.56155e-07 1.36618e-05
0.00119747 0.000207292 -8.29306e-07
0.000207292 0.000145551 1.90117e-06
-8.29306e-07 1.90117e-06 -2.90118e-05
0.000630955 -5.7762e-05 7.19291e-07
-5.7762e-05 -5.29352e-06 4.17113e-06
7.19291e-07 4.17113e-06 -2.59462e-05
0.000732081 5.43274e-05 3.1582e-06
5.43274e-05 5.58819e-05 3.18942e-06
3.1582e-06 3.18942e-06 -3.86219e-05
0.000661536 -3.42549e-05 4.06299e-07
-3.42549e-05 1.33031e-05 2.82258e-06
4.06299e-07 2.82258e-06 -4.47772e-05
0.000835273 5.51118e-05 4.33282e-07
5.51118e-05 0.000131553 1.24928e-06
4.33282e-07 1.24928e-06 1.62684e-05
0.00136994 0.000135842 6.20779e-06
0.000135842 8.09934e-05 1.41314e-06
6.20779e-06 1.41314e-06 -6.20066e-05
0.0012788 0.000179116 6.53658e-06
0.000179116 8.83076e-05 2.20759e-06
6.53658e-06 2.20759e-06 -6.68715e-05
0.00151966 0.000190848 2.68972e-06
0.000190848 0.000123516 5.13349e-07
2.68972e-06 5.13349e-07 -3.49475e-05
0.00110833 0.000151231 2.57744e-06
0.000151231 0.000245386 2.91329e-06
2.57744e-06 2.91329e-06 9.78296e-05
0.00115028 0.000199011 -2.36659e-08
0.000199011 1.17198e-05 3.59961e-06
-2.36659e-08 3.59961e-06 -0.000156871
0.000973701 0.000186756 -1.21826e-06
0.000186756 0.000108559 -1.56781e-06
-1.21826e-06 -1.56781e-06 -8.18252e-05
0.0013472 0.000225619 1.11692e-07
0.000225619 0.000167798 4.96339e-07
1.11692e-07 4.96339e-07 -1.13691e-05
0.000693719 -2.11163e-05 1.57619e-06
-2.11163e-05 7.03952e-06 1.90457e-06
1.57619e-06 1.90457e-06 -3.38362e-05
0.000630301 -4.25202e-05 9.82655e-07
-4.25202e-05 -2.47546e-05 3.89709e-06
9.82655e-07 3.89709e-06 -3.8813e-05
0.00223231 -7.7685e-05 2.91609e-05
-7.7685e-05 0.000914553 3.26145e-06
2.91609e-05 3.26145e-06 0.000923972
0.00226131 -8.71685e-05 2.02117e-06
-8.71685e-05 0.000939272 -1.86752e-07
2.02117e-06 -1.86752e-07 0.000946123
0.00230733 -9.69695e-05 -3.53424e-05
-9.69695e-05 0.000973931 -2.68485e-06
-3.53424e-05 -2.68485e-06 0.000977887
0.00054414 4.4949e-05 1.49141e-06
4.4949e-05 -4.92774e-05 -5.85613e-06
1.49141e-06 -5.85613e-06 -8.11728e-05
0.00297045 0.000113257 5.71947e-05
0.000113257 0.00135105 -2.86744e-06
5.71947e-05 -2.86744e-06 0.00135036
0.000559596 3.88234e-05 -2.7339e-07
3.88234e-05 -3.73493e-05 1.15219e-07
-2.7339e-07 1.15219e-07 -7.43477e-05
0.0032572 0.000116394 -2.23275e-06
0.000116394 0.00151638 -2.75722e-07
-2.23275e-06 -2.75722e-07 0.0015147
0.000677665 7.637e-05 -1.71991e-05
7.637e-05 -7.4301e-05 -5.61003e-06
-1.71991e-05 -5.61003e-06 -0.000142958
0.000673873 3.05768e-05 -1.70288e-05
3.05768e-05 -8.48773e-05 -3.12098e-06
-1.70288e-05 -3.12098e-06 -0.000150944
0.00110384 7.22646e-05 -1.12563e-05
7.22646e-05 8.30401e-06 -2.71606e-06
-1.12563e-05 -2.71606e-06 -0.000107603
0.00110955 3.45304e-05 -1.1736e-05
3.45304e-05 1.65222e-06 -1.56886e-06
-1.1736e-05 -1.56886e-06 -0.000110163
0.000685177 -3.09582e-06 -1.75342e-05
-3.09582e-06 -8.61087e-05 -9.28738e-07
-1.75342e-05 -9.28738e-07 -0.000149375
0.00524845 -9.69783e-05 -0.000182936
-9.69783e-05 0.00263367 2.27687e-06
-0.000182936 2.27687e-06 0.00263187
0.000672217 -9.47761e-07 1.20266e-07
-9.47761e-07 -9.36932e-05 -3.04088e-07
1.20266e-07 -3.04088e-07 -0.000156946
0.00111139 1.68932e-05 -3.39425e-09
1.68932e-05 -5.11661e-07 -1.6625e-07
-3.39425e-09 -1.6625e-07 -0.000111277
0.00110682 4.99796e-05 -1.86758e-08
4.99796e-05 5.01861e-06 -1.00794e-07
-1.86758e-08 -1.00794e-07 -0.000108176
0.00139362 3.95795e-05 -4.25284e-08
3.95795e-05 5.98664e-05 -2.90945e-08
-4.25284e-08 -2.90945e-08 -6.53435e-05
0.00109406 8.86756e-05 -3.5362e-08
8.86756e-05 8.13488e-06 -1.94809e-07
-3.5362e-08 -1.94809e-07 -0.000110029
0.00138576 8.70146e-05 -4.11756e-08
8.70146e-05 7.2431e-05 -7.26699e-08
-4.11756e-08 -7.26699e-08 -6.03409e-05
0.00111417 -3.25089e-07 1.14838e-05
-3.25089e-07 1.03973e-06 -1.90347e-07
1.14838e-05 -1.90347e-07 -0.000109143
0.00140679 2.3678e-05 3.97962e-06
2.3678e-05 6.03975e-05 1.83947e-07
3.97962e-06 1.83947e-07 -6.29917e-05
0.00140425 6.37388e-05 4.31015e-06
6.37388e-05 7.43493e-05 5.34203e-07
4.31015e-06 5.34203e-07 -5.40118e-05
0.00160262 5.58678e-05 -2.52408e-07
5.58678e-05 8.10625e-05 -2.16688e-07
-2.52408e-07 -2.16688e-07 -3.64409e-05
0.00139537 0.000110501 4.59611e-06
0.000110501 8.33093e-05 9.25153e-07
4.59611e-06 9.25153e-07 -5.40518e-05
0.00156501 0.000103553 -1.14248e-07
0.000103553 8.91586e-05 -6.46098e-07
-1.14248e-07 -6.46098e-07 -3.95248e-05
0.000657869 8.74342e-06 -1.66668e-05
8.74342e-06 -9.82296e-05 7.96617e-07
-1.66668e-05 7.96617e-07 -0.00016248
0.00160665 -1.5733e-05 -8.10582e-05
-1.5733e-05 0.000448918 3.11013e-06
-8.10582e-05 3.11013e-06 0.000395013
0.000733996 -1.56077e-05 -1.2659e-05
-1.56077e-05 -0.000206985 1.64156e-06
-1.2659e-05 1.64156e-06 -0.000318904
0.00203596 -8.64544e-05 -2.02219e-05
-8.64544e-05 0.00054277 3.17837e-06
-2.02219e-05 3.17837e-06 0.000438653
0.00353185 0.000113523 -9.82426e-05
0.000113523 0.00167712 3.73193e-06
-9.82426e-05 3.73193e-06 0.00167414
0.00213728 -3.6511e-05 -5.67739e-05
-3.6511e-05 0.000848695 7.2469e-06
-5.67739e-05 7.2469e-06 0.000801479
0.00194519 -0.000192743 -1.32128e-05
-0.000192743 0.000669498 6.05597e-06
-1.32128e-05 6.05597e-06 0.000541411
0.00156572 -0.000120899 -2.03075e-05
-0.000120899 0.000296514 5.02104e-06
-2.03075e-05 5.02104e-06 0.000185608
0.00117993 -0.000102695 -6.73995e-06
-0.000102695 -2.39706e-05 1.49689e-06
-6.73995e-06 1.49689e-06 -0.000155828
0.00179876 -0.000172312 -7.2244e-06
-0.000172312 0.000363209 1.9532e-06
-7.2244e-06 1.9532e-06 0.000225734
0.000672515 -0.000152224 -6.68424e-06
-0.000152224 -0.000208878 6.27934e-07
-6.68424e-06 6.27934e-07 -0.000365182
0.00149726 -0.000192464 -2.82554e-06
-0.000192464 0.000152914 -1.58251e-07
-2.82554e-06 -1.58251e-07 -1.64845e-06
0.000594124 1.63769e-05 -5.38838e-06
1.63769e-05 -1.9475e-05 7.35799e-06
-5.38838e-06 7.35799e-06 -6.12445e-05
0.000687225 -2.41448e-05 -2.40466e-06
-2.41448e-05 2.29138e-05 3.05361e-06
-2.40466e-06 3.05361e-06 -6.46011e-05
0.000924061 -5.7329e-06 -4.39201e-07
-5.7329e-06 -0.000104659 -1.76894e-07
-4.39201e-07 -1.76894e-07 -0.000215754
0.00161447 -4.91921e-05 -4.32543e-06
-4.91921e-05 0.000297002 4.26113e-07
-4.32543e-06 4.26113e-07 0.000191648
0.00172197 -2.88109e-05 -2.39893e-06
-2.88109e-05 0.000252209 3.04667e-07
-2.39893e-06 3.04667e-07 0.000132498
0.00152034 -8.97787e-05 7.68277e-07
-8.97787e-05 0.000160057 -1.67605e-07
7.68277e-07 -1.67605e-07 3.22646e-05
0.000561299 -1.85829e-06 1.50155e-07
-1.85829e-06 -4.16492e-05 1.92473e-07
1.50155e-07 1.92473e-07 -8.77804e-05
0.000836531 -0.000114466 -5.84121e-08
-0.000114466 9.08491e-05 3.92171e-07
-5.84121e-08 3.92171e-07 -2.56968e-05
0.000805296 -0.000166991 1.45606e-06
-0.000166991 -3.68752e-05 -1.75415e-06
1.45606e-06 -1.75415e-06 -0.000202757
0.00171536 -0.000148553 -1.7032e-06
-0.000148553 0.000295758 4.10618e-07
-1.7032e-06 4.10618e-07 0.000161895
0.00161005 -0.000125638 -3.94999e-07
-0.000125638 0.000148713 3.34136e-07
-3.94999e-07 3.34136e-07 1.94562e-05
0.00163251 -0.000227932 -1.72871e-06
-0.000227932 0.000263588 4.8295e-07
-1.72871e-06 4.8295e-07 9.05913e-05
0.00144268 -0.000168535 3.13199e-07
-0.000168535 0.000101492 -2.2611e-08
3.13199e-07 -2.2611e-08 -4.30432e-05
0.00163597 -0.000208127 6.31899e-07
-0.000208127 0.000184803 4.66449e-07
6.31899e-07 4.66449e-07 2.98756e-05
0.000732338 -5.14651e-05 -2.89539e-07
-5.14651e-05 5.01998e-05 -1.87755e-07
-2.89539e-07 -1.87755e-07 -4.84726e-05
0.000718614 -5.265e-05 -6.3199e-07
-5.265e-05 3.94551e-05 -4.72764e-07
-6.3199e-07 -4.72764e-07 -7.63976e-05
0.000673399 3.57395e-07 3.43006e-07
3.57395e-07 1.65263e-05 2.2738e-07
3.43006e-07 2.2738e-07 -5.93999e-05
0.00174719 -9.83058e-06 2.63512e-06
-9.83058e-06 0.000259536 -1.9973e-07
2.63512e-06 -1.9973e-07 0.000139713
0.00167259 -5.69524e-05 3.25156e-06
-5.69524e-05 0.000229968 -1.2678e-07
3.25156e-06 -1.2678e-07 0.000107874
0.00166395 -3.95623e-05 -4.95171e-07
-3.95623e-05 0.000126685 5.78227e-07
-4.95171e-07 5.78227e-07 9.89632e-06
0.00154984 -0.000101856 -8.643e-07
-0.000101856 9.58198e-05 5.99179e-07
-8.643e-07 5.99179e-07 -3.04705e-05
0.00142603 -0.000147126 1.65321e-06
-0.000147126 6.79991e-05 5.1511e-07
1.65321e-06 5.1511e-07 -6.76775e-05
0.00166585 -0.000141721 -2.7233e-06
-0.000141721 0.000112051 1.41613e-06
-2.7233e-06 1.41613e-06 -3.21576e-06
0.000703376 -7.60124e-05 3.30075e-06
-7.60124e-05 3.34696e-05 -2.44759e-06
3.30075e-06 -2.44759e-06 -7.24316e-05
0.00153614 -0.000191742 -1.10867e-06
-0.000191742 9.69773e-05 1.68486e-06
-1.10867e-06 1.68486e-06 -4.3934e-05
0.000908161 -0.00016051 1.74619e-06
-0.00016051 0.000103523 -2.3815e-06
1.74619e-06 -2.3815e-06 -4.76832e-05
0.00109194 -0.000211226 5.35543e-06
-0.000211226 4.97157e-05 -4.39268e-06
5.35543e-06 -4.39268e-06 -0.000146393
0.00189774 -0.000252109 2.42922e-06
-0.000252109 0.000370068 2.72891e-06
2.42922e-06 2.72891e-06 0.000189602
0.00187556 -0.000240345 -3.55179e-06
-0.000240345 0.000266645 3.8895e-06
-3.55179e-06 3.8895e-06 0.000118436
0.00064831 4.77552e-07 1.47404e-06
4.77552e-07 7.91756e-07 -2.80081e-06
1.47404e-06 -2.80081e-06 -6.61606e-05
0.000805666 -0.000100239 1.98178e-06
-0.000100239 7.73478e-05 6.33359e-07
1.98178e-06 6.33359e-07 -4.28199e-05
0.000633495 -3.2579e-05 1.23211e-06
-3.2579e-05 7.00586e-06 -1.88304e-06
1.23211e-06 -1.88304e-06 -0.000107038
0.00109385 -0.000152828 8.30603e-08
-0.000152828 0.000252596 1.75665e-06
8.30603e-08 1.75665e-06 0.000115083
0.001074 0.000110331 -1.21025e-05
0.000110331 5.44856e-06 -4.24071e-06
-1.21025e-05 -4.24071e-06 -0.000115908
0.000554991 -6.10608e-05 -8.43636e-07
-6.10608e-05 -3.79478e-05 -4.40195e-06
-8.43636e-07 -4.40195e-06 -6.2926e-05
0.000480157 -6.11243e-05 1.40551e-06
-6.11243e-05 -6.80506e-05 -7.46465e-06
1.40551e-06 -7.46465e-06 -0.000109558
0.000641417 -5.38203e-05 1.43528e-06
-5.38203e-05 1.24194e-05 -3.57409e-06
1.43528e-06 -3.57409e-06 -6.28378e-05
0.00102151 0.000143984 -1.0495e-05
0.000143984 2.35376e-05 -5.41331e-06
-1.0495e-05 -5.41331e-06 -0.0001045
0.0013122 0.00016048 -6.17652e-06
0.00016048 7.31916e-05 -1.7176e-06
-6.17652e-06 -1.7176e-06 -7.64622e-05
0.000690564 7.95355e-05 -3.07572e-06
7.95355e-05 2.76137e-05 -3.2269e-06
-3.07572e-06 -3.2269e-06 -8.2147e-05
0.00102772 0.000171413 -3.61755e-06
0.000171413 0.000155301 -3.46549e-06
-3.61755e-06 -3.46549e-06 -8.10625e-06
0.00136758 0.000196727 -4.89703e-06
0.000196727 0.000190673 -1.94817e-06
-4.89703e-06 -1.94817e-06 2.97266e-05
0.00112433 0.00020531 -1.43123e-06
0.00020531 0.000101913 -1.1219e-06
-1.43123e-06 -1.1219e-06 -7.23565e-05
0.000606341 -5.48693e-05 -1.04219e-08
-5.48693e-05 -2.03205e-05 4.96548e-08
-1.04219e-08 4.96548e-08 -4.03433e-05
0.000736373 4.6622e-05 4.2467e-07
4.6622e-05 6.33036e-05 -1.66194e-07
4.2467e-07 -1.66194e-07 -3.32844e-05
0.000643362 -5.01705e-05 -7.68341e-07
-5.01705e-05 6.58031e-06 5.73375e-07
-7.68341e-07 5.73375e-07 -5.29873e-05
0.000793982 2.90091e-05 7.08399e-07
2.90091e-05 0.000107114 -3.53573e-07
7.08399e-07 -3.53573e-07 -5.08418e-06
0.00135179 0.000135192 7.92073e-07
0.000135192 7.27177e-05 4.79282e-08
7.92073e-07 4.79282e-08 -7.03973e-05
0.00127312 0.000180164 2.08327e-07
0.000180164 8.61841e-05 3.99174e-08
2.08327e-07 3.99174e-08 -6.95215e-05
0.00152302 0.000190281 3.60255e-07
0.000190281 0.000126843 2.05659e-07
3.60255e-07 2.05659e-07 -3.16254e-05
0.000983032 0.00014413 3.37873e-07
0.00014413 0.000175356 6.24134e-07
3.37873e-07 6.24134e-07 2.95302e-05
0.00149367 0.000219535 -1.3124e-06
0.000219535 0.000207269 -8.12544e-07
-1.3124e-06 -8.12544e-07 3.69547e-05
0.0011388 0.000200942 1.66852e-07
0.000200942 0.000201665 -1.27936e-06
1.66852e-07 -1.27936e-06 7.83665e-06
0.00116189 0.000212979 -2.45554e-06
0.000212979 7.36857e-05 -1.10513e-06
-2.45554e-06 -1.10513e-06 -9.575e-05
0.000626279 -4.93947e-05 1.13919e-06
-4.93947e-05 -1.90298e-05 3.93352e-06
1.13919e-06 3.93352e-06 -3.56609e-05
0.00068875 -3.5835e-05 1.0446e-06
-3.5835e-05 2.09484e-05 2.17621e-06
1.0446e-06 2.17621e-06 -2.78275e-05
0.000972957 9.67525e-05 2.23492e-06
9.67525e-05 0.000192123 1.59807e-06
2.23492e-06 1.59807e-06 6.33608e-05
0.000794951 3.33518e-05 -2.84298e-07
3.33518e-05 0.000106194 1.93215e-06
-2.84298e-07 1.93215e-06 1.05095e-05
0.000904833 0.000110339 3.12297e-07
0.000110339 0.000180634 -8.56991e-08
3.12297e-07 -8.56991e-08 4.585e-05
0.00154049 0.000160532 2.06712e-06
0.000160532 0.000112132 -4.53835e-07
2.06712e-06 -4.53835e-07 -3.55752e-05
0.00141012 0.000204223 2.85274e-06
0.000204223 9.81056e-05 1.55837e-06
2.85274e-06 1.55837e-06 -6.69911e-05
0.00169196 0.000224892 -3.27287e-07
0.000224892 0.000178218 -4.54946e-07
-3.27287e-07 -4.54946e-07 1.93061e-05
0.00112287 0.000187367 4.00388e-06
0.000187367 0.00025249 4.3914e-06
4.00388e-06 4.3914e-06 6.5977e-05
0.00151678 0.000240503 3.11145e-06
0.000240503 0.00017346 4.41804e-06
3.11145e-06 4.41804e-06 -2.46132e-06
0.000361895 0.000160704 3.29598e-06
0.000160704 -0.000313055 -2.81616e-06
3.29598e-06 -2.81616e-06 -0.000510168
0.000688359 -2.42518e-05 2.01223e-06
-2.42518e-05 7.11311e-06 1.84262e-06
2.01223e-06 1.84262e-06 -3.48051e-05
0.000730272 2.30364e-05 3.77884e-07
2.30364e-05 4.95477e-05 7.65525e-07
3.77884e-07 7.65525e-07 -1.69593e-05
0.000711497 -1.14345e-05 1.2569e-06
-1.14345e-05 1.51169e-05 1.93355e-06
1.2569e-06 1.93355e-06 -2.5086e-05
0.000696064 -2.64565e-05 -1.19789e-07
-2.64565e-05 9.31873e-06 -4.22932e-09
-1.19789e-07 -4.22932e-09 -3.19995e-05
0.00126381 -4.77595e-05 1.26529e-06
-4.77595e-05 0.000332777 2.35047e-06
1.26529e-06 2.35047e-06 0.000324006
0.000954516 -4.79231e-05 7.5707e-07
-4.79231e-05 0.000161483 -5.34932e-08
7.5707e-07 -5.34932e-08 0.000149099
0.000926467 -4.20973e-05 2.42807e-05
-4.20973e-05 0.000154047 6.72691e-06
2.42807e-05 6.72691e-06 0.000159942
0.00220624 -7.64754e-05 2.00399e-06
-7.64754e-05 0.000898549 -1.71546e-07
2.00399e-06 -1.71546e-07 0.000908301
0.00221807 -8.55272e-05 -3.16862e-05
-8.55272e-05 0.000913584 -3.05696e-06
-3.16862e-05 -3.05696e-06 0.000920862
0.00055698 4.97454e-05 5.16523e-07
4.97454e-05 -4.71743e-05 -5.20651e-06
5.16523e-07 -5.20651e-06 -7.51567e-05
0.00277027 0.000103268 4.60127e-05
0.000103268 0.00123249 -3.15427e-06
4.60127e-05 -3.15427e-06 0.00123423
0.00057545 4.32494e-05 -2.42814e-07
4.32494e-05 -3.16459e-05 9.98116e-08
-2.42814e-07 9.98116e-08 -6.3656e-05
0.00304123 0.000109588 -3.10813e-06
0.000109588 0.00138994 -2.46267e-07
-3.10813e-06 -2.46267e-07 0.00139022
0.000594831 3.54871e-05 -2.63249e-06
3.54871e-05 -1.80954e-05 6.86089e-06
-2.63249e-06 6.86089e-06 -5.5147e-05
0.00331627 0.000108868 -8.63028e-05
0.000108868 0.00154848 3.329e-06
-8.63028e-05 3.329e-06 0.00154827
0.00109818 9.14679e-05 -1.15898e-05
9.14679e-05 1.0975e-05 -3.4788e-06
-1.15898e-05 -3.4788e-06 -0.000107759
0.00111333 5.39809e-05 -1.14828e-05
5.39809e-05 9.1214e-06 -2.10179e-06
-1.14828e-05 -2.10179e-06 -0.000104445
0.0013638 8.53133e-05 -4.57062e-06
8.53133e-05 6.01624e-05 -8.20174e-07
-4.57062e-06 -8.20174e-07 -7.27579e-05
0.00138534 3.91737e-05 -4.38467e-06
3.91737e-05 5.65497e-05 -4.17446e-07
-4.38467e-06 -4.17446e-07 -6.87377e-05
0.00111529 2.01592e-05 -1.17024e-05
2.01592e-05 1.91411e-06 -8.63929e-07
-1.17024e-05 -8.63929e-07 -0.000108972
0.00065302 1.75647e-05 -1.72106e-05
1.75647e-05 -0.00010371 -9.94148e-08
-1.72106e-05 -9.94148e-08 -0.000167201
0.00110955 1.93141e-06 2.21835e-08
1.93141e-06 -1.5659e-06 -9.14344e-08
2.21835e-08 -9.14344e-08 -0.000111786
0.00139732 2.52993e-05 -8.82008e-08
2.52993e-05 5.58984e-05 -3.0999e-08
-8.82008e-08 -3.0999e-08 -6.75774e-05
0.00138541 6.08928e-05 -1.88895e-09
6.08928e-05 6.53905e-05 -2.83182e-08
-1.88895e-09 -2.83182e-08 -6.29563e-05
0.00164796 5.70877e-05 -1.02551e-07
5.70877e-05 0.000103389 1.76419e-07
-1.02551e-07 1.76419e-07 -1.25921e-05
0.00137649 0.000110247 -1.64519e-07
0.000110247 7.31301e-05 -8.75889e-08
-1.64519e-07 -8.75889e-08 -6.44342e-05
0.00157332 0.000102299 -1.2813e-07
0.000102299 9.83647e-05 4.05212e-08
-1.2813e-07 4.05212e-08 -3.03593e-05
0.00140098 6.59299e-06 4.17053e-06
6.59299e-06 5.72474e-05 9.08985e-09
4.17053e-06 9.08985e-09 -6.54124e-05
0.00166606 3.73561e-05 -8.45986e-07
3.73561e-05 0.000101051 2.62238e-07
-8.45986e-07 2.62238e-07 -1.17083e-05
0.00157787 8.45427e-05 -2.43483e-07
8.45427e-05 7.97724e-05 -4.91538e-07
-2.43483e-07 -4.91538e-07 -4.27583e-05
0.0017438 6.79368e-05 -1.23729e-06
6.79368e-05 9.28124e-05 1.63424e-07
-1.23729e-06 1.63424e-07 -8.69181e-06
0.00156279 0.000124159 1.16137e-07
0.000124159 0.000107006 -7.33615e-07
1.16137e-07 -7.33615e-07 -2.94046e-05
0.00167832 0.000123928 -3.13726e-06
0.000123928 8.69291e-05 -9.11489e-07
-3.13726e-06 -9.11489e-07 -2.10854e-05
0.000745559 -3.08601e-06 -1.13037e-05
-3.08601e-06 -0.000204866 5.56704e-07
-1.13037e-05 5.56704e-07 -0.00031718
0.00164312 -5.18437e-05 -1.9946e-05
-5.18437e-05 0.000312126 2.37569e-06
-1.9946e-05 2.37569e-06 0.000206749
0.0016955 -2.23185e-05 -7.36623e-06
-2.23185e-05 0.000234363 6.24158e-07
-7.36623e-06 6.24158e-07 0.000115405
0.00177648 -9.45503e-05 -5.23459e-06
-9.45503e-05 0.000304575 8.61103e-07
-5.23459e-06 8.61103e-07 0.000178091
0.000661236 -1.26716e-05 -7.61333e-06
-1.26716e-05 1.38138e-05 8.10226e-06
-7.61333e-06 8.10226e-06 -3.37271e-05
0.000933839 -0.000128134 -5.55091e-06
-0.000128134 0.00014619 4.68282e-06
-5.55091e-06 4.68282e-06 2.73248e-05
0.00103575 -0.000182729 -2.74658e-06
-0.000182729 9.77584e-05 1.30002e-06
-2.74658e-06 1.30002e-06 -6.88704e-05
0.00177611 -0.000148758 -7.87807e-06
-0.000148758 0.000329585 1.99156e-06
-7.87807e-06 1.99156e-06 0.000195937
0.00156239 -0.000123239 -7.43219e-07
-0.000123239 0.000116871 -2.56427e-07
-7.43219e-07 -2.56427e-07 -1.06621e-05
0.00144358 -0.000168823 -2.10325e-06
-0.000168823 0.000100275 3.51019e-08
-2.10325e-06 3.51019e-08 -4.40875e-05
0.00138168 -0.00021206 -5.48098e-06
-0.00021206 0.000116842 -3.22558e-07
-5.48098e-06 -3.22558e-07 -5.531e-05
0.00157853 -0.000205899 1.70958e-06
-0.000205899 0.000149254 -2.21943e-06
1.70958e-06 -2.21943e-06 -5.44593e-06
0.000713799 -5.53499e-05 -3.53066e-06
-5.53499e-05 3.7484e-05 2.72012e-06
-3.53066e-06 2.72012e-06 -6.06001e-05
0.000647645 -4.42977e-05 -2.23682e-06
-4.42977e-05 4.26922e-07 -2.58653e-07
-2.23682e-06 -2.58653e-07 -0.000114817
0.000696349 -6.59179e-06 -1.37273e-06
-6.59179e-06 2.81469e-05 3.23365e-06
-1.37273e-06 3.23365e-06 -4.807e-05
0.00158204 -8.17056e-06 -2.38205e-06
-8.17056e-06 0.000164233 1.2725e-07
-2.38205e-06 1.2725e-07 4.30359e-05
0.00167726 -6.29428e-05 -1.86612e-06
-6.29428e-05 0.000232706 3.37129e-07
-1.86612e-06 3.37129e-07 0.000110191
0.0016321 -3.58808e-05 -1.65676e-07
-3.58808e-05 0.000107297 2.6312e-07
-1.65676e-07 2.6312e-07 -7.48278e-06
0.00160943 -0.000100379 -8.27542e-07
-0.000100379 0.000125253 1.57814e-07
-8.27542e-07 1.57814e-07 -7.57521e-07
0.000769076 -8.75273e-05 1.84195e-07
-8.75273e-05 6.9859e-05 8.28219e-10
1.84195e-07 8.28219e-10 -3.73219e-05
0.00102718 -0.000170396 -4.90166e-07
-0.000170396 0.000167191 8.11264e-07
-4.90166e-07 8.11264e-07 1.44548e-05
0.00102452 -0.0002026 5.97226e-07
-0.0002026 2.3956e-05 -1.70103e-06
5.97226e-07 -1.70103e-06 -0.00016853
0.00153676 -0.000152052 -1.56507e-07
-0.000152052 0.000130051 1.01876e-07
-1.56507e-07 1.01876e-07 -6.98974e-06
0.00169322 -0.000141812 9.20358e-07
-0.000141812 0.000129098 2.7871e-07
9.20358e-07 2.7871e-07 1.71521e-05
0.00172484 -0.000241941 -6.48488e-07
-0.000241941 0.000269411 4.23042e-07
-6.48488e-07 4.23042e-07 8.82917e-05
0.00155696 -0.000191756 2.49734e-07
-0.000191756 0.000108411 2.24761e-07
2.49734e-07 2.24761e-07 -3.20236e-05
0.00189316 -0.000240752 9.81834e-07
-0.000240752 0.000278582 -3.85777e-07
9.81834e-07 -3.85777e-07 0.000132279
0.000917927 -0.000114184 3.20935e-08
-0.000114184 0.000143608 1.56837e-07
3.20935e-08 1.56837e-07 2.03614e-05
0.0010225 -0.000150521 -3.83065e-07
-0.000150521 0.000214509 3.61418e-07
-3.83065e-07 3.61418e-07 7.54831e-05
0.000680732 -5.72216e-06 1.68557e-07
-5.72216e-06 1.87005e-05 1.78191e-07
1.68557e-07 1.78191e-07 -4.86791e-05
0.000558237 -8.05439e-06 -1.41021e-07
-8.05439e-06 -3.98443e-05 -7.91338e-07
-1.41021e-07 -7.91338e-07 -0.000148071
0.00162732 -2.1798e-05 -2.48636e-08
-2.1798e-05 9.46191e-05 2.08793e-08
-2.48636e-08 2.08793e-08 -2.06337e-05
0.00182143 -6.768e-05 -2.29152e-07
-6.768e-05 0.000222256 7.36006e-07
-2.29152e-07 7.36006e-07 0.000104247
0.00165805 -5.33138e-05 2.62633e-07
-5.33138e-05 4.72573e-05 8.5332e-08
2.62633e-07 8.5332e-08 -5.7856e-05
0.00171832 -0.000126871 -4.11154e-06
-0.000126871 0.000109779 6.8956e-07
-4.11154e-06 6.8956e-07 7.34525e-06
0.00169912 -0.00017077 -2.9901e-06
-0.00017077 0.000154536 2.32907e-06
-2.9901e-06 2.32907e-06 3.02493e-05
0.00174382 -0.000144976 -3.22461e-07
-0.000144976 0.000114612 2.36403e-07
-3.22461e-07 2.36403e-07 1.80481e-05
0.00084746 -0.000145488 1.47543e-06
-0.000145488 9.48001e-05 -2.38079e-07
1.47543e-06 -2.38079e-07 -3.75399e-05
0.00162822 -0.000212917 -4.79934e-06
-0.000212917 9.49205e-05 2.97136e-06
-4.79934e-06 2.97136e-06 -2.90778e-05
0.000371967 -0.000141015 -5.20882e-07
-0.000141015 -0.00021994 -5.19651e-06
-5.20882e-07 -5.19651e-06 -0.00039453
0.00226636 -0.000308791 3.92029e-06
-0.000308791 0.000641833 -1.81633e-06
3.92029e-06 -1.81633e-06 0.000425382
0.00170266 -0.000253354 -3.22522e-07
-0.000253354 0.000205712 5.33432e-06
-3.22522e-07 5.33432e-06 2.46578e-05
0.00189611 -0.000244396 -1.25318e-06
-0.000244396 0.000248525 1.72729e-06
-1.25318e-06 1.72729e-06 0.000106516
0.000661331 -8.77166e-06 1.89111e-06
-8.77166e-06 6.14317e-06 -2.67483e-06
1.89111e-06 -2.67483e-06 -5.49629e-05
0.000572986 -1.35532e-05 1.68521e-07
-1.35532e-05 -1.85777e-05 -1.97812e-06
1.68521e-07 -1.97812e-06 -0.000124711
0.000884364 -0.000158277 6.66763e-07
-0.000158277 0.000124454 2.04164e-06
6.66763e-07 2.04164e-06 -1.44396e-05
0.000895254 -0.000113649 1.95423e-06
-0.000113649 0.000159452 7.51841e-08
1.95423e-06 7.51841e-08 2.57723e-05
0.00109627 -0.000177015 -6.13217e-07
-0.000177015 0.000248899 3.70964e-06
-6.13217e-07 3.70964e-06 0.000105494
0.000586354 -5.28192e-05 -1.39455e-06
-5.28192e-05 -3.23046e-05 -4.00014e-06
-1.39455e-06 -4.00014e-06 -5.18897e-05
0.00133271 0.000134461 -4.59387e-06
0.000134461 6.42132e-05 -1.32457e-06
-4.59387e-06 -1.32457e-06 -7.90135e-05
0.00061018 -6.72768e-05 5.46734e-08
-6.72768e-05 -7.3236e-06 -2.27528e-06
5.46734e-08 -2.27528e-06 -6.9342e-05
0.000725876 2.83335e-05 -6.62022e-07
2.83335e-05 5.46565e-05 -3.5643e-06
-6.62022e-07 -3.5643e-06 -3.83817e-05
0.000736235 1.67805e-06 1.60607e-06
1.67805e-06 7.2228e-05 -1.50816e-06
1.60607e-06 -1.50816e-06 -3.60409e-05
0.00126768 0.000181153 -6.18106e-06
0.000181153 8.42008e-05 -2.17979e-06
-6.18106e-06 -2.17979e-06 -7.2009e-05
0.00151421 0.000188994 -1.67038e-06
0.000188994 0.000123895 -1.00277e-07
-1.67038e-06 -1.00277e-07 -3.45142e-05
0.000946531 0.000152216 -2.13709e-06
0.000152216 0.000157399 -1.95763e-06
-2.13709e-06 -1.95763e-06 1.03977e-05
0.00135197 0.000219305 -2.58594e-06
0.000219305 0.000320845 -2.29498e-06
-2.58594e-06 -2.29498e-06 0.000122716
0.0018343 0.000239713 -4.13336e-06
0.000239713 0.000401489 -2.24866e-06
-4.13336e-06 -2.24866e-06 0.000229497
0.00106268 0.000206308 -4.51287e-06
0.000206308 2.72601e-05 -1.72774e-06
-4.51287e-06 -1.72774e-06 -0.000133228
0.000615137 -4.78843e-05 6.18915e-08
-4.78843e-05 -2.56763e-05 6.24912e-10
6.18915e-08 6.24912e-10 -4.20781e-05
0.000671637 -4.43357e-05 -5.93529e-07
-4.43357e-05 1.28709e-05 2.02648e-07
-5.93529e-07 2.02648e-07 -3.67586e-05
0.000920617 9.89569e-05 6.67656e-07
9.89569e-05 0.000161527 6.89216e-08
6.67656e-07 6.89216e-08 3.36912e-05
0.000731081 -1.33485e-05 -4.27054e-07
-1.33485e-05 6.86338e-05 2.74096e-07
-4.27054e-07 2.74096e-07 -2.35072e-05
0.000739206 7.48243e-05 1.044e-06
7.48243e-05 8.2404e-05 -3.96606e-07
1.044e-06 -3.96606e-07 -4.82342e-05
0.00154329 0.000161805 8.00595e-07
0.000161805 0.000111581 -1.98083e-07
8.00595e-07 -1.98083e-07 -3.66514e-05
0.00144675 0.000206193 6.13943e-07
0.000206193 0.000121476 5.25526e-07
6.13943e-07 5.25526e-07 -4.39511e-05
0.00164354 0.000224472 1.36981e-06
0.000224472 0.000150746 3.20773e-07
1.36981e-06 3.20773e-07 -9.01042e-06
0.00106175 0.000181791 1.27976e-06
0.000181791 0.000222408 1.24871e-06
1.27976e-06 1.24871e-06 3.66505e-05
0.00159205 0.000243791 2.03916e-06
0.000243791 0.00022323 -6.48092e-07
2.03916e-06 -6.48092e-07 4.84007e-05
0.000889147 0.00020015 -3.0515e-06
0.00020015 -2.53639e-05 -2.04329e-06
-3.0515e-06 -2.04329e-06 -0.000225844
0.000700241 -3.03143e-05 1.87529e-06
-3.03143e-05 1.90163e-05 1.86897e-06
1.87529e-06 1.86897e-06 -2.51274e-05
0.00078241 2.16833e-05 3.32819e-07
2.16833e-05 8.71649e-05 1.52803e-06
3.32819e-07 1.52803e-06 9.87903e-06
0.00106173 0.000169502 -6.09723e-07
0.000169502 0.000245376 -2.77346e-07
-6.09723e-07 -2.77346e-07 8.71844e-05
0.000866948 3.27225e-05 -1.18826e-07
3.27225e-05 0.000154117 9.95749e-07
-1.18826e-07 9.95749e-07 4.31986e-05
0.00114575 8.67939e-05 -2.99083e-06
8.67939e-05 0.000298997 -3.80983e-06
-2.99083e-06 -3.80983e-06 0.000161455
0.0016159 0.00017076 -2.71679e-06
0.00017076 0.000104816 -2.83926e-06
-2.71679e-06 -2.83926e-06 -3.26114e-05
0.00163217 0.000244559 1.76071e-06
0.000244559 0.000183035 4.60215e-07
1.76071e-06 4.60215e-07 1.04928e-05
0.00147349 0.000241569 -1.46453e-07
0.000241569 2.28616e-05 -1.44155e-06
-1.46453e-07 -1.44155e-06 -0.000125855
0.00101517 0.000187197 -7.74445e-07
0.000187197 0.000181749 2.10193e-06
-7.74445e-07 2.10193e-06 -3.55214e-05
0.00143471 0.000254216 4.36551e-06
0.000254216 0.000151952 -1.88243e-07
4.36551e-06 -1.88243e-07 -4.33281e-05
0.000691074 -2.90899e-05 -5.09566e-08
-2.90899e-05 9.44143e-06 -7.91848e-09
-5.09566e-08 -7.91848e-09 -3.28599e-05
0.000620266 2.05901e-06 1.35796e-06
2.05901e-06 -1.98824e-05 1.15735e-06
1.35796e-06 1.15735e-06 -8.35559e-05
0.000640858 -1.37698e-05 -5.8753e-07
-1.37698e-05 -3.79132e-06 -6.57908e-08
-5.8753e-07 -6.57908e-08 -6.8627e-05
0.000921432 5.14941e-05 8.40206e-07
5.14941e-05 0.000168074 -3.7314e-07
8.40206e-07 -3.7314e-07 8.86167e-05
0.000740952 3.95592e-05 1.63739e-06
3.95592e-05 5.46437e-05 9.24574e-07
1.63739e-06 9.24574e-07 -1.08668e-05
0.000700417 1.47726e-06 1.2431e-06
1.47726e-06 9.28696e-06 1.8897e-06
1.2431e-06 1.8897e-06 -3.10644e-05
0.000703648 -1.938e-05 -3.09796e-07
-1.938e-05 1.16315e-05 1.48949e-08
-3.09796e-07 1.48949e-08 -2.89588e-05
0.00126288 -3.80038e-05 8.35498e-07
-3.80038e-05 0.000326236 2.33732e-06
8.35498e-07 2.33732e-06 0.000319194
0.000700423 -3.10029e-05 -1.10373e-06
-3.10029e-05 1.2604e-05 -1.94163e-06
-1.10373e-06 -1.94163e-06 -2.90691e-05
0.00128795 -4.48875e-05 -4.86545e-06
-4.48875e-05 0.000346034 -1.2892e-06
-4.86545e-06 -1.2892e-06 0.000337677
0.000907607 -3.4622e-05 2.19018e-05
-3.4622e-05 0.000134427 6.9442e-06
2.19018e-05 6.9442e-06 0.000142735
0.00128733 -5.09086e-05 -9.82162e-06
-5.09086e-05 0.000352881 -3.46796e-06
-9.82162e-06 -3.46796e-06 0.000342589
0.00152859 -5.39763e-05 2.00647e-05
-5.39763e-05 0.000500511 1.96035e-06
2.00647e-05 1.96035e-06 0.000509597
0.00218026 -7.51187e-05 -2.81809e-05
-7.51187e-05 0.000882565 -3.44576e-06
-2.81809e-05 -3.44576e-06 0.00089268
0.000577146 4.40317e-05 8.27165e-07
4.40317e-05 -4.38096e-05 -4.71546e-06
8.27165e-07 -4.71546e-06 -6.71285e-05
0.000581993 4.55595e-05 -2.18369e-07
4.55595e-05 -3.35333e-05 8.28194e-08
-2.18369e-07 8.28194e-08 -6.11781e-05
0.00262442 9.21906e-05 3.80119e-05
9.21906e-05 0.00114353 -3.50011e-06
3.80119e-05 -3.50011e-06 0.00114792
0.0028416 0.000101893 -3.92245e-06
0.000101893 0.00127235 -2.61684e-07
-3.92245e-06 -2.61684e-07 0.00127454
0.000609183 4.12555e-05 -1.91252e-06
4.12555e-05 -1.26864e-05 6.08325e-06
-1.91252e-06 6.08325e-06 -4.48201e-05
0.00310288 0.000102668 -7.4268e-05
0.000102668 0.00142336 3.19741e-06
-7.4268e-05 3.19741e-06 0.00142525
0.00135752 0.000110146 -4.89552e-06
0.000110146 6.274e-05 -1.10481e-06
-4.89552e-06 -1.10481e-06 -7.50518e-05
0.00136986 6.12296e-05 -4.53541e-06
6.12296e-05 5.83913e-05 -5.774e-07
-4.53541e-06 -5.774e-07 -7.02034e-05
0.00157703 0.00010211 -1.16197e-07
0.00010211 0.000105068 7.19116e-07
-1.16197e-07 7.19116e-07 -2.3805e-05
0.00169239 5.83082e-05 2.48776e-07
5.83082e-05 0.000125202 4.09515e-07
2.48776e-07 4.09515e-07 1.07525e-05
0.00139044 2.83453e-05 -3.99046e-06
2.83453e-05 5.27439e-05 -2.20703e-07
-3.99046e-06 -2.20703e-07 -7.08556e-05
0.00111482 6.73746e-06 -1.14303e-05
6.73746e-06 1.11678e-06 -8.87399e-08
-1.14303e-05 -8.87399e-08 -0.000109071
0.00140051 1.01154e-05 7.2888e-08
1.01154e-05 5.6986e-05 -1.88157e-08
7.2888e-08 -1.88157e-08 -6.57573e-05
0.0016758 2.70782e-05 -7.42658e-07
2.70782e-05 0.00010653 3.32355e-08
-7.42658e-07 3.32355e-08 -6.03466e-06
0.0015992 8.35103e-05 -1.01856e-07
8.35103e-05 9.34549e-05 3.60077e-08
-1.01856e-07 3.60077e-08 -2.89243e-05
0.0017919 7.05067e-05 1.10755e-06
7.05067e-05 0.000118401 8.67781e-07
1.10755e-06 8.67781e-07 1.97436e-05
0.00155235 0.000125094 -1.89515e-07
0.000125094 9.98533e-05 -5.88467e-08
-1.89515e-07 -5.88467e-08 -3.71249e-05
0.00168371 0.000121609 -2.50026e-07
0.000121609 8.73707e-05 7.92624e-07
-2.50026e-07 7.92624e-07 -1.82939e-05
0.00165749 -5.34708e-07 5.27915e-08
-5.34708e-07 0.000102863 2.16075e-07
5.27915e-08 2.16075e-07 -1.00132e-05
0.00169808 4.42462e-05 3.11031e-08
4.42462e-05 5.89317e-05 9.888e-07
3.11031e-08 9.888e-07 -4.14719e-05
0.00178708 0.000101208 -3.73538e-06
0.000101208 0.000127587 -6.42305e-07
-3.73538e-06 -6.42305e-07 2.91835e-05
0.00180098 7.7367e-05 4.39124e-07
7.7367e-05 0.00011147 3.34663e-07
4.39124e-07 3.34663e-07 2.64259e-05
0.00158249 0.000127439 -1.98295e-06
0.000127439 5.56545e-05 -2.29387e-06
-1.98295e-06 -2.29387e-06 -6.22175e-05
0.00191355 0.000135702 6.4333e-07
0.000135702 0.000178052 -1.28332e-08
6.4333e-07 -1.28332e-08 8.83419e-05
0.00141266 -6.91906e-06 -6.05367e-06
-6.91906e-06 6.63991e-05 2.984e-07
-6.05367e-06 2.984e-07 -5.61751e-05
0.00168671 -6.58904e-05 -7.06424e-06
-6.58904e-05 0.000238036 7.85129e-07
-7.06424e-06 7.85129e-07 0.00011525
0.00159536 -3.38137e-05 -2.00893e-07
-3.38137e-05 8.51283e-05 -3.95158e-07
-2.00893e-07 -3.95158e-07 -2.77264e-05
0.00166549 -9.93258e-05 -9.10463e-07
-9.93258e-05 0.000152672 -1.16801e-07
-9.10463e-07 -1.16801e-07 2.68997e-05
0.000864215 -0.000101248 -4.32486e-06
-0.000101248 0.000122811 3.08534e-06
-4.32486e-06 3.08534e-06 1.41092e-05
0.00114107 -0.000179852 -2.6156e-06
-0.000179852 0.000228178 3.89609e-06
-2.6156e-06 3.89609e-06 7.39347e-05
0.000868719 -0.000186791 -2.80545e-06
-0.000186791 -5.17337e-05 1.05331e-06
-2.80545e-06 1.05331e-06 -0.000240566
0.00165015 -0.000157076 -1.8484e-06
-0.000157076 0.000193519 1.53759e-07
-1.8484e-06 1.53759e-07 5.50941e-05
0.00172204 -0.000141845 3.69479e-06
-0.000141845 0.000146974 -1.534e-06
3.69479e-06 -1.534e-06 3.8364e-05
0.0015786 -0.000191741 1.79126e-06
-0.000191741 0.000120853 -1.17764e-06
1.79126e-06 -1.17764e-06 -1.9091e-05
0.00160721 -0.000235558 -2.67104e-06
-0.000235558 0.00020011 -1.19227e-06
-2.67104e-06 -1.19227e-06 1.77512e-05
0.00191412 -0.000240653 5.06522e-06
-0.000240653 0.000292376 -5.78942e-06
5.06522e-06 -5.78942e-06 0.000148097
0.00094227 -0.000112413 -1.55982e-06
-0.000112413 0.000157939 -2.05929e-07
-1.55982e-06 -2.05929e-07 3.49853e-05
0.000855972 -0.000114663 -1.86991e-06
-0.000114663 0.000113738 -1.26254e-06
-1.86991e-06 -1.26254e-06 -1.81263e-05
0.000710172 -8.90733e-06 -1.63398e-06
-8.90733e-06 3.45318e-05 2.94288e-06
-1.63398e-06 2.94288e-06 -3.30333e-05
0.000520291 9.10295e-06 -2.58535e-07
9.10295e-06 -6.26026e-05 3.97822e-07
-2.58535e-07 3.97822e-07 -0.000167707
0.00162447 -2.15321e-05 -2.31108e-09
-2.15321e-05 9.31746e-05 4.15746e-09
-2.31108e-09 4.15746e-09 -2.21418e-05
0.0017439 -6.66038e-05 -4.32365e-07
-6.66038e-05 0.000177511 -3.92482e-08
-4.32365e-07 -3.92482e-08 5.81058e-05
0.00169974 -5.2647e-05 7.26778e-07
-5.2647e-05 7.30946e-05 -1.57851e-07
7.26778e-07 -1.57851e-07 -3.04736e-05
0.00167198 -0.00012475 -9.78471e-07
-0.00012475 9.07685e-05 3.9635e-07
-9.78471e-07 3.9635e-07 -1.36416e-05
0.000960306 -0.000142854 -3.70705e-07
-0.000142854 0.000156193 6.60768e-07
-3.70705e-07 6.60768e-07 2.44546e-05
0.000667668 -0.000160395 9.33422e-07
-0.000160395 -5.05036e-05 -1.62645e-06
9.33422e-07 -1.62645e-06 -0.000224531
0.00161135 -0.000262767 -1.00263e-06
-0.000262767 0.000277147 5.40289e-07
-1.00263e-06 5.40289e-07 6.40323e-05
0.00163237 -0.000167979 -1.16425e-06
-0.000167979 0.000121508 5.18396e-07
-1.16425e-06 5.18396e-07 -5.36383e-06
0.00169174 -0.000146175 1.85618e-06
-0.000146175 8.26354e-05 -9.47255e-07
1.85618e-06 -9.47255e-07 -1.1462e-05
0.00172455 -0.000255134 -1.24177e-06
-0.000255134 0.000218899 1.07414e-06
-1.24177e-06 1.07414e-06 3.69561e-05
0.00164981 -0.000213112 -2.99535e-07
-0.000213112 0.000109857 7.21464e-07
-2.99535e-07 7.21464e-07 -1.41263e-05
0.00177912 -0.000239123 2.59995e-06
-0.000239123 0.000176621 -3.88363e-06
2.59995e-06 -3.88363e-06 3.7542e-05
0.000994501 -0.000167184 3.02639e-07
-0.000167184 0.000185998 5.7848e-07
3.02639e-07 5.7848e-07 4.57419e-05
0.0010752 -0.000167467 1.0715e-06
-0.000167467 0.000233053 5.91318e-07
1.0715e-06 5.91318e-07 9.30647e-05
0.000836322 -8.17585e-05 -4.39139e-07
-8.17585e-05 0.000122562 -2.31894e-08
-4.39139e-07 -2.31894e-08 -7.29014e-06
0.000541825 7.20794e-06 -7.20773e-07
7.20794e-06 -6.13099e-05 1.20668e-07
-7.20773e-07 1.20668e-07 -0.000123905
0.000547678 1.27086e-05 -6.21642e-08
1.27086e-05 -3.65047e-05 -5.7524e-07
-6.21642e-08 -5.7524e-07 -0.000138411
0.00180016 -3.46413e-05 5.65188e-07
-3.46413e-05 0.00011824 -3.21709e-07
5.65188e-07 -3.21709e-07 1.75539e-05
0.00176623 -7.48876e-05 -1.05624e-07
-7.48876e-05 0.000106137 1.0345e-07
-1.05624e-07 1.0345e-07 8.60833e-06
0.00182733 -0.00014533 -2.58434e-06
-0.00014533 0.000135547 -4.4609e-07
-2.58434e-06 -4.4609e-07 5.20166e-05
0.00155845 -0.000169934 -2.06995e-06
-0.000169934 2.27626e-05 1.21076e-06
-2.06995e-06 1.21076e-06 -7.83793e-05
0.000874593 -0.000163011 -6.16733e-07
-0.000163011 0.000109429 -2.64118e-07
-6.16733e-07 -2.64118e-07 -4.09881e-05
0.00204979 -0.000247464 -3.76597e-06
-0.000247464 0.000284928 1.93861e-06
-3.76597e-06 1.93861e-06 0.000166791
-9.22605e-05 -0.000119452 -1.70374e-06
-0.000119452 -0.00050094 -5.72156e-06
-1.70374e-06 -5.72156e-06 -0.000684677
0.00242331 -0.000335655 2.30274e-06
-0.000335655 0.000675755 2.89362e-07
2.30274e-06 2.89362e-07 0.000451087
0.00163828 -0.000259202 1.11467e-06
-0.000259202 0.000124892 3.59299e-06
1.11467e-06 3.59299e-06 -5.0811e-05
0.000369594 1.59175e-05 1.2109e-06
1.59175e-05 -0.00015937 -3.53257e-06
1.2109e-06 -3.53257e-06 -0.000217632
0.000820328 -1.95288e-05 1.37151e-06
-1.95288e-05 0.000123481 -1.15852e-06
1.37151e-06 -1.15852e-06 2.77433e-05
0.00090054 -5.48708e-05 -3.67139e-07
-5.48708e-05 0.000166421 -5.76342e-07
-3.67139e-07 -5.76342e-07 4.93752e-05
0.00100659 -0.000172408 -1.88261e-06
-0.000172408 0.000182459 2.86491e-06
-1.88261e-06 2.86491e-06 4.15612e-05
0.000903143 -0.000110606 2.30864e-06
-0.000110606 0.00015189 2.47416e-06
2.30864e-06 2.47416e-06 1.25205e-05
0.000729283 -0.000154446 3.0085e-07
-0.000154446 1.73472e-05 1.96467e-06
3.0085e-07 1.96467e-06 -0.000121329
0.000606589 -4.66889e-05 -1.32669e-06
-4.66889e-05 -3.06909e-05 -3.93665e-06
-1.32669e-06 -3.93665e-06 -4.69331e-05
0.00065427 -4.7158e-05 -1.67573e-06
-4.7158e-05 3.19905e-06 -1.74689e-06
-1.67573e-06 -1.74689e-06 -4.64279e-05
0.00155194 0.000163403 -8.84549e-07
0.000163403 0.000114029 -7.80536e-08
-8.84549e-07 -7.80536e-08 -3.47509e-05
0.00068384 -6.60784e-05 1.17842e-06
-6.60784e-05 4.14682e-05 -1.51275e-06
1.17842e-06 -1.51275e-06 -4.78804e-05
0.000820313 9.14543e-05 -6.30562e-07
9.14543e-05 0.000102583 -9.03491e-07
-6.30562e-07 -9.03491e-07 -2.17322e-05
0.000598007 4.25163e-05 1.59978e-06
4.25163e-05 -2.25483e-06 -4.33718e-07
1.59978e-06 -4.33718e-07 -0.000128492
0.00149488 0.000209067 -2.63265e-06
0.000209067 0.000150623 -7.95731e-07
-2.63265e-06 -7.95731e-07 -1.52611e-05
0.00160176 0.000224145 1.33372e-06
0.000224145 0.00012764 8.81424e-07
1.33372e-06 8.81424e-07 -3.29234e-05
0.000990309 0.000175412 -1.47884e-07
0.000175412 0.000187241 -9.44008e-07
-1.47884e-07 -9.44008e-07 2.14139e-06
0.00140605 0.000238725 -1.49004e-06
0.000238725 0.000255706 -1.50755e-06
-1.49004e-06 -1.50755e-06 5.39409e-05
0.00163997 0.000245589 -4.2807e-06
0.000245589 0.000257571 -2.46832e-06
-4.2807e-06 -2.46832e-06 8.39966e-05
0.000687382 -3.12618e-05 -2.25019e-07
-3.12618e-05 1.22093e-05 4.218e-08
-2.25019e-07 4.218e-08 -3.20448e-05
0.000731679 -1.96621e-05 -7.76937e-07
-1.96621e-05 5.71462e-05 3.75495e-07
-7.76937e-07 3.75495e-07 -1.80645e-05
0.00101143 0.000165049 -8.37993e-07
0.000165049 0.000218656 -2.03225e-07
-8.37993e-07 -2.03225e-07 6.10074e-05
0.000800026 -4.16342e-06 1.77981e-07
-4.16342e-06 0.000113402 1.52786e-07
1.77981e-07 1.52786e-07 6.81627e-06
0.000920493 9.66392e-05 2.72022e-07
9.66392e-05 0.000180144 -3.69236e-08
2.72022e-07 -3.69236e-08 3.92018e-05
0.00163254 0.000174123 -1.67793e-06
0.000174123 0.000114532 -1.31187e-06
-1.67793e-06 -1.31187e-06 -2.40186e-05
0.00160985 0.000242548 1.42184e-06
0.000242548 0.000170488 3.97244e-07
1.42184e-06 3.97244e-07 -2.26441e-06
0.00158276 0.000243612 5.92139e-07
0.000243612 8.39764e-05 6.48229e-08
5.92139e-07 6.48229e-08 -6.36146e-05
0.000721551 0.000167316 3.78181e-07
0.000167316 1.34749e-05 3.27059e-06
3.78181e-07 3.27059e-06 -0.000200222
0.00170024 0.000273431 -1.09295e-06
0.000273431 0.00030483 -1.59308e-07
-1.09295e-06 -1.59308e-07 0.000106254
0.000776459 1.74351e-05 9.74384e-07
1.74351e-05 7.40461e-05 1.06904e-06
9.74384e-07 1.06904e-06 6.56872e-06
0.000568775 -2.6731e-05 -8.87644e-07
-2.6731e-05 -2.5683e-05 1.96724e-06
-8.87644e-07 1.96724e-06 -0.000116147
0.000936806 0.000166243 -2.69983e-06
0.000166243 0.000165745 -1.56012e-06
-2.69983e-06 -1.56012e-06 -8.4326e-06
0.000769811 4.66932e-05 -2.24543e-06
4.66932e-05 0.000109025 -1.53496e-06
-2.24543e-06 -1.53496e-06 -2.2728e-05
0.00099894 0.000155872 -1.12552e-06
0.000155872 0.000207853 -1.96193e-06
-1.12552e-06 -1.96193e-06 5.74739e-05
0.00160575 0.000189346 -1.86688e-06
0.000189346 2.69523e-05 -2.61969e-06
-1.86688e-06 -2.61969e-06 -8.27991e-05
0.00179158 0.000281515 1.03227e-06
0.000281515 0.000247818 -2.06898e-06
1.03227e-06 -2.06898e-06 7.14782e-05
0.00150886 0.000247371 2.07e-06
0.000247371 2.59125e-05 -7.33691e-09
2.07e-06 -7.33691e-09 -0.000119781
0.00183542 0.000258019 1.93099e-06
0.000258019 0.000570399 6.18979e-06
1.93099e-06 6.18979e-06 0.000335829
0.00114905 0.000245166 -1.10703e-06
0.000245166 -3.03176e-05 -8.19042e-07
-1.10703e-06 -8.19042e-07 -0.000225265
0.000690765 -3.08334e-05 -1.59368e-06
-3.08334e-05 9.85621e-06 -1.85907e-06
-1.59368e-06 -1.85907e-06 -3.2693e-05
0.00067614 4.77738e-06 4.71192e-07
4.77738e-06 1.34737e-05 4.13038e-07
4.71192e-07 4.13038e-07 -5.07714e-05
0.000639318 -2.19304e-05 -2.72299e-07
-2.19304e-05 1.07053e-06 4.93758e-07
-2.72299e-07 4.93758e-07 -7.23692e-05
0.000560154 -4.20866e-05 -8.11701e-07
-4.20866e-05 -5.1026e-05 -8.27026e-07
-8.11701e-07 -8.27026e-07 -0.000115107
0.000729523 1.13691e-05 -2.88448e-08
1.13691e-05 4.69389e-05 1.72822e-08
-2.88448e-08 1.72822e-08 -1.74209e-05
0.000753306 1.08669e-05 -2.32782e-08
1.08669e-05 6.59056e-05 -3.60848e-07
-2.32782e-08 -3.60848e-07 -8.22837e-06
0.000846979 3.82561e-05 -2.79839e-07
3.82561e-05 0.000126061 -8.33203e-07
-2.79839e-07 -8.33203e-07 4.39645e-05
0.000643568 -2.75484e-05 6.96177e-07
-2.75484e-05 1.07912e-05 1.37124e-07
6.96177e-07 1.37124e-07 -6.94803e-05
0.000753262 2.63663e-05 5.45771e-07
2.63663e-05 5.65338e-05 8.09056e-07
5.45771e-07 8.09056e-07 -5.47713e-06
0.00070177 8.37328e-06 1.23916e-06
8.37328e-06 1.26483e-05 1.805e-06
1.23916e-06 1.805e-06 -2.85471e-05
0.000708141 -7.44481e-06 -4.46992e-07
-7.44481e-06 1.41588e-05 1.38401e-08
-4.46992e-07 1.38401e-08 -2.63782e-05
0.00126944 -2.77746e-05 8.45698e-07
-2.77746e-05 0.000325697 2.28629e-06
8.45698e-07 2.28629e-06 0.000319566
0.000697663 -2.777e-05 -7.72911e-07
-2.777e-05 9.21552e-06 -1.95012e-06
-7.72911e-07 -1.95012e-06 -3.17644e-05
0.00129165 -3.53179e-05 -4.16606e-06
-3.53179e-05 0.000342427 -1.34668e-06
-4.16606e-06 -1.34668e-06 0.000335579
0.000914756 -2.85979e-05 1.80466e-05
-2.85979e-05 0.000132235 7.21733e-06
1.80466e-05 7.21733e-06 0.000141816
0.0013118 -4.27952e-05 -8.38753e-06
-4.27952e-05 0.000359203 -5.01533e-06
-8.38753e-06 -5.01533e-06 0.00035104
0.000849924 -3.56235e-05 6.99786e-06
-3.56235e-05 0.000101422 2.69277e-06
6.99786e-06 2.69277e-06 0.000109314
0.00211518 -7.11034e-05 -5.85865e-06
-7.11034e-05 0.000837705 -1.69467e-06
-5.85865e-06 -1.69467e-06 0.000849011
0.000599446 3.83246e-05 6.01208e-07
3.83246e-05 -3.87784e-05 -4.26252e-06
6.01208e-07 -4.26252e-06 -5.75839e-05
0.00059072 4.71442e-05 -8.42892e-08
4.71442e-05 -3.49342e-05 5.24244e-08
-8.42892e-08 5.24244e-08 -5.89481e-05
0.00249412 8.0904e-05 3.06873e-05
8.0904e-05 0.00106239 -3.824e-06
3.06873e-05 -3.824e-06 0.00106955
0.000607634 4.55306e-05 -1.44651e-06
4.55306e-05 -1.84392e-05 5.37051e-06
-1.44651e-06 5.37051e-06 -4.63869e-05
0.00268129 9.25633e-05 -3.54938e-06
9.25633e-05 0.00117585 -2.41346e-07
-3.54938e-06 -2.41346e-07 0.00118024
0.00290377 9.77643e-05 -6.01422e-05
9.77643e-05 0.0013066 3.1267e-06
-6.01422e-05 3.1267e-06 0.00130987
0.00154118 0.000125916 -1.44879e-06
0.000125916 9.24956e-05 3.8188e-07
-1.44879e-06 3.8188e-07 -4.5035e-05
0.00162448 8.16249e-05 5.17821e-07
8.16249e-05 0.000109147 6.62009e-07
5.17821e-07 6.62009e-07 -1.29914e-05
0.00168609 0.000119204 2.90958e-06
0.000119204 8.61077e-05 1.9204e-06
2.90958e-06 1.9204e-06 -1.7196e-05
0.0018417 7.30051e-05 2.99734e-06
7.30051e-05 0.000144761 4.0714e-07
2.99734e-06 4.0714e-07 4.89564e-05
0.00168443 1.94608e-05 -8.93708e-07
1.94608e-05 0.000111618 -1.6178e-08
-8.93708e-07 -1.6178e-08 -8.037e-07
0.00139905 1.29553e-05 -3.84801e-06
1.29553e-05 5.61782e-05 -2.17638e-08
-3.84801e-06 -2.17638e-08 -6.66006e-05
0.00164626 2.40982e-06 -5.95811e-07
2.40982e-06 9.62611e-05 -2.0722e-08
-5.95811e-07 -2.0722e-08 -1.7766e-05
0.00172198 3.80826e-05 8.3183e-07
3.80826e-05 7.45491e-05 -9.24529e-08
8.3183e-07 -9.24529e-08 -2.68027e-05
0.00174607 9.9137e-05 -1.12918e-06
9.9137e-05 0.000103151 -2.99417e-07
-1.12918e-06 -2.99417e-07 3.34308e-06
0.00176383 7.7479e-05 2.12992e-06
7.7479e-05 8.62127e-05 -2.84631e-08
2.12992e-06 -2.84631e-08 3.69752e-06
0.00160398 0.000126329 -7.70905e-07
0.000126329 7.38101e-05 -6.77232e-08
-7.70905e-07 -6.77232e-08 -4.40165e-05
0.0018046 0.000136711 3.3129e-06
0.000136711 0.00011341 9.50704e-07
3.3129e-06 9.50704e-07 2.63115e-05
0.00174979 -1.2431e-06 -2.94287e-07
-1.2431e-06 0.000101453 2.35407e-07
-2.94287e-07 2.35407e-07 -4.47388e-07
0.00166411 4.63612e-05 3.33216e-07
4.63612e-05 3.02413e-05 1.12281e-06
3.33216e-07 1.12281e-06 -5.38867e-05
0.00180478 0.000100477 -3.28966e-07
0.000100477 9.51994e-05 -1.53493e-07
-3.28966e-07 -1.53493e-07 1.81092e-05
0.00190023 0.000161314 -8.40555e-07
0.000161314 0.000169381 -1.19954e-06
-8.40555e-07 -1.19954e-06 8.03168e-05
0.00162075 -2.12681e-05 -2.96129e-07
-2.12681e-05 9.13924e-05 1.64199e-08
-2.96129e-07 1.64199e-08 -2.39868e-05
0.00166336 -6.72512e-05 -4.4582e-07
-6.72512e-05 0.000131383 -6.71611e-07
-4.4582e-07 -6.71611e-07 1.04968e-05
0.00174514 -5.22085e-05 2.02321e-06
-5.22085e-05 0.000101063 -3.07284e-07
2.02321e-06 -3.07284e-07 -9.76352e-07
0.00162939 -0.000122363 1.61184e-06
-0.000122363 7.3692e-05 -2.93787e-07
1.61184e-06 -2.93787e-07 -3.26563e-05
0.00110542 -0.000152362 -1.86357e-06
-0.000152362 0.000237791 1.61265e-06
-1.86357e-06 1.61265e-06 0.000103908
0.000969507 -0.000180904 8.51969e-07
-0.000180904 0.000122554 1.99507e-06
8.51969e-07 1.99507e-06 -5.05585e-05
0.000924608 -0.000214495 -2.34921e-06
-0.000214495 -0.000104795 2.41264e-06
-2.34921e-06 2.41264e-06 -0.000314433
0.00156374 -0.000165149 3.73557e-07
-0.000165149 8.76012e-05 -6.56805e-07
3.73557e-07 -6.56805e-07 -4.18503e-05
0.00164003 -0.000147735 4.52037e-06
-0.000147735 5.10002e-05 -2.29332e-06
4.52037e-06 -2.29332e-06 -4.07033e-05
0.00167308 -0.000213474 4.06171e-06
-0.000213474 0.000125084 -1.44343e-06
4.06171e-06 -1.44343e-06 1.09291e-06
0.00171206 -0.000255386 -1.97598e-06
-0.000255386 0.000212846 -2.76958e-06
-1.97598e-06 -2.76958e-06 3.02046e-05
0.00165994 -0.000234191 3.38046e-06
-0.000234191 0.000104959 -9.38253e-06
3.38046e-06 -9.38253e-06 -3.12971e-05
0.00111026 -0.000176487 3.61519e-07
-0.000176487 0.000250946 -8.32221e-07
3.61519e-07 -8.32221e-07 0.000109223
0.00108323 -0.000168717 1.22969e-07
-0.000168717 0.000233842 -3.59649e-06
1.22969e-07 -3.59649e-06 9.50212e-05
0.000820077 -6.0182e-05 -2.98285e-07
-6.0182e-05 0.000108951 2.43069e-07
-2.98285e-07 2.43069e-07 -1.69815e-05
0.000419221 1.56948e-05 -1.86619e-06
1.56948e-05 -0.000130138 2.68988e-06
-1.86619e-06 2.68988e-06 -0.000194438
0.000526152 3.44292e-05 1.95194e-07
3.44292e-05 -5.04823e-05 6.14303e-07
1.95194e-07 6.14303e-07 -0.000149413
0.00182107 -3.71745e-05 1.66707e-07
-3.71745e-05 0.000132981 -2.65579e-08
1.66707e-07 -2.65579e-08 3.22253e-05
0.00177811 -7.78675e-05 4.92957e-07
-7.78675e-05 0.000114167 -4.71444e-07
4.92957e-07 -4.71444e-07 1.60444e-05
0.0017547 -0.000142565 -1.3544e-06
-0.000142565 9.81241e-05 8.98938e-08
-1.3544e-06 8.98938e-08 1.23665e-05
0.00103578 -0.000174926 -1.59543e-07
-0.000174926 0.000197337 1.12457e-06
-1.59543e-07 1.12457e-06 4.51912e-05
0.000763318 -0.000181142 1.59494e-06
-0.000181142 -2.42167e-05 -2.51096e-06
1.59494e-06 -2.51096e-06 -0.000213233
0.00170351 -0.000285728 -1.42017e-06
-0.000285728 0.000276292 1.04648e-06
-1.42017e-06 1.04648e-06 5.42353e-05
0.00159453 -0.000171172 4.53535e-07
-0.000171172 4.11454e-05 -1.58605e-07
4.53535e-07 -1.58605e-07 -6.056e-05
0.00160088 -0.000254499 8.90075e-07
-0.000254499 0.000106786 -2.02265e-06
8.90075e-07 -2.02265e-06 -6.39758e-05
0.00177995 -0.000236067 -4.85011e-07
-0.000236067 0.000139346 -1.06306e-06
-4.85011e-07 -1.06306e-06 2.02118e-05
0.000391122 2.00765e-05 1.2498e-07
2.00765e-05 -0.000148427 -7.6597e-07
1.2498e-07 -7.6597e-07 -0.000205307
0.00107059 -0.000176786 -7.45392e-08
-0.000176786 0.00021451 6.37376e-07
-7.45392e-08 6.37376e-07 7.33478e-05
0.000768995 -0.000156077 -7.77203e-07
-0.000156077 4.45019e-05 7.12338e-09
-7.77203e-07 7.12338e-09 -9.04349e-05
0.00101074 -0.000123176 -5.62954e-07
-0.000123176 0.000217177 9.39918e-07
-5.62954e-07 9.39918e-07 7.20349e-05
0.000956512 -5.44459e-05 -6.84302e-08
-5.44459e-05 0.000198279 -1.17458e-07
-6.84302e-08 -1.17458e-07 8.11506e-05
0.000688577 6.93374e-06 -3.09799e-07
6.93374e-06 4.43367e-05 3.72753e-07
-3.09799e-07 3.72753e-07 -4.93158e-05
0.00160735 -4.21073e-05 -4.98597e-07
-4.21073e-05 2.83129e-06 -1.42915e-07
-4.98597e-07 -1.42915e-07 -8.86746e-05
0.00191315 -0.000108675 -9.41377e-07
-0.000108675 0.000146581 -1.34777e-07
-9.41377e-07 -1.34777e-07 7.02323e-05
0.00155974 -0.000159054 -3.65901e-07
-0.000159054 -2.22409e-05 6.95357e-08
-3.65901e-07 6.95357e-08 -0.00010252
0.00193867 -0.000213955 -1.37047e-06
-0.000213955 0.000176681 -3.52954e-07
-1.37047e-06 -3.52954e-07 8.3121e-05
0.00105346 -0.000184804 -2.08822e-06
-0.000184804 0.000195468 -8.06618e-08
-2.08822e-06 -8.06618e-08 3.48947e-05
0.00179896 -0.000265246 1.10977e-06
-0.000265246 0.000172342 3.97412e-06
1.10977e-06 3.97412e-06 2.98604e-05
0.000638475 -0.000198479 -1.51291e-06
-0.000198479 -0.000149183 -2.36068e-06
-1.51291e-06 -2.36068e-06 -0.000369381
0.00207601 -0.000326045 2.10041e-07
-0.000326045 0.000455079 2.61741e-06
2.10041e-07 2.61741e-06 0.000229071
0.000373244 3.74567e-05 -5.61066e-07
3.74567e-05 -0.000162206 -3.04202e-06
-5.61066e-07 -3.04202e-06 -0.000212795
0.00081762 -1.34866e-05 1.25863e-06
-1.34866e-05 0.000116996 -1.39649e-06
1.25863e-06 -1.39649e-06 3.05989e-05
0.000988022 -7.37472e-05 -8.69194e-09
-7.37472e-05 0.000218889 5.76803e-07
-8.69194e-09 5.76803e-07 0.000108982
0.000816467 -2.10132e-05 -1.54873e-07
-2.10132e-05 0.000115982 -5.63451e-07
-1.54873e-07 -5.63451e-07 -1.3196e-05
0.000871968 -0.000170898 -8.95869e-07
-0.000170898 8.66192e-05 9.89133e-07
-8.95869e-07 9.89133e-07 -5.51447e-05
0.000967411 -0.000170614 -3.46441e-06
-0.000170614 0.000155726 3.35924e-06
-3.46441e-06 3.35924e-06 3.7298e-06
0.000675427 -3.54984e-05 -1.97744e-06
-3.54984e-05 6.10483e-06 -1.76643e-06
-1.97744e-06 -1.76643e-06 -3.84208e-05
0.000661414 -6.15223e-05 7.23677e-08
-6.15223e-05 1.84575e-05 -9.86215e-07
7.23677e-08 -9.86215e-07 -5.62744e-05
0.00164836 0.000177643 -5.97979e-07
0.000177643 0.000123147 3.01242e-07
-5.97979e-07 3.01242e-07 -1.65779e-05
0.000714039 -3.95322e-05 9.14148e-07
-3.95322e-05 6.24365e-05 -7.25216e-07
9.14148e-07 -7.25216e-07 -4.03834e-05
0.000920209 0.000157216 4.59027e-07
0.000157216 0.00016806 -8.41785e-07
4.59027e-07 -8.41785e-07 1.20094e-05
0.000433687 5.39728e-05 1.69006e-06
5.39728e-05 -9.95974e-05 4.43217e-07
1.69006e-06 4.43217e-07 -0.000232814
0.00158009 0.000240004 -5.2838e-07
0.000240004 0.00015433 9.81169e-08
-5.2838e-07 9.81169e-08 -1.85658e-05
0.00169784 0.000246453 5.28101e-07
0.000246453 0.000147214 1.51816e-06
5.28101e-07 1.51816e-06 5.86566e-07
0.000529623 0.000154723 2.51395e-07
0.000154723 -9.73988e-05 5.41179e-07
2.51395e-07 5.41179e-07 -0.000308022
0.00196508 0.000292359 -5.4311e-07
0.000292359 0.000457813 3.64858e-07
-5.4311e-07 3.64858e-07 0.000255025
0.000731975 -9.06163e-06 -6.94779e-07
-9.06163e-06 4.8715e-05 1.3101e-07
-6.94779e-07 1.3101e-07 -1.79482e-05
0.000692412 -9.54814e-06 6.49707e-08
-9.54814e-06 4.37502e-05 9.85263e-07
6.49707e-08 9.85263e-07 -4.77562e-05
0.00106851 0.000176069 -2.8024e-07
0.000176069 0.00024651 -2.19848e-06
-2.8024e-07 -2.19848e-06 6.94308e-05
0.000582668 -2.94167e-06 -3.4879e-07
-2.94167e-06 -8.06599e-06 -7.40411e-08
-3.4879e-07 -7.40411e-08 -0.000129985
0.000780469 0.00012479 -1.68753e-06
0.00012479 8.24183e-05 -5.96231e-07
-1.68753e-06 -5.96231e-07 -5.58083e-05
0.00185052 0.000197341 -2.32749e-06
0.000197341 0.000163069 -1.15727e-06
-2.32749e-06 -1.15727e-06 5.54514e-05
0.00184527 0.000281829 1.30342e-06
0.000281829 0.00027791 -3.85057e-07
1.30342e-06 -3.85057e-07 0.000102973
0.00159172 0.000257277 3.38182e-07
0.000257277 7.21288e-05 1.69125e-06
3.38182e-07 1.69125e-06 -7.53477e-05
0.00149099 0.000235476 2.35706e-06
0.000235476 0.00038972 3.97119e-06
2.35706e-06 3.97119e-06 0.00015215
0.00127408 0.000257576 -1.82041e-06
0.000257576 3.34745e-05 4.85838e-07
-1.82041e-06 4.85838e-07 -0.00016497
0.000533052 -3.09779e-05 -3.14286e-07
-3.09779e-05 -5.25788e-05 1.35871e-06
-3.14286e-07 1.35871e-06 -0.00013127
0.000349868 4.91598e-05 -4.96447e-07
4.91598e-05 -0.000129626 7.01231e-07
-4.96447e-07 7.01231e-07 -0.000245757
0.00106105 0.000179494 1.07167e-06
0.000179494 0.000223483 2.1811e-06
1.07167e-06 2.1811e-06 2.80089e-05
-0.000168023 5.05253e-05 1.72072e-06
5.05253e-05 -0.000434379 1.86486e-07
1.72072e-06 1.86486e-07 -0.000577923
0.0019212 0.000198877 -2.42824e-06
0.000198877 9.25866e-05 -7.2027e-07
-2.42824e-06 -7.2027e-07 1.48839e-05
0.00205598 0.000246733 1.49865e-06
0.000246733 0.000259497 -5.18314e-07
1.49865e-06 -5.18314e-07 0.000144437
0.00177239 0.000309951 -1.04143e-06
0.000309951 0.000208758 -2.41993e-06
-1.04143e-06 -2.41993e-06 2.3779e-05
-0.000229608 0.000126599 -1.4519e-06
0.000126599 -0.000647599 1.96143e-06
-1.4519e-06 1.96143e-06 -0.0008826
0.000728689 2.33107e-05 -7.73709e-07
2.33107e-05 4.80393e-05 -3.12873e-07
-7.73709e-07 -3.12873e-07 -1.89391e-05
0.000711476 3.7182e-06 -3.33522e-07
3.7182e-06 4.70772e-05 3.69787e-07
-3.33522e-07 3.69787e-07 -2.95544e-05
0.000833824 -1.36625e-05 -6.03215e-07
-1.36625e-05 0.000119277 1.90857e-08
-6.03215e-07 1.90857e-08 4.07273e-05
0.000714475 -2.2925e-05 -1.11564e-06
-2.2925e-05 3.47396e-05 -8.27063e-07
-1.11564e-06 -8.27063e-07 -2.67895e-05
0.000589121 -2.90791e-05 -2.19611e-07
-2.90791e-05 -2.50268e-05 -4.5983e-07
-2.19611e-07 -4.5983e-07 -9.99198e-05
0.000737643 3.46999e-06 -4.53801e-10
3.46999e-06 4.91453e-05 -5.67397e-09
-4.53801e-10 -5.67397e-09 -1.38032e-05
0.000740118 3.90208e-05 -4.59756e-07
3.90208e-05 7.32052e-05 -2.48947e-07
-4.59756e-07 -2.48947e-07 -1.34775e-05
0.000694235 6.18512e-07 4.84558e-07
6.18512e-07 4.16614e-05 3.03261e-07
4.84558e-07 3.03261e-07 -3.97346e-05
0.000809489 8.62723e-06 6.13234e-07
8.62723e-06 0.000103875 1.89998e-08
6.13234e-07 1.89998e-08 2.01806e-05
0.000752195 -3.36877e-05 8.87062e-07
-3.36877e-05 7.46914e-05 -5.08379e-07
8.87062e-07 -5.08379e-07 -1.21922e-05
0.000617595 2.35465e-05 4.57472e-07
2.35465e-05 -5.04084e-06 6.00845e-07
4.57472e-07 6.00845e-07 -8.68602e-05
0.000730371 4.01497e-05 8.68187e-07
4.01497e-05 4.62813e-05 9.59454e-07
8.68187e-07 9.59454e-07 -1.86396e-05
0.000681887 1.95598e-05 8.14156e-07
1.95598e-05 5.51955e-06 1.72247e-06
8.14156e-07 1.72247e-06 -3.71277e-05
0.000691079 -5.43776e-06 -3.55463e-07
-5.43776e-06 7.14242e-06 1.83963e-08
-3.55463e-07 1.83963e-08 -3.43832e-05
0.00127683 -1.79856e-05 6.749e-07
-1.79856e-05 0.000327322 2.19705e-06
6.749e-07 2.19705e-06 0.000321534
0.000696615 -2.27351e-05 -5.07899e-07
-2.27351e-05 8.30394e-06 -1.91434e-06
-5.07899e-07 -1.91434e-06 -3.25764e-05
0.00130148 -2.53508e-05 -3.45103e-06
-2.53508e-05 0.00034416 -1.42178e-06
-3.45103e-06 -1.42178e-06 0.000338029
0.000922702 -2.18951e-05 1.50242e-05
-2.18951e-05 0.000131999 7.50855e-06
1.50242e-05 7.50855e-06 0.000142308
0.00132098 -3.33003e-05 -6.87523e-06
-3.33003e-05 0.000359026 -5.0546e-06
-6.87523e-06 -5.0546e-06 0.000352201
0.000860025 -2.91057e-05 5.64919e-06
-2.91057e-05 0.000100645 2.7912e-06
5.64919e-06 2.7912e-06 0.000110075
0.00079275 -3.51537e-05 -1.85918e-06
-3.51537e-05 6.85634e-05 -1.88691e-06
-1.85918e-06 -1.88691e-06 7.64626e-05
0.000609376 3.27146e-05 5.27155e-07
3.27146e-05 -4.10881e-05 -3.86862e-06
5.27155e-07 -3.86862e-06 -5.54972e-05
0.000609585 3.98358e-05 -1.72056e-07
3.98358e-05 -3.27085e-05 6.78604e-08
-1.72056e-07 6.78604e-08 -5.18569e-05
0.00235254 6.85472e-05 2.47848e-05
6.85472e-05 0.00097395 -4.0163e-06
2.47848e-05 -4.0163e-06 0.000984305
0.000608001 4.4517e-05 -9.41811e-07
4.4517e-05 -2.52291e-05 4.89042e-06
-9.41811e-07 4.89042e-06 -4.91145e-05
0.00255314 8.18882e-05 -3.42414e-06
8.18882e-05 0.00109649 -2.24575e-07
-3.42414e-06 -2.24575e-07 0.00110339
0.00273958 9.14499e-05 -4.66457e-05
9.14499e-05 0.00120867 3.34739e-06
-4.66457e-05 3.34739e-06 0.00121343
0.00162468 0.000125295 1.52412e-06
0.000125295 9.14187e-05 2.34759e-06
1.52412e-06 2.34759e-06 -2.63683e-05
0.00170711 9.70641e-05 9.96862e-07
9.70641e-05 7.99646e-05 3.71672e-07
9.96862e-07 3.71672e-07 -2.12541e-05
0.00169829 0.000137762 4.81754e-06
0.000137762 5.02686e-05 1.42353e-06
4.81754e-06 1.42353e-06 -3.42343e-05
0.00173024 7.76582e-05 3.03014e-06
7.76582e-05 6.30973e-05 -6.72833e-07
3.03014e-06 -6.72833e-07 -1.68976e-05
0.00174791 3.2778e-05 1.90843e-06
3.2778e-05 9.12992e-05 -3.86746e-07
1.90843e-06 -3.86746e-07 -1.10324e-05
0.00163918 1.43803e-06 -1.02158e-06
1.43803e-06 9.1805e-05 -1.19591e-07
-1.02158e-06 -1.19591e-07 -2.33047e-05
0.00175445 1.2645e-06 -9.93378e-08
1.2645e-06 0.000104322 -4.9045e-09
-9.93378e-08 -4.9045e-09 2.61118e-06
0.0016774 4.34458e-05 1.3783e-06
4.34458e-05 4.3014e-05 -3.46999e-07
1.3783e-06 -3.46999e-07 -4.18842e-05
0.00178999 0.000103408 8.30198e-07
0.000103408 8.84169e-05 -2.58201e-07
8.30198e-07 -2.58201e-07 1.03819e-05
0.00191919 0.000157906 4.01078e-07
0.000157906 0.00017076 2.52618e-07
4.01078e-07 2.52618e-07 8.29962e-05
0.00168703 -8.59383e-07 -1.56886e-06
-8.59383e-07 5.75489e-05 3.96904e-07
-1.56886e-06 3.96904e-07 -3.07827e-05
0.00193078 7.49757e-05 1.40374e-06
7.49757e-05 0.000128907 2.72033e-07
1.40374e-06 2.72033e-07 6.54483e-05
0.00167161 0.000145598 9.23357e-07
0.000145598 -2.84111e-05 -3.52501e-07
9.23357e-07 -3.52501e-07 -0.000100745
0.00184201 -3.94709e-05 6.23104e-07
-3.94709e-05 0.000147739 1.91159e-07
6.23104e-07 1.91159e-07 4.69264e-05
0.00179327 -8.06779e-05 1.11549e-06
-8.06779e-05 0.000124004 -4.67755e-07
1.11549e-06 -4.67755e-07 2.53122e-05
0.00168489 -0.000139196 1.04363e-06
-0.000139196 6.28914e-05 -9.59841e-08
1.04363e-06 -9.59841e-08 -2.5028e-05
0.00119718 -0.000186767 2.77953e-08
-0.000186767 0.000285297 2.48382e-06
2.77953e-08 2.48382e-06 0.000131457
0.00166891 -0.000246645 -2.10479e-07
-0.000246645 0.000480095 1.94833e-06
-2.10479e-07 1.94833e-06 0.000285968
0.00105118 -0.000240832 -1.60846e-06
-0.000240832 -8.54369e-05 1.1986e-06
-1.60846e-06 1.1986e-06 -0.000304337
0.00162896 -0.00017223 1.52064e-06
-0.00017223 5.93858e-05 -1.07742e-06
1.52064e-06 -1.07742e-06 -4.28423e-05
0.00151805 -0.000226861 7.64716e-07
-0.000226861 -4.65015e-06 -3.2598e-06
7.64716e-07 -3.2598e-06 -0.000125101
0.0016058 -0.000252792 -9.4719e-07
-0.000252792 0.000110321 -7.83174e-06
-9.4719e-07 -7.83174e-06 -5.59295e-05
0.00112335 -0.000180337 9.54355e-07
-0.000180337 0.000240734 -8.82812e-07
9.54355e-07 -8.82812e-07 9.93362e-05
0.000748016 -0.000152454 -5.2634e-06
-0.000152454 3.87949e-05 -2.54523e-06
-5.2634e-06 -2.54523e-06 -9.18299e-05
0.00114148 -0.000139105 -2.57842e-08
-0.000139105 0.000301804 -7.32804e-08
-2.57842e-08 -7.32804e-08 0.000147275
0.000410428 1.91485e-05 -5.97022e-07
1.91485e-05 -0.000138255 1.59818e-06
-5.97022e-07 1.59818e-06 -0.000194187
0.000975297 -4.81134e-05 2.72622e-07
-4.81134e-05 0.000205598 4.12781e-07
2.72622e-07 4.12781e-07 9.09369e-05
0.000566197 3.03493e-05 6.64906e-07
3.03493e-05 -3.03453e-05 1.71912e-06
6.64906e-07 1.71912e-06 -0.000121528
0.00171615 -4.16216e-05 -6.87501e-07
-4.16216e-05 6.25675e-05 5.06656e-08
-6.87501e-07 5.06656e-08 -2.86916e-05
0.00190657 -0.000109823 1.56874e-07
-0.000109823 0.000142456 -5.83111e-08
1.56874e-07 -5.83111e-08 6.68118e-05
0.00160966 -0.000159299 -3.7149e-07
-0.000159299 7.70982e-06 2.95841e-07
-3.7149e-07 2.95841e-07 -7.20016e-05
0.00109746 -0.000186521 1.78582e-07
-0.000186521 0.00021699 1.79331e-06
1.78582e-07 1.79331e-06 5.63475e-05
0.000859712 -0.000211256 -4.89904e-07
-0.000211256 -1.56571e-05 -1.21396e-07
-4.89904e-07 -1.21396e-07 -0.000232065
0.00185331 -0.000307846 -2.82104e-06
-0.000307846 0.000327395 1.02233e-06
-2.82104e-06 1.02233e-06 0.000107273
0.00189987 -0.000215248 1.01725e-06
-0.000215248 0.000155328 -5.58322e-07
1.01725e-06 -5.58322e-07 6.03173e-05
0.00172905 -0.00026364 1.3717e-06
-0.00026364 0.000128704 -1.29955e-06
1.3717e-06 -1.29955e-06 -1.40638e-05
0.000526568 2.43556e-05 3.42039e-07
2.43556e-05 -7.63817e-05 -7.58434e-07
3.42039e-07 -7.58434e-07 -0.000124352
0.000822154 -4.06692e-06 -4.02501e-07
-4.06692e-06 0.000117847 2.76811e-07
-4.02501e-07 2.76811e-07 3.23038e-05
0.000476709 -0.000139584 -2.09327e-06
-0.000139584 -0.000135935 1.78831e-06
-2.09327e-06 1.78831e-06 -0.000271729
0.00125651 -0.000181951 7.09461e-08
-0.000181951 0.000324937 -7.49535e-09
7.09461e-08 -7.49535e-09 0.000176677
0.000902434 -4.45179e-05 -8.99791e-08
-4.45179e-05 0.00016725 -3.23191e-07
-8.99791e-08 -3.23191e-07 3.56208e-05
0.000890817 -5.45165e-05 -5.53108e-07
-5.45165e-05 0.000164235 1.11313e-06
-5.53108e-07 1.11313e-06 5.39735e-05
0.0019299 -6.42614e-05 3.14303e-07
-6.42614e-05 0.000129098 3.39871e-07
3.14303e-07 3.39871e-07 6.50529e-05
0.00180787 -0.000154984 -1.60711e-06
-0.000154984 4.9885e-05 -6.35238e-07
-1.60711e-06 -6.35238e-07 -6.80938e-06
0.00180153 -0.000178529 1.75521e-06
-0.000178529 7.2384e-05 -1.17546e-07
1.75521e-06 -1.17546e-07 5.53082e-07
0.002239 -0.000300502 6.20038e-06
-0.000300502 0.000315994 -5.25421e-07
6.20038e-06 -5.25421e-07 0.00020373
0.000286058 -0.000139337 -2.61152e-06
-0.000139337 -0.000246645 -1.04677e-06
-2.61152e-06 -1.04677e-06 -0.000419839
0.00179685 -0.000314613 -1.9617e-06
-0.000314613 0.000251794 7.67533e-06
-1.9617e-06 7.67533e-06 4.55474e-05
0.0023621 -0.000347948 3.12843e-06
-0.000347948 0.000755182 -3.93024e-06
3.12843e-06 -3.93024e-06 0.000506096
0.000693911 2.42482e-05 5.94464e-07
2.42482e-05 1.3093e-05 -2.05206e-06
5.94464e-07 -2.05206e-06 -2.83032e-05
0.000729324 -8.25585e-05 1.64546e-06
-8.25585e-05 6.62179e-05 -2.04079e-06
1.64546e-06 -2.04079e-06 -9.03901e-06
0.000517124 1.66106e-05 2.56306e-08
1.66106e-05 -5.3834e-05 -2.29008e-06
2.56306e-08 -2.29008e-06 -0.000136304
0.000814701 -3.9164e-05 1.16722e-06
-3.9164e-05 0.000128353 3.43964e-07
1.16722e-06 3.43964e-07 2.1521e-05
0.00077498 -5.26907e-06 1.11639e-06
-5.26907e-06 8.90268e-05 -1.49031e-06
1.11639e-06 -1.49031e-06 -2.35587e-05
0.000298488 -0.000100038 5.23891e-07
-0.000100038 -0.000158539 2.61068e-06
5.23891e-07 2.61068e-06 -0.000299284
0.000403571 -0.000140641 -1.57561e-06
-0.000140641 -0.000225567 4.84441e-07
-1.57561e-06 4.84441e-07 -0.000352386
0.00200907 -0.000240906 -6.79394e-06
-0.000240906 0.00078952 3.76272e-06
-6.79394e-06 3.76272e-06 0.00060109
0.000708768 -3.22074e-05 -7.65514e-07
-3.22074e-05 3.29776e-05 -7.00801e-07
-7.65514e-07 -7.00801e-07 -3.12166e-05
0.000832972 -3.35058e-06 6.68471e-09
-3.35058e-06 0.000124398 -6.236e-09
6.68471e-09 -6.236e-09 3.10959e-05
0.00209601 0.000204315 -1.25664e-07
0.000204315 0.000301225 3.62103e-07
-1.25664e-07 3.62103e-07 0.000195903
0.000758957 2.51408e-05 -1.26154e-07
2.51408e-05 9.72195e-05 -2.25647e-07
-1.26154e-07 -2.25647e-07 -3.05478e-05
0.0011886 0.000185541 1.39404e-06
0.000185541 0.000323385 -2.31053e-06
1.39404e-06 -2.31053e-06 0.000141321
0.000561361 9.41462e-05 5.49461e-08
9.41462e-05 -4.08204e-05 1.41513e-06
5.49461e-08 1.41513e-06 -0.000167483
0.00189704 0.000281655 1.0536e-07
0.000281655 0.000306735 7.891e-07
1.0536e-07 7.891e-07 0.000133359
0.0016932 0.000268035 1.42778e-06
0.000268035 0.000128484 4.1592e-06
1.42778e-06 4.1592e-06 -2.06682e-05
0.00104011 0.000205432 1.20029e-06
0.000205432 0.000149446 -3.87024e-08
1.20029e-06 -3.87024e-08 -9.06699e-05
0.0014085 0.00027058 -1.3658e-06
0.00027058 0.000100442 1.08365e-06
-1.3658e-06 1.08365e-06 -0.000100858
0.000569914 -1.01971e-05 8.26964e-08
-1.01971e-05 -2.65196e-05 7.38721e-07
8.26964e-08 7.38721e-07 -0.000110103
0.000550123 6.0988e-05 -4.77387e-07
6.0988e-05 -1.73359e-05 -1.49495e-06
-4.77387e-07 -1.49495e-06 -0.000135015
0.00107051 0.000181576 1.66299e-06
0.000181576 0.00023904 -1.76577e-06
1.66299e-06 -1.76577e-06 3.91833e-05
0.000672121 0.000106807 -9.53924e-07
0.000106807 3.39947e-05 -2.19948e-06
-9.53924e-07 -2.19948e-06 -0.000114512
0.00197798 0.000196248 3.24153e-07
0.000196248 0.000126551 -6.99117e-07
3.24153e-07 -6.99117e-07 5.15579e-05
0.00189383 0.000245989 2.08902e-06
0.000245989 0.000178171 7.4997e-07
2.08902e-06 7.4997e-07 5.85242e-05
0.00177426 0.000304443 -2.15531e-06
0.000304443 0.00020676 -1.48274e-07
-2.15531e-06 -1.48274e-07 2.3836e-05
0.000793655 0.000206631 6.13704e-07
0.000206631 -0.000101191 7.4182e-07
6.13704e-07 7.4182e-07 -0.000337439
0.000730791 3.85546e-06 -2.33946e-07
3.85546e-06 6.32702e-05 1.1015e-06
-2.33946e-07 1.1015e-06 -2.28483e-05
0.00187383 0.000153925 -8.80745e-07
0.000153925 3.35527e-05 1.23866e-06
-8.80745e-07 1.23866e-06 -1.3955e-05
0.00131532 0.000180094 -2.20407e-07
0.000180094 0.00042809 2.86104e-06
-2.20407e-07 2.86104e-06 0.000271746
0.00107981 0.000191305 1.26546e-06
0.000191305 0.000218902 3.78788e-06
1.26546e-06 3.78788e-06 1.23645e-05
0.00250015 0.000249027 -8.49702e-06
0.000249027 0.000416309 -1.16344e-06
-8.49702e-06 -1.16344e-06 0.000333913
0.0013875 0.000299786 -2.75349e-06
0.000299786 -8.11785e-05 -4.12176e-06
-2.75349e-06 -4.12176e-06 -0.000249599
0.00190437 0.000314706 -3.0179e-06
0.000314706 0.000411391 8.56441e-07
-3.0179e-06 8.56441e-07 0.000176289
0.000777636 1.22e-05 -1.39425e-06
1.22e-05 8.51723e-05 -5.7406e-09
-1.39425e-06 -5.7406e-09 8.63754e-06
0.000769402 2.76159e-07 -3.48976e-07
2.76159e-07 8.5034e-05 3.93217e-08
-3.48976e-07 3.93217e-08 5.1495e-06
0.000847715 -1.26917e-05 -3.63253e-07
-1.26917e-05 0.000137351 6.18831e-07
-3.63253e-07 6.18831e-07 5.23587e-05
0.000711901 -2.00861e-05 -3.86123e-07
-2.00861e-05 3.61696e-05 -1.03309e-06
-3.86123e-07 -1.03309e-06 -2.79449e-05
0.000734783 1.78249e-05 4.37652e-07
1.78249e-05 6.60613e-05 2.26231e-07
4.37652e-07 2.26231e-07 -1.57896e-05
0.000594614 -7.75668e-06 -8.00667e-07
-7.75668e-06 -2.77015e-06 2.80445e-07
-8.00667e-07 2.80445e-07 -9.22087e-05
0.000719303 -8.55789e-06 -2.01791e-07
-8.55789e-06 4.46997e-05 -4.55018e-08
-2.01791e-07 -4.55018e-08 -2.35678e-05
0.000617884 -2.48421e-05 -5.72715e-07
-2.48421e-05 1.67528e-07 3.52635e-07
-5.72715e-07 3.52635e-07 -8.43274e-05
0.000702879 -3.16121e-05 6.30232e-07
-3.16121e-05 4.42436e-05 -3.09919e-07
6.30232e-07 -3.09919e-07 -3.90966e-05
0.000810556 1.80734e-05 3.20336e-07
1.80734e-05 0.000115532 1.55249e-07
3.20336e-07 1.55249e-07 2.33219e-05
0.00087 -6.04402e-06 7.49368e-07
-6.04402e-06 0.000122897 -6.41054e-07
7.49368e-07 -6.41054e-07 4.10751e-05
0.000755785 -5.08508e-05 7.28217e-07
-5.08508e-05 7.07214e-05 -1.42607e-07
7.28217e-07 -1.42607e-07 -1.58198e-05
0.000813208 2.00008e-05 5.58683e-07
2.00008e-05 0.000113747 5.24904e-08
5.58683e-07 5.24904e-08 1.9445e-05
0.000721446 2.28898e-05 1.79211e-06
2.28898e-05 5.86491e-05 5.11661e-07
1.79211e-06 5.11661e-07 -3.24088e-05
0.000740441 1.18692e-05 9.94955e-07
1.18692e-05 5.15678e-05 1.09281e-06
9.94955e-07 1.09281e-06 -1.53752e-05
0.000673765 -4.43969e-06 1.27301e-07
-4.43969e-06 2.01783e-06 1.66243e-06
1.27301e-07 1.66243e-06 -4.05927e-05
0.000686344 -7.21343e-06 -2.11453e-07
-7.21343e-06 7.37795e-06 4.3918e-08
-2.11453e-07 4.3918e-08 -3.47713e-05
0.00128405 -8.42203e-06 5.16498e-07
-8.42203e-06 0.000330503 2.11873e-06
5.16498e-07 2.11873e-06 0.000324393
0.000705293 -1.49894e-05 1.19479e-07
-1.49894e-05 1.52496e-05 -1.94108e-06
1.19479e-07 -1.94108e-06 -2.62446e-05
0.00131121 -1.58326e-05 -2.58943e-06
-1.58326e-05 0.000347557 -1.47281e-06
-2.58943e-06 -1.47281e-06 0.000341608
0.000921474 -1.4984e-05 1.13133e-05
-1.4984e-05 0.000127732 7.68875e-06
1.13133e-05 7.68875e-06 0.000138522
0.00133692 -2.36663e-05 -5.04796e-06
-2.36663e-05 0.000364595 -5.13149e-06
-5.04796e-06 -5.13149e-06 0.00035831
0.000872886 -2.22786e-05 3.95183e-06
-2.22786e-05 0.000102844 2.9028e-06
3.95183e-06 2.9028e-06 0.000113151
0.000806661 -2.84022e-05 -1.30435e-06
-2.84022e-05 6.9704e-05 -1.88968e-06
-1.30435e-06 -1.88968e-06 7.92871e-05
0.000711689 3.48435e-06 6.20499e-07
3.48435e-06 2.15764e-05 -2.12331e-06
6.20499e-07 -2.12331e-06 -1.67745e-05
0.000627425 2.62026e-05 4.65257e-07
2.62026e-05 -3.74821e-05 -3.7946e-06
4.65257e-07 -3.7946e-06 -4.84065e-05
0.000628312 3.34592e-05 -7.62084e-08
3.34592e-05 -3.04013e-05 6.91338e-08
-7.62084e-08 6.91338e-08 -4.50079e-05
0.00224156 5.61812e-05 2.03981e-05
5.61812e-05 0.000902752 -4.19943e-06
2.03981e-05 -4.19943e-06 0.000916163
0.000626612 4.25588e-05 -2.77004e-07
4.25588e-05 -2.2363e-05 4.4936e-06
-2.77004e-07 4.4936e-06 -4.20628e-05
0.00241341 7.01225e-05 -2.94676e-06
7.01225e-05 0.00100947 -1.8648e-07
-2.94676e-06 -1.8648e-07 0.00101932
0.00261265 8.25016e-05 -3.62226e-05
8.25016e-05 0.00113067 3.68794e-06
-3.62226e-05 3.68794e-06 0.00113743
0.00193482 0.000154358 1.34573e-06
0.000154358 0.000170323 2.04997e-06
1.34573e-06 2.04997e-06 8.38752e-05
0.00177367 0.000106201 1.27782e-06
0.000106201 8.08417e-05 -8.98283e-08
1.27782e-06 -8.98283e-08 1.87541e-06
0.00168989 4.34667e-05 1.66688e-06
4.34667e-05 5.55537e-05 -8.87492e-07
1.66688e-06 -8.87492e-07 -3.01165e-05
0.00175607 3.89912e-06 5.2337e-07
3.89912e-06 0.000105576 -2.4173e-07
5.2337e-07 -2.4173e-07 4.05995e-06
0.00172957 1.71322e-06 -8.05684e-07
1.71322e-06 8.15617e-05 1.32387e-07
-8.05684e-07 1.32387e-07 -5.34107e-06
0.00193063 7.22531e-05 2.70533e-07
7.22531e-05 0.000129934 1.37719e-07
2.70533e-07 1.37719e-07 6.67722e-05
0.00173559 0.00014838 -7.63391e-07
0.00014838 4.53739e-06 -2.60542e-07
-7.63391e-07 -2.60542e-07 -6.8176e-05
0.00179736 5.0338e-06 4.49573e-07
5.0338e-06 4.67444e-05 1.05173e-07
4.49573e-07 1.05173e-07 -1.21201e-05
0.00196423 0.000103001 2.41022e-06
0.000103001 9.05403e-05 1.03322e-07
2.41022e-06 1.03322e-07 4.02324e-05
0.00198863 6.08075e-05 -2.37282e-06
6.08075e-05 0.000114995 -3.57292e-07
-2.37282e-06 -3.57292e-07 0.000120402
0.0018252 -4.12292e-05 -4.92208e-07
-4.12292e-05 0.000122558 8.64247e-08
-4.92208e-07 8.64247e-08 3.15373e-05
0.00190019 -0.000112161 6.89931e-07
-0.000112161 0.000137504 2.53695e-07
6.89931e-07 2.53695e-07 6.25508e-05
0.00164172 -0.000160064 -6.5948e-07
-0.000160064 2.60628e-05 4.01936e-07
-6.5948e-07 4.01936e-07 -5.31354e-05
0.00113909 -0.000188481 4.04497e-07
-0.000188481 0.000237216 3.83726e-06
4.04497e-07 3.83726e-06 7.60716e-05
0.00109777 -0.000225326 8.52075e-07
-0.000225326 0.000127173 4.61605e-06
8.52075e-07 4.61605e-06 -8.65076e-05
0.00160608 -0.000287249 -2.40941e-06
-0.000287249 0.000187938 -1.33507e-06
-2.40941e-06 -1.33507e-06 -2.55316e-05
0.00186277 -0.000214443 3.04545e-06
-0.000214443 0.000134974 -1.19011e-06
3.04545e-06 -1.19011e-06 3.88287e-05
0.00159615 -0.000254659 -8.97082e-07
-0.000254659 5.62407e-05 -4.76908e-06
-8.97082e-07 -4.76908e-06 -8.57334e-05
0.000158113 -0.000114189 -3.42954e-06
-0.000114189 -0.00031467 2.44779e-06
-3.42954e-06 2.44779e-06 -0.000445469
0.00162194 -0.000203215 8.49403e-06
-0.000203215 0.000538222 -4.30667e-06
8.49403e-06 -4.30667e-06 0.000391694
0.000860756 -1.34064e-05 -3.37276e-07
-1.34064e-05 0.000132172 -1.81575e-07
-3.37276e-07 -1.81575e-07 1.03039e-05
0.00068732 1.04772e-05 -4.92166e-07
1.04772e-05 1.36093e-05 1.31515e-06
-4.92166e-07 1.31515e-06 -3.19117e-05
0.000843221 1.51607e-05 -7.71141e-07
1.51607e-05 0.000128239 1.77948e-06
-7.71141e-07 1.77948e-06 4.30174e-05
0.000812464 -2.57664e-05 -5.17018e-07
-2.57664e-05 0.000119969 1.80574e-06
-5.17018e-07 1.80574e-06 9.45619e-06
0.00186433 -6.48876e-05 1.07565e-07
-6.48876e-05 9.09472e-05 4.26298e-08
1.07565e-07 4.26298e-08 2.69978e-05
0.00068977 7.60806e-06 8.71768e-07
7.60806e-06 1.15429e-05 6.66456e-08
8.71768e-07 6.66456e-08 -3.01969e-05
0.000624737 -2.28939e-05 -1.09237e-06
-2.28939e-05 -6.10694e-06 -3.18306e-08
-1.09237e-06 -3.18306e-08 -7.34254e-05
0.00185477 -0.000151985 -5.98776e-08
-0.000151985 8.60301e-05 2.13262e-07
-5.98776e-08 2.13262e-07 2.56654e-05
0.00167189 -0.000174929 -1.92789e-06
-0.000174929 -4.14656e-06 5.56853e-07
-1.92789e-06 5.56853e-07 -7.77648e-05
0.000474084 -0.000151309 5.51916e-07
-0.000151309 -0.000130686 2.94481e-06
5.51916e-07 2.94481e-06 -0.000300695
0.00177695 -0.000300914 -2.22589e-06
-0.000300914 0.000440602 8.50409e-07
-2.22589e-06 8.50409e-07 0.000187171
0.00148651 -0.000291317 1.56259e-06
-0.000291317 7.70097e-05 -9.47168e-07
1.56259e-06 -9.47168e-07 -0.000121446
0.00201057 -0.000290915 2.46661e-06
-0.000290915 0.000200926 -1.07006e-06
2.46661e-06 -1.07006e-06 8.77291e-05
0.000778461 -2.28224e-05 1.08174e-06
-2.28224e-05 9.36975e-05 -8.42238e-07
1.08174e-06 -8.42238e-07 1.372e-05
0.000797608 -2.78748e-05 -6.09752e-08
-2.78748e-05 0.000118934 8.61692e-07
-6.09752e-08 8.61692e-07 1.09313e-05
0.000935821 -0.000165178 -1.51291e-06
-0.000165178 7.20518e-05 -2.87726e-07
-1.51291e-06 -2.87726e-07 -6.02578e-05
0.0012833 -0.000190451 8.91665e-06
-0.000190451 0.000377235 -2.27142e-06
8.91665e-06 -2.27142e-06 0.000218166
0.000583431 -8.39454e-05 -1.08599e-06
-8.39454e-05 -7.9865e-06 3.1082e-07
-1.08599e-06 3.1082e-07 -0.000143925
0.000797494 -8.49162e-06 2.78591e-07
-8.49162e-06 0.000105492 -5.32944e-07
2.78591e-07 -5.32944e-07 -8.37588e-06
0.00198178 -7.89555e-05 -1.09492e-06
-7.89555e-05 9.41478e-05 2.17184e-07
-1.09492e-06 2.17184e-07 4.54876e-05
0.00175885 -0.000149604 1.9394e-06
-0.000149604 6.15331e-06 -3.22851e-07
1.9394e-06 -3.22851e-07 -3.57362e-05
0.0019461 -0.00027752 1.6317e-06
-0.00027752 6.44883e-05 -1.17496e-06
1.6317e-06 -1.17496e-06 -5.61041e-06
0.0015439 -0.000316299 2.54008e-06
-0.000316299 -6.36097e-06 1.70923e-06
2.54008e-06 1.70923e-06 -0.000142477
0.000783427 -0.000137378 -5.22767e-06
-0.000137378 2.48423e-05 -4.37902e-06
-5.22767e-06 -4.37902e-06 -0.000147562
0.00271268 -0.000403202 -3.72042e-06
-0.000403202 0.000878242 3.57825e-06
-3.72042e-06 3.57825e-06 0.0006057
0.000494222 5.32459e-05 -1.30342e-06
5.32459e-05 -7.51816e-05 -2.70922e-06
-1.30342e-06 -2.70922e-06 -0.000144337
0.000735441 -4.83411e-05 1.90081e-06
-4.83411e-05 5.9063e-05 -1.64686e-06
1.90081e-06 -1.64686e-06 -1.13707e-05
0.00095562 -6.33582e-05 1.33917e-06
-6.33582e-05 0.000201047 -3.26181e-07
1.33917e-06 -3.26181e-07 0.000109889
0.000511567 1.41764e-05 -5.07639e-08
1.41764e-05 -4.05259e-05 -1.10383e-07
-5.07639e-08 -1.10383e-07 -0.000148824
0.00102054 -4.328e-05 6.61437e-07
-4.328e-05 0.000234612 -2.23731e-07
6.61437e-07 -2.23731e-07 0.000127245
0.000732226 -4.4242e-05 1.93998e-06
-4.4242e-05 5.52413e-05 -2.46735e-07
1.93998e-06 -2.46735e-07 -6.97973e-05
0.000141504 -7.7108e-05 4.79483e-06
-7.7108e-05 -0.000167826 1.49172e-06
4.79483e-06 1.49172e-06 -0.000372728
0.000548822 -0.000178308 -1.41725e-05
-0.000178308 -0.00012211 4.66487e-06
-1.41725e-05 4.66487e-06 -0.000250891
0.000592146 1.21649e-05 -1.25523e-07
1.21649e-05 -1.02991e-05 -1.3636e-07
-1.25523e-07 -1.3636e-07 -9.79774e-05
0.000726719 7.91429e-05 -2.89886e-06
7.91429e-05 8.1884e-05 -2.94929e-06
-2.89886e-06 -2.94929e-06 -3.77852e-05
0.00202691 0.000194399 -1.10869e-06
0.000194399 0.000154841 -7.06637e-07
-1.10869e-06 -7.06637e-07 8.25345e-05
0.00172887 0.000245428 1.1755e-08
0.000245428 9.38404e-05 2.37466e-06
1.1755e-08 2.37466e-06 -3.04703e-05
0.0014756 0.000141135 -4.34252e-06
0.000141135 0.00047598 -2.00368e-06
-4.34252e-06 -2.00368e-06 0.000326885
0.00106878 0.000182347 -1.58589e-06
0.000182347 0.000245697 -6.39716e-06
-1.58589e-06 -6.39716e-06 4.30995e-05
0.00175242 0.000297007 1.36369e-06
0.000297007 0.000191906 1.52844e-06
1.36369e-06 1.52844e-06 1.09148e-05
0.00188018 0.000290508 7.33941e-08
0.000290508 0.000482734 -4.63953e-07
7.33941e-08 -4.63953e-07 0.000243514
0.00072729 2.54603e-05 6.60101e-07
2.54603e-05 6.97455e-05 -6.92072e-07
6.60101e-07 -6.92072e-07 -2.29075e-05
0.00190224 0.000149367 -4.08786e-07
0.000149367 4.3242e-05 -1.02703e-07
-4.08786e-07 -1.02703e-07 2.05687e-06
0.000939682 0.000126928 7.12137e-07
0.000126928 0.000212617 1.73304e-06
7.12137e-07 1.73304e-06 6.72801e-05
0.000783147 0.00016902 7.4482e-07
0.00016902 5.29785e-05 5.90418e-08
7.4482e-07 5.90418e-08 -0.000152634
0.00208905 0.000234506 2.62487e-06
0.000234506 0.000190264 3.96925e-08
2.62487e-06 3.96925e-08 0.00010782
0.00157416 0.000308851 -4.99771e-07
0.000308851 1.8972e-05 -1.46764e-06
-4.99771e-07 -1.46764e-06 -0.000147544
0.00208296 0.000328983 7.22084e-07
0.000328983 0.000523111 5.37119e-07
7.22084e-07 5.37119e-07 0.000285893
0.00125915 7.02989e-05 -2.42454e-06
7.02989e-05 0.000383992 2.02775e-06
-2.42454e-06 2.02775e-06 0.000265172
0.00235367 0.000167089 -2.36433e-05
0.000167089 0.000322859 -3.69773e-06
-2.36433e-05 -3.69773e-06 0.000305818
0.00224954 0.000263729 -3.75123e-06
0.000263729 0.000915974 2.13066e-08
-3.75123e-06 2.13066e-08 0.000739977
0.00244144 0.000319056 -6.28614e-06
0.000319056 0.000897936 1.63363e-06
-6.28614e-06 1.63363e-06 0.000672101
0.00176198 0.000320866 -8.24798e-06
0.000320866 2.33155e-05 -7.43759e-06
-8.24798e-06 -7.43759e-06 -8.44478e-05
0.00139103 0.000305361 -8.07331e-06
0.000305361 7.28326e-05 -6.32885e-07
-8.07331e-06 -6.32885e-07 -0.000141908
0.000449904 0.000179022 1.50103e-05
0.000179022 -0.000513237 -4.44044e-06
1.50103e-05 -4.44044e-06 -0.000712765
0.000718358 1.10681e-05 2.85105e-07
1.10681e-05 6.02681e-05 -2.59682e-07
2.85105e-07 -2.59682e-07 -2.20795e-05
0.000784209 -6.15223e-06 -2.64795e-07
-6.15223e-06 0.000104542 3.60968e-07
-2.64795e-07 3.60968e-07 1.86151e-05
0.00107027 1.02143e-05 5.39815e-07
1.02143e-05 0.000249096 -7.42318e-07
5.39815e-07 -7.42318e-07 0.000159615
0.000708868 -5.29675e-05 -2.59267e-07
-5.29675e-05 4.30075e-05 -1.30671e-06
-2.59267e-07 -1.30671e-06 -2.80802e-05
0.000661732 -4.69371e-05 -1.19704e-06
-4.69371e-05 2.28032e-05 3.16929e-07
-1.19704e-06 3.16929e-07 -5.97887e-05
0.000876918 8.71743e-05 -4.76033e-07
8.71743e-05 0.000155046 6.5374e-07
-4.76033e-07 6.5374e-07 6.12679e-05
0.00057677 -4.01574e-05 -5.9502e-07
-4.01574e-05 -2.29589e-05 3.86288e-07
-5.9502e-07 3.86288e-07 -0.000108653
0.000717571 -2.51074e-05 2.86221e-08
-2.51074e-05 4.71921e-05 -1.45966e-08
2.86221e-08 -1.45966e-08 -2.53199e-05
0.000690079 2.08884e-05 -5.55969e-08
2.08884e-05 3.13222e-05 -2.29245e-07
-5.55969e-08 -2.29245e-07 -5.2794e-05
0.000808828 -1.05619e-05 -2.7675e-07
-1.05619e-05 8.86086e-05 -5.98534e-07
-2.7675e-07 -5.98534e-07 5.09871e-06
0.000807962 -9.33452e-07 2.89738e-07
-9.33452e-07 0.000103366 3.47845e-08
2.89738e-07 3.47845e-08 1.43248e-05
0.000823651 -2.92191e-05 -1.14708e-07
-2.92191e-05 0.000107591 -3.81679e-08
-1.14708e-07 -3.81679e-08 2.11439e-05
0.000845985 -1.27967e-05 -1.05438e-08
-1.27967e-05 0.000101972 -6.91292e-07
-1.05438e-08 -6.91292e-07 1.92487e-05
0.000863191 1.16497e-05 -1.65135e-07
1.16497e-05 0.000122686 -1.30076e-06
-1.65135e-07 -1.30076e-06 3.12265e-05
0.000841528 4.02447e-05 4.07565e-07
4.02447e-05 0.000114313 3.76172e-08
4.07565e-07 3.76172e-08 2.73223e-05
0.000727656 3.02243e-05 3.00074e-07
3.02243e-05 6.03554e-05 4.46262e-07
3.00074e-07 4.46262e-07 -3.51439e-05
0.000598336 -1.49704e-05 -1.28161e-07
-1.49704e-05 -3.15387e-05 1.46652e-06
-1.28161e-07 1.46652e-06 -0.000100706
0.000887431 -1.10369e-05 3.26717e-07
-1.10369e-05 0.000164435 -8.86416e-07
3.26717e-07 -8.86416e-07 6.80528e-05
0.000572064 -1.01727e-06 -6.44636e-07
-1.01727e-06 -4.16685e-05 1.43318e-06
-6.44636e-07 1.43318e-06 -0.000113846
0.000664334 9.69994e-06 -4.01574e-07
9.69994e-06 -1.75637e-06 1.64138e-06
-4.01574e-07 1.64138e-06 -4.56248e-05
0.000669315 9.83416e-06 3.65737e-07
9.83416e-06 2.93141e-07 8.87914e-09
3.65737e-07 8.87914e-09 -4.27449e-05
0.000636273 1.41344e-06 1.3334e-07
1.41344e-06 -4.12902e-05 3.53863e-06
1.3334e-07 3.53863e-06 -5.17896e-05
0.000678951 -4.1289e-06 -5.07075e-07
-4.1289e-06 3.65239e-06 -1.78157e-06
-5.07075e-07 -1.78157e-06 -3.87496e-05
0.000982798 -5.90392e-06 -1.6825e-06
-5.90392e-06 0.000157855 -1.55232e-06
-1.6825e-06 -1.55232e-06 0.000149693
0.00224327 -1.1051e-05 7.10221e-06
-1.1051e-05 0.000885072 4.84939e-06
7.10221e-06 4.84939e-06 0.000903362
0.00134737 -1.43997e-05 -2.94358e-06
-1.43997e-05 0.000368776 -5.07999e-06
-2.94358e-06 -5.07999e-06 0.000362566
0.000872617 -1.50733e-05 2.07919e-06
-1.50733e-05 9.88223e-05 2.98171e-06
2.07919e-06 2.98171e-06 0.000109778
0.000820665 -2.1231e-05 -7.52861e-07
-2.1231e-05 7.22861e-05 -1.90974e-06
-7.52861e-07 -1.90974e-06 8.28659e-05
0.000677867 1.1753e-05 -3.87892e-07
1.1753e-05 3.49733e-06 -2.06233e-06
-3.87892e-07 -2.06233e-06 -3.32387e-05
0.000698835 -5.79043e-07 3.55268e-07
-5.79043e-07 1.45664e-05 -2.73487e-08
3.55268e-07 -2.73487e-08 -2.40623e-05
0.000647955 1.98791e-05 3.01105e-07
1.98791e-05 -2.9897e-05 -3.65088e-06
3.01105e-07 -3.65088e-06 -3.83265e-05
0.000963702 3.08763e-05 -4.67246e-07
3.08763e-05 0.000155938 3.90111e-08
-4.67246e-07 3.90111e-08 0.000146547
0.00217877 4.45231e-05 1.64108e-05
4.45231e-05 0.000860123 -4.33311e-06
1.64108e-05 -4.33311e-06 0.000876001
0.000638332 3.4342e-05 -4.06197e-07
3.4342e-05 -2.47122e-05 4.07057e-06
-4.06197e-07 4.07057e-06 -3.95334e-05
0.00229704 5.79365e-05 -2.59516e-06
5.79365e-05 0.00093538 -1.41577e-07
-2.59516e-06 -1.41577e-07 0.00094824
0.00248101 7.15862e-05 -2.82116e-05
7.15862e-05 0.0010488 4.03959e-06
-2.82116e-05 4.03959e-06 0.00105816
0.00180477 0.00015147 -2.33218e-06
0.00015147 4.05535e-05 -5.34694e-07
-2.33218e-06 -5.34694e-07 -3.26143e-05
0.00192218 7.01006e-05 4.78024e-07
7.01006e-05 0.000126257 -1.44965e-07
4.78024e-07 -1.44965e-07 6.33141e-05
0.00176512 1.49324e-06 -2.20325e-07
1.49324e-06 0.000101254 -2.94254e-07
-2.20325e-07 -2.94254e-07 1.57749e-05
0.00175887 8.11805e-06 2.28061e-07
8.11805e-06 2.70064e-05 -1.82034e-07
2.28061e-07 -1.82034e-07 -3.21682e-05
0.00185769 0.000100078 -6.29566e-07
0.000100078 3.78627e-05 -2.37333e-07
-6.29566e-07 -2.37333e-07 -1.32448e-05
0.00182181 5.79119e-05 2.2515e-06
5.79119e-05 1.80007e-05 1.33652e-06
2.2515e-06 1.33652e-06 1.53779e-05
0.00184042 1.5732e-05 1.12193e-06
1.5732e-05 5.39501e-06 -2.96014e-07
1.12193e-06 -2.96014e-07 -1.48471e-05
0.00281705 0.000157912 2.02576e-05
0.000157912 0.000162818 -7.47917e-07
2.02576e-05 -7.47917e-07 0.000133444
0.00186967 3.51171e-05 -2.04031e-05
3.51171e-05 0.000153835 -1.4173e-06
-2.04031e-05 -1.4173e-06 0.000172375
0.000714399 5.85585e-05 -7.04682e-07
5.85585e-05 4.81815e-05 -1.3874e-06
-7.04682e-07 -1.3874e-06 -1.48205e-05
0.00178993 -6.52553e-05 -4.93611e-07
-6.52553e-05 4.79385e-05 -1.02839e-07
-4.93611e-07 -1.02839e-07 -1.59754e-05
0.00191011 -0.000147063 6.05392e-07
-0.000147063 0.000128955 4.29196e-07
6.05392e-07 4.29196e-07 6.51553e-05
0.00155049 -0.00017172 4.91629e-07
-0.00017172 -7.46725e-05 7.9483e-07
4.91629e-07 7.9483e-07 -0.00014958
0.000598507 -0.000157829 2.10559e-06
-0.000157829 -5.08359e-05 5.85534e-06
2.10559e-06 5.85534e-06 -0.000216852
0.00125106 -0.00025818 1.91117e-06
-0.00025818 0.000159873 6.2748e-06
1.91117e-06 6.2748e-06 -9.9466e-05
0.00132755 -0.000280889 -1.18375e-06
-0.000280889 -1.84232e-05 -5.52772e-06
-1.18375e-06 -5.52772e-06 -0.000211908
0.00172903 -0.000280648 -6.45899e-06
-0.000280648 5.6661e-05 -3.21371e-06
-6.45899e-06 -3.21371e-06 -5.78265e-05
0.00144721 -0.000193043 9.41729e-06
-0.000193043 0.000355365 -3.24796e-06
9.41729e-06 -3.24796e-06 0.000217293
0.000500803 -0.000136835 6.26882e-06
-0.000136835 -6.45337e-05 -8.21317e-06
6.26882e-06 -8.21317e-06 -0.000194648
0.000877665 -9.78509e-05 -2.22706e-08
-9.78509e-05 0.000154766 -1.9087e-06
-2.22706e-08 -1.9087e-06 1.77312e-05
0.000685529 -6.45537e-06 -1.40436e-06
-6.45537e-06 9.47114e-06 2.20133e-06
-1.40436e-06 2.20133e-06 -3.21279e-05
0.000833459 -1.41617e-05 3.40315e-08
-1.41617e-05 0.000131421 2.6613e-07
3.40315e-08 2.6613e-07 1.46218e-05
0.00102036 -5.31277e-05 2.81053e-07
-5.31277e-05 0.000235674 6.46639e-07
2.81053e-07 6.46639e-07 0.000154629
0.000770478 -2.01124e-05 -1.11955e-06
-2.01124e-05 0.000101973 8.75927e-07
-1.11955e-06 8.75927e-07 -5.55157e-06
0.000507287 -1.5697e-05 -1.00233e-06
-1.5697e-05 -7.73189e-05 1.73261e-06
-1.00233e-06 1.73261e-06 -0.0001423
0.00194065 -8.73352e-05 -3.33772e-07
-8.73352e-05 5.6182e-05 -5.12879e-08
-3.33772e-07 -5.12879e-08 1.53139e-05
0.000600764 3.09727e-05 6.66778e-08
3.09727e-05 -1.18994e-05 -9.37621e-07
6.66778e-08 -9.37621e-07 -8.13179e-05
0.000735699 -5.35756e-05 3.49064e-08
-5.35756e-05 6.59173e-05 2.18147e-07
3.49064e-08 2.18147e-07 -8.86396e-06
0.000817238 -3.49276e-05 -5.23316e-07
-3.49276e-05 0.000123694 7.43023e-07
-5.23316e-07 7.43023e-07 2.9735e-05
0.00177674 -0.000156391 9.08442e-07
-0.000156391 9.82829e-06 -2.0026e-07
9.08442e-07 -2.0026e-07 -3.21362e-05
0.00191655 -0.000274327 -1.47524e-06
-0.000274327 6.23726e-05 -4.98102e-07
-1.47524e-06 -4.98102e-07 -1.34024e-05
0.000931697 -0.000165941 2.77053e-06
-0.000165941 9.57742e-05 -5.49534e-09
2.77053e-06 -5.49534e-09 -7.13431e-05
0.00158803 -0.000317055 2.9747e-06
-0.000317055 0.000293442 -2.03122e-07
2.9747e-06 -2.03122e-07 2.42903e-05
0.001752 -0.000334772 4.83383e-07
-0.000334772 0.000110661 1.01385e-06
4.83383e-07 1.01385e-06 -3.10995e-05
0.00062867 -9.5557e-06 -2.71643e-07
-9.5557e-06 2.63979e-05 -4.48336e-08
-2.71643e-07 -4.48336e-08 -8.08184e-05
0.000859841 -5.57132e-05 -6.4108e-07
-5.57132e-05 0.000148608 2.33206e-07
-6.4108e-07 2.33206e-07 3.59252e-05
0.000602587 -0.000181821 -4.94753e-06
-0.000181821 -7.38415e-05 1.04156e-06
-4.94753e-06 1.04156e-06 -0.000220767
0.000691356 -8.72698e-05 2.22387e-07
-8.72698e-05 0.000114377 -4.28839e-07
2.22387e-07 -4.28839e-07 -7.27089e-05
0.000759275 -6.72863e-05 -2.42284e-07
-6.72863e-05 7.11941e-05 7.35165e-08
-2.42284e-07 7.35165e-08 -5.46049e-05
0.00211605 -0.000167524 -6.37257e-06
-0.000167524 0.000127722 -2.04148e-07
-6.37257e-06 -2.04148e-07 0.000104465
0.00182941 -0.000177529 -2.85662e-06
-0.000177529 6.83236e-07 1.41293e-06
-2.85662e-06 1.41293e-06 -2.42753e-05
0.00221351 -0.000373033 -1.46867e-06
-0.000373033 0.000230985 -3.48049e-07
-1.46867e-06 -3.48049e-07 0.000122596
0.00268781 -0.000421374 -1.69998e-05
-0.000421374 0.000750746 2.65458e-06
-1.69998e-05 2.65458e-06 0.000553053
0.000914849 -0.000174685 -7.34161e-06
-0.000174685 0.000123981 -2.55236e-06
-7.34161e-06 -2.55236e-06 -7.80823e-05
0.000506966 2.16321e-05 7.93506e-07
2.16321e-05 -5.59397e-05 -2.23636e-06
7.93506e-07 -2.23636e-06 -0.000145773
0.000499217 4.73036e-05 6.09744e-07
4.73036e-05 -6.12546e-05 -1.12175e-06
6.09744e-07 -1.12175e-06 -0.000158511
0.000739589 9.73936e-06 8.63191e-07
9.73936e-06 8.81881e-05 -1.14131e-06
8.63191e-07 -1.14131e-06 -1.76227e-05
0.00105104 -0.000107772 1.45127e-06
-0.000107772 0.000272291 4.78983e-07
1.45127e-06 4.78983e-07 0.000152442
0.000704226 -4.04742e-05 1.14719e-06
-4.04742e-05 4.55055e-05 1.04105e-06
1.14719e-06 1.04105e-06 -6.36593e-05
0.000389882 -4.71373e-05 2.78204e-06
-4.71373e-05 -6.69852e-05 2.19216e-07
2.78204e-06 2.19216e-07 -0.000242592
0.000700566 -0.000179969 6.41621e-06
-0.000179969 0.000130004 1.41107e-06
6.41621e-06 1.41107e-06 -0.000106148
0.000741805 5.84944e-05 8.60416e-07
5.84944e-05 8.71486e-05 -2.75429e-06
8.60416e-07 -2.75429e-06 -1.305e-05
0.000550496 6.54938e-05 9.34009e-07
6.54938e-05 -1.20944e-05 -5.62054e-07
9.34009e-07 -5.62054e-07 -0.000144578
0.00195403 0.000144807 3.48531e-06
0.000144807 6.7087e-05 -4.93147e-07
3.48531e-06 -4.93147e-07 3.14419e-05
0.00166607 0.000219637 6.45265e-06
0.000219637 -4.13999e-05 6.04121e-07
6.45265e-06 6.04121e-07 -0.000123488
0.00184066 0.000321467 5.80681e-06
0.000321467 0.000162356 1.74378e-06
5.80681e-06 1.74378e-06 -2.17508e-06
0.000435094 0.000143445 1.51685e-06
0.000143445 -0.000143091 -1.2836e-06
1.51685e-06 -1.2836e-06 -0.000346942
0.00233464 0.000349601 3.84388e-06
0.000349601 0.000672053 1.35961e-06
3.84388e-06 1.35961e-06 0.000434052
0.00115241 5.69245e-05 -2.90575e-07
5.69245e-05 0.000317655 5.8061e-07
-2.90575e-07 5.8061e-07 0.000206988
0.00199651 0.000145269 -1.99239e-06
0.000145269 0.000133908 -8.74918e-08
-1.99239e-06 -8.74918e-08 0.000123294
0.00138244 0.000189832 -1.26979e-06
0.000189832 0.000433645 -4.81571e-07
-1.26979e-06 -4.81571e-07 0.000270928
0.00168596 0.000260937 -7.75945e-07
0.000260937 0.000503583 1.49113e-06
-7.75945e-07 1.49113e-06 0.0002745
0.00191308 0.000318688 -4.95898e-09
0.000318688 0.000106844 -2.07021e-06
-4.95898e-09 -2.07021e-06 1.58792e-06
0.00151074 0.000319402 -1.13191e-06
0.000319402 0.000135408 2.53224e-06
-1.13191e-06 2.53224e-06 -8.52557e-05
0.0015014 0.000226303 2.25934e-05
0.000226303 -0.000195595 9.49846e-07
2.25934e-05 9.49846e-07 -0.000455355
0.00115974 0.00010454 -2.87744e-06
0.00010454 0.000325958 -1.20372e-06
-2.87744e-06 -1.20372e-06 0.00019894
0.00238836 0.000236267 -3.14258e-05
0.000236267 0.000368786 -1.48231e-05
-3.14258e-05 -1.48231e-05 0.000369104
0.00130945 0.000209393 -5.69944e-06
0.000209393 0.000378117 -1.14085e-06
-5.69944e-06 -1.14085e-06 0.000205508
0.00112868 0.000248799 -4.75952e-06
0.000248799 0.000116252 -1.0344e-06
-4.75952e-06 -1.0344e-06 -0.000121517
0.000570522 0.000335622 -9.5024e-06
0.000335622 -0.000499714 -6.09797e-06
-9.5024e-06 -6.09797e-06 -0.000682919
0.00875178 0.000187 -0.000118771
0.000187 0.00244453 -3.98081e-05
-0.000118771 -3.98081e-05 0.00150026
0.00460821 0.000467154 0.000111488
0.000467154 0.000771475 -5.8592e-06
0.000111488 -5.8592e-06 0.000142922
0.000799501 0.000324715 1.44556e-05
0.000324715 -0.000273445 1.75289e-05
1.44556e-05 1.75289e-05 -0.000415262
-0.00449048 -0.000434121 0.00015921
-0.000434121 -0.00163701 -8.08349e-06
0.00015921 -8.08349e-06 -0.0022239
0.00489335 -0.00120398 -1.68349e-05
-0.00120398 0.000747322 -4.44154e-07
-1.68349e-05 -4.44154e-07 0.00232711
0.000728845 -6.46423e-07 8.90947e-07
-6.46423e-07 7.52498e-05 -4.30282e-07
8.90947e-07 -4.30282e-07 -1.14342e-05
0.000907631 -6.90823e-06 8.47871e-07
-6.90823e-06 0.000166019 -4.10023e-07
8.47871e-07 -4.10023e-07 7.67582e-05
0.000912297 4.67974e-05 -9.86335e-07
4.67974e-05 0.000158527 -1.95774e-06
-9.86335e-07 -1.95774e-06 6.79964e-05
0.000702085 -5.6794e-05 1.49508e-07
-5.6794e-05 4.4251e-05 -1.16136e-06
1.49508e-07 -1.16136e-06 -3.20555e-05
0.00065765 5.07986e-05 -1.0777e-06
5.07986e-05 1.51328e-05 -4.38649e-07
-1.0777e-06 -4.38649e-07 -7.11974e-05
0.000808207 -3.63342e-05 -5.94982e-08
-3.63342e-05 0.000104307 -8.69088e-09
-5.94982e-08 -8.69088e-09 1.4946e-05
0.000881876 -4.18704e-06 -1.36006e-06
-4.18704e-06 0.000138024 8.44878e-07
-1.36006e-06 8.44878e-07 5.24024e-05
0.000804241 -2.10143e-05 -7.7092e-07
-2.10143e-05 8.57362e-05 -5.22855e-07
-7.7092e-07 -5.22855e-07 4.63284e-07
0.000773735 5.5893e-05 -9.40825e-07
5.5893e-05 8.43962e-05 -3.15254e-07
-9.40825e-07 -3.15254e-07 -9.49884e-06
0.000649437 -6.67326e-06 -8.42438e-08
-6.67326e-06 2.45858e-06 6.36889e-07
-8.42438e-08 6.36889e-07 -6.88251e-05
0.000737935 2.06073e-05 -6.81627e-08
2.06073e-05 6.39885e-05 -2.33225e-08
-6.81627e-08 -2.33225e-08 -2.9805e-05
0.000827048 -1.02614e-05 3.65317e-07
-1.02614e-05 9.064e-05 6.55097e-07
3.65317e-07 6.55097e-07 7.98119e-06
0.000856472 1.34519e-05 -5.05747e-07
1.34519e-05 0.000118051 -3.08866e-07
-5.05747e-07 -3.08866e-07 2.85161e-05
0.000939398 5.02133e-05 -4.60796e-07
5.02133e-05 0.000163397 -9.13595e-07
-4.60796e-07 -9.13595e-07 7.33694e-05
0.000637395 1.604e-05 5.74092e-07
1.604e-05 -9.67163e-06 -1.76272e-06
5.74092e-07 -1.76272e-06 -9.4132e-05
0.000865081 5.04341e-05 1.40391e-06
5.04341e-05 0.000123348 2.5138e-07
1.40391e-06 2.5138e-07 3.17688e-05
0.000667029 -8.78712e-06 9.36592e-07
-8.78712e-06 1.15014e-05 -7.45292e-08
9.36592e-07 -7.45292e-08 -7.78396e-05
0.000593412 -4.84627e-05 -1.22764e-06
-4.84627e-05 -2.83058e-05 1.34757e-06
-1.22764e-06 1.34757e-06 -0.000102442
0.00083396 1.1048e-05 -5.75982e-07
1.1048e-05 0.000117254 -2.90312e-07
-5.75982e-07 -2.90312e-07 2.60334e-05
0.000848845 5.27438e-05 2.42066e-07
5.27438e-05 0.00012452 -1.59307e-06
2.42066e-07 -1.59307e-06 3.30199e-05
0.00071309 -9.5824e-07 -7.04215e-07
-9.5824e-07 5.84059e-05 -3.71111e-07
-7.04215e-07 -3.71111e-07 -2.99966e-05
0.000827762 1.76652e-07 8.84663e-07
1.76652e-07 0.000119427 -4.63755e-07
8.84663e-07 -4.63755e-07 2.92709e-05
0.000724967 -5.39879e-05 -1.66891e-06
-5.39879e-05 4.66619e-05 7.13888e-07
-1.66891e-06 7.13888e-07 -2.35853e-05
0.000586565 1.84992e-07 9.59357e-08
1.84992e-07 -3.06729e-05 6.40005e-07
9.59357e-08 6.40005e-07 -0.000104984
0.000677929 7.39614e-06 -6.75279e-07
7.39614e-06 3.86627e-06 1.75774e-06
-6.75279e-07 1.75774e-06 -4.00328e-05
0.000668168 -3.86472e-06 3.08314e-07
-3.86472e-06 -1.29832e-07 -2.11519e-08
3.08314e-07 -2.11519e-08 -4.36613e-05
0.000658548 7.27935e-06 -3.77352e-07
7.27935e-06 -2.70151e-05 5.10599e-06
-3.77352e-07 5.10599e-06 -3.82401e-05
0.000666992 5.8483e-07 -1.01915e-07
5.8483e-07 -1.12103e-06 -1.68309e-06
-1.01915e-07 -1.68309e-06 -4.40036e-05
0.000643198 1.58972e-06 2.68312e-07
1.58972e-06 -3.72603e-05 -1.1504e-08
2.68312e-07 -1.1504e-08 -4.78102e-05
0.0022586 -1.19035e-06 -2.07605e-08
-1.19035e-06 0.00089327 4.9382e-06
-2.07605e-08 4.9382e-06 0.000911461
0.000671891 -4.25704e-06 -4.85797e-07
-4.25704e-06 -2.06316e-05 -5.12813e-06
-4.85797e-07 -5.12813e-06 -3.08991e-05
0.00155865 -8.55018e-06 -2.6087e-07
-8.55018e-06 0.000491049 5.13131e-08
-2.6087e-07 5.13131e-08 0.000505643
0.000819223 -1.36943e-05 -2.36417e-07
-1.36943e-05 6.74051e-05 -1.88824e-06
-2.36417e-07 -1.88824e-06 7.87191e-05
0.000680939 9.6305e-06 -5.71888e-08
9.6305e-06 5.69119e-06 -1.92389e-06
-5.71888e-08 -1.92389e-06 -2.95844e-05
0.000688219 -1.66134e-06 2.51364e-07
-1.66134e-06 9.14579e-06 3.08798e-08
2.51364e-07 3.08798e-08 -2.76298e-05
0.000657371 1.34856e-05 1.24435e-07
1.34856e-05 -2.7833e-05 -3.52257e-06
1.24435e-07 -3.52257e-06 -3.44765e-05
0.00068591 -1.05642e-05 -1.4783e-06
-1.05642e-05 7.2611e-06 2.11841e-06
-1.4783e-06 2.11841e-06 -3.14974e-05
0.000950103 2.2855e-05 -1.60938e-07
2.2855e-05 0.000143419 -7.40341e-07
-1.60938e-07 -7.40341e-07 0.000136859
0.00210983 3.27758e-05 1.25065e-05
3.27758e-05 0.000815436 -4.45977e-06
1.25065e-05 -4.45977e-06 0.000833361
0.000640821 2.7519e-05 -4.33186e-07
2.7519e-05 -2.90743e-05 3.83895e-06
-4.33186e-07 3.83895e-06 -4.06177e-05
0.00224503 4.53661e-05 -7.608e-06
4.53661e-05 0.000899838 1.19354e-06
-7.608e-06 1.19354e-06 0.00091513
0.00233289 5.91959e-05 -2.18529e-05
5.91959e-05 0.00095671 4.22265e-06
-2.18529e-05 4.22265e-06 0.000969154
0.0017493 9.68982e-05 -2.41854e-06
9.68982e-05 -1.61112e-05 -2.88948e-07
-2.41854e-06 -2.88948e-07 -6.81565e-05
0.00173474 1.07196e-05 -4.01432e-07
1.07196e-05 1.55403e-05 -6.22178e-07
-4.01432e-07 -6.22178e-07 -4.38596e-05
0.00162419 5.5498e-05 8.15108e-06
5.5498e-05 -9.61107e-05 -7.01409e-07
8.15108e-06 -7.01409e-07 -0.000106256
0.00212041 0.000111002 2.2069e-05
0.000111002 -0.000128882 4.55339e-06
2.2069e-05 4.55339e-06 -0.000170993
0.00183761 8.91923e-06 -2.40359e-06
8.91923e-06 3.59584e-06 -2.87148e-07
-2.40359e-06 -2.87148e-07 -1.69937e-05
0.00184664 4.31657e-05 3.61941e-06
4.31657e-05 0.000150337 6.56677e-07
3.61941e-06 6.56677e-07 0.000162416
0.00273243 -3.52205e-06 -1.87709e-05
-3.52205e-06 0.000625294 -5.47089e-08
-1.87709e-05 -5.47089e-08 0.000597894
0.00277164 4.16471e-06 0.000137775
4.16471e-06 -0.000140275 -1.33904e-05
0.000137775 -1.33904e-05 -0.000354616
0.00235049 7.6093e-06 -8.10685e-06
7.6093e-06 0.000160181 -9.25318e-07
-8.10685e-06 -9.25318e-07 0.000129944
0.000724039 5.64142e-05 -4.95802e-07
5.64142e-05 5.59602e-05 -1.32716e-06
-4.95802e-07 -1.32716e-06 -8.35885e-06
0.000729848 -9.10168e-06 7.05448e-07
-9.10168e-06 6.15977e-05 -7.36182e-08
7.05448e-07 -7.36182e-08 -5.16119e-06
0.000688437 -6.70951e-05 6.56967e-08
-6.70951e-05 4.39887e-05 -8.8529e-07
6.56967e-08 -8.8529e-07 -3.66145e-05
0.000724277 -2.63081e-05 -1.09337e-06
-2.63081e-05 7.52333e-05 -2.62678e-07
-1.09337e-06 -2.62678e-07 -1.34544e-05
0.00191988 -9.66867e-05 -1.00972e-06
-9.66867e-05 2.95007e-05 1.66096e-07
-1.00972e-06 1.66096e-07 -4.23552e-06
0.00180044 -0.000164019 -2.11806e-06
-0.000164019 1.79414e-05 4.56753e-07
-2.11806e-06 4.56753e-07 -2.59027e-05
0.00187768 -0.000269619 -6.97745e-06
-0.000269619 5.60654e-05 1.99435e-07
-6.97745e-06 1.99435e-07 -2.59734e-05
0.00132824 -0.000225551 2.85394e-06
-0.000225551 0.000305216 3.72527e-06
2.85394e-06 3.72527e-06 0.000138301
0.000154622 -0.000208552 6.02017e-06
-0.000208552 -0.000462965 -2.2815e-06
6.02017e-06 -2.2815e-06 -0.000725222
0.00207166 -0.000360211 2.06008e-06
-0.000360211 0.000287966 -3.42152e-06
2.06008e-06 -3.42152e-06 0.000140416
0.000656197 -0.000173989 -6.09443e-06
-0.000173989 -2.85459e-05 -6.07631e-08
-6.09443e-06 -6.07631e-08 -0.000190704
0.00134687 -9.92732e-05 -1.09233e-06
-9.92732e-05 0.000453237 -2.18982e-06
-1.09233e-06 -2.18982e-06 0.000284783
0.000696742 -8.80592e-05 -1.92197e-06
-8.80592e-05 3.60688e-05 1.27504e-06
-1.92197e-06 1.27504e-06 -8.91225e-05
0.000747105 -2.63777e-05 -8.95728e-07
-2.63777e-05 6.807e-05 1.88756e-06
-8.95728e-07 1.88756e-06 -3.57505e-06
0.000663911 -6.67078e-05 -1.14466e-06
-6.67078e-05 4.39932e-05 6.35949e-08
-1.14466e-06 6.35949e-08 -7.47306e-05
0.000799233 -1.18938e-05 -1.13897e-06
-1.18938e-05 0.000121015 8.5475e-07
-1.13897e-06 8.5475e-07 1.59767e-05
0.000729825 3.24317e-06 1.62378e-07
3.24317e-06 6.55158e-05 1.00105e-06
1.62378e-07 1.00105e-06 -5.17618e-06
0.000641725 1.62303e-05 -1.17473e-06
1.62303e-05 2.66827e-05 2.79692e-06
-1.17473e-06 2.79692e-06 -7.00653e-05
0.00206345 -0.000149884 9.7328e-07
-0.000149884 0.000122612 4.97269e-07
9.7328e-07 4.97269e-07 9.84252e-05
0.000716352 2.85756e-06 8.03123e-07
2.85756e-06 6.87083e-05 -4.92026e-07
8.03123e-07 -4.92026e-07 -2.2445e-05
0.00068194 1.00091e-05 9.76148e-07
1.00091e-05 4.76432e-05 -1.8423e-07
9.76148e-07 -1.8423e-07 -5.14126e-05
0.000643589 6.14322e-05 -1.44857e-07
6.14322e-05 3.70155e-05 1.4415e-06
-1.44857e-07 1.4415e-06 -6.67553e-05
0.00188223 -0.000181756 -2.17504e-06
-0.000181756 1.24241e-05 -5.53516e-07
-2.17504e-06 -5.53516e-07 -1.76995e-05
0.0019441 -0.000352676 1.34925e-06
-0.000352676 9.21235e-05 -2.51679e-07
1.34925e-06 -2.51679e-07 -9.97253e-06
0.00112991 -0.000227305 -6.00382e-07
-0.000227305 0.000223766 -7.20749e-07
-6.00382e-07 -7.20749e-07 1.80309e-05
0.00239543 -0.000403769 -3.18818e-06
-0.000403769 0.000592706 1.29479e-06
-3.18818e-06 1.29479e-06 0.000393402
0.00101668 -4.84082e-05 -5.71465e-07
-4.84082e-05 0.000244322 2.89741e-07
-5.71465e-07 2.89741e-07 0.000128896
0.000678871 -5.91784e-05 -4.67188e-07
-5.91784e-05 3.36808e-05 9.20058e-07
-4.67188e-07 9.20058e-07 -8.20679e-05
0.000939031 -0.000200122 2.97686e-06
-0.000200122 0.000260122 -7.13763e-07
2.97686e-06 -7.13763e-07 2.43367e-05
0.00100081 -0.000109833 6.4702e-07
-0.000109833 0.000268235 -3.08578e-07
6.4702e-07 -3.08578e-07 8.45014e-05
0.00191624 -0.000133128 -1.44902e-05
-0.000133128 1.15588e-05 1.9444e-06
-1.44902e-05 1.9444e-06 -6.16568e-06
0.002176 -0.00029525 -1.10881e-05
-0.00029525 0.000113258 2.75088e-06
-1.10881e-05 2.75088e-06 0.000130172
0.00250973 -0.00042868 -9.84763e-06
-0.00042868 0.000518722 -4.32089e-06
-9.84763e-06 -4.32089e-06 0.00035753
0.00162537 -0.000332001 -2.35802e-06
-0.000332001 0.000426562 3.08059e-06
-2.35802e-06 3.08059e-06 0.000225902
0.000651078 1.97217e-05 -8.30094e-07
1.97217e-05 4.41237e-05 -2.58557e-06
-8.30094e-07 -2.58557e-06 -7.00198e-05
0.000664203 -6.52432e-05 1.17857e-06
-6.52432e-05 5.21371e-05 -3.3e-06
1.17857e-06 -3.3e-06 -6.76945e-05
0.00065907 -6.36212e-05 9.40451e-07
-6.36212e-05 6.43559e-05 5.99811e-07
9.40451e-07 5.99811e-07 -6.35605e-05
0.000560338 -4.97724e-05 1.31947e-06
-4.97724e-05 0.000114422 -7.98153e-07
1.31947e-06 -7.98153e-07 -0.000159987
0.000507764 -0.000200519 2.44961e-05
-0.000200519 -0.00212231 -1.21712e-06
2.44961e-05 -1.21712e-06 -0.00259765
0.00102863 3.99843e-05 1.06415e-06
3.99843e-05 0.000244117 -2.37615e-06
1.06415e-06 -2.37615e-06 0.000140614
0.000449325 0.000114055 2.92539e-06
0.000114055 -8.22113e-05 7.61776e-07
2.92539e-06 7.61776e-07 -0.000232178
0.00168701 0.000128236 2.52621e-05
0.000128236 -2.92056e-05 3.15857e-06
2.52621e-05 3.15857e-06 -3.27501e-05
0.00205584 0.000316307 8.23196e-06
0.000316307 0.000185455 2.41135e-06
8.23196e-06 2.41135e-06 8.19298e-05
0.00158004 0.000330968 5.22325e-06
0.000330968 0.000171307 3.7634e-06
5.22325e-06 3.7634e-06 -5.66336e-05
0.00076204 0.000189154 4.541e-06
0.000189154 1.75393e-05 1.6281e-06
4.541e-06 1.6281e-06 -0.000214414
0.00257812 0.000286202 3.29935e-05
0.000286202 0.000154403 7.40568e-06
3.29935e-05 7.40568e-06 -0.000178513
0.00103909 8.73574e-05 1.21936e-06
8.73574e-05 0.000264351 -3.99608e-07
1.21936e-06 -3.99608e-07 0.000139121
0.00234417 0.000237503 -8.3657e-06
0.000237503 0.000339997 -1.69779e-06
-8.3657e-06 -1.69779e-06 0.000348333
0.00105689 0.000189262 7.91741e-07
0.000189262 0.000247468 -2.63884e-07
7.91741e-07 -2.63884e-07 7.83051e-05
0.00120573 0.000264222 -3.84031e-08
0.000264222 0.000163293 -2.17068e-07
-3.84031e-08 -2.17068e-07 -7.76238e-05
0.00142786 0.000391965 -3.39284e-06
0.000391965 -7.45135e-05 -1.51702e-06
-3.39284e-06 -1.51702e-06 -0.000251165
0.00298536 -0.000149504 -7.47801e-05
-0.000149504 -0.000565194 -2.39945e-05
-7.47801e-05 -2.39945e-05 -0.00148347
0.00453876 0.00037082 -1.23584e-06
0.00037082 0.00050229 -2.01008e-05
-1.23584e-06 -2.01008e-05 -0.000220981
0.00017089 0.000244773 2.34584e-06
0.000244773 -0.000535542 7.33242e-06
2.34584e-06 7.33242e-06 -0.000697284
-0.00078715 -0.000343606 8.54077e-05
-0.000343606 0.000520317 3.07838e-05
8.54077e-05 3.07838e-05 -0.00028952
-0.000647031 -0.00118301 -3.58488e-05
-0.00118301 -0.00143814 -5.34941e-05
-3.58488e-05 -5.34941e-05 0.000306059
0.00116935 0.000139916 -3.34731e-06
0.000139916 0.000339032 -3.83322e-06
-3.34731e-06 -3.83322e-06 0.000217727
0.000418968 0.000241218 3.56575e-05
0.000241218 0.000990004 -2.92521e-05
3.56575e-05 -2.92521e-05 0.000249108
0.00127904 -0.000435692 -7.03949e-05
-0.000435692 0.00140048 -9.41529e-05
-7.03949e-05 -9.41529e-05 0.000869836
0.0027803 0.000357987 -2.46897e-05
0.000357987 0.000637281 -8.89177e-06
-2.46897e-05 -8.89177e-06 0.000649405
0.00116324 0.000131421 -1.16688e-05
0.000131421 0.000300719 -2.18724e-06
-1.16688e-05 -2.18724e-06 0.000122595
0.000842028 0.00037003 -1.74477e-05
0.00037003 -8.4378e-05 -1.09784e-05
-1.74477e-05 -1.09784e-05 -0.000344936
-0.000175054 0.000289057 2.06082e-05
0.000289057 -0.000726524 5.23367e-05
2.06082e-05 5.23367e-05 -0.000791284
0.00906965 0.000252805 -3.78413e-05
0.000252805 0.00304809 -2.26219e-05
-3.78413e-05 -2.26219e-05 0.00158773
0.00366194 0.000669829 -2.89384e-06
0.000669829 0.00083361 1.20168e-05
-2.89384e-06 1.20168e-05 -0.00039627
0.00103762 -0.000996907 9.5853e-05
-0.000996907 -0.000438091 7.93592e-05
9.5853e-05 7.93592e-05 4.82011e-05
0.00230937 -0.000614334 -6.04255e-06
-0.000614334 -0.0016169 0.00011218
-6.04255e-06 0.00011218 -0.000199376
0.000765459 -1.43444e-05 1.02909e-06
-1.43444e-05 9.39764e-05 -1.09306e-06
1.02909e-06 -1.09306e-06 4.93373e-06
0.000900808 4.56486e-05 6.29174e-07
4.56486e-05 0.000156897 7.2757e-07
6.29174e-07 7.2757e-07 6.55506e-05
0.00124456 9.55382e-05 -1.88563e-06
9.55382e-05 0.000355003 -2.99739e-06
-1.88563e-06 -2.99739e-06 0.000279368
0.000707046 3.55222e-06 2.21657e-07
3.55222e-06 4.82876e-05 -2.31961e-07
2.21657e-07 -2.31961e-07 -3.06205e-05
0.000782921 2.34977e-05 -1.8257e-07
2.34977e-05 8.78835e-05 -5.83997e-07
-1.8257e-07 -5.83997e-07 -4.6283e-06
0.000625777 -2.12361e-05 -7.72341e-07
-2.12361e-05 -7.77368e-06 -1.2032e-08
-7.72341e-07 -1.2032e-08 -9.49072e-05
0.000856471 1.69046e-05 -6.60194e-07
1.69046e-05 0.00011722 3.63927e-07
-6.60194e-07 3.63927e-07 2.93222e-05
0.000820715 -8.58167e-06 -5.49852e-07
-8.58167e-06 8.63681e-05 6.33379e-07
-5.49852e-07 6.33379e-07 3.66958e-06
0.000579825 -1.73497e-06 4.56108e-07
-1.73497e-06 -3.35897e-05 6.45143e-07
4.56108e-07 6.45143e-07 -0.000109356
0.000863812 1.39194e-05 2.11767e-10
1.39194e-05 0.000120799 -1.21427e-07
2.11767e-10 -1.21427e-07 3.1081e-05
0.000857765 1.15672e-05 7.43822e-09
1.15672e-05 0.000120745 2.82528e-07
7.43822e-09 2.82528e-07 2.89646e-05
0.000745868 1.71624e-05 6.21964e-07
1.71624e-05 6.78766e-05 -3.61033e-07
6.21964e-07 -3.61033e-07 -2.8061e-05
0.000674888 1.89526e-05 -7.61729e-08
1.89526e-05 9.53291e-06 1.29385e-07
-7.61729e-08 1.29385e-07 -7.40622e-05
0.000981518 1.49829e-05 7.6315e-08
1.49829e-05 0.000184392 -1.08216e-06
7.6315e-08 -1.08216e-06 9.68893e-05
0.000562495 4.1948e-05 -1.37843e-06
4.1948e-05 -4.88568e-05 -5.35438e-06
-1.37843e-06 -5.35438e-06 -0.000135913
0.000807815 -6.42569e-05 -1.85584e-07
-6.42569e-05 8.91361e-05 -1.92789e-07
-1.85584e-07 -1.92789e-07 -7.7811e-06
0.000843691 -5.39195e-05 -7.33596e-07
-5.39195e-05 0.000126714 -8.20759e-07
-7.33596e-07 -8.20759e-07 2.83138e-05
0.000841192 -1.76437e-05 -5.21873e-07
-1.76437e-05 0.000124595 -2.99173e-07
-5.21873e-07 -2.99173e-07 3.03664e-05
0.000861791 3.32469e-05 -5.03243e-07
3.32469e-05 0.000125594 -2.86873e-07
-5.03243e-07 -2.86873e-07 3.78579e-05
0.000816297 1.58373e-05 -9.02162e-07
1.58373e-05 0.000111956 -1.48105e-06
-9.02162e-07 -1.48105e-06 9.46322e-06
0.000772479 4.12293e-05 7.24926e-07
4.12293e-05 8.4269e-05 -9.27303e-07
7.24926e-07 -9.27303e-07 -4.85577e-06
0.000618868 1.38565e-05 6.4747e-07
1.38565e-05 -2.28888e-05 -1.68986e-06
6.4747e-07 -1.68986e-06 -0.000102083
0.000673597 4.20916e-05 1.52005e-06
4.20916e-05 3.58101e-05 7.00967e-07
1.52005e-06 7.00967e-07 -5.4559e-05
0.000720103 -9.81726e-06 6.24935e-08
-9.81726e-06 4.91606e-05 -1.27672e-07
6.24935e-08 -1.27672e-07 -2.79568e-05
0.000745621 -1.43899e-05 -1.87073e-07
-1.43899e-05 7.27984e-05 -5.47567e-09
-1.87073e-07 -5.47567e-09 -1.32079e-05
0.000718167 -1.82357e-05 -1.28708e-06
-1.82357e-05 3.64453e-05 4.8457e-07
-1.28708e-06 4.8457e-07 -2.78002e-05
0.000757913 -5.63916e-06 9.30795e-07
-5.63916e-06 6.66587e-05 -1.39662e-07
9.30795e-07 -1.39662e-07 -1.58654e-05
0.000687707 -4.89451e-05 -1.87604e-08
-4.89451e-05 2.42972e-05 8.86934e-08
-1.87604e-08 8.86934e-08 -4.61513e-05
0.000696503 9.24341e-06 -1.12158e-06
9.24341e-06 1.19343e-05 1.75385e-06
-1.12158e-06 1.75385e-06 -3.1855e-05
0.000590441 -3.34585e-07 7.90252e-07
-3.34585e-07 -2.32285e-05 -2.36931e-07
7.90252e-07 -2.36931e-07 -0.000101113
0.000681598 7.49991e-06 4.21243e-07
7.49991e-06 6.10532e-06 -2.39858e-08
4.21243e-07 -2.39858e-08 -3.79441e-05
0.00136613 1.67898e-05 -2.82137e-06
1.67898e-05 0.000381465 5.03763e-06
-2.82137e-06 5.03763e-06 0.000373541
0.000670965 1.23935e-05 1.08595e-07
1.23935e-05 1.31748e-06 -1.62959e-06
1.08595e-07 -1.62959e-06 -4.21632e-05
0.00100636 8.89075e-06 -1.53531e-06
8.89075e-06 0.0001728 7.65692e-07
-1.53531e-06 7.65692e-07 0.000163525
0.000877192 3.89245e-06 -3.47943e-06
3.89245e-06 9.99866e-05 4.80231e-06
-3.47943e-06 4.80231e-06 0.000110448
0.000650794 1.74418e-06 5.25699e-08
1.74418e-06 -3.28278e-05 -3.51793e-06
5.25699e-08 -3.51793e-06 -4.34356e-05
0.00226378 8.79458e-08 3.52028e-06
8.79458e-08 0.000896294 -2.27904e-09
3.52028e-06 -2.27904e-09 0.000914432
0.000893004 -3.71413e-06 -3.38002e-06
-3.71413e-06 0.000108586 -4.81335e-06
-3.38002e-06 -4.81335e-06 0.000119599
0.000736328 6.50999e-05 1.13509e-06
6.50999e-05 6.90067e-05 -5.42042e-07
1.13509e-06 -5.42042e-07 -1.17354e-06
0.000690097 1.37629e-05 -5.64098e-07
1.37629e-05 1.12137e-05 -1.95798e-06
-5.64098e-07 -1.95798e-06 -2.40847e-05
0.00067989 1.89452e-06 5.26582e-07
1.89452e-06 5.37239e-06 1.69995e-08
5.26582e-07 1.69995e-08 -3.02065e-05
0.000655956 7.21098e-06 -6.25265e-08
7.21098e-06 -3.03863e-05 -3.4995e-06
-6.25265e-08 -3.4995e-06 -3.6191e-05
0.000698247 -1.2353e-05 -9.41196e-07
-1.2353e-05 1.48954e-05 2.07107e-06
-9.41196e-07 2.07107e-06 -2.21103e-05
0.000643865 1.34701e-05 2.03958e-09
1.34701e-05 -3.60537e-05 -7.53499e-07
2.03958e-09 -7.53499e-07 -4.25421e-05
0.00208337 2.1579e-05 8.34516e-06
2.1579e-05 0.00079631 -4.60715e-06
8.34516e-06 -4.60715e-06 0.000815542
0.00126634 2.80395e-05 -8.63337e-07
2.80395e-05 0.000325388 2.17233e-06
-8.63337e-07 2.17233e-06 0.000320159
0.00152467 2.8038e-05 3.24448e-07
2.8038e-05 0.000480025 1.46591e-06
3.24448e-07 1.46591e-06 0.000493985
0.000951478 3.09745e-05 -1.63807e-05
3.09745e-05 0.000156459 7.43337e-06
-1.63807e-05 7.43337e-06 0.000164681
0.00128134 6.22321e-05 4.30174e-05
6.22321e-05 -0.000495422 1.34591e-05
4.30174e-05 1.34591e-05 -0.000561348
0.00184566 1.94153e-06 1.84829e-06
1.94153e-06 5.63944e-06 1.91113e-07
1.84829e-06 1.91113e-07 -1.42769e-05
0.00184604 4.8127e-05 2.42946e-05
4.8127e-05 0.000160799 -1.66817e-06
2.42946e-05 -1.66817e-06 0.000164408
0.000815132 4.51804e-05 6.18022e-06
4.51804e-05 -0.000848909 -5.02785e-06
6.18022e-06 -5.02785e-06 -0.00109256
0.00171911 1.86469e-05 9.44159e-06
1.86469e-05 -0.000140878 1.1488e-06
9.44159e-06 1.1488e-06 -0.000150291
0.00216444 -1.24537e-05 -1.46255e-06
-1.24537e-05 0.000247485 -6.87586e-07
-1.46255e-06 -6.87586e-07 0.000223374
0.00300723 -3.16938e-05 -5.26217e-05
-3.16938e-05 0.000601429 5.21215e-06
-5.26217e-05 5.21215e-06 0.000589833
0.00286747 -9.54895e-05 0.000138729
-9.54895e-05 0.000294508 -1.04759e-05
0.000138729 -1.04759e-05 4.92425e-05
0.00781452 -0.000251535 -9.86291e-06
-0.000251535 0.00194042 1.58812e-05
-9.86291e-06 1.58812e-05 0.000793848
0.00665005 0.00102885 0.000150328
0.00102885 0.00328133 -6.67395e-05
0.000150328 -6.67395e-05 0.00344319
0.00271383 0.00101852 1.41379e-06
0.00101852 0.00158189 1.38453e-05
1.41379e-06 1.38453e-05 0.00257616
0.000451399 -6.56191e-05 1.80349e-06
-6.56191e-05 -8.67299e-05 -1.4168e-06
1.80349e-06 -1.4168e-06 -0.000169662
0.000725614 -8.57708e-06 9.83718e-07
-8.57708e-06 5.89498e-05 -7.5341e-08
9.83718e-07 -7.5341e-08 -6.75075e-06
0.000735007 -6.79224e-05 -1.26216e-06
-6.79224e-05 6.94633e-05 1.80785e-06
-1.26216e-06 1.80785e-06 -1.12833e-06
0.000682148 -2.35117e-05 -3.78904e-07
-2.35117e-05 4.30652e-05 1.40101e-07
-3.78904e-07 1.40101e-07 -4.06182e-05
0.000807464 6.49702e-05 -5.51877e-09
6.49702e-05 0.000128646 1.92814e-07
-5.51877e-09 1.92814e-07 2.59942e-05
0.000885374 0.00010988 9.49969e-07
0.00010988 0.000158433 7.86816e-07
9.49969e-07 7.86816e-07 6.04314e-05
0.000796873 -1.04322e-05 1.20749e-06
-1.04322e-05 0.000108864 -1.97002e-06
1.20749e-06 -1.97002e-06 2.16297e-05
0.000665723 -2.83753e-05 -6.50753e-07
-2.83753e-05 3.51139e-05 6.70892e-07
-6.50753e-07 6.70892e-07 -4.90868e-05
0.00200382 -0.000132099 7.25353e-06
-0.000132099 0.000111305 3.49266e-07
7.25353e-06 3.49266e-07 8.84574e-05
0.00192899 -0.000189009 1.96171e-06
-0.000189009 1.1232e-05 -1.65474e-06
1.96171e-06 -1.65474e-06 -2.08667e-05
0.0016306 -0.000331046 -1.07196e-07
-0.000331046 -7.30525e-05 1.41348e-06
-1.07196e-07 1.41348e-06 -0.000168713
0.00112002 -0.000250242 3.82139e-06
-0.000250242 0.000200514 2.8596e-06
3.82139e-06 2.8596e-06 -5.32938e-06
0.00228453 -0.000398007 3.90455e-06
-0.000398007 0.000532044 2.20515e-07
3.90455e-06 2.20515e-07 0.000329666
0.0010185 -0.000208311 -7.94581e-07
-0.000208311 0.000302889 -1.76484e-06
-7.94581e-07 -1.76484e-06 6.74622e-05
0.00157483 -0.000172031 -1.27439e-06
-0.000172031 0.000587255 -4.19402e-07
-1.27439e-06 -4.19402e-07 0.000392268
0.000771537 -9.00232e-05 -1.64512e-06
-9.00232e-05 8.87846e-05 1.37768e-06
-1.64512e-06 1.37768e-06 -3.4785e-05
0.000783675 -2.07191e-05 -3.15025e-07
-2.07191e-05 0.000109375 2.26531e-06
-3.15025e-07 2.26531e-06 1.00295e-05
0.000974815 -8.73996e-06 -1.91472e-06
-8.73996e-06 0.00021309 -1.45072e-06
-1.91472e-06 -1.45072e-06 0.000102265
0.000995424 -1.02505e-05 9.82955e-07
-1.02505e-05 0.000228986 1.12626e-06
9.82955e-07 1.12626e-06 0.000138323
0.000719628 0.000113153 2.17881e-06
0.000113153 8.25412e-05 3.52157e-06
2.17881e-06 3.52157e-06 -2.14247e-05
0.00173591 -0.00013247 -4.9052e-07
-0.00013247 -6.50842e-05 -5.58825e-07
-4.9052e-07 -5.58825e-07 -7.7294e-05
0.000738161 3.02606e-05 -9.07675e-07
3.02606e-05 9.31476e-05 2.40846e-07
-9.07675e-07 2.40846e-07 -1.95449e-05
0.000814886 -5.6078e-05 -8.10779e-07
-5.6078e-05 0.000132579 9.38139e-08
-8.10779e-07 9.38139e-08 1.78455e-05
0.0018834 -0.000293293 4.02648e-07
-0.000293293 -2.35984e-05 -1.65571e-06
4.02648e-07 -1.65571e-06 -2.35574e-05
0.00139505 -0.000354337 -4.37672e-07
-0.000354337 -5.68688e-05 2.48616e-06
-4.37672e-07 2.48616e-06 -0.000197587
0.00158379 -0.000329325 1.77271e-06
-0.000329325 0.000400288 -1.52524e-06
1.77271e-06 -1.52524e-06 0.000185884
0.000891238 -7.35842e-05 4.73583e-07
-7.35842e-05 0.000195635 -1.52638e-06
4.73583e-07 -1.52638e-06 5.63183e-05
0.000931445 -8.62043e-05 -3.08979e-07
-8.62043e-05 0.000301264 1.97114e-07
-3.08979e-07 1.97114e-07 3.97216e-05
0.00255106 -0.000189448 -1.54382e-05
-0.000189448 0.000498617 5.81198e-06
-1.54382e-05 5.81198e-06 0.000426554
0.00279996 -0.000395045 -2.14808e-05
-0.000395045 0.00054 2.75413e-06
-2.14808e-05 2.75413e-06 0.000561801
0.000536792 -0.000326818 -6.55221e-06
-0.000326818 -0.000352253 8.67464e-08
-6.55221e-06 8.67464e-08 -0.000503037
0.000744978 -0.000206128 -3.46423e-06
-0.000206128 4.78068e-05 1.18944e-05
-3.46423e-06 1.18944e-05 -0.000176379
0.000665069 -0.000101471 7.25869e-07
-0.000101471 4.78095e-05 -1.04671e-06
7.25869e-07 -1.04671e-06 -7.16358e-05
0.000660688 -6.09715e-05 1.87582e-06
-6.09715e-05 5.94707e-05 -3.72147e-06
1.87582e-06 -3.72147e-06 -6.83801e-05
0.00084645 -2.83653e-05 2.8569e-07
-2.83653e-05 0.000228789 -2.00486e-06
2.8569e-07 -2.00486e-06 2.32303e-05
-0.00408069 -2.4227e-05 0.000184315
-2.4227e-05 -0.00224454 5.56704e-07
0.000184315 5.56704e-07 -0.00178902
0.00931121 -0.000109424 -1.71431e-05
-0.000109424 0.00294371 2.21307e-06
-1.71431e-05 2.21307e-06 0.00232597
0.00099229 7.35207e-05 2.72244e-06
7.35207e-05 0.000240406 -2.89889e-07
2.72244e-06 -2.89889e-07 0.000118398
0.000727481 0.000163122 4.05494e-06
0.000163122 7.13315e-05 -1.12814e-06
4.05494e-06 -1.12814e-06 -9.36138e-05
0.00207432 0.000223322 1.89147e-05
0.000223322 0.000191425 1.27902e-05
1.89147e-05 1.27902e-05 0.000210429
0.00230099 0.000447646 6.41085e-06
0.000447646 0.000361865 5.35904e-06
6.41085e-06 5.35904e-06 0.000192718
0.00139173 0.000287916 6.74007e-06
0.000287916 0.000272193 1.3934e-06
6.74007e-06 1.3934e-06 2.83726e-05
0.00748098 0.000356983 6.49215e-05
0.000356983 0.00179125 7.99682e-06
6.49215e-05 7.99682e-06 0.000734032
0.00639031 0.00054198 -0.000113154
0.00054198 0.00117603 -3.03676e-05
-0.000113154 -3.03676e-05 0.000557033
-0.000808004 0.000147599 1.94298e-06
0.000147599 -0.000981793 -1.94228e-05
1.94298e-06 -1.94228e-05 -0.0011574
0.00472142 -0.000822113 -1.76117e-05
-0.000822113 0.00239291 2.68189e-05
-1.76117e-05 2.68189e-05 0.00209465
-0.00633124 -0.0012011 -0.000221706
-0.0012011 -0.00357404 -0.000190817
-0.000221706 -0.000190817 -0.00167864
0.000960124 0.000136995 3.49062e-08
0.000136995 0.000231223 -1.50886e-06
3.49062e-08 -1.50886e-06 0.00010904
-0.00247094 -0.000332088 6.18685e-05
-0.000332088 -0.00161121 6.10863e-06
6.18685e-05 6.10863e-06 -0.00168717
-0.00137153 -0.000363484 -6.88097e-05
-0.000363484 0.000414586 -3.15761e-05
-6.88097e-05 -3.15761e-05 -0.000375645
0.00254369 0.00032692 -4.98232e-06
0.00032692 0.000481993 -1.48751e-06
-4.98232e-06 -1.48751e-06 0.000518465
0.000893096 0.000149155 -1.70348e-06
0.000149155 0.000179783 5.98894e-08
-1.70348e-06 5.98894e-08 -7.14383e-06
0.000720968 0.000317635 4.27004e-06
0.000317635 -0.000116878 1.75334e-06
4.27004e-06 1.75334e-06 -0.000371595
0.000685121 0.000237465 1.12415e-05
0.000237465 -0.000204547 9.93203e-06
1.12415e-05 9.93203e-06 -0.000196122
0.00763595 0.000177446 -2.47876e-05
0.000177446 0.00196469 -1.78161e-05
-2.47876e-05 -1.78161e-05 0.00038423
0.00636388 0.000850014 -4.12564e-05
0.000850014 0.00166596 -1.68414e-05
-4.12564e-05 -1.68414e-05 0.000838596
0.00741109 -0.00108253 5.50287e-05
-0.00108253 0.00350008 -2.86298e-05
5.50287e-05 -2.86298e-05 0.00364586
0.0019593 -0.000738343 7.40236e-05
-0.000738343 -0.00193774 0.000155127
7.40236e-05 0.000155127 -0.000443484
0.00138808 0.00011219 -1.17457e-05
0.00011219 0.000491191 -7.17372e-06
-1.17457e-05 -7.17372e-06 0.000387742
-0.00349974 2.35374e-05 -8.63249e-05
2.35374e-05 9.70091e-05 -3.46899e-05
-8.63249e-05 -3.46899e-05 -0.00126368
0.00228211 9.39782e-05 -9.98369e-05
9.39782e-05 0.00070966 -0.000133559
-9.98369e-05 -0.000133559 -0.000668207
5.92561e-05 0.000262285 -1.74056e-05
0.000262285 -0.000498682 6.07445e-07
-1.74056e-05 6.07445e-07 -0.000506899
0.00160426 0.000341726 -3.84898e-05
0.000341726 0.000630276 -1.0628e-05
-3.84898e-05 -1.0628e-05 0.000420877
0.00274117 0.000254281 -7.09424e-05
0.000254281 0.0011853 -5.14442e-06
-7.09424e-05 -5.14442e-06 0.000939178
0.00378026 0.000768271 -6.17751e-05
0.000768271 0.000538528 -1.20082e-05
-6.17751e-05 -1.20082e-05 0.000138146
-0.000541441 0.00029669 0.00010024
0.00029669 -0.00075224 7.4275e-05
0.00010024 7.4275e-05 -0.00304568
0.00788873 -0.00105872 3.98466e-07
-0.00105872 0.00229549 0.000119491
3.98466e-07 0.000119491 0.00220647
0.00260883 -0.000439087 -1.12989e-05
-0.000439087 -0.00207382 -2.5765e-05
-1.12989e-05 -2.5765e-05 -0.000699745
0.000955588 6.36803e-05 2.00948e-06
6.36803e-05 0.000196653 3.35511e-06
2.00948e-06 3.35511e-06 9.9686e-05
0.00113814 9.02644e-05 3.69168e-06
9.02644e-05 0.000292385 2.51794e-06
3.69168e-06 2.51794e-06 0.00021617
0.000435102 6.38741e-05 -4.84702e-07
6.38741e-05 -9.97526e-05 -7.15932e-06
-4.84702e-07 -7.15932e-06 -0.000158037
0.000566531 4.3134e-05 8.40793e-07
4.3134e-05 -4.18511e-05 -6.76322e-08
8.40793e-07 -6.76322e-08 -0.000117142
0.000794827 3.76898e-05 -7.33218e-07
3.76898e-05 0.000101873 -8.68976e-07
-7.33218e-07 -8.68976e-07 3.31596e-06
0.00083043 -1.16375e-05 -3.88565e-07
-1.16375e-05 0.000105348 7.58557e-07
-3.88565e-07 7.58557e-07 1.42302e-05
0.000831907 -7.64327e-06 6.01054e-07
-7.64327e-06 0.000105795 -2.40819e-07
6.01054e-07 -2.40819e-07 1.39849e-05
0.000675809 1.33574e-05 -3.83304e-07
1.33574e-05 8.9246e-06 2.72343e-06
-3.83304e-07 2.72343e-06 -7.34665e-05
0.000838474 3.52938e-05 1.28814e-07
3.52938e-05 0.000124512 -6.50128e-07
1.28814e-07 -6.50128e-07 2.57801e-05
0.000899916 1.42902e-05 -6.15641e-08
1.42902e-05 0.000137703 3.12509e-07
-6.15641e-08 3.12509e-07 5.00926e-05
0.000844032 -3.13914e-05 -2.19914e-08
-3.13914e-05 0.000112915 4.54972e-07
-2.19914e-08 4.54972e-07 1.3905e-05
0.000400515 2.64486e-05 6.33443e-07
2.64486e-05 -0.000133405 -4.99961e-07
6.33443e-07 -4.99961e-07 -0.000217731
0.000192597 1.17887e-05 2.04736e-06
1.17887e-05 -0.000194287 -4.40028e-06
2.04736e-06 -4.40028e-06 -0.00027383
0.000968305 -9.08756e-06 -1.82768e-06
-9.08756e-06 0.000184177 -2.70031e-06
-1.82768e-06 -2.70031e-06 8.78236e-05
0.000994448 -2.66047e-06 1.65983e-07
-2.66047e-06 0.000212049 -1.55299e-06
1.65983e-07 -1.55299e-06 0.000102046
0.00084853 -4.58802e-05 1.49082e-08
-4.58802e-05 0.000131751 -3.58087e-07
1.49082e-08 -3.58087e-07 3.47434e-05
0.000882046 1.39909e-06 -7.17109e-07
1.39909e-06 0.000132613 9.16269e-07
-7.17109e-07 9.16269e-07 4.70997e-05
0.00083528 -2.74918e-05 5.37805e-07
-2.74918e-05 0.000115212 -3.06114e-07
5.37805e-07 -3.06114e-07 1.72456e-05
0.000785978 3.7021e-05 -1.93403e-07
3.7021e-05 8.96339e-05 -8.02697e-08
-1.93403e-07 -8.02697e-08 1.46865e-06
0.000711266 -1.31663e-05 -1.84229e-07
-1.31663e-05 2.99866e-05 5.45396e-07
-1.84229e-07 5.45396e-07 -4.94966e-05
0.000703716 4.5753e-05 1.07989e-06
4.5753e-05 4.67962e-05 3.74366e-08
1.07989e-06 3.74366e-08 -4.02511e-05
0.000573715 9.33166e-06 -3.91693e-08
9.33166e-06 -3.56719e-05 -2.85196e-06
-3.91693e-08 -2.85196e-06 -0.000126663
0.000661682 -9.3287e-07 1.50838e-06
-9.3287e-07 1.2588e-05 -1.35014e-06
1.50838e-06 -1.35014e-06 -6.52646e-05
0.000848695 1.45751e-05 2.85267e-06
1.45751e-05 0.000113157 -2.65763e-06
2.85267e-06 -2.65763e-06 2.1015e-05
0.000253489 -3.31682e-05 7.4787e-07
-3.31682e-05 -0.000175854 1.57934e-07
7.4787e-07 1.57934e-07 -0.000309259
0.000376467 3.58309e-05 -5.91385e-08
3.58309e-05 -0.000117051 -2.74328e-07
-5.91385e-08 -2.74328e-07 -0.000215662
0.00075085 3.40365e-05 4.35143e-07
3.40365e-05 7.84988e-05 4.42949e-07
4.35143e-07 4.42949e-07 -1.2104e-05
0.000702287 2.44277e-05 1.21643e-07
2.44277e-05 4.226e-05 3.43023e-07
1.21643e-07 3.43023e-07 -3.60005e-05
0.000752284 -3.06622e-07 -3.84589e-08
-3.06622e-07 7.53255e-05 4.29541e-09
-3.84589e-08 4.29541e-09 -7.47117e-06
0.000685395 1.67852e-05 -6.09807e-07
1.67852e-05 2.26283e-05 4.60533e-07
-6.09807e-07 4.60533e-07 -4.29832e-05
0.000780892 1.32812e-06 2.144e-07
1.32812e-06 9.11884e-05 3.23579e-07
2.144e-07 3.23579e-07 6.21895e-06
0.000731834 -2.06253e-05 -2.16152e-07
-2.06253e-05 4.89685e-05 1.61289e-08
-2.16152e-07 1.61289e-08 -1.85636e-05
0.000671728 3.31474e-05 -7.96894e-07
3.31474e-05 -1.75362e-06 1.74792e-06
-7.96894e-07 1.74792e-06 -4.6289e-05
0.000642436 -4.07368e-05 9.67695e-07
-4.07368e-05 -4.91871e-06 -4.52674e-07
9.67695e-07 -4.52674e-07 -7.41146e-05
0.000683501 1.35501e-05 -1.92106e-07
1.35501e-05 4.65399e-06 -2.31232e-08
-1.92106e-07 -2.31232e-08 -3.92198e-05
0.00136512 2.53977e-05 -4.8911e-06
2.53977e-05 0.000382829 5.01153e-06
-4.8911e-06 5.01153e-06 0.000374431
0.000675062 -5.54962e-06 7.56655e-07
-5.54962e-06 2.09527e-06 -1.64677e-06
7.56655e-07 -1.64677e-06 -4.1748e-05
0.0010019 1.6242e-05 -2.42896e-06
1.6242e-05 0.000171764 7.37873e-07
-2.42896e-06 7.37873e-07 0.000162085
0.000827063 1.37089e-05 -4.66754e-07
1.37089e-05 7.26526e-05 1.87815e-06
-4.66754e-07 1.87815e-06 8.27749e-05
0.000636703 7.63444e-06 3.00287e-07
7.63444e-06 -4.02134e-05 -3.55781e-06
3.00287e-07 -3.55781e-06 -5.12316e-05
0.00227627 1.13803e-05 3.15793e-06
1.13803e-05 0.000904241 3.21419e-08
3.15793e-06 3.21419e-08 0.000922054
0.0022718 1.38142e-06 8.86874e-08
1.38142e-06 0.000900939 -4.96019e-06
8.86874e-08 -4.96019e-06 0.00091898
0.00103465 6.47378e-05 -1.32922e-06
6.47378e-05 0.000232722 -1.22424e-06
-1.32922e-06 -1.22424e-06 0.000165532
0.000703059 1.40898e-05 -7.50379e-07
1.40898e-05 1.80607e-05 -2.07379e-06
-7.50379e-07 -2.07379e-06 -1.83008e-05
0.000711802 1.61314e-07 6.52338e-07
1.61314e-07 5.37591e-05 7.46136e-07
6.52338e-07 7.46136e-07 -1.51322e-05
0.000655355 1.02969e-06 -1.85089e-07
1.02969e-06 -3.16938e-05 -3.56816e-06
-1.85089e-07 -3.56816e-06 -3.72175e-05
0.000688087 -1.30215e-06 2.47544e-07
-1.30215e-06 9.71024e-06 -3.17645e-08
2.47544e-07 -3.17645e-08 -2.53824e-05
0.000688355 -1.13246e-05 -7.85325e-07
-1.13246e-05 9.93008e-06 1.94252e-06
-7.85325e-07 1.94252e-06 -2.56087e-05
0.000653743 7.30873e-06 -1.55858e-07
7.30873e-06 -3.17549e-05 -1.28157e-08
-1.55858e-07 -1.28157e-08 -3.75474e-05
0.00207966 1.05003e-05 3.97521e-06
1.05003e-05 0.000791765 -4.72437e-06
3.97521e-06 -4.72437e-06 0.000811686
0.001254 1.88371e-05 -6.02617e-07
1.88371e-05 0.000314865 2.14323e-06
-6.02617e-07 2.14323e-06 0.00031156
0.00146501 1.87417e-05 1.86641e-06
1.87417e-05 0.000440655 7.54714e-08
1.86641e-06 7.54714e-08 0.000456414
0.000904169 2.22096e-05 -1.44694e-05
2.22096e-05 0.000122706 7.28256e-06
-1.44694e-05 7.28256e-06 0.000133848
-0.00676562 0.000175128 0.000121519
0.000175128 -0.00319983 -1.26052e-06
0.000121519 -1.26052e-06 -0.00362769
-0.00195476 0.000168542 0.000104795
0.000168542 0.000399291 1.94669e-05
0.000104795 1.94669e-05 -0.000305591
0.0038995 9.96796e-05 -0.000169781
9.96796e-05 0.000651095 1.63947e-06
-0.000169781 1.63947e-06 0.00042558
0.00109663 2.58729e-05 3.40704e-05
2.58729e-05 -0.000416841 1.13662e-06
3.40704e-05 1.13662e-06 -0.000433559
0.00148966 -2.00971e-05 1.48517e-05
-2.00971e-05 -0.000191535 4.45616e-07
1.48517e-05 4.45616e-07 -0.000213612
0.000895061 2.91182e-05 1.42762e-05
2.91182e-05 -0.000587523 -2.71454e-06
1.42762e-05 -2.71454e-06 -0.000692721
0.00230222 -5.71779e-05 2.37142e-06
-5.71779e-05 0.000210522 2.16472e-06
2.37142e-06 2.16472e-06 0.000172617
0.00756053 0.000140923 1.63755e-05
0.000140923 0.00175497 -2.38313e-05
1.63755e-05 -2.38313e-05 0.000827236
-0.003568 0.000513455 -3.0375e-05
0.000513455 -0.00125578 -3.46776e-06
-3.0375e-05 -3.46776e-06 -0.00178373
-0.00182515 0.00107948 -4.93738e-05
0.00107948 -0.00102012 1.93988e-05
-4.93738e-05 1.93988e-05 0.000492496
0.00126241 -0.000143965 4.39327e-05
-0.000143965 -0.000480134 1.16239e-05
4.39327e-05 1.16239e-05 -0.000780663
0.00872813 4.86941e-05 4.35993e-05
4.86941e-05 0.00267574 -1.90927e-05
4.35993e-05 -1.90927e-05 0.00133906
0.000650029 0.000962881 6.76733e-05
0.000962881 -0.000497038 -0.000123696
6.76733e-05 -0.000123696 0.000150027
0.00445923 0.00078768 -9.43544e-05
0.00078768 -3.38748e-05 7.46569e-05
-9.43544e-05 7.46569e-05 0.000808156
0.000741343 6.55262e-05 -1.196e-06
6.55262e-05 9.04286e-05 -6.3232e-07
-1.196e-06 -6.3232e-07 -1.9319e-05
0.000614911 1.11223e-05 -2.41801e-07
1.11223e-05 2.14735e-06 -6.27257e-07
-2.41801e-07 -6.27257e-07 -7.84326e-05
0.000723735 -7.1741e-05 -9.42501e-07
-7.1741e-05 6.20242e-05 1.41125e-06
-9.42501e-07 1.41125e-06 -6.71125e-06
0.000624501 1.95004e-06 1.9596e-07
1.95004e-06 1.43455e-05 1.17576e-06
1.9596e-07 1.17576e-06 -7.31369e-05
0.000768172 6.62065e-05 9.63989e-07
6.62065e-05 0.000108049 1.38094e-06
9.63989e-07 1.38094e-06 5.77746e-06
0.000892933 6.69038e-05 -4.52826e-07
6.69038e-05 0.000167553 -2.50555e-07
-4.52826e-07 -2.50555e-07 6.10065e-05
0.000824499 7.85963e-05 1.62198e-06
7.85963e-05 0.000128284 1.53711e-06
1.62198e-06 1.53711e-06 2.77723e-05
0.000718289 -1.0176e-06 1.07628e-06
-1.0176e-06 5.78063e-05 -6.69998e-07
1.07628e-06 -6.69998e-07 -3.33893e-05
0.000700542 -1.72114e-05 4.59845e-07
-1.72114e-05 5.72578e-05 -8.90715e-07
4.59845e-07 -8.90715e-07 -3.33979e-05
0.00060316 -1.13755e-05 -2.47154e-07
-1.13755e-05 -6.49149e-06 1.33525e-06
-2.47154e-07 1.33525e-06 -8.71495e-05
0.00130472 -0.000126114 1.23066e-05
-0.000126114 -0.000284776 -1.91884e-06
1.23066e-05 -1.91884e-06 -0.000292346
0.00180825 -0.000295542 1.18257e-05
-0.000295542 -3.57574e-05 -1.96979e-06
1.18257e-05 -1.96979e-06 -5.74475e-05
0.000254053 -0.000276199 1.02304e-05
-0.000276199 -0.000646027 3.16807e-06
1.02304e-05 3.16807e-06 -0.000764825
0.00144392 -0.000321239 2.61234e-06
-0.000321239 0.000326653 -8.09761e-07
2.61234e-06 -8.09761e-07 0.000101841
0.00144353 -0.000127597 -8.7593e-08
-0.000127597 0.000561144 1.29692e-06
-8.7593e-08 1.29692e-06 0.000317525
0.00108747 -0.000100662 -1.07241e-06
-0.000100662 0.00030891 7.37524e-07
-1.07241e-06 7.37524e-07 0.000157452
0.000917265 -4.66741e-05 -1.04029e-06
-4.66741e-05 0.000183191 1.16386e-06
-1.04029e-06 1.16386e-06 7.56661e-05
0.000733561 3.78131e-05 -1.11722e-06
3.78131e-05 9.02159e-05 2.26016e-06
-1.11722e-06 2.26016e-06 -1.97266e-05
0.00153309 -0.000159163 -2.26216e-06
-0.000159163 -3.82331e-05 -1.73336e-07
-2.26216e-06 -1.73336e-07 -8.54918e-05
0.000635822 -3.97428e-05 -1.70333e-07
-3.97428e-05 3.34047e-05 5.21275e-08
-1.70333e-07 5.21275e-08 -8.73108e-05
0.000647534 -5.46313e-05 7.33921e-07
-5.46313e-05 5.40688e-05 -1.06191e-06
7.33921e-07 -1.06191e-06 -7.66657e-05
0.00188554 -0.000349272 5.04192e-06
-0.000349272 7.61449e-05 -1.31541e-06
5.04192e-06 -1.31541e-06 9.1967e-05
0.000569333 -0.000324839 1.4764e-06
-0.000324839 -0.000314863 1.94651e-06
1.4764e-06 1.94651e-06 -0.00045773
0.000985174 -0.000232056 5.15517e-06
-0.000232056 0.000171458 -2.19535e-06
5.15517e-06 -2.19535e-06 -5.97007e-05
0.00119873 -7.33123e-05 -4.21796e-07
-7.33123e-05 0.00041205 -1.56734e-06
-4.21796e-07 -1.56734e-06 0.000209261
0.000361856 -0.000204965 -5.57718e-06
-0.000204965 -0.000353436 -5.51643e-07
-5.57718e-06 -5.51643e-07 -0.000586064
0.00152615 -0.000296266 -2.29412e-05
-0.000296266 0.000221545 6.17021e-06
-2.29412e-05 6.17021e-06 0.000172228
0.000150966 -9.60464e-05 -1.50685e-05
-9.60464e-05 -0.000150891 2.71244e-05
-1.50685e-05 2.71244e-05 -0.000380042
0.00059088 3.24537e-05 2.22655e-07
3.24537e-05 3.76885e-06 9.21481e-07
2.22655e-07 9.21481e-07 -0.000113433
0.000604446 -9.45939e-05 1.78321e-06
-9.45939e-05 2.53123e-05 -1.50186e-06
1.78321e-06 -1.50186e-06 -0.000105879
0.000778017 -4.99546e-05 1.41807e-06
-4.99546e-05 0.000137581 -4.01418e-06
1.41807e-06 -4.01418e-06 -1.49818e-05
0.000884885 7.33453e-05 -0.000117936
7.33453e-05 0.00235774 9.88737e-07
-0.000117936 9.88737e-07 0.00152933
0.00209837 -0.00019303 1.53806e-05
-0.00019303 0.00141263 1.1755e-05
1.53806e-05 1.1755e-05 0.00128361
0.000122636 0.000419206 -5.85481e-05
0.000419206 -0.00241587 2.4361e-05
-5.85481e-05 2.4361e-05 -0.00299339
0.000813216 0.00012574 4.38459e-06
0.00012574 0.000156635 1.8246e-06
4.38459e-06 1.8246e-06 3.68897e-05
0.000607478 0.000163701 6.84824e-06
0.000163701 4.6019e-05 4.3431e-06
6.84824e-06 4.3431e-06 -0.00014716
0.00233489 0.000293771 1.41592e-05
0.000293771 0.000354038 8.11601e-06
1.41592e-05 8.11601e-06 0.000401642
0.000945025 0.00027499 1.29656e-05
0.00027499 2.3941e-05 8.50053e-06
1.29656e-05 8.50053e-06 -0.000227765
0.00519888 -0.000437144 4.43233e-05
-0.000437144 0.0021367 2.56656e-05
4.43233e-05 2.56656e-05 0.00224669
-0.000287979 -7.42392e-05 -7.51048e-05
-7.42392e-05 -0.00185757 -4.64348e-06
-7.51048e-05 -4.64348e-06 -0.0032865
0.00344557 0.000771857 -9.22157e-05
0.000771857 -7.88017e-05 -3.09727e-05
-9.22157e-05 -3.09727e-05 -0.000919461
0.000569768 0.000150495 2.59394e-05
0.000150495 -0.000173045 -1.667e-05
2.59394e-05 -1.667e-05 -0.000144651
-0.00427463 -0.000498362 -2.94505e-05
-0.000498362 -0.00160521 -4.8746e-05
-2.94505e-05 -4.8746e-05 -0.00173642
0.000168753 -0.000470549 -3.33366e-06
-0.000470549 0.000608128 1.84669e-05
-3.33366e-06 1.84669e-05 -0.000195115
0.00623794 -0.000975971 0.000114783
-0.000975971 0.000307538 9.66416e-05
0.000114783 9.66416e-05 0.00187685
0.000751466 9.17975e-05 4.0057e-06
9.17975e-05 0.000150584 -2.32326e-06
4.0057e-06 -2.32326e-06 4.09649e-05
-0.000890439 -7.09456e-05 -4.82843e-05
-7.09456e-05 0.00104778 -1.59526e-05
-4.82843e-05 -1.59526e-05 -3.18333e-05
0.0025411 0.000108714 -5.82814e-06
0.000108714 0.000849574 -3.3872e-05
-5.82814e-06 -3.3872e-05 -0.000575741
0.000814785 0.000250736 -8.56659e-06
0.000250736 -5.36993e-05 3.55367e-06
-8.56659e-06 3.55367e-06 -0.000113069
0.000673006 0.000192419 4.08729e-07
0.000192419 0.000158008 1.55366e-06
4.08729e-07 1.55366e-06 -5.39965e-05
0.000236749 0.000191044 3.6434e-05
0.000191044 -0.000157377 -2.55485e-05
3.6434e-05 -2.55485e-05 -0.000334852
0.00527227 0.000970689 -1.15891e-05
0.000970689 0.00147819 7.73407e-07
-1.15891e-05 7.73407e-07 0.000693807
0.00967697 0.000101415 4.03914e-05
0.000101415 0.00359623 1.43416e-05
4.03914e-05 1.43416e-05 0.00189689
0.00177186 -0.000658468 8.43521e-06
-0.000658468 -0.00115709 -1.59842e-05
8.43521e-06 -1.59842e-05 -0.00103066
0.00701699 -0.000614864 6.91746e-06
-0.000614864 0.000783923 -1.78176e-05
6.91746e-06 -1.78176e-05 0.00209006
0.000591203 0.000123412 -1.12523e-05
0.000123412 0.000103607 -7.66751e-06
-1.12523e-05 -7.66751e-06 1.51172e-05
0.0019538 -1.63952e-05 -8.32934e-05
-1.63952e-05 0.000467922 -3.68549e-05
-8.32934e-05 -3.68549e-05 -0.000497069
0.000817549 5.84946e-05 -1.15354e-05
5.84946e-05 0.00026629 -7.19689e-05
-1.15354e-05 -7.19689e-05 -0.000846564
-0.000983889 2.0071e-05 -2.24322e-05
2.0071e-05 -0.000512276 -1.65297e-05
-2.24322e-05 -1.65297e-05 -0.000646969
0.00248774 0.000366219 -3.51741e-07
0.000366219 0.000691205 5.17994e-05
-3.51741e-07 5.17994e-05 9.81851e-05
0.00926826 0.000371612 3.46221e-05
0.000371612 0.00378699 3.02022e-08
3.46221e-05 3.02022e-08 0.00146053
-0.0068139 -0.000866026 -4.01388e-05
-0.000866026 -0.00418818 4.87326e-05
-4.01388e-05 4.87326e-05 -0.00543631
0.00531528 0.000228761 2.3246e-07
0.000228761 -0.000734671 -0.000101774
2.3246e-07 -0.000101774 0.000752148
0.00100013 7.82965e-05 1.85861e-06
7.82965e-05 0.000209654 6.13839e-06
1.85861e-06 6.13839e-06 0.000135284
0.00092251 9.61859e-05 -4.38346e-06
9.61859e-05 0.000182984 -9.48788e-07
-4.38346e-06 -9.48788e-07 0.000121249
0.00163105 9.08841e-05 -6.30482e-06
9.08841e-05 0.000644683 -4.68019e-06
-6.30482e-06 -4.68019e-06 0.000587829
0.000838746 7.27284e-05 -1.60733e-06
7.27284e-05 0.000116613 -5.72103e-07
-1.60733e-06 -5.72103e-07 2.31856e-05
0.000897647 -3.63405e-05 -2.99919e-07
-3.63405e-05 0.000151518 1.06242e-06
-2.99919e-07 1.06242e-06 4.70279e-05
0.000807055 2.15035e-05 1.51022e-07
2.15035e-05 8.50525e-05 1.18941e-06
1.51022e-07 1.18941e-06 -3.3043e-06
0.000309211 1.65103e-05 6.5371e-08
1.65103e-05 -0.000176863 3.30708e-06
6.5371e-08 3.30708e-06 -0.00025978
0.000891098 -2.73666e-07 7.09434e-07
-2.73666e-07 0.000141248 7.71034e-08
7.09434e-07 7.71034e-08 4.074e-05
0.000880233 4.67911e-06 -1.00524e-07
4.67911e-06 0.000136723 -2.28265e-07
-1.00524e-07 -2.28265e-07 3.98552e-05
0.000397604 4.58936e-06 2.71506e-07
4.58936e-06 -7.62273e-05 4.97295e-07
2.71506e-07 4.97295e-07 -0.000157125
-7.79932e-05 1.48436e-05 -3.22011e-06
1.48436e-05 -0.000235361 -4.97367e-06
-3.22011e-06 -4.97367e-06 -0.00030058
0.000898666 -2.32492e-05 2.05751e-06
-2.32492e-05 0.000200867 -5.44469e-06
2.05751e-06 -5.44469e-06 0.000114515
0.000970414 3.48035e-05 -7.88927e-08
3.48035e-05 0.000191828 -3.26967e-06
-7.88927e-08 -3.26967e-06 9.06247e-05
0.000868456 -6.95416e-05 8.69201e-07
-6.95416e-05 0.00012509 8.62047e-07
8.69201e-07 8.62047e-07 3.22784e-05
0.000776996 3.98864e-05 -7.58952e-07
3.98864e-05 8.26724e-05 3.9312e-07
-7.58952e-07 3.9312e-07 -4.54094e-06
0.000810841 -2.0143e-05 -1.44517e-06
-2.0143e-05 8.67265e-05 2.02935e-06
-1.44517e-06 2.02935e-06 7.3488e-06
0.000651237 -8.14014e-07 5.82206e-07
-8.14014e-07 1.77461e-06 5.40161e-07
5.82206e-07 5.40161e-07 -8.48558e-05
0.000752106 4.19896e-05 3.22965e-07
4.19896e-05 7.48506e-05 2.41228e-07
3.22965e-07 2.41228e-07 -1.31513e-05
0.000794961 1.60877e-05 -5.79068e-07
1.60877e-05 8.65132e-05 2.47443e-07
-5.79068e-07 2.47443e-07 8.18732e-06
0.000936869 2.7546e-05 1.44985e-06
2.7546e-05 0.000166304 -1.84921e-06
1.44985e-06 -1.84921e-06 8.3064e-05
0.000517361 -5.8364e-06 2.74423e-06
-5.8364e-06 -4.88623e-05 -3.41776e-06
2.74423e-06 -3.41776e-06 -0.000117206
0.000610634 -7.76307e-05 1.50892e-06
-7.76307e-05 -4.22461e-05 -7.43619e-07
1.50892e-06 -7.43619e-07 -0.000133933
0.00091148 -6.9175e-06 -1.2897e-06
-6.9175e-06 0.000152799 -2.76025e-07
-1.2897e-06 -2.76025e-07 5.81566e-05
0.00049915 -5.23463e-05 2.48502e-06
-5.23463e-05 -4.30325e-05 1.51369e-06
2.48502e-06 1.51369e-06 -0.000167162
0.00101468 -0.000174698 -1.72687e-07
-0.000174698 0.000219271 4.1717e-06
-1.72687e-07 4.1717e-06 3.97485e-05
0.00118841 -6.28515e-05 1.36428e-06
-6.28515e-05 0.000339584 -1.24677e-06
1.36428e-06 -1.24677e-06 0.000225868
0.000451325 -5.27106e-05 -1.03148e-06
-5.27106e-05 -5.29604e-05 -2.9331e-06
-1.03148e-06 -2.9331e-06 -0.000184902
0.000685763 2.78542e-05 -5.15914e-07
2.78542e-05 5.12071e-05 -6.06981e-07
-5.15914e-07 -6.06981e-07 -4.50691e-05
0.000455276 2.4701e-05 7.80444e-07
2.4701e-05 -8.90931e-05 5.94578e-07
7.80444e-07 5.94578e-07 -0.000174504
0.000831734 2.12614e-05 -3.39882e-07
2.12614e-05 0.000122943 3.75385e-07
-3.39882e-07 3.75385e-07 3.2126e-05
0.000768978 -5.08857e-06 -5.46815e-07
-5.08857e-06 8.49411e-05 4.27916e-07
-5.46815e-07 4.27916e-07 2.06615e-06
0.000694081 1.41105e-05 -7.63729e-07
1.41105e-05 2.6558e-05 5.67847e-07
-7.63729e-07 5.67847e-07 -3.79589e-05
0.000812274 -2.70571e-05 4.12111e-07
-2.70571e-05 0.00011721 8.33381e-08
4.12111e-07 8.33381e-08 2.80345e-05
0.000732802 -2.30579e-05 -4.0685e-07
-2.30579e-05 5.07712e-05 4.49472e-08
-4.0685e-07 4.49472e-08 -1.63843e-05
0.000676304 3.60043e-05 -1.29033e-06
3.60043e-05 2.19345e-06 1.67914e-06
-1.29033e-06 1.67914e-06 -4.27171e-05
0.000768459 -5.06017e-05 1.28687e-06
-5.06017e-05 7.22746e-05 -5.08743e-07
1.28687e-06 -5.08743e-07 2.74323e-06
0.000700432 1.41964e-05 -2.85512e-07
1.41964e-05 1.28379e-05 -2.58362e-09
-2.85512e-07 -2.58362e-09 -3.07912e-05
0.00135636 3.43183e-05 -6.93782e-06
3.43183e-05 0.000380698 4.94208e-06
-6.93782e-06 4.94208e-06 0.000371793
0.000693899 -5.27877e-06 1.38986e-06
-5.27877e-06 1.00467e-05 -1.62636e-06
1.38986e-06 -1.62636e-06 -3.35797e-05
0.00100116 2.40137e-05 -3.30029e-06
2.40137e-05 0.000173546 6.94028e-07
-3.30029e-06 6.94028e-07 0.000163422
0.000826346 2.12068e-05 -9.1392e-07
2.12068e-05 7.64953e-05 1.84645e-06
-9.1392e-07 1.84645e-06 8.57327e-05
0.000625415 1.40918e-05 4.24058e-07
1.40918e-05 -4.51121e-05 -3.60122e-06
4.24058e-07 -3.60122e-06 -5.65058e-05
0.00155479 1.98075e-05 5.19633e-06
1.98075e-05 0.000491194 -1.43475e-06
5.19633e-06 -1.43475e-06 0.000504869
0.0022846 1.33595e-05 4.51684e-06
1.33595e-05 0.000909401 -4.88778e-06
4.51684e-06 -4.88778e-06 0.000927074
0.000782488 -8.2907e-06 6.49353e-07
-8.2907e-06 8.23834e-05 -1.26702e-06
6.49353e-07 -1.26702e-06 1.43162e-05
0.00071765 8.16537e-06 -4.24171e-07
8.16537e-06 2.50444e-05 -2.08701e-06
-4.24171e-07 -2.08701e-06 -1.26359e-05
0.000776045 -1.75978e-06 6.2883e-07
-1.75978e-06 8.45223e-05 1.43047e-07
6.2883e-07 1.43047e-07 1.74126e-05
0.000654274 -5.30889e-06 -2.61561e-07
-5.30889e-06 -3.23627e-05 -3.61518e-06
-2.61561e-07 -3.61518e-06 -3.824e-05
0.000690758 7.95768e-06 2.79125e-08
7.95768e-06 1.08479e-05 -2.5193e-08
2.79125e-08 -2.5193e-08 -2.52493e-05
0.000699471 -6.25701e-05 -2.47969e-06
-6.25701e-05 4.22203e-05 1.96318e-06
-2.47969e-06 1.96318e-06 -2.28922e-05
0.00208074 -5.47899e-07 -5.60532e-07
-5.47899e-07 0.000791415 -4.75012e-06
-5.60532e-07 -4.75012e-06 0.000811586
0.000655234 1.13119e-06 -1.37787e-07
1.13119e-06 -3.17295e-05 -2.36263e-09
-1.37787e-07 -2.36263e-09 -3.72411e-05
0.000673817 -9.4412e-06 -5.62513e-07
-9.4412e-06 1.43207e-06 1.94697e-06
-5.62513e-07 1.94697e-06 -3.36035e-05
0.000652281 7.42467e-06 -6.73514e-08
7.42467e-06 -3.26839e-05 3.53502e-06
-6.73514e-08 3.53502e-06 -3.84744e-05
0.0020876 1.16245e-05 -3.14153e-06
1.16245e-05 0.000796514 -3.29369e-08
-3.14153e-06 -3.29369e-08 0.000816363
0.00209228 2.20342e-05 -1.09177e-05
2.20342e-05 0.000801619 4.50405e-06
-1.09177e-05 4.50405e-06 0.000820859
-0.00257659 -6.99676e-05 -4.61278e-05
-6.99676e-05 0.000421279 1.05785e-05
-4.61278e-05 1.05785e-05 -0.000723732
-0.00113516 0.000317471 -2.89968e-05
0.000317471 -0.000502803 7.53605e-06
-2.89968e-05 7.53605e-06 -0.000790028
0.0026694 -0.000107999 -0.000127831
-0.000107999 0.00057484 0.000107104
-0.000127831 0.000107104 -0.000715207
-0.00249254 0.000204967 0.000159835
0.000204967 0.000464451 -6.99648e-05
0.000159835 -6.99648e-05 -0.000106419
0.00217183 0.000144408 -9.55478e-05
0.000144408 -7.71968e-05 1.5736e-05
-9.55478e-05 1.5736e-05 -0.000306287
0.00197935 -9.11453e-05 7.80905e-05
-9.11453e-05 1.40062e-05 -9.90997e-06
7.80905e-05 -9.90997e-06 -2.60633e-05
0.00191577 -0.000400548 -9.2925e-05
-0.000400548 -0.00104399 -4.49581e-05
-9.2925e-05 -4.49581e-05 -0.00197254
0.00757662 0.000605807 -1.54249e-05
0.000605807 0.00372086 -1.40187e-05
-1.54249e-05 -1.40187e-05 0.00351332
-0.00636784 0.00117078 -0.000219482
0.00117078 -0.00371325 0.000192845
-0.000219482 0.000192845 -0.00166142
0.00223023 -3.82607e-05 -7.0663e-06
-3.82607e-05 -0.000115542 -6.25995e-06
-7.0663e-06 -6.25995e-06 -0.000365127
0.0039206 -8.61644e-05 2.46791e-05
-8.61644e-05 0.000362217 -3.49507e-05
2.46791e-05 -3.49507e-05 -0.0015206
0.00753273 0.00116201 -3.51343e-05
0.00116201 0.0024473 -4.16544e-05
-3.51343e-05 -4.16544e-05 0.00312898
0.0018574 0.000741097 -3.65936e-05
0.000741097 -0.00154201 7.84717e-05
-3.65936e-05 7.84717e-05 -0.000629883
0.00276218 -0.000458233 -5.21587e-05
-0.000458233 -5.85909e-05 1.58508e-05
-5.21587e-05 1.58508e-05 -0.000529659
0.00314773 -0.000342442 0.000138683
-0.000342442 0.000798427 -9.24286e-05
0.000138683 -9.24286e-05 -0.00173262
-0.00537612 0.000431681 -4.82949e-05
0.000431681 -0.00452596 -0.00015393
-4.82949e-05 -0.00015393 -0.00427239
0.00161189 0.000457062 -2.97718e-05
0.000457062 -0.00291628 7.12381e-06
-2.97718e-05 7.12381e-06 -0.00159239
0.000815085 -1.32727e-05 6.86185e-07
-1.32727e-05 0.000131719 -1.8043e-08
6.86185e-07 -1.8043e-08 1.59696e-05
0.000779118 5.59324e-05 -1.71586e-06
5.59324e-05 0.000109744 -7.09477e-07
-1.71586e-06 -7.09477e-07 3.68413e-06
0.000746412 4.2664e-05 3.40725e-07
4.2664e-05 7.57677e-05 -2.49456e-08
3.40725e-07 -2.49456e-08 -2.73369e-06
0.000718084 7.07824e-05 2.54746e-06
7.07824e-05 8.03624e-05 2.52157e-06
2.54746e-06 2.52157e-06 -2.05982e-05
0.000736523 3.21158e-05 -3.99135e-07
3.21158e-05 7.82873e-05 -1.71442e-07
-3.99135e-07 -1.71442e-07 -3.79408e-05
0.000892143 6.82059e-05 2.44275e-07
6.82059e-05 0.000168746 8.5006e-07
2.44275e-07 8.5006e-07 6.22815e-05
0.000725938 1.71469e-05 -2.67978e-07
1.71469e-05 6.90795e-05 2.35329e-06
-2.67978e-07 2.35329e-06 -2.80626e-05
0.000897988 9.74921e-05 -3.83112e-07
9.74921e-05 0.000175562 -2.33058e-07
-3.83112e-07 -2.33058e-07 6.90016e-05
0.000858617 5.35392e-05 -1.49778e-07
5.35392e-05 0.000151766 4.73508e-07
-1.49778e-07 4.73508e-07 5.11152e-05
0.000635033 -7.55593e-06 -1.39228e-06
-7.55593e-06 2.24747e-05 3.62071e-07
-1.39228e-06 3.62071e-07 -7.13593e-05
0.00120392 -0.000158866 2.41421e-05
-0.000158866 -0.000207383 -1.32364e-05
2.41421e-05 -1.32364e-05 -0.000227852
0.000855998 -0.000304481 1.90511e-05
-0.000304481 -0.000446924 -2.42512e-06
1.90511e-05 -2.42512e-06 -0.000441352
0.000900151 -0.000344897 1.2852e-05
-0.000344897 -0.000122518 -5.52068e-07
1.2852e-05 -5.52068e-07 -0.00026043
0.0011729 -0.000252651 7.95618e-06
-0.000252651 0.000264187 -1.09563e-05
7.95618e-06 -1.09563e-05 2.00928e-05
0.00134469 -8.63139e-05 -5.51e-07
-8.63139e-05 0.000483169 4.20196e-06
-5.51e-07 4.20196e-06 0.00028165
0.000705559 -7.26861e-05 -1.1275e-06
-7.26861e-05 9.41426e-05 3.74531e-06
-1.1275e-06 3.74531e-06 -4.39468e-05
0.000638528 6.25489e-05 4.92659e-08
6.25489e-05 3.6778e-05 3.61175e-08
4.92659e-08 3.61175e-08 -8.67883e-05
0.00072253 -4.41703e-05 -2.83003e-07
-4.41703e-05 8.31931e-05 1.09623e-06
-2.83003e-07 1.09623e-06 -3.90177e-05
0.00115994 -0.000206635 -1.66411e-06
-0.000206635 3.64451e-05 -3.31405e-07
-1.66411e-06 -3.31405e-07 -0.000119438
0.000858163 -6.18313e-06 -1.48944e-07
-6.18313e-06 0.000169538 -1.4125e-07
-1.48944e-07 -1.4125e-07 3.5653e-05
0.00109576 -7.6441e-05 -1.56171e-07
-7.6441e-05 0.000324749 7.20499e-08
-1.56171e-07 7.20499e-08 0.00016233
0.0011099 -0.000273597 -1.68954e-06
-0.000273597 -2.45787e-05 -8.92938e-07
-1.68954e-06 -8.92938e-07 -5.17764e-05
0.000999519 -0.000129424 -8.59989e-06
-0.000129424 0.000276792 3.47615e-06
-8.59989e-06 3.47615e-06 6.16838e-05
-0.000856722 -0.000239967 -7.90171e-06
-0.000239967 -0.00107131 -1.31159e-05
-7.90171e-06 -1.31159e-05 -0.0010642
0.000764947 -0.000128852 -1.69759e-05
-0.000128852 0.000177663 1.98348e-05
-1.69759e-05 1.98348e-05 7.79971e-05
0.000568444 -2.28911e-05 -4.76472e-06
-2.28911e-05 2.7602e-05 2.23014e-05
-4.76472e-06 2.23014e-05 -0.000116408
0.000746365 -4.6971e-06 3.90388e-08
-4.6971e-06 8.52989e-05 -1.9782e-07
3.90388e-08 -1.9782e-07 -3.62716e-05
0.0006781 2.29135e-05 1.34996e-06
2.29135e-05 8.9058e-05 -2.04353e-06
1.34996e-06 -2.04353e-06 -7.03642e-05
0.00149727 -2.1542e-05 -3.4735e-05
-2.1542e-05 0.000428383 -2.97024e-06
-3.4735e-05 -2.97024e-06 -0.000355049
-0.0011177 2.27255e-05 -7.11916e-05
2.27255e-05 0.00145788 -2.85116e-06
-7.11916e-05 -2.85116e-06 0.0003857
-0.00771775 -0.000233542 -0.000200038
-0.000233542 -0.00394175 4.46385e-06
-0.000200038 4.46385e-06 -0.00390049
0.000117562 7.91566e-05 7.03136e-06
7.91566e-05 -0.000184529 -3.23712e-07
7.03136e-06 -3.23712e-07 -0.000304416
-0.000206014 6.83421e-05 6.23489e-06
6.83421e-05 -0.000293462 2.52319e-06
6.23489e-06 2.52319e-06 -0.000508011
0.00139943 0.00022113 1.53201e-05
0.00022113 0.0002684 2.80887e-06
1.53201e-05 2.80887e-06 0.00019947
-0.00259498 9.73679e-05 2.04632e-06
9.73679e-05 0.000287087 8.6373e-06
2.04632e-06 8.6373e-06 -0.000950851
0.00219796 0.000183782 -5.06942e-05
0.000183782 0.000417923 -4.55e-05
-5.06942e-05 -4.55e-05 -0.00216085
0.00379766 0.000823723 7.08885e-05
0.000823723 0.000531478 5.86364e-06
7.08885e-05 5.86364e-06 -4.8078e-05
0.000687237 0.000228484 6.71328e-06
0.000228484 4.59035e-05 -9.70698e-06
6.71328e-06 -9.70698e-06 1.02787e-05
0.00976981 -0.000876935 1.84656e-05
-0.000876935 0.00301575 -3.8108e-05
1.84656e-05 -3.8108e-05 0.00309688
0.00291036 0.00011441 8.67887e-05
0.00011441 0.00112734 6.45194e-05
8.67887e-05 6.45194e-05 -0.000342289
0.00682891 -0.000539261 2.81711e-05
-0.000539261 0.000979596 1.17618e-05
2.81711e-05 1.17618e-05 0.00233683
0.000915164 0.000144731 -8.40879e-07
0.000144731 0.000309667 -2.53345e-06
-8.40879e-07 -2.53345e-06 0.000214396
0.00214195 -1.30705e-05 5.21847e-06
-1.30705e-05 0.000699712 -8.46603e-06
5.21847e-06 -8.46603e-06 -0.000166281
0.00117511 7.75129e-05 6.22975e-06
7.75129e-05 0.000269708 1.33846e-05
6.22975e-06 1.33846e-05 -0.000880584
-3.92341e-07 0.0001359 -6.41275e-06
0.0001359 -2.92362e-05 -6.92716e-07
-6.41275e-06 -6.92716e-07 -0.000189344
0.00277753 0.000481561 -5.23148e-05
0.000481561 0.000670134 -3.47343e-05
-5.23148e-05 -3.47343e-05 0.000126899
0.00248532 0.000808 4.92896e-05
0.000808 0.000491274 3.52443e-05
4.92896e-05 3.52443e-05 -0.00213882
0.00426433 7.64606e-05 -5.12784e-06
7.64606e-05 -0.00189476 -6.45912e-05
-5.12784e-06 -6.45912e-05 3.11913e-06
0.000797874 -0.000482799 -1.75702e-05
-0.000482799 -0.000351258 -8.56454e-06
-1.75702e-05 -8.56454e-06 -0.00110752
0.00114717 8.63975e-05 -3.61391e-06
8.63975e-05 0.000561072 -7.80992e-06
-3.61391e-06 -7.80992e-06 0.000471093
0.000923267 -4.25051e-05 -3.47515e-06
-4.25051e-05 0.000141101 -2.90321e-05
-3.47515e-06 -2.90321e-05 -0.000222929
0.0021372 1.37446e-06 1.31739e-05
1.37446e-06 0.000230613 -6.27081e-05
1.31739e-05 -6.27081e-05 -0.000671004
0.00176405 0.00047778 3.04688e-05
0.00047778 -0.00284698 -1.03038e-05
3.04688e-05 -1.03038e-05 -0.00159917
-0.00100848 4.37763e-05 -2.54499e-06
4.37763e-05 -0.000320376 -1.20868e-05
-2.54499e-06 -1.20868e-05 -0.000692992
0.0101426 0.000567897 0.000102652
0.000567897 0.00442655 4.32686e-05
0.000102652 4.32686e-05 0.00175186
-0.00792352 -0.000244906 4.82872e-05
-0.000244906 -0.00114542 7.678e-05
4.82872e-05 7.678e-05 -0.00235617
0.00161533 0.000152427 1.42309e-05
0.000152427 0.000580757 7.17521e-06
1.42309e-05 7.17521e-06 0.000512574
0.00137588 0.000109362 -3.16399e-06
0.000109362 0.000499496 1.02617e-06
-3.16399e-06 1.02617e-06 0.000436291
0.000541616 8.80871e-05 -1.46166e-05
8.80871e-05 0.000189134 -7.30243e-06
-1.46166e-05 -7.30243e-06 0.000124763
0.000786242 0.000109574 9.45991e-07
0.000109574 9.0639e-05 1.56827e-06
9.45991e-07 1.56827e-06 -1.38082e-05
0.00078007 3.27627e-05 3.51613e-07
3.27627e-05 7.62935e-05 1.89753e-06
3.51613e-07 1.89753e-06 -1.68993e-05
0.000622849 -6.47339e-06 -5.72677e-07
-6.47339e-06 5.48586e-05 1.01621e-05
-5.72677e-07 1.01621e-05 -2.62985e-05
0.000773751 3.33971e-05 -2.05774e-07
3.33971e-05 7.70886e-05 -6.30699e-07
-2.05774e-07 -6.30699e-07 -1.82414e-05
0.000891151 -3.55472e-05 5.9419e-08
-3.55472e-05 0.000198653 -1.16182e-06
5.9419e-08 -1.16182e-06 0.000109745
0.000136367 -2.92679e-06 5.70205e-06
-2.92679e-06 -0.000128743 3.48126e-06
5.70205e-06 3.48126e-06 -0.000202985
0.000934735 -1.17544e-05 -4.37136e-06
-1.17544e-05 0.000341426 -9.25132e-06
-4.37136e-06 -9.25132e-06 0.000279979
0.000743661 -2.28948e-05 -1.60804e-06
-2.28948e-05 0.000106889 -5.50015e-06
-1.60804e-06 -5.50015e-06 3.01959e-05
0.000721994 -7.90807e-06 -5.94242e-07
-7.90807e-06 3.41527e-05 2.84474e-06
-5.94242e-07 2.84474e-06 -4.73269e-05
0.000797041 4.26137e-05 -4.082e-07
4.26137e-05 0.000101351 4.32819e-07
-4.082e-07 4.32819e-07 1.23283e-05
0.000932485 2.6639e-05 -3.36381e-06
2.6639e-05 0.000162602 2.89106e-06
-3.36381e-06 2.89106e-06 8.37895e-05
0.000749499 -4.92038e-06 9.03199e-07
-4.92038e-06 7.58179e-05 1.52571e-08
9.03199e-07 1.52571e-08 6.97354e-06
0.00081612 3.05824e-05 2.59388e-07
3.05824e-05 9.98675e-05 1.29651e-07
2.59388e-07 1.29651e-07 1.61953e-05
0.000686224 -4.91136e-05 2.54872e-06
-4.91136e-05 5.95698e-05 -1.73858e-07
2.54872e-06 -1.73858e-07 -2.42676e-05
0.000605973 -5.56787e-05 -1.18013e-06
-5.56787e-05 -2.51301e-05 -8.05424e-07
-1.18013e-06 -8.05424e-07 -0.000108233
0.000442893 -0.000108179 4.64438e-06
-0.000108179 -8.96011e-05 5.19808e-07
4.64438e-06 5.19808e-07 -0.000239964
0.00100426 -2.89241e-05 -1.26162e-06
-2.89241e-05 0.000208322 6.54597e-07
-1.26162e-06 6.54597e-07 0.000111408
0.00102244 -9.61357e-05 -8.65278e-07
-9.61357e-05 0.000240181 1.60504e-06
-8.65278e-07 1.60504e-06 0.000109811
0.000286575 -0.00013249 5.07702e-07
-0.00013249 -0.000211502 2.18412e-06
5.07702e-07 2.18412e-06 -0.000386259
0.000628519 -0.000147024 -4.80069e-06
-0.000147024 -1.86787e-05 -6.57372e-07
-4.80069e-06 -6.57372e-07 -0.000197199
0.000963863 -0.000132964 -1.31261e-06
-0.000132964 0.000228743 2.22975e-06
-1.31261e-06 2.22975e-06 8.79724e-05
0.000692064 -0.000145945 5.10436e-07
-0.000145945 4.01299e-05 4.14441e-07
5.10436e-07 4.14441e-07 -0.000132671
0.000862092 -2.71067e-05 5.21374e-07
-2.71067e-05 0.000144225 6.68353e-07
5.21374e-07 6.68353e-07 4.72725e-05
0.00100065 -5.44861e-05 -9.62253e-07
-5.44861e-05 0.000239927 -7.05243e-07
-9.62253e-07 -7.05243e-07 0.000122759
0.000583197 -6.55122e-05 5.81353e-07
-6.55122e-05 3.17113e-05 -5.53174e-06
5.81353e-07 -5.53174e-06 -9.76746e-05
0.000996211 1.95959e-05 -1.4743e-06
1.95959e-05 0.000219933 -9.16237e-07
-1.4743e-06 -9.16237e-07 0.000126168
0.000603048 1.63733e-05 1.7852e-07
1.63733e-05 -4.61528e-06 -2.71223e-08
1.7852e-07 -2.71223e-08 -9.05547e-05
0.00069186 2.80758e-05 -2.5887e-07
2.80758e-05 2.95793e-05 6.41438e-07
-2.5887e-07 6.41438e-07 -3.86981e-05
0.000816745 -2.34121e-05 -1.45621e-07
-2.34121e-05 0.000117635 2.44547e-07
-1.45621e-07 2.44547e-07 2.99358e-05
0.0007317 -8.16002e-06 -4.9101e-07
-8.16002e-06 5.14065e-05 -1.94949e-08
-4.9101e-07 -1.94949e-08 -1.61992e-05
0.000682414 3.40978e-05 -1.22294e-06
3.40978e-05 8.81665e-06 1.67593e-06
-1.22294e-06 1.67593e-06 -3.69816e-05
0.000766685 -4.21297e-05 1.05129e-06
-4.21297e-05 7.33328e-05 -5.73901e-07
1.05129e-06 -5.73901e-07 3.342e-06
0.000694085 2.58118e-05 -4.21514e-07
2.58118e-05 1.10256e-05 -1.24786e-08
-4.21514e-07 -1.24786e-08 -3.33872e-05
0.00132638 4.37516e-05 -7.9621e-06
4.37516e-05 0.000368503 3.38497e-06
-7.9621e-06 3.38497e-06 0.000358724
0.000707453 1.47009e-06 1.6881e-06
1.47009e-06 1.60177e-05 -1.6628e-06
1.6881e-06 -1.6628e-06 -2.72964e-05
0.000990281 3.2073e-05 -4.11505e-06
3.2073e-05 0.000170521 6.36253e-07
-4.11505e-06 6.36253e-07 0.000159889
0.000823939 2.84298e-05 -1.43629e-06
2.84298e-05 8.0395e-05 1.85915e-06
-1.43629e-06 1.85915e-06 8.86331e-05
0.000615404 2.08416e-05 6.34862e-07
2.08416e-05 -4.86732e-05 -3.64634e-06
6.34862e-07 -3.64634e-06 -6.04321e-05
0.00155365 2.93926e-05 6.94792e-06
2.93926e-05 0.000494612 -1.34085e-06
6.94792e-06 -1.34085e-06 0.000507363
0.00229741 2.53285e-05 8.69473e-06
2.53285e-05 0.000919532 -4.74024e-06
8.69473e-06 -4.74024e-06 0.000936483
0.000518205 3.12063e-06 -1.49078e-07
3.12063e-06 -6.02971e-05 -1.93631e-06
-1.49078e-07 -1.93631e-06 -0.000141474
0.000430274 -5.41154e-06 -3.62427e-07
-5.41154e-06 -0.00013858 -2.93461e-06
-3.62427e-07 -2.93461e-06 -0.000181736
0.000811161 3.78836e-06 5.40508e-08
3.78836e-06 0.00010296 6.74763e-08
5.40508e-08 6.74763e-08 3.19411e-05
0.000652427 -1.18428e-05 -2.01165e-07
-1.18428e-05 -3.25366e-05 -3.70878e-06
-2.01165e-07 -3.70878e-06 -3.97349e-05
0.000550942 1.5792e-06 5.57527e-07
1.5792e-06 -6.93476e-05 -3.9484e-08
5.57527e-07 -3.9484e-08 -0.000108449
0.000509611 -5.94619e-05 -1.26218e-07
-5.94619e-05 -6.43833e-05 1.50985e-06
-1.26218e-07 1.50985e-06 -0.00013423
0.00210236 -1.17064e-05 -5.05352e-06
-1.17064e-05 0.000804374 -4.73776e-06
-5.05352e-06 -4.73776e-06 0.000824198
0.000656869 -5.13797e-06 -1.5525e-07
-5.13797e-06 -3.08655e-05 -1.16842e-08
-1.5525e-07 -1.16842e-08 -3.67178e-05
0.000673888 -4.45036e-06 -5.05485e-07
-4.45036e-06 1.12464e-06 1.97836e-06
-5.05485e-07 1.97836e-06 -3.47322e-05
0.00208696 5.15778e-07 -3.21834e-06
5.15778e-07 0.000795003 2.40694e-09
-3.21834e-06 2.40694e-09 0.000815152
0.000653824 1.2471e-06 1.13387e-07
1.2471e-06 -3.25012e-05 3.52837e-06
1.13387e-07 3.52837e-06 -3.79973e-05
0.00209242 1.27312e-05 -4.27872e-06
1.27312e-05 0.000799467 4.65689e-06
-4.27872e-06 4.65689e-06 0.000819233
0.000916226 -4.65203e-05 -6.98917e-05
-4.65203e-05 -9.77357e-05 2.91173e-05
-6.98917e-05 2.91173e-05 -0.000959943
0.00142771 0.000151609 -1.01369e-05
0.000151609 0.00211492 -8.4936e-06
-1.01369e-05 -8.4936e-06 0.00145074
0.00127591 -0.000236787 -0.000110452
-0.000236787 0.00135823 -1.12935e-05
-0.000110452 -1.12935e-05 0.000800563
0.000768345 5.16318e-05 -1.07497e-07
5.16318e-05 8.6889e-05 6.00566e-08
-1.07497e-07 6.00566e-08 -1.5434e-05
0.00291506 -9.61333e-05 -2.1609e-05
-9.61333e-05 0.00150216 7.20188e-05
-2.1609e-05 7.20188e-05 0.000652042
0.00284448 -0.0001341 -3.98032e-05
-0.0001341 0.00077985 3.55483e-06
-3.98032e-05 3.55483e-06 -0.000620481
0.00139732 0.000431498 0.000102986
0.000431498 0.00195257 -9.4061e-05
0.000102986 -9.4061e-05 0.00178017
0.00309556 -0.000143675 5.78837e-07
-0.000143675 8.0138e-05 -2.51047e-05
5.78837e-07 -2.51047e-05 -0.000198021
0.00938415 9.24147e-05 5.8867e-05
9.24147e-05 0.00306756 -3.46665e-05
5.8867e-05 -3.46665e-05 0.00136742
-0.00343171 0.000746685 -5.49871e-05
0.000746685 -0.00342174 6.83246e-05
-5.49871e-05 6.83246e-05 -0.00256157
0.0037451 0.000815291 1.77303e-05
0.000815291 -0.000434073 1.35063e-05
1.77303e-05 1.35063e-05 0.000442177
0.00460355 -0.000555567 -7.33425e-05
-0.000555567 0.000543483 5.4889e-07
-7.33425e-05 5.4889e-07 -0.000178547
0.00829355 -0.00016981 4.34586e-05
-0.00016981 0.00332988 -1.34757e-05
4.34586e-05 -1.34757e-05 0.00139533
0.00522742 0.00062036 2.84235e-05
0.00062036 0.000308475 -5.41958e-05
2.84235e-05 -5.41958e-05 0.000393231
0.00380069 0.000465379 -1.3001e-05
0.000465379 -0.00163745 3.62343e-06
-1.3001e-05 3.62343e-06 -0.000406859
0.00485567 -0.000958768 -2.85946e-06
-0.000958768 0.00081971 -9.04466e-06
-2.85946e-06 -9.04466e-06 -0.000222742
0.00991312 -0.000587507 5.58943e-05
-0.000587507 0.00491785 -2.03701e-05
5.58943e-05 -2.03701e-05 0.00176887
0.00177769 -6.92528e-05 4.19999e-05
-6.92528e-05 -0.000441662 -7.85728e-05
4.19999e-05 -7.85728e-05 -0.000601247
0.00536087 7.58042e-05 -1.41764e-05
7.58042e-05 -0.000692274 4.77382e-05
-1.41764e-05 4.77382e-05 0.000861706
0.000790087 -2.4455e-05 2.82918e-08
-2.4455e-05 0.000111715 -7.77991e-07
2.82918e-08 -7.77991e-07 -1.0571e-05
0.000794798 -3.64225e-05 4.50894e-07
-3.64225e-05 0.000123428 -2.74432e-09
4.50894e-07 -2.74432e-09 4.31873e-06
0.000917692 8.18562e-05 -8.79906e-07
8.18562e-05 0.000192199 2.4872e-07
-8.79906e-07 2.4872e-07 8.4284e-05
0.000745032 1.46359e-05 -7.50975e-07
1.46359e-05 6.2268e-05 -6.70027e-07
-7.50975e-07 -6.70027e-07 -3.98957e-05
0.000857436 7.0596e-05 -6.60935e-07
7.0596e-05 0.00014762 6.00052e-07
-6.60935e-07 6.00052e-07 3.20537e-05
0.00088863 5.25571e-05 6.91605e-07
5.25571e-05 0.000166151 1.99233e-06
6.91605e-07 1.99233e-06 6.14715e-05
0.000962861 9.17892e-05 -7.04338e-07
9.17892e-05 0.000209801 1.92594e-08
-7.04338e-07 1.92594e-08 0.000104631
0.000999451 9.94128e-05 9.65054e-07
9.94128e-05 0.00023802 2.1859e-06
9.65054e-07 2.1859e-06 0.000133395
0.00188777 -0.000208416 3.93322e-05
-0.000208416 0.000384268 -1.68005e-05
3.93322e-05 -1.68005e-05 0.000307645
0.000718656 -0.000251912 9.15822e-06
-0.000251912 -0.000259425 -1.16613e-05
9.15822e-06 -1.16613e-05 -0.000260297
0.000794831 -0.000136013 -8.30756e-07
-0.000136013 0.000135433 7.55098e-07
-8.30756e-07 7.55098e-07 5.30323e-06
0.00194265 -0.000157515 5.33324e-06
-0.000157515 0.000758816 -1.66447e-05
5.33324e-06 -1.66447e-05 0.000558827
0.00156568 -0.00010091 -1.90336e-06
-0.00010091 0.000588473 4.12259e-06
-1.90336e-06 4.12259e-06 0.000420921
0.000910714 -4.15435e-05 -1.55959e-06
-4.15435e-05 0.000193747 5.05379e-08
-1.55959e-06 5.05379e-08 6.47515e-05
0.000821161 1.2168e-05 1.11501e-07
1.2168e-05 0.000135392 -1.69065e-07
1.11501e-07 -1.69065e-07 8.48691e-06
0.000596458 -0.00033511 -9.35674e-06
-0.00033511 -0.000360834 4.4675e-07
-9.35674e-06 4.4675e-07 -0.00038407
0.000925728 2.69173e-05 -5.31034e-07
2.69173e-05 0.000233899 8.16852e-07
-5.31034e-07 8.16852e-07 6.86813e-05
0.000931177 -7.83464e-05 -2.917e-08
-7.83464e-05 0.000207133 1.09039e-06
-2.917e-08 1.09039e-06 5.6389e-05
0.000336455 -0.000110197 3.6212e-08
-0.000110197 -8.63801e-05 3.87853e-06
3.6212e-08 3.87853e-06 -0.000140717
0.000624292 1.78621e-05 6.17838e-07
1.78621e-05 1.8732e-06 -4.15705e-08
6.17838e-07 -4.15705e-08 -0.000106299
0.000911305 -0.000282167 3.42148e-05
-0.000282167 -0.000121705 -2.9307e-05
3.42148e-05 -2.9307e-05 -7.42205e-06
0.000619623 -8.40545e-05 -1.01698e-05
-8.40545e-05 0.000293435 2.63802e-05
-1.01698e-05 2.63802e-05 0.000185548
0.000889506 -9.1869e-06 -9.70288e-07
-9.1869e-06 0.000204796 1.02918e-05
-9.70288e-07 1.02918e-05 5.9616e-05
0.00121633 0.000146845 1.53244e-06
0.000146845 0.000378787 -1.56411e-06
1.53244e-06 -1.56411e-06 0.000232089
0.00127737 -2.51343e-05 -1.51606e-05
-2.51343e-05 0.00037602 -2.02786e-06
-1.51606e-05 -2.02786e-06 8.57981e-05
0.00129388 -3.82391e-05 4.91347e-05
-3.82391e-05 0.000360105 -4.33526e-06
4.91347e-05 -4.33526e-06 -0.000429347
-0.00323445 -4.46411e-05 -4.12512e-05
-4.46411e-05 0.000520964 2.78722e-06
-4.12512e-05 2.78722e-06 -0.000846148
0.000991862 0.000139023 1.58549e-05
0.000139023 0.000381788 2.53259e-06
1.58549e-05 2.53259e-06 0.000283491
-0.000400674 0.000181674 1.63532e-05
0.000181674 -0.000257469 1.1024e-05
1.63532e-05 1.1024e-05 -0.000458147
0.00240383 -1.64921e-05 7.47098e-05
-1.64921e-05 0.000953947 1.04635e-05
7.47098e-05 1.04635e-05 0.000203257
0.00808954 0.000107999 9.90082e-05
0.000107999 0.00360371 5.31297e-05
9.90082e-05 5.31297e-05 0.000889861
0.00245257 0.000490342 -8.57797e-05
0.000490342 0.000726072 -8.4233e-05
-8.57797e-05 -8.4233e-05 -0.000214519
0.00313001 -0.000305024 1.01085e-05
-0.000305024 0.000471938 -6.95205e-05
1.01085e-05 -6.95205e-05 -0.000376228
0.00148452 9.02221e-05 2.48982e-05
9.02221e-05 0.000278469 9.76361e-05
2.48982e-05 9.76361e-05 -0.00091436
0.00329838 -1.89532e-05 3.66348e-06
-1.89532e-05 -0.00311202 -5.50577e-05
3.66348e-06 -5.50577e-05 -0.000803886
0.000644048 0.000108363 1.19942e-06
0.000108363 0.000291676 -1.20288e-06
1.19942e-06 -1.20288e-06 0.000187527
0.00105556 -3.84769e-05 -1.67868e-07
-3.84769e-05 0.000208089 -9.79335e-06
-1.67868e-07 -9.79335e-06 -0.000114115
0.00235454 1.15279e-05 2.3508e-05
1.15279e-05 0.000538681 6.29118e-06
2.3508e-05 6.29118e-06 -0.000243068
-0.000914948 8.55337e-05 -1.34758e-05
8.55337e-05 -0.000383823 -4.97051e-06
-1.34758e-05 -4.97051e-06 -0.000683464
0.00402101 0.000527306 1.08766e-05
0.000527306 -0.00161229 -3.50558e-06
1.08766e-05 -3.50558e-06 -0.000386035
0.00555902 0.000731238 6.74865e-05
0.000731238 0.00240648 2.75735e-05
6.74865e-05 2.75735e-05 -0.000361933
0.00313109 0.000181314 -4.33843e-05
0.000181314 0.00187382 2.95068e-06
-4.33843e-05 2.95068e-06 0.00120643
4.47963e-06 0.000128701 -2.59418e-05
0.000128701 1.25863e-05 -1.16707e-05
-2.59418e-05 -1.16707e-05 -0.000152851
0.00165944 1.49823e-05 2.83142e-08
1.49823e-05 0.00020975 -2.84742e-05
2.83142e-08 -2.84742e-05 -2.06447e-05
0.00303491 -7.31311e-05 2.59307e-05
-7.31311e-05 0.00146356 -7.29274e-05
2.59307e-05 -7.29274e-05 0.000660172
0.00476378 0.000838153 9.23809e-05
0.000838153 -0.000165243 -7.44916e-05
9.23809e-05 -7.44916e-05 0.000813967
0.00411992 3.77401e-05 -5.55676e-05
3.77401e-05 0.000310688 7.14034e-05
-5.55676e-05 7.14034e-05 0.000388992
0.00166706 0.000218556 1.88451e-06
0.000218556 0.000177961 -3.221e-05
1.88451e-06 -3.221e-05 0.00020411
0.000334761 0.000400162 8.85595e-05
0.000400162 0.00173351 3.42578e-05
8.85595e-05 3.42578e-05 -0.00236021
0.000583768 0.000105381 3.39454e-06
0.000105381 5.49237e-05 5.93643e-06
3.39454e-06 5.93643e-06 -1.19568e-05
0.000695385 7.01467e-05 8.24686e-06
7.01467e-05 0.0002654 1.20752e-06
8.24686e-06 1.20752e-06 0.000198812
0.0010152 1.77112e-05 -1.05174e-05
1.77112e-05 0.000614542 -1.76457e-05
-1.05174e-05 -1.76457e-05 0.000524861
0.000579698 -4.6571e-06 7.0765e-07
-4.6571e-06 -4.14106e-05 3.02013e-06
7.0765e-07 3.02013e-06 -0.000128234
0.000747592 -3.51688e-05 1.45309e-06
-3.51688e-05 0.00011623 4.31579e-06
1.45309e-06 4.31579e-06 2.83015e-05
0.000251796 -1.60312e-05 -2.02051e-06
-1.60312e-05 -8.72326e-05 1.13958e-05
-2.02051e-06 1.13958e-05 -0.000167462
0.000718406 -3.44563e-05 1.53364e-07
-3.44563e-05 8.99729e-05 -3.45362e-07
1.53364e-07 -3.45362e-07 1.30648e-05
0.000379252 -9.41416e-06 6.21754e-09
-9.41416e-06 2.5028e-05 2.7607e-06
6.21754e-09 2.7607e-06 -3.69158e-05
0.000833183 -0.000141278 5.26501e-06
-0.000141278 0.000347035 -5.95666e-06
5.26501e-06 -5.95666e-06 0.000196796
0.00100738 -1.18137e-05 -1.58443e-06
-1.18137e-05 0.000215758 3.46868e-06
-1.58443e-06 3.46868e-06 0.000145787
0.000652711 4.28084e-05 -1.35258e-06
4.28084e-05 1.04655e-05 1.99617e-06
-1.35258e-06 1.99617e-06 -7.35008e-05
0.00124025 -8.42976e-05 1.03546e-06
-8.42976e-05 0.000360792 1.35549e-06
1.03546e-06 1.35549e-06 0.000268989
9.84351e-05 -8.86283e-05 4.19433e-06
-8.86283e-05 -0.000174123 1.83318e-06
4.19433e-06 1.83318e-06 -0.00036848
0.000527009 -3.03807e-05 -4.58986e-06
-3.03807e-05 -4.86578e-05 1.06993e-06
-4.58986e-06 1.06993e-06 -0.000123305
0.000251445 -9.72052e-05 1.50284e-06
-9.72052e-05 -0.000194843 -7.53936e-07
1.50284e-06 -7.53936e-07 -0.000334054
0.00104494 -0.000200427 6.0854e-06
-0.000200427 0.000216785 -1.59102e-06
6.0854e-06 -1.59102e-06 7.76509e-06
0.0011701 -0.000223071 -9.93033e-07
-0.000223071 0.000167749 4.94591e-06
-9.93033e-07 4.94591e-06 -4.55255e-05
0.00155281 -0.000140948 -2.2476e-06
-0.000140948 0.000527958 -1.47894e-07
-2.2476e-06 -1.47894e-07 0.00039102
0.000618227 -0.000159548 -2.79557e-07
-0.000159548 -3.3081e-05 -1.63384e-07
-2.79557e-07 -1.63384e-07 -0.000215441
0.00172846 -0.000242533 1.67817e-06
-0.000242533 0.000565966 -1.58068e-06
1.67817e-06 -1.58068e-06 0.000389151
0.000273161 -9.54599e-05 -2.02753e-06
-9.54599e-05 -0.000163609 -5.39517e-07
-2.02753e-06 -5.39517e-07 -0.000321355
0.000898912 -0.00016685 -2.53571e-07
-0.00016685 0.000134498 1.00438e-06
-2.53571e-07 1.00438e-06 -4.21541e-05
0.000759145 -2.3681e-05 1.00261e-07
-2.3681e-05 9.73409e-05 5.82523e-07
1.00261e-07 5.82523e-07 -1.27786e-05
0.00103014 -0.000139262 -2.69071e-06
-0.000139262 0.000265334 2.0175e-06
-2.69071e-06 2.0175e-06 0.000122732
0.000421016 -0.000121586 -1.55163e-06
-0.000121586 -0.000108564 -9.40873e-07
-1.55163e-06 -9.40873e-07 -0.000275976
0.000687137 4.07045e-05 2.94136e-07
4.07045e-05 3.53465e-05 9.08209e-07
2.94136e-07 9.08209e-07 -4.23988e-05
0.000712729 -1.35909e-05 7.55953e-07
-1.35909e-05 6.3856e-05 -1.01965e-07
7.55953e-07 -1.01965e-07 -3.48658e-05
0.000846944 -4.99488e-05 1.85075e-06
-4.99488e-05 0.000159676 -2.71659e-06
1.85075e-06 -2.71659e-06 3.8585e-05
0.000759658 5.51441e-06 1.52186e-07
5.51441e-06 8.44853e-05 -5.43247e-07
1.52186e-07 -5.43247e-07 -1.82311e-06
0.000739253 5.70426e-06 -5.34563e-07
5.70426e-06 5.85213e-05 -1.27386e-07
-5.34563e-07 -1.27386e-07 -1.21635e-05
0.000675901 3.78765e-05 -1.49407e-06
3.78765e-05 9.83055e-06 1.65303e-06
-1.49407e-06 1.65303e-06 -3.78923e-05
0.000772655 -2.77175e-05 8.00786e-07
-2.77175e-05 7.73783e-05 -6.81705e-07
8.00786e-07 -6.81705e-07 7.21207e-06
0.000690976 3.06569e-05 -2.39379e-07
3.06569e-05 1.26336e-05 -1.44623e-08
-2.39379e-07 -1.44623e-08 -3.27631e-05
0.000624553 4.19541e-05 -1.06145e-06
4.19541e-05 -2.8382e-05 3.72214e-06
-1.06145e-06 3.72214e-06 -4.33239e-05
0.000715838 1.17787e-05 1.69201e-06
1.17787e-05 2.15046e-05 -1.67825e-06
1.69201e-06 -1.67825e-06 -2.20051e-05
0.000630168 3.52867e-05 1.23464e-07
3.52867e-05 -3.18573e-05 3.01397e-08
1.23464e-07 3.01397e-08 -4.51523e-05
0.00216916 6.11112e-05 -4.55918e-06
6.11112e-05 0.000860521 1.74251e-06
-4.55918e-06 1.74251e-06 0.000873621
0.000614696 2.81827e-05 7.86979e-07
2.81827e-05 -4.56863e-05 -3.68415e-06
7.86979e-07 -3.68415e-06 -5.80124e-05
0.00153992 3.85586e-05 8.43071e-06
3.85586e-05 0.000491913 -1.19051e-06
8.43071e-06 -1.19051e-06 0.000503589
0.00228664 3.68174e-05 1.27843e-05
3.68174e-05 0.000917443 -4.50842e-06
1.27843e-05 -4.50842e-06 0.000933483
0.000530204 -9.77125e-06 -2.411e-07
-9.77125e-06 -6.29343e-05 -1.64564e-06
-2.411e-07 -1.64564e-06 -0.000141532
0.000407894 -7.84859e-06 -3.37239e-07
-7.84859e-06 -0.000151903 -2.91594e-06
-3.37239e-07 -2.91594e-06 -0.000199211
0.000680314 9.67907e-06 -4.07527e-07
9.67907e-06 3.07335e-05 -7.11936e-07
-4.07527e-07 -7.11936e-07 -4.87919e-05
0.000647474 -1.84931e-05 -2.30579e-07
-1.84931e-05 -3.3247e-05 -3.84188e-06
-2.30579e-07 -3.84188e-06 -4.2638e-05
0.000407702 -6.21843e-06 -1.95308e-07
-6.21843e-06 -0.000151275 -8.74551e-07
-1.95308e-07 -8.74551e-07 -0.00019499
0.000833483 1.44343e-05 -5.82064e-08
1.44343e-05 0.000122141 1.52547e-06
-5.82064e-08 1.52547e-06 4.68089e-05
0.00215023 -2.31027e-05 -9.20586e-06
-2.31027e-05 0.000833783 -4.70665e-06
-9.20586e-06 -4.70665e-06 0.000852573
0.000652877 -1.16738e-05 -1.32826e-07
-1.16738e-05 -3.21797e-05 -3.02392e-08
-1.32826e-07 -3.02392e-08 -3.93279e-05
0.000390114 -5.16252e-06 3.47675e-07
-5.16252e-06 -0.000160461 2.05128e-06
3.47675e-07 2.05128e-06 -0.000200921
0.00209765 -1.06327e-05 -3.21521e-06
-1.06327e-05 0.000801445 3.38935e-08
-3.21521e-06 3.38935e-08 0.000821381
0.000658231 -4.9797e-06 2.09633e-07
-4.9797e-06 -3.00678e-05 3.56014e-06
2.09633e-07 3.56014e-06 -3.58899e-05
0.00209364 1.58529e-06 1.63099e-07
1.58529e-06 0.000798862 4.73564e-06
1.63099e-07 4.73564e-06 0.000818957
0.00152274 1.46543e-05 -6.98808e-06
1.46543e-05 0.000590455 2.33684e-05
-6.98808e-06 2.33684e-05 0.000278867
0.0015696 -3.53418e-05 1.0781e-05
-3.53418e-05 0.000339455 -3.44068e-06
1.0781e-05 -3.44068e-06 -0.000509897
0.00177601 0.000104174 3.85688e-05
0.000104174 0.00230459 -2.91279e-05
3.85688e-05 -2.91279e-05 0.00173925
0.000827059 5.62226e-05 -6.64877e-08
5.62226e-05 0.00011497 2.45023e-07
-6.64877e-08 2.45023e-07 1.76522e-05
0.000704715 2.63259e-05 -7.35515e-08
2.63259e-05 3.3107e-05 2.69145e-07
-7.35515e-08 2.69145e-07 -5.63947e-05
0.000901227 7.8971e-05 -3.5293e-07
7.8971e-05 0.000153113 7.45179e-07
-3.5293e-07 7.45179e-07 5.07305e-05
0.00190324 -2.40371e-05 1.08105e-05
-2.40371e-05 0.00014935 0.000112727
1.08105e-05 0.000112727 -0.000770361
0.00281564 -7.67519e-05 -6.99656e-06
-7.67519e-05 0.00141811 6.05597e-07
-6.99656e-06 6.05597e-07 0.000539706
0.00322826 -0.000152046 4.98233e-05
-0.000152046 0.00107628 -8.48415e-05
4.98233e-05 -8.48415e-05 -0.000388402
0.0046395 -0.000579854 -4.17048e-05
-0.000579854 0.000833806 -9.79403e-07
-4.17048e-05 -9.79403e-07 5.24428e-05
0.00188052 -0.000338146 -8.04594e-05
-0.000338146 0.000309862 5.55093e-05
-8.04594e-05 5.55093e-05 -0.00196825
0.00705463 0.000815372 5.93862e-05
0.000815372 0.00208152 1.86182e-05
5.93862e-05 1.86182e-05 0.00192983
0.00146604 0.000209238 1.87854e-05
0.000209238 -0.00302172 -5.1643e-05
1.87854e-05 -5.1643e-05 -0.00176103
0.00526769 -0.000941681 -1.10833e-05
-0.000941681 0.00140554 4.64317e-06
-1.10833e-05 4.64317e-06 0.000648283
0.00612454 -0.000515868 6.85997e-06
-0.000515868 0.00272224 4.96024e-06
6.85997e-06 4.96024e-06 8.47074e-05
-0.0018522 0.000295982 -1.05288e-05
0.000295982 -0.000674738 -5.32758e-05
-1.05288e-05 -5.32758e-05 -0.00157717
0.00420309 -3.94634e-05 -1.14688e-05
-3.94634e-05 -0.00192412 2.28431e-05
-1.14688e-05 2.28431e-05 -2.39717e-05
0.00288016 -0.000702072 -2.98517e-05
-0.000702072 0.000319203 -1.92832e-05
-2.98517e-05 -1.92832e-05 -0.00034089
0.0105555 -0.000798388 1.47934e-05
-0.000798388 0.00493918 3.02452e-05
1.47934e-05 3.02452e-05 0.00175393
-0.00798671 -5.40491e-05 5.56465e-05
-5.40491e-05 -0.00101682 -0.000103737
5.56465e-05 -0.000103737 -0.0023996
0.00255485 -0.00044502 3.54501e-07
-0.00044502 -0.00198575 -1.06824e-05
3.54501e-07 -1.06824e-05 -0.00064001
0.00080069 3.37321e-05 -6.61646e-07
3.37321e-05 9.74452e-05 -1.53657e-10
-6.61646e-07 -1.53657e-10 -1.50661e-05
0.000770252 3.73719e-07 7.062e-08
3.73719e-07 9.97911e-05 -4.8791e-07
7.062e-08 -4.8791e-07 -2.25175e-05
0.000778869 -5.27678e-05 5.5278e-07
-5.27678e-05 0.000115229 1.0784e-07
5.5278e-07 1.0784e-07 -6.18205e-06
0.000791564 3.78968e-05 -4.66052e-07
3.78968e-05 9.08656e-05 -4.39156e-07
-4.66052e-07 -4.39156e-07 -1.35591e-05
0.000953049 0.000110292 1.42026e-06
0.000110292 0.000201492 1.19221e-06
1.42026e-06 1.19221e-06 8.76573e-05
0.00104798 0.000103277 -4.81771e-07
0.000103277 0.000259377 9.10025e-07
-4.81771e-07 9.10025e-07 0.000152632
0.0013098 -0.000378006 8.97675e-06
-0.000378006 -2.46821e-06 4.46283e-06
8.97675e-06 4.46283e-06 -7.12755e-05
-0.000647636 -6.44918e-05 1.11406e-05
-6.44918e-05 -0.000630726 -1.74003e-05
1.11406e-05 -1.74003e-05 -0.000644218
0.000925146 5.49863e-05 -2.27173e-07
5.49863e-05 0.000199742 3.08624e-07
-2.27173e-07 3.08624e-07 6.84671e-05
0.00116789 -0.000119839 1.31325e-05
-0.000119839 0.000310462 -2.50509e-05
1.31325e-05 -2.50509e-05 0.000158382
0.00111104 8.34614e-06 -1.38587e-06
8.34614e-06 0.000333877 -1.60049e-07
-1.38587e-06 -1.60049e-07 0.000168399
0.000726783 1.51792e-05 3.8986e-07
1.51792e-05 6.04019e-05 5.93704e-08
3.8986e-07 5.93704e-08 -5.29983e-05
0.000750044 7.69594e-05 1.69092e-07
7.69594e-05 0.000108277 -2.27629e-07
1.69092e-07 -2.27629e-07 -2.84297e-05
0.000313076 -0.000284267 -2.91887e-06
-0.000284267 -0.000430889 -2.74292e-06
-2.91887e-06 -2.74292e-06 -0.000425387
0.000956516 -3.21181e-05 2.83474e-06
-3.21181e-05 0.00024571 -2.6282e-06
2.83474e-06 -2.6282e-06 0.000105055
0.000476949 -4.24265e-05 1.98276e-05
-4.24265e-05 0.000224018 -3.92418e-07
1.98276e-05 -3.92418e-07 0.000119475
0.00113295 5.37894e-05 1.01569e-06
5.37894e-05 0.000296098 -4.1684e-07
1.01569e-06 -4.1684e-07 0.000186068
-0.00236343 9.90976e-05 -3.36792e-05
9.90976e-05 -0.00110598 -2.14641e-05
-3.36792e-05 -2.14641e-05 -0.00144851
0.000670931 -1.30124e-06 6.5216e-06
-1.30124e-06 0.000279975 2.74911e-05
6.5216e-06 2.74911e-05 0.000212672
0.00109938 1.26247e-05 1.14557e-06
1.26247e-05 0.000348976 5.93384e-07
1.14557e-06 5.93384e-07 0.000226849
0.00156478 -1.89824e-05 1.45075e-06
-1.89824e-05 0.000148482 9.38121e-07
1.45075e-06 9.38121e-07 -5.24787e-05
0.00113608 -2.11747e-05 -1.14647e-05
-2.11747e-05 0.000266898 -3.23608e-06
-1.14647e-05 -3.23608e-06 1.59985e-05
0.00119631 -3.39152e-05 0.000131941
-3.39152e-05 0.000340192 -1.61612e-06
0.000131941 -1.61612e-06 -0.000451425
0.000934948 0.000160471 1.98339e-05
0.000160471 0.000446888 1.25781e-05
1.98339e-05 1.25781e-05 0.000332647
0.00248988 0.00037667 9.89269e-06
0.00037667 0.000942631 -1.55525e-05
9.89269e-06 -1.55525e-05 0.00075523
0.00118357 -3.71014e-05 7.43423e-07
-3.71014e-05 0.000257949 8.9204e-06
7.43423e-07 8.9204e-06 -2.23526e-05
-0.000763429 0.000380887 7.86963e-06
0.000380887 -4.07912e-05 2.05086e-05
7.86963e-06 2.05086e-05 -0.00282462
-0.00989359 6.91161e-05 -4.58714e-05
6.91161e-05 -0.00371217 -0.000100584
-4.58714e-05 -0.000100584 -0.00508511
0.00258799 2.20668e-05 2.58944e-05
2.20668e-05 0.000854824 5.80279e-05
2.58944e-05 5.80279e-05 0.000212356
0.00169084 0.000324635 -2.08449e-05
0.000324635 -0.00296231 5.30986e-05
-2.08449e-05 5.30986e-05 -0.00170729
0.000446479 0.000116403 4.00588e-06
0.000116403 0.000276839 -9.61056e-07
4.00588e-06 -9.61056e-07 0.000130506
0.00150131 -2.02924e-06 6.23033e-06
-2.02924e-06 0.000109379 -1.32305e-05
6.23033e-06 -1.32305e-05 -5.09433e-05
0.00288456 -5.74491e-05 5.4681e-06
-5.74491e-05 0.00136849 -1.07725e-06
5.4681e-06 -1.07725e-06 0.000519079
0.00135276 0.00020353 1.3747e-05
0.00020353 4.02414e-05 -3.41317e-06
1.3747e-05 -3.41317e-06 -0.000262475
0.00210242 0.000771193 3.46723e-05
0.000771193 -0.00164335 -7.75247e-05
3.46723e-05 -7.75247e-05 -0.000606201
-0.00177576 0.000293591 8.92619e-06
0.000293591 -0.00135626 5.06232e-05
8.92619e-06 5.06232e-05 -0.00175941
0.00671698 3.39517e-05 5.84765e-05
3.39517e-05 0.00432055 -1.9053e-05
5.84765e-05 -1.9053e-05 0.000295541
0.00108616 -3.92573e-06 2.11311e-05
-3.92573e-06 0.00086659 -1.16129e-05
2.11311e-05 -1.16129e-05 0.000583077
0.00146744 2.57371e-05 9.14743e-06
2.57371e-05 0.000524809 -2.20787e-05
9.14743e-06 -2.20787e-05 0.000213818
0.00275701 -8.58577e-05 0.000128786
-8.58577e-05 0.000537843 -0.000108562
0.000128786 -0.000108562 -0.000709078
0.00298318 0.00106274 -7.06452e-06
0.00106274 0.00164131 -1.17836e-05
-7.06452e-06 -1.17836e-05 0.00269647
-0.00572741 0.000386683 3.79049e-05
0.000386683 -0.00475544 0.000150864
3.79049e-05 0.000150864 -0.00449453
0.0112989 -0.000580806 6.11504e-05
-0.000580806 0.00477273 -7.37649e-05
6.11504e-05 -7.37649e-05 0.00173507
0.0045832 -0.000359588 -9.11873e-05
-0.000359588 0.00133802 0.000110473
-9.11873e-05 0.000110473 0.00130339
0.001259 7.39495e-05 4.70112e-06
7.39495e-05 0.000578687 6.47078e-06
4.70112e-06 6.47078e-06 0.00050454
4.88677e-05 -1.09875e-05 -4.23075e-06
-1.09875e-05 6.89197e-05 -2.55431e-07
-4.23075e-06 -2.55431e-07 -3.8673e-05
0.000269232 -0.000172299 6.12819e-06
-0.000172299 0.000252162 -1.37822e-05
6.12819e-06 -1.37822e-05 2.28865e-05
0.000718671 -4.54961e-05 1.45899e-06
-4.54961e-05 8.94784e-05 1.61936e-06
1.45899e-06 1.61936e-06 1.02598e-05
-0.000285078 -1.27628e-05 5.99107e-06
-1.27628e-05 -0.000344063 1.40938e-05
5.99107e-06 1.40938e-05 -0.000408745
0.000253932 -9.81523e-05 -1.45374e-06
-9.81523e-05 3.21116e-05 1.76754e-07
-1.45374e-06 1.76754e-07 -0.000103993
0.00109071 -0.000195575 2.12914e-05
-0.000195575 0.000458224 -1.34632e-05
2.12914e-05 -1.34632e-05 0.000204598
0.00182035 -0.000120073 -3.42566e-06
-0.000120073 0.000676659 2.79741e-06
-3.42566e-06 2.79741e-06 0.000576915
0.00142404 -0.00021116 1.4602e-06
-0.00021116 0.000507488 3.33531e-07
1.4602e-06 3.33531e-07 0.000306265
0.00103799 -0.000218752 8.50114e-06
-0.000218752 0.000303923 2.37944e-06
8.50114e-06 2.37944e-06 -2.0383e-05
4.8876e-05 -8.04759e-05 -2.0693e-06
-8.04759e-05 -0.000307468 -1.38445e-06
-2.0693e-06 -1.38445e-06 -0.000433812
0.00107396 -0.000200497 -4.38868e-07
-0.000200497 0.000219773 1.21348e-06
-4.38868e-07 1.21348e-06 4.16949e-06
0.00244513 -0.00034786 2.6127e-06
-0.00034786 0.000864179 1.74827e-06
2.6127e-06 1.74827e-06 0.00059178
0.00173812 -0.000297231 -3.00786e-06
-0.000297231 0.000345906 2.07463e-06
-3.00786e-06 2.07463e-06 0.000102623
0.000526314 -0.000164785 7.24183e-07
-0.000164785 -0.000165682 6.43465e-06
7.24183e-07 6.43465e-06 -0.000353607
0.00134266 -0.000236996 -2.5351e-06
-0.000236996 0.000264712 1.68175e-06
-2.5351e-06 1.68175e-06 4.73599e-05
0.000908616 -0.000183534 -4.15075e-06
-0.000183534 0.000121495 1.25761e-06
-4.15075e-06 1.25761e-06 -6.80349e-05
0.00155011 -0.000220049 4.00684e-06
-0.000220049 0.000494996 -3.054e-06
4.00684e-06 -3.054e-06 0.000325542
0.00121394 -0.000199147 2.65425e-06
-0.000199147 0.000284052 -2.22303e-06
2.65425e-06 -2.22303e-06 0.000120339
0.0003788 -4.23263e-05 1.62463e-06
-4.23263e-05 -0.000109302 8.98252e-07
1.62463e-06 8.98252e-07 -0.000246005
0.000717653 -0.000130532 1.1865e-06
-0.000130532 8.74102e-05 -3.97705e-07
1.1865e-06 -3.97705e-07 -7.32219e-05
0.00116234 -0.000185936 5.2469e-06
-0.000185936 0.000283251 -3.13543e-06
5.2469e-06 -3.13543e-06 0.000109124
0.000692202 5.01226e-05 1.06241e-06
5.01226e-05 4.84609e-05 1.36324e-06
1.06241e-06 1.36324e-06 -4.40186e-05
0.000884726 -5.10508e-05 -3.22712e-07
-5.10508e-05 0.000170636 -8.12535e-08
-3.22712e-07 -8.12535e-08 5.56791e-05
0.00102928 -0.000139426 -6.50637e-07
-0.000139426 0.00026346 -2.69075e-07
-6.50637e-07 -2.69075e-07 0.000120176
0.000656651 4.41229e-05 -1.08403e-06
4.41229e-05 6.23223e-06 1.73687e-06
-1.08403e-06 1.73687e-06 -4.60288e-05
0.000744659 1.3495e-05 -7.01022e-07
1.3495e-05 6.61166e-05 -2.8814e-07
-7.01022e-07 -2.8814e-07 -1.18118e-05
0.000572829 -2.97063e-06 -5.72642e-10
-2.97063e-06 -1.13257e-05 -7.86406e-07
-5.72642e-10 -7.86406e-07 -0.000111759
0.000781248 -1.62901e-05 7.336e-07
-1.62901e-05 8.28524e-05 -9.8727e-07
7.336e-07 -9.8727e-07 1.08672e-05
0.000690834 3.07957e-05 -2.72387e-07
3.07957e-05 1.71897e-05 -5.47114e-08
-2.72387e-07 -5.47114e-08 -3.00476e-05
0.000607542 4.89098e-05 -1.09161e-06
4.89098e-05 -2.95385e-05 3.82954e-06
-1.09161e-06 3.82954e-06 -4.70046e-05
0.000705175 2.13327e-05 1.73608e-06
2.13327e-05 1.91042e-05 -1.68619e-06
1.73608e-06 -1.68619e-06 -2.55356e-05
0.000624965 4.28978e-05 4.78621e-08
4.28978e-05 -2.80598e-05 6.57282e-09
4.78621e-08 6.57282e-09 -4.30815e-05
0.00220735 6.65786e-05 -2.31354e-05
6.65786e-05 0.000889507 3.727e-06
-2.31354e-05 3.727e-06 0.000901432
0.000620803 3.59364e-05 8.63677e-07
3.59364e-05 -3.73075e-05 -3.69799e-06
8.63677e-07 -3.69799e-06 -5.06094e-05
0.00152116 4.79208e-05 9.90907e-06
4.79208e-05 0.000488012 -1.03958e-06
9.90907e-06 -1.03958e-06 0.000498201
0.00226818 4.79368e-05 1.65633e-05
4.79368e-05 0.000912171 -4.21346e-06
1.65633e-05 -4.21346e-06 0.000927034
0.000736955 4.35348e-05 -6.56089e-07
4.35348e-05 5.33376e-05 -7.44693e-07
-6.56089e-07 -7.44693e-07 -2.646e-05
0.000685908 1.95543e-06 -7.5407e-07
1.95543e-06 4.81057e-06 -2.17647e-06
-7.5407e-07 -2.17647e-06 -4.34329e-05
0.00063081 2.77366e-05 -9.01892e-07
2.77366e-05 9.00302e-07 -6.66056e-07
-9.01892e-07 -6.66056e-07 -8.18774e-05
0.000636339 -2.54607e-05 -8.01439e-08
-2.54607e-05 -3.61711e-05 -4.02534e-06
-8.01439e-08 -4.02534e-06 -4.83405e-05
0.000537594 -6.39196e-07 -7.72954e-07
-6.39196e-07 -7.83348e-05 -8.65769e-07
-7.72954e-07 -8.65769e-07 -0.000124558
0.000843896 2.17545e-05 3.29335e-07
2.17545e-05 0.000123984 5.29456e-07
3.29335e-07 5.29456e-07 4.51462e-05
0.00221978 -3.46914e-05 -1.35823e-05
-3.46914e-05 0.000876908 -4.61796e-06
-1.35823e-05 -4.61796e-06 0.000894119
0.000646056 -1.81673e-05 -2.16287e-07
-1.81673e-05 -3.40454e-05 -2.69547e-08
-2.16287e-07 -2.69547e-08 -4.3343e-05
0.000378602 -6.56488e-06 -2.4115e-07
-6.56488e-06 -0.000167719 1.33243e-06
-2.4115e-07 1.33243e-06 -0.00021193
0.00214223 -2.20382e-05 -3.1287e-06
-2.20382e-05 0.000828778 6.93931e-08
-3.1287e-06 6.93931e-08 0.000847786
0.000653934 -1.15272e-05 2.44004e-07
-1.15272e-05 -3.14594e-05 3.64897e-06
2.44004e-07 3.64897e-06 -3.85688e-05
0.00209889 -9.55193e-06 4.68579e-06
-9.55193e-06 0.000801942 4.73551e-06
4.68579e-06 4.73551e-06 0.000821932
0.00157598 -1.45476e-05 3.04256e-06
-1.45476e-05 0.000184951 3.04624e-05
3.04256e-06 3.04624e-05 -6.32954e-05
0.00133346 9.10757e-06 -6.07037e-06
9.10757e-06 0.000422591 -2.51025e-07
-6.07037e-06 -2.51025e-07 9.5655e-05
0.00166858 -2.96573e-05 9.21199e-05
-2.96573e-05 0.000490745 -2.74079e-05
9.21199e-05 -2.74079e-05 -0.000391781
0.000672391 -1.28329e-05 -1.99083e-07
-1.28329e-05 8.38406e-06 -3.5562e-07
-1.99083e-07 -3.5562e-07 -7.45801e-05
0.000878213 1.34671e-05 -1.02231e-06
1.34671e-05 0.00013393 -4.86991e-07
-1.02231e-06 -4.86991e-07 4.20941e-05
0.000839829 5.39033e-05 1.39474e-06
5.39033e-05 0.000120293 4.65738e-07
1.39474e-06 4.65738e-07 2.63804e-05
0.000708064 1.11614e-05 1.72905e-07
1.11614e-05 2.99447e-05 1.34578e-07
1.72905e-07 1.34578e-07 -5.55865e-05
0.000802606 3.53087e-05 -7.80176e-09
3.53087e-05 9.61596e-05 2.11736e-07
-7.80176e-09 2.11736e-07 -4.56218e-06
0.000812436 1.77345e-05 -1.13745e-06
1.77345e-05 9.63122e-05 3.05261e-07
-1.13745e-06 3.05261e-07 3.7743e-06
0.00093959 0.000148396 6.2505e-07
0.000148396 0.000187832 4.65568e-07
6.2505e-07 4.65568e-07 7.0343e-05
0.000722724 2.52481e-05 2.84444e-05
2.52481e-05 0.000205877 0.000112823
2.84444e-05 0.000112823 -0.000884028
0.00224857 -1.2806e-05 -3.80052e-06
-1.2806e-05 0.000560558 3.63358e-05
-3.80052e-06 3.63358e-05 -0.000212075
0.0026198 -5.61752e-05 5.10164e-06
-5.61752e-05 0.00129473 -6.14917e-05
5.10164e-06 -6.14917e-05 0.000365767
0.00302423 -0.000100144 -1.80597e-05
-0.000100144 -0.00321324 2.11305e-05
-1.80597e-05 2.11305e-05 -0.000953667
0.00375946 -0.000816232 -4.30066e-05
-0.000816232 0.00110005 5.4997e-05
-4.30066e-05 5.4997e-05 0.000161453
-0.00143461 -0.000728513 2.81292e-05
-0.000728513 -0.000709011 3.18317e-05
2.81292e-05 3.18317e-05 -0.00362777
0.00591883 0.000897773 4.21512e-05
0.000897773 0.00343857 -2.39269e-05
4.21512e-05 -2.39269e-05 0.00202561
0.00427227 -0.000823956 -1.6823e-05
-0.000823956 0.000995744 3.70764e-06
-1.6823e-05 3.70764e-06 0.000195417
0.000601708 -0.000384411 4.21666e-05
-0.000384411 0.000753316 -4.12867e-07
4.21666e-05 -4.12867e-07 -0.00241087
0.00395147 -9.05089e-05 -2.45043e-05
-9.05089e-05 0.00208439 -1.2747e-06
-2.45043e-05 -1.2747e-06 0.00138889
0.00695006 -0.00062559 -2.07998e-05
-0.00062559 0.00079658 -2.91097e-05
-2.07998e-05 -2.91097e-05 0.00209561
0.00191963 -2.8731e-05 -5.72457e-05
-2.8731e-05 -0.000290988 3.96626e-05
-5.72457e-05 3.96626e-05 -0.000206983
0.000656832 0.000440729 1.51158e-05
0.000440729 0.000529226 -8.21793e-05
1.51158e-05 -8.21793e-05 -0.00238723
-0.0066986 -0.000874131 4.71683e-05
-0.000874131 -0.00425296 -5.70588e-05
4.71683e-05 -5.70588e-05 -0.00550164
0.00215425 -0.000607021 1.46985e-05
-0.000607021 -0.00166445 -0.000111718
1.46985e-05 -0.000111718 -0.000178514
0.000780613 -7.71401e-06 -1.75912e-06
-7.71401e-06 8.5486e-05 9.07008e-07
-1.75912e-06 9.07008e-07 -7.73559e-06
0.000758035 3.36049e-05 1.53334e-07
3.36049e-05 7.48838e-05 1.9992e-07
1.53334e-07 1.9992e-07 -3.79511e-05
0.000752781 1.32917e-05 -2.07508e-07
1.32917e-05 9.52409e-05 -3.82124e-07
-2.07508e-07 -3.82124e-07 -3.06485e-05
0.00082743 3.62026e-05 2.15539e-07
3.62026e-05 0.00011974 -8.56667e-07
2.15539e-07 -8.56667e-07 8.86455e-06
0.000854197 -0.000327478 6.79168e-08
-0.000327478 -0.000209012 1.75217e-05
6.79168e-08 1.75217e-05 -0.000267114
0.000804977 -2.94151e-05 -6.56428e-06
-2.94151e-05 0.000402944 -2.18457e-05
-6.56428e-06 -2.18457e-05 0.000314018
0.000636079 5.27848e-06 -2.13139e-08
5.27848e-06 2.14481e-06 -6.53023e-07
-2.13139e-08 -6.53023e-07 -0.000108296
0.000803001 8.57974e-05 -1.25721e-06
8.57974e-05 0.000140828 1.70212e-06
-1.25721e-06 1.70212e-06 1.85984e-06
0.00148475 -5.09809e-05 6.78675e-06
-5.09809e-05 0.000553932 -2.16752e-05
6.78675e-06 -2.16752e-05 0.000407198
0.000734106 2.95028e-05 -4.4438e-07
2.95028e-05 7.31259e-05 1.27397e-07
-4.4438e-07 1.27397e-07 -3.46314e-05
0.000926412 3.52536e-05 -1.1307e-06
3.52536e-05 0.000258358 -1.89315e-06
-1.1307e-06 -1.89315e-06 0.000132923
-0.000332389 2.15002e-05 4.86495e-06
2.15002e-05 -0.000145102 -1.13365e-05
4.86495e-06 -1.13365e-05 -0.000544358
0.0010249 -3.02318e-05 2.24559e-05
-3.02318e-05 0.000493287 -8.92807e-07
2.24559e-05 -8.92807e-07 0.00044244
0.00056728 4.56973e-05 -7.66607e-07
4.56973e-05 4.70648e-05 3.33082e-07
-7.66607e-07 3.33082e-07 -5.0565e-05
0.000304362 -1.35734e-05 -2.38585e-05
-1.35734e-05 0.000718273 -4.80428e-05
-2.38585e-05 -4.80428e-05 -0.000358009
0.0026771 5.22192e-05 8.44967e-06
5.22192e-05 0.00134988 1.77632e-05
8.44967e-06 1.77632e-05 0.00123079
0.00129123 -1.61646e-05 1.46031e-05
-1.61646e-05 0.0003843 4.6071e-06
1.46031e-05 4.6071e-06 9.2476e-05
0.00132365 -1.89754e-05 -5.68623e-07
-1.89754e-05 0.000104821 3.7202e-07
-5.68623e-07 3.7202e-07 -6.49021e-05
0.000846811 -1.87936e-05 -5.39709e-06
-1.87936e-05 0.000107735 -4.04027e-06
-5.39709e-06 -4.04027e-06 -0.00012638
0.000479292 9.29791e-05 1.47133e-05
9.29791e-05 0.000311693 6.64261e-06
1.47133e-05 6.64261e-06 0.000186512
0.000366147 0.000174801 -1.54623e-05
0.000174801 -0.000400212 2.64311e-05
-1.54623e-05 2.64311e-05 -0.000483528
0.00132489 -1.32429e-05 7.78979e-06
-1.32429e-05 1.07323e-05 6.22041e-06
7.78979e-06 6.22041e-06 -8.84296e-05
0.00333671 -0.000598903 0.000143645
-0.000598903 0.00275871 -0.000120188
0.000143645 -0.000120188 -0.00098175
0.00676915 0.000949147 -4.28921e-05
0.000949147 0.00322721 2.7291e-05
-4.28921e-05 2.7291e-05 0.00215837
0.00273876 -4.38186e-05 -1.33723e-05
-4.38186e-05 0.00127829 6.30327e-05
-1.33723e-05 6.30327e-05 0.000375436
0.00382391 0.000825162 -1.50261e-05
0.000825162 -0.000486859 -9.93424e-06
-1.50261e-05 -9.93424e-06 0.000420168
-0.000525068 3.25761e-05 1.42795e-05
3.25761e-05 6.52388e-05 3.19396e-06
1.42795e-05 3.19396e-06 -0.000302086
0.00140143 1.8512e-05 5.97928e-06
1.8512e-05 0.000437594 2.13243e-07
5.97928e-06 2.13243e-07 0.000132009
0.0029458 -0.000117234 4.00022e-05
-0.000117234 0.000736872 -3.28619e-06
4.00022e-05 -3.28619e-06 -0.000617467
0.000973082 -0.000108912 -3.77956e-06
-0.000108912 -0.000570427 2.45363e-05
-3.77956e-06 2.45363e-05 -0.000380467
-0.00163424 0.0011242 5.14053e-05
0.0011242 -0.000978155 -1.94019e-05
5.14053e-05 -1.94019e-05 0.000535011
0.00512915 0.00062708 -2.29212e-05
0.00062708 0.00013761 5.2834e-05
-2.29212e-05 5.2834e-05 0.000368845
-0.00201471 -0.000624899 5.39959e-05
-0.000624899 -0.000284242 -4.34466e-05
5.39959e-05 -4.34466e-05 -0.00412433
0.000591661 -1.78693e-05 3.98988e-05
-1.78693e-05 0.000222933 -8.47019e-06
3.98988e-05 -8.47019e-06 0.000108053
0.000972068 -4.14132e-05 6.29339e-05
-4.14132e-05 -0.000101286 -2.7666e-05
6.29339e-05 -2.7666e-05 -0.0009516
-0.00176914 0.000200196 -0.000104564
0.000200196 0.000416258 -1.97951e-05
-0.000104564 -1.97951e-05 -0.000275145
0.000615668 0.000963054 -9.04487e-05
0.000963054 -0.000448109 0.000127402
-9.04487e-05 0.000127402 7.52867e-05
0.00821846 -0.000239036 1.45684e-05
-0.000239036 0.00374985 -2.6887e-05
1.45684e-05 -2.6887e-05 0.000916633
0.00312778 -0.000323948 -7.51958e-05
-0.000323948 0.000566274 6.84814e-05
-7.51958e-05 6.84814e-05 0.000225133
-0.00107752 -3.39883e-06 -2.51205e-06
-3.39883e-06 -0.000545076 1.21058e-05
-2.51205e-06 1.21058e-05 -0.000685635
6.14682e-05 -0.000123203 8.94688e-07
-0.000123203 0.000148108 -3.64616e-07
8.94688e-07 -3.64616e-07 -6.72443e-05
0.000716976 -0.000200034 1.81135e-05
-0.000200034 0.000233944 -7.52163e-06
1.81135e-05 -7.52163e-06 9.25737e-05
-0.000296709 -5.46395e-05 -3.50756e-06
-5.46395e-05 -0.00026763 4.84375e-06
-3.50756e-06 4.84375e-06 -0.000389356
-0.000359316 -9.96031e-05 3.41078e-07
-9.96031e-05 -0.000284426 -3.37133e-06
3.41078e-07 -3.37133e-06 -0.00054248
0.00221382 -0.000358435 2.37548e-05
-0.000358435 0.000715758 -5.61518e-06
2.37548e-05 -5.61518e-06 0.000472109
0.00274803 -0.000337815 -5.60423e-06
-0.000337815 0.00118815 1.27523e-06
-5.60423e-06 1.27523e-06 0.000977774
0.00166621 -0.000262586 2.59932e-06
-0.000262586 0.000606957 8.20168e-07
2.59932e-06 8.20168e-07 0.000296458
0.000755422 -0.000249129 5.68635e-06
-0.000249129 -8.36383e-05 -4.37264e-06
5.68635e-06 -4.37264e-06 -0.000377241
0.00120396 -0.000209289 -4.90284e-06
-0.000209289 0.000277411 7.01521e-07
-4.90284e-06 7.01521e-07 5.53424e-05
0.00211221 -0.000322457 1.76079e-06
-0.000322457 0.00067443 1.43792e-08
1.76079e-06 1.43792e-08 0.000402022
0.00178108 -0.00031658 3.38805e-06
-0.00031658 0.000351267 -4.57964e-06
3.38805e-06 -4.57964e-06 9.18538e-05
0.00159167 -0.00027822 8.78593e-07
-0.00027822 0.000164345 -3.79134e-06
8.78593e-07 -3.79134e-06 -4.30863e-05
0.00261992 -0.000352588 -5.89068e-06
-0.000352588 0.000844953 6.91903e-06
-5.89068e-06 6.91903e-06 0.000610507
0.00183503 -0.000306314 -1.23514e-06
-0.000306314 0.000388859 -1.02397e-07
-1.23514e-06 -1.02397e-07 0.000139641
0.000378838 -0.000145624 4.21589e-06
-0.000145624 -0.000228419 -1.08139e-09
4.21589e-06 -1.08139e-09 -0.00039542
0.000950217 -0.000194755 2.208e-06
-0.000194755 7.29353e-05 -4.30291e-07
2.208e-06 -4.30291e-07 -0.000111647
0.00159375 -0.000256997 -1.71228e-06
-0.000256997 0.000405422 -1.48701e-06
-1.71228e-06 -1.48701e-06 0.000183731
0.00113515 -0.000177455 1.56835e-06
-0.000177455 0.00028371 -4.27779e-07
1.56835e-06 -4.27779e-07 0.00011668
0.00121728 -0.000192054 -1.60203e-06
-0.000192054 0.000307163 -1.28512e-06
-1.60203e-06 -1.28512e-06 0.000140883
0.000716848 -0.000157251 3.66879e-06
-0.000157251 1.25519e-05 -2.35416e-06
3.66879e-06 -2.35416e-06 -0.000138455
0.000716601 -1.11122e-05 1.7379e-06
-1.11122e-05 7.18188e-05 1.44925e-06
1.7379e-06 1.44925e-06 -4.48562e-05
0.000628902 -6.52252e-05 1.34981e-07
-6.52252e-05 3.43368e-05 7.6104e-07
1.34981e-07 7.6104e-07 -0.00010403
0.00120611 -0.000169351 1.88104e-06
-0.000169351 0.000363387 -1.58326e-06
1.88104e-06 -1.58326e-06 0.000199089
0.00060917 5.94514e-05 9.42182e-09
5.94514e-05 -7.86782e-06 2.26767e-06
9.42182e-09 2.26767e-06 -7.19214e-05
0.000746421 7.93313e-06 -4.05925e-07
7.93313e-06 8.01677e-05 -3.12041e-07
-4.05925e-07 -3.12041e-07 -1.57036e-05
0.000970984 -7.01365e-05 -5.49925e-07
-7.01365e-05 0.000221584 -7.64493e-07
-5.49925e-07 -7.64493e-07 0.000102232
0.000586326 5.54765e-05 -1.87971e-06
5.54765e-05 -3.20373e-05 5.3188e-06
-1.87971e-06 5.3188e-06 -5.25462e-05
0.000675554 4.12398e-05 -2.85852e-07
4.12398e-05 1.61985e-05 -1.88499e-07
-2.85852e-07 -1.88499e-07 -3.59481e-05
0.000798705 -9.5665e-06 5.32211e-08
-9.5665e-06 9.67311e-05 -1.30245e-06
5.32211e-08 -1.30245e-06 1.74648e-05
0.000697523 2.92162e-05 1.34264e-06
2.92162e-05 2.03571e-05 -1.79059e-06
1.34264e-06 -1.79059e-06 -2.67096e-05
0.000616132 5.03031e-05 2.4784e-08
5.03031e-05 -2.42332e-05 -3.98072e-09
2.4784e-08 -3.98072e-09 -4.19308e-05
0.00222102 7.72294e-05 -2.61527e-05
7.72294e-05 0.000905624 3.37397e-06
-2.61527e-05 3.37397e-06 0.000915161
0.000625997 4.39525e-05 8.51064e-07
4.39525e-05 -2.73694e-05 -3.73831e-06
8.51064e-07 -3.73831e-06 -4.24915e-05
0.00222683 6.80504e-05 2.07164e-06
6.80504e-05 0.00090158 1.51907e-07
2.07164e-06 1.51907e-07 0.000913199
0.00224074 5.86037e-05 1.98692e-05
5.86037e-05 0.000902899 -3.87659e-06
1.98692e-05 -3.87659e-06 0.000916284
0.00077186 2.44362e-05 -3.54057e-07
2.44362e-05 8.21521e-05 -6.23379e-07
-3.54057e-07 -6.23379e-07 -1.25965e-05
0.000784612 5.71858e-05 -8.17293e-07
5.71858e-05 8.81708e-05 -1.14287e-06
-8.17293e-07 -1.14287e-06 3.79919e-07
0.000687557 -6.43997e-06 -9.31525e-07
-6.43997e-06 5.22729e-06 -2.21016e-06
-9.31525e-07 -2.21016e-06 -4.60496e-05
0.000757323 5.07882e-05 -1.04987e-07
5.07882e-05 6.5008e-05 1.11041e-08
-1.04987e-07 1.11041e-08 -1.50423e-05
0.000622158 -3.25654e-05 -1.68083e-07
-3.25654e-05 -3.9228e-05 -4.2256e-06
-1.68083e-07 -4.2256e-06 -5.46746e-05
0.00069066 1.08899e-06 -1.14393e-07
1.08899e-06 7.91473e-06 -3.9995e-08
-1.14393e-07 -3.9995e-08 -4.03716e-05
0.00072305 3.08405e-05 -4.61808e-07
3.08405e-05 4.38256e-05 5.29928e-07
-4.61808e-07 5.29928e-07 -3.18665e-05
0.00229949 -4.64785e-05 -1.78817e-05
-4.64785e-05 0.000927066 -4.50685e-06
-1.78817e-05 -4.50685e-06 0.000942262
0.000638032 -2.49413e-05 -1.79971e-07
-2.49413e-05 -3.51962e-05 -3.55343e-08
-1.79971e-07 -3.55343e-08 -4.72658e-05
0.000672971 4.78263e-06 -3.22318e-07
4.78263e-06 -1.62978e-06 1.40454e-06
-3.22318e-07 1.40454e-06 -4.67724e-05
0.00220301 -3.36307e-05 -3.2323e-06
-3.36307e-05 0.000866719 1.06599e-07
-3.2323e-06 1.06599e-07 0.000884231
0.000646734 -1.78849e-05 1.68602e-07
-1.78849e-05 -3.36218e-05 3.7674e-06
1.68602e-07 3.7674e-06 -4.28382e-05
0.00212697 -2.09006e-05 9.00639e-06
-2.09006e-05 0.000819606 4.66152e-06
9.00639e-06 4.66152e-06 0.000838847
0.000888382 -5.60603e-05 6.37678e-06
-5.60603e-05 0.000132669 3.17441e-05
6.37678e-06 3.17441e-05 -0.000222749
0.00145871 -2.2978e-05 -7.94793e-06
-2.2978e-05 0.000102912 1.39591e-05
-7.94793e-06 1.39591e-05 -6.82514e-05
0.00137386 2.66185e-07 -3.85757e-07
2.66185e-07 0.000341107 -1.92517e-05
-3.85757e-07 -1.92517e-05 4.91809e-05
0.000762131 2.3817e-05 -1.64516e-07
2.3817e-05 6.97358e-05 -6.02359e-08
-1.64516e-07 -6.02359e-08 -2.11892e-05
0.000759098 -7.18203e-07 -2.20922e-08
-7.18203e-07 6.70483e-05 1.92889e-07
-2.20922e-08 1.92889e-07 -2.41504e-05
0.000703432 1.4755e-06 -1.52432e-06
1.4755e-06 3.74972e-05 -1.80095e-06
-1.52432e-06 -1.80095e-06 -5.61068e-05
0.000625132 -1.7557e-05 -6.79802e-07
-1.7557e-05 -9.96043e-06 -7.63752e-07
-6.79802e-07 -7.63752e-07 -9.97446e-05
0.000965237 7.86706e-05 -1.33726e-06
7.86706e-05 0.000197352 -4.17085e-07
-1.33726e-06 -4.17085e-07 9.08454e-05
0.000723955 -7.88102e-06 6.88755e-08
-7.88102e-06 3.60196e-05 -2.60595e-08
6.88755e-08 -2.60595e-08 -4.71024e-05
0.000728888 1.3987e-05 9.67726e-07
1.3987e-05 4.76679e-05 -4.75086e-07
9.67726e-07 -4.75086e-07 -4.79879e-05
0.000790579 2.85319e-05 -1.01638e-07
2.85319e-05 8.77152e-05 -3.87878e-08
-1.01638e-07 -3.87878e-08 -7.36965e-06
0.000882952 6.18884e-05 2.4429e-07
6.18884e-05 0.000138008 2.60146e-07
2.4429e-07 2.60146e-07 3.40635e-05
0.000922883 3.06343e-05 -6.87609e-07
3.06343e-05 0.000175645 2.05739e-07
-6.87609e-07 2.05739e-07 7.51548e-05
0.00208727 4.27457e-05 9.47208e-05
4.27457e-05 0.000676959 0.0001332
9.47208e-05 0.0001332 -0.000691672
0.00111712 4.93493e-05 8.20532e-06
4.93493e-05 0.000263907 3.23761e-05
8.20532e-06 3.23761e-05 -0.000862677
0.00259915 -1.71287e-06 -1.53155e-05
-1.71287e-06 0.000975442 -2.11722e-05
-1.53155e-05 -2.11722e-05 0.000363625
0.00674306 -0.000558048 -4.29321e-05
-0.000558048 0.000864488 -6.98485e-05
-4.29321e-05 -6.98485e-05 0.002205
-0.00995283 0.000340513 -5.30749e-05
0.000340513 -0.00349961 0.000126534
-5.30749e-05 0.000126534 -0.00499297
0.00488736 -0.000805297 -8.76781e-05
-0.000805297 0.00158142 5.06984e-05
-8.76781e-05 5.06984e-05 0.000774409
0.00877007 -0.000401537 -2.33889e-05
-0.000401537 0.00337062 -3.38277e-05
-2.33889e-05 -3.38277e-05 0.000782014
0.00300876 -0.000170689 -3.58783e-05
-0.000170689 0.000336895 4.80733e-05
-3.58783e-05 4.80733e-05 4.21861e-06
0.0105456 -0.000182836 4.36883e-05
-0.000182836 0.00480274 -1.61442e-05
4.36883e-05 -1.61442e-05 0.00164928
0.00136734 -0.000500351 3.21534e-05
-0.000500351 -0.000239706 2.57089e-05
3.21534e-05 2.57089e-05 -0.000878532
0.0017943 -0.00072358 -6.89629e-05
-0.00072358 -0.00198871 -0.000150645
-6.89629e-05 -0.000150645 -0.000480314
0.00399161 0.000127084 -8.92097e-05
0.000127084 0.000703033 -2.72369e-06
-8.92097e-05 -2.72369e-06 0.000312407
0.0084655 0.000278924 -7.30374e-06
0.000278924 0.00348375 3.24014e-05
-7.30374e-06 3.24014e-05 0.00111525
0.00841897 -0.00119771 -1.27428e-05
-0.00119771 0.00246515 -9.90392e-05
-1.27428e-05 -9.90392e-05 0.00256947
0.00444889 -0.00112168 3.37113e-05
-0.00112168 0.000580266 3.02396e-06
3.37113e-05 3.02396e-06 0.00218736
0.000475757 3.74399e-05 8.45801e-07
3.74399e-05 -2.71293e-05 8.06354e-07
8.45801e-07 8.06354e-07 -0.000103488
0.000927805 -9.10236e-06 -4.99132e-08
-9.10236e-06 0.000174662 7.31493e-07
-4.99132e-08 7.31493e-07 7.84793e-05
0.000759683 2.98825e-05 2.50637e-07
2.98825e-05 7.46694e-05 -7.65903e-08
2.50637e-07 -7.65903e-08 -3.66954e-05
0.000523577 3.29158e-05 -3.53984e-05
3.29158e-05 0.000250587 1.65201e-05
-3.53984e-05 1.65201e-05 -0.000225242
0.0010175 -6.98955e-05 -5.59069e-05
-6.98955e-05 0.000515112 -1.69361e-05
-5.59069e-05 -1.69361e-05 0.000481447
0.000618409 -5.54593e-06 4.15818e-07
-5.54593e-06 1.07011e-05 7.43765e-07
4.15818e-07 7.43765e-07 -9.76104e-05
5.37998e-05 1.397e-05 5.94422e-07
1.397e-05 -0.000222911 -3.8343e-06
5.94422e-07 -3.8343e-06 -0.000346298
0.000670103 4.85424e-05 -2.48711e-07
4.85424e-05 0.00010985 -2.25189e-06
-2.48711e-07 -2.25189e-06 7.48503e-06
0.000438069 3.62951e-05 -3.33094e-06
3.62951e-05 0.000155477 4.84997e-06
-3.33094e-06 4.84997e-06 3.10266e-05
2.89147e-05 -7.9962e-06 6.99899e-05
-7.9962e-06 0.000640638 -3.62944e-05
6.99899e-05 -3.62944e-05 -0.000406133
-0.00145048 -3.781e-06 -1.74122e-05
-3.781e-06 -0.00087861 1.08996e-05
-1.74122e-05 1.08996e-05 -0.000980801
0.00146803 0.000166883 -1.04135e-05
0.000166883 0.000757723 -3.29523e-05
-1.04135e-05 -3.29523e-05 0.00012159
0.00165529 -2.43595e-06 6.92137e-05
-2.43595e-06 0.000456362 8.52275e-06
6.92137e-05 8.52275e-06 -0.000338572
0.00111724 -1.85518e-05 1.30824e-05
-1.85518e-05 0.000272881 3.83529e-06
1.30824e-05 3.83529e-06 2.19415e-05
0.00116799 -1.91437e-05 -2.24921e-06
-1.91437e-05 8.72291e-05 -1.60443e-06
-2.24921e-06 -1.60443e-06 -4.22258e-05
-0.00199034 1.68733e-05 -7.72505e-06
1.68733e-05 -0.000642248 1.05386e-05
-7.72505e-06 1.05386e-05 -0.00110605
0.00281224 2.77025e-05 -5.79447e-06
2.77025e-05 0.000280749 -2.87034e-05
-5.79447e-06 -2.87034e-05 -1.72283e-05
0.00142295 7.76438e-06 -1.58885e-06
7.76438e-06 0.000372068 1.727e-05
-1.58885e-06 1.727e-05 0.000101871
0.0148662 -0.000691576 0.000109968
-0.000691576 0.0065775 -1.21932e-05
0.000109968 -1.21932e-05 0.0035431
0.00696098 0.000853355 -4.71503e-05
0.000853355 0.002063 -1.76124e-05
-4.71503e-05 -1.76124e-05 0.00186689
0.00332126 -0.0001381 -5.11486e-05
-0.0001381 0.00101508 8.55685e-05
-5.11486e-05 8.55685e-05 -0.000400678
-0.00618078 0.00121954 0.000235698
0.00121954 -0.00366984 -0.000197245
0.000235698 -0.000197245 -0.00167932
0.000553911 -5.33305e-05 -4.06225e-06
-5.33305e-05 0.000299782 -1.88859e-07
-4.06225e-06 -1.88859e-07 0.000144743
0.00158904 -3.8131e-05 -1.06235e-05
-3.8131e-05 0.000282647 3.72684e-06
-1.06235e-05 3.72684e-06 -0.000562324
-0.00229385 0.000243659 -0.000161734
0.000243659 0.000479943 7.12775e-05
-0.000161734 7.12775e-05 -7.57792e-05
0.00179288 -0.000286766 -1.94744e-05
-0.000286766 -6.92162e-05 2.92046e-05
-1.94744e-05 2.92046e-05 -0.00034122
0.008096 0.00126206 3.79879e-05
0.00126206 0.0027247 3.76776e-05
3.79879e-05 3.76776e-05 0.00331887
0.00730566 -0.000652735 6.13924e-05
-0.000652735 0.00303838 -3.53089e-05
6.13924e-05 -3.53089e-05 0.000490917
0.00124336 -0.000215907 9.23522e-06
-0.000215907 0.000189123 2.24693e-05
9.23522e-06 2.24693e-05 0.000335492
-0.00244614 -5.98688e-05 3.8623e-05
-5.98688e-05 0.000441238 -9.36755e-06
3.8623e-05 -9.36755e-06 -0.000690314
0.00589836 0.00104129 -0.00015058
0.00104129 0.00295322 7.42671e-05
-0.00015058 7.42671e-05 0.0030305
0.00272802 -0.000260346 -0.000125406
-0.000260346 0.000442109 8.89586e-05
-0.000125406 8.89586e-05 -0.00217238
0.0027074 -0.000732393 4.43324e-05
-0.000732393 0.000329006 -1.05606e-05
4.43324e-05 -1.05606e-05 -0.000205458
-0.000163756 -8.454e-05 1.42186e-06
-8.454e-05 3.71743e-05 1.15322e-05
1.42186e-06 1.15322e-05 -0.000162841
0.000422101 -0.000187821 -2.91851e-06
-0.000187821 9.97179e-05 2.20182e-06
-2.91851e-06 2.20182e-06 -7.89725e-05
0.00376943 -0.000442463 2.93982e-05
-0.000442463 0.00140156 2.29778e-06
2.93982e-05 2.29778e-06 0.00134291
-0.00187602 -1.06663e-05 -6.09241e-06
-1.06663e-05 -0.00106859 7.4786e-06
-6.09241e-06 7.4786e-06 -0.0013293
0.000689672 -0.000234719 3.5433e-06
-0.000234719 -3.27387e-05 -1.82782e-07
3.5433e-06 -1.82782e-07 -0.000283678
0.00121397 -0.000339553 5.6893e-06
-0.000339553 -6.49312e-05 6.37549e-07
5.6893e-06 6.37549e-07 -0.000255275
0.00224236 -0.000300959 -7.79835e-06
-0.000300959 0.000877726 1.87052e-06
-7.79835e-06 1.87052e-06 0.000584408
0.00122347 -0.000279411 -3.31713e-06
-0.000279411 0.000150271 -2.51752e-06
-3.31713e-06 -2.51752e-06 -0.000127987
0.00182076 -0.000364064 4.88841e-06
-0.000364064 0.000250878 -1.30441e-06
4.88841e-06 -1.30441e-06 4.89701e-05
0.00173315 -0.000292966 -3.28628e-06
-0.000292966 0.000457892 -8.23695e-07
-3.28628e-06 -8.23695e-07 0.000186687
0.00150902 -0.000295794 -7.97544e-08
-0.000295794 0.000191534 -2.80164e-06
-7.97544e-08 -2.80164e-06 -5.86522e-05
0.00177089 -0.000310745 1.18882e-06
-0.000310745 0.000193086 -4.58949e-06
1.18882e-06 -4.58949e-06 4.78513e-06
0.0015869 -0.000247116 -2.51822e-08
-0.000247116 0.000109382 -3.07881e-06
-2.51822e-08 -3.07881e-06 -5.87902e-05
0.001614 -0.000273305 3.67359e-07
-0.000273305 0.000202892 -8.1967e-07
3.67359e-07 -8.1967e-07 -1.20783e-05
0.00157881 -0.000277503 1.04126e-06
-0.000277503 0.000155827 -7.89728e-07
1.04126e-06 -7.89728e-07 -5.03423e-05
0.00182021 -0.000275116 -1.55919e-06
-0.000275116 0.000450811 5.46951e-06
-1.55919e-06 5.46951e-06 0.000243895
0.00165621 -0.000283018 5.87016e-07
-0.000283018 0.00031849 2.58174e-07
5.87016e-07 2.58174e-07 8.52051e-05
0.00188327 -0.00031157 -1.4591e-06
-0.00031157 0.000405457 -3.04212e-06
-1.4591e-06 -3.04212e-06 0.000150242
0.00100643 -0.000181457 2.37966e-06
-0.000181457 0.000157461 -1.04319e-06
2.37966e-06 -1.04319e-06 -9.88083e-06
0.000596897 -0.000159523 -8.92089e-07
-0.000159523 -0.000100408 -2.01261e-06
-8.92089e-07 -2.01261e-06 -0.000263932
0.00140113 -0.000226964 4.53759e-06
-0.000226964 0.00032639 -5.46963e-06
4.53759e-06 -5.46963e-06 0.000145435
0.000825008 -0.000105836 3.53639e-07
-0.000105836 0.00011216 1.01184e-06
3.53639e-07 1.01184e-06 -2.6692e-05
0.000892421 -0.000150347 1.28382e-07
-0.000150347 0.000148067 4.56228e-07
1.28382e-07 4.56228e-07 -1.40917e-05
0.000862037 -0.00016211 -1.06882e-06
-0.00016211 0.000106429 1.23577e-06
-1.06882e-06 1.23577e-06 -5.63747e-05
0.000584011 6.31682e-05 1.37182e-06
6.31682e-05 -1.43961e-05 3.50815e-06
1.37182e-06 3.50815e-06 -9.55032e-05
0.00079707 -3.3708e-05 3.63502e-07
-3.3708e-05 0.00012149 -8.05018e-09
3.63502e-07 -8.05018e-09 -7.70358e-07
0.000889926 -9.54568e-05 -1.28913e-06
-9.54568e-05 0.000185084 3.93486e-07
-1.28913e-06 3.93486e-07 4.43852e-05
0.00132629 8.31833e-05 -1.39124e-05
8.31833e-05 0.000405261 3.42181e-06
-1.39124e-05 3.42181e-06 0.000382369
0.00065774 3.70418e-05 -5.47843e-07
3.70418e-05 1.46948e-05 -5.2303e-07
-5.47843e-07 -5.2303e-07 -4.74099e-05
0.000803203 -2.68721e-05 -3.63576e-07
-2.68721e-05 0.000114133 -1.78224e-06
-3.63576e-07 -1.78224e-06 1.44671e-05
0.000775354 4.40276e-05 -2.5496e-05
4.40276e-05 8.42452e-05 3.34623e-06
-2.5496e-05 3.34623e-06 8.62934e-05
0.000994903 6.74463e-05 -7.21656e-06
6.74463e-05 0.000203563 2.00163e-07
-7.21656e-06 2.00163e-07 0.00018383
0.000690018 3.70726e-05 6.48012e-07
3.70726e-05 2.33605e-05 -2.12643e-06
6.48012e-07 -2.12643e-06 -2.85047e-05
0.000626358 5.20898e-05 7.05944e-07
5.20898e-05 -1.7839e-05 -3.8623e-06
7.05944e-07 -3.8623e-06 -3.5847e-05
0.00225184 7.87503e-05 1.92189e-06
7.87503e-05 0.00092418 1.675e-07
1.92189e-06 1.675e-07 0.000933351
0.00224275 6.92699e-05 2.33984e-05
6.92699e-05 0.000911629 -3.5607e-06
2.33984e-05 -3.5607e-06 0.000922984
0.000713979 1.12051e-05 -2.2738e-07
1.12051e-05 4.20743e-05 -8.83796e-07
-2.2738e-07 -8.83796e-07 -5.04596e-05
0.000792501 3.88668e-05 -4.21459e-07
3.88668e-05 9.13803e-05 -1.53425e-06
-4.21459e-07 -1.53425e-06 2.32272e-06
0.000742891 6.62859e-06 9.24992e-08
6.62859e-06 5.83736e-05 -1.66287e-08
9.24992e-08 -1.66287e-08 -3.12146e-05
0.000689915 -1.78666e-05 -1.12339e-06
-1.78666e-05 8.57983e-06 -2.37082e-06
-1.12339e-06 -2.37082e-06 -4.55192e-05
0.000761659 3.02448e-05 6.75849e-07
3.02448e-05 6.71122e-05 -6.98314e-09
6.75849e-07 -6.98314e-09 -1.45338e-05
0.00060832 -3.96815e-05 -2.25663e-07
-3.96815e-05 -4.10319e-05 -4.41642e-06
-2.25663e-07 -4.41642e-06 -5.97971e-05
0.000685605 -3.05312e-06 -1.52927e-07
-3.05312e-06 5.09592e-06 -2.66467e-08
-1.52927e-07 -2.66467e-08 -4.64515e-05
0.00077615 5.25096e-05 7.88572e-07
5.25096e-05 8.71094e-05 1.23543e-06
7.88572e-07 1.23543e-06 -8.31592e-07
0.0023964 -5.82176e-05 -2.31085e-05
-5.82176e-05 0.000988132 -4.31376e-06
-2.31085e-05 -4.31376e-06 0.00100099
0.000624598 -3.16985e-05 -3.35725e-07
-3.16985e-05 -3.80446e-05 -2.03469e-08
-3.35725e-07 -2.03469e-08 -5.33306e-05
0.000689039 1.27469e-06 5.38793e-07
1.27469e-06 7.42682e-06 2.30361e-06
5.38793e-07 2.30361e-06 -4.09091e-05
0.00228232 -4.55153e-05 -3.08406e-06
-4.55153e-05 0.000916534 1.37477e-07
-3.08406e-06 1.37477e-07 0.00093205
0.000638262 -2.4501e-05 2.11191e-07
-2.4501e-05 -3.50208e-05 3.94178e-06
2.11191e-07 3.94178e-06 -4.70023e-05
0.00219121 -3.25632e-05 1.30355e-05
-3.25632e-05 0.000859365 4.59195e-06
1.30355e-05 4.59195e-06 0.000877137
0.00245901 -2.7047e-05 6.66045e-05
-2.7047e-05 0.000784738 3.75106e-05
6.66045e-05 3.75106e-05 5.92043e-05
0.00100179 -5.15736e-05 6.50301e-07
-5.15736e-05 0.00018891 1.00915e-05
6.50301e-07 1.00915e-05 -0.00012709
0.00134743 -3.03398e-05 -1.30021e-05
-3.03398e-05 4.15625e-05 -8.44185e-06
-1.30021e-05 -8.44185e-06 -6.89545e-05
0.000820317 7.59804e-05 -2.62148e-06
7.59804e-05 0.000114355 -6.00588e-07
-2.62148e-06 -6.00588e-07 9.42664e-06
0.000829137 2.4443e-05 4.47736e-07
2.4443e-05 0.000105414 3.03296e-07
4.47736e-07 3.03296e-07 1.61658e-05
0.00068968 -7.51678e-06 6.34436e-07
-7.51678e-06 2.75777e-05 6.18536e-07
6.34436e-07 6.18536e-07 -6.2995e-05
0.000823413 -1.16902e-06 5.09216e-08
-1.16902e-06 9.8231e-05 -1.17457e-07
5.09216e-08 -1.17457e-07 9.89895e-06
0.000877661 3.40032e-05 -5.92161e-08
3.40032e-05 0.000138143 -2.33097e-07
-5.92161e-08 -2.33097e-07 4.12984e-05
0.000821605 5.85735e-05 4.19596e-07
5.85735e-05 0.000114404 7.58538e-07
4.19596e-07 7.58538e-07 1.10527e-05
0.000821328 4.55466e-05 -1.34747e-06
4.55466e-05 0.000114554 -2.11552e-06
-1.34747e-06 -2.11552e-06 5.98662e-06
0.000493314 -9.19679e-06 -4.69162e-07
-9.19679e-06 -7.5697e-05 -5.65714e-07
-4.69162e-07 -5.65714e-07 -0.000172474
0.000827234 8.24597e-05 4.47927e-07
8.24597e-05 0.000112578 -3.0528e-07
4.47927e-07 -3.0528e-07 1.35281e-05
0.00078439 -1.76167e-05 1.45395e-06
-1.76167e-05 6.42988e-05 -4.38325e-08
1.45395e-06 -4.38325e-08 -2.58452e-05
0.000826481 2.85942e-05 -2.86402e-07
2.85942e-05 0.000115995 9.86296e-08
-2.86402e-07 9.86296e-08 1.93005e-05
0.00130869 6.387e-05 4.54146e-06
6.387e-05 0.000424502 3.54514e-06
4.54146e-06 3.54514e-06 0.000331963
0.00113334 -0.000454721 6.55871e-05
-0.000454721 0.00145816 9.99539e-05
6.55871e-05 9.99539e-05 0.000890882
0.00247423 7.21508e-05 7.28413e-06
7.21508e-05 0.000888008 3.34183e-05
7.28413e-06 3.34183e-05 -0.000529637
0.00144761 6.53155e-05 -9.37475e-06
6.53155e-05 0.000356249 -4.64921e-05
-9.37475e-06 -4.64921e-05 -0.000803804
0.00615472 -0.00095316 -0.000120795
-0.00095316 0.000353052 -0.000103591
-0.000120795 -0.000103591 0.00190032
0.00406482 -0.000279869 3.40652e-06
-0.000279869 0.000438141 9.07749e-05
3.40652e-06 9.07749e-05 -0.000186207
0.000564126 -0.000487158 -9.1738e-05
-0.000487158 0.000458819 8.00254e-05
-9.1738e-05 8.00254e-05 -0.00251941
0.00271956 -0.000180891 -5.64921e-05
-0.000180891 0.000418788 8.38757e-05
-5.64921e-05 8.38757e-05 -8.59665e-05
0.00392999 -8.93241e-05 1.40862e-05
-8.93241e-05 0.000693589 3.9672e-05
1.40862e-05 3.9672e-05 0.000485597
-0.000828309 -0.00111786 3.27358e-05
-0.00111786 -0.00151616 4.72695e-05
3.27358e-05 4.72695e-05 0.000249184
0.00556648 0.000393225 4.27082e-06
0.000393225 0.00285776 6.16726e-06
4.27082e-06 6.16726e-06 -0.000243598
0.00146852 -0.000617362 -1.46848e-05
-0.000617362 -0.0012924 2.17224e-05
-1.46848e-05 2.17224e-05 -0.0010945
0.0017713 0.000285268 -2.06272e-05
0.000285268 -0.000162159 8.22976e-06
-2.06272e-05 8.22976e-06 -0.000369204
0.00816925 8.87822e-05 -3.8233e-05
8.87822e-05 0.00399691 2.76089e-05
-3.8233e-05 2.76089e-05 0.00153488
0.000276605 -0.000915448 -7.35131e-05
-0.000915448 -0.000767059 -7.90216e-05
-7.35131e-05 -7.90216e-05 -0.000229283
0.000485787 0.000185352 3.50873e-07
0.000185352 -4.89817e-05 -4.5784e-06
3.50873e-07 -4.5784e-06 -0.000132793
0.000837205 5.17474e-05 6.10914e-06
5.17474e-05 0.000167997 -8.38219e-08
6.10914e-06 -8.38219e-08 9.20308e-05
0.00102644 1.49833e-05 -3.35853e-07
1.49833e-05 0.000233712 9.41882e-07
-3.35853e-07 9.41882e-07 0.000136766
-4.17431e-05 -3.8008e-07 -0.000120466
-3.8008e-07 0.000502843 -2.51939e-05
-0.000120466 -2.51939e-05 -0.000496606
-0.00100587 6.99511e-05 7.89501e-06
6.99511e-05 -0.000630182 -8.7705e-06
7.89501e-06 -8.7705e-06 -0.000758312
0.000796929 8.16344e-05 3.39359e-06
8.16344e-05 0.000184151 -3.51779e-06
3.39359e-06 -3.51779e-06 7.49996e-05
0.000733762 0.000157066 5.59206e-06
0.000157066 0.000240036 2.73412e-06
5.59206e-06 2.73412e-06 0.000125198
0.000759107 0.000196795 -3.74914e-06
0.000196795 0.00035848 -2.66638e-05
-3.74914e-06 -2.66638e-05 -0.000162878
0.000362321 0.000320739 1.6594e-05
0.000320739 -0.000190364 3.35817e-06
1.6594e-05 3.35817e-06 -0.000410414
0.000368222 5.57799e-05 0.000116251
5.57799e-05 0.00204285 5.47315e-06
0.000116251 5.47315e-06 0.000959212
0.00155775 -2.18801e-05 -6.58722e-06
-2.18801e-05 0.000466238 9.60974e-06
-6.58722e-06 9.60974e-06 -0.000207721
0.000786169 -1.62192e-05 2.71156e-06
-1.62192e-05 9.3301e-05 2.10877e-06
2.71156e-06 2.10877e-06 -0.000134554
0.00141463 -8.82498e-05 -3.74499e-05
-8.82498e-05 0.00082442 7.29197e-06
-3.74499e-05 7.29197e-06 0.000675529
0.000901028 -0.000160694 -1.81462e-05
-0.000160694 -0.000892925 -1.42776e-05
-1.81462e-05 -1.42776e-05 -0.000842076
0.00175446 -3.5602e-05 -8.4011e-05
-3.5602e-05 0.000422278 2.61404e-05
-8.4011e-05 2.61404e-05 -0.000443673
-0.00109017 -0.000732654 5.25647e-05
-0.000732654 -0.000561928 -5.19191e-05
5.25647e-05 -5.19191e-05 -0.00343482
-0.00350489 0.000764375 6.45556e-05
0.000764375 -0.00350182 -7.82372e-05
6.45556e-05 -7.82372e-05 -0.00274274
0.0014711 0.000473246 -0.00010087
0.000473246 0.0019278 9.24772e-05
-0.00010087 9.24772e-05 0.00178482
0.00196288 -0.000100216 -1.40926e-06
-0.000100216 0.000364395 1.7373e-06
-1.40926e-06 1.7373e-06 0.00064905
0.0014838 0.000153866 9.39019e-06
0.000153866 0.00210968 7.89419e-06
9.39019e-06 7.89419e-06 0.00146132
-0.00368694 0.000562476 3.20848e-05
0.000562476 -0.00120237 4.0929e-06
3.20848e-05 4.0929e-06 -0.00186445
0.00386887 -0.00079185 6.17881e-06
-0.00079185 0.00121592 -9.87982e-07
6.17881e-06 -9.87982e-07 0.000269557
0.00952059 -5.37208e-05 3.39983e-06
-5.37208e-05 0.00363028 -5.59532e-06
3.39983e-06 -5.59532e-06 0.00183195
0.00126759 -0.000312915 3.66976e-06
-0.000312915 5.3304e-05 1.87147e-05
3.66976e-06 1.87147e-05 0.000152681
-0.00681241 0.000221908 -0.000117095
0.000221908 -0.00333019 -2.50445e-07
-0.000117095 -2.50445e-07 -0.00371682
0.0084198 7.58259e-06 -3.37083e-05
7.58259e-06 0.00269783 1.74292e-05
-3.37083e-05 1.74292e-05 0.0012319
0.00512082 -0.000882543 -8.30866e-07
-0.000882543 0.000647687 4.68209e-06
-8.30866e-07 4.68209e-06 -0.000193181
0.000344446 -0.000164285 -1.99091e-05
-0.000164285 9.29292e-05 1.45398e-05
-1.99091e-05 1.45398e-05 -0.000132811
0.00158811 -0.00030731 -2.50149e-06
-0.00030731 0.000220324 8.56133e-07
-2.50149e-06 8.56133e-07 0.000229843
0.00244631 -0.00034616 1.72047e-05
-0.00034616 0.000455325 -1.92736e-06
1.72047e-05 -1.92736e-06 0.000474019
-0.000670546 -0.000121228 -5.7668e-06
-0.000121228 -0.000698225 7.28792e-07
-5.7668e-06 7.28792e-07 -0.000960763
0.00134035 -0.000344763 -3.3721e-06
-0.000344763 1.74834e-05 -8.28382e-07
-3.3721e-06 -8.28382e-07 -0.00018144
0.00208917 -0.000403415 1.67021e-06
-0.000403415 0.000254195 1.31631e-06
1.67021e-06 1.31631e-06 9.98136e-05
0.00158904 -0.000302814 -8.23426e-06
-0.000302814 0.000333836 -2.58973e-06
-8.23426e-06 -2.58973e-06 6.75371e-05
0.00150508 -0.000339119 1.32023e-06
-0.000339119 9.82052e-05 8.87505e-07
1.32023e-06 8.87505e-07 -0.000105689
0.0020418 -0.000334991 -1.69243e-06
-0.000334991 0.000258033 -3.43912e-06
-1.69243e-06 -3.43912e-06 0.000106071
0.00123239 -0.000275162 -5.91453e-06
-0.000275162 3.16887e-05 -5.45708e-08
-5.91453e-06 -5.45708e-08 -0.000210225
0.00164743 -0.000300084 -4.65457e-07
-0.000300084 0.000124385 3.89044e-07
-4.65457e-07 3.89044e-07 -6.21763e-05
0.00177642 -0.000264368 -5.10859e-07
-0.000264368 0.000129544 -4.84693e-06
-5.10859e-07 -4.84693e-06 -6.53076e-06
0.00158492 -0.000209515 -1.4928e-06
-0.000209515 5.53609e-05 -3.2323e-06
-1.4928e-06 -3.2323e-06 -7.78604e-05
0.00157171 -0.000234852 -4.10594e-07
-0.000234852 0.000132882 -2.39388e-06
-4.10594e-07 -2.39388e-06 -4.77243e-05
0.00151465 -0.00023864 2.99638e-07
-0.00023864 6.89068e-05 1.49175e-06
2.99638e-07 1.49175e-06 -9.70712e-05
0.00142412 -0.000245747 -2.75562e-06
-0.000245747 0.000125789 8.88822e-07
-2.75562e-06 8.88822e-07 -7.46458e-05
0.00149364 -0.000261123 2.60623e-06
-0.000261123 0.000140193 -1.15452e-06
2.60623e-06 -1.15452e-06 -7.00345e-05
0.00156744 -0.000276659 1.17689e-06
-0.000276659 0.000148438 2.03789e-06
1.17689e-06 2.03789e-06 -5.6414e-05
0.00109566 -0.000202345 1.35027e-06
-0.000202345 0.000124233 3.58071e-06
1.35027e-06 3.58071e-06 -6.08168e-05
0.0010847 -0.000220022 1.97948e-06
-0.000220022 5.22628e-05 -7.59899e-07
1.97948e-06 -7.59899e-07 -0.000147826
0.00062509 -0.000208123 -1.02575e-06
-0.000208123 -0.000245651 -4.52445e-06
-1.02575e-06 -4.52445e-06 -0.000477665
0.000901962 -0.000153182 -1.25731e-06
-0.000153182 0.000107096 3.57026e-07
-1.25731e-06 3.57026e-07 -4.21154e-05
0.00109025 -0.000186887 -2.21136e-07
-0.000186887 0.000199626 -1.37046e-06
-2.21136e-07 -1.37046e-06 3.19523e-05
0.000815017 -0.000173369 -2.11436e-06
-0.000173369 2.77182e-05 -5.33578e-06
-2.11436e-06 -5.33578e-06 -0.000133004
0.000714763 -2.97402e-05 -1.28277e-07
-2.97402e-05 4.68678e-05 3.78639e-06
-1.28277e-07 3.78639e-06 -5.21656e-05
0.000919032 -0.000111371 9.09765e-07
-0.000111371 0.000163736 4.52503e-07
9.09765e-07 4.52503e-07 2.41618e-05
0.000655936 -0.000120409 -1.57609e-06
-0.000120409 1.5227e-05 1.57483e-06
-1.57609e-06 1.57483e-06 -0.000141756
0.000491041 7.65018e-05 1.79256e-06
7.65018e-05 -6.05515e-05 5.75586e-06
1.79256e-06 5.75586e-06 -9.7271e-05
0.000683703 1.37017e-06 -5.57317e-07
1.37017e-06 3.66956e-05 -4.46129e-07
-5.57317e-07 -4.46129e-07 -4.47957e-05
0.000893984 -6.36835e-05 -5.65376e-08
-6.36835e-05 0.000178356 -1.69527e-06
-5.65376e-08 -1.69527e-06 5.14708e-05
0.00235289 0.000108698 -9.09948e-06
0.000108698 0.000999375 1.33626e-06
-9.09948e-06 1.33626e-06 0.00100049
0.000595137 7.01813e-05 -9.26597e-08
7.01813e-05 -1.22547e-05 -1.24017e-07
-9.26597e-08 -1.24017e-07 -4.02875e-05
0.000702921 1.65683e-05 1.39047e-06
1.65683e-05 3.75128e-05 -2.83851e-06
1.39047e-06 -2.83851e-06 -2.41228e-05
0.00229085 8.83696e-05 1.98941e-06
8.83696e-05 0.000954407 1.6803e-07
1.98941e-06 1.6803e-07 0.000961166
0.000627037 6.17595e-05 -1.21655e-07
6.17595e-05 -5.89347e-06 -4.19829e-06
-1.21655e-07 -4.19829e-06 -2.8142e-05
0.0022903 8.01981e-05 2.74028e-05
8.01981e-05 0.000947084 -3.19114e-06
2.74028e-05 -3.19114e-06 0.0009559
0.000873665 7.18196e-05 -6.64538e-07
7.18196e-05 0.000136468 9.82972e-08
-6.64538e-07 9.82972e-08 3.41498e-05
0.000774453 2.4069e-05 -9.94358e-08
2.4069e-05 7.72958e-05 -2.87169e-07
-9.94358e-08 -2.87169e-07 -1.70141e-05
0.00078562 1.91135e-05 -2.52773e-07
1.91135e-05 9.36623e-05 -1.93196e-06
-2.52773e-07 -1.93196e-06 -3.05435e-06
0.000687578 -2.2852e-05 -1.19563e-06
-2.2852e-05 1.13342e-05 -2.73683e-06
-1.19563e-06 -2.73683e-06 -4.59023e-05
0.000744849 1.11065e-05 6.39188e-07
1.11065e-05 6.21198e-05 2.94121e-08
6.39188e-07 2.94121e-08 -2.42962e-05
0.000707189 1.64463e-05 9.41975e-07
1.64463e-05 4.26947e-05 7.62253e-07
9.41975e-07 7.62253e-07 -5.03003e-05
0.000601792 -4.76632e-05 -3.04477e-07
-4.76632e-05 -3.74197e-05 -4.6592e-06
-3.04477e-07 -4.6592e-06 -5.93402e-05
0.000680414 -1.10394e-05 -1.28723e-07
-1.10394e-05 3.79916e-06 -3.6059e-08
-1.28723e-07 -3.6059e-08 -5.04124e-05
0.000748769 2.58916e-05 1.39136e-06
2.58916e-05 5.74233e-05 1.13002e-06
1.39136e-06 1.13002e-06 -2.213e-05
0.00247544 -6.94414e-05 -2.85702e-05
-6.94414e-05 0.00103967 -4.01745e-06
-2.85702e-05 -4.01745e-06 0.00105021
0.000609408 -3.81584e-05 -3.16727e-07
-3.81584e-05 -4.08228e-05 1.86898e-09
-3.16727e-07 1.86898e-09 -5.93367e-05
0.000687061 -1.0356e-06 9.66439e-07
-1.0356e-06 6.49083e-06 2.32592e-06
9.66439e-07 2.32592e-06 -4.51511e-05
0.00236744 -5.72935e-05 -3.37059e-06
-5.72935e-05 0.000970799 1.76651e-07
-3.37059e-06 1.76651e-07 0.000983996
0.000625307 -3.09605e-05 1.45628e-07
-3.09605e-05 -3.77471e-05 4.16731e-06
1.45628e-07 4.16731e-06 -5.28961e-05
0.00225863 -4.43319e-05 1.7167e-05
-4.43319e-05 0.000902247 4.48478e-06
1.7167e-05 4.48478e-06 0.000918123
-0.00333424 -4.48045e-05 2.05838e-05
-4.48045e-05 0.000137585 3.72399e-05
2.05838e-05 3.72399e-05 -0.00116506
0.00242054 -5.58573e-05 1.41603e-06
-5.58573e-05 0.000837582 1.20665e-05
1.41603e-06 1.20665e-05 0.000119236
0.00113343 -4.96087e-05 -3.88032e-06
-4.96087e-05 0.000239242 -1.09553e-05
-3.88032e-06 -1.09553e-05 -3.49106e-05
0.000703673 3.96372e-05 -6.57715e-07
3.96372e-05 4.51989e-05 4.92146e-07
-6.57715e-07 4.92146e-07 -5.47125e-05
0.00128623 0.000174123 -6.51924e-07
0.000174123 0.00038885 6.30262e-07
-6.51924e-07 6.30262e-07 0.000258794
0.000750998 3.99711e-05 -1.82016e-06
3.99711e-05 7.99102e-05 -2.22895e-07
-1.82016e-06 -2.22895e-07 -2.91749e-05
0.000949805 -5.71337e-06 6.25118e-07
-5.71337e-06 0.000167481 -5.37594e-08
6.25118e-07 -5.37594e-08 8.03335e-05
0.00102166 6.6983e-05 1.54045e-06
6.6983e-05 0.000218651 4.95704e-07
1.54045e-06 4.95704e-07 0.000120746
0.000620345 1.10773e-05 2.92533e-07
1.10773e-05 -6.9031e-06 1.99366e-06
2.92533e-07 1.99366e-06 -0.000101747
0.000677391 2.36154e-05 -1.04535e-06
2.36154e-05 3.48983e-05 7.14047e-08
-1.04535e-06 7.14047e-08 -6.96018e-05
0.000774461 3.10159e-05 -7.65102e-08
3.10159e-05 8.63307e-05 -3.34997e-07
-7.65102e-08 -3.34997e-07 -1.99179e-05
0.00092338 7.14182e-05 5.66486e-07
7.14182e-05 0.000193395 -1.78521e-06
5.66486e-07 -1.78521e-06 6.60831e-05
0.000603707 0.000116748 3.52202e-06
0.000116748 -3.95632e-05 -5.9258e-06
3.52202e-06 -5.9258e-06 -0.000134582
0.000801304 5.04387e-05 3.74328e-07
5.04387e-05 0.000104946 -5.43041e-07
3.74328e-07 -5.43041e-07 3.42604e-06
0.000872562 6.7934e-05 7.51483e-07
6.7934e-05 0.00017994 1.51149e-06
7.51483e-07 1.51149e-06 8.42663e-05
-0.00506976 -0.000520792 -0.000168238
-0.000520792 -0.00179776 2.17785e-05
-0.000168238 2.17785e-05 -0.00232956
-0.00167585 -0.000390288 7.77088e-05
-0.000390288 0.000403131 3.36494e-05
7.77088e-05 3.36494e-05 -0.00035849
0.00283446 7.97111e-05 -7.95641e-05
7.97111e-05 0.00106692 -6.59643e-05
-7.95641e-05 -6.59643e-05 -0.000401666
-0.00641393 -0.00114513 0.000169826
-0.00114513 -0.00359583 0.000172222
0.000169826 0.000172222 -0.00169326
0.00827506 -0.000848663 -3.04721e-05
-0.000848663 0.00246215 3.91342e-05
-3.04721e-05 3.91342e-05 0.00256563
0.000268147 0.000645613 2.00376e-05
0.000645613 -9.97155e-05 -2.72482e-05
2.00376e-05 -2.72482e-05 -0.00303451
0.00369693 -8.80981e-05 -0.000141694
-8.80981e-05 0.000817994 6.40531e-05
-0.000141694 6.40531e-05 0.000120071
0.00285752 0.000225416 -2.36831e-05
0.000225416 0.000484702 1.16422e-05
-2.36831e-05 1.16422e-05 0.000165343
0.00669576 -0.00103717 -6.19224e-05
-0.00103717 0.00322526 3.64743e-05
-6.19224e-05 3.64743e-05 0.00346889
0.00120889 0.000379157 8.21704e-06
0.000379157 0.000720135 -2.75213e-06
8.21704e-06 -2.75213e-06 -0.00174802
0.00242022 0.000526053 -9.90659e-05
0.000526053 0.000727769 -7.03897e-05
-9.90659e-05 -7.03897e-05 9.43412e-05
0.00375784 0.000798778 -0.000174116
0.000798778 0.000772839 -7.57319e-05
-0.000174116 -7.57319e-05 -0.0013154
0.00199975 0.000439475 1.16784e-05
0.000439475 0.000479286 -1.59437e-05
1.16784e-05 -1.59437e-05 0.000301402
0.000732729 0.000188178 -4.85822e-06
0.000188178 8.06909e-05 1.40038e-06
-4.85822e-06 1.40038e-06 -2.25112e-06
0.00104753 5.27341e-05 4.79586e-07
5.27341e-05 0.000278398 -2.25599e-06
4.79586e-07 -2.25599e-06 0.000203396
-0.000429409 0.000155886 -3.23865e-05
0.000155886 -0.000169926 -2.92674e-05
-3.23865e-05 -2.92674e-05 -0.000589891
0.00209645 0.000249297 -8.6889e-06
0.000249297 0.000923586 -9.07043e-06
-8.6889e-06 -9.07043e-06 0.000798875
0.00116326 0.000390032 8.74286e-06
0.000390032 0.000120694 -2.61294e-06
8.74286e-06 -2.61294e-06 -9.43946e-05
0.002763 0.000605805 7.82444e-05
0.000605805 0.000315225 3.23422e-05
7.82444e-05 3.23422e-05 0.000275313
-0.00402975 -3.34822e-05 -0.000200765
-3.34822e-05 -0.00236506 -9.32818e-06
-0.000200765 -9.32818e-06 -0.00183744
-0.00124234 3.28455e-05 6.69931e-05
3.28455e-05 0.00131711 1.32022e-06
6.69931e-05 1.32022e-06 0.000105022
0.00168517 -4.83394e-05 -6.05951e-05
-4.83394e-05 0.000561073 9.6617e-06
-6.05951e-05 9.6617e-06 2.28846e-05
0.00264384 -0.000201878 -5.08607e-05
-0.000201878 0.000645323 -2.80906e-05
-5.08607e-05 -2.80906e-05 0.000917627
0.00288061 -0.00076499 -3.89382e-05
-0.00076499 0.000475806 1.80542e-06
-3.89382e-05 1.80542e-06 -0.00026473
0.00189105 0.000108789 -3.53961e-05
0.000108789 0.00233917 2.83618e-05
-3.53961e-05 2.83618e-05 0.0017504
0.000183862 -0.000374491 0.000103373
-0.000374491 -0.000500768 -8.88272e-05
0.000103373 -8.88272e-05 -0.00283593
0.00875914 0.000634483 8.64172e-07
0.000634483 0.00427524 6.44974e-06
8.64172e-07 6.44974e-06 0.00399158
0.00217771 -0.000455213 -1.17522e-05
-0.000455213 0.00041445 4.30587e-06
-1.17522e-05 4.30587e-06 0.000393263
-0.00109837 0.000355936 1.82932e-05
0.000355936 -0.00049312 -6.746e-06
1.82932e-05 -6.746e-06 -0.000806596
0.00376756 -1.69606e-05 -2.44466e-05
-1.69606e-05 0.000322959 3.512e-05
-2.44466e-05 3.512e-05 -0.00161759
0.00580895 -0.000864275 -3.07607e-05
-0.000864275 0.00143648 1.08897e-05
-3.07607e-05 1.08897e-05 0.000600602
-0.000656362 -0.000198001 2.77139e-05
-0.000198001 -0.000858978 -7.29731e-06
2.77139e-05 -7.29731e-06 -0.00109217
0.00831898 -0.000267875 3.94791e-05
-0.000267875 0.0021784 -2.0887e-05
3.94791e-05 -2.0887e-05 0.00105005
0.00367442 -0.000372005 4.01243e-05
-0.000372005 0.000306524 -2.41558e-05
4.01243e-05 -2.41558e-05 -0.000176206
-0.000602036 -0.000176531 -2.16075e-05
-0.000176531 -0.000969391 6.73159e-06
-2.16075e-05 6.73159e-06 -0.0008904
0.000970274 -0.000275044 -3.86583e-06
-0.000275044 -0.00033134 -8.74838e-07
-3.86583e-06 -8.74838e-07 -0.000287532
0.00249812 -0.000367871 1.71216e-05
-0.000367871 0.000325026 -1.40035e-05
1.71216e-05 -1.40035e-05 0.000349924
0.0011241 -0.000325897 -1.06458e-05
-0.000325897 -7.3315e-05 -3.10841e-06
-1.06458e-05 -3.10841e-06 -0.00027515
0.00166018 -0.000373444 -7.88869e-07
-0.000373444 3.19431e-05 -8.19913e-08
-7.88869e-07 -8.19913e-08 -0.000113269
0.00208183 -0.000343928 -5.11037e-06
-0.000343928 0.000162598 5.42529e-08
-5.11037e-06 5.42529e-08 6.42177e-05
0.00132306 -0.000323398 2.41921e-08
-0.000323398 1.56862e-05 1.257e-06
2.41921e-08 1.257e-06 -0.000189697
0.00177713 -0.000319275 -2.37454e-06
-0.000319275 0.000118886 -6.26416e-07
-2.37454e-06 -6.26416e-07 -3.25067e-05
0.00183983 -0.00026239 -3.45146e-06
-0.00026239 6.94392e-05 -1.24e-06
-3.45146e-06 -1.24e-06 -3.25944e-05
0.00153241 -0.000289785 6.08405e-07
-0.000289785 6.07792e-05 3.86646e-06
6.08405e-07 3.86646e-06 -0.000124065
0.00170599 -0.000256339 -1.36861e-07
-0.000256339 9.57362e-05 2.86896e-07
-1.36861e-07 2.86896e-07 -3.86808e-05
0.0017731 -0.000216566 -8.10661e-07
-0.000216566 0.000101874 -1.96742e-06
-8.10661e-07 -1.96742e-06 1.12294e-06
0.00178541 -0.000195079 -5.88998e-07
-0.000195079 0.000159406 -1.07771e-06
-5.88998e-07 -1.07771e-06 4.81759e-05
0.00159018 -0.000207063 -2.34178e-06
-0.000207063 5.86785e-05 2.56219e-06
-2.34178e-06 2.56219e-06 -7.08583e-05
0.0017132 -0.000208735 4.68808e-07
-0.000208735 0.000169028 -5.21739e-06
4.68808e-07 -5.21739e-06 2.24779e-05
0.00165724 -0.000230321 -3.31892e-06
-0.000230321 0.000204322 -1.29366e-06
-3.31892e-06 -1.29366e-06 2.58063e-05
0.00160262 -0.000236527 1.37316e-06
-0.000236527 0.000148797 3.29174e-07
1.37316e-06 3.29174e-07 -3.20033e-05
0.00144268 -0.00022994 -4.00703e-08
-0.00022994 2.84404e-05 6.00869e-06
-4.00703e-08 6.00869e-06 -0.00013529
0.0010863 -0.000204846 -4.7054e-06
-0.000204846 1.25141e-06 3.20144e-06
-4.7054e-06 3.20144e-06 -0.000185598
0.00127219 -0.000232932 7.80897e-07
-0.000232932 4.48818e-05 -1.16236e-07
7.80897e-07 -1.16236e-07 -0.000152856
0.00136823 -0.000248868 2.69477e-06
-0.000248868 7.39208e-05 -9.25581e-07
2.69477e-06 -9.25581e-07 -0.000131586
0.00105291 -0.000176895 -1.37398e-06
-0.000176895 0.000141769 2.54651e-06
-1.37398e-06 2.54651e-06 -2.31382e-05
0.0012235 -0.000209932 7.32306e-07
-0.000209932 0.000190319 3.05611e-07
7.32306e-07 3.05611e-07 5.01259e-06
0.000420934 -0.000170082 -3.05111e-07
-0.000170082 -0.000306553 -5.40723e-06
-3.05111e-07 -5.40723e-06 -0.000499496
0.00075071 -9.1112e-05 -3.89552e-06
-9.1112e-05 4.40688e-05 3.17152e-06
-3.89552e-06 3.17152e-06 -6.9082e-05
0.00103852 -0.000165006 3.4649e-08
-0.000165006 0.000180997 -5.82855e-07
3.4649e-08 -5.82855e-07 3.01426e-05
0.00115771 -0.000191116 -1.21173e-06
-0.000191116 0.000233103 -2.29387e-06
-1.21173e-06 -2.29387e-06 6.51785e-05
0.000483412 4.64296e-05 8.78215e-07
4.64296e-05 -7.24407e-05 7.51476e-06
8.78215e-07 7.51476e-06 -0.000114989
0.00074659 -4.88878e-05 3.81943e-07
-4.88878e-05 6.71056e-05 3.18365e-07
3.81943e-07 3.18365e-07 -3.62396e-05
0.00103992 -0.000122068 9.32452e-07
-0.000122068 0.000232164 -2.91635e-08
9.32452e-07 -2.91635e-08 8.97575e-05
0.00258307 0.000113342 -3.98421e-05
0.000113342 0.00113457 2.33291e-06
-3.98421e-05 2.33291e-06 0.00113461
0.000568376 6.48779e-05 -6.68273e-08
6.48779e-05 -2.11691e-05 -3.64829e-07
-6.68273e-08 -3.64829e-07 -5.58531e-05
0.000769265 -3.9944e-05 2.49664e-06
-3.9944e-05 8.287e-05 -3.8827e-06
2.49664e-06 -3.8827e-06 -3.65591e-07
0.00164539 8.17188e-05 1.69443e-05
8.17188e-05 0.000591477 -2.48764e-07
1.69443e-05 -2.48764e-07 0.000591561
0.000629887 6.98974e-05 -1.50785e-06
6.98974e-05 7.696e-06 -5.14364e-06
-1.50785e-06 -5.14364e-06 -2.04769e-05
0.00237386 9.08681e-05 3.29542e-05
9.08681e-05 0.00100261 -2.76018e-06
3.29542e-05 -2.76018e-06 0.00100881
0.000897553 8.68727e-05 8.81556e-07
8.68727e-05 0.000144436 5.06627e-07
8.81556e-07 5.06627e-07 3.68118e-05
0.000731417 3.22893e-05 -2.35167e-07
3.22893e-05 5.07455e-05 4.88325e-07
-2.35167e-07 4.88325e-07 -4.46375e-05
0.000735629 -8.17238e-06 3.40439e-08
-8.17238e-06 6.14038e-05 -1.71476e-06
3.40439e-08 -1.71476e-06 -3.52942e-05
0.000869932 4.5539e-05 6.65736e-07
4.5539e-05 0.000132723 6.39821e-07
6.65736e-07 6.39821e-07 3.59569e-05
0.000741775 -6.01523e-06 3.03045e-07
-6.01523e-06 5.9053e-05 -8.51157e-09
3.03045e-07 -8.51157e-09 -2.978e-05
0.000678408 -2.3545e-05 -1.21499e-06
-2.3545e-05 1.09188e-05 -3.16234e-06
-1.21499e-06 -3.16234e-06 -5.09106e-05
0.000598824 -5.69148e-05 1.23663e-07
-5.69148e-05 -2.98266e-05 -5.07054e-06
1.23663e-07 -5.07054e-06 -5.5075e-05
0.000673816 -1.94165e-05 1.69358e-07
-1.94165e-05 4.12918e-06 -8.3281e-08
1.69358e-07 -8.3281e-08 -5.31427e-05
0.000703129 -2.09773e-05 1.52634e-07
-2.09773e-05 2.83742e-05 1.32128e-06
1.52634e-07 1.32128e-06 -4.99689e-05
0.00252704 -8.00439e-05 -3.39806e-05
-8.00439e-05 0.001076 -3.61647e-06
-3.39806e-05 -3.61647e-06 0.00108439
0.000597252 -4.48946e-05 -3.11511e-07
-4.48946e-05 -4.06612e-05 3.79365e-08
-3.11511e-07 3.79365e-08 -6.21314e-05
0.000678545 -3.41042e-06 1.75809e-06
-3.41042e-06 3.48593e-06 2.44022e-06
1.75809e-06 2.44022e-06 -5.09704e-05
0.00245461 -6.87673e-05 -3.26261e-06
-6.87673e-05 0.00102707 2.0459e-07
-3.26261e-06 2.0459e-07 0.00103782
0.000611816 -3.70746e-05 3.88392e-07
-3.70746e-05 -3.96351e-05 4.38237e-06
3.88392e-07 4.38237e-06 -5.79938e-05
0.00234412 -5.63755e-05 2.11712e-05
-5.63755e-05 0.000956646 4.33597e-06
2.11712e-05 4.33597e-06 0.000970164
0.000694033 0.00022985 -4.19511e-05
0.00022985 0.00111114 4.84884e-05
-4.19511e-05 4.84884e-05 0.0003581
-0.00112605 -0.000120256 3.89871e-06
-0.000120256 0.000942388 1.08578e-05
3.89871e-06 1.08578e-05 -0.00028112
0.00238974 -7.63615e-05 -5.9881e-05
-7.63615e-05 0.000935969 -1.24929e-05
-5.9881e-05 -1.24929e-05 0.000226851
0.000636256 9.79392e-06 1.38877e-06
9.79392e-06 5.25552e-06 4.12458e-08
1.38877e-06 4.12458e-08 -9.08501e-05
0.000726331 1.80042e-05 6.36511e-07
1.80042e-05 6.42058e-05 6.3734e-07
6.36511e-07 6.3734e-07 -4.36813e-05
0.00103925 0.00014969 -6.85362e-07
0.00014969 0.00025562 4.4205e-07
-6.85362e-07 4.4205e-07 0.000130392
0.00128634 0.000198931 1.01935e-06
0.000198931 0.000353857 -4.92927e-07
1.01935e-06 -4.92927e-07 0.000203513
0.000925858 0.000109731 -3.30498e-06
0.000109731 0.000205346 -1.45697e-06
-3.30498e-06 -1.45697e-06 7.15907e-05
0.00085906 6.97872e-05 1.50221e-06
6.97872e-05 0.000136874 1.49252e-06
1.50221e-06 1.49252e-06 3.04337e-05
0.000758192 3.77282e-05 1.70727e-06
3.77282e-05 7.75535e-05 1.54211e-06
1.70727e-06 1.54211e-06 -2.85341e-05
0.000707506 8.57284e-05 -1.86157e-06
8.57284e-05 7.18863e-05 -1.79966e-06
-1.86157e-06 -1.79966e-06 -4.98644e-05
-0.00035226 6.96959e-05 -7.26431e-07
6.96959e-05 -0.000539309 -1.32232e-07
-7.26431e-07 -1.32232e-07 -0.000672628
0.00110665 0.000179257 2.65805e-07
0.000179257 0.000206678 -4.29058e-06
2.65805e-07 -4.29058e-06 9.52729e-05
0.00222378 0.000390974 3.34839e-06
0.000390974 0.000527288 -1.2107e-05
3.34839e-06 -1.2107e-05 0.000348015
0.000647743 0.000120088 -3.25553e-06
0.000120088 9.33496e-06 -5.09179e-07
-3.25553e-06 -5.09179e-07 -8.51254e-05
0.000668759 2.28498e-05 6.83237e-07
2.28498e-05 4.42969e-05 -1.15831e-06
6.83237e-07 -1.15831e-06 -4.3868e-05
0.0117611 0.000247456 -6.8863e-05
0.000247456 0.00373244 1.33976e-05
-6.8863e-05 1.33976e-05 0.00242218
-0.0014531 -0.000434158 -9.66092e-05
-0.000434158 0.000280426 -2.39053e-05
-9.66092e-05 -2.39053e-05 -0.000441283
-3.63225e-06 -0.000516882 9.80193e-06
-0.000516882 0.000729607 -3.15685e-05
9.80193e-06 -3.15685e-05 -7.40205e-05
-0.00380575 -0.000466519 8.40155e-06
-0.000466519 -0.00164268 6.4789e-05
8.40155e-06 6.4789e-05 -0.00144812
0.00941615 0.000206268 5.44017e-05
0.000206268 0.0046238 -1.2703e-05
5.44017e-05 -1.2703e-05 0.0016698
0.001977 0.000279599 -3.28812e-05
0.000279599 0.000218116 -3.85712e-06
-3.28812e-05 -3.85712e-06 -2.58736e-06
0.00155693 0.000490622 -3.58396e-05
0.000490622 0.000179924 -1.40582e-05
-3.58396e-05 -1.40582e-05 -0.000332934
0.00837429 0.000128654 3.89001e-05
0.000128654 0.00293248 1.43045e-05
3.89001e-05 1.43045e-05 0.00124213
0.00462433 0.000798748 3.04973e-06
0.000798748 0.000762173 -3.02355e-05
3.04973e-06 -3.02355e-05 0.00015573
0.0020266 0.000498025 1.93531e-06
0.000498025 0.00028765 8.03791e-06
1.93531e-06 8.03791e-06 0.000125963
0.000928649 0.000325812 4.24983e-06
0.000325812 2.12289e-05 -3.91633e-06
4.24983e-06 -3.91633e-06 -0.000154926
0.00102748 0.000186951 -1.41306e-05
0.000186951 0.000245939 9.53315e-06
-1.41306e-05 9.53315e-06 0.000165655
0.00186083 0.000462198 -2.61963e-05
0.000462198 0.000357022 -1.44491e-05
-2.61963e-05 -1.44491e-05 0.000160242
0.00207899 0.000560727 -1.37793e-05
0.000560727 -2.3627e-06 1.44734e-05
-1.37793e-05 1.44734e-05 -7.16887e-05
0.000467072 -0.000204292 -2.47179e-05
-0.000204292 -0.00228165 -6.66411e-06
-2.47179e-05 -6.66411e-06 -0.00271862
0.00232967 -0.000197976 2.31474e-06
-0.000197976 0.00135832 -1.03432e-05
2.31474e-06 -1.03432e-05 0.00131701
-0.00305798 4.05398e-06 5.40536e-05
4.05398e-06 0.000554849 -5.47997e-06
5.40536e-05 -5.47997e-06 -0.000830035
0.00259106 -0.000538948 -4.7535e-05
-0.000538948 0.000554618 5.24305e-06
-4.7535e-05 5.24305e-06 0.000465789
0.00369072 -0.000789277 8.38838e-06
-0.000789277 0.000862582 -1.40813e-05
8.38838e-06 -1.40813e-05 -0.000311029
0.00110286 -0.000198952 8.46582e-05
-0.000198952 0.00114569 1.62633e-05
8.46582e-05 1.62633e-05 0.000646596
0.0101093 3.53981e-05 -7.81057e-05
3.53981e-05 0.0036514 3.96058e-05
-7.81057e-05 3.96058e-05 0.00191619
0.000688451 -0.00026755 -1.47645e-05
-0.00026755 -0.00028849 -1.53407e-06
-1.47645e-05 -1.53407e-06 -0.000416193
0.00725724 6.61584e-05 -1.13121e-05
6.61584e-05 0.00159779 2.35164e-05
-1.13121e-05 2.35164e-05 0.000676712
0.00440116 -0.000465033 5.80881e-05
-0.000465033 0.000397256 -3.99016e-07
5.80881e-05 -3.99016e-07 -0.000332734
0.00161132 -0.000260716 2.3005e-05
-0.000260716 0.000195116 -5.90681e-06
2.3005e-05 -5.90681e-06 -7.44815e-05
0.00312922 -0.000131477 -7.31598e-05
-0.000131477 0.0003944 -1.20637e-05
-7.31598e-05 -1.20637e-05 0.000109412
-0.000590344 -0.000196384 -1.9562e-05
-0.000196384 -0.00117334 4.9502e-06
-1.9562e-05 4.9502e-06 -0.00109729
0.00152568 -0.000327815 6.37435e-07
-0.000327815 -0.000172486 -8.54164e-07
6.37435e-07 -8.54164e-07 -0.000154836
0.00192589 -0.000249085 6.8356e-06
-0.000249085 -4.11027e-05 -5.40501e-06
6.8356e-06 -5.40501e-06 -1.1994e-05
0.00141331 -0.000356742 -9.19544e-07
-0.000356742 -9.34506e-05 1.12483e-07
-9.19544e-07 1.12483e-07 -0.000233347
0.00179456 -0.00031769 -1.35684e-06
-0.00031769 3.20691e-05 -1.52015e-07
-1.35684e-06 -1.52015e-07 -6.36489e-05
0.00197312 -0.00023449 -2.27326e-06
-0.00023449 5.76715e-05 1.37685e-06
-2.27326e-06 1.37685e-06 1.07e-05
0.00145308 -0.000299094 -2.19339e-06
-0.000299094 -5.11805e-05 2.56308e-06
-2.19339e-06 2.56308e-06 -0.000201559
0.00180918 -0.000259684 4.64075e-07
-0.000259684 5.3424e-05 1.26399e-06
4.64075e-07 1.26399e-06 -4.81874e-05
0.0017652 -0.00021541 -7.11894e-07
-0.00021541 3.53775e-05 9.39356e-07
-7.11894e-07 9.39356e-07 -4.32818e-05
0.0016401 -0.000249027 1.74566e-06
-0.000249027 6.37186e-05 4.7269e-06
1.74566e-06 4.7269e-06 -6.91565e-05
0.00172487 -0.000216017 6.61143e-08
-0.000216017 7.56099e-05 1.19727e-06
6.61143e-08 1.19727e-06 -2.60281e-05
0.00193931 -0.000206712 1.31931e-06
-0.000206712 0.000216671 -3.06268e-07
1.31931e-06 -3.06268e-07 0.000122576
0.001713 -0.000195056 -3.65204e-06
-0.000195056 0.000113289 3.17696e-06
-3.65204e-06 3.17696e-06 4.5631e-06
0.00174517 -0.000194675 2.6445e-06
-0.000194675 0.000166715 -3.16297e-06
2.6445e-06 -3.16297e-06 4.14329e-05
0.00159495 -0.000205123 3.41964e-08
-0.000205123 6.13525e-05 7.21123e-06
3.41964e-08 7.21123e-06 -6.46183e-05
0.00170604 -0.000209254 8.15176e-07
-0.000209254 0.000165329 -8.39776e-07
8.15176e-07 -8.39776e-07 1.83911e-05
0.00162764 -0.000198563 -1.69186e-06
-0.000198563 0.000163849 -2.48898e-06
-1.69186e-06 -2.48898e-06 8.16784e-06
0.00135526 -0.000202503 -7.11446e-06
-0.000202503 8.30242e-05 4.54201e-08
-7.11446e-06 4.54201e-08 -8.7527e-05
0.00167371 -0.00023156 6.15547e-07
-0.00023156 0.000215154 -4.46019e-07
6.15547e-07 -4.46019e-07 3.59428e-05
0.00163107 -0.000238375 1.84234e-06
-0.000238375 0.000163988 3.32411e-06
1.84234e-06 3.32411e-06 -1.70231e-05
0.00130525 -0.000201838 -4.81508e-06
-0.000201838 0.000198086 3.563e-06
-4.81508e-06 3.563e-06 2.65409e-05
0.00121431 -0.000213807 -9.36715e-07
-0.000213807 7.15537e-05 1.0648e-06
-9.36715e-07 1.0648e-06 -0.000116536
0.00109072 -0.000218343 3.72468e-06
-0.000218343 -5.24286e-05 -1.10687e-06
3.72468e-06 -1.10687e-06 -0.000247362
0.000740058 -0.000111412 -4.50181e-06
-0.000111412 5.1245e-06 3.94341e-06
-4.50181e-06 3.94341e-06 -0.000117824
0.00110373 -0.000181259 5.85983e-07
-0.000181259 0.000166502 -2.23955e-07
5.85983e-07 -2.23955e-07 1.13069e-06
0.00140306 -0.00022147 1.34688e-06
-0.00022147 0.000285534 -2.99835e-06
1.34688e-06 -2.99835e-06 9.94147e-05
0.000480428 -1.10981e-05 -6.09368e-06
-1.10981e-05 -9.35805e-05 8.57251e-06
-6.09368e-06 8.57251e-06 -0.000141387
0.000815006 -0.000101923 -9.23694e-08
-0.000101923 7.96416e-05 1.76899e-07
-9.23694e-08 1.76899e-07 -3.49917e-05
0.00112563 -0.000168493 1.19703e-06
-0.000168493 0.000226709 -1.44014e-06
1.19703e-06 -1.44014e-06 7.58162e-05
0.00299413 0.000131793 -5.0967e-05
0.000131793 0.00137142 2.24205e-06
-5.0967e-05 2.24205e-06 0.00136664
0.000567911 2.75508e-05 3.76432e-07
2.75508e-05 -2.94592e-05 -4.01217e-07
3.76432e-07 -4.01217e-07 -7.09226e-05
0.000812871 -8.87698e-05 3.59131e-06
-8.87698e-05 0.000102237 -3.18567e-06
3.59131e-06 -3.18567e-06 -3.05136e-06
0.00269935 0.000113844 3.30708e-06
0.000113844 0.00119935 2.62309e-07
3.30708e-06 2.62309e-07 0.00119939
0.000643281 5.46236e-05 1.4179e-06
5.46236e-05 1.89751e-05 -6.17772e-06
1.4179e-06 -6.17772e-06 -1.51807e-05
0.0025208 0.000101055 4.15803e-05
0.000101055 0.0010924 -2.40139e-06
4.15803e-05 -2.40139e-06 0.00109606
0.000956337 0.000161443 9.28061e-07
0.000161443 0.000156455 -1.31604e-06
9.28061e-07 -1.31604e-06 1.70607e-05
0.000826787 0.000115176 6.6218e-07
0.000115176 0.000111526 -6.97317e-08
6.6218e-07 -6.97317e-08 -1.7725e-06
0.000626117 6.39617e-06 -7.49105e-07
6.39617e-06 -4.35487e-06 -9.19189e-07
-7.49105e-07 -9.19189e-07 -0.000107816
0.000580665 6.06687e-07 3.92918e-07
6.06687e-07 -3.54732e-05 7.38914e-07
3.92918e-07 7.38914e-07 -0.000127255
0.000669291 -2.14689e-05 -5.0864e-08
-2.14689e-05 1.96872e-05 2.44281e-07
-5.0864e-08 2.44281e-07 -7.41132e-05
0.000662851 -2.23764e-05 -1.26758e-06
-2.23764e-05 6.61143e-06 -3.38352e-06
-1.26758e-06 -3.38352e-06 -6.29542e-05
0.000689097 -2.35353e-05 1.56558e-07
-2.35353e-05 2.43342e-05 1.65441e-06
1.56558e-07 1.65441e-06 -6.00694e-05
0.000656766 -2.7796e-05 3.38595e-07
-2.7796e-05 -5.71095e-08 -1.92442e-07
3.38595e-07 -1.92442e-07 -6.2065e-05
0.000595057 -6.47898e-05 4.50456e-07
-6.47898e-05 -2.17585e-05 -5.56788e-06
4.50456e-07 -5.56788e-06 -5.05737e-05
0.00256053 -9.03054e-05 -3.87521e-05
-9.03054e-05 0.00110218 -3.13783e-06
-3.87521e-05 -3.13783e-06 0.00110849
0.000587668 -5.4174e-05 2.75462e-08
-5.4174e-05 -3.71574e-05 2.9788e-08
2.75462e-08 2.9788e-08 -6.17956e-05
0.000652545 -1.70961e-05 1.97685e-06
-1.70961e-05 -7.26791e-06 2.67694e-06
1.97685e-06 2.67694e-06 -6.45372e-05
0.00251826 -7.95616e-05 -2.99237e-06
-7.95616e-05 0.00107039 2.27566e-07
-2.99237e-06 2.27566e-07 0.00107884
0.000596371 -4.29708e-05 6.46579e-07
-4.29708e-05 -4.15836e-05 4.61638e-06
6.46579e-07 4.61638e-06 -6.27759e-05
0.0024267 -6.78898e-05 2.6197e-05
-6.78898e-05 0.00101033 4.13017e-06
2.6197e-05 4.13017e-06 0.00102135
0.00983883 0.000332427 0.000131162
0.000332427 0.00276701 5.41197e-05
0.000131162 5.41197e-05 0.0018306
-0.00229762 -0.000381232 -6.34733e-05
-0.000381232 -0.00144034 -5.76439e-06
-6.34733e-05 -5.76439e-06 -0.0015634
-0.00303967 4.68126e-05 -4.94142e-05
4.68126e-05 -1.43448e-05 -2.13749e-05
-4.94142e-05 -2.13749e-05 -0.00149775
0.00068876 -9.16378e-06 3.06954e-06
-9.16378e-06 3.9032e-05 2.04804e-06
3.06954e-06 2.04804e-06 -6.62159e-05
0.0007979 0.000136802 -6.42005e-07
0.000136802 0.000124619 1.33959e-06
-6.42005e-07 1.33959e-06 3.82803e-06
0.00109632 0.000126578 5.0867e-07
0.000126578 0.000298572 1.17175e-08
5.0867e-07 1.17175e-08 0.000164923
0.00107462 0.000181276 -1.83546e-06
0.000181276 0.000237912 2.1878e-07
-1.83546e-06 2.1878e-07 9.12888e-05
0.0013906 0.000216984 1.48631e-05
0.000216984 0.000367077 -3.28144e-07
1.48631e-05 -3.28144e-07 0.000192267
0.00038208 0.000127058 -1.49436e-06
0.000127058 -0.000123037 -1.5224e-06
-1.49436e-06 -1.5224e-06 -0.00026486
0.000517489 8.98602e-05 -1.27791e-06
8.98602e-05 -2.8841e-05 -1.23465e-06
-1.27791e-06 -1.23465e-06 -0.000149117
0.000297023 0.000124641 3.54951e-07
0.000124641 -0.000187326 1.01148e-06
3.54951e-07 1.01148e-06 -0.000332864
0.00102541 0.000170916 -1.31085e-06
0.000170916 0.000168052 2.09888e-07
-1.31085e-06 2.09888e-07 5.24523e-05
0.000207417 0.000165705 1.9391e-06
0.000165705 -0.000375738 -1.18793e-06
1.9391e-06 -1.18793e-06 -0.000518455
0.00306268 0.000416819 -3.7251e-06
0.000416819 0.000985691 -4.01948e-06
-3.7251e-06 -4.01948e-06 0.000822272
0.00178066 0.000397101 -3.3092e-06
0.000397101 0.000170768 2.01742e-06
-3.3092e-06 2.01742e-06 7.39691e-06
0.00157314 0.000344631 4.5753e-06
0.000344631 0.000203268 -2.89782e-06
4.5753e-06 -2.89782e-06 3.75394e-05
0.000589558 0.000128108 -3.89266e-06
0.000128108 -2.54423e-06 5.44163e-06
-3.89266e-06 5.44163e-06 -9.71567e-05
0.00346098 0.000299754 1.81736e-06
0.000299754 -0.000125632 1.18246e-05
1.81736e-06 1.18246e-05 -0.000323657
0.00666459 0.000184068 2.88101e-05
0.000184068 0.00133192 2.55537e-05
2.88101e-05 2.55537e-05 -1.83532e-05
0.00613544 -0.000891562 7.71467e-06
-0.000891562 0.00325286 -4.90328e-05
7.71467e-06 -4.90328e-05 0.00301676
0.00523308 0.000574616 0.000308423
0.000574616 0.00136743 9.44905e-05
0.000308423 9.44905e-05 -0.00117797
0.00113584 0.000447559 2.66532e-05
0.000447559 -0.000279277 2.55102e-05
2.66532e-05 2.55102e-05 -0.000394391
0.00300914 0.000630842 -7.22264e-05
0.000630842 7.98733e-05 -2.34359e-05
-7.22264e-05 -2.34359e-05 -0.000302958
0.00317263 0.000555871 5.17372e-05
0.000555871 0.000552716 2.40813e-05
5.17372e-05 2.40813e-05 0.000567396
0.00251148 0.000528108 2.85479e-06
0.000528108 0.000488787 6.41476e-06
2.85479e-06 6.41476e-06 0.000347882
0.000679901 0.000287521 -2.84171e-06
0.000287521 -7.19219e-05 1.06665e-05
-2.84171e-06 1.06665e-05 -0.00023896
0.00266063 0.000620067 -8.62575e-05
0.000620067 0.000268523 -4.32434e-05
-8.62575e-05 -4.32434e-05 0.000161489
0.00323018 -0.000166752 -0.000123368
-0.000166752 0.000540603 5.07662e-06
-0.000123368 5.07662e-06 0.000178918
0.00938642 -0.000175151 4.27438e-06
-0.000175151 0.00293826 -3.69523e-06
4.27438e-06 -3.69523e-06 0.00228704
-0.00761809 -0.000260441 0.000212605
-0.000260441 -0.00407089 -3.33496e-08
0.000212605 -3.33496e-08 -0.00390902
0.00148535 -0.000322327 -3.19997e-05
-0.000322327 2.70715e-05 9.14935e-06
-3.19997e-05 9.14935e-06 -5.15922e-05
0.00564945 -0.000530588 8.49087e-05
-0.000530588 0.00117192 1.2123e-05
8.49087e-05 1.2123e-05 0.00042435
0.00145432 -0.000383691 7.1668e-05
-0.000383691 -0.00136695 5.14616e-05
7.1668e-05 5.14616e-05 -0.0023034
0.00120736 -0.000210281 1.58107e-05
-0.000210281 -2.68601e-05 -8.3715e-07
1.58107e-05 -8.3715e-07 -0.000209012
0.00209891 -3.77196e-05 -4.80442e-06
-3.77196e-05 -0.000284165 6.39008e-06
-4.80442e-06 6.39008e-06 -0.000549598
0.00359403 -0.000223364 1.4484e-05
-0.000223364 0.00094521 -3.83066e-06
1.4484e-05 -3.83066e-06 0.000903821
0.00316768 -2.85949e-05 6.09192e-05
-2.85949e-05 0.000679446 -4.27291e-06
6.09192e-05 -4.27291e-06 0.000659254
0.000488946 -0.000288305 -9.27295e-06
-0.000288305 -0.000699337 4.49628e-06
-9.27295e-06 4.49628e-06 -0.00068833
0.00176872 -0.000253533 -5.86368e-07
-0.000253533 -0.000118607 1.19587e-06
-5.86368e-07 1.19587e-06 -0.000101797
0.00172854 -0.000144569 7.2922e-06
-0.000144569 -0.000110461 -7.39334e-07
7.2922e-06 -7.39334e-07 -8.57472e-05
0.00156617 -0.000296384 4.13263e-06
-0.000296384 -7.37881e-05 -7.69723e-07
4.13263e-06 -7.69723e-07 -0.000166063
0.00190238 -0.000233119 2.02769e-06
-0.000233119 2.97341e-05 8.44242e-07
2.02769e-06 8.44242e-07 -2.15693e-05
0.00183865 -0.000167739 3.4374e-07
-0.000167739 5.79766e-05 1.5169e-06
3.4374e-07 1.5169e-06 1.30185e-05
0.00178125 -0.000257456 7.0325e-06
-0.000257456 3.78685e-05 3.05044e-06
7.0325e-06 3.05044e-06 -6.33931e-05
0.00184293 -0.000215585 1.16093e-06
-0.000215585 8.59631e-05 4.03725e-07
1.16093e-06 4.03725e-07 7.28711e-06
0.00197906 -0.000181548 -3.35249e-07
-0.000181548 0.00021442 9.85948e-07
-3.35249e-07 9.85948e-07 0.000134724
0.00167573 -0.000214615 1.60112e-06
-0.000214615 4.94838e-05 3.76901e-06
1.60112e-06 3.76901e-06 -5.28972e-05
0.00177901 -0.000201819 -9.38727e-08
-0.000201819 0.000131843 5.15229e-07
-9.38727e-08 5.15229e-07 3.66106e-05
0.0016453 -0.0001868 4.2959e-06
-0.0001868 8.82758e-05 -1.75763e-06
4.2959e-06 -1.75763e-06 -2.28653e-05
0.00164665 -0.00019532 -3.81354e-06
-0.00019532 7.09428e-05 6.84781e-06
-3.81354e-06 6.84781e-06 -3.53248e-05
0.00179131 -0.000195244 -1.68732e-06
-0.000195244 0.000192644 -4.0705e-08
-1.68732e-06 -4.0705e-08 7.02413e-05
0.00170682 -0.000181212 6.93042e-07
-0.000181212 0.000195242 -1.51194e-06
6.93042e-07 -1.51194e-06 5.42114e-05
0.00170461 -0.000209816 1.19398e-06
-0.000209816 0.000164716 3.06801e-06
1.19398e-06 3.06801e-06 1.74058e-05
0.00167188 -0.000200806 8.27415e-07
-0.000200806 0.00018991 -7.2919e-07
8.27415e-07 -7.2919e-07 3.33777e-05
0.00159111 -0.000187522 -3.38842e-06
-0.000187522 0.000196656 -1.81598e-07
-3.38842e-06 -1.81598e-07 4.2547e-05
0.00105893 -0.00017597 -9.05754e-06
-0.00017597 -2.06865e-05 1.88088e-06
-9.05754e-06 1.88088e-06 -0.000178938
0.00152078 -0.000212953 -1.47156e-06
-0.000212953 0.000177152 1.19432e-08
-1.47156e-06 1.19432e-08 5.26844e-06
0.00170781 -0.000233488 4.02592e-06
-0.000233488 0.000236291 -3.23945e-08
4.02592e-06 -3.23945e-08 5.62618e-05
0.00091663 -0.00013984 -6.62226e-06
-0.00013984 4.86611e-05 5.70043e-06
-6.62226e-06 5.70043e-06 -8.43724e-05
0.00116196 -0.000190514 7.8907e-07
-0.000190514 0.000117015 1.1155e-06
7.8907e-07 1.1155e-06 -5.25039e-05
0.00133555 -0.000221931 2.78545e-06
-0.000221931 0.000137734 -3.2874e-07
2.78545e-06 -3.2874e-07 -5.14017e-05
0.000477142 -4.11718e-05 -9.44998e-06
-4.11718e-05 -0.000106353 9.67554e-06
-9.44998e-06 9.67554e-06 -0.000163982
0.000872289 -0.000124767 -9.25327e-10
-0.000124767 7.9717e-05 -2.84588e-07
-9.25327e-10 -2.84588e-07 -4.53664e-05
0.00113955 -0.000184539 2.9807e-06
-0.000184539 0.000182835 -3.17627e-06
2.9807e-06 -3.17627e-06 1.71407e-05
0.00354404 0.000143803 -7.65865e-05
0.000143803 0.00168445 2.45469e-06
-7.65865e-05 2.45469e-06 0.00167624
0.000601059 -1.82443e-05 4.17747e-07
-1.82443e-05 -2.74365e-05 -2.08068e-07
4.17747e-07 -2.08068e-07 -7.65948e-05
0.000900238 -0.000112107 4.98262e-06
-0.000112107 0.000126194 -3.37487e-06
4.98262e-06 -3.37487e-06 1.02359e-05
0.00316262 0.00012278 5.09624e-06
0.00012278 0.00146393 2.55061e-07
5.09624e-06 2.55061e-07 0.00146132
0.000662447 1.71629e-05 5.12415e-06
1.71629e-05 2.05767e-05 -7.21345e-06
5.12415e-06 -7.21345e-06 -2.03236e-05
0.00283097 0.000105931 6.24424e-05
0.000105931 0.00127148 -2.42906e-06
6.24424e-05 -2.42906e-06 0.00127363
0.00109425 0.000183617 -4.80987e-07
0.000183617 0.0002004 -5.00773e-06
-4.80987e-07 -5.00773e-06 3.70319e-05
0.00116896 0.000177958 5.25659e-07
0.000177958 0.000277863 2.31192e-07
5.25659e-07 2.31192e-07 0.000136379
0.000799619 9.97719e-05 -1.58003e-06
9.97719e-05 7.57544e-05 -2.11887e-06
-1.58003e-06 -2.11887e-06 -4.65355e-05
0.000731837 0.000131903 -1.01081e-07
0.000131903 6.55392e-05 4.31438e-07
-1.01081e-07 4.31438e-07 -5.26035e-05
0.000633503 2.6235e-05 -5.30987e-07
2.6235e-05 -2.78093e-07 -2.13022e-07
-5.30987e-07 -2.13022e-07 -0.000106627
0.000724156 3.36442e-05 -2.31091e-06
3.36442e-05 4.97557e-05 -3.03483e-06
-2.31091e-06 -3.03483e-06 -3.72483e-05
0.000608504 -3.61765e-05 2.55025e-07
-3.61765e-05 -1.61943e-05 1.56285e-06
2.55025e-07 1.56285e-06 -0.000108908
0.000655969 -2.44616e-05 3.34296e-07
-2.44616e-05 5.02127e-06 -3.14207e-07
3.34296e-07 -3.14207e-07 -6.5417e-05
0.000591674 -6.57672e-05 3.01274e-07
-6.57672e-05 -1.5829e-05 -6.12862e-06
3.01274e-07 -6.12862e-06 -4.85484e-05
0.00063664 -3.08915e-05 1.39019e-06
-3.08915e-05 -1.04258e-05 3.04211e-06
1.39019e-06 3.04211e-06 -7.25077e-05
0.000575548 -6.40452e-05 1.72674e-07
-6.40452e-05 -3.37023e-05 -2.26628e-08
1.72674e-07 -2.26628e-08 -6.21554e-05
0.00260505 -0.00010008 -4.42304e-05
-0.00010008 0.00113411 -2.61677e-06
-4.42304e-05 -2.61677e-06 0.00113838
0.002556 -8.9921e-05 -2.10625e-06
-8.9921e-05 0.00109909 2.20071e-07
-2.10625e-06 2.20071e-07 0.00110536
0.000580364 -5.01712e-05 9.94124e-07
-5.01712e-05 -4.2626e-05 4.89668e-06
9.94124e-07 4.89668e-06 -6.6508e-05
0.0024975 -7.88593e-05 3.15106e-05
-7.88593e-05 0.00105795 3.82375e-06
3.15106e-05 3.82375e-06 0.00106651
0.00280903 -8.06121e-06 -3.15915e-05
-8.06121e-06 -6.56011e-05 2.40686e-05
-3.15915e-05 2.40686e-05 -0.000120119
0.00158587 -0.000371803 3.14502e-05
-0.000371803 -0.00144226 1.38232e-05
3.14502e-05 1.38232e-05 -0.00239763
0.00464815 -0.000492973 -3.47679e-05
-0.000492973 0.00191716 -3.9247e-05
-3.47679e-05 -3.9247e-05 0.00203865
0.00174631 0.000256578 1.03871e-05
0.000256578 0.000437832 5.0493e-06
1.03871e-05 5.0493e-06 0.000248019
0.00128424 0.000147407 1.90763e-06
0.000147407 0.000402732 1.18636e-06
1.90763e-06 1.18636e-06 0.000268012
0.00090065 0.000166781 -1.4093e-06
0.000166781 0.000143681 2.16677e-06
-1.4093e-06 2.16677e-06 2.01458e-07
0.000713286 0.000155535 7.29566e-07
0.000155535 5.89556e-05 9.65417e-07
7.29566e-07 9.65417e-07 -8.89602e-05
0.00109726 0.000195953 -1.74919e-07
0.000195953 0.000207366 -2.94755e-06
-1.74919e-07 -2.94755e-06 3.30051e-05
0.000871599 0.000197991 2.50058e-07
0.000197991 9.05275e-06 -5.35283e-08
2.50058e-07 -5.35283e-08 -0.000139901
0.000881859 0.000175429 -1.45417e-06
0.000175429 0.000128937 -3.17048e-07
-1.45417e-06 -3.17048e-07 -2.83176e-05
0.00097627 0.000165175 -6.26542e-07
0.000165175 0.000145303 5.51753e-06
-6.26542e-07 5.51753e-06 2.56896e-05
0.00105045 0.000227258 7.71462e-07
0.000227258 8.20105e-05 -3.28349e-07
7.71462e-07 -3.28349e-07 -6.61922e-05
0.00229121 0.000361779 1.77598e-06
0.000361779 0.000573827 6.46431e-06
1.77598e-06 6.46431e-06 0.000414609
0.00171483 0.000356997 -2.29423e-06
0.000356997 0.000144283 -4.99435e-07
-2.29423e-06 -4.99435e-07 -2.44672e-05
0.00137756 0.000305871 1.02221e-05
0.000305871 -3.77137e-05 7.70744e-06
1.02221e-05 7.70744e-06 -0.000147941
0.00119587 0.000359247 -1.51749e-06
0.000359247 -0.000141585 -2.81374e-06
-1.51749e-06 -2.81374e-06 -0.000306034
0.00061441 0.00027223 1.92754e-06
0.00027223 -0.000284099 3.80007e-06
1.92754e-06 3.80007e-06 -0.000432291
0.000791272 0.00021033 1.47559e-05
0.00021033 -0.000268169 1.42229e-05
1.47559e-05 1.42229e-05 -0.00026527
0.0052244 0.000454997 -2.97092e-05
0.000454997 0.000589901 -8.58462e-07
-2.97092e-05 -8.58462e-07 0.000278382
0.00185919 8.04941e-06 0.000115117
8.04941e-06 -0.00102004 2.48225e-05
0.000115117 2.48225e-05 -0.00237401
0.00172469 0.000557149 4.39194e-05
0.000557149 -0.000522078 -6.01884e-07
4.39194e-05 -6.01884e-07 -0.00101065
0.00187043 0.000426313 -2.19538e-05
0.000426313 0.000136026 -2.34282e-06
-2.19538e-05 -2.34282e-06 0.00012155
0.00145648 0.000431863 -3.79877e-05
0.000431863 2.05335e-07 -2.33556e-05
-3.79877e-05 -2.33556e-05 -0.000140575
0.00237439 -0.00013508 1.55433e-05
-0.00013508 0.000229829 1.62253e-07
1.55433e-05 1.62253e-07 0.000170626
0.00120467 4.08795e-06 -9.65688e-06
4.08795e-06 -0.000457865 3.29257e-06
-9.65688e-06 3.29257e-06 -0.000643121
0.000662516 0.000450219 7.31314e-05
0.000450219 -0.00211577 -2.2266e-05
7.31314e-05 -2.2266e-05 -0.002766
0.000865919 -0.00015286 -8.40652e-06
-0.00015286 -0.000233365 1.96863e-05
-8.40652e-06 1.96863e-05 -0.00029835
0.00287125 -6.9075e-05 -6.58676e-06
-6.9075e-05 -3.9929e-05 2.86247e-05
-6.58676e-06 2.86247e-05 -0.000386062
0.00171124 -0.000151716 -4.78083e-06
-0.000151716 -2.90607e-05 1.70647e-06
-4.78083e-06 1.70647e-06 -3.60266e-05
0.00243631 -6.07323e-05 -5.39081e-06
-6.07323e-05 0.000284739 -2.01746e-06
-5.39081e-06 -2.01746e-06 0.00023895
0.00145131 -8.6056e-05 2.14892e-05
-8.6056e-05 -0.000237967 -1.19921e-06
2.14892e-05 -1.19921e-06 -0.000229118
0.00288399 -4.33916e-05 1.98563e-05
-4.33916e-05 0.000726113 1.56216e-07
1.98563e-05 1.56216e-07 0.000684101
0.0016755 -0.000260569 -8.03576e-06
-0.000260569 -0.00016097 4.02587e-06
-8.03576e-06 4.02587e-06 -0.000160012
0.00177411 -0.000152863 2.0737e-06
-0.000152863 -9.78752e-05 1.39281e-06
2.0737e-06 1.39281e-06 -8.09893e-05
0.00184022 -0.000162217 2.53127e-07
-0.000162217 2.03087e-05 2.3517e-07
2.53127e-07 2.3517e-07 8.31885e-06
0.00179098 -0.000229262 4.1125e-06
-0.000229262 -1.71064e-05 9.87639e-07
4.1125e-06 9.87639e-07 -7.32319e-05
0.00181739 -0.000179482 5.56969e-07
-0.000179482 3.86306e-05 1.10368e-07
5.56969e-07 1.10368e-07 -1.12429e-05
0.00185989 -0.000167405 7.91113e-07
-0.000167405 0.000123911 1.11214e-06
7.91113e-07 1.11214e-06 5.70853e-05
0.00191253 -0.000216345 1.28739e-06
-0.000216345 0.00013185 1.06546e-06
1.28739e-06 1.06546e-06 5.2937e-05
0.00186944 -0.000185 -1.03485e-06
-0.000185 0.00015284 4.15793e-08
-1.03485e-06 4.15793e-08 7.14742e-05
0.00166251 -0.000165467 2.35013e-06
-0.000165467 7.68216e-05 -2.83688e-07
2.35013e-06 -2.83688e-07 -2.32099e-05
0.00161578 -0.000197162 -2.70568e-06
-0.000197162 4.51488e-05 1.65634e-06
-2.70568e-06 1.65634e-06 -5.12668e-05
0.00165851 -0.000187095 4.52007e-07
-0.000187095 9.93278e-05 -4.90093e-07
4.52007e-07 -4.90093e-07 -1.18851e-05
0.00160337 -0.000169075 1.67463e-06
-0.000169075 0.000110417 -1.27723e-06
1.67463e-06 -1.27723e-06 -2.09871e-05
0.00183649 -0.000195577 -5.00653e-06
-0.000195577 0.000217948 4.33844e-06
-5.00653e-06 4.33844e-06 9.84639e-05
0.00172305 -0.000180386 -4.94114e-07
-0.000180386 0.000201551 -1.32579e-07
-4.94114e-07 -1.32579e-07 6.26216e-05
0.0014696 -0.000158839 -2.50504e-06
-0.000158839 0.000115256 6.28826e-08
-2.50504e-06 6.28826e-08 -3.05687e-05
0.00171081 -0.000202908 3.06473e-06
-0.000202908 0.000212846 8.45193e-07
3.06473e-06 8.45193e-07 5.54876e-05
0.00151082 -0.000183972 7.16634e-07
-0.000183972 0.000150272 -5.48984e-07
7.16634e-07 -5.48984e-07 -4.80741e-06
0.00128896 -0.00016341 -6.81339e-06
-0.00016341 8.35186e-05 2.15685e-06
-6.81339e-06 2.15685e-06 -6.19096e-05
0.00102212 -0.000147216 -9.67135e-06
-0.000147216 4.59283e-05 4.9149e-06
-9.67135e-06 4.9149e-06 -8.40915e-05
0.00110509 -0.000177233 -2.07752e-06
-0.000177233 9.7939e-06 3.87594e-07
-2.07752e-06 3.87594e-07 -0.000147737
0.00166033 -0.000221745 3.93324e-06
-0.000221745 0.000256513 -6.94495e-07
3.93324e-06 -6.94495e-07 8.3515e-05
0.000533322 -0.000117691 -1.50242e-05
-0.000117691 -9.02143e-05 1.14031e-05
-1.50242e-05 1.14031e-05 -0.000161099
0.000917118 -0.000142577 7.75669e-07
-0.000142577 5.03414e-05 5.08722e-07
7.75669e-07 5.08722e-07 -8.3234e-05
0.00103306 -0.000180535 5.87929e-06
-0.000180535 4.42365e-05 -1.35169e-06
5.87929e-06 -1.35169e-06 -0.000123509
0.00399055 0.000156364 -9.51635e-05
0.000156364 0.00194432 3.68773e-06
-9.51635e-05 3.68773e-06 0.00193104
0.000626152 -7.76451e-05 2.87637e-07
-7.76451e-05 -2.47853e-05 -1.95896e-07
2.87637e-07 -1.95896e-07 -8.63314e-05
0.00096136 -0.000136058 5.85608e-06
-0.000136058 0.000130168 -4.93564e-06
5.85608e-06 -4.93564e-06 3.12429e-06
0.00365966 0.00012745 3.8336e-06
0.00012745 0.00174705 4.27926e-07
3.8336e-06 4.27926e-07 0.00174167
0.000710082 -3.57298e-05 9.55376e-06
-3.57298e-05 3.21759e-05 -8.49654e-06
9.55376e-06 -8.49654e-06 -1.86392e-05
0.00330162 0.000103749 8.9036e-05
0.000103749 0.00153844 -3.62344e-06
8.9036e-05 -3.62344e-06 0.00153934
0.00103528 0.000193415 -3.28119e-06
0.000193415 7.54461e-05 -1.07684e-06
-3.28119e-06 -1.07684e-06 -0.000104785
0.00105762 0.000180527 -3.6998e-09
0.000180527 0.000182475 -1.74753e-06
-3.6998e-09 -1.74753e-06 1.96169e-05
0.00112837 0.000167885 -1.19591e-06
0.000167885 0.000233228 -2.86815e-06
-1.19591e-06 -2.86815e-06 8.78894e-05
0.00136929 0.000193461 -4.58797e-07
0.000193461 0.000392137 6.32323e-07
-4.58797e-07 6.32323e-07 0.00024875
0.000872238 0.00010857 -1.18059e-06
0.00010857 0.00011553 -9.33819e-07
-1.18059e-06 -9.33819e-07 -6.73997e-06
0.000809753 6.60863e-05 -3.0416e-06
6.60863e-05 9.57869e-05 -2.52533e-06
-3.0416e-06 -2.52533e-06 -4.6154e-06
0.000650036 4.88141e-05 8.71187e-08
4.88141e-05 6.93557e-06 3.80614e-07
8.71187e-08 3.80614e-07 -0.000101137
0.000673087 -6.60402e-06 -3.85725e-07
-6.60402e-06 1.87678e-05 -7.64647e-08
-3.85725e-07 -7.64647e-08 -6.4082e-05
0.000588275 -5.33131e-05 -1.66221e-06
-5.33131e-05 -1.61779e-05 -6.46033e-06
-1.66221e-06 -6.46033e-06 -5.34017e-05
0.000618675 -3.94027e-05 9.97378e-07
-3.94027e-05 -1.3808e-05 3.37033e-06
9.97378e-07 3.37033e-06 -8.44309e-05
0.000558522 -6.94411e-05 3.92487e-07
-6.94411e-05 -3.40293e-05 -1.69435e-07
3.92487e-07 -1.69435e-07 -6.7154e-05
0.00270711 -0.000109158 -5.25179e-05
-0.000109158 0.00119751 -2.17924e-06
-5.25179e-05 -2.17924e-06 0.00119966
0.000558558 -6.27176e-05 3.81864e-07
-6.27176e-05 -4.45032e-05 5.2995e-06
3.81864e-07 5.2995e-06 -7.23972e-05
0.00258957 -0.000100091 -1.56164e-06
-0.000100091 0.00112504 2.01661e-07
-1.56164e-06 2.01661e-07 0.00112916
0.00254778 -8.92284e-05 3.69565e-05
-8.92284e-05 0.00109398 3.41462e-06
3.69565e-05 3.41462e-06 0.00110028
0.000572265 2.60173e-05 1.15505e-05
2.60173e-05 -0.000523651 7.31971e-06
1.15505e-05 7.31971e-06 -0.00052877
0.00418508 5.67e-05 2.96402e-05
5.67e-05 0.000448899 9.61716e-06
2.96402e-05 9.61716e-06 0.000192811
0.00836098 0.000405716 -8.8157e-05
0.000405716 0.00247616 -3.90068e-05
-8.8157e-05 -3.90068e-05 0.00140532
0.000599142 0.0001786 1.95489e-06
0.0001786 -0.000249875 1.80082e-06
1.95489e-06 1.80082e-06 -0.000405939
0.00151445 0.000248269 2.47565e-06
0.000248269 0.000133165 4.55533e-07
2.47565e-06 4.55533e-07 -2.85411e-05
0.00119461 0.000221758 -1.35423e-06
0.000221758 0.000131336 -5.34141e-07
-1.35423e-06 -5.34141e-07 -5.23566e-05
0.00102276 0.000182008 -8.51855e-07
0.000182008 0.000229076 7.90486e-07
-8.51855e-07 7.90486e-07 7.53634e-05
0.000759541 0.000171037 -1.32824e-06
0.000171037 2.12514e-05 -1.39977e-07
-1.32824e-06 -1.39977e-07 -0.000152246
0.00127671 0.000232123 6.2073e-06
0.000232123 0.00021778 1.83858e-06
6.2073e-06 1.83858e-06 6.25454e-05
0.00251799 0.000376951 -9.85163e-06
0.000376951 0.000605437 -4.32661e-06
-9.85163e-06 -4.32661e-06 0.000439395
0.00184424 0.000285693 -7.9341e-07
0.000285693 0.000514471 2.15853e-06
-7.9341e-07 2.15853e-06 0.000360956
0.00129662 0.000292893 9.20606e-06
0.000292893 4.39003e-05 1.46745e-05
9.20606e-06 1.46745e-05 -0.000110048
0.0019077 0.000364157 -1.39705e-06
0.000364157 0.000256111 1.06835e-06
-1.39705e-06 1.06835e-06 8.9884e-05
0.00217939 0.000348674 -9.59568e-06
0.000348674 0.000308044 2.33423e-06
-9.59568e-06 2.33423e-06 0.000163898
0.000719562 0.000142844 1.53493e-05
0.000142844 -0.000454698 4.81558e-06
1.53493e-05 4.81558e-06 -0.000516229
0.00126331 0.000294144 8.59289e-06
0.000294144 -9.76343e-05 1.26723e-06
8.59289e-06 1.26723e-06 -0.000210416
0.00106013 0.000346101 -6.11524e-06
0.000346101 -0.000225987 -7.72497e-06
-6.11524e-06 -7.72497e-06 -0.000391474
0.00117989 0.000201895 -4.2597e-06
0.000201895 -8.04451e-05 3.35115e-06
-4.2597e-06 3.35115e-06 -8.79997e-05
0.00494718 0.000240289 3.95707e-05
0.000240289 0.000371672 -3.66092e-06
3.95707e-05 -3.66092e-06 -9.04529e-07
0.0015217 0.000356955 5.76929e-06
0.000356955 0.000164438 -1.70986e-05
5.76929e-06 -1.70986e-05 0.000143739
0.00136448 -3.48605e-05 2.12881e-05
-3.48605e-05 -5.95596e-05 2.94321e-06
2.12881e-05 2.94321e-06 -9.09563e-05
0.00200794 -6.59499e-05 -1.41524e-05
-6.59499e-05 8.5443e-05 -7.77081e-07
-1.41524e-05 -7.77081e-07 2.24445e-05
0.00153336 0.000133767 4.76142e-05
0.000133767 -0.000542477 -8.17112e-06
4.76142e-05 -8.17112e-06 -0.000799391
0.000559614 -0.000122496 -2.24528e-05
-0.000122496 -0.000618176 1.46052e-05
-2.24528e-05 1.46052e-05 -0.000598745
0.00247882 -0.000106759 -7.06899e-05
-0.000106759 0.000293775 4.61702e-06
-7.06899e-05 4.61702e-06 0.000244916
0.00165313 -0.000112427 9.98523e-07
-0.000112427 -0.000129206 -4.53345e-07
9.98523e-07 -4.53345e-07 -0.000110396
0.00225709 -5.28365e-05 -4.34363e-06
-5.28365e-05 0.000332844 5.50341e-07
-4.34363e-06 5.50341e-07 0.000287877
0.00195493 -0.000142016 5.76591e-06
-0.000142016 3.76906e-05 -2.76224e-08
5.76591e-06 -2.76224e-08 2.24773e-05
0.00199992 -2.64713e-05 4.65025e-06
-2.64713e-05 0.000103867 -6.47507e-10
4.65025e-06 -6.47507e-10 5.73828e-05
0.00185476 -0.000162305 -1.25671e-06
-0.000162305 -6.98547e-05 1.61428e-06
-1.25671e-06 1.61428e-06 -5.73467e-05
0.00181964 -0.000158554 -1.68431e-06
-0.000158554 1.17991e-05 -1.5272e-07
-1.68431e-06 -1.5272e-07 -1.60992e-06
0.00188784 -0.000145247 7.18019e-07
-0.000145247 6.72609e-05 7.14606e-07
7.18019e-07 7.14606e-07 1.9185e-05
0.00181209 -0.000190717 -4.90144e-07
-0.000190717 2.7972e-05 -1.10774e-06
-4.90144e-07 -1.10774e-06 -2.64886e-05
0.00177042 -0.000164589 2.2067e-07
-0.000164589 7.6287e-05 -1.96909e-07
2.2067e-07 -1.96909e-07 6.76162e-06
0.00166513 -0.000146672 1.2003e-06
-0.000146672 3.7725e-05 4.2483e-07
1.2003e-06 4.2483e-07 -5.04721e-05
0.00176665 -0.000187836 -4.04518e-06
-0.000187836 9.53783e-05 -2.54162e-07
-4.04518e-06 -2.54162e-07 1.25377e-05
0.00168559 -0.00016574 2.04591e-07
-0.00016574 9.15721e-05 -2.5531e-07
2.04591e-07 -2.5531e-07 -8.39485e-06
0.0016518 -0.000153451 1.86038e-06
-0.000153451 0.000103337 -5.32375e-07
1.86038e-06 -5.32375e-07 -1.94331e-05
0.00167378 -0.000187437 -2.79389e-06
-0.000187437 0.000111477 7.16338e-07
-2.79389e-06 7.16338e-07 1.94967e-07
0.00161666 -0.000168856 -1.0109e-07
-0.000168856 0.000117786 -2.22007e-07
-1.0109e-07 -2.22007e-07 -1.33436e-05
0.00148112 -0.00014586 -1.56061e-06
-0.00014586 0.000106908 2.79033e-07
-1.56061e-06 2.79033e-07 -3.48718e-05
0.00173588 -0.000179529 -7.28447e-07
-0.000179529 0.000205983 2.07149e-06
-7.28447e-07 2.07149e-06 6.91474e-05
0.00146532 -0.000159132 -4.77134e-07
-0.000159132 0.000110919 -1.65192e-07
-4.77134e-07 -1.65192e-07 -3.46954e-05
0.00132201 -0.000146266 -6.49288e-06
-0.000146266 8.87637e-05 2.03595e-06
-6.49288e-06 2.03595e-06 -5.22712e-05
0.00143729 -0.000180915 4.94293e-06
-0.000180915 0.000107971 -7.44367e-07
4.94293e-06 -7.44367e-07 -4.81785e-05
0.00118451 -0.000157958 7.27426e-08
-0.000157958 2.49766e-05 -5.88699e-08
7.27426e-08 -5.88699e-08 -0.000120842
0.00103846 -0.000134478 -1.0785e-05
-0.000134478 2.36368e-05 4.57624e-06
-1.0785e-05 4.57624e-06 -9.79797e-05
0.000490714 -0.000139709 -1.83497e-05
-0.000139709 -0.000137048 1.13837e-05
-1.83497e-05 1.13837e-05 -0.000211927
0.000982461 -0.000144955 3.31747e-07
-0.000144955 2.49139e-05 2.4797e-07
3.31747e-07 2.4797e-07 -0.000104911
0.00116121 -0.00017913 4.65362e-06
-0.00017913 4.57582e-05 -1.10598e-06
4.65362e-06 -1.10598e-06 -0.000111099
0.00447151 0.000180338 -0.000101886
0.000180338 0.00222995 5.95788e-06
-0.000101886 5.95788e-06 0.00220764
0.000626914 -0.000110713 -3.72695e-07
-0.000110713 -4.04301e-05 3.51652e-07
-3.72695e-07 3.51652e-07 -0.000112312
0.000932263 -0.000146826 7.6091e-06
-0.000146826 6.12082e-05 -4.37507e-06
7.6091e-06 -4.37507e-06 -7.31092e-05
0.0041567 0.000144254 7.42623e-06
0.000144254 0.00203678 7.28369e-07
7.42623e-06 7.28369e-07 0.00202477
0.000781613 -8.02043e-05 1.29512e-05
-8.02043e-05 5.73819e-05 -1.04355e-05
1.29512e-05 -1.04355e-05 -5.20351e-06
0.00378807 0.000112515 0.000105775
0.000112515 0.00181651 -4.56755e-06
0.000105775 -4.56755e-06 0.00181324
0.000990214 0.000194175 -4.11136e-06
0.000194175 -7.67911e-05 1.81242e-06
-4.11136e-06 1.81242e-06 -0.000246727
0.000854123 0.000181659 -1.25201e-06
0.000181659 -2.94641e-05 1.89654e-06
-1.25201e-06 1.89654e-06 -0.000208713
0.00108168 0.000176103 -3.77623e-06
0.000176103 0.000141479 -1.99383e-06
-3.77623e-06 -1.99383e-06 -2.0893e-05
0.00101848 0.00017739 -3.10549e-07
0.00017739 0.000162864 1.02105e-06
-3.10549e-07 1.02105e-06 5.63988e-07
0.00098741 0.000156124 -3.01527e-07
0.000156124 0.000156242 -8.71317e-07
-3.01527e-07 -8.71317e-07 1.28431e-05
0.000945994 0.000108742 -4.60017e-06
0.000108742 0.000157687 -3.49364e-06
-4.60017e-06 -3.49364e-06 4.2862e-05
0.00092379 0.000115517 1.53311e-07
0.000115517 0.000143559 -3.71919e-07
1.53311e-07 -3.71919e-07 2.14789e-05
0.000737605 4.74037e-05 -3.19192e-07
4.74037e-05 5.73162e-05 9.50513e-08
-3.19192e-07 9.50513e-08 -4.19742e-05
0.000638078 -1.59322e-05 -5.75062e-06
-1.59322e-05 5.34822e-06 -7.05582e-06
-5.75062e-06 -7.05582e-06 -3.85145e-05
0.000642522 -3.39627e-05 7.59645e-07
-3.39627e-05 2.68187e-06 3.32983e-06
7.59645e-07 3.32983e-06 -7.88371e-05
0.000543921 -6.18463e-05 4.58379e-08
-6.18463e-05 -3.92981e-05 -2.57037e-07
4.58379e-08 -2.57037e-07 -7.73766e-05
0.00293006 -0.000117053 -6.62447e-05
-0.000117053 0.00132857 -1.98653e-06
-6.62447e-05 -1.98653e-06 0.00132834
0.000533007 -7.1365e-05 -4.02421e-07
-7.1365e-05 -4.86052e-05 5.84835e-06
-4.02421e-07 5.84835e-06 -8.17438e-05
0.00267133 -0.00011063 -1.56568e-06
-0.00011063 0.00117755 1.96735e-07
-1.56568e-06 1.96735e-07 0.00117921
0.00258406 -9.96745e-05 4.13191e-05
-9.96745e-05 0.00112166 2.92244e-06
4.13191e-05 2.92244e-06 0.00112573
0.0010247 5.01827e-05 1.19934e-05
5.01827e-05 -0.000302157 1.37292e-06
1.19934e-05 1.37292e-06 -0.000329752
0.00169976 -5.53345e-06 -4.11247e-06
-5.53345e-06 -6.77434e-05 2.51626e-06
-4.11247e-06 2.51626e-06 -8.74241e-05
0.00310432 -8.24812e-06 8.31434e-05
-8.24812e-06 -0.000188851 -6.02745e-06
8.31434e-05 -6.02745e-06 -0.000273631
0.00178612 0.000286243 -1.99245e-06
0.000286243 0.000218049 -2.36754e-06
-1.99245e-06 -2.36754e-06 6.57556e-05
0.000691732 0.000196541 8.13776e-08
0.000196541 -0.000192979 -7.4192e-07
8.13776e-08 -7.4192e-07 -0.000343021
0.00181225 0.000250926 -1.86424e-06
0.000250926 0.000211575 1.66837e-06
-1.86424e-06 1.66837e-06 6.05453e-05
0.00168433 0.000258259 1.04643e-06
0.000258259 0.000233794 4.65426e-07
1.04643e-06 4.65426e-07 6.95779e-05
0.000635663 0.000187581 -3.66108e-06
0.000187581 -0.000178691 1.96043e-06
-3.66108e-06 1.96043e-06 -0.000356327
0.00184834 0.000284488 -5.25418e-06
0.000284488 0.000136267 1.50663e-06
-5.25418e-06 1.50663e-06 -6.91543e-06
0.00161215 0.000261458 -2.73751e-07
0.000261458 0.000389074 2.66283e-07
-2.73751e-07 2.66283e-07 0.000228205
0.00222983 0.00035718 -2.90506e-07
0.00035718 0.000448088 -1.69346e-06
-2.90506e-07 -1.69346e-06 0.00028161
0.00181647 0.000193099 -6.38845e-06
0.000193099 5.16261e-05 1.41649e-06
-6.38845e-06 1.41649e-06 -4.91342e-05
0.00225105 0.000382011 5.06993e-06
0.000382011 0.000448495 3.22672e-06
5.06993e-06 3.22672e-06 0.000283352
0.00206578 0.000343671 -8.31265e-07
0.000343671 0.000246737 5.69304e-07
-8.31265e-07 5.69304e-07 0.000101603
0.00108952 0.000164106 7.11789e-07
0.000164106 -0.00023368 1.74385e-06
7.11789e-07 1.74385e-06 -0.000297663
0.00077187 0.000261309 -3.30488e-06
0.000261309 -0.000339327 -2.95163e-06
-3.30488e-06 -2.95163e-06 -0.000455109
0.000976443 0.000191382 -2.8855e-05
0.000191382 -0.000190666 -9.58174e-06
-2.8855e-05 -9.58174e-06 -0.000207056
0.00169329 2.62321e-05 4.61094e-06
2.62321e-05 -6.53389e-05 5.91668e-07
4.61094e-06 5.91668e-07 -0.000122607
0.00201578 -1.45522e-05 -1.44424e-06
-1.45522e-05 0.000317002 7.46424e-07
-1.44424e-06 7.46424e-07 0.000287633
0.00129048 -1.10773e-07 -4.96637e-05
-1.10773e-07 -0.000252529 -4.41278e-06
-4.96637e-05 -4.41278e-06 -0.000338709
0.00183145 -0.000136754 -1.88557e-05
-0.000136754 -3.91301e-05 1.04196e-06
-1.88557e-05 1.04196e-06 -1.10711e-05
0.00140302 -6.19389e-05 -9.64323e-06
-6.19389e-05 -0.000186019 8.09872e-07
-9.64323e-06 8.09872e-07 -0.000232904
0.00192098 -0.000135501 -2.67489e-07
-0.000135501 2.33769e-05 -2.64508e-07
-2.67489e-07 -2.64508e-07 8.39081e-06
0.00191611 -2.68899e-05 -7.54962e-07
-2.68899e-05 4.33323e-05 2.97682e-07
-7.54962e-07 2.97682e-07 2.98752e-08
0.00190521 -5.41914e-05 -2.34988e-06
-5.41914e-05 5.16157e-05 -1.00388e-06
-2.34988e-06 -1.00388e-06 2.88229e-06
0.00180523 -0.000154489 -1.92918e-06
-0.000154489 8.52277e-06 -6.3933e-07
-1.92918e-06 -6.3933e-07 -7.22244e-06
0.00189185 -0.000140221 7.52134e-07
-0.000140221 7.94357e-05 -1.39324e-07
7.52134e-07 -1.39324e-07 2.77419e-05
0.0018935 -0.000112385 1.31572e-07
-0.000112385 0.000110168 -1.87787e-07
1.31572e-07 -1.87787e-07 3.42707e-05
0.00169135 -0.000162861 -1.49871e-06
-0.000162861 3.38563e-05 -9.80958e-07
-1.49871e-06 -9.80958e-07 -3.83126e-05
0.00166581 -0.000146177 2.30863e-07
-0.000146177 4.32547e-05 -4.79286e-08
2.30863e-07 -4.79286e-08 -4.65883e-05
0.00171935 -0.000125892 1.53543e-06
-0.000125892 0.000104004 -2.14913e-07
1.53543e-06 -2.14913e-07 -1.02679e-05
0.00171113 -0.000166002 -2.01498e-06
-0.000166002 0.000107621 -2.19266e-07
-2.01498e-06 -2.19266e-07 7.72809e-06
0.00166864 -0.000152544 -4.06184e-08
-0.000152544 0.000114552 -1.36922e-07
-4.06184e-08 -1.36922e-07 -7.98086e-06
0.00153387 -0.000129656 -8.37404e-07
-0.000129656 0.000112362 1.68522e-07
-8.37404e-07 1.68522e-07 -2.49729e-05
0.00162948 -0.000168648 -1.42076e-06
-0.000168648 0.000124893 7.17725e-07
-1.42076e-06 7.17725e-07 -5.96077e-06
0.00149017 -0.000146102 -9.49773e-08
-0.000146102 0.000109701 -1.98348e-08
-9.49773e-08 -1.98348e-08 -3.18462e-05
0.00132644 -0.000129032 -5.6075e-06
-0.000129032 7.97663e-05 1.87975e-06
-5.6075e-06 1.87975e-06 -5.89927e-05
0.0014629 -0.000159465 2.19304e-06
-0.000159465 0.000107465 -2.02762e-07
2.19304e-06 -2.02762e-07 -3.79317e-05
0.00131845 -0.000145275 -1.27929e-07
-0.000145275 8.73658e-05 -2.09717e-09
-1.27929e-07 -2.09717e-09 -5.34254e-05
0.00106709 -0.000119523 -1.15207e-05
-0.000119523 2.5994e-05 4.73288e-06
-1.15207e-05 4.73288e-06 -9.16155e-05
0.00107737 -0.0001523 6.23493e-06
-0.0001523 -3.51755e-05 -1.84763e-06
6.23493e-06 -1.84763e-06 -0.000181349
0.0010264 -0.000132729 1.5813e-07
-0.000132729 1.65763e-05 -5.11699e-08
1.5813e-07 -5.11699e-08 -0.000104886
0.00226794 -6.3232e-05 -1.68901e-05
-6.3232e-05 0.000873277 7.15306e-06
-1.68901e-05 7.15306e-06 0.000805281
0.00140304 -2.01527e-05 -0.000134232
-2.01527e-05 0.000439762 1.33183e-05
-0.000134232 1.33183e-05 0.000420275
0.00148962 -0.000100474 -7.91835e-07
-0.000100474 0.000434984 -5.60893e-08
-7.91835e-07 -5.60893e-08 0.000360477
0.000945114 -0.000143035 9.54386e-06
-0.000143035 5.32457e-06 -4.21305e-06
9.54386e-06 -4.21305e-06 -0.000124398
0.00467631 0.000144004 9.59557e-06
0.000144004 0.00233802 9.00429e-07
9.59557e-06 9.00429e-07 0.00232094
0.000746199 -0.000133034 1.76936e-05
-0.000133034 2.25162e-05 -1.12791e-05
1.76936e-05 -1.12791e-05 -5.11757e-05
0.00428832 0.000110144 0.000126484
0.000110144 0.00210573 -6.8133e-06
0.000126484 -6.8133e-06 0.002098
0.00185322 0.00020625 -3.40259e-08
0.00020625 0.000218251 5.83396e-07
-3.40259e-08 5.83396e-07 7.88446e-05
0.00152131 0.000215175 -5.8395e-07
0.000215175 0.000146978 1.65638e-06
-5.8395e-07 1.65638e-06 -9.63042e-06
0.00120553 0.000208529 -4.64317e-07
0.000208529 4.53785e-05 -7.57499e-08
-4.64317e-07 -7.57499e-08 -0.000125697
0.00107642 0.000179048 -5.7811e-06
0.000179048 4.67004e-05 -7.44607e-07
-5.7811e-06 -7.44607e-07 -0.000115708
0.000669989 0.00016983 1.18636e-06
0.00016983 -0.000135701 3.67799e-06
1.18636e-06 3.67799e-06 -0.000314024
0.00107238 0.000174342 -1.06682e-06
0.000174342 0.000139294 5.03817e-07
-1.06682e-06 5.03817e-07 -2.30542e-05
0.000973772 0.000135789 -6.172e-06
0.000135789 0.000130911 -4.11687e-06
-6.172e-06 -4.11687e-06 3.90672e-06
0.000855731 0.00014498 1.49867e-06
0.00014498 8.45988e-05 1.65014e-06
1.49867e-06 1.65014e-06 -5.69617e-05
0.000801692 9.63695e-05 -9.59907e-08
9.63695e-05 7.74055e-05 -2.26708e-07
-9.59907e-08 -2.26708e-07 -3.49786e-05
0.000748525 4.44043e-05 -9.76242e-06
4.44043e-05 5.68284e-05 -8.61736e-06
-9.76242e-06 -8.61736e-06 2.03401e-06
0.000682577 2.94836e-05 1.36351e-06
2.94836e-05 2.51476e-05 2.41354e-06
1.36351e-06 2.41354e-06 -7.09523e-05
0.000550926 -2.76811e-05 -5.13047e-07
-2.76811e-05 -4.1711e-05 -3.00452e-07
-5.13047e-07 -3.00452e-07 -8.5054e-05
0.00325868 -0.000118747 -8.64369e-05
-0.000118747 0.00152008 -2.49369e-06
-8.64369e-05 -2.49369e-06 0.0015176
0.000492516 -7.09458e-05 -8.42335e-07
-7.09458e-05 -6.50747e-05 6.62844e-06
-8.42335e-07 6.62844e-06 -0.000104695
0.00285462 -0.000122604 -2.03001e-06
-0.000122604 0.00128702 2.37202e-07
-2.03001e-06 2.37202e-07 0.00128546
0.00264691 -0.000110681 4.56703e-05
-0.000110681 0.00116371 2.38844e-06
4.56703e-05 2.38844e-06 0.0011653
0.00181809 0.00010592 8.4956e-07
0.00010592 9.82147e-07 1.53832e-06
8.4956e-07 1.53832e-06 -7.03875e-05
0.00190143 4.40147e-05 7.26867e-06
4.40147e-05 0.000157802 -1.00365e-07
7.26867e-06 -1.00365e-07 0.000128599
0.00345173 -3.26892e-05 -5.35655e-05
-3.26892e-05 0.000709425 -1.26621e-05
-5.35655e-05 -1.26621e-05 0.000662282
0.00169903 0.000241367 -3.30668e-06
0.000241367 6.98577e-05 7.41347e-07
-3.30668e-06 7.41347e-07 -6.83748e-05
0.00158656 0.000271465 -2.15068e-06
0.000271465 0.000128247 -6.01531e-08
-2.15068e-06 -6.01531e-08 -2.19924e-05
0.000931979 0.000224176 -1.40727e-05
0.000224176 -5.4562e-05 -2.87936e-06
-1.40727e-05 -2.87936e-06 -0.000199612
0.00183367 0.000243576 1.86568e-06
0.000243576 0.000222379 4.62166e-07
1.86568e-06 4.62166e-07 7.29438e-05
0.00187336 0.000269317 -5.17114e-07
0.000269317 0.00034538 -1.93834e-06
-5.17114e-07 -1.93834e-06 0.000178644
0.00212344 0.00019166 -3.118e-06
0.00019166 0.000231603 1.45501e-06
-3.118e-06 1.45501e-06 0.000133901
0.00172636 0.000281583 -1.34369e-06
0.000281583 7.13735e-05 7.11835e-07
-1.34369e-06 7.11835e-07 -7.34217e-05
0.00199083 0.000340643 3.6922e-06
0.000340643 0.000315279 1.8573e-07
3.6922e-06 1.8573e-07 0.000147998
0.00181565 0.000192853 -7.621e-07
0.000192853 5.15606e-05 1.4933e-07
-7.621e-07 1.4933e-07 -4.91827e-05
0.00205912 0.000344406 1.11698e-05
0.000344406 0.000232069 2.20265e-07
1.11698e-05 2.20265e-07 8.60062e-05
0.00163564 0.00018414 -2.03529e-05
0.00018414 6.36571e-05 -3.3685e-06
-2.03529e-05 -3.3685e-06 -1.79708e-06
0.00196375 2.93506e-05 -1.91906e-06
2.93506e-05 0.000101909 2.81265e-08
-1.91906e-06 2.81265e-08 4.75471e-05
0.00190123 3.31987e-05 -1.43522e-06
3.31987e-05 5.20263e-05 -1.44479e-07
-1.43522e-06 -1.44479e-07 -4.23829e-06
0.00274261 6.19614e-06 -3.23675e-05
6.19614e-06 0.000736827 -4.51849e-06
-3.23675e-05 -4.51849e-06 0.000706051
0.00187126 -0.000129348 -1.04592e-05
-0.000129348 -2.31494e-06 -4.9502e-07
-1.04592e-05 -4.9502e-07 -1.68903e-05
0.00192619 -2.76845e-05 2.48233e-07
-2.76845e-05 3.57559e-05 3.74831e-07
2.48233e-07 3.74831e-07 -5.70504e-06
0.00188931 -5.68132e-05 7.42937e-07
-5.68132e-05 3.02218e-05 -9.96791e-09
7.42937e-07 -9.96791e-09 -1.26491e-05
0.0019024 -4.04564e-05 -5.80637e-07
-4.04564e-05 0.00010995 3.27676e-08
-5.80637e-07 3.27676e-08 3.50998e-05
0.00189118 -0.000135444 1.47548e-06
-0.000135444 8.91905e-05 -7.63996e-07
1.47548e-06 -7.63996e-07 3.3468e-05
0.00187486 -0.000112202 -2.41712e-07
-0.000112202 0.00010602 -1.7351e-07
-2.41712e-07 -1.7351e-07 2.77863e-05
0.00180067 -9.0953e-05 2.44786e-06
-9.0953e-05 0.000118626 -1.25613e-06
2.44786e-06 -1.25613e-06 1.21778e-05
0.00166603 -0.000145691 -1.43757e-06
-0.000145691 4.86141e-05 -2.38259e-07
-1.43757e-06 -2.38259e-07 -4.28903e-05
0.00173586 -0.000126159 -7.15573e-08
-0.000126159 0.000113168 1.01544e-07
-7.15573e-08 1.01544e-07 -1.08908e-06
0.00159869 -0.000105959 -5.57217e-07
-0.000105959 0.000115885 -1.02839e-07
-5.57217e-07 -1.02839e-07 -1.58982e-05
0.00168538 -0.000151553 -1.45812e-06
-0.000151553 0.000125674 2.11382e-07
-1.45812e-06 2.11382e-07 3.39069e-06
0.00153175 -0.000129298 -1.44268e-07
-0.000129298 0.000109046 1.09822e-07
-1.44268e-07 1.09822e-07 -2.81149e-05
0.00134907 -0.000109598 -5.15625e-06
-0.000109598 7.9655e-05 1.54901e-06
-5.15625e-06 1.54901e-06 -5.73797e-05
0.00149802 -0.000146341 1.20557e-06
-0.000146341 0.00011187 -2.62343e-07
1.20557e-06 -2.62343e-07 -2.94552e-05
0.00133901 -0.000128775 -7.18985e-08
-0.000128775 8.62606e-05 6.71291e-08
-7.18985e-08 6.71291e-08 -5.22658e-05
0.00108097 -0.000105405 -1.16149e-05
-0.000105405 2.27393e-05 4.25175e-06
-1.16149e-05 4.25175e-06 -9.3931e-05
0.00131557 -0.000144331 5.93478e-06
-0.000144331 8.63241e-05 -1.93611e-06
5.93478e-06 -1.93611e-06 -5.42243e-05
0.00106011 -0.000117586 2.0996e-07
-0.000117586 2.12287e-05 2.98734e-08
2.0996e-07 2.98734e-08 -9.60206e-05
0.00230946 -7.63053e-05 -2.36708e-05
-7.63053e-05 0.000882346 6.07519e-06
-2.36708e-05 6.07519e-06 0.000822555
0.00101086 -0.000131078 1.07859e-05
-0.000131078 7.62681e-06 -4.70312e-06
1.07859e-05 -4.70312e-06 -0.000113717
0.00243127 -0.000113282 3.20447e-05
-0.000113282 0.000955782 -3.21633e-06
3.20447e-05 -3.21633e-06 0.000895091
0.00164113 -6.14776e-05 -0.000146666
-6.14776e-05 0.000579408 1.68574e-05
-0.000146666 1.68574e-05 0.000559781
0.00320674 2.42628e-05 -0.000141578
2.42628e-05 0.00148827 5.36862e-06
-0.000141578 5.36862e-06 0.00147016
0.0025368 -0.000151389 8.76091e-05
-0.000151389 0.00102398 -1.11177e-05
8.76091e-05 -1.11177e-05 0.000964315
0.0048741 0.00011026 0.0001398
0.00011026 0.00244952 -1.0878e-05
0.0001398 -1.0878e-05 0.00243315
0.00187772 0.000200672 -2.18701e-06
0.000200672 0.00019586 -2.0024e-07
-2.18701e-06 -2.0024e-07 6.28784e-05
0.00168872 0.000191787 1.56104e-06
0.000191787 0.000214605 5.59613e-07
1.56104e-06 5.59613e-07 7.11196e-05
0.00175654 0.000205289 6.53927e-07
0.000205289 0.000164984 -1.55978e-07
6.53927e-07 -1.55978e-07 2.74507e-05
0.00124288 0.000180183 -6.26334e-06
0.000180183 6.7209e-05 -4.2633e-07
-6.26334e-06 -4.2633e-07 -8.40511e-05
0.00152203 0.00021309 1.65347e-07
0.00021309 0.000143455 2.80143e-07
1.65347e-07 2.80143e-07 -1.26234e-05
0.00138135 0.000220408 2.3772e-06
0.000220408 0.000146315 -4.96902e-07
2.3772e-06 -4.96902e-07 -2.57078e-05
0.0011693 0.000186456 -4.59858e-07
0.000186456 9.87401e-05 5.4781e-07
-4.59858e-07 5.4781e-07 -6.51805e-05
0.0009314 0.000142886 -8.4754e-06
0.000142886 4.06061e-05 -3.91142e-06
-8.4754e-06 -3.91142e-06 -9.1732e-05
0.00106364 0.000172539 2.27473e-06
0.000172539 0.00013735 3.36598e-06
2.27473e-06 3.36598e-06 -2.49502e-05
0.000858433 0.000125669 -4.46363e-07
0.000125669 6.60761e-05 -1.58798e-10
-4.46363e-07 -1.58798e-10 -5.91957e-05
0.000793025 9.90355e-05 -1.42423e-05
9.90355e-05 6.88081e-05 -1.01982e-05
-1.42423e-05 -1.01982e-05 1.34967e-06
0.000651305 8.26217e-05 2.57126e-06
8.26217e-05 -5.85159e-06 2.36677e-06
2.57126e-06 2.36677e-06 -0.00011589
0.000585941 2.10808e-05 1.09022e-07
2.10808e-05 -2.99628e-05 -2.78129e-07
1.09022e-07 -2.78129e-07 -8.32042e-05
0.00372262 -0.000109629 -0.000110475
-0.000109629 0.00179162 -4.87088e-06
-0.000110475 -4.87088e-06 0.00178586
0.000460173 -5.16916e-05 6.82716e-07
-5.16916e-05 -8.62319e-05 7.35861e-06
6.82716e-07 7.35861e-06 -0.000131705
0.003176 -0.000135763 -3.57378e-06
-0.000135763 0.00147564 3.53102e-07
-3.57378e-06 3.53102e-07 0.00146993
0.00280157 -0.000123826 5.13496e-05
-0.000123826 0.00125719 1.94313e-06
5.13496e-05 1.94313e-06 0.00125544
0.00182842 0.00010781 -1.99371e-06
0.00010781 3.27289e-05 1.22959e-06
-1.99371e-06 1.22959e-06 -4.0974e-05
0.00182439 0.000105088 6.20066e-07
0.000105088 1.3547e-05 -3.62602e-07
6.20066e-07 -3.62602e-07 -5.76631e-05
0.00246009 3.77609e-05 -4.25286e-05
3.77609e-05 0.000465154 -7.30095e-06
-4.25286e-05 -7.30095e-06 0.000437382
0.00193833 0.000171337 1.97047e-07
0.000171337 0.000155851 1.2885e-06
1.97047e-07 1.2885e-06 4.62029e-05
0.00169 0.000235205 -6.01048e-07
0.000235205 7.35902e-05 -1.78791e-07
-6.01048e-07 -1.78791e-07 -6.34521e-05
0.00137129 0.000255635 1.39138e-07
0.000255635 2.96942e-05 -1.4688e-06
1.39138e-07 -1.4688e-06 -0.000118428
0.00186499 0.000236548 6.20252e-07
0.000236548 0.000238801 -1.37971e-06
6.20252e-07 -1.37971e-06 9.09158e-05
0.0019346 0.000182723 -2.73213e-07
0.000182723 0.000126784 -1.25175e-07
-2.73213e-07 -1.25175e-07 2.80351e-05
0.00160221 0.0002782 1.06892e-06
0.0002782 7.19287e-06 -7.07799e-07
1.06892e-06 -7.07799e-07 -0.00013914
0.00179525 0.000190076 7.46548e-06
0.000190076 5.78484e-05 -9.35599e-07
7.46548e-06 -9.35599e-07 -4.26039e-05
0.00194647 2.45576e-05 1.22949e-07
2.45576e-05 0.000125711 7.08276e-07
1.22949e-07 7.08276e-07 5.37261e-05
0.00187586 2.90454e-05 -2.29623e-07
2.90454e-05 5.52343e-05 -3.46747e-08
-2.29623e-07 -3.46747e-08 -1.49863e-06
0.00207357 4.05599e-05 -7.64225e-06
4.05599e-05 0.000149637 -1.61157e-06
-7.64225e-06 -1.61157e-06 9.51971e-05
0.00160254 -1.21309e-05 -1.37743e-06
-1.21309e-05 -3.17319e-05 2.6924e-07
-1.37743e-06 2.6924e-07 -0.000117081
0.00187072 -6.00302e-05 1.59078e-06
-6.00302e-05 7.50581e-06 4.91456e-07
1.59078e-06 4.91456e-07 -2.90148e-05
0.00186045 -4.24411e-05 -8.25388e-07
-4.24411e-05 8.38902e-05 5.7148e-07
-8.25388e-07 5.7148e-07 8.81566e-06
0.00195722 -4.733e-05 4.1792e-07
-4.733e-05 0.000198082 -6.3811e-07
4.1792e-07 -6.3811e-07 0.00010054
0.00186166 -0.000112243 -9.01663e-07
-0.000112243 0.000104266 3.59079e-08
-9.01663e-07 3.59079e-08 2.39481e-05
0.00179272 -9.10708e-05 1.21914e-06
-9.10708e-05 0.000113085 -5.64402e-07
1.21914e-06 -5.64402e-07 6.67443e-06
0.00164554 -7.47374e-05 -2.55845e-07
-7.47374e-05 0.000109787 -6.03683e-07
-2.55845e-07 -6.03683e-07 -1.62585e-05
0.0017599 -0.000125968 -9.52556e-07
-0.000125968 0.000126557 3.85654e-07
-9.52556e-07 3.85654e-07 1.2389e-05
0.0015842 -0.000104278 -1.46953e-07
-0.000104278 0.000107393 3.25593e-08
-1.46953e-07 3.25593e-08 -2.41661e-05
0.0013817 -8.65837e-05 -4.86779e-06
-8.65837e-05 8.11936e-05 1.14741e-06
-4.86779e-06 1.14741e-06 -5.34832e-05
0.00152845 -0.000128805 8.45791e-07
-0.000128805 0.000105213 6.71993e-09
8.45791e-07 6.71993e-09 -3.17545e-05
0.00135306 -0.000109101 -9.42796e-08
-0.000109101 8.02874e-05 1.28294e-07
-9.42796e-08 1.28294e-07 -5.65135e-05
0.00109161 -8.93536e-05 -1.14808e-05
-8.93536e-05 1.8446e-05 3.51213e-06
-1.14808e-05 3.51213e-06 -9.79742e-05
0.0013506 -0.000128414 5.48324e-06
-0.000128414 9.22211e-05 -1.72975e-06
5.48324e-06 -1.72975e-06 -4.60578e-05
0.0010812 -0.000103126 1.25774e-07
-0.000103126 2.17666e-05 1.5407e-07
1.25774e-07 1.5407e-07 -9.43729e-05
0.00236596 -9.29935e-05 -3.08753e-05
-9.29935e-05 0.000904256 5.46002e-06
-3.08753e-05 5.46002e-06 0.000847853
0.00104723 -0.000115459 1.14404e-05
-0.000115459 1.31115e-05 -4.68524e-06
1.14404e-05 -4.68524e-06 -0.000103747
0.00242196 -0.000113409 2.85841e-05
-0.000113409 0.000941297 -2.96158e-06
2.85841e-05 -2.96158e-06 0.000885678
0.00167691 -5.39756e-05 -0.000142147
-5.39756e-05 0.000598265 1.53075e-05
-0.000142147 1.53075e-05 0.000578957
0.00256337 -0.000138189 8.99334e-05
-0.000138189 0.00102569 -1.30617e-05
8.99334e-05 -1.30617e-05 0.000968951
0.00147266 8.59339e-06 -7.0889e-05
8.59339e-06 0.000496413 5.90002e-06
-7.0889e-05 5.90002e-06 0.000466486
0.00487288 0.000285667 -5.61869e-06
0.000285667 0.00248341 -4.84418e-06
-5.61869e-06 -4.84418e-06 0.00243474
0.001752 0.000160266 4.29163e-07
0.000160266 0.000109181 7.73564e-07
4.29163e-07 7.73564e-07 -1.75836e-05
0.00169892 0.000172701 -1.08493e-06
0.000172701 0.00018025 -4.1953e-07
-1.08493e-06 -4.1953e-07 4.20025e-05
0.00179114 0.000198336 -2.49416e-06
0.000198336 0.000146313 3.7306e-08
-2.49416e-06 3.7306e-08 1.22179e-05
0.00180248 0.000185969 -3.98282e-06
0.000185969 0.000354091 -6.26403e-07
-3.98282e-06 -6.26403e-07 0.000214131
0.00153867 0.000189069 6.75157e-07
0.000189069 0.000128053 -4.33602e-07
6.75157e-07 -4.33602e-07 -1.49734e-05
0.00166253 0.000204496 1.64219e-06
0.000204496 0.000113291 -1.32975e-06
1.64219e-06 -1.32975e-06 -2.23175e-05
0.000959057 0.000141769 -1.07303e-05
0.000141769 -7.67966e-06 -3.52121e-06
-1.07303e-05 -3.52121e-06 -0.000135303
0.00124986 0.000182051 3.42265e-08
0.000182051 7.01503e-05 1.87455e-07
3.42265e-08 1.87455e-07 -8.16175e-05
0.00153536 0.000212052 3.66006e-06
0.000212052 0.000146586 -8.87402e-07
3.66006e-06 -8.87402e-07 -9.09773e-06
0.00127219 0.000194725 5.53933e-06
0.000194725 0.000156414 2.00197e-06
5.53933e-06 2.00197e-06 -9.16356e-06
0.00093215 0.000141714 -8.39362e-07
0.000141714 3.99475e-05 2.81659e-07
-8.39362e-07 2.81659e-07 -9.20863e-05
0.000718006 0.000151809 -1.97372e-05
0.000151809 1.09226e-05 -1.06811e-05
-1.97372e-05 -1.06811e-05 -6.6216e-05
0.000744858 0.000115559 4.58373e-06
0.000115559 2.43654e-06 4.00194e-06
4.58373e-06 4.00194e-06 -0.000121093
0.000627494 9.21756e-05 -3.9989e-07
9.21756e-05 -1.72301e-05 7.37457e-08
-3.9989e-07 7.37457e-08 -8.40284e-05
0.00438253 -9.89736e-05 -0.000131015
-9.89736e-05 0.00217876 -9.33703e-06
-0.000131015 -9.33703e-06 0.00216483
0.00046412 9.63889e-06 5.76262e-06
9.63889e-06 -9.63304e-05 8.19036e-06
5.76262e-06 8.19036e-06 -0.000147183
0.00360904 -0.000146468 -6.52639e-06
-0.000146468 0.00173137 5.24665e-07
-6.52639e-06 5.24665e-07 0.00172056
0.00307958 -0.000140775 5.97828e-05
-0.000140775 0.00142139 1.68778e-06
5.97828e-05 1.68778e-06 0.00141474
0.00175766 9.27438e-05 -2.35754e-07
9.27438e-05 2.64717e-05 1.40293e-06
-2.35754e-07 1.40293e-06 -6.20733e-05
0.00177137 0.000109065 -2.58454e-07
0.000109065 -3.74884e-06 3.5874e-07
-2.58454e-07 3.5874e-07 -7.68362e-05
0.00185184 0.000107124 -3.55978e-07
0.000107124 2.58132e-05 -1.51818e-06
-3.55978e-07 -1.51818e-06 -4.57616e-05
0.00190293 0.000168506 7.45657e-07
0.000168506 0.000137774 -1.6648e-07
7.45657e-07 -1.6648e-07 2.94591e-05
0.00167193 0.000228588 5.88974e-08
0.000228588 7.20679e-05 -1.24038e-06
5.88974e-08 -1.24038e-06 -6.37233e-05
0.00173597 0.000173516 2.37504e-06
0.000173516 1.40411e-05 -1.58925e-06
2.37504e-06 -1.58925e-06 -8.5748e-05
0.00187684 2.62139e-05 -8.51936e-07
2.62139e-05 0.000123371 4.95408e-07
-8.51936e-07 4.95408e-07 3.73698e-05
0.00190496 2.57752e-05 1.3182e-07
2.57752e-05 0.000104324 -3.00153e-07
1.3182e-07 -3.00153e-07 3.08745e-05
0.00178086 2.93078e-05 2.53168e-06
2.93078e-05 6.1069e-06 -4.62021e-10
2.53168e-06 -4.62021e-10 -5.30191e-05
0.00172579 -1.8084e-05 -1.60841e-06
-1.8084e-05 3.9015e-05 -3.91479e-08
-1.60841e-06 -3.91479e-08 -4.51911e-05
0.00170568 -2.43663e-05 7.31087e-07
-2.43663e-05 6.68012e-05 -4.27181e-07
7.31087e-07 -4.27181e-07 -3.34298e-05
0.00181439 -4.42493e-05 2.37409e-07
-4.42493e-05 5.62778e-05 6.19771e-07
2.37409e-07 6.19771e-07 -1.9184e-05
0.00181338 -4.73588e-05 -6.80031e-07
-4.73588e-05 0.00011779 3.52071e-07
-6.80031e-07 3.52071e-07 1.70983e-05
0.00172067 -4.13509e-05 6.09927e-08
-4.13509e-05 0.000134245 -4.52828e-07
6.09927e-08 -4.52828e-07 1.61012e-05
0.00177413 -9.16024e-05 6.18734e-07
-9.16024e-05 0.00010195 8.05493e-08
6.18734e-07 8.05493e-08 -4.50447e-06
0.0016206 -7.59208e-05 2.95126e-07
-7.59208e-05 9.78963e-05 -3.14633e-07
2.95126e-07 -3.14633e-07 -2.81787e-05
0.00140101 -5.5779e-05 -5.17996e-06
-5.5779e-05 7.16886e-05 8.15875e-07
-5.17996e-06 8.15875e-07 -6.01654e-05
0.0015608 -0.000104107 3.61629e-07
-0.000104107 9.37253e-05 1.16065e-07
3.61629e-07 1.16065e-07 -3.77688e-05
0.00137132 -8.55491e-05 -3.30091e-09
-8.55491e-05 7.28065e-05 7.35264e-08
-3.30091e-09 7.35264e-08 -6.16984e-05
0.00109421 -6.93938e-05 -1.14256e-05
-6.93938e-05 8.77298e-06 2.90578e-06
-1.14256e-05 2.90578e-06 -0.000107059
0.00135684 -0.000108543 4.92294e-06
-0.000108543 8.07376e-05 -1.28353e-06
4.92294e-06 -1.28353e-06 -5.58232e-05
0.00109069 -8.67538e-05 -1.5305e-08
-8.67538e-05 1.70196e-05 1.49888e-07
-1.5305e-08 1.49888e-07 -9.88558e-05
0.00236571 -0.000105719 -3.39228e-05
-0.000105719 0.000899645 4.86028e-06
-3.39228e-05 4.86028e-06 0.000841751
0.00107729 -0.000100787 1.16634e-05
-0.000100787 1.83554e-05 -4.03963e-06
1.16634e-05 -4.03963e-06 -9.72289e-05
0.00242783 -0.000106788 2.74977e-05
-0.000106788 0.000936506 -2.34385e-06
2.74977e-05 -2.34385e-06 0.000882632
0.00171784 -4.72792e-05 -0.000142072
-4.72792e-05 0.000615929 1.32616e-05
-0.000142072 1.32616e-05 0.000596837
0.00252817 -0.000121176 8.87471e-05
-0.000121176 0.000997747 -1.1594e-05
8.87471e-05 -1.1594e-05 0.000945311
0.00146995 -8.53499e-06 -6.37747e-05
-8.53499e-06 0.000487356 5.76013e-06
-6.37747e-05 5.76013e-06 0.000461954
0.0013708 2.97487e-05 1.70135e-05
2.97487e-05 0.00044049 -4.17436e-06
1.70135e-05 -4.17436e-06 0.000407345
0.00187281 9.60769e-05 -3.25907e-08
9.60769e-05 0.000148243 1.82102e-06
-3.25907e-08 1.82102e-06 4.26459e-05
0.00161187 0.000139164 -1.78818e-06
0.000139164 0.000103992 2.28719e-07
-1.78818e-06 2.28719e-07 -3.0677e-05
0.00177465 0.000161504 -9.56458e-07
0.000161504 0.000116558 -1.10859e-07
-9.56458e-07 -1.10859e-07 -7.99624e-06
0.00163372 0.000152784 -4.42472e-06
0.000152784 0.000231146 -1.09824e-06
-4.42472e-06 -1.09824e-06 9.60538e-05
0.0016938 0.000170825 1.04159e-06
0.000170825 0.000180842 2.58156e-07
1.04159e-06 2.58156e-07 4.20675e-05
0.00169988 0.000195825 1.75137e-06
0.000195825 9.48101e-05 9.88383e-08
1.75137e-06 9.88383e-08 -4.04379e-05
0.00104062 0.000132539 -1.15377e-05
0.000132539 7.52046e-06 -3.92593e-06
-1.15377e-05 -3.92593e-06 -0.000112928
0.00144458 0.000171184 3.16258e-06
0.000171184 0.00015159 5.99401e-07
3.16258e-06 5.99401e-07 1.10232e-05
0.00139213 0.000186544 2.57211e-06
0.000186544 4.31612e-05 -5.85629e-07
2.57211e-06 -5.85629e-07 -9.94231e-05
0.000622101 0.000154898 -2.09332e-05
0.000154898 -6.45103e-05 -9.52111e-06
-2.09332e-05 -9.52111e-06 -0.000140473
0.00100562 0.000144346 -6.729e-07
0.000144346 1.83934e-05 2.81105e-07
-6.729e-07 2.81105e-07 -0.0001095
0.00125734 0.000183795 6.82127e-06
0.000183795 7.33814e-05 9.12267e-07
6.82127e-06 9.12267e-07 -7.88546e-05
0.000938202 0.000141032 7.90314e-06
0.000141032 4.26384e-05 4.88892e-06
7.90314e-06 4.88892e-06 -8.92239e-05
0.000628508 0.000138934 9.53283e-07
0.000138934 -3.64157e-05 2.89151e-07
9.53283e-07 2.89151e-07 -0.00011244
0.00502059 -9.8462e-05 -0.000136693
-9.8462e-05 0.0025561 -1.45006e-05
-0.000136693 -1.45006e-05 0.00252887
0.000475185 7.93742e-05 1.03872e-05
7.93742e-05 -9.92848e-05 9.73637e-06
1.03872e-05 9.73637e-06 -0.000163635
0.0041657 -0.000148974 -1.04908e-05
-0.000148974 0.00206082 8.757e-07
-1.04908e-05 8.757e-07 0.0020431
0.00346818 -0.000160863 7.2994e-05
-0.000160863 0.00165227 1.80135e-06
7.2994e-05 1.80135e-06 0.00163908
0.00176191 6.89004e-05 -6.17011e-07
6.89004e-05 6.26397e-05 3.40717e-07
-6.17011e-07 3.40717e-07 -2.86307e-05
0.00176629 9.228e-05 4.97109e-07
9.228e-05 3.41485e-05 4.9937e-07
4.97109e-07 4.9937e-07 -5.3759e-05
0.00172315 0.000109775 3.68621e-06
0.000109775 -3.33782e-05 -6.20918e-07
3.68621e-06 -6.20918e-07 -0.000105771
0.00187501 0.00016577 7.2931e-07
0.00016577 0.000123747 -1.15845e-06
7.2931e-07 -1.15845e-06 1.67972e-05
0.00174058 -6.51155e-06 1.18825e-06
-6.51155e-06 8.30106e-05 5.81162e-08
1.18825e-06 5.81162e-08 -1.88307e-05
0.0018851 2.18727e-05 -3.16596e-08
2.18727e-05 0.000125643 -1.72853e-07
-3.16596e-08 -1.72853e-07 4.00471e-05
0.00185715 2.64026e-05 6.93405e-07
2.64026e-05 7.93113e-05 -2.07756e-07
6.93405e-07 -2.07756e-07 4.40679e-06
0.00185563 -2.14164e-05 -2.78835e-06
-2.14164e-05 0.000113279 -8.82034e-07
-2.78835e-06 -8.82034e-07 3.0246e-05
0.00169531 -1.72073e-05 -1.24058e-06
-1.72073e-05 6.05415e-05 -1.08908e-07
-1.24058e-06 -1.08908e-07 -3.85187e-05
0.00175809 -1.33982e-05 1.15983e-06
-1.33982e-05 0.000160828 -4.52922e-07
1.15983e-06 -4.52922e-07 4.61775e-05
0.00167201 -4.73909e-05 -1.53622e-06
-4.73909e-05 3.83913e-05 1.21546e-06
-1.53622e-06 1.21546e-06 -6.54383e-05
0.00168041 -4.12716e-05 3.64155e-07
-4.12716e-05 0.000114783 1.6257e-07
3.64155e-07 1.6257e-07 -5.59805e-06
0.00138387 -2.63784e-05 -4.35622e-06
-2.63784e-05 4.19233e-05 2.59145e-07
-4.35622e-06 2.59145e-07 -8.58057e-05
0.00160715 -7.56518e-05 8.06862e-07
-7.56518e-05 9.24759e-05 -4.21448e-08
8.06862e-07 -4.21448e-08 -3.34694e-05
0.00138798 -5.36396e-05 -2.81676e-07
-5.36396e-05 6.14864e-05 5.12992e-08
-2.81676e-07 5.12992e-08 -7.01165e-05
0.00109684 -4.52647e-05 -1.1563e-05
-4.52647e-05 -8.51335e-07 2.33711e-06
-1.1563e-05 2.33711e-06 -0.000116242
0.00135539 -8.24269e-05 4.50482e-06
-8.24269e-05 6.14226e-05 -9.71244e-07
4.50482e-06 -9.71244e-07 -7.27369e-05
0.00109538 -6.84109e-05 2.12613e-09
-6.84109e-05 9.07504e-06 1.51466e-07
2.12613e-09 1.51466e-07 -0.00010653
0.000651968 -5.87646e-05 -1.72276e-05
-5.87646e-05 -9.04342e-05 4.22649e-06
-1.72276e-05 4.22649e-06 -0.000156085
0.00109888 -8.44954e-05 1.14641e-05
-8.44954e-05 2.04623e-05 -3.27392e-06
1.14641e-05 -3.27392e-06 -9.48508e-05
0.00154847 -7.03151e-05 3.60792e-05
-7.03151e-05 0.000426824 -2.10511e-06
3.60792e-05 -2.10511e-06 0.000369004
0.00510276 -0.000116261 -0.000174202
-0.000116261 0.00255023 1.00993e-05
-0.000174202 1.00993e-05 0.00254802
0.00250992 -9.94752e-05 8.85621e-05
-9.94752e-05 0.000977618 -9.54879e-06
8.85621e-05 -9.54879e-06 0.000927594
0.00148637 -2.70973e-05 -5.73234e-05
-2.70973e-05 0.000489844 4.54507e-06
-5.73234e-05 4.54507e-06 0.000465999
0.00128617 -2.13284e-05 2.76919e-05
-2.13284e-05 0.000387275 -4.07889e-06
2.76919e-05 -4.07889e-06 0.000357831
0.00189193 6.98747e-05 7.51322e-07
6.98747e-05 0.000167774 1.12121e-06
7.51322e-07 1.12121e-06 6.79311e-05
0.00170901 9.23106e-05 -3.88864e-07
9.23106e-05 0.000141065 1.27938e-06
-3.88864e-07 1.27938e-06 1.78054e-05
0.00189362 9.36715e-05 3.13579e-07
9.36715e-05 0.000164985 1.00329e-08
3.13579e-07 1.00329e-08 5.85678e-05
0.00128001 0.000113896 -5.40914e-06
0.000113896 2.08713e-06 -8.78862e-07
-5.40914e-06 -8.78862e-07 -0.000131621
0.00168679 0.000139809 9.12754e-08
0.000139809 0.000146206 -1.51837e-08
9.12754e-08 -1.51837e-08 1.27423e-05
0.00179993 0.00016311 -5.48282e-07
0.00016311 0.000124925 -8.86611e-07
-5.48282e-07 -8.86611e-07 2.51795e-06
0.000658724 9.65152e-05 -1.3546e-05
9.65152e-05 -0.000228353 -4.10544e-06
-1.3546e-05 -4.10544e-06 -0.000346483
0.00167068 0.000156089 1.61773e-06
0.000156089 0.000252227 4.22891e-07
1.61773e-06 4.22891e-07 0.000116725
0.00168846 0.000169199 2.68675e-06
0.000169199 0.00018135 4.12369e-07
2.68675e-06 4.12369e-07 4.19828e-05
0.000580373 0.000120224 -1.83033e-05
0.000120224 -0.000102062 -8.00337e-06
-1.83033e-05 -8.00337e-06 -0.000173831
0.000816657 0.000122718 5.57098e-07
0.000122718 -0.000120184 -1.83233e-08
5.57098e-07 -1.83233e-08 -0.000241487
0.00107196 0.000155499 8.40204e-06
0.000155499 -5.91683e-05 1.59257e-06
8.40204e-06 1.59257e-06 -0.000200238
0.00525931 -4.004e-05 -0.000145558
-4.004e-05 0.00266968 -1.38388e-05
-0.000145558 -1.38388e-05 0.00265233
0.000590518 0.000141729 1.47558e-06
0.000141729 -7.99005e-05 5.58491e-07
1.47558e-06 5.58491e-07 -0.00015679
0.00103892 0.000146299 1.07482e-05
0.000146299 3.72069e-05 4.28451e-06
1.07482e-05 4.28451e-06 -9.09437e-05
0.000495306 0.000130619 1.64235e-05
0.000130619 -0.000108639 1.0619e-05
1.64235e-05 1.0619e-05 -0.000183248
0.00475683 -0.000101089 -2.33352e-06
-0.000101089 0.00239225 -3.2669e-07
-2.33352e-06 -3.2669e-07 0.00237552
0.00393432 -0.000179696 8.77708e-05
-0.000179696 0.00193284 3.42357e-06
8.77708e-05 3.42357e-06 0.00191166
0.00180029 4.27885e-05 -9.70393e-07
4.27885e-05 0.000108272 -3.97857e-07
-9.70393e-07 -3.97857e-07 6.89218e-06
0.00178525 6.81689e-05 -1.96489e-07
6.81689e-05 7.20893e-05 4.06871e-07
-1.96489e-07 4.06871e-07 -1.91656e-05
0.00177182 9.21464e-05 1.25308e-06
9.21464e-05 4.00112e-05 -5.30338e-07
1.25308e-06 -5.30338e-07 -4.72845e-05
0.00167387 3.77592e-06 1.36259e-06
3.77592e-06 0.000105614 -2.76794e-07
1.36259e-06 -2.76794e-07 -1.00349e-05
0.00172747 -3.92447e-06 7.16431e-08
-3.92447e-06 7.94697e-05 7.81253e-08
7.16431e-08 7.81253e-08 -2.12932e-05
0.001892 1.57054e-05 -2.61134e-07
1.57054e-05 0.000127257 -1.29916e-07
-2.61134e-07 -1.29916e-07 4.2045e-05
0.00167675 -1.13726e-05 -1.95204e-06
-1.13726e-05 4.96643e-05 4.83203e-07
-1.95204e-06 4.83203e-07 -4.82331e-05
0.00174413 -1.00127e-05 1.11251e-06
-1.00127e-05 0.000152079 -1.53246e-07
1.11251e-06 -1.53246e-07 3.7585e-05
0.0017203 -7.78794e-06 -2.30829e-06
-7.78794e-06 0.000226535 -1.4327e-07
-2.30829e-06 -1.4327e-07 0.000104899
0.00163911 -4.11699e-05 6.08881e-07
-4.11699e-05 9.48619e-05 6.58944e-07
6.08881e-07 6.58944e-07 -2.77653e-05
0.00155806 -2.59635e-05 -3.36833e-09
-2.59635e-05 0.000139932 6.60375e-08
-3.36833e-09 6.60375e-08 1.28988e-05
0.000782328 -1.93946e-05 -1.33631e-05
-1.93946e-05 -0.000187981 1.70004e-06
-1.33631e-05 1.70004e-06 -0.000305473
0.00138294 -5.37488e-05 4.22845e-06
-5.37488e-05 5.55976e-05 -6.99745e-07
4.22845e-06 -6.99745e-07 -7.59264e-05
0.00109411 -4.23257e-05 1.84956e-08
-4.23257e-05 -2.83645e-06 1.17084e-07
1.84956e-08 1.17084e-07 -0.000117923
0.000652428 -2.02911e-05 -1.68505e-05
-2.02911e-05 -9.718e-05 2.86042e-06
-1.68505e-05 2.86042e-06 -0.000163333
0.00109888 -6.64022e-05 1.15174e-05
-6.64022e-05 1.06121e-05 -2.61752e-06
1.15174e-05 -2.61752e-06 -0.000104657
0.000662817 -4.43522e-05 -1.97037e-07
-4.43522e-05 -8.3868e-05 2.6377e-07
-1.97037e-07 2.6377e-07 -0.000150109
0.00516019 -4.18794e-06 -0.000162488
-4.18794e-06 0.00257571 6.18472e-06
-0.000162488 6.18472e-06 0.00257717
0.000691937 -5.71215e-05 1.60674e-05
-5.71215e-05 -6.42061e-05 -6.02244e-06
1.60674e-05 -6.02244e-06 -0.000130415
0.00326364 -5.77247e-05 7.9715e-05
-5.77247e-05 0.00150055 -1.74891e-06
7.9715e-05 -1.74891e-06 0.00148462
0.00122232 -4.88662e-05 3.30753e-05
-4.88662e-05 0.000350571 -4.31791e-06
3.30753e-05 -4.31791e-06 0.000319293
0.00180714 6.24615e-05 7.94986e-08
6.24615e-05 0.000137481 2.03501e-07
7.94986e-08 2.03501e-07 3.28353e-05
0.0015949 5.19598e-05 8.03121e-07
5.19598e-05 7.36168e-05 1.4177e-06
8.03121e-07 1.4177e-06 -4.48686e-05
0.00187221 6.72349e-05 -1.82697e-07
6.72349e-05 0.000156873 -1.97326e-07
-1.82697e-07 -1.97326e-07 5.73531e-05
0.00141281 8.08269e-05 -4.1593e-06
8.08269e-05 6.53846e-05 -2.95625e-07
-4.1593e-06 -2.95625e-07 -6.35564e-05
0.00166429 9.0624e-05 4.75794e-07
9.0624e-05 0.000113619 1.29182e-07
4.75794e-07 1.29182e-07 -1.07667e-05
0.00191368 9.09863e-05 -5.25414e-07
9.09863e-05 0.000181374 -1.63258e-06
-5.25414e-07 -1.63258e-06 7.41616e-05
0.000673894 7.69617e-05 -1.33649e-05
7.69617e-05 -0.000236169 -3.1807e-06
-1.33649e-05 -3.1807e-06 -0.000352444
0.00152315 0.000121473 -1.07882e-06
0.000121473 0.000141651 -1.39119e-07
-1.07882e-06 -1.39119e-07 9.00483e-06
0.0017631 0.000140356 1.98197e-06
0.000140356 0.000189375 -4.05521e-07
1.98197e-06 -4.05521e-07 5.71385e-05
0.000591777 8.58523e-05 -1.6816e-05
8.58523e-05 -0.00011046 -6.24213e-06
-1.6816e-05 -6.24213e-06 -0.000177877
0.000650966 9.69847e-05 -2.77637e-06
9.69847e-05 -0.000232897 -6.02368e-07
-2.77637e-06 -6.02368e-07 -0.000351585
0.00170967 0.000159535 7.90845e-06
0.000159535 0.000274439 1.84911e-06
7.90845e-06 1.84911e-06 0.000138518
0.00525415 4.59543e-05 -0.000163083
4.59543e-05 0.00264078 -1.2132e-05
-0.000163083 -1.2132e-05 0.00263707
0.00057321 0.000112236 7.94281e-07
0.000112236 -0.00010559 2.7126e-07
7.94281e-07 2.7126e-07 -0.000178059
0.000596257 0.000113326 1.15568e-05
0.000113326 -0.000246057 3.47189e-06
1.15568e-05 3.47189e-06 -0.000368252
0.0051234 -2.50561e-05 1.09033e-05
-2.50561e-05 0.00258918 -3.94913e-07
1.09033e-05 -3.94913e-07 0.00257538
0.000533311 0.000127653 1.74438e-05
0.000127653 -0.000109191 9.87832e-06
1.74438e-05 9.87832e-06 -0.000187188
0.00450339 -0.00016079 0.000107564
-0.00016079 0.00225823 6.73269e-06
0.000107564 6.73269e-06 0.00223596
0.00176731 3.11014e-05 2.1877e-08
3.11014e-05 0.000150115 -3.17915e-07
2.1877e-08 -3.17915e-07 3.67811e-05
0.0017486 4.09437e-05 -5.64274e-07
4.09437e-05 8.43121e-05 1.91065e-07
-5.64274e-07 1.91065e-07 -1.79166e-05
0.00180732 6.7226e-05 6.15078e-07
6.7226e-05 8.07562e-05 6.67699e-09
6.15078e-07 6.67699e-09 -1.04916e-05
0.00169725 -2.9526e-06 -2.09967e-06
-2.9526e-06 0.000217065 -2.04464e-07
-2.09967e-06 -2.04464e-07 9.76375e-05
0.00170517 2.59325e-06 5.63535e-07
2.59325e-06 0.000122644 3.36524e-08
5.63535e-07 3.36524e-08 8.21871e-06
0.00172542 5.3416e-07 8.75509e-07
5.3416e-07 8.17526e-05 -4.82344e-08
8.75509e-07 -4.82344e-08 -1.79294e-05
0.00173196 -7.24148e-06 6.89813e-07
-7.24148e-06 0.000144342 4.12558e-07
6.89813e-07 4.12558e-07 2.99849e-05
0.00172521 -7.37046e-06 2.01989e-06
-7.37046e-06 0.000228939 -2.23284e-07
2.01989e-06 -2.23284e-07 0.000107279
0.000790051 -7.03003e-06 -1.25892e-05
-7.03003e-06 -0.000186493 6.52917e-07
-1.25892e-05 6.52917e-07 -0.000302353
0.00173406 -2.57053e-05 5.23941e-06
-2.57053e-05 0.000239065 -3.54213e-07
5.23941e-06 -3.54213e-07 0.000112725
0.000942044 -1.82553e-05 -2.56497e-06
-1.82553e-05 -9.76167e-05 3.57553e-07
-2.56497e-06 3.57553e-07 -0.000213731
0.000668378 -6.34018e-06 -1.72336e-05
-6.34018e-06 -9.53256e-05 1.88711e-06
-1.72336e-05 1.88711e-06 -0.000161746
0.00109497 -4.06715e-05 1.13322e-05
-4.06715e-05 -2.78545e-06 -2.10657e-06
1.13322e-05 -2.10657e-06 -0.000117663
0.00065097 -2.24366e-05 4.79646e-07
-2.24366e-05 -9.9187e-05 -3.58393e-09
4.79646e-07 -3.58393e-09 -0.00016475
0.00520474 -8.49613e-05 -0.000171642
-8.49613e-05 0.00260444 5.36123e-06
-0.000171642 5.36123e-06 0.00260369
0.000653421 -2.97221e-05 1.59265e-05
-2.97221e-05 -9.03759e-05 -3.3974e-06
1.59265e-05 -3.3974e-06 -0.00015596
0.00516217 -3.27108e-05 1.06224e-05
-3.27108e-05 0.00258025 -1.39256e-07
1.06224e-05 -1.39256e-07 0.00257984
0.00150064 -1.4409e-05 0.000147504
-1.4409e-05 0.000492148 -7.14673e-06
0.000147504 -7.14673e-06 0.000475693
0.00167281 4.14621e-05 9.33442e-07
4.14621e-05 0.000117835 3.17001e-07
9.33442e-07 3.17001e-07 1.67755e-06
0.00177517 6.61515e-05 -1.68863e-06
6.61515e-05 0.00011413 -2.22484e-07
-1.68863e-06 -2.22484e-07 1.09173e-05
0.00143328 4.48648e-05 -3.68965e-06
4.48648e-05 7.60322e-05 -1.17495e-08
-3.68965e-06 -1.17495e-08 -4.84256e-05
0.0015972 5.1117e-05 4.18307e-07
5.1117e-05 7.59566e-05 8.59002e-09
4.18307e-07 8.59002e-09 -4.25808e-05
0.00185058 6.47481e-05 -8.30142e-07
6.47481e-05 0.000144753 -1.83791e-06
-8.30142e-07 -1.83791e-06 4.55585e-05
0.0011071 6.36847e-05 -1.13997e-05
6.36847e-05 6.02977e-07 -2.06039e-06
-1.13997e-05 -2.06039e-06 -0.000111
0.00139616 8.04394e-05 4.52355e-08
8.04394e-05 5.66785e-05 1.41796e-07
4.52355e-08 1.41796e-07 -7.23766e-05
0.00161828 8.89692e-05 5.98495e-07
8.89692e-05 8.55073e-05 -7.48157e-07
5.98495e-07 -7.48157e-07 -4.00123e-05
0.000614451 5.97302e-05 -1.63963e-05
5.97302e-05 -0.000112077 -4.59221e-06
-1.63963e-05 -4.59221e-06 -0.00017736
0.000862947 8.43953e-05 -3.24366e-06
8.43953e-05 -0.000128553 -4.63033e-07
-3.24366e-06 -4.63033e-07 -0.000244174
0.00177327 0.000129225 5.25226e-06
0.000129225 0.000285131 9.76769e-07
5.25226e-06 9.76769e-07 0.000153544
0.00524328 0.000106075 -0.000181608
0.000106075 0.00262598 -1.15409e-05
-0.000181608 -1.15409e-05 0.00262546
0.00059478 8.30354e-05 7.70888e-08
8.30354e-05 -0.000108795 1.19843e-07
7.70888e-08 1.19843e-07 -0.000176363
0.000638422 9.74039e-05 8.07294e-06
9.74039e-05 -0.000240251 2.79909e-06
8.07294e-06 2.79909e-06 -0.000359475
0.005183 6.40025e-05 1.02035e-05
6.40025e-05 0.00260563 1.33438e-06
1.02035e-05 1.33438e-06 0.00259986
0.000570025 0.000103339 1.68157e-05
0.000103339 -0.000107398 7.8105e-06
1.68157e-05 7.8105e-06 -0.000180166
0.00499437 -3.39008e-05 0.000145975
-3.39008e-05 0.00250531 9.22128e-06
0.000145975 9.22128e-06 0.00249927
0.00171229 2.20305e-05 -2.05936e-06
2.20305e-05 0.000227779 -1.71846e-07
-2.05936e-06 -1.71846e-07 0.000109545
0.0017385 2.6525e-05 -2.51994e-07
2.6525e-05 0.000136395 1.046e-07
-2.51994e-07 1.046e-07 2.2291e-05
0.00170008 3.89005e-05 -6.77914e-07
3.89005e-05 6.27555e-05 2.44804e-07
-6.77914e-07 2.44804e-07 -4.02881e-05
0.000776898 -1.01924e-05 -1.3039e-05
-1.01924e-05 -0.000190804 -2.1814e-07
-1.3039e-05 -2.1814e-07 -0.000304672
0.00171904 3.39673e-06 2.17381e-06
3.39673e-06 0.000229396 -6.40792e-08
2.17381e-06 -6.40792e-08 0.000109968
0.00173014 1.3288e-06 7.44511e-07
1.3288e-06 0.000136379 1.76076e-07
7.44511e-07 1.76076e-07 2.31875e-05
0.00173033 -7.26959e-06 6.2321e-06
-7.26959e-06 0.000231505 -3.07388e-08
6.2321e-06 -3.07388e-08 0.000109816
0.000776436 -6.91158e-06 -1.93635e-06
-6.91158e-06 -0.000194762 1.34889e-07
-1.93635e-06 1.34889e-07 -0.000310833
0.000679407 -1.71808e-05 -1.73567e-05
-1.71808e-05 -9.23877e-05 6.66854e-07
-1.73567e-05 6.66854e-07 -0.000158509
0.00109247 -1.63376e-05 9.10407e-06
-1.63376e-05 -1.24936e-05 -1.22752e-06
9.10407e-06 -1.22752e-06 -0.000127217
0.000653976 3.04693e-06 1.81188e-07
3.04693e-06 -0.000103808 9.66666e-08
1.81188e-07 9.66666e-08 -0.00017
0.00529402 -6.83602e-05 -0.000181164
-6.83602e-05 0.00265245 3.50635e-06
-0.000181164 3.50635e-06 0.00265276
0.00065537 -1.68586e-05 1.66728e-05
-1.68586e-05 -9.65873e-05 -2.31242e-06
1.66728e-05 -2.31242e-06 -0.000162488
0.00524438 1.44624e-05 -1.59796e-06
1.44624e-05 0.00262097 7.97419e-07
-1.59796e-06 7.97419e-07 0.00262359
0.00519089 -4.59483e-05 0.000174351
-4.59483e-05 0.00259136 -5.05746e-06
0.000174351 -5.05746e-06 0.00259408
0.00144388 2.86158e-05 -3.72482e-06
2.86158e-05 8.38673e-05 -2.32461e-07
-3.72482e-06 -2.32461e-07 -3.85659e-05
0.00166658 4.4242e-05 -8.99988e-08
4.4242e-05 0.000113346 -5.88771e-07
-8.99988e-08 -5.88771e-07 -1.00669e-06
0.00174338 7.00049e-05 -2.85788e-06
7.00049e-05 9.09288e-05 -2.26731e-07
-2.85788e-06 -2.26731e-07 -1.0858e-05
0.00110353 3.36632e-05 -1.12582e-05
3.36632e-05 -4.30993e-06 -1.52215e-06
-1.12582e-05 -1.52215e-06 -0.00011397
0.00140268 4.49395e-05 2.11461e-07
4.49395e-05 5.78206e-05 8.13671e-08
2.11461e-07 8.13671e-08 -6.69156e-05
0.00159894 5.02312e-05 -2.02537e-07
5.02312e-05 7.81725e-05 -1.3379e-06
-2.02537e-07 -1.3379e-06 -4.04155e-05
0.0006432 3.55714e-05 -1.5996e-05
3.55714e-05 -0.000103906 -3.50697e-06
-1.5996e-05 -3.50697e-06 -0.000168554
0.00109742 6.52874e-05 1.02117e-07
6.52874e-05 -4.44423e-06 1.89498e-07
1.02117e-07 1.89498e-07 -0.000116413
0.00137897 8.00307e-05 4.55168e-06
8.00307e-05 4.75422e-05 6.50025e-07
4.55168e-06 6.50025e-07 -8.16331e-05
0.00522821 0.000119935 -0.000193269
0.000119935 0.00261711 -1.01698e-05
-0.000193269 -1.01698e-05 0.00261607
0.000632866 6.06551e-05 1.98584e-07
6.06551e-05 -0.000101365 1.63558e-07
1.98584e-07 1.63558e-07 -0.000166853
0.00104711 9.17575e-05 8.30841e-06
9.17575e-05 -2.37574e-05 2.3629e-06
8.30841e-06 2.3629e-06 -0.000138685
0.00519123 0.00011885 5.15251e-06
0.00011885 0.00260295 1.70402e-06
5.15251e-06 1.70402e-06 0.00259991
0.000602048 8.05933e-05 1.59439e-05
8.05933e-05 -0.000104587 6.31147e-06
1.59439e-05 6.31147e-06 -0.00017215
0.00514804 8.33163e-05 0.000170326
8.33163e-05 0.00258162 1.22945e-05
0.000170326 1.22945e-05 0.0025792
0.00113239 9.79104e-06 -1.18822e-05
9.79104e-06 1.12721e-05 -6.96707e-07
-1.18822e-05 -6.96707e-07 -9.86119e-05
0.00153938 1.67483e-05 2.44928e-06
1.67483e-05 0.000130267 8.57658e-08
2.44928e-06 8.57658e-08 1.06795e-05
0.00170719 2.09698e-05 -3.06028e-07
2.09698e-05 0.000120835 1.93101e-07
-3.06028e-07 1.93101e-07 5.95119e-06
0.000686767 2.38796e-05 -1.7721e-05
2.38796e-05 -9.32525e-05 -4.36799e-07
-1.7721e-05 -4.36799e-07 -0.000154025
0.00076491 -4.49654e-06 -2.12415e-06
-4.49654e-06 -0.000198519 2.25201e-08
-2.12415e-06 2.25201e-08 -0.000312575
0.00174153 9.74978e-06 6.49783e-06
9.74978e-06 0.000242076 9.93567e-08
6.49783e-06 9.93567e-08 0.000122641
0.000760504 -6.3805e-06 8.65129e-06
-6.3805e-06 -0.00020439 -3.38283e-07
8.65129e-06 -3.38283e-07 -0.00032066
0.00066215 -1.10372e-06 1.61386e-07
-1.10372e-06 -0.000102286 2.95576e-07
1.61386e-07 2.95576e-07 -0.000168148
0.00533708 5.3897e-05 -0.000189606
5.3897e-05 0.00267359 -9.08479e-07
-0.000189606 -9.08479e-07 0.00267564
0.000636563 1.20823e-05 1.64568e-05
1.20823e-05 -0.000114062 -1.15836e-06
1.64568e-05 -1.15836e-06 -0.000179941
0.00530867 -6.68671e-05 -7.79549e-06
-6.68671e-05 0.0026602 1.24714e-06
-7.79549e-06 1.24714e-06 0.00266043
0.00525764 4.83868e-05 0.000166618
4.83868e-05 0.00263021 -2.2848e-06
0.000166618 -2.2848e-06 0.00263116
0.00111477 1.7245e-05 -1.17703e-05
1.7245e-05 1.22754e-06 -1.2887e-06
-1.17703e-05 -1.2887e-06 -0.000107942
0.00137477 2.78849e-05 5.72981e-08
2.78849e-05 4.36566e-05 -5.13159e-08
5.72981e-08 -5.13159e-08 -7.82601e-05
0.00166327 4.68875e-05 -1.14261e-06
4.68875e-05 0.000110388 -1.08117e-06
-1.14261e-06 -1.08117e-06 -2.16302e-06
0.00255863 3.15749e-05 -9.52441e-05
3.15749e-05 0.000982243 -2.82844e-06
-9.52441e-05 -2.82844e-06 0.000935931
0.00111115 3.5895e-05 1.50852e-07
3.5895e-05 -4.88875e-07 1.87652e-07
1.50852e-07 1.87652e-07 -0.000110331
0.00137089 4.48635e-05 4.21488e-06
4.48635e-05 3.8955e-05 2.32101e-07
4.21488e-06 2.32101e-07 -8.60636e-05
0.00521226 0.000115149 -0.000196582
0.000115149 0.0026109 -8.04404e-06
-0.000196582 -8.04404e-06 0.00260856
0.000672856 4.40685e-05 4.68867e-07
4.40685e-05 -8.60715e-05 2.29488e-07
4.68867e-07 2.29488e-07 -0.000151397
0.0010994 6.71806e-05 1.13929e-05
6.71806e-05 -3.16378e-06 2.43207e-06
1.13929e-05 2.43207e-06 -0.000115477
0.00523211 0.000135514 5.52975e-07
0.000135514 0.00262375 1.50436e-06
5.52975e-07 1.50436e-06 0.00262076
0.000659316 6.0316e-05 1.64202e-05
6.0316e-05 -8.60852e-05 5.13209e-06
1.64202e-05 5.13209e-06 -0.000151659
0.00514869 0.000137999 0.000179811
0.000137999 0.00258271 1.34331e-05
0.000179811 1.34331e-05 0.00257821
0.000721204 7.77835e-06 -1.61344e-05
7.77835e-06 -6.59771e-05 -1.71499e-06
-1.61344e-05 -1.71499e-06 -0.000131329
0.000946264 7.47474e-06 6.21334e-07
7.47474e-06 -9.38027e-05 2.48383e-07
6.21334e-07 2.48383e-07 -0.000205079
0.00136094 1.12523e-05 6.02829e-06
1.12523e-05 2.96419e-05 2.52051e-07
6.02829e-06 2.52051e-07 -9.12699e-05
0.00526648 -9.10238e-05 -0.000174272
-9.10238e-05 0.00264822 -9.26841e-07
-0.000174272 -9.26841e-07 0.00264139
0.000664049 8.00851e-06 -3.02049e-07
8.00851e-06 -0.000101882 2.1833e-07
-3.02049e-07 2.1833e-07 -0.000164974
0.000759551 8.8068e-07 8.68753e-06
8.8068e-07 -0.000202559 1.58117e-07
8.68753e-06 1.58117e-07 -0.00031679
0.000637888 1.79411e-05 1.68265e-05
1.79411e-05 -0.000115827 1.67902e-07
1.68265e-05 1.67902e-07 -0.000181532
0.00532121 2.02105e-05 2.974e-06
2.02105e-05 0.00266766 -9.01581e-08
2.974e-06 -9.01581e-08 0.00266723
0.00533938 2.76531e-05 0.000178423
2.76531e-05 0.00267095 -4.9861e-07
0.000178423 -4.9861e-07 0.00267413
0.0026035 2.04931e-07 -9.42587e-05
2.04931e-07 0.00100317 -1.96529e-06
-9.42587e-05 -1.96529e-06 0.000957153
0.00112879 1.98472e-05 -4.34149e-09
1.98472e-05 8.65204e-06 5.94654e-08
-4.34149e-09 5.94654e-08 -0.000100591
0.00130413 2.73575e-05 3.94381e-06
2.73575e-05 2.63041e-06 3.5003e-08
3.94381e-06 3.5003e-08 -0.000118771
0.0049305 -6.52034e-05 -3.69702e-05
-6.52034e-05 0.00246013 -3.32516e-07
-3.69702e-05 -3.32516e-07 0.00244536
0.000685266 3.42565e-05 -3.7121e-08
3.42565e-05 -8.17486e-05 2.31387e-07
-3.7121e-08 2.31387e-07 -0.000146993
0.00113072 3.86687e-05 1.13891e-05
3.86687e-05 9.78253e-06 1.94582e-06
1.13891e-05 1.94582e-06 -0.000100207
0.00524727 7.77695e-05 -1.15425e-05
7.77695e-05 0.00262576 -3.82535e-07
-1.15425e-05 -3.82535e-07 0.00262625
0.000702472 6.09172e-05 1.75569e-05
6.09172e-05 -6.78079e-05 4.32153e-06
1.75569e-05 4.32153e-06 -0.000134049
0.0052174 0.000155071 0.000188931
0.000155071 0.00262079 1.31258e-05
0.000188931 1.31258e-05 0.00261533
0.00165864 -3.62546e-05 -0.000159769
-3.62546e-05 0.000573178 4.01805e-07
-0.000159769 4.01805e-07 0.00055702
0.00164516 1.87725e-05 -3.86339e-05
1.87725e-05 0.000455934 2.55751e-07
-3.86339e-05 2.55751e-07 0.000402979
0.000766652 7.68795e-06 1.15604e-05
7.68795e-06 -0.000195209 9.69932e-07
1.15604e-05 9.69932e-07 -0.0003079
0.00527745 -3.70917e-05 8.54712e-06
-3.70917e-05 0.00265014 1.83517e-08
8.54712e-06 1.83517e-08 0.00264677
0.000662141 -6.9333e-06 1.73486e-05
-6.9333e-06 -9.98792e-05 9.47078e-07
1.73486e-05 9.47078e-07 -0.00016464
0.00533301 -5.09073e-05 0.000194473
-5.09073e-05 0.00267388 -5.15299e-07
0.000194473 -5.15299e-07 0.0026745
0.00131917 -1.73965e-05 -1.74178e-05
-1.73965e-05 0.000399583 -8.38064e-07
-1.74178e-05 -8.38064e-07 0.000365874
0.00163939 1.03605e-05 -3.87843e-05
1.03605e-05 0.000456669 -2.37381e-07
-3.87843e-05 -2.37381e-07 0.000401723
0.00113019 2.08653e-05 1.15338e-05
2.08653e-05 9.27801e-06 1.43427e-06
1.15338e-05 1.43427e-06 -0.000100063
0.00327274 3.49027e-05 7.13778e-05
3.49027e-05 0.00150334 1.33088e-06
7.13778e-05 1.33088e-06 0.0014885
0.000693507 4.27369e-05 1.76823e-05
4.27369e-05 -7.69235e-05 3.56149e-06
1.76823e-05 3.56149e-06 -0.000142428
0.00525986 8.14788e-05 0.000179296
8.14788e-05 0.00263149 8.65461e-06
0.000179296 8.65461e-06 0.00263304
0.00521718 -2.63857e-05 -8.92083e-06
-2.63857e-05 0.00261818 -6.59516e-07
-8.92083e-06 -6.59516e-07 0.00261434
0.000677366 3.16383e-05 1.81564e-05
3.16383e-05 -9.44347e-05 1.7365e-06
1.81564e-05 1.7365e-06 -0.000155064
0.00522569 5.75684e-05 0.000179148
5.75684e-05 0.00261832 -6.99278e-07
0.000179148 -6.99278e-07 0.00261719
0.00326918 2.92567e-05 8.63874e-05
2.92567e-05 0.00150507 1.80629e-06
8.63874e-05 1.80629e-06 0.00148901
0.000698454 6.586e-06 1.72764e-05
6.586e-06 -7.65022e-05 2.51523e-06
1.72764e-05 2.51523e-06 -0.000140764
0.00524335 -3.99983e-05 0.000172445
-3.99983e-05 0.00262376 4.41851e-06
0.000172445 4.41851e-06 0.00262397
0.00521938 -0.000135021 0.000173299
-0.000135021 0.00262647 -1.29618e-06
0.000173299 -1.29618e-06 0.00261747
0.00521396 -2.77842e-05 0.000171146
-2.77842e-05 0.00260387 2.06948e-06
0.000171146 2.06948e-06 0.00260687
