# vtk DataFile Version 2.0
Wound Healing Simulation
ASCII
DATASET UNSTRUCTURED_GRID
POINTS 3012 float
69.9759 18.75 4
67.2507 60.3285 4
69.976 18.75 2
73.0099 25.446 4
71.1327 20.9142 4
68.6801 16.6661 4
67.8263 19.9261 3.98404
67.2507 60.3286 2
71.1327 54.0858 4
68.6801 58.3339 4
65.6939 62.2254 4
65.313 59.0021 3.98493
74.6784 42.3946 4
73.7221 47.2057 4
69.9759 18.75 0
73.0099 25.446 2
68.6801 16.6661 2
71.1327 20.9142 2
67.8267 19.9288 2
74.6792 32.6053 4
73.7222 27.7943 4
72.1454 23.1494 4
70.6148 26.2212 3.9841
68.8865 21.9584 3.98453
67.2507 14.6715 4
66.6379 17.9714 3.98411
65.7984 21.025 3.97598
67.2507 60.3285 0
71.1327 54.0858 2
68.6801 58.3339 2
65.694 62.2255 2
65.3142 58.9996 2
72.1454 51.8506 4
69.9759 56.25 4
68.8369 53.1129 3.98352
64.0165 64.0165 4
66.6114 57.1343 3.98446
63.8866 60.7669 3.98679
63.502 57.7732 3.9782
60.3285 67.2507 4
74.6792 42.3947 2
73.7222 47.2057 2
74.9194 39.9526 4
74.2788 44.8158 4
72.1686 42.0857 3.98247
73.0099 49.554 4
71.2498 46.5983 3.983
73.0099 25.446 0
71.1327 20.9142 0
68.6801 16.6661 0
67.8263 19.9261 0.0159597
74.6792 32.6053 2
73.7222 27.7943 2
67.2508 14.6715 2
72.1455 23.1494 2
70.6149 26.2217 2
66.6387 17.9742 2
68.8868 21.9604 2
65.798 21.0252 2
74.9197 35.0474 4
74.2794 30.1841 4
72.1852 32.9432 3.98277
71.2788 28.4314 3.98349
69.8163 24.06 3.98446
68.3482 26.951 3.97458
66.7639 22.933 3.97545
65.694 12.7746 4
65.3247 16.1024 3.98572
64.7152 19.1941 3.97684
63.8875 22.0354 3.97192
71.1327 54.0858 0
65.6939 62.2254 0
68.6801 58.3339 0
65.313 59.0021 0.0150713
72.1455 51.8506 2
69.9759 56.25 2
68.8372 53.1108 2
64.0165 64.0165 2
66.6123 57.1314 2
63.8879 60.7653 2
63.502 57.774 2
62.2254 65.694 4
58.8952 65.4146 3.99207
69.7695 50.9888 3.9835
67.7843 55.1674 3.98369
66.6502 52.2095 3.97415
62.337 62.4282 3.98908
64.6624 56.0326 3.97737
62.2043 59.4064 3.97957
61.8242 56.6826 3.97406
58.3339 68.6801 4
60.3285 67.2508 2
73.7221 47.2057 0
74.6784 42.3946 0
74.9197 39.9526 2
74.2794 44.8159 2
72.1683 42.0856 2
73.0099 49.554 2
71.2499 46.5978 2
75 37.5 4
72.4057 39.8023 3.98253
71.783 44.3531 3.98283
69.8047 41.7899 3.97285
70.5756 48.8136 3.98318
68.9134 46.0154 3.97346
74.6792 32.6053 0
73.7222 27.7943 0
67.2507 14.6715 0
72.1454 23.1494 0
70.6148 26.2212 0.0159028
68.8865 21.9584 0.0154741
66.6379 17.9714 0.0158933
65.7984 21.025 0.024016
74.9197 35.0474 2
74.2794 30.1841 2
72.1849 32.9434 2
71.2788 28.4316 2
65.694 12.7745 2
65.3259 16.1044 2
69.8164 24.0612 2
68.3481 26.9512 2
64.715 19.1938 2
66.7636 22.9333 2
63.8871 22.0352 2
72.4135 35.2241 3.9825
71.8043 30.6762 3.98299
69.8407 33.2679 3.97339
68.9673 29.0376 3.97411
67.6126 24.9117 3.97483
66.1955 27.6338 3.97092
64.0165 10.9835 4
64.7573 23.8297 3.97169
63.8911 14.326 3.98764
63.5152 17.4448 3.97924
62.9074 20.3204 3.97198
62.0917 22.9441 3.97033
60.6846 11.0968 3.98992
57.6128 11.445 3.98357
72.1454 51.8506 0
69.9759 56.25 0
68.8369 53.1129 0.0164817
64.0165 64.0165 0
63.8866 60.7669 0.0132145
66.6114 57.1343 0.0155354
63.502 57.7732 0.0218007
62.2255 65.694 2
58.8958 65.4144 2
69.7696 50.9875 2
67.7848 55.1646 2
66.65 52.209 2
62.3381 62.4273 2
64.6622 56.0329 2
62.2043 59.4076 2
61.8242 56.6837 2
60.6695 63.9776 3.9908
57.026 66.7354 3.99274
57.5589 63.6938 3.98569
67.5083 50.1771 3.97357
65.7028 54.1736 3.97505
64.5374 51.3855 3.97029
60.7742 60.9402 3.98169
62.821 55.0687 3.97336
60.6594 58.1615 3.97494
60.3277 55.7859 3.97343
56.25 69.9759 4
58.3339 68.6801 2
60.3285 67.2507 0
58.9218 9.65514 3.99087
62.2254 9.30607 4
73.0099 49.554 0
74.2788 44.8158 0
71.2498 46.5983 0.0169966
72.1686 42.0857 0.0175274
74.9194 39.9526 0
75 37.5 2
72.4056 39.8024 2
71.7829 44.3526 2
69.8045 41.7896 2
70.5757 48.8129 2
68.9134 46.015 2
72.4891 37.5121 3.98229
70.0417 39.6573 3.97268
69.4314 43.9079 3.97325
67.5976 41.4976 3.96954
68.2668 48.1076 3.97335
66.7105 45.4404 3.9698
74.9197 35.0474 0
74.2794 30.1841 0
72.1852 32.9432 0.0172321
71.2788 28.4314 0.0165065
65.694 12.7746 0
65.3247 16.1024 0.0142828
69.8163 24.06 0.0155394
68.3482 26.951 0.0254247
66.7639 22.933 0.0245495
64.7152 19.1941 0.0231642
63.8875 22.0354 0.0280845
72.4135 35.2241 2
71.8043 30.6765 2
69.8405 33.2681 2
68.9674 29.0378 2
64.0165 10.9835 2
63.8922 14.3273 2
63.5153 17.4439 2
67.6124 24.912 2
66.1954 27.6338 2
62.9072 20.3198 2
64.757 23.8297 2
62.0914 22.944 2
60.6854 11.0975 2
57.613 11.4442 2
70.0584 35.3916 3.97285
69.4678 31.149 3.97342
67.6558 33.5903 3.96991
66.773 29.622 3.97025
65.5248 25.6987 3.97119
64.1466 28.2549 3.97017
62.3424 12.654 3.98889
62.8563 24.6373 3.97046
62.2009 15.782 3.98143
61.815 18.6834 3.97417
61.2156 21.3435 3.9691
60.4225 23.7291 3.97026
59.247 12.7764 3.98217
55.8747 10.2315 3.98517
56.4056 13.1111 3.98012
69.7695 50.9888 0.0164954
62.2254 65.694 0
58.8952 65.4146 0.00792798
67.7843 55.1674 0.0163058
66.6502 52.2095 0.0258526
62.337 62.4282 0.0109227
62.2043 59.4064 0.0204342
64.6624 56.0326 0.0226274
61.8242 56.6826 0.0259365
60.6704 63.9771 2
57.0264 66.7354 2
57.559 63.695 2
67.5082 50.1766 2
65.7025 54.1735 2
64.5372 51.3855 2
60.7743 60.9414 2
62.8209 55.0695 2
60.6595 58.1628 2
60.3279 55.7865 2
55.0715 67.9324 3.993
59.2201 62.3683 3.98295
55.8057 64.9118 3.98807
56.3277 62.0929 3.98165
65.3317 49.4088 3.96956
63.7055 53.2921 3.97041
62.4399 50.6517 3.96849
59.3344 59.5597 3.97851
61.0756 54.309 3.97254
59.2891 57.0123 3.97217
59.2405 55.1812 3.97588
48.1038 68.5796 3.98907
50.9491 69.932 3.99318
54.0858 71.1327 4
56.25 69.976 2
58.3339 68.6801 0
57.0591 8.3352 3.99139
60.3285 7.74928 4
58.9225 9.65555 2
62.2255 9.30602 2
70.5756 48.8136 0.0168171
71.783 44.3531 0.0171665
68.9134 46.0154 0.0265368
69.8047 41.7899 0.0271467
72.4057 39.8023 0.0174746
75 37.5 0
72.4888 37.5122 2
70.0417 39.6572 2
69.4312 43.9077 2
67.5974 41.4975 2
68.2668 48.1072 2
66.7105 45.4403 2
70.1297 37.5213 3.97274
67.8347 39.5122 3.96953
67.2243 43.4702 3.96972
65.5525 41.2095 3.9698
66.069 47.4186 3.96953
64.6525 44.8483 3.96935
72.4135 35.2241 0.0174972
71.8043 30.6762 0.0170054
69.8407 33.2679 0.0266057
68.9673 29.0376 0.0258923
64.0165 10.9835 0
63.8911 14.326 0.0123587
63.5152 17.4448 0.0207631
67.6126 24.9117 0.0251742
66.1955 27.6338 0.0290843
64.7573 23.8297 0.0283071
62.9074 20.3204 0.0280196
62.0917 22.9441 0.0296744
60.6846 11.0968 0.0100823
57.6128 11.445 0.016432
70.0583 35.3917 2
69.4679 31.1492 2
67.6556 33.5903 2
66.773 29.6219 2
62.3434 12.655 2
62.2008 15.7811 2
61.8151 18.6822 2
65.5245 25.6988 2
64.1465 28.2549 2
61.2156 21.343 2
62.8561 24.6373 2
60.4223 23.7292 2
59.247 12.7758 2
56.4055 13.1101 2
55.8748 10.2307 2
67.8707 35.5471 3.96966
67.2655 31.6217 3.96982
65.6966 33.9269 3.96989
64.6629 30.1915 3.96953
63.5378 26.4139 3.97015
62.2548 28.7781 3.97143
60.7765 14.2209 3.982
61.0428 25.3385 3.97055
60.6144 17.1251 3.97798
60.2211 19.8173 3.9704
59.656 22.2619 3.96859
58.9727 24.3229 3.97071
54.0378 9.13459 3.98619
57.911 14.3296 3.98036
54.7869 12.0101 3.9815
55.3125 14.6446 3.97876
67.5083 50.1771 0.0264313
57.026 66.7354 0.00725661
60.6695 63.9776 0.00920404
57.5589 63.6938 0.0143121
65.7028 54.1736 0.0249467
64.5374 51.3855 0.0297122
60.7742 60.9402 0.0183084
60.6594 58.1615 0.0250605
62.821 55.0687 0.0266358
60.3277 55.7859 0.0265706
55.0718 67.9325 2
59.2203 62.3695 2
55.8057 64.9128 2
56.3277 62.0942 2
65.3316 49.4087 2
63.7053 53.2925 2
62.4397 50.6517 2
59.3344 59.5609 2
61.0759 54.3094 2
59.2894 57.0128 2
59.2409 55.1815 2
53.0433 69.0002 3.99313
53.9681 66.0142 3.98882
57.8813 60.8725 3.98003
54.6847 63.2105 3.98394
55.2118 60.619 3.97951
63.1925 48.661 3.96844
61.738 52.5745 3.96795
60.2645 50.0165 3.96785
58.0184 58.2624 3.97434
59.3232 53.945 3.97237
58.1243 55.8076 3.97014
50.1105 67.8575 3.98906
47.464 66.5828 3.98655
46.0573 69.1589 3.98905
48.1038 68.58 2
48.8032 70.7233 3.99328
50.9494 69.9322 2
51.8506 72.1454 4
54.0858 71.1327 2
56.25 69.9759 0
55.1035 7.13989 3.99172
58.3339 6.31992 4
57.0597 8.33541 2
60.3286 7.74926 2
58.9218 9.65514 0.00912584
62.2254 9.30607 0
68.2668 48.1076 0.0266471
69.4314 43.9079 0.0267467
66.7105 45.4404 0.0301951
67.5976 41.4976 0.0304648
70.0417 39.6573 0.0273238
72.4891 37.5121 0.0177073
70.1296 37.5213 2
67.8347 39.5121 2
67.2242 43.4701 2
65.5522 41.2094 2
66.0689 47.4185 2
64.6524 44.8482 2
67.931 37.5217 3.96957
65.7821 39.3699 3.96994
65.1758 43.0251 3.96958
63.7347 40.9288 3.97181
63.9636 46.7165 3.9688
62.8006 44.2153 3.97179
70.0584 35.3916 0.0271524
69.4678 31.149 0.0265836
67.6558 33.5903 0.0300937
66.773 29.622 0.0297504
62.3424 12.654 0.0111127
62.2009 15.782 0.0185747
61.815 18.6834 0.0258324
65.5248 25.6987 0.0288071
64.1466 28.2549 0.0298346
62.8563 24.6373 0.0295426
61.2156 21.3435 0.0308964
60.4225 23.7291 0.0297403
59.247 12.7764 0.0178345
56.4056 13.1111 0.0198778
55.8747 10.2315 0.0148291
67.8706 35.5471 2
67.2655 31.6217 2
65.6965 33.9268 2
64.6629 30.1915 2
60.7765 14.2202 2
60.6143 17.1239 2
60.2214 19.8163 2
63.5376 26.4139 2
62.2544 28.7781 2
59.6561 22.2619 2
61.0426 25.3386 2
58.9725 24.3232 2
57.9107 14.3287 2
55.3122 14.6438 2
54.0378 9.13382 2
54.7869 12.0091 2
65.8719 35.6664 3.96987
65.1835 32.1539 3.96944
64.2711 34.2495 3.9713
62.5837 30.6362 3.97118
61.6465 27.0729 3.97064
60.8379 29.1414 3.9741
59.3118 15.6662 3.97984
59.3185 25.7993 3.97247
59.1236 18.3545 3.97537
58.7347 20.8584 3.9669
58.2761 23.0966 3.9687
57.9553 24.6683 3.97168
52.1124 8.15277 3.98697
53.0581 11.016 3.98271
56.6768 15.7405 3.97961
53.8093 13.6796 3.97963
54.3758 15.9979 3.97901
55.0715 67.9324 0.0069994
65.3317 49.4088 0.0304421
55.8057 64.9118 0.0119283
59.2201 62.3683 0.0170496
56.3277 62.0929 0.0183459
63.7055 53.2921 0.0295881
62.4399 50.6517 0.0315112
59.3344 59.5597 0.0214888
59.2891 57.0123 0.0278332
61.0756 54.309 0.0274614
59.2405 55.1812 0.0241201
53.0436 69.0003 2
53.968 66.0149 2
57.8813 60.8738 2
54.6847 63.2117 2
55.2118 60.6205 2
63.1924 48.6609 2
61.7379 52.5746 2
60.2646 50.0164 2
58.0186 58.2638 2
59.3237 53.9451 2
58.1247 55.8076 2
52.0716 67.0007 3.98904
52.9542 64.2213 3.98569
56.6486 59.4905 3.97788
53.6817 61.6258 3.98166
54.2599 59.3237 3.97724
60.9765 47.8775 3.96888
59.7015 52.1028 3.96743
58.0033 49.6107 3.9707
56.7754 56.9833 3.97205
57.1136 54.1141 3.96985
50.1104 67.8581 2
49.3378 65.9231 3.98655
47.4638 66.5834 2
46.8933 64.7387 3.98513
45.559 67.0999 3.98645
43.974 69.5912 3.98897
46.0573 69.1593 2
46.6097 71.3678 3.99327
48.1038 68.5796 0.0109285
48.8035 70.7235 2
49.554 73.0099 4
50.9491 69.932 0.00681602
51.8506 72.1455 2
54.0858 71.1327 0
53.0647 6.07137 3.99198
55.104 7.13989 2
56.25 5.02411 4
58.3339 6.3199 2
57.0591 8.3352 0.0086053
60.3285 7.74928 0
66.069 47.4186 0.0304738
67.2243 43.4702 0.0302846
64.6525 44.8483 0.0306533
65.5525 41.2095 0.0302025
67.8347 39.5122 0.030466
70.1297 37.5213 0.0272579
67.9308 37.5217 2
65.7818 39.3698 2
65.1757 43.025 2
63.7346 40.9287 2
63.9634 46.7164 2
62.8001 44.2151 2
65.8851 37.5014 3.96983
63.8693 39.2661 3.97143
63.3133 42.5492 3.97166
62.3938 40.6968 3.9737
61.9576 45.9172 3.9709
61.4275 43.6815 3.97441
67.8707 35.5471 0.0303392
67.2655 31.6217 0.0301849
65.6966 33.9269 0.0301073
64.6629 30.1915 0.0304743
60.7765 14.2209 0.0180035
60.6144 17.1251 0.0220222
60.2211 19.8173 0.0295986
63.5378 26.4139 0.0298496
62.2548 28.7781 0.0285672
61.0428 25.3385 0.0294482
59.656 22.2619 0.0314114
58.9727 24.3229 0.0292901
57.911 14.3296 0.0196386
55.3125 14.6446 0.0212355
54.0378 9.13459 0.0138112
54.7869 12.0101 0.0184998
65.8717 35.6664 2
65.1836 32.1538 2
64.2711 34.2495 2
62.5836 30.6362 2
59.3115 15.6652 2
59.1237 18.3533 2
58.7353 20.858 2
61.6461 27.073 2
60.838 29.1415 2
58.2763 23.097 2
59.3189 25.7995 2
57.9551 24.6687 2
56.6764 15.7395 2
54.3752 15.9971 2
53.8092 13.6786 2
52.1125 8.15213 2
53.058 11.0151 2
64.067 35.6321 3.97107
62.9055 33.0466 3.97155
60.5905 30.613 3.97409
59.5537 27.9126 3.97371
57.9397 16.9815 3.97848
57.7186 25.7299 3.97395
57.7117 19.4776 3.97147
57.36 21.8483 3.96552
57.171 23.9514 3.96931
50.1126 7.28442 3.98759
51.2326 10.1239 3.98378
52.1719 12.7964 3.98117
55.5369 16.9711 3.97913
52.9769 15.2635 3.97745
53.7569 16.9805 3.98012
53.0433 69.0002 0.00686508
53.9681 66.0142 0.011183
63.1925 48.661 0.0315647
54.6847 63.2105 0.0160634
57.8813 60.8725 0.0199671
55.2118 60.619 0.0204893
61.738 52.5745 0.0320481
60.2645 50.0165 0.0321535
58.0184 58.2624 0.0256609
58.1243 55.8076 0.0298612
59.3232 53.945 0.0276314
52.0716 67.0013 2
52.954 64.2221 2
56.6486 59.4919 2
53.6816 61.6271 2
54.2601 59.3251 2
60.9759 47.8772 2
59.7017 52.1027 2
58.002 49.6102 2
56.7752 56.9879 2
57.1143 54.1142 2
51.1688 65.1303 3.98634
52.047 62.5421 3.98372
55.4801 58.2511 3.97774
52.8344 60.1383 3.97946
53.6388 58.4733 3.97992
58.2716 46.8432 3.97357
57.5471 51.7794 3.96806
56.2143 49.5463 3.97186
55.4669 55.7819 3.96914
55.3441 53.371 3.97033
50.1105 67.8575 0.0109425
49.3376 65.9238 2
48.619 64.1253 3.98521
47.464 66.5828 0.0134487
45.5589 67.1005 2
46.893 64.7392 2
46.3828 63.0563 3.98441
45.1335 65.1997 3.98508
43.632 67.4705 3.98644
41.861 69.8786 3.9888
43.9741 69.5917 2
44.377 71.8626 3.99316
46.0573 69.1589 0.0109531
46.61 71.368 2
47.2057 73.7222 4
48.8032 70.7233 0.00671739
49.554 73.0099 2
51.8506 72.1454 0
50.9544 5.1316 3.99231
53.0651 6.07126 2
54.0858 3.86728 4
55.1035 7.13989 0.00827624
56.25 5.02406 2
58.3339 6.31992 0
63.9636 46.7165 0.031197
65.1758 43.0251 0.0304222
62.8006 44.2153 0.0282054
63.7347 40.9288 0.028191
65.7821 39.3699 0.0300635
67.931 37.5217 0.030433
65.8848 37.5013 2
63.8689 39.266 2
63.3132 42.549 2
62.3936 40.6968 2
61.9569 45.9169 2
61.4269 43.6813 2
63.9322 37.4566 3.97136
62.1061 39.3543 3.97273
61.1772 41.9567 3.97445
60.2288 44.7677 3.97463
65.8719 35.6664 0.0301296
65.1835 32.1539 0.0305571
64.2711 34.2495 0.0287022
62.5837 30.6362 0.0288227
59.3118 15.6662 0.0201555
59.1236 18.3545 0.0246283
58.7347 20.8584 0.0330988
61.6465 27.0729 0.0293578
60.8379 29.1414 0.0258967
59.3185 25.7993 0.0275253
58.2761 23.0966 0.0312952
57.9553 24.6683 0.0283173
56.6768 15.7405 0.0203874
54.3758 15.9979 0.0209919
53.8093 13.6796 0.0203689
52.1124 8.15277 0.0130292
53.0581 11.016 0.0172886
64.0668 35.632 2
62.9051 33.0467 2
60.5907 30.613 2
57.9394 16.9803 2
57.7122 19.4761 2
57.3607 21.8485 2
59.5538 27.9128 2
57.1702 23.952 2
57.7194 25.7303 2
50.1126 7.28389 2
55.5364 16.97 2
53.7565 16.9796 2
52.9765 15.2624 2
52.1717 12.7954 2
51.2325 10.1231 2
62.1406 35.3597 3.9723
60.2425 32.7464 3.97387
58.5838 30.0786 3.97563
57.2567 27.3861 3.97514
56.6347 18.1559 3.9781
56.2668 25.107 3.97162
56.3496 20.5277 3.96831
56.0897 22.8777 3.96631
48.0564 6.52721 3.98827
49.3245 9.33132 3.98431
50.4331 11.9937 3.98201
51.377 14.4983 3.97968
54.4127 17.9208 3.97992
52.3592 17.0383 3.97669
52.0716 67.0007 0.0109645
52.9542 64.2213 0.014308
60.9765 47.8775 0.0311207
53.6817 61.6258 0.0183438
56.6486 59.4905 0.0221174
54.2599 59.3237 0.0227563
59.7015 52.1028 0.0325697
58.0033 49.6107 0.029303
56.7754 56.9833 0.0279535
57.1136 54.1141 0.0301542
51.1686 65.131 2
52.0467 62.5431 2
55.4802 58.2523 2
52.8346 60.1395 2
53.6389 58.4746 2
58.2712 46.8429 2
57.5475 51.7791 2
56.2134 49.5457 2
55.4677 55.7827 2
55.345 53.3713 2
50.3472 63.3837 3.98467
51.2446 60.9388 3.98122
54.2164 57.2678 3.97783
52.3116 58.6358 3.9771
56.6475 44.1751 3.97682
55.4486 47.8867 3.97447
55.0496 51.38 3.96828
53.9934 54.528 3.96787
49.3378 65.9231 0.0134507
48.6188 64.126 2
47.963 62.4778 3.98429
45.559 67.0999 0.0135526
46.8933 64.7387 0.0148688
43.6319 67.4712 2
46.3827 63.057 2
45.1332 65.2004 2
45.9885 61.5891 3.98396
44.7681 63.4569 3.98435
43.3574 65.5091 3.98499
41.6639 67.6893 3.9862
39.7025 70.0257 3.98885
41.8611 69.8792 2
42.1113 72.2074 3.99304
43.974 69.5912 0.0110277
44.3773 71.8629 2
44.8159 74.2794 4
46.6097 71.3678 0.00672797
47.2057 73.7222 2
49.554 73.0099 0
48.7849 4.32245 3.99267
50.9547 5.13144 2
51.8506 2.85458 4
53.0647 6.07137 0.00801544
54.0858 3.86728 2
56.25 5.02411 0
61.9576 45.9172 0.0291037
63.3133 42.5492 0.0283361
61.4275 43.6815 0.0255909
62.3938 40.6968 0.0262964
63.8693 39.2661 0.028573
65.8851 37.5014 0.0301654
63.9317 37.4565 2
62.1055 39.3542 2
61.1769 41.9565 2
60.2279 44.7674 2
61.9431 37.4443 3.9729
60.1875 39.8458 3.9751
58.9366 42.914 3.9761
64.067 35.6321 0.0289254
62.9055 33.0466 0.0284514
60.5905 30.613 0.0259124
57.9397 16.9815 0.0215208
57.7117 19.4776 0.0285275
57.36 21.8483 0.0344777
59.5537 27.9126 0.0262897
57.7186 25.7299 0.0260521
57.171 23.9514 0.0306902
55.5369 16.9711 0.0208709
53.7569 16.9805 0.0198831
52.9769 15.2635 0.0225486
50.1126 7.28442 0.0124068
52.1719 12.7964 0.0188257
51.2326 10.1239 0.0162178
62.1401 35.3597 2
60.2419 32.7464 2
58.5832 30.0789 2
56.6345 18.1545 2
56.35 20.5248 2
56.0904 22.8783 2
57.2582 27.3864 2
56.2671 25.1079 2
48.0564 6.52665 2
49.3244 9.33082 2
54.4124 17.9199 2
52.3588 17.0374 2
51.3767 14.4971 2
50.4329 11.993 2
59.8224 35.1199 3.97381
57.9337 32.2728 3.97687
56.5 29.3454 3.97649
55.4074 26.6063 3.97505
55.3375 19.1898 3.97681
54.9021 24.0656 3.96889
54.987 21.5719 3.96759
45.9623 5.88214 3.98882
43.3736 7.4732 3.98613
47.355 8.62453 3.98491
48.6 11.2947 3.98247
49.7134 13.7443 3.98099
50.632 16.1338 3.97871
53.1208 18.662 3.97594
51.2977 18.0519 3.98302
51.1688 65.1303 0.013665
52.047 62.5421 0.0162816
58.2716 46.8432 0.0264327
52.8344 60.1383 0.0205358
55.4801 58.2511 0.0222613
53.6388 58.4733 0.0200794
57.5471 51.7794 0.0319353
56.2143 49.5463 0.0281353
55.4669 55.7819 0.0308607
55.3441 53.371 0.0296675
50.3468 63.3844 2
51.2445 60.9399 2
54.2166 57.2692 2
52.3118 58.637 2
56.6464 44.1747 2
55.4469 47.8859 2
55.0502 51.3796 2
53.9943 54.5297 2
49.5926 61.7478 3.98341
55.5331 41.6948 3.97732
50.5665 59.3307 3.97747
52.1798 56.4889 3.97197
54.1041 45.5511 3.97712
53.2834 49.3159 3.9714
52.6459 52.8342 3.96583
48.619 64.1253 0.0147888
47.9628 62.4784 2
47.3302 61.0123 3.98353
43.632 67.4705 0.0135601
45.1335 65.1997 0.0149152
46.3828 63.0563 0.0155889
41.6639 67.6898 2
43.3571 65.5099 2
45.9884 61.5899 2
44.7679 63.4577 2
45.7671 60.6335 3.98277
44.4844 61.8382 3.98355
43.1472 63.7291 3.98388
41.5467 65.6467 3.98443
39.6329 67.769 3.98593
37.5259 70.0508 3.98876
39.7026 70.0264 2
39.8179 72.4045 3.99289
41.861 69.8786 0.0111964
42.1115 72.2078 2
42.3947 74.6792 4
44.377 71.8626 0.00684452
44.8159 74.2794 2
47.2057 73.7222 0
43.8517 5.35893 3.98912
46.5709 3.64693 3.99289
48.7852 4.32224 2
49.554 1.99015 4
50.9544 5.1316 0.00769399
51.8506 2.85453 2
54.0858 3.86728 0
60.2288 44.7677 0.0253679
61.1772 41.9567 0.0255546
62.1061 39.3543 0.0272705
63.9322 37.4566 0.0286443
61.9425 37.4442 2
60.1868 39.8458 2
58.936 42.9137 2
59.6775 37.5658 3.97412
57.9165 40.6529 3.97723
54.978 39.7133 3.97759
62.1406 35.3597 0.0276982
60.2425 32.7464 0.0261316
58.5838 30.0786 0.0243667
56.6347 18.1559 0.0219047
56.3496 20.5277 0.0316878
56.0897 22.8777 0.0336892
57.2567 27.3861 0.0248628
56.2668 25.107 0.028377
54.4127 17.9208 0.0200834
52.3592 17.0383 0.0233051
51.377 14.4983 0.0203241
48.0564 6.52721 0.0117301
49.3245 9.33132 0.0156908
50.4331 11.9937 0.017987
59.8217 35.1199 2
45.9623 5.88166 2
43.3737 7.47271 2
57.935 32.2729 2
56.5 29.3458 2
55.3377 19.1887 2
54.9879 21.5709 2
54.9023 24.067 2
55.4024 26.6078 2
47.355 8.62391 2
48.5997 11.2943 2
53.1208 18.6611 2
51.2975 18.051 2
50.6317 16.1327 2
49.713 13.7435 2
57.3 34.7616 3.97774
55.6632 31.5259 3.97789
54.4358 28.4149 3.97865
53.7399 25.5071 3.97395
53.9611 20.1411 3.97579
53.5576 22.7243 3.96326
41.3988 7.0782 3.98677
45.3597 7.99531 3.98578
42.8656 9.41644 3.98386
46.6664 10.655 3.98273
47.745 13.1041 3.9818
48.9301 15.4035 3.97934
50.0031 17.7028 3.97971
51.6432 19.3261 3.98511
50.3472 63.3837 0.0153254
51.2446 60.9388 0.0187833
56.6475 44.1751 0.0231773
55.4486 47.8867 0.0255268
52.3116 58.6358 0.0228972
54.2164 57.2678 0.0221667
55.0496 51.38 0.0317205
53.9934 54.528 0.032134
49.5923 61.7484 2
55.533 41.6945 2
50.5666 59.332 2
52.1802 56.4898 2
54.1061 45.5504 2
53.2863 49.3152 2
52.6477 52.8336 2
48.8494 60.2047 3.98176
52.3981 42.6246 3.97823
49.7871 57.626 3.97749
50.5786 54.4195 3.96973
51.7257 47.2528 3.97618
51.1734 50.9309 3.96718
48.0328 43.7847 3.99203
47.963 62.4778 0.0157125
47.3301 61.0129 2
46.6194 59.7986 3.98301
41.6639 67.6893 0.0138037
43.3574 65.5091 0.0150134
44.7681 63.4569 0.0156526
45.9885 61.5891 0.0160366
39.6329 67.7697 2
41.5465 65.6471 2
45.7669 60.6343 2
43.1471 63.7298 2
44.4843 61.839 2
44.6242 60.2957 3.98306
42.9514 62.0861 3.98297
41.6006 63.8222 3.98386
39.648 65.6147 3.98386
37.5634 67.7512 3.98575
31.6965 65.1333 3.98434
33.3919 67.4887 3.9857
35.3332 69.9609 3.98876
37.526 70.0515 2
37.5095 72.4591 3.9928
39.7025 70.0257 0.01115
39.8181 72.4049 2
39.9526 74.9197 4
42.1113 72.2074 0.00695826
42.3947 74.6792 2
44.8159 74.2794 0
41.7363 4.96801 3.98951
43.8517 5.35841 2
44.3261 3.11004 3.9932
46.5711 3.6467 2
47.2057 1.27793 4
48.7849 4.32245 0.00732677
49.554 1.99013 2
51.8506 2.85458 0
58.9366 42.914 0.0238975
60.1875 39.8458 0.0248961
61.9431 37.4443 0.0270987
59.6774 37.5658 2
57.9153 40.6528 2
54.9787 39.7126 2
56.7073 37.8934 3.97799
49.4309 41.3238 3.98848
52.9979 39.3038 3.98017
39.4423 6.80156 3.98683
59.8224 35.1199 0.0261919
57.9337 32.2728 0.0231285
56.5 29.3454 0.0235095
55.3375 19.1898 0.0231889
54.987 21.5719 0.0324129
54.9021 24.0656 0.031106
55.4074 26.6063 0.0249462
53.1208 18.662 0.0240587
51.2977 18.0519 0.0169831
50.632 16.1338 0.0212856
45.9623 5.88214 0.0111782
49.7134 13.7443 0.0190107
47.355 8.62453 0.0150942
48.6 11.2947 0.0175257
43.3736 7.4732 0.0138662
57.299 34.7617 2
41.3989 7.07767 2
45.3597 7.99484 2
42.8655 9.41594 2
55.6629 31.5261 2
54.432 28.4168 2
53.9616 20.1404 2
53.5582 22.7219 2
53.7382 25.5084 2
46.6662 10.6543 2
47.7446 13.1036 2
51.6432 19.325 2
50.0028 17.7018 2
48.9297 15.4028 2
54.7653 33.9751 3.97744
53.397 30.4975 3.97684
52.5344 27.2144 3.97578
52.1091 24.1125 3.9725
52.3764 21.0608 3.97964
41.0135 9.04887 3.98412
44.7238 9.99678 3.98344
42.4686 10.9042 3.9832
46.0049 12.7325 3.98059
47.6805 14.5873 3.98013
48.1106 16.9923 3.97807
49.8135 19.629 3.97629
49.5926 61.7478 0.0165928
50.5665 59.3307 0.0225304
55.5331 41.6948 0.0226806
54.1041 45.5511 0.0228789
53.2834 49.3159 0.0285962
52.1798 56.4889 0.028033
52.6459 52.8342 0.0341707
48.8493 60.2053 2
52.4017 42.6232 2
49.7874 57.6278 2
50.5795 54.4205 2
51.7277 47.2514 2
51.1759 50.9296 2
48.0367 43.7954 2
47.9866 58.7453 3.97973
49.9774 45.2612 3.97809
48.5906 55.9168 3.97804
49.103 52.582 3.97207
49.6106 49.0326 3.97208
45.8344 39.8665 3.89385
46.2754 42.6657 3.93608
46.3859 45.8305 3.99222
43.6729 41.1623 3.85182
41.947 42.0212 3.7736
47.3302 61.0123 0.0164731
46.6191 59.7993 2
45.4687 58.7953 3.98291
39.6329 67.769 0.0140674
41.5467 65.6467 0.0155653
43.1472 63.7291 0.0161153
44.4844 61.8382 0.0164463
45.7671 60.6335 0.0172294
41.6005 63.8227 2
37.5634 67.7521 2
39.6478 65.6153 2
44.624 60.2965 2
42.9512 62.0868 2
41.7542 62.4968 3.98314
42.4816 59.9865 3.98386
39.8941 63.5568 3.98312
37.6424 65.5136 3.98372
35.4633 67.6606 3.98566
33.575 65.3466 3.98384
31.959 63.3054 3.98365
29.8825 64.7244 3.98492
31.6966 65.134 2
31.3764 67.1985 3.9859
33.3919 67.4895 2
33.1559 69.7542 3.98865
35.3332 69.9616 2
35.1947 72.3734 3.99276
37.5259 70.0508 0.0112427
37.5095 72.4595 2
37.5 75 4
39.8179 72.4045 0.00711092
39.9526 74.9197 2
42.3947 74.6792 0
39.6239 4.71507 3.98973
41.7364 4.96752 2
42.0624 2.71759 3.99331
43.8517 5.35893 0.0108782
44.3263 3.10973 2
44.8158 0.721173 4
46.5709 3.64693 0.00710738
47.2057 1.27779 2
49.554 1.99015 0
57.9165 40.6529 0.0227744
59.6775 37.5658 0.0258785
54.978 39.7133 0.0224111
49.4458 41.3267 2
56.706 37.8933 2
53.0002 39.3067 2
53.8464 36.63 3.97732
47.3574 40.4009 3.94109
50.3706 38.5121 3.98981
37.5161 6.67254 3.98716
39.4423 6.80099 2
39.211 8.69128 3.98467
35.9417 8.49102 3.98505
57.3 34.7616 0.0222645
55.6632 31.5259 0.0221078
54.4358 28.4149 0.0213487
53.9611 20.1411 0.0242142
53.5576 22.7243 0.036739
53.7399 25.5071 0.0260522
51.6432 19.3261 0.0148867
50.0031 17.7028 0.0202856
48.9301 15.4035 0.0206567
45.3597 7.99531 0.0142161
47.745 13.1041 0.0181989
46.6664 10.655 0.0172693
41.3988 7.0782 0.0132289
42.8656 9.41644 0.016137
54.7682 33.9743 2
41.0135 9.04839 2
44.7236 9.99641 2
42.4682 10.9037 2
53.3936 30.4969 2
52.5385 27.2158 2
52.3772 21.059 2
52.1104 24.1139 2
46.0045 12.7317 2
47.6801 14.5867 2
49.8135 19.6278 2
48.1103 16.9917 2
52.3305 32.887 3.98002
51.2312 29.167 3.97831
50.7348 25.7453 3.97281
49.9262 22.2124 3.97767
40.57 11.6082 3.98149
43.858 11.9204 3.98107
45.8014 15.4258 3.9801
47.5012 19.2421 3.97666
46.1694 37.4922 3.90013
48.8494 60.2047 0.0182406
49.7871 57.626 0.0225072
52.3981 42.6246 0.0217717
51.7257 47.2528 0.0238221
51.1734 50.9309 0.0328196
50.5786 54.4195 0.0302662
48.0328 43.7847 0.00797043
47.9864 58.7464 2
49.9832 45.2642 2
48.591 55.9195 2
49.1039 52.5838 2
49.614 49.0317 2
45.8603 39.877 2
46.293 42.6792 2
46.3863 45.8243 2
43.6954 41.1784 2
41.9563 42.0288 2
46.8367 57.3474 3.98272
44.4196 39.4413 3.85053
42.2923 40.8842 3.80573
47.9904 47.227 3.97628
47.1536 54.2397 3.97616
47.5453 50.7372 3.96634
44.7219 47.4128 3.98956
44.9382 41.9577 3.8959
44.8457 44.5653 3.94553
42.5298 42.679 3.85867
40.8475 42.3667 3.80462
46.6194 59.7986 0.016994
45.4684 58.7961 2
43.876 57.7204 3.98502
37.5634 67.7512 0.0142488
39.648 65.6147 0.0161356
41.6006 63.8222 0.016139
42.9514 62.0861 0.0170258
44.6242 60.2957 0.0169368
35.4633 67.6614 2
41.7541 62.4974 2
39.8939 63.5573 2
37.6423 65.5144 2
42.4816 59.9873 2
40.6237 61.6546 3.98279
40.4449 58.2181 3.98405
37.8372 63.2178 3.98241
35.5729 65.4356 3.98365
33.5751 65.3472 2
31.9588 63.3061 2
33.6287 63.345 3.98307
30.3778 62.8642 3.98394
32.1226 62.0118 3.98414
26.8676 61.5075 3.98342
28.0613 64.1522 3.98471
29.8826 64.7251 2
29.4057 66.7622 3.98608
31.6965 65.1333 0.0156643
31.3764 67.1992 2
31.013 69.4191 3.98863
33.3919 67.4887 0.0142957
33.1559 69.7548 2
32.8916 72.1476 3.9928
35.3332 69.9609 0.0112385
35.1947 72.3739 2
35.0474 74.9194 4
37.5095 72.4591 0.00719613
37.5 75 2
39.9526 74.9197 0
35.6207 6.72364 3.98683
37.5232 4.61462 3.98984
39.624 4.71457 2
39.7887 2.47396 3.99344
41.7363 4.96801 0.0104916
42.0625 2.71728 2
42.3946 0.32156 4
44.3261 3.11004 0.00680377
44.8159 0.72056 2
47.2057 1.27793 0
49.4309 41.3238 0.0115212
56.7073 37.8934 0.0220099
52.9979 39.3038 0.0198279
47.3731 40.4137 2
50.3846 38.5112 2
53.8519 36.6311 2
51.1688 35.58 3.97876
48.0136 37.7412 3.95622
45.8363 35.135 3.89455
43.6809 33.8351 3.8483
41.9538 32.9861 3.76991
37.4578 8.53263 3.98502
37.5161 6.67183 2
39.4423 6.80156 0.0131702
39.211 8.69064 2
38.9767 10.1252 3.98401
35.8986 9.77149 3.98351
34.1502 8.82062 3.98467
35.9415 8.49025 2
54.7653 33.9751 0.0225597
53.397 30.4975 0.023162
52.5344 27.2144 0.0242217
52.3764 21.0608 0.0203645
52.1091 24.1125 0.0274978
49.8135 19.629 0.0237066
48.1106 16.9923 0.0219256
47.6805 14.5873 0.0198701
44.7238 9.99678 0.0165643
46.0049 12.7325 0.0194098
41.0135 9.04887 0.015877
42.4686 10.9042 0.0167991
52.3322 32.8869 2
40.5697 11.6081 2
43.8575 11.92 2
51.2431 29.1663 2
50.7364 25.748 2
49.9273 22.2115 2
45.801 15.4251 2
47.5011 19.2404 2
49.8592 31.4191 3.97105
49.2134 27.5079 3.97665
49.3685 24.4266 3.98238
47.1784 21.9775 3.97437
38.3027 12.7345 3.98074
42.1011 14.3086 3.97952
44.7988 18.4665 3.97793
44.7115 37.4977 3.85159
46.2011 37.4975 2
47.9866 58.7453 0.0202695
48.5906 55.9168 0.0219618
49.9774 45.2612 0.0219054
49.6106 49.0326 0.0279179
49.103 52.582 0.0279338
45.8344 39.8665 0.106147
46.2754 42.6657 0.0639199
46.3859 45.8305 0.00777843
43.6729 41.1623 0.148184
41.947 42.0212 0.226399
46.8363 57.3488 2
44.4353 39.453 2
42.288 40.8856 2
47.9918 47.2286 2
47.1543 54.2443 2
47.5474 50.7386 2
44.7258 47.3898 2
44.9561 41.9719 2
44.8616 44.5812 2
42.5562 42.7005 2
40.8457 42.3684 2
45.393 55.9374 3.98775
42.6163 39.2759 3.81901
40.7496 40.805 3.87642
46.0318 48.9062 3.98525
45.5156 52.5323 3.98253
43.3917 48.4423 4.0043
43.324 46.1182 3.93937
43.5755 43.7614 3.88848
41.0697 43.8426 3.85353
39.2886 42.7207 3.81767
45.4687 58.7953 0.0170865
43.8757 57.721 2
42.1058 56.3462 3.98781
35.4633 67.6606 0.0143414
37.6424 65.5136 0.0162846
39.8941 63.5568 0.01688
41.7542 62.4968 0.0168586
42.4816 59.9865 0.0161368
35.5729 65.4366 2
40.6235 61.6553 2
37.837 63.2185 2
40.4447 58.2195 2
38.9243 56.5136 3.99026
38.2506 60.3373 3.98264
35.607 63.2112 3.98222
33.575 65.3466 0.0161627
31.959 63.3054 0.0163541
33.6286 63.3457 2
30.3777 62.8648 2
32.1225 62.0125 2
28.6803 62.209 3.98393
33.3454 61.5242 3.98334
31.0657 61.2292 3.98377
27.567 59.6046 3.98217
23.7907 59.0904 3.98046
25.0332 60.8799 3.98222
26.8676 61.5081 2
26.2279 63.4846 3.98473
28.0615 64.1529 2
27.4621 66.1861 3.98611
29.8825 64.7244 0.0150824
29.4057 66.7629 2
28.9051 68.9446 3.98864
31.3764 67.1985 0.0141049
31.013 69.4197 2
30.6139 71.7786 3.99285
33.1559 69.7542 0.0113493
32.8915 72.148 2
32.6054 74.6784 4
35.1947 72.3734 0.00724241
35.0474 74.9197 2
37.5 75 0
33.7233 6.97829 3.98636
35.4347 4.68489 3.98965
35.6206 6.72298 2
37.5141 2.38662 3.99344
37.5232 4.6141 2
39.6239 4.71507 0.0102691
39.7888 2.47365 2
39.9526 0.0806499 4
42.0624 2.71759 0.00668794
42.3947 0.320817 2
44.8158 0.721173 0
44.4377 35.5548 3.84505
42.3025 34.1157 3.8022
47.3574 40.4009 0.0589137
50.3706 38.5121 0.0101949
53.8464 36.63 0.022681
48.0276 37.7505 2
51.1787 35.5798 2
45.8555 35.1183 2
43.7052 33.8182 2
41.9634 32.9776 2
48.1918 34.3084 3.97798
44.9442 33.0392 3.88911
42.5375 32.3291 3.8555
40.8551 32.6412 3.80245
37.311 10.6285 3.98263
37.4577 8.53168 2
37.5161 6.67254 0.0128428
39.211 8.69128 0.0153281
38.9767 10.1244 2
34.7538 10.3776 3.98285
35.8985 9.77073 2
32.377 9.3674 3.98405
34.15 8.81999 2
35.9417 8.49102 0.0149492
52.3305 32.887 0.019985
51.2312 29.167 0.0216872
50.7348 25.7453 0.0271931
49.9262 22.2124 0.022333
47.5012 19.2421 0.0233366
45.8014 15.4258 0.0198992
43.858 11.9204 0.0189344
40.57 11.6082 0.0185107
49.8667 31.4139 2
38.3022 12.7338 2
42.1007 14.3086 2
49.2157 27.5111 2
49.3701 24.4259 2
47.1792 21.9769 2
44.7986 18.4669 2
47.694 29.5284 3.99092
47.0652 25.1683 3.98269
44.2846 21.3397 3.97587
36.5824 12.9304 3.98146
38.6814 14.8077 3.97934
41.749 17.8438 3.97849
42.747 37.4906 3.82082
44.725 37.4983 2
46.1694 37.4922 0.0998691
46.8367 57.3474 0.017282
47.1536 54.2397 0.0238406
47.9904 47.227 0.0237228
47.5453 50.7372 0.0336596
44.4196 39.4413 0.149471
44.9382 41.9577 0.104101
44.8457 44.5653 0.0544678
44.7219 47.4128 0.0104423
42.5298 42.679 0.141332
42.2923 40.8842 0.194273
40.8475 42.3667 0.195381
45.3932 55.938 2
42.6149 39.2741 2
40.7444 40.7998 2
46.0327 48.9078 2
45.5177 52.5379 2
43.3944 48.4599 2
43.3482 46.1424 2
43.5938 43.7798 2
41.0895 43.8644 2
39.2801 42.7149 2
43.7294 54.4508 3.99748
40.8524 39.1728 3.90539
39.164 40.8948 3.90547
43.6609 50.4959 4.00063
41.9181 47.6677 3.97341
41.8454 45.1866 3.89411
39.3556 44.5769 3.86627
37.4944 42.8378 3.83163
43.876 57.7204 0.0149793
42.1053 56.3475 2
40.416 54.9567 3.99231
35.5729 65.4356 0.0163462
37.8372 63.2178 0.0175948
40.6237 61.6546 0.0172096
40.4449 58.2181 0.0159502
35.6068 63.212 2
38.2502 60.3382 2
38.9242 56.5157 2
37.998 55.2699 3.99174
36.9339 57.6399 3.98353
35.3634 60.9224 3.98287
33.6287 63.345 0.0169327
30.3778 62.8642 0.0160616
32.1226 62.0118 0.0158641
33.3452 61.525 2
28.6802 62.2097 2
31.0657 61.2297 2
29.402 60.2983 3.98334
32.3559 59.7569 3.98579
28.0215 58.3845 3.98564
27.567 59.6052 2
25.3776 58.6028 3.97982
22.7553 58.2471 3.9748
23.3991 60.359 3.98032
23.7906 59.0913 2
25.0333 60.8806 2
24.4305 62.7771 3.98407
26.8676 61.5075 0.01658
26.2281 63.4853 2
25.5461 65.4961 3.98617
28.0613 64.1522 0.015292
27.4622 66.1867 2
26.8346 68.333 3.98869
29.4057 66.7622 0.0139193
28.9051 68.9451 2
28.3689 71.2637 3.99292
31.013 69.4191 0.0113671
30.6137 71.779 2
30.1842 74.2788 4
32.8916 72.1476 0.00719776
32.6053 74.6792 2
35.0474 74.9194 0
31.7877 7.4182 3.98593
33.3467 4.92408 3.98942
33.7232 6.97764 2
35.2442 2.46273 3.99346
35.4346 4.68437 2
35.6207 6.72364 0.0131704
37.5 0 4
37.5142 2.38631 2
37.5232 4.61462 0.0101563
39.7887 2.47396 0.00655734
39.9526 0.0802889 2
42.3946 0.32156 0
42.6223 35.7136 3.81994
44.4477 35.5446 2
40.7586 34.1983 3.87505
42.2971 34.1156 2
48.0136 37.7412 0.0437784
51.1688 35.58 0.0212448
45.8363 35.135 0.105451
43.6809 33.8351 0.151698
41.9538 32.9861 0.230092
48.2051 34.29 2
44.9635 33.0268 2
42.5605 32.3097 2
40.8541 32.6389 2
46.2114 31.5603 3.95347
43.5803 31.2468 3.88457
41.083 31.1692 3.85426
39.2944 32.2863 3.81648
35.6926 11.7739 3.9816
37.311 10.6276 2
37.4578 8.53263 0.0149813
38.9767 10.1252 0.0159872
33.0977 11.2145 3.98183
34.7538 10.3769 2
35.8986 9.77149 0.0164908
30.4816 10.0154 3.98354
32.3768 9.36673 2
34.1502 8.82062 0.0153262
49.8592 31.4191 0.0289507
49.2134 27.5079 0.0233521
49.3685 24.4266 0.0176186
47.1784 21.9775 0.0256328
44.7988 18.4665 0.0220693
42.1011 14.3086 0.0204754
38.3027 12.7345 0.0192599
36.5821 12.9299 2
47.6966 29.5137 2
38.6809 14.8071 2
41.7487 17.8434 2
47.0677 25.1677 2
44.2854 21.3327 2
45.4883 27.6537 4.00125
43.7804 24.0662 4.00016
41.3394 20.7239 3.97954
35.7723 14.7568 3.98042
38.6809 17.5999 3.97655
40.8986 37.4832 3.91677
42.7512 37.4918 2
44.7115 37.4977 0.148411
45.393 55.9374 0.0122522
45.5156 52.5323 0.0174744
46.0318 48.9062 0.0147487
42.6163 39.2759 0.180991
43.5755 43.7614 0.111515
43.324 46.1182 0.0606316
43.3917 48.4423 -0.00429682
41.0697 43.8426 0.146466
40.7496 40.805 0.123583
39.2886 42.7207 0.182332
43.7298 54.4526 2
40.8462 39.1692 2
39.157 40.8866 2
43.6633 50.5096 2
41.9152 47.68 2
41.8688 45.2037 2
37.4949 42.8287 2
39.3774 44.5883 2
41.8706 53.0279 3.99475
39.1791 39.174 3.93837
37.4946 40.9404 3.92421
35.7072 42.7197 3.8179
40.8948 49.7225 4.00161
39.8039 46.0878 3.87529
37.4935 44.8007 3.85718
42.1058 56.3462 0.0121864
40.4159 54.9576 2
38.7263 53.8866 3.99604
35.607 63.2112 0.0177752
38.2506 60.3373 0.0173574
38.9243 56.5136 0.00973798
35.3631 60.9231 2
36.9337 57.6411 2
37.9979 55.2713 2
36.319 55.3986 3.99121
34.487 58.5346 3.98575
33.3454 61.5242 0.0166641
28.6803 62.209 0.016074
31.0657 61.2292 0.0162261
32.3558 59.7576 2
29.4019 60.2989 2
30.2975 57.8306 3.9861
28.0213 58.3851 2
26.9452 56.8346 3.9797
27.567 59.6046 0.0178347
25.3775 58.6035 2
23.8389 56.8062 3.97284
21.3328 57.4026 3.97417
21.9921 59.6296 3.97946
22.7551 58.2484 2
22.7345 62.0282 3.98278
23.3991 60.3599 2
23.7907 59.0904 0.0195381
25.0332 60.8799 0.017785
24.4307 62.7778 2
23.68 64.7145 3.98586
26.2279 63.4846 0.015265
25.5462 65.4967 2
24.8068 67.5941 3.9887
27.4621 66.1861 0.0138936
26.8346 68.3335 2
26.1641 70.6045 3.99302
28.9051 68.9446 0.011356
28.3687 71.264 2
27.7943 73.7221 4
30.6139 71.7786 0.00715014
30.1841 74.2794 2
32.6054 74.6784 0
29.8102 7.99148 3.9854
31.2518 5.33123 3.98895
31.7876 7.41749 2
32.9799 2.70092 3.9933
33.3466 4.92351 2
33.7233 6.97829 0.013644
35.0474 0.080333 4
35.2442 2.46241 2
35.4347 4.68489 0.010351
37.5 0 2
37.5141 2.38662 0.00656106
39.9526 0.0806499 0
40.8548 35.8061 3.90732
42.62 35.7162 2
44.4377 35.5548 0.154952
28.5423 10.6907 3.98328
39.1697 34.1112 3.90498
40.751 34.2036 2
42.3025 34.1157 0.197804
48.1918 34.3084 0.0220228
44.9442 33.0392 0.110889
42.5375 32.3291 0.144504
40.8551 32.6412 0.197553
46.232 31.5524 2
43.5926 31.2314 2
41.1029 31.1473 2
39.2889 32.2916 2
44.3622 29.753 3.94378
41.8664 29.8265 3.89729
39.3772 30.4296 3.86792
37.5012 32.1716 3.83271
34.0925 12.9323 3.98092
35.6926 11.7731 2
37.311 10.6285 0.017374
31.1855 11.9825 3.98221
33.0977 11.2137 2
34.7538 10.3776 0.0171458
30.4814 10.0146 2
32.377 9.3674 0.0159467
47.694 29.5284 0.00908172
47.0652 25.1683 0.0173143
36.5824 12.9304 0.0185414
44.2846 21.3397 0.0241259
41.749 17.8438 0.0215084
38.6814 14.8077 0.0206628
35.7716 14.7564 2
45.4903 27.6528 2
38.68 17.5986 2
41.3393 20.7211 2
43.782 24.0624 2
33.6076 15.8733 3.98026
43.0192 26.4889 3.99758
40.9065 23.293 4.00206
38.4193 20.3361 3.9771
35.8479 17.5083 3.98021
39.1955 37.4848 3.94658
40.8917 37.4829 2
42.747 37.4906 0.179175
43.7294 54.4508 0.00252304
43.6609 50.4959 -0.000629503
40.8524 39.1728 0.0946071
41.8454 45.1866 0.105895
41.9181 47.6677 0.026588
39.3556 44.5769 0.133725
39.164 40.8948 0.094531
37.4944 42.8378 0.168373
41.873 53.0301 2
39.17 39.172 2
37.4948 40.9313 2
40.9019 49.7285 2
35.7119 42.7147 2
39.8287 46.11 2
37.4915 44.8079 2
39.8064 51.9392 3.99506
37.4926 39.1872 3.95946
35.8239 40.9039 3.90487
34.1426 42.3642 3.80354
35.6123 44.5772 3.86463
38.6898 48.7414 3.98422
37.4828 46.4049 3.87914
40.416 54.9567 0.00768596
38.7268 53.887 2
36.7188 53.2333 4.00665
35.3634 60.9224 0.0171323
36.9339 57.6399 0.0164709
37.998 55.2699 0.00825993
34.4867 58.5351 2
36.3188 55.4005 2
33.2276 55.5198 3.98982
32.3559 59.7569 0.0142059
29.402 60.2983 0.0166632
30.2973 57.8315 2
28.6925 55.3242 3.97919
28.0215 58.3845 0.0143607
26.9447 56.835 2
25.3127 55.1437 3.97454
21.8106 55.3487 3.96949
25.3776 58.6028 0.0201799
23.8385 56.808 2
20.2177 57.0305 3.97813
20.6438 58.7859 3.97732
21.3324 57.4043 2
21.165 61.1768 3.98107
21.992 59.6307 2
22.7553 58.2471 0.0252001
21.8934 63.8423 3.98518
22.7346 62.0291 2
23.3991 60.359 0.0196798
24.4305 62.7771 0.0159327
23.6801 64.7151 2
22.835 66.7377 3.9887
25.5461 65.4961 0.0138266
24.8068 67.5946 2
24.0083 69.8056 3.99305
26.8346 68.333 0.0113116
26.1638 70.6047 2
25.446 73.0099 4
28.3689 71.2637 0.0070757
27.7943 73.7222 2
30.1842 74.2788 0
27.8199 8.65115 3.98514
29.1538 5.87699 3.98847
29.81 7.99067 2
30.725 3.09812 3.99307
31.2517 5.33067 2
31.7877 7.4182 0.0140682
32.6053 0.320823 4
32.9798 2.70058 2
33.3467 4.92408 0.0105847
35.0474 0.0802903 2
35.2442 2.46273 0.00654325
37.5 0 0
39.1893 35.8079 3.93723
40.8475 35.8097 2
42.6223 35.7136 0.18006
28.5422 10.69 2
26.6211 11.3859 3.98346
29.2243 12.6389 3.98284
37.4992 34.0682 3.92443
39.1611 34.1199 2
40.7586 34.1983 0.12495
46.2114 31.5603 0.04653
43.5803 31.2468 0.115428
41.083 31.1692 0.145744
39.2944 32.2863 0.183523
44.3793 29.738 2
41.885 29.8074 2
39.3931 30.4145 2
37.5032 32.1807 2
42.3508 28.3944 3.92887
39.8592 28.9162 3.89291
37.5207 30.1972 3.8556
35.7136 32.2843 3.81682
31.914 14.4772 3.98148
34.0924 12.9315 2
35.6926 11.7739 0.0184044
31.1856 11.9817 2
33.0977 11.2145 0.0181679
30.4816 10.0154 0.0164602
45.4883 27.6537 -0.00124775
43.7804 24.0662 -0.000156207
35.7723 14.7568 0.019577
41.3394 20.7239 0.0204602
38.6809 17.5999 0.0234474
33.6068 15.8729 2
35.8466 17.5084 2
43.0239 26.4886 2
38.4193 20.3342 2
40.9053 23.2852 2
33.5496 17.3829 3.98224
40.4006 25.6333 4.00564
38.0735 22.8718 3.99427
35.583 20.0777 3.98305
37.4947 37.4948 3.96899
39.186 37.4851 2
40.8986 37.4832 0.0832291
41.8706 53.0279 0.00525134
40.8948 49.7225 -0.00160641
39.1791 39.174 0.0616331
39.8039 46.0878 0.124711
37.4935 44.8007 0.142821
37.4946 40.9404 0.0757897
35.7072 42.7197 0.1821
39.8117 51.9409 2
37.4937 39.1834 2
35.8322 40.8958 2
38.6897 48.7733 2
34.1435 42.366 2
35.5995 44.5939 2
37.4842 46.4264 2
37.6444 51.0282 4.00834
35.8103 39.1903 3.93894
34.242 40.8138 3.8762
33.037 42.0201 3.77107
33.906 43.8319 3.85297
35.1465 46.0721 3.8865
36.8562 48.3827 3.95855
38.7263 53.8866 0.00395902
36.7193 53.2361 2
34.3616 52.4891 3.99368
34.487 58.5346 0.0142507
36.319 55.3986 0.00878995
33.2269 55.5205 2
30.5216 53.3836 3.98036
30.2975 57.8306 0.0139038
28.6918 55.3254 2
26.8877 53.4362 3.9743
26.9452 56.8346 0.0202981
25.3123 55.1467 2
23.5796 53.4774 3.96746
20.4745 53.2164 3.96353
19.9322 55.8322 3.97268
21.8096 55.3503 2
23.8389 56.8062 0.0271608
19.4365 57.8919 3.97655
20.2173 57.032 2
19.7048 60.2088 3.97895
20.6436 58.7871 2
21.3328 57.4026 0.0258298
20.206 62.8629 3.98347
21.165 61.1779 2
21.9921 59.6296 0.0205415
20.9364 65.7667 3.98847
21.8935 63.8431 2
22.7345 62.0282 0.0172152
23.68 64.7145 0.0141379
22.8351 66.7383 2
21.9107 68.8727 3.993
24.8068 67.5941 0.0113049
24.008 69.8058 2
23.1494 72.1454 4
26.1641 70.6045 0.00698087
25.446 73.0099 2
27.7943 73.7221 0
25.8591 9.37936 3.98482
27.0685 6.5411 3.98794
27.8198 8.65039 2
28.4871 3.64411 3.99283
29.1535 5.87636 2
29.8102 7.99148 0.0145992
30.1841 0.720592 4
30.7249 3.0978 2
31.2518 5.33123 0.0110543
32.6053 0.320817 2
32.9799 2.70092 0.00669963
35.0474 0.080333 0
37.4971 35.8086 3.96082
39.1774 35.8106 2
40.8548 35.8061 0.0926756
24.7759 12.0688 3.98368
23.7505 14.354 3.98281
28.5423 10.6907 0.0167229
26.6211 11.3852 2
29.2244 12.6382 2
27.2904 13.3714 3.98315
29.7795 14.1984 3.98234
35.8318 34.1048 3.9064
37.4987 34.077 2
39.1697 34.1112 0.0950215
37.5012 32.1716 0.167293
44.3622 29.753 0.0562223
41.8664 29.8265 0.102713
39.3772 30.4296 0.13208
42.369 28.3746 2
39.8738 28.8905 2
37.5201 30.1913 2
35.7209 32.2891 2
40.0462 27.5439 3.92404
37.5306 28.5959 3.8895
35.6407 30.4336 3.86835
34.1576 32.6374 3.80278
30.9252 16.8336 3.98211
31.9137 14.4765 2
34.0925 12.9323 0.0190771
31.1855 11.9825 0.0177886
43.0192 26.4889 0.00242246
40.9065 23.293 -0.00206022
33.6076 15.8733 0.0197401
35.8479 17.5083 0.0197919
38.4193 20.3361 0.0228991
33.5485 17.383 2
35.5827 20.0779 2
40.4013 25.6261 2
38.0701 22.8697 2
32.8621 19.7894 3.98296
37.7982 25.1844 4.01209
35.199 22.6352 3.99065
35.7994 37.5006 3.94926
37.4953 37.4942 2
39.1955 37.4848 0.0534228
39.8064 51.9392 0.00494104
38.6898 48.7414 0.0157843
37.4926 39.1872 0.0405387
37.4828 46.4049 0.120856
35.6123 44.5772 0.135369
35.8239 40.9039 0.0951319
34.1426 42.3642 0.196464
37.6505 51.0406 2
35.8222 39.1871 2
34.2483 40.8088 2
36.8482 48.4015 2
33.0281 42.028 2
33.8908 43.8505 2
35.1316 46.0897 2
35.4722 50.1571 4.0057
34.1482 39.1891 3.90898
32.688 40.8886 3.8043
32.4533 42.6775 3.8595
33.1362 45.1772 3.89473
34.2659 47.4448 3.93452
36.7188 53.2333 -0.00664643
34.3622 52.4936 2
32.011 51.1924 4.00194
33.2276 55.5198 0.010184
30.5211 53.3881 2
28.4355 51.5978 3.97852
28.6925 55.3242 0.0208134
26.8868 53.4382 2
25.0889 51.7438 3.96434
25.3127 55.1437 0.0254613
23.5785 53.4792 2
21.9773 51.7985 3.96372
19.2102 51.6319 3.96703
18.9253 54.3043 3.9657
20.4734 53.2159 2
18.4462 56.7236 3.97653
19.9314 55.8338 2
21.8106 55.3487 0.0305107
18.3676 59.1131 3.97595
19.4361 57.8931 2
20.2177 57.0305 0.0218727
18.6173 61.769 3.98132
19.7048 60.2101 2
20.6438 58.7859 0.022677
19.1255 64.6772 3.98755
20.206 62.864 2
21.165 61.1768 0.0189283
19.8848 67.8092 3.99289
20.9365 65.7674 2
21.8934 63.8423 0.0148209
22.835 66.7377 0.0112952
21.9104 68.8728 2
20.9142 71.1327 4
24.0083 69.8056 0.00695366
23.1494 72.1455 2
25.446 73.0099 0
23.0953 12.7835 3.98333
23.9715 10.166 3.98465
25.0222 7.3114 3.98753
25.859 9.37871 2
26.2788 4.3284 3.99255
27.0682 6.54051 2
27.8199 8.65115 0.0148616
27.7943 1.27781 4
28.4869 3.6438 2
29.1538 5.87699 0.0115296
30.1841 0.720551 2
30.725 3.09812 0.0069302
32.6053 0.320823 0
35.811 35.8137 3.94068
37.4968 35.8115 2
39.1893 35.8079 0.0627735
24.776 12.0684 2
23.7508 14.3537 2
22.4793 15.0308 3.98222
25.3565 13.9032 3.98269
24.0238 15.6165 3.98171
26.6211 11.3859 0.0165384
29.2243 12.6389 0.0171647
27.2906 13.3709 2
29.7794 14.1978 2
28.3554 15.9721 3.98277
34.252 34.1948 3.87553
35.8396 34.1125 2
37.4992 34.0682 0.0755684
35.7136 32.2843 0.183183
37.5207 30.1972 0.144403
42.3508 28.3944 0.0711267
39.8592 28.9162 0.107091
40.0589 27.5283 2
37.5344 28.5716 2
35.6254 30.4121 2
34.1565 32.636 2
37.6184 27.2368 3.9367
35.1895 28.9138 3.89002
33.9192 31.1658 3.85298
33.0605 32.9801 3.77194
30.2072 19.3364 3.98553
30.9247 16.8336 2
31.914 14.4772 0.0185207
40.4006 25.6333 -0.00564321
38.0735 22.8718 0.00573428
33.5496 17.3829 0.0177557
35.583 20.0777 0.0169464
32.8614 19.7903 2
35.197 22.6345 2
37.7865 25.1825 2
32.3101 22.4053 3.99087
34.9899 25.1742 4.00635
34.0973 37.5021 3.91809
35.8104 37.4999 2
37.4947 37.4948 0.0310111
37.6444 51.0282 -0.00833915
36.8562 48.3827 0.0414491
35.8103 39.1903 0.0610639
35.1465 46.0721 0.113496
33.906 43.8319 0.147034
34.242 40.8138 0.123797
33.037 42.0201 0.228931
35.4691 50.1709 2
34.1585 39.1859 2
32.6915 40.8886 2
34.2616 47.4787 2
32.4358 42.6935 2
33.1204 45.1956 2
33.2556 49.1463 4.00458
32.3682 39.2852 3.8217
31.3004 41.1654 3.84967
31.4143 43.7591 3.89039
32.2589 46.3632 3.93296
34.3616 52.4891 0.00632188
32.0093 51.2002 2
29.8729 49.712 3.98998
30.5216 53.3836 0.0196374
28.4337 51.5978 2
26.524 49.9827 3.97057
26.8877 53.4362 0.0257033
25.0871 51.7427 2
23.3583 50.1903 3.97153
23.5796 53.4774 0.0325417
21.9761 51.7976 2
20.4753 50.3139 3.96945
17.9967 50.329 3.96924
17.8406 52.7881 3.96556
19.2095 51.6314 2
17.4385 55.3379 3.9687
18.9242 54.3043 2
20.4745 53.2164 0.0364722
17.1343 57.8742 3.97589
18.4455 56.7246 2
19.9322 55.8322 0.0273177
17.1354 60.5505 3.97839
18.3675 59.1143 2
19.4365 57.8919 0.0234504
17.4063 63.4692 3.98528
18.6174 61.7703 2
19.7048 60.2088 0.0210483
17.941 66.6176 3.99262
19.1255 64.6782 2
20.206 62.8629 0.0165253
18.75 69.9759 4
19.8845 67.8093 2
20.9364 65.7667 0.0115297
21.9107 68.8727 0.00699701
20.9142 71.1327 2
23.1494 72.1454 0
21.5862 13.6038 3.98276
22.1896 11.0253 3.9843
23.0956 12.7833 2
23.04 8.17689 3.98728
23.9715 10.1655 2
24.1164 5.14321 3.9923
25.0219 7.31086 2
25.8591 9.37936 0.0151831
25.446 1.99014 4
26.2785 4.32816 2
27.0685 6.5411 0.0120572
27.7943 1.27778 2
28.4871 3.64411 0.00717058
30.1841 0.720592 0
34.1428 35.816 3.90672
35.8212 35.8157 2
37.4971 35.8086 0.0391823
21.3046 15.8265 3.98203
24.7759 12.0688 0.0163185
23.7505 14.354 0.0171885
25.3569 13.9029 2
22.4797 15.0307 2
24.0243 15.6164 2
23.2632 16.2485 3.98142
25.3792 16.0847 3.98251
27.2904 13.3714 0.016849
29.7795 14.1984 0.0176614
28.3557 15.9721 2
27.439 18.7943 3.98439
32.7093 34.1115 3.80269
34.2608 34.2002 2
35.8318 34.1048 0.0935954
34.1576 32.6374 0.19722
35.6407 30.4336 0.131649
37.5306 28.5959 0.110503
40.0462 27.5439 0.0759589
37.6198 27.2066 2
33.0479 32.9731 2
35.176 28.8941 2
33.9036 31.1432 2
35.071 27.3626 3.94011
33.1593 29.8288 3.89034
32.4651 32.3164 3.85196
29.5773 21.9299 3.99656
30.207 19.338 2
30.9252 16.8336 0.0178927
37.7982 25.1844 -0.0120933
35.199 22.6352 0.00934763
32.8621 19.7894 0.0170385
32.3075 22.4054 2
35.0039 25.169 2
31.7152 25.6238 4.00148
32.2411 37.5037 3.82279
34.1061 37.5029 2
35.7994 37.5006 0.0507415
35.4722 50.1571 -0.00569584
34.2659 47.4448 0.0654757
34.1482 39.1891 0.0910224
33.1362 45.1772 0.105273
32.4533 42.6775 0.140503
32.688 40.8886 0.1957
33.2503 49.1383 2
32.3707 39.2823 2
31.2789 41.1777 2
32.2369 46.387 2
31.3978 43.7729 2
31.1701 47.9741 3.9946
30.5527 39.445 3.84661
30.0436 41.9627 3.88972
30.4501 44.949 3.94291
32.011 51.1924 -0.00194439
29.8698 49.7111 2
27.9002 48.1796 3.97401
28.4355 51.5978 0.0214831
26.522 49.9817 2
24.6755 48.468 3.9749
25.0889 51.7438 0.0356637
23.3575 50.1893 2
21.6879 48.7881 3.97147
21.9773 51.7985 0.0362798
20.4748 50.313 2
19.051 49.0913 3.97249
16.9027 49.33 3.97209
16.7798 51.4051 3.96767
17.9967 50.3285 2
16.3938 53.8662 3.9662
17.8398 52.7878 2
19.2102 51.6319 0.0329746
15.9772 56.4746 3.97196
17.4378 55.3388 2
18.9253 54.3043 0.0342992
15.7493 59.2105 3.97715
17.134 57.8755 2
18.4462 56.7236 0.0234743
15.7873 62.1384 3.98215
17.1355 60.552 2
18.3676 59.1131 0.0240525
16.0879 65.3002 3.99193
17.4062 63.4703 2
18.6173 61.769 0.0186828
16.6661 68.6801 4
17.9406 66.6177 2
19.1255 64.6772 0.0124458
18.75 69.9759 2
19.8848 67.8092 0.00710999
20.9142 71.1327 0
20.2184 14.5928 3.98194
21.5866 13.6038 2
20.5289 11.9952 3.98372
21.1429 9.14672 3.98714
22.1897 11.025 2
23.0953 12.7835 0.0166693
22.0154 6.08224 3.99216
23.0398 8.17646 2
23.9715 10.166 0.0153464
23.1494 2.85457 4
24.116 5.14304 2
25.0222 7.3114 0.0124699
25.446 1.99012 2
26.2788 4.3284 0.00744939
27.7943 1.27781 0
32.3743 35.7165 3.81801
34.1516 35.8203 2
35.811 35.8137 0.059321
21.305 15.8263 2
20.3025 16.9607 3.98219
22.0964 16.6327 3.98009
25.3565 13.9032 0.0173109
22.4793 15.0308 0.0177803
24.0238 15.6165 0.0182909
25.3797 16.0845 2
23.2637 16.2483 2
24.2033 18.449 3.97949
27.0161 21.4535 3.98939
28.3554 15.9721 0.0172295
27.4394 18.7945 2
31.3345 33.8397 3.85109
32.7133 34.1125 2
34.252 34.1948 0.124467
33.0605 32.9801 0.228056
33.9192 31.1658 0.147015
35.1895 28.9138 0.109977
37.6184 27.2368 0.0633042
35.0546 27.3315 2
32.4424 32.3039 2
33.1433 29.8008 2
32.5723 28.0947 3.9568
31.4163 31.2485 3.89211
28.8198 24.3991 3.98268
29.5741 21.933 2
30.2072 19.3364 0.0144728
34.9899 25.1742 -0.00634763
32.3101 22.4053 0.00912724
31.7231 25.6095 2
29.6791 27.3106 3.9678
30.2683 37.4956 3.85183
32.2407 37.5016 2
34.0973 37.5021 0.0819083
33.2556 49.1463 -0.00458283
32.2589 46.3632 0.0670434
32.3682 39.2852 0.178296
31.4143 43.7591 0.109611
31.3004 41.1654 0.150334
31.1673 47.9766 2
30.5343 39.4562 2
30.0258 41.9755 2
30.426 44.9653 2
29.2232 46.5744 4.00055
29.1433 39.856 3.89283
28.7598 43.171 3.94785
29.8729 49.712 0.0100218
27.8971 48.1759 2
25.9916 46.6539 3.97537
26.524 49.9827 0.0294323
24.6741 48.4662 2
22.8514 47.0757 3.9758
23.3583 50.1903 0.0284742
21.6869 48.7871 2
20.0108 47.6175 3.97699
20.4753 50.3139 0.0305478
19.0519 49.0906 2
17.6856 48.1773 3.9753
16.1497 48.6816 3.97376
16.9034 49.3296 2
15.8557 50.1682 3.96961
15.383 52.4127 3.96818
16.7792 51.4049 2
17.9967 50.329 0.0307594
14.8717 54.9734 3.96849
16.3933 53.8664 2
17.8406 52.7881 0.0344436
14.4593 57.7387 3.97537
15.9768 56.4756 2
17.4385 55.3379 0.0313007
14.2658 60.692 3.98067
15.7492 59.2119 2
17.1343 57.8742 0.0241144
14.3325 63.8592 3.99034
15.7871 62.1396 2
17.1354 60.5505 0.0216121
14.6715 67.2507 4
16.0873 65.3 2
17.4063 63.4692 0.0147158
16.6661 68.6801 2
17.941 66.6176 0.00737717
18.75 69.9759 0
18.9326 15.7802 3.98122
20.2188 14.5927 2
18.9787 13.1061 3.98283
21.5862 13.6038 0.0172401
20.5292 11.995 2
19.3422 10.2346 3.98683
19.99 7.1469 3.99212
21.1428 9.1464 2
22.1896 11.0253 0.0157002
20.9142 3.86727 4
22.0149 6.08222 2
23.04 8.17689 0.0127198
23.1494 2.85451 2
24.1164 5.14321 0.00770004
25.446 1.99014 0
30.5724 35.5646 3.85041
32.379 35.7185 2
34.1428 35.816 0.0932816
21.3046 15.8265 0.017965
22.0968 16.6325 2
20.3028 16.9601 2
19.2438 18.4085 3.97908
21.7812 17.8498 3.98065
25.3792 16.0847 0.0174948
23.2632 16.2485 0.0185823
24.2038 18.4489 2
22.2798 19.8938 3.97647
24.5948 21.3227 3.98284
26.4321 23.7192 3.9714
27.0152 21.4538 2
27.439 18.7943 0.0156124
30.0694 33.0421 3.89252
31.3047 33.8143 2
32.7093 34.1115 0.197308
32.4651 32.3164 0.148038
33.1593 29.8288 0.109663
35.071 27.3626 0.059892
32.5643 28.082 2
31.415 31.2342 2
30.1607 29.5426 3.96064
27.9193 26.5396 3.97802
28.822 24.4075 2
29.5773 21.9299 0.0034426
31.7152 25.6238 -0.0014825
29.6764 27.2725 2
28.8082 37.5138 3.90041
30.2612 37.4995 2
32.2411 37.5037 0.177213
31.1701 47.9741 0.00540282
30.4501 44.949 0.0570863
30.5527 39.445 0.153393
30.0436 41.9627 0.110278
29.2202 46.5893 2
29.1227 39.8726 2
28.7368 43.1856 2
27.3446 44.8653 3.98587
26.9136 40.5855 3.96849
27.9002 48.1796 0.0259861
25.9876 46.6564 2
24.0714 45.2129 3.9787
24.6755 48.468 0.0250985
22.8503 47.0742 2
20.9809 45.8923 3.97888
21.6879 48.7881 0.0285255
20.0122 47.6166 2
18.3472 46.7359 3.97732
19.051 49.0913 0.0275124
17.6859 48.1768 2
16.346 47.7116 3.97487
16.1502 48.6813 2
15.1991 49.0136 3.97184
16.9027 49.33 0.0279064
15.8561 50.1679 2
14.4944 50.9829 3.96914
13.8346 53.4305 3.96902
15.3831 52.4126 2
16.7798 51.4051 0.0323263
13.2564 56.165 3.97193
14.8714 54.9741 2
16.3938 53.8662 0.0338047
12.8485 59.1253 3.97964
14.4592 57.7399 2
15.9772 56.4746 0.0280368
12.6783 62.3015 3.98816
14.2656 60.6931 2
15.7493 59.2105 0.0228507
12.7746 65.6939 4
14.3317 63.8588 2
15.7873 62.1384 0.0178499
14.6714 67.2507 2
16.0879 65.3002 0.00806656
16.6661 68.6801 0
17.6677 17.1562 3.97906
18.9328 15.7798 2
17.5105 14.3709 3.98157
20.2184 14.5928 0.0180589
18.9791 13.1058 2
17.6378 11.4536 3.98596
20.5289 11.9952 0.0162779
19.3423 10.2343 2
18.0502 8.33972 3.99207
18.75 5.0241 4
19.9895 7.14708 2
21.1429 9.14672 0.0128624
20.9142 3.86727 2
22.0154 6.08224 0.0078363
23.1494 2.85457 0
29.1636 35.1262 3.89639
30.5548 35.551 2
32.3743 35.7165 0.181988
22.0964 16.6327 0.0199148
20.3025 16.9607 0.0178107
21.7815 17.8494 2
19.2441 18.4078 2
17.9827 19.9417 3.97587
20.8774 19.3798 3.97893
24.2033 18.449 0.0205073
22.2802 19.8934 2
24.5946 21.3234 2
22.3629 21.7205 3.97886
24.7068 23.1681 3.97263
25.501 25.9487 3.96816
26.4353 23.7195 2
27.0161 21.4535 0.0106085
28.4412 32.3351 3.94243
30.0469 33.0329 2
31.3345 33.8397 0.148908
31.4163 31.2485 0.107886
32.5723 28.0947 0.043197
30.1408 29.5301 2
27.0813 29.1313 4.00207
27.9162 26.5385 2
28.8198 24.3991 0.0173201
29.6791 27.3106 0.0322034
27.0381 37.3721 3.95235
28.7807 37.5046 2
30.2683 37.4956 0.148166
29.2232 46.5744 -0.000554833
28.7598 43.171 0.0521453
29.1433 39.856 0.107175
27.3405 44.879 2
26.901 40.6023 2
25.361 43.1704 3.97368
24.162 39.432 3.97972
25.9916 46.6539 0.0246272
24.0632 45.2124 2
21.9679 43.9487 3.97859
22.8514 47.0757 0.0242043
20.9818 45.8914 2
19.0244 44.9668 3.97793
20.0108 47.6175 0.0230132
18.3483 46.7354 2
16.648 46.2104 3.97535
17.6856 48.1773 0.0246982
16.3464 47.7113 2
14.9339 47.6682 3.97268
16.1497 48.6816 0.0262363
15.1996 49.0134 2
13.7913 49.5445 3.97008
15.8557 50.1682 0.0303941
14.4948 50.9827 2
12.9005 51.8716 3.96983
12.1451 54.5236 3.97106
13.8346 53.4306 2
15.383 52.4127 0.031822
11.5342 57.4568 3.97718
13.2562 56.1659 2
14.8717 54.9734 0.0315143
11.1331 60.6274 3.98658
12.8484 59.1262 2
14.4593 57.7387 0.0246292
10.9835 64.0165 4
12.6773 62.3005 2
14.2658 60.692 0.0193319
12.7745 65.694 2
14.3325 63.8592 0.00965701
14.6715 67.2507 0
16.4018 18.6513 3.97709
17.6678 17.1556 2
16.1018 15.7803 3.98074
18.9326 15.7802 0.018783
17.5109 14.3702 2
16.0197 12.8073 3.984
18.9787 13.1061 0.0171747
17.6381 11.4532 2
16.2014 9.66268 3.9919
19.3422 10.2346 0.0131671
18.0497 8.34007 2
16.6661 6.31991 4
18.75 5.02404 2
19.99 7.1469 0.00788408
20.9142 3.86727 0
27.5587 34.778 3.943
29.1379 35.1133 2
30.5724 35.5646 0.14959
16.6875 21.3804 3.97054
21.7812 17.8498 0.0193505
19.2438 18.4085 0.0209164
20.8777 19.3792 2
17.983 19.9409 2
19.7291 21.5751 3.97912
22.2798 19.8938 0.0235318
24.5948 21.3227 0.0171571
22.3632 21.7202 2
24.7081 23.1677 2
22.8645 24.6022 3.97076
24.6235 28.5288 3.97332
25.4986 25.947 2
26.4321 23.7192 0.0286047
26.2838 31.7034 3.98997
28.4187 32.3196 2
30.0694 33.0421 0.107482
30.1607 29.5426 0.0393557
27.0902 29.1278 2
27.9193 26.5396 0.02198
24.8637 36.8561 3.98853
27.0188 37.3684 2
28.8082 37.5138 0.0995948
27.3446 44.8653 0.0141305
26.9136 40.5855 0.0315062
25.3493 43.1758 2
24.1512 39.4321 2
23.0615 41.7928 3.98072
21.8802 38.5072 3.97748
24.0714 45.2129 0.0212994
21.9678 43.9485 2
19.8089 42.8824 3.97808
20.9809 45.8923 0.0211213
19.0245 44.9666 2
16.992 44.3775 3.97608
18.3472 46.7359 0.022681
16.6484 46.2101 2
14.8622 46.0884 3.97287
16.346 47.7116 0.0251308
14.9342 47.668 2
13.2987 48.0072 3.97037
15.1991 49.0136 0.0281617
13.7917 49.5444 2
12.1187 50.2513 3.97003
14.4944 50.9829 0.0308597
12.9008 51.8715 2
11.1405 52.8342 3.97151
10.3256 55.7088 3.97561
12.1452 54.524 2
13.8346 53.4305 0.0309805
9.69996 58.8494 3.98462
11.534 57.4575 2
13.2564 56.165 0.0280726
9.30605 62.2254 4
11.1318 60.6259 2
12.8485 59.1253 0.02036
10.9835 64.0165 2
12.6783 62.3015 0.0118424
12.7746 65.6939 0
15.15 20.1879 3.97173
16.402 18.6505 2
14.7483 17.3038 3.97831
17.6677 17.1562 0.0209363
16.1021 15.7794 2
14.4825 14.2898 3.98251
17.5105 14.3709 0.0184316
16.0199 12.8067 2
14.4443 11.1137 3.99128
17.6378 11.4536 0.01404
16.2009 9.66316 2
14.6715 7.74927 4
18.0502 8.33972 0.00793414
16.6661 6.31988 2
18.75 5.0241 0
25.5132 34.2667 3.98964
27.5382 34.7708 2
29.1636 35.1262 0.103612
17.8647 22.3255 3.98395
15.5358 22.9215 3.97061
16.6877 21.3795 2
20.8774 19.3798 0.0210713
17.9827 19.9417 0.0241288
19.7295 21.5744 2
19.6833 24.3814 3.96912
22.3629 21.7205 0.0211363
24.7068 23.1681 0.0273749
22.8643 24.6014 2
21.9915 27.8261 3.97087
23.8449 31.1896 3.97499
24.6286 28.5278 2
25.501 25.9487 0.0318381
26.2748 31.6932 2
28.4412 32.3351 0.0575662
27.0813 29.1313 -0.00206949
22.6126 36.2796 3.9792
24.845 36.8543 2
27.0381 37.3721 0.0476517
25.361 43.1704 0.0263162
24.162 39.432 0.0202752
23.0569 41.7912 2
21.8747 38.5071 2
20.8025 40.6368 3.97684
20.2093 37.7866 3.97729
21.9679 43.9487 0.0214078
19.8098 42.8828 2
17.4201 42.0982 3.97672
19.0244 44.9668 0.0220699
16.9926 44.3773 2
14.8761 44.1983 3.97316
16.648 46.2104 0.024654
14.8624 46.0882 2
12.9728 46.2942 3.97045
14.9339 47.6682 0.0273153
13.2989 48.0072 2
11.4895 48.5489 3.96979
13.7913 49.5445 0.029918
12.119 50.2512 2
10.2658 51.0791 3.97147
12.9005 51.8716 0.0301698
11.1409 52.8342 2
9.23462 53.8879 3.97545
8.38382 56.9818 3.98336
10.3258 55.7088 2
12.1451 54.5236 0.0289429
7.74927 60.3285 4
9.69874 58.8472 2
11.5342 57.4568 0.0228219
9.306 62.2255 2
11.1331 60.6274 0.0134233
10.9835 64.0165 0
13.9649 21.7557 3.9692
15.1502 20.1869 2
13.451 18.9022 3.97485
16.4018 18.6513 0.0229072
14.7486 17.3026 2
13.0281 15.8831 3.98136
16.1018 15.7803 0.0192637
14.4825 14.2888 2
12.7819 12.6871 3.98976
16.0197 12.8073 0.0160008
14.4438 11.1143 2
12.7746 9.30605 4
16.2014 9.66268 0.00810271
14.6715 7.74924 2
16.6661 6.31991 0
23.1826 33.803 3.97803
25.493 34.2633 2
27.5587 34.778 0.056996
17.6446 24.0413 3.96911
17.8649 22.3246 2
14.3201 24.4501 3.96975
15.5363 22.921 2
16.6875 21.3804 0.0294623
19.0944 27.2044 3.97035
19.7291 21.5751 0.0208783
19.6828 24.3809 2
21.2621 30.6661 3.97271
22.8645 24.6022 0.0292426
21.9928 27.826 2
23.8353 31.1896 2
24.6235 28.5288 0.026679
26.2838 31.7034 0.0100262
20.3404 35.9256 3.97645
22.6099 36.2788 2
24.8637 36.8561 0.0114698
23.0615 41.7928 0.0192826
21.8802 38.5072 0.0225176
20.7992 40.6373 2
20.2085 37.7869 2
18.1592 38.9999 3.97691
19.8089 42.8824 0.021918
17.4202 42.0982 2
14.8527 41.9161 3.97331
16.992 44.3775 0.0239184
14.8764 44.1981 2
12.7191 44.3902 3.97045
14.8622 46.0884 0.0271283
12.9729 46.2941 2
10.9905 46.7331 3.96942
13.2987 48.0072 0.0296278
11.4897 48.5489 2
9.52892 49.2396 3.97097
12.1187 50.2513 0.0299697
10.2662 51.079 2
8.26741 52.0017 3.97529
11.1405 52.8342 0.0284869
9.23496 53.8875 2
7.19286 55.0321 3.98365
6.31991 58.3339 4
8.38294 56.9789 2
10.3256 55.7088 0.0243876
7.74924 60.3285 2
9.69996 58.8494 0.0153804
9.30605 62.2254 0
13.2329 25.3624 3.9709
12.8327 23.283 3.9702
13.9653 21.7552 2
12.2385 20.5522 3.97196
15.15 20.1879 0.0282651
13.4512 18.901 2
11.6587 17.5647 3.97939
14.7483 17.3038 0.021691
13.0282 15.8819 2
11.2195 14.3723 3.98781
14.4825 14.2898 0.0174873
12.7812 12.6878 2
10.9835 10.9835 4
14.4443 11.1137 0.00872236
12.7745 9.306 2
14.6715 7.74927 0
20.7022 33.3976 3.97497
23.1886 33.8036 2
25.5132 34.2667 0.0103553
15.934 26.401 3.96999
17.6443 24.0407 2
17.8647 22.3255 0.0160474
14.3204 24.4498 2
15.5358 22.9215 0.0293889
18.4495 30.1741 3.9731
19.0934 27.2042 2
19.6833 24.3814 0.0308772
21.2686 30.6662 2
21.9915 27.8261 0.0291309
23.8449 31.1896 0.0250068
17.7836 35.9636 3.97703
20.3392 35.926 2
22.6126 36.2796 0.020795
20.8025 40.6368 0.0231562
20.2093 37.7866 0.0227076
18.161 39 2
14.3792 39.1747 3.9741
17.4201 42.0982 0.0232795
14.8531 41.916 2
12.4214 42.2747 3.9708
14.8761 44.1983 0.0268424
12.7192 44.3901 2
10.5678 44.8018 3.96895
12.9728 46.2942 0.0295471
10.9905 46.7331 2
8.91107 47.3191 3.97037
11.4895 48.5489 0.0302089
9.52912 49.2395 2
7.43436 50.0353 3.97471
10.2658 51.0791 0.0285288
8.26772 52.0012 2
6.13346 53.007 3.98428
9.23462 53.8879 0.0245474
7.19233 55.0293 2
5.0241 56.25 4
6.31988 58.3339 2
8.38382 56.9818 0.0166394
7.74927 60.3285 0
13.4772 26.8143 3.97033
11.9429 24.788 3.97114
13.233 25.3622 2
11.1429 22.2371 3.9706
12.8333 23.2827 2
13.9649 21.7557 0.0307975
12.239 20.5514 2
10.3901 19.3201 3.97717
13.451 18.9022 0.025153
11.6588 17.5636 2
9.76048 16.1561 3.98593
13.0281 15.8831 0.0186355
11.2185 14.3733 2
9.30607 12.7746 4
12.7819 12.6871 0.0102389
10.9835 10.9835 2
12.7746 9.30605 0
17.9488 33.1116 3.97552
20.7007 33.3976 2
23.1826 33.803 0.0219667
15.5378 29.6376 3.97206
15.9334 26.4007 2
17.6446 24.0413 0.0308911
14.3201 24.4501 0.0302534
18.4501 30.174 2
19.0944 27.2044 0.0296456
21.2621 30.6661 0.0272936
14.9845 36.0179 3.97465
17.7831 35.9637 2
20.3404 35.9256 0.0235527
12.6466 37.8284 3.97361
18.1592 38.9999 0.0230914
14.3798 39.1746 2
11.9433 40.139 3.97168
14.8527 41.9161 0.0266898
12.4214 42.2746 2
10.1709 42.7769 3.96882
12.7191 44.3902 0.0295464
10.5677 44.8018 2
8.38925 45.321 3.96951
10.9905 46.7331 0.0305816
8.91113 47.3191 2
6.72563 48.0006 3.9742
9.52892 49.2396 0.0290292
7.43454 50.0349 2
5.21032 50.9103 3.98426
8.26741 52.0017 0.0247104
6.13316 53.005 2
3.86727 54.0858 4
7.19286 55.0321 0.0163478
5.02404 56.25 2
6.31991 58.3339 0
12.9409 29.0329 3.9699
11.3729 26.4871 3.96955
13.4765 26.8141 2
10.2007 23.9682 3.97218
11.9433 24.7878 2
13.2329 25.3624 0.0291032
9.24353 21.1392 3.97496
11.1436 22.2367 2
12.8327 23.283 0.029801
12.2385 20.5522 0.0280405
10.3906 19.3195 2
8.41659 18.0278 3.98434
11.6587 17.5647 0.0206065
9.75944 16.1579 2
7.74928 14.6715 4
11.2195 14.3723 0.0121887
9.30602 12.7745 2
10.9835 10.9835 0
14.5444 32.8629 3.97365
17.9488 33.1117 2
20.7022 33.3976 0.0250259
15.5378 29.6375 2
15.934 26.401 0.0300124
18.4495 30.1741 0.0269038
12.9402 36.2086 3.97269
14.985 36.0179 2
17.7836 35.9636 0.0229732
12.6472 37.8283 2
11.2957 38.3088 3.97206
14.3792 39.1747 0.0259039
11.9437 40.1389 2
9.76189 40.7534 3.96931
12.4214 42.2747 0.0291965
10.1709 42.7768 2
7.93879 43.2697 3.96898
10.5678 44.8018 0.0310537
8.38926 45.3209 2
6.13208 45.9058 3.97344
8.91107 47.3191 0.0296317
6.72567 48.0003 2
4.42193 48.7512 3.98387
7.43436 50.0353 0.0252923
5.21015 50.9092 2
2.85457 51.8506 4
6.13346 53.007 0.0157246
3.86727 54.0858 2
5.0241 56.25 0
12.0877 31.2564 3.97104
10.7862 28.4144 3.96909
12.9409 29.0328 2
9.41557 25.7979 3.9706
11.3731 26.4869 2
13.4772 26.8143 0.0296745
8.23024 23.0234 3.97513
10.2013 23.9679 2
11.9429 24.788 0.0288564
7.19904 19.9785 3.98328
9.24427 21.1392 2
11.1429 22.2371 0.0294028
10.3901 19.3201 0.0228256
8.41586 18.0303 2
6.31992 16.6661 4
9.76048 16.1561 0.014072
7.74926 14.6714 2
9.30607 12.7746 0
12.1209 34.2945 3.97283
14.5445 32.863 2
17.9488 33.1116 0.0244819
15.5378 29.6376 0.0279362
10.8573 36.6105 3.97171
12.9407 36.2085 2
14.9845 36.0179 0.0253482
12.6466 37.8284 0.0263879
11.2962 38.3087 2
9.35668 38.8228 3.96978
11.9433 40.139 0.0283207
9.76228 40.7533 2
7.55036 41.2109 3.96888
10.1709 42.7769 0.031182
7.93888 43.2696 2
5.64439 43.7686 3.97286
8.38925 45.321 0.0304896
6.13209 45.9055 2
3.76768 46.5371 3.98321
6.72563 48.0006 0.0258022
4.42186 48.7507 2
1.99014 49.554 4
5.21032 50.9103 0.0157419
2.85451 51.8506 2
3.86727 54.0858 0
10.9385 32.9189 3.97196
10.1022 30.3817 3.96914
12.0881 31.2564 2
8.72381 27.7315 3.96991
10.7862 28.4142 2
12.9409 29.0329 0.0301031
7.35569 24.9822 3.97446
9.41582 25.7977 2
11.3729 26.4871 0.0304476
6.11593 22.0023 3.98395
8.23082 23.0235 2
10.2007 23.9682 0.0278152
5.02411 18.75 4
7.19878 19.981 2
9.24353 21.1392 0.0250406
8.41659 18.0278 0.0156592
6.3199 16.6661 2
7.74928 14.6715 0
10.4631 34.9997 3.97147
12.1216 34.2945 2
14.5444 32.8629 0.0263498
9.0258 36.9844 3.96999
10.8582 36.6105 2
12.9402 36.2086 0.0273148
11.2957 38.3088 0.0279393
9.35703 38.8227 2
7.23084 39.1818 3.96923
9.76189 40.7534 0.0306922
7.55055 41.2108 2
5.26002 41.6142 3.97218
7.93879 43.2697 0.03102
5.64447 43.7684 2
3.24555 44.282 3.98264
6.13208 45.9058 0.0265552
3.7677 46.5368 2
1.27781 47.2057 4
4.42193 48.7512 0.0161258
1.99012 49.554 2
2.85457 51.8506 0
10.1017 33.8811 3.97154
9.39267 32.1541 3.96969
10.9388 32.9189 2
8.07276 29.695 3.96963
10.1024 30.3816 2
12.0877 31.2564 0.0289582
6.59971 27.0082 3.97368
8.72385 27.7313 2
10.7862 28.4144 0.0309144
5.17125 24.0952 3.9842
7.35598 24.9822 2
9.41557 25.7979 0.0294012
3.86728 20.9142 4
6.11586 22.004 2
8.23024 23.0234 0.0248735
5.02406 18.75 2
7.19904 19.9785 0.016716
6.31992 16.6661 0
8.85002 35.2791 3.97017
10.4635 34.9996 2
12.1209 34.2945 0.0271679
7.01448 37.2056 3.96942
9.0258 36.9843 2
10.8573 36.6105 0.02829
9.35668 38.8228 0.030219
7.23096 39.1817 2
4.98794 39.4674 3.97204
7.55036 41.2109 0.0311151
5.26021 41.6139 2
2.85619 42.0023 3.98218
5.64439 43.7686 0.027143
3.24565 44.2819 2
0.720592 44.8159 4
3.76768 46.5371 0.0167928
1.27778 47.2057 2
1.99014 49.554 0
8.8876 33.6974 3.97017
10.102 33.8811 2
7.51034 31.6088 3.96979
9.39284 32.154 2
10.9385 32.9189 0.0280431
5.9449 29.0691 3.97352
8.07269 29.6949 2
10.1022 30.3817 0.0308552
4.35909 26.2476 3.98354
6.59978 27.0083 2
8.72381 27.7315 0.0300894
2.85458 23.1494 4
5.17122 24.096 2
7.35569 24.9822 0.0255361
3.86728 20.9142 2
6.11593 22.0023 0.0160506
5.02411 18.75 0
6.96457 35.3057 3.9696
8.85037 35.279 2
10.4631 34.9997 0.028531
4.83799 37.3397 3.97252
7.01456 37.2055 2
9.0258 36.9844 0.030008
7.23084 39.1818 0.0307686
4.98806 39.4673 2
2.60438 39.714 3.98177
5.26002 41.6142 0.0278249
2.85641 42.0025 2
0.320823 42.3947 4
3.24555 44.282 0.017359
0.720551 44.8159 2
1.27781 47.2057 0
7.1242 33.4605 3.96998
8.88772 33.6973 2
10.1017 33.8811 0.0284589
5.41588 31.1331 3.9733
7.51038 31.6087 2
9.39267 32.1541 0.0303098
3.68088 28.4434 3.98308
5.94482 29.0692 2
8.07276 29.695 0.0303733
1.99015 25.446 4
4.35909 26.2479 2
6.59971 27.0082 0.0263155
2.85453 23.1494 2
5.17125 24.0952 0.0157974
3.86728 20.9142 0
4.85221 35.2513 3.97273
6.96478 35.3057 2
8.85002 35.2791 0.0298305
2.49575 37.4286 3.98225
4.83805 37.3397 2
7.01448 37.2056 0.0305771
4.98794 39.4674 0.0279578
2.60455 39.7144 2
0.080333 39.9526 4
2.85619 42.0023 0.0178246
0.320817 42.3947 2
0.720592 44.8159 0
5.04538 33.1898 3.97318
7.12436 33.4605 2
8.8876 33.6974 0.0298327
3.14527 30.6661 3.98262
5.4159 31.1332 2
7.51034 31.6088 0.0302076
1.27793 27.7943 4
3.68089 28.4436 2
5.9449 29.0691 0.0264847
1.99013 25.446 2
4.35909 26.2476 0.0164566
2.85458 23.1494 0
2.54785 35.1591 3.98238
4.85242 35.2515 2
6.96457 35.3057 0.0304043
0 37.5 4
2.49587 37.4289 2
4.83799 37.3397 0.0274788
2.60438 39.714 0.0182271
0.0802903 39.9526 2
0.320823 42.3947 0
2.76536 32.9057 3.9826
5.04553 33.19 2
7.1242 33.4605 0.0300203
0.721173 30.1842 4
3.14537 30.6665 2
5.41588 31.1331 0.0266961
1.27779 27.7943 2
3.68088 28.4434 0.0169247
1.99015 25.446 0
0.0806499 35.0474 4
2.5481 35.1594 2
4.85221 35.2513 0.0272708
0 37.5 2
2.49575 37.4286 0.0177544
0.080333 39.9526 0
0.32156 32.6054 4
2.76552 32.9061 2
5.04538 33.1898 0.0268199
0.72056 30.1841 2
3.14527 30.6661 0.0173797
1.27793 27.7943 0
0.0802889 35.0474 2
2.54785 35.1591 0.0176198
0 37.5 0
0.320817 32.6053 2
2.76536 32.9057 0.0173999
0.721173 30.1842 0
0.0806499 35.0474 0
0.32156 32.6054 0
CELLS 1910 17190
8 18 6 25 56 2 0 5 16
8 57 23 6 18 17 4 0 2
8 78 36 9 29 31 11 1 7
8 31 11 1 7 79 37 10 30
8 110 57 18 50 48 17 2 14
8 50 18 56 111 14 2 16 49
8 116 62 22 55 52 20 3 15
8 56 25 67 118 16 5 24 53
8 119 63 23 57 54 21 4 17
8 55 22 63 119 15 3 21 54
8 58 26 68 121 18 6 25 56
8 122 65 26 58 57 23 6 18
8 73 31 7 27 142 79 30 71
8 143 78 29 72 73 31 7 27
8 83 147 76 34 32 74 28 8
8 84 148 78 36 33 75 29 9
8 76 34 8 28 148 84 33 75
8 37 79 150 86 10 30 77 35
8 151 87 36 78 80 38 11 31
8 80 38 11 31 152 88 37 79
8 175 100 42 94 96 44 12 40
8 44 96 176 101 12 40 95 43
8 101 176 98 46 43 95 41 13
8 46 98 178 103 13 41 97 45
8 178 103 45 97 147 83 32 74
8 189 116 55 109 106 52 15 47
8 111 56 118 191 49 16 53 107
8 192 119 57 110 108 54 17 48
8 109 55 119 192 47 15 54 108
8 194 122 58 112 110 57 18 50
8 112 58 121 195 50 18 56 111
8 115 61 19 51 197 124 59 113
8 115 61 125 198 51 19 60 114
8 198 125 62 116 114 60 20 52
8 200 127 64 120 116 62 22 55
8 118 67 132 202 53 24 66 117
8 121 68 133 203 56 25 67 118
8 120 64 128 204 55 22 63 119
8 204 128 65 122 119 63 23 57
8 206 134 68 121 123 69 26 58
8 123 69 26 58 207 131 65 122
8 226 147 74 138 140 76 28 70
8 229 148 75 139 143 78 29 72
8 140 76 28 70 229 148 75 139
8 142 79 30 71 231 150 77 141
8 144 80 31 73 232 152 79 142
8 233 151 78 143 144 80 31 73
8 150 86 35 77 235 154 81 145
8 235 154 81 145 146 82 39 91
8 146 82 39 91 236 155 90 165
8 238 157 83 147 149 85 34 76
8 239 158 84 148 151 87 36 78
8 149 85 34 76 239 158 84 148
8 152 88 37 79 241 160 86 150
8 242 161 87 151 153 89 38 80
8 153 89 38 80 243 162 88 152
8 171 98 41 92 265 178 97 169
8 265 178 97 169 226 147 74 138
8 172 96 40 93 266 176 95 170
8 266 176 95 170 171 98 41 92
8 269 175 94 173 172 96 40 93
8 271 180 99 174 175 100 42 94
8 197 124 59 113 271 180 99 174
8 272 181 100 175 177 102 44 96
8 273 182 101 176 179 104 46 98
8 177 102 44 96 273 182 101 176
8 179 104 46 98 275 184 103 178
8 275 184 103 178 238 157 83 147
8 188 115 51 105 283 197 113 186
8 188 115 198 284 105 51 114 187
8 284 198 116 189 187 114 52 106
8 286 200 120 193 189 116 55 109
8 191 118 202 288 107 53 117 190
8 195 121 203 289 111 56 118 191
8 193 120 204 290 109 55 119 192
8 290 204 122 194 192 119 57 110
8 196 123 58 112 292 207 122 194
8 293 206 121 195 196 123 58 112
8 199 126 61 115 297 211 124 197
8 298 212 127 200 198 125 62 116
8 199 126 212 298 115 61 125 198
8 205 129 64 120 300 214 127 200
8 301 217 130 201 202 132 66 117
8 209 136 168 264 301 217 130 201
8 302 219 132 202 203 133 67 118
8 303 220 133 203 206 134 68 121
8 205 129 215 304 120 64 128 204
8 304 215 131 207 204 128 65 122
8 306 221 134 206 208 135 69 123
8 208 135 69 123 307 218 131 207
8 210 137 167 263 309 223 136 209
8 328 238 147 226 230 149 76 140
8 228 146 91 166 329 236 165 260
8 231 150 77 141 330 235 145 227
8 330 235 145 227 228 146 91 166
8 332 239 148 229 233 151 78 143
8 230 149 76 140 332 239 148 229
8 232 152 79 142 334 241 150 231
8 234 153 80 144 335 243 152 232
8 336 242 151 233 234 153 80 144
8 236 155 90 165 338 245 164 259
8 241 160 86 150 339 246 154 235
8 339 246 154 235 237 156 82 146
8 237 156 82 146 340 247 155 236
8 342 249 157 238 240 159 85 149
8 343 250 158 239 242 161 87 151
8 240 159 85 149 343 250 158 239
8 243 162 88 152 345 252 160 241
8 244 163 253 346 153 89 161 242
8 244 163 89 153 347 254 162 243
8 311 224 261 371 210 137 167 263
8 263 167 262 372 209 136 168 264
8 267 179 98 171 375 275 178 265
8 375 275 178 265 328 238 147 226
8 376 273 176 266 267 179 98 171
8 268 177 96 172 376 273 176 266
8 379 272 175 269 268 177 96 172
8 380 271 174 270 269 175 94 173
8 283 197 113 186 380 271 174 270
8 381 277 180 271 272 181 100 175
8 297 211 124 197 381 277 180 271
8 382 278 181 272 274 183 102 177
8 274 183 102 177 383 279 182 273
8 383 279 182 273 276 185 104 179
8 385 281 184 275 342 249 157 238
8 276 185 104 179 385 281 184 275
8 285 199 115 188 393 297 197 283
8 394 298 200 286 284 198 116 189
8 285 199 298 394 188 115 198 284
8 291 205 120 193 396 300 200 286
8 397 301 201 287 288 202 117 190
8 295 209 264 374 397 301 201 287
8 398 302 202 288 289 203 118 191
8 399 303 203 289 293 206 121 195
8 291 205 304 400 193 120 204 290
8 400 304 207 292 290 204 122 194
8 294 208 123 196 402 307 207 292
8 403 306 206 293 294 208 123 196
8 296 210 263 373 405 309 209 295
8 408 312 213 299 297 211 126 199
8 299 213 313 409 199 126 212 298
8 409 313 214 300 298 212 127 200
8 305 216 129 205 411 315 214 300
8 412 318 217 301 302 219 132 202
8 309 223 136 209 412 318 217 301
8 413 320 219 302 303 220 133 203
8 306 221 321 414 206 134 220 303
8 307 218 131 207 415 316 215 304
8 305 216 316 415 205 129 215 304
8 417 322 221 306 308 222 135 208
8 308 222 135 208 418 319 218 307
8 310 225 137 210 420 325 223 309
8 423 326 224 311 310 225 137 210
8 329 236 165 260 441 338 259 368
8 442 342 238 328 333 240 149 230
8 331 237 146 228 443 340 236 329
8 334 241 150 231 444 339 235 330
8 444 339 235 330 331 237 146 228
8 446 343 239 332 336 242 151 233
8 333 240 149 230 446 343 239 332
8 335 243 152 232 448 345 241 334
8 337 244 153 234 449 347 243 335
8 337 244 346 450 234 153 242 336
8 338 245 164 259 452 349 258 367
8 340 247 155 236 453 350 245 338
8 345 252 160 241 454 351 246 339
8 454 351 246 339 341 248 156 237
8 341 248 156 237 455 352 247 340
8 240 159 251 344 342 249 354 457
8 242 161 253 346 343 250 355 458
8 343 250 355 458 240 159 251 344
8 347 254 162 243 460 357 252 345
8 348 255 358 461 244 163 253 346
8 348 255 163 244 462 359 254 347
8 473 360 257 365 363 256 364 482
8 452 349 258 367 365 257 366 485
8 422 324 369 488 311 224 261 371
8 371 261 370 490 263 167 262 372
8 407 311 371 491 296 210 263 373
8 373 263 372 492 295 209 264 374
8 493 385 275 375 442 342 238 328
8 377 276 179 267 493 385 275 375
8 378 274 177 268 494 383 273 376
8 494 383 273 376 377 276 179 267
8 497 382 272 379 378 274 177 268
8 498 381 271 380 379 272 175 269
8 393 297 197 283 498 381 271 380
8 499 387 277 381 382 278 181 272
8 408 312 211 297 499 387 277 381
8 500 388 278 382 384 280 183 274
8 501 389 279 383 386 282 185 276
8 384 280 183 274 501 389 279 383
8 386 282 185 276 503 391 281 385
8 503 391 281 385 457 354 249 342
8 511 408 299 395 393 297 199 285
8 395 299 409 512 285 199 298 394
8 512 409 300 396 394 298 200 286
8 401 305 205 291 514 411 300 396
8 515 412 301 397 398 302 202 288
8 405 309 209 295 515 412 301 397
8 516 413 302 398 399 303 203 289
8 403 306 414 517 293 206 303 399
8 402 307 207 292 518 415 304 400
8 401 305 415 518 291 205 304 400
8 404 308 208 294 520 418 307 402
8 521 417 306 403 404 308 208 294
8 406 310 210 296 523 420 309 405
8 526 423 311 407 406 310 210 296
8 410 314 213 299 527 424 312 408
8 528 425 315 411 409 313 214 300
8 410 314 425 528 299 213 313 409
8 416 317 216 305 530 427 315 411
8 531 430 318 412 413 320 219 302
8 420 325 223 309 531 430 318 412
8 532 432 320 413 414 321 220 303
8 417 322 433 533 306 221 321 414
8 418 319 218 307 534 428 316 415
8 416 317 428 534 305 216 316 415
8 419 323 434 536 308 222 322 417
8 419 323 222 308 537 431 319 418
8 421 327 225 310 539 438 325 420
8 421 327 439 541 310 225 326 423
8 543 437 324 422 423 326 224 311
8 441 338 259 368 559 452 367 486
8 443 340 236 329 560 453 338 441
8 333 240 344 447 442 342 457 561
8 445 341 237 331 562 455 340 443
8 448 345 241 334 563 454 339 444
8 563 454 339 444 445 341 237 331
8 336 242 346 450 446 343 458 565
8 446 343 458 565 333 240 344 447
8 449 347 243 335 567 460 345 448
8 451 348 244 337 568 462 347 449
8 451 348 461 569 337 244 346 450
8 570 463 349 452 473 360 257 365
8 453 350 245 338 570 463 349 452
8 455 352 247 340 571 464 350 453
8 460 357 252 345 572 465 351 454
8 572 465 351 454 456 353 248 341
8 456 353 248 341 573 466 352 455
8 344 251 356 459 457 354 468 575
8 458 355 469 576 344 251 356 459
8 346 253 358 461 458 355 469 576
8 462 359 254 347 578 471 357 460
8 348 255 359 462 461 358 472 579
8 591 474 360 473 475 361 256 363
8 475 361 256 363 594 477 362 479
8 363 256 364 482 479 362 480 603
8 590 473 365 484 481 363 482 605
8 482 364 257 365 606 483 366 485
8 559 452 367 486 484 365 485 607
8 542 436 487 609 422 324 369 488
8 525 422 488 611 407 311 371 491
8 488 369 489 612 371 261 370 490
8 491 371 490 613 373 263 372 492
8 495 386 276 377 614 503 385 493
8 614 503 385 493 561 457 342 442
8 615 501 383 494 495 386 276 377
8 496 384 274 378 615 501 383 494
8 618 500 382 497 496 384 274 378
8 619 499 381 498 497 382 272 379
8 511 408 297 393 619 499 381 498
8 620 505 387 499 500 388 278 382
8 527 424 312 408 620 505 387 499
8 502 390 506 621 384 280 388 500
8 622 507 389 501 504 392 282 386
8 502 390 280 384 622 507 389 501
8 504 392 282 386 624 509 391 503
8 624 509 391 503 575 468 354 457
8 513 410 299 395 630 527 408 511
8 631 528 411 514 512 409 300 396
8 513 410 528 631 395 299 409 512
8 519 416 305 401 633 530 411 514
8 634 531 412 515 516 413 302 398
8 523 420 309 405 634 531 412 515
8 635 532 413 516 517 414 303 399
8 521 417 533 636 403 306 414 517
8 520 418 307 402 637 534 415 518
8 519 416 534 637 401 305 415 518
8 522 419 308 404 639 537 418 520
8 522 419 536 640 404 308 417 521
8 524 421 310 406 642 539 420 523
8 524 421 541 644 406 310 423 526
8 646 543 422 525 526 423 311 407
8 529 426 314 410 647 544 424 527
8 528 425 545 648 411 315 427 530
8 529 426 545 648 410 314 425 528
8 535 429 317 416 649 546 427 530
8 650 548 430 531 532 432 320 413
8 539 438 325 420 650 548 430 531
8 533 433 550 651 414 321 432 532
8 536 434 551 652 417 322 433 533
8 537 431 319 418 653 547 428 534
8 535 429 547 653 416 317 428 534
8 538 435 552 654 419 323 434 536
8 538 435 323 419 655 549 431 537
8 540 440 327 421 657 556 438 539
8 540 440 557 659 421 327 439 541
8 541 439 555 660 423 326 437 543
8 661 554 436 542 543 437 324 422
8 676 570 452 559 590 473 365 484
8 560 453 338 441 676 570 452 559
8 562 455 340 443 677 571 453 560
8 447 344 459 566 561 457 575 678
8 564 456 341 445 679 573 455 562
8 567 460 345 448 680 572 454 563
8 680 572 454 563 564 456 341 445
8 565 458 576 682 447 344 459 566
8 450 346 461 569 565 458 576 682
8 568 462 347 449 684 578 460 567
8 451 348 462 568 569 461 579 685
8 686 580 463 570 591 474 360 473
8 571 464 350 453 686 580 463 570
8 573 466 352 455 687 581 464 571
8 572 465 582 688 460 357 471 578
8 574 467 582 688 456 353 465 572
8 574 467 353 456 689 583 466 573
8 459 356 470 577 575 468 585 691
8 576 469 586 692 459 356 470 577
8 461 358 472 579 576 469 586 692
8 462 359 471 578 579 472 588 694
8 704 591 473 590 593 475 363 481
8 595 476 592 705 475 361 474 591
8 593 475 363 481 707 594 479 602
8 594 477 362 479 709 598 478 600
8 595 476 361 475 711 597 477 594
8 479 362 480 603 600 478 601 720
8 481 363 482 605 602 479 603 722
8 603 480 364 482 723 604 483 606
8 605 482 365 484 724 606 485 607
8 656 553 608 726 542 436 487 609
8 645 542 609 728 525 422 488 611
8 609 487 610 729 488 369 489 612
8 611 488 612 730 491 371 490 613
8 616 504 386 495 731 624 503 614
8 731 624 503 614 678 575 457 561
8 732 622 501 615 616 504 386 495
8 617 502 384 496 732 622 501 615
8 617 502 621 735 496 384 500 618
8 736 620 499 619 618 500 382 497
8 630 527 408 511 736 620 499 619
8 621 506 626 737 500 388 505 620
8 647 544 424 527 737 626 505 620
8 623 508 627 738 502 390 506 621
8 623 508 390 502 739 628 507 622
8 625 510 628 739 504 392 507 622
8 740 629 509 624 691 585 468 575
8 625 510 392 504 740 629 509 624
8 632 529 410 513 744 647 527 630
8 631 528 648 745 514 411 530 633
8 632 529 648 745 513 410 528 631
8 638 535 416 519 746 649 530 633
8 747 650 531 634 635 532 413 516
8 642 539 420 523 747 650 531 634
8 636 533 651 748 517 414 532 635
8 640 536 652 749 521 417 533 636
8 639 537 418 520 750 653 534 637
8 638 535 653 750 519 416 534 637
8 641 538 419 522 751 655 537 639
8 641 538 654 752 522 419 536 640
8 643 540 421 524 753 657 539 642
8 643 540 659 755 524 421 541 644
8 644 541 660 757 526 423 543 646
8 758 661 542 645 646 543 422 525
8 529 426 544 647 648 545 662 759
8 530 427 545 648 649 546 663 760
8 535 429 546 649 653 547 664 761
8 762 666 548 650 651 550 432 532
8 657 556 438 539 762 666 548 650
8 652 551 668 763 533 433 550 651
8 654 552 669 764 536 434 551 652
8 655 549 431 537 765 665 547 653
8 538 435 549 655 654 552 667 766
8 661 554 671 768 542 436 553 656
8 658 558 440 540 769 674 556 657
8 658 558 675 770 540 440 557 659
8 659 557 673 771 541 439 555 660
8 660 555 672 772 543 437 554 661
8 788 686 570 676 704 591 473 590
8 677 571 453 560 788 686 570 676
8 679 573 455 562 789 687 571 677
8 566 459 577 683 678 575 691 790
8 681 574 456 564 791 689 573 679
8 680 572 688 792 567 460 578 684
8 681 574 688 792 564 456 572 680
8 682 576 692 794 566 459 577 683
8 569 461 579 685 682 576 692 794
8 568 462 578 684 685 579 694 796
8 687 581 464 571 798 696 580 686
8 798 696 580 686 705 592 474 591
8 689 583 466 573 799 697 581 687
8 688 582 698 800 578 471 588 694
8 690 584 698 800 574 467 582 688
8 690 584 467 574 801 699 583 689
8 693 587 701 803 577 470 585 691
8 693 587 470 577 804 702 586 692
8 695 589 702 804 579 472 586 692
8 695 589 472 579 805 703 588 694
8 708 595 705 813 593 475 591 704
8 710 596 706 814 595 476 592 705
8 707 594 479 602 816 709 600 719
8 708 595 475 593 817 711 594 707
8 709 598 478 600 819 715 599 717
8 711 597 477 594 820 714 598 709
8 710 596 476 595 822 713 597 711
8 600 478 601 720 717 599 718 832
8 602 479 603 722 719 600 720 834
8 720 601 480 603 835 721 604 723
8 722 603 482 605 836 723 606 724
8 767 670 725 839 656 553 608 726
8 756 656 726 841 645 542 609 728
8 726 608 727 842 609 487 610 729
8 728 609 729 843 611 488 612 730
8 844 740 624 731 790 691 575 678
8 733 625 504 616 844 740 624 731
8 734 623 502 617 845 739 622 732
8 733 625 739 845 616 504 622 732
8 734 623 738 846 617 502 621 735
8 735 621 737 847 618 500 620 736
8 744 647 527 630 847 737 620 736
8 621 506 627 738 737 626 741 848
8 647 544 626 737 759 662 741 848
8 623 508 628 739 738 627 742 849
8 740 629 585 691 850 743 700 802
8 625 510 629 740 739 628 743 850
8 632 529 647 744 745 648 759 854
8 633 530 648 745 746 649 760 855
8 638 535 649 746 750 653 761 856
8 857 762 650 747 748 651 532 635
8 753 657 539 642 857 762 650 747
8 749 652 763 858 636 533 651 748
8 752 654 764 859 640 536 652 749
8 751 655 537 639 860 765 653 750
8 641 538 655 751 752 654 766 861
8 754 658 540 643 862 769 657 753
8 754 658 770 863 643 540 659 755
8 755 659 771 864 644 541 660 757
8 758 661 768 866 645 542 656 756
8 757 660 772 867 646 543 661 758
8 759 662 773 868 648 545 663 760
8 649 546 663 760 761 664 774 871
8 765 665 547 653 872 775 664 761
8 873 777 666 762 763 668 550 651
8 769 674 556 657 873 777 666 762
8 764 669 779 874 652 551 668 763
8 654 552 667 766 764 669 778 875
8 655 549 665 765 766 667 776 876
8 768 671 782 877 656 553 670 767
8 772 672 783 878 661 554 671 768
8 658 558 674 769 770 675 786 879
8 659 557 675 770 771 673 785 881
8 882 784 672 772 771 673 555 660
8 789 687 571 677 897 798 686 788
8 897 798 686 788 813 705 591 704
8 791 689 573 679 898 799 687 789
8 795 693 803 900 683 577 691 790
8 793 690 574 681 901 801 689 791
8 792 688 800 902 684 578 694 796
8 793 690 800 902 681 574 688 792
8 795 693 577 683 903 804 692 794
8 797 695 804 903 685 579 692 794
8 797 695 579 685 904 805 694 796
8 905 806 697 799 798 696 581 687
8 814 706 806 905 705 592 696 798
8 689 583 697 799 801 699 808 907
8 800 698 809 908 694 588 703 805
8 690 584 699 801 800 698 809 908
8 803 701 810 909 691 585 700 802
8 693 587 702 804 803 701 811 910
8 695 589 703 805 804 702 812 911
8 818 710 814 919 708 595 705 813
8 821 712 815 920 710 596 706 814
8 816 709 600 719 922 819 717 831
8 817 711 594 707 923 820 709 816
8 818 710 595 708 924 822 711 817
8 819 715 599 717 926 827 716 829
8 820 714 598 709 927 826 715 819
8 929 825 713 822 820 714 597 711
8 821 712 596 710 930 824 713 822
8 717 599 718 832 829 716 830 942
8 719 600 720 834 831 717 832 944
8 832 718 601 720 945 833 721 835
8 834 720 603 722 946 835 723 836
8 869 780 838 950 767 670 725 839
8 865 767 839 952 756 656 726 841
8 839 725 840 953 726 608 727 842
8 841 726 842 954 728 609 729 843
8 844 740 691 790 955 850 802 899
8 733 625 740 844 845 739 850 955
8 734 623 739 845 846 738 849 956
8 735 621 738 846 847 737 848 957
8 744 647 737 847 854 759 848 957
8 738 627 742 849 848 741 851 958
8 848 741 851 958 759 662 773 868
8 850 743 700 802 959 852 807 906
8 849 742 628 739 959 852 743 850
8 854 759 868 965 745 648 760 855
8 746 649 760 855 856 761 871 966
8 860 765 653 750 967 872 761 856
8 968 873 762 857 858 763 651 748
8 862 769 657 753 968 873 762 857
8 859 764 874 969 749 652 763 858
8 752 654 766 861 859 764 875 970
8 751 655 765 860 861 766 876 971
8 754 658 769 862 863 770 879 972
8 755 659 770 863 864 771 881 974
8 976 882 772 867 864 771 660 757
8 866 768 877 977 756 656 767 865
8 867 772 878 978 758 661 768 866
8 760 663 773 868 871 774 883 980
8 870 781 837 948 982 890 780 869
8 982 890 780 869 877 782 670 767
8 761 664 774 871 872 775 884 984
8 876 776 665 765 985 885 775 872
8 873 777 668 763 986 887 779 874
8 769 674 777 873 879 786 887 986
8 764 669 778 875 874 779 888 987
8 766 667 776 876 875 778 886 988
8 878 783 892 989 768 671 782 877
8 878 783 672 772 990 893 784 882
8 880 787 675 770 991 896 786 879
8 880 787 895 992 770 675 785 881
8 881 785 894 993 771 673 784 882
8 1006 905 799 898 897 798 687 789
8 919 814 905 1006 813 705 798 897
8 791 689 799 898 901 801 907 1007
8 900 803 909 1009 790 691 802 899
8 795 693 804 903 900 803 910 1010
8 902 800 908 1011 796 694 805 904
8 793 690 801 901 902 800 908 1011
8 797 695 805 904 903 804 911 1012
8 799 697 806 905 907 808 912 1013
8 920 815 912 1013 814 706 806 905
8 802 700 810 909 906 807 913 1014
8 801 699 808 907 908 809 914 1015
8 805 703 809 908 911 812 915 1016
8 803 701 811 910 909 810 916 1017
8 911 812 917 1018 804 702 811 910
8 925 821 920 1030 818 710 814 919
8 928 823 921 1031 821 712 815 920
8 922 819 717 831 1033 926 829 941
8 923 820 709 816 1034 927 819 922
8 1035 929 822 924 923 820 711 817
8 925 821 710 818 1036 930 822 924
8 1038 933 825 929 927 826 714 820
8 926 827 716 829 1039 935 828 939
8 927 826 715 819 1040 934 827 926
8 928 823 712 821 1041 931 824 930
8 1042 932 824 930 929 825 713 822
8 829 716 830 942 939 828 940 1058
8 831 717 832 944 941 829 942 1060
8 942 830 718 832 1061 943 833 945
8 944 832 720 834 1062 945 835 946
8 981 889 947 1064 870 781 837 948
8 948 837 949 1067 869 780 838 950
8 975 869 950 1069 865 767 839 952
8 950 838 951 1070 839 725 840 953
8 952 839 953 1071 841 726 842 954
8 955 850 802 899 1072 959 906 1008
8 956 849 739 845 1072 959 850 955
8 846 738 849 956 957 848 958 1073
8 957 848 958 1073 854 759 868 965
8 849 742 852 959 958 851 961 1076
8 960 853 961 1076 906 807 852 959
8 958 851 961 1076 868 773 883 980
8 960 853 807 906 1077 963 913 1014
8 855 760 868 965 966 871 980 1085
8 856 761 871 966 967 872 984 1086
8 971 876 765 860 1087 985 872 967
8 968 873 763 858 1088 986 874 969
8 862 769 873 968 972 879 986 1088
8 859 764 875 970 969 874 987 1089
8 861 766 876 971 970 875 988 1090
8 973 880 770 863 1091 991 879 972
8 973 880 992 1092 863 770 881 974
8 974 881 993 1093 864 771 882 976
8 979 870 948 1066 1094 982 869 975
8 1094 982 869 975 977 877 767 865
8 978 878 772 867 1095 990 882 976
8 978 878 989 1096 866 768 877 977
8 871 774 883 980 984 884 994 1099
8 983 891 999 1100 870 781 889 981
8 1101 1000 890 982 989 892 782 877
8 983 891 781 870 1101 1000 890 982
8 872 775 884 984 985 885 995 1103
8 876 776 885 985 988 886 996 1104
8 986 887 779 874 1105 998 888 987
8 879 786 887 986 991 896 998 1105
8 875 778 886 988 987 888 997 1106
8 990 893 1002 1107 878 783 892 989
8 1108 1003 893 990 993 894 784 882
8 880 787 896 991 992 895 1005 1109
8 993 894 785 881 1110 1004 895 992
8 898 799 905 1006 1007 907 1013 1120
8 1030 920 1013 1120 919 814 905 1006
8 901 801 907 1007 1011 908 1015 1121
8 899 802 909 1009 1008 906 1014 1122
8 900 803 910 1010 1009 909 1017 1123
8 1012 911 1018 1124 903 804 910 1010
8 904 805 908 1011 1012 911 1016 1125
8 1013 912 1020 1127 907 808 914 1015
8 1031 921 1020 1127 920 815 912 1013
8 1019 918 962 1075 1128 1021 913 1014
8 1128 1021 913 1014 1017 916 810 909
8 1015 914 1022 1129 908 809 915 1016
8 1016 915 1023 1130 911 812 917 1018
8 1018 917 1024 1131 910 811 916 1017
8 1037 928 1031 1148 925 821 920 1030
8 928 823 931 1041 1031 921 1032 1149
8 1033 926 829 941 1151 1039 939 1057
8 1034 927 819 922 1152 1040 926 1033
8 1153 1038 929 1035 1034 927 820 923
8 1154 1042 930 1036 1035 929 822 924
8 1037 928 821 925 1155 1041 930 1036
8 1039 935 828 939 1156 1047 938 1055
8 1157 1043 932 1042 1038 933 825 929
8 1038 933 826 927 1158 1045 934 1040
8 1040 934 827 926 1159 1046 935 1039
8 930 824 932 1042 1041 931 1044 1160
8 1051 936 1048 1165 1175 1052 937 1053
8 1156 1047 938 1055 1053 937 1054 1178
8 939 828 940 1058 1055 938 1056 1181
8 941 829 942 1060 1057 939 1058 1183
8 942 830 943 1061 1058 940 1059 1184
8 1060 942 832 944 1185 1061 945 1062
8 1082 964 1063 1188 981 889 947 1064
8 1097 981 1064 1190 979 870 948 1066
8 1064 947 1065 1191 948 837 949 1067
8 1066 948 1067 1193 975 869 950 1069
8 1067 949 1068 1194 950 838 951 1070
8 1069 950 1070 1195 952 839 953 1071
8 956 849 959 1072 1073 958 1076 1197
8 1074 960 1076 1197 1008 906 959 1072
8 1073 958 1076 1197 965 868 980 1085
8 1074 960 906 1008 1198 1077 1014 1122
8 1133 1026 1079 1199 1019 918 962 1075
8 1077 963 913 1014 1200 1080 962 1075
8 960 853 963 1077 1076 961 1078 1201
8 980 883 961 1076 1099 994 1078 1201
8 1210 1083 964 1082 1100 999 889 981
8 966 871 980 1085 1086 984 1099 1215
8 967 872 984 1086 1087 985 1103 1216
8 971 876 985 1087 1090 988 1104 1217
8 1088 986 874 969 1218 1105 987 1089
8 972 879 986 1088 1091 991 1105 1218
8 970 875 988 1090 1089 987 1106 1219
8 973 880 991 1091 1092 992 1109 1220
8 1093 993 881 974 1221 1110 992 1092
8 1222 1108 990 1095 1093 993 882 976
8 1223 1101 982 1094 1096 989 877 977
8 1098 983 870 979 1223 1101 982 1094
8 1095 990 1107 1224 978 878 989 1096
8 1098 983 1100 1225 979 870 981 1097
8 984 884 994 1099 1103 995 1111 1227
8 1102 1001 1115 1228 983 891 999 1100
8 1101 1000 892 989 1229 1116 1002 1107
8 1102 1001 891 983 1229 1116 1000 1101
8 985 885 995 1103 1104 996 1112 1230
8 988 886 996 1104 1106 997 1113 1231
8 1105 998 888 987 1232 1114 997 1106
8 991 896 998 1105 1109 1005 1114 1232
8 1108 1003 1117 1233 990 893 1002 1107
8 1108 1003 894 993 1233 1117 1004 1110
8 992 895 1005 1109 1110 1004 1118 1234
8 1120 1013 1127 1244 1007 907 1015 1121
8 1148 1031 1127 1244 1030 920 1013 1120
8 1121 1015 1129 1245 1011 908 1016 1125
8 1126 1019 1075 1196 1246 1128 1014 1122
8 1246 1128 1014 1122 1123 1017 909 1009
8 1124 1018 1131 1247 1010 910 1017 1123
8 1125 1016 1130 1248 1012 911 1018 1124
8 1127 1020 1137 1254 1015 914 1022 1129
8 1031 921 1032 1149 1127 1020 1137 1254
8 1134 1027 918 1019 1257 1140 1021 1128
8 1257 1140 1021 1128 1131 1024 916 1017
8 1129 1022 1141 1258 1016 915 1023 1130
8 1130 1023 1142 1259 1018 917 1024 1131
8 1261 1144 1025 1132 1133 1026 1079 1199
8 1255 1138 1025 1132 1135 1028 1144 1261
8 1133 1026 918 1019 1262 1145 1027 1134
8 1136 1029 1139 1256 1263 1146 1028 1135
8 1037 928 1041 1155 1148 1031 1149 1275
8 1041 931 1044 1160 1149 1032 1150 1276
8 1151 1039 939 1057 1278 1156 1055 1180
8 1152 1040 926 1033 1279 1159 1039 1151
8 1153 1038 927 1034 1280 1158 1040 1152
8 1281 1157 1042 1154 1153 1038 929 1035
8 1036 930 1042 1154 1155 1041 1160 1282
8 1283 1164 1046 1159 1156 1047 935 1039
8 1165 1048 1164 1283 1053 937 1047 1156
8 1157 1043 933 1038 1284 1161 1045 1158
8 1157 1043 1161 1284 1042 932 1044 1160
8 1040 934 1046 1159 1158 1045 1163 1285
8 1166 1049 1167 1292 1051 936 1048 1165
8 1166 1049 936 1051 1293 1168 1050 1172
8 1051 936 1052 1175 1172 1050 1173 1306
8 1174 1051 1165 1290 1308 1175 1053 1177
8 1053 937 1054 1178 1175 1052 1176 1309
8 1278 1156 1055 1180 1177 1053 1178 1311
8 1055 938 1056 1181 1178 1054 1179 1312
8 1057 939 1058 1183 1180 1055 1181 1314
8 1058 940 1059 1184 1181 1056 1182 1315
8 1060 942 1061 1185 1183 1058 1184 1316
8 1208 1081 1187 1321 1082 964 1063 1188
8 1209 1082 1188 1322 1097 981 1064 1190
8 1188 1063 1189 1323 1064 947 1065 1191
8 1190 1064 1191 1325 1066 948 1067 1193
8 1191 1065 1192 1326 1067 949 1068 1194
8 1067 1193 1069 950 1194 1327 1195 1070
8 1250 1133 1199 1330 1126 1019 1075 1196
8 1198 1077 1014 1122 1331 1200 1075 1196
8 1074 960 1077 1198 1197 1076 1201 1332
8 1085 980 1076 1197 1215 1099 1201 1332
8 1199 1079 1203 1333 1075 962 1080 1200
8 1132 1025 1119 1243 1199 1079 1203 1333
8 1201 1078 963 1077 1334 1202 1080 1200
8 1099 994 1078 1201 1227 1111 1202 1334
8 1343 1207 1081 1208 1210 1083 964 1082
8 1214 1084 1186 1319 1343 1207 1081 1208
8 1345 1210 1082 1209 1225 1100 981 1097
8 1346 1211 1083 1210 1228 1115 999 1100
8 1086 984 1099 1215 1216 1103 1227 1352
8 1087 985 1103 1216 1217 1104 1230 1353
8 1090 988 1104 1217 1219 1106 1231 1354
8 1218 1105 987 1089 1355 1232 1106 1219
8 1091 991 1105 1218 1220 1109 1232 1355
8 1092 992 1109 1220 1221 1110 1234 1356
8 1222 1108 1233 1357 1095 990 1107 1224
8 1222 1108 993 1093 1357 1233 1110 1221
8 1223 1101 989 1096 1358 1229 1107 1224
8 1226 1102 983 1098 1358 1229 1101 1223
8 1226 1102 1228 1359 1098 983 1100 1225
8 1103 995 1111 1227 1230 1112 1235 1360
8 1107 1002 1117 1233 1229 1116 1240 1362
8 1102 1001 1116 1229 1228 1115 1240 1362
8 1104 996 1112 1230 1231 1113 1236 1363
8 1364 1237 1114 1232 1231 1113 997 1106
8 1109 1005 1114 1232 1234 1118 1238 1365
8 1110 1004 1118 1234 1233 1117 1241 1366
8 1242 1374 1255 1138 1119 1243 1132 1025
8 1244 1127 1254 1376 1121 1015 1129 1245
8 1148 1031 1149 1275 1244 1127 1254 1376
8 1245 1129 1258 1377 1125 1016 1130 1248
8 1251 1134 1019 1126 1378 1257 1128 1246
8 1378 1257 1128 1246 1247 1131 1017 1123
8 1248 1130 1259 1379 1124 1018 1131 1247
8 1261 1381 1250 1133 1132 1249 1330 1199
8 1255 1380 1252 1135 1132 1249 1381 1261
8 1250 1133 1019 1126 1382 1262 1134 1251
8 1253 1136 1256 1385 1384 1263 1135 1252
8 1254 1137 1265 1387 1129 1022 1141 1258
8 1149 1032 1150 1276 1254 1137 1265 1387
8 1028 1135 1255 1138 1139 1256 1388 1266
8 1136 1029 1147 1264 1256 1139 1267 1389
8 1390 1268 1140 1257 1259 1142 1024 1131
8 1260 1143 1027 1134 1390 1268 1140 1257
8 1258 1141 1269 1391 1130 1023 1142 1259
8 1262 1145 1027 1134 1393 1271 1143 1260
8 1261 1144 1026 1133 1394 1272 1145 1262
8 1135 1028 1144 1261 1263 1146 1272 1394
8 1136 1029 1146 1263 1264 1147 1273 1395
8 1155 1041 1160 1282 1275 1149 1276 1405
8 1276 1150 1044 1160 1406 1277 1162 1286
8 1408 1283 1159 1279 1278 1156 1039 1151
8 1290 1165 1283 1408 1177 1053 1156 1278
8 1152 1040 1159 1279 1280 1158 1285 1409
8 1281 1157 1038 1153 1410 1284 1158 1280
8 1281 1157 1284 1410 1154 1042 1160 1282
8 1159 1046 1164 1283 1285 1163 1289 1412
8 1292 1167 1289 1412 1165 1048 1164 1283
8 1158 1045 1163 1285 1284 1161 1288 1413
8 1284 1161 1288 1413 1160 1044 1162 1286
8 1291 1166 1292 1418 1174 1051 1165 1290
8 1291 1166 1051 1174 1419 1293 1172 1305
8 1294 1169 1296 1421 1166 1049 1167 1292
8 1293 1168 1050 1172 1422 1295 1171 1303
8 1294 1169 1049 1166 1423 1297 1168 1293
8 1422 1295 1171 1303 1301 1170 1302 1435
8 1172 1050 1173 1306 1303 1171 1304 1438
8 1174 1051 1175 1308 1305 1172 1306 1440
8 1175 1052 1176 1309 1306 1173 1307 1441
8 1177 1053 1178 1311 1308 1175 1309 1443
8 1178 1054 1179 1312 1309 1176 1310 1444
8 1180 1055 1181 1314 1311 1178 1312 1446
8 1056 1181 1312 1179 1182 1315 1447 1313
8 1183 1058 1184 1316 1314 1181 1315 1448
8 1319 1186 1084 1214 1451 1317 1213 1350
8 1319 1186 1318 1453 1208 1081 1187 1321
8 1321 1187 1320 1456 1188 1063 1189 1323
8 1344 1208 1321 1457 1209 1082 1188 1322
8 1322 1188 1323 1458 1190 1064 1191 1325
8 1323 1189 1324 1459 1191 1065 1192 1326
8 1191 1325 1193 1067 1326 1460 1327 1194
8 1242 1374 1243 1119 1328 1462 1335 1204
8 1330 1199 1333 1465 1196 1075 1200 1331
8 1132 1249 1330 1199 1243 1375 1465 1333
8 1332 1201 1077 1198 1466 1334 1200 1331
8 1215 1099 1201 1332 1352 1227 1334 1466
8 1119 1243 1333 1203 1204 1335 1470 1338
8 1333 1203 1338 1470 1200 1080 1202 1334
8 1227 1111 1202 1334 1360 1235 1338 1470
8 1328 1462 1335 1204 1205 1336 1471 1339
8 1337 1206 1340 1472 1464 1329 1205 1336
8 1346 1211 1342 1479 1210 1083 1207 1343
8 1346 1211 1115 1228 1479 1342 1239 1361
8 1348 1212 1084 1214 1479 1342 1207 1343
8 1480 1343 1208 1344 1345 1210 1082 1209
8 1351 1214 1319 1454 1480 1343 1208 1344
8 1481 1346 1210 1345 1359 1228 1100 1225
8 1348 1212 1347 1483 1214 1084 1213 1350
8 1216 1103 1227 1352 1353 1230 1360 1488
8 1217 1104 1230 1353 1354 1231 1363 1489
8 1490 1364 1232 1355 1354 1231 1106 1219
8 1220 1109 1232 1355 1356 1234 1365 1491
8 1221 1110 1234 1356 1357 1233 1366 1492
8 1224 1107 1233 1357 1358 1229 1362 1493
8 1226 1102 1229 1358 1359 1228 1362 1493
8 1230 1112 1235 1360 1363 1236 1367 1496
8 1361 1239 1115 1228 1497 1371 1240 1362
8 1366 1241 1372 1498 1233 1117 1240 1362
8 1364 1237 1113 1231 1499 1368 1236 1363
8 1364 1237 1368 1499 1232 1114 1238 1365
8 1234 1118 1238 1365 1366 1241 1369 1500
8 1507 1373 1242 1374 1388 1266 1138 1255
8 1508 1374 1243 1375 1380 1255 1132 1249
8 1376 1254 1387 1509 1245 1129 1258 1377
8 1275 1149 1276 1405 1376 1254 1387 1509
8 1377 1258 1391 1510 1248 1130 1259 1379
8 1511 1390 1257 1378 1379 1259 1131 1247
8 1383 1260 1134 1251 1511 1390 1257 1378
8 1252 1135 1256 1385 1380 1255 1388 1512
8 1261 1381 1513 1394 1133 1250 1382 1262
8 1135 1252 1384 1263 1261 1381 1513 1394
8 1382 1262 1134 1251 1514 1393 1260 1383
8 1253 1136 1263 1384 1386 1264 1395 1516
8 1253 1136 1264 1386 1385 1256 1389 1517
8 1387 1265 1397 1519 1258 1141 1269 1391
8 1276 1150 1277 1406 1387 1265 1397 1519
8 1256 1139 1267 1389 1388 1266 1398 1520
8 1264 1147 1274 1396 1389 1267 1399 1521
8 1392 1270 1143 1260 1522 1400 1268 1390
8 1390 1268 1142 1259 1522 1400 1269 1391
8 1392 1270 1401 1523 1260 1143 1271 1393
8 1272 1394 1524 1402 1145 1262 1393 1271
8 1395 1273 1146 1263 1524 1402 1272 1394
8 1273 1395 1264 1147 1403 1526 1396 1274
8 1405 1276 1160 1282 1534 1406 1286 1411
8 1414 1287 1407 1535 1286 1162 1277 1406
8 1279 1159 1283 1408 1409 1285 1412 1537
8 1418 1292 1412 1537 1290 1165 1283 1408
8 1280 1158 1285 1409 1410 1284 1413 1538
8 1410 1284 1413 1538 1282 1160 1286 1411
8 1285 1163 1289 1412 1413 1288 1417 1540
8 1421 1296 1417 1540 1292 1167 1289 1412
8 1414 1287 1162 1286 1541 1416 1288 1413
8 1420 1294 1421 1545 1291 1166 1292 1418
8 1419 1293 1172 1305 1546 1422 1303 1437
8 1420 1294 1166 1291 1547 1423 1293 1419
8 1294 1169 1297 1423 1421 1296 1425 1548
8 1423 1297 1168 1293 1549 1424 1295 1422
8 1301 1170 1298 1427 1422 1295 1424 1549
8 1432 1300 1428 1554 1301 1170 1298 1427
8 1431 1299 1428 1554 1560 1430 1300 1432
8 1563 1433 1300 1432 1435 1302 1170 1301
8 1546 1422 1303 1437 1434 1301 1435 1565
8 1303 1171 1304 1438 1435 1302 1436 1566
8 1305 1172 1306 1440 1437 1303 1438 1568
8 1306 1173 1307 1441 1438 1304 1439 1569
8 1308 1175 1309 1443 1440 1306 1441 1571
8 1309 1176 1310 1444 1441 1307 1442 1572
8 1311 1178 1312 1446 1443 1309 1444 1574
8 1179 1312 1444 1310 1313 1447 1575 1445
8 1314 1181 1315 1448 1446 1312 1447 1576
8 1350 1213 1349 1486 1451 1317 1449 1579
8 1451 1317 1450 1581 1319 1186 1318 1453
8 1454 1319 1214 1351 1582 1451 1350 1487
8 1453 1318 1452 1584 1321 1187 1320 1456
8 1454 1319 1453 1585 1344 1208 1321 1457
8 1456 1320 1455 1586 1323 1189 1324 1459
8 1457 1321 1456 1587 1322 1188 1323 1458
8 1458 1323 1459 1588 1325 1191 1326 1460
8 1205 1336 1464 1329 1328 1462 1590 1461
8 1507 1373 1461 1590 1374 1242 1328 1462
8 1508 1374 1462 1591 1375 1243 1335 1467
8 1337 1206 1329 1464 1473 1341 1463 1594
8 1375 1243 1335 1467 1465 1333 1470 1596
8 1465 1333 1470 1596 1331 1200 1334 1466
8 1352 1227 1334 1466 1488 1360 1470 1596
8 1591 1462 1336 1468 1467 1335 1471 1597
8 1469 1337 1472 1598 1595 1464 1336 1468
8 1471 1339 1474 1600 1335 1204 1338 1470
8 1600 1474 1367 1496 1470 1338 1235 1360
8 1336 1205 1340 1472 1471 1339 1475 1601
8 1337 1206 1341 1473 1472 1340 1476 1602
8 1495 1370 1478 1609 1361 1239 1342 1479
8 1348 1212 1342 1479 1483 1347 1478 1609
8 1481 1346 1479 1610 1345 1210 1343 1480
8 1481 1346 1228 1359 1610 1479 1361 1494
8 1484 1348 1214 1351 1610 1479 1343 1480
8 1483 1347 1482 1612 1350 1213 1349 1486
8 1484 1348 1483 1613 1351 1214 1350 1487
8 1353 1230 1360 1488 1489 1363 1496 1616
8 1490 1364 1231 1354 1617 1499 1363 1489
8 1490 1364 1499 1617 1355 1232 1365 1491
8 1356 1234 1365 1491 1492 1366 1500 1619
8 1492 1366 1498 1620 1357 1233 1362 1493
8 1494 1361 1228 1359 1621 1497 1362 1493
8 1495 1370 1239 1361 1622 1504 1371 1497
8 1363 1236 1367 1496 1499 1368 1501 1623
8 1497 1371 1240 1362 1624 1505 1372 1498
8 1625 1503 1372 1498 1500 1369 1241 1366
8 1365 1238 1368 1499 1500 1369 1502 1626
8 1520 1398 1506 1633 1388 1266 1373 1507
8 1634 1507 1374 1508 1512 1388 1255 1380
8 1509 1387 1519 1635 1377 1258 1391 1510
8 1405 1276 1406 1534 1509 1387 1519 1635
8 1515 1392 1260 1383 1636 1522 1390 1511
8 1511 1390 1259 1379 1636 1522 1391 1510
8 1385 1256 1389 1517 1512 1388 1520 1637
8 1513 1394 1262 1382 1638 1524 1393 1514
8 1395 1516 1638 1524 1263 1384 1513 1394
8 1515 1392 1523 1639 1383 1260 1393 1514
8 1516 1395 1526 1640 1386 1264 1396 1518
8 1386 1264 1396 1518 1517 1389 1521 1641
8 1519 1397 1527 1643 1391 1269 1400 1522
8 1535 1407 1527 1643 1406 1277 1397 1519
8 1389 1267 1399 1521 1520 1398 1528 1644
8 1645 1529 1399 1521 1525 1404 1274 1396
8 1392 1270 1400 1522 1523 1401 1531 1646
8 1524 1402 1271 1393 1648 1532 1401 1523
8 1403 1526 1648 1532 1273 1395 1524 1402
8 1525 1404 1274 1396 1649 1533 1403 1526
8 1539 1414 1535 1657 1411 1286 1406 1534
8 1542 1415 1536 1658 1414 1287 1407 1535
8 1409 1285 1412 1537 1538 1413 1540 1660
8 1545 1421 1540 1660 1418 1292 1412 1537
8 1539 1414 1286 1411 1661 1541 1413 1538
8 1540 1417 1544 1663 1413 1288 1416 1541
8 1421 1296 1425 1548 1540 1417 1544 1663
8 1542 1415 1287 1414 1664 1543 1416 1541
8 1420 1294 1423 1547 1545 1421 1548 1666
8 1547 1423 1293 1419 1667 1549 1422 1546
8 1434 1301 1427 1553 1546 1422 1549 1667
8 1423 1297 1424 1549 1548 1425 1550 1668
8 1551 1426 1550 1668 1427 1298 1424 1549
8 1551 1426 1298 1427 1671 1552 1428 1554
8 1562 1432 1554 1674 1434 1301 1427 1553
8 1431 1299 1429 1558 1554 1428 1555 1675
8 1431 1299 1430 1560 1558 1429 1557 1680
8 1560 1430 1300 1432 1683 1559 1433 1563
8 1561 1431 1554 1674 1684 1560 1432 1562
8 1685 1563 1432 1562 1565 1435 1301 1434
8 1435 1302 1436 1566 1563 1433 1564 1686
8 1437 1303 1438 1568 1565 1435 1566 1688
8 1438 1304 1439 1569 1566 1436 1567 1689
8 1440 1306 1441 1571 1568 1438 1569 1691
8 1441 1307 1442 1572 1569 1439 1570 1692
8 1443 1309 1444 1574 1571 1441 1572 1694
8 1310 1444 1572 1442 1445 1575 1695 1573
8 1446 1312 1447 1576 1574 1444 1575 1696
8 1486 1349 1485 1614 1579 1449 1577 1699
8 1451 1317 1449 1579 1581 1450 1578 1701
8 1487 1350 1486 1615 1582 1451 1579 1702
8 1581 1450 1580 1704 1453 1318 1452 1584
8 1582 1451 1581 1705 1454 1319 1453 1585
8 1584 1452 1583 1706 1456 1320 1455 1586
8 1585 1453 1584 1707 1457 1321 1456 1587
8 1587 1456 1586 1708 1458 1323 1459 1588
8 1633 1506 1589 1710 1507 1373 1461 1590
8 1464 1329 1461 1590 1594 1463 1589 1710
8 1468 1336 1462 1591 1595 1464 1590 1711
8 1634 1507 1590 1711 1508 1374 1462 1591
8 1473 1341 1463 1594 1603 1477 1593 1716
8 1469 1337 1464 1595 1599 1473 1594 1717
8 1471 1597 1467 1335 1600 1718 1596 1470
8 1718 1600 1496 1616 1596 1470 1360 1488
8 1336 1468 1597 1471 1472 1598 1719 1601
8 1469 1337 1473 1599 1598 1472 1602 1720
8 1722 1604 1501 1623 1600 1474 1367 1496
8 1475 1601 1471 1339 1604 1722 1600 1474
8 1602 1476 1605 1723 1472 1340 1475 1601
8 1476 1602 1724 1606 1341 1473 1603 1477
8 1483 1347 1478 1609 1612 1482 1608 1731
8 1495 1370 1504 1622 1609 1478 1608 1731
8 1618 1495 1609 1732 1494 1361 1479 1610
8 1484 1348 1479 1610 1613 1483 1609 1732
8 1486 1349 1482 1612 1614 1485 1611 1733
8 1613 1483 1612 1734 1487 1350 1486 1615
8 1489 1363 1496 1616 1617 1499 1623 1736
8 1491 1365 1499 1617 1619 1500 1626 1737
8 1618 1495 1361 1494 1738 1622 1497 1621
8 1739 1625 1498 1620 1619 1500 1366 1492
8 1621 1497 1362 1493 1740 1624 1498 1620
8 1742 1631 1504 1622 1624 1505 1371 1497
8 1743 1628 1502 1626 1623 1501 1368 1499
8 1744 1630 1505 1624 1625 1503 1372 1498
8 1745 1629 1503 1625 1626 1502 1369 1500
8 1520 1398 1528 1644 1633 1506 1632 1751
8 1637 1520 1633 1752 1512 1388 1507 1634
8 1635 1519 1643 1753 1510 1391 1522 1636
8 1657 1535 1643 1753 1534 1406 1519 1635
8 1515 1392 1522 1636 1639 1523 1646 1754
8 1517 1389 1521 1641 1637 1520 1644 1755
8 1524 1638 1756 1648 1393 1514 1639 1523
8 1640 1526 1395 1516 1756 1648 1524 1638
8 1642 1525 1396 1518 1757 1649 1526 1640
8 1758 1645 1521 1641 1642 1525 1396 1518
8 1646 1531 1400 1522 1760 1650 1527 1643
8 1535 1407 1536 1658 1643 1527 1650 1760
8 1521 1399 1529 1645 1644 1528 1651 1761
8 1647 1530 1652 1762 1525 1404 1529 1645
8 1401 1523 1648 1532 1531 1646 1763 1655
8 1525 1404 1533 1649 1647 1530 1654 1765
8 1533 1649 1766 1656 1403 1526 1648 1532
8 1662 1542 1658 1774 1539 1414 1535 1657
8 1542 1415 1543 1664 1658 1536 1659 1775
8 1660 1540 1663 1777 1538 1413 1541 1661
8 1545 1421 1548 1666 1660 1540 1663 1777
8 1662 1542 1414 1539 1778 1664 1541 1661
8 1664 1543 1416 1541 1779 1665 1544 1663
8 1548 1425 1550 1668 1663 1544 1665 1779
8 1547 1423 1549 1667 1666 1548 1668 1781
8 1670 1551 1668 1781 1553 1427 1549 1667
8 1551 1426 1552 1671 1668 1550 1669 1782
8 1670 1551 1427 1553 1784 1671 1554 1674
8 1675 1555 1672 1785 1554 1428 1552 1671
8 1678 1556 1673 1789 1558 1429 1555 1675
8 1561 1431 1558 1681 1674 1554 1675 1790
8 1794 1677 1556 1678 1680 1557 1429 1558
8 1560 1430 1559 1683 1680 1557 1679 1797
8 1561 1431 1560 1684 1681 1558 1680 1798
8 1563 1433 1564 1686 1683 1559 1682 1800
8 1684 1560 1432 1562 1801 1683 1563 1685
8 1565 1435 1566 1688 1685 1563 1686 1802
8 1566 1436 1567 1689 1686 1564 1687 1803
8 1568 1438 1569 1691 1688 1566 1689 1805
8 1569 1439 1570 1692 1689 1567 1690 1806
8 1571 1441 1572 1694 1691 1569 1692 1808
8 1442 1572 1692 1570 1573 1695 1809 1693
8 1574 1444 1575 1696 1694 1572 1695 1810
8 1614 1485 1592 1712 1699 1577 1697 1813
8 1579 1449 1577 1699 1701 1578 1698 1815
8 1615 1486 1614 1735 1702 1579 1699 1816
8 1701 1578 1700 1818 1581 1450 1580 1704
8 1582 1451 1579 1702 1705 1581 1701 1819
8 1704 1580 1703 1820 1584 1452 1583 1706
8 1705 1581 1704 1821 1585 1453 1584 1707
8 1707 1584 1706 1822 1587 1456 1586 1708
8 1710 1589 1506 1633 1824 1709 1632 1751
8 1594 1463 1589 1710 1716 1593 1709 1824
8 1752 1633 1710 1825 1634 1507 1590 1711
8 1595 1464 1590 1711 1717 1594 1710 1825
8 1830 1714 1592 1712 1733 1611 1485 1614
8 1603 1477 1593 1716 1725 1607 1715 1834
8 1599 1473 1594 1717 1721 1603 1716 1835
8 1837 1722 1623 1736 1718 1600 1496 1616
8 1719 1601 1722 1837 1597 1471 1600 1718
8 1602 1720 1598 1472 1723 1838 1719 1601
8 1720 1602 1473 1599 1839 1724 1603 1721
8 1723 1605 1726 1840 1601 1475 1604 1722
8 1840 1726 1628 1743 1722 1604 1501 1623
8 1724 1606 1727 1841 1602 1476 1605 1723
8 1725 1607 1728 1842 1603 1477 1606 1724
8 1612 1482 1608 1731 1733 1611 1730 1849
8 1741 1627 1730 1849 1622 1504 1608 1731
8 1613 1483 1609 1732 1734 1612 1731 1850
8 1618 1495 1622 1738 1732 1609 1731 1850
8 1615 1486 1612 1734 1735 1614 1733 1851
8 1852 1743 1626 1737 1736 1623 1499 1617
8 1853 1745 1625 1739 1737 1626 1500 1619
8 1855 1742 1622 1738 1740 1624 1497 1621
8 1856 1744 1624 1740 1739 1625 1498 1620
8 1741 1627 1504 1622 1857 1746 1631 1742
8 1742 1631 1505 1624 1858 1749 1630 1744
8 1859 1747 1629 1745 1743 1628 1502 1626
8 1860 1748 1630 1744 1745 1629 1503 1625
8 1644 1528 1651 1761 1751 1632 1750 1865
8 1637 1520 1644 1755 1752 1633 1751 1866
8 1754 1646 1522 1636 1867 1760 1643 1753
8 1657 1535 1658 1774 1753 1643 1760 1867
8 1639 1523 1646 1754 1756 1648 1763 1868
8 1641 1521 1645 1758 1755 1644 1761 1869
8 1757 1649 1526 1640 1870 1766 1648 1756
8 1642 1525 1649 1757 1759 1647 1765 1871
8 1759 1647 1762 1872 1642 1525 1645 1758
8 1760 1650 1767 1874 1646 1531 1655 1763
8 1658 1536 1659 1775 1760 1650 1767 1874
8 1762 1652 1768 1875 1645 1529 1651 1761
8 1764 1653 1769 1876 1647 1530 1652 1762
8 1656 1766 1877 1773 1532 1648 1763 1655
8 1771 1879 1765 1654 1653 1764 1647 1530
8 1533 1649 1765 1654 1656 1766 1880 1772
8 1662 1542 1664 1778 1774 1658 1775 1887
8 1664 1543 1665 1779 1775 1659 1776 1888
8 1778 1664 1541 1661 1890 1779 1663 1777
8 1666 1548 1668 1781 1777 1663 1779 1890
8 1782 1669 1780 1891 1668 1550 1665 1779
8 1670 1551 1671 1784 1781 1668 1782 1893
8 1671 1552 1672 1785 1782 1669 1783 1894
8 1790 1675 1785 1896 1674 1554 1671 1784
8 1675 1555 1673 1789 1785 1672 1786 1897
8 1792 1676 1788 1903 1678 1556 1673 1789
8 1795 1678 1789 1904 1681 1558 1675 1790
8 1792 1676 1556 1678 1906 1791 1677 1794
8 1680 1557 1679 1797 1794 1677 1793 1909
8 1910 1794 1678 1795 1798 1680 1558 1681
8 1683 1559 1682 1800 1797 1679 1796 1912
8 1684 1560 1683 1801 1798 1680 1797 1913
8 1686 1564 1687 1803 1800 1682 1799 1915
8 1685 1563 1686 1802 1801 1683 1800 1916
8 1688 1566 1689 1805 1802 1686 1803 1917
8 1689 1567 1690 1806 1803 1687 1804 1918
8 1691 1569 1692 1808 1805 1689 1806 1920
8 1692 1570 1693 1809 1806 1690 1807 1921
8 1694 1572 1695 1810 1808 1692 1809 1922
8 1829 1713 1811 1926 1712 1592 1697 1813
8 1813 1697 1812 1928 1699 1577 1698 1815
8 1735 1614 1712 1828 1816 1699 1813 1929
8 1815 1698 1814 1931 1701 1578 1700 1818
8 1702 1579 1699 1816 1819 1701 1815 1932
8 1818 1700 1817 1933 1704 1580 1703 1820
8 1819 1701 1818 1934 1705 1581 1704 1821
8 1821 1704 1820 1935 1707 1584 1706 1822
8 1824 1709 1632 1751 1937 1823 1750 1865
8 1716 1593 1709 1824 1834 1715 1823 1937
8 1825 1710 1633 1752 1938 1824 1751 1866
8 1717 1594 1710 1825 1835 1716 1824 1938
8 1945 1830 1712 1828 1851 1733 1614 1735
8 1830 1714 1831 1946 1712 1592 1713 1829
8 1947 1832 1714 1830 1849 1730 1611 1733
8 1843 1729 1607 1725 1950 1833 1715 1834
8 1721 1603 1716 1835 1836 1725 1834 1951
8 1836 1725 1842 1953 1721 1603 1724 1839
8 1723 1838 1719 1601 1840 1954 1837 1722
8 1954 1840 1743 1852 1837 1722 1623 1736
8 1724 1839 1720 1602 1841 1955 1838 1723
8 1841 1727 1844 1956 1723 1605 1726 1840
8 1956 1844 1747 1859 1840 1726 1628 1743
8 1728 1842 1724 1606 1845 1957 1841 1727
8 1725 1607 1729 1843 1842 1728 1846 1958
8 1741 1627 1746 1857 1849 1730 1848 1965
8 1734 1612 1731 1850 1851 1733 1849 1966
8 1854 1741 1849 1966 1738 1622 1731 1850
8 1967 1859 1745 1853 1852 1743 1626 1737
8 1968 1860 1744 1856 1853 1745 1625 1739
8 1854 1741 1622 1738 1969 1857 1742 1855
8 1855 1742 1624 1740 1970 1858 1744 1856
8 1857 1746 1631 1742 1971 1861 1749 1858
8 1858 1749 1630 1744 1972 1863 1748 1860
8 1859 1747 1862 1973 1745 1629 1748 1860
8 1875 1768 1864 1977 1761 1651 1750 1865
8 1755 1644 1761 1869 1866 1751 1865 1978
8 1867 1760 1874 1979 1754 1646 1763 1868
8 1774 1658 1775 1887 1867 1760 1874 1979
8 1870 1766 1648 1756 1980 1877 1763 1868
8 1872 1762 1875 1981 1758 1645 1761 1869
8 1757 1649 1766 1870 1871 1765 1880 1982
8 1983 1879 1764 1873 1871 1765 1647 1759
8 1873 1764 1876 1984 1759 1647 1762 1872
8 1877 1773 1655 1763 1986 1881 1767 1874
8 1775 1659 1776 1888 1874 1767 1881 1986
8 1876 1769 1882 1987 1762 1652 1768 1875
8 1878 1770 1883 1988 1764 1653 1769 1876
8 1880 1772 1656 1766 1989 1886 1773 1877
8 1878 1770 1653 1764 1990 1884 1771 1879
8 1765 1654 1772 1880 1879 1771 1885 1991
8 1778 1664 1779 1890 1887 1775 1888 1997
8 1998 1889 1776 1888 1891 1780 1665 1779
8 1893 1782 1891 2000 1781 1668 1779 1890
8 1894 1783 1892 2001 1782 1669 1780 1891
8 1784 1671 1785 1896 1893 1782 1894 2003
8 1897 1786 1895 2004 1785 1672 1783 1894
8 1790 1675 1789 1904 1896 1785 1897 2006
8 1901 1787 1898 2007 1789 1673 1786 1897
8 1903 1788 1900 2013 1789 1673 1787 1901
8 1792 1676 1791 1906 1903 1788 1902 2016
8 1907 1792 1903 2017 1795 1678 1789 1904
8 1906 1791 1677 1794 2019 1905 1793 1909
8 1907 1792 1678 1795 2020 1906 1794 1910
8 1797 1679 1796 1912 1909 1793 1908 2022
8 1798 1680 1797 1913 1910 1794 1909 2023
8 1800 1682 1799 1915 1912 1796 1911 2025
8 1801 1683 1800 1916 1913 1797 1912 2026
8 1803 1687 1804 1918 1915 1799 1914 2028
8 1802 1686 1803 1917 1916 1800 1915 2029
8 1805 1689 1806 1920 1917 1803 1918 2030
8 1806 1690 1807 1921 1918 1804 1919 2031
8 1808 1692 1809 1922 1920 1806 1921 2032
8 1939 1826 1924 2037 1829 1713 1811 1926
8 1926 1811 1925 2039 1813 1697 1812 1928
8 1944 1829 1926 2040 1828 1712 1813 1929
8 1928 1812 1927 2042 1815 1698 1814 1931
8 1929 1813 1928 2043 1816 1699 1815 1932
8 1931 1814 1930 2044 1818 1700 1817 1933
8 1932 1815 1931 2045 1819 1701 1818 1934
8 1934 1818 1933 2046 1821 1704 1820 1935
8 2048 1936 1823 1937 1977 1864 1750 1865
8 1950 1833 1715 1834 2048 1936 1823 1937
8 1938 1824 1751 1866 2049 1937 1865 1978
8 1835 1716 1824 1938 1951 1834 1937 2049
8 1939 1826 1713 1829 2053 1942 1831 1946
8 1940 1827 1923 2035 2053 1942 1826 1939
8 1945 1830 1946 2058 1828 1712 1829 1944
8 2059 1947 1830 1945 1966 1849 1733 1851
8 1947 1832 1730 1849 2060 1948 1848 1965
8 1947 1832 1948 2060 1830 1714 1831 1946
8 1959 1847 1729 1843 2063 1949 1833 1950
8 1952 1843 1725 1836 2064 1950 1834 1951
8 1836 1725 1843 1952 1953 1842 1958 2066
8 1953 1842 1957 2067 1839 1724 1841 1955
8 1841 1955 1838 1723 1956 2068 1954 1840
8 2068 1956 1859 1967 1954 1840 1743 1852
8 1956 1844 1960 2069 1859 1747 1862 1973
8 1845 1957 1841 1727 1960 2069 1956 1844
8 1728 1842 1957 1845 1846 1958 2071 1961
8 1962 2072 1959 1847 1846 1958 1843 1729
8 1971 1861 1964 2077 1857 1746 1848 1965
8 1854 1741 1857 1969 1966 1849 1965 2078
8 1967 1859 1973 2079 1853 1745 1860 1968
8 1970 1858 1744 1856 2080 1972 1860 1968
8 1969 1857 1742 1855 2081 1971 1858 1970
8 1971 1861 1749 1858 2082 1974 1863 1972
8 1973 1862 1975 2083 1860 1748 1863 1972
8 1987 1882 1976 2086 1875 1768 1864 1977
8 1981 1875 1977 2087 1869 1761 1865 1978
8 1980 1877 1763 1868 2088 1986 1874 1979
8 1887 1775 1888 1997 1979 1874 1986 2088
8 1880 1982 2089 1989 1766 1870 1980 1877
8 1984 1876 1987 2090 1872 1762 1875 1981
8 1765 1871 1983 1879 1880 1982 2091 1991
8 1985 1878 1764 1873 2092 1990 1879 1983
8 1985 1878 1988 2093 1873 1764 1876 1984
8 2094 1992 1881 1986 1998 1889 1776 1888
8 1986 1881 1992 2094 1877 1773 1886 1989
8 1988 1883 1993 2095 1876 1769 1882 1987
8 1878 1770 1884 1990 1988 1883 1994 2096
8 1991 1885 1772 1880 2097 1996 1886 1989
8 1879 1771 1885 1991 1990 1884 1995 2098
8 2103 1998 1888 1997 2000 1891 1779 1890
8 2104 1999 1889 1998 2001 1892 1780 1891
8 2003 1894 2001 2106 1893 1782 1891 2000
8 2004 1895 2002 2107 1894 1783 1892 2001
8 2006 1897 2004 2109 1896 1785 1894 2003
8 2007 1898 2005 2110 1897 1786 1895 2004
8 2014 1901 2007 2112 1904 1789 1897 2006
8 2011 1899 2008 2113 1901 1787 1898 2007
8 2119 2010 1899 2011 2013 1900 1787 1901
8 2016 1902 2012 2122 1903 1788 1900 2013
8 2017 1903 2013 2123 1904 1789 1901 2014
8 1906 1791 1905 2019 2016 1902 2015 2125
8 1907 1792 1906 2020 2017 1903 2016 2126
8 1909 1793 1908 2022 2019 1905 2018 2128
8 2020 1906 1794 1910 2129 2019 1909 2023
8 1912 1796 1911 2025 2022 1908 2021 2131
8 1913 1797 1912 2026 2023 1909 2022 2132
8 1915 1799 1914 2028 2025 1911 2024 2134
8 1916 1800 1915 2029 2026 1912 2025 2135
8 1918 1804 1919 2031 2028 1914 2027 2136
8 1917 1803 1918 2030 2029 1915 2028 2137
8 1920 1806 1921 2032 2030 1918 2031 2138
8 1940 1827 1941 2054 2035 1923 2033 2140
8 2035 1923 2034 2143 1939 1826 1924 2037
8 2037 1924 2036 2146 1926 1811 1925 2039
8 2051 1939 2037 2147 1944 1829 1926 2040
8 2039 1925 2038 2149 1928 1812 1927 2042
8 2040 1926 2039 2150 1929 1813 1928 2043
8 2042 1927 2041 2151 1931 1814 1930 2044
8 2043 1928 2042 2152 1932 1815 1931 2045
8 2045 1931 2044 2153 1934 1818 1933 2046
8 2155 2047 1936 2048 2086 1976 1864 1977
8 2063 1949 1833 1950 2155 2047 1936 2048
8 2156 2048 1937 2049 2087 1977 1865 1978
8 2064 1950 1834 1951 2156 2048 1937 2049
8 2051 1939 1829 1944 2160 2053 1946 2058
8 2052 1940 2035 2144 2160 2053 1939 2051
8 2053 1942 1831 1946 2163 2057 1948 2060
8 2055 1943 1827 1940 2163 2057 1942 2053
8 2055 1943 2056 2164 1940 1827 1941 2054
8 2059 1947 1849 1966 2167 2060 1965 2078
8 2059 1947 2060 2167 1945 1830 1946 2058
8 2077 1964 2061 2168 1965 1848 1948 2060
8 2070 1963 1847 1959 2170 2062 1949 2063
8 2065 1959 1843 1952 2171 2063 1950 2064
8 2173 2072 1958 2066 2065 1959 1843 1952
8 1953 1842 1958 2066 2067 1957 2071 2174
8 2068 1956 2069 2175 1967 1859 1973 2079
8 2067 1957 2069 2175 1955 1841 1956 2068
8 1845 1957 2069 1960 1961 2071 2176 2073
8 2069 1960 2073 2176 1973 1862 1975 2083
8 2070 1963 2075 2177 1959 1847 1962 2072
8 1846 1958 2071 1961 1962 2072 2178 2074
8 2077 1964 1861 1971 2182 2076 1974 2082
8 2081 1971 2077 2183 1969 1857 1965 2078
8 2079 1973 2083 2184 1968 1860 1972 2080
8 2081 1971 1858 1970 2185 2082 1972 2080
8 2083 1975 2084 2186 1972 1863 1974 2082
8 2086 1976 1882 1987 2189 2085 1993 2095
8 2090 1987 2086 2190 1981 1875 1977 2087
8 2191 2094 1986 2088 2103 1998 1888 1997
8 2088 1986 2094 2191 1980 1877 1989 2089
8 1991 2091 2192 2097 1880 1982 2089 1989
8 2093 1988 2095 2193 1984 1876 1987 2090
8 1879 1983 2092 1990 1991 2091 2194 2098
8 1985 1878 1990 2092 2093 1988 2096 2195
8 2097 1996 1886 1989 2196 2099 1992 2094
8 2196 2099 1992 2094 2104 1999 1889 1998
8 1994 2096 1988 1883 2100 2197 2095 1993
8 2096 1994 1884 1990 2198 2101 1995 2098
8 1995 2098 2199 2102 1885 1991 2097 1996
8 2203 2104 1998 2103 2106 2001 1891 2000
8 2107 2002 2105 2204 2001 1892 1999 2104
8 2109 2004 2107 2206 2003 1894 2001 2106
8 2110 2005 2108 2207 2004 1895 2002 2107
8 2112 2007 2110 2209 2006 1897 2004 2109
8 2113 2008 2111 2210 2007 1898 2005 2110
8 2120 2011 2113 2212 2014 1901 2007 2112
8 2117 2009 2114 2213 2011 1899 2008 2113
8 2219 2116 2009 2117 2119 2010 1899 2011
8 2222 2118 2010 2119 2122 2012 1900 2013
8 2223 2119 2011 2120 2123 2013 1901 2014
8 2016 1902 2015 2125 2122 2012 2121 2225
8 2126 2016 2122 2226 2017 1903 2013 2123
8 2019 1905 2018 2128 2125 2015 2124 2228
8 2020 1906 2019 2129 2126 2016 2125 2229
8 2022 1908 2021 2131 2128 2018 2127 2231
8 2023 1909 2022 2132 2129 2019 2128 2232
8 2025 1911 2024 2134 2131 2021 2130 2234
8 2026 1912 2025 2135 2132 2022 2131 2235
8 1914 2028 2134 2024 2027 2136 2236 2133
8 2029 1915 2028 2137 2135 2025 2134 2237
8 2030 1918 2031 2138 2137 2028 2136 2238
8 2157 2050 2139 2240 2054 1941 2033 2140
8 2052 1940 2054 2161 2144 2035 2140 2242
8 2140 2033 2141 2243 2035 1923 2034 2143
8 2143 2034 2142 2246 2037 1924 2036 2146
8 2144 2035 2143 2247 2051 1939 2037 2147
8 2146 2036 2145 2249 2039 1925 2038 2149
8 2147 2037 2146 2250 2040 1926 2039 2150
8 2149 2038 2148 2251 2042 1927 2041 2151
8 2150 2039 2149 2252 2043 1928 2042 2152
8 2152 2042 2151 2253 2045 1931 2044 2153
8 2255 2154 2047 2155 2189 2085 1976 2086
8 2170 2062 1949 2063 2255 2154 2047 2155
8 2256 2155 2048 2156 2190 2086 1977 2087
8 2171 2063 1950 2064 2256 2155 2048 2156
8 2258 2159 2050 2157 2164 2056 1941 2054
8 2160 2053 1946 2058 2262 2163 2060 2167
8 2162 2055 1940 2052 2262 2163 2053 2160
8 2162 2055 2164 2263 2052 1940 2054 2161
8 2163 2057 1948 2060 2264 2165 2061 2168
8 2055 1943 2057 2163 2164 2056 2165 2264
8 2182 2076 2166 2268 2077 1964 2061 2168
8 2183 2077 2168 2269 2078 1965 2060 2167
8 2070 1963 2062 2170 2177 2075 2169 2271
8 2172 2070 1959 2065 2272 2170 2063 2171
8 2172 2070 2177 2273 2065 1959 2072 2173
8 2066 1958 2072 2173 2174 2071 2178 2274
8 2067 1957 2071 2174 2175 2069 2176 2275
8 2175 2069 2176 2275 2079 1973 2083 2184
8 2071 1961 2074 2178 2176 2073 2179 2276
8 2176 2073 2179 2276 2083 1975 2084 2186
8 2072 1962 2075 2177 2178 2074 2180 2277
8 2182 2076 1974 2082 2280 2181 2084 2186
8 2183 2077 1971 2081 2281 2182 2082 2185
8 2184 2083 2186 2282 2080 1972 2082 2185
8 2189 2085 1993 2095 2285 2188 2100 2197
8 2190 2086 1987 2090 2286 2189 2095 2193
8 2192 2097 1989 2089 2287 2196 2094 2191
8 2287 2196 2094 2191 2203 2104 1998 2103
8 2194 2098 1991 2091 2288 2199 2097 2192
8 2195 2096 2197 2289 2093 1988 2095 2193
8 2096 2195 2290 2198 1990 2092 2194 2098
8 2097 1996 2099 2196 2199 2102 2200 2291
8 2196 2099 1999 2104 2291 2200 2105 2204
8 2100 2197 2292 2201 1994 2096 2198 2101
8 1995 2098 2198 2101 2102 2199 2293 2202
8 2206 2107 2204 2296 2106 2001 2104 2203
8 2207 2108 2205 2297 2107 2002 2105 2204
8 2209 2110 2207 2299 2109 2004 2107 2206
8 2210 2111 2208 2300 2110 2005 2108 2207
8 2212 2113 2210 2302 2112 2007 2110 2209
8 2213 2114 2211 2303 2113 2008 2111 2210
8 2220 2117 2213 2305 2120 2011 2113 2212
8 2216 2115 2214 2306 2117 2009 2114 2213
8 2216 2115 2009 2117 2311 2217 2116 2219
8 2219 2116 2010 2119 2314 2218 2118 2222
8 2315 2219 2117 2220 2223 2119 2011 2120
8 2122 2012 2121 2225 2222 2118 2221 2317
8 2318 2222 2119 2223 2226 2122 2013 2123
8 2125 2015 2124 2228 2225 2121 2224 2320
8 2126 2016 2125 2229 2226 2122 2225 2321
8 2128 2018 2127 2231 2228 2124 2227 2323
8 2129 2019 2128 2232 2229 2125 2228 2324
8 2131 2021 2130 2234 2231 2127 2230 2326
8 2132 2022 2131 2235 2232 2128 2231 2327
8 2134 2024 2133 2236 2234 2130 2233 2328
8 2135 2025 2134 2237 2235 2131 2234 2329
8 2137 2028 2136 2238 2237 2134 2236 2330
8 2157 2050 2158 2259 2240 2139 2239 2332
8 2257 2157 2240 2334 2161 2054 2140 2242
8 2240 2139 2241 2335 2140 2033 2141 2243
8 2242 2140 2243 2337 2144 2035 2143 2247
8 2243 2141 2244 2338 2143 2034 2142 2246
8 2246 2142 2245 2341 2146 2036 2145 2249
8 2247 2143 2246 2342 2147 2037 2146 2250
8 2249 2145 2248 2343 2149 2038 2148 2251
8 2250 2146 2249 2344 2150 2039 2149 2252
8 2252 2149 2251 2345 2152 2042 2151 2253
8 2169 2271 2347 2254 2062 2170 2255 2154
8 2189 2085 2188 2285 2255 2154 2254 2347
8 2348 2255 2155 2256 2286 2189 2086 2190
8 2272 2170 2063 2171 2348 2255 2155 2256
8 2349 2258 2157 2257 2263 2164 2054 2161
8 2258 2159 2261 2351 2157 2050 2158 2259
8 2258 2159 2056 2164 2351 2261 2165 2264
8 2262 2163 2060 2167 2355 2264 2168 2269
8 2162 2055 2163 2262 2263 2164 2264 2355
8 2357 2266 2165 2264 2268 2166 2061 2168
8 2268 2166 2076 2182 2361 2267 2181 2280
8 2281 2182 2268 2362 2183 2077 2168 2269
8 2271 2169 2270 2364 2177 2075 2180 2277
8 2172 2070 2170 2272 2273 2177 2271 2365
8 2072 2173 2274 2178 2177 2273 2366 2277
8 2071 2174 2275 2176 2178 2274 2367 2276
8 2275 2176 2276 2367 2184 2083 2186 2282
8 2283 2187 2084 2186 2368 2278 2179 2276
8 2178 2074 2180 2277 2276 2179 2278 2368
8 2283 2187 2279 2370 2186 2084 2181 2280
8 2281 2182 2082 2185 2371 2280 2186 2282
8 2188 2285 2374 2284 2100 2197 2292 2201
8 2286 2189 2095 2193 2375 2285 2197 2289
8 2192 2097 2196 2287 2288 2199 2291 2376
8 2287 2196 2104 2203 2376 2291 2204 2296
8 2194 2098 2199 2288 2290 2198 2293 2377
8 2289 2197 2096 2195 2378 2292 2198 2290
8 2291 2200 2105 2204 2379 2294 2205 2297
8 2199 2102 2200 2291 2293 2202 2294 2379
8 2198 2101 2202 2293 2292 2201 2295 2380
8 2299 2207 2297 2383 2206 2107 2204 2296
8 2300 2208 2298 2384 2207 2108 2205 2297
8 2302 2210 2300 2386 2209 2110 2207 2299
8 2303 2211 2301 2387 2210 2111 2208 2300
8 2305 2213 2303 2389 2212 2113 2210 2302
8 2306 2214 2304 2390 2213 2114 2211 2303
8 2310 2216 2306 2392 2220 2117 2213 2305
8 2308 2215 2307 2393 2216 2115 2214 2306
8 2308 2215 2115 2216 2396 2309 2217 2311
8 2310 2216 2117 2220 2398 2311 2219 2315
8 2311 2217 2116 2219 2399 2312 2218 2314
8 2314 2218 2118 2222 2402 2313 2221 2317
8 2315 2219 2119 2223 2403 2314 2222 2318
8 2225 2121 2224 2320 2317 2221 2316 2405
8 2226 2122 2225 2321 2318 2222 2317 2406
8 2228 2124 2227 2323 2320 2224 2319 2408
8 2229 2125 2228 2324 2321 2225 2320 2409
8 2231 2127 2230 2326 2323 2227 2322 2411
8 2232 2128 2231 2327 2324 2228 2323 2412
8 2234 2130 2233 2328 2326 2230 2325 2413
8 2235 2131 2234 2329 2327 2231 2326 2414
8 2237 2134 2236 2330 2329 2234 2328 2415
8 2259 2158 2260 2352 2332 2239 2331 2417
8 2257 2157 2259 2350 2334 2240 2332 2419
8 2240 2139 2239 2332 2335 2241 2333 2420
8 2334 2240 2335 2422 2242 2140 2243 2337
8 2335 2241 2336 2423 2243 2141 2244 2338
8 2337 2243 2338 2425 2247 2143 2246 2342
8 2338 2244 2339 2426 2246 2142 2245 2341
8 2341 2245 2340 2428 2249 2145 2248 2343
8 2342 2246 2341 2429 2250 2146 2249 2344
8 2344 2249 2343 2430 2252 2149 2251 2345
8 2188 2285 2347 2254 2284 2374 2432 2346
8 2347 2254 2346 2432 2271 2169 2270 2364
8 2365 2271 2170 2272 2433 2347 2255 2348
8 2286 2189 2285 2375 2348 2255 2347 2433
8 2349 2258 2351 2435 2257 2157 2259 2350
8 2349 2258 2164 2263 2435 2351 2264 2355
8 2259 2158 2261 2351 2352 2260 2354 2437
8 2356 2265 2354 2437 2264 2165 2261 2351
8 2441 2357 2264 2355 2362 2268 2168 2269
8 2356 2265 2165 2264 2442 2358 2266 2357
8 2443 2359 2266 2357 2361 2267 2166 2268
8 2370 2279 2360 2446 2280 2181 2267 2361
8 2362 2268 2182 2281 2447 2361 2280 2371
8 2180 2277 2368 2278 2270 2364 2449 2363
8 2271 2365 2273 2177 2364 2450 2366 2277
8 2372 2283 2186 2282 2451 2368 2276 2367
8 2178 2274 2367 2276 2277 2366 2451 2368
8 2283 2187 2278 2368 2370 2279 2369 2452
8 2372 2283 2370 2453 2282 2186 2280 2371
8 2284 2374 2455 2373 2201 2292 2380 2295
8 2375 2285 2197 2289 2456 2374 2292 2378
8 2376 2291 2204 2296 2457 2379 2297 2383
8 2288 2199 2291 2376 2377 2293 2379 2457
8 2198 2290 2378 2292 2293 2377 2458 2380
8 2293 2202 2294 2379 2380 2295 2381 2459
8 2384 2298 2381 2459 2297 2205 2294 2379
8 2386 2300 2384 2463 2299 2207 2297 2383
8 2387 2301 2385 2464 2300 2208 2298 2384
8 2389 2303 2387 2466 2302 2210 2300 2386
8 2390 2304 2388 2467 2303 2211 2301 2387
8 2392 2306 2390 2469 2305 2213 2303 2389
8 2393 2307 2391 2470 2306 2214 2304 2390
8 2395 2308 2393 2472 2310 2216 2306 2392
8 2308 2215 2309 2396 2393 2307 2394 2473
8 2395 2308 2216 2310 2475 2396 2311 2398
8 2396 2309 2217 2311 2476 2397 2312 2399
8 2398 2311 2219 2315 2478 2399 2314 2403
8 2399 2312 2218 2314 2479 2400 2313 2402
8 2317 2221 2316 2405 2402 2313 2401 2482
8 2403 2314 2222 2318 2483 2402 2317 2406
8 2320 2224 2319 2408 2405 2316 2404 2485
8 2321 2225 2320 2409 2406 2317 2405 2486
8 2323 2227 2322 2411 2408 2319 2407 2488
8 2324 2228 2323 2412 2409 2320 2408 2489
8 2326 2230 2325 2413 2411 2322 2410 2490
8 2327 2231 2326 2414 2412 2323 2411 2491
8 2329 2234 2328 2415 2414 2326 2413 2492
8 2417 2331 2260 2352 2494 2416 2353 2438
8 2350 2259 2352 2436 2419 2332 2417 2496
8 2332 2239 2331 2417 2420 2333 2418 2497
8 2334 2240 2332 2419 2422 2335 2420 2499
8 2420 2333 2421 2500 2335 2241 2336 2423
8 2422 2335 2423 2502 2337 2243 2338 2425
8 2423 2336 2424 2503 2338 2244 2339 2426
8 2425 2338 2426 2505 2342 2246 2341 2429
8 2426 2339 2427 2506 2341 2245 2340 2428
8 2429 2341 2428 2507 2344 2249 2343 2430
8 2432 2346 2284 2374 2509 2431 2373 2455
8 2432 2346 2431 2509 2364 2270 2363 2449
8 2375 2285 2374 2456 2433 2347 2432 2510
8 2347 2433 2365 2271 2432 2510 2450 2364
8 2350 2259 2351 2435 2436 2352 2437 2514
8 2440 2356 2437 2514 2355 2264 2351 2435
8 2352 2260 2354 2437 2438 2353 2439 2516
8 2356 2265 2358 2442 2437 2354 2439 2516
8 2440 2356 2264 2355 2518 2442 2357 2441
8 2519 2443 2357 2441 2447 2361 2268 2362
8 2443 2359 2444 2520 2357 2266 2358 2442
8 2443 2359 2267 2361 2520 2444 2360 2446
8 2446 2360 2279 2370 2523 2445 2369 2452
8 2453 2370 2446 2524 2371 2280 2361 2447
8 2449 2363 2448 2525 2368 2278 2369 2452
8 2366 2277 2364 2450 2451 2368 2449 2526
8 2372 2283 2368 2451 2453 2370 2452 2527
8 2455 2373 2295 2380 2529 2454 2382 2460
8 2456 2374 2292 2378 2530 2455 2380 2458
8 2377 2293 2379 2457 2458 2380 2459 2531
8 2463 2384 2459 2531 2383 2297 2379 2457
8 2533 2461 2382 2460 2459 2381 2295 2380
8 2464 2385 2461 2533 2384 2298 2381 2459
8 2466 2387 2464 2537 2386 2300 2384 2463
8 2467 2388 2465 2538 2387 2301 2385 2464
8 2469 2390 2467 2540 2389 2303 2387 2466
8 2470 2391 2468 2541 2390 2304 2388 2467
8 2472 2393 2470 2543 2392 2306 2390 2469
8 2393 2307 2394 2473 2470 2391 2471 2544
8 2395 2308 2396 2475 2472 2393 2473 2546
8 2396 2309 2397 2476 2473 2394 2474 2547
8 2475 2396 2311 2398 2549 2476 2399 2478
8 2476 2397 2312 2399 2550 2477 2400 2479
8 2478 2399 2314 2403 2552 2479 2402 2483
8 2479 2400 2313 2402 2553 2480 2401 2482
8 2405 2316 2404 2485 2482 2401 2481 2556
8 2406 2317 2405 2486 2483 2402 2482 2557
8 2408 2319 2407 2488 2485 2404 2484 2559
8 2409 2320 2408 2489 2486 2405 2485 2560
8 2411 2322 2410 2490 2488 2407 2487 2561
8 2412 2323 2411 2491 2489 2408 2488 2562
8 2414 2326 2413 2492 2491 2411 2490 2563
8 2513 2434 2493 2565 2438 2353 2416 2494
8 2496 2417 2352 2436 2567 2494 2438 2515
8 2494 2416 2495 2568 2417 2331 2418 2497
8 2419 2332 2417 2496 2499 2420 2497 2570
8 2497 2418 2498 2571 2420 2333 2421 2500
8 2499 2420 2500 2573 2422 2335 2423 2502
8 2500 2421 2501 2574 2423 2336 2424 2503
8 2502 2423 2503 2576 2425 2338 2426 2505
8 2503 2424 2504 2577 2426 2339 2427 2506
8 2505 2426 2506 2578 2429 2341 2428 2507
8 2509 2431 2373 2455 2580 2508 2454 2529
8 2509 2431 2508 2580 2449 2363 2448 2525
8 2432 2510 2581 2509 2374 2456 2530 2455
8 2432 2510 2450 2364 2509 2581 2526 2449
8 2583 2511 2434 2513 2516 2439 2353 2438
8 2436 2352 2437 2514 2515 2438 2516 2588
8 2440 2356 2442 2518 2514 2437 2516 2588
8 2442 2358 2444 2520 2516 2439 2517 2589
8 2519 2443 2520 2591 2441 2357 2442 2518
8 2519 2443 2361 2447 2591 2520 2446 2524
8 2446 2360 2445 2523 2520 2444 2521 2592
8 2525 2448 2522 2593 2452 2369 2445 2523
8 2524 2446 2370 2453 2594 2523 2452 2527
8 2526 2449 2525 2595 2451 2368 2452 2527
8 2534 2462 2528 2597 2460 2382 2454 2529
8 2530 2455 2380 2458 2598 2529 2460 2532
8 2599 2533 2460 2532 2531 2459 2380 2458
8 2537 2464 2533 2599 2463 2384 2459 2531
8 2534 2462 2382 2460 2601 2535 2461 2533
8 2538 2465 2535 2601 2464 2385 2461 2533
8 2540 2467 2538 2604 2466 2387 2464 2537
8 2541 2468 2539 2605 2467 2388 2465 2538
8 2543 2470 2541 2607 2469 2390 2467 2540
8 2470 2391 2471 2544 2541 2468 2542 2608
8 2472 2393 2473 2546 2543 2470 2544 2610
8 2473 2394 2474 2547 2544 2471 2545 2611
8 2475 2396 2476 2549 2546 2473 2547 2613
8 2476 2397 2477 2550 2547 2474 2548 2614
8 2549 2476 2399 2478 2616 2550 2479 2552
8 2479 2400 2480 2553 2550 2477 2551 2617
8 2552 2479 2402 2483 2619 2553 2482 2557
8 2482 2401 2481 2556 2553 2480 2554 2620
8 2485 2404 2484 2559 2556 2481 2555 2623
8 2486 2405 2485 2560 2557 2482 2556 2624
8 2488 2407 2487 2561 2559 2484 2558 2625
8 2489 2408 2488 2562 2560 2485 2559 2626
8 2491 2411 2490 2563 2562 2488 2561 2627
8 2513 2434 2512 2585 2565 2493 2564 2630
8 2586 2513 2565 2632 2515 2438 2494 2567
8 2565 2493 2566 2633 2494 2416 2495 2568
8 2567 2494 2568 2635 2496 2417 2497 2570
8 2568 2495 2569 2636 2497 2418 2498 2571
8 2570 2497 2571 2638 2499 2420 2500 2573
8 2571 2498 2572 2639 2500 2421 2501 2574
8 2573 2500 2574 2641 2502 2423 2503 2576
8 2574 2501 2575 2642 2503 2424 2504 2577
8 2576 2503 2577 2643 2505 2426 2506 2578
8 2597 2528 2579 2645 2529 2454 2508 2580
8 2580 2508 2579 2645 2525 2448 2522 2593
8 2581 2509 2455 2530 2646 2580 2529 2598
8 2581 2509 2580 2646 2526 2449 2525 2595
8 2583 2511 2582 2648 2513 2434 2512 2585
8 2583 2511 2439 2516 2648 2582 2517 2589
8 2649 2583 2513 2586 2588 2516 2438 2515
8 2589 2517 2444 2520 2653 2587 2521 2592
8 2518 2442 2520 2591 2588 2516 2589 2654
8 2593 2522 2590 2655 2523 2445 2521 2592
8 2524 2446 2523 2594 2591 2520 2592 2656
8 2595 2525 2593 2657 2527 2452 2523 2594
8 2602 2536 2596 2659 2534 2462 2528 2597
8 2600 2534 2597 2660 2532 2460 2529 2598
8 2600 2534 2460 2532 2661 2601 2533 2599
8 2604 2538 2601 2661 2537 2464 2533 2599
8 2602 2536 2462 2534 2663 2603 2535 2601
8 2601 2535 2465 2538 2663 2603 2539 2605
8 2607 2541 2605 2665 2540 2467 2538 2604
8 2608 2542 2606 2666 2541 2468 2539 2605
8 2543 2470 2544 2610 2607 2541 2608 2668
8 2544 2471 2545 2611 2608 2542 2609 2669
8 2546 2473 2547 2613 2610 2544 2611 2671
8 2547 2474 2548 2614 2611 2545 2612 2672
8 2549 2476 2550 2616 2613 2547 2614 2674
8 2550 2477 2551 2617 2614 2548 2615 2675
8 2552 2479 2553 2619 2616 2550 2617 2677
8 2553 2480 2554 2620 2617 2551 2618 2678
8 2557 2482 2556 2624 2619 2553 2620 2680
8 2556 2481 2555 2623 2620 2554 2621 2681
8 2559 2484 2558 2625 2623 2555 2622 2683
8 2560 2485 2559 2626 2624 2556 2623 2684
8 2562 2488 2561 2627 2626 2559 2625 2685
8 2690 2629 2564 2630 2650 2584 2512 2585
8 2586 2513 2585 2651 2632 2565 2630 2691
8 2630 2564 2631 2692 2565 2493 2566 2633
8 2632 2565 2633 2694 2567 2494 2568 2635
8 2633 2566 2634 2695 2568 2495 2569 2636
8 2635 2568 2636 2697 2570 2497 2571 2638
8 2636 2569 2637 2698 2571 2498 2572 2639
8 2638 2571 2639 2700 2573 2500 2574 2641
8 2639 2572 2640 2701 2574 2501 2575 2642
8 2641 2574 2642 2702 2576 2503 2577 2643
8 2597 2528 2596 2659 2645 2579 2644 2704
8 2645 2579 2644 2704 2593 2522 2590 2655
8 2660 2597 2645 2705 2598 2529 2580 2646
8 2646 2580 2645 2705 2595 2525 2593 2657
8 2650 2584 2512 2585 2707 2647 2582 2648
8 2648 2582 2517 2589 2707 2647 2587 2653
8 2649 2583 2648 2708 2586 2513 2585 2651
8 2649 2583 2516 2588 2708 2648 2589 2654
8 2655 2590 2652 2710 2592 2521 2587 2653
8 2654 2589 2520 2591 2711 2653 2592 2656
8 2657 2593 2655 2712 2594 2523 2592 2656
8 2602 2536 2603 2663 2659 2596 2658 2714
8 2662 2602 2659 2715 2600 2534 2597 2660
8 2662 2602 2534 2600 2717 2663 2601 2661
8 2661 2601 2538 2604 2717 2663 2605 2665
8 2666 2606 2664 2718 2605 2539 2603 2663
8 2668 2608 2666 2720 2607 2541 2605 2665
8 2608 2542 2609 2669 2666 2606 2667 2721
8 2610 2544 2611 2671 2668 2608 2669 2723
8 2611 2545 2612 2672 2669 2609 2670 2724
8 2613 2547 2614 2674 2671 2611 2672 2726
8 2614 2548 2615 2675 2672 2612 2673 2727
8 2616 2550 2617 2677 2674 2614 2675 2729
8 2617 2551 2618 2678 2675 2615 2676 2730
8 2619 2553 2620 2680 2677 2617 2678 2732
8 2620 2554 2621 2681 2678 2618 2679 2733
8 2624 2556 2623 2684 2680 2620 2681 2735
8 2681 2621 2555 2623 2736 2682 2622 2683
8 2626 2559 2625 2685 2684 2623 2683 2737
8 2688 2628 2584 2650 2740 2686 2647 2707
8 2688 2628 2687 2742 2650 2584 2629 2690
8 2690 2629 2689 2745 2630 2564 2631 2692
8 2746 2690 2630 2691 2709 2650 2585 2651
8 2691 2630 2692 2747 2632 2565 2633 2694
8 2692 2631 2693 2748 2633 2566 2634 2695
8 2694 2633 2695 2750 2635 2568 2636 2697
8 2695 2634 2696 2751 2636 2569 2637 2698
8 2697 2636 2698 2753 2638 2571 2639 2700
8 2698 2637 2699 2754 2639 2572 2640 2701
8 2700 2639 2701 2755 2641 2574 2642 2702
8 2659 2596 2658 2714 2704 2644 2703 2757
8 2704 2644 2703 2757 2655 2590 2652 2710
8 2660 2597 2659 2715 2705 2645 2704 2758
8 2705 2645 2704 2758 2657 2593 2655 2712
8 2759 2706 2647 2707 2710 2652 2587 2653
8 2709 2650 2585 2651 2760 2707 2648 2708
8 2708 2648 2589 2654 2760 2707 2653 2711
8 2712 2655 2710 2761 2656 2592 2653 2711
8 2763 2713 2658 2714 2718 2664 2603 2663
8 2662 2602 2663 2717 2715 2659 2714 2764
8 2720 2666 2718 2767 2665 2605 2663 2717
8 2768 2719 2664 2718 2721 2667 2606 2666
8 2668 2608 2669 2723 2720 2666 2721 2770
8 2669 2609 2670 2724 2721 2667 2722 2771
8 2671 2611 2672 2726 2723 2669 2724 2773
8 2672 2612 2673 2727 2724 2670 2725 2774
8 2674 2614 2675 2729 2726 2672 2727 2776
8 2675 2615 2676 2730 2727 2673 2728 2777
8 2677 2617 2678 2732 2729 2675 2730 2779
8 2678 2618 2679 2733 2730 2676 2731 2780
8 2680 2620 2681 2735 2732 2678 2733 2782
8 2733 2679 2621 2681 2783 2734 2682 2736
8 2735 2681 2623 2684 2784 2736 2683 2737
8 2740 2686 2647 2707 2787 2738 2706 2759
8 2688 2628 2686 2740 2742 2687 2739 2789
8 2743 2688 2650 2709 2790 2740 2707 2760
8 2742 2687 2741 2792 2690 2629 2689 2745
8 2743 2688 2742 2793 2709 2650 2690 2746
8 2745 2689 2744 2795 2692 2631 2693 2748
8 2746 2690 2745 2796 2691 2630 2692 2747
8 2747 2692 2748 2797 2694 2633 2695 2750
8 2748 2693 2749 2798 2695 2634 2696 2751
8 2750 2695 2751 2800 2697 2636 2698 2753
8 2751 2696 2752 2801 2698 2637 2699 2754
8 2753 2698 2754 2802 2700 2639 2701 2755
8 2763 2713 2756 2804 2714 2658 2703 2757
8 2759 2706 2652 2710 2804 2756 2703 2757
8 2715 2659 2714 2764 2758 2704 2757 2805
8 2758 2704 2757 2805 2712 2655 2710 2761
8 2806 2759 2707 2760 2761 2710 2653 2711
8 2765 2716 2762 2808 2718 2664 2713 2763
8 2809 2763 2714 2764 2767 2718 2663 2717
8 2765 2716 2664 2718 2811 2766 2719 2768
8 2813 2768 2718 2767 2770 2721 2666 2720
8 2814 2769 2719 2768 2771 2722 2667 2721
8 2723 2669 2724 2773 2770 2721 2771 2816
8 2724 2670 2725 2774 2771 2722 2772 2817
8 2726 2672 2727 2776 2773 2724 2774 2819
8 2727 2673 2728 2777 2774 2725 2775 2820
8 2729 2675 2730 2779 2776 2727 2777 2822
8 2730 2676 2731 2780 2777 2728 2778 2823
8 2732 2678 2733 2782 2779 2730 2780 2825
8 2780 2731 2679 2733 2826 2781 2734 2783
8 2782 2733 2681 2735 2827 2783 2736 2784
8 2830 2785 2738 2787 2804 2756 2706 2759
8 2789 2739 2686 2740 2832 2786 2738 2787
8 2790 2740 2707 2760 2833 2787 2759 2806
8 2742 2687 2739 2789 2792 2741 2788 2835
8 2743 2688 2740 2790 2793 2742 2789 2836
8 2792 2741 2791 2838 2745 2689 2744 2795
8 2793 2742 2792 2839 2746 2690 2745 2796
8 2795 2744 2794 2841 2748 2693 2749 2798
8 2796 2745 2795 2842 2747 2692 2748 2797
8 2797 2748 2798 2843 2750 2695 2751 2800
8 2798 2749 2799 2844 2751 2696 2752 2801
8 2800 2751 2801 2845 2753 2698 2754 2802
8 2808 2762 2803 2847 2763 2713 2756 2804
8 2809 2763 2804 2848 2764 2714 2757 2805
8 2806 2759 2710 2761 2848 2804 2757 2805
8 2765 2716 2766 2811 2808 2762 2807 2850
8 2810 2765 2808 2851 2767 2718 2763 2809
8 2810 2765 2718 2767 2852 2811 2768 2813
8 2811 2766 2719 2768 2853 2812 2769 2814
8 2855 2814 2768 2813 2816 2771 2721 2770
8 2856 2815 2769 2814 2817 2772 2722 2771
8 2773 2724 2774 2819 2816 2771 2817 2858
8 2774 2725 2775 2820 2817 2772 2818 2859
8 2776 2727 2777 2822 2819 2774 2820 2861
8 2777 2728 2778 2823 2820 2775 2821 2862
8 2779 2730 2780 2825 2822 2777 2823 2864
8 2823 2778 2731 2780 2865 2824 2781 2826
8 2825 2780 2733 2782 2866 2826 2783 2827
8 2869 2828 2785 2830 2847 2803 2756 2804
8 2871 2829 2786 2832 2830 2785 2738 2787
8 2872 2830 2787 2833 2848 2804 2759 2806
8 2789 2739 2786 2832 2835 2788 2831 2874
8 2836 2789 2740 2790 2875 2832 2787 2833
8 2792 2741 2788 2835 2838 2791 2834 2877
8 2793 2742 2789 2836 2839 2792 2835 2878
8 2838 2791 2837 2880 2795 2744 2794 2841
8 2839 2792 2838 2881 2796 2745 2795 2842
8 2841 2794 2840 2882 2798 2749 2799 2844
8 2842 2795 2841 2883 2797 2748 2798 2843
8 2843 2798 2844 2884 2800 2751 2801 2845
8 2886 2846 2803 2847 2850 2807 2762 2808
8 2851 2808 2847 2887 2809 2763 2804 2848
8 2850 2807 2766 2811 2889 2849 2812 2853
8 2810 2765 2811 2852 2851 2808 2850 2890
8 2852 2811 2768 2813 2891 2853 2814 2855
8 2853 2812 2769 2814 2892 2854 2815 2856
8 2894 2856 2814 2855 2858 2817 2771 2816
8 2817 2772 2818 2859 2856 2815 2857 2895
8 2819 2774 2820 2861 2858 2817 2859 2897
8 2820 2775 2821 2862 2859 2818 2860 2898
8 2822 2777 2823 2864 2861 2820 2862 2900
8 2823 2778 2824 2865 2862 2821 2863 2901
8 2864 2823 2780 2825 2902 2865 2826 2866
8 2904 2867 2828 2869 2886 2846 2803 2847
8 2869 2828 2868 2906 2830 2785 2829 2871
8 2907 2869 2830 2872 2887 2847 2804 2848
8 2871 2829 2870 2909 2832 2786 2831 2874
8 2910 2871 2832 2875 2872 2830 2787 2833
8 2835 2788 2831 2874 2877 2834 2873 2912
8 2836 2789 2832 2875 2878 2835 2874 2913
8 2877 2834 2876 2915 2838 2791 2837 2880
8 2839 2792 2835 2878 2881 2838 2877 2916
8 2880 2837 2879 2917 2841 2794 2840 2882
8 2881 2838 2880 2918 2842 2795 2841 2883
8 2883 2841 2882 2919 2843 2798 2844 2884
8 2921 2885 2846 2886 2889 2849 2807 2850
8 2922 2886 2847 2887 2890 2850 2808 2851
8 2889 2849 2812 2853 2924 2888 2854 2892
8 2890 2850 2811 2852 2925 2889 2853 2891
8 2891 2853 2814 2855 2926 2892 2856 2894
8 2892 2854 2815 2856 2927 2893 2857 2895
8 2858 2817 2859 2897 2894 2856 2895 2929
8 2859 2818 2860 2898 2895 2857 2896 2930
8 2861 2820 2862 2900 2897 2859 2898 2932
8 2862 2821 2863 2901 2898 2860 2899 2933
8 2864 2823 2865 2902 2900 2862 2901 2934
8 2904 2867 2846 2886 2936 2903 2885 2921
8 2904 2867 2903 2936 2869 2828 2868 2906
8 2937 2904 2869 2907 2922 2886 2847 2887
8 2906 2868 2905 2939 2871 2829 2870 2909
8 2907 2869 2906 2940 2872 2830 2871 2910
8 2909 2870 2908 2942 2874 2831 2873 2912
8 2910 2871 2909 2943 2875 2832 2874 2913
8 2912 2873 2911 2945 2877 2834 2876 2915
8 2878 2835 2874 2913 2916 2877 2912 2946
8 2915 2876 2914 2947 2880 2837 2879 2917
8 2916 2877 2915 2948 2881 2838 2880 2918
8 2918 2880 2917 2949 2883 2841 2882 2919
8 2921 2885 2849 2889 2951 2920 2888 2924
8 2952 2921 2886 2922 2925 2889 2850 2890
8 2924 2888 2854 2892 2954 2923 2893 2927
8 2925 2889 2853 2891 2955 2924 2892 2926
8 2926 2892 2856 2894 2956 2927 2895 2929
8 2895 2857 2896 2930 2927 2893 2928 2957
8 2897 2859 2898 2932 2929 2895 2930 2959
8 2898 2860 2899 2933 2930 2896 2931 2960
8 2900 2862 2901 2934 2932 2898 2933 2961
8 2936 2903 2885 2921 2963 2935 2920 2951
8 2936 2903 2935 2963 2906 2868 2905 2939
8 2937 2904 2886 2922 2964 2936 2921 2952
8 2937 2904 2936 2964 2907 2869 2906 2940
8 2939 2905 2938 2966 2909 2870 2908 2942
8 2940 2906 2939 2967 2910 2871 2909 2943
8 2942 2908 2941 2969 2912 2873 2911 2945
8 2943 2909 2942 2970 2913 2874 2912 2946
8 2945 2911 2944 2971 2915 2876 2914 2947
8 2946 2912 2945 2972 2916 2877 2915 2948
8 2948 2915 2947 2973 2918 2880 2917 2949
8 2951 2920 2888 2924 2975 2950 2923 2954
8 2952 2921 2889 2925 2976 2951 2924 2955
8 2927 2893 2928 2957 2954 2923 2953 2978
8 2955 2924 2892 2926 2979 2954 2927 2956
8 2929 2895 2930 2959 2956 2927 2957 2980
8 2930 2896 2931 2960 2957 2928 2958 2981
8 2932 2898 2933 2961 2959 2930 2960 2982
8 2951 2920 2950 2975 2963 2935 2962 2984
8 2963 2935 2962 2984 2939 2905 2938 2966
8 2964 2936 2921 2952 2985 2963 2951 2976
8 2964 2936 2963 2985 2940 2906 2939 2967
8 2966 2938 2965 2987 2942 2908 2941 2969
8 2967 2939 2966 2988 2943 2909 2942 2970
8 2969 2941 2968 2989 2945 2911 2944 2971
8 2970 2942 2969 2990 2946 2912 2945 2972
8 2972 2945 2971 2991 2948 2915 2947 2973
8 2954 2923 2953 2978 2975 2950 2974 2993
8 2976 2951 2924 2955 2994 2975 2954 2979
8 2957 2928 2958 2981 2978 2953 2977 2995
8 2956 2927 2957 2980 2979 2954 2978 2996
8 2959 2930 2960 2982 2980 2957 2981 2997
8 2984 2962 2983 2999 2966 2938 2965 2987
8 2975 2950 2974 2993 2984 2962 2983 2999
8 2976 2951 2975 2994 2985 2963 2984 3000
8 2985 2963 2984 3000 2967 2939 2966 2988
8 2987 2965 2986 3001 2969 2941 2968 2989
8 2988 2966 2987 3002 2970 2942 2969 2990
8 2990 2969 2989 3003 2972 2945 2971 2991
8 2978 2953 2977 2995 2993 2974 2992 3004
8 2979 2954 2978 2996 2994 2975 2993 3005
8 2980 2957 2981 2997 2996 2978 2995 3006
8 2974 2993 2999 2983 2992 3004 3007 2998
8 2983 2999 2987 2965 2998 3007 3001 2986
8 3000 2984 2999 3008 2988 2966 2987 3002
8 2994 2975 2993 3005 3000 2984 2999 3008
8 3002 2987 3001 3009 2990 2969 2989 3003
8 2996 2978 2995 3006 3005 2993 3004 3010
8 3005 2993 3004 3010 3008 2999 3007 3011
8 3008 2999 3007 3011 3002 2987 3001 3009

CELL_TYPES 1910
12
12
12
12
12
12
12
12
12
12
12
12
12
12
12
12
12
12
12
12
12
12
12
12
12
12
12
12
12
12
12
12
12
12
12
12
12
12
12
12
12
12
12
12
12
12
12
12
12
12
12
12
12
12
12
12
12
12
12
12
12
12
12
12
12
12
12
12
12
12
12
12
12
12
12
12
12
12
12
12
12
12
12
12
12
12
12
12
12
12
12
12
12
12
12
12
12
12
12
12
12
12
12
12
12
12
12
12
12
12
12
12
12
12
12
12
12
12
12
12
12
12
12
12
12
12
12
12
12
12
12
12
12
12
12
12
12
12
12
12
12
12
12
12
12
12
12
12
12
12
12
12
12
12
12
12
12
12
12
12
12
12
12
12
12
12
12
12
12
12
12
12
12
12
12
12
12
12
12
12
12
12
12
12
12
12
12
12
12
12
12
12
12
12
12
12
12
12
12
12
12
12
12
12
12
12
12
12
12
12
12
12
12
12
12
12
12
12
12
12
12
12
12
12
12
12
12
12
12
12
12
12
12
12
12
12
12
12
12
12
12
12
12
12
12
12
12
12
12
12
12
12
12
12
12
12
12
12
12
12
12
12
12
12
12
12
12
12
12
12
12
12
12
12
12
12
12
12
12
12
12
12
12
12
12
12
12
12
12
12
12
12
12
12
12
12
12
12
12
12
12
12
12
12
12
12
12
12
12
12
12
12
12
12
12
12
12
12
12
12
12
12
12
12
12
12
12
12
12
12
12
12
12
12
12
12
12
12
12
12
12
12
12
12
12
12
12
12
12
12
12
12
12
12
12
12
12
12
12
12
12
12
12
12
12
12
12
12
12
12
12
12
12
12
12
12
12
12
12
12
12
12
12
12
12
12
12
12
12
12
12
12
12
12
12
12
12
12
12
12
12
12
12
12
12
12
12
12
12
12
12
12
12
12
12
12
12
12
12
12
12
12
12
12
12
12
12
12
12
12
12
12
12
12
12
12
12
12
12
12
12
12
12
12
12
12
12
12
12
12
12
12
12
12
12
12
12
12
12
12
12
12
12
12
12
12
12
12
12
12
12
12
12
12
12
12
12
12
12
12
12
12
12
12
12
12
12
12
12
12
12
12
12
12
12
12
12
12
12
12
12
12
12
12
12
12
12
12
12
12
12
12
12
12
12
12
12
12
12
12
12
12
12
12
12
12
12
12
12
12
12
12
12
12
12
12
12
12
12
12
12
12
12
12
12
12
12
12
12
12
12
12
12
12
12
12
12
12
12
12
12
12
12
12
12
12
12
12
12
12
12
12
12
12
12
12
12
12
12
12
12
12
12
12
12
12
12
12
12
12
12
12
12
12
12
12
12
12
12
12
12
12
12
12
12
12
12
12
12
12
12
12
12
12
12
12
12
12
12
12
12
12
12
12
12
12
12
12
12
12
12
12
12
12
12
12
12
12
12
12
12
12
12
12
12
12
12
12
12
12
12
12
12
12
12
12
12
12
12
12
12
12
12
12
12
12
12
12
12
12
12
12
12
12
12
12
12
12
12
12
12
12
12
12
12
12
12
12
12
12
12
12
12
12
12
12
12
12
12
12
12
12
12
12
12
12
12
12
12
12
12
12
12
12
12
12
12
12
12
12
12
12
12
12
12
12
12
12
12
12
12
12
12
12
12
12
12
12
12
12
12
12
12
12
12
12
12
12
12
12
12
12
12
12
12
12
12
12
12
12
12
12
12
12
12
12
12
12
12
12
12
12
12
12
12
12
12
12
12
12
12
12
12
12
12
12
12
12
12
12
12
12
12
12
12
12
12
12
12
12
12
12
12
12
12
12
12
12
12
12
12
12
12
12
12
12
12
12
12
12
12
12
12
12
12
12
12
12
12
12
12
12
12
12
12
12
12
12
12
12
12
12
12
12
12
12
12
12
12
12
12
12
12
12
12
12
12
12
12
12
12
12
12
12
12
12
12
12
12
12
12
12
12
12
12
12
12
12
12
12
12
12
12
12
12
12
12
12
12
12
12
12
12
12
12
12
12
12
12
12
12
12
12
12
12
12
12
12
12
12
12
12
12
12
12
12
12
12
12
12
12
12
12
12
12
12
12
12
12
12
12
12
12
12
12
12
12
12
12
12
12
12
12
12
12
12
12
12
12
12
12
12
12
12
12
12
12
12
12
12
12
12
12
12
12
12
12
12
12
12
12
12
12
12
12
12
12
12
12
12
12
12
12
12
12
12
12
12
12
12
12
12
12
12
12
12
12
12
12
12
12
12
12
12
12
12
12
12
12
12
12
12
12
12
12
12
12
12
12
12
12
12
12
12
12
12
12
12
12
12
12
12
12
12
12
12
12
12
12
12
12
12
12
12
12
12
12
12
12
12
12
12
12
12
12
12
12
12
12
12
12
12
12
12
12
12
12
12
12
12
12
12
12
12
12
12
12
12
12
12
12
12
12
12
12
12
12
12
12
12
12
12
12
12
12
12
12
12
12
12
12
12
12
12
12
12
12
12
12
12
12
12
12
12
12
12
12
12
12
12
12
12
12
12
12
12
12
12
12
12
12
12
12
12
12
12
12
12
12
12
12
12
12
12
12
12
12
12
12
12
12
12
12
12
12
12
12
12
12
12
12
12
12
12
12
12
12
12
12
12
12
12
12
12
12
12
12
12
12
12
12
12
12
12
12
12
12
12
12
12
12
12
12
12
12
12
12
12
12
12
12
12
12
12
12
12
12
12
12
12
12
12
12
12
12
12
12
12
12
12
12
12
12
12
12
12
12
12
12
12
12
12
12
12
12
12
12
12
12
12
12
12
12
12
12
12
12
12
12
12
12
12
12
12
12
12
12
12
12
12
12
12
12
12
12
12
12
12
12
12
12
12
12
12
12
12
12
12
12
12
12
12
12
12
12
12
12
12
12
12
12
12
12
12
12
12
12
12
12
12
12
12
12
12
12
12
12
12
12
12
12
12
12
12
12
12
12
12
12
12
12
12
12
12
12
12
12
12
12
12
12
12
12
12
12
12
12
12
12
12
12
12
12
12
12
12
12
12
12
12
12
12
12
12
12
12
12
12
12
12
12
12
12
12
12
12
12
12
12
12
12
12
12
12
12
12
12
12
12
12
12
12
12
12
12
12
12
12
12
12
12
12
12
12
12
12
12
12
12
12
12
12
12
12
12
12
12
12
12
12
12
12
12
12
12
12
12
12
12
12
12
12
12
12
12
12
12
12
12
12
12
12
12
12
12
12
12
12
12
12
12
12
12
12
12
12
12
12
12
12
12
12
12
12
12
12
12
12
12
12
12
12
12
12
12
12
12
12
12
12
12
12
12
12
12
12
12
12
12
12
12
12
12
12
12
12
12
12
12
12
12
12
12
12
12
12
12
12
12
12
12
12
12
12
12
12
12
12
12
12
12
12
12
12
12
12
12
12
12
12
12
12
12
12
12
12
12
12
12
12
12
12
12
12
12
12
12
12
12
12
12
12
12
12
12
12
12
12
12
12
12
12
12
12
12
12
12
12
12
12
12
12
12
12
12
12
12
12
12
12
12
12
12
12
12
12
12
12
12
12
12
12
12
12
12
12
12
12
12
12
12
12
12
12
12
12
12
12
12
12
12
12
12
12
12
12
12
12
12
12
12
12
12
12
12
12
12
12
12
12
12
12
12
12
12
12
12
12
12
12
12
12
12
12
12
12
12
12
12
12
12
12
12
12
12
12
12
12
12
12
12
12
12
12
12
12
12
12
12
12
12
12
12
12
12
12
12
12
12
12
12
12
12
12
12
12
12
12
12
12
12
12
12
12
12
12
12
12
12
12
12
12
12
12
12
12
12
12
12
12
12
12
12
12
12
12
12
12
12
12
12
12
12
12
12
12
12
12
12
12
12
12
12
12
12
12
12
12
12
12
12
12
12
12
12
12
12
12
12
12
12
12
12
12
12
12
12
12
12
12
12
12
12
12
12
12
12
12
12
12
12
12
12
12
12
12
12
12
12
12
12
12
12
12
12
12
12
12
12
12
12
12
12
12
12
12
12
12
12
12
12
12
12
12
12
12
12
12
12
12
12
12
12
12
12
12
12
12
12
12
12
12
12
12
12
12
12
12
12
12
12
12
12
12
12
12
12
12
12
12
12
12
12
12
12
12
12
12
12
12
12
12
12
12
12
12
12
12
12
12
12
12
12
12
12
12
12
12
12
12
12
12
12
12
12
12
12
12
12
12
12
12
12
12
12
12
12
12
12
12
12
12
12
12
12
12
12
12
12
12
12
12
12
12
12
12
12
12
12
12
12
12
12
12
12
12
12
12
12
12

POINT_DATA 3012
SCALARS Jp_lamdaP float 4
LOOKUP_TABLE default
0.99997 1 1 0.99997
1 1 1 1
0.999972 1 1 0.999972
0.999944 1 1 0.999944
0.999964 1 1 0.999964
0.999978 1 1 0.999978
0.999713 1 1 0.999713
1 1 1 1
1 1 1 1
1 1 1 1
1 1 1 1
0.999863 1 1 0.999863
0.999908 1 1 0.999908
0.999939 1 1 0.999939
0.999973 1 1 0.999973
0.999949 1 1 0.999949
0.999981 1 1 0.999981
0.999967 1 1 0.999967
0.999716 1 1 0.999716
1 1 1 1
0.999935 1 1 0.999935
0.999955 1 1 0.999955
0.999598 1 1 0.999598
0.999675 1 1 0.999675
0.999992 1 1 0.999992
0.999762 1 1 0.999762
0.999289 1 1 0.999289
1 1 1 1
0.999977 1 1 0.999977
0.999989 1 1 0.999989
1 1 1 1
0.99987 1 1 0.99987
0.999949 1 1 0.999949
0.999971 1 1 0.999971
0.999749 1 1 0.999749
1 1 1 1
0.999834 1 1 0.999834
0.999908 1 1 0.999908
0.999381 1 1 0.999381
1 1 1 1
1 1 1 1
0.999968 1 1 0.999968
1 1 1 1
0.999928 1 1 0.999928
0.999552 1 1 0.999552
1 1 1 1
0.999681 1 1 0.999681
0.999954 1 1 0.999954
0.999969 1 1 0.999969
0.999983 1 1 0.999983
0.99972 1 1 0.99972
0.999955 1 1 0.999955
0.999941 1 1 0.999941
0.999994 1 1 0.999994
0.999959 1 1 0.999959
0.9996 1 1 0.9996
0.999765 1 1 0.999765
0.999678 1 1 0.999678
0.999275 1 1 0.999275
1 1 1 1
0.999921 1 1 0.999921
0.999629 1 1 0.999629
0.999576 1 1 0.999576
0.999635 1 1 0.999635
0.999017 1 1 0.999017
0.999151 1 1 0.999151
1 1 1 1
0.999839 1 1 0.999839
0.999398 1 1 0.999398
0.998833 1 1 0.998833
1 1 1 1
1 1 1 1
1 1 1 1
0.999877 1 1 0.999877
1 1 1 1
1 1 1 1
0.999733 1 1 0.999733
1 1 1 1
0.999831 1 1 0.999831
0.999921 1 1 0.999921
0.999379 1 1 0.999379
1 1 1 1
0.999999 1 1 0.999999
0.999687 1 1 0.999687
0.99977 1 1 0.99977
0.99905 1 1 0.99905
0.999957 1 1 0.999957
0.99931 1 1 0.99931
0.999451 1 1 0.999451
0.999068 1 1 0.999068
1 1 1 1
1 1 1 1
1 1 1 1
1 1 1 1
1 1 1 1
0.99996 1 1 0.99996
0.99959 1 1 0.99959
0.999971 1 1 0.999971
0.999669 1 1 0.999669
1 1 1 1
0.999522 1 1 0.999522
0.99965 1 1 0.99965
0.99874 1 1 0.99874
0.999703 1 1 0.999703
0.998846 1 1 0.998846
0.999918 1 1 0.999918
0.999946 1 1 0.999946
0.999997 1 1 0.999997
0.999963 1 1 0.999963
0.999602 1 1 0.999602
0.999682 1 1 0.999682
0.999769 1 1 0.999769
0.999261 1 1 0.999261
1 1 1 1
0.999929 1 1 0.999929
0.999545 1 1 0.999545
0.999576 1 1 0.999576
1 1 1 1
0.999868 1 1 0.999868
0.999638 1 1 0.999638
0.998991 1 1 0.998991
0.99938 1 1 0.99938
0.999169 1 1 0.999169
0.998835 1 1 0.998835
0.999539 1 1 0.999539
0.999553 1 1 0.999553
0.998831 1 1 0.998831
0.998932 1 1 0.998932
0.999046 1 1 0.999046
0.998592 1 1 0.998592
1 1 1 1
0.998753 1 1 0.998753
0.999949 1 1 0.999949
0.999449 1 1 0.999449
0.998919 1 1 0.998919
0.998645 1 1 0.998645
0.99999 1 1 0.99999
0.999675 1 1 0.999675
1 1 1 1
1 1 1 1
0.999739 1 1 0.999739
1 1 1 1
0.999934 1 1 0.999934
0.999835 1 1 0.999835
0.999377 1 1 0.999377
1 1 1 1
1 1 1 1
0.999708 1 1 0.999708
0.999789 1 1 0.999789
0.999052 1 1 0.999052
0.999968 1 1 0.999968
0.999312 1 1 0.999312
0.99945 1 1 0.99945
0.999056 1 1 0.999056
0.999989 1 1 0.999989
1 1 1 1
0.999742 1 1 0.999742
0.998947 1 1 0.998947
0.999188 1 1 0.999188
0.99869 1.00002 1 0.998674
0.999543 1 1 0.999543
0.998981 1 1 0.998981
0.999118 1 1 0.999118
0.99894 1 1 0.99894
1 1 1 1
1 1 1 1
1 1 1 1
0.999998 1 1 0.999998
1 1 1 1
1 1 1 1
1 1 1 1
0.999654 1 1 0.999654
0.999571 1 1 0.999571
1 1 1 1
1 1 1 1
0.999524 1 1 0.999524
0.999638 1 1 0.999638
0.99874 1 1 0.99874
0.999674 1 1 0.999674
0.998847 1 1 0.998847
0.999511 1 1 0.999511
0.998679 1 1 0.998679
0.998803 1 1 0.998803
0.999325 1.00094 1 0.998389
0.998886 1 1 0.998886
0.998581 1.00008 1 0.998501
1 1 1 1
0.999936 1 1 0.999936
0.999457 1 1 0.999457
0.999577 1 1 0.999577
1 1 1 1
0.999898 1 1 0.999898
0.999641 1 1 0.999641
0.998964 1 1 0.998964
0.999188 1 1 0.999188
0.999362 1 1 0.999362
0.998837 1 1 0.998837
0.999536 1 1 0.999536
0.999554 1 1 0.999554
0.998777 1 1 0.998777
0.998952 1 1 0.998952
1 1 1 1
0.999939 1 1 0.999939
0.999472 1 1 0.999472
0.999047 1 1 0.999047
0.998561 1 1 0.998561
0.998916 1 1 0.998916
0.99877 1 1 0.99877
0.998651 1 1 0.998648
0.999986 1 1 0.999986
0.999675 1 1 0.999675
0.998693 1 1 0.998693
0.998891 1 1 0.998891
0.998828 1.00037 1 0.998461
0.998483 1 1 0.998483
0.998682 1 1 0.998682
0.999264 1.00082 1 0.998444
0.999974 1 1 0.999974
0.998682 1.0001 1 0.998582
0.999513 1 1 0.999513
0.999055 1 1 0.999055
0.998729 1 1 0.998729
0.998941 1.00035 1 0.998591
0.999592 1 1 0.999592
0.999773 1 1 0.999773
0.99932 1 1 0.99932
0.9997 1 1 0.9997
1 1 1 1
1 1 1 1
0.999791 1 1 0.999791
0.999055 1 1 0.999055
0.999979 1 1 0.999979
0.99945 1 1 0.99945
0.999314 1 1 0.999314
0.999045 1 1 0.999045
0.999993 1 1 0.999993
1 1 1 1
0.999743 1 1 0.999743
0.998948 1 1 0.998948
0.999192 1 1 0.999192
0.998683 1.00001 1 0.998673
0.999543 1 1 0.999543
0.998991 1 1 0.998991
0.999116 1 1 0.999116
0.998929 1 1 0.998929
1 1 1 1
0.999636 1 1 0.999636
0.999845 1 1 0.999845
0.999399 1 1 0.999399
0.998706 1.00013 1 0.998578
0.998839 1 1 0.998839
1.00026 1.00177 1 0.998491
0.999219 1 1 0.999219
0.998852 1 1 0.998851
0.999444 1 1.00054 0.998906
0.998834 1 1 0.998834
0.999965 1 1 0.999965
1 1 1 1
1 1 1 1
1 1 1 1
1 1 1 1
1 1 1 1
1 1 1 1
0.999996 1 1 0.999996
1 1 1 1
0.999676 1 1 0.999676
0.99962 1 1 0.99962
0.998847 1 1 0.998847
0.99874 1 1 0.99874
0.999526 1 1 0.999526
1 1 1 1
0.99951 1 1 0.99951
0.99868 1 1 0.99868
0.998803 1 1 0.998803
0.99915 1.00076 1 0.998389
0.998886 1 1 0.998886
0.998614 1.00011 1 0.998501
0.998665 1 1 0.998665
0.999641 1.00131 1 0.998329
0.998799 1.00035 1 0.998452
1.00362 1.00532 1 0.998307
0.998693 1.00016 1 0.998535
1.00118 1.00279 1 0.998394
0.999533 1 1 0.999533
0.999554 1 1 0.999554
0.998723 1 1 0.998723
0.998972 1 1 0.998972
1 1 1 1
0.999929 1 1 0.999929
0.999494 1 1 0.999494
0.999048 1 1 0.999048
0.998529 1 1 0.998529
0.998786 1 1 0.998786
0.998912 1 1 0.998912
0.998658 1.00001 1 0.998651
0.999982 1 1 0.999982
0.999675 1 1 0.999675
0.998675 1 1 0.998675
0.99889 1 1 0.99889
0.998943 1.00049 1 0.998449
0.99853 1.00001 1 0.998516
0.999968 1 1 0.999968
0.999512 1 1 0.999512
0.999081 1 1 0.999081
0.998682 1 1 0.998682
0.999544 1.00111 1 0.998438
0.998703 1 1 0.998703
0.9988 1.00022 1 0.998583
0.99926 1.00067 1 0.998592
0.999594 1 1 0.999594
0.999318 1 1 0.999318
0.999771 1 1 0.999771
0.999189 1.00079 1 0.998399
0.998886 1.0004 1 0.998486
1.00316 1.00486 1 0.998304
1.00021 1.00184 1 0.998372
0.999068 1.00056 1 0.998511
1.00286 1.00441 1 0.998448
0.99955 1 1 0.99955
1.00024 1.00169 1 0.99855
0.999221 1 1 0.999221
0.998821 1 1 0.998821
0.998709 1.00013 1 0.998578
1.00167 1.00303 1 0.998646
0.999847 1 1 0.999847
0.999303 1 1 0.999303
0.999367 1 1 0.999367
0.99919 1 1 0.99919
0.998949 1 1 0.998949
1 1 1 1
0.999996 1 1 0.999996
0.999744 1 1 0.999744
0.999197 1 1 0.999197
0.998673 1 1 0.998673
0.999544 1 1 0.999544
0.999114 1 1 0.999114
0.999001 1 1 0.999001
0.998918 1 1 0.998918
1 1 1 1
0.999635 1 1 0.999635
0.999849 1 1 0.999849
0.999397 1 1 0.999397
0.998676 1.0001 1 0.998576
0.998841 1 1 0.998841
0.999847 1.00136 1 0.998491
0.999221 1 1 0.999221
0.998869 1.00001 1 0.998863
0.999395 1 1.0005 0.998898
0.998881 1 1 0.998881
1 1 1 1
0.999908 1 1 0.999908
0.999315 1 1 0.999315
0.999498 1 1 0.999498
0.999205 1 1 0.999205
1.00077 1.00235 1 0.998424
0.99915 1.00048 1 0.998667
1.00142 1.00299 1 0.998436
0.999721 1 1.00074 0.998982
0.998783 1 1 0.998783
0.99926 1 1.00056 0.998697
0.999954 1 1 0.999954
0.999724 1 1 0.999724
0.999972 1 1 0.999972
0.999967 1 1 0.999967
1 1 1 1
1 1 1 1
1 1 1 1
1 1 1 1
1 1 1 1
1 1 1 1
1 1 1 1
1 1 1 1
1 1 1 1
0.999995 1 1 0.999995
1 1 1 1
0.998886 1 1 0.998886
0.998803 1 1 0.998803
0.998643 1.00014 1 0.998501
0.99897 1.00058 1 0.998388
0.99868 1 1 0.99868
0.999509 1 1 0.999509
0.998665 1 1 0.998665
0.999565 1.00124 1 0.998329
0.998684 1.00023 1 0.998452
1.00366 1.00536 1 0.998304
0.998712 1.00018 1 0.998534
1.00083 1.00244 1 0.998394
0.999574 1.00126 1 0.998314
1.00581 1.00757 1 0.998255
1.00233 1.00399 1 0.99835
1.00905 1.01075 1 0.998321
1.0006 1.00219 1 0.998415
1.00549 1.00705 1 0.998452
0.998658 1 1 0.998658
0.998889 1 1 0.998889
0.999048 1.00061 1 0.998436
0.998577 1.00003 1 0.998549
0.999961 1 1 0.999961
0.999511 1 1 0.999511
0.999107 1 1 0.999107
0.998683 1 1 0.998683
0.999829 1.0014 1 0.998431
0.998909 1.00033 1 0.998584
0.998677 1 1 0.998677
0.999605 1.00101 1 0.998592
0.999596 1 1 0.999596
0.999316 1 1 0.999316
0.999769 1 1 0.999769
0.999312 1.00094 1 0.998371
0.998863 1.00038 1 0.998485
1.0033 1.00501 1 0.998295
1.00079 1.00241 1 0.998378
0.999551 1 1 0.999551
0.999218 1 1 0.999218
0.998854 1 1 0.998852
0.999188 1.00067 1 0.998522
1.00268 1.00423 1 0.998458
0.998674 1.00012 1 0.998559
1.00052 1.00198 1 0.998551
1.00138 1.00272 1 0.998657
0.999305 1 1 0.999305
0.999175 1 1 0.999175
0.999844 1 1 0.999844
0.99938 1 1 0.99938
1.00426 1.00603 1 0.998246
1.0025 1.00417 1 0.998338
1.00962 1.01138 1 0.998266
1.00467 1.0063 1 0.998382
1.00198 1.00348 1 0.998509
1.00656 1.00807 1 0.9985
0.999287 1 1 0.999287
1.00322 1.00458 1 0.998653
0.999022 1 1 0.999022
0.998811 1 1.00018 0.998635
0.999696 1.0012 1 0.998495
1.00352 1.00487 1 0.998662
0.999887 1 1 0.999887
0.999458 1 1 0.999458
0.999181 1 1 0.999181
0.999209 1 1 0.999209
0.999129 1 1 0.999129
1 1 1 1
0.998641 1.00007 1 0.998574
0.999853 1 1 0.999853
0.999635 1 1 0.999635
0.999395 1 1 0.999395
0.998844 1 1 0.998844
0.999466 1.00098 1 0.99849
0.999223 1 1 0.999223
0.999378 1 1.00049 0.99889
0.998875 1 1 0.998875
0.998929 1 1 0.998929
1 1 1 1
0.999913 1 1 0.999913
0.999315 1 1 0.999315
0.999498 1 1 0.999498
0.999192 1 1 0.999192
1.00074 1.00232 1 0.998421
0.999032 1.00036 1 0.998668
1.00151 1.00309 1 0.99843
0.999561 1 1.00058 0.998985
0.998793 1 1 0.998793
0.999457 1 1.00074 0.998714
0.999937 1 1 0.999937
0.999591 1 1 0.999591
0.999224 1 1.00013 0.999098
0.999283 1 1 0.999283
0.999086 1 1 0.999086
1.00343 1.00504 1 0.998401
0.999852 1.00125 1 0.9986
1.00224 1.00371 1 0.998537
1.0017 1 1.00292 0.998786
0.998597 1 1 0.998597
0.999957 1 1 0.999957
0.999668 1 1 0.999668
0.999709 1 1 0.999709
0.999557 1 1 0.999557
0.999732 1 1 0.999732
0.999976 1 1 0.999976
0.999974 1 1 0.999974
1 1 1 1
0.99997 1 1 0.99997
1 1 1 1
1 1 1 1
1 1 1 1
1 1 1 1
1 1 1 1
1 1 1 1
1 1 1 1
1 1 1 1
1 1 1 1
0.999999 1 1 0.999999
1 1 1 1
0.998742 1.00021 1 0.998532
0.998566 1.00011 1 0.998452
1.00048 1.00209 1 0.998394
1.00369 1.0054 1 0.998302
0.9995 1.00117 1 0.99833
0.998664 1 1 0.998664
0.999618 1.00131 1 0.998314
1.00591 1.00768 1 0.998248
1.00199 1.00365 1 0.99835
1.00908 1.01077 1 0.998327
1.00079 1.00238 1 0.998412
1.0054 1.00696 1 0.998455
1.00544 1.00723 1 0.998224
1.0117 1.01346 1 0.998264
1.0069 1.00853 1 0.998388
1.00995 1.01162 1 0.998353
1.00521 1.00678 1 0.998441
1.00841 1.00991 1 0.998517
0.999443 1.0011 1 0.998343
0.998838 1.00035 1 0.998484
1.00344 1.00516 1 0.998287
1.00137 1.00299 1 0.998383
0.999553 1 1 0.999553
0.999214 1 1 0.999214
0.998964 1 1.00008 0.998884
0.999318 1.00079 1 0.998532
1.00248 1.00402 1 0.998468
1.00078 1.00223 1 0.998551
0.998642 1.0001 1 0.998539
1.00111 1.00244 1 0.998667
0.999308 1 1 0.999308
0.99916 1 1 0.99916
0.999841 1 1 0.999841
0.999394 1 1 0.999394
1.0044 1.00617 1 0.998247
1.00271 1.00439 1 0.998336
1.00923 1.01097 1 0.99827
1.00422 1.00585 1 0.998381
0.999286 1 1 0.999286
0.999049 1 1 0.999049
0.998969 1 1.00034 0.998632
1.00187 1.00337 1 0.998502
1.00643 1.00791 1 0.998532
0.999841 1.00136 1 0.998486
1.00321 1.00456 1 0.998654
1.00344 1.00475 1 0.998691
0.999182 1 1 0.999182
0.999125 1 1 0.999125
0.999207 1 1 0.999207
0.999862 1 1 0.999862
0.999469 1 1 0.999469
1.01136 1.01314 1 0.998237
1.00897 1.0107 1 0.998283
1.00773 1.0093 1 0.998449
1.0059 1.00733 1 0.998586
0.999163 1 1 0.999163
1.00544 1.00671 1 0.998735
0.999109 1 1.00023 0.998883
0.999405 1.00048 1.00051 0.998422
1.0018 1.00338 1 0.99843
0.999871 1 1 0.999871
0.999575 1 1 0.999575
0.999301 1 1 0.999301
0.999144 1 1 0.999144
0.999084 1 1 0.999084
0.999083 1 1 0.999083
1 1 1 1
0.999917 1 1 0.999917
1.00068 1.00227 1 0.998418
0.999498 1 1 0.999498
0.999315 1 1 0.999315
0.999178 1 1 0.999178
0.998922 1.00025 1 0.998669
1.00147 1.00305 1 0.998425
0.999538 1 1.00055 0.998988
0.999352 1 1.00062 0.998731
0.998803 1 1 0.998803
0.999941 1 1 0.999941
0.999592 1 1 0.999592
0.999254 1 1.00015 0.999107
0.999282 1 1 0.999282
0.999072 1 1 0.999072
1.00348 1.00509 1 0.998398
0.999569 1.00098 1 0.998594
1.0022 1.00365 1 0.998555
1.00112 1 1.00234 0.998774
0.998622 1 1.00006 0.998566
0.999655 1 1 0.999655
0.999344 1 1 0.999344
1.00036 1 1.00141 0.998953
0.999091 1 1 0.999091
0.998984 1 1 0.998984
1.00691 1.00829 1 0.998632
0.999744 1.00124 1 0.998506
1.00302 1.00445 1 0.998572
1.00263 1 1.00398 0.99866
0.998367 1 1 0.998367
0.99996 1 1 0.99996
0.999681 1 1 0.999681
0.999474 1 1 0.999474
0.999693 1 1 0.999693
0.999732 1 1 0.999732
0.999534 1 1 0.999534
0.999413 1 1 0.999413
0.999526 1 1 0.999526
0.999738 1 1 0.999738
0.999975 1 1 0.999975
0.999976 1 1 0.999976
1 1 1 1
0.999975 1 1 0.999975
1 1 1 1
1 1 1 1
1 1 1 1
1 1 1 1
1 1 1 1
1 1 1 1
1 1 1 1
1 1 1 1
1 1 1 1
1 1 1 1
1 1 1 1
1.00098 1.00257 1 0.99841
1.00166 1.00331 1 0.99835
1.00532 1.00687 1 0.998458
1.00912 1.01081 1 0.998332
1.006 1.00778 1 0.99824
0.99966 1.00135 1 0.998314
1.00547 1.00727 1 0.998219
1.01167 1.01343 1 0.998263
1.00731 1.00895 1 0.998375
1.01024 1.0119 1 0.998352
1.0046 1.00617 1 0.998442
1.00839 1.00986 1 0.998538
1.01144 1.01323 1 0.998233
1.01195 1.01365 1 0.998321
1.01054 1.01212 1 0.998439
1.00836 1.00977 1 0.998607
1.00453 1.0063 1 0.998248
1.00292 1.0046 1 0.998334
1.00883 1.01057 1 0.998274
1.00378 1.00541 1 0.998379
0.999285 1 1 0.999285
0.999075 1 1 0.999075
0.999148 1 1.00052 0.998628
1.00175 1.00326 1 0.998494
1.00634 1.00779 1 0.998564
1.00323 1.00458 1 0.998656
0.999929 1.00146 1 0.998476
1.00328 1.00456 1 0.99872
0.999182 1 1 0.999182
0.999121 1 1 0.999121
0.999204 1 1 0.999204
0.999837 1 1 0.999837
0.99948 1 1 0.99948
1.011 1.01278 1 0.998241
1.00886 1.01058 1 0.99829
1.00758 1.00914 1 0.998453
0.99916 1 1 0.99916
0.999159 1 1.00025 0.998912
0.999624 1.00045 1.00076 0.998415
1.00607 1.0075 1 0.998577
1.00193 1.00346 1 0.998471
1.00475 1.00602 1 0.998733
0.999874 1 1 0.999874
0.999142 1 1 0.999142
0.999098 1 1 0.999098
0.999079 1 1 0.999079
0.999309 1 1 0.999309
0.999556 1 1 0.999556
1.01201 1.01377 1 0.998261
1.00954 1.01121 1 0.998346
1.00829 1.00979 1 0.99852
1.00798 1.0093 1 0.998694
0.999085 1 1 0.999085
1.00286 1.00432 1 0.998553
1.00024 1 1.00163 0.998605
1.00064 1.00131 1.00104 0.998284
0.999904 1 1 0.999904
0.999635 1 1 0.999635
0.99938 1 1 0.99938
0.99912 1 1 0.99912
0.999079 1 1 0.999079
0.999018 1 1 0.999018
0.999945 1 1 0.999945
0.999593 1 1 0.999593
1.0036 1.00522 1 0.998395
0.999281 1 1 0.999281
0.999116 1 1 0.999116
0.999058 1 1 0.999058
0.999342 1.00075 1 0.998589
1.00228 1.00371 1 0.998573
1.00054 1 1.00178 0.998762
0.998803 1 1.00027 0.998536
0.999656 1 1 0.999656
0.999352 1 1 0.999352
1.00026 1 1.00129 0.998969
0.999097 1 1 0.999097
0.998999 1 1 0.998999
1.00695 1.00832 1 0.998641
0.999714 1.00121 1 0.998504
1.00311 1.00447 1 0.998648
1.00287 1 1.00423 0.998645
0.998361 1 1.00003 0.998332
0.999429 1 1 0.999429
0.999144 1 1 0.999144
1.00229 1 1.00345 0.998843
0.998914 1 1 0.998914
1.01358 1.01489 1 0.998705
1.00841 1.00982 0.999872 0.998734
1.00128 1.00295 1 0.998333
1.0025 1 1.00416 0.998355
0.999694 1 1 0.999694
0.999484 1 1 0.999484
0.999355 1 1 0.999355
0.999732 1 1 0.999732
0.99951 1 1 0.99951
0.999738 1 1 0.999738
0.999395 1 1 0.999395
0.999535 1 1 0.999535
0.999295 1 1 0.999295
0.999394 1 1 0.999394
0.999531 1 1 0.999531
0.999737 1 1 0.999737
0.999971 1 1 0.999971
0.999974 1 1 0.999974
1 1 1 1
0.999976 1 1 0.999976
1 1 1 1
1 1 1 1
1 1 1 1
1 1 1 1
1 1 1 1
1 1 1 1
1 1 1 1
1 1 1 1
1 1 1 1
1 1 1 1
1 1 1 1
1.00399 1.00556 1 0.998442
1.00772 1.00937 1 0.998363
1.00836 1.00981 1 0.998558
1.0105 1.01217 1 0.998351
1.01162 1.01338 1 0.998262
1.00552 1.00732 1 0.998214
1.01131 1.01309 1 0.998238
1.01144 1.01314 1 0.998319
1.01025 1.01182 1 0.998444
1.00928 1.01069 1 0.998602
1.01288 1.01462 1 0.998287
1.01276 1.01435 1 0.998431
1.01262 1.01408 1 0.998555
1.01064 1.01242 1 0.998244
1.00875 1.01048 1 0.998297
1.00738 1.00893 1 0.998457
0.999157 1 1 0.999157
0.999087 1 1.00015 0.998941
0.999699 1.00045 1.00085 0.998409
1.00617 1.00761 1 0.998568
1.0042 1.00547 1 0.998731
1.00218 1.00367 1 0.998511
0.999141 1 1 0.999141
0.999113 1 1 0.999113
0.999073 1 1 0.999073
0.999876 1 1 0.999876
0.999317 1 1 0.999317
0.999537 1 1 0.999537
1.01263 1.01439 1 0.998263
1.00939 1.01106 1 0.998348
1.00819 1.0097 1 0.998507
0.999078 1 1 0.999078
1.00002 1 1.00137 0.998657
1.00059 1.0014 1.0009 0.998293
1.00831 1.00961 1 0.998711
1.00316 1.00462 1 0.998547
0.999925 1 1 0.999925
0.999635 1 1 0.999635
0.999082 1 1 0.999082
0.999043 1 1 0.999043
0.999121 1 1 0.999121
0.999365 1 1 0.999365
1.01323 1.0149 1 0.998352
1.00955 1.01152 0.999611 0.998437
1.01041 1.01212 0.999628 0.998682
1.00719 1.00845 1 0.998755
0.999812 1 1.00087 0.998944
1.00123 1.00157 1.0014 0.998255
1.00109 1 1.00264 0.998451
0.999968 1 1 0.999968
0.999751 1 1 0.999751
0.999641 1 1 0.999641
0.999406 1 1 0.999406
0.999195 1 1 0.999195
0.998993 1 1 0.998993
0.999106 1 1 0.999106
1.00226 1 1.00317 0.99909
0.999657 1 1 0.999657
0.999361 1 1 0.999361
1.00687 1.00823 1 0.99865
0.999103 1 1 0.999103
1.00037 1 1.00139 0.998986
0.999014 1 1 0.999014
0.999635 1.00113 1 0.998502
1.00309 1.00437 1 0.998724
1.00312 1 1.0045 0.998631
0.998296 1 1 0.998296
0.99942 1 1 0.99942
0.999153 1 1 0.999153
1.00267 1 1.00381 0.998858
0.998933 1 1 0.99893
1.01316 1.01448 0.999998 0.9987
1.00775 1.00909 0.999949 0.998723
1.00172 1.00336 1 0.998369
1.00201 1 1.00368 0.998331
0.999288 1 1 0.999288
1.01398 1.0166 0.99877 0.998654
0.999226 1 1.00023 0.998995
1.00125 1 1.00256 0.998694
1.01461 1.01613 0.999719 0.998789
1.00589 1.00751 1 0.998385
1.00286 1.00143 1.00323 0.9982
0.999495 1 1 0.999495
0.999354 1 1 0.999354
0.99924 1 1 0.99924
0.999738 1 1 0.999738
0.999543 1 1 0.999543
0.999378 1 1 0.999378
0.999737 1 1 0.999737
0.999531 1 1 0.999531
0.99928 1 1 0.99928
0.999412 1 1 0.999412
0.999204 1 1 0.999204
0.999278 1 1 0.999278
0.999422 1 1 0.999422
0.999543 1 1 0.999543
0.999728 1 1 0.999728
0.999968 1 1 0.999968
0.99997 1 1 0.99997
1 1 1 1
0.999973 1 1 0.999973
1 1 1 1
1 1 1 1
1 1 1 1
1 1 1 1
1 1 1 1
0.999981 1 1 0.999981
1 1 1 1
1 1 1 1
1 1 1 1
1 1 1 1
1 1 1 1
1 1 1 1
1.01022 1.01164 1 0.998596
1.00996 1.01153 1 0.998449
1.01093 1.01263 1 0.998317
1.01117 1.01295 1 0.998243
1.01259 1.01432 1 0.998296
1.01312 1.01472 1 0.998419
1.01305 1.0145 1 0.998569
1.01383 1.01545 1 0.998398
1.01582 1.01746 0.99986 0.998528
1.00869 1.01384 0.996213 0.998698
1.01323 1.01499 1 0.998265
1.00928 1.01095 1 0.998349
1.00818 1.0097 1 0.998495
0.999108 1 1.00004 0.999072
0.999951 1 1.00124 0.99871
1.00045 1.00138 1.00078 0.998302
1.00869 1.00997 1 0.998727
1.00316 1.00462 1 0.99854
0.999085 1 1 0.999085
0.999067 1 1 0.999067
0.999123 1 1 0.999123
0.999946 1 1 0.999946
0.999636 1 1 0.999636
0.999351 1 1 0.999351
1.01283 1.01449 1 0.998366
0.999964 1 1 0.999964
0.999738 1 1 0.999738
1.00929 1.01116 0.999721 0.998436
1.01159 1.01314 0.99982 0.998652
0.999803 1 1.00083 0.998979
1.00171 1 1.0033 0.998418
1.00078 1.00168 1.00084 0.998263
1.00668 1.00794 1 0.99875
0.999679 1 1 0.999679
0.999405 1 1 0.999405
0.999072 1 1 0.999072
1.00074 1 1.00159 0.999155
0.998972 1 1 0.998972
0.999198 1 1 0.999198
1.01452 1.0164 0.999654 0.998502
1.01329 1.01522 0.999542 0.998552
1.01055 1.01307 0.998634 0.998875
1.00211 1.00358 1 0.998528
1.00127 1 1.00234 0.998933
1.00404 1.00034 1.00547 0.998239
0.999755 1 1 0.999755
0.999713 1 1 0.999713
0.999567 1 1 0.999567
0.999409 1 1 0.999409
0.99926 1 1 0.99926
0.999033 1 1 0.999033
1.00311 1 1.00422 0.998894
0.999174 1 1 0.999174
0.999412 1 1 0.999412
0.999161 1 1 0.999161
1.01289 1.01421 1 0.998696
1.00734 1.00864 1 0.998712
0.998946 1 1 0.998946
1.0029 1 1.00404 0.998871
1.00225 1.00382 1.00004 0.998404
1.00161 1.00005 1.00326 0.998307
0.999284 1 1 0.999284
1.01398 1.01681 0.998542 0.998672
0.999126 1 1.00013 0.999001
1.00126 1 1.00259 0.998673
1.01441 1.01593 0.99973 0.998771
1.00651 1.00811 1 0.998406
1.00294 1.00125 1.00348 0.998208
0.999164 1 1.00005 0.999112
1.01809 1.02272 0.996619 0.99885
0.99907 1 1.00021 0.998862
1.00223 1 1.00376 0.998475
1.00701 1.01129 0.997225 0.998539
1.00196 1.00153 1.00221 0.99822
1.00604 1.00861 0.998499 0.998945
0.999353 1 1 0.999353
0.999239 1 1 0.999239
0.99915 1 1 0.99915
0.999736 1 1 0.999736
0.999531 1 1 0.999531
0.99943 1 1 0.99943
0.999265 1 1 0.999265
0.999727 1 1 0.999727
0.999533 1 1 0.999533
0.999198 1 1 0.999198
0.999421 1 1 0.999421
0.999294 1 1 0.999294
0.999188 1 1 0.999188
0.999333 1 1 0.999333
0.999426 1 1 0.999426
0.999505 1 1 0.999505
0.999688 1 1 0.999688
0.999566 1 1 0.999566
0.99969 1 1 0.99969
0.999965 1 1 0.999965
0.999967 1 1 0.999967
1 1 1 1
0.999969 1 1 0.999969
1 1 1 1
1 1 1 1
1 1 1 1
1 1 1 1
1 1 1 1
0.999987 1 1 0.999987
0.999978 1 1 0.999978
1 1 1 1
1 1 1 1
1 1 1 1
1 1 1 1
1 1 1 1
1 1 1 1
1.01341 1.01484 1 0.998583
1.01351 1.01513 1 0.998408
1.01234 1.01406 1 0.998305
1.0142 1.01583 1 0.998397
1.01503 1.01671 0.999815 0.998529
1.00987 1.01433 0.996892 0.998702
1.0144 1.01689 0.998954 0.998593
1.00867 1.01596 0.994149 0.998669
1.01784 1.02371 0.995327 0.998934
0.999805 1 1 0.999805
1.01247 1.01411 1 0.99838
1.00888 1.01066 0.999808 0.998434
1.01251 1.01397 0.999937 0.998623
0.999818 1 1.0008 0.999014
1.0024 1 1.00402 0.998385
1.00065 1.00193 1.00045 0.99827
1.00617 1.00743 1 0.998745
0.999038 1 1 0.999038
0.999221 1 1 0.999221
0.998951 1 1 0.998951
0.999961 1 1 0.999961
0.999202 1 1 0.999202
0.999717 1 1 0.999717
0.999404 1 1 0.999404
0.999725 1 1 0.999725
1.01475 1.01678 0.999495 0.998507
0.999773 1 1 0.999773
0.999712 1 1 0.999712
0.999538 1 1 0.999538
1.01363 1.01578 0.99932 0.998556
1.00963 1.01199 0.998837 0.998835
1.00055 1 1.00161 0.998947
1.00391 1.00014 1.00553 0.998237
1.00231 1.00364 1.00015 0.998532
0.999428 1 1 0.999428
0.999251 1 1 0.999251
1.00012 1 1.00099 0.99913
1.00258 1 1.00366 0.998925
0.99905 1 1 0.99905
1.01251 1.01639 0.997614 0.998565
1.01244 1.01658 0.997243 0.998674
1.00576 1.00813 0.99898 0.998669
1.004 1.00229 1.00329 0.99841
1.00364 1 1.00478 0.998866
0.999539 1 1 0.999539
0.999466 1 1 0.999466
0.999388 1 1 0.999388
0.999266 1 1 0.999266
0.99913 1 1 0.99913
1.00102 1 1.00209 0.998937
1.00569 1 1.00686 0.998836
0.999281 1 1 0.999281
0.999071 1 1.00006 0.999007
1.014 1.01693 0.99843 0.998691
1.01404 1.01561 0.999702 0.998754
1.00686 1.00844 1 0.998427
1.00124 1 1.0026 0.998652
1.00282 1.001 1.0036 0.998217
0.999186 1 1.00005 0.999134
1.01798 1.02311 0.996127 0.998854
0.999114 1 1.00024 0.998872
1.00251 1 1.00403 0.998485
1.00789 1.0115 0.99784 0.998584
1.00242 1.00152 1.00269 0.998211
1.00674 1.00933 0.998677 0.998755
0.999036 1 1.00003 0.999011
1.00317 1.01408 0.990398 0.998825
1.00057 1 1.00175 0.998826
1.00475 1 1.00636 0.998404
1.00223 1.00281 1.00104 0.99838
0.960221 0.972391 0.995189 0.992259
0.993026 0.992111 1.00437 0.996567
0.983997 1.00326 0.981703 0.99908
0.906717 0.930391 0.980563 0.993872
0.893443 0.941402 0.954796 0.993988
0.999238 1 1 0.999238
0.99916 1 1 0.99916
0.999154 1 1 0.999154
0.999727 1 1 0.999727
0.999524 1 1 0.999524
0.999421 1 1 0.999421
0.999309 1 1 0.999309
0.999191 1 1 0.999191
0.999411 1 1 0.999411
0.999703 1 1 0.999703
0.999517 1 1 0.999517
0.999195 1 1 0.999195
0.999329 1 1 0.999329
0.999339 1 1 0.999339
0.999263 1 1 0.999263
0.999376 1 1 0.999376
0.999486 1 1 0.999486
0.999686 1 1 0.999686
0.999531 1 1 0.999531
0.999429 1 1 0.999429
0.999537 1 1 0.999537
0.999543 1 1 0.999543
0.999722 1 1 0.999722
0.99969 1 1 0.99969
0.999964 1 1 0.999964
0.999965 1 1 0.999965
1 1 1 1
0.999967 1 1 0.999967
1 1 1 1
1 1 1 1
1 1 1 1
1 1 1 1
1 1 1 1
0.99999 1 1 0.99999
0.999986 1 1 0.999986
1 1 1 1
0.999976 1 1 0.999976
1 1 1 1
1 1 1 1
1 1 1 1
1 1 1 1
1 1 1 1
1.0143 1.01603 0.999774 0.998529
1.01448 1.01611 1 0.998395
1.01088 1.01476 0.997469 0.998707
1.00906 1.01572 0.994742 0.998695
1.01399 1.01653 0.998907 0.998593
1.01915 1.02464 0.99575 0.998887
1.02142 1.02441 0.998518 0.998563
0.974731 0.984914 0.993719 0.995917
1.01514 1.01935 0.996973 0.998892
0.999814 1 1 0.999814
0.999805 1 1 0.999805
0.999599 1 1 0.999599
0.999622 1 1 0.999622
1.01507 1.01719 0.999405 0.998511
1.01422 1.01644 0.999248 0.998559
1.00889 1.01097 0.999142 0.998795
0.999732 1 1.00077 0.998961
1.00358 1 1.00536 0.998234
1.00259 1.00392 1.00013 0.998537
1.00106 1 1.00198 0.999084
1.00201 1 1.00306 0.998956
0.999066 1 1 0.999066
0.999711 1 1 0.999711
0.999241 1 1 0.999241
0.999448 1 1 0.999448
0.99979 1 1 0.99979
0.99951 1 1 0.99951
1.01115 1.01446 0.99815 0.998581
0.999569 1 1 0.999569
0.999482 1 1 0.999482
0.999385 1 1 0.999385
1.01414 1.01774 0.997778 0.998686
1.00446 1.00715 0.998663 0.998664
1.00351 1 1.00465 0.998862
1.0037 1.00245 1.00285 0.998396
0.999269 1 1 0.999269
0.999138 1 1 0.999138
1.00487 1 1.00604 0.998836
1.00182 1 1.0029 0.998918
1.01791 1.02143 0.997959 0.998586
1.00093 1.01302 0.989388 0.998671
1.00365 1.00454 1.00073 0.998389
1.00181 1 1.00306 0.998744
0.999332 1 1 0.999332
0.999312 1 1 0.999312
0.999218 1 1.00014 0.999078
1.00861 1 1.00991 0.99872
0.949919 0.969771 0.987409 0.99202
0.999156 1 1 0.999156
0.999204 1 1.00032 0.998882
1.01737 1.02334 0.995306 0.998857
1.00886 1.01169 0.99857 0.99863
1.00309 1.0016 1.0033 0.998202
1.00292 1 1.00444 0.998496
1.007 1.00984 0.998624 0.998561
0.999194 1 1.00017 0.999027
1.0024 1.01366 0.990062 0.998813
1.00015 1 1.00132 0.998833
1.00451 1 1.00611 0.998406
1.00238 1.00376 1.00023 0.998394
0.957973 0.971925 0.993187 0.992406
0.988466 0.990724 1.00229 0.995437
0.986381 1.00277 0.984511 0.999131
0.911782 0.932092 0.984599 0.993511
0.881891 0.932688 0.951701 0.993523
0.999553 1 1.00047 0.999081
0.920675 0.939595 0.986573 0.9932
0.921226 0.945011 0.980272 0.99445
0.979532 1.00441 0.976382 0.998819
1.00443 1 1.00559 0.99885
1.00911 1.00045 1.01012 0.998551
0.986506 1.00055 0.986703 0.999249
0.966237 0.972862 1.00129 0.99191
0.985873 0.984657 1.00615 0.995117
0.895577 0.93274 0.966191 0.993755
0.928062 0.968325 0.962938 0.995308
0.999169 1 1 0.999169
0.999153 1 1 0.999153
0.999244 1 1 0.999244
0.999719 1 1 0.999719
0.999529 1 1 0.999529
0.999395 1 1 0.999395
0.999326 1 1 0.999326
0.999201 1 1 0.999201
0.999686 1 1 0.999686
0.999339 1 1 0.999339
0.999392 1 1 0.999392
0.999503 1 1 0.999503
0.999254 1 1 0.999254
0.999292 1 1 0.999292
0.99946 1 1.0002 0.999263
0.999379 1 1 0.999379
0.999516 1 1 0.999516
0.99953 1 1 0.99953
0.999414 1 1 0.999414
0.999399 1 1 0.999399
0.999404 1 1 0.999404
0.999345 1 1 0.999345
0.999308 1 1 0.999308
0.999517 1 1 0.999517
0.999537 1 1 0.999537
0.999721 1 1 0.999721
0.999521 1 1 0.999521
0.999709 1 1 0.999709
0.999964 1 1 0.999964
0.999689 1 1 0.999689
0.999964 1 1 0.999964
1 1 1 1
0.999965 1 1 0.999965
1 1 1 1
1 1 1 1
1 1 1 1
1 1 1 1
1 1 1 1
0.999808 1 1 0.999808
0.999991 1 1 0.999991
0.99999 1 1 0.99999
1 1 1 1
0.999984 1 1 0.999984
1 1 1 1
1 1 1 1
1 1 1 1
1 1 1 1
1 1 1 1
1.01034 1.01579 0.995909 0.998721
1.01358 1.01627 0.998758 0.998592
1.02103 1.02574 0.996565 0.99884
0.977011 0.984299 0.99602 0.996563
1.01443 1.01907 0.996504 0.998935
1.02212 1.02578 0.997878 0.998548
1.01874 1.02286 0.997292 0.998682
0.979786 0.986526 0.996392 0.996764
0.959192 0.972711 0.994798 0.991258
0.892857 0.926144 0.971191 0.992656
0.884386 0.927653 0.959253 0.993855
0.99959 1 1 0.99959
0.999814 1 1 0.999814
0.999804 1 1 0.999804
0.99959 1 1 0.99959
0.99946 1 1 0.99946
0.999491 1 1 0.999491
0.999601 1 1 0.999601
0.999608 1 1 0.999608
1.00949 1.01241 0.998517 0.998597
1.01589 1.01919 0.998061 0.998698
1.00332 1.00625 0.998427 0.99866
1.00352 1 1.00466 0.998858
1.00349 1.00239 1.00272 0.998381
1.00411 1 1.00528 0.998837
1.00272 1 1.00382 0.998898
0.999147 1 1 0.999147
0.999498 1 1 0.999498
0.999273 1 1 0.999273
0.999599 1 1 0.999599
0.999383 1 1 0.999383
1.01837 1.02217 0.997716 0.998563
0.999348 1 1 0.999348
0.999312 1 1 0.999312
1.00207 1.01159 0.991922 0.998659
1.00353 1.00503 1.00005 0.998456
1.00342 1 1.00472 0.9987
0.99946 1 1.00039 0.99907
1.00767 1 1.00895 0.998724
1.01474 1.02124 0.995118 0.998515
0.987736 1.00382 0.985329 0.998631
0.999643 1 1.00103 0.998612
1.00684 1 1.0081 0.998745
0.99925 1 1 0.99925
0.999147 1 1 0.999147
1.00245 1 1.00356 0.998893
0.910668 0.940236 0.974889 0.993501
0.956145 0.971302 0.991758 0.992576
0.999314 1 1.00027 0.999043
0.999847 1 1.00101 0.99884
1.00249 1.01364 0.990194 0.998801
1.00258 1.00481 0.999375 0.998408
1.00411 1 1.00571 0.998408
0.959197 0.97283 0.994779 0.991161
0.989212 0.992195 1.00082 0.996176
0.989235 1.00252 0.987559 0.99918
0.906903 0.933638 0.978124 0.993091
0.869878 0.923022 0.949012 0.993057
0.999386 1 1.00031 0.999081
0.915572 0.942553 0.977604 0.993628
0.920878 0.942375 0.982775 0.994315
0.982241 1.00514 0.978386 0.998809
1.00387 1 1.00501 0.998862
1.00843 1.00026 1.00958 0.998604
0.9799 0.997971 0.982613 0.999266
0.966689 0.974236 1.00085 0.991412
0.985597 0.985921 1.00348 0.996199
0.897703 0.930468 0.971797 0.992786
0.92695 0.968451 0.961934 0.995024
1.00045 1 1.00129 0.999154
0.938764 0.947423 0.995529 0.99531
0.986499 0.988339 1.00104 0.997098
0.987319 1.00053 0.987658 0.999133
1.00944 1 1.01032 0.999138
1.00275 0.995845 1.00734 0.999598
0.978383 0.983401 0.997653 0.997238
0.968246 0.969608 1.00714 0.991512
0.919933 0.954861 0.970397 0.992812
0.949589 0.985863 0.966789 0.996294
0.999151 1 1 0.999151
0.999223 1 1 0.999223
0.999767 1 1.00042 0.999346
0.999685 1 1 0.999685
0.99952 1 1 0.99952
0.999408 1 1 0.999408
0.999339 1 1 0.999339
0.999246 1 1 0.999246
0.999516 1 1 0.999516
0.999303 1 1 0.999303
0.999379 1 1 0.999379
0.999515 1 1.00024 0.99927
0.999891 1 1.00055 0.999336
0.99938 1 1.00009 0.999293
0.99938 1 1 0.99938
0.999529 1 1 0.999529
0.999399 1 1 0.999399
0.999399 1 1 0.999399
0.999403 1 1 0.999403
0.999344 1 1 0.999344
0.999371 1 1 0.999371
0.999327 1 1 0.999327
0.99931 1 1 0.99931
0.999167 1 1 0.999167
0.999674 1 1.00065 0.999026
0.999227 1 1 0.999227
0.999307 1 1 0.999307
0.999477 1 1 0.999477
0.999516 1 1 0.999516
0.999712 1 1 0.999712
0.999537 1 1 0.999537
0.999721 1 1 0.999721
0.999964 1 1 0.999964
0.999696 1 1 0.999696
0.999964 1 1 0.999964
1 1 1 1
0.999964 1 1 0.999964
1 1 1 1
1 1 1 1
1 1 1 1
1 1 1 1
1 1 1 1
0.999824 1 1 0.999824
0.999989 1 1 0.999989
0.999808 1 1 0.999808
1 1 1 1
0.999991 1 1 0.999991
0.999989 1 1 0.999989
1 1 1 1
1 1 1 1
1 1 1 1
1 1 1 1
1 1 1 1
0.913965 0.937232 0.98127 0.993789
0.927816 0.946396 0.985399 0.994894
0.979872 0.985009 0.997763 0.997016
1.01409 1.01871 0.996481 0.998977
1.02282 1.02705 0.997342 0.998533
0.979192 0.984961 0.996326 0.997809
1.01964 1.02272 0.998292 0.998694
0.960958 0.973554 0.994635 0.992386
0.904801 0.930094 0.979022 0.993651
0.875196 0.924386 0.953092 0.993384
0.997844 1.00015 0.999219 0.998469
0.964574 0.972193 0.999887 0.992275
0.889975 0.929692 0.963414 0.993633
0.9263 0.965354 0.964692 0.994664
0.999411 1 1 0.999411
0.999601 1 1 0.999601
0.999813 1 1 0.999813
0.999581 1 1 0.999581
0.999476 1 1 0.999476
0.999436 1 1 0.999436
0.99949 1 1 0.99949
0.999523 1 1 0.999523
0.999584 1 1 0.999584
0.999595 1 1 0.999595
1.0189 1.02286 0.997579 0.99854
1.00231 1.00949 0.994236 0.998648
1.00334 1.00551 0.99932 0.998525
1.00484 1 1.00619 0.998657
1.00634 1 1.00762 0.998728
0.999655 1 1.00059 0.999063
0.999313 1 1 0.999313
0.999364 1 1 0.999364
1.01379 1.02137 0.994075 0.998497
0.999244 1 1 0.999244
0.99913 1 1 0.99913
0.989314 1.00358 0.987178 0.998584
1 1 1.00133 0.998673
1.00599 1 1.00731 0.998696
1.00308 1 1.00421 0.998879
1.0053 1.00904 0.997619 0.998672
0.994455 1 0.995444 0.999006
1.00713 1 1.00833 0.998816
0.999232 1 1 0.999232
0.999123 1 1 0.999123
0.998979 1 1 0.998979
0.939592 0.950322 0.992998 0.99568
0.915787 0.939963 0.981162 0.992985
0.953358 0.972337 0.988392 0.991996
0.99908 1 1 0.99908
1.00327 1 1.0044 0.998875
0.98493 1.00569 0.980537 0.998798
1.00771 1 1.00907 0.998657
0.912908 0.941095 0.976968 0.992917
0.965989 0.973411 0.999532 0.99284
0.984178 0.987283 1.00169 0.995174
0.977258 0.995954 0.981926 0.999289
0.900637 0.929975 0.97462 0.993672
0.922372 0.945238 0.98151 0.994191
0.922611 0.966857 0.959264 0.994759
1.00079 1 1.00164 0.999154
0.937483 0.94918 0.992317 0.995323
0.987781 0.989199 1.00148 0.99709
0.989902 1.00022 0.990505 0.999167
1.00926 0.999936 1.0102 0.999132
1.0025 0.99711 1.00618 0.999231
0.978986 0.982433 1.00073 0.99576
0.964836 0.970348 1.00277 0.991568
0.922926 0.957992 0.969234 0.993976
0.942764 0.979747 0.966081 0.996038
1.00136 1 1.00187 0.999495
0.986905 0.98906 0.999953 0.997869
0.993135 0.990367 1.00451 0.998292
1.00989 0.999239 1.01094 0.999715
0.989948 0.985586 1.00591 0.998525
0.969378 0.971247 1.00688 0.991251
0.951236 0.972357 0.983888 0.994298
0.951492 0.991595 0.963503 0.995904
0.999202 1 1 0.999202
0.99971 1 1.00036 0.999355
1.00075 1 1.0013 0.999451
0.999516 1 1 0.999516
0.999378 1 1 0.999378
0.999314 1 1 0.999314
0.999558 1 1.00028 0.999277
0.99938 1 1 0.99938
0.999322 1 1.00003 0.999291
1.00029 1 1.00093 0.999354
1.00031 1 1.00086 0.999456
0.999526 1 1.00021 0.999314
0.999309 1 1 0.999309
0.999399 1 1 0.999399
0.999402 1 1 0.999402
0.999342 1 1 0.999342
0.99933 1 1 0.99933
0.99937 1 1 0.99937
0.999314 1 1 0.999314
0.999265 1 1 0.999265
0.999307 1 1 0.999307
0.999152 1 1 0.999152
0.999178 1 1 0.999178
0.999711 1 1.00066 0.999056
0.999923 1 1.00108 0.998848
0.999194 1 1 0.999194
0.999523 1 1.00045 0.999073
0.999249 1 1 0.999249
0.999391 1 1 0.999391
0.999305 1 1 0.999305
0.999475 1 1 0.999475
0.999688 1 1 0.999688
0.999514 1 1 0.999514
0.999711 1 1 0.999711
0.999962 1 1 0.999962
0.999721 1 1 0.999721
0.999963 1 1 0.999963
1 1 1 1
0.999964 1 1 0.999964
1 1 1 1
1 1 1 1
1 1 1 1
1 1 1 1
1 1 1 1
0.999755 1 1 0.999755
0.999986 1 1 0.999986
0.999793 1 1 0.999793
1 1 1 1
0.99999 1 1 0.99999
0.999808 1 1 0.999808
1 1 1 1
1 1 1 1
0.999991 1 1 0.999991
1 1 1 1
1 1 1 1
1 1 1 1
0.942808 0.951111 0.995479 0.995772
0.914261 0.938751 0.98056 0.993221
0.987473 0.990729 0.999718 0.996995
0.920482 0.941231 0.983205 0.99466
0.975067 0.983685 0.994772 0.996449
1.0197 1.02259 0.998475 0.998705
0.960717 0.974039 0.992749 0.993527
0.904447 0.932775 0.976671 0.992791
0.866788 0.921846 0.946985 0.992913
0.995318 0.999189 0.998174 0.997948
0.966054 0.971932 1.0023 0.991672
0.895208 0.933724 0.965873 0.992626
0.923425 0.963998 0.963214 0.994494
0.992276 0.995811 0.998631 0.997816
0.969527 0.969651 1.00861 0.991335
0.922655 0.958814 0.968219 0.993874
0.94791 0.986813 0.964554 0.995878
0.99931 1 1 0.99931
0.999428 1 1 0.999428
0.999613 1 1 0.999613
0.999493 1 1 0.999493
0.999336 1 1 0.999336
0.999448 1 1 0.999448
0.99949 1 1 0.99949
0.999506 1 1 0.999506
0.999541 1 1 0.999541
0.999568 1 1 0.999568
1.01329 1.02212 0.992863 0.998481
0.991849 1.00373 0.989611 0.998537
1.00032 1 1.00159 0.998733
1.00559 1 1.00695 0.998647
1.00389 1 1.00503 0.998866
0.999114 1 1 0.999114
0.999238 1 1 0.999238
0.999234 1 1 0.999234
1.00004 1.00796 0.993439 0.998692
0.999133 1 1 0.999133
0.999397 1 1.00042 0.998973
0.992702 1 0.993742 0.998954
1.00592 1 1.00711 0.99881
0.982449 0.999932 0.9834 0.999101
1.00987 1 1.01057 0.999307
1.00041 1 1.00144 0.998976
0.999154 1 1 0.999154
0.999015 1 1.00003 0.998986
0.985056 0.987007 0.999768 0.998255
0.942129 0.950372 0.995461 0.995847
0.913747 0.939221 0.9789 0.993848
1.00119 1 1.00204 0.999153
1.00913 0.99984 1.01018 0.999124
0.991019 1 0.991814 0.999199
0.943666 0.95193 0.995607 0.995693
0.970894 0.970151 1.00958 0.991268
0.980717 0.983645 1.00019 0.996838
0.995992 0.99682 1.00033 0.998837
0.921854 0.955348 0.971937 0.992801
0.988248 0.989171 1.00199 0.997082
0.937647 0.975403 0.965061 0.996094
1.00147 0.99992 1.00205 0.999496
0.986019 0.987773 1.00009 0.99813
0.995723 0.992579 1.00487 0.998304
1.0097 0.999364 1.01076 0.999586
0.989043 0.985653 1.00535 0.998095
0.972131 0.974042 1.0071 0.991
0.952361 0.994645 0.961085 0.996258
0.936437 0.964099 0.977481 0.993685
1.00305 0.999155 1.00419 0.999711
0.992553 0.992811 1.00033 0.999409
1.00379 1.00018 1.00511 0.998507
0.950186 0.987853 0.965843 0.995887
1.00066 0.987174 1.01411 0.999558
0.977852 0.975852 1.01048 0.991657
0.928223 0.94878 0.984069 0.994172
0.999631 1 1.00027 0.999364
1.0005 1 1.00109 0.999413
1.00312 1 1.00355 0.999566
0.99938 1 1 0.99938
0.999288 1 1 0.999288
1.00075 1 1.00138 0.999372
0.999312 1 1 0.999312
0.999641 1 1.00033 0.999316
1.00069 1 1.00126 0.999429
0.99985 1 1.00035 0.999496
0.999298 1 1 0.999298
0.999333 1 1 0.999333
0.999368 1 1 0.999368
0.999318 1 1 0.999318
0.999304 1 1 0.999304
0.999273 1 1 0.999273
0.999563 1 1.00029 0.999271
0.999193 1 1 0.999193
1.00137 1 1.0025 0.998877
0.999189 1 1 0.999189
0.999571 1 1.00053 0.999045
0.999673 1 1.00096 0.998712
0.999811 1 1.00098 0.998831
0.999154 1 1.00004 0.999111
0.99978 1 1.00093 0.998855
0.999335 1 1 0.999335
0.999175 1 1 0.999175
0.999355 1 1.00024 0.99912
0.999272 1 1 0.999272
0.99941 1 1 0.99941
0.999646 1 1 0.999646
0.999474 1 1 0.999474
0.999687 1 1 0.999687
0.999956 1 1 0.999956
0.99971 1 1 0.99971
0.99996 1 1 0.99996
1 1 1 1
0.999962 1 1 0.999962
1 1 1 1
1 1 1 1
1 1 1 1
1 1 1 1
1 1 1 1
0.999664 1 1 0.999664
0.999938 1 1 0.999938
0.999754 1 1 0.999754
1 1 1 1
0.999969 1 1 0.999969
0.999762 1 1 0.999762
1 1 1 1
1 1 1 1
0.999991 1 1 0.999991
1 1 1 1
1 1 1 1
1 1 1 1
0.985115 0.987334 0.999662 0.99809
0.935221 0.949864 0.989124 0.995409
0.91517 0.936959 0.983657 0.992973
0.999451 1 1 0.999451
0.990472 0.987753 1.00424 0.99852
0.988795 0.990699 1.00109 0.996989
0.914015 0.940292 0.977503 0.994426
0.993954 0.999037 0.997532 0.997373
0.970252 0.974035 1.00399 0.99216
0.900365 0.939709 0.964384 0.993518
0.918029 0.960887 0.960841 0.994334
0.994469 0.997731 1.00038 0.996357
0.963937 0.96733 1.00485 0.991687
0.927159 0.959542 0.972569 0.993504
0.947105 0.98622 0.964565 0.995619
0.983885 0.986397 1.00201 0.995451
0.973978 0.967926 1.01612 0.990287
0.93665 0.965586 0.976566 0.99331
0.950013 0.99093 0.962659 0.995896
0.99922 1 1 0.99922
0.999301 1 1 0.999301
0.999446 1 1 0.999446
0.999329 1 1 0.999329
0.999357 1 1 0.999357
0.99946 1 1 0.99946
0.999511 1 1 0.999511
0.999559 1 1 0.999559
0.994305 1.00646 0.989194 0.99871
0.990541 1 0.991629 0.998902
0.999236 1 1 0.999236
1.00457 1 1.00577 0.998805
0.99996 1 1.00099 0.998968
0.999144 1 1 0.999144
0.999158 1 1 0.999158
0.987593 1.00189 0.986606 0.999109
0.999011 1 1 0.999011
1.00112 1 1.00215 0.998973
1.00539 1 1.00608 0.999316
0.999178 1 1 0.999178
0.98026 0.993288 0.987364 0.999514
1.01236 0.999292 1.01363 0.999454
0.999077 1 1 0.999077
0.999118 1 1 0.999118
0.992551 0.993658 0.99935 0.999536
0.984794 0.986742 0.999741 0.998285
0.945549 0.950697 0.99856 0.996019
1.00143 0.999872 1.00206 0.999498
1.01052 0.999573 1.0115 0.999459
0.985024 0.986617 0.999995 0.99839
0.976106 0.972076 1.01277 0.991486
0.987375 0.982924 1.00803 0.996529
0.940549 0.966938 0.979477 0.99309
0.997957 0.9944 1.00527 0.998315
0.955048 0.999278 0.958988 0.996611
1.00339 0.999295 1.00442 0.999678
0.991191 0.991819 0.999948 0.999419
1.0027 0.999091 1.00484 0.998778
1.00773 0.992925 1.01498 0.999929
0.948043 0.987 0.964759 0.995616
0.974529 0.973389 1.00962 0.99163
0.936102 0.961265 0.980618 0.993071
1.00726 0.996304 1.01123 0.999771
1.00159 1.00087 1.00111 0.999603
0.990892 0.989278 1.00311 0.998527
0.927021 0.966996 0.963777 0.994691
0.936166 0.967548 0.974191 0.993199
0.990033 0.984348 1.00613 0.999646
0.979286 0.969748 1.01916 0.990847
1.00027 1 1.00089 0.999376
1.00222 0.999992 1.00268 0.99955
1.00726 0.995122 1.01262 0.999582
0.999314 1 1 0.999314
0.999684 1 1.00037 0.999319
1.00094 1 1.00154 0.999403
0.999294 1 1 0.999294
0.99993 1 1.00043 0.999497
1.00472 0.999502 1.00587 0.999355
0.999301 1 1 0.999301
0.999281 1 1 0.999281
1.00003 1 1.00079 0.999247
1.00591 1 1.00696 0.998961
0.999234 1 1 0.999234
1.00085 1 1.00192 0.998927
1.00271 1 1.00413 0.99859
1.00039 1 1.00188 0.998515
0.999417 1 1.00038 0.999034
0.999736 1 1.00106 0.998675
0.999414 1 1.00051 0.998905
0.999912 1 1.00089 0.999027
0.999731 1 1.00087 0.998861
0.999277 1 1 0.999277
0.999205 1 1.0001 0.999108
0.999697 1 1.00083 0.998863
0.999584 1 1 0.999584
0.999328 1 1 0.999328
0.999156 1 1 0.999156
0.99943 1 1 0.99943
0.999645 1 1 0.999645
0.999945 1 1 0.999945
0.999686 1 1 0.999686
0.999954 1 1 0.999954
1 1 1 1
0.999959 1 1 0.999959
1 1 1 1
1 1 1 1
1 1 1 1
1 1 1 1
1 1 1 1
0.999628 1 1 0.999628
0.999909 1 1 0.999909
0.999682 1 1 0.999682
1 1 1 1
0.999937 1 1 0.999937
0.999752 1 1 0.999752
1 1 1 1
1 1 1 1
0.999951 1 1 0.999951
1 1 1 1
1 1 1 1
1 1 1 1
0.989888 0.99047 1.00002 0.999397
0.984874 0.987042 0.999705 0.998098
0.935436 0.950596 0.98856 0.995439
0.999458 1 1 0.999458
0.999421 1 1 0.999421
0.999346 1 1 0.999346
1.00347 0.998863 1.00611 0.998506
0.991256 0.988544 1.00421 0.998536
0.989874 0.990699 1.00219 0.996983
1.00041 0.998238 1.00467 0.997516
0.965739 0.96838 1.00592 0.991406
0.922581 0.955254 0.972754 0.992847
0.949307 0.988397 0.964617 0.995682
0.979301 0.981455 1.00109 0.996718
0.969537 0.967624 1.01076 0.991307
0.935318 0.960695 0.979167 0.994298
0.952321 0.994517 0.961173 0.996253
0.970641 0.976175 0.998009 0.996314
0.981166 0.972481 1.01764 0.991442
0.928697 0.947935 0.98543 0.99419
0.948492 0.984508 0.96703 0.996264
0.99921 1 1 0.99921
0.999218 1 1 0.999218
0.999291 1 1 0.999291
0.999326 1 1 0.999326
0.999379 1 1 0.999379
0.999516 1 1 0.999516
0.993377 1.00381 0.990487 0.999116
1.00104 1 1.00171 0.999324
0.999161 1 1 0.999161
1.00152 1 1.00255 0.998971
0.999039 1 1 0.999035
0.999166 1 1 0.999166
0.999124 1 1 0.999124
0.990094 0.996142 0.994419 0.999506
0.99914 1 1.00002 0.999124
1.00885 0.996826 1.01258 0.99948
0.999199 1 1 0.999199
1.00558 0.98827 1.01777 0.99975
0.994089 0.994046 1.00044 0.999607
0.999216 1 1 0.999216
1.0044 1.00515 0.999502 0.999759
0.992395 0.993483 0.999306 0.999598
0.984731 0.986537 0.999855 0.998314
1.00367 0.999462 1.00457 0.999644
1.00276 0.994173 1.00883 0.999808
0.990081 0.991052 0.99959 0.999429
0.980232 0.974245 1.01212 0.994096
0.941391 0.96042 0.985679 0.994428
1.00153 0.99805 1.00444 0.999049
0.949899 0.989165 0.964458 0.995692
1.00707 0.997436 1.00987 0.999788
1.00177 1.0011 1.00102 0.999653
0.992099 0.990083 1.0035 0.998543
0.98872 0.980737 1.01032 0.997843
0.924424 0.965661 0.962561 0.994531
0.93309 0.963401 0.974208 0.994179
0.989947 0.975588 1.02342 0.991496
1.01315 0.987851 1.02574 0.999878
0.990418 0.991064 0.999943 0.999405
0.98842 0.992053 0.999314 0.997022
0.883803 0.927824 0.958384 0.993918
0.923278 0.958877 0.968783 0.993901
0.982677 0.974531 1.0171 0.991409
0.963141 0.974899 0.990748 0.997166
1.00114 0.999936 1.00167 0.999534
1.00978 0.996554 1.01369 0.999586
1.01908 0.999472 1.02009 0.999529
0.999289 1 1 0.999289
1.00005 1 1.00055 0.999497
1.00411 0.999789 1.00494 0.999383
1.01473 1 1.01564 0.999104
1.00047 1 1.00125 0.999222
1.00599 1 1.00709 0.998906
1.01192 1 1.01344 0.9985
1.00042 1 1.00145 0.998978
1.00351 1 1.00494 0.998579
1.00332 1 1.00504 0.998286
1.00043 1.00025 1.00191 0.998271
0.999815 1 1.00108 0.998739
1.00037 1 1.00188 0.998493
0.999825 1 1.00119 0.998638
0.999835 1 1.00082 0.999019
0.999419 1 1.00047 0.998947
0.999606 1 1.00045 0.999159
0.999908 1 1.00086 0.999049
0.999597 1 1.00071 0.998891
0.9995 1 1 0.9995
0.999279 1 1 0.999279
0.999241 1 1.00014 0.999104
0.999918 1 1 0.999918
0.999584 1 1 0.999584
0.999322 1 1 0.999322
0.999643 1 1 0.999643
0.999941 1 1 0.999941
1 1 1 1
0.999951 1 1 0.999951
1 1 1 1
1 1 1 1
1 1 1 1
1 1 1 1
1 1 1 1
0.999627 1 1 0.999627
0.999929 1 1 0.999929
0.999641 1 1 0.999641
1 1 1 1
0.999931 1 1 0.999931
0.999701 1 1 0.999701
1 1 1 1
1 1 1 1
0.999936 1 1 0.999936
1 1 1 1
1 1 1 1
1 1 1 1
1.00255 1.00081 1.00214 0.999602
0.991978 0.991716 1.00086 0.999408
0.984986 0.98668 1.00018 0.998107
0.999404 1 1 0.999404
0.999317 1 1 0.999317
0.999465 1 1 0.999465
0.999419 1 1 0.999419
0.999332 1 1 0.999332
0.999329 1 1 0.999329
0.999262 1 1 0.999262
0.993008 0.989693 1.00508 0.998281
1.00137 0.997259 1.00535 0.998777
0.992268 0.989319 1.00443 0.998553
0.956019 0.999139 0.960097 0.996611
0.974002 0.978285 1.00007 0.995557
0.975637 0.97174 1.01174 0.992364
0.937425 0.956353 0.987044 0.993074
0.970517 0.976655 0.997976 0.995731
0.973732 0.969115 1.01368 0.991205
0.93771 0.961524 0.98184 0.993272
0.942765 0.979876 0.965996 0.995995
0.962289 0.972427 0.992559 0.996994
0.971158 0.971074 1.00915 0.991022
0.954294 0.974855 0.984526 0.994295
0.926252 0.967264 0.962185 0.995236
0.99924 1 1 0.99924
0.999209 1 1 0.999209
0.999216 1 1 0.999216
0.999324 1 1 0.999324
0.998782 0.998956 1.00033 0.999499
1.00576 0.994645 1.01168 0.999505
0.999153 1 1 0.999153
0.99913 1 1 0.99913
0.999205 1 1.00003 0.99917
0.999194 1 1 0.999194
0.999203 1 1 0.999203
1.00096 0.986776 1.01489 0.999499
0.99532 0.995207 1.00044 0.999675
0.999237 1 1 0.999237
1.00696 0.983447 1.02435 0.999565
1.00157 0.997213 1.00499 0.999379
0.992913 0.993611 0.999753 0.999544
1.00308 1.00382 0.999468 0.999795
0.992264 0.993264 0.999332 0.999661
1.00701 0.998542 1.00868 0.999805
0.990118 0.980723 1.00997 0.999613
1.00178 1.00116 1.00091 0.999703
0.977753 0.969313 1.01788 0.990986
0.936496 0.958854 0.983612 0.992955
0.993405 0.990911 1.00396 0.998559
0.919827 0.962402 0.961169 0.994375
1.01669 0.988528 1.02863 0.999868
0.99195 0.992054 1.00048 0.999416
0.989648 0.992024 1.00059 0.997016
0.966871 0.977375 0.990394 0.998847
0.876018 0.925185 0.953098 0.993452
0.92464 0.958053 0.971445 0.993494
0.985282 0.973913 1.02014 0.991705
1.00142 0.985981 1.01598 0.999677
0.986748 0.988579 1.00004 0.998111
0.929066 0.947393 0.985622 0.994961
0.89204 0.929842 0.96543 0.993698
0.976379 0.96956 1.01568 0.991482
0.957483 0.973018 0.98788 0.996106
1.01293 0.998497 1.01487 0.99959
1.01854 0.998072 1.021 0.999522
1.01306 1 1.01367 0.999398
1.00351 1 1.0041 0.999412
1.01483 0.999912 1.01579 0.999147
1.00939 1 1.01078 0.998627
1.00616 1 1.00732 0.998851
1.01139 1 1.01295 0.998463
1.00577 1.00009 1.00749 0.998204
1.00423 1 1.00567 0.998568
1.00342 1 1.00518 0.998253
1.00247 1.00111 1.00323 0.998139
0.999428 1.00118 1 0.99825
0.999209 1 1.00077 0.998444
1.00053 1.00012 1.00218 0.998234
0.999028 1 1.00013 0.998902
0.999509 1 1.00074 0.998767
1.00036 1 1.00189 0.998472
0.999473 1 1.00041 0.999062
0.999914 1 1.0009 0.999012
0.999414 1 1.00043 0.998989
0.999385 1 1 0.999385
0.999476 1 1.0003 0.99918
0.999921 1 1.00085 0.999071
0.999856 1 1 0.999856
0.999501 1 1 0.999501
0.999281 1 1 0.999281
1 1 1 1
0.999914 1 1 0.999914
0.999583 1 1 0.999583
0.999937 1 1 0.999937
1 1 1 1
1 1 1 1
1 1 1 1
1 1 1 1
1 1 1 1
0.9994 1 1 0.9994
0.999596 1 1 0.999596
0.999912 1 1 0.999912
0.999626 1 1 0.999626
1 1 1 1
0.999933 1 1 0.999933
0.999654 1 1 0.999654
1 1 1 1
1 1 1 1
0.999954 1 1 0.999954
1 1 1 1
1 1 1 1
1 1 1 1
0.992994 0.992129 1.00146 0.999416
1.00254 1.00089 1.002 0.999652
0.993666 0.992977 1.00128 0.999419
0.999411 1 1 0.999411
0.999305 1 1 0.999305
0.999255 1 1 0.999255
0.999305 1 1 0.999305
0.999245 1 1 0.999245
0.999417 1 1 0.999417
0.999317 1 1 0.999317
0.999329 1 1 0.999329
0.999257 1 1 0.999257
0.999276 1 1 0.999276
0.984879 0.98686 1.00094 0.997053
0.995045 0.991418 1.00537 0.998295
0.999027 0.995589 1.00441 0.999049
0.938788 0.97672 0.964968 0.996058
0.939209 0.957613 0.986218 0.994487
0.962348 0.970916 0.996067 0.995089
0.977555 0.975293 1.01106 0.99135
0.963893 0.973092 0.99497 0.995554
0.98321 0.977684 1.01449 0.991292
0.93997 0.966879 0.978256 0.993779
0.925764 0.967626 0.961604 0.994939
0.979566 0.977832 1.00557 0.996225
0.974193 0.974954 1.00772 0.991563
0.919664 0.955137 0.969882 0.992761
0.891443 0.940596 0.953601 0.993857
0.999427 1 1 0.999427
0.999241 1 1 0.999241
0.999208 1 1 0.999208
0.99687 0.984944 1.01287 0.999247
0.995512 0.995359 1.00041 0.999748
0.99919 1 1 0.99919
0.999191 1 1 0.999191
0.99928 1 1.00003 0.999247
1.00233 0.997954 1.00501 0.999373
1.00514 0.98316 1.02279 0.999583
1.00374 1 1.00435 0.999389
1.00457 0.990802 1.01458 0.999328
0.985806 0.987565 1 0.998219
0.992893 0.993569 0.999712 0.999608
1.00174 1.00251 0.999408 0.999831
1.01944 0.988632 1.03131 0.999855
0.96776 0.978815 0.992008 0.996672
0.993231 0.993059 1.00075 0.999427
0.977403 0.973532 1.0142 0.989918
0.921741 0.95423 0.972885 0.992875
0.990691 0.992037 1.00164 0.99701
0.86904 0.923309 0.947873 0.992985
1.00121 0.985734 1.01598 0.999724
0.986676 0.988544 0.999993 0.998119
0.921646 0.942295 0.983271 0.994727
0.957352 0.974036 0.985908 0.996919
0.896729 0.933975 0.967181 0.9927
0.967387 0.96745 1.00925 0.990775
0.981838 0.986537 0.996002 0.999231
0.943627 0.951679 0.995689 0.995833
0.894858 0.926897 0.972506 0.992728
0.97362 0.97166 1.01075 0.991364
0.972966 0.978681 0.997123 0.99703
1.0175 0.996595 1.02147 0.999515
1.0153 0.999942 1.01598 0.999387
0.993302 1 0.994269 0.999027
1.01485 0.999885 1.01579 0.999189
1.00947 1 1.0108 0.998683
1.00216 1.00105 1.00272 0.998401
1.01075 1 1.01234 0.998426
1.00483 1.00015 1.00648 0.998212
0.999457 1.00114 1.00003 0.998288
1.00338 1 1.00517 0.998219
1.00251 1.00188 1.00248 0.998151
1.0025 1.00419 1 0.998325
1.00165 1.00323 1 0.99842
0.99901 1.00067 1.00002 0.998327
0.999587 1.00133 1 0.99826
0.998659 1 1 0.998659
0.999481 1 1.00107 0.998408
1.00063 1 1.00244 0.998197
0.999031 1 1 0.999031
0.99896 1 1.00002 0.998936
0.999112 1 1.00032 0.998794
0.999267 1 1 0.999267
0.999638 1 1.00057 0.999072
1 1 1.001 0.999004
0.999747 1 1 0.999747
0.999385 1 1 0.999385
0.999356 1 1.00016 0.999201
1 1 1 1
0.999853 1 1 0.999853
0.999502 1 1 0.999502
1 1 1 1
1 1 1 1
0.999909 1 1 0.999909
1 1 1 1
1 1 1 1
1 1 1 1
0.999343 1 1 0.999343
0.999558 1 1 0.999558
0.999391 1 1 0.999391
0.999898 1 1 0.999898
0.999596 1 1 0.999596
1 1 1 1
0.999915 1 1 0.999915
0.999626 1 1 0.999626
1 1 1 1
1 1 1 1
0.999937 1 1 0.999937
1 1 1 1
1 1 1 1
1 1 1 1
0.987572 0.98917 1 0.998385
0.991946 0.991379 1.00115 0.999427
1.00243 1.00084 1.00188 0.999702
0.999248 1 1 0.999248
0.999419 1 1 0.999419
0.999294 1 1 0.999294
0.999316 1 1 0.999316
0.999267 1 1 0.999267
0.99924 1 1 0.99924
0.99919 1 1 0.99919
0.999227 1 1 0.999227
0.99933 1 1 0.99933
0.999252 1 1 0.999252
0.999272 1 1 0.999272
0.999294 1 1 0.999294
0.920792 0.944158 0.980776 0.994368
0.986241 0.987795 1.00139 0.997044
0.996537 0.992593 1.00567 0.998309
0.921917 0.96663 0.958864 0.99466
0.945687 0.97111 0.980374 0.993315
0.971528 0.971086 1.00948 0.991061
0.966414 0.972256 0.99738 0.996603
0.979722 0.977338 1.00492 0.997536
0.880736 0.931948 0.951319 0.993409
0.978555 0.973507 1.01466 0.990667
0.920081 0.956131 0.968262 0.993838
0.977592 0.98126 0.998505 0.997753
0.971577 0.96886 1.01094 0.99195
0.891635 0.930145 0.964827 0.993544
1.00006 1 1.00041 0.999653
0.999429 1 1 0.999429
0.999242 1 1 0.999242
1.00574 0.985679 1.02076 0.999595
1.00381 0.999352 1.0051 0.999366
0.999307 1 1.00005 0.999256
1.00404 1 1.00465 0.999393
1.00335 0.99106 1.01305 0.99936
1.00571 0.996857 1.00939 0.999501
0.939823 0.950324 0.993758 0.995162
0.986108 0.987561 0.999986 0.998543
0.992941 0.99353 0.999735 0.999671
1.00061 0.985118 1.01596 0.999771
0.957395 0.975925 0.983452 0.997519
0.986772 0.988459 1.00017 0.998128
0.973297 0.970116 1.01095 0.992411
0.903241 0.940887 0.966183 0.993589
0.914108 0.940747 0.977063 0.994495
0.981151 0.98721 0.994578 0.99928
0.935785 0.95028 0.989229 0.99547
0.906619 0.92998 0.981024 0.993737
0.972456 0.975687 1.00108 0.995614
0.966004 0.969814 1.00444 0.991669
0.971339 0.993411 0.97836 0.999409
0.914524 0.938243 0.980745 0.993857
0.967239 0.973139 1.0019 0.992052
0.984976 0.988716 1.00082 0.995403
1.01825 0.999824 1.01906 0.999376
0.989725 1 0.990637 0.999079
0.98178 1.00131 0.981634 0.99884
1.00985 1 1.01113 0.998739
1.00238 1.00125 1.00273 0.998398
1.00043 1.00241 0.999428 0.998598
1.00397 1.00019 1.00557 0.99822
0.999404 1.00073 1.00037 0.998303
1.00573 1.00713 1 0.998604
1.00264 1.00263 1.00185 0.998163
1.0024 1.00408 1 0.99833
1.0054 1.00679 1 0.998625
1.00412 1.00549 1 0.998641
1.00012 1.0017 1 0.998423
1.0018 1.00337 1 0.998438
0.998759 1.00025 1 0.998505
0.99906 1.00071 1 0.998354
0.999742 1.00148 1 0.99827
0.998908 1 1 0.998908
0.998802 1 1.00014 0.998664
0.999847 1 1.00148 0.998371
0.999192 1 1 0.999192
0.999028 1 1 0.999028
0.998969 1 1 0.998969
0.999616 1 1 0.999616
0.999269 1 1 0.999269
0.999794 1 1.00071 0.999082
1 1 1 1
0.999744 1 1 0.999744
0.999385 1 1 0.999385
1 1 1 1
1 1 1 1
0.999849 1 1 0.999849
1 1 1 1
1 1 1 1
1 1 1 1
0.999329 1 1 0.999329
0.999345 1 1 0.999345
0.999509 1 1 0.999509
0.99988 1 1 0.99988
0.999559 1 1 0.999559
0.999382 1 1 0.999382
1 1 1 1
0.9999 1 1 0.9999
0.999596 1 1 0.999596
1 1 1 1
1 1 1 1
0.999918 1 1 0.999918
1 1 1 1
1 1 1 1
1 1 1 1
0.939009 0.948105 0.995047 0.995336
0.986665 0.988248 1 0.998399
0.991101 0.990823 1.00084 0.999437
0.999237 1 1 0.999237
0.99921 1 1 0.99921
0.999185 1 1 0.999185
0.999328 1 1 0.999328
0.999278 1 1 0.999278
0.999236 1 1 0.999236
0.999225 1 1 0.999225
0.999188 1 1 0.999188
0.999125 1 1 0.999125
0.999276 1 1 0.999276
0.999267 1 1 0.999267
0.999294 1 1 0.999294
0.904188 0.928978 0.979484 0.993701
0.918859 0.940903 0.982233 0.994236
0.987486 0.988548 1.00189 0.997037
0.869974 0.923091 0.949138 0.99296
0.918546 0.953296 0.970595 0.992738
0.985331 0.979816 1.01301 0.992715
0.983816 0.976075 1.01189 0.996084
0.974622 0.978332 0.999817 0.99639
0.894327 0.929135 0.969694 0.99262
0.969536 0.968379 1.0091 0.992165
0.977763 0.97974 1.00126 0.996723
0.970396 0.973206 1.00552 0.991641
1.00745 1 1.00819 0.999267
0.999896 1 1.00027 0.999629
0.999431 1 1 0.999431
0.999571 0.988786 1.01152 0.99939
1.00433 1 1.00494 0.999396
1.00641 0.997839 1.00918 0.99942
1.00066 1.00067 1.00111 0.998879
0.910947 0.941297 0.974032 0.993559
0.94234 0.950284 0.996035 0.995588
0.986573 0.987774 0.999918 0.998866
0.979586 0.987757 0.992383 0.999339
0.972012 0.975281 1.00007 0.996575
0.936429 0.950962 0.989171 0.995499
0.969638 0.970061 1.0082 0.991435
0.906987 0.934084 0.977978 0.992856
0.974758 0.993909 0.981516 0.999201
0.915314 0.939435 0.980932 0.993263
0.969262 0.97344 1.00416 0.991586
0.986783 0.985916 1.00428 0.996612
0.988876 1.00021 0.989471 0.999188
0.95906 0.973504 0.993973 0.991136
0.990785 0.993219 1.00027 0.997279
0.986088 1 0.986946 0.99913
0.982467 1.00131 0.982337 0.998822
0.982661 1.00348 0.980446 0.998788
1.00228 1.00144 1.00245 0.998395
1.00015 1.00292 0.998648 0.998593
1.00596 1.00984 0.997227 0.998932
0.9994 1.00037 1.00071 0.998318
1.00598 1.00739 1 0.9986
1.01066 1.01181 1 0.998871
1.00233 1.00401 1 0.998335
1.00494 1.00632 1 0.998625
1.00621 1.00741 1 0.998809
1.00426 1.00551 1 0.998755
1.00398 1.00532 1 0.998665
1.00213 1.00353 1 0.998604
0.999302 1.00079 1 0.998511
1.00031 1.00189 1 0.998426
1.0019 1.00345 1 0.998457
0.998707 1 1 0.998707
0.998764 1.00023 1 0.998534
0.999152 1.00077 1 0.998381
0.999108 1 1 0.999108
0.998903 1 1 0.998903
0.99884 1 1.00017 0.998668
0.999515 1 1 0.999515
0.999193 1 1 0.999193
0.999025 1 1 0.999025
0.999992 1 1 0.999992
0.999615 1 1 0.999615
0.999271 1 1 0.999271
1 1 1 1
0.999999 1 1 0.999999
0.999742 1 1 0.999742
1 1 1 1
1 1 1 1
1 1 1 1
0.999272 1 1 0.999272
0.999316 1 1 0.999316
0.999455 1 1 0.999455
0.999348 1 1 0.999348
0.999508 1 1 0.999508
0.999844 1 1 0.999844
1 1 1 1
0.999882 1 1 0.999882
0.999559 1 1 0.999559
1 1 1 1
1 1 1 1
0.999902 1 1 0.999902
1 1 1 1
1 1 1 1
1 1 1 1
0.920349 0.938744 0.987114 0.993203
0.937885 0.949261 0.992915 0.995066
0.985438 0.987006 1 0.998412
0.999227 1 1 0.999227
0.999169 1 1 0.999169
0.999225 1 1 0.999225
0.999146 1 1 0.999146
0.999145 1 1 0.999145
0.999224 1 1 0.999224
0.999186 1 1 0.999186
0.999133 1 1 0.999133
0.999081 1 1 0.999081
0.999144 1 1 0.999144
0.999036 1 1.00026 0.998779
0.999292 1 1 0.999292
0.999294 1 1 0.999294
0.966628 0.978031 0.997441 0.990877
0.908706 0.930216 0.983409 0.993358
0.919976 0.942792 0.981585 0.994106
0.895079 0.928834 0.969967 0.993496
0.974255 0.969003 1.01517 0.9904
0.97681 0.977094 1.00187 0.997843
0.98086 0.982522 1.00081 0.997505
0.969281 0.973813 1.00331 0.992059
0.9878 0.9965 0.994694 0.996557
1.00527 1.00132 1.00541 0.998548
1.00591 1 1.00666 0.999251
0.999606 1 1 0.999606
1.00661 0.999236 1.00804 0.999345
0.99991 1.00101 1.00006 0.99884
0.950557 0.971916 0.985906 0.992004
0.915897 0.940898 0.980218 0.993074
0.945784 0.950481 0.999036 0.996019
0.978489 0.994989 0.984416 0.998986
0.984947 0.983645 1.00591 0.995444
0.915808 0.938256 0.982963 0.992992
0.972597 0.974398 1.0062 0.992004
0.987182 1.00128 0.986732 0.999172
0.961201 0.974449 0.994142 0.992218
0.992406 0.995124 1.00126 0.996012
1.00189 1.00614 0.997015 0.998751
0.993752 0.996936 0.998652 0.998152
0.982733 1.00137 0.982564 0.998803
0.98526 1.003 0.983547 0.998749
1.00385 1.01687 0.988371 0.998818
1.00005 1.00334 0.998123 0.998588
1.00447 1.00838 0.997202 0.998924
1.01174 1.01596 0.996854 0.998994
1.00615 1.00756 1 0.998597
1.01104 1.01221 0.999977 0.998858
1.00929 1.01042 0.999987 0.998892
1.00452 1.00591 1 0.998624
1.00633 1.00754 1 0.998798
1.00519 1.00641 1 0.998787
1.00438 1.0056 1 0.998783
1.00249 1.00382 1 0.998675
1.0039 1.00522 1 0.99869
1.00204 1.00345 1 0.9986
0.999963 1.00138 1 0.998581
0.998722 1.0001 1 0.998618
0.999252 1.00075 1 0.998505
1.00046 1.00203 1 0.99843
0.998976 1 1 0.998976
0.998727 1 1 0.998727
0.998762 1.0002 1 0.998563
0.999439 1 1 0.999439
0.999104 1 1 0.999104
0.998898 1 1 0.998898
0.999966 1 1 0.999966
0.999516 1 1 0.999516
0.999194 1 1 0.999194
1 1 1 1
0.999986 1 1 0.999986
0.999615 1 1 0.999615
1 1 1 1
0.999998 1 1 0.999998
1 1 1 1
0.999173 1 1 0.999173
0.999273 1 1 0.999273
0.999369 1 1 0.999369
0.999304 1 1 0.999304
0.99944 1 1 0.99944
0.999771 1 1 0.999771
0.999508 1 1 0.999508
0.999845 1 1 0.999845
1 1 1 1
1 1 1 1
1 1 1 1
0.999884 1 1 0.999884
1 1 1 1
1 1 1 1
1 1 1 1
0.964251 0.975965 0.995819 0.992146
0.914902 0.941293 0.978123 0.993702
0.94318 0.951691 0.995887 0.995151
0.999154 1 1 0.999154
0.99924 1 1 0.99924
0.999153 1 1 0.999153
0.99915 1 1 0.99915
0.999028 1 1 0.999028
0.99913 1 1 0.99913
0.999141 1 1 0.999141
0.999041 1 1 0.999041
0.999122 1 1 0.999122
0.998966 1 1 0.998966
1.00056 1.00173 1 0.998829
0.999252 1.00084 1.00011 0.998303
0.99936 1.00048 1.00006 0.998818
0.999308 1 1 0.999308
0.984957 0.993153 0.994985 0.996746
0.965574 0.975762 0.997795 0.991746
0.903466 0.931524 0.976871 0.992843
0.97383 0.974157 1.00828 0.991459
0.977944 0.983476 0.996186 0.998182
0.99166 0.996841 0.996882 0.997915
0.996282 1.00479 0.992802 0.998724
1.00241 1.00067 1.0031 0.998643
1.00486 1 1.00563 0.999234
0.997844 1.00112 0.997932 0.998792
0.980695 0.986386 0.997683 0.99654
0.957796 0.972821 0.991954 0.992541
0.913046 0.939949 0.97732 0.993921
0.987126 1.00253 0.985469 0.999155
0.99806 0.995743 1.00535 0.996989
0.960826 0.974653 0.992422 0.99334
0.995932 1.00476 0.992442 0.998763
0.992057 0.996616 0.99777 0.997651
1.01093 1.01974 0.992777 0.99857
1.00859 1.0145 0.995614 0.998548
0.987989 1.00254 0.986762 0.998709
1.00543 1.01661 0.990178 0.998813
1.0132 1.01929 0.995208 0.998804
1.00314 1.00717 0.997077 0.998916
1.01192 1.0156 0.997381 0.998984
1.01058 1.01302 0.998793 0.998796
1.01142 1.01264 0.99995 0.998845
1.00871 1.00987 0.999975 0.99888
1.00675 1.00807 1 0.998694
1.00638 1.0076 1 0.998786
1.00485 1.00606 1 0.998794
1.00364 1.00502 1 0.998631
1.00447 1.00566 1 0.998811
1.00234 1.00365 1 0.998692
0.999804 1.00121 1 0.998594
1.00195 1.00336 1 0.998595
0.999891 1.00132 1 0.998576
0.998652 1.00001 1 0.998641
0.998834 1 1 0.998834
0.998722 1.00008 1 0.998637
0.999224 1.00073 1 0.998499
0.999338 1 1 0.999338
0.998975 1 1 0.998975
0.998747 1 1 0.998747
0.999922 1 1 0.999922
0.999438 1 1 0.999438
0.999101 1 1 0.999101
1 1 1 1
0.999956 1 1 0.999956
0.999518 1 1 0.999518
1 1 1 1
0.999979 1 1 0.999979
1 1 1 1
0.999066 1 1 0.999066
0.999183 1 1 0.999183
0.999289 1 1 0.999289
0.999273 1 1 0.999273
0.999359 1 1 0.999359
0.999671 1 1 0.999671
0.999424 1 1 0.999424
0.999772 1 1 0.999772
1 1 1 1
0.999846 1 1 0.999846
1 1 1 1
1 1 1 1
1 1 1 1
1 1 1 1
1 1 1 1
0.977754 0.986272 0.994496 0.996851
0.958447 0.973629 0.992458 0.991887
0.912347 0.940552 0.976915 0.992934
0.998865 1 1 0.998865
0.999161 1 1 0.999161
0.999154 1 1 0.999154
0.999122 1 1 0.999122
0.99902 1 1 0.99902
0.99913 1 1 0.99913
0.999 1 1 0.999
0.9991 1 1 0.9991
0.999001 1 1 0.999001
0.999897 1.00106 1 0.998838
1.0007 1.00229 1 0.998418
1.00382 1.0058 0.999965 0.998069
0.999796 1.00139 1.00013 0.998281
0.999809 1.00095 1 0.998858
1.00076 1.00646 0.995281 0.999052
0.9862 0.994737 0.995226 0.996174
0.969606 0.977592 0.999066 0.992759
0.990909 0.996295 0.997768 0.996819
1.00124 1.00655 0.995881 0.998839
1.00116 1.0002 1.00222 0.998741
1.00468 1.00668 0.999289 0.99872
0.980339 0.985325 0.997419 0.997514
0.955323 0.973004 0.989695 0.992051
0.989356 1.00296 0.987651 0.998773
0.991325 0.996224 0.997992 0.997084
1.01071 1.0201 0.992218 0.998568
1.00825 1.01257 0.99709 0.998639
1.01823 1.02383 0.995981 0.998538
1.01323 1.01609 0.998702 0.998479
1.00694 1.01613 0.992144 0.998807
1.01447 1.02043 0.995339 0.998814
1.00868 1.01218 0.99788 0.998657
1.01199 1.01515 0.997917 0.998975
1.01171 1.01381 0.999127 0.998794
1.00756 1.00912 0.999891 0.998559
1.00819 1.00937 0.999968 0.998868
1.00658 1.00788 1 0.998714
1.00565 1.00716 1 0.998502
1.00453 1.00573 1 0.998802
1.00337 1.00475 1 0.998631
1.00094 1.00241 1 0.998529
1.00219 1.00349 1 0.998709
0.999981 1.00138 1 0.9986
0.998672 1.00008 1 0.998596
0.999812 1.00124 1 0.998571
0.998655 1.00003 1 0.998627
0.998789 1 1 0.998789
0.999233 1 1 0.999233
0.998854 1 1 0.998854
0.998722 1.00007 1 0.998656
0.999864 1 1 0.999864
0.999337 1 1 0.999337
0.998974 1 1 0.998974
1 1 1 1
0.999912 1 1 0.999912
0.999437 1 1 0.999437
1 1 1 1
0.999945 1 1 0.999945
1 1 1 1
0.998905 1 1 0.998905
0.999068 1 1 0.999068
0.999202 1 1 0.999202
0.999194 1 1 0.999194
0.999295 1 1 0.999295
0.999577 1 1 0.999577
0.999348 1 1 0.999348
0.999671 1 1 0.999671
0.999995 1 1 0.999995
0.999773 1 1 0.999773
1 1 1 1
1 1 1 1
1 1 1 1
1 1 1 1
1 1 1 1
1.00591 1.01004 0.99681 0.999093
0.977786 0.987351 0.994561 0.995728
0.962152 0.972863 0.996687 0.992279
0.998922 1 1 0.998922
0.999417 1.00082 1 0.998594
0.998888 1 1 0.998888
0.999115 1 1 0.999115
0.999012 1 1 0.999012
0.999095 1 1 0.999095
1.00132 1.00278 1 0.998546
0.999036 1 1 0.999036
0.999088 1.00024 1 0.998848
1.0008 1.00235 1 0.998452
1.00437 1.00631 1 0.998073
1.01066 1.01297 0.999339 0.998377
1.00272 1.0047 0.999957 0.998073
1.00027 1.00201 1 0.998259
1.00371 1.00906 0.995591 0.999107
0.984803 0.993832 0.995418 0.995475
1.00403 1.00773 0.997371 0.998956
1.01193 1.0134 0.999655 0.998892
1.00319 1.00539 0.999039 0.998774
0.977177 0.98512 0.995678 0.996243
1.01037 1.02069 0.991309 0.998567
1.0072 1.01056 0.99794 0.998731
1.01744 1.02396 0.995052 0.998574
1.01501 1.01753 0.999027 0.998501
1.01005 1.01455 0.997029 0.998539
1.01718 1.0187 0.999863 0.998639
1.01559 1.02169 0.995204 0.998823
1.00857 1.01225 0.997697 0.998662
1.00914 1.01179 0.998903 0.998469
1.01277 1.01452 0.999481 0.998791
1.00755 1.00904 0.999962 0.998564
1.0078 1.00941 1 0.998407
1.00638 1.00765 1 0.998733
1.00544 1.00695 1 0.9985
1.00319 1.00478 1 0.998419
1.0031 1.00447 1 0.998632
1.0012 1.00267 1 0.998528
0.99887 1.00034 1 0.998526
1.00016 1.00156 1 0.998606
0.998716 1.00012 1 0.998597
0.998735 1 1 0.998735
0.998655 1.00004 1 0.998614
0.998781 1 1 0.998781
0.999153 1 1 0.999153
0.999806 1 1 0.999806
0.999232 1 1 0.999232
0.998874 1 1 0.998874
1 1 1 1
0.999854 1 1 0.999854
0.999336 1 1 0.999336
1 1 1 1
0.999902 1 1 0.999902
1 1 1 1
0.998685 1 1 0.99868
0.998883 1 1 0.998883
0.999062 1 1 0.999062
0.999071 1 1 0.999071
0.999204 1 1 0.999204
0.999492 1 1 0.999492
0.999301 1 1 0.999301
0.999576 1 1 0.999576
0.999971 1 1 0.999971
0.999671 1 1 0.999671
0.999997 1 1 0.999997
1 1 1 1
1 1 1 1
1 1 1 1
1 1 1 1
1.01069 1.01309 0.998902 0.998729
1.00486 1.00926 0.996672 0.998964
0.977061 0.986214 0.994225 0.996473
1.00182 1.00327 1 0.998554
0.999048 1 1 0.999048
1.00307 1.00466 1 0.998416
0.999344 1.00076 1 0.998581
0.998912 1 1 0.998912
1.00869 1.01053 1 0.998178
0.999061 1 1 0.999061
1.0013 1.00279 1 0.998509
1.01085 1.01266 1 0.998209
1.0009 1.00242 1 0.998485
1.00497 1.00693 1 0.99805
1.00882 1.01098 0.999484 0.998379
1.0012 1.00313 1 0.998075
1.00601 1.01099 0.995904 0.999165
1.01678 1.01806 1 0.998742
1.0118 1.01335 0.999577 0.998889
1.00219 1.00409 0.999283 0.998826
1.01698 1.02427 0.994266 0.99861
1.01672 1.01893 0.99931 0.998522
1.01083 1.01506 0.997277 0.998548
1.01767 1.01931 0.999748 0.998648
1.01615 1.01776 0.999868 0.998548
1.00847 1.0123 0.997552 0.998667
1.0093 1.01154 0.999304 0.998475
1.01034 1.01198 1 0.99838
1.00755 1.009 1 0.998568
1.00738 1.009 1 0.998397
1.00592 1.00761 1 0.998325
1.00524 1.00676 1 0.998499
1.00325 1.00484 1 0.998417
0.99944 1.00101 1 0.998431
1.00145 1.00293 1 0.998528
0.999031 1.00051 1 0.998526
0.998652 1 1 0.998652
0.99876 1.00016 1 0.998598
0.998736 1 1 0.998736
0.999083 1 1 0.999083
0.998774 1 1 0.998774
0.999152 1 1 0.999152
0.999787 1 1 0.999787
0.999966 1 1 0.999966
0.999807 1 1 0.999807
0.999232 1 1 0.999232
1 1 1 1
0.999844 1 1 0.999844
1 1 1 1
1.00401 1.00557 1 0.998457
0.999095 1.00052 1 0.998572
0.998662 1 1 0.998658
0.998922 1 1 0.998922
0.998861 1 1 0.998861
0.999066 1 1 0.999066
0.999404 1 1 0.999404
0.999207 1 1 0.999207
0.999493 1 1 0.999493
0.999929 1 1 0.999929
0.999576 1 1 0.999576
0.99998 1 1 0.99998
1 1 1 1
0.999999 1 1 0.999999
1 1 1 1
1 1 1 1
1.0153 1.01679 1 0.998531
1.01422 1.01634 0.999119 0.998797
1.00518 1.00962 0.996766 0.998834
1.00871 1.01046 1 0.998264
1.00105 1.00243 1 0.998628
0.999173 1 1 0.999173
1.00343 1.005 1 0.99844
0.999259 1.00069 1 0.998567
1.01495 1.0168 1 0.998177
1.00829 1.01016 1 0.998148
1.00134 1.00287 1 0.99847
1.01141 1.01323 1 0.998202
1.00633 1.00832 1 0.998027
1.00897 1.01108 0.999533 0.998382
1.0188 1.0202 1 0.99863
1.01712 1.01841 1 0.998737
1.01215 1.01364 0.999639 0.998886
1.01158 1.01559 0.997498 0.998557
1.01846 1.02015 0.999689 0.998657
1.01629 1.01823 0.999534 0.998561
1.01545 1.01706 1 0.998425
1.00953 1.01135 0.999719 0.99848
1.00985 1.0115 1 0.998375
1.00907 1.01079 1 0.998299
1.00696 1.00859 1 0.998388
1.00588 1.00756 1 0.998325
1.00077 1.00243 1 0.998347
1.00332 1.00491 1 0.998415
0.999758 1.00133 1 0.99843
0.998563 1 1 0.998563
0.999193 1.00067 1 0.998526
0.998652 1 1 0.998652
0.999001 1 1 0.999001
0.998737 1 1 0.998737
0.999082 1 1 0.999082
0.99977 1 1 0.99977
0.999152 1 1 0.999152
0.999781 1 1 0.999781
0.999962 1 1 0.999962
0.999983 1 1 0.999983
0.999807 1 1 0.999807
1 1 1 1
1.00665 1.00838 1 0.998285
0.999438 1.00087 1 0.998567
1.00356 1.00502 1 0.998546
0.998787 1 1 0.998787
0.999225 1.00066 1 0.998569
0.998636 1 1 0.998636
0.998922 1 1 0.998922
0.999295 1 1 0.999295
0.99907 1 1 0.99907
0.999405 1 1 0.999405
0.99988 1 1 0.99988
0.999494 1 1 0.999494
0.999942 1 1 0.999942
1 1 1 1
0.999988 1 1 0.999988
1 1 1 1
1 1 1 1
1.01714 1.01876 1 0.998408
1.0146 1.01609 1 0.998529
1.0159 1.01777 0.999295 0.998862
1.01323 1.01506 1 0.998191
1.00837 1.01012 1 0.998268
1.00029 1.00159 1 0.998703
1.00378 1.00532 1 0.998465
1.01459 1.01645 1 0.998171
1.00772 1.00962 1 0.998117
1.01029 1.01212 1 0.998194
1.0167 1.01824 1 0.998482
1.01844 1.01987 1 0.998598
1.01703 1.01833 0.999993 0.998733
1.01548 1.01714 1 0.998372
1.01632 1.01859 0.999192 0.998575
1.01538 1.01698 1 0.998424
1.01222 1.01391 1 0.998333
1.00937 1.01102 1 0.998371
1.00916 1.01088 1 0.998301
1.00321 1.00493 1 0.998295
1.00582 1.0075 1 0.998325
1.00119 1.00284 1 0.998347
0.998562 1.00008 1 0.998486
1.00007 1.00165 1 0.998428
0.998562 1 1 0.998562
0.998918 1 1 0.998918
0.998652 1 1 0.998652
0.998999 1 1 0.998999
0.999752 1 1 0.999752
0.99908 1 1 0.99908
0.999765 1 1 0.999765
0.999961 1 1 0.999961
0.999777 1 1 0.999777
0.999963 1 1 0.999963
1 1 1 1
1.00817 1.01 1 0.998188
1.00102 1.00264 1 0.99838
1.00676 1.00846 1 0.998316
0.998725 1 1 0.998725
0.999447 1.00088 1 0.998564
1.00312 1.00449 1 0.998633
0.999158 1 1 0.999158
0.998784 1 1 0.998784
0.999371 1.00081 1 0.998566
0.998923 1 1 0.998923
0.999297 1 1 0.999297
0.999822 1 1 0.999822
0.999407 1 1 0.999407
0.99989 1 1 0.99989
1 1 1 1
0.999954 1 1 0.999954
1 1 1 1
1 1 1 1
1.0153 1.017 1 0.998333
1.01724 1.01888 1 0.99839
1.01519 1.01669 1 0.998527
1.01298 1.01481 1 0.998193
1.00805 1.0098 1 0.998271
1.01457 1.01644 1 0.998164
1.01467 1.01633 1 0.998372
1.0168 1.01835 1 0.998478
1.0181 1.01956 1 0.998567
1.01581 1.01746 1 0.998379
1.01282 1.01454 1 0.998308
1.01526 1.01686 1 0.998424
1.01226 1.01396 1 0.998324
1.00554 1.00726 1 0.998292
1.00926 1.01097 1 0.998303
1.00337 1.00508 1 0.998297
0.999024 1.00061 1 0.998418
1.00162 1.00327 1 0.998347
0.998682 1.0002 1 0.998485
0.998855 1 1 0.998855
0.998562 1 1 0.998562
0.998917 1 1 0.998917
0.999726 1 1 0.999726
0.998997 1 1 0.998997
0.999746 1 1 0.999746
0.999955 1 1 0.999955
0.999761 1 1 0.999761
0.999964 1 1 0.999964
0.999963 1 1 0.999963
1.01061 1.01235 1 0.998288
1.00226 1.00401 1 0.998251
1.00832 1.01015 1 0.998185
0.998602 1.00003 1 0.998572
1.00075 1.00236 1 0.998392
1.00681 1.00848 1 0.998347
0.999036 1 1 0.999036
0.99869 1 1 0.99869
0.999454 1.00089 1 0.998561
0.999761 1 1 0.999761
0.99916 1 1 0.99916
0.998781 1 1 0.998781
0.999298 1 1 0.999298
0.999831 1 1 0.999831
1 1 1 1
0.999901 1 1 0.999901
1 1 1 1
1 1 1 1
1.01343 1.01514 1 0.998311
1.0151 1.0168 1 0.99833
1.01707 1.01873 1 0.998372
1.01269 1.01453 1 0.998194
1.01303 1.01477 1 0.998281
1.01518 1.01683 1 0.998378
1.01695 1.01851 1 0.998474
1.0161 1.01775 1 0.998387
1.01273 1.01444 1 0.998311
1.00633 1.00805 1 0.998291
1.01232 1.01403 1 0.998315
1.00546 1.00718 1 0.998294
0.999961 1.0016 1 0.998366
1.0035 1.00521 1 0.9983
0.999317 1.0009 1 0.998419
0.998797 1 1 0.998797
0.9988 1.00032 1 0.998484
0.998854 1 1 0.998854
0.999671 1 1 0.999671
0.998915 1 1 0.998915
0.999709 1 1 0.999709
1 1 1 1
0.99974 1 1 0.99974
0.999959 1 1 0.999959
0.999964 1 1 0.999964
1.01045 1.01216 1 0.998314
1.00327 1.005 1 0.998281
1.0105 1.01224 1 0.99829
0.998968 1.00056 1 0.998412
1.00209 1.00383 1 0.998268
1.00851 1.01035 1 0.998183
0.998876 1 1 0.998876
0.998588 1.00002 1 0.99857
1.00051 1.00211 1 0.998404
0.999714 1 1 0.999714
0.999006 1 1 0.999006
0.998654 1 1 0.998654
1 1 1 1
0.999771 1 1 0.999771
0.999162 1 1 0.999162
0.99984 1 1 0.99984
1 1 1 1
1 1 1 1
1.01222 1.01396 1 0.998285
1.01386 1.01556 1 0.99832
1.0149 1.0166 1 0.998327
1.00684 1.00861 1 0.998246
1.01245 1.01419 1 0.998281
1.01569 1.01733 1 0.998385
1.01265 1.01436 1 0.998315
1.00636 1.00808 1 0.998291
1.00067 1.00229 1 0.998384
1.00538 1.0071 1 0.998296
1.00018 1.00179 1 0.998395
0.998682 1 1 0.998682
0.999619 1.0012 1 0.99842
0.998796 1 1 0.998796
0.99963 1 1 0.99963
0.998853 1 1 0.998853
0.999668 1 1 0.999668
1 1 1 1
0.999689 1 1 0.999689
0.999975 1 1 0.999975
0.999962 1 1 0.999962
1.00879 1.0105 1 0.998309
1.00355 1.00524 1 0.998317
1.0104 1.01211 1 0.998314
0.999282 1.00087 1 0.998418
1.00353 1.00526 1 0.998282
1.01041 1.01214 1 0.998291
0.998784 1 1 0.998784
0.998908 1.00046 1 0.998449
1.00191 1.00363 1 0.998286
0.999684 1 1 0.999684
0.998864 1 1 0.998864
0.998574 1.00001 1 0.998568
1 1 1 1
0.999723 1 1 0.999723
0.998976 1 1 0.998976
1 1 1 1
0.999781 1 1 0.999781
1 1 1 1
1.00656 1.00831 1 0.99827
1.01186 1.01359 1 0.998285
1.01433 1.01603 1 0.998329
1.00027 1.00192 1 0.998353
1.00683 1.00859 1 0.998253
1.01192 1.01366 1 0.998281
1.0064 1.00813 1 0.998291
1.00067 1.00229 1 0.998383
0.998631 1 1 0.998631
1.00039 1.00197 1 0.998425
0.998711 1 1 0.998711
0.999569 1 1 0.999569
0.998796 1 1 0.998796
0.999627 1 1 0.999627
1 1 1 1
0.999666 1 1 0.999666
1 1 1 1
0.999955 1 1 0.999955
1.00369 1.00537 1 0.998329
1.00886 1.01057 1 0.99831
0.999056 1.00064 1 0.998419
1.00351 1.0052 1 0.998317
1.01034 1.01205 1 0.998315
0.99879 1 1 0.99879
0.999241 1.00083 1 0.998416
1.00378 1.0055 1 0.998283
0.999657 1 1 0.999657
0.998804 1 1 0.998804
0.998836 1.00035 1 0.998487
1 1 1 1
0.99969 1 1 0.99969
0.998852 1 1 0.998852
1 1 1 1
0.999731 1 1 0.999731
1 1 1 1
0.999825 1.00144 1 0.998383
1.00642 1.00817 1 0.998271
1.01142 1.01316 1 0.998284
0.998613 1 1 0.998613
1.00027 1.00192 1 0.998353
1.00677 1.00853 1 0.998259
1.00066 1.00228 1 0.998383
0.998636 1 1 0.998636
0.999516 1 1 0.999516
0.998739 1 1 0.998739
0.999566 1 1 0.999566
1 1 1 1
0.999624 1 1 0.999624
1 1 1 1
1 1 1 1
0.998974 1.00057 1 0.998405
1.0035 1.00519 1 0.998325
1.00893 1.01064 1 0.99831
0.998765 1 1 0.998765
0.999173 1.00076 1 0.998417
1.00346 1.00515 1 0.998316
0.999625 1 1 0.999625
0.998789 1 1 0.998789
0.999217 1.0008 1 0.998413
1 1 1 1
0.99966 1 1 0.99966
0.998825 1 1 0.998825
1 1 1 1
0.999695 1 1 0.999695
1 1 1 1
0.998677 1 1 0.998677
0.999807 1.00146 1 0.998354
1.00632 1.00806 1 0.998272
0.999498 1 1 0.999498
0.998614 1 1 0.998614
1.00027 1.00192 1 0.998353
0.998641 1 1 0.998641
0.999514 1 1 0.999514
1 1 1 1
0.999562 1 1 0.999562
1 1 1 1
1 1 1 1
0.998724 1 1 0.998724
0.99899 1.0006 1 0.998394
1.00334 1.00503 1 0.998321
0.999637 1 1 0.999637
0.998763 1 1 0.998763
0.999293 1.00088 1 0.998415
1 1 1 1
0.999626 1 1 0.999626
0.998788 1 1 0.998788
1 1 1 1
0.999664 1 1 0.999664
1 1 1 1
0.999498 1 1 0.999498
0.998655 1 1 0.998655
0.99979 1.00147 1 0.998325
1 1 1 1
0.999498 1 1 0.999498
0.998615 1 1 0.998615
0.999512 1 1 0.999512
1 1 1 1
1 1 1 1
0.999591 1 1 0.999591
0.998724 1 1 0.998724
0.998998 1.00062 1 0.998383
1 1 1 1
0.99959 1 1 0.99959
0.998761 1 1 0.998761
1 1 1 1
0.999628 1 1 0.999628
1 1 1 1
0.99988 1 1 0.99988
0.99954 1 1 0.99954
0.998633 1 1 0.998633
1 1 1 1
0.999498 1 1 0.999498
1 1 1 1
0.999898 1 1 0.999898
0.999572 1 1 0.999572
0.998724 1 1 0.998724
0.999954 1 1 0.999954
0.999588 1 1 0.999588
1 1 1 1
1 1 1 1
0.999511 1 1 0.999511
1 1 1 1
0.999945 1 1 0.999945
0.999546 1 1 0.999546
1 1 1 1
1 1 1 1
1 1 1 1

VECTORS lamdaE float
0.999549 1.00024 0.99584
0.999486 0.99994 0.998228
0.999352 1.00044 0.995954
0.999846 0.999918 0.995764
0.999645 1.00007 0.995909
0.999467 1.00021 0.995895
1.00064 1.00063 0.993286
0.999467 0.999816 0.998282
0.999488 1.0003 0.998246
0.999178 1.00039 0.998361
0.999518 0.999533 0.996561
1.00031 1.00095 0.993164
0.999934 1.00001 0.995465
0.999644 0.999937 0.995807
0.999169 1.00068 0.996046
0.999696 0.999893 0.995911
0.999308 1.00041 0.996
0.999465 1.00018 0.996027
1.00075 1.00052 0.993244
0.999906 1 0.997919
0.999902 0.999966 0.995603
0.999768 0.999935 0.995874
1.0011 0.99992 0.993196
1.00086 1.00021 0.993335
0.999448 0.999793 0.996262
1.00029 1.00106 0.993396
1.00282 1.00061 0.989537
0.999433 0.999703 0.998349
0.999594 1.00016 0.996986
0.999315 1.00031 0.99714
0.999471 0.999355 0.998458
1.0002 1.00107 0.993177
0.999838 0.99989 0.995692
0.999574 1.00044 0.995777
1.00118 1.00021 0.993465
0.99934 0.998752 0.998835
1.00066 1.00081 0.993799
1.00006 1.00084 0.99369
1.0015 1.00207 0.989924
0.999425 0.998064 0.999065
0.999932 1 0.997892
0.999761 0.999981 0.996881
0.999945 1 0.997873
0.99965 1.00002 0.995777
1.0014 1.00005 0.991998
0.99968 0.999966 0.998194
1.0014 1.00003 0.993251
0.999545 0.999841 0.996059
0.999298 1.00029 0.996132
0.999119 1.00069 0.996114
1.00085 1.00039 0.993214
0.99983 1.00001 0.996795
0.999744 0.999953 0.995766
0.999315 0.999941 0.996366
0.999609 0.999951 0.996007
1.00117 0.999881 0.993142
1.00039 1.00099 0.993379
1.00095 1.00012 0.993289
1.00282 1.00065 0.989516
0.999911 1 0.997902
0.99995 1.00001 0.995481
1.00129 1.00001 0.993373
1.00116 0.999976 0.993017
1.00102 0.999966 0.993289
1.00339 0.999833 0.989242
1.00314 1.00004 0.989235
0.999543 0.999063 0.996791
0.999717 1.00122 0.994102
1.00209 1.00149 0.989907
1.00393 1.00034 0.987191
0.999707 1.00017 0.998052
0.999438 0.99915 0.998587
0.999432 1.00011 0.998202
1.00012 1.00115 0.993187
0.999857 1 0.998024
0.999604 1.00032 0.99808
1.00109 1.00017 0.992385
0.999394 0.99883 0.997967
1.00047 1.0009 0.992813
0.99996 1.00087 0.994269
1.0015 1.00203 0.98992
0.99946 0.998394 0.998891
0.999587 0.999384 0.996015
1.00131 0.999922 0.992292
1.00093 1.00051 0.992458
1.00338 1.00017 0.988313
0.999777 1.00042 0.99545
1.00221 1.00136 0.989325
1.00084 1.00266 0.990574
1.00225 1.00231 0.988206
0.999443 0.997737 0.999176
0.999392 0.998001 0.999109
0.999886 0.999969 0.997978
0.999918 1 0.997911
0.999949 1 0.997879
0.999778 0.999997 0.996846
1.00142 1.00004 0.992605
0.99977 0.999954 0.996915
1.00135 1.00005 0.99272
0.999956 1 0.997874
1.00139 0.999995 0.992046
1.00142 1.00009 0.993188
1.00372 0.999871 0.988022
1.00137 0.99994 0.993361
1.00364 0.999922 0.988137
0.999912 1.00002 0.99551
0.999581 0.99992 0.995933
0.999172 1.00008 0.996495
0.999454 0.999959 0.996134
1.00123 0.99987 0.993087
1.00104 1.00003 0.993251
1.0005 1.00084 0.993357
1.00283 1.00069 0.989494
0.999943 1 0.997885
0.999781 1 0.99565
1.00137 0.999993 0.992402
1.00123 0.99995 0.99296
0.99944 0.999157 0.997679
0.999922 1.0011 0.994238
1.0011 0.999915 0.99324
1.00341 0.999815 0.989105
1.00214 1.00156 0.989822
1.00313 1.00011 0.989339
1.0039 1.00036 0.987211
1.00137 1.00002 0.99207
1.00125 0.999989 0.992851
1.00367 0.999768 0.988532
1.00346 0.999832 0.988831
1.00333 0.9998 0.989107
1.00453 0.999516 0.987199
0.999503 0.998589 0.998784
1.00423 0.999801 0.987204
0.999708 1.00085 0.994232
1.00099 1.00233 0.99042
1.00327 1.0016 0.987253
1.00465 0.99978 0.986434
0.99973 0.99995 0.99511
1.00017 1.002 0.992345
0.99983 1.00004 0.998031
0.999523 1.00026 0.998114
1.00109 1.00015 0.992392
0.999422 0.998649 0.998826
0.999817 1.00102 0.993853
1.0004 1.00097 0.992819
1.0015 1.002 0.989917
0.999416 0.998335 0.998957
0.999593 0.999307 0.996053
1.00131 0.999954 0.992856
1.00088 1.00052 0.993052
1.00339 1.00017 0.988316
0.999707 1.00041 0.994751
1.0022 1.00134 0.989342
1.0008 1.00266 0.990578
1.00226 1.0023 0.988146
0.999608 0.999934 0.995422
0.999671 0.99884 0.996422
1.00003 1.00142 0.993176
1.00358 0.999966 0.988162
1.00288 1.00072 0.988698
1.0045 0.999941 0.98651
1.00045 1.00255 0.991393
1.00315 1.0013 0.98749
1.00143 1.00344 0.988779
1.00249 1.00239 0.987774
0.999519 0.997441 0.999227
0.999435 0.997682 0.999195
0.999367 0.997939 0.999146
0.999742 0.999542 0.995516
0.999521 0.99829 0.99891
0.999883 0.999971 0.998005
0.999886 0.999986 0.997948
1.0013 1.00006 0.992177
1.00136 1.00005 0.992062
0.999928 1 0.99789
0.999945 1 0.997874
1.00138 1 0.992045
1.00136 1.00008 0.992661
1.00372 0.999871 0.988021
1.0013 0.999948 0.99225
1.00363 0.999924 0.988133
1.00139 0.999995 0.99204
1.00376 0.99981 0.988006
1.00365 0.999923 0.988095
1.00478 0.999407 0.986571
1.00364 0.999916 0.988125
1.00472 0.999597 0.986511
0.999944 1 0.997874
0.999615 1 0.995822
1.00137 0.999987 0.991509
1.0013 0.999943 0.9929
0.999264 0.999177 0.998682
1.00015 1.00096 0.994363
1.00117 0.999878 0.993193
1.00342 0.999786 0.988968
1.00313 1.00017 0.989444
1.00219 1.00166 0.989736
1.00387 1.00038 0.98723
1.00137 1 0.992068
1.00132 0.999991 0.992783
1.00367 0.999755 0.988251
1.00349 0.999869 0.988921
0.9995 0.998663 0.998737
0.999811 1.00075 0.994626
1.0011 1.00238 0.990538
1.00332 0.999836 0.9891
1.00453 0.999434 0.987065
1.00316 1.00159 0.987243
1.00422 0.999842 0.987311
1.00461 0.9998 0.986448
0.999721 0.999997 0.995101
1.0002 1.00193 0.992348
1.00374 0.999783 0.988055
1.00362 0.999823 0.988578
1.00475 0.99942 0.986889
1.0046 0.999408 0.986798
1.00443 0.999538 0.987274
1.00501 0.998958 0.986701
0.999719 1.00039 0.994667
1.00483 0.999202 0.98664
1.00048 1.00254 0.991167
1.00194 1.0028 0.988045
1.00404 1.00141 0.986336
1.00499 0.999088 0.9865
1.00029 1.00226 0.991902
1.00015 1.00147 0.992897
1.00047 1.00295 0.990916
1.00126 0.999936 0.992329
0.999376 0.998271 0.999018
0.999596 0.999228 0.996091
1.00075 1.0006 0.992549
1.00339 1.00018 0.988318
0.999674 1.00044 0.994701
1.00075 1.00266 0.990582
1.00217 1.00133 0.989359
1.00227 1.00227 0.988087
0.999607 0.999863 0.995451
0.999666 0.998802 0.996445
0.999988 1.00147 0.99319
1.00358 0.999978 0.988165
1.00288 1.00071 0.988711
1.00452 0.999928 0.986495
1.00039 1.00258 0.991401
1.00319 1.00134 0.987499
1.00141 1.00343 0.988762
1.0025 1.00231 0.987778
0.99977 0.998457 0.996621
1.00021 1.00205 0.992239
0.999975 1.00067 0.994021
1.0002 1.00277 0.991601
1.00468 0.999752 0.986419
1.00397 1.00059 0.986823
1.00502 0.999775 0.985752
1.00081 1.00362 0.989763
1.00378 1.00092 0.986955
1.00158 1.00405 0.987741
1.00293 1.00177 0.987428
1.00025 0.999571 0.994655
0.999939 0.998025 0.996732
0.999621 0.997179 0.999251
0.999527 0.997385 0.999236
0.999432 0.997615 0.999212
0.999789 0.999169 0.995815
0.999524 0.998041 0.999007
0.999734 0.999594 0.995494
0.999535 0.998334 0.998868
1.0013 0.999965 0.992246
1.00132 1.00006 0.992114
1.00363 0.999928 0.988128
1.00372 0.99987 0.98802
1.00139 1.00001 0.992045
0.999959 1 0.99787
1.00139 0.999997 0.992039
1.00376 0.999815 0.988004
1.00365 0.999929 0.988093
1.00478 0.999409 0.986564
1.00364 0.999926 0.988119
1.00472 0.9996 0.986504
1.00376 0.999797 0.988026
1.00481 0.999314 0.986606
1.00473 0.999526 0.986559
1.00512 0.998709 0.986646
1.00474 0.99966 0.986415
1.00511 0.999005 0.986366
1.00138 0.999991 0.992065
1.00138 0.99998 0.992714
1.00368 0.99973 0.987971
1.00351 0.999897 0.989011
0.999501 0.998738 0.998685
0.999921 1.00071 0.99497
1.00126 1.0024 0.990654
1.00331 0.999864 0.989092
1.00453 0.999349 0.986932
1.00422 0.999883 0.987418
1.00304 1.00159 0.987232
1.00458 0.999818 0.986462
0.999715 1.00004 0.995092
1.00023 1.00187 0.99235
1.00374 0.99975 0.987973
1.00363 0.999812 0.988567
1.00476 0.999371 0.986886
1.00461 0.999479 0.986925
0.999743 1.00039 0.994667
1.00057 1.00252 0.991147
1.00192 1.0028 0.988208
1.00444 0.999577 0.98729
1.00501 0.998869 0.986721
1.00399 1.00133 0.986223
1.00483 0.999212 0.986647
1.00499 0.999105 0.986469
1.00031 1.00219 0.991912
1.00042 1.00296 0.990934
1.00016 1.00147 0.992886
1.00479 0.999382 0.98684
1.00474 0.999406 0.986843
1.00513 0.99877 0.986675
1.00507 0.998896 0.986563
1.00494 0.998897 0.986707
1.00516 0.998138 0.987168
1.00035 1.00238 0.991637
1.00507 0.998638 0.986746
1.00113 1.00304 0.989606
1.00261 1.00326 0.986367
1.00451 1.00072 0.985946
1.00513 0.998615 0.986778
1.00016 1.00102 0.993342
1.00064 1.0027 0.990833
1.00028 1.00288 0.991237
1.00065 1.00314 0.9905
1.00358 0.999985 0.988167
0.999657 0.998775 0.996468
0.999608 0.999795 0.99548
0.999972 1.0015 0.993204
1.00287 1.0007 0.988724
1.00454 0.999917 0.986481
1.00033 1.00263 0.99141
1.00138 1.00345 0.988744
1.00325 1.00139 0.98751
1.0025 1.00224 0.987783
0.999764 0.998444 0.996629
1.00019 1.0021 0.99224
0.999983 1.00064 0.994041
1.00015 1.00284 0.991592
1.00468 0.999748 0.986413
1.00398 1.0006 0.986828
1.00502 0.999778 0.985735
1.00077 1.0036 0.989778
1.00378 1.00099 0.986973
1.00162 1.00411 0.987686
1.00285 1.00152 0.987838
0.999865 0.998198 0.9967
1.00007 1.00008 0.994473
1.00048 1.00321 0.99073
1.00014 1.00197 0.992482
1.00012 1.0038 0.990733
1.00505 0.999504 0.985947
1.00465 1.00028 0.985995
1.0051 0.99961 0.985744
1.00095 1.00467 0.988415
1.00398 1.00054 0.986863
1.00213 1.00338 0.986876
1.00021 0.999634 0.994657
1.00024 1.00067 0.993597
1.00028 0.999541 0.994632
1.00024 0.999587 0.994651
0.999983 0.997845 0.997249
0.999926 0.998015 0.996981
0.99978 0.996997 0.998284
0.999634 0.997137 0.999256
0.999538 0.997332 0.999244
0.999848 0.998878 0.996009
0.999554 0.997821 0.999068
0.999784 0.999216 0.995795
0.999543 0.998079 0.998977
0.999727 0.999646 0.995473
0.99955 0.998385 0.998824
1.00364 0.999933 0.988113
1.00365 0.999935 0.988091
1.00471 0.999613 0.986498
1.00478 0.999411 0.986558
1.00376 0.999821 0.988002
1.00139 1 0.992038
1.00376 0.999794 0.988025
1.00481 0.999316 0.986604
1.00472 0.999538 0.986551
1.00513 0.998647 0.986719
1.00473 0.999662 0.986409
1.0051 0.999026 0.986361
1.00481 0.999294 0.986634
1.00513 0.99854 0.986847
1.00511 0.998831 0.986538
1.00515 0.997938 0.987383
1.0051 0.999253 0.98614
1.00516 0.997935 0.987331
1.00373 0.999718 0.987891
1.00365 0.999812 0.988555
1.00476 0.999327 0.986883
1.00462 0.99955 0.987052
0.999771 1.00039 0.994666
1.0006 1.00254 0.991128
1.00191 1.00281 0.988371
1.00444 0.999615 0.987306
1.00501 0.998779 0.986741
1.00483 0.999222 0.986655
1.00393 1.00124 0.986109
1.00499 0.999115 0.986438
1.00033 1.00213 0.991923
1.0004 1.00294 0.990951
1.00017 1.00146 0.992875
1.00479 0.999349 0.986743
1.00475 0.999401 0.986834
1.00513 0.998667 0.986737
1.00507 0.998928 0.986584
1.00039 1.00234 0.991634
1.0012 1.00302 0.989569
1.00248 1.00339 0.98661
1.00495 0.998994 0.986713
1.00515 0.998007 0.987303
1.00452 1.00059 0.985853
1.00506 0.998636 0.98677
1.00512 0.998574 0.986829
1.00067 1.0027 0.99084
1.00064 1.00317 0.990451
1.00017 1.00102 0.993332
1.00024 1.00284 0.991316
1.00512 0.998679 0.986723
1.00514 0.998817 0.986687
1.00518 0.998104 0.987144
1.00518 0.997753 0.987516
1.00511 0.998246 0.987146
1.00517 0.997207 0.988057
1.00084 1.00265 0.990532
1.00512 0.997801 0.987451
1.00124 1.00393 0.988169
1.00342 1.00321 0.985404
1.00494 0.999849 0.985873
1.00514 0.998306 0.98698
1.00018 1.0007 0.993636
1.00019 1.00247 0.991785
1.0008 1.00286 0.990416
1.00037 1.00344 0.99064
1.00078 1.00299 0.990383
0.999757 0.998434 0.996636
1.00467 0.999745 0.986407
0.999992 1.0006 0.994061
1.00014 1.00217 0.992242
1.00011 1.00292 0.991584
1.00399 1.0006 0.986831
1.00501 0.999781 0.985718
1.00077 1.00351 0.989794
1.00168 1.0042 0.987631
1.0038 1.00105 0.98699
1.00277 1.00128 0.988244
0.999858 0.998198 0.996702
1.00007 1.00005 0.994483
1.00046 1.0032 0.990739
1.0001 1.00203 0.99249
1.00009 1.0039 0.990622
1.00507 0.999512 0.985921
1.00459 1.00029 0.986004
1.0051 0.999629 0.985711
1.00089 1.00475 0.988431
1.00399 1.00057 0.986919
1.00232 1.00326 0.986956
1.00016 0.999773 0.994623
1.00018 1.00123 0.993167
1.00054 1.00422 0.989613
0.999984 1.00324 0.991523
1.00021 1.00432 0.990167
1.00513 0.998949 0.986346
1.00477 1 0.985848
1.00509 0.998583 0.986555
1.00104 1.00496 0.987789
1.00362 1.00158 0.986401
1.00021 0.999649 0.994654
1.00023 1.00067 0.993537
1.00023 1.00067 0.993562
1.00017 1.00137 0.993139
1.00025 1.00071 0.993564
1.00029 0.999566 0.994585
1.00027 0.999553 0.99463
1.00005 0.997719 0.99725
1.00024 0.999602 0.994647
0.999992 0.997842 0.997249
0.999886 0.996766 0.998309
0.999914 0.998008 0.997225
0.999753 0.99695 0.998777
0.999648 0.997095 0.99926
0.999913 0.998615 0.996165
0.999847 0.998905 0.995996
0.999609 0.997601 0.99911
0.999565 0.997852 0.99905
0.999777 0.999263 0.995775
0.999562 0.998111 0.998943
1.00472 0.999663 0.986402
1.00472 0.999542 0.986543
1.0051 0.999044 0.986357
1.00514 0.998584 0.986792
1.00481 0.999317 0.986603
1.00376 0.999792 0.988024
1.00481 0.999293 0.986636
1.00512 0.998547 0.986852
1.00511 0.998841 0.986536
1.00515 0.997834 0.987518
1.0051 0.999265 0.986123
1.00517 0.997826 0.987428
1.00511 0.998578 0.986854
1.00513 0.997946 0.987429
1.00515 0.997674 0.987667
1.00511 0.997261 0.988162
1.00515 0.998293 0.986948
1.00514 0.997118 0.988281
1.0048 0.999313 0.986645
1.00475 0.999402 0.986825
1.00512 0.998563 0.986798
1.00507 0.998957 0.986606
1.00044 1.00231 0.991631
1.00127 1.00301 0.989533
1.00234 1.00348 0.986853
1.00495 0.999091 0.986719
1.00514 0.997874 0.987437
1.00505 0.998635 0.986793
1.00453 1.00047 0.98576
1.00511 0.998543 0.986879
1.00066 1.00274 0.990847
1.00059 1.00325 0.990402
1.00018 1.00103 0.993323
1.00022 1.00278 0.991395
1.00511 0.998684 0.986725
1.00514 0.998852 0.986613
1.00518 0.99806 0.987202
1.00517 0.997842 0.987412
1.00085 1.00272 0.990506
1.00122 1.00387 0.988415
1.00333 1.00332 0.985357
1.0051 0.99835 0.987034
1.00516 0.997073 0.98816
1.00496 0.999732 0.985867
1.00511 0.997817 0.987473
1.00515 0.9982 0.987003
1.00083 1.00287 0.990411
1.00079 1.00298 0.990395
1.00032 1.00352 0.990628
1.00017 1.0007 0.993559
1.00018 1.00241 0.991853
1.00515 0.997981 0.987408
1.00518 0.997792 0.987484
1.00516 0.996664 0.98863
1.00511 0.997067 0.988153
1.00088 1.00323 0.989874
1.00512 0.997437 0.987934
1.00125 1.00448 0.987292
1.00428 1.00232 0.98492
1.00515 0.999133 0.985999
1.00017 1.00045 0.993727
1.00018 1.00204 0.992396
1.00017 1.00315 0.991311
1.0009 1.00282 0.990324
1.00044 1.00378 0.990179
1.00096 1.00267 0.990224
0.999851 0.998199 0.996704
1.00008 1.00002 0.994494
1.00509 0.999519 0.985895
1.00006 1.00208 0.992498
1.00041 1.00321 0.990749
1.00005 1.00401 0.990511
1.00452 1.0003 0.986014
1.0051 0.999646 0.985678
1.00083 1.00471 0.988447
1.0025 1.0032 0.987037
1.00401 1.00061 0.986978
1.00015 0.999775 0.994624
1.00016 1.00123 0.993181
1.0005 1.00426 0.989599
0.999947 1.00328 0.991523
1.00017 1.00427 0.990154
1.00513 0.998989 0.986322
1.00481 1.00003 0.985816
1.00509 0.998563 0.986643
1.00105 1.00492 0.987683
1.00367 1.00171 0.986338
1.00022 1.00082 0.993505
0.999961 1.00246 0.992191
1.00063 1.00437 0.989203
0.999922 1.00423 0.990477
1.00047 1.00411 0.989829
1.00511 0.997254 0.987951
1.0049 0.999623 0.98613
1.00506 0.998094 0.987032
1.00195 1.00429 0.987263
1.00391 1.00096 0.985999
1.0002 0.999665 0.994651
1.00024 1.00066 0.993576
1.00009 1.00143 0.993056
1.00022 1.00068 0.993526
1.00024 1.00071 0.993564
1.00013 1.0014 0.993085
1.00006 1.00182 0.992841
1.00013 1.00144 0.992981
1.00024 1.00078 0.99351
1.00027 0.999646 0.994535
1.00028 0.999579 0.994585
1.0001 0.997658 0.997218
1.00027 0.999565 0.994629
1.00006 0.99773 0.997245
0.999961 0.996631 0.998306
1 0.997842 0.997249
0.999874 0.99674 0.998314
0.999723 0.996892 0.99928
0.999971 0.998356 0.996325
0.999914 0.99863 0.996154
0.99968 0.997358 0.999147
0.999845 0.998935 0.995982
0.999612 0.997641 0.999097
0.999578 0.997886 0.99903
1.0051 0.999277 0.986105
1.00512 0.998854 0.986533
1.00517 0.997715 0.987525
1.00515 0.997731 0.987653
1.00512 0.998554 0.986857
1.00481 0.999293 0.986637
1.00511 0.998621 0.986804
1.00514 0.998002 0.987376
1.00515 0.997734 0.987585
1.00511 0.997139 0.988252
1.00515 0.998316 0.986947
1.00514 0.996934 0.988372
1.0051 0.998063 0.987412
1.00512 0.997251 0.988115
1.00511 0.996663 0.988706
1.00513 0.996851 0.98855
1.00511 0.998688 0.986727
1.00514 0.998886 0.986539
1.00519 0.998019 0.987259
1.00517 0.997932 0.987308
1.0009 1.00275 0.990481
1.00121 1.00376 0.988661
1.00323 1.00346 0.985309
1.00509 0.998455 0.986922
1.00516 0.996942 0.988262
1.0051 0.997832 0.987495
1.00498 0.999605 0.985861
1.00515 0.998106 0.987027
1.00086 1.00288 0.990405
1.00084 1.00291 0.990406
1.00027 1.00359 0.990617
1.00017 1.0007 0.993482
1.00017 1.00235 0.991922
1.00515 0.997995 0.987393
1.00518 0.997812 0.987487
1.00516 0.996776 0.988501
1.00095 1.00324 0.989837
1.00141 1.00448 0.98746
1.00416 1.00221 0.984891
1.00512 0.997126 0.988134
1.00515 0.998982 0.98615
1.00512 0.997392 0.987798
1.00017 1.00042 0.993765
1.00095 1.00279 0.990303
1.00091 1.00259 0.990419
1.00045 1.00388 0.990105
1.00018 1.00315 0.991329
1.00017 1.00203 0.992334
1.00514 0.997512 0.987767
1.00517 0.996558 0.988674
1.00512 0.996099 0.989067
1.00513 0.996378 0.988899
1.001 1.00362 0.989313
1.00511 0.997954 0.987269
1.00216 1.0044 0.985922
1.00469 1.0013 0.985089
1.00018 1.00012 0.99404
1.00018 1.00174 0.992702
1.00018 1.00275 0.991768
1.00012 1.0038 0.990689
1.00103 1.00273 0.99006
1.00102 1.00308 0.989796
1.00015 0.999776 0.994625
1.00014 1.00121 0.993196
1.00513 0.99903 0.986298
0.999914 1.00331 0.991524
1.00046 1.00435 0.989585
1.00008 1.00427 0.990141
1.00484 1.00005 0.985784
1.00509 0.998546 0.98673
1.00106 1.0049 0.987577
1.00372 1.00183 0.986275
1.00021 1.00081 0.993514
0.999999 1.00242 0.992231
1.00064 1.00441 0.989225
0.999858 1.0044 0.990464
1.00034 1.00394 0.990132
1.00512 0.997223 0.988129
1.00496 0.999647 0.986009
1.00506 0.998158 0.987043
1.00182 1.0044 0.987137
1.00394 1.00086 0.986255
1.00003 1.00169 0.992845
0.999849 1.00353 0.991187
1.001 1.0041 0.988883
0.999983 1.00477 0.989381
1.00514 0.995794 0.989413
1.00507 0.996936 0.988458
1.005 0.99938 0.986025
1.00256 1.00282 0.986091
1.00025 1.00064 0.993616
1.00009 1.00145 0.993073
0.999934 1.00209 0.992772
1.00023 1.00072 0.993563
1.0001 1.00141 0.99303
1.00024 1.00077 0.993507
1.00005 1.00181 0.99281
1.00014 1.00142 0.993005
1 1.0021 0.992622
1.0001 1.00182 0.992705
1.00016 1.00149 0.992853
1.00024 1.00086 0.993412
1.00024 0.999724 0.994503
1.00027 0.999647 0.994534
1.00013 0.997647 0.997174
1.00028 0.999585 0.994585
1.0001 0.997683 0.99721
1.00002 0.996556 0.998281
1.00006 0.997742 0.997241
0.999954 0.996601 0.998313
0.999865 0.996716 0.998316
1.00003 0.998098 0.996484
0.999975 0.998364 0.996315
0.999758 0.997103 0.999188
0.999914 0.99865 0.996143
0.999677 0.99741 0.999136
0.999616 0.997675 0.999084
1.00514 0.998339 0.986947
1.00514 0.997795 0.987504
1.00515 0.996753 0.988463
1.00511 0.997019 0.988342
1.00514 0.998059 0.987322
1.00511 0.998666 0.986754
1.00511 0.998054 0.987398
1.00511 0.997284 0.988095
1.00511 0.996679 0.988656
1.00513 0.996804 0.988577
1.00511 0.997491 0.987942
1.00514 0.996321 0.989106
1.00514 0.99587 0.989265
1.00516 0.99801 0.987379
1.00518 0.997832 0.98749
1.00515 0.996889 0.988373
1.00101 1.00324 0.989799
1.00158 1.00451 0.987628
1.00403 1.00211 0.984861
1.00512 0.997183 0.988115
1.00513 0.997344 0.987661
1.00516 0.998838 0.9863
1.00099 1.00275 0.990282
1.00084 1.00253 0.990616
1.00047 1.00396 0.99003
1.00017 1.00038 0.993804
1.00018 1.00314 0.991348
1.00017 1.00202 0.992271
1.00514 0.997558 0.987795
1.00517 0.996535 0.988739
1.00512 0.996126 0.989087
1.00103 1.00364 0.989264
1.00201 1.00456 0.98625
1.00468 1.00103 0.985184
1.00512 0.996432 0.988831
1.00511 0.997926 0.987244
1.00017 1.0001 0.994157
1.00018 1.00174 0.992698
1.00092 1.00264 0.990139
1.00098 1.00303 0.99009
1.00016 1.00376 0.990672
1.00015 1.00279 0.991712
1.00519 0.996542 0.988699
1.00513 0.995494 0.989711
1.00511 0.99567 0.989562
1.00507 0.996645 0.988853
1.00101 1.00388 0.988508
1.00489 0.999598 0.986057
1.00319 1.00373 0.985633
1.00019 0.999868 0.994472
1.00014 1.00111 0.993339
1.00015 1.00151 0.992795
1.00011 1.00258 0.991952
1.00003 1.00347 0.991169
1.00006 1.0039 0.99049
1.00152 1.00132 0.990375
1.00089 1.00265 0.991068
1.0002 1.0008 0.993523
1.00003 1.0024 0.992272
1.00512 0.997194 0.988307
0.999883 1.00447 0.990451
1.00063 1.00447 0.989248
1.00019 1.00379 0.990434
1.00502 0.999652 0.985889
1.00505 0.998211 0.987054
1.00168 1.00447 0.987014
1.00395 1.00071 0.986511
1.00005 1.00172 0.992793
0.9999 1.00356 0.991187
1.00091 1.00416 0.988935
1.00019 1.00472 0.989508
1.00514 0.995737 0.989506
1.00506 0.997037 0.988252
1.00492 0.999354 0.986145
1.00294 1.00291 0.986011
0.999879 1.00261 0.992324
1.00514 0.995101 0.989983
1.00003 1.00461 0.990326
1.0011 1.00479 0.98792
1.00507 0.995801 0.989691
1.00498 0.998218 0.986829
1.00421 1.0016 0.985573
1.00009 1.00148 0.99309
0.999933 1.00208 0.99276
0.999819 1.00262 0.992471
1.00024 1.00075 0.993504
1.00014 1.00141 0.99303
1.00001 1.00182 0.992779
1.00025 1.00085 0.993405
1.00016 1.00149 0.992872
0.999979 1.00213 0.992583
1.00012 1.00178 0.992743
1.00004 1.00221 0.992413
1.0001 1.00202 0.992507
1.00016 1.00191 0.992557
1.00027 1.00152 0.992692
1.00025 1.00096 0.993298
1.00022 0.999792 0.994478
1.00024 0.99973 0.994502
1.00015 0.997664 0.997123
1.00027 0.999656 0.994533
1.00013 0.997675 0.997167
1.00006 0.996505 0.998253
1.00011 0.997706 0.997203
1.00002 0.996518 0.998288
0.999946 0.996573 0.998317
1.00017 0.999715 0.994651
1.00007 0.997883 0.996618
1.00003 0.998105 0.996474
0.999835 0.996869 0.999223
0.999978 0.998375 0.996305
0.999751 0.997159 0.999175
0.999675 0.997459 0.999124
1.00513 0.996756 0.988604
1.00511 0.996694 0.988606
1.00509 0.997317 0.988075
1.00512 0.998044 0.987385
1.0051 0.997441 0.988013
1.00514 0.996329 0.989051
1.00514 0.995891 0.989255
1.00518 0.996413 0.988834
1.00519 0.995279 0.989985
1.00508 0.994887 0.990386
1.00514 0.997604 0.987823
1.00517 0.99651 0.988804
1.00512 0.996144 0.989106
1.00105 1.00368 0.989216
1.00186 1.00471 0.986578
1.00466 1.00074 0.985279
1.00511 0.996489 0.988765
1.00511 0.997879 0.987219
1.00082 1.00256 0.990218
1.00095 1.00298 0.990379
1.00011 1.00383 0.990655
1.00018 1.00008 0.994274
1.00019 1.00174 0.992693
1.00012 1.00285 0.991656
1.00519 0.996443 0.988813
1.00019 0.999872 0.99447
1.00013 1.00113 0.993287
1.00512 0.995571 0.989704
1.0051 0.995632 0.989518
1.00086 1.00402 0.98884
1.00307 1.00371 0.985566
1.00479 0.999571 0.986055
1.00499 0.996624 0.988727
1.00016 1.00149 0.992953
1.00012 1.00256 0.991942
1.00166 1.00159 0.99009
1.00056 1.00251 0.991382
1.00005 1.00398 0.990486
1.00004 1.00344 0.9912
1.00518 0.995363 0.989828
1.0051 0.995099 0.990127
1.00508 0.995205 0.989813
1.00505 0.996794 0.988206
1.00134 1.00309 0.989055
1.00382 1.0027 0.985565
1.00012 1.00095 0.993394
1.00015 1.00128 0.993157
1.00006 1.00217 0.992559
1.00007 1.00258 0.991852
1.00002 1.00326 0.991562
1.00005 1.00382 0.990616
0.999635 1.0045 0.990703
1.00091 1.0013 0.991573
1.00007 1.00174 0.992741
0.999956 1.0036 0.991189
1.00514 0.995664 0.989599
1.00506 0.997158 0.988046
1.00037 1.00471 0.989634
1.00085 1.00421 0.988985
1.00486 0.999338 0.986265
1.0033 1.00305 0.985928
0.999883 1.00261 0.992293
1.00515 0.99506 0.990024
0.999905 1.00454 0.990415
1.0011 1.00466 0.987894
1.00507 0.995718 0.98957
1.00494 0.998207 0.98706
1.0041 1.00181 0.985611
0.999833 1.00383 0.991382
1.0049 0.995112 0.991174
1.00066 1.00475 0.989593
1.00215 1.00447 0.98722
1.00484 0.996661 0.988801
1.00391 1.0006 0.98658
0.99963 0.998639 0.992291
0.99993 1.00208 0.992747
0.9998 1.00264 0.992457
0.999961 1.00283 0.992086
1.00025 1.00085 0.993398
1.00015 1.0015 0.992891
1.00014 1.00174 0.992782
0.999967 1.00215 0.992544
1.00025 1.00095 0.993294
1.00025 1.00153 0.992691
1.00004 1.00227 0.992354
1.00015 1.00191 0.992556
1.00011 1.002 0.992532
1.00017 1.00203 0.992397
1.00022 1.00199 0.992331
1.00022 1.00189 0.992458
1.00035 1.00158 0.992482
1.00028 1.00101 0.993102
1.00026 1.00152 0.9928
1.00027 1.00102 0.993106
1.00021 0.999827 0.994455
1.00022 0.999795 0.994478
1.00018 0.997724 0.996574
1.00024 0.999734 0.994501
1.00017 0.997698 0.996863
1.00003 0.996448 0.999249
1.00013 0.997706 0.99716
1.00006 0.996465 0.998259
1.00001 0.996483 0.998292
1.00015 0.99959 0.994803
1.00018 0.999709 0.994649
1.00011 0.997719 0.99673
1.00007 0.997884 0.996866
0.999903 0.996671 0.999255
1.00004 0.998111 0.996465
0.999827 0.996918 0.999213
0.999745 0.997216 0.999162
1.00513 0.995911 0.989244
1.00513 0.996333 0.988996
1.00509 0.997393 0.988084
1.00517 0.996403 0.988828
1.00519 0.995325 0.989866
1.00508 0.994893 0.990305
1.00518 0.994973 0.99014
1.00077 0.998538 0.988472
1.00472 0.994957 0.991944
1.0001 1.00085 0.993674
1.0052 0.996344 0.988928
1.00512 0.995656 0.989696
1.0051 0.995595 0.989474
1.00072 1.00414 0.989172
1.00298 1.0037 0.9855
1.00468 0.999565 0.986054
1.00491 0.99662 0.9886
1.00185 1.00177 0.989813
1.00022 1.00239 0.991706
1.00009 1.00399 0.990484
1.00018 0.999876 0.994468
1.00006 1.00339 0.991231
1.00018 1.00146 0.993111
1.00012 1.00256 0.991931
1.00012 1.00113 0.993236
1.00518 0.995208 0.989962
1.00012 1.00093 0.993488
1.00015 1.00128 0.993156
1.00008 1.00215 0.992451
1.0051 0.995119 0.990129
1.00508 0.995334 0.989665
1.00143 1.00291 0.989119
1.00343 1.00246 0.985743
1.00496 0.997051 0.98818
1.00009 1.00256 0.991922
1.00004 1.00323 0.991483
1.00084 1.00167 0.991279
0.999713 1.00441 0.990822
1.0001 1.00375 0.990675
1.00509 0.994987 0.990448
1.00509 0.995298 0.989984
1.00509 0.995777 0.989208
1.00408 0.999612 0.987927
1.00099 1.00308 0.989771
1.00008 1.00195 0.992462
1.00007 1.00235 0.992077
0.999948 1.00306 0.991784
0.999998 1.00347 0.991303
0.999906 1.00377 0.991002
0.999763 1.00454 0.990449
0.999777 1.00462 0.990452
0.999893 1.00261 0.99226
0.999787 1.00442 0.990505
1.00515 0.995031 0.990064
1.00506 0.995618 0.989449
1.00492 0.998174 0.987292
1.0011 1.0045 0.98787
1.00403 1.00202 0.98565
0.999783 1.00371 0.991539
1.00484 0.995054 0.991174
1.00036 1.00457 0.989769
1.00177 1.00458 0.987268
1.00486 0.996441 0.989037
1.00401 1.00052 0.986504
0.999597 0.998603 0.99056
0.999967 1.00405 0.990916
1.00444 0.995595 0.991622
1.00033 1.00468 0.989689
1.00214 1.0032 0.987466
1.00419 0.997806 0.987918
1.00095 0.995433 0.958552
0.995972 0.998127 0.977067
0.998575 1.00084 0.992227
0.999867 0.996584 0.928015
0.994915 0.998123 0.91606
0.99979 1.00266 0.992442
0.999863 1.00288 0.992159
1.00001 1.00234 0.992435
1.00025 1.00094 0.993289
1.00026 1.00149 0.99269
1.00015 1.00191 0.992555
1.00013 1.00199 0.992556
1.00005 1.00232 0.992296
1.00023 1.00186 0.992423
1.00027 1.001 0.993163
1.00035 1.00158 0.992503
1.00016 1.00205 0.992385
1.00021 1.00201 0.992352
1.00025 1.00196 0.99229
1.00019 1.00175 0.992538
1.00034 1.0019 0.992238
1.0004 1.00163 0.992317
1.00028 1.00104 0.993064
1.00035 1.00159 0.992537
1.00029 1.00174 0.992511
1.00015 1.00157 0.992843
1.00027 1.00154 0.992739
1.00025 1.00095 0.993296
1.00027 1.00103 0.993097
1.00023 0.999824 0.994435
1.00021 0.999827 0.994454
1.00017 0.997782 0.996556
1.00022 0.999796 0.994477
1.00018 0.997729 0.996573
1.00004 0.996449 0.999243
1.00018 0.997731 0.996603
1.00006 0.996449 0.998737
1.00006 0.996426 0.998263
1.00014 0.99951 0.994911
1.00015 0.999593 0.994801
1.00013 0.997591 0.996812
1.00018 0.999705 0.994648
1.0001 0.997695 0.996978
0.999958 0.996503 0.99928
1.00008 0.997915 0.996588
0.999894 0.996748 0.999239
0.999819 0.996964 0.999203
1.00519 0.995373 0.989747
1.00517 0.996396 0.988823
1.00509 0.994899 0.990224
1.00079 0.997875 0.988581
1.00517 0.994996 0.990115
1.00469 0.995242 0.991762
1.00492 0.996005 0.990808
0.997118 0.998472 0.974573
1.00191 0.996338 0.990013
1.0001 1.00081 0.993723
1.00011 1.00084 0.993671
1.00002 1.0019 0.992753
1.00008 1.00168 0.992891
1.00519 0.995068 0.990096
1.0051 0.995108 0.990131
1.0051 0.995471 0.989516
1.00158 1.00273 0.989183
1.00303 1.00217 0.985919
1.00486 0.99736 0.988154
1.00074 1.00215 0.990973
0.999807 1.00431 0.990939
1.00014 1.00369 0.990734
1.00015 1.00129 0.993154
1.00006 1.00318 0.991404
1.00009 1.00257 0.991992
1.00012 1.00091 0.993582
1.00009 1.00215 0.992342
1.00506 0.994968 0.990426
1.00007 1.002 0.992586
1.00009 1.00234 0.992158
0.999919 1.00294 0.9919
1.00509 0.995198 0.990017
1.00509 0.995666 0.989193
1.00119 1.00283 0.989738
1.00405 0.999603 0.987951
1 1.0035 0.991304
0.999948 1.00375 0.990977
0.999807 1.0046 0.990457
0.999939 1.00449 0.990436
1.00503 0.995831 0.990041
1.00507 0.995124 0.990161
1.00427 0.997826 0.988982
1.0012 1.00251 0.990135
0.999975 1.00313 0.991564
0.999985 1.00334 0.991341
0.999739 1.0043 0.990808
0.999821 1.00515 0.989736
1.00031 0.994938 0.95383
0.999723 1.00365 0.991695
1.00004 1.00444 0.989944
1.00479 0.995004 0.991168
1.00489 0.996235 0.989274
1.00409 1.00041 0.986425
1.00135 1.00466 0.987314
0.999629 0.9985 0.988794
0.999823 1.00408 0.991059
1.00448 0.995483 0.991577
1.00023 1.00463 0.989744
1.00217 1.00307 0.98745
1.0044 0.997818 0.988052
1.00147 0.995709 0.953596
0.995671 0.998332 0.973251
0.99856 1.00078 0.992212
0.999571 0.997031 0.93008
0.994669 0.998123 0.909628
0.999766 1.00366 0.991734
0.999894 0.995233 0.933358
0.995025 0.999094 0.917409
1.00365 0.9977 0.991036
0.999993 1.00463 0.990188
1.00263 1.00143 0.987817
0.997746 1.00169 0.99333
0.99949 0.996772 0.957933
0.994858 0.998642 0.971559
0.998368 0.998248 0.932269
0.994731 0.999806 0.918455
0.999766 1.00293 0.992233
0.999942 1.0025 0.992383
0.999911 1.00133 0.993796
1.00027 1.00098 0.993223
1.00034 1.00158 0.992524
1.0002 1.0019 0.992388
1.0002 1.00202 0.992373
1.00016 1.00207 0.992374
1.00029 1.00103 0.993065
1.00025 1.002 0.992269
1.00033 1.0019 0.992263
1.0004 1.00162 0.992384
1.0002 1.0017 0.992601
1.00031 1.00194 0.992259
1.00026 1.00113 0.992997
1.00043 1.00192 0.992034
1.0004 1.00163 0.992406
1.00037 1.00158 0.992529
1.00029 1.00173 0.992509
1.00042 1.00171 0.992266
1.00016 1.00186 0.992571
1.00021 1.00172 0.992545
0.999863 1.00257 0.992328
1.00006 1.0017 0.992889
1.00015 1.00159 0.992844
1.00022 1.00093 0.993363
1.00027 1.00156 0.992678
1.00026 1.00096 0.99325
1.00025 0.9998 0.994432
1.00027 1.00104 0.993089
1.00023 0.99982 0.994436
1.00012 0.997814 0.997082
1.00021 0.999826 0.994454
1.00016 0.997772 0.996819
1.00009 0.996476 0.998193
1.00018 0.997734 0.996573
1.00004 0.996454 0.999241
1.00009 0.996451 0.998225
1.00011 1.00087 0.993641
1.00014 0.99948 0.99494
1.00014 0.999509 0.994909
1.00015 0.997516 0.99686
1.00016 0.999593 0.994799
1.00014 0.997574 0.996811
1 0.996385 0.999297
1.00009 0.997705 0.997209
0.999971 0.996571 0.998777
0.999936 0.99679 0.99822
1.00073 0.997206 0.98871
1.00517 0.995008 0.990092
1.00468 0.995539 0.991579
0.99651 0.99787 0.976221
1.00168 0.996641 0.990249
1.00496 0.995519 0.990678
1.00407 0.995991 0.990245
0.997909 0.996388 0.978877
1.00018 0.995504 0.956959
0.999029 0.997476 0.933475
0.994624 0.998167 0.914755
1.00001 1.00178 0.992744
1.0001 1.00081 0.99372
1.00013 1.00082 0.993667
1.00004 1.0019 0.992718
0.99999 1.00262 0.992121
1.00016 1.00221 0.992282
1.0001 1.00182 0.99274
1.00004 1.00177 0.992822
1.00505 0.994946 0.990404
1.00512 0.995076 0.990044
1.00508 0.995482 0.98918
1.00132 1.0026 0.989708
1.00403 0.999539 0.987974
0.999836 1.00455 0.990465
1.00011 1.00444 0.990425
0.999999 1.00373 0.990952
1.00009 1.00232 0.992239
0.999994 1.00354 0.991305
1.00006 1.00204 0.99271
0.999921 1.00278 0.992018
1.005 0.995593 0.990061
0.999962 1.00311 0.991643
0.999968 1.00335 0.991422
1.00503 0.995096 0.990042
1.00389 0.997522 0.989337
1.00137 1.00237 0.989977
0.999815 1.00436 0.990726
0.999968 1.00508 0.989749
1.00311 1.00002 0.990046
1.00443 0.996014 0.990989
1.00235 0.99881 0.990356
1.0006 1.00307 0.990366
0.999957 1.0035 0.991163
0.99982 1.00419 0.990854
0.999738 1.00503 0.99016
0.999948 0.994855 0.932599
1.00089 0.994961 0.960778
0.999694 1.0041 0.991203
1.00014 1.00452 0.989799
1.00448 0.995333 0.991537
1.0046 0.997862 0.988186
1.00223 1.00303 0.987436
1.00035 0.995185 0.956655
0.996049 0.998615 0.973099
0.99852 1.00055 0.99219
0.998486 0.996848 0.93538
0.994608 0.998135 0.903164
0.99968 1.00363 0.99176
0.999902 0.995679 0.932019
0.995148 0.99898 0.914299
1.00367 0.997609 0.990999
0.999907 1.00454 0.990313
1.0022 1.00137 0.98855
0.998075 1.0014 0.99401
1.00081 0.996723 0.954159
0.995217 0.998018 0.974759
0.998373 0.998835 0.932567
0.99488 0.99978 0.916486
0.999285 1.00318 0.993156
0.995175 0.998823 0.919427
0.994965 1.00194 0.934016
1.00053 0.999943 0.99347
0.999212 1.00421 0.992429
0.996732 1.00268 0.994682
0.994872 0.999689 0.976553
0.997298 0.998861 0.952205
0.995339 0.999881 0.9367
0.994696 0.999323 0.92572
0.999914 1.00263 0.992331
0.999936 1.00136 0.99369
0.999686 0.999853 0.995256
1.00029 1.00102 0.993066
1.00039 1.00161 0.992451
1.00031 1.00189 0.992287
1.00025 1.00204 0.992248
1.0002 1.00167 0.992664
1.0004 1.00164 0.992401
1.00031 1.00195 0.99226
1.00044 1.00193 0.992033
1.00014 1.0011 0.993185
0.999702 1.0006 0.994553
1.0004 1.00175 0.992297
1.00052 1.00184 0.992024
1.00038 1.00156 0.992521
1.0003 1.00172 0.992507
1.00042 1.00172 0.992262
1.00017 1.00186 0.992563
1.00022 1.00171 0.992589
1.00002 1.00209 0.992553
1.00031 1.00166 0.9924
1.00006 1.00176 0.992803
1.00005 1.00269 0.991922
0.999679 1.00469 0.990289
0.999685 1.00324 0.991801
0.999864 1.00263 0.992308
0.999976 1.0019 0.992822
1.00006 1.00171 0.992885
1.00018 1.00094 0.993411
1.00015 1.00161 0.992845
1.00023 1.00093 0.993366
1.00025 0.999769 0.99445
1.00026 1.00096 0.993203
1.00025 0.999787 0.994434
1.0001 0.997852 0.997094
1.00023 0.999812 0.994437
1.00014 0.997805 0.996824
1.00006 0.996494 0.998202
1.00018 0.997756 0.996557
1.00003 0.996479 0.999236
1.00004 0.996459 0.999239
1.00015 1.00096 0.993676
1.00015 0.999528 0.994875
1.00011 1.00087 0.993641
1.00016 0.997487 0.996874
1.00014 0.999479 0.99494
1.00014 0.999512 0.994908
1.00015 0.997516 0.996857
1.00003 0.996321 0.999305
1.00011 0.99757 0.997288
1.00002 0.996408 0.998809
1 0.996567 0.998296
0.999884 0.995779 0.928472
0.995195 0.998538 0.917657
0.997674 0.997261 0.977097
1.00147 0.996896 0.99049
1.00499 0.994998 0.99055
0.997063 0.996304 0.980989
1.00407 0.995835 0.990354
1.00118 0.995547 0.957
0.999837 0.996503 0.928441
0.994619 0.99815 0.908194
0.998505 0.997491 0.984093
0.999194 0.997155 0.958501
0.998374 0.99853 0.930904
0.994742 0.999737 0.916715
1.00011 1.00257 0.991929
1.00003 1.00177 0.992808
1.00011 1.00079 0.993717
1.00004 1.00188 0.992684
0.999986 1.00252 0.992217
1.0002 1.00234 0.992071
1.00017 1.00217 0.992274
1.00017 1.00193 0.992451
1.00011 1.00182 0.992674
1.00002 1.00183 0.992754
1.00495 0.995218 0.990087
1.00501 0.995109 0.989935
1.00349 0.997207 0.989696
1.00151 1.00229 0.989819
1.00013 1.00502 0.989761
0.999907 1.0044 0.990643
0.999943 1.00338 0.991503
0.999932 1.00309 0.991721
1.00334 0.998804 0.990247
0.999957 1.00353 0.991157
0.999837 1.00422 0.990757
1.00432 0.995865 0.990719
1.00206 0.998992 0.990926
1.0008 1.0032 0.989922
0.999901 1.005 0.990064
1.00014 1.0004 0.993115
1.00159 0.998259 0.993779
0.999745 1.00413 0.990611
1.00001 1.00334 0.991269
0.999929 1.00411 0.990596
0.999853 1.00484 0.990185
0.994783 0.998802 0.929525
0.999934 0.995129 0.935155
1.00043 0.994925 0.953692
0.999571 1.00372 0.991787
0.99983 1.00443 0.99044
1.00372 0.997501 0.990961
1.00178 1.00154 0.989281
0.999893 0.995382 0.935802
0.999017 0.996707 0.954386
0.994898 0.997433 0.971586
0.998447 1.00046 0.994625
0.99831 0.998363 0.926926
0.995142 0.998842 0.915048
0.99501 0.999774 0.918967
0.999118 1.00319 0.993164
0.995156 0.998651 0.922954
0.995149 1.00207 0.933457
1.00083 0.999897 0.99353
0.998788 1.00441 0.992422
0.996471 1.00061 0.997274
0.995028 0.999016 0.974201
0.997643 0.99892 0.958249
0.997448 0.99989 0.931133
0.994693 0.99929 0.928685
0.997977 1.00226 0.996055
0.994937 1.00045 0.943443
0.994456 1.00117 0.947258
0.99625 1.00237 0.998928
0.994899 0.999982 0.983165
0.995506 1.00005 0.957891
0.994818 0.999922 0.931087
0.994783 0.998198 0.926082
0.999937 1.00138 0.993588
0.999751 0.999886 0.995392
0.999282 0.99947 0.996825
1.0004 1.00165 0.992396
1.00044 1.00195 0.992031
1.00031 1.00194 0.99226
1.00002 1.00108 0.993374
1.00048 1.00187 0.99202
1.00039 1.00177 0.992278
0.999672 1.00036 0.994822
0.998545 1.00033 0.996871
0.999885 1.00137 0.993703
1.00043 1.00179 0.992155
1.00043 1.00172 0.992257
1.00017 1.00185 0.992555
1.00022 1.00171 0.992632
1.00031 1.00168 0.992419
1.00002 1.00212 0.992544
1.00009 1.00178 0.992792
1.00006 1.00199 0.992673
0.999827 1.0016 0.993343
1.00025 1.00189 0.992261
1.00007 1.00259 0.992033
0.999753 1.00404 0.990968
1.00052 1.00495 0.988839
0.999812 1.00408 0.991196
0.999615 1.00472 0.990494
0.999728 1.00325 0.991904
0.999879 1.00231 0.992433
0.999869 1.00269 0.992287
0.999999 1.0019 0.992812
1.00015 1.001 0.993412
1.00008 1.00171 0.992882
1.0002 1.00094 0.99341
1.00022 0.999795 0.994471
1.00024 1.00093 0.993368
1.00025 0.999769 0.994451
1.00006 0.997898 0.997116
1.00025 0.999782 0.994436
1.00011 0.997844 0.996841
1 0.996579 0.998215
1.00016 0.997782 0.996563
1.00003 0.99651 0.998718
1.00003 0.996495 0.999237
1.00017 1.00108 0.993351
1.00017 0.999603 0.994771
1.00013 1.00098 0.993535
1.00016 0.99751 0.996852
1.00015 0.99952 0.994879
1.0001 1.00089 0.99364
1.00003 0.996303 0.999307
1.00016 0.997487 0.996874
1.00014 0.999471 0.99494
1.00015 0.997516 0.996854
1.00002 0.996331 0.999303
0.999998 0.996405 0.999292
0.994783 0.997754 0.925378
0.999909 0.995371 0.9314
0.995164 1.0021 0.933404
0.995193 0.998859 0.915572
0.997919 0.996262 0.977455
1.00402 0.996117 0.990459
1.00079 0.995935 0.956828
0.999877 0.996735 0.934245
0.994623 0.998145 0.901645
0.998446 0.997386 0.982825
1.00099 0.996843 0.951039
0.998555 0.998776 0.931224
0.994717 0.999786 0.913183
0.994933 1.00043 0.979155
0.998436 0.999817 0.951174
0.995878 0.999809 0.92846
0.9947 0.998928 0.920538
1.00013 1.00289 0.991613
1.00008 1.00257 0.992018
1.00001 1.00182 0.992873
0.999989 1.00244 0.992312
1.00029 1.00241 0.99174
1.0002 1.00231 0.992114
1.00015 1.00216 0.992267
1.00028 1.00185 0.99243
1.0002 1.00189 0.992521
1.00011 1.00183 0.992609
1.00353 0.997749 0.990452
1.0042 0.995799 0.990453
1.00184 0.999246 0.991491
1.00103 1.00327 0.989485
0.999987 1.00501 0.989967
0.999867 1.00421 0.990661
0.999999 1.00351 0.991151
1.00001 1.00333 0.991328
1.00047 0.999964 0.993378
0.999966 1.00416 0.990621
0.999957 1.00471 0.990216
1.00165 0.998312 0.993419
1.00016 1.00386 0.990496
0.998779 0.997761 0.995781
0.998865 0.999386 0.997988
0.999762 1.00356 0.991124
1.00009 1.00347 0.991055
1.00008 1.00474 0.989744
0.994549 1.00005 0.948756
0.994772 0.999142 0.928408
0.999911 0.995492 0.93004
0.998963 1.00321 0.993165
0.998456 1.00433 0.992399
1.00106 0.999878 0.993597
0.995081 0.998371 0.924435
0.997942 0.999001 0.952365
0.994872 0.998489 0.975041
0.996371 0.999814 1.00006
0.996095 0.999587 0.936335
0.995396 1.00222 0.93291
0.994698 0.999265 0.928756
0.998043 1.00217 0.996244
0.994949 0.999748 0.945864
0.99449 1.00129 0.947042
0.99643 1.00289 0.998447
0.994882 0.999989 0.983723
0.996416 1.00002 0.952114
0.994768 0.998458 0.927769
0.995002 0.999964 0.935017
0.996912 1.00245 0.998299
0.994216 0.999164 0.96617
0.994548 0.99945 0.950593
0.994726 0.998931 0.920697
0.994942 1.00166 0.995021
0.996123 0.999573 0.959926
0.994788 0.999987 0.934416
0.999881 0.999886 0.995524
0.999333 0.999472 0.996618
0.997966 1.0002 0.998486
1.00046 1.00189 0.992016
1.00037 1.00179 0.992258
0.999615 1.00013 0.995094
1.0004 1.00179 0.992189
0.999871 1.0013 0.993696
0.99867 1.0002 0.996765
0.998032 1.00075 0.997295
0.99977 1.00173 0.993438
1.0003 1.00171 0.992439
1.00001 1.00216 0.992534
1.00012 1.00179 0.992781
0.999904 1.00161 0.993288
1.00007 1.0019 0.992704
0.999554 1.00217 0.993316
0.999927 1.00212 0.992619
1.00019 1.00358 0.990528
1.00011 1.00248 0.992144
1 1.00397 0.990839
1.0006 1.0047 0.988522
1.00063 1.00488 0.988479
0.999913 1.00456 0.990402
1.00041 1.00491 0.988928
0.999906 1.00301 0.991907
0.999787 1.00411 0.991086
0.999548 1.00473 0.990699
0.999771 1.00326 0.992007
0.999901 1.00228 0.992521
1.00011 1.00117 0.993303
1.00002 1.00191 0.992802
1.00016 1.001 0.993408
1.00018 0.999866 0.994484
1.00021 1.00094 0.993408
1.00023 0.999786 0.994472
0.99999 0.99797 0.997144
1.00026 0.999761 0.994452
1.00006 0.997894 0.996867
0.999936 0.996681 0.998234
1.00012 0.997818 0.996583
0.999984 0.99659 0.998725
0.999993 0.996554 0.999239
1.00024 1.00117 0.992975
1.00019 0.999752 0.994405
1.00018 1.00109 0.993351
1.00015 0.99759 0.996783
1.00017 0.999611 0.994666
1.00011 1.00099 0.993395
1.00002 0.996337 0.999301
1.00016 0.997509 0.996855
1.00015 0.999509 0.994883
1.00003 0.996305 0.999307
1.00016 0.997487 0.996875
1.00002 0.996342 0.999301
0.994688 0.999264 0.947283
0.994832 0.9979 0.927156
0.999886 0.995785 0.932311
1.00034 1.00183 0.992275
0.99445 1.00084 0.950019
0.995229 1.00217 0.932911
0.995251 0.998994 0.917531
0.99862 0.997516 0.981287
0.999576 0.997742 0.958019
0.998433 0.998624 0.925358
0.994702 0.999849 0.914376
0.995514 0.999585 0.975396
0.997728 0.999217 0.956994
0.99731 0.999891 0.931486
0.994708 0.999177 0.921269
0.995212 0.999466 0.971353
0.995541 1.00098 0.95632
0.994824 0.999933 0.934894
0.994754 0.998137 0.926155
1.00025 1.00287 0.991373
1.00012 1.00292 0.991577
1.00009 1.00254 0.992107
1.0003 1.00229 0.991852
1.0003 1.00238 0.991822
1.00019 1.00229 0.992158
1.00029 1.00186 0.99244
1.00023 1.00186 0.992591
1.0008 0.999786 0.993613
1.00167 0.998364 0.993045
0.999998 1.00332 0.991386
1.00058 1.00376 0.990376
1.00011 1.0045 0.990246
0.999931 1.00428 0.990646
1.0001 1.00351 0.991055
0.998736 0.998612 0.996179
1.00011 1.00447 0.99003
1.00015 1.00327 0.991154
0.998972 0.998837 0.997976
1.00014 1.00305 0.991387
0.997313 0.999052 0.996465
0.997475 1.00027 0.999982
1.00002 1.00364 0.990842
1.00009 1.00364 0.990959
0.99414 0.999607 0.969615
0.99454 1.00047 0.949372
0.994771 0.99934 0.927321
0.998021 1.00217 0.996455
0.9965 1.00304 0.997941
0.995008 0.999283 0.948244
0.995616 1.00028 0.958679
0.994885 0.999124 0.979932
0.995079 0.99995 0.934198
0.994498 1.00142 0.94684
0.994737 0.998688 0.929449
0.997045 1.00235 0.998143
0.994209 0.99929 0.966125
0.994486 0.999514 0.954845
0.995136 1.00265 0.997916
0.994734 0.999165 0.921325
0.99532 0.999432 0.956548
0.99513 0.999969 0.936482
0.996459 1.00303 0.998588
0.9942 0.997724 0.972612
0.994491 1.00087 0.950162
0.994753 0.99973 0.916934
0.995493 0.999928 0.934042
0.995472 0.999488 0.989333
0.996328 1.0008 0.949999
0.99935 0.999446 0.996399
0.997849 1.00079 0.998134
0.996032 1.00114 1.00121
1.00035 1.00178 0.992223
0.999852 1.00121 0.993688
0.998846 1 0.996647
0.999788 1.0017 0.993397
0.998155 1.00051 0.997384
0.998059 1.00326 0.99494
0.999981 1.00161 0.993232
1.00006 1.00184 0.992734
0.999734 1.00227 0.993192
0.99929 1.00426 0.991403
0.999588 1.00234 0.992973
0.999999 1.0035 0.990869
1.00079 1.00478 0.988474
1.0021 1.00426 0.986553
1.00026 1.00391 0.990709
1.00077 1.00474 0.988325
1.00121 1.0043 0.988619
0.999931 1.00491 0.989597
1.00067 1.00479 0.988655
0.999863 1.00373 0.991225
0.999948 1.00453 0.990388
1.0003 1.00487 0.989019
1.00006 1.00162 0.992949
0.999888 1.00298 0.991877
0.999763 1.00415 0.990976
0.999924 1.00225 0.992608
1.00013 1.00119 0.993292
1.00012 0.999994 0.994461
1.00018 1.001 0.993404
1.00019 0.999854 0.994484
0.999936 0.998098 0.996653
1.00024 0.999778 0.994473
1.00001 0.997969 0.996645
0.999808 0.996792 0.999261
1.00008 0.997873 0.996612
0.999921 0.996687 0.998736
0.999945 0.996633 0.999244
1.00028 1.00121 0.992862
1.00023 0.999912 0.994169
1.00025 1.00117 0.993056
1.00013 0.997723 0.996675
1.0002 0.999759 0.994375
1.00019 1.00109 0.993351
1 0.996429 0.999282
1.00015 0.997588 0.996788
1.00017 0.999622 0.99456
1.00003 0.996327 0.999304
1.00015 0.997508 0.996858
1.00003 0.996305 0.999307
0.994154 0.998678 0.967165
0.994632 1.00018 0.947066
0.994869 0.998504 0.927296
1.00032 1.00184 0.992326
1.00031 1.00179 0.992329
1.00032 1.00214 0.992049
0.994518 0.999026 0.950758
0.994466 1.00078 0.949825
0.995262 1.00255 0.932421
0.995055 0.999812 0.977696
0.998264 0.999938 0.950513
0.995217 0.999902 0.936766
0.994711 0.999435 0.918965
0.995466 0.998962 0.974386
0.996355 1.00004 0.955044
0.994806 0.999968 0.93665
0.994733 0.998365 0.927823
0.994897 0.999206 0.970967
0.995877 1.00006 0.957955
0.994766 1 0.934714
0.994693 0.999232 0.925658
1.00034 1.00257 0.99152
1.00026 1.00285 0.991367
1.00013 1.00295 0.991542
1.00032 1.00229 0.991837
1.00031 1.00236 0.991904
1.00032 1.00186 0.99245
0.998668 0.999097 0.996564
0.99884 0.998407 0.997973
1.00013 1.00354 0.991056
1.00051 1.0028 0.991186
1.00002 1.00437 0.990317
1.00022 1.00301 0.991281
0.999975 1.0037 0.991077
0.997309 0.998779 0.996825
0.999868 1.00363 0.991422
0.997251 1.00034 0.999905
1.00003 1.00287 0.991866
0.995799 0.998495 0.997457
0.997223 1.00252 0.998063
0.999349 1.00324 0.992839
0.994097 0.998919 0.977233
0.994098 0.999286 0.971462
0.994509 1.00078 0.949947
0.997261 1.00233 0.997981
0.995778 1.00255 0.995597
0.994198 0.99938 0.966078
0.995205 0.999431 0.961392
0.994793 0.999968 0.932189
0.994442 0.999579 0.95909
0.994737 0.999403 0.919197
0.996085 1.0035 0.998861
0.99416 0.997546 0.974139
0.994507 1.00073 0.949975
0.994942 0.99961 0.98499
0.994728 0.999757 0.913566
0.994999 0.999935 0.935582
0.995597 1.00071 0.956839
0.994988 1.00278 0.999754
0.994181 0.998327 0.967622
0.995113 1.00197 0.93396
0.994607 0.998153 0.915625
0.995934 0.999013 0.928515
0.996092 1.00011 0.956917
0.99587 1.00006 0.979507
0.997738 1.00146 0.997841
0.996426 1.00059 1.0011
0.996602 1.00251 0.998823
0.999809 1.0017 0.993357
0.998275 1.00033 0.997454
0.997742 1.00347 0.995235
0.998913 1.00349 0.993546
0.999922 1.00237 0.993069
0.999922 1.00414 0.991042
1.00077 1.00499 0.988265
0.999794 1.0034 0.991215
1.00089 1.00471 0.988364
1.00252 1.00469 0.985925
1.00382 1.0029 0.984844
1.00164 1.00408 0.987293
1.00209 1.00446 0.98645
1.00095 1.00478 0.988128
1.00086 1.00413 0.98928
1.00098 1.00407 0.988994
0.999882 1.00459 0.990168
1.00002 1.00491 0.989706
1.0007 1.0047 0.988832
1 1.00241 0.992259
0.999933 1.00365 0.99123
0.999974 1.0045 0.990372
1.00005 1.00027 0.994309
1.00008 1.00162 0.992935
0.999871 1.00296 0.991848
1.00014 1.00119 0.99328
1.00012 0.999995 0.994458
0.999848 0.998273 0.996635
1.00019 0.999843 0.994485
0.99994 0.998095 0.996653
0.999741 0.996952 0.999254
1.00002 0.997959 0.996642
0.999838 0.996816 0.99875
0.999883 0.996731 0.999249
1.00033 1.00123 0.992877
1.00027 1.00003 0.994148
1.00029 1.00121 0.9929
1.00011 0.997887 0.996551
1.00023 0.999913 0.994242
1.00026 1.00118 0.993137
0.999962 0.996567 0.999257
1.00013 0.997718 0.996682
1.0002 0.999764 0.994346
1 0.996408 0.999289
1.00014 0.997588 0.996794
1.00003 0.996318 0.999306
0.994193 0.997342 0.97282
0.994197 0.99837 0.96713
0.994588 1.00052 0.946937
1.00024 1.0019 0.992321
1.00013 1.00247 0.992061
1.00029 1.00185 0.992376
1.00029 1.00181 0.992334
1.00029 1.00216 0.992023
1.00023 1.00212 0.992205
1.00034 1.00223 0.991922
0.994457 1.00044 0.947563
0.994466 0.999189 0.95506
0.994482 1.00059 0.949637
0.994716 0.998577 0.929486
0.994853 0.999665 0.971672
0.995327 1.00004 0.95473
0.994882 0.999956 0.938387
0.995168 0.999339 0.970348
0.995058 1.00007 0.9531
0.994936 0.999966 0.937858
0.994678 0.999156 0.928749
0.99603 0.997548 0.974304
0.995144 1.0001 0.95225
0.99494 0.999922 0.931701
0.994729 0.999754 0.917925
1.00006 1.00253 0.992118
1.00033 1.00256 0.991537
1.00027 1.00284 0.991362
1.00034 1.00229 0.991822
0.997436 0.998803 0.997169
0.997206 1.00045 0.999825
1.00024 1.00303 0.991175
0.999987 1.00359 0.991193
0.999868 1.00361 0.992008
1.00001 1.00286 0.991826
0.999303 1.00323 0.992781
0.99571 0.999352 0.995129
0.99682 1.00314 0.99839
0.999147 1.00289 0.99322
0.995501 0.999472 0.994037
0.997739 1.00351 0.997109
0.994128 0.998846 0.970586
0.994014 0.998072 0.979363
0.994085 0.999024 0.973308
0.995822 1.00389 0.999069
0.995308 0.998694 0.990298
0.994113 0.997395 0.975684
0.9967 1.00084 0.950569
0.995183 0.999912 0.937321
0.994523 1.00054 0.949786
0.994713 0.999825 0.91471
0.995301 1.00176 1.00008
0.994221 0.998131 0.967589
0.995245 1.00198 0.933459
0.994889 1.00046 0.982116
0.994615 0.998144 0.908988
0.997463 0.999869 0.931009
0.995146 1.00008 0.952681
0.995625 1.00298 0.995701
0.994774 0.99867 0.948115
0.99514 0.998473 0.918457
0.998456 0.997388 0.932373
0.995658 1.00027 0.957565
0.994904 0.999315 0.97451
0.996949 0.999815 1.00092
0.996379 1.00317 0.99877
0.998701 0.999288 0.998642
0.99745 1.00364 0.995531
0.998167 1.00365 0.993891
1.00186 1.00129 0.990083
1.00055 1.00402 0.990678
1.00103 1.00497 0.98813
1.0026 1.00307 0.986276
1.00098 1.00466 0.988254
1.00249 1.00475 0.985735
1.00396 1.0023 0.984984
1.0049 1.00045 0.985103
1.00362 1.00366 0.984979
1.00393 1.0029 0.98464
1.0013 1.00387 0.98807
1.00164 1.00408 0.987538
1.00208 1.00468 0.986347
1.00058 1.00462 0.989177
1.00078 1.00414 0.989272
1.00075 1.00387 0.989367
1.00003 1.00333 0.991252
0.999922 1.0045 0.990298
1.00011 1.00491 0.989816
0.999974 1.00084 0.99385
1.00005 1.00236 0.992254
0.999997 1.00356 0.991235
0.99976 0.998484 0.996585
1.00004 1.00029 0.994298
1.0001 1.00162 0.992922
1.00013 0.999994 0.994456
0.999852 0.998277 0.996633
0.999646 0.997138 0.999248
0.999943 0.998092 0.996653
0.99973 0.996985 0.999252
0.999806 0.996853 0.999254
1.00023 1.00201 0.992295
1.00035 1.00129 0.992792
1.00029 1.00017 0.99398
1.00033 1.00125 0.992869
1.00007 0.998081 0.996422
1.00026 1.00005 0.994144
1.00028 1.00124 0.992939
0.999912 0.996734 0.999227
1.00011 0.997885 0.996559
1.00024 0.999915 0.994314
0.999968 0.996536 0.999264
1.00013 0.997716 0.996689
1.00001 0.996383 0.999295
0.994221 0.998067 0.967038
0.994143 0.997209 0.974333
0.994239 0.998139 0.967087
1.00027 1.00186 0.992345
1.0001 1.00249 0.992019
1.00004 1.00285 0.991751
1.00011 1.00235 0.992074
1.00011 1.00285 0.991762
1.00028 1.00182 0.99234
1.00027 1.00218 0.991997
1.00022 1.00212 0.992203
1.00033 1.00224 0.99192
1.00011 1.00235 0.992251
0.994971 1.00169 0.933789
0.994492 1.00061 0.947386
0.99441 0.999367 0.959355
0.994682 0.999073 0.92884
0.994785 0.999987 0.932798
0.994881 0.999379 0.969102
0.995117 1.00007 0.957431
0.995377 0.997679 0.970804
0.995675 1.00007 0.957495
0.994938 0.999935 0.936164
0.994905 0.999723 0.915804
0.995917 0.995535 0.975382
0.995227 1.00007 0.958178
0.995563 0.999868 0.936288
0.994967 0.998139 0.914682
0.999299 1.00183 0.994041
1.00001 1.00261 0.992151
1.00033 1.00255 0.991555
0.995543 1.00001 0.992794
0.996461 1.00355 0.998685
1.00001 1.00285 0.991785
0.999096 1.00336 0.992725
0.99914 1.00292 0.993242
0.997394 1.00301 0.996998
0.995157 0.999616 0.994255
0.997608 1.00231 0.99659
0.995898 1.00099 0.993632
0.994647 0.999759 0.948824
0.99409 0.998523 0.97238
0.993923 0.997164 0.981494
0.995445 1.00089 1.00046
0.995135 1.00023 0.977165
0.994258 0.997967 0.967546
0.996985 1.00025 0.954277
0.995192 0.999894 0.936256
0.995306 1.0023 0.932974
0.994631 0.998144 0.902352
0.995679 1.00282 0.995992
0.994709 0.999602 0.947885
0.995168 0.998761 0.916384
0.994979 0.999305 0.975779
0.998562 0.998478 0.932318
0.99629 1.00001 0.954176
0.996805 0.999732 0.993645
0.994854 0.997544 0.926204
0.998859 0.99696 0.934309
0.998106 0.998591 0.952389
0.99486 0.998858 0.976365
0.996221 1.00367 0.998703
0.998552 0.999208 0.99863
1.00268 0.997702 0.993445
0.997479 1.00366 0.99421
1.00118 1.00161 0.990566
1.00354 0.998691 0.988475
1.00131 1.00491 0.987994
1.00267 1.00314 0.986324
1.00441 0.999684 0.986558
1.00248 1.00484 0.985545
1.00392 1.00229 0.985047
1.00506 0.999114 0.98615
1.0051 0.999098 0.986119
1.00461 1.00162 0.984604
1.00489 1.00044 0.985145
1.00282 1.00397 0.985754
1.00341 1.00365 0.98486
1.00402 1.00289 0.984437
1.00121 1.00399 0.988547
1.00123 1.00383 0.988382
1.00164 1.00409 0.987784
1.00046 1.00363 0.990206
1.00048 1.00454 0.989288
1.00069 1.00415 0.989264
0.999954 1.00176 0.99295
1.0001 1.00328 0.991254
0.999963 1.00439 0.990426
0.99966 0.998823 0.996916
0.999979 1.00086 0.993831
1.00009 1.0023 0.992248
0.999562 0.997384 0.9982
0.999759 0.998522 0.996815
1.00004 1.00031 0.994288
0.999856 0.998282 0.996631
0.999635 0.997178 0.999244
0.999719 0.997016 0.999251
1.00017 1.00237 0.991997
1.00033 1.00147 0.992657
1.00021 1.00206 0.992261
1.00027 1.00031 0.993867
1.00033 1.00133 0.99279
1.00002 0.998276 0.996313
1.00028 1.00019 0.993978
1.00034 1.00125 0.992862
0.999853 0.996928 0.999196
1.00007 0.998078 0.99643
1.00026 1.00007 0.994141
0.999919 0.996701 0.999236
1.0001 0.997883 0.996566
0.999974 0.996507 0.999272
0.995001 0.998652 0.949725
0.994218 0.998175 0.967012
0.994091 0.997119 0.97586
1.00007 1.00293 0.991684
1.00027 1.00188 0.99237
1.00009 1.00253 0.991978
1.00014 1.00237 0.992104
1.0001 1.00278 0.991794
1.00008 1.00286 0.991729
1.00007 1.00318 0.991435
0.999974 1.00287 0.991742
1.00023 1.00211 0.992201
1.00031 1.00224 0.991919
1.00008 1.00239 0.992205
0.99965 1.00277 0.992941
0.995011 0.999271 0.916626
0.995192 1.0018 0.933208
0.994509 1.00079 0.947213
0.995102 0.999672 0.918344
0.994986 0.999923 0.935835
0.995138 1.0001 0.952433
0.996056 0.997765 0.968757
0.996061 0.995243 0.977222
0.994757 0.998123 0.908396
0.995579 1.00004 0.95444
0.997319 0.99987 0.930597
0.995468 0.997122 0.978008
0.995793 1.00002 0.959392
0.998749 0.997692 0.930303
0.999169 1.00066 0.995464
0.999459 1.00177 0.99402
0.999963 1.00271 0.992183
0.994906 0.999679 0.994441
0.997395 1.00244 0.996883
0.999202 1.00287 0.993263
0.998442 1.00202 0.996382
0.995627 1.00129 0.993805
0.997706 1.00083 0.994063
0.994791 0.999639 0.923742
0.994567 0.999205 0.953005
0.99408 0.998245 0.974175
0.995587 1.00327 0.996317
0.994907 0.999255 0.976656
0.99464 1.00009 0.947724
0.995292 1.00005 0.953887
0.998475 0.99747 0.926565
0.995298 0.998786 0.918273
0.996899 0.999905 0.993694
0.99489 0.997638 0.927945
0.999864 0.996106 0.929253
0.994939 0.998933 0.972372
0.997687 0.998687 0.958078
0.998447 0.998594 0.994834
0.999884 0.995626 0.928979
0.998981 0.997614 0.958254
0.995069 0.998668 0.971568
0.99834 0.999293 0.998671
1.00205 0.997287 0.994144
1.0038 0.9973 0.990985
1.00049 1.00194 0.991052
1.00346 0.999243 0.988387
1.00486 0.99694 0.988294
1.00271 1.00331 0.986373
1.00428 0.999907 0.986568
1.00497 0.997572 0.987817
1.00387 1.00226 0.985108
1.00504 0.999068 0.986142
1.00512 0.997619 0.98758
1.00514 0.998149 0.98699
1.00509 0.999843 0.985502
1.0051 0.999051 0.986147
1.00407 1.00207 0.98498
1.00456 1.00155 0.984722
1.00488 1.00041 0.985187
1.00208 1.00374 0.9872
1.0026 1.00391 0.985914
1.00321 1.00361 0.98474
1.00112 1.00328 0.989406
1.00127 1.00394 0.988514
1.00117 1.00377 0.988696
1.00016 1.0025 0.991872
1.00051 1.00361 0.990215
1.00038 1.00446 0.9894
0.999613 0.999302 0.995982
1.00001 1.0017 0.992931
1.00016 1.00322 0.991256
0.999432 0.997641 0.999214
0.999666 0.998883 0.996365
0.999985 1.00088 0.993812
0.999543 0.997381 0.999229
0.999761 0.998541 0.996553
0.999625 0.997221 0.99924
1.0002 1.00259 0.991808
1.00019 1.00237 0.991988
1.00029 1.00177 0.992419
1.00022 1.0005 0.993776
1.0003 1.00149 0.99266
1.00021 1.00207 0.992227
0.99996 0.998458 0.996244
1.00026 1.00032 0.993868
1.00032 1.00134 0.992788
0.999786 0.997119 0.999169
1.00002 0.998272 0.996318
1.00027 1.0002 0.993976
0.999859 0.99689 0.999205
1.00007 0.998074 0.996437
0.999926 0.996664 0.999245
0.995011 0.999055 0.919595
0.994941 0.998717 0.94953
0.994212 0.998269 0.966983
0.999994 1.00304 0.991641
1.00025 1.00329 0.991213
0.99998 1.00336 0.991379
1.00016 1.00237 0.992135
1.00014 1.00272 0.991837
1 1.00291 0.991696
1.00004 1.00285 0.991715
1.00003 1.00321 0.991409
0.999939 1.00373 0.991167
1.00019 1.00157 0.992685
1.00012 1.00235 0.992158
0.999665 1.00256 0.992856
0.999855 0.996506 0.927128
0.995013 0.999278 0.913374
0.995396 1.00194 0.932663
0.994616 0.998125 0.9021
0.99631 0.998953 0.935646
0.995531 1.00002 0.95557
0.995925 0.994995 0.974789
0.995202 0.997304 0.976298
0.998452 0.998296 0.931646
0.996396 1 0.954011
0.995678 0.998013 0.977543
0.998549 0.998166 0.952351
1.00169 0.999182 0.992981
0.999396 1.00058 0.995247
0.999573 1.00169 0.994009
0.995064 1.00175 0.993951
0.999007 1.0018 0.99617
0.998049 1.00109 0.993502
1.00094 0.998777 0.990104
0.999938 0.994865 0.932764
0.994798 0.999522 0.925627
0.99451 0.998778 0.95712
0.997023 0.999943 0.99382
0.994864 0.99896 0.971671
0.994941 0.998138 0.928069
0.997767 0.998082 0.951957
0.999915 0.997054 0.935125
0.998324 0.99881 0.993113
0.999927 0.995354 0.931882
1.00112 0.996548 0.951447
0.995167 0.998289 0.974412
0.999267 0.996759 0.994461
1.00025 0.996426 0.956554
0.995656 0.999446 0.97725
1.00141 0.996832 0.994826
1.00372 0.996778 0.990967
1.00498 0.995855 0.989836
1.00334 0.999771 0.988298
1.00474 0.996979 0.988281
1.00489 0.996185 0.989143
1.00416 1.00002 0.986579
1.00491 0.997602 0.987782
1.0051 0.996179 0.988933
1.00503 0.999019 0.986135
1.00509 0.99758 0.987586
1.00515 0.996662 0.988446
1.00516 0.997517 0.987732
1.00514 0.998027 0.98711
1.00514 0.998855 0.986444
1.00495 1.0002 0.985593
1.00511 0.999816 0.985504
1.00511 0.999005 0.986175
1.00341 1.00244 0.985895
1.00409 1.00212 0.98507
1.00451 1.00145 0.98484
1.00172 1.00311 0.988465
1.00212 1.00371 0.987165
1.00237 1.00391 0.986072
1.00054 1.00261 0.991065
1.00118 1.00325 0.989394
1.00134 1.00389 0.988481
0.99964 0.99996 0.995255
1.00022 1.0024 0.991869
1.00057 1.00358 0.990224
0.999417 0.997906 0.99913
0.99961 0.999388 0.995942
1.00006 1.00166 0.992913
0.999463 0.997671 0.998666
0.999668 0.998918 0.996349
0.999538 0.997457 0.999217
1.00028 1.00282 0.991427
1.00013 1.00266 0.991797
1.00019 1.00222 0.992116
1.00022 1.00237 0.991979
1.00026 1.00181 0.992421
1.00014 1.00078 0.993613
0.999883 0.998644 0.996204
1.00021 1.0005 0.99378
1.00026 1.00154 0.992663
0.999711 0.997296 0.999152
0.999958 0.998453 0.996247
1.00026 1.00033 0.993868
0.999793 0.997088 0.999177
1.00002 0.998272 0.996323
0.999866 0.996852 0.999215
0.999907 0.995236 0.933362
0.994996 0.999356 0.91995
0.994847 0.998783 0.94932
0.999926 1.00317 0.991598
0.999938 1.00355 0.991251
1.00011 1.00326 0.991357
1.00073 1.00337 0.990206
0.999926 1.00399 0.990928
1.00009 1.00287 0.991689
1.00003 1.00323 0.991384
0.999888 1.00358 0.991252
0.999978 1.00369 0.990386
1.0005 1.00194 0.991873
1.0037 1.00005 0.988024
0.999898 1.00176 0.993012
0.999765 1.00231 0.992771
1.00037 0.996816 0.956196
0.999622 0.996673 0.929424
0.995021 0.999117 0.914256
0.998636 0.998254 0.925521
0.995774 1.00002 0.956132
0.995435 0.997395 0.978573
0.995411 0.997972 0.979574
0.99759 0.998674 0.959362
0.996906 0.999064 0.977063
1.00383 0.996643 0.991122
1.00135 0.999084 0.993006
0.999604 1.00055 0.995022
0.998405 1.0012 0.992984
1.00168 0.999721 0.98878
1.00034 0.995224 0.95364
0.999929 0.995085 0.935357
0.994804 0.999062 0.927571
0.998123 0.99908 0.991371
0.994865 0.998318 0.971807
0.999909 0.995632 0.932723
0.9996 0.997667 0.958231
0.999036 0.997976 0.994771
1.00148 0.995737 0.956284
0.995729 0.999076 0.974049
1.00063 1.00002 0.991928
0.999558 0.997063 0.981859
1.00365 0.996247 0.990966
1.00499 0.995558 0.989642
1.00508 0.995052 0.990123
1.00463 0.99707 0.988267
1.00484 0.996144 0.989132
1.00508 0.995084 0.989899
1.00484 0.997635 0.987747
1.0051 0.996135 0.988918
1.00513 0.995688 0.989438
1.00507 0.997536 0.987593
1.00515 0.996689 0.98841
1.00514 0.996737 0.988589
1.00516 0.997369 0.98781
1.00515 0.998194 0.987117
1.00514 0.997907 0.98723
1.00513 0.998882 0.986429
1.00508 0.999311 0.986134
1.00447 1.00057 0.985889
1.00495 1.00013 0.985579
1.00511 0.999807 0.985505
1.00264 1.00255 0.98738
1.00334 1.00252 0.985945
1.0041 1.00217 0.985162
1.00095 1.00252 0.99036
1.00177 1.00309 0.988438
1.00217 1.00368 0.98713
0.999789 1.00051 0.994425
1.00058 1.00257 0.991069
1.00122 1.00324 0.989381
0.999439 0.998253 0.998983
0.999654 1.00001 0.995224
1.00029 1.00231 0.991867
0.999444 0.997966 0.999089
0.999607 0.999469 0.995901
0.99948 0.997717 0.999165
1.0008 1.003 0.990293
1.0003 1.00275 0.99142
1.00023 1.0026 0.991601
1.00007 1.00271 0.991786
1.00017 1.00229 0.992053
1.00009 1.00123 0.993229
1.00023 1.00182 0.992423
1.00014 1.00077 0.993621
0.99979 0.998874 0.996146
0.999631 0.997473 0.99914
0.999881 0.998635 0.996208
1.00021 1.00049 0.993785
0.999719 0.997274 0.999157
0.999956 0.998451 0.99625
0.999799 0.997053 0.999184
1.00109 0.995171 0.959091
0.9999 0.995629 0.931976
0.994964 0.999841 0.918249
0.999887 1.00373 0.991122
1 1.00319 0.991502
0.99996 1.00397 0.990977
1.00066 1.00334 0.990278
1.00117 1.00363 0.989022
1.00013 1.00372 0.99046
0.999833 1.00346 0.991336
1.00029 1.00379 0.990072
1.00042 1.00229 0.99161
1.00158 1.00167 0.989479
1.00364 0.999939 0.988776
1.00442 0.998234 0.987919
1.00318 1.00001 0.988609
0.999534 1.00213 0.99334
0.995962 0.998994 0.976307
1.00059 0.996008 0.95529
0.999063 0.996936 0.934879
0.99895 0.998932 0.952178
0.995154 0.998083 0.980833
0.9972 0.998936 0.981481
1.0011 0.998342 0.992086
1.00375 0.996622 0.991376
1.00131 0.998911 0.993032
1.00289 1.00071 0.987412
0.998158 0.996311 0.977782
1.00085 0.995058 0.960554
0.999904 0.995427 0.930232
0.998882 0.998771 0.995015
0.995517 0.998815 0.976231
1.00098 0.996034 0.955865
1.00069 0.999624 0.992077
0.998844 0.997152 0.980707
1.00339 1.0001 0.989764
1.00415 0.996128 0.989752
1.00497 0.995274 0.989434
1.00508 0.995053 0.990059
1.00508 0.994926 0.990363
1.0048 0.996113 0.989125
1.00509 0.995179 0.989859
1.00511 0.995175 0.990004
1.0051 0.996103 0.988902
1.00514 0.99571 0.989411
1.00511 0.996274 0.989128
1.00515 0.996722 0.988375
1.00513 0.996739 0.988501
1.00515 0.997611 0.987601
1.00517 0.997226 0.987888
1.00515 0.99809 0.987233
1.00509 0.99898 0.986501
1.00513 0.998901 0.986414
1.00508 0.999352 0.986114
1.00478 0.999685 0.986379
1.00367 1.00105 0.986797
1.00443 1.00063 0.98592
1.00496 1.00004 0.985563
1.00164 1.00217 0.989496
1.00264 1.00252 0.987388
1.00329 1.00261 0.985995
0.999929 1.00099 0.993674
1.001 1.00254 0.990347
1.00182 1.00308 0.988412
0.999507 0.998669 0.998761
0.99983 1.0005 0.994414
1.00063 1.00253 0.991072
0.999484 0.998337 0.99891
0.999665 1.00007 0.995195
0.99948 0.998026 0.999042
1.00127 1.00341 0.989075
1.00085 1.00299 0.990331
1.00062 1.00277 0.990816
1.0003 1.00272 0.991413
1.00027 1.00262 0.991519
1.00018 1.00171 0.992625
1.00015 1.00236 0.99199
1.00009 1.00123 0.993238
0.999697 0.999203 0.995983
1.00014 1.00076 0.993629
0.999792 0.998847 0.996155
0.999558 0.99766 0.999123
0.999639 0.997451 0.999144
0.999879 0.998626 0.996211
0.999725 0.997249 0.999162
0.997163 0.997572 0.977978
1.00088 0.99556 0.952863
0.999871 0.995131 0.935815
1.00259 1.00251 0.987711
1 1.00395 0.991026
1.00058 1.00332 0.990352
1.00025 1.00379 0.990375
1.00111 1.00377 0.988947
1.00141 1.00187 0.989982
1.00058 1.00387 0.989758
1.00042 1.00258 0.991347
1.00177 1.00163 0.989692
1.00369 0.999893 0.98838
1.00458 0.998766 0.987239
1.00445 0.996847 0.989494
1.00447 0.998297 0.987575
1.00274 0.999904 0.989195
1.00006 0.998933 0.993826
0.996367 0.999023 0.974791
0.999931 0.996343 0.954754
0.997308 0.998309 0.979584
1.00114 0.997285 0.994097
1.00322 0.996667 0.991612
1.00221 0.995843 0.989491
0.997332 0.995754 0.980108
1.00038 0.995037 0.953735
1.00059 0.999569 0.992231
0.99903 0.997094 0.979399
1.00332 0.998552 0.989977
1.0041 0.995779 0.989758
1.00502 0.995704 0.990267
1.0049 0.996187 0.990696
1.00512 0.995045 0.989997
1.00506 0.994918 0.990364
1.00511 0.994985 0.990262
1.00509 0.995256 0.989818
1.00512 0.995188 0.990004
1.00511 0.995819 0.989529
1.00514 0.995731 0.989383
1.00512 0.996248 0.98906
1.00515 0.997324 0.987922
1.00513 0.996738 0.988413
1.00515 0.997626 0.987611
1.00512 0.998637 0.986685
1.00514 0.997985 0.98735
1.00509 0.9989 0.986553
1.00486 0.999388 0.986433
1.00508 0.999402 0.986095
1.00479 0.999647 0.986316
1.00416 1.0001 0.987039
1.00249 1.00124 0.988899
1.00362 1.00114 0.986853
1.00439 1.00069 0.985952
1.0002 1.00119 0.992975
1.00166 1.00218 0.989487
1.00265 1.00249 0.987397
0.999518 0.999141 0.998533
1.00005 1.00086 0.993658
1.00104 1.00254 0.990334
0.999539 0.998759 0.998679
0.999876 1.00049 0.994403
0.999532 0.998411 0.998829
1.00216 1.00316 0.987558
1.00124 1.0034 0.989092
1.00113 1.00295 0.989852
1.0009 1.00297 0.990369
1.00063 1.00275 0.990832
1.00032 1.00215 0.991975
1.0003 1.00264 0.991437
1.00012 1.0018 0.992624
0.999639 0.999667 0.99561
1.00008 1.00124 0.993247
0.999707 0.999145 0.996003
0.99951 0.997862 0.999079
0.999795 0.998823 0.996164
0.999562 0.997634 0.99913
0.999646 0.997431 0.999147
1.00125 0.997743 0.991807
0.99739 0.996949 0.974409
1.00013 0.995415 0.959615
1.00292 1.00066 0.988357
1.0047 0.999432 0.986652
1.00229 1.00239 0.987956
1.00037 1.00387 0.990289
1.00106 1.00392 0.988862
1.00178 1.00172 0.989779
1.00451 0.998996 0.987634
1.00191 1.0016 0.989905
1.00361 0.999847 0.987982
1.0045 0.99877 0.987445
1.00504 0.997612 0.987705
1.00476 0.995865 0.989925
1.00451 0.996974 0.989241
1.0045 0.998388 0.987233
1.00043 0.998846 0.993938
0.996185 0.999318 0.972825
1.00132 0.996456 0.996127
1.00486 0.995059 0.991325
1.00198 0.996284 0.989633
0.997952 0.995542 0.97711
1.00343 0.997236 0.990188
1.00407 0.995826 0.989775
1.00501 0.995349 0.990452
1.00497 0.995682 0.990507
1.00512 0.994914 0.990166
1.00519 0.995063 0.989911
1.00505 0.994936 0.990363
1.00509 0.994965 0.990249
1.00514 0.995621 0.989581
1.00512 0.995199 0.990005
1.00512 0.995878 0.989396
1.00513 0.996934 0.988366
1.00512 0.996219 0.988991
1.00514 0.997338 0.987932
1.00516 0.998432 0.986842
1.00514 0.997642 0.98762
1.00512 0.998637 0.986698
1.00493 0.999289 0.986414
1.00509 0.998818 0.986605
1.00486 0.999371 0.986429
1.00431 0.999814 0.987046
1.00481 0.99961 0.986253
1.00413 1.00009 0.986974
1.00301 1.00042 0.98878
1.00057 1.00094 0.992513
1.00247 1.00127 0.988903
1.00358 1.00123 0.986909
0.999491 0.999671 0.998324
1.00029 1.00111 0.992953
1.00166 1.00222 0.989479
0.999542 0.99926 0.998459
1.00014 1.0008 0.993641
0.999572 0.998852 0.998601
1.00359 1.00119 0.986523
1.00215 1.00306 0.987477
1.00188 1.00286 0.988488
1.00121 1.00338 0.98911
1.00106 1.00295 0.989881
1.00058 1.00246 0.991254
1.00064 1.00273 0.990847
1.00026 1.00223 0.991974
0.999702 1.00017 0.995005
1.00007 1.00187 0.992625
0.999652 0.999594 0.995636
0.9995 0.998132 0.998965
0.999716 0.999087 0.996024
0.999504 0.997829 0.999096
0.999566 0.997611 0.999136
1.00491 0.995326 0.990429
1.00137 0.997314 0.990702
0.996895 0.99623 0.975197
1.00504 0.998646 0.986924
1.00253 1.00024 0.989511
1.00514 0.998757 0.986544
1.00472 0.999643 0.986571
1.002 1.00227 0.988214
1.00507 0.998082 0.987128
1.00214 1.00155 0.989587
1.00467 0.998992 0.987241
1.00512 0.996739 0.988318
1.00447 0.998784 0.987653
1.005 0.997607 0.987699
1.00472 0.995932 0.990037
1.00441 0.997125 0.988977
1.00063 0.998789 0.994075
1.00518 0.995413 0.989486
1.00486 0.995539 0.991377
1.00177 0.996553 0.989751
1.00501 0.994858 0.990646
1.00495 0.995172 0.990322
1.00511 0.994921 0.990269
1.0052 0.995065 0.98992
1.00519 0.995473 0.989628
1.00506 0.994933 0.990236
1.00514 0.995633 0.989591
1.00512 0.996672 0.988626
1.00512 0.99595 0.989263
1.00512 0.99703 0.988264
1.00518 0.998292 0.986972
1.00514 0.997353 0.987943
1.00515 0.998439 0.986854
1.00501 0.999233 0.986336
1.00512 0.998636 0.986712
1.00493 0.999288 0.986425
1.00442 0.999728 0.986934
1.00487 0.999355 0.986425
1.0043 0.999825 0.98705
1.0032 1.0001 0.988765
1.00411 1.00007 0.986909
1.003 1.00043 0.988777
1.00079 1.00055 0.993645
0.999649 0.999961 0.995775
1.00064 1.00088 0.993098
1.00244 1.0013 0.988907
0.999539 0.999792 0.998245
1.00043 1.00098 0.992931
0.999569 0.999358 0.998377
1.00515 0.998641 0.986725
1.00469 0.999414 0.986562
1.00371 1.00123 0.986475
1.00282 1.00213 0.987391
1.00214 1.00296 0.987397
1.00183 1.00289 0.988512
1.00109 1.00243 0.990353
1.001 1.00296 0.989911
1.00052 1.00247 0.99127
0.999885 1.00064 0.994246
1.0002 1.00231 0.991974
0.999682 1.00015 0.995018
0.999496 0.998531 0.998771
0.999665 0.999519 0.995659
0.999478 0.998077 0.99901
0.999501 0.997801 0.999112
1.00517 0.995951 0.989016
1.00502 0.995313 0.990808
1.00169 0.996766 0.9896
1.00514 0.998435 0.986775
1.00478 0.998788 0.987209
1.00215 0.999824 0.990636
1.00514 0.998815 0.98657
1.00474 0.999858 0.98649
1.00511 0.997023 0.988433
1.00507 0.99807 0.987089
1.00485 0.999009 0.986843
1.00511 0.996732 0.988329
1.00501 0.997607 0.987692
1.00475 0.995986 0.990167
1.00515 0.995713 0.98964
1.00519 0.995406 0.989596
1.00488 0.995977 0.991434
1.00514 0.994948 0.990369
1.0052 0.995073 0.989928
1.00518 0.995391 0.989711
1.00512 0.996787 0.98859
1.00513 0.995639 0.989602
1.00513 0.996709 0.988596
1.00517 0.998113 0.987173
1.00511 0.997122 0.988163
1.00517 0.998292 0.98698
1.0051 0.999191 0.986243
1.00514 0.998445 0.986866
1.005 0.99923 0.986349
1.00453 0.999732 0.98672
1.00493 0.999287 0.986437
1.00441 0.999731 0.986938
1.00331 1.00002 0.988643
1.00428 0.999837 0.987054
1.0032 1.00009 0.988758
1.00093 1.00019 0.99379
1.00298 1.00045 0.988773
1.00092 1.00048 0.993609
0.999709 1.00009 0.995751
0.999564 1.00015 0.996915
1.00079 1.00081 0.993592
0.999581 0.99991 0.998166
1.00518 0.998437 0.986826
1.00497 0.99894 0.986893
1.00515 0.998586 0.986709
1.00382 1.00058 0.987054
1.00471 0.999387 0.986588
1.00382 1.00127 0.986426
1.00284 1.00216 0.987369
1.00183 1.00196 0.989396
1.00177 1.00292 0.988537
1.00104 1.00241 0.990375
1.00012 1.00102 0.993472
1.00045 1.00249 0.991286
0.999799 1.00071 0.994259
0.999452 0.999108 0.998533
0.999659 1.00013 0.995032
0.999475 0.998448 0.998845
0.999467 0.998026 0.999048
1.00512 0.996318 0.988964
1.00516 0.995953 0.989017
1.00506 0.995281 0.991159
1.00513 0.997646 0.987662
1.00514 0.998411 0.986809
1.00452 0.998924 0.987504
1.00515 0.998879 0.986595
1.0051 0.997029 0.98831
1.00507 0.998058 0.987051
1.00508 0.996733 0.98834
1.00511 0.996606 0.988791
1.00514 0.995777 0.989524
1.00521 0.995372 0.989707
1.00511 0.997222 0.988116
1.00518 0.99531 0.989793
1.00513 0.996787 0.988577
1.00514 0.997894 0.98756
1.00513 0.996748 0.988565
1.00517 0.99811 0.987175
1.00515 0.99908 0.986264
1.00517 0.998297 0.986988
1.00508 0.999192 0.986256
1.00467 0.999748 0.986459
1.00499 0.999227 0.986362
1.00453 0.999727 0.986724
1.00342 1.00002 0.988436
1.00441 0.999734 0.986941
1.00332 1 0.988639
1.00103 1.00002 0.993813
1.0032 1.00008 0.988751
1.00103 1.00014 0.99374
0.999731 0.999999 0.99585
1.00104 1.00038 0.99358
0.999512 1.00027 0.995855
0.999306 1.00038 0.998264
1.00516 0.998422 0.986831
1.00505 0.998913 0.986603
1.00519 0.998465 0.986771
1.00431 0.999624 0.987434
1.00493 0.998801 0.98686
1.00514 0.99853 0.986694
1.00268 1.00094 0.988812
1.00387 1.00058 0.987027
1.00473 0.999358 0.986614
1.00285 1.00218 0.987346
1.00184 1.00192 0.989407
1.0004 1.00114 0.992815
1.001 1.0024 0.990397
0.999997 1.00113 0.993495
0.999401 0.999775 0.998306
0.999723 1.00078 0.994271
0.999442 0.99898 0.998623
0.99946 0.998355 0.998911
1.00512 0.997079 0.988194
1.00512 0.996232 0.988994
1.00516 0.99597 0.989017
1.00513 0.99761 0.987702
1.00514 0.998384 0.986843
1.00511 0.997037 0.988187
1.0051 0.99728 0.988169
1.00511 0.996687 0.988727
1.00513 0.995837 0.989408
1.00511 0.997216 0.988192
1.00511 0.99796 0.987462
1.00513 0.996789 0.988565
1.00514 0.997976 0.987405
1.00514 0.998821 0.98657
1.00517 0.998102 0.987178
1.00513 0.999077 0.986276
1.00479 0.999682 0.986282
1.00506 0.999188 0.986269
1.00466 0.999745 0.986465
1.00356 1.00003 0.988172
1.00453 0.999723 0.986727
1.00343 1.00001 0.988435
1.00111 1.00002 0.993665
1.00333 0.999985 0.988636
1.00112 0.999984 0.993739
0.999797 0.999931 0.995826
1.00113 1.00009 0.993699
0.999556 1.00008 0.995969
0.999326 1.00048 0.995945
1.00514 0.997968 0.98741
1.00513 0.998916 0.986388
1.00517 0.998315 0.986933
1.00454 0.999446 0.987102
1.00505 0.998958 0.986589
1.00519 0.998494 0.986716
1.00319 1.00008 0.98874
1.00432 0.999543 0.98731
1.0049 0.998665 0.986827
1.00072 1.00081 0.992487
1.00271 1.00092 0.988806
1.00393 1.00059 0.986999
1.00184 1.00189 0.989419
1.00029 1.00124 0.992836
0.999433 1.00033 0.998129
0.999877 1.00124 0.993517
0.999379 0.999633 0.99839
0.999435 0.998842 0.998705
1.0051 0.997414 0.987957
1.00512 0.99705 0.988226
1.00512 0.996148 0.989023
1.00512 0.997575 0.987743
1.00511 0.998025 0.987414
1.0051 0.997288 0.988187
1.00511 0.996768 0.988664
1.00511 0.997211 0.988268
1.00511 0.997907 0.987509
1.00511 0.998743 0.986771
1.00514 0.998057 0.987251
1.00514 0.998917 0.986474
1.00487 0.99948 0.9863
1.00512 0.999079 0.986287
1.00478 0.999684 0.986294
1.00371 0.999995 0.987911
1.00465 0.999746 0.986472
1.00356 1.00002 0.988172
1.00123 1.00007 0.992268
1.00344 0.999994 0.988433
1.00119 0.999985 0.993016
0.999781 0.999958 0.998074
1.0012 0.999962 0.993667
0.999643 0.999939 0.995957
0.999395 1.00017 0.996069
1.00513 0.997902 0.98754
1.00513 0.998782 0.986582
1.00513 0.998032 0.987369
1.00475 0.999256 0.986621
1.00513 0.998913 0.986455
1.00518 0.998206 0.987035
1.0034 0.999766 0.988401
1.00456 0.999452 0.987098
1.00506 0.999004 0.986575
1.00096 1.00026 0.992541
1.0032 1.00005 0.988633
1.00433 0.999456 0.987186
0.999504 1.00052 0.998075
1.00067 1.00085 0.992501
1.00273 1.0009 0.988801
1.00019 1.0013 0.992867
0.999374 1.0002 0.99819
0.999356 0.999466 0.998477
1.00511 0.997985 0.987449
1.0051 0.997413 0.987964
1.00511 0.997019 0.988258
1.00511 0.998714 0.986746
1.0051 0.997976 0.987463
1.00511 0.997297 0.988205
1.00511 0.99785 0.987556
1.00511 0.998728 0.986775
1.00487 0.999377 0.986633
1.00513 0.999014 0.986378
1.00486 0.999558 0.986379
1.00383 0.999883 0.987551
1.00478 0.999681 0.986305
1.00371 0.999994 0.987914
1.00134 1.00009 0.992046
1.00357 1.00001 0.988171
1.00124 1.00007 0.992258
0.99982 0.999974 0.998026
1.00121 0.999969 0.992432
0.999722 0.999934 0.996994
0.999492 0.999935 0.996082
1.00513 0.998149 0.987272
1.00514 0.998706 0.986608
1.00513 0.997884 0.987541
1.0048 0.999307 0.98661
1.00513 0.998814 0.986515
1.00513 0.998096 0.987327
1.0036 0.99962 0.988145
1.00475 0.999329 0.986751
1.00514 0.99891 0.986523
1.00111 0.99994 0.992576
1.00341 0.999764 0.988365
1.00457 0.999459 0.987093
0.999616 1.00033 0.998098
1.00095 1.00026 0.992545
1.0032 1.00001 0.988525
0.999484 1.00042 0.99808
1.00062 1.00087 0.992515
0.999314 1.00007 0.998263
1.00511 0.998609 0.986873
1.00511 0.99801 0.987397
1.0051 0.997412 0.987971
1.00484 0.999269 0.986789
1.00511 0.998668 0.986809
1.0051 0.997932 0.987512
1.00511 0.998714 0.986779
1.00488 0.999381 0.98663
1.00386 0.999792 0.987583
1.00485 0.999639 0.986458
1.00383 0.99992 0.987649
1.00144 1.00007 0.991884
1.00371 0.99999 0.987918
1.00134 1.00009 0.992039
0.999887 0.999994 0.997947
1.00124 1.00007 0.992248
0.999843 0.999978 0.997995
0.99979 0.999867 0.995776
1.00513 0.998701 0.986724
1.00513 0.99805 0.98732
1.0048 0.999287 0.986648
1.00513 0.998712 0.986607
1.00513 0.997864 0.987542
1.0037 0.999664 0.988248
1.0048 0.999308 0.986605
1.00514 0.998845 0.986447
1.00126 0.999839 0.992415
1.00361 0.999666 0.988235
1.00475 0.999406 0.98688
0.999764 1.0001 0.998071
1.00111 0.999931 0.992585
1.00343 0.999757 0.988328
0.999597 1.00032 0.998083
1.00095 1.00026 0.992546
0.999422 1.00038 0.998103
1.00481 0.999234 0.986889
1.00512 0.998639 0.986831
1.00511 0.998036 0.987346
1.00381 0.99973 0.987743
1.00484 0.99928 0.98679
1.00511 0.998619 0.986872
1.00488 0.999386 0.986626
1.00387 0.999788 0.987567
1.00148 1.00004 0.991841
1.00382 0.999954 0.987747
1.00144 1.00007 0.991881
0.99996 1.00001 0.997879
1.00134 1.0001 0.992032
0.999911 0.999999 0.997923
0.999866 0.999983 0.997963
1.0048 0.999263 0.986704
1.00512 0.998604 0.986792
1.00514 0.997952 0.987368
1.00371 0.999715 0.988188
1.0048 0.999289 0.986639
1.00513 0.998719 0.986606
1.00134 0.99989 0.992226
1.0037 0.999671 0.988242
1.00479 0.999309 0.9866
0.999879 0.999965 0.997998
1.00125 0.999849 0.992422
1.00362 0.999705 0.988325
0.999718 1.00013 0.998086
1.0011 0.999935 0.992595
0.999589 1.00031 0.998065
1.00376 0.999782 0.988043
1.00481 0.9992 0.986791
1.00512 0.998667 0.986788
1.00145 0.999998 0.991938
1.00382 0.999723 0.987722
1.00484 0.99929 0.986791
1.00388 0.999783 0.987551
1.00147 1.00003 0.991846
1.00001 1.00001 0.997828
1.00143 1.00006 0.991877
0.999979 1.00001 0.997855
0.999932 1 0.997901
1.00373 0.999749 0.988124
1.0048 0.999205 0.986705
1.00512 0.998508 0.98686
1.00143 0.999985 0.993249
1.00371 0.999713 0.988183
1.00479 0.999291 0.98663
0.999922 0.999948 0.997931
1.00134 0.999912 0.99223
1.0037 0.999679 0.988237
0.99984 0.999998 0.998027
1.00125 0.999869 0.992429
0.999689 1.00014 0.998093
1.00145 0.999989 0.991978
1.00376 0.999743 0.987947
1.00482 0.999162 0.986694
0.999996 1 0.997838
1.00144 1 0.991941
1.00383 0.999717 0.9877
1.00147 1.00003 0.991848
1.00001 1.00001 0.997827
1 1.00001 0.997839
1.0015 0.999988 0.993155
1.00374 0.999744 0.988124
1.00479 0.999146 0.986707
0.999688 0.999984 0.998155
1.00136 0.999987 0.992117
1.00372 0.999711 0.988178
0.999908 0.999963 0.99796
1.00134 0.999937 0.992234
0.999807 1.00002 0.998055
0.999961 1 0.995449
1.00146 0.999988 0.992579
1.00376 0.999705 0.987849
0.999993 1 0.997842
1.00143 1 0.991947
1.00002 1.00001 0.997819
0.999683 1 0.995745
1.00144 0.999989 0.99262
1.00374 0.99974 0.988124
0.999801 0.999985 0.996831
1.00137 0.999982 0.992121
0.999887 0.999979 0.997985
0.999961 0.999997 0.997862
1.0014 0.999993 0.992043
0.999972 1 0.997851
0.999814 0.999994 0.996811
1.00138 0.999991 0.99208
0.99992 0.999974 0.997933
0.99995 0.999992 0.997881
0.99993 0.999985 0.997901

TENSORS stress float
0.0014774 -5.7531e-05 0.000129724
-5.7531e-05 0.000484807 -1.52298e-05
0.000129724 -1.52298e-05 0.000463701
0.00434154 -9.98413e-05 0.000121208
-9.98413e-05 0.00211018 8.48293e-06
0.000121208 8.48293e-06 0.00209789
0.00140286 1.85638e-05 6.70158e-05
1.85638e-05 0.000459038 -4.9657e-06
6.70158e-05 -4.9657e-06 0.000426774
0.00170442 -3.84253e-05 0.000132594
-3.84253e-05 0.000589684 -1.03434e-05
0.000132594 -1.03434e-05 0.000570544
0.00159833 -5.3689e-05 0.000128908
-5.3689e-05 0.000546057 -1.41765e-05
0.000128908 -1.41765e-05 0.000525519
0.00128833 -4.54614e-05 0.000122935
-4.54614e-05 0.00037871 -1.39235e-05
0.000122935 -1.39235e-05 0.000360736
0.00135601 -1.97529e-05 1.32078e-05
-1.97529e-05 0.000358636 -7.63235e-06
1.32078e-05 -7.63235e-06 0.000287516
0.00418592 -0.000127979 7.71168e-06
-0.000127979 0.0020247 -9.73058e-07
7.71168e-06 -9.73058e-07 0.00201081
0.00493249 -6.9921e-05 3.47665e-05
-6.9921e-05 0.00241646 1.90517e-06
3.47665e-05 1.90517e-06 0.00240147
0.00434935 -0.00029039 -1.29182e-05
-0.00029039 0.00216495 5.49467e-06
-1.29182e-05 5.49467e-06 0.00211431
0.00141564 4.49497e-06 0.000106569
4.49497e-06 0.000446168 7.93462e-06
0.000106569 7.93462e-06 0.000435305
0.000752813 0.00010316 1.41993e-05
0.00010316 3.18214e-05 9.62771e-06
1.41993e-05 9.62771e-06 -3.21154e-05
0.00163852 -2.01077e-05 0.000147985
-2.01077e-05 0.000544542 1.69932e-06
0.000147985 1.69932e-06 0.000527122
0.0012515 -7.64368e-06 1.62825e-05
-7.64368e-06 0.00034476 1.67864e-06
1.62825e-05 1.67864e-06 0.000313584
0.00140456 4.91122e-05 -1.03477e-05
4.91122e-05 0.000461867 4.18337e-06
-1.03477e-05 4.18337e-06 0.000427192
0.00147806 -2.89688e-05 5.21528e-05
-2.89688e-05 0.000469598 -3.11711e-06
5.21528e-05 -3.11711e-06 0.0004461
0.00131343 2.65868e-05 6.36877e-05
2.65868e-05 0.000411452 -4.5265e-06
6.36877e-05 -4.5265e-06 0.000380165
0.00144163 -3.94984e-06 5.95923e-05
-3.94984e-06 0.000465775 -5.21448e-06
5.95923e-05 -5.21448e-06 0.00043962
0.0014368 -6.52733e-05 -2.53042e-05
-6.52733e-05 0.000389651 1.54349e-06
-2.53042e-05 1.54349e-06 0.000327956
0.00513572 -9.85657e-05 0.000158882
-9.85657e-05 0.00252423 -3.23315e-06
0.000158882 -3.23315e-06 0.00251889
0.00168811 -2.44617e-05 0.000136035
-2.44617e-05 0.000576732 -7.9694e-06
0.000136035 -7.9694e-06 0.000557354
0.00168023 -4.80114e-05 0.000130205
-4.80114e-05 0.000582228 -1.24276e-05
0.000130205 -1.24276e-05 0.000562775
0.00144779 -6.27721e-05 3.17803e-05
-6.27721e-05 0.000362116 -4.88161e-06
3.17803e-05 -4.88161e-06 0.000303723
0.00141762 -4.15411e-05 2.16613e-05
-4.15411e-05 0.000367607 -6.3887e-06
2.16613e-05 -6.3887e-06 0.00030528
0.00116281 1.68856e-07 9.96471e-05
1.68856e-07 0.000307688 -1.10269e-05
9.96471e-05 -1.10269e-05 0.000291623
0.00119129 -1.26281e-05 1.03831e-05
-1.26281e-05 0.000290165 -7.82338e-06
1.03831e-05 -7.82338e-06 0.000218109
0.00191337 -0.000168314 9.56347e-06
-0.000168314 0.000532497 -3.97642e-06
9.56347e-06 -3.97642e-06 0.000420735
0.00402309 -0.000153791 -9.30505e-05
-0.000153791 0.00193646 -4.89975e-06
-9.30505e-05 -4.89975e-06 0.00191998
0.00316877 -6.67262e-06 -7.60938e-05
-6.67262e-06 0.00142911 -3.45591e-06
-7.60938e-05 -3.45591e-06 0.00140908
0.00284356 -9.69462e-05 -5.65264e-05
-9.69462e-05 0.00127738 -1.8403e-06
-5.65264e-05 -1.8403e-06 0.00124966
0.00377645 -0.0001291 5.61422e-06
-0.0001291 0.00178724 -4.0941e-07
5.61422e-06 -4.0941e-07 0.00177777
0.000644484 9.06166e-05 -2.2593e-08
9.06166e-05 -2.38619e-05 -3.6649e-07
-2.2593e-08 -3.6649e-07 -8.67976e-05
0.00154233 4.65611e-05 0.000135864
4.65611e-05 0.000500986 9.41139e-06
0.000135864 9.41139e-06 0.000481383
0.00176192 8.95558e-05 0.000136351
8.95558e-05 0.000638497 1.26358e-05
0.000136351 1.26358e-05 0.000619576
0.00248249 0.000136987 8.33318e-05
0.000136987 0.000948048 9.80438e-06
8.33318e-05 9.80438e-06 0.000894782
0.00309071 -0.000152914 1.41413e-05
-0.000152914 0.0014047 1.68964e-06
1.41413e-05 1.68964e-06 0.00139163
0.00241695 0.000125631 7.42636e-05
0.000125631 0.000950248 1.01101e-05
7.42636e-05 1.01101e-05 0.00089543
0.000677636 5.23499e-05 1.25934e-05
5.23499e-05 -1.07341e-06 1.15414e-05
1.25934e-05 1.15414e-05 -5.63101e-05
0.000950098 0.000126636 5.88067e-06
0.000126636 8.74667e-05 2.89795e-06
5.88067e-06 2.89795e-06 -2.74496e-05
0.0026434 -9.52899e-05 5.61534e-05
-9.52899e-05 0.001138 2.47547e-06
5.61534e-05 2.47547e-06 0.00114177
0.00517752 4.96579e-05 2.32413e-06
4.96579e-05 0.0025388 -9.95205e-07
2.32413e-06 -9.95205e-07 0.00253824
0.00320152 2.4744e-05 -5.97804e-05
2.4744e-05 0.00143777 -1.44127e-06
-5.97804e-05 -1.44127e-06 0.00141981
0.00517801 7.27105e-05 0.000159376
7.27105e-05 0.00254175 1.16244e-06
0.000159376 1.16244e-06 0.00253951
0.00133986 4.89861e-06 1.44785e-05
4.89861e-06 0.000393651 1.35466e-06
1.44785e-05 1.35466e-06 0.00036244
0.000739131 1.34351e-06 1.59208e-05
1.34351e-06 -6.3895e-05 2.01059e-06
1.59208e-05 2.01059e-06 -0.00012766
0.00488158 0.000119859 6.39315e-05
0.000119859 0.00238621 4.52307e-06
6.39315e-05 4.52307e-06 0.00237077
0.00251766 3.20577e-05 8.37686e-05
3.20577e-05 0.000938694 5.04912e-06
8.37686e-05 5.04912e-06 0.000892725
0.0012057 -5.2716e-05 -2.98176e-05
-5.2716e-05 0.000328476 3.5557e-06
-2.98176e-05 3.5557e-06 0.000297853
0.00131593 -9.33788e-06 -2.22494e-05
-9.33788e-06 0.000398997 3.7416e-06
-2.22494e-05 3.7416e-06 0.00037
0.00137572 0.000124715 4.15335e-06
0.000124715 0.0004737 6.10399e-06
4.15335e-06 6.10399e-06 0.000423868
0.00146611 -8.68591e-05 -7.05891e-05
-8.68591e-05 0.000398533 9.84396e-06
-7.05891e-05 9.84396e-06 0.000342053
0.00329588 2.5034e-05 -6.52218e-05
2.5034e-05 0.00149609 -1.07364e-06
-6.52218e-05 -1.07364e-06 0.00147255
0.0014803 -3.61452e-05 5.53049e-05
-3.61452e-05 0.00047024 -2.02751e-06
5.53049e-05 -2.02751e-06 0.000444662
0.00117303 4.17022e-05 4.96964e-05
4.17022e-05 0.000328007 -3.51942e-06
4.96964e-05 -3.51942e-06 0.00030251
0.00147113 -2.22613e-05 5.43439e-05
-2.22613e-05 0.000470296 -4.44033e-06
5.43439e-05 -4.44033e-06 0.000447008
0.00149184 -6.33346e-05 -1.96651e-05
-6.33346e-05 0.000383613 6.93322e-07
-1.96651e-05 6.93322e-07 0.000328231
0.00131867 -3.92164e-05 -2.79721e-05
-3.92164e-05 0.000352892 4.98975e-07
-2.79721e-05 4.98975e-07 0.000286874
0.00147548 -7.32035e-05 -2.13964e-05
-7.32035e-05 0.000393069 1.38643e-06
-2.13964e-05 1.38643e-06 0.000335793
0.00194876 -0.000168727 -4.58708e-06
-0.000168727 0.000550925 1.18634e-06
-4.58708e-06 1.18634e-06 0.000438895
0.00513222 7.19625e-05 0.000150287
7.19625e-05 0.00251701 -7.88791e-08
0.000150287 -7.88791e-08 0.00251507
0.00169942 -9.95723e-06 0.00014043
-9.95723e-06 0.000580121 -5.41998e-06
0.00014043 -5.41998e-06 0.000560568
0.0023551 5.93264e-05 1.70936e-05
5.93264e-05 0.000859509 -1.27838e-06
1.70936e-05 -1.27838e-06 0.000802808
0.00144701 -6.68323e-05 3.035e-05
-6.68323e-05 0.000357945 -4.17408e-06
3.035e-05 -4.17408e-06 0.000297723
0.00144711 -5.76222e-05 2.8388e-05
-5.76222e-05 0.000367704 -5.56006e-06
2.8388e-05 -5.56006e-06 0.000309132
0.00195489 -0.000106238 9.54894e-06
-0.000106238 0.000491262 -2.32646e-06
9.54894e-06 -2.32646e-06 0.00039175
0.00152071 -0.000134485 1.17085e-05
-0.000134485 0.000280113 -4.17229e-06
1.17085e-05 -4.17229e-06 0.000172582
0.00112763 3.96413e-05 7.37657e-05
3.96413e-05 0.000280208 -8.4739e-06
7.37657e-05 -8.4739e-06 0.000266475
0.000881441 1.59971e-05 8.31799e-06
1.59971e-05 0.000143507 -6.25179e-06
8.31799e-06 -6.25179e-06 8.37344e-05
0.00171968 -0.000162066 7.15477e-06
-0.000162066 0.000478891 -3.91648e-06
7.15477e-06 -3.91648e-06 0.000365057
0.00128703 -0.000161276 6.24493e-06
-0.000161276 9.56785e-05 -1.49916e-06
6.24493e-06 -1.49916e-06 -4.32662e-05
0.00505451 2.80614e-05 -0.000151394
2.80614e-05 0.00247698 -9.14734e-06
-0.000151394 -9.14734e-06 0.00247503
0.00357284 -0.000141162 -7.95349e-05
-0.000141162 0.00167385 -3.12378e-06
-7.95349e-05 -3.12378e-06 0.0016637
0.0043966 -0.000155786 -0.000102643
-0.000155786 0.00215489 -7.58597e-06
-0.000102643 -7.58597e-06 0.00213332
0.000544874 8.62189e-05 -1.2372e-05
8.62189e-05 -7.55465e-05 -9.94784e-06
-1.2372e-05 -9.94784e-06 -0.000137809
0.00517282 7.93047e-05 -2.57376e-06
7.93047e-05 0.00253562 -1.13918e-06
-2.57376e-06 -1.13918e-06 0.00253395
0.005016 -4.89245e-05 -7.20839e-06
-4.89245e-05 0.00247429 2.45119e-07
-7.20839e-06 2.45119e-07 0.0024637
0.000595334 0.000105754 -5.23206e-07
0.000105754 -0.000106768 -2.41919e-07
-5.23206e-07 -2.41919e-07 -0.000175275
0.00209331 -9.52128e-05 -3.33424e-05
-9.52128e-05 0.000836571 -1.63501e-07
-3.33424e-05 -1.63501e-07 0.000824837
0.000609711 0.000121155 -8.42526e-07
0.000121155 -5.83626e-05 -7.42707e-08
-8.42526e-07 -7.42707e-08 -0.00012511
0.00127922 3.14751e-05 2.1279e-05
3.14751e-05 0.000344683 2.58628e-07
2.1279e-05 2.58628e-07 0.000295752
0.000887848 0.000119963 3.0874e-07
0.000119963 5.11929e-05 -1.87913e-07
3.0874e-07 -1.87913e-07 -6.2588e-05
0.00297039 -9.8743e-05 7.41261e-05
-9.8743e-05 0.00132249 2.93342e-06
7.41261e-05 2.93342e-06 0.00132451
0.00062423 -6.61276e-05 -8.46207e-07
-6.61276e-05 -2.24496e-06 5.67908e-06
-8.46207e-07 5.67908e-06 -3.23803e-05
0.000713397 7.55222e-05 1.67116e-05
7.55222e-05 -6.08986e-05 7.85608e-06
1.67116e-05 7.85608e-06 -0.000126549
0.000749467 0.000120576 2.05056e-05
0.000120576 -5.83399e-06 1.21295e-05
2.05056e-05 1.21295e-05 -7.68567e-05
0.00105749 0.000118044 1.08247e-05
0.000118044 5.47453e-07 4.38175e-06
1.08247e-05 4.38175e-06 -0.000116096
0.00183597 -2.2045e-05 4.24522e-05
-2.2045e-05 0.00066728 5.27584e-06
4.24522e-05 5.27584e-06 0.000631868
0.000999663 0.000133259 7.49714e-06
0.000133259 6.39852e-05 4.56409e-06
7.49714e-06 4.56409e-06 -5.32214e-05
0.000941284 0.000108774 5.27033e-06
0.000108774 0.000127814 3.14114e-06
5.27033e-06 3.14114e-06 1.67244e-05
0.00091119 0.000150902 2.11365e-06
0.000150902 2.27103e-05 8.87634e-08
2.11365e-06 8.87634e-08 -0.000119711
0.00237382 -8.85568e-05 4.03722e-05
-8.85568e-05 0.000982055 2.57526e-06
4.03722e-05 2.57526e-06 0.000987926
0.00252592 -9.90842e-05 3.10934e-06
-9.90842e-05 0.0010738 -2.17867e-07
3.10934e-06 -2.17867e-07 0.00107651
0.00512824 2.13754e-05 -0.000152952
2.13754e-05 0.0025085 -6.02129e-06
-0.000152952 -6.02129e-06 0.00250883
0.00516331 4.35316e-05 -0.000153884
4.35316e-05 0.00252981 -2.80893e-06
-0.000153884 -2.80893e-06 0.0025301
0.00519729 7.58183e-05 1.67411e-07
7.58183e-05 0.0025561 -1.17438e-06
1.67411e-07 -1.17438e-06 0.00255154
0.00322042 -1.84057e-05 -7.31873e-05
-1.84057e-05 0.00144453 -1.71017e-06
-7.31873e-05 -1.71017e-06 0.00142878
0.00164037 1.72847e-05 3.58576e-05
1.72847e-05 0.000442937 3.80309e-07
3.58576e-05 3.80309e-07 0.000387833
0.00323981 6.60121e-05 -6.47903e-05
6.60121e-05 0.00145633 -3.07223e-06
-6.47903e-05 -3.07223e-06 0.00143922
0.00164966 4.80164e-05 3.41417e-05
4.80164e-05 0.000456061 9.42192e-07
3.41417e-05 9.42192e-07 0.000400444
0.0052005 0.000142746 0.00015797
0.000142746 0.00256671 2.7267e-06
0.00015797 2.7267e-06 0.00255614
0.000678108 -1.04867e-06 1.6224e-05
-1.04867e-06 -9.84232e-05 5.27311e-07
1.6224e-05 5.27311e-07 -0.000161689
0.0025665 4.39204e-06 8.5327e-05
4.39204e-06 0.000963588 3.51676e-06
8.5327e-05 3.51676e-06 0.000917643
0.00114132 2.5681e-05 1.12423e-05
2.5681e-05 4.14292e-06 1.38738e-06
1.12423e-05 1.38738e-06 -0.000104018
0.00245231 7.56614e-05 8.37352e-05
7.56614e-05 0.000909522 6.04228e-06
8.37352e-05 6.04228e-06 0.000861388
0.00114734 6.34474e-05 1.08473e-05
6.34474e-05 1.95106e-05 2.50793e-06
1.08473e-05 2.50793e-06 -8.97035e-05
0.00165899 2.69825e-05 -0.000146574
2.69825e-05 0.000557606 8.94918e-07
-0.000146574 8.94918e-07 0.000540163
0.00123644 -1.60137e-05 -2.06296e-05
-1.60137e-05 0.000340313 1.94675e-06
-2.06296e-05 1.94675e-06 0.00031031
0.00118286 0.000104691 -2.94183e-06
0.000104691 0.00035235 4.50847e-06
-2.94183e-06 4.50847e-06 0.000313597
0.00124864 -3.49393e-05 -2.85512e-05
-3.49393e-05 0.000354296 3.71114e-06
-2.85512e-05 3.71114e-06 0.000325585
0.00158131 -4.79732e-05 -7.18291e-05
-4.79732e-05 0.000428351 5.77466e-06
-7.18291e-05 5.77466e-06 0.000377192
0.0015196 -7.69458e-05 -7.01835e-05
-7.69458e-05 0.000412553 8.91984e-06
-7.01835e-05 8.91984e-06 0.000358948
0.00138402 -7.71988e-05 -6.65329e-05
-7.71988e-05 0.000376252 9.48902e-06
-6.65329e-05 9.48902e-06 0.000319131
0.00199468 -0.000170227 -1.85272e-05
-0.000170227 0.00057565 6.31919e-06
-1.85272e-05 6.31919e-06 0.000463191
0.00519075 -7.57106e-05 2.4011e-07
-7.57106e-05 0.0025523 -8.91617e-07
2.4011e-07 -8.91617e-07 0.00254766
0.00148078 2.93867e-05 6.42716e-05
2.93867e-05 0.000465935 -1.79274e-06
6.42716e-05 -1.79274e-06 0.000440981
0.00114084 5.71335e-06 -3.85143e-05
5.71335e-06 0.000165842 5.34109e-07
-3.85143e-05 5.34109e-07 0.000108751
0.00149857 -4.11552e-05 -2.27759e-05
-4.11552e-05 0.000381079 6.56777e-07
-2.27759e-05 6.56777e-07 0.000325494
0.00227505 7.40887e-05 7.28369e-05
7.40887e-05 0.000935982 -4.83241e-07
7.28369e-05 -4.83241e-07 0.000926616
0.00147003 -7.41399e-06 -1.84372e-05
-7.41399e-06 0.000461976 -4.79811e-07
-1.84372e-05 -4.79811e-07 0.000406075
0.00149413 -7.01449e-05 -1.96223e-05
-7.01449e-05 0.000391074 9.94862e-07
-1.96223e-05 9.94862e-07 0.000335528
0.00177664 -9.84312e-05 -6.67175e-06
-9.84312e-05 0.000389941 1.19204e-06
-6.67175e-06 1.19204e-06 0.000289256
0.00184491 -0.000170998 -3.51027e-06
-0.000170998 0.000546405 1.01653e-06
-3.51027e-06 1.01653e-06 0.000430341
0.00176122 -0.000143041 -2.38581e-06
-0.000143041 0.000414866 5.05964e-07
-2.38581e-06 5.05964e-07 0.000308099
0.00124598 -0.000157932 1.36294e-07
-0.000157932 7.42624e-05 -7.18581e-08
1.36294e-07 -7.18581e-08 -6.41326e-05
0.000711568 7.18311e-06 1.6509e-05
7.18311e-06 -7.87772e-05 -1.22482e-06
1.6509e-05 -1.22482e-06 -0.000141183
0.00145499 4.9166e-06 2.32264e-05
4.9166e-06 0.000352685 -2.45035e-06
2.32264e-05 -2.45035e-06 0.000293506
0.00160556 -2.02941e-05 1.12719e-05
-2.02941e-05 0.000267166 -1.14514e-06
1.12719e-05 -1.14514e-06 0.000165789
0.00155305 -7.58311e-05 1.08137e-05
-7.58311e-05 0.000258404 -2.28887e-06
1.08137e-05 -2.28887e-06 0.000156294
0.0015403 -0.000115143 1.1569e-05
-0.000115143 0.00026905 -3.46148e-06
1.1569e-05 -3.46148e-06 0.000164926
0.00177477 -0.000113527 3.1918e-06
-0.000113527 0.000301257 -8.48688e-07
3.1918e-06 -8.48688e-07 0.000179027
0.00321793 0.000122006 7.05217e-05
0.000122006 0.00146203 -2.47012e-06
7.05217e-05 -2.47012e-06 0.00145848
0.0013376 -0.000145258 5.69381e-06
-0.000145258 9.22231e-05 -1.56352e-06
5.69381e-06 -1.56352e-06 -3.9141e-05
0.000517558 1.15772e-05 5.20208e-06
1.15772e-05 -7.18259e-05 -7.37727e-06
5.20208e-06 -7.37727e-06 -0.000119638
0.000664487 -0.000104842 4.24953e-06
-0.000104842 -4.23732e-05 -3.49218e-06
4.24953e-06 -3.49218e-06 -0.00015142
0.00136283 -0.000180603 5.62539e-06
-0.000180603 0.000199422 -2.77618e-06
5.62539e-06 -2.77618e-06 4.88145e-05
0.00145152 -0.00017752 3.39463e-06
-0.00017752 0.000125061 5.44303e-07
3.39463e-06 5.44303e-07 -2.13333e-05
0.000527558 4.62504e-05 1.76721e-06
4.62504e-05 -6.52615e-05 -6.68337e-06
1.76721e-06 -6.68337e-06 -0.000103082
0.000697434 2.06547e-05 6.20783e-07
2.06547e-05 1.40986e-05 -3.27059e-06
6.20783e-07 -3.27059e-06 -6.16185e-05
0.00515725 8.44919e-05 -0.000164042
8.44919e-05 0.00252867 -9.86529e-06
-0.000164042 -9.86529e-06 0.00252683
0.00475723 -6.6643e-05 -0.000127583
-6.6643e-05 0.0023309 -7.92527e-06
-0.000127583 -7.92527e-06 0.00232257
0.000587341 9.62559e-05 -1.57188e-05
9.62559e-05 -0.000111665 -8.72595e-06
-1.57188e-05 -8.72595e-06 -0.000180213
0.00314653 -0.000124452 -6.65658e-05
-0.000124452 0.0014285 -2.41667e-06
-6.65658e-05 -2.41667e-06 0.00142413
0.000512688 2.10793e-05 -6.3612e-06
2.10793e-05 -8.20058e-05 -8.78808e-06
-6.3612e-06 -8.78808e-06 -0.000133127
0.000512087 0.000113671 -1.56052e-05
0.000113671 -0.000109821 -9.90601e-06
-1.56052e-05 -9.90601e-06 -0.000176017
0.000842966 0.000115024 -6.00202e-06
0.000115024 2.48701e-05 -3.48335e-06
-6.00202e-06 -3.48335e-06 -8.80355e-05
0.00285863 -0.000107382 3.73893e-06
-0.000107382 0.00126282 -2.22629e-07
3.73893e-06 -2.22629e-07 0.00126308
0.000583266 -7.40299e-05 4.38119e-08
-7.40299e-05 -2.25105e-05 2.40891e-07
4.38119e-08 2.40891e-07 -5.39478e-05
0.00159042 9.26224e-05 3.33607e-05
9.26224e-05 0.000433157 1.39463e-06
3.33607e-05 1.39463e-06 0.000374405
0.00149283 0.000125173 3.03137e-05
0.000125173 0.000414521 9.89448e-07
3.03137e-05 9.89448e-07 0.000352246
0.00107122 0.000120415 2.01531e-07
0.000120415 9.18436e-06 -1.4834e-07
2.01531e-07 -1.4834e-07 -0.000107936
0.000629038 -2.00676e-05 -5.39795e-07
-2.00676e-05 -9.10728e-06 1.52462e-07
-5.39795e-07 1.52462e-07 -5.12317e-05
0.000954784 0.000129932 4.17037e-07
0.000129932 3.98427e-05 3.90009e-07
4.17037e-07 3.90009e-07 -7.68011e-05
0.000838482 9.97432e-05 2.61742e-07
9.97432e-05 7.00276e-05 -2.67069e-07
2.61742e-07 -2.67069e-07 -3.90293e-05
0.000832109 0.000145979 -4.59162e-08
0.000145979 -2.26915e-05 5.18497e-08
-4.59162e-08 5.18497e-08 -0.000165255
0.000625819 -4.70114e-05 3.18336e-06
-4.70114e-05 -1.41053e-06 6.33332e-06
3.18336e-06 6.33332e-06 -3.85563e-05
0.000656448 -6.53366e-05 -8.7156e-07
-6.53366e-05 6.21343e-06 4.65864e-06
-8.7156e-07 4.65864e-06 -1.71153e-05
0.000678834 3.03113e-06 2.00766e-06
3.03113e-06 1.76379e-05 3.07609e-06
2.00766e-06 3.07609e-06 -5.30833e-05
0.00109707 9.99014e-05 1.09889e-05
9.99014e-05 2.61293e-06 3.81827e-06
1.09889e-05 3.81827e-06 -0.000111214
0.00102871 0.000131346 9.66753e-06
0.000131346 2.75404e-05 4.56707e-06
9.66753e-06 4.56707e-06 -9.13097e-05
0.00130618 0.000147501 6.21384e-06
0.000147501 5.70713e-05 1.68048e-06
6.21384e-06 1.68048e-06 -8.36901e-05
0.000884242 8.09871e-05 4.15774e-06
8.09871e-05 0.000120269 3.35831e-06
4.15774e-06 3.35831e-06 1.95035e-05
0.000915295 0.00015099 2.67227e-06
0.00015099 -4.74922e-05 1.85627e-06
2.67227e-06 1.85627e-06 -0.000190184
0.00114129 0.000162218 2.30739e-06
0.000162218 0.000214003 7.67286e-07
2.30739e-06 7.67286e-07 6.91282e-05
0.00111491 0.000176372 -3.03629e-06
0.000176372 0.000118733 -1.47029e-06
-3.03629e-06 -1.47029e-06 -3.44085e-05
0.00222126 -7.85259e-05 3.35136e-05
-7.85259e-05 0.00088812 2.85172e-06
3.35136e-05 2.85172e-06 0.00089698
0.00229972 -8.81783e-05 1.46355e-06
-8.81783e-05 0.000940348 -1.59759e-07
1.46355e-06 -1.59759e-07 0.000946298
0.0024183 -9.88496e-05 -3.90456e-05
-9.88496e-05 0.00101438 -2.4556e-06
-3.90456e-05 -2.4556e-06 0.00101706
0.000550646 5.62408e-05 9.58838e-07
5.62408e-05 -5.30589e-05 -5.87636e-06
9.58838e-07 -5.87636e-06 -8.65429e-05
0.00301362 0.000112119 6.01412e-05
0.000112119 0.0013427 -2.58223e-06
6.01412e-05 -2.58223e-06 0.00134221
0.00516241 0.000112407 -0.000167108
0.000112407 0.00253338 -9.49512e-06
-0.000167108 -9.49512e-06 0.00252969
0.00510777 6.70399e-06 -0.000151209
6.70399e-06 0.00249795 -4.14825e-06
-0.000151209 -4.14825e-06 0.00249877
0.000718721 5.7116e-05 -1.65397e-05
5.7116e-05 -6.39664e-05 -4.2483e-06
-1.65397e-05 -4.2483e-06 -0.000127652
0.000689344 2.22881e-05 -1.66706e-05
2.22881e-05 -8.70591e-05 -2.26388e-06
-1.66706e-05 -2.26388e-06 -0.000151075
0.00516053 -5.56184e-05 -0.000150822
-5.56184e-05 0.00253041 -6.81958e-07
-0.000150822 -6.81958e-07 0.00252966
0.00518174 1.44379e-05 -7.76585e-07
1.44379e-05 0.0025422 4.04475e-07
-7.76585e-07 4.04475e-07 0.00254102
0.000676403 -2.42007e-06 -1.48385e-07
-2.42007e-06 -9.93975e-05 -1.86247e-07
-1.48385e-07 -1.86247e-07 -0.000162406
0.0016214 1.95877e-05 3.50842e-05
1.95877e-05 0.000436831 7.93544e-07
3.50842e-05 7.93544e-07 0.000382242
0.00115121 2.99273e-05 1.34891e-07
2.99273e-05 9.79097e-06 -1.91414e-07
1.34891e-07 -1.91414e-07 -9.85581e-05
0.000670077 5.3611e-05 1.12077e-07
5.3611e-05 -8.9015e-05 -1.72145e-07
1.12077e-07 -1.72145e-07 -0.00015279
0.00113595 6.57211e-05 -1.04846e-07
6.57211e-05 1.36822e-05 -5.12403e-08
-1.04846e-07 -5.12403e-08 -9.59183e-05
0.000668651 -1.62765e-05 1.65205e-05
-1.62765e-05 -0.000104962 -4.69453e-07
1.65205e-05 -4.69453e-07 -0.000167593
0.00114941 1.1217e-05 1.11328e-05
1.1217e-05 3.9432e-06 5.55465e-07
1.11328e-05 5.55465e-07 -0.000104094
0.00114087 4.51106e-05 1.10393e-05
4.51106e-05 1.15116e-05 2.11685e-06
1.10393e-05 2.11685e-06 -9.68963e-05
0.0014177 3.45662e-05 4.417e-06
3.45662e-05 6.65577e-05 5.25288e-07
4.417e-06 5.25288e-07 -5.65084e-05
0.00112461 8.05807e-05 1.08859e-05
8.05807e-05 9.84913e-06 2.96663e-06
1.08859e-05 2.96663e-06 -0.000101339
0.00140904 7.61e-05 4.43789e-06
7.61e-05 8.02367e-05 8.75465e-07
4.43789e-06 8.75465e-07 -4.70087e-05
0.00517478 -6.1833e-05 -0.000161721
-6.1833e-05 0.00254154 -3.72226e-07
-0.000161721 -3.72226e-07 0.00253817
0.00128532 -6.26945e-05 -1.7907e-05
-6.26945e-05 0.000366911 1.85205e-06
-1.7907e-05 1.85205e-06 0.00033506
-0.000162648 -3.29857e-07 -1.35131e-05
-3.29857e-07 -0.000565092 2.17386e-06
-1.35131e-05 2.17386e-06 -0.000635503
0.00158593 -3.23596e-05 -7.34026e-05
-3.23596e-05 0.000426058 4.29132e-06
-7.34026e-05 4.29132e-06 0.000374077
0.00328026 0.000174197 -1.46507e-05
0.000174197 0.00152211 1.74315e-06
-1.46507e-05 1.74315e-06 0.00150191
0.00206201 -6.3694e-05 -5.54103e-05
-6.3694e-05 0.000776678 8.06907e-06
-5.54103e-05 8.06907e-06 0.000728753
0.00156091 -6.40131e-05 -7.08278e-05
-6.40131e-05 0.000423871 7.51106e-06
-7.08278e-05 7.51106e-06 0.000371996
0.00157855 -9.02993e-05 -2.1225e-05
-9.02993e-05 0.000277362 4.21212e-06
-2.1225e-05 4.21212e-06 0.000175636
0.00200062 -0.000151892 -1.76986e-05
-0.000151892 0.000549206 5.36285e-06
-1.76986e-05 5.36285e-06 0.000443217
0.00201348 -0.000181556 -1.54702e-05
-0.000181556 0.00063855 6.62151e-06
-1.54702e-05 6.62151e-06 0.00052
0.00121129 -0.00015498 -5.30536e-06
-0.00015498 5.63531e-05 1.17108e-06
-5.30536e-06 1.17108e-06 -8.15413e-05
0.000670818 9.31164e-06 9.40318e-09
9.31164e-06 -0.0001016 -1.58991e-07
9.40318e-09 -1.58991e-07 -0.000163943
0.00154416 -3.72627e-05 -2.45279e-05
-3.72627e-05 0.000399835 2.13062e-07
-2.45279e-05 2.13062e-07 0.000343447
0.00118512 -1.74586e-05 -4.67944e-06
-1.74586e-05 3.19276e-05 2.0852e-07
-4.67944e-06 2.0852e-07 -7.29735e-05
0.00181179 -7.90068e-05 -3.25506e-06
-7.90068e-05 0.000400928 4.32007e-07
-3.25506e-06 4.32007e-07 0.000300452
0.00324784 0.000117699 -1.77767e-06
0.000117699 0.00147919 -3.24011e-07
-1.77767e-06 -3.24011e-07 0.00147613
0.00121868 -1.59142e-06 1.98315e-06
-1.59142e-06 0.000319514 4.87092e-07
1.98315e-06 4.87092e-07 0.000271354
0.00122156 -0.000129523 6.18124e-07
-0.000129523 0.00026508 -4.95643e-07
6.18124e-07 -4.95643e-07 0.00015518
0.00155682 -0.00011441 -3.63432e-06
-0.00011441 0.000278592 6.84283e-07
-3.63432e-06 6.84283e-07 0.000174452
0.0014666 -0.000103766 -2.49219e-06
-0.000103766 0.000128117 6.57965e-07
-2.49219e-06 6.57965e-07 4.70538e-06
0.0010278 -0.000159503 -7.30635e-07
-0.000159503 1.65624e-05 -4.68318e-07
-7.30635e-07 -4.68318e-07 -0.000132188
0.00154717 -0.000152194 2.27231e-07
-0.000152194 0.000209837 -6.82066e-08
2.27231e-07 -6.82066e-08 7.94702e-05
0.00139939 -0.00017409 4.36943e-07
-0.00017409 9.8343e-05 1.63482e-07
4.36943e-07 1.63482e-07 -4.77178e-05
0.000559211 4.04531e-05 -6.63357e-07
4.04531e-05 -4.84905e-05 8.92261e-08
-6.63357e-07 8.92261e-08 -8.60901e-05
0.000683075 6.35732e-06 -1.78986e-07
6.35732e-06 4.36327e-06 1.21778e-07
-1.78986e-07 1.21778e-07 -7.1532e-05
0.00113462 -8.68942e-06 1.0964e-05
-8.68942e-06 -3.16932e-06 -1.09076e-06
1.0964e-05 -1.09076e-06 -0.000110319
0.00161502 -4.37117e-05 1.08198e-05
-4.37117e-05 0.000278175 -1.61521e-06
1.08198e-05 -1.61521e-06 0.000176385
0.0017962 -2.71076e-05 3.22476e-06
-2.71076e-05 0.000284279 -2.50163e-07
3.22476e-06 -2.50163e-07 0.000166452
0.00122634 -7.63644e-05 5.22577e-06
-7.63644e-05 -1.46701e-05 -1.36521e-06
5.22577e-06 -1.36521e-06 -0.000138687
0.00164619 -0.000138112 4.66027e-06
-0.000138112 0.000242692 -1.21658e-06
4.66027e-06 -1.21658e-06 0.000116841
0.00166963 -0.000111911 1.66697e-07
-0.000111911 0.000187626 8.86888e-08
1.66697e-07 8.86888e-08 6.26257e-05
0.000497634 2.56969e-05 4.01336e-06
2.56969e-05 -8.35473e-05 -7.03751e-06
4.01336e-06 -7.03751e-06 -0.000125505
0.00142886 -0.000153693 2.36887e-06
-0.000153693 8.56706e-05 -2.78747e-07
2.36887e-06 -2.78747e-07 -4.96504e-05
0.000631402 -7.38795e-05 2.89887e-06
-7.38795e-05 -2.92824e-05 -2.20232e-06
2.89887e-06 -2.20232e-06 -0.000128903
0.000540465 -0.000129039 3.95722e-06
-0.000129039 -0.000163888 -4.14414e-06
3.95722e-06 -4.14414e-06 -0.000309878
0.00196868 -0.000229581 2.17076e-06
-0.000229581 0.000480747 -8.89102e-08
2.17076e-06 -8.89102e-08 0.000314532
0.00158255 -0.00018582 3.01517e-07
-0.00018582 0.000153643 1.52813e-06
3.01517e-07 1.52813e-06 1.18796e-05
0.000757706 -2.64504e-05 1.75227e-06
-2.64504e-05 5.08707e-05 -3.01422e-06
1.75227e-06 -3.01422e-06 -3.7455e-05
0.000668147 2.00115e-05 1.21273e-06
2.00115e-05 -4.21871e-06 -2.72995e-06
1.21273e-06 -2.72995e-06 -7.03811e-05
0.000844147 -6.49486e-05 7.43771e-07
-6.49486e-05 9.83925e-05 -6.39219e-07
7.43771e-07 -6.39219e-07 -1.04367e-05
0.000633661 7.71479e-05 -1.5454e-05
7.71479e-05 -0.000101192 -6.92371e-06
-1.5454e-05 -6.92371e-06 -0.0001672
0.00274502 -0.00011212 -5.00131e-05
-0.00011212 0.00120137 -2.27553e-06
-5.00131e-05 -2.27553e-06 0.00120048
0.000530503 -6.75428e-05 1.24834e-07
-6.75428e-05 -5.44497e-05 -4.96768e-06
1.24834e-07 -4.96768e-06 -8.39412e-05
0.000528828 0.00011131 -1.57519e-05
0.00011131 -0.000120378 -1.00756e-05
-1.57519e-05 -1.00756e-05 -0.000189516
0.00108299 0.000123015 -1.11277e-05
0.000123015 1.66957e-05 -4.68941e-06
-1.11277e-05 -4.68941e-06 -0.000100937
0.000493448 -2.91456e-05 -3.43018e-06
-2.91456e-05 -8.21673e-05 -7.43971e-06
-3.43018e-06 -7.43971e-06 -0.000124497
0.000719041 8.8371e-05 -3.71648e-06
8.8371e-05 3.31103e-06 -3.36447e-06
-3.71648e-06 -3.36447e-06 -0.000103718
0.000904985 0.000126122 -6.96393e-06
0.000126122 1.32649e-05 -3.90554e-06
-6.96393e-06 -3.90554e-06 -0.000102791
0.000727948 0.000139502 -3.52237e-06
0.000139502 -8.22372e-05 -9.75545e-07
-3.52237e-06 -9.75545e-07 -0.000224716
0.000559459 -5.08588e-05 1.5702e-06
-5.08588e-05 -3.93877e-05 1.51051e-07
1.5702e-06 1.51051e-07 -7.51807e-05
0.000619106 -6.01725e-05 -2.69926e-07
-6.01725e-05 -1.62041e-05 1.58219e-07
-2.69926e-07 1.58219e-07 -3.82401e-05
0.000660828 -3.12668e-05 3.42155e-07
-3.12668e-05 4.02806e-06 3.78985e-07
3.42155e-07 3.78985e-07 -6.25722e-05
0.00110584 0.000102149 9.43273e-08
0.000102149 8.35545e-06 -2.1157e-07
9.43273e-08 -2.1157e-07 -0.000105913
0.00101808 0.000131485 5.94588e-07
0.000131485 2.27891e-05 -3.59537e-07
5.94588e-07 -3.59537e-07 -9.60924e-05
0.00133188 0.000149921 3.51083e-07
0.000149921 7.03355e-05 2.46272e-08
3.51083e-07 2.46272e-08 -7.08372e-05
0.000791497 7.0352e-05 9.48564e-08
7.0352e-05 7.07629e-05 3.69737e-08
9.48564e-08 3.69737e-08 -2.91753e-05
0.00110842 0.000162882 -2.77811e-07
0.000162882 6.04022e-05 -2.15407e-07
-2.77811e-07 -2.15407e-07 -8.35718e-05
0.00102166 0.00015281 4.51903e-07
0.00015281 0.000147755 -5.16825e-07
4.51903e-07 -5.16825e-07 3.92949e-06
0.00104793 0.000175026 -7.7819e-07
0.000175026 7.95028e-05 1.25998e-06
-7.7819e-07 1.25998e-06 -7.34298e-05
0.000662128 -5.31866e-05 1.33735e-06
-5.31866e-05 -4.01667e-06 3.75475e-06
1.33735e-06 3.75475e-06 -2.09582e-05
0.000722904 3.61415e-05 2.52444e-06
3.61415e-05 3.5843e-05 2.78335e-06
2.52444e-06 2.78335e-06 -4.86727e-05
0.000662597 -4.39528e-05 2.25208e-07
-4.39528e-05 6.93601e-08 2.51824e-06
2.25208e-07 2.51824e-06 -5.25192e-05
0.000824032 4.04193e-05 2.40806e-07
4.04193e-05 0.00010565 1.07163e-06
2.40806e-07 1.07163e-06 3.00488e-06
0.00140148 0.000124844 6.2093e-06
0.000124844 8.84073e-05 1.72229e-06
6.2093e-06 1.72229e-06 -4.74363e-05
0.00123815 0.000164064 5.75618e-06
0.000164064 6.75055e-05 2.70199e-06
5.75618e-06 2.70199e-06 -7.7872e-05
0.00153338 0.000169661 3.77908e-06
0.000169661 0.000123185 3.57046e-07
3.77908e-06 3.57046e-07 -2.86029e-05
0.00109449 0.000129658 2.36805e-06
0.000129658 0.000225894 2.39394e-06
2.36805e-06 2.39394e-06 9.51642e-05
0.00142788 0.000195612 -7.49227e-07
0.000195612 0.000188457 2.24208e-06
-7.49227e-07 2.24208e-06 3.57746e-05
0.000986576 0.000166643 -7.85054e-07
0.000166643 0.000119971 -2.04322e-06
-7.85054e-07 -2.04322e-06 -4.79103e-05
0.00100152 0.000179035 -3.51465e-07
0.000179035 1.30591e-05 -6.05602e-07
-3.51465e-07 -6.05602e-07 -0.000141797
0.00071712 -2.69205e-05 1.41646e-06
-2.69205e-05 3.24099e-06 1.75086e-06
1.41646e-06 1.75086e-06 -3.37893e-05
0.000659866 -3.99097e-05 1.20128e-06
-3.99097e-05 -2.30497e-05 3.58289e-06
1.20128e-06 3.58289e-06 -3.43347e-05
0.00215121 -6.9159e-05 2.87471e-05
-6.9159e-05 0.000839407 3.2131e-06
2.87471e-05 3.2131e-06 0.000850955
0.00217432 -7.753e-05 1.64832e-06
-7.753e-05 0.000860718 -1.49154e-07
1.64832e-06 -1.49154e-07 0.000869891
0.00221673 -8.61956e-05 -3.44374e-05
-8.61956e-05 0.000893261 -2.70185e-06
-3.44374e-05 -2.70185e-06 0.000899719
0.000572464 5.76195e-05 7.03982e-07
5.76195e-05 -4.6866e-05 -5.15316e-06
7.03982e-07 -5.15316e-06 -7.56723e-05
0.00279555 0.000101932 5.03315e-05
0.000101932 0.0012171 -2.83579e-06
5.03315e-05 -2.83579e-06 0.00121917
0.000577068 5.33915e-05 -2.50312e-07
5.33915e-05 -3.87491e-05 1.13159e-07
-2.50312e-07 1.13159e-07 -7.21357e-05
0.00305369 0.000107916 -1.93006e-06
0.000107916 0.00136431 -2.25788e-07
-1.93006e-06 -2.25788e-07 0.0013646
0.00069287 6.84682e-05 -1.62137e-05
6.84682e-05 -7.49774e-05 -5.49948e-06
-1.62137e-05 -5.49948e-06 -0.000139869
0.000684736 3.02762e-05 -1.61642e-05
3.02762e-05 -8.60907e-05 -3.27937e-06
-1.61642e-05 -3.27937e-06 -0.000149571
0.00113123 6.73771e-05 -1.07061e-05
6.73771e-05 1.13369e-05 -2.58168e-06
-1.07061e-05 -2.58168e-06 -9.85631e-05
0.00115062 3.2046e-05 -1.1256e-05
3.2046e-05 9.72424e-06 -1.73713e-06
-1.1256e-05 -1.73713e-06 -9.87399e-05
0.000703917 -1.44942e-06 -1.68062e-05
-1.44942e-06 -8.54263e-05 -1.00514e-06
-1.68062e-05 -1.00514e-06 -0.000147603
0.00521146 -9.3044e-05 -0.000164005
-9.3044e-05 0.00256261 1.71622e-06
-0.000164005 1.71622e-06 0.00255908
0.000692715 -1.18598e-06 1.01866e-07
-1.18598e-06 -9.25001e-05 -3.08899e-07
1.01866e-07 -3.08899e-07 -0.000154836
0.00115429 1.56637e-05 -4.99538e-09
1.56637e-05 6.84851e-06 -1.64349e-07
-4.99538e-09 -1.64349e-07 -0.00010128
0.00114178 4.63152e-05 -8.45306e-09
4.63152e-05 1.24138e-05 -8.52258e-08
-8.45306e-09 -8.52258e-08 -9.6171e-05
0.00141092 3.40647e-05 -1.94091e-08
3.40647e-05 6.41111e-05 -9.58274e-08
-1.94091e-08 -9.58274e-08 -5.90221e-05
0.00112568 8.32876e-05 -2.64843e-08
8.32876e-05 1.10033e-05 -2.17689e-07
-2.64843e-08 -2.17689e-07 -0.000100724
0.00140049 7.81919e-05 -8.24133e-08
7.81919e-05 7.57031e-05 3.65829e-08
-8.24133e-08 3.65829e-08 -5.19183e-05
0.00115836 -3.19893e-07 1.10699e-05
-3.19893e-07 8.5745e-06 -2.11797e-07
1.10699e-05 -2.11797e-07 -9.91265e-05
0.00142379 2.07737e-05 4.21597e-06
2.07737e-05 6.28924e-05 2.73116e-07
4.21597e-06 2.73116e-07 -5.92474e-05
0.00141335 5.61076e-05 4.47054e-06
5.61076e-05 7.6159e-05 8.28062e-07
4.47054e-06 8.28062e-07 -4.86375e-05
0.00156818 4.50197e-05 1.17571e-07
4.50197e-05 7.54757e-05 -5.05588e-08
1.17571e-07 -5.05588e-08 -4.34691e-05
0.0014208 0.00010009 4.74724e-06
0.00010009 8.9194e-05 8.82778e-07
4.74724e-06 8.82778e-07 -4.21972e-05
0.00154023 8.7424e-05 1.27882e-07
8.7424e-05 8.95442e-05 -2.96465e-07
1.27882e-07 -2.96465e-07 -3.71428e-05
0.000677639 1.18377e-05 -1.59074e-05
1.18377e-05 -9.84876e-05 7.70488e-07
-1.59074e-05 7.70488e-07 -0.000160943
0.00160608 -1.32238e-05 -7.51266e-05
-1.32238e-05 0.00043073 2.92268e-06
-7.51266e-05 2.92268e-06 0.000377864
0.000751729 -1.31886e-05 -1.19641e-05
-1.31886e-05 -0.000210496 1.59463e-06
-1.19641e-05 1.59463e-06 -0.00031898
0.00205072 -8.07851e-05 -1.86874e-05
-8.07851e-05 0.000532164 3.12345e-06
-1.86874e-05 3.12345e-06 0.0004335
0.00328558 0.000108854 -8.33619e-05
0.000108854 0.0014999 3.04094e-06
-8.33619e-05 3.04094e-06 0.00149812
0.00196785 -1.24427e-05 -4.66168e-05
-1.24427e-05 0.000734951 5.57924e-06
-4.66168e-05 5.57924e-06 0.000692831
0.00184481 -0.000162624 -1.05753e-05
-0.000162624 0.00060799 4.91024e-06
-1.05753e-05 4.91024e-06 0.000496296
0.0015599 -0.000113077 -1.84279e-05
-0.000113077 0.000280526 4.64302e-06
-1.84279e-05 4.64302e-06 0.000176522
0.0011535 -9.37128e-05 -6.51007e-06
-9.37128e-05 -4.77532e-05 1.78466e-06
-6.51007e-06 1.78466e-06 -0.000172318
0.00175653 -0.000159214 -6.64737e-06
-0.000159214 0.000327321 1.76018e-06
-6.64737e-06 1.76018e-06 0.000197935
0.000682695 -0.000137577 -5.07279e-06
-0.000137577 -0.000171837 1.1161e-06
-5.07279e-06 1.1161e-06 -0.000318619
0.00135175 -0.000170815 -2.39261e-06
-0.000170815 7.3869e-05 -1.87396e-07
-2.39261e-06 -1.87396e-07 -7.18307e-05
0.000599353 3.20093e-05 -4.16411e-06
3.20093e-05 -2.64994e-05 6.37791e-06
-4.16411e-06 6.37791e-06 -6.41432e-05
0.000684235 -8.35025e-06 -1.9109e-06
-8.35025e-06 4.63154e-06 2.85111e-06
-1.9109e-06 2.85111e-06 -7.24551e-05
0.000953548 -4.50824e-06 -4.40173e-07
-4.50824e-06 -0.000103607 -1.79376e-07
-4.40173e-07 -1.79376e-07 -0.000211991
0.00161591 -4.49712e-05 -3.89042e-06
-4.49712e-05 0.000277975 3.49169e-07
-3.89042e-06 3.49169e-07 0.000176147
0.001741 -2.36429e-05 -2.36451e-06
-2.36429e-05 0.00025132 3.18323e-07
-2.36451e-06 3.18323e-07 0.000133637
0.00153733 -8.19352e-05 9.55147e-07
-8.19352e-05 0.000158342 -3.26351e-07
9.55147e-07 -3.26351e-07 3.60763e-05
0.000573218 1.59153e-05 1.54244e-07
1.59153e-05 -4.39027e-05 1.68828e-07
1.54244e-07 1.68828e-07 -8.56744e-05
0.00082395 -9.16756e-05 -1.06188e-07
-9.16756e-05 7.63794e-05 2.60668e-07
-1.06188e-07 2.60668e-07 -2.56544e-05
0.000730553 -0.000140921 1.31911e-06
-0.000140921 -5.48664e-05 -1.43399e-06
1.31911e-06 -1.43399e-06 -0.000200073
0.00173016 -0.00013923 -1.39045e-06
-0.00013923 0.000289235 3.13012e-07
-1.39045e-06 3.13012e-07 0.000163666
0.00157197 -0.000107877 -5.81726e-07
-0.000107877 0.00012943 4.44645e-07
-5.81726e-07 4.44645e-07 5.22294e-06
0.00153873 -0.000203846 -1.63323e-06
-0.000203846 0.000240608 5.46505e-07
-1.63323e-06 5.46505e-07 7.56491e-05
0.00145041 -0.000154474 2.15543e-07
-0.000154474 9.68452e-05 6.81032e-08
2.15543e-07 6.81032e-08 -3.84605e-05
0.00158126 -0.000186464 2.37556e-07
-0.000186464 0.000149669 4.57974e-07
2.37556e-07 4.57974e-07 7.29387e-06
0.000735446 -3.1611e-05 -3.31125e-07
-3.1611e-05 3.78566e-05 -1.834e-07
-3.31125e-07 -1.834e-07 -5.07159e-05
0.000738022 -3.37513e-05 -6.74763e-07
-3.37513e-05 3.37956e-05 -3.95395e-07
-6.74763e-07 -3.95395e-07 -6.94053e-05
0.000687016 1.18077e-05 4.20339e-07
1.18077e-05 4.81757e-06 2.60557e-07
4.20339e-07 2.60557e-07 -6.12411e-05
0.00179408 -6.59546e-06 2.97481e-06
-6.59546e-06 0.000274972 -2.48196e-07
2.97481e-06 -2.48196e-07 0.000156811
0.00168795 -5.05257e-05 3.6878e-06
-5.05257e-05 0.000225859 -3.5905e-07
3.6878e-06 -3.5905e-07 0.000106223
0.00169546 -2.95541e-05 1.91265e-07
-2.95541e-05 0.000151575 5.14371e-07
1.91265e-07 5.14371e-07 3.36384e-05
0.00153909 -8.3791e-05 4.6461e-08
-8.3791e-05 9.73767e-05 -2.41669e-07
4.6461e-08 -2.41669e-07 -2.62608e-05
0.00141394 -0.000131541 2.17029e-06
-0.000131541 5.5994e-05 -1.62898e-07
2.17029e-06 -1.62898e-07 -7.27935e-05
0.00166952 -0.000115839 -2.51139e-06
-0.000115839 0.000130326 1.0067e-06
-2.51139e-06 1.0067e-06 1.53792e-05
0.000717094 -5.65572e-05 2.71957e-06
-5.65572e-05 2.93281e-05 -2.0697e-06
2.71957e-06 -2.0697e-06 -6.57816e-05
0.00155107 -0.000166309 -3.13138e-07
-0.000166309 0.000107489 4.37798e-07
-3.13138e-07 4.37798e-07 -2.44262e-05
0.000888906 -0.000139502 1.3402e-06
-0.000139502 9.09906e-05 -1.20825e-06
1.3402e-06 -1.20825e-06 -3.99832e-05
0.000736744 -0.000161623 4.24543e-06
-0.000161623 -9.73895e-05 -4.37255e-06
4.24543e-06 -4.37255e-06 -0.000271359
0.00182203 -0.00022671 1.83953e-06
-0.00022671 0.00034467 1.75083e-06
1.83953e-06 1.75083e-06 0.000177574
0.0018303 -0.000210765 -2.85768e-06
-0.000210765 0.000242415 2.1228e-06
-2.85768e-06 2.1228e-06 0.000104388
0.000685183 9.68479e-06 1.48059e-06
9.68479e-06 1.65587e-06 -2.32014e-06
1.48059e-06 -2.32014e-06 -5.6611e-05
0.000825578 -8.37558e-05 1.51272e-06
-8.37558e-05 7.51576e-05 4.8259e-07
1.51272e-06 4.8259e-07 -3.24821e-05
0.000676504 -1.48469e-05 7.20627e-07
-1.48469e-05 9.90604e-06 -1.61495e-06
7.20627e-07 -1.61495e-06 -9.05774e-05
0.00101824 -0.00013135 -1.81917e-07
-0.00013135 0.000192978 1.52962e-06
-1.81917e-07 1.52962e-06 7.1581e-05
0.00110905 0.000104518 -1.12764e-05
0.000104518 1.0984e-05 -4.13509e-06
-1.12764e-05 -4.13509e-06 -0.000103733
0.00058917 -5.60942e-05 -1.4513e-06
-5.60942e-05 -3.39079e-05 -3.93365e-06
-1.4513e-06 -3.93365e-06 -5.4992e-05
0.000498084 -7.14265e-05 1.88821e-06
-7.14265e-05 -6.72771e-05 -6.63813e-06
1.88821e-06 -6.63813e-06 -0.00010624
0.000673174 -6.00405e-05 1.25279e-06
-6.00405e-05 1.47422e-05 -3.1782e-06
1.25279e-06 -3.1782e-06 -5.3296e-05
0.00100317 0.00013162 -8.77009e-06
0.00013162 1.58253e-05 -5.35053e-06
-8.77009e-06 -5.35053e-06 -0.000103136
0.00135346 0.000151959 -5.92587e-06
0.000151959 8.13751e-05 -1.74428e-06
-5.92587e-06 -1.74428e-06 -6.01673e-05
0.000702826 6.2191e-05 -2.53123e-06
6.2191e-05 2.2676e-05 -2.75781e-06
-2.53123e-06 -2.75781e-06 -7.57024e-05
0.000960581 0.00014754 -3.05173e-06
0.00014754 0.000114867 -2.71103e-06
-3.05173e-06 -2.71103e-06 -2.8608e-05
0.00133632 0.000176911 -3.31643e-06
0.000176911 0.000187556 -2.09656e-06
-3.31643e-06 -2.09656e-06 4.20607e-05
0.000965905 0.000172406 -1.16169e-06
0.000172406 3.28139e-05 5.58357e-07
-1.16169e-06 5.58357e-07 -0.000119836
0.00063682 -5.09738e-05 3.20844e-08
-5.09738e-05 -1.85748e-05 3.36699e-08
3.20844e-08 3.36699e-08 -3.5126e-05
0.000738642 3.0727e-05 3.37851e-07
3.0727e-05 4.93127e-05 -1.20104e-07
3.37851e-07 -1.20104e-07 -3.72809e-05
0.000663316 -5.73114e-05 -5.81183e-07
-5.73114e-05 2.99343e-06 4.84936e-07
-5.81183e-07 4.84936e-07 -5.10024e-05
0.000798038 1.61981e-05 4.75184e-07
1.61981e-05 8.97441e-05 -2.34203e-07
4.75184e-07 -2.34203e-07 -1.05432e-05
0.00137508 0.000124432 1.01366e-06
0.000124432 7.42056e-05 1.52369e-07
1.01366e-06 1.52369e-07 -6.17932e-05
0.00126299 0.000166625 3.78656e-08
0.000166625 8.2082e-05 7.70648e-08
3.78656e-08 7.70648e-08 -6.37322e-05
0.00149693 0.000166931 4.25287e-07
0.000166931 0.000106278 -3.77658e-08
4.25287e-07 -3.77658e-08 -4.54479e-05
0.000997898 0.000126119 2.79513e-07
0.000126119 0.000172401 5.07864e-07
2.79513e-07 5.07864e-07 4.30911e-05
0.00156031 0.000203337 -9.93153e-07
0.000203337 0.000265 -1.75464e-06
-9.93153e-07 -1.75464e-06 0.000111425
0.00111181 0.000176498 1.81931e-07
0.000176498 0.000189307 -1.40448e-06
1.81931e-07 -1.40448e-06 1.92055e-05
0.000996536 0.000178523 -2.16415e-06
0.000178523 1.49476e-05 -3.07747e-07
-2.16415e-06 -3.07747e-07 -0.000133804
0.00065928 -4.61549e-05 1.41985e-06
-4.61549e-05 -1.57386e-05 3.5925e-06
1.41985e-06 3.5925e-06 -2.92594e-05
0.000696029 -4.50326e-05 7.53042e-07
-4.50326e-05 9.95136e-06 1.99942e-06
7.53042e-07 1.99942e-06 -3.42718e-05
0.000983022 7.78087e-05 2.03768e-06
7.78087e-05 0.000180189 1.23163e-06
2.03768e-06 1.23163e-06 6.53365e-05
0.000780571 2.27964e-05 -1.02571e-08
2.27964e-05 7.44589e-05 1.62798e-06
-1.02571e-08 1.62798e-06 -1.01178e-05
0.000902391 9.54193e-05 4.61354e-07
9.54193e-05 0.000159397 9.38223e-08
4.61354e-07 9.38223e-08 3.87612e-05
0.00148974 0.000135486 2.67298e-06
0.000135486 8.21091e-05 4.80046e-08
2.67298e-06 4.80046e-08 -5.97048e-05
0.00156856 0.000194261 1.96392e-06
0.000194261 0.00018985 3.85713e-06
1.96392e-06 3.85713e-06 3.26971e-05
0.00162557 0.00019101 -5.25676e-08
0.00019101 0.000144575 -4.73137e-07
-5.25676e-08 -4.73137e-07 -1.01467e-05
0.00112483 0.000167308 3.13225e-06
0.000167308 0.000246358 3.31272e-06
3.13225e-06 3.31272e-06 8.13672e-05
0.0014012 0.000208082 1.97582e-06
0.000208082 0.00014479 3.04407e-06
1.97582e-06 3.04407e-06 -9.86728e-06
0.000354917 0.000136775 2.10766e-06
0.000136775 -0.000282148 -3.3921e-06
2.10766e-06 -3.3921e-06 -0.000456717
0.000712127 -3.12726e-05 1.74528e-06
-3.12726e-05 4.11599e-06 1.61495e-06
1.74528e-06 1.61495e-06 -3.38119e-05
0.000752878 1.46913e-05 5.7304e-07
1.46913e-05 4.10019e-05 6.20763e-07
5.7304e-07 6.20763e-07 -1.88878e-05
0.000733273 -1.91994e-05 1.03198e-06
-1.91994e-05 9.02329e-06 1.81806e-06
1.03198e-06 1.81806e-06 -2.74609e-05
0.00072447 -2.64795e-05 8.62172e-08
-2.64795e-05 7.65846e-06 -1.35213e-08
8.62172e-08 -1.35213e-08 -2.94626e-05
0.00125881 -4.4118e-05 1.446e-06
-4.4118e-05 0.000309835 2.19818e-06
1.446e-06 2.19818e-06 0.00030358
0.000963605 -4.45211e-05 7.96899e-07
-4.45211e-05 0.000149126 -4.45907e-08
7.96899e-07 -4.45907e-08 0.000139446
0.000935304 -3.87727e-05 2.3917e-05
-3.87727e-05 0.000140271 6.43972e-06
2.3917e-05 6.43972e-06 0.000148121
0.00213249 -6.83882e-05 1.64335e-06
-6.83882e-05 0.000827667 -1.39539e-07
1.64335e-06 -1.39539e-07 0.000839484
0.00213938 -7.6432e-05 -3.07811e-05
-7.6432e-05 0.000839912 -3.03205e-06
-3.07811e-05 -3.03205e-06 0.000849449
0.000594917 4.7574e-05 1.41928e-06
4.7574e-05 -4.35266e-05 -4.57993e-06
1.41928e-06 -4.57993e-06 -6.72392e-05
0.00264599 9.23537e-05 4.27058e-05
9.23537e-05 0.0011284 -3.14889e-06
4.27058e-05 -3.14889e-06 0.00113281
0.000598373 5.44646e-05 -3.46755e-07
5.44646e-05 -3.26068e-05 4.25666e-08
-3.46755e-07 4.25666e-08 -6.12329e-05
0.00285986 0.000100382 -2.42176e-06
0.000100382 0.00125217 -2.02602e-07
-2.42176e-06 -2.02602e-07 0.00125465
0.000603356 4.97983e-05 -1.42243e-06
4.97983e-05 -2.45469e-05 6.08665e-06
-1.42243e-06 6.08665e-06 -5.78514e-05
0.00310529 0.000102873 -7.33927e-05
0.000102873 0.00139218 2.96444e-06
-7.33927e-05 2.96444e-06 0.00139336
0.0011345 8.61198e-05 -1.10291e-05
8.61198e-05 1.60942e-05 -3.33089e-06
-1.10291e-05 -3.33089e-06 -9.61097e-05
0.00114755 5.01925e-05 -1.08911e-05
5.01925e-05 1.60915e-05 -2.25125e-06
-1.08911e-05 -2.25125e-06 -9.28098e-05
0.00138202 7.66036e-05 -4.68218e-06
7.66036e-05 6.57827e-05 -7.94754e-07
-4.68218e-06 -7.94754e-07 -6.19653e-05
0.00140507 3.37942e-05 -4.61204e-06
3.37942e-05 6.2189e-05 -6.92797e-07
-4.61204e-06 -6.92797e-07 -6.1015e-05
0.00115935 1.88182e-05 -1.13003e-05
1.88182e-05 9.86234e-06 -9.18884e-07
-1.13003e-05 -9.18884e-07 -9.83762e-05
0.000675302 1.42953e-05 -1.64588e-05
1.42953e-05 -0.000101424 -1.56561e-07
-1.64588e-05 -1.56561e-07 -0.000163986
0.00115275 1.85388e-06 1.82728e-08
1.85388e-06 5.44814e-06 -1.32448e-07
1.82728e-08 -1.32448e-07 -0.000102296
0.00141804 2.24524e-05 -8.86145e-08
2.24524e-05 6.05077e-05 -4.13421e-08
-8.86145e-08 -4.13421e-08 -6.17024e-05
0.00140058 5.34974e-05 1.70399e-08
5.34974e-05 7.01559e-05 -2.85763e-08
1.70399e-08 -2.85763e-08 -5.46351e-05
0.00160886 4.62068e-05 -1.24951e-07
4.62068e-05 9.56848e-05 1.35702e-07
-1.24951e-07 1.35702e-07 -2.20471e-05
0.0013902 9.95271e-05 -1.48545e-07
9.95271e-05 7.24863e-05 -1.45854e-07
-1.48545e-07 -1.45854e-07 -5.90691e-05
0.00154199 8.64314e-05 -1.09324e-07
8.64314e-05 9.39134e-05 1.14159e-07
-1.09324e-07 1.14159e-07 -3.28429e-05
0.00141758 6.24097e-06 4.43348e-06
6.24097e-06 5.9874e-05 -1.59222e-08
4.43348e-06 -1.59222e-08 -6.1721e-05
0.00163781 3.1801e-05 -3.38838e-07
3.1801e-05 9.32912e-05 2.69639e-07
-3.38838e-07 2.69639e-07 -2.24117e-05
0.00153286 6.83589e-05 9.4888e-08
6.83589e-05 7.12373e-05 -2.05867e-07
9.4888e-08 -2.05867e-07 -5.10824e-05
0.00172184 5.82978e-05 -1.17451e-06
5.82978e-05 9.67972e-05 2.49663e-07
-1.17451e-06 2.49663e-07 -9.80629e-06
0.00153622 0.000104676 3.42999e-07
0.000104676 9.81062e-05 -5.88911e-07
3.42999e-07 -5.88911e-07 -3.47212e-05
0.00165988 0.000100548 -3.12356e-06
0.000100548 9.31979e-05 -6.29875e-07
-3.12356e-06 -6.29875e-07 -1.64618e-05
0.000767438 -2.08299e-06 -1.08767e-05
-2.08299e-06 -0.000206615 6.01659e-07
-1.08767e-05 6.01659e-07 -0.000316285
0.00163855 -4.7909e-05 -1.8432e-05
-4.7909e-05 0.000289782 2.33505e-06
-1.8432e-05 2.33505e-06 0.000187893
0.00168582 -1.70416e-05 -7.55741e-06
-1.70416e-05 0.000218473 6.94246e-07
-7.55741e-06 6.94246e-07 0.000101044
0.00184842 -8.77399e-05 -5.08531e-06
-8.77399e-05 0.000331455 1.06178e-06
-5.08531e-06 1.06178e-06 0.00021092
0.000651402 5.7946e-06 -6.27475e-06
5.7946e-06 -1.24302e-06 6.77598e-06
-6.27475e-06 6.77598e-06 -4.39197e-05
0.000924766 -0.000103072 -4.66896e-06
-0.000103072 0.000132888 3.3055e-06
-4.66896e-06 3.3055e-06 2.89627e-05
0.000940458 -0.000154511 -1.4223e-06
-0.000154511 6.51466e-05 1.07836e-06
-1.4223e-06 1.07836e-06 -7.95324e-05
0.00181723 -0.000140474 -7.37828e-06
-0.000140474 0.000337477 1.91155e-06
-7.37828e-06 1.91155e-06 0.000212189
0.00147493 -0.000103812 -1.34383e-06
-0.000103812 7.14658e-05 4.57053e-07
-1.34383e-06 4.57053e-07 -5.19376e-05
0.00146898 -0.000155079 -2.17796e-06
-0.000155079 0.000106514 4.09082e-07
-2.17796e-06 4.09082e-07 -2.87643e-05
0.00109491 -0.000177444 -4.4244e-06
-0.000177444 -7.07324e-06 4.0671e-07
-4.4244e-06 4.0671e-07 -0.000170739
0.00155512 -0.000185847 1.06495e-06
-0.000185847 0.00013184 -9.43368e-07
1.06495e-06 -9.43368e-07 -1.10247e-05
0.000711817 -3.52535e-05 -2.8863e-06
-3.52535e-05 2.22569e-05 2.43021e-06
-2.8863e-06 2.43021e-06 -6.53861e-05
0.000688059 -2.4286e-05 -1.70945e-06
-2.4286e-05 6.48935e-06 -1.11116e-07
-1.70945e-06 -1.11116e-07 -9.62498e-05
0.00069585 5.01244e-06 -1.17622e-06
5.01244e-06 8.58214e-06 2.83245e-06
-1.17622e-06 2.83245e-06 -5.75501e-05
0.00161155 -5.10004e-06 -2.33621e-06
-5.10004e-06 0.000171875 1.53057e-07
-2.33621e-06 1.53057e-07 5.21937e-05
0.00167922 -5.56668e-05 -1.62538e-06
-5.56668e-05 0.000221171 2.7578e-07
-1.62538e-06 2.7578e-07 0.0001012
0.00163024 -2.59886e-05 -4.5807e-07
-2.59886e-05 0.00011309 2.12562e-07
-4.5807e-07 2.12562e-07 -3.67665e-06
0.0016254 -8.32551e-05 -4.72477e-07
-8.32551e-05 0.000140455 -6.4991e-08
-4.72477e-07 -6.4991e-08 1.72188e-05
0.000770488 -6.51169e-05 7.12025e-08
-6.51169e-05 5.81171e-05 -1.13499e-07
7.12025e-08 -1.13499e-07 -3.77906e-05
0.0010072 -0.000148721 -3.76473e-07
-0.000148721 0.000153796 6.77969e-07
-3.76473e-07 6.77969e-07 2.1436e-05
0.000903753 -0.000169159 9.02652e-07
-0.000169159 5.56803e-06 -1.76456e-06
9.02652e-07 -1.76456e-06 -0.000166713
0.00156904 -0.000137564 1.06855e-07
-0.000137564 0.000142674 -6.53053e-08
1.06855e-07 -6.53053e-08 1.32942e-05
0.00164552 -0.000114255 5.22664e-07
-0.000114255 0.000117332 4.01356e-07
5.22664e-07 4.01356e-07 4.86914e-06
0.00153339 -0.000211603 -1.83044e-07
-0.000211603 0.000181563 8.07772e-07
-1.83044e-07 8.07772e-07 1.48697e-05
0.0015512 -0.000165764 -3.89397e-09
-0.000165764 0.000106109 9.93266e-08
-3.89397e-09 9.93266e-08 -2.54544e-05
0.00181572 -0.000209443 5.77866e-07
-0.000209443 0.000235873 -3.22949e-07
5.77866e-07 -3.22949e-07 9.89772e-05
0.000913636 -9.37721e-05 -8.98778e-08
-9.37721e-05 0.000126597 2.33822e-08
-8.98778e-08 2.33822e-08 1.6635e-05
0.000971066 -0.000130008 -3.38433e-07
-0.000130008 0.000168169 3.64383e-07
-3.38433e-07 3.64383e-07 4.52759e-05
0.000698885 3.77656e-06 1.76184e-07
3.77656e-06 8.7777e-06 1.59066e-07
1.76184e-07 1.59066e-07 -4.9708e-05
0.000623701 6.92964e-06 -1.32528e-07
6.92964e-06 -2.37142e-05 -6.40308e-07
-1.32528e-07 -6.40308e-07 -0.000119062
0.0016165 -1.42439e-05 6.53193e-07
-1.42439e-05 9.75085e-05 8.1404e-08
6.53193e-07 8.1404e-08 -1.99012e-05
0.00182571 -5.55401e-05 2.64572e-07
-5.55401e-05 0.000230063 5.53914e-07
2.64572e-07 5.53914e-07 0.000111236
0.00166182 -4.27651e-05 2.12212e-07
-4.27651e-05 6.06606e-05 2.13636e-07
2.12212e-07 2.13636e-07 -4.95137e-05
0.00170204 -0.000101638 -3.22132e-06
-0.000101638 0.000120165 1.97982e-07
-3.22132e-06 1.97982e-07 1.33023e-05
0.00167606 -0.000143328 -2.38692e-06
-0.000143328 0.000149716 1.42556e-06
-2.38692e-06 1.42556e-06 2.94273e-05
0.00171462 -0.000119542 -6.97367e-07
-0.000119542 0.000106983 2.13323e-07
-6.97367e-07 2.13323e-07 7.83696e-06
0.000846774 -0.000128861 1.23063e-06
-0.000128861 8.46805e-05 1.87134e-07
1.23063e-06 1.87134e-07 -3.27172e-05
0.00162323 -0.000182601 -4.24767e-06
-0.000182601 9.8476e-05 2.14688e-06
-4.24767e-06 2.14688e-06 -2.17743e-05
0.000468659 -0.000126728 -1.06964e-07
-0.000126728 -0.000150297 -4.04943e-06
-1.06964e-07 -4.04943e-06 -0.000303845
0.00162569 -0.000233926 3.44333e-06
-0.000233926 0.000340935 -1.43062e-06
3.44333e-06 -1.43062e-06 0.000145793
0.00179328 -0.000233416 9.74987e-07
-0.000233416 0.00026893 3.16845e-06
9.74987e-07 3.16845e-06 0.000104566
0.00183141 -0.000215849 -1.01172e-06
-0.000215849 0.000210583 1.00019e-06
-1.01172e-06 1.00019e-06 7.59866e-05
0.000699551 -5.73057e-07 1.99506e-06
-5.73057e-07 6.72683e-06 -2.19239e-06
1.99506e-06 -2.19239e-06 -4.67054e-05
0.000625275 -1.41298e-06 2.17014e-07
-1.41298e-06 -1.22363e-05 -1.49915e-06
2.17014e-07 -1.49915e-06 -0.000105954
0.000899556 -0.000142512 2.82006e-07
-0.000142512 0.000121925 1.84849e-06
2.82006e-07 1.84849e-06 -2.58321e-06
0.000898152 -9.65013e-05 1.55537e-06
-9.65013e-05 0.000136075 2.89898e-08
1.55537e-06 2.89898e-08 2.0163e-05
0.000994568 -0.000151103 -7.05265e-07
-0.000151103 0.000177394 2.95104e-06
-7.05265e-07 2.95104e-06 4.98478e-05
0.000614456 -4.92926e-05 -1.67775e-06
-4.92926e-05 -3.12312e-05 -3.66228e-06
-1.67775e-06 -3.66228e-06 -4.74993e-05
0.0013381 0.00012362 -4.29139e-06
0.00012362 5.44226e-05 -1.50135e-06
-4.29139e-06 -1.50135e-06 -8.17391e-05
0.000656463 -6.85264e-05 -1.76093e-08
-6.85264e-05 1.90547e-06 -2.06368e-06
-1.76093e-08 -2.06368e-06 -5.36802e-05
0.000736041 1.22846e-05 -3.45519e-07
1.22846e-05 4.63242e-05 -3.17922e-06
-3.45519e-07 -3.17922e-06 -3.76542e-05
0.000779436 -8.92228e-06 1.29171e-06
-8.92228e-06 7.81284e-05 -1.19908e-06
1.29171e-06 -1.19908e-06 -1.98787e-05
0.00129045 0.000169184 -5.57338e-06
0.000169184 9.79286e-05 -2.46467e-06
-5.57338e-06 -2.46467e-06 -4.82962e-05
0.00146643 0.000164602 -2.47331e-06
0.000164602 9.23594e-05 -3.88258e-07
-2.47331e-06 -3.88258e-07 -5.93483e-05
0.000877999 0.000130855 -1.84921e-06
0.000130855 0.000107654 -1.42105e-06
-1.84921e-06 -1.42105e-06 -2.22663e-05
0.00134279 0.000194205 -2.05763e-06
0.000194205 0.0003178 -1.38086e-06
-2.05763e-06 -1.38086e-06 0.000144195
0.00169554 0.00021116 -1.85517e-06
0.00021116 0.000342584 -4.09746e-06
-1.85517e-06 -4.09746e-06 0.00018819
0.00101791 0.000179868 -3.88809e-06
0.000179868 3.1371e-05 1.18744e-06
-3.88809e-06 1.18744e-06 -0.000111526
0.00064356 -4.4837e-05 5.3527e-08
-4.4837e-05 -2.45043e-05 4.70514e-10
5.3527e-08 4.70514e-10 -3.78917e-05
0.000694028 -5.12898e-05 -4.61428e-07
-5.12898e-05 9.86094e-06 1.67422e-07
-4.61428e-07 1.67422e-07 -3.50548e-05
0.000919328 7.99023e-05 7.57979e-07
7.99023e-05 0.000146053 -6.6395e-08
7.57979e-07 -6.6395e-08 3.12712e-05
0.000756652 -1.85606e-05 -3.43465e-07
-1.85606e-05 5.9987e-05 1.89608e-07
-3.43465e-07 1.89608e-07 -2.22362e-05
0.000792024 6.54715e-05 8.86609e-07
6.54715e-05 9.40635e-05 -3.17867e-07
8.86609e-07 -3.17867e-07 -2.42697e-05
0.0015139 0.000136962 1.14172e-06
0.000136962 9.46231e-05 3.25418e-08
1.14172e-06 3.25418e-08 -4.76193e-05
0.00142674 0.000186862 -2.83145e-07
0.000186862 0.000116048 1.54153e-06
-2.83145e-07 1.54153e-06 -4.07261e-05
0.00161816 0.000192889 1.36846e-06
0.000192889 0.00013951 3.0897e-07
1.36846e-06 3.0897e-07 -1.62249e-05
0.00108378 0.000163562 1.30277e-06
0.000163562 0.000227489 1.13886e-06
1.30277e-06 1.13886e-06 6.36099e-05
0.00155669 0.000215852 1.92046e-06
0.000215852 0.000232808 -1.83797e-06
1.92046e-06 -1.83797e-06 7.80844e-05
0.000827094 0.000169958 -2.39975e-06
0.000169958 -2.71034e-05 -1.31879e-06
-2.39975e-06 -1.31879e-06 -0.000204575
0.000714048 -3.83701e-05 1.57802e-06
-3.83701e-05 1.11816e-05 1.65533e-06
1.57802e-06 1.65533e-06 -2.88011e-05
0.000788643 1.37487e-05 3.61905e-07
1.37487e-05 6.64924e-05 1.29004e-06
3.61905e-07 1.29004e-06 -1.89704e-06
0.00103807 0.000149138 -6.21525e-07
0.000149138 0.000218912 -2.97854e-07
-6.21525e-07 -2.97854e-07 7.73049e-05
0.0008489 2.12043e-05 1.04296e-07
2.12043e-05 0.000120381 8.80392e-07
1.04296e-07 8.80392e-07 2.08995e-05
0.00109317 7.90799e-05 -2.42373e-06
7.90799e-05 0.000254435 -3.14459e-06
-2.42373e-06 -3.14459e-06 0.000128512
0.0015793 0.000142803 -2.37116e-06
0.000142803 8.94003e-05 -2.73516e-06
-2.37116e-06 -2.73516e-06 -4.56806e-05
0.00146234 0.000206225 7.87779e-07
0.000206225 9.71568e-05 4.13304e-06
7.87779e-07 4.13304e-06 -6.37629e-05
0.00144693 0.0002072 -1.46837e-06
0.0002072 1.36922e-05 -1.71875e-06
-1.46837e-06 -1.71875e-06 -0.00012949
0.000943819 0.000160942 -5.36403e-07
0.000160942 0.000148444 7.5614e-07
-5.36403e-07 7.5614e-07 -4.47532e-05
0.00129676 0.00021586 2.44358e-06
0.00021586 0.000117735 1.39926e-08
2.44358e-06 1.39926e-08 -5.40382e-05
0.00071657 -3.1223e-05 2.42462e-08
-3.1223e-05 7.01368e-06 -1.69788e-08
2.42462e-08 -1.69788e-08 -3.10167e-05
0.000648511 -5.65616e-06 1.36707e-06
-5.65616e-06 -2.31301e-05 9.19691e-07
1.36707e-06 9.19691e-07 -8.0512e-05
0.000676905 -2.15983e-05 -5.83232e-07
-2.15983e-05 -3.3477e-06 -8.07737e-08
-5.83232e-07 -8.07737e-08 -6.22503e-05
0.0009281 3.76e-05 1.10322e-06
3.76e-05 0.000149601 -4.38774e-07
1.10322e-06 -4.38774e-07 7.75474e-05
0.000767798 2.92635e-05 1.6482e-06
2.92635e-05 4.73833e-05 7.39464e-07
1.6482e-06 7.39464e-07 -1.16367e-05
0.000731392 -7.02778e-06 1.02751e-06
-7.02778e-06 6.77881e-06 1.7534e-06
1.02751e-06 1.7534e-06 -2.97996e-05
0.00073368 -1.98262e-05 -9.35876e-08
-1.98262e-05 9.70673e-06 2.2679e-09
-9.35876e-08 2.2679e-09 -2.6859e-05
0.00125992 -3.54419e-05 9.68614e-07
-3.54419e-05 0.000304058 2.225e-06
9.68614e-07 2.225e-06 0.000299404
0.000732039 -2.64311e-05 -1.29662e-06
-2.64311e-05 1.22283e-05 -1.80327e-06
-1.29662e-06 -1.80327e-06 -2.50024e-05
0.00127804 -4.14988e-05 -4.66657e-06
-4.14988e-05 0.000320065 -1.23432e-06
-4.66657e-06 -1.23432e-06 0.000314184
0.000923675 -3.22055e-05 2.12619e-05
-3.22055e-05 0.000124666 6.66072e-06
2.12619e-05 6.66072e-06 0.000134802
0.00127202 -4.67007e-05 -9.8537e-06
-4.67007e-05 0.000324118 -3.27209e-06
-9.8537e-06 -3.27209e-06 0.000316446
0.00150168 -4.90125e-05 1.95134e-05
-4.90125e-05 0.000461553 1.96081e-06
1.95134e-05 1.96081e-06 0.000472529
0.00211518 -6.74666e-05 -2.74828e-05
-6.74666e-05 0.000816726 -3.37349e-06
-2.74828e-05 -3.37349e-06 0.000828839
0.000618911 4.12427e-05 1.36497e-06
4.12427e-05 -3.82781e-05 -4.28194e-06
1.36497e-06 -4.28194e-06 -5.81347e-05
0.000612664 5.11035e-05 -7.75946e-08
5.11035e-05 -3.24065e-05 4.3458e-08
-7.75946e-08 4.3458e-08 -5.68615e-05
0.00253156 8.25356e-05 3.62856e-05
8.25356e-05 0.00105791 -3.48312e-06
3.62856e-05 -3.48312e-06 0.0010647
0.0026943 9.18662e-05 -2.62251e-06
9.18662e-05 0.0011551 -2.03518e-07
-2.62251e-06 -2.03518e-07 0.00115969
0.000621619 5.30294e-05 -8.96943e-07
5.30294e-05 -1.94302e-05 5.4313e-06
-8.96943e-07 5.4313e-06 -4.81548e-05
0.0029094 9.61303e-05 -6.27933e-05
9.61303e-05 0.00127869 2.96578e-06
-6.27933e-05 2.96578e-06 0.00128213
0.00136363 9.92094e-05 -4.9259e-06
9.92094e-05 5.78373e-05 -1.16787e-06
-4.9259e-06 -1.16787e-06 -7.38956e-05
0.00139072 5.41152e-05 -4.67081e-06
5.41152e-05 6.58547e-05 -8.78868e-07
-4.67081e-06 -8.78868e-07 -5.91684e-05
0.00153831 8.64705e-05 -2.80144e-07
8.64705e-05 9.53703e-05 5.36232e-07
-2.80144e-07 5.36232e-07 -3.15466e-05
0.00164868 4.74129e-05 -7.63227e-08
4.74129e-05 0.000115452 1.46949e-07
-7.63227e-08 1.46949e-07 -1.06029e-06
0.00141537 2.55692e-05 -4.264e-06
2.55692e-05 5.97086e-05 -3.31533e-07
-4.264e-06 -3.31533e-07 -6.26055e-05
0.00115823 6.70338e-06 -1.10286e-05
6.70338e-06 8.16223e-06 -1.40663e-07
-1.10286e-05 -1.40663e-07 -9.9553e-05
0.00142206 9.93732e-06 7.63998e-08
9.93732e-06 6.20427e-05 -6.66999e-08
7.63998e-08 -6.66999e-08 -5.96208e-05
0.00164802 2.15311e-05 -5.15715e-07
2.15311e-05 9.87045e-05 -3.32159e-08
-5.15715e-07 -3.32159e-08 -1.68484e-05
0.00155851 6.73294e-05 -7.54535e-08
6.73294e-05 8.77041e-05 -1.15012e-08
-7.54535e-08 -1.15012e-08 -3.44762e-05
0.00176825 6.10705e-05 7.70777e-07
6.10705e-05 0.000120173 6.18769e-07
7.70777e-07 6.18769e-07 1.57665e-05
0.00152837 0.000105864 -1.57819e-07
0.000105864 9.23944e-05 -5.94661e-08
-1.57819e-07 -5.94661e-08 -4.09417e-05
0.00166293 9.91256e-05 -1.57022e-07
9.91256e-05 9.34829e-05 6.19807e-07
-1.57022e-07 6.19807e-07 -1.42222e-05
0.00163973 -1.59103e-06 4.90947e-07
-1.59103e-06 0.00010062 1.43334e-07
4.90947e-07 1.43334e-07 -1.49617e-05
0.00173604 4.06503e-05 -1.38257e-07
4.06503e-05 8.69611e-05 7.95653e-07
-1.38257e-07 7.95653e-07 -1.92983e-05
0.00174965 8.44074e-05 -3.34786e-06
8.44074e-05 0.00012572 -4.25877e-07
-3.34786e-06 -4.25877e-07 2.27202e-05
0.00182207 6.82429e-05 -1.46723e-07
6.82429e-05 0.000133448 3.45247e-07
-1.46723e-07 3.45247e-07 3.96947e-05
0.0015638 0.000103803 -2.15728e-06
0.000103803 5.2346e-05 -1.88425e-06
-2.15728e-06 -1.88425e-06 -6.52967e-05
0.00189683 0.000112519 -1.88791e-07
0.000112519 0.000181783 -5.51061e-08
-1.88791e-07 -5.51061e-08 8.80256e-05
0.0014272 -4.03726e-06 -6.27944e-06
-4.03726e-06 6.76455e-05 3.9384e-07
-6.27944e-06 3.9384e-07 -5.35505e-05
0.00167283 -5.77426e-05 -6.9041e-06
-5.77426e-05 0.000217725 9.19677e-07
-6.9041e-06 9.19677e-07 9.7542e-05
0.00156252 -2.4189e-05 -1.19044e-06
-2.4189e-05 7.32131e-05 -3.35818e-07
-1.19044e-06 -3.35818e-07 -4.24574e-05
0.00170963 -8.32102e-05 -1.21826e-06
-8.32102e-05 0.000182394 2.266e-07
-1.21826e-06 2.266e-07 5.95267e-05
0.000844993 -7.5121e-05 -3.65305e-06
-7.5121e-05 9.84993e-05 2.35485e-06
-3.65305e-06 2.35485e-06 1.68386e-06
0.00112866 -0.000158137 -2.13425e-06
-0.000158137 0.000218653 2.57755e-06
-2.13425e-06 2.57755e-06 8.48267e-05
0.0010043 -0.000171803 -1.78594e-06
-0.000171803 7.14575e-05 1.34508e-06
-1.78594e-06 1.34508e-06 -9.90846e-05
0.00172533 -0.000143577 -2.05881e-06
-0.000143577 0.000229947 3.30674e-07
-2.05881e-06 3.30674e-07 9.99745e-05
0.00161999 -0.000112659 2.68299e-06
-0.000112659 0.000103564 -6.97393e-07
2.68299e-06 -6.97393e-07 -6.40567e-06
0.00155634 -0.000165458 1.11458e-06
-0.000165458 0.000107615 -4.30951e-07
1.11458e-06 -4.30951e-07 -2.36125e-05
0.00126648 -0.000197665 -2.39065e-06
-0.000197665 3.02204e-05 -1.03731e-06
-2.39065e-06 -1.03731e-06 -0.000136155
0.00182401 -0.000208844 3.97791e-06
-0.000208844 0.000241547 -3.44154e-06
3.97791e-06 -3.44154e-06 0.000105734
0.000937241 -8.88208e-05 -1.3571e-06
-8.88208e-05 0.000139641 -3.24442e-07
-1.3571e-06 -3.24442e-07 3.03112e-05
0.000866632 -9.83997e-05 -1.29681e-06
-9.83997e-05 0.000103347 -1.02578e-06
-1.29681e-06 -1.02578e-06 -1.3926e-05
0.000713351 1.31211e-06 -1.51766e-06
1.31211e-06 1.61431e-05 2.43746e-06
-1.51766e-06 2.43746e-06 -4.24648e-05
0.000604043 2.16903e-05 3.86965e-09
2.16903e-05 -3.62876e-05 3.07511e-07
3.86965e-09 3.07511e-07 -0.000128809
0.00160911 -1.39029e-05 1.47059e-08
-1.39029e-05 9.28289e-05 -1.22648e-08
1.47059e-08 -1.22648e-08 -2.46141e-05
0.00175847 -5.38911e-05 -6.22628e-07
-5.38911e-05 0.000191041 1.25026e-07
-6.22628e-07 1.25026e-07 7.11008e-05
0.00169091 -4.19949e-05 3.13507e-07
-4.19949e-05 7.97445e-05 -2.04878e-07
3.13507e-07 -2.04878e-07 -2.93538e-05
0.00165147 -9.98444e-05 -5.51266e-07
-9.98444e-05 9.80643e-05 1.74563e-07
-5.51266e-07 1.74563e-07 -1.05354e-05
0.000955327 -0.000123162 -3.5074e-07
-0.000123162 0.000142153 4.54985e-07
-3.5074e-07 4.54985e-07 2.57636e-05
0.00068143 -0.000139448 1.08184e-06
-0.000139448 -2.95255e-05 -1.42851e-06
1.08184e-06 -1.42851e-06 -0.000180969
0.00143953 -0.000219678 -6.3093e-07
-0.000219678 0.000243709 6.20934e-07
-6.3093e-07 6.20934e-07 4.72261e-05
0.00163369 -0.00014207 -9.82612e-07
-0.00014207 0.000129251 3.40682e-07
-9.82612e-07 3.40682e-07 7.03471e-06
0.00166407 -0.000119846 1.64501e-06
-0.000119846 7.91317e-05 -6.33411e-07
1.64501e-06 -6.33411e-07 -1.79547e-05
0.00166999 -0.00022652 -7.26088e-07
-0.00022652 0.000196769 4.56199e-07
-7.26088e-07 4.56199e-07 3.34346e-05
0.00165195 -0.000183103 -1.22104e-07
-0.000183103 0.000115484 3.95949e-07
-1.22104e-07 3.95949e-07 -4.60542e-06
0.00173076 -0.000211653 2.34208e-06
-0.000211653 0.000153879 -2.62648e-06
2.34208e-06 -2.62648e-06 2.09078e-05
0.000985417 -0.000148903 2.33525e-07
-0.000148903 0.000169293 3.74283e-07
2.33525e-07 3.74283e-07 4.38834e-05
0.00101981 -0.000145198 6.39842e-07
-0.000145198 0.000187637 4.77758e-07
6.39842e-07 4.77758e-07 6.22536e-05
0.00086783 -6.82731e-05 -3.91649e-07
-6.82731e-05 0.000116321 -1.12064e-07
-3.91649e-07 -1.12064e-07 3.68554e-06
0.000571427 1.28457e-05 -5.69844e-07
1.28457e-05 -6.43108e-05 7.46976e-08
-5.69844e-07 7.46976e-08 -0.000119279
0.000606071 2.01888e-05 5.77592e-08
2.01888e-05 -2.70475e-05 -4.67897e-07
5.77592e-08 -4.67897e-07 -0.000116733
0.00179189 -2.73358e-05 2.6917e-07
-2.73358e-05 0.000120317 -1.51743e-08
2.6917e-07 -1.51743e-08 1.4007e-05
0.00174487 -6.21902e-05 -1.38259e-07
-6.21902e-05 0.000104668 2.58013e-07
-1.38259e-07 2.58013e-07 -3.27679e-07
0.00177661 -0.000116205 -2.3345e-06
-0.000116205 0.000118999 -4.47838e-07
-2.3345e-06 -4.47838e-07 3.05219e-05
0.00155824 -0.000142337 -2.4982e-06
-0.000142337 2.69555e-05 1.13523e-06
-2.4982e-06 1.13523e-06 -7.3999e-05
0.000892924 -0.000145474 -6.82696e-07
-0.000145474 0.000113667 3.48976e-07
-6.82696e-07 3.48976e-07 -1.89732e-05
0.00200822 -0.000215564 -2.78618e-06
-0.000215564 0.000265683 1.62562e-06
-2.78618e-06 1.62562e-06 0.000150274
8.26731e-05 -0.000107267 -7.50935e-07
-0.000107267 -0.000368317 -5.59302e-06
-7.50935e-07 -5.59302e-06 -0.000536755
0.00215565 -0.000281557 2.70893e-06
-0.000281557 0.000555162 -1.31709e-08
2.70893e-06 -1.31709e-08 0.000350783
0.0016635 -0.000234588 1.23623e-06
-0.000234588 0.000142265 2.27492e-06
1.23623e-06 2.27492e-06 -1.73862e-05
0.00042878 1.85254e-05 1.35904e-06
1.85254e-05 -0.00014552 -3.08374e-06
1.35904e-06 -3.08374e-06 -0.000197764
0.00085902 -1.30436e-05 1.40766e-06
-1.30436e-05 0.000118164 -7.76701e-07
1.40766e-06 -7.76701e-07 3.37861e-05
0.00091206 -4.56772e-05 -4.30665e-07
-4.56772e-05 0.000148358 -6.80655e-08
-4.30665e-07 -6.80655e-08 4.59127e-05
0.000992145 -0.000151888 -1.65772e-06
-0.000151888 0.000167428 2.49761e-06
-1.65772e-06 2.49761e-06 4.04611e-05
0.000933819 -9.75514e-05 1.34419e-06
-9.75514e-05 0.000148219 1.95935e-06
1.34419e-06 1.95935e-06 2.62095e-05
0.000786256 -0.000139556 -2.34114e-07
-0.000139556 4.50615e-05 1.90763e-06
-2.34114e-07 1.90763e-06 -8.1314e-05
0.000629995 -4.37306e-05 -1.51738e-06
-4.37306e-05 -3.19913e-05 -3.62389e-06
-1.51738e-06 -3.62389e-06 -4.52827e-05
0.000686056 -5.38396e-05 -1.58267e-06
-5.38396e-05 5.55805e-06 -1.53791e-06
-1.58267e-06 -1.53791e-06 -3.9516e-05
0.00154498 0.000138694 -1.00432e-06
0.000138694 0.000110992 -1.76965e-07
-1.00432e-06 -1.76965e-07 -3.16777e-05
0.000743868 -6.20611e-05 8.73486e-07
-6.20611e-05 5.17528e-05 -1.30213e-06
8.73486e-07 -1.30213e-06 -2.82138e-05
0.00081464 7.17022e-05 -2.55622e-07
7.17022e-05 8.61029e-05 -7.39292e-07
-2.55622e-07 -7.39292e-07 -2.55103e-05
0.000680816 3.5699e-05 1.44043e-06
3.5699e-05 2.79471e-05 -2.68923e-07
1.44043e-06 -2.68923e-07 -8.7669e-05
0.00126242 0.000178199 -2.74267e-06
0.000178199 3.02545e-05 -9.48171e-07
-2.74267e-06 -9.48171e-07 -0.000126065
0.00160236 0.000194024 9.7056e-07
0.000194024 0.00013105 8.42116e-07
9.7056e-07 8.42116e-07 -2.55967e-05
0.000885406 0.000148466 1.34433e-07
0.000148466 0.000119025 -6.32589e-07
1.34433e-07 -6.32589e-07 -4.28411e-05
0.00135039 0.000206391 -9.34596e-07
0.000206391 0.000255117 2.31893e-07
-9.34596e-07 2.31893e-07 7.65145e-05
0.00173621 0.000225205 -3.26844e-06
0.000225205 0.000333683 -5.09372e-06
-3.26844e-06 -5.09372e-06 0.000178749
0.000710798 -3.82873e-05 -1.70711e-07
-3.82873e-05 9.51114e-06 2.57195e-08
-1.70711e-07 2.57195e-08 -3.04652e-05
0.000755357 -2.30894e-05 -6.70904e-07
-2.30894e-05 4.72801e-05 3.53218e-07
-6.70904e-07 3.53218e-07 -1.97568e-05
0.000956953 0.0001429 -6.08335e-07
0.0001429 0.000175922 -6.86712e-08
-6.08335e-07 -6.86712e-08 3.46101e-05
0.000804022 -1.20147e-05 2.34555e-07
-1.20147e-05 9.28402e-05 9.2814e-08
2.34555e-07 9.2814e-08 -3.59746e-06
0.000891889 8.01087e-05 1.14185e-07
8.01087e-05 0.00014694 -3.70562e-07
1.14185e-07 -3.70562e-07 1.90889e-05
0.00160341 0.000146467 -1.42201e-06
0.000146467 0.000103 -1.26921e-06
-1.42201e-06 -1.26921e-06 -3.31999e-05
0.00153596 0.00020956 1.40185e-06
0.00020956 0.000138703 1.88298e-06
1.40185e-06 1.88298e-06 -2.28383e-05
0.00155039 0.000208559 6.5985e-07
0.000208559 7.04159e-05 1.3033e-07
6.5985e-07 1.3033e-07 -7.09862e-05
0.00073328 0.000148149 3.24522e-07
0.000148149 2.73441e-05 2.6401e-06
3.24522e-07 2.6401e-06 -0.000162377
0.00154813 0.000233136 -1.3431e-06
0.000233136 0.000256709 1.52002e-08
-1.3431e-06 1.52002e-08 8.09759e-05
0.000785469 1.0731e-05 1.00763e-06
1.0731e-05 5.69942e-05 7.52097e-07
1.00763e-06 7.52097e-07 -2.8467e-06
0.000598737 -3.12772e-05 -1.06822e-06
-3.12772e-05 -2.94757e-05 1.69308e-06
-1.06822e-06 1.69308e-06 -0.000112138
0.000942621 0.000149604 -2.47655e-06
0.000149604 0.000164211 -2.03143e-06
-2.47655e-06 -2.03143e-06 5.64959e-06
0.000625728 2.98835e-05 -1.76333e-06
2.98835e-05 2.64334e-06 -9.97599e-07
-1.76333e-06 -9.97599e-07 -0.000114448
0.00100146 0.000129266 -1.18531e-06
0.000129266 0.000197263 -2.16616e-06
-1.18531e-06 -2.16616e-06 6.01722e-05
0.00160853 0.00016081 -2.66998e-06
0.00016081 3.95156e-05 -2.53722e-06
-2.66998e-06 -2.53722e-06 -6.69694e-05
0.00184732 0.000251754 -3.73356e-07
0.000251754 0.000281414 9.38214e-07
-3.73356e-07 9.38214e-07 0.000118039
0.00148113 0.000211158 1.08507e-06
0.000211158 7.84869e-06 -2.34394e-07
1.08507e-06 -2.34394e-07 -0.000126874
0.00176876 0.000224958 1.99631e-06
0.000224958 0.000551766 4.0348e-06
1.99631e-06 4.0348e-06 0.000339832
0.000744043 0.000193886 -1.06496e-06
0.000193886 -0.000227641 -4.46368e-07
-1.06496e-06 -4.46368e-07 -0.000402158
0.000721726 -3.05882e-05 -1.7441e-06
-3.05882e-05 1.02246e-05 -1.61439e-06
-1.7441e-06 -1.61439e-06 -2.78658e-05
0.000699291 -4.08563e-06 2.69223e-07
-4.08563e-06 6.94811e-06 4.25615e-07
2.69223e-07 4.25615e-07 -5.10273e-05
0.000677884 -3.06988e-05 -2.38208e-07
-3.06988e-05 3.87907e-06 2.24543e-07
-2.38208e-07 2.24543e-07 -6.37521e-05
0.000605619 -4.74441e-05 -9.21641e-07
-4.74441e-05 -4.41533e-05 -5.8736e-07
-9.21641e-07 -5.8736e-07 -0.000102765
0.000757918 2.37117e-06 4.3866e-08
2.37117e-06 4.09031e-05 1.60163e-08
4.3866e-08 1.60163e-08 -1.72555e-05
0.000781027 -2.79004e-06 7.04282e-08
-2.79004e-06 6.18722e-05 -3.52302e-07
7.04282e-08 -3.52302e-07 -6.15584e-06
0.000864251 2.37327e-05 -2.34224e-08
2.37327e-05 0.000114332 -8.30489e-07
-2.34224e-08 -8.30489e-07 3.91442e-05
0.000694163 -3.18299e-05 7.3926e-07
-3.18299e-05 1.78722e-05 -4.96247e-08
7.3926e-07 -4.96247e-08 -5.43686e-05
0.000783676 1.38457e-05 5.02953e-07
1.38457e-05 5.1322e-05 5.62137e-07
5.02953e-07 5.62137e-07 -4.81605e-06
0.000730476 2.33806e-06 1.00759e-06
2.33806e-06 7.74763e-06 1.66566e-06
1.00759e-06 1.66566e-06 -2.96696e-05
0.000735983 -1.04801e-05 -2.04149e-07
-1.04801e-05 9.84652e-06 4.61277e-09
-2.04149e-07 4.61277e-09 -2.68548e-05
0.00126423 -2.60441e-05 9.3779e-07
-2.60441e-05 0.000301816 2.17366e-06
9.3779e-07 2.17366e-06 0.000297962
0.00073294 -2.04136e-05 -1.02146e-06
-2.04136e-05 9.76935e-06 -1.82767e-06
-1.02146e-06 -1.82767e-06 -2.68801e-05
0.00128356 -3.29934e-05 -3.98646e-06
-3.29934e-05 0.00031712 -1.29775e-06
-3.98646e-06 -1.29775e-06 0.000312616
0.000929134 -2.65743e-05 1.7464e-05
-2.65743e-05 0.0001215 6.90591e-06
1.7464e-05 6.90591e-06 0.000132815
0.00129922 -3.96196e-05 -8.38469e-06
-3.96196e-05 0.000331536 -4.78505e-06
-8.38469e-06 -4.78505e-06 0.00032582
0.00086541 -3.3303e-05 6.87515e-06
-3.3303e-05 9.19528e-05 2.57264e-06
6.87515e-06 2.57264e-06 0.000101713
0.00205178 -6.41942e-05 -6.07918e-06
-6.41942e-05 0.0007734 -1.60523e-06
-6.07918e-06 -1.60523e-06 0.000786645
0.00063617 3.64705e-05 9.67337e-07
3.64705e-05 -3.57825e-05 -4.07441e-06
9.67337e-07 -4.07441e-06 -5.20573e-05
0.00062732 4.27907e-05 -1.44221e-07
4.27907e-05 -3.30624e-05 3.47947e-08
-1.44221e-07 3.47947e-08 -5.32401e-05
0.00242532 7.23372e-05 3.04336e-05
7.23372e-05 0.000990852 -3.78415e-06
3.04336e-05 -3.78415e-06 0.00100023
0.000630192 5.11555e-05 -7.61075e-07
5.11555e-05 -2.21703e-05 4.82757e-06
-7.61075e-07 4.82757e-06 -4.68642e-05
0.00258064 8.29681e-05 -2.50646e-06
8.29681e-05 0.00108566 -1.88354e-07
-2.50646e-06 -1.88354e-07 0.00109237
0.00274947 9.02486e-05 -5.14954e-05
9.02486e-05 0.00118544 3.03789e-06
-5.14954e-05 3.03789e-06 0.00119049
0.0015158 0.000106856 -1.50013e-06
0.000106856 8.4181e-05 2.63066e-07
-1.50013e-06 2.63066e-07 -4.96625e-05
0.00158985 6.54977e-05 1.40575e-07
6.54977e-05 0.000107096 2.65611e-07
1.40575e-07 2.65611e-07 -1.48658e-05
0.00166234 9.76367e-05 3.0245e-06
9.76367e-05 9.17467e-05 1.50722e-06
3.0245e-06 1.50722e-06 -1.39983e-05
0.00181575 6.37696e-05 2.73189e-06
6.37696e-05 0.000144 2.07609e-07
2.73189e-06 2.07609e-07 4.17949e-05
0.00165872 1.4035e-05 -9.56425e-07
1.4035e-05 0.000104572 -8.4771e-08
-9.56425e-07 -8.4771e-08 -1.08647e-05
0.00142459 1.29516e-05 -4.12399e-06
1.29516e-05 6.31635e-05 -9.59253e-08
-4.12399e-06 -9.59253e-08 -5.85276e-05
0.0016255 1.6125e-06 -4.34059e-07
1.6125e-06 9.30229e-05 -1.77617e-08
-4.34059e-07 -1.77617e-08 -2.34734e-05
0.00174441 3.41494e-05 6.45419e-07
3.41494e-05 9.34427e-05 -2.22256e-09
6.45419e-07 -2.22256e-09 -1.35969e-05
0.0017086 8.19316e-05 -9.76427e-07
8.19316e-05 0.000100495 -2.44281e-07
-9.76427e-07 -2.44281e-07 -3.78543e-06
0.00177719 6.83695e-05 1.56171e-06
6.83695e-05 0.000103895 -1.45334e-07
1.56171e-06 -1.45334e-07 1.17652e-05
0.00157975 0.000102824 -7.43879e-07
0.000102824 6.70071e-05 6.55262e-08
-7.43879e-07 6.55262e-08 -5.05737e-05
0.0017968 0.000114725 3.00494e-06
0.000114725 0.000122491 7.2304e-07
3.00494e-06 7.2304e-07 3.06513e-05
0.00175941 4.13283e-07 -4.04342e-07
4.13283e-07 0.000110284 2.39075e-07
-4.04342e-07 2.39075e-07 3.55534e-06
0.00172666 4.5248e-05 -8.0373e-08
4.5248e-05 6.9201e-05 8.80491e-07
-8.0373e-08 8.80491e-07 -2.51017e-05
0.00179971 8.5854e-05 -1.0852e-06
8.5854e-05 0.000104928 -1.02871e-08
-1.0852e-06 -1.02871e-08 2.01704e-05
0.00192834 0.000135965 -1.40842e-06
0.000135965 0.000194538 -1.06789e-06
-1.40842e-06 -1.06789e-06 0.00010338
0.00160024 -1.35789e-05 -7.04145e-07
-1.35789e-05 8.74759e-05 -8.1094e-08
-7.04145e-07 -8.1094e-08 -3.00017e-05
0.00168832 -5.39105e-05 -1.41899e-06
-5.39105e-05 0.000150586 -2.41815e-07
-1.41899e-06 -2.41815e-07 2.94634e-05
0.0017239 -4.13956e-05 8.44868e-07
-4.13956e-05 0.00010105 -4.75444e-07
8.44868e-07 -4.75444e-07 -6.98422e-06
0.00160294 -9.76402e-05 1.4498e-06
-9.76402e-05 7.68831e-05 -1.9014e-07
1.4498e-06 -1.9014e-07 -3.34096e-05
0.00107973 -0.000129577 -1.50242e-06
-0.000129577 0.000210758 7.1208e-07
-1.50242e-06 7.1208e-07 9.28856e-05
0.000847675 -0.000149486 1.01731e-06
-0.000149486 6.46845e-05 1.41052e-06
1.01731e-06 1.41052e-06 -8.4238e-05
0.00130073 -0.000208172 -2.77078e-06
-0.000208172 0.000174255 3.17559e-06
-2.77078e-06 3.17559e-06 -2.45441e-05
0.00158995 -0.000140693 8.0426e-08
-0.000140693 0.000108195 -3.25255e-07
8.0426e-08 -3.25255e-07 -1.59435e-05
0.00161852 -0.000120544 4.12258e-06
-0.000120544 5.38243e-05 -1.48559e-06
4.12258e-06 -1.48559e-06 -4.12606e-05
0.00167683 -0.000183405 3.6029e-06
-0.000183405 0.000130241 -1.21615e-06
3.6029e-06 -1.21615e-06 1.03258e-05
0.00152786 -0.000219157 -1.94979e-06
-0.000219157 0.000114617 -2.03452e-06
-1.94979e-06 -2.03452e-06 -4.76589e-05
0.00163129 -0.000208045 2.52731e-06
-0.000208045 9.91466e-05 -6.98786e-06
2.52731e-06 -6.98786e-06 -3.23848e-05
0.00108344 -0.000156181 4.49912e-07
-0.000156181 0.000223689 -1.04151e-06
4.49912e-07 -1.04151e-06 9.72035e-05
0.00106306 -0.000149205 4.00172e-07
-0.000149205 0.000209149 -2.93806e-06
4.00172e-07 -2.93806e-06 8.39359e-05
0.000829137 -4.55699e-05 -2.5568e-08
-4.55699e-05 9.24414e-05 1.18236e-07
-2.5568e-08 1.18236e-07 -1.7323e-05
0.000440688 1.8127e-05 -1.82303e-06
1.8127e-05 -0.000136843 2.23639e-06
-1.82303e-06 2.23639e-06 -0.000193316
0.000591016 3.72074e-05 2.04075e-07
3.72074e-05 -3.79618e-05 3.09568e-07
2.04075e-07 3.09568e-07 -0.000124707
0.00180274 -2.90676e-05 1.91389e-07
-2.90676e-05 0.000129144 -1.02543e-07
1.91389e-07 -1.02543e-07 2.2643e-05
0.00177696 -6.42691e-05 3.4757e-07
-6.42691e-05 0.000123995 -2.81899e-07
3.4757e-07 -2.81899e-07 1.88909e-05
0.00174121 -0.000115978 -1.0733e-06
-0.000115978 0.000102471 -2.12213e-09
-1.0733e-06 -2.12213e-09 1.17406e-05
0.00101999 -0.000154186 -1.73186e-07
-0.000154186 0.000181697 7.4191e-07
-1.73186e-07 7.4191e-07 4.77835e-05
0.000759184 -0.00015293 1.4686e-06
-0.00015293 3.26111e-06 -2.27851e-06
1.4686e-06 -2.27851e-06 -0.000167619
0.00158991 -0.000243912 -1.17424e-06
-0.000243912 0.000249835 9.6864e-07
-1.17424e-06 9.6864e-07 4.5912e-05
0.00162284 -0.00014398 6.94584e-07
-0.00014398 6.19276e-05 -1.28229e-07
6.94584e-07 -1.28229e-07 -3.96607e-05
0.00163441 -0.000229407 4.6674e-07
-0.000229407 0.000125985 -1.32236e-06
4.6674e-07 -1.32236e-06 -2.96421e-05
0.00175288 -0.000206557 -4.40058e-07
-0.000206557 0.000130838 -9.90498e-07
-4.40058e-07 -9.90498e-07 1.43683e-05
0.000434436 2.23424e-05 1.14119e-07
2.23424e-05 -0.00014317 -7.33947e-07
1.14119e-07 -7.33947e-07 -0.00019449
0.00103215 -0.000154469 -4.39318e-08
-0.000154469 0.000187055 4.72943e-07
-4.39318e-08 4.72943e-07 5.98829e-05
0.000821547 -0.000141221 -8.55879e-07
-0.000141221 6.73414e-05 1.58228e-07
-8.55879e-07 1.58228e-07 -5.66934e-05
0.000997995 -0.000105828 -4.09231e-07
-0.000105828 0.000188332 8.7335e-07
-4.09231e-07 8.7335e-07 6.21467e-05
0.000947485 -4.41296e-05 -8.02925e-08
-4.41296e-05 0.000168293 3.26764e-08
-8.02925e-08 3.26764e-08 6.58016e-05
0.000725229 9.62294e-06 -2.69727e-07
9.62294e-06 3.94076e-05 3.29809e-07
-2.69727e-07 3.29809e-07 -4.30632e-05
0.00167329 -3.70961e-05 -4.89554e-07
-3.70961e-05 3.79075e-05 2.77237e-07
-4.89554e-07 2.77237e-07 -6.20213e-05
0.00177735 -9.2008e-05 -1.65698e-06
-9.2008e-05 8.94071e-05 -9.37997e-08
-1.65698e-06 -9.37997e-08 4.48788e-06
0.0015469 -0.00012717 -1.14837e-06
-0.00012717 -2.1066e-05 2.35045e-07
-1.14837e-06 2.35045e-07 -0.000102952
0.00194079 -0.000182319 -1.22187e-06
-0.000182319 0.000186366 -8.26511e-08
-1.22187e-06 -8.26511e-08 9.44983e-05
0.000978238 -0.000156207 -1.9318e-06
-0.000156207 0.000154559 1.69957e-07
-1.9318e-06 1.69957e-07 1.16836e-05
0.00182478 -0.000236827 1.55588e-06
-0.000236827 0.000187842 2.90625e-06
1.55588e-06 2.90625e-06 5.36159e-05
0.00060546 -0.000161946 -1.52655e-06
-0.000161946 -0.00013023 -2.31668e-06
-1.52655e-06 -2.31668e-06 -0.000334886
0.00215869 -0.000293166 -1.45385e-07
-0.000293166 0.000503681 1.77511e-06
-1.45385e-07 1.77511e-06 0.000299719
0.000426381 3.17109e-05 5.0684e-08
3.17109e-05 -0.000150154 -2.93397e-06
5.0684e-08 -2.93397e-06 -0.00019727
0.000855666 -9.3546e-06 1.32752e-06
-9.3546e-06 0.000112126 -1.13169e-06
1.32752e-06 -1.13169e-06 3.48202e-05
0.000996476 -6.26952e-05 -4.17808e-09
-6.26952e-05 0.000197688 8.28833e-07
-4.17808e-09 8.28833e-07 0.000100147
0.000841912 -2.07749e-05 4.12389e-08
-2.07749e-05 0.000109191 -2.55658e-07
4.12389e-08 -2.55658e-07 -2.79791e-06
0.000847273 -0.000146836 -9.48572e-07
-0.000146836 7.45013e-05 1.2329e-06
-9.48572e-07 1.2329e-06 -5.49834e-05
0.000963427 -0.000152057 -3.59282e-06
-0.000152057 0.00014169 3.43293e-06
-3.59282e-06 3.43293e-06 7.20607e-06
0.000707999 -3.86242e-05 -1.9806e-06
-3.86242e-05 8.07907e-06 -1.49721e-06
-1.9806e-06 -1.49721e-06 -3.19114e-05
0.000703089 -6.19745e-05 -2.83667e-08
-6.19745e-05 2.03349e-05 -8.22865e-07
-2.83667e-08 -8.22865e-07 -4.72649e-05
0.00163253 0.000150548 -8.47958e-08
0.000150548 0.000118631 4.13906e-07
-8.47958e-08 4.13906e-07 -1.87407e-05
0.000763759 -4.09601e-05 8.05524e-07
-4.09601e-05 6.8274e-05 -6.75996e-07
8.05524e-07 -6.75996e-07 -2.55263e-05
0.000954244 0.000142228 5.18156e-07
0.000142228 0.000177322 -4.82625e-07
5.18156e-07 -4.82625e-07 3.65101e-05
0.000625957 4.27264e-05 1.43014e-06
4.27264e-05 -5.5175e-06 -2.02293e-07
1.43014e-06 -2.02293e-07 -0.000127622
0.00160555 0.000212828 -1.18375e-06
0.000212828 0.000177763 -9.16752e-07
-1.18375e-06 -9.16752e-07 1.55726e-05
0.00166688 0.000211048 1.55831e-06
0.000211048 0.000132944 1.82752e-06
1.55831e-06 1.82752e-06 -6.83167e-06
0.00060308 0.000140442 4.7437e-07
0.000140442 -4.9539e-05 1.3782e-06
4.7437e-07 1.3782e-06 -0.000235875
0.00176393 0.000247653 -2.34732e-07
0.000247653 0.000376965 -4.12633e-07
-2.34732e-07 -4.12633e-07 0.000196508
0.000750895 -1.55203e-05 -6.46319e-07
-1.55203e-05 3.83537e-05 1.43262e-07
-6.46319e-07 1.43262e-07 -2.14613e-05
0.000707584 -1.53814e-05 1.85082e-09
-1.53814e-05 3.11393e-05 9.54226e-07
1.85082e-09 9.54226e-07 -5.22056e-05
0.00104839 0.000156133 -4.87188e-07
0.000156133 0.000225972 -1.931e-06
-4.87188e-07 -1.931e-06 6.68938e-05
0.00067916 -1.02444e-05 -1.89707e-07
-1.02444e-05 2.47547e-05 9.79686e-08
-1.89707e-07 9.79686e-08 -8.51574e-05
0.000832189 0.000105499 -1.48026e-06
0.000105499 0.000103504 -8.79487e-07
-1.48026e-06 -8.79487e-07 -2.56692e-05
0.00184444 0.00016797 -2.25097e-06
0.00016797 0.000168735 -1.00439e-06
-2.25097e-06 -1.00439e-06 6.43742e-05
0.00187657 0.000251389 9.23119e-07
0.000251389 0.000293548 6.01247e-07
9.23119e-07 6.01247e-07 0.000129252
0.00156549 0.000218933 5.31397e-07
0.000218933 5.58593e-05 1.88938e-06
5.31397e-07 1.88938e-06 -7.93669e-05
0.00139156 0.000201419 2.28445e-06
0.000201419 0.000353365 3.35477e-06
2.28445e-06 3.35477e-06 0.000138062
0.0010585 0.000215255 -1.97007e-06
0.000215255 -5.25521e-05 -5.56409e-07
-1.97007e-06 -5.56409e-07 -0.000226615
0.000603739 -3.50195e-05 -3.24187e-07
-3.50195e-05 -3.27376e-05 8.49078e-07
-3.24187e-07 8.49078e-07 -0.000104816
0.000408287 3.59547e-05 -7.69032e-07
3.59547e-05 -0.00011712 3.47525e-07
-7.69032e-07 3.47525e-07 -0.000223058
0.00109856 0.000161981 3.71467e-07
0.000161981 0.000244744 1.08043e-06
3.71467e-07 1.08043e-06 6.37339e-05
-3.00613e-06 4.10449e-05 8.70005e-07
4.10449e-05 -0.00034995 1.2953e-07
8.70005e-07 1.2953e-07 -0.000483031
0.00197013 0.000167117 -1.81918e-06
0.000167117 0.000135346 -5.20104e-07
-1.81918e-06 -5.20104e-07 5.74213e-05
0.0019988 0.000211326 1.93193e-06
0.000211326 0.000217146 -6.77798e-07
1.93193e-06 -6.77798e-07 0.000113727
0.00178945 0.00027602 -1.11114e-06
0.00027602 0.000210417 -1.18309e-06
-1.11114e-06 -1.18309e-06 3.98664e-05
-0.000277431 0.000102677 -2.3427e-07
0.000102677 -0.000646731 8.96915e-07
-2.3427e-07 8.96915e-07 -0.000868453
0.000748382 1.08674e-05 -8.16451e-07
1.08674e-05 3.88706e-05 -4.02777e-08
-8.16451e-07 -4.02777e-08 -2.16139e-05
0.000739444 -7.188e-06 -3.7206e-07
-7.188e-06 4.29489e-05 4.04911e-07
-3.7206e-07 4.04911e-07 -2.7496e-05
0.00083663 -2.85155e-05 -4.39923e-07
-2.85155e-05 0.000101591 -8.17774e-08
-4.39923e-07 -8.17774e-08 2.70964e-05
0.000739644 -3.14072e-05 -1.07729e-06
-3.14072e-05 2.82791e-05 -6.32911e-07
-1.07729e-06 -6.32911e-07 -2.80169e-05
0.000635496 -3.73908e-05 -2.89708e-07
-3.73908e-05 -1.80711e-05 -2.29944e-07
-2.89708e-07 -2.29944e-07 -8.67881e-05
0.000763616 -4.60333e-06 1.33676e-08
-4.60333e-06 4.12958e-05 8.77165e-09
1.33676e-08 8.77165e-09 -1.56146e-05
0.00077693 2.60909e-05 -3.76904e-07
2.60909e-05 7.24143e-05 -2.51306e-07
-3.76904e-07 -2.51306e-07 -7.32214e-06
0.000723372 -5.707e-06 3.99875e-07
-5.707e-06 3.5962e-05 2.62563e-07
3.99875e-07 2.62563e-07 -3.72521e-05
0.0008253 -2.79313e-06 3.27931e-07
-2.79313e-06 9.24594e-05 -4.11682e-07
3.27931e-07 -4.11682e-07 1.40891e-05
0.000786097 -3.78959e-05 4.7876e-07
-3.78959e-05 7.12097e-05 -4.14737e-07
4.7876e-07 -4.14737e-07 -7.28586e-06
0.000665505 1.59787e-05 5.35025e-07
1.59787e-05 -6.14741e-08 2.71085e-07
5.35025e-07 2.71085e-07 -7.3294e-05
0.000761638 2.82066e-05 7.23479e-07
2.82066e-05 4.09236e-05 6.43595e-07
7.23479e-07 6.43595e-07 -1.73046e-05
0.00071631 1.09725e-05 6.17296e-07
1.09725e-05 2.69568e-06 1.5536e-06
6.17296e-07 1.5536e-06 -3.57469e-05
0.000727336 -5.71405e-06 -1.45417e-07
-5.71405e-06 6.25737e-06 1.71563e-08
-1.45417e-07 1.71563e-08 -3.12654e-05
0.00127823 -1.71397e-05 7.66905e-07
-1.71397e-05 0.000306831 2.12962e-06
7.66905e-07 2.12962e-06 0.000303137
0.000733038 -1.53213e-05 -7.14844e-07
-1.53213e-05 8.6305e-06 -1.75456e-06
-7.14844e-07 -1.75456e-06 -2.81991e-05
0.00129731 -2.39209e-05 -3.30331e-06
-2.39209e-05 0.000320566 -1.3614e-06
-3.30331e-06 -1.3614e-06 0.00031665
0.000941379 -2.035e-05 1.45278e-05
-2.035e-05 0.000123755 7.15544e-06
1.45278e-05 7.15544e-06 0.000135661
0.00131185 -3.1188e-05 -6.84596e-06
-3.1188e-05 0.000332814 -4.84025e-06
-6.84596e-06 -4.84025e-06 0.000328308
0.000878464 -2.72486e-05 5.54822e-06
-2.72486e-05 9.27121e-05 2.66635e-06
5.54822e-06 2.66635e-06 0.000103895
0.000810744 -3.31301e-05 -2.0118e-06
-3.31301e-05 6.10181e-05 -1.78112e-06
-2.0118e-06 -1.78112e-06 7.07706e-05
0.000644743 3.11887e-05 6.89832e-07
3.11887e-05 -3.78187e-05 -3.83729e-06
6.89832e-07 -3.83729e-06 -5.05799e-05
0.000643736 3.72569e-05 -1.92184e-07
3.72569e-05 -3.14726e-05 4.24609e-08
-1.92184e-07 4.24609e-08 -4.79156e-05
0.00232178 6.17671e-05 2.50847e-05
6.17671e-05 0.000924945 -3.99737e-06
2.50847e-05 -3.99737e-06 0.000937057
0.000640301 4.51701e-05 -9.84173e-07
4.51701e-05 -2.50212e-05 4.41544e-06
-9.84173e-07 4.41544e-06 -4.56769e-05
0.00247575 7.32218e-05 -2.4489e-06
7.32218e-05 0.00101987 -1.67105e-07
-2.4489e-06 -1.67105e-07 0.00102897
0.00262409 8.26511e-05 -4.22265e-05
8.26511e-05 0.00111006 3.3305e-06
-4.22265e-05 3.3305e-06 0.00111688
0.00159584 0.000101922 1.82812e-06
0.000101922 8.17702e-05 2.29422e-06
1.82812e-06 2.29422e-06 -3.57517e-05
0.00166986 7.94531e-05 1.26756e-06
7.94531e-05 7.65734e-05 2.00579e-07
1.26756e-06 2.00579e-07 -2.89908e-05
0.00169899 0.000116954 5.12331e-06
0.000116954 6.44691e-05 1.09235e-06
5.12331e-06 1.09235e-06 -2.54649e-05
0.00173567 6.85188e-05 2.99892e-06
6.85188e-05 7.64479e-05 -1.02041e-06
2.99892e-06 -1.02041e-06 -1.40648e-05
0.00175394 2.85634e-05 1.59629e-06
2.85634e-05 0.00010077 -1.53455e-07
1.59629e-06 -1.53455e-07 -7.09756e-06
0.00161216 6.86813e-07 -1.07281e-06
6.86813e-07 8.57274e-05 -1.46312e-07
-1.07281e-06 -1.46312e-07 -3.1638e-05
0.00174745 2.14226e-06 -8.63521e-08
2.14226e-06 0.000103999 -2.11371e-08
-8.63521e-08 -2.11371e-08 -2.82671e-06
0.00171189 4.16141e-05 6.59424e-07
4.16141e-05 6.6211e-05 -1.35487e-07
6.59424e-07 -1.35487e-07 -2.8437e-05
0.00175524 8.7253e-05 8.32469e-07
8.7253e-05 8.19034e-05 -2.26041e-07
8.32469e-07 -2.26041e-07 -3.71103e-06
0.0019121 0.000131549 4.39557e-07
0.000131549 0.000177237 3.36192e-07
4.39557e-07 3.36192e-07 8.70683e-05
0.00175469 2.63935e-06 -1.1492e-06
2.63935e-06 8.64843e-05 3.1497e-07
-1.1492e-06 3.1497e-07 -1.08741e-05
0.00200347 6.77109e-05 2.40271e-07
6.77109e-05 0.000192321 5.60809e-07
2.40271e-07 5.60809e-07 0.00011584
0.00168273 0.000123646 5.00502e-08
0.000123646 1.71987e-08 -2.83621e-07
5.00502e-08 -2.83621e-07 -7.6468e-05
0.00181338 -3.05864e-05 4.88041e-07
-3.05864e-05 0.000137875 -2.92758e-07
4.88041e-07 -2.92758e-07 3.11828e-05
0.00180774 -6.621e-05 7.13555e-07
-6.621e-05 0.000142647 -4.17315e-07
7.13555e-07 -4.17315e-07 3.7434e-05
0.00170685 -0.00011511 1.47593e-06
-0.00011511 8.71334e-05 -2.98489e-08
1.47593e-06 -2.98489e-08 -5.79716e-06
0.0011495 -0.000162961 -2.45349e-07
-0.000162961 0.000250939 1.47689e-06
-2.45349e-07 1.47689e-06 0.000115781
0.00151249 -0.000204205 -1.13344e-07
-0.000204205 0.000416673 2.04141e-06
-1.13344e-07 2.04141e-06 0.000243883
0.00103077 -0.000206907 -2.0742e-06
-0.000206907 -5.2816e-05 1.2543e-06
-2.0742e-06 1.2543e-06 -0.000255179
0.0016778 -0.000145156 1.7575e-06
-0.000145156 9.21805e-05 -8.99077e-07
1.7575e-06 -8.99077e-07 -1.00127e-05
0.0015059 -0.000199085 -2.24489e-07
-0.000199085 -1.53287e-06 -2.83296e-06
-2.24489e-07 -2.83296e-06 -0.00011925
0.00163435 -0.000226007 -1.19732e-06
-0.000226007 0.000124495 -4.3584e-06
-1.19732e-06 -4.3584e-06 -2.73146e-05
0.00106308 -0.000156425 9.08371e-07
-0.000156425 0.000201949 -1.03557e-06
9.08371e-07 -1.03557e-06 7.46053e-05
0.000815433 -0.000139653 -3.65147e-06
-0.000139653 6.73759e-05 -2.23182e-06
-3.65147e-06 -2.23182e-06 -5.3984e-05
0.00106932 -0.000118942 4.56337e-07
-0.000118942 0.000236007 2.77865e-07
4.56337e-07 2.77865e-07 0.000102939
0.000436285 2.06418e-05 -8.48616e-07
2.06418e-05 -0.000142647 1.44883e-06
-8.48616e-07 1.44883e-06 -0.000193266
0.000972013 -3.66074e-05 2.73515e-07
-3.66074e-05 0.000178939 -7.62619e-08
2.73515e-07 -7.62619e-08 7.85614e-05
0.000594287 2.90122e-05 4.76283e-07
2.90122e-05 -3.82008e-05 1.32186e-06
4.76283e-07 1.32186e-06 -0.000118543
0.00177975 -3.59141e-05 -2.79374e-07
-3.59141e-05 9.38467e-05 1.51713e-07
-2.79374e-07 1.51713e-07 -5.82558e-06
0.00183834 -9.34925e-05 6.7398e-07
-9.34925e-05 0.000125099 -4.71962e-08
6.7398e-07 -4.71962e-08 4.09104e-05
0.00160314 -0.000127824 -3.61098e-07
-0.000127824 1.17689e-05 1.58839e-07
-3.61098e-07 1.58839e-07 -6.99768e-05
0.00104081 -0.000159755 1.44941e-07
-0.000159755 0.000186387 1.71984e-06
1.44941e-07 1.71984e-06 4.2846e-05
0.00088504 -0.000178223 -2.63541e-07
-0.000178223 3.44165e-05 -4.76472e-08
-2.63541e-07 -4.76472e-08 -0.000166177
0.00186676 -0.000272928 -2.81513e-06
-0.000272928 0.000338553 9.33823e-07
-2.81513e-06 9.33823e-07 0.000139679
0.00188919 -0.000182601 7.52418e-07
-0.000182601 0.00015739 -6.41197e-07
7.52418e-07 -6.41197e-07 6.41213e-05
0.00175628 -0.000234469 1.72603e-06
-0.000234469 0.000146785 -6.8705e-07
1.72603e-06 -6.8705e-07 1.25403e-05
0.000569005 2.07091e-05 3.80728e-07
2.07091e-05 -7.12112e-05 -7.14293e-07
3.80728e-07 -7.14293e-07 -0.0001162
0.000850606 -4.23299e-07 -3.28866e-07
-4.23299e-07 0.000107781 2.5134e-07
-3.28866e-07 2.5134e-07 3.13911e-05
0.000527987 -0.000123292 -1.64947e-06
-0.000123292 -0.000102932 1.47545e-06
-1.64947e-06 1.47545e-06 -0.000227997
0.00119303 -0.00015996 5.52809e-07
-0.00015996 0.000273057 3.97212e-07
5.52809e-07 3.97212e-07 0.000142177
0.000870909 -3.73317e-05 1.3595e-07
-3.73317e-05 0.00012676 -3.94514e-07
1.3595e-07 -3.94514e-07 1.2348e-05
0.000904713 -4.82121e-05 -6.4939e-07
-4.82121e-05 0.000147096 1.01679e-06
-6.4939e-07 1.01679e-06 4.93209e-05
0.00185048 -5.71445e-05 -1.48417e-06
-5.71445e-05 0.000102207 7.82942e-09
-1.48417e-06 7.82942e-09 1.93398e-05
0.00172216 -0.00012494 -3.39398e-06
-0.00012494 3.08922e-05 -3.86894e-07
-3.39398e-06 -3.86894e-07 -3.38929e-05
0.00179868 -0.000147301 7.8727e-07
-0.000147301 7.55268e-05 -1.20998e-07
7.8727e-07 -1.20998e-07 4.25174e-06
0.00237717 -0.000263725 5.11245e-06
-0.000263725 0.000401744 -8.5932e-07
5.11245e-06 -8.5932e-07 0.000295775
0.000251955 -0.000113598 -2.57694e-06
-0.000113598 -0.000249943 -8.16506e-07
-2.57694e-06 -8.16506e-07 -0.000409502
0.00184569 -0.000279312 -2.82614e-06
-0.000279312 0.000270064 5.20202e-06
-2.82614e-06 5.20202e-06 8.47897e-05
0.00215362 -0.000286599 1.85583e-06
-0.000286599 0.000659072 -3.38954e-06
1.85583e-06 -3.38954e-06 0.000434405
0.000722886 1.80384e-05 6.82897e-07
1.80384e-05 1.14962e-05 -1.97398e-06
6.82897e-07 -1.97398e-06 -2.83555e-05
0.000743635 -7.52764e-05 1.33125e-06
-7.52764e-05 5.37978e-05 -1.63934e-06
1.33125e-06 -1.63934e-06 -1.66435e-05
0.000566687 1.13169e-05 4.17721e-07
1.13169e-05 -4.79652e-05 -2.17163e-06
4.17721e-07 -2.17163e-06 -0.000124345
0.000833096 -3.88814e-05 1.24054e-06
-3.88814e-05 0.000111913 1.11333e-07
1.24054e-06 1.11333e-07 1.60281e-05
0.000807547 -1.7539e-06 7.55623e-07
-1.7539e-06 8.82962e-05 -6.4454e-07
7.55623e-07 -6.4454e-07 -1.24062e-05
0.000541059 -0.000111417 9.55396e-08
-0.000111417 -3.93213e-05 2.68598e-06
9.55396e-08 2.68598e-06 -0.000166814
0.000569305 -0.000129937 -3.38648e-06
-0.000129937 -0.000126606 1.14986e-06
-3.38648e-06 1.14986e-06 -0.000240459
0.00179771 -0.000204283 -5.87645e-06
-0.000204283 0.000637298 3.78167e-06
-5.87645e-06 3.78167e-06 0.000486588
0.00073407 -4.17575e-05 -6.10386e-07
-4.17575e-05 2.7906e-05 -5.10602e-07
-6.10386e-07 -5.10602e-07 -3.0709e-05
0.000815471 -7.48126e-06 -6.46537e-08
-7.48126e-06 9.20254e-05 2.71639e-07
-6.46537e-08 2.71639e-07 7.77639e-06
0.00207547 0.000174096 2.46284e-07
0.000174096 0.000296745 5.00035e-07
2.46284e-07 5.00035e-07 0.000194634
0.000832914 1.06279e-05 3.18855e-08
1.06279e-05 0.000114549 -7.27564e-07
3.18855e-08 -7.27564e-07 7.78416e-07
0.00113219 0.000161687 1.13997e-06
0.000161687 0.000278378 -1.2737e-06
1.13997e-06 -1.2737e-06 0.000116639
0.00065173 8.15692e-05 -3.85296e-07
8.15692e-05 4.64384e-06 1.98419e-06
-3.85296e-07 1.98419e-06 -0.000116803
0.00186943 0.000248552 1.00951e-06
0.000248552 0.000286168 2.51426e-07
1.00951e-06 2.51426e-07 0.000121318
0.00164023 0.000226238 3.0652e-06
0.000226238 9.90194e-05 4.76834e-06
3.0652e-06 4.76834e-06 -3.65446e-05
0.000907865 0.000170943 1.38795e-06
0.000170943 9.64984e-05 4.77966e-07
1.38795e-06 4.77966e-07 -0.000122221
0.001222 0.000226862 -3.1089e-06
0.000226862 3.95661e-05 -1.92716e-07
-3.1089e-06 -1.92716e-07 -0.000132332
0.000625434 -1.45559e-05 9.09148e-08
-1.45559e-05 -1.61949e-05 6.57057e-07
9.09148e-08 6.57057e-07 -9.25375e-05
0.000606445 5.1024e-05 -2.76874e-07
5.1024e-05 -6.81992e-06 -1.37313e-06
-2.76874e-07 -1.37313e-06 -0.000114419
0.00103216 0.000158063 1.18086e-06
0.000158063 0.000217168 -1.52989e-06
1.18086e-06 -1.52989e-06 3.2388e-05
0.000678293 8.71842e-05 -6.66709e-07
8.71842e-05 2.41347e-05 -1.60766e-06
-6.66709e-07 -1.60766e-06 -0.000112486
0.00200608 0.000164198 1.73452e-07
0.000164198 0.00016011 -4.88035e-07
1.73452e-07 -4.88035e-07 8.41781e-05
0.0018071 0.000209242 1.88823e-06
0.000209242 0.00012227 4.84264e-07
1.88823e-06 4.84264e-07 1.44334e-05
0.00167874 0.000263174 -1.22967e-06
0.000263174 0.000151874 -7.13108e-07
-1.22967e-06 -7.13108e-07 -1.50809e-05
0.000827089 0.000182821 4.81393e-07
0.000182821 -6.4488e-05 -2.42227e-08
4.81393e-07 -2.42227e-08 -0.000285452
0.000802006 -1.04176e-05 -2.5311e-07
-1.04176e-05 8.43176e-05 2.51764e-07
-2.5311e-07 2.51764e-07 4.05519e-06
0.00183423 0.000128627 -7.4224e-07
0.000128627 2.54892e-05 6.14995e-07
-7.4224e-07 6.14995e-07 -2.59672e-05
0.00125047 0.000154002 -9.09801e-07
0.000154002 0.000369908 2.1462e-06
-9.09801e-07 2.1462e-06 0.000229868
0.0010437 0.000165713 1.51197e-07
0.000165713 0.000202308 2.67567e-06
1.51197e-07 2.67567e-06 9.63966e-06
0.00238787 0.000211259 -4.98808e-06
0.000211259 0.000339357 -1.143e-07
-4.98808e-06 -1.143e-07 0.000261979
0.00148091 0.000270105 -3.01158e-06
0.000270105 -4.87048e-05 -3.41172e-06
-3.01158e-06 -3.41172e-06 -0.000200634
0.00198955 0.000286774 -1.96759e-06
0.000286774 0.000454712 1.50912e-06
-1.96759e-06 1.50912e-06 0.000232741
0.000806395 -1.07519e-06 -1.50479e-06
-1.07519e-06 8.1038e-05 3.34959e-07
-1.50479e-06 3.34959e-07 1.04794e-05
0.000800662 -1.22426e-05 -1.42122e-07
-1.22426e-05 8.17645e-05 7.96299e-08
-1.42122e-07 7.96299e-08 7.0001e-06
0.000866032 -2.67502e-05 -6.11205e-07
-2.67502e-05 0.000125732 8.49482e-08
-6.11205e-07 8.49482e-08 4.4103e-05
0.000743737 -2.56309e-05 -4.56789e-07
-2.56309e-05 3.15761e-05 -7.28739e-07
-4.56789e-07 -7.28739e-07 -2.63432e-05
0.000755578 8.56409e-06 1.61375e-07
8.56409e-06 5.5012e-05 4.10513e-07
1.61375e-07 4.10513e-07 -1.85633e-05
0.000657835 -1.27599e-05 -7.11225e-07
-1.27599e-05 1.05315e-05 1.8719e-07
-7.11225e-07 1.8719e-07 -7.1577e-05
0.000752252 -1.33022e-05 -1.32481e-07
-1.33022e-05 3.9506e-05 -1.72683e-08
-1.32481e-07 -1.72683e-08 -2.15377e-05
0.00067546 -2.50028e-05 -5.40705e-07
-2.50028e-05 9.50335e-06 3.02071e-07
-5.40705e-07 3.02071e-07 -6.58771e-05
0.000749038 -4.15595e-05 4.23954e-07
-4.15595e-05 5.1025e-05 -3.37917e-07
4.23954e-07 -3.37917e-07 -2.76663e-05
0.000829828 1.1731e-05 2.62681e-07
1.1731e-05 0.000102065 3.09046e-07
2.62681e-07 3.09046e-07 1.94171e-05
0.000783901 -2.06661e-05 6.26175e-07
-2.06661e-05 6.18329e-05 -1.09475e-06
6.26175e-07 -1.09475e-06 -1.6677e-05
0.000780481 -5.99904e-05 4.50083e-07
-5.99904e-05 6.50612e-05 -4.10416e-07
4.50083e-07 -4.10416e-07 -1.5863e-05
0.000855175 1.45057e-05 6.45858e-07
1.45057e-05 0.000112024 -3.55058e-07
6.45858e-07 -3.55058e-07 2.89925e-05
0.000755873 1.87311e-05 1.68144e-06
1.87311e-05 5.38298e-05 1.68163e-07
1.68144e-06 1.68163e-07 -2.66347e-05
0.000766358 8.17735e-06 8.22571e-07
8.17735e-06 4.3212e-05 7.12201e-07
8.22571e-07 7.12201e-07 -1.64937e-05
0.00070476 4.31936e-06 3.38601e-07
4.31936e-06 -1.83827e-06 1.49889e-06
3.38601e-07 1.49889e-06 -4.06564e-05
0.00071904 -1.74099e-06 -2.08315e-07
-1.74099e-06 4.11352e-06 2.891e-08
-2.08315e-07 2.891e-08 -3.41641e-05
0.00128331 -8.22405e-06 5.46472e-07
-8.22405e-06 0.000308296 2.05786e-06
5.46472e-07 2.05786e-06 0.000304353
0.00073402 -1.24763e-05 -1.33029e-07
-1.24763e-05 1.02861e-05 -1.7471e-06
-1.33029e-07 -1.7471e-06 -2.7333e-05
0.00130739 -1.51554e-05 -2.47289e-06
-1.51554e-05 0.0003237 -1.4123e-06
-2.47289e-06 -1.4123e-06 0.000319854
0.000942683 -1.3906e-05 1.0979e-05
-1.3906e-05 0.000121106 7.37738e-06
1.0979e-05 7.37738e-06 0.000133321
0.00132879 -2.23797e-05 -5.11749e-06
-2.23797e-05 0.000338413 -4.9057e-06
-5.11749e-06 -4.9057e-06 0.000334331
0.000891094 -2.07862e-05 3.95469e-06
-2.07862e-05 9.48018e-05 2.76897e-06
3.95469e-06 2.76897e-06 0.000106752
0.000824861 -2.67758e-05 -1.44218e-06
-2.67758e-05 6.22487e-05 -1.79453e-06
-1.44218e-06 -1.79453e-06 7.35659e-05
0.000730254 3.82957e-06 4.85082e-07
3.82957e-06 1.42881e-05 -1.91372e-06
4.85082e-07 -1.91372e-06 -2.26693e-05
0.000656684 2.50247e-05 5.68978e-07
2.50247e-05 -3.69475e-05 -3.71717e-06
5.68978e-07 -3.71717e-06 -4.66983e-05
0.000657338 3.18041e-05 -1.18493e-07
3.18041e-05 -3.08769e-05 4.59262e-08
-1.18493e-07 4.59262e-08 -4.37689e-05
0.00224217 5.11037e-05 2.06279e-05
5.11037e-05 0.000872811 -4.17891e-06
2.06279e-05 -4.17891e-06 0.000887468
0.000654876 3.83963e-05 -1.04812e-06
3.83963e-05 -2.50227e-05 4.15004e-06
-1.04812e-06 4.15004e-06 -4.16952e-05
0.00236677 6.28133e-05 -2.46214e-06
6.28133e-05 0.000951149 -1.47551e-07
-2.46214e-06 -1.47551e-07 0.000962866
0.0025244 7.37633e-05 -3.48136e-05
7.37633e-05 0.00104776 3.66397e-06
-3.48136e-05 3.66397e-06 0.00105667
0.00189546 0.000127026 1.86469e-06
0.000127026 0.000159588 1.88225e-06
1.86469e-06 1.88225e-06 7.04201e-05
0.00170913 8.85308e-05 1.80806e-06
8.85308e-05 5.79297e-05 -1.79147e-07
1.80806e-06 -1.79147e-07 -2.85311e-05
0.00169085 4.11185e-05 1.57089e-06
4.11185e-05 5.97209e-05 -6.32402e-07
1.57089e-06 -6.32402e-07 -3.52876e-05
0.00173376 4.04078e-06 6.78309e-07
4.04078e-06 9.66367e-05 -3.20401e-07
6.78309e-07 -3.20401e-07 -1.02451e-05
0.0017691 3.65825e-06 -7.2573e-07
3.65825e-06 9.62175e-05 5.35508e-08
-7.2573e-07 5.35508e-08 2.03491e-07
0.00191284 6.53818e-05 6.57252e-07
6.53818e-05 0.00013984 -2.50974e-07
6.57252e-07 -2.50974e-07 6.25179e-05
0.00169701 0.00012429 -6.97985e-07
0.00012429 4.65451e-06 -1.92862e-07
-6.97985e-07 -1.92862e-07 -7.20286e-05
0.00181287 9.69503e-06 -1.16465e-06
9.69503e-06 7.86115e-05 1.00213e-06
-1.16465e-06 1.00213e-06 -1.09884e-06
0.00193722 8.59017e-05 5.76179e-07
8.59017e-05 0.000110587 -2.13242e-08
5.76179e-07 -2.13242e-08 5.10752e-05
0.001885 5.82691e-05 -1.83012e-06
5.82691e-05 6.74546e-05 -1.05058e-06
-1.83012e-06 -1.05058e-06 4.9004e-05
0.00188797 -3.48919e-05 -8.53996e-08
-3.48919e-05 0.000150737 -1.86379e-07
-8.53996e-08 -1.86379e-07 5.13329e-05
0.0018999 -9.61225e-05 2.62148e-06
-9.61225e-05 0.000160334 2.60243e-07
2.62148e-06 2.60243e-07 7.68283e-05
0.00165632 -0.000129842 -2.0333e-07
-0.000129842 4.14258e-05 -3.75956e-08
-2.0333e-07 -3.75956e-08 -4.02715e-05
0.00109914 -0.000163206 2.53116e-07
-0.000163206 0.000216658 3.41245e-06
2.53116e-07 3.41245e-06 7.21051e-05
0.00115075 -0.000193397 1.02767e-06
-0.000193397 0.000192024 3.96998e-06
1.02767e-06 3.96998e-06 -5.46497e-06
0.00150777 -0.00024792 -1.99201e-06
-0.00024792 0.000138617 -7.78959e-07
-1.99201e-06 -7.78959e-07 -5.43273e-05
0.00184901 -0.000181581 3.24914e-06
-0.000181581 0.000134697 -1.18365e-06
3.24914e-06 -1.18365e-06 4.02655e-05
0.00163268 -0.000226842 -3.0186e-07
-0.000226842 7.93391e-05 -3.01579e-06
-3.0186e-07 -3.01579e-06 -5.41922e-05
0.000253661 -0.000102921 -2.45292e-06
-0.000102921 -0.000254994 2.21336e-06
-2.45292e-06 2.21336e-06 -0.000376139
0.00145868 -0.000173974 8.14525e-06
-0.000173974 0.000425462 -4.08343e-06
8.14525e-06 -4.08343e-06 0.000296901
0.000813541 -6.99706e-06 -3.37264e-08
-6.99706e-06 8.5579e-05 -5.71175e-07
-3.37264e-08 -5.71175e-07 -2.1098e-05
0.000718905 1.10156e-05 -6.84921e-07
1.10156e-05 1.1864e-05 1.36334e-06
-6.84921e-07 1.36334e-06 -3.11865e-05
0.000853275 1.70377e-05 -8.11743e-07
1.70377e-05 0.000108225 1.51099e-06
-8.11743e-07 1.51099e-06 3.22707e-05
0.000821238 -2.14773e-05 -5.26731e-07
-2.14773e-05 0.000101065 1.14355e-06
-5.26731e-07 1.14355e-06 3.11615e-06
0.00188802 -5.85583e-05 8.3529e-08
-5.85583e-05 0.000124166 1.19097e-07
8.3529e-08 1.19097e-07 4.33377e-05
0.000723373 9.32079e-06 5.43364e-07
9.32079e-06 1.20375e-05 4.57547e-08
5.43364e-07 4.57547e-08 -2.80093e-05
0.000659961 -1.97439e-05 -7.9298e-07
-1.97439e-05 -4.18733e-06 2.36791e-08
-7.9298e-07 2.36791e-08 -6.78451e-05
0.00181814 -0.000124333 -3.81982e-07
-0.000124333 8.96824e-05 -9.60611e-08
-3.81982e-07 -9.60611e-08 2.32981e-05
0.00164538 -0.000142645 -1.87784e-06
-0.000142645 -1.31016e-05 8.97523e-07
-1.87784e-06 8.97523e-07 -8.63989e-05
0.000536908 -0.0001316 2.88319e-07
-0.0001316 -8.24962e-05 2.75791e-06
2.88319e-07 2.75791e-06 -0.000239693
0.0017043 -0.000252153 -1.93773e-06
-0.000252153 0.0004217 7.72947e-07
-1.93773e-06 7.72947e-07 0.000191281
0.00148564 -0.000253808 9.05913e-07
-0.000253808 7.70449e-05 -9.20552e-07
9.05913e-07 -9.20552e-07 -0.00010136
0.00191719 -0.000246599 2.67708e-06
-0.000246599 0.000162537 -8.91949e-07
2.67708e-06 -8.91949e-07 5.59592e-05
0.000807737 -2.49924e-05 1.1661e-06
-2.49924e-05 8.58786e-05 -7.13057e-07
1.1661e-06 -7.13057e-07 1.19004e-05
0.000814148 -2.7447e-05 -2.32053e-07
-2.7447e-05 0.00010217 6.8382e-07
-2.32053e-07 6.8382e-07 5.24218e-06
0.000954102 -0.000143712 -6.40387e-07
-0.000143712 8.37583e-05 -2.28403e-07
-6.40387e-07 -2.28403e-07 -3.49e-05
0.00116116 -0.000162825 7.09369e-06
-0.000162825 0.000282739 -2.00208e-06
7.09369e-06 -2.00208e-06 0.000154144
0.000626237 -8.55564e-05 -1.08984e-06
-8.55564e-05 4.01195e-07 1.99912e-07
-1.08984e-06 1.99912e-07 -0.000122298
0.00082845 -7.91496e-06 3.04022e-07
-7.91496e-06 0.000102693 -4.79123e-07
3.04022e-07 -4.79123e-07 2.73906e-07
0.00191878 -7.37062e-05 -4.02019e-06
-7.37062e-05 9.42572e-05 -7.66945e-08
-4.02019e-06 -7.66945e-08 3.50125e-05
0.00170979 -0.000113348 1.25883e-06
-0.000113348 -6.27729e-06 4.33756e-07
1.25883e-06 4.33756e-07 -6.25801e-05
0.00187643 -0.000236729 2.33706e-07
-0.000236729 4.21557e-05 -1.92973e-06
2.33706e-07 -1.92973e-06 -2.56537e-05
0.00161784 -0.000276539 1.52715e-06
-0.000276539 3.2554e-05 7.68365e-07
1.52715e-06 7.68365e-07 -9.31757e-05
0.000815856 -0.000116938 -5.09005e-06
-0.000116938 4.39593e-05 -3.33527e-06
-5.09005e-06 -3.33527e-06 -0.000113739
0.00258963 -0.000341742 -3.18719e-06
-0.000341742 0.000817778 2.59495e-06
-3.18719e-06 2.59495e-06 0.000572495
0.000542002 4.94554e-05 -1.32127e-06
4.94554e-05 -6.66856e-05 -2.24161e-06
-1.32127e-06 -2.24161e-06 -0.000131146
0.000754639 -4.16104e-05 1.28976e-06
-4.16104e-05 4.98855e-05 -1.46754e-06
1.28976e-06 -1.46754e-06 -1.67875e-05
0.000961493 -5.32074e-05 1.02854e-06
-5.32074e-05 0.000184941 -2.40043e-07
1.02854e-06 -2.40043e-07 9.92982e-05
0.000561531 1.47921e-05 -1.09123e-07
1.47921e-05 -3.4547e-05 -6.68449e-07
-1.09123e-07 -6.68449e-07 -0.000133487
0.00104494 -3.56323e-05 5.13565e-07
-3.56323e-05 0.000224885 -2.44747e-07
5.13565e-07 -2.44747e-07 0.000126939
0.000581926 -3.8025e-05 9.60158e-07
-3.8025e-05 -3.30745e-05 2.03066e-07
9.60158e-07 2.03066e-07 -0.000147475
0.000560908 -7.9626e-05 4.99429e-06
-7.9626e-05 2.37852e-05 1.17075e-06
4.99429e-06 1.17075e-06 -0.000139673
0.000655024 -0.000153701 -1.42384e-05
-0.000153701 -5.65523e-05 4.80936e-06
-1.42384e-05 4.80936e-06 -0.000164001
0.000628701 2.15789e-06 -4.02026e-08
2.15789e-06 -1.02107e-05 2.2464e-07
-4.02026e-08 2.2464e-07 -9.07072e-05
0.00080827 6.83138e-05 -2.07547e-06
6.83138e-05 0.000105018 -2.57182e-06
-2.07547e-06 -2.57182e-06 -4.09e-06
0.00201512 0.000161484 -1.21853e-06
0.000161484 0.000168645 -3.07631e-07
-1.21853e-06 -3.07631e-07 9.46661e-05
0.00165161 0.000208919 3.59614e-07
0.000208919 4.50659e-05 2.03589e-06
3.59614e-07 2.03589e-06 -6.7281e-05
0.00134594 0.000112978 -3.18533e-06
0.000112978 0.000386737 -1.183e-06
-3.18533e-06 -1.183e-06 0.000250005
0.000992286 0.00015556 -9.00724e-07
0.00015556 0.000201966 -4.87776e-06
-9.00724e-07 -4.87776e-06 1.49904e-05
0.00164665 0.000254884 1.56756e-06
0.000254884 0.000135437 3.79869e-07
1.56756e-06 3.79869e-07 -2.86597e-05
0.00194011 0.000262952 -1.00914e-06
0.000262952 0.000526308 -6.56929e-07
-1.00914e-06 -6.56929e-07 0.00030478
0.000766261 1.29064e-05 7.3798e-07
1.29064e-05 7.17173e-05 -6.48331e-07
7.3798e-07 -6.48331e-07 -1.37789e-05
0.00186047 0.000123907 -4.66033e-07
0.000123907 3.66758e-05 -1.15165e-07
-4.66033e-07 -1.15165e-07 -1.18344e-05
0.000950274 0.000106632 4.30206e-07
0.000106632 0.000199092 1.63039e-06
4.30206e-07 1.63039e-06 6.81248e-05
0.000808749 0.000149134 4.56476e-07
0.000149134 7.30661e-05 -7.84451e-08
4.56476e-07 -7.84451e-08 -0.000119596
0.00206529 0.000200485 2.45432e-06
0.000200485 0.000162951 -1.63982e-07
2.45432e-06 -1.63982e-07 8.52148e-05
0.00171533 0.000279542 -4.31256e-07
0.000279542 7.53842e-05 -1.20645e-06
-4.31256e-07 -1.20645e-06 -7.4143e-05
0.00206973 0.000294309 1.08061e-06
0.000294309 0.000511286 1.14384e-06
1.08061e-06 1.14384e-06 0.000287767
0.00111718 4.43909e-05 -2.59987e-06
4.43909e-05 0.000281269 1.23642e-06
-2.59987e-06 1.23642e-06 0.000172895
0.00224725 0.000140575 -1.83702e-05
0.000140575 0.000262688 -2.28177e-06
-1.83702e-05 -2.28177e-06 0.000234486
0.00217223 0.000220509 -3.81688e-06
0.000220509 0.000850421 -4.82866e-07
-3.81688e-06 -4.82866e-07 0.000692975
0.00260236 0.000297136 -5.96517e-06
0.000297136 0.000982221 1.57797e-06
-5.96517e-06 1.57797e-06 0.000770146
0.00184849 0.000287267 -6.07273e-06
0.000287267 5.17947e-05 -4.96593e-06
-6.07273e-06 -4.96593e-06 -4.42871e-05
0.00144 0.000274252 -7.12699e-06
0.000274252 9.75775e-05 7.994e-08
-7.12699e-06 7.994e-08 -0.000100315
0.000266206 0.000142807 1.02969e-05
0.000142807 -0.000534691 -2.02355e-06
1.02969e-05 -2.02355e-06 -0.000715
0.00076469 1.03956e-06 1.40257e-07
1.03956e-06 6.39707e-05 1.30711e-07
1.40257e-07 1.30711e-07 -1.23031e-05
0.000829904 -1.87573e-05 -3.20184e-07
-1.87573e-05 0.000106838 1.8603e-07
-3.20184e-07 1.8603e-07 2.49444e-05
0.0010117 -5.6252e-06 1.74139e-08
-5.6252e-06 0.000197384 -1.23827e-06
1.74139e-08 -1.23827e-06 0.000111159
0.000739495 -5.02514e-05 -2.89679e-07
-5.02514e-05 3.56428e-05 -9.01005e-07
-2.89679e-07 -9.01005e-07 -2.76994e-05
0.000705492 -4.8475e-05 -1.23121e-06
-4.8475e-05 2.49645e-05 4.79719e-07
-1.23121e-06 4.79719e-07 -4.91554e-05
0.000870651 7.38229e-05 -7.03033e-07
7.38229e-05 0.000127414 7.66472e-07
-7.03033e-07 7.66472e-07 4.3175e-05
0.000684101 -4.85223e-05 -2.89828e-07
-4.85223e-05 1.78771e-05 4.18198e-07
-2.89828e-07 4.18198e-07 -6.28978e-05
0.000745378 -2.53887e-05 -3.98776e-08
-2.53887e-05 3.87919e-05 -4.94684e-09
-3.98776e-08 -4.94684e-09 -2.57383e-05
0.000722641 1.36929e-05 -1.15902e-08
1.36929e-05 2.72243e-05 -1.67187e-07
-1.15902e-08 -1.67187e-07 -4.7476e-05
0.000792391 -2.58794e-05 1.25795e-07
-2.58794e-05 6.74239e-05 -4.42885e-07
1.25795e-07 -4.42885e-07 -1.24402e-05
0.000846707 -1.02946e-05 9.35907e-08
-1.02946e-05 0.00010169 -2.39184e-08
9.35907e-08 -2.39184e-08 2.2498e-05
0.000847983 -3.79218e-05 9.4904e-08
-3.79218e-05 0.000100997 -6.43513e-09
9.4904e-08 -6.43513e-09 2.09044e-05
0.000841448 -2.97763e-05 -1.88266e-08
-2.97763e-05 8.70744e-05 -1.20214e-06
-1.88266e-08 -1.20214e-06 8.57377e-06
0.000825639 7.32166e-08 2.37626e-07
7.32166e-08 8.06576e-05 -1.40558e-06
2.37626e-07 -1.40558e-06 6.20984e-07
0.000840113 2.67597e-05 5.29301e-07
2.67597e-05 9.01117e-05 -3.85523e-07
5.29301e-07 -3.85523e-07 1.30577e-05
0.000767804 2.81119e-05 3.04568e-07
2.81119e-05 5.81831e-05 1.36068e-07
3.04568e-07 1.36068e-07 -2.60837e-05
0.00064262 -1.28654e-05 2.0015e-08
-1.28654e-05 -2.80915e-05 1.12643e-06
2.0015e-08 1.12643e-06 -9.00313e-05
0.000898255 -7.63264e-06 3.09572e-07
-7.63264e-06 0.000145031 -7.46301e-07
3.09572e-07 -7.46301e-07 5.89671e-05
0.000617549 1.82599e-06 -6.20026e-07
1.82599e-06 -3.71302e-05 1.10982e-06
-6.20026e-07 1.10982e-06 -0.000101791
0.000704708 1.02331e-05 -1.53508e-07
1.02331e-05 -7.95622e-07 1.48653e-06
-1.53508e-07 1.48653e-06 -4.02833e-05
0.000706121 6.1846e-06 1.17187e-07
6.1846e-06 -8.07185e-07 1.15985e-08
1.17187e-07 1.15985e-08 -3.97613e-05
0.000666172 1.1563e-06 1.38737e-07
1.1563e-06 -4.12748e-05 3.41281e-06
1.38737e-07 3.41281e-06 -4.9285e-05
0.000719922 -4.65853e-06 -2.36701e-07
-4.65853e-06 4.87491e-06 -1.6033e-06
-2.36701e-07 -1.6033e-06 -3.34823e-05
0.00099552 -5.95132e-06 -1.59728e-06
-5.95132e-06 0.000145603 -1.48878e-06
-1.59728e-06 -1.48878e-06 0.000139704
0.00220377 -1.00899e-05 6.8114e-06
-1.00899e-05 0.00083368 4.64813e-06
6.8114e-06 4.64813e-06 0.000853037
0.00134156 -1.38471e-05 -2.99785e-06
-1.38471e-05 0.00034339 -4.90801e-06
-2.99785e-06 -4.90801e-06 0.000339288
0.000895873 -1.40955e-05 2.08729e-06
-1.40955e-05 9.38591e-05 2.85277e-06
2.08729e-06 2.85277e-06 0.000106243
0.000838342 -2.00052e-05 -9.03186e-07
-2.00052e-05 6.44848e-05 -1.79108e-06
-9.03186e-07 -1.79108e-06 7.67046e-05
0.0007089 1.19554e-05 -1.04374e-07
1.19554e-05 2.53485e-06 -1.87084e-06
-1.04374e-07 -1.87084e-06 -3.23807e-05
0.000724308 4.51408e-06 1.50585e-07
4.51408e-06 1.09124e-05 5.70365e-09
1.50585e-07 5.70365e-09 -2.61376e-05
0.000672031 1.87933e-05 3.35812e-07
1.87933e-05 -3.26274e-05 -3.55457e-06
3.35812e-07 -3.55457e-06 -3.99886e-05
0.000989966 2.91957e-05 -4.99528e-07
2.91957e-05 0.000151799 3.19605e-08
-4.99528e-07 3.19605e-08 0.000143602
0.00218198 4.04052e-05 1.68319e-05
4.04052e-05 0.000832606 -4.2963e-06
1.68319e-05 -4.2963e-06 0.000849467
0.000667358 3.25013e-05 -7.2791e-07
3.25013e-05 -2.53272e-05 3.94568e-06
-7.2791e-07 3.94568e-06 -3.8361e-05
0.00227657 5.2238e-05 -2.37519e-06
5.2238e-05 0.000893088 -1.22502e-07
-2.37519e-06 -1.22502e-07 0.000907352
0.00241625 6.37328e-05 -2.83518e-05
6.37328e-05 0.000979831 3.97016e-06
-2.83518e-05 3.97016e-06 0.000991172
0.00171403 0.000125275 -1.48797e-06
0.000125275 1.11598e-05 -1.3261e-07
-1.48797e-06 -1.3261e-07 -6.57348e-05
0.00182011 6.37076e-05 1.1407e-06
6.37076e-05 8.59981e-05 -1.08328e-06
1.1407e-06 -1.08328e-06 7.80654e-06
0.00178787 1.71526e-06 -1.92396e-07
1.71526e-06 0.000108109 -3.32679e-07
-1.92396e-07 -3.32679e-07 1.34483e-05
0.00177429 1.16349e-05 4.06969e-07
1.16349e-05 5.51687e-05 2.62508e-07
4.06969e-07 2.62508e-07 -2.47038e-05
0.00182934 8.39076e-05 -5.84828e-07
8.39076e-05 5.68793e-05 -2.01401e-07
-5.84828e-07 -2.01401e-07 -3.95813e-06
0.0018198 5.79867e-05 2.03385e-06
5.79867e-05 3.07914e-05 9.38275e-07
2.03385e-06 9.38275e-07 6.09408e-06
0.00170475 1.55276e-05 -3.10468e-07
1.55276e-05 -2.41411e-05 2.55568e-07
-3.10468e-07 2.55568e-07 -6.9362e-05
0.00306793 0.000107651 1.54458e-05
0.000107651 0.000406648 -1.51068e-07
1.54458e-05 -1.51068e-07 0.000365882
0.00178028 3.86248e-05 -1.6614e-05
3.86248e-05 7.91583e-05 -3.61696e-06
-1.6614e-05 -3.61696e-06 7.57693e-05
0.000749784 4.807e-05 -5.7074e-07
4.807e-05 4.7004e-05 -1.19651e-06
-5.7074e-07 -1.19651e-06 -1.12895e-05
0.00192628 -5.9667e-05 1.75925e-06
-5.9667e-05 0.000146528 1.98711e-07
1.75925e-06 1.98711e-07 6.77289e-05
0.0019171 -0.000121285 1.68459e-06
-0.000121285 0.00015225 -1.02547e-07
1.68459e-06 -1.02547e-07 8.46197e-05
0.00148511 -0.000137347 1.19095e-06
-0.000137347 -0.000104324 6.36573e-07
1.19095e-06 6.36573e-07 -0.000179001
0.000805748 -0.000148 2.33283e-06
-0.000148 7.54533e-05 5.40236e-06
2.33283e-06 5.40236e-06 -7.90836e-05
0.00132417 -0.000222362 2.03182e-06
-0.000222362 0.000222276 5.18575e-06
2.03182e-06 5.18575e-06 -1.55042e-05
0.00118101 -0.000233546 -1.13207e-06
-0.000233546 -8.69733e-05 -4.07618e-06
-1.13207e-06 -4.07618e-06 -0.000260358
0.00151088 -0.000233956 -4.91698e-06
-0.000233956 -5.01639e-05 -2.2385e-06
-4.91698e-06 -2.2385e-06 -0.000157921
0.00130056 -0.000161021 9.61848e-06
-0.000161021 0.00027165 -3.35867e-06
9.61848e-06 -3.35867e-06 0.000147843
0.000522566 -0.000122443 5.24058e-06
-0.000122443 -7.06804e-05 -9.47314e-06
5.24058e-06 -9.47314e-06 -0.000177899
0.000759983 -8.8428e-05 1.80348e-08
-8.8428e-05 7.15457e-05 -1.70856e-06
1.80348e-08 -1.70856e-06 -5.11951e-05
0.000720934 5.90192e-07 -1.20448e-06
5.90192e-07 1.04873e-05 2.06595e-06
-1.20448e-06 2.06595e-06 -2.93847e-05
0.000854844 -1.56531e-05 -1.07532e-08
-1.56531e-05 0.000121686 -3.5399e-07
-1.07532e-08 -3.5399e-07 1.63113e-05
0.00104079 -5.5824e-05 -1.71569e-07
-5.5824e-05 0.00022022 7.00887e-07
-1.71569e-07 7.00887e-07 0.000145286
0.000778635 -1.98812e-05 -1.16004e-06
-1.98812e-05 8.16242e-05 9.96296e-07
-1.16004e-06 9.96296e-07 -1.48789e-05
0.000563111 -1.42153e-05 -5.63856e-07
-1.42153e-05 -6.24199e-05 1.41293e-06
-5.63856e-07 1.41293e-06 -0.00012402
0.00190061 -7.91279e-05 -9.60807e-07
-7.91279e-05 7.72117e-05 -1.79621e-07
-9.60807e-07 -1.79621e-07 2.17044e-05
0.000637845 2.50996e-05 7.28871e-08
2.50996e-05 -1.1023e-05 -8.3951e-07
7.28871e-08 -8.3951e-07 -7.54138e-05
0.000760568 -5.07427e-05 -1.62029e-07
-5.07427e-05 5.86607e-05 1.30157e-07
-1.62029e-07 1.30157e-07 -1.19205e-05
0.000825798 -2.66e-05 -5.90396e-07
-2.66e-05 0.000110049 7.32692e-07
-5.90396e-07 7.32692e-07 2.16437e-05
0.00177298 -0.00012162 7.06826e-07
-0.00012162 1.87268e-05 -4.29646e-07
7.06826e-07 -4.29646e-07 -3.59293e-05
0.00183069 -0.000234236 -1.1065e-06
-0.000234236 2.96533e-05 -3.19517e-07
-1.1065e-06 -3.19517e-07 -4.31904e-05
0.000900838 -0.000137213 2.3226e-06
-0.000137213 7.74693e-05 -1.13953e-07
2.3226e-06 -1.13953e-07 -7.33443e-05
0.00133019 -0.000253346 2.44658e-06
-0.000253346 0.000168315 -1.64776e-07
2.44658e-06 -1.64776e-07 -7.60888e-05
0.00171666 -0.000288423 1.06967e-07
-0.000288423 9.11535e-05 4.73966e-07
1.06967e-07 4.73966e-07 -3.89799e-05
0.000686503 -6.99926e-06 -2.4024e-07
-6.99926e-06 3.49775e-05 1.89903e-08
-2.4024e-07 1.89903e-08 -6.32526e-05
0.00091645 -5.12929e-05 -2.68192e-07
-5.12929e-05 0.000158139 1.43337e-07
-2.68192e-07 1.43337e-07 5.55785e-05
0.000575718 -0.000148877 -5.99086e-06
-0.000148877 -8.50119e-05 1.23345e-06
-5.99086e-06 1.23345e-06 -0.000206794
0.000823604 -8.04637e-05 6.66095e-07
-8.04637e-05 0.000154666 -2.48434e-07
6.66095e-07 -2.48434e-07 2.05003e-06
0.000720101 -6.10589e-05 -5.0258e-07
-6.10589e-05 4.35344e-05 2.78327e-07
-5.0258e-07 2.78327e-07 -7.20573e-05
0.0021292 -0.000147148 -5.81821e-06
-0.000147148 0.000158242 5.91052e-07
-5.81821e-06 5.91052e-07 0.00012262
0.00192463 -0.000149557 -2.24975e-06
-0.000149557 7.34292e-05 1.50581e-06
-2.24975e-06 1.50581e-06 2.86199e-05
0.00215533 -0.000324539 -9.23216e-07
-0.000324539 0.000206643 -7.26144e-07
-9.23216e-07 -7.26144e-07 0.000107983
0.00244519 -0.000350747 -1.30251e-05
-0.000350747 0.000633446 1.35828e-06
-1.30251e-05 1.35828e-06 0.000450015
0.000893218 -0.000138571 -6.91629e-06
-0.000138571 0.00011209 -2.2763e-06
-6.91629e-06 -2.2763e-06 -7.27988e-05
0.000543641 1.66363e-05 6.66701e-07
1.66363e-05 -5.28002e-05 -1.61411e-06
6.66701e-07 -1.61411e-06 -0.000137457
0.000553819 5.00709e-05 1.36862e-07
5.00709e-05 -4.44935e-05 -9.95002e-07
1.36862e-07 -9.95002e-07 -0.000136354
0.000848801 1.23714e-05 7.83405e-07
1.23714e-05 0.000129424 -5.52141e-08
7.83405e-07 -5.52141e-08 3.04682e-05
0.000898357 -8.76658e-05 1.65591e-06
-8.76658e-05 0.00015718 -2.66105e-07
1.65591e-06 -2.66105e-07 4.84035e-05
0.00067987 -2.73347e-05 6.94707e-07
-2.73347e-05 1.99829e-05 4.75015e-07
6.94707e-07 4.75015e-07 -8.18522e-05
0.000621232 -2.93378e-05 2.14569e-06
-2.93378e-05 2.48107e-05 -2.42946e-07
2.14569e-06 -2.42946e-07 -0.000114174
0.000803473 -0.000136204 8.06044e-06
-0.000136204 0.000165669 1.2597e-06
8.06044e-06 1.2597e-06 -3.61435e-05
0.000738919 4.99246e-05 9.43265e-07
4.99246e-05 6.4223e-05 -1.85726e-06
9.43265e-07 -1.85726e-06 -2.69415e-05
0.000581894 5.76895e-05 1.41393e-06
5.76895e-05 -1.00499e-05 1.7945e-07
1.41393e-06 1.7945e-07 -0.000131768
0.00189756 0.000119352 2.14371e-06
0.000119352 5.55161e-05 -4.04038e-07
2.14371e-06 -4.04038e-07 8.90993e-06
0.00170361 0.000188563 4.12472e-06
0.000188563 -3.34505e-05 -2.96244e-07
4.12472e-06 -2.96244e-07 -0.000111154
0.00199312 0.000290457 5.0866e-06
0.000290457 0.000223106 7.69533e-07
5.0866e-06 7.69533e-07 7.61605e-05
0.000537035 0.000130789 2.07045e-06
0.000130789 -7.76277e-05 -9.62522e-07
2.07045e-06 -9.62522e-07 -0.000269671
0.00223208 0.00030834 3.58112e-06
0.00030834 0.000609133 1.19439e-06
3.58112e-06 1.19439e-06 0.000384997
0.00102882 3.59028e-05 -2.23817e-07
3.59028e-05 0.000227938 4.85626e-07
-2.23817e-07 4.85626e-07 0.000126566
0.00194218 0.000127233 -1.63222e-06
0.000127233 9.65715e-05 -1.17683e-07
-1.63222e-06 -1.17683e-07 7.43932e-05
0.00133827 0.000160732 -1.1105e-06
0.000160732 0.00039438 -4.64226e-07
-1.1105e-06 -4.64226e-07 0.000247017
0.00173121 0.000233978 -8.41129e-07
0.000233978 0.000532391 1.43862e-06
-8.41129e-07 1.43862e-06 0.000317597
0.00196904 0.000284258 5.53024e-07
0.000284258 0.000116821 -1.58883e-06
5.53024e-07 -1.58883e-06 2.30492e-05
0.00151147 0.000283325 -9.78551e-07
0.000283325 0.00013335 1.99361e-06
-9.78551e-07 1.99361e-06 -6.9774e-05
0.00128187 0.000176047 1.75335e-05
0.000176047 -0.000235898 1.08526e-06
1.75335e-05 1.08526e-06 -0.000462431
0.00113206 7.63281e-05 -2.85229e-06
7.63281e-05 0.000284481 -1.68394e-06
-2.85229e-06 -1.68394e-06 0.000168391
0.00244335 0.000204898 -2.52659e-05
0.000204898 0.000382668 -1.21031e-05
-2.52659e-05 -1.21031e-05 0.000384573
0.0013353 0.000189434 -5.99904e-06
0.000189434 0.000389773 -1.8915e-06
-5.99904e-06 -1.8915e-06 0.000227061
0.00129165 0.000229913 -6.18263e-06
0.000229913 0.000213409 -1.11412e-07
-6.18263e-06 -1.11412e-07 -1.31033e-05
0.000537666 0.000297012 -9.39758e-06
0.000297012 -0.000518919 -3.46762e-06
-9.39758e-06 -3.46762e-06 -0.00068375
0.00836746 0.000114476 -0.00010106
0.000114476 0.00249804 -4.10436e-05
-0.00010106 -4.10436e-05 0.00157843
0.00403173 0.000360186 0.0001021
0.000360186 0.00059521 -3.88747e-06
0.0001021 -3.88747e-06 -7.98675e-05
0.000596836 0.000271789 1.17965e-05
0.000271789 -0.000375795 1.75228e-05
1.17965e-05 1.75228e-05 -0.000497249
-0.00365424 -0.000365774 0.000104242
-0.000365774 -0.00134804 -1.11834e-05
0.000104242 -1.11834e-05 -0.00172763
0.00398547 -0.000920098 -1.92924e-05
-0.000920098 0.000529154 -7.46587e-06
-1.92924e-05 -7.46587e-06 0.00197444
0.000802628 -1.08422e-05 5.84659e-07
-1.08422e-05 9.20432e-05 -9.38375e-08
5.84659e-07 -9.38375e-08 1.00849e-05
0.000919694 -2.13054e-05 9.95871e-07
-2.13054e-05 0.000152258 -3.04066e-07
9.95871e-07 -3.04066e-07 6.64383e-05
0.000910051 3.04272e-05 -8.62072e-07
3.04272e-05 0.000145213 -2.44831e-06
-8.62072e-07 -2.44831e-06 5.91835e-05
0.000732639 -5.40951e-05 6.50467e-08
-5.40951e-05 3.6654e-05 -8.37069e-07
6.50467e-08 -8.37069e-07 -3.11684e-05
0.00069361 4.84185e-05 -1.02447e-06
4.84185e-05 1.30355e-05 -1.20749e-07
-1.02447e-06 -1.20749e-07 -6.34592e-05
0.000841732 -3.97778e-05 -1.68791e-07
-3.97778e-05 9.92507e-05 2.6731e-07
-1.68791e-07 2.6731e-07 1.98865e-05
0.000906456 -1.38426e-05 -1.06374e-06
-1.38426e-05 0.000131225 8.97103e-07
-1.06374e-06 8.97103e-07 5.24695e-05
0.000813827 -3.72107e-05 -7.97632e-08
-3.72107e-05 8.04632e-05 -7.06085e-08
-7.97632e-08 -7.06085e-08 -1.09399e-06
0.000791863 4.57317e-05 -8.02704e-07
4.57317e-05 7.01618e-05 -2.82524e-07
-8.02704e-07 -2.82524e-07 -1.24552e-05
0.000683309 -5.44787e-06 -4.89135e-08
-5.44787e-06 -5.785e-07 5.61283e-07
-4.89135e-08 5.61283e-07 -6.43981e-05
0.000775872 2.27243e-05 -2.02293e-07
2.27243e-05 6.11987e-05 -3.08726e-08
-2.02293e-07 -3.08726e-08 -2.15543e-05
0.000842581 -2.71819e-05 1.22684e-08
-2.71819e-05 8.73114e-05 5.48169e-07
1.22684e-08 5.48169e-07 9.09195e-06
0.000845434 -6.12423e-07 -2.49136e-07
-6.12423e-07 9.10971e-05 -1.61541e-07
-2.49136e-07 -1.61541e-07 1.21859e-05
0.000813088 3.35837e-05 3.21557e-08
3.35837e-05 7.01845e-05 -1.04074e-06
3.21557e-08 -1.04074e-06 -8.74823e-06
0.000696118 1.36844e-07 6.89374e-07
1.36844e-07 2.21996e-06 -2.16748e-06
6.89374e-07 -2.16748e-06 -7.16746e-05
0.000872436 3.83272e-05 1.41609e-06
3.83272e-05 0.000103309 -9.96456e-08
1.41609e-06 -9.96456e-08 2.25643e-05
0.000716768 -2.16404e-06 1.12296e-06
-2.16404e-06 1.78982e-05 -2.78559e-07
1.12296e-06 -2.78559e-07 -6.22571e-05
0.000628026 -4.44728e-05 -1.20025e-06
-4.44728e-05 -3.04892e-05 1.12987e-06
-1.20025e-06 1.12987e-06 -9.66137e-05
0.000853589 1.42418e-05 -4.95162e-07
1.42418e-05 0.000104154 -2.94726e-07
-4.95162e-07 -2.94726e-07 2.22383e-05
0.000885119 5.60869e-05 1.21423e-07
5.60869e-05 0.000122051 -1.44834e-06
1.21423e-07 -1.44834e-06 3.90167e-05
0.000741304 3.33133e-06 -7.132e-07
3.33133e-06 5.20376e-05 -3.31908e-07
-7.132e-07 -3.31908e-07 -2.72896e-05
0.000847229 5.87357e-06 7.5746e-07
5.87357e-06 0.00010722 -4.16694e-07
7.5746e-07 -4.16694e-07 2.60323e-05
0.000750927 -4.23298e-05 -1.54223e-06
-4.23298e-05 3.91485e-05 5.5748e-07
-1.54223e-06 5.5748e-07 -2.36856e-05
0.000624383 4.60191e-06 1.32709e-07
4.60191e-06 -3.06759e-05 5.79651e-07
1.32709e-07 5.79651e-07 -9.72654e-05
0.000716165 1.06559e-05 -4.2622e-07
1.06559e-05 4.56052e-06 1.54706e-06
-4.2622e-07 1.54706e-06 -3.50605e-05
0.000704088 7.69668e-07 6.91508e-08
7.69668e-07 -1.45563e-06 -1.03889e-08
6.91508e-08 -1.03889e-08 -4.07549e-05
0.000687648 7.13469e-06 -3.75562e-07
7.13469e-06 -2.77196e-05 4.90844e-06
-3.75562e-07 4.90844e-06 -3.63427e-05
0.000705271 4.20445e-07 1.6943e-07
4.20445e-07 -1.40499e-06 -1.52115e-06
1.6943e-07 -1.52115e-06 -4.02442e-05
0.000672183 1.40318e-06 2.45002e-07
1.40318e-06 -3.78634e-05 -5.79669e-09
2.45002e-07 -5.79669e-09 -4.5907e-05
0.00221309 -1.03584e-06 1.92206e-07
-1.03584e-06 0.000838385 4.7194e-06
1.92206e-07 4.7194e-06 0.000857688
0.000696658 -4.44344e-06 -4.86889e-07
-4.44344e-06 -2.35728e-05 -4.93141e-06
-4.86889e-07 -4.93141e-06 -3.14608e-05
0.00154892 -7.94126e-06 -3.4566e-07
-7.94126e-06 0.000462037 4.0169e-08
-3.4566e-07 4.0169e-08 0.000477896
0.000846308 -1.29542e-05 -3.75165e-07
-1.29542e-05 6.50853e-05 -1.80305e-06
-3.75165e-07 -1.80305e-06 7.78124e-05
0.000712797 1.05292e-05 -2.6463e-07
1.05292e-05 4.64527e-06 -1.80225e-06
-2.6463e-07 -1.80225e-06 -2.88084e-05
0.000717824 2.25758e-06 1.38165e-07
2.25758e-06 7.30855e-06 3.04821e-08
1.38165e-07 3.04821e-08 -2.76254e-05
0.000680217 1.2675e-05 1.11757e-07
1.2675e-05 -3.13554e-05 -3.47961e-06
1.11757e-07 -3.47961e-06 -3.69222e-05
0.000723995 -2.53684e-06 -1.10073e-06
-2.53684e-06 1.05811e-05 1.95822e-06
-1.10073e-06 1.95822e-06 -2.65096e-05
0.000974815 2.15206e-05 -2.08479e-07
2.15206e-05 0.000138592 -7.25156e-07
-2.08479e-07 -7.25156e-07 0.000133027
0.00212317 2.9761e-05 1.27563e-05
2.9761e-05 0.000794377 -4.41849e-06
1.27563e-05 -4.41849e-06 0.000813049
0.000670494 2.61906e-05 -5.31215e-07
2.61906e-05 -2.89188e-05 3.76986e-06
-5.31215e-07 3.76986e-06 -3.91572e-05
0.0022459 4.08644e-05 -7.53774e-06
4.08644e-05 0.000870266 1.19318e-06
-7.53774e-06 1.19318e-06 0.000886613
0.00230752 5.31336e-05 -2.25354e-05
5.31336e-05 0.000911393 4.17845e-06
-2.25354e-05 4.17845e-06 0.00092531
0.00173019 8.19069e-05 -5.77377e-07
8.19069e-05 7.63736e-06 -5.79894e-07
-5.77377e-07 -5.79894e-07 -5.45787e-05
0.00173462 1.29341e-05 1.09858e-06
1.29341e-05 3.17485e-05 -3.80648e-07
1.09858e-06 -3.80648e-07 -4.82587e-05
0.00177325 5.88867e-05 6.21824e-06
5.88867e-05 3.65404e-06 4.26853e-07
6.21824e-06 4.26853e-07 -2.64801e-05
0.0020905 8.03199e-05 1.79467e-05
8.03199e-05 -4.28504e-05 3.22726e-06
1.79467e-05 3.22726e-06 -0.000105187
0.00176452 1.28588e-05 -1.76118e-06
1.28588e-05 6.64277e-06 -1.26171e-07
-1.76118e-06 -1.26171e-07 -3.8443e-05
0.00185533 4.27397e-05 2.98416e-06
4.27397e-05 0.000126782 1.01153e-06
2.98416e-06 1.01153e-06 0.000120282
0.00256795 -1.74046e-06 -1.42238e-05
-1.74046e-06 0.000511978 -5.96614e-07
-1.42238e-05 -5.96614e-07 0.000471964
0.00299363 1.23382e-05 0.000138128
1.23382e-05 0.000174176 -9.06994e-06
0.000138128 -9.06994e-06 -0.000111758
0.00201831 -4.44661e-06 -1.33278e-05
-4.44661e-06 4.02087e-05 -5.4747e-06
-1.33278e-05 -5.4747e-06 -2.08306e-05
0.000751093 4.95763e-05 -6.20565e-07
4.95763e-05 5.00249e-05 -1.12016e-06
-6.20565e-07 -1.12016e-06 -9.06033e-06
0.000754343 -1.08797e-05 6.66773e-07
-1.08797e-05 5.37938e-05 -5.89005e-08
6.66773e-07 -5.89005e-08 -7.75426e-06
0.000722572 -6.34669e-05 3.43382e-08
-6.34669e-05 4.28911e-05 -5.2026e-07
3.43382e-08 -5.2026e-07 -3.28155e-05
0.000747556 -2.37174e-05 -1.16595e-06
-2.37174e-05 6.59166e-05 -1.51837e-07
-1.16595e-06 -1.51837e-07 -1.56971e-05
0.00190844 -8.58714e-05 1.5053e-06
-8.58714e-05 7.43476e-05 -1.14794e-07
1.5053e-06 -1.14794e-07 2.18211e-05
0.00178953 -0.000131258 -1.47762e-06
-0.000131258 1.71502e-05 2.16616e-07
-1.47762e-06 2.16616e-07 -3.74005e-05
0.00181894 -0.000232089 -5.64536e-06
-0.000232089 3.56747e-05 1.02055e-06
-5.64536e-06 1.02055e-06 -4.2878e-05
0.00115464 -0.000184817 3.64053e-06
-0.000184817 0.000208425 2.99634e-06
3.64053e-06 2.99634e-06 5.95394e-05
-4.82858e-05 -0.000156533 5.07859e-06
-0.000156533 -0.000549622 -1.00107e-06
5.07859e-06 -1.00107e-06 -0.000790386
0.00186614 -0.000303755 6.27252e-07
-0.000303755 0.000179066 -2.57338e-06
6.27252e-07 -2.57338e-06 4.46652e-05
0.000530718 -0.000134127 -6.56551e-06
-0.000134127 -9.81199e-05 5.28424e-07
-6.56551e-06 5.28424e-07 -0.000231893
0.00112707 -8.18012e-05 -9.6706e-07
-8.18012e-05 0.000306472 -1.7408e-06
-9.6706e-07 -1.7408e-06 0.000165464
0.000812794 -8.5574e-05 -2.07267e-06
-8.5574e-05 9.46705e-05 8.85016e-07
-2.07267e-06 8.85016e-07 -2.13353e-05
0.000769686 -2.44575e-05 -1.00991e-06
-2.44575e-05 5.97741e-05 1.59502e-06
-1.00991e-06 1.59502e-06 -8.19627e-06
0.000784101 -6.36817e-05 -8.56853e-07
-6.36817e-05 9.06662e-05 2.01508e-07
-8.56853e-07 2.01508e-07 -1.75969e-05
0.000810378 -1.17545e-05 -1.17473e-06
-1.17545e-05 0.000101919 1.00579e-06
-1.17473e-06 1.00579e-06 6.01521e-06
0.000747753 -1.08203e-07 1.47329e-07
-1.08203e-07 5.35512e-05 7.09165e-07
1.47329e-07 7.09165e-07 -1.15218e-05
0.000684907 1.8217e-05 -4.64852e-07
1.8217e-05 3.30893e-05 2.04079e-06
-4.64852e-07 2.04079e-06 -5.83933e-05
0.00198635 -0.000128867 6.22544e-07
-0.000128867 0.000109187 3.67719e-07
6.22544e-07 3.67719e-07 7.02344e-05
0.000750859 6.43966e-06 7.06745e-07
6.43966e-06 6.63737e-05 -5.47463e-07
7.06745e-07 -5.47463e-07 -1.81434e-05
0.000689944 1.38778e-05 6.72762e-07
1.38778e-05 3.41956e-05 -1.32093e-07
6.72762e-07 -1.32093e-07 -5.8759e-05
0.000751208 6.30166e-05 -1.52441e-07
6.30166e-05 7.86371e-05 1.1896e-06
-1.52441e-07 1.1896e-06 -2.02528e-05
0.00191889 -0.000151609 -2.55678e-06
-0.000151609 5.4676e-05 6.06581e-07
-2.55678e-06 6.06581e-07 6.51122e-06
0.00194444 -0.000307302 1.06305e-06
-0.000307302 0.000101026 -6.31367e-07
1.06305e-06 -6.31367e-07 7.61893e-06
0.00106091 -0.000187924 -9.92052e-07
-0.000187924 0.000188488 -1.78142e-07
-9.92052e-07 -1.78142e-07 1.02584e-06
0.00238704 -0.000349066 -1.84584e-06
-0.000349066 0.000598986 8.64478e-07
-1.84584e-06 8.64478e-07 0.000412315
0.000951814 -3.59332e-05 -3.9221e-07
-3.59332e-05 0.000182042 6.79636e-08
-3.9221e-07 6.79636e-08 7.63917e-05
0.000719406 -4.62069e-05 -4.12655e-07
-4.62069e-05 4.62837e-05 9.20374e-07
-4.12655e-07 9.20374e-07 -6.01878e-05
0.000855318 -0.000141407 3.43084e-06
-0.000141407 0.000186023 -9.21257e-07
3.43084e-06 -9.21257e-07 -9.60224e-06
0.00101765 -8.59442e-05 9.38248e-07
-8.59442e-05 0.000246627 -6.25826e-07
9.38248e-07 -6.25826e-07 9.65239e-05
0.00227706 -0.000108653 -9.9953e-06
-0.000108653 0.000243287 4.66942e-06
-9.9953e-06 4.66942e-06 0.000195731
0.00221535 -0.000265653 -7.93222e-06
-0.000265653 0.000151731 -3.94557e-08
-7.93222e-06 -3.94557e-08 0.000150652
0.00235251 -0.000359433 -7.09771e-06
-0.000359433 0.000448586 -3.80055e-06
-7.09771e-06 -3.80055e-06 0.000301727
0.0014593 -0.000273426 -2.19478e-06
-0.000273426 0.000361721 5.02656e-07
-2.19478e-06 5.02656e-07 0.000172281
0.000698838 2.44699e-05 -5.21983e-07
2.44699e-05 5.08416e-05 -1.18517e-06
-5.21983e-07 -1.18517e-06 -5.5673e-05
0.000711619 -5.22439e-05 6.68345e-07
-5.22439e-05 5.76327e-05 -1.71871e-06
6.68345e-07 -1.71871e-06 -5.22968e-05
0.000717155 -4.35538e-05 7.44733e-07
-4.35538e-05 6.16972e-05 -3.11907e-07
7.44733e-07 -3.11907e-07 -5.16824e-05
0.000623647 -1.801e-05 2.69834e-07
-1.801e-05 8.76622e-05 6.03897e-07
2.69834e-07 6.03897e-07 -0.000135412
0.000289259 -0.000140008 2.36207e-05
-0.000140008 -0.00184189 7.74835e-07
2.36207e-05 7.74835e-07 -0.0023543
0.00100998 2.119e-05 1.30153e-06
2.119e-05 0.000214725 -1.36017e-06
1.30153e-06 -1.36017e-06 0.000119784
0.000491921 0.00010053 3.24639e-06
0.00010053 -6.66564e-05 1.57686e-06
3.24639e-06 1.57686e-06 -0.000204003
0.00167719 0.000117177 1.81821e-05
0.000117177 -4.81172e-05 1.69131e-06
1.81821e-05 1.69131e-06 -6.26373e-05
0.00211232 0.000282391 5.77055e-06
0.000282391 0.000193348 5.26274e-07
5.77055e-06 5.26274e-07 0.000101225
0.00144339 0.000283425 5.98083e-06
0.000283425 9.59715e-05 2.58311e-06
5.98083e-06 2.58311e-06 -0.000113559
0.000707952 0.000159121 4.9742e-06
0.000159121 -9.07306e-08 1.31699e-06
4.9742e-06 1.31699e-06 -0.000217496
0.00232063 0.000220408 2.28995e-05
0.000220408 9.37998e-05 4.41506e-06
2.28995e-05 4.41506e-06 -0.000192848
0.000983367 6.37117e-05 9.01338e-07
6.37117e-05 0.000209643 -6.24488e-07
9.01338e-07 -6.24488e-07 9.49529e-05
0.00229399 0.000202427 -7.24146e-06
0.000202427 0.000305189 -1.83404e-06
-7.24146e-06 -1.83404e-06 0.000315552
0.00105366 0.00016863 6.30271e-07
0.00016863 0.000241264 -3.73336e-07
6.30271e-07 -3.73336e-07 8.22539e-05
0.00115294 0.000227528 -3.17487e-07
0.000227528 0.00014691 1.66399e-07
-3.17487e-07 1.66399e-07 -8.16412e-05
0.00138261 0.000346899 -2.43275e-06
0.000346899 -0.000101287 -1.56138e-06
-2.43275e-06 -1.56138e-06 -0.000259049
0.00288067 -0.000139349 -6.60643e-05
-0.000139349 -0.000282769 -2.13171e-05
-6.60643e-05 -2.13171e-05 -0.00116385
0.00401637 0.000276097 4.23921e-06
0.000276097 0.000389629 -1.54265e-05
4.23921e-06 -1.54265e-05 -0.000370596
0.000248046 0.000214177 4.50791e-06
0.000214177 -0.000519069 6.37193e-06
4.50791e-06 6.37193e-06 -0.000658006
-0.00102397 -0.000276761 6.56484e-05
-0.000276761 0.000197679 2.16056e-05
6.56484e-05 2.16056e-05 -0.000429999
-0.000549224 -0.000915106 -1.50076e-05
-0.000915106 -0.00142848 -3.15695e-05
-1.50076e-05 -3.15695e-05 0.000202682
0.00120265 0.000123398 -3.69268e-06
0.000123398 0.000340133 -3.77814e-06
-3.69268e-06 -3.77814e-06 0.000225409
0.000493818 0.000192142 -3.92952e-06
0.000192142 0.000842219 -2.9223e-05
-3.92952e-06 -2.9223e-05 0.000222147
0.00122582 -0.000377607 -6.33809e-05
-0.000377607 0.0010281 -7.0598e-05
-6.33809e-05 -7.0598e-05 0.0008186
0.00255231 0.00029838 -2.41386e-05
0.00029838 0.000500947 -6.83607e-06
-2.41386e-05 -6.83607e-06 0.000515509
0.00114586 0.000113535 -1.12738e-05
0.000113535 0.000291266 -2.74674e-06
-1.12738e-05 -2.74674e-06 0.000119938
0.00112169 0.000347188 -1.80308e-05
0.000347188 5.93356e-05 -9.41902e-06
-1.80308e-05 -9.41902e-06 -0.000182694
-0.00021538 0.000264803 1.62454e-05
0.000264803 -0.000769907 5.04279e-05
1.62454e-05 5.04279e-05 -0.000803249
0.00779836 0.00012006 -4.0659e-05
0.00012006 0.00261328 -2.2849e-05
-4.0659e-05 -2.2849e-05 0.00119765
0.00380818 0.000541775 -5.64993e-06
0.000541775 0.000773073 1.26046e-05
-5.64993e-06 1.26046e-05 -0.000407537
0.00056947 -0.000742717 5.09168e-05
-0.000742717 -0.000395764 3.87228e-05
5.09168e-05 3.87228e-05 3.8162e-05
0.00156372 -0.000504146 -1.42268e-05
-0.000504146 -0.00166546 6.7589e-05
-1.42268e-05 6.7589e-05 -0.000394906
0.000837059 -2.77174e-05 1.58634e-06
-2.77174e-05 0.000111836 -4.94253e-07
1.58634e-06 -4.94253e-07 2.66949e-05
0.000904922 2.73609e-05 4.24427e-07
2.73609e-05 0.000144409 2.99557e-07
4.24427e-07 2.99557e-07 5.84175e-05
0.00114301 7.19881e-05 -2.00358e-06
7.19881e-05 0.000278428 -3.50724e-06
-2.00358e-06 -3.50724e-06 0.00020967
0.000735376 4.07321e-06 4.5116e-09
4.07321e-06 4.02789e-05 -4.16025e-08
4.5116e-09 -4.16025e-08 -3.0228e-05
0.00080178 2.20166e-05 -5.5546e-07
2.20166e-05 7.43318e-05 -2.80713e-07
-5.5546e-07 -2.80713e-07 -7.04719e-06
0.00070687 -2.93754e-05 -6.92263e-07
-2.93754e-05 1.576e-05 1.70661e-07
-6.92263e-07 1.70661e-07 -6.17644e-05
0.000874338 7.69221e-08 -3.09586e-07
7.69221e-08 0.000106707 6.99728e-07
-3.09586e-07 6.99728e-07 2.86294e-05
0.000849638 -2.55911e-05 -3.23605e-07
-2.55911e-05 9.12299e-05 1.48652e-06
-3.23605e-07 1.48652e-06 1.30749e-05
0.000625484 -1.19334e-06 4.99114e-07
-1.19334e-06 -2.95392e-05 5.69885e-07
4.99114e-07 5.69885e-07 -9.72871e-05
0.000829639 1.82408e-06 -8.73791e-08
1.82408e-06 7.91264e-05 -1.11507e-07
-8.73791e-08 -1.11507e-07 4.05788e-07
0.0008747 2.18214e-06 4.00388e-08
2.18214e-06 0.000106326 3.06442e-07
4.00388e-08 3.06442e-07 2.52712e-05
0.000797988 2.07148e-05 5.7633e-07
2.07148e-05 7.30789e-05 -2.6389e-07
5.7633e-07 -2.6389e-07 -1.24175e-05
0.0007369 3.00926e-06 1.14932e-08
3.00926e-06 2.42656e-05 -4.50225e-08
1.14932e-08 -4.50225e-08 -4.8844e-05
0.000900569 -2.42995e-06 4.50307e-07
-2.42995e-06 0.0001117 -1.16477e-06
4.50307e-07 -1.16477e-06 3.4787e-05
0.000667172 2.93828e-05 -1.26141e-06
2.93828e-05 -1.77307e-05 -5.41797e-06
-1.26141e-06 -5.41797e-06 -8.8301e-05
0.000861594 -6.34478e-05 2.26456e-07
-6.34478e-05 9.61549e-05 -6.20502e-07
2.26456e-07 -6.20502e-07 1.08409e-05
0.000857205 -4.99244e-05 -4.97672e-07
-4.99244e-05 0.00010923 -6.74099e-07
-4.97672e-07 -6.74099e-07 2.20558e-05
0.000860044 -1.35497e-05 -4.71706e-07
-1.35497e-05 0.000110674 -2.28385e-07
-4.71706e-07 -2.28385e-07 2.63422e-05
0.000886533 4.01367e-05 -5.16698e-07
4.01367e-05 0.000117937 -2.9088e-07
-5.16698e-07 -2.9088e-07 3.78047e-05
0.00084483 1.95264e-05 -6.82637e-07
1.95264e-05 0.000103155 -1.35967e-06
-6.82637e-07 -1.35967e-06 1.06915e-05
0.000805295 4.51968e-05 5.48025e-07
4.51968e-05 8.05526e-05 -9.32711e-07
5.48025e-07 -9.32711e-07 -9.03191e-08
0.000702349 2.85049e-05 4.85898e-07
2.85049e-05 8.6184e-06 -1.47787e-06
4.85898e-07 -1.47787e-06 -6.55431e-05
0.000702784 5.15498e-05 1.79086e-06
5.15498e-05 3.50927e-05 7.77551e-07
1.79086e-06 7.77551e-07 -4.87289e-05
0.00074257 4.2817e-06 -5.07309e-08
4.2817e-06 4.34904e-05 -2.54381e-07
-5.07309e-08 -2.54381e-07 -2.67666e-05
0.000765185 -6.8136e-06 -1.57399e-07
-6.8136e-06 6.20981e-05 1.32956e-08
-1.57399e-07 1.32956e-08 -1.51312e-05
0.000743775 -5.44202e-06 -1.18391e-06
-5.44202e-06 3.04301e-05 3.66635e-07
-1.18391e-06 3.66635e-07 -2.77603e-05
0.000788792 3.51834e-06 8.88577e-07
3.51834e-06 6.32431e-05 -1.39068e-07
8.88577e-07 -1.39068e-07 -1.1634e-05
0.000715562 -3.73545e-05 -2.87891e-08
-3.73545e-05 1.8578e-05 5.32242e-08
-2.87891e-08 5.32242e-08 -4.4566e-05
0.000730329 1.22201e-05 -8.34467e-07
1.22201e-05 1.11169e-05 1.57958e-06
-8.34467e-07 1.57958e-06 -2.84295e-05
0.000630657 3.81761e-06 6.09459e-07
3.81761e-06 -2.25791e-05 -3.83724e-08
6.09459e-07 -3.83724e-08 -9.22703e-05
0.000715796 8.17733e-06 1.4393e-07
8.17733e-06 4.13791e-06 -1.87618e-08
1.4393e-07 -1.87618e-08 -3.54237e-05
0.00135397 1.61534e-05 -2.90717e-06
1.61534e-05 0.00035217 4.81084e-06
-2.90717e-06 4.81084e-06 0.000346672
0.000703598 5.31456e-06 3.57659e-07
5.31456e-06 -1.79187e-06 -1.47759e-06
3.57659e-07 -1.47759e-06 -4.10614e-05
0.00101566 8.62723e-06 -1.49071e-06
8.62723e-06 0.00015819 7.33428e-07
-1.49071e-06 7.33428e-07 0.000151414
0.000901386 3.8688e-06 -3.30459e-06
3.8688e-06 9.52786e-05 4.57915e-06
-3.30459e-06 4.57915e-06 0.00010731
0.00067852 1.63653e-06 4.21962e-08
1.63653e-06 -3.4249e-05 -3.39037e-06
4.21962e-08 -3.39037e-06 -4.23339e-05
0.00221767 -2.57153e-09 3.2092e-06
-2.57153e-09 0.000841021 -1.07323e-09
3.2092e-06 -1.07323e-09 0.00086028
0.000911901 -3.78027e-06 -3.06862e-06
-3.78027e-06 0.000100983 -4.59042e-06
-3.06862e-06 -4.59042e-06 0.000113436
0.000756598 6.18838e-05 8.92338e-07
6.18838e-05 5.86383e-05 -3.72847e-07
8.92338e-07 -3.72847e-07 -5.50021e-06
0.000722433 8.07331e-06 -2.62168e-07
8.07331e-06 9.38543e-06 -1.78958e-06
-2.62168e-07 -1.78958e-06 -2.35914e-05
0.000714589 3.40029e-06 1.89651e-07
3.40029e-06 5.49844e-06 1.10355e-08
1.89651e-07 1.10355e-08 -2.79571e-05
0.000680318 6.38118e-06 -7.76304e-08
6.38118e-06 -3.31742e-05 -3.43931e-06
-7.76304e-08 -3.43931e-06 -3.76902e-05
0.00072384 -3.93992e-06 -6.0321e-07
-3.93992e-06 1.04631e-05 1.88597e-06
-6.0321e-07 1.88597e-06 -2.45047e-05
0.000671184 1.27649e-05 -3.30328e-09
1.27649e-05 -3.69093e-05 -7.32603e-07
-3.30328e-09 -7.32603e-07 -4.23547e-05
0.00208986 1.94557e-05 8.47415e-06
1.94557e-05 0.000771789 -4.52514e-06
8.47415e-06 -4.52514e-06 0.000791722
0.00128662 2.62191e-05 -9.9527e-07
2.62191e-05 0.000315515 2.13046e-06
-9.9527e-07 2.13046e-06 0.000311282
0.00153972 2.54227e-05 3.84547e-07
2.54227e-05 0.000464723 1.43755e-06
3.84547e-07 1.43755e-06 0.000479527
0.000966541 2.81586e-05 -1.68377e-05
2.81586e-05 0.000145505 7.31472e-06
-1.68377e-05 7.31472e-06 0.000154899
0.000932011 5.29587e-05 3.41071e-05
5.29587e-05 -0.00058628 1.22104e-05
3.41071e-05 1.22104e-05 -0.000681465
0.00180958 9.75291e-06 2.90481e-06
9.75291e-06 2.74928e-05 4.10532e-07
2.90481e-06 4.10532e-07 -1.64436e-05
0.00197637 4.43238e-05 2.00377e-05
4.43238e-05 0.000202766 4.3411e-07
2.00377e-05 4.3411e-07 0.000190392
0.000815218 3.5387e-05 1.42139e-05
3.5387e-05 -0.0006871 -4.40255e-06
1.42139e-05 -4.40255e-06 -0.00100229
0.00176143 3.917e-06 5.01103e-06
3.917e-06 -6.68695e-05 1.08085e-06
5.01103e-06 1.08085e-06 -9.96025e-05
0.00208511 -1.10926e-05 -1.88703e-06
-1.10926e-05 0.000186189 -5.28106e-07
-1.88703e-06 -5.28106e-07 0.000150875
0.00289212 -2.66048e-05 -4.61558e-05
-2.66048e-05 0.000546116 4.66921e-06
-4.61558e-05 4.66921e-06 0.000529298
0.00249473 -0.000104317 0.000143662
-0.000104317 0.000152066 -1.04213e-05
0.000143662 -1.04213e-05 -0.000102801
0.00781046 -0.000157167 -1.6734e-05
-0.000157167 0.00218608 1.12053e-05
-1.6734e-05 1.12053e-05 0.0011532
0.00524426 0.000833439 9.28771e-05
0.000833439 0.00258103 -3.55278e-05
9.28771e-05 -3.55278e-05 0.00275637
0.00232717 0.000816391 -8.39425e-06
0.000816391 0.00109441 1.68461e-05
-8.39425e-06 1.68461e-05 0.00211391
0.000514867 -6.374e-05 1.61727e-06
-6.374e-05 -7.02948e-05 -1.27638e-06
1.61727e-06 -1.27638e-06 -0.000147834
0.000753495 -9.00807e-06 7.88977e-07
-9.00807e-06 5.29952e-05 -5.54435e-08
7.88977e-07 -5.54435e-08 -7.34076e-06
0.00075353 -6.53248e-05 -1.17797e-06
-6.53248e-05 5.79432e-05 1.48154e-06
-1.17797e-06 1.48154e-06 -7.02104e-06
0.000717998 -2.72259e-05 -3.30853e-07
-2.72259e-05 4.37713e-05 9.31701e-08
-3.30853e-07 9.31701e-08 -3.52366e-05
0.000797796 5.36511e-05 2.41484e-07
5.36511e-05 0.000102392 5.24478e-07
2.41484e-07 5.24478e-07 6.24921e-06
0.000893546 9.87712e-05 8.49969e-07
9.87712e-05 0.000141609 7.03441e-07
8.49969e-07 7.03441e-07 5.14773e-05
0.000819225 -1.53026e-05 1.00813e-06
-1.53026e-05 9.92978e-05 -1.57773e-06
1.00813e-06 -1.57773e-06 1.92518e-05
0.00069706 -3.14849e-05 -5.62175e-07
-3.14849e-05 3.25272e-05 6.48973e-07
-5.62175e-07 6.48973e-07 -4.55207e-05
0.00191301 -0.00010975 6.35864e-06
-0.00010975 9.64084e-05 -7.39353e-07
6.35864e-06 -7.39353e-07 5.57733e-05
0.00199353 -0.000157646 2.08897e-06
-0.000157646 7.02504e-05 -1.3181e-06
2.08897e-06 -1.3181e-06 2.08939e-05
0.00159345 -0.000285096 -8.82766e-07
-0.000285096 -7.99221e-05 1.26185e-06
-8.82766e-07 1.26185e-06 -0.000168249
0.00107759 -0.000211134 2.73402e-06
-0.000211134 0.00017884 2.97147e-06
2.73402e-06 2.97147e-06 -6.82146e-06
0.00228715 -0.000344488 2.7743e-06
-0.000344488 0.000542945 9.49742e-07
2.7743e-06 9.49742e-07 0.000352384
0.000869408 -0.000144011 -9.91235e-07
-0.000144011 0.000187405 -1.13942e-06
-9.91235e-07 -1.13942e-06 -2.52709e-06
0.00140162 -0.000141453 -8.30156e-07
-0.000141453 0.000463431 -3.34552e-07
-8.30156e-07 -3.34552e-07 0.000300747
0.000796919 -7.45275e-05 -1.81666e-06
-7.45275e-05 9.37879e-05 1.5918e-06
-1.81666e-06 1.5918e-06 -1.77476e-05
0.000795635 -1.45687e-05 -6.76157e-08
-1.45687e-05 9.49286e-05 1.41754e-06
-6.76157e-08 1.41754e-06 1.79356e-06
0.000994586 1.83999e-06 -1.78722e-06
1.83999e-06 0.000200867 -1.00253e-07
-1.78722e-06 -1.00253e-07 9.86947e-05
0.000999601 -6.06805e-06 9.11063e-07
-6.06805e-06 0.000206254 6.5332e-07
9.11063e-07 6.5332e-07 0.000122962
0.000701021 0.000103598 1.79567e-06
0.000103598 5.35123e-05 2.34702e-06
1.79567e-06 2.34702e-06 -4.58626e-05
0.00167308 -0.000107832 -6.14876e-07
-0.000107832 -8.33969e-05 -1.96957e-06
-6.14876e-07 -1.96957e-06 -0.000125566
0.000746626 3.20439e-05 -7.92824e-07
3.20439e-05 7.69314e-05 2.98653e-07
-7.92824e-07 2.98653e-07 -2.75992e-05
0.000810354 -4.49526e-05 -4.68305e-07
-4.49526e-05 0.000108407 -2.17319e-07
-4.68305e-07 -2.17319e-07 2.77749e-06
0.00197032 -0.000264069 3.43691e-08
-0.000264069 4.08026e-05 -1.38186e-06
3.43691e-08 -1.38186e-06 2.25861e-05
0.00130787 -0.000299603 -1.9425e-07
-0.000299603 -9.19623e-05 2.0905e-06
-1.9425e-07 2.0905e-06 -0.000222261
0.0015698 -0.000281788 1.75114e-06
-0.000281788 0.000414582 -1.52113e-06
1.75114e-06 -1.52113e-06 0.000211228
0.000882921 -4.90967e-05 4.838e-07
-4.90967e-05 0.000156897 -5.19464e-07
4.838e-07 -5.19464e-07 3.69017e-05
0.000953663 -5.43877e-05 -1.28684e-07
-5.43877e-05 0.000257433 2.84001e-07
-1.28684e-07 2.84001e-07 4.11119e-05
0.00330231 -0.000184784 -1.27733e-05
-0.000184784 0.000934892 8.18889e-06
-1.27733e-05 8.18889e-06 0.000840414
0.0028925 -0.000359043 -1.71603e-05
-0.000359043 0.000591803 1.7506e-06
-1.71603e-05 1.7506e-06 0.000598931
-2.91135e-05 -0.00024236 -5.3995e-06
-0.00024236 -0.000614147 -1.22504e-06
-5.3995e-06 -1.22504e-06 -0.000757555
0.000941965 -0.000174921 -4.34357e-06
-0.000174921 0.000154962 7.62224e-06
-4.34357e-06 7.62224e-06 -6.29686e-05
0.000627297 -8.80142e-05 5.11327e-07
-8.80142e-05 6.11422e-06 -6.46946e-07
5.11327e-07 -6.46946e-07 -0.000102737
0.000817413 -4.68663e-05 1.1972e-06
-4.68663e-05 0.000118261 -9.62473e-07
1.1972e-06 -9.62473e-07 4.93386e-06
0.000835932 -1.9139e-05 -1.09203e-06
-1.9139e-05 0.000160312 5.48391e-07
-1.09203e-06 5.48391e-07 3.27524e-06
-0.00385662 -2.02731e-05 0.000147522
-2.02731e-05 -0.00192632 6.22768e-07
0.000147522 6.22768e-07 -0.0016324
0.00899609 -8.45215e-05 -2.4648e-05
-8.45215e-05 0.00291136 1.9047e-06
-2.4648e-05 1.9047e-06 0.0023101
0.000866664 5.2786e-05 2.51444e-06
5.2786e-05 0.000150472 4.55207e-07
2.51444e-06 4.55207e-07 3.80057e-05
0.000712972 0.000143448 4.55834e-06
0.000143448 5.78075e-05 -4.64629e-09
4.55834e-06 -4.64629e-09 -9.67049e-05
0.00196885 0.000187268 1.32845e-05
0.000187268 0.000132008 9.37675e-06
1.32845e-05 9.37675e-06 0.00015486
0.00222953 0.000396313 6.03584e-06
0.000396313 0.00031858 3.26417e-06
6.03584e-06 3.26417e-06 0.000168679
0.00121224 0.000239032 6.99529e-06
0.000239032 0.000187001 1.47911e-06
6.99529e-06 1.47911e-06 -4.31591e-05
0.00634577 0.000296965 6.97373e-05
0.000296965 0.00144417 7.63051e-06
6.97373e-05 7.63051e-06 0.000422302
0.00601599 0.00039978 -0.000101462
0.00039978 0.00118959 -2.54989e-05
-0.000101462 -2.54989e-05 0.000544202
-0.000422219 0.000144124 3.03919e-06
0.000144124 -0.000829147 -2.00792e-05
3.03919e-06 -2.00792e-05 -0.000979964
0.00384087 -0.000660973 -1.15e-06
-0.000660973 0.00197675 2.59771e-05
-1.15e-06 2.59771e-05 0.00176249
-0.00507871 -0.000936215 -0.000124397
-0.000936215 -0.00328489 -0.000117704
-0.000124397 -0.000117704 -0.00146212
0.000947104 0.000121618 3.48493e-08
0.000121618 0.00020785 -1.06985e-06
3.48493e-08 -1.06985e-06 9.23788e-05
-0.0024427 -0.000252213 4.36484e-05
-0.000252213 -0.00144861 4.50649e-06
4.36484e-05 4.50649e-06 -0.00150803
-0.000998998 -0.000323053 -4.82451e-05
-0.000323053 0.000178786 -2.01071e-05
-4.82451e-05 -2.01071e-05 -0.000259185
0.00252064 0.00028161 -4.65645e-06
0.00028161 0.00045291 -2.1007e-06
-4.65645e-06 -2.1007e-06 0.000487332
0.00092209 0.00013063 -1.4667e-06
0.00013063 0.000191626 -4.99699e-07
-1.4667e-06 -4.99699e-07 1.54713e-05
0.000676814 0.000278911 3.48613e-06
0.000278911 -0.000140835 1.91538e-06
3.48613e-06 1.91538e-06 -0.000378751
0.000668058 0.000205054 1.04761e-05
0.000205054 -0.000231971 9.90058e-06
1.04761e-05 9.90058e-06 -0.000209412
0.00751997 5.35787e-05 -1.66099e-05
5.35787e-05 0.00222273 -1.38321e-05
-1.66099e-05 -1.38321e-05 0.000723345
0.00645007 0.000726868 -4.28756e-05
0.000726868 0.00170921 -1.84447e-05
-4.28756e-05 -1.84447e-05 0.000899578
0.00653636 -0.000950184 3.57477e-05
-0.000950184 0.0029889 -2.05611e-05
3.57477e-05 -2.05611e-05 0.00312593
0.00141517 -0.000589199 4.99167e-05
-0.000589199 -0.00189477 0.000107417
4.99167e-05 0.000107417 -0.000548262
0.00121734 8.73777e-05 -1.05696e-05
8.73777e-05 0.000378 -7.0887e-06
-1.05696e-05 -7.0887e-06 0.000280446
-0.00287902 -4.21334e-05 -7.91056e-05
-4.21334e-05 -0.000107049 -2.5835e-05
-7.91056e-05 -2.5835e-05 -0.00111427
0.00210236 3.93394e-05 -8.25657e-05
3.93394e-05 0.00048481 -0.000100535
-8.25657e-05 -0.000100535 -0.000490989
-4.01787e-05 0.000232255 -2.20784e-05
0.000232255 -0.000552971 9.32253e-07
-2.20784e-05 9.32253e-07 -0.000552348
0.00167026 0.00030102 -3.56238e-05
0.00030102 0.000653632 -1.01773e-05
-3.56238e-05 -1.01773e-05 0.000464764
0.00298019 0.000216501 -6.56266e-05
0.000216501 0.00125493 -2.46805e-06
-6.56266e-05 -2.46805e-06 0.0010643
0.00373958 0.000683108 -7.13239e-05
0.000683108 0.000447862 -3.12545e-06
-7.13239e-05 -3.12545e-06 6.72756e-05
-0.00153864 0.000164899 8.03183e-05
0.000164899 -0.0012013 5.80762e-05
8.03183e-05 5.80762e-05 -0.00333478
0.00706914 -0.000887296 -2.94514e-05
-0.000887296 0.00186233 7.31228e-05
-2.94514e-05 7.31228e-05 0.00188788
0.00214123 -0.000348874 -1.00622e-05
-0.000348874 -0.00201892 -2.47972e-05
-1.00622e-05 -2.47972e-05 -0.000722943
0.000937914 4.35651e-05 2.09225e-06
4.35651e-05 0.000169425 3.18111e-06
2.09225e-06 3.18111e-06 7.9133e-05
0.00110779 7.22707e-05 2.97728e-06
7.22707e-05 0.000258386 2.07899e-06
2.97728e-06 2.07899e-06 0.000187369
0.000501718 5.71867e-05 -1.23484e-06
5.71867e-05 -7.52197e-05 -8.34996e-06
-1.23484e-06 -8.34996e-06 -0.000125216
0.000614282 4.23796e-05 6.15163e-07
4.23796e-05 -3.63414e-05 -9.74849e-09
6.15163e-07 -9.74849e-09 -0.000103732
0.000854981 3.81621e-05 -8.42594e-07
3.81621e-05 0.000110583 -3.92568e-07
-8.42594e-07 -3.92568e-07 2.28261e-05
0.000856133 -1.74364e-05 -4.46547e-07
-1.74364e-05 9.65056e-05 7.83666e-07
-4.46547e-07 7.83666e-07 1.59552e-05
0.000852988 -1.57783e-05 -2.84781e-07
-1.57783e-05 9.40947e-05 1.28052e-07
-2.84781e-07 1.28052e-07 1.3932e-05
0.000778371 -1.36985e-06 -3.95281e-07
-1.36985e-06 4.70966e-05 2.83305e-06
-3.95281e-07 2.83305e-06 -2.51633e-05
0.000856254 3.23913e-05 2.02512e-07
3.23913e-05 0.000109276 -5.62002e-07
2.02512e-07 -5.62002e-07 2.18155e-05
0.000907096 -1.92602e-06 -9.35395e-08
-1.92602e-06 0.000115696 3.63371e-07
-9.35395e-08 3.63371e-07 3.86669e-05
0.000879611 -3.26897e-05 -1.4911e-08
-3.26897e-05 0.000109026 3.55003e-07
-1.4911e-08 3.55003e-07 2.17986e-05
0.000541964 1.41197e-05 2.13378e-07
1.41197e-05 -8.18771e-05 -5.39112e-07
2.13378e-07 -5.39112e-07 -0.000149449
0.000619731 -8.38115e-06 8.02732e-07
-8.38115e-06 -1.27016e-05 -5.37546e-06
8.02732e-07 -5.37546e-06 -6.88862e-05
0.000920581 -2.23679e-05 -5.41492e-07
-2.23679e-05 0.00012324 -3.32565e-06
-5.41492e-07 -3.32565e-06 4.30531e-05
0.00093709 1.7305e-06 2.40967e-07
1.7305e-06 0.000152174 -1.09762e-06
2.40967e-07 -1.09762e-06 5.52428e-05
0.000863152 -4.07946e-05 -2.37978e-08
-4.07946e-05 0.000115547 -2.26283e-07
-2.37978e-08 -2.26283e-07 2.87083e-05
0.000886485 9.42978e-06 -5.75752e-07
9.42978e-06 0.000113906 7.90931e-07
-5.75752e-07 7.90931e-07 3.59245e-05
0.000852503 -1.84736e-05 4.00198e-07
-1.84736e-05 0.000101513 -3.17355e-07
4.00198e-07 -3.17355e-07 1.27398e-05
0.000802316 4.13989e-05 -1.23918e-07
4.13989e-05 7.69102e-05 -2.17624e-08
-1.23918e-07 -2.17624e-08 -2.79806e-06
0.000764207 8.20486e-07 -2.25291e-07
8.20486e-07 4.26748e-05 4.04795e-07
-2.25291e-07 4.04795e-07 -3.07624e-05
0.00073719 5.54379e-05 1.02532e-06
5.54379e-05 4.66464e-05 -2.57627e-07
1.02532e-06 -2.57627e-07 -3.30814e-05
0.000664127 1.95325e-05 6.12191e-08
1.95325e-05 -4.59887e-06 -2.1636e-06
6.12191e-08 -2.1636e-06 -8.89019e-05
0.00074883 1.37314e-05 1.24341e-06
1.37314e-05 4.13895e-05 -1.28988e-06
1.24341e-06 -1.28988e-06 -3.02556e-05
0.000831486 2.24126e-05 2.83745e-06
2.24126e-05 9.13114e-05 -1.69223e-06
2.83745e-06 -1.69223e-06 3.45646e-06
0.000371245 -3.18066e-05 6.60274e-07
-3.18066e-05 -0.000119731 1.49493e-07
6.60274e-07 1.49493e-07 -0.00024797
0.000443505 3.79012e-05 4.47438e-07
3.79012e-05 -9.80072e-05 -1.06549e-08
4.47438e-07 -1.06549e-08 -0.000190242
0.000766682 4.308e-05 4.56756e-07
4.308e-05 6.95689e-05 5.05607e-07
4.56756e-07 5.05607e-07 -1.40244e-05
0.000724415 3.84637e-05 3.10372e-07
3.84637e-05 3.80526e-05 2.67218e-07
3.10372e-07 2.67218e-07 -3.4339e-05
0.000768654 7.79496e-06 -9.9935e-08
7.79496e-06 6.37622e-05 -8.9229e-09
-9.9935e-08 -8.9229e-09 -1.06038e-05
0.000722157 2.34218e-05 -6.09073e-07
2.34218e-05 2.25112e-05 3.37249e-07
-6.09073e-07 3.37249e-07 -3.67546e-05
0.000793658 7.26903e-06 3.39695e-07
7.26903e-06 7.63542e-05 3.81758e-07
3.39695e-07 3.81758e-07 2.50007e-07
0.000758529 -1.09938e-05 -1.88578e-07
-1.09938e-05 4.23725e-05 1.01574e-09
-1.88578e-07 1.01574e-09 -1.8368e-05
0.000712962 2.64239e-05 -9.38031e-07
2.64239e-05 2.14419e-06 1.6023e-06
-9.38031e-07 1.6023e-06 -3.77468e-05
0.000669916 -2.91276e-05 8.29351e-07
-2.91276e-05 -9.87976e-06 -3.08999e-07
8.29351e-07 -3.08999e-07 -7.19859e-05
0.000718212 1.38066e-05 -1.00594e-07
1.38066e-05 4.21278e-06 -8.14976e-09
-1.00594e-07 -8.14976e-09 -3.53334e-05
0.00135094 2.42423e-05 -4.91285e-06
2.42423e-05 0.000353018 4.78972e-06
-4.91285e-06 4.78972e-06 0.000347036
0.000710091 -4.16562e-07 7.24773e-07
-4.16562e-07 6.67805e-07 -1.4702e-06
7.24773e-07 -1.4702e-06 -3.8795e-05
0.00101425 1.58586e-05 -2.36723e-06
1.58586e-05 0.000159269 7.08291e-07
-2.36723e-06 7.08291e-07 0.000152104
0.000845398 1.29952e-05 -5.13495e-07
1.29952e-05 6.52897e-05 1.75583e-06
-5.13495e-07 1.75583e-06 7.70636e-05
0.000667806 7.72724e-06 2.79332e-07
7.72724e-06 -3.94719e-05 -3.40639e-06
2.79332e-07 -3.40639e-06 -4.79056e-05
0.00222334 1.02071e-05 2.85571e-06
1.02071e-05 0.000845 2.88205e-08
2.85571e-06 2.88205e-08 0.000864001
0.00222081 1.03983e-06 3.81503e-07
1.03983e-06 0.000842818 -4.73166e-06
3.81503e-07 -4.73166e-06 0.000862018
0.00104696 5.50539e-05 -1.24569e-06
5.50539e-05 0.000215971 -9.33394e-07
-1.24569e-06 -9.33394e-07 0.000154333
0.000734431 5.10325e-06 -4.91412e-07
5.10325e-06 1.56415e-05 -1.89897e-06
-4.91412e-07 -1.89897e-06 -1.81642e-05
0.000742401 2.82287e-06 6.07229e-07
2.82287e-06 4.93414e-05 6.5002e-07
6.07229e-07 6.5002e-07 -1.38207e-05
0.000681139 -1.33851e-08 -1.66846e-07
-1.33851e-08 -3.35565e-05 -3.47872e-06
-1.66846e-07 -3.47872e-06 -3.77047e-05
0.000722681 4.44098e-07 2.76283e-07
4.44098e-07 9.4188e-06 -1.96661e-08
2.76283e-07 -1.96661e-08 -2.34941e-05
0.000721483 -2.99362e-06 -4.83749e-07
-2.99362e-06 9.17714e-06 1.80425e-06
-4.83749e-07 1.80425e-06 -2.42514e-05
0.000682615 6.60232e-06 -1.43965e-07
6.60232e-06 -3.19713e-05 -1.19878e-09
-1.43965e-07 -1.19878e-09 -3.65055e-05
0.00207765 9.20236e-06 4.06476e-06
9.20236e-06 0.000762689 -4.61381e-06
4.06476e-06 -4.61381e-06 0.000783319
0.00127629 1.76367e-05 -6.31191e-07
1.76367e-05 0.000306268 2.0958e-06
-6.31191e-07 2.0958e-06 0.000303954
0.00148057 1.69918e-05 2.13171e-06
1.69918e-05 0.000426385 6.89691e-08
2.13171e-06 6.89691e-08 0.000442865
0.000934855 2.02711e-05 -1.48043e-05
2.02711e-05 0.000121219 7.19624e-06
-1.48043e-05 7.19624e-06 0.000133178
-0.00631926 0.000141808 9.1117e-05
0.000141808 -0.00303639 -1.53586e-06
9.1117e-05 -1.53586e-06 -0.00335373
-0.00159525 0.000202164 6.03345e-05
0.000202164 6.0029e-05 2.31211e-05
6.03345e-05 2.31211e-05 -0.000355092
0.00370967 5.00476e-05 -0.000152531
5.00476e-05 0.00073784 3.34053e-06
-0.000152531 3.34053e-06 0.000413931
0.00147937 9.39725e-06 3.18823e-05
9.39725e-06 -0.000171171 3.79896e-06
3.18823e-05 3.79896e-06 -0.00019918
0.00151192 -2.07291e-05 1.05591e-05
-2.07291e-05 -0.000192039 8.19554e-07
1.05591e-05 8.19554e-07 -0.000223616
0.000962969 1.6431e-05 2.12268e-05
1.6431e-05 -0.000482094 -1.53802e-06
2.12268e-05 -1.53802e-06 -0.000617532
0.00218583 -4.79732e-05 1.6661e-06
-4.79732e-05 0.000169684 1.58289e-06
1.6661e-06 1.58289e-06 0.000127461
0.006651 0.000177092 -1.22702e-06
0.000177092 0.00158926 -2.0248e-05
-1.22702e-06 -2.0248e-05 0.000720927
-0.003367 0.000386075 -2.82013e-05
0.000386075 -0.00126687 -1.56455e-06
-2.82013e-05 -1.56455e-06 -0.00163561
-0.00146897 0.000865808 -2.94574e-05
0.000865808 -0.00114893 1.11703e-05
-2.94574e-05 1.11703e-05 0.000327516
0.00182769 -0.000132596 5.59232e-05
-0.000132596 -9.74777e-05 1.20278e-05
5.59232e-05 1.20278e-05 -0.000363879
0.00736408 0.000157582 2.84864e-05
0.000157582 0.00225814 -8.81559e-06
2.84864e-05 -8.81559e-06 0.00101417
0.000175873 0.000716733 2.29334e-05
0.000716733 -0.000567092 -7.14584e-05
2.29334e-05 -7.14584e-05 3.17028e-05
0.00411568 0.000637638 -7.97988e-05
0.000637638 -5.92438e-05 6.15247e-05
-7.97988e-05 6.15247e-05 0.000850658
0.000755466 6.06108e-05 -8.00427e-07
6.06108e-05 7.53178e-05 -4.97349e-07
-8.00427e-07 -4.97349e-07 -2.55537e-05
0.000653211 8.35963e-06 -2.0959e-07
8.35963e-06 3.56704e-06 -5.40889e-07
-2.0959e-07 -5.40889e-07 -7.15798e-05
0.000753099 -6.61942e-05 -8.37568e-07
-6.61942e-05 5.63953e-05 1.20505e-06
-8.37568e-07 1.20505e-06 -6.71685e-06
0.000656955 -5.76766e-08 1.56805e-07
-5.76766e-08 1.33684e-05 8.23809e-07
1.56805e-07 8.23809e-07 -6.87095e-05
0.000778571 5.7881e-05 8.89687e-07
5.7881e-05 9.31171e-05 1.24064e-06
8.89687e-07 1.24064e-06 -2.52086e-06
0.000886547 5.79241e-05 -5.28608e-07
5.79241e-05 0.000140075 -1.42696e-08
-5.28608e-07 -1.42696e-08 4.33095e-05
0.000832916 7.09644e-05 1.53884e-06
7.09644e-05 0.000111277 1.39897e-06
1.53884e-06 1.39897e-06 1.8701e-05
0.000741126 -7.82722e-06 9.18134e-07
-7.82722e-06 4.94083e-05 -1.01586e-07
9.18134e-07 -1.01586e-07 -3.35068e-05
0.000731501 -1.9579e-05 4.05423e-07
-1.9579e-05 5.35074e-05 -7.75113e-07
4.05423e-07 -7.75113e-07 -2.9749e-05
0.00063792 -1.39673e-05 -9.62884e-08
-1.39673e-05 -5.19938e-06 1.14642e-06
-9.62884e-08 1.14642e-06 -8.05155e-05
0.000813602 -0.000103219 6.25895e-06
-0.000103219 -0.000557013 -4.00724e-06
6.25895e-06 -4.00724e-06 -0.000594096
0.00184125 -0.000261631 8.90441e-06
-0.000261631 1.428e-07 -6.0896e-08
8.90441e-06 -6.0896e-08 -3.62333e-05
0.000199159 -0.00023356 7.9917e-06
-0.00023356 -0.000665896 3.50269e-06
7.9917e-06 3.50269e-06 -0.000777508
0.00164828 -0.000288612 2.44148e-06
-0.000288612 0.000453109 2.15784e-07
2.44148e-06 2.15784e-07 0.000237411
0.00132967 -9.2833e-05 8.24473e-07
-9.2833e-05 0.000448098 -7.28355e-07
8.24473e-07 -7.28355e-07 0.000242251
0.00107413 -6.59411e-05 -5.94117e-07
-6.59411e-05 0.000266407 -1.76984e-07
-5.94117e-07 -1.76984e-07 0.000139289
0.000902245 -3.5178e-05 -8.09872e-07
-3.5178e-05 0.000154339 3.20542e-07
-8.09872e-07 3.20542e-07 5.3934e-05
0.000756487 3.94445e-05 -1.09806e-06
3.94445e-05 8.19274e-05 1.10034e-06
-1.09806e-06 1.10034e-06 -2.0118e-05
0.00171639 -0.000153563 -2.70684e-06
-0.000153563 6.80695e-05 1.34351e-06
-2.70684e-06 1.34351e-06 -1.77904e-06
0.000664752 -3.58357e-05 -4.71429e-08
-3.58357e-05 2.9273e-05 1.09649e-07
-4.71429e-08 1.09649e-07 -8.1233e-05
0.000762722 -4.28012e-05 5.39127e-07
-4.28012e-05 8.73522e-05 -4.95298e-07
5.39127e-07 -4.95298e-07 -2.76285e-05
0.00189802 -0.000314562 4.60286e-06
-0.000314562 8.56807e-05 -2.23735e-06
4.60286e-06 -2.23735e-06 8.5759e-05
0.000294244 -0.000258995 1.57582e-06
-0.000258995 -0.000425557 1.3633e-06
1.57582e-06 1.3633e-06 -0.000566104
0.00107283 -0.000181405 3.64445e-06
-0.000181405 0.000217314 -1.76067e-06
3.64445e-06 -1.76067e-06 3.98926e-08
0.0010894 -5.31565e-05 -4.61085e-07
-5.31565e-05 0.000299603 -7.62113e-07
-4.61085e-07 -7.62113e-07 0.000134542
0.00110728 -0.000217807 -1.35313e-06
-0.000217807 5.86209e-05 -4.195e-06
-1.35313e-06 -4.195e-06 -0.000168022
0.00158265 -0.000267825 -1.94595e-05
-0.000267825 0.000257387 4.04601e-06
-1.94595e-05 4.04601e-06 0.000197682
0.000302968 -5.06911e-05 -1.34617e-05
-5.06911e-05 -0.000101869 1.77633e-05
-1.34617e-05 1.77633e-05 -0.000302898
0.000714943 3.53244e-05 4.17291e-07
3.53244e-05 4.88073e-05 7.54672e-07
4.17291e-07 7.54672e-07 -5.75934e-05
0.000610955 -8.32548e-05 7.39096e-07
-8.32548e-05 7.59331e-07 -1.92982e-07
7.39096e-07 -1.92982e-07 -0.000117362
0.000911663 -3.60482e-05 6.55456e-07
-3.60482e-05 0.000160652 1.1476e-06
6.55456e-07 1.1476e-06 4.23691e-05
0.000853339 3.60206e-05 -0.000101897
3.60206e-05 0.00185191 -1.37951e-06
-0.000101897 -1.37951e-06 0.00123004
0.00200584 -0.000137433 1.40603e-05
-0.000137433 0.00135193 8.34984e-06
1.40603e-05 8.34984e-06 0.00120012
8.273e-05 0.000322151 -6.09925e-05
0.000322151 -0.00206744 2.27459e-05
-6.09925e-05 2.27459e-05 -0.00263702
0.00080692 0.000111128 4.25076e-06
0.000111128 0.000136387 2.26756e-06
4.25076e-06 2.26756e-06 2.32218e-05
0.000677122 0.000144083 7.75328e-06
0.000144083 7.72767e-05 3.91069e-06
7.75328e-06 3.91069e-06 -0.000101803
0.00251873 0.000261644 1.32381e-05
0.000261644 0.000432067 5.67583e-06
1.32381e-05 5.67583e-06 0.000475816
0.000594619 0.000213431 1.30329e-05
0.000213431 -0.000152388 6.65852e-06
1.30329e-05 6.65852e-06 -0.000385693
0.00460017 -0.000368591 4.23535e-05
-0.000368591 0.00195287 2.27409e-05
4.23535e-05 2.27409e-05 0.00201707
-0.00107877 -8.94034e-05 -5.2366e-05
-8.94034e-05 -0.00196946 2.81022e-06
-5.2366e-05 2.81022e-06 -0.00329179
0.0032286 0.000627357 -8.16669e-05
0.000627357 -0.000185908 -3.57256e-05
-8.16669e-05 -3.57256e-05 -0.00102333
0.000605867 0.000123758 2.72767e-05
0.000123758 -0.0001813 -1.648e-05
2.72767e-05 -1.648e-05 -0.000147326
-0.00404521 -0.000422421 -6.4992e-06
-0.000422421 -0.00167336 -1.84085e-05
-6.4992e-06 -1.84085e-05 -0.00175154
0.000562319 -0.00038344 1.5e-05
-0.00038344 0.000558723 2.27375e-05
1.5e-05 2.27375e-05 0.000125846
0.00532147 -0.000750513 9.07538e-05
-0.000750513 0.000171716 7.64342e-05
9.07538e-05 7.64342e-05 0.00159925
0.000775561 8.03038e-05 2.67011e-06
8.03038e-05 0.000146633 -1.8208e-06
2.67011e-06 -1.8208e-06 4.37319e-05
-0.000539902 -0.000106351 -3.66649e-05
-0.000106351 0.000824793 -1.25271e-05
-3.66649e-05 -1.25271e-05 6.84513e-05
0.00235674 4.73901e-05 -3.6121e-06
4.73901e-05 0.000621632 -2.35106e-05
-3.6121e-06 -2.35106e-05 -0.000389471
0.000695431 0.000207131 -8.05121e-06
0.000207131 -0.000119018 3.35349e-06
-8.05121e-06 3.35349e-06 -0.000169741
0.000733559 0.000163315 -9.20046e-08
0.000163315 0.000187993 1.18568e-06
-9.20046e-08 1.18568e-06 -7.18801e-06
0.000376565 0.000168366 3.33339e-05
0.000168366 -0.000101173 -2.20127e-05
3.33339e-05 -2.20127e-05 -0.000235725
0.00552837 0.000878217 -1.85469e-05
0.000878217 0.00148767 7.22203e-07
-1.85469e-05 7.22203e-07 0.000736504
0.00938181 -9.91149e-05 4.40893e-05
-9.91149e-05 0.00362334 1.09896e-05
4.40893e-05 1.09896e-05 0.00200919
0.00187987 -0.000559998 3.00924e-06
-0.000559998 -0.00103884 -1.03107e-05
3.00924e-06 -1.03107e-05 -0.000814371
0.00619772 -0.000475345 5.74558e-06
-0.000475345 0.000634457 -1.24718e-05
5.74558e-06 -1.24718e-05 0.00184928
0.00052872 9.87342e-05 -1.18641e-05
9.87342e-05 6.1444e-05 -9.46585e-06
-1.18641e-05 -9.46585e-06 -1.40804e-05
0.00188938 -4.27848e-05 -7.143e-05
-4.27848e-05 0.000349371 -3.12866e-05
-7.143e-05 -3.12866e-05 -0.000331468
0.00119294 3.32985e-05 -1.63984e-05
3.32985e-05 0.000240391 -5.76994e-05
-1.63984e-05 -5.76994e-05 -0.000601939
-0.000903875 2.80839e-06 -2.461e-05
2.80839e-06 -0.000491652 -1.60689e-05
-2.461e-05 -1.60689e-05 -0.000611195
0.00244385 0.00033886 2.29505e-06
0.00033886 0.00057006 5.60633e-05
2.29505e-06 5.60633e-05 5.0966e-05
0.00845473 0.000136887 2.16721e-05
0.000136887 0.00324015 4.62836e-06
2.16721e-05 4.62836e-06 0.00123317
-0.00650164 -0.000599362 -5.25445e-05
-0.000599362 -0.00414987 2.2707e-05
-5.25445e-05 2.2707e-05 -0.00513883
0.00505168 0.000147859 -1.14771e-06
0.000147859 -0.000549709 -8.42156e-05
-1.14771e-06 -8.42156e-05 0.000882193
0.000988854 6.53565e-05 2.56712e-06
6.53565e-05 0.000189924 5.79739e-06
2.56712e-06 5.79739e-06 0.00011878
0.000931414 8.39946e-05 -3.94858e-06
8.39946e-05 0.000166498 -7.39877e-07
-3.94858e-06 -7.39877e-07 0.000114477
0.00114843 6.98759e-05 -3.93294e-06
6.98759e-05 0.000312342 -5.42961e-06
-3.93294e-06 -5.42961e-06 0.000271428
0.000862956 6.85947e-05 -1.55121e-06
6.85947e-05 0.000106041 -5.09766e-07
-1.55121e-06 -5.09766e-07 2.31499e-05
0.000913855 -3.12499e-05 -3.14779e-07
-3.12499e-05 0.000134387 1.37492e-06
-3.14779e-07 1.37492e-06 4.29459e-05
0.000909741 7.05112e-06 -4.46077e-07
7.05112e-06 0.00011777 1.69091e-06
-4.46077e-07 1.69091e-06 4.02383e-05
0.000464668 3.38898e-06 -2.98764e-08
3.38898e-06 -0.000118295 3.91094e-06
-2.98764e-08 3.91094e-06 -0.000184052
0.000884143 5.70844e-06 5.83376e-07
5.70844e-06 0.000112423 4.14173e-08
5.83376e-07 4.14173e-08 2.31708e-05
0.000868061 -5.44737e-06 -2.14635e-07
-5.44737e-06 9.581e-05 -2.1276e-07
-2.14635e-07 -2.1276e-07 1.50348e-05
0.000580194 -7.96965e-06 9.47077e-08
-7.96965e-06 -3.07607e-05 1.06276e-06
9.47077e-08 1.06276e-06 -8.70634e-05
0.000499558 -1.73938e-05 -1.10797e-06
-1.73938e-05 -1.19374e-05 -5.09258e-06
-1.10797e-06 -5.09258e-06 -5.02619e-05
0.000984683 -2.45296e-05 2.72263e-06
-2.45296e-05 0.000182241 -6.3479e-06
2.72263e-06 -6.3479e-06 0.000118903
0.000838299 3.4325e-05 4.53179e-07
3.4325e-05 8.75774e-05 -2.42352e-06
4.53179e-07 -2.42352e-06 -5.66917e-07
0.000873122 -5.53557e-05 8.30835e-07
-5.53557e-05 0.000105681 6.96543e-07
8.30835e-07 6.96543e-07 2.13145e-05
0.000787253 4.4789e-05 -5.17935e-07
4.4789e-05 6.70044e-05 5.64515e-07
-5.17935e-07 5.64515e-07 -1.19376e-05
0.000836611 -5.97362e-06 -1.08471e-06
-5.97362e-06 8.33734e-05 1.78867e-06
-1.08471e-06 1.78867e-06 1.02504e-05
0.000723073 1.20636e-05 3.76806e-07
1.20636e-05 2.26882e-05 3.57389e-07
3.76806e-07 3.57389e-07 -5.76506e-05
0.000770597 5.03153e-05 2.78029e-07
5.03153e-05 6.51122e-05 2.26015e-07
2.78029e-07 2.26015e-07 -1.49154e-05
0.000823273 2.82276e-05 -3.46629e-07
2.82276e-05 8.29103e-05 1.85003e-07
-3.46629e-07 1.85003e-07 1.04725e-05
0.000896016 3.75366e-05 1.76811e-06
3.75366e-05 0.000125982 -1.43869e-06
1.76811e-06 -1.43869e-06 4.94978e-05
0.000653078 8.77546e-06 1.90272e-06
8.77546e-06 1.04079e-06 -2.56799e-06
1.90272e-06 -2.56799e-06 -6.47504e-05
0.000668046 -6.65616e-05 1.64384e-06
-6.65616e-05 -3.28548e-06 -6.5912e-07
1.64384e-06 -6.5912e-07 -9.35409e-05
0.000901675 5.15402e-06 -9.82355e-07
5.15402e-06 0.000133521 -2.14913e-07
-9.82355e-07 -2.14913e-07 4.3941e-05
0.000598202 -4.57633e-05 2.17446e-06
-4.57633e-05 -4.66432e-07 1.53648e-06
2.17446e-06 1.53648e-06 -0.000119093
0.000981684 -0.000153975 -6.80751e-07
-0.000153975 0.00019077 3.77621e-06
-6.80751e-07 3.77621e-06 2.56841e-05
0.00115639 -4.45325e-05 1.33269e-06
-4.45325e-05 0.000301273 -7.1276e-07
1.33269e-06 -7.1276e-07 0.000194426
0.000528939 -4.93983e-05 -5.26682e-07
-4.93983e-05 -2.58089e-05 -2.762e-06
-5.26682e-07 -2.762e-06 -0.000152485
0.000726184 3.48847e-05 -5.88006e-07
3.48847e-05 5.5449e-05 -5.99312e-07
-5.88006e-07 -5.99312e-07 -3.46554e-05
0.000503742 3.39934e-05 9.89893e-07
3.39934e-05 -7.84361e-05 6.35764e-07
9.89893e-07 6.35764e-07 -0.000157635
0.000833823 2.917e-05 -5.38647e-07
2.917e-05 0.000105136 2.8283e-07
-5.38647e-07 2.8283e-07 2.21021e-05
0.000782419 5.8307e-06 -4.4804e-07
5.8307e-06 7.28868e-05 3.69552e-07
-4.4804e-07 3.69552e-07 -2.13158e-06
0.000721638 2.77721e-05 -7.31996e-07
2.77721e-05 2.30722e-05 4.20814e-07
-7.31996e-07 4.20814e-07 -3.58983e-05
0.000813321 -1.97342e-05 4.27443e-07
-1.97342e-05 9.48356e-05 2.11589e-07
4.27443e-07 2.11589e-07 1.56601e-05
0.000756272 -1.09512e-05 -3.79507e-07
-1.09512e-05 4.30014e-05 4.74847e-08
-3.79507e-07 4.74847e-08 -1.76487e-05
0.000711686 3.27976e-05 -1.23589e-06
3.27976e-05 4.09823e-06 1.58229e-06
-1.23589e-06 1.58229e-06 -3.63542e-05
0.000789897 -3.77284e-05 1.19365e-06
-3.77284e-05 6.21945e-05 -3.65581e-07
1.19365e-06 -3.65581e-07 -2.27036e-07
0.000726593 1.81151e-05 -2.10921e-07
1.81151e-05 8.94752e-06 -3.32045e-09
-2.10921e-07 -3.32045e-09 -3.05784e-05
0.00134105 3.25624e-05 -6.86136e-06
3.25624e-05 0.000351065 4.73625e-06
-6.86136e-06 4.73625e-06 0.000344475
0.000720813 3.912e-06 1.19163e-06
3.912e-06 5.14601e-06 -1.48033e-06
1.19163e-06 -1.48033e-06 -3.41523e-05
0.0010089 2.32709e-05 -3.19903e-06
2.32709e-05 0.000159097 6.73257e-07
-3.19903e-06 6.73257e-07 0.000151455
0.00084425 2.00492e-05 -9.82152e-07
2.00492e-05 6.90001e-05 1.7541e-06
-9.82152e-07 1.7541e-06 7.99362e-05
0.000657839 1.40735e-05 4.17009e-07
1.40735e-05 -4.32442e-05 -3.428e-06
4.17009e-07 -3.428e-06 -5.20273e-05
0.00153667 1.80899e-05 5.03392e-06
1.80899e-05 0.000457405 -1.38937e-06
5.03392e-06 -1.38937e-06 0.000472532
0.00223393 1.18699e-05 4.74616e-06
1.18699e-05 0.000851381 -4.65848e-06
4.74616e-06 -4.65848e-06 0.000870245
0.000813572 -1.43731e-05 5.77519e-07
-1.43731e-05 7.91679e-05 -8.07576e-07
5.77519e-07 -8.07576e-07 1.65074e-05
0.000740204 -9.18749e-07 -2.37501e-07
-9.18749e-07 1.85731e-05 -1.9169e-06
-2.37501e-07 -1.9169e-06 -1.6571e-05
0.000804146 -2.61294e-06 4.72507e-07
-2.61294e-06 7.88932e-05 1.47564e-07
4.72507e-07 1.47564e-07 1.7096e-05
0.000683171 -6.38765e-06 -2.98203e-07
-6.38765e-06 -3.20618e-05 -3.49606e-06
-2.98203e-07 -3.49606e-06 -3.65848e-05
0.000724807 6.64558e-07 1.65383e-08
6.64558e-07 1.02623e-05 -2.55044e-08
1.65383e-08 -2.55044e-08 -2.34289e-05
0.000737573 -5.28685e-05 -2.0746e-06
-5.28685e-05 4.21253e-05 1.73193e-06
-2.0746e-06 1.73193e-06 -1.77089e-05
0.00207689 -1.02932e-06 -3.12512e-07
-1.02932e-06 0.00076159 -4.62518e-06
-3.12512e-07 -4.62518e-06 0.000782417
0.00068307 2.14952e-07 -1.14422e-07
2.14952e-07 -3.2482e-05 -2.0222e-09
-1.14422e-07 -2.0222e-09 -3.6626e-05
0.000714275 -6.2731e-06 -2.04913e-07
-6.2731e-06 4.61065e-06 1.79374e-06
-2.04913e-07 1.79374e-06 -2.82657e-05
0.000684811 6.83158e-06 -2.02338e-08
6.83158e-06 -3.0816e-05 3.46543e-06
-2.02338e-08 3.46543e-06 -3.5372e-05
0.0020828 1.01523e-05 -2.92004e-06
1.01523e-05 0.000765808 -2.81053e-08
-2.92004e-06 -2.81053e-08 0.000786366
0.00210457 1.9806e-05 -1.11432e-05
1.9806e-05 0.000780364 4.46239e-06
-1.11432e-05 4.46239e-06 0.000800233
-0.00215571 -5.01335e-07 -4.47307e-05
-5.01335e-07 0.00013458 1.00675e-05
-4.47307e-05 1.00675e-05 -0.000717829
-0.00112643 0.000289544 -1.49531e-05
0.000289544 -0.000444962 5.44308e-06
-1.49531e-05 5.44308e-06 -0.000682272
0.00248103 -2.91315e-05 -0.0001048
-2.91315e-05 0.000434809 8.41189e-05
-0.0001048 8.41189e-05 -0.000467152
-0.00212376 0.000236022 0.00011221
0.000236022 5.24139e-05 -4.78826e-05
0.00011221 -4.78826e-05 -0.000255261
0.0026803 0.000126949 -9.98086e-05
0.000126949 0.000274531 1.54381e-05
-9.98086e-05 1.54381e-05 6.23479e-06
0.00191964 -7.16713e-05 6.60025e-05
-7.16713e-05 2.51693e-05 -1.06988e-05
6.60025e-05 -1.06988e-05 -2.3124e-05
0.00183741 -0.000345686 -9.21253e-05
-0.000345686 -0.0008376 -4.09467e-05
-9.21253e-05 -4.09467e-05 -0.00162023
0.00747028 0.000514058 2.00844e-05
0.000514058 0.00369934 -1.69913e-05
2.00844e-05 -1.69913e-05 0.00359559
-0.00525517 0.000939955 -0.000122447
0.000939955 -0.00344704 0.000119609
-0.000122447 0.000119609 -0.00148479
0.00180262 -1.74481e-05 -4.73199e-06
-1.74481e-05 -0.000248005 -5.83551e-06
-4.73199e-06 -5.83551e-06 -0.000493549
0.00349196 4.71476e-05 2.07786e-05
4.71476e-05 0.000417384 -2.78052e-05
2.07786e-05 -2.78052e-05 -0.00130899
0.00671928 0.000991928 -2.45405e-05
0.000991928 0.00220991 -2.94074e-05
-2.45405e-05 -2.94074e-05 0.00280691
0.00175824 0.00060912 -2.48356e-05
0.00060912 -0.00144134 5.34007e-05
-2.48356e-05 5.34007e-05 -0.000458414
0.00301195 -0.000313202 -4.31915e-05
-0.000313202 0.000201357 1.31994e-05
-4.31915e-05 1.31994e-05 -0.000252349
0.00344823 -0.00013332 0.000110369
-0.00013332 0.00104645 -7.41848e-05
0.000110369 -7.41848e-05 -0.00118663
-0.00529482 0.000315123 -6.37552e-05
0.000315123 -0.00439863 -9.35221e-05
-6.37552e-05 -9.35221e-05 -0.00410275
0.00138139 0.000379424 -2.57896e-05
0.000379424 -0.00273648 1.47817e-05
-2.57896e-05 1.47817e-05 -0.00146487
0.000836556 -1.59301e-05 9.15471e-07
-1.59301e-05 0.000117706 1.60631e-07
9.15471e-07 1.60631e-07 1.23006e-05
0.000819241 4.9699e-05 -1.72785e-06
4.9699e-05 0.000110269 -5.75628e-07
-1.72785e-06 -5.75628e-07 1.19996e-05
0.000776317 3.21774e-05 5.11004e-07
3.21774e-05 7.29738e-05 -1.83583e-08
5.11004e-07 -1.83583e-08 -1.02954e-06
0.000795304 6.44559e-05 2.02449e-06
6.44559e-05 0.000103073 1.89068e-06
2.02449e-06 1.89068e-06 8.32412e-06
0.000745943 2.51424e-05 -3.31527e-07
2.51424e-05 6.04553e-05 4.90847e-07
-3.31527e-07 4.90847e-07 -4.39019e-05
0.000908396 6.00264e-05 2.46255e-07
6.00264e-05 0.000154076 6.8087e-07
2.46255e-07 6.8087e-07 5.69838e-05
0.000767421 1.24386e-05 -1.94998e-07
1.24386e-05 7.11679e-05 2.10322e-06
-1.94998e-07 2.10322e-06 -1.86101e-05
0.000899783 8.75346e-05 -4.17133e-07
8.75346e-05 0.000150912 3.00068e-07
-4.17133e-07 3.00068e-07 5.53364e-05
0.000872108 4.5623e-05 -1.85807e-07
4.5623e-05 0.000135064 3.91341e-07
-1.85807e-07 3.91341e-07 4.38803e-05
0.000667871 -1.07321e-05 -1.13798e-06
-1.07321e-05 2.04947e-05 1.06048e-07
-1.13798e-06 1.06048e-07 -6.567e-05
0.000239068 -0.000123703 1.82421e-05
-0.000123703 -0.000728057 -1.18364e-05
1.82421e-05 -1.18364e-05 -0.000766361
0.00104715 -0.000284883 1.58693e-05
-0.000284883 -0.000344235 -7.97741e-07
1.58693e-05 -7.97741e-07 -0.000359849
0.000922345 -0.000295744 1.06997e-05
-0.000295744 -7.89554e-05 7.48663e-07
1.06997e-05 7.48663e-07 -0.000219247
0.00121885 -0.000188453 7.45316e-06
-0.000188453 0.000287188 -6.69941e-06
7.45316e-06 -6.69941e-06 6.62083e-05
0.00120257 -5.79686e-05 4.95271e-07
-5.79686e-05 0.000363294 -4.70423e-07
4.95271e-07 -4.70423e-07 0.000190932
0.000697823 -5.31209e-05 -7.02065e-07
-5.31209e-05 5.55907e-05 1.07892e-07
-7.02065e-07 1.07892e-07 -6.45863e-05
0.000737105 5.85724e-05 1.08806e-07
5.85724e-05 7.1566e-05 7.93148e-08
1.08806e-07 7.93148e-08 -4.1988e-05
0.000758232 -3.78194e-05 -9.1281e-08
-3.78194e-05 7.8309e-05 6.81659e-07
-9.1281e-08 6.81659e-07 -3.06175e-05
0.00118097 -0.000188762 6.68119e-07
-0.000188762 6.59789e-05 -3.46805e-07
6.68119e-07 -3.46805e-07 -8.4271e-05
0.000837221 3.28694e-06 -5.71885e-07
3.28694e-06 0.000131243 -4.79498e-07
-5.71885e-07 -4.79498e-07 8.81631e-06
0.00104326 -5.32877e-05 2.24375e-07
-5.32877e-05 0.00024023 7.52851e-08
2.24375e-07 7.52851e-08 0.000112711
0.00129478 -0.000252915 -1.68114e-06
-0.000252915 8.91271e-05 -3.15691e-07
-1.68114e-06 -3.15691e-07 4.6177e-05
0.000949285 -7.79332e-05 -6.30504e-06
-7.79332e-05 0.000214977 2.91355e-06
-6.30504e-06 2.91355e-06 2.53038e-05
-0.00079662 -0.000214924 -4.48664e-06
-0.000214924 -0.00101007 -1.26823e-05
-4.48664e-06 -1.26823e-05 -0.00102095
0.00103199 -0.000104873 -1.5264e-05
-0.000104873 0.000302308 1.42906e-05
-1.5264e-05 1.42906e-05 0.000194781
0.000275066 7.61101e-06 -2.04049e-06
7.61101e-06 -0.000188723 1.34506e-05
-2.04049e-06 1.34506e-05 -0.000306426
0.000803841 -1.7163e-06 2.14816e-07
-1.7163e-06 8.80909e-05 8.76859e-08
2.14816e-07 8.76859e-08 -1.74184e-05
0.000719405 1.70205e-05 -2.54463e-07
1.70205e-05 5.31753e-05 9.45313e-07
-2.54463e-07 9.45313e-07 -7.6688e-05
0.00133731 -7.29816e-06 -3.44215e-05
-7.29816e-06 0.000159363 -4.35065e-06
-3.44215e-05 -4.35065e-06 -0.000397897
-0.000735127 2.33536e-06 -5.34616e-05
2.33536e-06 0.00108866 -1.71081e-06
-5.34616e-05 -1.71081e-06 0.00030409
-0.00686063 -0.000161728 -0.000157552
-0.000161728 -0.0034556 3.24319e-06
-0.000157552 3.24319e-06 -0.0034569
0.000377437 8.25752e-05 8.11149e-06
8.25752e-05 -5.69774e-05 1.53797e-06
8.11149e-06 1.53797e-06 -0.00016864
-0.000388185 4.12459e-05 8.26627e-06
4.12459e-05 -0.000386836 3.10517e-06
8.26627e-06 3.10517e-06 -0.000590605
0.00128076 0.000174969 1.71081e-05
0.000174969 0.000213224 7.69719e-07
1.71081e-05 7.69719e-07 0.000141878
-0.00204717 1.66128e-05 1.00368e-05
1.66128e-05 0.00012178 8.27643e-06
1.00368e-05 8.27643e-06 -0.000769423
0.00242605 -6.22881e-06 -3.46442e-05
-6.22881e-06 0.000640426 -3.5499e-05
-3.46442e-05 -3.5499e-05 -0.00164757
0.00378831 0.000731021 5.76374e-05
0.000731021 0.000391449 -5.93968e-06
5.76374e-05 -5.93968e-06 -0.00015271
0.00058266 0.000188821 7.73897e-06
0.000188821 1.38279e-05 -5.76197e-06
7.73897e-06 -5.76197e-06 -1.04845e-06
0.00786988 -0.000752648 2.62277e-05
-0.000752648 0.00234744 -1.04237e-05
2.62277e-05 -1.04237e-05 0.00240608
0.00262774 4.56406e-05 7.07134e-05
4.56406e-05 0.000825658 5.31969e-05
7.07134e-05 5.31969e-05 -0.00021988
0.00594169 -0.000419719 2.68654e-05
-0.000419719 0.000781592 1.36955e-05
2.68654e-05 1.36955e-05 0.00203428
0.000830896 0.000118329 -1.48338e-06
0.000118329 0.000243523 -2.46478e-06
-1.48338e-06 -2.46478e-06 0.000162886
0.00192513 -3.58499e-05 4.65792e-06
-3.58499e-05 0.000469996 -8.05883e-06
4.65792e-06 -8.05883e-06 -0.000143311
0.0014562 4.46712e-05 5.53646e-06
4.46712e-05 0.000241247 1.01447e-05
5.53646e-06 1.01447e-05 -0.000617448
5.43401e-05 0.000115133 -5.09666e-06
0.000115133 -4.90612e-06 -4.20582e-07
-5.09666e-06 -4.20582e-07 -0.000145972
0.00274965 0.000439282 -4.01062e-05
0.000439282 0.000540652 -3.30813e-05
-4.01062e-05 -3.30813e-05 7.71888e-05
0.00292638 0.000587999 4.52625e-05
0.000587999 0.000512474 2.94391e-05
4.52625e-05 2.94391e-05 -0.00176807
0.00388847 5.4399e-05 -3.42966e-06
5.4399e-05 -0.0016758 -4.67731e-05
-3.42966e-06 -4.67731e-05 7.20206e-05
0.000739949 -0.000335426 -1.55769e-05
-0.000335426 -0.000469513 4.03747e-06
-1.55769e-05 4.03747e-06 -0.000944998
0.000792219 5.67169e-05 -2.06159e-06
5.67169e-05 0.000318935 -9.21747e-06
-2.06159e-06 -9.21747e-06 0.000249687
0.00115066 -3.72634e-05 -1.45921e-05
-3.72634e-05 0.000127173 -2.31196e-05
-1.45921e-05 -2.31196e-05 -0.000133986
0.00184778 5.73507e-06 1.08479e-05
5.73507e-06 0.000119237 -5.38278e-05
1.08479e-05 -5.38278e-05 -0.000644846
0.00147214 0.000379655 2.39382e-05
0.000379655 -0.00264892 -1.82428e-05
2.39382e-05 -1.82428e-05 -0.00146702
-0.00125055 2.76316e-05 2.79177e-06
2.76316e-05 -0.000505934 -9.91385e-06
2.79177e-06 -9.91385e-06 -0.000833199
0.0101026 0.000418194 9.41965e-05
0.000418194 0.00418574 4.12275e-05
9.41965e-05 4.12275e-05 0.00189631
-0.00645158 -0.000160681 3.42568e-05
-0.000160681 -0.00107488 3.66204e-05
3.42568e-05 3.66204e-05 -0.00202491
0.00148559 0.000128458 1.31717e-05
0.000128458 0.000475684 8.26531e-06
1.31717e-05 8.26531e-06 0.000419968
0.000979304 8.60907e-05 -3.25812e-06
8.60907e-05 0.000219343 1.19217e-06
-3.25812e-06 1.19217e-06 0.00017399
0.000570334 5.59444e-05 -9.34795e-06
5.59444e-05 9.99656e-05 -7.65739e-06
-9.34795e-06 -7.65739e-06 5.18202e-05
0.000842861 0.000102243 2.08759e-07
0.000102243 9.59442e-05 1.13764e-06
2.08759e-07 1.13764e-06 3.09457e-06
0.000818633 2.22136e-05 -1.66035e-07
2.22136e-05 6.60528e-05 2.24433e-06
-1.66035e-07 2.24433e-06 -1.27258e-05
0.000493588 -1.83295e-05 -1.21805e-06
-1.83295e-05 -7.45629e-05 9.90268e-06
-1.21805e-06 9.90268e-06 -0.000130414
0.000786177 3.80227e-05 -1.54059e-07
3.80227e-05 5.67684e-05 -2.24881e-07
-1.54059e-07 -2.24881e-07 -2.86362e-05
0.000841934 -3.4485e-05 3.49342e-07
-3.4485e-05 0.000106408 -1.18118e-06
3.49342e-07 -1.18118e-06 4.09628e-05
0.000503058 -3.06341e-05 2.94807e-06
-3.06341e-05 -1.47392e-05 3.46425e-06
2.94807e-06 3.46425e-06 -5.7661e-05
0.000409594 -9.05942e-06 -2.6192e-07
-9.05942e-06 -3.48135e-05 -7.63116e-06
-2.6192e-07 -7.63116e-06 -6.87725e-05
0.000806039 -5.97053e-06 -7.47283e-07
-5.97053e-06 9.17496e-05 -4.657e-06
-7.47283e-07 -4.657e-06 2.60356e-05
0.000780146 7.30603e-06 -3.93379e-07
7.30603e-06 4.79675e-05 2.21292e-06
-3.93379e-07 2.21292e-06 -2.77557e-05
0.000799905 4.9458e-05 -3.97232e-07
4.9458e-05 8.18891e-05 5.44888e-07
-3.97232e-07 5.44888e-07 1.33349e-06
0.000899113 3.60487e-05 -2.23861e-06
3.60487e-05 0.000124645 2.3525e-06
-2.23861e-06 2.3525e-06 5.16032e-05
0.000785365 9.89248e-06 6.22465e-07
9.89248e-06 7.06067e-05 4.3079e-08
6.22465e-07 4.3079e-08 4.33026e-06
0.000836684 3.79989e-05 5.80586e-07
3.79989e-05 9.31833e-05 1.60373e-07
5.80586e-07 1.60373e-07 1.69164e-05
0.000690525 -3.75089e-05 2.153e-06
-3.75089e-05 5.26612e-05 -6.3396e-08
2.153e-06 -6.3396e-08 -2.76536e-05
0.00065474 -4.20301e-05 -9.17838e-07
-4.20301e-05 2.51409e-06 -9.47896e-07
-9.17838e-07 -9.47896e-07 -8.05553e-05
0.000497261 -8.39271e-05 4.15793e-06
-8.39271e-05 -6.37109e-05 6.34722e-07
4.15793e-06 6.34722e-07 -0.000207083
0.000989473 -1.27045e-05 -1.74546e-06
-1.27045e-05 0.000184396 4.51853e-07
-1.74546e-06 4.51853e-07 9.34586e-05
0.0010125 -7.75807e-05 -9.48868e-07
-7.75807e-05 0.000219243 1.15729e-06
-9.48868e-07 1.15729e-06 9.6378e-05
0.000391702 -0.000121186 2.87437e-07
-0.000121186 -0.000148714 2.15345e-06
2.87437e-07 2.15345e-06 -0.000314572
0.00066308 -0.000131182 -3.8774e-06
-0.000131182 3.72131e-06 -3.87351e-07
-3.8774e-06 -3.87351e-07 -0.000162296
0.000976752 -0.000117277 -1.11428e-06
-0.000117277 0.00021311 2.22168e-06
-1.11428e-06 2.22168e-06 8.4008e-05
0.000744942 -0.000134273 1.99677e-07
-0.000134273 6.18985e-05 6.22367e-07
1.99677e-07 6.22367e-07 -9.86848e-05
0.000848034 -1.35848e-05 7.54304e-07
-1.35848e-05 0.000116869 8.00705e-07
7.54304e-07 8.00705e-07 2.70818e-05
0.000969367 -3.84765e-05 -6.79856e-07
-3.84765e-05 0.000200516 -6.84895e-07
-6.79856e-07 -6.84895e-07 9.08806e-05
0.000661253 -6.3664e-05 5.45589e-07
-6.3664e-05 5.33513e-05 -4.94913e-06
5.45589e-07 -4.94913e-06 -7.1157e-05
0.00101189 3.25407e-05 -1.84458e-06
3.25407e-05 0.000210594 -1.11607e-06
-1.84458e-06 -1.11607e-06 0.00012263
0.00064507 2.48275e-05 1.47964e-07
2.48275e-05 5.64906e-07 -2.39653e-08
1.47964e-07 -2.39653e-08 -7.84022e-05
0.000715626 4.22958e-05 -1.0431e-07
4.22958e-05 2.49564e-05 6.17417e-07
-1.0431e-07 6.17417e-07 -3.8157e-05
0.000824402 -1.54984e-05 -1.72765e-07
-1.54984e-05 9.98744e-05 2.71601e-07
-1.72765e-07 2.71601e-07 2.17139e-05
0.00075391 1.33472e-06 -6.29463e-07
1.33472e-06 4.28053e-05 -5.49869e-08
-6.29463e-07 -5.49869e-08 -1.7935e-05
0.000714252 3.49564e-05 -1.43387e-06
3.49564e-05 9.39557e-06 1.54622e-06
-1.43387e-06 1.54622e-06 -3.17503e-05
0.000783878 -3.31039e-05 1.23313e-06
-3.31039e-05 6.02618e-05 -4.01544e-07
1.23313e-06 -4.01544e-07 -2.09164e-06
0.000721934 2.69695e-05 -2.26543e-07
2.69695e-05 8.76676e-06 6.09115e-10
-2.26543e-07 6.09115e-10 -3.12713e-05
0.00130855 4.101e-05 -7.81126e-06
4.101e-05 0.000338478 3.25637e-06
-7.81126e-06 3.25637e-06 0.000330962
0.000728375 1.06663e-05 1.45949e-06
1.06663e-05 9.13661e-06 -1.54017e-06
1.45949e-06 -1.54017e-06 -3.0061e-05
0.00100088 3.08266e-05 -3.96276e-06
3.08266e-05 0.00015851 6.2079e-07
-3.96276e-06 6.2079e-07 0.000150246
0.000838267 2.67839e-05 -1.52009e-06
2.67839e-05 7.10929e-05 1.75818e-06
-1.52009e-06 1.75818e-06 8.10105e-05
0.000651769 2.075e-05 5.99611e-07
2.075e-05 -4.38271e-05 -3.46574e-06
5.99611e-07 -3.46574e-06 -5.30567e-05
0.00153182 2.68953e-05 6.67677e-06
2.68953e-05 0.00045875 -1.29454e-06
6.67677e-06 -1.29454e-06 0.000473046
0.00223626 2.26116e-05 8.8662e-06
2.26116e-05 0.000855456 -4.51778e-06
8.8662e-06 -4.51778e-06 0.000873719
0.000572037 2.98536e-06 -2.66397e-07
2.98536e-06 -5.01304e-05 -1.349e-06
-2.66397e-07 -1.349e-06 -0.000123868
0.000469931 -8.69487e-06 -3.44934e-07
-8.69487e-06 -0.000132444 -2.61973e-06
-3.44934e-07 -2.61973e-06 -0.000172374
0.00084057 -1.5248e-06 2.8966e-08
-1.5248e-06 9.77106e-05 1.03258e-07
2.8966e-08 1.03258e-07 3.26415e-05
0.000681726 -1.28856e-05 -2.59759e-07
-1.28856e-05 -3.13611e-05 -3.55208e-06
-2.59759e-07 -3.55208e-06 -3.71291e-05
0.000588801 -4.62305e-06 3.40454e-07
-4.62305e-06 -6.5969e-05 -2.2197e-08
3.40454e-07 -2.2197e-08 -0.00010239
0.000556137 -5.25263e-05 1.79518e-07
-5.25263e-05 -5.77471e-05 1.25178e-06
1.79518e-07 1.25178e-06 -0.000122152
0.00209196 -1.12404e-05 -4.85621e-06
-1.12404e-05 0.000770969 -4.60186e-06
-4.85621e-06 -4.60186e-06 0.000791452
0.000683471 -6.13976e-06 -1.66538e-07
-6.13976e-06 -3.18872e-05 -6.30323e-09
-1.66538e-07 -6.30323e-09 -3.63771e-05
0.000712208 -7.52927e-06 -3.58339e-07
-7.52927e-06 3.27436e-06 1.8035e-06
-3.58339e-07 1.8035e-06 -3.03234e-05
0.00207851 -1.11254e-07 -2.92549e-06
-1.11254e-07 0.000762504 6.33974e-10
-2.92549e-06 6.33974e-10 0.000783334
0.000683919 4.44465e-07 1.41391e-07
4.44465e-07 -3.20174e-05 3.45093e-06
1.41391e-07 3.45093e-06 -3.61549e-05
0.00208908 1.10876e-05 -4.796e-06
1.10876e-05 0.000769574 4.58274e-06
-4.796e-06 4.58274e-06 0.000790033
0.00106464 -1.34321e-05 -6.23936e-05
-1.34321e-05 -7.19043e-05 2.4855e-05
-6.23936e-05 2.4855e-05 -0.000675288
0.00141165 0.000158264 -6.1032e-06
0.000158264 0.0017396 -6.95025e-06
-6.1032e-06 -6.95025e-06 0.00128282
0.00119694 -0.00017487 -6.45839e-05
-0.00017487 0.00115416 -1.54676e-05
-6.45839e-05 -1.54676e-05 0.000690124
0.000791905 4.10688e-05 7.63228e-09
4.10688e-05 7.83903e-05 4.57091e-07
7.63228e-09 4.57091e-07 -1.34903e-05
0.00251127 -3.49202e-05 -2.66044e-05
-3.49202e-05 0.00105099 5.89469e-05
-2.66044e-05 5.89469e-05 0.000362033
0.00258391 -4.87627e-05 -2.93163e-05
-4.87627e-05 0.000561492 3.38809e-06
-2.93163e-05 3.38809e-06 -0.000423011
0.00131872 0.000392662 8.80436e-05
0.000392662 0.00148147 -7.65078e-05
8.80436e-05 -7.65078e-05 0.0015151
0.00288877 -0.000113887 -9.82496e-06
-0.000113887 6.65161e-05 -1.89922e-05
-9.82496e-06 -1.89922e-05 -0.000192786
0.00930789 0.000260368 4.19772e-05
0.000260368 0.00329798 -3.2391e-05
4.19772e-05 -3.2391e-05 0.00174205
-0.00328901 0.000560246 -1.57882e-05
0.000560246 -0.00305116 3.3502e-05
-1.57882e-05 3.3502e-05 -0.00229168
0.00341086 0.000665569 2.49309e-05
0.000665569 -0.000493968 -1.82165e-06
2.49309e-05 -1.82165e-06 0.000489856
0.00378387 -0.000426738 -6.00285e-05
-0.000426738 0.000273038 1.06464e-06
-6.00285e-05 1.06464e-06 -0.000435687
0.00783492 1.94864e-05 3.30736e-05
1.94864e-05 0.00317463 -1.53575e-05
3.30736e-05 -1.53575e-05 0.0013706
0.00482361 0.000556208 1.49417e-05
0.000556208 0.000284146 -3.48512e-05
1.49417e-05 -3.48512e-05 0.000440348
0.00355215 0.000401428 -1.14608e-05
0.000401428 -0.00148855 9.83412e-07
-1.14608e-05 9.83412e-07 -0.00028925
0.00454899 -0.000760751 -1.94253e-06
-0.000760751 0.000742691 -1.39207e-05
-1.94253e-06 -1.39207e-05 -0.000253664
0.00974273 -0.00032097 5.22651e-05
-0.00032097 0.00471171 -4.58094e-06
5.22651e-05 -4.58094e-06 0.00195114
0.00149444 1.224e-05 2.17018e-05
1.224e-05 -0.000579004 -3.70525e-05
2.17018e-05 -3.70525e-05 -0.00069788
0.00502465 4.61125e-05 -1.19424e-05
4.61125e-05 -0.000600648 4.41729e-05
-1.19424e-05 4.41729e-05 0.00088014
0.000816918 -2.87101e-05 3.66953e-07
-2.87101e-05 9.80851e-05 6.19191e-08
3.66953e-07 6.19191e-08 -9.95216e-06
0.000816097 -3.62669e-05 5.31659e-07
-3.62669e-05 0.000109754 -3.62483e-08
5.31659e-07 -3.62483e-08 1.65379e-06
0.000926972 7.27578e-05 -1.06308e-06
7.27578e-05 0.000173186 2.22015e-07
-1.06308e-06 2.22015e-07 7.39572e-05
0.000785033 3.75412e-06 -3.67577e-07
3.75412e-06 6.49693e-05 9.05287e-08
-3.67577e-07 9.05287e-08 -2.73604e-05
0.000863586 6.13675e-05 -6.63881e-07
6.13675e-05 0.000126364 4.31243e-07
-6.63881e-07 4.31243e-07 2.26109e-05
0.00090432 4.3801e-05 7.95862e-07
4.3801e-05 0.000152037 1.59931e-06
7.95862e-07 1.59931e-06 5.60298e-05
0.000961162 8.17261e-05 -6.62453e-07
8.17261e-05 0.000183025 4.67134e-08
-6.62453e-07 4.67134e-08 8.86596e-05
0.0010042 8.99062e-05 9.34684e-07
8.99062e-05 0.000214313 1.4242e-06
9.34684e-07 1.4242e-06 0.000119723
0.00155923 -0.000178641 3.17472e-05
-0.000178641 0.000225307 -1.44994e-05
3.17472e-05 -1.44994e-05 0.000150775
0.000884935 -0.000230794 9.07103e-06
-0.000230794 -0.000146396 -7.71814e-06
9.07103e-06 -7.71814e-06 -0.000164856
0.000799178 -0.00012539 -7.61495e-07
-0.00012539 0.000112289 3.55978e-07
-7.61495e-07 3.55978e-07 -2.72006e-06
0.00182947 -0.000104403 5.35194e-06
-0.000104403 0.000662959 -9.39042e-06
5.35194e-06 -9.39042e-06 0.000484224
0.00119111 -7.27981e-05 -8.01692e-07
-7.27981e-05 0.00032439 -6.60258e-07
-8.01692e-07 -6.60258e-07 0.000188563
0.000954752 -3.53067e-05 -1.05233e-06
-3.53067e-05 0.000192101 -1.0313e-07
-1.05233e-06 -1.0313e-07 7.39029e-05
0.000867539 1.75113e-05 -6.00506e-08
1.75113e-05 0.000131342 -1.22896e-07
-6.00506e-08 -1.22896e-07 2.07463e-05
0.00068857 -0.000303252 -7.63241e-06
-0.000303252 -0.000276536 5.26871e-07
-7.63241e-06 5.26871e-07 -0.000315621
0.000858429 2.29438e-05 -2.44559e-07
2.29438e-05 0.000134994 -7.10022e-07
-2.44559e-07 -7.10022e-07 3.44819e-06
0.000977882 -4.88098e-05 1.24852e-07
-4.88098e-05 0.000180211 9.32649e-07
1.24852e-07 9.32649e-07 5.70276e-05
0.000426953 -8.68384e-05 7.69062e-07
-8.68384e-05 -5.15013e-05 3.60969e-06
7.69062e-07 3.60969e-06 -0.000120264
0.000782612 6.4443e-06 7.69878e-07
6.4443e-06 6.14799e-05 7.97013e-07
7.69878e-07 7.97013e-07 -3.11841e-05
0.000537337 -0.000277745 4.77579e-05
-0.000277745 -0.000261226 -3.0192e-05
4.77579e-05 -3.0192e-05 -0.00019041
0.000937977 -6.37411e-05 -1.10706e-05
-6.37411e-05 0.000434109 1.92171e-05
-1.10706e-05 1.92171e-05 0.000322453
0.00063664 3.58725e-06 -1.35374e-06
3.58725e-06 -1.58539e-06 6.30417e-06
-1.35374e-06 6.30417e-06 -0.000113515
0.000926773 0.000116423 1.54028e-06
0.000116423 0.000170852 9.09043e-07
1.54028e-06 9.09043e-07 5.34661e-05
0.00138015 -1.84057e-05 -2.12161e-05
-1.84057e-05 0.000280709 -7.86185e-07
-2.12161e-05 -7.86185e-07 9.31177e-05
0.0012875 -2.86189e-05 3.87585e-05
-2.86189e-05 0.000160647 -2.61585e-06
3.87585e-05 -2.61585e-06 -0.000394133
-0.00241937 -4.1527e-05 -1.98654e-05
-4.1527e-05 0.000304526 1.74998e-06
-1.98654e-05 1.74998e-06 -0.0006844
0.00106435 0.000123051 1.62049e-05
0.000123051 0.000392688 4.43913e-06
1.62049e-05 4.43913e-06 0.000309637
9.83138e-05 0.000186049 2.12556e-05
0.000186049 9.21687e-06 1.08109e-05
2.12556e-05 1.08109e-05 -0.000162662
0.00214536 -3.03648e-05 6.50815e-05
-3.03648e-05 0.000679532 1.2574e-05
6.50815e-05 1.2574e-05 0.000148524
0.00771035 -8.76692e-05 8.83341e-05
-8.76692e-05 0.00328605 4.13307e-05
8.83341e-05 4.13307e-05 0.0009426
0.00238206 0.000445611 -7.32399e-05
0.000445611 0.00053904 -8.60821e-05
-7.32399e-05 -8.60821e-05 -0.000318522
0.00306886 -0.000261816 2.34637e-05
-0.000261816 0.000297039 -2.63289e-05
2.34637e-05 -2.63289e-05 -0.000286846
0.00170303 5.2737e-05 2.61805e-05
5.2737e-05 0.000239715 7.81118e-05
2.61805e-05 7.81118e-05 -0.000638595
0.00281635 -6.21388e-06 3.14135e-06
-6.21388e-06 -0.0028494 -3.23031e-05
3.14135e-06 -3.23031e-05 -0.000797012
0.000744697 9.68213e-05 -1.72848e-07
9.68213e-05 0.000296777 -7.60165e-07
-1.72848e-07 -7.60165e-07 0.000214714
0.00123554 -3.35158e-05 -2.8435e-07
-3.35158e-05 0.000182442 -7.65766e-06
-2.8435e-07 -7.65766e-06 -6.50533e-05
0.00217608 1.26399e-05 1.76636e-05
1.26399e-05 0.000437204 5.86647e-06
1.76636e-05 5.86647e-06 -0.000210894
-0.000878868 7.16298e-05 -1.3079e-05
7.16298e-05 -0.000360749 -4.78844e-06
-1.3079e-05 -4.78844e-06 -0.000620997
0.00364045 0.000415579 8.1827e-06
0.000415579 -0.00147308 -6.3397e-07
8.1827e-06 -6.3397e-07 -0.000283731
0.0055598 0.000648267 5.84856e-05
0.000648267 0.00205255 1.64727e-05
5.84856e-05 1.64727e-05 -0.000276538
0.00294541 0.000180056 -4.45497e-05
0.000180056 0.00153862 6.64813e-08
-4.45497e-05 6.64813e-08 0.00100289
0.00061135 0.000130351 -2.24261e-05
0.000130351 0.000301725 -1.10453e-05
-2.24261e-05 -1.10453e-05 0.000164513
0.00159768 5.24544e-06 -7.45209e-07
5.24544e-06 0.000239942 -2.28699e-05
-7.45209e-07 -2.28699e-05 2.88659e-05
0.00262086 -2.72201e-05 2.65992e-05
-2.72201e-05 0.00101961 -5.9514e-05
2.65992e-05 -5.9514e-05 0.000380116
0.00427926 0.000658747 7.44487e-05
0.000658747 -0.000142107 -5.95282e-05
7.44487e-05 -5.95282e-05 0.000841589
0.00304753 0.000131556 -3.55856e-05
0.000131556 -0.000104291 3.54783e-05
-3.55856e-05 3.54783e-05 -4.00411e-05
0.00236125 0.000252004 1.74146e-05
0.000252004 0.000417636 -2.67714e-05
1.74146e-05 -2.67714e-05 0.000467366
0.0015086 0.000156894 8.03994e-05
0.000156894 0.00166423 2.95368e-05
8.03994e-05 2.95368e-05 -0.00174428
0.000659939 9.81886e-05 5.56833e-06
9.81886e-05 4.45783e-05 7.20569e-06
5.56833e-06 7.20569e-06 -4.53704e-06
0.000691527 4.83924e-05 7.94227e-06
4.83924e-05 0.00016821 1.06967e-06
7.94227e-06 1.06967e-06 0.000121295
-0.000120193 5.48971e-06 2.46317e-06
5.48971e-06 -4.98148e-05 -1.45691e-05
2.46317e-06 -1.45691e-05 -0.00013186
0.000709333 1.10648e-05 5.10507e-08
1.10648e-05 8.10532e-06 2.34813e-06
5.10507e-08 2.34813e-06 -7.17371e-05
0.000645127 -3.32109e-05 -2.83152e-07
-3.32109e-05 -2.56082e-06 4.51052e-06
-2.83152e-07 4.51052e-06 -6.78271e-05
0.000541899 -3.28485e-05 -1.7435e-06
-3.28485e-05 -4.37446e-06 1.10303e-05
-1.7435e-06 1.10303e-05 -4.92021e-05
0.000751196 -1.88126e-05 -3.43963e-08
-1.88126e-05 6.10601e-05 -3.46559e-07
-3.43963e-08 -3.46559e-07 -5.59351e-06
0.000530318 -1.41955e-05 2.94703e-06
-1.41955e-05 2.31742e-05 1.97635e-06
2.94703e-06 1.97635e-06 -9.87312e-06
0.000514182 -0.000101724 4.44733e-06
-0.000101724 0.000120677 -5.87327e-06
4.44733e-06 -5.87327e-06 -1.17291e-05
0.000918708 4.49998e-06 -7.337e-07
4.49998e-06 0.000141279 2.55586e-06
-7.337e-07 2.55586e-06 7.4196e-05
0.000742693 4.82159e-05 -1.13029e-06
4.82159e-05 4.24711e-05 1.82727e-06
-1.13029e-06 1.82727e-06 -3.37907e-05
0.00117034 -6.24338e-05 9.9794e-07
-6.24338e-05 0.000307895 1.04784e-06
9.9794e-07 1.04784e-06 0.000221089
0.000227647 -6.93541e-05 4.0555e-06
-6.93541e-05 -0.00011561 1.41178e-06
4.0555e-06 1.41178e-06 -0.000297278
0.000577651 -1.4531e-05 -4.61714e-06
-1.4531e-05 -2.59811e-05 5.62721e-07
-4.61714e-06 5.62721e-07 -0.000101992
0.000328787 -7.83752e-05 1.29617e-06
-7.83752e-05 -0.000152249 -5.59222e-07
1.29617e-06 -5.59222e-07 -0.000285912
0.0010477 -0.000176417 5.10287e-06
-0.000176417 0.000216996 -1.03325e-06
5.10287e-06 -1.03325e-06 1.83686e-05
0.00114435 -0.000191219 -1.49395e-06
-0.000191219 0.000174318 3.93038e-06
-1.49395e-06 3.93038e-06 -2.71701e-05
0.00144066 -0.000110259 -2.35989e-06
-0.000110259 0.00044708 -4.1594e-07
-2.35989e-06 -4.1594e-07 0.00031965
0.000656901 -0.000141621 -3.81641e-07
-0.000141621 -9.82125e-06 1.98327e-08
-3.81641e-07 1.98327e-08 -0.000181466
0.00159317 -0.000205076 1.10921e-06
-0.000205076 0.000493206 -1.52612e-06
1.10921e-06 -1.52612e-06 0.000328144
0.000367776 -9.1082e-05 -1.44122e-06
-9.1082e-05 -0.000121322 -3.28313e-07
-1.44122e-06 -3.28313e-07 -0.000267278
0.000884299 -0.000146204 -1.02319e-07
-0.000146204 0.000126349 6.01321e-07
-1.02319e-07 6.01321e-07 -3.76161e-05
0.000805993 -1.57776e-05 9.5833e-08
-1.57776e-05 9.97716e-05 7.96237e-07
9.5833e-08 7.96237e-07 -1.415e-06
0.00100944 -0.000115593 -2.09263e-06
-0.000115593 0.000230175 1.69392e-06
-2.09263e-06 1.69392e-06 0.000100038
0.000522531 -0.000115838 -1.14595e-06
-0.000115838 -5.814e-05 -9.65917e-07
-1.14595e-06 -9.65917e-07 -0.000215092
0.000727924 4.81774e-05 2.66446e-07
4.81774e-05 3.8466e-05 8.87033e-07
2.66446e-07 8.87033e-07 -3.242e-05
0.000717036 -6.63269e-06 7.12818e-07
-6.63269e-06 4.59085e-05 -1.08118e-07
7.12818e-07 -1.08118e-07 -4.48694e-05
0.000800469 -3.44134e-05 1.03697e-06
-3.44134e-05 0.000109964 -2.68983e-06
1.03697e-06 -2.68983e-06 -2.6433e-06
0.000793632 1.27426e-05 -2.76634e-08
1.27426e-05 8.3094e-05 -5.49989e-07
-2.76634e-08 -5.49989e-07 4.63472e-06
0.000760761 1.38435e-05 -5.20476e-07
1.38435e-05 4.92702e-05 -1.495e-07
-5.20476e-07 -1.495e-07 -1.41058e-05
0.000706193 4.21834e-05 -1.55411e-06
4.21834e-05 1.09752e-05 1.4784e-06
-1.55411e-06 1.4784e-06 -3.21314e-05
0.00078837 -2.06323e-05 8.55214e-07
-2.06323e-05 6.32625e-05 -5.96862e-07
8.55214e-07 -5.96862e-07 1.11878e-06
0.000717557 3.34062e-05 -1.29327e-07
3.34062e-05 1.05543e-05 4.00973e-09
-1.29327e-07 4.00973e-09 -3.03842e-05
0.000645351 3.98916e-05 -1.1151e-06
3.98916e-05 -3.0639e-05 3.53432e-06
-1.1151e-06 3.53432e-06 -4.30564e-05
0.000731851 2.11769e-05 1.47997e-06
2.11769e-05 1.32414e-05 -1.55371e-06
1.47997e-06 -1.55371e-06 -2.63693e-05
0.000656705 3.40583e-05 1.21671e-07
3.40583e-05 -3.12188e-05 2.9637e-08
1.21671e-07 2.9637e-08 -4.2122e-05
0.00211352 5.53841e-05 -4.67604e-06
5.53841e-05 0.000800941 1.67046e-06
-4.67604e-06 1.67046e-06 0.000815625
0.000650346 2.75805e-05 7.81879e-07
2.75805e-05 -4.05606e-05 -3.50299e-06
7.81879e-07 -3.50299e-06 -5.04393e-05
0.00151838 3.53209e-05 8.1114e-06
3.53209e-05 0.000456455 -1.16732e-06
8.1114e-06 -1.16732e-06 0.000469698
0.00222719 3.30522e-05 1.27986e-05
3.30522e-05 0.000854457 -4.31981e-06
1.27986e-05 -4.31981e-06 0.000871864
0.000589176 -1.35542e-05 -1.56723e-07
-1.35542e-05 -4.93542e-05 -1.06095e-06
-1.56723e-07 -1.06095e-06 -0.000120378
0.00044911 -1.10311e-05 -3.65053e-07
-1.10311e-05 -0.000144205 -2.51651e-06
-3.65053e-07 -2.51651e-06 -0.000187542
0.000717822 6.70954e-06 -3.58423e-07
6.70954e-06 3.02582e-05 -6.20058e-07
-3.58423e-07 -6.20058e-07 -4.1804e-05
0.000674805 -1.94507e-05 -2.76968e-07
-1.94507e-05 -3.24063e-05 -3.635e-06
-2.76968e-07 -3.635e-06 -4.02042e-05
0.000449876 -9.52294e-06 -1.19718e-07
-9.52294e-06 -0.000143698 -7.83344e-07
-1.19718e-07 -7.83344e-07 -0.000184056
0.00086215 8.94495e-06 -6.16448e-08
8.94495e-06 0.000115189 1.10305e-06
-6.16448e-08 1.10305e-06 4.6461e-05
0.00213278 -2.16727e-05 -8.91808e-06
-2.16727e-05 0.000796337 -4.55797e-06
-8.91808e-06 -4.55797e-06 0.000815836
0.000680084 -1.26095e-05 -1.26093e-07
-1.26095e-05 -3.22182e-05 -2.1661e-08
-1.26093e-07 -2.1661e-08 -3.79352e-05
0.000440619 -8.46847e-06 1.43348e-07
-8.46847e-06 -0.000148735 1.85133e-06
1.43348e-07 1.85133e-06 -0.000186382
0.00208696 -1.03456e-05 -3.03231e-06
-1.03456e-05 0.000767914 2.9456e-08
-3.03231e-06 2.9456e-08 0.000788499
0.000683778 -5.90072e-06 2.14224e-07
-5.90072e-06 -3.16999e-05 3.44526e-06
2.14224e-07 3.44526e-06 -3.61592e-05
0.00207964 8.1034e-07 -3.23053e-07
8.1034e-07 0.000763136 4.61762e-06
-3.23053e-07 4.61762e-06 0.000783949
0.00148992 2.13712e-05 -1.56355e-05
2.13712e-05 0.000393357 1.83949e-05
-1.56355e-05 1.83949e-05 0.000152605
0.00151814 -8.5762e-07 9.3494e-06
-8.5762e-07 0.000227912 -2.92075e-06
9.3494e-06 -2.92075e-06 -0.000374597
0.00173107 0.000121115 4.08405e-05
0.000121115 0.00193227 -2.46482e-05
4.08405e-05 -2.46482e-05 0.00153557
0.000838508 4.3224e-05 2.28573e-08
4.3224e-05 9.97697e-05 1.82997e-07
2.28573e-08 1.82997e-07 1.21692e-05
0.000735445 1.22225e-05 1.24742e-07
1.22225e-05 3.33713e-05 4.62631e-07
1.24742e-07 4.62631e-07 -4.84244e-05
0.000901678 6.33421e-05 -1.0799e-07
6.33421e-05 0.000132736 1.09083e-06
-1.0799e-07 1.09083e-06 4.05515e-05
0.001689 -1.41372e-06 1.66526e-06
-1.41372e-06 8.79008e-05 9.41732e-05
1.66526e-06 9.41732e-05 -0.000706861
0.00253459 -2.1564e-05 -5.39847e-06
-2.1564e-05 0.00103564 1.07524e-06
-5.39847e-06 1.07524e-06 0.000349821
0.0028294 -6.32367e-05 4.80438e-05
-6.32367e-05 0.000756905 -6.78033e-05
4.80438e-05 -6.78033e-05 -0.000285902
0.00451183 -0.000453999 -5.10795e-05
-0.000453999 0.00084583 -2.27541e-07
-5.10795e-05 -2.27541e-07 0.000120132
0.000909573 -0.000199373 -6.68433e-05
-0.000199373 -7.47759e-05 3.471e-05
-6.68433e-05 3.471e-05 -0.0021557
0.00615501 0.00070355 6.29821e-05
0.00070355 0.00168606 -9.4758e-07
6.29821e-05 -9.4758e-07 0.00162045
0.00139015 0.000231643 1.76955e-05
0.000231643 -0.00278711 -4.466e-05
1.76955e-05 -4.466e-05 -0.00154778
0.00499259 -0.000787514 -7.87125e-06
-0.000787514 0.00131581 5.06195e-06
-7.87125e-06 5.06195e-06 0.00059798
0.00560382 -0.000328252 8.1053e-06
-0.000328252 0.00242733 2.50334e-07
8.1053e-06 2.50334e-07 9.50283e-05
-0.00132026 0.000167048 -8.64194e-06
0.000167048 -0.00081808 -3.38112e-05
-8.64194e-06 -3.38112e-05 -0.00139075
0.00387859 -6.08868e-06 -9.21329e-06
-6.08868e-06 -0.00169596 1.41221e-05
-9.21329e-06 1.41221e-05 2.39312e-05
0.00253487 -0.000590991 -2.55802e-05
-0.000590991 5.81756e-05 -2.78351e-05
-2.55802e-05 -2.78351e-05 -0.000568127
0.0103559 -0.000618147 4.05073e-05
-0.000618147 0.00479216 2.3933e-05
4.05073e-05 2.3933e-05 0.00201371
-0.00655597 1.22442e-05 4.33668e-05
1.22442e-05 -0.00107202 -6.20454e-05
4.33668e-05 -6.20454e-05 -0.00210946
0.00208223 -0.000355749 -1.39936e-08
-0.000355749 -0.00195897 1.87583e-07
-1.39936e-08 1.87583e-07 -0.000683488
0.000829378 2.21654e-05 -1.83218e-07
2.21654e-05 9.004e-05 1.03228e-06
-1.83218e-07 1.03228e-06 -9.60864e-06
0.000805423 -6.93594e-06 1.1236e-07
-6.93594e-06 9.2248e-05 -1.68666e-07
1.1236e-07 -1.68666e-07 -1.67289e-05
0.000819669 -4.97319e-05 3.24675e-07
-4.97319e-05 0.000113632 -8.62344e-09
3.24675e-07 -8.62344e-09 3.61076e-06
0.000816327 2.71025e-05 -3.97499e-07
2.71025e-05 8.35815e-05 -3.56893e-07
-3.97499e-07 -3.56893e-07 -1.03518e-05
0.000973529 0.000101923 1.32015e-06
0.000101923 0.000187001 4.58932e-07
1.32015e-06 4.58932e-07 8.46211e-05
0.00103551 9.23261e-05 -4.12656e-07
9.23261e-05 0.000225412 2.80834e-07
-4.12656e-07 2.80834e-07 0.000129854
0.00157662 -0.000350994 3.69338e-06
-0.000350994 0.000174755 5.84285e-06
3.69338e-06 5.84285e-06 9.21897e-05
-0.000685806 -6.001e-05 9.79877e-06
-6.001e-05 -0.000659266 -1.11099e-05
9.79877e-06 -1.11099e-05 -0.000694564
0.000996385 6.05427e-05 -2.49322e-08
6.05427e-05 0.000209982 -4.04249e-08
-2.49322e-08 -4.04249e-08 9.38067e-05
0.00135579 -9.98304e-05 1.1004e-05
-9.98304e-05 0.000365085 -1.49998e-05
1.1004e-05 -1.49998e-05 0.000240647
0.000916208 9.41432e-06 -8.20514e-08
9.41432e-06 0.000169257 -1.84829e-06
-8.20514e-08 -1.84829e-06 4.18906e-05
0.000791089 9.16949e-06 2.50942e-07
9.16949e-06 6.62535e-05 -1.89285e-07
2.50942e-07 -1.89285e-07 -3.04682e-05
0.000886626 6.75758e-05 7.52441e-07
6.75758e-05 0.000146145 -3.85046e-07
7.52441e-07 -3.85046e-07 3.61649e-05
0.000463973 -0.000265426 -4.35373e-06
-0.000265426 -0.000303799 -2.39971e-06
-4.35373e-06 -2.39971e-06 -0.000310127
0.000979271 -3.34563e-05 1.4736e-06
-3.34563e-05 0.000197119 -3.16635e-06
1.4736e-06 -3.16635e-06 9.34788e-05
0.000411185 -3.152e-05 1.60001e-05
-3.152e-05 0.000157563 -2.03693e-07
1.60001e-05 -2.03693e-07 4.87187e-05
0.000924664 3.69893e-05 1.98395e-06
3.69893e-05 0.000153551 9.04359e-07
1.98395e-06 9.04359e-07 6.18518e-05
-0.0021952 4.82611e-05 -1.11468e-05
4.82611e-05 -0.0010534 -2.77236e-05
-1.11468e-05 -2.77236e-05 -0.0013717
0.000909845 -8.90215e-06 1.53312e-06
-8.90215e-06 0.000381052 2.10607e-05
1.53312e-06 2.10607e-05 0.000326361
0.000974945 4.01398e-06 1.7341e-06
4.01398e-06 0.000229691 2.66323e-06
1.7341e-06 2.66323e-06 0.000141787
0.00168371 -1.26579e-05 -2.18003e-06
-1.26579e-05 0.000255071 -1.28521e-07
-2.18003e-06 -1.28521e-07 0.00014209
0.00113915 -1.43777e-05 -8.30408e-06
-1.43777e-05 0.000150328 -2.23006e-06
-8.30408e-06 -2.23006e-06 -1.45257e-05
0.00113566 -3.44286e-05 0.000113704
-3.44286e-05 0.000100644 -1.92026e-06
0.000113704 -1.92026e-06 -0.000463091
0.00104117 0.000144577 1.93452e-05
0.000144577 0.000451735 1.30911e-05
1.93452e-05 1.30911e-05 0.000360329
0.00325026 0.000375869 -4.92438e-07
0.000375869 0.00132224 -1.6403e-05
-4.92438e-07 -1.6403e-05 0.0011593
0.00129889 -3.07562e-05 1.09691e-05
-3.07562e-05 0.000221388 7.62786e-06
1.09691e-05 7.62786e-06 -1.27424e-05
-8.23133e-05 0.000332002 3.41668e-06
0.000332002 -0.000158842 8.83411e-06
3.41668e-06 8.83411e-06 -0.00247807
-0.00878847 2.28293e-05 -3.44402e-05
2.28293e-05 -0.00356924 -4.92552e-05
-3.44402e-05 -4.92552e-05 -0.00465342
0.00250029 2.05439e-05 2.10807e-05
2.05439e-05 0.000759991 4.98329e-05
2.10807e-05 4.98329e-05 0.000241051
0.00155438 0.000273591 -1.59756e-05
0.000273591 -0.00273806 4.53828e-05
-1.59756e-05 4.53828e-05 -0.00149014
0.000401999 9.1086e-05 2.30698e-06
9.1086e-05 0.000217199 -7.31303e-07
2.30698e-06 -7.31303e-07 9.29881e-05
0.0013709 -3.70875e-06 5.19508e-06
-3.70875e-06 0.00011893 -9.61756e-06
5.19508e-06 -9.61756e-06 -6.58585e-05
0.0025963 -1.7428e-05 5.399e-06
-1.7428e-05 0.000989732 -1.28106e-06
5.399e-06 -1.28106e-06 0.000336625
0.00099967 0.000201004 2.75779e-05
0.000201004 -0.0003088 -1.86213e-06
2.75779e-05 -1.86213e-06 -0.000532061
0.00194019 0.000618257 2.25494e-05
0.000618257 -0.00148463 -5.15828e-05
2.25494e-05 -5.15828e-05 -0.0004512
-0.00110145 0.000175328 8.5297e-06
0.000175328 -0.0012777 3.02486e-05
8.5297e-06 3.02486e-05 -0.00145405
0.00639696 4.78834e-05 5.86297e-05
4.78834e-05 0.00376636 -1.87114e-05
5.86297e-05 -1.87114e-05 0.000232712
3.34195e-05 1.61996e-05 1.3205e-05
1.61996e-05 0.000258345 -1.10435e-05
1.3205e-05 -1.10435e-05 -6.19876e-06
0.00144899 2.19117e-05 1.36826e-05
2.19117e-05 0.000344475 -1.84701e-05
1.36826e-05 -1.84701e-05 0.000112478
0.00252768 -2.45995e-05 0.000104686
-2.45995e-05 0.000384534 -8.46444e-05
0.000104686 -8.46444e-05 -0.000487009
0.00257933 0.000853904 1.61098e-06
0.000853904 0.00114402 -1.10249e-05
1.61098e-06 -1.10249e-05 0.0022146
-0.00605062 0.000250161 4.48912e-05
0.000250161 -0.00469024 9.61893e-05
4.48912e-05 9.61893e-05 -0.00441139
0.0101736 -0.000344782 4.26405e-05
-0.000344782 0.00432135 -5.9671e-05
4.26405e-05 -5.9671e-05 0.00159652
0.00482857 -0.000312806 -8.04511e-05
-0.000312806 0.00129276 0.000116635
-8.04511e-05 0.000116635 0.00131726
0.00103299 4.77506e-05 2.85301e-06
4.77506e-05 0.00036836 6.1698e-06
2.85301e-06 6.1698e-06 0.00031963
4.99542e-05 -1.54368e-05 -4.49806e-06
-1.54368e-05 1.37375e-05 -1.33581e-06
-4.49806e-06 -1.33581e-06 -7.52876e-05
-0.000182386 -0.000119464 6.71316e-06
-0.000119464 -2.67063e-05 -1.25252e-05
6.71316e-06 -1.25252e-05 -0.00022755
0.000747001 -3.20371e-05 3.62218e-07
-3.20371e-05 6.08051e-05 1.91458e-06
3.62218e-07 1.91458e-06 -8.32278e-06
0.000693678 -1.22166e-05 1.26006e-05
-1.22166e-05 0.000103802 1.2848e-05
1.26006e-05 1.2848e-05 7.2492e-05
0.000416049 -5.11831e-05 -1.19574e-06
-5.11831e-05 6.67645e-05 7.10011e-08
-1.19574e-06 7.10011e-08 -5.05588e-05
0.00115875 -0.000173342 1.90724e-05
-0.000173342 0.000481658 -1.26275e-05
1.90724e-05 -1.26275e-05 0.00024777
0.00168639 -8.87507e-05 -2.80161e-06
-8.87507e-05 0.000582961 2.39781e-06
-2.80161e-06 2.39781e-06 0.000489755
0.0013292 -0.000172094 1.19868e-06
-0.000172094 0.00044452 4.41519e-07
1.19868e-06 4.41519e-07 0.000257865
0.0010164 -0.000189764 7.84015e-06
-0.000189764 0.000273853 2.31698e-06
7.84015e-06 2.31698e-06 -2.21777e-05
0.000133481 -6.8525e-05 -2.22272e-06
-6.8525e-05 -0.000256406 -1.64492e-06
-2.22272e-06 -1.64492e-06 -0.00037941
0.00106334 -0.000175326 -3.42506e-07
-0.000175326 0.000217007 1.0381e-06
-3.42506e-07 1.0381e-06 1.21637e-05
0.00220228 -0.000290976 2.10683e-06
-0.000290976 0.000732774 1.34212e-06
2.10683e-06 1.34212e-06 0.000482523
0.00164633 -0.000255475 -2.65112e-06
-0.000255475 0.000310051 1.17743e-06
-2.65112e-06 1.17743e-06 8.81768e-05
0.000581317 -0.000143439 -2.08552e-07
-0.000143439 -0.000108695 5.23213e-06
-2.08552e-07 5.23213e-06 -0.000287956
0.00126597 -0.000200301 -2.15282e-06
-0.000200301 0.000241783 1.40921e-06
-2.15282e-06 1.40921e-06 3.77765e-05
0.000918007 -0.000161746 -3.42987e-06
-0.000161746 0.000126579 5.49203e-07
-3.42987e-06 5.49203e-07 -5.07761e-05
0.00133219 -0.000180787 2.90359e-06
-0.000180787 0.000369809 -2.63306e-06
2.90359e-06 -2.63306e-06 0.000214033
0.00116779 -0.000171597 2.54232e-06
-0.000171597 0.000264207 -2.19137e-06
2.54232e-06 -2.19137e-06 0.000108703
0.000588486 -4.63007e-05 1.17501e-06
-4.63007e-05 -1.01822e-05 1.1267e-06
1.17501e-06 1.1267e-06 -0.000135319
0.000767117 -0.000117195 1.06349e-06
-0.000117195 9.979e-05 -3.31256e-07
1.06349e-06 -3.31256e-07 -4.72375e-05
0.00109637 -0.000160317 4.65926e-06
-0.000160317 0.000243361 -2.82372e-06
4.65926e-06 -2.82372e-06 8.21228e-05
0.000730302 5.81302e-05 9.75737e-07
5.81302e-05 4.90627e-05 1.31164e-06
9.75737e-07 1.31164e-06 -3.50829e-05
0.000878507 -3.68064e-05 -2.11549e-07
-3.68064e-05 0.000141723 -8.82794e-08
-2.11549e-07 -8.82794e-08 3.70506e-05
0.00101024 -0.000111314 -6.38798e-07
-0.000111314 0.000228948 -2.83696e-07
-6.38798e-07 -2.83696e-07 9.86072e-05
0.000681814 5.33414e-05 -8.898e-07
5.33414e-05 6.44234e-06 1.59856e-06
-8.898e-07 1.59856e-06 -4.15067e-05
0.000760307 2.31944e-05 -7.01698e-07
2.31944e-05 5.48216e-05 -2.81048e-07
-7.01698e-07 -2.81048e-07 -1.59352e-05
0.000587533 3.03592e-07 -1.96771e-07
3.03592e-07 -2.40176e-05 -8.84964e-07
-1.96771e-07 -8.84964e-07 -0.000115939
0.000794878 -9.91768e-06 7.25282e-07
-9.91768e-06 6.78745e-05 -9.40263e-07
7.25282e-07 -9.40263e-07 4.03453e-06
0.000711234 4.00357e-05 -2.7602e-07
4.00357e-05 1.34157e-05 -4.52219e-08
-2.7602e-07 -4.52219e-08 -2.95517e-05
0.000629349 4.60594e-05 -1.27977e-06
4.60594e-05 -3.11517e-05 3.54838e-06
-1.27977e-06 3.54838e-06 -4.57537e-05
0.000723678 3.0803e-05 1.54504e-06
3.0803e-05 1.31785e-05 -1.58132e-06
1.54504e-06 -1.58132e-06 -2.74771e-05
0.000649762 4.07257e-05 7.85532e-08
4.07257e-05 -2.81859e-05 1.65288e-08
7.85532e-08 1.65288e-08 -4.06444e-05
0.00215077 6.01711e-05 -2.24287e-05
6.01711e-05 0.000828889 3.639e-06
-2.24287e-05 3.639e-06 0.000842451
0.000653135 3.46376e-05 9.00379e-07
3.46376e-05 -3.34404e-05 -3.50872e-06
9.00379e-07 -3.50872e-06 -4.4337e-05
0.00150131 4.3906e-05 9.48755e-06
4.3906e-05 0.000453792 -1.02965e-06
9.48755e-06 -1.02965e-06 0.000465613
0.00220702 4.30925e-05 1.64122e-05
4.30925e-05 0.000848427 -4.05852e-06
1.64122e-05 -4.05852e-06 0.000864744
0.00076412 3.58566e-05 -5.67535e-07
3.58566e-05 4.72404e-05 -4.11876e-07
-5.67535e-07 -4.11876e-07 -2.43163e-05
0.000707848 -7.08676e-06 -6.76886e-07
-7.08676e-06 2.05586e-08 -1.82362e-06
-6.76886e-07 -1.82362e-06 -4.38613e-05
0.000669408 2.40139e-05 -8.2272e-07
2.40139e-05 1.1192e-06 -5.50101e-07
-8.2272e-07 -5.50101e-07 -7.32601e-05
0.000662494 -2.61888e-05 -1.53115e-07
-2.61888e-05 -3.52318e-05 -3.75637e-06
-1.53115e-07 -3.75637e-06 -4.55459e-05
0.000573956 -7.28357e-06 -5.35614e-07
-7.28357e-06 -7.44518e-05 -7.84315e-07
-5.35614e-07 -7.84315e-07 -0.000116813
0.000865369 1.23427e-05 1.84948e-07
1.23427e-05 0.000113153 1.38883e-07
1.84948e-07 1.38883e-07 4.17415e-05
0.00219319 -3.2207e-05 -1.31176e-05
-3.2207e-05 0.000834049 -4.46074e-06
-1.31176e-05 -4.46074e-06 0.000852069
0.000672616 -1.90729e-05 -1.98403e-07
-1.90729e-05 -3.36619e-05 -1.84506e-08
-1.98403e-07 -1.84506e-08 -4.13734e-05
0.000426915 -9.94599e-06 -1.27443e-07
-9.94599e-06 -0.000156647 1.13087e-06
-1.27443e-07 1.13087e-06 -0.000197378
0.00212232 -2.07459e-05 -2.85069e-06
-2.07459e-05 0.000789999 5.95584e-08
-2.85069e-06 5.95584e-08 0.000809707
0.000679584 -1.23551e-05 3.06747e-07
-1.23551e-05 -3.24215e-05 3.51687e-06
3.06747e-07 3.51687e-06 -3.80988e-05
0.00208483 -9.44177e-06 4.04398e-06
-9.44177e-06 0.000766487 4.61184e-06
4.04398e-06 4.61184e-06 0.000787136
0.0015501 -7.68131e-06 -3.3329e-06
-7.68131e-06 0.000241278 2.37972e-05
-3.3329e-06 2.37972e-05 9.91836e-08
0.00139365 1.64643e-05 -3.99161e-06
1.64643e-05 0.00032327 6.94566e-07
-3.99161e-06 6.94566e-07 6.18856e-05
0.00167598 6.92531e-06 8.08598e-05
6.92531e-06 0.000368807 -2.09277e-05
8.08598e-05 -2.09277e-05 -0.00024842
0.000710585 -2.68704e-05 5.24381e-08
-2.68704e-05 1.46883e-05 -1.43971e-07
5.24381e-08 -1.43971e-07 -6.21353e-05
0.000873919 3.48747e-06 -6.09778e-07
3.48747e-06 0.000114279 -3.98051e-07
-6.09778e-07 -3.98051e-07 3.03191e-05
0.000860488 3.97498e-05 1.24979e-06
3.97498e-05 0.000111208 -7.79585e-08
1.24979e-06 -7.79585e-08 2.56918e-05
0.000740242 -2.57146e-06 1.43568e-07
-2.57146e-06 3.14951e-05 8.48072e-08
1.43568e-07 8.48072e-08 -4.69022e-05
0.000820405 2.23616e-05 -5.1209e-08
2.23616e-05 8.67862e-05 2.26227e-07
-5.1209e-08 2.26227e-07 -4.49004e-06
0.0008446 2.54066e-06 -8.99309e-07
2.54066e-06 9.76051e-05 5.08199e-07
-8.99309e-07 5.08199e-07 1.22906e-05
0.000894531 0.000132097 8.93735e-07
0.000132097 0.000140895 1.00116e-06
8.93735e-07 1.00116e-06 3.68871e-05
0.00107798 1.8835e-05 2.86141e-05
1.8835e-05 0.000205143 9.06365e-05
2.86141e-05 9.06365e-05 -0.000651105
0.00208104 6.64403e-06 -4.28742e-06
6.64403e-06 0.000462038 2.73137e-05
-4.28742e-06 2.73137e-05 -0.00019086
0.00248418 -7.48711e-06 1.53957e-05
-7.48711e-06 0.000983051 -5.27491e-05
1.53957e-05 -5.27491e-05 0.00029324
0.00272372 -3.67664e-05 -1.06435e-05
-3.67664e-05 -0.00281277 2.09373e-06
-1.06435e-05 2.09373e-06 -0.000856036
0.00349977 -0.000678556 -2.94014e-05
-0.000678556 0.000832512 5.59525e-05
-2.94014e-05 5.59525e-05 -5.26704e-05
-0.00122593 -0.000489715 3.87622e-05
-0.000489715 -0.000808372 1.35391e-05
3.87622e-05 1.35391e-05 -0.00328613
0.00554752 0.000699879 4.14332e-05
0.000699879 0.00305031 -2.63124e-05
4.14332e-05 -2.63124e-05 0.00192438
0.00449966 -0.000754328 -1.53979e-05
-0.000754328 0.00100805 3.07461e-06
-1.53979e-05 3.07461e-06 0.000236937
0.000446741 -0.000325354 4.21576e-05
-0.000325354 0.000326719 -9.13401e-06
4.21576e-05 -9.13401e-06 -0.00235641
0.00375946 -6.75311e-05 -3.00047e-05
-6.75311e-05 0.00182339 1.65862e-06
-3.00047e-05 1.65862e-06 0.00127482
0.00621465 -0.000484283 -1.69619e-05
-0.000484283 0.000641509 -2.35141e-05
-1.69619e-05 -2.35141e-05 0.001868
0.00248282 -0.000111932 -3.76779e-05
-0.000111932 -4.58862e-05 2.34827e-05
-3.76779e-05 2.34827e-05 1.39313e-05
0.00033745 0.000180153 2.98826e-05
0.000180153 -7.51564e-05 -6.62199e-05
2.98826e-05 -6.62199e-05 -0.00240279
-0.00580865 -0.000625242 3.71824e-05
-0.000625242 -0.00397702 -2.60776e-05
3.71824e-05 -2.60776e-05 -0.00494404
0.0014709 -0.000486332 1.80566e-05
-0.000486332 -0.00170574 -6.81521e-05
1.80566e-05 -6.81521e-05 -0.000376319
0.000862748 -2.32252e-05 -6.3039e-07
-2.32252e-05 0.000109056 1.73916e-06
-6.3039e-07 1.73916e-06 2.6318e-05
0.000795166 2.11574e-05 1.51249e-07
2.11574e-05 7.21313e-05 9.09118e-08
1.51249e-07 9.09118e-08 -2.75078e-05
0.000782363 7.06383e-06 -4.82016e-07
7.06383e-06 8.3896e-05 -1.09259e-06
-4.82016e-07 -1.09259e-06 -2.82454e-05
0.000834788 2.9854e-05 -5.14698e-08
2.9854e-05 0.000100138 -1.36719e-06
-5.14698e-08 -1.36719e-06 1.40783e-06
0.00119453 -0.000306781 2.31142e-07
-0.000306781 1.96482e-05 1.83516e-05
2.31142e-07 1.83516e-05 -4.04742e-05
0.0005101 -1.69334e-05 -5.19673e-06
-1.69334e-05 0.000214557 -1.50683e-05
-5.19673e-06 -1.50683e-05 0.000118035
0.000733932 -8.34798e-06 -3.08436e-07
-8.34798e-06 2.75243e-05 -1.95158e-06
-3.08436e-07 -1.95158e-06 -6.68788e-05
0.000898691 8.64288e-05 -3.98162e-07
8.64288e-05 0.000159618 -1.17382e-06
-3.98162e-07 -1.17382e-06 4.66045e-05
0.00174441 -4.79877e-05 9.44539e-06
-4.79877e-05 0.000639531 -1.51706e-05
9.44539e-06 -1.51706e-05 0.000532147
0.00080256 1.77284e-05 -5.41069e-07
1.77284e-05 8.36693e-05 -1.00663e-07
-5.41069e-07 -1.00663e-07 -6.86511e-06
0.000784434 1.73201e-05 -8.86452e-07
1.73201e-05 0.000126793 -1.15402e-06
-8.86452e-07 -1.15402e-06 3.66279e-05
-0.000582026 -1.68709e-06 -8.41283e-06
-1.68709e-06 -0.000290966 -1.06622e-05
-8.41283e-06 -1.06622e-05 -0.000656992
0.00109739 -3.53511e-05 1.26503e-05
-3.53511e-05 0.00051092 3.06832e-07
1.26503e-05 3.06832e-07 0.000466193
0.00064897 1.54452e-05 2.01246e-06
1.54452e-05 4.73827e-05 5.22178e-07
2.01246e-06 5.22178e-07 -3.44343e-05
0.000632643 -4.9656e-06 -1.89567e-05
-4.9656e-06 0.00086196 -5.19546e-05
-1.89567e-05 -5.19546e-05 -0.000136389
0.00227676 2.22556e-05 4.79516e-06
2.22556e-05 0.00109868 1.4636e-05
4.79516e-06 1.4636e-05 0.00101253
0.00142195 -1.4797e-05 1.83811e-05
-1.4797e-05 0.000309402 1.01998e-06
1.83811e-05 1.01998e-06 0.000122405
0.00126513 -1.19298e-05 -5.84082e-07
-1.19298e-05 6.53575e-05 -1.52366e-07
-5.84082e-07 -1.52366e-07 -2.7241e-05
0.000948728 -1.08781e-05 4.12104e-06
-1.08781e-05 6.09969e-05 -2.19037e-06
4.12104e-06 -2.19037e-06 -8.28618e-05
0.000342532 7.30242e-05 8.73973e-06
7.30242e-05 0.000195614 7.18789e-06
8.73973e-06 7.18789e-06 8.80324e-05
0.0010039 0.000173867 -4.47405e-05
0.000173867 -0.000155326 2.29207e-05
-4.47405e-05 2.29207e-05 -0.000205588
0.00115891 -9.28197e-06 8.18128e-06
-9.28197e-06 1.12868e-05 5.01227e-06
8.18128e-06 5.01227e-06 -0.000150061
0.00317144 -0.000445751 0.000143068
-0.000445751 0.00225067 -0.000117331
0.000143068 -0.000117331 -0.000943725
0.00619373 0.000746392 -3.54778e-05
0.000746392 0.00286603 2.59543e-05
-3.54778e-05 2.59543e-05 0.00196968
0.00254247 -1.02648e-05 -1.74198e-05
-1.02648e-05 0.000941619 5.39289e-05
-1.74198e-05 5.39289e-05 0.000273948
0.00352668 0.000661771 -2.01679e-05
0.000661771 -0.000486722 3.73171e-06
-2.01679e-05 3.73171e-06 0.000481472
-0.000538315 3.82275e-06 1.61648e-05
3.82275e-06 -1.55907e-06 1.40097e-06
1.61648e-05 1.40097e-06 -0.000319784
0.00141157 1.78288e-05 4.60607e-06
1.78288e-05 0.000309878 -5.33976e-07
4.60607e-06 -5.33976e-07 6.59426e-05
0.00264842 -4.80447e-05 2.9404e-05
-4.80447e-05 0.000517988 -3.04091e-06
2.9404e-05 -3.04091e-06 -0.000431385
0.00115818 -9.71285e-05 -1.28384e-05
-9.71285e-05 -0.000616462 2.53488e-05
-1.28384e-05 2.53488e-05 -0.00037208
-0.00125091 0.000898913 3.05466e-05
0.000898913 -0.00109557 -1.07237e-05
3.05466e-05 -1.07237e-05 0.000381656
0.00500352 0.000581035 -1.24779e-05
0.000581035 0.000317024 3.35845e-05
-1.24779e-05 3.35845e-05 0.000576341
-0.00108428 -0.000513762 4.98312e-05
-0.000513762 -0.000220271 -3.431e-05
4.98312e-05 -3.431e-05 -0.00356735
0.000800302 -2.1671e-05 4.71004e-05
-2.1671e-05 0.000315818 -7.76741e-06
4.71004e-05 -7.76741e-06 0.000235575
0.00106774 -1.57826e-05 5.81507e-05
-1.57826e-05 -0.000105562 -2.45586e-05
5.81507e-05 -2.45586e-05 -0.000711011
-0.00148209 0.000215359 -5.73486e-05
0.000215359 6.54132e-05 -2.19672e-05
-5.73486e-05 -2.19672e-05 -0.000348427
8.17088e-05 0.000720871 -5.34679e-05
0.000720871 -0.000507847 8.44003e-05
-5.34679e-05 8.44003e-05 -2.20269e-05
0.00810021 -1.66729e-05 1.49501e-05
-1.66729e-05 0.00362232 -3.03924e-05
1.49501e-05 -3.03924e-05 0.00104189
0.00283639 -0.000300387 -7.7151e-05
-0.000300387 0.000298683 7.46484e-05
-7.7151e-05 7.46484e-05 -1.5713e-05
0.000129907 -2.8708e-05 -1.29516e-05
-2.8708e-05 3.41392e-05 1.10661e-05
-1.29516e-05 1.10661e-05 -6.92917e-05
0.000122657 -7.31768e-05 5.39595e-07
-7.31768e-05 0.000141554 -5.43439e-07
5.39595e-07 -5.43439e-07 -4.77702e-05
0.000991108 -0.000186098 1.88129e-05
-0.000186098 0.000362678 -8.39489e-06
1.88129e-05 -8.39489e-06 0.000233544
0.000339021 -2.29407e-06 -3.83606e-06
-2.29407e-06 2.47002e-05 3.98907e-06
-3.83606e-06 3.98907e-06 -7.82935e-05
-0.000197061 -9.03487e-05 6.73196e-07
-9.03487e-05 -0.00020433 -3.28055e-06
6.73196e-07 -3.28055e-06 -0.000445563
0.00171529 -0.00027882 1.96046e-05
-0.00027882 0.000482023 -3.93326e-06
1.96046e-05 -3.93326e-06 0.000253806
0.00242739 -0.000276591 -5.08862e-06
-0.000276591 0.00100337 9.19741e-07
-5.08862e-06 9.19741e-07 0.000810052
0.00155955 -0.000224047 1.91197e-06
-0.000224047 0.000534553 1.12152e-06
1.91197e-06 1.12152e-06 0.000249702
0.000812569 -0.000222026 4.34137e-06
-0.000222026 -6.63874e-05 -4.32726e-06
4.34137e-06 -4.32726e-06 -0.000329426
0.00111605 -0.000177612 -4.36389e-06
-0.000177612 0.000236323 1.62304e-07
-4.36389e-06 1.62304e-07 2.59572e-05
0.00194202 -0.000271894 1.41465e-06
-0.000271894 0.000585961 -2.17534e-08
1.41465e-06 -2.17534e-08 0.000335281
0.00155846 -0.000264739 2.43029e-06
-0.000264739 0.000218702 -4.16404e-06
2.43029e-06 -4.16404e-06 -1.17713e-05
0.00156314 -0.000245674 7.75569e-07
-0.000245674 0.000138 -2.45033e-06
7.75569e-07 -2.45033e-06 -4.65864e-05
0.00228135 -0.000287665 -4.65558e-06
-0.000287665 0.000689832 5.49372e-06
-4.65558e-06 5.49372e-06 0.00047481
0.00167259 -0.00025817 -1.05979e-06
-0.00025817 0.000318248 -1.94951e-07
-1.05979e-06 -1.94951e-07 9.15639e-05
0.000412994 -0.000127461 2.90107e-06
-0.000127461 -0.000188691 -3.69597e-07
2.90107e-06 -3.69597e-07 -0.000345822
0.000944188 -0.000167563 1.84979e-06
-0.000167563 9.12136e-05 -1.71677e-07
1.84979e-06 -1.71677e-07 -8.38974e-05
0.00143752 -0.000213063 -1.32698e-06
-0.000213063 0.000336424 -1.44802e-06
-1.32698e-06 -1.44802e-06 0.000129863
0.00111182 -0.000156782 1.19915e-06
-0.000156782 0.000261698 -9.45955e-08
1.19915e-06 -9.45955e-08 0.00010968
0.00110849 -0.000163004 -1.09381e-06
-0.000163004 0.000247807 -9.74847e-07
-1.09381e-06 -9.74847e-07 9.28681e-05
0.000776395 -0.000140737 3.10379e-06
-0.000140737 5.47628e-05 -2.11161e-06
3.10379e-06 -2.11161e-06 -9.16587e-05
0.000702618 5.46985e-06 1.37756e-06
5.46985e-06 4.28446e-05 1.348e-06
1.37756e-06 1.348e-06 -6.1973e-05
0.000746918 -5.90407e-05 2.00235e-07
-5.90407e-05 7.92997e-05 7.21907e-07
2.00235e-07 7.21907e-07 -4.5863e-05
0.00119032 -0.000145454 1.464e-06
-0.000145454 0.000334566 -1.34885e-06
1.464e-06 -1.34885e-06 0.000185663
0.000651025 7.03486e-05 1.79269e-07
7.03486e-05 2.36492e-06 2.11529e-06
1.79269e-07 2.11529e-06 -5.7169e-05
0.00076147 1.68811e-05 -3.31938e-07
1.68811e-05 6.69961e-05 -2.02573e-07
-3.31938e-07 -2.02573e-07 -1.92153e-05
0.00093621 -5.32647e-05 -3.89089e-07
-5.32647e-05 0.000175389 -8.65875e-07
-3.89089e-07 -8.65875e-07 6.75113e-05
0.000618089 5.19084e-05 -2.17841e-06
5.19084e-05 -2.82537e-05 4.91031e-06
-2.17841e-06 4.91031e-06 -4.55786e-05
0.00069346 5.05337e-05 -2.83145e-07
5.05337e-05 1.24311e-05 -1.76776e-07
-2.83145e-07 -1.76776e-07 -3.53422e-05
0.000794745 -1.48244e-06 1.12808e-07
-1.48244e-06 7.27485e-05 -1.28579e-06
1.12808e-07 -1.28579e-06 1.86163e-06
0.00071345 3.85481e-05 1.11516e-06
3.85481e-05 1.42647e-05 -1.68694e-06
1.11516e-06 -1.68694e-06 -2.85442e-05
0.000642718 4.7271e-05 1.37774e-08
4.7271e-05 -2.35145e-05 -4.87974e-09
1.37774e-08 -4.87974e-09 -3.82654e-05
0.00215384 6.94787e-05 -2.54286e-05
6.94787e-05 0.000838958 3.31743e-06
-2.54286e-05 3.31743e-06 0.000850389
0.000656049 4.16715e-05 1.04244e-06
4.16715e-05 -2.46533e-05 -3.49687e-06
1.04244e-06 -3.49687e-06 -3.71748e-05
0.00216623 6.12832e-05 1.80433e-06
6.12832e-05 0.000838589 1.25884e-07
1.80433e-06 1.25884e-07 0.000851896
0.00218395 5.27754e-05 1.96601e-05
5.27754e-05 0.000841946 -3.76936e-06
1.96601e-05 -3.76936e-06 0.000856859
0.00079531 1.4516e-05 -4.39605e-08
1.4516e-05 7.57251e-05 -4.65334e-07
-4.39605e-08 -4.65334e-07 -1.02257e-05
0.000795604 4.80716e-05 -8.9592e-07
4.80716e-05 7.22551e-05 -8.95057e-07
-8.9592e-07 -8.95057e-07 -6.24309e-06
0.000710162 -1.55341e-05 -8.24336e-07
-1.55341e-05 1.74207e-06 -1.90028e-06
-8.24336e-07 -1.90028e-06 -4.47373e-05
0.000777479 4.03154e-05 -8.96684e-08
4.03154e-05 5.50694e-05 -1.33579e-09
-8.96684e-08 -1.33579e-09 -1.68008e-05
0.000648068 -3.27494e-05 -2.54683e-07
-3.27494e-05 -3.79716e-05 -3.9026e-06
-2.54683e-07 -3.9026e-06 -5.11589e-05
0.000715295 -8.29018e-06 -1.17054e-07
-8.29018e-06 4.70707e-06 -2.51545e-08
-1.17054e-07 -2.51545e-08 -3.929e-05
0.000743906 2.58527e-05 -3.17137e-07
2.58527e-05 3.41802e-05 1.30714e-07
-3.17137e-07 1.30714e-07 -3.37178e-05
0.00226045 -4.27804e-05 -1.72262e-05
-4.27804e-05 0.000876734 -4.33492e-06
-1.72262e-05 -4.33492e-06 0.000892926
0.000662981 -2.5626e-05 -1.74753e-07
-2.5626e-05 -3.5021e-05 -2.19043e-08
-1.74753e-07 -2.19043e-08 -4.52369e-05
0.00070071 -4.89117e-06 -2.17972e-07
-4.89117e-06 -3.68552e-06 1.15812e-06
-2.17972e-07 1.15812e-06 -4.50648e-05
0.00217511 -3.12995e-05 -2.90833e-06
-3.12995e-05 0.000823268 8.99115e-08
-2.90833e-06 8.99115e-08 0.000841567
0.000671782 -1.87411e-05 2.37735e-07
-1.87411e-05 -3.41335e-05 3.58832e-06
2.37735e-07 3.58832e-06 -4.17691e-05
0.00210749 -1.97621e-05 8.44618e-06
-1.97621e-05 0.000781194 4.53533e-06
8.44618e-06 4.53533e-06 0.000801117
0.00105557 -4.60422e-05 1.30969e-05
-4.60422e-05 0.00011619 2.51968e-05
1.30969e-05 2.51968e-05 -0.00017031
0.00132746 -1.23401e-05 -6.61741e-06
-1.23401e-05 0.00012176 1.00183e-05
-6.61741e-06 1.00183e-05 -8.92949e-05
0.00134204 8.92573e-06 1.0637e-05
8.92573e-06 0.000264323 -1.45175e-05
1.0637e-05 -1.45175e-05 -3.37476e-06
0.000781267 1.23513e-05 -2.13293e-07
1.23513e-05 6.2099e-05 -6.70879e-08
-2.13293e-07 -6.70879e-08 -2.0733e-05
0.000783014 -1.21364e-05 -1.40114e-07
-1.21364e-05 6.43966e-05 2.42214e-07
-1.40114e-07 2.42214e-07 -1.97766e-05
0.000755742 -1.29479e-05 -6.40578e-07
-1.29479e-05 5.14994e-05 -1.53546e-06
-6.40578e-07 -1.53546e-06 -3.61333e-05
0.00067916 -2.66861e-05 -2.91379e-07
-2.66861e-05 4.59751e-06 -6.32011e-07
-2.91379e-07 -6.32011e-07 -7.7988e-05
0.000963158 6.26679e-05 -9.10112e-07
6.26679e-05 0.000176107 -1.17167e-07
-9.10112e-07 -1.17167e-07 7.96577e-05
0.000750194 -2.22025e-05 -1.00614e-07
-2.22025e-05 3.48719e-05 -2.30354e-07
-1.00614e-07 -2.30354e-07 -4.18027e-05
0.000749526 -5.51648e-07 5.47901e-07
-5.51648e-07 4.2263e-05 -8.57301e-07
5.47901e-07 -8.57301e-07 -4.54026e-05
0.000814924 1.70374e-05 -9.39158e-08
1.70374e-05 8.37391e-05 -4.33716e-08
-9.39158e-08 -4.33716e-08 -3.06863e-06
0.000881566 4.77912e-05 6.78522e-08
4.77912e-05 0.000119443 1.7025e-07
6.78522e-08 1.7025e-07 2.51788e-05
0.000941794 1.9706e-05 -2.17459e-07
1.9706e-05 0.00016579 5.71886e-07
-2.17459e-07 5.71886e-07 7.41013e-05
0.00199138 8.76768e-06 8.16534e-05
8.76768e-06 0.000497009 0.000101994
8.16534e-05 0.000101994 -0.000481791
0.00136622 3.27567e-05 5.73772e-06
3.27567e-05 0.00024124 2.46067e-05
5.73772e-06 2.46067e-05 -0.000626111
0.00247766 1.69526e-05 -8.17327e-06
1.69526e-05 0.000833465 -2.22293e-05
-8.17327e-06 -2.22293e-05 0.000328773
0.00599197 -0.000437707 -3.22917e-05
-0.000437707 0.00071588 -6.2353e-05
-3.22917e-05 -6.2353e-05 0.00197675
-0.00875531 0.000275842 -4.21811e-05
0.000275842 -0.00337539 7.71819e-05
-4.21811e-05 7.71819e-05 -0.00450503
0.00444909 -0.000735246 -7.98001e-05
-0.000735246 0.00126164 5.27048e-05
-7.98001e-05 5.27048e-05 0.00047872
0.00801779 -0.000270451 -1.29206e-05
-0.000270451 0.00284409 -4.5313e-05
-1.29206e-05 -4.5313e-05 0.000719154
0.00329138 -0.000238813 -4.02954e-05
-0.000238813 0.000387298 4.43133e-05
-4.02954e-05 4.43133e-05 7.57471e-05
0.00998201 -0.00019841 5.57631e-05
-0.00019841 0.00437996 -1.60794e-05
5.57631e-05 -1.60794e-05 0.0016841
0.00107205 -0.000377533 2.62621e-05
-0.000377533 -0.000436088 1.01445e-05
2.62621e-05 1.01445e-05 -0.000869633
0.00130236 -0.000565968 -4.75708e-05
-0.000565968 -0.00192888 -0.000106272
-4.75708e-05 -0.000106272 -0.000552635
0.0046695 8.11939e-05 -0.000105997
8.11939e-05 0.00096748 -1.1995e-05
-0.000105997 -1.1995e-05 0.000677864
0.00792332 1.21234e-05 -1.42485e-05
1.21234e-05 0.00294352 4.23862e-05
-1.42485e-05 4.23862e-05 0.000996184
0.00780214 -0.00104469 -1.49186e-05
-0.00104469 0.00213942 -5.83842e-05
-1.49186e-05 -5.83842e-05 0.00224964
0.00369776 -0.000881207 2.19431e-05
-0.000881207 0.00038616 1.70515e-06
2.19431e-05 1.70515e-06 0.00191596
0.000597481 3.20893e-05 2.02065e-06
3.20893e-05 1.23238e-05 1.49486e-06
2.02065e-06 1.49486e-06 -5.76688e-05
0.000915106 -2.09755e-05 -3.74535e-08
-2.09755e-05 0.000144542 6.02782e-07
-3.74535e-08 6.02782e-07 5.92546e-05
0.000798591 1.97057e-05 -1.11152e-07
1.97057e-05 7.20833e-05 -1.0816e-06
-1.11152e-07 -1.0816e-06 -2.59846e-05
0.000304179 3.45053e-05 -3.16354e-05
3.45053e-05 0.000119798 1.90421e-05
-3.16354e-05 1.90421e-05 -0.000294529
0.0010525 -6.70289e-05 -3.90588e-05
-6.70289e-05 0.000507389 -1.03988e-05
-3.90588e-05 -1.03988e-05 0.000477507
0.000712301 -7.27172e-06 -7.49978e-07
-7.27172e-06 3.53435e-05 -3.95699e-07
-7.49978e-07 -3.95699e-07 -5.66661e-05
0.000348984 -1.10738e-05 -9.17782e-08
-1.10738e-05 -0.000116013 -5.0361e-06
-9.17782e-08 -5.0361e-06 -0.000199491
0.000704504 1.7546e-05 -2.46389e-07
1.7546e-05 8.14796e-05 -1.74758e-06
-2.46389e-07 -1.74758e-06 -2.34831e-06
0.000329888 8.96784e-06 -2.51915e-06
8.96784e-06 6.24303e-05 4.36117e-06
-2.51915e-06 4.36117e-06 -2.7634e-05
-4.74927e-05 -1.9046e-05 5.68704e-05
-1.9046e-05 0.000548149 -3.48758e-05
5.68704e-05 -3.48758e-05 -0.000431264
-0.000949447 -1.28327e-05 -1.16407e-05
-1.28327e-05 -0.000646831 9.26796e-06
-1.16407e-05 9.26796e-06 -0.000736131
0.00118445 0.000137216 -9.46311e-06
0.000137216 0.000571652 -3.22856e-05
-9.46311e-06 -3.22856e-05 3.40584e-06
0.00149054 -1.56332e-06 6.32537e-05
-1.56332e-06 0.000244871 7.74638e-06
6.32537e-05 7.74638e-06 -0.000327381
0.00116579 -1.34491e-05 9.11438e-06
-1.34491e-05 0.000168709 2.41315e-06
9.11438e-06 2.41315e-06 3.41251e-06
0.000820332 -1.13832e-05 1.22076e-06
-1.13832e-05 -0.000150494 -4.89365e-07
1.22076e-06 -4.89365e-07 -0.000222161
-0.0014402 -3.2878e-05 -3.30051e-05
-3.2878e-05 -0.000393447 1.23845e-05
-3.30051e-05 1.23845e-05 -0.000789743
0.00277983 1.42535e-05 -8.57602e-07
1.42535e-05 8.66764e-05 -3.64492e-05
-8.57602e-07 -3.64492e-05 -0.000101472
0.0013904 1.0113e-05 -7.37738e-06
1.0113e-05 0.000274495 1.42329e-05
-7.37738e-06 1.42329e-05 2.79828e-05
0.0136538 -0.00047359 0.000103135
-0.00047359 0.00599223 -1.15459e-05
0.000103135 -1.15459e-05 0.00329493
0.005814 0.000733864 -4.34196e-05
0.000733864 0.00156299 -3.31415e-06
-4.34196e-05 -3.31415e-06 0.00148031
0.00289048 -6.27084e-05 -4.95581e-05
-6.27084e-05 0.00070853 6.77903e-05
-4.95581e-05 6.77903e-05 -0.000296296
-0.0050626 0.000965857 0.00013825
0.000965857 -0.00339352 -0.000128402
0.00013825 -0.000128402 -0.00149219
0.000555663 -3.96693e-05 -6.92333e-06
-3.96693e-05 0.000248851 -7.59815e-07
-6.92333e-06 -7.59815e-07 0.000132518
0.00152964 -1.13255e-05 -9.46166e-06
-1.13255e-05 0.000183957 3.116e-06
-9.46166e-06 3.116e-06 -0.000419389
-0.00198238 0.000256014 -0.000113676
0.000256014 5.8779e-05 4.90019e-05
-0.000113676 4.90019e-05 -0.00024144
0.00185077 -0.000290559 -2.4532e-05
-0.000290559 -0.000162575 3.00272e-05
-2.4532e-05 3.00272e-05 -0.00038773
0.00733386 0.00109515 2.71282e-05
0.00109515 0.00251778 2.56547e-05
2.71282e-05 2.56547e-05 0.00304922
0.00700534 -0.00041125 5.53055e-05
-0.00041125 0.00279625 -3.07067e-05
5.53055e-05 -3.07067e-05 0.00047685
0.00149985 -0.000209143 1.30219e-05
-0.000209143 0.000256998 1.93904e-05
1.30219e-05 1.93904e-05 0.000416438
-0.00203832 1.50269e-06 4.38936e-05
1.50269e-06 0.000177895 -9.84161e-06
4.38936e-05 -9.84161e-06 -0.000667119
0.0042688 0.000807245 -9.22766e-05
0.000807245 0.00215925 4.57063e-05
-9.22766e-05 4.57063e-05 0.00225358
0.00296363 -5.53057e-05 -0.000100515
-5.53057e-05 0.000717666 7.74415e-05
-0.000100515 7.74415e-05 -0.0016506
0.00277648 -0.000661015 3.22258e-05
-0.000661015 0.00027668 -4.64726e-06
3.22258e-05 -4.64726e-06 -0.000303101
0.000292624 -3.57222e-05 6.65092e-06
-3.57222e-05 0.000236991 1.07826e-05
6.65092e-06 1.07826e-05 6.18395e-05
0.000473597 -0.000169457 -2.39066e-06
-0.000169457 0.000106177 1.50269e-06
-2.39066e-06 1.50269e-06 -5.31625e-05
0.00285707 -0.000333646 2.42287e-05
-0.000333646 0.000908295 7.88135e-07
2.42287e-05 7.88135e-07 0.000873455
-0.00163992 -1.42639e-05 -6.27315e-06
-1.42639e-05 -0.000942659 7.33073e-06
-6.27315e-06 7.33073e-06 -0.00119065
0.000788898 -0.00020572 4.76492e-06
-0.00020572 3.74327e-05 -4.14993e-07
4.76492e-06 -4.14993e-07 -0.000197327
0.000799712 -0.000268894 5.64074e-06
-0.000268894 -0.000267928 -1.78889e-06
5.64074e-06 -1.78889e-06 -0.000442529
0.00208689 -0.000256232 -6.70021e-06
-0.000256232 0.000784012 1.37047e-06
-6.70021e-06 1.37047e-06 0.00051243
0.00118394 -0.000243722 -3.07092e-06
-0.000243722 0.000119283 -2.40759e-06
-3.07092e-06 -2.40759e-06 -0.000131906
0.00161033 -0.000306896 5.07917e-06
-0.000306896 0.000124596 -1.94074e-06
5.07917e-06 -1.94074e-06 -5.14266e-05
0.00176379 -0.000257802 -2.88711e-06
-0.000257802 0.000482325 -7.85167e-07
-2.88711e-06 -7.85167e-07 0.000231794
0.00152419 -0.000261125 -3.41364e-08
-0.000261125 0.000192432 -2.23952e-06
-3.41364e-08 -2.23952e-06 -3.11816e-05
0.00175565 -0.000269541 9.31649e-07
-0.000269541 0.000171154 -3.54787e-06
9.31649e-07 -3.54787e-06 5.87378e-06
0.00160385 -0.000216944 2.11585e-07
-0.000216944 0.000110782 -2.48933e-06
2.11585e-07 -2.48933e-06 -4.29962e-05
0.00158482 -0.000240541 1.12649e-07
-0.000240541 0.000199012 -6.36992e-07
1.12649e-07 -6.36992e-07 3.09104e-06
0.00155017 -0.000244088 1.27905e-06
-0.000244088 0.000131133 -3.41563e-07
1.27905e-06 -3.41563e-07 -5.24785e-05
0.00152897 -0.000221278 -1.14068e-06
-0.000221278 0.000331759 4.88569e-06
-1.14068e-06 4.88569e-06 0.000138825
0.00150581 -0.000235564 1.58528e-07
-0.000235564 0.000273017 3.21662e-07
1.58528e-07 3.21662e-07 5.70425e-05
0.00164672 -0.000257166 -9.26955e-07
-0.000257166 0.000299166 -2.12859e-06
-9.26955e-07 -2.12859e-06 6.75952e-05
0.00100186 -0.000160175 1.63701e-06
-0.000160175 0.000155425 -1.21439e-06
1.63701e-06 -1.21439e-06 2.29277e-06
0.000618756 -0.000140075 -5.80024e-07
-0.000140075 -6.94345e-05 -1.94044e-06
-5.80024e-07 -1.94044e-06 -0.000223085
0.00132945 -0.000193443 4.28083e-06
-0.000193443 0.000303189 -4.61718e-06
4.28083e-06 -4.61718e-06 0.000132619
0.000799357 -8.58889e-05 4.06563e-07
-8.58889e-05 8.10502e-05 1.29554e-06
4.06563e-07 1.29554e-06 -4.31795e-05
0.000883986 -0.000131423 2.22978e-07
-0.000131423 0.000136023 5.11674e-07
2.22978e-07 5.11674e-07 -1.2043e-05
0.00085666 -0.000143022 -5.94978e-07
-0.000143022 0.00010996 1.36676e-06
-5.94978e-07 1.36676e-06 -4.38325e-05
0.00064118 7.64099e-05 1.56329e-06
7.64099e-05 3.8814e-06 3.16517e-06
1.56329e-06 3.16517e-06 -7.09665e-05
0.000800994 -1.73363e-05 1.30063e-07
-1.73363e-05 0.000100245 -1.05887e-07
1.30063e-07 -1.05887e-07 -8.57277e-06
0.000895603 -7.86168e-05 -1.08202e-06
-7.86168e-05 0.000163514 4.02894e-08
-1.08202e-06 4.02894e-08 3.8113e-05
0.00131146 7.42036e-05 -1.3846e-05
7.42036e-05 0.00037545 3.11407e-06
-1.3846e-05 3.11407e-06 0.000356503
0.000673281 4.77059e-05 -5.39215e-07
4.77059e-05 9.43256e-06 -4.50244e-07
-5.39215e-07 -4.50244e-07 -4.72924e-05
0.000797476 -1.71836e-05 3.20903e-08
-1.71836e-05 8.86312e-05 -1.65572e-06
3.20903e-08 -1.65572e-06 -2.9399e-07
0.000785679 4.15556e-05 -2.437e-05
4.15556e-05 7.36765e-05 3.2658e-06
-2.437e-05 3.2658e-06 7.75348e-05
0.00100233 6.16887e-05 -6.77554e-06
6.16887e-05 0.000189704 2.4583e-07
-6.77554e-06 2.4583e-07 0.000173359
0.000699502 4.6532e-05 3.54392e-07
4.6532e-05 1.49965e-05 -2.0064e-06
3.54392e-07 -2.0064e-06 -3.24268e-05
0.000658727 4.8772e-05 1.00106e-06
4.8772e-05 -1.43237e-05 -3.54216e-06
1.00106e-06 -3.54216e-06 -2.9272e-05
0.00217811 7.06487e-05 1.53884e-06
7.06487e-05 0.000853657 1.32084e-07
1.53884e-06 1.32084e-07 0.000864767
0.00217933 6.22205e-05 2.30626e-05
6.22205e-05 0.000846965 -3.46942e-06
2.30626e-05 -3.46942e-06 0.000860045
0.000735545 -4.3372e-06 1.01326e-07
-4.3372e-06 3.79254e-05 -9.65442e-07
1.01326e-07 -9.65442e-07 -4.77242e-05
0.000798154 2.91726e-05 -4.12518e-07
2.91726e-05 7.29659e-05 -1.34546e-06
-4.12518e-07 -1.34546e-06 -6.46832e-06
0.000772461 -8.03199e-06 1.32218e-07
-8.03199e-06 5.85127e-05 -6.36697e-08
1.32218e-07 -6.36697e-08 -2.43143e-05
0.000712982 -2.70112e-05 -9.69508e-07
-2.70112e-05 6.48273e-06 -2.10281e-06
-9.69508e-07 -2.10281e-06 -4.2512e-05
0.000781317 1.92578e-05 6.79711e-07
1.92578e-05 5.77513e-05 -3.09955e-08
6.79711e-07 -3.09955e-08 -1.57449e-05
0.000635971 -3.91541e-05 -3.69352e-07
-3.91541e-05 -3.86411e-05 -4.06678e-06
-3.69352e-07 -4.06678e-06 -5.46935e-05
0.00071085 -1.22144e-05 -1.57089e-07
-1.22144e-05 3.02079e-06 -8.9027e-09
-1.57089e-07 -8.9027e-09 -4.36456e-05
0.000794982 4.86024e-05 8.6419e-07
4.86024e-05 7.41611e-05 7.89269e-07
8.6419e-07 7.89269e-07 -4.07342e-06
0.0023373 -5.31331e-05 -2.20674e-05
-5.31331e-05 0.000925732 -4.15525e-06
-2.20674e-05 -4.15525e-06 0.000939858
0.000649793 -3.20084e-05 -3.10331e-07
-3.20084e-05 -3.71607e-05 -9.76966e-09
-3.10331e-07 -9.76966e-09 -5.02231e-05
0.000720292 -8.47417e-06 4.02887e-07
-8.47417e-06 8.02741e-06 1.9432e-06
4.02887e-07 1.9432e-06 -3.60772e-05
0.00224222 -4.19696e-05 -2.74886e-06
-4.19696e-05 0.00086579 1.1566e-07
-2.74886e-06 1.1566e-07 0.000882265
0.000662732 -2.51419e-05 2.59659e-07
-2.51419e-05 -3.5182e-05 3.70026e-06
2.59659e-07 3.70026e-06 -4.53136e-05
0.00216083 -3.03667e-05 1.23353e-05
-3.03667e-05 0.000814614 4.46004e-06
1.23353e-05 4.46004e-06 0.000833164
0.00220068 -4.39552e-05 6.17355e-05
-4.39552e-05 0.000581243 3.29176e-05
6.17355e-05 3.29176e-05 6.093e-05
0.00114258 -4.16395e-05 7.46167e-07
-4.16395e-05 0.000170001 8.20113e-06
7.46167e-07 8.20113e-06 -0.000105025
0.00113168 -1.60513e-05 -5.85932e-06
-1.60513e-05 2.33449e-05 -5.90974e-06
-5.85932e-06 -5.90974e-06 -0.000162198
0.00085222 6.29892e-05 -1.68195e-06
6.29892e-05 0.000116994 -5.28866e-07
-1.68195e-06 -5.28866e-07 1.91417e-05
0.000843952 1.02074e-05 2.03214e-07
1.02074e-05 9.60153e-05 1.21732e-07
2.03214e-07 1.21732e-07 1.41387e-05
0.000745239 -2.15215e-05 1.80911e-07
-2.15215e-05 4.33365e-05 4.02331e-07
1.80911e-07 4.02331e-07 -4.09875e-05
0.000835805 -1.30898e-05 8.01402e-08
-1.30898e-05 8.87896e-05 -1.23665e-07
8.01402e-08 -1.23665e-07 7.58349e-06
0.000875227 1.84278e-05 5.88876e-08
1.84278e-05 0.000119276 -2.73292e-07
5.88876e-08 -2.73292e-07 2.95911e-05
0.000844421 4.43804e-05 2.73715e-07
4.43804e-05 0.000108269 6.75088e-07
2.73715e-07 6.75088e-07 1.37322e-05
0.000855614 3.10829e-05 -5.67722e-07
3.10829e-05 0.000116071 -1.53981e-06
-5.67722e-07 -1.53981e-06 1.6501e-05
0.000591599 -1.99248e-05 1.48212e-07
-1.99248e-05 -3.61119e-05 -1.47662e-07
1.48212e-07 -1.47662e-07 -0.000125045
0.000824462 6.88572e-05 2.46907e-07
6.88572e-05 9.23053e-05 -5.11914e-07
2.46907e-07 -5.11914e-07 2.94387e-06
0.00083005 -3.30518e-05 8.61117e-07
-3.30518e-05 7.54271e-05 -7.2212e-07
8.61117e-07 -7.2212e-07 -8.0567e-06
0.000838607 1.59045e-05 -1.94617e-07
1.59045e-05 0.000104089 1.30736e-07
-1.94617e-07 1.30736e-07 1.58599e-05
0.00131759 4.17089e-05 4.49209e-06
4.17089e-05 0.000398512 2.53137e-06
4.49209e-06 2.53137e-06 0.000313087
0.00111688 -0.000387588 6.83242e-05
-0.000387588 0.00108002 7.37039e-05
6.83242e-05 7.37039e-05 0.000829239
0.00227226 2.8693e-05 5.02816e-06
2.8693e-05 0.000640149 2.33658e-05
5.02816e-06 2.33658e-05 -0.00037466
0.0016124 4.1926e-05 -1.41436e-05
4.1926e-05 0.000286208 -4.11141e-05
-1.41436e-05 -4.11141e-05 -0.000589401
0.00528389 -0.000739473 -9.05655e-05
-0.000739473 0.00015746 -7.91478e-05
-9.05655e-05 -7.91478e-05 0.0016226
0.00370362 -0.000244796 -2.18691e-06
-0.000244796 0.000318217 4.08851e-05
-2.18691e-06 4.08851e-05 -0.000179592
0.000557859 -0.000413457 -8.93667e-05
-0.000413457 -5.30782e-05 6.2885e-05
-8.93667e-05 6.2885e-05 -0.00238244
0.00300187 -0.000194892 -5.43399e-05
-0.000194892 0.000452879 9.27413e-05
-5.43399e-05 9.27413e-05 -3.63717e-05
0.00414733 -0.000158092 3.04939e-06
-0.000158092 0.000737551 3.68462e-05
3.04939e-06 3.68462e-05 0.000605489
-0.000704363 -0.000868173 1.63436e-05
-0.000868173 -0.00145956 2.97334e-05
1.63436e-05 2.97334e-05 0.000210436
0.00556392 0.000228467 7.49707e-06
0.000228467 0.00258353 1.47462e-05
7.49707e-06 1.47462e-05 -0.000117795
0.00122175 -0.000528539 -8.78989e-06
-0.000528539 -0.0012506 1.60454e-05
-8.78989e-06 1.60454e-05 -0.000966836
0.00219668 0.000233841 -3.48741e-05
0.000233841 -6.55883e-06 -1.73617e-06
-3.48741e-05 -1.73617e-06 -0.000218098
0.00864013 -0.000159784 -4.14336e-05
-0.000159784 0.00398387 3.51812e-05
-4.14336e-05 3.51812e-05 0.00179554
-0.000303992 -0.000661912 -7.39754e-05
-0.000661912 -0.000705365 -6.11837e-05
-7.39754e-05 -6.11837e-05 -0.000180404
0.000499284 0.000164777 6.13084e-07
0.000164777 -6.51506e-05 -3.14898e-06
6.13084e-07 -3.14898e-06 -0.000138642
0.000901312 4.16807e-05 5.1423e-06
4.16807e-05 0.00017299 1.89849e-08
5.1423e-06 1.89849e-08 0.000104307
0.00096234 1.93892e-07 -8.65743e-07
1.93892e-07 0.000175224 -3.14648e-08
-8.65743e-07 -3.14648e-08 8.89435e-05
-0.000419438 -2.1806e-06 -8.10027e-05
-2.1806e-06 0.000230404 -1.63323e-05
-8.10027e-05 -1.63323e-05 -0.000689504
-0.000774725 4.86342e-05 5.95914e-06
4.86342e-05 -0.000542061 -6.49147e-06
5.95914e-06 -6.49147e-06 -0.000634977
0.000843304 5.01738e-05 9.91943e-07
5.01738e-05 0.000159165 -2.93767e-06
9.91943e-07 -2.93767e-06 7.22617e-05
0.000775894 0.000112688 4.01646e-06
0.000112688 0.000223606 2.25438e-06
4.01646e-06 2.25438e-06 0.000125023
0.000832434 0.000176212 1.04557e-07
0.000176212 0.000340801 -2.38735e-05
1.04557e-07 -2.38735e-05 -0.000113165
0.000497702 0.000270196 1.65302e-05
0.000270196 -0.000120098 5.94369e-06
1.65302e-05 5.94369e-06 -0.000305898
0.00032925 1.56266e-05 0.000105834
1.56266e-05 0.00153671 1.8951e-06
0.000105834 1.8951e-06 0.000717407
0.00149949 -2.2403e-05 -5.85351e-06
-2.2403e-05 0.000296217 7.40183e-06
-5.85351e-06 7.40183e-06 -0.000182134
0.000956275 -1.19439e-05 -1.47403e-06
-1.19439e-05 6.36296e-05 2.00974e-06
-1.47403e-06 2.00974e-06 -8.15931e-05
0.000997481 -5.50321e-05 -2.3913e-05
-5.50321e-05 0.000526851 5.27878e-06
-2.3913e-05 5.27878e-06 0.000411618
0.00101008 -0.000193921 -2.26267e-06
-0.000193921 -0.000846173 -1.87089e-05
-2.26267e-06 -1.87089e-05 -0.000818121
0.00174837 -7.11782e-06 -7.62547e-05
-7.11782e-06 0.000342155 2.13724e-05
-7.62547e-05 2.13724e-05 -0.000265549
-0.000919017 -0.000496286 4.03285e-05
-0.000496286 -0.000748973 -4.16962e-05
4.03285e-05 -4.16962e-05 -0.0032043
-0.00360486 0.000566962 3.13921e-05
0.000566962 -0.00317371 -5.12232e-05
3.13921e-05 -5.12232e-05 -0.00250161
0.00137821 0.000414562 -8.62859e-05
0.000414562 0.00146086 7.18565e-05
-8.62859e-05 7.18565e-05 0.00152883
0.00181367 -0.000109534 -1.90866e-06
-0.000109534 0.000250738 2.52234e-06
-1.90866e-06 2.52234e-06 0.000540176
0.00146232 0.000153125 5.31494e-06
0.000153125 0.0017537 6.57324e-06
5.31494e-06 6.57324e-06 0.00130825
-0.00355509 0.00040979 2.99405e-05
0.00040979 -0.00121803 1.68295e-06
2.99405e-05 1.68295e-06 -0.00171088
0.00404136 -0.00070924 2.88198e-06
-0.00070924 0.00118733 -6.56948e-08
2.88198e-06 -6.56948e-08 0.00021415
0.00924729 0.000138679 1.33119e-05
0.000138679 0.00361589 -3.51747e-06
1.33119e-05 -3.51747e-06 0.00187979
0.000780547 -0.00024487 2.45696e-06
-0.00024487 -0.000202853 1.62299e-05
2.45696e-06 1.62299e-05 -0.000108958
-0.00631986 0.000172334 -8.1863e-05
0.000172334 -0.0031637 1.53039e-07
-8.1863e-05 1.53039e-07 -0.00343682
0.00705577 9.25379e-05 -2.36596e-05
9.25379e-05 0.00229618 1.22005e-05
-2.36596e-05 1.22005e-05 0.000861816
0.0053483 -0.000729249 2.16788e-06
-0.000729249 0.000814129 1.12583e-05
2.16788e-06 1.12583e-05 -6.36127e-05
0.000101202 -0.000137297 -1.8713e-05
-0.000137297 -5.91395e-05 1.36268e-05
-1.8713e-05 1.36268e-05 -0.00025937
0.00134325 -0.000245205 -1.7537e-06
-0.000245205 0.000102653 8.0046e-07
-1.7537e-06 8.0046e-07 0.000119609
0.00206997 -0.000277917 1.67151e-05
-0.000277917 0.000247897 -2.6659e-06
1.67151e-05 -2.6659e-06 0.000290991
-0.000143297 -0.000131435 -5.9438e-06
-0.000131435 -0.000410189 1.16195e-06
-5.9438e-06 1.16195e-06 -0.000654333
0.00125402 -0.000295772 -3.88019e-06
-0.000295772 -2.48739e-05 -1.20776e-06
-3.88019e-06 -1.20776e-06 -0.000206407
0.00195568 -0.000346098 3.35206e-06
-0.000346098 0.000167175 -4.78741e-08
3.35206e-06 -4.78741e-08 3.61073e-05
0.00161994 -0.000269418 -6.9803e-06
-0.000269418 0.000343255 -2.10075e-06
-6.9803e-06 -2.10075e-06 0.000101552
0.00154832 -0.000298774 2.0289e-06
-0.000298774 0.000107196 7.21152e-07
2.0289e-06 7.21152e-07 -7.19006e-05
0.00193716 -0.000282233 1.68154e-07
-0.000282233 0.000193833 -3.69473e-06
1.68154e-07 -3.69473e-06 6.06433e-05
0.00141071 -0.000252343 -4.52621e-06
-0.000252343 0.00012552 3.51902e-07
-4.52621e-06 3.51902e-07 -9.19447e-05
0.00162923 -0.000260053 -1.181e-07
-0.000260053 0.000102871 5.31887e-07
-1.181e-07 5.31887e-07 -6.10836e-05
0.00180494 -0.000227677 -2.28699e-07
-0.000227677 0.000149005 -4.18997e-06
-2.28699e-07 -4.18997e-06 2.37426e-05
0.00159773 -0.000183938 -5.42685e-07
-0.000183938 7.16664e-05 -2.74443e-06
-5.42685e-07 -2.74443e-06 -5.65136e-05
0.00165814 -0.000215447 -6.35039e-07
-0.000215447 0.000176621 -1.82166e-06
-6.35039e-07 -1.82166e-06 1.13799e-05
0.00157 -0.000212553 1.13931e-07
-0.000212553 9.16457e-05 8.32767e-07
1.13931e-07 8.32767e-07 -6.06677e-05
0.00114752 -0.000200559 -2.26232e-06
-0.000200559 1.23742e-05 1.01802e-06
-2.26232e-06 1.01802e-06 -0.000175623
0.00150997 -0.000232897 2.08499e-06
-0.000232897 0.000160556 -8.07647e-07
2.08499e-06 -8.07647e-07 -3.21656e-05
0.00154031 -0.000242757 1.45233e-06
-0.000242757 0.000125436 1.84381e-06
1.45233e-06 1.84381e-06 -5.71402e-05
0.00112127 -0.000179083 6.60954e-07
-0.000179083 0.000161153 2.59185e-06
6.60954e-07 2.59185e-06 -7.74764e-06
0.00106452 -0.000188055 1.59541e-06
-0.000188055 8.41458e-05 -8.67398e-07
1.59541e-06 -8.67398e-07 -0.000104678
0.000719134 -0.000182259 -6.37898e-07
-0.000182259 -0.000150709 -3.44546e-06
-6.37898e-07 -3.44546e-06 -0.000367975
0.000923594 -0.000136621 -1.51168e-06
-0.000136621 0.000110857 3.40864e-07
-1.51168e-06 3.40864e-07 -2.22838e-05
0.00106515 -0.000163892 -1.71552e-07
-0.000163892 0.000185406 -1.04542e-06
-1.71552e-07 -1.04542e-06 3.21439e-05
0.000812458 -0.000151769 -1.62006e-06
-0.000151769 4.32269e-05 -4.46393e-06
-1.62006e-06 -4.46393e-06 -0.00010749
0.000734197 -1.31428e-05 1.82799e-07
-1.31428e-05 4.35761e-05 3.42594e-06
1.82799e-07 3.42594e-06 -4.48876e-05
0.000912723 -8.89032e-05 1.0495e-06
-8.89032e-05 0.000142616 4.20598e-07
1.0495e-06 4.20598e-07 1.78199e-05
0.000667933 -0.000102692 -9.32495e-07
-0.000102692 1.65246e-05 1.42996e-06
-9.32495e-07 1.42996e-06 -0.000127453
0.000527524 7.06518e-05 6.3264e-07
7.06518e-05 -5.57246e-05 4.9928e-06
6.3264e-07 4.9928e-06 -8.71619e-05
0.000686591 1.5496e-05 -6.33048e-07
1.5496e-05 2.20901e-05 -4.38116e-07
-6.33048e-07 -4.38116e-07 -5.07102e-05
0.000898214 -4.47423e-05 -1.79246e-07
-4.47423e-05 0.000155846 -1.83334e-06
-1.79246e-07 -1.83334e-06 4.36127e-05
0.00226139 9.73494e-05 -9.39548e-06
9.73494e-05 0.000918614 1.25988e-06
-9.39548e-06 1.25988e-06 0.000922341
0.000623423 6.34137e-05 -8.56827e-08
6.34137e-05 -1.23299e-05 -1.07137e-07
-8.56827e-08 -1.07137e-07 -3.60475e-05
0.000689017 2.69393e-05 1.24408e-06
2.69393e-05 1.51637e-05 -2.47249e-06
1.24408e-06 -2.47249e-06 -4.02846e-05
0.0022046 7.90603e-05 1.62161e-06
7.90603e-05 0.000876772 1.32628e-07
1.62161e-06 1.32628e-07 0.000885646
0.000660367 5.67884e-05 5.88608e-07
5.67884e-05 -2.86372e-06 -3.77307e-06
5.88608e-07 -3.77307e-06 -2.14415e-05
0.00220797 7.1689e-05 2.66782e-05
7.1689e-05 0.000871491 -3.1507e-06
2.66782e-05 -3.1507e-06 0.000882301
0.000874209 5.53985e-05 -4.34149e-07
5.53985e-05 0.000120908 -9.3329e-08
-4.34149e-07 -9.3329e-08 2.73362e-05
0.000781839 8.36147e-06 -9.29118e-08
8.36147e-06 6.43568e-05 -2.97673e-07
-9.29118e-08 -2.97673e-07 -2.24764e-05
0.000784761 1.1547e-05 -2.10252e-07
1.1547e-05 7.15883e-05 -1.7528e-06
-2.10252e-07 -1.7528e-06 -1.43957e-05
0.000704642 -3.16217e-05 -9.95563e-07
-3.16217e-05 6.73126e-06 -2.44102e-06
-9.95563e-07 -2.44102e-06 -4.47634e-05
0.000756965 1.2155e-06 7.7937e-07
1.2155e-06 4.92683e-05 -3.00798e-08
7.7937e-07 -3.00798e-08 -2.86908e-05
0.000735915 3.86767e-06 6.21208e-07
3.86767e-06 4.1779e-05 6.10481e-07
6.21208e-07 6.10481e-07 -4.39248e-05
0.000632965 -4.5372e-05 -7.15142e-07
-4.5372e-05 -3.35503e-05 -4.24503e-06
-7.15142e-07 -4.24503e-06 -5.21536e-05
0.000705232 -1.99468e-05 -1.6436e-07
-1.99468e-05 2.27911e-06 -6.74982e-09
-1.6436e-07 -6.74982e-09 -4.65634e-05
0.000763577 1.28242e-05 1.23545e-06
1.28242e-05 4.63475e-05 8.52504e-07
1.23545e-06 8.52504e-07 -2.57237e-05
0.00239511 -6.29771e-05 -2.68824e-05
-6.29771e-05 0.000964618 -3.89964e-06
-2.68824e-05 -3.89964e-06 0.000976698
0.000635097 -3.79742e-05 -2.79806e-07
-3.79742e-05 -3.93828e-05 1.1399e-08
-2.79806e-07 1.1399e-08 -5.5259e-05
0.000713275 -1.03939e-05 8.59584e-07
-1.03939e-05 4.91533e-06 1.99002e-06
8.59584e-07 1.99002e-06 -4.18108e-05
0.00231295 -5.24262e-05 -2.93054e-06
-5.24262e-05 0.000911318 1.46964e-07
-2.93054e-06 1.46964e-07 0.000925718
0.000648645 -3.1309e-05 2.06939e-07
-3.1309e-05 -3.78922e-05 3.86648e-06
2.06939e-07 3.86648e-06 -5.08404e-05
0.00221929 -4.09829e-05 1.62807e-05
-4.09829e-05 0.000852154 4.34553e-06
1.62807e-05 4.34553e-06 0.000868946
-0.00283587 -8.67185e-05 3.22458e-05
-8.67185e-05 -0.000154136 2.69138e-05
3.22458e-05 2.69138e-05 -0.00112514
0.00216324 -6.20123e-05 1.84464e-06
-6.20123e-05 0.000607013 9.6413e-06
1.84464e-06 9.6413e-06 8.97567e-05
0.00121946 -3.72827e-05 -8.96317e-06
-3.72827e-05 0.000214277 -8.48747e-06
-8.96317e-06 -8.48747e-06 -4.90198e-05
0.000758563 2.66926e-05 -7.34531e-07
2.66926e-05 6.17299e-05 5.7499e-07
-7.34531e-07 5.7499e-07 -3.21122e-05
0.00118973 0.000149702 -4.35843e-09
0.000149702 0.000315728 6.4732e-07
-4.35843e-09 6.4732e-07 0.000196792
0.000811046 2.93005e-05 -9.7949e-07
2.93005e-05 9.84513e-05 3.09865e-08
-9.7949e-07 3.09865e-08 -3.85674e-06
0.000939468 -2.10774e-05 3.21992e-07
-2.10774e-05 0.000145733 -3.10096e-07
3.21992e-07 -3.10096e-07 6.48786e-05
0.000965144 5.01111e-05 9.93448e-07
5.01111e-05 0.00016785 4.07018e-07
9.93448e-07 4.07018e-07 7.82059e-05
0.000661447 -1.65027e-06 -2.22118e-07
-1.65027e-06 -6.23794e-08 1.50023e-06
-2.22118e-07 1.50023e-06 -8.8141e-05
0.000709173 1.3571e-05 -8.68346e-07
1.3571e-05 3.4279e-05 -8.11601e-09
-8.68346e-07 -8.11601e-09 -6.05474e-05
0.000787322 1.63836e-05 1.1106e-07
1.63836e-05 7.65616e-05 -2.67807e-07
1.1106e-07 -2.67807e-07 -2.12306e-05
0.000938536 6.03751e-05 1.20134e-06
6.03751e-05 0.000182223 -1.54034e-06
1.20134e-06 -1.54034e-06 6.65269e-05
0.000823618 0.000102233 4.24505e-06
0.000102233 6.65208e-05 -5.66479e-06
4.24505e-06 -5.66479e-06 -2.67366e-05
0.000809859 4.20042e-05 -6.3625e-08
4.20042e-05 9.05939e-05 -7.90368e-07
-6.3625e-08 -7.90368e-07 -1.3173e-06
0.000910731 5.45024e-05 7.66431e-07
5.45024e-05 0.000174311 1.27894e-06
7.66431e-07 1.27894e-06 8.64857e-05
-0.00425829 -0.00042069 -0.000106764
-0.00042069 -0.00160648 1.72246e-05
-0.000106764 1.72246e-05 -0.00195033
-0.00122183 -0.000346841 5.36126e-05
-0.000346841 0.000159533 2.13404e-05
5.36126e-05 2.13404e-05 -0.000258929
0.00252812 2.36746e-05 -6.83094e-05
2.36746e-05 0.00079136 -5.57693e-05
-6.83094e-05 -5.57693e-05 -0.000259051
-0.00516858 -0.000877887 9.63221e-05
-0.000877887 -0.00330884 0.000110932
9.63221e-05 0.000110932 -0.00148704
0.00687804 -0.00074656 -7.03275e-06
-0.00074656 0.00200625 1.71127e-05
-7.03275e-06 1.71127e-05 0.00214784
0.00139027 0.000544941 5.23948e-05
0.000544941 0.000218341 -1.98452e-05
5.23948e-05 -1.98452e-05 -0.0023857
0.00324421 -0.000184103 -0.000147318
-0.000184103 0.000523163 7.34166e-05
-0.000147318 7.34166e-05 -0.000127468
0.0030355 0.000179909 -2.44037e-05
0.000179909 0.000429975 9.17928e-06
-2.44037e-05 9.17928e-06 0.000118759
0.00609691 -0.000939456 -3.36486e-05
-0.000939456 0.00278043 2.85383e-05
-3.36486e-05 2.85383e-05 0.00304549
0.00176791 0.000212653 8.41826e-06
0.000212653 0.000639172 6.59429e-06
8.41826e-06 6.59429e-06 -0.00159157
0.00254852 0.000467723 -0.000113041
0.000467723 0.00071075 -7.04239e-05
-0.000113041 -7.04239e-05 -1.6113e-05
0.00201671 0.000605158 -0.000173538
0.000605158 0.000176632 -6.51273e-05
-0.000173538 -6.51273e-05 -0.00188147
0.00209766 0.000390806 1.03294e-05
0.000390806 0.000533868 -1.17578e-05
1.03294e-05 -1.17578e-05 0.000375726
0.000783889 0.000167494 -3.78349e-06
0.000167494 8.33753e-05 1.16351e-06
-3.78349e-06 1.16351e-06 1.08199e-05
0.00107087 4.12688e-05 -1.18084e-06
4.12688e-05 0.000260567 -2.62914e-06
-1.18084e-06 -2.62914e-06 0.000192889
-0.000184337 0.000144822 -3.11468e-05
0.000144822 -0.00013131 -2.30268e-05
-3.11468e-05 -2.30268e-05 -0.000488883
0.0018378 0.000183527 -7.53116e-06
0.000183527 0.000748515 -7.43342e-06
-7.53116e-06 -7.43342e-06 0.000642499
0.00119765 0.000326533 8.48171e-06
0.000326533 0.000150095 -1.75153e-06
8.48171e-06 -1.75153e-06 -2.54823e-05
0.00245378 0.000493107 7.16822e-05
0.000493107 0.000229348 3.48586e-05
7.16822e-05 3.48586e-05 0.000197821
-0.00370743 -4.3991e-05 -0.000154505
-4.3991e-05 -0.00200759 -1.03812e-05
-0.000154505 -1.03812e-05 -0.00164815
-0.000865167 6.78228e-06 4.88986e-05
6.78228e-06 0.00101318 9.97795e-07
4.88986e-05 9.97795e-07 0.00011871
0.00159044 -3.68317e-05 -5.7738e-05
-3.68317e-05 0.000377203 7.34061e-06
-5.7738e-05 7.34061e-06 -5.14885e-06
0.00226311 -0.000185597 -4.34813e-05
-0.000185597 0.000428456 -2.41014e-05
-4.34813e-05 -2.41014e-05 0.000708138
0.00321812 -0.000705706 -4.6402e-05
-0.000705706 0.000532265 2.60283e-06
-4.6402e-05 2.60283e-06 -0.000226732
0.00176331 0.00011629 -4.25089e-05
0.00011629 0.00194476 2.48013e-05
-4.25089e-05 2.48013e-05 0.00152203
-0.0010967 -0.000262073 8.8403e-05
-0.000262073 -0.000999805 -7.50858e-05
8.8403e-05 -7.50858e-05 -0.00322835
0.00860271 0.000531028 -3.26964e-05
0.000531028 0.0042751 5.33102e-06
-3.26964e-05 5.33102e-06 0.0041093
0.00198521 -0.000383113 -5.25722e-06
-0.000383113 0.000321962 2.43447e-06
-5.25722e-06 2.43447e-06 0.000303818
-0.00111103 0.000311106 3.67893e-06
0.000311106 -0.000452743 -4.68576e-06
3.67893e-06 -4.68576e-06 -0.000709756
0.00368857 8.92956e-05 -1.94916e-05
8.92956e-05 0.000596494 2.83509e-05
-1.94916e-05 2.83509e-05 -0.00125926
0.00567413 -0.000727584 -3.7508e-05
-0.000727584 0.0014472 1.13889e-05
-3.7508e-05 1.13889e-05 0.00058453
-0.000871977 -0.000153955 2.00171e-05
-0.000153955 -0.000940396 -5.34112e-06
2.00171e-05 -5.34112e-06 -0.00116093
0.00829621 -0.000181927 4.77074e-05
-0.000181927 0.00239238 -8.13719e-06
4.77074e-05 -8.13719e-06 0.00139059
0.00381638 -0.000276758 3.08336e-05
-0.000276758 0.000589379 -1.93557e-05
3.08336e-05 -1.93557e-05 2.27344e-05
-0.00024064 -0.000155572 -2.06337e-05
-0.000155572 -0.000739245 6.27606e-06
-2.06337e-05 6.27606e-06 -0.000670821
0.000998208 -0.000232883 -1.43463e-06
-0.000232883 -0.000315669 -9.37522e-07
-1.43463e-06 -9.37522e-07 -0.000258666
0.00221817 -0.000316955 1.47049e-05
-0.000316955 0.000156452 -1.32505e-05
1.47049e-05 -1.32505e-05 0.000206353
0.00156791 -0.000313167 -1.18512e-05
-0.000313167 0.000147215 -1.64443e-06
-1.18512e-05 -1.64443e-06 -3.73573e-05
0.00164044 -0.000326959 -5.38806e-07
-0.000326959 -7.19935e-07 6.04216e-07
-5.38806e-07 6.04216e-07 -0.000123465
0.00207224 -0.000302429 -2.19808e-06
-0.000302429 0.000146266 -5.77176e-07
-2.19808e-06 -5.77176e-07 6.6204e-05
0.00138936 -0.000285351 -5.93998e-07
-0.000285351 3.59785e-05 2.45458e-06
-5.93998e-07 2.45458e-06 -0.000145329
0.00176667 -0.000275515 -2.18773e-06
-0.000275515 0.000100201 -5.73864e-07
-2.18773e-06 -5.73864e-07 -3.29302e-05
0.00191826 -0.000228272 -1.47154e-06
-0.000228272 0.000116272 -1.59777e-06
-1.47154e-06 -1.59777e-06 2.07268e-05
0.00149938 -0.000250516 1.2367e-06
-0.000250516 3.24651e-05 3.24768e-06
1.2367e-06 3.24768e-06 -0.000130152
0.00168048 -0.000217832 -2.3392e-07
-0.000217832 8.67081e-05 -5.26728e-10
-2.3392e-07 -5.26728e-10 -3.70456e-05
0.00172497 -0.000184069 7.44531e-08
-0.000184069 8.71016e-05 -1.95345e-06
7.44531e-08 -1.95345e-06 -1.18884e-05
0.00176119 -0.000168006 1.63582e-08
-0.000168006 0.000153216 -1.00299e-06
1.63582e-08 -1.00299e-06 4.27257e-05
0.00158466 -0.000180381 -2.15904e-06
-0.000180381 6.5013e-05 2.01845e-06
-2.15904e-06 2.01845e-06 -6.01369e-05
0.00169475 -0.000183718 1.06335e-06
-0.000183718 0.000163353 -4.02995e-06
1.06335e-06 -4.02995e-06 2.45531e-05
0.00176616 -0.000214459 -3.05528e-06
-0.000214459 0.000272178 -1.05584e-06
-3.05528e-06 -1.05584e-06 0.000107272
0.00163991 -0.000213669 1.36725e-06
-0.000213669 0.000165249 3.21051e-07
1.36725e-06 3.21051e-07 4.81891e-07
0.00154293 -0.000208266 -7.17718e-07
-0.000208266 7.6614e-05 4.25403e-06
-7.17718e-07 4.25403e-06 -7.42179e-05
0.00106742 -0.00018409 -4.83842e-06
-0.00018409 2.81314e-05 3.13986e-06
-4.83842e-06 3.13986e-06 -0.000148085
0.00139415 -0.000213918 7.53621e-07
-0.000213918 0.00014984 -2.33937e-07
7.53621e-07 -2.33937e-07 -3.798e-05
0.0013706 -0.000221323 2.70692e-06
-0.000221323 8.62932e-05 -1.62798e-07
2.70692e-06 -1.62798e-07 -0.000102879
0.000983847 -0.000151951 -1.63945e-06
-0.000151951 0.000105844 1.47455e-06
-1.63945e-06 1.47455e-06 -3.90011e-05
0.00115656 -0.000180185 5.41822e-07
-0.000180185 0.00017647 -3.44886e-08
5.41822e-07 -3.44886e-08 7.67749e-06
0.000664408 -0.000159343 -3.87304e-09
-0.000159343 -0.000127893 -5.00537e-06
-3.87304e-09 -5.00537e-06 -0.000312323
0.000754222 -7.31006e-05 -3.36657e-06
-7.31006e-05 3.68225e-05 2.85622e-06
-3.36657e-06 2.85622e-06 -6.39368e-05
0.0010362 -0.000145878 1.39169e-07
-0.000145878 0.000171307 -2.162e-07
1.39169e-07 -2.162e-07 3.69749e-05
0.00112504 -0.000167371 -1.50029e-07
-0.000167371 0.000213965 -1.63061e-06
-1.50029e-07 -1.63061e-06 6.0536e-05
0.000503815 6.17876e-05 2.15179e-06
6.17876e-05 -6.81974e-05 6.75846e-06
2.15179e-06 6.75846e-06 -0.000108275
0.000748739 -2.98184e-05 3.26689e-07
-2.98184e-05 5.39699e-05 2.11068e-07
3.26689e-07 2.11068e-07 -3.82119e-05
0.00105683 -9.99322e-05 1.15401e-06
-9.99322e-05 0.000222393 -3.15281e-07
1.15401e-06 -3.15281e-07 9.55382e-05
0.00248425 0.000101351 -3.79498e-05
0.000101351 0.00104831 2.40533e-06
-3.79498e-05 2.40533e-06 0.00105082
0.000588217 7.01635e-05 -4.19719e-07
7.01635e-05 -2.18833e-05 -3.58971e-07
-4.19719e-07 -3.58971e-07 -5.37526e-05
0.000729966 -2.50658e-05 2.21494e-06
-2.50658e-05 4.29097e-05 -3.41717e-06
2.21494e-06 -3.41717e-06 -2.99567e-05
0.00160368 7.43815e-05 1.56404e-05
7.43815e-05 0.000544984 -3.93944e-07
1.56404e-05 -3.93944e-07 0.000547215
0.000655817 6.75344e-05 -1.11192e-06
6.75344e-05 7.17274e-06 -4.61125e-06
-1.11192e-06 -4.61125e-06 -1.75547e-05
0.00228263 8.11397e-05 3.17038e-05
8.11397e-05 0.00092176 -2.79506e-06
3.17038e-05 -2.79506e-06 0.000930057
0.000892502 7.2262e-05 8.35098e-07
7.2262e-05 0.000128484 4.0986e-07
8.35098e-07 4.0986e-07 2.79927e-05
0.000779711 1.7676e-05 -2.28741e-07
1.7676e-05 6.36726e-05 4.89281e-07
-2.28741e-07 4.89281e-07 -2.4705e-05
0.000758457 -2.10838e-05 2.49597e-07
-2.10838e-05 5.8098e-05 -1.6807e-06
2.49597e-07 -1.6807e-06 -3.03572e-05
0.000861806 2.99338e-05 3.35247e-07
2.99338e-05 0.00010974 5.87673e-07
3.35247e-07 5.87673e-07 2.1268e-05
0.000756077 -1.92494e-05 4.11033e-07
-1.92494e-05 5.01555e-05 -5.73178e-08
4.11033e-07 -5.73178e-08 -3.11228e-05
0.000683662 -3.19653e-05 -9.83115e-07
-3.19653e-05 7.56307e-07 -2.80264e-06
-9.83115e-07 -2.80264e-06 -5.45739e-05
0.000633813 -5.23681e-05 -7.8924e-07
-5.23681e-05 -2.48807e-05 -4.50144e-06
-7.8924e-07 -4.50144e-06 -4.61057e-05
0.000697785 -2.80791e-05 1.24219e-07
-2.80791e-05 3.17034e-06 -4.75783e-08
1.24219e-07 -4.75783e-08 -4.82289e-05
0.000728773 -3.50354e-05 -9.5514e-08
-3.50354e-05 2.66006e-05 1.15752e-06
-9.5514e-08 1.15752e-06 -4.55613e-05
0.00242546 -7.22231e-05 -3.15252e-05
-7.22231e-05 0.000988578 -3.56318e-06
-3.15252e-05 -3.56318e-06 0.000998734
0.000625273 -4.38113e-05 -2.78221e-07
-4.38113e-05 -3.81147e-05 3.7468e-08
-2.78221e-07 3.7468e-08 -5.64954e-05
0.000704785 -1.21222e-05 1.64571e-06
-1.21222e-05 2.30365e-06 2.12926e-06
1.64571e-06 2.12926e-06 -4.6506e-05
0.00238031 -6.24836e-05 -2.71388e-06
-6.24836e-05 0.000955631 1.69256e-07
-2.71388e-06 1.69256e-07 0.000967875
0.000635278 -3.70174e-05 4.3803e-07
-3.70174e-05 -3.93722e-05 4.05945e-06
4.3803e-07 4.05945e-06 -5.51317e-05
0.00229019 -5.16657e-05 2.01138e-05
-5.16657e-05 0.000897753 4.19243e-06
2.01138e-05 4.19243e-06 0.000912431
0.000724238 0.000188819 1.10372e-05
0.000188819 0.000991934 3.87323e-05
1.10372e-05 3.87323e-05 0.000328679
-0.000821509 -0.000146265 7.1202e-07
-0.000146265 0.000660749 8.56287e-06
7.1202e-07 8.56287e-06 -0.000213843
0.00207319 -7.26952e-05 -5.93457e-05
-7.26952e-05 0.000616705 -1.38389e-05
-5.93457e-05 -1.38389e-05 0.000102807
0.000698418 -3.31968e-06 6.01277e-07
-3.31968e-06 2.62342e-05 2.85413e-07
6.01277e-07 2.85413e-07 -6.45297e-05
0.000782909 8.22718e-06 1.62834e-07
8.22718e-06 8.05273e-05 6.40707e-07
1.62834e-07 6.40707e-07 -2.05792e-05
0.000985294 0.000129851 -4.54291e-07
0.000129851 0.000207248 3.19341e-07
-4.54291e-07 3.19341e-07 9.17315e-05
0.00119737 0.000171466 1.36994e-06
0.000171466 0.000293758 -2.00988e-07
1.36994e-06 -2.00988e-07 0.000158954
0.000934733 9.78499e-05 -2.15152e-06
9.78499e-05 0.000189374 -8.35191e-07
-2.15152e-06 -8.35191e-07 6.70799e-05
0.000821998 5.46998e-05 8.94743e-07
5.46998e-05 9.6216e-05 1.10479e-06
8.94743e-07 1.10479e-06 5.4277e-08
0.000756096 2.5808e-05 7.27422e-07
2.5808e-05 5.84991e-05 1.12768e-06
7.27422e-07 1.12768e-06 -3.8856e-05
0.000705507 7.09301e-05 -1.42997e-06
7.09301e-05 5.16844e-05 -1.36483e-06
-1.42997e-06 -1.36483e-06 -5.9444e-05
-0.000142969 7.32031e-05 -4.48873e-07
7.32031e-05 -0.000423776 3.13461e-07
-4.48873e-07 3.13461e-07 -0.000547121
0.00103406 0.000152053 2.88485e-07
0.000152053 0.000165669 -4.54319e-06
2.88485e-07 -4.54319e-06 5.64156e-05
0.0021778 0.000334939 5.17218e-06
0.000334939 0.00051409 -1.08622e-05
5.17218e-06 -1.08622e-05 0.000349017
0.000726153 9.68638e-05 -2.45622e-06
9.68638e-05 3.90439e-05 -5.61795e-07
-2.45622e-06 -5.61795e-07 -5.23038e-05
0.000692043 1.70816e-05 -2.61338e-07
1.70816e-05 3.77305e-05 -1.0529e-06
-2.61338e-07 -1.0529e-06 -4.40886e-05
0.0110967 0.000135991 -5.72993e-05
0.000135991 0.00360937 2.76019e-06
-5.72993e-05 2.76019e-06 0.00232799
-0.00159796 -0.000351593 -7.21858e-05
-0.000351593 -3.71451e-05 -1.67245e-05
-7.21858e-05 -1.67245e-05 -0.000603828
0.0003882 -0.000414507 -1.68062e-05
-0.000414507 0.000650971 -2.95207e-05
-1.68062e-05 -2.95207e-05 0.000200399
-0.00397567 -0.000405251 2.13463e-05
-0.000405251 -0.00187909 4.61013e-05
2.13463e-05 4.61013e-05 -0.00165011
0.00907684 -8.99546e-05 7.86659e-05
-8.99546e-05 0.0043193 -8.7602e-06
7.86659e-05 -8.7602e-06 0.00154008
0.00257809 0.000239461 -1.92604e-05
0.000239461 0.000391142 1.70129e-06
-1.92604e-05 1.70129e-06 0.000180331
0.00163346 0.000436191 -4.30665e-05
0.000436191 0.000116675 -1.73273e-05
-4.30665e-05 -1.73273e-05 -0.000484566
0.00851106 -0.000104486 5.43222e-05
-0.000104486 0.00311957 1.7421e-05
5.43222e-05 1.7421e-05 0.00152156
0.00393716 0.000605299 1.26617e-05
0.000605299 0.000536479 -2.6387e-05
1.26617e-05 -2.6387e-05 -0.000109987
0.00200451 0.000437599 3.2275e-06
0.000437599 0.000283806 1.26487e-05
3.2275e-06 1.26487e-05 0.000126895
0.00088896 0.000280769 3.59036e-06
0.000280769 -4.28304e-06 -3.96956e-06
3.59036e-06 -3.96956e-06 -0.000165035
0.00103289 0.00016231 -1.24843e-05
0.00016231 0.000219104 7.53972e-06
-1.24843e-05 7.53972e-06 0.000149545
0.00163067 0.000371987 -2.80245e-05
0.000371987 0.00027704 -1.63031e-05
-2.80245e-05 -1.63031e-05 0.000117604
0.00162903 0.000446791 -1.74998e-05
0.000446791 -0.000144799 1.46614e-05
-1.74998e-05 1.46614e-05 -0.000201029
0.000495159 -0.000154453 -2.13452e-05
-0.000154453 -0.00198778 -4.348e-06
-2.13452e-05 -4.348e-06 -0.0023907
0.0021779 -0.000136036 2.25043e-06
-0.000136036 0.00128234 -6.35812e-06
2.25043e-06 -6.35812e-06 0.00120563
-0.00230708 -1.54946e-05 2.63642e-05
-1.54946e-05 0.000401459 -1.91314e-06
2.63642e-05 -1.91314e-06 -0.000611766
0.00277145 -0.000477617 -5.25816e-05
-0.000477617 0.000642173 5.68932e-06
-5.25816e-05 5.68932e-06 0.000563173
0.00383153 -0.000663344 -2.7052e-06
-0.000663344 0.000856132 -1.31096e-05
-2.7052e-06 -1.31096e-05 -0.000337114
0.000964053 -0.00014929 3.72122e-05
-0.00014929 0.000898995 1.81645e-05
3.72122e-05 1.81645e-05 0.000499207
0.00949563 0.000146228 -6.00427e-05
0.000146228 0.00362407 3.23494e-05
-6.00427e-05 3.23494e-05 0.00191782
0.000674652 -0.00022122 -9.57295e-06
-0.00022122 -0.000256926 -7.54684e-07
-9.57295e-06 -7.54684e-07 -0.00038717
0.00668628 9.17077e-05 2.43239e-06
9.17077e-05 0.00155154 2.19934e-05
2.43239e-06 2.19934e-05 0.000686231
0.00410792 -0.000363737 4.93285e-05
-0.000363737 0.000436884 -1.15677e-06
4.93285e-05 -1.15677e-06 -0.000357278
0.00213448 -0.000248162 1.12716e-05
-0.000248162 0.000534487 -8.85977e-07
1.12716e-05 -8.85977e-07 0.000261703
0.00341643 -9.20286e-05 -7.29492e-05
-9.20286e-05 0.000662793 -1.24546e-05
-7.29492e-05 -1.24546e-05 0.000363321
7.7443e-06 -0.000190793 -1.78538e-05
-0.000190793 -0.000849805 5.644e-06
-1.78538e-05 5.644e-06 -0.000772439
0.00151585 -0.000294183 -9.93821e-08
-0.000294183 -0.000189802 -1.08194e-07
-9.93821e-08 -1.08194e-07 -0.000158456
0.00183299 -0.000211633 6.74297e-06
-0.000211633 -8.56346e-05 -2.3714e-06
6.74297e-06 -2.3714e-06 -6.40103e-05
0.0014497 -0.000315782 -1.25344e-06
-0.000315782 -0.000100524 1.54556e-06
-1.25344e-06 1.54556e-06 -0.000218242
0.00179372 -0.000278246 -9.67465e-07
-0.000278246 2.14647e-05 -1.40732e-07
-9.67465e-07 -1.40732e-07 -5.60875e-05
0.00182015 -0.000196237 -1.09022e-06
-0.000196237 -2.46189e-05 1.09981e-06
-1.09022e-06 1.09981e-06 -6.78425e-05
0.0015821 -0.000267536 -3.66382e-06
-0.000267536 -3.33371e-07 2.7823e-06
-3.66382e-06 2.7823e-06 -0.000133275
0.00180847 -0.00022435 3.38856e-07
-0.00022435 5.51351e-05 1.16519e-06
3.38856e-07 1.16519e-06 -4.01563e-05
0.00186033 -0.000190012 6.86054e-07
-0.000190012 0.000104171 3.39756e-07
6.86054e-07 3.39756e-07 2.44686e-05
0.00155197 -0.000208245 1.17622e-06
-0.000208245 2.15226e-05 3.72587e-06
1.17622e-06 3.72587e-06 -0.000100753
0.00170878 -0.000185637 4.21352e-08
-0.000185637 7.85683e-05 1.0699e-06
4.21352e-08 1.0699e-06 -2.14861e-05
0.0019114 -0.000175148 1.73953e-06
-0.000175148 0.000208745 -5.0556e-07
1.73953e-06 -5.0556e-07 0.000113305
0.00168368 -0.000167269 -3.3447e-06
-0.000167269 0.000107049 2.5929e-06
-3.3447e-06 2.5929e-06 -1.5923e-06
0.00173823 -0.000167345 2.73453e-06
-0.000167345 0.000173455 -2.52717e-06
2.73453e-06 -2.52717e-06 5.11224e-05
0.0015734 -0.000177341 -5.68062e-07
-0.000177341 5.8895e-05 6.11475e-06
-5.68062e-07 6.11475e-06 -6.33373e-05
0.00169806 -0.00018436 8.35612e-07
-0.00018436 0.000166134 -8.87549e-07
8.35612e-07 -8.87549e-07 2.69111e-05
0.00162069 -0.000177599 -1.3682e-06
-0.000177599 0.000160897 -1.62632e-06
-1.3682e-06 -1.62632e-06 1.60826e-05
0.00129809 -0.000184258 -5.22219e-06
-0.000184258 6.3253e-05 3.62744e-07
-5.22219e-06 3.62744e-07 -9.78273e-05
0.00165321 -0.000208232 3.83201e-07
-0.000208232 0.000208578 -3.41447e-07
3.83201e-07 -3.41447e-07 4.42769e-05
0.00163788 -0.000212856 1.88855e-06
-0.000212856 0.000163736 2.05528e-06
1.88855e-06 2.05528e-06 -7.55133e-07
0.00114867 -0.000171132 -3.60652e-06
-0.000171132 0.000132781 3.25124e-06
-3.60652e-06 3.25124e-06 -2.27843e-05
0.00108208 -0.000183343 -1.27041e-06
-0.000183343 4.00685e-05 1.31697e-06
-1.27041e-06 1.31697e-06 -0.000135548
0.0016336 -0.000226663 3.74993e-06
-0.000226663 0.000283893 -1.17647e-06
3.74993e-06 -1.17647e-06 9.62612e-05
0.000729236 -9.26124e-05 -3.91566e-06
-9.26124e-05 -3.67924e-06 2.98259e-06
-3.91566e-06 2.98259e-06 -0.000112122
0.00106823 -0.00015854 2.04276e-07
-0.00015854 0.000150167 -4.48906e-07
2.04276e-07 -4.48906e-07 4.39198e-06
0.00119654 -0.000181816 1.30381e-06
-0.000181816 0.000194287 -2.93764e-06
1.30381e-06 -2.93764e-06 2.55329e-05
0.000509004 8.09884e-06 -4.29493e-06
8.09884e-06 -8.30129e-05 7.48994e-06
-4.29493e-06 7.48994e-06 -0.000126357
0.000811756 -8.0218e-05 1.14293e-07
-8.0218e-05 6.84144e-05 2.48888e-07
1.14293e-07 2.48888e-07 -3.35182e-05
0.00110957 -0.000146555 1.73004e-06
-0.000146555 0.000209152 -8.14885e-07
1.73004e-06 -8.14885e-07 7.51549e-05
0.0028404 0.000116947 -4.72342e-05
0.000116947 0.0012512 2.32145e-06
-4.72342e-05 2.32145e-06 0.00124946
0.000575885 3.86301e-05 4.88469e-07
3.86301e-05 -3.48746e-05 -3.36316e-07
4.88469e-07 -3.36316e-07 -7.19982e-05
0.000783766 -6.65384e-05 2.95299e-06
-6.65384e-05 7.04304e-05 -2.97865e-06
2.95299e-06 -2.97865e-06 -2.22993e-05
0.00258731 0.000101983 2.43141e-06
0.000101983 0.00110503 2.00492e-07
2.43141e-06 2.00492e-07 0.0011074
0.000643662 5.70859e-05 7.382e-07
5.70859e-05 5.39403e-06 -5.48078e-06
7.382e-07 -5.48078e-06 -2.46914e-05
0.00243028 9.08638e-05 3.90286e-05
9.08638e-05 0.00101146 -2.51304e-06
3.90286e-05 -2.51304e-06 0.00101708
0.000954261 0.000144422 9.19326e-07
0.000144422 0.000149293 -9.42632e-07
9.19326e-07 -9.42632e-07 2.31158e-05
0.000830425 0.000101778 5.38872e-07
0.000101778 9.98488e-05 -1.67638e-08
5.38872e-07 -1.67638e-08 -5.29102e-06
0.000681919 -7.81369e-06 -5.38695e-07
-7.81369e-06 1.39712e-05 -9.86534e-07
-5.38695e-07 -9.86534e-07 -8.25444e-05
0.000675428 -1.32136e-05 -5.47244e-08
-1.32136e-05 4.69887e-06 9.12669e-07
-5.47244e-08 9.12669e-07 -8.13433e-05
0.000707492 -3.4145e-05 1.20137e-07
-3.4145e-05 2.65377e-05 1.32895e-07
1.20137e-07 1.32895e-07 -6.00657e-05
0.000661353 -3.09381e-05 -9.94668e-07
-3.09381e-05 -6.85088e-06 -3.08325e-06
-9.94668e-07 -3.08325e-06 -6.93432e-05
0.000712153 -3.76325e-05 -1.83662e-07
-3.76325e-05 2.21915e-05 1.57519e-06
-1.83662e-07 1.57519e-06 -5.58601e-05
0.00067626 -3.63461e-05 3.37026e-07
-3.63461e-05 -2.38281e-06 -1.68701e-07
3.37026e-07 -1.68701e-07 -5.79876e-05
0.000629912 -6.28061e-05 7.83841e-08
-6.28061e-05 -1.61796e-05 -4.95333e-06
7.83841e-08 -4.95333e-06 -4.13071e-05
0.00244884 -8.13762e-05 -3.56362e-05
-8.13762e-05 0.00100912 -3.16018e-06
-3.56362e-05 -3.16018e-06 0.00101726
0.000620978 -5.03067e-05 -4.403e-08
-5.03067e-05 -3.25233e-05 3.08136e-08
-4.403e-08 3.08136e-08 -5.33923e-05
0.000682825 -2.54207e-05 1.84711e-06
-2.54207e-05 -4.86149e-06 2.32451e-06
1.84711e-06 2.32451e-06 -5.61399e-05
0.00242185 -7.18577e-05 -2.40371e-06
-7.18577e-05 0.000985897 1.84052e-07
-2.40371e-06 1.84052e-07 0.000996111
0.000621736 -4.23904e-05 7.16501e-07
-4.23904e-05 -4.03106e-05 4.25874e-06
7.16501e-07 4.25874e-06 -5.85102e-05
0.00235847 -6.182e-05 2.47557e-05
-6.182e-05 0.000942629 3.99747e-06
2.47557e-05 3.99747e-06 0.000955087
0.00957648 0.00024945 0.00011708
0.00024945 0.00288919 4.02003e-05
0.00011708 4.02003e-05 0.00196577
-0.00242536 -0.00028235 -4.41826e-05
-0.00028235 -0.00133731 -3.51697e-06
-4.41826e-05 -3.51697e-06 -0.00144394
-0.00240253 -2.76388e-05 -5.17062e-05
-2.76388e-05 -0.000107024 -1.36319e-05
-5.17062e-05 -1.36319e-05 -0.00118381
0.00073457 -2.31931e-05 1.42315e-06
-2.31931e-05 5.13119e-05 1.73704e-06
1.42315e-06 1.73704e-06 -4.82925e-05
0.000792393 0.000122769 -9.20354e-07
0.000122769 0.000104313 1.03827e-06
-9.20354e-07 1.03827e-06 -8.06857e-06
0.00107354 0.000107797 5.50249e-07
0.000107797 0.000265523 -7.57981e-09
5.50249e-07 -7.57981e-09 0.000143046
0.00104502 0.000159793 -1.52192e-06
0.000159793 0.000212242 8.09558e-08
-1.52192e-06 8.09558e-08 7.97571e-05
0.00109591 0.000171339 1.16534e-05
0.000171339 0.000203181 1.98534e-06
1.16534e-05 1.98534e-06 5.45341e-05
0.000432264 0.000115485 -1.23982e-06
0.000115485 -0.000104911 -3.58094e-07
-1.23982e-06 -3.58094e-07 -0.000232836
0.000489872 7.36515e-05 -1.15433e-06
7.36515e-05 -6.40136e-05 -7.88482e-07
-1.15433e-06 -7.88482e-07 -0.000173964
0.000408326 0.000116196 5.65536e-07
0.000116196 -0.000129022 6.53381e-07
5.65536e-07 6.53381e-07 -0.000262003
0.000961763 0.000137156 -1.4967e-06
0.000137156 0.000129909 -3.19949e-10
-1.4967e-06 -3.19949e-10 1.66879e-05
0.000208749 0.000139167 1.10842e-06
0.000139167 -0.000353175 -1.34792e-06
1.10842e-06 -1.34792e-06 -0.000484816
0.00281977 0.000349755 -2.15958e-06
0.000349755 0.000868358 -3.62052e-06
-2.15958e-06 -3.62052e-06 0.000715282
0.00153699 0.000330857 3.4504e-07
0.000330857 5.10647e-05 2.00426e-06
3.4504e-07 2.00426e-06 -0.000105939
0.00145967 0.000288886 4.09863e-06
0.000288886 0.000159854 -2.68809e-06
4.09863e-06 -2.68809e-06 5.63009e-06
0.000706143 0.000102737 -5.23394e-06
0.000102737 4.81243e-05 4.99187e-06
-5.23394e-06 4.99187e-06 -4.2404e-05
0.0032264 0.000218671 8.84766e-06
0.000218671 -7.61872e-05 8.03972e-06
8.84766e-06 8.03972e-06 -0.000331131
0.00627896 8.26099e-05 2.10932e-05
8.26099e-05 0.0013846 1.74975e-05
2.10932e-05 1.74975e-05 0.000124249
0.0054296 -0.00074947 -2.01095e-05
-0.00074947 0.00284546 -3.86387e-05
-2.01095e-05 -3.86387e-05 0.00270538
0.00574273 0.000300489 0.000294014
0.000300489 0.00186579 8.49598e-05
0.000294014 8.49598e-05 -0.000399781
0.00116924 0.00039154 2.74867e-05
0.00039154 -0.000355408 2.65336e-05
2.74867e-05 2.65336e-05 -0.000531816
0.0027542 0.000480232 -7.52404e-05
0.000480232 0.00012424 -2.31302e-05
-7.52404e-05 -2.31302e-05 -0.000308185
0.00297036 0.000464609 5.52002e-05
0.000464609 0.000513426 2.27629e-05
5.52002e-05 2.27629e-05 0.000525735
0.00225274 0.000450046 1.09644e-06
0.000450046 0.000378227 5.19548e-06
1.09644e-06 5.19548e-06 0.000246401
0.000557818 0.000242143 -1.36332e-06
0.000242143 -0.000153271 7.01362e-06
-1.36332e-06 7.01362e-06 -0.000305014
0.00244503 0.000517803 -7.92082e-05
0.000517803 0.000257188 -4.76817e-05
-7.92082e-05 -4.76817e-05 0.000172404
0.00280699 -0.000143792 -0.000135615
-0.000143792 0.000343237 4.50419e-06
-0.000135615 4.50419e-06 -3.52437e-05
0.00898913 -0.000129912 9.88309e-06
-0.000129912 0.00281136 -1.98736e-06
9.88309e-06 -1.98736e-06 0.00219359
-0.00667366 -0.000199814 0.000159978
-0.000199814 -0.0035577 2.46924e-06
0.000159978 2.46924e-06 -0.00344775
0.00168327 -0.000274372 -1.76652e-05
-0.000274372 0.000194881 7.82416e-06
-1.76652e-05 7.82416e-06 0.00010278
0.00527208 -0.000408842 7.97559e-05
-0.000408842 0.00117466 8.12937e-06
7.97559e-05 8.12937e-06 0.000367496
0.00133694 -0.00034736 7.80259e-05
-0.00034736 -0.00117333 4.25634e-05
7.80259e-05 4.25634e-05 -0.00197417
0.00124057 -0.000175369 8.70034e-06
-0.000175369 5.93902e-05 -1.08158e-06
8.70034e-06 -1.08158e-06 -0.000125878
0.001752 -1.38572e-05 -7.61763e-06
-1.38572e-05 -0.00034172 5.10344e-06
-7.61763e-06 5.10344e-06 -0.000621259
0.00457687 -0.000191073 1.32776e-05
-0.000191073 0.00157578 -4.17256e-06
1.32776e-05 -4.17256e-06 0.00147905
0.00294337 -5.24115e-06 5.43206e-05
-5.24115e-06 0.000567626 -4.65396e-06
5.43206e-05 -4.65396e-06 0.000553201
0.000660836 -0.000267859 -1.07023e-05
-0.000267859 -0.000612602 4.88062e-06
-1.07023e-05 4.88062e-06 -0.000597931
0.00181766 -0.000221991 -3.29419e-07
-0.000221991 -8.08205e-05 1.427e-06
-3.29419e-07 1.427e-06 -7.54801e-05
0.00182894 -0.000112189 7.03526e-06
-0.000112189 -1.9503e-05 -4.96622e-08
7.03526e-06 -4.96622e-08 -3.15571e-05
0.00158459 -0.000259335 1.8442e-06
-0.000259335 -7.23169e-05 -1.6871e-08
1.8442e-06 -1.6871e-08 -0.000147074
0.00187156 -0.000198176 1.72885e-06
-0.000198176 1.62953e-05 7.79525e-07
1.72885e-06 7.79525e-07 -3.30074e-05
0.00176996 -0.000133682 1.11528e-06
-0.000133682 2.97795e-05 6.90148e-07
1.11528e-06 6.90148e-07 -2.23574e-05
0.00172353 -0.00022137 4.99708e-06
-0.00022137 7.19777e-06 2.97817e-06
4.99708e-06 2.97817e-06 -8.79171e-05
0.00183013 -0.000185605 1.07166e-06
-0.000185605 9.64983e-05 3.45339e-07
1.07166e-06 3.45339e-07 1.67941e-05
0.00196118 -0.000153783 8.57681e-07
-0.000153783 0.000215307 4.77525e-07
8.57681e-07 4.77525e-07 0.000132104
0.00169903 -0.000186679 5.37525e-07
-0.000186679 7.42998e-05 3.4914e-06
5.37525e-07 3.4914e-06 -2.67554e-05
0.00176756 -0.000172722 -3.52955e-07
-0.000172722 0.000133915 4.29706e-07
-3.52955e-07 4.29706e-07 3.71753e-05
0.00161999 -0.000156783 3.99794e-06
-0.000156783 8.73992e-05 -1.20199e-06
3.99794e-06 -1.20199e-06 -2.45783e-05
0.00161463 -0.000166844 -3.82252e-06
-0.000166844 6.58733e-05 5.62536e-06
-3.82252e-06 5.62536e-06 -4.09531e-05
0.00174403 -0.00016621 -1.30606e-06
-0.00016621 0.000176172 -9.57066e-08
-1.30606e-06 -9.57066e-08 5.61655e-05
0.00169973 -0.000158643 6.25916e-07
-0.000158643 0.00019743 -1.02693e-06
6.25916e-07 -1.02693e-06 6.37192e-05
0.00169636 -0.000184774 7.6959e-07
-0.000184774 0.000165913 2.11169e-06
7.6959e-07 2.11169e-06 2.6333e-05
0.00166263 -0.000179329 7.51354e-07
-0.000179329 0.00018473 -4.37789e-07
7.51354e-07 -4.37789e-07 3.93886e-05
0.0015943 -0.000173567 -3.12704e-06
-0.000173567 0.000193431 -1.38726e-07
-3.12704e-06 -1.38726e-07 4.94926e-05
0.00100632 -0.000159346 -7.42148e-06
-0.000159346 -3.24651e-05 2.33161e-06
-7.42148e-06 2.33161e-06 -0.0001827
0.00133361 -0.000185786 -1.10501e-06
-0.000185786 8.66078e-05 -4.00778e-08
-1.10501e-06 -4.00778e-08 -7.45671e-05
0.00153517 -0.000201677 3.40275e-06
-0.000201677 0.000141485 3.95981e-07
3.40275e-06 3.95981e-07 -2.2078e-05
0.000872444 -0.000120172 -5.39235e-06
-0.000120172 3.30363e-05 4.46884e-06
-5.39235e-06 4.46884e-06 -8.59275e-05
0.00113255 -0.000169141 6.11664e-07
-0.000169141 0.000122162 5.60241e-07
6.11664e-07 5.60241e-07 -3.26188e-05
0.00113734 -0.000185039 1.70372e-06
-0.000185039 7.41807e-05 -3.96297e-07
1.70372e-06 -3.96297e-07 -0.000101083
0.000509613 -1.88024e-05 -7.41323e-06
-1.88024e-05 -9.10928e-05 8.2827e-06
-7.41323e-06 8.2827e-06 -0.000143053
0.000869394 -0.000104606 1.9366e-08
-0.000104606 7.40642e-05 -2.4314e-07
1.9366e-08 -2.4314e-07 -3.62063e-05
0.00114808 -0.000164776 2.61362e-06
-0.000164776 0.000192157 -2.58673e-06
2.61362e-06 -2.58673e-06 4.5476e-05
0.00331379 0.000131225 -6.51258e-05
0.000131225 0.00151748 2.36637e-06
-6.51258e-05 2.36637e-06 0.00151164
0.00060473 9.81161e-07 3.77e-07
9.81161e-07 -3.15132e-05 -1.88688e-07
3.77e-07 -1.88688e-07 -7.58051e-05
0.000887375 -8.75709e-05 4.33474e-06
-8.75709e-05 0.00010929 -2.68288e-06
4.33474e-06 -2.68288e-06 6.33641e-06
0.00298105 0.000113185 3.57204e-06
0.000113185 0.00132766 2.31396e-07
3.57204e-06 2.31396e-07 0.00132671
0.000653185 3.27667e-05 3.73261e-06
3.27667e-05 6.78874e-06 -6.37049e-06
3.73261e-06 -6.37049e-06 -3.05841e-05
0.00270524 9.88323e-05 5.33603e-05
9.88323e-05 0.00116929 -2.48136e-06
5.33603e-05 -2.48136e-06 0.00117248
0.00110291 0.000164895 -3.22892e-08
0.000164895 0.000203062 -3.49585e-06
-3.22892e-08 -3.49585e-06 5.86575e-05
0.00111144 0.000155798 4.56693e-07
0.000155798 0.000237026 2.36084e-07
4.56693e-07 2.36084e-07 0.000109851
0.000855332 8.54742e-05 -1.30929e-06
8.54742e-05 9.5371e-05 -1.58982e-06
-1.30929e-06 -1.58982e-06 -1.60252e-05
0.000756053 0.000120407 -1.67385e-07
0.000120407 6.48717e-05 4.28474e-07
-1.67385e-07 4.28474e-07 -4.44212e-05
0.000675367 1.39274e-05 -5.6491e-07
1.39274e-05 9.82395e-06 -1.81821e-07
-5.6491e-07 -1.81821e-07 -8.86409e-05
0.000705874 2.19123e-05 -2.08925e-06
2.19123e-05 2.43643e-05 -2.77553e-06
-2.08925e-06 -2.77553e-06 -5.33012e-05
0.000663082 -5.13348e-05 -1.42384e-07
-5.13348e-05 2.31252e-06 1.54812e-06
-1.42384e-07 1.54812e-06 -8.49205e-05
0.00066578 -3.35358e-05 3.8682e-07
-3.35358e-05 -2.44591e-06 -3.54918e-07
3.8682e-07 -3.54918e-07 -6.58035e-05
0.000615066 -7.09288e-05 1.14539e-06
-7.09288e-05 -1.36056e-05 -5.64925e-06
1.14539e-06 -5.64925e-06 -4.38055e-05
0.000670437 -3.94191e-05 1.19695e-06
-3.94191e-05 -4.95627e-06 2.65271e-06
1.19695e-06 2.65271e-06 -6.06637e-05
0.00060821 -5.93508e-05 2.16611e-07
-5.93508e-05 -2.9719e-05 -1.70667e-08
2.16611e-07 -1.70667e-08 -5.40054e-05
0.00249777 -9.05639e-05 -4.03409e-05
-9.05639e-05 0.00104378 -2.69888e-06
-4.03409e-05 -2.69888e-06 0.0010498
0.00244538 -8.09991e-05 -1.60292e-06
-8.09991e-05 0.00100646 1.75553e-07
-1.60292e-06 1.75553e-07 0.00101465
0.000609197 -4.8332e-05 1.1787e-06
-4.8332e-05 -3.95916e-05 4.45968e-06
1.1787e-06 4.45968e-06 -6.01315e-05
0.00241064 -7.13988e-05 2.94888e-05
-7.13988e-05 0.000978974 3.73197e-06
2.94888e-05 3.73197e-06 0.00098927
0.00295827 3.9219e-06 -4.72568e-05
3.9219e-06 0.000185494 1.6789e-05
-4.72568e-05 1.6789e-05 4.95942e-05
0.00164461 -0.000270251 2.40457e-05
-0.000270251 -0.00109586 9.50183e-06
2.40457e-05 9.50183e-06 -0.00199478
0.00432961 -0.000419223 -4.37419e-05
-0.000419223 0.00184368 -2.74457e-05
-4.37419e-05 -2.74457e-05 0.00192464
0.00154193 0.00021038 1.17878e-05
0.00021038 0.000347095 3.86857e-06
1.17878e-05 3.86857e-06 0.000187607
0.00122802 0.000124221 9.17404e-07
0.000124221 0.000349987 5.7992e-07
9.17404e-07 5.7992e-07 0.000227231
0.000897928 0.000148535 -1.40909e-06
0.000148535 0.00013397 1.4488e-06
-1.40909e-06 1.4488e-06 3.68926e-06
0.000759622 0.000140712 6.4565e-07
0.000140712 7.40593e-05 7.48908e-07
6.4565e-07 7.48908e-07 -5.85747e-05
0.00103302 0.000168366 -2.48059e-07
0.000168366 0.000173035 -1.75325e-06
-2.48059e-07 -1.75325e-06 2.25971e-05
0.000691383 0.000158202 -6.81614e-07
0.000158202 -6.93611e-05 8.71854e-07
-6.81614e-07 8.71854e-07 -0.000196401
0.000896278 0.000155388 -9.29025e-07
0.000155388 0.000131037 -4.4969e-07
-9.29025e-07 -4.4969e-07 -1.11668e-05
0.00102677 0.00013323 -2.06599e-06
0.00013323 0.000163593 5.52059e-06
-2.06599e-06 5.52059e-06 4.60464e-05
0.000998333 0.000192021 5.07165e-07
0.000192021 7.11892e-05 -2.87007e-08
5.07165e-07 -2.87007e-08 -6.34718e-05
0.00225295 0.000312271 1.3743e-06
0.000312271 0.000567065 5.67061e-06
1.3743e-06 5.67061e-06 0.000414547
0.00171956 0.000311071 -1.15879e-06
0.000311071 0.000156943 -5.86684e-07
-1.15879e-06 -5.86684e-07 -3.16669e-06
0.00148421 0.000268756 1.40566e-05
0.000268756 -9.041e-06 1.0593e-05
1.40566e-05 1.0593e-05 -0.000122679
0.00136476 0.000321911 -2.14854e-06
0.000321911 -4.8755e-05 -2.53774e-06
-2.14854e-06 -2.53774e-06 -0.000209717
0.000854709 0.000244864 1.2159e-06
0.000244864 -0.000142989 4.52228e-06
1.2159e-06 4.52228e-06 -0.000285275
0.000306418 0.000174561 1.35605e-05
0.000174561 -0.000454477 6.49579e-06
1.35605e-05 6.49579e-06 -0.000453147
0.00507856 0.000342021 -2.48509e-05
0.000342021 0.000665441 -1.19247e-07
-2.48509e-05 -1.19247e-07 0.000304688
0.000737116 -4.27093e-05 7.48407e-05
-4.27093e-05 -0.00128988 2.0269e-05
7.48407e-05 2.0269e-05 -0.00256548
0.00197322 0.000477147 5.77639e-05
0.000477147 -0.000317926 5.27215e-06
5.77639e-05 5.27215e-06 -0.000877423
0.00170461 0.00035078 -2.03015e-05
0.00035078 9.53888e-05 -3.38014e-06
-2.03015e-05 -3.38014e-06 8.05146e-05
0.00111357 0.000354234 -3.20544e-05
0.000354234 -0.000136776 -2.42772e-05
-3.20544e-05 -2.42772e-05 -0.000270632
0.0020761 -0.000106098 1.63649e-05
-0.000106098 0.000110063 7.43119e-07
1.63649e-05 7.43119e-07 2.46311e-05
0.00108976 3.8088e-06 -1.53958e-05
3.8088e-06 -0.000464431 2.07633e-06
-1.53958e-05 2.07633e-06 -0.000669378
0.000430215 0.000353227 6.4024e-05
0.000353227 -0.00192067 -2.00902e-05
6.4024e-05 -2.00902e-05 -0.00257242
0.000492544 -0.000101452 -1.49622e-06
-0.000101452 -0.00036436 1.56023e-05
-1.49622e-06 1.56023e-05 -0.000440023
0.0025769 -3.60263e-05 5.21594e-06
-3.60263e-05 -8.014e-05 2.09377e-05
5.21594e-06 2.09377e-05 -0.000425437
0.00159503 -0.000117691 -4.25759e-06
-0.000117691 -3.49179e-05 -2.62144e-07
-4.25759e-06 -2.62144e-07 -8.60855e-05
0.00222274 -3.64867e-05 -4.77423e-06
-3.64867e-05 0.000184999 -1.55879e-06
-4.77423e-06 -1.55879e-06 0.000143869
0.0018943 -5.52378e-05 1.92571e-05
-5.52378e-05 4.48499e-05 -2.00229e-06
1.92571e-05 -2.00229e-06 1.74905e-05
0.00273018 -3.40777e-05 1.58541e-05
-3.40777e-05 0.000609107 -3.52986e-07
1.58541e-05 -3.52986e-07 0.000566004
0.00188371 -0.000234232 -7.17092e-06
-0.000234232 -3.08968e-05 1.63557e-06
-7.17092e-06 1.63557e-06 -4.41686e-05
0.00188885 -0.000121038 2.70867e-06
-0.000121038 -1.38175e-06 -4.87474e-08
2.70867e-06 -4.87474e-08 -1.58933e-05
0.00188788 -0.000127973 8.18198e-07
-0.000127973 7.82093e-05 -1.52829e-07
8.18198e-07 -1.52829e-07 4.0522e-05
0.00189221 -0.000198506 2.79644e-06
-0.000198506 4.15103e-05 1.03267e-06
2.79644e-06 1.03267e-06 -1.36804e-05
0.00183612 -0.000147286 5.17712e-07
-0.000147286 5.88671e-05 -5.21953e-08
5.17712e-07 -5.21953e-08 2.38622e-06
0.00185917 -0.000134801 2.30764e-06
-0.000134801 0.000140248 2.10125e-07
2.30764e-06 2.10125e-07 6.78928e-05
0.00180471 -0.000182094 -3.9408e-07
-0.000182094 9.09991e-05 1.45228e-06
-3.9408e-07 1.45228e-06 1.11321e-05
0.00183443 -0.000156071 -1.17445e-06
-0.000156071 0.0001468 9.46311e-08
-1.17445e-06 9.46311e-08 6.2312e-05
0.00164894 -0.000136761 2.52235e-06
-0.000136761 8.02943e-05 7.36225e-09
2.52235e-06 7.36225e-09 -2.37367e-05
0.00162045 -0.000170407 -3.09305e-06
-0.000170407 5.70077e-05 1.50512e-06
-3.09305e-06 1.50512e-06 -4.1041e-05
0.00163406 -0.000156986 4.11883e-07
-0.000156986 9.81327e-05 -4.44823e-07
4.11883e-07 -4.44823e-07 -1.38182e-05
0.00157226 -0.000141796 1.21838e-06
-0.000141796 0.000107124 -5.62337e-07
1.21838e-06 -5.62337e-07 -2.04625e-05
0.0017495 -0.000164937 -4.43608e-06
-0.000164937 0.000178601 3.22446e-06
-4.43608e-06 3.22446e-06 6.09364e-05
0.00166332 -0.000155745 -2.12403e-07
-0.000155745 0.000173965 -3.26636e-07
-2.12403e-07 -3.26636e-07 4.16967e-05
0.00144887 -0.000144473 -2.53483e-06
-0.000144473 9.69889e-05 3.40192e-07
-2.53483e-06 3.40192e-07 -3.94188e-05
0.00170598 -0.000181154 2.51328e-06
-0.000181154 0.000209736 3.04391e-07
2.51328e-06 3.04391e-07 6.37939e-05
0.00147659 -0.000167842 7.01889e-07
-0.000167842 0.000125863 -2.59512e-07
7.01889e-07 -2.59512e-07 -1.82871e-05
0.0013182 -0.00015475 -6.35734e-06
-0.00015475 9.49015e-05 1.45534e-06
-6.35734e-06 1.45534e-06 -4.22709e-05
0.00100079 -0.0001325 -7.99878e-06
-0.0001325 4.44055e-05 4.73013e-06
-7.99878e-06 4.73013e-06 -7.6524e-05
0.00107134 -0.00016181 -1.63178e-06
-0.00016181 7.45867e-06 6.70685e-07
-1.63178e-06 6.70685e-07 -0.000142533
0.00132786 -0.000184742 3.18451e-06
-0.000184742 8.7331e-05 7.07184e-09
3.18451e-06 7.07184e-09 -7.36573e-05
0.000540451 -8.98278e-05 -1.17243e-05
-8.98278e-05 -8.40936e-05 9.86364e-06
-1.17243e-05 9.86364e-06 -0.000147944
0.000912688 -0.00012522 4.74717e-07
-0.00012522 5.55322e-05 1.61139e-07
4.74717e-07 1.61139e-07 -6.4309e-05
0.00111983 -0.000167592 4.28291e-06
-0.000167592 0.000113342 -1.83781e-06
4.28291e-06 -1.83781e-06 -4.07174e-05
0.00370346 0.000142667 -8.19149e-05
0.000142667 0.00174149 2.96363e-06
-8.19149e-05 2.96363e-06 0.00173115
0.000633279 -5.26802e-05 4.61802e-08
-5.26802e-05 -2.55212e-05 -1.82178e-07
4.61802e-08 -1.82178e-07 -8.00617e-05
0.000969107 -0.000115178 5.18872e-06
-0.000115178 0.000129394 -3.81482e-06
5.18872e-06 -3.81482e-06 1.74602e-05
0.003413 0.00011967 2.99177e-06
0.00011967 0.00157088 3.31723e-07
2.99177e-06 3.31723e-07 0.00156695
0.000692256 -1.58944e-05 7.89103e-06
-1.58944e-05 1.51406e-05 -7.25082e-06
7.89103e-06 -7.25082e-06 -3.00487e-05
0.00310165 0.00010052 7.47983e-05
0.00010052 0.00139181 -3.11044e-06
7.47983e-05 -3.11044e-06 0.00139314
0.00102835 0.000170698 -1.04948e-06
0.000170698 9.53905e-05 -1.68623e-06
-1.04948e-06 -1.68623e-06 -6.48291e-05
0.00101774 0.000158542 -9.02022e-08
0.000158542 0.000157124 -1.47227e-06
-9.02022e-08 -1.47227e-06 1.36733e-05
0.00111411 0.000148981 -1.1687e-06
0.000148981 0.000214663 -1.8182e-06
-1.1687e-06 -1.8182e-06 8.6486e-05
0.00127118 0.000167385 -5.56861e-07
0.000167385 0.000326012 3.74204e-07
-5.56861e-07 3.74204e-07 0.00019783
0.000881177 9.15209e-05 -1.10036e-06
9.15209e-05 0.000108584 -7.71239e-07
-1.10036e-06 -7.71239e-07 -2.20467e-06
0.000789969 4.80207e-05 -2.51304e-06
4.80207e-05 6.99392e-05 -2.26735e-06
-2.51304e-06 -2.26735e-06 -2.04633e-05
0.00067718 3.4962e-05 -1.95804e-07
3.4962e-05 9.71492e-06 3.95744e-07
-1.95804e-07 3.95744e-07 -9.03463e-05
0.000683353 -1.70436e-05 -3.83684e-07
-1.70436e-05 1.09089e-05 -6.91892e-08
-3.83684e-07 -6.91892e-08 -6.40129e-05
0.000594838 -6.63958e-05 -4.40707e-07
-6.63958e-05 -1.97671e-05 -5.91551e-06
-4.40707e-07 -5.91551e-06 -5.53879e-05
0.000651819 -4.89684e-05 7.14122e-07
-4.89684e-05 -7.73069e-06 3.03577e-06
7.14122e-07 3.03577e-06 -7.18006e-05
0.000585289 -7.22289e-05 2.50559e-07
-7.22289e-05 -3.0334e-05 -1.25203e-07
2.50559e-07 -1.25203e-07 -6.05432e-05
0.00259899 -9.94198e-05 -4.71269e-05
-9.94198e-05 0.00110631 -2.29515e-06
-4.71269e-05 -2.29515e-06 0.00111015
0.000594859 -5.618e-05 1.26947e-06
-5.618e-05 -3.8483e-05 4.68405e-06
1.26947e-06 4.68405e-06 -6.20303e-05
0.00248138 -9.04067e-05 -1.10062e-06
-9.04067e-05 0.00103406 1.61641e-07
-1.10062e-06 1.61641e-07 0.00104006
0.00243975 -8.03845e-05 3.41831e-05
-8.03845e-05 0.0010027 3.38065e-06
3.41831e-05 3.38065e-06 0.00101097
0.000479799 2.57061e-05 1.10935e-05
2.57061e-05 -0.000513762 4.99216e-06
1.10935e-05 4.99216e-06 -0.000529602
0.00398378 5.33581e-05 1.6338e-05
5.33581e-05 0.000480349 9.9869e-06
1.6338e-05 9.9869e-06 0.000170531
0.00724962 0.000321203 -9.62022e-05
0.000321203 0.00209201 -2.83525e-05
-9.62022e-05 -2.83525e-05 0.0010923
0.000783533 0.000165052 3.33908e-06
0.000165052 -0.000128106 1.00287e-06
3.33908e-06 1.00287e-06 -0.000263702
0.00153069 0.000216503 3.89184e-06
0.000216503 0.000151178 -3.36574e-06
3.89184e-06 -3.36574e-06 -1.43255e-07
0.000917739 0.000174267 -2.44303e-07
0.000174267 1.44495e-05 -2.44109e-06
-2.44303e-07 -2.44109e-06 -0.000138905
0.00108222 0.000165406 -1.45525e-06
0.000165406 0.000250637 -4.28319e-07
-1.45525e-06 -4.28319e-07 0.000113365
0.000987525 0.000166337 -1.50007e-06
0.000166337 0.000151615 -7.67283e-07
-1.50007e-06 -7.67283e-07 -6.67482e-07
0.00123773 0.000198539 5.66157e-06
0.000198539 0.000210451 2.84643e-06
5.66157e-06 2.84643e-06 7.7294e-05
0.00221108 0.000310876 -7.60752e-06
0.000310876 0.000459216 -5.43183e-06
-7.60752e-06 -5.43183e-06 0.000306208
0.00167897 0.000238187 8.08682e-09
0.000238187 0.000440067 1.97682e-06
8.08682e-09 1.97682e-06 0.000302773
0.00131058 0.000252518 6.39509e-06
0.000252518 6.98468e-05 1.29696e-05
6.39509e-06 1.29696e-05 -8.0396e-05
0.00180046 0.000311593 -1.28574e-06
0.000311593 0.00020761 1.16776e-06
-1.28574e-06 1.16776e-06 5.00615e-05
0.00218213 0.000305541 -6.56966e-06
0.000305541 0.000309245 3.20032e-06
-6.56966e-06 3.20032e-06 0.000167374
0.00108182 0.000128031 1.53565e-05
0.000128031 -0.000282365 5.26267e-06
1.53565e-05 5.26267e-06 -0.000350861
0.00152142 0.000266381 8.47177e-06
0.000266381 1.47211e-05 1.92908e-06
8.47177e-06 1.92908e-06 -0.000101959
0.00114327 0.000305061 -7.17115e-06
0.000305061 -0.000174074 -6.87121e-06
-7.17115e-06 -6.87121e-06 -0.00033681
0.00102083 0.00016984 -5.4467e-06
0.00016984 -0.000102168 2.00468e-06
-5.4467e-06 2.00468e-06 -0.000109912
0.00498732 0.000166268 4.01339e-05
0.000166268 0.000550999 6.71769e-07
4.01339e-05 6.71769e-07 0.000140332
0.0012454 0.000284914 1.93243e-06
0.000284914 4.76294e-05 -1.16271e-05
1.93243e-06 -1.16271e-05 2.49132e-05
0.00122707 -2.95828e-05 1.61877e-05
-2.95828e-05 -0.00015465 1.58696e-06
1.61877e-05 1.58696e-06 -0.000194429
0.00195748 -5.0347e-05 -8.61829e-06
-5.0347e-05 8.21572e-05 -3.71698e-07
-8.61829e-06 -3.71698e-07 1.21429e-05
0.00220045 0.000137714 5.99996e-05
0.000137714 -0.000120983 -7.51373e-06
5.99996e-05 -7.51373e-06 -0.000387192
-0.000620326 -7.70669e-05 -1.76061e-05
-7.70669e-05 -0.00123156 1.12422e-05
-1.76061e-05 1.12422e-05 -0.00124191
0.00207786 -7.57893e-05 -5.75503e-05
-7.57893e-05 0.000100643 7.50913e-06
-5.75503e-05 7.50913e-06 5.16069e-05
0.0015675 -8.75777e-05 4.54402e-07
-8.75777e-05 -0.000160329 1.53353e-06
4.54402e-07 1.53353e-06 -0.000173906
0.00228892 -4.66345e-05 -2.55652e-06
-4.66345e-05 0.000322305 4.97987e-07
-2.55652e-06 4.97987e-07 0.000276034
0.00188057 -0.000127877 6.84666e-06
-0.000127877 1.38149e-05 3.01269e-07
6.84666e-06 3.01269e-07 -1.53267e-05
0.0018615 -3.03875e-05 3.86871e-06
-3.03875e-05 2.8691e-05 -3.45281e-07
3.86871e-06 -3.45281e-07 -2.74124e-05
0.00200644 -0.000131286 -1.66532e-06
-0.000131286 4.5141e-05 6.14293e-07
-1.66532e-06 6.14293e-07 3.0164e-05
0.00179556 -0.000125711 -1.70543e-06
-0.000125711 2.43761e-05 1.4095e-08
-1.70543e-06 1.4095e-08 -1.1286e-05
0.00186539 -0.000123013 2.60231e-06
-0.000123013 8.62512e-05 2.75761e-07
2.60231e-06 2.75761e-07 2.69491e-05
0.0018899 -0.000159389 -1.6673e-06
-0.000159389 8.25959e-05 -2.71226e-07
-1.6673e-06 -2.71226e-07 2.17792e-05
0.00176586 -0.000133538 1.36048e-07
-0.000133538 9.01053e-05 -2.87837e-08
1.36048e-07 -2.87837e-08 1.52075e-05
0.0017231 -0.000118482 2.15522e-06
-0.000118482 8.8048e-05 3.60708e-08
2.15522e-06 3.60708e-08 -5.43722e-06
0.00169862 -0.000157558 -5.02595e-06
-0.000157558 7.36324e-05 2.87091e-07
-5.02595e-06 2.87091e-07 -1.20469e-05
0.00166961 -0.000136717 1.54677e-07
-0.000136717 9.3632e-05 -3.82876e-08
1.54677e-07 -3.82876e-08 -1.02806e-05
0.00162921 -0.000124309 1.26377e-06
-0.000124309 0.000110094 -1.61182e-07
1.26377e-06 -1.61182e-07 -1.20815e-05
0.00164966 -0.000157215 -2.87226e-06
-0.000157215 0.000109702 2.71056e-07
-2.87226e-06 2.71056e-07 -2.21493e-06
0.00158403 -0.000141655 1.19184e-08
-0.000141655 0.000111799 -1.33192e-07
1.19184e-08 -1.33192e-07 -1.55746e-05
0.00147412 -0.000130872 -1.89457e-06
-0.000130872 9.91756e-05 5.42368e-07
-1.89457e-06 5.42368e-07 -3.45654e-05
0.00162348 -0.000152838 -5.05707e-07
-0.000152838 0.000148582 1.1241e-06
-5.05707e-07 1.1241e-06 1.77455e-05
0.0014334 -0.000144234 -3.01185e-07
-0.000144234 8.7255e-05 -1.66604e-07
-3.01185e-07 -1.66604e-07 -4.91487e-05
0.00134361 -0.000137852 -6.00064e-06
-0.000137852 9.0054e-05 1.70967e-06
-6.00064e-06 1.70967e-06 -4.14649e-05
0.00137083 -0.000162837 4.27529e-06
-0.000162837 6.47786e-05 -5.37824e-07
4.27529e-06 -5.37824e-07 -7.96423e-05
0.00114069 -0.000145843 7.31162e-08
-0.000145843 -3.57212e-06 -1.02668e-07
7.31162e-08 -1.02668e-07 -0.000140898
0.00105388 -0.000125623 -9.87618e-06
-0.000125623 3.05453e-05 4.28843e-06
-9.87618e-06 4.28843e-06 -8.43816e-05
0.000482599 -0.000122475 -1.62286e-05
-0.000122475 -0.000138854 1.03187e-05
-1.62286e-05 1.03187e-05 -0.000206583
0.000980443 -0.000132092 4.68919e-07
-0.000132092 3.4195e-05 3.43948e-07
4.68919e-07 3.43948e-07 -8.6807e-05
0.00115928 -0.000165671 3.78408e-06
-0.000165671 6.00596e-05 -6.91267e-07
3.78408e-06 -6.91267e-07 -8.98538e-05
0.00410021 0.000162124 -8.89813e-05
0.000162124 0.00197577 4.26912e-06
-8.89813e-05 4.26912e-06 0.00195811
0.000642685 -8.57269e-05 8.13911e-08
-8.57269e-05 -3.16106e-05 1.89985e-07
8.13911e-08 1.89985e-07 -9.60367e-05
0.000971793 -0.000131047 6.39092e-06
-0.000131047 8.92663e-05 -4.0612e-06
6.39092e-06 -4.0612e-06 -3.16204e-05
0.00383413 0.000133206 5.2102e-06
0.000133206 0.00181364 5.14216e-07
5.2102e-06 5.14216e-07 0.00180428
0.000764676 -5.52337e-05 1.05403e-05
-5.52337e-05 4.27011e-05 -8.72853e-06
1.05403e-05 -8.72853e-06 -1.25512e-05
0.00352462 0.000108262 9.00229e-05
0.000108262 0.00163084 -3.65763e-06
9.00229e-05 -3.65763e-06 0.00162844
0.000692794 0.000157018 -1.97945e-06
0.000157018 -0.00021157 5.57343e-07
-1.97945e-06 5.57343e-07 -0.000370125
0.000737085 0.000152539 -5.9603e-07
0.000152539 -6.82077e-05 7.06315e-07
-5.9603e-07 7.06315e-07 -0.000227257
0.00111817 0.000159712 -2.76377e-06
0.000159712 0.000165149 -2.20195e-06
-2.76377e-06 -2.20195e-06 2.15009e-05
0.00092249 0.000151562 -5.62793e-07
0.000151562 0.000105599 5.23994e-07
-5.62793e-07 5.23994e-07 -3.68046e-05
0.000986727 0.000138994 -3.57374e-07
0.000138994 0.000145999 -5.29287e-07
-3.57374e-07 -5.29287e-07 1.94031e-05
0.000927974 8.56538e-05 -3.90059e-06
8.56538e-05 0.000134968 -2.52171e-06
-3.90059e-06 -2.52171e-06 3.27793e-05
0.000890586 9.62849e-05 -5.02085e-08
9.62849e-05 0.000112819 -4.04515e-07
-5.02085e-08 -4.04515e-07 2.72815e-06
0.000741885 3.15652e-05 -2.44127e-07
3.15652e-05 4.56553e-05 1.22029e-07
-2.44127e-07 1.22029e-07 -4.4286e-05
0.000628639 -3.04888e-05 -4.57114e-06
-3.04888e-05 -8.01267e-06 -6.17063e-06
-4.57114e-06 -6.17063e-06 -4.85818e-05
0.00066985 -4.38208e-05 4.52902e-07
-4.38208e-05 5.21856e-06 3.16013e-06
4.52902e-07 3.16013e-06 -6.92781e-05
0.000557729 -7.17452e-05 -1.1685e-07
-7.17452e-05 -3.97116e-05 -2.12841e-07
-1.1685e-07 -2.12841e-07 -7.56762e-05
0.00280144 -0.000108227 -5.78473e-05
-0.000108227 0.00122383 -2.11737e-06
-5.78473e-05 -2.11737e-06 0.00122507
0.000557621 -6.79376e-05 4.89515e-07
-6.79376e-05 -4.81362e-05 5.09086e-06
4.89515e-07 5.09086e-06 -7.69595e-05
0.00256071 -0.000100085 -1.13683e-06
-0.000100085 0.00108498 1.55706e-07
-1.13683e-06 1.55706e-07 0.0010886
0.0024687 -8.9748e-05 3.78666e-05
-8.9748e-05 0.00102645 2.96233e-06
3.78666e-05 2.96233e-06 0.00103254
0.0012236 4.85233e-05 9.69563e-06
4.85233e-05 -0.000213765 2.14582e-06
9.69563e-06 2.14582e-06 -0.000258911
0.00160339 -5.21326e-06 -3.19382e-06
-5.21326e-06 -3.73748e-05 3.27887e-06
-3.19382e-06 3.27887e-06 -8.25161e-05
0.00287202 8.53082e-07 6.63376e-05
8.53082e-07 -0.000129825 -2.07975e-06
6.63376e-05 -2.07975e-06 -0.00030757
0.00186236 0.000247536 -2.70727e-07
0.000247536 0.000266639 -6.63134e-06
-2.70727e-07 -6.63134e-06 0.000120693
0.000735286 0.000167106 -1.98787e-06
0.000167106 -0.000130111 6.70369e-07
-1.98787e-06 6.70369e-07 -0.000252195
0.00173415 0.000209788 -2.28158e-06
0.000209788 0.000177122 7.41448e-07
-2.28158e-06 7.41448e-07 3.25334e-05
0.00175826 0.000229671 7.91783e-07
0.000229671 0.000280698 3.79379e-07
7.91783e-07 3.79379e-07 0.000126091
0.000316816 0.000139377 -4.72894e-06
0.000139377 -0.000305617 1.12938e-06
-4.72894e-06 1.12938e-06 -0.000452833
0.00175745 0.000245675 -3.40665e-06
0.000245675 9.37379e-05 2.10124e-06
-3.40665e-06 2.10124e-06 -4.80398e-05
0.00172047 0.000234773 -6.86374e-07
0.000234773 0.000456725 6.93931e-07
-6.86374e-07 6.93931e-07 0.000317991
0.00208164 0.000302197 -1.917e-07
0.000302197 0.000380705 -2.75407e-06
-1.917e-07 -2.75407e-06 0.000224699
0.00180848 0.000168922 -4.11799e-06
0.000168922 6.55029e-05 1.92721e-06
-4.11799e-06 1.92721e-06 -3.71163e-05
0.00203901 0.000322803 3.64676e-06
0.000322803 0.000340718 3.52517e-06
3.64676e-06 3.52517e-06 0.000184637
0.00204516 0.000299785 -1.03858e-06
0.000299785 0.000234197 2.31586e-07
-1.03858e-06 2.31586e-07 9.23617e-05
0.0011847 0.000142131 -3.87678e-07
0.000142131 -0.000205148 4.58256e-07
-3.87678e-07 4.58256e-07 -0.000274688
0.00108414 0.000240086 -4.7832e-06
0.000240086 -0.000195556 -4.41109e-06
-4.7832e-06 -4.41109e-06 -0.000314854
0.00129917 0.00016179 -2.43424e-05
0.00016179 3.79654e-05 -4.28019e-06
-2.43424e-05 -4.28019e-06 2.2306e-05
0.00172034 1.64606e-05 3.01879e-06
1.64606e-05 -4.18643e-05 2.7501e-07
3.01879e-06 2.7501e-07 -0.000105502
0.00192239 -8.96791e-06 -1.57432e-06
-8.96791e-06 0.000240025 -3.29182e-07
-1.57432e-06 -3.29182e-07 0.000200606
0.00162082 4.46996e-07 -4.31738e-05
4.46996e-07 -5.72215e-05 -2.35772e-06
-4.31738e-05 -2.35772e-06 -0.000133733
0.00112572 -0.000116728 -1.25907e-05
-0.000116728 -0.00044161 1.3856e-06
-1.25907e-05 1.3856e-06 -0.000442379
0.00159157 -5.812e-05 -8.98281e-06
-5.812e-05 -0.000102232 5.96451e-07
-8.98281e-06 5.96451e-07 -0.000151269
0.00195852 -0.000122061 -6.38943e-07
-0.000122061 6.28625e-05 -9.73776e-08
-6.38943e-07 -9.73776e-08 3.2285e-05
0.00190688 -3.1592e-05 3.45237e-07
-3.1592e-05 4.87868e-05 1.02872e-07
3.45237e-07 1.02872e-07 -6.06975e-06
0.00182924 -5.58812e-05 -1.76283e-07
-5.58812e-05 3.48212e-05 -5.80179e-07
-1.76283e-07 -5.80179e-07 -2.81783e-05
0.00165722 -0.000122534 -2.26742e-06
-0.000122534 -5.35692e-05 -4.12823e-07
-2.26742e-06 -4.12823e-07 -8.7425e-05
0.00186578 -0.000119 6.68451e-07
-0.000119 9.48188e-05 -8.02993e-08
6.68451e-07 -8.02993e-08 3.23376e-05
0.00183249 -9.8629e-05 1.06052e-06
-9.8629e-05 0.000105259 -3.07064e-07
1.06052e-06 -3.07064e-07 1.9598e-05
0.00169784 -0.000133578 -2.95119e-06
-0.000133578 5.31592e-05 -2.56936e-07
-2.95119e-06 -2.56936e-07 -2.41667e-05
0.00169133 -0.000118539 4.14692e-08
-0.000118539 7.50846e-05 -4.54744e-08
4.14692e-08 -4.54744e-08 -2.02328e-05
0.00168952 -0.000101423 1.30436e-06
-0.000101423 0.000108337 -8.45572e-08
1.30436e-06 -8.45572e-08 -8.41557e-06
0.00169173 -0.000136628 -2.37593e-06
-0.000136628 0.000107631 -4.88426e-08
-2.37593e-06 -4.88426e-08 3.84567e-06
0.00162633 -0.000123074 -8.66112e-08
-0.000123074 0.000108669 -3.48916e-08
-8.66112e-08 -3.48916e-08 -1.32924e-05
0.0015256 -0.000110836 -1.45959e-06
-0.000110836 0.000111002 5.21385e-07
-1.45959e-06 5.21385e-07 -2.03989e-05
0.00159548 -0.000141547 -9.0009e-07
-0.000141547 0.000116339 2.40241e-07
-9.0009e-07 2.40241e-07 -1.08237e-05
0.00149309 -0.000131217 -4.96927e-08
-0.000131217 0.000108287 -9.79348e-09
-4.96927e-08 -9.79348e-09 -2.52781e-05
0.0013627 -0.000121847 -5.36873e-06
-0.000121847 8.7706e-05 1.7591e-06
-5.36873e-06 1.7591e-06 -4.17722e-05
0.00142102 -0.000144079 2.32929e-06
-0.000144079 7.91587e-05 -4.74399e-07
2.32929e-06 -4.74399e-07 -5.72411e-05
0.00132962 -0.000136449 -1.0853e-07
-0.000136449 8.30733e-05 -4.45816e-08
-1.0853e-07 -4.45816e-08 -4.82839e-05
0.00107839 -0.000111898 -1.06247e-05
-0.000111898 2.45398e-05 4.18082e-06
-1.06247e-05 4.18082e-06 -8.56939e-05
0.000954695 -0.000136395 5.71532e-06
-0.000136395 -0.00010684 -1.3736e-06
5.71532e-06 -1.3736e-06 -0.00024424
0.00103439 -0.000123829 2.57459e-07
-0.000123829 2.00211e-05 6.32688e-08
2.57459e-07 6.32688e-08 -9.47346e-05
0.00219191 -4.49343e-05 -1.24975e-05
-4.49343e-05 0.00081654 6.97779e-06
-1.24975e-05 6.97779e-06 0.000750803
0.00124379 -1.07499e-05 -0.000114517
-1.07499e-05 0.000341571 1.14992e-05
-0.000114517 1.14992e-05 0.000321943
0.00145828 -7.83024e-05 1.03956e-06
-7.83024e-05 0.000413291 1.13217e-07
1.03956e-06 1.13217e-07 0.000343556
0.0009644 -0.000132027 8.24399e-06
-0.000132027 2.66304e-05 -3.79478e-06
8.24399e-06 -3.79478e-06 -9.45368e-05
0.00429296 0.000139313 9.23549e-06
0.000139313 0.00208016 8.18012e-07
9.23549e-06 8.18012e-07 0.00206493
0.000778368 -0.000105937 1.45783e-05
-0.000105937 3.81708e-05 -9.9598e-06
1.45783e-05 -9.9598e-06 -2.75742e-05
0.00393304 0.000106241 0.000107725
0.000106241 0.00186537 -5.10448e-06
0.000107725 -5.10448e-06 0.00185927
0.00183741 0.000174315 -2.08692e-07
0.000174315 0.000221623 3.85423e-07
-2.08692e-07 3.85423e-07 8.87332e-05
0.00128601 0.000181231 -1.31263e-06
0.000181231 1.93748e-05 1.28181e-06
-1.31263e-06 1.28181e-06 -0.000126794
0.00101734 0.000177298 5.17835e-08
0.000177298 -3.64426e-05 4.49114e-09
5.17835e-08 4.49114e-09 -0.000197613
0.00109655 0.000163116 -4.2087e-06
0.000163116 8.13449e-05 -1.52207e-06
-4.2087e-06 -1.52207e-06 -6.97451e-05
0.000450936 0.000134787 3.36367e-07
0.000134787 -0.000228921 2.98604e-06
3.36367e-07 2.98604e-06 -0.000386881
0.00104606 0.000153788 -5.91237e-07
0.000153788 0.000128349 -7.31708e-08
-5.91237e-07 -7.31708e-08 -1.45225e-05
0.000987635 0.000116574 -5.23208e-06
0.000116574 0.000133661 -3.232e-06
-5.23208e-06 -3.232e-06 2.23196e-05
0.0008699 0.000129694 1.08069e-06
0.000129694 8.31633e-05 1.05039e-06
1.08069e-06 1.05039e-06 -4.19381e-05
0.000798934 7.66967e-05 -2.43841e-07
7.66967e-05 6.38171e-05 -6.07687e-08
-2.43841e-07 -6.07687e-08 -3.63115e-05
0.00072164 2.40623e-05 -8.0736e-06
2.40623e-05 3.25832e-05 -7.16432e-06
-8.0736e-06 -7.16432e-06 -1.62543e-05
0.000704293 1.60866e-05 1.14986e-06
1.60866e-05 2.37813e-05 2.22007e-06
1.14986e-06 2.22007e-06 -6.35072e-05
0.000559231 -4.27113e-05 -4.29151e-07
-4.27113e-05 -4.44417e-05 -2.74851e-07
-4.29151e-07 -2.74851e-07 -8.50695e-05
0.00309249 -0.0001144 -7.34494e-05
-0.0001144 0.00139137 -2.25018e-06
-7.34494e-05 -2.25018e-06 0.00138964
0.000512257 -8.03417e-05 -1.32238e-06
-8.03417e-05 -6.2039e-05 5.9592e-06
-1.32238e-06 5.9592e-06 -9.96882e-05
0.00272774 -0.000111086 -1.52081e-06
-0.000111086 0.00118361 1.7837e-07
-1.52081e-06 1.7837e-07 0.00118422
0.00253466 -9.99167e-05 4.16073e-05
-9.99167e-05 0.00107028 2.49695e-06
4.16073e-05 2.49695e-06 0.00107392
0.00183814 9.34095e-05 8.32982e-07
9.34095e-05 3.05559e-05 1.36525e-06
8.32982e-07 1.36525e-06 -4.5837e-05
0.00186535 4.37649e-05 3.65022e-06
4.37649e-05 0.000127111 -5.46585e-07
3.65022e-06 -5.46585e-07 8.34921e-05
0.00315611 -2.92464e-05 -3.90615e-05
-2.92464e-05 0.000646538 -7.82279e-06
-3.90615e-05 -7.82279e-06 0.000567187
0.00176984 0.000209486 -3.23399e-06
0.000209486 0.000123847 1.01023e-06
-3.23399e-06 1.01023e-06 -1.56658e-05
0.00173141 0.000237864 -3.78909e-06
0.000237864 0.000224337 5.12152e-08
-3.78909e-06 5.12152e-08 8.14698e-05
0.000691846 0.000170115 -1.24208e-05
0.000170115 -0.00013086 3.13704e-06
-1.24208e-05 3.13704e-06 -0.00023969
0.00186039 0.000210556 1.82173e-06
0.000210556 0.000245654 2.34689e-07
1.82173e-06 2.34689e-07 0.000102041
0.00200083 0.000243657 -1.35096e-06
0.000243657 0.000418929 -4.29343e-07
-1.35096e-06 -4.29343e-07 0.000260954
0.00211074 0.000167215 -2.30315e-06
0.000167215 0.00023075 1.73344e-06
-2.30315e-06 1.73344e-06 0.00012903
0.00169111 0.000245408 -1.27108e-06
0.000245408 5.85837e-05 6.74648e-07
-1.27108e-06 6.74648e-07 -8.41961e-05
0.00200907 0.000297145 2.02264e-06
0.000297145 0.000331407 3.86973e-07
2.02264e-06 3.86973e-07 0.000171918
0.00181231 0.000168696 -4.65218e-07
0.000168696 6.40639e-05 9.22626e-08
-4.65218e-07 9.22626e-08 -3.86192e-05
0.0020689 0.000301713 6.65999e-06
0.000301713 0.000235702 -7.13632e-07
6.65999e-06 -7.13632e-07 9.36645e-05
0.00152971 0.000156956 -1.88442e-05
0.000156956 -1.82602e-05 -5.58064e-06
-1.88442e-05 -5.58064e-06 -8.7947e-05
0.00196959 1.99918e-05 7.76847e-07
1.99918e-05 0.000117149 2.58038e-07
7.76847e-07 2.58038e-07 5.26303e-05
0.0018576 2.12475e-05 -6.86589e-07
2.12475e-05 3.52408e-05 -3.31015e-07
-6.86589e-07 -3.31015e-07 -2.69353e-05
0.00260793 1.19787e-05 -2.4888e-05
1.19787e-05 0.00062782 -1.96567e-06
-2.4888e-05 -1.96567e-06 0.000587848
0.00215353 -0.000118153 -1.15409e-05
-0.000118153 0.000173335 -4.71736e-07
-1.15409e-05 -4.71736e-07 0.000141074
0.00195166 -3.27704e-05 -1.29797e-06
-3.27704e-05 6.71457e-05 4.83406e-08
-1.29797e-06 4.83406e-08 1.30083e-05
0.00184228 -5.68835e-05 8.10801e-07
-5.68835e-05 3.30656e-05 1.74839e-08
8.10801e-07 1.74839e-08 -2.55285e-05
0.00186457 -3.81469e-05 -1.23213e-07
-3.81469e-05 0.000102682 -1.77328e-07
-1.23213e-07 -1.77328e-07 1.79143e-05
0.00186216 -0.000115412 -2.35503e-07
-0.000115412 0.000100565 4.92854e-08
-2.35503e-07 4.92854e-08 3.47503e-05
0.00184119 -9.8039e-05 -3.78647e-07
-9.8039e-05 0.000116078 -2.11597e-07
-3.78647e-07 -2.11597e-07 2.95938e-05
0.00176238 -7.74469e-05 2.25012e-06
-7.74469e-05 0.000112243 -1.17515e-06
2.25012e-06 -1.17515e-06 1.19294e-06
0.00165498 -0.000118503 -2.3077e-06
-0.000118503 5.96389e-05 -8.57395e-08
-2.3077e-06 -8.57395e-08 -3.75089e-05
0.00168759 -0.000101224 -1.47539e-07
-0.000101224 0.000108146 1.02234e-07
-1.47539e-07 1.02234e-07 -8.5152e-06
0.00157929 -8.50542e-05 -1.06716e-06
-8.50542e-05 0.000116636 4.67173e-07
-1.06716e-06 4.67173e-07 -1.24671e-05
0.00162564 -0.00012181 -9.58431e-07
-0.00012181 0.000108404 3.4862e-08
-9.58431e-07 3.4862e-08 -1.33272e-05
0.00151763 -0.000110313 -1.3578e-07
-0.000110313 0.000104454 1.59657e-09
-1.3578e-07 1.59657e-09 -2.67917e-05
0.00137631 -0.000102239 -5.03313e-06
-0.000102239 8.26478e-05 1.60523e-06
-5.03313e-06 1.60523e-06 -4.64414e-05
0.00151311 -0.000131643 1.80476e-06
-0.000131643 0.000117964 -5.40775e-07
1.80476e-06 -5.40775e-07 -1.54345e-05
0.00135939 -0.000120879 -3.90056e-08
-0.000120879 8.60021e-05 4.03803e-08
-3.90056e-08 4.03803e-08 -4.32908e-05
0.0010948 -9.87453e-05 -1.07418e-05
-9.87453e-05 2.17897e-05 3.89656e-06
-1.07418e-05 3.89656e-06 -8.71917e-05
0.00131154 -0.000134862 5.58204e-06
-0.000134862 7.38667e-05 -1.74455e-06
5.58204e-06 -1.74455e-06 -5.7317e-05
0.00106801 -0.000110036 2.08729e-07
-0.000110036 1.80187e-05 -1.07777e-08
2.08729e-07 -1.07777e-08 -9.19264e-05
0.00225065 -6.03232e-05 -1.92909e-05
-6.03232e-05 0.000831266 5.69726e-06
-1.92909e-05 5.69726e-06 0.000773818
0.00100729 -0.000121957 9.72444e-06
-0.000121957 5.41511e-06 -4.05966e-06
9.72444e-06 -4.05966e-06 -0.000109206
0.00237069 -9.61311e-05 2.9887e-05
-9.61311e-05 0.000904031 -2.59898e-06
2.9887e-05 -2.59898e-06 0.000845909
0.001571 -5.17684e-05 -0.000132567
-5.17684e-05 0.000525552 1.47919e-05
-0.000132567 1.47919e-05 0.000505281
0.00296468 2.60711e-05 -0.000120066
2.60711e-05 0.00132332 4.10475e-06
-0.000120066 4.10475e-06 0.00130719
0.00247084 -0.000125481 7.58146e-05
-0.000125481 0.000971571 -9.66617e-06
7.58146e-05 -9.66617e-06 0.000915313
0.00446922 0.000100042 0.000123773
0.000100042 0.00217482 -8.28561e-06
0.000123773 -8.28561e-06 0.00216252
0.00178899 0.00016575 -2.17383e-06
0.00016575 0.000162561 -5.68897e-08
-2.17383e-06 -5.68897e-08 3.2728e-05
0.00183806 0.000181212 1.08086e-06
0.000181212 0.000294334 3.20783e-08
1.08086e-06 3.20783e-08 0.000160301
0.00171702 0.000172588 1.10336e-06
0.000172588 0.000158707 3.29039e-07
1.10336e-06 3.29039e-07 2.64648e-05
0.00112717 0.000161439 -5.93601e-06
0.000161439 1.45065e-05 1.76829e-07
-5.93601e-06 1.76829e-07 -0.000129471
0.00134059 0.00018391 -1.77417e-07
0.00018391 4.71907e-05 4.34496e-07
-1.77417e-07 4.34496e-07 -9.85891e-05
0.00132011 0.000196411 1.71755e-06
0.000196411 0.000126947 6.36316e-07
1.71755e-06 6.36316e-07 -3.67362e-05
0.00114199 0.000166754 -6.16179e-07
0.000166754 0.000107149 3.11269e-07
-6.16179e-07 3.11269e-07 -4.49329e-05
0.000967247 0.000129272 -6.91318e-06
0.000129272 7.05321e-05 -4.05495e-06
-6.91318e-06 -4.05495e-06 -4.93421e-05
0.00096569 0.000147232 1.75991e-06
0.000147232 8.69554e-05 2.17749e-06
1.75991e-06 2.17749e-06 -5.50509e-05
0.000862691 0.000107697 -3.49704e-07
0.000107697 6.51496e-05 -1.1268e-07
-3.49704e-07 -1.1268e-07 -4.46549e-05
0.000782191 7.12081e-05 -1.12808e-05
7.12081e-05 5.62752e-05 -8.54816e-06
-1.12808e-05 -8.54816e-06 -3.22995e-06
0.000665142 6.67771e-05 2.0493e-06
6.67771e-05 -9.57458e-06 1.85915e-06
2.0493e-06 1.85915e-06 -0.0001078
0.000598254 1.4898e-06 2.11474e-07
1.4898e-06 -3.09244e-05 -2.38611e-07
2.11474e-07 -2.38611e-07 -7.93669e-05
0.00347131 -0.000107828 -9.44924e-05
-0.000107828 0.00161153 -3.62769e-06
-9.44924e-05 -3.62769e-06 0.00160696
0.000487525 -6.72536e-05 -7.04599e-07
-6.72536e-05 -7.69593e-05 6.70771e-06
-7.04599e-07 6.70771e-06 -0.000120704
0.00302123 -0.000124483 -2.56616e-06
-0.000124483 0.0013531 2.90643e-07
-2.56616e-06 2.90643e-07 0.00134958
0.00267955 -0.000111685 4.66014e-05
-0.000111685 0.0011569 2.08374e-06
4.66014e-05 2.08374e-06 0.00115753
0.00190416 9.21462e-05 -2.29749e-07
9.21462e-05 8.44688e-05 1.39462e-06
-2.29749e-07 1.39462e-06 3.90068e-06
0.0018079 9.27215e-05 6.64457e-07
9.27215e-05 2.19471e-05 -2.25834e-07
6.64457e-07 -2.25834e-07 -5.44199e-05
0.00220359 3.72006e-05 -3.43806e-05
3.72006e-05 0.000326101 -5.80845e-06
-3.43806e-05 -5.80845e-06 0.00028499
0.00188424 0.000148804 5.47015e-07
0.000148804 0.000134926 1.56959e-06
5.47015e-07 1.56959e-06 2.17875e-05
0.00174653 0.000203786 -5.85886e-07
0.000203786 0.000116871 -2.88317e-07
-5.85886e-07 -2.88317e-07 -2.12018e-05
0.00157115 0.000226223 -1.24305e-06
0.000226223 0.0001662 8.22446e-07
-1.24305e-06 8.22446e-07 2.66544e-05
0.00198915 0.000211475 1.14619e-06
0.000211475 0.000315654 -6.83264e-07
1.14619e-06 -6.83264e-07 0.000172941
0.00193708 0.000160225 3.21997e-08
0.000160225 0.000136547 -3.58302e-08
3.21997e-08 -3.58302e-08 3.35461e-05
0.00161787 0.000244654 -1.45943e-07
0.000244654 2.12171e-05 -1.0654e-06
-1.45943e-07 -1.0654e-06 -0.000122483
0.00176216 0.000165941 4.87222e-06
0.000165941 4.89181e-05 -1.71268e-06
4.87222e-06 -1.71268e-06 -5.37604e-05
0.00184542 2.24984e-05 1.78581e-06
2.24984e-05 8.54814e-05 5.54924e-07
1.78581e-06 5.54924e-07 4.4965e-06
0.00188641 2.00495e-05 -3.90644e-07
2.00495e-05 7.3711e-05 -1.81117e-08
-3.90644e-07 -1.81117e-08 7.03352e-06
0.00197529 2.59105e-05 -5.64446e-06
2.59105e-05 0.000104547 -8.69058e-07
-5.64446e-06 -8.69058e-07 4.40938e-05
0.0016494 -6.5197e-06 -6.6912e-07
-6.5197e-06 1.73571e-06 1.49574e-07
-6.6912e-07 1.49574e-07 -9.13958e-05
0.00186145 -5.74743e-05 -6.05757e-07
-5.74743e-05 3.57834e-05 3.19528e-07
-6.05757e-07 3.19528e-07 -1.82144e-05
0.00185618 -3.96108e-05 -3.73388e-07
-3.96108e-05 9.69969e-05 4.7027e-07
-3.73388e-07 4.7027e-07 1.20301e-05
0.00192064 -4.14355e-05 8.18465e-07
-4.14355e-05 0.000180336 -6.73944e-07
8.18465e-07 -6.73944e-07 7.68406e-05
0.00185224 -9.77061e-05 -2.25772e-06
-9.77061e-05 0.000128025 2.38645e-07
-2.25772e-06 2.38645e-07 4.07256e-05
0.00176647 -7.75767e-05 7.28369e-07
-7.75767e-05 0.000113896 -4.79347e-07
7.28369e-07 -4.79347e-07 2.92204e-06
0.00161987 -5.75904e-05 -9.34979e-07
-5.75904e-05 0.000107754 -3.59776e-07
-9.34979e-07 -3.59776e-07 -1.82325e-05
0.001691 -0.000100497 -9.39354e-07
-0.000100497 0.000111004 2.50975e-07
-9.39354e-07 2.50975e-07 -5.50576e-06
0.00155457 -8.34396e-05 -8.25992e-08
-8.34396e-05 0.0001006 1.36604e-07
-8.25992e-08 1.36604e-07 -2.83674e-05
0.00139801 -7.86984e-05 -4.84264e-06
-7.86984e-05 8.02192e-05 1.53928e-06
-4.84264e-06 1.53928e-06 -4.90223e-05
0.00150658 -0.000109633 1.31956e-06
-0.000109633 9.62863e-05 -5.25815e-07
1.31956e-06 -5.25815e-07 -3.47978e-05
0.00137813 -0.000101394 -7.69688e-08
-0.000101394 8.3371e-05 -8.42578e-09
-7.69688e-08 -8.42578e-09 -4.55086e-05
0.00110892 -8.37264e-05 -1.0687e-05
-8.37264e-05 1.846e-05 3.29201e-06
-1.0687e-05 3.29201e-06 -9.07252e-05
0.00135418 -0.00011979 5.30672e-06
-0.00011979 8.32662e-05 -1.66553e-06
5.30672e-06 -1.66553e-06 -4.58294e-05
0.00109585 -9.66655e-05 1.52241e-07
-9.66655e-05 2.10935e-05 1.28849e-07
1.52241e-07 1.28849e-07 -8.74368e-05
0.00230868 -7.88228e-05 -2.63308e-05
-7.88228e-05 0.000851664 4.9089e-06
-2.63308e-05 4.9089e-06 0.000798757
0.0010539 -0.000108131 1.04747e-05
-0.000108131 9.36669e-06 -4.21822e-06
1.04747e-05 -4.21822e-06 -0.000100272
0.00237341 -9.96675e-05 2.66236e-05
-9.96675e-05 0.00089345 -2.60158e-06
2.66236e-05 -2.60158e-06 0.000840521
0.00163734 -4.60511e-05 -0.000129358
-4.60511e-05 0.000561303 1.35036e-05
-0.000129358 1.35036e-05 0.000541313
0.00251815 -0.000124804 8.13337e-05
-0.000124804 0.000980067 -1.17587e-05
8.13337e-05 -1.17587e-05 0.000925682
0.00144681 2.0687e-05 -6.66302e-05
2.0687e-05 0.000471875 4.82582e-06
-6.66302e-05 4.82582e-06 0.000440584
0.00455194 0.000286795 -9.08751e-06
0.000286795 0.00226663 -4.95723e-06
-9.08751e-06 -4.95723e-06 0.00221791
0.00172153 0.000135169 4.12802e-07
0.000135169 0.000106934 6.83442e-07
4.12802e-07 6.83442e-07 -1.88155e-05
0.00163672 0.000146263 -1.29485e-06
0.000146263 0.000150034 -5.03872e-07
-1.29485e-06 -5.03872e-07 1.77763e-05
0.00176241 0.000166301 -2.21499e-06
0.000166301 0.000148105 1.04167e-08
-2.21499e-06 1.04167e-08 1.74158e-05
0.00167529 0.000168818 -3.70586e-06
0.000168818 0.000273649 -7.09768e-07
-3.70586e-06 -7.09768e-07 0.000142674
0.00150404 0.000168393 5.82468e-07
0.000168393 0.000107785 -1.07026e-07
5.82468e-07 -1.07026e-07 -2.54455e-05
0.00159576 0.000170954 3.40291e-06
0.000170954 9.54703e-05 -3.65379e-07
3.40291e-06 -3.65379e-07 -3.6062e-05
0.000972694 0.000131396 -9.47925e-06
0.000131396 8.71091e-06 -3.20641e-06
-9.47925e-06 -3.20641e-06 -0.000111277
0.0012524 0.000169925 -3.53043e-07
0.000169925 8.21274e-05 8.1666e-07
-3.53043e-07 8.1666e-07 -6.31489e-05
0.00139086 0.000186246 3.92215e-06
0.000186246 7.24868e-05 -6.56863e-07
3.92215e-06 -6.56863e-07 -7.28529e-05
0.00119443 0.00017106 3.96708e-06
0.00017106 0.000136966 2.65647e-06
3.96708e-06 2.65647e-06 -1.62297e-05
0.00092896 0.000125723 -5.55496e-07
0.000125723 4.88573e-05 -7.36965e-08
-5.55496e-07 -7.36965e-08 -7.02958e-05
0.000770731 0.000126704 -1.71258e-05
0.000126704 3.74711e-05 -9.63572e-06
-1.71258e-05 -9.63572e-06 -3.1369e-05
0.000744043 9.86402e-05 3.76967e-06
9.86402e-05 2.29069e-07 2.84112e-06
3.76967e-06 2.84112e-06 -0.000108058
0.00064067 6.54579e-05 -1.4352e-07
6.54579e-05 -1.52103e-05 4.08848e-09
-1.4352e-07 4.08848e-09 -7.44907e-05
0.00398124 -9.47479e-05 -0.000112309
-9.47479e-05 0.00190928 -6.88744e-06
-0.000112309 -6.88744e-06 0.00189881
0.000506467 -9.16628e-06 4.24415e-06
-9.16628e-06 -7.98662e-05 7.10022e-06
4.24415e-06 7.10022e-06 -0.00012647
0.00339066 -0.000137087 -4.88972e-06
-0.000137087 0.001569 4.44201e-07
-4.88972e-06 4.44201e-07 0.00156043
0.00294015 -0.000127046 5.37183e-05
-0.000127046 0.00130797 1.84891e-06
5.37183e-05 1.84891e-06 0.0013042
0.00177316 8.16056e-05 1.01247e-06
8.16056e-05 4.77482e-05 1.39982e-06
1.01247e-06 1.39982e-06 -4.66855e-05
0.00181783 9.37646e-05 -2.22526e-07
9.37646e-05 3.41506e-05 3.54967e-07
-2.22526e-07 3.54967e-07 -4.60251e-05
0.00184181 9.42722e-05 -6.61734e-07
9.42722e-05 3.63372e-05 -1.64476e-06
-6.61734e-07 -1.64476e-06 -4.01346e-05
0.00188714 0.000147679 6.52907e-07
0.000147679 0.000137171 -8.26076e-08
6.52907e-07 -8.26076e-08 2.507e-05
0.00172736 0.00019817 -5.3386e-07
0.00019817 0.000112108 -1.58489e-06
-5.3386e-07 -1.58489e-06 -2.45216e-05
0.00177597 0.000153332 1.29905e-06
0.000153332 4.65171e-05 -1.84209e-06
1.29905e-06 -1.84209e-06 -5.77436e-05
0.00183482 2.4986e-05 1.73142e-07
2.4986e-05 0.000107952 4.26028e-07
1.73142e-07 4.26028e-07 1.50584e-05
0.00186109 2.39174e-05 2.40796e-07
2.39174e-05 9.5344e-05 -2.83177e-07
2.40796e-07 -2.83177e-07 1.30936e-05
0.00177837 2.07039e-05 1.89404e-08
2.07039e-05 1.62873e-05 -2.15456e-07
1.89404e-08 -2.15456e-07 -5.26004e-05
0.00175296 -1.27912e-05 -1.40661e-06
-1.27912e-05 5.83578e-05 6.40847e-08
-1.40661e-06 6.40847e-08 -3.37147e-05
0.00172466 -1.91215e-05 9.74759e-07
-1.91215e-05 7.69241e-05 -3.77359e-07
9.74759e-07 -3.77359e-07 -2.82501e-05
0.00184627 -4.09602e-05 -7.04513e-07
-4.09602e-05 9.10037e-05 5.16904e-07
-7.04513e-07 5.16904e-07 5.8193e-06
0.0018083 -4.17282e-05 -4.48132e-07
-4.17282e-05 0.000117656 3.6938e-07
-4.48132e-07 3.6938e-07 1.16104e-05
0.0016964 -3.19246e-05 2.21457e-07
-3.19246e-05 0.000128403 -4.39511e-07
2.21457e-07 -4.39511e-07 8.51659e-06
0.00176289 -7.8204e-05 -1.6302e-08
-7.8204e-05 0.000111371 1.55704e-07
-1.6302e-08 1.55704e-07 4.11137e-07
0.00159347 -5.89681e-05 -1.24687e-07
-5.89681e-05 9.31191e-05 -1.78217e-07
-1.24687e-07 -1.78217e-07 -3.29194e-05
0.00141795 -4.78794e-05 -5.57276e-06
-4.78794e-05 7.30843e-05 1.09648e-06
-5.57276e-06 1.09648e-06 -5.54379e-05
0.00152427 -8.33612e-05 7.48257e-07
-8.33612e-05 8.14316e-05 -2.03604e-07
7.48257e-07 -2.03604e-07 -4.75156e-05
0.00139386 -7.7473e-05 7.81512e-08
-7.7473e-05 7.69592e-05 1.27717e-07
7.81512e-08 1.27717e-07 -5.20924e-05
0.00112111 -6.49262e-05 -1.06784e-05
-6.49262e-05 1.20217e-05 2.90778e-06
-1.06784e-05 2.90778e-06 -9.77889e-05
0.00138149 -0.000100531 4.84005e-06
-0.000100531 8.49138e-05 -1.59988e-06
4.84005e-06 -1.59988e-06 -4.37483e-05
0.00111458 -8.1444e-05 -1.60336e-08
-8.1444e-05 2.04027e-05 7.42137e-08
-1.60336e-08 7.42137e-08 -8.83358e-05
0.00231253 -8.6673e-05 -2.95366e-05
-8.6673e-05 0.000847505 4.21489e-06
-2.95366e-05 4.21489e-06 0.000794093
0.00109306 -9.45759e-05 1.08237e-05
-9.45759e-05 1.81911e-05 -3.73385e-06
1.08237e-05 -3.73385e-06 -8.98719e-05
0.00237947 -9.49981e-05 2.53819e-05
-9.49981e-05 0.000888168 -2.1188e-06
2.53819e-05 -2.1188e-06 0.000837501
0.00168167 -4.08033e-05 -0.000129052
-4.08033e-05 0.000580598 1.16869e-05
-0.000129052 1.16869e-05 0.000561078
0.00248601 -0.000110769 8.04976e-05
-0.000110769 0.000952598 -1.04124e-05
8.04976e-05 -1.04124e-05 0.000902314
0.00145783 2.37792e-06 -5.98459e-05
2.37792e-06 0.000469089 4.90782e-06
-5.98459e-05 4.90782e-06 0.000442906
0.00139445 4.89908e-05 1.14294e-05
4.89908e-05 0.000445828 -4.18569e-06
1.14294e-05 -4.18569e-06 0.000411555
0.00186795 8.22243e-05 5.53893e-07
8.22243e-05 0.000156773 1.62764e-06
5.53893e-07 1.62764e-06 4.81621e-05
0.00156996 0.000115312 -1.82442e-06
0.000115312 8.95256e-05 -2.63745e-09
-1.82442e-06 -2.63745e-09 -4.13166e-05
0.00175809 0.000137084 -1.13752e-06
0.000137084 0.000122457 -1.50275e-07
-1.13752e-06 -1.50275e-07 -1.63326e-06
0.00161598 0.000139463 -4.34431e-06
0.000139463 0.000211843 -1.61104e-06
-4.34431e-06 -1.61104e-06 8.34406e-05
0.00169352 0.000147414 9.87265e-07
0.000147414 0.000184798 3.17313e-07
9.87265e-07 3.17313e-07 5.23566e-05
0.0017305 0.000166627 2.28057e-06
0.000166627 0.000131325 4.7853e-07
2.28057e-06 4.7853e-07 -2.60166e-07
0.00102498 0.000123416 -1.03492e-05
0.000123416 -5.67639e-06 -3.49654e-06
-1.03492e-05 -3.49654e-06 -0.000119343
0.00141643 0.000159565 3.08511e-06
0.000159565 0.000127062 1.81392e-07
3.08511e-06 1.81392e-07 -4.906e-06
0.00118479 0.000156314 3.31864e-06
0.000156314 -7.11609e-05 2.92171e-08
3.31864e-06 2.92171e-08 -0.000203661
0.000665724 0.000138365 -1.89728e-05
0.000138365 -4.0295e-05 -9.02159e-06
-1.89728e-05 -9.02159e-06 -0.000111785
0.00100836 0.000132874 -9.19621e-07
0.000132874 2.77269e-05 5.23388e-07
-9.19621e-07 5.23388e-07 -9.23506e-05
0.00138124 0.000178554 6.06338e-06
0.000178554 0.000151673 1.60945e-06
6.06338e-06 1.60945e-06 5.09082e-06
0.000900896 0.000122836 6.2908e-06
0.000122836 3.33607e-05 4.14239e-06
6.2908e-06 4.14239e-06 -8.52217e-05
0.0006449 0.000112662 2.9834e-07
0.000112662 -2.66611e-05 1.13353e-07
2.9834e-07 1.13353e-07 -9.51653e-05
0.00463037 -8.72251e-05 -0.000123113
-8.72251e-05 0.00228505 -1.12509e-05
-0.000123113 -1.12509e-05 0.0022643
0.000515133 5.44778e-05 8.10265e-06
5.44778e-05 -8.08523e-05 8.23592e-06
8.10265e-06 8.23592e-06 -0.000138325
0.00383569 -0.00013829 -8.01758e-06
-0.00013829 0.00183125 5.95188e-07
-8.01758e-06 5.95188e-07 0.00181733
0.00328722 -0.000145864 6.42103e-05
-0.000145864 0.00151094 1.81927e-06
6.42103e-05 1.81927e-06 0.00150109
0.0017703 6.04642e-05 4.53219e-08
6.04642e-05 7.52111e-05 3.32136e-07
4.53219e-08 3.32136e-07 -2.24688e-05
0.00176264 8.08411e-05 4.02103e-07
8.08411e-05 4.39328e-05 4.66739e-07
4.02103e-07 4.66739e-07 -4.99553e-05
0.00172162 9.46367e-05 1.42386e-06
9.46367e-05 -1.90173e-05 -9.36094e-07
1.42386e-06 -9.36094e-07 -9.87824e-05
0.00188941 0.000146379 9.69626e-08
0.000146379 0.000139232 -1.54593e-06
9.69626e-08 -1.54593e-06 2.82011e-05
0.00174252 -3.0231e-06 1.16715e-06
-3.0231e-06 8.59656e-05 9.28201e-08
1.16715e-06 9.28201e-08 -2.04507e-05
0.00187591 2.1476e-05 -8.90931e-08
2.1476e-05 0.000128162 -1.35453e-07
-8.90931e-08 -1.35453e-07 3.54961e-05
0.0018791 2.48706e-05 -1.1819e-06
2.48706e-05 0.000106316 -1.29024e-07
-1.1819e-06 -1.29024e-07 2.28148e-05
0.00185981 -1.62154e-05 -2.62358e-06
-1.62154e-05 0.000116895 -4.69681e-07
-2.62358e-06 -4.69681e-07 2.58868e-05
0.00171389 -1.2435e-05 -9.7608e-07
-1.2435e-05 7.08613e-05 -8.70894e-08
-9.7608e-07 -8.70894e-08 -3.3365e-05
0.00177206 -7.78803e-06 9.15572e-07
-7.78803e-06 0.000168739 -3.82392e-07
9.15572e-07 -3.82392e-07 5.21296e-05
0.00169654 -4.2101e-05 -1.39827e-06
-4.2101e-05 5.51045e-05 1.22658e-06
-1.39827e-06 1.22658e-06 -5.34885e-05
0.00167148 -3.14834e-05 4.90523e-07
-3.14834e-05 0.000116773 1.40758e-07
4.90523e-07 1.40758e-07 -4.76676e-06
0.00136992 -2.01244e-05 -4.437e-06
-2.01244e-05 2.83392e-05 3.65786e-07
-4.437e-06 3.65786e-07 -9.78572e-05
0.00157478 -5.88491e-05 5.74312e-07
-5.88491e-05 8.27703e-05 -1.21149e-08
5.74312e-07 -1.21149e-08 -4.3202e-05
0.00140666 -4.55112e-05 -4.45035e-07
-4.55112e-05 6.504e-05 1.51667e-07
-4.45035e-07 1.51667e-07 -6.32232e-05
0.00113892 -4.14583e-05 -1.10193e-05
-4.14583e-05 7.32212e-06 2.37731e-06
-1.10193e-05 2.37731e-06 -0.000103281
0.0013849 -7.41894e-05 4.58266e-06
-7.41894e-05 7.1039e-05 -1.23247e-06
4.58266e-06 -1.23247e-06 -5.76701e-05
0.00112595 -6.41611e-05 2.41167e-08
-6.41611e-05 1.39923e-05 1.5591e-07
2.41167e-08 1.5591e-07 -9.56352e-05
0.000671908 -5.1481e-05 -1.6158e-05
-5.1481e-05 -8.56056e-05 4.08851e-06
-1.6158e-05 4.08851e-06 -0.000147913
0.0011257 -7.9397e-05 1.07469e-05
-7.9397e-05 2.51466e-05 -3.23687e-06
1.07469e-05 -3.23687e-06 -8.31264e-05
0.00153001 -6.38587e-05 3.26843e-05
-6.38587e-05 0.000402744 -1.83931e-06
3.26843e-05 -1.83931e-06 0.000348315
0.0049641 -9.71801e-05 -0.000157958
-9.71801e-05 0.00242621 8.48634e-06
-0.000157958 8.48634e-06 0.00242355
0.00246572 -9.12383e-05 8.03634e-05
-9.12383e-05 0.000931785 -8.6154e-06
8.03634e-05 -8.6154e-06 0.000884053
0.00147321 -1.80877e-05 -5.34265e-05
-1.80877e-05 0.000469231 4.10003e-06
-5.34265e-05 4.10003e-06 0.000445697
0.00130976 -5.3338e-06 2.24065e-05
-5.3338e-06 0.000388979 -3.65774e-06
2.24065e-05 -3.65774e-06 0.000360419
0.00188261 5.89121e-05 9.64158e-07
5.89121e-05 0.000170843 8.69992e-07
9.64158e-07 8.69992e-07 6.62096e-05
0.00166784 7.55849e-05 -5.73805e-07
7.55849e-05 0.000128364 1.06833e-06
-5.73805e-07 1.06833e-06 5.78366e-06
0.00187173 7.96142e-05 1.76751e-07
7.96142e-05 0.000162814 -3.82653e-08
1.76751e-07 -3.82653e-08 5.34875e-05
0.00122848 0.000100225 -5.56953e-06
0.000100225 -3.14199e-05 -1.13765e-06
-5.56953e-06 -1.13765e-06 -0.0001603
0.00167363 0.000117449 -9.24484e-09
0.000117449 0.000148191 -2.66508e-08
-9.24484e-09 -2.66508e-08 1.85082e-05
0.00179682 0.000139422 -1.07489e-06
0.000139422 0.000138829 -9.74089e-07
-1.07489e-06 -9.74089e-07 1.63454e-05
0.00066508 9.08217e-05 -1.26195e-05
9.08217e-05 -0.00023052 -4.29335e-06
-1.26195e-05 -4.29335e-06 -0.000342498
0.00165258 0.000142933 1.43403e-06
0.000142933 0.000232024 3.59392e-07
1.43403e-06 3.59392e-07 0.000103162
0.00174997 0.000148904 3.08334e-06
0.000148904 0.000219405 1.15191e-06
3.08334e-06 1.15191e-06 8.67173e-05
0.000605636 0.000116286 -1.76519e-05
0.000116286 -9.33889e-05 -7.53825e-06
-1.76519e-05 -7.53825e-06 -0.000160999
0.000843307 0.000116022 4.77987e-07
0.000116022 -0.000108153 -1.68079e-07
4.77987e-07 -1.68079e-07 -0.000222772
0.0011495 0.000149767 7.9746e-06
0.000149767 -2.40676e-05 8.48954e-07
7.9746e-06 8.48954e-07 -0.00015694
0.00502869 -7.04795e-05 -0.000126158
-7.04795e-05 0.00250223 -1.22641e-05
-0.000126158 -1.22641e-05 0.00248046
0.000618279 0.000128403 1.43254e-06
0.000128403 -6.5532e-05 4.82023e-07
1.43254e-06 4.82023e-07 -0.000136415
0.00103032 0.000133763 9.1097e-06
0.000133763 3.93597e-05 4.62523e-06
9.1097e-06 4.62523e-06 -8.07997e-05
0.000499254 0.000104556 1.30716e-05
0.000104556 -0.000104267 9.34157e-06
1.30716e-05 9.34157e-06 -0.000171203
0.00435852 -0.0001134 -6.56683e-06
-0.0001134 0.00212945 2.03338e-07
-6.56683e-06 2.03338e-07 0.00211238
0.00365327 -0.000163399 7.64597e-05
-0.000163399 0.00173102 2.50303e-06
7.64597e-05 2.50303e-06 0.00171415
0.0018045 3.72465e-05 -6.77889e-07
3.72465e-05 0.000117205 -1.19047e-07
-6.77889e-07 -1.19047e-07 1.12651e-05
0.00178385 5.97027e-05 -1.04766e-07
5.97027e-05 7.91484e-05 3.1525e-07
-1.04766e-07 3.1525e-07 -1.83562e-05
0.00175082 8.05448e-05 -2.88807e-07
8.05448e-05 3.91208e-05 -6.68544e-07
-2.88807e-07 -6.68544e-07 -5.42411e-05
0.00169282 6.70995e-06 1.10097e-06
6.70995e-06 0.000119323 -2.09044e-07
1.10097e-06 -2.09044e-07 1.87914e-06
0.0017333 -5.47238e-09 -1.8174e-08
-5.47238e-09 8.44696e-05 6.80679e-08
-1.8174e-08 6.80679e-08 -2.09715e-05
0.00191706 1.58126e-05 -1.24951e-06
1.58126e-05 0.000148478 -5.71048e-08
-1.24951e-06 -5.71048e-08 5.60348e-05
0.00169617 -6.96378e-06 -1.87524e-06
-6.96378e-06 6.07891e-05 4.71599e-07
-1.87524e-06 4.71599e-07 -4.24823e-05
0.00175852 -5.09619e-06 1.09892e-06
-5.09619e-06 0.000160603 -1.5617e-07
1.09892e-06 -1.5617e-07 4.4087e-05
0.00173365 -3.9077e-06 -2.59896e-06
-3.9077e-06 0.000222675 -3.73355e-08
-2.59896e-06 -3.73355e-08 0.00010195
0.00164787 -3.09943e-05 1.0075e-06
-3.09943e-05 0.000105875 6.05183e-07
1.0075e-06 6.05183e-07 -1.73224e-05
0.00157375 -1.90567e-05 -2.15036e-08
-1.90567e-05 0.000141549 6.91625e-08
-2.15036e-08 6.91625e-08 1.65105e-05
0.000796085 -1.63535e-05 -1.28929e-05
-1.63535e-05 -0.00019536 1.80533e-06
-1.28929e-05 1.80533e-06 -0.000309485
0.00139987 -4.53457e-05 4.19875e-06
-4.53457e-05 5.94181e-05 -7.5938e-07
4.19875e-06 -7.5938e-07 -6.87476e-05
0.00113206 -3.8578e-05 2.87463e-08
-3.8578e-05 3.25282e-06 1.19861e-07
2.87463e-08 1.19861e-07 -0.000107106
0.00066883 -2.01655e-05 -1.59683e-05
-2.01655e-05 -9.64787e-05 2.88988e-06
-1.59683e-05 2.88988e-06 -0.000160124
0.00113383 -6.23213e-05 1.09438e-05
-6.23213e-05 1.75519e-05 -2.64325e-06
1.09438e-05 -2.64325e-06 -9.17839e-05
0.000676963 -3.74898e-05 -2.34249e-07
-3.74898e-05 -8.30794e-05 2.19276e-07
-2.34249e-07 2.19276e-07 -0.000145674
0.00502659 -2.01434e-05 -0.00014849
-2.01434e-05 0.00245476 5.45557e-06
-0.00014849 5.45557e-06 0.00245496
0.000712215 -5.39927e-05 1.58673e-05
-5.39927e-05 -5.90453e-05 -5.81595e-06
1.58673e-05 -5.81595e-06 -0.000120982
0.003193 -5.68469e-05 6.82327e-05
-5.68469e-05 0.00143185 -7.69115e-07
6.82327e-05 -7.69115e-07 0.00141604
0.00124173 -3.4832e-05 2.81925e-05
-3.4832e-05 0.000348064 -3.65936e-06
2.81925e-05 -3.65936e-06 0.000319127
0.00181051 5.01345e-05 1.25506e-07
5.01345e-05 0.00014889 2.41413e-07
1.25506e-07 2.41413e-07 4.03077e-05
0.00158107 4.18363e-05 1.46136e-07
4.18363e-05 7.7803e-05 1.0973e-06
1.46136e-07 1.0973e-06 -4.13796e-05
0.00185303 5.6373e-05 -2.94868e-07
5.6373e-05 0.00015469 -2.01534e-07
-2.94868e-07 -2.01534e-07 5.02259e-05
0.00142606 7.11367e-05 -4.43686e-06
7.11367e-05 6.84618e-05 -3.59007e-07
-4.43686e-06 -3.59007e-07 -5.635e-05
0.0016203 7.37306e-05 4.20804e-07
7.37306e-05 0.000100155 1.02273e-07
4.20804e-07 1.02273e-07 -2.3355e-05
0.00187499 7.66461e-05 -1.01785e-06
7.66461e-05 0.000168524 -1.47724e-06
-1.01785e-06 -1.47724e-06 5.85049e-05
0.000662173 7.19784e-05 -1.27647e-05
7.19784e-05 -0.000251879 -3.1487e-06
-1.27647e-05 -3.1487e-06 -0.00036302
0.00152017 0.000109714 -1.30886e-06
0.000109714 0.000132902 -2.22929e-07
-1.30886e-06 -2.22929e-07 5.31357e-06
0.00177976 0.000119464 2.16789e-06
0.000119464 0.000208266 -2.2066e-07
2.16789e-06 -2.2066e-07 7.97756e-05
0.000615999 8.37285e-05 -1.62328e-05
8.37285e-05 -0.00010292 -6.082e-06
-1.62328e-05 -6.082e-06 -0.000166938
0.000648749 9.10948e-05 -2.70083e-06
9.10948e-05 -0.000240143 -6.66976e-07
-2.70083e-06 -6.66976e-07 -0.000352768
0.00168899 0.000146404 7.44574e-06
0.000146404 0.000252123 1.98061e-06
7.44574e-06 1.98061e-06 0.000122798
0.00511097 1.44901e-05 -0.000143543
1.44901e-05 0.0025178 -1.01947e-05
-0.000143543 -1.01947e-05 0.00251146
0.000592316 0.000107369 8.72055e-07
0.000107369 -9.97969e-05 3.02558e-07
8.72055e-07 3.02558e-07 -0.000168205
0.000659796 0.000108731 1.08527e-05
0.000108731 -0.000211731 3.2415e-06
1.08527e-05 3.2415e-06 -0.00032732
0.00483257 -4.89337e-05 7.73823e-06
-4.89337e-05 0.00238497 -5.58737e-07
7.73823e-06 -5.58737e-07 0.00236976
0.000533531 0.000115527 1.57267e-05
0.000115527 -0.000109001 9.34563e-06
1.57267e-05 9.34563e-06 -0.000180548
0.00411245 -0.000167542 8.85244e-05
-0.000167542 0.00200236 5.50146e-06
8.85244e-05 5.50146e-06 0.00197905
0.00177319 2.73808e-05 -1.65513e-07
2.73808e-05 0.000160736 -1.17302e-07
-1.65513e-07 -1.17302e-07 4.54631e-05
0.00175436 3.55993e-05 -3.29241e-07
3.55993e-05 9.33963e-05 1.06219e-07
-3.29241e-07 1.06219e-07 -1.33371e-05
0.00179684 5.87607e-05 -2.97975e-07
5.87607e-05 8.25005e-05 -1.25321e-07
-2.97975e-07 -1.25321e-07 -1.48299e-05
0.00171034 -1.80058e-06 -2.61441e-06
-1.80058e-06 0.000213159 -1.29782e-07
-2.61441e-06 -1.29782e-07 9.43339e-05
0.00172097 5.80499e-06 6.46984e-07
5.80499e-06 0.000134746 8.34569e-09
6.46984e-07 8.34569e-09 1.83848e-05
0.00173503 4.99287e-06 4.84005e-07
4.99287e-06 8.87479e-05 -6.02413e-08
4.84005e-07 -6.02413e-08 -1.57345e-05
0.00174591 -3.24285e-06 8.5754e-07
-3.24285e-06 0.000152991 2.99373e-07
8.5754e-07 2.99373e-07 3.65562e-05
0.00173672 -3.6912e-06 1.80148e-06
-3.6912e-06 0.000224239 -2.12632e-07
1.80148e-06 -2.12632e-07 0.000103474
0.000805784 -5.45238e-06 -1.2112e-05
-5.45238e-06 -0.000194297 7.66041e-07
-1.2112e-05 7.66041e-07 -0.000307735
0.00178139 -1.81682e-05 5.43638e-06
-1.81682e-05 0.000256961 -4.59575e-07
5.43638e-06 -4.59575e-07 0.000133084
0.000974004 -1.50662e-05 -2.56386e-06
-1.50662e-05 -9.58489e-05 4.00862e-07
-2.56386e-06 4.00862e-07 -0.000208407
0.000689263 -6.87172e-06 -1.64297e-05
-6.87172e-06 -9.35617e-05 1.92944e-06
-1.64297e-05 1.92944e-06 -0.000158412
0.00113127 -3.70764e-05 1.086e-05
-3.70764e-05 2.50724e-06 -2.15055e-06
1.086e-05 -2.15055e-06 -0.000107696
0.000675121 -1.93114e-05 4.09171e-07
-1.93114e-05 -9.39591e-05 1.94469e-08
4.09171e-07 1.94469e-08 -0.00015722
0.00512116 -6.34969e-05 -0.000153346
-6.34969e-05 0.00250779 4.27462e-06
-0.000153346 4.27462e-06 0.00250655
0.000672634 -2.35026e-05 1.49465e-05
-2.35026e-05 -8.72937e-05 -3.35489e-06
1.49465e-05 -3.35489e-06 -0.000149065
0.00504905 -1.52299e-05 1.09592e-05
-1.52299e-05 0.00247099 -8.22398e-08
1.09592e-05 -8.22398e-08 0.00246864
0.0014979 -1.58871e-05 0.000133879
-1.58871e-05 0.000477066 -6.27281e-06
0.000133879 -6.27281e-06 0.000459631
0.00169907 3.29993e-05 3.16351e-07
3.29993e-05 0.000144145 2.74764e-07
3.16351e-07 2.74764e-07 2.72137e-05
0.00176407 5.34499e-05 -1.15241e-06
5.34499e-05 0.000118971 -1.70132e-07
-1.15241e-06 -1.70132e-07 1.12924e-05
0.00143802 3.73746e-05 -4.04268e-06
3.73746e-05 7.43677e-05 -8.60369e-08
-4.04268e-06 -8.60369e-08 -4.69629e-05
0.00157635 4.11458e-05 3.6854e-07
4.11458e-05 7.57891e-05 -7.90307e-09
3.6854e-07 -7.90307e-09 -4.34438e-05
0.00182161 5.39991e-05 -7.25369e-07
5.39991e-05 0.000137514 -1.50872e-06
-7.25369e-07 -1.50872e-06 3.32226e-05
0.00113879 5.98502e-05 -1.09329e-05
5.98502e-05 3.97965e-06 -2.01154e-06
-1.09329e-05 -2.01154e-06 -0.000102806
0.00140647 7.07014e-05 3.55026e-08
7.07014e-05 5.80215e-05 1.65868e-07
3.55026e-08 1.65868e-07 -6.68789e-05
0.00157003 7.18884e-05 7.05436e-07
7.18884e-05 7.05864e-05 -5.80996e-07
7.05436e-07 -5.80996e-07 -5.38668e-05
0.000632801 5.82449e-05 -1.58599e-05
5.82449e-05 -0.000108528 -4.46917e-06
-1.58599e-05 -4.46917e-06 -0.000170783
0.000879719 7.9995e-05 -3.21746e-06
7.9995e-05 -0.000130352 -4.73955e-07
-3.21746e-06 -4.73955e-07 -0.000240789
0.00181816 0.00011937 5.17468e-06
0.00011937 0.000300752 1.06737e-06
5.17468e-06 1.06737e-06 0.00017445
0.00512423 7.89504e-05 -0.00016223
7.89504e-05 0.00251243 -9.5161e-06
-0.00016223 -9.5161e-06 0.00251104
0.000609442 8.01724e-05 1.55942e-07
8.01724e-05 -0.000106277 7.13933e-08
1.55942e-07 7.13933e-08 -0.000170474
0.00063006 9.14607e-05 7.56444e-06
9.14607e-05 -0.000251196 2.6233e-06
7.56444e-06 2.6233e-06 -0.000364463
0.0050169 3.24946e-05 9.83749e-06
3.24946e-05 0.00246915 8.43965e-07
9.83749e-06 8.43965e-07 0.00246164
0.000580091 9.77371e-05 1.59642e-05
9.77371e-05 -0.000106123 7.50892e-06
1.59642e-05 7.50892e-06 -0.000174933
0.00464195 -6.74297e-05 0.00011967
-6.74297e-05 0.0022726 7.40992e-06
0.00011967 7.40992e-06 0.00226272
0.00171442 1.98347e-05 -2.60586e-06
1.98347e-05 0.000220571 -2.1311e-07
-2.60586e-06 -2.1311e-07 0.000103238
0.00174567 2.30697e-05 -4.18589e-08
2.30697e-05 0.000147924 9.8638e-08
-4.18589e-08 9.8638e-08 3.20453e-05
0.00170549 3.37343e-05 -4.90079e-07
3.37343e-05 7.0866e-05 8.31905e-08
-4.90079e-07 8.31905e-08 -3.66336e-05
0.000795411 -1.03423e-05 -1.25955e-05
-1.03423e-05 -0.000197013 -1.45567e-07
-1.25955e-05 -1.45567e-07 -0.000308784
0.00173175 4.6088e-06 1.90049e-06
4.6088e-06 0.000225169 -5.21348e-08
1.90049e-06 -5.21348e-08 0.000106336
0.00174373 4.88098e-06 1.10129e-06
4.88098e-06 0.000147431 1.05614e-07
1.10129e-06 1.05614e-07 3.21635e-05
0.00174004 -3.77274e-06 6.0706e-06
-3.77274e-06 0.000225986 -1.05975e-07
6.0706e-06 -1.05975e-07 0.000105176
0.000797349 -5.48369e-06 -1.91509e-06
-5.48369e-06 -0.000199425 1.60475e-07
-1.91509e-06 1.60475e-07 -0.000312995
0.00070724 -1.25765e-05 -1.6617e-05
-1.25765e-05 -8.82108e-05 7.49908e-07
-1.6617e-05 7.49908e-07 -0.000153299
0.00114003 -1.29562e-05 8.69214e-06
-1.29562e-05 -2.92128e-06 -1.26608e-06
8.69214e-06 -1.26608e-06 -0.000113902
0.000677775 2.50033e-06 1.74916e-07
2.50033e-06 -0.00010055 1.0284e-07
1.74916e-07 1.0284e-07 -0.000165187
0.00523826 -6.20402e-05 -0.000161072
-6.20402e-05 0.00257174 2.68552e-06
-0.000161072 2.68552e-06 0.00256995
0.000680881 -1.06916e-05 1.57753e-05
-1.06916e-05 -9.09889e-05 -2.33481e-06
1.57753e-05 -2.33481e-06 -0.000154395
0.00516147 1.38157e-05 2.55724e-06
1.38157e-05 0.00252676 5.94402e-07
2.55724e-06 5.94402e-07 0.00252728
0.00507291 -6.27612e-05 0.000162919
-6.27612e-05 0.00248117 -4.81579e-06
0.000162919 -4.81579e-06 0.00248064
0.00145938 2.36807e-05 -4.0871e-06
2.36807e-05 8.7346e-05 -3.9754e-07
-4.0871e-06 -3.9754e-07 -3.25964e-05
0.00165846 3.5432e-05 2.28082e-07
3.5432e-05 0.000120608 -3.11595e-07
2.28082e-07 -3.11595e-07 4.79914e-06
0.00171908 5.68953e-05 -2.06742e-06
5.68953e-05 8.99013e-05 -2.97361e-07
-2.06742e-06 -2.97361e-07 -1.68813e-05
0.00113967 3.04456e-05 -1.07483e-05
3.04456e-05 1.76814e-06 -1.51057e-06
-1.07483e-05 -1.51057e-06 -0.000103799
0.00141527 3.7452e-05 2.2836e-07
3.7452e-05 6.10766e-05 7.92294e-08
2.2836e-07 7.92294e-08 -6.04682e-05
0.00157105 4.04302e-05 1.91752e-07
4.04302e-05 7.36171e-05 -1.09904e-06
1.91752e-07 -1.09904e-06 -4.56662e-05
0.000658818 3.48811e-05 -1.54321e-05
3.48811e-05 -0.000103163 -3.41652e-06
-1.54321e-05 -3.41652e-06 -0.00016512
0.00113244 6.14456e-05 9.10612e-08
6.14456e-05 7.78334e-07 1.56958e-07
9.10612e-08 1.56958e-07 -0.00010634
0.00138733 7.02589e-05 4.73501e-06
7.02589e-05 4.76966e-05 7.46222e-07
4.73501e-06 7.46222e-07 -7.72967e-05
0.00513373 9.77561e-05 -0.000173775
9.77561e-05 0.00251482 -8.32949e-06
-0.000173775 -8.32949e-06 0.00251337
0.000647856 5.89188e-05 1.10695e-07
5.89188e-05 -9.97789e-05 1.88142e-07
1.10695e-07 1.88142e-07 -0.000162213
0.00109021 8.79169e-05 7.89699e-06
8.79169e-05 -1.27699e-05 2.33954e-06
7.89699e-06 2.33954e-06 -0.000122473
0.00506222 9.05263e-05 5.07948e-06
9.05263e-05 0.00248369 1.35068e-06
5.07948e-06 1.35068e-06 0.00248011
0.000607169 7.69663e-05 1.52573e-05
7.69663e-05 -0.000107198 5.99706e-06
1.52573e-05 5.99706e-06 -0.00017137
0.00495326 4.94995e-05 0.000148516
4.94995e-05 0.00242857 9.81201e-06
0.000148516 9.81201e-06 0.00242508
0.00117462 9.0174e-06 -1.13821e-05
9.0174e-06 1.69997e-05 -6.80561e-07
-1.13821e-05 -6.80561e-07 -9.04657e-05
0.0015365 1.46999e-05 2.11671e-06
1.46999e-05 0.000121158 8.3233e-08
2.11671e-06 8.3233e-08 2.35858e-06
0.00171678 1.77513e-05 4.54884e-07
1.77513e-05 0.000134015 2.11496e-07
4.54884e-07 2.11496e-07 1.75239e-05
0.00070503 2.18261e-05 -1.69609e-05
2.18261e-05 -9.39783e-05 -3.28235e-07
-1.69609e-05 -3.28235e-07 -0.000154535
0.000788884 -4.42279e-06 -2.08723e-06
-4.42279e-06 -0.000201595 3.08222e-08
-2.08723e-06 3.08222e-08 -0.000313538
0.00175366 1.09751e-05 6.44258e-06
1.09751e-05 0.000237399 5.72838e-08
6.44258e-06 5.72838e-08 0.000118553
0.000788554 -5.09153e-06 8.22578e-06
-5.09153e-06 -0.000204806 -3.69326e-07
8.22578e-06 -3.69326e-07 -0.000318495
0.000683137 5.26471e-07 1.15246e-07
5.26471e-07 -0.000101711 2.9541e-07
1.15246e-07 2.9541e-07 -0.00016658
0.00530351 5.68062e-05 -0.000170421
5.68062e-05 0.00260479 -8.21609e-07
-0.000170421 -8.21609e-07 0.00260427
0.000659501 1.14984e-05 1.57297e-05
1.14984e-05 -0.000111197 -1.24069e-06
1.57297e-05 -1.24069e-06 -0.000175607
0.00526007 -5.35169e-05 -6.37301e-06
-5.35169e-05 0.00258208 1.13722e-06
-6.37301e-06 1.13722e-06 0.00258089
0.0051912 6.51723e-05 0.000152186
6.51723e-05 0.00254662 -1.87257e-06
0.000152186 -1.87257e-06 0.00254418
0.00115618 1.53077e-05 -1.12637e-05
1.53077e-05 8.83429e-06 -1.37302e-06
-1.12637e-05 -1.37302e-06 -9.71854e-05
0.00137468 2.26534e-05 8.77797e-08
2.26534e-05 3.92944e-05 -5.78226e-08
8.77797e-08 -5.78226e-08 -8.05858e-05
0.00162033 3.77667e-05 -8.76819e-08
3.77667e-05 9.83124e-05 -8.23593e-07
-8.76819e-08 -8.23593e-07 -1.63753e-05
0.0025367 2.50225e-05 -8.72537e-05
2.50225e-05 0.00094534 -2.55182e-06
-8.72537e-05 -2.55182e-06 0.000899705
0.00114822 3.25768e-05 1.48139e-07
3.25768e-05 6.02336e-06 1.72662e-07
1.48139e-07 1.72662e-07 -9.97263e-05
0.00139041 3.73675e-05 4.46121e-06
3.73675e-05 4.66439e-05 2.68318e-07
4.46121e-06 2.68318e-07 -7.51211e-05
0.0051213 9.77549e-05 -0.000176765
9.77549e-05 0.00250982 -6.50643e-06
-0.000176765 -6.50643e-06 0.00250695
0.000688982 4.09358e-05 3.55061e-07
4.09358e-05 -8.54358e-05 1.78904e-07
3.55061e-07 1.78904e-07 -0.000147921
0.00113793 6.33029e-05 1.09535e-05
6.33029e-05 3.88273e-06 2.30714e-06
1.09535e-05 2.30714e-06 -0.000103544
0.00511791 0.000112501 1.76676e-07
0.000112501 0.0025106 1.27208e-06
1.76676e-07 1.27208e-06 0.00250735
0.000667649 5.88764e-05 1.55769e-05
5.88764e-05 -8.81644e-05 5.00035e-06
1.55769e-05 5.00035e-06 -0.000150755
0.00500909 0.000107751 0.000160231
0.000107751 0.00245675 1.08141e-05
0.000160231 1.08141e-05 0.00245256
0.000736957 7.83926e-06 -1.6013e-05
7.83926e-06 -6.92674e-05 -1.64708e-06
-1.6013e-05 -1.64708e-06 -0.000133254
0.000980356 6.58702e-06 5.717e-07
6.58702e-06 -9.1215e-05 2.89419e-07
5.717e-07 2.89419e-07 -0.000200111
0.00135225 9.37005e-06 5.94226e-06
9.37005e-06 1.82047e-05 3.33443e-07
5.94226e-06 3.33443e-07 -0.00010203
0.00526339 -8.66141e-05 -0.000155741
-8.66141e-05 0.0025953 -1.54246e-06
-0.000155741 -1.54246e-06 0.0025868
0.000689232 8.63677e-06 -2.47065e-07
8.63677e-06 -9.90675e-05 2.39479e-07
-2.47065e-07 2.39479e-07 -0.000161668
0.00078977 1.17003e-06 8.35266e-06
1.17003e-06 -0.000202149 1.29919e-07
8.35266e-06 1.29919e-07 -0.000314252
0.000663535 1.67695e-05 1.60859e-05
1.67695e-05 -0.000112519 6.30029e-08
1.60859e-05 6.30029e-08 -0.00017732
0.00530346 2.59431e-05 3.21568e-06
2.59431e-05 0.00260763 2.11346e-07
3.21568e-06 2.11346e-07 0.00260468
0.00530145 4.26978e-05 0.000159669
4.26978e-05 0.00260072 -2.96672e-07
0.000159669 -2.96672e-07 0.00260099
0.00258646 -1.87548e-06 -8.73916e-05
-1.87548e-06 0.000967698 -1.87933e-06
-8.73916e-05 -1.87933e-06 0.000921751
0.00116983 1.78013e-05 -2.20518e-08
1.78013e-05 1.59461e-05 3.04076e-08
-2.20518e-08 3.04076e-08 -9.01256e-05
0.00128914 2.18148e-05 4.21911e-06
2.18148e-05 -9.18103e-06 1.28223e-07
4.21911e-06 1.28223e-07 -0.000128998
0.00487121 -5.98811e-05 -2.83202e-05
-5.98811e-05 0.00237892 -5.53657e-07
-2.83202e-05 -5.53657e-07 0.00236544
0.000706358 2.87589e-05 -5.02068e-08
2.87589e-05 -7.87657e-05 2.21523e-07
-5.02068e-08 2.21523e-07 -0.000141696
0.00116992 3.53013e-05 1.09305e-05
3.53013e-05 1.72895e-05 1.91252e-06
1.09305e-05 1.91252e-06 -8.86104e-05
0.00515425 6.15315e-05 -1.0652e-05
6.15315e-05 0.00252472 -1.35001e-07
-1.0652e-05 -1.35001e-07 0.00252403
0.000723815 5.43122e-05 1.67333e-05
5.43122e-05 -6.4646e-05 4.09493e-06
1.67333e-05 4.09493e-06 -0.00012793
0.00509444 0.000129144 0.00016843
0.000129144 0.00250188 1.06355e-05
0.00016843 1.06355e-05 0.00249679
0.00167674 -3.09931e-05 -0.000148729
-3.09931e-05 0.000565048 3.72546e-07
-0.000148729 3.72546e-07 0.000546457
0.00164891 1.67122e-05 -3.57024e-05
1.67122e-05 0.000439407 2.86638e-07
-3.57024e-05 2.86638e-07 0.000386535
0.00079148 6.82985e-06 1.10948e-05
6.82985e-06 -0.000196427 1.05494e-06
1.10948e-05 1.05494e-06 -0.000306775
0.00525997 -3.51668e-05 8.64121e-06
-3.51668e-05 0.00258978 -4.73923e-07
8.64121e-06 -4.73923e-07 0.00258428
0.000679388 -3.48196e-06 1.66745e-05
-3.48196e-06 -0.000101784 8.75043e-07
1.66745e-05 8.75043e-07 -0.000165768
0.00530818 -4.63046e-05 0.000176287
-4.63046e-05 0.00260907 -8.42141e-08
0.000176287 -8.42141e-08 0.00260744
0.00135334 -2.94956e-05 -1.13594e-05
-2.94956e-05 0.000402966 -9.03235e-07
-1.13594e-05 -9.03235e-07 0.000369439
0.0016421 1.00088e-05 -3.56163e-05
1.00088e-05 0.000440623 -1.525e-07
-3.56163e-05 -1.525e-07 0.00038646
0.00117016 1.86111e-05 1.10297e-05
1.86111e-05 1.5993e-05 1.45843e-06
1.10297e-05 1.45843e-06 -9.01578e-05
0.00324245 3.65132e-05 6.38071e-05
3.65132e-05 0.00145604 8.86958e-07
6.38071e-05 8.86958e-07 0.00143975
0.000715584 3.72483e-05 1.68562e-05
3.72483e-05 -7.35741e-05 3.4149e-06
1.68562e-05 3.4149e-06 -0.000136746
0.00515619 9.33604e-05 0.000163747
9.33604e-05 0.00252812 7.78638e-06
0.000163747 7.78638e-06 0.00252644
0.00519574 -2.61179e-05 -8.88986e-06
-2.61179e-05 0.00255629 -1.70735e-07
-8.88986e-06 -1.70735e-07 0.00255031
0.000697682 2.80673e-05 1.73156e-05
2.80673e-05 -9.30539e-05 1.66564e-06
1.73156e-05 1.66564e-06 -0.000153268
0.00521898 6.10526e-05 0.000160153
6.10526e-05 0.00256553 -1.05599e-06
0.000160153 -1.05599e-06 0.00256147
0.00325911 2.86924e-05 7.82594e-05
2.86924e-05 0.0014674 1.37794e-06
7.82594e-05 1.37794e-06 0.00144999
0.000713635 7.96091e-06 1.65161e-05
7.96091e-06 -7.76737e-05 2.43958e-06
1.65161e-05 2.43958e-06 -0.00014043
0.00516024 -3.20655e-05 0.000154479
-3.20655e-05 0.00252795 4.04037e-06
0.000154479 4.04037e-06 0.00252707
0.00518005 -0.000134101 0.000153719
-0.000134101 0.00255459 -6.37366e-07
0.000153719 -6.37366e-07 0.00254386
0.00515782 -3.67834e-05 0.000152275
-3.67834e-05 0.00252504 1.83821e-06
0.000152275 1.83821e-06 0.00252531
