# vtk DataFile Version 2.0
Wound Healing Simulation
ASCII
DATASET UNSTRUCTURED_GRID
POINTS 3012 float
69.9759 18.75 4
67.2507 60.3285 4
69.976 18.75 2
73.0099 25.446 4
71.1327 20.9142 4
68.6801 16.6661 4
67.8275 19.9213 3.98938
67.2507 60.3286 2
71.1327 54.0858 4
68.6801 58.3339 4
65.6939 62.2254 4
65.3138 59.0065 3.99093
74.6784 42.3946 4
73.7221 47.2057 4
69.9759 18.75 0
73.0099 25.446 2
68.6801 16.6661 2
71.1327 20.9142 2
67.8277 19.9216 2
74.6792 32.6053 4
73.7222 27.7943 4
72.1454 23.1494 4
70.6167 26.2209 3.98822
68.888 21.9549 3.98892
67.2507 14.6715 4
66.6388 17.9662 3.99016
65.8045 21.0167 3.98536
67.2507 60.3285 0
71.1327 54.0858 2
68.6801 58.3339 2
65.694 62.2255 2
65.3139 59.0065 2
72.1454 51.8506 4
69.9759 56.25 4
68.839 53.1158 3.98897
64.0165 64.0165 4
66.6125 57.1389 3.99037
63.8872 60.7706 3.9917
63.5058 57.7829 3.98632
60.3285 67.2507 4
74.6792 42.3947 2
73.7222 47.2057 2
74.9194 39.9526 4
74.2788 44.8158 4
72.1702 42.0853 3.98761
73.0099 49.554 4
71.2519 46.5975 3.98833
73.0099 25.446 0
71.1327 20.9142 0
68.6801 16.6661 0
67.8275 19.9213 0.0106182
74.6792 32.6053 2
73.7222 27.7943 2
67.2508 14.6715 2
72.1455 23.1494 2
70.6168 26.2219 2
66.6389 17.9662 2
68.8882 21.9554 2
65.8046 21.0166 2
74.9197 35.0474 4
74.2794 30.1841 4
72.1868 32.9435 3.98805
71.2806 28.4318 3.98819
69.8181 24.0582 3.98856
68.3544 26.9486 3.98304
66.7704 22.9269 3.98483
65.694 12.7746 4
65.3252 16.0977 3.99109
64.7203 19.184 3.986
63.8995 22.0219 3.98325
71.1327 54.0858 0
65.6939 62.2254 0
68.6801 58.3339 0
65.3138 59.0065 0.00907314
72.1455 51.8506 2
69.9759 56.25 2
68.8393 53.1154 2
64.0165 64.0165 2
66.6127 57.1389 2
63.8872 60.7706 2
63.5059 57.7831 2
62.2254 65.694 4
58.894 65.4171 3.99256
69.7718 50.99 3.98853
67.786 55.1716 3.98972
66.6581 52.2153 3.98498
62.3371 62.4312 3.99221
64.6677 56.0415 3.98646
62.2066 59.4159 3.98658
61.8325 56.6972 3.98451
58.3339 68.6801 4
60.3285 67.2508 2
73.7221 47.2057 0
74.6784 42.3946 0
74.9197 39.9526 2
74.2794 44.8159 2
72.1701 42.0848 2
73.0099 49.554 2
71.2519 46.5966 2
75 37.5 4
72.4071 39.8021 3.98716
71.7848 44.3524 3.9881
69.8105 41.79 3.98178
70.5779 48.8134 3.98839
68.92 46.0164 3.98253
74.6792 32.6053 0
73.7222 27.7943 0
67.2507 14.6715 0
72.1454 23.1494 0
70.6167 26.2209 0.0117758
68.888 21.9549 0.0110843
66.6388 17.9662 0.00983512
65.8045 21.0167 0.0146433
74.9197 35.0474 2
74.2794 30.1841 2
72.1868 32.944 2
71.2806 28.4328 2
65.694 12.7745 2
65.3252 16.0977 2
69.8183 24.0591 2
68.3543 26.9487 2
64.7204 19.1839 2
66.7705 22.9268 2
63.8996 22.0219 2
72.4151 35.2242 3.98744
71.8062 30.6767 3.98834
69.8467 33.268 3.98224
68.9735 29.0365 3.98243
67.6192 24.9075 3.98404
66.2073 27.6285 3.98094
64.0165 10.9835 4
64.7699 23.8191 3.98282
63.8912 14.3224 3.99175
63.5182 17.4347 3.98662
62.9181 20.3047 3.98371
62.1101 22.9256 3.98225
60.6844 11.0942 3.99227
57.6128 11.4385 3.98746
72.1454 51.8506 0
69.9759 56.25 0
68.839 53.1158 0.0110294
64.0165 64.0165 0
63.8872 60.7706 0.00829672
66.6125 57.1389 0.00963304
63.5058 57.7829 0.0136803
62.2255 65.694 2
58.8941 65.4172 2
69.772 50.9892 2
67.7862 55.1715 2
66.6583 52.2154 2
62.3372 62.4313 2
64.6679 56.0417 2
62.2067 59.4162 2
61.8327 56.6974 2
60.669 63.9804 3.99238
57.0244 66.7375 3.99281
57.558 63.6986 3.98759
67.5161 50.181 3.98405
65.7101 54.1815 3.98596
64.5522 51.3961 3.98257
60.7754 60.9484 3.98713
62.8319 55.0829 3.98482
60.6653 58.1753 3.98446
60.3406 55.8055 3.98374
56.25 69.9759 4
58.3339 68.6801 2
60.3285 67.2507 0
58.9213 9.65266 3.99257
62.2254 9.30607 4
73.0099 49.554 0
74.2788 44.8158 0
71.2519 46.5975 0.0116739
72.1702 42.0853 0.0123889
74.9194 39.9526 0
75 37.5 2
72.407 39.8019 2
71.7848 44.3517 2
69.8103 41.7898 2
70.5781 48.8125 2
68.9198 46.0161 2
72.4905 37.5121 3.98707
70.0469 39.6575 3.98104
69.4375 43.9083 3.98223
67.6085 41.4997 3.97934
68.2741 48.1099 3.98319
66.7227 45.4444 3.98049
74.9197 35.0474 0
74.2794 30.1841 0
72.1868 32.9435 0.0119464
71.2806 28.4318 0.0118112
65.694 12.7746 0
65.3252 16.0977 0.00891337
69.8181 24.0582 0.0114431
68.3544 26.9486 0.0169621
66.7704 22.9269 0.0151698
64.7203 19.184 0.0140036
63.8995 22.0219 0.016752
72.415 35.2246 2
71.8061 30.6775 2
69.8465 33.2682 2
68.9733 29.0367 2
64.0165 10.9835 2
63.8913 14.3224 2
63.5183 17.4346 2
67.6192 24.9075 2
66.2071 27.6283 2
62.9182 20.3047 2
64.7698 23.819 2
62.1101 22.9257 2
60.6846 11.0942 2
57.6128 11.4382 2
70.064 35.3919 3.98175
69.4742 31.1486 3.9824
67.667 33.5888 3.97977
66.7845 29.6183 3.98023
65.5373 25.6908 3.98196
64.1639 28.2458 3.98026
62.3425 12.6511 3.99208
62.8752 24.622 3.98203
62.2021 15.7728 3.9869
61.8224 18.668 3.98452
61.2328 21.3221 3.98226
60.4472 23.7065 3.98208
59.2473 12.769 3.98709
55.8743 10.2256 3.98828
56.4067 13.1009 3.98465
69.7718 50.99 0.0114673
62.2254 65.694 0
58.894 65.4171 0.00743877
67.786 55.1716 0.0102767
66.6581 52.2153 0.0150208
62.3371 62.4312 0.00779031
62.2066 59.4159 0.0134174
64.6677 56.0415 0.0135354
61.8325 56.6972 0.0154868
60.6692 63.9804 2
57.0246 66.7376 2
57.558 63.699 2
67.5162 50.1809 2
65.7103 54.1816 2
64.5523 51.3963 2
60.7754 60.9488 2
62.8321 55.0831 2
60.6654 58.1756 2
60.3408 55.8056 2
55.0699 67.9341 3.99308
59.2204 62.375 3.98729
55.8037 64.9152 3.98811
56.3283 62.0993 3.98493
65.3462 49.4167 3.98169
63.7198 53.3057 3.98391
62.4619 50.667 3.98132
59.3378 59.5711 3.98502
61.0927 54.3281 3.98407
59.2986 57.0319 3.98306
59.2568 55.2049 3.9839
48.102 68.5817 3.9899
50.9478 69.9333 3.99364
54.0858 71.1327 4
56.25 69.976 2
58.3339 68.6801 0
57.0583 8.33273 3.99297
60.3285 7.74928 4
58.9215 9.65261 2
62.2255 9.30602 2
70.5779 48.8134 0.0116082
71.7848 44.3524 0.011899
68.92 46.0164 0.0174667
69.8105 41.79 0.0182213
72.4071 39.8021 0.0128423
75 37.5 0
72.4903 37.5122 2
70.0466 39.6573 2
69.4373 43.908 2
67.6082 41.4996 2
68.2742 48.1097 2
66.7225 45.4444 2
70.1349 37.5216 3.98104
67.8446 39.5134 3.97863
67.2357 43.4732 3.97994
65.5717 41.2137 3.97861
66.0825 47.4243 3.98105
64.6701 44.8558 3.97977
72.4151 35.2242 0.0125645
71.8062 30.6767 0.0116641
69.8467 33.268 0.0177642
68.9735 29.0365 0.017573
64.0165 10.9835 0
63.8912 14.3224 0.00825386
63.5182 17.4347 0.0133783
67.6192 24.9075 0.0159567
66.2073 27.6285 0.0190551
64.7699 23.8191 0.0171811
62.9181 20.3047 0.0162879
62.1101 22.9256 0.0177533
60.6844 11.0942 0.00772556
57.6128 11.4385 0.0125448
70.0637 35.392 2
69.474 31.1488 2
67.6667 33.5887 2
66.7842 29.6181 2
62.3426 12.651 2
62.2022 15.7726 2
61.8225 18.668 2
65.5372 25.6906 2
64.1636 28.2457 2
61.2329 21.3223 2
62.8751 24.6221 2
60.447 23.7068 2
59.2473 12.7687 2
56.4067 13.1006 2
55.8743 10.2252 2
67.8814 35.5466 3.97942
67.2775 31.6191 3.98016
65.7139 33.9238 3.97886
64.6801 30.1847 3.97917
63.5565 26.4017 3.98117
62.2796 28.7649 3.98063
60.7771 14.2127 3.98697
61.0681 25.3191 3.98194
60.6183 17.112 3.98505
60.2343 19.7963 3.98317
59.6799 22.236 3.98126
59.0032 24.2971 3.98247
54.0373 9.1292 3.98906
57.9126 14.3185 3.98487
54.7874 12.0009 3.98497
55.3149 14.6318 3.9835
67.5161 50.181 0.0159541
57.0244 66.7375 0.00719234
60.669 63.9804 0.00762151
57.558 63.6986 0.0124078
65.7101 54.1815 0.01404
64.5522 51.3961 0.0174266
60.7754 60.9484 0.0128716
60.6653 58.1753 0.0155368
62.8319 55.0829 0.0151814
60.3406 55.8055 0.0162613
55.07 67.9342 2
59.2205 62.3754 2
55.8038 64.9155 2
56.3283 62.0997 2
65.3463 49.4169 2
63.72 53.3058 2
62.4619 50.667 2
59.3379 59.5715 2
61.0929 54.3281 2
59.2988 57.0321 2
59.257 55.205 2
53.0418 69.0017 3.9934
53.9657 66.0169 3.98867
57.8835 60.8819 3.98502
54.6839 63.2141 3.9852
55.214 60.6269 3.98371
63.2143 48.6734 3.98064
61.7603 52.5926 3.98287
60.2991 50.0377 3.98067
58.0244 58.2778 3.98375
59.3452 53.9691 3.98327
58.1387 55.8349 3.98174
50.1083 67.8599 3.98961
47.462 66.5857 3.98734
46.0559 69.1611 3.99013
48.1021 68.5821 2
48.8022 70.7244 3.99384
50.948 69.9335 2
51.8506 72.1454 4
54.0858 71.1327 2
56.25 69.9759 0
55.1026 7.13745 3.9933
58.3339 6.31992 4
57.0585 8.33265 2
60.3286 7.74926 2
58.9213 9.65266 0.00743375
62.2254 9.30607 0
68.2741 48.1099 0.0168106
69.4375 43.9083 0.0177726
66.7227 45.4444 0.0195085
67.6085 41.4997 0.0206617
70.0469 39.6575 0.0189568
72.4905 37.5121 0.012929
70.1346 37.5215 2
67.8442 39.5133 2
67.2354 43.4731 2
65.5713 41.2136 2
66.0824 47.4244 2
64.6698 44.8558 2
67.9408 37.5221 3.97846
65.8023 39.3723 3.97804
65.1928 43.0309 3.97906
63.7758 40.9349 3.97875
63.9846 46.7264 3.98016
62.8297 44.226 3.98025
70.064 35.3919 0.0182456
69.4742 31.1486 0.0175978
67.667 33.5888 0.0202307
66.7845 29.6183 0.0197724
62.3425 12.6511 0.00791562
62.2021 15.7728 0.0130986
61.8224 18.668 0.0154776
65.5373 25.6908 0.0180448
64.1639 28.2458 0.0197443
62.8752 24.622 0.0179695
61.2328 21.3221 0.0177442
60.4472 23.7065 0.0179187
59.2473 12.769 0.0129133
56.4067 13.1009 0.0153542
55.8743 10.2256 0.0117235
67.881 35.5464 2
67.2771 31.6189 2
65.7135 33.9235 2
64.6796 30.1845 2
60.7771 14.2124 2
60.6184 17.1118 2
60.2344 19.7964 2
63.5562 26.4017 2
62.2791 28.7649 2
59.6799 22.2363 2
61.0678 25.3192 2
59.0029 24.2975 2
57.9126 14.3183 2
55.3149 14.6316 2
54.0373 9.12881 2
54.7874 12.0006 2
65.892 35.6652 3.97852
65.2032 32.1487 3.97899
64.3039 34.2458 3.9783
62.617 30.6254 3.97918
61.6744 27.0564 3.981
60.8764 29.1254 3.98225
59.3139 15.6546 3.98503
59.3582 25.7751 3.98307
59.131 18.3369 3.98413
58.7546 20.8315 3.9818
58.3067 23.068 3.98044
57.9951 24.6406 3.98342
52.112 8.14797 3.98961
53.0581 11.0075 3.98583
56.6796 15.7269 3.98412
53.8111 13.6679 3.9832
54.3792 15.9829 3.98338
55.0699 67.9341 0.00691778
65.3462 49.4167 0.0183106
55.8037 64.9152 0.0118935
59.2204 62.375 0.0127093
56.3283 62.0993 0.0150736
63.7198 53.3057 0.0160875
62.4619 50.667 0.0186795
59.3378 59.5711 0.0149802
59.2986 57.0319 0.0169381
61.0927 54.3281 0.0159333
59.2568 55.2049 0.0160958
53.042 69.0018 2
53.9658 66.0172 2
57.8835 60.8823 2
54.6838 63.2144 2
55.214 60.6272 2
63.2143 48.6735 2
61.7605 52.5926 2
60.299 50.0376 2
58.0247 58.2781 2
59.3454 53.969 2
58.1389 55.835 2
52.0692 67.0031 3.98921
52.9525 64.2238 3.98564
56.6524 59.5025 3.9841
53.6822 61.6303 3.98389
54.2636 59.3335 3.98311
61.0194 47.8964 3.97994
59.7329 52.1259 3.98255
58.0559 49.6383 3.98106
56.785 57.0074 3.98203
57.1384 54.1466 3.98132
50.1084 67.8602 2
49.3357 65.9259 3.98683
47.4621 66.5862 2
46.8913 64.742 3.98542
45.5573 67.1032 3.98762
43.9731 69.5938 3.99035
46.056 69.1615 2
46.609 71.3688 3.99402
48.102 68.5817 0.010098
48.8023 70.7246 2
49.554 73.0099 4
50.9478 69.9333 0.0063593
51.8506 72.1455 2
54.0858 71.1327 0
53.0637 6.06908 3.99359
55.1028 7.13732 2
56.25 5.02411 4
58.3339 6.3199 2
57.0583 8.33273 0.00703277
60.3285 7.74928 0
66.0825 47.4243 0.0189458
67.2357 43.4732 0.0200573
64.6701 44.8558 0.0202334
65.5717 41.2137 0.0213926
67.8446 39.5134 0.0213738
70.1349 37.5216 0.018963
67.9404 37.522 2
65.8018 39.3722 2
65.1924 43.0309 2
63.7753 40.9349 2
63.9844 46.7264 2
62.8293 44.226 2
65.905 37.502 3.97762
63.9193 39.2698 3.97803
63.3502 42.5575 3.97902
62.4554 40.7043 3.97831
61.9918 45.9316 3.98013
61.4782 43.6948 3.98221
67.8814 35.5466 0.0205803
67.2775 31.6191 0.0198372
65.7139 33.9238 0.0211387
64.6801 30.1847 0.0208278
60.7771 14.2127 0.0130291
60.6183 17.112 0.0149538
60.2343 19.7963 0.0168286
63.5565 26.4017 0.0188269
62.2796 28.7649 0.0193692
61.0681 25.3191 0.0180643
59.6799 22.236 0.0187364
59.0032 24.2971 0.0175348
57.9126 14.3185 0.0151322
55.3149 14.6318 0.0164954
54.0373 9.1292 0.010937
54.7874 12.0009 0.0150282
65.8915 35.665 2
65.2027 32.1485 2
64.3034 34.2456 2
62.6164 30.6253 2
59.314 15.6543 2
59.1312 18.3368 2
58.7547 20.8317 2
61.674 27.0565 2
60.8757 29.1254 2
58.3065 23.0685 2
59.3578 25.7755 2
57.9947 24.6412 2
56.6796 15.7267 2
54.3792 15.9828 2
53.8111 13.6676 2
52.112 8.14757 2
53.0581 11.007 2
64.1109 35.6303 3.97794
62.9535 33.0393 3.97806
60.6422 30.5985 3.97969
59.6013 27.8916 3.98194
57.9437 16.9666 3.98434
57.7699 25.7023 3.98442
57.7242 19.4554 3.98313
57.388 21.8163 3.98008
57.211 23.9223 3.98045
50.1121 7.28034 3.98993
51.2323 10.1161 3.9865
52.1729 12.7854 3.98396
55.541 16.9554 3.98392
52.9798 15.2495 3.98213
53.7615 16.9645 3.98356
53.0418 69.0017 0.00660283
53.9657 66.0169 0.0113345
63.2143 48.6734 0.0193581
54.6839 63.2141 0.0147951
57.8835 60.8819 0.0149809
55.214 60.6269 0.0162881
61.7603 52.5926 0.0171287
60.2991 50.0377 0.0193312
58.0244 58.2778 0.0162509
58.1387 55.8349 0.0182647
59.3452 53.9691 0.016727
52.0693 67.0034 2
52.9525 64.2242 2
56.6526 59.5029 2
53.6822 61.6306 2
54.2637 59.3338 2
61.0193 47.8963 2
59.733 52.1258 2
58.0558 49.6381 2
56.7853 57.0077 2
57.1387 54.1466 2
51.1667 65.1327 3.98619
52.0461 62.5447 3.98398
55.4856 58.2651 3.98359
52.8366 60.1445 3.98323
53.6442 58.4842 3.98316
58.3402 46.8666 3.98207
57.5863 51.81 3.98112
56.2807 49.5767 3.98235
55.4824 55.8154 3.98051
55.3772 53.4071 3.97867
50.1083 67.8599 0.0103894
49.3357 65.9263 2
48.6171 64.1281 3.98495
47.462 66.5857 0.0126554
45.5573 67.1037 2
46.8913 64.7425 2
46.3809 63.0598 3.98399
45.1315 65.2038 3.98576
43.6307 67.4744 3.98781
41.8605 69.8815 3.99045
43.9732 69.5942 2
44.3765 71.8637 3.99418
46.0559 69.1611 0.00986773
46.6091 71.3691 2
47.2057 73.7222 4
48.8022 70.7244 0.00616353
49.554 73.0099 2
51.8506 72.1454 0
50.9535 5.12964 3.99376
53.0639 6.06891 2
54.0858 3.86728 4
55.1026 7.13745 0.00670353
56.25 5.02406 2
58.3339 6.31992 0
63.9846 46.7264 0.0198449
65.1928 43.0309 0.0209405
62.8297 44.226 0.019754
63.7758 40.9349 0.0212507
65.8023 39.3723 0.0219564
67.9408 37.5221 0.0215432
65.9045 37.5019 2
63.9188 39.2697 2
63.3498 42.5575 2
62.4549 40.7042 2
61.9916 45.9315 2
61.4777 43.6946 2
63.9794 37.4575 3.97775
62.1837 39.3592 3.97801
61.2461 41.9684 3.97942
60.2802 44.7838 3.98247
65.892 35.6652 0.0214758
65.2032 32.1487 0.0210075
64.3039 34.2458 0.0217032
62.617 30.6254 0.0208174
59.3139 15.6546 0.0149724
59.131 18.3369 0.0158719
58.7546 20.8315 0.0182014
61.6744 27.0564 0.0190034
60.8764 29.1254 0.0177542
59.3582 25.7751 0.0169259
58.3067 23.068 0.0195553
57.9951 24.6406 0.0165765
56.6796 15.7269 0.0158801
54.3792 15.9829 0.016623
53.8111 13.6679 0.0167978
52.112 8.14797 0.0103933
53.0581 11.0075 0.0141732
64.1103 35.6301 2
62.9528 33.0391 2
60.6414 30.5984 2
57.9438 16.9664 2
57.7244 19.4554 2
57.388 21.8167 2
59.6007 27.8918 2
57.2107 23.923 2
57.7694 25.7028 2
50.1122 7.27997 2
55.5411 16.9553 2
53.7615 16.9643 2
52.9798 15.2493 2
52.1729 12.785 2
51.2323 10.1157 2
62.2166 35.356 3.97762
60.3222 32.7358 3.97751
58.6562 30.058 3.98058
57.3273 27.3581 3.98384
56.6412 18.1379 3.98395
56.3226 25.0777 3.9819
56.3685 20.5 3.98143
56.1295 22.8445 3.97774
48.056 6.52372 3.99014
49.3241 9.32439 3.98724
50.4334 11.9838 3.98443
51.3794 14.4854 3.98223
54.419 17.904 3.98353
52.364 17.0214 3.98222
52.0692 67.0031 0.0107942
52.9525 64.2238 0.0143597
61.0194 47.8964 0.0200591
53.6822 61.6303 0.0161056
56.6524 59.5025 0.0159046
54.2636 59.3335 0.0168891
59.7329 52.1259 0.0174493
58.0559 49.6383 0.0189378
56.785 57.0074 0.0179677
57.1384 54.1466 0.0186793
51.1667 65.1331 2
52.0461 62.545 2
55.4859 58.2655 2
52.8366 60.1449 2
53.6443 58.4846 2
58.3399 46.8662 2
57.5865 51.8099 2
56.2806 49.5764 2
55.4828 55.8156 2
55.3774 53.4071 2
50.3456 63.386 3.98437
51.245 60.942 3.9827
54.2253 57.2803 3.98263
52.3159 58.6451 3.98249
56.7618 44.2009 3.98323
55.533 47.9164 3.98136
55.098 51.4133 3.97867
54.0183 54.568 3.97804
49.3357 65.9259 0.0131747
48.6171 64.1285 2
47.9614 62.4805 3.9836
45.5573 67.1032 0.0123825
46.8913 64.742 0.0145754
43.6307 67.4748 2
46.3808 63.0603 2
45.1315 65.2043 2
45.9867 61.5924 3.98281
44.766 63.4613 3.98439
43.3554 65.5138 3.98586
41.663 67.6938 3.98796
39.7023 70.0287 3.99043
41.8606 69.8819 2
42.111 72.2086 3.99419
43.9731 69.5938 0.00965257
44.3766 71.864 2
44.8159 74.2794 4
46.609 71.3688 0.00597885
47.2057 73.7222 2
49.554 73.0099 0
48.784 4.32079 3.99396
50.9536 5.12945 2
51.8506 2.85458 4
53.0637 6.06908 0.00640507
54.0858 3.86728 2
56.25 5.02411 0
61.9918 45.9316 0.0198712
63.3502 42.5575 0.0209794
61.4782 43.6948 0.0177922
62.4554 40.7043 0.0216882
63.9193 39.2698 0.0219665
65.905 37.502 0.0223825
63.9789 37.4574 2
62.1831 39.3591 2
61.2456 41.9682 2
60.2798 44.7835 2
62.0228 37.4451 3.97819
60.283 39.8542 3.97805
59.0316 42.9321 3.98136
64.1109 35.6303 0.0220576
62.9535 33.0393 0.0219404
60.6422 30.5985 0.0203103
57.9437 16.9666 0.0156552
57.7242 19.4554 0.016868
57.388 21.8163 0.0199213
59.6013 27.8916 0.0180646
57.7699 25.7023 0.0155764
57.211 23.9223 0.0195486
55.541 16.9554 0.0160839
53.7615 16.9645 0.016437
52.9798 15.2495 0.0178692
50.1121 7.28034 0.0100697
52.1729 12.7854 0.0160407
51.2323 10.1161 0.0134983
62.216 35.3558 2
60.3213 32.7356 2
58.6552 30.058 2
56.6415 18.1377 2
56.3688 20.5001 2
56.1293 22.8453 2
57.3265 27.3585 2
56.3221 25.0785 2
48.056 6.52337 2
49.3241 9.324 2
54.4191 17.9039 2
52.3641 17.0213 2
51.3794 14.485 2
50.4334 11.9834 2
59.9311 35.1149 3.97774
58.0349 32.2555 3.97811
56.5872 29.3171 3.98163
55.4859 26.5753 3.98486
55.3483 19.1717 3.98317
54.9561 24.0321 3.97708
55.0157 21.5406 3.97989
45.962 5.87899 3.99039
43.3734 7.46805 3.98838
47.3546 8.61852 3.98762
48.5999 11.2854 3.98509
49.7149 13.7326 3.98312
50.6357 16.1199 3.9809
53.1293 18.6442 3.98255
51.3063 18.0352 3.98288
51.1667 65.1327 0.0138096
52.0461 62.5447 0.016016
58.3402 46.8666 0.0179288
52.8366 60.1445 0.0167695
55.4856 58.2651 0.016405
53.6442 58.4842 0.0168404
57.5863 51.81 0.0188836
56.2807 49.5767 0.0176496
55.4824 55.8154 0.019489
55.3772 53.4071 0.0213337
50.3455 63.3864 2
51.245 60.9424 2
54.2256 57.2806 2
52.316 58.6455 2
56.7612 44.2003 2
55.5328 47.9159 2
55.0981 51.4131 2
54.0187 54.568 2
49.5917 61.7499 3.98307
55.6969 41.7224 3.97863
50.5688 59.3357 3.98156
52.1914 56.5036 3.98108
54.2389 45.5813 3.98271
53.3824 49.3512 3.97946
52.6896 52.875 3.97671
48.6171 64.1281 0.0150473
47.9613 62.4809 2
47.3291 61.015 3.98256
43.6307 67.4744 0.012195
45.1315 65.2038 0.0142381
46.3809 63.0598 0.0160107
41.663 67.6942 2
43.3554 65.5143 2
45.9866 61.5928 2
44.766 63.4618 2
45.7659 60.6365 3.98193
44.4823 61.8423 3.98313
43.1452 63.7342 3.98454
41.5451 65.6522 3.98608
39.6323 67.7738 3.98809
37.5259 70.0541 3.99044
39.7024 70.0291 2
39.8179 72.4057 3.99409
41.8605 69.8815 0.0095501
42.1111 72.2089 2
42.3947 74.6792 4
44.3765 71.8637 0.00582085
44.8159 74.2794 2
47.2057 73.7222 0
43.8515 5.35604 3.99064
46.5701 3.64546 3.99413
48.7841 4.3206 2
49.554 1.99015 4
50.9535 5.12964 0.00623821
51.8506 2.85453 2
54.0858 3.86728 0
60.2802 44.7838 0.0175299
61.2461 41.9684 0.0205846
62.1837 39.3592 0.0219943
63.9794 37.4575 0.0222518
62.0222 37.445 2
60.2823 39.8541 2
59.031 42.9319 2
59.8039 37.5678 3.97917
58.0483 40.6684 3.97805
55.1824 39.7293 3.97961
62.2166 35.356 0.0223777
60.3222 32.7358 0.0224874
58.6562 30.058 0.0194179
56.6412 18.1379 0.0160543
56.3685 20.5 0.0185687
56.1295 22.8445 0.0222635
57.3273 27.3581 0.016164
56.3226 25.0777 0.0181028
54.419 17.904 0.0164732
52.364 17.0214 0.017784
51.3794 14.4854 0.0177746
48.056 6.52372 0.00985745
49.3241 9.32439 0.0127645
50.4334 11.9838 0.0155729
59.9304 35.1148 2
45.962 5.87863 2
43.3735 7.46774 2
58.0338 32.2554 2
56.586 29.3172 2
55.3486 19.1715 2
55.016 21.5408 2
54.9557 24.0333 2
55.4852 26.5762 2
47.3546 8.61814 2
48.5999 11.2851 2
53.1294 18.6441 2
51.3063 18.0351 2
50.6357 16.1195 2
49.7149 13.7322 2
57.4491 34.7527 3.97864
55.7784 31.4984 3.9788
54.5615 28.3788 3.98669
53.8066 25.4734 3.97977
53.9761 20.1193 3.98288
53.5995 22.6858 3.9755
41.3986 7.07329 3.98853
45.3594 7.99004 3.98803
42.8652 9.40885 3.98659
46.6661 10.6464 3.9856
47.7456 13.093 3.98329
48.933 15.3902 3.98209
50.0087 17.6891 3.97938
51.6576 19.3133 3.98413
50.3456 63.386 0.0156282
51.245 60.942 0.0173022
56.7618 44.2009 0.0167675
55.533 47.9164 0.0186448
52.3159 58.6451 0.0175102
54.2253 57.2803 0.0173712
55.098 51.4133 0.0213265
54.0183 54.568 0.0219639
49.5917 61.7503 2
55.6959 41.7217 2
50.5688 59.3361 2
52.1919 56.5041 2
54.2385 45.5806 2
53.3824 49.3504 2
52.69 52.8738 2
48.8496 60.2074 3.98223
52.607 42.6572 3.9793
49.7926 57.6358 3.98146
50.6079 54.4383 3.97778
51.88 47.2888 3.97965
51.2492 50.9682 3.97512
48.3036 43.7391 3.97647
47.9614 62.4805 0.0163988
47.329 61.0153 2
46.6189 59.8013 3.9819
41.663 67.6938 0.0120374
43.3554 65.5138 0.0141372
44.766 63.4613 0.0156123
45.9867 61.5924 0.0171875
39.6323 67.7743 2
41.5451 65.6526 2
45.7658 60.6368 2
43.1452 63.7346 2
44.4823 61.8427 2
44.623 60.299 3.98194
42.9494 62.0915 3.98346
41.5986 63.8281 3.98456
39.6468 65.6211 3.98634
37.5631 67.7565 3.98791
31.6977 65.1395 3.98607
33.3923 67.494 3.98787
35.3333 69.9642 3.9904
37.5259 70.0545 2
37.5096 72.4603 3.99411
39.7023 70.0287 0.0095728
39.8179 72.406 2
39.9526 74.9197 4
42.111 72.2086 0.00581156
42.3947 74.6792 2
44.8159 74.2794 0
41.7361 4.96516 3.99084
43.8515 5.35571 2
44.3255 3.10878 3.99429
46.5702 3.64525 2
47.2057 1.27793 4
48.784 4.32079 0.00604292
49.554 1.99013 2
51.8506 2.85458 0
59.0316 42.9321 0.0186388
60.283 39.8542 0.0219495
62.0228 37.4451 0.0218085
59.8031 37.5677 2
58.0474 40.6682 2
55.181 39.7287 2
56.8899 37.8986 3.98016
49.7665 41.3057 3.97665
53.2284 39.3133 3.98307
39.442 6.79688 3.98876
59.9311 35.1149 0.0222611
58.0349 32.2555 0.0218933
56.5872 29.3171 0.0183678
55.3483 19.1717 0.016827
55.0157 21.5406 0.0201134
54.9561 24.0321 0.0229162
55.4859 26.5753 0.0151351
53.1293 18.6442 0.0174504
51.3063 18.0352 0.0171176
50.6357 16.1199 0.0191017
45.962 5.87899 0.0096117
49.7149 13.7326 0.0168813
47.3546 8.61852 0.012384
48.5999 11.2854 0.0149134
43.3734 7.46805 0.0116227
57.4481 34.7526 2
41.3986 7.0729 2
45.3594 7.98972 2
42.8651 9.40858 2
55.7769 31.4981 2
54.56 28.3794 2
53.9765 20.1192 2
53.5997 22.686 2
53.8059 25.4751 2
46.6661 10.6461 2
47.7455 13.0927 2
51.6577 19.3131 2
50.0087 17.6888 2
48.933 15.3899 2
54.9573 33.9572 3.97947
53.5583 30.4587 3.9827
52.6385 27.1758 3.98365
52.1711 24.0637 3.97693
52.4017 21.0535 3.98077
41.0133 9.04212 3.98682
44.7233 9.98909 3.98617
42.4679 10.8949 3.985
46.005 12.7209 3.98396
47.6824 14.5748 3.98264
48.1154 16.9774 3.98056
49.8214 19.5874 3.97805
49.5917 61.7499 0.0169324
50.5688 59.3357 0.0184418
55.6969 41.7224 0.0213683
54.2389 45.5813 0.0172901
53.3824 49.3512 0.0205403
52.1914 56.5036 0.0189153
52.6896 52.875 0.0232878
48.8495 60.2078 2
52.606 42.656 2
49.7927 57.6362 2
50.6085 54.4393 2
51.8795 47.2882 2
51.2491 50.9658 2
48.295 43.7405 2
47.9881 58.7494 3.98153
50.1987 45.2849 3.97692
48.6046 55.9272 3.98139
49.1516 52.6155 3.97833
49.7227 49.0679 3.97551
46.1773 39.9065 3.91439
46.5578 42.758 3.98106
46.6118 45.7401 3.98226
44.024 41.2374 3.9646
42.1076 41.9907 3.96322
47.3291 61.015 0.0174375
46.6188 59.8015 2
45.4686 58.7975 3.98078
39.6323 67.7738 0.0119139
41.5451 65.6522 0.0139159
43.1452 63.7342 0.0154586
44.4823 61.8423 0.0168746
45.7659 60.6365 0.0180741
41.5985 63.8285 2
37.5631 67.757 2
39.6468 65.6216 2
44.6229 60.2992 2
42.9494 62.0918 2
41.7523 62.5027 3.98359
42.4803 59.9911 3.98203
39.8922 63.5637 3.98426
37.6418 65.5203 3.98609
35.4634 67.6659 3.98795
33.5757 65.3533 3.98606
31.9598 63.3121 3.98452
29.8839 64.7301 3.98581
31.6977 65.14 2
31.3771 67.2034 3.98788
33.3923 67.4945 2
33.1562 69.7575 3.99036
35.3333 69.9646 2
35.195 72.3748 3.99407
37.5259 70.0541 0.00955864
37.5096 72.4606 2
37.5 75 4
39.8179 72.4057 0.00590809
39.9526 74.9197 2
42.3947 74.6792 0
39.6237 4.71241 3.99092
41.7362 4.9648 2
42.062 2.71642 3.99446
43.8515 5.35604 0.00936243
44.3256 3.10856 2
44.8158 0.721173 4
46.5701 3.64546 0.00586741
47.2057 1.27779 2
49.554 1.99015 0
58.0483 40.6684 0.0219474
59.8039 37.5678 0.020827
55.1824 39.7293 0.0203889
49.7653 41.3075 2
56.8889 37.8986 2
53.2266 39.312 2
54.083 36.622 3.97925
47.6904 40.4538 3.98921
50.7207 38.486 3.9814
37.5159 6.66797 3.98876
39.442 6.79646 2
39.2109 8.68463 3.98704
35.9414 8.48455 3.98706
57.4491 34.7527 0.0213606
55.7784 31.4984 0.0211968
54.5615 28.3788 0.0133065
53.9761 20.1193 0.0171214
53.5995 22.6858 0.0245009
53.8066 25.4734 0.0202319
51.6576 19.3133 0.0158676
50.0087 17.6891 0.0206224
48.933 15.3902 0.0179137
45.3594 7.99004 0.011973
47.7456 13.093 0.0167056
46.6661 10.6464 0.0143978
41.3986 7.07329 0.0114746
42.8652 9.40885 0.013406
54.9561 33.9568 2
41.0133 9.04169 2
44.7233 9.98887 2
42.4678 10.8947 2
53.5563 30.4577 2
52.6373 27.1787 2
52.4021 21.0529 2
52.171 24.0656 2
46.0049 12.7206 2
47.6824 14.5745 2
49.8216 19.5875 2
48.1154 16.9772 2
52.5064 32.8517 3.98093
51.4103 29.133 3.9857
50.8323 25.702 3.97367
49.9511 22.166 3.97899
40.5687 11.5984 3.98442
43.8577 11.9099 3.98437
45.8033 15.4102 3.9822
47.5071 19.2107 3.97926
46.5073 37.5042 3.91476
48.8496 60.2074 0.0177678
49.7926 57.6358 0.0185364
52.607 42.6572 0.0207031
51.88 47.2888 0.0203488
51.2492 50.9682 0.0248843
50.6079 54.4383 0.0222229
48.3036 43.7391 0.0235343
47.9881 58.7498 2
50.1986 45.2843 2
48.6047 55.9277 2
49.1519 52.6167 2
49.7217 49.0648 2
46.1822 39.9092 2
46.5626 42.7593 2
46.6063 45.7383 2
44.0297 41.2348 2
42.1178 41.9949 2
46.8407 57.352 3.98251
44.7899 39.5014 3.96057
42.4787 40.8658 3.97383
48.17 47.2638 3.98276
47.1802 54.2605 3.98168
47.623 50.7766 3.97801
44.886 47.3456 3.98767
45.2409 42.0209 3.92227
45.0245 44.6553 3.96715
42.8188 42.7382 3.95737
40.9616 42.3585 3.96277
46.6189 59.8013 0.0181004
45.4684 58.7976 2
43.8761 57.7215 3.98064
37.5631 67.7565 0.0120923
39.6468 65.6211 0.0136598
41.5986 63.8281 0.0154445
42.9494 62.0915 0.0165378
44.623 60.299 0.018065
35.4634 67.6664 2
41.7523 62.5031 2
39.8921 63.5641 2
37.6418 65.5208 2
42.4803 59.9914 2
40.6221 61.6611 3.9833
40.4438 58.221 3.97999
37.8359 63.2254 3.98469
35.5729 65.4426 3.98608
33.5757 65.3537 2
31.9599 63.3125 2
33.6291 63.3522 3.98464
30.3788 62.8701 3.98424
32.1231 62.0181 3.98331
26.8677 61.5125 3.98303
28.0626 64.1576 3.98541
29.8839 64.7305 2
29.4068 66.7668 3.9877
31.6977 65.1395 0.0139337
31.3771 67.2039 2
31.0136 69.4222 3.99021
33.3923 67.494 0.01213
33.1562 69.7579 2
32.8921 72.149 3.99408
35.3333 69.9642 0.00960338
35.195 72.375 2
35.0474 74.9194 4
37.5096 72.4603 0.00589327
37.5 75 2
39.9526 74.9197 0
35.6204 6.71907 3.98877
37.5229 4.61189 3.99098
39.6237 4.71205 2
39.7885 2.47292 3.99451
41.7361 4.96516 0.00915549
42.062 2.71618 2
42.3946 0.32156 4
44.3255 3.10878 0.00571309
44.8159 0.72056 2
47.2057 1.27793 0
49.7665 41.3057 0.02335
56.8899 37.8986 0.0198383
53.2284 39.3133 0.0169331
47.6901 40.4505 2
50.718 38.4861 2
54.0819 36.6218 2
51.5051 35.5654 3.96931
48.3525 37.7611 3.99195
46.175 35.1028 3.91575
44.0156 33.7708 3.9644
42.0952 33.0279 3.96719
37.4577 8.52635 3.98709
37.5158 6.66757 2
39.442 6.79688 0.0112409
39.2109 8.68419 2
38.9758 10.1168 3.98615
35.8978 9.76378 3.98609
34.1498 8.81399 3.98679
35.9413 8.48408 2
54.9573 33.9572 0.0205251
53.5583 30.4587 0.017302
52.6385 27.1758 0.0163534
52.4017 21.0535 0.0192294
52.1711 24.0637 0.0230698
49.8214 19.5874 0.0219509
48.1154 16.9774 0.0194439
47.6824 14.5748 0.0173618
44.7233 9.98909 0.0138345
46.005 12.7209 0.0160405
41.0133 9.04212 0.0131811
42.4679 10.8949 0.014998
52.5049 32.8509 2
40.5687 11.598 2
43.8576 11.9098 2
51.4083 29.1352 2
50.8319 25.704 2
49.9514 22.1662 2
45.8033 15.41 2
47.5071 19.2104 2
50.119 31.3857 3.97278
49.3498 27.4603 3.97387
49.4338 24.3799 3.97934
47.1936 21.9128 3.97773
38.3013 12.7234 3.98352
42.1009 14.2941 3.98231
44.8025 18.4468 3.98007
45.064 37.5044 3.95405
46.5181 37.5056 2
47.9881 58.7494 0.018471
48.6046 55.9272 0.0186093
50.1987 45.2849 0.023077
49.7227 49.0679 0.0244862
49.1516 52.6155 0.0216742
46.1773 39.9065 0.0856057
46.5578 42.758 0.0189354
46.6118 45.7401 0.0177362
44.024 41.2374 0.0353997
42.1076 41.9907 0.036777
46.8407 57.3524 2
44.7976 39.4995 2
42.4804 40.8672 2
48.1679 47.2613 2
47.1803 54.2607 2
47.623 50.776 2
44.8841 47.3369 2
45.2434 42.0234 2
45.0329 44.6626 2
42.8297 42.7359 2
40.9716 42.3575 2
45.4011 55.9384 3.97993
42.8094 39.2598 3.97804
40.9137 40.8122 3.9654
46.1491 48.9399 3.97956
45.5657 52.5618 3.98432
43.5205 48.4806 3.95401
43.4113 46.2092 3.98659
43.7846 43.8254 3.91665
41.2868 43.8993 3.97039
39.3253 42.6683 3.95795
45.4686 58.7975 0.0192157
43.8759 57.7215 2
42.1066 56.3447 3.98076
35.4634 67.6659 0.0120463
37.6418 65.5203 0.0139114
39.8922 63.5637 0.0157362
41.7523 62.5027 0.0164101
42.4803 59.9911 0.0179737
35.5729 65.4431 2
40.622 61.6614 2
37.8359 63.2258 2
40.4439 58.2212 2
38.9251 56.5099 3.98067
38.2497 60.3449 3.9828
35.6066 63.219 3.98451
33.5757 65.3533 0.0139388
31.9598 63.3121 0.0154833
33.6292 63.3526 2
30.3789 62.8705 2
32.1231 62.0185 2
28.681 62.2149 3.98391
33.3457 61.5308 3.98311
31.0658 61.2346 3.98276
27.5653 59.6092 3.98202
23.7869 59.0992 3.98443
25.0323 60.8851 3.98286
26.8678 61.5128 2
26.2289 63.4893 3.9849
28.0627 64.1579 2
27.4635 66.1903 3.98743
29.8839 64.7301 0.0141919
29.4068 66.7672 2
28.9061 68.9475 3.99008
31.3771 67.2034 0.012117
31.0136 69.4227 2
30.6146 71.78 3.99402
33.1562 69.7575 0.00964462
32.892 72.1493 2
32.6054 74.6784 4
35.195 72.3748 0.00593409
35.0474 74.9197 2
37.5 75 0
33.7231 6.97364 3.98845
35.4344 4.68233 3.99088
35.6203 6.71863 2
37.5141 2.38555 3.99458
37.5229 4.61154 2
39.6237 4.71241 0.00908188
39.7885 2.47268 2
39.9526 0.0806499 4
42.062 2.71642 0.00554292
42.3947 0.320817 2
44.8158 0.721173 0
44.7946 35.5053 3.95902
42.4714 34.1472 3.97315
47.6904 40.4538 0.0107855
50.7207 38.486 0.0185982
54.083 36.622 0.0207494
48.35 37.7597 2
51.5037 35.5657 2
46.1755 35.1016 2
44.0264 33.77 2
42.102 33.026 2
48.5219 34.2495 4.00502
45.2263 32.989 3.91837
42.8077 32.2747 3.96094
40.9474 32.667 3.96436
37.3098 10.6199 3.98537
37.4576 8.52586 2
37.5159 6.66797 0.0112398
39.2109 8.68463 0.0129574
38.9758 10.1163 2
34.753 10.3694 3.98532
35.8977 9.76335 2
32.3764 9.36064 3.98613
34.1497 8.81355 2
35.9414 8.48455 0.0129357
52.5064 32.8517 0.0190731
51.4103 29.133 0.0143017
50.8323 25.702 0.0263291
49.9511 22.166 0.0210142
47.5071 19.2107 0.0207439
45.8033 15.4102 0.0178024
43.8577 11.9099 0.0156316
40.5687 11.5984 0.0155814
50.1165 31.3863 2
38.3011 12.7227 2
42.1007 14.2942 2
49.3481 27.4618 2
49.4338 24.3804 2
47.1937 21.9145 2
44.8024 18.4465 2
47.8972 29.5913 3.97025
47.1365 25.1062 3.97783
44.293 21.3013 3.97835
36.5809 12.9198 3.9835
38.6803 14.7938 3.98218
41.7507 17.8239 3.9803
42.9373 37.4958 3.98193
45.077 37.5047 2
46.5073 37.5042 0.0852429
46.8407 57.352 0.0174926
47.1802 54.2605 0.0183216
48.17 47.2638 0.0172421
47.623 50.7766 0.0219926
44.7899 39.5014 0.039431
45.2409 42.0209 0.0777256
45.0245 44.6553 0.0328475
44.886 47.3456 0.0123285
42.8188 42.7382 0.0426322
42.4787 40.8658 0.0261672
40.9616 42.3585 0.0372311
45.4013 55.9386 2
42.8107 39.2594 2
40.9141 40.8128 2
46.1488 48.9363 2
45.5661 52.561 2
43.5189 48.4801 2
43.4401 46.2199 2
43.7903 43.8294 2
41.2921 43.8928 2
39.3309 42.6732 2
43.741 54.4484 3.98567
40.9826 39.1822 3.95327
39.24 40.8716 3.92995
43.7469 50.5363 3.98995
42.0204 47.7359 4.02041
41.9322 45.2159 3.91521
39.5024 44.6601 3.97403
37.5014 42.7853 3.9624
43.8761 57.7215 0.0193599
42.1065 56.3443 2
40.4205 54.9451 3.9782
35.5729 65.4426 0.0139207
37.8359 63.2254 0.0153111
40.6221 61.6611 0.0167044
40.4438 58.221 0.0200112
35.6066 63.2194 2
38.2497 60.3452 2
38.9249 56.5113 2
37.9995 55.2634 3.97919
36.9344 57.645 3.98003
35.3632 60.9298 3.98318
33.6291 63.3522 0.0153581
30.3788 62.8701 0.0157572
32.1231 62.0181 0.0166916
33.3457 61.5312 2
28.6811 62.2153 2
31.0659 61.2348 2
29.4012 60.3035 3.98219
32.355 59.7616 3.98234
28.017 58.3883 3.98302
27.5653 59.6095 2
25.3738 58.61 3.98226
22.749 58.2593 3.98133
23.397 60.3653 3.9831
23.7868 59.0996 2
25.0323 60.8855 2
24.431 62.7814 3.98441
26.8677 61.5125 0.0169713
26.229 63.4897 2
25.5476 65.5 3.98696
28.0626 64.1576 0.0145931
27.4635 66.1907 2
26.8359 68.3357 3.98992
29.4068 66.7668 0.0123032
28.906 68.9479 2
28.3698 71.2651 3.99393
31.0136 69.4222 0.00979184
30.6145 71.7803 2
30.1842 74.2788 4
32.8921 72.149 0.00592203
32.6053 74.6792 2
35.0474 74.9194 0
31.7875 7.41326 3.98805
33.3463 4.92146 3.99071
33.723 6.97318 2
35.2444 2.46172 3.99449
35.4343 4.68194 2
35.6204 6.71907 0.0112334
37.5 0 4
37.5141 2.38531 2
37.5229 4.61189 0.00901831
39.7885 2.47292 0.00549034
39.9526 0.0802889 2
42.3946 0.32156 0
42.8129 35.7395 3.97897
44.7979 35.5079 2
40.9065 34.2113 3.96696
42.4734 34.146 2
48.3525 37.7611 0.00804927
51.5051 35.5654 0.0306921
46.175 35.1028 0.0842514
44.0156 33.7708 0.0355998
42.0952 33.0279 0.0328089
48.5206 34.2505 2
45.2317 32.9831 2
42.8176 32.2741 2
40.9543 32.6652 2
46.437 31.4943 3.98977
43.7673 31.1846 3.91898
41.2785 31.1261 3.96547
39.3083 32.3621 3.95602
35.6912 11.7644 3.98391
37.3097 10.6193 2
37.4577 8.52635 0.0129089
38.9758 10.1168 0.0138533
33.0968 11.2061 3.98441
34.7529 10.3691 2
35.8978 9.76378 0.0139111
30.4811 10.0087 3.98572
32.3764 9.36031 2
34.1498 8.81399 0.013213
50.119 31.3857 0.0272177
49.3498 27.4603 0.0261269
49.4338 24.3799 0.0206627
47.1936 21.9128 0.0222675
44.8025 18.4468 0.0199255
42.1009 14.2941 0.0176878
38.3013 12.7234 0.0164772
36.5808 12.9196 2
47.893 29.593 2
38.6801 14.7931 2
41.7503 17.824 2
47.1364 25.1073 2
44.293 21.3011 2
45.6424 27.8062 3.97384
43.8227 24.0354 3.98071
41.3443 20.7016 3.97999
35.7705 14.7447 3.98247
38.6811 17.5808 3.98058
41.0265 37.4932 3.94749
42.9413 37.4964 2
45.064 37.5044 0.0459534
45.4011 55.9384 0.0200696
45.5657 52.5618 0.0156797
46.1491 48.9399 0.02044
42.8094 39.2598 0.0219633
43.7846 43.8254 0.0833531
43.4113 46.2092 0.0134139
43.5205 48.4806 0.0459882
41.2868 43.8993 0.029613
40.9137 40.8122 0.0345994
39.3253 42.6683 0.0420516
43.7415 54.4486 2
40.9823 39.1824 2
39.2397 40.8761 2
43.7465 50.5373 2
42.0199 47.7385 2
41.9434 45.216 2
37.5027 42.7927 2
39.511 44.6641 2
41.8909 53.0135 3.98568
39.2333 39.1717 3.9318
37.5046 40.9242 3.92127
35.6819 42.6872 3.95849
40.9873 49.7577 3.9962
39.8193 46.0955 3.91845
37.4975 44.9262 3.96647
42.1066 56.3447 0.0192415
40.4203 54.945 2
38.7295 53.8723 3.9841
35.6066 63.219 0.0154908
38.2497 60.3449 0.0172016
38.9251 56.5099 0.0193338
35.3631 60.9301 2
36.9341 57.6452 2
37.9991 55.2636 2
36.3183 55.4009 3.97976
34.4866 58.5393 3.98175
33.3457 61.5308 0.0168943
28.681 62.2149 0.0160885
31.0658 61.2346 0.0172425
32.3551 59.7617 2
29.4012 60.3037 2
30.293 57.8328 3.98219
28.017 58.3885 2
26.935 56.8389 3.98071
27.5653 59.6092 0.0179765
25.3737 58.6104 2
23.8277 56.8247 3.97972
21.3237 57.4208 3.98242
21.9882 59.6393 3.98374
22.7489 58.2597 2
22.734 62.0328 3.984
23.397 60.3657 2
23.7869 59.0992 0.0155658
25.0323 60.8851 0.0171379
24.431 62.7818 2
23.6813 64.7181 3.98629
26.2289 63.4893 0.0151015
25.5476 65.5004 2
24.8084 67.5969 3.98973
27.4635 66.1903 0.0125706
26.8358 68.3361 2
26.1651 70.6059 3.99381
28.9061 68.9475 0.00991846
28.3696 71.2654 2
27.7943 73.7221 4
30.6146 71.78 0.00598219
30.1841 74.2794 2
32.6054 74.6784 0
29.8101 7.98647 3.98755
31.2515 5.32849 3.99042
31.7874 7.41286 2
32.9802 2.69981 3.99438
33.3463 4.92104 2
33.7231 6.97364 0.0115488
35.0474 0.080333 4
35.2443 2.46147 2
35.4344 4.68233 0.00912269
37.5 0 2
37.5141 2.38555 0.00542187
39.9526 0.0806499 0
40.9878 35.8164 3.95378
42.8123 35.7403 2
44.7946 35.5053 0.0409773
28.542 10.684 3.98524
39.2315 34.1581 3.93206
40.9063 34.2098 2
42.4714 34.1472 0.0268515
48.5219 34.2495 -0.00501875
45.2263 32.989 0.0816301
42.8077 32.2747 0.0390613
40.9474 32.667 0.0356398
46.4467 31.4907 2
43.7691 31.1793 2
41.2874 31.1238 2
39.314 32.3549 2
44.4528 29.6684 3.98459
41.9194 29.8099 3.92362
39.491 30.3874 3.97099
37.4806 32.2529 3.96224
34.0909 12.9224 3.9832
35.6912 11.7642 2
37.3098 10.6199 0.0146258
31.1849 11.9744 3.98426
33.0968 11.2059 2
34.753 10.3694 0.0146799
30.4811 10.0083 2
32.3764 9.36064 0.0138681
47.8972 29.5913 0.0297476
47.1365 25.1062 0.0221715
36.5809 12.9198 0.0165023
44.293 21.3013 0.0216462
41.7507 17.8239 0.0196961
38.6803 14.7938 0.0178243
35.7703 14.7452 2
45.6395 27.8104 2
38.6807 17.5803 2
41.3438 20.7015 2
43.8225 24.04 2
33.6057 15.8621 3.98249
43.1167 26.5286 3.98439
40.9268 23.2742 3.98073
38.4222 20.3096 3.98103
35.8467 17.4939 3.98118
39.2418 37.4962 3.93153
41.0272 37.4928 2
42.9373 37.4958 0.0180666
43.741 54.4484 0.0143321
43.7469 50.5363 0.0100462
40.9826 39.1822 0.0467313
41.9322 45.2159 0.084791
42.0204 47.7359 -0.0204065
39.5024 44.6601 0.025973
39.24 40.8716 0.0700494
37.5014 42.7853 0.037596
41.8912 53.0144 2
39.233 39.1736 2
37.5051 40.931 2
40.9861 49.7572 2
35.6776 42.6913 2
39.8305 46.1006 2
37.5009 44.9112 2
39.8295 51.9329 3.98938
37.5018 39.1904 3.92566
35.7718 40.8912 3.92678
34.0462 42.3757 3.96284
35.486 44.6659 3.96996
38.7733 48.7976 4.03203
37.5066 46.4081 3.91189
40.4205 54.9451 0.0217968
38.7292 53.8716 2
36.7179 53.2248 3.9845
35.3632 60.9298 0.0168188
36.9344 57.645 0.0199727
37.9995 55.2634 0.0208104
34.4865 58.5394 2
36.318 55.4004 2
33.2214 55.5205 3.98186
32.355 59.7616 0.0176618
29.4012 60.3035 0.0178141
30.2931 57.8329 2
28.674 55.3249 3.97895
28.017 58.3883 0.016976
26.9347 56.8394 2
25.2921 55.1621 3.97881
21.7905 55.3707 3.97983
25.3738 58.61 0.0177406
23.8274 56.8251 2
20.2067 57.0523 3.98389
20.6379 58.7988 3.98373
21.3234 57.4211 2
21.163 61.1839 3.98459
21.9881 59.6396 2
22.749 58.2593 0.0186651
21.8942 63.846 3.98577
22.734 62.0332 2
23.397 60.3653 0.0168996
24.431 62.7814 0.0155923
23.6813 64.7186 2
22.8368 66.7407 3.98942
25.5476 65.5 0.013039
24.8083 67.5972 2
24.0095 69.8071 3.99369
26.8359 68.3357 0.010076
26.1649 70.6061 2
25.446 73.0099 4
28.3698 71.2651 0.00606739
27.7943 73.7222 2
30.1842 74.2788 0
27.82 8.64593 3.98727
29.1535 5.87415 3.99004
29.81 7.98605 2
30.7255 3.09689 3.99418
31.2514 5.3281 2
31.7875 7.41326 0.0119543
32.6053 0.320823 4
32.9801 2.69955 2
33.3463 4.92146 0.00928777
35.0474 0.0802903 2
35.2444 2.46172 0.00550705
37.5 0 0
39.2385 35.8333 3.93179
40.9865 35.8154 2
42.8129 35.7395 0.0210318
28.542 10.6837 2
26.621 11.3795 3.985
29.2238 12.6312 3.98394
37.4945 34.1093 3.92832
39.2308 34.1525 2
40.9065 34.2113 0.0330389
46.437 31.4943 0.0102302
43.7673 31.1846 0.0810219
41.2785 31.1261 0.0345327
39.3083 32.3621 0.0439837
44.4637 29.6603 2
41.9322 29.804 2
39.4979 30.3835 2
37.4829 32.2467 2
42.3625 28.3546 3.9875
39.8177 28.9405 3.91993
37.4794 30.1273 3.96409
35.6588 32.3552 3.95796
31.9123 14.4683 3.98278
34.091 12.9224 2
35.6912 11.7644 0.0160904
31.1849 11.974 2
33.0968 11.2061 0.0155933
30.4811 10.0087 0.0142839
45.6424 27.8062 0.026163
43.8227 24.0354 0.0192916
35.7705 14.7447 0.0175311
41.3443 20.7016 0.0200057
38.6811 17.5808 0.0194238
33.6056 15.8626 2
35.8464 17.4946 2
43.1147 26.5336 2
38.4219 20.31 2
40.9268 23.2742 2
33.5476 17.3708 3.98252
40.4862 25.6201 3.99507
38.0834 22.839 3.98797
35.5822 20.0618 3.98223
37.5027 37.5056 3.9288
39.2423 37.4959 2
41.0265 37.4932 0.0525137
41.8909 53.0135 0.0143188
40.9873 49.7577 0.00380248
39.2333 39.1717 0.0682042
39.8193 46.0955 0.0815474
37.4975 44.9262 0.0335323
37.5046 40.9242 0.0787293
35.6819 42.6872 0.0415102
39.8306 51.9329 2
37.5024 39.1938 2
35.7729 40.8955 2
38.7684 48.805 2
34.0383 42.3766 2
35.4849 44.6651 2
37.5026 46.4205 2
37.6685 51.0059 3.97967
35.775 39.1942 3.92821
34.1045 40.8343 3.96444
32.8987 42.0111 3.9674
33.702 43.9213 3.96501
35.1811 46.1077 3.9201
36.9014 48.4237 4.02028
38.7295 53.8723 0.0158978
36.7174 53.2239 2
34.3492 52.4909 3.98224
34.4866 58.5393 0.0182498
36.3183 55.4009 0.0202411
33.2213 55.52 2
30.4993 53.4199 3.9802
30.293 57.8328 0.0178062
28.6736 55.3251 2
26.8551 53.4637 3.97748
26.935 56.8389 0.0192921
25.2917 55.1625 2
23.5442 53.5078 3.97718
20.4384 53.2559 3.97838
19.9161 55.8572 3.98293
21.7899 55.371 2
23.8277 56.8247 0.0202779
19.4287 57.9128 3.98355
20.2064 57.0525 2
19.7013 60.219 3.98421
20.6377 58.7991 2
21.3237 57.4208 0.0175761
20.2057 62.8679 3.98571
21.163 61.1842 2
21.9882 59.6393 0.0162636
20.9382 65.7699 3.98896
21.8942 63.8464 2
22.734 62.0328 0.0160022
23.6813 64.7181 0.0137123
22.8367 66.741 2
21.9121 68.8743 3.99354
24.8084 67.5969 0.010268
24.0093 69.8073 2
23.1494 72.1454 4
26.1651 70.6059 0.0061851
25.446 73.0099 2
27.7943 73.7221 0
25.8594 9.37411 3.98671
27.0684 6.53808 3.98974
27.82 8.6456 2
28.4877 3.64273 3.99395
29.1534 5.87377 2
29.8101 7.98647 0.0124495
30.1841 0.720592 4
30.7254 3.09666 2
31.2515 5.32849 0.00957616
32.6053 0.320817 2
32.9802 2.69981 0.00562433
35.0474 0.080333 0
37.5039 35.8271 3.92686
39.2373 35.8304 2
40.9878 35.8164 0.0462199
24.7757 12.0625 3.98471
23.7492 14.3471 3.98346
28.542 10.684 0.0147598
26.621 11.3793 2
29.2238 12.6311 2
27.2898 13.3643 3.98387
29.7783 14.1904 3.98323
35.7627 34.1473 3.93209
37.4945 34.1037 2
39.2315 34.1581 0.0679369
37.4806 32.2529 0.037758
44.4528 29.6684 0.0154102
41.9194 29.8099 0.0763828
39.491 30.3874 0.0290086
42.3703 28.3436 2
39.8296 28.9353 2
37.4806 30.1348 2
35.6574 32.3486 2
40.0442 27.5352 3.99753
37.4882 28.6369 3.91532
35.4635 30.3851 3.96548
34.0279 32.6611 3.96145
30.9233 16.8259 3.98229
31.9124 14.4682 2
34.0909 12.9224 0.016797
31.1849 11.9744 0.0157423
43.1167 26.5286 0.0156131
40.9268 23.2742 0.0192712
33.6057 15.8621 0.0175063
35.8467 17.4939 0.0188153
38.4222 20.3096 0.0189692
33.5473 17.3717 2
35.5821 20.0625 2
40.4832 25.6272 2
38.0835 22.8414 2
32.8595 19.7783 3.98074
37.7878 25.1342 4.00984
35.2034 22.621 3.9778
35.7666 37.5149 3.92852
37.504 37.5059 2
39.2418 37.4962 0.0684676
39.8295 51.9329 0.0106151
38.7733 48.7976 -0.0320253
37.5018 39.1904 0.0743398
37.5066 46.4081 0.0881131
35.486 44.6659 0.0300431
35.7718 40.8912 0.0732233
34.0462 42.3757 0.0371578
37.6696 51.0159 2
35.7764 39.196 2
34.105 40.8352 2
36.8978 48.4297 2
32.8922 42.0129 2
33.6986 43.919 2
35.1688 46.1114 2
35.4204 50.1584 3.98209
34.0333 39.2093 3.94913
32.5307 40.8878 3.97357
32.1787 42.759 3.96006
33.0771 45.2357 3.91917
34.2819 47.5276 3.99644
36.7179 53.2248 0.0155007
34.3489 52.4913 2
31.9658 51.2134 3.97908
33.2214 55.5205 0.018141
30.499 53.422 2
28.3904 51.6447 3.97852
28.674 55.3249 0.0210515
26.8546 53.4649 2
25.0382 51.7976 3.97439
25.2921 55.1621 0.021186
23.5436 53.5081 2
21.9251 51.8434 3.97641
19.1651 51.6671 3.97829
18.899 54.3358 3.98054
20.438 53.2556 2
18.4345 56.7463 3.98409
19.9156 55.8573 2
21.7905 55.3707 0.0201707
18.3619 59.1283 3.98374
19.4285 57.913 2
20.2067 57.0523 0.0161052
18.6156 61.7768 3.98541
19.7013 60.2193 2
20.6379 58.7988 0.0162704
19.1268 64.6811 3.9885
20.2058 62.8683 2
21.163 61.1839 0.0154129
19.8862 67.8111 3.99325
20.9382 65.7702 2
21.8942 63.846 0.0142291
22.8368 66.7407 0.0105803
21.9119 68.8745 2
20.9142 71.1327 4
24.0095 69.8071 0.0063092
23.1494 72.1455 2
25.446 73.0099 0
23.0949 12.7772 3.98436
23.972 10.1606 3.98631
25.0224 7.30808 3.98943
25.8593 9.37381 2
26.2795 4.32686 3.99369
27.0683 6.53775 2
27.82 8.64593 0.0127293
27.7943 1.27781 4
28.4876 3.64253 2
29.1535 5.87415 0.00995605
30.1841 0.720551 2
30.7255 3.09689 0.00582292
32.6053 0.320823 0
35.772 35.8381 3.9296
37.5036 35.8246 2
39.2385 35.8333 0.0682113
24.7758 12.0624 2
23.7493 14.3471 2
22.4772 15.0235 3.98337
25.3557 13.8964 3.98364
24.0216 15.609 3.98302
26.621 11.3795 0.0149993
29.2238 12.6312 0.0160642
27.2899 13.3642 2
29.7784 14.1903 2
28.3539 15.9649 3.98281
34.0999 34.2069 3.96435
35.7634 34.1422 2
37.4945 34.1093 0.0716804
35.6588 32.3552 0.0420405
37.4794 30.1273 0.035913
42.3625 28.3546 0.0124962
39.8177 28.9405 0.0800696
40.0459 27.5342 2
37.4877 28.6243 2
35.46 30.3818 2
34.0269 32.6584 2
37.6188 27.2331 3.99992
35.1417 28.9342 3.91949
33.6778 31.124 3.96793
32.886 33.031 3.96937
30.2027 19.3293 3.98327
30.9232 16.8259 2
31.9123 14.4683 0.0172217
40.4862 25.6201 0.00492866
38.0834 22.839 0.0120292
33.5476 17.3708 0.0174797
35.5822 20.0618 0.0177742
32.8592 19.78 2
35.2039 22.6213 2
37.7873 25.1408 2
32.3041 22.3941 3.98052
34.937 25.1521 3.98743
33.9883 37.5194 3.94504
35.7686 37.5144 2
37.5027 37.5056 0.0711963
37.6685 51.0059 0.0203279
36.9014 48.4237 -0.0202793
35.775 39.1942 0.0717895
35.1811 46.1077 0.0799037
33.702 43.9213 0.0349872
34.1045 40.8343 0.0355575
32.8987 42.0111 0.0325952
35.4205 50.1649 2
34.0348 39.2096 2
32.5292 40.8878 2
34.275 47.5379 2
32.1698 42.7551 2
33.0649 45.2405 2
33.176 49.1385 3.98389
32.1965 39.287 3.97856
30.9767 41.257 3.96454
31.2207 43.8442 3.91979
32.2191 46.4661 3.97835
34.3492 52.4909 0.017762
31.9654 51.217 2
29.7924 49.7386 3.97643
30.4993 53.4199 0.0197956
28.3899 51.6433 2
26.4469 50.0345 3.97371
26.8551 53.4637 0.0225199
25.0375 51.7964 2
23.2865 50.238 3.97829
23.5442 53.5078 0.0228195
21.9247 51.8427 2
20.4195 50.3508 3.97842
17.951 50.3592 3.98024
17.806 52.8197 3.97977
19.1651 51.6665 2
17.4201 55.364 3.98245
18.8987 54.3357 2
20.4384 53.2559 0.02162
17.126 57.892 3.98451
18.4341 56.7465 2
19.9161 55.8572 0.0170652
17.132 60.5616 3.98489
18.3618 59.1285 2
19.4287 57.9128 0.0164466
17.4065 63.4746 3.98811
18.6156 61.777 2
19.7013 60.219 0.0157871
17.9423 66.6198 3.993
19.1267 64.6814 2
20.2057 62.8679 0.0142886
18.75 69.9759 4
19.886 67.8112 2
20.9382 65.7699 0.0110443
21.9121 68.8743 0.00645699
20.9142 71.1327 2
23.1494 72.1454 0
21.5853 13.5973 3.98408
22.1899 11.0198 3.98576
23.095 12.7772 2
23.0406 8.17328 3.98923
23.972 10.1604 2
24.1172 5.14146 3.9935
25.0223 7.30778 2
25.8594 9.37411 0.0132887
25.446 1.99014 4
26.2793 4.32671 2
27.0684 6.53808 0.0102563
27.7943 1.27778 2
28.4877 3.64273 0.00605266
30.1841 0.720592 0
34.0287 35.83 3.95077
35.7724 35.8353 2
37.5039 35.8271 0.0731352
21.3016 15.8188 3.98335
24.7757 12.0625 0.0152884
23.7492 14.3471 0.0165433
25.3558 13.8965 2
22.4775 15.0237 2
24.0218 15.6092 2
23.2602 16.2403 3.98284
25.3769 16.0769 3.98314
27.2898 13.3643 0.0161294
29.7783 14.1904 0.0167667
28.354 15.9651 2
27.4342 18.7871 3.98304
32.5355 34.1557 3.97444
34.0997 34.2053 2
35.7627 34.1473 0.0679138
34.0279 32.6611 0.0385474
35.4635 30.3851 0.0345229
37.4882 28.6369 0.0846758
40.0442 27.5352 0.00247395
37.616 27.2049 2
32.8853 33.0319 2
35.1266 28.9272 2
33.6706 31.1198 2
35.0449 27.3412 4.00162
33.0315 29.8112 3.92405
32.1612 32.2782 3.96414
29.5643 21.9247 3.98746
30.203 19.3302 2
30.9233 16.8259 0.0177146
37.7878 25.1342 -0.00984283
35.2034 22.621 0.0221994
32.8595 19.7783 0.0192607
32.3046 22.3969 2
34.939 25.162 2
31.6282 25.6106 3.98478
32.0717 37.5227 3.98045
33.9903 37.5189 2
35.7666 37.5149 0.0714788
35.4204 50.1584 0.0179107
34.2819 47.5276 0.00356015
34.0333 39.2093 0.0508746
33.0771 45.2357 0.0808317
32.1787 42.759 0.0399384
32.5307 40.8878 0.0264307
33.1766 49.126 2
32.1962 39.2866 2
30.967 41.2558 2
32.2028 46.477 2
31.2148 43.847 2
31.0446 47.8929 3.98221
30.2056 39.517 3.9587
29.7639 42.0347 3.91847
30.3249 45.0446 3.98003
31.9658 51.2134 0.0209214
29.7925 49.7365 2
27.7824 48.2212 3.97672
28.3904 51.6447 0.0214833
26.4466 50.0327 2
24.5738 48.5154 3.97889
25.0382 51.7976 0.0256146
23.2863 50.2369 2
21.5909 48.83 3.98062
21.9251 51.8434 0.023594
20.4197 50.3496 2
18.9869 49.1238 3.98222
16.8583 49.3571 3.98273
16.7444 51.433 3.98041
17.9513 50.3586 2
16.369 53.894 3.98137
17.8059 52.8193 2
19.1651 51.6671 0.0217064
15.9653 56.4947 3.98387
17.4197 55.364 2
18.899 54.3358 0.0194604
15.7443 59.2237 3.98507
17.1257 57.8922 2
18.4345 56.7463 0.0159052
15.7863 62.1461 3.98754
17.1319 60.562 2
18.3619 59.1283 0.016258
16.0887 65.3026 3.99286
17.4065 63.475 2
18.6156 61.7768 0.0145881
16.6661 68.6801 4
17.9422 66.6199 2
19.1268 64.6811 0.0114987
18.75 69.9759 2
19.8862 67.8111 0.0067475
20.9142 71.1327 0
20.2166 14.5858 3.98382
21.5854 13.5974 2
20.529 11.9896 3.98531
21.1437 9.14274 3.98895
22.19 11.0196 2
23.0949 12.7772 0.0156408
22.0163 6.08036 3.99333
23.0405 8.17302 2
23.972 10.1606 0.0136889
23.1494 2.85457 4
24.117 5.14135 2
25.0224 7.30808 0.0105657
25.446 1.99012 2
26.2795 4.32686 0.00630862
27.7943 1.27781 0
32.2017 35.7565 3.97697
34.0292 35.8291 2
35.772 35.8381 0.070396
21.3018 15.8189 2
20.2975 16.9512 3.98424
22.0928 16.6241 3.98302
25.3557 13.8964 0.0163635
22.4772 15.0235 0.0166332
24.0216 15.609 0.0169838
25.3771 16.0773 2
23.2605 16.2406 2
24.1982 18.4391 3.98186
27.0002 21.4467 3.98134
28.3539 15.9649 0.0171872
27.4346 18.7878 2
30.9832 33.785 3.96063
32.532 34.157 2
34.0999 34.2069 0.0356463
32.886 33.031 0.0306307
33.6778 31.124 0.0320703
35.1417 28.9342 0.0805103
37.6188 27.2331 8.2471e-05
35.0349 27.3308 2
32.1627 32.2819 2
33.0297 29.8047 2
32.4627 28.06 4.00658
31.1864 31.2007 3.92453
28.7485 24.3892 3.98677
29.5648 21.927 2
30.2027 19.3293 0.0167327
34.937 25.1521 0.0125712
32.3041 22.3941 0.0194834
31.6292 25.6019 2
29.5552 27.2987 3.98078
29.9366 37.5216 3.95576
32.0722 37.5225 2
33.9883 37.5194 0.0549646
33.176 49.1385 0.0161149
32.2191 46.4661 0.0216546
32.1965 39.287 0.0214392
31.2207 43.8442 0.0802078
30.9767 41.257 0.0354576
31.0478 47.8849 2
30.2003 39.517 2
29.759 42.0386 2
30.3105 45.0522 2
29.0513 46.4612 3.97563
28.8214 39.9167 3.91392
28.5144 43.2612 3.98852
29.7924 49.7386 0.0235747
27.7829 48.2181 2
25.8379 46.6982 3.97853
26.4469 50.0345 0.0262903
24.5741 48.5138 2
22.7213 47.1252 3.98693
23.2865 50.238 0.0217149
21.5915 48.8283 2
19.9276 47.6527 3.98532
20.4195 50.3508 0.0215785
18.9874 49.1228 2
17.6301 48.2052 3.9842
16.11 48.7065 3.98431
16.8587 49.3567 2
15.8215 50.1935 3.9819
15.3567 52.4375 3.9812
16.7445 51.4326 2
17.951 50.3592 0.0197603
14.8548 54.9961 3.98274
16.3688 53.8939 2
17.806 52.8197 0.0202314
14.4523 57.7534 3.98492
15.965 56.4949 2
17.4201 55.364 0.0175479
14.2638 60.7013 3.98703
15.7442 59.2241 2
17.126 57.892 0.0154851
14.3327 63.8621 3.99266
15.7863 62.1466 2
17.132 60.5616 0.015105
14.6715 67.2507 4
16.0886 65.3027 2
17.4065 63.4746 0.0118897
16.6661 68.6801 2
17.9423 66.6198 0.0070006
18.75 69.9759 0
18.9292 15.7715 3.98411
20.2168 14.5858 2
18.9782 13.1002 3.98496
21.5853 13.5973 0.0159235
20.5291 11.9896 2
19.3431 10.2305 3.98841
19.991 7.1449 3.99324
21.1437 9.14255 2
22.1899 11.0198 0.0142387
20.9142 3.86727 4
22.0161 6.08031 2
23.0406 8.17328 0.0107723
23.1494 2.85451 2
24.1172 5.14146 0.00650084
25.446 1.99014 0
30.2188 35.5295 3.96203
32.1996 35.7564 2
34.0287 35.83 0.0492285
21.3016 15.8188 0.0166456
22.0931 16.6243 2
20.2977 16.9513 2
19.235 18.3965 3.98398
21.7759 17.8389 3.98334
25.3769 16.0769 0.0168573
23.2602 16.2403 0.0171639
24.1988 18.4399 2
22.2668 19.879 3.98258
24.576 21.3091 3.98267
26.3768 23.7121 3.98287
27.0016 21.4483 2
27.4342 18.7871 0.0169624
29.7604 33.005 3.92198
30.9731 33.7829 2
32.5355 34.1557 0.0255627
32.1612 32.2782 0.0358614
33.0315 29.8112 0.0759535
35.0449 27.3412 -0.00161519
32.4482 28.0565 2
31.1951 31.2056 2
29.998 29.4989 3.99993
27.7993 26.5384 3.96953
28.7491 24.3956 2
29.5643 21.9247 0.0125447
31.6282 25.6106 0.0152177
29.548 27.2478 2
28.4915 37.5181 3.91867
29.9312 37.523 2
32.0717 37.5227 0.0195521
31.0446 47.8929 0.0177854
30.3249 45.0446 0.0199706
30.2056 39.517 0.0413044
29.7639 42.0347 0.0815263
29.0551 46.46 2
28.8175 39.9169 2
28.5047 43.2645 2
27.1225 44.817 3.96729
26.6012 40.6591 4.00652
27.7824 48.2212 0.0232774
25.8395 46.6965 2
23.8659 45.2559 3.98124
24.5738 48.5154 0.0211141
22.7224 47.1228 2
20.8523 45.9353 3.98661
21.5909 48.83 0.019377
19.9284 47.6516 2
18.2721 46.7655 3.98565
18.9869 49.1238 0.0177796
17.6306 48.2047 2
16.2985 47.7363 3.98406
16.1103 48.7062 2
15.1676 49.0365 3.98307
16.8583 49.3571 0.0172671
15.8217 50.1931 2
14.4697 51.0043 3.98171
13.8154 53.4515 3.98216
15.3567 52.4373 2
16.7444 51.433 0.0195861
13.2461 56.1813 3.98419
14.8546 54.9961 2
16.369 53.894 0.0186339
12.8456 59.1352 3.9868
14.4522 57.7537 2
15.9653 56.4947 0.0161264
12.6779 62.3048 3.9922
14.2638 60.7017 2
15.7443 59.2237 0.0149323
12.7746 65.6939 4
14.3326 63.8622 2
15.7863 62.1461 0.0124606
14.6714 67.2507 2
16.0887 65.3026 0.00713533
16.6661 68.6801 0
17.6623 17.1456 3.9841
18.9294 15.7714 2
17.5088 14.3633 3.98496
20.2166 14.5858 0.0161808
18.9784 13.1001 2
17.6385 11.4491 3.98773
20.529 11.9896 0.0146898
19.3432 10.2303 2
18.0512 8.33767 3.99298
18.75 5.0241 4
19.9907 7.14491 2
21.1437 9.14274 0.0110483
20.9142 3.86727 2
22.0163 6.08036 0.00666697
23.1494 2.85457 0
28.827 35.1221 3.92038
30.2131 35.5326 2
32.2017 35.7565 0.0230311
22.0928 16.6241 0.0169785
20.2975 16.9512 0.015761
21.7763 17.8389 2
19.2352 18.3965 2
17.9682 19.9269 3.98387
20.8663 19.3648 3.98377
24.1982 18.4391 0.0181368
22.2676 19.8788 2
24.5774 21.3104 2
22.3387 21.7026 3.9835
24.6625 23.1544 3.98284
25.3912 25.9406 3.97427
26.3783 23.7128 2
27.0002 21.4467 0.0186587
28.1519 32.2727 3.98411
29.7556 33.0047 2
30.9832 33.785 0.0393683
31.1864 31.2007 0.075475
32.4627 28.06 -0.00657816
29.9709 29.4986 2
26.8949 29.1365 3.97548
27.7942 26.5384 2
28.7485 24.3892 0.0132296
29.5552 27.2987 0.0192233
26.7207 37.3678 3.98926
28.4881 37.5165 2
29.9366 37.5216 0.0442379
29.0513 46.4612 0.0243665
28.5144 43.2612 0.0114824
28.8214 39.9167 0.0860752
27.1277 44.8162 2
26.6022 40.6605 2
25.0876 43.2097 3.97287
23.848 39.4407 3.96761
25.8379 46.6982 0.0214723
23.8676 45.2556 2
21.8223 43.988 3.98397
22.7213 47.1252 0.013072
20.8537 45.9344 2
18.9284 44.9984 3.98289
19.9276 47.6527 0.0146764
18.2729 46.7653 2
16.5865 46.2348 3.98257
17.6301 48.2052 0.0158023
16.2989 47.7361 2
14.8961 47.6897 3.98276
16.11 48.7065 0.0156941
15.1679 49.0363 2
13.7671 49.5635 3.9822
15.8215 50.1935 0.0181021
14.4698 51.0042 2
12.8815 51.889 3.98204
12.1327 54.5392 3.98353
13.8152 53.4515 2
15.3567 52.4375 0.0188016
11.5295 57.4673 3.98631
13.2459 56.1815 2
14.8548 54.9961 0.0172628
11.1324 60.6313 3.99179
12.8455 59.1355 2
14.4523 57.7534 0.0150818
10.9835 64.0165 4
12.6778 62.3049 2
14.2638 60.7013 0.0129657
12.7745 65.694 2
14.3327 63.8621 0.00733981
14.6715 67.2507 0
16.3931 18.6381 3.98426
17.6625 17.1455 2
16.0989 15.7714 3.98498
18.9292 15.7715 0.0158866
17.509 14.3631 2
16.0197 12.802 3.9872
18.9782 13.1002 0.015042
17.6386 11.4489 2
16.2023 9.66063 3.99267
19.3431 10.2305 0.0115913
18.051 8.33772 2
16.6661 6.31991 4
18.75 5.02404 2
19.991 7.1449 0.00676367
20.9142 3.86727 0
27.2263 34.742 3.98083
28.8217 35.121 2
30.2188 35.5295 0.0379666
16.6654 21.3606 3.98234
21.7759 17.8389 0.016665
19.235 18.3965 0.0160182
20.8668 19.3646 2
17.9686 19.9269 2
19.7066 21.5556 3.98542
22.2668 19.879 0.0174175
24.576 21.3091 0.0173317
22.3399 21.7017 2
24.6632 23.155 2
22.802 24.5868 3.9783
24.446 28.5169 3.97363
25.3883 25.9394 2
26.3768 23.7121 0.0171333
25.9892 31.7107 3.97937
28.1431 32.2699 2
29.7604 33.005 0.0780153
29.998 29.4989 7.4144e-05
26.9004 29.1387 2
27.7993 26.5384 0.0304673
24.5349 36.873 3.97924
26.7216 37.3716 2
28.4915 37.5181 0.0813287
27.1225 44.817 0.03271
26.6012 40.6591 -0.00651593
25.0892 43.2106 2
23.8491 39.4415 2
22.8672 41.8265 3.97909
21.605 38.507 3.97797
23.8659 45.2559 0.0187623
21.8238 43.989 2
19.6747 42.9122 3.97937
20.8523 45.9353 0.013389
18.9296 44.9986 2
16.9128 44.4003 3.98013
18.2721 46.7655 0.0143499
16.5871 46.2347 2
14.8156 46.1084 3.98097
16.2985 47.7363 0.0159402
14.8964 47.6896 2
13.2734 48.0243 3.98172
15.1676 49.0365 0.0169258
13.7672 49.5634 2
12.1001 50.2659 3.98204
14.4697 51.0043 0.0182914
12.8815 51.889 2
11.1278 52.8469 3.98307
10.3194 55.7186 3.98572
12.1325 54.5393 2
13.8154 53.4515 0.0178412
9.69894 58.8542 3.99104
11.5293 57.4675 2
13.2461 56.1813 0.0158143
9.30605 62.2254 4
11.1323 60.6314 2
12.8456 59.1352 0.0131974
10.9835 64.0165 2
12.6779 62.3048 0.00779692
12.7746 65.6939 0
15.1359 20.1711 3.98335
16.3934 18.638 2
14.7436 17.2932 3.98467
17.6623 17.1456 0.0159046
16.0991 15.7711 2
14.4816 14.283 3.98687
17.5088 14.3633 0.0150438
16.0198 12.8017 2
14.4448 11.1116 3.99239
17.6385 11.4491 0.0122733
16.2021 9.66064 2
14.6715 7.74927 4
18.0512 8.33767 0.00701987
16.6661 6.31988 2
18.75 5.0241 0
25.1718 34.2785 3.98499
27.2258 34.7443 2
28.827 35.1221 0.0796215
17.8349 22.3054 3.986
15.5077 22.9035 3.98098
16.6656 21.3604 2
20.8663 19.3648 0.0162259
17.9682 19.9269 0.0161274
19.7073 21.5552 2
19.6281 24.361 3.98142
22.3387 21.7026 0.0165042
24.6625 23.1544 0.017161
22.8003 24.5852 2
21.8342 27.8076 3.97504
23.6123 31.1784 3.97328
24.4489 28.5202 2
25.3912 25.9406 0.0257298
25.9922 31.7078 2
28.1519 32.2727 0.0158875
26.8949 29.1365 0.0245247
22.3154 36.2712 3.98339
24.5366 36.8737 2
26.7207 37.3678 0.0107392
25.0876 43.2097 0.0271303
23.848 39.4407 0.032388
22.8679 41.827 2
21.6058 38.5069 2
20.5915 40.6455 3.97824
19.9702 37.7851 3.981
21.8223 43.988 0.0160333
19.6757 42.9124 2
17.3044 42.1167 3.97839
18.9284 44.9984 0.0171101
16.9137 44.4005 2
14.8154 44.2161 3.97873
16.5865 46.2348 0.0174271
14.8161 46.1084 2
12.945 46.3094 3.98009
14.8961 47.6897 0.017238
13.2736 48.0243 2
11.4712 48.5613 3.98148
13.7671 49.5635 0.0177998
12.1002 50.2659 2
10.2533 51.089 3.98271
12.8815 51.889 0.017958
11.1277 52.8469 2
9.22797 53.8956 3.98523
8.38247 56.9869 3.99007
10.3193 55.7187 2
12.1327 54.5392 0.0164686
7.74927 60.3285 4
9.69884 58.8543 2
11.5295 57.4673 0.0136886
9.306 62.2255 2
11.1324 60.6313 0.00820846
10.9835 64.0165 0
13.9463 21.7372 3.98241
15.1361 20.1709 2
13.4431 18.8894 3.98428
16.3931 18.6381 0.0157435
14.7438 17.2929 2
13.0264 15.8751 3.98652
16.0989 15.7714 0.015019
14.4817 14.2827 2
12.7819 12.6846 3.99208
16.0197 12.802 0.0127972
14.4447 11.1116 2
12.7746 9.30605 4
16.2023 9.66063 0.00732952
14.6715 7.74924 2
16.6661 6.31991 0
22.9079 33.7931 3.98346
25.1717 34.2785 2
27.2263 34.742 0.0191745
17.5981 24.0241 3.98227
17.835 22.3049 2
14.2885 24.4358 3.97966
15.5072 22.9028 2
16.6654 21.3606 0.0176565
18.9771 27.1838 3.97462
19.7066 21.5556 0.0145796
19.6269 24.3611 2
21.0654 30.6488 3.97578
22.802 24.5868 0.0217043
21.8362 27.8086 2
23.6136 31.1791 2
24.446 28.5169 0.0263653
25.9892 31.7107 0.020626
20.0847 35.918 3.98295
22.3165 36.2717 2
24.5349 36.873 0.0207582
22.8672 41.8265 0.0209109
21.605 38.507 0.022029
20.5922 40.6453 2
19.9708 37.7852 2
17.9708 39.0083 3.97935
19.6747 42.9122 0.0206331
17.3052 42.117 2
14.7604 41.9301 3.97793
16.9128 44.4003 0.0198744
14.8161 44.2162 2
12.6843 44.4036 3.97856
14.8156 46.1084 0.0190262
12.9454 46.3095 2
10.9729 46.7434 3.98014
13.2734 48.0243 0.0182828
11.4713 48.5614 2
9.51648 49.2474 3.98209
12.1001 50.2659 0.017958
10.2533 51.0891 2
8.2608 52.0072 3.98476
11.1278 52.8469 0.0169263
9.22784 53.8957 2
7.19136 55.0365 3.98929
6.31991 58.3339 4
8.38234 56.9869 2
10.3194 55.7186 0.0142849
7.74924 60.3285 2
9.69894 58.8542 0.00896028
9.30605 62.2254 0
13.2094 25.3506 3.98333
12.8122 23.267 3.98145
13.9461 21.7365 2
12.2273 20.5382 3.98389
15.1359 20.1711 0.0166507
13.4433 18.8891 2
11.6555 17.5558 3.98635
14.7436 17.2932 0.0153294
13.0265 15.8749 2
11.2191 14.3692 3.99161
14.4816 14.283 0.01313
12.7819 12.6846 2
10.9835 10.9835 4
14.4448 11.1116 0.00760581
12.7745 9.306 2
14.6715 7.74927 0
20.4735 33.3835 3.98054
22.9082 33.7929 2
25.1718 34.2785 0.0150124
15.8676 26.3859 3.9776
17.5973 24.0236 2
17.8349 22.3054 0.0139968
14.2885 24.436 2
15.5077 22.9035 0.0190246
18.313 30.158 3.97517
18.9786 27.1845 2
19.6281 24.361 0.0185791
21.0664 30.6488 2
21.8342 27.8076 0.0249594
23.6123 31.1784 0.0267221
17.5928 35.9615 3.98186
20.0857 35.9182 2
22.3154 36.2712 0.0166131
20.5915 40.6455 0.0217555
19.9702 37.7851 0.0189983
17.9712 39.0084 2
14.2635 39.1825 3.97946
17.3044 42.1167 0.0216142
14.761 41.9303 2
12.3702 42.286 3.97843
14.8154 44.2161 0.0212723
12.6848 44.4038 2
10.5496 44.8107 3.97916
12.945 46.3094 0.0199126
10.9731 46.7436 2
8.89911 47.3251 3.98099
11.4712 48.5613 0.0185154
9.51648 49.2475 2
7.42777 50.0392 3.98406
10.2533 51.089 0.0172923
8.26069 52.0073 2
6.1318 53.0101 3.98879
9.22797 53.8956 0.0147733
7.1912 55.0364 2
5.0241 56.25 4
6.31988 58.3339 2
8.38247 56.9869 0.00992928
7.74927 60.3285 0
13.4442 26.8029 3.97885
11.9254 24.7775 3.98075
13.2096 25.3505 2
11.1295 22.2238 3.98301
12.8121 23.2668 2
13.9463 21.7372 0.0175852
12.2272 20.5377 2
10.385 19.3108 3.98618
13.4431 18.8894 0.0157163
11.6556 17.5555 2
9.75989 16.1521 3.99102
13.0264 15.8751 0.0134765
11.2191 14.3691 2
9.30607 12.7746 4
12.7819 12.6846 0.00792339
10.9835 10.9835 2
12.7746 9.30605 0
17.7762 33.1018 3.97841
20.4738 33.3835 2
22.9079 33.7931 0.0165421
15.4526 29.6254 3.9768
15.8685 26.3864 2
17.5981 24.0241 0.0177258
14.2885 24.4358 0.0203418
18.3136 30.158 2
18.9771 27.1838 0.0253813
21.0654 30.6488 0.0242218
14.8546 36.0174 3.98021
17.5936 35.9617 2
20.0847 35.918 0.017054
12.5636 37.8323 3.97908
17.9708 39.0083 0.0206481
14.2638 39.1827 2
11.8824 40.1477 3.97946
14.7604 41.9301 0.022073
12.3706 42.2862 2
10.1483 42.7847 3.97874
12.6843 44.4036 0.0214439
10.55 44.8109 2
8.37705 45.326 3.98025
10.9729 46.7434 0.0198576
8.89919 47.3253 2
6.71929 48.0033 3.98308
9.51648 49.2474 0.0179092
7.42769 50.0393 2
5.20845 50.912 3.98845
8.2608 52.0072 0.0152398
6.13162 53.0098 2
3.86727 54.0858 4
7.19136 55.0365 0.0107069
5.02404 56.25 2
6.31991 58.3339 0
12.8986 29.0245 3.9762
11.3548 26.4792 3.97987
13.4447 26.8027 2
10.1887 23.9596 3.98167
11.9255 24.7773 2
13.2094 25.3506 0.016671
9.23671 21.1308 3.9854
11.1294 22.2235 2
12.8122 23.267 0.0185524
12.2273 20.5382 0.0161131
10.3849 19.3103 2
8.41563 18.0231 3.99032
11.6555 17.5558 0.013649
9.7599 16.152 2
7.74928 14.6715 4
11.2191 14.3692 0.00839355
9.30602 12.7745 2
10.9835 10.9835 0
14.4433 32.8555 3.97822
17.7766 33.1019 2
20.4735 33.3835 0.0194617
15.453 29.6253 2
15.8676 26.3859 0.0224043
18.313 30.158 0.0248284
12.8513 36.2089 3.97868
14.8552 36.0175 2
17.5928 35.9615 0.0181414
12.564 37.8323 2
11.2409 38.3137 3.97856
14.2635 39.1825 0.0205356
11.8827 40.1479 2
9.73346 40.7596 3.97934
12.3702 42.286 0.0215747
10.1486 42.7849 2
7.9261 43.274 3.97984
10.5496 44.8107 0.0208412
8.37726 45.3261 2
6.12563 45.9076 3.98243
8.89911 47.3251 0.0190085
6.71926 48.0033 2
4.42003 48.7517 3.98824
7.42777 50.0392 0.0159391
5.20827 50.9114 2
2.85457 51.8506 4
6.1318 53.0101 0.0112148
3.86727 54.0858 2
5.0241 56.25 0
12.0392 31.2503 3.9785
10.7672 28.4087 3.9782
12.8989 29.0241 2
9.40353 25.792 3.98087
11.3552 26.479 2
13.4442 26.8029 0.0211452
8.22389 23.0179 3.98403
10.1886 23.9593 2
11.9254 24.7775 0.0192456
7.19758 19.9737 3.98946
9.23661 21.1304 2
11.1295 22.2238 0.0169934
10.385 19.3108 0.0138185
8.41553 18.0229 2
6.31992 16.6661 4
9.75989 16.1521 0.00898301
7.74926 14.6714 2
9.30607 12.7746 0
12.0562 34.2918 3.97803
14.4436 32.8555 2
17.7762 33.1018 0.0215895
15.4526 29.6254 0.0231962
10.8058 36.6119 3.97789
12.8518 36.2089 2
14.8546 36.0174 0.0197879
12.5636 37.8323 0.0209177
11.2412 38.3138 2
9.329 38.8271 3.97907
11.8824 40.1477 0.0205421
9.7337 40.7599 2
7.53753 41.2145 3.97989
10.1483 42.7847 0.0212613
7.9263 43.2742 2
5.63764 43.7699 3.98238
8.37705 45.326 0.019753
6.12573 45.9075 2
3.76579 46.537 3.98817
6.71929 48.0033 0.0169221
4.41988 48.7509 2
1.99014 49.554 4
5.20845 50.912 0.011546
2.85451 51.8506 2
3.86727 54.0858 0
10.9031 32.9153 3.97901
10.0803 30.3774 3.97869
12.0395 31.25 2
8.71177 27.7276 3.9799
10.7674 28.4083 2
12.8986 29.0245 0.0238027
7.34946 24.9788 3.9832
9.40369 25.7918 2
11.3548 26.4792 0.0201287
6.11443 21.9989 3.98846
8.2238 23.0176 2
10.1887 23.9596 0.0183326
5.02411 18.75 4
7.19742 19.9738 2
9.23671 21.1308 0.0145999
8.41563 18.0231 0.009678
6.3199 16.6661 2
7.74928 14.6715 0
10.4179 34.9989 3.97868
12.0566 34.2918 2
14.4433 32.8555 0.0217841
9.00298 36.9864 3.97777
10.8062 36.6119 2
12.8513 36.2089 0.021319
11.2409 38.3137 0.0214405
9.32929 38.8272 2
7.21874 39.1842 3.97979
9.73346 40.7596 0.0206603
7.53773 41.2147 2
5.25323 41.6152 3.98218
7.9261 43.274 0.0201618
5.63775 43.7698 2
3.24362 44.282 3.98819
6.12563 45.9076 0.0175715
3.76573 46.5361 2
1.27781 47.2057 4
4.42003 48.7517 0.0117628
1.99012 49.554 2
2.85457 51.8506 0
10.0713 33.8793 3.97889
9.3741 32.1513 3.9792
10.9034 32.9151 2
8.06132 29.6926 3.9797
10.0805 30.3772 2
12.0392 31.2503 0.0214968
6.5933 27.0062 3.98246
8.71188 27.7273 2
10.7672 28.4087 0.0217996
5.16957 24.0935 3.98798
7.3495 24.9786 2
9.40353 25.792 0.0191285
3.86728 20.9142 4
6.11421 21.9993 2
8.22389 23.0179 0.0159679
5.02406 18.75 2
7.19758 19.9737 0.0105411
6.31992 16.6661 0
8.82965 35.2792 3.97859
10.4183 34.9989 2
12.0562 34.2918 0.0219737
7.00393 37.207 3.97878
9.00339 36.9864 2
10.8058 36.6119 0.0221102
9.329 38.8271 0.0209306
7.219 39.1843 2
4.98151 39.4683 3.98181
7.53753 41.2145 0.0201147
5.25336 41.6152 2
2.85429 42.0025 3.98795
5.63764 43.7699 0.0176171
3.24359 44.2812 2
0.720592 44.8159 4
3.76579 46.537 0.011832
1.27778 47.2057 2
1.99014 49.554 0
8.87126 33.696 3.97912
10.0716 33.8792 2
7.49925 31.6073 3.97988
9.37432 32.1511 2
10.9031 32.9153 0.0209888
5.93874 29.0683 3.98205
8.06146 29.6923 2
10.0803 30.3774 0.0213121
4.35718 26.2474 3.9879
6.59335 27.0061 2
8.71177 27.7276 0.0200975
2.85458 23.1494 4
5.1694 24.0943 2
7.34946 24.9788 0.0167979
3.86728 20.9142 2
6.11443 21.9989 0.0115383
5.02411 18.75 0
6.95445 35.3062 3.97899
8.83 35.2791 2
10.4179 34.9989 0.021321
4.83237 37.3404 3.9813
7.00432 37.207 2
9.00298 36.9864 0.0222272
7.21874 39.1842 0.0202144
4.98172 39.4682 2
2.60258 39.7143 3.98747
5.25323 41.6152 0.0178187
2.85431 42.0018 2
0.320823 42.3947 4
3.24362 44.282 0.0118113
0.720551 44.8159 2
1.27781 47.2057 0
7.11382 33.46 3.97963
8.87153 33.6958 2
10.0713 33.8793 0.0211083
5.4099 31.133 3.98204
7.49941 31.6071 2
9.3741 32.1513 0.0207951
3.67903 28.4439 3.98798
5.93883 29.0684 2
8.06132 29.6926 0.0203036
1.99015 25.446 4
4.35705 26.2483 2
6.5933 27.0062 0.0175379
2.85453 23.1494 2
5.16957 24.0935 0.0120221
3.86728 20.9142 0
4.84686 35.2519 3.98134
6.95478 35.3062 2
8.82965 35.2792 0.0214097
2.4942 37.4289 3.98736
4.83269 37.3405 2
7.00393 37.207 0.0212181
4.98151 39.4683 0.0181914
2.60267 39.7138 2
0.080333 39.9526 4
2.85429 42.0025 0.0120477
0.320817 42.3947 2
0.720592 44.8159 0
5.03984 33.1902 3.98185
7.11406 33.46 2
8.87126 33.696 0.0208789
3.14355 30.6666 3.98795
5.41001 31.1332 2
7.49925 31.6073 0.0201156
1.27793 27.7943 4
3.67898 28.4449 2
5.93874 29.0683 0.0179518
1.99013 25.446 2
4.35718 26.2474 0.0121027
2.85458 23.1494 0
2.54641 35.1594 3.98734
4.84713 35.2521 2
6.95445 35.3062 0.0210118
0 37.5 4
2.49436 37.4287 2
4.83237 37.3404 0.0186963
2.60258 39.7143 0.0125319
0.0802903 39.9526 2
0.320823 42.3947 0
2.76383 32.9062 3.98764
5.04002 33.1905 2
7.11382 33.46 0.0203699
0.721173 30.1842 4
3.14354 30.6675 2
5.4099 31.133 0.0179643
1.27779 27.7943 2
3.67903 28.4439 0.0120222
1.99015 25.446 0
0.0806499 35.0474 4
2.54653 35.1597 2
4.84686 35.2519 0.0186608
0 37.5 2
2.4942 37.4289 0.0126434
0.080333 39.9526 0
0.32156 32.6054 4
2.7639 32.9068 2
5.03984 33.1902 0.0181525
0.72056 30.1841 2
3.14355 30.6666 0.0120489
1.27793 27.7943 0
0.0802889 35.0474 2
2.54641 35.1594 0.0126558
0 37.5 0
0.320817 32.6053 2
2.76383 32.9062 0.0123633
0.721173 30.1842 0
0.0806499 35.0474 0
0.32156 32.6054 0
CELLS 1910 17190
8 18 6 25 56 2 0 5 16
8 57 23 6 18 17 4 0 2
8 78 36 9 29 31 11 1 7
8 31 11 1 7 79 37 10 30
8 110 57 18 50 48 17 2 14
8 50 18 56 111 14 2 16 49
8 116 62 22 55 52 20 3 15
8 56 25 67 118 16 5 24 53
8 119 63 23 57 54 21 4 17
8 55 22 63 119 15 3 21 54
8 58 26 68 121 18 6 25 56
8 122 65 26 58 57 23 6 18
8 73 31 7 27 142 79 30 71
8 143 78 29 72 73 31 7 27
8 83 147 76 34 32 74 28 8
8 84 148 78 36 33 75 29 9
8 76 34 8 28 148 84 33 75
8 37 79 150 86 10 30 77 35
8 151 87 36 78 80 38 11 31
8 80 38 11 31 152 88 37 79
8 175 100 42 94 96 44 12 40
8 44 96 176 101 12 40 95 43
8 101 176 98 46 43 95 41 13
8 46 98 178 103 13 41 97 45
8 178 103 45 97 147 83 32 74
8 189 116 55 109 106 52 15 47
8 111 56 118 191 49 16 53 107
8 192 119 57 110 108 54 17 48
8 109 55 119 192 47 15 54 108
8 194 122 58 112 110 57 18 50
8 112 58 121 195 50 18 56 111
8 115 61 19 51 197 124 59 113
8 115 61 125 198 51 19 60 114
8 198 125 62 116 114 60 20 52
8 200 127 64 120 116 62 22 55
8 118 67 132 202 53 24 66 117
8 121 68 133 203 56 25 67 118
8 120 64 128 204 55 22 63 119
8 204 128 65 122 119 63 23 57
8 206 134 68 121 123 69 26 58
8 123 69 26 58 207 131 65 122
8 226 147 74 138 140 76 28 70
8 229 148 75 139 143 78 29 72
8 140 76 28 70 229 148 75 139
8 142 79 30 71 231 150 77 141
8 144 80 31 73 232 152 79 142
8 233 151 78 143 144 80 31 73
8 150 86 35 77 235 154 81 145
8 235 154 81 145 146 82 39 91
8 146 82 39 91 236 155 90 165
8 238 157 83 147 149 85 34 76
8 239 158 84 148 151 87 36 78
8 149 85 34 76 239 158 84 148
8 152 88 37 79 241 160 86 150
8 242 161 87 151 153 89 38 80
8 153 89 38 80 243 162 88 152
8 171 98 41 92 265 178 97 169
8 265 178 97 169 226 147 74 138
8 172 96 40 93 266 176 95 170
8 266 176 95 170 171 98 41 92
8 269 175 94 173 172 96 40 93
8 271 180 99 174 175 100 42 94
8 197 124 59 113 271 180 99 174
8 272 181 100 175 177 102 44 96
8 273 182 101 176 179 104 46 98
8 177 102 44 96 273 182 101 176
8 179 104 46 98 275 184 103 178
8 275 184 103 178 238 157 83 147
8 188 115 51 105 283 197 113 186
8 188 115 198 284 105 51 114 187
8 284 198 116 189 187 114 52 106
8 286 200 120 193 189 116 55 109
8 191 118 202 288 107 53 117 190
8 195 121 203 289 111 56 118 191
8 193 120 204 290 109 55 119 192
8 290 204 122 194 192 119 57 110
8 196 123 58 112 292 207 122 194
8 293 206 121 195 196 123 58 112
8 199 126 61 115 297 211 124 197
8 298 212 127 200 198 125 62 116
8 199 126 212 298 115 61 125 198
8 205 129 64 120 300 214 127 200
8 301 217 130 201 202 132 66 117
8 209 136 168 264 301 217 130 201
8 302 219 132 202 203 133 67 118
8 303 220 133 203 206 134 68 121
8 205 129 215 304 120 64 128 204
8 304 215 131 207 204 128 65 122
8 306 221 134 206 208 135 69 123
8 208 135 69 123 307 218 131 207
8 210 137 167 263 309 223 136 209
8 328 238 147 226 230 149 76 140
8 228 146 91 166 329 236 165 260
8 231 150 77 141 330 235 145 227
8 330 235 145 227 228 146 91 166
8 332 239 148 229 233 151 78 143
8 230 149 76 140 332 239 148 229
8 232 152 79 142 334 241 150 231
8 234 153 80 144 335 243 152 232
8 336 242 151 233 234 153 80 144
8 236 155 90 165 338 245 164 259
8 241 160 86 150 339 246 154 235
8 339 246 154 235 237 156 82 146
8 237 156 82 146 340 247 155 236
8 342 249 157 238 240 159 85 149
8 343 250 158 239 242 161 87 151
8 240 159 85 149 343 250 158 239
8 243 162 88 152 345 252 160 241
8 244 163 253 346 153 89 161 242
8 244 163 89 153 347 254 162 243
8 311 224 261 371 210 137 167 263
8 263 167 262 372 209 136 168 264
8 267 179 98 171 375 275 178 265
8 375 275 178 265 328 238 147 226
8 376 273 176 266 267 179 98 171
8 268 177 96 172 376 273 176 266
8 379 272 175 269 268 177 96 172
8 380 271 174 270 269 175 94 173
8 283 197 113 186 380 271 174 270
8 381 277 180 271 272 181 100 175
8 297 211 124 197 381 277 180 271
8 382 278 181 272 274 183 102 177
8 274 183 102 177 383 279 182 273
8 383 279 182 273 276 185 104 179
8 385 281 184 275 342 249 157 238
8 276 185 104 179 385 281 184 275
8 285 199 115 188 393 297 197 283
8 394 298 200 286 284 198 116 189
8 285 199 298 394 188 115 198 284
8 291 205 120 193 396 300 200 286
8 397 301 201 287 288 202 117 190
8 295 209 264 374 397 301 201 287
8 398 302 202 288 289 203 118 191
8 399 303 203 289 293 206 121 195
8 291 205 304 400 193 120 204 290
8 400 304 207 292 290 204 122 194
8 294 208 123 196 402 307 207 292
8 403 306 206 293 294 208 123 196
8 296 210 263 373 405 309 209 295
8 408 312 213 299 297 211 126 199
8 299 213 313 409 199 126 212 298
8 409 313 214 300 298 212 127 200
8 305 216 129 205 411 315 214 300
8 412 318 217 301 302 219 132 202
8 309 223 136 209 412 318 217 301
8 413 320 219 302 303 220 133 203
8 306 221 321 414 206 134 220 303
8 307 218 131 207 415 316 215 304
8 305 216 316 415 205 129 215 304
8 417 322 221 306 308 222 135 208
8 308 222 135 208 418 319 218 307
8 310 225 137 210 420 325 223 309
8 423 326 224 311 310 225 137 210
8 329 236 165 260 441 338 259 368
8 442 342 238 328 333 240 149 230
8 331 237 146 228 443 340 236 329
8 334 241 150 231 444 339 235 330
8 444 339 235 330 331 237 146 228
8 446 343 239 332 336 242 151 233
8 333 240 149 230 446 343 239 332
8 335 243 152 232 448 345 241 334
8 337 244 153 234 449 347 243 335
8 337 244 346 450 234 153 242 336
8 338 245 164 259 452 349 258 367
8 340 247 155 236 453 350 245 338
8 345 252 160 241 454 351 246 339
8 454 351 246 339 341 248 156 237
8 341 248 156 237 455 352 247 340
8 240 159 251 344 342 249 354 457
8 242 161 253 346 343 250 355 458
8 343 250 355 458 240 159 251 344
8 347 254 162 243 460 357 252 345
8 348 255 358 461 244 163 253 346
8 348 255 163 244 462 359 254 347
8 473 360 257 365 363 256 364 482
8 452 349 258 367 365 257 366 485
8 422 324 369 488 311 224 261 371
8 371 261 370 490 263 167 262 372
8 407 311 371 491 296 210 263 373
8 373 263 372 492 295 209 264 374
8 493 385 275 375 442 342 238 328
8 377 276 179 267 493 385 275 375
8 378 274 177 268 494 383 273 376
8 494 383 273 376 377 276 179 267
8 497 382 272 379 378 274 177 268
8 498 381 271 380 379 272 175 269
8 393 297 197 283 498 381 271 380
8 499 387 277 381 382 278 181 272
8 408 312 211 297 499 387 277 381
8 500 388 278 382 384 280 183 274
8 501 389 279 383 386 282 185 276
8 384 280 183 274 501 389 279 383
8 386 282 185 276 503 391 281 385
8 503 391 281 385 457 354 249 342
8 511 408 299 395 393 297 199 285
8 395 299 409 512 285 199 298 394
8 512 409 300 396 394 298 200 286
8 401 305 205 291 514 411 300 396
8 515 412 301 397 398 302 202 288
8 405 309 209 295 515 412 301 397
8 516 413 302 398 399 303 203 289
8 403 306 414 517 293 206 303 399
8 402 307 207 292 518 415 304 400
8 401 305 415 518 291 205 304 400
8 404 308 208 294 520 418 307 402
8 521 417 306 403 404 308 208 294
8 406 310 210 296 523 420 309 405
8 526 423 311 407 406 310 210 296
8 410 314 213 299 527 424 312 408
8 528 425 315 411 409 313 214 300
8 410 314 425 528 299 213 313 409
8 416 317 216 305 530 427 315 411
8 531 430 318 412 413 320 219 302
8 420 325 223 309 531 430 318 412
8 532 432 320 413 414 321 220 303
8 417 322 433 533 306 221 321 414
8 418 319 218 307 534 428 316 415
8 416 317 428 534 305 216 316 415
8 419 323 434 536 308 222 322 417
8 419 323 222 308 537 431 319 418
8 421 327 225 310 539 438 325 420
8 421 327 439 541 310 225 326 423
8 543 437 324 422 423 326 224 311
8 441 338 259 368 559 452 367 486
8 443 340 236 329 560 453 338 441
8 333 240 344 447 442 342 457 561
8 445 341 237 331 562 455 340 443
8 448 345 241 334 563 454 339 444
8 563 454 339 444 445 341 237 331
8 336 242 346 450 446 343 458 565
8 446 343 458 565 333 240 344 447
8 449 347 243 335 567 460 345 448
8 451 348 244 337 568 462 347 449
8 451 348 461 569 337 244 346 450
8 570 463 349 452 473 360 257 365
8 453 350 245 338 570 463 349 452
8 455 352 247 340 571 464 350 453
8 460 357 252 345 572 465 351 454
8 572 465 351 454 456 353 248 341
8 456 353 248 341 573 466 352 455
8 344 251 356 459 457 354 468 575
8 458 355 469 576 344 251 356 459
8 346 253 358 461 458 355 469 576
8 462 359 254 347 578 471 357 460
8 348 255 359 462 461 358 472 579
8 591 474 360 473 475 361 256 363
8 475 361 256 363 594 477 362 479
8 363 256 364 482 479 362 480 603
8 590 473 365 484 481 363 482 605
8 482 364 257 365 606 483 366 485
8 559 452 367 486 484 365 485 607
8 542 436 487 609 422 324 369 488
8 525 422 488 611 407 311 371 491
8 488 369 489 612 371 261 370 490
8 491 371 490 613 373 263 372 492
8 495 386 276 377 614 503 385 493
8 614 503 385 493 561 457 342 442
8 615 501 383 494 495 386 276 377
8 496 384 274 378 615 501 383 494
8 618 500 382 497 496 384 274 378
8 619 499 381 498 497 382 272 379
8 511 408 297 393 619 499 381 498
8 620 505 387 499 500 388 278 382
8 527 424 312 408 620 505 387 499
8 502 390 506 621 384 280 388 500
8 622 507 389 501 504 392 282 386
8 502 390 280 384 622 507 389 501
8 504 392 282 386 624 509 391 503
8 624 509 391 503 575 468 354 457
8 513 410 299 395 630 527 408 511
8 631 528 411 514 512 409 300 396
8 513 410 528 631 395 299 409 512
8 519 416 305 401 633 530 411 514
8 634 531 412 515 516 413 302 398
8 523 420 309 405 634 531 412 515
8 635 532 413 516 517 414 303 399
8 521 417 533 636 403 306 414 517
8 520 418 307 402 637 534 415 518
8 519 416 534 637 401 305 415 518
8 522 419 308 404 639 537 418 520
8 522 419 536 640 404 308 417 521
8 524 421 310 406 642 539 420 523
8 524 421 541 644 406 310 423 526
8 646 543 422 525 526 423 311 407
8 529 426 314 410 647 544 424 527
8 528 425 545 648 411 315 427 530
8 529 426 545 648 410 314 425 528
8 535 429 317 416 649 546 427 530
8 650 548 430 531 532 432 320 413
8 539 438 325 420 650 548 430 531
8 533 433 550 651 414 321 432 532
8 536 434 551 652 417 322 433 533
8 537 431 319 418 653 547 428 534
8 535 429 547 653 416 317 428 534
8 538 435 552 654 419 323 434 536
8 538 435 323 419 655 549 431 537
8 540 440 327 421 657 556 438 539
8 540 440 557 659 421 327 439 541
8 541 439 555 660 423 326 437 543
8 661 554 436 542 543 437 324 422
8 676 570 452 559 590 473 365 484
8 560 453 338 441 676 570 452 559
8 562 455 340 443 677 571 453 560
8 447 344 459 566 561 457 575 678
8 564 456 341 445 679 573 455 562
8 567 460 345 448 680 572 454 563
8 680 572 454 563 564 456 341 445
8 565 458 576 682 447 344 459 566
8 450 346 461 569 565 458 576 682
8 568 462 347 449 684 578 460 567
8 451 348 462 568 569 461 579 685
8 686 580 463 570 591 474 360 473
8 571 464 350 453 686 580 463 570
8 573 466 352 455 687 581 464 571
8 572 465 582 688 460 357 471 578
8 574 467 582 688 456 353 465 572
8 574 467 353 456 689 583 466 573
8 459 356 470 577 575 468 585 691
8 576 469 586 692 459 356 470 577
8 461 358 472 579 576 469 586 692
8 462 359 471 578 579 472 588 694
8 704 591 473 590 593 475 363 481
8 595 476 592 705 475 361 474 591
8 593 475 363 481 707 594 479 602
8 594 477 362 479 709 598 478 600
8 595 476 361 475 711 597 477 594
8 479 362 480 603 600 478 601 720
8 481 363 482 605 602 479 603 722
8 603 480 364 482 723 604 483 606
8 605 482 365 484 724 606 485 607
8 656 553 608 726 542 436 487 609
8 645 542 609 728 525 422 488 611
8 609 487 610 729 488 369 489 612
8 611 488 612 730 491 371 490 613
8 616 504 386 495 731 624 503 614
8 731 624 503 614 678 575 457 561
8 732 622 501 615 616 504 386 495
8 617 502 384 496 732 622 501 615
8 617 502 621 735 496 384 500 618
8 736 620 499 619 618 500 382 497
8 630 527 408 511 736 620 499 619
8 621 506 626 737 500 388 505 620
8 647 544 424 527 737 626 505 620
8 623 508 627 738 502 390 506 621
8 623 508 390 502 739 628 507 622
8 625 510 628 739 504 392 507 622
8 740 629 509 624 691 585 468 575
8 625 510 392 504 740 629 509 624
8 632 529 410 513 744 647 527 630
8 631 528 648 745 514 411 530 633
8 632 529 648 745 513 410 528 631
8 638 535 416 519 746 649 530 633
8 747 650 531 634 635 532 413 516
8 642 539 420 523 747 650 531 634
8 636 533 651 748 517 414 532 635
8 640 536 652 749 521 417 533 636
8 639 537 418 520 750 653 534 637
8 638 535 653 750 519 416 534 637
8 641 538 419 522 751 655 537 639
8 641 538 654 752 522 419 536 640
8 643 540 421 524 753 657 539 642
8 643 540 659 755 524 421 541 644
8 644 541 660 757 526 423 543 646
8 758 661 542 645 646 543 422 525
8 529 426 544 647 648 545 662 759
8 530 427 545 648 649 546 663 760
8 535 429 546 649 653 547 664 761
8 762 666 548 650 651 550 432 532
8 657 556 438 539 762 666 548 650
8 652 551 668 763 533 433 550 651
8 654 552 669 764 536 434 551 652
8 655 549 431 537 765 665 547 653
8 538 435 549 655 654 552 667 766
8 661 554 671 768 542 436 553 656
8 658 558 440 540 769 674 556 657
8 658 558 675 770 540 440 557 659
8 659 557 673 771 541 439 555 660
8 660 555 672 772 543 437 554 661
8 788 686 570 676 704 591 473 590
8 677 571 453 560 788 686 570 676
8 679 573 455 562 789 687 571 677
8 566 459 577 683 678 575 691 790
8 681 574 456 564 791 689 573 679
8 680 572 688 792 567 460 578 684
8 681 574 688 792 564 456 572 680
8 682 576 692 794 566 459 577 683
8 569 461 579 685 682 576 692 794
8 568 462 578 684 685 579 694 796
8 687 581 464 571 798 696 580 686
8 798 696 580 686 705 592 474 591
8 689 583 466 573 799 697 581 687
8 688 582 698 800 578 471 588 694
8 690 584 698 800 574 467 582 688
8 690 584 467 574 801 699 583 689
8 693 587 701 803 577 470 585 691
8 693 587 470 577 804 702 586 692
8 695 589 702 804 579 472 586 692
8 695 589 472 579 805 703 588 694
8 708 595 705 813 593 475 591 704
8 710 596 706 814 595 476 592 705
8 707 594 479 602 816 709 600 719
8 708 595 475 593 817 711 594 707
8 709 598 478 600 819 715 599 717
8 711 597 477 594 820 714 598 709
8 710 596 476 595 822 713 597 711
8 600 478 601 720 717 599 718 832
8 602 479 603 722 719 600 720 834
8 720 601 480 603 835 721 604 723
8 722 603 482 605 836 723 606 724
8 767 670 725 839 656 553 608 726
8 756 656 726 841 645 542 609 728
8 726 608 727 842 609 487 610 729
8 728 609 729 843 611 488 612 730
8 844 740 624 731 790 691 575 678
8 733 625 504 616 844 740 624 731
8 734 623 502 617 845 739 622 732
8 733 625 739 845 616 504 622 732
8 734 623 738 846 617 502 621 735
8 735 621 737 847 618 500 620 736
8 744 647 527 630 847 737 620 736
8 621 506 627 738 737 626 741 848
8 647 544 626 737 759 662 741 848
8 623 508 628 739 738 627 742 849
8 740 629 585 691 850 743 700 802
8 625 510 629 740 739 628 743 850
8 632 529 647 744 745 648 759 854
8 633 530 648 745 746 649 760 855
8 638 535 649 746 750 653 761 856
8 857 762 650 747 748 651 532 635
8 753 657 539 642 857 762 650 747
8 749 652 763 858 636 533 651 748
8 752 654 764 859 640 536 652 749
8 751 655 537 639 860 765 653 750
8 641 538 655 751 752 654 766 861
8 754 658 540 643 862 769 657 753
8 754 658 770 863 643 540 659 755
8 755 659 771 864 644 541 660 757
8 758 661 768 866 645 542 656 756
8 757 660 772 867 646 543 661 758
8 759 662 773 868 648 545 663 760
8 649 546 663 760 761 664 774 871
8 765 665 547 653 872 775 664 761
8 873 777 666 762 763 668 550 651
8 769 674 556 657 873 777 666 762
8 764 669 779 874 652 551 668 763
8 654 552 667 766 764 669 778 875
8 655 549 665 765 766 667 776 876
8 768 671 782 877 656 553 670 767
8 772 672 783 878 661 554 671 768
8 658 558 674 769 770 675 786 879
8 659 557 675 770 771 673 785 881
8 882 784 672 772 771 673 555 660
8 789 687 571 677 897 798 686 788
8 897 798 686 788 813 705 591 704
8 791 689 573 679 898 799 687 789
8 795 693 803 900 683 577 691 790
8 793 690 574 681 901 801 689 791
8 792 688 800 902 684 578 694 796
8 793 690 800 902 681 574 688 792
8 795 693 577 683 903 804 692 794
8 797 695 804 903 685 579 692 794
8 797 695 579 685 904 805 694 796
8 905 806 697 799 798 696 581 687
8 814 706 806 905 705 592 696 798
8 689 583 697 799 801 699 808 907
8 800 698 809 908 694 588 703 805
8 690 584 699 801 800 698 809 908
8 803 701 810 909 691 585 700 802
8 693 587 702 804 803 701 811 910
8 695 589 703 805 804 702 812 911
8 818 710 814 919 708 595 705 813
8 821 712 815 920 710 596 706 814
8 816 709 600 719 922 819 717 831
8 817 711 594 707 923 820 709 816
8 818 710 595 708 924 822 711 817
8 819 715 599 717 926 827 716 829
8 820 714 598 709 927 826 715 819
8 929 825 713 822 820 714 597 711
8 821 712 596 710 930 824 713 822
8 717 599 718 832 829 716 830 942
8 719 600 720 834 831 717 832 944
8 832 718 601 720 945 833 721 835
8 834 720 603 722 946 835 723 836
8 869 780 838 950 767 670 725 839
8 865 767 839 952 756 656 726 841
8 839 725 840 953 726 608 727 842
8 841 726 842 954 728 609 729 843
8 844 740 691 790 955 850 802 899
8 733 625 740 844 845 739 850 955
8 734 623 739 845 846 738 849 956
8 735 621 738 846 847 737 848 957
8 744 647 737 847 854 759 848 957
8 738 627 742 849 848 741 851 958
8 848 741 851 958 759 662 773 868
8 850 743 700 802 959 852 807 906
8 849 742 628 739 959 852 743 850
8 854 759 868 965 745 648 760 855
8 746 649 760 855 856 761 871 966
8 860 765 653 750 967 872 761 856
8 968 873 762 857 858 763 651 748
8 862 769 657 753 968 873 762 857
8 859 764 874 969 749 652 763 858
8 752 654 766 861 859 764 875 970
8 751 655 765 860 861 766 876 971
8 754 658 769 862 863 770 879 972
8 755 659 770 863 864 771 881 974
8 976 882 772 867 864 771 660 757
8 866 768 877 977 756 656 767 865
8 867 772 878 978 758 661 768 866
8 760 663 773 868 871 774 883 980
8 870 781 837 948 982 890 780 869
8 982 890 780 869 877 782 670 767
8 761 664 774 871 872 775 884 984
8 876 776 665 765 985 885 775 872
8 873 777 668 763 986 887 779 874
8 769 674 777 873 879 786 887 986
8 764 669 778 875 874 779 888 987
8 766 667 776 876 875 778 886 988
8 878 783 892 989 768 671 782 877
8 878 783 672 772 990 893 784 882
8 880 787 675 770 991 896 786 879
8 880 787 895 992 770 675 785 881
8 881 785 894 993 771 673 784 882
8 1006 905 799 898 897 798 687 789
8 919 814 905 1006 813 705 798 897
8 791 689 799 898 901 801 907 1007
8 900 803 909 1009 790 691 802 899
8 795 693 804 903 900 803 910 1010
8 902 800 908 1011 796 694 805 904
8 793 690 801 901 902 800 908 1011
8 797 695 805 904 903 804 911 1012
8 799 697 806 905 907 808 912 1013
8 920 815 912 1013 814 706 806 905
8 802 700 810 909 906 807 913 1014
8 801 699 808 907 908 809 914 1015
8 805 703 809 908 911 812 915 1016
8 803 701 811 910 909 810 916 1017
8 911 812 917 1018 804 702 811 910
8 925 821 920 1030 818 710 814 919
8 928 823 921 1031 821 712 815 920
8 922 819 717 831 1033 926 829 941
8 923 820 709 816 1034 927 819 922
8 1035 929 822 924 923 820 711 817
8 925 821 710 818 1036 930 822 924
8 1038 933 825 929 927 826 714 820
8 926 827 716 829 1039 935 828 939
8 927 826 715 819 1040 934 827 926
8 928 823 712 821 1041 931 824 930
8 1042 932 824 930 929 825 713 822
8 829 716 830 942 939 828 940 1058
8 831 717 832 944 941 829 942 1060
8 942 830 718 832 1061 943 833 945
8 944 832 720 834 1062 945 835 946
8 981 889 947 1064 870 781 837 948
8 948 837 949 1067 869 780 838 950
8 975 869 950 1069 865 767 839 952
8 950 838 951 1070 839 725 840 953
8 952 839 953 1071 841 726 842 954
8 955 850 802 899 1072 959 906 1008
8 956 849 739 845 1072 959 850 955
8 846 738 849 956 957 848 958 1073
8 957 848 958 1073 854 759 868 965
8 849 742 852 959 958 851 961 1076
8 960 853 961 1076 906 807 852 959
8 958 851 961 1076 868 773 883 980
8 960 853 807 906 1077 963 913 1014
8 855 760 868 965 966 871 980 1085
8 856 761 871 966 967 872 984 1086
8 971 876 765 860 1087 985 872 967
8 968 873 763 858 1088 986 874 969
8 862 769 873 968 972 879 986 1088
8 859 764 875 970 969 874 987 1089
8 861 766 876 971 970 875 988 1090
8 973 880 770 863 1091 991 879 972
8 973 880 992 1092 863 770 881 974
8 974 881 993 1093 864 771 882 976
8 979 870 948 1066 1094 982 869 975
8 1094 982 869 975 977 877 767 865
8 978 878 772 867 1095 990 882 976
8 978 878 989 1096 866 768 877 977
8 871 774 883 980 984 884 994 1099
8 983 891 999 1100 870 781 889 981
8 1101 1000 890 982 989 892 782 877
8 983 891 781 870 1101 1000 890 982
8 872 775 884 984 985 885 995 1103
8 876 776 885 985 988 886 996 1104
8 986 887 779 874 1105 998 888 987
8 879 786 887 986 991 896 998 1105
8 875 778 886 988 987 888 997 1106
8 990 893 1002 1107 878 783 892 989
8 1108 1003 893 990 993 894 784 882
8 880 787 896 991 992 895 1005 1109
8 993 894 785 881 1110 1004 895 992
8 898 799 905 1006 1007 907 1013 1120
8 1030 920 1013 1120 919 814 905 1006
8 901 801 907 1007 1011 908 1015 1121
8 899 802 909 1009 1008 906 1014 1122
8 900 803 910 1010 1009 909 1017 1123
8 1012 911 1018 1124 903 804 910 1010
8 904 805 908 1011 1012 911 1016 1125
8 1013 912 1020 1127 907 808 914 1015
8 1031 921 1020 1127 920 815 912 1013
8 1019 918 962 1075 1128 1021 913 1014
8 1128 1021 913 1014 1017 916 810 909
8 1015 914 1022 1129 908 809 915 1016
8 1016 915 1023 1130 911 812 917 1018
8 1018 917 1024 1131 910 811 916 1017
8 1037 928 1031 1148 925 821 920 1030
8 928 823 931 1041 1031 921 1032 1149
8 1033 926 829 941 1151 1039 939 1057
8 1034 927 819 922 1152 1040 926 1033
8 1153 1038 929 1035 1034 927 820 923
8 1154 1042 930 1036 1035 929 822 924
8 1037 928 821 925 1155 1041 930 1036
8 1039 935 828 939 1156 1047 938 1055
8 1157 1043 932 1042 1038 933 825 929
8 1038 933 826 927 1158 1045 934 1040
8 1040 934 827 926 1159 1046 935 1039
8 930 824 932 1042 1041 931 1044 1160
8 1051 936 1048 1165 1175 1052 937 1053
8 1156 1047 938 1055 1053 937 1054 1178
8 939 828 940 1058 1055 938 1056 1181
8 941 829 942 1060 1057 939 1058 1183
8 942 830 943 1061 1058 940 1059 1184
8 1060 942 832 944 1185 1061 945 1062
8 1082 964 1063 1188 981 889 947 1064
8 1097 981 1064 1190 979 870 948 1066
8 1064 947 1065 1191 948 837 949 1067
8 1066 948 1067 1193 975 869 950 1069
8 1067 949 1068 1194 950 838 951 1070
8 1069 950 1070 1195 952 839 953 1071
8 956 849 959 1072 1073 958 1076 1197
8 1074 960 1076 1197 1008 906 959 1072
8 1073 958 1076 1197 965 868 980 1085
8 1074 960 906 1008 1198 1077 1014 1122
8 1133 1026 1079 1199 1019 918 962 1075
8 1077 963 913 1014 1200 1080 962 1075
8 960 853 963 1077 1076 961 1078 1201
8 980 883 961 1076 1099 994 1078 1201
8 1210 1083 964 1082 1100 999 889 981
8 966 871 980 1085 1086 984 1099 1215
8 967 872 984 1086 1087 985 1103 1216
8 971 876 985 1087 1090 988 1104 1217
8 1088 986 874 969 1218 1105 987 1089
8 972 879 986 1088 1091 991 1105 1218
8 970 875 988 1090 1089 987 1106 1219
8 973 880 991 1091 1092 992 1109 1220
8 1093 993 881 974 1221 1110 992 1092
8 1222 1108 990 1095 1093 993 882 976
8 1223 1101 982 1094 1096 989 877 977
8 1098 983 870 979 1223 1101 982 1094
8 1095 990 1107 1224 978 878 989 1096
8 1098 983 1100 1225 979 870 981 1097
8 984 884 994 1099 1103 995 1111 1227
8 1102 1001 1115 1228 983 891 999 1100
8 1101 1000 892 989 1229 1116 1002 1107
8 1102 1001 891 983 1229 1116 1000 1101
8 985 885 995 1103 1104 996 1112 1230
8 988 886 996 1104 1106 997 1113 1231
8 1105 998 888 987 1232 1114 997 1106
8 991 896 998 1105 1109 1005 1114 1232
8 1108 1003 1117 1233 990 893 1002 1107
8 1108 1003 894 993 1233 1117 1004 1110
8 992 895 1005 1109 1110 1004 1118 1234
8 1120 1013 1127 1244 1007 907 1015 1121
8 1148 1031 1127 1244 1030 920 1013 1120
8 1121 1015 1129 1245 1011 908 1016 1125
8 1126 1019 1075 1196 1246 1128 1014 1122
8 1246 1128 1014 1122 1123 1017 909 1009
8 1124 1018 1131 1247 1010 910 1017 1123
8 1125 1016 1130 1248 1012 911 1018 1124
8 1127 1020 1137 1254 1015 914 1022 1129
8 1031 921 1032 1149 1127 1020 1137 1254
8 1134 1027 918 1019 1257 1140 1021 1128
8 1257 1140 1021 1128 1131 1024 916 1017
8 1129 1022 1141 1258 1016 915 1023 1130
8 1130 1023 1142 1259 1018 917 1024 1131
8 1261 1144 1025 1132 1133 1026 1079 1199
8 1255 1138 1025 1132 1135 1028 1144 1261
8 1133 1026 918 1019 1262 1145 1027 1134
8 1136 1029 1139 1256 1263 1146 1028 1135
8 1037 928 1041 1155 1148 1031 1149 1275
8 1041 931 1044 1160 1149 1032 1150 1276
8 1151 1039 939 1057 1278 1156 1055 1180
8 1152 1040 926 1033 1279 1159 1039 1151
8 1153 1038 927 1034 1280 1158 1040 1152
8 1281 1157 1042 1154 1153 1038 929 1035
8 1036 930 1042 1154 1155 1041 1160 1282
8 1283 1164 1046 1159 1156 1047 935 1039
8 1165 1048 1164 1283 1053 937 1047 1156
8 1157 1043 933 1038 1284 1161 1045 1158
8 1157 1043 1161 1284 1042 932 1044 1160
8 1040 934 1046 1159 1158 1045 1163 1285
8 1166 1049 1167 1292 1051 936 1048 1165
8 1166 1049 936 1051 1293 1168 1050 1172
8 1051 936 1052 1175 1172 1050 1173 1306
8 1174 1051 1165 1290 1308 1175 1053 1177
8 1053 937 1054 1178 1175 1052 1176 1309
8 1278 1156 1055 1180 1177 1053 1178 1311
8 1055 938 1056 1181 1178 1054 1179 1312
8 1057 939 1058 1183 1180 1055 1181 1314
8 1058 940 1059 1184 1181 1056 1182 1315
8 1060 942 1061 1185 1183 1058 1184 1316
8 1208 1081 1187 1321 1082 964 1063 1188
8 1209 1082 1188 1322 1097 981 1064 1190
8 1188 1063 1189 1323 1064 947 1065 1191
8 1190 1064 1191 1325 1066 948 1067 1193
8 1191 1065 1192 1326 1067 949 1068 1194
8 1067 1193 1069 950 1194 1327 1195 1070
8 1250 1133 1199 1330 1126 1019 1075 1196
8 1198 1077 1014 1122 1331 1200 1075 1196
8 1074 960 1077 1198 1197 1076 1201 1332
8 1085 980 1076 1197 1215 1099 1201 1332
8 1199 1079 1203 1333 1075 962 1080 1200
8 1132 1025 1119 1243 1199 1079 1203 1333
8 1201 1078 963 1077 1334 1202 1080 1200
8 1099 994 1078 1201 1227 1111 1202 1334
8 1343 1207 1081 1208 1210 1083 964 1082
8 1214 1084 1186 1319 1343 1207 1081 1208
8 1345 1210 1082 1209 1225 1100 981 1097
8 1346 1211 1083 1210 1228 1115 999 1100
8 1086 984 1099 1215 1216 1103 1227 1352
8 1087 985 1103 1216 1217 1104 1230 1353
8 1090 988 1104 1217 1219 1106 1231 1354
8 1218 1105 987 1089 1355 1232 1106 1219
8 1091 991 1105 1218 1220 1109 1232 1355
8 1092 992 1109 1220 1221 1110 1234 1356
8 1222 1108 1233 1357 1095 990 1107 1224
8 1222 1108 993 1093 1357 1233 1110 1221
8 1223 1101 989 1096 1358 1229 1107 1224
8 1226 1102 983 1098 1358 1229 1101 1223
8 1226 1102 1228 1359 1098 983 1100 1225
8 1103 995 1111 1227 1230 1112 1235 1360
8 1107 1002 1117 1233 1229 1116 1240 1362
8 1102 1001 1116 1229 1228 1115 1240 1362
8 1104 996 1112 1230 1231 1113 1236 1363
8 1364 1237 1114 1232 1231 1113 997 1106
8 1109 1005 1114 1232 1234 1118 1238 1365
8 1110 1004 1118 1234 1233 1117 1241 1366
8 1242 1374 1255 1138 1119 1243 1132 1025
8 1244 1127 1254 1376 1121 1015 1129 1245
8 1148 1031 1149 1275 1244 1127 1254 1376
8 1245 1129 1258 1377 1125 1016 1130 1248
8 1251 1134 1019 1126 1378 1257 1128 1246
8 1378 1257 1128 1246 1247 1131 1017 1123
8 1248 1130 1259 1379 1124 1018 1131 1247
8 1261 1381 1250 1133 1132 1249 1330 1199
8 1255 1380 1252 1135 1132 1249 1381 1261
8 1250 1133 1019 1126 1382 1262 1134 1251
8 1253 1136 1256 1385 1384 1263 1135 1252
8 1254 1137 1265 1387 1129 1022 1141 1258
8 1149 1032 1150 1276 1254 1137 1265 1387
8 1028 1135 1255 1138 1139 1256 1388 1266
8 1136 1029 1147 1264 1256 1139 1267 1389
8 1390 1268 1140 1257 1259 1142 1024 1131
8 1260 1143 1027 1134 1390 1268 1140 1257
8 1258 1141 1269 1391 1130 1023 1142 1259
8 1262 1145 1027 1134 1393 1271 1143 1260
8 1261 1144 1026 1133 1394 1272 1145 1262
8 1135 1028 1144 1261 1263 1146 1272 1394
8 1136 1029 1146 1263 1264 1147 1273 1395
8 1155 1041 1160 1282 1275 1149 1276 1405
8 1276 1150 1044 1160 1406 1277 1162 1286
8 1408 1283 1159 1279 1278 1156 1039 1151
8 1290 1165 1283 1408 1177 1053 1156 1278
8 1152 1040 1159 1279 1280 1158 1285 1409
8 1281 1157 1038 1153 1410 1284 1158 1280
8 1281 1157 1284 1410 1154 1042 1160 1282
8 1159 1046 1164 1283 1285 1163 1289 1412
8 1292 1167 1289 1412 1165 1048 1164 1283
8 1158 1045 1163 1285 1284 1161 1288 1413
8 1284 1161 1288 1413 1160 1044 1162 1286
8 1291 1166 1292 1418 1174 1051 1165 1290
8 1291 1166 1051 1174 1419 1293 1172 1305
8 1294 1169 1296 1421 1166 1049 1167 1292
8 1293 1168 1050 1172 1422 1295 1171 1303
8 1294 1169 1049 1166 1423 1297 1168 1293
8 1422 1295 1171 1303 1301 1170 1302 1435
8 1172 1050 1173 1306 1303 1171 1304 1438
8 1174 1051 1175 1308 1305 1172 1306 1440
8 1175 1052 1176 1309 1306 1173 1307 1441
8 1177 1053 1178 1311 1308 1175 1309 1443
8 1178 1054 1179 1312 1309 1176 1310 1444
8 1180 1055 1181 1314 1311 1178 1312 1446
8 1056 1181 1312 1179 1182 1315 1447 1313
8 1183 1058 1184 1316 1314 1181 1315 1448
8 1319 1186 1084 1214 1451 1317 1213 1350
8 1319 1186 1318 1453 1208 1081 1187 1321
8 1321 1187 1320 1456 1188 1063 1189 1323
8 1344 1208 1321 1457 1209 1082 1188 1322
8 1322 1188 1323 1458 1190 1064 1191 1325
8 1323 1189 1324 1459 1191 1065 1192 1326
8 1191 1325 1193 1067 1326 1460 1327 1194
8 1242 1374 1243 1119 1328 1462 1335 1204
8 1330 1199 1333 1465 1196 1075 1200 1331
8 1132 1249 1330 1199 1243 1375 1465 1333
8 1332 1201 1077 1198 1466 1334 1200 1331
8 1215 1099 1201 1332 1352 1227 1334 1466
8 1119 1243 1333 1203 1204 1335 1470 1338
8 1333 1203 1338 1470 1200 1080 1202 1334
8 1227 1111 1202 1334 1360 1235 1338 1470
8 1328 1462 1335 1204 1205 1336 1471 1339
8 1337 1206 1340 1472 1464 1329 1205 1336
8 1346 1211 1342 1479 1210 1083 1207 1343
8 1346 1211 1115 1228 1479 1342 1239 1361
8 1348 1212 1084 1214 1479 1342 1207 1343
8 1480 1343 1208 1344 1345 1210 1082 1209
8 1351 1214 1319 1454 1480 1343 1208 1344
8 1481 1346 1210 1345 1359 1228 1100 1225
8 1348 1212 1347 1483 1214 1084 1213 1350
8 1216 1103 1227 1352 1353 1230 1360 1488
8 1217 1104 1230 1353 1354 1231 1363 1489
8 1490 1364 1232 1355 1354 1231 1106 1219
8 1220 1109 1232 1355 1356 1234 1365 1491
8 1221 1110 1234 1356 1357 1233 1366 1492
8 1224 1107 1233 1357 1358 1229 1362 1493
8 1226 1102 1229 1358 1359 1228 1362 1493
8 1230 1112 1235 1360 1363 1236 1367 1496
8 1361 1239 1115 1228 1497 1371 1240 1362
8 1366 1241 1372 1498 1233 1117 1240 1362
8 1364 1237 1113 1231 1499 1368 1236 1363
8 1364 1237 1368 1499 1232 1114 1238 1365
8 1234 1118 1238 1365 1366 1241 1369 1500
8 1507 1373 1242 1374 1388 1266 1138 1255
8 1508 1374 1243 1375 1380 1255 1132 1249
8 1376 1254 1387 1509 1245 1129 1258 1377
8 1275 1149 1276 1405 1376 1254 1387 1509
8 1377 1258 1391 1510 1248 1130 1259 1379
8 1511 1390 1257 1378 1379 1259 1131 1247
8 1383 1260 1134 1251 1511 1390 1257 1378
8 1252 1135 1256 1385 1380 1255 1388 1512
8 1261 1381 1513 1394 1133 1250 1382 1262
8 1135 1252 1384 1263 1261 1381 1513 1394
8 1382 1262 1134 1251 1514 1393 1260 1383
8 1253 1136 1263 1384 1386 1264 1395 1516
8 1253 1136 1264 1386 1385 1256 1389 1517
8 1387 1265 1397 1519 1258 1141 1269 1391
8 1276 1150 1277 1406 1387 1265 1397 1519
8 1256 1139 1267 1389 1388 1266 1398 1520
8 1264 1147 1274 1396 1389 1267 1399 1521
8 1392 1270 1143 1260 1522 1400 1268 1390
8 1390 1268 1142 1259 1522 1400 1269 1391
8 1392 1270 1401 1523 1260 1143 1271 1393
8 1272 1394 1524 1402 1145 1262 1393 1271
8 1395 1273 1146 1263 1524 1402 1272 1394
8 1273 1395 1264 1147 1403 1526 1396 1274
8 1405 1276 1160 1282 1534 1406 1286 1411
8 1414 1287 1407 1535 1286 1162 1277 1406
8 1279 1159 1283 1408 1409 1285 1412 1537
8 1418 1292 1412 1537 1290 1165 1283 1408
8 1280 1158 1285 1409 1410 1284 1413 1538
8 1410 1284 1413 1538 1282 1160 1286 1411
8 1285 1163 1289 1412 1413 1288 1417 1540
8 1421 1296 1417 1540 1292 1167 1289 1412
8 1414 1287 1162 1286 1541 1416 1288 1413
8 1420 1294 1421 1545 1291 1166 1292 1418
8 1419 1293 1172 1305 1546 1422 1303 1437
8 1420 1294 1166 1291 1547 1423 1293 1419
8 1294 1169 1297 1423 1421 1296 1425 1548
8 1423 1297 1168 1293 1549 1424 1295 1422
8 1301 1170 1298 1427 1422 1295 1424 1549
8 1432 1300 1428 1554 1301 1170 1298 1427
8 1431 1299 1428 1554 1560 1430 1300 1432
8 1563 1433 1300 1432 1435 1302 1170 1301
8 1546 1422 1303 1437 1434 1301 1435 1565
8 1303 1171 1304 1438 1435 1302 1436 1566
8 1305 1172 1306 1440 1437 1303 1438 1568
8 1306 1173 1307 1441 1438 1304 1439 1569
8 1308 1175 1309 1443 1440 1306 1441 1571
8 1309 1176 1310 1444 1441 1307 1442 1572
8 1311 1178 1312 1446 1443 1309 1444 1574
8 1179 1312 1444 1310 1313 1447 1575 1445
8 1314 1181 1315 1448 1446 1312 1447 1576
8 1350 1213 1349 1486 1451 1317 1449 1579
8 1451 1317 1450 1581 1319 1186 1318 1453
8 1454 1319 1214 1351 1582 1451 1350 1487
8 1453 1318 1452 1584 1321 1187 1320 1456
8 1454 1319 1453 1585 1344 1208 1321 1457
8 1456 1320 1455 1586 1323 1189 1324 1459
8 1457 1321 1456 1587 1322 1188 1323 1458
8 1458 1323 1459 1588 1325 1191 1326 1460
8 1205 1336 1464 1329 1328 1462 1590 1461
8 1507 1373 1461 1590 1374 1242 1328 1462
8 1508 1374 1462 1591 1375 1243 1335 1467
8 1337 1206 1329 1464 1473 1341 1463 1594
8 1375 1243 1335 1467 1465 1333 1470 1596
8 1465 1333 1470 1596 1331 1200 1334 1466
8 1352 1227 1334 1466 1488 1360 1470 1596
8 1591 1462 1336 1468 1467 1335 1471 1597
8 1469 1337 1472 1598 1595 1464 1336 1468
8 1471 1339 1474 1600 1335 1204 1338 1470
8 1600 1474 1367 1496 1470 1338 1235 1360
8 1336 1205 1340 1472 1471 1339 1475 1601
8 1337 1206 1341 1473 1472 1340 1476 1602
8 1495 1370 1478 1609 1361 1239 1342 1479
8 1348 1212 1342 1479 1483 1347 1478 1609
8 1481 1346 1479 1610 1345 1210 1343 1480
8 1481 1346 1228 1359 1610 1479 1361 1494
8 1484 1348 1214 1351 1610 1479 1343 1480
8 1483 1347 1482 1612 1350 1213 1349 1486
8 1484 1348 1483 1613 1351 1214 1350 1487
8 1353 1230 1360 1488 1489 1363 1496 1616
8 1490 1364 1231 1354 1617 1499 1363 1489
8 1490 1364 1499 1617 1355 1232 1365 1491
8 1356 1234 1365 1491 1492 1366 1500 1619
8 1492 1366 1498 1620 1357 1233 1362 1493
8 1494 1361 1228 1359 1621 1497 1362 1493
8 1495 1370 1239 1361 1622 1504 1371 1497
8 1363 1236 1367 1496 1499 1368 1501 1623
8 1497 1371 1240 1362 1624 1505 1372 1498
8 1625 1503 1372 1498 1500 1369 1241 1366
8 1365 1238 1368 1499 1500 1369 1502 1626
8 1520 1398 1506 1633 1388 1266 1373 1507
8 1634 1507 1374 1508 1512 1388 1255 1380
8 1509 1387 1519 1635 1377 1258 1391 1510
8 1405 1276 1406 1534 1509 1387 1519 1635
8 1515 1392 1260 1383 1636 1522 1390 1511
8 1511 1390 1259 1379 1636 1522 1391 1510
8 1385 1256 1389 1517 1512 1388 1520 1637
8 1513 1394 1262 1382 1638 1524 1393 1514
8 1395 1516 1638 1524 1263 1384 1513 1394
8 1515 1392 1523 1639 1383 1260 1393 1514
8 1516 1395 1526 1640 1386 1264 1396 1518
8 1386 1264 1396 1518 1517 1389 1521 1641
8 1519 1397 1527 1643 1391 1269 1400 1522
8 1535 1407 1527 1643 1406 1277 1397 1519
8 1389 1267 1399 1521 1520 1398 1528 1644
8 1645 1529 1399 1521 1525 1404 1274 1396
8 1392 1270 1400 1522 1523 1401 1531 1646
8 1524 1402 1271 1393 1648 1532 1401 1523
8 1403 1526 1648 1532 1273 1395 1524 1402
8 1525 1404 1274 1396 1649 1533 1403 1526
8 1539 1414 1535 1657 1411 1286 1406 1534
8 1542 1415 1536 1658 1414 1287 1407 1535
8 1409 1285 1412 1537 1538 1413 1540 1660
8 1545 1421 1540 1660 1418 1292 1412 1537
8 1539 1414 1286 1411 1661 1541 1413 1538
8 1540 1417 1544 1663 1413 1288 1416 1541
8 1421 1296 1425 1548 1540 1417 1544 1663
8 1542 1415 1287 1414 1664 1543 1416 1541
8 1420 1294 1423 1547 1545 1421 1548 1666
8 1547 1423 1293 1419 1667 1549 1422 1546
8 1434 1301 1427 1553 1546 1422 1549 1667
8 1423 1297 1424 1549 1548 1425 1550 1668
8 1551 1426 1550 1668 1427 1298 1424 1549
8 1551 1426 1298 1427 1671 1552 1428 1554
8 1562 1432 1554 1674 1434 1301 1427 1553
8 1431 1299 1429 1558 1554 1428 1555 1675
8 1431 1299 1430 1560 1558 1429 1557 1680
8 1560 1430 1300 1432 1683 1559 1433 1563
8 1561 1431 1554 1674 1684 1560 1432 1562
8 1685 1563 1432 1562 1565 1435 1301 1434
8 1435 1302 1436 1566 1563 1433 1564 1686
8 1437 1303 1438 1568 1565 1435 1566 1688
8 1438 1304 1439 1569 1566 1436 1567 1689
8 1440 1306 1441 1571 1568 1438 1569 1691
8 1441 1307 1442 1572 1569 1439 1570 1692
8 1443 1309 1444 1574 1571 1441 1572 1694
8 1310 1444 1572 1442 1445 1575 1695 1573
8 1446 1312 1447 1576 1574 1444 1575 1696
8 1486 1349 1485 1614 1579 1449 1577 1699
8 1451 1317 1449 1579 1581 1450 1578 1701
8 1487 1350 1486 1615 1582 1451 1579 1702
8 1581 1450 1580 1704 1453 1318 1452 1584
8 1582 1451 1581 1705 1454 1319 1453 1585
8 1584 1452 1583 1706 1456 1320 1455 1586
8 1585 1453 1584 1707 1457 1321 1456 1587
8 1587 1456 1586 1708 1458 1323 1459 1588
8 1633 1506 1589 1710 1507 1373 1461 1590
8 1464 1329 1461 1590 1594 1463 1589 1710
8 1468 1336 1462 1591 1595 1464 1590 1711
8 1634 1507 1590 1711 1508 1374 1462 1591
8 1473 1341 1463 1594 1603 1477 1593 1716
8 1469 1337 1464 1595 1599 1473 1594 1717
8 1471 1597 1467 1335 1600 1718 1596 1470
8 1718 1600 1496 1616 1596 1470 1360 1488
8 1336 1468 1597 1471 1472 1598 1719 1601
8 1469 1337 1473 1599 1598 1472 1602 1720
8 1722 1604 1501 1623 1600 1474 1367 1496
8 1475 1601 1471 1339 1604 1722 1600 1474
8 1602 1476 1605 1723 1472 1340 1475 1601
8 1476 1602 1724 1606 1341 1473 1603 1477
8 1483 1347 1478 1609 1612 1482 1608 1731
8 1495 1370 1504 1622 1609 1478 1608 1731
8 1618 1495 1609 1732 1494 1361 1479 1610
8 1484 1348 1479 1610 1613 1483 1609 1732
8 1486 1349 1482 1612 1614 1485 1611 1733
8 1613 1483 1612 1734 1487 1350 1486 1615
8 1489 1363 1496 1616 1617 1499 1623 1736
8 1491 1365 1499 1617 1619 1500 1626 1737
8 1618 1495 1361 1494 1738 1622 1497 1621
8 1739 1625 1498 1620 1619 1500 1366 1492
8 1621 1497 1362 1493 1740 1624 1498 1620
8 1742 1631 1504 1622 1624 1505 1371 1497
8 1743 1628 1502 1626 1623 1501 1368 1499
8 1744 1630 1505 1624 1625 1503 1372 1498
8 1745 1629 1503 1625 1626 1502 1369 1500
8 1520 1398 1528 1644 1633 1506 1632 1751
8 1637 1520 1633 1752 1512 1388 1507 1634
8 1635 1519 1643 1753 1510 1391 1522 1636
8 1657 1535 1643 1753 1534 1406 1519 1635
8 1515 1392 1522 1636 1639 1523 1646 1754
8 1517 1389 1521 1641 1637 1520 1644 1755
8 1524 1638 1756 1648 1393 1514 1639 1523
8 1640 1526 1395 1516 1756 1648 1524 1638
8 1642 1525 1396 1518 1757 1649 1526 1640
8 1758 1645 1521 1641 1642 1525 1396 1518
8 1646 1531 1400 1522 1760 1650 1527 1643
8 1535 1407 1536 1658 1643 1527 1650 1760
8 1521 1399 1529 1645 1644 1528 1651 1761
8 1647 1530 1652 1762 1525 1404 1529 1645
8 1401 1523 1648 1532 1531 1646 1763 1655
8 1525 1404 1533 1649 1647 1530 1654 1765
8 1533 1649 1766 1656 1403 1526 1648 1532
8 1662 1542 1658 1774 1539 1414 1535 1657
8 1542 1415 1543 1664 1658 1536 1659 1775
8 1660 1540 1663 1777 1538 1413 1541 1661
8 1545 1421 1548 1666 1660 1540 1663 1777
8 1662 1542 1414 1539 1778 1664 1541 1661
8 1664 1543 1416 1541 1779 1665 1544 1663
8 1548 1425 1550 1668 1663 1544 1665 1779
8 1547 1423 1549 1667 1666 1548 1668 1781
8 1670 1551 1668 1781 1553 1427 1549 1667
8 1551 1426 1552 1671 1668 1550 1669 1782
8 1670 1551 1427 1553 1784 1671 1554 1674
8 1675 1555 1672 1785 1554 1428 1552 1671
8 1678 1556 1673 1789 1558 1429 1555 1675
8 1561 1431 1558 1681 1674 1554 1675 1790
8 1794 1677 1556 1678 1680 1557 1429 1558
8 1560 1430 1559 1683 1680 1557 1679 1797
8 1561 1431 1560 1684 1681 1558 1680 1798
8 1563 1433 1564 1686 1683 1559 1682 1800
8 1684 1560 1432 1562 1801 1683 1563 1685
8 1565 1435 1566 1688 1685 1563 1686 1802
8 1566 1436 1567 1689 1686 1564 1687 1803
8 1568 1438 1569 1691 1688 1566 1689 1805
8 1569 1439 1570 1692 1689 1567 1690 1806
8 1571 1441 1572 1694 1691 1569 1692 1808
8 1442 1572 1692 1570 1573 1695 1809 1693
8 1574 1444 1575 1696 1694 1572 1695 1810
8 1614 1485 1592 1712 1699 1577 1697 1813
8 1579 1449 1577 1699 1701 1578 1698 1815
8 1615 1486 1614 1735 1702 1579 1699 1816
8 1701 1578 1700 1818 1581 1450 1580 1704
8 1582 1451 1579 1702 1705 1581 1701 1819
8 1704 1580 1703 1820 1584 1452 1583 1706
8 1705 1581 1704 1821 1585 1453 1584 1707
8 1707 1584 1706 1822 1587 1456 1586 1708
8 1710 1589 1506 1633 1824 1709 1632 1751
8 1594 1463 1589 1710 1716 1593 1709 1824
8 1752 1633 1710 1825 1634 1507 1590 1711
8 1595 1464 1590 1711 1717 1594 1710 1825
8 1830 1714 1592 1712 1733 1611 1485 1614
8 1603 1477 1593 1716 1725 1607 1715 1834
8 1599 1473 1594 1717 1721 1603 1716 1835
8 1837 1722 1623 1736 1718 1600 1496 1616
8 1719 1601 1722 1837 1597 1471 1600 1718
8 1602 1720 1598 1472 1723 1838 1719 1601
8 1720 1602 1473 1599 1839 1724 1603 1721
8 1723 1605 1726 1840 1601 1475 1604 1722
8 1840 1726 1628 1743 1722 1604 1501 1623
8 1724 1606 1727 1841 1602 1476 1605 1723
8 1725 1607 1728 1842 1603 1477 1606 1724
8 1612 1482 1608 1731 1733 1611 1730 1849
8 1741 1627 1730 1849 1622 1504 1608 1731
8 1613 1483 1609 1732 1734 1612 1731 1850
8 1618 1495 1622 1738 1732 1609 1731 1850
8 1615 1486 1612 1734 1735 1614 1733 1851
8 1852 1743 1626 1737 1736 1623 1499 1617
8 1853 1745 1625 1739 1737 1626 1500 1619
8 1855 1742 1622 1738 1740 1624 1497 1621
8 1856 1744 1624 1740 1739 1625 1498 1620
8 1741 1627 1504 1622 1857 1746 1631 1742
8 1742 1631 1505 1624 1858 1749 1630 1744
8 1859 1747 1629 1745 1743 1628 1502 1626
8 1860 1748 1630 1744 1745 1629 1503 1625
8 1644 1528 1651 1761 1751 1632 1750 1865
8 1637 1520 1644 1755 1752 1633 1751 1866
8 1754 1646 1522 1636 1867 1760 1643 1753
8 1657 1535 1658 1774 1753 1643 1760 1867
8 1639 1523 1646 1754 1756 1648 1763 1868
8 1641 1521 1645 1758 1755 1644 1761 1869
8 1757 1649 1526 1640 1870 1766 1648 1756
8 1642 1525 1649 1757 1759 1647 1765 1871
8 1759 1647 1762 1872 1642 1525 1645 1758
8 1760 1650 1767 1874 1646 1531 1655 1763
8 1658 1536 1659 1775 1760 1650 1767 1874
8 1762 1652 1768 1875 1645 1529 1651 1761
8 1764 1653 1769 1876 1647 1530 1652 1762
8 1656 1766 1877 1773 1532 1648 1763 1655
8 1771 1879 1765 1654 1653 1764 1647 1530
8 1533 1649 1765 1654 1656 1766 1880 1772
8 1662 1542 1664 1778 1774 1658 1775 1887
8 1664 1543 1665 1779 1775 1659 1776 1888
8 1778 1664 1541 1661 1890 1779 1663 1777
8 1666 1548 1668 1781 1777 1663 1779 1890
8 1782 1669 1780 1891 1668 1550 1665 1779
8 1670 1551 1671 1784 1781 1668 1782 1893
8 1671 1552 1672 1785 1782 1669 1783 1894
8 1790 1675 1785 1896 1674 1554 1671 1784
8 1675 1555 1673 1789 1785 1672 1786 1897
8 1792 1676 1788 1903 1678 1556 1673 1789
8 1795 1678 1789 1904 1681 1558 1675 1790
8 1792 1676 1556 1678 1906 1791 1677 1794
8 1680 1557 1679 1797 1794 1677 1793 1909
8 1910 1794 1678 1795 1798 1680 1558 1681
8 1683 1559 1682 1800 1797 1679 1796 1912
8 1684 1560 1683 1801 1798 1680 1797 1913
8 1686 1564 1687 1803 1800 1682 1799 1915
8 1685 1563 1686 1802 1801 1683 1800 1916
8 1688 1566 1689 1805 1802 1686 1803 1917
8 1689 1567 1690 1806 1803 1687 1804 1918
8 1691 1569 1692 1808 1805 1689 1806 1920
8 1692 1570 1693 1809 1806 1690 1807 1921
8 1694 1572 1695 1810 1808 1692 1809 1922
8 1829 1713 1811 1926 1712 1592 1697 1813
8 1813 1697 1812 1928 1699 1577 1698 1815
8 1735 1614 1712 1828 1816 1699 1813 1929
8 1815 1698 1814 1931 1701 1578 1700 1818
8 1702 1579 1699 1816 1819 1701 1815 1932
8 1818 1700 1817 1933 1704 1580 1703 1820
8 1819 1701 1818 1934 1705 1581 1704 1821
8 1821 1704 1820 1935 1707 1584 1706 1822
8 1824 1709 1632 1751 1937 1823 1750 1865
8 1716 1593 1709 1824 1834 1715 1823 1937
8 1825 1710 1633 1752 1938 1824 1751 1866
8 1717 1594 1710 1825 1835 1716 1824 1938
8 1945 1830 1712 1828 1851 1733 1614 1735
8 1830 1714 1831 1946 1712 1592 1713 1829
8 1947 1832 1714 1830 1849 1730 1611 1733
8 1843 1729 1607 1725 1950 1833 1715 1834
8 1721 1603 1716 1835 1836 1725 1834 1951
8 1836 1725 1842 1953 1721 1603 1724 1839
8 1723 1838 1719 1601 1840 1954 1837 1722
8 1954 1840 1743 1852 1837 1722 1623 1736
8 1724 1839 1720 1602 1841 1955 1838 1723
8 1841 1727 1844 1956 1723 1605 1726 1840
8 1956 1844 1747 1859 1840 1726 1628 1743
8 1728 1842 1724 1606 1845 1957 1841 1727
8 1725 1607 1729 1843 1842 1728 1846 1958
8 1741 1627 1746 1857 1849 1730 1848 1965
8 1734 1612 1731 1850 1851 1733 1849 1966
8 1854 1741 1849 1966 1738 1622 1731 1850
8 1967 1859 1745 1853 1852 1743 1626 1737
8 1968 1860 1744 1856 1853 1745 1625 1739
8 1854 1741 1622 1738 1969 1857 1742 1855
8 1855 1742 1624 1740 1970 1858 1744 1856
8 1857 1746 1631 1742 1971 1861 1749 1858
8 1858 1749 1630 1744 1972 1863 1748 1860
8 1859 1747 1862 1973 1745 1629 1748 1860
8 1875 1768 1864 1977 1761 1651 1750 1865
8 1755 1644 1761 1869 1866 1751 1865 1978
8 1867 1760 1874 1979 1754 1646 1763 1868
8 1774 1658 1775 1887 1867 1760 1874 1979
8 1870 1766 1648 1756 1980 1877 1763 1868
8 1872 1762 1875 1981 1758 1645 1761 1869
8 1757 1649 1766 1870 1871 1765 1880 1982
8 1983 1879 1764 1873 1871 1765 1647 1759
8 1873 1764 1876 1984 1759 1647 1762 1872
8 1877 1773 1655 1763 1986 1881 1767 1874
8 1775 1659 1776 1888 1874 1767 1881 1986
8 1876 1769 1882 1987 1762 1652 1768 1875
8 1878 1770 1883 1988 1764 1653 1769 1876
8 1880 1772 1656 1766 1989 1886 1773 1877
8 1878 1770 1653 1764 1990 1884 1771 1879
8 1765 1654 1772 1880 1879 1771 1885 1991
8 1778 1664 1779 1890 1887 1775 1888 1997
8 1998 1889 1776 1888 1891 1780 1665 1779
8 1893 1782 1891 2000 1781 1668 1779 1890
8 1894 1783 1892 2001 1782 1669 1780 1891
8 1784 1671 1785 1896 1893 1782 1894 2003
8 1897 1786 1895 2004 1785 1672 1783 1894
8 1790 1675 1789 1904 1896 1785 1897 2006
8 1901 1787 1898 2007 1789 1673 1786 1897
8 1903 1788 1900 2013 1789 1673 1787 1901
8 1792 1676 1791 1906 1903 1788 1902 2016
8 1907 1792 1903 2017 1795 1678 1789 1904
8 1906 1791 1677 1794 2019 1905 1793 1909
8 1907 1792 1678 1795 2020 1906 1794 1910
8 1797 1679 1796 1912 1909 1793 1908 2022
8 1798 1680 1797 1913 1910 1794 1909 2023
8 1800 1682 1799 1915 1912 1796 1911 2025
8 1801 1683 1800 1916 1913 1797 1912 2026
8 1803 1687 1804 1918 1915 1799 1914 2028
8 1802 1686 1803 1917 1916 1800 1915 2029
8 1805 1689 1806 1920 1917 1803 1918 2030
8 1806 1690 1807 1921 1918 1804 1919 2031
8 1808 1692 1809 1922 1920 1806 1921 2032
8 1939 1826 1924 2037 1829 1713 1811 1926
8 1926 1811 1925 2039 1813 1697 1812 1928
8 1944 1829 1926 2040 1828 1712 1813 1929
8 1928 1812 1927 2042 1815 1698 1814 1931
8 1929 1813 1928 2043 1816 1699 1815 1932
8 1931 1814 1930 2044 1818 1700 1817 1933
8 1932 1815 1931 2045 1819 1701 1818 1934
8 1934 1818 1933 2046 1821 1704 1820 1935
8 2048 1936 1823 1937 1977 1864 1750 1865
8 1950 1833 1715 1834 2048 1936 1823 1937
8 1938 1824 1751 1866 2049 1937 1865 1978
8 1835 1716 1824 1938 1951 1834 1937 2049
8 1939 1826 1713 1829 2053 1942 1831 1946
8 1940 1827 1923 2035 2053 1942 1826 1939
8 1945 1830 1946 2058 1828 1712 1829 1944
8 2059 1947 1830 1945 1966 1849 1733 1851
8 1947 1832 1730 1849 2060 1948 1848 1965
8 1947 1832 1948 2060 1830 1714 1831 1946
8 1959 1847 1729 1843 2063 1949 1833 1950
8 1952 1843 1725 1836 2064 1950 1834 1951
8 1836 1725 1843 1952 1953 1842 1958 2066
8 1953 1842 1957 2067 1839 1724 1841 1955
8 1841 1955 1838 1723 1956 2068 1954 1840
8 2068 1956 1859 1967 1954 1840 1743 1852
8 1956 1844 1960 2069 1859 1747 1862 1973
8 1845 1957 1841 1727 1960 2069 1956 1844
8 1728 1842 1957 1845 1846 1958 2071 1961
8 1962 2072 1959 1847 1846 1958 1843 1729
8 1971 1861 1964 2077 1857 1746 1848 1965
8 1854 1741 1857 1969 1966 1849 1965 2078
8 1967 1859 1973 2079 1853 1745 1860 1968
8 1970 1858 1744 1856 2080 1972 1860 1968
8 1969 1857 1742 1855 2081 1971 1858 1970
8 1971 1861 1749 1858 2082 1974 1863 1972
8 1973 1862 1975 2083 1860 1748 1863 1972
8 1987 1882 1976 2086 1875 1768 1864 1977
8 1981 1875 1977 2087 1869 1761 1865 1978
8 1980 1877 1763 1868 2088 1986 1874 1979
8 1887 1775 1888 1997 1979 1874 1986 2088
8 1880 1982 2089 1989 1766 1870 1980 1877
8 1984 1876 1987 2090 1872 1762 1875 1981
8 1765 1871 1983 1879 1880 1982 2091 1991
8 1985 1878 1764 1873 2092 1990 1879 1983
8 1985 1878 1988 2093 1873 1764 1876 1984
8 2094 1992 1881 1986 1998 1889 1776 1888
8 1986 1881 1992 2094 1877 1773 1886 1989
8 1988 1883 1993 2095 1876 1769 1882 1987
8 1878 1770 1884 1990 1988 1883 1994 2096
8 1991 1885 1772 1880 2097 1996 1886 1989
8 1879 1771 1885 1991 1990 1884 1995 2098
8 2103 1998 1888 1997 2000 1891 1779 1890
8 2104 1999 1889 1998 2001 1892 1780 1891
8 2003 1894 2001 2106 1893 1782 1891 2000
8 2004 1895 2002 2107 1894 1783 1892 2001
8 2006 1897 2004 2109 1896 1785 1894 2003
8 2007 1898 2005 2110 1897 1786 1895 2004
8 2014 1901 2007 2112 1904 1789 1897 2006
8 2011 1899 2008 2113 1901 1787 1898 2007
8 2119 2010 1899 2011 2013 1900 1787 1901
8 2016 1902 2012 2122 1903 1788 1900 2013
8 2017 1903 2013 2123 1904 1789 1901 2014
8 1906 1791 1905 2019 2016 1902 2015 2125
8 1907 1792 1906 2020 2017 1903 2016 2126
8 1909 1793 1908 2022 2019 1905 2018 2128
8 2020 1906 1794 1910 2129 2019 1909 2023
8 1912 1796 1911 2025 2022 1908 2021 2131
8 1913 1797 1912 2026 2023 1909 2022 2132
8 1915 1799 1914 2028 2025 1911 2024 2134
8 1916 1800 1915 2029 2026 1912 2025 2135
8 1918 1804 1919 2031 2028 1914 2027 2136
8 1917 1803 1918 2030 2029 1915 2028 2137
8 1920 1806 1921 2032 2030 1918 2031 2138
8 1940 1827 1941 2054 2035 1923 2033 2140
8 2035 1923 2034 2143 1939 1826 1924 2037
8 2037 1924 2036 2146 1926 1811 1925 2039
8 2051 1939 2037 2147 1944 1829 1926 2040
8 2039 1925 2038 2149 1928 1812 1927 2042
8 2040 1926 2039 2150 1929 1813 1928 2043
8 2042 1927 2041 2151 1931 1814 1930 2044
8 2043 1928 2042 2152 1932 1815 1931 2045
8 2045 1931 2044 2153 1934 1818 1933 2046
8 2155 2047 1936 2048 2086 1976 1864 1977
8 2063 1949 1833 1950 2155 2047 1936 2048
8 2156 2048 1937 2049 2087 1977 1865 1978
8 2064 1950 1834 1951 2156 2048 1937 2049
8 2051 1939 1829 1944 2160 2053 1946 2058
8 2052 1940 2035 2144 2160 2053 1939 2051
8 2053 1942 1831 1946 2163 2057 1948 2060
8 2055 1943 1827 1940 2163 2057 1942 2053
8 2055 1943 2056 2164 1940 1827 1941 2054
8 2059 1947 1849 1966 2167 2060 1965 2078
8 2059 1947 2060 2167 1945 1830 1946 2058
8 2077 1964 2061 2168 1965 1848 1948 2060
8 2070 1963 1847 1959 2170 2062 1949 2063
8 2065 1959 1843 1952 2171 2063 1950 2064
8 2173 2072 1958 2066 2065 1959 1843 1952
8 1953 1842 1958 2066 2067 1957 2071 2174
8 2068 1956 2069 2175 1967 1859 1973 2079
8 2067 1957 2069 2175 1955 1841 1956 2068
8 1845 1957 2069 1960 1961 2071 2176 2073
8 2069 1960 2073 2176 1973 1862 1975 2083
8 2070 1963 2075 2177 1959 1847 1962 2072
8 1846 1958 2071 1961 1962 2072 2178 2074
8 2077 1964 1861 1971 2182 2076 1974 2082
8 2081 1971 2077 2183 1969 1857 1965 2078
8 2079 1973 2083 2184 1968 1860 1972 2080
8 2081 1971 1858 1970 2185 2082 1972 2080
8 2083 1975 2084 2186 1972 1863 1974 2082
8 2086 1976 1882 1987 2189 2085 1993 2095
8 2090 1987 2086 2190 1981 1875 1977 2087
8 2191 2094 1986 2088 2103 1998 1888 1997
8 2088 1986 2094 2191 1980 1877 1989 2089
8 1991 2091 2192 2097 1880 1982 2089 1989
8 2093 1988 2095 2193 1984 1876 1987 2090
8 1879 1983 2092 1990 1991 2091 2194 2098
8 1985 1878 1990 2092 2093 1988 2096 2195
8 2097 1996 1886 1989 2196 2099 1992 2094
8 2196 2099 1992 2094 2104 1999 1889 1998
8 1994 2096 1988 1883 2100 2197 2095 1993
8 2096 1994 1884 1990 2198 2101 1995 2098
8 1995 2098 2199 2102 1885 1991 2097 1996
8 2203 2104 1998 2103 2106 2001 1891 2000
8 2107 2002 2105 2204 2001 1892 1999 2104
8 2109 2004 2107 2206 2003 1894 2001 2106
8 2110 2005 2108 2207 2004 1895 2002 2107
8 2112 2007 2110 2209 2006 1897 2004 2109
8 2113 2008 2111 2210 2007 1898 2005 2110
8 2120 2011 2113 2212 2014 1901 2007 2112
8 2117 2009 2114 2213 2011 1899 2008 2113
8 2219 2116 2009 2117 2119 2010 1899 2011
8 2222 2118 2010 2119 2122 2012 1900 2013
8 2223 2119 2011 2120 2123 2013 1901 2014
8 2016 1902 2015 2125 2122 2012 2121 2225
8 2126 2016 2122 2226 2017 1903 2013 2123
8 2019 1905 2018 2128 2125 2015 2124 2228
8 2020 1906 2019 2129 2126 2016 2125 2229
8 2022 1908 2021 2131 2128 2018 2127 2231
8 2023 1909 2022 2132 2129 2019 2128 2232
8 2025 1911 2024 2134 2131 2021 2130 2234
8 2026 1912 2025 2135 2132 2022 2131 2235
8 1914 2028 2134 2024 2027 2136 2236 2133
8 2029 1915 2028 2137 2135 2025 2134 2237
8 2030 1918 2031 2138 2137 2028 2136 2238
8 2157 2050 2139 2240 2054 1941 2033 2140
8 2052 1940 2054 2161 2144 2035 2140 2242
8 2140 2033 2141 2243 2035 1923 2034 2143
8 2143 2034 2142 2246 2037 1924 2036 2146
8 2144 2035 2143 2247 2051 1939 2037 2147
8 2146 2036 2145 2249 2039 1925 2038 2149
8 2147 2037 2146 2250 2040 1926 2039 2150
8 2149 2038 2148 2251 2042 1927 2041 2151
8 2150 2039 2149 2252 2043 1928 2042 2152
8 2152 2042 2151 2253 2045 1931 2044 2153
8 2255 2154 2047 2155 2189 2085 1976 2086
8 2170 2062 1949 2063 2255 2154 2047 2155
8 2256 2155 2048 2156 2190 2086 1977 2087
8 2171 2063 1950 2064 2256 2155 2048 2156
8 2258 2159 2050 2157 2164 2056 1941 2054
8 2160 2053 1946 2058 2262 2163 2060 2167
8 2162 2055 1940 2052 2262 2163 2053 2160
8 2162 2055 2164 2263 2052 1940 2054 2161
8 2163 2057 1948 2060 2264 2165 2061 2168
8 2055 1943 2057 2163 2164 2056 2165 2264
8 2182 2076 2166 2268 2077 1964 2061 2168
8 2183 2077 2168 2269 2078 1965 2060 2167
8 2070 1963 2062 2170 2177 2075 2169 2271
8 2172 2070 1959 2065 2272 2170 2063 2171
8 2172 2070 2177 2273 2065 1959 2072 2173
8 2066 1958 2072 2173 2174 2071 2178 2274
8 2067 1957 2071 2174 2175 2069 2176 2275
8 2175 2069 2176 2275 2079 1973 2083 2184
8 2071 1961 2074 2178 2176 2073 2179 2276
8 2176 2073 2179 2276 2083 1975 2084 2186
8 2072 1962 2075 2177 2178 2074 2180 2277
8 2182 2076 1974 2082 2280 2181 2084 2186
8 2183 2077 1971 2081 2281 2182 2082 2185
8 2184 2083 2186 2282 2080 1972 2082 2185
8 2189 2085 1993 2095 2285 2188 2100 2197
8 2190 2086 1987 2090 2286 2189 2095 2193
8 2192 2097 1989 2089 2287 2196 2094 2191
8 2287 2196 2094 2191 2203 2104 1998 2103
8 2194 2098 1991 2091 2288 2199 2097 2192
8 2195 2096 2197 2289 2093 1988 2095 2193
8 2096 2195 2290 2198 1990 2092 2194 2098
8 2097 1996 2099 2196 2199 2102 2200 2291
8 2196 2099 1999 2104 2291 2200 2105 2204
8 2100 2197 2292 2201 1994 2096 2198 2101
8 1995 2098 2198 2101 2102 2199 2293 2202
8 2206 2107 2204 2296 2106 2001 2104 2203
8 2207 2108 2205 2297 2107 2002 2105 2204
8 2209 2110 2207 2299 2109 2004 2107 2206
8 2210 2111 2208 2300 2110 2005 2108 2207
8 2212 2113 2210 2302 2112 2007 2110 2209
8 2213 2114 2211 2303 2113 2008 2111 2210
8 2220 2117 2213 2305 2120 2011 2113 2212
8 2216 2115 2214 2306 2117 2009 2114 2213
8 2216 2115 2009 2117 2311 2217 2116 2219
8 2219 2116 2010 2119 2314 2218 2118 2222
8 2315 2219 2117 2220 2223 2119 2011 2120
8 2122 2012 2121 2225 2222 2118 2221 2317
8 2318 2222 2119 2223 2226 2122 2013 2123
8 2125 2015 2124 2228 2225 2121 2224 2320
8 2126 2016 2125 2229 2226 2122 2225 2321
8 2128 2018 2127 2231 2228 2124 2227 2323
8 2129 2019 2128 2232 2229 2125 2228 2324
8 2131 2021 2130 2234 2231 2127 2230 2326
8 2132 2022 2131 2235 2232 2128 2231 2327
8 2134 2024 2133 2236 2234 2130 2233 2328
8 2135 2025 2134 2237 2235 2131 2234 2329
8 2137 2028 2136 2238 2237 2134 2236 2330
8 2157 2050 2158 2259 2240 2139 2239 2332
8 2257 2157 2240 2334 2161 2054 2140 2242
8 2240 2139 2241 2335 2140 2033 2141 2243
8 2242 2140 2243 2337 2144 2035 2143 2247
8 2243 2141 2244 2338 2143 2034 2142 2246
8 2246 2142 2245 2341 2146 2036 2145 2249
8 2247 2143 2246 2342 2147 2037 2146 2250
8 2249 2145 2248 2343 2149 2038 2148 2251
8 2250 2146 2249 2344 2150 2039 2149 2252
8 2252 2149 2251 2345 2152 2042 2151 2253
8 2169 2271 2347 2254 2062 2170 2255 2154
8 2189 2085 2188 2285 2255 2154 2254 2347
8 2348 2255 2155 2256 2286 2189 2086 2190
8 2272 2170 2063 2171 2348 2255 2155 2256
8 2349 2258 2157 2257 2263 2164 2054 2161
8 2258 2159 2261 2351 2157 2050 2158 2259
8 2258 2159 2056 2164 2351 2261 2165 2264
8 2262 2163 2060 2167 2355 2264 2168 2269
8 2162 2055 2163 2262 2263 2164 2264 2355
8 2357 2266 2165 2264 2268 2166 2061 2168
8 2268 2166 2076 2182 2361 2267 2181 2280
8 2281 2182 2268 2362 2183 2077 2168 2269
8 2271 2169 2270 2364 2177 2075 2180 2277
8 2172 2070 2170 2272 2273 2177 2271 2365
8 2072 2173 2274 2178 2177 2273 2366 2277
8 2071 2174 2275 2176 2178 2274 2367 2276
8 2275 2176 2276 2367 2184 2083 2186 2282
8 2283 2187 2084 2186 2368 2278 2179 2276
8 2178 2074 2180 2277 2276 2179 2278 2368
8 2283 2187 2279 2370 2186 2084 2181 2280
8 2281 2182 2082 2185 2371 2280 2186 2282
8 2188 2285 2374 2284 2100 2197 2292 2201
8 2286 2189 2095 2193 2375 2285 2197 2289
8 2192 2097 2196 2287 2288 2199 2291 2376
8 2287 2196 2104 2203 2376 2291 2204 2296
8 2194 2098 2199 2288 2290 2198 2293 2377
8 2289 2197 2096 2195 2378 2292 2198 2290
8 2291 2200 2105 2204 2379 2294 2205 2297
8 2199 2102 2200 2291 2293 2202 2294 2379
8 2198 2101 2202 2293 2292 2201 2295 2380
8 2299 2207 2297 2383 2206 2107 2204 2296
8 2300 2208 2298 2384 2207 2108 2205 2297
8 2302 2210 2300 2386 2209 2110 2207 2299
8 2303 2211 2301 2387 2210 2111 2208 2300
8 2305 2213 2303 2389 2212 2113 2210 2302
8 2306 2214 2304 2390 2213 2114 2211 2303
8 2310 2216 2306 2392 2220 2117 2213 2305
8 2308 2215 2307 2393 2216 2115 2214 2306
8 2308 2215 2115 2216 2396 2309 2217 2311
8 2310 2216 2117 2220 2398 2311 2219 2315
8 2311 2217 2116 2219 2399 2312 2218 2314
8 2314 2218 2118 2222 2402 2313 2221 2317
8 2315 2219 2119 2223 2403 2314 2222 2318
8 2225 2121 2224 2320 2317 2221 2316 2405
8 2226 2122 2225 2321 2318 2222 2317 2406
8 2228 2124 2227 2323 2320 2224 2319 2408
8 2229 2125 2228 2324 2321 2225 2320 2409
8 2231 2127 2230 2326 2323 2227 2322 2411
8 2232 2128 2231 2327 2324 2228 2323 2412
8 2234 2130 2233 2328 2326 2230 2325 2413
8 2235 2131 2234 2329 2327 2231 2326 2414
8 2237 2134 2236 2330 2329 2234 2328 2415
8 2259 2158 2260 2352 2332 2239 2331 2417
8 2257 2157 2259 2350 2334 2240 2332 2419
8 2240 2139 2239 2332 2335 2241 2333 2420
8 2334 2240 2335 2422 2242 2140 2243 2337
8 2335 2241 2336 2423 2243 2141 2244 2338
8 2337 2243 2338 2425 2247 2143 2246 2342
8 2338 2244 2339 2426 2246 2142 2245 2341
8 2341 2245 2340 2428 2249 2145 2248 2343
8 2342 2246 2341 2429 2250 2146 2249 2344
8 2344 2249 2343 2430 2252 2149 2251 2345
8 2188 2285 2347 2254 2284 2374 2432 2346
8 2347 2254 2346 2432 2271 2169 2270 2364
8 2365 2271 2170 2272 2433 2347 2255 2348
8 2286 2189 2285 2375 2348 2255 2347 2433
8 2349 2258 2351 2435 2257 2157 2259 2350
8 2349 2258 2164 2263 2435 2351 2264 2355
8 2259 2158 2261 2351 2352 2260 2354 2437
8 2356 2265 2354 2437 2264 2165 2261 2351
8 2441 2357 2264 2355 2362 2268 2168 2269
8 2356 2265 2165 2264 2442 2358 2266 2357
8 2443 2359 2266 2357 2361 2267 2166 2268
8 2370 2279 2360 2446 2280 2181 2267 2361
8 2362 2268 2182 2281 2447 2361 2280 2371
8 2180 2277 2368 2278 2270 2364 2449 2363
8 2271 2365 2273 2177 2364 2450 2366 2277
8 2372 2283 2186 2282 2451 2368 2276 2367
8 2178 2274 2367 2276 2277 2366 2451 2368
8 2283 2187 2278 2368 2370 2279 2369 2452
8 2372 2283 2370 2453 2282 2186 2280 2371
8 2284 2374 2455 2373 2201 2292 2380 2295
8 2375 2285 2197 2289 2456 2374 2292 2378
8 2376 2291 2204 2296 2457 2379 2297 2383
8 2288 2199 2291 2376 2377 2293 2379 2457
8 2198 2290 2378 2292 2293 2377 2458 2380
8 2293 2202 2294 2379 2380 2295 2381 2459
8 2384 2298 2381 2459 2297 2205 2294 2379
8 2386 2300 2384 2463 2299 2207 2297 2383
8 2387 2301 2385 2464 2300 2208 2298 2384
8 2389 2303 2387 2466 2302 2210 2300 2386
8 2390 2304 2388 2467 2303 2211 2301 2387
8 2392 2306 2390 2469 2305 2213 2303 2389
8 2393 2307 2391 2470 2306 2214 2304 2390
8 2395 2308 2393 2472 2310 2216 2306 2392
8 2308 2215 2309 2396 2393 2307 2394 2473
8 2395 2308 2216 2310 2475 2396 2311 2398
8 2396 2309 2217 2311 2476 2397 2312 2399
8 2398 2311 2219 2315 2478 2399 2314 2403
8 2399 2312 2218 2314 2479 2400 2313 2402
8 2317 2221 2316 2405 2402 2313 2401 2482
8 2403 2314 2222 2318 2483 2402 2317 2406
8 2320 2224 2319 2408 2405 2316 2404 2485
8 2321 2225 2320 2409 2406 2317 2405 2486
8 2323 2227 2322 2411 2408 2319 2407 2488
8 2324 2228 2323 2412 2409 2320 2408 2489
8 2326 2230 2325 2413 2411 2322 2410 2490
8 2327 2231 2326 2414 2412 2323 2411 2491
8 2329 2234 2328 2415 2414 2326 2413 2492
8 2417 2331 2260 2352 2494 2416 2353 2438
8 2350 2259 2352 2436 2419 2332 2417 2496
8 2332 2239 2331 2417 2420 2333 2418 2497
8 2334 2240 2332 2419 2422 2335 2420 2499
8 2420 2333 2421 2500 2335 2241 2336 2423
8 2422 2335 2423 2502 2337 2243 2338 2425
8 2423 2336 2424 2503 2338 2244 2339 2426
8 2425 2338 2426 2505 2342 2246 2341 2429
8 2426 2339 2427 2506 2341 2245 2340 2428
8 2429 2341 2428 2507 2344 2249 2343 2430
8 2432 2346 2284 2374 2509 2431 2373 2455
8 2432 2346 2431 2509 2364 2270 2363 2449
8 2375 2285 2374 2456 2433 2347 2432 2510
8 2347 2433 2365 2271 2432 2510 2450 2364
8 2350 2259 2351 2435 2436 2352 2437 2514
8 2440 2356 2437 2514 2355 2264 2351 2435
8 2352 2260 2354 2437 2438 2353 2439 2516
8 2356 2265 2358 2442 2437 2354 2439 2516
8 2440 2356 2264 2355 2518 2442 2357 2441
8 2519 2443 2357 2441 2447 2361 2268 2362
8 2443 2359 2444 2520 2357 2266 2358 2442
8 2443 2359 2267 2361 2520 2444 2360 2446
8 2446 2360 2279 2370 2523 2445 2369 2452
8 2453 2370 2446 2524 2371 2280 2361 2447
8 2449 2363 2448 2525 2368 2278 2369 2452
8 2366 2277 2364 2450 2451 2368 2449 2526
8 2372 2283 2368 2451 2453 2370 2452 2527
8 2455 2373 2295 2380 2529 2454 2382 2460
8 2456 2374 2292 2378 2530 2455 2380 2458
8 2377 2293 2379 2457 2458 2380 2459 2531
8 2463 2384 2459 2531 2383 2297 2379 2457
8 2533 2461 2382 2460 2459 2381 2295 2380
8 2464 2385 2461 2533 2384 2298 2381 2459
8 2466 2387 2464 2537 2386 2300 2384 2463
8 2467 2388 2465 2538 2387 2301 2385 2464
8 2469 2390 2467 2540 2389 2303 2387 2466
8 2470 2391 2468 2541 2390 2304 2388 2467
8 2472 2393 2470 2543 2392 2306 2390 2469
8 2393 2307 2394 2473 2470 2391 2471 2544
8 2395 2308 2396 2475 2472 2393 2473 2546
8 2396 2309 2397 2476 2473 2394 2474 2547
8 2475 2396 2311 2398 2549 2476 2399 2478
8 2476 2397 2312 2399 2550 2477 2400 2479
8 2478 2399 2314 2403 2552 2479 2402 2483
8 2479 2400 2313 2402 2553 2480 2401 2482
8 2405 2316 2404 2485 2482 2401 2481 2556
8 2406 2317 2405 2486 2483 2402 2482 2557
8 2408 2319 2407 2488 2485 2404 2484 2559
8 2409 2320 2408 2489 2486 2405 2485 2560
8 2411 2322 2410 2490 2488 2407 2487 2561
8 2412 2323 2411 2491 2489 2408 2488 2562
8 2414 2326 2413 2492 2491 2411 2490 2563
8 2513 2434 2493 2565 2438 2353 2416 2494
8 2496 2417 2352 2436 2567 2494 2438 2515
8 2494 2416 2495 2568 2417 2331 2418 2497
8 2419 2332 2417 2496 2499 2420 2497 2570
8 2497 2418 2498 2571 2420 2333 2421 2500
8 2499 2420 2500 2573 2422 2335 2423 2502
8 2500 2421 2501 2574 2423 2336 2424 2503
8 2502 2423 2503 2576 2425 2338 2426 2505
8 2503 2424 2504 2577 2426 2339 2427 2506
8 2505 2426 2506 2578 2429 2341 2428 2507
8 2509 2431 2373 2455 2580 2508 2454 2529
8 2509 2431 2508 2580 2449 2363 2448 2525
8 2432 2510 2581 2509 2374 2456 2530 2455
8 2432 2510 2450 2364 2509 2581 2526 2449
8 2583 2511 2434 2513 2516 2439 2353 2438
8 2436 2352 2437 2514 2515 2438 2516 2588
8 2440 2356 2442 2518 2514 2437 2516 2588
8 2442 2358 2444 2520 2516 2439 2517 2589
8 2519 2443 2520 2591 2441 2357 2442 2518
8 2519 2443 2361 2447 2591 2520 2446 2524
8 2446 2360 2445 2523 2520 2444 2521 2592
8 2525 2448 2522 2593 2452 2369 2445 2523
8 2524 2446 2370 2453 2594 2523 2452 2527
8 2526 2449 2525 2595 2451 2368 2452 2527
8 2534 2462 2528 2597 2460 2382 2454 2529
8 2530 2455 2380 2458 2598 2529 2460 2532
8 2599 2533 2460 2532 2531 2459 2380 2458
8 2537 2464 2533 2599 2463 2384 2459 2531
8 2534 2462 2382 2460 2601 2535 2461 2533
8 2538 2465 2535 2601 2464 2385 2461 2533
8 2540 2467 2538 2604 2466 2387 2464 2537
8 2541 2468 2539 2605 2467 2388 2465 2538
8 2543 2470 2541 2607 2469 2390 2467 2540
8 2470 2391 2471 2544 2541 2468 2542 2608
8 2472 2393 2473 2546 2543 2470 2544 2610
8 2473 2394 2474 2547 2544 2471 2545 2611
8 2475 2396 2476 2549 2546 2473 2547 2613
8 2476 2397 2477 2550 2547 2474 2548 2614
8 2549 2476 2399 2478 2616 2550 2479 2552
8 2479 2400 2480 2553 2550 2477 2551 2617
8 2552 2479 2402 2483 2619 2553 2482 2557
8 2482 2401 2481 2556 2553 2480 2554 2620
8 2485 2404 2484 2559 2556 2481 2555 2623
8 2486 2405 2485 2560 2557 2482 2556 2624
8 2488 2407 2487 2561 2559 2484 2558 2625
8 2489 2408 2488 2562 2560 2485 2559 2626
8 2491 2411 2490 2563 2562 2488 2561 2627
8 2513 2434 2512 2585 2565 2493 2564 2630
8 2586 2513 2565 2632 2515 2438 2494 2567
8 2565 2493 2566 2633 2494 2416 2495 2568
8 2567 2494 2568 2635 2496 2417 2497 2570
8 2568 2495 2569 2636 2497 2418 2498 2571
8 2570 2497 2571 2638 2499 2420 2500 2573
8 2571 2498 2572 2639 2500 2421 2501 2574
8 2573 2500 2574 2641 2502 2423 2503 2576
8 2574 2501 2575 2642 2503 2424 2504 2577
8 2576 2503 2577 2643 2505 2426 2506 2578
8 2597 2528 2579 2645 2529 2454 2508 2580
8 2580 2508 2579 2645 2525 2448 2522 2593
8 2581 2509 2455 2530 2646 2580 2529 2598
8 2581 2509 2580 2646 2526 2449 2525 2595
8 2583 2511 2582 2648 2513 2434 2512 2585
8 2583 2511 2439 2516 2648 2582 2517 2589
8 2649 2583 2513 2586 2588 2516 2438 2515
8 2589 2517 2444 2520 2653 2587 2521 2592
8 2518 2442 2520 2591 2588 2516 2589 2654
8 2593 2522 2590 2655 2523 2445 2521 2592
8 2524 2446 2523 2594 2591 2520 2592 2656
8 2595 2525 2593 2657 2527 2452 2523 2594
8 2602 2536 2596 2659 2534 2462 2528 2597
8 2600 2534 2597 2660 2532 2460 2529 2598
8 2600 2534 2460 2532 2661 2601 2533 2599
8 2604 2538 2601 2661 2537 2464 2533 2599
8 2602 2536 2462 2534 2663 2603 2535 2601
8 2601 2535 2465 2538 2663 2603 2539 2605
8 2607 2541 2605 2665 2540 2467 2538 2604
8 2608 2542 2606 2666 2541 2468 2539 2605
8 2543 2470 2544 2610 2607 2541 2608 2668
8 2544 2471 2545 2611 2608 2542 2609 2669
8 2546 2473 2547 2613 2610 2544 2611 2671
8 2547 2474 2548 2614 2611 2545 2612 2672
8 2549 2476 2550 2616 2613 2547 2614 2674
8 2550 2477 2551 2617 2614 2548 2615 2675
8 2552 2479 2553 2619 2616 2550 2617 2677
8 2553 2480 2554 2620 2617 2551 2618 2678
8 2557 2482 2556 2624 2619 2553 2620 2680
8 2556 2481 2555 2623 2620 2554 2621 2681
8 2559 2484 2558 2625 2623 2555 2622 2683
8 2560 2485 2559 2626 2624 2556 2623 2684
8 2562 2488 2561 2627 2626 2559 2625 2685
8 2690 2629 2564 2630 2650 2584 2512 2585
8 2586 2513 2585 2651 2632 2565 2630 2691
8 2630 2564 2631 2692 2565 2493 2566 2633
8 2632 2565 2633 2694 2567 2494 2568 2635
8 2633 2566 2634 2695 2568 2495 2569 2636
8 2635 2568 2636 2697 2570 2497 2571 2638
8 2636 2569 2637 2698 2571 2498 2572 2639
8 2638 2571 2639 2700 2573 2500 2574 2641
8 2639 2572 2640 2701 2574 2501 2575 2642
8 2641 2574 2642 2702 2576 2503 2577 2643
8 2597 2528 2596 2659 2645 2579 2644 2704
8 2645 2579 2644 2704 2593 2522 2590 2655
8 2660 2597 2645 2705 2598 2529 2580 2646
8 2646 2580 2645 2705 2595 2525 2593 2657
8 2650 2584 2512 2585 2707 2647 2582 2648
8 2648 2582 2517 2589 2707 2647 2587 2653
8 2649 2583 2648 2708 2586 2513 2585 2651
8 2649 2583 2516 2588 2708 2648 2589 2654
8 2655 2590 2652 2710 2592 2521 2587 2653
8 2654 2589 2520 2591 2711 2653 2592 2656
8 2657 2593 2655 2712 2594 2523 2592 2656
8 2602 2536 2603 2663 2659 2596 2658 2714
8 2662 2602 2659 2715 2600 2534 2597 2660
8 2662 2602 2534 2600 2717 2663 2601 2661
8 2661 2601 2538 2604 2717 2663 2605 2665
8 2666 2606 2664 2718 2605 2539 2603 2663
8 2668 2608 2666 2720 2607 2541 2605 2665
8 2608 2542 2609 2669 2666 2606 2667 2721
8 2610 2544 2611 2671 2668 2608 2669 2723
8 2611 2545 2612 2672 2669 2609 2670 2724
8 2613 2547 2614 2674 2671 2611 2672 2726
8 2614 2548 2615 2675 2672 2612 2673 2727
8 2616 2550 2617 2677 2674 2614 2675 2729
8 2617 2551 2618 2678 2675 2615 2676 2730
8 2619 2553 2620 2680 2677 2617 2678 2732
8 2620 2554 2621 2681 2678 2618 2679 2733
8 2624 2556 2623 2684 2680 2620 2681 2735
8 2681 2621 2555 2623 2736 2682 2622 2683
8 2626 2559 2625 2685 2684 2623 2683 2737
8 2688 2628 2584 2650 2740 2686 2647 2707
8 2688 2628 2687 2742 2650 2584 2629 2690
8 2690 2629 2689 2745 2630 2564 2631 2692
8 2746 2690 2630 2691 2709 2650 2585 2651
8 2691 2630 2692 2747 2632 2565 2633 2694
8 2692 2631 2693 2748 2633 2566 2634 2695
8 2694 2633 2695 2750 2635 2568 2636 2697
8 2695 2634 2696 2751 2636 2569 2637 2698
8 2697 2636 2698 2753 2638 2571 2639 2700
8 2698 2637 2699 2754 2639 2572 2640 2701
8 2700 2639 2701 2755 2641 2574 2642 2702
8 2659 2596 2658 2714 2704 2644 2703 2757
8 2704 2644 2703 2757 2655 2590 2652 2710
8 2660 2597 2659 2715 2705 2645 2704 2758
8 2705 2645 2704 2758 2657 2593 2655 2712
8 2759 2706 2647 2707 2710 2652 2587 2653
8 2709 2650 2585 2651 2760 2707 2648 2708
8 2708 2648 2589 2654 2760 2707 2653 2711
8 2712 2655 2710 2761 2656 2592 2653 2711
8 2763 2713 2658 2714 2718 2664 2603 2663
8 2662 2602 2663 2717 2715 2659 2714 2764
8 2720 2666 2718 2767 2665 2605 2663 2717
8 2768 2719 2664 2718 2721 2667 2606 2666
8 2668 2608 2669 2723 2720 2666 2721 2770
8 2669 2609 2670 2724 2721 2667 2722 2771
8 2671 2611 2672 2726 2723 2669 2724 2773
8 2672 2612 2673 2727 2724 2670 2725 2774
8 2674 2614 2675 2729 2726 2672 2727 2776
8 2675 2615 2676 2730 2727 2673 2728 2777
8 2677 2617 2678 2732 2729 2675 2730 2779
8 2678 2618 2679 2733 2730 2676 2731 2780
8 2680 2620 2681 2735 2732 2678 2733 2782
8 2733 2679 2621 2681 2783 2734 2682 2736
8 2735 2681 2623 2684 2784 2736 2683 2737
8 2740 2686 2647 2707 2787 2738 2706 2759
8 2688 2628 2686 2740 2742 2687 2739 2789
8 2743 2688 2650 2709 2790 2740 2707 2760
8 2742 2687 2741 2792 2690 2629 2689 2745
8 2743 2688 2742 2793 2709 2650 2690 2746
8 2745 2689 2744 2795 2692 2631 2693 2748
8 2746 2690 2745 2796 2691 2630 2692 2747
8 2747 2692 2748 2797 2694 2633 2695 2750
8 2748 2693 2749 2798 2695 2634 2696 2751
8 2750 2695 2751 2800 2697 2636 2698 2753
8 2751 2696 2752 2801 2698 2637 2699 2754
8 2753 2698 2754 2802 2700 2639 2701 2755
8 2763 2713 2756 2804 2714 2658 2703 2757
8 2759 2706 2652 2710 2804 2756 2703 2757
8 2715 2659 2714 2764 2758 2704 2757 2805
8 2758 2704 2757 2805 2712 2655 2710 2761
8 2806 2759 2707 2760 2761 2710 2653 2711
8 2765 2716 2762 2808 2718 2664 2713 2763
8 2809 2763 2714 2764 2767 2718 2663 2717
8 2765 2716 2664 2718 2811 2766 2719 2768
8 2813 2768 2718 2767 2770 2721 2666 2720
8 2814 2769 2719 2768 2771 2722 2667 2721
8 2723 2669 2724 2773 2770 2721 2771 2816
8 2724 2670 2725 2774 2771 2722 2772 2817
8 2726 2672 2727 2776 2773 2724 2774 2819
8 2727 2673 2728 2777 2774 2725 2775 2820
8 2729 2675 2730 2779 2776 2727 2777 2822
8 2730 2676 2731 2780 2777 2728 2778 2823
8 2732 2678 2733 2782 2779 2730 2780 2825
8 2780 2731 2679 2733 2826 2781 2734 2783
8 2782 2733 2681 2735 2827 2783 2736 2784
8 2830 2785 2738 2787 2804 2756 2706 2759
8 2789 2739 2686 2740 2832 2786 2738 2787
8 2790 2740 2707 2760 2833 2787 2759 2806
8 2742 2687 2739 2789 2792 2741 2788 2835
8 2743 2688 2740 2790 2793 2742 2789 2836
8 2792 2741 2791 2838 2745 2689 2744 2795
8 2793 2742 2792 2839 2746 2690 2745 2796
8 2795 2744 2794 2841 2748 2693 2749 2798
8 2796 2745 2795 2842 2747 2692 2748 2797
8 2797 2748 2798 2843 2750 2695 2751 2800
8 2798 2749 2799 2844 2751 2696 2752 2801
8 2800 2751 2801 2845 2753 2698 2754 2802
8 2808 2762 2803 2847 2763 2713 2756 2804
8 2809 2763 2804 2848 2764 2714 2757 2805
8 2806 2759 2710 2761 2848 2804 2757 2805
8 2765 2716 2766 2811 2808 2762 2807 2850
8 2810 2765 2808 2851 2767 2718 2763 2809
8 2810 2765 2718 2767 2852 2811 2768 2813
8 2811 2766 2719 2768 2853 2812 2769 2814
8 2855 2814 2768 2813 2816 2771 2721 2770
8 2856 2815 2769 2814 2817 2772 2722 2771
8 2773 2724 2774 2819 2816 2771 2817 2858
8 2774 2725 2775 2820 2817 2772 2818 2859
8 2776 2727 2777 2822 2819 2774 2820 2861
8 2777 2728 2778 2823 2820 2775 2821 2862
8 2779 2730 2780 2825 2822 2777 2823 2864
8 2823 2778 2731 2780 2865 2824 2781 2826
8 2825 2780 2733 2782 2866 2826 2783 2827
8 2869 2828 2785 2830 2847 2803 2756 2804
8 2871 2829 2786 2832 2830 2785 2738 2787
8 2872 2830 2787 2833 2848 2804 2759 2806
8 2789 2739 2786 2832 2835 2788 2831 2874
8 2836 2789 2740 2790 2875 2832 2787 2833
8 2792 2741 2788 2835 2838 2791 2834 2877
8 2793 2742 2789 2836 2839 2792 2835 2878
8 2838 2791 2837 2880 2795 2744 2794 2841
8 2839 2792 2838 2881 2796 2745 2795 2842
8 2841 2794 2840 2882 2798 2749 2799 2844
8 2842 2795 2841 2883 2797 2748 2798 2843
8 2843 2798 2844 2884 2800 2751 2801 2845
8 2886 2846 2803 2847 2850 2807 2762 2808
8 2851 2808 2847 2887 2809 2763 2804 2848
8 2850 2807 2766 2811 2889 2849 2812 2853
8 2810 2765 2811 2852 2851 2808 2850 2890
8 2852 2811 2768 2813 2891 2853 2814 2855
8 2853 2812 2769 2814 2892 2854 2815 2856
8 2894 2856 2814 2855 2858 2817 2771 2816
8 2817 2772 2818 2859 2856 2815 2857 2895
8 2819 2774 2820 2861 2858 2817 2859 2897
8 2820 2775 2821 2862 2859 2818 2860 2898
8 2822 2777 2823 2864 2861 2820 2862 2900
8 2823 2778 2824 2865 2862 2821 2863 2901
8 2864 2823 2780 2825 2902 2865 2826 2866
8 2904 2867 2828 2869 2886 2846 2803 2847
8 2869 2828 2868 2906 2830 2785 2829 2871
8 2907 2869 2830 2872 2887 2847 2804 2848
8 2871 2829 2870 2909 2832 2786 2831 2874
8 2910 2871 2832 2875 2872 2830 2787 2833
8 2835 2788 2831 2874 2877 2834 2873 2912
8 2836 2789 2832 2875 2878 2835 2874 2913
8 2877 2834 2876 2915 2838 2791 2837 2880
8 2839 2792 2835 2878 2881 2838 2877 2916
8 2880 2837 2879 2917 2841 2794 2840 2882
8 2881 2838 2880 2918 2842 2795 2841 2883
8 2883 2841 2882 2919 2843 2798 2844 2884
8 2921 2885 2846 2886 2889 2849 2807 2850
8 2922 2886 2847 2887 2890 2850 2808 2851
8 2889 2849 2812 2853 2924 2888 2854 2892
8 2890 2850 2811 2852 2925 2889 2853 2891
8 2891 2853 2814 2855 2926 2892 2856 2894
8 2892 2854 2815 2856 2927 2893 2857 2895
8 2858 2817 2859 2897 2894 2856 2895 2929
8 2859 2818 2860 2898 2895 2857 2896 2930
8 2861 2820 2862 2900 2897 2859 2898 2932
8 2862 2821 2863 2901 2898 2860 2899 2933
8 2864 2823 2865 2902 2900 2862 2901 2934
8 2904 2867 2846 2886 2936 2903 2885 2921
8 2904 2867 2903 2936 2869 2828 2868 2906
8 2937 2904 2869 2907 2922 2886 2847 2887
8 2906 2868 2905 2939 2871 2829 2870 2909
8 2907 2869 2906 2940 2872 2830 2871 2910
8 2909 2870 2908 2942 2874 2831 2873 2912
8 2910 2871 2909 2943 2875 2832 2874 2913
8 2912 2873 2911 2945 2877 2834 2876 2915
8 2878 2835 2874 2913 2916 2877 2912 2946
8 2915 2876 2914 2947 2880 2837 2879 2917
8 2916 2877 2915 2948 2881 2838 2880 2918
8 2918 2880 2917 2949 2883 2841 2882 2919
8 2921 2885 2849 2889 2951 2920 2888 2924
8 2952 2921 2886 2922 2925 2889 2850 2890
8 2924 2888 2854 2892 2954 2923 2893 2927
8 2925 2889 2853 2891 2955 2924 2892 2926
8 2926 2892 2856 2894 2956 2927 2895 2929
8 2895 2857 2896 2930 2927 2893 2928 2957
8 2897 2859 2898 2932 2929 2895 2930 2959
8 2898 2860 2899 2933 2930 2896 2931 2960
8 2900 2862 2901 2934 2932 2898 2933 2961
8 2936 2903 2885 2921 2963 2935 2920 2951
8 2936 2903 2935 2963 2906 2868 2905 2939
8 2937 2904 2886 2922 2964 2936 2921 2952
8 2937 2904 2936 2964 2907 2869 2906 2940
8 2939 2905 2938 2966 2909 2870 2908 2942
8 2940 2906 2939 2967 2910 2871 2909 2943
8 2942 2908 2941 2969 2912 2873 2911 2945
8 2943 2909 2942 2970 2913 2874 2912 2946
8 2945 2911 2944 2971 2915 2876 2914 2947
8 2946 2912 2945 2972 2916 2877 2915 2948
8 2948 2915 2947 2973 2918 2880 2917 2949
8 2951 2920 2888 2924 2975 2950 2923 2954
8 2952 2921 2889 2925 2976 2951 2924 2955
8 2927 2893 2928 2957 2954 2923 2953 2978
8 2955 2924 2892 2926 2979 2954 2927 2956
8 2929 2895 2930 2959 2956 2927 2957 2980
8 2930 2896 2931 2960 2957 2928 2958 2981
8 2932 2898 2933 2961 2959 2930 2960 2982
8 2951 2920 2950 2975 2963 2935 2962 2984
8 2963 2935 2962 2984 2939 2905 2938 2966
8 2964 2936 2921 2952 2985 2963 2951 2976
8 2964 2936 2963 2985 2940 2906 2939 2967
8 2966 2938 2965 2987 2942 2908 2941 2969
8 2967 2939 2966 2988 2943 2909 2942 2970
8 2969 2941 2968 2989 2945 2911 2944 2971
8 2970 2942 2969 2990 2946 2912 2945 2972
8 2972 2945 2971 2991 2948 2915 2947 2973
8 2954 2923 2953 2978 2975 2950 2974 2993
8 2976 2951 2924 2955 2994 2975 2954 2979
8 2957 2928 2958 2981 2978 2953 2977 2995
8 2956 2927 2957 2980 2979 2954 2978 2996
8 2959 2930 2960 2982 2980 2957 2981 2997
8 2984 2962 2983 2999 2966 2938 2965 2987
8 2975 2950 2974 2993 2984 2962 2983 2999
8 2976 2951 2975 2994 2985 2963 2984 3000
8 2985 2963 2984 3000 2967 2939 2966 2988
8 2987 2965 2986 3001 2969 2941 2968 2989
8 2988 2966 2987 3002 2970 2942 2969 2990
8 2990 2969 2989 3003 2972 2945 2971 2991
8 2978 2953 2977 2995 2993 2974 2992 3004
8 2979 2954 2978 2996 2994 2975 2993 3005
8 2980 2957 2981 2997 2996 2978 2995 3006
8 2974 2993 2999 2983 2992 3004 3007 2998
8 2983 2999 2987 2965 2998 3007 3001 2986
8 3000 2984 2999 3008 2988 2966 2987 3002
8 2994 2975 2993 3005 3000 2984 2999 3008
8 3002 2987 3001 3009 2990 2969 2989 3003
8 2996 2978 2995 3006 3005 2993 3004 3010
8 3005 2993 3004 3010 3008 2999 3007 3011
8 3008 2999 3007 3011 3002 2987 3001 3009

CELL_TYPES 1910
12
12
12
12
12
12
12
12
12
12
12
12
12
12
12
12
12
12
12
12
12
12
12
12
12
12
12
12
12
12
12
12
12
12
12
12
12
12
12
12
12
12
12
12
12
12
12
12
12
12
12
12
12
12
12
12
12
12
12
12
12
12
12
12
12
12
12
12
12
12
12
12
12
12
12
12
12
12
12
12
12
12
12
12
12
12
12
12
12
12
12
12
12
12
12
12
12
12
12
12
12
12
12
12
12
12
12
12
12
12
12
12
12
12
12
12
12
12
12
12
12
12
12
12
12
12
12
12
12
12
12
12
12
12
12
12
12
12
12
12
12
12
12
12
12
12
12
12
12
12
12
12
12
12
12
12
12
12
12
12
12
12
12
12
12
12
12
12
12
12
12
12
12
12
12
12
12
12
12
12
12
12
12
12
12
12
12
12
12
12
12
12
12
12
12
12
12
12
12
12
12
12
12
12
12
12
12
12
12
12
12
12
12
12
12
12
12
12
12
12
12
12
12
12
12
12
12
12
12
12
12
12
12
12
12
12
12
12
12
12
12
12
12
12
12
12
12
12
12
12
12
12
12
12
12
12
12
12
12
12
12
12
12
12
12
12
12
12
12
12
12
12
12
12
12
12
12
12
12
12
12
12
12
12
12
12
12
12
12
12
12
12
12
12
12
12
12
12
12
12
12
12
12
12
12
12
12
12
12
12
12
12
12
12
12
12
12
12
12
12
12
12
12
12
12
12
12
12
12
12
12
12
12
12
12
12
12
12
12
12
12
12
12
12
12
12
12
12
12
12
12
12
12
12
12
12
12
12
12
12
12
12
12
12
12
12
12
12
12
12
12
12
12
12
12
12
12
12
12
12
12
12
12
12
12
12
12
12
12
12
12
12
12
12
12
12
12
12
12
12
12
12
12
12
12
12
12
12
12
12
12
12
12
12
12
12
12
12
12
12
12
12
12
12
12
12
12
12
12
12
12
12
12
12
12
12
12
12
12
12
12
12
12
12
12
12
12
12
12
12
12
12
12
12
12
12
12
12
12
12
12
12
12
12
12
12
12
12
12
12
12
12
12
12
12
12
12
12
12
12
12
12
12
12
12
12
12
12
12
12
12
12
12
12
12
12
12
12
12
12
12
12
12
12
12
12
12
12
12
12
12
12
12
12
12
12
12
12
12
12
12
12
12
12
12
12
12
12
12
12
12
12
12
12
12
12
12
12
12
12
12
12
12
12
12
12
12
12
12
12
12
12
12
12
12
12
12
12
12
12
12
12
12
12
12
12
12
12
12
12
12
12
12
12
12
12
12
12
12
12
12
12
12
12
12
12
12
12
12
12
12
12
12
12
12
12
12
12
12
12
12
12
12
12
12
12
12
12
12
12
12
12
12
12
12
12
12
12
12
12
12
12
12
12
12
12
12
12
12
12
12
12
12
12
12
12
12
12
12
12
12
12
12
12
12
12
12
12
12
12
12
12
12
12
12
12
12
12
12
12
12
12
12
12
12
12
12
12
12
12
12
12
12
12
12
12
12
12
12
12
12
12
12
12
12
12
12
12
12
12
12
12
12
12
12
12
12
12
12
12
12
12
12
12
12
12
12
12
12
12
12
12
12
12
12
12
12
12
12
12
12
12
12
12
12
12
12
12
12
12
12
12
12
12
12
12
12
12
12
12
12
12
12
12
12
12
12
12
12
12
12
12
12
12
12
12
12
12
12
12
12
12
12
12
12
12
12
12
12
12
12
12
12
12
12
12
12
12
12
12
12
12
12
12
12
12
12
12
12
12
12
12
12
12
12
12
12
12
12
12
12
12
12
12
12
12
12
12
12
12
12
12
12
12
12
12
12
12
12
12
12
12
12
12
12
12
12
12
12
12
12
12
12
12
12
12
12
12
12
12
12
12
12
12
12
12
12
12
12
12
12
12
12
12
12
12
12
12
12
12
12
12
12
12
12
12
12
12
12
12
12
12
12
12
12
12
12
12
12
12
12
12
12
12
12
12
12
12
12
12
12
12
12
12
12
12
12
12
12
12
12
12
12
12
12
12
12
12
12
12
12
12
12
12
12
12
12
12
12
12
12
12
12
12
12
12
12
12
12
12
12
12
12
12
12
12
12
12
12
12
12
12
12
12
12
12
12
12
12
12
12
12
12
12
12
12
12
12
12
12
12
12
12
12
12
12
12
12
12
12
12
12
12
12
12
12
12
12
12
12
12
12
12
12
12
12
12
12
12
12
12
12
12
12
12
12
12
12
12
12
12
12
12
12
12
12
12
12
12
12
12
12
12
12
12
12
12
12
12
12
12
12
12
12
12
12
12
12
12
12
12
12
12
12
12
12
12
12
12
12
12
12
12
12
12
12
12
12
12
12
12
12
12
12
12
12
12
12
12
12
12
12
12
12
12
12
12
12
12
12
12
12
12
12
12
12
12
12
12
12
12
12
12
12
12
12
12
12
12
12
12
12
12
12
12
12
12
12
12
12
12
12
12
12
12
12
12
12
12
12
12
12
12
12
12
12
12
12
12
12
12
12
12
12
12
12
12
12
12
12
12
12
12
12
12
12
12
12
12
12
12
12
12
12
12
12
12
12
12
12
12
12
12
12
12
12
12
12
12
12
12
12
12
12
12
12
12
12
12
12
12
12
12
12
12
12
12
12
12
12
12
12
12
12
12
12
12
12
12
12
12
12
12
12
12
12
12
12
12
12
12
12
12
12
12
12
12
12
12
12
12
12
12
12
12
12
12
12
12
12
12
12
12
12
12
12
12
12
12
12
12
12
12
12
12
12
12
12
12
12
12
12
12
12
12
12
12
12
12
12
12
12
12
12
12
12
12
12
12
12
12
12
12
12
12
12
12
12
12
12
12
12
12
12
12
12
12
12
12
12
12
12
12
12
12
12
12
12
12
12
12
12
12
12
12
12
12
12
12
12
12
12
12
12
12
12
12
12
12
12
12
12
12
12
12
12
12
12
12
12
12
12
12
12
12
12
12
12
12
12
12
12
12
12
12
12
12
12
12
12
12
12
12
12
12
12
12
12
12
12
12
12
12
12
12
12
12
12
12
12
12
12
12
12
12
12
12
12
12
12
12
12
12
12
12
12
12
12
12
12
12
12
12
12
12
12
12
12
12
12
12
12
12
12
12
12
12
12
12
12
12
12
12
12
12
12
12
12
12
12
12
12
12
12
12
12
12
12
12
12
12
12
12
12
12
12
12
12
12
12
12
12
12
12
12
12
12
12
12
12
12
12
12
12
12
12
12
12
12
12
12
12
12
12
12
12
12
12
12
12
12
12
12
12
12
12
12
12
12
12
12
12
12
12
12
12
12
12
12
12
12
12
12
12
12
12
12
12
12
12
12
12
12
12
12
12
12
12
12
12
12
12
12
12
12
12
12
12
12
12
12
12
12
12
12
12
12
12
12
12
12
12
12
12
12
12
12
12
12
12
12
12
12
12
12
12
12
12
12
12
12
12
12
12
12
12
12
12
12
12
12
12
12
12
12
12
12
12
12
12
12
12
12
12
12
12
12
12
12
12
12
12
12
12
12
12
12
12
12
12
12
12
12
12
12
12
12
12
12
12
12
12
12
12
12
12
12
12
12
12
12
12
12
12
12
12
12
12
12
12
12
12
12
12
12
12
12
12
12
12
12
12
12
12
12
12
12
12
12
12
12
12
12
12
12
12
12
12
12
12
12
12
12
12
12
12
12
12
12
12
12
12
12
12
12
12
12
12
12
12
12
12
12
12
12
12
12
12
12
12
12
12
12
12
12
12
12
12
12
12
12
12
12
12
12
12
12
12
12
12
12
12
12
12
12
12
12
12
12
12
12
12
12
12
12
12
12
12
12
12
12
12
12
12
12
12
12
12
12
12
12
12
12
12
12
12
12
12
12
12
12
12
12
12
12
12
12
12
12
12
12
12
12
12
12
12
12
12
12
12
12
12
12
12
12
12
12
12
12
12
12
12
12
12
12
12
12
12
12
12
12
12
12
12
12
12
12
12
12
12
12
12
12
12
12
12
12
12
12
12
12
12
12
12
12
12
12
12
12
12
12
12
12
12
12
12
12
12
12
12
12
12
12
12
12
12
12
12
12
12
12
12
12
12
12
12
12
12
12
12
12
12
12
12
12
12
12
12
12
12
12
12
12
12
12
12
12
12
12
12
12
12
12
12
12
12
12
12
12
12
12
12
12
12
12
12
12
12
12
12
12
12
12
12
12
12
12
12
12
12
12
12
12
12
12
12
12
12
12
12
12
12
12
12
12
12
12
12
12
12
12
12
12
12
12
12
12
12
12
12

POINT_DATA 3012
SCALARS Jp_lamdaP float 4
LOOKUP_TABLE default
1 1 1 1
1 1 1 1
1 1 1 1
1 1 1 1
1 1 1 1
1 1 1 1
0.999976 1 1 0.999976
1 1 1 1
1 1 1 1
1 1 1 1
1 1 1 1
1 1 1 1
1 1 1 1
1 1 1 1
1 1 1 1
1 1 1 1
1 1 1 1
1 1 1 1
0.999977 1 1 0.999977
1 1 1 1
1 1 1 1
1 1 1 1
0.999951 1 1 0.999951
0.99997 1 1 0.99997
1 1 1 1
0.999983 1 1 0.999983
0.999913 1 1 0.999913
1 1 1 1
1 1 1 1
1 1 1 1
1 1 1 1
1 1 1 1
1 1 1 1
1 1 1 1
0.999988 1 1 0.999988
1 1 1 1
0.999998 1 1 0.999998
1 1 1 1
0.999931 1 1 0.999931
1 1 1 1
1 1 1 1
1 1 1 1
1 1 1 1
1 1 1 1
0.999965 1 1 0.999965
1 1 1 1
0.999975 1 1 0.999975
1 1 1 1
1 1 1 1
1 1 1 1
0.999977 1 1 0.999977
1 1 1 1
1 1 1 1
1 1 1 1
1 1 1 1
0.999951 1 1 0.999951
0.999984 1 1 0.999984
0.99997 1 1 0.99997
0.999911 1 1 0.999911
1 1 1 1
1 1 1 1
0.999967 1 1 0.999967
0.999943 1 1 0.999943
0.999961 1 1 0.999961
0.999851 1 1 0.999851
0.999886 1 1 0.999886
1 1 1 1
0.999988 1 1 0.999988
0.99993 1 1 0.99993
0.999808 1 1 0.999808
1 1 1 1
1 1 1 1
1 1 1 1
1 1 1 1
1 1 1 1
1 1 1 1
0.99999 1 1 0.99999
1 1 1 1
0.999999 1 1 0.999999
1 1 1 1
0.999931 1 1 0.999931
1 1 1 1
1 1 1 1
0.999982 1 1 0.999982
0.999994 1 1 0.999994
0.999878 1 1 0.999878
1 1 1 1
0.999921 1 1 0.999921
0.999942 1 1 0.999942
0.999849 1 1 0.999849
1 1 1 1
1 1 1 1
1 1 1 1
1 1 1 1
1 1 1 1
1 1 1 1
0.999966 1 1 0.999966
1 1 1 1
0.999976 1 1 0.999976
1 1 1 1
0.999961 1 1 0.999961
0.99997 1 1 0.99997
0.999801 1 1 0.999801
0.999978 1 1 0.999978
0.999824 1 1 0.999824
1 1 1 1
1 1 1 1
1 1 1 1
1 1 1 1
0.999952 1 1 0.999952
0.99997 1 1 0.99997
0.999985 1 1 0.999985
0.999909 1 1 0.999909
1 1 1 1
1 1 1 1
0.999953 1 1 0.999953
0.999944 1 1 0.999944
1 1 1 1
0.999994 1 1 0.999994
0.999962 1 1 0.999962
0.999844 1 1 0.999844
0.999928 1 1 0.999928
0.999891 1 1 0.999891
0.999808 1 1 0.999808
0.999964 1 1 0.999964
0.999942 1 1 0.999942
0.999813 1 1 0.999813
0.999824 1 1 0.999824
0.999864 1 1 0.999864
0.999752 1 1 0.999752
1 1 1 1
0.999796 1 1 0.999796
1 1 1 1
0.999935 1 1 0.999935
0.99982 1 1 0.99982
0.999766 1 1 0.999766
1 1 1 1
0.999953 1 1 0.999953
1 1 1 1
1 1 1 1
0.999992 1 1 0.999992
1 1 1 1
1 1 1 1
0.999999 1 1 0.999999
0.999931 1 1 0.999931
1 1 1 1
1 1 1 1
0.999984 1 1 0.999984
0.999996 1 1 0.999996
0.999878 1 1 0.999878
1 1 1 1
0.999921 1 1 0.999921
0.999942 1 1 0.999942
0.999846 1 1 0.999846
1 1 1 1
1 1 1 1
0.99996 1 1 0.99996
0.999855 1 1 0.999855
0.999903 1 1 0.999903
0.999789 1 1 0.999789
0.999953 1 1 0.999953
0.999837 1 1 0.999837
0.999855 1 1 0.999855
0.999811 1 1 0.999811
1 1 1 1
1 1 1 1
1 1 1 1
1 1 1 1
1 1 1 1
1 1 1 1
1 1 1 1
0.999977 1 1 0.999977
0.999968 1 1 0.999968
1 1 1 1
1 1 1 1
0.999962 1 1 0.999962
0.999972 1 1 0.999972
0.999801 1 1 0.999801
0.999979 1 1 0.999979
0.999825 1 1 0.999825
0.999961 1 1 0.999961
0.999792 1 1 0.999792
0.999813 1 1 0.999813
0.999721 1 1 0.999721
0.999838 1 1 0.999838
0.999744 1 1 0.999744
1 1 1 1
1 1 1 1
0.999939 1 1 0.999939
0.999944 1 1 0.999944
1 1 1 1
1 1 1 1
0.999962 1 1 0.999962
0.999837 1 1 0.999837
0.999896 1 1 0.999896
0.999925 1 1 0.999925
0.999809 1 1 0.999809
0.999963 1 1 0.999963
0.999942 1 1 0.999942
0.999799 1 1 0.999799
0.999829 1 1 0.999829
1 1 1 1
1 1 1 1
0.999939 1 1 0.999939
0.999864 1 1 0.999864
0.999744 1 1 0.999744
0.999818 1 1 0.999818
0.9998 1 1 0.9998
0.999767 1 1 0.999767
1 1 1 1
0.999953 1 1 0.999953
0.999794 1 1 0.999794
0.999817 1 1 0.999817
0.999723 1 1 0.999723
0.999718 1 1 0.999718
0.999783 1 1 0.999783
0.999713 1 1 0.999713
1 1 1 1
0.999759 1 1 0.999759
0.999944 1 1 0.999944
0.999836 1 1 0.999836
0.999777 1 1 0.999777
0.999756 1 1 0.999756
0.99995 1 1 0.99995
0.999961 1 1 0.999961
0.999853 1 1 0.999853
0.999985 1 1 0.999985
1 1 1 1
1 1 1 1
0.999997 1 1 0.999997
0.999878 1 1 0.999878
1 1 1 1
0.999943 1 1 0.999943
0.999922 1 1 0.999922
0.999843 1 1 0.999843
1 1 1 1
1 1 1 1
0.99996 1 1 0.99996
0.999855 1 1 0.999855
0.999904 1 1 0.999904
0.999789 1 1 0.999789
0.999953 1 1 0.999953
0.99984 1 1 0.99984
0.999854 1 1 0.999854
0.999807 1 1 0.999807
1 1 1 1
0.999958 1 1 0.999958
0.999965 1 1 0.999965
0.999867 1 1 0.999867
0.999769 1 1 0.999769
0.999818 1 1 0.999818
0.999745 1 1 0.999745
0.999863 1 1 0.999863
0.999799 1 1 0.999799
0.9998 1 1 0.9998
0.999781 1 1 0.999781
0.999985 1 1 0.999985
1 1 1 1
1 1 1 1
1 1 1 1
1 1 1 1
1 1 1 1
1 1 1 1
1 1 1 1
1 1 1 1
0.99998 1 1 0.99998
0.999973 1 1 0.999973
0.999825 1 1 0.999825
0.999801 1 1 0.999801
0.999963 1 1 0.999963
1 1 1 1
0.999961 1 1 0.999961
0.999792 1 1 0.999792
0.999813 1 1 0.999813
0.999721 1 1 0.999721
0.999838 1 1 0.999838
0.999744 1 1 0.999744
0.99979 1 1 0.99979
0.999713 1 1 0.999713
0.999731 1 1 0.999731
0.999694 1 1 0.999694
0.999757 1 1 0.999757
0.999716 1 1 0.999716
0.999962 1 1 0.999962
0.999942 1 1 0.999942
0.999786 1 1 0.999786
0.999833 1 1 0.999833
1 1 1 1
1 1 1 1
0.999943 1 1 0.999943
0.999865 1 1 0.999865
0.999736 1 1 0.999736
0.999804 1 1 0.999804
0.999817 1 1 0.999817
0.999768 1 1 0.999768
1 1 1 1
0.999954 1 1 0.999954
0.999789 1 1 0.999789
0.999817 1 1 0.999817
0.999721 1 1 0.999721
0.999727 1 1 0.999727
1 1 1 1
0.999944 1 1 0.999944
0.999841 1 1 0.999841
0.999783 1 1 0.999783
0.999711 1 1 0.999711
0.999772 1 1 0.999772
0.999759 1 1 0.999759
0.999755 1 1 0.999755
0.99995 1 1 0.99995
0.999849 1 1 0.999849
0.999961 1 1 0.999961
0.999723 1 1 0.999723
0.999719 1 1 0.999719
0.999682 1 1 0.999682
0.999686 1 1 0.999686
0.999744 1 1 0.999744
0.999713 1 1 0.999713
0.999949 1 1 0.999949
0.999752 1 1 0.999752
0.999858 1 1 0.999858
0.999784 1 1 0.999784
0.999744 1 1 0.999744
0.999768 1 1 0.999768
0.999973 1 1 0.999973
0.999858 1 1 0.999858
0.999842 1 1 0.999842
0.999807 1 1 0.999807
0.999855 1 1 0.999855
1 1 1 1
1 1 1 1
0.99996 1 1 0.99996
0.999904 1 1 0.999904
0.999789 1 1 0.999789
0.999953 1 1 0.999953
0.999854 1 1 0.999854
0.999842 1 1 0.999842
0.999803 1 1 0.999803
1 1 1 1
0.999958 1 1 0.999958
0.999965 1 1 0.999965
0.999867 1 1 0.999867
0.999769 1 1 0.999769
0.999819 1 1 0.999819
0.999745 1 1 0.999745
0.999863 1 1 0.999863
0.999803 1 1 0.999803
0.999799 1 1 0.999799
0.999788 1 1 0.999788
1 1 1 1
0.999971 1 1 0.999971
0.999867 1 1 0.999867
0.999868 1 1 0.999868
0.999807 1 1 0.999807
0.999733 1 1 0.999733
0.999775 1 1 0.999775
0.99973 1 1 0.99973
0.999804 1 1 0.999804
0.999776 1 1 0.999776
0.999746 1 1 0.999746
0.999981 1 1 0.999981
0.999897 1 1 0.999897
0.999988 1 1 0.999988
0.999986 1 1 0.999986
1 1 1 1
1 1 1 1
1 1 1 1
1 1 1 1
1 1 1 1
1 1 1 1
1 1 1 1
1 1 1 1
1 1 1 1
1 1 1 1
1 1 1 1
0.999838 1 1 0.999838
0.999813 1 1 0.999813
0.999745 1 1 0.999745
0.99972 1 1 0.99972
0.999792 1 1 0.999792
0.99996 1 1 0.99996
0.99979 1 1 0.99979
0.999713 1 1 0.999713
0.999731 1 1 0.999731
0.999694 1 1 0.999694
0.999757 1 1 0.999757
0.999716 1 1 0.999716
0.999711 1 1 0.999711
0.999692 1 1 0.999692
0.999702 1 1 0.999702
0.999688 1 1 0.999688
0.999728 1 1 0.999728
0.999725 1 1 0.999725
0.999783 1 1 0.999783
0.999817 1 1 0.999817
0.99972 1 1 0.99972
0.999735 1 1 0.999735
1 1 1 1
0.999943 1 1 0.999943
0.999846 1 1 0.999846
0.999784 1 1 0.999784
0.999709 1 1 0.999709
0.999759 1 1 0.999759
0.999766 1 1 0.999766
0.999755 1 1 0.999755
0.999951 1 1 0.999951
0.999846 1 1 0.999846
0.999961 1 1 0.999961
0.999718 1 1 0.999718
0.999719 1 1 0.999719
0.999678 1 1 0.999678
0.999688 1 1 0.999688
0.999949 1 1 0.999949
0.999858 1 1 0.999858
0.999789 1 1 0.999789
0.999746 1 1 0.999746
0.999716 1 1 0.999716
0.999739 1 1 0.999739
0.999753 1 1 0.999753
0.999771 1 1 0.999771
0.999859 1 1 0.999859
0.999802 1 1 0.999802
0.999972 1 1 0.999972
0.999843 1 1 0.999843
0.99968 1 1 0.99968
0.999674 1 1 0.999674
0.999656 1 1 0.999656
0.999683 1 1 0.999683
0.999745 1 1 0.999745
0.999729 1 1 0.999729
0.999862 1 1 0.999862
0.999776 1 1 0.999776
0.999806 1 1 0.999806
0.999745 1 1 0.999745
0.999724 1 1 0.999724
0.999774 1 1 0.999774
0.999981 1 1 0.999981
0.99985 1 1 0.99985
0.999812 1 1 0.999812
0.999787 1 1 0.999787
0.999781 1 1 0.999781
1 1 1 1
0.999768 1 1 0.999768
0.999965 1 1 0.999965
0.999958 1 1 0.999958
0.999866 1 1 0.999866
0.999819 1 1 0.999819
0.999745 1 1 0.999745
0.999863 1 1 0.999863
0.999797 1 1 0.999797
0.999807 1 1 0.999807
0.999796 1 1 0.999796
1 1 1 1
0.999971 1 1 0.999971
0.999867 1 1 0.999867
0.999868 1 1 0.999868
0.999805 1 1 0.999805
0.999732 1 1 0.999732
0.999775 1 1 0.999775
0.999728 1 1 0.999728
0.999804 1 1 0.999804
0.999779 1 1 0.999779
0.99975 1 1 0.99975
0.999976 1 1 0.999976
0.999872 1 1 0.999872
0.999806 1 1 0.999806
0.999805 1 1 0.999805
0.99978 1 1 0.99978
0.999726 1 1 0.999726
0.999753 1 1 0.999753
0.999744 1 1 0.999744
0.999754 1 1 0.999754
0.999721 1 1 0.999721
0.999982 1 1 0.999982
0.999875 1 1 0.999875
0.999891 1 1 0.999891
0.999832 1 1 0.999832
0.999904 1 1 0.999904
0.999991 1 1 0.999991
0.999989 1 1 0.999989
1 1 1 1
0.999987 1 1 0.999987
1 1 1 1
1 1 1 1
1 1 1 1
1 1 1 1
1 1 1 1
1 1 1 1
1 1 1 1
1 1 1 1
1 1 1 1
1 1 1 1
1 1 1 1
0.999756 1 1 0.999756
0.999731 1 1 0.999731
0.999716 1 1 0.999716
0.999694 1 1 0.999694
0.999713 1 1 0.999713
0.99979 1 1 0.99979
0.999711 1 1 0.999711
0.999692 1 1 0.999692
0.999702 1 1 0.999702
0.999686 1 1 0.999686
0.999727 1 1 0.999727
0.999726 1 1 0.999726
0.999687 1 1 0.999687
0.999688 1 1 0.999688
0.999698 1 1 0.999698
0.99968 1 1 0.99968
0.999732 1 1 0.999732
0.99974 1 1 0.99974
0.999713 1 1 0.999713
0.999719 1 1 0.999719
0.999673 1 1 0.999673
0.99969 1 1 0.99969
0.999949 1 1 0.999949
0.999858 1 1 0.999858
0.999795 1 1 0.999795
0.999749 1 1 0.999749
0.999718 1 1 0.999718
0.999753 1 1 0.999753
0.999734 1 1 0.999734
0.999774 1 1 0.999774
0.999859 1 1 0.999859
0.999797 1 1 0.999797
0.999971 1 1 0.999971
0.999843 1 1 0.999843
0.999681 1 1 0.999681
0.999675 1 1 0.999675
0.999654 1 1 0.999654
0.999684 1 1 0.999684
0.999862 1 1 0.999862
0.99981 1 1 0.99981
0.999745 1 1 0.999745
0.999743 1 1 0.999743
0.999737 1 1 0.999737
0.999722 1 1 0.999722
0.999776 1 1 0.999776
0.999782 1 1 0.999782
0.999812 1 1 0.999812
0.999779 1 1 0.999779
0.999786 1 1 0.999786
0.999972 1 1 0.999972
0.999852 1 1 0.999852
0.999664 1 1 0.999664
0.999645 1 1 0.999645
0.999701 1 1 0.999701
0.999763 1 1 0.999763
0.999819 1 1 0.999819
0.999804 1 1 0.999804
0.999771 1 1 0.999771
0.9997 1 1 0.9997
0.99971 1 1 0.99971
0.999972 1 1 0.999972
0.999879 1 1 0.999879
0.999788 1 1 0.999788
0.99979 1 1 0.99979
0.999743 1 1 0.999743
0.999759 1 1 0.999759
1 1 1 1
0.999971 1 1 0.999971
0.999731 1 1 0.999731
0.999868 1 1 0.999868
0.999867 1 1 0.999867
0.999804 1 1 0.999804
0.999775 1 1 0.999775
0.999726 1 1 0.999726
0.999805 1 1 0.999805
0.999754 1 1 0.999754
0.999781 1 1 0.999781
0.999977 1 1 0.999977
0.999872 1 1 0.999872
0.99981 1 1 0.99981
0.999804 1 1 0.999804
0.999777 1 1 0.999777
0.999725 1 1 0.999725
0.999752 1 1 0.999752
0.999746 1 1 0.999746
0.999751 1 1 0.999751
0.999715 1 1 0.999715
0.999878 1 1 0.999878
0.999794 1 1 0.999794
0.999768 1 1 0.999768
0.999763 1 1 0.999763
0.999755 1 1 0.999755
0.999777 1 1 0.999777
0.999716 1 1 0.999716
0.999733 1 1 0.999733
0.999717 1 1 0.999717
0.999658 1 1 0.999658
0.999983 1 1 0.999983
0.99988 1 1 0.99988
0.999803 1 1 0.999803
0.999885 1 1 0.999885
0.999904 1 1 0.999904
0.999822 1 1 0.999822
0.999775 1 1 0.999775
0.999819 1 1 0.999819
0.99991 1 1 0.99991
0.999992 1 1 0.999992
0.999991 1 1 0.999991
1 1 1 1
0.99999 1 1 0.99999
1 1 1 1
1 1 1 1
1 1 1 1
1 1 1 1
1 1 1 1
1 1 1 1
1 1 1 1
1 1 1 1
1 1 1 1
1 1 1 1
1 1 1 1
0.999727 1 1 0.999727
0.999702 1 1 0.999702
0.999726 1 1 0.999726
0.999685 1 1 0.999685
0.999691 1 1 0.999691
0.999711 1 1 0.999711
0.999687 1 1 0.999687
0.999689 1 1 0.999689
0.999696 1 1 0.999696
0.999674 1 1 0.999674
0.999732 1 1 0.999732
0.999746 1 1 0.999746
0.999692 1 1 0.999692
0.999686 1 1 0.999686
0.999696 1 1 0.999696
0.99978 1 1 0.99978
0.999682 1 1 0.999682
0.999677 1 1 0.999677
0.999651 1 1 0.999651
0.999685 1 1 0.999685
0.999863 1 1 0.999863
0.999814 1 1 0.999814
0.999744 1 1 0.999744
0.999741 1 1 0.999741
0.999746 1 1 0.999746
0.999777 1 1 0.999777
0.999719 1 1 0.999719
0.999791 1 1 0.999791
0.999812 1 1 0.999812
0.999777 1 1 0.999777
0.999785 1 1 0.999785
0.999964 1 1 0.999964
0.999854 1 1 0.999854
0.999661 1 1 0.999661
0.999649 1 1 0.999649
0.999704 1 1 0.999704
0.999819 1 1 0.999819
0.999777 1 1 0.999777
0.999698 1 1 0.999698
0.99976 1 1 0.99976
0.999721 1 1 0.999721
0.999802 1 1 0.999802
0.999972 1 1 0.999972
0.99979 1 1 0.99979
0.999763 1 1 0.999763
0.999745 1 1 0.999745
0.99979 1 1 0.99979
0.999872 1 1 0.999872
0.999655 1 1 0.999655
0.999644 1 1 0.999644
0.999735 1 1 0.999735
0.999802 1 1 0.999802
0.999791 1 1 0.999791
0.999753 1 1 0.999753
0.999719 1 1 0.999719
0.999665 1 1 0.999665
0.999979 1 1 0.999979
0.999894 1 1 0.999894
0.999806 1 1 0.999806
0.999724 1 1 0.999724
0.999764 1 1 0.999764
0.999727 1 1 0.999727
0.999978 1 1 0.999978
0.999872 1 1 0.999872
0.999724 1 1 0.999724
0.999804 1 1 0.999804
0.999813 1 1 0.999813
0.999773 1 1 0.999773
0.99975 1 1 0.99975
0.999748 1 1 0.999748
0.999748 1 1 0.999748
0.999709 1 1 0.999709
0.999877 1 1 0.999877
0.999797 1 1 0.999797
0.999773 1 1 0.999773
0.999767 1 1 0.999767
0.999758 1 1 0.999758
0.999781 1 1 0.999781
0.999718 1 1 0.999718
0.999748 1 1 0.999748
0.999713 1 1 0.999713
0.999653 1 1 0.999653
0.999796 1 1 0.999796
0.999743 1 1 0.999743
0.999733 1 1 0.999733
0.999733 1 1 0.999733
0.999788 1 1 0.999788
0.999778 1 1 0.999778
0.999656 1 1 0.999656
0.999855 1 1.00022 0.999632
0.999884 1 1 0.999884
0.999808 1 1 0.999808
0.999763 1 1 0.999763
0.999904 1 1 0.999904
0.999813 1 1 0.999813
0.99991 1 1 0.99991
0.999768 1 1 0.999768
0.999822 1 1 0.999822
0.999733 1 1 0.999733
0.999764 1 1 0.999764
0.999823 1 1 0.999823
0.999912 1 1 0.999912
0.999993 1 1 0.999993
0.999992 1 1 0.999992
1 1 1 1
0.999992 1 1 0.999992
1 1 1 1
1 1 1 1
1 1 1 1
1 1 1 1
1 1 1 1
1 1 1 1
1 1 1 1
1 1 1 1
1 1 1 1
1 1 1 1
1 1 1 1
0.999732 1 1 0.999732
0.999693 1 1 0.999693
0.999752 1 1 0.999752
0.999668 1 1 0.999668
0.999689 1 1 0.999689
0.999687 1 1 0.999687
0.999689 1 1 0.999689
0.999686 1 1 0.999686
0.999701 1 1 0.999701
0.999777 1 1 0.999777
0.99969 1 1 0.99969
0.999695 1 1 0.999695
0.999744 1 1 0.999744
0.999657 1 1 0.999657
0.999653 1 1 0.999653
0.999707 1 1 0.999707
0.999818 1 1 0.999818
0.999783 1 1 0.999783
0.999697 1 1 0.999697
0.999756 1 1 0.999756
0.9998 1 1 0.9998
0.999732 1 1 0.999732
0.999789 1 1 0.999789
0.999766 1 1 0.999766
0.999748 1 1 0.999748
0.999972 1 1 0.999972
0.999793 1 1 0.999793
0.999865 1 1 0.999865
0.999661 1 1 0.999661
0.999643 1 1 0.999643
0.999729 1 1 0.999729
0.99979 1 1 0.99979
0.999726 1 1 0.999726
0.999669 1 1 0.999669
0.999807 1 1 0.999807
0.999752 1 1 0.999752
0.999986 1 1 0.999986
0.999894 1 1 0.999894
0.999763 1 1 0.999763
0.999728 1 1 0.999728
0.999728 1 1 0.999728
0.999801 1 1 0.999801
0.999674 1 1 0.999674
0.999658 1 1 0.999658
0.999805 1 1 0.999805
0.999815 1 1 0.999815
0.999752 1 1 0.999752
0.999805 1 1.00015 0.999659
0.999678 1 1 0.999678
0.999997 1 1 0.999997
0.99993 1 1 0.99993
0.999898 1 1 0.999898
0.999807 1 1 0.999807
0.999737 1 1 0.999737
0.99969 1 1 0.99969
0.999742 1 1 0.999742
0.999701 1 1 0.999701
0.999877 1 1 0.999877
0.9998 1 1 0.9998
0.999785 1 1 0.999785
0.999771 1 1 0.999771
0.999778 1 1 0.999778
0.999761 1 1 0.999761
0.99972 1 1 0.99972
0.999763 1 1 0.999763
0.999708 1 1 0.999708
0.999647 1 1 0.999647
0.999795 1 1 0.999795
0.999748 1 1 0.999748
0.999738 1 1 0.999738
0.999737 1 1 0.999737
0.99979 1 1 0.99979
0.999774 1 1 0.999774
0.999663 1 1 0.999663
0.999704 1 1.00007 0.99963
0.999754 1 1 0.999754
0.99975 1 1 0.99975
0.999714 1 1 0.999714
0.999692 1 1 0.999692
0.999806 1 1 0.999806
0.999641 1 1 0.999641
0.999953 1 1.00036 0.999595
0.999813 1 1 0.999813
0.999763 1 1 0.999763
0.999727 1 1 0.999727
0.999909 1 1 0.999909
0.999826 1 1 0.999826
0.999762 1 1 0.999762
0.999912 1 1 0.999912
0.999823 1 1 0.999823
0.999728 1 1 0.999728
0.999771 1 1 0.999771
0.999703 1 1 0.999703
0.999721 1 1 0.999721
0.999775 1 1 0.999775
0.999831 1 1 0.999831
0.999912 1 1 0.999912
0.999992 1 1 0.999992
0.999993 1 1 0.999993
1 1 1 1
0.999993 1 1 0.999993
1 1 1 1
1 1 1 1
1 1 1 1
1 1 1 1
1 1 1 1
0.999999 1 1 0.999999
1 1 1 1
1 1 1 1
1 1 1 1
1 1 1 1
1 1 1 1
1 1 1 1
0.999774 1 1 0.999774
0.999705 1 1 0.999705
0.999685 1 1 0.999685
0.999686 1 1 0.999686
0.999695 1 1 0.999695
0.99969 1 1 0.99969
0.999754 1 1 0.999754
0.999701 1 1 0.999701
0.999709 1 1 0.999709
0.999784 1 1 0.999784
0.999667 1 1 0.999667
0.999641 1 1 0.999641
0.999723 1 1 0.999723
0.99979 1 1 0.99979
0.999732 1 1 0.999732
0.999674 1 1 0.999674
0.999811 1 1 0.999811
0.999751 1 1 0.999751
0.999763 1 1 0.999763
0.999729 1 1 0.999729
0.999733 1 1 0.999733
0.999992 1 1 0.999992
0.999894 1 1 0.999894
0.999796 1 1 0.999796
0.999671 1 1 0.999671
0.999996 1 1 0.999996
0.999925 1 1 0.999925
0.99966 1 1 0.99966
0.999793 1 1 0.999793
0.999755 1 1 0.999755
0.999672 1 1 0.999672
0.999683 1 1.00002 0.999662
0.999813 1 1 0.999813
0.999911 1 1 0.999911
0.999806 1 1 0.999806
0.999744 1 1 0.999744
0.999707 1 1 0.999707
0.999683 1 1 0.999683
0.999738 1 1 0.999738
0.999657 1 1 0.999657
0.999728 1 1 0.999728
0.999622 1 0.999745 0.999877
0.999718 1 1 0.999718
0.999724 1 1 0.999724
1.00018 1 1.00056 0.999624
0.999928 1 1 0.999928
0.999921 1 1 0.999921
0.999862 1 1 0.999862
0.999809 1 1 0.999809
0.999751 1 1 0.999751
0.99968 1 1 0.99968
0.99965 1 1 0.99965
0.999706 1 1 0.999706
0.999794 1 1 0.999794
0.999754 1 1 0.999754
0.999791 1 1 0.999791
0.999771 1 1 0.999771
0.99974 1 1 0.99974
0.999742 1 1 0.999742
0.99967 1 1 0.99967
0.999628 1 1 0.999628
0.999753 1 1 0.999753
0.999767 1 1 0.999767
0.999714 1 1 0.999714
0.999684 1 1 0.999684
0.999802 1 1 0.999802
0.999643 1 1 0.999643
0.999938 1 1.00035 0.999592
0.999715 1 1 0.999715
0.999525 1.00015 0.999593 0.999783
0.999688 1 1 0.999688
0.999993 1 1.00037 0.999621
0.999642 1 1 0.999642
1.00045 1 1.00089 0.999562
0.986218 1.00405 0.982648 0.999583
0.999763 1 1 0.999763
0.999727 1 1 0.999727
0.999701 1 1 0.999701
0.999912 1 1 0.999912
0.999823 1 1 0.999823
0.999778 1 1 0.999778
0.999723 1 1 0.999723
0.999912 1 1 0.999912
0.999826 1 1 0.999826
0.999701 1 1 0.999701
0.999775 1 1 0.999775
0.999727 1 1 0.999727
0.999683 1 1 0.999683
0.999731 1 1 0.999731
0.999777 1 1 0.999777
0.999818 1 1 0.999818
0.999898 1 1 0.999898
0.999837 1 1 0.999837
0.999897 1 1 0.999897
0.999992 1 1 0.999992
0.999992 1 1 0.999992
1 1 1 1
0.999992 1 1 0.999992
1 1 1 1
1 1 1 1
1 1 1 1
1 1 1 1
1 1 1 1
1 1 1 1
0.999999 1 1 0.999999
1 1 1 1
1 1 1 1
1 1 1 1
1 1 1 1
1 1 1 1
1 1 1 1
0.999765 1 1 0.999765
0.999685 1 1 0.999685
0.9997 1 1 0.9997
0.999702 1 1 0.999702
0.999712 1 1 0.999712
0.999793 1 1 0.999793
0.999722 1 1 0.999722
0.99585 1.00069 0.995318 0.999847
0.999583 1 0.999705 0.999877
0.999946 1 1 0.999946
0.999668 1 1 0.999668
0.999662 1 1 0.999662
0.99978 1 1 0.99978
0.999758 1 1 0.999758
0.999665 1 1 0.999665
0.999665 1 1 0.999665
0.99981 1 1 0.99981
0.999746 1 1 0.999746
0.999714 1 1 0.999714
0.999676 1 1 0.999676
0.999995 1 1 0.999995
0.99974 1 1 0.99974
0.999924 1 1 0.999924
0.999805 1 1 0.999805
0.99992 1 1 0.99992
0.999649 1 1 0.999649
0.999934 1 1 0.999934
0.999921 1 1 0.999921
0.999852 1 1 0.999852
0.99973 1 1 0.99973
0.999529 1 0.99967 0.999859
0.999726 1 1 0.999726
1.00007 1 1.00045 0.999622
0.999721 1 1 0.999721
0.999817 1 1 0.999817
0.999748 1 1 0.999748
0.999705 1 1 0.999705
0.99969 1 1.00003 0.999657
0.999685 1 1 0.999685
0.999682 1 1.00004 0.999637
0.997394 1 0.997551 0.999843
0.999649 1 0.999871 0.999778
1.00004 1 1.0004 0.999634
1.00017 1 1.00048 0.999683
0.999852 1 1 0.999852
0.999827 1 1 0.999827
0.999795 1 1 0.999795
0.999749 1 1 0.999749
0.999703 1 1 0.999703
0.999645 1 1 0.999645
1.00123 1 1.0016 0.999638
0.999753 1 1 0.999753
0.999713 1 1 0.999713
0.999784 1 1 0.999784
0.999798 1 1 0.999798
0.999644 1 1 0.999644
0.999676 1 1 0.999676
0.999813 1 1.00022 0.99959
0.999718 1 1 0.999718
0.999637 1.00015 0.999691 0.999792
0.999688 1 1 0.999688
0.999837 1 1.00022 0.99962
0.999668 1.00001 1 0.999656
1.00106 1 1.00151 0.999559
0.990511 1.00668 0.984321 0.999615
0.999691 1 1 0.999691
1.00017 1.00056 1 0.999611
0.99966 1 1 0.99966
1.00236 1 1.00278 0.999575
1.00039 1 1.00085 0.999545
0.962395 0.96385 1.00004 0.998451
0.988299 1.00115 0.987528 0.999628
0.984949 1.00825 0.977329 0.999555
0.96104 0.968353 0.992689 0.999757
0.966865 0.990383 0.976343 0.999908
0.999727 1 1 0.999727
0.999702 1 1 0.999702
0.999674 1 1 0.999674
0.999912 1 1 0.999912
0.999822 1 1 0.999822
0.999775 1 1 0.999775
0.999733 1 1 0.999733
0.9997 1 1 0.9997
0.999769 1 1 0.999769
0.999904 1 1 0.999904
0.999823 1 1 0.999823
0.999688 1 1 0.999688
0.999729 1 1 0.999729
0.999735 1 1 0.999735
0.999686 1 1 0.999686
0.999755 1 1 0.999755
0.999816 1 1 0.999816
0.999897 1 1 0.999897
0.999831 1 1 0.999831
0.999774 1 1 0.999774
0.999819 1 1 0.999819
0.999827 1 1 0.999827
0.999906 1 1 0.999906
0.999897 1 1 0.999897
0.999991 1 1 0.999991
0.999992 1 1 0.999992
1 1 1 1
0.999992 1 1 0.999992
1 1 1 1
1 1 1 1
1 1 1 1
1 1 1 1
1 1 1 1
1 1 1 1
1 1 1 1
1 1 1 1
0.999998 1 1 0.999998
1 1 1 1
1 1 1 1
1 1 1 1
1 1 1 1
1 1 1 1
0.999716 1 1 0.999716
0.999702 1 1 0.999702
0.999802 1 1 0.999802
0.995266 1.0001 0.995319 0.999844
0.99972 1 1 0.99972
0.99971 1 0.999863 0.999847
0.999716 1 1.00004 0.999678
0.981259 0.984914 0.99692 0.999367
0.999636 1 0.999727 0.999909
0.99995 1 1 0.99995
0.999945 1 1 0.999945
0.999872 1 1 0.999872
0.999882 1 1 0.999882
0.999642 1 1 0.999642
0.999731 1 1 0.999731
0.999458 1 0.999616 0.999842
0.999727 1 1 0.999727
0.999834 1 1.00021 0.999619
0.999724 1 1 0.999724
0.999704 1 1 0.999704
0.999709 1 1.00004 0.999664
0.99969 1 1 0.99969
0.999921 1 1 0.999921
0.999745 1 1 0.999745
0.999824 1 1 0.999824
0.99994 1 1 0.99994
0.999841 1 1 0.999841
0.999682 1 1.00003 0.999647
0.999863 1 1 0.999863
0.999834 1 1 0.999834
0.999797 1 1 0.999797
0.998289 1 0.998446 0.999843
0.99946 1 0.999681 0.99978
1.0002 1 1.00052 0.999682
1 1 1.00037 0.999637
0.999751 1 1 0.999751
0.999706 1 1 0.999706
1.00062 1 1.00098 0.999638
0.999666 1 1.00002 0.999644
0.999736 1 1.00003 0.999706
0.9978 1.00013 0.997844 0.999828
0.999667 1 1.00005 0.999619
1.00028 1 1.00065 0.999637
0.999777 1 1 0.999777
0.999762 1 1 0.999762
0.999673 1 1 0.999673
1.00165 1 1.00206 0.999591
0.960346 0.963731 0.998058 0.998426
0.999721 1 1 0.999721
0.999687 1 1 0.999687
0.999608 1.00001 0.999798 0.999801
0.999672 1 1 0.99967
1.00175 1 1.0022 0.999557
0.999716 1 1.0001 0.999619
0.994963 1.00906 0.98638 0.999648
0.999693 1 1 0.999693
1.00049 1.00109 0.999789 0.999611
0.999661 1 1 0.999661
1.00195 1 1.00237 0.999577
1.00015 1 1.00059 0.999556
0.963979 0.96432 1.00105 0.998602
0.984817 0.998097 0.987426 0.999259
0.987724 1.00999 0.978385 0.99956
0.964519 0.970708 0.994057 0.999564
0.966037 0.98767 0.978181 0.999914
0.999681 1 1 0.999681
0.969176 0.972061 0.997677 0.999353
0.983072 0.993423 0.989644 0.999936
0.999052 1 0.999497 0.999554
1.00131 1 1.00166 0.999643
1.00755 1 1.00799 0.999569
1.00129 1.01017 0.991723 0.999489
0.975886 0.972394 1.00525 0.998349
0.98668 1.00641 0.981145 0.999234
0.958094 0.971433 0.986548 0.999718
0.990981 1.00575 0.985377 0.999939
0.999702 1 1 0.999702
0.999675 1 1 0.999675
0.99965 1 1 0.99965
0.99991 1 1 0.99991
0.999828 1 1 0.999828
0.999762 1 1 0.999762
0.999727 1 1 0.999727
0.999692 1 1 0.999692
0.999897 1 1 0.999897
0.999733 1 1 0.999733
0.999763 1 1 0.999763
0.999822 1 1 0.999822
0.99968 1 1 0.99968
0.999709 1 1 0.999709
0.999846 1 1.0002 0.999649
0.999757 1 1 0.999757
0.999828 1 1 0.999828
0.999831 1 1 0.999831
0.999766 1 1 0.999766
0.999766 1 1 0.999766
0.999758 1 1 0.999758
0.999727 1 1 0.999727
0.999739 1 1 0.999739
0.999807 1 1 0.999807
0.999819 1 1 0.999819
0.9999 1 1 0.9999
0.999817 1 1 0.999817
0.9999 1 1 0.9999
0.99999 1 1 0.99999
0.999897 1 1 0.999897
0.999991 1 1 0.999991
1 1 1 1
0.999991 1 1 0.999991
1 1 1 1
1 1 1 1
1 1 1 1
1 1 1 1
1 1 1 1
0.999948 1 1 0.999948
1 1 1 1
1 1 1 1
1 1 1 1
1 1 1 1
1 1 1 1
1 1 1 1
1 1 1 1
1 1 1 1
1 1 1 1
0.99486 1 0.995014 0.999841
0.999717 1 1 0.999717
0.999816 1 1 0.999816
0.982119 0.984468 0.998027 0.999587
0.99979 1 0.999883 0.999907
0.999696 1 1.00003 0.999662
1.00127 1 1.00159 0.999676
0.987576 0.986526 1.00163 0.999438
0.965318 0.967083 1.00011 0.998062
0.959134 0.96779 0.991725 0.999325
0.970363 0.986397 0.983821 0.999922
0.99987 1 1 0.99987
0.999949 1 1 0.999949
0.999945 1 1 0.999945
0.999869 1 1 0.999869
0.999821 1 1 0.999821
0.999835 1 1 0.999835
0.999875 1 1 0.999875
0.999878 1 1 0.999878
0.999683 1 1.00003 0.999657
0.999111 1 0.999268 0.999843
0.99925 1 0.999469 0.999781
1.00025 1 1.00057 0.99968
0.99999 1 1.00035 0.99964
1.00008 1 1.00045 0.999639
0.999708 1 1.00007 0.999642
0.999709 1 1 0.999709
0.99984 1 1 0.99984
0.999754 1 1 0.999754
0.999873 1 1 0.999873
0.999798 1 1 0.999798
0.999174 1 0.999476 0.999698
0.99978 1 1 0.99978
0.999765 1 1 0.999765
0.997295 1.00003 0.997442 0.999826
0.99963 1 1 0.999629
1.00076 1 1.00113 0.999625
0.999673 1 1 0.999673
1.00168 1 1.00208 0.999593
0.990574 1.00469 0.986234 0.999714
1.00176 1.00005 1.00206 0.999649
0.999583 1 1 0.999583
1.00466 1 1.0051 0.999567
0.999733 1 1 0.999733
0.999699 1 1 0.999699
1.00015 1 1.00054 0.999608
0.968021 0.974289 0.993909 0.999657
0.964004 0.965582 0.99988 0.998485
0.999695 1 1 0.999695
0.999662 1 1 0.999662
1.00119 1.00189 0.999684 0.99961
0.99983 1 1.00026 0.999566
1.00144 1 1.00186 0.999579
0.962957 0.965005 0.999863 0.998015
0.988197 0.998108 0.990355 0.999712
0.990907 1.01227 0.979321 0.999563
0.960488 0.96982 0.99102 0.999352
0.965245 0.985005 0.980019 0.999919
0.99968 1 1 0.99968
0.967347 0.973321 0.994168 0.999692
0.983588 0.99244 0.991135 0.999945
0.999149 1.0001 0.9995 0.999552
1.00046 1 1.00081 0.999646
1.00685 1 1.00727 0.99958
0.998985 1.0076 0.991971 0.999472
0.974771 0.973312 1.00336 0.998148
0.981161 1.00216 0.979387 0.999654
0.957981 0.97128 0.986978 0.999321
0.986428 1.00523 0.98136 0.999937
0.999658 1 1 0.999658
0.997246 0.998747 0.998532 0.999965
1.00786 1.00968 0.998236 0.999964
1.00965 1 1.0101 0.999558
1.00555 1 1.00586 0.99969
1.00435 1.00361 1.00103 0.999714
0.990355 1.00084 0.989656 0.999871
0.979013 0.976527 1.00429 0.998259
0.969827 0.985829 0.984457 0.9993
1.00193 1.012 0.990093 0.999949
0.999676 1 1 0.999676
0.999648 1 1 0.999648
1.00006 1 1.00042 0.999635
0.999897 1 1 0.999897
0.999828 1 1 0.999828
0.999771 1 1 0.999771
0.999731 1 1 0.999731
0.999674 1 1 0.999674
0.999828 1 1 0.999828
0.999714 1 1 0.999714
0.999757 1 1 0.999757
0.999889 1 1.00024 0.999644
1.00017 1 1.00055 0.999617
0.999774 1 1.00009 0.999688
0.999761 1 1 0.999761
0.999831 1 1 0.999831
0.999758 1 1 0.999758
0.999766 1 1 0.999766
0.999757 1 1 0.999757
0.999726 1 1 0.999726
0.999744 1 1 0.999744
0.999719 1 1 0.999719
0.999703 1 1 0.999703
0.999716 1 1 0.999716
0.999751 1 1 0.999751
0.999749 1 1 0.999749
0.99974 1 1 0.99974
0.999799 1 1 0.999799
0.999807 1 1 0.999807
0.999891 1 1 0.999891
0.999819 1 1 0.999819
0.9999 1 1 0.9999
0.999988 1 1 0.999988
0.999894 1 1 0.999894
0.99999 1 1 0.99999
1 1 1 1
0.999991 1 1 0.999991
1 1 1 1
1 1 1 1
1 1 1 1
1 1 1 1
1 1 1 1
0.999953 1 1 0.999953
1 1 1 1
0.999948 1 1 0.999948
1 1 1 1
1 1 1 1
1 1 1 1
1 1 1 1
1 1 1 1
1 1 1 1
1 1 1 1
1 1 1 1
0.965308 0.971193 0.994208 0.999731
0.987235 0.994397 0.992836 0.999961
0.984252 0.985146 0.999319 0.999774
0.999888 1 0.999984 0.999905
0.999676 1 1.00003 0.999647
0.986822 0.985026 1.00196 0.999869
1.00048 1 1.0008 0.999686
0.969135 0.96931 1.00136 0.998465
0.962174 0.968793 0.993413 0.999753
0.968963 0.985839 0.982952 0.999928
0.999954 0.995503 1.00465 0.999822
0.973895 0.972808 1.00269 0.998431
0.958471 0.969867 0.988513 0.999734
0.984893 1.00436 0.980683 0.999932
0.999804 1 1 0.999804
0.999875 1 1 0.999875
0.999949 1 1 0.999949
0.999866 1 1 0.999866
0.999826 1 1 0.999826
0.999817 1 1 0.999817
0.999837 1 1 0.999837
0.999851 1 1 0.999851
0.999869 1 1 0.999869
0.999874 1 1 0.999874
0.998717 1 0.999025 0.999691
0.99703 1 0.997205 0.999824
0.999639 1 1 0.999639
1.00118 1 1.00157 0.999613
1.00157 1 1.00198 0.999596
0.999672 1 1 0.999672
0.999767 1 1 0.999767
0.999783 1 1 0.999783
0.992666 1.00328 0.989724 0.999694
0.99973 1 1 0.99973
0.999693 1 1 0.999693
1.00022 1.00006 1.0005 0.999651
0.99999 1 1.00041 0.99958
1.00372 1 1.00416 0.999559
1.00072 1 1.00112 0.999601
0.984938 1.01217 0.973502 0.999586
1.00822 1 1.00865 0.999569
1.0043 1 1.00476 0.999548
0.999729 1 1 0.999729
0.999685 1 1 0.999685
0.999635 1 1 0.999635
0.995837 0.998518 0.997386 0.99993
0.968608 0.973606 0.995542 0.999321
0.962044 0.965399 0.998115 0.998407
0.999679 1 1 0.999679
0.999648 1 1 0.999648
0.999211 1.00003 0.999634 0.99955
1.0063 1 1.00672 0.999591
0.964321 0.972029 0.992749 0.999316
0.971932 0.972096 1.00105 0.998779
0.981801 1.00326 0.979314 0.999285
0.997462 1.00518 0.992858 0.99946
0.958549 0.970293 0.988143 0.99975
0.985162 0.993905 0.99127 0.999933
0.984871 1.00334 0.98166 0.999931
0.999656 1 1 0.999656
0.994764 0.997651 0.997156 0.999951
1.00896 1.0109 0.998114 0.999962
1.0098 1 1.01024 0.99956
1.00578 1 1.0061 0.99969
1.00738 1.00315 1.00479 0.999425
0.987106 1.00091 0.986867 0.99933
0.978412 0.977659 1.00253 0.998242
0.974706 0.986256 0.988509 0.999777
0.99849 1.01051 0.988166 0.999939
0.999706 1 1 0.999706
1.00754 1.00777 0.999791 0.99998
1.00531 1.00688 0.998451 0.999985
1.00706 1 1.00725 0.999812
0.99772 0.995099 1.00269 0.999941
0.987851 0.984505 1.00501 0.998393
0.985785 0.999823 0.986209 0.999747
0.999278 1.01265 0.98687 0.999928
0.999646 1 1 0.999646
0.999996 1 1.00036 0.999641
1.00095 1 1.0013 0.999644
0.999828 1 1 0.999828
0.999757 1 1 0.999757
0.999718 1 1 0.999718
0.999921 1 1.00028 0.999639
0.999761 1 1 0.999761
0.999719 1 1.00003 0.999688
1.00055 1 1.00093 0.999616
1.00049 1 1.00086 0.99963
0.99984 1 1.00021 0.999627
0.999708 1 1 0.999708
0.999766 1 1 0.999766
0.999757 1 1 0.999757
0.999725 1 1 0.999725
0.99972 1 1 0.99972
0.999745 1 1 0.999745
0.999706 1 1 0.999706
0.999697 1 1 0.999697
0.999684 1 1 0.999684
0.999696 1 1 0.999696
0.999716 1 1 0.999716
0.999727 1 1 0.999727
0.999737 1 1 0.999737
0.999787 1 1 0.999787
0.999765 1 1 0.999765
0.999753 1 1 0.999753
0.999794 1 1 0.999794
0.99974 1 1 0.99974
0.999799 1 1 0.999799
0.999881 1 1 0.999881
0.999807 1 1 0.999807
0.99989 1 1 0.99989
0.999986 1 1 0.999986
0.9999 1 1 0.9999
0.999988 1 1 0.999988
1 1 1 1
0.999989 1 1 0.999989
1 1 1 1
1 1 1 1
1 1 1 1
1 1 1 1
1 1 1 1
0.99993 1 1 0.99993
1 1 1 1
0.999942 1 1 0.999942
1 1 1 1
1 1 1 1
0.999948 1 1 0.999948
1 1 1 1
1 1 1 1
1 1 1 1
1 1 1 1
1 1 1 1
1 1 1 1
0.996629 0.998298 0.998358 0.99997
0.966151 0.971699 0.994759 0.999529
1.00664 1.0095 0.997205 0.999971
0.984557 0.991483 0.993057 0.999957
0.983649 0.983685 1.00054 0.999425
0.999739 1 1.00004 0.999696
0.969777 0.969125 1.00178 0.998891
0.960903 0.9691 0.992194 0.999343
0.968173 0.985763 0.982221 0.999934
0.997071 0.997035 1.00037 0.999671
0.973337 0.970836 1.00422 0.99836
0.960681 0.972398 0.988617 0.999326
0.982775 1.00366 0.979253 0.999937
0.996414 1.00423 0.992388 0.999825
0.975395 0.972512 1.00471 0.998265
0.972449 0.987733 0.984759 0.999764
0.996238 1.0138 0.982721 0.999951
0.999767 1 1 0.999767
0.99981 1 1 0.99981
0.99988 1 1 0.99988
0.999831 1 1 0.999831
0.999783 1 1 0.999783
0.999821 1 1 0.999821
0.99984 1 1 0.99984
0.999843 1 1 0.999843
0.999857 1 1 0.999857
0.999863 1 1 0.999863
0.994968 1.00212 0.993186 0.999675
0.998561 1 0.998908 0.999653
1.00026 1 1.00069 0.999577
1.00304 1 1.00349 0.99955
1.00135 1 1.00176 0.999595
0.999686 1 1 0.999686
0.999727 1 1 0.999727
0.99973 1 1 0.99973
0.987027 1.00956 0.978088 0.999584
0.999689 1 1 0.999689
0.999722 1 1.00009 0.999631
1.00754 1 1.00798 0.999564
1.00416 1 1.00462 0.999548
0.987517 1.01062 0.977574 0.999558
1.01752 1 1.01794 0.999591
1.00036 1 1.00078 0.999585
0.999695 1 1 0.999695
0.99964 1 1 0.99964
1.00597 1.00621 0.999768 0.999987
0.996465 0.998444 0.998067 0.999951
0.968942 0.974403 0.994692 0.999703
0.999655 1 1 0.999655
1.00588 1 1.00619 0.999691
1.00973 1 1.01018 0.999562
0.997246 0.998707 0.998571 0.999966
0.978164 0.975968 1.00406 0.998201
0.983614 0.999801 0.983962 0.999844
1.00847 1.002 1.00733 0.999124
0.968179 0.98351 0.985088 0.999314
1.01033 1.0124 0.997988 0.999961
1.0006 1.01074 0.990032 0.999935
0.999712 1 1 0.999712
1.0083 1.0084 0.999921 0.999979
1.00611 1.0078 0.998337 0.999985
1.00732 0.999985 1.0076 0.999728
0.996805 0.996464 1.00057 0.999769
0.989957 0.986624 1.00511 0.99828
1.00273 1.01323 0.989694 0.999941
0.98503 0.996593 0.988824 0.999569
0.99976 1 1 0.99976
1.00068 1.00073 0.999953 0.999999
1.00303 1.00458 0.998458 0.999994
0.999577 1.01295 0.98685 0.999949
1.00444 0.99677 1.00778 0.999914
0.983371 0.982754 1.0021 0.998529
0.983491 0.997911 0.985897 0.999649
0.999915 1 1.00027 0.999647
1.00072 1 1.00109 0.999632
1.00323 1 1.00355 0.999675
0.999761 1 1 0.999761
0.999689 1 1 0.999689
1.00099 1 1.00138 0.999614
0.999711 1 1 0.999711
0.999952 1 1.00033 0.999627
1.00088 1 1.00126 0.99962
0.999995 1 1.00035 0.99964
0.999654 1 1 0.999654
0.999722 1 1 0.999722
0.999745 1 1 0.999745
0.999708 1 1 0.999708
0.999685 1 1 0.999685
0.999696 1 1 0.999696
0.999676 1 1 0.999676
0.999712 1 1 0.999712
0.999849 1 1.00019 0.999659
0.999716 1 1 0.999716
0.999727 1 1 0.999727
0.999688 1 1 0.999688
0.999749 1 1 0.999749
0.999792 1 1 0.999792
0.999737 1 1 0.999737
0.999813 1 1 0.999813
0.999785 1 1 0.999785
0.999778 1 1 0.999778
0.999757 1 1 0.999757
0.999797 1 1 0.999797
0.999875 1 1 0.999875
0.999799 1 1 0.999799
0.999881 1 1 0.999881
0.999982 1 1 0.999982
0.99989 1 1 0.99989
0.999985 1 1 0.999985
1 1 1 1
0.999987 1 1 0.999987
1 1 1 1
1 1 1 1
1 1 1 1
1 1 1 1
1 1 1 1
0.999903 1 1 0.999903
0.999986 1 1 0.999986
0.99993 1 1 0.99993
1 1 1 1
0.999994 1 1 0.999994
0.999932 1 1 0.999932
1 1 1 1
1 1 1 1
1 1 1 1
1 1 1 1
1 1 1 1
1 1 1 1
1.00662 1.00679 0.999849 0.999984
0.993692 0.997136 0.996611 0.999935
0.968438 0.971991 0.996986 0.999356
0.999817 1 1 0.999817
1.00573 1.00645 0.9993 0.999988
1.00792 1.01005 0.997922 0.99997
0.982416 0.990761 0.991646 0.999931
0.994377 0.998177 0.99669 0.999502
0.976118 0.971501 1.00638 0.998387
0.963814 0.973914 0.989875 0.999752
0.983041 1.00237 0.980789 0.999929
0.994991 1.00777 0.987928 0.999382
0.976843 0.973941 1.00467 0.998315
0.970227 0.987041 0.983409 0.99955
0.996903 1.01435 0.982859 0.999941
0.978139 1.00031 0.978478 0.999347
0.981313 0.978885 1.00459 0.997895
0.981034 0.994969 0.98666 0.999325
0.995582 1.01368 0.982228 0.999919
0.999729 1 1 0.999729
0.999763 1 1 0.999763
0.999817 1 1 0.999817
0.999771 1 1 0.999771
0.99979 1 1 0.99979
0.999825 1 1 0.999825
0.999846 1 1 0.999846
0.999862 1 1 0.999862
0.988988 1.00677 0.982747 0.999581
1.00679 1 1.00723 0.99956
0.999731 1 1 0.999731
1.00392 1 1.00438 0.999548
0.999794 1 1.00017 0.999628
0.999693 1 1 0.999693
0.999695 1 1 0.999695
0.988614 1.00979 0.97947 0.999555
0.99964 1 1 0.99964
1.00119 1 1.0016 0.999582
1.01765 1 1.01807 0.999588
0.999689 1 1 0.999689
1.00374 1.00289 1.00118 0.999672
1.01326 1 1.01363 0.999633
0.999623 1 1 0.999623
0.999651 1 1 0.999651
1.00021 1.00016 1.00005 1
1.00567 1.00587 0.99981 0.999987
0.996881 0.99835 0.998555 0.999973
0.999719 1 1 0.999719
1.00774 0.999979 1.00811 0.999645
1.00903 1.00906 0.999995 0.999979
0.986522 0.981022 1.00733 0.998295
1.00093 1.00043 1.00114 0.999363
0.979667 0.993713 0.986462 0.999394
1.00652 1.00826 0.998289 0.999986
1.00609 1.01336 0.992875 0.999954
0.999753 1 1 0.999753
1.00031 1.00027 1.00003 0.999999
1.0018 1.00289 0.998921 0.999996
1.00226 0.996137 1.0062 0.999941
0.999919 1.01348 0.986685 0.999938
0.983192 0.98602 0.998465 0.998665
0.980059 0.994751 0.985916 0.999305
1.00424 0.998784 1.00566 0.999802
0.998728 0.998269 1.00046 1
1.00647 1.00656 0.999921 0.999986
0.986681 1.00396 0.982858 0.99993
0.981971 0.992638 0.989912 0.999336
0.99497 0.992884 1.00197 1.00013
0.977216 0.981126 0.997462 0.998549
1.00051 1 1.00089 0.999621
1.00235 1 1.00268 0.999668
1.01226 1 1.01262 0.999639
0.999713 1 1 0.999713
0.999992 1 1.00037 0.999626
1.00115 1 1.00154 0.999609
0.999655 1 1 0.999655
1.00007 1 1.00043 0.999638
1.00302 1 1.00337 0.999643
0.999685 1 1 0.999685
0.999696 1 1 0.999696
0.999852 1 1.00018 0.999673
1.00143 1 1.0018 0.99963
0.999728 1 1 0.999728
0.999779 1 1.00011 0.999666
0.999863 1 1.00024 0.999627
0.999687 1 1 0.999687
0.999726 1 1 0.999726
0.999683 1 1 0.999683
0.999774 1 1 0.999774
0.999792 1 1 0.999792
0.999755 1 1 0.999755
0.999825 1 1 0.999825
0.999791 1 1 0.999791
0.999738 1 1 0.999738
0.999876 1 1 0.999876
0.99981 1 1 0.99981
0.999782 1 1 0.999782
0.999801 1 1 0.999801
0.999875 1 1 0.999875
0.999978 1 1 0.999978
0.999881 1 1 0.999881
0.999981 1 1 0.999981
1 1 1 1
0.999984 1 1 0.999984
1 1 1 1
1 1 1 1
1 1 1 1
1 1 1 1
1 1 1 1
0.999888 1 1 0.999888
0.999979 1 1 0.999979
0.999908 1 1 0.999908
1 1 1 1
0.999985 1 1 0.999985
0.999929 1 1 0.999929
1 1 1 1
1 1 1 1
0.999989 1 1 0.999989
1 1 1 1
1 1 1 1
1 1 1 1
1.00143 1.00131 1.00012 0.999998
1.00646 1.00669 0.999789 0.999984
0.995177 0.99788 0.997359 0.999933
0.99982 1 1 0.99982
0.999803 1 1 0.999803
0.999771 1 1 0.999771
1.00172 1.00431 0.99743 0.999995
1.00577 1.00674 0.999055 0.999988
1.00934 1.01062 0.99876 0.99997
0.998253 1.01157 0.987022 0.999811
0.976146 0.97268 1.00528 0.99829
0.969033 0.985901 0.983552 0.999328
0.999999 1.01515 0.985125 0.999945
0.976173 0.998181 0.978172 0.999775
0.984826 0.980636 1.00591 0.998368
0.984557 1.00043 0.984438 0.999694
0.998831 1.01396 0.985137 0.999937
0.975189 0.99389 0.981297 0.999884
0.981974 0.982197 1.00133 0.998446
0.984847 1.00057 0.984699 0.99958
0.995508 1.01126 0.984464 0.999954
0.999716 1 1 0.999716
0.999729 1 1 0.999729
0.999759 1 1 0.999759
0.999771 1 1 0.999771
0.999797 1 1 0.999797
0.999848 1 1 0.999848
0.989565 1.00883 0.981345 0.999553
1.01752 1 1.01794 0.999584
0.999696 1 1 0.999696
1.00189 1 1.00231 0.99958
0.99964 1 1 0.99964
0.999688 1 1 0.999688
0.999648 1 1 0.999648
1.00061 1.0039 0.997063 0.999663
0.999628 1 1 0.999628
1.01376 1 1.01412 0.999644
0.99965 1 1 0.99965
1.02094 0.999713 1.02147 0.99977
1.00014 1 1.00044 0.999706
0.999618 1 1 0.999618
0.998888 0.998799 1.00009 1
0.99985 0.999805 1.00005 1
1.00541 1.00553 0.999887 0.999987
0.999746 1 1 0.999746
1.00125 0.995452 1.00584 0.999986
0.999908 0.999805 1.0001 1
0.98801 0.989351 0.99942 0.999225
0.986181 1.00119 0.985322 0.999682
1.00072 1.00134 0.999375 0.999998
1.00272 1.01439 0.988557 0.999943
1.00361 0.99937 1.00444 0.999811
0.998788 0.99842 1.00037 1
1.00656 1.00686 0.999708 0.999987
0.995625 0.992859 1.00302 0.999771
0.985061 1.0035 0.981689 0.999933
0.98473 0.998091 0.986901 0.999708
0.977586 0.980947 0.998009 0.998561
1.01422 1 1.01433 0.999887
1.00131 1.00124 1.00008 0.999998
1.00761 1.00984 0.997827 0.999968
0.970562 0.986664 0.983763 0.999916
0.974361 0.986155 0.988278 0.99976
0.990738 0.986 1.00634 0.998476
0.97839 0.991489 0.987143 0.999641
1.00133 1 1.00167 0.999661
1.01341 1 1.01377 0.999642
1.01934 1 1.0197 0.999643
0.999656 1 1 0.999656
1.00019 1 1.00055 0.999635
1.00245 1 1.00281 0.999643
1.01025 1 1.01067 0.999587
0.999989 1 1.00032 0.99967
1.00173 1 1.00211 0.999622
1.00363 1 1.00407 0.999568
0.999674 1 1 0.999674
1.00016 1 1.00054 0.999625
0.999872 1 1.00026 0.999609
0.999664 1 1 0.999664
0.999744 1 1 0.999744
0.99968 1 1 0.99968
0.999678 1 1 0.999678
0.999802 1 1 0.999802
0.999779 1 1 0.999779
0.999823 1 1 0.999823
0.999797 1 1 0.999797
0.999761 1 1 0.999761
0.999882 1 1 0.999882
0.999825 1 1 0.999825
0.99979 1 1 0.99979
0.999974 1 1 0.999974
0.999877 1 1 0.999877
0.999808 1 1 0.999808
0.999875 1 1 0.999875
0.999978 1 1 0.999978
1 1 1 1
0.99998 1 1 0.99998
1 1 1 1
1 1 1 1
1 1 1 1
1 1 1 1
1 1 1 1
0.999888 1 1 0.999888
0.999987 1 1 0.999987
0.999894 1 1 0.999894
1 1 1 1
0.999986 1 1 0.999986
0.999914 1 1 0.999914
1 1 1 1
1 1 1 1
0.999985 1 1 0.999985
1 1 1 1
1 1 1 1
1 1 1 1
0.998881 0.998305 1.00057 1
1.00115 1.00101 1.00014 0.999998
1.00619 1.00656 0.999644 0.999984
0.999801 1 1 0.999801
0.999776 1 1 0.999776
0.999823 1 1 0.999823
0.999802 1 1 0.999802
0.999764 1 1 0.999764
0.99976 1 1 0.99976
0.999732 1 1 0.999732
1.00429 1.00616 0.998153 0.999987
1.00099 1.00287 0.998133 0.999997
1.00577 1.00701 0.998779 0.999989
1.00202 1.01416 0.988077 0.999955
0.980716 1.00344 0.978012 0.999323
0.986039 0.980437 1.00693 0.998795
0.979172 0.997624 0.982218 0.999274
0.979674 0.993528 0.986433 0.999617
0.987245 0.986381 1.00246 0.998422
0.982456 0.998216 0.984949 0.999253
0.993688 1.0109 0.983039 0.999931
0.988356 0.990313 0.99809 0.999933
0.980287 0.986244 0.995557 0.998397
0.986511 1.00373 0.983152 0.99969
0.988791 1.00463 0.984289 0.999944
0.999698 1 1 0.999698
0.999715 1 1 0.999715
0.999729 1 1 0.999729
0.99977 1 1 0.99977
0.996692 1.00489 0.992182 0.999655
1.01462 1 1.01497 0.999656
0.999687 1 1 0.999687
0.999644 1 1 0.999644
0.999632 1 1 0.999632
0.999655 1 1 0.999655
0.999615 1 1 0.999615
1.01182 0.997825 1.01424 0.999783
1.00016 1 1.00044 0.999725
0.999613 1 1 0.999613
1.02455 0.99439 1.03044 0.999897
1.00353 1 1.00395 0.999584
1.00012 1.0001 1.00002 1
0.999107 0.999067 1.00004 1
0.999481 0.999449 1.00003 1
1.0033 1 1.00348 0.99982
0.995837 0.992172 1.0036 1.0001
0.998856 0.99858 1.00027 1
0.978005 0.981108 0.998323 0.998511
0.97924 0.995536 0.98433 0.999291
1.00657 1.00716 0.99943 0.999988
0.985972 1.00214 0.983937 0.999927
1.01538 0.999644 1.01587 0.999873
1.00103 1.00093 1.0001 0.999998
1.00889 1.01038 0.99856 0.999968
0.982734 0.994039 0.98854 1.00009
0.969267 0.985823 0.983282 0.999923
0.970918 0.984629 0.986526 0.999542
0.992608 0.98509 1.00903 0.998615
1.00381 1 1.00394 0.999865
1.00695 1.0069 1.00006 0.999982
0.988392 0.994768 0.993632 0.999958
0.958275 0.969083 0.989123 0.999721
0.983878 0.978706 1.00698 0.998319
0.975919 0.997213 0.979176 0.99946
1.01477 1 1.01513 0.999645
1.01986 1 1.02023 0.999642
1.02011 1 1.02052 0.999591
1.00194 1 1.0023 0.999643
1.01069 1 1.0111 0.999595
1.0078 1 1.00828 0.999525
1.00221 1 1.0026 0.999613
1.00381 1 1.00425 0.999558
1.00218 1 1.00263 0.999548
1.00055 1 1.00093 0.999622
1 1 1.0004 0.999602
0.999902 1 1.00028 0.99962
0.999675 1 1 0.999675
0.999713 1 1 0.999713
0.99966 1 1 0.99966
0.999785 1 1 0.999785
0.999749 1 1 0.999749
0.999674 1 1 0.999674
0.999821 1 1 0.999821
0.999799 1 1 0.999799
0.999785 1 1 0.999785
0.99988 1 1 0.99988
0.999826 1 1 0.999826
0.999802 1 1 0.999802
0.999973 1 1 0.999973
0.999882 1 1 0.999882
0.999825 1 1 0.999825
1 1 1 1
0.999975 1 1 0.999975
0.999877 1 1 0.999877
0.999977 1 1 0.999977
1 1 1 1
1 1 1 1
1 1 1 1
1 1 1 1
1 1 1 1
0.999805 1 1 0.999805
0.999878 1 1 0.999878
0.999982 1 1 0.999982
0.999888 1 1 0.999888
1 1 1 1
0.999988 1 1 0.999988
0.999899 1 1 0.999899
1 1 1 1
1 1 1 1
0.999993 1 1 0.999993
1 1 1 1
1 1 1 1
1 1 1 1
1.0006 1.00058 1.00002 0.999999
0.998933 0.998445 1.00049 1
1.00089 1.00071 1.00018 0.999999
0.999804 1 1 0.999804
0.999772 1 1 0.999772
0.999774 1 1 0.999774
0.999764 1 1 0.999764
0.999756 1 1 0.999756
0.999801 1 1 0.999801
0.999758 1 1 0.999758
0.99976 1 1 0.99976
0.999732 1 1 0.999732
0.999732 1 1 0.999732
1.00732 1.00802 0.999334 0.999965
1.00489 1.00694 0.997977 0.999987
1.00009 1.0013 0.998787 0.999998
0.994451 1.01054 0.984151 0.999928
0.987851 1.00362 0.984649 0.999632
0.984462 0.993448 0.991553 0.999396
0.98107 0.98376 0.998766 0.998498
0.992585 0.989615 1.00351 0.999495
0.979634 0.98332 0.997802 0.998447
0.984282 0.999838 0.984928 0.999506
0.986851 1.00403 0.982947 0.999943
1.01291 0.987026 1.0267 0.999535
0.984891 0.985117 1.00128 0.998492
0.968587 0.985781 0.983224 0.999322
0.970717 0.989517 0.981073 0.999927
0.999727 1 1 0.999727
0.999701 1 1 0.999701
0.999714 1 1 0.999714
1.00377 0.996171 1.00784 0.999797
1.00015 1 1.00041 0.999745
0.99966 1 1 0.99966
0.999611 1 1 0.999611
0.99965 1 1.00003 0.999617
1.00402 1 1.00444 0.999579
1.02453 0.995933 1.02882 0.999897
1.00395 1 1.00435 0.9996
1.01278 0.999006 1.01406 0.999739
1.00583 1.00585 1 0.999985
0.99978 0.999764 1.00002 1
0.999342 0.999334 1.00001 1
1.01627 0.999258 1.01716 0.999859
0.98547 0.993072 0.992701 0.999641
1.00077 1.00062 1.00015 0.999999
0.983706 0.982427 1.00325 0.998054
0.970787 0.984491 0.986755 0.999316
1.01023 1.01094 0.999335 0.999967
0.96902 0.985729 0.983118 0.99993
1.00482 1 1.00495 0.999872
1.00685 1.00681 1.00005 0.999982
0.985619 0.991943 0.993671 0.999954
0.97203 0.994346 0.977842 0.999708
0.96096 0.972017 0.989299 0.999317
0.98692 0.980651 1.00836 0.998044
0.985018 1.00028 0.984974 0.999763
0.997409 0.998664 0.998777 0.999966
0.959881 0.9684 0.991878 0.999319
0.976617 0.973869 1.00459 0.998237
0.973439 1.00027 0.973436 0.999729
1.01992 1 1.02028 0.99964
1.02146 1 1.02188 0.99959
1.01175 1 1.01222 0.999535
1.01091 1 1.01131 0.999603
1.00735 1 1.00783 0.999529
1.00181 1 1.00227 0.999542
1.00374 1 1.00419 0.999549
1.00156 1 1.00201 0.999551
0.99964 1 1 0.99964
0.999987 1 1.00039 0.999594
0.999721 1 1.0001 0.999624
0.999697 1 1 0.999697
0.999722 1 1 0.999722
0.999699 1 1 0.999699
0.999678 1 1 0.999678
0.999757 1 1 0.999757
0.999705 1 1 0.999705
0.999655 1 1 0.999655
0.999822 1 1 0.999822
0.999791 1 1 0.999791
0.999754 1 1 0.999754
0.999873 1 1 0.999873
0.999821 1 1 0.999821
0.999797 1 1 0.999797
0.99997 1 1 0.99997
0.99988 1 1 0.99988
0.999828 1 1 0.999828
1 1 1 1
0.999973 1 1 0.999973
0.999883 1 1 0.999883
1 1 1 1
1 1 1 1
0.999975 1 1 0.999975
1 1 1 1
1 1 1 1
1 1 1 1
0.999801 1 1 0.999801
0.99987 1 1 0.99987
0.999803 1 1 0.999803
0.999978 1 1 0.999978
0.999878 1 1 0.999878
1 1 1 1
0.999984 1 1 0.999984
0.999888 1 1 0.999888
1 1 1 1
1 1 1 1
0.99999 1 1 0.99999
1 1 1 1
1 1 1 1
1 1 1 1
1.00596 1.00598 1 0.99998
1.00026 1.00019 1.00007 0.999999
0.998993 0.99859 1.0004 1
0.999783 1 1 0.999783
0.999806 1 1 0.999806
0.999769 1 1 0.999769
0.999768 1 1 0.999768
0.999777 1 1 0.999777
0.999757 1 1 0.999757
0.999753 1 1 0.999753
0.999743 1 1 0.999743
0.999761 1 1 0.999761
0.999733 1 1 0.999733
0.999732 1 1 0.999732
0.999726 1 1 0.999726
0.984705 0.992588 0.992118 0.999939
1.00819 1.00899 0.999236 0.999964
1.00567 1.00788 0.99782 0.999988
0.987768 1.00335 0.98454 0.99993
0.980369 0.997402 0.983596 0.999316
0.979194 0.985322 0.995373 0.998401
0.994728 0.98638 1.00849 0.999971
1.01423 0.987034 1.02757 0.999986
0.96964 0.986461 0.983013 0.999935
0.986953 0.987021 1.00171 0.998221
0.968536 0.983756 0.984761 0.999764
1.0046 0.994228 1.0105 0.999933
0.984306 0.980449 1.00549 0.998451
0.956934 0.967487 0.989319 0.99977
1.00018 1 1.00041 0.999772
0.999728 1 1 0.999728
0.999704 1 1 0.999704
1.02456 0.997615 1.02711 0.999897
1.00463 1 1.00506 0.999573
0.999671 1 1.00005 0.999621
1.00425 1 1.00465 0.999604
1.01183 0.999584 1.01251 0.99974
1.00896 1 1.00922 0.999748
0.995711 0.998366 0.997409 0.999932
1.00514 1.00516 1 0.999986
0.999438 0.999428 1.00001 1
1.00559 1 1.00571 0.99988
0.972219 0.99597 0.976268 0.999882
1.00663 1.00668 0.999972 0.999983
0.991013 0.982047 1.01036 0.998782
0.963949 0.973451 0.990494 0.999743
0.982945 0.991096 0.991847 0.999928
0.983438 1.00103 0.982657 0.999763
0.99427 0.997523 0.996806 0.999932
0.962502 0.968972 0.993572 0.999749
0.973587 1.00086 0.973431 0.999302
0.979366 0.976264 1.0049 0.998282
0.977555 1.00817 0.970035 0.999584
0.966128 0.972066 0.994156 0.999733
0.974186 0.973214 1.00259 0.998413
0.977865 1.00482 0.973854 0.999299
1.02338 1 1.0238 0.99959
1.01125 1 1.01173 0.999532
1.00264 1 1.00305 0.999586
1.00714 1 1.00761 0.999533
1.00175 1 1.0022 0.999545
0.999715 1 1 0.999715
1.00106 1 1.0015 0.999554
0.999647 1 1 0.999647
0.99978 1 1 0.99978
0.999629 1 1 0.999629
0.999699 1 1 0.999699
0.999782 1 1 0.999782
0.99978 1 1 0.99978
0.999725 1 1 0.999725
0.999727 1 1 0.999727
0.999737 1 1 0.999737
0.999705 1 1 0.999705
0.99968 1 1 0.99968
0.999808 1 1 0.999808
0.999757 1 1 0.999757
0.999697 1 1 0.999697
0.999868 1 1 0.999868
0.999822 1 1 0.999822
0.999796 1 1 0.999796
0.999964 1 1 0.999964
0.999873 1 1 0.999873
0.99982 1 1 0.99982
1 1 1 1
0.99997 1 1 0.99997
0.99988 1 1 0.99988
1 1 1 1
1 1 1 1
0.999973 1 1 0.999973
1 1 1 1
1 1 1 1
1 1 1 1
0.999812 1 1 0.999812
0.999803 1 1 0.999803
0.999864 1 1 0.999864
0.999971 1 1 0.999971
0.99987 1 1 0.99987
0.9998 1 1 0.9998
1 1 1 1
0.999978 1 1 0.999978
0.999878 1 1 0.999878
1 1 1 1
1 1 1 1
0.999985 1 1 0.999985
1 1 1 1
1 1 1 1
1 1 1 1
0.995559 0.997333 0.99825 0.999971
1.00692 1.00694 1 0.99998
0.999883 0.999784 1.0001 1
0.999781 1 1 0.999781
0.999793 1 1 0.999793
0.999766 1 1 0.999766
0.999772 1 1 0.999772
0.99978 1 1 0.99978
0.999757 1 1 0.999757
0.999745 1 1 0.999745
0.999755 1 1 0.999755
0.999736 1 1 0.999736
0.999737 1 1 0.999737
0.999732 1 1 0.999732
0.999726 1 1 0.999726
0.962492 0.968586 0.993939 0.999768
0.984106 0.991552 0.992537 0.999953
1.00919 1.01007 0.999163 0.999963
0.969166 0.983942 0.985039 0.999943
0.964431 0.982522 0.982234 0.999342
0.9905 0.989876 1.00177 0.998861
1.01948 0.987326 1.03306 0.999525
1.00506 0.994156 1.0115 0.999477
0.957032 0.96899 0.988274 0.999377
0.988193 0.984234 1.00537 0.998656
0.999195 0.993952 1.00584 0.999442
0.979362 0.976857 1.00413 0.998443
1.00782 1 1.0081 0.999716
1.00004 1 1.00027 0.999773
0.999729 1 1 0.999729
1.01064 1 1.0109 0.999741
1.00455 1 1.00494 0.999608
1.00837 1 1.00862 0.999752
1.00143 1.00046 1.00127 0.999703
0.967731 0.974861 0.993012 0.999673
0.996487 0.99829 0.998242 0.999951
1.00446 1.00447 1 0.999987
0.981171 1.00122 0.980207 0.999763
0.972518 0.999547 0.973165 0.999788
0.995584 0.998235 0.997414 0.99993
0.978279 0.974678 1.00543 0.99827
0.961124 0.969239 0.992288 0.999334
0.97761 1.00739 0.970821 0.999606
0.966678 0.972353 0.994638 0.999523
0.974933 0.972148 1.00453 0.998345
0.975923 1.0037 0.972584 0.999737
0.978754 1.01242 0.967208 0.999524
0.965557 0.967187 1.00026 0.998057
0.990483 1.00176 0.988919 0.999818
1.01083 1 1.0113 0.999529
1.00237 1 1.00279 0.999581
0.999122 1.00012 0.999258 0.999746
1.00162 1 1.00207 0.999548
0.999623 1 0.999906 0.999717
0.999311 1 0.999411 0.9999
0.999653 1 1 0.999653
0.999781 1 1 0.999781
0.999868 1 1 0.999868
0.999702 1 1 0.999702
0.999782 1 1 0.999782
0.999826 1 1 0.999826
0.999805 1 1 0.999805
0.999785 1 1 0.999785
0.999771 1 1 0.999771
0.999746 1 1 0.999746
0.999727 1 1 0.999727
0.999732 1 1 0.999732
0.99978 1 1 0.99978
0.999743 1 1 0.999743
0.999711 1 1 0.999711
0.999859 1 1 0.999859
0.999808 1 1 0.999808
0.999756 1 1 0.999756
0.999956 1 1 0.999956
0.999868 1 1 0.999868
0.999821 1 1 0.999821
1 1 1 1
0.999964 1 1 0.999964
0.999873 1 1 0.999873
1 1 1 1
1 1 1 1
0.99997 1 1 0.99997
1 1 1 1
1 1 1 1
1 1 1 1
0.999816 1 1 0.999816
0.999807 1 1 0.999807
0.99986 1 1 0.99986
0.999805 1 1 0.999805
0.999864 1 1 0.999864
0.999964 1 1 0.999964
1 1 1 1
0.999972 1 1 0.999972
0.999869 1 1 0.999869
1 1 1 1
1 1 1 1
0.999979 1 1 0.999979
1 1 1 1
1 1 1 1
1 1 1 1
0.96985 0.973158 0.997216 0.999383
0.99425 0.996803 0.997484 0.999956
1.00784 1.00787 1 0.99998
0.999778 1 1 0.999778
0.999766 1 1 0.999766
0.999795 1 1 0.999795
0.999797 1 1 0.999797
0.999772 1 1 0.999772
0.999747 1 1 0.999747
0.999757 1 1 0.999757
0.999737 1 1 0.999737
0.999761 1 1 0.999761
0.999729 1 1 0.999729
0.999972 1 1.00026 0.999715
0.999732 1 1 0.999732
0.999726 1 1 0.999726
0.975796 0.97684 1.00086 0.99807
0.965104 0.970816 0.994539 0.999575
0.984399 0.99213 0.992268 0.99994
0.956955 0.969208 0.987568 0.999787
0.984226 0.980156 1.0062 0.997966
1.00786 0.994919 1.01306 0.999941
0.999872 0.994923 1.0053 0.999678
0.979952 0.977709 1.00381 0.998491
0.99392 0.999056 0.995327 0.99953
1.0057 1.00114 1.00504 0.999522
1.00604 1 1.00633 0.999709
0.999774 1 1 0.999774
1.00613 1 1.00638 0.999756
1.00073 1.00076 1.00019 0.999776
0.961756 0.965271 0.997893 0.998462
0.96877 0.97426 0.995011 0.999351
0.997039 0.998157 0.998909 0.999971
0.977626 1.00691 0.971281 0.999629
0.979226 1.00848 0.971679 0.99929
0.96913 0.972695 0.996984 0.999348
0.976619 0.971796 1.00659 0.99838
0.978371 1.01103 0.968163 0.999519
0.96885 0.968894 1.00149 0.998463
0.987526 1.0042 0.984014 0.999373
0.976426 1.00976 0.967391 0.999585
0.998347 0.993018 1.00554 0.999827
1.00187 1 1.00229 0.999576
0.998047 1.00013 0.998175 0.999743
0.996809 1.00026 0.996675 0.999876
0.999457 1 0.999738 0.999719
0.999058 1 0.99916 0.999898
0.999039 1 0.999112 0.999927
0.999782 1 1 0.999782
0.999863 1 1 0.999863
0.999859 1 1 0.999859
0.999781 1 1 0.999781
0.999823 1 1 0.999823
0.999814 1 1 0.999814
0.999811 1 1 0.999811
0.999786 1 1 0.999786
0.999791 1 1 0.999791
0.99977 1 1 0.99977
0.999763 1 1 0.999763
0.999769 1 1 0.999769
0.999744 1 1 0.999744
0.999728 1 1 0.999728
0.99984 1 1 0.99984
0.999784 1 1 0.999784
0.999749 1 1 0.999749
0.999946 1 1 0.999946
0.999858 1 1 0.999858
0.999807 1 1 0.999807
1 1 1 1
0.999956 1 1 0.999956
0.999869 1 1 0.999869
1 1 1 1
1 1 1 1
0.999963 1 1 0.999963
1 1 1 1
1 1 1 1
1 1 1 1
0.99981 1 1 0.99981
0.999816 1 1 0.999816
0.999852 1 1 0.999852
0.999802 1 1 0.999802
0.999856 1 1 0.999856
0.999957 1 1 0.999957
0.999864 1 1 0.999864
0.999964 1 1 0.999964
1 1 1 1
1 1 1 1
1 1 1 1
0.999972 1 1 0.999972
1 1 1 1
1 1 1 1
1 1 1 1
0.96953 0.970669 1.00031 0.998519
0.96919 0.97481 0.994517 0.999716
0.995968 0.997872 0.998123 0.999969
0.999766 1 1 0.999766
0.999797 1 1 0.999797
0.999773 1 1 0.999773
0.999797 1 1 0.999797
0.999792 1 1 0.999792
0.999782 1 1 0.999782
0.999738 1 1 0.999738
0.999759 1 1 0.999759
0.99973 1 1 0.99973
0.999756 1 1 0.999756
0.999723 1 1 0.999723
0.999679 1 1.00011 0.999564
0.99977 1 1.00006 0.999713
0.999727 1 1 0.999727
0.991193 0.993971 0.99737 0.999835
0.972572 0.973864 1.00021 0.998461
0.96236 0.969676 0.993092 0.999359
0.977407 0.975353 1.00371 0.998401
0.999342 0.994939 1.0045 0.999928
0.993839 0.997021 0.996939 0.999869
0.997223 1.00416 0.993555 0.999531
1.00333 1.00039 1.0034 0.999548
1.00518 1 1.00548 0.999702
0.998205 1.0006 0.997764 0.999847
0.988233 0.986386 1.00245 0.999428
0.965796 0.966874 1.00035 0.998534
0.968846 0.97479 0.994182 0.999719
0.978146 1.00946 0.969451 0.999514
0.990379 1.00773 0.982979 0.999796
0.970013 0.96849 1.00269 0.998884
0.978739 1.00743 0.971921 0.999585
0.993861 0.993983 1.00021 0.999668
0.984134 1.00283 0.981634 0.999718
1.0021 1 1.00249 0.999612
0.996806 1 0.997066 0.99974
0.996226 1.00006 0.99629 0.999877
0.99717 1 0.997308 0.999861
0.998935 1 0.999038 0.999896
0.999141 1 0.999218 0.999923
0.999635 1 0.999799 0.999836
0.999859 1 1 0.999859
0.999854 1 1 0.999854
0.999791 1 1 0.999791
0.999819 1 1 0.999819
0.999815 1 1 0.999815
0.999774 1 1 0.999774
0.999818 1 1 0.999818
0.99979 1 1 0.99979
0.999767 1 1 0.999767
0.999768 1 1 0.999768
0.999762 1 1 0.999762
0.999776 1 1 0.999776
0.999816 1 1 0.999816
0.999772 1 1 0.999772
0.999743 1 1 0.999743
0.99993 1 1 0.99993
0.99984 1 1 0.99984
0.999787 1 1 0.999787
1 1 1 1
0.999945 1 1 0.999945
0.999858 1 1 0.999858
1 1 1 1
1 1 1 1
0.999955 1 1 0.999955
1 1 1 1
1 1 1 1
1 1 1 1
0.999808 1 1 0.999808
0.999814 1 1 0.999814
0.999849 1 1 0.999849
0.999816 1 1 0.999816
0.999852 1 1 0.999852
0.99995 1 1 0.99995
0.999853 1 1 0.999853
0.999957 1 1 0.999957
1 1 1 1
0.999964 1 1 0.999964
1 1 1 1
1 1 1 1
1 1 1 1
1 1 1 1
1 1 1 1
0.984679 0.986272 0.998582 0.999803
0.965311 0.967849 0.998896 0.998481
0.966732 0.973522 0.993669 0.999352
0.999778 1 1 0.999778
0.999775 1 1 0.999775
0.999798 1 1 0.999798
0.999781 1 1 0.999781
0.999791 1 1 0.999791
0.999798 1 1 0.999798
0.999758 1 1 0.999758
0.999732 1 1 0.999732
0.999761 1 1 0.999761
0.999738 1 1 0.999738
0.999649 1 1 0.999649
0.999442 1 1 0.999442
0.9997 1 1.00013 0.999572
0.999711 1 1 0.999711
0.996831 1.00024 0.997046 0.999548
0.991973 0.995438 0.996885 0.999633
0.974406 0.974818 1.00072 0.998861
0.997183 0.998579 0.999144 0.999457
1.00128 1.00425 0.997583 0.99945
1.00336 1 1.00378 0.999573
0.999845 1 1.00002 0.999825
0.989085 0.985341 1.00397 0.999826
0.963214 0.966694 0.997922 0.998475
0.980942 1.00503 0.976437 0.999584
0.990309 0.994548 0.996243 0.999492
0.987786 1.00192 0.986183 0.999702
1.00107 1 1.00141 0.999663
0.999249 1 0.999588 0.99966
0.999623 1 1 0.999623
0.995829 1 0.995951 0.999878
0.998 1 0.998138 0.999862
0.999755 1 1 0.999755
0.999302 1 0.999384 0.999918
0.999791 1 0.999957 0.999834
0.999745 1 1 0.999745
0.99985 1 1 0.99985
0.999797 1 1 0.999797
0.999733 1 1 0.999733
0.999816 1 1 0.999816
0.999774 1 1 0.999774
0.999749 1 1 0.999749
0.999793 1 1 0.999793
0.999768 1 1 0.999768
0.999767 1 1 0.999767
0.999761 1 1 0.999761
0.999773 1 1 0.999773
0.999809 1 1 0.999809
0.999912 1 1 0.999912
0.999821 1 1 0.999821
0.999776 1 1 0.999776
1 1 1 1
0.999929 1 1 0.999929
0.999841 1 1 0.999841
1 1 1 1
1 1 1 1
0.999944 1 1 0.999944
1 1 1 1
1 1 1 1
1 1 1 1
0.999795 1 1 0.999795
0.999808 1 1 0.999808
0.999848 1 1 0.999848
0.999818 1 1 0.999818
0.999852 1 1 0.999852
0.999943 1 1 0.999943
0.999852 1 1 0.999852
0.99995 1 1 0.99995
1 1 1 1
0.999957 1 1 0.999957
1 1 1 1
1 1 1 1
1 1 1 1
1 1 1 1
1 1 1 1
0.997924 1.00009 0.998047 0.999785
0.985033 0.987573 0.998008 0.999419
0.966351 0.968098 0.999659 0.998535
0.999785 1 1 0.999785
0.99974 1 1 0.99974
0.99978 1 1 0.99978
0.999781 1 1 0.999781
0.99979 1 1 0.99979
0.999794 1 1 0.999794
0.999683 1 1 0.999683
0.999765 1 1 0.999765
0.999753 1 1 0.999753
0.99965 1 1 0.99965
0.999516 1 1 0.999516
0.999599 1 1 0.999599
0.999453 1 1 0.999453
0.999579 1 1 0.999579
0.998706 1.0018 0.997352 0.99956
0.990794 0.994916 0.996435 0.99942
1.00258 1.00383 0.999385 0.99937
0.999822 1 1 0.999822
1.00099 1 1.00116 0.99983
0.987473 0.98512 1.00298 0.999411
0.991759 1.00132 0.990765 0.999685
1.00006 1 1.00034 0.999714
0.998888 1.00003 0.999187 0.99967
0.999647 1 1 0.999647
0.999662 1 1 0.999662
0.999767 1 1 0.999767
0.99881 1 0.998947 0.999863
0.999759 1 1 0.999759
0.99968 1 1 0.99968
0.999832 1 1 0.999832
0.999746 1 1 0.999746
0.999692 1 1 0.999692
0.999802 1 1 0.999802
0.999733 1 1 0.999733
0.999713 1 1 0.999713
0.999774 1 1 0.999774
0.999749 1 1 0.999749
0.99975 1 1 0.99975
0.99977 1 1 0.99977
0.999767 1 1 0.999767
0.999799 1 1 0.999799
0.99977 1 1 0.99977
0.999808 1 1 0.999808
0.999896 1 1 0.999896
0.999999 1 1 0.999999
0.999912 1 1 0.999912
0.999825 1 1 0.999825
1 1 1 1
1 1 1 1
0.999929 1 1 0.999929
1 1 1 1
1 1 1 1
1 1 1 1
0.999763 1 1 0.999763
0.999791 1 1 0.999791
0.999836 1 1 0.999836
0.999808 1 1 0.999808
0.999847 1 1 0.999847
0.999934 1 1 0.999934
0.999854 1 1 0.999854
0.999943 1 1 0.999943
1 1 1 1
0.99995 1 1 0.99995
1 1 1 1
1 1 1 1
1 1 1 1
1 1 1 1
1 1 1 1
0.999798 1 1 0.999798
0.997857 1 0.998058 0.999797
0.984384 0.986214 0.998319 0.999825
0.999716 1 1 0.999716
0.9998 1 1 0.9998
0.999678 1 1 0.999678
0.999737 1 1 0.999737
0.999782 1 1 0.999782
0.999579 1 1 0.999579
0.999791 1 1 0.999791
0.999684 1 1 0.999684
0.999584 1 1 0.999584
0.999651 1 1 0.999651
0.999503 1 1 0.999503
0.999593 1 1 0.999593
0.999464 1 1 0.999464
1.00064 1.00336 0.997715 0.999573
0.999841 1 1 0.999841
0.999819 1 1 0.999819
1.00208 1 1.00224 0.999836
0.998622 1.00003 0.998911 0.999681
0.999671 1 1 0.999671
0.999657 1 1 0.999657
0.99977 1 1 0.99977
0.999739 1 1 0.999739
0.999763 1 1 0.999763
0.999684 1 1 0.999684
0.999674 1 1 0.999674
0.999747 1 1 0.999747
0.99969 1 1 0.99969
0.99968 1 1 0.99968
0.999733 1 1 0.999733
0.999712 1 1 0.999712
0.99972 1 1 0.99972
0.999749 1 1 0.999749
0.99975 1 1 0.99975
0.99978 1 1 0.99978
0.999767 1 1 0.999767
0.999799 1 1 0.999799
0.999881 1 1 0.999881
0.999806 1 1 0.999806
0.999896 1 1 0.999896
0.999995 1 1 0.999995
1 1 1 1
0.999998 1 1 0.999998
0.999911 1 1 0.999911
1 1 1 1
0.999999 1 1 0.999999
1 1 1 1
0.99969 1 1 0.99969
0.999733 1 1 0.999733
0.999759 1 1 0.999759
0.999821 1 1 0.999821
0.999787 1 1 0.999787
0.999837 1 1 0.999837
0.999925 1 1 0.999925
0.999847 1 1 0.999847
0.999935 1 1 0.999935
1 1 1 1
0.999944 1 1 0.999944
1 1 1 1
1 1 1 1
1 1 1 1
1 1 1 1
1 1 1 1
0.999749 1 1 0.999749
0.999804 1.00001 1 0.999791
0.998227 1.00038 0.998043 0.999809
0.999621 1 1 0.999621
0.999732 1 1 0.999732
0.999816 1 1 0.999816
0.999685 1 1 0.999685
0.999735 1 1 0.999735
0.99957 1 1 0.99957
0.999571 1 1 0.999571
0.999684 1 1 0.999684
0.999579 1 1 0.999579
0.99949 1 1 0.99949
0.999613 1.00003 1 0.999588
0.999815 1 1 0.999815
0.999838 1 1 0.999838
0.999816 1 1 0.999816
0.999653 1 1 0.999653
0.999774 1 1 0.999774
0.999738 1 1 0.999738
0.999731 1 1 0.999731
0.999688 1 1 0.999688
0.999671 1 1 0.999671
0.999686 1 1 0.999686
0.999688 1 1 0.999688
0.999679 1 1 0.999679
0.999692 1 1 0.999692
0.999712 1 1 0.999712
0.99972 1 1 0.99972
0.999754 1 1 0.999754
0.99975 1 1 0.99975
0.99978 1 1 0.99978
0.999861 1 1 0.999861
0.999799 1 1 0.999799
0.999881 1 1 0.999881
0.999991 1 1 0.999991
0.999896 1 1 0.999896
0.999994 1 1 0.999994
1 1 1 1
1 1 1 1
0.999997 1 1 0.999997
1 1 1 1
0.999637 1 1 0.999637
0.999727 1 1 0.999727
0.999713 1 1 0.999713
0.999795 1 1 0.999795
0.999733 1 1 0.999733
0.999755 1 1 0.999755
0.999822 1 1 0.999822
0.999913 1 1 0.999913
0.999837 1 1 0.999837
0.999926 1 1 0.999926
1 1 1 1
0.999935 1 1 0.999935
1 1 1 1
1 1 1 1
1 1 1 1
1 1 1 1
1 1 1 1
0.999701 1 1 0.999701
0.999749 1 1 0.999749
0.999784 1 1 0.999784
0.999595 1 1 0.999595
0.999622 1 1 0.999622
0.999748 1 1 0.999748
0.999693 1 1 0.999693
0.99957 1 1 0.99957
0.999563 1 1 0.999563
0.999574 1 1 0.999574
0.999776 1 1 0.999776
0.999801 1 1 0.999801
0.999834 1 1 0.999834
0.99973 1 1 0.99973
0.999738 1 1 0.999738
0.99973 1 1 0.99973
0.999717 1 1 0.999717
0.999667 1 1 0.999667
0.999687 1 1 0.999687
0.99969 1 1 0.99969
0.999679 1 1 0.999679
0.999692 1 1 0.999692
0.999731 1 1 0.999731
0.999719 1 1 0.999719
0.999754 1 1 0.999754
0.999838 1 1 0.999838
0.99978 1 1 0.99978
0.999861 1 1 0.999861
0.999986 1 1 0.999986
0.999881 1 1 0.999881
0.99999 1 1 0.99999
1 1 1 1
0.999993 1 1 0.999993
1 1 1 1
1 1 1 1
0.999609 1 1 0.999609
0.999672 1 1 0.999672
0.999646 1 1 0.999646
0.999776 1 1 0.999776
0.999725 1 1 0.999725
0.999737 1 1 0.999737
0.999889 1 1 0.999889
0.999795 1 1 0.999795
0.999733 1 1 0.999733
0.999822 1 1 0.999822
0.999914 1 1 0.999914
0.999997 1 1 0.999997
0.999926 1 1 0.999926
1 1 1 1
1 1 1 1
1 1 1 1
1 1 1 1
1 1 1 1
0.999682 1 1 0.999682
0.999691 1 1 0.999691
0.999749 1 1 0.999749
0.999588 1 1 0.999588
0.999622 1 1 0.999622
0.999571 1 1 0.999571
0.999732 1 1 0.999732
0.999779 1 1 0.999779
0.999786 1 1 0.999786
0.999726 1 1 0.999726
0.999714 1 1 0.999714
0.999728 1 1 0.999728
0.999718 1 1 0.999718
0.999714 1 1 0.999714
0.999687 1 1 0.999687
0.999692 1 1 0.999692
0.999722 1 1 0.999722
0.999692 1 1 0.999692
0.999731 1 1 0.999731
0.999818 1 1 0.999818
0.999754 1 1 0.999754
0.999837 1 1 0.999837
0.999981 1 1 0.999981
0.999861 1 1 0.999861
0.999985 1 1 0.999985
1 1 1 1
0.999988 1 1 0.999988
1 1 1 1
1 1 1 1
0.999678 1 1 0.999678
0.999634 1 1 0.999634
0.999606 1 1 0.999606
0.999731 1 1 0.999731
0.999677 1 1 0.999677
0.999655 1 1 0.999655
0.999858 1 1 0.999858
0.999766 1 1 0.999766
0.999723 1 1 0.999723
0.99999 1 1 0.99999
0.999889 1 1 0.999889
0.999795 1 1 0.999795
0.999914 1 1 0.999914
0.999998 1 1 0.999998
1 1 1 1
1 1 1 1
1 1 1 1
1 1 1 1
0.999676 1 1 0.999676
0.999679 1 1 0.999679
0.99968 1 1 0.99968
0.99958 1 1 0.99958
0.999702 1 1 0.999702
0.999736 1 1 0.999736
0.999782 1 1 0.999782
0.999723 1 1 0.999723
0.999715 1 1 0.999715
0.999724 1 1 0.999724
0.999718 1 1 0.999718
0.999714 1 1 0.999714
0.999729 1 1 0.999729
0.999693 1 1 0.999693
0.999723 1 1 0.999723
0.999808 1 1 0.999808
0.99973 1 1 0.99973
0.999818 1 1 0.999818
0.999977 1 1 0.999977
0.999837 1 1 0.999837
0.99998 1 1 0.99998
1 1 1 1
0.999983 1 1 0.999983
1 1 1 1
1 1 1 1
0.999683 1 1 0.999683
0.999672 1 1 0.999672
0.999677 1 1 0.999677
0.999685 1 1 0.999685
0.999643 1 1 0.999643
0.999603 1 1 0.999603
0.999812 1 1 0.999812
0.99973 1 1 0.99973
0.999682 1 1 0.999682
0.999981 1 1 0.999981
0.99985 1 1 0.99985
0.999756 1 1 0.999756
1 1 1 1
0.999993 1 1 0.999993
0.99989 1 1 0.99989
0.999999 1 1 0.999999
1 1 1 1
1 1 1 1
0.999686 1 1 0.999686
0.999684 1 1 0.999684
0.999675 1 1 0.999675
0.99971 1 1 0.99971
0.999702 1 1 0.999702
0.99974 1 1 0.99974
0.999717 1 1 0.999717
0.999724 1 1 0.999724
0.999752 1 1 0.999752
0.999715 1 1 0.999715
0.999735 1 1 0.999735
0.999799 1 1 0.999799
0.999723 1 1 0.999723
0.999808 1 1 0.999808
0.999973 1 1 0.999973
0.999817 1 1 0.999817
0.999976 1 1 0.999976
1 1 1 1
0.999978 1 1 0.999978
1 1 1 1
1 1 1 1
0.999685 1 1 0.999685
0.999695 1 1 0.999695
0.999682 1 1 0.999682
0.999703 1 1 0.999703
0.999675 1 1 0.999675
0.999676 1 1 0.999676
0.999782 1 1 0.999782
0.999695 1 1 0.999695
0.999651 1 1 0.999651
0.999972 1 1 0.999972
0.999807 1 1 0.999807
0.99973 1 1 0.99973
1 1 1 1
0.999984 1 1 0.999984
0.999841 1 1 0.999841
1 1 1 1
0.999995 1 1 0.999995
1 1 1 1
0.9997 1 1 0.9997
0.999687 1 1 0.999687
0.999693 1 1 0.999693
0.999738 1 1 0.999738
0.999709 1 1 0.999709
0.999701 1 1 0.999701
0.999725 1 1 0.999725
0.999752 1 1 0.999752
0.999803 1 1 0.999803
0.999741 1 1 0.999741
0.999803 1 1 0.999803
0.999969 1 1 0.999969
0.999808 1 1 0.999808
0.999972 1 1 0.999972
1 1 1 1
0.999975 1 1 0.999975
1 1 1 1
1 1 1 1
0.999702 1 1 0.999702
0.999681 1 1 0.999681
0.999719 1 1 0.999719
0.999696 1 1 0.999696
0.999681 1 1 0.999681
0.999789 1 1 0.999789
0.999701 1 1 0.999701
0.999678 1 1 0.999678
0.999966 1 1 0.999966
0.999786 1 1 0.999786
0.999705 1 1 0.999705
1 1 1 1
0.999974 1 1 0.999974
0.999803 1 1 0.999803
1 1 1 1
0.999987 1 1 0.999987
1 1 1 1
0.999732 1 1 0.999732
0.999701 1 1 0.999701
0.999687 1 1 0.999687
0.999795 1 1 0.999795
0.999738 1 1 0.999738
0.999708 1 1 0.999708
0.999752 1 1 0.999752
0.999804 1 1 0.999804
0.999967 1 1 0.999967
0.999808 1 1 0.999808
0.999969 1 1 0.999969
1 1 1 1
0.999971 1 1 0.999971
1 1 1 1
1 1 1 1
0.999726 1 1 0.999726
0.999699 1 1 0.999699
0.999676 1 1 0.999676
0.999797 1 1 0.999797
0.999719 1 1 0.999719
0.999697 1 1 0.999697
0.999966 1 1 0.999966
0.999789 1 1 0.999789
0.9997 1 1 0.9997
1 1 1 1
0.999968 1 1 0.999968
0.999791 1 1 0.999791
1 1 1 1
0.999977 1 1 0.999977
1 1 1 1
0.999802 1 1 0.999802
0.999727 1 1 0.999727
0.999701 1 1 0.999701
0.999965 1 1 0.999965
0.999796 1 1 0.999796
0.999738 1 1 0.999738
0.999804 1 1 0.999804
0.999966 1 1 0.999966
1 1 1 1
0.999968 1 1 0.999968
1 1 1 1
1 1 1 1
0.999802 1 1 0.999802
0.999724 1 1 0.999724
0.999696 1 1 0.999696
0.999967 1 1 0.999967
0.999797 1 1 0.999797
0.999719 1 1 0.999719
1 1 1 1
0.999966 1 1 0.999966
0.999788 1 1 0.999788
1 1 1 1
0.999969 1 1 0.999969
1 1 1 1
0.999964 1 1 0.999964
0.999797 1 1 0.999797
0.999722 1 1 0.999722
1 1 1 1
0.999964 1 1 0.999964
0.999797 1 1 0.999797
0.999966 1 1 0.999966
1 1 1 1
1 1 1 1
0.999965 1 1 0.999965
0.999802 1 1 0.999802
0.999723 1 1 0.999723
1 1 1 1
0.999967 1 1 0.999967
0.999796 1 1 0.999796
1 1 1 1
0.999966 1 1 0.999966
1 1 1 1
1 1 1 1
0.999964 1 1 0.999964
0.999792 1 1 0.999792
1 1 1 1
0.999964 1 1 0.999964
1 1 1 1
1 1 1 1
0.999966 1 1 0.999966
0.999802 1 1 0.999802
1 1 1 1
0.999966 1 1 0.999966
1 1 1 1
1 1 1 1
0.999965 1 1 0.999965
1 1 1 1
1 1 1 1
0.999967 1 1 0.999967
1 1 1 1
1 1 1 1
1 1 1 1

VECTORS lamdaE float
0.999055 0.999367 0.997297
0.999231 0.998409 0.999
0.999027 0.999389 0.997333
0.998907 1.00005 0.997005
0.998951 0.99973 0.997176
0.999175 0.998905 0.997487
0.999489 1.00018 0.995537
0.999259 0.998339 0.999022
0.998829 0.999673 0.998835
0.999083 0.998763 0.998978
0.999376 0.998046 0.997892
0.999491 0.999756 0.99572
0.999101 1 0.996837
0.998842 1.00015 0.99708
0.998998 0.999407 0.99737
0.998866 1.00012 0.997036
0.999155 0.998896 0.997527
0.998917 0.999774 0.997208
0.999506 1.00018 0.995537
0.999014 1.00001 0.998675
0.998942 1.00004 0.996994
0.998894 0.999966 0.997081
0.999776 1.00025 0.994982
0.999553 1.00027 0.995349
0.999306 0.998401 0.997713
0.999427 1.00001 0.995799
1.00032 1.00097 0.993208
0.999288 0.998264 0.999045
0.99886 0.999744 0.998021
0.99911 0.99886 0.99826
0.999368 0.997969 0.999087
0.999464 0.999773 0.995722
0.99886 1.00016 0.997101
0.998979 0.999498 0.997392
0.9996 1.00029 0.995669
0.999464 0.997617 0.999171
0.999482 0.999944 0.996159
0.999518 0.999461 0.995955
0.999924 1.00121 0.993435
0.999639 0.997216 0.999193
0.999092 1.00002 0.998622
0.998888 1.00008 0.99789
0.999177 0.999988 0.998574
0.998917 1.00006 0.997027
1.00013 0.999979 0.994139
0.998799 1.00009 0.998772
0.999922 1.00013 0.995292
0.998823 1.0002 0.997068
0.998882 0.999817 0.997242
0.999134 0.998879 0.997569
0.999523 1.00017 0.995536
0.999007 1 0.99783
0.998905 1.00008 0.997022
0.999292 0.998368 0.997749
0.998857 1.00003 0.997113
0.999801 1.00023 0.994982
0.999441 1.00001 0.995801
0.999578 1.00025 0.995349
1.00035 1.00098 0.993169
0.999081 0.999991 0.998633
0.99896 1.00001 0.997007
1.00003 0.999982 0.995187
0.999887 1.00012 0.99491
0.999641 1.0003 0.995164
1.00117 1.00036 0.992214
1.00056 1.0007 0.992808
0.999461 0.997936 0.997899
0.99941 0.999691 0.996133
1.00003 1.00118 0.993522
1.00088 1.00092 0.991868
0.998886 0.999561 0.998829
0.999401 0.997898 0.999116
0.999146 0.998694 0.998972
0.999436 0.999797 0.995723
0.998851 0.999958 0.998747
0.998957 0.999292 0.99887
0.999538 1.00042 0.994906
0.999482 0.997653 0.998588
0.999451 1.00005 0.995484
0.999508 0.999409 0.996284
0.999916 1.00123 0.993422
0.999558 0.99742 0.999172
0.999791 0.998458 0.996411
0.999706 1.00038 0.994636
0.999506 1.00029 0.995138
1.00052 1.00076 0.992701
0.999593 0.999042 0.996765
1.00004 1.00108 0.993353
0.999873 1.00121 0.993546
1.00027 1.00147 0.992473
0.999705 0.997026 0.999219
0.999651 0.997199 0.999201
0.998888 1.00005 0.998719
0.999044 1.00001 0.99865
0.999158 0.999988 0.998584
0.998964 1.00004 0.997838
1.00012 0.99997 0.994607
0.998829 1.00008 0.997913
0.999884 1.00012 0.994896
0.999165 0.999975 0.998584
1.00022 0.999901 0.994007
1.00003 1.00005 0.995185
1.00169 0.999885 0.991231
0.999807 1.00024 0.995368
1.00135 1.00017 0.991664
0.999044 0.999987 0.996936
0.998865 1.00014 0.997049
0.999275 0.998328 0.997787
0.998817 1.00009 0.997148
0.999828 1.0002 0.994981
0.999603 1.00023 0.995348
0.999457 1.00002 0.995802
1.00038 1.00098 0.99313
0.999111 0.999993 0.998613
0.99893 1.00002 0.99704
1.00005 0.999975 0.994542
0.999909 1.00011 0.994902
0.999424 0.99791 0.998504
0.999436 0.999682 0.996271
0.99967 1.00027 0.995167
1.00117 1.00033 0.99213
1.00008 1.0012 0.993475
1.00059 1.00072 0.992862
1.00087 1.00092 0.991875
1.00014 0.999933 0.994141
0.999931 1.00003 0.994923
1.00159 0.999894 0.991673
1.00135 1.0001 0.991897
1.00086 1.00051 0.992443
1.00184 1.0002 0.990907
0.999524 0.997607 0.99915
1.00112 1.00061 0.99168
0.999531 0.999304 0.996055
0.999844 1.00123 0.993507
1.0006 1.00134 0.992061
1.00121 1.0008 0.991354
0.999726 0.998676 0.996285
1.00006 1.00044 0.993944
0.998841 0.99986 0.998766
0.998992 0.999148 0.998904
0.999486 1.0005 0.994907
0.999502 0.997611 0.999161
0.999496 0.999392 0.995999
0.999397 1.00013 0.995467
0.999907 1.00125 0.99341
0.999575 0.997402 0.999178
0.999797 0.998428 0.996417
0.999668 1.00035 0.995077
0.999459 1.00027 0.995547
1.00052 1.00074 0.992708
0.999606 0.999013 0.996221
1.00003 1.00109 0.993348
0.999851 1.00124 0.99354
1.00028 1.00145 0.992451
0.999702 0.998727 0.99632
0.999855 0.998216 0.996528
1.00007 1.00036 0.993985
1.00085 1.00052 0.992286
1.00022 1.00096 0.993106
1.00109 1.00077 0.991611
0.99993 1.00092 0.993719
1.00047 1.00113 0.992412
1.00013 1.0018 0.992501
1.00039 1.0017 0.992094
0.99976 0.996843 0.99925
0.999713 0.997007 0.999229
0.999663 0.997181 0.999209
0.999791 0.998417 0.996429
0.999598 0.997401 0.999178
0.998845 1.00001 0.998735
0.998955 1.00004 0.998695
0.99987 1.00013 0.994488
1.0001 0.999961 0.994186
0.999139 0.999986 0.998598
0.999175 0.999978 0.998576
1.00022 0.999896 0.994012
0.999989 1.00004 0.994791
1.00169 0.999886 0.991234
0.999764 1.00028 0.994561
1.00134 1.00017 0.99167
1.00023 0.999879 0.993993
1.00185 0.999808 0.991002
1.00152 1 0.991465
1.00239 0.99976 0.990021
1.00113 1.00033 0.99193
1.00201 0.999981 0.990569
0.999142 0.999994 0.998594
0.998899 1.00004 0.997073
1.00004 0.999981 0.993919
0.999933 1.00009 0.994893
0.999381 0.997879 0.999122
0.999461 0.999682 0.996408
0.9997 1.00024 0.995168
1.00117 1.00032 0.992047
1.00061 1.00073 0.992915
1.00012 1.00121 0.993428
1.00087 1.00092 0.991881
1.00015 0.999935 0.994133
0.999956 1.00002 0.99491
1.00157 0.999898 0.991494
1.00136 1.00012 0.991954
0.999504 0.997628 0.999141
0.99953 0.999319 0.996337
0.99989 1.00123 0.993639
1.00086 1.00051 0.992451
1.00182 1.00016 0.990809
1.00056 1.00134 0.992044
1.00115 1.00061 0.991721
1.0012 1.0008 0.991366
0.999714 0.998718 0.996282
1.00006 1.00042 0.993948
1.00174 0.999825 0.991198
1.00146 0.999962 0.991827
1.00228 0.999817 0.990414
1.00205 0.999891 0.990468
1.00141 1.0004 0.991411
1.00219 0.999902 0.990436
0.999625 0.998971 0.996174
1.00149 1.00037 0.99121
0.999849 1.00114 0.993628
1.00024 1.00155 0.992339
1.00092 1.00145 0.991516
1.0014 1.00058 0.991251
1.00002 1.0007 0.993768
1.00007 1.0001 0.994256
1.0002 1.00154 0.992591
0.999621 1.00045 0.994689
0.999591 0.997384 0.999185
0.999804 0.998399 0.996424
0.999397 1.00039 0.995198
1.00052 1.00072 0.992716
0.9996 0.998985 0.996211
0.99983 1.00128 0.993533
1.00002 1.00109 0.993343
1.00029 1.00144 0.992428
0.999709 0.998694 0.996323
0.999858 0.998192 0.996537
1.00007 1.00037 0.993983
1.00085 1.00051 0.992293
1.00021 1.00095 0.993111
1.00108 1.00077 0.991614
0.999907 1.00096 0.993718
1.00047 1.00114 0.992451
1.00013 1.0018 0.992496
1.00038 1.00169 0.992052
0.999899 0.997995 0.996667
1.00002 1.0006 0.993851
1.00009 1.00012 0.994188
1.0002 1.00142 0.992726
1.00145 1.00046 0.991175
1.00071 1.00101 0.992126
1.00138 1.00075 0.991049
1.00012 1.0017 0.992623
1.00064 1.00125 0.992038
1.00018 1.00228 0.991927
1.00048 1.00173 0.99175
1.00013 0.999214 0.995026
0.999964 0.997613 0.99692
0.999808 0.996665 0.999283
0.999766 0.996823 0.99926
0.999722 0.99699 0.999238
0.999833 0.998161 0.99661
0.99965 0.9972 0.999215
0.999782 0.998453 0.99642
0.999585 0.997417 0.99917
0.999752 1.00029 0.994571
0.999982 1.00003 0.994367
1.00134 1.00017 0.991676
1.00169 0.999889 0.991237
1.00022 0.999891 0.994017
0.999184 0.999979 0.998572
1.00024 0.999882 0.993986
1.00185 0.999806 0.991005
1.00152 1.00001 0.991469
1.0024 0.999764 0.99002
1.00112 1.00034 0.991938
1.00202 0.999978 0.99057
1.00186 0.999785 0.991003
1.00255 0.999721 0.989756
1.00222 0.999824 0.990304
1.00271 0.999519 0.989679
1.00176 1.0002 0.990849
1.00236 0.999682 0.990179
1.00015 0.999939 0.994125
0.999981 1.00001 0.994897
1.00156 0.999892 0.991315
1.00138 1.00015 0.992011
0.999484 0.997649 0.999132
0.999531 0.999335 0.996611
0.999935 1.00121 0.99377
1.00086 1.00051 0.992458
1.0018 1.00012 0.990712
1.00118 1.00062 0.991761
1.00051 1.00135 0.992026
1.00119 1.0008 0.991377
0.999704 0.998759 0.996278
1.00007 1.0004 0.993952
1.00173 0.999825 0.991132
1.00146 0.999963 0.991829
1.00227 0.999798 0.990369
1.00206 0.999932 0.990574
0.999622 0.999007 0.996173
0.999873 1.00111 0.993632
1.00024 1.00155 0.992406
1.00144 1.00041 0.991407
1.00217 0.999846 0.990416
1.00087 1.00146 0.991441
1.00149 1.00037 0.991211
1.00138 1.00056 0.991239
1.00003 1.00066 0.993774
1.00021 1.00151 0.992572
1.00007 1.0001 0.994252
1.00242 0.999783 0.99016
1.00219 0.999816 0.990482
1.0026 0.999699 0.989797
1.00244 0.999637 0.99008
1.00173 1.00008 0.990931
1.00238 0.999428 0.990486
0.999923 1.00093 0.993699
1.00166 1.00007 0.991164
1.00016 1.00156 0.992653
1.00041 1.00187 0.99171
1.00106 1.0015 0.991048
1.00151 1.00032 0.991441
1.00008 0.999752 0.994591
1.0002 1.0015 0.992634
1.00018 1.00146 0.992602
1.00022 1.00206 0.992139
1.00085 1.00051 0.9923
0.999862 0.998168 0.996545
0.999717 0.998658 0.996327
1.00006 1.00039 0.993982
1.00021 1.00094 0.993117
1.00107 1.00077 0.991616
0.999882 1.001 0.993717
1.00012 1.00181 0.99249
1.00048 1.00114 0.992491
1.00037 1.00169 0.992011
0.999899 0.997977 0.996675
1.00001 1.00063 0.993848
1.00009 1.00012 0.99419
1.00019 1.00143 0.992719
1.00146 1.00047 0.991171
1.0007 1.00101 0.992135
1.00138 1.00075 0.991052
1.00011 1.00172 0.992625
1.00065 1.00126 0.992081
1.00018 1.00229 0.99191
1.00046 1.0017 0.991857
0.999933 0.997791 0.996809
1.0001 0.999863 0.994432
1.00019 1.00148 0.992699
1.0002 1.0013 0.992838
1.0002 1.002 0.992124
1.00178 1.00035 0.990646
1.00092 1.00108 0.991638
1.00148 1.0008 0.990821
1.00013 1.00231 0.992011
1.00072 1.00138 0.991742
1.00027 1.00254 0.991265
1.00012 0.999385 0.994871
1.00015 1.00042 0.993816
1.00013 0.999094 0.995146
1.00013 0.99922 0.995028
0.999984 0.99744 0.997467
0.999959 0.997596 0.997159
0.999875 0.996527 0.998401
0.999813 0.996645 0.999293
0.999772 0.996803 0.99927
0.999867 0.99793 0.996782
0.999696 0.996992 0.999256
0.999832 0.998186 0.996598
0.999644 0.997221 0.999203
0.999775 0.998488 0.996411
0.999572 0.997434 0.999162
1.00112 1.00034 0.991945
1.00152 1.00001 0.991472
1.00202 0.999981 0.990571
1.00241 0.999768 0.990019
1.00185 0.999803 0.991007
1.00025 0.999887 0.993983
1.00186 0.999782 0.990999
1.00255 0.999723 0.989758
1.00222 0.99983 0.990307
1.00272 0.999505 0.98966
1.00176 1.00021 0.990844
1.00236 0.99969 0.990179
1.00255 0.999728 0.989743
1.00281 0.999541 0.989412
1.00258 0.999516 0.989904
1.00292 0.999195 0.989652
1.00209 0.999985 0.990415
1.00255 0.999105 0.990401
1.00172 0.999827 0.991066
1.00147 0.999959 0.99183
1.00227 0.999782 0.990324
1.00207 0.999973 0.990681
0.999619 0.999043 0.996172
0.999897 1.00108 0.993636
1.00024 1.00155 0.992473
1.00147 1.00043 0.991404
1.00216 0.999789 0.990396
1.0015 1.00037 0.991213
1.00083 1.00146 0.991366
1.00136 1.00055 0.991228
1.00004 1.00063 0.993781
1.00022 1.00148 0.992552
1.00006 1.00011 0.994249
1.00242 0.999782 0.990065
1.00219 0.999794 0.990483
1.0026 0.999683 0.989743
1.00245 0.99965 0.990098
0.999945 1.0009 0.993704
1.00018 1.00154 0.992647
1.0004 1.00189 0.991786
1.00175 1.00013 0.990958
1.00236 0.999335 0.990534
1.00102 1.00156 0.990975
1.00166 1.00006 0.991168
1.00148 1.00023 0.991479
1.00021 1.00148 0.992644
1.00023 1.00205 0.992089
1.00007 0.999766 0.994585
1.00019 1.00143 0.992642
1.00269 0.999711 0.989527
1.0026 0.999606 0.989887
1.00277 0.999603 0.989492
1.00264 0.999263 0.990027
1.00193 0.999658 0.99099
1.00257 0.998817 0.990727
1.00016 1.00151 0.992696
1.00173 0.999528 0.991555
1.00021 1.00188 0.992101
1.00055 1.00229 0.991159
1.00115 1.00158 0.990705
1.00162 1.00009 0.991475
1.00008 0.999512 0.994824
1.00017 1.00113 0.99293
1.00024 1.00184 0.992228
1.00016 1.00227 0.99197
1.00027 1.00214 0.99195
0.999899 0.997959 0.996684
1.00146 1.00048 0.991167
1.00009 1.00011 0.994191
0.999993 1.00066 0.993845
1.00019 1.00144 0.992712
1.00068 1.00102 0.992145
1.00137 1.00076 0.991055
1.00009 1.00173 0.992627
1.00019 1.00231 0.991893
1.00066 1.00126 0.992124
1.00044 1.00167 0.991965
0.999932 0.997776 0.996816
1.0001 0.999854 0.994435
1.00018 1.0015 0.992696
1.00019 1.00131 0.992832
1.0002 1.002 0.992115
1.00179 1.00035 0.990639
1.00091 1.00108 0.99164
1.00148 1.0008 0.990799
1.00012 1.00231 0.992021
1.00073 1.00138 0.991774
1.00032 1.00251 0.991321
1.0001 0.999611 0.99467
1.0002 1.00109 0.993039
1.00021 1.00202 0.992115
1.00019 1.00201 0.992168
1.0002 1.00228 0.991881
1.00192 1.00021 0.990495
1.00101 1.00117 0.991363
1.00138 1.00077 0.990889
1.00014 1.00283 0.991432
1.00066 1.00234 0.990914
1.00012 0.999381 0.994875
1.00018 1.00063 0.993432
1.00015 1.00043 0.993737
1.00013 1.00135 0.993059
1.00012 1.00035 0.993927
1.00013 0.999006 0.995236
1.00013 0.999104 0.995147
1.00001 0.997297 0.99754
1.00012 0.999227 0.99503
0.999987 0.997436 0.997478
0.999921 0.996371 0.99846
0.999955 0.997583 0.997396
0.999863 0.996495 0.998862
0.999818 0.996626 0.999302
0.999901 0.997732 0.996915
0.99987 0.997944 0.996771
0.999745 0.996788 0.999293
0.999692 0.997016 0.999244
0.99983 0.998211 0.996586
0.999637 0.997242 0.999191
1.00176 1.00021 0.99084
1.00222 0.999831 0.99031
1.00236 0.999697 0.990179
1.00274 0.999489 0.98964
1.00255 0.999724 0.98976
1.00187 0.999779 0.990995
1.00256 0.999727 0.989745
1.00282 0.999557 0.989378
1.00258 0.999525 0.989907
1.00292 0.999174 0.98965
1.00209 0.999991 0.990404
1.00256 0.999062 0.990418
1.00282 0.999644 0.989322
1.0029 0.999465 0.989322
1.00279 0.998911 0.989983
1.00305 0.999093 0.989615
1.00228 0.999527 0.990448
1.00279 0.998481 0.990693
1.00241 0.999776 0.98997
1.0022 0.999777 0.990484
1.0026 0.999668 0.989689
1.00247 0.999661 0.990116
0.999966 1.00086 0.99371
1.0002 1.00153 0.992641
1.00038 1.00191 0.991861
1.00177 1.00018 0.990985
1.00235 0.999241 0.990583
1.00167 1.00006 0.991172
1.00097 1.00161 0.990902
1.00146 1.00015 0.991517
1.00022 1.00146 0.992653
1.00023 1.00203 0.992039
1.00006 0.999778 0.994579
1.0002 1.00139 0.992682
1.00269 0.999709 0.989532
1.0026 0.999602 0.989902
1.00275 0.999617 0.989493
1.00265 0.999267 0.990038
1.00018 1.00149 0.992698
1.00021 1.00187 0.99216
1.00054 1.00233 0.991153
1.00195 0.999727 0.990953
1.00247 0.998755 0.990904
1.00114 1.00165 0.990666
1.00172 0.999544 0.991566
1.00157 0.999893 0.991598
1.00025 1.00183 0.992229
1.00027 1.00211 0.991942
1.00015 1.0023 0.991953
1.00008 0.999514 0.994731
1.00018 1.00108 0.99298
1.00285 0.999666 0.98929
1.00287 0.999426 0.989439
1.0028 0.998751 0.990232
1.00219 0.998838 0.99129
1.00022 1.00179 0.992318
1.00195 0.998891 0.991954
1.00017 1.00227 0.991682
1.0007 1.00277 0.990397
1.00136 1.00151 0.990403
1.00009 0.999323 0.994825
1.00017 1.00078 0.993452
1.00012 1.00205 0.992252
1.00027 1.00191 0.992106
1.00018 1.00272 0.991523
1.00032 1.00213 0.991788
0.99993 0.997762 0.996823
1.0001 0.999846 0.994438
1.0018 1.00035 0.990632
1.00019 1.00132 0.992826
1.00016 1.00151 0.992692
1.00019 1.002 0.992105
1.00091 1.00109 0.991643
1.00147 1.0008 0.990776
1.00011 1.0023 0.99203
1.00037 1.00248 0.991377
1.00074 1.00138 0.991806
1.00011 0.999603 0.994674
1.0002 1.0011 0.993035
1.0002 1.002 0.992154
1.00019 1.00202 0.99216
1.00019 1.0023 0.991851
1.00191 1.00025 0.990477
1.00103 1.00116 0.991345
1.00143 1.00075 0.990899
1.00012 1.00283 0.991388
1.00067 1.00244 0.990819
1.00019 1.00085 0.993289
1.00019 1.00192 0.992174
1.00021 1.00246 0.991729
1.0002 1.00236 0.991732
1.00026 1.00238 0.99164
1.00218 0.999014 0.991112
1.00108 1.00179 0.990702
1.00146 1.00048 0.990655
1.00034 1.00316 0.990928
1.00064 1.00285 0.989963
1.00012 0.999378 0.99488
1.00018 1.00063 0.99348
1.00016 1.00155 0.992594
1.00016 1.00045 0.993658
1.00012 1.00035 0.993927
1.00014 1.00135 0.992949
1.00013 1.00202 0.992362
1.00012 1.00127 0.99296
1.0001 1.0003 0.994021
1.00014 0.998959 0.995282
1.00013 0.99901 0.995237
1.00004 0.997172 0.997598
1.00013 0.999113 0.995147
1.00002 0.997296 0.99755
0.999959 0.996239 0.998507
0.99999 0.997431 0.997489
0.999916 0.996343 0.998457
0.999848 0.996458 0.999327
0.999938 0.997562 0.997013
0.999906 0.997739 0.996908
0.999797 0.996603 0.999321
0.999873 0.997957 0.996761
0.999741 0.996813 0.999282
0.999688 0.99704 0.999231
1.0021 0.999998 0.990393
1.00259 0.999536 0.989909
1.00258 0.999017 0.990435
1.00293 0.999152 0.989648
1.00284 0.999575 0.989343
1.00256 0.999726 0.989746
1.00282 0.999651 0.989311
1.0029 0.99947 0.989333
1.00284 0.998941 0.989924
1.003 0.999081 0.989584
1.00227 0.999583 0.99044
1.00273 0.998301 0.990874
1.00289 0.999609 0.989218
1.0029 0.999435 0.989381
1.00298 0.998559 0.990073
1.00258 0.998284 0.991171
1.00269 0.999708 0.989537
1.00259 0.999597 0.989917
1.00272 0.99963 0.989494
1.00266 0.999271 0.990049
1.0002 1.00148 0.992699
1.00022 1.00186 0.99222
1.00053 1.00236 0.991147
1.00198 0.999797 0.990916
1.00236 0.998696 0.991081
1.00171 0.999559 0.991577
1.00113 1.00171 0.990627
1.00153 0.999703 0.99172
1.00026 1.00183 0.99223
1.00027 1.00208 0.991933
1.00015 1.00233 0.991937
1.00007 0.999517 0.994638
1.0002 1.00103 0.993029
1.00282 0.999646 0.989313
1.00286 0.999441 0.989475
1.00277 0.998796 0.990296
1.00023 1.00179 0.992311
1.00022 1.00226 0.991765
1.00067 1.00284 0.99038
1.00222 0.998895 0.991222
1.00133 1.00136 0.990585
1.00188 0.998898 0.991918
1.00009 0.999302 0.994847
1.00027 1.00192 0.992097
1.0003 1.00208 0.991849
1.00018 1.00272 0.991512
1.00013 1.00205 0.992284
1.00018 1.00078 0.993371
1.0029 0.999611 0.989268
1.00304 0.999168 0.989366
1.00276 0.998308 0.990649
1.00252 0.997742 0.991847
1.00024 1.00201 0.992069
1.0018 1.00002 0.990983
1.00027 1.00296 0.990897
1.00083 1.00326 0.989775
1.0001 0.999162 0.994982
1.00016 1.0005 0.993774
1.00015 1.00176 0.992601
1.00013 1.00284 0.991454
1.00028 1.00211 0.991871
1.00026 1.0026 0.991417
1.00011 0.999592 0.994679
1.00019 1.00112 0.99303
1.00191 1.0003 0.990458
1.00018 1.00204 0.992152
1.00019 1.00199 0.992193
1.00018 1.00233 0.991821
1.00105 1.00114 0.991328
1.00147 1.00073 0.990909
1.0001 1.00284 0.991344
1.00067 1.00254 0.990723
1.00019 1.00086 0.993289
1.00019 1.00194 0.992195
1.0002 1.00243 0.991784
1.00019 1.00238 0.991766
1.00022 1.0024 0.991688
1.00224 0.99906 0.991146
1.00112 1.0017 0.990736
1.00147 1.00053 0.990851
1.0003 1.00317 0.990869
1.0007 1.00305 0.989887
1.00018 1.00175 0.992373
1.0002 1.00251 0.991582
1.00024 1.00282 0.991295
1.00022 1.00259 0.991389
1.00332 0.997201 0.991017
1.00222 0.998847 0.991059
1.00119 1.00233 0.989857
1.0003 1.00401 0.989709
1.00017 1.00064 0.993527
1.00016 1.00157 0.992637
1.00015 1.0022 0.992065
1.00012 1.00036 0.993927
1.00014 1.00135 0.992839
1.0001 1.0003 0.994021
1.00014 1.00202 0.992276
1.00011 1.00127 0.993002
1.00016 1.00249 0.991796
1.00012 1.00192 0.992307
1.00009 1.00121 0.99306
1.0001 1.00025 0.994093
1.00013 0.998953 0.995292
1.00013 0.998954 0.995285
1.00007 0.997101 0.997616
1.00013 0.999012 0.995238
1.00004 0.997177 0.997603
0.999995 0.996122 0.998542
1.00002 0.997293 0.99756
0.999955 0.996209 0.998503
0.99991 0.996317 0.998453
0.999976 0.997403 0.997098
0.999943 0.997568 0.997009
0.999849 0.996436 0.999343
0.999911 0.997747 0.996902
0.999792 0.996625 0.999313
0.999736 0.996838 0.999271
1.00226 0.999638 0.990433
1.00288 0.998971 0.989865
1.00267 0.998124 0.991054
1.00296 0.999074 0.989554
1.0029 0.999477 0.989343
1.00282 0.999659 0.989301
1.00288 0.999614 0.989247
1.00289 0.999424 0.989394
1.00297 0.998558 0.990102
1.0026 0.998221 0.99115
1.00284 0.999628 0.989307
1.00297 0.999097 0.989669
1.00305 0.997896 0.990551
1.0028 0.999627 0.989336
1.00285 0.999457 0.989512
1.00274 0.998839 0.99036
1.00025 1.00178 0.992304
1.00028 1.00225 0.991847
1.00063 1.00291 0.990363
1.00225 0.998949 0.991154
1.00181 0.998907 0.991882
1.0013 1.00122 0.990767
1.00028 1.00194 0.992088
1.00029 1.00202 0.99191
1.00019 1.00272 0.991501
1.00009 0.99928 0.994869
1.00014 1.00205 0.992317
1.00018 1.00077 0.993291
1.00288 0.999603 0.989274
1.00306 0.999145 0.989353
1.0028 0.998383 0.990558
1.00025 1.00201 0.992054
1.00025 1.00291 0.991023
1.00084 1.00321 0.989823
1.00247 0.997809 0.991903
1.0018 0.999958 0.990972
1.0001 0.999149 0.995074
1.00015 1.0005 0.993779
1.00026 1.00211 0.99187
1.00027 1.00258 0.991442
1.00012 1.00281 0.991497
1.00015 1.00178 0.992533
1.0029 0.999434 0.989385
1.00315 0.998756 0.989561
1.00296 0.996962 0.991601
1.00258 0.997821 0.991956
1.00016 1.00251 0.991625
1.00111 1.00305 0.989412
1.00043 1.00362 0.990279
1.00011 0.999006 0.995273
1.00011 1.00005 0.99425
1.00013 1.00032 0.993823
1.00013 1.00154 0.99278
1.0001 1.00251 0.991786
1.00013 1.00332 0.990969
1.00027 1.00211 0.991734
1.00021 1.00335 0.991215
1.00019 1.00086 0.99329
1.00019 1.00197 0.992216
1.0023 0.999104 0.991179
1.00019 1.0024 0.9918
1.00019 1.0024 0.991838
1.00018 1.00242 0.991736
1.00115 1.00162 0.99077
1.00148 1.00056 0.991045
1.00026 1.00319 0.990811
1.00076 1.00323 0.989812
1.00018 1.00178 0.992338
1.0002 1.00249 0.991638
1.00023 1.00279 0.991355
1.00025 1.00261 0.99143
1.00328 0.99713 0.991061
1.00217 0.999095 0.991031
1.00123 1.00227 0.989954
1.00037 1.00397 0.989658
1.00015 1.00243 0.991839
1.00337 0.997661 0.990183
1.00021 1.00294 0.991264
1.00022 1.00331 0.990808
1.00345 0.996747 0.990929
1.00184 1.00118 0.989648
1.00071 1.00423 0.989184
1.00015 1.00159 0.99268
1.00014 1.00221 0.992069
1.00014 1.00269 0.991587
1.0001 1.0003 0.994022
1.00011 1.00127 0.993044
1.00015 1.00203 0.99219
1.0001 1.00024 0.994096
1.00009 1.00122 0.99305
1.00017 1.00249 0.991726
1.00011 1.00193 0.992393
1.00026 1.00272 0.991373
1.00019 1.0024 0.991736
1.00011 1.00183 0.992521
1.00007 1.00115 0.993245
1.0001 1.00021 0.994126
1.00012 0.998974 0.995285
1.00013 0.998955 0.995292
1.00008 0.997087 0.997601
1.00013 0.998951 0.995287
1.00006 0.997118 0.997615
1.00002 0.996059 0.998542
1.00004 0.997183 0.997609
0.999992 0.996091 0.99854
0.999952 0.99618 0.998499
1.00013 0.998867 0.995388
1.00001 0.997249 0.99718
0.999979 0.997412 0.997094
0.999897 0.996283 0.999364
0.999947 0.997575 0.997005
0.999843 0.996457 0.999337
0.999787 0.996646 0.999305
1.00262 0.998154 0.99113
1.00295 0.998558 0.990132
1.00288 0.999411 0.989407
1.00286 0.99962 0.989276
1.00283 0.999636 0.989329
1.00297 0.999133 0.989604
1.00299 0.997872 0.990695
1.00278 0.999492 0.98958
1.0031 0.998723 0.989751
1.00297 0.998219 0.990293
1.00286 0.999596 0.989279
1.00307 0.999125 0.98934
1.00284 0.998456 0.990466
1.00027 1.00202 0.992038
1.00024 1.00284 0.99115
1.00084 1.00312 0.989871
1.0024 0.997874 0.991958
1.0018 0.999893 0.99096
1.00023 1.00211 0.991869
1.00027 1.00256 0.991466
1.00012 1.00278 0.991541
1.0001 0.999134 0.995165
1.00015 1.0005 0.993784
1.00015 1.0018 0.992465
1.00289 0.999409 0.989422
1.00011 0.999003 0.995271
1.00011 1.00005 0.994196
1.00318 0.998732 0.98956
1.00291 0.997194 0.991429
1.00015 1.00246 0.991692
1.00043 1.00374 0.990112
1.00112 1.00281 0.989465
1.0025 0.997787 0.99192
1.00013 1.00033 0.993974
1.00013 1.00153 0.992778
1.00031 1.00217 0.991715
1.00017 1.003 0.991362
1.0001 1.00341 0.990877
1.00012 1.00249 0.991793
1.00292 0.99898 0.989781
1.00322 0.99811 0.990203
1.00322 0.995564 0.992656
1.00182 1.00057 0.990349
1.00021 1.00287 0.991306
1.00061 1.00455 0.989086
1.0001 0.999954 0.99425
1.00011 1.00018 0.994114
1.00006 1.00103 0.993526
1.0001 1.00136 0.99289
1.00012 1.00228 0.992096
1.00007 1.00311 0.991196
1.00001 1.00413 0.990491
1.00004 1.00303 0.9914
1.00018 1.00182 0.992303
1.0002 1.00246 0.991695
1.00323 0.997056 0.991105
1.00212 0.999358 0.991004
1.00028 1.00263 0.991471
1.00021 1.00276 0.991414
1.00129 1.00225 0.990051
1.00045 1.00391 0.989606
1.00014 1.00243 0.991839
1.00334 0.997552 0.990256
1.0002 1.0029 0.991271
1.00025 1.0033 0.990678
1.00339 0.996797 0.9909
1.00194 1.0011 0.989661
1.00065 1.00431 0.989178
1.00013 1.00297 0.991369
1.00423 0.996187 0.989942
1.00034 1.00308 0.990988
1.00041 1.00416 0.98987
1.00299 0.998483 0.989634
1.001 1.00344 0.988975
1.0032 0.999913 0.989243
1.00013 1.00222 0.992072
1.00013 1.0027 0.991591
1.00025 1.00286 0.991277
1.0001 1.00023 0.9941
1.00009 1.00123 0.99304
1.00011 1.00194 0.992479
1.00018 1.00249 0.991656
1.0001 1.00021 0.994126
1.00007 1.00116 0.993185
1.00026 1.00271 0.991344
1.00011 1.00183 0.99252
1.00017 1.0024 0.991816
1.00035 1.00265 0.991206
1.00015 1.00226 0.992057
1.00011 1.00178 0.992609
1.00008 1.00112 0.993148
1.0001 1.00023 0.993987
1.00007 1.00121 0.993309
1.00009 1.00028 0.993945
1.00012 0.998998 0.995271
1.00012 0.998978 0.995285
1.0001 0.997106 0.997165
1.00013 0.998956 0.995292
1.00009 0.997107 0.997386
1.00001 0.996005 0.999377
1.00006 0.997135 0.997614
1.00002 0.996026 0.998544
0.999991 0.996061 0.998538
1.00014 0.998756 0.995478
1.00013 0.998862 0.995387
1.00005 0.997111 0.997257
1.00001 0.997257 0.997387
0.999939 0.996147 0.999383
0.999983 0.99742 0.997091
0.999891 0.996304 0.999357
0.999838 0.996477 0.99933
1.00294 0.997846 0.990839
1.00296 0.999167 0.989538
1.00282 0.999644 0.98935
1.00278 0.999492 0.989572
1.00301 0.998711 0.989863
1.00293 0.998504 0.990224
1.00283 0.998969 0.990027
1.00423 0.996704 0.990404
1.00316 0.997386 0.990836
1.0001 0.999893 0.994433
1.00288 0.999383 0.98946
1.00321 0.998705 0.98956
1.00287 0.997392 0.991257
1.00014 1.00242 0.991759
1.00042 1.00387 0.989943
1.00114 1.00252 0.989518
1.00242 0.997791 0.991883
1.00036 1.00221 0.991695
1.00014 1.00268 0.991509
1.00008 1.0035 0.990785
1.00012 0.999003 0.995268
1.00014 1.00247 0.9918
1.00012 1.00033 0.994124
1.00012 1.00153 0.992777
1.0001 1.00005 0.994142
1.00295 0.998944 0.989776
1.0001 0.99995 0.994311
1.00011 1.00019 0.994111
1.00007 1.00102 0.993406
1.00325 0.997939 0.990231
1.00312 0.995881 0.992403
1.00023 1.00269 0.991354
1.00048 1.00458 0.989012
1.0018 1.00054 0.990397
1.0001 1.00134 0.992976
1.00013 1.00229 0.992055
1.00005 1.00306 0.99132
1.00001 1.00403 0.99057
1.00008 1.00308 0.991256
1.00311 0.998315 0.989915
1.00348 0.996581 0.991233
1.00293 0.997826 0.99109
1.00098 1.00355 0.989244
1.00006 1.00377 0.990618
1.00005 1.0009 0.993411
1.00008 1.00118 0.993122
1.00006 1.00175 0.992754
1.00009 1.00215 0.992251
1.00012 1.00277 0.991569
0.999996 1.00372 0.990855
0.999853 1.00452 0.990284
1.00014 1.00242 0.991839
1.00018 1.00286 0.991279
1.00333 0.99743 0.99033
1.00333 0.99684 0.99087
1.00203 1.001 0.989673
1.00027 1.00327 0.990548
1.00058 1.00439 0.989172
1.00012 1.00294 0.99141
1.00422 0.996048 0.98995
1.00029 1.00303 0.991017
1.00026 1.00426 0.989844
1.00319 0.998304 0.989705
1.00099 1.00357 0.988971
1.00323 0.999401 0.989479
1.00021 1.00306 0.991134
1.00438 0.996094 0.989507
1.00023 1.0035 0.990725
1.00005 1.00481 0.989605
1.00145 1.00171 0.989464
0.997549 1.00084 0.970788
0.998705 1.00188 0.985881
1.00257 0.99976 0.990839
0.994754 0.998084 0.980226
0.996374 0.996182 0.982484
1.00012 1.00271 0.991594
1.00023 1.00287 0.991285
1.00041 1.00272 0.991041
1.0001 1.0002 0.994126
1.00008 1.00117 0.993125
1.00011 1.00183 0.992519
1.00015 1.0024 0.991896
1.00026 1.00269 0.991314
1.00012 1.00179 0.992523
1.0001 1.00023 0.994044
1.00007 1.00112 0.993218
1.00032 1.00266 0.991254
1.00016 1.00225 0.99202
1.00015 1.0022 0.99212
1.00024 1.00269 0.991441
1.00013 1.0018 0.992397
1.00008 1.00112 0.993154
1.00009 1.00025 0.993964
1.00009 1.00116 0.993246
1.0001 1.00186 0.992579
1.00007 1.0013 0.993086
1.00007 1.00121 0.993198
1.00009 1.0003 0.99404
1.00009 1.00028 0.993948
1.00012 0.999026 0.995242
1.00012 0.998997 0.995271
1.00009 0.997138 0.997158
1.00012 0.998981 0.995284
1.0001 0.997109 0.997165
1.00002 0.995991 0.999376
1.00009 0.997129 0.99717
1.00003 0.996002 0.998952
1.00002 0.995994 0.998546
1.00015 0.998686 0.995532
1.00014 0.998749 0.995477
1.00007 0.997005 0.997319
1.00013 0.998857 0.995386
1.00004 0.997108 0.997463
0.999974 0.996031 0.999401
1.00002 0.997276 0.997164
0.999933 0.996187 0.999374
0.999886 0.996325 0.999351
1.00291 0.998704 0.989974
1.00279 0.999491 0.989564
1.00285 0.998798 0.990154
1.0042 0.996636 0.990444
1.00282 0.998964 0.989981
1.00304 0.997601 0.990601
1.00322 0.998466 0.989411
0.999593 0.99921 0.984004
1.00327 0.997772 0.991769
1.0001 0.999878 0.994457
1.0001 0.999891 0.994432
1.00004 1.0008 0.993653
1.00006 1.00075 0.993668
1.00297 0.99892 0.989772
1.00328 0.997814 0.990258
1.00302 0.996193 0.99215
1.00026 1.00254 0.991402
1.00035 1.00467 0.988939
1.00177 1.00039 0.990445
1.00006 1.00309 0.99124
1.00001 1.00392 0.99065
1.00009 1.00306 0.991316
1.00011 1.0002 0.994107
1.00014 1.00229 0.992014
1.0001 1.00132 0.993061
1.00011 0.999947 0.994372
1.00006 1.00101 0.993287
1.00309 0.998393 0.990023
1.00005 1.00091 0.993532
1.00008 1.00116 0.993196
1.00007 1.00168 0.992739
1.00348 0.996428 0.991299
1.00284 0.997689 0.991095
1.00009 1.00374 0.990607
1.00091 1.00359 0.98923
1.00008 1.00215 0.992291
1.00012 1.00271 0.991578
0.999863 1.00451 0.990289
1.00001 1.00383 0.990769
1.00372 0.996748 0.990023
1.00398 0.995961 0.990765
1.00186 1.00236 0.988773
1.00005 1.00455 0.989917
1.00005 1.00189 0.992503
1.00006 1.00197 0.992426
1.00009 1.003 0.991367
0.999997 1.00459 0.989988
0.996906 1.00111 0.968067
1.00011 1.00291 0.991451
1.00024 1.00296 0.991046
1.00426 0.995892 0.989959
1.00336 0.998108 0.989778
1.00096 1.0037 0.988968
1.00011 1.0044 0.989818
1.00308 0.998882 0.989719
1.00019 1.00307 0.991157
1.00453 0.996092 0.98941
1.00017 1.0035 0.990733
1.00004 1.00481 0.989634
1.00145 1.00166 0.989476
0.99723 0.999969 0.97131
0.998473 1.00164 0.982376
1.00249 0.999437 0.991133
0.99471 0.998528 0.979234
0.99605 0.996107 0.982252
1.00016 1.00311 0.99115
0.995416 0.997612 0.977138
0.99813 0.99534 0.984897
1.00319 0.997413 0.990795
1.00009 1.00349 0.990693
0.999995 1.00479 0.990175
1.00232 0.999869 0.991335
0.996598 1.00099 0.970751
0.997956 1.00343 0.98184
0.994663 1.00117 0.978034
1.002 0.996157 0.981111
1.0002 1.00288 0.991293
1.00039 1.00276 0.991053
1.00053 1.00271 0.990854
1.0001 1.00023 0.994101
1.00007 1.00112 0.993288
1.00013 1.0018 0.992436
1.00017 1.00223 0.991983
1.00029 1.00268 0.991303
1.00009 1.00025 0.993966
1.00015 1.00216 0.992106
1.00012 1.00182 0.992497
1.00009 1.00111 0.993218
1.00025 1.00268 0.991339
1.00018 1.00239 0.991798
1.00013 1.00348 0.99091
1.00012 1.00178 0.992525
1.00009 1.00113 0.99325
1.00008 1.00116 0.993246
1.00011 1.00186 0.992484
1.00012 1.00178 0.992536
1.0001 1.00199 0.992362
1.00016 1.00226 0.992012
1.00006 1.00253 0.991887
1.00008 1.00146 0.992906
1.00007 1.0013 0.993085
1.0001 1.00036 0.993967
1.00007 1.00121 0.993087
1.00009 1.0003 0.99398
1.00012 0.999079 0.995192
1.00009 1.00028 0.993951
1.00012 0.999024 0.995242
1.00006 0.997172 0.997579
1.00012 0.998996 0.995271
1.00008 0.997132 0.997372
1.00005 0.995999 0.998519
1.0001 0.997112 0.997165
1.00002 0.99599 0.999376
1.00004 0.995999 0.998528
1.0001 0.999912 0.994421
1.00015 0.998671 0.995545
1.00015 0.998683 0.995531
1.00009 0.996939 0.997358
1.00014 0.998743 0.995476
1.00007 0.996999 0.997322
0.999999 0.995946 0.999414
1.00003 0.997123 0.997655
0.999981 0.996071 0.998979
0.999956 0.996212 0.998529
1.00395 0.996644 0.990486
1.00284 0.998964 0.989936
1.00292 0.997828 0.990367
0.999484 0.998806 0.986412
1.00319 0.997833 0.991902
1.00327 0.998313 0.989324
1.00369 0.998463 0.990849
0.999133 0.999742 0.985996
0.996673 1.00144 0.966498
0.995222 0.997496 0.976604
0.996089 0.99541 0.983198
1.00004 1.00075 0.993572
1.0001 0.999881 0.994457
1.00011 0.999894 0.994431
1.00004 1.00081 0.993607
1.00004 1.00148 0.993045
1.00005 1.00133 0.993138
1.00006 1.00088 0.993558
1.00006 1.00077 0.993618
1.00308 0.998471 0.990131
1.0035 0.996223 0.991366
1.00275 0.997635 0.9911
1.00013 1.00368 0.990597
1.00085 1.00372 0.989216
0.999875 1.00449 0.990295
1.00003 1.00393 0.990684
1.00013 1.00266 0.991587
1.00007 1.00113 0.99327
1.00007 1.00215 0.992332
1.00005 1.00092 0.993653
1.00007 1.00162 0.992725
1.00377 0.99707 0.989885
1.00005 1.00187 0.99255
1.00006 1.00199 0.992433
1.00386 0.996045 0.990747
1.00164 1.002 0.989003
1.00011 1.00456 0.98979
1.00011 1.00301 0.991333
1.00002 1.00453 0.990012
1.00461 0.99664 0.98896
1.00293 1.00037 0.98897
1.00029 1.00454 0.988981
1.00005 1.00485 0.989624
1.00003 1.00237 0.992042
1.00009 1.00274 0.99161
1.00011 1.00389 0.990537
0.996404 0.99689 0.977009
0.997375 1.00164 0.970521
1.00017 1.00309 0.991181
1.00011 1.00349 0.990741
1.00471 0.99602 0.989313
1.00152 1.00175 0.989489
1.00003 1.00482 0.989663
0.997523 1.00105 0.965658
0.99843 1.00075 0.987081
1.00245 0.999193 0.991415
0.994588 0.998755 0.97756
0.995619 0.996075 0.982021
1.00021 1.00302 0.991139
0.996063 0.996226 0.978787
0.997587 0.995659 0.985023
1.00313 0.99772 0.990699
1.00003 1.00382 0.990713
0.999889 1.00473 0.990223
1.00247 0.999956 0.99117
0.996072 1.00148 0.968825
0.997951 1.00467 0.984261
0.994507 1.0004 0.976583
1.00111 0.996927 0.98154
1.00057 1.00247 0.990888
0.998811 0.995782 0.98682
1.00831 0.997325 0.979852
1.00083 1.00128 0.991328
0.999782 1.00375 0.991839
1.00161 1.00159 0.995142
0.999004 1.00026 0.991316
0.995158 1.00349 0.968831
0.994901 0.998752 0.977936
1.00878 0.996476 0.976652
1.00037 1.0028 0.991066
1.00051 1.00274 0.990796
1.00021 1.00321 0.990696
1.00009 1.00025 0.993968
1.00009 1.00109 0.993283
1.00012 1.00183 0.992596
1.00015 1.00212 0.992092
1.00027 1.00266 0.991237
1.00009 1.00113 0.99325
1.00016 1.00235 0.991866
1.00011 1.00178 0.992523
1.00011 1.0035 0.990843
1.00005 1.00401 0.990527
1.00012 1.00278 0.99159
1.00012 1.0018 0.992527
1.00008 1.00117 0.993245
1.00011 1.00186 0.992388
1.00012 1.00178 0.992535
1.00009 1.00199 0.992359
1.00018 1.00221 0.991987
1.00007 1.00222 0.992146
1.00019 1.00223 0.991985
1.00019 1.00242 0.99167
1.00014 1.00285 0.991413
0.999941 1.00298 0.991536
1.00004 1.00265 0.99175
1.00006 1.00252 0.991894
1.00009 1.0017 0.992667
1.00008 1.00147 0.992902
1.00012 1.00046 0.993831
1.00007 1.00131 0.993084
1.0001 1.00036 0.993964
1.00011 0.999157 0.995127
1.00009 1.00031 0.99392
1.00012 0.999073 0.995192
1.00004 0.997239 0.997559
1.00012 0.99902 0.995242
1.00007 0.997172 0.997361
1.00003 0.996011 0.998517
1.00009 0.997124 0.997157
1.00002 0.996 0.999374
1.00002 0.995988 0.999375
1.00011 0.99999 0.994483
1.00015 0.998708 0.995507
1.0001 0.999913 0.994421
1.00009 0.996924 0.997368
1.00015 0.99867 0.995545
1.00015 0.998678 0.99553
1.00009 0.996942 0.997357
1.00001 0.995895 0.999422
1.00006 0.997 0.997718
1.00001 0.995958 0.999009
0.999998 0.996076 0.998575
0.996073 0.995889 0.979934
0.997973 0.995101 0.985191
0.999613 0.998186 0.988688
1.00314 0.997985 0.992034
1.00332 0.998166 0.989235
0.999189 0.999694 0.990393
1.0038 0.99826 0.990735
0.997414 1.00059 0.970666
0.994543 0.998159 0.980184
0.995813 0.995222 0.983328
1.00064 0.998388 0.993017
0.995967 1.00197 0.971854
0.994462 0.999995 0.979232
0.999306 0.997576 0.981349
1.00002 1.00163 0.992814
1.00005 1.00075 0.99362
1.0001 0.99988 0.994457
1.00004 1.00081 0.993562
1.00002 1.00143 0.993095
1.00004 1.00163 0.992888
1.00005 1.00128 0.993155
1.00007 1.00117 0.993228
1.00006 1.00091 0.993486
1.00005 1.00079 0.993568
1.00379 0.997306 0.989748
1.0037 0.996079 0.990721
1.00141 1.00158 0.989233
1.00017 1.00456 0.989662
1.00003 1.00448 0.990035
1.00013 1.00302 0.991299
1.00006 1.002 0.99244
1.00004 1.00186 0.992597
1.0047 0.996362 0.988757
1.00003 1.00241 0.99201
1.00011 1.00276 0.991519
1.00266 1.00033 0.988765
1.00028 1.00439 0.98929
1.00009 1.00485 0.989585
1.00015 1.00387 0.990457
1.00387 1.00018 0.987594
1.00041 1.00446 0.989464
1.00006 1.00445 0.989909
1.00003 1.00249 0.99196
1.00014 1.00284 0.991408
1.00026 1.00328 0.990771
1.00023 0.996301 0.983235
0.996028 0.99766 0.97584
0.996971 1.00126 0.967887
1.00026 1.00292 0.991129
0.999978 1.00412 0.990734
1.00311 0.997926 0.990603
0.999772 1.00461 0.990269
0.996536 0.997175 0.97588
0.995943 1.00143 0.973802
0.997862 1.00387 0.981722
1.00254 0.999967 0.991101
0.994474 1.00018 0.979229
0.99755 0.995661 0.984556
0.999178 0.997466 0.982433
1.0005 1.00275 0.990867
0.99906 0.99595 0.985249
1.00805 0.997366 0.980165
1.00094 1.00133 0.991362
0.999559 1.00358 0.991873
1.00248 1.003 0.990568
0.998864 1.0014 0.985838
0.995563 1.00346 0.969475
0.995844 0.998779 0.981083
1.00611 0.99685 0.97811
0.99997 1.0026 0.99224
1.01158 0.996858 0.979307
1.01946 0.995203 0.969547
0.998496 1.00395 0.993377
0.999011 0.99906 0.997618
0.995579 1.00014 0.971597
0.99747 0.998588 0.981391
1.00701 0.995753 0.979419
1.00049 1.00277 0.990738
1.00031 1.00312 0.990832
1.00035 1.00276 0.991305
1.00009 1.00112 0.993251
1.00011 1.00178 0.992522
1.00015 1.00231 0.991934
1.00009 1.00354 0.990776
1.00012 1.0018 0.992524
1.00013 1.00274 0.991599
1.00002 1.00398 0.990514
0.999875 1.0041 0.990878
1.00016 1.0035 0.99074
1.00019 1.00234 0.991907
1.00012 1.00179 0.992535
1.00009 1.002 0.992356
1.0002 1.00217 0.991962
1.00019 1.00222 0.991993
1.00007 1.00225 0.992147
1.00021 1.00239 0.991703
1.00018 1.00267 0.991497
1.00026 1.00252 0.991496
1.00016 1.003 0.991195
1.00015 1.00285 0.991436
0.999943 1.00316 0.991358
1.00017 1.00301 0.991218
1.0001 1.00243 0.991992
0.999907 1.00285 0.991777
1.00005 1.00263 0.991809
1.00009 1.00194 0.99233
1.00007 1.00252 0.991902
1.00009 1.0017 0.992667
1.00013 1.00063 0.993619
1.00008 1.00148 0.992899
1.00011 1.00047 0.993827
1.0001 0.999259 0.995048
1.0001 1.00037 0.993961
1.00012 0.999149 0.995126
1.00001 0.997338 0.997524
1.00012 0.999065 0.995192
1.00005 0.997246 0.997336
0.999998 0.996089 0.998502
1.00008 0.997164 0.997145
1.00002 0.996022 0.998945
1.00001 0.996005 0.999374
1.00012 1.00018 0.994153
1.00014 0.998789 0.995436
1.00011 0.999997 0.99435
1.00009 0.996963 0.99734
1.00015 0.998709 0.995508
1.00009 0.99992 0.994421
1.00002 0.995885 0.999423
1.00009 0.996922 0.997368
1.00015 0.998667 0.995545
1.00009 0.996946 0.997356
1.00001 0.995901 0.99942
0.999997 0.99595 0.999412
0.999589 0.995964 0.98509
0.995832 0.996767 0.977993
1.00989 0.995253 0.97954
0.997905 0.995075 0.984922
0.999281 1.0003 0.985198
1.00394 0.998081 0.990595
0.996889 0.999492 0.975045
0.995146 0.998908 0.97694
0.995567 0.994983 0.983458
1.00066 0.998774 0.990568
0.996079 1.0014 0.970009
0.994406 0.999985 0.977134
1.00043 0.996921 0.981668
0.999648 0.999182 0.991586
0.995321 1.00142 0.970469
0.994716 0.99954 0.980393
1.00668 0.997448 0.978597
1.00005 1.00212 0.992359
1.00003 1.00161 0.992886
1.00006 1.00075 0.993667
1 1.00137 0.993144
1.00007 1.0019 0.992466
1.00004 1.00158 0.992943
1.00005 1.00124 0.993172
1.00011 1.00127 0.993135
1.00007 1.00116 0.993294
1.00006 1.00093 0.993414
1.00482 0.996184 0.988556
1.00243 1.00029 0.988566
1.00029 1.00433 0.9896
1.00014 1.00484 0.989545
1.00018 1.00385 0.990377
1.00013 1.00278 0.991427
1.00003 1.00245 0.991978
1.00005 1.00247 0.991972
1.00393 0.999703 0.987697
1.00012 1.00287 0.99146
1.00026 1.00337 0.990744
1.00041 1.00449 0.989324
1.00014 1.00446 0.989895
1.00216 1.00176 0.988836
0.999778 1.00437 0.990708
1.00031 1.00333 0.990552
1.00017 1.00266 0.991549
1.00034 1.00308 0.99077
1.01341 0.997238 0.977546
1.00009 0.996258 0.984209
0.99611 0.996799 0.979168
1.00042 1.00306 0.990846
0.999322 1.00345 0.991909
1.00105 1.00128 0.991385
0.999164 0.996409 0.984961
0.995436 1.00283 0.968434
0.99876 1.0013 0.988874
1.00343 1.00441 0.985839
0.995231 0.999221 0.97748
1.00766 0.997416 0.980478
1.00569 0.996882 0.97831
0.999932 1.00233 0.992367
1.01185 0.997145 0.978524
1.01934 0.995075 0.969755
0.9987 1.00368 0.9929
0.999119 0.999775 0.994709
0.995619 1.00181 0.97011
1.00907 0.994884 0.977798
0.996281 0.998059 0.980592
0.999552 1.00189 0.993461
1.02482 0.992279 0.966764
1.02368 0.993826 0.966666
1.00648 0.997498 0.978844
0.996545 1.00205 0.99712
0.995423 0.998647 0.975161
0.995993 0.999276 0.98099
1.00041 1.00299 0.990967
1.00045 1.00292 0.990902
0.999938 1.00278 0.992327
1.00012 1.0018 0.992522
1.00013 1.0027 0.991607
1 1.00391 0.990501
1.00019 1.00232 0.991929
1.00018 1.00346 0.990737
0.999954 1.00398 0.990642
0.99986 1.00384 0.990984
1.00033 1.00276 0.991141
1.00019 1.00221 0.992002
1.00006 1.00228 0.992148
1.00022 1.00235 0.991735
1.00027 1.0025 0.991497
1.00019 1.00263 0.991517
1.00004 1.00314 0.99132
1.0001 1.00295 0.991352
1.00007 1.00401 0.990426
1.00016 1.00286 0.99146
1.00003 1.00319 0.99134
1.00016 1.00343 0.990572
1.00015 1.00286 0.99136
1.00008 1.00243 0.991988
1.00012 1.00302 0.991239
1.00012 1.002 0.99231
1.00009 1.00246 0.991962
0.999872 1.00273 0.992018
1.00007 1.00262 0.991869
1.00009 1.00192 0.992397
1.00014 1.00089 0.99335
1.00009 1.0017 0.992668
1.00013 1.00065 0.993615
1.00009 0.999391 0.994938
1.00011 1.00048 0.993823
1.0001 0.999253 0.995045
0.999969 0.997461 0.997473
1.00012 0.999141 0.995125
1.00002 0.997351 0.997296
0.999958 0.996194 0.998479
1.00006 0.99724 0.997119
0.999989 0.996095 0.998937
0.999996 0.996051 0.999371
1.00014 1.00035 0.993782
1.00013 0.998939 0.995144
1.00012 1.00018 0.99415
1.00007 0.99705 0.997278
1.00014 0.998801 0.99535
1.0001 1 0.994216
1.00001 0.995916 0.999414
1.00009 0.996956 0.997342
1.00015 0.998711 0.995508
1.00002 0.995884 0.999423
1.00009 0.996922 0.997368
1.00001 0.995906 0.999418
1.01317 0.996083 0.977377
0.999751 0.99588 0.983796
0.996001 0.99665 0.976926
1.00016 1.00136 0.99285
1.02038 0.993674 0.970597
1.00954 0.995898 0.979815
0.998154 0.995074 0.984121
1.00061 0.998552 0.988171
0.996017 1.0019 0.972253
0.994528 1.00035 0.979821
1.00049 0.996041 0.981899
0.999319 0.999381 0.986429
0.995044 1.00189 0.971937
0.99562 0.999458 0.979403
1.0052 0.997292 0.979717
0.998954 0.999818 0.984814
0.995083 0.999968 0.968695
0.997267 0.998851 0.977176
1.00793 0.995785 0.979132
1.00016 1.00229 0.9919
1.00005 1.00214 0.992313
1.00003 1.00159 0.992958
1.00012 1.00191 0.992356
1.00008 1.00186 0.992551
1.00005 1.00152 0.992997
1.00011 1.00126 0.993161
1.00008 1.00114 0.993361
1.00397 0.999188 0.987797
1.00041 1.00452 0.989185
1.00005 1.00243 0.991985
1.00023 1.0045 0.989881
1.00027 1.00343 0.990716
1.0001 1.0029 0.991513
1.00016 1.00267 0.991557
1.0024 1.00189 0.98891
1.00032 1.00305 0.990856
1.00031 1.00348 0.990502
0.999769 1.00429 0.990567
1.00026 1.00255 0.991565
1.001 1.00101 0.992625
0.99953 1.00382 0.991741
1.0004 1.00263 0.991038
1.00031 1.00286 0.991174
1.02351 0.994167 0.967873
1.01362 0.996832 0.977086
0.999905 0.996282 0.985184
0.999885 1.00202 0.992495
0.998925 1.00348 0.992425
1.01213 0.997401 0.977742
0.995674 1.00017 0.971602
0.999226 1.00023 0.988045
0.996891 0.998301 0.978365
1.01917 0.994876 0.969962
1.01138 0.994284 0.976176
0.999637 1.0022 0.993172
1.02489 0.992198 0.966569
1.02481 0.992555 0.965467
0.996626 1.0039 0.99778
1.00499 0.997469 0.97971
0.995184 0.998363 0.974652
0.997132 0.998793 0.97767
0.998727 1.00243 0.995315
1.02794 0.991877 0.96317
1.02078 0.994796 0.968501
0.999267 0.998213 0.981019
0.997454 0.998283 0.977258
0.996133 1.00021 1.00261
0.994901 0.999924 0.970915
1.00051 1.00315 0.990498
1.00003 1.00257 0.992095
0.99904 1.00421 0.991448
1.00019 1.00229 0.99195
1.00019 1.00342 0.990733
1.00004 1.00395 0.990407
1.0003 1.00276 0.991157
0.999885 1.00376 0.990937
0.999706 1.00401 0.991069
1.00027 1.00248 0.991498
1.0002 1.00259 0.991537
1.00012 1.00315 0.991249
0.999844 1.00443 0.990399
1.00003 1.00291 0.991509
0.999981 1.0039 0.99056
1.00011 1.00458 0.98977
1.00051 1.00313 0.990442
1.0001 1.00321 0.991323
1.00021 1.00355 0.990462
1.00023 1.0025 0.991752
0.999962 1.00258 0.991937
1.00016 1.00276 0.991455
1.00009 1.00201 0.992367
1.00009 1.00243 0.991972
1.00007 1.00303 0.99126
1.00015 1.00111 0.993133
1.00013 1.00198 0.992296
1.00009 1.00249 0.991933
1.00009 1.0019 0.992464
1.00014 1.00089 0.993349
1.00006 0.999602 0.994775
1.00013 1.00066 0.993611
1.00008 0.999397 0.994932
0.999939 0.997605 0.996969
1.0001 0.999249 0.995042
0.999982 0.997472 0.997024
0.999886 0.996315 0.999346
1.00002 0.997346 0.997077
0.999952 0.996196 0.998922
0.999968 0.99613 0.999363
1.00017 1.00046 0.993601
1.00012 0.999135 0.994947
1.00015 1.00035 0.993855
1.00005 0.997182 0.997188
1.00013 0.998963 0.99512
1.00013 1.00019 0.994148
0.999997 0.995983 0.999398
1.00007 0.997041 0.997282
1.00013 0.998815 0.995265
1.00001 0.995909 0.999417
1.00009 0.996949 0.997344
1.00002 0.995883 0.999423
1.02315 0.993522 0.968319
1.01324 0.99577 0.977449
0.999641 0.995769 0.983994
1.00016 1.00136 0.992878
1.00021 1.00141 0.992663
1.00015 1.00196 0.992351
1.02292 0.993047 0.968624
1.02021 0.993583 0.970786
1.00918 0.996537 0.98009
0.999075 0.999678 0.990321
0.995245 1.00219 0.970082
0.994728 0.999044 0.978074
1.00582 0.996368 0.979562
0.998524 0.999832 0.989011
0.995101 1.00001 0.972419
0.995521 0.99904 0.981732
1.00944 0.994415 0.977817
0.99822 0.997994 0.990634
0.994945 0.999717 0.973852
0.996749 0.999277 0.980124
1.0083 0.996877 0.976558
1.00021 1.00239 0.991754
1.00014 1.00234 0.991895
1.00005 1.00219 0.992267
1.00013 1.00193 0.992349
1.00008 1.00183 0.992636
1.00012 1.00125 0.993186
1.00265 1.00201 0.988983
0.999769 1.00419 0.990426
1.00016 1.00269 0.991566
1.00032 1.00359 0.990453
1.0003 1.00305 0.990941
1.00025 1.00249 0.991566
1.00031 1.00283 0.991144
1.00109 1.00086 0.99256
1.00043 1.00259 0.991165
0.999366 1.00367 0.99245
1.00027 1.00254 0.991385
0.998657 1.00204 0.995536
0.999459 1.00075 0.994838
1.0003 1.00287 0.990989
1.02657 0.993165 0.96431
1.02388 0.993915 0.967067
1.01382 0.996333 0.976626
0.999715 1.00249 0.992882
0.99663 1.00103 0.998559
1.02496 0.992129 0.966375
0.99504 0.99896 0.98413
0.997774 0.998947 0.980616
1.02602 0.991283 0.964269
1.0056 0.996726 0.979703
0.998791 1.00205 0.995024
1.02754 0.992176 0.963352
1.02062 0.995011 0.968676
0.996064 1.00157 0.994991
1.00028 0.997728 0.981334
0.995707 0.998584 0.981605
0.99495 1.00001 0.974485
0.997911 1.00511 0.996886
1.02331 0.994857 0.966711
1.00988 0.996286 0.978344
0.995867 0.996568 0.982922
0.994816 0.9994 0.979952
0.995257 0.999299 0.973829
0.997152 0.999045 0.992616
1.0001 1.00232 0.991863
0.999132 1.00419 0.991521
0.999089 1.0048 0.991354
1.00028 1.00275 0.991172
0.999899 1.00366 0.99089
0.999635 1.00406 0.991093
0.999644 1.00497 0.990182
1.0002 1.00316 0.991177
0.999994 1.00445 0.990251
1.00014 1.00504 0.989221
0.999897 1.00378 0.990694
1.00014 1.0045 0.98977
1.00059 1.00445 0.989274
1.00075 1.00334 0.989861
1.00029 1.00246 0.991343
1.00049 1.00323 0.99034
1.00026 1.00367 0.990352
1.0002 1.0022 0.992085
1.00018 1.00237 0.991864
0.999987 1.00223 0.99227
0.999988 1.00254 0.991993
1.00016 1.00266 0.99155
1.00013 1.00126 0.993017
1.00011 1.00199 0.992375
1.00011 1.00243 0.991956
1.00004 0.999847 0.99457
1.00015 1.00109 0.993141
1.00014 1.00196 0.992282
1.00015 1.00089 0.993347
1.00006 0.999608 0.99477
0.999892 0.99778 0.996884
1.00008 0.999402 0.994927
0.999942 0.997612 0.996965
0.999849 0.99646 0.999332
0.999987 0.997473 0.997024
0.999903 0.996329 0.998899
0.999931 0.996233 0.999352
1.00019 1.0006 0.993536
1.00012 0.999296 0.994956
1.00016 1.00048 0.993657
1.00002 0.997346 0.99708
1.00012 0.99915 0.995017
1.00015 1.00036 0.993927
0.999972 0.996089 0.999376
1.00005 0.997171 0.997194
1.00013 0.998985 0.995096
0.999999 0.995974 0.999403
1.00007 0.997032 0.997285
1.00001 0.995901 0.99942
1.02749 0.991421 0.964444
1.0235 0.993226 0.968167
1.01336 0.995495 0.977518
1.00023 1.00154 0.992499
1.00023 1.00209 0.992057
1.00016 1.00136 0.992906
1.0002 1.00143 0.992643
1.00017 1.00196 0.992277
1.00019 1.00198 0.992184
1.00018 1.00232 0.991883
1.01875 0.996009 0.969893
1.02418 0.991506 0.967484
1.02003 0.993517 0.970974
1.01129 0.99343 0.976502
0.997997 0.99992 0.985053
0.99511 0.999571 0.976125
0.995241 0.999968 0.978089
0.99778 0.997786 0.988476
0.994957 0.999088 0.971634
0.997416 0.998867 0.977267
1.00637 0.997461 0.97747
0.996308 0.997853 0.993558
0.994865 0.999943 0.970439
0.997551 0.999913 0.979921
1.00174 0.996596 0.980838
1.00028 1.00241 0.99161
1.00021 1.00238 0.991744
1.00012 1.00238 0.991891
1.00013 1.00195 0.992343
1.00119 1.00132 0.992494
0.999116 1.00362 0.99316
1.00026 1.00241 0.991567
1.0003 1.0028 0.991114
1.00046 1.00257 0.991292
1.00027 1.00258 0.991384
1.00032 1.00287 0.99092
0.998362 1.00252 0.996016
0.999476 1.00061 0.995161
1.00025 1.00309 0.991024
0.996942 1.00117 0.999772
0.999902 1.00352 0.99182
1.02337 0.995762 0.966615
1.02603 0.99371 0.964318
1.02425 0.993744 0.966262
0.998895 1.00166 0.994754
0.996147 1.0003 1.00216
1.0271 0.992476 0.963534
0.994904 0.999755 0.971026
0.995511 0.999488 0.978004
1.02046 0.995178 0.968852
1.00023 0.996601 0.981782
0.997957 1.0051 0.996735
1.02368 0.994593 0.966506
1.00951 0.997061 0.97866
0.997103 0.998994 0.999052
0.995618 0.995921 0.983159
0.995771 0.999627 0.978855
0.995216 0.999501 0.973415
0.999049 1.00409 0.995475
1.0133 0.997537 0.975844
0.997826 0.995819 0.984891
0.994482 1.00031 0.978964
0.995312 1.00091 0.971716
0.997475 0.998665 0.987538
0.999302 1.00418 0.991592
0.999029 1.00484 0.991328
1.00007 1.00414 0.990683
0.999564 1.00412 0.991117
0.999445 1.00499 0.990324
1.00027 1.00501 0.98912
1.00015 1.00446 0.990104
1.00024 1.00503 0.989099
1.00072 1.00453 0.988563
1.00017 1.00442 0.989771
1.00059 1.00443 0.98917
1.00085 1.00392 0.988996
1.00112 1.00261 0.98975
1.0007 1.00271 0.990685
1.00075 1.0034 0.989755
1.00022 1.00204 0.9919
1.0003 1.00246 0.991414
1.00047 1.00333 0.990238
1.00013 1.00213 0.992206
1.00017 1.00222 0.992065
1.00013 1.00224 0.991976
1.00007 1.00146 0.992878
1.00001 1.00218 0.992302
1.00001 1.00251 0.992049
1.00002 1.00006 0.994372
1.00014 1.00124 0.993025
1.00012 1.00196 0.992382
0.999858 0.997974 0.996779
1.00004 0.999852 0.994569
1.00016 1.00106 0.993148
1.00005 0.999614 0.994764
0.999895 0.997791 0.996878
0.999795 0.996619 0.999315
0.999945 0.997619 0.996961
0.999843 0.996478 0.999328
0.999887 0.996355 0.999338
1.00023 1.00167 0.992432
1.00023 1.00074 0.993329
1.00011 0.999453 0.994814
1.00019 1.0006 0.993537
0.999992 0.997516 0.996971
1.00012 0.999301 0.994958
1.00016 1.00049 0.993712
0.999939 0.996223 0.999349
1.00002 0.997334 0.997085
1.00013 0.999165 0.995087
0.999975 0.996072 0.999383
1.00005 0.997159 0.997199
1 0.995961 0.999408
1.02412 0.993894 0.966215
1.02717 0.991684 0.964423
1.02386 0.992949 0.968014
1.00022 1.00155 0.992522
1.00023 1.00209 0.992011
1.0002 1.00223 0.991888
1.00022 1.00202 0.992026
1.00021 1.0024 0.991788
1.00019 1.00146 0.992623
1.00018 1.00197 0.992202
1.00019 1.00199 0.992187
1.00019 1.00229 0.99188
1.00017 1.00242 0.991806
1.00823 0.998036 0.979415
1.01854 0.996084 0.970081
1.02535 0.989956 0.966344
1.00577 0.99737 0.977601
0.997626 0.998818 0.980153
0.997422 0.997301 0.986785
0.994967 0.999127 0.973274
0.996058 0.997672 0.988535
0.994935 0.999966 0.972846
0.996577 0.999136 0.978749
1.00108 0.996991 0.981507
0.995181 0.998409 0.990801
0.99496 0.999099 0.974041
0.99476 0.999724 0.978306
0.99645 0.994667 0.983438
1.00006 1.00231 0.992066
1.00024 1.0025 0.9916
1.00021 1.00238 0.991734
0.998136 1.00241 0.99649
0.999503 1.00041 0.995487
1.00027 1.00261 0.991383
1.00034 1.00289 0.990852
1.00022 1.00303 0.991085
0.99968 1.00363 0.991641
0.997021 1.00055 0.999813
0.999316 1.00408 0.991455
0.998422 1.00381 0.995137
1.01305 0.998641 0.976652
1.0237 0.9954 0.965915
1.02551 0.994296 0.964326
0.997969 1.00507 0.996581
0.997112 0.998679 0.990685
1.02405 0.994328 0.9663
0.995306 0.999167 0.968106
0.99493 0.999544 0.977427
1.00913 0.997795 0.978977
0.995436 0.995206 0.983396
0.999061 1.0039 0.995677
1.01338 0.997133 0.975885
0.997737 0.995628 0.98468
0.997772 0.998497 0.990471
0.994405 1.00026 0.976979
0.995334 1.00137 0.968812
1.00033 1.00258 0.992786
0.999642 0.996636 0.984442
0.995264 0.997437 0.976521
0.995449 1.00198 0.96991
0.997726 1.00209 0.987323
0.998984 1.00488 0.991301
0.999957 1.00404 0.990656
1.00131 1.00317 0.989248
0.999263 1.00501 0.990466
1.00013 1.00499 0.989133
1.00116 1.00366 0.98859
1.00033 1.00502 0.988978
1.00072 1.0045 0.988581
1.00133 1.00278 0.989261
1.0006 1.00445 0.989066
1.00087 1.00381 0.989051
1.00146 1.00188 0.989815
1.00159 1.00104 0.990358
1.00093 1.00236 0.990309
1.00113 1.00251 0.989793
1.00051 1.00223 0.991391
1.00064 1.00278 0.990552
1.00075 1.00346 0.989648
1.0002 1.00185 0.992277
1.00022 1.00201 0.991981
1.00032 1.00246 0.991484
1.00006 1.00167 0.992728
1.00011 1.00212 0.992217
1.00014 1.00225 0.992046
0.999984 1.00033 0.994175
1.00009 1.00147 0.992879
1.00002 1.00214 0.992334
0.999804 0.998163 0.997147
1.00002 1.00007 0.994372
1.00015 1.00121 0.993033
0.999753 0.996818 0.998307
0.99985 0.997996 0.997001
1.00003 0.999856 0.994568
0.999898 0.997801 0.996872
0.999789 0.996644 0.999307
0.999836 0.996498 0.999323
1.00021 1.00189 0.992219
1.00023 1.00095 0.993113
1.00023 1.00169 0.992389
1.0001 0.999601 0.994686
1.00023 1.00074 0.99333
0.999959 0.997673 0.996878
1.00011 0.999454 0.994817
1.00019 1.00061 0.993537
0.9999 0.99637 0.999324
0.999989 0.997506 0.996976
1.00012 0.999307 0.994959
0.999943 0.996204 0.999357
1.00002 0.997323 0.997091
0.999979 0.996057 0.999389
1.01206 0.998844 0.976402
1.02422 0.993835 0.966064
1.02683 0.99193 0.964401
1.0002 1.00218 0.99197
1.00022 1.00156 0.992544
1.00024 1.00209 0.991965
1.00022 1.00204 0.992082
1.0002 1.00223 0.991927
1.00022 1.00234 0.991779
1.00021 1.00246 0.991671
1.00017 1.00243 0.991708
1.00018 1.00199 0.99219
1.0002 1.00225 0.991877
1.00017 1.00242 0.991806
1.00026 1.00271 0.991618
0.998254 0.995033 0.98477
1.00778 0.99827 0.97969
1.01845 0.996138 0.970269
0.999228 0.997056 0.982435
0.997647 0.999367 0.976827
0.994891 0.999867 0.970461
0.995687 0.997621 0.994121
0.995033 0.998369 0.996244
0.995935 0.994606 0.983807
0.994901 0.999531 0.969871
0.995319 0.999264 0.980905
0.996143 0.999186 0.994833
0.995052 0.998518 0.975827
0.99436 0.998928 0.98044
0.999626 1.00227 0.992917
1.00018 1.00222 0.992069
1.0002 1.00258 0.991591
0.997073 0.999871 0.999863
0.999583 1.00365 0.991458
1.00016 1.00299 0.991146
0.999495 1.00411 0.991438
0.998178 1.00389 0.995242
0.999102 1.00191 0.994261
0.999446 0.996487 0.985181
1.01378 0.998589 0.974823
1.02403 0.995085 0.965216
0.998996 1.00392 0.995916
0.997738 0.998874 0.992049
1.01351 0.996835 0.975922
0.995232 1.00036 0.97444
0.994517 1.0003 0.979663
0.997982 0.995566 0.98387
1.00029 1.00244 0.993087
0.9998 0.996515 0.983186
0.994548 0.998162 0.980153
0.9976 1.00199 0.983874
0.995155 1.00237 0.97117
1.00135 1.00251 0.990155
0.996124 0.995824 0.980018
0.996044 1.00196 0.971531
0.997928 1.00249 0.983187
0.999848 1.004 0.990629
1.00103 1.00296 0.989372
1.00184 1.00168 0.988929
0.999973 1.00498 0.989145
1.00121 1.00351 0.988597
1.00236 1.00026 0.989961
1.00071 1.00449 0.9886
1.00127 1.00266 0.989345
1.00207 0.9997 0.990878
1.00088 1.00364 0.989105
1.00149 1.0017 0.989852
1.00202 0.999394 0.991151
1.00185 0.999564 0.991349
1.00138 1.00127 0.990558
1.00158 1.00094 0.990462
1.00072 1.00197 0.990952
1.00094 1.00232 0.990396
1.00113 1.0024 0.989836
1.00031 1.00186 0.992072
1.00044 1.00225 0.991383
1.00058 1.00285 0.990419
1.0001 1.00164 0.992686
1.00022 1.00186 0.992269
1.00023 1.00199 0.992061
0.999918 1.00072 0.993946
1.00008 1.00165 0.992738
1.00008 1.00211 0.992229
0.999756 0.998369 0.996554
0.999989 1.00034 0.994172
1.0001 1.00147 0.99288
0.999666 0.996999 0.99926
0.999807 0.998193 0.996635
1.00002 1.00008 0.994372
0.999738 0.996818 0.999283
0.999851 0.99801 0.996751
0.999782 0.996668 0.9993
1.0002 1.00193 0.992259
1.0002 1.0019 0.992231
1.0002 1.00123 0.992902
1.00007 0.999803 0.99453
1.00022 1.00096 0.993112
1.00023 1.00172 0.992346
0.999926 0.997808 0.996803
1.0001 0.99959 0.99469
1.00022 1.00075 0.993332
0.999856 0.996513 0.999302
0.999956 0.997664 0.996882
1.00011 0.999451 0.99482
0.999904 0.996351 0.999331
0.999986 0.997494 0.996981
0.999947 0.996184 0.999365
0.998943 0.996293 0.986485
1.01197 0.9989 0.976475
1.02433 0.993792 0.965912
1.0002 1.0022 0.99194
1.00016 1.00217 0.992152
1.00024 1.00228 0.991805
1.00021 1.00205 0.992137
1.0002 1.00224 0.991966
1.00023 1.00229 0.991769
1.00019 1.00243 0.991721
1.00022 1.00245 0.991682
1.0001 1.00289 0.991479
1.00013 1.00261 0.99158
1.00017 1.00242 0.991806
1.00018 1.00267 0.99164
0.994647 0.997684 0.980439
0.997805 0.995135 0.9852
1.00739 0.998475 0.979966
0.995621 0.994329 0.984178
0.994523 0.99958 0.978305
0.995231 0.999668 0.977268
0.994917 0.998417 0.990602
0.996016 0.999177 0.989696
0.994347 0.998614 0.978244
0.994979 0.998885 0.975516
0.997972 0.996033 0.99012
0.995336 1.00025 0.972268
1.00011 1.00339 0.991535
0.999792 1.002 0.992885
1.00028 1.00211 0.992072
0.99773 1.00404 0.995371
0.999651 1.00413 0.991421
0.999818 1.00205 0.994034
1.00193 0.999478 0.992719
0.996499 0.996066 0.977721
0.999591 0.996745 0.98478
1.01444 0.998409 0.972997
1.0005 1.00219 0.993332
0.997508 1.00243 0.987224
0.999685 0.996344 0.983369
0.995268 1.0023 0.969813
0.995199 0.998994 0.97688
1.00141 1.00276 0.990307
0.996003 0.996639 0.977847
0.996323 1.0012 0.969897
0.997545 1.00236 0.987212
1.00143 1.00393 0.988449
0.996812 1.0011 0.966511
0.999191 0.999326 0.991177
1.00074 1.00265 0.989494
1.00167 1.00208 0.988816
1.00341 0.997802 0.989363
1.00128 1.00334 0.988604
1.00232 0.999967 0.989944
1.00305 0.99661 0.992149
1.00121 1.00252 0.98943
1.00207 0.999493 0.990891
1.00269 0.996952 0.992272
1.0015 1.00151 0.989889
1.00203 0.999311 0.991156
1.00224 0.997979 0.992057
1.002 0.998836 0.991895
1.00184 0.999452 0.991463
1.00165 1.00004 0.99126
1.00123 1.00122 0.99093
1.00138 1.00129 0.990575
1.00157 1.00083 0.990565
1.00057 1.00171 0.991565
1.00074 1.00199 0.991046
1.00095 1.00229 0.990482
1.00018 1.00159 0.992584
1.00032 1.00187 0.992058
1.00038 1.00226 0.991375
0.999879 1.00099 0.993746
1.00012 1.00162 0.992692
1.00023 1.00186 0.992261
0.999673 0.998646 0.996429
0.999934 1.00068 0.993949
1.00009 1.00163 0.992748
0.999627 0.997173 0.999237
0.999752 0.998395 0.996546
0.999994 1.00034 0.994168
0.999679 0.99701 0.998756
0.999808 0.998206 0.996636
0.999728 0.996855 0.99927
1.00016 1.00192 0.992333
1.0002 1.00194 0.992211
1.00018 1.00141 0.992753
1.0002 1.00192 0.992242
1.00019 1.00125 0.992897
1.00004 1.00009 0.994303
0.999886 0.997966 0.996722
1.00008 0.999789 0.994535
1.00022 1.00098 0.993111
0.999807 0.996652 0.999286
0.999923 0.997802 0.996807
1.00011 0.999583 0.994695
0.999861 0.9965 0.999309
0.999952 0.997656 0.996886
0.999909 0.996333 0.999339
0.995288 0.997683 0.977524
0.998825 0.996299 0.985915
1.01194 0.998964 0.976548
1.00021 1.0022 0.991911
1.00021 1.00232 0.991788
1.00013 1.00214 0.992185
1.0001 1.00221 0.99222
1.00013 1.00242 0.991908
1.00019 1.00243 0.991733
1.00021 1.00243 0.991693
1.00008 1.00284 0.991511
0.999969 1.00252 0.991784
1.00003 1.00291 0.991417
1.00055 1.00332 0.99063
1.00007 1.00289 0.991554
1.00013 1.00265 0.991662
0.996502 1.00038 0.968482
0.994724 0.998638 0.979172
0.997495 0.995336 0.984808
0.994345 0.998373 0.981054
0.994946 0.999225 0.970253
0.995987 0.999135 0.995373
0.998135 0.996315 0.99282
0.995501 0.999053 0.974721
1.00086 0.99597 0.989662
1.00208 1.00239 0.988324
0.999753 1.00336 0.991489
0.999941 1.0017 0.992851
1.00031 1.0022 0.99379
1.00225 0.998855 0.992069
0.997162 0.999876 0.968762
0.996231 0.996748 0.976473
0.999763 0.997167 0.984374
1.0015 1.003 0.990478
0.997085 1.00286 0.98352
0.996181 0.996516 0.976762
0.996153 1.00126 0.972144
1.00176 1.00379 0.988512
0.997614 1.00014 0.970623
0.998843 1.00002 0.985924
1.00341 1.00178 0.987098
1.0007 0.998104 0.992909
1.00148 1.0025 0.9887
1.00331 0.998272 0.989247
1.00424 0.995445 0.990465
1.00225 0.999706 0.989929
1.00287 0.99663 0.992138
1.0033 0.99521 0.992732
1.00208 0.999264 0.990905
1.00267 0.996954 0.992202
1.00275 0.99659 0.992455
1.00203 0.999233 0.991161
1.00224 0.99806 0.992009
1.00227 0.998022 0.992036
1.00194 0.998704 0.992014
1.00189 0.999319 0.991613
1.00184 0.999349 0.991576
1.00166 1.00005 0.991238
1.00154 1.00035 0.991172
1.00097 1.0012 0.991295
1.00122 1.00126 0.99091
1.00138 1.00133 0.990592
1.00037 1.0015 0.992305
1.00055 1.00173 0.991627
1.00076 1.002 0.991141
0.999866 1.00116 0.993579
1.0002 1.00158 0.992576
1.00034 1.00187 0.992045
0.999595 0.99896 0.996251
0.999902 1.00094 0.993753
1.00014 1.0016 0.992699
0.999556 0.997372 0.999214
0.999669 0.998682 0.996421
0.999947 1.00065 0.993951
0.999615 0.997189 0.999232
0.999748 0.998424 0.996539
0.999671 0.997029 0.999246
1.00011 1.00207 0.992286
1.00015 1.00192 0.992337
1.00014 1.00155 0.992642
1.0002 1.00194 0.992162
1.00017 1.00144 0.992711
1.00003 1.00038 0.994043
1.00019 1.00126 0.992892
1.00005 1.00008 0.994305
0.999835 0.998187 0.996601
0.999753 0.996808 0.999266
0.999884 0.997956 0.996729
1.00009 0.999774 0.994539
0.999814 0.996643 0.99929
0.999919 0.997797 0.996811
0.999866 0.996485 0.999315
0.996847 1.00099 0.971655
0.995549 0.997054 0.979362
0.998481 0.996241 0.986544
1.00019 1.00239 0.991771
1.0001 1.00212 0.992218
1.00014 1.00242 0.991926
1.00009 1.0022 0.992215
1.00006 1.0024 0.992099
0.999988 1.00237 0.992083
1.00006 1.00277 0.991543
1.00001 1.00267 0.99171
0.999953 1.00311 0.991402
1.0001 1.00236 0.991622
1.00088 1.00285 0.990912
1.00159 1.00275 0.98886
1.0004 1.00314 0.990699
0.999993 1.00318 0.991528
1.00023 0.997907 0.989603
0.995886 1.00107 0.971445
0.995053 0.997987 0.977008
0.995426 0.999947 0.972371
0.998403 0.996463 0.995437
1.00089 0.995897 0.993179
1.0041 0.997275 0.990268
1.00205 1.0018 0.988945
0.99957 1.00336 0.991439
1.00329 0.998353 0.991421
0.999007 1.00071 0.985669
0.99752 1.00045 0.971259
0.996205 0.996049 0.979687
1.00214 1.00379 0.988582
0.998494 1.00044 0.989543
0.997193 0.999017 0.974827
1.0036 1.001 0.987274
1.00056 0.998692 0.990383
1.00477 0.997228 0.98844
1.00388 0.998573 0.989832
1.0033 0.99883 0.989133
1.00421 0.995539 0.990492
1.00363 0.99634 0.99107
1.0027 0.996631 0.992125
1.00322 0.995466 0.992684
1.00322 0.996499 0.991686
1.00266 0.996981 0.992131
1.0027 0.99677 0.992396
1.00273 0.997646 0.991549
1.00224 0.998145 0.99196
1.0022 0.998099 0.992065
1.00211 0.998933 0.991439
1.00189 0.99858 0.992134
1.00187 0.999215 0.991679
1.0018 0.999835 0.991277
1.00167 1.00006 0.991215
1.00154 1.00037 0.991152
1.00136 1.00059 0.991343
1.00065 1.00116 0.991921
1.00095 1.00124 0.991352
1.00121 1.0013 0.990889
0.999933 1.00125 0.993348
1.00037 1.0015 0.9923
1.00054 1.00176 0.991688
0.999519 0.999316 0.996031
0.999896 1.00112 0.993582
1.00022 1.00157 0.992569
0.999488 0.997605 0.999175
0.999594 0.998998 0.996246
0.999922 1.0009 0.99376
0.999546 0.997396 0.999203
0.999666 0.998715 0.996413
0.999605 0.997205 0.999226
1.0001 1.00219 0.992188
1.00012 1.00206 0.992315
1.00007 1.00175 0.992605
1.00013 1.00193 0.992342
1.00013 1.00158 0.992638
0.999997 1.00066 0.993829
1.00017 1.00147 0.992668
1.00003 1.00039 0.994041
0.999776 0.998444 0.996455
1.00006 1.00007 0.994306
0.999836 0.998163 0.99661
0.999694 0.996997 0.999236
0.999761 0.996796 0.999272
0.999882 0.997945 0.996735
0.99982 0.996634 0.999295
0.999383 0.999778 0.988008
0.996654 1.00043 0.969899
0.996018 0.997312 0.976439
1.00031 1.00221 0.9918
1.00013 1.00242 0.991944
1.00008 1.00219 0.992209
1.00002 1.00243 0.992073
1.00003 1.00243 0.992078
0.999986 1.00202 0.992372
1.00006 1.00286 0.991636
0.99995 1.00332 0.991387
1.00022 1.00238 0.991717
1.0006 1.00275 0.991123
1.00158 1.00179 0.989716
1.00323 1.00038 0.987601
1.00165 1.00237 0.988798
1.00035 1.00284 0.990769
1.00456 0.995829 0.990317
1 0.998248 0.98769
0.995784 1.00095 0.974842
1.0008 0.995784 0.9882
1.00414 0.997121 0.989888
1.00155 1.0011 0.989579
1.00294 0.999697 0.991196
0.999042 1.00024 0.989656
0.99718 0.999899 0.969105
1.00378 1.00021 0.987442
1.00046 0.9986 0.987953
1.00488 0.996741 0.988254
1.00386 0.998329 0.990329
1.00411 0.996853 0.988931
1.00319 0.998495 0.988875
1.0041 0.99557 0.990521
1.00363 0.996206 0.99114
1.00326 0.997837 0.990397
1.00315 0.995692 0.992635
1.00321 0.996564 0.991667
1.00304 0.998013 0.990593
1.00264 0.996947 0.992337
1.00262 0.997721 0.991667
1.0025 0.998814 0.990739
1.00213 0.998171 0.992093
1.00209 0.998944 0.991442
1.002 0.999578 0.991008
1.00184 0.999108 0.991744
1.00178 0.999755 0.991306
1.0016 1.00018 0.991224
1.00154 1.0004 0.991132
1.00133 1.00059 0.9913
1.00103 1.00078 0.991761
1.00014 1.00113 0.99307
1.00064 1.00119 0.99198
1.00092 1.00128 0.991408
0.999464 0.999735 0.995726
0.999954 1.00123 0.993351
1.00038 1.0015 0.992296
0.999408 0.997873 0.999124
0.999533 0.999336 0.996026
0.999926 1.00108 0.993585
0.999474 0.997634 0.999161
0.999593 0.999034 0.99624
0.999536 0.997419 0.999192
1.00021 1.00213 0.991932
1.0001 1.00216 0.992195
1.00009 1.00185 0.992541
1.00013 1.00205 0.992343
1.00007 1.00176 0.992629
0.999924 1.00098 0.993662
1.00012 1.00162 0.992635
0.999984 1.00069 0.993824
0.999695 0.998742 0.996314
1.00003 1.0004 0.99404
0.999781 0.998413 0.996464
0.999629 0.997203 0.999204
0.999839 0.99814 0.99662
0.999704 0.996975 0.999246
0.999768 0.996785 0.999279
1.00362 0.99656 0.991444
0.999376 1.0001 0.984281
0.99692 1.00075 0.971334
1.00036 1.00173 0.992003
1.00093 1.00167 0.991125
1.00017 1.00223 0.991861
1.00006 1.00245 0.992064
1.00002 1.00247 0.992056
1.00012 1.002 0.99229
1.00144 1.00129 0.990433
1.00028 1.00241 0.991812
1.00017 1.00268 0.991334
1.00151 1.00173 0.989856
1.00293 1.00011 0.988295
1.00408 0.997496 0.988634
1.00333 1.00026 0.98761
1.0018 1.00199 0.988735
1.00439 0.995936 0.990521
0.999917 0.998924 0.984956
1.00431 0.997089 0.989489
1.00277 0.99815 0.991122
1.00287 0.999082 0.991436
0.999171 1.00026 0.98463
1.005 0.996304 0.988069
1.00388 0.998134 0.990798
1.00414 0.996986 0.988993
1.0033 0.998505 0.989158
1.00319 0.998588 0.989619
1.00285 0.998345 0.990441
1.00364 0.995982 0.991211
1.00328 0.997645 0.990444
1.00315 0.998668 0.989668
1.00319 0.996668 0.991647
1.00299 0.998009 0.990652
1.00287 0.998795 0.990009
1.00251 0.997792 0.991783
1.00251 0.998823 0.990733
1.00237 0.999436 0.990399
1.00208 0.998955 0.991444
1.002 0.999574 0.991007
1.00182 1.00001 0.990938
1.00177 0.999675 0.991335
1.00158 1.00015 0.99123
1.00125 1.00047 0.991587
1.00131 1.0006 0.991258
1.00099 1.00077 0.991744
1.00041 1.00085 0.99282
0.999488 1.00003 0.9954
1.00014 1.00113 0.993075
1.00063 1.00122 0.99204
0.999306 0.998212 0.999054
0.999498 0.999715 0.995717
0.999976 1.00121 0.993354
0.999389 0.997915 0.999105
0.999545 0.999355 0.99602
0.999461 0.997664 0.999146
1.00048 1.00196 0.991402
1.00021 1.0021 0.991875
1.00023 1.00177 0.992351
1.0001 1.00214 0.992202
1.00008 1.00185 0.992543
0.999869 1.00126 0.993515
1.00007 1.00177 0.992652
0.999903 1.00102 0.993658
0.999599 0.999093 0.996159
0.999971 1.00073 0.99382
0.999703 0.998706 0.99632
0.999551 0.997428 0.999171
0.999787 0.998381 0.996474
0.999641 0.99718 0.999214
0.999713 0.996957 0.999256
1.00347 0.996584 0.9907
1.00358 0.996847 0.991505
0.999568 1.00014 0.987798
1.00152 1.00103 0.990837
1.00021 1.00171 0.992328
1.00147 1.00099 0.990279
1.00094 1.00168 0.991078
1.00003 1.00229 0.991923
1.00275 1.00019 0.98895
1.00025 1.00198 0.992209
1.00152 1.00117 0.990383
1.00364 0.998512 0.988754
1.00147 1.00168 0.989995
1.00303 1.00018 0.988241
1.00399 0.997747 0.98861
1.00328 1.00024 0.987618
1.00424 0.996043 0.990718
1.00271 0.998204 0.991162
1.00271 0.997914 0.991038
1.00279 0.998448 0.991681
1.00416 0.997045 0.989055
1.00341 0.998555 0.989439
1.0033 0.998526 0.989557
1.00285 0.998424 0.990508
1.00282 0.998854 0.990138
1.00329 0.997527 0.990491
1.00317 0.998606 0.989705
1.00303 0.998984 0.989583
1.00294 0.998014 0.99071
1.00288 0.998838 0.989985
1.00274 0.999302 0.989813
1.00251 0.998833 0.990727
1.00239 0.999434 0.990387
1.00216 0.999831 0.990441
1.002 0.999571 0.991006
1.00182 1 0.990936
1.0015 1.00029 0.991275
1.00156 1.00013 0.991235
1.00125 1.00047 0.991591
1.00067 1.00059 0.992579
1.00096 1.00076 0.991726
1.00041 1.00086 0.992824
0.999527 1.00017 0.995824
0.999235 0.998772 0.997496
0.999524 0.999971 0.995734
1.00015 1.00113 0.99308
0.999288 0.998282 0.999025
0.99953 0.999701 0.995709
0.999372 0.997958 0.999085
1.00187 1.00025 0.990473
1.00086 1.00164 0.990974
1.00056 1.00194 0.991336
1.00043 1.00161 0.992101
1.00022 1.00206 0.991818
1.00021 1.00176 0.992362
0.999872 1.00138 0.993389
1.00006 1.00185 0.992545
0.999845 1.00128 0.993512
0.999515 0.999465 0.995961
0.999882 1.00107 0.993654
0.999602 0.999056 0.996164
0.999455 0.997696 0.999129
0.99971 0.99867 0.996327
0.999567 0.997403 0.999181
0.999654 0.997157 0.999224
1.00323 0.997929 0.990221
1.00348 0.996816 0.990728
1.00353 0.997177 0.991565
1.00253 1.00001 0.989502
1.00129 1.00105 0.991099
1.00005 1.00165 0.992651
1.00162 1.00095 0.990388
1.00096 1.00169 0.991032
1.0035 0.999054 0.988533
1.00276 1.00025 0.988829
1.00158 1.0011 0.990333
1.00368 0.998544 0.988712
1.00318 1.0002 0.988187
1.00392 0.997944 0.988584
1.00257 0.99875 0.990623
1.00267 0.998183 0.991107
1.00264 0.997628 0.990955
1.00343 0.998458 0.989498
1.00286 0.998481 0.990574
1.00284 0.998836 0.990162
1.00271 0.999251 0.989949
1.00319 0.998533 0.989742
1.00305 0.99895 0.98957
1.00285 0.999206 0.989668
1.00289 0.99888 0.989961
1.00275 0.999303 0.989801
1.00249 0.999631 0.989992
1.0024 0.999433 0.990374
1.00217 0.999829 0.990432
1.0018 1.00012 0.990854
1.00183 0.999996 0.990933
1.0015 1.00029 0.991274
1.0009 1.00043 0.992271
1.00124 1.00047 0.991595
1.00066 1.0006 0.992578
0.999593 1.00027 0.995623
1.0004 1.00087 0.992827
0.999579 1.00015 0.995782
0.999109 0.999296 0.997273
0.999202 0.998744 0.998213
0.999566 0.999916 0.996059
0.99927 0.998348 0.998996
1.00257 0.999747 0.989688
1.00143 1.00089 0.990908
1.00174 1.00012 0.990859
1.00067 1.00152 0.991705
1.00096 1.00162 0.990963
1.00064 1.00191 0.99127
1.0004 1.00165 0.992108
0.999962 1.00139 0.993207
1.0002 1.00175 0.992373
0.999857 1.00139 0.993385
0.999459 0.999825 0.99572
0.999823 1.00131 0.993509
0.999506 0.999442 0.995966
0.999337 0.998026 0.999073
0.999605 0.999019 0.996169
0.999477 0.99766 0.999142
0.999584 0.997376 0.999191
1.00317 0.998637 0.989593
1.00323 0.997974 0.990194
1.00347 0.997096 0.990757
1.00323 0.99915 0.988865
1.00253 1.00005 0.989503
1.0011 1.00107 0.991361
1.00175 1.00088 0.990498
1.00352 0.999059 0.988554
1.00279 1.00029 0.988708
1.00371 0.998573 0.988671
1.00267 0.999138 0.990108
1.00263 0.998795 0.990481
1.00263 0.998182 0.991053
1.00266 0.999577 0.989757
1.00285 0.998823 0.990187
1.00271 0.999265 0.98992
1.00271 0.999383 0.989833
1.00308 0.99892 0.989558
1.00286 0.999205 0.989672
1.00261 0.999548 0.989829
1.00275 0.999306 0.989789
1.00249 0.999636 0.989988
1.00208 0.999919 0.990501
1.00217 0.999826 0.990422
1.0018 1.00012 0.990849
1.00115 1.00031 0.991912
1.0015 1.00029 0.991272
1.0009 1.00044 0.992262
0.999671 1.00028 0.995477
1.00065 1.00062 0.992577
0.999647 1.00024 0.995588
0.999007 0.999659 0.997145
0.999631 1.00012 0.99574
0.999082 0.999305 0.99731
0.999155 0.998701 0.99895
1.00298 0.999603 0.989148
1.00221 1.00006 0.990164
1.00249 0.999829 0.989824
1.00112 1.00108 0.991424
1.00141 1.00084 0.990904
1.00163 1.00002 0.991243
1.00017 1.00136 0.992829
1.00067 1.00152 0.991701
1.00105 1.00163 0.990953
1.00036 1.00169 0.992115
0.999942 1.00141 0.993205
0.999447 1.00015 0.99542
0.999843 1.00139 0.993381
0.999433 0.999836 0.995723
0.999197 0.998442 0.999004
0.999497 0.999417 0.99597
0.999365 0.997971 0.999091
0.999498 0.997624 0.999155
1.00316 0.99885 0.989448
1.00326 0.99862 0.989479
1.00323 0.99801 0.990168
1.00331 0.999089 0.988849
1.00252 1.00011 0.989503
1.00354 0.999066 0.988576
1.00274 0.99944 0.989692
1.00265 0.999185 0.990099
1.00271 0.998839 0.99034
1.00264 0.999568 0.989772
1.00261 0.99978 0.989648
1.00272 0.999278 0.989892
1.0027 0.999393 0.989836
1.00257 0.999614 0.989889
1.00287 0.999203 0.989676
1.00261 0.99954 0.989838
1.00222 0.999831 0.990323
1.00248 0.99964 0.989984
1.00208 0.999923 0.990496
1.00136 1.00014 0.991655
1.00181 1.00012 0.990844
1.00116 1.00031 0.991901
0.999783 1.00022 0.995361
1.00091 1.00044 0.992254
0.999725 1.00026 0.995443
0.998943 0.999901 0.997061
0.999702 1.00021 0.995552
0.998976 0.999689 0.997177
0.999055 0.999309 0.997348
1.00306 0.998989 0.989474
1.00264 0.999767 0.989568
1.003 0.999548 0.989101
1.00168 1.00043 0.990863
1.00218 1.0001 0.99023
1.00239 0.9999 0.989961
1.00053 1.00103 0.992386
1.00109 1.00104 0.99131
1.0014 1.00076 0.990899
0.999497 1.00044 0.99504
1.00016 1.00134 0.992831
1.00067 1.00152 0.991698
0.999921 1.00142 0.993202
0.999395 1.00022 0.995426
0.999051 0.998932 0.998919
0.999406 0.999851 0.995726
0.999225 0.998364 0.999026
0.999394 0.997919 0.999109
1.00299 0.999131 0.989516
1.00318 0.998848 0.989419
1.00333 0.998602 0.989366
1.00339 0.999018 0.988833
1.00277 0.999631 0.989449
1.00274 0.99943 0.989719
1.00263 0.999228 0.990089
1.00263 0.999559 0.989788
1.00261 0.999758 0.98964
1.00251 0.999834 0.989794
1.00269 0.999405 0.989839
1.00255 0.999623 0.989918
1.00224 0.999819 0.990237
1.00261 0.999533 0.989847
1.00221 0.999827 0.990326
1.00148 1.00002 0.991541
1.00208 0.99993 0.990491
1.00137 1.00014 0.991646
0.999896 1.00012 0.994446
1.00116 1.0003 0.991889
0.999824 1.00023 0.994909
0.998912 0.999969 0.998714
0.999781 1.00024 0.995408
0.998907 0.999951 0.997091
0.998944 0.999717 0.997211
1.00295 0.999101 0.989656
1.00271 0.999426 0.989676
1.00303 0.999031 0.989502
1.00209 0.999973 0.990237
1.00261 0.999763 0.989637
1.00301 0.9995 0.989054
1.00095 1.00054 0.991806
1.00169 1.00042 0.990855
1.00214 1.00016 0.990296
0.999634 1.00052 0.994661
1.00054 1.001 0.992285
1.00107 1.00101 0.991195
0.998952 0.99944 0.998815
0.999432 1.00051 0.995054
1.00016 1.00133 0.992834
0.999339 1.00028 0.995433
0.999075 0.99884 0.998947
0.999261 0.998284 0.999048
1.00286 0.999336 0.989559
1.00298 0.99913 0.989537
1.00321 0.998851 0.989389
1.00274 0.999767 0.989404
1.00278 0.999642 0.989416
1.00275 0.999423 0.989745
1.00261 0.999735 0.989631
1.00251 0.999815 0.989797
1.00227 0.999872 0.990257
1.00254 0.999632 0.989946
1.00223 0.999836 0.990339
1.00155 0.999962 0.991283
1.00221 0.999822 0.990329
1.00148 1.00001 0.99154
0.999955 1.00004 0.994407
1.00137 1.00014 0.991638
0.9999 1.00013 0.994441
0.998925 0.999993 0.998707
0.999856 1.00023 0.994473
0.998908 1.00004 0.997884
0.99887 1 0.997122
1.00282 0.999329 0.989749
1.00268 0.999362 0.98986
1.00293 0.999066 0.989672
1.00225 0.999764 0.990269
1.0027 0.999436 0.989704
1.00301 0.999071 0.989529
1.00133 1.00016 0.991451
1.00212 1.00001 0.990367
1.00259 0.999756 0.989707
0.999788 1.00041 0.994423
1.00101 1.00052 0.99176
1.0017 1.00042 0.990848
0.998917 0.99983 0.998724
0.999574 1.00058 0.994676
1.00055 1.00097 0.992183
0.998955 0.999335 0.998851
0.999368 1.00058 0.995068
0.999099 0.998737 0.998974
1.00275 0.999578 0.989586
1.00286 0.999347 0.98956
1.00296 0.999124 0.989559
1.00248 0.99981 0.989906
1.00272 0.999789 0.989431
1.0028 0.999653 0.989382
1.00252 0.999799 0.9898
1.00227 0.999861 0.990262
1.00166 0.999927 0.991097
1.00222 0.999856 0.990441
1.00154 0.999967 0.991376
1.00002 1.00002 0.99431
1.00148 1.00001 0.991538
0.999956 1.00005 0.994406
0.998951 1.00001 0.998699
0.999902 1.00013 0.994437
0.998936 1.00001 0.998704
0.998924 1.00012 0.997019
1.00266 0.999505 0.989892
1.0028 0.999278 0.989758
1.00232 0.999679 0.990249
1.00269 0.999361 0.989856
1.0029 0.999031 0.989687
1.00153 0.999987 0.991462
1.00227 0.999761 0.990259
1.0027 0.999444 0.989731
0.999912 1.00022 0.994338
1.00135 1.00018 0.991518
1.00215 1.00005 0.990497
0.998927 1.00004 0.99868
0.999751 1.00045 0.994433
1.00106 1.00049 0.991714
0.998906 0.999745 0.998753
0.999517 1.00065 0.99469
0.998959 0.999229 0.998884
1.00244 0.999741 0.990067
1.00272 0.999596 0.98961
1.00286 0.999362 0.989561
1.00178 0.999877 0.990892
1.00247 0.999831 0.989906
1.0027 0.999809 0.989458
1.00228 0.99985 0.990267
1.00164 0.999925 0.991128
1.00011 0.99997 0.994166
1.00153 0.999969 0.991469
1.00002 1.00002 0.994306
0.998991 1.00001 0.998679
0.999957 1.00005 0.994405
0.998966 1.00002 0.998693
0.99895 1.00003 0.9987
1.00235 0.999729 0.990173
1.00266 0.99946 0.989871
1.00278 0.999222 0.989768
1.00161 0.999898 0.991391
1.00232 0.999681 0.990244
1.0027 0.999361 0.989851
0.999991 1.00005 0.994327
1.00153 0.999996 0.991463
1.00229 0.999758 0.990249
0.998956 1.00009 0.998671
0.999893 1.00024 0.994346
1.00138 1.0002 0.991585
0.998908 0.999986 0.998692
0.999719 1.00049 0.994443
0.998888 0.999658 0.998783
1.00177 0.999868 0.991114
1.00244 0.999755 0.98996
1.00271 0.999611 0.989634
1.00018 0.999916 0.994079
1.00178 0.999875 0.990908
1.00247 0.999855 0.989906
1.00163 0.999921 0.991159
1.00011 0.99998 0.99416
0.999065 0.999997 0.998637
1.00002 1.00003 0.994302
0.999015 1.00001 0.998664
0.99898 1.00002 0.998686
1.00168 0.999881 0.991268
1.00236 0.999711 0.990134
1.00266 0.999418 0.98985
1.00007 0.999978 0.995143
1.00161 0.999906 0.991389
1.00233 0.999683 0.990239
0.998994 1.00006 0.99867
0.99999 1.00005 0.994331
1.00153 1.00001 0.991464
0.998938 1.00007 0.998673
0.999875 1.00026 0.994355
0.998889 0.999936 0.998705
1.00019 0.999938 0.994066
1.00177 0.99986 0.991035
1.00245 0.999762 0.989853
0.999131 0.999981 0.998606
1.00018 0.999919 0.994074
1.00177 0.999872 0.990924
1.00011 0.999991 0.994154
0.999088 1 0.998623
0.99904 1.00002 0.998647
1.00016 0.999957 0.995033
1.00168 0.999879 0.99127
1.00237 0.999693 0.990095
0.99896 1.00004 0.99872
1.00005 0.999968 0.994302
1.00161 0.999913 0.991387
0.998977 1.00006 0.998671
0.999988 1.00005 0.994335
0.998917 1.00005 0.998676
0.999134 0.999958 0.996782
1.00019 0.999925 0.994528
1.00177 0.999857 0.990955
0.999133 0.999985 0.9986
1.00018 0.999925 0.994073
0.999108 1.00001 0.998611
0.99902 0.999978 0.996917
1.00013 0.999949 0.994626
1.00169 0.999877 0.991273
0.998991 1.00002 0.997815
1.00006 0.999961 0.994295
0.998961 1.00005 0.998672
0.99914 0.999983 0.998599
1.00018 0.999905 0.994093
0.999143 0.999985 0.998597
0.999062 0.999985 0.997761
1.00012 0.999939 0.994194
0.999006 1.00002 0.998668
0.99912 0.999981 0.998612
0.999063 1 0.998644

TENSORS stress float
0.0011744 3.13682e-05 3.02514e-05
3.13682e-05 0.000219253 -5.86192e-06
3.02514e-05 -5.86192e-06 0.000203909
0.00280321 -5.5624e-05 2.79616e-05
-5.5624e-05 0.0010247 3.39229e-06
2.79616e-05 3.39229e-06 0.00102752
0.00117524 3.62181e-05 1.21592e-05
3.62181e-05 0.000222298 -2.06632e-06
1.21592e-05 -2.06632e-06 0.000206492
0.0013045 1.70228e-05 4.17133e-05
1.70228e-05 0.000301465 -4.40388e-06
4.17133e-05 -4.40388e-06 0.000280686
0.00121076 2.84627e-05 3.37631e-05
2.84627e-05 0.000248754 -5.44261e-06
3.37631e-05 -5.44261e-06 0.000230407
0.00114382 3.27853e-05 2.71983e-05
3.27853e-05 0.000190474 -6.16133e-06
2.71983e-05 -6.16133e-06 0.000179502
0.00113354 1.12929e-05 7.16815e-06
1.12929e-05 0.000166623 -2.517e-06
7.16815e-06 -2.517e-06 0.00013197
0.00281657 -5.6413e-05 3.70774e-07
-5.6413e-05 0.00102872 -1.33193e-07
3.70774e-07 -1.33193e-07 0.00103209
0.00318684 -7.84003e-05 1.09924e-05
-7.84003e-05 0.0012619 1.18386e-06
1.09924e-05 1.18386e-06 0.00125339
0.00283738 -6.58551e-05 1.10719e-05
-6.58551e-05 0.00105704 1.30411e-06
1.10719e-05 1.30411e-06 0.00105616
0.00109604 -3.16307e-05 2.2412e-05
-3.16307e-05 0.000143221 3.81952e-06
2.2412e-05 3.81952e-06 0.000141341
0.000791949 -1.94153e-05 5.49312e-06
-1.94153e-05 -1.06059e-05 3.1978e-06
5.49312e-06 3.1978e-06 -3.96654e-05
0.0015804 -1.00247e-05 5.13189e-05
-1.00247e-05 0.000426165 1.00391e-06
5.13189e-05 1.00391e-06 0.000405507
0.00135441 -4.3483e-05 6.48189e-06
-4.3483e-05 0.000334369 1.50854e-06
6.48189e-06 1.50854e-06 0.00031087
0.00116943 4.20191e-05 -7.02823e-06
4.20191e-05 0.000222116 1.7076e-06
-7.02823e-06 1.7076e-06 0.000205749
0.00132247 3.17608e-05 1.79753e-05
3.17608e-05 0.000315267 -1.32269e-06
1.79753e-05 -1.32269e-06 0.000292853
0.00112957 3.64425e-05 1.07014e-05
3.64425e-05 0.000184944 -2.22743e-06
1.07014e-05 -2.22743e-06 0.000173872
0.00122101 3.5127e-05 1.38997e-05
3.5127e-05 0.000257316 -1.7918e-06
1.38997e-05 -1.7918e-06 0.000238144
0.00117831 1.09875e-05 -4.48592e-06
1.09875e-05 0.000187727 4.56821e-07
-4.48592e-06 4.56821e-07 0.000153415
0.00401551 5.6378e-05 4.96289e-05
5.6378e-05 0.00166825 -5.76239e-07
4.96289e-05 -5.76239e-07 0.00165986
0.0013701 1.53958e-05 4.45604e-05
1.53958e-05 0.000331638 -3.50983e-06
4.45604e-05 -3.50983e-06 0.000311135
0.00124551 2.28561e-05 3.7766e-05
2.28561e-05 0.000272415 -5.03027e-06
3.7766e-05 -5.03027e-06 0.000252296
0.00129631 7.07597e-06 8.38341e-06
7.07597e-06 0.000226528 -2.71724e-06
8.38341e-06 -2.71724e-06 0.000186236
0.0011851 8.09421e-06 7.49662e-06
8.09421e-06 0.000188461 -2.55428e-06
7.49662e-06 -2.55428e-06 0.00015146
0.00113919 3.30318e-05 2.50681e-05
3.30318e-05 0.000173543 -6.22739e-06
2.50681e-05 -6.22739e-06 0.000167687
0.00107834 1.81444e-05 6.4152e-06
1.81444e-05 0.000142301 -2.61806e-06
6.4152e-06 -2.61806e-06 0.000111117
0.00143353 -3.3544e-05 2.42308e-06
-3.3544e-05 0.000254303 -1.11807e-06
2.42308e-06 -1.11807e-06 0.000195949
0.00283062 -5.71961e-05 -2.64934e-05
-5.71961e-05 0.0010329 -3.38345e-06
-2.64934e-05 -3.38345e-06 0.00103684
0.00219351 -5.34563e-05 -1.30536e-05
-5.34563e-05 0.000755596 -5.6326e-07
-1.30536e-05 -5.6326e-07 0.000741963
0.00201319 -4.94777e-05 -1.06958e-05
-4.94777e-05 0.000636969 -8.78139e-07
-1.06958e-05 -8.78139e-07 0.000631071
0.00270353 -5.25204e-05 2.62442e-07
-5.25204e-05 0.00095978 -8.44535e-08
2.62442e-07 -8.44535e-08 0.000966256
0.000735845 -1.98613e-05 1.33446e-07
-1.98613e-05 -3.65746e-05 -4.64265e-08
1.33446e-07 -4.64265e-08 -6.57639e-05
0.00145692 -2.17249e-05 3.66335e-05
-2.17249e-05 0.000383571 2.84994e-06
3.66335e-05 2.84994e-06 0.000362634
0.00127746 -3.18161e-05 2.89585e-05
-3.18161e-05 0.000278664 3.18833e-06
2.89585e-05 3.18833e-06 0.000263371
0.0018383 4.55089e-06 1.84286e-05
4.55089e-06 0.000515833 2.69017e-06
1.84286e-05 2.69017e-06 0.000482397
0.0026017 -5.3158e-05 9.72762e-06
-5.3158e-05 0.000897832 1.50089e-06
9.72762e-06 1.50089e-06 0.000906818
0.00168011 -1.63681e-05 1.49251e-05
-1.63681e-05 0.000441942 2.58731e-06
1.49251e-05 2.58731e-06 0.000414995
0.000782425 -2.77661e-05 6.27725e-06
-2.77661e-05 -1.93036e-05 4.9371e-06
6.27725e-06 4.9371e-06 -4.48177e-05
0.000907924 1.94118e-05 2.82782e-06
1.94118e-05 2.33029e-05 1.22216e-06
2.82782e-06 1.22216e-06 -3.49232e-05
0.00258359 -4.05192e-05 2.32973e-05
-4.05192e-05 0.000870971 3.9686e-06
2.32973e-05 3.9686e-06 0.00088399
0.00419383 -5.7175e-05 1.22007e-06
-5.7175e-05 0.00175274 -1.89274e-07
1.22007e-06 -1.89274e-07 0.00174404
0.00258789 -5.58561e-05 -1.8665e-05
-5.58561e-05 0.000955902 -5.26802e-08
-1.8665e-05 -5.26802e-08 0.000939307
0.00433943 -4.41757e-05 5.519e-05
-4.41757e-05 0.00182007 1.51336e-07
5.519e-05 1.51336e-07 0.00181181
0.00138136 -3.61299e-05 7.48084e-06
-3.61299e-05 0.000340592 1.2215e-06
7.48084e-06 1.2215e-06 0.000317846
0.000771704 -1.25457e-05 1.10118e-05
-1.25457e-05 -7.30695e-05 2.35574e-06
1.10118e-05 2.35574e-06 -0.000116468
0.00361773 -9.66582e-05 9.15524e-06
-9.66582e-05 0.00148705 1.0039e-06
9.15524e-06 1.0039e-06 0.00147434
0.00203578 -1.87804e-05 2.57287e-05
-1.87804e-05 0.000587126 2.98052e-06
2.57287e-05 2.98052e-06 0.000552555
0.00135583 4.79839e-05 -6.29563e-06
4.79839e-05 0.000337365 1.81918e-06
-6.29563e-06 1.81918e-06 0.000313044
0.00123064 4.36144e-05 -7.00693e-06
4.36144e-05 0.000265769 1.75235e-06
-7.00693e-06 1.75235e-06 0.000245589
0.00110126 4.04875e-05 -6.6718e-06
4.04875e-05 0.000172431 1.65243e-06
-6.6718e-06 1.65243e-06 0.000161235
0.00122962 9.91669e-06 -1.66308e-05
9.91669e-06 0.000212092 3.43999e-06
-1.66308e-05 3.43999e-06 0.000178154
0.00274808 4.90509e-05 -1.88038e-05
4.90509e-05 0.00102627 -7.98301e-07
-1.88038e-05 -7.98301e-07 0.00101067
0.00136474 3.23585e-05 1.95233e-05
3.23585e-05 0.000333457 -9.93215e-07
1.95233e-05 -9.93215e-07 0.000311193
0.00110103 3.58824e-05 9.63175e-06
3.58824e-05 0.000155241 -2.24286e-06
9.63175e-06 -2.24286e-06 0.000149487
0.00126771 3.3069e-05 1.59241e-05
3.3069e-05 0.000287684 -1.54998e-06
1.59241e-05 -1.54998e-06 0.000266341
0.00134893 3.1608e-06 -7.03818e-06
3.1608e-06 0.000250529 1.45266e-07
-7.03818e-06 1.45266e-07 0.000211046
0.00112526 1.83656e-05 -3.92641e-06
1.83656e-05 0.00016483 4.62366e-07
-3.92641e-06 4.62366e-07 0.000133899
0.00123061 7.03684e-06 -5.29089e-06
7.03684e-06 0.000209086 4.04302e-07
-5.29089e-06 4.04302e-07 0.000172613
0.00148952 -3.62119e-05 -1.31573e-06
-3.62119e-05 0.000280144 5.44562e-07
-1.31573e-06 5.44562e-07 0.00022134
0.00413795 5.85904e-05 4.98912e-05
5.85904e-05 0.00172519 -1.66636e-08
4.98912e-05 -1.66636e-08 0.00171666
0.00139999 1.62509e-05 4.64399e-05
1.62509e-05 0.000345368 -2.67053e-06
4.64399e-05 -2.67053e-06 0.000325248
0.0020051 3.16353e-05 8.32922e-06
3.16353e-05 0.000561508 -1.26632e-06
8.32922e-06 -1.26632e-06 0.000525771
0.00135068 1.19945e-05 8.93802e-06
1.19945e-05 0.000243962 -2.29969e-06
8.93802e-06 -2.29969e-06 0.00020382
0.00123267 6.52509e-06 7.80223e-06
6.52509e-06 0.000205755 -2.74411e-06
7.80223e-06 -2.74411e-06 0.000166797
0.00169574 -3.82743e-05 3.12288e-06
-3.82743e-05 0.00031145 -1.52423e-06
3.12288e-06 -1.52423e-06 0.000248059
0.00120651 -3.24578e-05 3.0932e-06
-3.24578e-05 0.000117043 -1.54717e-06
3.0932e-06 -1.54717e-06 5.6532e-05
0.0012025 3.22545e-05 2.44733e-05
3.22545e-05 0.000189305 -6.16946e-06
2.44733e-05 -6.16946e-06 0.000188149
0.00104684 3.55497e-05 4.90766e-06
3.55497e-05 0.00012648 -2.78707e-06
4.90766e-06 -2.78707e-06 9.9478e-05
0.00132636 -2.30489e-05 2.11068e-06
-2.30489e-05 0.000224838 -1.13544e-06
2.11068e-06 -1.13544e-06 0.000168067
0.00112898 -5.06743e-05 2.00929e-06
-5.06743e-05 5.29629e-05 -1.10277e-06
2.00929e-06 -1.10277e-06 -1.892e-05
0.00318793 -6.90142e-05 -3.07201e-05
-6.90142e-05 0.00125656 -2.68393e-06
-3.07201e-05 -2.68393e-06 0.00124998
0.00274273 -5.31669e-05 -2.52803e-05
-5.31669e-05 0.000976432 -3.49779e-06
-2.52803e-05 -3.49779e-06 0.000983536
0.00291954 -6.07228e-05 -2.80246e-05
-6.07228e-05 0.00109276 -3.19125e-06
-2.80246e-05 -3.19125e-06 0.00109317
0.000685313 -2.69274e-05 -4.14605e-06
-2.69274e-05 -5.90561e-05 -3.6505e-06
-4.14605e-06 -3.6505e-06 -8.87178e-05
0.00354752 -6.92755e-05 7.09112e-07
-6.92755e-05 0.00144441 -1.62098e-07
7.09112e-07 -1.62098e-07 0.00143514
0.0030712 -6.42589e-05 4.68171e-07
-6.42589e-05 0.00118952 -1.38642e-07
4.68171e-07 -1.38642e-07 0.00118522
0.000712503 1.49969e-05 -4.37703e-08
1.49969e-05 -4.93895e-05 -1.452e-07
-4.37703e-08 -1.452e-07 -8.93636e-05
0.0018621 -4.13038e-05 -9.3055e-06
-4.13038e-05 0.000520708 -1.03142e-06
-9.3055e-06 -1.03142e-06 0.00052594
0.000747281 -8.30741e-06 -4.17126e-08
-8.30741e-06 -2.81258e-05 -4.94679e-08
-4.17126e-08 -4.94679e-08 -6.07095e-05
0.00115901 -3.83903e-05 4.76524e-06
-3.83903e-05 0.000172949 5.30035e-07
4.76524e-06 5.30035e-07 0.000149753
0.000895108 1.6446e-05 6.37105e-08
1.6446e-05 1.75076e-05 -2.31024e-07
6.37105e-08 -2.31024e-07 -4.08884e-05
0.00260305 -4.45125e-05 2.4085e-05
-4.45125e-05 0.000889088 3.78693e-06
2.4085e-05 3.78693e-06 0.000900349
0.000818564 -2.74652e-05 4.17158e-06
-2.74652e-05 -3.12638e-05 3.75742e-06
4.17158e-06 3.75742e-06 -4.64321e-05
0.000768955 2.39116e-05 9.12487e-06
2.39116e-05 -3.46379e-05 4.46504e-06
9.12487e-06 4.46504e-06 -7.66692e-05
0.000762988 6.58402e-06 7.97779e-06
6.58402e-06 -2.25296e-05 4.48299e-06
7.97779e-06 4.48299e-06 -5.96153e-05
0.00100916 3.62624e-05 3.14768e-06
3.62624e-05 2.127e-05 1.70298e-06
3.14768e-06 1.70298e-06 -4.08601e-05
0.00158329 -4.22584e-05 1.19043e-05
-4.22584e-05 0.000378645 3.2958e-06
1.19043e-05 3.2958e-06 0.000361469
0.00093713 2.80334e-05 2.75328e-06
2.80334e-05 2.82446e-05 1.31639e-06
2.75328e-06 1.31639e-06 -3.00122e-05
0.000910554 1.03705e-05 2.65224e-06
1.03705e-05 2.85708e-05 1.71977e-06
2.65224e-06 1.71977e-06 -2.85098e-05
0.000951496 4.51506e-05 1.44513e-06
4.51506e-05 1.8188e-05 1.79107e-07
1.44513e-06 1.79107e-07 -5.13483e-05
0.00254381 -3.64859e-05 2.2096e-05
-3.64859e-05 0.000843966 4.09766e-06
2.2096e-05 4.09766e-06 0.000858652
0.00260719 -4.06635e-05 3.39246e-07
-4.06635e-05 0.000881824 -8.39957e-08
3.39246e-07 -8.39957e-08 0.000894984
0.00375978 -6.89976e-05 -4.06477e-05
-6.89976e-05 0.0015496 -1.5991e-06
-4.06477e-05 -1.5991e-06 0.00153981
0.00408299 -5.63032e-05 -4.79467e-05
-5.63032e-05 0.00169993 -6.43696e-07
-4.79467e-05 -6.43696e-07 0.00169129
0.00429638 -3.53022e-05 2.06579e-06
-3.53022e-05 0.00179871 -2.4191e-07
2.06579e-06 -2.4191e-07 0.00179099
0.002688 -4.97905e-05 -1.99376e-05
-4.97905e-05 0.000999599 2.01105e-08
-1.99376e-05 2.01105e-08 0.000983504
0.0014189 -4.70048e-06 1.12178e-05
-4.70048e-06 0.000255713 -1.27199e-07
1.12178e-05 -1.27199e-07 0.000216638
0.00243738 -5.60691e-05 -1.63696e-05
-5.60691e-05 0.000884466 -2.1152e-07
-1.63696e-05 -2.1152e-07 0.000867857
0.00131423 2.18339e-06 9.12535e-06
2.18339e-06 0.000224746 -3.64356e-08
9.12535e-06 -3.64356e-08 0.000186784
0.00430074 2.20822e-05 5.08299e-05
2.20822e-05 0.00179997 5.89246e-07
5.08299e-05 5.89246e-07 0.0017924
0.000745862 -2.13159e-06 9.11136e-06
-2.13159e-06 -9.51752e-05 7.87055e-07
9.11136e-06 7.87055e-07 -0.000138766
0.00207065 -3.5071e-05 2.77539e-05
-3.5071e-05 0.000596329 2.42164e-06
2.77539e-05 2.42164e-06 0.000560905
0.00117514 1.41039e-06 5.39032e-06
1.41039e-06 -2.5152e-06 1.53361e-06
5.39032e-06 1.53361e-06 -7.14058e-05
0.00195573 1.00255e-05 2.24484e-05
1.00255e-05 0.000557686 2.60905e-06
2.24484e-05 2.60905e-06 0.00052264
0.00114216 2.26992e-05 4.59163e-06
2.26992e-05 1.396e-05 1.72517e-06
4.59163e-06 1.72517e-06 -5.30158e-05
0.00152501 1.71489e-05 -4.85097e-05
1.71489e-05 0.000402717 8.14911e-07
-4.85097e-05 8.14911e-07 0.000382578
0.00137575 4.43993e-05 -6.88408e-06
4.43993e-05 0.000343296 1.58829e-06
-6.88408e-06 1.58829e-06 0.000319508
0.00104704 3.87479e-05 -6.26996e-06
3.87479e-05 0.000129155 1.60285e-06
-6.26996e-06 1.60285e-06 0.000123513
0.00129698 4.5686e-05 -6.66283e-06
4.5686e-05 0.000306948 1.8205e-06
-6.66283e-06 1.8205e-06 0.000284116
0.0013823 -9.24378e-07 -2.25897e-05
-9.24378e-07 0.000264457 3.06023e-06
-2.25897e-05 3.06023e-06 0.000225971
0.00127484 4.89246e-06 -1.84904e-05
4.89246e-06 0.000228972 3.28367e-06
-1.84904e-05 3.28367e-06 0.000193116
0.00118724 1.80937e-05 -1.48679e-05
1.80937e-05 0.000194818 3.52964e-06
-1.48679e-05 3.52964e-06 0.000164157
0.00154609 -3.87196e-05 -5.06506e-06
-3.87196e-05 0.00030619 2.20277e-06
-5.06506e-06 2.20277e-06 0.000246944
0.00420361 6.26027e-05 -2.04729e-06
6.26027e-05 0.00175672 -2.47238e-07
-2.04729e-06 -2.47238e-07 0.00174801
0.00137702 3.06506e-05 2.00472e-05
3.06506e-05 0.000337114 -6.62994e-07
2.00472e-05 -6.62994e-07 0.000315638
0.00109302 1.55268e-05 -1.20315e-05
1.55268e-05 9.74513e-05 1.55961e-07
-1.20315e-05 1.55961e-07 5.72574e-05
0.00139428 5.9556e-06 -7.35466e-06
5.9556e-06 0.000263322 9.18372e-08
-7.35466e-06 9.18372e-08 0.000224119
0.00193654 4.23701e-05 1.69834e-05
4.23701e-05 0.000565042 -1.91153e-06
1.69834e-05 -1.91153e-06 0.000568035
0.00131529 3.28987e-05 -3.51556e-06
3.28987e-05 0.000259825 4.3467e-07
-3.51556e-06 4.3467e-07 0.000234619
0.0012846 4.00095e-06 -6.22492e-06
4.00095e-06 0.0002292 2.7717e-07
-6.22492e-06 2.7717e-07 0.00019096
0.0015352 -3.53333e-05 -1.97194e-06
-3.53333e-05 0.000229865 4.31583e-07
-1.97194e-06 4.31583e-07 0.000165752
0.00142459 -2.76435e-05 -1.08762e-06
-2.76435e-05 0.000271105 6.3237e-07
-1.08762e-06 6.3237e-07 0.000213769
0.00138056 -3.62687e-05 -5.7822e-07
-3.62687e-05 0.000203478 1.62814e-07
-5.7822e-07 1.62814e-07 0.000143436
0.00112198 -5.01852e-05 8.26602e-09
-5.01852e-05 4.98954e-05 -3.96416e-08
8.26602e-09 -3.96416e-08 -2.18977e-05
0.000728426 4.9056e-06 8.81565e-06
4.9056e-06 -9.63924e-05 -1.49672e-06
8.81565e-06 -1.49672e-06 -0.000139075
0.00136677 1.84807e-05 9.396e-06
1.84807e-05 0.00024721 -1.83608e-06
9.396e-06 -1.83608e-06 0.000208096
0.00150762 1.22373e-05 4.82415e-06
1.22373e-05 0.000175944 -9.5965e-07
4.82415e-06 -9.5965e-07 0.000110827
0.00141832 -2.54836e-05 4.29302e-06
-2.54836e-05 0.000152886 -1.39642e-06
4.29302e-06 -1.39642e-06 8.8243e-05
0.00130756 -3.5457e-05 3.37281e-06
-3.5457e-05 0.00014197 -1.7822e-06
3.37281e-06 -1.7822e-06 7.92895e-05
0.00161986 -4.69395e-05 1.58163e-06
-4.69395e-05 0.000214116 -6.59205e-07
1.58163e-06 -6.59205e-07 0.000138743
0.00274247 4.91215e-05 2.49381e-05
4.91215e-05 0.000963858 -3.62269e-06
2.49381e-05 -3.62269e-06 0.00097343
0.0011448 -4.78286e-05 1.84496e-06
-4.78286e-05 3.78884e-05 -9.23901e-07
1.84496e-06 -9.23901e-07 -3.35134e-05
0.000739591 3.65987e-05 4.05079e-06
3.65987e-05 -4.23669e-05 -3.55104e-06
4.05079e-06 -3.55104e-06 -6.66631e-05
0.000801648 -1.17614e-05 2.24085e-06
-1.17614e-05 -2.43664e-05 -1.71773e-06
2.24085e-06 -1.71773e-06 -8.19011e-05
0.00117536 -5.37499e-05 1.96333e-06
-5.37499e-05 0.000102929 -1.5054e-06
1.96333e-06 -1.5054e-06 3.00641e-05
0.00121686 -5.82912e-05 1.46012e-06
-5.82912e-05 6.81039e-05 -6.51827e-07
1.46012e-06 -6.51827e-07 -8.47697e-06
0.000752918 2.87318e-05 4.39738e-06
2.87318e-05 -5.70649e-05 -3.85722e-06
4.39738e-06 -3.85722e-06 -7.48112e-05
0.000933759 -3.34144e-06 2.53452e-06
-3.34144e-06 1.91976e-05 -2.59421e-06
2.53452e-06 -2.59421e-06 -2.89947e-05
0.00339821 -7.18326e-05 -3.42465e-05
-7.18326e-05 0.00136907 -2.36984e-06
-3.42465e-05 -2.36984e-06 0.00136021
0.00301529 -6.45639e-05 -2.88633e-05
-6.45639e-05 0.00115727 -2.94553e-06
-2.88633e-05 -2.94553e-06 0.00115403
0.000679048 1.1865e-05 -5.95183e-06
1.1865e-05 -6.18202e-05 -3.4979e-06
-5.95183e-06 -3.4979e-06 -0.000102167
0.00269623 -4.89597e-05 -2.48107e-05
-4.89597e-05 0.000942396 -3.64245e-06
-2.48107e-05 -3.64245e-06 0.000952002
0.000678093 -3.5382e-05 -4.01744e-06
-3.5382e-05 -6.98869e-05 -3.7429e-06
-4.01744e-06 -3.7429e-06 -9.51848e-05
0.000674708 -8.83353e-06 -5.63133e-06
-8.83353e-06 -5.9813e-05 -3.28711e-06
-5.63133e-06 -3.28711e-06 -9.29951e-05
0.000874646 1.44422e-05 -2.49037e-06
1.44422e-05 7.70897e-06 -1.56055e-06
-2.49037e-06 -1.56055e-06 -5.07498e-05
0.0026372 -4.46893e-05 2.98228e-07
-4.46893e-05 0.000904884 -9.30583e-08
2.98228e-07 -9.30583e-08 0.000916292
0.000803436 -2.66106e-05 1.37408e-07
-2.66106e-05 -3.97019e-05 -1.4778e-08
1.37408e-07 -1.4778e-08 -5.45946e-05
0.0012679 1.63806e-05 7.64757e-06
1.63806e-05 0.000221369 3.94743e-08
7.64757e-06 3.94743e-08 0.000183019
0.00119842 -2.29418e-06 5.73972e-06
-2.29418e-06 0.000202046 3.54702e-07
5.73972e-06 3.54702e-07 0.000168219
0.00099204 3.64849e-05 1.1676e-07
3.64849e-05 1.26216e-05 -9.65587e-09
1.1676e-07 -9.65587e-09 -4.93671e-05
0.000785881 -3.41468e-05 -4.63127e-08
-3.41468e-05 -2.76659e-05 -5.40648e-09
-4.63127e-08 -5.40648e-09 -4.85009e-05
0.000913757 2.6951e-05 -8.67662e-08
2.6951e-05 1.67715e-05 4.15e-08
-8.67662e-08 4.15e-08 -4.14248e-05
0.000886697 7.36928e-06 -5.31655e-08
7.36928e-06 1.8353e-05 -1.45692e-07
-5.31655e-08 -1.45692e-07 -3.88955e-05
0.000918142 4.44464e-05 -4.44737e-08
4.44464e-05 6.6964e-07 -1.33499e-07
-4.44737e-08 -1.33499e-07 -6.90051e-05
0.000807139 -3.11543e-05 4.33672e-06
-3.11543e-05 -2.73632e-05 3.63131e-06
4.33672e-06 3.63131e-06 -4.52808e-05
0.000833089 -2.39619e-05 3.80667e-06
-2.39619e-05 -3.136e-05 3.81205e-06
3.80667e-06 3.81205e-06 -4.37969e-05
0.000915731 2.3344e-06 2.83777e-06
2.3344e-06 8.31268e-06 2.02879e-06
2.83777e-06 2.02879e-06 -3.89271e-05
0.00104951 3.37741e-05 3.46934e-06
3.37741e-05 1.24564e-05 1.75619e-06
3.46934e-06 1.75619e-06 -5.16884e-05
0.000975609 3.46341e-05 2.87939e-06
3.46341e-05 3.12468e-05 1.62802e-06
2.87939e-06 1.62802e-06 -2.85915e-05
0.00117079 5.16367e-05 1.77804e-06
5.16367e-05 5.54381e-05 1.31715e-06
1.77804e-06 1.31715e-06 -1.79402e-05
0.00091788 5.69852e-06 2.68163e-06
5.69852e-06 2.53331e-05 1.86683e-06
2.68163e-06 1.86683e-06 -2.81142e-05
0.000959591 4.78767e-05 1.19205e-06
4.78767e-05 4.30818e-06 5.29398e-07
1.19205e-06 5.29398e-07 -6.40214e-05
0.00104353 4.27502e-05 1.49159e-06
4.27502e-05 7.84349e-05 5.09233e-07
1.49159e-06 5.09233e-07 7.45166e-06
0.00109294 5.75127e-05 -5.0954e-08
5.75127e-05 8.17761e-05 -3.07026e-07
-5.0954e-08 -3.07026e-07 6.33786e-06
0.00248655 -3.25125e-05 2.05087e-05
-3.25125e-05 0.000809058 4.15815e-06
2.05087e-05 4.15815e-06 0.000825382
0.00255627 -3.66252e-05 3.85839e-07
-3.66252e-05 0.000849445 -7.41442e-08
3.85839e-07 -7.41442e-08 0.00086429
0.0026289 -4.08414e-05 -2.28722e-05
-4.08414e-05 0.000891722 -3.94954e-06
-2.28722e-05 -3.94954e-06 0.000905025
0.000783834 2.54523e-05 3.86016e-06
2.54523e-05 -4.90758e-05 -3.88737e-06
3.86016e-06 -3.88737e-06 -6.37718e-05
0.00270929 4.49745e-05 2.40814e-05
4.49745e-05 0.000939412 -3.78778e-06
2.40814e-05 -3.78778e-06 0.000950796
0.00358954 -7.30041e-05 -3.73305e-05
-7.30041e-05 0.00146698 -2.02742e-06
-3.73305e-05 -2.02742e-06 0.00145703
0.00391307 -6.16756e-05 -4.43265e-05
-6.16756e-05 0.00162123 -1.12358e-06
-4.43265e-05 -1.12358e-06 0.00161213
0.000695533 1.44391e-05 -7.52867e-06
1.44391e-05 -8.81529e-05 -3.12766e-06
-7.52867e-06 -3.12766e-06 -0.00012931
0.000724583 9.48688e-06 -8.4861e-06
9.48688e-06 -9.50226e-05 -2.14857e-06
-8.4861e-06 -2.14857e-06 -0.000137483
0.00425699 -3.86409e-05 -5.0877e-05
-3.86409e-05 0.00177972 -1.58405e-07
-5.0877e-05 -1.58405e-07 0.00177201
0.004323 1.65752e-05 -1.05922e-06
1.65752e-05 0.00181138 2.57609e-07
-1.05922e-06 2.57609e-07 0.0018035
0.000741296 -7.87643e-07 5.53822e-08
-7.87643e-07 -9.74372e-05 -2.11072e-07
5.53822e-08 -2.11072e-07 -0.00014093
0.00136513 -9.39228e-06 1.01577e-05
-9.39228e-06 0.000240823 -2.65468e-08
1.01577e-05 -2.65468e-08 0.000202636
0.0011837 4.40739e-06 1.13025e-07
4.40739e-06 1.8041e-06 -1.30736e-08
1.13025e-07 -1.30736e-08 -6.70418e-05
0.000690103 1.80689e-05 2.58047e-08
1.80689e-05 -8.0426e-05 -1.18358e-07
2.58047e-08 -1.18358e-07 -0.000122115
0.00114855 2.33372e-05 8.64266e-08
2.33372e-05 1.76025e-05 -1.00684e-07
8.64266e-08 -1.00684e-07 -4.93909e-05
0.000719734 -1.73848e-06 9.13646e-06
-1.73848e-06 -0.000109312 -4.80695e-07
9.13646e-06 -4.80695e-07 -0.000152917
0.00120258 -8.072e-07 5.64426e-06
-8.072e-07 -2.65186e-06 7.28431e-07
5.64426e-06 7.28431e-07 -7.32148e-05
0.00116263 1.23856e-05 5.01623e-06
1.23856e-05 7.23643e-06 1.63853e-06
5.01623e-06 1.63853e-06 -6.03068e-05
0.00137572 1.64249e-06 2.95937e-06
1.64249e-06 3.77063e-05 1.02757e-06
2.95937e-06 1.02757e-06 -4.212e-05
0.0010991 2.89039e-05 3.9687e-06
2.89039e-05 1.25574e-05 1.8189e-06
3.9687e-06 1.8189e-06 -5.33139e-05
0.00132531 2.6024e-05 2.30275e-06
2.6024e-05 4.77658e-05 8.66601e-07
2.30275e-06 8.66601e-07 -2.86967e-05
0.00427063 5.95243e-05 -5.62693e-05
5.95243e-05 0.00178839 -3.90178e-07
-5.62693e-05 -3.90178e-07 0.0017799
0.00135394 3.64502e-05 -7.86091e-06
3.64502e-05 0.00032805 1.21035e-06
-7.86091e-06 1.21035e-06 0.000305782
0.000173481 4.55235e-06 -1.03944e-05
4.55235e-06 -0.000368974 2.27655e-06
-1.03944e-05 2.27655e-06 -0.000414614
0.00142227 2.15288e-06 -2.4173e-05
2.15288e-06 0.000274912 2.56742e-06
-2.4173e-05 2.56742e-06 0.000236533
0.002663 5.74145e-05 -9.96488e-06
5.74145e-05 0.00093759 1.42452e-06
-9.96488e-06 1.42452e-06 0.000944179
0.00159687 4.12848e-05 -1.34136e-05
4.12848e-05 0.000400751 3.53977e-06
-1.34136e-05 3.53977e-06 0.000376677
0.0013255 1.63865e-07 -2.05354e-05
1.63865e-07 0.000246839 3.22071e-06
-2.05354e-05 3.22071e-06 0.000209467
0.00138151 -3.30216e-05 -6.84917e-06
-3.30216e-05 0.000151801 2.40599e-06
-6.84917e-06 2.40599e-06 8.69232e-05
0.00156321 -3.99686e-05 -4.40842e-06
-3.99686e-05 0.000294164 1.80337e-06
-4.40842e-06 1.80337e-06 0.000234584
0.0015167 -3.19349e-05 -4.69565e-06
-3.19349e-05 0.000314387 2.44252e-06
-4.69565e-06 2.44252e-06 0.000256474
0.0011156 -4.97608e-05 -1.74089e-06
-4.97608e-05 4.71093e-05 9.51451e-07
-1.74089e-06 9.51451e-07 -2.4596e-05
0.000742182 5.71124e-06 -1.66134e-07
5.71124e-06 -8.99946e-05 -1.55208e-07
-1.66134e-07 -1.55208e-07 -0.000132782
0.00140827 1.32668e-05 -7.52189e-06
1.32668e-05 0.000265435 7.34016e-08
-7.52189e-06 7.34016e-08 0.000227198
0.00120235 1.02674e-05 -1.23922e-06
1.02674e-05 2.23108e-05 9.63024e-08
-1.23922e-06 9.63024e-08 -4.45608e-05
0.00157274 -2.67474e-05 -1.13611e-06
-2.67474e-05 0.000230245 8.22871e-08
-1.13611e-06 8.22871e-08 0.000166171
0.00269839 4.88721e-05 -2.42239e-07
4.88721e-05 0.000943365 -9.27688e-08
-2.42239e-07 -9.27688e-08 0.000952743
0.00117086 4.28297e-05 9.87257e-07
4.28297e-05 0.000176828 5.91562e-08
9.87257e-07 5.91562e-08 0.000154249
0.00112455 -1.24319e-05 1.08176e-07
-1.24319e-05 0.000135525 -2.63474e-08
1.08176e-07 -2.63474e-08 7.91644e-05
0.00131134 -3.5687e-05 -8.17972e-07
-3.5687e-05 0.000144 1.09022e-07
-8.17972e-07 1.09022e-07 8.14256e-05
0.00136675 -4.34194e-05 -8.48651e-07
-4.34194e-05 8.68387e-05 3.72511e-07
-8.48651e-07 3.72511e-07 1.05967e-05
0.00102175 -4.98816e-05 -1.71998e-07
-4.98816e-05 2.85912e-05 -1.314e-07
-1.71998e-07 -1.314e-07 -4.44424e-05
0.00130799 -5.00422e-05 6.03855e-08
-5.00422e-05 0.000118142 9.76215e-08
6.03855e-08 9.76215e-08 4.71905e-05
0.00120618 -5.79066e-05 1.19133e-07
-5.79066e-05 6.33487e-05 1.65489e-08
1.19133e-07 1.65489e-08 -1.31012e-05
0.00077516 3.00584e-05 -1.15802e-07
3.00584e-05 -4.4523e-05 -3.69863e-08
-1.15802e-07 -3.69863e-08 -6.26336e-05
0.000919203 -3.45081e-06 -2.51571e-07
-3.45081e-06 1.136e-05 -3.97042e-08
-2.51571e-07 -3.97042e-08 -3.66939e-05
0.00119474 5.48707e-06 5.48099e-06
5.48707e-06 2.67919e-06 -8.44545e-07
5.48099e-06 -8.44545e-07 -6.62022e-05
0.0014461 -2.25479e-06 4.55194e-06
-2.25479e-06 0.000155968 -1.167e-06
4.55194e-06 -1.167e-06 9.19657e-05
0.00168889 7.18168e-06 2.37429e-06
7.18168e-06 0.000206839 -2.1512e-07
2.37429e-06 -2.1512e-07 0.000130547
0.00115783 -2.92427e-05 3.19137e-06
-2.92427e-05 -4.10487e-05 -8.42588e-07
3.19137e-06 -8.42588e-07 -0.000118498
0.00131252 -4.81294e-05 1.52568e-06
-4.81294e-05 9.72627e-05 -1.01783e-06
1.52568e-06 -1.01783e-06 2.4878e-05
0.00158698 -4.69958e-05 8.76549e-07
-4.69958e-05 0.000163481 -4.31943e-07
8.76549e-07 -4.31943e-07 8.5324e-05
0.000714295 3.26602e-05 4.37143e-06
3.26602e-05 -6.56789e-05 -3.68243e-06
4.37143e-06 -3.68243e-06 -8.65536e-05
0.00125341 -5.43606e-05 1.04312e-06
-5.43606e-05 5.87991e-05 -6.35117e-07
1.04312e-06 -6.35117e-07 -1.59874e-05
0.000851052 -4.19161e-06 2.48447e-06
-4.19161e-06 -1.47442e-07 -1.64748e-06
2.48447e-06 -1.64748e-06 -5.59774e-05
0.000774095 -4.16836e-05 1.78197e-06
-4.16836e-05 -6.84729e-05 -1.68845e-06
1.78197e-06 -1.68845e-06 -0.000139909
0.00152754 -7.02029e-05 1.06194e-06
-7.02029e-05 0.000254886 -9.9847e-07
1.06194e-06 -9.9847e-07 0.000175364
0.0013558 -6.33749e-05 8.13524e-07
-6.33749e-05 0.000118065 2.06141e-07
8.13524e-07 2.06141e-07 4.1788e-05
0.000917656 -6.98097e-06 3.14501e-06
-6.98097e-06 1.68673e-05 -2.21155e-06
3.14501e-06 -2.21155e-06 -3.48152e-05
0.000922373 6.23276e-06 1.72306e-06
6.23276e-06 9.83938e-06 -2.54939e-06
1.72306e-06 -2.54939e-06 -3.31784e-05
0.00100444 -2.76229e-05 1.42033e-06
-2.76229e-05 5.12017e-05 -1.15821e-06
1.42033e-06 -1.15821e-06 -1.6951e-05
0.00069036 2.02018e-05 -6.54067e-06
2.02018e-05 -6.71338e-05 -3.52554e-06
-6.54067e-06 -3.52554e-06 -0.000109099
0.00267029 -4.48959e-05 -2.40911e-05
-4.48959e-05 0.000920167 -3.81602e-06
-2.40911e-05 -3.81602e-06 0.00093172
0.000791003 -2.58304e-05 -4.12226e-06
-2.58304e-05 -4.68335e-05 -3.81527e-06
-4.12226e-06 -3.81527e-06 -6.14555e-05
0.000664458 6.34183e-07 -5.62581e-06
6.34183e-07 -6.30714e-05 -3.29386e-06
-5.62581e-06 -3.29386e-06 -0.000100133
0.000978097 3.68639e-05 -3.01967e-06
3.68639e-05 5.55547e-06 -1.82736e-06
-3.01967e-06 -1.82736e-06 -5.63038e-05
0.000713132 -3.24574e-05 -4.49625e-06
-3.24574e-05 -6.42117e-05 -3.67321e-06
-4.49625e-06 -3.67321e-06 -8.48967e-05
0.000865287 3.70852e-06 -2.35443e-06
3.70852e-06 9.43151e-06 -1.93815e-06
-2.35443e-06 -1.93815e-06 -4.80504e-05
0.000891362 2.55124e-05 -2.64005e-06
2.55124e-05 5.75608e-06 -1.11083e-06
-2.64005e-06 -1.11083e-06 -5.23815e-05
0.000884369 4.37374e-05 -1.61589e-06
4.37374e-05 -1.70577e-05 -4.84255e-07
-1.61589e-06 -4.84255e-07 -8.68717e-05
0.000783959 -3.01926e-05 9.04552e-08
-3.01926e-05 -3.9923e-05 -3.11802e-08
9.04552e-08 -3.11802e-08 -5.7561e-05
0.0008198 -2.33524e-05 1.3769e-07
-2.33524e-05 -3.85809e-05 9.86657e-09
1.3769e-07 9.86657e-09 -5.07767e-05
0.000916036 3.10126e-06 7.81577e-08
3.10126e-06 9.20154e-06 -1.94622e-08
7.81577e-08 -1.94622e-08 -3.82288e-05
0.00105099 3.44471e-05 1.67688e-07
3.44471e-05 1.32295e-05 5.78904e-09
1.67688e-07 5.78904e-09 -5.08509e-05
0.000943748 3.37499e-05 2.31604e-08
3.37499e-05 1.55978e-05 7.09942e-08
2.31604e-08 7.09942e-08 -4.4079e-05
0.00115924 5.17235e-05 1.06073e-07
5.17235e-05 5.022e-05 4.15067e-08
1.06073e-07 4.15067e-08 -2.31925e-05
0.000902114 3.96452e-06 -1.96203e-07
3.96452e-06 1.95428e-05 2.61257e-08
-1.96203e-07 2.61257e-08 -3.41359e-05
0.00103986 5.00882e-05 -3.2525e-08
5.00882e-05 4.47762e-05 -5.51492e-08
-3.2525e-08 -5.51492e-08 -2.32572e-05
0.00102624 4.25397e-05 1.03834e-07
4.25397e-05 7.01473e-05 -1.90178e-07
1.03834e-07 -1.90178e-07 -8.92077e-07
0.00100689 5.56367e-05 -5.34363e-07
5.56367e-05 3.85331e-05 2.10656e-07
-5.34363e-07 2.10656e-07 -3.72778e-05
0.000847971 -2.09994e-05 3.33093e-06
-2.09994e-05 -2.94221e-05 3.75855e-06
3.33093e-06 3.75855e-06 -3.91492e-05
0.000915404 5.20419e-06 2.93315e-06
5.20419e-06 1.41777e-05 1.75729e-06
2.93315e-06 1.75729e-06 -3.59374e-05
0.000912785 3.12342e-07 2.54762e-06
3.12342e-07 3.62179e-06 2.31153e-06
2.54762e-06 2.31153e-06 -4.02518e-05
0.00102261 1.9183e-05 1.48303e-06
1.9183e-05 5.91201e-05 7.10125e-07
1.48303e-06 7.10125e-07 -6.55429e-06
0.00121022 4.4064e-05 2.21784e-06
4.4064e-05 4.16319e-05 1.21865e-06
2.21784e-06 1.21865e-06 -3.32463e-05
0.0011245 5.35862e-05 1.4654e-06
5.35862e-05 6.6077e-05 1.27921e-06
1.4654e-06 1.27921e-06 -4.31211e-06
0.00124233 5.74146e-05 9.11918e-07
5.74146e-05 6.48263e-05 1.41359e-06
9.11918e-07 1.41359e-06 -1.42276e-05
0.00105517 3.41536e-05 1.41632e-06
3.41536e-05 8.44474e-05 8.3806e-07
1.41632e-06 8.3806e-07 1.55259e-05
0.00112618 5.83623e-05 2.66956e-07
5.83623e-05 7.3963e-05 4.59055e-07
2.66956e-07 4.59055e-07 7.04006e-07
0.00106198 5.63187e-05 7.63301e-07
5.63187e-05 8.69997e-05 -2.29986e-07
7.63301e-07 -2.29986e-07 6.57142e-06
0.000939031 5.56246e-05 2.92107e-07
5.56246e-05 -5.71179e-06 -1.55778e-07
2.92107e-07 -1.55778e-07 -8.4797e-05
0.000927357 -5.48069e-06 8.93803e-07
-5.48069e-06 1.36592e-06 1.99542e-06
8.93803e-07 1.99542e-06 -2.92712e-05
0.000858761 -1.60585e-05 2.344e-06
-1.60585e-05 -3.25983e-05 3.5317e-06
2.344e-06 3.5317e-06 -3.75843e-05
0.0024222 -2.86583e-05 1.85867e-05
-2.86583e-05 0.00077114 4.16216e-06
1.85867e-05 4.16216e-06 0.000789055
0.00249271 -3.26703e-05 4.747e-07
-3.26703e-05 0.000811535 -6.56428e-08
4.747e-07 -6.56428e-08 0.000828025
0.00257088 -3.67991e-05 -2.13202e-05
-3.67991e-05 0.000856018 -4.02205e-06
-2.13202e-05 -4.02205e-06 0.000871012
0.000805732 2.31019e-05 3.26488e-06
2.31019e-05 -4.37159e-05 -3.69938e-06
3.26488e-06 -3.69938e-06 -5.51728e-05
0.00262479 4.08973e-05 2.23247e-05
4.08973e-05 0.000890892 -3.85201e-06
2.23247e-05 -3.85201e-06 0.000904087
0.000797425 2.64089e-05 -2.29597e-07
2.64089e-05 -4.11984e-05 -7.13078e-09
-2.29597e-07 -7.13078e-09 -5.62344e-05
0.00267919 4.47602e-05 -2.76166e-07
4.47602e-05 0.000925336 -9.1554e-08
-2.76166e-07 -9.1554e-08 0.000936584
0.000686878 2.16167e-05 -7.06269e-06
2.16167e-05 -8.09939e-05 -3.40778e-06
-7.06269e-06 -3.40778e-06 -0.000122795
0.000713215 1.51392e-05 -7.98615e-06
1.51392e-05 -8.95513e-05 -2.71053e-06
-7.98615e-06 -2.71053e-06 -0.000131009
0.00114343 2.25957e-05 -4.49378e-06
2.25957e-05 1.56646e-05 -1.92077e-06
-4.49378e-06 -1.92077e-06 -5.13407e-05
0.00119325 5.53336e-06 -5.23496e-06
5.53336e-06 6.65783e-06 -1.49436e-06
-5.23496e-06 -1.49436e-06 -6.21515e-05
0.000732852 3.06858e-06 -9.03344e-06
3.06858e-06 -0.000101415 -1.24597e-06
-9.03344e-06 -1.24597e-06 -0.000144903
0.00434473 2.52979e-05 -5.44142e-05
2.52979e-05 0.00182268 3.57974e-07
-5.44142e-05 3.57974e-07 0.00181407
0.000739846 4.88105e-08 -1.31363e-08
4.88105e-08 -9.98086e-05 -2.36239e-07
-1.31363e-08 -2.36239e-07 -0.000143468
0.00121172 2.37729e-06 1.87536e-08
2.37729e-06 1.72315e-06 -2.57919e-07
1.87536e-08 -2.57919e-07 -6.87593e-05
0.00116346 1.14394e-05 2.16855e-08
1.14394e-05 8.16579e-06 -3.69338e-08
2.16855e-08 -3.69338e-08 -5.94061e-05
0.00140536 7.64968e-07 7.49771e-08
7.64968e-07 5.20468e-05 7.75159e-09
7.49771e-08 7.75159e-09 -2.77786e-05
0.00110562 2.99096e-05 1.71702e-07
2.99096e-05 1.63656e-05 -2.73166e-08
1.71702e-07 -2.73166e-08 -4.95258e-05
0.00133813 2.80111e-05 2.15546e-08
2.80111e-05 5.3914e-05 -9.99404e-09
2.15546e-08 -9.99404e-09 -2.25924e-05
0.00120892 5.12298e-07 5.6723e-06
5.12298e-07 -7.18258e-07 -4.05684e-07
5.6723e-06 -4.05684e-07 -7.10835e-05
0.00141353 3.84254e-06 3.14115e-06
3.84254e-06 4.29473e-05 6.05909e-07
3.14115e-06 6.05909e-07 -3.92381e-05
0.00136375 1.43357e-05 2.70029e-06
1.43357e-05 4.71999e-05 9.44048e-07
2.70029e-06 9.44048e-07 -3.04817e-05
0.00151103 -4.25743e-06 1.72392e-06
-4.25743e-06 7.62239e-05 7.10743e-07
1.72392e-06 7.10743e-07 -5.38426e-06
0.00127488 3.67849e-05 1.95712e-06
3.67849e-05 4.63498e-05 8.13763e-07
1.95712e-06 8.13763e-07 -2.93741e-05
0.00141502 2.95762e-05 1.10295e-06
2.95762e-05 5.92724e-05 7.17611e-07
1.10295e-06 7.17611e-07 -1.91338e-05
0.000756491 9.26156e-06 -8.88524e-06
9.26156e-06 -8.30589e-05 1.14954e-06
-8.88524e-06 1.14954e-06 -0.000126136
0.00145229 1.30094e-05 -2.52112e-05
1.30094e-05 0.000285468 1.9211e-06
-2.52112e-05 1.9211e-06 0.000247762
0.000885684 9.43143e-06 -5.93138e-06
9.43143e-06 -0.000137187 1.11457e-06
-5.93138e-06 1.11457e-06 -0.000205834
0.0017362 -2.76364e-05 -6.77943e-06
-2.76364e-05 0.000312198 1.81601e-06
-6.77943e-06 1.81601e-06 0.000248688
0.00265414 4.85572e-05 -2.45433e-05
4.85572e-05 0.000922752 3.594e-06
-2.45433e-05 3.594e-06 0.000931945
0.00160118 3.89013e-05 -1.24093e-05
3.89013e-05 0.000394475 2.99845e-06
-1.24093e-05 2.99845e-06 0.000374402
0.00143806 -1.64797e-05 -3.29695e-06
-1.64797e-05 0.0002905 1.85093e-06
-3.29695e-06 1.85093e-06 0.000235467
0.00132297 -3.58411e-05 -4.91387e-06
-3.58411e-05 0.000150038 2.01278e-06
-4.91387e-06 2.01278e-06 8.75467e-05
0.00111572 -3.99112e-05 -3.20645e-06
-3.99112e-05 -3.93764e-05 1.35826e-06
-3.20645e-06 1.35826e-06 -0.000116495
0.00146368 -5.22196e-05 -1.94184e-06
-5.22196e-05 0.000194705 1.03815e-06
-1.94184e-06 1.03815e-06 0.000124209
0.000855835 -4.5626e-05 -1.77123e-06
-4.5626e-05 -5.16982e-05 1.25231e-06
-1.77123e-06 1.25231e-06 -0.000124885
0.00119329 -5.74649e-05 -1.02315e-06
-5.74649e-05 5.75181e-05 6.34929e-07
-1.02315e-06 6.34929e-07 -1.87988e-05
0.00079846 3.11949e-05 -4.10481e-06
3.11949e-05 -3.15298e-05 3.70058e-06
-4.10481e-06 3.70058e-06 -4.99848e-05
0.000907279 -2.67638e-06 -2.83781e-06
-2.67638e-06 4.78177e-06 2.20293e-06
-2.83781e-06 2.20293e-06 -4.30753e-05
0.00106066 9.16349e-06 -1.36984e-07
9.16349e-06 -6.42683e-05 1.40316e-08
-1.36984e-07 1.40316e-08 -0.000133969
0.00145899 -5.37206e-06 -1.20391e-06
-5.37206e-06 0.00016223 1.37864e-07
-1.20391e-06 1.37864e-07 9.82207e-05
0.00157967 9.09349e-06 -9.71348e-07
9.09349e-06 0.000151698 1.7936e-07
-9.71348e-07 1.7936e-07 7.4983e-05
0.00140949 -3.18124e-05 4.47119e-07
-3.18124e-05 8.58752e-05 -3.18336e-07
4.47119e-07 -3.18336e-07 9.44138e-06
0.000756132 3.38701e-05 8.87243e-10
3.38701e-05 -4.3981e-05 -1.30057e-08
8.87243e-10 -1.30057e-08 -6.51413e-05
0.000887276 -7.31134e-06 1.88903e-07
-7.31134e-06 1.60681e-05 -5.36661e-08
1.88903e-07 -5.36661e-08 -3.95759e-05
0.000869491 -4.39751e-05 4.91627e-07
-4.39751e-05 -1.99721e-05 -3.14752e-07
4.91627e-07 -3.14752e-07 -9.07811e-05
0.00142738 -4.95801e-05 -4.66827e-07
-4.95801e-05 0.000152927 1.10121e-07
-4.66827e-07 1.10121e-07 8.05179e-05
0.00142378 -4.36863e-05 -2.59671e-07
-4.36863e-05 8.16482e-05 4.29463e-07
-2.59671e-07 4.29463e-07 3.58795e-06
0.00128337 -6.42432e-05 -5.71293e-07
-6.42432e-05 0.00013483 1.40155e-07
-5.71293e-07 1.40155e-07 5.45736e-05
0.00125622 -5.4243e-05 8.10031e-08
-5.4243e-05 6.00333e-05 1.55511e-07
8.10031e-08 1.55511e-07 -1.47022e-05
0.00124903 -6.08719e-05 3.55954e-07
-6.08719e-05 6.55989e-05 3.63836e-07
3.55954e-07 3.63836e-07 -1.0694e-05
0.000916717 -6.58882e-06 6.96871e-09
-6.58882e-06 1.50206e-05 -7.52532e-08
6.96871e-09 -7.52532e-08 -3.63402e-05
0.000967957 -2.63099e-05 -9.48483e-08
-2.63099e-05 3.16139e-05 -1.87072e-07
-9.48483e-08 -1.87072e-07 -3.65445e-05
0.000913243 4.91478e-06 -1.97749e-07
4.91478e-06 5.4533e-06 6.86594e-08
-1.97749e-07 6.86594e-08 -3.7655e-05
0.00169397 1.45621e-05 2.5347e-06
1.45621e-05 0.000197043 -2.3978e-07
2.5347e-06 -2.3978e-07 0.000118564
0.00150153 -8.72433e-06 2.97611e-06
-8.72433e-06 0.0001199 -3.13787e-07
2.97611e-06 -3.13787e-07 4.39263e-05
0.0016276 1.17595e-05 2.27599e-06
1.17595e-05 0.000145734 1.35419e-07
2.27599e-06 1.35419e-07 6.39836e-05
0.0014322 -2.63257e-05 1.69135e-06
-2.63257e-05 6.11242e-05 -8.19821e-07
1.69135e-06 -8.19821e-07 -1.82185e-05
0.00113461 -4.90506e-05 1.11931e-06
-4.90506e-05 -2.41285e-05 -1.0962e-06
1.11931e-06 -1.0962e-06 -9.94546e-05
0.00155583 -4.31503e-05 -3.86542e-08
-4.31503e-05 0.000126187 -7.68946e-08
-3.86542e-08 -7.68946e-08 5.17765e-05
0.000882297 -4.02484e-06 2.88507e-06
-4.02484e-06 8.18444e-06 -1.82371e-06
2.88507e-06 -1.82371e-06 -4.56403e-05
0.00126934 -5.65086e-05 3.39668e-07
-5.65086e-05 4.84217e-05 -5.04704e-07
3.39668e-07 -5.04704e-07 -2.49812e-05
0.000993819 -4.24743e-05 1.25478e-06
-4.24743e-05 4.98758e-05 -6.18883e-07
1.25478e-06 -6.18883e-07 -1.83467e-05
0.00085262 -5.43415e-05 1.59601e-06
-5.43415e-05 -4.10657e-05 -2.0823e-06
1.59601e-06 -2.0823e-06 -0.000121446
0.0013833 -7.00952e-05 1.81111e-06
-7.00952e-05 0.000167162 -3.49176e-07
1.81111e-06 -3.49176e-07 8.26434e-05
0.00160151 -6.96653e-05 -1.72148e-07
-6.96653e-05 0.000228966 1.07567e-06
-1.72148e-07 1.07567e-06 0.000156204
0.000919826 1.22971e-05 1.20944e-06
1.22971e-05 5.95658e-06 -2.27587e-06
1.20944e-06 -2.27587e-06 -3.19813e-05
0.00100984 -3.51133e-05 1.70691e-06
-3.51133e-05 5.37973e-05 -6.30104e-07
1.70691e-06 -6.30104e-07 -1.3793e-05
0.000843289 -1.7893e-05 1.55832e-06
-1.7893e-05 -2.95768e-05 -2.04853e-06
1.55832e-06 -2.04853e-06 -9.72879e-05
0.00118364 -5.63546e-05 4.69757e-07
-5.63546e-05 0.000144364 2.21332e-07
4.69757e-07 2.21332e-07 6.74359e-05
0.00105561 3.53377e-05 -3.60405e-06
3.53377e-05 1.56292e-05 -1.92995e-06
-3.60405e-06 -1.92995e-06 -4.84091e-05
0.000808231 -2.28123e-05 -3.61281e-06
-2.28123e-05 -4.49369e-05 -3.80163e-06
-3.61281e-06 -3.80163e-06 -5.68978e-05
0.000760272 -2.91189e-05 -4.49668e-06
-2.91189e-05 -5.28458e-05 -3.74341e-06
-4.49668e-06 -3.74341e-06 -7.01825e-05
0.000922041 -1.82503e-06 -2.53535e-06
-1.82503e-06 1.25154e-05 -2.27427e-06
-2.53535e-06 -2.27427e-06 -3.47927e-05
0.000913855 3.29157e-05 -2.52439e-06
3.29157e-05 8.91209e-07 -1.45053e-06
-2.52439e-06 -1.45053e-06 -5.86249e-05
0.00113957 5.15492e-05 -1.73882e-06
5.15492e-05 4.10648e-05 -1.29082e-06
-1.73882e-06 -1.29082e-06 -3.23729e-05
0.00088397 1.92137e-06 -2.80018e-06
1.92137e-06 1.26416e-05 -1.82722e-06
-2.80018e-06 -1.82722e-06 -4.12753e-05
0.00101199 4.22833e-05 -1.40788e-06
4.22833e-05 6.33565e-05 -9.22525e-07
-1.40788e-06 -9.22525e-07 -7.74615e-06
0.00112771 5.24721e-05 -1.26028e-06
5.24721e-05 8.88557e-05 -6.14614e-07
-1.26028e-06 -6.14614e-07 2.11235e-05
0.000919994 5.37329e-05 -1.54803e-06
5.37329e-05 -5.04925e-06 4.68543e-08
-1.54803e-06 4.68543e-08 -8.12417e-05
0.000833147 -2.05897e-05 1.47117e-07
-2.05897e-05 -3.70327e-05 2.5902e-08
1.47117e-07 2.5902e-08 -4.6574e-05
0.000915816 3.18484e-06 -2.0284e-09
3.18484e-06 1.57051e-05 -4.02416e-08
-2.0284e-09 -4.02416e-08 -3.45867e-05
0.00091512 -3.80499e-06 6.63106e-08
-3.80499e-06 4.50591e-06 2.82321e-08
6.63106e-08 2.82321e-08 -3.91733e-05
0.00100614 1.83665e-05 1.33085e-07
1.83665e-05 5.13813e-05 -1.42587e-07
1.33085e-07 -1.42587e-07 -1.44034e-05
0.00122598 4.47072e-05 4.11061e-07
4.47072e-05 4.92613e-05 2.49304e-07
4.11061e-07 2.49304e-07 -2.57118e-05
0.00109307 5.32077e-05 4.84376e-08
5.32077e-05 5.15564e-05 1.6565e-08
4.84376e-08 1.6565e-08 -1.88002e-05
0.00123139 5.72208e-05 -3.04631e-09
5.72208e-05 5.98292e-05 2.1397e-07
-3.04631e-09 2.1397e-07 -1.92196e-05
0.00102455 3.63472e-05 -6.20937e-08
3.63472e-05 7.03752e-05 6.94815e-08
-6.20937e-08 6.94815e-08 1.44481e-06
0.00123432 6.09852e-05 -3.14953e-07
6.09852e-05 0.000128084 -4.06547e-07
-3.14953e-07 -4.06547e-07 5.51694e-05
0.0010791 5.7114e-05 1.88879e-07
5.7114e-05 9.51181e-05 -3.76175e-07
1.88879e-07 -3.76175e-07 1.44171e-05
0.000981731 5.65937e-05 -1.21117e-06
5.65937e-05 1.7844e-05 3.06631e-08
-1.21117e-06 3.06631e-08 -6.00225e-05
0.000861046 -1.8477e-05 2.80759e-06
-1.8477e-05 -2.73681e-05 3.64972e-06
2.80759e-06 3.64972e-06 -3.45074e-05
0.000911498 -5.36969e-06 1.92503e-06
-5.36969e-06 4.87774e-07 2.37874e-06
1.92503e-06 2.37874e-06 -3.94496e-05
0.00104117 2.73893e-05 1.55848e-06
2.73893e-05 7.03079e-05 5.38645e-07
1.55848e-06 5.38645e-07 3.75226e-06
0.00101136 1.40679e-05 1.19943e-06
1.40679e-05 5.25526e-05 1.14496e-06
1.19943e-06 1.14496e-06 -1.1341e-05
0.00100611 4.46313e-05 9.24712e-07
4.46313e-05 5.48919e-05 -1.71892e-08
9.24712e-07 -1.71892e-08 -2.11413e-05
0.00127251 4.61081e-05 1.43339e-06
4.61081e-05 4.27815e-05 1.08527e-06
1.43339e-06 1.08527e-06 -3.65314e-05
0.0011635 5.99373e-05 6.06941e-07
5.99373e-05 6.70898e-05 1.27121e-06
6.06941e-07 1.27121e-06 -8.90851e-06
0.0012884 6.12543e-05 1.24878e-07
6.12543e-05 7.74996e-05 1.42405e-06
1.24878e-07 1.42405e-06 -4.21561e-06
0.0010855 5.38781e-05 1.46756e-06
5.38781e-05 0.00010268 1.35659e-06
1.46756e-06 1.35659e-06 2.31917e-05
0.0011658 6.2302e-05 1.20657e-06
6.2302e-05 8.53743e-05 5.60226e-07
1.20657e-06 5.60226e-07 8.25315e-06
0.000766078 5.22802e-05 1.09961e-06
5.22802e-05 -7.07424e-05 -4.48596e-07
1.09961e-06 -4.48596e-07 -0.000159367
0.000921715 -7.13816e-06 1.10493e-06
-7.13816e-06 5.04916e-07 2.20023e-06
1.10493e-06 2.20023e-06 -3.25623e-05
0.000995357 1.17479e-05 3.85835e-07
1.17479e-05 4.31721e-05 1.17473e-06
3.85835e-07 1.17473e-06 -6.44993e-06
0.000931508 -1.69413e-06 7.72683e-07
-1.69413e-06 2.49313e-06 1.8692e-06
7.72683e-07 1.8692e-06 -2.63428e-05
0.000932656 -3.23864e-06 1.22781e-07
-3.23864e-06 4.33737e-06 1.722e-08
1.22781e-07 1.722e-08 -2.63338e-05
0.00146371 -1.73759e-05 2.2878e-06
-1.73759e-05 0.000271968 2.10138e-06
2.2878e-06 2.10138e-06 0.000271943
0.00116478 -1.77533e-05 6.65786e-07
-1.77533e-05 0.000123394 3.04253e-09
6.65786e-07 3.04253e-09 0.000120095
0.00114159 -1.753e-05 1.55904e-05
-1.753e-05 0.00011329 6.79505e-06
1.55904e-05 6.79505e-06 0.000126501
0.00242197 -2.88196e-05 5.76414e-07
-2.88196e-05 0.000770476 -5.53228e-08
5.76414e-07 -5.53228e-08 0.000788561
0.00249656 -3.28361e-05 -1.93904e-05
-3.28361e-05 0.000812874 -4.03556e-06
-1.93904e-05 -4.03556e-06 0.000829533
0.000820819 2.13366e-05 2.69464e-06
2.13366e-05 -4.0856e-05 -3.49856e-06
2.69464e-06 -3.49856e-06 -4.93399e-05
0.00252054 3.69246e-05 2.03015e-05
3.69246e-05 0.000832716 -3.85143e-06
2.03015e-05 -3.85143e-06 0.000847784
0.000818616 2.36226e-05 -1.63338e-07
2.36226e-05 -3.68336e-05 3.81848e-08
-1.63338e-07 3.81848e-08 -4.85566e-05
0.00261904 4.06621e-05 -3.5576e-07
4.06621e-05 0.000888595 -8.33602e-08
-3.5576e-07 -8.33602e-08 0.000901609
0.000812958 2.74596e-05 -3.9219e-06
2.74596e-05 -3.24124e-05 3.84168e-06
-3.9219e-06 3.84168e-06 -4.77893e-05
0.00265238 4.46723e-05 -2.41223e-05
4.46723e-05 0.000912933 3.77213e-06
-2.41223e-05 3.77213e-06 0.000924021
0.00111801 3.09532e-05 -4.08947e-06
3.09532e-05 2.30721e-05 -2.00646e-06
-4.08947e-06 -2.00646e-06 -4.28434e-05
0.00116857 1.35257e-05 -4.817e-06
1.35257e-05 1.10451e-05 -1.63369e-06
-4.817e-06 -1.63369e-06 -5.6537e-05
0.00134567 2.59067e-05 -2.29373e-06
2.59067e-05 5.7686e-05 -9.10414e-07
-2.29373e-06 -9.10414e-07 -1.88152e-05
0.00143528 2.38509e-07 -3.02461e-06
2.38509e-07 6.64957e-05 -1.00206e-06
-3.02461e-06 -1.00206e-06 -1.33234e-05
0.00121702 4.81031e-06 -5.6737e-06
4.81031e-06 4.28845e-06 -1.1804e-06
-5.6737e-06 -1.1804e-06 -6.61548e-05
0.000755098 4.30999e-07 -9.21864e-06
4.30999e-07 -9.24693e-05 -1.00065e-08
-9.21864e-06 -1.00065e-08 -0.000136176
0.00121296 2.4348e-06 -3.13089e-08
2.4348e-06 9.54897e-07 -2.81766e-07
-3.13089e-08 -2.81766e-07 -6.94728e-05
0.00143106 5.13254e-06 -4.66175e-09
5.13254e-06 5.1513e-05 -1.77635e-07
-4.66175e-09 -1.77635e-07 -3.06491e-05
0.00137445 1.06821e-05 1.00515e-07
1.06821e-05 5.26544e-05 -6.58327e-09
1.00515e-07 -6.58327e-09 -2.49706e-05
0.00151031 -5.04338e-06 -5.34412e-09
-5.04338e-06 7.43184e-05 7.65884e-08
-5.34412e-09 7.65884e-08 -7.39841e-06
0.00128462 3.69762e-05 -3.69521e-08
3.69762e-05 5.09991e-05 -3.43998e-08
-3.69521e-08 -3.43998e-08 -2.479e-05
0.00142762 2.90259e-05 -1.47796e-08
2.90259e-05 6.56661e-05 1.24486e-07
-1.47796e-08 1.24486e-07 -1.27684e-05
0.00142867 6.82876e-06 3.51518e-06
6.82876e-06 4.99211e-05 -4.57868e-07
3.51518e-06 -4.57868e-07 -3.2415e-05
0.00145916 2.87167e-08 1.80947e-06
2.87167e-08 4.16011e-05 8.94697e-07
1.80947e-06 8.94697e-07 -4.28763e-05
0.00144212 1.35892e-05 1.53019e-06
1.35892e-05 5.26176e-05 6.19079e-07
1.53019e-06 6.19079e-07 -2.70836e-05
0.00164685 -1.13271e-05 2.04276e-06
-1.13271e-05 0.000123763 6.06768e-07
2.04276e-06 6.06768e-07 4.4027e-05
0.00135778 3.60449e-05 7.7553e-07
3.60449e-05 5.62616e-05 3.69463e-07
7.7553e-07 3.69463e-07 -2.2155e-05
0.00148168 2.03373e-05 -1.14901e-06
2.03373e-05 7.05112e-05 9.59759e-07
-1.14901e-06 9.59759e-07 -1.60643e-06
0.000929652 1.06792e-05 -5.51058e-06
1.06792e-05 -0.000129584 8.08139e-07
-5.51058e-06 8.08139e-07 -0.000200127
0.00146684 -1.04614e-05 -7.01481e-06
-1.04614e-05 0.000165697 1.39816e-06
-7.01481e-06 1.39816e-06 0.000101779
0.00147292 1.46505e-05 -4.31231e-06
1.46505e-05 9.79875e-05 5.53893e-07
-4.31231e-06 5.53893e-07 2.07997e-05
0.00166094 -3.44411e-05 -2.63102e-06
-3.44411e-05 0.000212708 3.31583e-07
-2.63102e-06 3.31583e-07 0.000137287
0.000797852 3.50138e-05 -3.97297e-06
3.50138e-05 -2.23786e-05 3.52073e-06
-3.97297e-06 3.52073e-06 -4.38131e-05
0.000923268 -1.01422e-05 -2.62781e-06
-1.01422e-05 3.21897e-05 1.70057e-06
-2.62781e-06 1.70057e-06 -2.32716e-05
0.000981313 -4.67747e-05 -9.663e-07
-4.67747e-05 3.64465e-05 9.50402e-07
-9.663e-07 9.50402e-07 -3.37527e-05
0.00154717 -5.10704e-05 -2.48116e-06
-5.10704e-05 0.000211006 1.21334e-06
-2.48116e-06 1.21334e-06 0.00013857
0.00126035 -4.03924e-05 -1.58785e-06
-4.03924e-05 -3.10221e-07 1.19743e-06
-1.58785e-06 1.19743e-06 -7.82742e-05
0.00125774 -5.41047e-05 -9.29027e-07
-5.41047e-05 6.06508e-05 9.63121e-07
-9.29027e-07 9.63121e-07 -1.40343e-05
0.00104068 -5.83469e-05 -1.73139e-06
-5.83469e-05 1.54674e-05 1.32542e-06
-1.73139e-06 1.32542e-06 -6.55232e-05
0.00113378 -5.81843e-05 -2.34527e-07
-5.81843e-05 9.02476e-06 1.99445e-07
-2.34527e-07 1.99445e-07 -6.72778e-05
0.00091572 -7.00237e-06 -2.97512e-06
-7.00237e-06 1.32498e-05 1.88582e-06
-2.97512e-06 1.88582e-06 -3.7841e-05
0.000931131 -2.5038e-05 -1.73568e-06
-2.5038e-05 1.17942e-05 8.06344e-07
-1.73568e-06 8.06344e-07 -5.636e-05
0.000904343 3.84958e-06 -2.17487e-06
3.84958e-06 1.17025e-06 2.44067e-06
-2.17487e-06 2.44067e-06 -4.20271e-05
0.00155226 1.49113e-05 -9.97067e-07
1.49113e-05 0.000125235 3.3332e-07
-9.97067e-07 3.3332e-07 4.56805e-05
0.00149455 -1.41224e-05 -4.1282e-07
-1.41224e-05 0.000115503 2.4629e-08
-4.1282e-07 2.4629e-08 3.96985e-05
0.00150787 1.40674e-05 -4.49446e-07
1.40674e-05 8.54327e-05 1.68802e-07
-4.49446e-07 1.68802e-07 3.09376e-06
0.00153004 -2.51695e-05 1.67547e-08
-2.51695e-05 0.000109239 -3.30779e-07
1.67547e-08 -3.30779e-07 3.01306e-05
0.000902223 -5.52612e-06 1.16903e-07
-5.52612e-06 1.61785e-05 -8.07622e-08
1.16903e-07 -8.07622e-08 -3.73509e-05
0.00103252 -4.37401e-05 3.15702e-08
-4.37401e-05 6.77149e-05 9.91188e-08
3.15702e-08 9.91188e-08 -5.33299e-07
0.00094835 -5.63707e-05 3.15044e-07
-5.63707e-05 8.58804e-06 -4.26378e-07
3.15044e-07 -4.26378e-07 -7.11406e-05
0.00132106 -5.1912e-05 -3.90101e-08
-5.1912e-05 6.87782e-05 -2.28802e-07
-3.90101e-08 -2.28802e-07 -6.49495e-06
0.00143986 -4.16798e-05 3.38104e-07
-4.16798e-05 6.8089e-05 7.88268e-07
3.38104e-07 7.88268e-07 -5.31865e-06
0.0012119 -6.6292e-05 5.68594e-08
-6.6292e-05 8.45039e-05 1.17545e-07
5.68594e-08 1.17545e-07 -1.1013e-06
0.00128024 -5.60555e-05 3.69701e-08
-5.60555e-05 5.34964e-05 2.63452e-07
3.69701e-08 2.63452e-07 -1.97762e-05
0.00144266 -6.59851e-05 6.00736e-07
-6.59851e-05 0.000150392 4.18915e-07
6.00736e-07 4.18915e-07 7.85297e-05
0.0010287 -3.51357e-05 5.93629e-08
-3.51357e-05 6.24336e-05 -9.47724e-08
5.93629e-08 -9.47724e-08 -4.97373e-06
0.0011058 -5.41501e-05 -3.40684e-07
-5.41501e-05 0.000104258 2.27813e-07
-3.40684e-07 2.27813e-07 2.69696e-05
0.000908905 1.09845e-05 -1.30522e-07
1.09845e-05 9.74399e-07 8.78828e-08
-1.30522e-07 8.78828e-08 -3.70948e-05
0.000874872 -1.53075e-05 2.41647e-07
-1.53075e-05 -1.46015e-05 -5.34218e-07
2.41647e-07 -5.34218e-07 -8.15696e-05
0.00152459 1.49446e-05 2.74163e-06
1.49446e-05 8.59766e-05 -1.43852e-07
2.74163e-06 -1.43852e-07 1.41016e-06
0.00162026 -6.72267e-06 2.17923e-06
-6.72267e-06 0.000141088 7.52574e-08
2.17923e-06 7.52574e-08 6.07281e-05
0.00155419 1.66168e-05 2.00344e-06
1.66168e-05 9.30592e-05 3.19357e-07
2.00344e-06 3.19357e-07 8.65439e-06
0.00143411 -2.02331e-05 7.3789e-07
-2.02331e-05 4.0518e-05 -1.48037e-06
7.3789e-07 -1.48037e-06 -3.6732e-05
0.00124517 -5.08783e-05 -7.64626e-08
-5.08783e-05 9.52155e-06 -5.57314e-07
-7.64626e-08 -5.57314e-07 -6.24267e-05
0.00162339 -4.09149e-05 1.60437e-06
-4.09149e-05 0.000136924 -5.83955e-07
1.60437e-06 -5.83955e-07 6.91932e-05
0.00100168 -3.90646e-05 1.42457e-06
-3.90646e-05 5.33232e-05 -4.29459e-07
1.42457e-06 -4.29459e-07 -1.3972e-05
0.00126947 -5.62987e-05 -7.81721e-07
-5.62987e-05 3.64391e-05 -1.489e-08
-7.81721e-07 -1.489e-08 -2.95916e-05
0.000835699 -5.13614e-05 7.21307e-07
-5.13614e-05 -3.2483e-05 -1.24114e-06
7.21307e-07 -1.24114e-06 -0.000109056
0.00111651 -6.46226e-05 1.83635e-06
-6.46226e-05 8.1366e-05 -1.9953e-06
1.83635e-06 -1.9953e-06 -7.13774e-06
0.00126843 -7.08951e-05 2.16795e-06
-7.08951e-05 9.97513e-05 1.0329e-06
2.16795e-06 1.0329e-06 1.12721e-05
0.00166939 -7.1292e-05 9.40235e-07
-7.1292e-05 0.000249884 2.71581e-07
9.40235e-07 2.71581e-07 0.000178937
0.000913641 1.2982e-05 1.05371e-06
1.2982e-05 1.07711e-06 -2.07984e-06
1.05371e-06 -2.07984e-06 -3.33446e-05
0.000807028 -8.02003e-06 1.01458e-06
-8.02003e-06 -4.92298e-05 -2.13184e-06
1.01458e-06 -2.13184e-06 -0.00011182
0.00103853 -5.28782e-05 8.20566e-07
-5.28782e-05 6.79999e-05 2.36451e-07
8.20566e-07 2.36451e-07 -6.77831e-06
0.00104304 -5.16666e-05 1.08153e-06
-5.16666e-05 7.92401e-05 -4.40922e-07
1.08153e-06 -4.40922e-07 -4.71725e-07
0.00118299 -5.85969e-05 4.85732e-07
-5.85969e-05 0.000139953 7.15229e-07
4.85732e-07 7.15229e-07 6.04295e-05
0.000818698 -2.02033e-05 -3.05417e-06
-2.02033e-05 -4.44663e-05 -3.73535e-06
-3.05417e-06 -3.73535e-06 -5.38222e-05
0.00123904 4.5311e-05 -1.49423e-06
4.5311e-05 5.56163e-05 -7.61909e-07
-1.49423e-06 -7.61909e-07 -1.94582e-05
0.000912801 -6.81304e-06 -2.02899e-06
-6.81304e-06 3.19325e-06 -2.42573e-06
-2.02899e-06 -2.42573e-06 -4.03866e-05
0.000914715 5.11122e-06 -3.0192e-06
5.11122e-06 1.68589e-05 -1.98856e-06
-3.0192e-06 -1.98856e-06 -3.37953e-05
0.000984528 1.75791e-05 -1.25694e-06
1.75791e-05 4.10171e-05 -9.50737e-07
-1.25694e-06 -9.50737e-07 -2.48607e-05
0.00106378 5.28852e-05 -1.45542e-06
5.28852e-05 3.80367e-05 -1.28677e-06
-1.45542e-06 -1.28677e-06 -3.2284e-05
0.00121969 5.69957e-05 -8.2624e-07
5.69957e-05 5.44833e-05 -9.64551e-07
-8.2624e-07 -9.64551e-07 -2.45621e-05
0.000996728 3.62838e-05 -1.3492e-06
3.62838e-05 5.77079e-05 -5.60961e-07
-1.3492e-06 -5.60961e-07 -1.12347e-05
0.00110057 5.80096e-05 -1.17382e-06
5.80096e-05 0.000105355 -9.30544e-07
-1.17382e-06 -9.30544e-07 2.43779e-05
0.00134004 6.35567e-05 -1.24094e-06
6.35567e-05 0.000180971 -1.00797e-06
-1.24094e-06 -1.00797e-06 0.000108408
0.00102832 5.76358e-05 -2.47759e-06
5.76358e-05 4.31416e-05 6.12073e-07
-2.47759e-06 6.12073e-07 -3.3489e-05
0.000845334 -1.81901e-05 1.29138e-07
-1.81901e-05 -3.53046e-05 3.91109e-08
1.29138e-07 3.91109e-08 -4.22937e-05
0.00091387 -6.46729e-06 5.41245e-08
-6.46729e-06 1.35861e-06 3.96165e-08
5.41245e-08 3.96165e-08 -3.84617e-05
0.00101911 2.66191e-05 1.70389e-08
2.66191e-05 6.01833e-05 -4.49423e-08
1.70389e-08 -4.49423e-08 -6.44116e-06
0.000997671 1.39622e-05 6.99805e-08
1.39622e-05 4.62974e-05 -6.64392e-08
6.99805e-08 -6.64392e-08 -1.77347e-05
0.000983153 4.35325e-05 7.99049e-08
4.35325e-05 4.33547e-05 -1.84352e-07
7.99049e-08 -1.84352e-07 -3.27066e-05
0.00130106 4.70284e-05 5.35815e-07
4.70284e-05 5.61879e-05 4.39776e-07
5.35815e-07 4.39776e-07 -2.32072e-05
0.00115441 6.00196e-05 1.22359e-07
6.00196e-05 6.30478e-05 -6.77667e-08
1.22359e-07 -6.77667e-08 -1.2979e-05
0.0012495 6.14268e-05 6.37757e-07
6.14268e-05 5.81429e-05 3.88443e-07
6.37757e-07 3.88443e-07 -2.39097e-05
0.00106002 5.37418e-05 4.79496e-07
5.37418e-05 9.10091e-05 4.73941e-07
4.79496e-07 4.73941e-07 1.15518e-05
0.00123225 6.34952e-05 8.67373e-08
6.34952e-05 0.000118715 -3.59869e-07
8.67373e-08 -3.59869e-07 4.19329e-05
0.000962147 5.74592e-05 -8.37288e-07
5.74592e-05 2.42892e-05 -4.6592e-07
-8.37288e-07 -4.6592e-07 -6.36493e-05
0.00091451 -6.6876e-06 1.50267e-06
-6.6876e-06 -3.53584e-07 2.34913e-06
1.50267e-06 2.34913e-06 -3.66061e-05
0.000994381 1.29297e-05 1.01937e-06
1.29297e-05 4.2824e-05 1.32464e-06
1.01937e-06 1.32464e-06 -1.80098e-05
0.00104437 4.99144e-05 6.29812e-07
4.99144e-05 7.41135e-05 2.46312e-09
6.29812e-07 2.46312e-09 -2.49722e-06
0.00104901 4.05521e-05 7.1265e-07
4.05521e-05 7.6938e-05 3.42609e-07
7.1265e-07 3.42609e-07 1.67624e-06
0.00106358 5.24227e-05 -1.61809e-08
5.24227e-05 8.56145e-05 -5.42231e-07
-1.61809e-08 -5.42231e-07 4.9925e-06
0.00128051 4.61107e-05 -9.43402e-07
4.61107e-05 3.18395e-05 6.74715e-08
-9.43402e-07 6.74715e-08 -4.79489e-05
0.00118256 6.51933e-05 1.0688e-06
6.51933e-05 6.66395e-05 1.16088e-06
1.0688e-06 1.16088e-06 -1.29042e-05
0.00106469 6.4018e-05 -1.89857e-07
6.4018e-05 -3.06475e-05 3.78521e-07
-1.89857e-07 3.78521e-07 -0.000111997
0.00104076 5.83487e-05 6.89715e-07
5.83487e-05 8.18112e-05 1.733e-06
6.89715e-07 1.733e-06 -6.88211e-06
0.00118295 6.63675e-05 2.3057e-06
6.63675e-05 0.000104098 1.65326e-07
2.3057e-06 1.65326e-07 1.30282e-05
0.000925256 -6.37419e-06 1.0861e-07
-6.37419e-06 2.27373e-06 2.87468e-08
1.0861e-07 2.87468e-08 -3.07365e-05
0.000826621 4.26185e-06 7.41588e-07
4.26185e-06 -4.39148e-05 1.91797e-06
7.41588e-07 1.91797e-06 -9.82133e-05
0.000909596 5.90674e-06 -2.68289e-07
5.90674e-06 -6.55048e-07 5.25103e-08
-2.68289e-07 5.25103e-08 -5.10176e-05
0.00119076 1.9715e-05 2.853e-07
1.9715e-05 0.000148644 2.66262e-07
2.853e-07 2.66262e-07 8.64122e-05
0.000965649 7.96774e-06 6.57642e-07
7.96774e-06 3.02595e-05 1.10064e-06
6.57642e-07 1.10064e-06 -1.79685e-05
0.000943609 2.37079e-06 6.5387e-07
2.37079e-06 7.75897e-06 1.82309e-06
6.5387e-07 1.82309e-06 -1.97682e-05
0.000940095 -2.12476e-06 1.17152e-07
-2.12476e-06 7.12314e-06 1.5616e-08
1.17152e-07 1.5616e-08 -2.17854e-05
0.00145294 -1.4425e-05 1.78334e-06
-1.4425e-05 0.000262781 2.03308e-06
1.78334e-06 2.03308e-06 0.000264382
0.000939428 -1.58146e-06 -1.02803e-06
-1.58146e-06 8.04683e-06 -1.93883e-06
-1.02803e-06 -1.93883e-06 -2.26638e-05
0.00148212 -1.63949e-05 -2.65741e-06
-1.63949e-05 0.000281119 -1.25936e-06
-2.65741e-06 -1.25936e-06 0.000281253
0.00113959 -1.51702e-05 1.33002e-05
-1.51702e-05 0.000107212 6.59989e-06
1.33002e-05 6.59989e-06 0.000122009
0.00147702 -1.81595e-05 -7.24949e-06
-1.81595e-05 0.000282541 -3.35606e-06
-7.24949e-06 -3.35606e-06 0.000281011
0.0017301 -2.14335e-05 1.13179e-05
-2.14335e-05 0.00041338 2.36825e-06
1.13179e-05 2.36825e-06 0.000429802
0.00242337 -2.89714e-05 -1.72647e-05
-2.89714e-05 0.000770646 -4.02446e-06
-1.72647e-05 -4.02446e-06 0.000788893
0.00083165 1.97122e-05 2.25534e-06
1.97122e-05 -3.99469e-05 -3.32945e-06
2.25534e-06 -3.32945e-06 -4.59712e-05
0.000835432 2.15632e-05 -1.66222e-07
2.15632e-05 -3.35823e-05 3.93026e-08
-1.66222e-07 3.93026e-08 -4.22301e-05
0.00242528 3.31713e-05 1.80506e-05
3.31713e-05 0.00077887 -3.82908e-06
1.80506e-05 -3.82908e-06 0.000795741
0.00252596 3.67236e-05 -4.10128e-07
3.67236e-05 0.000835933 -6.9092e-08
-4.10128e-07 -6.9092e-08 0.00085079
0.000832482 2.42558e-05 -3.47742e-06
2.42558e-05 -2.9472e-05 3.80785e-06
-3.47742e-06 3.80785e-06 -4.14665e-05
0.00261172 4.05484e-05 -2.32719e-05
4.05484e-05 0.000885584 3.94416e-06
-2.32719e-05 3.94416e-06 0.000898401
0.00129671 3.73184e-05 -2.06289e-06
3.73184e-05 5.67999e-05 -9.16955e-07
-2.06289e-06 -9.16955e-07 -1.9062e-05
0.00138792 1.07111e-05 -2.62321e-06
1.07111e-05 5.93317e-05 -9.57168e-07
-2.62321e-06 -9.57168e-07 -1.82925e-05
0.00144091 2.9534e-05 -1.08741e-06
2.9534e-05 7.23442e-05 -4.95162e-07
-1.08741e-06 -4.95162e-07 -6.12908e-06
0.00150506 -5.92857e-06 -1.80178e-06
-5.92857e-06 7.02075e-05 -6.77694e-07
-1.80178e-06 -6.77694e-07 -1.16179e-05
0.00145321 8.38664e-06 -3.18872e-06
8.38664e-06 6.23264e-05 -9.36987e-07
-3.18872e-06 -9.36987e-07 -1.98411e-05
0.00121861 7.01186e-06 -5.65477e-06
7.01186e-06 3.32631e-06 -1.03706e-07
-5.65477e-06 -1.03706e-07 -6.71078e-05
0.00143951 1.12794e-05 4.40397e-08
1.12794e-05 5.52338e-05 -3.65816e-07
4.40397e-08 -3.65816e-07 -2.71398e-05
0.00148119 -7.63014e-06 6.53184e-08
-7.63014e-06 5.15237e-05 1.04319e-07
6.53184e-08 1.04319e-07 -3.33849e-05
0.00146656 1.24551e-05 6.56048e-08
1.24551e-05 6.47527e-05 -8.48745e-08
6.56048e-08 -8.48745e-08 -1.49035e-05
0.00163562 -1.2386e-05 1.20935e-07
-1.2386e-05 0.000117242 -1.80843e-07
1.20935e-07 -1.80843e-07 3.75758e-05
0.00136836 3.69925e-05 -3.53846e-08
3.69925e-05 6.12258e-05 -2.50215e-08
-3.53846e-08 -2.50215e-08 -1.73707e-05
0.00148349 2.04746e-05 -1.35999e-07
2.04746e-05 6.98272e-05 9.12143e-07
-1.35999e-07 9.12143e-07 -1.82017e-06
0.00150891 8.53892e-07 2.58286e-06
8.53892e-07 6.67745e-05 -2.33306e-07
2.58286e-06 -2.33306e-07 -1.92894e-05
0.00151705 -1.04331e-06 1.86084e-06
-1.04331e-06 6.18638e-05 5.70988e-07
1.86084e-06 5.70988e-07 -2.31105e-05
0.00133529 4.5728e-06 7.68942e-07
4.5728e-06 -2.59688e-05 1.85334e-06
7.68942e-07 1.85334e-06 -0.000100916
0.0018463 -1.8866e-05 1.94948e-06
-1.8866e-05 0.000212117 5.43229e-07
1.94948e-06 5.43229e-07 0.000132719
0.00132244 3.22622e-05 -9.17527e-07
3.22622e-05 1.66171e-05 -4.69871e-07
-9.17527e-07 -4.69871e-07 -5.83263e-05
0.00173162 1.42203e-05 3.34683e-07
1.42203e-05 0.000169627 6.86573e-07
3.34683e-07 6.86573e-07 0.000105003
0.00140109 1.44181e-05 -4.28738e-06
1.44181e-05 4.87129e-05 7.86793e-07
-4.28738e-06 7.86793e-07 -3.1896e-05
0.00148635 -1.61844e-05 -3.80125e-06
-1.61844e-05 0.000110751 4.06219e-07
-3.80125e-06 4.06219e-07 3.50661e-05
0.00139501 1.42783e-05 -3.02124e-06
1.42783e-05 2.8425e-05 1.12336e-07
-3.02124e-06 1.12336e-07 -5.44934e-05
0.00162309 -2.43986e-05 -1.99134e-06
-2.43986e-05 0.00015494 1.44967e-07
-1.99134e-06 1.44967e-07 7.60863e-05
0.000919777 -7.02585e-06 -2.80519e-06
-7.02585e-06 2.30634e-05 1.66308e-06
-2.80519e-06 1.66308e-06 -3.01812e-05
0.00106963 -4.5108e-05 -1.43587e-06
-4.5108e-05 8.48283e-05 9.31182e-07
-1.43587e-06 9.31182e-07 1.6537e-05
0.00103133 -5.80021e-05 -7.78443e-07
-5.80021e-05 5.22263e-05 1.12753e-06
-7.78443e-07 1.12753e-06 -2.68558e-05
0.00150863 -5.47357e-05 -1.04436e-06
-5.47357e-05 0.000162224 6.8771e-07
-1.04436e-06 6.8771e-07 8.70076e-05
0.00132151 -4.01527e-05 -4.2721e-07
-4.01527e-05 8.78484e-06 1.16528e-06
-4.2721e-07 1.16528e-06 -6.36098e-05
0.00129193 -5.56583e-05 -4.32196e-08
-5.56583e-05 5.89758e-05 9.70827e-07
-4.32196e-08 9.70827e-07 -1.41722e-05
0.00104661 -6.26299e-05 -1.66194e-06
-6.26299e-05 4.73877e-06 9.44127e-07
-1.66194e-06 9.44127e-07 -8.19507e-05
0.00128406 -6.2301e-05 5.0245e-07
-6.2301e-05 7.18347e-05 -1.41391e-06
5.0245e-07 -1.41391e-06 8.86358e-07
0.00104727 -3.59684e-05 -1.62537e-06
-3.59684e-05 7.09779e-05 5.00942e-07
-1.62537e-06 5.00942e-07 3.71886e-06
0.0010302 -5.20397e-05 -1.5653e-06
-5.20397e-05 6.51744e-05 1.25119e-07
-1.5653e-06 1.25119e-07 -1.24724e-05
0.000896503 1.02e-05 -1.58821e-06
1.02e-05 -4.72051e-06 2.35608e-06
-1.58821e-06 2.35608e-06 -4.29554e-05
0.00090713 -1.19352e-05 -8.09721e-07
-1.19352e-05 7.13836e-07 1.01441e-06
-8.09721e-07 1.01441e-06 -6.5519e-05
0.00151641 1.5277e-05 -8.71295e-08
1.5277e-05 8.2214e-05 1.2798e-07
-8.71295e-08 1.2798e-07 -2.30384e-06
0.00161367 -4.35934e-06 -3.02554e-07
-4.35934e-06 0.000138353 1.12969e-07
-3.02554e-07 1.12969e-07 5.81886e-05
0.0015094 1.64945e-05 -6.71794e-07
1.64945e-05 7.23611e-05 1.9886e-07
-6.71794e-07 1.9886e-07 -1.21968e-05
0.0014836 -2.10373e-05 -2.1782e-07
-2.10373e-05 6.49183e-05 -2.76396e-07
-2.1782e-07 -2.76396e-07 -1.22042e-05
0.00103124 -4.06539e-05 7.03741e-08
-4.06539e-05 6.68457e-05 -2.66597e-08
7.03741e-08 -2.66597e-08 -4.09848e-07
0.000902895 -5.24253e-05 3.08917e-07
-5.24253e-05 1.53317e-06 -1.8006e-07
3.08917e-07 -1.8006e-07 -7.43461e-05
0.00112436 -6.46732e-05 4.29354e-08
-6.46732e-05 8.64448e-05 -1.41777e-07
4.29354e-08 -1.41777e-07 -2.30108e-06
0.00136743 -5.24339e-05 -5.45637e-07
-5.24339e-05 6.99562e-05 -1.50538e-07
-5.45637e-07 -1.50538e-07 -2.71166e-06
0.00145837 -4.01303e-05 3.67682e-07
-4.01303e-05 6.24193e-05 6.9774e-07
3.67682e-07 6.9774e-07 -3.35069e-06
0.00127766 -7.07453e-05 -6.55877e-08
-7.07453e-05 0.000105726 5.2119e-07
-6.55877e-08 5.2119e-07 1.64494e-05
0.00128802 -5.61366e-05 1.71512e-08
-5.61366e-05 4.64634e-05 5.29477e-07
1.71512e-08 5.29477e-07 -1.95365e-05
0.00140019 -6.56822e-05 7.04954e-07
-6.56822e-05 0.000116819 -1.7375e-06
7.04954e-07 -1.7375e-06 4.83302e-05
0.00106419 -5.34632e-05 1.27293e-07
-5.34632e-05 8.03058e-05 8.15644e-09
1.27293e-07 8.15644e-09 5.55045e-06
0.00112875 -5.7031e-05 -2.46349e-08
-5.7031e-05 0.000112049 8.35444e-08
-2.46349e-08 8.35444e-08 3.26417e-05
0.00105847 -4.89215e-05 -2.13842e-07
-4.89215e-05 8.69427e-05 1.88507e-07
-2.13842e-07 1.88507e-07 7.1586e-06
0.000774582 1.66913e-05 -2.82128e-07
1.66913e-05 -6.91129e-05 2.94733e-08
-2.82128e-07 2.94733e-08 -0.000104629
0.000850944 -3.96846e-06 2.56923e-07
-3.96846e-06 -2.87491e-05 -4.71677e-07
2.56923e-07 -4.71677e-07 -9.03893e-05
0.00159481 2.151e-05 2.27958e-06
2.151e-05 0.000107293 2.17137e-07
2.27958e-06 2.17137e-07 2.05183e-05
0.0015446 1.03073e-05 2.48048e-06
1.03073e-05 7.69984e-05 8.49044e-08
2.48048e-06 8.49044e-08 -6.80745e-06
0.00150907 -2.38851e-05 1.98041e-06
-2.38851e-05 5.81558e-05 -2.35191e-06
1.98041e-06 -2.35191e-06 -1.3458e-05
0.0012933 -4.60559e-05 8.4642e-07
-4.60559e-05 2.7222e-06 -1.45015e-06
8.4642e-07 -1.45015e-06 -6.03854e-05
0.00103422 -5.40596e-05 4.8988e-07
-5.40596e-05 6.77011e-05 -1.58257e-08
4.8988e-07 -1.58257e-08 -6.11482e-06
0.00162004 -6.36445e-05 6.63059e-07
-6.36445e-05 0.000185832 -2.75749e-08
6.63059e-07 -2.75749e-08 0.000127986
0.000663071 -4.92557e-05 7.87051e-07
-4.92557e-05 -0.000115276 -2.17028e-06
7.87051e-07 -2.17028e-06 -0.000198368
0.00118725 -7.04475e-05 2.97893e-06
-7.04475e-05 0.000105005 -2.03959e-06
2.97893e-06 -2.03959e-06 5.9935e-06
0.00139472 -7.53183e-05 2.53124e-06
-7.53183e-05 0.000142125 1.17565e-06
2.53124e-06 1.17565e-06 5.11992e-05
0.000680557 1.36316e-05 9.03364e-07
1.36316e-05 -0.000119463 -2.58812e-06
9.03364e-07 -2.58812e-06 -0.000153025
0.00106408 -2.56431e-06 9.38697e-07
-2.56431e-06 7.90231e-05 -1.32514e-06
9.38697e-07 -1.32514e-06 2.33824e-05
0.00102419 -4.1712e-05 7.4119e-07
-4.1712e-05 7.02321e-05 -8.30725e-07
7.4119e-07 -8.30725e-07 -4.98196e-06
0.00106859 -5.55372e-05 3.73486e-07
-5.55372e-05 8.04413e-05 4.23581e-07
3.73486e-07 4.23581e-07 3.78235e-06
0.00113681 -5.73975e-05 8.77912e-07
-5.73975e-05 0.000126332 5.27454e-07
8.77912e-07 5.27454e-07 3.93947e-05
0.00107694 -5.64702e-05 3.13807e-07
-5.64702e-05 8.15832e-05 2.76155e-07
3.13807e-07 2.76155e-07 4.47804e-07
0.000830586 -1.79261e-05 -2.54854e-06
-1.79261e-05 -4.27358e-05 -3.61609e-06
-2.54854e-06 -3.61609e-06 -4.95799e-05
0.000918806 -7.01813e-06 -1.73468e-06
-7.01813e-06 3.56952e-06 -2.42825e-06
-1.73468e-06 -2.42825e-06 -3.61933e-05
0.00133063 4.80459e-05 -5.4562e-07
4.80459e-05 7.0037e-05 -2.45214e-07
-5.4562e-07 -2.45214e-07 -9.43787e-06
0.000984197 1.35842e-05 -1.14181e-06
1.35842e-05 4.01343e-05 -1.30081e-06
-1.14181e-06 -1.30081e-06 -2.40343e-05
0.000994722 2.83807e-05 -1.43858e-06
2.83807e-05 4.8962e-05 -5.17765e-07
-1.43858e-06 -5.17765e-07 -1.77256e-05
0.000958926 4.22946e-05 -5.81892e-07
4.22946e-05 3.11537e-05 -1.74859e-07
-5.81892e-07 -1.74859e-07 -4.49173e-05
0.001145 6.00523e-05 -6.63493e-07
6.00523e-05 5.88578e-05 -1.48668e-06
-6.63493e-07 -1.48668e-06 -1.71945e-05
0.00121139 6.15215e-05 -4.1415e-08
6.15215e-05 3.91669e-05 -8.62061e-07
-4.1415e-08 -8.62061e-07 -4.32133e-05
0.00102669 5.33685e-05 -3.24936e-07
5.33685e-05 7.53657e-05 -3.173e-07
-3.24936e-07 -3.173e-07 -4.03258e-06
0.00114995 6.23814e-05 -1.39348e-06
6.23814e-05 0.000115295 -2.82465e-07
-1.39348e-06 -2.82465e-07 2.80521e-05
0.00129512 6.46212e-05 -1.79232e-06
6.46212e-05 0.00015045 -8.31487e-07
-1.79232e-06 -8.31487e-07 7.39933e-05
0.000919686 -6.83476e-06 1.64386e-07
-6.83476e-06 1.96014e-06 4.03584e-08
1.64386e-07 4.03584e-08 -3.41958e-05
0.000994934 1.29387e-05 2.92887e-08
1.29387e-05 4.35308e-05 -3.17603e-08
2.92887e-08 -3.17603e-08 -1.74399e-05
0.00105344 5.03733e-05 -1.94012e-07
5.03733e-05 7.94236e-05 -1.78186e-07
-1.94012e-07 -1.78186e-07 3.24664e-06
0.0010468 4.16493e-05 -4.47394e-08
4.16493e-05 7.62697e-05 -3.61916e-08
-4.47394e-08 -3.61916e-08 7.47181e-07
0.00101531 5.13421e-05 -2.98017e-07
5.13421e-05 6.22753e-05 -5.9975e-08
-2.98017e-07 -5.9975e-08 -1.87776e-05
0.00131946 4.83165e-05 -3.90328e-07
4.83165e-05 5.19053e-05 3.04208e-10
-3.90328e-07 3.04208e-10 -2.84533e-05
0.00119148 6.50756e-05 5.38555e-07
6.50756e-05 6.97638e-05 -1.48527e-07
5.38555e-07 -1.48527e-07 -9.84695e-06
0.00118654 6.54223e-05 2.75378e-07
6.54223e-05 2.67841e-05 4.59946e-07
2.75378e-07 4.59946e-07 -5.4178e-05
0.000926839 5.54012e-05 3.81038e-07
5.54012e-05 2.54771e-05 7.03045e-07
3.81038e-07 7.03045e-07 -6.36583e-05
0.00120619 6.71521e-05 -7.6249e-08
6.71521e-05 0.000116108 -2.38361e-07
-7.6249e-08 -2.38361e-07 2.34737e-05
0.000985244 1.24799e-05 9.24036e-07
1.24799e-05 3.74185e-05 1.45307e-06
9.24036e-07 1.45307e-06 -1.97008e-05
0.000941426 3.66528e-05 1.18049e-06
3.66528e-05 2.12541e-05 9.12656e-07
1.18049e-06 9.12656e-07 -5.34764e-05
0.00112961 5.94773e-05 -6.07822e-08
5.94773e-05 0.000119625 8.5241e-08
-6.07822e-08 8.5241e-08 3.59911e-05
0.000959679 4.93103e-05 3.22949e-07
4.93103e-05 3.33919e-05 -1.83298e-07
3.22949e-07 -1.83298e-07 -4.91213e-05
0.00103549 5.42981e-05 -2.28646e-07
5.42981e-05 6.72465e-05 -4.77038e-07
-2.28646e-07 -4.77038e-07 -1.65669e-05
0.00128724 4.90649e-05 -5.10843e-08
4.90649e-05 -1.36545e-06 -9.11148e-08
-5.10843e-08 -9.11148e-08 -6.71628e-05
0.00137062 7.47641e-05 1.33439e-06
7.47641e-05 0.000156722 2.483e-07
1.33439e-06 2.483e-07 6.67066e-05
0.000581036 5.71658e-05 7.62669e-07
5.71658e-05 -0.000286747 2.39949e-07
7.62669e-07 2.39949e-07 -0.000368891
0.00142861 7.07159e-05 2.30172e-06
7.07159e-05 0.000261353 2.73233e-06
2.30172e-06 2.73233e-06 0.000165746
0.000476559 5.28162e-05 5.61093e-07
5.28162e-05 -0.000249231 4.22645e-07
5.61093e-07 4.22645e-07 -0.000353307
0.000929652 -4.37045e-06 -1.18866e-06
-4.37045e-06 4.4688e-06 -2.10044e-06
-1.18866e-06 -2.10044e-06 -2.84879e-05
0.000894344 7.58158e-06 3.97158e-07
7.58158e-06 -8.92845e-06 6.12813e-07
3.97158e-07 6.12813e-07 -6.29724e-05
0.000909273 2.00089e-05 6.34605e-07
2.00089e-05 4.41411e-06 1.33679e-06
6.34605e-07 1.33679e-06 -6.35108e-05
0.000826792 -1.52546e-06 -4.39301e-07
-1.52546e-06 -4.30808e-05 -1.16308e-06
-4.39301e-07 -1.16308e-06 -9.4153e-05
0.000971123 1.15869e-05 1.14289e-07
1.15869e-05 3.3079e-05 1.37702e-08
1.14289e-07 1.37702e-08 -1.52272e-05
0.00105424 1.42665e-05 -1.1919e-07
1.42665e-05 7.84932e-05 -5.19224e-07
-1.1919e-07 -5.19224e-07 1.54035e-05
0.00115289 3.03908e-05 2.43588e-07
3.03908e-05 0.000132915 1.89492e-07
2.43588e-07 1.89492e-07 5.97822e-05
0.000884947 -8.44221e-07 1.50322e-07
-8.44221e-07 -6.11817e-06 1.13726e-06
1.50322e-07 1.13726e-06 -6.86596e-05
0.000962911 -1.02216e-05 1.29653e-07
-1.02216e-05 2.97701e-05 1.06831e-06
1.29653e-07 1.06831e-06 -1.69097e-05
0.00095148 5.88717e-06 6.30104e-07
5.88717e-06 1.11669e-05 1.75658e-06
6.30104e-07 1.75658e-06 -1.57005e-05
0.000945248 -2.50932e-06 -9.89817e-08
-2.50932e-06 8.77222e-06 2.66917e-08
-9.89817e-08 2.66917e-08 -1.87834e-05
0.00144197 -1.11257e-05 1.32989e-06
-1.11257e-05 0.000253725 1.97799e-06
1.32989e-06 1.97799e-06 0.000256717
0.000947157 -2.24528e-06 -5.66776e-07
-2.24528e-06 1.09518e-05 -1.86803e-06
-5.66776e-07 -1.86803e-06 -1.80038e-05
0.0014687 -1.35886e-05 -2.16675e-06
-1.35886e-05 0.000270739 -1.23462e-06
-2.16675e-06 -1.23462e-06 0.000272453
0.00113156 -1.27433e-05 1.0774e-05
-1.27433e-05 9.88898e-05 6.47591e-06
1.0774e-05 6.47591e-06 0.000115017
0.00149937 -1.56811e-05 -6.51928e-06
-1.56811e-05 0.000289682 -4.56018e-06
-6.51928e-06 -4.56018e-06 0.000289952
0.0010798 -1.60745e-05 4.35671e-06
-1.60745e-05 7.69666e-05 2.50877e-06
4.35671e-06 2.50877e-06 9.18014e-05
0.00230678 -2.78556e-05 -5.35108e-06
-2.78556e-05 0.000707503 -1.6802e-06
-5.35108e-06 -1.6802e-06 0.000726975
0.000840689 1.77745e-05 1.87853e-06
1.77745e-05 -4.00057e-05 -3.27438e-06
1.87853e-06 -3.27438e-06 -4.4022e-05
0.000847601 1.97873e-05 -1.17944e-07
1.97873e-05 -3.21882e-05 3.80032e-08
-1.17944e-07 3.80032e-08 -3.83023e-05
0.00235301 2.93937e-05 1.59258e-05
2.93937e-05 0.000736512 -3.83341e-06
1.59258e-05 -3.83341e-06 0.000755012
0.000848905 2.18026e-05 -3.03653e-06
2.18026e-05 -2.68897e-05 3.59175e-06
-3.03653e-06 3.59175e-06 -3.5697e-05
0.00243257 3.29464e-05 -5.50883e-07
3.29464e-05 0.000783084 -6.0859e-08
-5.50883e-07 -6.0859e-08 0.000799753
0.0025295 3.65105e-05 -2.16838e-05
3.65105e-05 0.000838237 4.00541e-06
-2.16838e-05 4.00541e-06 0.000852886
0.00137795 3.78767e-05 -1.21042e-06
3.78767e-05 6.57263e-05 -5.28184e-07
-1.21042e-06 -5.28184e-07 -1.30518e-05
0.00149578 1.04662e-05 -1.25734e-06
1.04662e-05 7.92514e-05 -7.71729e-07
-1.25734e-06 -7.71729e-07 -3.48857e-07
0.00148404 2.06118e-05 9.72471e-07
2.06118e-05 6.84644e-05 -9.16194e-08
9.72471e-07 -9.16194e-08 -2.7022e-06
0.0016215 -1.35105e-05 -1.58297e-06
-1.35105e-05 0.000109286 -8.06678e-07
-1.58297e-06 -8.06678e-07 2.96943e-05
0.00150511 -1.23625e-05 -1.93098e-06
-1.23625e-05 6.24005e-05 -6.18518e-07
-1.93098e-06 -6.18518e-07 -2.29521e-05
0.00144649 1.46265e-05 -3.24186e-06
1.46265e-05 5.86737e-05 -2.32837e-07
-3.24186e-06 -2.32837e-07 -2.37219e-05
0.00151022 4.48451e-06 7.84223e-08
4.48451e-06 6.72843e-05 -2.53508e-07
7.84223e-08 -2.53508e-07 -1.89053e-05
0.00152931 -5.07817e-06 2.25087e-07
-5.07817e-06 6.84526e-05 -9.90106e-08
2.25087e-07 -9.90106e-08 -1.64083e-05
0.00142016 2.94789e-06 -1.80844e-07
2.94789e-06 1.36051e-05 1.0003e-07
-1.80844e-07 1.0003e-07 -6.20199e-05
0.00164986 -1.82149e-05 -2.25113e-07
-1.82149e-05 0.00011646 -4.67141e-07
-2.25113e-07 -4.67141e-07 3.65837e-05
0.00137339 3.33343e-05 -3.00361e-07
3.33343e-05 4.33539e-05 -3.74927e-08
-3.00361e-07 -3.74927e-08 -3.19982e-05
0.00154596 1.43928e-05 1.6794e-06
1.43928e-05 7.95779e-05 -4.46529e-07
1.6794e-06 -4.46529e-07 1.77603e-05
0.00152885 1.15659e-05 1.58023e-06
1.15659e-05 7.02342e-05 2.87971e-07
1.58023e-06 2.87971e-07 -1.67231e-05
0.00155822 -1.30171e-05 2.05901e-06
-1.30171e-05 8.23738e-05 5.04007e-07
2.05901e-06 5.04007e-07 -1.82793e-06
0.00155202 -5.40592e-06 1.0394e-06
-5.40592e-06 6.27648e-05 2.02961e-06
1.0394e-06 2.02961e-06 -8.66766e-06
0.00150275 2.95957e-05 -3.68741e-07
2.95957e-05 6.89869e-05 5.90691e-08
-3.68741e-07 5.90691e-08 9.9104e-06
0.0015079 1.55595e-05 -2.3851e-06
1.55595e-05 7.82885e-05 4.11524e-07
-2.3851e-06 4.11524e-07 -6.17881e-06
0.00161206 -3.69599e-06 -3.08918e-06
-3.69599e-06 0.000137967 2.56131e-07
-3.08918e-06 2.56131e-07 5.80016e-05
0.00144711 1.62378e-05 -3.34678e-06
1.62378e-05 4.32379e-05 1.11067e-07
-3.34678e-06 1.11067e-07 -4.14848e-05
0.00153511 -2.14835e-05 -1.39159e-06
-2.14835e-05 9.0251e-05 6.45059e-07
-1.39159e-06 6.45059e-07 1.32568e-05
0.00105832 -4.11653e-05 -1.42573e-06
-4.11653e-05 7.90773e-05 4.73599e-07
-1.42573e-06 4.73599e-07 1.19258e-05
0.000989139 -5.40257e-05 -1.92745e-07
-5.40257e-05 4.46628e-05 6.2253e-07
-1.92745e-07 6.2253e-07 -3.05262e-05
0.00113029 -6.4672e-05 -1.38974e-06
-6.4672e-05 9.07114e-05 2.14031e-06
-1.38974e-06 2.14031e-06 1.71082e-06
0.00149086 -5.39666e-05 -6.94873e-07
-5.39666e-05 0.000130951 6.27616e-07
-6.94873e-07 6.27616e-07 5.75666e-05
0.00130675 -3.94868e-05 -5.80897e-07
-3.94868e-05 -5.51475e-06 2.16309e-06
-5.80897e-07 2.16309e-06 -6.93418e-05
0.00129693 -5.58412e-05 5.72405e-07
-5.58412e-05 5.18856e-05 1.12376e-06
5.72405e-07 1.12376e-06 -1.40857e-05
0.00128676 -7.05841e-05 -2.05485e-06
-7.05841e-05 0.000111575 2.92262e-07
-2.05485e-06 2.92262e-07 2.15095e-05
0.00115381 -6.04837e-05 -1.54523e-06
-6.04837e-05 -4.94578e-06 -4.29584e-06
-1.54523e-06 -4.29584e-06 -7.10272e-05
0.00108972 -5.41481e-05 -7.39709e-07
-5.41481e-05 9.25397e-05 -6.77329e-08
-7.39709e-07 -6.77329e-08 1.78002e-05
0.00107159 -5.53762e-05 -1.2213e-06
-5.53762e-05 8.26782e-05 -6.49698e-07
-1.2213e-06 -6.49698e-07 3.39531e-06
0.00107441 -4.56424e-05 -1.01872e-06
-4.56424e-05 9.48497e-05 9.50721e-07
-1.01872e-06 9.50721e-07 1.50741e-05
0.000638234 1.62019e-05 -1.07409e-06
1.62019e-05 -0.000138113 2.14873e-06
-1.07409e-06 2.14873e-06 -0.000174618
0.000898871 8.73992e-07 -3.19456e-07
8.73992e-07 -6.41084e-06 1.0153e-06
-3.19456e-07 1.0153e-06 -6.70034e-05
0.00151669 2.01406e-05 -2.47526e-08
2.01406e-05 6.9909e-05 -1.58328e-08
-2.47526e-08 -1.58328e-08 -1.66046e-05
0.00157783 9.48551e-06 -2.02207e-07
9.48551e-06 9.51511e-05 1.66932e-07
-2.02207e-07 1.66932e-07 1.16692e-05
0.00156823 -2.41795e-05 -7.90951e-07
-2.41795e-05 9.14166e-05 2.05731e-07
-7.90951e-07 2.05731e-07 2.01332e-05
0.00107084 -5.45732e-05 3.56875e-08
-5.45732e-05 8.46985e-05 1.01464e-07
3.56875e-08 1.01464e-07 1.08878e-05
0.000931243 -5.6083e-05 5.80496e-07
-5.6083e-05 1.61311e-05 -4.55262e-07
5.80496e-07 -4.55262e-07 -6.61087e-05
0.00115652 -6.94214e-05 -1.03861e-07
-6.94214e-05 9.25579e-05 -2.06636e-07
-1.03861e-07 -2.06636e-07 -6.97368e-06
0.00136926 -4.6721e-05 2.92835e-07
-4.6721e-05 3.90296e-05 -3.76685e-07
2.92835e-07 -3.76685e-07 -2.50589e-05
0.00134174 -7.23083e-05 -1.45954e-07
-7.23083e-05 0.000117716 -5.37694e-07
-1.45954e-07 -5.37694e-07 2.95554e-05
0.00136538 -6.15604e-05 -5.41543e-07
-6.15604e-05 6.32514e-05 -6.19538e-07
-5.41543e-07 -6.19538e-07 4.81792e-06
0.000674022 1.79504e-05 -2.09939e-08
1.79504e-05 -0.000122649 -6.22804e-07
-2.09939e-08 -6.22804e-07 -0.000155936
0.00108167 -5.58789e-05 6.11888e-08
-5.58789e-05 8.69619e-05 1.30553e-07
6.11888e-08 1.30553e-07 1.01358e-05
0.00104155 -5.53296e-05 -8.26628e-07
-5.53296e-05 6.43697e-05 -4.79066e-08
-8.26628e-07 -4.79066e-08 -1.58249e-05
0.00113409 -5.57857e-05 -3.8743e-07
-5.57857e-05 0.000124687 4.62238e-07
-3.8743e-07 4.62238e-07 3.77893e-05
0.00110454 -4.18253e-05 -2.69456e-08
-4.18253e-05 0.000109922 3.12894e-08
-2.69456e-08 3.12894e-08 3.51203e-05
0.000952964 -2.61736e-06 1.17543e-07
-2.61736e-06 2.18647e-05 1.86672e-07
1.17543e-07 1.86672e-07 -3.43261e-05
0.00164299 2.38309e-05 2.44355e-06
2.38309e-05 0.000126371 6.79508e-07
2.44355e-06 6.79508e-07 3.96567e-05
0.00159143 1.0093e-05 2.7357e-06
1.0093e-05 8.28638e-05 -2.95562e-07
2.7357e-06 -2.95562e-07 2.80413e-08
0.00134475 -2.95452e-05 2.39544e-06
-2.95452e-05 -2.67361e-05 -3.14612e-06
2.39544e-06 -3.14612e-06 -9.14817e-05
0.00156051 -5.54563e-05 1.47442e-06
-5.54563e-05 9.51464e-05 -1.6315e-06
1.47442e-06 -1.6315e-06 4.49552e-05
0.00105623 -5.6672e-05 3.3266e-07
-5.6672e-05 7.7391e-05 -3.42766e-07
3.3266e-07 -3.42766e-07 -3.15403e-07
0.00141471 -7.25732e-05 3.18931e-06
-7.25732e-05 0.000101343 1.74345e-06
3.18931e-06 1.74345e-06 2.58726e-05
0.000870798 -5.82815e-05 6.27097e-07
-5.82815e-05 -1.67232e-05 -2.88472e-06
6.27097e-07 -2.88472e-06 -0.000111716
0.00141298 -7.89374e-05 2.42134e-06
-7.89374e-05 0.000208468 -7.32529e-07
2.42134e-06 -7.32529e-07 0.000100476
0.000683351 1.352e-05 6.97007e-07
1.352e-05 -0.00011979 -2.43294e-06
6.97007e-07 -2.43294e-06 -0.000150837
0.00108389 -3.1712e-07 8.55446e-07
-3.1712e-07 8.81158e-05 -1.31301e-06
8.55446e-07 -1.31301e-06 3.73144e-05
0.00118417 -3.50171e-05 4.6373e-08
-3.50171e-05 0.000146912 3.48885e-08
4.6373e-08 3.48885e-08 7.71779e-05
0.00105062 -4.4942e-05 6.87512e-07
-4.4942e-05 8.61579e-05 -1.09434e-06
6.87512e-07 -1.09434e-06 -1.35066e-06
0.00105264 -5.64128e-05 3.12879e-07
-5.64128e-05 7.18514e-05 -5.54666e-08
3.12879e-07 -5.54666e-08 -8.41396e-06
0.00106071 -5.63988e-05 9.68279e-07
-5.63988e-05 7.96491e-05 7.53527e-07
9.68279e-07 7.53527e-07 -7.77004e-06
0.000922755 -7.32971e-06 -1.33098e-06
-7.32971e-06 3.16134e-06 -2.30078e-06
-1.33098e-06 -2.30078e-06 -3.28887e-05
0.000996546 1.29527e-05 -1.02299e-06
1.29527e-05 4.47966e-05 -1.48677e-06
-1.02299e-06 -1.48677e-06 -1.63135e-05
0.00135752 5.05997e-05 -2.17158e-07
5.05997e-05 7.16079e-05 -1.91478e-07
-2.17158e-07 -1.91478e-07 -9.33666e-06
0.00104604 4.22655e-05 -9.27683e-07
4.22655e-05 7.62691e-05 -4.87983e-07
-9.27683e-07 -4.87983e-07 5.31836e-07
0.00106804 5.10313e-05 -5.41517e-07
5.10313e-05 8.75301e-05 -1.06851e-07
-5.41517e-07 -1.06851e-07 1.17647e-05
0.000969928 5.04035e-05 -5.78326e-07
5.04035e-05 4.04513e-05 1.29741e-08
-5.78326e-07 1.29741e-08 -4.10554e-05
0.00120224 6.50175e-05 -8.74902e-07
6.50175e-05 7.37713e-05 -1.58114e-06
-8.74902e-07 -1.58114e-06 -5.90877e-06
0.00132238 6.71731e-05 2.08817e-08
6.71731e-05 9.10709e-05 -2.75669e-07
2.08817e-08 -2.75669e-07 1.04648e-05
0.00081516 5.25523e-05 -2.92985e-07
5.25523e-05 -2.9632e-05 -3.86059e-07
-2.92985e-07 -3.86059e-07 -0.000119232
0.00123404 6.80989e-05 -1.57826e-06
6.80989e-05 0.00013028 -5.58313e-07
-1.57826e-06 -5.58313e-07 3.60859e-05
0.000989236 1.15457e-05 5.79978e-08
1.15457e-05 3.9547e-05 1.50309e-08
5.79978e-08 1.50309e-08 -1.75969e-05
0.000997847 3.93244e-05 4.2001e-07
3.93244e-05 5.04209e-05 3.01893e-07
4.2001e-07 3.01893e-07 -2.43597e-05
0.00114243 5.97483e-05 -1.55001e-07
5.97483e-05 0.000126935 -5.09344e-07
-1.55001e-07 -5.09344e-07 4.39545e-05
0.00102416 5.04355e-05 -2.54857e-07
5.04355e-05 6.65789e-05 -9.52542e-09
-2.54857e-07 -9.52542e-09 -1.5662e-05
0.00102466 5.40001e-05 -7.98983e-07
5.40001e-05 6.48513e-05 -3.46782e-07
-7.98983e-07 -3.46782e-07 -1.86217e-05
0.00158744 5.18635e-05 -5.6528e-07
5.18635e-05 0.000145243 -4.24314e-07
-5.6528e-07 -4.24314e-07 7.96636e-05
0.00140588 7.5322e-05 8.04129e-07
7.5322e-05 0.000170928 6.96493e-08
8.04129e-07 6.96493e-08 8.1773e-05
0.000946878 6.40406e-05 -5.02422e-07
6.40406e-05 -0.000101558 5.22855e-07
-5.02422e-07 5.22855e-07 -0.0001819
0.00123053 6.56396e-05 1.00743e-06
6.56396e-05 0.000164768 1.02064e-06
1.00743e-06 1.02064e-06 6.84808e-05
0.000845982 6.20875e-05 -1.38168e-06
6.20875e-05 -6.66897e-05 -4.33714e-07
-1.38168e-06 -4.33714e-07 -0.000172503
0.000948445 3.23029e-05 1.04406e-06
3.23029e-05 2.44877e-05 1.2696e-06
1.04406e-06 1.2696e-06 -4.72576e-05
0.000953848 5.17736e-05 6.8328e-07
5.17736e-05 3.14394e-05 5.5193e-08
6.8328e-07 5.5193e-08 -5.36874e-05
0.00114994 6.10077e-05 2.02138e-07
6.10077e-05 0.00012811 5.31415e-07
2.02138e-07 5.31415e-07 3.80885e-05
0.000859368 5.03392e-05 7.55838e-07
5.03392e-05 -1.82761e-05 -1.0585e-07
7.55838e-07 -1.0585e-07 -0.000105786
0.00203008 4.13804e-05 1.71865e-06
4.13804e-05 0.000255851 1.33798e-06
1.71865e-06 1.33798e-06 0.000203103
0.00109627 6.19212e-05 2.37046e-06
6.19212e-05 -0.000106061 5.88812e-07
2.37046e-06 5.88812e-07 -0.000172183
0.00126415 7.72705e-05 1.6287e-06
7.72705e-05 9.51754e-05 -6.77632e-07
1.6287e-06 -6.77632e-07 -6.86087e-06
0.000786785 5.79322e-05 9.4929e-07
5.79322e-05 -5.60727e-05 2.1048e-06
9.4929e-07 2.1048e-06 -0.000170802
0.00096233 1.16215e-05 -1.4441e-07
1.16215e-05 2.62221e-05 -8.77333e-07
-1.4441e-07 -8.77333e-07 -2.75957e-05
0.000984464 2.55684e-05 2.08394e-07
2.55684e-05 4.32292e-05 4.3184e-07
2.08394e-07 4.3184e-07 -2.45174e-05
0.00106617 3.64484e-05 3.99953e-07
3.64484e-05 8.85314e-05 5.92269e-07
3.99953e-07 5.92269e-07 1.11679e-05
0.000976964 1.41196e-05 -5.9481e-07
1.41196e-05 3.61893e-05 -1.09536e-06
-5.9481e-07 -1.09536e-06 -1.22715e-05
0.000917578 9.20458e-06 -2.7396e-07
9.20458e-06 8.35664e-06 -1.31288e-06
-2.7396e-07 -1.31288e-06 -5.56468e-05
0.00096862 -9.63718e-07 4.29637e-07
-9.63718e-07 3.27993e-05 2.47541e-08
4.29637e-07 2.47541e-08 -1.40845e-05
0.00106853 2.84091e-05 -5.25646e-08
2.84091e-05 8.94751e-05 -4.3655e-07
-5.25646e-08 -4.3655e-07 1.53306e-05
0.000936385 6.1086e-06 2.05431e-07
6.1086e-06 2.07475e-05 4.16973e-07
2.05431e-07 4.16973e-07 -4.17289e-05
0.00113991 3.79836e-05 4.03119e-07
3.79836e-05 0.000125808 3.11395e-07
4.03119e-07 3.11395e-07 4.4219e-05
0.000900524 -1.12176e-06 4.72444e-08
-1.12176e-06 4.52465e-06 1.01331e-06
4.72444e-08 1.01331e-06 -6.8189e-05
0.000886181 2.63181e-05 4.7321e-07
2.63181e-05 -2.65447e-06 1.1292e-06
4.7321e-07 1.1292e-06 -6.47886e-05
0.000979807 -2.02872e-05 -3.43637e-07
-2.02872e-05 3.88457e-05 1.0629e-06
-3.43637e-07 1.0629e-06 -7.17813e-06
0.000938824 7.92311e-06 4.92641e-07
7.92311e-06 5.24905e-06 1.65158e-06
4.92641e-07 1.65158e-06 -2.15245e-05
0.000944522 -2.07551e-06 -2.67258e-07
-2.07551e-06 7.72854e-06 3.10743e-08
-2.67258e-07 3.10743e-08 -1.90971e-05
0.00143516 -7.46974e-06 9.85251e-07
-7.46974e-06 0.000247706 1.9222e-06
9.85251e-07 1.9222e-06 0.000251394
0.000945997 -8.3231e-06 -6.44379e-08
-8.3231e-06 9.30214e-06 -1.8026e-06
-6.44379e-08 -1.8026e-06 -1.82658e-05
0.00145806 -1.04353e-05 -1.67901e-06
-1.04353e-05 0.000262033 -1.20707e-06
-1.67901e-06 -1.20707e-06 0.000265037
0.00112094 -1.00386e-05 8.16878e-06
-1.00386e-05 8.95609e-05 6.34185e-06
8.16878e-06 6.34185e-06 0.000106821
0.00148343 -1.30347e-05 -4.88264e-06
-1.30347e-05 0.000278198 -4.46248e-06
-4.88264e-06 -4.46248e-06 0.000280001
0.0010731 -1.34094e-05 3.20621e-06
-1.34094e-05 6.91323e-05 2.46944e-06
3.20621e-06 2.46944e-06 8.53582e-05
0.0010185 -1.64351e-05 -2.2989e-06
-1.64351e-05 4.59926e-05 -1.63994e-06
-2.2989e-06 -1.63994e-06 6.09222e-05
0.000848689 1.55259e-05 1.52248e-06
1.55259e-05 -4.05141e-05 -3.23914e-06
1.52248e-06 -3.23914e-06 -4.26979e-05
0.000857109 1.78097e-05 -1.08601e-07
1.78097e-05 -3.2004e-05 1.86938e-08
-1.08601e-07 1.86938e-08 -3.60796e-05
0.00230011 2.54759e-05 1.385e-05
2.54759e-05 0.000704079 -3.84819e-06
1.385e-05 -3.84819e-06 0.000724029
0.000863945 1.9876e-05 -2.53107e-06
1.9876e-05 -2.4245e-05 3.38599e-06
-2.53107e-06 3.38599e-06 -3.04489e-05
0.00235784 2.92692e-05 -6.19279e-07
2.92692e-05 0.000739551 -5.04168e-08
-6.19279e-07 -5.04168e-08 0.000757873
0.0024389 3.27206e-05 -1.96525e-05
3.27206e-05 0.000786817 3.97658e-06
-1.96525e-05 3.97658e-06 0.000803287
0.00142531 3.44849e-05 4.41676e-07
3.44849e-05 7.05092e-05 3.32224e-07
4.41676e-07 3.32224e-07 -5.24695e-06
0.00150527 1.24227e-06 -1.01241e-06
1.24227e-06 5.33195e-05 -8.64204e-07
-1.01241e-06 -8.64204e-07 -2.29867e-05
0.0013754 1.45055e-05 2.25917e-06
1.45055e-05 -3.12654e-06 -2.3419e-06
2.25917e-06 -2.3419e-06 -6.21428e-05
0.00146592 -1.76228e-05 -2.25563e-06
-1.76228e-05 2.69759e-05 -1.66043e-06
-2.25563e-06 -1.66043e-06 -5.33941e-05
0.00154024 -7.69395e-06 -1.61939e-06
-7.69395e-06 7.45183e-05 -7.48951e-07
-1.61939e-06 -7.48951e-07 -1.02868e-05
0.00150897 3.79002e-06 -2.00742e-06
3.79002e-06 6.65571e-05 -3.28237e-07
-2.00742e-06 -3.28237e-07 -1.97569e-05
0.00153863 1.38451e-05 1.94398e-07
1.38451e-05 7.63618e-05 -4.02222e-08
1.94398e-07 -4.02222e-08 -1.03413e-05
0.00152656 -1.6727e-05 -2.1295e-07
-1.6727e-05 6.73302e-05 1.30584e-07
-2.1295e-07 1.30584e-07 -1.67368e-05
0.00153811 -4.81971e-06 7.34654e-07
-4.81971e-06 5.73107e-05 -2.90688e-07
7.34654e-07 -2.90688e-07 -1.38597e-05
0.00144525 2.65839e-05 4.55315e-08
2.65839e-05 3.7769e-05 -4.67794e-07
4.55315e-08 -4.67794e-07 -2.10772e-05
0.00154291 7.70147e-06 1.65919e-06
7.70147e-06 8.1555e-05 1.91128e-07
1.65919e-06 1.91128e-07 -4.77489e-06
0.00171256 -2.54352e-05 2.28576e-06
-2.54352e-05 0.000149974 8.45501e-07
2.28576e-06 8.45501e-07 7.08052e-05
0.00150355 1.12773e-05 1.14225e-06
1.12773e-05 2.42928e-05 2.55673e-06
1.14225e-06 2.55673e-06 -3.78549e-05
0.00144735 1.89556e-05 -2.75958e-06
1.89556e-05 3.67444e-05 -1.52e-07
-2.75958e-06 -1.52e-07 -4.95055e-05
0.0016095 8.80262e-06 -2.5598e-06
8.80262e-06 0.000112645 5.77675e-07
-2.5598e-06 5.77675e-07 2.94788e-05
0.00162183 -2.4534e-05 -1.77381e-06
-2.4534e-05 0.000121872 1.86395e-06
-1.77381e-06 1.86395e-06 5.09378e-05
0.0011021 -5.48489e-05 -6.3077e-07
-5.48489e-05 9.90898e-05 3.53563e-07
-6.3077e-07 3.53563e-07 2.5298e-05
0.00120807 -6.31412e-05 -3.81153e-07
-6.31412e-05 0.000151674 1.07071e-06
-3.81153e-07 1.07071e-06 7.02864e-05
0.0011296 -6.8477e-05 -2.09483e-06
-6.8477e-05 8.21837e-05 2.6766e-06
-2.09483e-06 2.6766e-06 -1.7894e-05
0.0014363 -4.73406e-05 -9.64423e-07
-4.73406e-05 7.09402e-05 1.14779e-06
-9.64423e-07 1.14779e-06 5.88587e-06
0.00112208 -5.95016e-05 -1.98383e-06
-5.95016e-05 -5.3867e-05 -3.81813e-07
-1.98383e-06 -3.81813e-07 -0.000112893
0.00129791 -6.96478e-05 -3.08995e-06
-6.96478e-05 9.79255e-05 -2.30334e-06
-3.08995e-06 -2.30334e-06 1.25057e-05
0.0010964 -5.62661e-05 -5.27063e-07
-5.62661e-05 9.42918e-05 1.15355e-08
-5.27063e-07 1.15355e-08 1.72965e-05
0.000998008 -5.39768e-05 -2.1221e-06
-5.39768e-05 4.32522e-05 -4.04233e-07
-2.1221e-06 -4.04233e-07 -3.60012e-05
0.00112814 -5.52099e-05 -1.0551e-06
-5.52099e-05 0.000121558 2.27643e-07
-1.0551e-06 2.27643e-07 3.46078e-05
0.000662696 2.00891e-05 -6.96731e-07
2.00891e-05 -0.000128096 1.27462e-06
-6.96731e-07 1.27462e-06 -0.000161152
0.00117236 -4.1914e-05 -7.05079e-07
-4.1914e-05 0.000143313 1.05636e-06
-7.05079e-07 1.05636e-06 6.89964e-05
0.000836087 1.54621e-07 -6.98255e-09
1.54621e-07 -3.78913e-05 1.72882e-06
-6.98255e-09 1.72882e-06 -9.4775e-05
0.00158267 2.3656e-05 -1.77299e-08
2.3656e-05 9.74524e-05 4.15119e-08
-1.77299e-08 4.15119e-08 1.08054e-05
0.00158332 8.58944e-06 4.80648e-07
8.58944e-06 7.71363e-05 -5.98261e-09
4.80648e-07 -5.98261e-09 -5.68245e-06
0.00143409 -2.99385e-05 -1.96428e-07
-2.99385e-05 1.60159e-05 -3.13718e-07
-1.96428e-07 -3.13718e-07 -5.00525e-05
0.00109021 -5.75717e-05 1.51152e-08
-5.75717e-05 9.32052e-05 2.72939e-07
1.51152e-08 2.72939e-07 1.53312e-05
0.000918355 -5.93068e-05 -9.44611e-08
-5.93068e-05 8.67854e-06 1.34947e-07
-9.44611e-08 1.34947e-07 -8.47707e-05
0.00141698 -7.84297e-05 -1.29023e-06
-7.84297e-05 0.000209773 1.31584e-06
-1.29023e-06 1.31584e-06 0.000102668
0.00157096 -5.68417e-05 -8.84609e-08
-5.68417e-05 0.000105458 4.14777e-07
-8.84609e-08 4.14777e-07 5.52096e-05
0.00131081 -7.02498e-05 1.17689e-07
-7.02498e-05 4.82273e-05 -8.66597e-07
1.17689e-07 -8.66597e-07 -2.69299e-05
0.000804803 1.39642e-05 8.37642e-08
1.39642e-05 -5.84093e-05 -5.82667e-07
8.37642e-08 -5.82667e-07 -8.85e-05
0.00106574 6.61515e-06 -1.87688e-07
6.61515e-06 7.94174e-05 8.78629e-08
-1.87688e-07 8.78629e-08 2.8718e-05
0.000970226 -5.42946e-05 -5.90807e-07
-5.42946e-05 3.21177e-05 2.97359e-07
-5.90807e-07 2.97359e-07 -4.81309e-05
0.00108097 -5.68261e-05 3.52704e-07
-5.68261e-05 8.93378e-05 7.31618e-08
3.52704e-07 7.31618e-08 2.25408e-06
0.00105472 -4.40953e-05 -9.36676e-08
-4.40953e-05 8.84952e-05 -2.72587e-07
-9.36676e-08 -2.72587e-07 1.59549e-06
0.00111128 -3.80142e-05 -6.32847e-07
-3.80142e-05 0.000110582 9.79052e-07
-6.32847e-07 9.79052e-07 3.97694e-05
0.00157493 2.82185e-05 2.23075e-06
2.82185e-05 8.96164e-05 1.20187e-06
2.23075e-06 1.20187e-06 5.06647e-06
0.00162787 9.71397e-07 2.82921e-06
9.71397e-07 8.65708e-05 -6.0547e-07
2.82921e-06 -6.0547e-07 8.54326e-06
0.00143365 -4.11823e-05 1.85992e-06
-4.11823e-05 -1.55519e-05 -3.62648e-06
1.85992e-06 -3.62648e-06 -6.15346e-05
0.0020518 -7.68721e-05 2.41148e-06
-7.68721e-05 0.00033212 -8.68903e-07
2.41148e-06 -8.68903e-07 0.000281555
0.000920768 -5.55127e-05 -1.21208e-07
-5.55127e-05 1.67084e-05 -7.68457e-07
-1.21208e-07 -7.68457e-07 -6.84212e-05
0.0014509 -8.17555e-05 2.80428e-06
-8.17555e-05 0.000199473 2.23396e-06
2.80428e-06 2.23396e-06 8.84351e-05
0.00144752 -7.66347e-05 1.8785e-06
-7.66347e-05 0.000263052 -3.71479e-06
1.8785e-06 -3.71479e-06 0.000158096
0.000935729 1.09902e-05 5.9792e-07
1.09902e-05 5.31712e-06 -1.8063e-06
5.9792e-07 -1.8063e-06 -2.19719e-05
0.000971794 -2.35267e-05 7.2814e-07
-2.35267e-05 3.33727e-05 -1.21262e-06
7.2814e-07 -1.21262e-06 -1.07443e-05
0.000805082 1.13721e-05 1.30524e-07
1.13721e-05 -5.17219e-05 -1.8097e-06
1.30524e-07 -1.8097e-06 -0.000101197
0.00107643 -2.47412e-05 3.05873e-07
-2.47412e-05 9.12426e-05 -6.18318e-07
3.05873e-07 -6.18318e-07 2.5023e-05
0.000982122 -3.3055e-05 2.23137e-07
-3.3055e-05 5.08487e-05 -1.05134e-06
2.23137e-07 -1.05134e-06 -3.10419e-05
0.00106681 -5.65823e-05 1.93409e-06
-5.65823e-05 9.73282e-05 4.74106e-07
1.93409e-06 4.74106e-07 1.39763e-06
0.000828319 -5.20403e-05 4.51933e-07
-5.20403e-05 -4.18949e-05 1.86766e-08
4.51933e-07 1.86766e-08 -0.000123672
0.00171135 -7.57005e-05 5.34158e-07
-7.57005e-05 0.000416736 7.17569e-07
5.34158e-07 7.17569e-07 0.000322884
0.000991887 1.01973e-05 -6.63261e-07
1.01973e-05 4.0963e-05 -1.52968e-06
-6.63261e-07 -1.52968e-06 -1.61661e-05
0.00105268 4.27058e-05 -5.23916e-07
4.27058e-05 7.88912e-05 -3.85225e-07
-5.23916e-07 -3.85225e-07 3.98681e-06
0.0018813 5.45222e-05 -8.22164e-08
5.45222e-05 0.000288742 -4.56113e-07
-8.22164e-08 -4.56113e-07 0.000223395
0.00109861 5.27839e-05 -8.29698e-07
5.27839e-05 0.000104717 4.22108e-08
-8.29698e-07 4.22108e-08 2.26437e-05
0.00115705 6.00769e-05 -6.6763e-07
6.00769e-05 0.000134918 -1.14104e-06
-6.6763e-07 -1.14104e-06 5.26149e-05
0.000997547 5.3103e-05 -8.97676e-07
5.3103e-05 5.44651e-05 -1.17566e-07
-8.97676e-07 -1.17566e-07 -2.86263e-05
0.00143036 7.55988e-05 -4.07928e-07
7.55988e-05 0.000179838 -5.43296e-07
-4.07928e-07 -5.43296e-07 9.15635e-05
0.0012966 7.06038e-05 -7.97429e-07
7.06038e-05 7.53014e-05 1.12913e-06
-7.97429e-07 1.12913e-06 -3.15398e-06
0.00102897 6.0415e-05 9.70788e-08
6.0415e-05 6.65936e-05 -3.48286e-07
9.70788e-08 -3.48286e-07 -3.0378e-05
0.00118367 7.06066e-05 -3.51427e-06
7.06066e-05 0.000100214 -7.67779e-07
-3.51427e-06 -7.67779e-07 -7.29826e-06
0.000932658 3.33496e-05 3.71711e-07
3.33496e-05 1.7082e-05 3.94815e-07
3.71711e-07 3.94815e-07 -5.52816e-05
0.00101186 5.36823e-05 -3.6606e-07
5.36823e-05 6.06076e-05 -4.47121e-07
-3.6606e-07 -4.47121e-07 -2.38974e-05
0.00113448 6.04909e-05 -2.28569e-07
6.04909e-05 0.000121582 -7.52417e-07
-2.28569e-07 -7.52417e-07 3.23298e-05
0.00103533 5.47356e-05 -7.0363e-08
5.47356e-05 6.87111e-05 -2.72281e-07
-7.0363e-08 -2.72281e-07 -1.8504e-05
0.00185482 3.78033e-05 -4.84642e-07
3.78033e-05 0.000171181 -1.07254e-06
-4.84642e-07 -1.07254e-06 0.000119306
0.00126526 6.40552e-05 2.95909e-07
6.40552e-05 -1.39794e-05 3.86485e-08
2.95909e-07 3.86485e-08 -8.2038e-05
0.00147709 8.20702e-05 -5.47737e-07
8.20702e-05 0.000197563 5.23064e-08
-5.47737e-07 5.23064e-08 9.69264e-05
0.000874146 6.13404e-05 3.19003e-07
6.13404e-05 -1.92682e-05 4.90805e-07
3.19003e-07 4.90805e-07 -0.000133058
0.00108335 4.88342e-05 2.11321e-07
4.88342e-05 9.94211e-05 8.50919e-08
2.11321e-07 8.50919e-08 1.77144e-05
0.00156666 9.31563e-06 3.1962e-06
9.31563e-06 2.64229e-05 3.5237e-06
3.1962e-06 3.5237e-06 -3.72278e-05
0.00117863 5.94839e-05 7.45046e-07
5.94839e-05 0.000145854 3.31233e-07
7.45046e-07 3.31233e-07 5.49316e-05
0.00110455 6.07754e-05 4.95759e-07
6.07754e-05 0.000107767 1.05814e-06
4.95759e-07 1.05814e-06 1.01664e-05
0.00175493 6.51637e-05 4.70243e-06
6.51637e-05 9.01509e-05 1.26749e-06
4.70243e-06 1.26749e-06 3.8867e-05
0.00133841 8.1552e-05 3.8508e-06
8.1552e-05 6.18534e-05 -1.43391e-07
3.8508e-06 -1.43391e-07 -3.5506e-05
0.00162615 8.52717e-05 9.42598e-07
8.52717e-05 0.000332223 2.24932e-06
9.42598e-07 2.24932e-06 0.000210031
0.00105874 3.04086e-05 -5.81086e-07
3.04086e-05 8.15074e-05 -4.92675e-07
-5.81086e-07 -4.92675e-07 1.39742e-05
0.00106007 3.59078e-05 -1.07253e-08
3.59078e-05 8.59974e-05 -7.71649e-08
-1.07253e-08 -7.71649e-08 8.6993e-06
0.00107711 4.36551e-05 6.28624e-07
4.36551e-05 9.71339e-05 3.57074e-07
6.28624e-07 3.57074e-07 1.19495e-05
0.000972007 9.65292e-06 -2.44166e-08
9.65292e-06 3.46399e-05 -1.05875e-06
-2.44166e-08 -1.05875e-06 -1.24266e-05
0.000989754 1.32042e-05 7.50399e-08
1.32042e-05 4.83655e-05 -2.65857e-07
7.50399e-08 -2.65857e-07 -1.39136e-05
0.000980508 2.53043e-05 -3.66118e-07
2.53043e-05 4.41777e-05 -1.12397e-06
-3.66118e-07 -1.12397e-06 -3.09288e-05
0.000968407 -1.66157e-05 2.20925e-07
-1.66157e-05 3.30597e-05 3.4311e-08
2.20925e-07 3.4311e-08 -1.2988e-05
0.000878846 6.64291e-06 -2.4913e-07
6.64291e-06 -7.13914e-06 3.86772e-07
-2.4913e-07 3.86772e-07 -6.88619e-05
0.00107066 3.22389e-05 7.57656e-08
3.22389e-05 8.97645e-05 -4.63301e-07
7.57656e-08 -4.63301e-07 7.51077e-06
0.00102398 1.62491e-05 1.43077e-07
1.62491e-05 6.84103e-05 4.17692e-07
1.43077e-07 4.17692e-07 -4.04692e-06
0.00116285 5.3131e-05 2.26544e-07
5.3131e-05 0.000131873 1.21354e-08
2.26544e-07 1.21354e-08 4.37308e-05
0.000992166 1.11496e-05 1.37967e-07
1.11496e-05 4.6885e-05 8.14633e-07
1.37967e-07 8.14633e-07 -3.39066e-05
0.0010606 2.24673e-05 2.63083e-07
2.24673e-05 8.58637e-05 4.65638e-07
2.63083e-07 4.65638e-07 1.55956e-05
0.000986498 2.19624e-05 5.749e-07
2.19624e-05 5.1143e-05 8.47366e-07
5.749e-07 8.47366e-07 -9.90236e-06
0.00097989 -9.06172e-06 -4.28503e-07
-9.06172e-06 3.82203e-05 9.42435e-07
-4.28503e-07 9.42435e-07 -7.16712e-06
0.000931194 1.04703e-05 3.52955e-07
1.04703e-05 2.43003e-06 1.58689e-06
3.52955e-07 1.58689e-06 -2.45859e-05
0.000938401 -2.19318e-07 -2.33809e-07
-2.19318e-07 5.11107e-06 1.55196e-08
-2.33809e-07 1.55196e-08 -2.16547e-05
0.00143491 -3.79128e-06 6.27105e-07
-3.79128e-06 0.000246244 1.87282e-06
6.27105e-07 1.87282e-06 0.000249959
0.000939077 -9.85426e-06 3.25839e-08
-9.85426e-06 5.05337e-06 -1.68312e-06
3.25839e-08 -1.68312e-06 -2.1727e-05
0.00145529 -6.89937e-06 -1.19413e-06
-6.89937e-06 0.000258222 -1.2046e-06
-1.19413e-06 -1.2046e-06 0.000261778
0.00111753 -7.06255e-06 5.73536e-06
-7.06255e-06 8.48714e-05 6.32069e-06
5.73536e-06 6.32069e-06 0.000102619
0.00147429 -1.00144e-05 -3.39711e-06
-1.00144e-05 0.000270427 -4.34523e-06
-3.39711e-06 -4.34523e-06 0.000273419
0.00106904 -1.04696e-05 2.10675e-06
-1.04696e-05 6.29887e-05 2.42553e-06
2.10675e-06 2.42553e-06 8.04088e-05
0.00101541 -1.3509e-05 -1.7424e-06
-1.3509e-05 3.9723e-05 -1.58584e-06
-1.7424e-06 -1.58584e-06 5.61022e-05
0.000940987 8.37949e-06 4.3157e-07
8.37949e-06 5.60746e-06 -1.80765e-06
4.3157e-07 -1.80765e-06 -1.9764e-05
0.000858307 1.29528e-05 1.16485e-06
1.29528e-05 -4.01878e-05 -3.19523e-06
1.16485e-06 -3.19523e-06 -4.05857e-05
0.000866637 1.55933e-05 -1.03629e-07
1.55933e-05 -3.16342e-05 2.0586e-08
-1.03629e-07 2.0586e-08 -3.38928e-05
0.00225296 2.13765e-05 1.17555e-05
2.13765e-05 0.000675003 -3.8586e-06
1.17555e-05 -3.8586e-06 0.000696299
0.000874647 1.78657e-05 -2.13966e-06
1.78657e-05 -2.33964e-05 3.26388e-06
-2.13966e-06 3.26388e-06 -2.75414e-05
0.00230299 2.5451e-05 -6.93391e-07
2.5451e-05 0.000706189 -4.49204e-08
-6.93391e-07 -4.49204e-08 0.000725975
0.00236107 2.90644e-05 -1.73971e-05
2.90644e-05 0.000741769 3.94208e-06
-1.73971e-05 3.94208e-06 0.000759928
0.00137715 2.35848e-05 4.89249e-07
2.35848e-05 1.29768e-06 -5.83119e-07
4.89249e-07 -5.83119e-07 -5.72998e-05
0.00151219 -4.18582e-06 -1.18442e-06
-4.18582e-06 4.61809e-05 -2.3314e-06
-1.18442e-06 -2.3314e-06 -2.4744e-05
0.00148925 -1.64314e-05 -1.94741e-06
-1.64314e-05 4.92891e-05 -4.46509e-07
-1.94741e-06 -4.46509e-07 -3.45213e-05
0.00155194 1.60679e-05 -1.70449e-06
1.60679e-05 8.41185e-05 -6.15455e-07
-1.70449e-06 -6.15455e-07 -2.26726e-06
0.00155687 8.03458e-06 4.02363e-08
8.03458e-06 8.94295e-05 -9.69479e-08
4.02363e-08 -9.69479e-08 3.38494e-06
0.00164874 -2.39707e-05 -5.47121e-08
-2.39707e-05 0.000118679 1.33094e-08
-5.47121e-08 1.33094e-08 3.85961e-05
0.00148925 1.15047e-05 -6.31843e-07
1.15047e-05 2.23628e-05 3.75031e-07
-6.31843e-07 3.75031e-07 -3.81761e-05
0.00155746 1.20414e-06 2.46608e-06
1.20414e-06 9.26386e-05 -1.70798e-07
2.46608e-06 -1.70798e-07 9.6025e-06
0.00169825 -1.59083e-05 2.57132e-06
-1.59083e-05 0.000126279 1.88317e-06
2.57132e-06 1.88317e-06 5.06473e-05
0.00139913 -1.60326e-05 2.84571e-06
-1.60326e-05 -2.12101e-05 8.6938e-07
2.84571e-06 8.6938e-07 -8.77457e-05
0.00152403 2.35078e-05 -1.91838e-06
2.35078e-05 6.93193e-05 -3.33343e-07
-1.91838e-06 -3.33343e-07 -1.7258e-05
0.00158526 6.8451e-06 -2.53321e-06
6.8451e-06 7.64198e-05 6.83255e-07
-2.53321e-06 6.83255e-07 -6.39828e-06
0.00153406 -3.04168e-05 -2.54228e-06
-3.04168e-05 6.37126e-05 1.61269e-06
-2.54228e-06 1.61269e-06 -3.66113e-06
0.00111796 -5.83085e-05 -5.74389e-07
-5.83085e-05 0.000105992 1.00081e-06
-5.74389e-07 1.00081e-06 2.79551e-05
0.000952957 -6.00045e-05 -5.8303e-07
-6.00045e-05 2.74074e-05 2.78403e-06
-5.8303e-07 2.78403e-06 -6.44475e-05
0.00136687 -7.65016e-05 -2.72946e-06
-7.65016e-05 0.000183956 3.20019e-06
-2.72946e-06 3.20019e-06 7.78766e-05
0.00153626 -5.77864e-05 1.26514e-06
-5.77864e-05 9.4266e-05 2.15047e-06
1.26514e-06 2.15047e-06 4.39577e-05
0.00120863 -6.7952e-05 -4.24703e-06
-6.7952e-05 -4.00011e-06 -2.27709e-06
-4.24703e-06 -2.27709e-06 -7.88542e-05
0.00089107 -5.224e-05 -1.07792e-06
-5.224e-05 -5.96543e-06 4.92237e-07
-1.07792e-06 4.92237e-07 -8.62066e-05
0.00109416 -5.7069e-05 -7.93955e-07
-5.7069e-05 9.55997e-05 -9.35518e-07
-7.93955e-07 -9.35518e-07 8.8556e-06
0.00106943 -3.77675e-05 -2.57397e-07
-3.77675e-05 9.54924e-05 3.63802e-07
-2.57397e-07 3.63802e-07 9.61259e-06
0.000926844 1.39931e-05 -6.99532e-07
1.39931e-05 3.09291e-06 1.25459e-06
-6.99532e-07 1.25459e-06 -2.60113e-05
0.0010537 1.75346e-05 -1.59086e-07
1.75346e-05 7.38215e-05 1.47867e-06
-1.59086e-07 1.47867e-06 2.31066e-05
0.00104924 -3.18531e-05 -1.19151e-06
-3.18531e-05 7.86189e-05 2.02304e-06
-1.19151e-06 2.02304e-06 7.37793e-06
0.00156549 2.82677e-05 2.21742e-07
2.82677e-05 8.54972e-05 2.78461e-07
2.21742e-07 2.78461e-07 1.42354e-06
0.000934727 1.06532e-05 -2.93497e-08
1.06532e-05 4.59915e-06 8.82096e-09
-2.93497e-08 8.82096e-09 -2.26798e-05
0.000870645 -2.2131e-06 -4.85822e-07
-2.2131e-06 -1.79254e-05 1.25064e-08
-4.85822e-07 1.25064e-08 -6.22476e-05
0.00168399 5.79103e-07 1.43084e-07
5.79103e-07 0.000111902 -5.15779e-08
1.43084e-07 -5.15779e-08 3.4097e-05
0.00136496 -4.19468e-05 -5.70319e-07
-4.19468e-05 -4.34457e-05 -3.24645e-07
-5.70319e-07 -3.24645e-07 -9.2994e-05
0.000909444 -5.49151e-05 -1.04312e-07
-5.49151e-05 1.17904e-05 8.2659e-07
-1.04312e-07 8.2659e-07 -7.24045e-05
0.0013601 -7.46201e-05 -5.30482e-07
-7.46201e-05 0.000219944 3.76122e-07
-5.30482e-07 3.76122e-07 0.000112683
0.00120838 -7.45115e-05 8.028e-07
-7.45115e-05 7.44672e-05 9.20288e-07
8.028e-07 9.20288e-07 -3.38003e-05
0.00169757 -7.32308e-05 2.14296e-07
-7.32308e-05 0.000160997 -1.04642e-06
2.14296e-07 -1.04642e-06 0.000110314
0.00101736 7.89684e-07 6.10411e-07
7.89684e-07 5.63905e-05 -4.90277e-07
6.10411e-07 -4.90277e-07 8.35657e-06
0.00105566 -1.59043e-05 -5.2065e-07
-1.59043e-05 8.16331e-05 5.14409e-07
-5.2065e-07 5.14409e-07 1.49929e-05
0.00101399 -5.66445e-05 4.15567e-07
-5.66445e-05 4.89544e-05 3.67559e-07
4.15567e-07 3.67559e-07 -3.33234e-05
0.00128697 -6.43795e-05 -9.25768e-07
-6.43795e-05 0.000203355 -3.56798e-07
-9.25768e-07 -3.56798e-07 0.000112827
0.000976227 -4.57861e-05 3.45144e-07
-4.57861e-05 5.32093e-05 3.26994e-07
3.45144e-07 3.26994e-07 -4.34356e-05
0.00102245 -2.67989e-05 2.31546e-07
-2.67989e-05 6.88556e-05 -2.78621e-07
2.31546e-07 -2.78621e-07 -1.23501e-05
0.00154521 3.03188e-05 2.88501e-06
3.03188e-05 6.87537e-05 8.18237e-07
2.88501e-06 8.18237e-07 -9.32209e-06
0.00183845 -1.10261e-05 3.04097e-06
-1.10261e-05 0.000178645 -6.42509e-07
3.04097e-06 -6.42509e-07 0.000111868
0.00176437 -6.6696e-05 -2.32621e-07
-6.6696e-05 0.000107089 -3.87065e-06
-2.32621e-07 -3.87065e-06 8.2669e-05
0.00141561 -8.29419e-05 3.85551e-06
-8.29419e-05 9.68385e-05 1.5869e-06
3.85551e-06 1.5869e-06 1.11196e-05
0.00112653 -6.12617e-05 -2.97155e-07
-6.12617e-05 0.000117715 -1.64126e-06
-2.97155e-07 -1.64126e-06 2.74315e-05
0.00163195 -8.90198e-05 1.5394e-06
-8.90198e-05 0.000346391 -2.61676e-06
1.5394e-06 -2.61676e-06 0.000219876
0.000772858 1.54637e-05 -3.85306e-07
1.54637e-05 -6.78275e-05 -1.56772e-06
-3.85306e-07 -1.56772e-06 -0.000110714
0.00095928 -9.68811e-06 7.96941e-07
-9.68811e-06 2.71211e-05 -1.25365e-06
7.96941e-07 -1.25365e-06 -1.84972e-05
0.00120679 -1.67875e-05 1.53793e-07
-1.67875e-05 0.000162435 -7.45734e-07
1.53793e-07 -7.45734e-07 0.000105244
0.000880788 1.082e-05 -4.75354e-07
1.082e-05 -4.28549e-06 -1.16602e-06
-4.75354e-07 -1.16602e-06 -6.99482e-05
0.00115542 -2.65844e-05 1.2004e-08
-2.65844e-05 0.000134806 -7.11002e-07
1.2004e-08 -7.11002e-07 5.78564e-05
0.00089094 -3.03493e-05 1.01826e-07
-3.03493e-05 9.95957e-06 -4.78497e-07
1.01826e-07 -4.78497e-07 -8.12067e-05
0.00120393 -4.95473e-05 2.60867e-06
-4.95473e-05 0.000177906 -6.22184e-07
2.60867e-06 -6.22184e-07 7.36929e-05
0.000989705 -6.15539e-05 -1.17883e-07
-6.15539e-05 6.275e-05 9.94008e-08
-1.17883e-07 9.94008e-08 -2.80546e-05
0.00091929 3.47908e-05 -3.28763e-07
3.47908e-05 1.09858e-05 -4.88333e-07
-3.28763e-07 -4.88333e-07 -6.20283e-05
0.00106853 5.44027e-05 -1.38842e-06
5.44027e-05 8.89818e-05 -7.17603e-07
-1.38842e-06 -7.17603e-07 5.21683e-06
0.00167199 3.43941e-05 -3.62768e-06
3.43941e-05 8.26738e-05 -3.50183e-06
-3.62768e-06 -3.50183e-06 3.16792e-05
0.00147903 6.67247e-05 -1.46478e-06
6.67247e-05 0.000100147 4.63422e-07
-1.46478e-06 4.63422e-07 3.00718e-05
0.00122476 5.96716e-05 -1.00402e-06
5.96716e-05 0.00016218 -1.4636e-07
-1.00402e-06 -1.4636e-07 7.52385e-05
0.00113485 6.0329e-05 -9.14474e-07
6.0329e-05 0.000122888 -1.82739e-06
-9.14474e-07 -1.82739e-06 3.43815e-05
0.00175664 8.8477e-05 -1.41418e-06
8.8477e-05 0.000333147 -3.01811e-07
-1.41418e-06 -3.01811e-07 0.000233769
0.000939137 6.39089e-05 -7.73842e-07
6.39089e-05 6.67585e-06 -1.69311e-06
-7.73842e-07 -1.69311e-06 -0.000106774
0.00105362 5.10172e-05 -3.21155e-07
5.10172e-05 8.54047e-05 -4.0419e-07
-3.21155e-07 -4.0419e-07 3.44144e-06
0.00145432 8.29279e-06 8.86444e-07
8.29279e-06 -3.0026e-05 8.82241e-07
8.86444e-07 8.82241e-07 -9.21849e-05
0.00108609 5.69124e-05 2.99484e-07
5.69124e-05 9.98103e-05 3.894e-07
2.99484e-07 3.894e-07 9.20754e-06
0.000975424 5.71445e-05 2.67258e-07
5.71445e-05 4.05997e-05 -3.30143e-07
2.67258e-07 -3.30143e-07 -5.82541e-05
0.00158707 6.03707e-05 5.16339e-07
6.03707e-05 1.23958e-05 -2.63821e-07
5.16339e-07 -2.63821e-07 -3.95682e-05
0.00152783 8.76145e-05 7.10531e-07
8.76145e-05 0.000147453 -5.48822e-07
7.10531e-07 -5.48822e-07 5.08381e-05
0.00155552 8.36611e-05 1.13866e-07
8.36611e-05 0.000301924 4.75639e-07
1.13866e-07 4.75639e-07 0.00017922
0.00112502 5.39308e-05 3.15908e-07
5.39308e-05 0.000125158 1.91657e-07
3.15908e-07 1.91657e-07 3.54604e-05
0.00175486 3.90643e-05 5.40364e-06
3.90643e-05 2.0019e-05 1.14993e-06
5.40364e-06 1.14993e-06 -3.18598e-05
0.00138357 6.63218e-05 9.4802e-08
6.63218e-05 0.000238438 -2.6471e-07
9.4802e-08 -2.6471e-07 0.000143899
0.00157949 7.74846e-05 -1.46785e-06
7.74846e-05 0.000336132 1.96325e-06
-1.46785e-06 1.96325e-06 0.00022174
0.00110381 8.72531e-05 4.54795e-06
8.72531e-05 -0.000191969 2.27062e-06
4.54795e-06 2.27062e-06 -0.000271502
0.00110492 7.94744e-05 -4.58592e-09
7.94744e-05 3.61698e-05 2.70065e-06
-4.58592e-09 2.70065e-06 -8.85499e-05
0.00198524 -5.80224e-06 8.87655e-06
-5.80224e-06 0.000139197 -2.18071e-06
8.87655e-06 -2.18071e-06 0.000164657
0.0010557 3.63326e-05 -4.21568e-07
3.63326e-05 8.4378e-05 -7.16929e-07
-4.21568e-07 -7.16929e-07 7.06838e-06
0.00105221 4.41821e-05 2.26248e-08
4.41821e-05 8.5793e-05 -8.40036e-08
2.26248e-08 -8.40036e-08 4.94786e-07
0.00119264 5.55501e-05 4.90363e-07
5.55501e-05 0.000148792 9.01707e-09
4.90363e-07 9.01707e-09 5.87958e-05
0.000959824 -1.2477e-05 3.88799e-07
-1.2477e-05 2.86539e-05 -9.95996e-07
3.88799e-07 -9.95996e-07 -1.73886e-05
0.000873955 -1.02311e-05 -6.11439e-08
-1.02311e-05 -1.00327e-05 -3.10754e-07
-6.11439e-08 -3.10754e-07 -7.15736e-05
0.00114634 3.34094e-05 -3.90483e-07
3.34094e-05 0.000131913 -1.44352e-07
-3.90483e-07 -1.44352e-07 5.9621e-05
0.000996587 2.80654e-05 -4.14377e-07
2.80654e-05 5.1551e-05 -1.16887e-06
-4.14377e-07 -1.16887e-06 -3.14643e-05
0.000971756 -1.61398e-05 -2.66161e-07
-1.61398e-05 3.49208e-05 1.74315e-08
-2.66161e-07 1.74315e-08 -1.10095e-05
0.000932113 1.17292e-05 2.08127e-07
1.17292e-05 2.18036e-05 3.52977e-08
2.08127e-07 3.52977e-08 -3.88899e-05
0.00109253 4.72145e-05 -5.15817e-07
4.72145e-05 9.57605e-05 -7.86454e-07
-5.15817e-07 -7.86454e-07 7.81856e-06
0.00105281 1.24745e-05 -1.36507e-07
1.24745e-05 8.20648e-05 -3.8876e-08
-1.36507e-07 -3.8876e-08 1.18257e-05
0.00106085 1.5464e-05 1.16335e-07
1.5464e-05 8.33811e-05 -7.9015e-09
1.16335e-07 -7.9015e-09 3.15287e-06
0.00109929 4.06896e-05 5.97356e-08
4.06896e-05 9.04702e-05 8.99929e-07
5.97356e-08 8.99929e-07 1.69518e-06
0.00114387 3.54488e-05 2.26483e-07
3.54488e-05 0.000127771 1.5424e-07
2.26483e-07 1.5424e-07 4.9575e-05
0.00112326 3.13421e-05 2.71573e-07
3.13421e-05 0.000118096 2.91344e-07
2.71573e-07 2.91344e-07 4.83862e-05
0.000819478 9.14254e-06 -2.21587e-07
9.14254e-06 -3.51882e-05 7.87889e-07
-2.21587e-07 7.87889e-07 -9.64498e-05
0.000791365 9.45985e-06 4.55848e-07
9.45985e-06 -5.67485e-05 1.3026e-06
4.55848e-07 1.3026e-06 -0.000103864
0.00117222 -9.64512e-07 2.40166e-07
-9.64512e-07 0.000145771 2.15613e-07
2.40166e-07 2.15613e-07 8.48206e-05
0.000792345 -1.78162e-07 -2.79176e-07
-1.78162e-07 -5.59985e-05 1.34541e-06
-2.79176e-07 1.34541e-06 -0.000103424
0.000935044 1.1403e-05 2.60558e-07
1.1403e-05 4.86005e-06 1.61628e-06
2.60558e-07 1.61628e-06 -2.24384e-05
0.000933131 1.42709e-06 -2.82075e-07
1.42709e-06 3.45213e-06 3.16122e-09
-2.82075e-07 3.16122e-09 -2.35588e-05
0.00088421 1.81642e-07 1.39485e-07
1.81642e-07 -3.53501e-05 3.03854e-06
1.39485e-07 3.03854e-06 -3.46369e-05
0.000937612 -8.60443e-06 2.32549e-07
-8.60443e-06 4.79931e-06 -1.63722e-06
2.32549e-07 -1.63722e-06 -2.19623e-05
0.00117177 -3.15755e-06 -6.90799e-07
-3.15755e-06 0.000112005 -1.23614e-06
-6.90799e-07 -1.23614e-06 0.000114152
0.00222315 -4.85695e-06 3.26046e-06
-4.85695e-06 0.000647852 3.96739e-06
3.26046e-06 3.96739e-06 0.000671471
0.00147556 -6.58525e-06 -2.04883e-06
-6.58525e-06 0.000268813 -4.27559e-06
-2.04883e-06 -4.27559e-06 0.000272222
0.00107364 -7.26324e-06 1.0938e-06
-7.26324e-06 6.21753e-05 2.4142e-06
1.0938e-06 2.4142e-06 8.01543e-05
0.00101773 -1.03667e-05 -1.22718e-06
-1.03667e-05 3.66773e-05 -1.53735e-06
-1.22718e-06 -1.53735e-06 5.42992e-05
0.00094693 5.59133e-06 3.39094e-07
5.59133e-06 6.6145e-06 -1.76763e-06
3.39094e-07 -1.76763e-06 -1.72373e-05
0.000940639 8.0484e-06 -2.45867e-08
8.0484e-06 5.17165e-06 2.16566e-09
-2.45867e-08 2.16566e-09 -2.01656e-05
0.00086868 1.00735e-05 7.96638e-07
1.00735e-05 -3.88327e-05 -3.16219e-06
7.96638e-07 -3.16219e-06 -3.76159e-05
0.00115801 1.40953e-05 -4.24278e-07
1.40953e-05 0.00011272 2.74346e-08
-4.24278e-07 2.74346e-08 0.000113618
0.00221096 1.71574e-05 9.55696e-06
1.71574e-05 0.000649126 -3.86913e-06
9.55696e-06 -3.86913e-06 0.000671625
0.000883579 1.56536e-05 -1.74664e-06
1.56536e-05 -2.32528e-05 3.21644e-06
-1.74664e-06 3.21644e-06 -2.5583e-05
0.00225557 2.14459e-05 -7.7836e-07
2.14459e-05 0.000676963 -3.79732e-08
-7.7836e-07 -3.79732e-08 0.00069809
0.00230507 2.53667e-05 -1.51286e-05
2.53667e-05 0.000707872 3.91617e-06
-1.51286e-05 3.91617e-06 0.000727504
0.00149625 1.15961e-05 -1.93421e-06
1.15961e-05 3.04787e-05 -2.26887e-06
-1.93421e-06 -2.26887e-06 -2.84214e-05
0.00159106 -2.19767e-05 -1.95434e-06
-2.19767e-05 9.02458e-05 -3.44596e-07
-1.95434e-06 -3.44596e-07 9.27468e-06
0.00157235 4.40887e-06 -1.79689e-06
4.40887e-06 9.8192e-05 -5.24317e-07
-1.79689e-06 -5.24317e-07 1.23279e-05
0.00156411 1.77262e-06 -1.19896e-07
1.77262e-06 9.55176e-05 -5.36779e-07
-1.19896e-07 -5.36779e-07 1.24568e-05
0.00156981 -1.54336e-05 -2.3586e-07
-1.54336e-05 6.93023e-05 6.71147e-07
-2.3586e-07 6.71147e-07 -5.30829e-06
0.00145769 -1.81657e-05 1.34623e-06
-1.81657e-05 2.13814e-05 5.49962e-07
1.34623e-06 5.49962e-07 -4.76021e-05
0.00158395 3.691e-06 2.12487e-06
3.691e-06 9.7758e-05 -9.88561e-09
2.12487e-06 -9.88561e-09 2.2659e-05
0.00201274 -5.45752e-05 -1.85554e-06
-5.45752e-05 0.000171675 -6.37549e-06
-1.85554e-06 -6.37549e-06 0.000143277
0.00176474 5.60459e-06 3.72271e-06
5.60459e-06 0.000125619 8.29601e-07
3.72271e-06 8.29601e-07 7.29011e-05
0.000972118 -4.49617e-06 4.56881e-07
-4.49617e-06 3.2062e-05 -1.03699e-06
4.56881e-07 -1.03699e-06 -8.5087e-06
0.00154967 2.82271e-05 -2.53235e-06
2.82271e-05 7.83084e-05 -6.96381e-07
-2.53235e-06 -6.96381e-07 -5.28698e-06
0.00173103 -5.12101e-08 -2.72473e-06
-5.12101e-08 0.000132795 7.84234e-07
-2.72473e-06 7.84234e-07 5.52228e-05
0.00127678 -4.26015e-05 -9.68418e-07
-4.26015e-05 -8.23655e-05 2.79622e-06
-9.68418e-07 2.79622e-06 -0.000135201
0.000906815 -5.4555e-05 -1.07026e-07
-5.4555e-05 1.12967e-05 1.58423e-06
-1.07026e-07 1.58423e-06 -7.19942e-05
0.00128251 -7.28887e-05 -1.45815e-06
-7.28887e-05 0.000181914 4.44631e-06
-1.45815e-06 4.44631e-06 7.22879e-05
0.000907716 -6.62692e-05 -2.44115e-06
-6.62692e-05 -8.02941e-05 4.75451e-07
-2.44115e-06 4.75451e-07 -0.00018631
0.00142634 -7.0445e-05 -2.63003e-06
-7.0445e-05 3.09758e-05 -2.044e-06
-2.63003e-06 -2.044e-06 -2.00893e-05
0.00118044 -6.07805e-05 5.04792e-07
-6.07805e-05 0.000129867 -2.17479e-07
5.04792e-07 -2.17479e-07 4.71839e-05
0.000922559 -5.46799e-05 -4.14608e-06
-5.46799e-05 1.99756e-05 -2.69086e-06
-4.14608e-06 -2.69086e-06 -6.73715e-05
0.000891315 -4.29819e-05 -1.11284e-07
-4.29819e-05 1.27754e-05 9.00775e-07
-1.11284e-07 9.00775e-07 -8.52039e-05
0.000937388 1.04565e-05 -7.04534e-07
1.04565e-05 5.80905e-06 1.83545e-06
-7.04534e-07 1.83545e-06 -2.14838e-05
0.00105896 -2.76012e-05 2.35213e-08
-2.76012e-05 8.5769e-05 3.4467e-07
2.35213e-08 3.4467e-07 4.72415e-06
0.00122682 -1.65599e-05 -2.80272e-07
-1.65599e-05 0.000163544 7.34556e-07
-2.80272e-07 7.34556e-07 0.000116743
0.00103586 -6.44811e-06 -2.78841e-07
-6.44811e-06 7.23326e-05 1.77154e-06
-2.78841e-07 1.77154e-06 5.38817e-06
0.000767508 5.87756e-06 -1.30728e-07
5.87756e-06 -7.11867e-05 1.1951e-06
-1.30728e-07 1.1951e-06 -0.00011513
0.00157167 2.90687e-05 6.95017e-08
2.90687e-05 7.92773e-05 1.57707e-07
6.95017e-08 1.57707e-07 1.42863e-06
0.000882134 2.0869e-06 2.97413e-07
2.0869e-06 -1.30189e-05 -4.50221e-07
2.97413e-07 -4.50221e-07 -5.53254e-05
0.00096131 -1.13026e-05 -1.55822e-07
-1.13026e-05 2.84254e-05 3.22999e-08
-1.55822e-07 3.22999e-08 -1.73318e-05
0.00101658 -6.02169e-06 -5.79036e-07
-6.02169e-06 6.59392e-05 4.67785e-07
-5.79036e-07 4.67785e-07 7.58084e-06
0.00173404 -1.08609e-05 8.87419e-07
-1.08609e-05 0.000121339 4.66884e-07
8.87419e-07 4.66884e-07 5.59728e-05
0.00155913 -6.59073e-05 -1.12479e-06
-6.59073e-05 1.45101e-05 -1.18911e-06
-1.12479e-06 -1.18911e-06 -1.40057e-05
0.00101752 -5.89877e-05 -2.5849e-07
-5.89877e-05 5.93665e-05 6.08399e-07
-2.5849e-07 6.08399e-07 -2.9522e-05
0.00117693 -7.70097e-05 1.01507e-06
-7.70097e-05 0.000127066 -5.52235e-07
1.01507e-06 -5.52235e-07 1.16489e-07
0.00136171 -8.20711e-05 -1.44016e-07
-8.20711e-05 7.12097e-05 8.76752e-07
-1.44016e-07 8.76752e-07 -1.35334e-05
0.000965867 6.49512e-06 -1.44597e-07
6.49512e-06 3.85258e-05 3.18414e-08
-1.44597e-07 3.18414e-08 -2.57945e-05
0.00112324 -2.85228e-05 1.8933e-09
-2.85228e-05 0.000118868 -2.37089e-08
1.8933e-09 -2.37089e-08 4.09342e-05
0.000941503 -5.98777e-05 -1.73233e-06
-5.98777e-05 3.76143e-05 1.91929e-07
-1.73233e-06 1.91929e-07 -5.40326e-05
0.00116771 -4.50006e-05 1.89622e-07
-4.50006e-05 0.000159386 -2.01578e-07
1.89622e-07 -2.01578e-07 5.65306e-05
0.000981838 -3.66655e-05 -3.90456e-08
-3.66655e-05 5.51211e-05 6.22463e-07
-3.90456e-08 6.22463e-07 -3.54904e-05
0.00141181 2.40981e-05 3.36773e-06
2.40981e-05 -2.52056e-05 2.35476e-07
3.36773e-06 2.35476e-07 -9.80078e-05
0.00206967 -3.82906e-05 3.07397e-06
-3.82906e-05 0.000226675 -3.41165e-06
3.07397e-06 -3.41165e-06 0.000200278
0.00189297 -9.57867e-05 5.33583e-06
-9.57867e-05 0.000211164 -9.02587e-07
5.33583e-06 -9.02587e-07 0.000153208
0.00157916 -9.40174e-05 1.34816e-06
-9.40174e-05 0.000275143 -1.82568e-06
1.34816e-06 -1.82568e-06 0.000156437
0.0010325 -6.81783e-05 7.59389e-07
-6.81783e-05 8.85714e-05 -2.85495e-06
7.59389e-07 -2.85495e-06 -1.88136e-05
0.000782603 1.49328e-05 4.84295e-08
1.49328e-05 -5.19884e-05 -1.3066e-06
4.84295e-08 -1.3066e-06 -0.000109344
0.000889382 1.30723e-05 3.56203e-07
1.30723e-05 1.43763e-06 -1.30095e-06
3.56203e-07 -1.30095e-06 -6.11127e-05
0.00114577 1.30562e-05 2.86796e-07
1.30562e-05 0.000134737 -2.5454e-07
2.86796e-07 -2.5454e-07 6.56607e-05
0.00107945 -3.64389e-05 6.18142e-07
-3.64389e-05 0.000100791 -9.71541e-07
6.18142e-07 -9.71541e-07 2.43749e-05
0.00107279 -3.49827e-05 -5.53231e-10
-3.49827e-05 9.69038e-05 -3.32568e-08
-5.53231e-10 -3.32568e-08 1.128e-05
0.00108422 -3.70621e-05 -4.21133e-08
-3.70621e-05 0.000116215 -1.64529e-06
-4.21133e-08 -1.64529e-06 1.81925e-05
0.000997743 -5.10483e-05 4.25888e-06
-5.10483e-05 9.94013e-05 -4.52505e-07
4.25888e-06 -4.52505e-07 -2.21607e-05
0.00101979 5.27667e-05 -7.75641e-07
5.27667e-05 6.94053e-05 -9.5768e-07
-7.75641e-07 -9.5768e-07 -1.27985e-05
0.000985549 5.41558e-05 -9.91835e-08
5.41558e-05 4.99955e-05 2.80527e-07
-9.91835e-08 2.80527e-07 -4.02979e-05
0.0013681 6.4781e-06 -2.30868e-06
6.4781e-06 -7.43779e-05 -1.09554e-06
-2.30868e-06 -1.09554e-06 -0.000134928
0.00143268 5.56847e-05 -1.86428e-06
5.56847e-05 -5.91208e-05 -1.96472e-06
-1.86428e-06 -1.96472e-06 -0.000111699
0.0016884 9.33e-05 -2.44651e-06
9.33e-05 0.000218483 -1.00162e-06
-2.44651e-06 -1.00162e-06 0.000122652
0.000804675 5.25562e-05 -8.04867e-08
5.25562e-05 -4.74306e-05 -1.26508e-06
-8.04867e-08 -1.26508e-06 -0.00014746
0.00144637 8.12642e-05 -3.30819e-07
8.12642e-05 0.000252268 -8.88851e-07
-3.30819e-07 -8.88851e-07 0.000129925
0.00112158 5.54041e-05 9.30849e-08
5.54041e-05 0.000124044 9.34935e-08
9.30849e-08 9.34935e-08 3.47469e-05
0.00155972 3.773e-05 -1.98713e-06
3.773e-05 -7.91197e-05 1.55816e-07
-1.98713e-06 1.55816e-07 -0.000130859
0.00119378 6.09521e-05 -2.98175e-07
6.09521e-05 0.000146344 -3.75724e-07
-2.98175e-07 -3.75724e-07 5.23909e-05
0.0012395 6.73189e-05 -2.5517e-07
6.73189e-05 0.000176527 4.37209e-07
-2.5517e-07 4.37209e-07 6.23449e-05
0.00156377 9.14726e-05 2.34208e-06
9.14726e-05 1.81958e-05 -9.49041e-07
2.34208e-06 -9.49041e-07 -5.89935e-05
0.00124433 8.34474e-05 -9.95667e-07
8.34474e-05 0.0001122 9.51309e-07
-9.95667e-07 9.51309e-07 -1.82862e-05
0.00186876 -9.5745e-06 -3.10165e-06
-9.5745e-06 6.54065e-05 -1.30354e-06
-3.10165e-06 -1.30354e-06 7.90192e-05
0.00116165 5.88989e-05 -3.64438e-07
5.88989e-05 0.000137486 -7.66478e-07
-3.64438e-07 -7.66478e-07 4.45514e-05
0.00142448 0.000101895 8.81902e-06
0.000101895 -0.000169887 2.53065e-06
8.81902e-06 2.53065e-06 -0.000233686
0.00129606 6.55101e-05 -1.40945e-06
6.55101e-05 0.000204096 -6.14398e-07
-1.40945e-06 -6.14398e-07 0.000104461
0.00106373 6.84691e-05 -1.73381e-06
6.84691e-05 0.000119276 1.53879e-06
-1.73381e-06 1.53879e-06 -1.92696e-05
0.000791799 9.78263e-05 1.41854e-07
9.78263e-05 -0.000186868 9.02193e-07
1.41854e-07 9.02193e-07 -0.000300389
0.00575421 -9.76101e-05 -1.9278e-05
-9.76101e-05 0.00202658 2.16645e-06
-1.9278e-05 2.16645e-06 0.00149929
0.00219676 -0.000129051 5.0409e-05
-0.000129051 0.000240379 1.78615e-05
5.0409e-05 1.78615e-05 2.58439e-05
0.0018583 7.61371e-05 5.80351e-06
7.61371e-05 0.000134984 4.97118e-06
5.80351e-06 4.97118e-06 0.000188613
-0.00233829 -0.000118458 -4.9316e-05
-0.000118458 -0.00133479 -2.08391e-05
-4.9316e-05 -2.08391e-05 -0.00134042
0.00140691 -0.000181921 -1.07024e-05
-0.000181921 -7.31104e-05 -1.45978e-06
-1.07024e-05 -1.45978e-06 0.0004269
0.00103374 4.42641e-05 -4.83297e-07
4.42641e-05 7.74324e-05 -5.65518e-07
-4.83297e-07 -5.65518e-07 -7.92514e-06
0.00115187 5.38602e-05 -6.54974e-08
5.38602e-05 0.000129835 -4.38012e-08
-6.54974e-08 -4.38012e-08 3.99313e-05
0.00113787 5.53675e-05 5.29195e-07
5.53675e-05 0.000106594 4.94204e-07
5.29195e-07 4.94204e-07 1.49084e-05
0.000963031 -2.24288e-05 1.7263e-07
-2.24288e-05 3.12808e-05 -8.95596e-07
1.7263e-07 -8.95596e-07 -1.51618e-05
0.000871671 1.86867e-05 1.24284e-08
1.86867e-05 -9.02952e-06 -9.16228e-07
1.24284e-08 -9.16228e-07 -7.03845e-05
0.0010439 2.66395e-07 4.61887e-08
2.66395e-07 7.71823e-05 -5.57e-07
4.61887e-08 -5.57e-07 7.33048e-06
0.00112473 2.30169e-05 -1.88136e-07
2.30169e-05 0.000117725 -6.39812e-07
-1.88136e-07 -6.39812e-07 3.79931e-05
0.0010451 4.04118e-05 -9.05469e-07
4.04118e-05 7.05697e-05 -1.32567e-06
-9.05469e-07 -1.32567e-06 -1.71019e-05
0.0010379 3.43173e-05 -2.89816e-07
3.43173e-05 7.48753e-05 -4.8275e-07
-2.89816e-07 -4.8275e-07 3.79102e-06
0.000880222 6.1101e-06 1.65023e-07
6.1101e-06 -1.12919e-05 4.36779e-07
1.65023e-07 4.36779e-07 -5.81048e-05
0.000917159 4.80103e-06 -8.01121e-08
4.80103e-06 1.47178e-05 5.46351e-08
-8.01121e-08 5.46351e-08 -4.59613e-05
0.00108968 4.15792e-05 -2.4985e-09
4.15792e-05 8.82758e-05 1.18269e-07
-2.4985e-09 1.18269e-07 -3.24916e-08
0.00109481 3.40334e-05 -1.15146e-07
3.40334e-05 0.000102165 -4.0545e-07
-1.15146e-07 -4.0545e-07 2.37216e-05
0.00113732 5.3624e-05 -3.92397e-08
5.3624e-05 0.000126215 -1.75228e-07
-3.92397e-08 -1.75228e-07 4.78474e-05
0.00114804 5.17925e-05 3.01594e-07
5.17925e-05 0.000125655 9.71736e-07
3.01594e-07 9.71736e-07 3.80859e-05
0.000890141 2.32025e-05 2.47815e-07
2.32025e-05 -1.96687e-06 1.26183e-06
2.47815e-07 1.26183e-06 -7.36337e-05
0.000849921 3.3939e-06 3.42361e-07
3.3939e-06 -2.00469e-05 1.60601e-07
3.42361e-07 1.60601e-07 -8.13899e-05
0.000767482 -2.68989e-05 -1.01196e-06
-2.68989e-05 -6.72796e-05 1.34295e-06
-1.01196e-06 1.34295e-06 -0.000115247
0.00104925 7.59049e-06 -1.75298e-08
7.59049e-06 8.12182e-05 5.74003e-07
-1.75298e-08 5.74003e-07 2.04907e-05
0.00116891 3.25049e-05 2.03223e-07
3.25049e-05 0.00014292 3.55761e-07
2.03223e-07 3.55761e-07 7.19843e-05
0.000989023 -8.56305e-06 -2.40569e-07
-8.56305e-06 5.22e-05 7.81025e-07
-2.40569e-07 7.81025e-07 -1.07575e-05
0.0010159 1.47421e-06 3.51203e-07
1.47421e-06 6.53293e-05 -4.79428e-07
3.51203e-07 -4.79428e-07 4.05979e-06
0.000962052 -2.30736e-05 -8.01896e-07
-2.30736e-05 3.14774e-05 8.7328e-07
-8.01896e-07 8.7328e-07 -1.60007e-05
0.000789773 3.76308e-06 1.64057e-07
3.76308e-06 -5.62215e-05 4.6404e-07
1.64057e-07 4.6404e-07 -0.000104216
0.000939405 9.76756e-06 -3.76847e-09
9.76756e-06 7.0221e-06 1.63795e-06
-3.76847e-09 1.63795e-06 -2.06271e-05
0.000933279 2.17599e-06 -2.22391e-07
2.17599e-06 3.88247e-06 -3.79171e-09
-2.22391e-07 -3.79171e-09 -2.33573e-05
0.000903366 3.10965e-06 -3.53831e-07
3.10965e-06 -2.48998e-05 4.2772e-06
-3.53831e-07 4.2772e-06 -2.44817e-05
0.000935011 -7.91747e-06 3.83454e-07
-7.91747e-06 4.45137e-06 -1.59442e-06
3.83454e-07 -1.59442e-06 -2.25551e-05
0.000887863 1.22842e-07 8.8694e-08
1.22842e-07 -3.34842e-05 4.54205e-09
8.8694e-08 4.54205e-09 -3.27909e-05
0.00222116 -9.05883e-07 -3.46945e-09
-9.05883e-07 0.000646192 3.9765e-06
-3.46945e-09 3.9765e-06 0.000669913
0.000904993 -2.79889e-06 -4.51584e-07
-2.79889e-06 -2.4043e-05 -4.30176e-06
-4.51584e-07 -4.30176e-06 -2.34741e-05
0.00164501 -4.23288e-06 -1.24499e-07
-4.23288e-06 0.00035234 2.2993e-08
-1.24499e-07 2.2993e-08 0.000373191
0.00102991 -6.95417e-06 -7.56226e-07
-6.95417e-06 3.95486e-05 -1.5179e-06
-7.56226e-07 -1.5179e-06 5.77863e-05
0.000949872 2.90212e-06 1.47031e-07
2.90212e-06 6.72694e-06 -1.79038e-06
1.47031e-07 -1.79038e-06 -1.6202e-05
0.00094486 5.18858e-06 2.56635e-09
5.18858e-06 5.26708e-06 -6.56687e-09
2.56635e-09 -6.56687e-09 -1.85424e-05
0.000878298 6.90603e-06 5.38733e-07
6.90603e-06 -3.69169e-05 -3.12865e-06
5.38733e-07 -3.12865e-06 -3.44223e-05
0.000940286 7.75543e-06 -5.42789e-07
7.75543e-06 4.74102e-06 1.79814e-06
-5.42789e-07 1.79814e-06 -2.05618e-05
0.00115059 1.08783e-05 -1.4719e-07
1.08783e-05 0.000104921 -5.98834e-07
-1.4719e-07 -5.98834e-07 0.000107517
0.00217289 1.28755e-05 7.19787e-06
1.28755e-05 0.000626049 -3.86295e-06
7.19787e-06 -3.86295e-06 0.000649587
0.000882079 1.31254e-05 -1.37454e-06
1.31254e-05 -2.81056e-05 3.19589e-06
-1.37454e-06 3.19589e-06 -2.88043e-05
0.00223585 1.67749e-05 -3.72252e-06
1.67749e-05 0.000662736 1.1266e-06
-3.72252e-06 1.1266e-06 0.000684934
0.00226042 2.14741e-05 -1.29264e-05
2.14741e-05 0.000680054 3.92918e-06
-1.29264e-05 3.92918e-06 0.000701006
0.00139513 -1.43197e-05 -2.33075e-06
-1.43197e-05 -9.54154e-06 -2.96194e-07
-2.33075e-06 -2.96194e-07 -8.31927e-05
0.00156852 1.78626e-06 -2.45469e-06
1.78626e-06 9.72623e-05 -9.69942e-07
-2.45469e-06 -9.69942e-07 1.41671e-05
0.00144229 -1.86517e-05 2.00551e-06
-1.86517e-05 2.85591e-05 3.90787e-07
2.00551e-06 3.90787e-07 -4.30001e-05
0.00185714 -4.61057e-05 -1.25563e-06
-4.61057e-05 0.000104665 -1.79142e-06
-1.25563e-06 -1.79142e-06 7.22228e-05
0.00148022 1.99531e-06 -7.49656e-07
1.99531e-06 4.62182e-05 -2.85391e-07
-7.49656e-07 -2.85391e-07 -2.93613e-05
0.00135462 5.94312e-06 -8.18369e-07
5.94312e-06 -6.73497e-05 -5.05134e-07
-8.18369e-07 -5.05134e-07 -0.00012545
0.00179776 3.05691e-05 2.18635e-06
3.05691e-05 0.000132777 2.3662e-06
2.18635e-06 2.3662e-06 5.29665e-05
0.00232702 -0.000114772 0.000134803
-0.000114772 0.000417815 3.88348e-05
0.000134803 3.88348e-05 0.000183632
0.00135346 -1.02052e-05 -3.84576e-06
-1.02052e-05 4.54237e-05 9.25422e-07
-3.84576e-06 9.25422e-07 -1.42636e-06
0.000969653 5.80581e-07 -3.29236e-07
5.80581e-07 3.15857e-05 -1.0707e-06
-3.29236e-07 -1.0707e-06 -8.93844e-06
0.000975012 -1.45988e-05 3.07396e-07
-1.45988e-05 3.38157e-05 -6.00754e-09
3.07396e-07 -6.00754e-09 -7.0783e-06
0.000985946 3.19348e-06 -1.93939e-07
3.19348e-06 4.93809e-05 -6.31208e-07
-1.93939e-07 -6.31208e-07 -4.10953e-06
0.000998072 -1.46999e-05 -2.60799e-07
-1.46999e-05 5.60733e-05 -2.51044e-07
-2.60799e-07 -2.51044e-07 1.62669e-06
0.00161578 2.80934e-05 -2.63162e-06
2.80934e-05 9.8733e-05 -8.51127e-07
-2.63162e-06 -8.51127e-07 2.10452e-05
0.00168893 -1.08462e-05 -7.22615e-07
-1.08462e-05 9.4442e-05 1.62801e-06
-7.22615e-07 1.62801e-06 3.01777e-05
0.0013365 -6.50019e-05 -3.98998e-06
-6.50019e-05 -8.63183e-05 1.16302e-06
-3.98998e-06 1.16302e-06 -0.000119172
0.000952166 -5.7834e-05 -2.82971e-07
-5.7834e-05 2.29459e-05 2.84705e-06
-2.82971e-07 2.84705e-06 -6.46684e-05
0.000810199 -6.68649e-05 -6.49979e-08
-6.68649e-05 -4.80375e-05 2.30627e-06
-6.49979e-08 2.30627e-06 -0.000174553
0.00114076 -7.77269e-05 -2.96778e-06
-7.77269e-05 -3.85381e-05 -7.48285e-07
-2.96778e-06 -7.48285e-07 -0.000121742
0.000890557 -5.81105e-05 -4.12021e-06
-5.81105e-05 1.14827e-05 1.23018e-06
-4.12021e-06 1.23018e-06 -8.10659e-05
0.00110293 -3.86798e-05 -1.04581e-06
-3.86798e-05 0.000126247 3.7876e-07
-1.04581e-06 3.7876e-07 2.50518e-05
0.00106968 -4.32545e-05 -4.83328e-07
-4.32545e-05 9.88244e-05 1.61889e-06
-4.83328e-07 1.61889e-06 8.74404e-06
0.000964627 -1.48335e-06 -6.65995e-07
-1.48335e-06 3.01887e-05 1.27274e-06
-6.65995e-07 1.27274e-06 -1.5601e-05
0.00109075 -3.29059e-05 -1.0835e-07
-3.29059e-05 0.00010266 8.44934e-07
-1.0835e-07 8.44934e-07 2.37909e-05
0.00105404 5.60578e-06 -5.23375e-07
5.60578e-06 8.26602e-05 1.09498e-06
-5.23375e-07 1.09498e-06 1.97913e-05
0.000990718 -5.74785e-06 -8.96873e-08
-5.74785e-06 4.15913e-05 6.00451e-07
-8.96873e-08 6.00451e-07 -2.18572e-07
0.000814642 1.38216e-05 -4.18613e-08
1.38216e-05 -3.55301e-05 1.71549e-06
-4.18613e-08 1.71549e-06 -9.55101e-05
0.00158844 2.43513e-05 -1.43668e-07
2.43513e-05 6.80107e-05 1.29672e-06
-1.43668e-07 1.29672e-06 -3.93058e-06
0.000973478 1.26742e-05 1.19505e-07
1.26742e-05 4.39657e-05 -4.97305e-07
1.19505e-07 -4.97305e-07 -1.1679e-05
0.000944404 -6.41307e-08 3.98466e-07
-6.41307e-08 2.97893e-05 4.47601e-09
3.98466e-07 4.47601e-09 -3.19589e-05
0.00102517 2.33209e-05 -1.22463e-07
2.33209e-05 7.26198e-05 9.59528e-07
-1.22463e-07 9.59528e-07 4.17196e-06
0.0019136 -4.03268e-05 -2.5859e-06
-4.03268e-05 0.000154506 1.04729e-06
-2.5859e-06 1.04729e-06 0.000122909
0.00138835 -8.56269e-05 -1.09071e-06
-8.56269e-05 -3.4384e-05 -1.40553e-06
-1.09071e-06 -1.40553e-06 -8.9931e-05
0.00106569 -6.8981e-05 6.93405e-08
-6.8981e-05 0.000101738 -3.15975e-07
6.93405e-08 -3.15975e-07 -5.24029e-06
0.00140961 -9.03079e-05 1.27451e-07
-9.03079e-05 0.000195487 1.20857e-07
1.27451e-07 1.20857e-07 7.65881e-05
0.00111761 -2.50201e-05 -2.05399e-07
-2.50201e-05 0.000119574 9.24385e-08
-2.05399e-07 9.24385e-08 4.42674e-05
0.0010291 -3.45688e-05 -2.3855e-07
-3.45688e-05 7.39681e-05 7.30978e-07
-2.3855e-07 7.30978e-07 -1.12498e-05
0.0010159 -5.14406e-05 1.73393e-06
-5.14406e-05 0.000102998 -3.76064e-07
1.73393e-06 -3.76064e-07 -1.3624e-05
0.00116249 -4.25811e-05 7.32427e-08
-4.25811e-05 0.00015548 -5.38355e-07
7.32427e-08 -5.38355e-07 5.56906e-05
0.00101016 1.53241e-05 4.31458e-06
1.53241e-05 -0.00029054 -6.43642e-07
4.31458e-06 -6.43642e-07 -0.000350357
0.00231772 -0.000100005 1.07215e-05
-0.000100005 0.000267658 -5.94444e-06
1.07215e-05 -5.94444e-06 0.000236934
0.00179622 -0.000105876 5.65441e-06
-0.000105876 0.000291889 -1.3332e-06
5.65441e-06 -1.3332e-06 0.00017837
0.00113043 -8.19966e-05 8.15013e-07
-8.19966e-05 0.000138199 -2.14781e-06
8.15013e-07 -2.14781e-06 1.75409e-05
0.000945411 1.58513e-05 -4.7788e-07
1.58513e-05 3.47253e-05 -7.90066e-07
-4.7788e-07 -7.90066e-07 -3.76554e-05
0.000963586 -3.36575e-05 8.4154e-07
-3.36575e-05 4.47621e-05 -1.70331e-06
8.4154e-07 -1.70331e-06 -2.93471e-05
0.00103434 -5.16005e-05 6.38155e-07
-5.16005e-05 8.1852e-05 -1.15344e-06
6.38155e-07 -1.15344e-06 -8.31255e-06
0.00111851 -2.93561e-05 -4.90556e-07
-2.93561e-05 0.000149849 -9.24379e-07
-4.90556e-07 -9.24379e-07 2.29523e-05
0.000675405 -9.27965e-06 -9.77852e-06
-9.27965e-06 -0.000304235 -1.58331e-06
-9.77852e-06 -1.58331e-06 -0.000806556
0.00110942 5.61546e-05 -2.29409e-07
5.61546e-05 0.000118572 -2.15732e-07
-2.29409e-07 -2.15732e-07 2.97491e-05
0.000981549 5.4927e-05 4.74567e-07
5.4927e-05 4.27629e-05 3.61846e-07
4.74567e-07 3.61846e-07 -5.05136e-05
0.00157394 3.91684e-05 -6.39536e-06
3.91684e-05 -8.07681e-05 -4.84718e-07
-6.39536e-06 -4.84718e-07 -0.000132336
0.00187231 9.30228e-05 -3.71788e-06
9.30228e-05 0.0001564 -1.43946e-06
-3.71788e-06 -1.43946e-06 8.15473e-05
0.00135024 8.68025e-05 -1.87732e-06
8.68025e-05 0.000173236 -9.26191e-07
-1.87732e-06 -9.26191e-07 3.61613e-05
0.000935678 5.80326e-05 1.26342e-06
5.80326e-05 3.5954e-05 1.92706e-07
1.26342e-06 1.92706e-07 -7.83413e-05
0.00140092 -1.97848e-07 -8.75429e-06
-1.97848e-07 -0.000193812 -3.11023e-06
-8.75429e-06 -3.11023e-06 -0.000172653
0.00114518 5.80854e-05 4.0145e-08
5.80854e-05 0.000131095 -9.68461e-08
4.0145e-08 -9.68461e-08 3.83633e-05
0.00177943 0.000106977 4.94638e-07
0.000106977 -1.44885e-05 -2.03857e-08
4.94638e-07 -2.03857e-08 -7.7515e-05
0.00110254 5.98663e-05 6.67052e-07
5.98663e-05 0.000111743 1.3147e-08
6.67052e-07 1.3147e-08 1.22221e-05
0.00107932 6.92622e-05 -2.79711e-07
6.92622e-05 0.000126683 -7.14729e-08
-2.79711e-07 -7.14729e-08 -9.47736e-06
0.000728372 9.47222e-05 -2.41528e-06
9.47222e-05 -0.000221353 -3.65938e-08
-2.41528e-06 -3.65938e-08 -0.000331639
0.00158032 -9.16269e-05 -1.36353e-05
-9.16269e-05 0.000204081 -5.35623e-06
-1.36353e-05 -5.35623e-06 -0.00033689
0.00237494 -0.0001193 3.61483e-06
-0.0001193 0.000154932 -3.06144e-06
3.61483e-06 -3.06144e-06 -0.000123434
0.00144119 8.07629e-05 9.28925e-07
8.07629e-05 -7.8178e-05 -1.05427e-06
9.28925e-07 -1.05427e-06 -1.39997e-05
-0.000344242 -0.000135799 -9.00229e-06
-0.000135799 -0.00047329 -5.36872e-06
-9.00229e-06 -5.36872e-06 -0.000557611
0.000542195 -0.000184786 -1.73504e-06
-0.000184786 -0.000479588 -3.37793e-07
-1.73504e-06 -3.37793e-07 -3.15768e-05
0.0011002 5.77401e-05 1.14576e-06
5.77401e-05 0.000110184 -5.18237e-07
1.14576e-06 -5.18237e-07 1.70425e-05
-9.34338e-05 3.66454e-05 -0.000103938
3.66454e-05 -0.000373717 -1.01923e-05
-0.000103938 -1.01923e-05 -0.000588298
0.00235941 -9.03814e-05 -2.98376e-06
-9.03814e-05 0.000889943 -4.46899e-06
-2.98376e-06 -4.46899e-06 0.00107264
0.00148878 0.000131755 5.83117e-06
0.000131755 -2.63981e-05 6.33773e-06
5.83117e-06 6.33773e-06 -8.56277e-05
0.000797873 3.4591e-05 -3.10744e-07
3.4591e-05 -2.97429e-05 -1.09214e-06
-3.10744e-07 -1.09214e-06 -0.00014014
0.00163485 6.26087e-05 -3.81548e-06
6.26087e-05 0.000439798 2.16704e-06
-3.81548e-06 2.16704e-06 0.00026846
0.0014839 6.0393e-05 7.16089e-07
6.0393e-05 9.77978e-05 1.70453e-07
7.16089e-07 1.70453e-07 4.73948e-05
0.00494383 -0.000196548 -7.26195e-05
-0.000196548 0.00147075 -1.60128e-05
-7.26195e-05 -1.60128e-05 0.000705583
0.00243864 -3.99678e-05 3.03477e-05
-3.99678e-05 0.000174305 2.31467e-05
3.03477e-05 2.31467e-05 -0.000150945
0.00035107 -0.000218915 -5.58222e-05
-0.000218915 -0.00010431 -2.97615e-05
-5.58222e-05 -2.97615e-05 -5.48354e-06
-0.0006273 -9.02128e-05 -4.62514e-06
-9.02128e-05 -0.00120763 4.40928e-06
-4.62514e-06 4.40928e-06 -0.000971009
0.0010772 5.07919e-05 -8.759e-07
5.07919e-05 9.44235e-05 -5.314e-07
-8.759e-07 -5.314e-07 4.68311e-06
0.0011542 5.70437e-05 -5.02441e-07
5.70437e-05 0.000116814 2.72555e-07
-5.02441e-07 2.72555e-07 2.48962e-05
0.00123714 6.01912e-05 -3.24681e-07
6.01912e-05 0.000146312 1.27114e-08
-3.24681e-07 1.27114e-08 5.25603e-05
0.00096663 2.80352e-06 1.15734e-08
2.80352e-06 3.32948e-05 -4.27295e-07
1.15734e-08 -4.27295e-07 -1.34538e-05
0.00101289 -5.19054e-06 9.8261e-08
-5.19054e-06 6.3368e-05 -8.40369e-07
9.8261e-08 -8.40369e-07 3.46307e-06
0.000953628 2.23598e-05 -5.63852e-07
2.23598e-05 3.03231e-05 -1.09741e-06
-5.63852e-07 -1.09741e-06 -4.09228e-05
0.00104733 3.37867e-05 -1.89193e-07
3.37867e-05 7.73609e-05 -9.33183e-07
-1.89193e-07 -9.33183e-07 -1.45317e-06
0.00107788 3.94854e-05 -4.48036e-07
3.94854e-05 8.49919e-05 -8.59123e-07
-4.48036e-07 -8.59123e-07 -2.82623e-06
0.000777768 -5.05912e-06 3.00629e-07
-5.05912e-06 -6.26125e-05 4.48936e-07
3.00629e-07 4.48936e-07 -0.000110359
0.00106635 4.42118e-05 -3.98031e-07
4.42118e-05 8.91437e-05 -6.64672e-07
-3.98031e-07 -6.64672e-07 1.12842e-05
0.00104477 7.01796e-06 -4.84351e-08
7.01796e-06 7.71783e-05 4.56043e-07
-4.84351e-08 4.56043e-07 6.26034e-06
0.000936194 1.14102e-05 1.6481e-07
1.14102e-05 2.36638e-05 -3.48862e-07
1.6481e-07 -3.48862e-07 -3.72703e-05
0.00102933 4.97829e-05 4.21102e-08
4.97829e-05 6.41136e-05 2.32518e-07
4.21102e-08 2.32518e-07 -2.43842e-05
0.0010571 3.84447e-05 4.28483e-08
3.84447e-05 8.18114e-05 4.59698e-07
4.28483e-08 4.59698e-07 2.09674e-07
0.00121782 5.3032e-05 2.35742e-07
5.3032e-05 0.00017402 6.30829e-07
2.35742e-07 6.30829e-07 7.56096e-05
0.00101825 -3.11881e-05 -2.78038e-07
-3.11881e-05 6.4147e-05 4.89351e-07
-2.78038e-07 4.89351e-07 -6.52139e-06
0.00103572 -2.28459e-05 -2.60316e-07
-2.28459e-05 7.3625e-05 1.1331e-07
-2.60316e-07 1.1331e-07 1.31209e-05
0.00104977 -2.74988e-06 -2.38387e-07
-2.74988e-06 8.10995e-05 -5.66324e-08
-2.38387e-07 -5.66324e-08 2.07268e-05
0.00104906 1.62484e-05 -1.62623e-07
1.62484e-05 8.05906e-05 -4.19321e-07
-1.62623e-07 -4.19321e-07 9.41213e-06
0.00104367 1.24013e-05 9.57789e-08
1.24013e-05 7.89628e-05 7.46223e-07
9.57789e-08 7.46223e-07 7.05492e-06
0.00102644 4.41399e-06 -1.28765e-08
4.41399e-06 6.97925e-05 8.2811e-07
-1.28765e-08 8.2811e-07 -2.76369e-06
0.00111345 1.35142e-05 -1.58631e-09
1.35142e-05 0.000109728 -7.23833e-08
-1.58631e-09 -7.23833e-08 3.21222e-05
0.00100262 -2.75164e-05 -3.33726e-07
-2.75164e-05 6.45487e-05 1.05917e-06
-3.33726e-07 1.05917e-06 -1.59731e-05
0.000996027 -1.0074e-05 -1.84414e-07
-1.0074e-05 5.37345e-05 8.70637e-07
-1.84414e-07 8.70637e-07 -1.06862e-05
0.00098677 -1.00081e-05 3.14814e-08
-1.00081e-05 5.07155e-05 -2.31468e-08
3.14814e-08 -2.31468e-08 -1.19449e-05
0.00096611 -9.89395e-06 -6.31818e-07
-9.89395e-06 3.26318e-05 9.47008e-07
-6.31818e-07 9.47008e-07 -1.56278e-05
0.000863526 1.42471e-06 2.58958e-07
1.42471e-06 -1.35274e-05 -1.14682e-06
2.58958e-07 -1.14682e-06 -7.49229e-05
0.000877044 -1.06197e-05 1.71181e-07
-1.06197e-05 -1.22965e-05 -1.89298e-09
1.71181e-07 -1.89298e-09 -5.99431e-05
0.000944717 7.30336e-06 -2.95456e-07
7.30336e-06 9.99055e-06 1.67323e-06
-2.95456e-07 1.67323e-06 -1.83781e-05
0.000791592 3.18084e-06 1.43664e-07
3.18084e-06 -5.5211e-05 -4.49309e-07
1.43664e-07 -4.49309e-07 -0.000103175
0.00093777 1.92161e-06 -1.73392e-07
1.92161e-06 6.08797e-06 -1.52356e-08
-1.73392e-07 -1.52356e-08 -2.15331e-05
0.00147639 6.63123e-06 -2.32607e-06
6.63123e-06 0.000269572 4.24795e-06
-2.32607e-06 4.24795e-06 0.000272476
0.000931897 -7.00269e-06 5.47584e-07
-7.00269e-06 3.15979e-06 -1.60552e-06
5.47584e-07 -1.60552e-06 -2.40623e-05
0.00118444 3.3581e-06 -8.50939e-07
3.3581e-06 0.00011874 6.09365e-07
-8.50939e-07 6.09365e-07 0.000120611
0.00107987 2.00531e-06 -1.91948e-06
2.00531e-06 6.28685e-05 3.85681e-06
-1.91948e-06 3.85681e-06 8.09068e-05
0.000891527 6.14509e-08 3.68177e-08
6.14509e-08 -3.16035e-05 -3.02641e-06
3.68177e-08 -3.02641e-06 -3.0932e-05
0.00221892 -6.83128e-07 1.17619e-06
-6.83128e-07 0.000645046 7.2475e-11
1.17619e-06 7.2475e-11 0.000668775
0.00107599 -2.95769e-06 -9.57205e-07
-2.95769e-06 6.14078e-05 -3.86334e-06
-9.57205e-07 -3.86334e-06 7.95032e-05
0.000973221 2.17729e-05 1.91641e-07
2.17729e-05 3.37203e-05 -5.32366e-07
1.91641e-07 -5.32366e-07 -7.54297e-06
0.000950893 5.34079e-07 5.74638e-08
5.34079e-07 6.94723e-06 -1.78677e-06
5.74638e-08 -1.78677e-06 -1.57565e-05
0.000948187 2.48434e-06 -4.89376e-08
2.48434e-06 5.73456e-06 -1.01701e-08
-4.89376e-08 -1.01701e-08 -1.7176e-05
0.000885974 3.55968e-06 2.29783e-07
3.55968e-06 -3.4899e-05 -3.13823e-06
2.29783e-07 -3.13823e-06 -3.16149e-05
0.000942828 4.80708e-06 -3.91365e-07
4.80708e-06 3.94884e-06 1.77771e-06
-3.91365e-07 1.77771e-06 -1.98211e-05
0.00088212 6.96364e-06 5.80517e-08
6.96364e-06 -3.52782e-05 -6.15458e-07
5.80517e-08 -6.15458e-07 -3.27102e-05
0.00214304 8.56006e-06 4.73888e-06
8.56006e-06 0.000608175 -3.88251e-06
4.73888e-06 -3.88251e-06 0.000632484
0.00142606 1.23213e-05 -1.26593e-06
1.23213e-05 0.000245942 1.95468e-06
-1.26593e-06 1.95468e-06 0.000249673
0.00163788 1.13967e-05 2.22539e-07
1.13967e-05 0.000353487 1.19955e-06
2.22539e-07 1.19955e-06 0.000373965
0.00111823 1.31235e-05 -1.01639e-05
1.31235e-05 9.21035e-05 6.37145e-06
-1.01639e-05 6.37145e-06 0.00010858
0.00107701 -3.67094e-05 -3.81216e-06
-3.67094e-05 -0.000257993 1.02726e-06
-3.81216e-06 1.02726e-06 -0.000289655
0.00143039 -8.21661e-07 -2.51094e-06
-8.21661e-07 2.08998e-05 -3.06536e-07
-2.51094e-06 -3.06536e-07 -5.51733e-05
0.000935562 5.30639e-06 -6.79364e-06
5.30639e-06 -0.000263521 -3.97458e-06
-6.79364e-06 -3.97458e-06 -0.000327107
0.00105519 -9.30489e-05 3.62153e-05
-9.30489e-05 1.8961e-05 5.72226e-06
3.62153e-05 5.72226e-06 -0.000213221
0.00125564 -1.60743e-05 -1.99658e-06
-1.60743e-05 6.44324e-06 -8.90438e-07
-1.99658e-06 -8.90438e-07 -3.72335e-05
0.0015653 3.20676e-05 -2.0183e-06
3.20676e-05 1.1609e-05 -1.45849e-06
-2.0183e-06 -1.45849e-06 -6.81814e-05
0.00128228 4.62992e-05 2.77036e-06
4.62992e-05 2.58696e-05 8.45096e-07
2.77036e-06 8.45096e-07 -3.33337e-05
0.00106491 -3.76334e-05 0.00010567
-3.76334e-05 2.69111e-05 6.50542e-06
0.00010567 6.50542e-06 -0.000224785
0.00480222 8.39733e-05 -2.23318e-05
8.39733e-05 0.00140951 -5.01605e-06
-2.23318e-05 -5.01605e-06 0.000753904
0.00248864 0.000213923 -4.05252e-05
0.000213923 0.000932757 1.84374e-05
-4.05252e-05 1.84374e-05 0.000866064
0.00103184 0.000148325 -1.05259e-05
0.000148325 -5.39238e-05 4.1262e-06
-1.05259e-05 4.1262e-06 0.000285089
0.000789241 -5.74742e-06 7.87663e-07
-5.74742e-06 -4.85214e-05 -1.07459e-06
7.87663e-07 -1.07459e-06 -0.000103644
0.000974919 -8.39183e-06 -9.14195e-08
-8.39183e-06 3.41712e-05 3.03692e-09
-9.14195e-08 3.03692e-09 -6.33078e-06
0.000983104 -2.45975e-05 -6.333e-07
-2.45975e-05 3.83681e-05 1.03994e-06
-6.333e-07 1.03994e-06 -2.953e-06
0.000914405 9.95619e-06 -2.08374e-07
9.95619e-06 1.4069e-05 4.74868e-09
-2.08374e-07 4.74868e-09 -4.02038e-05
0.00108489 3.68544e-05 1.44911e-07
3.68544e-05 0.000105173 2.26857e-07
1.44911e-07 2.26857e-07 4.05084e-05
0.00105398 4.58265e-05 2.26502e-07
4.58265e-05 8.80597e-05 1.38076e-07
2.26502e-07 1.38076e-07 2.50189e-05
0.00102345 1.19689e-06 5.11811e-07
1.19689e-06 6.99194e-05 -1.53487e-06
5.11811e-07 -1.53487e-06 1.35317e-05
0.000929912 -2.08019e-05 -2.98203e-07
-2.08019e-05 2.142e-05 4.82649e-07
-2.98203e-07 4.82649e-07 -3.31809e-05
0.00177214 2.46997e-05 -3.29536e-06
2.46997e-05 0.000164799 2.23102e-07
-3.29536e-06 2.23102e-07 9.37066e-05
0.00172146 -4.18798e-05 -2.0435e-06
-4.18798e-05 6.24405e-05 1.98507e-06
-2.0435e-06 1.98507e-06 2.63561e-05
0.00102703 -7.80689e-05 -9.30304e-06
-7.80689e-05 -0.000208423 -4.92079e-08
-9.30304e-06 -4.92079e-08 -0.000261844
0.00105942 -6.87211e-05 -3.2372e-07
-6.87211e-05 9.51763e-05 2.11424e-06
-3.2372e-07 2.11424e-06 -1.15787e-05
0.00140423 -9.03673e-05 -1.30925e-06
-9.03673e-05 0.000198153 2.71978e-06
-1.30925e-06 2.71978e-06 7.83152e-05
0.00103263 -5.20015e-05 -5.25911e-07
-5.20015e-05 0.000106307 7.12052e-07
-5.25911e-07 7.12052e-07 -5.96192e-06
0.00123774 -4.85678e-05 1.2626e-07
-4.85678e-05 0.000193339 6.12857e-07
1.2626e-07 6.12857e-07 9.15998e-05
0.000983903 -3.41165e-05 -5.62513e-07
-3.41165e-05 5.03443e-05 1.23773e-06
-5.62513e-07 1.23773e-06 -3.44469e-05
0.000997212 -1.05478e-05 -2.26843e-07
-1.05478e-05 5.71711e-05 1.25217e-06
-2.26843e-07 1.25217e-06 -3.86784e-06
0.00115662 -1.8175e-05 -4.31556e-07
-1.8175e-05 0.000139165 9.10005e-07
-4.31556e-07 9.10005e-07 6.47466e-05
0.00117983 4.90395e-06 -1.73106e-07
4.90395e-06 0.00014764 4.02404e-07
-1.73106e-07 4.02404e-07 9.36817e-05
0.000931294 3.31286e-05 5.55293e-07
3.31286e-05 2.37426e-05 2.23161e-06
5.55293e-07 2.23161e-06 -4.41144e-05
0.00170762 2.5919e-05 1.135e-06
2.5919e-05 4.0274e-05 -3.0916e-06
1.135e-06 -3.0916e-06 -1.81259e-05
0.000970829 1.67786e-05 -2.34175e-07
1.67786e-05 4.80827e-05 3.08695e-07
-2.34175e-07 3.08695e-07 -2.36166e-05
0.00100261 -3.3783e-05 1.10664e-07
-3.3783e-05 6.4667e-05 -4.54165e-07
1.10664e-07 -4.54165e-07 -9.47212e-06
0.00200977 -9.49532e-05 -5.21161e-06
-9.49532e-05 0.000126903 -1.27795e-06
-5.21161e-06 -1.27795e-06 0.000100471
0.000971871 -8.8881e-05 1.78238e-06
-8.8881e-05 -0.000106163 1.84565e-06
1.78238e-06 1.84565e-06 -0.000215459
0.00114632 -8.36482e-05 5.62932e-07
-8.36482e-05 0.000145181 -6.92668e-07
5.62932e-07 -6.92668e-07 1.88764e-05
0.0010626 -4.40594e-05 -1.43877e-09
-4.40594e-05 9.37902e-05 -1.6875e-07
-1.43877e-09 -1.6875e-07 3.64927e-06
0.00113052 -3.38011e-05 -1.30855e-07
-3.38011e-05 0.000154353 2.29654e-07
-1.30855e-07 2.29654e-07 2.776e-05
0.002092 -4.51794e-05 2.12528e-07
-4.51794e-05 6.20763e-05 9.45571e-06
2.12528e-07 9.45571e-06 7.36068e-05
0.00284202 -0.000164021 1.28744e-05
-0.000164021 0.000667393 -2.48576e-06
1.28744e-05 -2.48576e-06 0.000555903
0.000560098 -8.54869e-05 4.66129e-07
-8.54869e-05 -0.000184843 -3.12898e-06
4.66129e-07 -3.12898e-06 -0.0003109
0.0011568 -5.87386e-05 5.78509e-07
-5.87386e-05 0.000183338 -1.35572e-06
5.78509e-07 -1.35572e-06 2.41639e-05
0.000903989 -3.10513e-05 3.09566e-07
-3.10513e-05 1.7516e-05 -5.60458e-07
3.09566e-07 -5.60458e-07 -6.17584e-05
0.00103399 -3.21346e-05 8.98738e-07
-3.21346e-05 7.82429e-05 -1.46689e-06
8.98738e-07 -1.46689e-06 -7.12865e-06
0.00122501 -1.95375e-05 -6.87801e-08
-1.95375e-05 0.000180373 -9.52106e-07
-6.87801e-08 -9.52106e-07 7.44998e-05
-0.000758625 -1.36534e-05 -9.39374e-05
-1.36534e-05 -0.000607305 -6.86632e-07
-9.39374e-05 -6.86632e-07 -0.000625366
0.00517259 -2.43576e-05 -2.0747e-05
-2.43576e-05 0.00175446 -2.30476e-06
-2.0747e-05 -2.30476e-06 0.00123485
0.0011588 5.8761e-05 6.62089e-08
5.8761e-05 0.000139388 3.48028e-07
6.62089e-08 3.48028e-07 4.67644e-05
0.000926248 5.46428e-05 1.25379e-06
5.46428e-05 2.76877e-05 -9.13577e-07
1.25379e-06 -9.13577e-07 -7.17131e-05
0.00211535 0.00010977 -1.03843e-05
0.00010977 0.00012811 -1.18213e-06
-1.03843e-05 -1.18213e-06 6.60116e-05
0.00112308 0.000100668 -2.36303e-06
0.000100668 -3.46784e-05 -2.89489e-06
-2.36303e-06 -2.89489e-06 -0.0001413
0.0011005 6.9942e-05 1.44051e-06
6.9942e-05 0.000136428 -1.61188e-06
1.44051e-06 -1.61188e-06 3.44574e-06
0.00492736 -3.59962e-05 2.49203e-05
-3.59962e-05 0.00150752 -1.32589e-05
2.49203e-05 -1.32589e-05 0.000857159
0.00129765 -0.000133687 -5.01706e-05
-0.000133687 -0.000112752 -1.58346e-05
-5.01706e-05 -1.58346e-05 -0.000328522
0.00125387 7.57905e-05 -9.14879e-07
7.57905e-05 -0.000157511 -8.51766e-06
-9.14879e-07 -8.51766e-06 -0.000105156
0.00253247 -0.000180315 3.27249e-05
-0.000180315 0.00103111 1.15137e-05
3.27249e-05 1.15137e-05 0.000968431
-0.000401815 -0.000190903 1.57697e-05
-0.000190903 -0.000947382 1.62752e-05
1.57697e-05 1.62752e-05 -0.000548438
0.00109681 5.79686e-05 2.51594e-07
5.79686e-05 0.000104251 -2.98893e-07
2.51594e-07 -2.98893e-07 1.14599e-05
-0.000851489 -3.12137e-05 -1.63587e-05
-3.12137e-05 -0.000536196 -5.90905e-07
-1.63587e-05 -5.90905e-07 -0.000555732
0.00125407 -8.60789e-05 -1.76328e-06
-8.60789e-05 0.000275229 1.18598e-06
-1.76328e-06 1.18598e-06 0.000416629
0.00159055 0.00013443 9.71327e-07
0.00013443 3.03139e-05 1.31088e-06
9.71327e-07 1.31088e-06 -3.13286e-05
0.0011368 4.7665e-05 -2.08064e-07
4.7665e-05 0.000144284 -1.22467e-06
-2.08064e-07 -1.22467e-06 3.78611e-05
0.00136626 6.82902e-05 7.01672e-07
6.82902e-05 0.000305608 -2.66999e-09
7.01672e-07 -2.66999e-09 0.000135455
0.00155049 5.06783e-05 -1.60076e-05
5.06783e-05 0.000137371 -7.5267e-06
-1.60076e-05 -7.5267e-06 9.28112e-05
0.00420138 -0.000109657 6.89527e-06
-0.000109657 0.00101362 6.13246e-06
6.89527e-06 6.13246e-06 0.00022985
0.00148433 -4.01049e-05 -4.79187e-06
-4.01049e-05 -5.85749e-05 -1.55441e-05
-4.79187e-06 -1.55441e-05 -0.00018276
0.00279423 -0.000297458 6.82595e-06
-0.000297458 0.000750692 -6.95181e-07
6.82595e-06 -6.95181e-07 0.000754658
0.000155835 -0.000106693 -3.29476e-06
-0.000106693 -0.000799557 3.92221e-09
-3.29476e-06 3.92221e-09 -0.00049854
0.00104965 3.31725e-05 -1.43342e-06
3.31725e-05 4.51185e-05 -1.33428e-06
-1.43342e-06 -1.33428e-06 -4.59176e-05
0.000358294 -1.8382e-05 2.87396e-06
-1.8382e-05 -0.000140239 -4.95265e-07
2.87396e-06 -4.95265e-07 -0.000149894
0.000800859 -4.47293e-06 6.64859e-06
-4.47293e-06 2.13095e-05 -1.47092e-07
6.64859e-06 -1.47092e-07 -3.18516e-05
0.000617373 7.25283e-05 1.0254e-05
7.25283e-05 -0.000141498 -4.64661e-07
1.0254e-05 -4.64661e-07 -0.000310831
0.0018614 4.32148e-05 -6.74945e-06
4.32148e-05 0.000564821 -2.79588e-07
-6.74945e-06 -2.79588e-07 0.000434156
0.00272998 -3.86052e-05 -6.40261e-06
-3.86052e-05 0.00106231 -1.57998e-06
-6.40261e-06 -1.57998e-06 0.00104019
0.000860594 0.000126308 -5.77155e-05
0.000126308 -4.99085e-05 6.06986e-06
-5.77155e-05 6.06986e-06 -0.00027632
0.0023137 -0.00020843 1.17168e-05
-0.00020843 0.000113581 1.50938e-05
1.17168e-05 1.50938e-05 -0.000737688
0.0036638 -0.000331347 -4.14213e-05
-0.000331347 0.000769254 -1.80895e-05
-4.14213e-05 -1.80895e-05 0.000843271
0.0004056 -2.85841e-05 -2.27409e-06
-2.85841e-05 -0.000463488 5.66107e-06
-2.27409e-06 5.66107e-06 -0.000418489
0.00118308 5.90954e-05 -4.94418e-07
5.90954e-05 0.000133265 8.04759e-07
-4.94418e-07 8.04759e-07 4.10853e-05
0.00113313 5.65959e-05 6.12248e-07
5.65959e-05 9.52265e-05 6.46782e-07
6.12248e-07 6.46782e-07 8.37216e-07
0.000752681 5.0243e-05 1.96106e-06
5.0243e-05 -6.69349e-05 -1.04956e-07
1.96106e-06 -1.04956e-07 -0.000169088
0.000788545 1.27035e-05 9.10553e-08
1.27035e-05 -5.73472e-05 -4.19338e-07
9.10553e-08 -4.19338e-07 -0.00010512
0.0010208 1.72745e-05 -7.29594e-08
1.72745e-05 6.64943e-05 -8.75081e-07
-7.29594e-08 -8.75081e-07 6.04538e-06
0.00120554 -9.53557e-06 1.4681e-07
-9.53557e-06 0.000159559 -8.47795e-08
1.4681e-07 -8.47795e-08 8.92222e-05
0.000998227 3.75578e-05 -4.71237e-07
3.75578e-05 5.40009e-05 -1.17539e-06
-4.71237e-07 -1.17539e-06 -2.35957e-05
0.000900602 4.79505e-05 -3.28476e-07
4.79505e-05 -2.40632e-06 -3.78471e-07
-3.28476e-07 -3.78471e-07 -9.18493e-05
0.0010258 6.34028e-06 3.41161e-07
6.34028e-06 6.92363e-05 -4.5053e-07
3.41161e-07 -4.5053e-07 8.36297e-06
0.00104772 3.50531e-05 -1.48685e-07
3.50531e-05 7.85556e-05 -1.26107e-07
-1.48685e-07 -1.26107e-07 -2.35981e-06
0.00101015 -1.35901e-05 3.58113e-08
-1.35901e-05 6.04491e-05 2.34977e-08
3.58113e-08 2.34977e-08 -1.03854e-05
0.00109312 4.46562e-05 2.40704e-07
4.46562e-05 0.000112647 4.11064e-07
2.40704e-07 4.11064e-07 1.3263e-05
0.00121708 4.15439e-06 1.86284e-07
4.15439e-06 0.000181281 -7.3621e-07
1.86284e-07 -7.3621e-07 7.52166e-05
0.00114984 1.80325e-05 -3.75581e-07
1.80325e-05 0.000135503 1.06796e-06
-3.75581e-07 1.06796e-06 4.90442e-05
0.00105321 9.23761e-06 2.23466e-07
9.23761e-06 8.34921e-05 4.37292e-07
2.23466e-07 4.37292e-07 1.16915e-05
0.00103902 -1.35671e-05 8.41836e-10
-1.35671e-05 7.67539e-05 -7.00555e-07
8.41836e-10 -7.00555e-07 1.5921e-05
0.000928387 -7.09384e-06 2.67305e-08
-7.09384e-06 1.81892e-05 -1.23965e-06
2.67305e-08 -1.23965e-06 -5.33782e-05
0.00103877 6.28197e-07 1.97357e-07
6.28197e-07 7.6175e-05 3.45705e-08
1.97357e-07 3.45705e-08 4.62255e-06
0.00101865 2.47935e-06 1.35849e-08
2.47935e-06 6.62327e-05 3.09601e-08
1.35849e-08 3.09601e-08 -6.36863e-06
0.0010656 1.59566e-06 -1.79537e-07
1.59566e-06 8.36035e-05 -7.74014e-07
-1.79537e-07 -7.74014e-07 6.11235e-06
0.000980637 -9.25907e-06 -2.21475e-07
-9.25907e-06 4.91236e-05 1.2812e-06
-2.21475e-07 1.2812e-06 -2.65302e-05
0.00111184 1.22184e-05 1.13443e-07
1.22184e-05 0.000108337 1.34897e-07
1.13443e-07 1.34897e-07 2.94095e-05
0.000943787 -1.48296e-05 -5.38105e-08
-1.48296e-05 2.19644e-05 4.14418e-07
-5.38105e-08 4.14418e-07 -5.98444e-05
0.00104222 -3.76231e-05 3.65885e-07
-3.76231e-05 7.99662e-05 -6.87524e-07
3.65885e-07 -6.87524e-07 -7.60204e-06
0.000802753 -4.85439e-05 2.90037e-07
-4.85439e-05 -2.18394e-05 4.75101e-08
2.90037e-07 4.75101e-08 -0.00011007
0.000925548 -3.9827e-05 -8.33337e-07
-3.9827e-05 2.94984e-05 -4.21523e-07
-8.33337e-07 -4.21523e-07 -5.38178e-05
0.00102541 -2.81182e-05 -1.3469e-07
-2.81182e-05 7.56455e-05 2.73666e-07
-1.3469e-07 2.73666e-07 -4.82469e-06
0.00101112 -2.16975e-05 -6.03605e-07
-2.16975e-05 6.24426e-05 1.40682e-06
-6.03605e-07 1.40682e-06 -5.62415e-06
0.00100312 -1.62625e-05 -2.93605e-08
-1.62625e-05 5.79578e-05 -2.80982e-08
-2.93605e-08 -2.80982e-08 -6.88427e-06
0.000971391 1.68864e-06 -2.81504e-07
1.68864e-06 3.37774e-05 1.08306e-06
-2.81504e-07 1.08306e-06 -1.58482e-05
0.000989752 -8.13381e-06 3.52861e-07
-8.13381e-06 5.17767e-05 -7.13734e-07
3.52861e-07 -7.13734e-07 -1.05283e-05
0.000967125 -5.52845e-06 6.73982e-08
-5.52845e-06 3.29489e-05 -1.92248e-08
6.73982e-08 -1.92248e-08 -1.51595e-05
0.000941308 8.25241e-06 -5.84782e-07
8.25241e-06 9.48456e-06 1.66944e-06
-5.84782e-07 1.66944e-06 -1.99606e-05
0.000787753 6.25078e-06 1.16044e-07
6.25078e-06 -5.82762e-05 -8.89567e-07
1.16044e-07 -8.89567e-07 -0.000105979
0.000940585 2.26746e-06 -9.16367e-08
2.26746e-06 7.73789e-06 -1.02205e-08
-9.16367e-08 -1.02205e-08 -2.06165e-05
0.0014768 9.97722e-06 -3.64978e-06
9.97722e-06 0.00027222 4.28531e-06
-3.64978e-06 4.28531e-06 0.00027446
0.000936096 -4.68649e-06 6.24058e-07
-4.68649e-06 5.12649e-06 -1.62115e-06
6.24058e-07 -1.62115e-06 -2.24714e-05
0.00118212 6.61249e-06 -1.34753e-06
6.61249e-06 0.000119133 5.96077e-07
-1.34753e-06 5.96077e-07 0.000120614
0.00103293 6.37833e-06 -7.52388e-07
6.37833e-06 4.05727e-05 1.52277e-06
-7.52388e-07 1.52277e-06 5.84855e-05
0.000890171 3.09311e-06 3.82992e-07
3.09311e-06 -3.19407e-05 -3.04085e-06
3.82992e-07 -3.04085e-06 -3.14177e-05
0.00222059 3.64129e-06 1.12059e-06
3.64129e-06 0.000646217 7.91453e-09
1.12059e-06 7.91453e-09 0.000669867
0.00221575 -4.59327e-07 1.07392e-06
-4.59327e-07 0.000643414 -3.95804e-06
1.07392e-06 -3.95804e-06 0.000667157
0.00121888 2.10201e-05 -6.91801e-07
2.10201e-05 0.000157716 -9.59174e-07
-6.91801e-07 -9.59174e-07 0.000116583
0.000948127 -1.3536e-06 -1.31122e-07
-1.3536e-06 5.88443e-06 -1.76623e-06
-1.31122e-07 -1.76623e-06 -1.73731e-05
0.000967004 4.92621e-06 4.37025e-07
4.92621e-06 3.03955e-05 5.01027e-07
4.37025e-07 5.01027e-07 -1.05855e-05
0.000891882 1.91299e-07 -2.01723e-08
1.91299e-07 -3.23951e-05 -3.14116e-06
-2.01723e-08 -3.14116e-06 -2.8913e-05
0.000950252 1.09635e-07 -6.49346e-09
1.09635e-07 6.60036e-06 -7.61637e-09
-6.49346e-09 -7.61637e-09 -1.61005e-05
0.000944723 2.08075e-06 -3.02818e-07
2.08075e-06 3.82258e-06 1.79097e-06
-3.02818e-07 1.79097e-06 -1.90611e-05
0.000890051 3.65633e-06 -1.06434e-07
3.65633e-06 -3.28338e-05 9.64192e-10
-1.06434e-07 9.64192e-10 -2.95777e-05
0.00212571 4.28436e-06 2.07164e-06
4.28436e-06 0.000597767 -3.89514e-06
2.07164e-06 -3.89514e-06 0.00062253
0.00141531 8.44211e-06 -8.72349e-07
8.44211e-06 0.000237289 1.92799e-06
-8.72349e-07 1.92799e-06 0.000242425
0.00160325 7.8488e-06 1.3725e-06
7.8488e-06 0.000332525 2.98864e-08
1.3725e-06 2.98864e-08 0.000354094
0.0011145 9.85885e-06 -8.2607e-06
9.85885e-06 8.56465e-05 6.29297e-06
-8.2607e-06 6.29297e-06 0.000103502
-0.00277213 5.05147e-05 -5.85921e-05
5.05147e-05 -0.00168503 1.23604e-05
-5.85921e-05 1.23604e-05 -0.00169492
-0.00126258 6.41945e-05 -8.03959e-06
6.41945e-05 -0.00121299 6.59463e-06
-8.03959e-06 6.59463e-06 -0.00110893
0.000818333 -8.81086e-05 -5.15457e-05
-8.81086e-05 -2.36114e-05 -1.7099e-05
-5.15457e-05 -1.7099e-05 -0.000267823
0.00137173 -2.31695e-05 -3.26918e-06
-2.31695e-05 7.34466e-05 -3.84466e-07
-3.26918e-06 -3.84466e-07 3.20785e-05
0.00132028 3.49613e-05 -1.2509e-05
3.49613e-05 -0.000115292 -1.20638e-06
-1.2509e-05 -1.20638e-06 -0.000195012
0.000819913 -3.26786e-05 2.05468e-05
-3.26786e-05 8.92177e-05 -1.17911e-06
2.05468e-05 -1.17911e-06 -5.64928e-05
0.00160634 5.25072e-05 2.2792e-06
5.25072e-05 0.000160211 1.74394e-06
2.2792e-06 1.74394e-06 9.7086e-05
0.00476863 0.000124431 -3.14883e-05
0.000124431 0.00141646 -2.8343e-07
-3.14883e-05 -2.8343e-07 0.000832237
-0.00184075 0.000116893 6.01668e-06
0.000116893 -0.000937563 -4.29174e-06
6.01668e-06 -4.29174e-06 -0.000956548
0.000406407 0.00016186 2.17554e-06
0.00016186 -0.000422526 -2.44161e-06
2.17554e-06 -2.44161e-06 -7.42168e-05
0.000725455 4.15325e-05 2.83814e-05
4.15325e-05 0.000107936 -1.3427e-05
2.83814e-05 -1.3427e-05 -8.51731e-05
0.00484658 0.000249539 -1.69213e-05
0.000249539 0.0014085 1.13382e-05
-1.69213e-05 1.13382e-05 0.000775289
0.000175423 0.000201064 -5.59755e-05
0.000201064 -0.000102156 3.56694e-05
-5.59755e-05 3.56694e-05 -1.52841e-05
0.000960929 0.000108138 -6.23544e-06
0.000108138 -0.000421017 3.36607e-06
-6.23544e-06 3.36607e-06 -6.13819e-05
0.000922789 2.58892e-05 -2.82301e-07
2.58892e-05 2.56839e-05 -8.30988e-07
-2.82301e-07 -8.30988e-07 -4.27272e-05
0.000887061 7.90388e-06 3.71005e-08
7.90388e-06 4.584e-08 -4.45244e-07
3.71005e-08 -4.45244e-07 -5.44263e-05
0.000973113 -2.05577e-05 -5.97697e-07
-2.05577e-05 3.33789e-05 1.04313e-06
-5.97697e-07 1.04313e-06 -7.22468e-06
0.000839897 1.40997e-05 -1.64339e-08
1.40997e-05 -2.34363e-05 7.55031e-07
-1.64339e-08 7.55031e-07 -7.81844e-05
0.00103374 3.80518e-05 5.17319e-07
3.80518e-05 8.04512e-05 9.37185e-07
5.17319e-07 9.37185e-07 1.64887e-05
0.00106625 3.05687e-05 -2.36854e-07
3.05687e-05 9.8099e-05 -7.14468e-07
-2.36854e-07 -7.14468e-07 3.02519e-05
0.000998321 2.30821e-05 7.22543e-07
2.30821e-05 5.98318e-05 9.78107e-07
7.22543e-07 9.78107e-07 -2.75645e-06
0.000998966 7.6856e-06 4.76721e-07
7.6856e-06 5.80072e-05 -5.95862e-07
4.76721e-07 -5.95862e-07 -3.23421e-06
0.000949861 -4.38794e-06 2.41161e-07
-4.38794e-06 3.29264e-05 -5.16642e-07
2.41161e-07 -5.16642e-07 -2.44003e-05
0.000852764 -1.94846e-05 -3.8009e-07
-1.94846e-05 -1.73595e-05 1.25094e-06
-3.8009e-07 1.25094e-06 -7.22141e-05
0.00220188 3.47599e-05 -7.44388e-06
3.47599e-05 0.000269897 2.71875e-06
-7.44388e-06 2.71875e-06 0.000212947
0.00148712 -8.80925e-05 -1.41009e-05
-8.80925e-05 -0.000119266 1.69786e-06
-1.41009e-05 1.69786e-06 -0.000141255
-1.29134e-05 -6.84463e-05 -2.36889e-06
-6.84463e-05 -0.000582464 3.6339e-06
-2.36889e-06 3.6339e-06 -0.000687494
0.001128 -8.44075e-05 -9.14048e-07
-8.44075e-05 0.000135139 2.56991e-06
-9.14048e-07 2.56991e-06 3.80102e-06
0.0011383 -3.8065e-05 2.3337e-07
-3.8065e-05 0.000156007 9.60087e-07
2.3337e-07 9.60087e-07 3.05819e-05
0.00109224 -4.01348e-05 -2.41477e-07
-4.01348e-05 0.000106313 7.82363e-07
-2.41477e-07 7.82363e-07 1.62011e-05
0.00102948 -3.61997e-05 -4.57761e-07
-3.61997e-05 7.8299e-05 7.58324e-07
-4.57761e-07 7.58324e-07 4.26443e-06
0.000994709 1.75049e-05 -5.99775e-08
1.75049e-05 6.061e-05 1.05877e-06
-5.99775e-08 1.05877e-06 -1.03964e-05
0.00194119 -4.20871e-05 -4.11081e-06
-4.20871e-05 -1.87964e-05 1.2381e-06
-4.11081e-06 1.2381e-06 -2.53151e-05
0.000913954 -1.43794e-05 -1.52564e-07
-1.43794e-05 2.2427e-05 -5.57542e-08
-1.52564e-07 -5.57542e-08 -5.7285e-05
0.000990788 -3.51998e-05 3.91368e-07
-3.51998e-05 5.53117e-05 -5.78491e-07
3.91368e-07 -5.78491e-07 -3.13251e-05
0.00177314 -0.0001374 2.6375e-06
-0.0001374 0.000145921 5.1525e-07
2.6375e-06 5.1525e-07 4.49733e-05
0.000695153 -8.7945e-05 -4.15719e-08
-8.7945e-05 -0.000110484 1.82536e-06
-4.15719e-08 1.82536e-06 -0.000235347
0.00117914 -5.76989e-05 6.2127e-07
-5.76989e-05 0.000187166 -2.63712e-07
6.2127e-07 -2.63712e-07 3.4906e-05
0.00119529 -2.35395e-05 -1.43688e-07
-2.35395e-05 0.00016565 -3.5535e-07
-1.43688e-07 -3.5535e-07 5.49414e-05
0.00281772 -0.000126889 3.05888e-06
-0.000126889 0.000424727 -2.18007e-07
3.05888e-06 -2.18007e-07 0.00045414
0.00177896 -0.000135201 1.42308e-06
-0.000135201 0.000430267 -5.427e-06
1.42308e-06 -5.427e-06 0.000254579
0.00089476 -7.04111e-07 -1.09771e-06
-7.04111e-07 5.56007e-05 -9.52736e-07
-1.09771e-06 -9.52736e-07 -9.40759e-05
0.000980451 3.01695e-05 2.25736e-07
3.01695e-05 5.63204e-05 -7.06893e-08
2.25736e-07 -7.06893e-08 -2.44174e-05
0.00103073 -4.49779e-05 6.55393e-07
-4.49779e-05 7.39323e-05 -7.71039e-07
6.55393e-07 -7.71039e-07 -1.4468e-05
0.00112045 -1.81835e-06 2.58737e-07
-1.81835e-06 0.00010715 -3.66512e-07
2.58737e-07 -3.66512e-07 1.2317e-05
0.00109587 -8.78454e-06 4.96011e-06
-8.78454e-06 0.000228114 5.46015e-07
4.96011e-06 5.46015e-07 0.000224859
0.00144043 -5.76535e-06 7.13555e-06
-5.76535e-06 0.00034326 -2.83175e-06
7.13555e-06 -2.83175e-06 0.000193268
0.000659655 8.01587e-05 -3.98185e-05
8.01587e-05 -0.000413618 6.21368e-06
-3.98185e-05 6.21368e-06 -0.000927974
0.00110077 5.82601e-05 -2.49817e-07
5.82601e-05 0.000101619 1.55296e-08
-2.49817e-07 1.55296e-08 9.21862e-06
0.00146427 5.99889e-05 2.43901e-06
5.99889e-05 0.000311081 4.12085e-07
2.43901e-06 4.12085e-07 0.000208905
0.0017057 0.000137483 -3.08607e-06
0.000137483 8.98235e-05 -3.10661e-06
-3.08607e-06 -3.10661e-06 2.49315e-05
0.000961537 7.09386e-05 2.43e-06
7.09386e-05 0.000105832 -3.4463e-06
2.43e-06 -3.4463e-06 -6.4579e-05
0.00380734 -0.000135787 4.5296e-05
-0.000135787 0.001482 4.55303e-06
4.5296e-05 4.55303e-06 0.00140842
0.00125637 -0.000182756 3.98894e-05
-0.000182756 -0.000152456 2.92275e-05
3.98894e-05 2.92275e-05 -0.000646732
0.00307502 -3.34525e-05 -5.34772e-05
-3.34525e-05 0.000374812 -6.08182e-05
-5.34772e-05 -6.08182e-05 0.000171148
0.00140244 3.54707e-05 6.95498e-06
3.54707e-05 7.59211e-05 -5.16411e-07
6.95498e-06 -5.16411e-07 4.01785e-05
-0.00178633 -0.000195376 5.83971e-05
-0.000195376 -0.00127067 2.58858e-05
5.83971e-05 2.58858e-05 -0.00120277
0.00230147 -8.75578e-05 8.60146e-06
-8.75578e-05 0.000822316 7.6135e-06
8.60146e-06 7.6135e-06 0.000960134
0.00167979 -0.00013089 4.21228e-06
-0.00013089 6.84567e-05 -3.19609e-07
4.21228e-06 -3.19609e-07 0.000405914
0.00120323 4.45299e-05 -7.52068e-08
4.45299e-05 0.000130248 3.3246e-07
-7.52068e-08 3.3246e-07 3.73278e-05
0.000761265 -3.03141e-05 -3.32586e-07
-3.03141e-05 5.75704e-05 4.53332e-07
-3.32586e-07 4.53332e-07 7.53323e-05
0.00076117 1.18262e-06 -8.74922e-07
1.18262e-06 -6.83821e-06 -1.73683e-06
-8.74922e-07 -1.73683e-06 -5.87657e-05
0.00115585 8.14923e-05 -7.3328e-07
8.14923e-05 0.000116712 1.29705e-06
-7.3328e-07 1.29705e-06 -5.84225e-05
0.000945637 2.71078e-05 -1.93909e-07
2.71078e-05 0.000128291 -4.28504e-07
-1.93909e-07 -4.28504e-07 -7.45643e-06
0.00200374 -1.06427e-05 8.55348e-06
-1.06427e-05 0.00060964 4.35001e-06
8.55348e-06 4.35001e-06 0.000497953
0.00364659 0.000184723 -2.13473e-05
0.000184723 0.000938409 -2.27089e-05
-2.13473e-05 -2.27089e-05 0.000558665
0.00561235 -0.000238121 -2.22915e-06
-0.000238121 0.00142418 4.88198e-06
-2.22915e-06 4.88198e-06 0.000684166
0.00025944 -0.000240769 8.81799e-06
-0.000240769 -0.00053465 1.71629e-05
8.81799e-06 1.71629e-05 -0.000502296
0.00163996 -4.21949e-05 -7.89004e-07
-4.21949e-05 0.000206523 2.48839e-07
-7.89004e-07 2.48839e-07 0.000320674
0.00136179 5.9251e-05 -7.05032e-08
5.9251e-05 0.000253307 -3.19329e-06
-7.05032e-08 -3.19329e-06 0.000173569
0.00190903 4.8688e-06 9.95197e-06
4.8688e-06 0.000756067 4.71021e-06
9.95197e-06 4.71021e-06 0.000689137
0.00105936 1.45918e-05 5.06857e-06
1.45918e-05 0.000134687 2.57485e-06
5.06857e-06 2.57485e-06 3.17167e-05
0.000434169 -2.21726e-05 -4.94145e-06
-2.21726e-05 -2.7242e-05 6.57615e-06
-4.94145e-06 6.57615e-06 -0.000160778
0.00101797 0.000116505 -1.10723e-05
0.000116505 0.000411941 3.83099e-05
-1.10723e-05 3.83099e-05 0.000212561
0.0051924 -0.000187609 -3.56113e-05
-0.000187609 0.000864743 -1.05772e-05
-3.56113e-05 -1.05772e-05 2.41855e-05
-0.000404355 -0.000134124 -3.718e-05
-0.000134124 -0.00127123 -4.61146e-05
-3.718e-05 -4.61146e-05 -0.00111657
0.00214126 5.49433e-06 -3.7082e-07
5.49433e-06 0.000560164 1.57107e-05
-3.7082e-07 1.57107e-05 0.000657193
0.00102115 5.38415e-05 -4.24497e-07
5.38415e-05 4.06207e-05 -4.06726e-07
-4.24497e-07 -4.06726e-07 -5.4532e-05
0.00110437 5.64492e-05 5.87938e-07
5.64492e-05 0.00010135 -2.56499e-08
5.87938e-07 -2.56499e-08 2.13652e-06
0.00141718 5.72312e-05 -8.83893e-07
5.72312e-05 0.000258456 -2.76242e-06
-8.83893e-07 -2.76242e-06 0.000159743
0.00102893 3.67956e-05 -5.87488e-07
3.67956e-05 7.02752e-05 -1.01127e-06
-5.87488e-07 -1.01127e-06 9.614e-06
0.00101093 -5.05485e-06 1.34983e-07
-5.05485e-06 6.1051e-05 -4.3824e-07
1.34983e-07 -4.3824e-07 -9.96087e-06
0.00103192 3.21643e-05 -1.96667e-07
3.21643e-05 7.20514e-05 -6.56411e-07
-1.96667e-07 -6.56411e-07 -8.12484e-06
0.000987721 3.59851e-05 1.91168e-07
3.59851e-05 6.09115e-05 -2.77695e-07
1.91168e-07 -2.77695e-07 -3.93162e-05
0.00105584 1.70746e-05 1.95121e-07
1.70746e-05 8.38146e-05 5.38234e-09
1.95121e-07 5.38234e-09 1.25301e-05
0.00111386 1.83748e-05 -6.39774e-08
1.83748e-05 0.000115926 4.60258e-07
-6.39774e-08 4.60258e-07 3.0541e-05
0.00105548 1.06105e-05 4.362e-07
1.06105e-05 0.000105896 -8.42245e-07
4.362e-07 -8.42245e-07 -3.97654e-06
0.00128591 -1.44844e-06 2.95347e-07
-1.44844e-06 0.000234147 -6.3305e-07
2.95347e-07 -6.3305e-07 0.000128331
0.00111419 -3.01007e-05 2.2184e-07
-3.01007e-05 0.000115862 8.24888e-07
2.2184e-07 8.24888e-07 1.69022e-05
0.00115748 3.05428e-05 5.575e-07
3.05428e-05 0.000132491 5.361e-07
5.575e-07 5.361e-07 5.17517e-05
0.00104036 -8.87065e-06 4.51897e-07
-8.87065e-06 7.6328e-05 -6.40756e-07
4.51897e-07 -6.40756e-07 5.27941e-06
0.00100966 2.40294e-06 1.51746e-07
2.40294e-06 6.2058e-05 -7.87962e-07
1.51746e-07 -7.87962e-07 -1.06235e-05
0.00102158 -4.14668e-06 -1.65427e-07
-4.14668e-06 5.88292e-05 -1.58739e-06
-1.65427e-07 -1.58739e-06 -1.82336e-05
0.00111984 8.96616e-06 -1.78763e-07
8.96616e-06 0.000111386 -4.55995e-07
-1.78763e-07 -4.55995e-07 3.30697e-05
0.00100751 -6.13524e-06 3.94261e-08
-6.13524e-06 6.36516e-05 3.35254e-07
3.94261e-08 3.35254e-07 -1.23283e-05
0.000996686 -4.36363e-06 5.94187e-08
-4.36363e-06 4.64172e-05 -1.61611e-07
5.94187e-08 -1.61611e-07 -3.44165e-05
0.00102617 -2.45063e-05 -1.61274e-07
-2.45063e-05 6.62001e-05 4.69697e-07
-1.61274e-07 4.69697e-07 -1.89466e-05
0.0010653 -1.97975e-05 1.27241e-07
-1.97975e-05 7.67989e-05 2.40982e-07
1.27241e-07 2.40982e-07 -7.12771e-06
0.00102788 -4.96269e-05 3.41942e-07
-4.96269e-05 7.19943e-05 -8.15263e-08
3.41942e-07 -8.15263e-08 -1.94739e-05
0.00111001 -4.04932e-05 -3.16348e-07
-4.04932e-05 0.000113829 -7.99841e-08
-3.16348e-07 -7.99841e-08 2.63428e-05
0.000824392 -4.85148e-05 -1.76846e-07
-4.85148e-05 -1.06429e-05 1.01011e-06
-1.76846e-07 1.01011e-06 -0.000101652
0.00110297 -5.94514e-05 -1.12594e-06
-5.94514e-05 0.000110217 1.81658e-06
-1.12594e-06 1.81658e-06 1.85464e-05
0.00113534 -5.30554e-05 2.3622e-07
-5.30554e-05 0.000131457 -1.11642e-06
2.3622e-07 -1.11642e-06 5.10893e-05
0.00086285 -4.98543e-05 3.27885e-07
-4.98543e-05 1.08604e-05 -1.17471e-06
3.27885e-07 -1.17471e-06 -7.43752e-05
0.0010252 -4.32614e-05 2.42915e-07
-4.32614e-05 7.9024e-05 -4.84308e-07
2.42915e-07 -4.84308e-07 -3.7099e-06
0.000896171 -2.72209e-05 -5.86501e-07
-2.72209e-05 5.82124e-06 7.91412e-07
-5.86501e-07 7.91412e-07 -6.70609e-05
0.00104811 -2.89349e-05 -6.60543e-08
-2.89349e-05 8.67968e-05 -1.84887e-07
-6.60543e-08 -1.84887e-07 6.36883e-06
0.00101357 -2.31549e-05 -1.78524e-07
-2.31549e-05 6.38771e-05 4.65161e-07
-1.78524e-07 4.65161e-07 -4.33118e-06
0.000969371 2.41408e-07 -3.50664e-07
2.41408e-07 3.21268e-05 1.29691e-06
-3.50664e-07 1.29691e-06 -2.03919e-05
0.00100393 -2.35357e-05 3.95936e-07
-2.35357e-05 5.9254e-05 -9.30766e-07
3.95936e-07 -9.30766e-07 -6.14735e-06
0.000965184 -6.37227e-06 -1.68966e-07
-6.37227e-06 3.14259e-05 -4.36212e-08
-1.68966e-07 -4.36212e-08 -1.86078e-05
0.000933081 9.39453e-06 -7.62395e-07
9.39453e-06 7.24734e-06 1.75396e-06
-7.62395e-07 1.75396e-06 -2.35691e-05
0.000966949 -4.56808e-06 6.17953e-07
-4.56808e-06 3.29922e-05 -9.9036e-07
6.17953e-07 -9.9036e-07 -1.51949e-05
0.00093648 3.43175e-06 -1.50901e-07
3.43175e-06 6.74771e-06 -6.037e-10
-1.50901e-07 -6.037e-10 -2.2668e-05
0.00148008 1.3148e-05 -5.02434e-06
1.3148e-05 0.000277238 4.32881e-06
-5.02434e-06 4.32881e-06 0.000278471
0.000934859 -3.67239e-06 8.96101e-07
-3.67239e-06 4.66837e-06 -1.65179e-06
8.96101e-07 -1.65179e-06 -2.36606e-05
0.00118092 9.76939e-06 -1.79689e-06
9.76939e-06 0.000121189 5.88867e-07
-1.79689e-06 5.88867e-07 0.00012191
0.00102939 9.83682e-06 -1.23662e-06
9.83682e-06 4.20557e-05 1.53493e-06
-1.23662e-06 1.53493e-06 5.92133e-05
0.000887479 6.15092e-06 6.7468e-07
6.15092e-06 -3.17335e-05 -3.07823e-06
6.7468e-07 -3.07823e-06 -3.16168e-05
0.00163319 7.56265e-06 2.73038e-06
7.56265e-06 0.000347264 -1.1943e-06
2.73038e-06 -1.1943e-06 0.000367921
0.00221896 4.02253e-06 3.66254e-06
4.02253e-06 0.000645659 -3.93761e-06
3.66254e-06 -3.93761e-06 0.000669274
0.00103547 -1.63343e-06 2.70499e-08
-1.63343e-06 6.51782e-05 -1.13671e-06
2.70499e-08 -1.13671e-06 1.98117e-05
0.000950187 -3.29824e-06 -2.65635e-07
-3.29824e-06 7.97437e-06 -1.74265e-06
-2.65635e-07 -1.74265e-06 -1.64088e-05
0.00101467 5.13116e-06 1.9593e-07
5.13116e-06 5.43356e-05 5.0184e-08
1.9593e-07 5.0184e-08 1.21468e-05
0.000896008 -3.05581e-06 -3.65159e-07
-3.05581e-06 -2.96562e-05 -3.14273e-06
-3.65159e-07 -3.14273e-06 -2.66562e-05
0.000949471 -1.75833e-06 -5.69594e-08
-1.75833e-06 6.63869e-06 -3.79932e-09
-5.69594e-08 -3.79932e-09 -1.66279e-05
0.000968688 -2.04907e-06 -2.79082e-07
-2.04907e-06 3.08409e-05 1.49661e-06
-2.79082e-07 1.49661e-06 -9.71394e-06
0.00212333 6.58676e-08 -7.52395e-07
6.58676e-08 0.000596141 -3.92638e-06
-7.52395e-07 -3.92638e-06 0.000621001
0.000891031 2.96892e-07 -8.19508e-08
2.96892e-07 -3.28702e-05 -5.64089e-09
-8.19508e-08 -5.64089e-09 -2.93743e-05
0.000947214 -3.3539e-07 -1.22429e-07
-3.3539e-07 5.0133e-06 1.78572e-06
-1.22429e-07 1.78572e-06 -1.76716e-05
0.000894307 3.75153e-06 -4.10732e-07
3.75153e-06 -3.06713e-05 3.11437e-06
-4.10732e-07 3.11437e-06 -2.74456e-05
0.0021266 4.43884e-06 -1.16918e-06
4.43884e-06 0.000598384 -7.82259e-09
-1.16918e-06 -7.82259e-09 0.000623099
0.00214189 8.49291e-06 -6.24976e-06
8.49291e-06 0.000607743 3.86476e-06
-6.24976e-06 3.86476e-06 0.000632037
-0.000996464 1.23148e-05 4.31803e-06
1.23148e-05 -0.00096583 -9.7616e-07
4.31803e-06 -9.7616e-07 -0.00097863
-0.000153827 8.77579e-05 2.63894e-05
8.77579e-05 -0.000289212 -3.1655e-06
2.63894e-05 -3.1655e-06 -0.000366134
0.00105882 7.51475e-06 7.47549e-06
7.51475e-06 0.000126727 1.13723e-06
7.47549e-06 1.13723e-06 8.9079e-05
-0.00108653 7.29753e-05 -3.72705e-06
7.29753e-05 -0.00104663 2.70791e-06
-3.72705e-06 2.70791e-06 -0.000936869
0.00188039 1.84487e-05 -7.09418e-05
1.84487e-05 0.00045433 -4.5842e-06
-7.09418e-05 -4.5842e-06 0.000226541
0.00173169 5.53387e-05 4.71907e-06
5.53387e-05 0.000206606 -1.57334e-06
4.71907e-06 -1.57334e-06 0.000139997
0.000409103 -4.84747e-06 -2.24365e-05
-4.84747e-06 -0.000450837 3.49651e-06
-2.24365e-05 3.49651e-06 -0.00091841
0.00395235 0.000166109 9.48913e-05
0.000166109 0.00174232 -2.82122e-05
9.48913e-05 -2.82122e-05 0.00166043
-0.000208224 0.000176111 1.14004e-05
0.000176111 -0.000797807 -1.29841e-05
1.14004e-05 -1.29841e-05 -0.000442459
0.00138451 4.42923e-05 -4.10331e-06
4.42923e-05 0.000254012 4.17075e-06
-4.10331e-06 4.17075e-06 6.56327e-05
0.00281054 0.00016312 7.13713e-06
0.00016312 0.000555265 -6.5441e-06
7.13713e-06 -6.5441e-06 -0.000241276
0.00286515 0.000286253 2.46309e-06
0.000286253 0.000867798 4.17778e-07
2.46309e-06 4.17778e-07 0.000860815
0.00135109 9.79708e-05 -2.72594e-06
9.79708e-05 -0.000123226 2.51951e-06
-2.72594e-06 2.51951e-06 0.000212423
0.00117232 5.706e-05 1.11395e-06
5.706e-05 0.000262915 1.73528e-07
1.11395e-06 1.73528e-07 -2.10985e-06
0.00290866 0.00021113 2.92897e-05
0.00021113 0.000547923 -2.06308e-05
2.92897e-05 -2.06308e-05 -0.00029701
-0.00237357 0.000208965 -4.69166e-05
0.000208965 -0.00204526 4.31727e-05
-4.69166e-05 4.31727e-05 -0.00188885
0.000715168 2.84276e-05 -1.30986e-06
2.84276e-05 -0.000336756 -2.94387e-06
-1.30986e-06 -2.94387e-06 -0.000200416
0.00107149 -3.10024e-06 6.63146e-07
-3.10024e-06 0.00010098 -8.83497e-07
6.63146e-07 -8.83497e-07 2.52448e-05
0.00101034 2.74381e-05 -7.03902e-07
2.74381e-05 6.92228e-05 -2.72073e-07
-7.03902e-07 -2.72073e-07 2.11226e-06
0.000976951 9.77352e-06 2.39786e-07
9.77352e-06 4.40568e-05 2.60494e-07
2.39786e-07 2.60494e-07 -9.30638e-06
0.000964068 3.87186e-05 9.82813e-07
3.87186e-05 4.6683e-05 1.58876e-06
9.82813e-07 1.58876e-06 -1.65599e-05
0.000963792 8.80605e-06 -2.4527e-07
8.80605e-06 4.37011e-05 -5.90962e-07
-2.4527e-07 -5.90962e-07 -2.93854e-05
0.00109244 2.77869e-05 8.07634e-08
2.77869e-05 0.00011034 4.96129e-07
8.07634e-08 4.96129e-07 4.35013e-05
0.000959869 8.94495e-06 -1.80231e-07
8.94495e-06 3.98133e-05 1.77374e-06
-1.80231e-07 1.77374e-06 -2.21795e-05
0.00111499 3.32412e-05 -7.03508e-07
3.32412e-05 0.000115374 -7.7071e-07
-7.03508e-07 -7.7071e-07 5.20412e-05
0.0010835 1.89348e-05 -3.63905e-09
1.89348e-05 0.000101351 4.6599e-07
-3.63905e-09 4.6599e-07 4.03953e-05
0.000882985 -1.31879e-05 -5.83657e-07
-1.31879e-05 -9.5575e-07 4.86071e-07
-5.83657e-07 4.86071e-07 -5.91126e-05
0.00200144 -4.13611e-05 -8.43136e-06
-4.13611e-05 6.31268e-06 9.62251e-07
-8.43136e-06 9.62251e-07 -1.87497e-05
0.000814569 -0.000111228 -7.60924e-06
-0.000111228 -0.000320977 4.66956e-06
-7.60924e-06 4.66956e-06 -0.00041208
0.00099113 -9.4413e-05 1.39541e-06
-9.4413e-05 4.24193e-05 4.69156e-06
1.39541e-06 4.69156e-06 -8.06276e-05
0.0012094 -5.68237e-05 1.49032e-07
-5.68237e-05 0.000196401 2.08051e-06
1.49032e-07 2.08051e-06 4.9186e-05
0.00115908 -1.94785e-05 -8.40876e-08
-1.94785e-05 0.000148422 5.90105e-07
-8.40876e-08 5.90105e-07 3.23842e-05
0.000942082 -3.8378e-05 -2.13857e-07
-3.8378e-05 3.03081e-05 6.81972e-07
-2.13857e-07 6.81972e-07 -5.79324e-05
0.000928264 1.79885e-05 -6.68769e-09
1.79885e-05 2.93134e-05 2.85185e-07
-6.68769e-09 2.85185e-07 -5.06278e-05
0.00102306 -4.27792e-06 2.51141e-07
-4.27792e-06 7.67509e-05 6.51883e-07
2.51141e-07 6.51883e-07 -3.94777e-06
0.00222007 -0.000127075 3.17747e-07
-0.000127075 0.000154453 -1.83595e-07
3.17747e-07 -1.83595e-07 0.000167564
0.00108509 -6.31424e-06 -1.27618e-07
-6.31424e-06 0.00010264 -1.75355e-07
-1.27618e-07 -1.75355e-07 1.51419e-05
0.00121938 -1.04484e-05 -4.49661e-08
-1.04484e-05 0.000158812 -1.61225e-08
-4.49661e-08 -1.61225e-08 6.19517e-05
0.00155761 -0.000125921 -1.19716e-07
-0.000125921 0.000329641 -1.42558e-06
-1.19716e-07 -1.42558e-06 0.000149668
0.00116041 -1.03077e-05 -4.2631e-07
-1.03077e-05 0.000179899 -4.02307e-08
-4.2631e-07 -4.02307e-08 3.30137e-05
0.000910476 -0.000139889 -8.06083e-06
-0.000139889 -0.00030566 -5.80858e-06
-8.06083e-06 -5.80858e-06 -0.000307614
0.00143817 -3.34338e-05 -1.59642e-06
-3.34338e-05 0.000397563 -1.05213e-06
-1.59642e-06 -1.05213e-06 0.000165048
0.000945578 2.30068e-05 -8.00832e-07
2.30068e-05 2.43891e-05 1.17399e-06
-8.00832e-07 1.17399e-06 -7.98586e-05
0.00103854 2.99559e-05 -4.27217e-08
2.99559e-05 7.45155e-05 -1.23021e-06
-4.27217e-08 -1.23021e-06 -1.07698e-05
0.00108884 2.46551e-05 -1.33762e-07
2.46551e-05 8.55471e-05 -2.32655e-07
-1.33762e-07 -2.32655e-07 -9.68463e-06
0.00205017 -5.03444e-06 6.94879e-06
-5.03444e-06 0.000859306 1.14958e-06
6.94879e-06 1.14958e-06 0.000784097
2.4101e-05 -8.22196e-06 1.12415e-05
-8.22196e-06 -0.000370542 -3.28125e-07
1.12415e-05 -3.28125e-07 -0.000384301
-0.00273833 -1.22505e-05 8.75898e-05
-1.22505e-05 -0.00173129 -5.58984e-07
8.75898e-05 -5.58984e-07 -0.00175824
0.00141096 5.72376e-05 1.23546e-06
5.72376e-05 0.000242877 1.84035e-06
1.23546e-06 1.84035e-06 0.000147861
5.04702e-05 1.43278e-05 2.36669e-06
1.43278e-05 -0.000296768 -1.26653e-06
2.36669e-06 -1.26653e-06 -0.000437237
0.00152356 8.79599e-05 9.51381e-07
8.79599e-05 0.000287629 -7.18523e-06
9.51381e-07 -7.18523e-06 0.000109704
-0.000938836 -1.77903e-05 2.73689e-06
-1.77903e-05 -0.000940428 5.55735e-07
2.73689e-06 5.55735e-07 -0.000960691
0.00268728 -0.000239637 2.74283e-05
-0.000239637 0.000215954 1.85249e-05
2.74283e-05 1.85249e-05 -0.000653918
0.00191747 0.000128077 3.17529e-05
0.000128077 0.00028987 -4.09153e-05
3.17529e-05 -4.09153e-05 0.000103286
0.00161032 3.63141e-06 5.40468e-05
3.63141e-06 0.00027792 1.31507e-05
5.40468e-05 1.31507e-05 8.66498e-05
0.00416666 -0.000348823 4.60889e-05
-0.000348823 0.00110118 5.18902e-05
4.60889e-05 5.18902e-05 0.00111935
0.000603271 6.10956e-06 -1.03728e-05
6.10956e-06 -0.000112185 -4.11625e-06
-1.03728e-05 -4.11625e-06 -0.000162666
0.00107654 -3.01145e-05 -4.16999e-06
-3.01145e-05 -7.7212e-05 -7.23479e-06
-4.16999e-06 -7.23479e-06 3.03251e-06
0.00102064 5.45182e-05 1.36477e-06
5.45182e-05 8.3616e-05 -2.81625e-07
1.36477e-06 -2.81625e-07 6.32116e-06
0.00127626 7.09345e-06 1.71035e-06
7.09345e-06 0.00038138 1.47451e-06
1.71035e-06 1.47451e-06 0.000308668
0.000915395 1.5312e-05 -1.15232e-06
1.5312e-05 4.8146e-05 -8.7923e-07
-1.15232e-06 -8.7923e-07 -5.49335e-05
-0.000344325 -1.55967e-06 1.08169e-05
-1.55967e-06 -0.000411857 -1.21334e-07
1.08169e-05 -1.21334e-07 -0.000566025
0.00236063 0.000169317 -3.46354e-05
0.000169317 0.000748677 -1.68884e-05
-3.46354e-05 -1.68884e-05 0.000560709
0.00595785 -1.59442e-05 1.68912e-05
-1.59442e-05 0.00111176 6.84193e-06
1.68912e-05 6.84193e-06 0.00025592
0.00102056 -3.9045e-06 8.87978e-08
-3.9045e-06 -9.64915e-05 3.04754e-06
8.87978e-08 3.04754e-06 -4.65791e-05
0.00147938 -0.0002106 9.5491e-07
-0.0002106 -0.000441829 2.59623e-05
9.5491e-07 2.59623e-05 -0.000355222
0.000936778 3.38742e-05 -1.51124e-06
3.38742e-05 6.29514e-05 -6.45684e-06
-1.51124e-06 -6.45684e-06 -7.40156e-07
0.00104509 1.02448e-05 1.12544e-05
1.02448e-05 0.00013098 -2.52051e-06
1.12544e-05 -2.52051e-06 1.65251e-05
0.00198662 -4.9563e-06 -2.43014e-06
-4.9563e-06 0.000676968 2.41614e-06
-2.43014e-06 2.41614e-06 0.000561533
0.000673102 1.52802e-05 -5.92915e-07
1.52802e-05 -0.00030497 6.41148e-06
-5.92915e-07 6.41148e-06 -0.000215213
-0.00134521 4.92136e-05 -5.44285e-06
4.92136e-05 -0.000778536 1.79975e-06
-5.44285e-06 1.79975e-06 -0.000911523
0.00646059 -6.5332e-05 1.58229e-05
-6.5332e-05 0.00137329 1.59626e-05
1.58229e-05 1.59626e-05 0.000829364
0.000178907 5.6636e-06 -1.42685e-06
5.6636e-06 -0.000977686 -6.47009e-05
-1.42685e-06 -6.47009e-05 -0.000758288
0.00143804 6.4254e-05 6.29934e-07
6.4254e-05 0.000259703 1.9765e-06
6.29934e-07 1.9765e-06 0.000163548
0.00135959 5.6819e-05 -9.1296e-07
5.6819e-05 0.000220764 7.2006e-07
-9.1296e-07 7.2006e-07 0.000118674
0.0017459 5.64017e-05 1.22489e-06
5.64017e-05 0.000457516 -3.18877e-06
1.22489e-06 -3.18877e-06 0.000355903
0.00104086 3.70704e-05 -2.10559e-07
3.70704e-05 7.62852e-05 -4.48081e-07
-2.10559e-07 -4.48081e-07 5.07654e-06
0.00108388 2.74645e-05 -7.14293e-08
2.74645e-05 9.96349e-05 -5.50189e-07
-7.14293e-08 -5.50189e-07 1.51198e-05
0.000861463 1.93213e-06 -4.46343e-07
1.93213e-06 1.29793e-05 8.09539e-07
-4.46343e-07 8.09539e-07 -0.000100646
0.00116566 2.69717e-05 -5.0389e-08
2.69717e-05 0.000135301 -1.80273e-07
-5.0389e-08 -1.80273e-07 5.55991e-05
0.00108595 -3.00508e-05 3.12123e-08
-3.00508e-05 0.000101119 2.08487e-07
3.12123e-08 2.08487e-07 1.27874e-06
0.00101364 -1.95394e-05 2.60891e-07
-1.95394e-05 9.21543e-05 5.1114e-07
2.60891e-07 5.1114e-07 -1.86606e-05
0.00100883 -1.21498e-05 7.01657e-08
-1.21498e-05 9.14609e-05 2.84381e-07
7.01657e-08 2.84381e-07 -8.10099e-06
0.00111029 -3.32138e-05 -6.60481e-07
-3.32138e-05 9.56824e-05 5.98739e-07
-6.60481e-07 5.98739e-07 6.23089e-06
0.00113112 7.14858e-06 -5.60304e-07
7.14858e-06 0.000115833 -9.53644e-07
-5.60304e-07 -9.53644e-07 3.82328e-05
0.00103093 -2.82096e-06 2.92007e-08
-2.82096e-06 7.63588e-05 -3.84391e-07
2.92007e-08 -3.84391e-07 9.60046e-08
0.00104356 -6.96832e-07 -1.59213e-07
-6.96832e-07 6.853e-05 -7.32441e-07
-1.59213e-07 -7.32441e-07 -1.17195e-05
0.00105022 -2.47134e-05 1.8203e-07
-2.47134e-05 6.91979e-05 3.45599e-08
1.8203e-07 3.45599e-08 -1.4943e-05
0.00103109 -2.17706e-05 -5.65863e-08
-2.17706e-05 6.72635e-05 3.93862e-07
-5.65863e-08 3.93862e-07 -1.74064e-05
0.00103092 -5.02453e-05 3.35641e-08
-5.02453e-05 8.38865e-05 1.00679e-06
3.35641e-08 1.00679e-06 -7.33821e-06
0.000995974 -4.91571e-05 1.08196e-07
-4.91571e-05 6.11889e-05 -7.09972e-07
1.08196e-07 -7.09972e-07 -2.84721e-05
0.00111296 -5.85744e-05 6.1156e-07
-5.85744e-05 0.000129171 1.00028e-06
6.1156e-07 1.00028e-06 2.25699e-05
0.00120056 -4.43353e-05 1.97533e-07
-4.43353e-05 0.000158836 -2.98263e-07
1.97533e-07 -2.98263e-07 7.13643e-05
0.00109395 -5.60295e-05 -6.04642e-08
-5.60295e-05 0.000119082 1.03181e-06
-6.04642e-08 1.03181e-06 2.77147e-05
0.000734299 -5.27918e-05 -2.89233e-07
-5.27918e-05 -7.39134e-05 1.91218e-06
-2.89233e-07 1.91218e-06 -0.000174671
0.00102519 -5.77039e-05 -1.71173e-06
-5.77039e-05 7.21523e-05 3.86739e-07
-1.71173e-06 3.86739e-07 -1.73234e-05
0.00106425 -5.40258e-05 -1.19857e-06
-5.40258e-05 9.70892e-05 1.97674e-07
-1.19857e-06 1.97674e-07 1.65147e-05
0.000987433 -5.60025e-05 -3.37054e-07
-5.60025e-05 5.61533e-05 -1.04119e-07
-3.37054e-07 -1.04119e-07 -3.53507e-05
0.00104091 -4.21614e-05 -6.03758e-07
-4.21614e-05 7.88448e-05 5.21456e-07
-6.03758e-07 5.21456e-07 4.74856e-06
0.00113313 -5.30606e-05 -2.9145e-07
-5.30606e-05 0.000130421 -2.93838e-07
-2.9145e-07 -2.93838e-07 4.95926e-05
0.000923712 -5.11064e-05 6.85394e-08
-5.11064e-05 4.39214e-05 -1.42377e-06
6.85394e-08 -1.42377e-06 -3.83162e-05
0.00113389 -4.71944e-05 6.31096e-07
-4.71944e-05 0.000132991 -6.47604e-07
6.31096e-07 -6.47604e-07 5.08047e-05
0.000960826 -2.85656e-05 7.09599e-08
-2.85656e-05 3.84433e-05 -2.75856e-08
7.09599e-08 -2.75856e-08 -3.36537e-05
0.000983451 -5.43676e-06 -5.30366e-07
-5.43676e-06 4.03013e-05 1.43006e-06
-5.30366e-07 1.43006e-06 -1.62311e-05
0.00101565 -2.58981e-05 2.93047e-07
-2.58981e-05 6.55376e-05 -5.11468e-07
2.93047e-07 -5.11468e-07 -3.08389e-06
0.000973365 -3.06281e-06 -7.3242e-08
-3.06281e-06 3.46099e-05 -8.60714e-08
-7.3242e-08 -8.60714e-08 -1.81203e-05
0.000924109 1.15597e-05 -9.43714e-07
1.15597e-05 4.85355e-06 1.88819e-06
-9.43714e-07 1.88819e-06 -2.77936e-05
0.000964319 -1.12489e-05 5.46079e-07
-1.12489e-05 3.14777e-05 -1.14246e-06
5.46079e-07 -1.14246e-06 -1.88034e-05
0.000927725 8.41894e-06 -6.6095e-08
8.41894e-06 4.29474e-06 -5.67718e-09
-6.6095e-08 -5.67718e-09 -2.65191e-05
0.00145574 1.61777e-05 -5.65936e-06
1.61777e-05 0.000269471 3.1374e-06
-5.65936e-06 3.1374e-06 0.000269404
0.000931651 -5.96652e-07 9.35067e-07
-5.96652e-07 3.99944e-06 -1.69865e-06
9.35067e-07 -1.69865e-06 -2.53796e-05
0.00117916 1.27432e-05 -2.24466e-06
1.27432e-05 0.000123834 5.81374e-07
-2.24466e-06 5.81374e-07 0.000123471
0.001026 1.31207e-05 -1.73202e-06
1.31207e-05 4.46073e-05 1.56046e-06
-1.73202e-06 1.56046e-06 6.07437e-05
0.000885071 9.1188e-06 1.02918e-06
9.1188e-06 -3.02366e-05 -3.11546e-06
1.02918e-06 -3.11546e-06 -3.08979e-05
0.0016409 1.15019e-05 3.68706e-06
1.15019e-05 0.000354147 -1.17915e-06
3.68706e-06 -1.17915e-06 0.000374158
0.0022279 8.44502e-06 6.16269e-06
8.44502e-06 0.000652075 -3.92711e-06
6.16269e-06 -3.92711e-06 0.000675313
0.000800916 -2.41499e-07 -3.60501e-07
-2.41499e-07 -5.36797e-05 -1.62441e-06
-3.60501e-07 -1.62441e-06 -0.000103905
0.000689447 -5.84285e-06 -3.52587e-07
-5.84285e-06 -0.000121483 -2.39718e-06
-3.52587e-07 -2.39718e-06 -0.000149462
0.00104826 6.13393e-07 -2.3437e-08
6.13393e-07 7.1562e-05 6.88714e-08
-2.3437e-08 6.88714e-08 2.60785e-05
0.00089731 -6.1791e-06 -6.46793e-07
-6.1791e-06 -2.73193e-05 -3.16353e-06
-6.46793e-07 -3.16353e-06 -2.54204e-05
0.000823137 -3.74843e-06 2.99208e-08
-3.74843e-06 -5.58222e-05 -1.51163e-08
2.99208e-08 -1.51163e-08 -8.10752e-05
0.00080924 -1.36755e-05 -1.4682e-07
-1.36755e-05 -4.95355e-05 1.14015e-06
-1.4682e-07 1.14015e-06 -9.29243e-05
0.00213925 -4.10764e-06 -3.66086e-06
-4.10764e-06 0.000604932 -3.95191e-06
-3.66086e-06 -3.95191e-06 0.000629495
0.000889905 -2.96602e-06 -1.32417e-07
-2.96602e-06 -3.28319e-05 -1.60004e-08
-1.32417e-07 -1.60004e-08 -2.97701e-05
0.000949912 -2.2024e-06 -4.59304e-08
-2.2024e-06 6.93913e-06 1.76419e-06
-4.59304e-08 1.76419e-06 -1.63341e-05
0.00212211 1.97291e-07 -1.22951e-06
1.97291e-07 0.000595512 1.68501e-10
-1.22951e-06 1.68501e-10 0.000620383
0.000891254 3.99806e-07 -1.02025e-07
3.99806e-07 -3.27906e-05 3.13021e-06
-1.02025e-07 3.13021e-06 -2.92869e-05
0.0021274 4.59238e-06 -3.31177e-06
4.59238e-06 0.000598951 3.89612e-06
-3.31177e-06 3.89612e-06 0.000623618
0.00131833 -8.14369e-06 9.91195e-06
-8.14369e-06 0.000380433 -4.87125e-07
9.91195e-06 -4.87125e-07 0.000304376
0.00121041 2.74183e-05 1.91163e-06
2.74183e-05 0.000303867 -1.51862e-07
1.91163e-06 -1.51862e-07 0.000326077
0.000312506 3.72687e-06 0.000112285
3.72687e-06 -0.000210324 -1.80777e-05
0.000112285 -1.80777e-05 -0.000401126
0.00101058 1.85031e-05 -4.38569e-07
1.85031e-05 5.70523e-05 -9.60724e-07
-4.38569e-07 -9.60724e-07 -8.95358e-06
0.00136 -5.18797e-06 1.50561e-05
-5.18797e-06 0.000322571 1.95089e-06
1.50561e-05 1.95089e-06 0.00022528
0.00125235 3.57122e-06 -3.79076e-06
3.57122e-06 0.000271459 3.24643e-07
-3.79076e-06 3.24643e-07 0.000223353
0.00131608 9.03792e-05 3.55545e-06
9.03792e-05 0.0003318 -3.36523e-06
3.55545e-06 -3.36523e-06 0.000484881
0.00153123 7.06726e-05 -4.26642e-05
7.06726e-05 0.000101869 1.77267e-05
-4.26642e-05 1.77267e-05 -0.000120021
0.00574851 0.000265535 1.42015e-05
0.000265535 0.00201741 -1.12577e-05
1.42015e-05 -1.12577e-05 0.00123757
-0.000871322 0.000196508 5.59903e-05
0.000196508 -0.000731231 -3.55062e-05
5.59903e-05 -3.55062e-05 -0.000698363
0.00222173 9.47635e-05 3.50324e-06
9.47635e-05 0.000420541 -6.45398e-07
3.50324e-06 -6.45398e-07 0.000738849
0.00151299 5.59005e-05 -2.37092e-05
5.59005e-05 5.67378e-05 8.78893e-06
-2.37092e-05 8.78893e-06 -0.000281081
0.00459918 0.000207976 2.2008e-05
0.000207976 0.00126121 -1.98294e-05
2.2008e-05 -1.98294e-05 0.000487044
0.00119017 0.000241116 -6.35189e-06
0.000241116 -0.000486053 1.21886e-05
-6.35189e-06 1.21886e-05 -0.000338466
0.001708 3.22361e-05 8.82966e-07
3.22361e-05 0.000186743 1.95828e-06
8.82966e-07 1.95828e-06 0.00036171
0.00289763 -7.58691e-05 2.02653e-05
-7.58691e-05 0.000629307 -3.08275e-05
2.02653e-05 -3.08275e-05 0.000263652
0.00679109 0.000196228 2.34024e-05
0.000196228 0.00176294 -3.38698e-06
2.34024e-05 -3.38698e-06 0.00083964
0.00214645 0.000221687 6.12131e-06
0.000221687 -0.000245062 6.49327e-05
6.12131e-06 6.49327e-05 -0.000213612
0.00296012 2.48144e-05 -3.48526e-06
2.48144e-05 0.00100918 -5.45713e-06
-3.48526e-06 -5.45713e-06 0.00114947
0.000967314 -3.30541e-06 7.22519e-08
-3.30541e-06 3.94963e-05 -1.23334e-06
7.22519e-08 -1.23334e-06 -4.1146e-05
0.00103589 -1.43514e-05 2.58491e-07
-1.43514e-05 8.32212e-05 -4.43668e-08
2.58491e-07 -4.43668e-08 6.79995e-06
0.00110275 3.27551e-05 -3.90512e-07
3.27551e-05 0.000116366 6.67574e-07
-3.90512e-07 6.67574e-07 4.95906e-05
0.000986093 1.14532e-05 -3.73289e-07
1.14532e-05 4.83185e-05 -1.40093e-06
-3.73289e-07 -1.40093e-06 -2.44535e-05
0.00105332 2.81988e-05 -2.73242e-07
2.81988e-05 8.83154e-05 4.01569e-07
-2.73242e-07 4.01569e-07 1.63982e-05
0.00110852 1.50257e-05 2.77617e-07
1.50257e-05 0.000117113 1.61243e-06
2.77617e-07 1.61243e-06 5.14986e-05
0.00116294 3.3306e-05 -3.00933e-07
3.3306e-05 0.000139057 5.20154e-08
-3.00933e-07 5.20154e-08 7.60232e-05
0.00117228 3.39718e-05 6.32302e-07
3.39718e-05 0.000146353 1.58082e-06
6.32302e-07 1.58082e-06 8.59137e-05
0.00153521 -0.00012387 2.22122e-06
-0.00012387 -0.000163207 -3.30109e-06
2.22122e-06 -3.30109e-06 -0.000164057
0.00136386 -0.000116843 -1.63011e-06
-0.000116843 0.00024202 4.02552e-06
-1.63011e-06 4.02552e-06 5.82938e-05
0.000995529 -5.4964e-05 -1.09789e-06
-5.4964e-05 6.36732e-05 1.32057e-06
-1.09789e-06 1.32057e-06 -1.77705e-05
0.00146278 -1.9956e-05 2.17563e-08
-1.9956e-05 0.000321755 8.7262e-07
2.17563e-08 8.7262e-07 0.000178583
0.00128421 -2.2217e-05 -5.3671e-07
-2.2217e-05 0.000191961 8.13809e-07
-5.3671e-07 8.13809e-07 9.38856e-05
0.00114105 8.25251e-06 -4.34665e-07
8.25251e-06 0.000132717 -2.17948e-07
-4.34665e-07 -2.17948e-07 4.57715e-05
0.00106596 2.60003e-05 9.23271e-08
2.60003e-05 8.93884e-05 3.12863e-07
9.23271e-08 3.12863e-07 3.47134e-06
0.00177745 -0.000160968 -3.92282e-07
-0.000160968 0.000109216 -7.94341e-07
-3.92282e-07 -7.94341e-07 0.000107432
0.00107202 1.13365e-05 4.74358e-08
1.13365e-05 8.02841e-05 -6.73753e-07
4.74358e-08 -6.73753e-07 -1.4195e-05
0.00111838 7.24039e-06 -1.88391e-07
7.24039e-06 0.000117233 1.46099e-07
-1.88391e-07 1.46099e-07 6.44258e-06
0.00111031 -2.7181e-05 -3.90348e-07
-2.7181e-05 0.000246971 4.17738e-07
-3.90348e-07 4.17738e-07 2.7785e-06
0.00119337 2.72882e-05 1.06725e-07
2.72882e-05 0.000143167 -8.60843e-07
1.06725e-07 -8.60843e-07 5.92691e-05
0.00123593 -0.000147093 -2.85727e-05
-0.000147093 0.000189753 -4.77135e-06
-2.85727e-05 -4.77135e-06 5.39068e-05
0.00137794 4.83541e-05 -5.13147e-06
4.83541e-05 0.000379142 2.10922e-06
-5.13147e-06 2.10922e-06 0.000185341
0.000947693 2.17299e-05 -4.4862e-07
2.17299e-05 8.0883e-06 2.50938e-07
-4.4862e-07 2.50938e-07 -8.16108e-05
0.00120745 4.7416e-05 -2.79022e-07
4.7416e-05 0.000150424 -1.009e-06
-2.79022e-07 -1.009e-06 5.98448e-05
0.0014379 -6.62527e-07 9.08424e-06
-6.62527e-07 0.000417479 -9.45504e-07
9.08424e-06 -9.45504e-07 0.000304921
0.00164574 -4.77981e-06 -4.51785e-06
-4.77981e-06 0.000603317 2.48127e-07
-4.51785e-06 2.48127e-07 0.0005254
-0.00106149 -6.24774e-06 1.14093e-05
-6.24774e-06 -0.000981912 7.86881e-07
1.14093e-05 7.86881e-07 -0.00100218
0.000606936 4.52069e-05 2.18245e-06
4.52069e-05 -0.000122571 1.6636e-06
2.18245e-06 1.6636e-06 -0.000196863
-0.000964321 1.26467e-05 -8.05733e-06
1.26467e-05 -0.000707406 2.28815e-06
-8.05733e-06 2.28815e-06 -0.000885197
0.00062756 8.90252e-06 -1.2874e-05
8.90252e-06 -3.14405e-06 -3.07329e-06
-1.2874e-05 -3.07329e-06 -8.10639e-05
0.0045176 -0.000291617 4.15928e-05
-0.000291617 0.000894971 9.69202e-06
4.15928e-05 9.69202e-06 -3.51015e-05
0.0029482 0.000183693 -2.76887e-05
0.000183693 0.000610923 -7.2551e-05
-2.76887e-05 -7.2551e-05 0.000199145
0.00254136 -0.000258998 1.2796e-05
-0.000258998 -0.000141446 0.000103218
1.2796e-05 0.000103218 1.35416e-05
0.00068722 1.6177e-05 -9.10229e-06
1.6177e-05 -8.94826e-05 -3.30936e-06
-9.10229e-06 -3.30936e-06 -0.000191819
0.000295823 -1.10586e-05 2.31509e-09
-1.10586e-05 -0.000498744 -2.37812e-06
2.31509e-09 -2.37812e-06 -0.000499454
0.00121078 4.50224e-05 -1.79893e-06
4.50224e-05 0.000197033 -7.9034e-07
-1.79893e-06 -7.9034e-07 0.000128585
0.000914966 7.76852e-06 6.99355e-07
7.76852e-06 4.97206e-05 -3.57532e-07
6.99355e-07 -3.57532e-07 -6.5841e-05
0.00122116 -6.10515e-06 -1.50788e-06
-6.10515e-06 0.000193383 1.44693e-06
-1.50788e-06 1.44693e-06 7.26387e-05
0.000173167 6.09243e-05 8.05557e-06
6.09243e-05 2.80803e-05 -3.72231e-06
8.05557e-06 -3.72231e-06 -6.20641e-05
0.00157499 2.04127e-05 -1.29946e-06
2.04127e-05 0.000163527 -2.09401e-06
-1.29946e-06 -2.09401e-06 0.000289302
0.00506382 6.96418e-05 2.28831e-05
6.96418e-05 0.000501592 -2.75023e-06
2.28831e-05 -2.75023e-06 0.000131773
0.00342346 1.23587e-05 -2.38034e-05
1.23587e-05 0.000394727 -3.88621e-06
-2.38034e-05 -3.88621e-06 0.000567233
0.00104909 6.27883e-05 2.22195e-06
6.27883e-05 0.000261077 -7.19645e-06
2.22195e-06 -7.19645e-06 0.000175189
0.00138105 -5.00157e-06 3.14116e-07
-5.00157e-06 0.000293117 -6.36421e-06
3.14116e-07 -6.36421e-06 0.000160535
0.0012133 -1.86152e-05 -1.69136e-05
-1.86152e-05 0.000223666 -1.03593e-06
-1.69136e-05 -1.03593e-06 0.00010747
0.00108928 0.00010185 3.60968e-06
0.00010185 -0.00028012 1.0752e-07
3.60968e-06 1.0752e-07 3.19211e-05
0.00200255 0.000252155 -5.86624e-06
0.000252155 -0.000222447 -5.97229e-05
-5.86624e-06 -5.97229e-05 -0.000238213
0.000714467 0.000119334 7.41024e-06
0.000119334 0.000367416 -5.27178e-06
7.41024e-06 -5.27178e-06 0.000352257
0.0032288 -0.000130036 4.7485e-05
-0.000130036 -5.49378e-05 2.14799e-05
4.7485e-05 2.14799e-05 -0.000497603
0.001294 5.49713e-05 -1.18352e-06
5.49713e-05 0.000181837 4.02178e-06
-1.18352e-06 4.02178e-06 7.61127e-05
0.00131404 3.83062e-05 -9.37444e-07
3.83062e-05 0.000231346 8.91378e-07
-9.37444e-07 8.91378e-07 0.000133772
7.44364e-05 -2.78182e-05 1.02742e-08
-2.78182e-05 -0.000202077 -5.54975e-06
1.02742e-08 -5.54975e-06 -0.000433158
0.0011695 1.45226e-05 -2.9985e-07
1.45226e-05 0.000135647 -5.93572e-07
-2.9985e-07 -5.93572e-07 5.71388e-05
0.00106099 -2.85226e-05 2.74076e-07
-2.85226e-05 8.76249e-05 2.13683e-07
2.74076e-07 2.13683e-07 -1.24366e-05
0.000887602 -1.91442e-05 -2.05521e-06
-1.91442e-05 2.35384e-05 3.82812e-06
-2.05521e-06 3.82812e-06 -9.19297e-05
0.00106596 -3.91951e-05 -1.96991e-07
-3.91951e-05 7.58133e-05 5.8507e-08
-1.96991e-07 5.8507e-08 -1.39986e-05
0.000888574 -2.21857e-05 7.89951e-08
-2.21857e-05 2.91194e-05 1.15359e-06
7.89951e-08 1.15359e-06 -7.13959e-05
0.00092721 -3.85686e-05 6.24722e-07
-3.85686e-05 9.07845e-05 -8.67987e-08
6.24722e-07 -8.67987e-08 -3.75931e-05
0.00103901 -2.69207e-05 1.22326e-07
-2.69207e-05 6.35866e-05 -3.03875e-07
1.22326e-07 -3.03875e-07 -2.06796e-05
0.00104044 -1.23252e-05 -2.69076e-08
-1.23252e-05 7.00087e-05 9.03819e-08
-2.69076e-08 9.03819e-08 -1.37978e-05
0.0011853 -5.20206e-05 1.0086e-07
-5.20206e-05 0.000156346 4.0731e-07
1.0086e-07 4.0731e-07 6.32467e-05
0.00100414 -5.75062e-05 4.09518e-07
-5.75062e-05 0.000105855 1.18843e-06
4.09518e-07 1.18843e-06 -1.7108e-05
0.000946537 -4.78715e-05 -5.72364e-07
-4.78715e-05 4.20784e-05 -4.40837e-07
-5.72364e-07 -4.40837e-07 -4.57573e-05
0.000867828 -5.14732e-05 6.89313e-07
-5.14732e-05 1.10401e-05 -3.11594e-07
6.89313e-07 -3.11594e-07 -9.2912e-05
0.00112838 -6.65117e-05 5.99905e-07
-6.65117e-05 0.00013472 8.60874e-07
5.99905e-07 8.60874e-07 1.78693e-05
0.00118897 -6.8415e-05 -2.11983e-06
-6.8415e-05 0.000123964 2.0367e-06
-2.11983e-06 2.0367e-06 2.34319e-05
0.00134137 -6.29016e-05 2.00607e-07
-6.29016e-05 0.000237914 -2.13176e-07
2.00607e-07 -2.13176e-07 0.000146231
0.00090496 -5.75835e-05 -3.09344e-07
-5.75835e-05 8.70213e-06 6.60211e-09
-3.09344e-07 6.60211e-09 -9.37398e-05
0.00129777 -6.53576e-05 8.66831e-08
-6.53576e-05 0.000202754 -2.56992e-08
8.66831e-08 -2.56992e-08 0.000118949
0.000861892 -4.82094e-05 -9.59159e-07
-4.82094e-05 4.83103e-06 7.09621e-08
-9.59159e-07 7.09621e-08 -7.70236e-05
0.0010258 -5.74895e-05 4.34419e-07
-5.74895e-05 7.17016e-05 4.9018e-08
4.34419e-07 4.9018e-08 -1.62817e-05
0.0010526 -4.57578e-05 -1.115e-06
-4.57578e-05 8.77163e-05 1.56553e-07
-1.115e-06 1.56553e-07 1.39142e-05
0.00109269 -5.48289e-05 -9.71602e-07
-5.48289e-05 0.000110189 5.82401e-07
-9.71602e-07 5.82401e-07 2.9442e-05
0.000868644 -5.24993e-05 -7.77322e-08
-5.24993e-05 5.95487e-07 -8.50687e-07
-7.77322e-08 -8.50687e-07 -9.07488e-05
0.0010137 -1.23172e-05 -9.88395e-07
-1.23172e-05 5.73421e-05 1.33968e-06
-9.88395e-07 1.33968e-06 -2.96985e-06
0.00100906 -4.0521e-05 2.12631e-07
-4.0521e-05 6.1878e-05 1.75734e-07
2.12631e-07 1.75734e-07 -1.21635e-05
0.00112583 -5.2517e-05 1.60056e-06
-5.2517e-05 0.000126848 -4.09457e-07
1.60056e-06 -4.09457e-07 4.56039e-05
0.00102081 -2.98171e-05 5.78852e-07
-2.98171e-05 6.88126e-05 -8.45038e-07
5.78852e-07 -8.45038e-07 -2.4988e-06
0.000982458 -5.26801e-06 1.40839e-07
-5.26801e-06 3.94878e-05 -4.39983e-08
1.40839e-07 -4.39983e-08 -1.69817e-05
0.0009253 1.17663e-05 -1.13188e-06
1.17663e-05 8.78333e-06 2.07554e-06
-1.13188e-06 2.07554e-06 -2.6611e-05
0.000972922 -6.67953e-06 4.33384e-07
-6.67953e-06 3.48258e-05 -1.28839e-06
4.33384e-07 -1.28839e-06 -1.80879e-05
0.000919839 1.23219e-05 7.41155e-08
1.23219e-05 2.84278e-06 -2.79321e-08
7.41155e-08 -2.79321e-08 -2.99128e-05
0.000840985 1.67197e-05 -1.95199e-06
1.67197e-05 -3.95779e-05 3.29235e-06
-1.95199e-06 3.29235e-06 -4.418e-05
0.000923985 6.77105e-06 8.20228e-07
6.77105e-06 2.14296e-06 -1.8278e-06
8.20228e-07 -1.8278e-06 -2.86579e-05
0.000859872 1.44238e-05 1.32571e-07
1.44238e-05 -3.48147e-05 7.02106e-09
1.32571e-07 7.02106e-09 -3.79778e-05
0.00224143 2.30335e-05 -4.26474e-06
2.30335e-05 0.000669944 1.60628e-06
-4.26474e-06 1.60628e-06 0.000690751
0.000881335 1.19134e-05 1.39095e-06
1.19134e-05 -2.85509e-05 -3.15893e-06
1.39095e-06 -3.15893e-06 -3.03362e-05
0.00165222 1.52952e-05 4.57452e-06
1.52952e-05 0.000363838 -1.16106e-06
4.57452e-06 -1.16106e-06 0.000382931
0.00224481 1.27348e-05 8.65459e-06
1.27348e-05 0.000663639 -3.92421e-06
8.65459e-06 -3.92421e-06 0.000686219
0.000789644 -2.99576e-06 -2.71906e-07
-2.99576e-06 -6.10095e-05 -1.78944e-06
-2.71906e-07 -1.78944e-06 -0.000113601
0.000671997 -7.47629e-06 -6.24822e-07
-7.47629e-06 -0.000128181 -2.46029e-06
-6.24822e-07 -2.46029e-06 -0.000159144
0.000939129 -1.28092e-06 -1.24457e-07
-1.28092e-06 1.57635e-05 -4.98894e-07
-1.24457e-07 -4.98894e-07 -3.37519e-05
0.000896573 -9.31491e-06 -9.06528e-07
-9.31491e-06 -2.48336e-05 -3.23436e-06
-9.06528e-07 -3.23436e-06 -2.45836e-05
0.000687703 -6.02099e-06 -8.45908e-08
-6.02099e-06 -0.000122142 -6.07948e-07
-8.45908e-08 -6.07948e-07 -0.000150487
0.00105845 2.40949e-07 7.96986e-08
2.40949e-07 7.69013e-05 1.25942e-06
7.96986e-08 1.25942e-06 3.11538e-05
0.00216745 -8.33658e-06 -6.28865e-06
-8.33658e-06 0.000621007 -3.98278e-06
-6.28865e-06 -3.98278e-06 0.00064495
0.000886734 -6.11022e-06 -1.00565e-07
-6.11022e-06 -3.26586e-05 -1.74807e-08
-1.00565e-07 -1.74807e-08 -3.06782e-05
0.000695513 -4.10604e-06 1.0472e-07
-4.10604e-06 -0.000119766 1.72123e-06
1.0472e-07 1.72123e-06 -0.000145908
0.00213678 -3.99706e-06 -1.26508e-06
-3.99706e-06 0.000603514 8.70767e-09
-1.26508e-06 8.70767e-09 0.00062815
0.000883954 -2.87703e-06 1.45966e-07
-2.87703e-06 -3.59171e-05 3.14827e-06
1.45966e-07 3.14827e-06 -3.27965e-05
0.00212265 3.34983e-07 -6.1537e-07
3.34983e-07 0.000595778 3.91034e-06
-6.1537e-07 3.91034e-06 0.000620651
0.00115538 -7.67594e-06 1.15619e-05
-7.67594e-06 0.00023408 -4.4353e-07
1.15619e-05 -4.4353e-07 0.000123871
0.00121393 -9.05933e-06 -4.15804e-06
-9.05933e-06 0.000312424 5.68555e-07
-4.15804e-06 5.68555e-07 0.000237631
0.00110183 1.10593e-05 3.87844e-06
1.10593e-05 0.000247597 3.2201e-06
3.87844e-06 3.2201e-06 0.000249736
0.00104885 2.4719e-05 -6.93835e-08
2.4719e-05 7.58746e-05 9.21117e-08
-6.93835e-08 9.21117e-08 1.05746e-05
0.000946646 1.51124e-05 -2.91457e-07
1.51124e-05 1.90356e-05 -9.02584e-07
-2.91457e-07 -9.02584e-07 -4.75914e-05
0.00114844 3.40785e-05 -2.54636e-07
3.40785e-05 0.000129113 -2.61405e-07
-2.54636e-07 -2.61405e-07 5.54767e-05
0.00189213 1.41379e-05 1.20303e-06
1.41379e-05 0.00062472 -7.31782e-06
1.20303e-06 -7.31782e-06 0.000529033
0.00116836 -5.57472e-06 4.71315e-06
-5.57472e-06 0.00021413 -9.03338e-07
4.71315e-06 -9.03338e-07 0.000118191
0.00142209 -5.30974e-07 -1.48132e-05
-5.30974e-07 0.000400993 3.82022e-06
-1.48132e-05 3.82022e-06 0.000341994
0.000447143 5.52684e-05 -3.15426e-05
5.52684e-05 -0.000328853 1.1151e-05
-3.15426e-05 1.1151e-05 -0.000524326
0.00233967 0.000181722 1.32459e-05
0.000181722 0.000385752 -1.52491e-05
1.32459e-05 -1.52491e-05 -0.000493356
0.00335395 0.000306534 3.69475e-05
0.000306534 0.000653326 -2.43591e-05
3.69475e-05 -2.43591e-05 0.000765009
0.000446592 1.76088e-05 4.43405e-06
1.76088e-05 -0.000546155 1.39234e-06
4.43405e-06 1.39234e-06 -0.00040567
0.000718715 -3.68244e-05 -1.15027e-05
-3.68244e-05 -0.000174124 1.02613e-05
-1.15027e-05 1.02613e-05 -0.000302798
0.00507805 9.6887e-05 3.56217e-05
9.6887e-05 0.00107299 -4.19714e-05
3.56217e-05 -4.19714e-05 0.000216535
0.000846506 0.000110993 -8.83585e-07
0.000110993 -0.000731027 1.25154e-05
-8.83585e-07 1.25154e-05 -0.000514503
0.00118208 1.62375e-05 3.33053e-07
1.62375e-05 -7.33936e-05 2.97119e-06
3.33053e-07 2.97119e-06 3.71622e-05
0.00246589 -0.000215512 2.21224e-05
-0.000215512 0.000388758 -5.23309e-05
2.21224e-05 -5.23309e-05 0.000263832
0.00797668 0.000119381 2.4938e-05
0.000119381 0.00209905 -3.25942e-05
2.4938e-05 -3.25942e-05 0.00152303
0.000151583 -1.79299e-06 1.49182e-06
-1.79299e-06 -0.000993617 6.91665e-05
1.49182e-06 6.91665e-05 -0.000804635
0.000191052 -3.17869e-06 -1.72827e-08
-3.17869e-06 -0.000676306 2.53375e-06
-1.72827e-08 2.53375e-06 -0.000540018
0.00107654 7.07239e-06 -9.64997e-08
7.07239e-06 8.84957e-05 -6.73256e-07
-9.64997e-08 -6.73256e-07 7.32895e-06
0.000988363 -2.81542e-06 -9.57301e-08
-2.81542e-06 5.18714e-05 -2.18641e-07
-9.57301e-08 -2.18641e-07 -2.91966e-05
0.00104336 -2.04823e-05 -1.75888e-07
-2.04823e-05 8.66272e-05 1.02634e-06
-1.75888e-07 1.02634e-06 9.83828e-06
0.00100702 2.02065e-05 -3.96598e-07
2.02065e-05 5.91252e-05 -6.78802e-07
-3.96598e-07 -6.78802e-07 -1.39767e-05
0.00113381 5.22888e-05 1.0995e-06
5.22888e-05 0.000129227 1.33194e-06
1.0995e-06 1.33194e-06 5.80857e-05
0.00121049 3.35971e-05 9.97631e-08
3.35971e-05 0.000162592 9.81784e-07
9.97631e-08 9.81784e-07 9.98481e-05
0.00263917 -0.000179832 6.0382e-06
-0.000179832 0.000524263 3.11247e-07
6.0382e-06 3.11247e-07 0.000522301
0.000763045 -1.42334e-05 4.94805e-07
-1.42334e-05 8.24772e-05 5.19934e-06
4.94805e-07 5.19934e-06 -0.000170451
0.00111835 2.99569e-05 4.15016e-07
2.99569e-05 0.000115885 1.10973e-06
4.15016e-07 1.10973e-06 2.98569e-05
0.00122673 -1.55456e-05 7.30788e-07
-1.55456e-05 0.000177093 -7.49183e-08
7.30788e-07 -7.49183e-08 6.01224e-05
0.0011261 1.47058e-06 2.73261e-08
1.47058e-06 0.00010998 1.91477e-07
2.73261e-08 1.91477e-07 1.66194e-05
0.00109652 2.09075e-05 3.97698e-07
2.09075e-05 9.40627e-05 1.54974e-07
3.97698e-07 1.54974e-07 1.05791e-05
0.00112449 2.99389e-05 2.32267e-07
2.99389e-05 0.000107153 -2.54043e-07
2.32267e-07 -2.54043e-07 1.68667e-05
0.00109568 -0.000137626 -1.43405e-06
-0.000137626 6.48171e-05 2.37252e-06
-1.43405e-06 2.37252e-06 -2.9559e-05
0.00122966 -1.52678e-06 5.62212e-07
-1.52678e-06 0.000144547 -1.28075e-06
5.62212e-07 -1.28075e-06 5.6514e-05
0.00141061 5.04903e-05 -1.63823e-06
5.04903e-05 0.000419878 -7.14544e-07
-1.63823e-06 -7.14544e-07 0.000234417
0.000943074 1.97174e-06 4.08676e-07
1.97174e-06 1.4707e-05 -2.25196e-06
4.08676e-07 -2.25196e-06 -7.06871e-05
-5.37125e-05 -2.36885e-05 3.6029e-06
-2.36885e-05 -8.36734e-05 -6.17968e-06
3.6029e-06 -6.17968e-06 -0.000339131
0.000436189 2.29772e-05 -2.45059e-06
2.29772e-05 -0.000168269 8.5147e-06
-2.45059e-06 8.5147e-06 -0.000219993
0.00105554 -6.27204e-06 1.78017e-07
-6.27204e-06 6.47382e-05 -1.3452e-06
1.78017e-07 -1.3452e-06 -2.64929e-05
0.00129995 -4.87608e-06 7.23803e-07
-4.87608e-06 0.000283941 -4.45508e-07
7.23803e-07 -4.45508e-07 0.000154428
0.00103818 -1.99545e-06 3.18517e-06
-1.99545e-06 0.000163914 3.52783e-08
3.18517e-06 3.52783e-08 4.68033e-05
0.00117429 -4.44645e-06 -1.77983e-05
-4.44645e-06 0.000305609 1.2532e-06
-1.77983e-05 1.2532e-06 0.000224891
0.00142136 6.33312e-05 3.26698e-06
6.33312e-05 0.000300153 4.3742e-06
3.26698e-06 4.3742e-06 0.000226343
-0.000518651 6.47688e-05 7.71221e-06
6.47688e-05 -0.000393055 -1.28177e-05
7.71221e-06 -1.28177e-05 -0.000481089
0.000796338 5.32954e-06 -7.52606e-06
5.32954e-06 -2.49839e-05 2.18479e-06
-7.52606e-06 2.18479e-06 -0.000141683
0.00339923 -3.02847e-05 -1.63922e-05
-3.02847e-05 0.000221673 -1.14067e-05
-1.63922e-05 -1.14067e-05 -3.07955e-05
-0.000978121 2.32284e-05 2.5833e-06
2.32284e-05 -0.00167081 6.92993e-05
2.5833e-06 6.92993e-05 -0.00145899
0.000538731 -6.73686e-06 -2.24062e-06
-6.73686e-06 -0.000236707 -4.79904e-06
-2.24062e-06 -4.79904e-06 -0.000363775
0.000497612 6.09094e-06 -2.21993e-06
6.09094e-06 -0.000453171 -5.36309e-06
-2.21993e-06 -5.36309e-06 -0.000360877
0.00063082 4.19456e-05 9.06755e-07
4.19456e-05 2.64006e-05 5.22939e-07
9.06755e-07 5.22939e-07 -5.88469e-05
0.00120777 -4.33728e-06 -5.02817e-07
-4.33728e-06 0.000196799 -1.87654e-07
-5.02817e-07 -1.87654e-07 6.3916e-05
0.00121079 -2.07151e-05 -4.86752e-06
-2.07151e-05 0.000236557 1.64457e-06
-4.86752e-06 1.64457e-06 0.000121022
0.00144357 0.00016789 2.90241e-05
0.00016789 0.000342614 8.7904e-07
2.90241e-05 8.7904e-07 0.00023019
0.0014794 9.0988e-05 1.77331e-06
9.0988e-05 1.35203e-05 -2.89068e-06
1.77331e-06 -2.89068e-06 0.000297165
0.0006388 0.000140024 2.293e-06
0.000140024 -0.000756823 -1.35664e-05
2.293e-06 -1.35664e-05 -0.000583805
0.00699368 -6.3643e-06 8.76745e-06
-6.3643e-06 0.0017893 -1.91755e-05
8.76745e-06 -1.91755e-05 0.00140348
-0.000844652 6.84703e-06 -2.04522e-05
6.84703e-06 -0.000179366 -1.29871e-05
-2.04522e-05 -1.29871e-05 -0.000425766
0.00116453 -1.43227e-05 -1.17071e-05
-1.43227e-05 0.00024061 7.07288e-07
-1.17071e-05 7.07288e-07 0.0001171
0.000956357 -7.36669e-07 -9.64183e-06
-7.36669e-07 6.6419e-05 5.02935e-07
-9.64183e-06 5.02935e-07 1.35536e-05
0.00133617 0.000148548 9.43412e-06
0.000148548 0.000138745 -1.49453e-06
9.43412e-06 -1.49453e-06 0.000462262
-0.00293851 0.000231702 4.33675e-05
0.000231702 -0.00217717 -3.86234e-05
4.33675e-05 -3.86234e-05 -0.00212753
0.00781533 0.00016253 8.1056e-07
0.00016253 0.00208797 -1.0918e-05
8.1056e-07 -1.0918e-05 0.00126829
0.00149164 -2.77726e-05 -2.14344e-05
-2.77726e-05 0.000340827 9.42475e-05
-2.14344e-05 9.42475e-05 8.08745e-05
0.000811534 1.98781e-05 1.33827e-06
1.98781e-05 -2.73425e-05 4.41853e-06
1.33827e-06 4.41853e-06 -0.000121403
0.00045386 -1.40754e-05 1.02772e-06
-1.40754e-05 -2.13634e-05 -1.32386e-06
1.02772e-06 -1.32386e-06 -0.000250816
0.000728101 -3.82023e-05 5.36142e-07
-3.82023e-05 0.000167316 -2.46584e-06
5.36142e-07 -2.46584e-06 -0.000101224
0.00101119 -4.29693e-05 3.50136e-07
-4.29693e-05 5.01236e-05 -7.70971e-07
3.50136e-07 -7.70971e-07 -3.98271e-05
0.000707857 -2.91465e-05 -3.3794e-07
-2.91465e-05 -6.25332e-05 1.83284e-06
-3.3794e-07 1.83284e-06 -0.000164262
0.000814697 -2.57672e-05 -1.39935e-07
-2.57672e-05 3.40022e-05 6.85568e-07
-1.39935e-07 6.85568e-07 -8.78189e-05
0.000902315 -6.96118e-05 2.4265e-06
-6.96118e-05 0.000139416 -1.18089e-06
2.4265e-06 -1.18089e-06 -6.34457e-05
0.00133947 -5.56467e-05 -2.32058e-07
-5.56467e-05 0.000228218 3.52816e-08
-2.32058e-07 3.52816e-08 0.000133579
0.00129454 -6.84997e-05 -2.4614e-08
-6.84997e-05 0.00023939 3.7529e-07
-2.4614e-08 3.7529e-07 0.000113771
0.00112346 -7.43162e-05 1.57572e-06
-7.43162e-05 0.000156172 1.9393e-06
1.57572e-06 1.9393e-06 -8.25093e-07
0.000636763 -4.4891e-05 -1.34469e-07
-4.4891e-05 -0.000100372 -1.29359e-06
-1.34469e-07 -1.29359e-06 -0.000201412
0.00110697 -6.5464e-05 -3.69215e-07
-6.5464e-05 0.000122606 6.43873e-09
-3.69215e-07 6.43873e-09 3.79471e-06
0.00169919 -8.92883e-05 -1.12001e-06
-8.92883e-05 0.000379837 1.80698e-06
-1.12001e-06 1.80698e-06 0.000257967
0.00139992 -7.86515e-05 -1.99264e-06
-7.86515e-05 0.000210084 2.59584e-06
-1.99264e-06 2.59584e-06 0.000102342
0.000837859 -5.61317e-05 -5.0818e-07
-5.61317e-05 -3.69307e-05 1.79687e-06
-5.0818e-07 1.79687e-06 -0.00012466
0.00112552 -6.72138e-05 -5.53622e-07
-6.72138e-05 9.41257e-05 5.13837e-07
-5.53622e-07 5.13837e-07 -8.05454e-06
0.00108162 -6.25159e-05 -1.59121e-07
-6.25159e-05 9.41807e-05 -8.54227e-07
-1.59121e-07 -8.54227e-07 -9.94645e-06
0.00123295 -6.13442e-05 3.93585e-07
-6.13442e-05 0.000171653 -4.64687e-07
3.93585e-07 -4.64687e-07 9.30358e-05
0.00111924 -6.02547e-05 1.21154e-06
-6.02547e-05 0.000115817 -6.24752e-07
1.21154e-06 -6.24752e-07 3.38613e-05
0.000902045 -4.0182e-05 -5.15143e-07
-4.0182e-05 2.08513e-05 6.06471e-07
-5.15143e-07 6.06471e-07 -5.48829e-05
0.000967141 -5.09455e-05 2.37797e-07
-5.09455e-05 5.59135e-05 -1.1652e-07
2.37797e-07 -1.1652e-07 -2.52003e-05
0.00103365 -5.74466e-05 2.93508e-06
-5.74466e-05 7.47527e-05 -1.39938e-06
2.93508e-06 -1.39938e-06 -1.17439e-05
0.000990117 -8.731e-06 -1.38667e-06
-8.731e-06 4.90026e-05 1.07446e-06
-1.38667e-06 1.07446e-06 -1.36584e-05
0.00106987 -4.55157e-05 -2.88831e-07
-4.55157e-05 9.49799e-05 -4.3602e-08
-2.88831e-07 -4.3602e-08 2.14276e-05
0.00111748 -5.55377e-05 3.8942e-07
-5.55377e-05 0.000121559 -3.98848e-08
3.8942e-07 -3.98848e-08 4.06355e-05
0.000918812 8.61787e-06 -1.61825e-06
8.61787e-06 8.86554e-06 2.23241e-06
-1.61825e-06 2.23241e-06 -2.98084e-05
0.000998384 -1.28192e-05 1.78234e-07
-1.28192e-05 4.88241e-05 8.92311e-08
1.78234e-07 8.92311e-08 -1.10658e-05
0.000987316 -3.96081e-05 1.31624e-06
-3.96081e-05 4.99215e-05 -2.356e-07
1.31624e-06 -2.356e-07 -2.41195e-05
0.000984048 -5.69327e-06 8.44057e-07
-5.69327e-06 3.99839e-05 -1.35627e-06
8.44057e-07 -1.35627e-06 -1.64129e-05
0.000915359 1.3375e-05 2.09366e-07
1.3375e-05 4.10406e-06 -3.8677e-08
2.09366e-07 -3.8677e-08 -3.14171e-05
0.000828193 1.90103e-05 -2.33911e-06
1.90103e-05 -4.05839e-05 3.36856e-06
-2.33911e-06 3.36856e-06 -4.71481e-05
0.00091525 1.31639e-05 8.76857e-07
1.31639e-05 6.3508e-07 -2.02979e-06
8.76857e-07 -2.02979e-06 -3.22108e-05
0.000855415 1.6889e-05 1.01648e-07
1.6889e-05 -3.24811e-05 -1.1724e-08
1.01648e-07 -1.1724e-08 -3.71524e-05
0.00232113 2.48365e-05 -1.41853e-05
2.48365e-05 0.000714828 3.84876e-06
-1.41853e-05 3.84876e-06 0.000734557
0.000877235 1.45162e-05 1.79335e-06
1.45162e-05 -2.6445e-05 -3.22167e-06
1.79335e-06 -3.22167e-06 -2.95947e-05
0.00166445 1.90312e-05 5.41969e-06
1.90312e-05 0.000375209 -1.12988e-06
5.41969e-06 -1.12988e-06 0.000393083
0.0022663 1.68995e-05 1.10119e-05
1.68995e-05 0.000678412 -3.92391e-06
1.10119e-05 -3.92391e-06 0.000700118
0.000964292 1.64647e-05 -6.29279e-07
1.64647e-05 2.67502e-05 -1.35515e-06
-6.29279e-07 -1.35515e-06 -2.7369e-05
0.000917869 -1.01453e-05 -6.87898e-07
-1.01453e-05 -2.00825e-06 -1.97029e-06
-6.87898e-07 -1.97029e-06 -3.38061e-05
0.000878012 8.25725e-06 -5.08744e-07
8.25725e-06 -1.54051e-05 -5.52781e-07
-5.08744e-07 -5.52781e-07 -6.77335e-05
0.000889107 -1.22457e-05 -1.17442e-06
-1.22457e-05 -2.47957e-05 -3.31295e-06
-1.17442e-06 -3.31295e-06 -2.65624e-05
0.00080547 -7.69417e-06 -2.42923e-07
-7.69417e-06 -6.06183e-05 -5.92995e-07
-2.42923e-07 -5.92995e-07 -9.0998e-05
0.00107901 -2.25292e-06 1.42742e-07
-2.25292e-06 8.60906e-05 6.80407e-07
1.42742e-07 6.80407e-07 3.72804e-05
0.00221323 -1.26232e-05 -8.70014e-06
-1.26232e-05 0.000647089 -4.01616e-06
-8.70014e-06 -4.01616e-06 0.000670067
0.000880925 -9.21628e-06 -9.60164e-08
-9.21628e-06 -3.26972e-05 -2.07211e-08
-9.60164e-08 -2.07211e-08 -3.23352e-05
0.000686124 -6.14818e-06 1.22543e-07
-6.14818e-06 -0.000122782 1.24608e-06
1.22543e-07 1.24608e-06 -0.00015148
0.0021678 -8.21918e-06 -1.12255e-06
-8.21918e-06 0.000620916 1.93259e-08
-1.12255e-06 1.93259e-08 0.000644954
0.000875317 -6.03747e-06 4.83525e-07
-6.03747e-06 -3.84144e-05 3.16956e-06
4.83525e-07 3.16956e-06 -3.63524e-05
0.00213409 -3.88174e-06 2.22308e-06
-3.88174e-06 0.000601958 3.9056e-06
2.22308e-06 3.9056e-06 0.00062667
0.00138081 2.2096e-06 1.46437e-06
2.2096e-06 0.000302216 3.47801e-06
1.46437e-06 3.47801e-06 0.000179321
0.00121444 -6.54627e-06 2.99442e-06
-6.54627e-06 0.00026506 -6.51243e-07
2.99442e-06 -6.51243e-07 0.000155479
0.00117526 -1.01069e-05 -1.81281e-05
-1.01069e-05 0.000284546 1.64079e-06
-1.81281e-05 1.64079e-06 0.000211763
0.000948128 9.17343e-06 -2.55773e-07
9.17343e-06 1.79892e-05 -1.10348e-06
-2.55773e-07 -1.10348e-06 -5.00998e-05
0.00113266 3.13165e-05 -2.83355e-07
3.13165e-05 0.000115029 -6.82002e-07
-2.83355e-07 -6.82002e-07 3.88498e-05
0.00108774 2.9238e-05 1.01883e-06
2.9238e-05 9.5263e-05 1.00879e-06
1.01883e-06 1.00879e-06 3.05404e-05
0.00093076 1.39607e-05 -5.19829e-08
1.39607e-05 1.14565e-05 1.26866e-08
-5.19829e-08 1.26866e-08 -5.53367e-05
0.00107613 2.19836e-05 1.94041e-07
2.19836e-05 9.04874e-05 3.52759e-07
1.94041e-07 3.52759e-07 1.67863e-05
0.00104701 2.86199e-05 -3.87004e-07
2.86199e-05 7.40081e-05 -7.13924e-07
-3.87004e-07 -7.13924e-07 -8.60027e-07
0.00105918 4.92369e-05 -1.65308e-07
4.92369e-05 8.46934e-05 -1.64019e-07
-1.65308e-07 -1.64019e-07 3.66027e-06
0.00100381 2.74435e-05 -5.80497e-06
2.74435e-05 0.00011967 -6.40297e-06
-5.80497e-06 -6.40297e-06 1.734e-05
0.00112178 1.28741e-05 7.95947e-07
1.28741e-05 0.000140282 -6.3337e-06
7.95947e-07 -6.3337e-06 3.78875e-05
0.000997343 -6.23252e-06 -5.48437e-06
-6.23252e-06 0.00011922 4.8652e-06
-5.48437e-06 4.8652e-06 2.47932e-05
-5.35097e-05 8.00287e-06 3.26684e-06
8.00287e-06 -0.000797182 5.6424e-06
3.26684e-06 5.6424e-06 -0.000728377
0.000920595 -4.64898e-05 -6.138e-05
-4.64898e-05 -0.000462118 5.92824e-05
-6.138e-05 5.92824e-05 -0.000676845
0.00204203 7.63277e-05 5.29161e-05
7.63277e-05 -1.06147e-05 -5.65888e-05
5.29161e-05 -5.65888e-05 -0.000772123
0.00454139 0.000189489 1.80244e-05
0.000189489 0.000831996 -2.65368e-05
1.80244e-05 -2.65368e-05 0.00100534
0.00132892 -0.000183467 -2.29605e-05
-0.000183467 -0.000218559 2.11293e-05
-2.29605e-05 2.11293e-05 -0.000468027
0.00321759 -7.30868e-05 2.14212e-05
-7.30868e-05 -0.000133536 -4.94681e-05
2.14212e-05 -4.94681e-05 -0.000861422
0.00345923 -2.44301e-05 -4.24386e-06
-2.44301e-05 0.000330985 1.06692e-06
-4.24386e-06 1.06692e-06 0.00044585
0.00199556 -1.16979e-05 3.77477e-07
-1.16979e-05 0.000334165 4.01655e-06
3.77477e-07 4.01655e-06 0.000528456
0.0012875 -0.000144532 3.26823e-05
-0.000144532 6.98033e-05 -2.38266e-05
3.26823e-05 -2.38266e-05 -6.87501e-05
0.00320062 -0.000238514 -1.92383e-05
-0.000238514 -0.000541772 -0.000105709
-1.92383e-05 -0.000105709 -0.000852487
-0.000160427 -8.56491e-05 2.25456e-05
-8.56491e-05 -0.00125672 4.63398e-05
2.25456e-05 4.63398e-05 -0.00110614
-0.000767448 -6.71989e-05 -4.96493e-06
-6.71989e-05 -0.00129879 1.18247e-06
-4.96493e-06 1.18247e-06 -0.00103942
0.00113693 7.27398e-06 -6.34904e-07
7.27398e-06 0.000110559 -8.33698e-07
-6.34904e-07 -8.33698e-07 2.87595e-05
0.00103865 1.01679e-05 7.04957e-08
1.01679e-05 7.00252e-05 -2.06187e-07
7.04957e-08 -2.06187e-07 -1.16629e-05
0.000986759 -3.31521e-07 1.9035e-10
-3.31521e-07 5.29815e-05 5.63368e-07
1.9035e-10 5.63368e-07 -2.86003e-05
0.00103489 2.18112e-05 9.14316e-08
2.18112e-05 7.2792e-05 3.9354e-08
9.14316e-08 3.9354e-08 -3.10068e-07
0.00186982 -0.000142021 1.15596e-05
-0.000142021 0.000396942 3.77918e-06
1.15596e-05 3.77918e-06 0.00034229
0.00126056 4.61221e-05 2.8949e-06
4.61221e-05 0.000387491 2.01897e-06
2.8949e-06 2.01897e-06 0.000203832
0.000990092 1.77619e-05 1.32214e-07
1.77619e-05 3.95567e-05 1.24585e-06
1.32214e-07 1.24585e-06 -4.35384e-05
0.00102599 1.94557e-05 -1.27556e-07
1.94557e-05 5.69109e-05 1.1224e-06
-1.27556e-07 1.1224e-06 -3.33439e-05
0.00152934 -4.65756e-07 -5.8676e-07
-4.65756e-07 0.000291178 -1.05157e-06
-5.8676e-07 -1.05157e-06 0.000204253
0.00100419 1.90245e-05 -8.11375e-07
1.90245e-05 4.60096e-05 -1.41213e-08
-8.11375e-07 -1.41213e-08 -3.98727e-05
0.00100822 -8.95754e-07 -1.17683e-06
-8.95754e-07 4.07038e-05 5.85937e-07
-1.17683e-06 5.85937e-07 -5.18918e-05
0.000627396 -3.5691e-05 1.16797e-05
-3.5691e-05 0.000236309 -1.01487e-06
1.16797e-05 -1.01487e-06 3.63544e-05
0.000851832 9.98878e-06 2.67131e-06
9.98878e-06 3.8946e-05 4.45414e-06
2.67131e-06 4.45414e-06 -8.46712e-06
0.00120793 6.55638e-07 1.07812e-07
6.55638e-07 0.000151703 -3.27615e-06
1.07812e-07 -3.27615e-06 5.85389e-05
0.000453051 1.60017e-05 5.41677e-06
1.60017e-05 0.000364523 2.17373e-06
5.41677e-06 2.17373e-06 0.000103578
0.0016785 -3.40456e-05 7.42372e-06
-3.40456e-05 0.000452265 -1.01414e-07
7.42372e-06 -1.01414e-07 0.000335838
0.00150313 -4.04953e-06 -9.99475e-06
-4.04953e-06 0.000466567 8.31098e-07
-9.99475e-06 8.31098e-07 0.000342375
0.00107072 -4.38005e-06 3.27176e-07
-4.38005e-06 0.000154305 -3.43867e-07
3.27176e-07 -3.43867e-07 2.25887e-05
0.00068888 -3.10214e-06 -2.86995e-06
-3.10214e-06 -5.79527e-05 -2.08566e-07
-2.86995e-06 -2.08566e-07 -0.000179796
0.00037635 2.37367e-05 -2.90193e-06
2.37367e-05 -0.000132091 6.17161e-06
-2.90193e-06 6.17161e-06 -0.000217289
0.00130581 8.33335e-05 -4.17358e-05
8.33335e-05 0.000565054 8.49943e-06
-4.17358e-05 8.49943e-06 0.000594763
0.00100538 -3.64186e-06 -9.56338e-09
-3.64186e-06 8.30259e-05 4.20048e-06
-9.56338e-09 4.20048e-06 -5.0352e-05
0.00315537 0.000176086 1.9475e-05
0.000176086 -7.58059e-05 -8.85739e-05
1.9475e-05 -8.85739e-05 -0.000574944
0.00473765 0.000223202 -1.45383e-05
0.000223202 0.00098947 1.86317e-05
-1.45383e-05 1.86317e-05 0.00112147
0.001183 -2.31894e-05 6.99825e-06
-2.31894e-05 0.000233462 -7.01596e-06
6.99825e-06 -7.01596e-06 0.000118992
0.0022188 8.72002e-05 -2.89972e-06
8.72002e-05 0.000489847 -2.5518e-06
-2.89972e-06 -2.5518e-06 0.000743374
-3.45987e-06 -8.26664e-06 1.84449e-05
-8.26664e-06 0.000134076 -1.79026e-07
1.84449e-05 -1.79026e-07 -6.28547e-05
0.00122199 -1.36498e-05 -3.33169e-06
-1.36498e-05 0.000270427 5.80624e-07
-3.33169e-06 5.80624e-07 0.000147109
0.00122373 -4.3628e-06 3.72903e-06
-4.3628e-06 0.000259658 2.21053e-08
3.72903e-06 2.21053e-08 0.000196549
0.00201538 -3.33339e-05 -1.38063e-05
-3.33339e-05 0.000694849 1.74355e-05
-1.38063e-05 1.74355e-05 0.000640126
0.000526768 0.000160061 -1.81112e-06
0.000160061 -0.000332965 1.67689e-06
-1.81112e-06 1.67689e-06 1.99502e-06
0.00115573 0.000274658 4.71834e-06
0.000274658 -0.000377374 -1.06411e-05
4.71834e-06 -1.06411e-05 -0.000322601
0.00304355 1.89611e-05 2.06424e-05
1.89611e-05 0.000277462 -9.83511e-06
2.06424e-05 -9.83511e-06 -0.000736127
0.000690501 -6.26647e-05 8.33223e-06
-6.26647e-05 0.000393605 -1.72279e-05
8.33223e-06 -1.72279e-05 0.000156335
0.00138725 -1.13062e-05 -1.11274e-05
-1.13062e-05 0.000427642 1.35296e-06
-1.11274e-05 1.35296e-06 0.000337808
-0.00118631 6.08173e-05 7.66219e-06
6.08173e-05 -0.00114859 -5.62729e-06
7.66219e-06 -5.62729e-06 -0.00106535
0.00010766 0.000215299 5.40368e-05
0.000215299 -7.36249e-05 -2.8088e-05
5.40368e-05 -2.8088e-05 -1.81375e-05
0.0059723 0.000361674 3.78044e-05
0.000361674 0.00161669 -4.81133e-05
3.78044e-05 -4.81133e-05 0.000744109
0.00211078 -0.000166764 -4.89813e-05
-0.000166764 0.000128876 0.000107142
-4.89813e-05 0.000107142 -0.000375458
0.00107693 -8.67287e-06 -2.31478e-06
-8.67287e-06 0.000267375 5.89976e-07
-2.31478e-06 5.89976e-07 4.623e-05
0.000583492 -2.64699e-05 7.07318e-08
-2.64699e-05 0.000105825 -9.89747e-07
7.07318e-08 -9.89747e-07 -0.000169301
0.00145368 -0.000100183 2.18704e-06
-0.000100183 0.000434244 4.98614e-07
2.18704e-06 4.98614e-07 0.00018394
0.000710849 -1.96949e-05 -5.00219e-07
-1.96949e-05 -1.65057e-05 -1.22229e-07
-5.00219e-07 -1.22229e-07 -0.00013295
0.000516744 -4.68123e-05 7.37614e-08
-4.68123e-05 -3.03936e-05 2.90979e-07
7.37614e-08 2.90979e-07 -0.000239043
0.00123668 -9.48895e-05 2.31186e-06
-9.48895e-05 0.000225947 4.48627e-06
2.31186e-06 4.48627e-06 3.65357e-05
0.00158706 -7.99294e-05 -1.45576e-06
-7.99294e-05 0.000374628 7.3915e-09
-1.45576e-06 7.3915e-09 0.000245006
0.00123774 -7.71194e-05 -1.24409e-07
-7.71194e-05 0.000204351 7.40058e-07
-1.24409e-07 7.40058e-07 4.6209e-05
0.00123778 -9.02849e-05 -8.10034e-07
-9.02849e-05 0.000143758 1.10309e-07
-8.10034e-07 1.10309e-07 -6.15481e-06
0.00110413 -6.50287e-05 -5.44533e-07
-6.50287e-05 0.000119897 -8.62057e-07
-5.44533e-07 -8.62057e-07 -1.5308e-06
0.0015305 -8.55714e-05 -2.99268e-09
-8.55714e-05 0.000294681 1.89987e-07
-2.99268e-09 1.89987e-07 0.000170832
0.00132355 -8.24907e-05 -2.77866e-07
-8.24907e-05 0.000164054 1.71221e-07
-2.77866e-07 1.71221e-07 4.20024e-05
0.00131817 -7.57078e-05 -1.61541e-06
-7.57078e-05 0.000132099 9.22971e-08
-1.61541e-06 9.22971e-08 2.77857e-05
0.00150916 -7.70412e-05 -2.01182e-06
-7.70412e-05 0.000268317 2.94323e-06
-2.01182e-06 2.94323e-06 0.000172625
0.00134373 -7.76736e-05 -3.52636e-07
-7.76736e-05 0.000181659 3.35731e-07
-3.52636e-07 3.35731e-07 7.24964e-05
0.000804957 -5.27151e-05 8.76059e-08
-5.27151e-05 -4.88666e-05 8.57225e-09
8.76059e-08 8.57225e-09 -0.000128512
0.000972192 -5.94057e-05 9.05448e-07
-5.94057e-05 3.01697e-05 -2.89399e-07
9.05448e-07 -2.89399e-07 -5.68507e-05
0.00108005 -6.65412e-05 7.24381e-07
-6.65412e-05 7.29923e-05 -1.37702e-06
7.24381e-07 -1.37702e-06 -3.08484e-05
0.00111185 -5.16627e-05 -1.70955e-07
-5.16627e-05 0.000115226 1.48014e-07
-1.70955e-07 1.48014e-07 3.88697e-05
0.00116014 -5.92427e-05 -1.65809e-08
-5.92427e-05 0.000136984 -1.84175e-07
-1.65809e-08 -1.84175e-07 5.80526e-05
0.000930012 -5.48961e-05 1.9701e-06
-5.48961e-05 2.36771e-05 -5.21648e-07
1.9701e-06 -5.21648e-07 -5.64195e-05
0.000925196 -7.44339e-07 -7.05687e-07
-7.44339e-07 2.16172e-05 1.00172e-06
-7.05687e-07 1.00172e-06 -4.36738e-05
0.000938529 -3.95863e-05 -1.02357e-07
-3.95863e-05 3.74364e-05 1.72112e-07
-1.02357e-07 1.72112e-07 -3.76356e-05
0.00107685 -5.37927e-05 8.04832e-07
-5.37927e-05 0.000109177 -4.60496e-07
8.04832e-07 -4.60496e-07 2.87988e-05
0.000893383 1.2935e-05 -2.2073e-06
1.2935e-05 -8.24507e-07 2.21538e-06
-2.2073e-06 2.21538e-06 -4.2755e-05
0.000993346 -9.43007e-06 -2.69886e-07
-9.43007e-06 4.96449e-05 2.09322e-08
-2.69886e-07 2.09322e-08 -1.27498e-05
0.00108211 -4.58881e-05 5.16955e-07
-4.58881e-05 9.98075e-05 -2.59885e-07
5.16955e-07 -2.59885e-07 2.64834e-05
0.000853306 2.1189e-05 -3.88167e-06
2.1189e-05 -2.34231e-05 4.75818e-06
-3.88167e-06 4.75818e-06 -3.21967e-05
0.000908598 1.28685e-05 3.2464e-07
1.28685e-05 4.26925e-06 -2.0847e-08
3.2464e-07 -2.0847e-08 -3.45517e-05
0.000982767 -1.32277e-05 1.34891e-06
-1.32277e-05 4.02359e-05 -1.05711e-06
1.34891e-06 -1.05711e-06 -1.93025e-05
0.000905343 1.52423e-05 1.20271e-06
1.52423e-05 -6.45976e-07 -2.17261e-06
1.20271e-06 -2.17261e-06 -3.62814e-05
0.000844402 1.92737e-05 1.23256e-07
1.92737e-05 -3.25641e-05 -3.39225e-08
1.23256e-07 -3.39225e-08 -3.92354e-05
0.00236075 2.87468e-05 -1.6064e-05
2.87468e-05 0.000740682 3.8184e-06
-1.6064e-05 3.8184e-06 0.000759045
0.000870758 1.70739e-05 2.16268e-06
1.70739e-05 -2.49288e-05 -3.30437e-06
2.16268e-06 -3.30437e-06 -2.96709e-05
0.00231994 2.48455e-05 6.1631e-07
2.48455e-05 0.000714888 4.30677e-08
6.1631e-07 4.30677e-08 0.000734481
0.00229022 2.09199e-05 1.32233e-05
2.09199e-05 0.000695189 -3.9147e-06
1.32233e-05 -3.9147e-06 0.00071585
0.00104229 2.76034e-05 -5.89723e-07
2.76034e-05 6.78986e-05 -1.10787e-06
-5.89723e-07 -1.10787e-06 -2.46236e-06
0.00098333 1.18676e-05 -6.07212e-07
1.18676e-05 3.42571e-05 -1.55775e-06
-6.07212e-07 -1.55775e-06 -2.27193e-05
0.000909068 -1.57467e-05 -7.85921e-07
-1.57467e-05 -4.25089e-06 -2.10515e-06
-7.85921e-07 -2.10515e-06 -3.84091e-05
0.000974965 1.2925e-05 1.02397e-07
1.2925e-05 3.1857e-05 -3.88104e-08
1.02397e-07 -3.88104e-08 -2.21136e-05
0.000878702 -1.48117e-05 -1.58782e-06
-1.48117e-05 -2.58143e-05 -3.39975e-06
-1.58782e-06 -3.39975e-06 -2.96627e-05
0.000925041 -1.15611e-05 -1.73713e-09
-1.15611e-05 1.78889e-06 -6.25816e-09
-1.73713e-09 -6.25816e-09 -3.00615e-05
0.000965718 1.713e-05 1.58937e-07
1.713e-05 2.90178e-05 8.01208e-07
1.58937e-07 8.01208e-07 -2.2527e-05
0.00227092 -1.68759e-05 -1.0987e-05
-1.68759e-05 0.000680114 -4.05401e-06
-1.0987e-05 -4.05401e-06 0.000701873
0.000871956 -1.21627e-05 -9.91293e-08
-1.21627e-05 -3.33571e-05 -2.36844e-08
-9.91293e-08 -2.36844e-08 -3.5017e-05
0.000939731 -8.00048e-06 2.56049e-07
-8.00048e-06 7.28751e-06 1.31033e-06
2.56049e-07 1.31033e-06 -2.25078e-05
0.00221003 -1.25127e-05 -9.94899e-07
-1.25127e-05 0.000645065 2.90791e-08
-9.94899e-07 2.90791e-08 0.000668195
0.000865777 -9.11408e-06 7.35113e-07
-9.11408e-06 -4.02977e-05 3.2312e-06
7.35113e-07 3.2312e-06 -3.98266e-05
0.00216493 -8.08586e-06 5.09763e-06
-8.08586e-06 0.00061916 3.92504e-06
5.09763e-06 3.92504e-06 0.000643312
0.000964631 9.98715e-06 -1.03247e-05
9.98715e-06 0.0001009 8.7443e-07
-1.03247e-05 8.7443e-07 -2.1955e-05
0.00115877 1.7087e-06 7.08293e-07
1.7087e-06 0.000173103 -8.72315e-07
7.08293e-07 -8.72315e-07 4.839e-05
0.00128625 -5.42606e-06 -5.81178e-06
-5.42606e-06 0.000304208 -1.9103e-06
-5.81178e-06 -1.9103e-06 0.000195149
0.000986669 1.87096e-05 -6.90008e-08
1.87096e-05 3.89506e-05 1.08628e-08
-6.90008e-08 1.08628e-08 -2.96943e-05
0.00107731 2.8837e-05 5.31771e-08
2.8837e-05 8.6367e-05 2.48617e-07
5.31771e-08 2.48617e-07 9.83391e-06
0.00100202 3.33801e-05 -9.58125e-07
3.33801e-05 5.23679e-05 -1.21719e-06
-9.58125e-07 -1.21719e-06 -2.64337e-05
0.000953089 2.28318e-05 -2.71406e-07
2.28318e-05 2.40951e-05 -1.29729e-06
-2.71406e-07 -1.29729e-06 -5.19138e-05
0.0011465 4.46687e-05 -3.87125e-07
4.46687e-05 0.000126037 -7.73254e-07
-3.87125e-07 -7.73254e-07 4.45377e-05
0.000912552 1.66089e-05 2.26136e-07
1.66089e-05 3.28582e-06 9.62157e-07
2.26136e-07 9.62157e-07 -6.40464e-05
0.00100527 1.10418e-05 2.86213e-07
1.10418e-05 5.25135e-05 1.06722e-06
2.86213e-07 1.06722e-06 -2.12456e-05
0.00103635 3.55568e-05 -1.03884e-07
3.55568e-05 6.98541e-05 -1.75714e-08
-1.03884e-07 -1.75714e-08 -5.49504e-06
0.00105057 2.74024e-05 3.60341e-07
2.74024e-05 7.69195e-05 4.63195e-07
3.60341e-07 4.63195e-07 -2.55297e-06
0.00109418 3.05619e-05 -2.69522e-07
3.05619e-05 0.000101033 -7.3277e-07
-2.69522e-07 -7.3277e-07 2.00548e-05
0.000830331 3.25542e-06 -1.08199e-05
3.25542e-06 7.40735e-05 8.34315e-07
-1.08199e-05 8.34315e-07 4.60003e-06
0.00088956 2.82757e-05 3.64825e-07
2.82757e-05 5.29423e-05 -3.07176e-06
3.64825e-07 -3.07176e-06 -4.9326e-05
0.000266719 1.17958e-05 5.98458e-07
1.17958e-05 -0.00039892 -1.07847e-06
5.98458e-07 -1.07847e-06 -0.000506712
0.0011487 -5.15809e-06 6.62789e-06
-5.15809e-06 -0.00015119 7.12682e-06
6.62789e-06 7.12682e-06 3.31439e-05
-0.00177128 1.46392e-05 -2.79496e-06
1.46392e-05 -0.00214869 -7.09198e-05
-2.79496e-06 -7.09198e-05 -0.00196943
0.00139717 -0.000223222 -6.59813e-05
-0.000223222 -0.000326 8.95737e-05
-6.59813e-05 8.95737e-05 -0.00067871
0.00701867 0.000116878 -1.32636e-05
0.000116878 0.00147911 -4.73402e-05
-1.32636e-05 -4.73402e-05 0.0010773
0.000869913 -0.00019096 -3.74225e-05
-0.00019096 -0.000350557 2.92395e-05
-3.74225e-05 2.92395e-05 -0.000734983
0.00754996 -0.00012303 2.0039e-05
-0.00012303 0.00177432 2.01817e-06
2.0039e-05 2.01817e-06 0.00134806
0.000934794 -0.000162465 4.8067e-06
-0.000162465 -0.000778005 -1.98639e-05
4.8067e-06 -1.98639e-05 -0.000668139
0.000114581 -7.2662e-05 2.89268e-06
-7.2662e-05 -0.000766533 9.31451e-08
2.89268e-06 9.31451e-08 -0.000499598
0.00181296 -7.61776e-05 -2.26335e-05
-7.61776e-05 0.000327796 -5.51297e-05
-2.26335e-05 -5.51297e-05 -8.06077e-05
0.00693236 -0.000265003 -1.56831e-05
-0.000265003 0.00154971 4.97579e-05
-1.56831e-05 4.97579e-05 0.00102187
0.00537921 -0.00030808 1.39004e-05
-0.00030808 0.00158664 2.41008e-05
1.39004e-05 2.41008e-05 0.00172608
0.00109043 -0.000142691 1.64556e-06
-0.000142691 -0.000126995 4.29183e-07
1.64556e-06 4.29183e-07 0.000269956
0.00096253 2.62242e-05 -7.73093e-07
2.62242e-05 4.22671e-05 -9.28585e-07
-7.73093e-07 -9.28585e-07 -3.60106e-05
0.0011075 6.43666e-06 -1.16444e-07
6.43666e-06 0.000100031 1.0595e-07
-1.16444e-07 1.0595e-07 1.76517e-05
0.00102681 9.15239e-06 2.33556e-07
9.15239e-06 6.40028e-05 5.65887e-07
2.33556e-07 5.65887e-07 -1.79059e-05
0.00100577 -3.4522e-05 2.00497e-05
-3.4522e-05 0.000383812 -2.68558e-06
2.00497e-05 -2.68558e-06 0.000240654
0.0012295 -8.53786e-06 6.49368e-07
-8.53786e-06 0.000224461 4.28468e-07
6.49368e-07 4.28468e-07 0.000181417
0.00104169 1.44789e-05 -1.05719e-07
1.44789e-05 6.46807e-05 2.06395e-06
-1.05719e-07 2.06395e-06 -2.0848e-05
0.000984912 -1.14005e-05 -5.64226e-07
-1.14005e-05 2.78267e-05 2.78743e-06
-5.64226e-07 2.78743e-06 -6.53086e-05
0.00108107 -3.0598e-06 1.69877e-07
-3.0598e-06 9.14121e-05 3.68652e-08
1.69877e-07 3.68652e-08 -1.07165e-06
0.000913724 -3.46687e-05 1.07945e-06
-3.46687e-05 9.56168e-05 1.90217e-06
1.07945e-06 1.90217e-06 -3.06052e-05
-6.12932e-05 1.73233e-05 1.4013e-06
1.73233e-05 8.0929e-05 -5.41658e-06
1.4013e-06 -5.41658e-06 -0.000184652
0.000472738 1.53461e-05 -2.41525e-06
1.53461e-05 -9.77574e-05 2.55378e-07
-2.41525e-06 2.55378e-07 -0.000236409
0.00128761 4.43956e-05 2.68428e-06
4.43956e-05 0.000508259 6.97102e-06
2.68428e-06 6.97102e-06 0.000334151
0.00204783 -7.4119e-06 -1.34658e-05
-7.4119e-06 0.000868184 -1.53286e-06
-1.34658e-05 -1.53286e-06 0.000783157
0.00105889 -4.60046e-06 -3.29678e-06
-4.60046e-06 0.000185605 -2.84859e-07
-3.29678e-06 -2.84859e-07 5.7416e-05
0.000880964 -3.78792e-06 7.65217e-07
-3.78792e-06 4.94441e-05 3.60609e-07
7.65217e-07 3.60609e-07 -8.45077e-05
6.38284e-05 3.50071e-06 -7.09759e-06
3.50071e-06 0.000132327 1.7263e-05
-7.09759e-06 1.7263e-05 -2.98614e-05
-4.19704e-05 2.50955e-05 4.28043e-05
2.50955e-05 -0.000495525 -5.0427e-05
4.28043e-05 -5.0427e-05 -0.000829893
0.0012825 -1.29072e-05 5.33137e-06
-1.29072e-05 0.000302142 3.18516e-06
5.33137e-06 3.18516e-06 0.000178946
0.0078121 0.000182463 3.02794e-05
0.000182463 0.00189679 -9.63689e-06
3.02794e-05 -9.63689e-06 0.00101008
0.00350165 0.000349365 -3.10725e-05
0.000349365 0.000855571 1.85233e-05
-3.10725e-05 1.85233e-05 0.000839622
0.00146117 -8.33921e-06 1.64471e-05
-8.33921e-06 0.000432021 -6.62874e-06
1.64471e-05 -6.62874e-06 0.000359557
-0.00024833 0.000171837 -9.77239e-06
0.000171837 -0.000797793 1.27033e-05
-9.77239e-06 1.27033e-05 -0.000460688
-0.000151635 -2.29128e-05 -9.88966e-06
-2.29128e-05 2.79434e-05 2.14357e-08
-9.88966e-06 2.14357e-08 -0.000207751
0.00121003 -1.21597e-05 4.04528e-06
-1.21597e-05 0.000312755 -3.11892e-07
4.04528e-06 -3.11892e-07 0.000223949
-0.00108589 7.06969e-05 4.55464e-06
7.06969e-05 -0.0010368 -3.0603e-06
4.55464e-06 -3.0603e-06 -0.000942557
0.00189766 -0.000113589 8.41047e-06
-0.000113589 0.000372344 3.28153e-05
8.41047e-06 3.28153e-05 -2.73263e-05
0.00291793 0.000307681 -2.43404e-06
0.000307681 0.000924454 -1.23319e-06
-2.43404e-06 -1.23319e-06 0.000880056
0.0060268 0.00012148 2.03948e-05
0.00012148 0.00153152 -1.09939e-05
2.03948e-05 -1.09939e-05 0.00039546
0.00162889 -6.03686e-05 1.05998e-05
-6.03686e-05 0.00035663 1.00601e-06
1.05998e-05 1.00601e-06 0.000349806
-0.000976677 1.25025e-05 -5.0982e-06
1.25025e-05 -0.000948056 5.99584e-07
-5.0982e-06 5.99584e-07 -0.000973604
0.00239569 0.000212497 4.27087e-05
0.000212497 0.000855944 -1.58103e-05
4.27087e-05 -1.58103e-05 0.000787175
0.00351132 0.000285504 -2.65005e-05
0.000285504 0.000678187 2.1445e-05
-2.65005e-05 2.1445e-05 -0.000178976
0.00142802 -7.79867e-05 8.3561e-06
-7.79867e-05 4.25724e-05 4.24909e-05
8.3561e-06 4.24909e-05 -0.000213612
0.000566016 -1.39463e-05 -4.00818e-07
-1.39463e-05 9.8041e-05 3.07965e-06
-4.00818e-07 3.07965e-06 -0.000178927
0.000939967 -8.99132e-05 4.52084e-07
-8.99132e-05 0.000205518 -1.58955e-06
4.52084e-07 -1.58955e-06 -7.04666e-05
0.00237213 -0.000162453 6.011e-07
-0.000162453 0.000666193 2.96074e-06
6.011e-07 2.96074e-06 0.000462523
0.000180229 -2.45005e-05 -1.32138e-06
-2.45005e-05 -0.000180286 1.90428e-06
-1.32138e-06 1.90428e-06 -0.000391514
0.00090137 -8.54387e-05 9.14349e-07
-8.54387e-05 6.66015e-05 1.72225e-07
9.14349e-07 1.72225e-07 -0.000124389
0.00131223 -0.000113017 -1.32798e-06
-0.000113017 0.000124765 1.25526e-06
-1.32798e-06 1.25526e-06 -1.83116e-05
0.00136066 -7.95783e-05 -1.59529e-06
-7.95783e-05 0.000254852 -6.43732e-08
-1.59529e-06 -6.43732e-08 9.76387e-05
0.00121452 -8.8176e-05 -1.05253e-06
-8.8176e-05 0.000127608 -9.57331e-07
-1.05253e-06 -9.57331e-07 -1.65404e-05
0.00156981 -9.63004e-05 -9.36896e-07
-9.63004e-05 0.000228667 -2.62466e-07
-9.36896e-07 -2.62466e-07 0.00011753
0.00142468 -8.30289e-05 -1.5138e-07
-8.30289e-05 0.000240762 -1.33064e-06
-1.5138e-07 -1.33064e-06 0.00011583
0.00127933 -8.01296e-05 3.87714e-07
-8.01296e-05 0.000138996 -8.51102e-07
3.87714e-07 -8.51102e-07 1.9629e-05
0.00140621 -7.76972e-05 -1.47399e-06
-7.76972e-05 0.000139299 -1.54566e-06
-1.47399e-06 -1.54566e-06 4.04159e-05
0.00131677 -6.99273e-05 -1.27411e-06
-6.99273e-05 8.1058e-05 -7.92423e-07
-1.27411e-06 -7.92423e-07 -7.01487e-06
0.00114775 -6.86735e-05 -1.3091e-06
-6.86735e-05 6.31521e-05 1.00375e-06
-1.3091e-06 1.00375e-06 -3.40935e-05
0.00123993 -7.3178e-05 3.00062e-07
-7.3178e-05 9.17979e-05 -8.21931e-07
3.00062e-07 -8.21931e-07 -1.147e-05
0.0012488 -6.66549e-05 -8.70516e-07
-6.66549e-05 0.000151757 1.97146e-06
-8.70516e-07 1.97146e-06 6.59221e-05
0.00123943 -7.06145e-05 -2.57461e-07
-7.06145e-05 0.000136939 4.79937e-07
-2.57461e-07 4.79937e-07 3.94912e-05
0.00127041 -7.61591e-05 7.8463e-07
-7.61591e-05 0.000144926 -1.74044e-06
7.8463e-07 -1.74044e-06 3.43588e-05
0.00101743 -5.40777e-05 -3.88774e-07
-5.40777e-05 6.04839e-05 -3.78381e-07
-3.88774e-07 -3.78381e-07 -1.40604e-05
0.000887418 -5.4577e-05 -1.81996e-07
-5.4577e-05 -7.31776e-06 -7.08046e-07
-1.81996e-07 -7.08046e-07 -8.60286e-05
0.00111774 -6.29772e-05 2.14132e-06
-6.29772e-05 0.000102769 -2.17292e-06
2.14132e-06 -2.17292e-06 1.64415e-05
0.000961341 -1.70903e-05 -6.32545e-07
-1.70903e-05 4.18593e-05 8.51379e-07
-6.32545e-07 8.51379e-07 -2.58252e-05
0.00104105 -4.89716e-05 1.63233e-07
-4.89716e-05 8.11804e-05 2.96751e-07
1.63233e-07 2.96751e-07 5.05412e-06
0.00108559 -5.71195e-05 5.3981e-07
-5.71195e-05 0.000101392 3.32067e-07
5.3981e-07 3.32067e-07 2.21551e-05
0.00087873 2.76966e-05 -1.983e-06
2.76966e-05 -2.49017e-06 2.07817e-06
-1.983e-06 2.07817e-06 -4.83948e-05
0.000981532 -3.05762e-06 -7.95802e-08
-3.05762e-06 4.91128e-05 2.56961e-09
-7.95802e-08 2.56961e-09 -1.62653e-05
0.000974474 -3.86351e-05 1.29748e-07
-3.86351e-05 5.37733e-05 -2.07049e-07
1.29748e-07 -2.07049e-07 -2.06331e-05
0.00150168 2.72768e-05 -1.01393e-05
2.72768e-05 0.000312287 3.30709e-06
-1.01393e-05 3.30709e-06 0.0003046
0.000900609 1.21001e-05 8.94115e-08
1.21001e-05 2.80176e-06 -1.78081e-08
8.94115e-08 -1.78081e-08 -3.90418e-05
0.00100069 -9.99939e-06 9.1971e-07
-9.99939e-06 5.22474e-05 -1.01099e-06
9.1971e-07 -1.01099e-06 -9.80136e-06
0.001059 2.09478e-05 -1.50053e-05
2.09478e-05 8.37528e-05 3.87621e-06
-1.50053e-05 3.87621e-06 9.3967e-05
0.00118505 2.34497e-05 -3.65465e-06
2.34497e-05 0.000146093 5.15765e-07
-3.65465e-06 5.15765e-07 0.000138705
0.000898981 1.72454e-05 1.5334e-06
1.72454e-05 -1.87158e-07 -2.12651e-06
1.5334e-06 -2.12651e-06 -3.90595e-05
0.000860257 1.95549e-05 2.56619e-06
1.95549e-05 -2.47246e-05 -3.41113e-06
2.56619e-06 -3.41113e-06 -3.15023e-05
0.00236729 2.87203e-05 5.30695e-07
2.87203e-05 0.000744671 4.68264e-08
5.30695e-07 4.68264e-08 0.000762836
0.00232148 2.48228e-05 1.52424e-05
2.48228e-05 0.000716352 -3.89541e-06
1.52424e-05 -3.89541e-06 0.000735799
0.00099418 2.70996e-05 -9.1529e-07
2.70996e-05 4.63705e-05 -1.30556e-06
-9.1529e-07 -1.30556e-06 -2.71025e-05
0.000992191 2.46707e-06 -6.71176e-07
2.46707e-06 3.92403e-05 -1.70094e-06
-6.71176e-07 -1.70094e-06 -2.06908e-05
0.00102542 2.222e-05 -1.11254e-07
2.222e-05 5.89247e-05 2.20925e-08
-1.11254e-07 2.20925e-08 -1.17104e-05
0.000901233 -1.90332e-05 -1.02379e-06
-1.90332e-05 -6.0714e-06 -2.29879e-06
-1.02379e-06 -2.29879e-06 -4.24011e-05
0.000984795 6.15062e-06 2.16198e-07
6.15062e-06 3.48433e-05 -6.6866e-08
2.16198e-07 -6.6866e-08 -2.18658e-05
0.000867617 -1.69688e-05 -2.04967e-06
-1.69688e-05 -2.72481e-05 -3.46989e-06
-2.04967e-06 -3.46989e-06 -3.29718e-05
0.000916783 -1.25016e-05 -2.57305e-07
-1.25016e-05 -3.88291e-07 1.16657e-09
-2.57305e-07 1.16657e-09 -3.44914e-05
0.000986741 1.41118e-05 6.23636e-07
1.41118e-05 3.82567e-05 1.47039e-06
6.23636e-07 1.47039e-06 -1.60369e-05
0.00233045 -2.09815e-05 -1.3331e-05
-2.09815e-05 0.000714661 -4.0617e-06
-1.3331e-05 -4.0617e-06 0.000735107
0.000861178 -1.47044e-05 -1.41554e-07
-1.47044e-05 -3.45529e-05 -1.57222e-08
-1.41554e-07 -1.57222e-08 -3.8303e-05
0.000933878 -1.08129e-05 6.5449e-07
-1.08129e-05 6.35457e-06 1.93744e-06
6.5449e-07 1.93744e-06 -2.54944e-05
0.00226725 -1.68223e-05 -8.65672e-07
-1.68223e-05 0.000677773 3.69691e-08
-8.65672e-07 3.69691e-08 0.000699704
0.000854921 -1.20778e-05 9.96272e-07
-1.20778e-05 -4.18561e-05 3.32193e-06
9.96272e-07 3.32193e-06 -4.34113e-05
0.00220767 -1.23787e-05 7.62282e-06
-1.23787e-05 0.000643459 3.93785e-06
7.62282e-06 3.93785e-06 0.000666737
0.000593828 3.54751e-06 -1.10488e-05
3.54751e-06 -8.37825e-06 -5.19551e-06
-1.10488e-05 -5.19551e-06 -9.68633e-05
0.000913802 7.82008e-06 -4.88228e-07
7.82008e-06 6.90456e-05 -3.514e-07
-4.88228e-07 -3.514e-07 -5.45516e-05
0.000911231 1.25393e-06 -3.16575e-07
1.25393e-06 2.84047e-05 -2.83186e-06
-3.16575e-07 -2.83186e-06 -9.82233e-05
0.00103957 4.73949e-05 -9.34222e-07
4.73949e-05 7.31948e-05 -2.60652e-07
-9.34222e-07 -2.60652e-07 -5.6778e-06
0.00103217 1.84377e-05 2.87775e-07
1.84377e-05 6.23481e-05 1.09725e-06
2.87775e-07 1.09725e-06 -6.15376e-06
0.00101627 2.78852e-05 4.34841e-07
2.78852e-05 5.5299e-05 1.24933e-06
4.34841e-07 1.24933e-06 -2.17698e-05
0.00104942 2.22344e-05 5.06163e-08
2.22344e-05 7.2974e-05 -2.34433e-07
5.06163e-08 -2.34433e-07 -2.40835e-06
0.00105803 4.10488e-05 -1.64455e-07
4.10488e-05 8.16325e-05 -1.03916e-07
-1.64455e-07 -1.03916e-07 2.66205e-06
0.00105785 4.18585e-05 1.4307e-07
4.18585e-05 8.05384e-05 3.75149e-07
1.4307e-07 3.75149e-07 -6.7519e-07
0.00105833 4.99856e-05 -1.15006e-06
4.99856e-05 8.26305e-05 -1.29073e-06
-1.15006e-06 -1.29073e-06 -8.90016e-07
0.000953389 3.97728e-05 -4.35246e-07
3.97728e-05 3.11876e-05 -1.23606e-06
-4.35246e-07 -1.23606e-06 -5.1291e-05
0.00102798 4.49799e-05 5.99215e-07
4.49799e-05 6.69764e-05 7.30533e-07
5.99215e-07 7.30533e-07 -8.97926e-06
0.00101224 8.69494e-06 4.11562e-07
8.69494e-06 5.53615e-05 9.44189e-07
4.11562e-07 9.44189e-07 -2.29393e-05
0.00107584 3.30264e-05 -1.06891e-07
3.30264e-05 9.26524e-05 -1.15905e-08
-1.06891e-07 -1.15905e-08 1.14166e-05
0.0014989 3.88296e-05 9.74772e-07
3.88296e-05 0.000300566 -1.33469e-06
9.74772e-07 -1.33469e-06 0.000216485
0.00215272 -6.87321e-05 3.49284e-06
-6.87321e-05 0.000823392 2.03874e-06
3.49284e-06 2.03874e-06 0.00094431
0.0006912 7.88885e-06 1.15498e-06
7.88885e-06 -1.30105e-05 2.14468e-06
1.15498e-06 2.14468e-06 -8.16493e-05
0.000880876 2.88817e-05 8.69215e-06
2.88817e-05 5.41679e-05 -3.87908e-07
8.69215e-06 -3.87908e-07 -4.84906e-05
0.00150941 -8.7306e-05 3.76707e-06
-8.7306e-05 1.84664e-05 -2.86138e-06
3.76707e-06 -2.86138e-06 0.000302059
0.00337729 -0.000217577 -1.9001e-07
-0.000217577 0.000189653 -9.17013e-05
-1.9001e-07 -9.17013e-05 0.000286107
0.00309443 5.54629e-05 -2.05068e-05
5.54629e-05 -0.000553016 0.000103315
-2.05068e-05 0.000103315 -0.00084749
0.000791944 -0.000183051 -5.83413e-05
-0.000183051 -7.55746e-05 6.52455e-05
-5.83413e-05 6.52455e-05 -0.000319493
0.00199975 -5.26167e-05 -1.39446e-05
-5.26167e-05 0.000667431 1.83883e-06
-1.39446e-05 1.83883e-06 0.000416149
0.000387102 -0.000143023 6.78594e-07
-0.000143023 -0.000427418 -4.61608e-07
6.78594e-07 -4.61608e-07 -8.15827e-05
0.00523976 -8.45992e-05 1.26832e-05
-8.45992e-05 0.000636472 5.36337e-05
1.26832e-05 5.36337e-05 -8.75737e-05
-0.000616147 -0.000193563 -6.52885e-06
-0.000193563 -0.000904575 -1.27983e-05
-6.52885e-06 -1.27983e-05 -0.000757942
0.00224845 0.000124327 -5.8719e-05
0.000124327 0.000596257 -4.94257e-05
-5.8719e-05 -4.94257e-05 0.000374606
0.00671098 -0.000234023 5.28155e-06
-0.000234023 0.00188739 3.51788e-05
5.28155e-06 3.51788e-05 0.00117362
-6.39444e-05 -0.000169527 3.60739e-05
-0.000169527 -9.44857e-05 2.08194e-05
3.60739e-05 2.08194e-05 -6.86642e-06
0.00085784 6.73311e-05 -3.4199e-06
6.73311e-05 1.49735e-05 -3.29374e-06
-3.4199e-06 -3.29374e-06 -6.00684e-05
0.00117129 3.02798e-05 2.09672e-06
3.02798e-05 0.000138435 2.46837e-07
2.09672e-06 2.46837e-07 6.09587e-05
0.00108591 1.81297e-05 -2.5625e-07
1.81297e-05 9.42706e-05 5.48491e-07
-2.5625e-07 5.48491e-07 1.06461e-05
-0.000730663 9.43721e-06 -3.57448e-06
9.43721e-06 -0.000282365 -1.40162e-05
-3.57448e-06 -1.40162e-05 -0.000550772
0.000419437 -2.34709e-05 -6.66156e-07
-2.34709e-05 -0.00013546 2.7367e-06
-6.66156e-07 2.7367e-06 -0.00027216
0.000928313 1.0011e-05 2.4566e-06
1.0011e-05 2.00784e-05 3.9804e-06
2.4566e-06 3.9804e-06 -7.22679e-05
0.00106134 3.52522e-05 3.20049e-09
3.52522e-05 0.000175649 1.92824e-07
3.20049e-09 1.92824e-07 4.01137e-05
0.00077505 2.29661e-05 1.87974e-06
2.29661e-05 0.000261195 -4.05332e-07
1.87974e-06 -4.05332e-07 9.79492e-05
-0.00120811 5.20184e-05 -2.80713e-06
5.20184e-05 -0.000788884 1.6779e-05
-2.80713e-06 1.6779e-05 -0.000959219
0.00270994 -1.71029e-05 -8.6947e-06
-1.71029e-05 0.00121919 -1.80838e-08
-8.6947e-06 -1.80838e-08 0.001229
0.000927461 -5.49418e-06 -8.37232e-07
-5.49418e-06 0.000181793 -1.1753e-06
-8.37232e-07 -1.1753e-06 8.61683e-05
0.000643853 -4.98414e-06 3.92033e-06
-4.98414e-06 -7.71168e-05 1.46634e-07
3.92033e-06 1.46634e-07 -0.000209373
-5.69449e-05 -2.85823e-05 1.22039e-05
-2.85823e-05 7.83293e-05 1.59257e-05
1.22039e-05 1.59257e-05 -0.000162217
0.00105337 -9.2705e-05 -5.53469e-06
-9.2705e-05 3.54092e-05 -4.69083e-05
-5.53469e-06 -4.69083e-05 -0.000262186
0.00115131 -1.30187e-05 1.92813e-05
-1.30187e-05 0.000272053 -1.77059e-06
1.92813e-05 -1.77059e-06 0.00018474
0.0015045 0.000142386 -3.30687e-05
0.000142386 -0.000226622 3.25711e-05
-3.30687e-05 3.25711e-05 -0.00123516
-0.00115992 0.000208694 -5.3259e-05
0.000208694 -0.00083909 2.88834e-05
-5.3259e-05 2.88834e-05 -0.00083276
0.00127267 8.98338e-05 -1.74736e-06
8.98338e-05 0.000305024 1.64252e-06
-1.74736e-06 1.64252e-06 0.000454429
0.0015912 -7.17924e-05 2.11363e-06
-7.17924e-05 0.000370735 2.12371e-06
2.11363e-06 2.12371e-06 0.000338826
0.00123347 2.36668e-05 -2.27694e-06
2.36668e-05 0.000315366 1.71843e-07
-2.27694e-06 1.71843e-07 0.000332197
-0.00186912 0.000114086 -6.35925e-06
0.000114086 -0.000962023 3.34322e-06
-6.35925e-06 3.34322e-06 -0.000983521
0.00325804 -0.000142913 -1.11865e-05
-0.000142913 0.000670424 2.13474e-05
-1.11865e-05 2.13474e-05 0.000223856
0.00494737 0.000250265 -7.05311e-06
0.000250265 0.00130492 3.01466e-06
-7.05311e-06 3.01466e-06 0.000489408
0.00095559 -9.48304e-05 5.66771e-06
-9.48304e-05 -0.000209519 7.3271e-06
5.66771e-06 7.3271e-06 -0.000147724
-0.00269842 4.84703e-05 5.61145e-05
4.84703e-05 -0.00168768 -1.43899e-05
5.61145e-05 -1.43899e-05 -0.00169151
0.0049922 0.000241557 1.1105e-05
0.000241557 0.00145524 -4.57479e-06
1.1105e-05 -4.57479e-06 0.000810201
0.0028896 1.16467e-05 -1.26955e-05
1.16467e-05 0.000449902 2.8999e-05
-1.26955e-05 2.8999e-05 0.000134088
0.000516073 -7.93935e-05 -1.91797e-06
-7.93935e-05 2.66169e-05 -1.64118e-06
-1.91797e-06 -1.64118e-06 -0.000281063
0.00114245 -0.000130763 3.60214e-07
-0.000130763 0.000100496 1.0081e-06
3.60214e-07 1.0081e-06 -0.000109575
0.00162777 -0.000162932 -3.81204e-06
-0.000162932 0.000152315 3.79816e-06
-3.81204e-06 3.79816e-06 1.93789e-05
0.000475445 -7.37659e-05 -1.57567e-06
-7.37659e-05 -0.000132765 -1.81012e-06
-1.57567e-06 -1.81012e-06 -0.000328663
0.00126109 -0.000111168 -1.48231e-06
-0.000111168 9.44389e-05 -1.43198e-06
-1.48231e-06 -1.43198e-06 -4.76434e-05
0.00205654 -0.000116588 -5.58166e-06
-0.000116588 0.000351995 -7.05754e-07
-5.58166e-06 -7.05754e-07 0.000263843
0.00119343 -8.64078e-05 -4.83346e-07
-8.64078e-05 0.000114628 -2.56579e-06
-4.83346e-07 -2.56579e-06 -2.49521e-05
0.0013255 -8.94271e-05 1.08868e-06
-8.94271e-05 0.000111232 -6.99112e-07
1.08868e-06 -6.99112e-07 1.68755e-06
0.00166048 -8.18147e-05 -1.61359e-06
-8.18147e-05 0.000192456 -2.23811e-06
-1.61359e-06 -2.23811e-06 0.000118609
0.00116249 -7.60686e-05 2.6196e-07
-7.60686e-05 7.7723e-05 -1.32695e-06
2.6196e-07 -1.32695e-06 -3.94567e-05
0.00125834 -7.34412e-05 -3.01506e-07
-7.34412e-05 6.16131e-05 -5.89012e-07
-3.01506e-07 -5.89012e-07 -3.57818e-05
0.00142245 -6.73948e-05 -1.0965e-06
-6.73948e-05 8.14488e-05 -1.8099e-06
-1.0965e-06 -1.8099e-06 1.24265e-05
0.00139608 -6.31908e-05 -1.20624e-06
-6.31908e-05 8.87755e-05 -1.09661e-06
-1.20624e-06 -1.09661e-06 2.05054e-05
0.00131099 -6.92924e-05 -1.65557e-06
-6.92924e-05 9.93296e-05 -1.68659e-07
-1.65557e-06 -1.68659e-07 1.16833e-05
0.00130011 -6.79377e-05 5.55459e-07
-6.79377e-05 7.27729e-05 2.38105e-07
5.55459e-07 2.38105e-07 -1.35712e-05
0.000859217 -5.82243e-05 -1.27209e-06
-5.82243e-05 -6.54891e-05 1.4509e-06
-1.27209e-06 1.4509e-06 -0.000153991
0.00125932 -7.08102e-05 7.22167e-07
-7.08102e-05 0.000118537 -6.67353e-07
7.22167e-07 -6.67353e-07 2.24099e-05
0.00114682 -7.02404e-05 1.44904e-06
-7.02404e-05 4.41851e-05 -1.31708e-06
1.44904e-06 -1.31708e-06 -5.80082e-05
0.00105453 -5.81516e-05 -3.06234e-07
-5.81516e-05 7.02887e-05 8.74934e-07
-3.06234e-07 8.74934e-07 -6.53358e-06
0.00103962 -6.12866e-05 2.64353e-07
-6.12866e-05 5.16629e-05 -1.48313e-07
2.64353e-07 -1.48313e-07 -3.43173e-05
0.000965776 -6.40837e-05 8.48397e-07
-6.40837e-05 3.6035e-06 -1.89927e-06
8.48397e-07 -1.89927e-06 -9.55932e-05
0.000998597 -3.66066e-05 -1.22653e-06
-3.66066e-05 5.69831e-05 2.65248e-07
-1.22653e-06 2.65248e-07 -1.09544e-05
0.00105977 -5.47432e-05 -1.90814e-07
-5.47432e-05 8.04383e-05 -2.75785e-07
-1.90814e-07 -2.75785e-07 5.85272e-06
0.000979507 -5.67047e-05 4.39702e-08
-5.67047e-05 3.91134e-05 -1.24028e-06
4.39702e-08 -1.24028e-06 -3.86977e-05
0.000907515 7.11268e-06 -2.20755e-06
7.11268e-06 1.91864e-05 2.00781e-06
-2.20755e-06 2.00781e-06 -3.05456e-05
0.000993894 -1.86916e-05 3.36796e-07
-1.86916e-05 5.71174e-05 2.18692e-07
3.36796e-07 2.18692e-07 -1.04346e-05
0.000970221 -4.60791e-05 6.97435e-07
-4.60791e-05 4.70169e-05 3.09537e-07
6.97435e-07 3.09537e-07 -2.88572e-05
0.000789893 2.59481e-05 -4.00082e-06
2.59481e-05 -4.36979e-05 3.47844e-06
-4.00082e-06 3.47844e-06 -5.71568e-05
0.000897482 9.01153e-06 -2.09851e-07
9.01153e-06 5.69007e-06 -4.63465e-08
-2.09851e-07 -4.63465e-08 -3.96653e-05
0.00102482 -5.32209e-06 7.24943e-07
-5.32209e-06 7.00915e-05 -1.06113e-06
7.24943e-07 -1.06113e-06 4.66504e-06
0.00244624 4.00659e-05 -7.62776e-06
4.00659e-05 0.000797478 1.58283e-06
-7.62776e-06 1.58283e-06 0.000812098
0.000807715 2.34989e-05 1.57896e-07
2.34989e-05 -4.0479e-05 3.92586e-08
1.57896e-07 3.92586e-08 -5.19604e-05
0.000905343 1.08605e-05 2.34487e-06
1.08605e-05 5.545e-06 -2.07646e-06
2.34487e-06 -2.07646e-06 -3.65037e-05
0.00243302 3.25153e-05 4.53669e-07
3.25153e-05 0.000783498 4.70092e-08
4.53669e-07 4.70092e-08 0.000800149
0.000845708 2.18041e-05 3.15063e-06
2.18041e-05 -2.64758e-05 -3.49782e-06
3.15063e-06 -3.49782e-06 -3.5709e-05
0.00237213 2.86562e-05 1.72873e-05
2.86562e-05 0.0007478 -3.91358e-06
1.72873e-05 -3.91358e-06 0.000765777
0.00109057 4.12818e-05 -7.18226e-07
4.12818e-05 9.75071e-05 -3.01653e-07
-7.18226e-07 -3.01653e-07 2.3434e-05
0.00101743 2.74242e-05 -1.5367e-07
2.74242e-05 5.85783e-05 -2.06677e-07
-1.5367e-07 -2.06677e-07 -1.47844e-05
0.000993618 2.59467e-06 -9.76911e-07
2.59467e-06 4.48901e-05 -1.63726e-06
-9.76911e-07 -1.63726e-06 -1.89198e-05
0.000897471 -1.59624e-05 -1.53181e-06
-1.59624e-05 -4.93557e-06 -2.50575e-06
-1.53181e-06 -2.50575e-06 -4.38156e-05
0.000987187 1.06825e-06 5.37024e-08
1.06825e-06 3.73221e-05 -5.07137e-09
5.37024e-08 -5.07137e-09 -2.26406e-05
0.00100301 2.48095e-05 5.91815e-07
2.48095e-05 4.81111e-05 1.23375e-06
5.91815e-07 1.23375e-06 -2.33585e-05
0.000856184 -1.90055e-05 -2.599e-06
-1.90055e-05 -2.91229e-05 -3.55179e-06
-2.599e-06 -3.55179e-06 -3.64339e-05
0.000908045 -1.51347e-05 -1.3151e-07
-1.51347e-05 -3.23289e-06 -1.8003e-08
-1.3151e-07 -1.8003e-08 -3.93257e-05
0.000982356 1.35401e-06 5.55096e-07
1.35401e-06 3.34339e-05 1.57126e-06
5.55096e-07 1.57126e-06 -2.29868e-05
0.00237547 -2.48978e-05 -1.5517e-05
-2.48978e-05 0.0007422 -4.04363e-06
-1.5517e-05 -4.04363e-06 0.00076139
0.000850755 -1.68353e-05 -1.3584e-07
-1.68353e-05 -3.56047e-05 -8.95878e-09
-1.3584e-07 -8.95878e-09 -4.12454e-05
0.000922493 -1.17718e-05 8.22247e-07
-1.17718e-05 2.30368e-06 2.03655e-06
8.22247e-07 2.03655e-06 -3.16784e-05
0.00232722 -2.09905e-05 -8.32887e-07
-2.09905e-05 0.000712506 4.52759e-08
-8.32887e-07 4.52759e-08 0.000733117
0.000842912 -1.4592e-05 1.3087e-06
-1.4592e-05 -4.36551e-05 3.4223e-06
1.3087e-06 3.4223e-06 -4.73042e-05
0.00226153 -1.67131e-05 9.90112e-06
-1.67131e-05 0.000674385 3.96073e-06
9.90112e-06 3.96073e-06 0.000696502
0.000408758 -2.237e-05 -2.44083e-07
-2.237e-05 -8.54893e-05 -6.79306e-08
-2.44083e-07 -6.79306e-08 -9.28072e-05
0.000542383 5.95313e-06 -1.36796e-06
5.95313e-06 -3.89778e-05 -1.19902e-06
-1.36796e-06 -1.19902e-06 -0.000127581
0.000863339 5.62898e-06 7.36359e-06
5.62898e-06 3.70751e-05 -1.81483e-06
7.36359e-06 -1.81483e-06 -8.7315e-05
0.00103 4.57462e-05 3.15971e-08
4.57462e-05 6.80019e-05 1.88412e-07
3.15971e-08 1.88412e-07 -1.10968e-05
0.00118536 5.64043e-05 -8.90948e-07
5.64043e-05 0.000150585 1.32142e-07
-8.90948e-07 1.32142e-07 7.29932e-05
0.00106093 5.33893e-05 -9.11151e-07
5.33893e-05 8.17639e-05 -3.96699e-07
-9.11151e-07 -3.96699e-07 2.79175e-07
0.00113121 1.97268e-05 2.77296e-08
1.97268e-05 0.000114471 5.51104e-07
2.77296e-08 5.51104e-07 3.98859e-05
0.00112778 4.47027e-05 6.12536e-07
4.47027e-05 0.000117199 8.799e-07
6.12536e-07 8.799e-07 3.84525e-05
0.000994999 3.29666e-05 4.04651e-07
3.29666e-05 4.64408e-05 1.44183e-06
4.04651e-07 1.44183e-06 -3.38442e-05
0.00100326 3.58492e-05 -1.45226e-07
3.58492e-05 5.50314e-05 4.60634e-08
-1.45226e-07 4.60634e-08 -2.69312e-05
0.00107415 4.57538e-05 1.23891e-07
4.57538e-05 8.96508e-05 6.65137e-08
1.23891e-07 6.65137e-08 6.74202e-06
0.00108093 4.76627e-05 -1.32395e-06
4.76627e-05 0.000104189 -1.56411e-06
-1.32395e-06 -1.56411e-06 1.65984e-05
0.000903876 4.05728e-05 -1.62624e-06
4.05728e-05 1.0274e-05 -2.67897e-06
-1.62624e-06 -2.67897e-06 -7.49077e-05
0.00107169 3.9808e-05 2.0718e-07
3.9808e-05 9.15019e-05 5.71116e-07
2.0718e-07 5.71116e-07 9.71173e-06
0.00123628 3.96408e-05 2.62965e-07
3.96408e-05 0.000174355 -7.06292e-08
2.62965e-07 -7.06292e-08 9.01402e-05
-0.00276333 -9.7438e-05 4.52058e-05
-9.7438e-05 -0.00151294 2.15905e-05
4.52058e-05 2.15905e-05 -0.00154078
0.00118569 -6.89047e-05 -1.05621e-06
-6.89047e-05 0.000278197 -9.48151e-07
-1.05621e-06 -9.48151e-07 0.000388536
0.00059654 1.27021e-05 1.23242e-05
1.27021e-05 -7.53162e-05 3.71351e-06
1.23242e-05 3.71351e-06 -0.00014364
-0.000236681 -0.00014196 1.04368e-06
-0.00014196 -0.000690448 -7.56865e-06
1.04368e-06 -7.56865e-06 -0.000395398
0.00381692 -0.000291846 -1.38945e-05
-0.000291846 0.000990645 -5.45795e-05
-1.38945e-05 -5.45795e-05 0.00113041
0.00503075 -8.10579e-05 3.62015e-05
-8.10579e-05 0.000780969 3.03082e-05
3.62015e-05 3.03082e-05 0.000277993
0.000471752 -4.01498e-05 -2.59389e-05
-4.01498e-05 -0.000146006 6.51287e-05
-2.59389e-05 6.51287e-05 -0.000681651
0.00188198 0.000114479 -3.44151e-05
0.000114479 0.000226077 -2.9788e-05
-3.44151e-05 -2.9788e-05 -0.000180307
0.00247229 -0.00025097 -1.18816e-06
-0.00025097 0.000713115 -2.39494e-06
-1.18816e-06 -2.39494e-06 0.000742794
0.00320897 -0.000100382 3.32644e-05
-0.000100382 0.000163204 4.47779e-05
3.32644e-05 4.47779e-05 -0.000564372
0.00142277 0.00013019 -6.97104e-05
0.00013019 -8.98174e-05 -8.45126e-05
-6.97104e-05 -8.45126e-05 -0.000495378
0.00300369 -1.94593e-05 -2.97431e-05
-1.94593e-05 0.000403975 -1.04646e-05
-2.97431e-05 -1.04646e-05 -0.00034628
0.00215694 0.000140333 6.91156e-06
0.000140333 0.000639499 -7.34173e-06
6.91156e-06 -7.34173e-06 0.00049694
0.000911242 6.6667e-05 -3.8016e-07
6.6667e-05 2.97632e-05 -5.16779e-07
-3.8016e-07 -5.16779e-07 -4.28674e-05
0.00133424 3.71803e-05 1.71061e-06
3.71803e-05 0.000213171 7.26946e-07
1.71061e-06 7.26946e-07 0.00013579
-0.000271852 -1.10112e-05 -1.1452e-05
-1.10112e-05 -0.000222988 -4.95781e-06
-1.1452e-05 -4.95781e-06 -0.000381531
0.00162184 5.32174e-05 2.5994e-06
5.32174e-05 0.000434643 -1.02201e-07
2.5994e-06 -1.02201e-07 0.00030147
0.000949579 0.000105568 5.89811e-06
0.000105568 0.000178321 2.21015e-06
5.89811e-06 2.21015e-06 3.98812e-05
0.000106538 0.000107806 2.0947e-05
0.000107806 -0.000361942 2.15223e-05
2.0947e-05 2.15223e-05 -0.000488355
-0.000740779 -1.84385e-05 7.44455e-05
-1.84385e-05 -0.000659711 -5.18246e-06
7.44455e-05 -5.18246e-06 -0.000631143
0.000751508 -1.14031e-05 -1.01863e-05
-1.14031e-05 7.83781e-05 3.60088e-07
-1.01863e-05 3.60088e-07 6.51785e-05
-0.000330955 -3.83219e-06 1.59119e-05
-3.83219e-06 -0.000590584 -1.03018e-06
1.59119e-05 -1.03018e-06 -0.000696779
0.00158909 -6.89592e-05 -2.6083e-05
-6.89592e-05 0.000441167 1.48081e-06
-2.6083e-05 1.48081e-06 0.000340576
0.00121769 -0.000101403 -4.21124e-05
-0.000101403 -7.76261e-05 -5.0286e-06
-4.21124e-05 -5.0286e-06 -0.000330069
0.00107336 1.24744e-05 -2.35341e-06
1.24744e-05 0.000222565 -2.68275e-06
-2.35341e-06 -2.68275e-06 0.00022398
0.00235928 0.000229304 1.43377e-05
0.000229304 0.000231603 -2.79113e-05
1.43377e-05 -2.79113e-05 -0.000653109
0.00409371 0.000174085 -9.52093e-05
0.000174085 0.00178953 2.16769e-05
-9.52093e-05 2.16769e-05 0.00170374
0.00158296 -0.000109564 1.16829e-05
-0.000109564 0.000151879 -1.16929e-06
1.16829e-05 -1.16929e-06 0.000164783
-0.000100308 8.13745e-05 -3.07604e-05
8.13745e-05 -0.000320172 3.44475e-06
-3.07604e-05 3.44475e-06 -0.000392405
0.00315215 0.000154878 -7.95378e-06
0.000154878 0.000631524 6.2301e-06
-7.95378e-06 6.2301e-06 -0.000182866
0.000907386 3.07694e-05 -4.13087e-06
3.07694e-05 -0.000298969 3.99621e-06
-4.13087e-06 3.99621e-06 -0.000381775
0.000466616 -7.76798e-05 1.76866e-06
-7.76798e-05 -0.000498943 5.8972e-06
1.76866e-06 5.8972e-06 -0.00042346
0.00469053 9.5389e-05 1.8325e-05
9.5389e-05 0.00134155 9.07816e-06
1.8325e-05 9.07816e-06 0.000679341
0.00136554 7.35721e-05 -2.61646e-06
7.35721e-05 0.000249314 -1.19498e-06
-2.61646e-06 -1.19498e-06 -6.80607e-06
-0.000310574 -9.60899e-05 8.19134e-07
-9.60899e-05 -0.000568662 -7.3344e-06
8.19134e-07 -7.3344e-06 -0.000789552
0.00153766 -0.000157297 -1.77751e-07
-0.000157297 0.000127901 -4.46028e-07
-1.77751e-07 -4.46028e-07 -9.37277e-06
0.00140205 -0.000140605 -1.77407e-05
-0.000140605 -0.000143107 7.6041e-06
-1.77407e-05 7.6041e-06 -0.000214586
0.00122532 -0.000109554 -1.40162e-06
-0.000109554 6.95689e-05 -3.49777e-06
-1.40162e-06 -3.49777e-06 -7.06268e-05
0.00146471 -0.000105206 -1.27575e-06
-0.000105206 5.92742e-05 5.26887e-07
-1.27575e-06 5.26887e-07 -2.61561e-05
0.00203896 -8.81314e-05 -5.45993e-06
-8.81314e-05 0.000258718 2.96086e-06
-5.45993e-06 2.96086e-06 0.000223866
0.00103791 -8.13954e-05 2.3741e-06
-8.13954e-05 -2.76161e-05 -5.31265e-07
2.3741e-06 -5.31265e-07 -0.000135523
0.0013893 -7.63149e-05 -4.30283e-07
-7.63149e-05 5.39667e-05 -3.59792e-07
-4.30283e-07 -3.59792e-07 -1.83394e-05
0.00158796 -6.58092e-05 -9.02105e-07
-6.58092e-05 8.12131e-05 -2.51363e-08
-9.02105e-07 -2.51363e-08 4.06342e-05
0.00109278 -6.89466e-05 1.56288e-06
-6.89466e-05 -2.45257e-05 -1.01909e-07
1.56288e-06 -1.01909e-07 -0.000120422
0.00132314 -6.53361e-05 2.01884e-07
-6.53361e-05 3.03855e-05 2.87489e-07
2.01884e-07 2.87489e-07 -3.80435e-05
0.00134049 -5.80505e-05 -4.42513e-07
-5.80505e-05 1.12005e-05 -9.60498e-08
-4.42513e-07 -9.60498e-08 -3.90566e-05
0.00158037 -5.82493e-05 -5.08674e-07
-5.82493e-05 0.000164377 -1.21593e-07
-5.08674e-07 -1.21593e-07 0.000106689
0.00138153 -6.15901e-05 -6.33474e-07
-6.15901e-05 8.11415e-05 1.26321e-06
-6.33474e-07 1.26321e-06 1.4763e-05
0.00134008 -6.21692e-05 -6.99755e-07
-6.21692e-05 8.34515e-05 -1.79343e-06
-6.99755e-07 -1.79343e-06 1.10769e-05
0.00128733 -6.56537e-05 -1.52492e-06
-6.56537e-05 0.000103082 4.22043e-07
-1.52492e-06 4.22043e-07 1.94474e-05
0.00136498 -6.99153e-05 6.45492e-07
-6.99153e-05 0.000127385 -2.13981e-07
6.45492e-07 -2.13981e-07 3.97563e-05
0.00126665 -6.57398e-05 2.03612e-06
-6.57398e-05 5.59796e-05 1.28242e-06
2.03612e-06 1.28242e-06 -2.85792e-05
0.000880478 -5.55544e-05 -1.43417e-06
-5.55544e-05 -4.13339e-05 1.83348e-06
-1.43417e-06 1.83348e-06 -0.000122074
0.00109129 -6.33679e-05 9.77921e-08
-6.33679e-05 5.02998e-05 -7.12392e-08
9.77921e-08 -7.12392e-08 -3.73181e-05
0.00136192 -7.27091e-05 2.20564e-06
-7.27091e-05 0.000169436 -2.14774e-06
2.20564e-06 -2.14774e-06 7.44524e-05
0.000999422 -4.33998e-05 -9.25804e-07
-4.33998e-05 5.14178e-05 5.12559e-07
-9.25804e-07 5.12559e-07 -1.76704e-05
0.00108633 -5.85063e-05 6.79953e-08
-5.85063e-05 8.50162e-05 -1.50638e-07
6.79953e-08 -1.50638e-07 8.10355e-06
0.000851204 -5.6479e-05 4.96262e-07
-5.6479e-05 -3.85813e-05 -2.17913e-06
4.96262e-07 -2.17913e-06 -0.000124698
0.000898542 -1.4159e-06 -2.55555e-06
-1.4159e-06 2.00731e-05 1.77775e-06
-2.55555e-06 1.77775e-06 -3.34115e-05
0.0010245 -3.79791e-05 -7.38349e-08
-3.79791e-05 6.87163e-05 1.22393e-08
-7.38349e-08 1.22393e-08 8.77275e-07
0.00109812 -5.5254e-05 4.93274e-07
-5.5254e-05 9.84639e-05 -4.41691e-07
4.93274e-07 -4.41691e-07 2.38433e-05
0.000758509 2.94043e-05 -4.10491e-06
2.94043e-05 -5.02538e-05 3.49052e-06
-4.10491e-06 3.49052e-06 -6.67735e-05
0.000905376 8.82254e-06 -1.13933e-08
8.82254e-06 1.70973e-05 1.64305e-08
-1.13933e-08 1.64305e-08 -3.27865e-05
0.00103078 -2.06506e-05 1.28202e-06
-2.06506e-05 7.4547e-05 -4.20447e-07
1.28202e-06 -4.20447e-07 7.10434e-06
0.00254663 4.0644e-05 -2.12239e-05
4.0644e-05 0.00085299 3.68767e-06
-2.12239e-05 3.68767e-06 0.000866498
0.000805118 2.66193e-05 -2.26034e-09
2.66193e-05 -3.5425e-05 5.41944e-09
-2.26034e-09 5.41944e-09 -4.91347e-05
0.000917577 2.56918e-06 2.50071e-06
2.56918e-06 1.5281e-05 -2.05109e-06
2.50071e-06 -2.05109e-06 -3.00533e-05
0.00176468 3.2197e-05 8.02423e-06
3.2197e-05 0.000450055 -1.02952e-06
8.02423e-06 -1.02952e-06 0.000461523
0.000831677 2.40848e-05 3.76811e-06
2.40848e-05 -2.83325e-05 -3.50732e-06
3.76811e-06 -3.50732e-06 -3.99063e-05
0.00243763 3.25799e-05 1.91452e-05
3.25799e-05 0.000786899 -3.90695e-06
1.91452e-05 -3.90695e-06 0.000803225
0.00108401 4.33603e-05 -5.53917e-07
4.33603e-05 9.66871e-05 3.00332e-07
-5.53917e-07 3.00332e-07 2.33261e-05
0.00103027 3.83402e-05 1.8151e-07
3.83402e-05 6.64663e-05 3.87512e-07
1.8151e-07 3.87512e-07 -7.92072e-06
0.000984351 -1.49998e-07 -1.22252e-06
-1.49998e-07 4.27128e-05 -1.16663e-06
-1.22252e-06 -1.16663e-06 -2.3536e-05
0.0010419 3.41996e-05 5.99183e-07
3.41996e-05 7.21623e-05 9.40291e-07
5.99183e-07 9.40291e-07 -1.67825e-06
0.000993188 -1.31338e-06 -3.51389e-08
-1.31338e-06 4.4617e-05 7.1682e-08
-3.51389e-08 7.1682e-08 -1.90261e-05
0.000898419 -9.6342e-06 -2.12153e-06
-9.6342e-06 -2.58942e-07 -2.53176e-06
-2.12153e-06 -2.53176e-06 -4.28469e-05
0.000845522 -2.13777e-05 -3.04913e-06
-2.13777e-05 -2.97639e-05 -3.69772e-06
-3.04913e-06 -3.69772e-06 -3.88917e-05
0.0009064 -1.41857e-05 -1.81179e-07
-1.41857e-05 -1.08251e-06 -5.3392e-08
-1.81179e-07 -5.3392e-08 -3.97667e-05
0.000985351 -4.62472e-06 4.51144e-07
-4.62472e-06 3.66271e-05 1.78835e-06
4.51144e-07 1.78835e-06 -2.31116e-05
0.00240467 -2.86743e-05 -1.7411e-05
-2.86743e-05 0.000762105 -3.98183e-06
-1.7411e-05 -3.98183e-06 0.000780101
0.000842126 -1.88275e-05 -1.47746e-07
-1.88275e-05 -3.59684e-05 6.45182e-09
-1.47746e-07 6.45182e-09 -4.32183e-05
0.000920102 -1.00462e-05 1.41803e-06
-1.00462e-05 2.34914e-06 2.1948e-06
1.41803e-06 2.1948e-06 -3.35825e-05
0.00238084 -2.49857e-05 -7.05341e-07
-2.49857e-05 0.000744405 5.14981e-08
-7.05341e-07 5.14981e-08 0.000763702
0.000834194 -1.67211e-05 1.75369e-06
-1.67211e-05 -4.3759e-05 3.48965e-06
1.75369e-06 3.48965e-06 -4.93256e-05
0.00232577 -2.09885e-05 1.20603e-05
-2.09885e-05 0.000711252 3.98067e-06
1.20603e-05 3.98067e-06 0.00073202
0.000194689 4.1252e-05 9.98769e-05
4.1252e-05 -0.000301549 9.05141e-06
9.98769e-05 9.05141e-06 -0.00049258
0.00160455 -3.13603e-05 3.94019e-06
-3.13603e-05 0.000595443 -5.96287e-08
3.94019e-06 -5.96287e-08 0.00060246
0.000551883 8.55424e-06 1.46942e-05
8.55424e-06 -3.05382e-05 2.6849e-06
1.46942e-05 2.6849e-06 -0.000119101
0.00100561 4.33198e-05 1.30521e-06
4.33198e-05 5.50303e-05 5.71426e-07
1.30521e-06 5.71426e-07 -2.41747e-05
0.00101943 4.94371e-05 6.56123e-07
4.94371e-05 6.29041e-05 4.90694e-08
6.56123e-07 4.90694e-08 -1.87181e-05
0.0010947 5.43215e-05 -3.7509e-08
5.43215e-05 0.00010721 -6.39969e-08
-3.7509e-08 -6.39969e-08 3.00665e-05
0.00114428 5.85231e-05 -4.90145e-07
5.85231e-05 0.000135628 -1.07133e-08
-4.90145e-07 -1.07133e-08 5.80814e-05
0.00110117 5.62978e-05 -1.90971e-06
5.62978e-05 0.000111724 -1.28665e-07
-1.90971e-06 -1.28665e-07 3.01569e-05
0.0010452 3.90101e-05 5.21361e-07
3.90101e-05 7.59804e-05 1.37033e-06
5.21361e-07 1.37033e-06 -6.03926e-06
0.00106259 4.87416e-05 1.28293e-06
4.87416e-05 8.45278e-05 1.113e-06
1.28293e-06 1.113e-06 1.46587e-06
0.00097963 5.16964e-05 -4.43999e-07
5.16964e-05 5.56591e-05 -3.25668e-07
-4.43999e-07 -3.25668e-07 -3.19722e-05
0.000572236 4.5324e-05 -1.7638e-06
4.5324e-05 -0.000142988 2.40466e-07
-1.7638e-06 2.40466e-07 -0.000226576
0.000810189 5.19814e-05 -2.19829e-06
5.19814e-05 -3.00433e-05 -1.89938e-06
-2.19829e-06 -1.89938e-06 -0.000119472
0.00182402 9.64966e-05 4.77538e-07
9.64966e-05 0.000437632 -4.23924e-06
4.77538e-07 -4.23924e-06 0.000335933
0.00109085 4.47763e-05 -1.43531e-06
4.47763e-05 0.000110746 9.35484e-08
-1.43531e-06 9.35484e-08 2.38145e-05
0.00106385 3.72867e-05 7.12425e-07
3.72867e-05 9.1693e-05 1.25366e-06
7.12425e-07 1.25366e-06 7.53362e-06
0.00712326 -9.00818e-05 -8.54047e-06
-9.00818e-05 0.00194154 -1.35252e-05
-8.54047e-06 -1.35252e-05 0.00128948
-0.000118193 -0.000122996 6.48345e-06
-0.000122996 -0.000385214 5.20468e-06
6.48345e-06 5.20468e-06 -0.000475234
0.00210529 -7.68883e-05 -8.57988e-06
-7.68883e-05 0.00077368 -3.49259e-06
-8.57988e-06 -3.49259e-06 0.000886985
-0.0020306 -0.000154117 -3.18858e-05
-0.000154117 -0.00133973 -2.49975e-05
-3.18858e-05 -2.49975e-05 -0.00120601
0.00741278 -0.000229785 6.46336e-05
-0.000229785 0.00200394 4.85748e-05
6.46336e-05 4.85748e-05 0.00103427
0.00158646 9.3906e-05 3.23271e-05
9.3906e-05 0.000365113 9.10218e-06
3.23271e-05 9.10218e-06 0.000132602
0.00151134 0.000123933 -2.85148e-05
0.000123933 6.68183e-05 -2.50891e-05
-2.85148e-05 -2.50891e-05 -0.000238059
0.00509212 -0.000180199 2.35578e-05
-0.000180199 0.00126879 1.63581e-05
2.35578e-05 1.63581e-05 0.000636639
0.00126606 5.19978e-05 -3.88061e-05
5.19978e-05 -5.73233e-05 -4.95568e-05
-3.88061e-05 -4.95568e-05 -0.000352345
0.00223873 0.000167735 1.76303e-05
0.000167735 0.000474763 8.77143e-06
1.76303e-05 8.77143e-06 0.000318221
0.000920526 9.56851e-05 -2.62172e-07
9.56851e-05 7.5931e-05 -5.38422e-06
-2.62172e-07 -5.38422e-06 -7.37123e-05
0.000867011 5.1422e-05 9.07099e-07
5.1422e-05 -3.98408e-06 3.57691e-06
9.07099e-07 3.57691e-06 -7.22428e-05
0.00201136 0.000137135 -1.9562e-05
0.000137135 0.000663585 -2.23114e-05
-1.9562e-05 -2.23114e-05 0.000542583
-7.11199e-05 0.000123703 -4.05442e-06
0.000123703 -0.000544977 2.06507e-05
-4.05442e-06 2.06507e-05 -0.00066305
0.000767559 3.96549e-05 -2.1349e-06
3.96549e-05 -0.000400868 -4.99112e-06
-2.1349e-06 -4.99112e-06 -0.000870193
0.00154414 7.06525e-06 6.20238e-07
7.06525e-06 0.000312223 3.38629e-06
6.20238e-07 3.38629e-06 0.000201915
-0.00109695 -7.38266e-06 -6.72184e-06
-7.38266e-06 -0.000997369 -4.35403e-07
-6.72184e-06 -4.35403e-07 -0.00103028
0.00252485 -0.000127606 -3.51455e-05
-0.000127606 0.000668006 -2.13274e-06
-3.51455e-05 -2.13274e-06 0.000632405
0.00162851 2.53869e-05 3.07225e-05
2.53869e-05 -0.000318231 -2.47255e-05
3.07225e-05 -2.47255e-05 -0.000496662
0.000267303 -4.35426e-07 -0.000118117
-4.35426e-07 -0.000277367 2.26242e-05
-0.000118117 2.26242e-05 -0.000469019
0.00541189 0.000258548 -1.9528e-05
0.000258548 0.00181316 5.3289e-06
-1.9528e-05 5.3289e-06 0.00102486
0.00126878 -9.01349e-05 1.37161e-06
-9.01349e-05 -9.75741e-05 -1.57243e-06
1.37161e-06 -1.57243e-06 -4.2033e-05
0.00474769 0.000159181 2.87826e-05
0.000159181 0.00139326 3.22606e-06
2.87826e-05 3.22606e-06 0.000807032
0.00189095 8.1685e-05 2.59077e-05
8.1685e-05 0.000137669 -8.75043e-06
2.59077e-05 -8.75043e-06 -0.000178554
0.00243102 -6.46934e-05 -7.60611e-06
-6.46934e-05 0.000297765 1.9248e-06
-7.60611e-06 1.9248e-06 0.000343767
0.00107552 6.92982e-05 -2.85441e-05
6.92982e-05 0.000296067 1.19698e-05
-2.85441e-05 1.19698e-05 6.56324e-05
0.00141489 -0.000150259 9.10248e-06
-0.000150259 8.79609e-05 -7.40935e-06
9.10248e-06 -7.40935e-06 -5.27566e-05
0.00169083 -0.000141973 -3.97058e-06
-0.000141973 4.57383e-07 1.5857e-06
-3.97058e-06 1.5857e-06 -6.43174e-05
0.00195341 -8.43053e-05 -1.24224e-05
-8.43053e-05 4.83866e-05 4.24259e-06
-1.24224e-05 4.24259e-06 3.05513e-05
0.00081701 -9.28481e-05 5.52575e-06
-9.28481e-05 -0.000258178 -1.24375e-06
5.52575e-06 -1.24375e-06 -0.000340234
0.00146879 -7.99034e-05 1.99224e-06
-7.99034e-05 -1.03989e-05 1.02827e-06
1.99224e-06 1.02827e-06 -4.27239e-05
0.0015942 -5.39475e-05 -1.28714e-06
-5.39475e-05 7.70973e-06 4.59025e-06
-1.28714e-06 4.59025e-06 -7.69256e-06
0.00111666 -7.12062e-05 1.47652e-06
-7.12062e-05 -8.63301e-05 1.33101e-06
1.47652e-06 1.33101e-06 -0.000156891
0.00144241 -6.46731e-05 6.0316e-08
-6.46731e-05 9.64862e-06 1.6312e-06
6.0316e-08 1.6312e-06 -3.15789e-05
0.00149484 -5.23584e-05 8.86969e-07
-5.23584e-05 2.98194e-05 2.74961e-06
8.86969e-07 2.74961e-06 -5.89409e-06
0.00123896 -6.36229e-05 2.29159e-06
-6.36229e-05 -1.33535e-05 1.97593e-06
2.29159e-06 1.97593e-06 -8.12026e-05
0.00138833 -5.93412e-05 8.20468e-08
-5.93412e-05 3.59897e-05 9.78996e-07
8.20468e-08 9.78996e-07 -1.52993e-05
0.00143766 -5.21945e-05 5.02975e-08
-5.21945e-05 6.08497e-05 8.52131e-07
5.02975e-08 8.52131e-07 1.04261e-05
0.00140066 -5.60891e-05 -1.15085e-06
-5.60891e-05 7.6998e-05 9.66029e-07
-1.15085e-06 9.66029e-07 2.12158e-05
0.00154643 -5.75896e-05 8.32191e-07
-5.75896e-05 0.000162101 -9.11461e-07
8.32191e-07 -9.11461e-07 9.84154e-05
0.00138236 -6.03008e-05 1.44133e-06
-6.03008e-05 8.13344e-05 2.77565e-06
1.44133e-06 2.77565e-06 1.67902e-05
0.00135176 -6.19228e-05 8.03322e-08
-6.19228e-05 8.86593e-05 -4.35795e-07
8.03322e-08 -4.35795e-07 1.60075e-05
0.00133416 -6.01634e-05 -6.28187e-07
-6.01634e-05 9.38106e-05 -4.96862e-07
-6.28187e-07 -4.96862e-07 1.86425e-05
0.000984759 -5.62317e-05 -1.69616e-06
-5.62317e-05 -2.63866e-05 1.20241e-06
-1.69616e-06 1.20241e-06 -0.000106286
0.00128059 -6.52018e-05 3.73677e-08
-6.52018e-05 0.000100786 -1.57067e-07
3.73677e-08 -1.57067e-07 1.67244e-05
0.00142413 -7.06593e-05 2.01405e-06
-7.06593e-05 0.000158145 -3.28637e-07
2.01405e-06 -3.28637e-07 7.05041e-05
0.00103946 -4.99632e-05 -1.26265e-06
-4.99632e-05 5.55621e-05 1.14982e-06
-1.26265e-06 1.14982e-06 -1.59908e-05
0.00096036 -5.72412e-05 -3.71328e-07
-5.72412e-05 5.80469e-07 4.21971e-07
-3.71328e-07 4.21971e-07 -7.9698e-05
0.00129726 -6.78015e-05 1.35748e-06
-6.78015e-05 0.000153524 -1.62605e-06
1.35748e-06 -1.62605e-06 6.68002e-05
0.00086308 -4.2141e-06 -2.33571e-06
-4.2141e-06 4.60011e-06 1.53743e-06
-2.33571e-06 1.53743e-06 -5.16587e-05
0.00103891 -4.48144e-05 -2.87853e-08
-4.48144e-05 6.95719e-05 -1.03994e-07
-2.87853e-08 -1.03994e-07 4.2868e-07
0.00112145 -5.89597e-05 5.82874e-07
-5.89597e-05 0.000101409 -1.20384e-06
5.82874e-07 -1.20384e-06 2.43956e-05
0.000718139 3.24143e-05 -4.06984e-06
3.24143e-05 -6.14221e-05 3.54699e-06
-4.06984e-06 3.54699e-06 -8.16414e-05
0.00090964 -3.08654e-06 2.97531e-09
-3.08654e-06 2.35366e-05 9.04978e-08
2.97531e-09 9.04978e-08 -2.96139e-05
0.00104998 -3.89579e-05 1.21193e-06
-3.89579e-05 8.02772e-05 -3.38749e-07
1.21193e-06 -3.38749e-07 1.25456e-05
0.00258679 4.4969e-05 -2.18682e-05
4.4969e-05 0.000880716 3.54223e-06
-2.18682e-05 3.54223e-06 0.000892471
0.000787507 3.04134e-05 -1.84247e-08
3.04134e-05 -3.49242e-05 -2.81599e-08
-1.84247e-08 -2.81599e-08 -5.17734e-05
0.000907674 -1.42797e-06 2.53038e-06
-1.42797e-06 1.64037e-05 -1.77214e-06
2.53038e-06 -1.77214e-06 -3.29546e-05
0.00252688 4.06761e-05 2.12364e-07
4.06761e-05 0.000844012 7.01069e-08
2.12364e-07 7.01069e-08 0.00085738
0.000825296 2.74034e-05 3.9683e-06
2.74034e-05 -2.46463e-05 -3.49676e-06
3.9683e-06 -3.49676e-06 -3.86268e-05
0.00248132 3.65922e-05 2.04328e-05
3.65922e-05 0.000815135 -3.8044e-06
2.04328e-05 -3.8044e-06 0.000829918
0.00106099 4.77514e-05 -7.29803e-07
4.77514e-05 9.0794e-05 -1.39531e-07
-7.29803e-07 -1.39531e-07 1.56513e-05
0.00104784 4.31548e-05 2.71594e-07
4.31548e-05 7.96927e-05 1.46944e-07
2.71594e-07 1.46944e-07 6.29564e-06
0.000913206 1.41573e-06 -1.5742e-06
1.41573e-06 9.80027e-06 -7.62452e-07
-1.5742e-06 -7.62452e-07 -5.79824e-05
0.000968907 3.31592e-05 1.3204e-06
3.31592e-05 3.46114e-05 1.05022e-06
1.3204e-06 1.05022e-06 -3.99031e-05
0.00095424 3.31369e-07 -9.2802e-08
3.31369e-07 2.7696e-05 1.99261e-07
-9.2802e-08 1.99261e-07 -3.89734e-05
0.000901662 -3.94068e-06 -2.5265e-06
-3.94068e-06 4.42192e-06 -2.22633e-06
-2.5265e-06 -2.22633e-06 -4.23135e-05
0.000986443 -1.53527e-06 8.45737e-07
-1.53527e-06 4.16143e-05 1.73732e-06
8.45737e-07 1.73732e-06 -2.21263e-05
0.000904572 -9.34661e-06 -1.31772e-07
-9.34661e-06 2.23887e-06 -5.08548e-08
-1.31772e-07 -5.08548e-08 -4.02391e-05
0.000834311 -2.42482e-05 -3.53114e-06
-2.42482e-05 -2.9287e-05 -3.79826e-06
-3.53114e-06 -3.79826e-06 -4.09907e-05
0.0024377 -3.24788e-05 -1.90452e-05
-3.24788e-05 0.000784542 -3.94274e-06
-1.90452e-05 -3.94274e-06 0.000801183
0.000833094 -2.10131e-05 -8.85134e-08
-2.10131e-05 -3.59333e-05 -1.56059e-08
-8.85134e-08 -1.56059e-08 -4.49438e-05
0.000911892 -1.33357e-05 1.36506e-06
-1.33357e-05 1.07631e-06 2.43743e-06
1.36506e-06 2.43743e-06 -3.7443e-05
0.00241995 -2.88081e-05 -5.97578e-07
-2.88081e-05 0.000769247 6.0953e-08
-5.97578e-07 6.0953e-08 0.000787301
0.000828949 -1.86553e-05 2.25608e-06
-1.86553e-05 -4.24029e-05 3.56819e-06
2.25608e-06 3.56819e-06 -4.95906e-05
0.0023838 -2.50411e-05 1.43496e-05
-2.50411e-05 0.000745387 3.98443e-06
1.43496e-05 3.98443e-06 0.000764801
0.00540589 7.05097e-06 2.41497e-05
7.05097e-06 0.00159544 -1.84922e-06
2.41497e-05 -1.84922e-06 0.00108335
-0.00057975 -2.30426e-05 1.50164e-05
-2.30426e-05 -0.000415488 8.6113e-07
1.50164e-05 8.6113e-07 -0.000441782
0.000355711 -2.16804e-05 2.54666e-06
-2.16804e-05 -0.000149702 -1.13598e-07
2.54666e-06 -1.13598e-07 -0.000156634
0.00102213 4.33108e-05 1.72965e-06
4.33108e-05 6.57459e-05 4.25251e-07
1.72965e-06 4.25251e-07 -1.58435e-05
0.00101458 5.24664e-05 8.33273e-07
5.24664e-05 6.91148e-05 1.31803e-07
8.33273e-07 1.31803e-07 -7.60722e-06
0.00114017 5.63452e-05 1.31621e-07
5.63452e-05 0.000130913 -5.60418e-08
1.31621e-07 -5.60418e-08 4.9601e-05
0.00109849 5.75515e-05 -2.81325e-07
5.75515e-05 0.000113043 -1.80032e-07
-2.81325e-07 -1.80032e-07 3.54913e-05
0.00111781 5.93753e-05 1.65077e-06
5.93753e-05 0.000125907 5.76995e-07
1.65077e-06 5.76995e-07 4.60488e-05
0.000843742 5.17746e-05 -1.94139e-06
5.17746e-05 -7.35277e-06 5.33855e-07
-1.94139e-06 5.33855e-07 -8.72008e-05
0.00085932 4.75463e-05 1.37294e-06
4.75463e-05 -4.04278e-06 1.19884e-06
1.37294e-06 1.19884e-06 -9.08974e-05
0.000810444 5.12064e-05 6.70643e-07
5.12064e-05 -2.50781e-05 -1.18747e-07
6.70643e-07 -1.18747e-07 -0.000110155
0.000852713 5.15561e-05 8.41417e-07
5.15561e-05 -1.08098e-06 1.47972e-07
8.41417e-07 1.47972e-07 -9.16146e-05
0.000515037 5.31916e-05 -5.02204e-07
5.31916e-05 -0.000186551 5.52773e-08
-5.02204e-07 5.52773e-08 -0.000271558
0.00260299 0.000114825 -2.1657e-08
0.000114825 0.000797705 -1.01847e-06
-2.1657e-08 -1.01847e-06 0.000702811
0.00180381 0.000113776 3.4212e-07
0.000113776 0.000315266 -4.17108e-06
3.4212e-07 -4.17108e-06 0.000198162
0.00122128 8.26798e-05 7.84778e-07
8.26798e-05 0.000146525 1.71325e-07
7.84778e-07 1.71325e-07 4.70649e-05
0.00125374 4.83836e-05 -5.78056e-07
4.83836e-05 0.000200285 1.55285e-06
-5.78056e-07 1.55285e-06 0.000111551
0.000832182 -4.2972e-05 -1.73017e-05
-4.2972e-05 -0.000221034 -2.06198e-05
-1.73017e-05 -2.06198e-05 -0.000338349
0.00364309 -8.74456e-05 -1.20014e-05
-8.74456e-05 0.00067133 -2.67152e-06
-1.20014e-05 -2.67152e-06 0.000139378
0.00281975 -0.000171404 -3.71983e-05
-0.000171404 0.00113159 -1.2764e-05
-3.71983e-05 -1.2764e-05 0.00104029
0.00402641 -0.000105772 9.11475e-05
-0.000105772 0.000810749 3.67041e-05
9.11475e-05 3.67041e-05 8.51588e-05
0.00287064 0.000151338 2.11111e-05
0.000151338 0.00081605 4.35804e-05
2.11111e-05 4.35804e-05 0.000638948
0.0010328 3.39252e-05 -1.49874e-05
3.39252e-05 -3.99651e-05 -3.04028e-06
-1.49874e-05 -3.04028e-06 -0.000172028
0.00114689 6.55568e-05 2.07498e-05
6.55568e-05 -0.00016181 1.19645e-05
2.07498e-05 1.19645e-05 -0.000226139
0.00192614 0.000167984 3.99049e-07
0.000167984 0.000320612 9.28314e-06
3.99049e-07 9.28314e-06 0.000180584
0.000284994 7.26719e-05 -1.46182e-06
7.26719e-05 -0.000223936 6.30278e-06
-1.46182e-06 6.30278e-06 -0.000370689
0.00233843 0.000201335 -5.70677e-05
0.000201335 0.000424758 -8.16501e-05
-5.70677e-05 -8.16501e-05 0.000357385
0.00198868 7.34723e-06 -0.000111489
7.34723e-06 0.000492132 -6.78575e-06
-0.000111489 -6.78575e-06 0.000215642
0.00513444 4.76436e-05 1.17736e-05
4.76436e-05 0.00165397 -5.41697e-07
1.17736e-05 -5.41697e-07 0.0011527
-0.00281361 -1.82648e-05 -7.11768e-05
-1.82648e-05 -0.00182791 5.56902e-06
-7.11768e-05 5.56902e-06 -0.00181904
0.00242298 -0.00010214 -2.64138e-06
-0.00010214 0.000486001 -1.46248e-06
-2.64138e-06 -1.46248e-06 0.000511487
0.00101099 8.50282e-05 3.32866e-05
8.50282e-05 -0.000166892 -1.08945e-05
3.32866e-05 -1.08945e-05 -0.000346398
0.000423325 3.45442e-06 2.22801e-05
3.45442e-06 -0.000416248 -3.39581e-06
2.22801e-05 -3.39581e-06 -0.000914791
0.0018274 -6.89246e-05 -2.55653e-08
-6.89246e-05 1.08488e-05 2.65254e-06
-2.55653e-08 2.65254e-06 4.77784e-05
0.00131559 9.35178e-05 3.08912e-06
9.35178e-05 0.000231766 -5.17646e-06
3.08912e-06 -5.17646e-06 3.04777e-05
0.00241005 -6.24808e-06 1.06108e-07
-6.24808e-06 0.000229186 -1.31138e-05
1.06108e-07 -1.31138e-05 0.000239779
0.000879529 5.99134e-05 2.82732e-06
5.99134e-05 -0.000220206 -1.96363e-06
2.82732e-06 -1.96363e-06 -0.000288502
0.00238715 -0.000148598 9.22761e-06
-0.000148598 0.000342811 -3.25405e-06
9.22761e-06 -3.25405e-06 0.000282029
0.0020398 -8.46188e-05 3.10691e-06
-8.46188e-05 9.43513e-05 -5.89248e-07
3.10691e-06 -5.89248e-07 7.97851e-05
0.00197097 -1.44147e-05 -2.52974e-06
-1.44147e-05 0.000159188 3.29803e-06
-2.52974e-06 3.29803e-06 0.000136573
0.000909176 -7.25515e-05 7.94927e-06
-7.25515e-05 -0.000275814 -1.20427e-06
7.94927e-06 -1.20427e-06 -0.000306412
0.001663 -5.52345e-05 2.1595e-06
-5.52345e-05 5.1496e-05 2.36747e-07
2.1595e-06 2.36747e-07 3.34925e-05
0.00168292 -3.05802e-05 -4.4717e-07
-3.05802e-05 8.12671e-05 3.45757e-06
-4.4717e-07 3.45757e-06 4.19308e-05
0.00132128 -6.37835e-05 3.21774e-06
-6.37835e-05 -4.90986e-05 1.44112e-06
3.21774e-06 1.44112e-06 -9.1177e-05
0.00149955 -5.28404e-05 7.00591e-07
-5.28404e-05 3.90044e-05 7.71583e-07
7.00591e-07 7.71583e-07 1.36773e-06
0.00160039 -4.20819e-05 -3.69474e-07
-4.20819e-05 9.89121e-05 1.89537e-06
-3.69474e-07 1.89537e-06 4.73388e-05
0.00144479 -6.06548e-05 1.00569e-06
-6.06548e-05 6.51164e-05 1.55079e-06
1.00569e-06 1.55079e-06 1.27557e-05
0.00138052 -5.3188e-05 -1.13707e-07
-5.3188e-05 3.85866e-05 -2.75312e-08
-1.13707e-07 -2.75312e-08 -1.22642e-05
0.00138115 -5.06438e-05 1.32499e-06
-5.06438e-05 5.68336e-05 7.75103e-07
1.32499e-06 7.75103e-07 -5.70237e-06
0.0012409 -5.41593e-05 -2.64791e-07
-5.41593e-05 -5.16588e-07 1.76587e-06
-2.64791e-07 1.76587e-06 -5.4437e-05
0.00141211 -5.50516e-05 -7.99123e-07
-5.50516e-05 9.53183e-05 -5.54034e-07
-7.99123e-07 -5.54034e-07 3.29298e-05
0.00151381 -5.64129e-05 1.92772e-07
-5.64129e-05 0.000159652 -2.54524e-07
1.92772e-07 -2.54524e-07 8.93665e-05
0.00136163 -6.16495e-05 8.78086e-07
-6.16495e-05 9.28951e-05 8.17622e-07
8.78086e-07 8.17622e-07 1.9979e-05
0.00133385 -5.98066e-05 1.49864e-07
-5.98066e-05 9.39371e-05 -3.14268e-07
1.49864e-07 -3.14268e-07 1.8433e-05
0.00135623 -5.82784e-05 -8.62256e-07
-5.82784e-05 0.000124396 2.31717e-07
-8.62256e-07 2.31717e-07 4.94765e-05
0.000858745 -4.70498e-05 -2.20457e-06
-4.70498e-05 -6.25389e-05 1.50597e-06
-2.20457e-06 1.50597e-06 -0.000135663
0.0010689 -5.78353e-05 -3.06604e-07
-5.78353e-05 1.82329e-05 2.38139e-07
-3.06604e-07 2.38139e-07 -6.1366e-05
0.00127382 -6.47497e-05 1.38509e-06
-6.47497e-05 9.85005e-05 -9.21575e-07
1.38509e-06 -9.21575e-07 1.40089e-05
0.00087056 -1.50537e-05 -2.17746e-06
-1.50537e-05 3.31593e-06 1.67138e-06
-2.17746e-06 1.67138e-06 -5.56164e-05
0.00105917 -4.99675e-05 7.13732e-08
-4.99675e-05 6.47871e-05 1.70868e-08
7.13732e-08 1.70868e-08 -6.76987e-06
0.00105752 -5.93685e-05 4.93339e-07
-5.93685e-05 5.07883e-05 -8.7291e-07
4.93339e-07 -8.7291e-07 -2.90322e-05
0.000685618 3.49633e-05 -4.04265e-06
3.49633e-05 -6.86322e-05 3.4354e-06
-4.04265e-06 3.4354e-06 -9.31389e-05
0.000899878 -8.07926e-06 -1.47467e-07
-8.07926e-06 2.05812e-05 2.91584e-08
-1.47467e-07 2.91584e-08 -3.54438e-05
0.00107831 -4.61207e-05 1.20644e-06
-4.61207e-05 8.77138e-05 -8.6753e-07
1.20644e-06 -8.6753e-07 1.85126e-05
0.00266543 4.9423e-05 -2.28254e-05
4.9423e-05 0.00092789 3.42331e-06
-2.28254e-05 3.42331e-06 0.000937544
0.000763031 3.36235e-05 1.17648e-07
3.36235e-05 -3.83199e-05 1.54168e-08
1.17648e-07 1.54168e-08 -5.88625e-05
0.00091472 -4.75136e-06 2.60771e-06
-4.75136e-06 2.40946e-05 -1.49687e-06
2.60771e-06 -1.49687e-06 -2.87233e-05
0.00257703 4.49513e-05 2.058e-07
4.49513e-05 0.000876745 7.41019e-08
2.058e-07 7.41019e-08 0.000888274
0.000816888 3.13442e-05 3.82094e-06
3.13442e-05 -1.95747e-05 -3.49657e-06
3.82094e-06 -3.49657e-06 -3.67291e-05
0.00250889 4.06431e-05 2.13151e-05
4.06431e-05 0.000835885 -3.66497e-06
2.13151e-05 -3.66497e-06 0.000849118
0.00106921 5.28131e-05 -9.63699e-07
5.28131e-05 9.63721e-05 -6.90673e-07
-9.63699e-07 -6.90673e-07 1.92041e-05
0.00112106 4.95893e-05 1.38698e-07
4.95893e-05 0.00012034 1.01796e-07
1.38698e-07 1.01796e-07 4.5509e-05
0.000954724 1.92682e-05 -1.51741e-06
1.92682e-05 3.68222e-05 -6.21576e-07
-1.51741e-06 -6.21576e-07 -3.22523e-05
0.00101262 4.29757e-05 9.4171e-07
4.29757e-05 6.31185e-05 2.76405e-07
9.4171e-07 2.76405e-07 -1.03114e-05
0.000922379 4.00774e-06 -3.74452e-07
4.00774e-06 1.53376e-05 -4.47029e-08
-3.74452e-07 -4.47029e-08 -5.258e-05
0.000901399 6.48302e-07 -2.66568e-06
6.48302e-07 9.16562e-06 -1.84371e-06
-2.66568e-06 -1.84371e-06 -4.14847e-05
0.000924332 -3.82109e-06 1.07206e-06
-3.82109e-06 1.29105e-05 1.38461e-06
1.07206e-06 1.38461e-06 -5.43507e-05
0.000903138 -5.13328e-06 -5.99523e-08
-5.13328e-06 5.41572e-06 4.12611e-09
-5.99523e-08 4.12611e-09 -4.13749e-05
0.000817646 -2.7901e-05 -3.8315e-06
-2.7901e-05 -3.06119e-05 -3.74212e-06
-3.8315e-06 -3.74212e-06 -4.53858e-05
0.000911287 -9.57179e-06 1.90752e-06
-9.57179e-06 5.06152e-06 2.6368e-06
1.90752e-06 2.6368e-06 -3.73138e-05
0.000818878 -2.36249e-05 -1.1292e-07
-2.36249e-05 -3.74279e-05 -1.59354e-08
-1.1292e-07 -1.59354e-08 -4.88893e-05
0.00249332 -3.65207e-05 -2.05038e-05
-3.65207e-05 0.000818999 -3.8856e-06
-2.05038e-05 -3.8856e-06 0.000833953
0.00245497 -3.26217e-05 -4.26088e-07
-3.26217e-05 0.000792526 6.18829e-08
-4.26088e-07 6.18829e-08 0.000809263
0.000820983 -2.06669e-05 2.8245e-06
-2.06669e-05 -4.20069e-05 3.63874e-06
2.8245e-06 3.63874e-06 -5.08916e-05
0.00243176 -2.89484e-05 1.64475e-05
-2.89484e-05 0.000774703 3.95258e-06
1.64475e-05 3.95258e-06 0.000792819
0.0006403 -2.60636e-05 -5.15201e-05
-2.60636e-05 -0.000183787 -9.81912e-06
-5.15201e-05 -9.81912e-06 -0.000325737
0.00168402 -3.65156e-05 -1.06458e-05
-3.65156e-05 -2.68438e-05 -5.5313e-06
-1.06458e-05 -5.5313e-06 -0.000516665
0.0032349 -0.000132638 -3.85746e-05
-0.000132638 0.00119671 -3.30762e-06
-3.85746e-05 -3.30762e-06 0.00111244
0.00119049 6.41686e-05 2.34334e-06
6.41686e-05 0.000139286 4.61012e-07
2.34334e-06 4.61012e-07 5.75222e-05
0.00115576 5.77886e-05 1.48008e-06
5.77886e-05 0.000139603 -2.89844e-08
1.48008e-06 -2.89844e-08 5.83232e-05
0.00103971 5.6133e-05 6.55774e-07
5.6133e-05 8.39993e-05 2.21546e-08
6.55774e-07 2.21546e-08 6.48527e-06
0.00101451 5.64713e-05 -1.16039e-08
5.64713e-05 7.6967e-05 1.08548e-07
-1.16039e-08 1.08548e-07 -3.37991e-06
0.00106426 5.83726e-05 -1.16614e-07
5.83726e-05 0.000101009 -2.76968e-07
-1.16614e-07 -2.76968e-07 2.07167e-05
0.000751057 5.46147e-05 -1.74977e-06
5.46147e-05 -5.82811e-05 6.91082e-07
-1.74977e-06 6.91082e-07 -0.000133755
0.00114598 6.00832e-05 2.80798e-06
6.00832e-05 0.000142021 -7.84958e-07
2.80798e-06 -7.84958e-07 5.5094e-05
0.00114714 5.6141e-05 1.67064e-06
5.6141e-05 0.000148564 1.22447e-06
1.67064e-06 1.22447e-06 5.69361e-05
0.00104636 6.72395e-05 -1.49384e-07
6.72395e-05 7.17608e-05 -1.21408e-07
-1.49384e-07 -1.21408e-07 -1.24747e-05
0.00193199 9.81578e-05 1.82527e-07
9.81578e-05 0.00048237 8.53536e-07
1.82527e-07 8.53536e-07 0.000389916
0.00153196 9.56254e-05 6.51437e-07
9.56254e-05 0.000184954 -1.48863e-06
6.51437e-07 -1.48863e-06 8.3699e-05
0.00176506 9.60021e-05 -6.39242e-06
9.60021e-05 0.00013017 -3.0956e-06
-6.39242e-06 -3.0956e-06 1.55244e-05
0.0013143 0.000100707 3.09507e-06
0.000100707 6.56211e-05 9.6168e-07
3.09507e-06 9.6168e-07 -5.0351e-05
0.000731256 6.93926e-05 -5.62274e-07
6.93926e-05 -9.76234e-05 4.55107e-06
-5.62274e-07 4.55107e-06 -0.000194623
0.00177062 -2.32794e-05 -2.97772e-06
-2.32794e-05 2.95468e-05 5.15351e-06
-2.97772e-06 5.15351e-06 -5.55024e-06
0.00178365 -3.45006e-05 4.5712e-07
-3.45006e-05 2.82336e-05 7.96086e-07
4.5712e-07 7.96086e-07 -0.000134848
0.00090084 -9.60098e-05 -2.28658e-05
-9.60098e-05 -0.000433782 -5.21401e-06
-2.28658e-05 -5.21401e-06 -0.000884314
0.00224381 9.82783e-05 1.90574e-05
9.82783e-05 8.35108e-05 1.99517e-05
1.90574e-05 1.99517e-05 -0.000141992
0.00139499 6.90014e-05 2.22616e-06
6.90014e-05 -0.000102196 1.60684e-06
2.22616e-06 1.60684e-06 -0.000166119
-7.74922e-06 0.000119248 -7.22561e-06
0.000119248 -0.000562292 -9.49143e-06
-7.22561e-06 -9.49143e-06 -0.0007072
0.00230344 -1.64493e-06 7.5743e-06
-1.64493e-06 0.000570795 -5.40124e-06
7.5743e-06 -5.40124e-06 0.000504434
0.000685498 2.64383e-06 -2.2239e-05
2.64383e-06 4.50501e-05 1.29002e-06
-2.2239e-05 1.29002e-06 -0.000148921
0.00124431 0.000126933 5.46506e-05
0.000126933 -0.000279606 -6.68818e-07
5.46506e-05 -6.68818e-07 -0.000742972
0.00117105 -7.59063e-05 -2.08539e-06
-7.59063e-05 -0.000309573 7.40151e-06
-2.08539e-06 7.40151e-06 -0.000279708
0.00144825 0.000104746 4.27183e-05
0.000104746 8.71402e-05 -1.8069e-05
4.27183e-05 -1.8069e-05 -0.000152119
0.00201626 -1.00557e-05 5.42797e-06
-1.00557e-05 1.73694e-05 -1.53532e-06
5.42797e-06 -1.53532e-06 1.4252e-05
0.00131273 6.89833e-05 4.00028e-07
6.89833e-05 4.09532e-08 -3.67473e-06
4.00028e-07 -3.67473e-06 -6.79791e-05
0.00110464 4.43609e-05 -6.58311e-06
4.43609e-05 -0.0002984 9.54065e-09
-6.58311e-06 9.54065e-09 -0.000367997
0.000806757 4.18477e-05 -5.42035e-06
4.18477e-05 -0.000357989 -3.44793e-06
-5.42035e-06 -3.44793e-06 -0.000444669
0.00179187 -8.10054e-05 1.26503e-05
-8.10054e-05 -2.18246e-05 -3.25664e-06
1.26503e-05 -3.25664e-06 -3.07074e-05
0.00183202 -1.71981e-05 3.19174e-06
-1.71981e-05 9.61372e-05 1.03791e-07
3.19174e-06 1.03791e-07 6.80943e-05
0.00186141 1.1843e-05 -2.08596e-06
1.1843e-05 0.000184145 1.08699e-06
-2.08596e-06 1.08699e-06 0.000121214
0.00171537 -5.69513e-05 1.50209e-06
-5.69513e-05 8.68171e-05 -1.41937e-06
1.50209e-06 -1.41937e-06 6.5639e-05
0.00170525 -3.17023e-05 -1.63821e-07
-3.17023e-05 9.56863e-05 -2.18646e-07
-1.63821e-07 -2.18646e-07 5.42768e-05
0.00171293 -1.85664e-05 -7.69896e-07
-1.85664e-05 0.00013174 2.0933e-06
-7.69896e-07 2.0933e-06 6.92805e-05
0.0015023 -5.32452e-05 7.03776e-08
-5.32452e-05 4.71489e-05 -6.97995e-07
7.03776e-08 -6.97995e-07 7.60089e-06
0.00154539 -4.36023e-05 -8.57795e-07
-4.36023e-05 8.14377e-05 -9.30416e-07
-8.57795e-07 -9.30416e-07 3.02732e-05
0.00141255 -4.05881e-05 6.68887e-08
-4.05881e-05 3.68879e-05 2.15844e-06
6.68887e-08 2.15844e-06 -3.0997e-05
0.00131719 -5.4051e-05 -8.38797e-07
-5.4051e-05 1.31641e-05 -1.30263e-06
-8.38797e-07 -1.30263e-06 -3.80767e-05
0.00136297 -5.01628e-05 1.5556e-07
-5.01628e-05 4.88096e-05 -5.54657e-07
1.5556e-07 -5.54657e-07 -1.37657e-05
0.00136151 -5.08366e-05 3.11714e-07
-5.08366e-05 6.31802e-05 6.40231e-07
3.11714e-07 6.40231e-07 -7.87838e-06
0.00127551 -5.25497e-05 -1.42972e-06
-5.25497e-05 2.73591e-05 6.10307e-07
-1.42972e-06 6.10307e-07 -3.37241e-05
0.00138613 -5.35203e-05 -2.38865e-07
-5.35203e-05 9.56874e-05 -3.58205e-07
-2.38865e-07 -3.58205e-07 2.61994e-05
0.00131504 -5.14457e-05 -7.03673e-07
-5.14457e-05 8.00182e-05 2.26548e-07
-7.03673e-07 2.26548e-07 7.03698e-06
0.00133327 -5.94475e-05 9.43183e-07
-5.94475e-05 9.38918e-05 -1.02429e-07
9.43183e-07 -1.02429e-07 1.80568e-05
0.00122156 -5.55847e-05 2.19448e-07
-5.55847e-05 5.82097e-05 -1.78682e-07
2.19448e-07 -1.78682e-07 -1.71905e-05
0.00120845 -5.08582e-05 -1.84207e-06
-5.08582e-05 8.04572e-05 9.98183e-07
-1.84207e-06 9.98183e-07 8.67978e-06
0.000924266 -2.72581e-05 -2.64428e-06
-2.72581e-05 1.26513e-05 1.68825e-06
-2.64428e-06 1.68825e-06 -4.81625e-05
0.000952143 -4.88155e-05 -5.03894e-07
-4.88155e-05 -1.41214e-05 3.37694e-07
-5.03894e-07 3.37694e-07 -8.67997e-05
0.00113823 -5.90362e-05 9.37154e-07
-5.90362e-05 5.57462e-05 -7.66184e-07
9.37154e-07 -7.66184e-07 -2.35482e-05
0.000684241 2.90014e-05 -3.8462e-06
2.90014e-05 -6.22149e-05 3.48766e-06
-3.8462e-06 3.48766e-06 -9.15374e-05
0.000910687 -1.78829e-05 2.97609e-08
-1.78829e-05 2.21267e-05 7.09446e-08
2.97609e-08 7.09446e-08 -3.6884e-05
0.00108127 -5.01259e-05 1.46789e-06
-5.01259e-05 7.51661e-05 -1.13722e-06
1.46789e-06 -1.13722e-06 3.59672e-06
0.00273955 5.35338e-05 -2.41299e-05
5.35338e-05 0.000973976 3.31065e-06
-2.41299e-05 3.31065e-06 0.00098124
0.000750182 3.49476e-05 -6.79759e-08
3.49476e-05 -3.71081e-05 -5.70308e-08
-6.79759e-08 -5.70308e-08 -6.1706e-05
0.000936523 -1.11482e-05 2.52476e-06
-1.11482e-05 3.6601e-05 -1.61892e-06
2.52476e-06 -1.61892e-06 -1.92708e-05
0.00264347 4.90426e-05 3.04934e-07
4.90426e-05 0.000918098 9.42403e-08
3.04934e-07 9.42403e-08 0.0009275
0.000805577 3.47231e-05 3.90117e-06
3.47231e-05 -1.64449e-05 -3.37165e-06
3.90117e-06 -3.37165e-06 -3.72881e-05
0.00256144 4.47312e-05 2.24223e-05
4.47312e-05 0.000869866 -3.59052e-06
2.24223e-05 -3.59052e-06 0.000881195
0.000943285 5.46763e-05 -8.68098e-07
5.46763e-05 2.26797e-05 -7.89259e-07
-8.68098e-07 -7.89259e-07 -5.69571e-05
0.00104098 5.19674e-05 -4.74072e-08
5.19674e-05 8.19956e-05 -2.39762e-07
-4.74072e-08 -2.39762e-07 5.05055e-06
0.00106325 3.80875e-05 -1.33895e-06
3.80875e-05 9.10474e-05 -5.36164e-07
-1.33895e-06 -5.36164e-07 2.04937e-05
0.00118594 5.16907e-05 7.52486e-07
5.16907e-05 0.000152248 1.62561e-08
7.52486e-07 1.62561e-08 7.77083e-05
0.000988829 2.2939e-05 -3.55292e-07
2.2939e-05 5.43472e-05 -1.31744e-07
-3.55292e-07 -1.31744e-07 -1.44357e-05
0.00090753 1.79821e-06 -2.57537e-06
1.79821e-06 2.05786e-05 -1.66495e-06
-2.57537e-06 -1.66495e-06 -3.37353e-05
0.000930769 1.05548e-05 9.30934e-07
1.05548e-05 2.01945e-05 4.95779e-07
9.30934e-07 4.95779e-07 -4.75804e-05
0.0009021 -3.49822e-06 1.52774e-08
-3.49822e-06 1.07137e-05 4.66594e-08
1.52774e-08 4.66594e-08 -4.00661e-05
0.000799998 -3.21942e-05 -3.83844e-06
-3.21942e-05 -3.02259e-05 -3.59047e-06
-3.83844e-06 -3.59047e-06 -4.83733e-05
0.000904943 -7.12479e-06 2.37387e-06
-7.12479e-06 6.60937e-06 2.52267e-06
2.37387e-06 2.52267e-06 -4.0207e-05
0.000801841 -2.69855e-05 -8.14092e-08
-2.69855e-05 -3.93173e-05 7.62596e-09
-8.14092e-08 7.62596e-09 -5.37797e-05
0.00254781 -4.0756e-05 -2.16211e-05
-4.0756e-05 0.000853526 -3.7596e-06
-2.16211e-05 -3.7596e-06 0.000866639
0.000806608 -2.30804e-05 3.32823e-06
-2.30804e-05 -4.40369e-05 3.75888e-06
3.32823e-06 3.75888e-06 -5.52569e-05
0.0025052 -3.65943e-05 -3.48743e-07
-3.65943e-05 0.000824069 6.80295e-08
-3.48743e-07 6.80295e-08 0.000839216
0.0024719 -3.27448e-05 1.83492e-05
-3.27448e-05 0.000800432 3.89342e-06
1.83492e-05 3.89342e-06 0.000817253
0.00136027 -4.67598e-05 -1.59969e-06
-4.67598e-05 -6.82325e-05 3.01814e-07
-1.59969e-06 3.01814e-07 -0.000102133
0.00201223 -4.51711e-06 -4.16539e-06
-4.51711e-06 0.000282875 6.66868e-06
-4.16539e-06 6.66868e-06 5.16298e-05
0.00437318 4.0118e-05 -6.40777e-05
4.0118e-05 0.00127434 -1.00649e-05
-6.40777e-05 -1.00649e-05 0.000781039
0.00093921 5.78525e-05 1.0885e-06
5.78525e-05 3.93359e-06 4.39703e-07
1.0885e-06 4.39703e-07 -7.31001e-05
0.00131881 7.09224e-05 1.95494e-06
7.09224e-05 0.000146522 -1.04407e-06
1.95494e-06 -1.04407e-06 6.13428e-05
0.000895669 5.73286e-05 2.96866e-07
5.73286e-05 1.42439e-06 -3.64626e-07
2.96866e-07 -3.64626e-07 -7.99463e-05
0.00115105 6.0268e-05 1.30269e-06
6.0268e-05 0.00014302 -8.04148e-07
1.30269e-06 -8.04148e-07 6.24106e-05
0.00104915 5.85027e-05 2.84415e-07
5.85027e-05 9.46593e-05 -2.10166e-08
2.84415e-07 -2.10166e-08 1.38933e-05
0.00101832 6.24279e-05 8.46965e-07
6.24279e-05 6.57128e-05 6.99888e-07
8.46965e-07 6.99888e-07 -1.05938e-05
0.00139091 8.43235e-05 -2.04719e-06
8.43235e-05 0.000127724 -2.95319e-06
-2.04719e-06 -2.95319e-06 3.68688e-05
0.00141991 7.71192e-05 2.53203e-06
7.71192e-05 0.000255504 2.16937e-07
2.53203e-06 2.16937e-07 0.000171934
0.000805311 7.04323e-05 -1.02179e-06
7.04323e-05 -4.8969e-05 3.74944e-06
-1.02179e-06 3.74944e-06 -0.000139189
0.00142211 9.28546e-05 -1.09315e-06
9.28546e-05 0.000136454 -4.29064e-07
-1.09315e-06 -4.29064e-07 3.66614e-05
0.00116911 7.75355e-05 -4.53267e-06
7.75355e-05 -0.000126164 -2.77112e-06
-4.53267e-06 -2.77112e-06 -0.000231187
0.00170199 3.24601e-05 -6.97267e-06
3.24601e-05 3.60235e-06 4.11631e-06
-6.97267e-06 4.11631e-06 -7.69903e-05
0.0018919 9.82237e-05 4.83083e-07
9.82237e-05 0.000184239 7.80848e-07
4.83083e-07 7.80848e-07 7.08186e-05
0.00109282 9.27416e-05 -2.99383e-07
9.27416e-05 -5.81345e-05 4.22481e-06
-2.99383e-07 4.22481e-06 -0.000171767
0.00157903 -1.82207e-05 5.74117e-07
-1.82207e-05 -5.10216e-05 9.20929e-07
5.74117e-07 9.20929e-07 -8.52981e-05
0.00267857 -4.13644e-05 5.04871e-05
-4.13644e-05 0.000345095 2.76258e-05
5.04871e-05 2.76258e-05 0.000116921
0.00210386 8.18912e-05 -4.02462e-06
8.18912e-05 0.000197972 -2.29137e-06
-4.02462e-06 -2.29137e-06 0.000129954
0.00191347 2.36435e-05 -4.57411e-06
2.36435e-05 0.000252044 -2.77327e-06
-4.57411e-06 -2.77327e-06 0.000193398
0.00143017 -6.26695e-06 9.6138e-07
-6.26695e-06 0.000136712 -5.43957e-07
9.6138e-07 -5.43957e-07 7.4615e-05
0.000888165 5.19114e-05 5.49506e-05
5.19114e-05 -8.04107e-05 3.1784e-06
5.49506e-05 3.1784e-06 -0.000331243
0.00163558 -1.54168e-05 7.58448e-06
-1.54168e-05 -0.000182969 -1.30288e-08
7.58448e-06 -1.30288e-08 -0.00019865
0.00156381 7.55334e-05 -4.28233e-06
7.55334e-05 0.000141592 1.47231e-06
-4.28233e-06 1.47231e-06 7.53001e-05
0.00160429 5.12992e-05 -1.70991e-06
5.12992e-05 -6.00609e-05 4.37373e-06
-1.70991e-06 4.37373e-06 -0.000125912
0.00149191 5.32982e-05 1.97357e-07
5.32982e-05 -1.80987e-05 1.35399e-06
1.97357e-07 1.35399e-06 -0.000101136
0.00160365 4.28561e-05 -4.94419e-06
4.28561e-05 6.70259e-05 9.95726e-09
-4.94419e-06 9.95726e-09 -1.04131e-05
0.00135538 3.84233e-05 -3.22717e-06
3.84233e-05 -2.63016e-05 -1.50094e-06
-3.22717e-06 -1.50094e-06 -9.35158e-05
0.00159643 -1.94015e-05 6.77293e-06
-1.94015e-05 -1.75014e-05 -2.54966e-06
6.77293e-06 -2.54966e-06 -5.01211e-05
0.00170621 1.03319e-05 -1.13393e-06
1.03319e-05 0.000102216 -9.36456e-07
-1.13393e-06 -9.36456e-07 4.10729e-05
0.00164243 2.05611e-05 -1.6369e-06
2.05611e-05 9.31927e-05 1.21366e-07
-1.6369e-06 1.21366e-07 1.66905e-05
0.00178723 -3.26718e-05 -1.58441e-06
-3.26718e-05 0.000139428 -2.79893e-06
-1.58441e-06 -2.79893e-06 9.65892e-05
0.00163364 -1.84661e-05 -1.29649e-07
-1.84661e-05 9.63169e-05 -4.38058e-07
-1.29649e-07 -4.38058e-07 3.43281e-05
0.00143745 -1.37691e-05 -9.38219e-07
-1.37691e-05 1.75143e-05 1.8186e-06
-9.38219e-07 1.8186e-06 -5.66219e-05
0.00148849 -4.49333e-05 -2.6222e-06
-4.49333e-05 6.27932e-05 -2.88968e-06
-2.6222e-06 -2.88968e-06 1.20801e-05
0.00143736 -4.0129e-05 2.53371e-07
-4.0129e-05 4.89734e-05 -8.59487e-08
2.53371e-07 -8.59487e-08 -1.8971e-05
0.00141483 -4.21747e-05 -3.04733e-07
-4.21747e-05 5.63432e-05 1.52371e-06
-3.04733e-07 1.52371e-06 -1.91307e-05
0.0013451 -4.96626e-05 -8.80024e-07
-4.96626e-05 4.0916e-05 -1.90047e-06
-8.80024e-07 -1.90047e-06 -2.16956e-05
0.00136036 -5.0168e-05 4.56551e-08
-5.0168e-05 6.23902e-05 -3.9308e-07
4.56551e-08 -3.9308e-07 -8.61277e-06
0.00132575 -4.95373e-05 -6.01501e-07
-4.95373e-05 6.5149e-05 6.55188e-07
-6.01501e-07 6.55188e-07 -9.32249e-06
0.00125741 -5.06779e-05 -2.87723e-07
-5.06779e-05 3.1198e-05 -1.08821e-07
-2.87723e-07 -1.08821e-07 -3.74947e-05
0.00122717 -4.98379e-05 -1.71532e-07
-4.98379e-05 3.68839e-05 -1.64638e-07
-1.71532e-07 -1.64638e-07 -3.59174e-05
0.00120258 -4.64857e-05 -1.80491e-06
-4.64857e-05 5.57908e-05 7.90785e-07
-1.80491e-06 7.90785e-07 -1.53715e-05
0.00109166 -5.29988e-05 1.33313e-06
-5.29988e-05 -5.67665e-06 -6.39577e-07
1.33313e-06 -6.39577e-07 -8.15593e-05
0.00106425 -4.76235e-05 5.91963e-08
-4.76235e-05 1.00295e-05 3.56279e-08
5.91963e-08 3.56279e-08 -6.18734e-05
0.000975858 -3.16924e-05 -2.96071e-06
-3.16924e-05 1.4336e-05 1.53737e-06
-2.96071e-06 1.53737e-06 -4.7013e-05
0.000720527 1.11452e-05 -5.14638e-06
1.11452e-05 -4.48055e-05 3.45869e-06
-5.14638e-06 3.45869e-06 -7.79423e-05
0.000938153 -2.85231e-05 3.89384e-08
-2.85231e-05 1.95772e-05 1.0016e-07
3.89384e-08 1.0016e-07 -4.12959e-05
0.00105598 -5.08787e-05 1.1056e-06
-5.08787e-05 3.92773e-05 -8.07125e-07
1.1056e-06 -8.07125e-07 -3.29556e-05
0.00282347 5.77802e-05 -2.50154e-05
5.77802e-05 0.00102736 3.20625e-06
-2.50154e-05 3.20625e-06 0.00103162
0.000748717 2.20648e-05 6.93566e-08
2.20648e-05 -3.31779e-05 -6.62179e-08
6.93566e-08 -6.62179e-08 -6.20672e-05
0.000945375 -2.1366e-05 2.6947e-06
-2.1366e-05 3.80402e-05 -1.7061e-06
2.6947e-06 -1.7061e-06 -2.09295e-05
0.00271409 5.31424e-05 2.5794e-07
5.31424e-05 0.000962967 8.88995e-08
2.5794e-07 8.88995e-08 0.000969851
0.000807416 2.98743e-05 4.46218e-06
2.98743e-05 -9.60122e-06 -3.31455e-06
4.46218e-06 -3.31455e-06 -3.40036e-05
0.00262656 4.87976e-05 2.35586e-05
4.87976e-05 0.000910815 -3.47009e-06
2.35586e-05 -3.47009e-06 0.000919943
0.000760489 5.44957e-05 -4.55315e-07
5.44957e-05 -9.49751e-05 -6.87638e-07
-4.55315e-07 -6.87638e-07 -0.000178982
0.000836117 5.21764e-05 -1.18219e-08
5.21764e-05 -3.22387e-05 -9.58798e-08
-1.18219e-08 -9.58798e-08 -0.00011227
0.00109869 4.66421e-05 -1.50635e-06
4.66421e-05 9.71787e-05 -5.43183e-07
-1.50635e-06 -5.43183e-07 2.47868e-05
0.00101052 5.10656e-05 5.82905e-07
5.10656e-05 6.65178e-05 7.24623e-08
5.82905e-07 7.24623e-08 -1.01991e-05
0.00101249 3.59848e-05 -4.60685e-08
3.59848e-05 6.65995e-05 -4.20536e-08
-4.60685e-08 -4.20536e-08 -3.83413e-06
0.000921604 5.44526e-06 -2.64228e-06
5.44526e-06 3.42613e-05 -1.50252e-06
-2.64228e-06 -1.50252e-06 -2.32253e-05
0.00102724 2.5959e-05 1.04212e-06
2.5959e-05 7.40672e-05 2.75861e-07
1.04212e-06 2.75861e-07 5.55305e-06
0.000897548 -6.7598e-07 9.22461e-08
-6.7598e-07 1.75093e-05 4.27224e-08
9.22461e-08 4.27224e-08 -3.70469e-05
0.00079228 -3.62735e-05 -3.71481e-06
-3.62735e-05 -2.31739e-05 -3.45789e-06
-3.71481e-06 -3.45789e-06 -4.51616e-05
0.000902489 -6.08811e-06 2.60729e-06
-6.08811e-06 1.22054e-05 2.13842e-06
2.60729e-06 2.13842e-06 -3.87637e-05
0.000780012 -3.12284e-05 -2.52561e-08
-3.12284e-05 -4.12348e-05 1.28442e-08
-2.52561e-08 1.28442e-08 -5.906e-05
0.00259164 -4.50352e-05 -2.25144e-05
-4.50352e-05 0.000883914 -3.59999e-06
-2.25144e-05 -3.59999e-06 0.000895023
0.000786722 -2.61293e-05 3.85635e-06
-2.61293e-05 -4.77242e-05 3.77126e-06
3.85635e-06 3.77126e-06 -6.1874e-05
0.00256725 -4.08386e-05 -2.80742e-07
-4.08386e-05 0.000862179 7.59851e-08
-2.80742e-07 7.59851e-08 0.000875498
0.002522 -3.67231e-05 1.98706e-05
-3.67231e-05 0.000831666 3.81769e-06
1.98706e-05 3.81769e-06 0.000846979
0.00156093 -1.70781e-05 -7.51955e-07
-1.70781e-05 -2.28885e-05 1.58119e-06
-7.51955e-07 1.58119e-06 -7.43309e-05
0.0011599 -4.43073e-05 3.21281e-07
-4.43073e-05 -0.00013221 -1.10217e-06
3.21281e-07 -1.10217e-06 -0.000165974
0.000452543 -3.19505e-05 4.39299e-05
-3.19505e-05 -0.000230757 1.89269e-05
4.39299e-05 1.89269e-05 -0.000380153
0.00178697 8.10894e-05 6.22638e-07
8.10894e-05 0.000326619 -2.20534e-06
6.22638e-07 -2.20534e-06 0.000242642
0.000921824 5.84467e-05 -7.0021e-07
5.84467e-05 7.2483e-06 3.535e-07
-7.0021e-07 3.535e-07 -6.6723e-05
0.000781021 6.09618e-05 -2.57009e-06
6.09618e-05 -0.00017924 -3.90296e-07
-2.57009e-06 -3.90296e-07 -0.00026883
0.00130398 7.06072e-05 1.61325e-07
7.06072e-05 0.000138247 7.1886e-08
1.61325e-07 7.1886e-08 5.25476e-05
0.000612523 5.05173e-05 -8.98515e-07
5.05173e-05 -0.000129528 8.35225e-07
-8.98515e-07 8.35225e-07 -0.000210658
0.0016506 7.76291e-05 -3.63769e-06
7.76291e-05 0.000137628 -4.17223e-06
-3.63769e-06 -4.17223e-06 4.01589e-05
0.001279 6.98671e-05 5.00728e-07
6.98671e-05 0.00018626 -6.02971e-08
5.00728e-07 -6.02971e-08 0.000109207
0.00138451 8.27561e-05 3.44037e-08
8.27561e-05 0.000118013 2.08765e-07
3.44037e-08 2.08765e-07 2.75413e-05
0.00159935 3.36778e-05 -2.91941e-06
3.36778e-05 2.29827e-05 2.54321e-06
-2.91941e-06 2.54321e-06 -6.32212e-05
0.00141767 9.25348e-05 1.60236e-06
9.25348e-05 0.000138645 2.90015e-06
1.60236e-06 2.90015e-06 4.02516e-05
0.00147909 8.45752e-05 -9.84147e-07
8.45752e-05 2.17924e-05 -7.20909e-07
-9.84147e-07 -7.20909e-07 -8.40131e-05
0.00181056 3.06485e-05 -5.91226e-07
3.06485e-05 6.57366e-05 2.039e-06
-5.91226e-07 2.039e-06 -1.67797e-05
0.001696 9.2889e-05 4.38868e-06
9.2889e-05 9.1571e-05 3.03202e-06
4.38868e-06 3.03202e-06 -2.1532e-05
0.00142645 -7.71424e-06 -9.28654e-06
-7.71424e-06 -0.000113921 -6.22565e-06
-9.28654e-06 -6.22565e-06 -0.000147374
0.00169335 2.52618e-06 -2.36499e-06
2.52618e-06 0.000157672 -1.0319e-06
-2.36499e-06 -1.0319e-06 9.93979e-05
0.00143997 1.78819e-05 1.30315e-06
1.78819e-05 8.03796e-06 6.02616e-07
1.30315e-06 6.02616e-07 -5.0253e-05
0.000508677 -8.52099e-06 1.37444e-06
-8.52099e-06 -0.000317974 2.79542e-06
1.37444e-06 2.79542e-06 -0.000376901
0.0020234 5.65081e-05 4.55859e-06
5.65081e-05 0.000136344 -2.28499e-06
4.55859e-06 -2.28499e-06 7.37171e-05
0.00220144 6.44475e-05 1.51745e-05
6.44475e-05 0.000335979 4.34473e-06
1.51745e-05 4.34473e-06 0.000256445
0.00181479 4.62355e-05 -3.05186e-06
4.62355e-05 0.000160256 -4.93556e-07
-3.05186e-06 -4.93556e-07 8.26589e-05
0.00151511 3.86821e-05 8.47276e-07
3.86821e-05 5.82868e-05 1.69091e-06
8.47276e-07 1.69091e-06 -8.53755e-06
0.00156974 3.76653e-05 -3.27296e-06
3.76653e-05 8.82548e-05 -1.99942e-06
-3.27296e-06 -1.99942e-06 1.48482e-05
0.00162561 8.6201e-06 -9.7381e-07
8.6201e-06 5.939e-05 -2.29019e-06
-9.7381e-07 -2.29019e-06 -5.12923e-07
0.00167213 1.98883e-05 -1.16224e-10
1.98883e-05 0.000105529 -2.62458e-07
-1.16224e-10 -2.62458e-07 2.98603e-05
0.00159159 2.352e-05 -2.60445e-06
2.352e-05 8.26051e-05 -5.95452e-07
-2.60445e-06 -5.95452e-07 3.0026e-06
0.00156099 -1.85472e-05 -2.43975e-07
-1.85472e-05 6.45135e-05 -2.52022e-06
-2.43975e-07 -2.52022e-06 2.92596e-06
0.00149791 -1.38328e-05 2.83805e-07
-1.38328e-05 4.76063e-05 3.53457e-07
2.83805e-07 3.53457e-07 -2.69812e-05
0.00149473 -1.44103e-05 -1.30521e-06
-1.44103e-05 6.31689e-05 9.93413e-07
-1.30521e-06 9.93413e-07 -1.62797e-05
0.00145753 -3.95843e-05 5.35999e-08
-3.95843e-05 5.88556e-05 -2.27011e-06
5.35999e-08 -2.27011e-06 -9.15016e-06
0.00142809 -4.1298e-05 1.79274e-07
-4.1298e-05 6.2071e-05 2.55001e-08
1.79274e-07 2.55001e-08 -1.34535e-05
0.00138004 -4.30184e-05 -1.03073e-06
-4.30184e-05 6.18748e-05 1.10018e-06
-1.03073e-06 1.10018e-06 -1.58169e-05
0.00135921 -4.95578e-05 -2.04043e-07
-4.95578e-05 6.16097e-05 -1.4191e-06
-2.04043e-07 -1.4191e-06 -9.34109e-06
0.00132509 -4.91367e-05 2.56661e-09
-4.91367e-05 6.44611e-05 -2.31725e-07
2.56661e-09 -2.31725e-07 -9.97721e-06
0.00123594 -4.4421e-05 -1.67725e-06
-4.4421e-05 5.03486e-05 8.54291e-07
-1.67725e-06 8.54291e-07 -2.24255e-05
0.00113466 -4.81087e-05 5.97279e-07
-4.81087e-05 -8.50358e-06 -5.35757e-07
5.97279e-07 -5.35757e-07 -8.11194e-05
0.00119002 -4.58275e-05 -2.50241e-08
-4.58275e-05 4.97846e-05 -4.43285e-08
-2.50241e-08 -4.43285e-08 -2.12882e-05
0.0010217 -3.1953e-05 -3.16526e-06
-3.1953e-05 1.43655e-05 1.46055e-06
-3.16526e-06 1.46055e-06 -4.7423e-05
0.000911524 -4.41525e-05 1.65691e-06
-4.41525e-05 -6.4516e-05 -8.56366e-07
1.65691e-06 -8.56366e-07 -0.000136538
0.000975035 -3.1941e-05 3.31649e-08
-3.1941e-05 1.46754e-05 5.66038e-08
3.31649e-08 5.66038e-08 -4.67449e-05
0.00166455 1.44101e-05 -6.30413e-06
1.44101e-05 0.000432167 1.89707e-06
-6.30413e-06 1.89707e-06 0.000400581
0.0011474 3.36696e-05 -2.60331e-05
3.36696e-05 0.000186297 5.90925e-06
-2.60331e-05 5.90925e-06 0.000176168
0.00122738 1.59974e-05 -1.03922e-06
1.59974e-05 0.000208989 -9.35537e-09
-1.03922e-06 -9.35537e-09 0.000178449
0.000955194 -2.96359e-05 2.89342e-06
-2.96359e-05 2.79984e-05 -1.57296e-06
2.89342e-06 -1.57296e-06 -3.2941e-05
0.00282694 5.73359e-05 2.94857e-07
5.73359e-05 0.00103114 1.07042e-07
2.94857e-07 1.07042e-07 0.00103481
0.000816478 2.12384e-05 5.09704e-06
2.12384e-05 -1.7105e-06 -3.30958e-06
5.09704e-06 -3.30958e-06 -3.05778e-05
0.00269566 5.26044e-05 2.48768e-05
5.26044e-05 0.00095535 -3.39862e-06
2.48768e-05 -3.39862e-06 0.000961866
0.00118263 6.44052e-05 -1.08715e-06
6.44052e-05 -1.46773e-05 -3.47193e-07
-1.08715e-06 -3.47193e-07 -9.70028e-05
0.000836782 5.85529e-05 5.30068e-07
5.85529e-05 -9.14161e-05 4.17826e-08
5.30068e-07 4.17826e-08 -0.000177825
0.000862219 5.73537e-05 -9.33019e-08
5.73537e-05 -4.9659e-05 -7.70647e-08
-9.33019e-08 -7.70647e-08 -0.000134229
0.00111785 5.23016e-05 -1.461e-06
5.23016e-05 8.90696e-05 -7.60699e-07
-1.461e-06 -7.60699e-07 1.49055e-05
0.000713367 4.92338e-05 4.71727e-07
4.92338e-05 -9.50172e-05 5.98539e-07
4.71727e-07 5.98539e-07 -0.000175387
0.00103881 4.40026e-05 -1.26838e-07
4.40026e-05 6.82737e-05 -3.79641e-08
-1.26838e-07 -3.79641e-08 -3.83736e-06
0.000938431 1.32127e-05 -2.70129e-06
1.32127e-05 4.32439e-05 -1.23129e-06
-2.70129e-06 -1.23129e-06 -1.61806e-05
0.00096683 3.40325e-05 1.31188e-06
3.40325e-05 4.46199e-05 4.92147e-07
1.31188e-06 4.92147e-07 -2.56986e-05
0.000886159 2.82466e-06 6.99304e-08
2.82466e-06 1.84202e-05 9.76912e-08
6.99304e-08 9.76912e-08 -3.92538e-05
0.000791015 -3.60735e-05 -4.02324e-06
-3.60735e-05 -1.42312e-05 -3.25941e-06
-4.02324e-06 -3.25941e-06 -4.01995e-05
0.000885944 -3.55361e-06 2.56411e-06
-3.55361e-06 1.36513e-05 1.78097e-06
2.56411e-06 1.78097e-06 -4.11394e-05
0.000753854 -3.51851e-05 1.13036e-08
-3.51851e-05 -4.31101e-05 -1.18698e-08
1.13036e-08 -1.18698e-08 -6.47892e-05
0.00262981 -4.91708e-05 -2.34242e-05
-4.91708e-05 0.000913202 -3.46428e-06
-2.34242e-05 -3.46428e-06 0.000921971
0.000757416 -3.00846e-05 4.14596e-06
-3.00846e-05 -5.35753e-05 3.67774e-06
4.14596e-06 3.67774e-06 -7.10606e-05
0.00261997 -4.52205e-05 -2.47902e-07
-4.52205e-05 0.000896699 8.22062e-08
-2.47902e-07 8.22062e-08 0.000908031
0.00258721 -4.09322e-05 2.12795e-05
-4.09322e-05 0.000871083 3.73944e-06
2.12795e-05 3.73944e-06 0.000884608
0.00159625 -2.02166e-05 -4.82879e-07
-2.02166e-05 5.40916e-05 2.19896e-06
-4.82879e-07 2.19896e-06 -1.15708e-05
0.0017858 -1.69526e-05 1.45571e-06
-1.69526e-05 0.000100618 -1.96351e-06
1.45571e-06 -1.96351e-06 4.80166e-05
0.00123032 -4.76111e-05 -1.18625e-06
-4.76111e-05 -7.48833e-05 -4.0144e-06
-1.18625e-06 -4.0144e-06 -0.000108881
0.00148392 6.95741e-05 -4.38507e-06
6.95741e-05 7.58796e-05 -2.914e-06
-4.38507e-06 -2.914e-06 -1.4411e-05
0.00150463 7.47779e-05 -1.36846e-07
7.47779e-05 0.000204105 3.96947e-07
-1.36846e-07 3.96947e-07 0.000122404
0.000807713 5.71979e-05 -3.48624e-06
5.71979e-05 -3.70681e-05 4.68201e-07
-3.48624e-06 4.68201e-07 -0.000107849
0.00131552 7.15009e-05 9.26336e-07
7.15009e-05 7.86355e-05 9.64964e-07
9.26336e-07 9.64964e-07 -9.28707e-06
0.0013128 7.07846e-05 -1.39161e-06
7.07846e-05 0.000141424 7.50128e-07
-1.39161e-06 7.50128e-07 5.51968e-05
0.00170184 3.05352e-05 -2.4533e-06
3.05352e-05 9.10555e-05 1.05499e-06
-2.4533e-06 1.05499e-06 -1.0049e-06
0.00160742 7.84313e-05 -1.52228e-06
7.84313e-05 0.00011439 -1.4163e-06
-1.52228e-06 -1.4163e-06 1.51133e-05
0.0013821 8.16214e-05 1.71456e-06
8.16214e-05 0.000111746 4.32535e-06
1.71456e-06 4.32535e-06 2.14025e-05
0.00168828 3.18516e-05 -3.99546e-07
3.18516e-05 6.49163e-05 9.31109e-07
-3.99546e-07 9.31109e-07 -2.18123e-05
0.00187395 9.32411e-05 4.00499e-06
9.32411e-05 0.000207748 1.91879e-06
4.00499e-06 1.91879e-06 0.000101518
0.00188443 2.74407e-05 5.36336e-06
2.74407e-05 0.000108161 -4.68808e-08
5.36336e-06 -4.68808e-08 2.40971e-05
0.00135987 2.3649e-06 -1.85493e-06
2.3649e-06 2.8546e-06 -2.09092e-08
-1.85493e-06 -2.09092e-08 -6.4633e-05
0.00152705 4.07779e-06 -2.46475e-07
4.07779e-06 7.3768e-05 -5.21576e-07
-2.46475e-07 -5.21576e-07 1.49026e-05
0.000838508 1.16585e-05 6.57481e-06
1.16585e-05 -0.00029955 5.48491e-06
6.57481e-06 5.48491e-06 -0.000357206
0.00205626 5.0233e-05 4.80122e-06
5.0233e-05 0.000267964 -1.09588e-06
4.80122e-06 -1.09588e-06 0.000190276
0.00164582 3.9057e-05 7.24905e-06
3.9057e-05 0.000127727 4.69776e-06
7.24905e-06 4.69776e-06 6.14111e-05
0.00162971 3.82356e-05 -1.11381e-06
3.82356e-05 0.00011725 -3.86446e-07
-1.11381e-06 -3.86446e-07 4.42364e-05
0.001522 3.1998e-05 -1.32886e-06
3.1998e-05 7.91689e-05 -7.99724e-07
-1.32886e-06 -7.99724e-07 1.49842e-06
0.00168761 1.89837e-05 1.92518e-06
1.89837e-05 0.000110554 -7.79104e-07
1.92518e-06 -7.79104e-07 3.57961e-05
0.00159075 2.14653e-05 -4.62528e-07
2.14653e-05 7.98547e-05 -7.55192e-08
-4.62528e-07 -7.55192e-08 3.94845e-07
0.0014949 1.46326e-05 -2.59887e-06
1.46326e-05 5.18983e-05 -9.69404e-07
-2.59887e-06 -9.69404e-07 -2.80718e-05
0.001555 -1.40584e-05 9.19919e-07
-1.40584e-05 7.60405e-05 -8.61374e-07
9.19919e-07 -8.61374e-07 9.99075e-07
0.00149769 -1.48411e-05 6.28086e-08
-1.48411e-05 6.41761e-05 3.90951e-07
6.28086e-08 3.90951e-07 -1.53901e-05
0.00144878 -2.17655e-05 -1.78568e-06
-2.17655e-05 6.55651e-05 6.18269e-07
-1.78568e-06 6.18269e-07 -1.43388e-05
0.00144097 -4.03567e-05 8.13323e-07
-4.03567e-05 6.7624e-05 -1.45708e-06
8.13323e-07 -1.45708e-06 -7.94868e-06
0.00138673 -4.26624e-05 9.7315e-08
-4.26624e-05 6.45188e-05 9.14179e-08
9.7315e-08 9.14179e-08 -1.32184e-05
0.0012913 -3.9955e-05 -1.95786e-06
-3.9955e-05 5.10475e-05 1.04014e-06
-1.95786e-06 1.04014e-06 -2.43362e-05
0.00132396 -4.87721e-05 6.7113e-07
-4.87721e-05 6.3552e-05 -1.1167e-06
6.7113e-07 -1.1167e-06 -1.08566e-05
0.00123816 -4.40838e-05 -1.02045e-08
-4.40838e-05 5.11479e-05 -1.16511e-07
-1.02045e-08 -1.16511e-07 -2.15898e-05
0.00106499 -3.17751e-05 -3.37702e-06
-3.17751e-05 1.53684e-05 1.59425e-06
-3.37702e-06 1.59425e-06 -4.81847e-05
0.00117644 -4.51666e-05 1.58597e-06
-4.51666e-05 4.32773e-05 -8.23735e-07
1.58597e-06 -8.23735e-07 -2.7706e-05
0.00101482 -3.16789e-05 6.18242e-08
-3.16789e-05 1.15538e-05 -3.1693e-08
6.18242e-08 -3.1693e-08 -5.03149e-05
0.00171196 8.02394e-06 -6.60335e-06
8.02394e-06 0.000451841 1.88692e-06
-6.60335e-06 1.88692e-06 0.000417788
0.000975841 -3.23893e-05 3.031e-06
-3.23893e-05 1.57792e-05 -1.40228e-06
3.031e-06 -1.40228e-06 -4.57162e-05
0.00172366 1.08228e-05 5.63989e-06
1.08228e-05 0.000457696 -9.47581e-07
5.63989e-06 -9.47581e-07 0.00042613
0.00120335 3.23147e-05 -2.99182e-05
3.23147e-05 0.000228806 5.75127e-06
-2.99182e-05 5.75127e-06 0.000213696
0.00205669 4.68554e-05 -1.94737e-05
4.68554e-05 0.000650355 1.74262e-06
-1.94737e-05 1.74262e-06 0.000645322
0.0017524 1.66279e-05 1.50656e-05
1.66279e-05 0.000471376 -2.72611e-06
1.50656e-05 -2.72611e-06 0.000443818
0.00282775 5.64352e-05 2.70805e-05
5.64352e-05 0.00103343 -3.35188e-06
2.70805e-05 -3.35188e-06 0.00103657
0.00148746 6.39337e-05 -3.3185e-06
6.39337e-05 7.43692e-05 -2.23341e-06
-3.3185e-06 -2.23341e-06 -1.18459e-05
0.00140566 6.84313e-05 1.4911e-06
6.84313e-05 0.000143116 -2.29955e-07
1.4911e-06 -2.29955e-07 6.10935e-05
0.00117491 6.4263e-05 1.01536e-06
6.4263e-05 -8.57969e-06 6.17526e-07
1.01536e-06 6.17526e-07 -8.63104e-05
0.00112789 5.69903e-05 -1.44284e-06
5.69903e-05 7.35979e-05 -1.1194e-06
-1.44284e-06 -1.1194e-06 -4.14003e-06
0.00112059 6.58953e-05 -3.46582e-07
6.58953e-05 4.3559e-05 1.7672e-07
-3.46582e-07 1.7672e-07 -4.28927e-05
0.00100217 6.13335e-05 4.39907e-07
6.13335e-05 1.3956e-05 7.19987e-07
4.39907e-07 7.19987e-07 -7.11837e-05
0.00108468 5.12937e-05 -6.6017e-08
5.12937e-05 7.52924e-05 -1.10191e-07
-6.6017e-08 -1.10191e-07 9.65677e-07
0.000959789 2.32027e-05 -2.58849e-06
2.32027e-05 4.66316e-05 -1.2356e-06
-2.58849e-06 -1.2356e-06 -1.46011e-05
0.000981043 4.15062e-05 1.12352e-06
4.15062e-05 4.04284e-05 4.01175e-07
1.12352e-06 4.01175e-07 -3.14142e-05
0.000894122 1.00261e-05 -4.09928e-08
1.00261e-05 2.20028e-05 9.15935e-08
-4.09928e-08 9.15935e-08 -3.74607e-05
0.000795508 -2.74846e-05 -4.84938e-06
-2.74846e-05 -5.27881e-06 -2.99848e-06
-4.84938e-06 -2.99848e-06 -3.52036e-05
0.000856986 3.7849e-07 2.44108e-06
3.7849e-07 5.64237e-06 1.57833e-06
2.44108e-06 1.57833e-06 -5.22271e-05
0.000736242 -3.80752e-05 -1.68007e-08
-3.80752e-05 -4.09741e-05 -2.12075e-08
-1.68007e-08 -2.12075e-08 -6.70068e-05
0.00267147 -5.30165e-05 -2.45831e-05
-5.30165e-05 0.000946591 -3.33606e-06
-2.45831e-05 -3.33606e-06 0.000952519
0.000714768 -3.40141e-05 4.08023e-06
-3.40141e-05 -6.33929e-05 3.56825e-06
4.08023e-06 3.56825e-06 -8.47521e-05
0.00266378 -4.95456e-05 -2.30509e-07
-4.95456e-05 0.000928347 8.60793e-08
-2.30509e-07 8.60793e-08 0.000937416
0.00264703 -4.53551e-05 2.23427e-05
-4.53551e-05 0.000908845 3.61012e-06
2.23427e-05 3.61012e-06 0.000920409
0.00156198 -1.67579e-05 -2.15171e-06
-1.67579e-05 4.89269e-05 2.41637e-06
-2.15171e-06 2.41637e-06 -2.79328e-05
0.00161783 -1.8873e-05 3.87825e-07
-1.8873e-05 6.55046e-05 -6.06747e-07
3.87825e-07 -6.06747e-07 -6.67497e-07
0.00207181 -1.72265e-05 2.73254e-06
-1.72265e-05 0.000255398 -4.76713e-06
2.73254e-06 -4.76713e-06 0.000201232
0.00144125 3.25705e-05 -2.42675e-06
3.25705e-05 -1.26998e-05 3.54331e-07
-2.42675e-06 3.54331e-07 -0.00010201
0.00153882 7.08011e-05 1.8362e-07
7.08011e-05 0.000104495 -5.66055e-07
1.8362e-07 -5.66055e-07 1.38904e-05
0.00132597 7.06166e-05 -1.16254e-06
7.06166e-05 0.000130893 1.85968e-06
-1.16254e-06 1.85968e-06 5.15515e-05
0.00178438 8.07786e-05 1.77569e-06
8.07786e-05 0.000303979 1.07329e-06
1.77569e-06 1.07329e-06 0.00021783
0.00177683 3.22235e-05 -1.97378e-07
3.22235e-05 0.000127886 -1.4603e-07
-1.97378e-07 -1.4603e-07 3.60985e-05
0.001582 7.9304e-05 2.53513e-06
7.9304e-05 9.90588e-05 1.82358e-06
2.53513e-06 1.82358e-06 -1.88104e-06
0.00176535 2.94391e-05 3.37534e-06
2.94391e-05 0.000101179 -2.11554e-07
3.37534e-06 -2.11554e-07 1.39271e-05
0.00147936 1.65872e-06 -9.66461e-08
1.65872e-06 5.90199e-05 5.02115e-07
-9.66461e-08 5.02115e-07 -1.59297e-05
0.00142026 3.78681e-06 4.56428e-08
3.78681e-06 2.81877e-05 -2.16397e-07
4.56428e-08 -2.16397e-07 -4.09452e-05
0.00138693 6.34809e-06 1.69427e-06
6.34809e-06 3.51043e-06 7.23639e-07
1.69427e-06 7.23639e-07 -5.60783e-05
0.00154371 3.18249e-05 -8.28716e-07
3.18249e-05 9.87899e-05 -6.04552e-08
-8.28716e-07 -6.04552e-08 1.71837e-05
0.00168539 3.86956e-05 3.09858e-06
3.86956e-05 0.000144432 1.2652e-06
3.09858e-06 1.2652e-06 7.17875e-05
0.00152277 3.22824e-05 2.50921e-07
3.22824e-05 7.89432e-05 2.1992e-07
2.50921e-07 2.1992e-07 8.71373e-07
0.00155037 2.86728e-05 -1.04473e-06
2.86728e-05 9.43658e-05 -4.09558e-07
-1.04473e-06 -4.09558e-07 1.4784e-05
0.00161395 1.97237e-05 1.82171e-06
1.97237e-05 8.88366e-05 3.21206e-07
1.82171e-06 3.21206e-07 9.50442e-06
0.00152116 1.45248e-05 -6.65506e-07
1.45248e-05 6.45916e-05 -1.72955e-07
-6.65506e-07 -1.72955e-07 -1.52997e-05
0.00146762 8.70829e-06 -2.78154e-06
8.70829e-06 6.32293e-05 -4.53491e-07
-2.78154e-06 -4.53491e-07 -1.73487e-05
0.00150275 -1.46329e-05 2.0405e-06
-1.46329e-05 6.61858e-05 -2.3471e-07
2.0405e-06 -2.3471e-07 -1.34959e-05
0.00144221 -2.04213e-05 4.95345e-08
-2.04213e-05 6.25291e-05 1.79088e-07
4.95345e-08 1.79088e-07 -1.74713e-05
0.00135417 -2.72839e-05 -2.54156e-06
-2.72839e-05 5.61287e-05 6.59974e-07
-2.54156e-06 6.59974e-07 -2.07155e-05
0.00139444 -4.22639e-05 1.44338e-06
-4.22639e-05 6.76575e-05 -9.2772e-07
1.44338e-06 -9.2772e-07 -1.01215e-05
0.00129471 -3.96522e-05 4.50538e-08
-3.96522e-05 5.23853e-05 9.97193e-08
4.50538e-08 9.97193e-08 -2.30151e-05
0.00111785 -2.96406e-05 -3.87617e-06
-2.96406e-05 2.02405e-05 1.76643e-06
-3.87617e-06 1.76643e-06 -4.5721e-05
0.00123994 -4.36814e-05 1.7099e-06
-4.36814e-05 5.17365e-05 -1.07321e-06
1.7099e-06 -1.07321e-06 -2.0962e-05
0.00106228 -3.12027e-05 1.526e-07
-3.12027e-05 1.37475e-05 -8.20367e-08
1.526e-07 -8.20367e-08 -4.9871e-05
0.00175361 4.20226e-06 -6.61827e-06
4.20226e-06 0.000467136 1.968e-06
-6.61827e-06 1.968e-06 0.000431581
0.00100966 -3.14361e-05 3.11977e-06
-3.14361e-05 9.60557e-06 -1.40721e-06
3.11977e-06 -1.40721e-06 -5.23461e-05
0.00178028 4.56371e-06 6.31425e-06
4.56371e-06 0.000481835 -8.27702e-07
6.31425e-06 -8.27702e-07 0.000447936
0.0012382 3.05223e-05 -3.28933e-05
3.05223e-05 0.000257378 5.2677e-06
-3.28933e-05 5.2677e-06 0.000239107
0.00178689 7.10031e-06 1.83831e-05
7.10031e-06 0.000485241 -3.94698e-06
1.83831e-05 -3.94698e-06 0.000453746
0.00118914 3.66996e-05 -1.18151e-05
3.66996e-05 0.000224014 2.06738e-06
-1.18151e-05 2.06738e-06 0.000208564
0.00292653 6.69904e-05 1.10411e-05
6.69904e-05 0.0010957 -1.31549e-06
1.10411e-05 -1.31549e-06 0.00109502
0.00173192 4.15189e-05 -2.56684e-06
4.15189e-05 0.000161345 -8.15619e-07
-2.56684e-06 -8.15619e-07 7.2237e-05
0.00150032 6.24926e-05 -1.26669e-06
6.24926e-05 0.000117341 -1.97318e-06
-1.26669e-06 -1.97318e-06 3.40062e-05
0.00153809 6.57313e-05 -1.38198e-06
6.57313e-05 0.000108337 1.06879e-06
-1.38198e-06 1.06879e-06 2.28697e-05
0.0014571 6.39217e-05 -9.7924e-07
6.39217e-05 0.000199093 -4.23611e-07
-9.7924e-07 -4.23611e-07 0.000121461
0.00126483 6.63444e-05 4.21428e-07
6.63444e-05 7.25284e-05 -8.77756e-07
4.21428e-07 -8.77756e-07 -9.27982e-06
0.00123129 6.52098e-05 2.78689e-06
6.52098e-05 2.92137e-05 1.52282e-06
2.78689e-06 1.52282e-06 -4.40607e-05
0.000993155 3.59557e-05 -2.73921e-06
3.59557e-05 4.57532e-05 -1.58261e-06
-2.73921e-06 -1.58261e-06 -1.89683e-05
0.00112194 5.70599e-05 -6.27948e-08
5.70599e-05 7.05181e-05 -8.14123e-08
-6.27948e-08 -8.14123e-08 -7.26957e-06
0.00137497 7.24198e-05 1.49324e-06
7.24198e-05 0.000165058 1.18574e-06
1.49324e-06 1.18574e-06 7.84844e-05
0.00103206 4.96756e-05 1.1841e-06
4.96756e-05 5.19801e-05 4.57499e-07
1.1841e-06 4.57499e-07 -2.24732e-05
0.000921891 2.2135e-05 -4.05385e-08
2.2135e-05 2.88482e-05 -5.15304e-08
-4.05385e-08 -5.15304e-08 -3.23302e-05
0.000802311 -1.06372e-05 -5.40978e-06
-1.06372e-05 6.65799e-07 -2.99557e-06
-5.40978e-06 -2.99557e-06 -3.32167e-05
0.00084402 7.25578e-06 2.34105e-06
7.25578e-06 -2.29844e-06 1.23871e-06
2.34105e-06 1.23871e-06 -6.1735e-05
0.000733721 -2.88087e-05 -1.87024e-07
-2.88087e-05 -3.42611e-05 -2.97052e-08
-1.87024e-07 -2.97052e-08 -6.42156e-05
0.00275068 -5.67167e-05 -2.63628e-05
-5.67167e-05 0.00100148 -3.18045e-06
-2.63628e-05 -3.18045e-06 0.00100397
0.000678223 -3.6809e-05 3.88932e-06
-3.6809e-05 -6.97078e-05 3.45815e-06
3.88932e-06 3.45815e-06 -9.55326e-05
0.00270215 -5.35829e-05 -2.65641e-07
-5.35829e-05 0.000959423 9.20005e-08
-2.65641e-07 9.20005e-08 0.000965794
0.00269629 -4.98134e-05 2.31472e-05
-4.98134e-05 0.000942783 3.44465e-06
2.31472e-05 3.44465e-06 0.000952161
0.00160106 -6.71738e-06 -1.26129e-06
-6.71738e-06 7.41815e-05 1.08225e-06
-1.26129e-06 1.08225e-06 -5.30046e-06
0.00166987 -1.60229e-05 -1.15392e-07
-1.60229e-05 9.44695e-05 5.9929e-07
-1.15392e-07 5.9929e-07 1.67005e-05
0.00160485 -1.7643e-05 2.04762e-06
-1.7643e-05 6.01167e-05 -3.26111e-06
2.04762e-06 -3.26111e-06 -6.54163e-06
0.00157625 3.35957e-05 3.56782e-07
3.35957e-05 4.77713e-05 -1.08055e-07
3.56782e-07 -1.08055e-07 -4.1149e-05
0.00160849 7.23859e-05 2.09924e-06
7.23859e-05 0.000140909 1.23316e-06
2.09924e-06 1.23316e-06 4.98858e-05
0.0018749 3.34751e-05 2.6685e-06
3.34751e-05 0.000175811 -7.36696e-07
2.6685e-06 -7.36696e-07 8.43311e-05
0.00150728 2.37656e-06 -1.02926e-06
2.37656e-06 7.05639e-05 5.35943e-07
-1.02926e-06 5.35943e-07 -1.05425e-05
0.00146561 4.16474e-06 5.51064e-07
4.16474e-06 5.46786e-05 -2.3524e-07
5.51064e-07 -2.3524e-07 -2.06489e-05
0.00150697 5.17543e-06 1.68253e-06
5.17543e-06 6.60759e-05 -1.30461e-07
1.68253e-06 -1.30461e-07 -4.69042e-06
0.00150713 2.33957e-05 -6.37859e-07
2.33957e-05 8.12164e-05 -1.67035e-07
-6.37859e-07 -1.67035e-07 -1.44949e-08
0.00154913 2.14017e-05 -4.37895e-07
2.14017e-05 0.000106435 1.98607e-07
-4.37895e-07 1.98607e-07 2.25985e-05
0.00151334 3.2557e-05 1.82053e-06
3.2557e-05 7.37803e-05 6.91314e-07
1.82053e-06 6.91314e-07 -4.69374e-06
0.00153383 2.83449e-05 4.0923e-07
2.83449e-05 8.72474e-05 2.40788e-07
4.0923e-07 2.40788e-07 7.6152e-06
0.00153674 2.43678e-05 -9.67422e-07
2.43678e-05 0.000102002 -2.46233e-07
-9.67422e-07 -2.46233e-07 2.15646e-05
0.00154668 1.37649e-05 1.76776e-06
1.37649e-05 7.69578e-05 5.82919e-07
1.76776e-06 5.82919e-07 -2.85601e-06
0.00146845 7.49732e-06 -6.18836e-07
7.49732e-06 6.35724e-05 5.47377e-10
-6.18836e-07 5.47377e-10 -1.68913e-05
0.00137807 2.01977e-07 -3.49043e-06
2.01977e-07 5.54167e-05 2.19035e-07
-3.49043e-06 2.19035e-07 -2.22325e-05
0.00143745 -2.06024e-05 1.86085e-06
-2.06024e-05 6.02708e-05 -2.49166e-07
1.86085e-06 -2.49166e-07 -1.98116e-05
0.00134767 -2.65351e-05 8.04882e-08
-2.65351e-05 5.29585e-05 1.02182e-07
8.04882e-08 1.02182e-07 -2.39502e-05
0.00114948 -2.04601e-05 -4.47862e-06
-2.04601e-05 1.62382e-05 1.48139e-06
-4.47862e-06 1.48139e-06 -5.07083e-05
0.00129873 -3.93003e-05 2.19886e-06
-3.93003e-05 5.40213e-05 -8.31227e-07
2.19886e-06 -8.31227e-07 -2.13945e-05
0.00111347 -2.88743e-05 1.91601e-07
-2.88743e-05 1.72686e-05 6.63918e-08
1.91601e-07 6.63918e-08 -4.87198e-05
0.00184453 5.56572e-06 -6.79574e-06
5.56572e-06 0.00050359 2.0743e-06
-6.79574e-06 2.0743e-06 0.000467336
0.00106096 -3.06737e-05 3.42079e-06
-3.06737e-05 1.28579e-05 -1.60276e-06
3.42079e-06 -1.60276e-06 -5.0835e-05
0.00184158 1.71774e-07 7.19161e-06
1.71774e-07 0.000506968 -6.93458e-07
7.19161e-06 -6.93458e-07 0.000471621
0.00127059 2.70112e-05 -3.62439e-05
2.70112e-05 0.000280688 4.71294e-06
-3.62439e-05 4.71294e-06 0.000260549
0.00185137 4.35195e-07 2.00159e-05
4.35195e-07 0.000513071 -3.76363e-06
2.00159e-05 -3.76363e-06 0.000479399
0.00123527 3.63534e-05 -1.32119e-05
3.63534e-05 0.000258902 1.80565e-06
-1.32119e-05 1.80565e-06 0.000239968
0.00116854 4.17552e-05 7.21253e-06
4.17552e-05 0.000216113 -1.60437e-06
7.21253e-06 -1.60437e-06 0.000200251
0.00154019 5.00121e-06 -1.52423e-06
5.00121e-06 5.27612e-05 1.18999e-06
-1.52423e-06 1.18999e-06 -2.74468e-05
0.0015094 4.3696e-05 -2.69456e-06
4.3696e-05 8.19476e-05 -4.80699e-07
-2.69456e-06 -4.80699e-07 -4.25907e-06
0.00164469 4.07566e-05 -1.05547e-06
4.07566e-05 0.000114812 -8.23096e-07
-1.05547e-06 -8.23096e-07 2.54279e-05
0.00142295 5.87343e-05 -2.06303e-06
5.87343e-05 0.00012836 -8.79323e-07
-2.06303e-06 -8.79323e-07 4.97157e-05
0.0015591 6.35949e-05 7.59449e-07
6.35949e-05 0.000150571 5.43975e-07
7.59449e-07 5.43975e-07 6.76442e-05
0.00154203 6.66155e-05 3.70648e-06
6.66155e-05 0.000119644 2.57282e-06
3.70648e-06 2.57282e-06 3.49784e-05
0.000969436 4.09168e-05 -3.20448e-06
4.09168e-05 1.56639e-06 -1.42315e-06
-3.20448e-06 -1.42315e-06 -6.55064e-05
0.00116787 5.86684e-05 8.90081e-07
5.86684e-05 5.39699e-05 5.57151e-07
8.90081e-07 5.57151e-07 -2.46757e-05
0.00111005 6.39966e-05 1.32796e-06
6.39966e-05 -5.5701e-06 1.36064e-06
1.32796e-06 1.36064e-06 -8.70545e-05
0.000810947 6.91332e-06 -6.11635e-06
6.91332e-06 3.06059e-06 -3.37472e-06
-6.11635e-06 -3.37472e-06 -3.57489e-05
0.000957054 3.4161e-05 -1.24611e-07
3.4161e-05 2.76961e-05 -1.15269e-07
-1.24611e-07 -1.15269e-07 -3.68092e-05
0.00112396 5.73519e-05 1.46954e-06
5.73519e-05 7.1347e-05 9.88693e-07
1.46954e-06 9.88693e-07 -6.50278e-06
0.000872081 2.03012e-05 2.35986e-06
2.03012e-05 5.21689e-06 1.0291e-06
2.35986e-06 1.0291e-06 -5.59096e-05
0.000741414 -1.38878e-05 -4.22399e-08
-1.38878e-05 -2.52129e-05 -5.93519e-08
-4.22399e-08 -5.93519e-08 -5.95485e-05
0.00290143 -6.00217e-05 -2.94344e-05
-6.00217e-05 0.00109351 -3.04663e-06
-2.94344e-05 -3.04663e-06 0.0010921
0.00067813 -3.56022e-05 3.89421e-06
-3.56022e-05 -5.92426e-05 3.26774e-06
3.89421e-06 3.26774e-06 -8.97704e-05
0.00275525 -5.74137e-05 -3.2991e-07
-5.74137e-05 0.00100084 1.01903e-07
-3.2991e-07 1.01903e-07 0.00100391
0.00274022 -5.41107e-05 2.39552e-05
-5.41107e-05 0.000975908 3.28493e-06
2.39552e-05 3.28493e-06 0.000982714
0.00159206 -1.34357e-05 -1.03572e-06
-1.34357e-05 8.76015e-05 -3.74601e-07
-1.03572e-06 -3.74601e-07 6.76303e-06
0.00164288 -7.19193e-06 -3.64498e-07
-7.19193e-06 9.2558e-05 2.23662e-07
-3.64498e-07 2.23662e-07 1.27764e-05
0.00170842 -1.51288e-05 1.18141e-06
-1.51288e-05 0.00010695 -1.6315e-06
1.18141e-06 -1.6315e-06 2.81878e-05
0.00168817 3.42433e-05 2.88074e-06
3.42433e-05 9.6803e-05 -2.13197e-07
2.88074e-06 -2.13197e-07 8.30919e-06
0.0015244 -1.17952e-06 -1.02762e-06
-1.17952e-06 7.80873e-05 -3.10289e-07
-1.02762e-06 -3.10289e-07 -6.5116e-06
0.00155226 2.44214e-06 -2.56844e-07
2.44214e-06 9.2671e-05 -1.565e-07
-2.56844e-07 -1.565e-07 1.19787e-05
0.00144174 6.53216e-06 8.5444e-07
6.53216e-06 4.52841e-05 -1.99983e-07
8.5444e-07 -1.99983e-07 -3.04027e-05
0.00148034 1.84927e-05 -3.57375e-07
1.84927e-05 6.8514e-05 -3.77806e-07
-3.57375e-07 -3.77806e-07 -1.24765e-05
0.00150582 2.59557e-05 5.5989e-08
2.59557e-05 8.44808e-05 -2.35326e-07
5.5989e-08 -2.35326e-07 5.44332e-07
0.00151979 2.28777e-05 -1.59737e-06
2.28777e-05 0.000101028 4.71243e-07
-1.59737e-06 4.71243e-07 1.83325e-05
0.00152212 2.80797e-05 1.93004e-06
2.80797e-05 8.24637e-05 9.44633e-07
1.93004e-06 9.44633e-07 2.78122e-06
0.00153516 2.47414e-05 4.69931e-07
2.47414e-05 0.000102929 1.30638e-07
4.69931e-07 1.30638e-07 2.26895e-05
0.00131487 2.12488e-05 -2.70235e-06
2.12488e-05 2.08693e-05 -5.52721e-08
-2.70235e-06 -5.52721e-08 -5.76266e-05
0.00146245 7.79522e-06 1.41263e-06
7.79522e-06 6.07298e-05 4.73043e-07
1.41263e-06 4.73043e-07 -1.96382e-05
0.00136966 1.91943e-06 -3.23926e-07
1.91943e-06 5.12601e-05 1.22522e-07
-3.23926e-07 1.22522e-07 -2.63097e-05
0.00115919 -1.67209e-06 -4.8326e-06
-1.67209e-06 9.73376e-06 1.02299e-06
-4.8326e-06 1.02299e-06 -5.73175e-05
0.00134067 -2.36152e-05 2.60155e-06
-2.36152e-05 4.96055e-05 -4.13824e-07
2.60155e-06 -4.13824e-07 -2.7338e-05
0.001149 -2.17209e-05 1.02543e-07
-2.17209e-05 1.55155e-05 1.53795e-07
1.02543e-07 1.53795e-07 -5.14968e-05
0.000701968 -8.15703e-06 -7.37781e-06
-8.15703e-06 -8.69851e-05 3.02781e-06
-7.37781e-06 3.02781e-06 -0.000128411
0.00111196 -2.82618e-05 4.0179e-06
-2.82618e-05 1.57329e-05 -1.51535e-06
4.0179e-06 -1.51535e-06 -5.02942e-05
0.00131811 -1.05599e-05 9.20358e-06
-1.05599e-05 0.000232675 -3.59977e-07
9.20358e-06 -3.59977e-07 0.000194049
0.00370552 7.44443e-05 -3.96891e-05
7.44443e-05 0.00151965 1.93701e-06
-3.96891e-05 1.93701e-06 0.00150988
0.00192666 -4.85176e-06 2.20408e-05
-4.85176e-06 0.000545182 -3.61933e-06
2.20408e-05 -3.61933e-06 0.000510146
0.00128124 3.53112e-05 -1.49087e-05
3.53112e-05 0.000289777 1.5156e-06
-1.49087e-05 1.5156e-06 0.000268595
0.00122902 4.33525e-05 7.38527e-06
4.33525e-05 0.000258938 -1.60608e-06
7.38527e-06 -1.60608e-06 0.000239211
0.00161994 -6.01415e-06 -5.94342e-07
-6.01415e-06 0.00010505 4.23551e-08
-5.94342e-07 4.23551e-08 2.59367e-05
0.0013796 1.34314e-05 -1.80586e-06
1.34314e-05 6.94824e-06 8.3934e-07
-1.80586e-06 8.3934e-07 -7.46095e-05
0.00156685 4.91155e-06 8.67805e-08
4.91155e-06 6.89492e-05 -5.22542e-08
8.67805e-08 -5.22542e-08 -1.12525e-05
0.00107964 4.17211e-05 -3.10811e-06
4.17211e-05 -8.44942e-05 -8.86717e-07
-3.10811e-06 -8.86717e-07 -0.000165757
0.00152927 4.38727e-05 1.3142e-07
4.38727e-05 9.42416e-05 -3.62856e-08
1.3142e-07 -3.62856e-08 8.78727e-06
0.00155496 4.01132e-05 1.79378e-06
4.01132e-05 6.73632e-05 -5.32614e-07
1.79378e-06 -5.32614e-07 -2.23409e-05
0.000695339 3.51809e-05 -4.82169e-06
3.51809e-05 -0.000176555 -1.86754e-06
-4.82169e-06 -1.86754e-06 -0.000246102
0.00142374 5.93738e-05 5.19339e-07
5.93738e-05 0.000128119 1.63101e-10
5.19339e-07 1.63101e-10 4.94057e-05
0.00161539 6.47606e-05 2.52967e-06
6.47606e-05 0.00018322 1.73871e-06
2.52967e-06 1.73871e-06 0.000100605
0.000791198 2.13705e-05 -7.04313e-06
2.13705e-05 -1.69462e-05 -3.55676e-06
-7.04313e-06 -3.55676e-06 -5.96318e-05
0.000811085 3.74894e-05 -1.25762e-07
3.74894e-05 -7.98492e-05 8.30052e-08
-1.25762e-07 8.30052e-08 -0.000147747
0.000882394 5.34883e-05 2.65843e-06
5.34883e-05 -8.9339e-05 1.72885e-06
2.65843e-06 1.72885e-06 -0.000169
0.00319167 -5.99144e-05 -3.58571e-05
-5.99144e-05 0.00125218 -2.9814e-06
-3.58571e-05 -2.9814e-06 0.0012471
0.000735797 3.87255e-06 -1.29515e-07
3.87255e-06 -2.92638e-05 -4.68767e-08
-1.29515e-07 -4.68767e-08 -6.83314e-05
0.000928028 3.23986e-05 2.45461e-06
3.23986e-05 1.31478e-05 1.40563e-06
2.45461e-06 1.40563e-06 -5.11533e-05
0.000677374 -1.58406e-05 4.72428e-06
-1.58406e-05 -5.26524e-05 3.1379e-06
4.72428e-06 3.1379e-06 -8.72817e-05
0.00288045 -6.1601e-05 -4.15384e-07
-6.1601e-05 0.00108025 1.2629e-07
-4.15384e-07 1.2629e-07 0.00107943
0.00277892 -5.80125e-05 2.49243e-05
-5.80125e-05 0.00100929 3.13562e-06
2.49243e-05 3.13562e-06 0.00101298
0.00155051 -1.38079e-05 -1.58271e-06
-1.38079e-05 8.00536e-05 -2.34436e-07
-1.58271e-06 -2.34436e-07 -1.67275e-06
0.001584 -1.33439e-05 -3.67744e-07
-1.33439e-05 8.45454e-05 -2.39136e-07
-3.67744e-07 -2.39136e-07 3.97784e-06
0.00169727 -7.57195e-06 1.17556e-06
-7.57195e-06 0.000117161 -1.05975e-06
1.17556e-06 -1.05975e-06 3.7069e-05
0.00158282 1.30003e-05 -1.49798e-06
1.30003e-05 0.000111247 1.14384e-07
-1.49798e-06 1.14384e-07 2.54674e-05
0.00153746 2.39732e-06 -3.45708e-07
2.39732e-06 8.3501e-05 -2.817e-07
-3.45708e-07 -2.817e-07 -1.51128e-06
0.00160703 -4.24584e-07 -4.3888e-08
-4.24584e-07 0.000119463 -1.46192e-07
-4.3888e-08 -1.46192e-07 3.92803e-05
0.00145165 2.89243e-05 7.64241e-07
2.89243e-05 5.71437e-05 -9.01179e-07
7.64241e-07 -9.01179e-07 -2.68075e-05
0.00151184 2.49928e-05 3.19902e-07
2.49928e-05 9.65049e-05 1.06289e-07
3.19902e-07 1.06289e-07 1.38918e-05
0.00152529 1.91869e-05 -2.24508e-06
1.91869e-05 0.000124878 6.12388e-07
-2.24508e-06 6.12388e-07 4.65707e-05
0.00153825 2.51405e-05 2.24052e-06
2.51405e-05 0.000106076 7.22633e-07
2.24052e-06 7.22633e-07 2.6041e-05
0.00145464 2.34686e-05 7.52942e-08
2.34686e-05 9.29376e-05 6.22614e-08
7.52942e-08 6.22614e-08 1.54182e-05
0.000916928 1.59557e-05 -5.78382e-06
1.59557e-05 -0.000119786 9.27833e-07
-5.78382e-06 9.27833e-07 -0.000189213
0.00135347 1.26155e-06 2.47176e-06
1.26155e-06 4.33567e-05 7.18541e-08
2.47176e-06 7.18541e-08 -3.4182e-05
0.00115342 -1.03643e-07 -2.35065e-08
-1.03643e-07 6.61793e-06 3.25576e-08
-2.35065e-08 3.25576e-08 -6.03902e-05
0.000711543 -3.33965e-07 -7.55746e-06
-3.33965e-07 -8.81795e-05 2.58306e-06
-7.55746e-06 2.58306e-06 -0.00012921
0.00114578 -2.11538e-05 4.68072e-06
-2.11538e-05 1.34443e-05 -1.153e-06
4.68072e-06 -1.153e-06 -5.36028e-05
0.000710148 -5.5731e-06 -7.65752e-08
-5.5731e-06 -8.30169e-05 1.50476e-07
-7.65752e-08 1.50476e-07 -0.000124536
0.0037679 7.91298e-05 -4.02366e-05
7.91298e-05 0.00155089 1.44115e-06
-4.02366e-05 1.44115e-06 0.00154064
0.000770471 -1.96719e-05 9.55352e-06
-1.96719e-05 -4.77337e-05 -4.03651e-06
9.55352e-06 -4.03651e-06 -8.98215e-05
0.00257195 6.21951e-05 1.44428e-05
6.21951e-05 0.00094567 8.50205e-07
1.44428e-05 8.50205e-07 0.000928908
0.00129316 4.52997e-05 7.31959e-06
4.52997e-05 0.000299813 -1.60741e-06
7.31959e-06 -1.60741e-06 0.000277392
0.00170204 -1.42341e-05 -9.80505e-07
-1.42341e-05 0.000160074 4.9272e-08
-9.80505e-07 4.9272e-08 8.03981e-05
0.00147829 -9.7677e-07 -1.30999e-06
-9.7677e-07 5.90963e-05 1.8477e-07
-1.30999e-06 1.8477e-07 -1.97877e-05
0.00152537 -6.10056e-06 -1.73338e-08
-6.10056e-06 5.87736e-05 1.08509e-07
-1.73338e-08 1.08509e-07 -2.00688e-05
0.00132971 2.13942e-05 -2.62627e-06
2.13942e-05 2.57359e-05 1.24458e-07
-2.62627e-06 1.24458e-07 -5.24596e-05
0.00141663 1.31088e-05 4.16187e-07
1.31088e-05 2.63542e-05 -1.35593e-07
4.16187e-07 -1.35593e-07 -5.49058e-05
0.00159901 4.71896e-06 1.54832e-06
4.71896e-06 8.76834e-05 -9.15377e-07
1.54832e-06 -9.15377e-07 7.50258e-06
0.000780095 3.0798e-05 -5.52042e-06
3.0798e-05 -0.000168582 -1.77753e-06
-5.52042e-06 -1.77753e-06 -0.000238753
0.00142342 4.72643e-05 -7.3285e-07
4.72643e-05 8.74584e-05 -1.98557e-07
-7.3285e-07 -1.98557e-07 7.45238e-06
0.0015622 4.42353e-05 2.89085e-06
4.42353e-05 0.000112622 -1.73494e-07
2.89085e-06 -1.73494e-07 2.79525e-05
0.000759622 2.88525e-05 -8.0744e-06
2.88525e-05 -4.59498e-05 -3.58349e-06
-8.0744e-06 -3.58349e-06 -9.00007e-05
0.000761419 3.67935e-05 -1.25837e-06
3.67935e-05 -0.000147739 -4.88961e-07
-1.25837e-06 -4.88961e-07 -0.000217603
0.00142862 6.01159e-05 3.01007e-06
6.01159e-05 0.000129916 1.05092e-06
3.01007e-06 1.05092e-06 5.11234e-05
0.00352766 -5.9438e-05 -4.1138e-05
-5.9438e-05 0.00142771 -2.82701e-06
-4.1138e-05 -2.82701e-06 0.0014198
0.000728822 1.83791e-05 -1.70286e-07
1.83791e-05 -4.33839e-05 1.26794e-07
-1.70286e-07 1.26794e-07 -8.62645e-05
0.000655987 3.41368e-05 3.03492e-06
3.41368e-05 -0.000159793 1.81151e-06
3.03492e-06 1.81151e-06 -0.000228504
0.00309812 -6.55651e-05 -8.76351e-07
-6.55651e-05 0.00120412 1.57589e-07
-8.76351e-07 1.57589e-07 0.00119936
0.000662824 1.42094e-06 5.27665e-06
1.42094e-06 -6.05388e-05 3.39796e-06
5.27665e-06 3.39796e-06 -9.98436e-05
0.00284022 -6.17571e-05 2.59902e-05
-6.17571e-05 0.00105713 2.99277e-06
2.59902e-05 2.99277e-06 0.00105708
0.00158154 -1.00451e-07 -1.42885e-06
-1.00451e-07 0.000108796 -3.13522e-07
-1.42885e-06 -3.13522e-07 2.58684e-05
0.00156273 -1.28436e-05 2.54599e-07
-1.28436e-05 8.65751e-05 2.45394e-07
2.54599e-07 2.45394e-07 4.8122e-06
0.00156363 -1.30074e-05 5.63018e-07
-1.30074e-05 7.53641e-05 -4.78277e-07
5.63018e-07 -4.78277e-07 -4.9079e-06
0.00155568 1.67836e-06 -2.81297e-06
1.67836e-06 0.000121366 1.54315e-07
-2.81297e-06 1.54315e-07 4.02438e-05
0.00158427 1.2851e-05 3.17986e-07
1.2851e-05 0.000114197 -5.2025e-08
3.17986e-07 -5.2025e-08 2.85214e-05
0.00155322 8.46763e-06 1.3968e-06
8.46763e-06 9.04297e-05 -2.7149e-07
1.3968e-06 -2.7149e-07 4.8714e-06
0.00151033 2.59267e-05 1.76806e-06
2.59267e-05 9.5156e-05 -5.42895e-07
1.76806e-06 -5.42895e-07 1.26534e-05
0.00151988 1.9631e-05 5.50946e-07
1.9631e-05 0.000121842 -5.03966e-08
5.50946e-07 -5.03966e-08 4.36844e-05
0.000929894 1.20424e-05 -5.77241e-06
1.20424e-05 -0.000123218 1.03926e-06
-5.77241e-06 1.03926e-06 -0.000194088
0.00160688 2.57125e-05 2.94724e-06
2.57125e-05 0.000171108 4.79538e-08
2.94724e-06 4.79538e-08 9.45677e-05
0.00103816 1.77704e-05 -9.1032e-07
1.77704e-05 -5.76123e-05 2.00997e-07
-9.1032e-07 2.00997e-07 -0.00012609
0.000721783 5.06564e-06 -8.02321e-06
5.06564e-06 -8.83156e-05 2.22743e-06
-8.02321e-06 2.22743e-06 -0.000130284
0.00114949 -6.88049e-07 4.73392e-06
-6.88049e-07 4.35738e-06 -9.82497e-07
4.73392e-06 -9.82497e-07 -6.26205e-05
0.0007136 6.88227e-06 1.46165e-07
6.88227e-06 -8.67035e-05 3.52379e-08
1.46165e-07 3.52379e-08 -0.000128067
0.00385788 8.26e-05 -4.2554e-05
8.26e-05 0.00159526 9.25431e-07
-4.2554e-05 9.25431e-07 0.00158471
0.000713705 -9.58791e-07 7.28005e-06
-9.58791e-07 -8.15526e-05 -2.76882e-06
7.28005e-06 -2.76882e-06 -0.000122982
0.00381881 7.73988e-05 3.22297e-07
7.73988e-05 0.00157592 1.60606e-07
3.22297e-07 1.60606e-07 0.0015658
0.00148161 2.45571e-05 3.79617e-05
2.45571e-05 0.000390707 -2.33691e-06
3.79617e-05 -2.33691e-06 0.000369309
0.0016538 -8.76091e-06 -1.31563e-06
-8.76091e-06 0.00015221 -1.31465e-07
-1.31563e-06 -1.31465e-07 7.29245e-05
0.00158004 -1.43267e-05 4.16577e-07
-1.43267e-05 9.96569e-05 2.36501e-07
4.16577e-07 2.36501e-07 2.02258e-05
0.0013612 -6.33875e-07 -2.40323e-06
-6.33875e-07 3.57501e-05 -1.78538e-07
-2.40323e-06 -1.78538e-07 -4.14172e-05
0.00149112 -1.5588e-06 2.48121e-07
-1.5588e-06 6.49952e-05 -1.43519e-07
2.48121e-07 -1.43519e-07 -1.39004e-05
0.00142795 -6.20876e-06 1.73978e-06
-6.20876e-06 1.11773e-05 -1.14743e-08
1.73978e-06 -1.14743e-08 -6.74006e-05
0.00115168 1.89442e-05 -5.03134e-06
1.89442e-05 1.21485e-06 -1.13658e-06
-5.03134e-06 -1.13658e-06 -6.67052e-05
0.00136994 2.15831e-05 -4.96753e-08
2.15831e-05 4.43749e-05 1.20642e-07
-4.96753e-08 1.20642e-07 -3.38559e-05
0.00145442 1.27998e-05 1.69085e-06
1.27998e-05 4.60466e-05 -7.39217e-07
1.69085e-06 -7.39217e-07 -3.49074e-05
0.000735525 2.67457e-05 -8.68075e-06
2.67457e-05 -6.99304e-05 -3.42674e-06
-8.68075e-06 -3.42674e-06 -0.000113238
0.00098173 3.4069e-05 -1.48391e-06
3.4069e-05 -6.83039e-05 -3.73154e-07
-1.48391e-06 -3.73154e-07 -0.000137821
0.00176214 5.26049e-05 2.54167e-06
5.26049e-05 0.000256846 3.91157e-07
2.54167e-06 3.91157e-07 0.000178119
0.00380434 -6.19952e-05 -4.41778e-05
-6.19952e-05 0.00156857 -2.49441e-06
-4.41778e-05 -2.49441e-06 0.00155902
0.000723461 2.64177e-05 -5.91829e-08
2.64177e-05 -6.11706e-05 1.61319e-07
-5.91829e-08 1.61319e-07 -0.000105368
0.000820545 3.83489e-05 2.92515e-06
3.83489e-05 -0.00012226 1.17585e-06
2.92515e-06 1.17585e-06 -0.000192444
0.00340844 -6.57462e-05 -1.13161e-06
-6.57462e-05 0.00136809 1.86329e-07
-1.13161e-06 1.86329e-07 0.00136038
0.000670891 1.52368e-05 6.06067e-06
1.52368e-05 -6.7847e-05 3.80427e-06
6.06067e-06 3.80427e-06 -0.000110911
0.00300412 -6.63472e-05 2.77205e-05
-6.63472e-05 0.00115541 2.88458e-06
2.77205e-05 2.88458e-06 0.00115133
0.00156159 4.44568e-06 -2.24699e-06
4.44568e-06 0.000127513 -5.39719e-07
-2.24699e-06 -5.39719e-07 4.83889e-05
0.00157607 -2.56353e-06 2.18357e-07
-2.56353e-06 0.000108018 1.78038e-07
2.18357e-07 1.78038e-07 2.52784e-05
0.00158063 -1.24427e-05 2.02873e-06
-1.24427e-05 9.59769e-05 7.09049e-07
2.02873e-06 7.09049e-07 1.4156e-05
0.000937299 -1.03113e-05 -6.3781e-06
-1.03113e-05 -0.000130626 3.55288e-07
-6.3781e-06 3.55288e-07 -0.000203199
0.00157186 8.54023e-06 5.73006e-07
8.54023e-06 0.000130161 1.14674e-07
5.73006e-07 1.14674e-07 4.89105e-05
0.00157431 1.2922e-05 2.21056e-06
1.2922e-05 0.000111565 -4.07739e-07
2.21056e-06 -4.07739e-07 2.6006e-05
0.00151665 1.97557e-05 3.21903e-06
1.97557e-05 0.00011991 -3.75642e-07
3.21903e-06 -3.75642e-07 4.18963e-05
0.000928692 1.20626e-05 -6.87364e-07
1.20626e-05 -0.000122664 1.83471e-07
-6.87364e-07 1.83471e-07 -0.000193217
0.0007219 1.0079e-05 -8.393e-06
1.0079e-05 -9.67756e-05 1.57917e-06
-8.393e-06 1.57917e-06 -0.000139567
0.00115362 2.04697e-05 3.95957e-06
2.04697e-05 1.66401e-06 -7.55834e-07
3.95957e-06 -7.55834e-07 -6.58787e-05
0.00072615 1.39006e-05 2.27333e-07
1.39006e-05 -8.59062e-05 4.04288e-08
2.27333e-07 4.04288e-08 -0.000128102
0.00395338 7.95429e-05 -4.54484e-05
7.95429e-05 0.00164038 4.01404e-07
-4.54484e-05 4.01404e-07 0.00163023
0.000716714 1.50914e-05 7.48659e-06
1.50914e-05 -8.49868e-05 -2.44828e-06
7.48659e-06 -2.44828e-06 -0.000126477
0.00390519 8.14376e-05 3.94098e-07
8.14376e-05 0.00161821 1.4624e-07
3.94098e-07 1.4624e-07 0.00160781
0.00388564 7.67025e-05 4.4233e-05
7.67025e-05 0.00160882 -1.13387e-06
4.4233e-05 -1.13387e-06 0.00159876
0.00142397 -6.03185e-06 -2.62336e-06
-6.03185e-06 6.53528e-05 -5.82939e-07
-2.62336e-06 -5.82939e-07 -1.27323e-05
0.00155237 -9.80743e-06 2.24869e-07
-9.80743e-06 0.000100531 1.47859e-07
2.24869e-07 1.47859e-07 2.11817e-05
0.00144937 -1.42043e-05 1.35729e-06
-1.42043e-05 3.4871e-05 4.08708e-07
1.35729e-06 4.08708e-07 -4.42895e-05
0.00115747 -2.05927e-06 -5.0243e-06
-2.05927e-06 -3.49432e-06 -1.20048e-06
-5.0243e-06 -1.20048e-06 -7.10842e-05
0.00138535 -9.04617e-07 1.28608e-07
-9.04617e-07 4.71668e-05 -9.37797e-08
1.28608e-07 -9.37797e-08 -3.00372e-05
0.00150235 -2.12095e-06 1.33183e-06
-2.12095e-06 7.01478e-05 -5.34187e-07
1.33183e-06 -5.34187e-07 -8.76434e-06
0.000718616 1.62369e-05 -8.745e-06
1.62369e-05 -8.69646e-05 -3.07579e-06
-8.745e-06 -3.07579e-06 -0.000128879
0.00116915 1.86947e-05 -1.07335e-07
1.86947e-05 1.00857e-05 1.38442e-07
-1.07335e-07 1.38442e-07 -5.79186e-05
0.00140982 2.17173e-05 2.83935e-06
2.17173e-05 6.28614e-05 1.94293e-07
2.83935e-06 1.94293e-07 -1.54105e-05
0.00395868 -6.62432e-05 -4.57073e-05
-6.62432e-05 0.00164509 -2.03922e-06
-4.57073e-05 -2.03922e-06 0.001635
0.000719856 2.59707e-05 5.25457e-08
2.59707e-05 -7.63406e-05 1.57228e-07
5.25457e-08 1.57228e-07 -0.000119709
0.00119494 3.76882e-05 3.60363e-06
3.76882e-05 3.7926e-05 1.21654e-06
3.60363e-06 1.21654e-06 -3.1e-05
0.00368294 -6.54798e-05 -9.22014e-07
-6.54798e-05 0.00150846 1.98296e-07
-9.22014e-07 1.98296e-07 0.00149903
0.000691268 2.42238e-05 7.15066e-06
2.42238e-05 -7.47625e-05 3.79183e-06
7.15066e-06 3.79183e-06 -0.000119052
0.00327157 -7.07908e-05 3.15487e-05
-7.07908e-05 0.00129991 2.76033e-06
3.15487e-05 2.76033e-06 0.00129237
0.00120453 -2.39794e-06 -5.48776e-06
-2.39794e-06 6.01574e-06 -6.17295e-07
-5.48776e-06 -6.17295e-07 -6.40162e-05
0.00144685 -4.01595e-07 5.90555e-07
-4.01595e-07 6.87853e-05 -8.78395e-08
5.90555e-07 -8.78395e-08 -1.15707e-05
0.00157409 -6.03228e-06 2.07677e-06
-6.03228e-06 0.000108789 9.16585e-07
2.07677e-06 9.16585e-07 2.62426e-05
0.000720489 9.32809e-06 -8.82242e-06
9.32809e-06 -0.00010419 4.23908e-07
-8.82242e-06 4.23908e-07 -0.000147094
0.000949646 -2.71613e-06 -8.62083e-07
-2.71613e-06 -0.000124302 3.07779e-07
-8.62083e-07 3.07779e-07 -0.000196599
0.00159016 1.48314e-05 3.87033e-06
1.48314e-05 0.000140077 -3.94576e-07
3.87033e-06 -3.94576e-07 5.86817e-05
0.000927278 1.23607e-05 4.0178e-06
1.23607e-05 -0.000122345 -5.39883e-07
4.0178e-06 -5.39883e-07 -0.000192555
0.000730313 1.23429e-05 1.76599e-07
1.23429e-05 -9.2344e-05 1.67005e-07
1.76599e-07 1.67005e-07 -0.000135353
0.00409979 7.76415e-05 -4.80469e-05
7.76415e-05 0.00170892 -1.19566e-07
-4.80469e-05 -1.19566e-07 0.00169905
0.00072986 2.12464e-05 7.96532e-06
2.12464e-05 -8.37098e-05 -2.06296e-06
7.96532e-06 -2.06296e-06 -0.000126246
0.00401324 8.03882e-05 3.72662e-07
8.03882e-05 0.0016693 1.60086e-07
3.72662e-07 1.60086e-07 0.00165908
0.0039492 8.02599e-05 4.68331e-05
8.02599e-05 0.00163959 -6.34426e-07
4.68331e-05 -6.34426e-07 0.00162934
0.00118422 -7.25653e-06 -5.36507e-06
-7.25653e-06 3.29778e-06 -1.26782e-06
-5.36507e-06 -1.26782e-06 -6.52873e-05
0.00137083 -7.39463e-06 -6.45789e-08
-7.39463e-06 3.74253e-05 -7.6706e-08
-6.45789e-08 -7.6706e-08 -4.10073e-05
0.00145612 -1.09193e-05 1.58419e-06
-1.09193e-05 5.14738e-05 2.62297e-07
1.58419e-06 2.62297e-07 -2.7956e-05
0.00205756 -7.48824e-06 -2.69564e-05
-7.48824e-06 0.000584188 -1.93926e-06
-2.69564e-05 -1.93926e-06 0.000549684
0.00117781 -2.55909e-06 1.10756e-07
-2.55909e-06 6.64047e-06 3.33334e-08
1.10756e-07 3.33334e-08 -6.10863e-05
0.00141333 -1.37408e-06 2.68922e-06
-1.37408e-06 6.04627e-05 2.88705e-08
2.68922e-06 2.88705e-08 -1.67846e-05
0.00403291 -6.61877e-05 -4.77369e-05
-6.61877e-05 0.00167932 -1.47523e-06
-4.77369e-05 -1.47523e-06 0.00166969
0.000719865 1.67545e-05 -1.70247e-08
1.67545e-05 -8.62007e-05 1.25335e-07
-1.70247e-08 1.25335e-07 -0.00012816
0.00118592 1.77851e-05 5.19019e-06
1.77851e-05 1.86852e-05 1.43737e-06
5.19019e-06 1.43737e-06 -4.94468e-05
0.00387182 -6.44905e-05 -1.85807e-07
-6.44905e-05 0.00160203 1.7964e-07
-1.85807e-07 1.7964e-07 0.00159217
0.000700227 2.51345e-05 8.05162e-06
2.51345e-05 -8.47666e-05 3.59742e-06
8.05162e-06 3.59742e-06 -0.0001282
0.00357089 -7.06958e-05 3.75209e-05
-7.06958e-05 0.00145326 2.57082e-06
3.75209e-05 2.57082e-06 0.00144377
0.000765594 4.50643e-06 -1.16657e-05
4.50643e-06 -8.18421e-05 -1.07582e-06
-1.16657e-05 -1.07582e-06 -0.000125154
0.0010748 -5.04474e-06 1.1547e-07
-5.04474e-06 -5.98871e-05 2.61027e-07
1.1547e-07 2.61027e-07 -0.000130701
0.0013221 -5.03193e-06 3.57542e-06
-5.03193e-06 4.88224e-06 5.35598e-07
3.57542e-06 5.35598e-07 -7.66299e-05
0.00423351 -4.9997e-06 -4.84234e-05
-4.9997e-06 0.00177048 -6.6526e-07
-4.84234e-05 -6.6526e-07 0.00176175
0.000734167 7.0408e-06 9.13903e-08
7.0408e-06 -9.73856e-05 1.70662e-07
9.13903e-08 1.70662e-07 -0.000140529
0.000953747 4.5395e-06 4.44319e-06
4.5395e-06 -0.000121956 -7.63431e-08
4.44319e-06 -7.63431e-08 -0.000193997
0.000738084 1.87402e-05 8.53829e-06
1.87402e-05 -8.79339e-05 -1.2086e-06
8.53829e-06 -1.2086e-06 -0.000131384
0.0041579 8.08408e-05 1.7472e-06
8.08408e-05 0.00173738 2.44976e-07
1.7472e-06 2.44976e-07 0.00172727
0.00407262 8.37524e-05 5.06889e-05
8.37524e-05 0.00169837 -1.16951e-07
5.06889e-05 -1.16951e-07 0.00168785
0.00212836 -2.14582e-05 -3.0819e-05
-2.14582e-05 0.000612856 -1.75801e-06
-3.0819e-05 -1.75801e-06 0.000577327
0.00119246 -5.92772e-06 -5.37847e-08
-5.92772e-06 7.20659e-06 1.67276e-08
-5.37847e-08 1.67276e-08 -6.13083e-05
0.0013171 -8.60933e-06 2.59549e-06
-8.60933e-06 9.20305e-06 4.37893e-07
2.59549e-06 4.37893e-07 -6.95716e-05
0.00396819 -8.29843e-05 -1.24037e-05
-8.29843e-05 0.00164946 -6.01941e-07
-1.24037e-05 -6.01941e-07 0.00163818
0.000727212 2.52256e-06 -3.5609e-08
2.52256e-06 -8.82256e-05 5.12779e-08
-3.5609e-08 5.12779e-08 -0.000129817
0.00120007 -1.74847e-06 5.20923e-06
-1.74847e-06 1.75617e-05 1.20457e-06
5.20923e-06 1.20457e-06 -5.02351e-05
0.00397013 -6.42649e-05 6.23532e-07
-6.42649e-05 0.0016486 1.57502e-07
6.23532e-07 1.57502e-07 0.001639
0.000715347 1.7764e-05 8.71724e-06
1.7764e-05 -8.82855e-05 3.25692e-06
8.71724e-06 3.25692e-06 -0.000130266
0.00377822 -7.0004e-05 4.11872e-05
-7.0004e-05 0.00155678 2.26531e-06
4.11872e-05 2.26531e-06 0.00154656
0.00153394 -8.31167e-06 -5.06504e-05
-8.31167e-06 0.000399786 -2.64819e-07
-5.06504e-05 -2.64819e-07 0.000378996
0.00144354 -2.2898e-06 -1.15584e-05
-2.2898e-06 0.000261684 3.37442e-07
-1.15584e-05 3.37442e-07 0.000222502
0.00095645 -3.84986e-06 5.5224e-06
-3.84986e-06 -0.000120134 9.24931e-07
5.5224e-06 9.24931e-07 -0.000191696
0.0042391 2.90338e-06 2.01363e-06
2.90338e-06 0.00177483 -3.99239e-07
2.01363e-06 -3.99239e-07 0.00176522
0.000739631 5.2919e-06 9.09302e-06
5.2919e-06 -9.45148e-05 -8.14996e-08
9.09302e-06 -8.14996e-08 -0.000137724
0.00421065 7.60239e-05 5.28352e-05
7.60239e-05 0.00176253 4.50497e-07
5.28352e-05 4.50497e-07 0.00175271
0.00141153 -3.46715e-05 -7.96024e-06
-3.46715e-05 0.000346938 -9.7901e-07
-7.96024e-06 -9.7901e-07 0.000323984
0.00143342 -3.98501e-06 -1.08912e-05
-3.98501e-06 0.000262167 1.75743e-07
-1.08912e-05 1.75743e-07 0.000223572
0.00119993 -7.1204e-06 5.14056e-06
-7.1204e-06 1.08288e-05 1.21936e-06
5.14056e-06 1.21936e-06 -5.76842e-05
0.00269577 -4.82555e-05 2.04434e-05
-4.82555e-05 0.00100079 -3.61576e-08
2.04434e-05 -3.61576e-08 0.00098486
0.000738181 7.82055e-06 9.00788e-06
7.82055e-06 -8.37204e-05 2.79513e-06
9.00788e-06 2.79513e-06 -0.00012522
0.00391662 -5.9589e-05 4.55202e-05
-5.9589e-05 0.001622 1.78033e-06
4.55202e-05 1.78033e-06 0.00161273
0.00425542 -6.13967e-05 -1.45845e-06
-6.13967e-05 0.00178081 2.42346e-07
-1.45845e-06 2.42346e-07 0.00177215
0.000737691 1.9463e-06 9.18305e-06
1.9463e-06 -9.55822e-05 1.23973e-06
9.18305e-06 1.23973e-06 -0.000138384
0.00426327 3.077e-05 5.2355e-05
3.077e-05 0.00178642 -5.50237e-07
5.2355e-05 -5.50237e-07 0.00177662
0.00279 -5.07456e-05 2.08769e-05
-5.07456e-05 0.00104315 -1.0319e-07
2.08769e-05 -1.0319e-07 0.00102699
0.000749923 2.33469e-06 8.9889e-06
2.33469e-06 -8.36562e-05 2.2116e-06
8.9889e-06 2.2116e-06 -0.000125799
0.00400525 -5.84648e-05 4.76999e-05
-5.84648e-05 0.00166307 1.24241e-06
4.76999e-05 1.24241e-06 0.00165422
0.00420903 -7.79507e-05 4.91873e-05
-7.79507e-05 0.00176016 3.32063e-08
4.91873e-05 3.32063e-08 0.00175021
0.00411111 -6.07542e-05 4.91183e-05
-6.07542e-05 0.00171261 6.54264e-07
4.91183e-05 6.54264e-07 0.00170383
