# vtk DataFile Version 2.0
Wound Healing Simulation
ASCII
DATASET UNSTRUCTURED_GRID
POINTS 3012 float
69.9759 18.75 4
67.2507 60.3285 4
69.976 18.75 2
73.0099 25.446 4
71.1327 20.9142 4
68.6801 16.6661 4
67.8232 19.9266 3.97697
67.2507 60.3286 2
71.1327 54.0858 4
68.6801 58.3339 4
65.6939 62.2254 4
65.31 59.0001 3.97636
74.6784 42.3946 4
73.7221 47.2057 4
69.9759 18.75 0
73.0099 25.446 2
68.6801 16.6661 2
71.1327 20.9142 2
67.8237 19.9301 2
74.6792 32.6053 4
73.7222 27.7943 4
72.1454 23.1494 4
70.6124 26.2215 3.97691
68.8835 21.9583 3.97746
67.2507 14.6715 4
66.6346 17.973 3.9759
65.7906 21.0287 3.96585
67.2507 60.3285 0
71.1327 54.0858 2
68.6801 58.3339 2
65.694 62.2255 2
65.3112 58.9953 2
72.1454 51.8506 4
69.9759 56.25 4
68.834 53.1131 3.97664
64.0165 64.0165 4
66.6084 57.1329 3.97664
63.8831 60.7639 3.97631
63.4946 57.7654 3.96718
60.3285 67.2507 4
74.6792 42.3947 2
73.7222 47.2057 2
74.9194 39.9526 4
74.2788 44.8158 4
72.1669 42.0858 3.9776
73.0099 49.554 4
71.2475 46.598 3.97646
73.0099 25.446 0
71.1327 20.9142 0
68.6801 16.6661 0
67.8232 19.9266 0.0230268
74.6792 32.6053 2
73.7222 27.7943 2
67.2508 14.6715 2
72.1455 23.1494 2
70.6121 26.222 2
66.6355 17.9776 2
68.8837 21.9605 2
65.7897 21.0298 2
74.9197 35.0474 4
74.2794 30.1841 4
72.1836 32.9441 3.97785
71.2766 28.4321 3.97681
69.8136 24.0599 3.97729
68.3416 26.954 3.96591
66.7564 22.9359 3.96565
65.694 12.7746 4
65.3209 16.1053 3.97508
64.7069 19.2002 3.96625
63.8276 22.0588 3.96469
71.1327 54.0858 0
65.6939 62.2254 0
68.6801 58.3339 0
65.31 59.0001 0.0236435
72.1455 51.8506 2
69.9759 56.25 2
68.8341 53.111 2
64.0165 64.0165 2
66.6092 57.1287 2
63.8848 60.7592 2
63.4933 57.7649 2
62.2254 65.694 4
58.8927 65.4131 3.98569
69.7667 50.989 3.9764
67.7814 55.167 3.97684
66.6429 52.2074 3.96548
62.3333 62.4246 3.97855
64.6542 56.0276 3.96667
62.197 59.3935 3.96725
61.7956 56.6629 3.96278
58.3339 68.6801 4
60.3285 67.2508 2
73.7221 47.2057 0
74.6784 42.3946 0
74.9197 39.9526 2
74.2794 44.8159 2
72.1662 42.0854 2
73.0099 49.554 2
71.2472 46.5976 2
75 37.5 4
72.4042 39.8026 3.97846
71.781 44.353 3.97728
69.7998 41.7901 3.96744
70.5731 48.8135 3.97622
68.9068 46.0143 3.9663
74.6792 32.6053 0
73.7222 27.7943 0
67.2507 14.6715 0
72.1454 23.1494 0
70.6124 26.2215 0.0230946
68.8835 21.9583 0.022544
66.6346 17.973 0.0241039
65.7906 21.0287 0.0341523
74.9197 35.0474 2
74.2794 30.1841 2
72.1829 32.9444 2
71.2763 28.4326 2
65.694 12.7745 2
65.3224 16.1106 2
69.8135 24.0611 2
68.3413 26.9548 2
64.7057 19.2011 2
66.7558 22.937 2
63.8277 22.0592 2
72.4121 35.2248 3.97847
71.8025 30.6771 3.97754
69.836 33.2707 3.96743
68.9613 29.0407 3.96631
67.6056 24.9145 3.96563
66.1216 27.6533 3.96763
64.0165 10.9835 4
64.6897 23.8523 3.96582
63.8868 14.33 3.97579
63.5062 17.4559 3.96678
62.8536 20.3457 3.96331
61.96 22.9928 3.96774
60.6817 11.1009 3.98005
57.6074 11.4662 3.97096
72.1454 51.8506 0
69.9759 56.25 0
68.834 53.1131 0.023364
64.0165 64.0165 0
63.8831 60.7639 0.0236915
66.6084 57.1329 0.0233628
63.4946 57.7654 0.0328153
62.2255 65.694 2
58.895 65.4103 2
69.7665 50.9878 2
67.7818 55.1638 2
66.6422 52.2065 2
62.3355 62.4207 2
64.6531 56.0269 2
62.1955 59.3935 2
61.7972 56.6635 2
60.6666 63.9742 3.98178
57.0236 66.7343 3.98798
57.5549 63.6827 3.97296
67.5012 50.1754 3.96537
65.6954 54.1708 3.96597
64.46 51.3633 3.96553
60.7681 60.9209 3.96942
62.7754 55.0487 3.96392
60.6427 58.1392 3.96187
60.2617 55.7502 3.96445
56.25 69.9759 4
58.3339 68.6801 2
60.3285 67.2507 0
58.9189 9.65849 3.98193
62.2254 9.30607 4
73.0099 49.554 0
74.2788 44.8158 0
71.2475 46.598 0.0235438
72.1669 42.0858 0.0224031
74.9194 39.9526 0
75 37.5 2
72.4041 39.8025 2
71.7808 44.3524 2
69.799 41.7897 2
70.5728 48.813 2
68.9066 46.0136 2
72.4876 37.5126 3.97803
70.0373 39.6583 3.96776
69.4256 43.9074 3.96693
67.5246 41.4916 3.97008
68.26 48.1061 3.96573
66.6244 45.4253 3.96911
74.9197 35.0474 0
74.2794 30.1841 0
72.1836 32.9441 0.0221513
71.2766 28.4321 0.0231925
65.694 12.7746 0
65.3209 16.1053 0.0249182
69.8136 24.0599 0.0227146
68.3416 26.954 0.0340871
66.7564 22.9359 0.0343545
64.7069 19.2002 0.0337479
63.8276 22.0588 0.0353149
72.412 35.2248 2
71.8024 30.6777 2
69.8352 33.2712 2
68.9611 29.0414 2
64.0165 10.9835 2
63.889 14.3353 2
63.5048 17.4568 2
67.6051 24.9154 2
66.1214 27.6539 2
62.854 20.3459 2
64.6893 23.8529 2
61.9589 22.9935 2
60.6843 11.1053 2
57.6089 11.4593 2
70.0541 35.3938 3.96772
69.4627 31.152 3.96673
67.5918 33.5998 3.96975
66.6997 29.6388 3.96839
65.452 25.7201 3.96662
63.9739 28.2952 3.97341
62.3387 12.6587 3.97795
62.7087 24.6846 3.96969
62.1926 15.7995 3.96816
61.7751 18.7112 3.96237
61.0962 21.3941 3.96529
60.2198 23.8018 3.97137
59.2408 12.8073 3.96884
55.8705 10.2446 3.97343
56.3961 13.1627 3.96815
69.7667 50.989 0.0235973
62.2254 65.694 0
58.8927 65.4131 0.0143078
67.7814 55.167 0.0231638
66.6429 52.2074 0.034524
62.3333 62.4246 0.0214518
62.197 59.3935 0.03275
64.6542 56.0276 0.0333255
61.7956 56.6629 0.0372211
60.6687 63.9714 2
57.0257 66.7329 2
57.5556 63.6838 2
67.5007 50.1745 2
65.6944 54.1699 2
64.4601 51.363 2
60.7671 60.9225 2
62.7758 55.0489 2
60.644 58.1401 2
60.2616 55.7502 2
55.0695 67.9314 3.98969
59.2142 62.3433 3.97061
55.8021 64.9027 3.97792
56.3189 62.0558 3.97075
65.2447 49.3872 3.96667
63.6414 53.271 3.96455
62.2703 50.6054 3.96854
59.3219 59.5327 3.96559
60.972 54.2687 3.96627
59.2348 56.9739 3.96264
59.1399 55.1348 3.96705
48.1005 68.5758 3.98557
50.9472 69.9314 3.99069
54.0858 71.1327 4
56.25 69.976 2
58.3339 68.6801 0
57.0563 8.3382 3.98416
60.3285 7.74928 4
58.922 9.66247 2
62.2255 9.30602 2
70.5731 48.8135 0.0237793
71.781 44.353 0.0227222
68.9068 46.0143 0.0336994
69.7998 41.7901 0.0325642
72.4042 39.8026 0.0215401
75 37.5 0
72.487 37.5125 2
70.0371 39.6582 2
69.4253 43.9069 2
67.5239 41.4914 2
68.2597 48.1054 2
66.623 45.4248 2
70.1254 37.523 3.96775
67.7679 39.5103 3.97046
67.1441 43.4598 3.96971
65.3782 41.1945 3.97703
65.9786 47.3995 3.96794
64.453 44.8162 3.97432
72.4121 35.2248 0.0215258
71.8025 30.6771 0.0224617
69.836 33.2707 0.032566
68.9613 29.0407 0.0336852
64.0165 10.9835 0
63.8868 14.33 0.0242125
63.5062 17.4559 0.0332209
67.6056 24.9145 0.0343694
66.1216 27.6533 0.032373
64.6897 23.8523 0.0341806
62.8536 20.3457 0.0366862
61.96 22.9928 0.0322619
60.6817 11.1009 0.0199508
57.6074 11.4662 0.0290371
70.0539 35.3941 2
69.4624 31.1525 2
67.5911 33.6001 2
66.699 29.6393 2
62.3413 12.6635 2
62.1909 15.8 2
61.776 18.7111 2
65.4518 25.7207 2
63.9715 28.296 2
61.0944 21.3949 2
62.7072 24.6855 2
60.2189 23.8028 2
59.2416 12.8075 2
56.3973 13.1601 2
55.8724 10.2453 2
67.8085 35.5529 3.9702
67.1994 31.6348 3.9692
65.5344 33.9442 3.97669
64.4899 30.2252 3.97494
63.3784 26.4583 3.97173
61.9946 28.8394 3.97623
60.7695 14.245 3.96862
60.8178 25.4093 3.9739
60.5921 17.1558 3.96228
60.1141 19.8719 3.96247
59.4649 22.3374 3.96742
58.7119 24.4165 3.97414
54.0347 9.14531 3.9761
57.8989 14.3726 3.96759
54.7787 12.0496 3.97099
55.296 14.7069 3.96553
67.5012 50.1754 0.0346281
57.0236 66.7343 0.0120208
60.6666 63.9742 0.0182211
57.5549 63.6827 0.0270425
65.6954 54.1708 0.0340304
64.46 51.3633 0.0344654
60.7681 60.9209 0.03058
60.6427 58.1392 0.0381254
62.7754 55.0487 0.0360819
60.2617 55.7502 0.035553
55.0711 67.9305 2
59.2146 62.3446 2
55.8024 64.9033 2
56.3176 62.0571 2
65.2444 49.3867 2
63.6416 53.2709 2
62.2697 50.6049 2
59.3208 59.5338 2
60.9719 54.2685 2
59.2383 56.9745 2
59.142 55.1348 2
53.0415 68.9994 3.99043
53.9648 66.0077 3.9811
57.8702 60.8387 3.96881
54.6783 63.1922 3.97303
55.1968 60.5721 3.96761
63.0076 48.617 3.97048
61.5996 52.5303 3.96732
60.0124 49.949 3.97083
57.9918 58.2288 3.96326
59.1743 53.8898 3.96823
58.0032 55.7548 3.96282
50.1072 67.8538 3.98474
47.4617 66.574 3.98101
46.0543 69.155 3.98623
48.1006 68.5763 2
48.8011 70.7226 3.99102
50.9484 69.9309 2
51.8506 72.1454 4
54.0858 71.1327 2
56.25 69.9759 0
55.1013 7.14201 3.98733
58.3339 6.31992 4
57.0594 8.34027 2
60.3286 7.74926 2
58.9189 9.65849 0.01807
62.2254 9.30607 0
68.26 48.1061 0.0342719
69.4256 43.9074 0.0330702
66.6244 45.4253 0.0308861
67.5246 41.4916 0.0299168
70.0373 39.6583 0.0322396
72.4876 37.5126 0.02197
70.1247 37.523 2
67.7667 39.5102 2
67.1441 43.4594 2
65.3751 41.1938 2
65.9785 47.3991 2
64.4508 44.8154 2
67.8691 37.5238 3.97049
65.6154 39.3634 3.97716
64.9938 43.0017 3.97619
63.4833 40.9058 3.97708
63.7641 46.677 3.97224
62.513 44.1659 3.97643
70.0541 35.3938 0.0322842
69.4627 31.152 0.0332673
67.5918 33.5998 0.0302502
66.6997 29.6388 0.0316054
62.3387 12.6587 0.0220494
62.1926 15.7995 0.031838
61.7751 18.7112 0.0376305
65.452 25.7201 0.0333818
63.9739 28.2952 0.0265873
62.7087 24.6846 0.0303072
61.0962 21.3941 0.0347123
60.2198 23.8018 0.0286346
59.2408 12.8073 0.0311605
56.3961 13.1627 0.031852
55.8705 10.2446 0.0265729
67.8071 35.553 2
67.1995 31.6351 2
65.5309 33.9448 2
64.4876 30.226 2
60.7693 14.2455 2
60.5916 17.1557 2
60.1126 19.8725 2
63.3766 26.4591 2
61.9921 28.8405 2
59.466 22.3381 2
60.816 25.4103 2
58.7108 24.4179 2
57.898 14.3724 2
55.2964 14.7057 2
54.0366 9.14461 2
54.7794 12.0478 2
65.7138 35.6763 3.97702
65.0136 32.1796 3.97596
64.0451 34.2731 3.9769
62.3144 30.6891 3.97624
61.4015 27.1399 3.97517
60.5276 29.2188 3.97637
59.2973 15.7013 3.96459
59.0305 25.8932 3.97619
59.0586 18.4076 3.96158
58.5692 20.9352 3.9635
58.0283 23.1941 3.96897
57.674 24.7759 3.97506
52.1103 8.16054 3.97934
53.0518 11.0423 3.97223
56.6575 15.7944 3.96532
53.7954 13.738 3.96788
54.3457 16.0678 3.96244
55.0695 67.9314 0.0103139
65.2447 49.3872 0.0333334
55.8021 64.9027 0.0220844
59.2142 62.3433 0.0293894
56.3189 62.0558 0.0292537
63.6414 53.271 0.0354476
62.2703 50.6054 0.031463
59.3219 59.5327 0.0344135
59.2348 56.9739 0.0373599
60.972 54.2687 0.0337301
59.1399 55.1348 0.0329545
53.0429 68.9989 2
53.9651 66.0083 2
57.8686 60.8396 2
54.6777 63.1934 2
55.1953 60.5726 2
63.0064 48.6163 2
61.5995 52.53 2
60.0128 49.9484 2
57.9908 58.2299 2
59.177 53.8897 2
58 55.7533 2
52.0684 66.9962 3.98368
52.9503 64.2075 3.97781
56.6298 59.4523 3.96938
53.6693 61.5884 3.97305
54.2357 59.2758 3.97592
60.6924 47.8113 3.97238
59.4919 52.0381 3.96896
57.6921 49.5248 3.97279
56.7175 56.9393 3.964
56.9302 54.047 3.96624
50.1073 67.854 2
49.3355 65.9141 3.98101
47.4618 66.5742 2
46.8903 64.7251 3.97967
45.5569 67.0912 3.98137
43.9717 69.5869 3.98688
46.0545 69.1553 2
46.6076 71.3671 3.99125
48.1005 68.5758 0.0144348
48.8023 70.7225 2
49.554 73.0099 4
50.9472 69.9314 0.00930806
51.8506 72.1455 2
54.0858 71.1327 0
53.0635 6.07299 3.98988
55.1039 7.1431 2
56.25 5.02411 4
58.3339 6.3199 2
57.0563 8.3382 0.0158351
60.3285 7.74928 0
65.9786 47.3995 0.0320631
67.1441 43.4598 0.0302886
64.453 44.8162 0.0256799
65.3782 41.1945 0.0229653
67.7679 39.5103 0.0295438
70.1254 37.523 0.0322475
67.8684 37.5238 2
65.6121 39.3631 2
64.9907 43.0008 2
63.4812 40.9055 2
63.7622 46.6762 2
62.5109 44.165 2
65.7237 37.5034 3.97706
63.6331 39.2566 3.97698
63.0415 42.5132 3.97655
62.091 40.668 3.97669
61.6599 45.8585 3.97466
61.0793 43.6219 3.97633
67.8085 35.5529 0.0298019
67.1994 31.6348 0.030798
65.5344 33.9442 0.0233073
64.4899 30.2252 0.025064
60.7695 14.245 0.0313757
60.5921 17.1558 0.0377221
60.1141 19.8719 0.0375265
63.3784 26.4583 0.0282702
61.9946 28.8394 0.0237747
60.8178 25.4093 0.0260988
59.4649 22.3374 0.0325834
58.7119 24.4165 0.0258608
57.8989 14.3726 0.0324119
55.296 14.7069 0.0344655
54.0347 9.14531 0.0238953
54.7787 12.0496 0.0290126
65.7104 35.6768 2
65.0107 32.1803 2
64.0426 34.2737 2
62.3122 30.6896 2
59.2958 15.7017 2
59.0602 18.4071 2
58.5715 20.9358 2
61.3998 27.1409 2
60.5264 29.2192 2
58.0231 23.1964 2
59.0294 25.8946 2
57.6763 24.7781 2
56.6555 15.794 2
54.3477 16.0685 2
53.7945 13.7309 2
52.1118 8.15988 2
53.053 11.0398 2
63.8403 35.646 3.97686
62.6367 33.0849 3.97646
60.2488 30.6869 3.97613
59.2324 28.0063 3.97635
57.9097 17.0325 3.96101
57.3986 25.8467 3.9761
57.5918 19.5536 3.96091
57.135 21.9474 3.96368
56.8671 24.0711 3.9699
50.1112 7.28984 3.98386
51.2284 10.1391 3.97469
52.1595 12.8379 3.97324
55.5026 17.0379 3.96186
52.9538 15.333 3.96689
53.7183 17.0614 3.96333
53.0415 68.9994 0.00957422
53.9648 66.0077 0.0189006
63.0076 48.617 0.029518
54.6783 63.1922 0.0269692
57.8702 60.8387 0.0311903
55.1968 60.5721 0.0323949
61.5996 52.5303 0.0326828
60.0124 49.949 0.0291744
57.9918 58.2288 0.0367392
58.0032 55.7548 0.0371833
59.1743 53.8898 0.031766
52.0687 66.9967 2
52.95 64.2079 2
56.6285 59.4532 2
53.6677 61.5896 2
54.2338 59.277 2
60.6918 47.8105 2
59.4926 52.0375 2
57.689 49.5234 2
56.7147 56.9428 2
56.927 54.0453 2
51.1661 65.1197 3.97978
52.0381 62.5227 3.97494
55.4455 58.2082 3.96584
52.8131 60.0804 3.9736
53.6043 58.4256 3.96843
57.888 46.7496 3.9756
57.2915 51.7005 3.96931
55.8507 49.4456 3.97166
55.3716 55.7295 3.96494
55.1268 53.2979 3.96333
50.1072 67.8538 0.0152583
49.3355 65.9141 2
48.6153 64.1119 3.97969
47.4617 66.574 0.0189861
45.5569 67.0917 2
46.8907 64.725 2
46.3778 63.0392 3.98239
45.1312 65.1859 3.97923
43.6302 67.4625 3.98251
41.8594 69.8739 3.98649
43.9718 69.5874 2
44.3748 71.8617 3.99142
46.0543 69.155 0.0137723
46.6085 71.367 2
47.2057 73.7222 4
48.8011 70.7226 0.00897976
49.554 73.0099 2
51.8506 72.1454 0
50.9542 5.13339 3.99114
53.0654 6.07351 2
54.0858 3.86728 4
55.1013 7.14201 0.0126723
56.25 5.02406 2
58.3339 6.31992 0
63.7641 46.677 0.0277631
64.9938 43.0017 0.0238103
62.513 44.1659 0.0235664
63.4833 40.9058 0.0229153
65.6154 39.3634 0.0228361
67.8691 37.5238 0.0295057
65.7203 37.5037 2
63.6313 39.2565 2
63.0397 42.5127 2
62.0907 40.6676 2
61.6581 45.8576 2
61.078 43.6215 2
63.6964 37.4581 3.97688
61.8034 39.3379 3.97688
60.8239 41.9094 3.9767
59.8512 44.6898 3.9767
65.7138 35.6763 0.0229778
65.0136 32.1796 0.0240426
64.0451 34.2731 0.0231043
62.3144 30.6891 0.023764
59.2973 15.7013 0.035411
59.0586 18.4076 0.0384232
58.5692 20.9352 0.0364989
61.4015 27.1399 0.0248274
60.5276 29.2188 0.0236294
59.0305 25.8932 0.0238132
58.0283 23.1941 0.0310291
57.674 24.7759 0.0249418
56.6575 15.7944 0.0346757
54.3457 16.0678 0.0375558
53.7954 13.738 0.0321201
52.1103 8.16054 0.0206595
53.0518 11.0423 0.0277682
63.8384 35.6461 2
62.6357 33.0854 2
60.2486 30.6869 2
57.9073 17.0324 2
57.5992 19.5515 2
57.1312 21.9497 2
59.2309 28.0072 2
56.8764 24.073 2
57.3986 25.8496 2
50.1125 7.28819 2
55.5022 17.0382 2
53.7192 17.0567 2
52.9538 15.3293 2
52.1606 12.8419 2
51.23 10.1375 2
61.8445 35.3797 3.97655
59.8734 32.8039 3.97632
58.1865 30.1729 3.97615
56.8886 27.5128 3.97676
56.5728 18.225 3.96156
55.9303 25.2443 3.9753
56.1906 20.6224 3.96084
55.8158 23.0003 3.96332
48.0563 6.52993 3.98782
49.3225 9.34198 3.97852
50.4244 12.0236 3.97471
51.3565 14.5524 3.96731
54.3567 18.0027 3.96019
52.325 17.132 3.95822
52.0684 66.9962 0.016315
52.9503 64.2075 0.0221897
60.6924 47.8113 0.0276236
53.6693 61.5884 0.0269482
56.6298 59.4523 0.0306164
54.2357 59.2758 0.0240751
59.4919 52.0381 0.0310398
57.6921 49.5248 0.0272102
56.7175 56.9393 0.0360044
56.9302 54.047 0.0337635
51.166 65.1202 2
52.0369 62.524 2
55.4445 58.2091 2
52.8116 60.0839 2
53.6032 58.4275 2
57.887 46.7486 2
57.2893 51.6992 2
55.8447 49.4439 2
55.3699 55.7292 2
55.1288 53.2981 2
50.342 63.3689 3.98023
51.2288 60.9008 3.97449
54.1645 57.2188 3.96791
52.2732 58.5781 3.97086
56.1389 44.0602 3.97689
55.0186 47.7732 3.97433
54.7301 51.2855 3.96566
53.8513 54.4708 3.96565
49.3355 65.9141 0.0189909
48.6155 64.1115 2
47.9554 62.4606 3.98016
45.5569 67.0912 0.0186259
46.8903 64.7251 0.020329
43.6302 67.463 2
46.3778 63.0392 2
45.1315 65.1862 2
45.9813 61.5696 3.98813
44.7644 63.4378 3.97849
43.3561 65.4964 3.97948
41.6625 67.6807 3.98205
39.7017 70.0196 3.98608
41.8595 69.8744 2
42.1092 72.2062 3.99178
43.9717 69.5869 0.0131158
44.3756 71.8617 2
44.8159 74.2794 4
46.6076 71.3671 0.00874565
47.2057 73.7222 2
49.554 73.0099 0
48.7854 4.3237 3.99215
50.9555 5.13311 2
51.8506 2.85458 4
53.0635 6.07299 0.0101173
54.0858 3.86728 2
56.25 5.02411 0
61.6599 45.8585 0.0253372
63.0415 42.5132 0.0234473
61.0793 43.6219 0.0236721
62.091 40.668 0.0233091
63.6331 39.2566 0.0230217
65.7237 37.5034 0.0229426
63.6947 37.458 2
61.8036 39.338 2
60.8244 41.9091 2
59.8508 44.689 2
61.634 37.444 3.97694
59.7917 39.8142 3.97689
58.4875 42.8402 3.97637
63.8403 35.646 0.0231449
62.6367 33.0849 0.0235357
60.2488 30.6869 0.0238698
57.9097 17.0325 0.0389929
57.5918 19.5536 0.0390907
57.135 21.9474 0.0363207
59.2324 28.0063 0.023653
57.3986 25.8467 0.0239023
56.8671 24.0711 0.030097
55.5026 17.0379 0.0381386
53.7183 17.0614 0.036673
52.9538 15.333 0.0331102
50.1112 7.28984 0.0161414
52.1595 12.8379 0.0267556
51.2284 10.1391 0.0253079
61.8447 35.3798 2
59.8733 32.8038 2
58.1872 30.1723 2
56.576 18.2242 2
56.1991 20.6182 2
55.8206 23.0046 2
56.8878 27.514 2
55.9293 25.2484 2
48.0571 6.52842 2
49.3238 9.3399 2
54.3598 18.0029 2
52.3222 17.1245 2
51.3545 14.5504 2
50.4261 12.022 2
59.4308 35.1487 3.97662
57.4694 32.3492 3.97579
56.0635 29.4697 3.97655
54.9947 26.7705 3.97587
55.2465 19.2766 3.9618
54.5937 24.2159 3.96839
54.7873 21.6866 3.95987
45.9628 5.88398 3.98894
43.3745 7.47681 3.98488
47.355 8.62932 3.98277
48.5946 11.3109 3.97432
49.6953 13.7791 3.97175
50.5991 16.1994 3.96856
53.0494 18.7652 3.95967
51.2506 18.1788 3.96916
51.1661 65.1197 0.0202171
52.0381 62.5227 0.0250591
57.888 46.7496 0.0243981
52.8131 60.0804 0.0263999
55.4455 58.2082 0.0341581
53.6043 58.4256 0.0315687
57.2915 51.7005 0.0306922
55.8507 49.4456 0.0283416
55.3716 55.7295 0.0350634
55.1268 53.2979 0.0366685
50.3416 63.3684 2
51.2269 60.8986 2
54.1642 57.2202 2
52.2713 58.5797 2
56.1395 44.0599 2
55.0163 47.772 2
54.7314 51.285 2
53.8507 54.4722 2
49.5822 61.7313 3.97721
54.91 41.646 3.97423
50.5356 59.2874 3.96965
52.1037 56.4346 3.96824
53.566 45.4149 3.97433
52.8842 49.2032 3.96946
52.4174 52.762 3.96118
48.6153 64.1119 0.02031
47.9548 62.4595 2
47.3174 60.9916 3.98678
43.6302 67.4625 0.0174888
45.1312 65.1859 0.0207694
46.3778 63.0392 0.0176111
41.6628 67.6804 2
43.3564 65.4972 2
45.9801 61.57 2
44.7647 63.4379 2
45.7535 60.6149 3.98477
44.4795 61.8143 3.9798
43.145 63.7112 3.97879
41.5457 65.6338 3.97804
39.6321 67.758 3.98151
37.5259 70.0439 3.9848
39.7017 70.02 2
39.8164 72.4026 3.99155
41.8594 69.8739 0.0135065
42.1099 72.2064 2
42.3947 74.6792 4
44.3748 71.8617 0.00857594
44.8159 74.2794 2
47.2057 73.7222 0
43.8519 5.36121 3.98823
46.5715 3.648 3.99245
48.7861 4.32321 2
49.554 1.99015 4
50.9542 5.13339 0.00886412
51.8506 2.85453 2
54.0858 3.86728 0
59.8512 44.6898 0.0233038
60.8239 41.9094 0.0233008
61.8034 39.3379 0.0231168
63.6964 37.4581 0.0231248
61.6342 37.444 2
59.7925 39.814 2
58.4881 42.8397 2
59.2846 37.5659 3.9772
57.4227 40.6033 3.97711
54.3143 39.6598 3.97513
61.8445 35.3797 0.0234539
59.8734 32.8039 0.0236784
58.1865 30.1729 0.0238526
56.5728 18.225 0.0384382
56.1906 20.6224 0.0391602
55.8158 23.0003 0.0366787
56.8886 27.5128 0.0232379
55.9303 25.2443 0.0247035
54.3567 18.0027 0.0398084
52.325 17.132 0.0417789
51.3565 14.5524 0.0326921
48.0563 6.52993 0.0121778
49.3225 9.34198 0.0214805
50.4244 12.0236 0.02529
59.4317 35.1483 2
45.963 5.88307 2
43.3745 7.47553 2
57.4704 32.3495 2
56.0634 29.4689 2
55.2373 19.2796 2
54.8041 21.6887 2
54.5884 24.219 2
54.9918 26.7726 2
47.3559 8.62605 2
48.5962 11.3086 2
53.0536 18.7519 2
51.2547 18.175 2
50.5983 16.1992 2
49.6946 13.781 2
56.8052 34.8003 3.9771
55.1415 31.6234 3.97584
53.9842 28.5744 3.9773
53.3737 25.6887 3.97537
53.8415 20.2443 3.96111
53.3291 22.874 3.95556
41.3998 7.08222 3.98436
45.3607 7.99638 3.98742
42.8665 9.42122 3.98047
46.6651 10.6629 3.98073
47.7307 13.1254 3.97568
48.9024 15.4489 3.96938
49.9531 17.7634 3.96254
51.5617 19.4596 3.96797
50.342 63.3689 0.0197695
51.2288 60.9008 0.0255109
56.1389 44.0602 0.0231064
55.0186 47.7732 0.0256735
52.2732 58.5781 0.0291444
54.1645 57.2188 0.0320938
54.7301 51.2855 0.0343376
53.8513 54.4708 0.034353
49.5807 61.7305 2
54.902 41.6425 2
50.5335 59.2872 2
52.1066 56.4376 2
53.5623 45.4131 2
52.8909 49.2022 2
52.4186 52.7623 2
48.8276 60.1844 3.97588
51.6936 42.5158 3.98318
49.7322 57.5842 3.96722
50.4347 54.3648 3.96281
51.2366 47.1227 3.97469
50.8709 50.8406 3.9548
47.3726 43.6049 3.97662
47.9554 62.4606 0.0198375
47.3157 60.9909 2
46.5986 59.7798 3.99259
41.6625 67.6807 0.0179505
43.3561 65.4964 0.0205218
44.7644 63.4378 0.0215128
45.9813 61.5696 0.0118672
39.6325 67.7587 2
41.546 65.6324 2
45.7523 60.6148 2
43.1455 63.7115 2
44.4782 61.8148 2
44.6098 60.2727 3.99369
42.9473 62.0635 3.9748
41.5999 63.8039 3.97795
39.6472 65.5982 3.97712
37.5632 67.7382 3.97946
31.6978 65.1145 3.9773
33.3925 67.4761 3.97939
35.3338 69.9542 3.98489
37.5257 70.045 2
37.5089 72.457 3.99199
39.7017 70.0196 0.0139213
39.8169 72.4028 2
39.9526 74.9197 4
42.1092 72.2062 0.00821616
42.3947 74.6792 2
44.8159 74.2794 0
41.7366 4.96981 3.98859
43.8522 5.36001 2
44.3268 3.11118 3.99277
46.5718 3.64765 2
47.2057 1.27793 4
48.7854 4.3237 0.00785067
49.554 1.99013 2
51.8506 2.85458 0
58.4875 42.8402 0.0236291
59.7917 39.8142 0.0231064
61.634 37.444 0.0230618
59.2857 37.5667 2
57.4225 40.6044 2
54.3068 39.665 2
56.1676 37.8799 3.97685
48.7217 41.2293 3.97591
52.288 39.2999 3.98378
39.4435 6.80565 3.98528
59.4308 35.1487 0.0233788
57.4694 32.3492 0.0242064
56.0635 29.4697 0.0234479
55.2465 19.2766 0.0381993
54.7873 21.6866 0.0401333
54.5937 24.2159 0.031606
54.9947 26.7705 0.0241302
53.0494 18.7652 0.0403306
51.2506 18.1788 0.0308395
50.5991 16.1994 0.0314413
45.9628 5.88398 0.0110593
49.6953 13.7791 0.0282477
47.355 8.62932 0.0172315
48.5946 11.3109 0.0256787
43.3745 7.47681 0.0151231
56.8048 34.8011 2
41.4 7.08182 2
45.3606 7.99533 2
42.8667 9.42042 2
55.1442 31.6217 2
53.9836 28.5734 2
53.8436 20.2563 2
53.3225 22.8712 2
53.3695 25.6886 2
46.6661 10.6572 2
47.7312 13.1207 2
51.5723 19.4589 2
49.953 17.7615 2
48.8987 15.4549 2
54.1381 33.9966 3.97519
52.8609 30.668 3.97615
52.086 27.4163 3.97487
51.8427 24.3065 3.97838
52.2371 21.2008 3.97179
41.0136 9.05569 3.97898
44.7266 9.99588 3.98609
42.4642 10.9056 3.9961
45.9933 12.7401 3.97296
47.6562 14.62 3.96968
48.0599 17.027 3.96621
49.7567 19.8378 3.97204
49.5822 61.7313 0.0227899
50.5356 59.2874 0.0303475
54.91 41.646 0.0257651
53.566 45.4149 0.0256742
52.8842 49.2032 0.0305379
52.1037 56.4346 0.0317601
52.4174 52.762 0.0388184
48.8247 60.1825 2
51.7115 42.526 2
49.73 57.5843 2
50.4349 54.3672 2
51.2411 47.1221 2
50.8734 50.8396 2
47.3877 43.6357 2
47.9487 58.71 3.97902
49.3523 45.1375 3.98112
48.4982 55.8739 3.96178
48.9013 52.521 3.97613
49.2403 48.9225 3.97194
45.1213 39.8034 3.8607
45.6054 42.5043 3.89712
45.8504 45.6077 3.98269
42.9455 41.0254 3.69548
41.6204 41.8447 3.5016
47.3174 60.9916 0.0132156
46.5962 59.7784 2
45.4394 58.7843 3.9945
39.6321 67.758 0.0184878
41.5457 65.6338 0.0219557
43.145 63.7112 0.0212073
44.4795 61.8143 0.0201958
45.7535 60.6149 0.0152273
41.6002 63.8028 2
37.5634 67.7392 2
39.6475 65.5992 2
44.6095 60.2726 2
42.946 62.0637 2
41.7504 62.4713 3.97715
42.4716 59.9554 3.97969
39.8945 63.5348 3.97626
37.6421 65.4938 3.97627
35.4635 67.6477 3.97927
33.5756 65.3269 3.97587
31.9606 63.2793 3.97585
29.8851 64.7059 3.98053
31.6978 65.1151 2
31.3775 67.1863 3.97976
33.3927 67.4771 2
33.1573 69.7477 3.98501
35.3336 69.9551 2
35.1955 72.3715 3.99197
37.5259 70.0439 0.015196
37.5092 72.4575 2
37.5 75 4
39.8164 72.4026 0.00845188
39.9526 74.9197 2
42.3947 74.6792 0
39.6245 4.71763 3.98943
41.7368 4.96934 2
42.0632 2.71834 3.99314
43.8519 5.36121 0.0117732
44.327 3.11047 2
44.8158 0.721173 4
46.5715 3.648 0.0075491
47.2057 1.27779 2
49.554 1.99015 0
57.4227 40.6033 0.0228875
59.2846 37.5659 0.0228011
54.3143 39.6598 0.0248723
48.7494 41.2456 2
56.1673 37.877 2
52.2852 39.2654 2
53.147 36.6195 3.97809
46.65 40.3172 3.89973
49.6685 38.5086 3.98461
37.5175 6.67633 3.98552
39.4439 6.80423 2
39.2113 8.69692 3.9825
35.9435 8.49625 3.98418
56.8052 34.8003 0.0228996
55.1415 31.6234 0.0241616
53.9842 28.5744 0.0226988
53.8415 20.2443 0.0388851
53.3291 22.874 0.0444429
53.3737 25.6887 0.0246319
51.5617 19.4596 0.0320295
49.9531 17.7634 0.0374618
48.9024 15.4489 0.030621
45.3607 7.99638 0.0125802
47.7307 13.1254 0.0243168
46.6651 10.6629 0.01927
41.3998 7.08222 0.0156442
42.8665 9.42122 0.0195316
54.1361 33.9968 2
41.0144 9.05645 2
44.7259 9.99541 2
42.4652 10.9067 2
52.8578 30.6662 2
52.0927 27.4165 2
52.2395 21.2051 2
51.8386 24.3126 2
45.9939 12.7318 2
47.6526 14.6069 2
49.7687 19.8346 2
48.0563 17.0277 2
51.652 32.9066 3.98236
50.6824 29.3745 3.97757
50.3792 25.9213 3.97056
49.796 22.4338 3.98493
40.5656 11.6173 3.98216
43.8497 11.9105 3.97984
45.7734 15.4569 3.98706
47.4567 19.4442 3.97912
45.5773 37.4783 3.8563
48.8276 60.1844 0.0241155
49.7322 57.5842 0.0327809
51.6936 42.5158 0.016821
51.2366 47.1227 0.0253132
50.8709 50.8406 0.0452046
50.4347 54.3648 0.0371896
47.3726 43.6049 0.0233762
47.9459 58.7127 2
49.3688 45.1527 2
48.4933 55.8762 2
48.9015 52.525 2
49.2441 48.9237 2
45.2005 39.8173 2
45.6366 42.5416 2
45.8593 45.622 2
42.9821 41.0646 2
41.6528 41.8695 2
46.7803 57.3154 3.97751
43.6765 39.3488 3.69669
41.9862 40.7594 3.52652
47.5147 47.1643 3.98259
47.0229 54.1852 3.96172
47.2902 50.6662 3.97891
44.3524 47.2379 3.97696
44.2565 41.8448 3.85425
44.3417 44.3514 3.89948
41.9401 42.4634 3.73357
40.6195 42.144 3.50053
46.5986 59.7798 0.00741293
45.4388 58.7809 2
43.8473 57.6753 3.98117
37.5632 67.7382 0.0205414
39.6472 65.5982 0.0228814
41.5999 63.8039 0.0220496
42.9473 62.0635 0.0252033
44.6098 60.2727 0.00630849
35.4638 67.6486 2
41.7495 62.4739 2
39.8943 63.5356 2
37.6422 65.4946 2
42.4726 59.9536 2
40.6213 61.615 3.98012
40.4353 58.1381 3.98053
37.8379 63.1907 3.97369
35.573 65.4162 3.9765
33.5759 65.3279 2
31.9609 63.281 2
33.6299 63.3184 3.97476
30.3796 62.8406 3.97993
32.1276 61.9821 3.98547
26.8784 61.4686 3.97761
28.0655 64.135 3.97834
29.8847 64.7071 2
29.4075 66.7501 3.98072
31.6978 65.1145 0.0226957
31.3776 67.1869 2
31.0151 69.413 3.98477
33.3925 67.4761 0.0206102
33.157 69.7487 2
32.8934 72.1458 3.99152
35.3338 69.9542 0.0151104
35.1952 72.3721 2
35.0474 74.9194 4
37.5089 72.457 0.00800892
37.5 75 2
39.9526 74.9197 0
35.6221 6.7275 3.98516
37.5242 4.61693 3.98962
39.6247 4.7163 2
39.7897 2.47505 3.99312
41.7366 4.96981 0.0114111
42.0632 2.71797 2
42.3946 0.32156 4
44.3268 3.11118 0.00723157
44.8159 0.72056 2
47.2057 1.27793 0
48.7217 41.2293 0.0240913
56.1676 37.8799 0.0231515
52.288 39.2999 0.0162209
46.6755 40.3159 2
49.6695 38.5039 2
53.1454 36.6408 2
50.4725 35.5669 3.97458
47.3195 37.7664 3.91276
45.1412 35.1706 3.85941
42.9771 33.9324 3.69226
41.649 33.1181 3.49984
37.4588 8.53739 3.98461
37.5178 6.67532 2
39.4435 6.80565 0.0147178
39.2127 8.69526 2
38.9761 10.1327 3.98367
35.8996 9.77876 3.97986
34.1534 8.82831 3.98215
35.9439 8.49373 2
54.1381 33.9966 0.0248057
52.8609 30.668 0.0238541
52.086 27.4163 0.025134
52.2371 21.2008 0.0282093
51.8427 24.3065 0.0216237
49.7567 19.8378 0.0279618
48.0599 17.027 0.0337926
47.6562 14.62 0.0303195
44.7266 9.99588 0.0139127
45.9933 12.7401 0.0270389
41.0136 9.05569 0.0210162
42.4642 10.9056 0.0039033
51.6602 32.9048 2
40.5678 11.6201 2
43.8484 11.9121 2
50.7038 29.3727 2
50.3772 25.9238 2
49.7936 22.4336 2
45.7657 15.4186 2
47.461 19.468 2
49.2285 31.535 3.98715
48.7651 27.6888 3.97792
49.1053 24.5756 3.97618
47.0982 22.2039 3.98916
38.3002 12.7467 3.97689
42.0885 14.3097 3.97963
44.7671 18.5825 3.97602
44.0929 37.4847 3.70712
45.6697 37.4822 2
47.9487 58.71 0.0209837
48.4982 55.8739 0.0382244
49.3523 45.1375 0.0188828
49.2403 48.9225 0.0280637
48.9013 52.521 0.0238668
45.1213 39.8034 0.139298
45.6054 42.5043 0.102883
45.8504 45.6077 0.0173143
42.9455 41.0254 0.304519
41.6204 41.8447 0.4984
46.7767 57.318 2
43.7359 39.3746 2
41.9893 40.7739 2
47.522 47.1646 2
47.0177 54.1894 2
47.2907 50.6756 2
44.3818 47.2231 2
44.2958 41.8774 2
44.386 44.3765 2
41.9917 42.5126 2
40.6477 42.1553 2
45.3177 55.899 3.99648
42.3289 39.22 3.53654
40.506 40.6381 3.64256
45.7089 48.8123 4.00265
45.3247 52.4539 3.98149
43.0899 48.2291 3.99397
42.9994 45.8738 3.89159
43.0968 43.6104 3.8366
40.7222 43.4961 3.71227
39.1858 42.4051 3.53582
45.4394 58.7843 0.00550062
43.8444 57.681 2
42.0731 56.2617 3.98585
35.4635 67.6477 0.0207283
37.6421 65.4938 0.0237304
39.8945 63.5348 0.0237432
41.7504 62.4713 0.0228516
42.4716 59.9554 0.0203136
35.5733 65.4168 2
40.6216 61.6134 2
37.8381 63.1909 2
40.4354 58.138 2
38.9108 56.4203 3.99433
38.2495 60.3007 3.98002
35.6077 63.185 3.97454
33.5756 65.3269 0.0241271
31.9606 63.2793 0.0241491
33.6303 63.3193 2
30.38 62.8417 2
32.1287 61.9835 2
28.6869 62.1772 3.98
33.348 61.4891 3.97714
31.0754 61.2051 3.98051
27.5874 59.5598 3.97965
23.8196 59.0467 3.98965
25.0466 60.8414 3.97722
26.8791 61.4684 2
26.2342 63.4639 3.97709
28.0654 64.1333 2
27.4645 66.1747 3.98025
29.8851 64.7059 0.0194737
29.4073 66.7503 2
28.9077 68.9386 3.98433
31.3775 67.1863 0.0202416
31.0147 69.4134 2
30.6163 71.7773 3.99098
33.1573 69.7477 0.0149889
32.8928 72.1463 2
32.6054 74.6784 4
35.1955 72.3715 0.00803087
35.0474 74.9197 2
37.5 75 0
33.7252 6.98367 3.98394
35.4364 4.68709 3.98941
35.6223 6.72612 2
37.5154 2.38747 3.99322
37.5244 4.61611 2
39.6245 4.71763 0.0105746
39.7895 2.47433 2
39.9526 0.0806499 4
42.0632 2.71834 0.00686465
42.3947 0.320817 2
44.8158 0.721173 0
43.6889 35.6213 3.69952
42.0037 34.199 3.51702
46.65 40.3172 0.100266
49.6685 38.5086 0.0153863
53.147 36.6195 0.0219116
47.3153 37.7341 2
50.4792 35.5598 2
45.2116 35.1476 2
43.0165 33.8915 2
41.6765 33.0932 2
47.511 34.3261 3.94657
44.2971 33.1116 3.83802
41.981 32.5019 3.73173
40.6443 32.8295 3.49954
37.3113 10.6348 3.98117
37.4599 8.53618 2
37.5175 6.67633 0.0144835
39.2113 8.69692 0.0174966
38.9789 10.1314 2
34.756 10.3883 3.98089
35.9009 9.77385 2
32.3803 9.37509 3.97828
34.1522 8.82417 2
35.9435 8.49625 0.0158194
51.652 32.9066 0.017635
50.6824 29.3745 0.0224301
50.3792 25.9213 0.0294409
49.796 22.4338 0.0150683
47.4567 19.4442 0.0208783
45.7734 15.4569 0.0129369
43.8497 11.9105 0.0201616
40.5656 11.6173 0.0178389
49.2478 31.5278 2
38.3006 12.7433 2
42.0924 14.3192 2
48.7734 27.6935 2
49.1029 24.5751 2
47.0854 22.1914 2
44.7693 18.6399 2
47.1223 29.6777 3.98534
46.7876 25.3072 3.96813
44.2254 21.5793 3.97917
36.5851 12.9565 3.97418
38.6813 14.8521 3.97472
41.7344 17.9225 3.97837
42.4819 37.4688 3.57178
44.1458 37.4841 2
45.5773 37.4783 0.143699
46.7803 57.3154 0.0224939
47.0229 54.1852 0.0382753
47.5147 47.1643 0.0174068
47.2902 50.6662 0.0210902
43.6765 39.3488 0.303315
44.2565 41.8448 0.145755
44.3417 44.3514 0.100519
44.3524 47.2379 0.0230367
41.9401 42.4634 0.266427
41.9862 40.7594 0.473482
40.6195 42.144 0.499475
45.3126 55.9016 2
42.3284 39.225 2
40.5306 40.6226 2
45.7093 48.8307 2
45.32 52.4556 2
43.1156 48.2474 2
43.0521 45.9177 2
43.144 43.6425 2
40.7596 43.5562 2
39.1838 42.4181 2
43.6425 54.3682 3.99547
40.6114 39.0718 3.65922
39.0771 40.7106 3.61395
43.4177 50.3119 4.00389
41.7206 47.3923 3.9298
41.6328 44.9716 3.84857
39.339 44.1514 3.68036
37.5006 42.5101 3.57251
43.8473 57.6753 0.0188308
42.074 56.2581 2
40.3829 54.8324 3.99376
35.573 65.4162 0.0235044
37.8379 63.1907 0.0263093
40.6213 61.615 0.0198813
40.4353 58.1381 0.0194712
35.6079 63.1849 2
38.2494 60.3013 2
38.9121 56.4112 2
37.9869 55.109 3.99479
36.9338 57.5982 3.99152
35.3656 60.8901 3.97926
33.6299 63.3184 0.0252441
30.3796 62.8406 0.0200662
32.1276 61.9821 0.014527
33.3489 61.4892 2
28.6874 62.1797 2
31.0766 61.2074 2
29.4176 60.2583 3.97597
32.3666 59.7089 3.98957
28.0554 58.3432 4.00537
27.5898 59.5594 2
25.4076 58.5637 3.98012
22.8008 58.2009 3.96857
23.4158 60.3126 3.9793
23.8219 59.0467 2
25.0477 60.8406 2
24.4394 62.7507 3.97723
26.8784 61.4686 0.0223863
26.2349 63.4647 2
25.5495 65.4825 3.97874
28.0655 64.135 0.021665
27.4645 66.1745 2
26.8373 68.3273 3.98444
29.4075 66.7501 0.0192829
28.9072 68.9386 2
28.3715 71.2626 3.99039
31.0151 69.413 0.0152289
30.6154 71.7773 2
30.1842 74.2788 4
32.8934 72.1458 0.00847503
32.6053 74.6792 2
35.0474 74.9194 0
31.7898 7.42313 3.98239
33.349 4.92692 3.98847
33.7248 6.98104 2
35.2458 2.46342 3.99321
35.4363 4.68639 2
35.6221 6.7275 0.0148391
37.5 0 4
37.515 2.38704 2
37.5242 4.61693 0.0103834
39.7897 2.47505 0.00687916
39.9526 0.0802889 2
42.3946 0.32156 0
42.3222 35.7168 3.52781
43.7604 35.5904 2
40.5366 34.3284 3.64232
42.0013 34.1823 2
47.3195 37.7664 0.0872388
50.4725 35.5669 0.0254219
45.1412 35.1706 0.140591
42.9771 33.9324 0.307741
41.649 33.1181 0.500161
47.5314 34.3483 2
44.3342 33.0874 2
42.0341 32.4513 2
40.6711 32.818 2
45.6019 31.7314 3.90938
43.1348 31.3533 3.83123
40.7564 31.4753 3.71087
39.2047 32.585 3.53197
35.6949 11.7853 3.97732
37.3144 10.6321 2
37.4588 8.53739 0.0153929
38.9761 10.1327 0.0163268
33.1012 11.2275 3.9733
34.7548 10.3813 2
35.8996 9.77876 0.0201375
30.4856 10.026 3.97795
32.3794 9.37394 2
34.1534 8.82831 0.0178523
49.2285 31.535 0.0128512
48.7651 27.6888 0.0220763
49.1053 24.5756 0.0238213
47.0982 22.2039 0.0108442
44.7671 18.5825 0.0239757
42.0885 14.3097 0.020366
38.3002 12.7467 0.0231098
36.5818 12.9376 2
47.136 29.6234 2
38.6786 14.8307 2
41.7263 17.9217 2
46.7931 25.3064 2
44.2114 21.5542 2
45.0718 27.82 4.0062
43.61 24.2328 4.02741
41.2966 20.9366 3.98508
35.7728 14.7973 3.97639
38.6731 17.6549 3.98134
40.6674 37.4573 3.67361
42.4911 37.473 2
44.0929 37.4847 0.292878
45.3177 55.899 0.00351952
45.3247 52.4539 0.0185066
45.7089 48.8123 -0.00264992
42.3289 39.22 0.463459
43.0968 43.6104 0.163397
42.9994 45.8738 0.108414
43.0899 48.2291 0.00603312
40.7222 43.4961 0.287728
40.506 40.6381 0.357442
39.1858 42.4051 0.464181
43.6395 54.3638 2
40.6137 39.0708 2
39.0786 40.7026 2
43.4104 50.3277 2
41.7192 47.425 2
41.6592 45.015 2
37.4976 42.5282 2
39.3542 44.2108 2
41.7978 52.8508 3.99788
39.088 39.1014 3.62759
37.5042 40.7654 3.64051
35.82 42.4145 3.53591
40.8297 49.4649 3.995
39.7424 45.7346 3.82344
37.5001 44.4076 3.70971
42.0731 56.2617 0.0141536
40.3811 54.8408 2
38.7231 53.6617 3.99554
35.6077 63.185 0.0254603
38.2495 60.3007 0.0199822
38.9108 56.4203 0.00566964
35.3661 60.889 2
36.9343 57.5964 2
37.9879 55.111 2
36.3228 55.1706 3.99528
34.4956 58.4969 3.99416
33.348 61.4891 0.0228626
28.6869 62.1772 0.0200047
31.0754 61.2051 0.0194902
32.368 59.7121 2
29.4191 60.2573 2
30.3287 57.7819 3.98468
28.0586 58.3423 2
27.0129 56.7958 3.96631
27.5874 59.5598 0.020346
25.4107 58.5637 2
23.9175 56.7602 3.9597
21.4034 57.3477 3.96005
22.0157 59.5819 3.97387
22.8032 58.2017 2
22.7452 62.0027 3.97374
23.417 60.3119 2
23.8196 59.0467 0.0103521
25.0466 60.8414 0.0227753
24.4403 62.7534 2
23.6848 64.6986 3.97636
26.2342 63.4639 0.0229058
25.5494 65.484 2
24.8098 67.588 3.98335
27.4645 66.1747 0.0197506
26.837 68.328 2
26.1666 70.6035 3.99039
28.9077 68.9386 0.0156698
28.3706 71.2624 2
27.7943 73.7221 4
30.6163 71.7773 0.00901671
30.1841 74.2794 2
32.6054 74.6784 0
29.8126 7.99858 3.9807
31.2545 5.33356 3.98751
31.7891 7.42166 2
32.9818 2.7017 3.99282
33.3485 4.92535 2
33.7252 6.98367 0.0160636
35.0474 0.080333 4
35.2453 2.46318 2
35.4364 4.68709 0.0105881
37.5 0 2
37.5154 2.38747 0.00678365
39.9526 0.0806499 0
40.6451 35.8633 3.6599
42.3237 35.7184 2
43.6889 35.6213 0.300478
28.546 10.7013 3.97751
39.0857 34.2787 3.61268
40.5437 34.34 2
42.0037 34.199 0.482985
47.511 34.3261 0.0534326
44.2971 33.1116 0.161983
41.981 32.5019 0.268268
40.6443 32.8295 0.500463
45.6351 31.7122 2
43.1783 31.32 2
40.7965 31.4137 2
39.2083 32.5738 2
43.9459 29.9332 3.90392
41.6467 29.9901 3.8506
39.3645 30.8297 3.67878
37.5282 32.491 3.57164
34.0973 12.9526 3.97356
35.6942 11.7733 2
37.3113 10.6348 0.018834
31.1904 11.9977 3.97758
33.1012 11.2266 2
34.756 10.3883 0.0191105
30.484 10.0228 2
32.3803 9.37509 0.0217242
47.1223 29.6777 0.0146561
46.7876 25.3072 0.0318736
36.5851 12.9565 0.0258158
44.2254 21.5793 0.0208279
41.7344 17.9225 0.0216259
38.6813 14.8521 0.0252772
35.7758 14.8065 2
45.0721 27.8167 2
38.6704 17.66 2
41.2819 20.9282 2
43.6042 24.2144 2
33.6132 15.905 3.98124
42.7646 26.655 3.98421
40.7949 23.5273 3.99985
38.4009 20.4216 3.99364
35.8473 17.5534 3.98046
39.1043 37.4857 3.64383
40.6632 37.4597 2
42.4819 37.4688 0.428224
43.6425 54.3682 0.00453179
43.4177 50.3119 -0.00389044
40.6114 39.0718 0.340776
41.6328 44.9716 0.151434
41.7206 47.3923 0.0701958
39.339 44.1514 0.319639
39.0771 40.7106 0.386048
37.5006 42.5101 0.427489
41.7874 52.8534 2
39.0816 39.0879 2
37.5021 40.7524 2
40.8203 49.4857 2
35.8176 42.426 2
39.7591 45.7911 2
37.4914 44.4628 2
39.7378 51.6602 4.00263
37.5073 39.1071 3.66185
35.9377 40.7254 3.61445
34.3832 42.1619 3.50157
35.6646 44.1689 3.67058
38.6655 48.3811 3.94296
37.5231 46.0238 3.85141
40.3829 54.8324 0.006239
38.7248 53.6492 2
36.7496 52.9602 3.9969
35.3656 60.8901 0.0207356
36.9338 57.5982 0.00847756
37.9869 55.109 0.0052135
34.4967 58.4948 2
36.3254 55.162 2
33.2555 55.3614 3.99171
32.3666 59.7089 0.0104292
29.4176 60.2583 0.0240325
30.3319 57.7791 2
28.7964 55.2808 3.98486
28.0554 58.3432 -0.00537021
27.0159 56.795 2
25.434 55.0901 3.96026
21.9374 55.2848 3.95993
25.4076 58.5637 0.0198814
23.9201 56.762 2
20.2754 56.9794 3.96299
20.6739 58.7355 3.96959
21.4055 57.3492 2
21.1792 61.1359 3.97437
22.0169 59.5821 2
22.8008 58.2009 0.0314338
21.8999 63.8235 3.97621
22.7464 62.0037 2
23.4158 60.3126 0.0207028
24.4394 62.7507 0.0227663
23.6848 64.6988 2
22.8384 66.7305 3.98114
25.5495 65.4825 0.0212593
24.8094 67.5889 2
24.0109 69.8048 3.99024
26.8373 68.3273 0.0155625
26.1655 70.6036 2
25.446 73.0099 4
28.3715 71.2626 0.0096127
27.7943 73.7222 2
30.1842 74.2788 0
27.8224 8.65852 3.98068
29.1567 5.88016 3.98581
29.8114 7.996 2
30.7273 3.09851 3.99257
31.2538 5.33224 2
31.7898 7.42313 0.0176125
32.6053 0.320823 4
32.981 2.70111 2
33.349 4.92692 0.011531
35.0474 0.0802903 2
35.2458 2.46342 0.00679437
37.5 0 0
39.0808 35.8812 3.63433
40.6283 35.8641 2
42.3222 35.7168 0.472189
28.5445 10.699 2
26.6245 11.3976 3.97793
29.2308 12.6514 3.98082
37.5184 34.2394 3.63907
39.0972 34.295 2
40.5366 34.3284 0.357677
45.6019 31.7314 0.090621
43.1348 31.3533 0.168775
40.7564 31.4753 0.289128
39.2047 32.585 0.468033
43.9778 29.902 2
41.6761 29.9507 2
39.3715 30.7705 2
37.5279 32.4732 2
42.0749 28.6279 3.87644
39.7337 29.2362 3.84403
37.522 30.596 3.70718
35.8394 32.5909 3.5371
31.9238 14.4973 3.9797
34.0985 12.9563 2
35.6949 11.7853 0.0226827
31.1895 11.993 2
33.1012 11.2275 0.0266982
30.4856 10.026 0.0220529
45.0718 27.82 -0.00620359
43.61 24.2328 -0.0274144
35.7728 14.7973 0.0236074
41.2966 20.9366 0.014923
38.6731 17.6549 0.0186557
33.61 15.8972 2
35.8419 17.5582 2
42.7867 26.6462 2
38.385 20.4785 2
40.7804 23.5023 2
33.5524 17.4316 3.9814
40.2129 25.9135 3.95476
38.0392 23.2517 3.9998
35.5774 20.1533 3.99291
37.5114 37.4914 3.67792
39.0956 37.4801 2
40.6674 37.4573 0.326391
41.7978 52.8508 0.00212284
40.8297 49.4649 0.00499618
39.088 39.1014 0.372412
39.7424 45.7346 0.176564
37.5001 44.4076 0.290288
37.5042 40.7654 0.359493
35.82 42.4145 0.464087
39.727 51.6687 2
37.5087 39.1012 2
35.9351 40.7145 2
38.6789 48.4365 2
34.3574 42.1733 2
35.6423 44.2279 2
37.5208 46.0777 2
37.6763 50.6807 3.99674
35.9385 39.116 3.63334
34.5064 40.664 3.64482
33.3768 41.8659 3.50384
34.2785 43.5079 3.70852
35.2263 45.7496 3.84071
36.9249 47.9895 3.90859
38.7231 53.6617 0.00446346
36.7581 52.9537 2
34.437 52.2921 3.99852
34.4956 58.4969 0.00584106
36.3228 55.1706 0.00471817
33.2608 55.3685 2
30.6344 53.2693 3.99759
30.3287 57.7819 0.0153195
28.7988 55.2796 2
27.0596 53.3766 3.95887
27.0129 56.7958 0.0336871
25.4366 55.0923 2
23.7777 53.4033 3.95705
20.717 53.1318 3.95895
20.0322 55.7725 3.96232
21.9351 55.2874 2
23.9175 56.7602 0.040304
19.4739 57.8456 3.96597
20.2737 56.9811 2
19.7217 60.1588 3.97169
20.673 58.7369 2
21.4034 57.3477 0.0399483
20.2138 62.8429 3.97281
21.1802 61.1368 2
22.0157 59.5819 0.0261343
20.9404 65.7572 3.97894
21.9 63.8251 2
22.7452 62.0027 0.0262631
23.6848 64.6986 0.0236393
22.8381 66.7307 2
21.9135 68.872 3.98958
24.8098 67.588 0.0166486
24.0093 69.8046 2
23.1494 72.1454 4
26.1666 70.6035 0.00961363
25.446 73.0099 2
27.7943 73.7221 0
25.8616 9.38756 3.97984
27.0715 6.54449 3.9845
27.8209 8.65685 2
28.4898 3.64445 3.99173
29.1557 5.87854 2
29.8126 7.99858 0.0193028
30.1841 0.720592 4
30.7261 3.09813 2
31.2545 5.33356 0.0124903
32.6053 0.320817 2
32.9818 2.7017 0.00718435
35.0474 0.080333 0
37.51 35.8816 3.65882
39.0665 35.8815 2
40.6451 35.8633 0.340099
24.7809 12.0858 3.97646
23.7615 14.3808 3.97502
28.546 10.7013 0.0224886
26.6229 11.3953 2
29.2294 12.6494 2
27.2984 13.3842 3.97905
29.7908 14.2121 3.98121
35.9429 34.2831 3.61394
37.5253 34.253 2
39.0857 34.2787 0.387325
37.5282 32.491 0.428362
43.9459 29.9332 0.0960792
41.6467 29.9901 0.149398
39.3645 30.8297 0.321223
42.1035 28.5772 2
39.7514 29.1828 2
37.5249 30.5404 2
35.8391 32.5784 2
39.8965 27.871 3.88294
37.4899 28.9717 3.84617
35.6861 30.8496 3.68305
34.4029 32.8439 3.50284
30.9384 16.8564 3.98512
31.9218 14.4889 2
34.0973 12.9526 0.026439
31.1904 11.9977 0.0224232
42.7646 26.655 0.0157917
40.7949 23.5273 0.000154473
33.6132 15.905 0.0187593
35.8473 17.5534 0.0195409
38.4009 20.4216 0.00635543
33.5476 17.4437 2
35.5884 20.1455 2
40.2812 25.9025 2
38.018 23.2123 2
32.8776 19.8326 3.99401
37.6509 25.5589 3.97119
35.2195 22.9111 3.99957
35.9195 37.4921 3.64589
37.5065 37.4916 2
39.1043 37.4857 0.356169
39.7378 51.6602 -0.00262501
38.6655 48.3811 0.0570413
37.5073 39.1071 0.338147
37.5231 46.0238 0.148585
35.6646 44.1689 0.329422
35.9377 40.7254 0.385551
34.3832 42.1619 0.498431
37.6649 50.7126 2
35.9521 39.1033 2
34.4816 40.6529 2
36.9064 48.0459 2
33.3442 41.8908 2
34.2444 43.5656 2
35.206 45.7995 2
35.5515 49.8651 3.98605
34.4001 39.1124 3.65954
33.0196 40.7854 3.52178
33.0539 42.4801 3.73634
33.3941 44.9798 3.84206
34.4357 47.1283 3.88065
36.7496 52.9602 0.00310347
34.434 52.3007 2
32.1897 51.0767 4.01666
33.2555 55.3614 0.00829208
30.6374 53.2735 2
28.6485 51.4962 3.99088
28.7964 55.2808 0.0151442
27.0618 53.3783 2
25.344 51.6476 3.95468
25.434 55.0901 0.039741
23.7769 53.4082 2
22.275 51.6982 3.95152
19.5513 51.5265 3.96093
19.1114 54.2308 3.96161
20.7167 53.1311 2
18.5138 56.6722 3.96331
20.0296 55.7743 2
21.9374 55.2848 0.04007
18.3882 59.0706 3.96806
19.4729 57.8466 2
20.2754 56.9794 0.0370115
18.6284 61.7311 3.97193
19.7221 60.1608 2
20.6739 58.7355 0.0304114
19.1299 64.6666 3.97775
20.2143 62.8442 2
21.1792 61.1359 0.0256322
19.8878 67.8082 3.98828
20.9398 65.7578 2
21.8999 63.8235 0.0237886
22.8384 66.7305 0.0188626
21.9117 68.8711 2
20.9142 71.1327 4
24.0109 69.8048 0.00976395
23.1494 72.1455 2
25.446 73.0099 0
23.1026 12.8023 3.97705
23.9746 10.1769 3.97773
25.0251 7.31533 3.98327
25.8597 9.3861 2
26.2816 4.32857 3.99094
27.0701 6.54349 2
27.8224 8.65852 0.0193246
27.7943 1.27781 4
28.488 3.64427 2
29.1567 5.88016 0.0141947
30.1841 0.720551 2
30.7273 3.09851 0.00742865
32.6053 0.320823 0
35.9274 35.8752 3.62574
37.5219 35.8913 2
39.0808 35.8812 0.365674
24.7778 12.0811 2
23.7616 14.385 2
22.4934 15.0642 3.98001
25.3662 13.926 3.97288
24.046 15.6424 3.98392
26.6245 11.3976 0.0220687
29.2308 12.6514 0.0191841
27.2983 13.3819 2
29.7872 14.2093 2
28.3736 15.9829 3.98277
34.5196 34.3478 3.64169
35.9397 34.2903 2
37.5184 34.2394 0.360935
35.8394 32.5909 0.462897
37.522 30.596 0.292819
42.0749 28.6279 0.123555
39.7337 29.2362 0.155967
39.9318 27.8303 2
37.4876 28.9155 2
35.6691 30.7833 2
34.3734 32.8355 2
37.6045 27.6062 3.88465
35.2633 29.2569 3.84371
34.2894 31.4968 3.70751
33.3948 33.1369 3.50169
30.2245 19.4132 3.98282
30.934 16.8458 2
31.9238 14.4973 0.0203037
40.2129 25.9135 0.0452364
38.0392 23.2517 0.000197023
33.5524 17.4316 0.0185956
35.5774 20.1533 0.00709209
32.8762 19.8512 2
35.219 22.8952 2
37.7121 25.5377 2
32.3847 22.5648 3.99649
35.0853 25.4794 3.99343
34.3519 37.5083 3.67574
35.9223 37.4976 2
37.5114 37.4914 0.322079
37.6763 50.6807 0.00326313
36.9249 47.9895 0.0914146
35.9385 39.116 0.366661
35.2263 45.7496 0.159295
34.2785 43.5079 0.291484
34.5064 40.664 0.35518
33.3768 41.8659 0.496158
35.5397 49.8749 2
34.4025 39.109 2
33.017 40.7988 2
34.4291 47.1745 2
33.0123 42.5294 2
33.368 45.0217 2
33.3844 48.9332 3.97608
32.691 39.2598 3.53092
32.045 41.0487 3.69458
31.8937 43.6279 3.83617
32.5835 46.106 3.88397
34.437 52.2921 0.00148257
32.1938 51.0894 2
30.1694 49.6572 4.00226
30.6344 53.2693 0.00241244
28.6492 51.4907 2
26.8427 49.8675 3.97007
27.0596 53.3766 0.0411271
25.342 51.6473 2
23.7147 50.0587 3.96148
23.7777 53.4033 0.0429535
22.2744 51.6967 2
20.8689 50.1893 3.96481
18.3484 50.2246 3.96908
18.1181 52.6997 3.96361
19.5499 51.5256 2
17.582 55.2747 3.96245
19.1082 54.2309 2
20.717 53.1318 0.0410498
17.1677 57.8336 3.96193
18.5107 56.6731 2
20.0322 55.7725 0.0376816
17.1469 60.5115 3.96686
18.3883 59.0711 2
19.4739 57.8456 0.0340252
17.4114 63.4565 3.97114
18.6291 61.7322 2
19.7217 60.1588 0.0283125
17.9442 66.6163 3.98654
19.1293 64.6664 2
20.2138 62.8429 0.0271879
18.75 69.9759 4
19.8858 67.8069 2
20.9404 65.7572 0.0210638
21.9135 68.872 0.0104249
20.9142 71.1327 2
23.1494 72.1454 0
21.5967 13.6294 3.97587
22.1934 11.0396 3.97473
23.1006 12.8067 2
23.0428 8.182 3.98136
23.9719 10.175 2
24.1193 5.14336 3.9903
25.0233 7.3146 2
25.8616 9.38756 0.0201558
25.446 1.99014 4
26.2794 4.32892 2
27.0715 6.54449 0.0155018
27.7943 1.27778 2
28.4898 3.64445 0.00827255
30.1841 0.720592 0
34.4138 35.9002 3.65792
35.9368 35.8899 2
37.51 35.8816 0.341179
21.3269 15.8709 3.98278
24.7809 12.0858 0.0235406
23.7615 14.3808 0.0249783
25.3651 13.9171 2
22.4944 15.0628 2
24.0484 15.648 2
23.2924 16.2731 3.97169
25.4023 16.1129 3.98296
27.2984 13.3842 0.0209476
29.7908 14.2121 0.0187938
28.369 15.9883 2
27.4645 18.841 3.98092
33.0299 34.2248 3.52761
34.4953 34.3627 2
35.9429 34.2831 0.386065
34.4029 32.8439 0.497163
35.6861 30.8496 0.316945
37.4899 28.9717 0.15383
39.8965 27.871 0.117063
37.5796 27.5679 2
33.3661 33.1143 2
35.2649 29.1951 2
34.2479 31.4338 2
35.163 27.7034 3.89453
33.3919 30.0176 3.84346
33.0784 32.5197 3.72846
29.694 22.0136 4.002
30.2263 19.4172 2
30.9384 16.8564 0.0148842
37.6509 25.5589 0.0288084
35.2195 22.9111 0.00043489
32.8776 19.8326 0.0059926
32.3909 22.5565 2
35.1169 25.4696 2
31.944 25.8198 4.00599
32.527 37.5073 3.57213
34.3656 37.504 2
35.9195 37.4921 0.354112
35.5515 49.8651 0.0139534
34.4357 47.1283 0.119352
34.4001 39.1124 0.340457
33.3941 44.9798 0.157936
33.0539 42.4801 0.263656
33.0196 40.7854 0.47822
33.3738 48.9328 2
32.7011 39.2643 2
32.0069 41.0861 2
32.5453 46.1521 2
31.8507 43.6589 2
31.5127 47.7807 3.97944
31.3311 39.3679 3.69962
30.7301 41.8769 3.84314
30.9452 44.7402 3.89833
32.1897 51.0767 -0.0166632
30.1736 49.6823 2
28.3053 48.0425 3.96119
28.6485 51.4962 0.00912397
26.8418 49.8688 2
25.1066 48.3164 3.96662
25.344 51.6476 0.0453157
23.7143 50.0569 2
22.1443 48.6417 3.97115
22.275 51.6982 0.0484761
20.8669 50.1881 2
19.4534 48.9722 3.9733
17.2293 49.2363 3.97437
17.0694 51.3176 3.96806
18.3506 50.2231 2
16.5844 53.7987 3.96487
18.117 52.6992 2
19.5513 51.5265 0.0390655
16.0535 56.4293 3.9627
17.5793 55.2751 2
19.1114 54.2308 0.0383866
15.7621 59.181 3.96636
17.1669 57.8345 2
18.5138 56.6722 0.0366861
15.7932 62.1102 3.96933
17.1478 60.5132 2
18.3882 59.0706 0.0319416
16.091 65.2985 3.98508
17.4104 63.4583 2
18.6284 61.7311 0.0280736
16.6661 68.6801 4
17.9419 66.6145 2
19.1299 64.6666 0.0222463
18.75 69.9759 2
19.8878 67.8082 0.0117171
20.9142 71.1327 0
20.2315 14.6362 3.97114
21.5955 13.6362 2
20.5345 12.0167 3.97539
21.1459 9.15392 3.97941
22.1909 11.0389 2
23.1026 12.8023 0.0229547
22.0185 6.08223 3.98992
23.0403 8.18096 2
23.9746 10.1769 0.0222693
23.1494 2.85457 4
24.1166 5.14413 2
25.0251 7.31533 0.0167282
25.446 1.99012 2
26.2816 4.32857 0.0090596
27.7943 1.27781 0
32.6824 35.7586 3.53586
34.4111 35.9012 2
35.9274 35.8752 0.374261
21.3288 15.8663 2
20.3359 17.0007 3.97255
22.1246 16.6697 3.96815
25.3662 13.926 0.027122
22.4934 15.0642 0.0199932
24.046 15.6424 0.0160814
25.4041 16.1051 2
23.2955 16.2728 2
24.2377 18.5348 3.96804
27.1277 21.6087 3.99464
28.3736 15.9829 0.0172344
27.4615 18.8813 2
32.0788 33.9645 3.69033
33.0314 34.2071 2
34.5196 34.3478 0.358313
33.3948 33.1369 0.498309
34.2894 31.4968 0.292488
35.2633 29.2569 0.156287
37.6045 27.6062 0.115345
35.1683 27.6565 2
33.0049 32.4725 2
33.3654 29.979 2
32.8309 28.3647 3.90509
31.9019 31.3797 3.82816
29.0681 24.5082 3.99715
29.6911 22.0261 2
30.2245 19.4132 0.0171831
35.0853 25.4794 0.00657471
32.3847 22.5648 0.00351376
31.9372 25.7933 2
30.0364 27.4683 3.97769
30.9185 37.5024 3.70454
32.534 37.5061 2
34.3519 37.5083 0.324256
33.3844 48.9332 0.0239162
32.5835 46.106 0.116031
32.691 39.2598 0.469079
31.8937 43.6279 0.163829
32.045 41.0487 0.305421
31.4703 47.8011 2
31.2616 39.3926 2
30.6941 41.9002 2
30.9011 44.7788 2
29.7166 46.3896 3.99421
29.8742 39.8253 3.86223
29.4166 42.9908 3.90327
30.1694 49.6572 -0.00225789
28.2987 48.0365 2
26.5057 46.4883 3.98296
26.8427 49.8675 0.0299254
25.1073 48.3144 2
23.3809 46.9071 3.97417
23.7147 50.0587 0.0385174
22.1423 48.6403 2
20.4486 47.4841 3.97654
20.8689 50.1893 0.0351873
19.4546 48.9705 2
18.0533 48.0722 3.97692
16.4634 48.5955 3.97651
17.2309 49.2351 2
16.1415 50.0871 3.97235
15.5993 52.3442 3.96787
17.0709 51.3166 2
18.3484 50.2246 0.0309235
14.9972 54.9244 3.96361
16.5863 53.798 2
18.1181 52.6997 0.0363926
14.4817 57.7131 3.96245
16.0535 56.4295 2
17.582 55.2747 0.0375509
14.2719 60.6719 3.96796
15.764 59.1817 2
17.1677 57.8336 0.0380682
14.3358 63.8561 3.98076
15.7932 62.1119 2
17.1469 60.5115 0.0331357
14.6715 67.2507 4
16.0882 65.2959 2
17.4114 63.4565 0.0288626
16.6661 68.6801 2
17.9442 66.6163 0.0134621
18.75 69.9759 0
18.9507 15.8213 3.97415
20.2322 14.6337 2
18.9874 13.1369 3.97457
21.5967 13.6294 0.0241331
20.5331 12.0184 2
19.346 10.2444 3.97718
19.9933 7.14719 3.98857
21.1429 9.15401 2
22.1934 11.0396 0.0252679
20.9142 3.86727 4
22.0151 6.08342 2
23.0428 8.182 0.0186381
23.1494 2.85451 2
24.1193 5.14336 0.00970378
25.446 1.99014 0
31.353 35.6408 3.69586
32.689 35.7518 2
34.4138 35.9002 0.342082
21.3269 15.8709 0.0172241
22.1268 16.6662 2
20.3378 16.9953 2
19.3113 18.4597 3.95698
21.8148 17.9166 3.98019
25.4023 16.1129 0.0170397
23.2924 16.2731 0.0283053
24.2317 18.5554 2
22.3863 19.9794 3.96451
24.71 21.4879 3.98627
26.6823 23.8004 3.97887
27.1348 21.5507 2
27.4645 18.841 0.0190837
30.7832 33.1415 3.85295
32.0435 33.9149 2
33.0299 34.2248 0.472387
33.0784 32.5197 0.271545
33.3919 30.0176 0.156536
35.163 27.7034 0.105471
32.7974 28.3367 2
31.846 31.341 2
30.6358 29.7552 3.93185
28.2966 26.6606 3.99574
29.0551 24.5151 2
29.694 22.0136 -0.00199722
31.944 25.8198 -0.00599273
30.0275 27.4443 2
29.4258 37.5026 3.85711
30.8634 37.5015 2
32.527 37.5073 0.427872
31.5127 47.7807 0.020561
30.9452 44.7402 0.101675
31.3311 39.3679 0.300384
30.7301 41.8769 0.15686
29.7201 46.3869 2
29.8056 39.8397 2
29.3867 43.0305 2
27.9691 44.7145 3.97227
27.6358 40.5564 3.93613
28.3053 48.0425 0.0388093
26.5022 46.4852 2
24.6783 45.0247 3.97884
25.1066 48.3164 0.0333766
23.3795 46.9071 2
21.4621 45.7562 3.97794
22.1443 48.6417 0.0288475
20.4486 47.4826 2
18.7742 46.6213 3.97689
19.4534 48.9722 0.0267007
18.0541 48.0709 2
16.6943 47.6193 3.97658
16.4651 48.5944 2
15.4856 48.9378 3.97572
17.2293 49.2363 0.0256323
16.1437 50.086 2
14.7157 50.9185 3.97105
13.972 53.3836 3.96598
15.6006 52.3435 2
17.0694 51.3176 0.031941
13.304 56.1399 3.96282
14.9975 54.9242 2
16.5844 53.7987 0.0351281
12.8564 59.1108 3.96769
14.4848 57.7128 2
16.0535 56.4293 0.0372992
12.6819 62.2972 3.97708
14.2728 60.6716 2
15.7621 59.181 0.0336432
12.7746 65.6939 4
14.3336 63.8525 2
15.7932 62.1102 0.0306674
14.6714 67.2507 2
16.091 65.2985 0.014917
16.6661 68.6801 0
17.7015 17.1969 3.96623
18.9507 15.8191 2
17.5228 14.4056 3.97105
20.2315 14.6362 0.028857
18.9866 13.1396 2
17.642 11.464 3.97454
20.5345 12.0167 0.0246056
19.3429 10.2459 2
18.0535 8.34028 3.98661
18.75 5.0241 4
19.9894 7.14932 2
21.1459 9.15392 0.0205863
20.9142 3.86727 2
22.0185 6.08223 0.0100759
23.1494 2.85457 0
29.9002 35.1953 3.86127
31.2875 35.6182 2
32.6824 35.7586 0.46414
22.1246 16.6697 0.0318483
20.3359 17.0007 0.0274533
21.8145 17.9162 2
19.3104 18.4552 2
18.1305 20.0123 3.96144
20.9715 19.4513 3.96391
24.2377 18.5348 0.0319601
22.3817 19.9859 2
24.7161 21.4751 2
22.5397 21.8224 3.98207
24.954 23.241 3.97403
25.8954 26.0424 3.97903
26.6811 23.7931 2
27.1277 21.6087 0.00535835
29.1718 32.4894 3.90504
30.7233 33.1062 2
32.0788 33.9645 0.309671
31.9019 31.3797 0.171837
32.8309 28.3647 0.0949101
30.6124 29.7481 2
27.6285 29.2452 4.01381
28.2825 26.6696 2
29.0681 24.5082 0.00284726
30.0364 27.4683 0.0223146
27.7628 37.3566 3.9092
29.3566 37.4944 2
30.9185 37.5024 0.295458
29.7166 46.3896 0.0057877
29.4166 42.9908 0.096729
29.8742 39.8253 0.137766
27.962 44.7666 2
27.6078 40.5466 2
26.0394 43.0497 3.98895
24.8977 39.448 3.97328
26.5057 46.4883 0.0170382
24.6679 45.0259 2
22.5835 43.7955 3.97705
23.3809 46.9071 0.0258267
21.4591 45.7573 2
19.5272 44.8589 3.97658
20.4486 47.4841 0.0234557
18.7742 46.6215 2
17.0435 46.1155 3.97651
18.0533 48.0722 0.0230819
16.6958 47.6184 2
15.2462 47.5921 3.97621
16.4634 48.5955 0.0234901
15.4876 48.9368 2
14.0236 49.4839 3.97353
16.1415 50.0871 0.0276516
14.717 50.9177 2
13.0435 51.8273 3.96811
12.2085 54.4999 3.96392
13.9724 53.3832 2
15.5993 52.3442 0.032132
11.5429 57.4479 3.96654
13.3045 56.1398 2
14.9972 54.9244 0.0363855
11.1368 60.6235 3.97585
12.8577 59.1101 2
14.4817 57.7131 0.0375453
10.9835 64.0165 4
12.68 62.2932 2
14.2719 60.6719 0.0320428
12.7745 65.694 2
14.3358 63.8561 0.019239
14.6715 67.2507 0
16.482 18.7005 3.96151
17.7007 17.1952 2
16.1181 15.8151 3.96634
18.9507 15.8213 0.0258523
17.5219 14.4028 2
16.0257 12.8282 3.9722
18.9874 13.1369 0.0254321
17.6403 11.4688 2
16.2044 9.6644 3.98496
19.346 10.2444 0.0228234
18.0494 8.34409 2
16.6661 6.31991 4
18.75 5.02404 2
19.9933 7.14719 0.0114341
20.9142 3.86727 0
28.2939 34.838 3.90281
29.8259 35.1657 2
31.353 35.6408 0.304142
16.8595 21.448 3.9669
21.8148 17.9166 0.0198127
19.3113 18.4597 0.0430187
20.9692 19.4489 2
18.1276 20.01 2
19.9321 21.6628 3.97153
22.3863 19.9794 0.0354912
24.71 21.4879 0.0137298
22.536 21.8283 2
24.9499 23.2409 2
23.2156 24.7056 3.97299
25.1762 28.6371 3.98241
25.8868 26.045 2
26.6823 23.8004 0.0211271
27.024 31.8414 3.98072
29.1395 32.47 2
30.7832 33.1415 0.147051
30.6358 29.7552 0.0681492
27.6395 29.225 2
28.2966 26.6606 0.00425922
25.59 36.854 3.97065
27.7474 37.3653 2
29.4258 37.5026 0.142895
27.9691 44.7145 0.0277298
27.6358 40.5564 0.0638693
26.0184 43.0706 2
24.8769 39.453 2
23.7862 41.8006 3.9825
22.618 38.5226 3.9788
24.6783 45.0247 0.0211621
22.5827 43.7957 2
20.3937 42.806 3.9758
21.4621 45.7562 0.0220598
19.5278 44.8594 2
17.4437 44.2931 3.976
18.7742 46.6213 0.0231094
17.0446 46.1155 2
15.2036 46.0128 3.97607
16.6943 47.6193 0.0234167
15.2481 47.5911 2
13.5515 47.9492 3.97525
15.4856 48.9378 0.0242826
14.0252 49.4831 2
12.2729 50.2092 3.96992
14.7157 50.9185 0.0289514
13.0443 51.8267 2
11.2068 52.8124 3.96512
10.334 55.7043 3.96618
12.2088 54.4996 2
13.972 53.3836 0.0340239
9.70342 58.8465 3.97512
11.5437 57.4472 2
13.304 56.1399 0.0371752
9.30605 62.2254 4
11.1351 60.6194 2
12.8564 59.1108 0.0323094
10.9835 64.0165 2
12.6819 62.2972 0.0229179
12.7746 65.6939 0
15.2672 20.2397 3.96341
16.4827 18.7001 2
14.7692 17.3345 3.96394
17.7015 17.1969 0.033767
16.1186 15.8132 2
14.4894 14.3182 3.9685
17.5228 14.4056 0.0289535
16.0247 12.8239 2
14.4472 11.1162 3.98228
17.642 11.464 0.0254632
16.2006 9.66895 2
14.6715 7.74927 4
18.0535 8.34028 0.0133858
16.6661 6.31988 2
18.75 5.0241 0
26.2548 34.3412 3.97853
28.275 34.8449 2
29.9002 35.1953 0.138726
18.0998 22.4087 3.97337
15.757 22.9924 3.96996
16.8598 21.4476 2
20.9715 19.4513 0.0360877
18.1305 20.0123 0.03856
19.9296 21.66 2
20.0369 24.4968 3.97206
22.5397 21.8224 0.0179315
24.954 23.241 0.0259737
23.2112 24.7049 2
22.5382 27.9628 3.97186
24.587 31.3254 3.97993
25.1806 28.6307 2
25.8954 26.0424 0.0209727
27.0017 31.8063 2
29.1718 32.4894 0.0949559
27.6285 29.2452 -0.0138087
23.3436 36.2889 3.98322
25.5738 36.8535 2
27.7628 37.3566 0.0908012
26.0394 43.0497 0.0110469
24.8977 39.448 0.0267175
23.7692 41.8007 2
22.6079 38.5203 2
21.4777 40.6165 3.97521
20.8399 37.8037 3.97716
22.5835 43.7955 0.0229512
20.3926 42.8073 2
17.9185 42.0366 3.9759
19.5272 44.8589 0.0234191
17.444 44.2936 2
15.2499 44.1295 3.97583
17.0435 46.1155 0.0234929
15.2047 46.0124 2
13.2494 46.2386 3.97594
15.2462 47.5921 0.0237904
13.5532 47.9485 2
11.6606 48.5089 3.97176
14.0236 49.4839 0.0264739
12.2743 50.2085 2
10.3371 51.0587 3.96615
13.0435 51.8273 0.031887
11.2075 52.8118 2
9.2428 53.8853 3.96594
8.38696 56.9803 3.97589
10.3347 55.7032 2
12.2085 54.4999 0.0360825
7.74927 60.3285 4
9.70215 58.8422 2
11.5429 57.4479 0.0334608
9.306 62.2255 2
11.1368 60.6235 0.0241512
10.9835 64.0165 0
14.0983 21.804 3.9663
15.2658 20.239 2
13.489 18.9307 3.96363
16.482 18.7005 0.0384881
14.7699 17.3332 2
13.0343 15.9055 3.97022
16.1181 15.8151 0.0336576
14.4899 14.3158 2
12.7848 12.6914 3.97961
16.0257 12.8282 0.0277953
14.4443 11.1224 2
12.7746 9.30605 4
16.2044 9.6644 0.0150393
14.6715 7.74924 2
16.6661 6.31991 0
23.9304 33.8763 3.98218
26.2335 34.3345 2
28.2939 34.838 0.0971856
17.9671 24.1405 3.97175
18.1072 22.4091 2
14.5973 24.5246 3.97179
15.7593 22.9925 2
16.8595 21.448 0.0331
19.544 27.3315 3.97419
19.9321 21.6628 0.0284747
20.0341 24.4965 2
21.9007 30.7968 3.97496
23.2156 24.7056 0.0270072
22.5385 27.9643 2
24.5587 31.3208 2
25.1762 28.6371 0.0175915
27.024 31.8414 0.0192816
20.9638 35.9636 3.97656
23.3445 36.2897 2
25.59 36.854 0.0293466
23.7862 41.8006 0.0175046
22.618 38.5226 0.0211969
21.482 40.6176 2
20.8404 37.8018 2
18.6726 38.9933 3.97704
20.3937 42.806 0.0241974
17.9177 42.037 2
15.2357 41.8729 3.97625
17.4437 44.2931 0.0239984
15.25 44.1296 2
13.0126 44.3402 3.97611
15.2036 46.0128 0.0239268
13.251 46.2379 2
11.1772 46.6966 3.9734
13.5515 47.9492 0.0247475
11.6624 48.5082 2
9.60683 49.2204 3.96696
12.2729 50.2092 0.0300762
10.3376 51.058 2
8.27545 51.9998 3.96577
11.2068 52.8124 0.0348757
9.24342 53.8842 2
7.19597 55.0317 3.97687
6.31991 58.3339 4
8.38603 56.9763 2
10.334 55.7043 0.0338205
7.74924 60.3285 2
9.70342 58.8465 0.0248776
9.30605 62.2254 0
13.4663 25.4232 3.97511
13.0006 23.3323 3.96919
14.0975 21.8035 2
12.2969 20.5787 3.96419
15.2672 20.2397 0.036589
13.4893 18.9297 2
11.6663 17.5797 3.9685
14.7692 17.3345 0.0360565
13.0371 15.9048 2
11.223 14.3778 3.9756
14.4894 14.3182 0.0315021
12.7824 12.6966 2
10.9835 10.9835 4
14.4472 11.1162 0.0177162
12.7745 9.306 2
14.6715 7.74927 0
21.3213 33.4815 3.97598
23.9332 33.8637 2
26.2548 34.3412 0.0214745
16.3009 26.4965 3.9735
17.9722 24.141 2
18.0998 22.4087 0.026633
14.5967 24.5248 2
15.757 22.9924 0.0300435
18.9432 30.297 3.97498
19.5445 27.3318 2
20.0369 24.4968 0.0279402
21.9148 30.7974 2
22.5382 27.9628 0.0281374
24.587 31.3254 0.0200733
18.2822 35.9938 3.97758
20.966 35.964 2
23.3436 36.2889 0.0167775
21.4777 40.6165 0.0247949
20.8399 37.8037 0.0228423
18.6706 38.9923 2
14.7349 39.1638 3.97709
17.9185 42.0366 0.0241001
15.2351 41.8726 2
12.7092 42.241 3.97641
15.2499 44.1295 0.0241676
13.0138 44.3397 2
10.7616 44.7715 3.975
13.2494 46.2386 0.0240609
11.1793 46.6959 2
8.99295 47.3018 3.9678
11.6606 48.5089 0.0282441
9.60726 49.2198 2
7.44201 50.0337 3.96564
10.3371 51.0587 0.0338532
8.2759 51.9987 2
6.13658 53.0073 3.97729
9.2428 53.8853 0.0340598
7.19541 55.0285 2
5.0241 56.25 4
6.31988 58.3339 2
8.38696 56.9803 0.0241109
7.74927 60.3285 0
13.7408 26.8784 3.97554
12.1112 24.8334 3.97153
13.4652 25.4232 2
11.2231 22.2624 3.96545
13.0009 23.3324 2
14.0983 21.804 0.0337028
12.2976 20.5781 2
10.3988 19.3291 3.96716
13.489 18.9307 0.0363717
11.6687 17.5795 2
9.76356 16.1609 3.97545
13.0343 15.9055 0.0297792
11.2214 14.3833 2
9.30607 12.7746 4
12.7848 12.6914 0.0203927
10.9835 10.9835 2
12.7746 9.30605 0
18.444 33.1809 3.97637
21.3212 33.4843 2
23.9304 33.8763 0.0178227
15.9242 29.7294 3.97555
16.3011 26.4968 2
17.9671 24.1405 0.0282451
14.5973 24.5246 0.028213
18.9417 30.2973 2
19.544 27.3315 0.0258106
21.9007 30.7968 0.0250396
15.364 36.0356 3.97724
18.2815 35.9942 2
20.9638 35.9636 0.0234389
12.9405 37.8298 3.97719
18.6726 38.9933 0.0229557
14.7344 39.1637 2
12.2124 40.1228 3.97687
15.2357 41.8729 0.0237474
12.7102 42.2406 2
10.3601 42.7548 3.97588
13.0126 44.3402 0.0238853
10.7636 44.7708 2
8.47045 45.3067 3.96856
11.1772 46.6966 0.026598
8.99304 47.3013 2
6.73275 47.9991 3.96577
9.60683 49.2204 0.0330357
7.44235 50.0327 2
5.21329 50.9108 3.97705
8.27545 51.9998 0.0342257
6.13633 53.0051 2
3.86727 54.0858 4
7.19597 55.0317 0.0231313
5.02404 56.25 2
6.31991 58.3339 0
13.2263 29.092 3.97551
11.5572 26.5301 3.97212
13.7399 26.8785 2
10.2806 23.9912 3.96699
12.1129 24.8338 2
13.4663 25.4232 0.0248902
9.25147 21.1435 3.96639
11.2231 22.2621 2
13.0006 23.3323 0.0308104
12.2969 20.5787 0.0358076
10.4008 19.3292 2
8.4195 18.0315 3.97548
11.6663 17.5797 0.0315037
9.76244 16.166 2
7.74928 14.6715 4
11.223 14.3778 0.0244008
9.30602 12.7745 2
10.9835 10.9835 0
14.9117 32.9174 3.9767
18.4425 33.1801 2
21.3213 33.4815 0.0240228
15.9251 29.7297 2
16.3009 26.4965 0.0264962
18.9432 30.297 0.0250235
13.2378 36.2216 3.97683
15.3631 36.0354 2
18.2822 35.9938 0.0224159
12.941 37.8296 2
11.545 38.3069 3.97721
14.7349 39.1638 0.0229082
12.2141 40.1226 2
9.93912 40.7405 3.97648
12.7092 42.241 0.023592
10.3632 42.7541 2
8.01769 43.2592 3.96903
10.7616 44.7715 0.025
8.47192 45.3061 2
6.13851 45.9043 3.96597
8.99295 47.3018 0.0322016
6.73312 47.9983 2
4.42459 48.7515 3.97666
7.44201 50.0337 0.034361
5.21325 50.9094 2
2.85457 51.8506 4
6.13658 53.0073 0.0227068
3.86727 54.0858 2
5.0241 56.25 0
12.3573 31.3012 3.97626
10.9734 28.4522 3.97279
13.2266 29.0923 2
9.49811 25.8185 3.96773
11.5586 26.5305 2
13.7408 26.8784 0.0244615
8.23805 23.0258 3.96614
10.2811 23.9912 2
12.1112 24.8334 0.0284704
7.20174 19.9804 3.97647
9.25299 21.1439 2
11.2231 22.2624 0.0345471
10.3988 19.3291 0.0328356
8.41898 18.036 2
6.31992 16.6661 4
9.76356 16.1609 0.0245495
7.74926 14.6714 2
9.30607 12.7746 0
12.3951 34.3223 3.97668
14.9115 32.9181 2
18.444 33.1809 0.0236269
15.9242 29.7294 0.0244549
11.0838 36.6194 3.97696
13.238 36.2215 2
15.364 36.0356 0.0227598
12.9405 37.8298 0.0228101
11.5472 38.3065 2
9.52217 38.8186 3.97671
12.2124 40.1228 0.023128
9.94205 40.74 2
7.62536 41.2044 3.96941
10.3601 42.7548 0.0241216
8.01767 43.2587 2
5.64999 43.7673 3.96637
8.47045 45.3067 0.0314379
6.13879 45.9036 2
3.77 46.5369 3.97654
6.73275 47.9991 0.034234
4.42482 48.7506 2
1.99014 49.554 4
5.21329 50.9108 0.0229452
2.85451 51.8506 2
3.86727 54.0858 0
11.1738 32.9498 3.97682
10.2807 30.4117 3.97382
12.3584 31.3017 2
8.80752 27.7494 3.96819
10.975 28.4526 2
13.2263 29.092 0.0244913
7.36306 24.9838 3.96593
9.49828 25.8186 2
11.5572 26.5301 0.027877
6.11872 22.0028 3.9774
8.23899 23.0262 2
10.2806 23.9912 0.0330096
5.02411 18.75 4
7.20164 19.9836 2
9.25147 21.1435 0.0336078
8.4195 18.0315 0.0245244
6.3199 16.6661 2
7.74928 14.6715 0
10.6743 35.0154 3.97671
12.3956 34.3226 2
14.9117 32.9174 0.0233036
9.18265 36.9876 3.9766
11.0862 36.6194 2
13.2378 36.2216 0.0231709
11.545 38.3069 0.0227868
9.52509 38.8183 2
7.30079 39.179 3.96984
9.93912 40.7405 0.0235217
7.62622 41.2041 2
5.26471 41.6133 3.9668
8.01769 43.2592 0.0309739
5.65025 43.7668 2
3.24754 44.2817 3.97693
6.13851 45.9043 0.0340339
3.77032 46.5363 2
1.27781 47.2057 4
4.42459 48.7515 0.0233375
1.99012 49.554 2
2.85457 51.8506 0
10.3109 33.9017 3.97627
9.5591 32.1756 3.97484
11.1761 32.9503 2
8.14994 29.7092 3.96873
10.2829 30.4122 2
12.3573 31.3012 0.0237356
6.60603 27.0094 3.96606
8.80775 27.7496 2
10.9734 28.4522 0.0272088
5.17404 24.0951 3.97734
7.36362 24.9842 2
9.49811 25.8185 0.0322654
3.86728 20.9142 4
6.11882 22.0046 2
8.23805 23.0258 0.0338643
5.02406 18.75 2
7.20174 19.9804 0.0235311
6.31992 16.6661 0
8.99961 35.2882 3.9765
10.6768 35.0154 2
12.3951 34.3223 0.0233227
7.07694 37.2063 3.96997
9.18552 36.9875 2
11.0838 36.6194 0.0230439
9.52217 38.8186 0.0232874
7.30217 39.1788 2
4.99207 39.4671 3.96721
7.62536 41.2044 0.0305854
5.26536 41.6129 2
2.8578 42.0019 3.9773
5.64999 43.7673 0.0336341
3.24773 44.2811 2
0.720592 44.8159 4
3.77 46.5369 0.023458
1.27778 47.2057 2
1.99014 49.554 0
9.04197 33.712 3.97617
10.3139 33.9019 2
7.58067 31.6191 3.96923
9.56173 32.176 2
11.1738 32.9498 0.0231782
5.9505 29.0704 3.96647
8.15009 29.7094 2
10.2807 30.4117 0.0261778
4.36149 26.2474 3.97705
6.6064 27.0098 2
8.80752 27.7494 0.0318074
2.85458 23.1494 4
5.17426 24.0958 2
7.36306 24.9838 0.0340724
3.86728 20.9142 2
6.11872 22.0028 0.0226017
5.02411 18.75 0
7.02453 35.3095 3.96993
9.0025 35.2883 2
10.6743 35.0154 0.0232919
4.84219 37.3399 3.96753
7.07861 37.2062 2
9.18265 36.9876 0.0234039
7.30079 39.179 0.0301593
4.99271 39.4669 2
2.60573 39.7136 3.97753
5.26471 41.6133 0.0332042
2.8583 42.0017 2
0.320823 42.3947 4
3.24754 44.2817 0.0230704
0.720551 44.8159 2
1.27781 47.2057 0
7.18878 33.4675 3.96975
9.04465 33.7122 2
10.3109 33.9017 0.0237288
5.4209 31.1343 3.96696
7.58133 31.6193 2
9.5591 32.1756 0.02516
3.68291 28.4434 3.977
5.95086 29.0708 2
8.14994 29.7092 0.0312672
1.99015 25.446 4
4.36179 26.2477 2
6.60603 27.0094 0.0339431
2.85453 23.1494 2
5.17404 24.0951 0.022665
3.86728 20.9142 0
4.8565 35.252 3.96744
7.02543 35.3095 2
8.99961 35.2882 0.0234998
2.49717 37.4282 3.97832
4.84232 37.34 2
7.07694 37.2063 0.0300298
4.99207 39.4671 0.0327933
2.60635 39.7138 2
0.080333 39.9526 4
2.8578 42.0019 0.0226971
0.320817 42.3947 2
0.720592 44.8159 0
5.04993 33.1908 3.96733
7.18972 33.4676 2
9.04197 33.712 0.0238284
3.14701 30.6662 3.9773
5.42124 31.1347 2
7.58067 31.6191 0.0307703
1.27793 27.7943 4
3.68332 28.4436 2
5.9505 29.0704 0.0335268
1.99013 25.446 2
4.36149 26.2474 0.022955
2.85458 23.1494 0
2.54927 35.1589 3.97803
4.85725 35.2522 2
7.02453 35.3095 0.0300733
0 37.5 4
2.4973 37.4286 2
4.84219 37.3399 0.0324673
2.60573 39.7136 0.0224681
0.0802903 39.9526 2
0.320823 42.3947 0
2.76693 32.9058 3.97812
5.05024 33.1911 2
7.18878 33.4675 0.030255
0.721173 30.1842 4
3.14744 30.6666 2
5.4209 31.1343 0.0330381
1.27779 27.7943 2
3.68291 28.4434 0.0229998
1.99015 25.446 0
0.0806499 35.0474 4
2.54998 35.1593 2
4.8565 35.252 0.0325644
0 37.5 2
2.49717 37.4282 0.0216843
0.080333 39.9526 0
0.32156 32.6054 4
2.76716 32.9063 2
5.04993 33.1908 0.0326662
0.72056 30.1841 2
3.14701 30.6662 0.0226986
1.27793 27.7943 0
0.0802889 35.0474 2
2.54927 35.1589 0.0219711
0 37.5 0
0.320817 32.6053 2
2.76693 32.9058 0.0218778
0.721173 30.1842 0
0.0806499 35.0474 0
0.32156 32.6054 0
CELLS 1910 17190
8 18 6 25 56 2 0 5 16
8 57 23 6 18 17 4 0 2
8 78 36 9 29 31 11 1 7
8 31 11 1 7 79 37 10 30
8 110 57 18 50 48 17 2 14
8 50 18 56 111 14 2 16 49
8 116 62 22 55 52 20 3 15
8 56 25 67 118 16 5 24 53
8 119 63 23 57 54 21 4 17
8 55 22 63 119 15 3 21 54
8 58 26 68 121 18 6 25 56
8 122 65 26 58 57 23 6 18
8 73 31 7 27 142 79 30 71
8 143 78 29 72 73 31 7 27
8 83 147 76 34 32 74 28 8
8 84 148 78 36 33 75 29 9
8 76 34 8 28 148 84 33 75
8 37 79 150 86 10 30 77 35
8 151 87 36 78 80 38 11 31
8 80 38 11 31 152 88 37 79
8 175 100 42 94 96 44 12 40
8 44 96 176 101 12 40 95 43
8 101 176 98 46 43 95 41 13
8 46 98 178 103 13 41 97 45
8 178 103 45 97 147 83 32 74
8 189 116 55 109 106 52 15 47
8 111 56 118 191 49 16 53 107
8 192 119 57 110 108 54 17 48
8 109 55 119 192 47 15 54 108
8 194 122 58 112 110 57 18 50
8 112 58 121 195 50 18 56 111
8 115 61 19 51 197 124 59 113
8 115 61 125 198 51 19 60 114
8 198 125 62 116 114 60 20 52
8 200 127 64 120 116 62 22 55
8 118 67 132 202 53 24 66 117
8 121 68 133 203 56 25 67 118
8 120 64 128 204 55 22 63 119
8 204 128 65 122 119 63 23 57
8 206 134 68 121 123 69 26 58
8 123 69 26 58 207 131 65 122
8 226 147 74 138 140 76 28 70
8 229 148 75 139 143 78 29 72
8 140 76 28 70 229 148 75 139
8 142 79 30 71 231 150 77 141
8 144 80 31 73 232 152 79 142
8 233 151 78 143 144 80 31 73
8 150 86 35 77 235 154 81 145
8 235 154 81 145 146 82 39 91
8 146 82 39 91 236 155 90 165
8 238 157 83 147 149 85 34 76
8 239 158 84 148 151 87 36 78
8 149 85 34 76 239 158 84 148
8 152 88 37 79 241 160 86 150
8 242 161 87 151 153 89 38 80
8 153 89 38 80 243 162 88 152
8 171 98 41 92 265 178 97 169
8 265 178 97 169 226 147 74 138
8 172 96 40 93 266 176 95 170
8 266 176 95 170 171 98 41 92
8 269 175 94 173 172 96 40 93
8 271 180 99 174 175 100 42 94
8 197 124 59 113 271 180 99 174
8 272 181 100 175 177 102 44 96
8 273 182 101 176 179 104 46 98
8 177 102 44 96 273 182 101 176
8 179 104 46 98 275 184 103 178
8 275 184 103 178 238 157 83 147
8 188 115 51 105 283 197 113 186
8 188 115 198 284 105 51 114 187
8 284 198 116 189 187 114 52 106
8 286 200 120 193 189 116 55 109
8 191 118 202 288 107 53 117 190
8 195 121 203 289 111 56 118 191
8 193 120 204 290 109 55 119 192
8 290 204 122 194 192 119 57 110
8 196 123 58 112 292 207 122 194
8 293 206 121 195 196 123 58 112
8 199 126 61 115 297 211 124 197
8 298 212 127 200 198 125 62 116
8 199 126 212 298 115 61 125 198
8 205 129 64 120 300 214 127 200
8 301 217 130 201 202 132 66 117
8 209 136 168 264 301 217 130 201
8 302 219 132 202 203 133 67 118
8 303 220 133 203 206 134 68 121
8 205 129 215 304 120 64 128 204
8 304 215 131 207 204 128 65 122
8 306 221 134 206 208 135 69 123
8 208 135 69 123 307 218 131 207
8 210 137 167 263 309 223 136 209
8 328 238 147 226 230 149 76 140
8 228 146 91 166 329 236 165 260
8 231 150 77 141 330 235 145 227
8 330 235 145 227 228 146 91 166
8 332 239 148 229 233 151 78 143
8 230 149 76 140 332 239 148 229
8 232 152 79 142 334 241 150 231
8 234 153 80 144 335 243 152 232
8 336 242 151 233 234 153 80 144
8 236 155 90 165 338 245 164 259
8 241 160 86 150 339 246 154 235
8 339 246 154 235 237 156 82 146
8 237 156 82 146 340 247 155 236
8 342 249 157 238 240 159 85 149
8 343 250 158 239 242 161 87 151
8 240 159 85 149 343 250 158 239
8 243 162 88 152 345 252 160 241
8 244 163 253 346 153 89 161 242
8 244 163 89 153 347 254 162 243
8 311 224 261 371 210 137 167 263
8 263 167 262 372 209 136 168 264
8 267 179 98 171 375 275 178 265
8 375 275 178 265 328 238 147 226
8 376 273 176 266 267 179 98 171
8 268 177 96 172 376 273 176 266
8 379 272 175 269 268 177 96 172
8 380 271 174 270 269 175 94 173
8 283 197 113 186 380 271 174 270
8 381 277 180 271 272 181 100 175
8 297 211 124 197 381 277 180 271
8 382 278 181 272 274 183 102 177
8 274 183 102 177 383 279 182 273
8 383 279 182 273 276 185 104 179
8 385 281 184 275 342 249 157 238
8 276 185 104 179 385 281 184 275
8 285 199 115 188 393 297 197 283
8 394 298 200 286 284 198 116 189
8 285 199 298 394 188 115 198 284
8 291 205 120 193 396 300 200 286
8 397 301 201 287 288 202 117 190
8 295 209 264 374 397 301 201 287
8 398 302 202 288 289 203 118 191
8 399 303 203 289 293 206 121 195
8 291 205 304 400 193 120 204 290
8 400 304 207 292 290 204 122 194
8 294 208 123 196 402 307 207 292
8 403 306 206 293 294 208 123 196
8 296 210 263 373 405 309 209 295
8 408 312 213 299 297 211 126 199
8 299 213 313 409 199 126 212 298
8 409 313 214 300 298 212 127 200
8 305 216 129 205 411 315 214 300
8 412 318 217 301 302 219 132 202
8 309 223 136 209 412 318 217 301
8 413 320 219 302 303 220 133 203
8 306 221 321 414 206 134 220 303
8 307 218 131 207 415 316 215 304
8 305 216 316 415 205 129 215 304
8 417 322 221 306 308 222 135 208
8 308 222 135 208 418 319 218 307
8 310 225 137 210 420 325 223 309
8 423 326 224 311 310 225 137 210
8 329 236 165 260 441 338 259 368
8 442 342 238 328 333 240 149 230
8 331 237 146 228 443 340 236 329
8 334 241 150 231 444 339 235 330
8 444 339 235 330 331 237 146 228
8 446 343 239 332 336 242 151 233
8 333 240 149 230 446 343 239 332
8 335 243 152 232 448 345 241 334
8 337 244 153 234 449 347 243 335
8 337 244 346 450 234 153 242 336
8 338 245 164 259 452 349 258 367
8 340 247 155 236 453 350 245 338
8 345 252 160 241 454 351 246 339
8 454 351 246 339 341 248 156 237
8 341 248 156 237 455 352 247 340
8 240 159 251 344 342 249 354 457
8 242 161 253 346 343 250 355 458
8 343 250 355 458 240 159 251 344
8 347 254 162 243 460 357 252 345
8 348 255 358 461 244 163 253 346
8 348 255 163 244 462 359 254 347
8 473 360 257 365 363 256 364 482
8 452 349 258 367 365 257 366 485
8 422 324 369 488 311 224 261 371
8 371 261 370 490 263 167 262 372
8 407 311 371 491 296 210 263 373
8 373 263 372 492 295 209 264 374
8 493 385 275 375 442 342 238 328
8 377 276 179 267 493 385 275 375
8 378 274 177 268 494 383 273 376
8 494 383 273 376 377 276 179 267
8 497 382 272 379 378 274 177 268
8 498 381 271 380 379 272 175 269
8 393 297 197 283 498 381 271 380
8 499 387 277 381 382 278 181 272
8 408 312 211 297 499 387 277 381
8 500 388 278 382 384 280 183 274
8 501 389 279 383 386 282 185 276
8 384 280 183 274 501 389 279 383
8 386 282 185 276 503 391 281 385
8 503 391 281 385 457 354 249 342
8 511 408 299 395 393 297 199 285
8 395 299 409 512 285 199 298 394
8 512 409 300 396 394 298 200 286
8 401 305 205 291 514 411 300 396
8 515 412 301 397 398 302 202 288
8 405 309 209 295 515 412 301 397
8 516 413 302 398 399 303 203 289
8 403 306 414 517 293 206 303 399
8 402 307 207 292 518 415 304 400
8 401 305 415 518 291 205 304 400
8 404 308 208 294 520 418 307 402
8 521 417 306 403 404 308 208 294
8 406 310 210 296 523 420 309 405
8 526 423 311 407 406 310 210 296
8 410 314 213 299 527 424 312 408
8 528 425 315 411 409 313 214 300
8 410 314 425 528 299 213 313 409
8 416 317 216 305 530 427 315 411
8 531 430 318 412 413 320 219 302
8 420 325 223 309 531 430 318 412
8 532 432 320 413 414 321 220 303
8 417 322 433 533 306 221 321 414
8 418 319 218 307 534 428 316 415
8 416 317 428 534 305 216 316 415
8 419 323 434 536 308 222 322 417
8 419 323 222 308 537 431 319 418
8 421 327 225 310 539 438 325 420
8 421 327 439 541 310 225 326 423
8 543 437 324 422 423 326 224 311
8 441 338 259 368 559 452 367 486
8 443 340 236 329 560 453 338 441
8 333 240 344 447 442 342 457 561
8 445 341 237 331 562 455 340 443
8 448 345 241 334 563 454 339 444
8 563 454 339 444 445 341 237 331
8 336 242 346 450 446 343 458 565
8 446 343 458 565 333 240 344 447
8 449 347 243 335 567 460 345 448
8 451 348 244 337 568 462 347 449
8 451 348 461 569 337 244 346 450
8 570 463 349 452 473 360 257 365
8 453 350 245 338 570 463 349 452
8 455 352 247 340 571 464 350 453
8 460 357 252 345 572 465 351 454
8 572 465 351 454 456 353 248 341
8 456 353 248 341 573 466 352 455
8 344 251 356 459 457 354 468 575
8 458 355 469 576 344 251 356 459
8 346 253 358 461 458 355 469 576
8 462 359 254 347 578 471 357 460
8 348 255 359 462 461 358 472 579
8 591 474 360 473 475 361 256 363
8 475 361 256 363 594 477 362 479
8 363 256 364 482 479 362 480 603
8 590 473 365 484 481 363 482 605
8 482 364 257 365 606 483 366 485
8 559 452 367 486 484 365 485 607
8 542 436 487 609 422 324 369 488
8 525 422 488 611 407 311 371 491
8 488 369 489 612 371 261 370 490
8 491 371 490 613 373 263 372 492
8 495 386 276 377 614 503 385 493
8 614 503 385 493 561 457 342 442
8 615 501 383 494 495 386 276 377
8 496 384 274 378 615 501 383 494
8 618 500 382 497 496 384 274 378
8 619 499 381 498 497 382 272 379
8 511 408 297 393 619 499 381 498
8 620 505 387 499 500 388 278 382
8 527 424 312 408 620 505 387 499
8 502 390 506 621 384 280 388 500
8 622 507 389 501 504 392 282 386
8 502 390 280 384 622 507 389 501
8 504 392 282 386 624 509 391 503
8 624 509 391 503 575 468 354 457
8 513 410 299 395 630 527 408 511
8 631 528 411 514 512 409 300 396
8 513 410 528 631 395 299 409 512
8 519 416 305 401 633 530 411 514
8 634 531 412 515 516 413 302 398
8 523 420 309 405 634 531 412 515
8 635 532 413 516 517 414 303 399
8 521 417 533 636 403 306 414 517
8 520 418 307 402 637 534 415 518
8 519 416 534 637 401 305 415 518
8 522 419 308 404 639 537 418 520
8 522 419 536 640 404 308 417 521
8 524 421 310 406 642 539 420 523
8 524 421 541 644 406 310 423 526
8 646 543 422 525 526 423 311 407
8 529 426 314 410 647 544 424 527
8 528 425 545 648 411 315 427 530
8 529 426 545 648 410 314 425 528
8 535 429 317 416 649 546 427 530
8 650 548 430 531 532 432 320 413
8 539 438 325 420 650 548 430 531
8 533 433 550 651 414 321 432 532
8 536 434 551 652 417 322 433 533
8 537 431 319 418 653 547 428 534
8 535 429 547 653 416 317 428 534
8 538 435 552 654 419 323 434 536
8 538 435 323 419 655 549 431 537
8 540 440 327 421 657 556 438 539
8 540 440 557 659 421 327 439 541
8 541 439 555 660 423 326 437 543
8 661 554 436 542 543 437 324 422
8 676 570 452 559 590 473 365 484
8 560 453 338 441 676 570 452 559
8 562 455 340 443 677 571 453 560
8 447 344 459 566 561 457 575 678
8 564 456 341 445 679 573 455 562
8 567 460 345 448 680 572 454 563
8 680 572 454 563 564 456 341 445
8 565 458 576 682 447 344 459 566
8 450 346 461 569 565 458 576 682
8 568 462 347 449 684 578 460 567
8 451 348 462 568 569 461 579 685
8 686 580 463 570 591 474 360 473
8 571 464 350 453 686 580 463 570
8 573 466 352 455 687 581 464 571
8 572 465 582 688 460 357 471 578
8 574 467 582 688 456 353 465 572
8 574 467 353 456 689 583 466 573
8 459 356 470 577 575 468 585 691
8 576 469 586 692 459 356 470 577
8 461 358 472 579 576 469 586 692
8 462 359 471 578 579 472 588 694
8 704 591 473 590 593 475 363 481
8 595 476 592 705 475 361 474 591
8 593 475 363 481 707 594 479 602
8 594 477 362 479 709 598 478 600
8 595 476 361 475 711 597 477 594
8 479 362 480 603 600 478 601 720
8 481 363 482 605 602 479 603 722
8 603 480 364 482 723 604 483 606
8 605 482 365 484 724 606 485 607
8 656 553 608 726 542 436 487 609
8 645 542 609 728 525 422 488 611
8 609 487 610 729 488 369 489 612
8 611 488 612 730 491 371 490 613
8 616 504 386 495 731 624 503 614
8 731 624 503 614 678 575 457 561
8 732 622 501 615 616 504 386 495
8 617 502 384 496 732 622 501 615
8 617 502 621 735 496 384 500 618
8 736 620 499 619 618 500 382 497
8 630 527 408 511 736 620 499 619
8 621 506 626 737 500 388 505 620
8 647 544 424 527 737 626 505 620
8 623 508 627 738 502 390 506 621
8 623 508 390 502 739 628 507 622
8 625 510 628 739 504 392 507 622
8 740 629 509 624 691 585 468 575
8 625 510 392 504 740 629 509 624
8 632 529 410 513 744 647 527 630
8 631 528 648 745 514 411 530 633
8 632 529 648 745 513 410 528 631
8 638 535 416 519 746 649 530 633
8 747 650 531 634 635 532 413 516
8 642 539 420 523 747 650 531 634
8 636 533 651 748 517 414 532 635
8 640 536 652 749 521 417 533 636
8 639 537 418 520 750 653 534 637
8 638 535 653 750 519 416 534 637
8 641 538 419 522 751 655 537 639
8 641 538 654 752 522 419 536 640
8 643 540 421 524 753 657 539 642
8 643 540 659 755 524 421 541 644
8 644 541 660 757 526 423 543 646
8 758 661 542 645 646 543 422 525
8 529 426 544 647 648 545 662 759
8 530 427 545 648 649 546 663 760
8 535 429 546 649 653 547 664 761
8 762 666 548 650 651 550 432 532
8 657 556 438 539 762 666 548 650
8 652 551 668 763 533 433 550 651
8 654 552 669 764 536 434 551 652
8 655 549 431 537 765 665 547 653
8 538 435 549 655 654 552 667 766
8 661 554 671 768 542 436 553 656
8 658 558 440 540 769 674 556 657
8 658 558 675 770 540 440 557 659
8 659 557 673 771 541 439 555 660
8 660 555 672 772 543 437 554 661
8 788 686 570 676 704 591 473 590
8 677 571 453 560 788 686 570 676
8 679 573 455 562 789 687 571 677
8 566 459 577 683 678 575 691 790
8 681 574 456 564 791 689 573 679
8 680 572 688 792 567 460 578 684
8 681 574 688 792 564 456 572 680
8 682 576 692 794 566 459 577 683
8 569 461 579 685 682 576 692 794
8 568 462 578 684 685 579 694 796
8 687 581 464 571 798 696 580 686
8 798 696 580 686 705 592 474 591
8 689 583 466 573 799 697 581 687
8 688 582 698 800 578 471 588 694
8 690 584 698 800 574 467 582 688
8 690 584 467 574 801 699 583 689
8 693 587 701 803 577 470 585 691
8 693 587 470 577 804 702 586 692
8 695 589 702 804 579 472 586 692
8 695 589 472 579 805 703 588 694
8 708 595 705 813 593 475 591 704
8 710 596 706 814 595 476 592 705
8 707 594 479 602 816 709 600 719
8 708 595 475 593 817 711 594 707
8 709 598 478 600 819 715 599 717
8 711 597 477 594 820 714 598 709
8 710 596 476 595 822 713 597 711
8 600 478 601 720 717 599 718 832
8 602 479 603 722 719 600 720 834
8 720 601 480 603 835 721 604 723
8 722 603 482 605 836 723 606 724
8 767 670 725 839 656 553 608 726
8 756 656 726 841 645 542 609 728
8 726 608 727 842 609 487 610 729
8 728 609 729 843 611 488 612 730
8 844 740 624 731 790 691 575 678
8 733 625 504 616 844 740 624 731
8 734 623 502 617 845 739 622 732
8 733 625 739 845 616 504 622 732
8 734 623 738 846 617 502 621 735
8 735 621 737 847 618 500 620 736
8 744 647 527 630 847 737 620 736
8 621 506 627 738 737 626 741 848
8 647 544 626 737 759 662 741 848
8 623 508 628 739 738 627 742 849
8 740 629 585 691 850 743 700 802
8 625 510 629 740 739 628 743 850
8 632 529 647 744 745 648 759 854
8 633 530 648 745 746 649 760 855
8 638 535 649 746 750 653 761 856
8 857 762 650 747 748 651 532 635
8 753 657 539 642 857 762 650 747
8 749 652 763 858 636 533 651 748
8 752 654 764 859 640 536 652 749
8 751 655 537 639 860 765 653 750
8 641 538 655 751 752 654 766 861
8 754 658 540 643 862 769 657 753
8 754 658 770 863 643 540 659 755
8 755 659 771 864 644 541 660 757
8 758 661 768 866 645 542 656 756
8 757 660 772 867 646 543 661 758
8 759 662 773 868 648 545 663 760
8 649 546 663 760 761 664 774 871
8 765 665 547 653 872 775 664 761
8 873 777 666 762 763 668 550 651
8 769 674 556 657 873 777 666 762
8 764 669 779 874 652 551 668 763
8 654 552 667 766 764 669 778 875
8 655 549 665 765 766 667 776 876
8 768 671 782 877 656 553 670 767
8 772 672 783 878 661 554 671 768
8 658 558 674 769 770 675 786 879
8 659 557 675 770 771 673 785 881
8 882 784 672 772 771 673 555 660
8 789 687 571 677 897 798 686 788
8 897 798 686 788 813 705 591 704
8 791 689 573 679 898 799 687 789
8 795 693 803 900 683 577 691 790
8 793 690 574 681 901 801 689 791
8 792 688 800 902 684 578 694 796
8 793 690 800 902 681 574 688 792
8 795 693 577 683 903 804 692 794
8 797 695 804 903 685 579 692 794
8 797 695 579 685 904 805 694 796
8 905 806 697 799 798 696 581 687
8 814 706 806 905 705 592 696 798
8 689 583 697 799 801 699 808 907
8 800 698 809 908 694 588 703 805
8 690 584 699 801 800 698 809 908
8 803 701 810 909 691 585 700 802
8 693 587 702 804 803 701 811 910
8 695 589 703 805 804 702 812 911
8 818 710 814 919 708 595 705 813
8 821 712 815 920 710 596 706 814
8 816 709 600 719 922 819 717 831
8 817 711 594 707 923 820 709 816
8 818 710 595 708 924 822 711 817
8 819 715 599 717 926 827 716 829
8 820 714 598 709 927 826 715 819
8 929 825 713 822 820 714 597 711
8 821 712 596 710 930 824 713 822
8 717 599 718 832 829 716 830 942
8 719 600 720 834 831 717 832 944
8 832 718 601 720 945 833 721 835
8 834 720 603 722 946 835 723 836
8 869 780 838 950 767 670 725 839
8 865 767 839 952 756 656 726 841
8 839 725 840 953 726 608 727 842
8 841 726 842 954 728 609 729 843
8 844 740 691 790 955 850 802 899
8 733 625 740 844 845 739 850 955
8 734 623 739 845 846 738 849 956
8 735 621 738 846 847 737 848 957
8 744 647 737 847 854 759 848 957
8 738 627 742 849 848 741 851 958
8 848 741 851 958 759 662 773 868
8 850 743 700 802 959 852 807 906
8 849 742 628 739 959 852 743 850
8 854 759 868 965 745 648 760 855
8 746 649 760 855 856 761 871 966
8 860 765 653 750 967 872 761 856
8 968 873 762 857 858 763 651 748
8 862 769 657 753 968 873 762 857
8 859 764 874 969 749 652 763 858
8 752 654 766 861 859 764 875 970
8 751 655 765 860 861 766 876 971
8 754 658 769 862 863 770 879 972
8 755 659 770 863 864 771 881 974
8 976 882 772 867 864 771 660 757
8 866 768 877 977 756 656 767 865
8 867 772 878 978 758 661 768 866
8 760 663 773 868 871 774 883 980
8 870 781 837 948 982 890 780 869
8 982 890 780 869 877 782 670 767
8 761 664 774 871 872 775 884 984
8 876 776 665 765 985 885 775 872
8 873 777 668 763 986 887 779 874
8 769 674 777 873 879 786 887 986
8 764 669 778 875 874 779 888 987
8 766 667 776 876 875 778 886 988
8 878 783 892 989 768 671 782 877
8 878 783 672 772 990 893 784 882
8 880 787 675 770 991 896 786 879
8 880 787 895 992 770 675 785 881
8 881 785 894 993 771 673 784 882
8 1006 905 799 898 897 798 687 789
8 919 814 905 1006 813 705 798 897
8 791 689 799 898 901 801 907 1007
8 900 803 909 1009 790 691 802 899
8 795 693 804 903 900 803 910 1010
8 902 800 908 1011 796 694 805 904
8 793 690 801 901 902 800 908 1011
8 797 695 805 904 903 804 911 1012
8 799 697 806 905 907 808 912 1013
8 920 815 912 1013 814 706 806 905
8 802 700 810 909 906 807 913 1014
8 801 699 808 907 908 809 914 1015
8 805 703 809 908 911 812 915 1016
8 803 701 811 910 909 810 916 1017
8 911 812 917 1018 804 702 811 910
8 925 821 920 1030 818 710 814 919
8 928 823 921 1031 821 712 815 920
8 922 819 717 831 1033 926 829 941
8 923 820 709 816 1034 927 819 922
8 1035 929 822 924 923 820 711 817
8 925 821 710 818 1036 930 822 924
8 1038 933 825 929 927 826 714 820
8 926 827 716 829 1039 935 828 939
8 927 826 715 819 1040 934 827 926
8 928 823 712 821 1041 931 824 930
8 1042 932 824 930 929 825 713 822
8 829 716 830 942 939 828 940 1058
8 831 717 832 944 941 829 942 1060
8 942 830 718 832 1061 943 833 945
8 944 832 720 834 1062 945 835 946
8 981 889 947 1064 870 781 837 948
8 948 837 949 1067 869 780 838 950
8 975 869 950 1069 865 767 839 952
8 950 838 951 1070 839 725 840 953
8 952 839 953 1071 841 726 842 954
8 955 850 802 899 1072 959 906 1008
8 956 849 739 845 1072 959 850 955
8 846 738 849 956 957 848 958 1073
8 957 848 958 1073 854 759 868 965
8 849 742 852 959 958 851 961 1076
8 960 853 961 1076 906 807 852 959
8 958 851 961 1076 868 773 883 980
8 960 853 807 906 1077 963 913 1014
8 855 760 868 965 966 871 980 1085
8 856 761 871 966 967 872 984 1086
8 971 876 765 860 1087 985 872 967
8 968 873 763 858 1088 986 874 969
8 862 769 873 968 972 879 986 1088
8 859 764 875 970 969 874 987 1089
8 861 766 876 971 970 875 988 1090
8 973 880 770 863 1091 991 879 972
8 973 880 992 1092 863 770 881 974
8 974 881 993 1093 864 771 882 976
8 979 870 948 1066 1094 982 869 975
8 1094 982 869 975 977 877 767 865
8 978 878 772 867 1095 990 882 976
8 978 878 989 1096 866 768 877 977
8 871 774 883 980 984 884 994 1099
8 983 891 999 1100 870 781 889 981
8 1101 1000 890 982 989 892 782 877
8 983 891 781 870 1101 1000 890 982
8 872 775 884 984 985 885 995 1103
8 876 776 885 985 988 886 996 1104
8 986 887 779 874 1105 998 888 987
8 879 786 887 986 991 896 998 1105
8 875 778 886 988 987 888 997 1106
8 990 893 1002 1107 878 783 892 989
8 1108 1003 893 990 993 894 784 882
8 880 787 896 991 992 895 1005 1109
8 993 894 785 881 1110 1004 895 992
8 898 799 905 1006 1007 907 1013 1120
8 1030 920 1013 1120 919 814 905 1006
8 901 801 907 1007 1011 908 1015 1121
8 899 802 909 1009 1008 906 1014 1122
8 900 803 910 1010 1009 909 1017 1123
8 1012 911 1018 1124 903 804 910 1010
8 904 805 908 1011 1012 911 1016 1125
8 1013 912 1020 1127 907 808 914 1015
8 1031 921 1020 1127 920 815 912 1013
8 1019 918 962 1075 1128 1021 913 1014
8 1128 1021 913 1014 1017 916 810 909
8 1015 914 1022 1129 908 809 915 1016
8 1016 915 1023 1130 911 812 917 1018
8 1018 917 1024 1131 910 811 916 1017
8 1037 928 1031 1148 925 821 920 1030
8 928 823 931 1041 1031 921 1032 1149
8 1033 926 829 941 1151 1039 939 1057
8 1034 927 819 922 1152 1040 926 1033
8 1153 1038 929 1035 1034 927 820 923
8 1154 1042 930 1036 1035 929 822 924
8 1037 928 821 925 1155 1041 930 1036
8 1039 935 828 939 1156 1047 938 1055
8 1157 1043 932 1042 1038 933 825 929
8 1038 933 826 927 1158 1045 934 1040
8 1040 934 827 926 1159 1046 935 1039
8 930 824 932 1042 1041 931 1044 1160
8 1051 936 1048 1165 1175 1052 937 1053
8 1156 1047 938 1055 1053 937 1054 1178
8 939 828 940 1058 1055 938 1056 1181
8 941 829 942 1060 1057 939 1058 1183
8 942 830 943 1061 1058 940 1059 1184
8 1060 942 832 944 1185 1061 945 1062
8 1082 964 1063 1188 981 889 947 1064
8 1097 981 1064 1190 979 870 948 1066
8 1064 947 1065 1191 948 837 949 1067
8 1066 948 1067 1193 975 869 950 1069
8 1067 949 1068 1194 950 838 951 1070
8 1069 950 1070 1195 952 839 953 1071
8 956 849 959 1072 1073 958 1076 1197
8 1074 960 1076 1197 1008 906 959 1072
8 1073 958 1076 1197 965 868 980 1085
8 1074 960 906 1008 1198 1077 1014 1122
8 1133 1026 1079 1199 1019 918 962 1075
8 1077 963 913 1014 1200 1080 962 1075
8 960 853 963 1077 1076 961 1078 1201
8 980 883 961 1076 1099 994 1078 1201
8 1210 1083 964 1082 1100 999 889 981
8 966 871 980 1085 1086 984 1099 1215
8 967 872 984 1086 1087 985 1103 1216
8 971 876 985 1087 1090 988 1104 1217
8 1088 986 874 969 1218 1105 987 1089
8 972 879 986 1088 1091 991 1105 1218
8 970 875 988 1090 1089 987 1106 1219
8 973 880 991 1091 1092 992 1109 1220
8 1093 993 881 974 1221 1110 992 1092
8 1222 1108 990 1095 1093 993 882 976
8 1223 1101 982 1094 1096 989 877 977
8 1098 983 870 979 1223 1101 982 1094
8 1095 990 1107 1224 978 878 989 1096
8 1098 983 1100 1225 979 870 981 1097
8 984 884 994 1099 1103 995 1111 1227
8 1102 1001 1115 1228 983 891 999 1100
8 1101 1000 892 989 1229 1116 1002 1107
8 1102 1001 891 983 1229 1116 1000 1101
8 985 885 995 1103 1104 996 1112 1230
8 988 886 996 1104 1106 997 1113 1231
8 1105 998 888 987 1232 1114 997 1106
8 991 896 998 1105 1109 1005 1114 1232
8 1108 1003 1117 1233 990 893 1002 1107
8 1108 1003 894 993 1233 1117 1004 1110
8 992 895 1005 1109 1110 1004 1118 1234
8 1120 1013 1127 1244 1007 907 1015 1121
8 1148 1031 1127 1244 1030 920 1013 1120
8 1121 1015 1129 1245 1011 908 1016 1125
8 1126 1019 1075 1196 1246 1128 1014 1122
8 1246 1128 1014 1122 1123 1017 909 1009
8 1124 1018 1131 1247 1010 910 1017 1123
8 1125 1016 1130 1248 1012 911 1018 1124
8 1127 1020 1137 1254 1015 914 1022 1129
8 1031 921 1032 1149 1127 1020 1137 1254
8 1134 1027 918 1019 1257 1140 1021 1128
8 1257 1140 1021 1128 1131 1024 916 1017
8 1129 1022 1141 1258 1016 915 1023 1130
8 1130 1023 1142 1259 1018 917 1024 1131
8 1261 1144 1025 1132 1133 1026 1079 1199
8 1255 1138 1025 1132 1135 1028 1144 1261
8 1133 1026 918 1019 1262 1145 1027 1134
8 1136 1029 1139 1256 1263 1146 1028 1135
8 1037 928 1041 1155 1148 1031 1149 1275
8 1041 931 1044 1160 1149 1032 1150 1276
8 1151 1039 939 1057 1278 1156 1055 1180
8 1152 1040 926 1033 1279 1159 1039 1151
8 1153 1038 927 1034 1280 1158 1040 1152
8 1281 1157 1042 1154 1153 1038 929 1035
8 1036 930 1042 1154 1155 1041 1160 1282
8 1283 1164 1046 1159 1156 1047 935 1039
8 1165 1048 1164 1283 1053 937 1047 1156
8 1157 1043 933 1038 1284 1161 1045 1158
8 1157 1043 1161 1284 1042 932 1044 1160
8 1040 934 1046 1159 1158 1045 1163 1285
8 1166 1049 1167 1292 1051 936 1048 1165
8 1166 1049 936 1051 1293 1168 1050 1172
8 1051 936 1052 1175 1172 1050 1173 1306
8 1174 1051 1165 1290 1308 1175 1053 1177
8 1053 937 1054 1178 1175 1052 1176 1309
8 1278 1156 1055 1180 1177 1053 1178 1311
8 1055 938 1056 1181 1178 1054 1179 1312
8 1057 939 1058 1183 1180 1055 1181 1314
8 1058 940 1059 1184 1181 1056 1182 1315
8 1060 942 1061 1185 1183 1058 1184 1316
8 1208 1081 1187 1321 1082 964 1063 1188
8 1209 1082 1188 1322 1097 981 1064 1190
8 1188 1063 1189 1323 1064 947 1065 1191
8 1190 1064 1191 1325 1066 948 1067 1193
8 1191 1065 1192 1326 1067 949 1068 1194
8 1067 1193 1069 950 1194 1327 1195 1070
8 1250 1133 1199 1330 1126 1019 1075 1196
8 1198 1077 1014 1122 1331 1200 1075 1196
8 1074 960 1077 1198 1197 1076 1201 1332
8 1085 980 1076 1197 1215 1099 1201 1332
8 1199 1079 1203 1333 1075 962 1080 1200
8 1132 1025 1119 1243 1199 1079 1203 1333
8 1201 1078 963 1077 1334 1202 1080 1200
8 1099 994 1078 1201 1227 1111 1202 1334
8 1343 1207 1081 1208 1210 1083 964 1082
8 1214 1084 1186 1319 1343 1207 1081 1208
8 1345 1210 1082 1209 1225 1100 981 1097
8 1346 1211 1083 1210 1228 1115 999 1100
8 1086 984 1099 1215 1216 1103 1227 1352
8 1087 985 1103 1216 1217 1104 1230 1353
8 1090 988 1104 1217 1219 1106 1231 1354
8 1218 1105 987 1089 1355 1232 1106 1219
8 1091 991 1105 1218 1220 1109 1232 1355
8 1092 992 1109 1220 1221 1110 1234 1356
8 1222 1108 1233 1357 1095 990 1107 1224
8 1222 1108 993 1093 1357 1233 1110 1221
8 1223 1101 989 1096 1358 1229 1107 1224
8 1226 1102 983 1098 1358 1229 1101 1223
8 1226 1102 1228 1359 1098 983 1100 1225
8 1103 995 1111 1227 1230 1112 1235 1360
8 1107 1002 1117 1233 1229 1116 1240 1362
8 1102 1001 1116 1229 1228 1115 1240 1362
8 1104 996 1112 1230 1231 1113 1236 1363
8 1364 1237 1114 1232 1231 1113 997 1106
8 1109 1005 1114 1232 1234 1118 1238 1365
8 1110 1004 1118 1234 1233 1117 1241 1366
8 1242 1374 1255 1138 1119 1243 1132 1025
8 1244 1127 1254 1376 1121 1015 1129 1245
8 1148 1031 1149 1275 1244 1127 1254 1376
8 1245 1129 1258 1377 1125 1016 1130 1248
8 1251 1134 1019 1126 1378 1257 1128 1246
8 1378 1257 1128 1246 1247 1131 1017 1123
8 1248 1130 1259 1379 1124 1018 1131 1247
8 1261 1381 1250 1133 1132 1249 1330 1199
8 1255 1380 1252 1135 1132 1249 1381 1261
8 1250 1133 1019 1126 1382 1262 1134 1251
8 1253 1136 1256 1385 1384 1263 1135 1252
8 1254 1137 1265 1387 1129 1022 1141 1258
8 1149 1032 1150 1276 1254 1137 1265 1387
8 1028 1135 1255 1138 1139 1256 1388 1266
8 1136 1029 1147 1264 1256 1139 1267 1389
8 1390 1268 1140 1257 1259 1142 1024 1131
8 1260 1143 1027 1134 1390 1268 1140 1257
8 1258 1141 1269 1391 1130 1023 1142 1259
8 1262 1145 1027 1134 1393 1271 1143 1260
8 1261 1144 1026 1133 1394 1272 1145 1262
8 1135 1028 1144 1261 1263 1146 1272 1394
8 1136 1029 1146 1263 1264 1147 1273 1395
8 1155 1041 1160 1282 1275 1149 1276 1405
8 1276 1150 1044 1160 1406 1277 1162 1286
8 1408 1283 1159 1279 1278 1156 1039 1151
8 1290 1165 1283 1408 1177 1053 1156 1278
8 1152 1040 1159 1279 1280 1158 1285 1409
8 1281 1157 1038 1153 1410 1284 1158 1280
8 1281 1157 1284 1410 1154 1042 1160 1282
8 1159 1046 1164 1283 1285 1163 1289 1412
8 1292 1167 1289 1412 1165 1048 1164 1283
8 1158 1045 1163 1285 1284 1161 1288 1413
8 1284 1161 1288 1413 1160 1044 1162 1286
8 1291 1166 1292 1418 1174 1051 1165 1290
8 1291 1166 1051 1174 1419 1293 1172 1305
8 1294 1169 1296 1421 1166 1049 1167 1292
8 1293 1168 1050 1172 1422 1295 1171 1303
8 1294 1169 1049 1166 1423 1297 1168 1293
8 1422 1295 1171 1303 1301 1170 1302 1435
8 1172 1050 1173 1306 1303 1171 1304 1438
8 1174 1051 1175 1308 1305 1172 1306 1440
8 1175 1052 1176 1309 1306 1173 1307 1441
8 1177 1053 1178 1311 1308 1175 1309 1443
8 1178 1054 1179 1312 1309 1176 1310 1444
8 1180 1055 1181 1314 1311 1178 1312 1446
8 1056 1181 1312 1179 1182 1315 1447 1313
8 1183 1058 1184 1316 1314 1181 1315 1448
8 1319 1186 1084 1214 1451 1317 1213 1350
8 1319 1186 1318 1453 1208 1081 1187 1321
8 1321 1187 1320 1456 1188 1063 1189 1323
8 1344 1208 1321 1457 1209 1082 1188 1322
8 1322 1188 1323 1458 1190 1064 1191 1325
8 1323 1189 1324 1459 1191 1065 1192 1326
8 1191 1325 1193 1067 1326 1460 1327 1194
8 1242 1374 1243 1119 1328 1462 1335 1204
8 1330 1199 1333 1465 1196 1075 1200 1331
8 1132 1249 1330 1199 1243 1375 1465 1333
8 1332 1201 1077 1198 1466 1334 1200 1331
8 1215 1099 1201 1332 1352 1227 1334 1466
8 1119 1243 1333 1203 1204 1335 1470 1338
8 1333 1203 1338 1470 1200 1080 1202 1334
8 1227 1111 1202 1334 1360 1235 1338 1470
8 1328 1462 1335 1204 1205 1336 1471 1339
8 1337 1206 1340 1472 1464 1329 1205 1336
8 1346 1211 1342 1479 1210 1083 1207 1343
8 1346 1211 1115 1228 1479 1342 1239 1361
8 1348 1212 1084 1214 1479 1342 1207 1343
8 1480 1343 1208 1344 1345 1210 1082 1209
8 1351 1214 1319 1454 1480 1343 1208 1344
8 1481 1346 1210 1345 1359 1228 1100 1225
8 1348 1212 1347 1483 1214 1084 1213 1350
8 1216 1103 1227 1352 1353 1230 1360 1488
8 1217 1104 1230 1353 1354 1231 1363 1489
8 1490 1364 1232 1355 1354 1231 1106 1219
8 1220 1109 1232 1355 1356 1234 1365 1491
8 1221 1110 1234 1356 1357 1233 1366 1492
8 1224 1107 1233 1357 1358 1229 1362 1493
8 1226 1102 1229 1358 1359 1228 1362 1493
8 1230 1112 1235 1360 1363 1236 1367 1496
8 1361 1239 1115 1228 1497 1371 1240 1362
8 1366 1241 1372 1498 1233 1117 1240 1362
8 1364 1237 1113 1231 1499 1368 1236 1363
8 1364 1237 1368 1499 1232 1114 1238 1365
8 1234 1118 1238 1365 1366 1241 1369 1500
8 1507 1373 1242 1374 1388 1266 1138 1255
8 1508 1374 1243 1375 1380 1255 1132 1249
8 1376 1254 1387 1509 1245 1129 1258 1377
8 1275 1149 1276 1405 1376 1254 1387 1509
8 1377 1258 1391 1510 1248 1130 1259 1379
8 1511 1390 1257 1378 1379 1259 1131 1247
8 1383 1260 1134 1251 1511 1390 1257 1378
8 1252 1135 1256 1385 1380 1255 1388 1512
8 1261 1381 1513 1394 1133 1250 1382 1262
8 1135 1252 1384 1263 1261 1381 1513 1394
8 1382 1262 1134 1251 1514 1393 1260 1383
8 1253 1136 1263 1384 1386 1264 1395 1516
8 1253 1136 1264 1386 1385 1256 1389 1517
8 1387 1265 1397 1519 1258 1141 1269 1391
8 1276 1150 1277 1406 1387 1265 1397 1519
8 1256 1139 1267 1389 1388 1266 1398 1520
8 1264 1147 1274 1396 1389 1267 1399 1521
8 1392 1270 1143 1260 1522 1400 1268 1390
8 1390 1268 1142 1259 1522 1400 1269 1391
8 1392 1270 1401 1523 1260 1143 1271 1393
8 1272 1394 1524 1402 1145 1262 1393 1271
8 1395 1273 1146 1263 1524 1402 1272 1394
8 1273 1395 1264 1147 1403 1526 1396 1274
8 1405 1276 1160 1282 1534 1406 1286 1411
8 1414 1287 1407 1535 1286 1162 1277 1406
8 1279 1159 1283 1408 1409 1285 1412 1537
8 1418 1292 1412 1537 1290 1165 1283 1408
8 1280 1158 1285 1409 1410 1284 1413 1538
8 1410 1284 1413 1538 1282 1160 1286 1411
8 1285 1163 1289 1412 1413 1288 1417 1540
8 1421 1296 1417 1540 1292 1167 1289 1412
8 1414 1287 1162 1286 1541 1416 1288 1413
8 1420 1294 1421 1545 1291 1166 1292 1418
8 1419 1293 1172 1305 1546 1422 1303 1437
8 1420 1294 1166 1291 1547 1423 1293 1419
8 1294 1169 1297 1423 1421 1296 1425 1548
8 1423 1297 1168 1293 1549 1424 1295 1422
8 1301 1170 1298 1427 1422 1295 1424 1549
8 1432 1300 1428 1554 1301 1170 1298 1427
8 1431 1299 1428 1554 1560 1430 1300 1432
8 1563 1433 1300 1432 1435 1302 1170 1301
8 1546 1422 1303 1437 1434 1301 1435 1565
8 1303 1171 1304 1438 1435 1302 1436 1566
8 1305 1172 1306 1440 1437 1303 1438 1568
8 1306 1173 1307 1441 1438 1304 1439 1569
8 1308 1175 1309 1443 1440 1306 1441 1571
8 1309 1176 1310 1444 1441 1307 1442 1572
8 1311 1178 1312 1446 1443 1309 1444 1574
8 1179 1312 1444 1310 1313 1447 1575 1445
8 1314 1181 1315 1448 1446 1312 1447 1576
8 1350 1213 1349 1486 1451 1317 1449 1579
8 1451 1317 1450 1581 1319 1186 1318 1453
8 1454 1319 1214 1351 1582 1451 1350 1487
8 1453 1318 1452 1584 1321 1187 1320 1456
8 1454 1319 1453 1585 1344 1208 1321 1457
8 1456 1320 1455 1586 1323 1189 1324 1459
8 1457 1321 1456 1587 1322 1188 1323 1458
8 1458 1323 1459 1588 1325 1191 1326 1460
8 1205 1336 1464 1329 1328 1462 1590 1461
8 1507 1373 1461 1590 1374 1242 1328 1462
8 1508 1374 1462 1591 1375 1243 1335 1467
8 1337 1206 1329 1464 1473 1341 1463 1594
8 1375 1243 1335 1467 1465 1333 1470 1596
8 1465 1333 1470 1596 1331 1200 1334 1466
8 1352 1227 1334 1466 1488 1360 1470 1596
8 1591 1462 1336 1468 1467 1335 1471 1597
8 1469 1337 1472 1598 1595 1464 1336 1468
8 1471 1339 1474 1600 1335 1204 1338 1470
8 1600 1474 1367 1496 1470 1338 1235 1360
8 1336 1205 1340 1472 1471 1339 1475 1601
8 1337 1206 1341 1473 1472 1340 1476 1602
8 1495 1370 1478 1609 1361 1239 1342 1479
8 1348 1212 1342 1479 1483 1347 1478 1609
8 1481 1346 1479 1610 1345 1210 1343 1480
8 1481 1346 1228 1359 1610 1479 1361 1494
8 1484 1348 1214 1351 1610 1479 1343 1480
8 1483 1347 1482 1612 1350 1213 1349 1486
8 1484 1348 1483 1613 1351 1214 1350 1487
8 1353 1230 1360 1488 1489 1363 1496 1616
8 1490 1364 1231 1354 1617 1499 1363 1489
8 1490 1364 1499 1617 1355 1232 1365 1491
8 1356 1234 1365 1491 1492 1366 1500 1619
8 1492 1366 1498 1620 1357 1233 1362 1493
8 1494 1361 1228 1359 1621 1497 1362 1493
8 1495 1370 1239 1361 1622 1504 1371 1497
8 1363 1236 1367 1496 1499 1368 1501 1623
8 1497 1371 1240 1362 1624 1505 1372 1498
8 1625 1503 1372 1498 1500 1369 1241 1366
8 1365 1238 1368 1499 1500 1369 1502 1626
8 1520 1398 1506 1633 1388 1266 1373 1507
8 1634 1507 1374 1508 1512 1388 1255 1380
8 1509 1387 1519 1635 1377 1258 1391 1510
8 1405 1276 1406 1534 1509 1387 1519 1635
8 1515 1392 1260 1383 1636 1522 1390 1511
8 1511 1390 1259 1379 1636 1522 1391 1510
8 1385 1256 1389 1517 1512 1388 1520 1637
8 1513 1394 1262 1382 1638 1524 1393 1514
8 1395 1516 1638 1524 1263 1384 1513 1394
8 1515 1392 1523 1639 1383 1260 1393 1514
8 1516 1395 1526 1640 1386 1264 1396 1518
8 1386 1264 1396 1518 1517 1389 1521 1641
8 1519 1397 1527 1643 1391 1269 1400 1522
8 1535 1407 1527 1643 1406 1277 1397 1519
8 1389 1267 1399 1521 1520 1398 1528 1644
8 1645 1529 1399 1521 1525 1404 1274 1396
8 1392 1270 1400 1522 1523 1401 1531 1646
8 1524 1402 1271 1393 1648 1532 1401 1523
8 1403 1526 1648 1532 1273 1395 1524 1402
8 1525 1404 1274 1396 1649 1533 1403 1526
8 1539 1414 1535 1657 1411 1286 1406 1534
8 1542 1415 1536 1658 1414 1287 1407 1535
8 1409 1285 1412 1537 1538 1413 1540 1660
8 1545 1421 1540 1660 1418 1292 1412 1537
8 1539 1414 1286 1411 1661 1541 1413 1538
8 1540 1417 1544 1663 1413 1288 1416 1541
8 1421 1296 1425 1548 1540 1417 1544 1663
8 1542 1415 1287 1414 1664 1543 1416 1541
8 1420 1294 1423 1547 1545 1421 1548 1666
8 1547 1423 1293 1419 1667 1549 1422 1546
8 1434 1301 1427 1553 1546 1422 1549 1667
8 1423 1297 1424 1549 1548 1425 1550 1668
8 1551 1426 1550 1668 1427 1298 1424 1549
8 1551 1426 1298 1427 1671 1552 1428 1554
8 1562 1432 1554 1674 1434 1301 1427 1553
8 1431 1299 1429 1558 1554 1428 1555 1675
8 1431 1299 1430 1560 1558 1429 1557 1680
8 1560 1430 1300 1432 1683 1559 1433 1563
8 1561 1431 1554 1674 1684 1560 1432 1562
8 1685 1563 1432 1562 1565 1435 1301 1434
8 1435 1302 1436 1566 1563 1433 1564 1686
8 1437 1303 1438 1568 1565 1435 1566 1688
8 1438 1304 1439 1569 1566 1436 1567 1689
8 1440 1306 1441 1571 1568 1438 1569 1691
8 1441 1307 1442 1572 1569 1439 1570 1692
8 1443 1309 1444 1574 1571 1441 1572 1694
8 1310 1444 1572 1442 1445 1575 1695 1573
8 1446 1312 1447 1576 1574 1444 1575 1696
8 1486 1349 1485 1614 1579 1449 1577 1699
8 1451 1317 1449 1579 1581 1450 1578 1701
8 1487 1350 1486 1615 1582 1451 1579 1702
8 1581 1450 1580 1704 1453 1318 1452 1584
8 1582 1451 1581 1705 1454 1319 1453 1585
8 1584 1452 1583 1706 1456 1320 1455 1586
8 1585 1453 1584 1707 1457 1321 1456 1587
8 1587 1456 1586 1708 1458 1323 1459 1588
8 1633 1506 1589 1710 1507 1373 1461 1590
8 1464 1329 1461 1590 1594 1463 1589 1710
8 1468 1336 1462 1591 1595 1464 1590 1711
8 1634 1507 1590 1711 1508 1374 1462 1591
8 1473 1341 1463 1594 1603 1477 1593 1716
8 1469 1337 1464 1595 1599 1473 1594 1717
8 1471 1597 1467 1335 1600 1718 1596 1470
8 1718 1600 1496 1616 1596 1470 1360 1488
8 1336 1468 1597 1471 1472 1598 1719 1601
8 1469 1337 1473 1599 1598 1472 1602 1720
8 1722 1604 1501 1623 1600 1474 1367 1496
8 1475 1601 1471 1339 1604 1722 1600 1474
8 1602 1476 1605 1723 1472 1340 1475 1601
8 1476 1602 1724 1606 1341 1473 1603 1477
8 1483 1347 1478 1609 1612 1482 1608 1731
8 1495 1370 1504 1622 1609 1478 1608 1731
8 1618 1495 1609 1732 1494 1361 1479 1610
8 1484 1348 1479 1610 1613 1483 1609 1732
8 1486 1349 1482 1612 1614 1485 1611 1733
8 1613 1483 1612 1734 1487 1350 1486 1615
8 1489 1363 1496 1616 1617 1499 1623 1736
8 1491 1365 1499 1617 1619 1500 1626 1737
8 1618 1495 1361 1494 1738 1622 1497 1621
8 1739 1625 1498 1620 1619 1500 1366 1492
8 1621 1497 1362 1493 1740 1624 1498 1620
8 1742 1631 1504 1622 1624 1505 1371 1497
8 1743 1628 1502 1626 1623 1501 1368 1499
8 1744 1630 1505 1624 1625 1503 1372 1498
8 1745 1629 1503 1625 1626 1502 1369 1500
8 1520 1398 1528 1644 1633 1506 1632 1751
8 1637 1520 1633 1752 1512 1388 1507 1634
8 1635 1519 1643 1753 1510 1391 1522 1636
8 1657 1535 1643 1753 1534 1406 1519 1635
8 1515 1392 1522 1636 1639 1523 1646 1754
8 1517 1389 1521 1641 1637 1520 1644 1755
8 1524 1638 1756 1648 1393 1514 1639 1523
8 1640 1526 1395 1516 1756 1648 1524 1638
8 1642 1525 1396 1518 1757 1649 1526 1640
8 1758 1645 1521 1641 1642 1525 1396 1518
8 1646 1531 1400 1522 1760 1650 1527 1643
8 1535 1407 1536 1658 1643 1527 1650 1760
8 1521 1399 1529 1645 1644 1528 1651 1761
8 1647 1530 1652 1762 1525 1404 1529 1645
8 1401 1523 1648 1532 1531 1646 1763 1655
8 1525 1404 1533 1649 1647 1530 1654 1765
8 1533 1649 1766 1656 1403 1526 1648 1532
8 1662 1542 1658 1774 1539 1414 1535 1657
8 1542 1415 1543 1664 1658 1536 1659 1775
8 1660 1540 1663 1777 1538 1413 1541 1661
8 1545 1421 1548 1666 1660 1540 1663 1777
8 1662 1542 1414 1539 1778 1664 1541 1661
8 1664 1543 1416 1541 1779 1665 1544 1663
8 1548 1425 1550 1668 1663 1544 1665 1779
8 1547 1423 1549 1667 1666 1548 1668 1781
8 1670 1551 1668 1781 1553 1427 1549 1667
8 1551 1426 1552 1671 1668 1550 1669 1782
8 1670 1551 1427 1553 1784 1671 1554 1674
8 1675 1555 1672 1785 1554 1428 1552 1671
8 1678 1556 1673 1789 1558 1429 1555 1675
8 1561 1431 1558 1681 1674 1554 1675 1790
8 1794 1677 1556 1678 1680 1557 1429 1558
8 1560 1430 1559 1683 1680 1557 1679 1797
8 1561 1431 1560 1684 1681 1558 1680 1798
8 1563 1433 1564 1686 1683 1559 1682 1800
8 1684 1560 1432 1562 1801 1683 1563 1685
8 1565 1435 1566 1688 1685 1563 1686 1802
8 1566 1436 1567 1689 1686 1564 1687 1803
8 1568 1438 1569 1691 1688 1566 1689 1805
8 1569 1439 1570 1692 1689 1567 1690 1806
8 1571 1441 1572 1694 1691 1569 1692 1808
8 1442 1572 1692 1570 1573 1695 1809 1693
8 1574 1444 1575 1696 1694 1572 1695 1810
8 1614 1485 1592 1712 1699 1577 1697 1813
8 1579 1449 1577 1699 1701 1578 1698 1815
8 1615 1486 1614 1735 1702 1579 1699 1816
8 1701 1578 1700 1818 1581 1450 1580 1704
8 1582 1451 1579 1702 1705 1581 1701 1819
8 1704 1580 1703 1820 1584 1452 1583 1706
8 1705 1581 1704 1821 1585 1453 1584 1707
8 1707 1584 1706 1822 1587 1456 1586 1708
8 1710 1589 1506 1633 1824 1709 1632 1751
8 1594 1463 1589 1710 1716 1593 1709 1824
8 1752 1633 1710 1825 1634 1507 1590 1711
8 1595 1464 1590 1711 1717 1594 1710 1825
8 1830 1714 1592 1712 1733 1611 1485 1614
8 1603 1477 1593 1716 1725 1607 1715 1834
8 1599 1473 1594 1717 1721 1603 1716 1835
8 1837 1722 1623 1736 1718 1600 1496 1616
8 1719 1601 1722 1837 1597 1471 1600 1718
8 1602 1720 1598 1472 1723 1838 1719 1601
8 1720 1602 1473 1599 1839 1724 1603 1721
8 1723 1605 1726 1840 1601 1475 1604 1722
8 1840 1726 1628 1743 1722 1604 1501 1623
8 1724 1606 1727 1841 1602 1476 1605 1723
8 1725 1607 1728 1842 1603 1477 1606 1724
8 1612 1482 1608 1731 1733 1611 1730 1849
8 1741 1627 1730 1849 1622 1504 1608 1731
8 1613 1483 1609 1732 1734 1612 1731 1850
8 1618 1495 1622 1738 1732 1609 1731 1850
8 1615 1486 1612 1734 1735 1614 1733 1851
8 1852 1743 1626 1737 1736 1623 1499 1617
8 1853 1745 1625 1739 1737 1626 1500 1619
8 1855 1742 1622 1738 1740 1624 1497 1621
8 1856 1744 1624 1740 1739 1625 1498 1620
8 1741 1627 1504 1622 1857 1746 1631 1742
8 1742 1631 1505 1624 1858 1749 1630 1744
8 1859 1747 1629 1745 1743 1628 1502 1626
8 1860 1748 1630 1744 1745 1629 1503 1625
8 1644 1528 1651 1761 1751 1632 1750 1865
8 1637 1520 1644 1755 1752 1633 1751 1866
8 1754 1646 1522 1636 1867 1760 1643 1753
8 1657 1535 1658 1774 1753 1643 1760 1867
8 1639 1523 1646 1754 1756 1648 1763 1868
8 1641 1521 1645 1758 1755 1644 1761 1869
8 1757 1649 1526 1640 1870 1766 1648 1756
8 1642 1525 1649 1757 1759 1647 1765 1871
8 1759 1647 1762 1872 1642 1525 1645 1758
8 1760 1650 1767 1874 1646 1531 1655 1763
8 1658 1536 1659 1775 1760 1650 1767 1874
8 1762 1652 1768 1875 1645 1529 1651 1761
8 1764 1653 1769 1876 1647 1530 1652 1762
8 1656 1766 1877 1773 1532 1648 1763 1655
8 1771 1879 1765 1654 1653 1764 1647 1530
8 1533 1649 1765 1654 1656 1766 1880 1772
8 1662 1542 1664 1778 1774 1658 1775 1887
8 1664 1543 1665 1779 1775 1659 1776 1888
8 1778 1664 1541 1661 1890 1779 1663 1777
8 1666 1548 1668 1781 1777 1663 1779 1890
8 1782 1669 1780 1891 1668 1550 1665 1779
8 1670 1551 1671 1784 1781 1668 1782 1893
8 1671 1552 1672 1785 1782 1669 1783 1894
8 1790 1675 1785 1896 1674 1554 1671 1784
8 1675 1555 1673 1789 1785 1672 1786 1897
8 1792 1676 1788 1903 1678 1556 1673 1789
8 1795 1678 1789 1904 1681 1558 1675 1790
8 1792 1676 1556 1678 1906 1791 1677 1794
8 1680 1557 1679 1797 1794 1677 1793 1909
8 1910 1794 1678 1795 1798 1680 1558 1681
8 1683 1559 1682 1800 1797 1679 1796 1912
8 1684 1560 1683 1801 1798 1680 1797 1913
8 1686 1564 1687 1803 1800 1682 1799 1915
8 1685 1563 1686 1802 1801 1683 1800 1916
8 1688 1566 1689 1805 1802 1686 1803 1917
8 1689 1567 1690 1806 1803 1687 1804 1918
8 1691 1569 1692 1808 1805 1689 1806 1920
8 1692 1570 1693 1809 1806 1690 1807 1921
8 1694 1572 1695 1810 1808 1692 1809 1922
8 1829 1713 1811 1926 1712 1592 1697 1813
8 1813 1697 1812 1928 1699 1577 1698 1815
8 1735 1614 1712 1828 1816 1699 1813 1929
8 1815 1698 1814 1931 1701 1578 1700 1818
8 1702 1579 1699 1816 1819 1701 1815 1932
8 1818 1700 1817 1933 1704 1580 1703 1820
8 1819 1701 1818 1934 1705 1581 1704 1821
8 1821 1704 1820 1935 1707 1584 1706 1822
8 1824 1709 1632 1751 1937 1823 1750 1865
8 1716 1593 1709 1824 1834 1715 1823 1937
8 1825 1710 1633 1752 1938 1824 1751 1866
8 1717 1594 1710 1825 1835 1716 1824 1938
8 1945 1830 1712 1828 1851 1733 1614 1735
8 1830 1714 1831 1946 1712 1592 1713 1829
8 1947 1832 1714 1830 1849 1730 1611 1733
8 1843 1729 1607 1725 1950 1833 1715 1834
8 1721 1603 1716 1835 1836 1725 1834 1951
8 1836 1725 1842 1953 1721 1603 1724 1839
8 1723 1838 1719 1601 1840 1954 1837 1722
8 1954 1840 1743 1852 1837 1722 1623 1736
8 1724 1839 1720 1602 1841 1955 1838 1723
8 1841 1727 1844 1956 1723 1605 1726 1840
8 1956 1844 1747 1859 1840 1726 1628 1743
8 1728 1842 1724 1606 1845 1957 1841 1727
8 1725 1607 1729 1843 1842 1728 1846 1958
8 1741 1627 1746 1857 1849 1730 1848 1965
8 1734 1612 1731 1850 1851 1733 1849 1966
8 1854 1741 1849 1966 1738 1622 1731 1850
8 1967 1859 1745 1853 1852 1743 1626 1737
8 1968 1860 1744 1856 1853 1745 1625 1739
8 1854 1741 1622 1738 1969 1857 1742 1855
8 1855 1742 1624 1740 1970 1858 1744 1856
8 1857 1746 1631 1742 1971 1861 1749 1858
8 1858 1749 1630 1744 1972 1863 1748 1860
8 1859 1747 1862 1973 1745 1629 1748 1860
8 1875 1768 1864 1977 1761 1651 1750 1865
8 1755 1644 1761 1869 1866 1751 1865 1978
8 1867 1760 1874 1979 1754 1646 1763 1868
8 1774 1658 1775 1887 1867 1760 1874 1979
8 1870 1766 1648 1756 1980 1877 1763 1868
8 1872 1762 1875 1981 1758 1645 1761 1869
8 1757 1649 1766 1870 1871 1765 1880 1982
8 1983 1879 1764 1873 1871 1765 1647 1759
8 1873 1764 1876 1984 1759 1647 1762 1872
8 1877 1773 1655 1763 1986 1881 1767 1874
8 1775 1659 1776 1888 1874 1767 1881 1986
8 1876 1769 1882 1987 1762 1652 1768 1875
8 1878 1770 1883 1988 1764 1653 1769 1876
8 1880 1772 1656 1766 1989 1886 1773 1877
8 1878 1770 1653 1764 1990 1884 1771 1879
8 1765 1654 1772 1880 1879 1771 1885 1991
8 1778 1664 1779 1890 1887 1775 1888 1997
8 1998 1889 1776 1888 1891 1780 1665 1779
8 1893 1782 1891 2000 1781 1668 1779 1890
8 1894 1783 1892 2001 1782 1669 1780 1891
8 1784 1671 1785 1896 1893 1782 1894 2003
8 1897 1786 1895 2004 1785 1672 1783 1894
8 1790 1675 1789 1904 1896 1785 1897 2006
8 1901 1787 1898 2007 1789 1673 1786 1897
8 1903 1788 1900 2013 1789 1673 1787 1901
8 1792 1676 1791 1906 1903 1788 1902 2016
8 1907 1792 1903 2017 1795 1678 1789 1904
8 1906 1791 1677 1794 2019 1905 1793 1909
8 1907 1792 1678 1795 2020 1906 1794 1910
8 1797 1679 1796 1912 1909 1793 1908 2022
8 1798 1680 1797 1913 1910 1794 1909 2023
8 1800 1682 1799 1915 1912 1796 1911 2025
8 1801 1683 1800 1916 1913 1797 1912 2026
8 1803 1687 1804 1918 1915 1799 1914 2028
8 1802 1686 1803 1917 1916 1800 1915 2029
8 1805 1689 1806 1920 1917 1803 1918 2030
8 1806 1690 1807 1921 1918 1804 1919 2031
8 1808 1692 1809 1922 1920 1806 1921 2032
8 1939 1826 1924 2037 1829 1713 1811 1926
8 1926 1811 1925 2039 1813 1697 1812 1928
8 1944 1829 1926 2040 1828 1712 1813 1929
8 1928 1812 1927 2042 1815 1698 1814 1931
8 1929 1813 1928 2043 1816 1699 1815 1932
8 1931 1814 1930 2044 1818 1700 1817 1933
8 1932 1815 1931 2045 1819 1701 1818 1934
8 1934 1818 1933 2046 1821 1704 1820 1935
8 2048 1936 1823 1937 1977 1864 1750 1865
8 1950 1833 1715 1834 2048 1936 1823 1937
8 1938 1824 1751 1866 2049 1937 1865 1978
8 1835 1716 1824 1938 1951 1834 1937 2049
8 1939 1826 1713 1829 2053 1942 1831 1946
8 1940 1827 1923 2035 2053 1942 1826 1939
8 1945 1830 1946 2058 1828 1712 1829 1944
8 2059 1947 1830 1945 1966 1849 1733 1851
8 1947 1832 1730 1849 2060 1948 1848 1965
8 1947 1832 1948 2060 1830 1714 1831 1946
8 1959 1847 1729 1843 2063 1949 1833 1950
8 1952 1843 1725 1836 2064 1950 1834 1951
8 1836 1725 1843 1952 1953 1842 1958 2066
8 1953 1842 1957 2067 1839 1724 1841 1955
8 1841 1955 1838 1723 1956 2068 1954 1840
8 2068 1956 1859 1967 1954 1840 1743 1852
8 1956 1844 1960 2069 1859 1747 1862 1973
8 1845 1957 1841 1727 1960 2069 1956 1844
8 1728 1842 1957 1845 1846 1958 2071 1961
8 1962 2072 1959 1847 1846 1958 1843 1729
8 1971 1861 1964 2077 1857 1746 1848 1965
8 1854 1741 1857 1969 1966 1849 1965 2078
8 1967 1859 1973 2079 1853 1745 1860 1968
8 1970 1858 1744 1856 2080 1972 1860 1968
8 1969 1857 1742 1855 2081 1971 1858 1970
8 1971 1861 1749 1858 2082 1974 1863 1972
8 1973 1862 1975 2083 1860 1748 1863 1972
8 1987 1882 1976 2086 1875 1768 1864 1977
8 1981 1875 1977 2087 1869 1761 1865 1978
8 1980 1877 1763 1868 2088 1986 1874 1979
8 1887 1775 1888 1997 1979 1874 1986 2088
8 1880 1982 2089 1989 1766 1870 1980 1877
8 1984 1876 1987 2090 1872 1762 1875 1981
8 1765 1871 1983 1879 1880 1982 2091 1991
8 1985 1878 1764 1873 2092 1990 1879 1983
8 1985 1878 1988 2093 1873 1764 1876 1984
8 2094 1992 1881 1986 1998 1889 1776 1888
8 1986 1881 1992 2094 1877 1773 1886 1989
8 1988 1883 1993 2095 1876 1769 1882 1987
8 1878 1770 1884 1990 1988 1883 1994 2096
8 1991 1885 1772 1880 2097 1996 1886 1989
8 1879 1771 1885 1991 1990 1884 1995 2098
8 2103 1998 1888 1997 2000 1891 1779 1890
8 2104 1999 1889 1998 2001 1892 1780 1891
8 2003 1894 2001 2106 1893 1782 1891 2000
8 2004 1895 2002 2107 1894 1783 1892 2001
8 2006 1897 2004 2109 1896 1785 1894 2003
8 2007 1898 2005 2110 1897 1786 1895 2004
8 2014 1901 2007 2112 1904 1789 1897 2006
8 2011 1899 2008 2113 1901 1787 1898 2007
8 2119 2010 1899 2011 2013 1900 1787 1901
8 2016 1902 2012 2122 1903 1788 1900 2013
8 2017 1903 2013 2123 1904 1789 1901 2014
8 1906 1791 1905 2019 2016 1902 2015 2125
8 1907 1792 1906 2020 2017 1903 2016 2126
8 1909 1793 1908 2022 2019 1905 2018 2128
8 2020 1906 1794 1910 2129 2019 1909 2023
8 1912 1796 1911 2025 2022 1908 2021 2131
8 1913 1797 1912 2026 2023 1909 2022 2132
8 1915 1799 1914 2028 2025 1911 2024 2134
8 1916 1800 1915 2029 2026 1912 2025 2135
8 1918 1804 1919 2031 2028 1914 2027 2136
8 1917 1803 1918 2030 2029 1915 2028 2137
8 1920 1806 1921 2032 2030 1918 2031 2138
8 1940 1827 1941 2054 2035 1923 2033 2140
8 2035 1923 2034 2143 1939 1826 1924 2037
8 2037 1924 2036 2146 1926 1811 1925 2039
8 2051 1939 2037 2147 1944 1829 1926 2040
8 2039 1925 2038 2149 1928 1812 1927 2042
8 2040 1926 2039 2150 1929 1813 1928 2043
8 2042 1927 2041 2151 1931 1814 1930 2044
8 2043 1928 2042 2152 1932 1815 1931 2045
8 2045 1931 2044 2153 1934 1818 1933 2046
8 2155 2047 1936 2048 2086 1976 1864 1977
8 2063 1949 1833 1950 2155 2047 1936 2048
8 2156 2048 1937 2049 2087 1977 1865 1978
8 2064 1950 1834 1951 2156 2048 1937 2049
8 2051 1939 1829 1944 2160 2053 1946 2058
8 2052 1940 2035 2144 2160 2053 1939 2051
8 2053 1942 1831 1946 2163 2057 1948 2060
8 2055 1943 1827 1940 2163 2057 1942 2053
8 2055 1943 2056 2164 1940 1827 1941 2054
8 2059 1947 1849 1966 2167 2060 1965 2078
8 2059 1947 2060 2167 1945 1830 1946 2058
8 2077 1964 2061 2168 1965 1848 1948 2060
8 2070 1963 1847 1959 2170 2062 1949 2063
8 2065 1959 1843 1952 2171 2063 1950 2064
8 2173 2072 1958 2066 2065 1959 1843 1952
8 1953 1842 1958 2066 2067 1957 2071 2174
8 2068 1956 2069 2175 1967 1859 1973 2079
8 2067 1957 2069 2175 1955 1841 1956 2068
8 1845 1957 2069 1960 1961 2071 2176 2073
8 2069 1960 2073 2176 1973 1862 1975 2083
8 2070 1963 2075 2177 1959 1847 1962 2072
8 1846 1958 2071 1961 1962 2072 2178 2074
8 2077 1964 1861 1971 2182 2076 1974 2082
8 2081 1971 2077 2183 1969 1857 1965 2078
8 2079 1973 2083 2184 1968 1860 1972 2080
8 2081 1971 1858 1970 2185 2082 1972 2080
8 2083 1975 2084 2186 1972 1863 1974 2082
8 2086 1976 1882 1987 2189 2085 1993 2095
8 2090 1987 2086 2190 1981 1875 1977 2087
8 2191 2094 1986 2088 2103 1998 1888 1997
8 2088 1986 2094 2191 1980 1877 1989 2089
8 1991 2091 2192 2097 1880 1982 2089 1989
8 2093 1988 2095 2193 1984 1876 1987 2090
8 1879 1983 2092 1990 1991 2091 2194 2098
8 1985 1878 1990 2092 2093 1988 2096 2195
8 2097 1996 1886 1989 2196 2099 1992 2094
8 2196 2099 1992 2094 2104 1999 1889 1998
8 1994 2096 1988 1883 2100 2197 2095 1993
8 2096 1994 1884 1990 2198 2101 1995 2098
8 1995 2098 2199 2102 1885 1991 2097 1996
8 2203 2104 1998 2103 2106 2001 1891 2000
8 2107 2002 2105 2204 2001 1892 1999 2104
8 2109 2004 2107 2206 2003 1894 2001 2106
8 2110 2005 2108 2207 2004 1895 2002 2107
8 2112 2007 2110 2209 2006 1897 2004 2109
8 2113 2008 2111 2210 2007 1898 2005 2110
8 2120 2011 2113 2212 2014 1901 2007 2112
8 2117 2009 2114 2213 2011 1899 2008 2113
8 2219 2116 2009 2117 2119 2010 1899 2011
8 2222 2118 2010 2119 2122 2012 1900 2013
8 2223 2119 2011 2120 2123 2013 1901 2014
8 2016 1902 2015 2125 2122 2012 2121 2225
8 2126 2016 2122 2226 2017 1903 2013 2123
8 2019 1905 2018 2128 2125 2015 2124 2228
8 2020 1906 2019 2129 2126 2016 2125 2229
8 2022 1908 2021 2131 2128 2018 2127 2231
8 2023 1909 2022 2132 2129 2019 2128 2232
8 2025 1911 2024 2134 2131 2021 2130 2234
8 2026 1912 2025 2135 2132 2022 2131 2235
8 1914 2028 2134 2024 2027 2136 2236 2133
8 2029 1915 2028 2137 2135 2025 2134 2237
8 2030 1918 2031 2138 2137 2028 2136 2238
8 2157 2050 2139 2240 2054 1941 2033 2140
8 2052 1940 2054 2161 2144 2035 2140 2242
8 2140 2033 2141 2243 2035 1923 2034 2143
8 2143 2034 2142 2246 2037 1924 2036 2146
8 2144 2035 2143 2247 2051 1939 2037 2147
8 2146 2036 2145 2249 2039 1925 2038 2149
8 2147 2037 2146 2250 2040 1926 2039 2150
8 2149 2038 2148 2251 2042 1927 2041 2151
8 2150 2039 2149 2252 2043 1928 2042 2152
8 2152 2042 2151 2253 2045 1931 2044 2153
8 2255 2154 2047 2155 2189 2085 1976 2086
8 2170 2062 1949 2063 2255 2154 2047 2155
8 2256 2155 2048 2156 2190 2086 1977 2087
8 2171 2063 1950 2064 2256 2155 2048 2156
8 2258 2159 2050 2157 2164 2056 1941 2054
8 2160 2053 1946 2058 2262 2163 2060 2167
8 2162 2055 1940 2052 2262 2163 2053 2160
8 2162 2055 2164 2263 2052 1940 2054 2161
8 2163 2057 1948 2060 2264 2165 2061 2168
8 2055 1943 2057 2163 2164 2056 2165 2264
8 2182 2076 2166 2268 2077 1964 2061 2168
8 2183 2077 2168 2269 2078 1965 2060 2167
8 2070 1963 2062 2170 2177 2075 2169 2271
8 2172 2070 1959 2065 2272 2170 2063 2171
8 2172 2070 2177 2273 2065 1959 2072 2173
8 2066 1958 2072 2173 2174 2071 2178 2274
8 2067 1957 2071 2174 2175 2069 2176 2275
8 2175 2069 2176 2275 2079 1973 2083 2184
8 2071 1961 2074 2178 2176 2073 2179 2276
8 2176 2073 2179 2276 2083 1975 2084 2186
8 2072 1962 2075 2177 2178 2074 2180 2277
8 2182 2076 1974 2082 2280 2181 2084 2186
8 2183 2077 1971 2081 2281 2182 2082 2185
8 2184 2083 2186 2282 2080 1972 2082 2185
8 2189 2085 1993 2095 2285 2188 2100 2197
8 2190 2086 1987 2090 2286 2189 2095 2193
8 2192 2097 1989 2089 2287 2196 2094 2191
8 2287 2196 2094 2191 2203 2104 1998 2103
8 2194 2098 1991 2091 2288 2199 2097 2192
8 2195 2096 2197 2289 2093 1988 2095 2193
8 2096 2195 2290 2198 1990 2092 2194 2098
8 2097 1996 2099 2196 2199 2102 2200 2291
8 2196 2099 1999 2104 2291 2200 2105 2204
8 2100 2197 2292 2201 1994 2096 2198 2101
8 1995 2098 2198 2101 2102 2199 2293 2202
8 2206 2107 2204 2296 2106 2001 2104 2203
8 2207 2108 2205 2297 2107 2002 2105 2204
8 2209 2110 2207 2299 2109 2004 2107 2206
8 2210 2111 2208 2300 2110 2005 2108 2207
8 2212 2113 2210 2302 2112 2007 2110 2209
8 2213 2114 2211 2303 2113 2008 2111 2210
8 2220 2117 2213 2305 2120 2011 2113 2212
8 2216 2115 2214 2306 2117 2009 2114 2213
8 2216 2115 2009 2117 2311 2217 2116 2219
8 2219 2116 2010 2119 2314 2218 2118 2222
8 2315 2219 2117 2220 2223 2119 2011 2120
8 2122 2012 2121 2225 2222 2118 2221 2317
8 2318 2222 2119 2223 2226 2122 2013 2123
8 2125 2015 2124 2228 2225 2121 2224 2320
8 2126 2016 2125 2229 2226 2122 2225 2321
8 2128 2018 2127 2231 2228 2124 2227 2323
8 2129 2019 2128 2232 2229 2125 2228 2324
8 2131 2021 2130 2234 2231 2127 2230 2326
8 2132 2022 2131 2235 2232 2128 2231 2327
8 2134 2024 2133 2236 2234 2130 2233 2328
8 2135 2025 2134 2237 2235 2131 2234 2329
8 2137 2028 2136 2238 2237 2134 2236 2330
8 2157 2050 2158 2259 2240 2139 2239 2332
8 2257 2157 2240 2334 2161 2054 2140 2242
8 2240 2139 2241 2335 2140 2033 2141 2243
8 2242 2140 2243 2337 2144 2035 2143 2247
8 2243 2141 2244 2338 2143 2034 2142 2246
8 2246 2142 2245 2341 2146 2036 2145 2249
8 2247 2143 2246 2342 2147 2037 2146 2250
8 2249 2145 2248 2343 2149 2038 2148 2251
8 2250 2146 2249 2344 2150 2039 2149 2252
8 2252 2149 2251 2345 2152 2042 2151 2253
8 2169 2271 2347 2254 2062 2170 2255 2154
8 2189 2085 2188 2285 2255 2154 2254 2347
8 2348 2255 2155 2256 2286 2189 2086 2190
8 2272 2170 2063 2171 2348 2255 2155 2256
8 2349 2258 2157 2257 2263 2164 2054 2161
8 2258 2159 2261 2351 2157 2050 2158 2259
8 2258 2159 2056 2164 2351 2261 2165 2264
8 2262 2163 2060 2167 2355 2264 2168 2269
8 2162 2055 2163 2262 2263 2164 2264 2355
8 2357 2266 2165 2264 2268 2166 2061 2168
8 2268 2166 2076 2182 2361 2267 2181 2280
8 2281 2182 2268 2362 2183 2077 2168 2269
8 2271 2169 2270 2364 2177 2075 2180 2277
8 2172 2070 2170 2272 2273 2177 2271 2365
8 2072 2173 2274 2178 2177 2273 2366 2277
8 2071 2174 2275 2176 2178 2274 2367 2276
8 2275 2176 2276 2367 2184 2083 2186 2282
8 2283 2187 2084 2186 2368 2278 2179 2276
8 2178 2074 2180 2277 2276 2179 2278 2368
8 2283 2187 2279 2370 2186 2084 2181 2280
8 2281 2182 2082 2185 2371 2280 2186 2282
8 2188 2285 2374 2284 2100 2197 2292 2201
8 2286 2189 2095 2193 2375 2285 2197 2289
8 2192 2097 2196 2287 2288 2199 2291 2376
8 2287 2196 2104 2203 2376 2291 2204 2296
8 2194 2098 2199 2288 2290 2198 2293 2377
8 2289 2197 2096 2195 2378 2292 2198 2290
8 2291 2200 2105 2204 2379 2294 2205 2297
8 2199 2102 2200 2291 2293 2202 2294 2379
8 2198 2101 2202 2293 2292 2201 2295 2380
8 2299 2207 2297 2383 2206 2107 2204 2296
8 2300 2208 2298 2384 2207 2108 2205 2297
8 2302 2210 2300 2386 2209 2110 2207 2299
8 2303 2211 2301 2387 2210 2111 2208 2300
8 2305 2213 2303 2389 2212 2113 2210 2302
8 2306 2214 2304 2390 2213 2114 2211 2303
8 2310 2216 2306 2392 2220 2117 2213 2305
8 2308 2215 2307 2393 2216 2115 2214 2306
8 2308 2215 2115 2216 2396 2309 2217 2311
8 2310 2216 2117 2220 2398 2311 2219 2315
8 2311 2217 2116 2219 2399 2312 2218 2314
8 2314 2218 2118 2222 2402 2313 2221 2317
8 2315 2219 2119 2223 2403 2314 2222 2318
8 2225 2121 2224 2320 2317 2221 2316 2405
8 2226 2122 2225 2321 2318 2222 2317 2406
8 2228 2124 2227 2323 2320 2224 2319 2408
8 2229 2125 2228 2324 2321 2225 2320 2409
8 2231 2127 2230 2326 2323 2227 2322 2411
8 2232 2128 2231 2327 2324 2228 2323 2412
8 2234 2130 2233 2328 2326 2230 2325 2413
8 2235 2131 2234 2329 2327 2231 2326 2414
8 2237 2134 2236 2330 2329 2234 2328 2415
8 2259 2158 2260 2352 2332 2239 2331 2417
8 2257 2157 2259 2350 2334 2240 2332 2419
8 2240 2139 2239 2332 2335 2241 2333 2420
8 2334 2240 2335 2422 2242 2140 2243 2337
8 2335 2241 2336 2423 2243 2141 2244 2338
8 2337 2243 2338 2425 2247 2143 2246 2342
8 2338 2244 2339 2426 2246 2142 2245 2341
8 2341 2245 2340 2428 2249 2145 2248 2343
8 2342 2246 2341 2429 2250 2146 2249 2344
8 2344 2249 2343 2430 2252 2149 2251 2345
8 2188 2285 2347 2254 2284 2374 2432 2346
8 2347 2254 2346 2432 2271 2169 2270 2364
8 2365 2271 2170 2272 2433 2347 2255 2348
8 2286 2189 2285 2375 2348 2255 2347 2433
8 2349 2258 2351 2435 2257 2157 2259 2350
8 2349 2258 2164 2263 2435 2351 2264 2355
8 2259 2158 2261 2351 2352 2260 2354 2437
8 2356 2265 2354 2437 2264 2165 2261 2351
8 2441 2357 2264 2355 2362 2268 2168 2269
8 2356 2265 2165 2264 2442 2358 2266 2357
8 2443 2359 2266 2357 2361 2267 2166 2268
8 2370 2279 2360 2446 2280 2181 2267 2361
8 2362 2268 2182 2281 2447 2361 2280 2371
8 2180 2277 2368 2278 2270 2364 2449 2363
8 2271 2365 2273 2177 2364 2450 2366 2277
8 2372 2283 2186 2282 2451 2368 2276 2367
8 2178 2274 2367 2276 2277 2366 2451 2368
8 2283 2187 2278 2368 2370 2279 2369 2452
8 2372 2283 2370 2453 2282 2186 2280 2371
8 2284 2374 2455 2373 2201 2292 2380 2295
8 2375 2285 2197 2289 2456 2374 2292 2378
8 2376 2291 2204 2296 2457 2379 2297 2383
8 2288 2199 2291 2376 2377 2293 2379 2457
8 2198 2290 2378 2292 2293 2377 2458 2380
8 2293 2202 2294 2379 2380 2295 2381 2459
8 2384 2298 2381 2459 2297 2205 2294 2379
8 2386 2300 2384 2463 2299 2207 2297 2383
8 2387 2301 2385 2464 2300 2208 2298 2384
8 2389 2303 2387 2466 2302 2210 2300 2386
8 2390 2304 2388 2467 2303 2211 2301 2387
8 2392 2306 2390 2469 2305 2213 2303 2389
8 2393 2307 2391 2470 2306 2214 2304 2390
8 2395 2308 2393 2472 2310 2216 2306 2392
8 2308 2215 2309 2396 2393 2307 2394 2473
8 2395 2308 2216 2310 2475 2396 2311 2398
8 2396 2309 2217 2311 2476 2397 2312 2399
8 2398 2311 2219 2315 2478 2399 2314 2403
8 2399 2312 2218 2314 2479 2400 2313 2402
8 2317 2221 2316 2405 2402 2313 2401 2482
8 2403 2314 2222 2318 2483 2402 2317 2406
8 2320 2224 2319 2408 2405 2316 2404 2485
8 2321 2225 2320 2409 2406 2317 2405 2486
8 2323 2227 2322 2411 2408 2319 2407 2488
8 2324 2228 2323 2412 2409 2320 2408 2489
8 2326 2230 2325 2413 2411 2322 2410 2490
8 2327 2231 2326 2414 2412 2323 2411 2491
8 2329 2234 2328 2415 2414 2326 2413 2492
8 2417 2331 2260 2352 2494 2416 2353 2438
8 2350 2259 2352 2436 2419 2332 2417 2496
8 2332 2239 2331 2417 2420 2333 2418 2497
8 2334 2240 2332 2419 2422 2335 2420 2499
8 2420 2333 2421 2500 2335 2241 2336 2423
8 2422 2335 2423 2502 2337 2243 2338 2425
8 2423 2336 2424 2503 2338 2244 2339 2426
8 2425 2338 2426 2505 2342 2246 2341 2429
8 2426 2339 2427 2506 2341 2245 2340 2428
8 2429 2341 2428 2507 2344 2249 2343 2430
8 2432 2346 2284 2374 2509 2431 2373 2455
8 2432 2346 2431 2509 2364 2270 2363 2449
8 2375 2285 2374 2456 2433 2347 2432 2510
8 2347 2433 2365 2271 2432 2510 2450 2364
8 2350 2259 2351 2435 2436 2352 2437 2514
8 2440 2356 2437 2514 2355 2264 2351 2435
8 2352 2260 2354 2437 2438 2353 2439 2516
8 2356 2265 2358 2442 2437 2354 2439 2516
8 2440 2356 2264 2355 2518 2442 2357 2441
8 2519 2443 2357 2441 2447 2361 2268 2362
8 2443 2359 2444 2520 2357 2266 2358 2442
8 2443 2359 2267 2361 2520 2444 2360 2446
8 2446 2360 2279 2370 2523 2445 2369 2452
8 2453 2370 2446 2524 2371 2280 2361 2447
8 2449 2363 2448 2525 2368 2278 2369 2452
8 2366 2277 2364 2450 2451 2368 2449 2526
8 2372 2283 2368 2451 2453 2370 2452 2527
8 2455 2373 2295 2380 2529 2454 2382 2460
8 2456 2374 2292 2378 2530 2455 2380 2458
8 2377 2293 2379 2457 2458 2380 2459 2531
8 2463 2384 2459 2531 2383 2297 2379 2457
8 2533 2461 2382 2460 2459 2381 2295 2380
8 2464 2385 2461 2533 2384 2298 2381 2459
8 2466 2387 2464 2537 2386 2300 2384 2463
8 2467 2388 2465 2538 2387 2301 2385 2464
8 2469 2390 2467 2540 2389 2303 2387 2466
8 2470 2391 2468 2541 2390 2304 2388 2467
8 2472 2393 2470 2543 2392 2306 2390 2469
8 2393 2307 2394 2473 2470 2391 2471 2544
8 2395 2308 2396 2475 2472 2393 2473 2546
8 2396 2309 2397 2476 2473 2394 2474 2547
8 2475 2396 2311 2398 2549 2476 2399 2478
8 2476 2397 2312 2399 2550 2477 2400 2479
8 2478 2399 2314 2403 2552 2479 2402 2483
8 2479 2400 2313 2402 2553 2480 2401 2482
8 2405 2316 2404 2485 2482 2401 2481 2556
8 2406 2317 2405 2486 2483 2402 2482 2557
8 2408 2319 2407 2488 2485 2404 2484 2559
8 2409 2320 2408 2489 2486 2405 2485 2560
8 2411 2322 2410 2490 2488 2407 2487 2561
8 2412 2323 2411 2491 2489 2408 2488 2562
8 2414 2326 2413 2492 2491 2411 2490 2563
8 2513 2434 2493 2565 2438 2353 2416 2494
8 2496 2417 2352 2436 2567 2494 2438 2515
8 2494 2416 2495 2568 2417 2331 2418 2497
8 2419 2332 2417 2496 2499 2420 2497 2570
8 2497 2418 2498 2571 2420 2333 2421 2500
8 2499 2420 2500 2573 2422 2335 2423 2502
8 2500 2421 2501 2574 2423 2336 2424 2503
8 2502 2423 2503 2576 2425 2338 2426 2505
8 2503 2424 2504 2577 2426 2339 2427 2506
8 2505 2426 2506 2578 2429 2341 2428 2507
8 2509 2431 2373 2455 2580 2508 2454 2529
8 2509 2431 2508 2580 2449 2363 2448 2525
8 2432 2510 2581 2509 2374 2456 2530 2455
8 2432 2510 2450 2364 2509 2581 2526 2449
8 2583 2511 2434 2513 2516 2439 2353 2438
8 2436 2352 2437 2514 2515 2438 2516 2588
8 2440 2356 2442 2518 2514 2437 2516 2588
8 2442 2358 2444 2520 2516 2439 2517 2589
8 2519 2443 2520 2591 2441 2357 2442 2518
8 2519 2443 2361 2447 2591 2520 2446 2524
8 2446 2360 2445 2523 2520 2444 2521 2592
8 2525 2448 2522 2593 2452 2369 2445 2523
8 2524 2446 2370 2453 2594 2523 2452 2527
8 2526 2449 2525 2595 2451 2368 2452 2527
8 2534 2462 2528 2597 2460 2382 2454 2529
8 2530 2455 2380 2458 2598 2529 2460 2532
8 2599 2533 2460 2532 2531 2459 2380 2458
8 2537 2464 2533 2599 2463 2384 2459 2531
8 2534 2462 2382 2460 2601 2535 2461 2533
8 2538 2465 2535 2601 2464 2385 2461 2533
8 2540 2467 2538 2604 2466 2387 2464 2537
8 2541 2468 2539 2605 2467 2388 2465 2538
8 2543 2470 2541 2607 2469 2390 2467 2540
8 2470 2391 2471 2544 2541 2468 2542 2608
8 2472 2393 2473 2546 2543 2470 2544 2610
8 2473 2394 2474 2547 2544 2471 2545 2611
8 2475 2396 2476 2549 2546 2473 2547 2613
8 2476 2397 2477 2550 2547 2474 2548 2614
8 2549 2476 2399 2478 2616 2550 2479 2552
8 2479 2400 2480 2553 2550 2477 2551 2617
8 2552 2479 2402 2483 2619 2553 2482 2557
8 2482 2401 2481 2556 2553 2480 2554 2620
8 2485 2404 2484 2559 2556 2481 2555 2623
8 2486 2405 2485 2560 2557 2482 2556 2624
8 2488 2407 2487 2561 2559 2484 2558 2625
8 2489 2408 2488 2562 2560 2485 2559 2626
8 2491 2411 2490 2563 2562 2488 2561 2627
8 2513 2434 2512 2585 2565 2493 2564 2630
8 2586 2513 2565 2632 2515 2438 2494 2567
8 2565 2493 2566 2633 2494 2416 2495 2568
8 2567 2494 2568 2635 2496 2417 2497 2570
8 2568 2495 2569 2636 2497 2418 2498 2571
8 2570 2497 2571 2638 2499 2420 2500 2573
8 2571 2498 2572 2639 2500 2421 2501 2574
8 2573 2500 2574 2641 2502 2423 2503 2576
8 2574 2501 2575 2642 2503 2424 2504 2577
8 2576 2503 2577 2643 2505 2426 2506 2578
8 2597 2528 2579 2645 2529 2454 2508 2580
8 2580 2508 2579 2645 2525 2448 2522 2593
8 2581 2509 2455 2530 2646 2580 2529 2598
8 2581 2509 2580 2646 2526 2449 2525 2595
8 2583 2511 2582 2648 2513 2434 2512 2585
8 2583 2511 2439 2516 2648 2582 2517 2589
8 2649 2583 2513 2586 2588 2516 2438 2515
8 2589 2517 2444 2520 2653 2587 2521 2592
8 2518 2442 2520 2591 2588 2516 2589 2654
8 2593 2522 2590 2655 2523 2445 2521 2592
8 2524 2446 2523 2594 2591 2520 2592 2656
8 2595 2525 2593 2657 2527 2452 2523 2594
8 2602 2536 2596 2659 2534 2462 2528 2597
8 2600 2534 2597 2660 2532 2460 2529 2598
8 2600 2534 2460 2532 2661 2601 2533 2599
8 2604 2538 2601 2661 2537 2464 2533 2599
8 2602 2536 2462 2534 2663 2603 2535 2601
8 2601 2535 2465 2538 2663 2603 2539 2605
8 2607 2541 2605 2665 2540 2467 2538 2604
8 2608 2542 2606 2666 2541 2468 2539 2605
8 2543 2470 2544 2610 2607 2541 2608 2668
8 2544 2471 2545 2611 2608 2542 2609 2669
8 2546 2473 2547 2613 2610 2544 2611 2671
8 2547 2474 2548 2614 2611 2545 2612 2672
8 2549 2476 2550 2616 2613 2547 2614 2674
8 2550 2477 2551 2617 2614 2548 2615 2675
8 2552 2479 2553 2619 2616 2550 2617 2677
8 2553 2480 2554 2620 2617 2551 2618 2678
8 2557 2482 2556 2624 2619 2553 2620 2680
8 2556 2481 2555 2623 2620 2554 2621 2681
8 2559 2484 2558 2625 2623 2555 2622 2683
8 2560 2485 2559 2626 2624 2556 2623 2684
8 2562 2488 2561 2627 2626 2559 2625 2685
8 2690 2629 2564 2630 2650 2584 2512 2585
8 2586 2513 2585 2651 2632 2565 2630 2691
8 2630 2564 2631 2692 2565 2493 2566 2633
8 2632 2565 2633 2694 2567 2494 2568 2635
8 2633 2566 2634 2695 2568 2495 2569 2636
8 2635 2568 2636 2697 2570 2497 2571 2638
8 2636 2569 2637 2698 2571 2498 2572 2639
8 2638 2571 2639 2700 2573 2500 2574 2641
8 2639 2572 2640 2701 2574 2501 2575 2642
8 2641 2574 2642 2702 2576 2503 2577 2643
8 2597 2528 2596 2659 2645 2579 2644 2704
8 2645 2579 2644 2704 2593 2522 2590 2655
8 2660 2597 2645 2705 2598 2529 2580 2646
8 2646 2580 2645 2705 2595 2525 2593 2657
8 2650 2584 2512 2585 2707 2647 2582 2648
8 2648 2582 2517 2589 2707 2647 2587 2653
8 2649 2583 2648 2708 2586 2513 2585 2651
8 2649 2583 2516 2588 2708 2648 2589 2654
8 2655 2590 2652 2710 2592 2521 2587 2653
8 2654 2589 2520 2591 2711 2653 2592 2656
8 2657 2593 2655 2712 2594 2523 2592 2656
8 2602 2536 2603 2663 2659 2596 2658 2714
8 2662 2602 2659 2715 2600 2534 2597 2660
8 2662 2602 2534 2600 2717 2663 2601 2661
8 2661 2601 2538 2604 2717 2663 2605 2665
8 2666 2606 2664 2718 2605 2539 2603 2663
8 2668 2608 2666 2720 2607 2541 2605 2665
8 2608 2542 2609 2669 2666 2606 2667 2721
8 2610 2544 2611 2671 2668 2608 2669 2723
8 2611 2545 2612 2672 2669 2609 2670 2724
8 2613 2547 2614 2674 2671 2611 2672 2726
8 2614 2548 2615 2675 2672 2612 2673 2727
8 2616 2550 2617 2677 2674 2614 2675 2729
8 2617 2551 2618 2678 2675 2615 2676 2730
8 2619 2553 2620 2680 2677 2617 2678 2732
8 2620 2554 2621 2681 2678 2618 2679 2733
8 2624 2556 2623 2684 2680 2620 2681 2735
8 2681 2621 2555 2623 2736 2682 2622 2683
8 2626 2559 2625 2685 2684 2623 2683 2737
8 2688 2628 2584 2650 2740 2686 2647 2707
8 2688 2628 2687 2742 2650 2584 2629 2690
8 2690 2629 2689 2745 2630 2564 2631 2692
8 2746 2690 2630 2691 2709 2650 2585 2651
8 2691 2630 2692 2747 2632 2565 2633 2694
8 2692 2631 2693 2748 2633 2566 2634 2695
8 2694 2633 2695 2750 2635 2568 2636 2697
8 2695 2634 2696 2751 2636 2569 2637 2698
8 2697 2636 2698 2753 2638 2571 2639 2700
8 2698 2637 2699 2754 2639 2572 2640 2701
8 2700 2639 2701 2755 2641 2574 2642 2702
8 2659 2596 2658 2714 2704 2644 2703 2757
8 2704 2644 2703 2757 2655 2590 2652 2710
8 2660 2597 2659 2715 2705 2645 2704 2758
8 2705 2645 2704 2758 2657 2593 2655 2712
8 2759 2706 2647 2707 2710 2652 2587 2653
8 2709 2650 2585 2651 2760 2707 2648 2708
8 2708 2648 2589 2654 2760 2707 2653 2711
8 2712 2655 2710 2761 2656 2592 2653 2711
8 2763 2713 2658 2714 2718 2664 2603 2663
8 2662 2602 2663 2717 2715 2659 2714 2764
8 2720 2666 2718 2767 2665 2605 2663 2717
8 2768 2719 2664 2718 2721 2667 2606 2666
8 2668 2608 2669 2723 2720 2666 2721 2770
8 2669 2609 2670 2724 2721 2667 2722 2771
8 2671 2611 2672 2726 2723 2669 2724 2773
8 2672 2612 2673 2727 2724 2670 2725 2774
8 2674 2614 2675 2729 2726 2672 2727 2776
8 2675 2615 2676 2730 2727 2673 2728 2777
8 2677 2617 2678 2732 2729 2675 2730 2779
8 2678 2618 2679 2733 2730 2676 2731 2780
8 2680 2620 2681 2735 2732 2678 2733 2782
8 2733 2679 2621 2681 2783 2734 2682 2736
8 2735 2681 2623 2684 2784 2736 2683 2737
8 2740 2686 2647 2707 2787 2738 2706 2759
8 2688 2628 2686 2740 2742 2687 2739 2789
8 2743 2688 2650 2709 2790 2740 2707 2760
8 2742 2687 2741 2792 2690 2629 2689 2745
8 2743 2688 2742 2793 2709 2650 2690 2746
8 2745 2689 2744 2795 2692 2631 2693 2748
8 2746 2690 2745 2796 2691 2630 2692 2747
8 2747 2692 2748 2797 2694 2633 2695 2750
8 2748 2693 2749 2798 2695 2634 2696 2751
8 2750 2695 2751 2800 2697 2636 2698 2753
8 2751 2696 2752 2801 2698 2637 2699 2754
8 2753 2698 2754 2802 2700 2639 2701 2755
8 2763 2713 2756 2804 2714 2658 2703 2757
8 2759 2706 2652 2710 2804 2756 2703 2757
8 2715 2659 2714 2764 2758 2704 2757 2805
8 2758 2704 2757 2805 2712 2655 2710 2761
8 2806 2759 2707 2760 2761 2710 2653 2711
8 2765 2716 2762 2808 2718 2664 2713 2763
8 2809 2763 2714 2764 2767 2718 2663 2717
8 2765 2716 2664 2718 2811 2766 2719 2768
8 2813 2768 2718 2767 2770 2721 2666 2720
8 2814 2769 2719 2768 2771 2722 2667 2721
8 2723 2669 2724 2773 2770 2721 2771 2816
8 2724 2670 2725 2774 2771 2722 2772 2817
8 2726 2672 2727 2776 2773 2724 2774 2819
8 2727 2673 2728 2777 2774 2725 2775 2820
8 2729 2675 2730 2779 2776 2727 2777 2822
8 2730 2676 2731 2780 2777 2728 2778 2823
8 2732 2678 2733 2782 2779 2730 2780 2825
8 2780 2731 2679 2733 2826 2781 2734 2783
8 2782 2733 2681 2735 2827 2783 2736 2784
8 2830 2785 2738 2787 2804 2756 2706 2759
8 2789 2739 2686 2740 2832 2786 2738 2787
8 2790 2740 2707 2760 2833 2787 2759 2806
8 2742 2687 2739 2789 2792 2741 2788 2835
8 2743 2688 2740 2790 2793 2742 2789 2836
8 2792 2741 2791 2838 2745 2689 2744 2795
8 2793 2742 2792 2839 2746 2690 2745 2796
8 2795 2744 2794 2841 2748 2693 2749 2798
8 2796 2745 2795 2842 2747 2692 2748 2797
8 2797 2748 2798 2843 2750 2695 2751 2800
8 2798 2749 2799 2844 2751 2696 2752 2801
8 2800 2751 2801 2845 2753 2698 2754 2802
8 2808 2762 2803 2847 2763 2713 2756 2804
8 2809 2763 2804 2848 2764 2714 2757 2805
8 2806 2759 2710 2761 2848 2804 2757 2805
8 2765 2716 2766 2811 2808 2762 2807 2850
8 2810 2765 2808 2851 2767 2718 2763 2809
8 2810 2765 2718 2767 2852 2811 2768 2813
8 2811 2766 2719 2768 2853 2812 2769 2814
8 2855 2814 2768 2813 2816 2771 2721 2770
8 2856 2815 2769 2814 2817 2772 2722 2771
8 2773 2724 2774 2819 2816 2771 2817 2858
8 2774 2725 2775 2820 2817 2772 2818 2859
8 2776 2727 2777 2822 2819 2774 2820 2861
8 2777 2728 2778 2823 2820 2775 2821 2862
8 2779 2730 2780 2825 2822 2777 2823 2864
8 2823 2778 2731 2780 2865 2824 2781 2826
8 2825 2780 2733 2782 2866 2826 2783 2827
8 2869 2828 2785 2830 2847 2803 2756 2804
8 2871 2829 2786 2832 2830 2785 2738 2787
8 2872 2830 2787 2833 2848 2804 2759 2806
8 2789 2739 2786 2832 2835 2788 2831 2874
8 2836 2789 2740 2790 2875 2832 2787 2833
8 2792 2741 2788 2835 2838 2791 2834 2877
8 2793 2742 2789 2836 2839 2792 2835 2878
8 2838 2791 2837 2880 2795 2744 2794 2841
8 2839 2792 2838 2881 2796 2745 2795 2842
8 2841 2794 2840 2882 2798 2749 2799 2844
8 2842 2795 2841 2883 2797 2748 2798 2843
8 2843 2798 2844 2884 2800 2751 2801 2845
8 2886 2846 2803 2847 2850 2807 2762 2808
8 2851 2808 2847 2887 2809 2763 2804 2848
8 2850 2807 2766 2811 2889 2849 2812 2853
8 2810 2765 2811 2852 2851 2808 2850 2890
8 2852 2811 2768 2813 2891 2853 2814 2855
8 2853 2812 2769 2814 2892 2854 2815 2856
8 2894 2856 2814 2855 2858 2817 2771 2816
8 2817 2772 2818 2859 2856 2815 2857 2895
8 2819 2774 2820 2861 2858 2817 2859 2897
8 2820 2775 2821 2862 2859 2818 2860 2898
8 2822 2777 2823 2864 2861 2820 2862 2900
8 2823 2778 2824 2865 2862 2821 2863 2901
8 2864 2823 2780 2825 2902 2865 2826 2866
8 2904 2867 2828 2869 2886 2846 2803 2847
8 2869 2828 2868 2906 2830 2785 2829 2871
8 2907 2869 2830 2872 2887 2847 2804 2848
8 2871 2829 2870 2909 2832 2786 2831 2874
8 2910 2871 2832 2875 2872 2830 2787 2833
8 2835 2788 2831 2874 2877 2834 2873 2912
8 2836 2789 2832 2875 2878 2835 2874 2913
8 2877 2834 2876 2915 2838 2791 2837 2880
8 2839 2792 2835 2878 2881 2838 2877 2916
8 2880 2837 2879 2917 2841 2794 2840 2882
8 2881 2838 2880 2918 2842 2795 2841 2883
8 2883 2841 2882 2919 2843 2798 2844 2884
8 2921 2885 2846 2886 2889 2849 2807 2850
8 2922 2886 2847 2887 2890 2850 2808 2851
8 2889 2849 2812 2853 2924 2888 2854 2892
8 2890 2850 2811 2852 2925 2889 2853 2891
8 2891 2853 2814 2855 2926 2892 2856 2894
8 2892 2854 2815 2856 2927 2893 2857 2895
8 2858 2817 2859 2897 2894 2856 2895 2929
8 2859 2818 2860 2898 2895 2857 2896 2930
8 2861 2820 2862 2900 2897 2859 2898 2932
8 2862 2821 2863 2901 2898 2860 2899 2933
8 2864 2823 2865 2902 2900 2862 2901 2934
8 2904 2867 2846 2886 2936 2903 2885 2921
8 2904 2867 2903 2936 2869 2828 2868 2906
8 2937 2904 2869 2907 2922 2886 2847 2887
8 2906 2868 2905 2939 2871 2829 2870 2909
8 2907 2869 2906 2940 2872 2830 2871 2910
8 2909 2870 2908 2942 2874 2831 2873 2912
8 2910 2871 2909 2943 2875 2832 2874 2913
8 2912 2873 2911 2945 2877 2834 2876 2915
8 2878 2835 2874 2913 2916 2877 2912 2946
8 2915 2876 2914 2947 2880 2837 2879 2917
8 2916 2877 2915 2948 2881 2838 2880 2918
8 2918 2880 2917 2949 2883 2841 2882 2919
8 2921 2885 2849 2889 2951 2920 2888 2924
8 2952 2921 2886 2922 2925 2889 2850 2890
8 2924 2888 2854 2892 2954 2923 2893 2927
8 2925 2889 2853 2891 2955 2924 2892 2926
8 2926 2892 2856 2894 2956 2927 2895 2929
8 2895 2857 2896 2930 2927 2893 2928 2957
8 2897 2859 2898 2932 2929 2895 2930 2959
8 2898 2860 2899 2933 2930 2896 2931 2960
8 2900 2862 2901 2934 2932 2898 2933 2961
8 2936 2903 2885 2921 2963 2935 2920 2951
8 2936 2903 2935 2963 2906 2868 2905 2939
8 2937 2904 2886 2922 2964 2936 2921 2952
8 2937 2904 2936 2964 2907 2869 2906 2940
8 2939 2905 2938 2966 2909 2870 2908 2942
8 2940 2906 2939 2967 2910 2871 2909 2943
8 2942 2908 2941 2969 2912 2873 2911 2945
8 2943 2909 2942 2970 2913 2874 2912 2946
8 2945 2911 2944 2971 2915 2876 2914 2947
8 2946 2912 2945 2972 2916 2877 2915 2948
8 2948 2915 2947 2973 2918 2880 2917 2949
8 2951 2920 2888 2924 2975 2950 2923 2954
8 2952 2921 2889 2925 2976 2951 2924 2955
8 2927 2893 2928 2957 2954 2923 2953 2978
8 2955 2924 2892 2926 2979 2954 2927 2956
8 2929 2895 2930 2959 2956 2927 2957 2980
8 2930 2896 2931 2960 2957 2928 2958 2981
8 2932 2898 2933 2961 2959 2930 2960 2982
8 2951 2920 2950 2975 2963 2935 2962 2984
8 2963 2935 2962 2984 2939 2905 2938 2966
8 2964 2936 2921 2952 2985 2963 2951 2976
8 2964 2936 2963 2985 2940 2906 2939 2967
8 2966 2938 2965 2987 2942 2908 2941 2969
8 2967 2939 2966 2988 2943 2909 2942 2970
8 2969 2941 2968 2989 2945 2911 2944 2971
8 2970 2942 2969 2990 2946 2912 2945 2972
8 2972 2945 2971 2991 2948 2915 2947 2973
8 2954 2923 2953 2978 2975 2950 2974 2993
8 2976 2951 2924 2955 2994 2975 2954 2979
8 2957 2928 2958 2981 2978 2953 2977 2995
8 2956 2927 2957 2980 2979 2954 2978 2996
8 2959 2930 2960 2982 2980 2957 2981 2997
8 2984 2962 2983 2999 2966 2938 2965 2987
8 2975 2950 2974 2993 2984 2962 2983 2999
8 2976 2951 2975 2994 2985 2963 2984 3000
8 2985 2963 2984 3000 2967 2939 2966 2988
8 2987 2965 2986 3001 2969 2941 2968 2989
8 2988 2966 2987 3002 2970 2942 2969 2990
8 2990 2969 2989 3003 2972 2945 2971 2991
8 2978 2953 2977 2995 2993 2974 2992 3004
8 2979 2954 2978 2996 2994 2975 2993 3005
8 2980 2957 2981 2997 2996 2978 2995 3006
8 2974 2993 2999 2983 2992 3004 3007 2998
8 2983 2999 2987 2965 2998 3007 3001 2986
8 3000 2984 2999 3008 2988 2966 2987 3002
8 2994 2975 2993 3005 3000 2984 2999 3008
8 3002 2987 3001 3009 2990 2969 2989 3003
8 2996 2978 2995 3006 3005 2993 3004 3010
8 3005 2993 3004 3010 3008 2999 3007 3011
8 3008 2999 3007 3011 3002 2987 3001 3009

CELL_TYPES 1910
12
12
12
12
12
12
12
12
12
12
12
12
12
12
12
12
12
12
12
12
12
12
12
12
12
12
12
12
12
12
12
12
12
12
12
12
12
12
12
12
12
12
12
12
12
12
12
12
12
12
12
12
12
12
12
12
12
12
12
12
12
12
12
12
12
12
12
12
12
12
12
12
12
12
12
12
12
12
12
12
12
12
12
12
12
12
12
12
12
12
12
12
12
12
12
12
12
12
12
12
12
12
12
12
12
12
12
12
12
12
12
12
12
12
12
12
12
12
12
12
12
12
12
12
12
12
12
12
12
12
12
12
12
12
12
12
12
12
12
12
12
12
12
12
12
12
12
12
12
12
12
12
12
12
12
12
12
12
12
12
12
12
12
12
12
12
12
12
12
12
12
12
12
12
12
12
12
12
12
12
12
12
12
12
12
12
12
12
12
12
12
12
12
12
12
12
12
12
12
12
12
12
12
12
12
12
12
12
12
12
12
12
12
12
12
12
12
12
12
12
12
12
12
12
12
12
12
12
12
12
12
12
12
12
12
12
12
12
12
12
12
12
12
12
12
12
12
12
12
12
12
12
12
12
12
12
12
12
12
12
12
12
12
12
12
12
12
12
12
12
12
12
12
12
12
12
12
12
12
12
12
12
12
12
12
12
12
12
12
12
12
12
12
12
12
12
12
12
12
12
12
12
12
12
12
12
12
12
12
12
12
12
12
12
12
12
12
12
12
12
12
12
12
12
12
12
12
12
12
12
12
12
12
12
12
12
12
12
12
12
12
12
12
12
12
12
12
12
12
12
12
12
12
12
12
12
12
12
12
12
12
12
12
12
12
12
12
12
12
12
12
12
12
12
12
12
12
12
12
12
12
12
12
12
12
12
12
12
12
12
12
12
12
12
12
12
12
12
12
12
12
12
12
12
12
12
12
12
12
12
12
12
12
12
12
12
12
12
12
12
12
12
12
12
12
12
12
12
12
12
12
12
12
12
12
12
12
12
12
12
12
12
12
12
12
12
12
12
12
12
12
12
12
12
12
12
12
12
12
12
12
12
12
12
12
12
12
12
12
12
12
12
12
12
12
12
12
12
12
12
12
12
12
12
12
12
12
12
12
12
12
12
12
12
12
12
12
12
12
12
12
12
12
12
12
12
12
12
12
12
12
12
12
12
12
12
12
12
12
12
12
12
12
12
12
12
12
12
12
12
12
12
12
12
12
12
12
12
12
12
12
12
12
12
12
12
12
12
12
12
12
12
12
12
12
12
12
12
12
12
12
12
12
12
12
12
12
12
12
12
12
12
12
12
12
12
12
12
12
12
12
12
12
12
12
12
12
12
12
12
12
12
12
12
12
12
12
12
12
12
12
12
12
12
12
12
12
12
12
12
12
12
12
12
12
12
12
12
12
12
12
12
12
12
12
12
12
12
12
12
12
12
12
12
12
12
12
12
12
12
12
12
12
12
12
12
12
12
12
12
12
12
12
12
12
12
12
12
12
12
12
12
12
12
12
12
12
12
12
12
12
12
12
12
12
12
12
12
12
12
12
12
12
12
12
12
12
12
12
12
12
12
12
12
12
12
12
12
12
12
12
12
12
12
12
12
12
12
12
12
12
12
12
12
12
12
12
12
12
12
12
12
12
12
12
12
12
12
12
12
12
12
12
12
12
12
12
12
12
12
12
12
12
12
12
12
12
12
12
12
12
12
12
12
12
12
12
12
12
12
12
12
12
12
12
12
12
12
12
12
12
12
12
12
12
12
12
12
12
12
12
12
12
12
12
12
12
12
12
12
12
12
12
12
12
12
12
12
12
12
12
12
12
12
12
12
12
12
12
12
12
12
12
12
12
12
12
12
12
12
12
12
12
12
12
12
12
12
12
12
12
12
12
12
12
12
12
12
12
12
12
12
12
12
12
12
12
12
12
12
12
12
12
12
12
12
12
12
12
12
12
12
12
12
12
12
12
12
12
12
12
12
12
12
12
12
12
12
12
12
12
12
12
12
12
12
12
12
12
12
12
12
12
12
12
12
12
12
12
12
12
12
12
12
12
12
12
12
12
12
12
12
12
12
12
12
12
12
12
12
12
12
12
12
12
12
12
12
12
12
12
12
12
12
12
12
12
12
12
12
12
12
12
12
12
12
12
12
12
12
12
12
12
12
12
12
12
12
12
12
12
12
12
12
12
12
12
12
12
12
12
12
12
12
12
12
12
12
12
12
12
12
12
12
12
12
12
12
12
12
12
12
12
12
12
12
12
12
12
12
12
12
12
12
12
12
12
12
12
12
12
12
12
12
12
12
12
12
12
12
12
12
12
12
12
12
12
12
12
12
12
12
12
12
12
12
12
12
12
12
12
12
12
12
12
12
12
12
12
12
12
12
12
12
12
12
12
12
12
12
12
12
12
12
12
12
12
12
12
12
12
12
12
12
12
12
12
12
12
12
12
12
12
12
12
12
12
12
12
12
12
12
12
12
12
12
12
12
12
12
12
12
12
12
12
12
12
12
12
12
12
12
12
12
12
12
12
12
12
12
12
12
12
12
12
12
12
12
12
12
12
12
12
12
12
12
12
12
12
12
12
12
12
12
12
12
12
12
12
12
12
12
12
12
12
12
12
12
12
12
12
12
12
12
12
12
12
12
12
12
12
12
12
12
12
12
12
12
12
12
12
12
12
12
12
12
12
12
12
12
12
12
12
12
12
12
12
12
12
12
12
12
12
12
12
12
12
12
12
12
12
12
12
12
12
12
12
12
12
12
12
12
12
12
12
12
12
12
12
12
12
12
12
12
12
12
12
12
12
12
12
12
12
12
12
12
12
12
12
12
12
12
12
12
12
12
12
12
12
12
12
12
12
12
12
12
12
12
12
12
12
12
12
12
12
12
12
12
12
12
12
12
12
12
12
12
12
12
12
12
12
12
12
12
12
12
12
12
12
12
12
12
12
12
12
12
12
12
12
12
12
12
12
12
12
12
12
12
12
12
12
12
12
12
12
12
12
12
12
12
12
12
12
12
12
12
12
12
12
12
12
12
12
12
12
12
12
12
12
12
12
12
12
12
12
12
12
12
12
12
12
12
12
12
12
12
12
12
12
12
12
12
12
12
12
12
12
12
12
12
12
12
12
12
12
12
12
12
12
12
12
12
12
12
12
12
12
12
12
12
12
12
12
12
12
12
12
12
12
12
12
12
12
12
12
12
12
12
12
12
12
12
12
12
12
12
12
12
12
12
12
12
12
12
12
12
12
12
12
12
12
12
12
12
12
12
12
12
12
12
12
12
12
12
12
12
12
12
12
12
12
12
12
12
12
12
12
12
12
12
12
12
12
12
12
12
12
12
12
12
12
12
12
12
12
12
12
12
12
12
12
12
12
12
12
12
12
12
12
12
12
12
12
12
12
12
12
12
12
12
12
12
12
12
12
12
12
12
12
12
12
12
12
12
12
12
12
12
12
12
12
12
12
12
12
12
12
12
12
12
12
12
12
12
12
12
12
12
12
12
12
12
12
12
12
12
12
12
12
12
12
12
12
12
12
12
12
12
12
12
12
12
12
12
12
12
12
12
12
12
12
12
12
12
12
12
12
12
12
12
12
12
12
12
12
12
12
12
12
12
12
12
12
12
12
12
12
12
12
12
12
12
12
12
12
12
12
12
12
12
12
12
12
12
12
12
12
12
12
12
12
12
12
12
12
12
12
12
12
12
12
12
12
12
12
12
12
12
12
12
12
12
12
12
12
12
12
12
12
12
12
12
12
12
12
12
12
12
12
12
12
12
12
12
12
12
12
12
12
12
12
12
12
12
12
12
12
12
12
12
12
12
12
12
12
12
12
12
12
12
12
12
12
12
12
12
12
12
12
12
12
12
12
12
12
12
12
12
12
12
12
12
12
12
12
12
12
12
12
12
12
12
12
12
12
12
12
12
12
12
12
12
12
12
12
12
12
12
12
12
12
12
12
12
12
12
12
12
12
12
12
12
12
12
12
12
12
12
12
12
12
12
12
12
12
12
12
12
12
12
12
12
12
12
12
12
12
12
12
12
12
12
12
12
12
12
12
12
12
12
12
12
12
12
12
12
12
12
12
12
12
12
12
12
12
12
12
12
12
12
12
12
12
12
12
12
12
12
12
12
12
12
12
12
12
12
12
12
12
12
12
12
12
12
12
12
12
12
12
12
12
12
12
12
12
12
12
12
12
12
12
12
12
12
12
12
12
12
12
12
12
12
12
12
12
12
12
12
12
12
12
12
12
12
12
12
12
12
12
12
12
12
12
12
12
12
12
12
12
12
12
12
12
12
12
12
12
12
12
12

POINT_DATA 3012
SCALARS Jp_lamdaP float 4
LOOKUP_TABLE default
0.999722 1 1 0.999722
1 1 1 1
0.99973 1 1 0.99973
0.999669 1 1 0.999669
0.999723 1 1 0.999723
0.999706 1 1 0.999706
0.998966 1 1 0.998966
1 1 1 1
1 1 1 1
1 1 1 1
0.999796 1 1 0.999796
0.999091 1 1 0.999091
0.999654 1 1 0.999654
0.999669 1 1 0.999669
0.999731 1 1 0.999731
0.999693 1 1 0.999693
0.999713 1 1 0.999713
0.999738 1 1 0.999738
0.998968 1 1 0.998968
1 1 1 1
0.999649 1 1 0.999649
0.999701 1 1 0.999701
0.998838 1 1 0.998838
0.998942 1 1 0.998942
0.999716 1 1 0.999716
0.998986 1 1 0.998986
1.00858 1.0108 1 0.997803
1 1 1 1
0.999851 1 1 0.999851
0.999865 1 1 0.999865
1 1 1 1
0.999099 1 1 0.999099
0.999695 1 1 0.999695
0.999722 1 1 0.999722
0.999098 1 1 0.999098
1 1 1 1
0.999183 1 1 0.999183
0.999192 1 1 0.999192
1.0025 1.00471 1 0.997794
1 1 1 1
1 1 1 1
0.999834 1 1 0.999834
1 1 1 1
0.99967 1 1 0.99967
0.998765 1 1 0.998765
1 1 1 1
0.998999 1 1 0.998999
0.999713 1 1 0.999713
0.999748 1 1 0.999748
0.999714 1 1 0.999714
0.998974 1 1 0.998974
0.999818 1 1 0.999818
0.999671 1 1 0.999671
0.999729 1 1 0.999729
0.999722 1 1 0.999722
0.998836 1 1 0.998836
0.99899 1 1 0.99899
0.998943 1 1 0.998943
1.009 1.01124 1 0.997789
1 1 1 1
0.999646 1 1 0.999646
0.999011 1 1 0.999011
0.998805 1 1 0.998805
0.998892 1 1 0.998892
1.01191 1.01442 1 0.997524
1.01006 1.01245 1 0.997643
0.999779 1 1 0.999779
0.999092 1 1 0.999092
1.00603 1.00815 1 0.997899
1.02524 1.02839 1 0.996932
1 1 1 1
1 1 1 1
1 1 1 1
0.999107 1 1 0.999107
1 1 1 1
1 1 1 1
0.998948 1 1 0.998948
0.999929 1 1 0.999929
0.999052 1 1 0.999052
0.999291 1 1 0.999291
1.00153 1.00375 1 0.997791
1 1 1 1
1.00083 1 1.001 0.999825
0.998874 1 1 0.998874
0.998982 1 1 0.998982
1.01262 1.01529 1 0.997369
0.999741 1 1.00022 0.999518
1.00655 1.00888 1 0.997694
0.999564 1.00163 1 0.997941
1.00789 1.01082 1 0.997108
1 1 1 1
1 1 1 1
1 1 1 1
1 1 1 1
1 1 1 1
0.999833 1 1 0.999833
0.998881 1 1 0.998881
0.999837 1 1 0.999837
0.998918 1 1 0.998918
1 1 1 1
0.998772 1 1 0.998772
0.998985 1 1 0.998985
1.01164 1.01453 1 0.997147
0.999035 1 1 0.999035
1.01393 1.01678 1 0.997198
0.999675 1 1 0.999675
0.999691 1 1 0.999691
0.999739 1 1 0.999739
0.999739 1 1 0.999739
0.998836 1 1 0.998836
0.998947 1 1 0.998947
0.998996 1 1 0.998996
1.00941 1.01166 1 0.997774
1 1 1 1
0.999667 1 1 0.999667
0.998799 1 1 0.998799
0.998801 1 1 0.998801
0.99989 1 1 0.99989
0.999164 1 1 0.999164
0.998893 1 1 0.998893
1.01185 1.0144 1 0.997484
1.00673 1.00887 1 0.997881
1.01032 1.01268 1 0.997673
1.02516 1.02831 1 0.996939
0.998795 1 1 0.998795
0.998796 1 1 0.998796
1.01032 1.01298 1 0.99737
1.01178 1.0144 1 0.997421
1.01163 1.01413 1 0.997536
1.03405 1.03734 1 0.996826
1 1 1 1
1.02816 1.03137 1 0.996893
0.999535 1 1.00023 0.999309
1.00207 1.00419 1 0.997891
1.0217 1.0248 1 0.996971
1.03294 1.03629 1 0.996768
1.00118 1 1.00158 0.999605
1.00616 1 1.00756 0.998613
1 1 1 1
1 1 1 1
0.998954 1 1 0.998954
1 1 1 1
0.999316 1 1.00006 0.999258
0.999058 1 1 0.999058
1.00049 1.00271 1 0.997788
1 1 1 1
1.00041 1 1.00056 0.999848
0.998972 1 1 0.998972
0.999073 1 1 0.999073
1.01201 1.01468 1 0.99737
0.999936 1 1.00045 0.999483
1.00536 1.00768 1 0.997697
0.999047 1.00111 1 0.997939
1.00839 1.01133 1 0.997093
1.00082 1 1.00115 0.999663
0.999925 1 1 0.999925
1.00239 1 1.00351 0.998883
1.01411 1.01689 1 0.997263
1.01019 1.01269 1 0.997531
1.03089 1.03425 1 0.996756
0.99887 1.00025 1.00041 0.99821
1.01674 1.01977 1 0.997033
1.0051 1.00734 1.00057 0.9972
1.01664 1.01978 1 0.996925
1 1 1 1
1 1 1 1
1 1 1 1
1.00014 1 1.00041 0.99973
1 1 1 1
1 1 1 1
1 1 1 1
0.998837 1 1 0.998837
0.998797 1 1 0.998797
1 1 1 1
1 1 1 1
0.998773 1 1 0.998773
0.998904 1 1 0.998904
1.01203 1.01492 1 0.997147
0.998858 1 1 0.998858
1.01415 1.017 1 0.997198
0.998768 1 1 0.998768
1.01055 1.01348 1 0.997109
1.01284 1.0157 1 0.997184
1.03754 1.04095 1 0.996718
1.01446 1.01729 1 0.997214
1.03958 1.04298 1 0.996737
1 1 1 1
0.999688 1 1 0.999688
0.998567 1 1 0.998567
0.998797 1 1 0.998797
1 1 1 1
0.999238 1 1 0.999238
0.998895 1 1 0.998895
1.01176 1.01435 1 0.997444
1.01061 1.01294 1 0.997702
1.00745 1.0096 1 0.997863
1.02507 1.02822 1 0.996945
0.998792 1 1 0.998792
0.998791 1 1 0.998791
1.01019 1.01297 1 0.997252
1.01176 1.01435 1 0.997446
1 1 1 1
0.999433 1 1.00009 0.99934
1.0033 1.00535 1 0.997963
1.01158 1.01408 1 0.997532
1.03391 1.03722 1 0.996803
1.02105 1.02416 1 0.996962
1.02837 1.03154 1 0.996929
1.03257 1.03591 1 0.996776
1.00117 1 1.00158 0.999594
1.00448 1 1.00588 0.998615
1.00999 1.01289 1 0.997131
1.01061 1.01325 1 0.997403
1.03485 1.03818 1 0.996795
1.03428 1.03764 1 0.996764
1.03103 1.03423 1 0.996908
1.04282 1.04612 1 0.996846
1.00056 1 1.0011 0.99946
1.03538 1.03868 1 0.996823
0.999335 1.00116 1.00011 0.998071
1.01419 1.01717 1 0.997065
1.0305 1.03387 1 0.996739
1.03408 1.03728 1 0.996911
1.00311 1.00001 1.0047 0.998401
1.00196 1 1.00308 0.99888
1.0034 1 1.00546 0.997956
0.9989 1 1 0.9989
1 1 1 1
0.999962 1 1.00009 0.99987
0.999014 1 1 0.999014
1.0114 1.01407 1 0.997371
1.00005 1 1.00056 0.999487
0.998439 1.00046 1.00004 0.997938
1.00421 1.00653 1 0.9977
1.00917 1.01213 1 0.997079
1.00062 1 1.00094 0.999685
0.99994 1 1 0.99994
1.00281 1 1.00393 0.998885
1.01375 1.01653 1 0.997262
1.00922 1.01172 1 0.997535
1.03101 1.03437 1 0.996752
0.998647 1.00005 1.00038 0.998214
1.01783 1.02085 1 0.997039
1.0043 1.00666 1.00047 0.997195
1.0174 1.02055 1 0.996915
0.999972 1 1 0.999972
1.00085 1 1.00233 0.998523
1.00096 1 1.00172 0.999244
1.00302 1 1.0048 0.998226
1.0351 1.03852 1 0.996707
1.02513 1.02833 1 0.996892
1.03659 1.04007 1 0.996654
1.00156 1.00357 1.00049 0.997513
1.02445 1.02763 1 0.996902
1.01365 1.01524 1.00158 0.996868
1.02563 1.02891 1 0.996812
0.999729 1 1 0.999729
0.999997 1 1 0.999997
1 1 1 1
1 1 1 1
1 1 1 1
0.999839 1 1 0.999839
1 1 1 1
1.00086 1 1.00115 0.999717
1 1 1 1
0.998859 1 1 0.998859
0.998821 1 1 0.998821
1.01449 1.01734 1 0.997197
1.01239 1.01528 1 0.997148
0.998775 1 1 0.998775
1 1 1 1
0.998768 1 1 0.998768
1.01085 1.01378 1 0.99711
1.01321 1.01607 1 0.997184
1.03707 1.04049 1 0.996716
1.01451 1.01735 1 0.997212
1.03958 1.04298 1 0.996735
1.00993 1.01286 1 0.997105
1.03654 1.03999 1 0.996685
1.03853 1.04192 1 0.99674
1.04766 1.05159 0.999316 0.996939
1.03899 1.04241 1 0.996717
1.04843 1.05181 0.999925 0.996864
0.99879 1 1 0.99879
0.998786 1 1 0.998786
1.01006 1.01297 1 0.997133
1.01176 1.01433 1 0.997472
1 1 1 1
0.999372 1 1 0.999372
1.00446 1.00644 1 0.998034
1.01152 1.01403 1 0.997528
1.03381 1.03715 1 0.99678
1.02853 1.03166 1 0.996964
1.02043 1.02355 1 0.996953
1.03233 1.03566 1 0.996784
1.00136 1 1.00177 0.999583
1.00371 1 1.0051 0.998617
1.00991 1.01284 1 0.997109
1.01062 1.01326 1 0.997398
1.03483 1.03814 1 0.99681
1.0344 1.03774 1 0.996784
1.00028 1 1.00083 0.999449
1.00014 1.00201 1.00007 0.998069
1.01409 1.01704 1 0.997099
1.03132 1.03454 1 0.996896
1.04301 1.04628 1 0.99688
1.02997 1.03337 1 0.996714
1.03539 1.03869 1 0.996828
1.03428 1.03749 1 0.996909
1.0027 1.00004 1.00426 0.998403
1.00386 1.00001 1.00591 0.997959
1.00293 1 1.00406 0.998878
1.03481 1.03818 1 0.996756
1.03459 1.03789 1 0.996829
1.04738 1.05116 0.999511 0.996889
1.04444 1.04779 0.999943 0.996859
1.03838 1.04163 1 0.996879
1.04002 1.04424 0.998813 0.997146
0.999005 1.00016 1.0006 0.99825
1.03643 1.03953 1 0.997019
1.00471 1.00734 1 0.997383
1.02159 1.02502 1 0.996651
1.03058 1.03404 1 0.996659
1.02954 1.03249 1 0.997143
1.00033 1 1.0012 0.99913
0.998796 1.00025 1.00067 0.997874
1.00742 1 1.00932 0.998108
1.00102 1.00065 1.00266 0.997727
1.01341 1.01619 1 0.99726
0.999955 1 1 0.999955
1.00052 1 1.00081 0.999707
1.00324 1 1.00436 0.998886
1.00826 1.01074 1 0.997539
1.03112 1.03449 1 0.996747
0.99855 1 1.00033 0.998218
1.00328 1.00578 1.00033 0.99719
1.01885 1.02187 1 0.997046
1.01756 1.02071 1 0.996905
0.999979 1 1 0.999979
1.0016 1 1.00308 0.998524
1.0005 1 1.00124 0.999253
1.0036 1 1.00539 0.99822
1.03501 1.03843 1 0.996702
1.02529 1.02849 1 0.996891
1.03627 1.03975 1 0.996651
1.00032 1.00236 1.00045 0.997519
1.02425 1.02743 1 0.996907
1.0136 1.01504 1.00173 0.996857
1.02551 1.02871 1 0.996888
0.999991 1 1 0.999991
0.999533 1 1.00004 0.999493
1.00018 1.00061 1.00168 0.997902
1.00297 1 1.00441 0.998561
1.00091 1 1.003 0.997918
1.04091 1.04437 1 0.996686
1.03057 1.03393 1 0.996751
1.03268 1.03605 1 0.996751
1.00578 1.00667 1.00199 0.99713
1.02354 1.02674 1 0.996879
1.01464 1.01722 1.00086 0.996609
0.999695 1 1 0.999695
0.999212 1 1 0.999212
0.999755 1 1 0.999755
0.999731 1 1 0.999731
0.999999 1 1 0.999999
0.999998 1 1 0.999998
1 1 1 1
1 1 1 1
1 1 1 1
0.999927 1 1 0.999927
1 1 1 1
0.999835 1 1.00001 0.999823
1 1 1 1
1.00102 1 1.00132 0.999703
1 1 1 1
1.0145 1.01734 1 0.997209
1.01352 1.01639 1 0.997183
1.03933 1.04273 1 0.996732
1.03662 1.04004 1 0.996715
1.01122 1.01415 1 0.99711
0.998767 1 1 0.998767
1.0101 1.01304 1 0.997105
1.03625 1.03969 1 0.996685
1.03824 1.04164 1 0.996737
1.04772 1.05195 0.99902 0.996957
1.03831 1.04174 1 0.996713
1.04794 1.05128 0.999957 0.996862
1.03539 1.03884 1 0.996676
1.04647 1.05109 0.998638 0.996961
1.04901 1.05265 0.999629 0.996916
1.04548 1.05234 0.996295 0.997173
1.04408 1.04746 1 0.99678
1.04602 1.05122 0.997849 0.997195
1.00988 1.01283 1 0.997088
1.01064 1.01329 1 0.997394
1.03482 1.03812 1 0.996825
1.03449 1.03781 1 0.996803
0.999982 1 1.00054 0.999438
1.00088 1.00282 1.00001 0.998067
1.01424 1.01716 1 0.997134
1.03164 1.03486 1 0.996883
1.04321 1.04643 1 0.996914
1.03546 1.03875 1 0.996832
1.02928 1.0327 1 0.996689
1.0345 1.03771 1 0.996908
1.00192 1.00005 1.00348 0.998406
1.00413 1.00002 1.00616 0.997962
1.00338 1 1.00451 0.998875
1.0349 1.0383 1 0.996727
1.03483 1.03812 1 0.996826
1.04675 1.05071 0.999305 0.996926
1.04473 1.04812 0.999912 0.996848
0.999343 1.00037 1.00073 0.998248
1.00609 1.00874 1 0.997378
1.02033 1.02368 1.00003 0.996698
1.03862 1.04189 1 0.996855
1.03989 1.04423 0.998646 0.997194
1.03102 1.03452 1 0.996622
1.03617 1.03927 1 0.997022
1.03019 1.03311 1 0.997176
0.999591 1.00055 1.00117 0.997875
1.00124 1.00077 1.00277 0.997701
1.00086 1 1.00173 0.999125
1.00688 1 1.00875 0.998146
1.04691 1.05083 0.999356 0.996908
1.04664 1.05037 0.99955 0.996893
1.04268 1.04945 0.996446 0.997086
1.04055 1.0473 0.996326 0.997215
1.03821 1.0415 0.999705 0.997136
1.03658 1.04301 0.996447 0.997377
0.999494 1.00181 1 0.997684
1.03116 1.03442 0.999476 0.997366
1.0104 1.0135 1 0.996945
1.02049 1.02396 1.00018 0.996438
1.03197 1.03546 1 0.996627
1.0306 1.03348 1 0.997213
0.999452 1 1.00013 0.999327
1.00529 1 1.00694 0.998371
0.999448 1.00183 1 0.997623
1.00414 1 1.0063 0.997854
1.00098 1.00118 1.00217 0.997647
0.999985 1 1 0.999985
1.03485 1.03828 1 0.996697
0.999959 1 1.0007 0.999262
1.00237 1 1.00385 0.998525
1.00425 1 1.00605 0.998214
1.02547 1.02867 1 0.99689
1.03597 1.03945 1 0.996648
0.999173 1.00114 1.00051 0.997526
1.0145 1.01575 1.00193 0.996846
1.02417 1.02734 1 0.996912
1.02578 1.02891 1 0.996964
0.999993 1 1 0.999993
0.999512 1 1.00001 0.999502
0.999514 1.00033 1.00128 0.997904
1.00373 1 1.00518 0.998561
1.00137 1 1.00347 0.997899
1.04087 1.04433 1 0.99668
1.03055 1.03391 1 0.996749
1.03265 1.03603 1 0.99674
1.00526 1.00601 1.00213 0.997136
1.02598 1.0292 1 0.996878
1.01472 1.01717 1.00096 0.99663
0.999629 1 1 0.999629
1.00015 1 1.00127 0.998884
1.00029 1.00225 1.00048 0.997568
1.00522 1 1.00703 0.998194
1.00009 1.00028 1.00198 0.997838
1.03792 1.04119 1 0.996857
1.02721 1.03052 1 0.996785
1.03169 1.03485 1 0.996952
1.00272 1.00199 1.00379 0.996946
1.01301 1.01653 1 0.996543
0.999697 1 1 0.999697
0.999139 1 1 0.999139
0.999188 1 1 0.999188
0.998944 1 1 0.998944
0.999228 1 1 0.999228
0.999768 1 1 0.999768
0.999757 1 1 0.999757
1 1 1 1
0.999733 1 1 0.999733
1 1 1 1
1 1 1 1
0.999999 1 1 0.999999
1 1 1 1
1 1 1 1
0.999981 1 1 0.999981
0.999909 1 1 0.999909
1 1 1 1
1 1 1 1
1.00019 1 1.00039 0.999807
1 1 1 1
1.03776 1.04119 1 0.99671
1.03816 1.04156 1 0.996735
1.04764 1.05094 1 0.996859
1.0478 1.05233 0.998715 0.996976
1.03584 1.03929 1 0.996685
1.0102 1.01313 1 0.997105
1.03529 1.03874 1 0.996677
1.04644 1.05099 0.998715 0.996955
1.04886 1.05243 0.999695 0.996916
1.04476 1.05214 0.995761 0.997205
1.04481 1.0482 1 0.996773
1.04577 1.05117 0.997636 0.997218
1.04651 1.05081 0.998974 0.996929
1.04342 1.05072 0.995892 0.997147
1.04499 1.05225 0.995845 0.997252
1.04253 1.05225 0.993411 0.997332
1.04352 1.047 0.999626 0.997051
1.04311 1.05126 0.994803 0.997426
1.03489 1.03832 1 0.996698
1.03502 1.03832 1 0.996824
1.04611 1.05023 0.999106 0.996963
1.04496 1.0484 0.99988 0.996838
0.999784 1.0007 1.00084 0.998246
1.00719 1.00984 1 0.997372
1.01897 1.02212 1.00018 0.996744
1.03883 1.04213 1 0.996832
1.03974 1.04424 0.998443 0.997243
1.03581 1.0389 1 0.997025
1.03149 1.03502 1 0.996585
1.03035 1.03323 1 0.997209
1.0005 1.00084 1.00179 0.997876
1.00152 1.00095 1.0029 0.997674
1.00136 1 1.00224 0.999121
1.00591 1 1.00774 0.998183
1.04664 1.05056 0.999356 0.996908
1.04641 1.05003 0.999677 0.996872
1.04281 1.04967 0.99633 0.997119
1.04096 1.04728 0.996758 0.997197
1.0006 1.00293 1 0.997676
1.00898 1.01199 1.00003 0.996989
1.02102 1.02428 1.00039 0.996428
1.03782 1.04103 0.999834 0.997089
1.03566 1.04231 0.996183 0.997435
1.02944 1.03294 1 0.996613
1.03223 1.03542 0.999551 0.997367
1.03129 1.03412 1 0.997269
0.99983 1.00221 1 0.997621
1.00083 1.00172 1.00146 0.99765
1.00459 1 1.00676 0.997847
0.999684 1 1.00039 0.99929
1.0048 1 1.0064 0.998406
1.04221 1.05004 0.995394 0.997134
1.04183 1.04968 0.995348 0.997168
1.03648 1.04679 0.992707 0.997422
1.03277 1.03915 0.996405 0.997443
1.00223 1.00486 1 0.997375
1.03601 1.03939 0.9992 0.997545
1.00614 1.00919 1.00029 0.996688
1.01843 1.02178 1.00051 0.996224
1.02704 1.03054 1 0.996607
0.999459 1 1 0.999459
1.00191 1 1.00322 0.998697
1.00474 1 1.00663 0.998126
1.00126 1.00373 1 0.997539
1.00398 1 1.0064 0.997597
1.0004 1.00189 1.001 0.997518
0.999995 1 1 0.999995
0.999511 1 1 0.999511
1.04084 1.04431 1 0.996674
1.00462 1 1.00607 0.99856
0.998707 1.00006 1.00074 0.997906
1.00174 1 1.00387 0.997881
1.0304 1.03376 1 0.996747
1.03245 1.03584 1 0.996728
1.00438 1.00496 1.00229 0.997141
1.01397 1.01659 1.00077 0.996649
1.02833 1.03155 1 0.996876
0.999634 1 1 0.999634
0.999949 1 1.00106 0.998888
0.99981 1.00184 1.00041 0.997565
1.00631 1 1.00813 0.998189
0.999939 1.00037 1.00173 0.997839
1.03792 1.0412 1 0.99685
1.02753 1.03085 1 0.996774
1.03147 1.0346 1 0.996979
1.00351 1.00337 1.00324 0.996907
1.0119 1.01539 1.00006 0.996514
0.999089 1 1 0.999089
1.00497 1 1.00653 0.998456
1.00197 1.00254 1.002 0.997443
1.00451 1.0006 1.00598 0.997951
1.00071 1.00199 1.001 0.997727
1.03791 1.04153 0.999183 0.997332
1.02623 1.02964 1 0.996687
1.0278 1.03091 1 0.996984
1.00506 1.00398 1.00433 0.996762
1.00395 1.00766 1 0.996326
0.9997 1 1 0.9997
0.999157 1 1 0.999157
0.998865 1 1 0.998865
0.999164 1 1 0.999164
0.999227 1 1 0.999227
0.998913 1 1 0.998913
0.998797 1 1 0.998797
0.998861 1 1 0.998861
0.999238 1 1 0.999238
0.999762 1 1 0.999762
0.999768 1 1 0.999768
1 1 1 1
0.999758 1 1 0.999758
1 1 1 1
1 1 1 1
1 1 1 1
1 1 1 1
1 1 1 1
0.999998 1 1 0.999998
0.999969 1 1 0.999969
1 1 1 1
0.999892 1 1 0.999892
1 1 1 1
1 1 1 1
1.04549 1.04888 1 0.996767
1.04852 1.05203 0.999751 0.996916
1.04552 1.05111 0.997436 0.99724
1.04399 1.05192 0.995212 0.997236
1.04648 1.05091 0.998824 0.99695
1.03532 1.03877 1 0.996678
1.04654 1.0507 0.999133 0.996909
1.04389 1.05082 0.996259 0.997139
1.04497 1.05205 0.996022 0.997235
1.04169 1.05185 0.992979 0.997344
1.04296 1.04631 0.999746 0.997051
1.04153 1.05036 0.994105 0.997467
1.04392 1.0506 0.996509 0.997121
1.0429 1.05328 0.992797 0.997327
1.04274 1.05366 0.99218 0.997436
1.03917 1.04749 0.994539 0.997497
1.04642 1.05034 0.999358 0.996908
1.04625 1.04976 0.999802 0.99685
1.04294 1.04988 0.996227 0.997152
1.04143 1.04732 0.997192 0.99718
1.00176 1.00409 1 0.997668
1.00781 1.01081 1 0.997033
1.02144 1.02451 1.00058 0.996418
1.03749 1.04057 0.999997 0.997043
1.0347 1.04155 0.995925 0.997492
1.03355 1.03667 0.999617 0.997369
1.02743 1.03094 1 0.996598
1.03309 1.03586 1 0.997325
1.00041 1.0028 1 0.997619
1.00065 1.00232 1.00069 0.997652
1.00599 1 1.00817 0.99784
0.999923 1 1.00067 0.999254
1.00466 1 1.00623 0.998442
1.04281 1.05055 0.995478 0.997136
1.04209 1.04992 0.995364 0.997163
1.03627 1.04605 0.993213 0.997412
1.00271 1.00536 1 0.997369
1.00657 1.00961 1.00026 0.996732
1.0172 1.02029 1.00076 0.996212
1.03333 1.03954 0.996592 0.99743
1.02879 1.03219 1 0.996708
1.03273 1.03632 0.999024 0.997514
0.999487 1 1 0.999487
1.00175 1.00424 1 0.997528
0.999514 1.00136 1.00051 0.997647
1.00483 1 1.00726 0.997585
1.00498 1 1.00685 0.998147
1.00188 1 1.00323 0.998663
1.04118 1.05158 0.99287 0.997217
1.03955 1.05292 0.989925 0.997343
1.03038 1.04439 0.989049 0.997507
1.03281 1.04268 0.992867 0.997648
1.00375 1.00659 1 0.99718
1.0276 1.03063 0.999938 0.997129
1.00357 1.00567 1.00165 0.996267
1.0095 1.01244 1.00104 0.996059
0.999681 1 1 0.999681
0.999436 1 1.00048 0.998955
1.00296 1 1.0046 0.998365
1.00527 1 1.00754 0.997744
1.00187 1.00387 1.00066 0.997356
1.00645 1.00075 1.00838 0.997334
0.99964 1 1 0.99964
0.999645 1 1.00075 0.998891
1.03814 1.04142 1 0.996843
1.00717 1 1.009 0.998184
0.999294 1.00147 1.00027 0.997562
0.999371 1.00001 1.00152 0.997841
1.0281 1.03144 1 0.996762
1.03161 1.03471 1 0.997005
1.00458 1.00499 1.00273 0.996868
1.01081 1.01411 1.00027 0.996485
0.999092 1 1 0.999092
1.00494 1 1.0065 0.998453
1.00214 1.00271 1.00198 0.997452
1.00382 1.00004 1.00583 0.997961
1.00047 1.00218 1.00048 0.997812
1.03867 1.0425 0.99895 0.997377
1.02571 1.0291 1 0.996704
1.02948 1.03252 1 0.997056
1.00478 1.00348 1.00458 0.996726
1.00441 1.00815 1.00003 0.996261
0.999116 1 1.00035 0.998762
1.00582 1 1.00776 0.99808
1.00494 1.00385 1.00378 0.997316
1.00067 1.00146 1.00161 0.99761
1.03637 1.05452 0.985127 0.997629
1.03179 1.03491 0.999559 0.997422
1.01543 1.01908 1 0.996424
1.00606 1.00547 1.00426 0.996344
0.999176 1 1 0.999176
0.998878 1 1 0.998878
0.998784 1 1 0.998784
0.999226 1 1 0.999226
0.998883 1 1 0.998883
0.999237 1 1 0.999237
0.998793 1 1 0.998793
0.998873 1 1 0.998873
0.99878 1 1 0.99878
0.998695 1 1 0.998695
0.998824 1 1 0.998824
0.999219 1 1 0.999219
0.999741 1 1 0.999741
0.999761 1 1 0.999761
1 1 1 1
0.999768 1 1 0.999768
1 1 1 1
1 1 1 1
1 1 1 1
1 1 1 1
1 1 1 1
1 1 1 1
0.999995 1 1 0.999995
1 1 1 1
0.999957 1 1 0.999957
1 1 1 1
1 1 1 1
1.04232 1.04553 0.999876 0.997052
1.04499 1.05192 0.996178 0.997219
1.04 1.04952 0.993406 0.997508
1.04093 1.05153 0.992544 0.997356
1.04437 1.05093 0.996618 0.997132
1.04649 1.05053 0.999267 0.99689
1.04373 1.05054 0.996386 0.997121
1.04269 1.05291 0.992959 0.997318
1.04182 1.05289 0.992031 0.997435
1.04068 1.0487 0.994835 0.997507
1.04365 1.05328 0.993562 0.997271
1.04436 1.05912 0.988552 0.997484
1.04395 1.05793 0.989199 0.99756
1.0434 1.05108 0.995545 0.997138
1.0423 1.05012 0.995374 0.997158
1.03615 1.04534 0.993793 0.997403
1.00291 1.00556 1 0.997363
1.00641 1.00948 1.00018 0.996776
1.0158 1.01882 1.00085 0.996201
1.03387 1.03991 0.996769 0.997416
1.02898 1.03277 0.998841 0.997483
1.02961 1.0329 1 0.996809
1.00122 1.00371 1 0.997516
0.998245 1.00047 1 0.997776
1.00532 1 1.00776 0.997573
0.999515 1 1 0.999515
1.00428 1 1.00613 0.998168
1.00178 1 1.00316 0.998628
1.0419 1.05205 0.99311 0.997225
1.03907 1.05275 0.989625 0.997351
1.03053 1.04397 0.989601 0.997499
1.0021 1.00494 1 0.997171
1.00358 1.00586 1.0014 0.996346
1.0098 1.01282 1.0009 0.996127
1.03295 1.04243 0.99324 0.997653
1.02625 1.02969 0.999541 0.997111
0.999736 1 1 0.999736
0.999366 1 1.00041 0.998954
0.99993 1.00253 1 0.997406
1.00866 1.00071 1.0105 0.997472
1.00508 1 1.00731 0.997784
1.00281 1 1.00449 0.998335
1.04189 1.0564 0.988826 0.997405
1.03152 1.05241 0.98264 0.997464
1.02787 1.04393 0.986886 0.997696
1.02288 1.03203 0.993446 0.997666
1.00181 1.00396 1.00101 0.996851
1.00837 1.01067 1.0014 0.996327
1.00315 1.00447 1.00264 0.996055
0.999867 1 1 0.999867
0.999408 1 1 0.999408
0.999158 1 1 0.999158
0.999948 1 1.00143 0.998519
1.00346 1 1.00544 0.998024
1.0084 1 1.01083 0.997604
0.999277 1.00183 1 0.997457
1.03127 1.00062 1.03303 0.997686
0.999095 1 1 0.999095
1.0052 1 1.00676 0.998449
1.03941 1.04341 0.998738 0.997421
1.00398 1 1.00603 0.997969
1.00252 1.00291 1.00215 0.997462
1.00007 1.00214 1.00004 0.997897
1.02478 1.02815 1 0.99672
1.03093 1.0339 1 0.997129
1.00453 1.00303 1.00482 0.99669
1.00493 1.00876 1 0.996197
0.99934 1 1.00061 0.998733
1.00562 1 1.00754 0.998094
1.00569 1.0042 1.00415 0.997345
1.00055 1.00149 1.00142 0.997646
1.03863 1.05638 0.985521 0.997648
1.03187 1.03485 0.999745 0.997373
1.01629 1.01989 1 0.99647
1.00711 1.00706 1.00377 0.996292
1.00034 1 1.00182 0.998522
1.03716 1.05986 0.980881 0.997654
1.00175 1 1.004 0.997758
1.00435 1.00461 1.00268 0.997067
1.03365 1.04501 0.991365 0.997744
1.01423 1.01773 1 0.996565
1.00624 1.00692 1.00323 0.996109
0.99889 1 1 0.99889
0.998775 1 1 0.998775
0.998783 1 1 0.998783
0.999235 1 1 0.999235
0.998886 1 1 0.998886
0.998789 1 1 0.998789
0.999217 1 1 0.999217
0.998829 1 1 0.998829
0.998781 1 1 0.998781
0.998715 1 1 0.998715
0.998815 1 1 0.998815
0.998695 1 1 0.998695
0.998808 1 1.0002 0.998607
0.998781 1 1 0.998781
0.999166 1 1 0.999166
0.999712 1 1 0.999712
0.999738 1 1 0.999738
1 1 1 1
0.999759 1 1 0.999759
1 1 1 1
1 1 1 1
1 1 1 1
1 1 1 1
1 1 1 1
0.999893 1 1 0.999893
1 1 1 1
1 1 1 1
1 1 1 1
0.999992 1 1 0.999992
1 1 1 1
1 1 1 1
1.04219 1.04992 0.995108 0.997516
1.04088 1.05203 0.991947 0.997434
1.04243 1.05249 0.99312 0.997309
1.04356 1.05047 0.996289 0.99712
1.04329 1.05322 0.993269 0.99729
1.04432 1.05864 0.988966 0.997474
1.04228 1.0565 0.988948 0.99757
1.04394 1.05895 0.988334 0.997463
1.05172 1.06806 0.987085 0.997582
1.03979 1.06055 0.98255 0.997835
1.04262 1.0525 0.993362 0.997232
1.03858 1.0526 0.989296 0.997358
1.03056 1.04354 0.990041 0.997491
1.00209 1.00488 1.00006 0.997163
1.00417 1.0065 1.00126 0.996427
1.01104 1.01411 1.00078 0.996195
1.03316 1.04224 0.993621 0.997659
1.02512 1.02895 0.999181 0.997092
0.999712 1.00226 1 0.997457
1.01126 1.00106 1.01261 0.99761
1.00586 1 1.00805 0.997824
0.999791 1 1 0.999791
0.999277 1 1.00032 0.998953
1.00299 1 1.00469 0.998305
1.04183 1.05669 0.988492 0.997416
0.999862 1 1 0.999862
0.999379 1 1 0.999379
1.03173 1.0516 0.983592 0.997465
1.02684 1.04349 0.986352 0.997665
1.00195 1.00368 1.00134 0.996939
1.00372 1.0044 1.0033 0.996041
1.00906 1.01193 1.00084 0.996321
1.02176 1.03123 0.993153 0.997642
0.999234 1 1 0.999234
0.999911 1 1.0014 0.998512
1.00026 1.00165 1.00126 0.997359
1.02619 1.00065 1.02773 0.99785
1.00659 1 1.00899 0.99762
1.00377 1 1.00573 0.998043
1.04973 1.06644 0.986756 0.99754
1.01417 1.04969 0.968482 0.997604
1.01899 1.03749 0.984274 0.997853
1.00386 1.0139 0.992724 0.997359
1.00244 1.00126 1.00421 0.996987
1.00362 1.00219 1.00547 0.995981
0.999363 1 1 0.999363
0.999363 1 1 0.999363
0.999084 1 1 0.999084
0.998657 1 1 0.998657
1.00139 1 1.00312 0.998276
1.00242 1.00009 1.00461 0.997721
1.04235 1 1.04484 0.99762
1.00234 1.00049 1.00397 0.997882
0.999583 1 1.00088 0.998704
1.00497 1 1.00687 0.998109
1.04015 1.05726 0.986116 0.997667
1.03176 1.03466 0.999874 0.997324
1.00044 1.00161 1.00115 0.997683
1.00656 1.00478 1.00441 0.997374
1.01751 1.02103 1.00004 0.996515
1.00822 1.00864 1.00335 0.996241
1.00056 1 1.00205 0.998508
1.03927 1.06256 0.980334 0.997701
1.00205 1 1.00428 0.997779
1.00381 1.00412 1.00269 0.997015
1.03232 1.04417 0.990915 0.997717
1.01418 1.0176 1 0.996639
1.00674 1.00715 1.00348 0.996126
1.00219 1 1.004 0.998189
1.01649 1.04064 0.978639 0.998121
1.00271 1.00266 1.00257 0.997494
1.00372 1.00331 1.00379 0.996634
1.01632 1.02441 0.994768 0.997318
1.00185 1.00335 1.00221 0.996305
0.987308 1.00444 0.985137 0.997771
0.998766 1 1 0.998766
0.999187 1 1.00041 0.998781
0.998796 1 1.00011 0.998683
0.999214 1 1 0.999214
0.998834 1 1 0.998834
0.998735 1 1 0.998735
0.998782 1 1 0.998782
0.999165 1 1 0.999165
0.998772 1 1 0.998772
0.998782 1 1 0.998782
0.998681 1 1.00007 0.998608
0.998689 1 1 0.998689
0.99877 1 1 0.99877
0.998849 1 1.00041 0.998435
0.999306 1 1.00072 0.99859
0.998675 1 1 0.998675
0.99905 1 1 0.99905
0.998912 1 1.00007 0.99884
0.99903 1 1 0.99903
0.999696 1 1 0.999696
0.99971 1 1 0.99971
1 1 1 1
0.999736 1 1 0.999736
1 1 1 1
1 1 1 1
1 1 1 1
1 1 1 1
1 1 1 1
0.999915 1 1 0.999915
0.999892 1 1 0.999892
1 1 1 1
1 1 1 1
1 1 1 1
1 1 1 1
1 1 1 1
1 1 1 1
1.04079 1.05535 0.988592 0.997579
1.04422 1.05823 0.989271 0.997464
1.04297 1.05318 0.992977 0.997309
1.04398 1.05892 0.988395 0.997461
1.04948 1.06591 0.986972 0.997579
1.03961 1.05941 0.983508 0.997772
1.0522 1.07137 0.984423 0.997647
0.980681 1.01605 0.968711 0.99636
1.01088 1.03757 0.975754 0.998486
0.999475 1 1 0.999475
1.04178 1.05699 0.98816 0.997427
1.03212 1.05085 0.98467 0.997466
1.02589 1.04308 0.985854 0.997634
1.00014 1.0023 1.00082 0.997027
1.00387 1.00384 1.00402 0.996027
1.00952 1.01279 1.00045 0.996316
1.02052 1.03031 0.99287 0.997619
0.9989 1.0016 1.00005 0.997262
1.01978 1 1.0218 0.998016
1.00458 1 1.00696 0.997636
0.999858 1 1 0.999858
1.00421 1 1.00616 0.998062
0.999309 1 1 0.999309
0.999821 1 1.00132 0.998506
0.99935 1 1 0.99935
1.04698 1.06671 0.983916 0.997547
0.999402 1 1 0.999402
0.999362 1 1 0.999362
0.999048 1 1 0.999048
1.01779 1.04972 0.971915 0.997603
1.01975 1.03814 0.984452 0.997807
1.00058 1.00129 1.00228 0.997013
1.00454 1.00292 1.00556 0.996082
1.00341 1.01196 0.994195 0.997345
0.998708 1 1 0.998705
1.00152 1 1.00329 0.998235
1.00749 1.00031 1.00941 0.997791
1.03399 1 1.03642 0.997654
1.00189 1 1.00413 0.997762
1.03222 1.05684 0.979015 0.997645
1.00349 1.04423 0.963167 0.997743
1.01169 1.02341 0.991004 0.997527
0.993605 1.00464 0.991887 0.997108
1.00345 1 1.006 0.997465
0.998956 1 1 0.998956
0.998878 1 1 0.998878
0.999171 1 1.0004 0.998768
1.00042 1 1.00198 0.998437
1.00264 1 1.00456 0.998087
1.03038 1 1.03271 0.997744
1.02718 1.00019 1.02935 0.997708
1.00056 1 1.00207 0.998493
1.00236 1 1.00457 0.997801
1.04067 1.06605 0.978393 0.997747
1.03127 1.04384 0.99025 0.99769
1.01388 1.01722 1 0.996713
1.00309 1.00346 1.00268 0.996963
1.0069 1.00717 1.0036 0.996143
1.00213 1 1.00391 0.99823
1.01484 1.04067 0.976981 0.998149
1.00094 1.00173 1.00171 0.99751
1.00303 1.00233 1.00408 0.996641
1.01582 1.02456 0.994029 0.997424
1.00184 1.00283 1.00273 0.996295
0.986746 1.00436 0.985472 0.996944
1.00208 1.00053 1.0035 0.998046
1.00654 1.02177 0.986968 0.998098
1.00074 1.00135 1.00194 0.997451
1.00445 1.00122 1.00644 0.996802
0.994436 1.00593 0.9914 0.997146
0.933225 0.981024 0.97148 0.979203
0.936346 0.976373 0.969273 0.989406
0.977536 0.988857 0.990706 0.997826
0.776866 0.860652 0.936832 0.963511
0.706652 0.836225 0.88625 0.953512
0.999409 1 1.00063 0.99878
0.999413 1 1.00069 0.998728
0.999037 1 1.00032 0.998717
0.999164 1 1 0.999164
0.998763 1 1 0.998763
0.998609 1 1 0.998609
0.998683 1 1 0.998683
0.998748 1 1 0.998748
0.999987 1 1.00142 0.998565
0.999081 1 1 0.999081
0.998694 1 1 0.998694
0.998742 1 1 0.998742
0.999155 1 1.00069 0.998462
1.00115 1 1.00268 0.998474
1.0014 1 1.00288 0.998518
1.00021 1 1.00172 0.998494
0.998699 1 1.00007 0.998624
0.999023 1 1 0.999023
0.998704 1 1 0.998704
0.998687 1 1.00002 0.998664
0.998854 1 1.00001 0.99884
0.998862 1 1.00006 0.998802
0.99913 1 1 0.99913
0.999027 1 1 0.999027
0.999691 1 1 0.999691
0.999696 1 1 0.999696
1 1 1 1
0.999708 1 1 0.999708
1 1 1 1
1 1 1 1
1 1 1 1
1 1 1 1
1 1 1 1
0.999933 1 1 0.999933
0.999912 1 1 0.999912
1 1 1 1
0.999891 1 1 0.999891
1 1 1 1
1 1 1 1
1 1 1 1
1 1 1 1
1 1 1 1
1.04699 1.06352 0.986849 0.997576
1.04401 1.05886 0.988488 0.997459
1.04003 1.05862 0.984692 0.99771
0.983916 1.01587 0.972021 0.996426
1.0492 1.06872 0.984056 0.997645
1.0211 1.04064 0.982832 0.998367
1.03815 1.05003 0.990906 0.997759
0.940028 0.981896 0.968457 0.988541
0.99662 1.01935 0.980536 0.997108
0.999486 1 1 0.999486
0.999472 1 1 0.999472
0.999064 1 1 0.999064
0.999124 1 1 0.999124
1.04484 1.06696 0.981672 0.997555
1.02085 1.0493 0.975223 0.997603
1.02018 1.03852 0.984543 0.997761
0.999612 1.00073 1.00185 0.997038
1.00544 1.00391 1.00536 0.996181
1.00272 1.0104 0.995056 0.997331
1.01458 1 1.01691 0.997699
1.02667 1 1.02905 0.997687
1.00121 1 1.00341 0.997803
0.999361 1 1 0.999361
1.00112 1 1.00293 0.998193
0.998752 1 1 0.998752
0.999441 1 1 0.999441
0.999012 1 1 0.999012
1.02972 1.05659 0.976862 0.99766
0.999001 1 1 0.999001
0.998929 1 1 0.998929
0.998885 1 1 0.998885
1.00741 1.04655 0.96478 0.997738
1.01078 1.02319 0.990323 0.997526
1.00315 1.00006 1.00567 0.997447
0.995344 1.005 0.993204 0.997167
0.999812 1 1.00141 0.998405
1.00216 1 1.00416 0.99801
1.03175 1.00052 1.0336 0.997692
1.03086 1.00005 1.0332 0.99769
0.998721 1.03927 0.963086 0.997819
0.996547 1.02965 0.970069 0.997717
1.00385 1.00923 0.997446 0.997208
0.988183 1.00072 0.989486 0.997965
0.998631 1 1 0.998631
0.99998 1 1.00142 0.998561
1.01072 1 1.01242 0.998325
1.0489 1 1.05134 0.997679
0.908389 0.969933 0.958542 0.977054
1.00253 1 1.00426 0.998271
0.999354 1.00074 1.00109 0.997526
1.01443 1.04045 0.976775 0.998179
1.0159 1.02482 0.993754 0.997529
1.00218 1.00261 1.0033 0.996283
1.00282 1.00172 1.00447 0.996646
0.987404 1.00495 0.986392 0.996097
1.00116 1.00023 1.00283 0.998101
1.00675 1.02286 0.986131 0.998086
1.00022 1.00132 1.00144 0.997465
1.00448 1.00159 1.00611 0.996802
0.997394 1.00684 0.993444 0.997153
0.932073 0.986739 0.966737 0.977101
0.931183 0.973706 0.968994 0.98693
0.979265 0.988265 0.993034 0.997845
0.776085 0.857626 0.938589 0.96413
0.691818 0.825305 0.882547 0.949816
1.00024 1.00013 1.00181 0.998301
0.805751 0.88021 0.947726 0.965898
0.747465 0.841546 0.930117 0.954939
0.990073 1.00684 0.985305 0.998015
1.00669 1.00132 1.00757 0.997807
1.01228 1.00456 1.01029 0.997427
0.971598 0.983062 0.990262 0.998058
0.923986 0.967493 0.976939 0.977575
0.907747 0.947913 0.971581 0.985638
0.761357 0.859215 0.917533 0.96575
0.767776 0.886427 0.908028 0.953877
1.00008 1 1.00131 0.998773
1.00017 1 1.00147 0.998696
1.00117 1 1.00231 0.998871
0.999112 1 1 0.999112
0.998713 1 1 0.998713
1.00024 1 1.0017 0.998541
0.999674 1 1.00119 0.99849
0.998715 1 1 0.998715
0.999024 1 1 0.999024
1.001 1 1.00254 0.998465
1.00058 1 1.00207 0.998509
0.998675 1 1.00002 0.998658
1.00116 1 1.00264 0.998533
1.00312 1 1.00464 0.998491
1.00591 1 1.00731 0.99861
0.998773 1 1.00032 0.998457
0.998668 1 1 0.998668
0.998701 1 1 0.998701
0.998712 1 1.00005 0.998662
0.99865 1 1.00013 0.998521
0.999218 1 1.00054 0.998676
0.999562 1 1.00092 0.998642
1.00172 1 1.00325 0.998479
0.99946 1 1.00066 0.998803
0.998966 1 1.00013 0.998841
0.999161 1 1 0.999161
0.998772 1 1.00001 0.998765
0.999104 1 1 0.999104
0.999682 1 1 0.999682
0.999024 1 1 0.999024
0.999692 1 1 0.999692
1 1 1 1
0.999696 1 1 0.999696
1 1 1 1
1 1 1 1
1 1 1 1
1 1 1 1
1 1 1 1
0.999448 1 1 0.999448
0.999935 1 1 0.999935
0.99993 1 1 0.99993
1 1 1 1
0.999908 1 1 0.999908
1 1 1 1
1 1 1 1
1 1 1 1
1 1 1 1
1 1 1 1
0.98659 1.01578 0.974673 0.996497
1.04688 1.06583 0.984544 0.997644
1.02705 1.04355 0.985919 0.998247
0.933688 0.975377 0.967311 0.989607
0.996943 1.01907 0.980981 0.997254
1.0388 1.05346 0.988335 0.997714
1.0103 1.02641 0.987068 0.997196
0.948232 0.976354 0.980247 0.990768
0.930884 0.978979 0.973027 0.977231
0.769663 0.857065 0.930223 0.965383
0.67943 0.80142 0.889804 0.952775
0.999072 1 1 0.999072
0.999485 1 1 0.999485
0.99947 1 1 0.99947
0.999053 1 1 0.999053
0.998817 1 1 0.998817
0.998846 1 1 0.998846
0.999025 1 1 0.999025
0.999089 1 1 0.999089
1.0262 1.05663 0.973465 0.997674
1.01211 1.04989 0.966205 0.997733
1.01034 1.02306 0.990019 0.997525
1.00273 1.00043 1.00488 0.997431
0.997401 1.005 0.995197 0.997226
1.03434 1.00007 1.03668 0.997676
1.03146 1 1.0339 0.997637
1.00239 1 1.00446 0.997933
0.99898 1 1 0.99898
0.999693 1 1.00132 0.998371
0.999047 1 1 0.999047
0.999002 1 1 0.999002
0.998645 1.03999 0.962338 0.997823
0.99878 1 1.00012 0.998659
0.999624 1 1.00102 0.998603
0.996242 1.02863 0.970752 0.997692
1.00088 1.00904 0.994555 0.997335
0.990689 1.00109 0.991738 0.997858
1.01645 1 1.0183 0.998183
1.04437 1.00013 1.04665 0.997703
0.988549 1.02686 0.964815 0.997801
0.985082 1.00904 0.978475 0.997737
0.983005 1.00151 0.983726 0.99776
0.993037 1.00103 0.993915 0.998094
1.00207 1 1.00376 0.998317
1.0068 1 1.00848 0.998334
1.0448 1 1.04691 0.997986
0.801059 0.889038 0.931601 0.967197
0.925985 0.976334 0.967682 0.980105
1.00005 1 1.0019 0.998156
0.999563 1.00102 1.00107 0.99748
1.00671 1.02406 0.984958 0.998076
0.999766 1.00781 0.994843 0.997161
1.00463 1.00213 1.00571 0.996804
0.926169 0.97584 0.97087 0.977576
0.937336 0.980425 0.968102 0.987551
0.979698 0.986793 0.994942 0.997857
0.776687 0.859338 0.935256 0.966389
0.679247 0.814739 0.881271 0.946019
1.00028 1.00007 1.00191 0.998299
0.802083 0.885394 0.937284 0.966521
0.737175 0.831655 0.930088 0.953024
0.990121 1.00762 0.98459 0.998013
1.00681 1.00165 1.00734 0.997833
1.01068 1.00288 1.01022 0.99758
0.964009 0.977128 0.988352 0.9982
0.931003 0.977679 0.976238 0.975437
0.907462 0.950802 0.966049 0.98796
0.765068 0.855737 0.927419 0.964015
0.765802 0.890815 0.90207 0.952991
1.00222 1 1.00352 0.9987
0.779782 0.853218 0.955586 0.956407
0.85279 0.922249 0.959851 0.963364
0.989441 0.998183 0.992548 0.998685
1.01424 1.00258 1.01302 0.998638
0.973714 0.968143 1.00772 0.998051
0.904472 0.935224 0.977795 0.989081
0.898646 0.939901 0.981149 0.974477
0.770503 0.854824 0.934297 0.964745
0.807088 0.924417 0.91245 0.95685
1.00135 0.999979 1.0027 0.998675
1.00095 1 1.00212 0.998837
1.00461 1 1.00553 0.99909
0.999025 1 1 0.999025
0.998691 1 1 0.998691
1.00122 1 1.0027 0.998523
1.0013 1 1.00285 0.998456
1.00088 1 1.00233 0.998548
0.998667 1 1 0.998667
1.00183 1 1.00335 0.998481
0.99878 1 1.00032 0.998459
1.00668 1 1.00802 0.998662
1.0222 0.999226 1.02391 0.999103
1.00255 1 1.00406 0.998496
0.99842 1 1 0.99842
0.998697 1 1 0.998697
0.998827 1 1.00017 0.99866
0.998864 1 1.00035 0.998515
0.999399 1 1.00073 0.998667
0.999256 1 1.00056 0.998701
1.00134 1 1.00274 0.998602
0.999608 1 1.00106 0.998553
1.00124 1 1.00254 0.998703
0.998936 1 1.00047 0.998465
0.998848 1 1.00093 0.997921
1.00137 1 1.00301 0.998369
1.00156 1 1.00308 0.998477
1.00129 1 1.00258 0.998712
1.00001 1 1.00121 0.998801
0.999145 1 1 0.999145
0.999281 1 1.00044 0.998841
0.999161 1 1 0.999161
0.999678 1 1 0.999678
0.999078 1 1 0.999078
0.999684 1 1 0.999684
0.999999 1 1 0.999999
0.999692 1 1 0.999692
1 1 1 1
1 1 1 1
1 1 1 1
1 1 1 1
1 1 1 1
0.999461 1 1 0.999461
0.999918 1 1 0.999918
0.999449 1 1 0.999449
1 1 1 1
0.999935 1 1 0.999935
0.999927 1 1 0.999927
1 1 1 1
1 1 1 1
1 1 1 1
1 1 1 1
1 1 1 1
0.79822 0.876405 0.944431 0.964378
0.744148 0.839331 0.928505 0.954864
0.935481 0.979699 0.964407 0.990106
0.998163 1.01871 0.982378 0.997405
1.04205 1.05714 0.988028 0.997669
0.930131 0.9613 0.975225 0.992157
1.00997 1.02586 0.987157 0.997313
0.941127 0.989695 0.971884 0.978436
0.773157 0.860461 0.932167 0.963925
0.676763 0.807156 0.883481 0.949034
0.962352 0.996251 0.971672 0.994135
0.930063 0.972322 0.977968 0.978087
0.757632 0.856904 0.916147 0.965075
0.752171 0.876072 0.901318 0.952574
0.999494 1 1.00081 0.998686
0.999102 1 1 0.999102
0.999483 1 1 0.999483
0.999042 1 1 0.999042
0.998864 1 1 0.998864
0.999534 1 1.00086 0.998673
0.99883 1 1 0.99883
0.998768 1 1 0.998768
0.998989 1 1 0.998989
0.999055 1 1 0.999055
0.999686 1.04022 0.963129 0.997828
0.993829 1.02636 0.970565 0.99767
0.997972 1.00916 0.991425 0.997463
0.992593 1.00118 0.993663 0.997751
1.039 1.00104 1.04029 0.997726
1.0228 1 1.0248 0.998042
0.998647 1 1 0.998647
0.998906 1 1.00022 0.998687
0.989159 1.02715 0.965087 0.99785
1.00295 1 1.00467 0.998288
1.00676 1 1.00848 0.998295
0.983313 1.00731 0.978463 0.997665
0.980744 1.00103 0.981846 0.997853
0.995781 1.00182 0.995955 0.998012
1.03905 1 1.04119 0.997949
0.986094 1.00409 0.983904 0.998141
0.976993 1.00031 0.978132 0.99853
1.01411 1.00087 1.01505 0.998214
1.00678 1 1.00854 0.998252
1.00602 1 1.00791 0.998124
1.02427 1 1.02624 0.998082
0.800639 0.867223 0.959152 0.96254
0.810428 0.887962 0.943616 0.967219
0.914846 0.973062 0.962168 0.977139
1.0001 1 1.0018 0.998297
1.00682 1.00175 1.00722 0.997858
0.992429 1.00862 0.985908 0.998012
1.00922 1.0015 1.01 0.997729
0.796009 0.88037 0.934719 0.967323
0.926871 0.973687 0.974137 0.977191
0.900575 0.946998 0.964735 0.985741
0.96101 0.97306 0.989257 0.998341
0.762249 0.854992 0.92644 0.962316
0.738332 0.834374 0.928065 0.953481
0.754265 0.880319 0.89759 0.954566
1.00273 0.999991 1.00404 0.9987
0.781294 0.856341 0.951916 0.95845
0.862641 0.930861 0.962146 0.963172
0.990881 0.997264 0.99482 0.998773
1.01393 1.00141 1.01392 0.998601
0.971021 0.967202 1.00561 0.998344
0.901104 0.938918 0.972466 0.9869
0.906355 0.94561 0.981266 0.976787
0.792133 0.87762 0.936967 0.963313
0.794041 0.912264 0.908311 0.95827
1.00673 0.999286 1.00802 0.999434
0.872625 0.934401 0.964258 0.968503
0.845332 0.923616 0.945986 0.9675
0.991539 0.977513 1.01464 0.999715
0.926259 0.93548 0.997454 0.99267
0.913269 0.937873 0.998008 0.97571
0.829452 0.899684 0.95827 0.962085
0.825321 0.945521 0.911667 0.957448
1.00087 1 1.00207 0.998802
1.00456 0.999942 1.00553 0.999087
1.02182 0.999364 1.02313 0.999354
0.998665 1 1 0.998665
0.998675 1 1.00022 0.99846
1.00019 1 1.00172 0.998472
1.00723 1 1.00853 0.998713
0.998419 1 1 0.998419
1.00283 1 1.00435 0.998487
1.02732 0.99978 1.02839 0.999177
1.04029 0.996669 1.04434 0.999446
1.02978 0.9998 1.03095 0.999068
0.998452 1 1 0.998452
0.999067 1 1.00056 0.998509
0.999215 1 1.00056 0.998659
0.998758 1 1 0.998758
0.99926 1 1.00069 0.998569
1.00085 1 1.00225 0.998603
1.00167 1 1.00295 0.998716
1.00064 1 1.00205 0.998588
1.00652 0.999995 1.00755 0.998981
0.998375 1.00005 0.999774 0.998553
0.999397 1.00033 1.00058 0.998491
0.998808 1 1.00069 0.998115
0.999803 1.00104 1.00153 0.997241
1.00156 1 1.00329 0.998273
0.99888 1 1.00079 0.998089
1.00109 1 1.0027 0.998392
1.00188 1 1.00332 0.998564
1.00117 1 1.0027 0.998476
1.00096 1 1.00226 0.998711
0.999136 1 1.00007 0.999068
1.00009 1 1.00129 0.998798
0.999143 1 1 0.999143
0.999667 1 1 0.999667
0.999162 1 1 0.999162
0.999678 1 1 0.999678
0.999996 1 1 0.999996
0.999686 1 1 0.999686
0.999998 1 1 0.999998
1 1 1 1
1 1 1 1
1 1 1 1
1 1 1 1
0.999257 1 1 0.999257
0.999886 1 1 0.999886
0.999394 1 1 0.999394
1 1 1 1
0.999922 1 1 0.999922
0.99945 1 1 0.99945
1 1 1 1
1 1 1 1
0.999936 1 1 0.999936
1 1 1 1
1 1 1 1
1 1 1 1
0.777464 0.853924 0.949367 0.959019
0.803534 0.883684 0.94183 0.965461
0.85873 0.930681 0.95831 0.962831
0.7387 0.835069 0.927605 0.953636
0.930697 0.969864 0.969451 0.989854
1.00766 1.02538 0.98524 0.997438
0.94762 0.988066 0.979156 0.979482
0.780902 0.864128 0.935866 0.965616
0.6786 0.816442 0.879327 0.945231
0.960828 0.991857 0.975229 0.993323
0.925577 0.972703 0.976339 0.974611
0.77005 0.865489 0.923422 0.963512
0.754847 0.881612 0.900527 0.950791
0.94115 0.97929 0.96944 0.99135
0.912235 0.94417 0.991956 0.974012
0.792839 0.88331 0.933183 0.961844
0.80106 0.923188 0.90922 0.954346
1.00083 1 1.00239 0.998451
0.998979 1 1.00025 0.998728
0.999133 1 1 0.999133
0.998911 1 1 0.998911
0.998734 1 1.00036 0.998379
0.998982 1 1.00027 0.99871
0.998815 1 1 0.998815
0.998735 1 1 0.998735
0.998803 1 1 0.998803
0.998953 1 1 0.998953
0.990427 1.02839 0.965108 0.997899
0.984627 1.00646 0.980661 0.997597
0.979062 1.00107 0.98003 0.997946
1.00021 1.003 0.999285 0.997932
1.03227 1 1.03444 0.997911
1.00583 1 1.00759 0.998256
1.00348 1 1.00523 0.998259
1.00593 1 1.00772 0.998222
0.983466 1.00449 0.980886 0.998146
1.00478 1 1.00668 0.99812
1.025 1 1.02698 0.99807
0.975549 1.00064 0.976405 0.998487
1.01196 1.00185 1.01193 0.998175
0.956967 0.986091 0.971834 0.998591
0.992825 0.995941 0.997638 0.999232
1.03696 0.999688 1.03891 0.998425
1.00283 1 1.00471 0.998131
1.01373 1 1.01564 0.998118
0.880729 0.937899 0.966777 0.971315
0.803566 0.867056 0.963214 0.962169
0.799263 0.882094 0.938261 0.96572
1.00316 1 1.00446 0.998701
1.01396 1.00023 1.01519 0.998563
0.989044 0.995792 0.994356 0.998861
0.786709 0.859903 0.953698 0.959297
0.911324 0.944111 0.990817 0.974219
0.902878 0.936954 0.974995 0.988345
0.961781 0.963464 0.999633 0.99862
0.79072 0.876978 0.934349 0.964994
0.869305 0.935872 0.964536 0.963024
0.798512 0.91581 0.909766 0.958398
1.00514 0.999072 1.00668 0.999395
0.869316 0.932876 0.960885 0.9698
0.845902 0.924148 0.946051 0.967529
0.99437 0.981529 1.01353 0.999557
0.936698 0.944178 0.999695 0.992381
0.89176 0.930715 0.984583 0.973149
0.827093 0.945884 0.91251 0.95825
0.842012 0.906998 0.96413 0.962889
1.00522 0.985532 1.02027 0.999711
0.851942 0.918767 0.949957 0.976115
0.863834 0.942357 0.946198 0.968797
0.80139 0.922603 0.910004 0.954522
0.972352 0.960399 1.0144 0.998072
0.9371 0.950556 1.00926 0.976794
0.876611 0.931821 0.97588 0.964003
1.00449 0.999705 1.00571 0.999084
1.02162 0.999111 1.02328 0.999271
1.02266 0.988347 1.03517 0.999566
0.998418 1 1 0.998418
1.00301 1 1.00454 0.998478
1.03305 1 1.03382 0.999251
0.998511 1 1.00005 0.998459
1.02914 0.999913 1.03018 0.999079
1.04107 0.996768 1.04505 0.999421
1.03016 0.994722 1.03615 0.999489
1.02125 0.999869 1.02234 0.999058
0.999164 1 1.00058 0.998586
1.00081 1 1.00221 0.998604
1.00224 1 1.00352 0.998731
1.00545 1 1.0065 0.998956
1.00015 1 1.00157 0.998589
1.00287 1 1.00399 0.998884
0.998694 1 0.999903 0.998791
1.00135 1 1.00359 0.997769
0.999788 1.00065 1.00062 0.99852
0.999033 1.00042 1.00057 0.998044
0.99835 1.00032 1.00101 0.997021
1.00861 1.01031 1.00129 0.99703
1.00136 1.00064 1.00276 0.997963
0.999452 1.00079 1.00138 0.997281
1.00483 1 1.00645 0.998391
1.00226 1.00005 1.00397 0.998254
0.998901 1 1.00065 0.998257
1.00089 1 1.00248 0.998415
1.00155 1 1.00296 0.998597
0.999102 1 1.00014 0.99896
1.00083 1 1.00213 0.99871
0.999136 1 1.00007 0.999068
0.999626 1 1 0.999626
0.999141 1 1 0.999141
0.999665 1 1 0.999665
0.999993 1 1 0.999993
0.999678 1 1 0.999678
0.999995 1 1 0.999995
1 1 1 1
0.999997 1 1 0.999997
1 1 1 1
1 1 1 1
0.999044 1 1 0.999044
0.999722 1 1 0.999722
0.999255 1 1 0.999255
1 1 1 1
0.999842 1 1 0.999842
0.999328 1 1 0.999328
1 1 1 1
1 1 1 1
0.999926 1 1 0.999926
1 1 1 1
1 1 1 1
1 1 1 1
0.867449 0.93493 0.957312 0.969195
0.772401 0.853092 0.94286 0.960285
0.801161 0.879979 0.943308 0.965149
0.998616 1 1 0.998616
0.850494 0.921179 0.952366 0.969445
0.857434 0.930239 0.957439 0.962709
0.739783 0.840211 0.922032 0.954926
0.967926 0.994316 0.981022 0.992291
0.925505 0.968065 0.977998 0.977545
0.775968 0.877174 0.919807 0.961748
0.749988 0.871688 0.904156 0.95159
0.939865 0.977129 0.972934 0.988621
0.904655 0.941803 0.98357 0.976602
0.803889 0.888205 0.940678 0.962148
0.79739 0.917224 0.910604 0.954697
0.905807 0.944713 0.972423 0.986009
0.905707 0.930824 0.998762 0.974222
0.854701 0.918591 0.966145 0.963051
0.825608 0.944612 0.912908 0.9574
1.00061 1 1.00239 0.998227
1.00188 1 1.00348 0.99841
0.99877 1 1 0.99877
0.998417 1 1 0.998417
0.998868 1 1.00043 0.998437
0.998747 1 1 0.998747
0.998742 1 1 0.998742
0.998837 1 1 0.998837
0.979399 1.00526 0.976087 0.998148
0.97264 1.00057 0.973594 0.998448
1.00533 1 1.00716 0.998191
1.01055 1.00285 1.00956 0.998134
1.02685 1 1.02885 0.998058
1.00416 1 1.00605 0.998117
1.00317 1 1.00504 0.99814
0.962935 0.987874 0.976054 0.998669
1.0129 1 1.01477 0.998154
1.02714 1.00032 1.0284 0.998451
0.988492 0.995859 0.993314 0.999283
1.00313 1 1.00491 0.998229
0.957304 0.975708 0.982555 0.998556
1.00425 0.991885 1.01301 0.999462
1.04623 0.997717 1.05015 0.998544
1.00258 1 1.00428 0.998308
0.863332 0.922122 0.957085 0.978225
0.87983 0.937513 0.966159 0.971343
0.807991 0.866945 0.969019 0.961795
1.00322 0.998648 1.00522 0.99936
0.998352 0.985176 1.01398 0.999403
0.867698 0.93289 0.957824 0.971074
0.917879 0.935102 1.00534 0.976372
0.927163 0.941422 0.995412 0.989394
0.843708 0.909672 0.964393 0.961731
0.846606 0.925077 0.945869 0.967547
0.829925 0.94719 0.913608 0.959052
1.00823 0.990521 1.01822 0.999669
0.853451 0.919833 0.950561 0.976089
0.862502 0.940376 0.944918 0.970654
0.981623 0.966567 1.01603 0.999553
0.797045 0.91632 0.911009 0.954801
0.91758 0.935702 1.00566 0.975109
0.884782 0.941023 0.975831 0.963522
1.0069 0.983027 1.02452 0.999763
0.872723 0.937338 0.952117 0.977889
0.848718 0.919413 0.952042 0.969608
0.750036 0.874895 0.899805 0.952747
0.854611 0.919485 0.965527 0.962631
0.958429 0.956927 1.00564 0.995948
0.941869 0.946805 1.02341 0.972031
1.01935 0.999452 1.02073 0.99919
1.02481 0.989806 1.03585 0.999534
1.00895 0.978481 1.03158 0.999582
0.998471 1 1 0.998466
1.02986 0.999998 1.0308 0.999091
1.04155 0.998249 1.044 0.999396
1.01599 0.999896 1.01707 0.999045
1.02951 0.9961 1.03407 0.999488
1.01276 0.992678 1.02101 0.999237
1.00405 1 1.00512 0.998931
0.999649 1 1.00106 0.998592
1.0046 1 1.00574 0.998864
1.00806 1 1.00985 0.998231
0.999028 1 1 0.999028
1.00036 1.00003 1.0024 0.997935
1.0016 1.00067 1.00413 0.996815
1.00503 1.00678 1.00188 0.996392
0.999249 1.00088 1.0004 0.99797
0.998709 1.00076 1.00109 0.996861
1.00998 1.01236 1.00053 0.997123
1.00516 1.00499 1.00261 0.997558
1.00807 1.00973 1.00125 0.997108
1.00624 1 1.00806 0.998195
1.0027 1.00148 1.00328 0.997946
0.998848 1.00025 1.00128 0.997321
0.999825 1 1.00103 0.998793
1.00446 1 1.00607 0.998398
1.00295 1.00002 1.00471 0.998236
1.00142 1 1.00279 0.998631
0.999196 1 1.00024 0.998959
0.999546 1 1 0.999546
0.999208 1 1.00014 0.999068
0.999622 1 1 0.999622
0.99999 1 1 0.99999
0.999662 1 1 0.999662
0.999993 1 1 0.999993
1 1 1 1
0.999994 1 1 0.999994
1 1 1 1
1 1 1 1
0.99896 1 1 0.99896
0.9996 1 1 0.9996
0.999083 1 1 0.999083
1 1 1 1
0.999709 1 1 0.999709
0.999253 1 1 0.999253
1 1 1 1
1 1 1 1
0.999798 1 1 0.999798
1 1 1 1
1 1 1 1
1 1 1 1
0.857093 0.921088 0.952772 0.976648
0.870328 0.934691 0.960754 0.969176
0.772514 0.853541 0.942349 0.960439
0.998645 1 1 0.998645
0.998576 1 1 0.998576
0.998495 1 1 0.998495
0.862618 0.943452 0.943931 0.968631
0.84736 0.920713 0.949304 0.969479
0.85731 0.929771 0.957899 0.962591
0.943576 0.980158 0.971877 0.990534
0.898222 0.939467 0.981704 0.973917
0.792353 0.870795 0.943118 0.964799
0.810399 0.926586 0.917054 0.953714
0.909508 0.947998 0.970553 0.988507
0.907768 0.932985 0.998162 0.974764
0.833305 0.89521 0.965563 0.964048
0.826087 0.945792 0.911578 0.958156
0.901116 0.936753 0.975068 0.986555
0.922626 0.938948 1.00712 0.975673
0.876202 0.929958 0.977171 0.964207
0.810437 0.926572 0.914181 0.956771
0.998575 1 1.00032 0.998258
1.00125 1 1.00306 0.998204
1.00188 1 1.00351 0.99837
0.998409 1 1 0.998409
0.998685 1 1.00019 0.998496
0.998749 1 1 0.998749
0.968247 0.987673 0.981578 0.99873
0.98416 0.995719 0.989062 0.999322
1.00344 1 1.0053 0.998148
1.01929 1.00053 1.0203 0.998477
1.01389 1 1.01572 0.998191
1.00407 1 1.00587 0.998205
1.00264 1 1.00431 0.998332
0.964378 0.97643 0.989 0.998643
1.0442 0.997711 1.04798 0.998683
1.00744 0.987705 1.02058 0.999413
1.00383 1 1.00536 0.998475
0.979641 0.966054 1.01558 0.998509
1.00731 0.981141 1.02725 0.999445
1.0331 0.995406 1.03911 0.998803
0.885472 0.941755 0.959365 0.980061
0.864061 0.922398 0.957128 0.978715
0.87924 0.937088 0.965924 0.971369
1.01241 0.995789 1.01707 0.999627
0.971098 0.963911 1.0089 0.998564
0.855128 0.920911 0.951338 0.976064
0.912306 0.924126 1.00833 0.97905
0.87953 0.937767 0.974302 0.962636
0.862304 0.938763 0.944518 0.972511
0.811627 0.926207 0.91864 0.9539
1.00239 0.980116 1.02295 0.999785
0.873952 0.937428 0.952716 0.978557
0.84833 0.920789 0.95015 0.969644
0.955411 0.952882 1.01023 0.992497
0.753105 0.88026 0.899584 0.951049
0.829322 0.89506 0.961673 0.963482
0.951082 0.951172 1.02477 0.97574
1.00131 0.96499 1.03855 0.999127
0.857782 0.920829 0.953685 0.976772
0.863792 0.934344 0.959894 0.963118
0.677826 0.798947 0.890024 0.953232
0.788664 0.879802 0.931989 0.961826
0.919962 0.936128 1.00787 0.975057
0.934408 0.948448 0.995042 0.990107
1.02892 0.991289 1.03848 0.999501
1.01246 0.984578 1.02875 0.999586
1.01285 0.989471 1.02412 0.999523
1.0107 0.999958 1.01172 0.999032
1.02835 0.997231 1.03174 0.999487
1.01573 0.991091 1.02556 0.99932
1.00865 1 1.00984 0.99882
1.00654 1 1.00771 0.998843
1.00724 1.00002 1.00916 0.99808
1.01594 1.00078 1.01829 0.996905
0.999383 1.00003 1.00125 0.998103
1.00306 1.00114 1.00515 0.996793
1.00437 1.00246 1.00596 0.995962
1.00453 1.00668 1.00191 0.995968
1.00617 1.00838 1.00108 0.996732
1.0048 1.00659 1.00189 0.996343
0.998975 1.00104 1.00124 0.996702
1.00368 1.00519 1.0011 0.997396
1.01 1.01234 1.00048 0.997209
1.00245 1 1.00464 0.997828
1.00589 1.00554 1.00274 0.997616
1.00804 1.00971 1.00117 0.997187
1.00446 1 1.00595 0.998513
1.00526 1 1.00707 0.998195
1.00413 1.00247 1.00374 0.997928
0.999431 1 1 0.999431
0.999936 1 1.00115 0.998791
1.00383 1 1.00544 0.998406
0.999016 1 1.00006 0.998958
0.999542 1 1 0.999542
0.999981 1 1 0.999981
0.999618 1 1 0.999618
0.999988 1 1 0.999988
1 1 1 1
0.999992 1 1 0.999992
1 1 1 1
1 1 1 1
0.998932 1 1 0.998932
0.999589 1 1 0.999589
0.998985 1 1 0.998985
1 1 1 1
0.999639 1 1 0.999639
0.999124 1 1 0.999124
1 1 1 1
1 1 1 1
0.999697 1 1 0.999697
1 1 1 1
1 1 1 1
1 1 1 1
0.872447 0.937279 0.951996 0.977766
0.85849 0.921699 0.953711 0.976628
0.871468 0.934007 0.962711 0.969182
0.998879 1 1.00039 0.998495
0.998876 1 1.00052 0.998355
0.998674 1 1 0.998674
0.998567 1 1 0.998567
0.998481 1 1 0.998481
0.998475 1 1 0.998475
0.998415 1 1 0.998415
0.844564 0.925328 0.943581 0.967292
0.863514 0.941184 0.945357 0.970507
0.844842 0.9196 0.947592 0.969516
0.827038 0.947092 0.910646 0.958923
0.900742 0.940687 0.970836 0.986301
0.907344 0.930113 1.00017 0.975358
0.842384 0.905345 0.964684 0.964519
0.892947 0.936382 0.967472 0.985677
0.918984 0.932326 1.01293 0.973105
0.884606 0.941075 0.974975 0.964122
0.795313 0.913675 0.908422 0.958205
0.912851 0.94042 0.982403 0.988071
0.930128 0.941085 1.01605 0.972747
0.834454 0.903682 0.959461 0.962408
0.768092 0.888226 0.906841 0.953583
1.00777 1 1.00932 0.998463
0.999332 1 1.00107 0.998267
1.00226 1 1.00409 0.998181
0.9984 1 1 0.9984
0.970303 0.976142 0.99526 0.998752
1.00834 0.984558 1.02482 0.999359
1.00308 1 1.0049 0.998182
1.00261 1 1.00426 0.998356
1.03726 0.996846 1.04177 0.998821
1.00293 1 1.00447 0.998469
1.03392 0.994974 1.0404 0.998789
0.977236 0.964884 1.01542 0.997419
1.00572 0.973431 1.0336 0.99958
1.01351 0.994391 1.02033 0.998916
0.960679 0.94036 1.02453 0.997151
1.02053 0.976653 1.04566 0.999296
0.864007 0.921861 0.958038 0.978293
0.883152 0.940999 0.956753 0.980949
0.864269 0.922365 0.956915 0.979204
0.996473 0.975432 1.02177 0.999805
0.962082 0.958047 1.00801 0.99623
0.873478 0.936609 0.952376 0.979231
0.948748 0.954502 1.02199 0.972587
0.833708 0.900645 0.960286 0.963962
0.846895 0.921814 0.947454 0.969679
0.749305 0.870379 0.904458 0.951836
1.0035 0.967622 1.03783 0.999278
0.857914 0.922249 0.952379 0.976755
0.859437 0.931363 0.958231 0.962996
0.936707 0.948064 0.995453 0.992533
0.676271 0.805822 0.883827 0.949542
0.797405 0.882912 0.938903 0.961923
0.918944 0.932175 1.01269 0.97345
0.997495 0.972386 1.028 0.997885
0.868127 0.935746 0.95697 0.969454
0.744255 0.838711 0.928857 0.955346
0.759317 0.858184 0.9164 0.965512
0.898109 0.92274 0.99768 0.97557
0.905554 0.933556 0.98288 0.986901
1.01458 0.988149 1.02717 0.99959
1.01288 0.986798 1.02693 0.999519
0.989912 0.985343 1.0053 0.999341
1.01882 0.989573 1.03017 0.999402
1.00683 0.994346 1.01367 0.998901
1.00206 1.0008 1.00342 0.997854
1.0067 1.00002 1.00877 0.997928
1.01465 1.00073 1.01714 0.996823
1.00865 1.00044 1.01222 0.996035
1.00464 1.00184 1.00604 0.996771
1.00476 1.00226 1.00664 0.995874
1.00224 1.00217 1.00445 0.99564
1.01447 1.01845 1 0.996084
1.00978 1.01283 1.00077 0.996224
1.00496 1.00689 1.00218 0.995913
1.00258 1.00545 1.00013 0.997019
1.0051 1.00758 1.00074 0.996796
1.00457 1.0064 1.0019 0.996295
1.00039 1.00185 1.00112 0.997434
1.00392 1.00547 1.00108 0.997377
1.00975 1.01206 1.00043 0.997294
1.00515 1 1.00702 0.998144
1.0026 1.00012 1.0046 0.997885
1.00648 1.00593 1.00288 0.997674
0.999808 1 1.0006 0.999208
1.00373 1 1.00522 0.998516
1.00437 1 1.00619 0.998194
0.999966 1 1 0.999966
0.999424 1 1 0.999424
1.00023 1 1.00144 0.998789
0.999537 1 1 0.999537
0.999978 1 1 0.999978
1 1 1 1
0.999986 1 1 0.999986
1 1 1 1
1 1 1 1
0.999901 1 1.00142 0.99848
0.99882 1 1 0.99882
0.999491 1 1 0.999491
0.998929 1 1 0.998929
0.999994 1 1 0.999994
0.999592 1 1 0.999592
0.99901 1 1 0.99901
1 1 1 1
1 1 1 1
0.999678 1 1 0.999678
1 1 1 1
1 1 1 1
1 1 1 1
0.850886 0.918767 0.948889 0.976002
0.871685 0.936235 0.951562 0.978447
0.859431 0.923244 0.953183 0.976604
0.998781 1 1.00027 0.998507
0.999446 1 1.0011 0.998351
0.999433 1 1.00106 0.998375
0.998603 1 1.00024 0.99836
1.00346 1 1.00517 0.998301
0.998559 1 1 0.998559
0.998468 1 1 0.998468
0.998477 1 1 0.998477
0.998419 1 1 0.998419
1.00506 1 1.00661 0.998467
0.853027 0.923435 0.959166 0.963081
0.846207 0.925634 0.945054 0.967344
0.86491 0.940185 0.94607 0.972377
0.797471 0.916469 0.907975 0.958348
0.880267 0.936705 0.975944 0.962912
0.885425 0.931066 0.966031 0.98442
0.926332 0.939576 1.01081 0.975363
0.910158 0.942477 0.98008 0.985337
0.940305 0.950325 1.01443 0.975384
0.845068 0.907924 0.96589 0.963639
0.767015 0.893027 0.901621 0.95261
0.922986 0.937042 0.997547 0.987422
0.92537 0.936679 1.01227 0.975953
0.771966 0.856683 0.934379 0.964395
0.706555 0.83634 0.886799 0.95266
1.00848 1 1.00949 0.998998
1.00909 1 1.01064 0.998465
1.00092 1 1.00265 0.998277
0.978232 0.967562 1.01479 0.996292
1.00863 0.968215 1.04203 0.999723
1.00293 1 1.00448 0.998463
1.03594 0.994568 1.04288 0.998776
1.01474 0.996864 1.01903 0.998924
1.02504 0.982141 1.04443 0.999285
0.966032 0.949281 1.02058 0.997128
1.01903 0.994981 1.02484 0.999345
0.976514 0.962959 1.01678 0.99734
0.879195 0.937497 0.965786 0.971035
0.865288 0.922563 0.958257 0.978774
0.880916 0.940168 0.95431 0.981838
1.00649 0.972842 1.0352 0.999412
0.934805 0.947907 0.997507 0.988642
0.86026 0.923733 0.953472 0.976732
0.923014 0.941227 1.008 0.972863
0.784855 0.864147 0.941613 0.964559
0.855992 0.928364 0.957581 0.962888
0.678293 0.815495 0.879434 0.945785
0.996951 0.971296 1.0284 0.998069
0.869954 0.934504 0.96028 0.969431
0.738877 0.835168 0.92723 0.954137
0.91101 0.939695 0.981013 0.988238
0.771015 0.865948 0.923723 0.963895
0.88926 0.925079 0.987267 0.973679
0.962681 0.962725 1.00333 0.996633
0.777599 0.854751 0.948199 0.959437
0.769351 0.856871 0.929601 0.965856
0.909088 0.944101 0.988519 0.974098
0.885254 0.929668 0.962847 0.988969
1.01188 0.984575 1.02823 0.999515
0.994459 0.984686 1.01062 0.999314
0.997459 0.996091 1.00287 0.998505
1.00494 0.988207 1.01797 0.998978
1.00149 1.0009 1.00265 0.997939
0.998418 1.00199 0.999388 0.99705
1.01292 1.00067 1.01555 0.99674
1.007 1.0006 1.01039 0.996044
0.999192 1.00162 1.00137 0.99621
1.00481 1.00195 1.00709 0.995786
1.00241 1.00306 1.0037 0.995671
1.01355 1.01733 1 0.996286
1.03271 1.03623 1 0.996596
1.02299 1.02693 1.00002 0.996154
1.01434 1.0183 1 0.99611
1.00996 1.0135 1 0.996502
1.00826 1.01105 1.00107 0.996173
1.00548 1.00721 1.00244 0.995858
1.00246 1.00529 1 0.99718
1.00124 1.00413 1.00002 0.997093
1.00391 1.00675 1.00032 0.996859
1.00009 1.00023 1.00208 0.997786
1.00091 1.00215 1.0013 0.997467
1.00425 1.00581 1.0011 0.997358
1.00366 1 1.00485 0.998818
1.00472 1 1.00658 0.998147
1.00271 1.00016 1.00462 0.997941
0.999933 1 1 0.999933
1.00028 1 1.00108 0.999199
1.00317 1 1.00466 0.99852
1 1 1 1
0.999959 1 1 0.999959
0.999424 1 1.00001 0.999417
0.999974 1 1 0.999974
1 1 1 1
1 1 1 1
1.00185 1 1.00345 0.998399
0.999206 1 1.00051 0.998699
1.00007 1 1.00161 0.998464
0.999396 1 1 0.999396
0.99888 1 1.00006 0.998819
0.999977 1 1 0.999977
0.999495 1 1 0.999495
0.998926 1 1 0.998926
1 1 1 1
0.999996 1 1 0.999996
0.999595 1 1 0.999595
1 1 1 1
1 1 1 1
1 1 1 1
0.868514 0.934748 0.956539 0.971358
0.853429 0.920454 0.95 0.975981
0.871655 0.934715 0.952412 0.97913
0.998696 1 1.00031 0.998388
0.999121 1 1.0006 0.998519
0.99961 1 1.00127 0.998347
0.9987 1 1.00034 0.998363
0.999263 1 1.00087 0.998396
1.00182 1 1.00347 0.998359
1.00883 1 1.01075 0.998101
1.01029 1 1.01199 0.998317
0.998478 1 1 0.998478
0.998423 1 1 0.998423
1.00471 1 1.00627 0.998455
1.01613 1 1.01749 0.998665
0.748286 0.841385 0.931781 0.954462
0.862427 0.932068 0.960941 0.962892
0.84728 0.925494 0.946356 0.967385
0.75702 0.883991 0.897493 0.954175
0.849179 0.914252 0.964641 0.962871
0.932457 0.94251 1.01699 0.972807
0.912907 0.937722 0.987319 0.986042
0.922036 0.936144 0.995507 0.989375
0.692906 0.826928 0.882886 0.949078
0.919199 0.933292 1.01178 0.973435
0.79089 0.877169 0.936432 0.962845
0.920119 0.942168 0.98624 0.990223
0.911147 0.933398 0.999224 0.97692
0.761022 0.860603 0.917125 0.964197
0.999421 1 0.999876 0.999545
1.0081 1 1.0091 0.999004
1.00939 1 1.01094 0.998467
0.963248 0.948112 1.01886 0.997158
1.02946 0.987557 1.04319 0.999273
1.01526 0.998448 1.01792 0.998931
1.01893 0.99642 1.02326 0.999344
0.973856 0.962244 1.01472 0.997386
0.994885 0.988027 1.00876 0.9982
0.802405 0.867633 0.963537 0.959819
0.876729 0.936743 0.962173 0.972728
0.86467 0.922688 0.956976 0.979252
0.997721 0.969866 1.03057 0.998203
0.901403 0.935013 0.974696 0.989082
0.86924 0.933252 0.960777 0.969434
0.893956 0.918074 0.998708 0.97499
0.77889 0.879674 0.920205 0.96221
0.73999 0.840278 0.921753 0.955408
0.963513 0.960883 1.00605 0.996703
0.772467 0.853588 0.942005 0.960679
0.773905 0.860637 0.932391 0.964428
0.887698 0.930514 0.967487 0.986046
0.90379 0.944494 0.979793 0.976638
0.953152 0.969749 0.984513 0.998346
0.794872 0.873933 0.942807 0.964709
0.931395 0.974698 0.977129 0.97794
0.900024 0.944681 0.966433 0.98582
0.998569 0.983559 1.01598 0.999291
0.989511 0.995672 0.9952 0.998606
0.993907 1.00192 0.994258 0.997732
1.00156 1.00108 1.00246 0.998023
1.0015 1.00242 1.00206 0.997034
1.00022 1.00372 0.999428 0.997083
1.00579 1.0008 1.00896 0.996053
0.999118 1.00124 1.00167 0.996222
1.01909 1.02247 0.999665 0.997025
1.00284 1.00398 1.00319 0.995701
1.01262 1.01638 1 0.996297
1.03318 1.0362 0.999946 0.997147
1.0364 1.03933 1 0.997176
1.03529 1.03891 1 0.996515
1.03255 1.03604 1 0.996636
1.0236 1.02733 1 0.99637
1.02169 1.02558 1 0.996207
1.01402 1.01795 1 0.996136
1.01242 1.01561 1 0.996864
1.01005 1.01343 1.00014 0.99653
1.00684 1.00927 1.00148 0.996122
0.999575 1.00209 1 0.997491
1.00303 1.00587 1 0.997174
1.00004 1.00289 1 0.997166
1.00284 1 1.00444 0.998406
1.00074 1.00067 1.00229 0.997785
1.00132 1.00238 1.00145 0.997501
1.00008 1 1.00025 0.999838
1.00302 1 1.00421 0.998814
1.00393 1 1.00579 0.99815
1 1 1 1
0.999919 1 1 0.999919
1.00064 1 1.00145 0.999191
1 1 1 1
0.999952 1 1 0.999952
1 1 1 1
0.999404 1 1.00109 0.998318
1.00117 1 1.00279 0.99839
1.00132 1 1.00276 0.998571
0.999615 1 1.00032 0.999296
0.999474 1 1.00078 0.998698
0.999618 1 1.00117 0.998447
0.999954 1 1 0.999954
0.9994 1 1 0.9994
0.998818 1 1 0.998818
1 1 1 1
0.999983 1 1 0.999983
0.999498 1 1 0.999498
1 1 1 1
0.999998 1 1 0.999998
1 1 1 1
0.77937 0.853179 0.954756 0.956778
0.868299 0.934416 0.956637 0.971364
0.85641 0.922546 0.951175 0.975962
1.00071 1 1.00234 0.998369
1.00324 1.00094 1.00416 0.998149
1.0073 1 1.00908 0.998239
0.999368 1 1.00101 0.998365
0.999123 1 1.00071 0.998415
1.00176 1 1.00334 0.998417
1.00896 1 1.01068 0.998294
1.00832 1 1.01021 0.99813
1.00986 1 1.01187 0.99801
0.991279 1.0005 0.991793 0.998981
1.00353 1 1.00509 0.998442
1.01275 0.999951 1.01419 0.998634
0.773254 0.856802 0.937435 0.962721
0.736404 0.830651 0.930721 0.952529
0.869119 0.937431 0.962994 0.962755
0.680595 0.816279 0.881919 0.945413
0.791418 0.876244 0.936418 0.964519
0.9098 0.929612 1.00323 0.975535
0.929715 0.942884 0.999103 0.986919
0.912444 0.937064 0.985395 0.988159
0.762193 0.85388 0.926827 0.963096
0.89518 0.924019 0.993718 0.974915
0.90437 0.942541 0.969982 0.989195
0.89617 0.94491 0.973178 0.974558
1.00457 1 1.00556 0.999021
0.999053 1 0.999567 0.999487
1.00782 1 1.00882 0.99901
0.972416 0.962732 1.01266 0.997431
1.01881 0.997852 1.02167 0.999344
0.995451 0.988859 1.00856 0.998127
0.985159 0.993225 0.994608 0.997256
0.801854 0.89099 0.930482 0.967196
0.80382 0.866794 0.965364 0.960621
0.877154 0.937537 0.960177 0.974397
0.965628 0.966791 1.00196 0.996842
0.889557 0.930894 0.968549 0.986625
0.772922 0.854441 0.941489 0.960812
0.894911 0.938765 0.978566 0.974167
0.783005 0.866723 0.935096 0.966114
0.957401 0.972152 0.987324 0.99747
0.802999 0.883298 0.941293 0.96579
0.928616 0.97561 0.976482 0.974755
0.90561 0.946852 0.967862 0.988202
0.962483 0.986824 0.977059 0.998234
0.934423 0.981104 0.974576 0.977266
0.939324 0.979521 0.968539 0.990112
0.980361 0.994187 0.987382 0.998694
0.990737 1.00222 0.990817 0.997705
0.981714 1.00744 0.97681 0.997598
1.00335 1.00278 1.00356 0.997018
0.999484 1.00377 0.998648 0.997079
1.02102 1.0302 0.993388 0.997685
0.998798 1.00071 1.00186 0.996234
1.01842 1.02238 0.999113 0.997008
1.03268 1.03907 0.996141 0.997695
1.01163 1.01538 1 0.996308
1.03248 1.03579 0.999661 0.997143
1.03706 1.04053 0.999025 0.997645
1.03391 1.03647 1 0.997522
1.0373 1.04017 1 0.997241
1.0363 1.03938 1 0.997032
1.03619 1.03975 1 0.99658
1.03547 1.03908 1 0.996528
1.0325 1.03595 1 0.996677
1.02372 1.02719 1 0.996626
1.02517 1.02887 1 0.996402
1.02039 1.02422 1 0.996261
1.00614 1.00895 1 0.997214
1.01151 1.01469 1 0.996859
1.01012 1.01344 1.00017 0.996558
0.998513 1.00013 1.00026 0.998123
1.00105 1.00358 1 0.997488
1.00369 1.00654 1 0.997168
1.00072 1 1.00108 0.99964
1.00207 1 1.00367 0.998408
1.00168 1.00119 1.00271 0.997785
1 1 1 1
1.00053 1 1.00071 0.999814
1.00261 1 1.00381 0.998811
1 1 1 1
0.999905 1 1 0.999905
1 1 1 1
0.998331 1.0001 1 0.998227
1.00027 1 1.00194 0.998329
1.00204 1 1.0036 0.998443
1.0002 1 1.00182 0.998381
1.0015 1 1.00293 0.99857
1.00049 1 1.00132 0.999166
0.999925 1 1 0.999925
0.999497 1 1.0002 0.999299
1.00002 1 1.00132 0.998696
1 1 1 1
0.999961 1 1 0.999961
0.999403 1 1 0.999403
1 1 1 1
0.999988 1 1 0.999988
1 1 1 1
0.803976 0.879492 0.946553 0.965754
0.78222 0.856377 0.954394 0.957055
0.867563 0.933946 0.956308 0.971362
1.00286 1 1.00452 0.99835
1.00924 1 1.01114 0.998114
1.00163 1.00056 1.00286 0.99822
0.999712 1.00166 1.00058 0.99748
1.00887 1.00051 1.01027 0.998102
1.00812 1 1.00987 0.998272
1.00673 1 1.00858 0.998159
1.01263 1.00016 1.01442 0.998071
0.998151 1.00035 1 0.997801
0.981923 1.00079 0.982477 0.998646
0.983329 1.00035 0.985191 0.99776
0.99171 1.00036 0.992319 0.999026
1.00776 1 1.00917 0.998604
0.919015 0.96815 0.97233 0.97626
0.771978 0.853547 0.93859 0.963611
0.736648 0.832857 0.928138 0.952966
0.760267 0.85573 0.924277 0.96123
0.907009 0.934485 0.996202 0.974299
0.914966 0.932766 0.990501 0.990324
0.905996 0.94189 0.970903 0.990719
0.908248 0.946766 0.981354 0.977544
0.932901 0.973627 0.968025 0.98982
0.996535 1.00132 0.996999 0.998218
1.00423 1 1.00524 0.998999
0.998885 1 0.999456 0.999428
0.996698 0.990878 1.0078 0.998086
0.99001 0.996666 0.995943 0.997368
0.910431 0.968358 0.962239 0.977076
0.810969 0.889408 0.942614 0.967319
0.804962 0.864868 0.968053 0.961449
0.96416 0.977165 0.990109 0.996548
0.906902 0.948089 0.970163 0.985977
0.802567 0.880362 0.944245 0.965461
0.925444 0.968485 0.977607 0.977447
0.970317 0.9867 0.985068 0.998303
0.942537 0.989595 0.973593 0.978281
0.935836 0.976454 0.970249 0.98779
0.985471 1.00423 0.983589 0.99769
0.959114 0.993939 0.971619 0.993149
0.991768 1.00465 0.989461 0.997697
0.981749 1.00704 0.977282 0.997548
0.999831 1.03247 0.970462 0.997859
0.998995 1.00381 0.998123 0.997075
1.02156 1.03039 0.993758 0.997662
1.03129 1.04699 0.987016 0.997963
1.01776 1.02232 0.998544 0.996991
1.03214 1.03924 0.99549 0.997673
1.02931 1.03946 0.99234 0.997884
1.03175 1.03541 0.999323 0.997138
1.03712 1.04103 0.998617 0.997625
1.03478 1.03904 0.998181 0.997715
1.03448 1.03701 0.999983 0.997575
1.03311 1.03591 0.999963 0.997335
1.03818 1.04098 1 0.997307
1.03622 1.03932 1 0.997023
1.03816 1.04144 1 0.996849
1.03292 1.0364 1 0.996643
1.036 1.03957 1 0.996569
1.03562 1.03922 1 0.996541
1.01701 1.02008 1 0.996996
1.02311 1.02656 1 0.996639
1.02675 1.03043 1 0.996434
0.999409 1.0015 1 0.997911
1.00727 1.01009 1 0.997211
1.01052 1.0137 1 0.996855
1.00015 1 1.00075 0.999401
0.998979 1.00042 1.00044 0.998123
1.00251 1.00504 1 0.997485
1 1 1 1
1.00085 1 1.00124 0.999615
1.00124 1.00002 1.00281 0.998409
1 1 1 1
1.00096 1 1.00117 0.99979
1 1 1 1
1.00147 1.00391 1 0.997574
0.998352 1.00013 1 0.998218
0.999983 1 1.00173 0.998258
1.00141 1 1.00308 0.998341
1.00173 1 1.00332 0.998417
1.00135 1 1.00239 0.998967
1.00174 1 1.00317 0.998569
1.00009 1 1.00093 0.999168
0.999889 1 1 0.999889
1 1 1 1
0.999934 1 1 0.999934
0.999349 1 1.00005 0.999302
1 1 1 1
0.999968 1 1 0.999968
1 1 1 1
0.934821 0.982343 0.971893 0.979145
0.801399 0.884746 0.937251 0.966438
0.789318 0.860871 0.958956 0.956126
1.01074 1 1.01278 0.997989
0.999724 1.00009 1.00134 0.998291
1.0072 1.00041 1.00873 0.998076
1.00096 1.00259 1.00083 0.997544
1.00827 1.01109 1.00016 0.997051
0.998515 1.00078 1 0.997737
1.01603 1.00032 1.0176 0.99813
0.998285 1.00067 1 0.997613
0.986988 1.00091 0.98745 0.998625
0.995932 1.00091 0.99725 0.997768
0.979424 1.00304 0.978512 0.997899
0.995812 1.00129 0.997153 0.99737
0.984043 1.00082 0.985312 0.997896
0.995255 1.00016 0.996018 0.999072
0.935827 0.978315 0.966332 0.989898
0.922819 0.971607 0.972515 0.976628
0.773168 0.854989 0.936329 0.965794
0.915696 0.951705 0.987726 0.97412
0.909485 0.940805 0.974833 0.991666
0.936902 0.972299 0.970526 0.992857
0.989294 1.00377 0.987894 0.997659
0.994428 1.00067 0.995544 0.998211
1.00394 1 1.00496 0.998978
0.991291 0.99917 0.994641 0.99746
0.945727 0.974819 0.979835 0.990123
0.925759 0.974832 0.968973 0.980069
0.799185 0.883324 0.936815 0.96577
0.971036 0.983339 0.989108 0.998363
0.937839 0.979644 0.967584 0.989398
0.948355 0.988581 0.979631 0.979255
0.977767 1.00263 0.977427 0.997724
0.957825 0.990272 0.974625 0.992417
0.979453 1.02426 0.958531 0.997626
0.999715 1.01636 0.986837 0.996745
0.981053 1.00663 0.977047 0.997492
0.998216 1.03118 0.970112 0.997853
1.00547 1.04947 0.960103 0.997886
1.02248 1.03104 0.994046 0.997639
1.03109 1.0468 0.987022 0.997945
1.02522 1.04264 0.985425 0.997835
1.0319 1.03955 0.994978 0.997651
1.02885 1.03878 0.992561 0.997866
1.03434 1.04387 0.993169 0.997685
1.03726 1.04152 0.998299 0.997605
1.03302 1.03733 0.99813 0.997707
1.03451 1.03811 0.999095 0.997434
1.03505 1.03753 0.999979 0.997627
1.0334 1.03613 0.999984 0.997379
1.03678 1.03987 1 0.997028
1.03621 1.03931 1 0.997015
1.03812 1.04141 1 0.996838
1.03578 1.0391 1 0.996799
1.02468 1.02789 1 0.996878
1.03292 1.03639 1 0.996652
1.03576 1.03934 1 0.996558
1.00314 1.00543 1 0.997721
1.01645 1.01951 1 0.996999
1.02255 1.02599 1 0.996652
0.9992 1 1 0.9992
1.00043 1.00252 1 0.997909
1.00816 1.01098 1 0.997207
1 1 1 1
0.999914 1 1.00053 0.999385
0.999355 1.00067 1.00057 0.998124
1 1 1 1
1.001 1 1.00141 0.999591
1 1 1 1
1.00939 1.01227 1 0.997149
1.00227 1.00468 1 0.997596
1.00243 1.00394 1.00066 0.997842
0.998439 1.00023 1 0.998209
0.999898 1 1.00168 0.99822
1.00092 1 1.00222 0.998698
1.00153 1 1.00314 0.998391
1.00117 1 1.0022 0.998968
1.00023 1 1.0004 0.999833
0.999793 1 1.00062 0.999169
0.999898 1 1 0.999898
1 1 1 1
1 1 1 1
0.999943 1 1 0.999943
1 1 1 1
0.937246 0.97849 0.96704 0.990496
0.92758 0.981846 0.967366 0.976601
0.793825 0.877928 0.93487 0.967197
1.02139 1.02459 1.00007 0.996811
1.00567 1.00029 1.00735 0.998051
1.00244 1.00373 1.00111 0.997608
0.998377 1.00067 1 0.997712
1.00812 1.01069 1.00042 0.997034
1.00205 1.00444 1 0.997619
0.99841 1.00099 1 0.997425
0.989379 1.00081 0.989957 0.998604
0.994111 1.00116 0.995167 0.997785
0.974347 1.0021 0.974429 0.997816
1.00106 1.00727 0.996686 0.997131
1.00114 1.00685 0.996956 0.997369
0.996586 1.00195 0.997307 0.997328
0.98408 1.00134 0.984706 0.998031
0.987796 1.00613 0.983594 0.998157
0.931982 0.977384 0.964427 0.988719
0.925557 0.973309 0.972914 0.977412
0.930028 0.966965 0.970713 0.990819
0.99239 1.00552 0.988654 0.998265
0.994516 1.0002 0.996111 0.998199
0.988279 1.00668 0.985133 0.996534
0.932423 0.961807 0.977725 0.991537
0.913029 0.971654 0.961598 0.977191
0.973147 1.00074 0.974612 0.997758
0.964682 0.992156 0.980692 0.991453
0.98278 1.02531 0.960721 0.997712
1.00034 1.01589 0.987695 0.996969
0.99497 1.03746 0.961237 0.997717
1.04008 1.04962 0.993311 0.997577
0.995749 1.02929 0.969496 0.997847
1.00897 1.05084 0.962198 0.997874
1.01433 1.05215 0.96628 0.997693
1.03018 1.04606 0.986865 0.997927
1.02401 1.04183 0.98503 0.997831
1.03294 1.04885 0.98723 0.997572
1.02812 1.03799 0.992626 0.997848
1.0333 1.0429 0.993088 0.997698
1.03703 1.04309 0.996808 0.997382
1.03123 1.03564 0.998039 0.9977
1.03507 1.03859 0.999173 0.997433
1.03885 1.04191 0.999954 0.997111
1.03366 1.03633 1 0.997424
1.03706 1.04011 1 0.997066
1.03774 1.04103 1 0.996835
1.03805 1.04136 1 0.996827
1.03555 1.0389 1 0.996779
1.02784 1.03104 1 0.996892
1.00764 1.01006 1 0.9976
1.02399 1.02718 1 0.996898
1.03291 1.03637 1 0.99666
0.999055 1 1 0.999055
1.00454 1.00683 1 0.997721
1.01605 1.01911 1 0.997001
1 1 1 1
0.999186 1 1 0.999186
1.00155 1.00365 1 0.997907
1 1 1 1
0.999684 1 1.00032 0.999368
1 1 1 1
1.01914 1.02238 1 0.996831
1.01036 1.01324 1 0.99715
1.00817 1.01074 1 0.99746
1.00293 1.00532 1.00001 0.997617
1.00124 1.00285 1.00056 0.997837
1.0006 1.0005 1.0017 0.9984
0.99965 1 1.00147 0.998182
1.00174 1 1.00304 0.998699
1.00071 1 1.00098 0.999729
1.00056 1 1.00159 0.998969
0.999843 1 1 0.999843
1 1 1 1
0.999907 1 1 0.999907
1 1 1 1
1 1 1 1
0.984117 1.01057 0.975784 0.997995
0.931651 0.97545 0.966456 0.988248
0.92379 0.971837 0.970459 0.979495
1.01502 1.01788 1.00001 0.997178
1.03015 1.03344 1 0.996817
1.01921 1.02227 1.00013 0.996872
0.99824 1.00055 1 0.997686
1.00772 1.00999 1.00073 0.997016
1.00287 1.00599 0.999316 0.997585
1.01654 1.02056 0.99897 0.99709
0.99298 1.00154 0.99364 0.997802
0.971012 1.00131 0.97195 0.997733
1.00237 1.009 0.996208 0.997208
1.01983 1.02631 0.996753 0.996919
1.00895 1.02389 0.987759 0.997626
1.00322 1.00849 0.997437 0.997337
0.997768 1.00262 0.997865 0.997285
0.991941 1.00807 0.985614 0.998363
0.935469 0.979067 0.96764 0.987423
0.992623 1.00616 0.987646 0.998891
1.02089 1.03797 0.985322 0.998194
0.987189 1.00539 0.985196 0.996649
0.936421 0.971797 0.973867 0.989455
0.986047 1.02671 0.962518 0.997794
1.0009 1.01581 0.988082 0.997204
0.994077 1.03809 0.959681 0.997833
1.04003 1.05098 0.991967 0.99759
1.03468 1.05888 0.979519 0.997581
1.06252 1.07481 0.990837 0.997709
1.01277 1.05304 0.963813 0.997863
1.01902 1.05275 0.970199 0.997694
1.03618 1.05732 0.982484 0.997475
1.02316 1.0412 0.984818 0.997827
1.03279 1.0481 0.987801 0.99757
1.03783 1.04868 0.992278 0.997348
1.03231 1.04193 0.993035 0.997711
1.03753 1.04354 0.996853 0.997379
1.04188 1.04551 0.999419 0.997107
1.03558 1.03903 0.999254 0.997431
1.03905 1.04208 0.999979 0.997111
1.04076 1.04406 1 0.996841
1.03735 1.04036 1 0.997105
1.03734 1.04062 1 0.996847
1.03017 1.03341 1 0.996863
1.03535 1.03872 1 0.99676
1.02774 1.03095 1 0.996886
1.00985 1.01235 1 0.997531
0.998988 1 1 0.998988
1.00828 1.01071 1 0.997599
1.02334 1.02651 1 0.996918
1 1 1 1
0.999043 1 1 0.999043
1.00588 1.00817 1 0.99772
1 1 1 1
0.999173 1 1 0.999173
1 1 1 1
1.02753 1.03091 1 0.99672
1.01931 1.02257 1 0.996816
1.01319 1.01608 1 0.997154
1.01123 1.01412 1 0.997151
1.00663 1.00918 1 0.997467
1.00071 1.00225 1.00035 0.998117
0.999813 1.00152 1.00046 0.997833
1.00098 1.00025 1.00233 0.998403
1.00046 1 1.00092 0.999546
1.00311 1 1.00442 0.9987
1.00059 1 1.00085 0.999745
1 1 1 1
0.999854 1 1 0.999854
1 1 1 1
1 1 1 1
1.00774 1.03481 0.97568 0.998114
0.981565 1.00952 0.974902 0.99734
0.931231 0.977182 0.963602 0.988972
1.02716 1.03027 1 0.996977
1.01612 1.01881 1 0.997364
1.04549 1.04879 1 0.996848
1.03083 1.03414 1 0.996802
1.01732 1.02027 1.00018 0.996934
1.03831 1.04229 0.999346 0.996834
1.00353 1.00763 0.998372 0.997552
1.01563 1.01934 0.999333 0.997028
1.03863 1.05315 0.989082 0.997097
1.00281 1.0106 0.994993 0.997287
1.02027 1.02685 0.996704 0.996871
1.00998 1.02513 0.987526 0.997657
1.00369 1.00883 0.997602 0.997301
0.996417 1.00993 0.988044 0.998559
1.04914 1.06724 0.985243 0.997762
1.02131 1.0377 0.985971 0.998211
0.985853 1.00409 0.98503 0.996759
0.993969 1.03809 0.959465 0.997947
1.03906 1.05139 0.990652 0.997604
1.03072 1.05819 0.976382 0.997602
1.06311 1.07654 0.989792 0.997705
1.05276 1.06965 0.986577 0.997599
1.02325 1.05298 0.974013 0.997696
1.03676 1.05672 0.983581 0.997484
1.0392 1.05406 0.988505 0.997369
1.03258 1.04732 0.988328 0.997569
1.03756 1.0483 0.992403 0.997329
1.04297 1.04899 0.997162 0.997087
1.03807 1.04404 0.9969 0.997376
1.04198 1.04557 0.999459 0.997104
1.04408 1.0474 1 0.996831
1.03926 1.04227 1 0.997111
1.04051 1.04381 1 0.996844
1.03333 1.03664 1 0.996806
1.03695 1.04022 1 0.996859
1.03031 1.03355 1 0.996867
1.01083 1.0134 1 0.997457
1.0276 1.03082 1 0.99688
1.01005 1.01256 1 0.997529
0.999149 1 1 0.999149
0.999688 1 1 0.999688
0.999059 1 1 0.999059
1.00889 1.01132 1 0.997598
1 1 1 1
0.999031 1 1 0.999031
1 1 1 1
1.0522 1.05545 1 0.996926
1.03727 1.0406 1 0.996792
1.0284 1.03178 1 0.996719
1.01971 1.02278 1 0.996995
1.01973 1.023 1 0.996801
1.01366 1.01656 1 0.997155
1.00374 1.00588 1 0.997881
1.0053 1.00784 1 0.997474
1.00016 1.00158 1.00047 0.99812
0.999429 1 1.00012 0.999307
1.00129 1.00006 1.00282 0.998405
1.00051 1 1.00095 0.999566
1 1 1 1
0.999983 1 1.00022 0.999761
1 1 1 1
1 1 1 1
1.04415 1.06576 0.982169 0.997511
1.01198 1.03969 0.975125 0.998177
0.979357 1.00962 0.973246 0.996693
1.04277 1.04605 1 0.996857
1.02534 1.0284 1 0.997032
1.01685 1.01935 1 0.997547
1.04422 1.04751 1 0.996866
1.03147 1.0348 1 0.996787
1.04717 1.05964 0.991131 0.997077
1.03484 1.03894 0.999261 0.996793
1.01486 1.01801 0.999949 0.996965
1.03763 1.05205 0.989166 0.997092
1.02302 1.02932 0.997051 0.996822
1.01416 1.03001 0.986892 0.997695
1.05254 1.06827 0.987553 0.997696
1.0517 1.06892 0.986068 0.997791
1.02163 1.03761 0.986348 0.998229
1.02801 1.05856 0.973452 0.997621
1.06454 1.07903 0.988847 0.997701
1.05271 1.07062 0.985627 0.997607
1.04455 1.05595 0.991721 0.997457
1.03726 1.05604 0.984686 0.997494
1.03934 1.05369 0.988997 0.997357
1.04431 1.05231 0.995272 0.997119
1.0373 1.04793 0.992521 0.99731
1.0434 1.04942 0.997169 0.997087
1.04666 1.05015 0.999859 0.99682
1.04207 1.04562 0.999503 0.997101
1.04428 1.0476 1 0.996832
1.03601 1.0394 1 0.996741
1.04027 1.04356 1 0.996847
1.03362 1.03693 1 0.996809
1.01197 1.01465 1 0.997359
1.03046 1.03369 1 0.996872
1.01112 1.0137 1 0.997456
0.999157 1 1 0.999157
1.01027 1.01278 1 0.997527
0.999144 1 1 0.999144
0.999708 1 1 0.999708
0.99985 1 1 0.99985
0.999136 1 1 0.999136
1 1 1 1
1.04754 1.0508 1 0.9969
1.04276 1.04605 1 0.996849
1.05121 1.05433 1 0.997045
1.02932 1.03252 1 0.996909
1.03926 1.04262 1 0.996781
1.02928 1.03267 1 0.996718
1.02064 1.02373 1 0.99699
1.00853 1.01086 1 0.997692
1.01412 1.01701 1 0.997155
1.00256 1.00469 1 0.997882
0.999112 1 1 0.999112
0.999494 1.00085 1.00052 0.998123
0.999687 1 1.00036 0.999326
1 1 1 1
1.00069 1 1.00111 0.999586
1 1 1 1
1 1 1 1
1.04502 1.06302 0.985623 0.997401
1.04256 1.064 0.982294 0.997507
1.01461 1.04222 0.975232 0.998233
1.04821 1.05493 0.996632 0.996989
1.04073 1.04407 0.999948 0.996859
1.02376 1.02675 1 0.997088
1.04277 1.04603 1 0.996884
1.04576 1.05818 0.991176 0.997053
1.03121 1.0354 0.999197 0.996752
1.03306 1.04721 0.989367 0.997087
1.04717 1.05924 0.991071 0.997519
1.05136 1.0669 0.987746 0.997657
1.05408 1.07033 0.986965 0.99782
1.04335 1.05204 0.994371 0.997353
1.05232 1.07129 0.984641 0.997615
1.04441 1.05604 0.991522 0.997443
1.04583 1.05361 0.995387 0.997219
1.03955 1.05334 0.989543 0.997345
1.04436 1.05237 0.995253 0.997121
1.04769 1.05142 0.999622 0.996826
1.04378 1.04979 0.99718 0.997086
1.04687 1.05036 0.999849 0.996821
1.03709 1.04053 1 0.996695
1.04439 1.0477 1 0.996833
1.03626 1.03964 1 0.996744
1.01279 1.01556 1 0.997263
1.03388 1.03719 1 0.996812
1.01221 1.01489 1 0.997359
0.999132 1 1 0.999132
1.01142 1.014 1 0.997455
0.999147 1 1 0.999147
0.999713 1 1 0.999713
0.999141 1 1 0.999141
0.999714 1 1 0.999714
1 1 1 1
1.04754 1.05154 0.999397 0.996802
1.04428 1.04765 1 0.996776
1.04918 1.05246 0.999979 0.996902
1.03515 1.03834 1 0.996926
1.04384 1.04711 1 0.996875
1.05039 1.05338 1 0.997163
1.01208 1.01458 1 0.997536
1.02935 1.03255 1 0.996901
1.04141 1.04478 1 0.996769
1.02147 1.02456 1 0.996984
1.00708 1.00941 1 0.997694
0.999006 1 1 0.999006
1.00134 1.00346 1 0.997883
0.999126 1 1 0.999126
1 1 1 1
0.999913 1 1.00057 0.999345
1 1 1 1
1 1 1 1
1.04425 1.05546 0.992093 0.997267
1.04502 1.06334 0.985353 0.997385
1.04278 1.06427 0.982268 0.997502
1.04718 1.05415 0.996372 0.997005
1.03846 1.04184 0.999888 0.99686
1.04514 1.05756 0.991199 0.997029
1.04436 1.05387 0.993601 0.997354
1.04756 1.05936 0.991333 0.997512
1.05022 1.06565 0.987872 0.997618
1.04383 1.05241 0.994459 0.997373
1.0463 1.05287 0.996589 0.997162
1.04425 1.05614 0.991284 0.99743
1.04607 1.05357 0.995692 0.997177
1.04758 1.05193 0.998952 0.996911
1.0444 1.05243 0.995231 0.997123
1.04787 1.05167 0.999556 0.996829
1.03686 1.04033 1 0.996664
1.04727 1.05078 0.999836 0.996822
1.0374 1.04084 1 0.996697
1.01292 1.01577 1 0.997196
1.03665 1.04004 1 0.996746
1.01285 1.01563 1 0.997264
0.999078 1 1 0.999078
1.01247 1.01515 1 0.997359
0.999117 1 1 0.999117
0.999693 1 1 0.999693
0.99914 1 1 0.99914
0.999727 1 1 0.999727
0.999716 1 1 0.999716
1.04738 1.0531 0.997506 0.997052
1.04667 1.05017 1 0.996671
1.04829 1.05282 0.998862 0.996829
1.03715 1.04045 1 0.996831
1.04348 1.04687 1 0.996766
1.05075 1.05405 0.999963 0.996904
1.01314 1.01575 1 0.997427
1.03503 1.03826 1 0.99689
1.04477 1.04801 1 0.996902
0.99897 1 1 0.99897
1.01134 1.01383 1 0.997539
1.02946 1.03267 1 0.996892
1.00568 1.008 1 0.997695
0.999017 1 1 0.999017
1 1 1 1
0.99914 1 1 0.99914
1 1 1 1
1 1 1 1
1.04205 1.05106 0.994164 0.997249
1.04412 1.0553 0.992123 0.997259
1.04467 1.06322 0.985146 0.997369
1.04617 1.05338 0.996126 0.997021
1.04611 1.05164 0.997606 0.99712
1.04477 1.05403 0.993829 0.997365
1.048 1.05945 0.991668 0.997506
1.04434 1.05279 0.994567 0.997394
1.04616 1.05284 0.996476 0.997172
1.04771 1.05207 0.998949 0.996906
1.04637 1.05357 0.996017 0.997136
1.04773 1.05189 0.999177 0.996867
1.03661 1.04005 1 0.996695
1.04797 1.05184 0.999492 0.996832
1.03705 1.04052 1 0.996667
1.01244 1.01534 1 0.997143
1.03744 1.04088 1 0.996698
1.01275 1.0156 1 0.997197
0.998861 1 1 0.998861
1.01284 1.01562 1 0.997264
0.998988 1 1 0.998988
1 1 1 1
0.999103 1 1 0.999103
0.999713 1 1 0.999713
0.999736 1 1 0.999736
1.04494 1.05067 0.997404 0.997141
1.047 1.05058 0.999802 0.99679
1.04754 1.05292 0.997839 0.997042
1.03792 1.04138 1 0.996678
1.046 1.04954 0.999934 0.99669
1.04909 1.05417 0.998317 0.996857
1.01358 1.01638 1 0.997246
1.03734 1.04064 1 0.996831
1.04273 1.04613 1 0.996757
0.998966 1 1 0.998966
1.01306 1.01571 1 0.997384
1.03491 1.03818 1 0.996853
1 1 1 1
0.998981 1 1 0.998981
1.01055 1.01304 1 0.997541
0.999028 1 1 0.999028
1 1 1 1
1 1 1 1
1.04478 1.05027 0.997623 0.997135
1.04246 1.05136 0.994259 0.997256
1.0439 1.05511 0.992096 0.997252
1.04781 1.05162 0.999536 0.996843
1.04542 1.05128 0.997281 0.997134
1.04515 1.05418 0.994045 0.997375
1.04599 1.0528 0.996329 0.997183
1.04744 1.05187 0.998874 0.996907
1.03567 1.03903 1 0.996758
1.04779 1.05178 0.999387 0.996823
1.03656 1.03999 1 0.996702
1.01191 1.01491 1 0.997039
1.03738 1.04085 1 0.996669
1.01233 1.01523 1 0.997144
0.998818 1 1 0.998818
1.01268 1.01552 1 0.997197
0.998859 1 1 0.998859
1 1 1 1
0.998884 1 1 0.998884
0.999838 1 1 0.999838
0.99973 1 1 0.99973
1.04534 1.05024 0.998237 0.997092
1.0479 1.05126 0.999944 0.996852
1.04526 1.05091 0.997469 0.997148
1.038 1.04146 1 0.996676
1.04751 1.05101 0.999898 0.996774
1.04773 1.05277 0.998182 0.997033
1.01345 1.01635 1 0.997151
1.03778 1.04121 1 0.996708
1.0453 1.04889 0.999865 0.99671
0.998942 1 1 0.998942
1.01356 1.01637 1 0.997233
1.03753 1.04083 1 0.996831
1 1 1 1
0.998975 1 1 0.998975
1.01302 1.01572 1 0.997341
1 1 1 1
0.998992 1 1 0.998992
1 1 1 1
1.04796 1.05183 0.999426 0.996892
1.04421 1.04965 0.99769 0.997119
1.04283 1.05162 0.994367 0.997262
1.03524 1.03861 1 0.996753
1.04746 1.05151 0.999283 0.996866
1.04473 1.05092 0.996961 0.997147
1.04719 1.05167 0.998824 0.996908
1.03573 1.0391 1 0.996758
1.01118 1.0142 1 0.99702
1.03652 1.03994 1 0.996709
1.01185 1.01483 1 0.997068
0.998765 1 1 0.998765
1.01215 1.01505 1 0.997145
0.998815 1 1 0.998815
1 1 1 1
0.998856 1 1 0.998856
1 1 1 1
0.999706 1 1 0.999706
1.0493 1.05279 0.999818 0.996874
1.04475 1.0501 0.997781 0.997115
1.03737 1.04079 1 0.996707
1.048 1.05135 0.999963 0.99685
1.04563 1.05123 0.997515 0.997155
1.01261 1.01547 1 0.997179
1.03757 1.04103 1 0.996672
1.048 1.0514 1 0.996758
0.99889 1 1 0.99889
1.01365 1.01652 1 0.997177
1.03763 1.04102 1 0.996737
1 1 1 1
0.998948 1 1 0.998948
1.01353 1.01635 1 0.997219
1 1 1 1
0.998984 1 1 0.998984
1 1 1 1
1.03549 1.03883 1 0.996783
1.04797 1.0517 0.999578 0.996879
1.04367 1.04905 0.997762 0.997103
1.01013 1.01314 1 0.997031
1.03524 1.03861 1 0.996753
1.04709 1.05139 0.999022 0.996888
1.03579 1.03916 1 0.996758
1.01121 1.01424 1 0.99702
0.998732 1 1 0.998732
1.01182 1.01476 1 0.997097
0.998762 1 1 0.998762
1 1 1 1
0.998812 1 1 0.998812
1 1 1 1
1 1 1 1
1.03677 1.04018 1 0.996721
1.04875 1.05238 0.999646 0.996911
1.04409 1.04988 0.997339 0.997138
1.01168 1.01455 1 0.997171
1.03706 1.04049 1 0.996704
1.04809 1.0514 1 0.996849
0.998839 1 1 0.998839
1.01296 1.01582 1 0.997177
1.03717 1.04064 1 0.996669
1 1 1 1
0.998893 1 1 0.998893
1.01385 1.0167 1 0.997204
1 1 1 1
0.998954 1 1 0.998954
1 1 1 1
1.01002 1.01294 1 0.997111
1.03537 1.03874 1 0.996752
1.04799 1.05157 0.999729 0.996865
0.998744 1 1 0.998744
1.01023 1.01324 1 0.997029
1.03526 1.03863 1 0.996754
1.01125 1.01427 1 0.99702
0.998732 1 1 0.998732
1 1 1 1
0.99876 1 1 0.99876
1 1 1 1
1 1 1 1
1.0107 1.01359 1 0.997149
1.03645 1.03984 1 0.996736
1.04823 1.05201 0.999456 0.996949
0.999001 1 1 0.999001
1.01199 1.01486 1 0.997169
1.03676 1.04019 1 0.9967
1 1 1 1
0.998841 1 1 0.998841
1.01328 1.01615 1 0.997175
1 1 1 1
0.998897 1 1 0.998897
1 1 1 1
0.998737 1 1 0.998737
1.01018 1.01313 1 0.997085
1.03527 1.03867 1 0.996721
1 1 1 1
0.998743 1 1 0.998743
1.01033 1.01334 1 0.997026
0.998731 1 1 0.998731
1 1 1 1
1 1 1 1
0.998958 1 1 0.998958
1.01102 1.01391 1 0.997149
1.03609 1.03947 1 0.996751
1 1 1 1
0.998809 1 1 0.998809
1.0123 1.01518 1 0.997168
1 1 1 1
0.998842 1 1 0.998842
1 1 1 1
0.999643 1 1 0.999643
0.998855 1 1 0.998855
1.01032 1.01331 1 0.997058
1 1 1 1
0.998744 1 1 0.998744
1 1 1 1
0.999659 1 1 0.999659
0.998876 1 1 0.998876
1.01135 1.01425 1 0.997149
0.999829 1 1 0.999829
0.998809 1 1 0.998809
1 1 1 1
1 1 1 1
0.998767 1 1 0.998767
1 1 1 1
0.999827 1 1 0.999827
0.998789 1 1 0.998789
1 1 1 1
1 1 1 1
1 1 1 1

VECTORS lamdaE float
1.00114 1.00014 0.993898
1.00075 1.00069 0.997045
1.00072 1.00035 0.99418
1.00127 1.00003 0.993821
1.00122 0.999979 0.993964
1.00108 1.00038 0.993719
1.00251 1.00045 0.990916
1.00076 1.00062 0.997051
1.00073 1.00016 0.997455
1.00022 1.0009 0.997496
1.00065 1.00073 0.993941
1.00218 1.0013 0.989787
1.00091 0.999975 0.994244
1.00067 1.00001 0.994391
1.00033 1.00055 0.994434
1.00096 1.00001 0.994139
1.00061 1.00074 0.993977
1.00087 1.00003 0.994258
1.00272 1.00027 0.990789
1.00092 1.00002 0.997105
1.00123 1.00008 0.99382
1.00128 0.999959 0.993907
1.00262 1.00012 0.991048
1.00263 1.00015 0.991023
1.00106 1.0005 0.993592
1.00229 1.00099 0.990714
1.00504 1.00061 0.986396
1.00076 1.00058 0.997071
1.00093 1.00006 0.995706
1.00052 1.00064 0.995728
1.00069 1.0006 0.997119
1.00207 1.00144 0.989799
1.00122 0.99982 0.99389
1.00096 1.00025 0.993989
1.00296 1.00006 0.991268
0.999899 1.00079 0.997745
1.00261 1.00078 0.991238
1.00187 1.00178 0.98979
1.00433 1.00147 0.985974
1.00003 0.999341 0.998141
1.00094 0.999987 0.997096
1.00089 1.00001 0.99571
1.00086 0.999975 0.997141
1.00053 1.00004 0.99457
1.00261 0.999936 0.990465
1.00083 0.999964 0.997389
1.00296 1.00006 0.991291
1.00065 0.999944 0.994457
1.00053 1.00006 0.994539
1.00014 1.00113 0.994215
1.00291 1.00009 0.990677
1.00075 1.00004 0.995827
1.00089 1.0001 0.994142
1.00054 1.00096 0.993825
1.00096 0.999935 0.994214
1.00276 1.00009 0.990898
1.00256 1.00072 0.990593
1.00279 1.00005 0.990892
1.00501 1.00062 0.986409
1.00084 1 0.997143
1.00111 1.00007 0.993981
1.00236 1.00001 0.992123
1.00256 1.00014 0.991129
1.00266 1.00007 0.991038
1.00492 1.00021 0.986877
1.00502 1.00022 0.986639
1.00087 1.00042 0.993865
1.00177 1.00192 0.990588
1.00496 1.00091 0.986245
1.00527 1.0003 0.985523
1.00118 1.00009 0.997021
1.00062 1.00053 0.997243
1.00083 1.0005 0.997046
1.002 1.00153 0.989805
1.00127 0.99995 0.996968
1.00105 1.00027 0.997045
1.00282 1.00002 0.989885
1.00014 1.00059 0.996101
1.00236 1.00083 0.989868
1.00176 1.00202 0.990602
1.00441 1.00132 0.985964
1.00031 0.999987 0.997689
1.00012 1.00168 0.992923
1.003 0.999942 0.989733
1.00278 1.00021 0.989861
1.00509 1.00024 0.985962
1.00125 1.00245 0.991866
1.00474 1.00078 0.985953
1.00358 1.00264 0.986126
1.00522 1.00131 0.984513
0.999886 0.998515 0.99854
0.999892 0.999126 0.99831
1.00117 0.999989 0.996965
1.00099 0.999985 0.997075
1.0009 0.999981 0.99714
1.00078 0.999994 0.995828
1.00265 0.999928 0.991135
1.00101 0.999972 0.995645
1.00289 1.00007 0.990616
1.00087 0.999989 0.997152
1.00246 0.999859 0.990734
1.00283 1.00003 0.991533
1.00491 0.99942 0.987176
1.00299 0.999992 0.991243
1.00505 0.999763 0.986592
1.00088 1 0.994278
1.00055 1.00011 0.994469
1.00003 1.00146 0.994058
1.00064 0.999884 0.994518
1.0029 1.00009 0.990748
1.00295 0.999969 0.990768
1.00282 1.00042 0.990481
1.00498 1.00062 0.986423
1.00089 0.99999 0.997147
1.00078 1.00007 0.994301
1.00253 0.999969 0.990981
1.00269 1.00013 0.990971
1.00062 1.00085 0.995463
1.00214 1.00169 0.99068
1.0028 1.00002 0.990899
1.00494 1.0001 0.98696
1.0049 1.00094 0.986261
1.00501 1.00035 0.986582
1.00527 1.00029 0.985555
1.00244 0.99991 0.990732
1.00245 1.00006 0.991349
1.00479 0.999343 0.987922
1.00488 0.999837 0.987258
1.00498 1.00006 0.98685
1.00528 0.999 0.987089
1.00027 1.00063 0.997461
1.00527 0.999765 0.986063
1.00131 1.00275 0.989626
1.00452 1.00132 0.985783
1.00527 1.0009 0.984987
1.00522 0.998807 0.986989
1.00057 1.00289 0.990904
1.00132 1.00506 0.987346
1.00127 0.999976 0.996983
1.00102 1.00029 0.997039
1.00283 1.00001 0.989879
1.00029 1.00031 0.997585
1.00142 1.00237 0.989921
1.00235 1.00083 0.989884
1.0045 1.00118 0.985953
1.00012 0.99989 0.99786
1 1.00184 0.992957
1.00302 0.999979 0.990482
1.0028 1.00026 0.990564
1.00508 1.00025 0.985941
1.00088 1.00266 0.990582
1.00478 1.00074 0.985939
1.00371 1.00236 0.986135
1.00526 1.00123 0.984607
1.00036 1.00247 0.991645
1.00003 1.00082 0.994024
1.0013 1.00466 0.988401
1.00512 1.0001 0.986084
1.00498 1.00042 0.985927
1.00533 0.999625 0.986182
1.00284 1.00335 0.986645
1.00531 1.00055 0.985279
1.00497 1.00172 0.984557
1.00528 1.00069 0.985038
0.999868 0.998018 0.998791
0.999835 0.998443 0.998644
0.999796 0.99896 0.998455
1.00026 1.00263 0.991687
1.00008 1.00027 0.997738
1.00127 0.999964 0.996952
1.00106 0.99999 0.997014
1.00276 1.0001 0.989986
1.00254 0.999927 0.990525
1.00088 0.999979 0.997132
1.00085 0.999983 0.99715
1.00245 0.999871 0.990728
1.00275 1.00001 0.990864
1.00489 0.99942 0.987179
1.00287 1.00003 0.989828
1.00502 0.999772 0.986587
1.00241 0.999874 0.990781
1.00484 0.999327 0.987366
1.00498 0.999569 0.986895
1.00537 0.997471 0.988503
1.0051 0.999945 0.986307
1.00531 0.998129 0.987869
1.00086 0.99999 0.997144
1.00043 1.00012 0.99462
1.00255 0.999967 0.989973
1.00283 1.00013 0.990811
0.999966 1.00137 0.997451
1.00261 1.00128 0.990775
1.00294 1 0.990762
1.00496 0.999977 0.987043
1.005 1.00047 0.986524
1.00485 1.00099 0.986277
1.00527 1.00028 0.985587
1.00242 0.999903 0.990734
1.00259 1.00008 0.991188
1.00482 0.999329 0.987625
1.00491 0.999958 0.987149
1.00041 1.00068 0.997357
1.00154 1.0025 0.990436
1.00436 1.00167 0.986022
1.00499 1.00011 0.986812
1.00527 0.998688 0.987382
1.00527 1.00082 0.985051
1.00528 0.99986 0.98607
1.00522 0.998819 0.987011
1.00064 1.00279 0.99089
1.00149 1.00497 0.98735
1.00481 0.999404 0.987347
1.00485 0.999618 0.987591
1.00533 0.997947 0.988107
1.00527 0.998042 0.988039
1.00529 0.999113 0.986831
1.00522 0.996677 0.989348
1.00089 1.00302 0.990169
1.00522 0.997867 0.987976
1.00376 1.00225 0.986019
1.00526 1.00134 0.984422
1.00522 1.00004 0.985901
1.00519 0.997167 0.988787
1.00244 1.00401 0.986674
1.00086 1.00509 0.988262
1.00293 1.0039 0.986146
1.00291 0.999967 0.98982
0.999942 0.999723 0.998046
0.999909 1.00191 0.99299
1.00265 1.00028 0.989917
1.00508 1.00025 0.985919
1.00081 1.00286 0.990537
1.00383 1.00203 0.986144
1.00482 1.0007 0.985926
1.00528 1.00115 0.984702
1.00033 1.00259 0.991654
0.999982 1.00072 0.994072
1.00097 1.00479 0.988382
1.0051 1.00012 0.986063
1.00499 1.00041 0.985911
1.00533 0.999633 0.986157
1.00294 1.00318 0.986654
1.00531 1.00061 0.985209
1.00505 1.00167 0.984539
1.00528 1.00048 0.985178
1.00002 1 0.994815
1.00204 1.00422 0.987375
1.00068 1.00405 0.989808
1.00196 1.0044 0.987268
1.00533 0.999091 0.986761
1.00532 1.00014 0.985627
1.00526 0.99814 0.987615
1.00444 1.00186 0.985311
1.00526 0.999532 0.986355
1.0052 1.00129 0.98479
1.00523 0.999904 0.985873
1.00022 1.0014 0.993088
1.00024 0.998916 0.995495
0.999911 0.997629 0.99893
0.999849 0.997932 0.998847
0.9998 0.99831 0.998731
1.00008 1.00194 0.992647
0.999954 0.999811 0.998011
1.00036 1.00249 0.991663
1.00017 1.00036 0.997634
1.00286 1.00006 0.98983
1.00267 1 0.990247
1.005 0.999782 0.986583
1.00487 0.999426 0.987182
1.00246 0.999887 0.990728
1.0009 0.999973 0.997148
1.00243 0.999869 0.990784
1.00483 0.999336 0.987366
1.00496 0.999581 0.986897
1.00535 0.997482 0.988504
1.00507 0.999963 0.986291
1.00532 0.998125 0.987851
1.00481 0.999335 0.987403
1.00536 0.997298 0.988675
1.00533 0.997756 0.988248
1.00519 0.995073 0.991099
1.00533 0.998577 0.987342
1.00527 0.995935 0.990053
1.00243 0.999901 0.990742
1.00274 1.00005 0.991026
1.00485 0.999297 0.987329
1.00494 1.00007 0.98704
1.00052 1.00074 0.997244
1.00185 1.00231 0.99106
1.00434 1.00194 0.986258
1.005 1.00014 0.986773
1.00527 0.99837 0.987676
1.00528 0.999955 0.986077
1.00528 1.00074 0.985117
1.00522 0.998828 0.987033
1.00067 1.00271 0.990876
1.00159 1.00484 0.987352
1.00481 0.999257 0.987449
1.00487 0.999594 0.98757
1.00533 0.997733 0.988359
1.00526 0.998366 0.987711
1.00097 1.0029 0.990172
1.00371 1.00246 0.986023
1.00525 1.00143 0.984366
1.00529 0.999297 0.986681
1.00523 0.996384 0.989619
1.00522 0.999875 0.986072
1.00521 0.997879 0.987986
1.00519 0.997101 0.98875
1.00238 1.00409 0.986673
1.00273 1.00374 0.986158
1.00094 1.00499 0.988274
1.00535 0.997713 0.988334
1.00529 0.997905 0.988269
1.00522 0.995545 0.99058
1.00523 0.99576 0.990197
1.00522 0.996853 0.988953
1.00526 0.995258 0.990566
1.00318 1.00303 0.986305
1.00519 0.99602 0.989664
1.00516 1.00196 0.984187
1.00522 1.00096 0.984766
1.00518 0.998655 0.987232
1.00516 0.996307 0.989615
1.00045 1.00473 0.989349
1.00416 1.00229 0.985584
1.00163 1.00492 0.986862
1.00458 1.00244 0.985281
1.00508 1.00013 0.986043
0.999968 1.00068 0.994119
1.00018 1.00274 0.99167
1.00062 1.00501 0.988363
1.005 1.0004 0.985893
1.00533 0.999642 0.986132
1.00295 1.00308 0.986665
1.00517 1.0017 0.984517
1.00532 1.00069 0.985137
1.00527 1.00028 0.985318
1.00003 0.999896 0.994852
1.0019 1.00423 0.987366
1.0005 1.00417 0.989822
1.00185 1.0045 0.987246
1.00533 0.999099 0.986739
1.00533 1.00015 0.985601
1.00526 0.998132 0.987608
1.00459 1.00176 0.985328
1.00525 0.999651 0.986193
1.00519 1.00117 0.984757
1.00522 0.999814 0.986015
1.00015 0.999305 0.995276
1.00038 1.00312 0.991191
1.00325 1.00282 0.986378
1.00121 1.00506 0.988379
1.00323 1.00272 0.98704
1.00527 0.99738 0.98842
1.00526 0.998854 0.986851
1.00522 0.997011 0.988601
1.00477 1.00129 0.985197
1.00521 0.998744 0.987051
1.00494 1.00082 0.98545
1.0003 1.00162 0.992748
1.0003 1.00289 0.9915
1.00013 1.00129 0.993367
1.00021 1.0014 0.993085
1.00023 0.998674 0.996314
1.00022 0.998875 0.995852
1.00009 0.997313 0.997655
0.999914 0.997573 0.998949
0.999841 0.997847 0.998889
0.99989 1.00108 0.993805
0.999855 0.999202 0.998351
1.00013 1.00196 0.992625
1.00005 0.999862 0.997908
1.00048 1.00238 0.991643
1.00029 1.00045 0.997534
1.00505 0.999979 0.986275
1.00493 0.999587 0.986899
1.00533 0.998144 0.987832
1.00534 0.997493 0.988504
1.00482 0.999346 0.987366
1.00242 0.999859 0.990783
1.0048 0.999336 0.987406
1.00536 0.997302 0.988678
1.00533 0.997772 0.988238
1.00522 0.995046 0.991087
1.00533 0.998583 0.987323
1.00527 0.995914 0.990054
1.00536 0.997285 0.988703
1.00522 0.99496 0.991196
1.00521 0.99538 0.990726
1.00516 0.994949 0.991247
1.00528 0.996655 0.989242
1.00527 0.995012 0.99068
1.00482 0.99911 0.987553
1.0049 0.999585 0.98755
1.00533 0.997541 0.98861
1.00526 0.998697 0.987384
1.00104 1.00283 0.990179
1.00351 1.0028 0.986031
1.00524 1.00153 0.984308
1.00529 0.999483 0.98653
1.00524 0.996099 0.98989
1.00521 0.99789 0.987996
1.00522 0.99971 0.986241
1.00519 0.997033 0.988711
1.00239 1.00417 0.98667
1.00266 1.00357 0.986171
1.00106 1.00484 0.988288
1.00535 0.997571 0.988469
1.00529 0.997881 0.988268
1.00522 0.99536 0.990799
1.00523 0.995972 0.989993
1.00315 1.00317 0.986296
1.0051 1.00194 0.984219
1.00522 1.00108 0.984655
1.00521 0.997157 0.988669
1.00525 0.995145 0.990624
1.00519 0.99859 0.987185
1.0052 0.996058 0.989648
1.00517 0.996174 0.989693
1.00409 1.00247 0.985565
1.00441 1.00246 0.985113
1.00059 1.0045 0.989369
1.00146 1.00493 0.987007
1.00522 0.995024 0.991182
1.00524 0.99578 0.990199
1.00513 0.994953 0.991228
1.00526 0.994916 0.990837
1.00521 0.995377 0.990286
1.00528 0.994918 0.990695
1.00507 1.00171 0.98475
1.00521 0.995117 0.990386
1.00516 1.00202 0.983852
1.00518 1.00039 0.98528
1.00518 0.997895 0.987748
1.00519 0.996242 0.989599
1.00028 1.00387 0.990479
1.00091 1.00514 0.987913
1.00508 1.00189 0.984486
1.00259 1.00432 0.986323
1.00496 1.00318 0.984026
1.00002 0.999797 0.994888
1.00533 0.999105 0.986718
1.00033 1.00423 0.989837
1.00184 1.00423 0.987355
1.00175 1.00455 0.987225
1.00533 1.00016 0.985576
1.00526 0.998123 0.987601
1.00492 1.00138 0.985348
1.0052 1.00106 0.984726
1.00525 0.999767 0.986033
1.00522 0.999735 0.986157
1.00015 0.999248 0.995302
1.00029 1.00317 0.991215
1.00348 1.00269 0.986382
1.00083 1.00509 0.988372
1.00288 1.00269 0.98727
1.00527 0.997366 0.988414
1.00525 0.998843 0.986845
1.00523 0.996969 0.988589
1.00496 1.00126 0.985162
1.0052 0.998822 0.986901
1.00502 1.00081 0.985527
1.00036 1.00213 0.992178
1.00068 1.00443 0.989781
1.00448 1.00109 0.98606
1.00144 1.0048 0.988128
1.00381 1.0005 0.988336
1.00524 0.996267 0.989418
1.00522 0.997806 0.987741
1.00524 0.996245 0.988972
1.00477 1.00106 0.985299
1.005 0.999505 0.98627
1.0003 1.00161 0.99275
1.00031 1.00294 0.991293
1.00014 1.00304 0.99146
1.00045 1.00321 0.991124
1.0002 1.00288 0.991693
1.00005 1.0012 0.993559
1.00012 1.00127 0.993374
1.00021 0.998567 0.996432
1.0002 1.00142 0.993081
1.00024 0.998665 0.996332
1.00016 0.997072 0.997744
1.00021 0.998851 0.996201
1.00002 0.997323 0.998327
0.999923 0.997494 0.998967
0.999795 1.00016 0.994881
0.999922 1.00114 0.993779
0.999752 0.998532 0.998721
0.99995 0.999327 0.998218
1.0002 1.00193 0.992601
1.00014 0.999993 0.997802
1.00533 0.998586 0.987305
1.00532 0.997766 0.988229
1.00527 0.995881 0.990055
1.00524 0.995028 0.991074
1.00536 0.997307 0.98868
1.0048 0.999338 0.987408
1.00536 0.997289 0.988702
1.00522 0.994961 0.991203
1.00523 0.995348 0.990729
1.00515 0.994948 0.991211
1.00528 0.996617 0.989236
1.00527 0.995013 0.990693
1.00522 0.99498 0.991208
1.00513 0.994952 0.991316
1.00523 0.994932 0.991
1.00523 0.994944 0.991065
1.00527 0.995544 0.990143
1.00528 0.994899 0.990769
1.00535 0.997426 0.988602
1.00529 0.997868 0.988267
1.00522 0.995166 0.991017
1.00523 0.996176 0.989789
1.0031 1.00332 0.986287
1.00508 1.00192 0.984249
1.00521 1.00113 0.984544
1.00521 0.997457 0.988386
1.00525 0.995031 0.990681
1.00521 0.9961 0.989631
1.00519 0.998528 0.987139
1.00517 0.99602 0.989774
1.00379 1.00284 0.985547
1.00395 1.00253 0.984945
1.00075 1.00433 0.989389
1.00142 1.00496 0.987154
1.00521 0.995033 0.991176
1.00523 0.995785 0.990232
1.00514 0.994952 0.991227
1.00526 0.994917 0.990829
1.00476 1.00208 0.984733
1.00515 1.00208 0.983803
1.00517 1.00036 0.985256
1.00522 0.99551 0.990163
1.00528 0.994908 0.990666
1.00515 0.997937 0.987734
1.00521 0.995125 0.990368
1.00518 0.996039 0.989731
1.00494 1.00203 0.984508
1.00473 1.00333 0.983867
1.00253 1.00437 0.986335
1.00027 1.00375 0.990478
1.00077 1.00513 0.988052
1.00513 0.99496 0.991248
1.00522 0.994938 0.991021
1.00527 0.994907 0.990637
1.00525 0.994907 0.990642
1.0051 1.00265 0.983756
1.00522 0.995114 0.990372
1.00504 1.00172 0.983965
1.00512 0.999924 0.985646
1.00514 0.997601 0.987918
0.999896 1.00274 0.991893
1.00051 1.00496 0.989111
1.00134 1.0051 0.987714
1.0051 1.00305 0.983457
1.00314 1.00419 0.985192
1.00499 1.00343 0.983047
1.00015 0.999208 0.995327
1.00021 1.00322 0.991239
1.00527 0.997352 0.988409
1.00041 1.00512 0.988364
1.00349 1.0028 0.986386
1.00258 1.00277 0.9875
1.00525 0.998834 0.986839
1.00523 0.996929 0.988576
1.00512 1.0012 0.985126
1.00505 1.00084 0.985605
1.0052 0.998887 0.986751
1.00031 1.00216 0.992189
1.00033 1.00459 0.989787
1.00462 1.00094 0.986126
1.00114 1.00501 0.988067
1.00361 1.00024 0.988327
1.00524 0.996224 0.989423
1.00522 0.99782 0.987719
1.00525 0.996297 0.988965
1.00478 1.0011 0.98533
1.00502 0.999609 0.986272
1.00045 1.0035 0.990845
0.999905 1.00507 0.989401
1.00492 1.00061 0.985877
1.00151 1.00262 0.988701
1.00514 0.999282 0.987573
1.00526 0.995326 0.990015
1.00523 0.997752 0.987612
1.00526 0.996489 0.988549
1.00477 1.00028 0.985963
1.0051 0.999448 0.986279
1.00029 1.00159 0.992752
1.00031 1.003 0.991303
1.00005 1.00343 0.991144
1.00004 1.00313 0.991421
1.00012 1.00299 0.991683
1.00015 1.00344 0.991154
0.999982 1.00313 0.991842
1.00003 1.00366 0.990938
1.0001 1.00285 0.9919
1.00002 1.0013 0.993524
1.00005 1.00119 0.993559
1.00014 0.998562 0.996529
1.00011 1.00122 0.99338
1.00022 0.998565 0.996448
1.00018 0.996955 0.997806
1.00025 0.998645 0.996355
1.00014 0.997078 0.997747
0.999945 0.997318 0.999017
0.999851 0.999291 0.995685
0.99981 1.00024 0.994837
0.999699 0.998059 0.998945
0.999966 1.00116 0.993753
0.999822 0.998695 0.998588
1.00004 0.999385 0.998094
1.00528 0.99658 0.98923
1.00525 0.995328 0.990732
1.00527 0.995016 0.990706
1.00514 0.994946 0.991175
1.00522 0.994955 0.99121
1.00536 0.997293 0.988702
1.00522 0.994972 0.991229
1.00513 0.994959 0.991331
1.00521 0.994925 0.991037
1.00523 0.994939 0.991033
1.00527 0.995532 0.990166
1.00528 0.994895 0.99072
1.00514 0.994967 0.991305
1.00523 0.994935 0.991099
1.00526 0.994927 0.990872
1.00526 0.994968 0.990548
1.00521 0.99504 0.99117
1.00523 0.995782 0.990265
1.00515 0.99495 0.991226
1.00526 0.994917 0.990822
1.00461 1.00223 0.984718
1.00516 1.00213 0.983757
1.00516 1.00041 0.985233
1.00523 0.995633 0.99004
1.00528 0.994896 0.990637
1.0052 0.995133 0.99035
1.00513 0.997953 0.987718
1.00518 0.995834 0.989861
1.00477 1.00216 0.984531
1.00476 1.00302 0.983706
1.00237 1.00441 0.986347
1.00028 1.00357 0.990484
1.00067 1.00512 0.988193
1.00514 0.99496 0.99124
1.00523 0.994938 0.991013
1.00527 0.994907 0.990661
1.00498 1.00261 0.983797
1.00506 1.00187 0.983919
1.0051 0.999988 0.985631
1.00525 0.994914 0.990619
1.00517 0.997397 0.988204
1.00521 0.995151 0.990304
0.99996 1.0025 0.992119
1.00504 1.0028 0.983493
1.00471 1.00372 0.983185
1.00339 1.00402 0.985333
1.00138 1.00509 0.987818
1.00041 1.00501 0.989026
1.00522 0.99495 0.99108
1.00526 0.994918 0.990791
1.00526 0.994895 0.990595
1.00522 0.99488 0.990593
1.00509 1.00272 0.9835
1.0052 0.995669 0.9897
1.00501 1.00163 0.984202
1.00504 1.00026 0.985588
1.00002 1.0009 0.99359
0.999978 1.00439 0.990554
1.00088 1.00509 0.988804
1.00209 1.00503 0.986351
1.00496 1.00357 0.983003
1.00474 1.00394 0.983063
1.00026 1.00217 0.9922
1.00003 1.00465 0.989795
1.00524 0.996179 0.989428
1.00081 1.00514 0.988008
1.00479 1.00078 0.986191
1.00335 1.00022 0.988305
1.00522 0.997834 0.987697
1.00525 0.996352 0.988955
1.00484 1.00118 0.985358
1.00507 0.999727 0.986274
1.0003 1.00356 0.99085
1.00022 1.00504 0.989243
1.00502 1.00049 0.985879
1.00172 1.00278 0.988736
1.00498 0.999356 0.987207
1.00526 0.995328 0.990101
1.00524 0.99767 0.987781
1.00526 0.996636 0.988547
1.00474 1.00034 0.986039
1.00505 0.99963 0.986075
0.99967 1.00398 0.990734
1.00031 1.00505 0.988754
1.00489 1.00017 0.986247
1.00375 1.00007 0.987468
1.00531 0.994852 0.990274
1.00524 0.996065 0.989605
1.00515 0.998726 0.986606
1.00514 0.999468 0.986085
1.00036 1.00299 0.991313
1.00017 1.00339 0.991142
0.999595 1.0038 0.99201
1.00003 1.00312 0.991673
0.999832 1.00366 0.991185
1.00007 1.00288 0.991889
0.999751 1.00315 0.992084
1.00008 1.00375 0.990904
0.999594 1.00202 0.993491
0.999814 1.00404 0.99121
0.999986 1.00386 0.990814
1.00016 1.00282 0.991832
0.999984 1.00155 0.993269
0.999994 1.00129 0.993517
1.00005 0.998635 0.996606
1.00004 1.00117 0.993561
1.00015 0.998582 0.996541
1.00014 0.99696 0.997861
1.00022 0.99857 0.996466
1.00017 0.996956 0.997808
1.0001 0.997094 0.997744
0.999984 0.998599 0.996191
0.999851 0.999404 0.995623
0.999713 0.997624 0.999084
0.999809 1.00037 0.994792
0.999738 0.998133 0.998889
0.99992 0.99881 0.998443
1.00527 0.995519 0.990188
1.0052 0.994919 0.991074
1.00527 0.994891 0.990671
1.00522 0.994934 0.991001
1.00513 0.994964 0.991345
1.00521 0.994963 0.991249
1.00514 0.994964 0.991313
1.00523 0.994937 0.991104
1.00525 0.994921 0.990866
1.00525 0.994958 0.990584
1.00524 0.994946 0.99113
1.00527 0.994917 0.990957
1.00529 0.994879 0.990698
1.00514 0.99496 0.991232
1.00524 0.994939 0.991006
1.00527 0.994909 0.990685
1.00489 1.00259 0.983836
1.00508 1.00196 0.983869
1.00506 0.999969 0.985615
1.00524 0.994928 0.990596
1.00519 0.995205 0.990235
1.0052 0.997146 0.988487
1.00499 1.0028 0.983527
1.00439 1.00378 0.983325
1.00372 1.00394 0.985472
1.00002 1.0023 0.992348
1.00129 1.00507 0.987921
1.00025 1.00508 0.988934
1.00523 0.994951 0.99109
1.00526 0.994918 0.990766
1.00526 0.994896 0.990587
1.00499 1.00275 0.983546
1.00493 1.00158 0.984147
1.00506 0.999894 0.985945
1.00521 0.994882 0.990549
1.00516 0.995736 0.989641
1.00003 1.00084 0.993809
0.999951 1.00443 0.990531
1.00494 1.00298 0.98297
1.00429 1.00412 0.983714
1.00222 1.00494 0.986554
1.00073 1.0051 0.988646
1.00527 0.994922 0.990947
1.0053 0.994878 0.990513
1.00525 0.994876 0.990578
1.00516 0.995092 0.990331
1.00442 1.00272 0.983708
1.00511 0.998104 0.987532
1.00488 1.00216 0.984101
1.00022 1.00006 0.994444
1.00035 1.00113 0.993237
0.999776 1.00247 0.992537
1.00025 1.00506 0.989472
1.00096 1.00512 0.98781
1.00253 1.00437 0.985137
1.0045 1.00359 0.983505
1.00411 1.0043 0.984559
1.00013 1.00376 0.990855
1.00041 1.00512 0.989086
1.00527 0.995327 0.990188
1.0019 1.00269 0.988778
1.00508 1.00036 0.985884
1.00491 0.999491 0.986851
1.00525 0.997561 0.987954
1.00526 0.996749 0.988549
1.0048 1.00036 0.986112
1.005 0.999758 0.985873
0.999906 1.00399 0.990597
1.00046 1.00504 0.988722
1.00507 1.00001 0.986258
1.00405 1.00032 0.987513
1.00533 0.994848 0.990308
1.00525 0.995979 0.989497
1.0051 0.998685 0.986706
1.00514 0.999579 0.986038
0.999896 1.00413 0.990369
1.00535 0.994901 0.990299
1.00218 1.00422 0.987875
1.00482 0.999506 0.986849
1.00524 0.995208 0.990492
1.00511 0.997813 0.986613
1.00492 1.00074 0.985478
1.00024 1.00343 0.991139
0.999603 1.00361 0.991923
0.998927 1.00335 0.993962
1.00006 1.00284 0.99188
1.00011 1.00386 0.990869
0.999147 1.00356 0.992323
1.00013 1.0028 0.991823
0.999909 1.00399 0.990832
0.999033 1.0024 0.993749
0.999953 1.00389 0.991146
0.999341 1.00062 0.995987
0.999234 1.00296 0.993102
0.999756 1.00465 0.990395
1.00037 1.00384 0.990389
1.00016 1.00315 0.991432
0.999912 1.00198 0.992958
0.999925 1.00168 0.993251
0.999933 0.998874 0.996607
0.999963 1.00136 0.993511
1.00006 0.998686 0.996601
1.00005 0.997026 0.997929
1.00016 0.998593 0.996554
1.00015 0.99695 0.997859
1.00016 0.996958 0.997805
1.00019 1.00021 0.994387
1.00008 0.998228 0.996419
0.999984 0.99867 0.996152
0.999799 0.997245 0.999165
0.999847 0.999513 0.995562
0.999738 0.997724 0.99905
0.999788 0.998242 0.998808
1.00524 0.994949 0.990619
1.00525 0.994916 0.99086
1.00524 0.994939 0.991108
1.00514 0.994963 0.991322
1.00524 0.994946 0.991123
1.00527 0.994916 0.990972
1.00526 0.994885 0.990674
1.00528 0.994918 0.990998
1.00533 0.994918 0.990765
1.00539 0.994964 0.991136
1.00523 0.994951 0.991099
1.00526 0.994919 0.990741
1.00526 0.994898 0.99058
1.00487 1.00279 0.983594
1.0049 1.00192 0.984108
1.00491 0.999623 0.986301
1.00521 0.994884 0.990505
1.00511 0.995907 0.98958
1.00478 1.00315 0.982941
1.00386 1.00454 0.984356
1.00211 1.00481 0.986757
1.00002 1.00072 0.994027
1.00004 1.00439 0.990511
1.00069 1.00511 0.988485
1.00527 0.994921 0.990932
1.00018 1.00009 0.994436
1.00026 1.00121 0.993124
1.0053 0.994888 0.990526
1.00524 0.994876 0.990586
1.00488 1.00277 0.983617
1.00466 1.00211 0.984271
1.00508 0.997892 0.987434
1.00517 0.994987 0.99025
0.99982 1.0025 0.99271
1.00027 1.00502 0.989426
1.00457 1.0038 0.983275
1.00348 1.00398 0.984952
1.00286 1.00455 0.985325
1.00107 1.00509 0.987798
1.00534 0.994894 0.990703
1.0053 0.994842 0.990478
1.00518 0.994867 0.990398
1.00513 0.995037 0.990247
1.00414 1.00285 0.984477
1.00433 1.00194 0.985309
1.00006 1.0019 0.992598
1.00017 1.00113 0.993464
1.00108 1.00049 0.992907
1.00029 1.00332 0.990983
1.00045 1.0051 0.989056
1.00241 1.0044 0.986694
1.00176 1.00495 0.985536
1.00376 1.00063 0.986418
1.00027 1.00386 0.990461
1.00078 1.00505 0.988692
1.00533 0.994845 0.990342
1.00526 0.995963 0.98939
1.00442 1.00049 0.987555
1.00516 0.999881 0.986268
1.00507 0.998673 0.986802
1.00514 0.999698 0.985995
1.00026 1.00399 0.990286
1.00536 0.994897 0.990528
1.00181 1.00415 0.988021
1.00499 0.999624 0.986654
1.00524 0.995175 0.990496
1.00507 0.99803 0.986831
1.0049 1.00057 0.985487
1.00012 1.00486 0.990057
1.00485 0.994816 0.991072
1.00297 1.00254 0.98761
1.00467 1.00113 0.985265
1.0049 0.995918 0.989719
1.00373 1.00126 0.985966
0.998825 0.995867 0.987023
0.999486 1.00357 0.991838
0.998448 1.00348 0.993952
0.999115 1.00234 0.994946
1.00004 1.00289 0.991814
0.99986 1.00414 0.990851
1.00027 1.00356 0.991086
0.998702 1.00252 0.994016
1.00011 1.00322 0.991432
1.00025 1.00393 0.990427
0.999372 1.00074 0.995388
0.999856 1.00464 0.990405
0.999551 1.00286 0.992772
0.998787 1.00118 0.996428
1.00024 1.00458 0.990004
1.00012 1.00463 0.99021
1.00063 1.00401 0.989958
1.00014 1.00366 0.990771
1.00031 1.00427 0.990341
1.00012 1.00384 0.990567
0.999921 1.0021 0.992823
0.999939 1.00196 0.992939
0.999818 0.999035 0.99602
0.999931 1.00167 0.99323
0.999925 0.998934 0.996283
1.00001 0.997202 0.999112
1.00006 0.998737 0.996598
1.00007 0.997001 0.99793
1.00015 0.996941 0.997853
1.00008 1.00023 0.994456
1.0002 1.0001 0.994417
1.0001 0.998109 0.996543
1.00006 0.998241 0.996686
0.999875 0.997025 0.999209
0.999977 0.998747 0.996113
0.999797 0.997344 0.999146
0.999765 0.997787 0.999018
1.00525 0.994892 0.990649
1.00527 0.994914 0.990988
1.00524 0.994946 0.991116
1.00528 0.994918 0.990998
1.00533 0.994914 0.990759
1.00537 0.994949 0.990792
1.00537 0.9949 0.990788
1.00131 0.994941 0.982869
1.00456 0.994921 0.992577
1.00003 1.00159 0.993173
1.00527 0.99492 0.990916
1.0053 0.994898 0.990539
1.00522 0.994874 0.990594
1.0049 1.00235 0.983513
1.00485 1.00182 0.984431
1.00511 0.997796 0.987344
1.00519 0.994981 0.990169
1.00486 1.00353 0.983056
1.00327 1.00368 0.985359
1.00289 1.00473 0.985517
1.00015 1.00015 0.99443
1.0013 1.00512 0.987787
0.999819 1.00251 0.992871
1.00028 1.00504 0.989377
1.00026 1.00117 0.993012
1.00534 0.99488 0.990699
1.00005 1.00193 0.992714
1.00011 1.00122 0.993472
1.00087 1.00047 0.993109
1.00531 0.994847 0.990447
1.00517 0.994869 0.990366
1.00351 1.00348 0.984549
1.00463 1.00083 0.985859
1.00513 0.995157 0.990159
0.99998 1.00346 0.991157
1.0006 1.0051 0.988883
1.00374 1.00213 0.986118
1.00246 1.00479 0.985396
1.00231 1.00419 0.986933
1.00529 0.994825 0.990931
1.00519 0.994769 0.990813
1.00513 0.995077 0.989891
1.00494 0.997158 0.989765
1.00212 1.00275 0.987931
0.999658 1.00319 0.991933
1.00091 1.0008 0.992529
1.00004 1.00079 0.992971
1.00008 1.00463 0.990973
1.00027 1.00514 0.989386
1.00077 1.00453 0.987902
1.00255 1.00045 0.988961
1.00082 1.00377 0.990202
1.00121 1.00406 0.988168
1.00538 0.994885 0.990745
1.00525 0.995089 0.990493
1.00507 0.998175 0.987049
1.00505 0.999693 0.986457
1.00485 1.00038 0.985501
1.00051 1.00467 0.990066
1.00464 0.994834 0.991262
1.00302 1.00224 0.987544
1.00484 1.0011 0.985178
1.00501 0.995759 0.989946
1.00395 1.00122 0.986048
0.998688 0.996826 0.985133
1.00014 1.00429 0.990394
1.00307 0.996448 0.99116
1.0036 1.002 0.986086
1.00307 1.00111 0.986981
1.00315 0.997611 0.990819
0.999964 0.994915 0.94648
0.995698 0.994817 0.966907
0.99559 1.00035 0.988214
0.999453 0.994791 0.868584
0.99471 0.994819 0.833151
0.998098 1.0036 0.993947
0.998279 1.00287 0.995236
0.998341 1.00265 0.996027
1.00008 1.00325 0.991433
1.00032 1.0037 0.990464
0.999977 1.00456 0.990417
0.999791 1.00278 0.992432
0.999377 1.00096 0.994782
1.00014 1.00445 0.990203
1.00014 1.00365 0.990861
1.00055 1.00397 0.990014
0.998986 1.00059 0.995874
0.999983 1.00458 0.990312
1.00033 1.00457 0.990335
0.999096 1.00475 0.991452
1.00013 1.00461 0.990182
1.00053 1.00445 0.989425
1.00024 1.00373 0.990559
1.0004 1.00466 0.989594
1.0005 1.00407 0.99028
0.999741 1.00452 0.990758
1.0002 1.00437 0.990255
1.00022 1.00357 0.990956
1.00016 1.00384 0.990554
0.999946 1.00208 0.992814
0.999934 1.0021 0.992826
0.99979 0.999132 0.996018
0.999917 1.00204 0.992922
0.99981 0.999074 0.996011
0.99996 0.997215 0.999135
0.999911 0.999004 0.995961
0.999995 0.9972 0.998515
1.00009 0.996978 0.997928
0.999963 1.00017 0.994692
1.00008 1.00025 0.99446
1.0001 0.998 0.996668
1.00022 1.00001 0.994446
1.0001 0.998051 0.996813
0.999928 0.996807 0.999246
1.00007 0.998288 0.996395
0.999868 0.997109 0.999193
0.999804 0.99742 0.999128
1.00532 0.994909 0.990753
1.00528 0.994918 0.990997
1.00536 0.994957 0.990459
1.0008 0.994863 0.982995
1.00537 0.994895 0.990803
1.00445 0.995123 0.992266
1.00504 0.996332 0.991302
0.996358 0.994913 0.966005
1.00104 0.996069 0.985117
1.00008 1.00139 0.993354
1.00006 1.00165 0.993142
0.999651 1.00325 0.992089
0.999848 1.00229 0.992754
1.00534 0.994873 0.990695
1.00532 0.994858 0.990415
1.00517 0.994877 0.990335
1.00443 1.00368 0.98462
1.00453 0.999095 0.986411
1.00502 0.995317 0.990064
1.00334 1.00313 0.98582
1.00376 1.00467 0.98525
1.00222 1.00333 0.987167
1.00002 1.00142 0.993482
1.0006 1.00506 0.988714
1.00001 1.00349 0.991332
1 1.00208 0.992829
1.00054 1.00063 0.993297
1.0053 0.994832 0.990936
0.999933 1.00309 0.991851
1.001 1.00059 0.992758
0.999103 1.00124 0.994575
1.00518 0.994793 0.990717
1.00514 0.995093 0.989897
1.00323 1.00148 0.9879
1.00459 0.99644 0.990169
1.00031 1.00437 0.99046
1.00044 1.00501 0.988775
1.00214 1.00234 0.988814
1.00217 1.00391 0.987398
1.00438 0.99491 0.991776
1.00502 0.994854 0.991211
1.00493 0.996173 0.989418
1.00303 0.997882 0.992231
0.998802 1.00409 0.992533
1.00078 1.00132 0.992055
0.998321 1.00477 0.992645
0.999143 1.00476 0.990548
0.999977 0.994892 0.934421
1.00066 1.00456 0.990071
1.00302 1.00224 0.987476
1.00435 0.994858 0.991481
1.00509 0.995662 0.99017
1.00408 1.00117 0.986113
1.00471 1.00113 0.985087
0.998559 0.997372 0.983118
1.00025 1.00417 0.990798
1.00293 0.996638 0.99111
1.00344 1.0023 0.986142
1.00363 1.00098 0.98704
1.00361 0.99767 0.990515
1.00028 0.994891 0.934434
0.996055 0.994805 0.963135
0.995657 1.0011 0.988293
0.998721 0.994799 0.87317
0.994712 0.99482 0.822778
0.999948 1.00405 0.991042
0.999786 0.994844 0.879657
0.994709 0.994786 0.826808
1.00037 0.999911 0.992334
1.00181 1.00194 0.989268
1.0014 0.999437 0.992516
0.99505 1.00072 0.99006
0.998358 0.994848 0.944555
0.994898 0.994778 0.959591
0.996815 0.99486 0.888632
0.994724 0.994807 0.818261
0.997619 1.00327 0.995533
0.998044 1.00214 0.995879
0.998325 1.00428 0.994364
1.00019 1.00359 0.99095
1.00049 1.00398 0.990071
0.999728 1.00477 0.990196
0.999768 1.0046 0.990619
0.99932 0.999775 0.995324
1.00023 1.00376 0.990561
1.00008 1.00482 0.990269
1.00003 1.00471 0.990085
1.00066 1.00428 0.989553
0.999027 1.00468 0.9917
0.999552 1.00492 0.991156
0.998208 1.00495 0.992363
1.00026 1.00484 0.98958
1.0005 1.00449 0.98965
1.00046 1.00458 0.989592
1.00036 1.00386 0.990464
1.00043 1.0049 0.989511
0.999935 1.00409 0.990959
0.999588 1.0032 0.991201
0.999568 1.005 0.990527
0.999625 1.00471 0.990593
0.999886 1.0043 0.990786
1.0001 1.00348 0.991155
1.0001 1.00438 0.99017
1.00022 1.00355 0.990905
1.00001 1.00208 0.992732
1.00024 1.00379 0.990541
0.999944 1.00208 0.992825
0.999936 0.999102 0.996488
0.999914 1.00212 0.992829
0.999823 0.9991 0.996287
0.999917 0.997219 0.997974
0.999803 0.999094 0.996002
0.999957 0.997232 0.999141
0.999997 0.99722 0.997915
1.00017 1.00138 0.993174
0.99993 1.00012 0.994797
0.999973 1.00017 0.994687
1.00007 0.997967 0.996739
1.00008 1.00026 0.994463
1.00011 0.997959 0.996669
0.99997 0.99671 0.999269
1.00008 0.998041 0.997054
0.999941 0.996936 0.998704
0.999908 0.997172 0.998109
1.00031 0.994851 0.983115
1.00536 0.994893 0.990817
1.00416 0.99598 0.991946
0.996517 0.994923 0.966741
1.00101 0.995702 0.98547
1.00506 0.995723 0.991266
1.00339 0.99652 0.987
0.997002 0.995412 0.969508
0.999979 0.994875 0.944138
0.998945 0.994837 0.890012
0.994649 0.994788 0.832018
0.999763 1.00239 0.992643
1.0001 1.00135 0.993342
1.00015 1.00158 0.99311
0.999836 1.00294 0.992164
0.999418 1.00381 0.992143
1.00042 1.00207 0.991942
1.00009 1.00288 0.992107
1.00003 1.00216 0.992598
1.0053 0.994819 0.990935
1.0052 0.994803 0.990623
1.00515 0.995048 0.989902
1.00325 1.00141 0.987873
1.00442 0.995978 0.990579
1.00236 1.00338 0.988651
1.00349 1.0039 0.986899
1.00091 1.00515 0.98817
1.00085 1.00042 0.992988
1.0003 1.00443 0.989928
1.00033 1.00282 0.99178
0.998522 1.0012 0.996155
1.0043 0.994802 0.992029
0.999079 1.00384 0.992512
1.00058 1.00174 0.9924
1.00484 0.994866 0.991169
1.00484 0.995782 0.989672
1.00263 0.997682 0.99185
0.999456 1.00516 0.991265
1.00068 1.00356 0.99075
1.00318 0.994798 0.991811
1.00417 0.997998 0.990422
1.00487 0.995678 0.990232
1.00097 0.998719 0.993237
0.999551 1.00485 0.990543
0.99916 1.00412 0.99204
0.999282 1.00518 0.991694
0.999804 0.994911 0.882366
1.0003 0.994872 0.947241
1.00047 1.0038 0.991199
1.00363 1.00237 0.986204
1.00283 0.99722 0.991054
1.00407 0.997788 0.99022
1.00405 1.00107 0.987118
0.999984 0.994888 0.944967
0.996115 0.99478 0.962718
0.995872 1.00193 0.988395
0.998253 0.994827 0.889261
0.994711 0.994814 0.811846
0.999988 1.0039 0.991006
0.999804 0.994853 0.879253
0.994677 0.994783 0.820193
1.00058 0.999911 0.992365
1.00185 1.00203 0.989272
1.00139 0.999591 0.992882
0.995285 1.00121 0.990712
0.999199 0.99562 0.938389
0.994847 0.994799 0.961781
0.996483 0.99715 0.88769
0.994745 0.994794 0.816966
0.999207 1.00403 0.993503
0.994707 0.994817 0.819249
0.994744 0.994789 0.830455
0.997712 1.00195 0.996348
0.99984 1.00209 0.994043
0.995158 1.00077 0.988529
0.995074 0.995271 0.962836
0.996195 0.994799 0.933473
0.994746 0.998582 0.892334
0.994828 0.994827 0.821228
0.997828 1.00183 0.995733
0.998712 1.00354 0.994123
0.99765 1.00341 0.994935
1.00019 1.0038 0.990562
1.00077 1.0041 0.989679
1.00003 1.00479 0.989985
0.999846 1.00481 0.990204
0.99868 1.00457 0.99195
1.00046 1.00453 0.989643
0.999596 1.00468 0.990912
1.00037 1.00477 0.989579
0.997793 1.00488 0.992805
0.995959 1.00518 0.996171
0.999139 1.00486 0.991467
1.00044 1.00472 0.989604
1.00052 1.00451 0.98959
1.00035 1.00353 0.990643
1.00039 1.00486 0.989475
1.00001 1.00401 0.990888
0.999478 1.00322 0.99191
0.999204 1.00502 0.990943
0.999343 1.00471 0.990944
0.999063 1.00378 0.992277
1.0006 1.00189 0.992173
1.00147 1.00083 0.990715
0.999249 1.00482 0.990855
0.999692 1.00481 0.990568
0.999686 1.00501 0.99008
0.99967 1.00486 0.990592
1.00002 1.00373 0.991004
0.999895 1.00438 0.990812
1.00014 1.00349 0.991165
1.00005 1.00204 0.992649
1.00021 1.00358 0.990853
1 1.00207 0.99275
1.00004 0.999086 0.996313
0.99994 1.00207 0.992836
0.999917 0.999084 0.996149
1.00001 0.997163 0.997863
0.999816 0.999092 0.995996
0.99996 0.997217 0.999147
0.999955 0.997232 0.999148
1.00021 1.00176 0.993047
0.999936 1.00027 0.994667
1.0001 1.00152 0.993184
1.00006 0.997951 0.996761
0.999929 1.00013 0.994798
0.999979 1.00021 0.994682
1.00008 0.997955 0.996731
0.999997 0.996647 0.999277
1.00009 0.997956 0.997151
0.999985 0.996711 0.998764
0.99996 0.996951 0.998201
0.999811 0.994844 0.868066
0.994679 0.994764 0.819784
0.996884 0.994894 0.967026
1.00096 0.995245 0.985895
1.00512 0.994942 0.991232
0.996665 0.995462 0.969622
1.00352 0.995628 0.987494
1.00105 0.994886 0.941361
0.999192 0.994797 0.873122
0.994691 0.9948 0.821814
0.998332 0.994863 0.97476
0.999406 0.99489 0.943691
0.996806 0.995109 0.888428
0.994738 0.994785 0.8233
1.00013 1.00327 0.991555
0.999867 1.00217 0.992773
1.00011 1.00137 0.993331
0.999932 1.00276 0.992239
0.999339 1.00371 0.992344
1.00007 1.00374 0.990928
1.00027 1.00276 0.991727
1.00038 1.0036 0.99054
1.00008 1.00285 0.991986
1 1.00234 0.992438
1.00415 0.994779 0.992269
1.00468 0.994823 0.991131
1.00466 0.995408 0.989925
1.00231 0.998078 0.991466
1.00103 1.00372 0.990954
0.999508 1.00524 0.989897
1.00041 1.00194 0.992783
0.999214 1.00383 0.992482
1.00259 0.994832 0.992215
0.999647 1.005 0.990335
0.998875 1.00431 0.99188
1.004 0.996879 0.990721
1.00475 0.995731 0.990105
1.00099 0.998802 0.993664
0.999251 1.00515 0.991541
1.00048 0.994812 0.992189
1.00194 0.998225 0.992688
0.999649 1.00107 0.994564
0.998613 1.00517 0.989911
0.999022 1.00513 0.990489
0.998733 1.00511 0.991845
0.99473 0.99485 0.841649
0.999801 0.994894 0.887134
0.999989 0.994888 0.934715
0.999778 1.00396 0.990958
1.00189 1.00203 0.989261
1.00063 0.999874 0.992397
1.00133 0.999695 0.993257
0.999811 0.994883 0.890357
0.998755 0.994855 0.934387
0.994863 0.99488 0.959704
0.99512 1.00184 0.991314
0.996977 0.994834 0.87397
0.994656 0.994788 0.825045
0.994766 0.994807 0.829638
0.998845 1.00343 0.993242
0.994701 0.994818 0.828762
0.994775 0.994794 0.829955
0.99723 1.00111 0.997015
0.999437 1.00209 0.993934
0.995082 0.999119 0.99099
0.995403 0.994868 0.961299
0.99672 0.99841 0.944118
0.994743 0.998405 0.877122
0.994922 0.994819 0.831184
0.997258 1.00395 0.996034
0.994791 0.994836 0.838766
0.994815 0.994787 0.827417
0.994951 1.00252 0.999933
0.995371 0.997203 0.969622
0.994893 0.999859 0.943701
0.995362 0.996711 0.869042
0.995072 0.994863 0.836144
0.999052 1.00281 0.993849
0.997831 1.00372 0.995114
0.995926 1.00409 0.997427
1.00041 1.00459 0.989636
1.00051 1.00473 0.98958
0.999726 1.00449 0.990668
0.997468 1.00484 0.99325
1.00031 1.00479 0.989624
0.999113 1.00489 0.991455
0.995867 1.00496 0.996579
0.995241 1.00499 0.997977
0.995841 1.00493 0.996781
0.999588 1.0044 0.991244
1.00033 1.00486 0.989438
1.00004 1.00386 0.990815
0.999232 1.00342 0.992604
0.999326 1.00477 0.990957
0.99932 1.00501 0.990962
0.999054 1.004 0.992363
0.999117 1.00458 0.991612
0.997113 1.00492 0.994714
1.00252 0.99756 0.992537
1.00033 1.00169 0.992573
1.00104 1.00139 0.991364
1.00434 1.00098 0.986937
1.00106 1.00314 0.990537
1.00058 1.00093 0.992286
0.99972 1.00458 0.99063
0.999712 1.0051 0.989749
0.999869 1.00457 0.990609
0.999892 1.00501 0.990089
1.00003 1.0044 0.990351
0.999995 1.00471 0.990592
1.0002 1.00358 0.990988
1.00012 1.00209 0.992522
1.0003 1.00327 0.991175
1.00013 1.002 0.992657
1.00014 0.999103 0.996136
1.00003 1.00202 0.992767
1.00003 0.999088 0.995947
1.00008 0.9972 0.997727
0.999919 0.999065 0.995852
0.999991 0.997182 0.998504
0.999968 0.997204 0.999133
1.0002 1.00241 0.9921
1.00006 1.0004 0.994397
1.00014 1.00179 0.992868
1.00006 0.998011 0.996705
0.999952 1.00023 0.994671
1.00007 1.00155 0.993193
1.00002 0.996614 0.999282
1.00006 0.99795 0.996761
0.999936 1.00013 0.994799
1.00008 0.997939 0.996723
0.999997 0.996672 0.999276
0.999968 0.996698 0.999269
0.994685 0.994794 0.823728
0.999807 0.994854 0.879051
0.99476 0.994776 0.827914
0.994699 0.994772 0.818433
0.996587 0.994903 0.967431
1.0035 0.994888 0.987998
0.999974 0.994884 0.937955
0.999305 0.994831 0.890003
0.994728 0.994806 0.811255
0.998541 0.994877 0.974023
1.00065 0.99612 0.930382
0.996683 0.997974 0.886271
0.994726 0.994784 0.816539
0.995387 0.99487 0.967003
0.996669 0.997282 0.932119
0.994802 0.997393 0.870069
0.994815 0.994847 0.818837
1.00053 1.00461 0.990407
0.99991 1.00326 0.991665
0.999958 1.00199 0.992899
0.999175 1.00353 0.992547
1.00062 1.00421 0.98944
0.999994 1.00364 0.991135
0.999974 1.00323 0.991517
1.00083 1.00312 0.990581
1.00046 1.00365 0.990633
1.00009 1.00272 0.991866
1.00223 0.994791 0.992619
1.00399 0.995729 0.991048
1.00455 0.995932 0.989983
1.00089 0.997786 0.994113
1.00026 1.00473 0.99138
0.999174 1.00477 0.99173
0.999716 1.00498 0.990124
1.00002 1.00514 0.989655
1.00003 0.994846 0.992542
0.999711 1.00505 0.990306
0.999347 1.00514 0.991737
1.00194 0.997664 0.993571
1.0003 1.00006 0.994325
0.996743 0.998528 0.992462
0.996996 0.998007 1.00082
0.99781 1.00294 0.995048
0.999831 1.00499 0.990186
0.998355 1.00516 0.99267
0.994822 0.994822 0.844391
0.994724 0.994836 0.838001
0.999804 0.994894 0.871648
0.998833 1.00276 0.993026
0.999229 1.0019 0.993805
0.997273 1.00034 0.997678
0.994679 0.994811 0.827773
0.996884 0.997247 0.933377
0.995486 0.99491 0.961628
0.99514 0.99745 0.993666
0.994784 0.997366 0.894278
0.994781 0.994798 0.829906
0.994981 0.994831 0.831952
0.9975 1.00393 0.996005
0.994795 0.994832 0.84166
0.994803 0.994786 0.828044
0.995279 1.0019 0.999007
0.995273 0.996708 0.971497
0.994907 0.997819 0.932445
0.994952 0.994859 0.833019
0.994933 0.999163 0.876731
0.995005 1.00495 0.999504
0.994793 0.994824 0.837497
0.994859 0.994826 0.833604
0.994805 0.99484 0.819643
0.994826 0.999234 0.990717
0.994874 0.998931 0.947294
0.996374 0.997352 0.883757
0.998258 1.00415 0.995315
0.996316 1.00445 0.997186
0.995031 1.00518 0.998898
1.00022 1.00488 0.989643
0.999005 1.00492 0.991439
0.995886 1.00485 0.99698
0.999355 1.00462 0.991167
0.996054 1.00498 0.996751
0.995314 1.00518 0.998004
0.995107 1.00522 0.997933
0.996205 1.00479 0.996394
0.999283 1.0048 0.990979
0.999383 1.00503 0.99098
0.999097 1.00428 0.992467
0.997421 1.0048 0.994584
0.999147 1.00474 0.991506
0.999093 1.00249 0.9937
1.00042 0.998277 0.995429
1.00254 1.00079 0.988563
1.00006 1.00151 0.992951
1.00157 1.0015 0.990874
1.0042 1.00201 0.986017
1.00517 1.00167 0.984419
1.00263 1.00138 0.989136
1.00355 1.00094 0.987232
1.00066 1.00508 0.98898
1.00068 1.00322 0.990865
0.9997 1.00108 0.993839
1.0002 1.00438 0.990404
0.999823 1.00509 0.989788
1.0002 1.00479 0.989672
1.00004 1.00506 0.990099
1.00016 1.00423 0.990368
1.00011 1.00253 0.992061
1.00026 1.00356 0.990972
1.00014 1.00206 0.99251
1.00016 0.999117 0.996058
1.00015 1.00195 0.992664
1.00013 0.999096 0.995779
1.00014 0.997245 0.997603
1.00004 0.999083 0.99563
1.00006 0.997199 0.998409
1.00002 0.997182 0.999085
1.00048 1.00261 0.991274
1.00009 1.00075 0.99369
1.00029 1.00233 0.992093
1.00011 0.998074 0.996557
1.00003 1.00041 0.994249
1.00012 1.0018 0.992693
1.00004 0.99665 0.999265
1.00006 0.997984 0.996714
0.999964 1.00017 0.994676
1.00002 0.996634 0.99928
1.00005 0.997957 0.996761
0.999997 0.996652 0.999275
0.994824 0.994827 0.835511
0.994695 0.99482 0.835184
0.999803 0.994835 0.878512
1.00101 1.00277 0.990471
0.994817 0.9948 0.834416
0.994759 0.994776 0.827871
0.994723 0.994787 0.829428
0.9991 0.994908 0.9731
0.99905 0.994864 0.942333
0.99661 0.994866 0.871575
0.994712 0.9948 0.823814
0.996565 0.994877 0.964239
0.996795 0.999472 0.942435
0.994764 0.998597 0.873071
0.994819 0.994832 0.82323
0.994865 0.994868 0.959418
0.994853 0.998301 0.941174
0.995309 0.99997 0.879563
0.995105 0.994869 0.835687
0.999921 1.00495 0.990032
1.00021 1.00439 0.990243
1.00004 1.00316 0.991775
1.00058 1.00343 0.990391
1.00045 1.00448 0.989727
0.999983 1.00384 0.991338
1.00082 1.00323 0.990545
1.00046 1.00371 0.990719
0.998905 0.996038 0.992721
1.00206 0.997048 0.994368
1.00036 1.00511 0.989396
1.00083 0.999856 0.99409
0.999593 1.00514 0.991628
1.0001 1.00511 0.990131
0.999524 1.00492 0.990309
0.996159 0.997353 0.993182
0.998614 1.00496 0.992763
0.99809 1.00305 0.995282
0.99715 0.998757 1.00102
0.999266 1.00486 0.991564
0.995152 1.00063 0.988444
0.995489 1.00137 1.00033
0.996327 1.00481 0.99622
0.998531 1.00488 0.993146
0.994785 0.994805 0.843175
0.994827 0.994821 0.842554
0.994715 0.994827 0.834293
0.997676 1.00406 0.995968
0.995454 1.00087 0.998092
0.994808 0.994829 0.844396
0.99484 0.999723 0.943939
0.995388 0.996364 0.968867
0.995 0.999249 0.875386
0.994804 0.994784 0.828516
0.994865 0.994852 0.829943
0.995333 1.00475 0.999192
0.994798 0.994823 0.837447
0.994854 0.994826 0.83543
0.994788 0.999727 0.994414
0.994808 0.994825 0.823734
0.994855 0.99676 0.939987
0.995638 0.997912 0.885914
0.994831 1.00355 0.998477
0.994828 0.994851 0.842526
0.9948 0.994804 0.835186
0.994726 0.994779 0.823823
0.99503 0.999972 0.879351
0.994899 1.00046 0.976713
0.995405 0.998166 0.93307
0.996611 1.00465 0.996957
0.995172 1.00519 0.998859
0.994904 1.00521 0.998332
0.999201 1.00473 0.991091
0.9961 1.00523 0.996726
0.995112 1.00518 0.998018
0.996363 1.00462 0.996346
0.995167 1.00524 0.998008
0.997872 1.00162 0.99753
0.99764 1.00455 0.994445
0.999149 1.0049 0.991412
0.999049 1.00277 0.994224
0.998988 1.0031 0.992049
0.998345 0.999032 0.99822
1.00238 1.00035 0.989615
1.00419 1.00373 0.983517
1.00491 1.00254 0.983632
1.00209 1.00157 0.990355
1.00421 1.00225 0.985272
1.00518 1.00176 0.984364
1.00435 1.00042 0.98668
1.00487 1.00155 0.984772
1.00099 1.00436 0.988623
1.00259 1.00169 0.988949
1.00283 1.00087 0.987534
1.00026 1.00509 0.989057
1.00025 1.00508 0.989217
1.00037 1.00323 0.9912
0.999874 1.00509 0.989828
1.00024 1.00481 0.989681
1.00018 1.00327 0.991238
1.00029 1.00418 0.990384
1.00014 1.00257 0.992042
1.00012 0.99932 0.995239
1.0002 1.0021 0.9925
1.00019 0.999118 0.995363
1.00005 0.997226 0.998982
1.00014 0.999112 0.99545
1.0001 0.997245 0.998308
1.00006 0.997204 0.999022
1.00048 1.00272 0.991135
1.00024 1.00118 0.993036
1.00043 1.00267 0.991415
1.00016 0.998224 0.996321
1.00015 1.00075 0.993614
1.00031 1.00233 0.992082
1.00006 0.996655 0.999232
1.00011 0.998053 0.996571
1.00003 1.00041 0.994102
1.00004 0.996624 0.999271
1.00007 0.997954 0.996723
1.00002 0.996661 0.99928
0.994801 0.994832 0.842755
0.994823 0.994828 0.835696
0.994688 0.994831 0.83522
1.0009 1.00281 0.990648
1.00075 1.00296 0.990528
1.00098 1.00233 0.991158
0.994867 0.994828 0.832883
0.994817 0.994792 0.834918
0.994756 0.99477 0.827879
0.996861 0.99487 0.96545
0.996807 0.995087 0.93112
0.994777 0.999718 0.892549
0.994817 0.994829 0.818018
0.994978 0.994841 0.96248
0.994877 0.999266 0.937838
0.995228 0.998859 0.875974
0.994985 0.994857 0.832409
0.995239 0.995114 0.959153
0.994857 0.997815 0.94233
0.996506 0.997716 0.883061
0.994841 0.994831 0.821831
0.999931 1.00354 0.991235
1.0003 1.00459 0.989828
1.00042 1.00406 0.990078
1.00074 1.00331 0.990331
1.00018 1.00462 0.990018
1.00082 1.00337 0.99051
0.996032 0.99597 0.993989
0.996671 0.999713 1.00131
0.999697 1.00446 0.990427
0.998769 1.00245 0.995468
0.9987 1.00493 0.99285
0.998933 1.00465 0.991801
0.998048 1.00513 0.993229
0.995128 1.00102 0.98842
0.99606 1.00505 0.996765
0.9961 1.00184 0.999306
0.998098 1.00469 0.993803
0.994954 1.0028 0.985205
0.995391 1.00401 0.996284
0.995919 1.00518 0.996977
0.994829 0.994831 0.843296
0.994786 0.994813 0.842842
0.994831 0.994818 0.840735
0.995556 1.00431 0.998838
0.994764 1.00012 0.99059
0.994795 0.994822 0.837408
0.99484 0.998709 0.939851
0.996079 0.997353 0.871472
0.994853 0.994825 0.837235
0.994808 0.994832 0.818915
0.994827 1.00339 0.998941
0.994821 0.994851 0.843209
0.994815 0.994803 0.83571
0.994889 0.999564 0.974072
0.994716 0.994782 0.817346
0.995637 0.99977 0.874167
0.995197 0.996013 0.945954
0.994895 1.00512 0.991605
0.994792 0.994843 0.842892
0.99478 0.99479 0.828927
0.994647 0.994792 0.83335
0.994757 0.997387 0.86978
0.994868 0.999316 0.941357
0.994885 1.00084 0.968143
0.995356 1.00518 0.998817
0.994979 1.00514 0.998364
0.997222 1.00248 0.997669
0.996642 1.0044 0.996297
0.99516 1.00523 0.998029
0.9965 1.00355 0.997473
0.999085 0.997081 0.999851
0.998978 1.00311 0.994737
1.00124 1.00231 0.991309
1.00231 1.00463 0.986168
1.0021 0.999948 0.990807
1.00417 1.00352 0.983852
1.00438 1.00446 0.982549
1.00498 1.00181 0.983905
1.0051 1.00182 0.984134
1.00482 1.00262 0.983605
1.00446 1.00238 0.984542
1.0051 1.00112 0.985415
1.00517 1.00183 0.984257
1.00278 1.00218 0.987615
1.00428 1.00052 0.98695
1.00444 1.00144 0.98513
1.00052 1.00507 0.988307
1.00124 1.0044 0.988582
1.00244 1.00211 0.988754
1.00028 1.00397 0.990437
1.00053 1.00499 0.989062
0.999981 1.00506 0.989454
1.00034 1.00474 0.989691
1.00025 1.0032 0.991239
1.00006 0.999774 0.994882
1.00023 1.00249 0.992022
1.00014 0.999357 0.995216
1.00005 0.997362 0.998949
1.00019 0.999148 0.995356
1.00011 0.99726 0.998277
1.00009 0.997238 0.99898
1.00055 1.0031 0.990919
1.00036 1.00143 0.9928
1.00058 1.00262 0.991197
1.00023 0.998463 0.995976
1.00024 1.00119 0.993121
1.00041 1.00269 0.991558
1.00009 0.99673 0.999178
1.00016 0.998188 0.996341
1.00018 1.00073 0.993538
1.00006 0.99667 0.999243
1.00011 0.99803 0.996586
1.00004 0.996636 0.999278
0.994829 0.994844 0.841927
0.994802 0.994846 0.842706
0.994819 0.994841 0.835952
1.00036 1.00424 0.989721
1.00117 1.004 0.989674
1.00072 1.00291 0.990829
1.00067 1.00317 0.990433
1.00056 1.00253 0.991299
1.00037 1.00296 0.991183
1.00038 1.0021 0.992083
0.994831 0.994796 0.827353
0.994867 0.994833 0.834816
0.994813 0.994807 0.835434
0.994877 0.99485 0.829236
0.995039 0.994837 0.959645
0.99487 0.99987 0.933389
0.995428 0.99671 0.889319
0.995061 0.995672 0.958123
0.994882 0.999401 0.93049
0.995428 0.997923 0.885863
0.994905 0.994824 0.831676
0.995622 0.996946 0.961145
0.995088 0.999614 0.932082
0.995472 0.997034 0.869014
0.994737 0.99481 0.818895
0.998336 1.00488 0.993031
0.999772 1.00388 0.991416
1.00032 1.0048 0.989625
1.00082 1.00345 0.990275
0.995334 1.00062 0.988638
0.996709 1.00242 0.998161
0.998753 1.00499 0.992042
0.997798 1.0051 0.993319
0.995964 1.00514 0.997315
0.99799 1.00439 0.993756
0.995979 1.00506 0.996956
0.996486 1.0022 0.981726
0.994882 1.00496 0.996624
0.996256 1.00422 0.996662
0.994735 1.00454 0.982067
0.995472 1.0036 0.998482
0.994781 0.994815 0.84342
0.994831 0.994831 0.846185
0.994789 0.994825 0.842495
0.994826 1.00327 0.999369
0.994877 0.999073 0.977497
0.994814 0.994849 0.84394
0.995457 0.997484 0.933974
0.995611 0.997464 0.888484
0.994827 0.994812 0.836198
0.994713 0.994798 0.824524
0.99489 1.00443 0.992409
0.994804 0.994843 0.842866
0.994762 0.994787 0.828928
0.994893 1.00007 0.968222
0.994698 0.9948 0.823279
0.994733 0.998512 0.872048
0.995394 0.998805 0.930046
0.995253 1.00455 0.986311
0.994831 0.994824 0.835763
0.994673 0.994767 0.821164
0.996602 0.99504 0.889823
0.994808 0.999245 0.941017
0.994855 0.999989 0.961229
0.995158 1.00519 0.998688
0.996119 1.00335 0.99781
0.996665 0.999331 1.00069
0.995367 1.00518 0.997401
0.997542 0.998853 1.00001
1.00185 0.998172 0.994575
1.00352 1.00143 0.990577
1.00321 1.00434 0.98543
1.00352 1.00447 0.983572
1.00396 1.00356 0.984181
1.00449 1.00443 0.982493
1.00433 1.00429 0.982779
1.00513 1.00038 0.985131
1.0051 1.00112 0.984793
1.00497 1.002 0.983881
1.00507 1.0017 0.984633
1.00508 1.00171 0.984142
1.00464 1.00279 0.983576
1.00483 1.00101 0.985958
1.00493 1.0013 0.985243
1.00514 1.0019 0.984153
1.00174 1.00454 0.987364
1.00277 1.00228 0.987752
1.00418 1.00055 0.987219
1.00042 1.00447 0.989375
1.00087 1.00505 0.988347
1.00136 1.00444 0.988541
1.00006 1.00026 0.994395
1.00035 1.00386 0.990441
1.00074 1.00494 0.989068
1.00027 1.0032 0.991239
1.00006 0.999837 0.994852
0.999995 0.997605 0.998889
1.00016 0.999383 0.995194
1.00005 0.997392 0.998936
1.00008 0.997255 0.998963
1.00008 1.00504 0.989776
1.00072 1.00366 0.99012
1.00046 1.00186 0.992236
1.00057 1.00303 0.990906
1.00025 0.998769 0.995611
1.00035 1.00146 0.992792
1.00059 1.00261 0.991259
1.0001 0.996892 0.999094
1.00022 0.998448 0.995998
1.00024 1.0012 0.993204
1.00009 0.996724 0.999195
1.00016 0.998169 0.996361
1.00006 0.996645 0.999253
0.994795 0.994833 0.837295
0.994812 0.994841 0.842648
0.994811 0.994836 0.842649
1.00047 1.00448 0.989706
1.00077 1.00356 0.989835
1.00004 1.0026 0.990631
0.99997 1.00449 0.989916
1.00144 1.0035 0.990336
1.00074 1.00332 0.990336
1.00038 1.00268 0.991441
1.00045 1.00295 0.991202
1.00036 1.00237 0.992108
0.999219 1.00403 0.992239
0.994753 0.994787 0.830626
0.994816 0.994793 0.828029
0.994866 0.994823 0.836681
0.994985 0.994836 0.832387
0.996148 0.997724 0.871402
0.994908 0.996295 0.956624
0.994898 0.998735 0.942131
0.995066 0.997425 0.957748
0.994877 0.996342 0.943597
0.994935 0.999425 0.877544
0.994756 0.9948 0.81757
0.994796 0.998794 0.961909
0.994826 1.00043 0.943478
0.994745 0.999099 0.891721
0.994704 0.994815 0.833488
0.99821 1.003 0.995113
0.998074 1.00473 0.993182
0.999766 1.00384 0.991603
0.997269 1.00234 0.977934
0.99478 1.00494 0.997073
0.997804 1.00445 0.993705
0.995818 1.00507 0.996938
0.996553 1.00413 0.996648
0.995283 1.00336 0.998768
0.994844 1.00218 0.981327
0.995798 1.00161 0.999479
0.995779 1.00034 0.986927
0.994819 0.994822 0.843363
0.994788 0.994824 0.843099
0.994829 0.994831 0.849096
0.994898 1.00376 0.99283
0.994862 0.999696 0.965538
0.994817 0.994846 0.842818
0.994884 0.999573 0.941275
0.994732 0.999671 0.891236
0.994743 0.994773 0.829029
0.994724 0.994802 0.812826
0.99554 1.00431 0.987004
0.994816 0.99483 0.835872
0.994698 0.994771 0.81992
0.995051 0.99951 0.962191
0.996521 0.997387 0.887315
0.994879 0.999069 0.936025
0.995145 1.00327 0.98458
0.994685 0.994792 0.82443
0.998912 0.99483 0.891137
0.996537 0.997251 0.932458
0.994863 0.996757 0.963955
0.995581 1.00433 0.997938
0.996298 0.999705 1.00069
0.998803 1.00231 0.996096
0.995977 1.00057 1.00015
1.00072 0.998704 0.995085
1.00335 0.999625 0.989521
1.00411 1.00398 0.984675
1.00353 1.00446 0.983443
1.00419 1.00173 0.984925
1.00471 1.00431 0.982439
1.00438 1.0039 0.982866
1.00488 1.00037 0.985711
1.00524 0.997834 0.987329
1.00521 0.999767 0.985516
1.00511 1.00027 0.985222
1.00513 1.00108 0.984946
1.0051 1.00114 0.984713
1.00497 1.00216 0.983856
1.00511 1.00179 0.9847
1.00491 1.0016 0.98466
1.00506 1.00162 0.98415
1.00379 1.00235 0.986282
1.00439 1.00141 0.985973
1.00478 1.00152 0.985072
1.00073 1.00509 0.987897
1.0018 1.00446 0.987378
1.00289 1.00239 0.987887
1.00009 1.00102 0.994511
1.00062 1.00447 0.989374
1.00119 1.00502 0.98839
0.999995 0.998016 0.997017
1.00007 1.00042 0.9947
1.00042 1.00376 0.990444
1.00007 0.999919 0.994823
1 0.997662 0.998855
1.00004 0.997401 0.998922
1.00025 1.00512 0.989575
1.00064 1.00481 0.989384
0.999887 1.00503 0.989698
1.0005 1.00255 0.991486
1.00051 1.00403 0.990102
1.00022 0.999122 0.995307
1.00045 1.00185 0.992247
1.00068 1.00293 0.99089
1.0001 0.997123 0.999009
1.00025 0.99875 0.995627
1.00035 1.00149 0.992785
1.0001 0.996878 0.99912
1.00021 0.998422 0.996019
1.00008 0.99672 0.999212
0.99479 0.994825 0.845057
0.994805 0.994836 0.837251
0.9948 0.994854 0.843398
1.00082 1.00236 0.990445
1.00014 1.00485 0.98969
1.00065 1.00335 0.990003
1.00051 1.00457 0.989687
1.00079 1.00247 0.990684
1.00077 1.00318 0.991212
1.00254 1.0023 0.988476
0.998782 1.00492 0.991131
1.00055 1.00285 0.991221
1.00001 1.00237 0.992132
0.999098 1.00389 0.992163
0.998214 1.00524 0.992756
0.994705 0.994797 0.826823
0.994779 0.99479 0.830157
0.994813 0.99479 0.828574
0.99477 0.994808 0.829834
0.994936 0.999418 0.87666
0.995528 0.99835 0.932088
0.994874 0.997113 0.957237
0.994907 0.998483 0.961489
0.994713 0.994815 0.823147
0.994846 0.997315 0.936189
0.994753 0.999565 0.876302
0.994916 0.996426 0.966164
0.994873 0.999893 0.944221
0.996518 0.995802 0.887817
0.999363 0.99753 0.998232
0.998188 1.00282 0.995073
0.998025 1.00453 0.993326
0.99501 1.0012 0.981134
0.994909 1.00303 0.999029
0.996963 1.00396 0.996626
0.996919 1.00139 0.999562
0.995243 0.999278 0.987101
0.996627 0.998109 0.992319
0.99472 0.994854 0.836254
0.994819 0.994813 0.84514
0.994795 0.994825 0.842726
0.995127 1.00418 0.987373
0.994873 0.999979 0.962025
0.994802 0.994838 0.836142
0.994844 0.999827 0.932165
0.99649 0.994856 0.872917
0.99473 0.994789 0.830662
0.994811 1.00415 0.984594
0.994696 0.994821 0.835727
0.998878 0.994797 0.874185
0.994863 0.995922 0.959676
0.9966 0.999003 0.942923
0.994837 1.00315 0.989986
0.9998 0.994844 0.868272
0.999254 0.994898 0.944591
0.994855 0.994845 0.958877
0.995944 0.999931 1.00075
0.998118 1.00135 0.995732
1.00153 1.00358 0.990815
0.99956 0.999351 0.995602
1.0027 1.00043 0.989359
1.00413 0.999887 0.987556
1.00352 1.00449 0.983314
1.00411 1.00194 0.984882
1.005 0.997159 0.987885
1.00438 1.00343 0.982952
1.00474 1.00018 0.985738
1.00526 0.996175 0.988895
1.00523 0.996153 0.98936
1.00524 0.998047 0.987212
1.00525 0.99774 0.987454
1.00523 0.999639 0.985688
1.0052 0.999745 0.985683
1.00512 1.00018 0.985313
1.00521 1.00133 0.984487
1.00514 1.00099 0.984914
1.00511 1.00113 0.984632
1.00503 1.00117 0.985299
1.00495 1.00173 0.984713
1.00473 1.00149 0.984685
1.00212 1.00425 0.986815
1.00366 1.00253 0.986231
1.00389 1.00179 0.985989
1.00005 1.00203 0.9926
1.00126 1.00487 0.987905
1.00189 1.00446 0.98739
0.999826 0.998633 0.99858
1.00011 1.00105 0.993505
1.00084 1.00435 0.989373
0.999988 0.998002 0.998733
1.00006 1.00049 0.994258
1.00001 0.997737 0.998817
1.00189 1.00367 0.988687
1.00028 1.00506 0.989429
1.00066 1.00508 0.98902
1.00041 1.00351 0.990658
1.00047 1.00475 0.989359
1.00008 1.00494 0.989621
1.00016 0.999589 0.994963
1.00047 1.00257 0.991508
1.0003 1.00415 0.990082
1.00008 0.997336 0.998943
1.00023 0.999066 0.995323
1.00045 1.00182 0.992257
1.0001 0.997088 0.999034
1.00025 0.998737 0.995642
1.00009 0.996844 0.999147
0.994711 0.994817 0.821363
0.994807 0.994827 0.845276
0.994812 0.994839 0.837223
1.00073 1.00278 0.99041
1.00413 1.00196 0.987459
1.00133 1.00359 0.989622
1.00051 1.0045 0.989456
1.0017 1.00226 0.990732
0.99976 1.00252 0.992074
0.999429 1.00476 0.990793
1.00175 1.00276 0.988983
1.00171 1.00399 0.988567
0.999531 0.999837 0.995305
0.999695 1.0038 0.992084
0.998555 1.00519 0.992575
0.99929 0.99482 0.867743
0.994677 0.994788 0.820445
0.994788 0.994792 0.830143
0.994722 0.994809 0.812286
0.994791 0.998334 0.893263
0.994813 0.999215 0.931809
0.994941 0.996356 0.959453
0.994871 0.996473 0.96438
0.996733 0.998343 0.886396
0.994847 0.998776 0.932756
0.994894 0.997026 0.967164
0.996401 0.996206 0.932325
1.00087 0.995934 0.999122
0.999265 0.998564 0.998183
0.998152 1.00272 0.995048
0.99489 0.998861 0.987377
0.997732 1.0009 0.999649
0.997114 0.998175 0.992022
0.997261 0.995645 0.991001
0.999801 0.994902 0.881468
0.994711 0.994841 0.834218
0.994826 0.994812 0.846788
0.994842 1.00425 0.984897
0.994853 0.995031 0.958191
0.994691 0.994832 0.835634
0.996652 0.994998 0.932402
0.999075 0.994834 0.891346
0.994858 1.00116 0.98686
0.999805 0.994859 0.879338
1.00003 0.995702 0.931704
0.994872 0.994814 0.961316
0.997085 0.998027 0.988621
0.999969 0.994889 0.944909
0.99543 0.994854 0.965246
0.997881 1.00043 0.995323
1.00063 1.00149 0.990928
1.00383 0.999407 0.99057
1.00212 1.00116 0.989208
1.00406 0.999672 0.987568
1.00512 0.996241 0.989226
1.00413 1.00207 0.984843
1.00496 0.997582 0.987821
1.00523 0.995179 0.989901
1.00463 0.99998 0.985762
1.00526 0.996273 0.98884
1.00523 0.995106 0.99027
1.00522 0.995458 0.990278
1.00523 0.996058 0.989536
1.00521 0.996612 0.989141
1.00527 0.998404 0.987128
1.00524 0.99811 0.987324
1.00527 0.997642 0.987581
1.00527 1.00029 0.985387
1.00523 0.999685 0.98565
1.00519 0.999703 0.985851
1.00519 1.00151 0.984642
1.00519 1.00136 0.98453
1.00514 1.00094 0.984883
1.00333 1.00282 0.986315
1.00488 1.00131 0.985272
1.00477 1.00171 0.984726
1.00039 1.00279 0.991252
1.00223 1.00418 0.986824
1.00363 1.00252 0.98618
0.999938 0.998974 0.998347
1.00018 1.00192 0.99256
1.00166 1.00475 0.987912
0.999929 0.998605 0.997595
1.00015 1.00114 0.993507
1.00001 0.998159 0.99864
1.00332 1.00154 0.987994
1.00125 1.00369 0.988892
1.0006 1.00508 0.98866
1.00028 1.00503 0.989281
1.00043 1.00507 0.989033
1.00058 1.00423 0.989788
1.00011 1.00029 0.994387
1.00035 1.00363 0.990648
1.0002 1.00488 0.989334
1.00005 0.997588 0.998846
1.00015 0.999542 0.994985
1.00041 1.00262 0.99153
1.00007 0.997307 0.998962
1.00024 0.999021 0.995342
1.00009 0.997061 0.999059
0.999796 0.994837 0.879
0.994701 0.994827 0.826622
0.994818 0.994826 0.845486
1.00061 1.00315 0.990376
1.00124 1.00414 0.988731
1.00333 1.00259 0.987693
1.00496 1.00365 0.983184
1.00136 1.00342 0.988744
0.999649 1.00486 0.990476
1.00122 1.00323 0.989489
1.00093 1.00399 0.989027
1.00374 0.999221 0.987944
1.00181 0.999746 0.992521
1.00342 0.99532 0.993117
1.00026 0.99946 0.995162
0.999338 1.00442 0.992402
0.99842 0.994874 0.94272
0.999479 0.994784 0.872522
0.994658 0.994789 0.825096
0.996793 0.996232 0.873095
0.99487 0.999811 0.941263
0.994863 0.995554 0.965428
0.994917 0.996819 0.968825
0.997017 0.999306 0.944078
0.99573 0.995036 0.968501
1.00028 0.995821 0.998649
1.00022 0.99633 0.999151
0.999068 0.999614 0.998121
0.997788 0.997781 0.99183
0.997946 0.996634 0.991143
0.999974 0.99489 0.934316
0.999801 0.994885 0.886633
0.994695 0.994826 0.832287
0.994896 0.999623 0.983488
0.994972 0.994821 0.958987
0.999806 0.994834 0.878922
0.998999 0.994863 0.943274
0.996756 0.997983 0.988884
1.00072 0.994891 0.941589
0.99642 0.994881 0.962872
1.00064 0.995037 0.988862
0.998631 0.994865 0.972833
0.999424 0.999475 0.991125
1.00335 0.997659 0.990573
1.00483 0.995121 0.991683
1.00391 0.999373 0.987576
1.00501 0.996169 0.989089
1.00522 0.994886 0.99037
1.00482 0.998042 0.987759
1.00523 0.995235 0.989849
1.00523 0.994891 0.990452
1.00526 0.996376 0.988786
1.00523 0.995165 0.990234
1.00524 0.994982 0.990548
1.00522 0.995338 0.990349
1.0052 0.995666 0.990201
1.00523 0.995955 0.989712
1.00521 0.996608 0.989135
1.00523 0.99726 0.988428
1.00529 0.999282 0.986436
1.00527 0.998466 0.987107
1.00523 0.998173 0.987436
1.00529 1.0011 0.984667
1.00528 1.00035 0.985263
1.00524 0.999729 0.98561
1.00399 1.00193 0.986036
1.00505 1.00154 0.984671
1.00517 1.00139 0.984573
1.00104 1.00288 0.990125
1.00321 1.003 0.986316
1.00457 1.00159 0.985248
1.00005 0.999753 0.997965
1.00054 1.00265 0.99124
1.00245 1.00413 0.986835
1.00003 0.999142 0.998223
1.00037 1.00173 0.992519
1.00003 0.998597 0.998428
1.00467 1.00248 0.98453
1.00334 1.00142 0.987873
1.00153 1.0041 0.987713
1.00063 1.00366 0.989106
1.00065 1.00501 0.988509
1.00079 1.0048 0.988825
1.0003 1.00508 0.989043
1.00038 1.00439 0.98976
1.00015 1.00098 0.993615
1.00001 0.998005 0.998661
1.00008 1.00023 0.994409
1.00027 1.00373 0.990639
1.00003 0.997568 0.998881
1.00015 0.999483 0.995
1.00007 0.99728 0.998981
0.999975 0.994887 0.946405
0.999815 0.994856 0.878714
0.994682 0.994819 0.821265
1.00108 1.00479 0.987835
1.00273 1.00292 0.987933
1.00231 1.00326 0.988249
1.0045 1.00346 0.983868
1.00503 1.00154 0.984356
1.00346 1.00122 0.986249
1.00029 1.00422 0.98947
1.00424 0.999453 0.987088
1.00177 0.999609 0.992725
1.00355 0.996939 0.990252
1.0043 0.996013 0.991826
1.00304 0.996289 0.992905
1.003 0.995573 0.993287
0.99985 0.999841 0.995016
0.996014 0.994863 0.966643
0.999383 0.996131 0.938698
0.998295 0.994842 0.888048
0.996599 0.997327 0.932008
0.994916 0.996802 0.969335
0.995441 0.99571 0.974318
0.999255 0.995494 0.992828
1.00083 0.995314 0.998258
0.999595 0.996526 0.9992
0.998946 0.998283 0.991317
0.997102 0.99612 0.967702
1.0001 0.994878 0.947067
0.999803 0.994882 0.871043
0.996153 0.997855 0.989171
0.996887 0.994868 0.963776
0.999969 0.994877 0.938001
1.00009 0.995024 0.989091
0.998589 0.99488 0.972205
1.00297 0.994918 0.990717
1.00304 0.997285 0.985524
1.00262 0.99601 0.990552
1.00445 0.995127 0.991689
1.0051 0.994787 0.991031
1.00498 0.99621 0.988953
1.00522 0.994885 0.990321
1.00525 0.994891 0.990505
1.00523 0.99529 0.989795
1.00523 0.994897 0.99043
1.00526 0.994905 0.990522
1.00524 0.995215 0.990197
1.00523 0.994971 0.990534
1.00524 0.995015 0.990558
1.00522 0.995221 0.990419
1.0052 0.995544 0.990255
1.00521 0.996423 0.989459
1.00521 0.996608 0.989129
1.00523 0.99731 0.98841
1.00527 0.998501 0.987335
1.00531 1.00035 0.985395
1.00529 0.999415 0.986257
1.00527 0.998529 0.987086
1.00463 1.00102 0.985853
1.00527 1.00111 0.984702
1.00529 1.00042 0.98514
1.00152 1.00253 0.989584
1.00387 1.00216 0.986022
1.00492 1.00157 0.984695
1.00039 1.00039 0.997467
1.00111 1.00273 0.990119
1.00309 1.00317 0.986315
1.00021 0.999919 0.997763
1.00058 1.0025 0.991237
1.00014 0.999272 0.998065
1.0048 1.00191 0.984477
1.00485 1.00229 0.984711
1.00396 1.00225 0.985709
1.00312 1.00175 0.987749
1.00169 1.00394 0.987494
1.0016 1.00482 0.98769
1.00061 1.00493 0.988361
1.0007 1.00489 0.988825
1.00018 1.00182 0.992757
1.00027 1.00463 0.989734
1.00008 1.00104 0.993644
0.999965 0.99864 0.998434
0.999991 0.997967 0.998731
1.00004 1.00022 0.994433
1.00002 0.997516 0.998911
0.996961 0.994888 0.967979
0.999973 0.99487 0.933727
0.99981 0.994854 0.889714
1.00519 0.999364 0.986044
1.00337 1.00322 0.987765
1.00403 1.00328 0.984553
1.00417 1.00102 0.986523
1.00503 1.00173 0.984283
1.0046 0.998633 0.98792
1.00476 1.0007 0.986232
1.00148 0.998946 0.992931
1.00406 0.997515 0.989953
1.00412 0.996104 0.991122
1.00478 0.995788 0.989934
1.00342 0.995231 0.993668
1.00306 0.995911 0.992945
1.00281 0.995834 0.993449
0.999034 0.995496 0.991111
0.995871 0.99487 0.964985
0.998984 0.994857 0.934342
0.995035 0.996363 0.972835
0.998946 0.995375 0.995383
1.00082 0.994916 0.997813
1.00157 0.996381 0.98275
0.997132 0.995424 0.968195
0.999979 0.994895 0.934335
0.999386 0.994885 0.989358
0.998912 0.994903 0.971401
1.00209 0.994956 0.991209
1.00296 0.996557 0.986284
1.00398 0.994945 0.991366
1.00455 0.997379 0.990884
1.00415 0.994981 0.991683
1.00507 0.994803 0.990923
1.00529 0.994831 0.990485
1.00522 0.994883 0.990272
1.00524 0.994886 0.990499
1.00529 0.994886 0.990477
1.00523 0.994905 0.990409
1.00526 0.994904 0.990527
1.00526 0.994911 0.990634
1.00521 0.994976 0.990519
1.00524 0.994999 0.99054
1.00522 0.995486 0.990264
1.00521 0.995423 0.990308
1.00522 0.996279 0.989608
1.00526 0.997731 0.988193
1.00523 0.997357 0.988392
1.00527 0.998453 0.987383
1.00531 0.999989 0.985873
1.00493 1.00054 0.985842
1.00531 1.00046 0.985282
1.00529 0.999544 0.986078
1.00218 1.00152 0.989487
1.00454 1.00117 0.985865
1.00526 1.00111 0.984738
1.00069 1.00064 0.997145
1.00175 1.00219 0.989583
1.00377 1.00233 0.986013
1.00053 1.00046 0.997325
1.00124 1.00255 0.990115
1.00038 1.0001 0.997571
1.00528 1.00066 0.984953
1.00505 1.00193 0.98438
1.00505 1.00133 0.984898
1.00512 1.00209 0.984892
1.00415 1.00222 0.985578
1.00257 1.00396 0.986837
1.00196 1.00359 0.987275
1.00132 1.00495 0.98771
1.00039 1.00246 0.991754
1.00055 1.00489 0.988822
1.00009 1.00184 0.992786
0.999947 0.999274 0.998159
1.00001 1.00098 0.993674
0.999949 0.9985 0.998517
0.99997 0.997888 0.998793
1.00072 0.994882 0.987419
0.996748 0.994895 0.964648
0.999976 0.99488 0.946252
1.00505 0.997985 0.987907
1.00526 0.997562 0.987947
1.0052 0.999153 0.986311
1.00484 1.00049 0.986791
1.00504 1.00198 0.984209
1.00464 0.998444 0.988246
1.0051 0.995719 0.989386
1.00465 0.997508 0.989667
1.00407 0.996559 0.990419
1.00466 0.996321 0.990267
1.0051 0.995121 0.990665
1.00377 0.995309 0.992572
1.0031 0.995492 0.99344
1.00336 0.995462 0.992998
0.999695 0.995428 0.991225
0.995732 0.99486 0.963456
0.998944 0.995329 0.998048
1.00444 0.995101 0.99093
1.0014 0.996543 0.982899
0.997176 0.99487 0.966332
1.0017 0.9948 0.991665
1.00285 0.99582 0.987068
1.00401 0.994865 0.992004
1.00457 0.996571 0.990965
1.00527 0.994815 0.990876
1.00537 0.994931 0.991072
1.00504 0.994817 0.990818
1.00531 0.994838 0.990456
1.00531 0.994863 0.990504
1.00523 0.99488 0.990494
1.00529 0.994887 0.990496
1.00526 0.994887 0.990652
1.00525 0.994902 0.990532
1.00527 0.99491 0.990626
1.00525 0.995072 0.990684
1.00524 0.994981 0.990523
1.00523 0.995492 0.99024
1.00526 0.996975 0.988896
1.00523 0.996132 0.989758
1.00526 0.99766 0.988254
1.00531 0.999545 0.986299
1.00527 0.998408 0.987431
1.00531 0.999914 0.985963
1.00502 1.00036 0.985908
1.00254 1.00074 0.989611
1.00491 1.00059 0.985848
1.00531 1.00058 0.985169
1.00085 1.00066 0.997004
1.00221 1.00147 0.989478
1.00442 1.00137 0.985877
1.00075 1.00067 0.997078
1.00187 1.00199 0.989581
1.00063 1.00059 0.997205
1.00529 0.99895 0.986553
1.00526 1.00053 0.985137
1.00521 1.00094 0.985024
1.00517 1.0019 0.984282
1.00513 1.00126 0.984914
1.00336 1.00256 0.986659
1.00443 1.00217 0.985449
1.00247 1.00375 0.986844
1.00073 1.00284 0.990679
1.00103 1.00504 0.987731
1.00028 1.00252 0.991786
1.00003 1.00008 0.997815
1.00003 1.00185 0.992815
0.999904 0.999186 0.998266
0.999921 0.998411 0.998596
1.00432 0.994838 0.992183
1.00087 0.994878 0.985283
0.996596 0.994914 0.963884
1.00514 0.996942 0.988933
1.00503 0.997573 0.988166
1.00527 0.996376 0.989151
1.00526 0.997583 0.98792
1.0052 0.998937 0.986573
1.00525 0.995078 0.989954
1.00472 0.998405 0.988563
1.00511 0.996085 0.989365
1.00525 0.994868 0.99046
1.00453 0.996683 0.990598
1.00506 0.995235 0.990373
1.00356 0.995335 0.992814
1.00253 0.995819 0.993215
1.00015 0.995291 0.991182
1.00532 0.994903 0.990813
1.0044 0.99611 0.991152
1.00126 0.99688 0.983092
1.00391 0.994775 0.992625
1.00456 0.995773 0.991052
1.00527 0.994805 0.990946
1.00538 0.994927 0.991005
1.00535 0.994888 0.990856
1.00532 0.994849 0.990428
1.00531 0.994872 0.990515
1.00524 0.994903 0.990782
1.00529 0.99489 0.990516
1.00526 0.99489 0.990649
1.00525 0.994907 0.990898
1.00527 0.994908 0.990618
1.00524 0.995062 0.990659
1.00525 0.996246 0.989669
1.00524 0.995503 0.990216
1.00525 0.997001 0.988899
1.00532 0.999087 0.986795
1.00525 0.997587 0.988314
1.00531 0.999548 0.986324
1.00503 1.0003 0.985978
1.00531 0.999837 0.986052
1.00503 1.00036 0.985917
1.00262 1.00033 0.991493
1.0012 1.00021 0.993718
1.00258 1.00073 0.990413
1.00489 1.00064 0.985853
1.00088 1.00067 0.996973
1.00235 1.00128 0.989465
1.0008 1.00071 0.997014
1.00524 0.996228 0.989586
1.00528 0.997827 0.987894
1.0053 0.998949 0.986726
1.00529 1.00035 0.98546
1.00524 1.00043 0.985322
1.00524 1.00096 0.984964
1.00406 1.0014 0.986488
1.00517 1.00122 0.984929
1.00352 1.00214 0.986645
1.00134 1.0027 0.989812
1.00245 1.00356 0.986849
1.00069 1.00295 0.990668
1.00026 1.0007 0.997386
1.00017 1.00259 0.991816
0.999944 0.999817 0.997952
0.999871 0.999029 0.998361
1.00533 0.994858 0.990742
1.00447 0.994819 0.99193
1.00127 0.994867 0.983205
1.00526 0.995594 0.989822
1.00508 0.996893 0.988816
1.00505 0.997134 0.988433
1.00527 0.996533 0.989133
1.00526 0.997594 0.987892
1.00533 0.994848 0.990516
1.00526 0.995067 0.989985
1.00512 0.996455 0.989344
1.00524 0.994872 0.990486
1.00504 0.995313 0.990081
1.00346 0.99533 0.993058
1.00532 0.994933 0.990905
1.00534 0.99491 0.990998
1.00439 0.99679 0.991375
1.00526 0.994794 0.991
1.00539 0.994924 0.990942
1.00534 0.994889 0.990822
1.00524 0.994938 0.991031
1.00531 0.99488 0.990526
1.00525 0.994904 0.990754
1.00521 0.994924 0.991044
1.00527 0.994893 0.990647
1.00524 0.994907 0.990881
1.00525 0.995661 0.990301
1.00524 0.99505 0.990634
1.00525 0.996272 0.989662
1.00532 0.998662 0.987278
1.00525 0.997027 0.988902
1.00532 0.999087 0.986818
1.00502 1.00024 0.986081
1.00531 0.999551 0.98635
1.00505 1.00028 0.985993
1.00271 1.00008 0.991618
1.00504 1.00036 0.985925
1.00282 1.00023 0.991375
1.00125 0.999982 0.993898
1.00094 1.00049 0.995402
1.00277 1.00067 0.991051
1.00089 1.00072 0.996955
1.00522 0.995328 0.990565
1.00525 0.997505 0.988252
1.00524 0.99606 0.989754
1.00533 0.999659 0.986096
1.00528 0.997882 0.987883
1.0053 0.998947 0.986899
1.00529 1.00037 0.985405
1.00472 1.00054 0.986205
1.00527 1.00098 0.984902
1.00418 1.00115 0.986484
1.00195 1.00191 0.989495
1.00362 1.00176 0.986635
1.00117 1.00286 0.989806
1.00045 1.00117 0.997059
1.00052 1.00311 0.990672
1.00011 1.00056 0.997558
0.999881 0.999698 0.99808
1.0053 0.994882 0.990738
1.0053 0.994856 0.990743
1.00451 0.994808 0.991666
1.00526 0.994908 0.990635
1.00524 0.995644 0.989819
1.00499 0.996859 0.988703
1.00526 0.99669 0.989115
1.00532 0.994866 0.990506
1.00527 0.995052 0.990016
1.0052 0.994877 0.990513
1.00526 0.99496 0.991014
1.00531 0.99493 0.990892
1.00536 0.994916 0.991182
1.0052 0.994967 0.991156
1.00534 0.99489 0.990787
1.00524 0.994941 0.99102
1.00517 0.994961 0.991145
1.00525 0.994905 0.990725
1.00521 0.994925 0.99104
1.00525 0.995317 0.990725
1.00524 0.994906 0.990864
1.00525 0.995683 0.990294
1.00532 0.998299 0.987699
1.00526 0.996301 0.989656
1.00532 0.998661 0.987298
1.00499 1.00015 0.986238
1.00532 0.999088 0.986842
1.00504 1.00021 0.986099
1.00273 1.00006 0.9916
1.00508 1.00025 0.986007
1.00287 1.00001 0.991476
1.00131 0.999866 0.993942
1.003 1.00011 0.991266
1.00085 1.00015 0.99417
1.00037 1.00084 0.997415
1.00522 0.995179 0.99061
1.00527 0.996714 0.989165
1.00523 0.995418 0.990403
1.00535 0.999329 0.98652
1.00526 0.99719 0.988504
1.00524 0.995894 0.989922
1.00508 1.00004 0.986147
1.00533 0.999664 0.986056
1.00528 0.997934 0.987871
1.0053 1.00038 0.98535
1.00477 1.00044 0.986196
1.00231 1.00115 0.989596
1.00431 1.0009 0.986481
1.0018 1.00211 0.989515
1.00057 1.00125 0.996961
1.00113 1.00298 0.98979
1.00038 1.00101 0.997172
0.999987 1.00034 0.997718
1.00523 0.994901 0.990979
1.00529 0.994885 0.99071
1.0053 0.994855 0.990746
1.00527 0.994931 0.990649
1.00522 0.995696 0.989816
1.00531 0.994883 0.990496
1.00522 0.994973 0.991081
1.00527 0.994956 0.991021
1.0053 0.994927 0.990878
1.0052 0.994966 0.991153
1.00513 0.994965 0.991328
1.00525 0.994943 0.99101
1.00518 0.994961 0.991167
1.00525 0.995183 0.990921
1.00522 0.994925 0.991035
1.00524 0.995329 0.990721
1.00532 0.997991 0.988016
1.00525 0.995697 0.990287
1.00531 0.998291 0.987712
1.00497 1.00001 0.98644
1.00532 0.998659 0.987318
1.00501 1.00013 0.986254
1.00268 1.00016 0.991549
1.00507 1.00019 0.986117
1.00287 1.00001 0.991447
1.00135 0.999888 0.993872
1.00302 0.999951 0.991345
1.00095 0.99992 0.994236
1.00047 1.00034 0.994425
1.00525 0.994919 0.990958
1.00526 0.996281 0.989611
1.00523 0.995066 0.990673
1.00534 0.998582 0.987307
1.00526 0.996813 0.989031
1.00524 0.995502 0.990239
1.00515 0.999891 0.986213
1.00534 0.999045 0.986738
1.00527 0.996882 0.988756
1.00259 1.00038 0.98985
1.00507 1.00002 0.986137
1.00532 0.999671 0.986017
1.00483 1.00034 0.986188
1.00226 1.00122 0.989611
1.0007 1.0011 0.996979
1.00164 1.00232 0.989537
1.00055 1.00117 0.996989
1.00025 1.00092 0.997311
1.00521 0.994938 0.991081
1.00524 0.994903 0.990948
1.00528 0.994887 0.990681
1.00528 0.994956 0.990663
1.00516 0.994968 0.991285
1.00522 0.994971 0.991089
1.00527 0.994951 0.991028
1.0052 0.994966 0.99115
1.00514 0.994963 0.991309
1.00523 0.995576 0.990601
1.00518 0.994962 0.991189
1.00523 0.995428 0.990696
1.00534 0.99736 0.988686
1.00522 0.995347 0.990716
1.00533 0.997987 0.988018
1.00494 0.999816 0.986683
1.00531 0.998296 0.987724
1.00498 0.999988 0.986447
1.00268 1.00022 0.98998
1.00503 1.00011 0.986269
1.00282 1.00012 0.990633
1.00115 0.999959 0.997011
1.00301 0.999973 0.991295
1.00102 0.999877 0.994174
1.00062 0.999958 0.994512
1.00524 0.99494 0.991039
1.00526 0.995854 0.990129
1.00525 0.994985 0.990899
1.00531 0.99805 0.987892
1.00525 0.996317 0.989538
1.00523 0.994957 0.990736
1.00512 0.999618 0.986496
1.00534 0.99857 0.987319
1.00526 0.996909 0.988897
1.00275 0.999885 0.990085
1.00512 0.99978 0.986284
1.00533 0.998751 0.986957
1.00087 1.00067 0.997061
1.00261 1.00036 0.989859
1.00507 0.999994 0.986127
1.00221 1.00128 0.989629
1.00069 1.00103 0.996966
1.00051 1.00111 0.997028
1.00517 0.994959 0.991188
1.00521 0.994941 0.991084
1.00525 0.994906 0.990917
1.00523 0.995579 0.990613
1.00516 0.994969 0.991275
1.00521 0.994969 0.991096
1.00515 0.994961 0.991291
1.00523 0.995571 0.990602
1.00535 0.997472 0.988636
1.00522 0.995671 0.990471
1.00535 0.997704 0.988331
1.00489 0.99937 0.987179
1.00534 0.99797 0.988021
1.00495 0.999806 0.986682
1.00264 1.00015 0.990139
1.005 0.999973 0.986454
1.00269 1.00021 0.989986
1.00111 1.00001 0.996999
1.00285 1.0001 0.989848
1.00101 0.99996 0.995615
1.0007 0.999846 0.994474
1.00522 0.99495 0.991094
1.00525 0.995722 0.990356
1.00523 0.994941 0.991051
1.00529 0.998196 0.987806
1.00526 0.995881 0.990087
1.00525 0.995054 0.99084
1.00505 0.99954 0.986705
1.00531 0.998336 0.987619
1.00525 0.99635 0.989465
1.0028 0.99977 0.990141
1.00509 0.99961 0.986514
1.00534 0.998561 0.98733
1.00105 1.00023 0.997096
1.00278 0.999858 0.990089
1.0051 0.999666 0.986352
1.00088 1.00066 0.997024
1.00263 1.00034 0.989868
1.00065 1.00102 0.996975
1.00522 0.995622 0.990528
1.00518 0.994958 0.991186
1.0052 0.994943 0.991087
1.00534 0.997423 0.988705
1.00523 0.995573 0.990601
1.00516 0.99497 0.991264
1.00522 0.995565 0.990604
1.00535 0.997447 0.988642
1.00484 0.999218 0.987426
1.00535 0.998053 0.987976
1.00491 0.999499 0.987041
1.00258 1.00003 0.990344
1.00497 0.999792 0.986682
1.00261 1.00016 0.990148
1.00104 1.00002 0.997002
1.00268 1.00019 0.98999
1.00108 1.00002 0.996994
1.00111 0.999922 0.993954
1.00525 0.995802 0.990261
1.00523 0.994944 0.991056
1.00528 0.997988 0.988061
1.00525 0.995709 0.990365
1.00522 0.994939 0.991061
1.00497 0.999762 0.986691
1.00529 0.998205 0.987801
1.00527 0.995906 0.990045
1.00278 0.99986 0.990125
1.00502 0.999687 0.986599
1.0053 0.998628 0.987345
1.00116 0.999986 0.997059
1.00282 0.999766 0.990139
1.00506 0.999594 0.98653
1.00103 1.00027 0.997086
1.0028 0.999848 0.990092
1.00089 1.00066 0.99699
1.00532 0.997503 0.988632
1.00522 0.995631 0.990531
1.00519 0.994959 0.991185
1.00482 0.999159 0.987518
1.00534 0.997403 0.988709
1.00522 0.995569 0.990589
1.00535 0.997426 0.988649
1.00486 0.999207 0.987397
1.00249 0.999981 0.990554
1.00492 0.999628 0.986903
1.00256 1.00004 0.990352
1.001 1.00002 0.997036
1.00261 1.00017 0.990158
1.00102 1.00005 0.997019
1.00107 1.00003 0.996996
1.00529 0.997794 0.988269
1.00525 0.995603 0.990469
1.00524 0.994938 0.991018
1.0049 0.999676 0.986913
1.00528 0.997998 0.988053
1.00526 0.995683 0.990374
1.00269 0.999983 0.990182
1.00494 0.999785 0.986687
1.00528 0.998214 0.987796
1.00115 0.999932 0.997011
1.00279 0.999875 0.99012
1.005 0.999828 0.986493
1.00114 1.00003 0.997076
1.00284 0.999778 0.990138
1.00106 1.00028 0.997065
1.00483 0.99947 0.987234
1.00532 0.997342 0.988762
1.00522 0.995638 0.990533
1.00245 0.999908 0.990714
1.00483 0.999142 0.98751
1.00534 0.997379 0.988714
1.00488 0.999192 0.987369
1.0025 0.999956 0.990561
1.00095 1.00002 0.997063
1.00254 1.00005 0.99036
1.00098 1.00003 0.997041
1.00097 1.00006 0.997031
1.00486 0.999559 0.987113
1.00529 0.997594 0.988487
1.00524 0.995422 0.990677
1.00271 1.00002 0.991676
1.00487 0.999686 0.986915
1.00529 0.998008 0.988046
1.00108 0.999961 0.997003
1.0027 1 0.990178
1.00492 0.999808 0.986684
1.00117 0.999957 0.99703
1.0028 0.999895 0.990115
1.00114 1.00005 0.997088
1.00254 0.999907 0.990612
1.00482 0.999325 0.987354
1.00532 0.99718 0.988892
1.00088 0.999985 0.997117
1.00244 0.999905 0.990709
1.00484 0.999127 0.987502
1.00249 0.999932 0.990565
1.00092 1.00001 0.997081
1.00095 1.00004 0.997052
1.0027 0.999964 0.991796
1.00484 0.999564 0.987113
1.0053 0.997388 0.988705
1.00055 1 0.997523
1.0026 1.00002 0.990344
1.00485 0.999693 0.986918
1.0011 0.999969 0.997012
1.0027 1.00002 0.990173
1.00117 0.999976 0.997046
1.00087 0.999954 0.994347
1.00256 0.999909 0.991291
1.00482 0.999179 0.987473
1.0009 0.999987 0.997123
1.00245 0.999907 0.990711
1.00094 0.999998 0.997095
1.00041 0.999992 0.994785
1.00261 0.99995 0.991172
1.00482 0.999573 0.987114
1.00076 0.999993 0.995848
1.00259 1.00002 0.990361
1.00113 0.999976 0.997022
1.0009 0.999974 0.997116
1.00245 0.999902 0.99071
1.00087 0.999989 0.99712
1.00067 0.999971 0.995955
1.00251 0.999943 0.990584
1.00103 0.999986 0.997033
1.00091 0.999974 0.997124
1.00093 0.999979 0.997085

TENSORS stress float
0.00207523 -0.000139463 0.000239769
-0.000139463 0.000954598 -3.89792e-05
0.000239769 -3.89792e-05 0.000929343
0.00647849 2.10193e-05 0.000266284
2.10193e-05 0.00369915 2.92385e-05
0.000266284 2.92385e-05 0.00369994
0.00177316 -7.11988e-05 0.000102278
-7.11988e-05 0.00076635 -1.55745e-05
0.000102278 -1.55745e-05 0.000730535
0.00212147 -7.9916e-05 0.000233488
-7.9916e-05 0.000958906 -2.27573e-05
0.000233488 -2.27573e-05 0.000942304
0.00212689 -0.00012322 0.000234661
-0.00012322 0.000976683 -3.4326e-05
0.000234661 -3.4326e-05 0.000954739
0.00202142 -0.000140631 0.000247098
-0.000140631 0.000922656 -4.02678e-05
0.000247098 -4.02678e-05 0.000897881
0.00176786 -0.000125845 4.55259e-05
-0.000125845 0.000676513 -1.24889e-05
4.55259e-05 -1.24889e-05 0.000571126
0.00641277 1.09784e-05 -7.08466e-06
1.09784e-05 0.00364918 -1.00485e-06
-7.08466e-06 -1.00485e-06 0.00365456
0.00628991 0.000184972 0.000133707
0.000184972 0.00356233 1.20263e-05
0.000133707 1.20263e-05 0.00353924
0.00619728 -6.71231e-05 6.7685e-05
-6.71231e-05 0.0035022 3.23441e-06
6.7685e-05 3.23441e-06 0.00348113
0.00182075 0.000179397 0.000249887
0.000179397 0.000793898 2.98938e-05
0.000249887 2.98938e-05 0.000788361
0.0005166 0.000243751 2.62362e-05
0.000243751 -6.84425e-05 1.88951e-05
2.62362e-05 1.88951e-05 -0.000193076
0.00175512 -3.43474e-05 0.000233189
-3.43474e-05 0.000728228 3.77176e-06
0.000233189 3.77176e-06 0.000727522
0.00143393 -2.32713e-07 5.76252e-05
-2.32713e-07 0.000551518 1.66518e-06
5.76252e-05 1.66518e-06 0.000507445
0.00152129 -7.04072e-05 -5.15739e-05
-7.04072e-05 0.000617375 8.96063e-06
-5.15739e-05 8.96063e-06 0.000567818
0.00177412 -8.06023e-05 7.7257e-05
-8.06023e-05 0.000760003 -4.63035e-06
7.7257e-05 -4.63035e-06 0.000727485
0.00178145 -5.77386e-05 0.000110891
-5.77386e-05 0.00077852 -1.64608e-05
0.000110891 -1.64608e-05 0.000738976
0.00178323 -8.07807e-05 9.1116e-05
-8.07807e-05 0.000765167 -1.21678e-05
9.1116e-05 -1.21678e-05 0.000732713
0.00181952 -0.000162149 -3.86295e-05
-0.000162149 0.000705568 5.29684e-06
-3.86295e-05 5.29684e-06 0.000609227
0.00599946 -0.000136259 0.000299213
-0.000136259 0.0033928 -1.19911e-05
0.000299213 -1.19911e-05 0.00340767
0.00206333 -5.82351e-05 0.000232611
-5.82351e-05 0.000921855 -1.6965e-05
0.000232611 -1.6965e-05 0.000907582
0.00215204 -0.000102883 0.000233893
-0.000102883 0.000982946 -2.87483e-05
0.000233893 -2.87483e-05 0.000964188
0.00172444 -0.00013066 6.62403e-05
-0.00013066 0.00063823 -9.98708e-06
6.62403e-05 -9.98708e-06 0.000545429
0.00176097 -0.000133634 5.50427e-05
-0.000133634 0.000661296 -1.19351e-05
5.50427e-05 -1.19351e-05 0.000563457
0.00194996 -0.000116894 0.00024504
-0.000116894 0.00087084 -3.68729e-05
0.00024504 -3.68729e-05 0.000849788
0.00175477 -0.000119742 3.76477e-05
-0.000119742 0.000686852 -1.32649e-05
3.76477e-05 -1.32649e-05 0.000570782
0.00207506 -0.00029777 1.64617e-05
-0.00029777 0.000668561 -6.90652e-06
1.64617e-05 -6.90652e-06 0.000474331
0.00638108 -3.30191e-06 -0.000263734
-3.30191e-06 0.00362015 -1.98248e-05
-0.000263734 -1.98248e-05 0.00363033
0.00407346 0.000139783 -0.000137491
0.000139783 0.00218621 -1.48531e-05
-0.000137491 -1.48531e-05 0.00216477
0.00396781 4.64935e-05 -0.000133994
4.64935e-05 0.00213347 -1.17908e-05
-0.000133994 -1.17908e-05 0.00211224
0.00631902 -5.88928e-05 -4.01933e-06
-5.88928e-05 0.00360322 -1.68911e-07
-4.01933e-06 -1.68911e-07 0.00360361
0.000479792 0.00022573 -1.49551e-06
0.00022573 -8.84792e-05 -1.02472e-06
-1.49551e-06 -1.02472e-06 -0.000212765
0.00179752 6.55253e-05 0.000239731
6.55253e-05 0.00075751 2.12903e-05
0.000239731 2.12903e-05 0.000744192
0.00193276 0.000153099 0.000245443
0.000153099 0.000873174 3.30173e-05
0.000245443 3.30173e-05 0.000849172
0.00278395 0.000202404 0.000147771
0.000202404 0.00128686 2.06315e-05
0.000147771 2.06315e-05 0.00120832
0.00555836 -0.000327395 -1.14664e-06
-0.000327395 0.0032039 6.22654e-06
-1.14664e-06 6.22654e-06 0.00314049
0.00290656 0.000274139 0.000151127
0.000274139 0.00140237 2.54272e-05
0.000151127 2.54272e-05 0.00131023
0.000463911 0.00020722 2.70861e-05
0.00020722 -9.69747e-05 2.44239e-05
2.70861e-05 2.44239e-05 -0.00021881
0.000879327 0.000230831 1.23471e-05
0.000230831 3.04996e-05 6.30578e-06
1.23471e-05 6.30578e-06 -0.000172096
0.00431388 -0.000105864 0.000162187
-0.000105864 0.00239594 1.26064e-05
0.000162187 1.26064e-05 0.00239639
0.00598861 7.95246e-05 3.4478e-06
7.95246e-05 0.0033736 -1.74715e-06
3.4478e-06 -1.74715e-06 0.00339526
0.00388059 8.51152e-05 -0.000114759
8.51152e-05 0.00206376 -4.92888e-06
-0.000114759 -4.92888e-06 0.00205186
0.00584872 5.83457e-05 0.000291353
5.83457e-05 0.00328986 4.03825e-06
0.000291353 4.03825e-06 0.00331202
0.00139561 8.60387e-05 6.03331e-05
8.60387e-05 0.000529236 3.96977e-06
6.03331e-05 3.96977e-06 0.00049001
0.00055262 1.09692e-05 1.55409e-05
1.09692e-05 -0.000118108 1.95615e-06
1.55409e-05 1.95615e-06 -0.000200879
0.00610181 0.000224196 0.00016473
0.000224196 0.00347104 1.55839e-05
0.00016473 1.55839e-05 0.00344618
0.00280074 7.31009e-05 0.000139604
7.31009e-05 0.00126689 8.89842e-06
0.000139604 8.89842e-06 0.00120974
0.00137944 -8.29191e-05 -7.15971e-05
-8.29191e-05 0.000532644 8.89648e-06
-7.15971e-05 8.89648e-06 0.000483458
0.00142569 -0.000101512 -6.42309e-05
-0.000101512 0.000563702 1.07105e-05
-6.42309e-05 1.07105e-05 0.000511945
0.00159633 -2.63253e-05 -3.97242e-05
-2.63253e-05 0.00066434 8.02046e-06
-3.97242e-05 8.02046e-06 0.000613873
0.00185293 -0.000165518 -0.000129355
-0.000165518 0.000718994 2.29864e-05
-0.000129355 2.29864e-05 0.000632954
0.00375582 -1.33742e-05 -0.000117288
-1.33742e-05 0.0019961 -1.82695e-06
-0.000117288 -1.82695e-06 0.00198338
0.00174704 -6.27394e-05 8.27996e-05
-6.27394e-05 0.000739035 -3.79658e-06
8.27996e-05 -3.79658e-06 0.000710129
0.00173151 -3.48415e-05 0.000114643
-3.48415e-05 0.000750748 -1.47942e-05
0.000114643 -1.47942e-05 0.00071026
0.00178593 -8.18568e-05 8.27406e-05
-8.18568e-05 0.000764956 -8.01328e-06
8.27406e-05 -8.01328e-06 0.000733177
0.00179552 -0.000109172 -3.09491e-05
-0.000109172 0.000672197 1.9995e-06
-3.09491e-05 1.9995e-06 0.000589983
0.00180489 -0.000162426 -4.46412e-05
-0.000162426 0.000708841 5.93797e-06
-4.46412e-05 5.93797e-06 0.000605577
0.00181622 -0.000151623 -3.3211e-05
-0.000151623 0.000694798 3.75e-06
-3.3211e-05 3.75e-06 0.0006042
0.00205203 -0.000296824 -9.1331e-06
-0.000296824 0.000649993 2.4474e-06
-9.1331e-06 2.4474e-06 0.000456083
0.00582893 1.32356e-05 0.00028665
1.32356e-05 0.00327608 -1.61552e-06
0.00028665 -1.61552e-06 0.00329937
0.00201291 -3.51009e-05 0.00022987
-3.51009e-05 0.000893429 -1.16484e-05
0.00022987 -1.16484e-05 0.000882414
0.00244591 -3.31216e-06 4.89008e-05
-3.31216e-06 0.00107211 -8.62611e-07
4.89008e-05 -8.62611e-07 0.00100552
0.00170172 -0.000106493 5.9107e-05
-0.000106493 0.000617342 -6.68725e-06
5.9107e-05 -6.68725e-06 0.000531743
0.00174429 -0.000134109 6.23353e-05
-0.000134109 0.000648765 -1.13276e-05
6.23353e-05 -1.13276e-05 0.000553905
0.00188995 -0.000190422 1.12813e-05
-0.000190422 0.000484585 -2.70717e-06
1.12813e-05 -2.70717e-06 0.00032844
0.00185012 -0.000257369 1.64779e-05
-0.000257369 0.000491116 -5.3105e-06
1.64779e-05 -5.3105e-06 0.000312106
0.00178513 -7.4462e-05 0.000223828
-7.4462e-05 0.000768638 -2.89619e-05
0.000223828 -2.89619e-05 0.000752272
0.00165636 -8.41534e-05 2.83622e-05
-8.41534e-05 0.000645493 -1.29219e-05
2.83622e-05 -1.29219e-05 0.000528104
0.00208159 -0.000320842 1.65164e-05
-0.000320842 0.000715764 -7.98045e-06
1.65164e-05 -7.98045e-06 0.000508571
0.00157005 -0.000372169 6.1212e-06
-0.000372169 0.000154741 -7.34662e-07
6.1212e-06 -7.34662e-07 -8.55372e-05
0.00662293 0.000242207 -0.000319999
0.000242207 0.00376955 -3.39634e-05
-0.000319999 -3.39634e-05 0.00377417
0.00621555 -8.43774e-05 -0.000235509
-8.43774e-05 0.00354053 -1.58163e-05
-0.000235509 -1.58163e-05 0.00354229
0.00643322 7.37882e-05 -0.000279895
7.37882e-05 0.0036437 -2.41723e-05
-0.000279895 -2.41723e-05 0.00365703
0.000442938 0.000218088 -2.49097e-05
0.000218088 -0.000105983 -1.92559e-05
-2.49097e-05 -1.92559e-05 -0.000232499
0.00656225 0.00022579 -2.4781e-06
0.00022579 0.00372832 -2.28614e-06
-2.4781e-06 -2.28614e-06 0.00373646
0.00662754 0.000187191 -8.98482e-06
0.000187191 0.00376653 -2.6092e-06
-8.98482e-06 -2.6092e-06 0.00377394
0.00039439 0.000129368 2.08946e-07
0.000129368 -0.000196543 -3.02522e-07
2.08946e-07 -3.02522e-07 -0.000304471
0.00347109 -0.000110688 -0.000108137
-0.000110688 0.00187133 -3.61049e-06
-0.000108137 -3.61049e-06 0.001837
0.000399996 0.000204281 1.5807e-07
0.000204281 -0.000146984 -4.65244e-07
1.5807e-07 -4.65244e-07 -0.000270654
0.00171886 0.000212117 5.30038e-05
0.000212117 0.000683864 2.88233e-06
5.30038e-05 2.88233e-06 0.000582282
0.00083887 0.000225601 3.11831e-07
0.000225601 7.92929e-06 -1.07504e-08
3.11831e-07 -1.07504e-08 -0.000192758
0.00527658 -0.000126628 0.000196093
-0.000126628 0.00299968 1.86644e-05
0.000196093 1.86644e-05 0.00299071
0.000521784 3.56188e-05 1.21578e-05
3.56188e-05 8.50065e-07 1.27264e-05
1.21578e-05 1.27264e-05 -6.54129e-05
0.000487952 9.88836e-05 1.55607e-05
9.88836e-05 -0.00015842 9.77438e-06
1.55607e-05 9.77438e-06 -0.000260408
0.000525874 0.000157643 2.03417e-05
0.000157643 -0.00010132 1.7264e-05
2.03417e-05 1.7264e-05 -0.000216255
0.00110319 0.000220021 1.49049e-05
0.000220021 3.97628e-06 5.39319e-06
1.49049e-05 5.39319e-06 -0.00018161
0.00292163 0.000175782 0.000132595
0.000175782 0.00144643 1.78231e-05
0.000132595 1.78231e-05 0.00137223
0.000932775 0.000239015 1.4065e-05
0.000239015 -8.54107e-07 6.68754e-06
1.4065e-05 6.68754e-06 -0.000200379
0.000883097 0.00023443 1.18795e-05
0.00023443 0.000107198 5.95886e-06
1.18795e-05 5.95886e-06 -0.00010091
0.00111471 0.000347685 1.87799e-06
0.000347685 8.55893e-05 -8.20265e-07
1.87799e-06 -8.20265e-07 -0.000181425
0.00334183 -0.000120742 9.94157e-05
-0.000120742 0.00178328 5.39005e-06
9.94157e-05 5.39005e-06 0.00178277
0.00390971 -0.000156668 1.92525e-05
-0.000156668 0.00215292 -3.54168e-07
1.92525e-05 -3.54168e-07 0.00214147
0.00638314 5.40632e-05 -0.000305804
5.40632e-05 0.0036043 -1.47424e-05
-0.000305804 -1.47424e-05 0.0036246
0.00608588 7.04689e-05 -0.000301374
7.04689e-05 0.00342981 -9.07005e-06
-0.000301374 -9.07005e-06 0.00345263
0.00593718 8.3892e-05 -8.7934e-09
8.3892e-05 0.00334984 -3.60143e-06
-8.7934e-09 -3.60143e-06 0.00336856
0.00377291 2.88532e-05 -0.00012656
2.88532e-05 0.00199632 -6.33979e-06
-0.00012656 -6.33979e-06 0.00198935
0.00161683 3.77143e-05 6.01263e-05
3.77143e-05 0.000542029 1.56268e-06
6.01263e-05 1.56268e-06 0.000475355
0.00403408 0.000141691 -0.000117268
0.000141691 0.0021636 -6.71796e-06
-0.000117268 -6.71796e-06 0.0021444
0.00167081 9.02744e-05 6.11104e-05
9.02744e-05 0.000571108 2.90861e-06
6.11104e-05 2.90861e-06 0.000494878
0.00589715 0.000125837 0.000294233
0.000125837 0.00333435 7.14884e-06
0.000294233 7.14884e-06 0.00334779
0.000462457 1.06335e-05 1.87012e-05
1.06335e-05 -0.000168696 9.73208e-07
1.87012e-05 9.73208e-07 -0.00024862
0.00279428 3.71893e-05 0.000137985
3.71893e-05 0.00126465 6.0296e-06
0.000137985 6.0296e-06 0.00121278
0.00110352 5.76337e-05 1.22042e-05
5.76337e-05 -2.34965e-05 9.89069e-07
1.22042e-05 9.89069e-07 -0.000155177
0.00273063 0.000116818 0.000144239
0.000116818 0.00122869 1.16027e-05
0.000144239 1.16027e-05 0.00116546
0.0011626 0.000130407 1.21909e-05
0.000130407 2.67453e-07 2.16042e-06
1.21909e-05 2.16042e-06 -0.000150452
0.00178566 4.27951e-05 -0.000232527
4.27951e-05 0.000746327 2.64759e-06
-0.000232527 2.64759e-06 0.000747083
0.00139241 -1.33839e-05 -5.83775e-05
-1.33839e-05 0.000532203 2.49939e-06
-5.83775e-05 2.49939e-06 0.000488235
0.00158275 1.02812e-05 -3.14439e-05
1.02812e-05 0.00066113 7.81762e-06
-3.14439e-05 7.81762e-06 0.00060901
0.00138139 -9.73852e-05 -7.26183e-05
-9.73852e-05 0.000536175 1.07602e-05
-7.26183e-05 1.07602e-05 0.000485624
0.00191749 -8.84885e-05 -0.000124125
-8.84885e-05 0.000737812 1.13123e-05
-0.000124125 1.13123e-05 0.000666252
0.00190044 -0.000139653 -0.000126368
-0.000139653 0.000737086 1.93238e-05
-0.000126368 1.93238e-05 0.000657689
0.00181159 -0.000178779 -0.00013239
-0.000178779 0.000704993 2.473e-05
-0.00013239 2.473e-05 0.000612638
0.00201873 -0.000294768 -3.18131e-05
-0.000294768 0.00062542 1.07199e-05
-3.18131e-05 1.07199e-05 0.000432228
0.00593184 -0.000101268 2.29552e-06
-0.000101268 0.0033505 -1.81163e-06
2.29552e-06 -1.81163e-06 0.00336675
0.00166605 3.31406e-05 9.02954e-05
3.31406e-05 0.000683092 -4.2628e-06
9.02954e-05 -4.2628e-06 0.000661543
0.00115133 -8.71403e-06 -6.32397e-05
-8.71403e-06 0.000260214 1.76732e-06
-6.32397e-05 1.76732e-06 0.000192148
0.00177279 -7.07227e-05 -3.42537e-05
-7.07227e-05 0.000654437 2.60582e-06
-3.42537e-05 2.60582e-06 0.000577558
0.00411355 -1.53447e-05 0.000229234
-1.53447e-05 0.00223363 -1.28856e-05
0.000229234 -1.28856e-05 0.00222452
0.00233423 -0.000164089 -3.99227e-05
-0.000164089 0.00105038 2.94321e-06
-3.99227e-05 2.94321e-06 0.000945364
0.00181214 -0.000132234 -3.06193e-05
-0.000132234 0.000685958 2.6093e-06
-3.06193e-05 2.6093e-06 0.000599915
0.00191876 -0.000189098 -9.83374e-06
-0.000189098 0.000498339 1.80004e-06
-9.83374e-06 1.80004e-06 0.000344393
0.00203676 -0.000321111 -7.87331e-06
-0.000321111 0.000682978 2.33147e-06
-7.87331e-06 2.33147e-06 0.000475077
0.00194651 -0.000261626 -7.37215e-06
-0.000261626 0.000551971 1.95059e-06
-7.37215e-06 1.95059e-06 0.000372147
0.0016059 -0.000374089 6.1553e-07
-0.000374089 0.000178048 -1.95593e-07
6.1553e-07 -1.95593e-07 -6.17655e-05
0.000498528 1.05873e-05 1.9416e-05
1.05873e-05 -0.000149838 -7.35582e-07
1.9416e-05 -7.35582e-07 -0.000226485
0.00162588 8.39306e-07 4.99442e-05
8.39306e-07 0.000561097 -2.59648e-06
4.99442e-05 -2.59648e-06 0.000486452
0.00176666 -5.96192e-05 1.12066e-05
-5.96192e-05 0.000395751 -5.31265e-07
1.12066e-05 -5.31265e-07 0.000276307
0.0017836 -0.000148713 1.12297e-05
-0.000148713 0.000407827 -1.71229e-06
1.12297e-05 -1.71229e-06 0.000265677
0.00183108 -0.00022286 1.41311e-05
-0.00022286 0.000452811 -3.63717e-06
1.41311e-05 -3.63717e-06 0.000287482
0.00185482 -0.000262679 3.04207e-07
-0.000262679 0.000212376 4.99252e-08
3.04207e-07 4.99252e-08 4.28289e-05
0.00580983 0.000134521 0.000193505
0.000134521 0.00331647 -1.45537e-05
0.000193505 -1.45537e-05 0.00330526
0.00158666 -0.000342541 4.8402e-06
-0.000342541 0.000118625 -5.32743e-07
4.8402e-06 -5.32743e-07 -9.8437e-05
0.00030365 -0.000165909 2.07139e-05
-0.000165909 -0.000200222 -1.93383e-05
2.07139e-05 -1.93383e-05 -0.000307089
0.00088895 -0.000242065 1.31249e-05
-0.000242065 3.30812e-05 -8.43421e-06
1.31249e-05 -8.43421e-06 -0.000174613
0.00162301 -0.000412261 7.42354e-06
-0.000412261 0.000248634 -1.50003e-06
7.42354e-06 -1.50003e-06 -2.05507e-05
0.0018255 -0.00044668 3.19381e-06
-0.00044668 0.000199676 1.80795e-06
3.19381e-06 1.80795e-06 -3.62986e-05
0.000488014 -0.000126554 2.11059e-05
-0.000126554 -4.84275e-05 -1.58748e-05
2.11059e-05 -1.58748e-05 -0.000139044
0.000408783 -0.000100458 -5.44719e-07
-0.000100458 -3.14088e-05 -1.58595e-06
-5.44719e-07 -1.58595e-06 -0.000259738
0.00662025 0.000248103 -0.000330542
0.000248103 0.00376985 -3.28254e-05
-0.000330542 -3.28254e-05 0.00377483
0.00655819 0.000171987 -0.000302347
0.000171987 0.00372181 -3.01658e-05
-0.000302347 -3.01658e-05 0.00373274
0.000398129 0.000126594 -1.85282e-05
0.000126594 -0.000196021 -1.20742e-05
-1.85282e-05 -1.20742e-05 -0.000304187
0.00555173 -0.000155816 -0.000182733
-0.000155816 0.00316415 -1.28891e-05
-0.000182733 -1.28891e-05 0.00315189
0.00041948 0.000187055 -2.37612e-05
0.000187055 -0.000124524 -1.8355e-05
-2.37612e-05 -1.8355e-05 -0.000232128
0.000391083 0.000190722 -2.09326e-05
0.000190722 -0.000150556 -1.77273e-05
-2.09326e-05 -1.77273e-05 -0.000275441
0.000828333 0.000221781 -1.34485e-05
0.000221781 4.21815e-06 -6.96801e-06
-1.34485e-05 -6.96801e-06 -0.000194694
0.00492644 -0.000135592 6.51829e-06
-0.000135592 0.00278112 -3.12649e-08
6.51829e-06 -3.12649e-08 0.00277322
0.000512381 2.27625e-05 1.33247e-06
2.27625e-05 -4.10761e-07 4.98806e-07
1.33247e-06 4.98806e-07 -6.31512e-05
0.00167603 0.000138443 6.29881e-05
0.000138443 0.0005817 5.23021e-06
6.29881e-05 5.23021e-06 0.000493765
0.00164684 0.000198031 6.27319e-05
0.000198031 0.000599368 5.67356e-06
6.27319e-05 5.67356e-06 0.000497451
0.00106517 0.000218247 4.32144e-08
0.000218247 -1.31465e-05 -2.8799e-07
4.32144e-08 -2.8799e-07 -0.00019932
0.000470926 0.000157189 -2.65585e-08
0.000157189 -7.44472e-05 -3.46039e-07
-2.65585e-08 -3.46039e-07 -0.000169074
0.000931683 0.000235713 7.53137e-07
0.000235713 6.16869e-06 5.34078e-08
7.53137e-07 5.34078e-08 -0.00019231
0.000795689 0.000219279 1.81969e-07
0.000219279 4.80141e-05 -7.12937e-07
1.81969e-07 -7.12937e-07 -0.000155279
0.00126357 0.00036854 1.62477e-07
0.00036854 0.000169872 -2.47481e-07
1.62477e-07 -2.47481e-07 -0.000100798
0.000434007 0.000106909 1.78381e-05
0.000106909 -6.42809e-05 1.52033e-05
1.78381e-05 1.52033e-05 -0.000150715
0.000616466 -1.21379e-05 5.81179e-06
-1.21379e-05 6.39816e-05 1.06264e-05
5.81179e-06 1.06264e-05 1.62852e-05
0.00126944 0.000151867 4.43898e-06
0.000151867 0.000494209 6.28941e-06
4.43898e-06 6.28941e-06 0.00030184
0.00115046 0.000195331 1.39719e-05
0.000195331 5.41408e-06 4.12676e-06
1.39719e-05 4.12676e-06 -0.000169467
0.00103851 0.000237425 1.49914e-05
0.000237425 6.57202e-06 6.33389e-06
1.49914e-05 6.33389e-06 -0.000187898
0.00175573 0.000368069 4.232e-06
0.000368069 0.000199045 1.96243e-07
4.232e-06 1.96243e-07 -2.34819e-05
0.000735913 0.000216899 9.27715e-06
0.000216899 7.65856e-05 6.0263e-06
9.27715e-06 6.0263e-06 -0.000128174
0.00158561 0.00041162 3.72815e-06
0.00041162 0.00026223 -2.62172e-07
3.72815e-06 -2.62172e-07 -1.5813e-06
0.00102144 0.000324512 2.50304e-06
0.000324512 9.47373e-05 -1.60044e-08
2.50304e-06 -1.60044e-08 -0.000176547
0.00148796 0.000460747 -5.58315e-06
0.000460747 0.000218249 -3.39424e-06
-5.58315e-06 -3.39424e-06 -7.76362e-05
0.00294315 -0.000128772 5.8928e-05
-0.000128772 0.00152969 3.49641e-06
5.8928e-05 3.49641e-06 0.00152721
0.00326321 -0.000153035 1.27431e-05
-0.000153035 0.00174001 -8.49442e-07
1.27431e-05 -8.49442e-07 0.00173069
0.0036477 -0.00018492 -7.43528e-05
-0.00018492 0.00199436 -4.69371e-06
-7.43528e-05 -4.69371e-06 0.0019752
0.000465272 -9.97552e-05 1.80232e-05
-9.97552e-05 -4.44247e-05 -1.42607e-05
1.80232e-05 -1.42607e-05 -0.000119644
0.00519479 0.000176863 0.000153806
0.000176863 0.00296608 -1.55722e-05
0.000153806 -1.55722e-05 0.00294244
0.00655193 0.000211452 -0.000330126
0.000211452 0.00372287 -2.74477e-05
-0.000330126 -2.74477e-05 0.00373337
0.00617875 8.98871e-05 -0.000302749
8.98871e-05 0.00348391 -1.27129e-05
-0.000302749 -1.27129e-05 0.00350528
0.000468865 9.70699e-05 -1.96094e-05
9.70699e-05 -0.000171759 -5.61566e-06
-1.96094e-05 -5.61566e-06 -0.000263384
0.000460579 4.32744e-05 -1.92601e-05
4.32744e-05 -0.000170538 -2.80502e-06
-1.92601e-05 -2.80502e-06 -0.000254121
0.00588306 -7.50487e-06 -0.000288425
-7.50487e-06 0.00330724 -2.38507e-06
-0.000288425 -2.38507e-06 0.00333091
0.00583328 8.49386e-06 -1.77872e-07
8.49386e-06 0.00327784 -9.10493e-07
-1.77872e-07 -9.10493e-07 0.00330153
0.000443773 8.22331e-07 -1.15412e-07
8.22331e-07 -0.000182987 1.14501e-07
-1.15412e-07 1.14501e-07 -0.000261078
0.00160881 3.86688e-05 6.0834e-05
3.86688e-05 0.000531738 2.59332e-06
6.0834e-05 2.59332e-06 0.000463034
0.00106251 6.096e-05 -9.73292e-08
6.096e-05 -5.07023e-05 -1.03716e-07
-9.73292e-08 -1.03716e-07 -0.000183155
0.000432395 8.26717e-05 -4.34322e-07
8.26717e-05 -0.00019295 -3.79063e-07
-4.34322e-07 -3.79063e-07 -0.00029048
0.0010948 0.000131017 -2.27056e-07
0.000131017 -4.17455e-05 -1.43255e-07
-2.27056e-07 -1.43255e-07 -0.00019357
0.000436923 -3.1168e-05 1.92711e-05
-3.1168e-05 -0.000188759 -7.05446e-07
1.92711e-05 -7.05446e-07 -0.000264368
0.00106024 2.46173e-05 1.19027e-05
2.46173e-05 -4.15189e-05 5.47671e-07
1.19027e-05 5.47671e-07 -0.000168796
0.00111381 9.37667e-05 1.19806e-05
9.37667e-05 -2.43935e-05 1.60839e-06
1.19806e-05 1.60839e-06 -0.00016435
0.00176566 9.9072e-05 -8.25438e-07
9.9072e-05 8.9112e-05 -3.65429e-07
-8.25438e-07 -3.65429e-07 -2.41594e-05
0.00116875 0.000163952 1.28842e-05
0.000163952 4.9222e-06 2.98254e-06
1.28842e-05 2.98254e-06 -0.000157738
0.00180618 0.000216278 5.68871e-07
0.000216278 0.000114751 -6.35965e-07
5.68871e-07 -6.35965e-07 -2.99312e-05
0.00585119 -6.23016e-05 -0.000293309
-6.23016e-05 0.00329485 2.47894e-06
-0.000293309 2.47894e-06 0.00331514
0.00133745 -0.000153034 -5.97659e-05
-0.000153034 0.000511569 6.97388e-06
-5.97659e-05 6.97388e-06 0.000464027
-0.000261639 -5.32527e-06 -1.22345e-05
-5.32527e-06 -0.000610861 1.77826e-06
-1.22345e-05 1.77826e-06 -0.000703273
0.00188368 -6.29326e-05 -0.000122989
-6.29326e-05 0.000716538 8.03301e-06
-0.000122989 8.03301e-06 0.000648445
0.00616871 0.000292968 -1.75078e-05
0.000292968 0.00355047 4.49708e-06
-1.75078e-05 4.49708e-06 0.00349446
0.00297831 -0.000250282 -0.000135603
-0.000250282 0.00144388 2.57226e-05
-0.000135603 2.57226e-05 0.00134421
0.00192241 -0.000113822 -0.0001251
-0.000113822 0.000743333 1.52134e-05
-0.0001251 1.52134e-05 0.000668582
0.00192283 -0.000186388 -2.97768e-05
-0.000186388 0.000496608 5.36038e-06
-2.97768e-05 5.36038e-06 0.000345132
0.00201833 -0.000264095 -3.07729e-05
-0.000264095 0.00059701 9.15534e-06
-3.07729e-05 9.15534e-06 0.000416834
0.00201151 -0.000322365 -2.95888e-05
-0.000322365 0.000663223 1.1555e-05
-2.95888e-05 1.1555e-05 0.00045448
0.00164292 -0.000376081 -4.60223e-06
-0.000376081 0.000202263 4.15734e-07
-4.60223e-06 4.15734e-07 -3.71055e-05
0.000440079 5.20902e-06 -2.77497e-08
5.20902e-06 -0.000183924 2.57566e-07
-2.77497e-08 2.57566e-07 -0.000261569
0.00175831 -8.24617e-05 -3.32373e-05
-8.24617e-05 0.000648047 4.02882e-07
-3.32373e-05 4.02882e-07 0.000575181
0.0013988 -5.50937e-05 -9.83271e-06
-5.50937e-05 0.000168752 5.7609e-07
-9.83271e-06 5.7609e-07 4.4908e-05
0.001875 -0.00014933 -8.19316e-06
-0.00014933 0.000464306 1.29401e-06
-8.19316e-06 1.29401e-06 0.000321505
0.0060676 0.000133271 5.54442e-06
0.000133271 0.00347946 8.57618e-07
5.54442e-06 8.57618e-07 0.00346612
0.00166802 -0.000163673 2.95611e-06
-0.000163673 0.000658334 5.68813e-07
2.95611e-06 5.68813e-07 0.000541353
0.0013524 -0.000275655 1.28555e-06
-0.000275655 0.00032236 -1.09531e-06
1.28555e-06 -1.09531e-06 0.000111662
0.0018709 -0.000225097 -8.25066e-06
-0.000225097 0.000477137 2.03322e-06
-8.25066e-06 2.03322e-06 0.000311296
0.00184028 -0.000265034 -9.96768e-07
-0.000265034 0.000198851 7.05538e-08
-9.96768e-07 7.05538e-08 3.36257e-05
0.0016166 -0.000410695 1.0971e-06
-0.000410695 0.000248836 -2.9938e-07
1.0971e-06 -2.9938e-07 -1.89073e-05
0.00172538 -0.000348452 5.67594e-07
-0.000348452 0.000206947 -1.41802e-07
5.67594e-07 -1.41802e-07 -1.0079e-05
0.00186613 -0.000448092 7.17262e-07
-0.000448092 0.000228919 7.40137e-08
7.17262e-07 7.40137e-08 -6.75278e-06
0.000496925 -0.000130957 1.56064e-06
-0.000130957 -4.37792e-05 5.88015e-07
1.56064e-06 5.88015e-07 -0.000137402
0.000718896 -0.000134246 2.90374e-07
-0.000134246 0.000139609 5.15904e-08
2.90374e-07 5.15904e-08 -7.53018e-05
0.00105101 -2.73375e-05 1.20047e-05
-2.73375e-05 -3.97156e-05 -5.89974e-07
1.20047e-05 -5.89974e-07 -0.000167368
0.00183871 -0.000100423 1.01707e-05
-0.000100423 0.000441874 -1.0104e-06
1.01707e-05 -1.0104e-06 0.000313494
0.00176956 -9.91874e-05 -6.95082e-07
-9.91874e-05 0.000119141 3.65937e-07
-6.95082e-07 3.65937e-07 -9.124e-08
0.00179523 -0.000212639 -7.45135e-08
-0.000212639 0.000151488 1.00641e-06
-7.45135e-08 1.00641e-06 1.03461e-05
0.00176903 -0.000313947 1.39549e-06
-0.000313947 0.000190959 3.98226e-07
1.39549e-06 3.98226e-07 1.31991e-06
0.0019994 -0.000308841 1.47056e-06
-0.000308841 0.000176699 2.07268e-07
1.47056e-06 2.07268e-07 3.73838e-05
0.000424091 -0.000150991 2.00807e-05
-0.000150991 -0.000102757 -1.86592e-05
2.00807e-05 -1.86592e-05 -0.000206318
0.00189253 -0.000410842 1.44462e-06
-0.000410842 0.000194796 1.58031e-06
1.44462e-06 1.58031e-06 -5.33856e-06
0.000598027 -0.000216273 9.26069e-06
-0.000216273 -7.14756e-05 -7.5477e-06
9.26069e-06 -7.5477e-06 -0.000277014
0.00130752 -0.000409104 1.01124e-05
-0.000409104 0.000150129 -2.39381e-06
1.01124e-05 -2.39381e-06 -0.00014037
0.00201395 -0.000505574 3.26949e-06
-0.000505574 0.000379475 1.0352e-06
3.26949e-06 1.0352e-06 9.69348e-05
0.00217393 -0.000486365 -1.49635e-06
-0.000486365 0.000367831 4.14645e-06
-1.49635e-06 4.14645e-06 0.000158336
0.000700859 -0.000204526 2.08802e-06
-0.000204526 0.000109059 -4.15125e-06
2.08802e-06 -4.15125e-06 -0.00012999
0.000609154 -9.9158e-05 -6.06532e-08
-9.9158e-05 7.30341e-05 -4.1723e-06
-6.06532e-08 -4.1723e-06 -9.53868e-05
0.0010157 -0.000258768 -1.80065e-06
-0.000258768 0.000328621 6.91605e-07
-1.80065e-06 6.91605e-07 4.15958e-05
0.000425723 0.000105366 -1.7954e-05
0.000105366 -0.000191938 -9.23676e-06
-1.7954e-05 -9.23676e-06 -0.00029505
0.00451324 -0.000200946 -0.000116595
-0.000200946 0.00254761 -1.00148e-05
-0.000116595 -1.00148e-05 0.00252227
0.000419573 9.76621e-06 -7.09084e-06
9.76621e-06 -5.29053e-05 -1.21152e-05
-7.09084e-06 -1.21152e-05 -0.000112618
0.000383952 0.000158042 -1.98439e-05
0.000158042 -0.000181635 -1.51502e-05
-1.98439e-05 -1.51502e-05 -0.000297784
0.00102828 0.000216757 -1.54982e-05
0.000216757 -2.97136e-05 -5.96654e-06
-1.54982e-05 -5.96654e-06 -0.000216487
0.000517667 0.000146664 -2.27374e-05
0.000146664 -4.6796e-05 -1.69846e-05
-2.27374e-05 -1.69846e-05 -0.00013923
0.000608735 0.000204722 -1.00706e-05
0.000204722 -6.88377e-05 -7.03212e-06
-1.00706e-05 -7.03212e-06 -0.000268617
0.000931353 0.000232713 -1.4148e-05
0.000232713 1.33639e-05 -7.06264e-06
-1.4148e-05 -7.06264e-06 -0.000184168
0.00136552 0.000385691 -3.87804e-06
0.000385691 0.00022309 -1.3115e-07
-3.87804e-06 -1.3115e-07 -5.0689e-05
0.000537652 9.60654e-05 9.09583e-07
9.60654e-05 -4.49439e-06 1.13323e-06
9.09583e-07 1.13323e-06 -8.56531e-05
0.000422298 -3.19927e-05 1.78958e-07
-3.19927e-05 -4.68298e-05 4.61341e-07
1.78958e-07 4.61341e-07 -9.71583e-05
0.000626655 9.27919e-05 1.89726e-06
9.27919e-05 8.42092e-05 -3.74734e-07
1.89726e-06 -3.74734e-07 -9.12057e-05
0.00110447 0.000194512 -1.52661e-07
0.000194512 -1.83526e-05 -3.16534e-07
-1.52661e-07 -3.16534e-07 -0.000194192
0.00100728 0.000233774 2.82414e-07
0.000233774 -4.78176e-06 -1.91955e-07
2.82414e-07 -1.91955e-07 -0.000198915
0.00173223 0.000366682 -9.52097e-08
0.000366682 0.000183074 -1.06007e-07
-9.52097e-08 -1.06007e-07 -3.97628e-05
0.000742849 0.000218428 -5.14108e-07
0.000218428 8.04808e-05 -1.18201e-07
-5.14108e-07 -1.18201e-07 -0.000124089
0.00158236 0.000409701 -1.46792e-07
0.000409701 0.000254683 -2.66813e-07
-1.46792e-07 -2.66813e-07 -9.67036e-06
0.00111078 0.000331906 1.02631e-06
0.000331906 0.000153223 -9.6993e-07
1.02631e-06 -9.6993e-07 -0.000118351
0.00144736 0.000469521 -3.53956e-07
0.000469521 0.000177451 1.24781e-06
-3.53956e-07 1.24781e-06 -0.00011958
0.000542867 -3.71417e-05 7.90125e-07
-3.71417e-05 2.15913e-05 8.48769e-06
7.90125e-07 8.48769e-06 -1.77404e-05
0.00100031 0.000165293 5.29641e-06
0.000165293 0.000295818 4.97152e-06
5.29641e-06 4.97152e-06 8.98183e-05
0.000881309 5.94325e-05 1.86331e-06
5.94325e-05 0.000227731 5.87675e-06
1.86331e-06 5.87675e-06 0.000100345
0.000927936 0.000140975 1.86224e-06
0.000140975 0.000311608 2.5008e-07
1.86224e-06 2.5008e-07 5.29431e-05
0.00181384 0.000328113 2.07919e-06
0.000328113 0.00017761 -1.05248e-06
2.07919e-06 -1.05248e-06 -1.80208e-05
0.00166153 0.000396911 4.74266e-06
0.000396911 0.00021534 4.11405e-07
4.74266e-06 4.11405e-07 -3.19416e-05
0.00199567 0.000439779 1.01208e-06
0.000439779 0.000244604 -7.02779e-07
1.01208e-06 -7.02779e-07 2.73058e-05
0.00082515 0.000258822 3.21354e-06
0.000258822 2.58269e-05 2.74833e-06
3.21354e-06 2.74833e-06 -0.000213548
0.00210199 0.000544054 -2.50612e-06
0.000544054 0.000459811 -1.30361e-06
-2.50612e-06 -1.30361e-06 0.000174354
0.00165036 0.000477408 -3.12604e-06
0.000477408 0.00041391 -3.90463e-06
-3.12604e-06 -3.90463e-06 8.3683e-05
0.00172474 0.000517493 -2.6057e-07
0.000517493 0.000250968 -7.62563e-07
-2.6057e-07 -7.62563e-07 -4.42706e-05
0.00056791 3.55052e-05 2.62466e-06
3.55052e-05 3.99115e-05 3.53527e-06
2.62466e-06 3.53527e-06 -2.632e-05
0.000488172 -2.89431e-05 1.27621e-06
-2.89431e-05 -3.13246e-05 6.32012e-06
1.27621e-06 6.32012e-06 -5.7235e-05
0.00268283 -0.000120174 3.73822e-05
-0.000120174 0.00136011 3.72882e-06
3.73822e-05 3.72882e-06 0.00135992
0.00285073 -0.000139967 7.08629e-06
-0.000139967 0.00147459 -7.23631e-07
7.08629e-06 -7.23631e-07 0.00146882
0.00311203 -0.000165603 -4.768e-05
-0.000165603 0.00164869 -3.54584e-06
-4.768e-05 -3.54584e-06 0.0016353
0.000381049 -7.00338e-05 1.19047e-05
-7.00338e-05 -8.19741e-05 -1.2911e-05
1.19047e-05 -1.2911e-05 -0.000145922
0.00462433 0.000167344 0.000128701
0.000167344 0.00260826 -1.26411e-05
0.000128701 -1.26411e-05 0.00258913
0.000473691 -9.69088e-05 -3.50642e-07
-9.69088e-05 -3.91808e-05 3.63745e-07
-3.50642e-07 3.63745e-07 -0.000120687
0.00542385 0.000144053 -9.98121e-07
0.000144053 0.0030933 -2.94408e-08
-9.98121e-07 -2.94408e-08 0.00307798
0.000465404 0.000108453 -1.9285e-05
0.000108453 -0.000170316 -7.39583e-06
-1.9285e-05 -7.39583e-06 -0.000269795
0.000476776 3.4596e-05 -1.82605e-05
3.4596e-05 -0.000167443 -3.61938e-06
-1.82605e-05 -3.61938e-06 -0.000252884
0.00105248 0.000131683 -1.20961e-05
0.000131683 -6.96775e-05 -2.41403e-06
-1.20961e-05 -2.41403e-06 -0.000222447
0.00102661 6.30328e-05 -1.19947e-05
6.30328e-05 -7.46291e-05 -1.10328e-06
-1.19947e-05 -1.10328e-06 -0.000207666
0.000497881 -7.72001e-06 -1.93728e-05
-7.72001e-06 -0.000152906 -9.5954e-07
-1.93728e-05 -9.5954e-07 -0.000229141
0.00592564 -9.89487e-05 -0.000300024
-9.89487e-05 0.00334583 5.05969e-06
-0.000300024 5.05969e-06 0.00336372
0.000484593 -2.01573e-06 7.7617e-08
-2.01573e-06 -0.000160141 -6.53047e-07
7.7617e-08 -6.53047e-07 -0.000235718
0.001044 2.98965e-05 -8.62891e-08
2.98965e-05 -5.28415e-05 2.28164e-08
-8.62891e-08 2.28164e-08 -0.000180545
0.00108654 9.54636e-05 -1.98069e-07
9.54636e-05 -4.34068e-05 -8.08248e-08
-1.98069e-07 -8.08248e-08 -0.000184134
0.00174387 9.7212e-05 -5.51085e-08
9.7212e-05 7.91837e-05 1.05352e-07
-5.51085e-08 1.05352e-07 -3.41566e-05
0.00111601 0.000164919 -3.28005e-07
0.000164919 -2.62977e-05 -2.41263e-07
-3.28005e-07 -2.41263e-07 -0.000190316
0.00179089 0.000215493 -1.94387e-07
0.000215493 0.000104941 1.21025e-07
-1.94387e-07 1.21025e-07 -4.00962e-05
0.00103354 -3.17259e-06 1.18949e-05
-3.17259e-06 -5.15614e-05 -1.74467e-07
1.18949e-05 -1.74467e-07 -0.000178113
0.00171976 4.62076e-05 -2.59599e-07
4.62076e-05 6.36923e-05 -7.34253e-08
-2.59599e-07 -7.34253e-08 -4.25407e-05
0.00176906 0.000154748 -8.15956e-07
0.000154748 9.23333e-05 -4.57143e-07
-8.15956e-07 -4.57143e-07 -3.34854e-05
0.00190161 0.000125942 2.35424e-06
0.000125942 4.07231e-05 5.52875e-07
2.35424e-06 5.52875e-07 -2.42794e-05
0.00184432 0.000278585 1.60428e-06
0.000278585 0.000151686 -7.3408e-07
1.60428e-06 -7.3408e-07 -1.75262e-05
0.00202806 0.000254009 2.16794e-06
0.000254009 0.000131934 -9.89191e-07
2.16794e-06 -9.89191e-07 2.08596e-05
0.000470026 -2.08589e-06 -1.85278e-05
-2.08589e-06 -0.000162344 8.64981e-07
-1.85278e-05 8.64981e-07 -0.000242165
0.00185258 -3.84884e-05 -0.000121387
-3.84884e-05 0.000697764 5.342e-06
-0.000121387 5.342e-06 0.000634337
0.00099416 -4.95721e-05 -1.70386e-05
-4.95721e-05 -8.05162e-05 1.55471e-06
-1.70386e-05 1.55471e-06 -0.00020912
0.00194514 -0.000148921 -2.74526e-05
-0.000148921 0.000507081 4.06447e-06
-2.74526e-05 4.06447e-06 0.000363778
0.00625687 0.000114886 -0.000224935
0.000114886 0.00359132 2.15352e-05
-0.000224935 2.15352e-05 0.00357969
0.0030587 -0.000234093 -0.000142261
-0.000234093 0.00151013 2.1046e-05
-0.000142261 2.1046e-05 0.00142058
0.00204195 -0.000329787 -2.50209e-05
-0.000329787 0.000747352 1.05607e-05
-2.50209e-05 1.05607e-05 0.000529965
0.00188833 -0.000225664 -2.99852e-05
-0.000225664 0.000487204 7.29057e-06
-2.99852e-05 7.29057e-06 0.000321238
0.00182033 -0.000267252 -3.13315e-06
-0.000267252 0.0001812 -3.3639e-07
-3.13315e-06 -3.3639e-07 2.03004e-05
0.0018661 -0.000354482 -4.32122e-06
-0.000354482 0.000297127 7.76572e-07
-4.32122e-06 7.76572e-07 8.01193e-05
0.00160481 -0.000408806 -6.41859e-06
-0.000408806 0.0002447 7.01601e-07
-6.41859e-06 7.01601e-07 -2.15049e-05
0.00190936 -0.000450139 -1.33401e-06
-0.000450139 0.000258418 -1.80612e-06
-1.33401e-06 -1.80612e-06 2.29002e-05
0.000452159 -0.000139152 -1.88488e-05
-0.000139152 -6.60607e-05 1.73102e-05
-1.88488e-05 1.73102e-05 -0.000165899
0.000787728 -0.000165832 -7.86296e-07
-0.000165832 0.000178284 1.4358e-06
-7.86296e-07 1.4358e-06 -3.49637e-05
0.00100402 -2.22123e-05 1.01839e-07
-2.22123e-05 -7.11216e-05 7.88517e-09
1.01839e-07 7.88517e-09 -0.000196945
0.00183683 -0.000100937 -8.45623e-06
-0.000100937 0.000438976 9.90251e-07
-8.45623e-06 9.90251e-07 0.000310807
0.00182716 -9.61617e-05 -2.56256e-07
-9.61617e-05 0.000153197 1.14364e-08
-2.56256e-07 1.14364e-08 3.89629e-05
0.00176068 -0.0002112 -2.1447e-06
-0.0002112 0.000134113 6.98137e-07
-2.1447e-06 6.98137e-07 -1.24469e-05
0.000455999 -0.000171599 9.01713e-08
-0.000171599 -8.59135e-05 7.71518e-08
9.01713e-08 7.71518e-08 -0.000189897
0.000805974 -0.00022817 -2.8435e-07
-0.00022817 5.09514e-05 2.38728e-08
-2.8435e-07 2.38728e-08 -0.00015671
0.0013047 -0.000407758 1.67619e-06
-0.000407758 0.000152333 -4.92071e-07
1.67619e-06 -4.92071e-07 -0.000138572
0.0018052 -0.000313948 -3.20491e-06
-0.000313948 0.000214517 8.92663e-07
-3.20491e-06 8.92663e-07 2.23764e-05
0.00202339 -0.000312677 2.01047e-06
-0.000312677 0.00018269 -8.7403e-07
2.01047e-06 -8.7403e-07 4.81087e-05
0.00206144 -0.000514094 -7.57498e-07
-0.000514094 0.000406299 -4.34698e-07
-7.57498e-07 -4.34698e-07 0.000124102
0.00191025 -0.000412232 5.57378e-07
-0.000412232 0.000206086 -3.90248e-08
5.57378e-07 -3.90248e-08 5.77731e-06
0.00204261 -0.000479983 8.77457e-07
-0.000479983 0.000280309 7.43077e-07
8.77457e-07 7.43077e-07 7.0886e-05
0.000664021 -0.000192524 2.3523e-07
-0.000192524 8.6959e-05 -3.9694e-07
2.3523e-07 -3.9694e-07 -0.000147583
0.000318653 -0.000165307 -5.80445e-07
-0.000165307 -0.000122528 -4.43864e-07
-5.80445e-07 -4.43864e-07 -0.000388867
0.000693422 -0.000119381 8.16841e-07
-0.000119381 0.000129818 -1.10278e-08
8.16841e-07 -1.10278e-08 -4.90939e-05
0.00177489 -4.43765e-05 -7.70213e-07
-4.43765e-05 0.000117955 2.18738e-07
-7.70213e-07 2.18738e-07 6.69626e-06
0.00188329 -0.000150773 -2.53182e-06
-0.000150773 0.000197396 1.06648e-06
-2.53182e-06 1.06648e-06 7.39943e-05
0.00187863 -0.000118344 4.07364e-06
-0.000118344 3.43951e-05 -2.66445e-07
4.07364e-06 -2.66445e-07 -4.01817e-05
0.00188179 -0.00024973 -3.67046e-08
-0.00024973 6.74774e-05 1.05243e-06
-3.67046e-08 1.05243e-06 -4.06763e-05
0.00181713 -0.0003675 -5.08615e-07
-0.0003675 9.9352e-05 2.15043e-06
-5.08615e-07 2.15043e-06 -6.61649e-05
0.00213652 -0.000340751 3.46836e-06
-0.000340751 0.000204812 -8.65139e-07
3.46836e-06 -8.65139e-07 9.69425e-05
0.000636524 -0.000226548 5.75232e-06
-0.000226548 1.00094e-05 -6.66535e-06
5.75232e-06 -6.66535e-06 -0.000203494
0.00188457 -0.000440298 -8.00759e-07
-0.000440298 0.000129346 1.85746e-06
-8.00759e-07 1.85746e-06 -4.539e-05
0.00132782 -0.000379034 7.51079e-06
-0.000379034 0.000287923 -4.91224e-06
7.51079e-06 -4.91224e-06 1.53143e-07
0.0017228 -0.000558512 6.67545e-06
-0.000558512 0.000298223 7.96868e-07
6.67545e-06 7.96868e-07 -4.23675e-05
0.00213874 -0.00054566 3.57944e-06
-0.00054566 0.000401068 3.9713e-06
3.57944e-06 3.9713e-06 0.000131146
0.0022322 -0.000506996 -2.10923e-06
-0.000506996 0.000401654 2.49008e-06
-2.10923e-06 2.49008e-06 0.000204517
0.00061282 -8.24899e-05 -8.61093e-07
-8.24899e-05 9.04666e-05 -6.40328e-06
-8.61093e-07 -6.40328e-06 -5.19719e-05
0.00100971 -0.000269835 1.68521e-06
-0.000269835 0.000203805 -1.24451e-06
1.68521e-06 -1.24451e-06 -3.49074e-05
0.000239693 -0.000151534 -7.84396e-07
-0.000151534 -7.71286e-05 1.39029e-06
-7.84396e-07 1.39029e-06 -0.00037107
0.00185992 -0.000370437 -3.08472e-06
-0.000370437 0.000754914 9.52636e-07
-3.08472e-06 9.52636e-07 0.000468046
0.00105555 0.000193809 -1.45669e-05
0.000193809 -4.41501e-05 -4.69469e-06
-1.45669e-05 -4.69469e-06 -0.000220963
0.000388226 -5.16008e-05 3.37171e-06
-5.16008e-05 -5.63812e-05 -1.10483e-05
3.37171e-06 -1.10483e-05 -0.000111925
0.000420202 7.67137e-05 -1.69314e-05
7.67137e-05 -7.599e-05 -1.39235e-05
-1.69314e-05 -1.39235e-05 -0.000151374
5.61448e-05 5.97547e-05 -1.26792e-06
5.97547e-05 -0.000256769 -6.15212e-06
-1.26792e-06 -6.15212e-06 -0.000430533
0.00097462 0.000230347 -1.52712e-05
0.000230347 -1.69202e-05 -6.82683e-06
-1.52712e-05 -6.82683e-06 -0.000210788
0.00171338 0.000365537 -4.21129e-06
0.000365537 0.000169929 -1.9309e-07
-4.21129e-06 -1.9309e-07 -5.32238e-05
0.000616653 0.000203889 -6.21578e-06
0.000203889 1.1259e-06 -4.68466e-06
-6.21578e-06 -4.68466e-06 -0.000199813
0.00141743 0.00035962 -4.9225e-06
0.00035962 0.000348839 -3.82276e-06
-4.9225e-06 -3.82276e-06 7.3207e-05
0.00159417 0.000409012 -3.92204e-06
0.000409012 0.000257217 -1.17632e-07
-3.92204e-06 -1.17632e-07 -7.86955e-06
0.00139688 0.000475104 1.96625e-06
0.000475104 0.000135632 3.81565e-06
1.96625e-06 3.81565e-06 -0.000161551
0.000452483 -4.80908e-05 -3.23288e-06
-4.80908e-05 -2.82982e-05 9.16167e-07
-3.23288e-06 9.16167e-07 -7.03625e-05
0.000663941 0.000181908 -5.86407e-07
0.000181908 0.00010266 -7.28954e-07
-5.86407e-07 -7.28954e-07 -0.000111302
0.000630498 3.60937e-05 2.15514e-07
3.60937e-05 7.67964e-05 5.23676e-07
2.15514e-07 5.23676e-07 -4.52057e-05
0.000767648 0.000136317 1.77377e-06
0.000136317 0.000208989 -7.71084e-07
1.77377e-06 -7.71084e-07 -4.73483e-05
0.00178845 0.000326281 -8.76692e-07
0.000326281 0.000162147 -8.39158e-07
-8.76692e-07 -8.39158e-07 -3.36885e-05
0.00164252 0.000396563 -1.25339e-07
0.000396563 0.000202571 -1.66156e-07
-1.25339e-07 -1.66156e-07 -4.54223e-05
0.00196299 0.00043625 3.07089e-07
0.00043625 0.000227345 2.28456e-07
3.07089e-07 2.28456e-07 1.06145e-05
0.00105077 0.000282886 1.9735e-06
0.000282886 0.000176398 7.58692e-07
1.9735e-06 7.58692e-07 -6.65184e-05
0.00198865 0.000525294 -5.51455e-07
0.000525294 0.000398206 1.39465e-07
-5.51455e-07 1.39465e-07 0.000115048
0.00143599 0.000459445 -9.60942e-07
0.000459445 0.000278589 -1.75661e-06
-9.60942e-07 -1.75661e-06 -5.07507e-05
0.00176023 0.000513333 -3.61405e-06
0.000513333 0.000276585 1.53431e-06
-3.61405e-06 1.53431e-06 -1.28857e-05
0.000510046 -3.65469e-05 9.61542e-07
-3.65469e-05 -8.89741e-06 7.10379e-06
9.61542e-07 7.10379e-06 -3.99953e-05
0.000748448 3.24842e-05 1.55146e-06
3.24842e-05 0.000152988 5.30783e-06
1.55146e-06 5.30783e-06 5.71473e-05
0.000618937 0.000216102 2.79404e-06
0.000216102 -5.20964e-07 1.65591e-06
2.79404e-06 1.65591e-06 -0.00022822
0.00161037 0.000136901 -1.05968e-06
0.000136901 0.000755181 3.19986e-06
-1.05968e-06 3.19986e-06 0.000523786
0.00139475 0.000310506 -1.0476e-06
0.000310506 0.000534001 -3.76137e-06
-1.0476e-06 -3.76137e-06 0.000271141
0.00204686 0.000392501 2.83988e-07
0.000392501 0.000215125 -2.58947e-06
2.83988e-07 -2.58947e-06 3.38637e-05
0.00195713 0.000491282 3.65413e-07
0.000491282 0.000290386 -7.2768e-07
3.65413e-07 -7.2768e-07 3.58172e-05
0.00200598 0.000478107 -1.07627e-06
0.000478107 0.000228798 -8.40508e-07
-1.07627e-06 -8.40508e-07 1.90338e-05
0.000984658 0.000374733 3.38109e-06
0.000374733 9.9799e-05 2.49253e-06
3.38109e-06 2.49253e-06 -0.000204972
0.00218875 0.000593344 -8.6385e-07
0.000593344 0.000464032 -5.63562e-07
-8.6385e-07 -5.63562e-07 0.000176168
0.00157368 0.000526866 5.84877e-06
0.000526866 0.000296749 -2.50727e-06
5.84877e-06 -2.50727e-06 -3.94706e-05
0.000596657 3.10688e-05 2.67562e-06
3.10688e-05 5.66046e-05 3.82807e-06
2.67562e-06 3.82807e-06 -1.46314e-05
0.000628947 7.64249e-05 -3.70171e-08
7.64249e-05 0.00011359 2.03737e-06
-3.70171e-08 2.03737e-06 -3.30659e-07
0.000588221 4.50277e-05 2.54374e-06
4.50277e-05 5.75562e-05 3.49189e-06
2.54374e-06 3.49189e-06 -6.65552e-06
0.000542803 2.71245e-06 -5.9914e-07
2.71245e-06 2.52378e-05 5.57283e-10
-5.9914e-07 5.57283e-10 -4.122e-05
0.00127598 -4.26883e-05 1.04905e-06
-4.26883e-05 0.000457109 3.6115e-06
1.04905e-06 3.6115e-06 0.000437835
0.000889998 -4.00373e-05 4.21523e-07
-4.00373e-05 0.000219927 -1.53777e-07
4.21523e-07 -1.53777e-07 0.000195925
0.000852989 -5.23053e-05 2.90462e-05
-5.23053e-05 0.000203221 8.72346e-06
2.90462e-05 8.72346e-06 0.000202262
0.00263662 -0.000118965 6.16343e-06
-0.000118965 0.00133049 -5.92991e-07
6.16343e-06 -5.92991e-07 0.00133055
0.00276898 -0.000138426 -3.99029e-05
-0.000138426 0.00142329 -3.57961e-06
-3.99029e-05 -3.57961e-06 0.00141791
0.000342063 -3.85794e-05 6.07656e-06
-3.85794e-05 -9.74836e-05 -1.0123e-05
6.07656e-06 -1.0123e-05 -0.000147238
0.00399629 0.000154232 9.39316e-05
0.000154232 0.00220382 -7.31858e-06
9.39316e-05 -7.31858e-06 0.00219035
0.000507908 -7.44619e-05 -2.07729e-06
-7.44619e-05 -7.19856e-06 4.86608e-07
-2.07729e-06 4.86608e-07 -7.17566e-05
0.00479685 0.000144949 -1.23633e-05
0.000144949 0.00270866 -1.47019e-06
-1.23633e-05 -1.47019e-06 0.00269416
0.000578708 -0.000102658 -1.77612e-05
-0.000102658 1.9101e-05 1.44501e-05
-1.77612e-05 1.44501e-05 -6.3749e-05
0.00570216 0.000148014 -0.000193578
0.000148014 0.00327243 2.07759e-05
-0.000193578 2.07759e-05 0.00325378
0.00106375 0.000165643 -1.31869e-05
0.000165643 -5.69899e-05 -3.41e-06
-1.31869e-05 -3.41e-06 -0.000222245
0.00103748 9.85643e-05 -1.19051e-05
9.85643e-05 -7.46527e-05 -1.68702e-06
-1.19051e-05 -1.68702e-06 -0.000216466
0.00180475 0.00021189 -1.86519e-06
0.00021189 0.000114483 7.72721e-07
-1.86519e-06 7.72721e-07 -3.01973e-05
0.00172651 9.56883e-05 3.10593e-07
9.56883e-05 7.21111e-05 5.75416e-07
3.10593e-07 5.75416e-07 -4.13118e-05
0.00102997 3.45416e-05 -1.19756e-05
3.45416e-05 -6.34155e-05 -5.21844e-07
-1.19756e-05 -5.21844e-07 -0.000191568
0.000448245 2.90181e-05 -1.92686e-05
2.90181e-05 -0.000184108 -6.53093e-07
-1.92686e-05 -6.53093e-07 -0.000258515
0.00102977 3.2812e-07 -4.99328e-08
3.2812e-07 -5.48129e-05 -9.66056e-08
-4.99328e-08 -9.66056e-08 -0.000181414
0.00172786 4.69689e-05 -9.61248e-08
4.69689e-05 7.16078e-05 1.97068e-07
-9.61248e-08 1.97068e-07 -3.46543e-05
0.00176561 0.000152109 -3.12536e-08
0.000152109 9.0825e-05 1.42761e-07
-3.12536e-08 1.42761e-07 -3.48833e-05
0.00191961 0.000124669 -2.14118e-07
0.000124669 4.31822e-05 2.39679e-07
-2.14118e-07 2.39679e-07 -1.85991e-05
0.00182077 0.000275951 -3.96567e-07
0.000275951 0.000141483 -9.84257e-08
-3.96567e-07 -9.84257e-08 -2.76592e-05
0.00198187 0.000250236 -5.48599e-07
0.000250236 0.000107449 7.23068e-08
-5.48599e-07 7.23068e-08 -3.37819e-06
0.00170507 -8.5666e-07 -7.80327e-08
-8.5666e-07 6.28383e-05 2.04911e-07
-7.80327e-08 2.04911e-07 -4.1714e-05
0.0018966 5.91442e-05 1.84812e-06
5.91442e-05 3.31259e-05 4.5096e-07
1.84812e-06 4.5096e-07 -1.7069e-05
0.00193133 0.00018633 2.49828e-06
0.00018633 5.85077e-05 -1.6583e-07
2.49828e-06 -1.6583e-07 -2.48679e-05
0.00200782 0.000120396 7.14732e-06
0.000120396 5.64994e-05 1.00827e-06
7.14732e-06 1.00827e-06 2.46789e-05
0.00209003 0.000333579 1.02928e-06
0.000333579 0.00020453 -1.4087e-06
1.02928e-06 -1.4087e-06 5.86476e-05
0.00197729 0.000271377 2.81434e-06
0.000271377 2.83237e-05 7.24265e-07
2.81434e-06 7.24265e-07 -5.0719e-05
0.000957539 -1.84278e-05 -1.21498e-05
-1.84278e-05 -0.000102254 5.58435e-07
-1.21498e-05 5.58435e-07 -0.000226338
0.00185771 -0.000102273 -2.68872e-05
-0.000102273 0.000450268 2.88722e-06
-2.68872e-05 2.88722e-06 0.000322231
0.00191977 -9.16981e-05 -2.17757e-06
-9.16981e-05 0.000208602 -4.15541e-07
-2.17757e-06 -4.15541e-07 9.97253e-05
0.00173538 -0.000209656 -2.61992e-06
-0.000209656 0.000123088 5.32855e-07
-2.61992e-06 5.32855e-07 -2.88486e-05
0.000536867 -0.00019224 -2.43471e-05
-0.00019224 -3.49178e-05 1.86602e-05
-2.43471e-05 1.86602e-05 -0.000141879
0.000828211 -0.000228985 -1.11151e-05
-0.000228985 6.69294e-05 7.78346e-06
-1.11151e-05 7.78346e-06 -0.000141925
0.00132216 -0.000409146 -5.1804e-06
-0.000409146 0.000166263 1.76077e-06
-5.1804e-06 1.76077e-06 -0.000125823
0.00184172 -0.000313785 -5.80815e-06
-0.000313785 0.000238323 1.15555e-06
-5.80815e-06 1.15555e-06 4.37223e-05
0.00205811 -0.000316887 7.54849e-08
-0.000316887 0.00019571 -1.51192e-06
7.54849e-08 -1.51192e-06 6.58263e-05
0.00192968 -0.000413804 -1.0275e-06
-0.000413804 0.000217987 -1.41373e-06
-1.0275e-06 -1.41373e-06 1.74832e-05
0.00210052 -0.000521283 -3.75493e-06
-0.000521283 0.000429947 -2.8618e-06
-3.75493e-06 -2.8618e-06 0.000148412
0.00190298 -0.000470873 2.37972e-06
-0.000470873 0.00018812 -2.86774e-06
2.37972e-06 -2.86774e-06 -2.03964e-05
0.000797623 -0.000189404 -4.60402e-06
-0.000189404 0.00015969 4.43119e-06
-4.60402e-06 4.43119e-06 -6.51623e-05
-8.93756e-05 -0.000127634 -1.70648e-07
-0.000127634 -0.000375527 -1.19222e-06
-1.70648e-07 -1.19222e-06 -0.00063926
0.00080766 -0.000139272 -3.54117e-07
-0.000139272 0.000195781 3.79987e-06
-3.54117e-07 3.79987e-06 1.37095e-05
0.00177208 -4.17225e-05 -5.17503e-07
-4.17225e-05 0.000113789 6.52081e-08
-5.17503e-07 6.52081e-08 4.76043e-06
0.00185746 -0.000157809 -3.05785e-06
-0.000157809 0.000179521 5.01438e-07
-3.05785e-06 5.01438e-07 5.48306e-05
0.00193857 -0.000116888 2.98401e-06
-0.000116888 7.00458e-05 -4.24152e-07
2.98401e-06 -4.24152e-07 2.01252e-06
0.00189123 -0.000245135 -1.33793e-06
-0.000245135 7.27306e-05 5.79702e-07
-1.33793e-06 5.79702e-07 -3.78679e-05
0.000744254 -0.000230686 7.64097e-07
-0.000230686 7.67389e-05 -4.11141e-07
7.64097e-07 -4.11141e-07 -0.000138838
0.00119855 -0.000370727 -1.45052e-06
-0.000370727 0.000196261 -2.57833e-07
-1.45052e-06 -2.57833e-07 -8.98183e-05
0.00168805 -0.000549551 1.28644e-06
-0.000549551 0.000292178 4.08306e-07
1.28644e-06 4.08306e-07 -4.82065e-05
0.00181222 -0.000365312 -1.34534e-06
-0.000365312 0.000100522 1.00752e-06
-1.34534e-06 1.00752e-06 -7.01062e-05
0.00206031 -0.000338389 1.2089e-06
-0.000338389 0.000151265 -4.65212e-07
1.2089e-06 -4.65212e-07 4.70588e-05
0.00203138 -0.000544808 -3.46517e-07
-0.000544808 0.000325821 5.26254e-07
-3.46517e-07 5.26254e-07 5.35355e-05
0.0019349 -0.000442567 -1.04605e-07
-0.000442567 0.000161607 5.82822e-07
-1.04605e-07 5.82822e-07 -1.35467e-05
0.00216612 -0.000493556 1.4788e-06
-0.000493556 0.000352109 -6.1139e-07
1.4788e-06 -6.1139e-07 0.00016097
0.00106125 -0.000276355 -1.41958e-08
-0.000276355 0.000244008 8.46226e-07
-1.41958e-08 8.46226e-07 -3.26751e-06
0.00122762 -0.000320649 -1.22135e-06
-0.000320649 0.000368502 3.27042e-07
-1.22135e-06 3.27042e-07 8.17057e-05
0.000666625 -0.000105483 -3.43026e-07
-0.000105483 0.000119754 -6.04411e-08
-3.43026e-07 -6.04411e-08 -2.61929e-05
5.23528e-05 -9.06913e-05 3.29224e-07
-9.06913e-05 -0.000215787 -1.84933e-06
3.29224e-07 -1.84933e-06 -0.000484162
0.0019446 -6.16732e-05 2.93647e-06
-6.16732e-05 7.45512e-05 -1.73014e-07
2.93647e-06 -1.73014e-07 1.65446e-05
0.00183714 -0.000184569 2.48744e-06
-0.000184569 1.15578e-05 -2.60042e-07
2.48744e-06 -2.60042e-07 -7.88556e-05
0.0018758 -0.000113704 6.98695e-06
-0.000113704 -1.14487e-06 -8.4205e-07
6.98695e-06 -8.4205e-07 -3.42797e-05
0.00206514 -0.000280161 1.06263e-06
-0.000280161 9.51887e-05 -5.35145e-07
1.06263e-06 -5.35145e-07 3.13909e-05
0.00184066 -0.000391183 -1.36956e-06
-0.000391183 6.13232e-05 7.22036e-07
-1.36956e-06 7.22036e-07 -7.90277e-05
0.00204426 -0.000349468 4.66697e-06
-0.000349468 0.000105991 -1.34208e-06
4.66697e-06 -1.34208e-06 2.42574e-05
0.00130651 -0.000334494 5.10746e-06
-0.000334494 0.000338612 -5.09585e-06
5.10746e-06 -5.09585e-06 7.73894e-05
0.00188196 -0.000460054 -2.66492e-06
-0.000460054 0.000116879 3.26981e-07
-2.66492e-06 3.26981e-07 -4.02357e-05
0.00144713 -0.000527142 2.81609e-06
-0.000527142 0.000287857 5.51167e-07
2.81609e-06 5.51167e-07 -7.21701e-05
0.00190429 -0.000620707 3.95508e-06
-0.000620707 0.00036121 2.06176e-06
3.95508e-06 2.06176e-06 7.7526e-06
0.00198667 -0.000554027 2.00771e-06
-0.000554027 0.000252869 4.32275e-06
2.00771e-06 4.32275e-06 -1.06859e-05
0.00225743 -0.000515631 -4.35826e-06
-0.000515631 0.000383494 -1.79073e-06
-4.35826e-06 -1.79073e-06 0.000187318
0.000557471 -8.17413e-05 -1.05878e-06
-8.17413e-05 5.78553e-05 -5.97621e-06
-1.05878e-06 -5.97621e-06 -6.11365e-05
0.000262479 -0.000112366 -3.783e-06
-0.000112366 -5.22996e-05 -1.5439e-06
-3.783e-06 -1.5439e-06 -0.00030466
0.00127527 -0.000354933 2.16263e-06
-0.000354933 0.000328891 -2.06071e-06
2.16263e-06 -2.06071e-06 5.0085e-05
0.00106811 -0.000240035 -3.7647e-06
-0.000240035 0.000377187 3.98914e-06
-3.7647e-06 3.98914e-06 9.12229e-05
0.00219873 -0.000451227 -9.24728e-06
-0.000451227 0.000958831 1.49925e-06
-9.24728e-06 1.49925e-06 0.000629847
0.00034396 -5.21372e-05 -5.0446e-07
-5.21372e-05 -9.38595e-05 -7.8521e-06
-5.0446e-07 -7.8521e-06 -0.00013551
0.00175934 0.000324015 -3.68589e-06
0.000324015 0.000144843 -5.00111e-07
-3.68589e-06 -5.00111e-07 -5.11296e-05
0.00031507 1.22497e-05 1.05022e-08
1.22497e-05 -0.000111588 -5.9025e-06
1.05022e-08 -5.9025e-06 -0.000229991
0.000501694 0.000179208 -5.06833e-06
0.000179208 -1.21135e-05 -3.5513e-06
-5.06833e-06 -3.5513e-06 -0.000218348
0.000570298 0.000140378 9.81321e-07
0.000140378 8.40408e-05 -3.792e-07
9.81321e-07 -3.792e-07 -0.000171142
0.00161826 0.000395948 -4.71635e-06
0.000395948 0.000186304 -4.73266e-07
-4.71635e-06 -4.73266e-07 -6.24035e-05
0.00193201 0.000432936 2.18703e-07
0.000432936 0.000210922 1.29033e-06
2.18703e-07 1.29033e-06 -5.28938e-06
0.00130587 0.000316336 -4.00335e-06
0.000316336 0.000344868 -2.8778e-06
-4.00335e-06 -2.8778e-06 9.41214e-05
0.00131043 0.000455777 1.07401e-07
0.000455777 0.000190673 7.49253e-07
1.07401e-07 7.49253e-07 -0.000141844
0.0018762 0.00050663 6.58807e-07
0.00050663 0.000335923 2.13965e-06
6.58807e-07 2.13965e-06 5.50738e-05
0.00183998 0.000517283 1.1048e-06
0.000517283 0.000327907 7.02402e-06
1.1048e-06 7.02402e-06 4.17331e-05
0.000475729 -3.19112e-05 -4.01642e-07
-3.19112e-05 -3.10933e-05 1.55694e-07
-4.01642e-07 1.55694e-07 -6.11729e-05
0.000611865 1.85499e-05 -4.81118e-07
1.85499e-05 7.24176e-05 4.78754e-07
-4.81118e-07 4.78754e-07 -2.27138e-05
0.00100123 0.000257964 5.95213e-07
0.000257964 0.000237443 7.45797e-07
5.95213e-07 7.45797e-07 3.51156e-06
0.000695564 7.89722e-05 -7.82129e-07
7.89722e-05 0.000182694 -4.81913e-07
-7.82129e-07 -4.81913e-07 -3.41625e-05
0.000839329 0.000234546 -9.21924e-08
0.000234546 0.00016808 5.58283e-07
-9.21924e-08 5.58283e-07 -6.61183e-05
0.00201978 0.000391531 -1.29577e-06
0.000391531 0.000198094 -1.6013e-06
-1.29577e-06 -1.6013e-06 1.67495e-05
0.00191676 0.000487829 5.47849e-07
0.000487829 0.000266906 1.89936e-07
5.47849e-07 1.89936e-07 1.28361e-05
0.00194551 0.000474983 1.65436e-06
0.000474983 0.0001939 2.30921e-07
1.65436e-06 2.30921e-07 -1.59389e-05
0.00133437 0.000409145 2.00083e-06
0.000409145 0.000325078 1.03657e-06
2.00083e-06 1.03657e-06 1.16928e-05
0.00205451 0.000578226 1.98769e-06
0.000578226 0.000368888 2.03184e-07
1.98769e-06 2.03184e-07 8.21325e-05
0.00188162 0.000555339 -3.00305e-06
0.000555339 0.000487556 -1.81645e-07
-3.00305e-06 -1.81645e-07 0.000147524
0.000657122 2.71987e-05 1.60044e-06
2.71987e-05 9.4737e-05 4.24735e-06
1.60044e-06 4.24735e-06 1.45764e-05
0.00136958 0.000150124 8.88324e-07
0.000150124 0.000583899 3.07179e-06
8.88324e-07 3.07179e-06 0.000416968
0.000943909 0.000309674 -3.20325e-06
0.000309674 0.000128153 2.5023e-06
-3.20325e-06 2.5023e-06 -0.000122111
0.00147598 0.000172757 -1.34005e-06
0.000172757 0.000672694 -1.89711e-06
-1.34005e-06 -1.89711e-06 0.000410724
0.00158307 0.00028799 -5.27016e-06
0.00028799 0.000540783 3.63603e-07
-5.27016e-06 3.63603e-07 0.000335429
0.00201324 0.0004091 -3.58296e-06
0.0004091 0.000172342 -2.66234e-06
-3.58296e-06 -2.66234e-06 7.24431e-06
0.00200683 0.000542106 -3.60121e-07
0.000542106 0.000283306 1.69559e-08
-3.60121e-07 1.69559e-08 2.92516e-05
0.00179893 0.000513435 6.22517e-06
0.000513435 6.53776e-05 -1.12228e-07
6.22517e-06 -1.12228e-07 -0.000147843
0.00111008 0.000458211 6.39117e-06
0.000458211 0.000201749 -1.04422e-06
6.39117e-06 -1.04422e-06 -0.000155329
0.00151607 0.000551236 9.95047e-06
0.000551236 0.000164302 -3.38143e-07
9.95047e-06 -3.38143e-07 -0.000146978
0.000577347 2.4208e-05 -3.2018e-07
2.4208e-05 4.26415e-05 1.52092e-07
-3.2018e-07 1.52092e-07 -2.71725e-05
0.00041642 5.07126e-05 6.57375e-07
5.07126e-05 -3.23239e-05 2.43829e-06
6.57375e-07 2.43829e-06 -0.000140282
0.000421977 4.69428e-05 -5.98238e-07
4.69428e-05 -2.94828e-05 -2.38175e-07
-5.98238e-07 -2.38175e-07 -0.000130966
0.000962821 0.00013719 -1.07375e-06
0.00013719 0.000322237 -8.88834e-07
-1.07375e-06 -8.88834e-07 0.00019214
0.000668311 0.000103919 1.92615e-06
0.000103919 0.000139089 2.39754e-06
1.92615e-06 2.39754e-06 2.86041e-05
0.000544572 5.53918e-05 2.79827e-06
5.53918e-05 3.64463e-05 3.34897e-06
2.79827e-06 3.34897e-06 -2.75415e-05
0.00054036 9.20319e-06 -6.55112e-07
9.20319e-06 2.80443e-05 -2.60629e-08
-6.55112e-07 -2.60629e-08 -3.5836e-05
0.00125066 -2.81805e-05 8.9981e-07
-2.81805e-05 0.000439359 3.25057e-06
8.9981e-07 3.25057e-06 0.000422921
0.000556174 1.51059e-05 -1.82876e-06
1.51059e-05 2.9032e-05 -3.64784e-06
-1.82876e-06 -3.64784e-06 -3.45174e-05
0.00131001 -3.8485e-05 -7.25306e-06
-3.8485e-05 0.000477802 -1.50817e-06
-7.25306e-06 -1.50817e-06 0.000459654
0.000812318 -3.85971e-05 2.97093e-05
-3.85971e-05 0.000169737 8.58703e-06
2.97093e-05 8.58703e-06 0.000173129
0.00132777 -4.68098e-05 -1.23961e-05
-4.68098e-05 0.000494141 -4.95719e-06
-1.23961e-05 -4.95719e-06 0.000472999
0.00166716 -7.49979e-05 2.83311e-05
-7.49979e-05 0.000714108 1.58362e-06
2.83311e-05 1.58362e-06 0.000716006
0.00256891 -0.000114893 -3.5114e-05
-0.000114893 0.00128677 -3.99275e-06
-3.5114e-05 -3.99275e-06 0.00128778
0.000301594 8.25956e-05 -6.11844e-06
8.25956e-05 -9.35294e-05 -8.38035e-06
-6.11844e-06 -8.38035e-06 -0.000145931
0.000469624 -1.9579e-05 5.74141e-07
-1.9579e-05 -1.26416e-05 6.34029e-07
5.74141e-07 6.34029e-07 -6.84866e-05
0.00331219 0.000176234 9.11911e-06
0.000176234 0.0017754 -6.58929e-06
9.11911e-06 -6.58929e-06 0.00175676
0.00421518 0.000125128 -1.24599e-05
0.000125128 0.00233687 -1.08129e-06
-1.24599e-05 -1.08129e-06 0.00233008
0.000616869 -7.5706e-05 -1.27385e-05
-7.5706e-05 5.78998e-05 1.24935e-05
-1.27385e-05 1.24935e-05 -9.96217e-06
0.00504471 0.000123449 -0.000169753
0.000123449 0.00285583 1.73283e-05
-0.000169753 1.73283e-05 0.00284577
0.00179754 0.000273769 -2.54659e-06
0.000273769 0.0001305 5.71953e-07
-2.54659e-06 5.71953e-07 -3.86821e-05
0.00173061 0.000151822 -3.31846e-07
0.000151822 6.88314e-05 6.55751e-07
-3.31846e-07 6.55751e-07 -5.74064e-05
0.00192643 0.000247593 -2.02586e-06
0.000247593 7.59595e-05 1.46395e-06
-2.02586e-06 1.46395e-06 -3.4931e-05
0.00194739 0.000123329 -2.31437e-06
0.000123329 5.18832e-05 2.53716e-07
-2.31437e-06 2.53716e-07 -6.58828e-06
0.00173233 4.89922e-05 2.48205e-07
4.89922e-05 7.81804e-05 4.54189e-07
2.48205e-07 4.54189e-07 -2.81439e-05
0.00103384 5.19089e-06 -1.16546e-05
5.19089e-06 -5.2863e-05 -1.14334e-07
-1.16546e-05 -1.14334e-07 -0.000179419
0.001715 2.69414e-06 5.84894e-08
2.69414e-06 7.09246e-05 1.80337e-07
5.84894e-08 1.80337e-07 -3.3663e-05
0.00189314 5.11282e-05 -7.38127e-07
5.11282e-05 3.2716e-05 -4.63064e-09
-7.38127e-07 -4.63064e-09 -1.77923e-05
0.00194677 0.00018525 -6.07935e-07
0.00018525 6.90581e-05 2.52755e-07
-6.07935e-07 2.52755e-07 -1.42358e-05
0.00195737 0.000117655 6.33543e-07
0.000117655 1.82675e-05 1.42791e-07
6.33543e-07 1.42791e-07 -8.18994e-06
0.00203663 0.000333087 -4.28828e-07
0.000333087 0.000164607 -1.71252e-07
-4.28828e-07 -1.71252e-07 1.84207e-05
0.00198732 0.000266549 4.86112e-08
0.000266549 3.39806e-05 3.94608e-07
4.86112e-08 3.94608e-07 -4.14006e-05
0.00190218 -5.36239e-06 2.56359e-06
-5.36239e-06 4.4107e-05 -7.15962e-08
2.56359e-06 -7.15962e-08 -7.67322e-06
0.00194312 5.02299e-05 6.41851e-06
5.02299e-05 3.1737e-05 2.77962e-07
6.41851e-06 2.77962e-07 1.03752e-05
0.00201538 0.000190023 3.43777e-06
0.000190023 3.9739e-05 4.1587e-07
3.43777e-06 4.1587e-07 -2.67406e-07
0.00205266 0.000116572 4.20159e-06
0.000116572 4.0655e-05 6.13242e-07
4.20159e-06 6.13242e-07 3.54088e-05
0.00195248 0.000327645 1.31693e-06
0.000327645 7.27093e-05 -6.86321e-07
1.31693e-06 -6.86321e-07 -4.76738e-05
0.00215349 0.000275019 3.67406e-06
0.000275019 8.52479e-05 1.26479e-06
3.67406e-06 1.26479e-06 3.82489e-05
0.0017608 -3.90487e-05 -9.61191e-07
-3.90487e-05 0.000105198 -3.24346e-07
-9.61191e-07 -3.24346e-07 -1.59369e-06
0.00185098 -0.000163011 -3.53075e-06
-0.000163011 0.00017306 -2.33792e-08
-3.53075e-06 -2.33792e-08 4.74479e-05
0.00198272 -0.000116318 1.04035e-07
-0.000116318 9.60428e-05 -6.57427e-07
1.04035e-07 -6.57427e-07 3.42883e-05
0.00187939 -0.000240466 -1.96215e-06
-0.000240466 6.51913e-05 5.28277e-08
-1.96215e-06 5.28277e-08 -4.79353e-05
0.000825097 -0.000230729 -8.81379e-06
-0.000230729 0.000124768 7.6515e-06
-8.81379e-06 7.6515e-06 -9.16803e-05
0.00118722 -0.00037328 -7.66486e-06
-0.00037328 0.000179532 3.28743e-06
-7.66486e-06 3.28743e-06 -0.000106954
0.00155142 -0.000529972 -2.22911e-07
-0.000529972 0.000224985 -7.08112e-07
-2.22911e-07 -7.08112e-07 -0.00011366
0.00179933 -0.000362698 -1.45337e-06
-0.000362698 9.67675e-05 -1.72579e-07
-1.45337e-06 -1.72579e-07 -7.89295e-05
0.00198261 -0.000335334 -5.72138e-07
-0.000335334 9.65475e-05 1.29741e-07
-5.72138e-07 1.29741e-07 -3.53515e-06
0.00198871 -0.000445012 5.8569e-07
-0.000445012 0.000196887 -6.92912e-07
5.8569e-07 -6.92912e-07 2.1255e-05
0.00192599 -0.000546394 -2.63344e-06
-0.000546394 0.000251064 -3.03195e-06
-2.63344e-06 -3.03195e-06 -2.44247e-05
0.00205326 -0.000480776 6.51492e-06
-0.000480776 0.000278367 -4.63011e-06
6.51492e-06 -4.63011e-06 9.23962e-05
0.000838387 -0.000251943 -1.60276e-06
-0.000251943 0.000116903 2.10042e-06
-1.60276e-06 2.10042e-06 -0.000132562
-5.53351e-05 -0.000181338 -3.37138e-07
-0.000181338 -0.000436788 1.85819e-06
-3.37138e-07 1.85819e-06 -0.000701275
0.000835023 -0.000120806 -5.03374e-07
-0.000120806 0.000219359 5.67721e-06
-5.03374e-07 5.67721e-06 6.96279e-05
0.000193511 -6.32355e-05 3.11118e-06
-6.32355e-05 -0.000147699 -2.8111e-06
3.11118e-06 -2.8111e-06 -0.000394769
0.00193575 -6.11351e-05 -5.70648e-08
-6.11351e-05 7.15186e-05 2.12308e-07
-5.70648e-08 2.12308e-07 1.33658e-05
0.00186657 -0.000184748 2.51497e-06
-0.000184748 3.45731e-05 -8.08417e-07
2.51497e-06 -8.08417e-07 -5.67531e-05
0.00191343 -0.000114424 1.20707e-06
-0.000114424 1.79121e-05 -3.78241e-07
1.20707e-06 -3.78241e-07 -1.37331e-05
0.00201427 -0.000275879 -1.29515e-06
-0.000275879 7.0973e-05 2.2051e-07
-1.29515e-06 2.2051e-07 3.58506e-06
0.00108962 -0.000304678 -2.02264e-06
-0.000304678 0.000196188 4.73411e-07
-2.02264e-06 4.73411e-07 -5.81196e-05
0.00139521 -0.000511012 2.67963e-06
-0.000511012 0.000270217 -8.59633e-07
2.67963e-06 -8.59633e-07 -8.48268e-05
0.0018169 -0.000621018 -1.50086e-07
-0.000621018 0.000303239 4.47977e-07
-1.50086e-07 4.47977e-07 -5.45612e-05
0.00186758 -0.000390175 -1.35519e-06
-0.000390175 8.59499e-05 7.04842e-07
-1.35519e-06 7.04842e-07 -5.79513e-05
0.00199786 -0.00034987 1.28687e-06
-0.00034987 7.88745e-05 -2.7956e-07
1.28687e-06 -2.7956e-07 -4.08676e-07
0.00195109 -0.000554863 -1.57397e-07
-0.000554863 0.000250239 4.68775e-07
-1.57397e-07 4.68775e-07 -1.51709e-05
0.00185757 -0.000460196 -9.61729e-07
-0.000460196 9.39244e-05 1.04881e-06
-9.61729e-07 1.04881e-06 -6.43608e-05
0.00211167 -0.000500497 3.79713e-06
-0.000500497 0.000290483 -5.14082e-06
3.79713e-06 -5.14082e-06 0.000101297
0.00116953 -0.000343733 9.03862e-08
-0.000343733 0.000264847 1.09431e-06
9.03862e-08 1.09431e-06 -1.21926e-05
0.00163024 -0.000384801 2.21725e-06
-0.000384801 0.000590159 1.25623e-06
2.21725e-06 1.25623e-06 0.000277673
0.00100798 -0.000225221 -2.38219e-07
-0.000225221 0.000338108 3.31891e-07
-2.38219e-07 3.31891e-07 5.1627e-05
0.000353992 -4.99508e-05 -2.16288e-06
-4.99508e-05 -6.94406e-05 6.97898e-07
-2.16288e-06 6.97898e-07 -0.000188599
0.000114321 -6.14514e-05 -5.00462e-07
-6.14514e-05 -0.000158229 -7.15797e-07
-5.00462e-07 -7.15797e-07 -0.000393022
0.00188596 -6.18941e-05 5.68834e-06
-6.18941e-05 -7.05042e-06 -2.47234e-07
5.68834e-06 -2.47234e-07 -2.53289e-05
0.00197764 -0.000172368 4.86812e-06
-0.000172368 3.14155e-05 -8.36724e-07
4.86812e-06 -8.36724e-07 -4.02683e-07
0.00205087 -0.000323216 1.67838e-06
-0.000323216 2.85977e-05 -2.43191e-07
1.67838e-06 -2.43191e-07 -1.12275e-05
0.00198787 -0.000402129 2.10361e-06
-0.000402129 0.000100222 -1.67523e-06
2.10361e-06 -1.67523e-06 1.44347e-06
0.00160274 -0.000445969 2.18522e-06
-0.000445969 0.000508533 -3.99841e-06
2.18522e-06 -3.99841e-06 0.000181955
0.00218239 -0.000555156 -1.03806e-06
-0.000555156 0.00020728 -4.00644e-06
-1.03806e-06 -4.00644e-06 3.18988e-05
0.00122924 -0.000577547 -4.59684e-06
-0.000577547 0.000144829 2.85752e-06
-4.59684e-06 2.85752e-06 -0.000244524
0.00193858 -0.00068364 3.95577e-06
-0.00068364 0.000334982 3.84289e-07
3.95577e-06 3.84289e-07 -3.74007e-05
0.0018398 -0.000530601 -6.19582e-06
-0.000530601 0.0001706 1.2676e-06
-6.19582e-06 1.2676e-06 -8.15715e-05
6.82128e-06 -1.08925e-05 -2.37587e-06
-1.08925e-05 -0.000277192 -5.33135e-06
-2.37587e-06 -5.33135e-06 -0.000371343
0.000737575 -0.000123502 -2.29136e-06
-0.000123502 0.000232271 1.66801e-08
-2.29136e-06 1.66801e-08 2.95885e-05
0.00103216 -0.000175078 -2.09759e-06
-0.000175078 0.000408904 -2.71543e-06
-2.09759e-06 -2.71543e-06 0.000146359
0.0017169 -0.000440316 -6.42709e-06
-0.000440316 0.000589567 -3.28769e-07
-6.42709e-06 -3.28769e-07 0.000264327
0.000721313 -0.000199356 -1.91245e-07
-0.000199356 0.000111018 5.2648e-06
-1.91245e-07 5.2648e-06 -0.000180965
0.00146691 -0.000405201 -5.18799e-06
-0.000405201 0.000460504 6.74826e-06
-5.18799e-06 6.74826e-06 0.000128981
0.000448979 -3.26657e-05 -1.52814e-06
-3.26657e-05 -4.75521e-05 -6.55472e-06
-1.52814e-06 -6.55472e-06 -7.73915e-05
0.000527759 1.08723e-05 -1.13469e-06
1.08723e-05 2.46408e-05 -4.97197e-06
-1.13469e-06 -4.97197e-06 -7.05616e-05
0.00199313 0.000390565 -2.48218e-06
0.000390565 0.00018144 -4.86334e-07
-2.48218e-06 -4.86334e-07 1.38329e-08
-0.000319416 -1.17998e-05 4.69344e-07
-1.17998e-05 -0.000440772 -2.40258e-06
4.69344e-07 -2.40258e-06 -0.000649105
0.00119261 0.000271553 -3.01048e-06
0.000271553 0.000355806 -9.65038e-07
-3.01048e-06 -9.65038e-07 0.000124498
0.000552817 0.000180502 2.63102e-06
0.000180502 -2.95387e-05 4.76887e-07
2.63102e-06 4.76887e-07 -0.000238765
0.00187473 0.000483892 5.91871e-07
0.000483892 0.000243448 1.04252e-06
5.91871e-07 1.04252e-06 -9.99023e-06
0.00188888 0.000471754 1.4784e-06
0.000471754 0.000162463 7.21091e-07
1.4784e-06 7.21091e-07 -4.73652e-05
0.00159348 0.00043208 3.11591e-07
0.00043208 0.000497807 -1.03065e-06
3.11591e-07 -1.03065e-06 0.000177758
0.00211103 0.000571206 -4.40381e-06
0.000571206 0.000634207 1.53515e-06
-4.40381e-06 1.53515e-06 0.000295739
0.00190023 0.000561553 -5.08607e-07
0.000561553 0.00026168 1.21659e-06
-5.08607e-07 1.21659e-06 -2.37409e-05
0.000588964 2.61146e-05 -3.8926e-07
2.61146e-05 5.47906e-05 4.51343e-07
-3.8926e-07 4.51343e-07 -2.52456e-05
0.000740944 7.18963e-05 -7.8419e-07
7.18963e-05 0.00018789 2.69931e-07
-7.8419e-07 2.69931e-07 3.75963e-05
0.0011551 0.000329369 1.68702e-07
0.000329369 0.000259557 7.41136e-08
1.68702e-07 7.41136e-08 7.99571e-06
0.000957629 0.000122417 1.02125e-06
0.000122417 0.000345214 6.50327e-07
1.02125e-06 6.50327e-07 9.38718e-05
0.000721843 0.000229063 2.08068e-06
0.000229063 1.63753e-05 6.01766e-07
2.08068e-06 6.01766e-07 -0.000180023
0.00196225 0.000409076 -2.34131e-06
0.000409076 0.000143306 -1.70633e-06
-2.34131e-06 -1.70633e-06 -2.25476e-05
0.00199962 0.000540525 1.82624e-06
0.000540525 0.000278629 6.57148e-07
1.82624e-06 6.57148e-07 2.47759e-05
0.00188344 0.0005144 5.09493e-07
0.0005144 0.000116573 -8.66967e-08
5.09493e-07 -8.66967e-08 -9.55682e-05
0.00126307 0.000484571 2.61294e-06
0.000484571 0.00028007 2.46242e-06
2.61294e-06 2.46242e-06 -7.88032e-05
0.00171232 0.000574212 -2.42795e-06
0.000574212 0.000295106 -1.92892e-06
-2.42795e-06 -1.92892e-06 -2.35245e-05
0.000944834 8.95796e-05 8.29537e-07
8.95796e-05 0.000308315 2.77266e-06
8.29537e-07 2.77266e-06 0.000180113
-0.000119121 -4.7475e-06 -2.06137e-06
-4.7475e-06 -0.000290162 2.20319e-06
-2.06137e-06 2.20319e-06 -0.000495504
0.00131 0.000386178 -2.30629e-06
0.000386178 0.000330814 -1.6001e-06
-2.30629e-06 -1.6001e-06 4.23735e-05
-0.000647019 0.000101852 3.11255e-06
0.000101852 -0.000692111 3.1406e-08
3.11255e-06 3.1406e-08 -0.000913553
0.00226215 0.000389439 -2.81225e-06
0.000389439 0.000871113 -1.74324e-06
-2.81225e-06 -1.74324e-06 0.000644466
0.00192139 0.00044355 6.91526e-07
0.00044355 3.96058e-05 -1.08332e-06
6.91526e-07 -1.08332e-06 -0.000107514
0.00207912 0.000599174 6.65496e-06
0.000599174 0.000300441 -1.45113e-06
6.65496e-06 -1.45113e-06 2.40138e-05
0.00184056 0.000540599 6.0896e-06
0.000540599 7.29926e-05 1.11904e-06
6.0896e-06 1.11904e-06 -0.000153189
0.001125 0.000491376 8.57483e-06
0.000491376 0.000157869 1.91052e-06
8.57483e-06 1.91052e-06 -0.000203293
0.00195728 0.00064889 3.89321e-07
0.00064889 0.000444538 -1.9459e-07
3.89321e-07 -1.9459e-07 0.000102063
0.000540411 1.56918e-05 -2.07241e-06
1.56918e-05 1.86513e-05 -3.8204e-06
-2.07241e-06 -3.8204e-06 -5.01479e-05
0.000543861 5.99149e-05 1.27938e-06
5.99149e-05 4.95259e-05 4.6849e-07
1.27938e-06 4.6849e-07 -6.02671e-05
0.000330119 4.64411e-05 -3.67315e-07
4.64411e-05 -9.13884e-05 1.31579e-06
-3.67315e-07 1.31579e-06 -0.000197816
0.000238369 -2.10131e-05 -3.59619e-07
-2.10131e-05 -0.00013811 -2.62368e-06
-3.59619e-07 -2.62368e-06 -0.000240838
0.000605575 5.75835e-05 -3.67766e-07
5.75835e-05 9.96204e-05 3.60579e-08
-3.67766e-07 3.60579e-08 -8.63528e-06
0.000602691 8.42682e-05 -7.38157e-07
8.42682e-05 8.7053e-05 -1.05169e-07
-7.38157e-07 -1.05169e-07 -2.73721e-05
0.000752887 0.000122665 -3.15228e-06
0.000122665 0.000197455 -3.53585e-06
-3.15228e-06 -3.53585e-06 7.83032e-05
0.000327904 7.48953e-06 -2.04517e-07
7.48953e-06 -6.53734e-05 -1.33941e-07
-2.04517e-07 -1.33941e-07 -0.000190568
0.000673624 9.07652e-05 1.04991e-06
9.07652e-05 0.000134179 2.60536e-06
1.04991e-06 2.60536e-06 3.32036e-05
0.000574079 6.41381e-05 3.40916e-06
6.41381e-05 5.83302e-05 3.37741e-06
3.40916e-06 3.37741e-06 -8.02695e-06
0.000537816 1.81201e-05 -2.21425e-06
1.81201e-05 3.05544e-05 1.16901e-09
-2.21425e-06 1.16901e-09 -3.24218e-05
0.00122883 -1.34156e-05 1.25321e-06
-1.34156e-05 0.00042775 2.97362e-06
1.25321e-06 2.97362e-06 0.000412781
0.000461235 -6.04837e-05 1.43575e-06
-6.04837e-05 -1.45937e-05 -3.47329e-06
1.43575e-06 -3.47329e-06 -8.19901e-05
0.00129219 -2.37106e-05 -6.37666e-06
-2.37106e-05 0.000464743 -1.57337e-06
-6.37666e-06 -1.57337e-06 0.00044913
0.000780599 -2.8849e-05 2.58347e-05
-2.8849e-05 0.000146662 8.8185e-06
2.58347e-05 8.8185e-06 0.000152051
0.00133843 -3.55124e-05 -1.10511e-05
-3.55124e-05 0.000494966 -6.59272e-06
-1.10511e-05 -6.59272e-06 0.000477448
0.000768402 -4.17829e-05 1.00143e-05
-4.17829e-05 0.000142194 3.26948e-06
1.00143e-05 3.26948e-06 0.000143987
0.00244748 -0.000108142 -2.50219e-06
-0.000108142 0.00120301 -2.57865e-06
-2.50219e-06 -2.57865e-06 0.00120516
0.000354629 5.80221e-05 -3.37632e-06
5.80221e-05 -8.31255e-05 -5.23706e-06
-3.37632e-06 -5.23706e-06 -0.000115895
0.000416648 2.12795e-05 -3.31397e-06
2.12795e-05 -4.14072e-05 3.73692e-08
-3.31397e-06 3.73692e-08 -8.43109e-05
0.00281811 0.000137927 1.27235e-05
0.000137927 0.00145888 -5.10194e-06
1.27235e-05 -5.10194e-06 0.00145111
0.000580584 -4.98877e-05 -8.54322e-06
-4.98877e-05 4.6546e-05 1.07225e-05
-8.54322e-06 1.07225e-05 -6.13536e-06
0.0035263 0.000133415 -3.17796e-05
0.000133415 0.0019002 -4.61959e-07
-3.17796e-05 -4.61959e-07 0.00189252
0.00434126 9.87975e-05 -0.000147912
9.87975e-05 0.00240843 1.35253e-05
-0.000147912 1.35253e-05 0.00240715
0.00198212 0.000332361 -2.48081e-06
0.000332361 0.000124412 1.07291e-06
-2.48081e-06 1.07291e-06 -2.20324e-05
0.00197366 0.000183327 -1.82395e-06
0.000183327 8.80277e-05 1.01525e-06
-1.82395e-06 1.01525e-06 5.08685e-06
0.00198959 0.000260866 -1.5679e-06
0.000260866 3.50887e-05 7.71595e-07
-1.5679e-06 7.71595e-07 -3.66306e-05
0.0019059 0.000115076 -3.86957e-06
0.000115076 -2.06212e-05 -3.51352e-07
-3.86957e-06 -3.51352e-07 -4.16185e-05
0.00188379 4.46802e-05 -3.56282e-06
4.46802e-05 2.84489e-05 4.08873e-08
-3.56282e-06 4.08873e-08 -2.26944e-05
0.00172845 5.50094e-06 2.91292e-07
5.50094e-06 7.9911e-05 1.44509e-07
2.91292e-07 1.44509e-07 -2.46444e-05
0.00190297 -5.29917e-06 -4.19001e-07
-5.29917e-06 4.81737e-05 -1.06595e-08
-4.19001e-07 -1.06595e-08 -5.00734e-06
0.00196356 5.07398e-05 1.3228e-06
5.07398e-05 4.9148e-05 2.91898e-08
1.3228e-06 2.91898e-08 2.43016e-05
0.00201991 0.00018847 -1.97373e-08
0.00018847 4.55138e-05 -6.59214e-08
-1.97373e-08 -6.59214e-08 4.51823e-06
0.00200818 0.000117133 7.25782e-07
0.000117133 8.76022e-06 2.24888e-07
7.25782e-07 2.24888e-07 7.51132e-06
0.00194785 0.000325687 -6.24411e-07
0.000325687 7.91749e-05 -6.33673e-09
-6.24411e-07 -6.33673e-09 -4.14748e-05
0.00209661 0.000276719 3.174e-06
0.000276719 4.6518e-05 5.58867e-07
3.174e-06 5.58867e-07 5.37847e-06
0.00191776 -1.02226e-05 5.83222e-06
-1.02226e-05 2.60684e-05 1.19826e-07
5.83222e-06 1.19826e-07 -4.62164e-07
0.00198984 5.54999e-05 2.48743e-06
5.54999e-05 -5.11489e-06 -7.49338e-08
2.48743e-06 -7.49338e-08 7.83475e-07
0.00207073 0.000185548 1.5167e-06
0.000185548 7.76646e-06 5.68758e-07
1.5167e-06 5.68758e-07 3.31667e-06
0.00209605 0.000363128 -2.29791e-07
0.000363128 6.04051e-05 7.42642e-07
-2.29791e-07 7.42642e-07 -7.68782e-06
0.00192388 -6.05223e-05 -3.4459e-06
-6.05223e-05 6.60542e-05 5.78363e-07
-3.4459e-06 5.78363e-07 7.74625e-06
0.00188902 -0.000185956 1.12954e-06
-0.000185956 5.29304e-05 -1.09242e-06
1.12954e-06 -1.09242e-06 -3.94466e-05
0.00195049 -0.000115069 -4.82004e-06
-0.000115069 3.72185e-05 5.19143e-07
-4.82004e-06 5.19143e-07 6.90117e-06
0.00197195 -0.000271903 -5.20978e-06
-0.000271903 5.1067e-05 1.24149e-06
-5.20978e-06 1.24149e-06 -1.99118e-05
0.000918342 -0.00028787 -5.30943e-06
-0.00028787 8.30341e-05 4.37438e-06
-5.30943e-06 4.37438e-06 -0.00016913
0.00136933 -0.000498103 -1.16646e-07
-0.000498103 0.000264841 -6.04115e-07
-1.16646e-07 -6.04115e-07 -8.51789e-05
0.00183819 -0.00063357 -2.51545e-06
-0.00063357 0.000311408 -1.48777e-06
-2.51545e-06 -1.48777e-06 -5.36655e-05
0.00188623 -0.000389185 -2.38742e-06
-0.000389185 0.0001052 4.0685e-07
-2.38742e-06 4.0685e-07 -4.25342e-05
0.00194574 -0.000350482 -1.25315e-06
-0.000350482 4.89185e-05 8.33622e-07
-1.25315e-06 8.33622e-07 -2.80582e-05
0.00184917 -0.000462117 8.40109e-07
-0.000462117 7.77387e-05 1.56631e-06
8.40109e-07 1.56631e-06 -8.19279e-05
0.00191263 -0.000549173 -2.14395e-06
-0.000549173 0.000242608 -2.68721e-06
-2.14395e-06 -2.68721e-06 -2.22429e-05
0.00200363 -0.000487177 7.85824e-06
-0.000487177 0.000210952 -6.4102e-06
7.85824e-06 -6.4102e-06 2.87174e-05
0.000973268 -0.00032419 -1.02846e-07
-0.00032419 0.000142551 2.59407e-06
-1.02846e-07 2.59407e-06 -0.000131189
0.00107832 -0.000325687 5.25312e-06
-0.000325687 0.000213353 1.1227e-06
5.25312e-06 1.1227e-06 -7.82292e-05
0.000649715 -0.000185702 3.69149e-06
-0.000185702 0.000121917 -4.63775e-06
3.69149e-06 -4.63775e-06 -0.000167325
0.000134363 -3.13728e-05 3.88099e-07
-3.13728e-05 -0.000205614 4.93383e-06
3.88099e-07 4.93383e-06 -0.000326366
8.43454e-05 -1.83075e-05 3.59988e-06
-1.83075e-05 -0.000186248 3.11498e-07
3.59988e-06 3.11498e-07 -0.000409507
0.0018893 -6.97933e-05 -1.28393e-07
-6.97933e-05 -8.8549e-06 -1.45619e-07
-1.28393e-07 -1.45619e-07 -2.85838e-05
0.00198968 -0.000172839 1.11372e-06
-0.000172839 3.7448e-05 -1.3846e-07
1.11372e-06 -1.3846e-07 4.80214e-06
0.00203923 -0.000317634 -7.06725e-07
-0.000317634 3.62844e-05 6.78037e-08
-7.06725e-07 6.78037e-08 -7.14137e-06
0.00131563 -0.000417921 -1.83339e-06
-0.000417921 0.000322731 -8.39445e-07
-1.83339e-06 -8.39445e-07 2.86275e-06
0.00138586 -0.000581871 2.87712e-06
-0.000581871 0.000237849 -9.85147e-07
2.87712e-06 -9.85147e-07 -0.000149571
0.00194726 -0.000687707 1.66558e-08
-0.000687707 0.000349491 -7.64499e-08
1.66558e-08 -7.64499e-08 -2.78945e-05
0.00194641 -0.000398393 1.55271e-07
-0.000398393 7.39879e-05 2.45692e-07
1.55271e-07 2.45692e-07 -2.61619e-05
0.00203923 -0.000560347 1.13919e-06
-0.000560347 0.000271903 -3.53069e-06
1.13919e-06 -3.53069e-06 1.98281e-05
0.00206452 -0.000536236 -1.08025e-06
-0.000536236 0.000167174 -4.74214e-07
-1.08025e-06 -4.74214e-07 -4.53896e-06
0.000143665 4.52494e-05 -1.66166e-06
4.52494e-05 -0.000201503 -7.76268e-07
-1.66166e-06 -7.76268e-07 -0.000289058
0.00125877 -0.000392381 -1.74626e-07
-0.000392381 0.000293414 -6.62754e-07
-1.74626e-07 -6.62754e-07 -1.89767e-05
0.00136245 -0.000396023 3.29272e-07
-0.000396023 0.000398569 2.3407e-06
3.29272e-07 2.3407e-06 7.36304e-05
0.00129824 -0.00028769 -4.97845e-07
-0.00028769 0.000482991 3.74003e-07
-4.97845e-07 3.74003e-07 0.000165895
0.00128434 -0.000173905 1.20285e-06
-0.000173905 0.000559841 -2.90132e-06
1.20285e-06 -2.90132e-06 0.000299408
0.000460696 -4.17073e-05 -7.80361e-07
-4.17073e-05 5.13027e-05 1.42449e-06
-7.80361e-07 1.42449e-06 -0.00014356
0.00198606 -8.78809e-05 3.27884e-06
-8.78809e-05 6.3151e-06 -3.10708e-08
3.27884e-06 -3.10708e-08 7.96873e-06
0.00210721 -0.000221573 1.15564e-06
-0.000221573 1.12385e-06 -7.3315e-08
1.15564e-06 -7.3315e-08 9.93388e-06
0.00210792 -0.000386047 1.44339e-06
-0.000386047 3.70462e-05 -2.73476e-07
1.44339e-06 -2.73476e-07 1.49335e-05
0.00216717 -0.000479508 2.663e-06
-0.000479508 0.000113002 -1.88493e-06
2.663e-06 -1.88493e-06 2.72123e-05
0.00159657 -0.000525714 -5.15045e-06
-0.000525714 0.00045885 2.70245e-07
-5.15045e-06 2.70245e-07 9.28339e-05
0.0020559 -0.000609565 3.44066e-06
-0.000609565 0.000202633 -2.63397e-06
3.44066e-06 -2.63397e-06 -2.15667e-05
0.00177208 -0.000692908 -1.40871e-05
-0.000692908 0.000431879 2.9619e-06
-1.40871e-05 2.9619e-06 -1.15345e-06
0.00230003 -0.00075318 -1.00649e-05
-0.00075318 0.000568713 3.74727e-07
-1.00649e-05 3.74727e-07 0.000169284
7.52511e-05 5.62526e-05 -4.61646e-06
5.62526e-05 -0.000248902 -2.26603e-06
-4.61646e-06 -2.26603e-06 -0.000315462
0.000689824 2.86875e-06 -2.03841e-06
2.86875e-06 0.000181474 -7.05358e-07
-2.03841e-06 -7.05358e-07 3.70037e-05
0.00142566 -0.000198375 -4.92429e-06
-0.000198375 0.000669786 1.52231e-06
-4.92429e-06 1.52231e-06 0.000432751
0.000876019 -8.04311e-05 -1.36842e-06
-8.04311e-05 0.000262389 -1.58572e-06
-1.36842e-06 -1.58572e-06 -1.49704e-05
0.00181142 -0.000506801 -3.45409e-06
-0.000506801 0.00060846 2.69469e-06
-3.45409e-06 2.69469e-06 0.000243762
0.00159488 -0.000411498 -1.05115e-05
-0.000411498 0.0005935 1.61817e-05
-1.05115e-05 1.61817e-05 0.000201182
0.000487072 1.66956e-05 -1.96536e-06
1.66956e-05 -7.70806e-06 -4.03456e-06
-1.96536e-06 -4.03456e-06 -8.64626e-05
0.000126729 1.62569e-05 1.28063e-06
1.62569e-05 -0.000209442 -1.97902e-06
1.28063e-06 -1.97902e-06 -0.000337739
0.00191591 0.000410007 -2.32981e-06
0.000410007 0.000115098 -8.65979e-07
-2.32981e-06 -8.65979e-07 -5.17138e-05
0.000222368 5.919e-05 2.89752e-07
5.919e-05 -0.000118341 1.94544e-07
2.89752e-07 1.94544e-07 -0.000354837
0.00141511 0.00035427 -2.12713e-06
0.00035427 0.000420732 -1.11582e-06
-2.12713e-06 -1.11582e-06 0.000167802
1.26286e-05 0.000136065 2.17369e-06
0.000136065 -0.000440926 4.16817e-06
2.17369e-06 4.16817e-06 -0.000607848
0.00199374 0.000539507 1.34269e-06
0.000539507 0.000272905 7.10865e-07
1.34269e-06 7.10865e-07 1.9096e-05
0.00196769 0.000515392 -5.96282e-06
0.000515392 0.000164643 3.03775e-07
-5.96282e-06 3.03775e-07 -4.64977e-05
0.00156665 0.000527163 -2.74481e-06
0.000527163 0.000450917 2.46091e-06
-2.74481e-06 2.46091e-06 8.57567e-05
0.00201564 0.000607632 -5.0325e-06
0.000607632 0.000490976 -1.17845e-07
-5.0325e-06 -1.17845e-07 0.000161878
0.000686036 5.00069e-05 -8.03407e-07
5.00069e-05 0.000141701 1.401e-07
-8.03407e-07 1.401e-07 2.21813e-05
0.000377518 5.8161e-05 1.13088e-06
5.8161e-05 1.52533e-05 5.97102e-07
1.13088e-06 5.97102e-07 -0.00020084
0.00133563 0.000386914 -1.67358e-06
0.000386914 0.000346726 -1.23638e-06
-1.67358e-06 -1.23638e-06 5.92386e-05
0.000205956 0.000103694 -3.51563e-07
0.000103694 -0.000208128 -2.29593e-06
-3.51563e-07 -2.29593e-06 -0.000410223
0.00142868 0.000322302 2.02829e-06
0.000322302 0.000353703 -3.67713e-06
2.02829e-06 -3.67713e-06 0.00014003
0.0020867 0.000455925 -2.90218e-06
0.000455925 0.000129531 -1.18574e-06
-2.90218e-06 -1.18574e-06 -1.5731e-05
0.00221102 0.000600226 2.59805e-06
0.000600226 0.000382699 -3.81445e-07
2.59805e-06 -3.81445e-07 0.000111478
0.00205602 0.000565732 3.08888e-06
0.000565732 0.000189366 2.83555e-06
3.08888e-06 2.83555e-06 -4.22963e-05
0.00129378 0.000512179 3.66533e-06
0.000512179 0.000265929 1.54294e-06
3.66533e-06 1.54294e-06 -0.000101451
0.00180862 0.000651533 -4.51382e-06
0.000651533 0.000357594 4.61785e-08
-4.51382e-06 4.61785e-08 6.14194e-06
-0.000374262 9.56914e-06 -1.48547e-06
9.56914e-06 -0.000504663 4.48839e-06
-1.48547e-06 4.48839e-06 -0.000622404
-7.08225e-05 0.000151858 2.38813e-06
0.000151858 -0.000205409 3.11939e-06
2.38813e-06 3.11939e-06 -0.000480604
0.00124059 0.00039774 1.97211e-06
0.00039774 0.000282649 -9.13931e-07
1.97211e-06 -9.13931e-07 -2.58132e-05
-0.000265505 0.000138489 1.72285e-06
0.000138489 -0.000640347 2.21168e-07
1.72285e-06 2.21168e-07 -0.000831186
0.00218356 0.000458831 3.03106e-06
0.000458831 -7.75061e-05 1.55548e-06
3.03106e-06 1.55548e-06 -8.44269e-05
0.00275605 0.000578317 5.45672e-06
0.000578317 0.000538529 4.31733e-07
5.45672e-06 4.31733e-07 0.000346892
0.00206721 0.00067266 -1.78765e-06
0.00067266 0.000325689 -3.6803e-06
-1.78765e-06 -3.6803e-06 -1.24389e-07
0.00157081 0.000614918 1.36272e-06
0.000614918 0.000322438 1.798e-07
1.36272e-06 1.798e-07 -6.79838e-05
0.000651672 9.77895e-05 -8.73319e-07
9.77895e-05 0.000123543 -1.65706e-06
-8.73319e-07 -1.65706e-06 8.50142e-06
0.000579859 8.25242e-05 -5.24638e-07
8.25242e-05 7.55045e-05 -2.28795e-07
-5.24638e-07 -2.28795e-07 -4.17863e-05
0.00104892 8.15026e-05 -5.72285e-06
8.15026e-05 0.000366484 -2.33685e-06
-5.72285e-06 -2.33685e-06 0.000263272
0.000581273 3.82159e-05 -1.37438e-06
3.82159e-05 6.43529e-05 -2.65819e-06
-1.37438e-06 -2.65819e-06 -2.94712e-05
0.000191698 3.26993e-05 -1.51122e-07
3.26993e-05 -0.000166352 -7.86093e-07
-1.51122e-07 -7.86093e-07 -0.000272888
0.000614814 4.71574e-05 -4.55976e-07
4.71574e-05 0.000100292 1.22195e-07
-4.55976e-07 1.22195e-07 -1.44398e-06
0.000556554 0.000116069 -9.08944e-07
0.000116069 9.23159e-05 6.33947e-07
-9.08944e-07 6.33947e-07 -2.8167e-05
0.000511507 4.51135e-05 1.00781e-06
4.51135e-05 5.41521e-05 8.41376e-08
1.00781e-06 8.41376e-08 -7.66652e-05
0.000595532 8.81494e-05 3.25846e-06
8.81494e-05 8.52671e-05 -8.04231e-07
3.25846e-06 -8.04231e-07 -2.12064e-06
0.000764882 4.48497e-06 3.28931e-06
4.48497e-06 0.000209188 -3.71116e-06
3.28931e-06 -3.71116e-06 8.34732e-05
0.00032228 6.45891e-05 3.60837e-07
6.45891e-05 -6.37687e-05 1.87633e-06
3.60837e-07 1.87633e-06 -0.000192998
0.000670653 0.000103961 2.38844e-06
0.000103961 0.000136526 3.32366e-06
2.38844e-06 3.32366e-06 3.05026e-05
0.000481274 7.11781e-05 3.22705e-06
7.11781e-05 8.1118e-06 3.35676e-06
3.22705e-06 3.35676e-06 -6.47152e-05
0.000485041 1.12471e-05 -1.51987e-06
1.12471e-05 2.817e-06 -2.44514e-07
-1.51987e-06 -2.44514e-07 -6.26117e-05
0.00120507 2.74112e-06 1.3786e-06
2.74112e-06 0.000418281 2.74561e-06
1.3786e-06 2.74561e-06 0.000403396
0.000484334 -4.47288e-05 -9.60418e-08
-4.47288e-05 -2.76001e-06 -2.99056e-06
-9.60418e-08 -2.99056e-06 -6.53793e-05
0.00128851 -8.63009e-06 -5.6651e-06
-8.63009e-06 0.000464836 -1.634e-06
-5.6651e-06 -1.634e-06 0.000450308
0.000765448 -1.89761e-05 2.32506e-05
-1.89761e-05 0.000138165 8.90356e-06
2.32506e-05 8.90356e-06 0.000144463
0.00133408 -2.00544e-05 -1.00583e-05
-2.00544e-05 0.000490884 -6.3678e-06
-1.00583e-05 -6.3678e-06 0.000475626
0.000757769 -3.1514e-05 8.6878e-06
-3.1514e-05 0.000131363 3.34163e-06
8.6878e-06 3.34163e-06 0.000135626
0.000718916 -4.18426e-05 -7.0346e-08
-4.18426e-05 0.000111103 -2.85122e-06
-7.0346e-08 -2.85122e-06 0.00011238
0.000418956 4.08945e-05 -9.52647e-07
4.08945e-05 -6.34755e-05 -3.63887e-06
-9.52647e-07 -3.63887e-06 -8.39562e-05
0.000428576 7.14153e-05 -2.98546e-07
7.14153e-05 -3.15861e-05 2.53888e-07
-2.98546e-07 2.53888e-07 -6.87954e-05
0.0024215 0.000108496 1.23147e-05
0.000108496 0.00120263 -4.44984e-06
1.23147e-05 -4.44984e-06 0.00120303
0.000528575 2.37958e-05 -4.56995e-06
2.37958e-05 3.19407e-05 8.79273e-06
-4.56995e-06 8.79273e-06 -1.48205e-05
0.00293939 0.000145532 -4.92214e-06
0.000145532 0.00153504 -5.98815e-07
-4.92214e-06 -5.98815e-07 0.00152526
0.00371763 8.4247e-05 -0.000121853
8.4247e-05 0.00201475 9.86514e-06
-0.000121853 9.86514e-06 0.00201887
0.00194152 0.000323471 -1.03718e-06
0.000323471 8.55404e-05 1.14501e-06
-1.03718e-06 1.14501e-06 -3.5418e-05
0.00203129 0.000187525 -5.24237e-06
0.000187525 5.48743e-05 -7.48711e-07
-5.24237e-06 -7.48711e-07 1.30155e-05
0.00204465 0.000278794 -4.18493e-07
0.000278794 1.02917e-05 -3.3827e-07
-4.18493e-07 -3.3827e-07 -2.50292e-05
0.00196615 0.000117939 -2.69351e-06
0.000117939 -2.21615e-05 -6.03435e-07
-2.69351e-06 -6.03435e-07 -1.94468e-05
0.00198076 5.16174e-05 -5.33116e-06
5.16174e-05 6.42405e-05 -4.34386e-07
-5.33116e-06 -4.34386e-07 3.59923e-05
0.00190247 -7.48949e-06 -4.22006e-06
-7.48949e-06 5.14171e-05 4.95425e-07
-4.22006e-06 4.95425e-07 -2.89742e-06
0.0019196 -8.10188e-06 -2.49594e-07
-8.10188e-06 2.7264e-05 -6.14972e-08
-2.49594e-07 -6.14972e-08 1.90032e-06
0.0019991 5.80773e-05 1.11434e-06
5.80773e-05 5.98456e-06 1.69599e-07
1.11434e-06 1.69599e-07 1.00796e-05
0.00206848 0.000190816 1.00313e-06
0.000190816 8.58841e-06 2.15338e-07
1.00313e-06 2.15338e-07 4.37754e-06
0.00211198 0.000356925 6.7984e-07
0.000356925 6.17151e-05 2.82426e-07
6.7984e-07 2.82426e-07 -6.23399e-06
0.00198161 -1.40127e-05 1.63982e-06
-1.40127e-05 4.65459e-06 -3.33623e-08
1.63982e-06 -3.33623e-08 4.93155e-06
0.0021229 0.000108503 1.96378e-07
0.000108503 -2.7818e-05 -2.76043e-07
1.96378e-07 -2.76043e-07 1.20871e-05
0.00227713 0.000291632 2.13442e-06
0.000291632 3.77194e-05 8.50363e-07
2.13442e-06 8.50363e-07 3.81248e-05
0.00189381 -7.77624e-05 -5.36773e-06
-7.77624e-05 -1.0228e-05 3.53673e-07
-5.36773e-06 3.53673e-07 -3.12531e-05
0.00199773 -0.000172943 -3.41696e-06
-0.000172943 4.13126e-05 2.61687e-07
-3.41696e-06 2.61687e-07 7.95975e-06
0.0020276 -0.000311765 -3.07873e-06
-0.000311765 4.45529e-05 5.32832e-07
-3.07873e-06 5.32832e-07 -3.06818e-06
0.00113025 -0.000399159 -4.74216e-06
-0.000399159 0.000202915 1.69863e-06
-4.74216e-06 1.69863e-06 -0.000112084
0.00146431 -0.000573508 8.91316e-06
-0.000573508 0.000289243 -3.37141e-06
8.91316e-06 -3.37141e-06 -9.20751e-05
0.00179633 -0.000675067 -2.96568e-06
-0.000675067 0.000273764 7.09786e-07
-2.96568e-06 7.09786e-07 -0.000104242
0.00191589 -0.000394993 -1.88705e-06
-0.000394993 5.45099e-05 1.10677e-06
-1.88705e-06 1.10677e-06 -4.69291e-05
0.00196633 -0.000517117 1.62046e-06
-0.000517117 0.00014191 1.86811e-06
1.62046e-06 1.86811e-06 -2.60584e-05
0.00212933 -0.000580942 5.95713e-06
-0.000580942 0.000316113 -6.85416e-06
5.95713e-06 -6.85416e-06 6.54592e-05
0.00117355 -0.000379958 7.41957e-07
-0.000379958 0.000244531 1.96458e-06
7.41957e-07 1.96458e-06 -6.3901e-05
0.000859155 -0.000342704 -6.90826e-06
-0.000342704 9.72404e-05 -1.84745e-06
-6.90826e-06 -1.84745e-06 -0.000210385
0.00219359 -0.000412195 1.21391e-06
-0.000412195 0.0010656 -2.68763e-06
1.21391e-06 -2.68763e-06 0.000713266
0.000338908 4.61922e-05 2.8568e-06
4.61922e-05 -8.3942e-05 1.56823e-06
2.8568e-06 1.56823e-06 -0.000168508
0.00117722 -0.000180469 3.49865e-06
-0.000180469 0.000473626 2.79054e-06
3.49865e-06 2.79054e-06 0.000232594
4.97882e-05 3.16991e-05 5.53142e-06
3.16991e-05 -0.000212844 1.23138e-06
5.53142e-06 1.23138e-06 -0.000397351
0.00200291 -8.68363e-05 -5.00506e-07
-8.68363e-05 1.63267e-05 1.25357e-07
-5.00506e-07 1.25357e-07 1.59615e-05
0.00207832 -0.000228034 1.0548e-07
-0.000228034 -1.94543e-05 -6.25942e-08
1.0548e-07 -6.25942e-08 -9.22607e-06
0.00209126 -0.00038 -6.69831e-07
-0.00038 3.39352e-05 2.77912e-07
-6.69831e-07 2.77912e-07 8.3443e-06
0.00147562 -0.000506836 -1.23953e-06
-0.000506836 0.000394798 2.27425e-07
-1.23953e-06 2.27425e-07 3.42658e-05
0.00135081 -0.000640033 2.64677e-06
-0.000640033 0.000190196 -1.47854e-06
2.64677e-06 -1.47854e-06 -0.000229952
0.00231686 -0.000746051 -4.98633e-06
-0.000746051 0.000570401 2.31039e-07
-4.98633e-06 2.31039e-07 0.000183599
0.00210763 -0.000485192 5.56382e-07
-0.000485192 7.9538e-05 -5.23207e-07
5.56382e-07 -5.23207e-07 -1.20822e-05
0.0019622 -0.000594623 1.54877e-06
-0.000594623 0.000154583 -2.4525e-06
1.54877e-06 -2.4525e-06 -6.41128e-05
0.000326314 5.92763e-05 -1.25101e-06
5.92763e-05 -9.65201e-05 -1.13487e-06
-1.25101e-06 -1.13487e-06 -0.000158792
0.000651555 -1.68501e-05 -8.89746e-07
-1.68501e-05 0.000152869 3.24986e-07
-8.89746e-07 3.24986e-07 1.24315e-05
0.000844042 -0.000402019 -4.7151e-06
-0.000402019 2.28006e-05 2.28111e-06
-4.7151e-06 2.28111e-06 -0.00031236
0.00161772 -0.000385297 2.3434e-06
-0.000385297 0.00063786 -5.6845e-07
2.3434e-06 -5.6845e-07 0.000246069
0.00137334 -0.000156397 -2.00482e-07
-0.000156397 0.000574643 -2.26103e-06
-2.00482e-07 -2.26103e-06 0.000291426
0.000849659 -0.000143024 -5.17463e-07
-0.000143024 0.000307132 9.93166e-07
-5.17463e-07 9.93166e-07 7.73528e-05
0.00207404 -0.000118614 -9.71205e-07
-0.000118614 -3.17029e-05 2.81081e-07
-9.71205e-07 2.81081e-07 4.69908e-06
0.00220067 -0.000326387 -1.59853e-06
-0.000326387 -4.80516e-05 8.95886e-07
-1.59853e-06 8.95886e-07 4.91297e-06
0.00217978 -0.000448946 2.27034e-06
-0.000448946 4.5521e-05 2.51528e-07
2.27034e-06 2.51528e-07 3.00231e-05
0.00242472 -0.000650493 8.58163e-06
-0.000650493 0.000261231 -1.9385e-06
8.58163e-06 -1.9385e-06 0.000110873
0.000565292 -0.000457626 1.25485e-06
-0.000457626 -0.000153856 -5.95872e-06
1.25485e-06 -5.95872e-06 -0.000527681
0.00240006 -0.000794781 1.64592e-06
-0.000794781 0.000538801 9.52157e-06
1.64592e-06 9.52157e-06 0.000174868
0.0022995 -0.000806998 -1.60457e-05
-0.000806998 0.00069029 -3.51364e-06
-1.60457e-05 -3.51364e-06 0.000212817
0.000572298 4.79096e-05 2.97806e-07
4.79096e-05 3.8546e-05 -5.28709e-07
2.97806e-07 -5.28709e-07 -8.51036e-06
0.000675188 -0.000135672 4.33764e-06
-0.000135672 0.000153083 -1.8674e-06
4.33764e-06 -1.8674e-06 5.35336e-05
0.00024627 7.02252e-05 -6.36507e-06
7.02252e-05 -0.000110506 1.83554e-07
-6.36507e-06 1.83554e-07 -0.000210885
0.000783334 -5.05448e-05 -3.72717e-06
-5.05448e-05 0.000259987 3.8453e-06
-3.72717e-06 3.8453e-06 7.05251e-05
0.000286604 -9.18236e-05 2.27555e-06
-9.18236e-05 -8.60662e-05 -4.18033e-06
2.27555e-06 -4.18033e-06 -0.000311591
-0.000730908 -3.34637e-05 2.58253e-06
-3.34637e-05 -0.000686531 -8.64569e-07
2.58253e-06 -8.64569e-07 -0.00103344
0.00148284 -0.000496821 -2.04408e-05
-0.000496821 0.000409219 1.35289e-05
-2.04408e-05 1.35289e-05 5.97945e-05
0.00288016 -0.000520464 -2.26623e-05
-0.000520464 0.00153487 1.28064e-05
-2.26623e-05 1.28064e-05 0.000952985
0.000588583 1.87067e-05 -5.34302e-07
1.87067e-05 7.45916e-05 -1.7598e-06
-5.34302e-07 -1.7598e-06 -3.61365e-05
0.000747824 0.0001459 -3.82629e-07
0.0001459 0.000243565 -5.84149e-07
-3.82629e-07 -5.84149e-07 1.77062e-05
0.00224438 0.000468029 -2.76032e-06
0.000468029 0.000215764 -1.34169e-06
-2.76032e-06 -1.34169e-06 7.22593e-05
0.00057129 0.000163206 -3.97885e-06
0.000163206 3.17348e-05 2.67844e-06
-3.97885e-06 2.67844e-06 -0.000186821
0.00127731 0.000379563 -2.36396e-06
0.000379563 0.00031019 4.55753e-09
-2.36396e-06 4.55753e-09 2.37543e-05
0.000965389 0.000280573 -5.33917e-06
0.000280573 6.03063e-05 -8.44092e-06
-5.33917e-06 -8.44092e-06 -0.00014513
0.0023089 0.000596243 -5.31303e-06
0.000596243 0.000448419 -5.40354e-07
-5.31303e-06 -5.40354e-07 0.000183798
0.00223871 0.000587894 -9.36573e-06
0.000587894 0.000288259 4.81488e-06
-9.36573e-06 4.81488e-06 5.19885e-05
0.00162391 0.00055598 -2.38793e-06
0.00055598 0.000466132 8.29922e-07
-2.38793e-06 8.29922e-07 8.94093e-05
0.00159087 0.000648613 -1.7818e-06
0.000648613 0.000226977 -4.8293e-07
-1.7818e-06 -4.8293e-07 -0.00013166
2.06642e-05 4.54961e-05 8.68505e-08
4.54961e-05 -0.00025522 1.44666e-06
8.68505e-08 1.44666e-06 -0.000386131
0.000223824 0.000183879 -7.22793e-07
0.000183879 -3.00869e-05 -3.38601e-06
-7.22793e-07 -3.38601e-06 -0.000302915
0.00151561 0.000437811 1.29253e-06
0.000437811 0.000437256 -4.18358e-07
1.29253e-06 -4.18358e-07 0.000119772
0.000919658 0.000255115 -1.57359e-06
0.000255115 9.73364e-05 1.74615e-06
-1.57359e-06 1.74615e-06 -0.00011379
0.00224478 0.000445099 7.55622e-07
0.000445099 -5.23861e-05 -9.41153e-07
7.55622e-07 -9.41153e-07 -5.61522e-05
0.00252318 0.000572106 3.26283e-06
0.000572106 0.000405044 4.51301e-07
3.26283e-06 4.51301e-07 0.000208851
0.00199392 0.000653646 -4.97118e-07
0.000653646 0.000288905 4.57532e-07
-4.97118e-07 4.57532e-07 -2.97126e-05
0.00168566 0.000625608 7.67115e-07
0.000625608 0.000372742 3.49124e-07
7.67115e-07 3.49124e-07 -1.44666e-05
-9.5795e-05 4.73405e-05 -9.63067e-07
4.73405e-05 -0.000332686 4.49829e-06
-9.63067e-07 4.49829e-06 -0.000471803
0.00218047 0.000349381 7.50701e-06
0.000349381 -0.000147557 3.33827e-06
7.50701e-06 3.33827e-06 -8.70406e-05
0.00220478 0.000427155 6.97395e-06
0.000427155 0.00112738 8.45047e-06
6.97395e-06 8.45047e-06 0.00082022
0.0012491 0.00042987 1.12151e-06
0.00042987 0.000225268 -1.07883e-06
1.12151e-06 -1.07883e-06 -7.2129e-05
0.00259858 0.000556995 -1.64434e-05
0.000556995 0.000298299 -7.43472e-06
-1.64434e-05 -7.43472e-06 0.000203476
0.00113902 0.00061021 -6.34086e-06
0.00061021 -0.000300018 -8.16255e-06
-6.34086e-06 -8.16255e-06 -0.000601307
0.00233064 0.000722605 -1.02593e-06
0.000722605 0.00068808 3.2742e-06
-1.02593e-06 3.2742e-06 0.000275016
0.00079684 0.000100703 -1.32289e-06
0.000100703 0.000208605 -1.50003e-06
-1.32289e-06 -1.50003e-06 9.05436e-05
0.000650766 9.50884e-05 -2.87188e-06
9.50884e-05 0.000132333 -9.64362e-07
-2.87188e-06 -9.64362e-07 2.3273e-05
0.00158399 0.000102452 -3.09398e-06
0.000102452 0.000714471 -2.39102e-06
-3.09398e-06 -2.39102e-06 0.000628019
0.000528225 5.31514e-06 2.01007e-07
5.31514e-06 4.94149e-05 -3.33027e-06
2.01007e-07 -3.33027e-06 -5.36877e-05
0.000700377 7.84327e-05 1.71946e-06
7.84327e-05 0.000174985 -5.58703e-07
1.71946e-06 -5.58703e-07 4.00051e-05
9.62944e-06 6.00243e-05 -1.5237e-06
6.00243e-05 -0.000228514 3.7051e-06
-1.5237e-06 3.7051e-06 -0.000340164
0.000569146 1.89372e-05 -1.21568e-06
1.89372e-05 8.08314e-05 1.15862e-08
-1.21568e-06 1.15862e-08 -2.8953e-05
0.000334863 -1.58453e-05 -9.35622e-07
-1.58453e-05 -4.31319e-05 1.32494e-08
-9.35622e-07 1.32494e-08 -0.000178197
0.000144582 3.85054e-05 8.18664e-07
3.85054e-05 -0.000176669 5.88728e-07
8.18664e-07 5.88728e-07 -0.000254842
0.000780502 7.90121e-05 8.69055e-07
7.90121e-05 0.000232664 -9.76211e-07
8.69055e-07 -9.76211e-07 9.45036e-05
0.0015635 0.000110462 -2.77177e-08
0.000110462 0.000666432 -2.19345e-06
-2.77177e-08 -2.19345e-06 0.000612831
0.00051391 1.31307e-05 8.86313e-06
1.31307e-05 4.42507e-05 -3.89149e-06
8.86313e-06 -3.89149e-06 -4.44262e-05
0.000322529 9.00186e-05 3.86955e-07
9.00186e-05 -4.24838e-05 2.13144e-06
3.86955e-07 2.13144e-06 -0.000189342
0.0006052 4.47243e-05 2.20321e-06
4.47243e-05 0.000122865 3.07145e-06
2.20321e-06 3.07145e-06 -2.83297e-05
0.000592781 3.52174e-05 2.63894e-06
3.52174e-05 8.84482e-05 3.09266e-06
2.63894e-06 3.09266e-06 -2.27828e-05
0.000485004 -5.12312e-05 -2.3568e-07
-5.12312e-05 9.34883e-06 3.14961e-06
-2.3568e-07 3.14961e-06 -6.50812e-05
0.000506907 6.6667e-06 8.89709e-09
6.6667e-06 1.75183e-05 -2.84819e-07
8.89709e-09 -2.84819e-07 -5.04513e-05
0.00128014 2.09257e-05 2.61562e-06
2.09257e-05 0.000472627 2.85164e-06
2.61562e-06 2.85164e-06 0.000455349
0.000509895 -5.16997e-06 9.00154e-08
-5.16997e-06 1.10956e-05 -3.16314e-06
9.00154e-08 -3.16314e-06 -4.94673e-05
0.00129434 6.82942e-06 -5.02063e-06
6.82942e-06 0.000473928 -1.65613e-06
-5.02063e-06 -1.65613e-06 0.00045884
0.000748848 -1.09039e-05 1.83866e-05
-1.09039e-05 0.000131627 8.70201e-06
1.83866e-05 8.70201e-06 0.000137976
0.00134338 -9.97999e-06 -7.64831e-06
-9.97999e-06 0.000498879 -6.34522e-06
-7.64831e-06 -6.34522e-06 0.000484486
0.000777792 -2.2171e-05 6.47311e-06
-2.2171e-05 0.000143249 3.40811e-06
6.47311e-06 3.40811e-06 0.000148637
0.000748648 -3.21967e-05 -1.63037e-08
-3.21967e-05 0.000123817 -2.6916e-06
-1.63037e-08 -2.6916e-06 0.000127765
0.000644609 -4.57764e-06 1.68913e-06
-4.57764e-06 7.97743e-05 -1.7238e-06
1.68913e-06 -1.7238e-06 3.47849e-05
0.000454353 2.84847e-05 1.96385e-07
2.84847e-05 -5.28601e-05 -3.46529e-06
1.96385e-07 -3.46529e-06 -6.7257e-05
0.000463375 4.46059e-05 4.05383e-07
4.46059e-05 -3.38015e-05 2.46346e-07
4.05383e-07 2.46346e-07 -5.5605e-05
0.00219414 8.443e-05 1.41593e-05
8.443e-05 0.00105042 -4.1721e-06
1.41593e-05 -4.1721e-06 0.00105745
0.00049359 6.74859e-05 5.76162e-06
6.74859e-05 5.94842e-06 7.00648e-06
5.76162e-06 7.00648e-06 -3.06554e-05
0.00257969 0.000115969 -5.48616e-06
0.000115969 0.00130211 -5.61463e-07
-5.48616e-06 -5.61463e-07 0.00130073
0.00310561 0.00011992 -3.9299e-05
0.00011992 0.00163071 5.18387e-06
-3.9299e-05 5.18387e-06 0.00162638
0.00212434 0.000351005 -9.47884e-08
0.000351005 6.04897e-05 -2.4576e-07
-9.47884e-08 -2.4576e-07 -7.14755e-06
0.00206426 0.000195805 -2.18331e-06
0.000195805 9.4894e-06 -5.44262e-07
-2.18331e-06 -5.44262e-07 4.94612e-06
0.00200542 6.18244e-05 -2.53166e-06
6.18244e-05 1.5871e-05 -2.53408e-07
-2.53166e-06 -2.53408e-07 1.81815e-05
0.00192286 -5.90026e-06 -5.29715e-06
-5.90026e-06 2.973e-05 -1.2911e-07
-5.29715e-06 -1.2911e-07 5.32895e-06
0.00197358 -9.03526e-06 -9.25019e-07
-9.03526e-06 -2.93424e-06 -2.38844e-09
-9.25019e-07 -2.38844e-09 1.60707e-07
0.00210173 0.000101449 -7.23928e-08
0.000101449 -3.15687e-05 1.38962e-07
-7.23928e-08 1.38962e-07 5.45412e-06
0.00220884 0.000297118 -1.12433e-06
0.000297118 3.59822e-06 2.90961e-09
-1.12433e-06 2.90961e-09 5.26969e-06
0.00208039 -1.04764e-05 -9.06519e-07
-1.04764e-05 -4.71592e-05 -3.13533e-07
-9.06519e-07 -3.13533e-07 1.28217e-07
0.00228584 0.000154453 4.77213e-06
0.000154453 -3.64253e-05 -5.45539e-07
4.77213e-06 -5.45539e-07 1.17746e-05
0.00243973 0.000104956 6.88593e-06
0.000104956 0.000135561 1.2547e-05
6.88593e-06 1.2547e-05 0.000205804
0.00201601 -8.60821e-05 -3.01213e-06
-8.60821e-05 2.41971e-05 1.62095e-07
-3.01213e-06 1.62095e-07 2.17322e-05
0.0020551 -0.000235903 -1.52211e-06
-0.000235903 -3.73731e-05 -2.88093e-08
-1.52211e-06 -2.88093e-08 -2.58189e-05
0.00207535 -0.000373504 -1.22965e-06
-0.000373504 3.10705e-05 -1.70173e-07
-1.22965e-06 -1.70173e-07 2.97981e-06
0.00132844 -0.000492119 1.91582e-06
-0.000492119 0.00030271 9.07035e-08
1.91582e-06 9.07035e-08 -5.50608e-05
0.00166819 -0.000669774 8.61703e-06
-0.000669774 0.00037551 4.80667e-07
8.61703e-06 4.80667e-07 -4.99817e-05
0.00198298 -0.000695355 1.34452e-06
-0.000695355 0.000386775 -4.8206e-07
1.34452e-06 -4.8206e-07 1.94553e-05
0.00202176 -0.000488424 -7.03288e-07
-0.000488424 3.11956e-05 2.21435e-06
-7.03288e-07 2.21435e-06 -6.56633e-05
0.00195569 -0.000587586 -4.19711e-06
-0.000587586 0.000159759 -8.07519e-07
-4.19711e-06 -8.07519e-07 -5.55133e-05
0.000625566 -0.000374265 -4.6223e-06
-0.000374265 -0.000105924 -5.75547e-06
-4.6223e-06 -5.75547e-06 -0.00043516
0.00200319 -0.000400486 1.61387e-05
-0.000400486 0.000922078 -1.00508e-05
1.61387e-05 -1.00508e-05 0.000513101
0.00119165 -9.42569e-05 -6.30998e-07
-9.42569e-05 0.000438256 2.66401e-06
-6.30998e-07 2.66401e-06 0.000177113
0.000454426 1.62701e-05 2.17053e-06
1.62701e-05 -1.88732e-05 3.76551e-07
2.17053e-06 3.76551e-07 -7.70302e-05
0.00079748 3.98046e-05 5.77616e-06
3.98046e-05 0.000239777 1.08653e-06
5.77616e-06 1.08653e-06 9.88572e-05
0.000542025 -9.72801e-05 1.07081e-06
-9.72801e-05 0.000109667 4.13e-06
1.07081e-06 4.13e-06 -0.000117375
0.00208238 -0.000121423 5.7923e-07
-0.000121423 -3.48857e-05 -4.64692e-08
5.7923e-07 -4.64692e-08 3.68177e-06
0.000507929 1.21676e-05 1.51649e-06
1.21676e-05 -5.46162e-07 2.73248e-07
1.51649e-06 2.73248e-07 -4.75044e-05
0.000430628 -6.87292e-05 -2.03198e-06
-6.87292e-05 -2.65225e-05 -4.35101e-07
-2.03198e-06 -4.35101e-07 -0.000107902
0.00218398 -0.000316029 -2.31917e-07
-0.000316029 -3.75186e-05 1.84981e-07
-2.31917e-07 1.84981e-07 8.35263e-06
0.00212298 -0.000439312 -1.58845e-06
-0.000439312 1.54012e-05 1.29454e-07
-1.58845e-06 1.29454e-07 6.95538e-06
0.00175131 -0.000597999 -1.70532e-06
-0.000597999 0.000529141 1.31215e-06
-1.70532e-06 1.31215e-06 0.000124013
0.00185621 -0.0007523 3.52256e-06
-0.0007523 0.000460224 1.24025e-06
3.52256e-06 1.24025e-06 -1.2903e-05
0.0018659 -0.000734642 4.16775e-06
-0.000734642 0.000234131 -4.07498e-06
4.16775e-06 -4.07498e-06 -0.000114539
0.00218544 -0.000628885 2.94361e-06
-0.000628885 0.000131732 -1.08939e-06
2.94361e-06 -1.08939e-06 -1.21246e-05
0.000647251 2.19147e-06 -3.62962e-07
2.19147e-06 0.000148601 -1.25798e-06
-3.62962e-07 -1.25798e-06 4.2819e-05
0.000726514 -4.06191e-05 5.834e-07
-4.06191e-05 0.00022471 1.87936e-06
5.834e-07 1.87936e-06 3.49384e-05
0.00161939 -0.000497043 3.87857e-06
-0.000497043 0.000500195 1.50356e-06
3.87857e-06 1.50356e-06 0.000138589
0.00127548 -0.0003541 1.33493e-05
-0.0003541 0.000553562 -5.0628e-06
1.33493e-05 -5.0628e-06 5.50102e-05
0.000650232 -8.58821e-05 -2.90094e-06
-8.58821e-05 0.000103391 -1.07272e-06
-2.90094e-06 -1.07272e-06 -0.00020468
0.000500731 -6.59222e-05 9.84624e-07
-6.59222e-05 5.78827e-05 -2.04193e-06
9.84624e-07 -2.04193e-06 -0.000179497
0.00211141 -0.000140845 2.02245e-06
-0.000140845 -0.00013591 -1.0829e-06
2.02245e-06 -1.0829e-06 -8.29299e-05
0.00217263 -0.000403996 -1.70518e-06
-0.000403996 -0.000180759 2.47156e-06
-1.70518e-06 2.47156e-06 -8.95702e-06
0.00231928 -0.000599001 -4.14685e-06
-0.000599001 7.13695e-05 1.63043e-06
-4.14685e-06 1.63043e-06 3.05796e-05
0.00226976 -0.000808549 9.28853e-06
-0.000808549 0.000265285 -2.9548e-06
9.28853e-06 -2.9548e-06 5.10881e-05
0.00118063 -0.000566584 4.72955e-07
-0.000566584 0.0002376 -1.3364e-05
4.72955e-07 -1.3364e-05 -0.000178826
0.00257224 -0.000911742 -9.19368e-06
-0.000911742 0.000779675 1.16414e-05
-9.19368e-06 1.16414e-05 0.000271424
0.000185953 4.7429e-05 -1.81071e-06
4.7429e-05 -0.00016727 -4.09582e-06
-1.81071e-06 -4.09582e-06 -0.000256728
0.00058415 -5.25381e-05 4.89969e-06
-5.25381e-05 7.0595e-05 1.94084e-07
4.89969e-06 1.94084e-07 -6.59413e-06
0.00108499 -0.000141246 4.96994e-08
-0.000141246 0.000368132 7.85187e-06
4.96994e-08 7.85187e-06 0.000262509
0.000525842 2.43251e-05 -3.90193e-06
2.43251e-05 8.08087e-05 5.90508e-06
-3.90193e-06 5.90508e-06 -7.0666e-05
0.000788574 -9.33879e-05 -4.29409e-06
-9.33879e-05 0.00023946 7.45403e-06
-4.29409e-06 7.45403e-06 4.31225e-05
0.00123553 -4.45999e-05 7.03825e-06
-4.45999e-05 0.000416765 -5.59742e-06
7.03825e-06 -5.59742e-06 0.000190431
-0.00113608 -0.000201287 4.06355e-06
-0.000201287 -0.000602981 4.36777e-07
4.06355e-06 4.36777e-07 -0.00131022
-0.000167246 -0.000454733 -4.05795e-05
-0.000454733 -0.000606925 1.1994e-05
-4.05795e-05 1.1994e-05 -0.000939873
0.000502335 5.84519e-05 -7.4324e-07
5.84519e-05 5.27955e-05 -1.41978e-06
-7.4324e-07 -1.41978e-06 -9.77831e-05
0.000985902 0.000222246 -9.82514e-06
0.000222246 0.000419019 -6.56505e-06
-9.82514e-06 -6.56505e-06 0.000152661
0.00229416 0.000430939 -7.17505e-06
0.000430939 -2.68047e-05 -2.69439e-06
-7.17505e-06 -2.69439e-06 -2.92643e-05
0.00237714 0.000570615 -5.85605e-06
0.000570615 0.000324462 3.0538e-08
-5.85605e-06 3.0538e-08 0.000123049
0.00214718 0.000360737 -7.09396e-06
0.000360737 0.000843585 -1.30141e-06
-7.09396e-06 -1.30141e-06 0.000620047
0.00160378 0.000454167 -4.24248e-06
0.000454167 0.000482698 -4.20413e-06
-4.24248e-06 -4.20413e-06 0.000160481
0.00201329 0.000645055 -5.09783e-07
0.000645055 0.000301222 1.74534e-06
-5.09783e-07 1.74534e-06 -1.26406e-05
0.00182605 0.000636297 -2.41413e-06
0.000636297 0.000440246 -1.07968e-06
-2.41413e-06 -1.07968e-06 5.578e-05
0.000464396 9.06144e-05 8.54489e-07
9.06144e-05 3.08105e-05 -1.22716e-06
8.54489e-07 -1.22716e-06 -0.000133998
0.00232693 0.00033271 -2.16299e-06
0.00033271 -5.65219e-05 -1.40282e-06
-2.16299e-06 -1.40282e-06 8.26359e-06
0.00141718 0.000298985 1.20672e-06
0.000298985 0.000618603 1.80662e-06
1.20672e-06 1.80662e-06 0.000347989
0.00153283 0.000457623 2.38804e-06
0.000457623 0.000418033 1.09135e-06
2.38804e-06 1.09135e-06 0.000109389
0.00254743 0.000553126 1.63311e-06
0.000553126 0.000278357 4.11372e-07
1.63311e-06 4.11372e-07 0.000184503
0.00162057 0.000647041 -1.76457e-06
0.000647041 -1.81223e-05 -4.64132e-06
-1.76457e-06 -4.64132e-06 -0.000322333
0.00203637 0.000684752 4.70261e-07
0.000684752 0.000527734 4.60621e-07
4.70261e-07 4.60621e-07 0.000120986
0.00111091 0.000231934 -3.49577e-06
0.000231934 0.000477818 4.39599e-06
-3.49577e-06 4.39599e-06 0.00025463
0.0032273 0.000454285 -7.48073e-05
0.000454285 0.000506389 -2.03468e-05
-7.48073e-05 -2.03468e-05 0.000603403
0.00164315 0.000455235 -4.15649e-06
0.000455235 0.000664856 3.23664e-06
-4.15649e-06 3.23664e-06 0.000361356
0.00145238 0.000526102 -2.2188e-06
0.000526102 0.000290591 -5.14862e-06
-2.2188e-06 -5.14862e-06 -7.48491e-05
0.00183559 0.00068485 -3.30454e-05
0.00068485 -3.04314e-05 -1.93971e-05
-3.30454e-05 -1.93971e-05 -0.000233391
0.00108768 0.000607925 -2.46755e-05
0.000607925 -6.37019e-05 -2.43674e-06
-2.46755e-05 -2.43674e-06 -0.000442762
0.000380756 0.000668442 2.66435e-05
0.000668442 -0.00148745 -3.76526e-05
2.66435e-05 -3.76526e-05 -0.00133599
0.000164887 0.000108027 2.12795e-06
0.000108027 -0.000146383 -6.6396e-07
2.12795e-06 -6.6396e-07 -0.000262619
0.000552039 0.00010576 -5.77788e-07
0.00010576 0.000121095 9.38101e-07
-5.77788e-07 9.38101e-07 2.68878e-05
0.00201003 0.000155366 1.97446e-06
0.000155366 0.000965817 -2.9902e-06
1.97446e-06 -2.9902e-06 0.000881791
0.000460865 -6.38674e-05 3.98863e-07
-6.38674e-05 2.30287e-05 -3.87709e-06
3.98863e-07 -3.87709e-06 -9.05146e-05
0.000474692 -4.34773e-05 -9.91464e-07
-4.34773e-05 4.10356e-05 -8.10019e-07
-9.91464e-07 -8.10019e-07 -9.1299e-05
0.000962043 0.000170338 -6.35797e-08
0.000170338 0.00034931 8.17149e-07
-6.35797e-08 8.17149e-07 0.000199697
-0.000123424 1.43924e-05 -4.81374e-06
1.43924e-05 -0.000323438 1.05334e-05
-4.81374e-06 1.05334e-05 -0.000400357
0.000548623 -1.49654e-05 -4.17938e-07
-1.49654e-05 7.70496e-05 -7.27017e-08
-4.17938e-07 -7.27017e-08 -4.27751e-05
0.000504103 6.27069e-05 1.24438e-07
6.27069e-05 4.1833e-05 -6.56067e-07
1.24438e-07 -6.56067e-07 -9.4083e-05
0.000945678 8.903e-05 2.59227e-06
8.903e-05 0.000286306 4.19693e-06
2.59227e-06 4.19693e-06 0.000228265
0.000579224 5.75779e-05 1.49837e-06
5.75779e-05 9.98647e-05 8.10209e-07
1.49837e-06 8.10209e-07 -3.97269e-05
0.000667147 3.86307e-05 -1.64025e-06
3.86307e-05 0.000131255 -1.94794e-06
-1.64025e-06 -1.94794e-06 3.55965e-05
0.00164197 0.00011648 -1.06926e-06
0.00011648 0.000729169 -9.51822e-06
-1.06926e-06 -9.51822e-06 0.000676245
0.00087904 0.000119948 -2.1815e-06
0.000119948 0.000256521 -1.99443e-06
-2.1815e-06 -1.99443e-06 0.000112948
0.000938512 0.000121407 1.29441e-06
0.000121407 0.000312185 1.34755e-06
1.29441e-06 1.34755e-06 0.000165856
0.000850167 8.07177e-05 4.38287e-07
8.07177e-05 0.000275806 1.8015e-06
4.38287e-07 1.8015e-06 0.000111418
0.000322353 -2.42171e-05 1.05947e-07
-2.42171e-05 -8.06259e-05 3.26621e-06
1.05947e-07 3.26621e-06 -0.000198419
0.000987811 -5.24354e-05 -2.10092e-07
-5.24354e-05 0.000393436 -1.09646e-06
-2.10092e-07 -1.09646e-06 0.000221642
0.000243293 -3.68625e-05 -1.89366e-06
-3.68625e-05 -0.00012609 2.99362e-06
-1.89366e-06 2.99362e-06 -0.000248338
0.000476157 3.47338e-06 -2.02932e-06
3.47338e-06 8.84165e-06 3.24878e-06
-2.02932e-06 3.24878e-06 -7.0608e-05
0.000494443 3.55041e-05 2.37428e-06
3.55041e-05 1.758e-05 -1.47293e-07
2.37428e-06 -1.47293e-07 -5.92114e-05
0.000403724 2.15739e-05 5.46954e-07
2.15739e-05 -6.52998e-05 4.34238e-06
5.46954e-07 4.34238e-06 -8.73639e-05
0.000463774 6.99296e-06 -3.01394e-06
6.99296e-06 -2.6208e-06 -3.43428e-06
-3.01394e-06 -3.43428e-06 -7.50169e-05
0.000890109 1.59959e-05 -3.17763e-06
1.59959e-05 0.00023062 -1.57956e-06
-3.17763e-06 -1.57956e-06 0.00021167
0.00257325 -7.53478e-06 1.5973e-05
-7.53478e-06 0.00126681 5.41826e-06
1.5973e-05 5.41826e-06 0.0012801
0.00138113 1.3817e-05 -7.9506e-06
1.3817e-05 0.000528488 -6.33348e-06
-7.9506e-06 -6.33348e-06 0.000512899
0.00077168 -1.24755e-05 5.28927e-06
-1.24755e-05 0.000142517 3.35142e-06
5.28927e-06 3.35142e-06 0.000148529
0.000782569 -2.2434e-05 4.88567e-07
-2.2434e-05 0.000143336 -2.56605e-06
4.88567e-07 -2.56605e-06 0.000148636
0.000515007 1.50052e-05 -1.78712e-06
1.50052e-05 6.44162e-06 -2.19357e-06
-1.78712e-06 -2.19357e-06 -3.93001e-05
0.000562512 -1.80685e-05 9.04702e-07
-1.80685e-05 3.11878e-05 -3.14572e-07
9.04702e-07 -3.14572e-07 -1.49212e-05
0.000518856 2.29024e-05 2.76582e-07
2.29024e-05 -1.66408e-05 -3.49164e-06
2.76582e-07 -3.49164e-06 -2.86478e-05
0.000802814 3.72283e-05 -1.64507e-07
3.72283e-05 0.000165921 9.40565e-08
-1.64507e-07 9.40565e-08 0.000152708
0.00212472 6.68835e-05 1.10765e-05
6.68835e-05 0.000999162 -4.30909e-06
1.10765e-05 -4.30909e-06 0.00101017
0.000501122 5.20973e-05 3.85532e-06
5.20973e-05 -6.57808e-06 4.85563e-06
3.85532e-06 4.85563e-06 -3.08658e-05
0.00230809 9.05373e-05 -2.92439e-06
9.05373e-05 0.00112282 -2.60987e-07
-2.92439e-06 -2.60987e-07 0.00112829
0.00268916 0.000122631 -4.50592e-06
0.000122631 0.00137122 5.82009e-06
-4.50592e-06 5.82009e-06 0.00136821
0.00215318 0.000303173 -2.29291e-06
0.000303173 -2.54892e-05 -1.06441e-06
-2.29291e-06 -1.06441e-06 -2.17371e-05
0.00207972 9.59734e-05 1.05284e-06
9.59734e-05 -3.71449e-05 3.62839e-07
1.05284e-06 3.62839e-07 -2.04585e-06
0.00197081 -4.98784e-06 -1.79055e-06
-4.98784e-06 -7.45773e-06 -1.63391e-07
-1.79055e-06 -1.63391e-07 -1.54548e-06
0.0020715 -7.31064e-06 1.38398e-07
-7.31064e-06 -5.14079e-05 -1.86277e-07
1.38398e-07 -1.86277e-07 -4.3799e-06
0.00226489 0.000158886 -2.93208e-07
0.000158886 -3.33069e-05 3.4871e-07
-2.93208e-07 3.4871e-07 1.3895e-05
0.0021492 8.28597e-05 7.7718e-06
8.28597e-05 -5.945e-05 -4.7635e-06
7.7718e-06 -4.7635e-06 6.36263e-06
0.00228427 -5.82931e-06 1.70078e-06
-5.82931e-06 -7.81877e-05 -7.83542e-07
1.70078e-06 -7.83542e-07 3.65973e-06
0.004288 0.000677251 4.53966e-05
0.000677251 -0.000349417 7.57445e-06
4.53966e-05 7.57445e-06 0.000193949
0.00250985 6.18974e-05 -2.71967e-05
6.18974e-05 0.000326547 3.00929e-05
-2.71967e-05 3.00929e-05 0.000502108
0.000493087 0.000103099 -1.95204e-06
0.000103099 3.40859e-05 -8.27651e-07
-1.95204e-06 -8.27651e-07 -5.44499e-05
0.00208827 -0.000122492 1.91269e-07
-0.000122492 -3.93385e-05 -2.97728e-07
1.91269e-07 -2.97728e-07 1.55428e-06
0.00216088 -0.000305403 1.73413e-06
-0.000305403 -3.09919e-05 -6.98932e-07
1.73413e-06 -6.98932e-07 6.95097e-06
0.00207199 -0.000432 -4.42076e-07
-0.000432 -1.26332e-05 -1.37592e-07
-4.42076e-07 -1.37592e-07 -1.47892e-05
0.00100206 -0.000519384 -9.2501e-06
-0.000519384 8.79097e-05 7.79729e-06
-9.2501e-06 7.79729e-06 -0.000298082
0.00219691 -0.000787427 9.71227e-06
-0.000787427 0.000646528 7.47935e-06
9.71227e-06 7.47935e-06 0.000168999
0.00169751 -0.000719487 -8.23603e-06
-0.000719487 0.00012516 -8.60699e-06
-8.23603e-06 -8.60699e-06 -0.000217484
0.00212885 -0.000622303 -6.63358e-06
-0.000622303 0.000106615 -7.55768e-07
-6.63358e-06 -7.55768e-07 -3.50809e-05
0.00165876 -0.000481538 2.43507e-05
-0.000481538 0.000485764 -2.05968e-05
2.43507e-05 -2.05968e-05 0.000141966
0.000827911 -0.000299524 2.29079e-05
-0.000299524 0.000259161 -1.88669e-05
2.29079e-05 -1.88669e-05 -0.000174637
0.00127756 -8.53879e-05 1.84222e-06
-8.53879e-05 0.000454261 1.66871e-06
1.84222e-06 1.66871e-06 0.00017751
0.000513165 9.03407e-06 1.00353e-06
9.03407e-06 3.61111e-06 1.09683e-06
1.00353e-06 1.09683e-06 -4.34134e-05
0.00109334 -5.45751e-05 1.38209e-06
-5.45751e-05 0.000430851 4.54579e-06
1.38209e-06 4.54579e-06 0.000179284
0.000881873 -2.37185e-05 5.87522e-06
-2.37185e-05 0.000306479 -1.77688e-06
5.87522e-06 -1.77688e-06 0.0001963
0.00072063 -3.83875e-05 2.85956e-06
-3.83875e-05 0.000213967 -2.35555e-06
2.85956e-06 -2.35555e-06 2.76932e-05
0.000199566 -4.19231e-05 -3.9714e-06
-4.19231e-05 -0.000177488 5.58958e-07
-3.9714e-06 5.58958e-07 -0.000255107
0.00216873 -0.000157684 -5.19778e-07
-0.000157684 -0.000131619 -8.34465e-08
-5.19778e-07 -8.34465e-08 -5.5172e-05
0.000370029 2.7348e-05 1.38472e-07
2.7348e-05 -4.107e-05 -2.06842e-06
1.38472e-07 -2.06842e-06 -0.00013642
0.00058633 -5.61755e-05 2.25943e-06
-5.61755e-05 8.87544e-05 9.23437e-07
2.25943e-06 9.23437e-07 2.25147e-06
0.00085344 -0.000114723 2.39739e-06
-0.000114723 0.000221943 2.75347e-07
2.39739e-06 2.75347e-07 0.0001243
0.00219069 -0.000413656 1.84284e-06
-0.000413656 -0.000149597 -5.93843e-07
1.84284e-06 -5.93843e-07 -1.19321e-05
0.00223578 -0.000595733 6.71531e-07
-0.000595733 2.49404e-05 -1.14133e-06
6.71531e-07 -1.14133e-06 -1.68011e-05
0.000472354 -0.000428827 7.20052e-06
-0.000428827 -0.000168545 -4.64126e-08
7.20052e-06 -4.64126e-08 -0.000534094
0.00251721 -0.000912687 1.33194e-05
-0.000912687 0.000739067 -7.78857e-08
1.33194e-05 -7.78857e-08 0.000244094
0.00231349 -0.00081166 -1.62163e-06
-0.00081166 0.000309374 2.22406e-06
-1.62163e-06 2.22406e-06 8.02178e-05
0.000223691 -3.31285e-05 -1.00654e-06
-3.31285e-05 -0.000108279 -5.07629e-07
-1.00654e-06 -5.07629e-07 -0.000247427
0.000911774 -0.000101032 -1.08297e-06
-0.000101032 0.00032995 2.00618e-06
-1.08297e-06 2.00618e-06 0.000116613
0.00152306 -0.000644058 -4.71066e-06
-0.000644058 0.000380931 1.91633e-06
-4.71066e-06 1.91633e-06 -2.44637e-05
0.000312036 -0.000174883 9.5043e-08
-0.000174883 6.45696e-05 -1.38475e-06
9.5043e-08 -1.38475e-06 -0.000484173
0.00101293 -8.84522e-05 1.00159e-06
-8.84522e-05 0.000293618 3.49001e-06
1.00159e-06 3.49001e-06 6.76075e-05
0.00259084 -0.000297089 -4.35275e-06
-0.000297089 0.000114459 -5.86255e-07
-4.35275e-06 -5.86255e-07 0.000199172
0.0019837 -0.000452752 -1.79842e-05
-0.000452752 -0.000255535 6.43628e-06
-1.79842e-05 6.43628e-06 -5.69881e-05
0.00214636 -0.000736598 -8.10365e-06
-0.000736598 7.44517e-05 1.39894e-06
-8.10365e-06 1.39894e-06 -9.16685e-05
0.00392384 -0.00103625 -1.61659e-05
-0.00103625 0.0013332 -2.27165e-06
-1.61659e-05 -2.27165e-06 0.00101754
0.000582953 -0.00056781 -2.33337e-05
-0.00056781 -0.00013118 -5.43728e-06
-2.33337e-05 -5.43728e-06 -0.000538689
0.000152345 -2.53585e-05 9.48295e-07
-2.53585e-05 -0.000171942 -1.0207e-07
9.48295e-07 -1.0207e-07 -0.000276929
0.000586204 1.163e-05 -8.75299e-07
1.163e-05 4.26254e-05 6.54653e-06
-8.75299e-07 6.54653e-06 -5.40055e-05
-0.000906052 -7.65642e-05 -3.29866e-06
-7.65642e-05 -0.000859578 -2.42087e-06
-3.29866e-06 -2.42087e-06 -0.000941449
0.00195125 -0.000255447 -1.48231e-05
-0.000255447 0.000983608 1.77158e-05
-1.48231e-05 1.77158e-05 0.000795374
0.000884241 -9.187e-05 -5.47382e-06
-9.187e-05 0.000282191 1.88982e-05
-5.47382e-06 1.88982e-05 9.07218e-05
-0.00133226 -0.000108857 2.6082e-06
-0.000108857 -0.000560882 3.05129e-06
2.6082e-06 3.05129e-06 -0.00123476
1.54868e-05 -0.000765607 -1.28777e-05
-0.000765607 -0.000128617 6.89518e-08
-1.28777e-05 6.89518e-08 -0.000789333
0.00139291 0.000167668 -1.8138e-06
0.000167668 0.000612451 -6.76026e-06
-1.8138e-06 -6.76026e-06 0.000420878
-6.49878e-07 0.000102185 -4.52416e-06
0.000102185 -0.000279981 -2.84164e-06
-4.52416e-06 -2.84164e-06 -0.000498243
0.00244936 0.000308271 5.20518e-06
0.000308271 1.05376e-05 6.72608e-07
5.20518e-06 6.72608e-07 8.92272e-05
0.00244559 0.000546776 1.51011e-05
0.000546776 0.000224755 5.67778e-06
1.51011e-05 5.67778e-06 0.000135359
0.00213928 0.000687977 1.47517e-05
0.000687977 0.000282151 3.71882e-06
1.47517e-05 3.71882e-06 -2.49106e-05
0.0014671 0.000447603 -1.28655e-06
0.000447603 0.000393648 8.5911e-07
-1.28655e-06 8.5911e-07 8.27817e-05
0.0016566 0.000638474 1.83229e-06
0.000638474 0.000322307 2.73393e-06
1.83229e-06 2.73393e-06 -7.57268e-05
0.00182966 0.000242171 1.48658e-07
0.000242171 0.000873116 -1.37081e-07
1.48658e-07 -1.37081e-07 0.000666526
0.00263355 0.000373416 2.92072e-06
0.000373416 0.000200015 2.29995e-06
2.92072e-06 2.29995e-06 0.000321127
0.00121841 0.000364629 -2.69811e-06
0.000364629 0.000380247 1.92179e-06
-2.69811e-06 1.92179e-06 0.000109762
0.00172024 0.000561478 3.03864e-06
0.000561478 0.000482115 -3.42791e-07
3.03864e-06 -3.42791e-07 9.74949e-05
0.00217431 0.00069967 -3.78348e-06
0.00069967 0.000161598 -3.32507e-06
-3.78348e-06 -3.32507e-06 -2.98288e-05
0.00175274 0.000685566 -4.52757e-06
0.000685566 0.00031702 4.87721e-06
-4.52757e-06 4.87721e-06 -7.9762e-05
0.00309524 0.000944618 4.80259e-05
0.000944618 -0.000326289 5.58357e-06
4.80259e-05 5.58357e-06 -0.000326542
0.000851679 0.000267748 -3.98923e-06
0.000267748 0.000321611 2.64084e-06
-3.98923e-06 2.64084e-06 9.16062e-05
0.0028569 0.000677656 -8.28311e-05
0.000677656 0.000429871 -3.65259e-05
-8.28311e-05 -3.65259e-05 0.000386135
0.000843283 0.00038249 -4.5142e-06
0.00038249 5.09094e-06 1.53578e-06
-4.5142e-06 1.53578e-06 -0.000289157
7.62308e-05 0.000417995 -2.88016e-07
0.000417995 -0.000488668 -1.43665e-05
-2.88016e-07 -1.43665e-05 -0.000850574
0.000869565 0.000697056 -3.46146e-05
0.000697056 -0.000346726 -1.24829e-05
-3.46146e-05 -1.24829e-05 -0.000578621
0.013942 0.00034746 -0.000420182
0.00034746 0.00239699 -4.3414e-05
-0.000420182 -4.3414e-05 0.00170029
0.00446315 0.00148183 -1.56123e-05
0.00148183 -0.00114071 -8.43796e-05
-1.56123e-05 -8.43796e-05 -0.000321999
-0.000298428 0.00101437 7.66921e-07
0.00101437 -0.00111205 -2.50927e-07
7.66921e-07 -2.50927e-07 -0.00137736
-0.000157021 -0.00178969 0.00121603
-0.00178969 0.00113185 0.000267032
0.00121603 0.000267032 -0.00171165
0.0185925 -0.00698112 -1.01659e-05
-0.00698112 0.00648503 7.29834e-05
-1.01659e-05 7.29834e-05 0.00530266
-0.000179974 9.90667e-05 6.79422e-06
9.90667e-05 -0.000295303 2.04194e-06
6.79422e-06 2.04194e-06 -0.000396102
0.00110832 0.000110501 -1.60872e-07
0.000110501 0.00045906 -2.53194e-06
-1.60872e-07 -2.53194e-06 0.000376564
0.00205749 0.000237726 8.26326e-07
0.000237726 0.00105466 -2.48308e-07
8.26326e-07 -2.48308e-07 0.000945763
0.000512605 -5.62146e-05 -9.5409e-07
-5.62146e-05 6.40022e-05 -2.87868e-06
-9.5409e-07 -2.87868e-06 -6.08104e-05
0.000379658 6.10611e-05 -1.19177e-06
6.10611e-05 -3.50845e-05 -2.76689e-06
-1.19177e-06 -2.76689e-06 -0.000171861
0.00076829 -1.68797e-05 2.79665e-08
-1.68797e-05 0.00021665 -8.65643e-07
2.79665e-08 -8.65643e-07 7.38103e-05
0.000662419 6.31195e-05 -4.51876e-06
6.31195e-05 0.000121876 8.03667e-06
-4.51876e-06 8.03667e-06 2.13552e-05
0.000392064 6.65804e-05 3.06187e-06
6.65804e-05 -5.43323e-05 7.99452e-06
3.06187e-06 7.99452e-06 -0.00011664
0.00069169 0.000126471 -1.72891e-06
0.000126471 0.000183769 -4.35933e-07
-1.72891e-06 -4.35933e-07 1.99187e-05
0.000425085 -6.81345e-06 4.35876e-07
-6.81345e-06 -8.22706e-06 9.40762e-07
4.35876e-07 9.40762e-07 -0.000130292
0.000690884 4.26621e-05 -5.34864e-07
4.26621e-05 0.000170388 -4.15557e-08
-5.34864e-07 -4.15557e-08 1.34421e-05
0.000466393 7.88385e-05 -1.13348e-06
7.88385e-05 4.93516e-06 -2.0406e-07
-1.13348e-06 -2.0406e-07 -4.79237e-05
0.000679711 0.000105707 -1.33133e-06
0.000105707 0.000145176 -2.52606e-07
-1.33133e-06 -2.52606e-07 4.40548e-06
0.00154512 0.000184217 -1.66568e-06
0.000184217 0.000703139 -4.95458e-07
-1.66568e-06 -4.95458e-07 0.00052806
0.000364685 9.93487e-05 1.17936e-06
9.93487e-05 9.47595e-06 -1.97041e-06
1.17936e-06 -1.97041e-06 -0.00014417
0.000871126 0.000103517 2.74355e-06
0.000103517 0.000281597 6.14967e-07
2.74355e-06 6.14967e-07 0.000124783
0.000490506 -2.63782e-05 1.58876e-06
-2.63782e-05 3.03702e-05 7.79659e-07
1.58876e-06 7.79659e-07 -0.000123068
0.000353346 -6.88892e-05 -1.3248e-06
-6.88892e-05 -5.53312e-05 2.94394e-06
-1.3248e-06 2.94394e-06 -0.000182118
0.000739801 -2.84313e-05 -8.50547e-07
-2.84313e-05 0.000200006 -8.31645e-08
-8.50547e-07 -8.31645e-08 4.20207e-05
0.00113449 1.21094e-05 4.18274e-08
1.21094e-05 0.000435354 -8.13695e-06
4.18274e-08 -8.13695e-06 0.000282586
0.000601424 -3.70958e-05 -1.57369e-06
-3.70958e-05 0.000145838 -6.18467e-08
-1.57369e-06 -6.18467e-08 -2.42439e-06
0.000773519 -5.0904e-05 1.91242e-06
-5.0904e-05 0.000234759 -5.9175e-07
1.91242e-06 -5.9175e-07 8.07666e-05
0.000660883 -0.000116884 -2.54074e-06
-0.000116884 0.000141989 2.25815e-06
-2.54074e-06 2.25815e-06 1.63458e-05
0.000324178 -2.37138e-05 9.74042e-08
-2.37138e-05 -7.19998e-05 1.15073e-06
9.74042e-08 1.15073e-06 -0.000198001
0.000511381 -4.93818e-05 -2.31493e-06
-4.93818e-05 2.14743e-05 3.49938e-06
-2.31493e-06 3.49938e-06 -5.30719e-05
0.000512933 -3.45425e-05 1.83355e-06
-3.45425e-05 2.90268e-05 7.45193e-08
1.83355e-06 7.45193e-08 -4.91895e-05
0.00046891 3.73848e-06 2.08949e-06
3.73848e-06 -2.23063e-05 6.28853e-06
2.08949e-06 6.28853e-06 -4.55823e-05
0.000530605 4.55922e-05 -1.71771e-06
4.55922e-05 3.44818e-05 -3.44246e-06
-1.71771e-06 -3.44246e-06 -3.88004e-05
0.000429164 2.79682e-05 4.21393e-07
2.79682e-05 -4.82269e-05 6.8621e-08
4.21393e-07 6.8621e-08 -7.10646e-05
0.00250851 2.67039e-06 2.83461e-06
2.67039e-06 0.00122867 5.35413e-06
2.83461e-06 5.35413e-06 0.00124164
0.000495611 3.17298e-05 -2.94403e-06
3.17298e-05 -1.22373e-05 -6.88554e-06
-2.94403e-06 -6.88554e-06 -3.51166e-05
0.00169631 -6.75821e-06 -2.08161e-06
-6.75821e-06 0.000721006 1.48779e-07
-2.08161e-06 1.48779e-07 0.000729731
0.00080015 -1.24383e-05 5.89756e-07
-1.24383e-05 0.00015627 -2.30758e-06
5.89756e-07 -2.30758e-06 0.000162415
0.000479936 -1.26481e-06 8.03395e-08
-1.26481e-06 -1.66299e-05 -1.598e-06
8.03395e-08 -1.598e-06 -5.65507e-05
0.000555 -3.51448e-05 1.43791e-07
-3.51448e-05 3.3829e-05 -2.30881e-08
1.43791e-07 -2.30881e-08 -1.38065e-05
0.000536121 1.29784e-05 8.83986e-07
1.29784e-05 -7.89881e-06 -3.23058e-06
8.83986e-07 -3.23058e-06 -1.75111e-05
0.000497734 -3.19189e-05 -1.77251e-06
-3.19189e-05 -8.87839e-06 8.41854e-07
-1.77251e-06 8.41854e-07 -5.50238e-05
0.000798416 2.72104e-05 -1.22529e-07
2.72104e-05 0.000157946 -7.27622e-07
-1.22529e-07 -7.27622e-07 0.000148045
0.00199 4.96379e-05 7.48246e-06
4.96379e-05 0.000909328 -4.42581e-06
7.48246e-06 -4.42581e-06 0.000923772
0.000484282 3.29385e-05 2.70037e-07
3.29385e-05 -3.21957e-05 3.49223e-06
2.70037e-07 3.49223e-06 -4.76102e-05
0.00220343 7.1032e-05 -6.1251e-06
7.1032e-05 0.0010509 1.12091e-06
-6.1251e-06 1.12091e-06 0.00106087
0.00240775 9.68236e-05 -6.2656e-06
9.68236e-05 0.00118655 4.96814e-06
-6.2656e-06 4.96814e-06 0.00119051
0.00223657 0.000164586 -2.85919e-06
0.000164586 -3.31279e-05 -1.13656e-06
-2.85919e-06 -1.13656e-06 1.32632e-05
0.00206316 -6.59731e-06 1.10528e-06
-6.59731e-06 -5.49105e-05 -7.77574e-08
1.10528e-06 -7.77574e-08 -8.42638e-06
0.00193352 5.99773e-05 -1.26914e-06
5.99773e-05 -0.000216906 1.18712e-06
-1.26914e-06 1.18712e-06 -0.000153861
0.00246858 0.000497122 7.91887e-05
0.000497122 -0.00119543 1.76342e-05
7.91887e-05 1.76342e-05 -0.000665458
0.00226474 -3.00735e-05 -1.05277e-06
-3.00735e-05 -7.00062e-05 -2.44146e-06
-1.05277e-06 -2.44146e-06 1.22445e-05
0.00215623 6.21832e-05 9.77935e-07
6.21832e-05 0.000126905 -8.77824e-06
9.77935e-07 -8.77824e-06 0.000248643
0.00330636 -3.57393e-05 -2.52073e-05
-3.57393e-05 0.000919366 2.92345e-06
-2.52073e-05 2.92345e-06 0.000928245
0.00300848 1.21857e-05 -9.60353e-06
1.21857e-05 -0.00172753 -2.68102e-05
-9.60353e-06 -2.68102e-05 -0.000868617
0.00267901 0.000178653 0.000105362
0.000178653 -0.000607691 5.53123e-05
0.000105362 5.53123e-05 -0.000147046
0.000584666 8.38285e-05 -3.84536e-08
8.38285e-05 9.27088e-05 -4.16743e-07
-3.84536e-08 -4.16743e-07 3.83287e-06
0.000581894 -4.65021e-06 4.85167e-07
-4.65021e-06 9.89141e-05 -1.14047e-07
4.85167e-07 -1.14047e-07 3.22912e-06
0.000440894 -9.83944e-05 -4.57475e-06
-9.83944e-05 1.87579e-05 5.92097e-07
-4.57475e-06 5.92097e-07 -9.17318e-05
0.000463143 -5.4297e-05 -2.80752e-06
-5.4297e-05 4.56009e-05 1.95394e-06
-2.80752e-06 1.95394e-06 -6.82654e-05
0.00224498 -0.000176014 -3.84226e-06
-0.000176014 -0.00010941 5.79693e-07
-3.84226e-06 5.79693e-07 -1.57571e-05
0.00220195 -0.000418536 1.92617e-06
-0.000418536 -0.000116555 -1.9516e-06
1.92617e-06 -1.9516e-06 -1.12543e-05
0.00215728 -0.000589079 -3.43906e-06
-0.000589079 -1.68008e-05 -5.94235e-07
-3.43906e-06 -5.94235e-07 -5.80051e-05
0.00337811 -0.000752175 1.10523e-05
-0.000752175 0.00149275 8.76747e-06
1.10523e-05 8.76747e-06 0.00107452
0.000451943 -0.000693216 3.20718e-06
-0.000693216 -0.000404618 -3.10018e-06
3.20718e-06 -3.10018e-06 -0.00085716
0.0021125 -0.00078861 2.17689e-06
-0.00078861 0.000219998 -3.64953e-06
2.17689e-06 -3.64953e-06 -1.42287e-05
0.0015581 -0.000679569 8.83975e-06
-0.000679569 0.000382494 -1.06108e-05
8.83975e-06 -1.06108e-05 -5.77259e-05
0.00336961 -0.000254017 7.33563e-06
-0.000254017 0.00165375 -3.51215e-06
7.33563e-06 -3.51215e-06 0.00127983
-0.000104429 -2.358e-05 -3.24153e-06
-2.358e-05 -0.000428237 3.17352e-06
-3.24153e-06 3.17352e-06 -0.000619748
0.000663916 -5.54325e-05 1.95505e-06
-5.54325e-05 0.000139169 3.24272e-09
1.95505e-06 3.24272e-09 5.25183e-05
0.000592886 -0.000114136 -9.27817e-07
-0.000114136 0.000148642 -8.35709e-06
-9.27817e-07 -8.35709e-06 -7.40415e-05
0.000615473 -1.77418e-05 4.25007e-06
-1.77418e-05 0.000139371 -2.16775e-06
4.25007e-06 -2.16775e-06 -2.94197e-06
0.000621797 8.11499e-07 2.28486e-07
8.11499e-07 0.000135262 1.31592e-06
2.28486e-07 1.31592e-06 2.96654e-05
0.000545484 -5.39469e-05 -7.79844e-06
-5.39469e-05 2.68498e-05 1.64003e-06
-7.79844e-06 1.64003e-06 -5.84744e-05
0.00255447 -0.000280382 1.71403e-06
-0.000280382 0.00010221 1.20925e-06
1.71403e-06 1.20925e-06 0.000203435
0.000549966 -2.7468e-05 -1.12435e-07
-2.7468e-05 9.05938e-05 1.14432e-06
-1.12435e-07 1.14432e-06 -3.20085e-05
0.000832409 -2.78691e-05 5.75754e-06
-2.78691e-05 0.000211321 -3.16957e-07
5.75754e-06 -3.16957e-07 0.000103248
-0.000202546 -1.96675e-05 2.22002e-06
-1.96675e-05 -0.00039436 6.29408e-07
2.22002e-06 6.29408e-07 -0.000459609
0.00194021 -0.000460747 4.11353e-07
-0.000460747 -0.000309119 -1.20003e-06
4.11353e-07 -1.20003e-06 -0.0001178
0.00218976 -0.000737395 2.0951e-06
-0.000737395 9.47633e-05 -1.30238e-06
2.0951e-06 -1.30238e-06 -6.32256e-05
0.00180424 -0.000746591 -2.42599e-06
-0.000746591 0.000541981 -2.97747e-07
-2.42599e-06 -2.97747e-07 0.000108566
0.0024786 -0.000905914 -6.19972e-06
-0.000905914 0.000545062 1.37371e-06
-6.19972e-06 1.37371e-06 0.000242419
0.00139262 -0.000130328 4.88161e-07
-0.000130328 0.000611225 -3.80299e-07
4.88161e-07 -3.80299e-07 0.000436984
0.000248723 -3.86234e-05 5.47515e-06
-3.86234e-05 -0.000125033 3.20617e-06
5.47515e-06 3.20617e-06 -0.000312753
0.00147282 -0.000891337 4.01369e-06
-0.000891337 0.000724348 -2.0581e-06
4.01369e-06 -2.0581e-06 3.4219e-05
0.00111717 -0.000336548 -4.72996e-06
-0.000336548 0.000491071 -4.17058e-07
-4.72996e-06 -4.17058e-07 2.00411e-05
0.00317012 -0.000400869 -3.61777e-05
-0.000400869 0.000352229 9.64456e-08
-3.61777e-05 9.64456e-08 0.000591779
0.00234588 -0.00059143 -4.35288e-05
-0.00059143 0.00010237 1.17797e-05
-4.35288e-05 1.17797e-05 0.000166618
0.00235162 -0.000853385 -2.31631e-06
-0.000853385 0.000356036 -5.48579e-06
-2.31631e-06 -5.48579e-06 6.59864e-05
0.00277888 -0.000874045 -8.28981e-06
-0.000874045 0.000913874 3.35827e-07
-8.28981e-06 3.35827e-07 0.000605414
0.000253936 -4.2631e-05 -1.64398e-06
-4.2631e-05 -5.28142e-05 -5.64477e-06
-1.64398e-06 -5.64477e-06 -0.000173707
0.000387164 -0.000107574 -7.89061e-06
-0.000107574 -1.52918e-05 -8.83315e-06
-7.89061e-06 -8.83315e-06 -0.000174314
4.18675e-05 -0.000163493 -5.20644e-06
-0.000163493 2.99948e-05 3.53474e-05
-5.20644e-06 3.53474e-05 -0.000270744
-0.00113298 -0.000618822 -7.68634e-06
-0.000618822 -0.000184881 -2.54607e-05
-7.68634e-06 -2.54607e-05 -0.00113609
0.00206431 -0.000481397 4.46465e-05
-0.000481397 -0.00482202 -3.9909e-06
4.46465e-05 -3.9909e-06 -0.00486037
0.00204654 0.000232366 -1.59056e-06
0.000232366 0.00098768 -4.52217e-06
-1.59056e-06 -4.52217e-06 0.000786544
0.00110329 0.000317131 -1.27309e-06
0.000317131 0.000304735 -5.37756e-07
-1.27309e-06 -5.37756e-07 5.05159e-05
0.00192443 0.000311373 6.41598e-05
0.000311373 -0.00019124 1.76768e-05
6.41598e-05 1.76768e-05 -5.11214e-05
0.00249848 0.000711789 2.73731e-05
0.000711789 0.00034686 1.06892e-05
2.73731e-05 1.06892e-05 0.000164662
0.00211597 0.000730158 1.18604e-05
0.000730158 0.000534491 1.10553e-05
1.18604e-05 1.10553e-05 0.00012415
0.00128404 0.000516065 5.90205e-06
0.000516065 0.000251837 7.27252e-06
5.90205e-06 7.27252e-06 -0.000134835
0.00508763 0.00118602 0.000120445
0.00118602 0.000434803 4.36977e-05
0.000120445 4.36977e-05 0.000240205
0.00155582 0.000287023 4.761e-06
0.000287023 0.000732309 -7.38488e-08
4.761e-06 -7.38488e-08 0.000513631
0.00253899 0.00063409 -2.10911e-05
0.00063409 0.000254584 4.60255e-07
-2.10911e-05 4.60255e-07 0.000234465
0.000889768 0.00038906 -3.6923e-06
0.00038906 6.95309e-05 2.77425e-06
-3.6923e-06 2.77425e-06 -0.00023061
0.00144197 0.000592445 1.67716e-06
0.000592445 0.000298164 -5.50301e-06
1.67716e-06 -5.50301e-06 -9.77884e-05
0.00190484 0.000786972 -1.0982e-05
0.000786972 0.000200575 -2.52467e-07
-1.0982e-05 -2.52467e-07 -5.84699e-05
0.00431913 -0.000626168 -0.000160008
-0.000626168 -0.00417262 -6.91074e-05
-0.000160008 -6.91074e-05 -0.00515631
0.00716915 0.00145809 -0.000109763
0.00145809 0.00014496 -6.3204e-05
-0.000109763 -6.3204e-05 0.0006905
0.00095333 0.00103173 -6.72689e-06
0.00103173 -0.000410093 7.94127e-06
-6.72689e-06 7.94127e-06 -0.000757101
-0.000360169 -0.00156676 0.000440635
-0.00156676 0.00244233 0.000184504
0.000440635 0.000184504 -0.00023005
0.0101713 -0.00697668 -0.000408165
-0.00697668 0.00440454 -0.000381314
-0.000408165 -0.000381314 0.00312992
0.00120641 0.000268513 -1.31671e-05
0.000268513 0.000452969 1.12928e-06
-1.31671e-05 1.12928e-06 0.000253085
0.000757173 0.000532674 0.000618223
0.000532674 0.00363764 7.19069e-05
0.000618223 7.19069e-05 0.00178
0.00255824 -0.00234176 -0.000166121
-0.00234176 0.00481314 -0.000222837
-0.000166121 -0.000222837 0.000505926
0.00256599 0.000966669 -4.70241e-05
0.000966669 0.000381952 -1.44979e-05
-4.70241e-05 -1.44979e-05 0.000247101
0.000886603 0.000310871 -2.33278e-05
0.000310871 7.9876e-05 -5.79094e-06
-2.33278e-05 -5.79094e-06 -0.000185509
0.000590335 0.000603562 -2.74713e-05
0.000603562 -0.00010594 -2.89813e-05
-2.74713e-05 -2.89813e-05 -0.000441209
0.000134509 0.0010003 4.37439e-05
0.0010003 -0.000670412 9.2598e-05
4.37439e-05 9.2598e-05 -0.00102873
0.0121735 0.00205043 4.57591e-05
0.00205043 0.00164923 -4.00191e-05
4.57591e-05 -4.00191e-05 0.000373944
0.00384638 0.00211462 -2.03603e-05
0.00211462 3.51824e-06 -4.76349e-05
-2.03603e-05 -4.76349e-05 1.76649e-05
0.0118179 -0.00573012 0.000904551
-0.00573012 0.00336692 0.000492218
0.000904551 0.000492218 0.000861292
0.0114355 -0.00267373 -5.58479e-05
-0.00267373 0.00249124 0.000540292
-5.58479e-05 0.000540292 0.00149767
0.000460393 0.000102295 6.21596e-06
0.000102295 9.74774e-05 -1.45401e-06
6.21596e-06 -1.45401e-06 1.39504e-05
0.000327643 0.000126097 8.16782e-06
0.000126097 1.52855e-05 4.19764e-07
8.16782e-06 4.19764e-07 -8.43555e-05
0.00190548 0.000279052 3.8709e-06
0.000279052 0.000981874 -1.96625e-06
3.8709e-06 -1.96625e-06 0.000817951
0.000582367 1.05933e-05 7.76779e-07
1.05933e-05 0.00011251 -9.04101e-07
7.76779e-07 -9.04101e-07 -2.42991e-05
0.000634768 6.33889e-05 -1.17081e-06
6.33889e-05 0.000130389 -2.08181e-06
-1.17081e-06 -2.08181e-06 -2.0737e-05
0.00015332 2.70761e-05 -1.55882e-06
2.70761e-05 -0.000163491 5.64675e-07
-1.55882e-06 5.64675e-07 -0.000307508
0.000624937 9.92886e-05 -7.43451e-06
9.92886e-05 0.000126592 1.1686e-06
-7.43451e-06 1.1686e-06 -1.61547e-05
-0.000708227 4.28491e-05 -4.27853e-06
4.28491e-05 -0.000724553 -1.7715e-07
-4.27853e-06 -1.7715e-07 -0.000776229
0.000369673 -1.33815e-05 2.38164e-07
-1.33815e-05 -3.84294e-05 9.96881e-07
2.38164e-07 9.96881e-07 -0.000169114
0.00120156 0.000119668 1.41989e-06
0.000119668 0.000481306 -2.50232e-07
1.41989e-06 -2.50232e-07 0.000318879
0.000635266 5.10903e-05 4.43706e-07
5.10903e-05 0.000144275 1.88587e-07
4.43706e-07 1.88587e-07 -1.71399e-05
0.000734632 3.16808e-05 1.26655e-06
3.16808e-05 0.000203209 -4.87809e-07
1.26655e-06 -4.87809e-07 3.45631e-05
0.000451348 0.000103136 -3.44685e-07
0.000103136 6.24376e-05 -2.031e-06
-3.44685e-07 -2.031e-06 -8.80212e-05
0.00135243 0.000119265 -1.8526e-06
0.000119265 0.000597764 -1.33519e-06
-1.8526e-06 -1.33519e-06 0.000434279
-0.000253175 4.75579e-05 -5.6603e-06
4.75579e-05 -0.000277988 -3.87391e-06
-5.6603e-06 -3.87391e-06 -0.000468441
0.000633341 -9.75351e-05 -2.7194e-07
-9.75351e-05 0.00013633 -3.33855e-08
-2.7194e-07 -3.33855e-08 -2.47524e-05
0.000789044 -7.73268e-05 -7.01852e-07
-7.73268e-05 0.000246934 3.22663e-08
-7.01852e-07 3.22663e-08 7.70727e-05
0.000752807 -4.65153e-05 -1.01459e-07
-4.65153e-05 0.000220966 -4.564e-07
-1.01459e-07 -4.564e-07 5.35393e-05
0.000746911 -1.7748e-05 -2.96413e-06
-1.7748e-05 0.000180952 7.30467e-08
-2.96413e-06 7.30467e-08 4.38165e-05
0.00103038 3.78712e-06 -4.97127e-06
3.78712e-06 0.000416129 -3.83629e-06
-4.97127e-06 -3.83629e-06 0.000228205
0.000769134 -3.68547e-05 1.5186e-06
-3.68547e-05 0.000215454 -7.16849e-06
1.5186e-06 -7.16849e-06 7.84988e-05
-0.0010408 -1.00096e-05 -2.68963e-06
-1.00096e-05 -0.000906741 -4.88923e-06
-2.68963e-06 -4.88923e-06 -0.00102394
0.00061494 -4.37075e-05 1.08422e-06
-4.37075e-05 0.000123093 -1.10412e-06
1.08422e-06 -1.10412e-06 -2.95411e-05
0.000383303 -7.53791e-05 1.34768e-06
-7.53791e-05 -2.05308e-05 1.12228e-06
1.34768e-06 1.12228e-06 -0.000152251
0.000676685 -8.54161e-05 -1.11651e-06
-8.54161e-05 0.000180418 -2.40516e-07
-1.11651e-06 -2.40516e-07 3.50533e-05
0.000523728 -7.87467e-05 -2.18819e-06
-7.87467e-05 4.02896e-05 1.86112e-06
-2.18819e-06 1.86112e-06 -6.93665e-05
0.000437155 -6.68263e-05 3.35425e-06
-6.68263e-05 -3.29008e-06 1.97246e-07
3.35425e-06 1.97246e-07 -0.000136661
0.000535597 -0.000106201 8.68253e-08
-0.000106201 6.13656e-05 2.36021e-07
8.68253e-08 2.36021e-07 -6.28359e-05
0.000547594 -4.88333e-05 -2.43981e-06
-4.88333e-05 4.14753e-05 3.97622e-06
-2.43981e-06 3.97622e-06 -3.39019e-05
0.000424214 -1.03839e-05 1.46117e-06
-1.03839e-05 3.77935e-06 -9.53221e-07
1.46117e-06 -9.53221e-07 -0.000133035
0.000506847 1.29093e-06 1.96091e-06
1.29093e-06 2.60533e-05 7.85644e-08
1.96091e-06 7.85644e-08 -5.28824e-05
0.0014425 -2.03548e-05 -7.59352e-06
-2.03548e-05 0.000575582 6.48575e-06
-7.59352e-06 6.48575e-06 0.00055633
0.000504588 6.13347e-05 -1.36589e-06
6.13347e-05 2.43399e-05 -3.33105e-06
-1.36589e-06 -3.33105e-06 -5.36545e-05
0.000883813 -1.19118e-05 -3.34306e-06
-1.19118e-05 0.000234634 7.36555e-07
-3.34306e-06 7.36555e-07 0.000213478
0.000778242 3.23713e-06 -3.34838e-06
3.23713e-06 0.000156758 4.86139e-06
-3.34838e-06 4.86139e-06 0.000161722
0.00042716 -1.00312e-05 2.71674e-06
-1.00312e-05 -4.97853e-05 -4.74969e-06
2.71674e-06 -4.74969e-06 -7.22587e-05
0.00253534 2.59841e-06 6.09714e-06
2.59841e-06 0.00124558 -1.52489e-08
6.09714e-06 -1.52489e-08 0.00125848
0.000890937 1.04722e-06 -6.99082e-06
1.04722e-06 0.000222169 -5.30058e-06
-6.99082e-06 -5.30058e-06 0.000226781
0.000505043 6.31003e-05 2.34522e-06
6.31003e-05 4.64794e-05 1.06277e-06
2.34522e-06 1.06277e-06 -4.86581e-05
0.000480154 4.77348e-05 -2.29364e-06
4.77348e-05 -6.18781e-06 -2.00031e-06
-2.29364e-06 -2.00031e-06 -5.08236e-05
0.00050006 -6.10568e-06 1.51613e-06
-6.10568e-06 5.74901e-06 5.98751e-08
1.51613e-06 5.98751e-08 -4.06241e-05
0.000508986 8.64783e-06 8.08867e-07
8.64783e-06 -2.38428e-05 -3.06798e-06
8.08867e-07 -3.06798e-06 -3.24576e-05
0.000561451 -5.58073e-05 -1.74513e-06
-5.58073e-05 4.37762e-05 2.05101e-06
-1.74513e-06 2.05101e-06 -7.4638e-06
0.000494746 1.34985e-05 7.43419e-08
1.34985e-05 -3.40548e-05 -7.30173e-07
7.43419e-08 -7.30173e-07 -4.33868e-05
0.00198467 3.42566e-05 5.17207e-06
3.42566e-05 0.00090195 -4.54613e-06
5.17207e-06 -4.54613e-06 0.000918397
0.00108687 3.47427e-05 -4.47747e-07
3.47427e-05 0.000339017 1.6908e-06
-4.47747e-07 1.6908e-06 0.000330347
0.00144698 4.29547e-05 -1.65674e-07
4.29547e-05 0.000571181 1.40425e-06
-1.65674e-07 1.40425e-06 0.000581136
0.000869283 4.6638e-05 -8.84029e-06
4.6638e-05 0.00021656 7.55832e-06
-8.84029e-06 7.55832e-06 0.000219781
0.000853289 0.000338779 8.70915e-05
0.000338779 -0.00195722 1.67115e-05
8.70915e-05 1.67115e-05 -0.00142474
0.00221985 -4.76383e-05 -3.42971e-06
-4.76383e-05 -6.72732e-05 4.26522e-06
-3.42971e-06 4.26522e-06 8.08021e-06
0.00223815 7.18106e-05 3.46939e-05
7.18106e-05 0.000206134 -1.55219e-05
3.46939e-05 -1.55219e-05 0.000310646
0.00241125 0.000300961 -4.54557e-05
0.000300961 -0.00159426 -3.0478e-05
-4.54557e-05 -3.0478e-05 -0.000524961
0.00209599 0.000101554 3.5079e-05
0.000101554 -0.000708204 -2.01581e-06
3.5079e-05 -2.01581e-06 -0.000383129
0.00254234 -4.47082e-05 3.62944e-06
-4.47082e-05 0.000381254 -8.13325e-06
3.62944e-06 -8.13325e-06 0.000412895
0.0044995 -0.000276732 -5.09624e-05
-0.000276732 0.00110897 -1.43642e-05
-5.09624e-05 -1.43642e-05 0.00114732
0.00271298 -0.000151519 2.19037e-05
-0.000151519 -0.000211997 2.20388e-05
2.19037e-05 2.20388e-05 9.06145e-05
0.0143219 -0.000760486 2.41832e-05
-0.000760486 0.00259233 1.03667e-05
2.41832e-05 1.03667e-05 0.00132321
0.0145553 0.00452606 0.001166
0.00452606 0.00576185 -0.000429278
0.001166 -0.000429278 0.00354679
0.0153424 0.00525718 1.32553e-05
0.00525718 0.0100403 4.84175e-06
1.32553e-05 4.84175e-06 0.00810713
0.000255978 -9.86479e-05 3.14817e-07
-9.86479e-05 -9.42435e-05 -4.00653e-07
3.14817e-07 -4.00653e-07 -0.000200907
0.00056389 -9.59884e-06 1.34462e-06
-9.59884e-06 8.04605e-05 -1.40717e-07
1.34462e-06 -1.40717e-07 -9.38857e-06
0.000649543 -8.81712e-05 -5.30219e-07
-8.81712e-05 0.000148256 2.65261e-06
-5.30219e-07 2.65261e-06 4.54927e-05
0.000557217 -3.94893e-05 3.62473e-07
-3.94893e-05 8.5052e-05 5.47157e-07
3.62473e-07 5.47157e-07 -2.54964e-05
0.000785819 8.7966e-05 -3.79547e-06
8.7966e-05 0.000259786 1.25514e-06
-3.79547e-06 1.25514e-06 0.00013111
0.000390887 0.000117389 1.39791e-06
0.000117389 -3.88916e-05 7.45846e-06
1.39791e-06 7.45846e-06 -0.000154462
0.000983744 -1.85599e-05 3.36228e-06
-1.85599e-05 0.000371514 3.3838e-06
3.36228e-06 3.3838e-06 0.00023872
0.000501392 -2.80715e-05 -1.54479e-06
-2.80715e-05 5.08826e-05 1.31641e-06
-1.54479e-06 1.31641e-06 -5.85933e-05
0.00249485 -0.000265087 8.56789e-06
-0.000265087 6.07281e-05 7.38791e-07
8.56789e-06 7.38791e-07 0.00019025
0.00198746 -0.000481137 1.64245e-05
-0.000481137 -0.00031703 -6.44104e-06
1.64245e-05 -6.44104e-06 -0.000139079
0.00213594 -0.000732765 2.25671e-06
-0.000732765 6.21052e-05 6.67466e-07
2.25671e-06 6.67466e-07 -8.96373e-05
0.00178548 -0.00072478 1.95512e-05
-0.00072478 0.000509807 4.91767e-06
1.95512e-05 4.91767e-06 9.85674e-05
0.00193504 -0.000877232 -4.81974e-06
-0.000877232 0.000239299 5.57316e-06
-4.81974e-06 5.57316e-06 -6.53002e-05
0.00333004 -0.00105671 3.00523e-05
-0.00105671 0.00179398 -4.95287e-06
3.00523e-05 -4.95287e-06 0.00105353
0.00409145 -0.00062129 5.25337e-06
-0.00062129 0.00200786 -1.57543e-06
5.25337e-06 -1.57543e-06 0.00163884
0.000725268 -0.000168018 8.1062e-06
-0.000168018 0.0002077 -2.30555e-05
8.1062e-06 -2.30555e-05 -2.69545e-05
0.000571055 -6.3381e-05 1.32127e-06
-6.3381e-05 4.12658e-05 2.857e-06
1.32127e-06 2.857e-06 -5.51089e-05
0.000713125 -9.00343e-05 9.00263e-06
-9.00343e-05 0.000157906 -1.68567e-05
9.00263e-06 -1.68567e-05 4.46167e-06
0.00102464 -4.39729e-05 2.86376e-06
-4.39729e-05 0.000378582 1.27474e-06
2.86376e-06 1.27474e-06 0.000248264
0.000617025 3.0033e-05 4.49106e-06
3.0033e-05 0.000119931 -1.14792e-06
4.49106e-06 -1.14792e-06 7.58072e-05
0.00231948 -0.000360446 -7.95961e-07
-0.000360446 -6.91363e-05 3.37763e-06
-7.95961e-07 3.37763e-06 0.000176031
0.000529506 -5.76391e-05 -2.56366e-06
-5.76391e-05 0.000110581 -5.72802e-07
-2.56366e-06 -5.72802e-07 -1.54264e-05
0.00101073 -0.000154104 -6.6997e-06
-0.000154104 0.000354561 5.58974e-06
-6.6997e-06 5.58974e-06 0.000212717
0.00176364 -0.00056818 5.95029e-06
-0.00056818 -0.000233457 -3.12839e-06
5.95029e-06 -3.12839e-06 -0.000145753
0.00173294 -0.000768639 9.74257e-07
-0.000768639 1.06836e-07 -1.10204e-06
9.74257e-07 -1.10204e-06 -0.000227301
0.000897611 -0.000670575 1.5121e-07
-0.000670575 -0.00015728 -1.50398e-06
1.5121e-07 -1.50398e-06 -0.000427744
0.00164262 -0.000307392 7.08047e-07
-0.000307392 0.000888661 -1.93524e-05
7.08047e-07 -1.93524e-05 0.000558534
0.00167345 -0.000634007 -4.41308e-07
-0.000634007 0.00123306 2.75989e-06
-4.41308e-07 2.75989e-06 0.00044594
0.00448711 -0.000676225 -4.6956e-05
-0.000676225 0.000992355 1.65499e-05
-4.6956e-05 1.65499e-05 0.00115674
0.00388251 -0.000869054 -5.19487e-05
-0.000869054 0.00117686 1.42154e-05
-5.19487e-05 1.42154e-05 0.0010284
0.00205862 -0.00087491 -2.6186e-06
-0.00087491 0.000277085 -2.29828e-06
-2.6186e-06 -2.29828e-06 2.9423e-05
-0.000653048 -0.000412213 -1.12536e-05
-0.000412213 -0.000759419 1.8666e-05
-1.12536e-05 1.8666e-05 -0.000908572
0.000315073 -0.00013 1.73941e-06
-0.00013 1.08831e-05 7.98334e-06
1.73941e-06 7.98334e-06 -0.000187555
0.000424962 -0.000167375 4.44046e-06
-0.000167375 0.000130897 -7.75177e-07
4.44046e-06 -7.75177e-07 -9.84134e-05
0.00167709 -0.000239146 -3.71415e-06
-0.000239146 0.00121787 -2.02846e-05
-3.71415e-06 -2.02846e-05 0.000594009
-0.00639443 -0.000293972 0.000466614
-0.000293972 -0.00447624 -1.29315e-05
0.000466614 -1.29315e-05 -0.00362593
0.0112946 -0.000292078 5.65101e-05
-0.000292078 0.00168096 9.8109e-06
5.65101e-05 9.8109e-06 0.001484
0.00217358 0.000286843 6.7081e-06
0.000286843 0.00106617 -6.86966e-06
6.7081e-06 -6.86966e-06 0.000874225
0.00153307 0.00046479 -4.2529e-06
0.00046479 0.000484027 4.22331e-06
-4.2529e-06 4.22331e-06 0.000163619
0.00280814 0.000598162 9.20014e-05
0.000598162 0.000437914 4.02234e-05
9.20014e-05 4.02234e-05 0.000429059
0.00303686 0.000892414 2.50423e-05
0.000892414 0.000798572 1.11792e-05
2.50423e-05 1.11792e-05 0.000512848
0.00277284 0.000757651 1.65083e-05
0.000757651 0.00106292 5.03321e-06
1.65083e-05 5.03321e-06 0.000637693
0.0146934 0.000685484 7.54876e-05
0.000685484 0.00309314 -3.90432e-05
7.54876e-05 -3.90432e-05 0.00222335
0.00847903 0.00195738 -0.000196209
0.00195738 -3.73062e-05 2.04891e-05
-0.000196209 2.04891e-05 0.00059504
0.00267803 0.00113266 2.73588e-06
0.00113266 0.000572275 -2.9722e-05
2.73588e-06 -2.9722e-05 0.000105053
0.0122356 -0.00349448 -0.000425496
-0.00349448 0.00522045 -2.26631e-05
-0.000425496 -2.26631e-05 0.00307315
0.00018175 -0.00716841 -0.00205162
-0.00716841 0.00212102 -0.00133686
-0.00205162 -0.00133686 0.000402651
0.000916481 0.000285164 1.15093e-06
0.000285164 0.000336433 9.22774e-08
1.15093e-06 9.22774e-08 0.000110178
-0.00207284 -0.00205072 0.000379349
-0.00205072 -0.0027099 6.52354e-05
0.000379349 6.52354e-05 -0.00410263
-0.00305549 -0.00174486 -0.000403459
-0.00174486 0.00441204 -0.000180141
-0.000403459 -0.000180141 -0.000202718
0.00331084 0.000947484 -1.71137e-05
0.000947484 0.000750373 5.24375e-07
-1.71137e-05 5.24375e-07 0.000641679
0.00104161 0.000392894 -7.17534e-06
0.000392894 0.000214629 7.22199e-06
-7.17534e-06 7.22199e-06 -9.40434e-05
0.00123349 0.000702774 5.15136e-06
0.000702774 0.000236946 2.51695e-06
5.15136e-06 2.51695e-06 -0.000128078
0.0015464 0.000999174 4.71521e-05
0.000999174 0.000266386 2.79276e-05
4.71521e-05 2.79276e-05 5.4653e-06
0.0132833 0.00205643 -0.000134802
0.00205643 0.00115737 -8.14224e-05
-0.000134802 -8.14224e-05 -0.000723396
0.00490516 0.00263348 -5.82453e-05
0.00263348 -8.91732e-05 -4.75563e-05
-5.82453e-05 -4.75563e-05 0.000257669
0.0164321 -0.00427178 0.000443635
-0.00427178 0.00659045 -1.00817e-05
0.000443635 -1.00817e-05 0.0039422
0.0131393 -0.00362458 0.000191334
-0.00362458 0.00167015 0.000643286
0.000191334 0.000643286 0.000553366
0.00264035 0.000397315 -1.97582e-05
0.000397315 0.00134381 -1.30838e-05
-1.97582e-05 -1.30838e-05 0.00114033
-0.0102549 0.00106275 -0.000136628
0.00106275 0.00299043 -0.000125856
-0.000136628 -0.000125856 -0.00274835
0.00452763 0.000713281 -0.000323065
0.000713281 0.00347957 -0.000437009
-0.000323065 -0.000437009 -0.000993877
0.00320745 0.000755125 -2.65002e-05
0.000755125 0.000980211 2.86339e-06
-2.65002e-05 2.86339e-06 0.000940183
0.00208729 0.000702833 -6.54451e-05
0.000702833 0.000848691 -2.55913e-05
-6.54451e-05 -2.55913e-05 0.000505446
0.00143302 0.000749988 -8.57053e-05
0.000749988 0.00103463 -1.82593e-05
-8.57053e-05 -1.82593e-05 0.000351199
-0.00120565 0.00155658 -4.39008e-05
0.00155658 -0.000664374 -3.55719e-05
-4.39008e-05 -3.55719e-05 -0.000868251
-0.000462885 0.00239186 0.000343215
0.00239186 -0.00193659 0.000120586
0.000343215 0.000120586 -0.00473317
0.0177839 -0.00510282 0.000256649
-0.00510282 0.00842507 0.000620208
0.000256649 0.000620208 0.00520815
0.00820437 -0.00119296 -0.000143746
-0.00119296 -0.00203325 -0.000132093
-0.000143746 -0.000132093 -0.000924923
-0.000930724 9.18428e-05 2.63326e-06
9.18428e-05 -0.000696322 -8.75221e-06
2.63326e-06 -8.75221e-06 -0.000821645
0.00147165 0.000255752 1.15217e-05
0.000255752 0.000702929 2.95591e-06
1.15217e-05 2.95591e-06 0.000543948
-0.000374685 8.27161e-05 -7.70217e-07
8.27161e-05 -0.000344951 -6.30592e-06
-7.70217e-07 -6.30592e-06 -0.000493353
0.000347784 5.30454e-05 1.9062e-06
5.30454e-05 -5.11512e-05 -1.0056e-06
1.9062e-06 -1.0056e-06 -0.00018138
0.000923343 7.80692e-05 -1.08261e-06
7.80692e-05 0.000327877 -2.07022e-06
-1.08261e-06 -2.07022e-06 0.00015313
0.000611993 5.73381e-06 -1.63295e-06
5.73381e-06 0.000137252 1.63671e-06
-1.63295e-06 1.63671e-06 -3.19234e-05
0.000532531 7.12986e-05 4.76053e-06
7.12986e-05 7.82183e-05 3.03344e-06
4.76053e-06 3.03344e-06 -8.43484e-05
-0.000220633 6.04731e-05 -4.97894e-06
6.04731e-05 -0.000336968 -2.94267e-07
-4.97894e-06 -2.94267e-07 -0.000478486
0.000751298 4.81769e-05 9.74106e-08
4.81769e-05 0.000224112 -9.93554e-07
9.74106e-08 -9.93554e-07 5.47295e-05
0.000744839 7.63215e-05 8.40797e-07
7.63215e-05 0.000215715 -5.4308e-07
8.40797e-07 -5.4308e-07 6.07829e-05
0.000819542 -5.28837e-05 -8.66867e-07
-5.28837e-05 0.000250752 1.90293e-06
-8.66867e-07 1.90293e-06 8.68547e-05
-0.00077183 1.84076e-05 3.20657e-06
1.84076e-05 -0.000570552 4.92693e-07
3.20657e-06 4.92693e-07 -0.000760206
-0.000181929 4.48347e-05 -2.45124e-06
4.48347e-05 1.19942e-05 4.04262e-06
-2.45124e-06 4.04262e-06 -0.000289489
0.000656605 -2.87011e-05 -3.86656e-06
-2.87011e-05 0.000209593 -6.93958e-06
-3.86656e-06 -6.93958e-06 4.39431e-05
0.000923633 -2.37236e-05 3.50372e-07
-2.37236e-05 0.000341648 -1.12676e-06
3.50372e-07 -1.12676e-06 0.000160443
0.000799434 -7.55893e-05 -1.53388e-07
-7.55893e-05 0.000257442 -1.22091e-06
-1.53388e-07 -1.22091e-06 8.37355e-05
0.000511792 -6.61762e-05 3.33889e-06
-6.61762e-05 2.45753e-05 4.61488e-06
3.33889e-06 4.61488e-06 -0.000103737
0.000839566 -7.7109e-05 9.51705e-07
-7.7109e-05 0.000282441 -1.3326e-06
9.51705e-07 -1.3326e-06 0.00010465
0.000736242 -3.66524e-05 -1.56063e-06
-3.66524e-05 0.000187964 2.4029e-07
-1.56063e-06 2.4029e-07 5.19365e-05
-0.000254338 -6.01511e-05 1.90127e-06
-6.01511e-05 -0.000414998 3.18997e-06
1.90127e-06 3.18997e-06 -0.000528968
0.000324608 -3.4818e-05 1.62217e-07
-3.4818e-05 -2.94555e-05 -1.2058e-06
1.62217e-07 -1.2058e-06 -0.000176788
0.000167673 -2.17177e-05 -6.60294e-06
-2.17177e-05 -9.45399e-05 -4.25574e-06
-6.60294e-06 -4.25574e-06 -0.000256383
5.80826e-05 -7.50586e-05 2.48811e-06
-7.50586e-05 -0.000187368 -3.62233e-06
2.48811e-06 -3.62233e-06 -0.000320074
0.00107272 -0.000105957 6.54295e-06
-0.000105957 0.000310291 -1.33959e-05
6.54295e-06 -1.33959e-05 0.000208921
-0.000279398 -5.3757e-05 3.28898e-08
-5.3757e-05 -0.000532519 3.7266e-06
3.28898e-08 3.7266e-06 -0.000665229
2.92333e-05 -4.79899e-05 -5.94918e-06
-4.79899e-05 -0.000222659 -2.2166e-06
-5.94918e-06 -2.2166e-06 -0.00037211
0.000710111 -6.29326e-05 8.05294e-07
-6.29326e-05 0.000177239 -9.10696e-07
8.05294e-07 -9.10696e-07 2.33204e-05
0.000233673 -3.96794e-05 3.45598e-07
-3.96794e-05 -0.000110542 -9.69358e-07
3.45598e-07 -9.69358e-07 -0.000259517
0.000697873 -9.47634e-05 2.26536e-07
-9.47634e-05 0.000196271 -4.90478e-08
2.26536e-07 -4.90478e-08 4.58007e-05
0.000480397 -2.05196e-05 2.75965e-07
-2.05196e-05 1.98137e-05 1.73201e-06
2.75965e-07 1.73201e-06 -9.45492e-05
0.000859402 -8.75047e-05 -1.07369e-06
-8.75047e-05 0.000288726 5.63499e-07
-1.07369e-06 5.63499e-07 0.000144306
0.000632298 -7.59791e-05 -9.2685e-07
-7.59791e-05 0.000120632 8.65776e-08
-9.2685e-07 8.65776e-08 1.75767e-06
0.000443823 3.23324e-05 -8.65797e-07
3.23324e-05 -2.39209e-05 3.63862e-06
-8.65797e-07 3.63862e-06 -9.99983e-05
0.000495714 -9.80916e-05 2.07189e-06
-9.80916e-05 3.1202e-05 -1.14502e-06
2.07189e-06 -1.14502e-06 -9.02889e-05
0.000530245 -3.17449e-05 -3.0859e-07
-3.17449e-05 2.78213e-05 1.09763e-07
-3.0859e-07 1.09763e-07 -4.52538e-05
0.0014268 8.0333e-06 -7.00351e-06
8.0333e-06 0.000559779 6.80994e-06
-7.00351e-06 6.80994e-06 0.000540168
0.000509605 -5.34314e-05 1.51546e-06
-5.34314e-05 2.32925e-05 -3.18772e-06
1.51546e-06 -3.18772e-06 -5.2667e-05
0.000890259 -1.22826e-05 -5.59066e-06
-1.22826e-05 0.000233006 7.67539e-07
-5.59066e-06 7.67539e-07 0.00021184
0.000758585 1.30138e-05 7.45917e-07
1.30138e-05 0.00013667 2.12992e-06
7.45917e-07 2.12992e-06 0.000140945
0.00044862 -9.40724e-06 2.25947e-06
-9.40724e-06 -3.78605e-05 -4.49264e-06
2.25947e-06 -4.49264e-06 -6.00392e-05
0.00252761 1.36332e-05 6.56143e-06
1.36332e-05 0.00124075 4.34962e-08
6.56143e-06 4.34962e-08 0.00125375
0.00254151 2.28852e-06 5.38619e-08
2.28852e-06 0.00124945 -5.11283e-06
5.38619e-08 -5.11283e-06 0.00126233
0.00100825 7.64351e-05 -5.33349e-07
7.64351e-05 0.000356764 8.00877e-07
-5.33349e-07 8.00877e-07 0.000258983
0.000521417 5.65659e-05 -1.64297e-06
5.65659e-05 2.34306e-05 -2.12118e-06
-1.64297e-06 -2.12118e-06 -2.57291e-05
0.000556857 -1.4641e-05 1.10728e-07
-1.4641e-05 8.14212e-05 8.16144e-07
1.10728e-07 8.16144e-07 -1.3915e-05
0.000505608 6.02758e-06 8.27439e-07
6.02758e-06 -2.58809e-05 -3.27425e-06
8.27439e-07 -3.27425e-06 -3.41072e-05
0.000487597 -1.3877e-05 6.75185e-07
-1.3877e-05 -2.24599e-06 -1.36338e-07
6.75185e-07 -1.36338e-07 -4.6476e-05
0.000552157 -5.47105e-05 -1.30608e-06
-5.47105e-05 4.02265e-05 1.90101e-06
-1.30608e-06 1.90101e-06 -7.91664e-06
0.000500447 7.30253e-06 -4.16924e-07
7.30253e-06 -2.95438e-05 -2.00278e-08
-4.16924e-07 -2.00278e-08 -3.8084e-05
0.00196806 2.04933e-05 1.04328e-07
2.04933e-05 0.000889056 -4.65397e-06
1.04328e-07 -4.65397e-06 0.000906704
0.0011078 2.28038e-05 -6.84851e-07
2.28038e-05 0.00034941 1.96385e-06
-6.84851e-07 1.96385e-06 0.000343003
0.00131585 2.81163e-05 -7.9536e-07
2.81163e-05 0.000483534 1.09263e-08
-7.9536e-07 1.09263e-08 0.000496691
0.000808466 3.35043e-05 -9.77086e-06
3.35043e-05 0.00017228 7.17592e-06
-9.77086e-06 7.17592e-06 0.000179322
-0.0091511 0.000987982 0.0004213
0.000987982 -0.003359 -1.96892e-05
0.0004213 -1.96892e-05 -0.00572439
-0.00172697 -4.84445e-06 0.00086052
-4.84445e-06 0.00526325 -0.000218602
0.00086052 -0.000218602 0.00203557
0.00272374 0.00028735 -0.000166127
0.00028735 -0.00174523 -2.42405e-05
-0.000166127 -2.42405e-05 -0.000398479
0.00141492 3.33144e-05 1.96127e-05
3.33144e-05 -0.00102128 -3.72821e-05
1.96127e-05 -3.72821e-05 -0.000669916
0.00162682 -6.68603e-05 5.9888e-06
-6.68603e-05 -0.0002501 1.26979e-05
5.9888e-06 1.26979e-05 -0.000217555
-0.000969564 4.44383e-05 -7.99641e-05
4.44383e-05 -0.00125833 -2.22874e-05
-7.99641e-05 -2.22874e-05 -0.000443559
0.00369264 -0.000324565 3.85716e-06
-0.000324565 0.000465489 5.09732e-06
3.85716e-06 5.09732e-06 0.000550942
0.0116127 -3.36238e-05 0.000157067
-3.36238e-05 -0.00014336 -6.04133e-05
0.000157067 -6.04133e-05 -0.00099796
0.000294038 0.00298653 -4.60965e-06
0.00298653 0.000529962 -5.5098e-05
-4.60965e-06 -5.5098e-05 -0.00238884
0.00888931 0.00591319 -0.000417862
0.00591319 0.00639226 0.000220663
-0.000417862 0.000220663 0.00477397
0.00213487 -0.000629391 5.55118e-05
-0.000629391 -0.00170462 -4.10643e-05
5.55118e-05 -4.10643e-05 -0.000815956
0.0149491 -0.00180122 0.000195676
-0.00180122 0.0021273 -7.29888e-05
0.000195676 -7.29888e-05 0.000554264
0.0124526 0.00549832 0.000353204
0.00549832 0.00355847 -0.000504929
0.000353204 -0.000504929 0.00113937
0.0164035 0.00360558 -0.000309213
0.00360558 0.00451506 0.000242664
-0.000309213 0.000242664 0.00301546
0.000869864 0.000148266 -2.39118e-06
0.000148266 0.000316963 4.17218e-06
-2.39118e-06 4.17218e-06 0.000155518
0.00038283 3.20786e-05 2.27441e-07
3.20786e-05 -2.79967e-05 -9.04601e-07
2.27441e-07 -9.04601e-07 -0.000128033
0.000577055 -9.49695e-05 7.92737e-07
-9.49695e-05 9.66273e-05 1.05005e-06
7.92737e-07 1.05005e-06 1.52155e-06
0.00062386 5.30795e-06 5.07597e-06
5.30795e-06 0.000131648 -3.6888e-07
5.07597e-06 -3.6888e-07 1.64191e-05
0.000726548 6.97274e-05 1.94852e-06
6.97274e-05 0.000233381 1.19153e-06
1.94852e-06 1.19153e-06 0.000103199
0.000521692 6.04987e-06 2.47468e-07
6.04987e-06 9.21162e-05 7.23807e-06
2.47468e-07 7.23807e-06 -6.5693e-05
0.000713724 8.99223e-05 1.20681e-06
8.99223e-05 0.000183846 2.96569e-06
1.20681e-06 2.96569e-06 5.37934e-05
0.000496427 5.46048e-05 5.07165e-06
5.46048e-05 3.46924e-05 7.93603e-07
5.07165e-06 7.93603e-07 -0.000101703
0.000737885 -4.00906e-05 2.71747e-06
-4.00906e-05 0.000218816 -1.20319e-06
2.71747e-06 -1.20319e-06 8.62734e-05
0.000477529 -1.23496e-05 1.07234e-06
-1.23496e-05 2.34824e-05 -2.63194e-06
1.07234e-06 -2.63194e-06 -7.96111e-05
0.00143647 -0.000311782 2.85211e-05
-0.000311782 -0.000494037 -2.002e-06
2.85211e-05 -2.002e-06 -0.000258823
0.00114369 -0.000527415 3.6507e-05
-0.000527415 -0.000580449 -8.80014e-06
3.6507e-05 -8.80014e-06 -0.000460177
0.000872104 -0.000657261 8.11347e-06
-0.000657261 -0.000490827 1.50349e-06
8.11347e-06 1.50349e-06 -0.000643874
4.71757e-05 -0.000588693 -1.2933e-06
-0.000588693 -0.000616111 2.14429e-06
-1.2933e-06 2.14429e-06 -0.000873113
0.00323794 -0.000544098 8.48174e-06
-0.000544098 0.00198941 3.084e-05
8.48174e-06 3.084e-05 0.00135748
1.64432e-05 -0.000424169 2.37738e-06
-0.000424169 -9.09155e-05 -2.3989e-06
2.37738e-06 -2.3989e-06 -0.000506773
0.0014615 -0.000204982 4.24388e-06
-0.000204982 0.000619421 -1.02579e-06
4.24388e-06 -1.02579e-06 0.000497136
0.000805167 -4.09897e-05 -1.48074e-06
-4.09897e-05 0.000278382 3.15516e-06
-1.48074e-06 3.15516e-06 0.000147583
0.00223485 -0.000497508 1.0804e-05
-0.000497508 -0.000179149 -8.09164e-06
1.0804e-05 -8.09164e-06 2.59733e-05
0.000472799 -5.57309e-05 2.99099e-07
-5.57309e-05 0.000116391 1.02214e-06
2.99099e-07 1.02214e-06 -9.7315e-05
-0.000232058 -0.0001487 -5.67846e-07
-0.0001487 -0.000258812 -4.2654e-06
-5.67846e-07 -4.2654e-06 -0.00048755
0.00192273 -0.000703384 1.75209e-05
-0.000703384 7.89114e-05 -3.21169e-06
1.75209e-05 -3.21169e-06 2.63384e-05
0.00183153 -0.000873192 -6.83726e-07
-0.000873192 6.62276e-05 3.77513e-06
-6.83726e-07 3.77513e-06 -0.000116084
0.000212978 -0.000602521 1.76296e-05
-0.000602521 -0.000241757 -1.06209e-05
1.76296e-05 -1.06209e-05 -0.000490861
0.00135602 -0.000323028 2.84396e-06
-0.000323028 0.00102813 -1.54589e-05
2.84396e-06 -1.54589e-05 0.00040843
0.00298022 -0.000854145 -6.1252e-05
-0.000854145 0.000626661 3.26463e-05
-6.1252e-05 3.26463e-05 0.000348036
0.000633381 -0.000585375 -4.17577e-05
-0.000585375 -0.00039452 1.04901e-05
-4.17577e-05 1.04901e-05 -0.000434448
0.000819828 -0.000595429 -7.05406e-05
-0.000595429 0.000432516 5.22702e-05
-7.05406e-05 5.22702e-05 3.52862e-05
-0.00248597 -0.000223724 -4.62364e-06
-0.000223724 -0.00167123 9.15052e-06
-4.62364e-06 9.15052e-06 -0.00189247
-0.000690859 -8.09875e-05 4.05852e-06
-8.09875e-05 -0.000520635 8.08681e-06
4.05852e-06 8.08681e-06 -0.000778381
0.00054832 -5.78208e-05 8.60752e-06
-5.78208e-05 0.000318448 -1.06779e-05
8.60752e-06 -1.06779e-05 -3.77445e-05
-0.00198613 0.0010486 -0.000342206
0.0010486 0.00649054 1.74272e-05
-0.000342206 1.74272e-05 0.00232903
0.000640874 -0.00122987 -5.69184e-06
-0.00122987 0.00202203 2.00469e-05
-5.69184e-06 2.00469e-05 0.00145081
0.00194637 0.00101991 -0.000101723
0.00101991 -0.00479395 -4.15891e-05
-0.000101723 -4.15891e-05 -0.00508568
0.00030907 0.000232317 8.8854e-06
0.000232317 -3.92731e-06 -4.02649e-06
8.8854e-06 -4.02649e-06 -0.000225482
0.00111831 0.000480413 8.15151e-06
0.000480413 0.000307643 1.83639e-05
8.15151e-06 1.83639e-05 -5.29306e-05
0.00355042 0.000852005 6.17247e-05
0.000852005 0.000876604 2.10155e-05
6.17247e-05 2.10155e-05 0.000793094
0.00162044 0.000769346 1.51085e-05
0.000769346 0.000464327 2.41647e-05
1.51085e-05 2.41647e-05 7.02065e-05
0.0115695 -0.00235929 0.000171062
-0.00235929 0.00409442 4.89448e-05
0.000171062 4.89448e-05 0.00356559
0.00398047 0.00100081 -0.000347715
0.00100081 -0.00361763 -5.34848e-05
-0.000347715 -5.34848e-05 -0.00544914
0.0050219 0.00248575 -1.24627e-05
0.00248575 0.000117967 2.15133e-05
-1.24627e-05 2.15133e-05 0.000399123
0.00206592 0.000896304 4.15328e-05
0.000896304 0.000765354 -2.23905e-05
4.15328e-05 -2.23905e-05 0.000569325
0.00348775 -0.00282957 -0.000364748
-0.00282957 0.00219452 -0.000328903
-0.000364748 -0.000328903 -0.00046035
-0.000611896 -0.00264992 -0.000526274
-0.00264992 0.00479385 -0.000177931
-0.000526274 -0.000177931 7.0995e-05
0.0202585 -0.00455121 0.00056693
-0.00455121 0.00526748 0.000327617
0.00056693 0.000327617 0.00402329
0.000411523 0.000210858 1.57527e-05
0.000210858 4.50474e-05 -4.11783e-06
1.57527e-05 -4.11783e-06 -0.000148002
-0.00404841 0.000397827 -0.00016534
0.000397827 0.00477702 -3.56879e-05
-0.00016534 -3.56879e-05 -4.92107e-05
0.00511595 0.000942194 -9.23137e-05
0.000942194 0.00297976 -0.000153972
-9.23137e-05 -0.000153972 -0.00187683
0.0015432 0.000722078 1.03984e-05
0.000722078 0.000195097 4.27651e-06
1.03984e-05 4.27651e-06 0.000110194
0.000620116 0.000533626 1.01675e-05
0.000533626 0.000144428 4.18345e-06
1.01675e-05 4.18345e-06 -0.000211205
0.000382937 0.000784015 -4.26894e-05
0.000784015 0.000292354 -5.8359e-05
-4.26894e-05 -5.8359e-05 -0.000236682
0.00369461 0.00260645 1.91107e-05
0.00260645 0.00108583 1.97592e-05
1.91107e-05 1.97592e-05 0.000823425
0.0166156 0.0032798 6.76868e-05
0.0032798 0.00426008 1.79596e-05
6.76868e-05 1.79596e-05 0.00215652
0.00650156 -0.00317643 7.64511e-05
-0.00317643 0.00205119 -7.17176e-05
7.64511e-05 -7.17176e-05 -0.00174593
0.0140578 -0.00214092 -3.28946e-06
-0.00214092 0.00199435 -6.45552e-05
-3.28946e-06 -6.45552e-05 0.00326405
0.000656853 0.000382397 -1.11824e-05
0.000382397 0.00022264 -9.04967e-06
-1.11824e-05 -9.04967e-06 -2.26745e-05
0.00213772 0.000187699 -0.000286648
0.000187699 0.00188235 -6.32127e-05
-0.000286648 -6.32127e-05 -0.00213081
0.000587732 0.000548545 -9.68975e-05
0.000548545 -0.000172166 -0.000161285
-9.68975e-05 -0.000161285 -0.00173117
-0.000906576 0.000231501 2.70946e-06
0.000231501 -0.000310458 -2.19392e-05
2.70946e-06 -2.19392e-05 -0.000541024
-0.000484999 0.000498351 -0.000144703
0.000498351 0.00105894 1.04646e-06
-0.000144703 1.04646e-06 0.000218288
0.0142185 0.00398186 9.16208e-05
0.00398186 0.00467075 -3.32379e-05
9.16208e-05 -3.32379e-05 0.000678307
-0.00323767 -0.00447325 -2.33851e-07
-0.00447325 -0.000718253 0.000221846
-2.33851e-07 0.000221846 -0.00492768
0.011101 0.000520896 4.91009e-05
0.000520896 -0.00148101 -0.000304839
4.91009e-05 -0.000304839 0.00110751
0.000881366 0.000175993 -5.07324e-06
0.000175993 0.000310247 1.45714e-05
-5.07324e-06 1.45714e-05 0.000176647
0.00081229 0.000197368 -9.91291e-06
0.000197368 0.00038586 -4.17742e-06
-9.91291e-06 -4.17742e-06 0.000211463
-0.000508678 7.83468e-05 2.69506e-06
7.83468e-05 -0.00019652 -1.83997e-06
2.69506e-06 -1.83997e-06 -0.000478083
0.000705643 8.60699e-05 -1.62536e-06
8.60699e-05 0.000180885 -2.17932e-06
-1.62536e-06 -2.17932e-06 2.20905e-05
0.0010856 -4.04102e-05 -1.12725e-06
-4.04102e-05 0.000422292 3.49767e-06
-1.12725e-06 3.49767e-06 0.000250522
0.000425136 7.03915e-05 2.67722e-06
7.03915e-05 8.27447e-06 1.32045e-06
2.67722e-06 1.32045e-06 -0.000139123
-0.00100731 1.59258e-05 1.83457e-06
1.59258e-05 -0.000692611 9.18737e-07
1.83457e-06 9.18737e-07 -0.000881474
0.000769068 -2.94416e-05 1.22087e-06
-2.94416e-05 0.000222649 1.82691e-07
1.22087e-06 1.82691e-07 5.95197e-05
0.000617573 8.03377e-06 -2.06979e-07
8.03377e-06 0.000187574 -2.51861e-06
-2.06979e-07 -2.51861e-06 2.04032e-05
-0.000184985 1.76981e-05 1.36485e-06
1.76981e-05 4.75195e-05 2.8363e-06
1.36485e-06 2.8363e-06 -0.00028473
-0.000217665 6.30596e-05 -5.34305e-06
6.30596e-05 0.000199182 9.51422e-06
-5.34305e-06 9.51422e-06 -0.000254389
7.40081e-05 -4.07894e-06 -2.7594e-06
-4.07894e-06 0.000237575 -1.43689e-06
-2.7594e-06 -1.43689e-06 -0.00012506
0.00076267 6.1791e-06 -1.61484e-06
6.1791e-06 0.00024654 -6.51539e-06
-1.61484e-06 -6.51539e-06 0.000100299
0.000639016 -0.000131354 1.58128e-06
-0.000131354 0.000140994 9.61569e-07
1.58128e-06 9.61569e-07 -2.47001e-05
0.000491143 -1.61989e-05 1.31652e-06
-1.61989e-05 2.66018e-05 1.80081e-06
1.31652e-06 1.80081e-06 -0.000103289
0.000450252 -9.0092e-05 1.21695e-06
-9.0092e-05 2.32955e-05 1.00103e-05
1.21695e-06 1.00103e-05 -8.08084e-05
0.00024551 -3.62279e-05 2.16959e-06
-3.62279e-05 -7.04856e-05 3.38238e-06
2.16959e-06 3.38238e-06 -0.000215617
0.000617644 -4.04641e-05 1.36936e-07
-4.04641e-05 0.000143584 4.30813e-07
1.36936e-07 4.30813e-07 -1.19435e-06
0.000491693 -4.59406e-05 1.05812e-07
-4.59406e-05 7.38533e-05 -1.84948e-06
1.05812e-07 -1.84948e-06 -5.68397e-05
0.000432484 -4.93859e-05 -7.47456e-06
-4.93859e-05 2.43108e-05 -4.52501e-06
-7.47456e-06 -4.52501e-06 -0.000105154
0.000376101 -5.87321e-05 6.53602e-06
-5.87321e-05 0.000151804 -6.51781e-06
6.53602e-06 -6.51781e-06 -1.40132e-05
0.00023472 -0.000155399 -4.00451e-07
-0.000155399 -0.000290322 3.29099e-06
-4.00451e-07 3.29099e-06 -0.000385822
0.000721977 -0.000132427 -9.18982e-06
-0.000132427 0.000117912 -7.86498e-07
-9.18982e-06 -7.86498e-07 8.01736e-06
0.000364337 -0.000160208 6.16235e-06
-0.000160208 -0.000106595 6.86394e-06
6.16235e-06 6.86394e-06 -0.000255036
0.00195487 -0.000462382 1.41938e-06
-0.000462382 0.00075843 1.78809e-05
1.41938e-06 1.78809e-05 0.000461634
0.00164886 -0.000208058 2.39912e-06
-0.000208058 0.000721394 -5.42581e-06
2.39912e-06 -5.42581e-06 0.000537012
-0.000153272 -7.74966e-05 -9.79179e-06
-7.74966e-05 -0.000412006 -4.81809e-06
-9.79179e-06 -4.81809e-06 -0.000534565
0.000531565 -6.89324e-05 1.20763e-07
-6.89324e-05 5.87974e-05 -3.52056e-07
1.20763e-07 -3.52056e-07 -8.94252e-05
-4.37255e-05 -4.88089e-05 -1.18959e-06
-4.88089e-05 -0.000274446 -2.20315e-06
-1.18959e-06 -2.20315e-06 -0.000436922
0.000859643 -8.35804e-05 -4.55238e-07
-8.35804e-05 0.000262794 1.00096e-06
-4.55238e-07 1.00096e-06 0.000108635
0.000748629 -0.000110374 -7.4173e-07
-0.000110374 0.000217094 6.99282e-07
-7.4173e-07 6.99282e-07 5.53435e-05
0.000550153 -5.56568e-05 -1.70774e-07
-5.56568e-05 5.10633e-05 1.69827e-06
-1.70774e-07 1.69827e-06 -6.55565e-05
0.00127489 -0.000160319 -7.76905e-07
-0.000160319 0.000571539 -1.0535e-06
-7.76905e-07 -1.0535e-06 0.000398533
0.000668221 -9.44115e-05 -5.06177e-07
-9.44115e-05 0.000137001 -6.73133e-09
-5.06177e-07 -6.73133e-09 1.71997e-05
0.000512067 1.37653e-05 -2.29603e-06
1.37653e-05 1.52433e-05 3.00584e-06
-2.29603e-06 3.00584e-06 -6.20028e-05
0.000726446 -0.000123521 1.74551e-06
-0.000123521 0.000179467 -2.17362e-06
1.74551e-06 -2.17362e-06 5.62864e-05
0.000598426 -4.81018e-05 -2.07139e-07
-4.81018e-05 6.73049e-05 1.70684e-07
-2.07139e-07 1.70684e-07 -7.8856e-06
0.00144214 1.34128e-05 -1.16241e-05
1.34128e-05 0.000564943 7.05299e-06
-1.16241e-05 7.05299e-06 0.000544017
0.000553885 -6.21991e-05 2.45186e-06
-6.21991e-05 4.9274e-05 -3.5221e-06
2.45186e-06 -3.5221e-06 -2.85417e-05
0.00088852 -6.30193e-06 -6.771e-06
-6.30193e-06 0.0002261 6.93388e-07
-6.771e-06 6.93388e-07 0.000203902
0.000790556 2.22899e-05 7.78854e-07
2.22899e-05 0.000154227 2.64596e-06
7.78854e-07 2.64596e-06 0.000156706
0.000451919 -2.18454e-05 2.06361e-06
-2.18454e-05 -4.06685e-05 -4.7498e-06
2.06361e-06 -4.7498e-06 -6.38867e-05
0.00164791 2.24343e-05 9.26135e-06
2.24343e-05 0.000692412 -1.49405e-06
9.26135e-06 -1.49405e-06 0.000700944
0.00250831 1.40469e-05 8.92725e-06
1.40469e-05 0.0012283 -5.1469e-06
8.92725e-06 -5.1469e-06 0.00124131
0.000544896 4.36291e-05 1.94344e-06
4.36291e-05 5.14275e-05 -1.21179e-06
1.94344e-06 -1.21179e-06 -4.67647e-05
0.000605471 5.62462e-05 -9.64857e-07
5.62462e-05 7.00791e-05 -1.64057e-06
-9.64857e-07 -1.64057e-06 1.8281e-05
0.00060854 -8.4103e-07 1.15085e-06
-8.4103e-07 0.000103681 6.65023e-07
1.15085e-06 6.65023e-07 9.05089e-06
0.0004917 2.23556e-06 1.39597e-06
2.23556e-06 -3.33154e-05 -3.53084e-06
1.39597e-06 -3.53084e-06 -4.22994e-05
0.000509712 4.674e-05 1.17807e-07
4.674e-05 1.18935e-05 -1.23073e-07
1.17807e-07 -1.23073e-07 -3.47686e-05
0.000553887 -0.00010931 -3.06864e-06
-0.00010931 7.19259e-05 4.41092e-07
-3.06864e-06 4.41092e-07 -1.81217e-05
0.00198684 6.9401e-06 -4.99317e-06
6.9401e-06 0.000898893 -4.72559e-06
-4.99317e-06 -4.72559e-06 0.000917223
0.000484825 4.60544e-06 -2.44135e-07
4.60544e-06 -3.83399e-05 1.74214e-08
-2.44135e-07 1.74214e-08 -4.6549e-05
0.000513893 -1.67748e-05 -1.80234e-06
-1.67748e-05 1.20679e-05 1.90618e-06
-1.80234e-06 1.90618e-06 -3.10588e-05
0.000484299 6.17336e-06 -1.22391e-06
6.17336e-06 -4.00923e-05 3.2717e-06
-1.22391e-06 3.2717e-06 -4.85716e-05
0.00200424 2.19961e-05 -5.01996e-06
2.19961e-05 0.000911762 -9.311e-08
-5.01996e-06 -9.311e-08 0.000929182
0.0019613 3.52728e-05 -6.38027e-06
3.52728e-05 0.000887467 4.48402e-06
-6.38027e-06 4.48402e-06 0.000904017
-0.00654591 -0.00142067 -0.000149047
-0.00142067 0.00466304 4.97409e-05
-0.000149047 4.97409e-05 0.000841917
0.00124879 0.00112885 -0.00021656
0.00112885 0.000287184 6.42558e-05
-0.00021656 6.42558e-05 -0.00138283
0.00294051 -0.000890558 -0.000549319
-0.000890558 0.00121067 0.000244592
-0.000549319 0.000244592 -0.00321594
-0.00153524 0.000343256 0.000936799
0.000343256 0.00522811 -0.000316871
0.000936799 -0.000316871 0.0016469
0.0015369 0.000477602 -2.54345e-05
0.000477602 -0.00129624 -1.98775e-05
-2.54345e-05 -1.98775e-05 -0.000590545
0.00257322 -0.000391055 8.62876e-05
-0.000391055 -0.000265869 4.87348e-06
8.62876e-05 4.87348e-06 -0.000183013
0.000631023 -0.00036114 0.000230065
-0.00036114 -0.00424699 -6.69602e-05
0.000230065 -6.69602e-05 -0.0061145
0.0183292 0.00270213 -0.000615361
0.00270213 0.0082682 5.4964e-05
-0.000615361 5.4964e-05 0.00591949
0.00111049 0.00680265 -0.00195452
0.00680265 0.00203015 0.00132514
-0.00195452 0.00132514 0.000384164
0.00426853 -0.000501056 1.97609e-05
-0.000501056 -0.000357779 8.57674e-06
1.97609e-05 8.57674e-06 0.000175559
0.00890908 -0.00171615 0.000132007
-0.00171615 -0.000853502 -0.000117712
0.000132007 -0.000117712 -0.00319371
0.0191325 0.00470644 -0.000266668
0.00470644 0.00578667 -9.97787e-05
-0.000266668 -9.97787e-05 0.00354203
0.0122082 0.00374624 -5.37686e-05
0.00374624 0.00169373 0.000353096
-5.37686e-05 0.000353096 -2.9011e-05
0.00171019 -0.00142484 -0.00010373
-0.00142484 -0.00267169 1.95837e-05
-0.00010373 1.95837e-05 -0.00184202
0.00518186 -0.0028668 0.000340263
-0.0028668 -0.000178803 -0.000207164
0.000340263 -0.000207164 -0.00405035
0.00274751 0.00299718 8.85468e-05
0.00299718 -0.000280138 -0.000691798
8.85468e-05 -0.000691798 -0.00327743
0.00797326 0.00105513 -0.000228003
0.00105513 -0.00259589 5.32487e-06
-0.000228003 5.32487e-06 -0.0014729
0.0021604 -8.79244e-05 1.67439e-06
-8.79244e-05 0.00117695 1.42373e-05
1.67439e-06 1.42373e-05 0.000932176
0.000490302 0.000114762 -1.73304e-06
0.000114762 6.42487e-05 -2.39064e-06
-1.73304e-06 -2.39064e-06 -7.47845e-05
0.000530397 9.39721e-05 1.69254e-06
9.39721e-05 5.33069e-05 -1.83544e-06
1.69254e-06 -1.83544e-06 -4.12456e-05
0.000356667 2.73829e-05 6.45327e-06
2.73829e-05 3.83972e-07 -2.57283e-07
6.45327e-06 -2.57283e-07 -0.000118269
0.000417663 8.30838e-05 3.44186e-06
8.30838e-05 6.5585e-06 2.71877e-06
3.44186e-06 2.71877e-06 -0.000171322
0.000487958 3.4769e-05 -2.23342e-07
3.4769e-05 6.14014e-05 2.30211e-06
-2.23342e-07 2.30211e-06 -8.37337e-05
0.000385226 3.69453e-05 7.76126e-07
3.69453e-05 -1.51493e-05 -3.13445e-06
7.76126e-07 -3.13445e-06 -0.000143507
0.000916757 0.00016835 2.97561e-06
0.00016835 0.000326085 5.29128e-06
2.97561e-06 5.29128e-06 0.000158351
0.000879148 0.000121104 -1.25782e-08
0.000121104 0.00030912 8.02708e-08
-1.25782e-08 8.02708e-08 0.000146741
0.000402549 -1.85085e-05 -4.6403e-06
-1.85085e-05 -5.6802e-07 -5.682e-06
-4.6403e-06 -5.682e-06 -0.000127107
0.000514388 -0.000392774 7.32043e-05
-0.000392774 -0.00108365 -3.42211e-05
7.32043e-05 -3.42211e-05 -0.000843582
0.000411428 -0.000597107 2.76518e-05
-0.000597107 -0.000771696 -8.64793e-06
2.76518e-05 -8.64793e-06 -0.000771877
0.00153837 -0.000849556 -3.4458e-06
-0.000849556 -0.000150435 1.2879e-05
-3.4458e-06 1.2879e-05 -0.000270315
-0.000831973 -0.000590935 6.07419e-06
-0.000590935 -0.000796353 -1.67855e-05
6.07419e-06 -1.67855e-05 -0.00113009
0.00321812 -0.000409564 -1.7286e-05
-0.000409564 0.00194328 5.65218e-05
-1.7286e-05 5.65218e-05 0.00146714
0.000973642 -0.000174797 -2.80555e-06
-0.000174797 0.000486947 5.30485e-06
-2.80555e-06 5.30485e-06 0.000240277
0.000315511 0.000119804 -3.21985e-06
0.000119804 8.8823e-06 -1.36768e-05
-3.21985e-06 -1.36768e-05 -0.000202626
0.000617295 -9.70805e-05 -2.09696e-06
-9.70805e-05 0.000214739 8.79219e-06
-2.09696e-06 8.79219e-06 -3.86197e-05
0.00171485 -0.000698776 -8.97065e-07
-0.000698776 -0.00015487 -4.97342e-06
-8.97065e-07 -4.97342e-06 -0.000219019
0.000680778 -5.42838e-05 1.00679e-06
-5.42838e-05 0.000258431 4.85922e-06
1.00679e-06 4.85922e-06 2.03044e-05
0.00200299 -0.000256045 1.23043e-06
-0.000256045 0.00118427 -1.44687e-06
1.23043e-06 -1.44687e-06 0.000809959
0.00126677 -0.000656521 2.36891e-06
-0.000656521 -6.6332e-05 6.85172e-06
2.36891e-06 6.85172e-06 -0.000112037
0.000718471 -0.000617385 -2.26634e-05
-0.000617385 0.000305553 6.52424e-06
-2.26634e-05 6.52424e-06 -6.23596e-05
0.00269893 -0.00123281 3.12738e-05
-0.00123281 0.000346193 -1.38781e-05
3.12738e-05 -1.38781e-05 0.000376675
-0.00122754 -0.000372067 -5.5348e-06
-0.000372067 -0.000992189 2.17619e-05
-5.5348e-06 2.17619e-05 -0.00102249
-0.000821729 -9.33455e-05 1.13351e-05
-9.33455e-05 -0.000324093 2.3026e-06
1.13351e-05 2.3026e-06 -0.000788233
0.000720613 8.81532e-06 -3.48933e-06
8.81532e-06 0.000242081 -3.44307e-06
-3.48933e-06 -3.44307e-06 3.309e-05
0.000887502 8.79603e-06 7.49072e-06
8.79603e-06 0.000503452 -7.3684e-06
7.49072e-06 -7.3684e-06 0.000213951
0.00133197 7.79932e-05 -3.15137e-05
7.79932e-05 0.00175582 -1.3277e-05
-3.15137e-05 -1.3277e-05 -0.00181827
-0.00583296 0.000367016 -0.000295917
0.000367016 0.00579839 -1.56456e-05
-0.000295917 -1.56456e-05 0.0012304
-0.0126706 -0.00197697 -0.000589393
-0.00197697 -0.00560168 -1.52902e-05
-0.000589393 -1.52902e-05 -0.00594813
-0.000951681 0.000127369 6.62783e-06
0.000127369 -0.000732842 -3.89359e-06
6.62783e-06 -3.89359e-06 -0.000937839
-0.000537471 0.000411773 -3.65809e-06
0.000411773 -0.000430848 9.8096e-06
-3.65809e-06 9.8096e-06 -0.000794348
0.00150855 0.000807728 2.71073e-05
0.000807728 0.000192043 2.30202e-05
2.71073e-05 2.30202e-05 8.25687e-05
-0.00551131 0.00158645 4.53054e-05
0.00158645 0.00505957 4.95756e-05
4.53054e-05 4.95756e-05 0.000853208
0.00596224 0.00280343 -0.000233609
0.00280343 0.000227494 -0.000139623
-0.000233609 -0.000139623 -0.00336489
0.00214237 0.00185206 0.000341347
0.00185206 0.000502454 0.000115925
0.000341347 0.000115925 0.000308985
-9.91354e-05 0.00075295 2.52367e-05
0.00075295 -0.000150118 -4.01706e-05
2.52367e-05 -4.01706e-05 -0.000364332
0.0226741 -0.00326013 -0.000159451
-0.00326013 0.00724403 -0.000295973
-0.000159451 -0.000295973 0.00474068
0.00563349 0.00119017 0.000425317
0.00119017 0.00287412 0.000158608
0.000425317 0.000158608 -0.00236046
0.0134262 -0.00185347 0.000144481
-0.00185347 0.00216828 3.34528e-05
0.000144481 3.34528e-05 0.00353721
0.00116642 0.000430857 4.04705e-06
0.000430857 0.000582342 -1.40064e-06
4.04705e-06 -1.40064e-06 0.000324514
0.00377296 0.00041813 -6.37946e-07
0.00041813 0.00273834 1.44321e-05
-6.37946e-07 1.44321e-05 -0.000268369
0.00131013 0.000517367 5.33994e-05
0.000517367 4.69482e-05 5.61968e-06
5.33994e-05 5.61968e-06 -0.00154665
-0.000347224 0.000413996 -2.6121e-06
0.000413996 -0.000135329 -4.831e-06
-2.6121e-06 -4.831e-06 -0.000425147
0.000547217 0.00101616 -0.000107282
0.00101616 0.000961283 -4.90916e-05
-0.000107282 -4.90916e-05 -0.000243214
0.00101749 0.00365255 0.000164348
0.00365255 0.000491926 9.50531e-05
0.000164348 9.50531e-05 -0.00368145
0.0087521 0.000143429 -1.09232e-05
0.000143429 -0.00331875 -0.000197581
-1.09232e-05 -0.000197581 -0.000468687
0.00441997 -0.00237111 -6.50769e-05
-0.00237111 0.00269298 -0.000145021
-6.50769e-05 -0.000145021 -0.00143368
0.000988217 0.000338767 -5.28731e-06
0.000338767 0.00076779 -1.63805e-05
-5.28731e-06 -1.63805e-05 0.000462541
-0.00230325 0.000116544 8.91099e-06
0.000116544 -0.000105988 1.14043e-05
8.91099e-06 1.14043e-05 -0.000266487
0.00424232 -6.10953e-05 8.45127e-05
-6.10953e-05 -0.000243111 -0.000150297
8.45127e-05 -0.000150297 -0.00130556
0.00795549 0.00123431 0.000238135
0.00123431 -0.00227653 -2.12279e-05
0.000238135 -2.12279e-05 -0.00131341
-0.0020922 0.000122196 2.27297e-05
0.000122196 -7.65806e-05 -3.25444e-05
2.27297e-05 -3.25444e-05 -0.000828842
0.0128806 0.00291168 0.000251325
0.00291168 0.0059298 5.78231e-05
0.000251325 5.78231e-05 0.0010453
-0.0012824 -0.000453667 6.76207e-05
-0.000453667 0.00196883 0.000360183
6.76207e-05 0.000360183 -0.0012697
0.00282569 0.000396659 2.19364e-05
0.000396659 0.00162578 1.17406e-05
2.19364e-05 1.17406e-05 0.00140457
0.000615209 0.000206373 -5.52495e-06
0.000206373 0.000488539 -1.06563e-06
-5.52495e-06 -1.06563e-06 0.000169857
0.000155418 0.000120625 -8.05698e-08
0.000120625 0.000423247 1.13519e-06
-8.05698e-08 1.13519e-06 1.99298e-05
0.000672996 0.000156226 1.46424e-06
0.000156226 0.000180815 1.26743e-06
1.46424e-06 1.26743e-06 9.8329e-06
0.000378111 4.84175e-05 1.64833e-06
4.84175e-05 2.94616e-05 1.75483e-06
1.64833e-06 1.75483e-06 -0.000128903
0.000313507 -3.6142e-05 6.35775e-06
-3.6142e-05 0.000361491 -5.46834e-07
6.35775e-06 -5.46834e-07 1.27279e-05
0.000410532 2.11896e-05 3.05336e-07
2.11896e-05 2.2056e-05 -7.77979e-07
3.05336e-07 -7.77979e-07 -0.000113907
0.000638296 -2.82425e-05 -1.86791e-06
-2.82425e-05 0.000563049 -2.43128e-06
-1.86791e-06 -2.43128e-06 0.000209113
0.000484249 5.32437e-05 6.31907e-07
5.32437e-05 0.000598822 -1.7644e-06
6.31907e-07 -1.7644e-06 0.000162218
-0.000265011 1.93369e-05 -1.11401e-05
1.93369e-05 0.000116405 3.86757e-06
-1.11401e-05 3.86757e-06 -0.000259743
0.000301435 -2.15773e-05 -2.75479e-09
-2.15773e-05 0.000296031 -4.52488e-06
-2.75479e-09 -4.52488e-06 -2.12323e-07
0.00023355 -6.29538e-05 1.13342e-06
-6.29538e-05 -0.000101931 7.85135e-06
1.13342e-06 7.85135e-06 -0.000230679
0.000842074 -5.14063e-05 -6.2213e-07
-5.14063e-05 0.000277862 1.98255e-06
-6.2213e-07 1.98255e-06 0.000133112
0.00117376 -4.83717e-05 -1.07589e-05
-4.83717e-05 0.000491042 8.89295e-06
-1.07589e-05 8.89295e-06 0.000357769
0.00079708 -7.82308e-05 2.59142e-06
-7.82308e-05 0.000380154 -4.62737e-07
2.59142e-06 -4.62737e-07 0.000226569
0.000577913 -4.94387e-05 -7.93006e-07
-4.94387e-05 0.00010964 -6.61814e-07
-7.93006e-07 -6.61814e-07 -1.81472e-05
0.000281322 -0.00014624 -5.29477e-07
-0.00014624 -4.38044e-05 1.47024e-06
-5.29477e-07 1.47024e-06 -0.00018899
9.74709e-05 -0.00013449 -1.04133e-05
-0.00013449 -0.000278278 -1.78605e-06
-1.04133e-05 -1.78605e-06 -0.000345136
-0.000703824 -0.000275206 8.75698e-06
-0.000275206 -0.000713527 1.50689e-05
8.75698e-06 1.50689e-05 -0.000986067
0.000344439 -0.000168946 5.90627e-06
-0.000168946 -9.13344e-05 -1.33346e-06
5.90627e-06 -1.33346e-06 -0.000207701
0.00119649 -0.000262756 -2.99968e-06
-0.000262756 0.000389197 9.64553e-06
-2.99968e-06 9.64553e-06 0.000212093
0.00196881 -0.000500738 -9.25762e-06
-0.000500738 0.000788931 1.26394e-05
-9.25762e-06 1.26394e-05 0.000458237
0.00154474 -0.000451973 -6.39123e-06
-0.000451973 0.000397304 7.75763e-07
-6.39123e-06 7.75763e-07 6.67609e-05
0.00103477 -0.000285317 2.18805e-07
-0.000285317 0.000310583 4.0899e-06
2.18805e-07 4.0899e-06 7.76771e-05
0.000292783 -0.000263797 1.04852e-05
-0.000263797 -0.000250355 -4.18129e-06
1.04852e-05 -4.18129e-06 -0.000497891
0.00119528 -0.000146897 2.0718e-06
-0.000146897 0.000481586 -2.63767e-06
2.0718e-06 -2.63767e-06 0.000267218
0.00131122 -0.00020995 -7.23403e-06
-0.00020995 0.000551589 -3.20571e-07
-7.23403e-06 -3.20571e-07 0.000351947
6.75355e-05 -0.000113697 9.42886e-06
-0.000113697 -0.000236231 -1.55779e-05
9.42886e-06 -1.55779e-05 -0.000350836
0.00111523 -9.31596e-05 8.38537e-08
-9.31596e-05 0.000389857 1.76044e-06
8.38537e-08 1.76044e-06 0.000241926
0.000266014 -7.74548e-05 7.80156e-07
-7.74548e-05 -8.55957e-05 -7.88222e-07
7.80156e-07 -7.88222e-07 -0.000249194
0.000568512 -4.95234e-05 7.19512e-07
-4.95234e-05 5.30968e-05 8.63637e-07
7.19512e-07 8.63637e-07 -7.2184e-05
0.00120205 -0.000179453 -5.84488e-07
-0.000179453 0.000510104 6.04417e-07
-5.84488e-07 6.04417e-07 0.000334074
0.000649656 -8.23389e-05 -3.34338e-07
-8.23389e-05 0.000124623 -1.71956e-07
-3.34338e-07 -1.71956e-07 -3.23277e-06
0.000475516 1.70126e-05 1.29776e-06
1.70126e-05 2.22983e-06 3.64961e-06
1.29776e-06 3.64961e-06 -8.65135e-05
0.000775837 -0.000119676 4.01435e-07
-0.000119676 0.000215872 -2.41438e-06
4.01435e-07 -2.41438e-06 8.60758e-05
0.000512121 8.86447e-06 -1.94775e-06
8.86447e-06 2.06455e-05 -1.78941e-07
-1.94775e-06 -1.78941e-07 -6.06478e-05
0.00139769 1.84642e-05 -1.44463e-05
1.84642e-05 0.000537899 4.79161e-06
-1.44463e-05 4.79161e-06 0.000515956
0.000595004 -5.73613e-05 2.89514e-06
-5.73613e-05 6.82431e-05 -3.70632e-06
2.89514e-06 -3.70632e-06 -9.14941e-06
0.000899842 -9.41509e-08 -7.21966e-06
-9.41509e-08 0.000228532 6.12575e-07
-7.21966e-06 6.12575e-07 0.000205201
0.000831237 3.22691e-05 6.70872e-09
3.22691e-05 0.000178075 2.86054e-06
6.70872e-09 2.86054e-06 0.000178503
0.000465096 -1.36273e-05 2.10564e-06
-1.36273e-05 -3.90316e-05 -5.36655e-06
2.10564e-06 -5.36655e-06 -6.35432e-05
0.00169679 3.45678e-05 1.2298e-05
3.45678e-05 0.000720903 -1.29579e-06
1.2298e-05 -1.29579e-06 0.000728135
0.00252226 2.88353e-05 1.32923e-05
2.88353e-05 0.00123552 -5.35579e-06
1.32923e-05 -5.35579e-06 0.00124803
0.00031877 1.42768e-05 1.20858e-06
1.42768e-05 -7.43243e-05 -5.7477e-08
1.20858e-06 -5.7477e-08 -0.000199304
0.000188276 1.76146e-05 3.0343e-07
1.76146e-05 -0.000190992 -3.45199e-06
3.0343e-07 -3.45199e-06 -0.000250843
0.00064008 4.53998e-05 2.58281e-08
4.53998e-05 0.000120211 7.82185e-08
2.58281e-08 7.82185e-08 1.33571e-05
0.000490008 1.04479e-06 1.26721e-06
1.04479e-06 -3.57924e-05 -3.65477e-06
1.26721e-06 -3.65477e-06 -4.63096e-05
0.000348319 4.67213e-06 1.54891e-06
4.67213e-06 -9.36397e-05 -9.97243e-09
1.54891e-06 -9.97243e-09 -0.000143688
0.0003065 -9.36588e-05 -1.75192e-06
-9.36588e-05 -8.44222e-05 -7.60091e-07
-1.75192e-06 -7.60091e-07 -0.000180167
0.0020567 -6.93657e-06 -9.71998e-06
-6.93657e-06 0.000941847 -4.75332e-06
-9.71998e-06 -4.75332e-06 0.00095991
0.000486409 1.59872e-06 -2.68814e-08
1.59872e-06 -3.73359e-05 -6.4147e-08
-2.68814e-08 -6.4147e-08 -4.60863e-05
0.000464536 -1.70611e-05 -2.38902e-06
-1.70611e-05 -2.0283e-05 1.96906e-06
-2.38902e-06 1.96906e-06 -6.42909e-05
0.00200686 8.31773e-06 -4.48773e-06
8.31773e-06 0.000911671 9.93674e-09
-4.48773e-06 9.93674e-09 0.000929809
0.000474127 3.78651e-06 -1.12206e-06
3.78651e-06 -4.44962e-05 3.22257e-06
-1.12206e-06 3.22257e-06 -5.27362e-05
0.00197397 2.31052e-05 8.40105e-08
2.31052e-05 0.000892864 4.66381e-06
8.40105e-08 4.66381e-06 0.000910328
-6.19745e-05 -0.000596465 -0.000207411
-0.000596465 -0.000166068 6.97443e-05
-0.000207411 6.97443e-05 -0.00289035
0.00145957 0.000435923 -8.59654e-05
0.000435923 0.00649519 1.11064e-05
-8.59654e-05 1.11064e-05 0.0030938
0.00165061 -0.000164833 -0.000667778
-0.000164833 0.00340681 0.000116615
-0.000667778 0.000116615 0.001703
0.000698466 0.00011756 3.71639e-06
0.00011756 0.000156212 4.73082e-06
3.71639e-06 4.73082e-06 4.60174e-06
0.00446573 -0.00071349 -5.34678e-05
-0.00071349 0.00299972 0.00019813
-5.34678e-05 0.00019813 0.00109982
0.00395362 -0.00108305 -0.000238339
-0.00108305 0.00160877 1.97867e-05
-0.000238339 1.97867e-05 -0.00276329
0.00825268 0.00234425 0.000331194
0.00234425 0.00658181 -0.000284793
0.000331194 -0.000284793 0.00329722
0.00654523 -0.000795191 9.24569e-05
-0.000795191 0.000816312 -2.30778e-05
9.24569e-05 -2.30778e-05 0.000911951
0.0125822 -0.001801 0.000230655
-0.001801 0.00119639 -0.00010095
0.000230655 -0.00010095 -0.000257982
0.00442545 0.00408745 -0.000494417
0.00408745 -0.00116278 0.000374946
-0.000494417 0.000374946 -0.00330191
0.0121347 0.00373019 5.77562e-05
0.00373019 0.00350821 0.000182324
5.77562e-05 0.000182324 0.00134949
0.00660495 -0.00175665 -0.000123732
-0.00175665 0.000172246 -7.48039e-06
-0.000123732 -7.48039e-06 0.000368535
0.0169613 -0.00305843 4.29741e-05
-0.00305843 0.00457907 -2.83245e-05
4.29741e-05 -2.83245e-05 0.00220616
0.00802257 0.00244503 0.000152616
0.00244503 0.00194386 -0.000295272
0.000152616 -0.000295272 -0.00117837
0.0104879 0.00119394 1.4393e-05
0.00119394 -0.000854048 3.30248e-05
1.4393e-05 3.30248e-05 -0.000267807
0.00312333 -0.00215664 -3.70351e-05
-0.00215664 -5.17939e-05 4.82887e-05
-3.70351e-05 4.82887e-05 -0.000304063
0.0116348 -0.00356561 0.000146834
-0.00356561 0.00485075 -9.69431e-05
0.000146834 -9.69431e-05 0.000603596
0.00818609 -0.000133893 0.000125819
-0.000133893 0.00352499 -0.00038848
0.000125819 -0.00038848 0.00125708
0.0110056 0.000646294 -0.000104838
0.000646294 -0.0013764 0.000212587
-0.000104838 0.000212587 0.000991535
0.000636516 1.98063e-05 2.67081e-06
1.98063e-05 0.000210761 5.72298e-06
2.67081e-06 5.72298e-06 -2.2747e-06
0.000826085 -0.000127429 8.93789e-08
-0.000127429 0.000342938 -9.99336e-08
8.93789e-08 -9.99336e-08 0.00011356
0.000813317 0.000145125 5.63159e-07
0.000145125 0.000273723 -5.04863e-06
5.63159e-07 -5.04863e-06 0.000127732
0.000555298 0.000111626 8.82527e-08
0.000111626 5.79536e-05 7.40479e-06
8.82527e-08 7.40479e-06 -8.50097e-05
0.000798874 0.000164295 4.77846e-07
0.000164295 0.000266052 8.07309e-07
4.77846e-07 8.07309e-07 7.95677e-05
0.00103571 8.34829e-05 -5.50101e-06
8.34829e-05 0.000410354 -3.94335e-06
-5.50101e-06 -3.94335e-06 0.000261484
0.00102719 0.000161339 -1.34939e-06
0.000161339 0.0003953 -7.65254e-08
-1.34939e-06 -7.65254e-08 0.000226488
0.00108022 0.000176469 9.53256e-07
0.000176469 0.000451709 2.55567e-06
9.53256e-07 2.55567e-06 0.000278643
-0.000175981 -0.000450116 9.27904e-05
-0.000450116 -0.00121509 -5.7299e-05
9.27904e-05 -5.7299e-05 -0.00109063
0.00200488 -0.00074866 2.73677e-06
-0.00074866 0.000286341 -1.31257e-05
2.73677e-06 -1.31257e-05 0.000254034
0.00104228 -0.000230421 2.92296e-07
-0.000230421 0.000488612 -2.20207e-05
2.92296e-07 -2.20207e-05 0.000216701
0.00154287 -0.000671085 1.92878e-05
-0.000671085 0.000739018 -2.94345e-05
1.92878e-05 -2.94345e-05 0.000392505
0.0025529 -0.000402449 -1.65789e-05
-0.000402449 0.00145765 1.64331e-05
-1.65789e-05 1.64331e-05 0.00109627
0.00148951 -0.000136426 2.74586e-07
-0.000136426 0.000738675 -2.02678e-05
2.74586e-07 -2.02678e-05 0.000491787
3.57929e-05 -6.33927e-05 2.33403e-06
-6.33927e-05 -0.000180715 6.56564e-06
2.33403e-06 6.56564e-06 -0.000378769
0.000148981 -0.000941334 8.77441e-07
-0.000941334 -0.000916063 -1.61181e-06
8.77441e-07 -1.61181e-06 -0.000861724
0.00133553 4.76357e-05 -7.47511e-07
4.76357e-05 0.000773378 -1.51011e-06
-7.47511e-07 -1.51011e-06 0.00047738
0.000537479 -0.00021798 4.81172e-06
-0.00021798 0.000390554 2.46103e-06
4.81172e-06 2.46103e-06 -2.15064e-05
0.000542274 -0.000394285 9.72528e-06
-0.000394285 -1.19736e-05 4.05832e-06
9.72528e-06 4.05832e-06 -2.15938e-05
0.00114697 0.000120663 -5.85788e-07
0.000120663 0.000491036 -1.87469e-06
-5.85788e-07 -1.87469e-06 0.000321716
-0.000155739 -0.000793147 -3.18492e-05
-0.000793147 -0.000578795 -3.58035e-05
-3.18492e-05 -3.58035e-05 -0.000664545
-0.000895636 -0.000371391 -9.23692e-06
-0.000371391 -0.000544645 3.13959e-05
-9.23692e-06 3.13959e-05 -0.000742079
-0.00016509 0.000126111 2.09468e-05
0.000126111 0.00026563 -2.40994e-05
2.09468e-05 -2.40994e-05 -0.00028273
0.00157443 0.000262992 -2.42672e-06
0.000262992 0.000853264 -4.69675e-06
-2.42672e-06 -4.69675e-06 0.000645257
-0.000966475 6.82367e-05 7.20359e-05
6.82367e-05 0.00114181 9.13452e-06
7.20359e-05 9.13452e-06 0.000406459
0.000653074 -2.81206e-05 0.000133724
-2.81206e-05 0.00125929 -2.95791e-05
0.000133724 -2.95791e-05 -0.00228408
-0.0100537 -0.000272972 -0.000227223
-0.000272972 0.00524656 2.24414e-05
-0.000227223 2.24414e-05 0.000149525
0.00165601 0.00046196 1.85899e-05
0.00046196 0.000957682 1.34116e-06
1.85899e-05 1.34116e-06 0.000687143
-0.000893426 0.000560873 9.01865e-06
0.000560873 -0.000474448 1.445e-05
9.01865e-06 1.445e-05 -0.000867478
0.00522064 0.0005307 0.000241641
0.0005307 0.00335178 4.11816e-05
0.000241641 4.11816e-05 0.00130944
0.0105925 0.00305539 0.000266093
0.00305539 0.00371853 0.000173259
0.000266093 0.000173259 -0.000349878
0.00326823 0.00177842 -7.4708e-05
0.00177842 0.00203571 -8.26255e-05
-7.4708e-05 -8.26255e-05 0.000704156
0.00511229 -0.0019988 -0.000156957
-0.0019988 0.00357427 -0.000402556
-0.000156957 -0.000402556 0.000337612
0.00223264 0.000456251 0.000112363
0.000456251 0.000254112 0.000181136
0.000112363 0.000181136 -0.00130387
0.00664615 -0.000159865 -3.81447e-05
-0.000159865 -0.00523218 -0.000216822
-3.81447e-05 -0.000216822 -0.00196802
0.000795196 0.000378049 6.59177e-06
0.000378049 0.00063314 1.99063e-06
6.59177e-06 1.99063e-06 0.000305715
-0.00200278 3.96181e-05 -2.02153e-06
3.96181e-05 -5.84841e-05 3.40748e-07
-2.02153e-06 3.40748e-07 -0.000334274
0.00390986 1.558e-05 9.11142e-05
1.558e-05 -0.000235931 2.41378e-05
9.11142e-05 2.41378e-05 -0.000673543
-0.00155414 0.000352045 -1.17698e-05
0.000352045 -0.000343126 -9.10274e-06
-1.17698e-05 -9.10274e-06 -0.000997399
0.0102695 0.00132654 -6.93832e-06
0.00132654 -0.000737415 -3.0467e-05
-6.93832e-06 -3.0467e-05 -0.000264766
0.00277657 0.00160738 0.000182673
0.00160738 0.00343389 0.000118072
0.000182673 0.000118072 -0.00190096
0.00595699 0.000630689 -0.00015106
0.000630689 0.002996 1.22677e-06
-0.00015106 1.22677e-06 -0.000122536
0.000473159 0.000365095 -6.79495e-06
0.000365095 0.000500865 -2.44695e-05
-6.79495e-06 -2.44695e-05 3.90106e-05
0.00127785 1.19302e-05 1.26965e-05
1.19302e-05 -8.81373e-05 -2.15209e-05
1.26965e-05 -2.15209e-05 -0.000133789
0.00375002 -0.000806939 4.13122e-05
-0.000806939 0.00294196 -0.000203312
4.13122e-05 -0.000203312 0.00123014
0.0162522 0.00391971 0.00028813
0.00391971 0.0043563 -0.000243235
0.00028813 -0.000243235 0.00293289
0.00755991 -5.49758e-05 -0.000101168
-5.49758e-05 0.00348752 0.000396592
-0.000101168 0.000396592 0.00100381
0.000621947 0.00037653 -9.95832e-06
0.00037653 0.000600435 -0.000122057
-9.95832e-06 -0.000122057 8.48341e-05
0.00320241 0.00151147 0.000236382
0.00151147 0.00521681 3.72594e-05
0.000236382 3.72594e-05 -0.00240126
0.00131235 0.000294174 3.96591e-06
0.000294174 0.000874855 1.12881e-05
3.96591e-06 1.12881e-05 0.000555756
0.00066398 0.000215647 3.367e-06
0.000215647 0.000695248 -3.85812e-08
3.367e-06 -3.85812e-08 0.000304274
5.05779e-05 -2.63225e-05 -1.17802e-05
-2.63225e-05 0.000431618 -5.67114e-06
-1.17802e-05 -5.67114e-06 0.000114426
8.90873e-05 -5.20809e-05 1.04987e-06
-5.20809e-05 -0.000191957 6.14702e-06
1.04987e-06 6.14702e-06 -0.000314247
0.00108351 -9.2354e-06 5.17856e-06
-9.2354e-06 0.000815039 -3.47579e-06
5.17856e-06 -3.47579e-06 0.000469888
3.04429e-05 7.32383e-05 3.59274e-06
7.32383e-05 0.000342634 -1.85979e-06
3.59274e-06 -1.85979e-06 -0.000105019
0.000389911 -3.28675e-05 1.04788e-06
-3.28675e-05 0.000289643 -1.4892e-07
1.04788e-06 -1.4892e-07 4.66002e-05
4.60913e-05 -1.02441e-05 5.45936e-06
-1.02441e-05 0.00028698 6.11635e-07
5.45936e-06 6.11635e-07 -8.59135e-05
0.00102995 -0.000254207 -1.11022e-06
-0.000254207 0.000672313 -1.23988e-05
-1.11022e-06 -1.23988e-05 0.000371455
0.000792454 -8.17341e-05 -5.0829e-06
-8.17341e-05 0.000351822 7.84495e-06
-5.0829e-06 7.84495e-06 0.000212328
0.000683654 -1.66095e-05 -6.6801e-07
-1.66095e-05 0.000170547 1.85979e-06
-6.6801e-07 1.85979e-06 4.56251e-05
0.00140441 -0.000243576 2.20926e-06
-0.000243576 0.000622618 4.44422e-06
2.20926e-06 4.44422e-06 0.000454535
-0.00174849 -0.000204344 1.73378e-05
-0.000204344 -0.00112719 1.11974e-05
1.73378e-05 1.11974e-05 -0.00143992
-4.60715e-05 -0.000115444 6.96261e-06
-0.000115444 -0.000280074 -3.20583e-06
6.96261e-06 -3.20583e-06 -0.00031947
-0.00013714 -0.000305253 -9.7331e-07
-0.000305253 -0.000410064 -3.63275e-06
-9.7331e-07 -3.63275e-06 -0.000655288
0.00129419 -0.000485862 1.50741e-06
-0.000485862 0.000326292 -2.27278e-06
1.50741e-06 -2.27278e-06 -7.52355e-05
0.00163756 -0.000560506 -4.19702e-06
-0.000560506 0.000410593 -1.19216e-06
-4.19702e-06 -1.19216e-06 1.64187e-05
0.00189561 -0.00035582 4.886e-06
-0.00035582 0.000804602 -2.50296e-06
4.886e-06 -2.50296e-06 0.000600113
0.00128615 -0.00042429 1.86509e-06
-0.00042429 0.000352698 5.756e-07
1.86509e-06 5.756e-07 2.82472e-05
0.00161475 -0.000463072 3.16116e-06
-0.000463072 0.000424792 -2.4184e-06
3.16116e-06 -2.4184e-06 0.000100453
0.000592115 -0.000275136 -3.23362e-06
-0.000275136 -0.000100118 5.09635e-06
-3.23362e-06 5.09635e-06 -0.000355935
0.00105711 -0.000390676 1.99308e-06
-0.000390676 0.000113354 -5.3175e-06
1.99308e-06 -5.3175e-06 -0.000197806
0.000435249 -0.000128268 5.02368e-07
-0.000128268 2.51389e-05 -3.31056e-06
5.02368e-07 -3.31056e-06 -0.000217064
0.00114118 -0.000318236 -6.24529e-06
-0.000318236 0.00038972 4.45226e-06
-6.24529e-06 4.45226e-06 0.000136179
-0.00121188 -8.27732e-05 -1.57651e-06
-8.27732e-05 -0.00116021 -8.78918e-06
-1.57651e-06 -8.78918e-06 -0.00136232
0.000283618 -4.8992e-05 4.27182e-07
-4.8992e-05 -0.00011943 -1.77552e-07
4.27182e-07 -1.77552e-07 -0.000262107
0.000491556 -0.000121495 1.11045e-07
-0.000121495 7.02233e-05 1.50096e-07
1.11045e-07 1.50096e-07 -0.000140586
0.00101473 -0.000222301 7.29933e-06
-0.000222301 0.000407893 -1.8146e-06
7.29933e-06 -1.8146e-06 0.000189974
0.000453765 -0.000107965 7.45375e-07
-0.000107965 2.9645e-05 2.4245e-06
7.45375e-07 2.4245e-06 -0.000134852
0.000707125 -8.28369e-05 -1.73317e-07
-8.28369e-05 0.000155013 3.47793e-07
-1.73317e-07 3.47793e-07 1.71547e-05
0.000534942 2.57083e-06 6.05041e-07
2.57083e-06 2.99607e-05 4.60933e-06
6.05041e-07 4.60933e-06 -6.50308e-05
0.000903471 -0.000112938 -6.92823e-07
-0.000112938 0.000294148 -1.01104e-06
-6.92823e-07 -1.01104e-06 0.000154283
0.00057207 2.91544e-06 -1.20757e-06
2.91544e-06 5.47654e-05 -2.95909e-07
-1.20757e-06 -2.95909e-07 -3.05419e-05
0.000428483 3.91719e-05 3.90362e-07
3.91719e-05 -5.77172e-05 6.08752e-06
3.90362e-07 6.08752e-06 -8.97564e-05
0.000688516 -5.44211e-05 2.15153e-06
-5.44211e-05 0.000122979 -3.41038e-06
2.15153e-06 -3.41038e-06 4.41973e-05
0.000471198 9.65425e-06 -6.99503e-07
9.65425e-06 -4.03809e-05 -4.9275e-08
-6.99503e-07 -4.9275e-08 -6.74053e-05
0.00253102 8.86498e-05 -2.75337e-06
8.86498e-05 0.00124411 2.43867e-06
-2.75337e-06 2.43867e-06 0.0012499
0.000481048 -4.29714e-06 2.37631e-06
-4.29714e-06 -3.35436e-05 -5.55802e-06
2.37631e-06 -5.55802e-06 -5.93672e-05
0.00173152 4.79749e-05 1.48636e-05
4.79749e-05 0.000742441 -1.0757e-06
1.48636e-05 -1.0757e-06 0.000747719
0.0025816 4.47864e-05 1.99365e-05
4.47864e-05 0.00127183 -5.47463e-06
1.99365e-05 -5.47463e-06 0.00128322
0.000298248 1.5917e-05 1.045e-06
1.5917e-05 -0.000104212 -2.29852e-07
1.045e-06 -2.29852e-07 -0.000220856
0.000226597 1.01018e-05 1.15615e-06
1.01018e-05 -0.00016929 -3.13455e-06
1.15615e-06 -3.13455e-06 -0.000239393
0.000489898 3.24131e-05 -5.43796e-07
3.24131e-05 2.95883e-05 -1.16622e-06
-5.43796e-07 -1.16622e-06 -9.10088e-05
0.000510363 -1.69751e-06 1.83679e-06
-1.69751e-06 -2.37354e-05 -4.1525e-06
1.83679e-06 -4.1525e-06 -3.70399e-05
0.000207757 1.37753e-05 -5.97031e-07
1.37753e-05 -0.000179371 -1.71427e-06
-5.97031e-07 -1.71427e-06 -0.000241045
0.000670988 5.32009e-05 -5.23161e-07
5.32009e-05 0.000151038 1.52128e-06
-5.23161e-07 1.52128e-06 3.62567e-05
0.00208118 -2.02964e-05 -1.50118e-05
-2.02964e-05 0.00095631 -4.64831e-06
-1.50118e-05 -4.64831e-06 0.000974021
0.0004913 -6.49588e-07 -5.2581e-07
-6.49588e-07 -3.53456e-05 -6.08217e-08
-5.2581e-07 -6.08217e-08 -4.55862e-05
0.000139999 1.24093e-05 1.02025e-06
1.24093e-05 -0.000219859 1.45143e-06
1.02025e-06 1.45143e-06 -0.00027349
0.00202902 -5.60212e-06 -3.98154e-06
-5.60212e-06 0.000924402 4.65311e-08
-3.98154e-06 4.65311e-08 0.000942681
0.000476589 1.20267e-06 -1.32298e-06
1.20267e-06 -4.39557e-05 3.4054e-06
-1.32298e-06 3.4054e-06 -5.24097e-05
0.0020389 9.82477e-06 5.37909e-06
9.82477e-06 0.000931962 4.77341e-06
5.37909e-06 4.77341e-06 0.000949789
0.000395669 -3.44303e-05 9.41692e-05
-3.44303e-05 0.00156486 2.87712e-05
9.41692e-05 2.87712e-05 0.00118847
-9.45869e-05 -0.000318307 -3.72462e-05
-0.000318307 0.000292285 -1.3451e-05
-3.72462e-05 -1.3451e-05 -0.0030007
0.000311584 0.00041038 6.33345e-06
0.00041038 0.00617749 -3.71603e-05
6.33345e-06 -3.71603e-05 0.00277084
0.000767738 0.00012551 2.75827e-07
0.00012551 0.00019194 1.78182e-07
2.75827e-07 1.78182e-07 4.939e-05
0.00045679 8.76611e-05 4.74057e-06
8.76611e-05 -1.78519e-05 4.09124e-06
4.74057e-06 4.09124e-06 -0.000147523
0.00102833 0.000179286 5.64596e-06
0.000179286 0.000353407 6.28859e-06
5.64596e-06 6.28859e-06 0.000208489
0.00496332 -0.000158364 -4.60407e-05
-0.000158364 -0.000426086 0.000225266
-4.60407e-05 0.000225266 -0.00124942
0.00440259 -0.000751459 7.09039e-05
-0.000751459 0.00274972 -1.48057e-06
7.09039e-05 -1.48057e-06 0.00135928
0.00453193 -0.00135501 0.000147553
-0.00135501 0.00193496 -0.000218505
0.000147553 -0.000218505 -0.00255651
0.0082392 -0.00215716 -4.84274e-05
-0.00215716 0.000593497 -2.46875e-05
-4.84274e-05 -2.46875e-05 0.00101885
0.000385128 -0.00245906 -0.000317794
-0.00245906 -0.00179853 9.81915e-05
-0.000317794 9.81915e-05 -0.00483321
0.0230804 0.00345131 0.000161404
0.00345131 0.00915383 0.000130967
0.000161404 0.000130967 0.00566991
0.00639024 2.7672e-05 0.000227176
2.7672e-05 -0.00300738 -0.000200493
0.000227176 -0.000200493 -0.00289399
0.00471778 -0.0024229 -3.62446e-05
-0.0024229 0.000325614 1.60818e-05
-3.62446e-05 1.60818e-05 0.00036391
0.00715284 -0.00317927 -9.19309e-05
-0.00317927 0.00274884 2.15587e-05
-9.19309e-05 2.15587e-05 -0.00163502
-0.00322688 0.0032107 -8.34472e-05
0.0032107 0.00288406 -0.000271195
-8.34472e-05 -0.000271195 -0.00132382
0.00885921 0.000232277 -5.70766e-05
0.000232277 -0.00355766 0.00012124
-5.70766e-05 0.00012124 -0.000542096
0.000897953 -0.0014752 -0.000127994
-0.0014752 0.000338431 4.35389e-05
-0.000127994 4.35389e-05 2.28316e-05
0.0102521 -0.00254911 -0.000248544
-0.00254911 0.00527627 0.000152245
-0.000248544 0.000152245 0.000465573
-0.00195463 -3.91153e-05 3.41722e-05
-3.91153e-05 0.00196183 -0.000331287
3.41722e-05 -0.000331287 -0.00139741
0.00819688 -0.00116357 0.000101647
-0.00116357 -0.0020094 4.9972e-05
0.000101647 4.9972e-05 -0.00110848
0.000349815 9.02564e-05 2.80729e-06
9.02564e-05 -3.05329e-05 1.3538e-05
2.80729e-06 1.3538e-05 -0.000177551
0.000766644 -2.03195e-05 2.68943e-06
-2.03195e-05 0.000274042 -2.56759e-06
2.68943e-06 -2.56759e-06 5.49732e-05
0.000655912 -0.000130206 1.78582e-07
-0.000130206 0.000178689 -9.36733e-06
1.78582e-07 -9.36733e-06 -2.59279e-05
0.000680658 0.000124113 -1.90103e-06
0.000124113 0.000138362 1.03526e-06
-1.90103e-06 1.03526e-06 -1.13139e-05
0.000759225 0.000138953 1.60225e-06
0.000138953 0.000243949 -3.56926e-06
1.60225e-06 -3.56926e-06 6.81775e-05
0.0011712 0.000183972 -3.44076e-06
0.000183972 0.000489107 -2.43603e-06
-3.44076e-06 -2.43603e-06 0.000316592
-0.00111016 -0.000800716 2.54758e-05
-0.000800716 -0.00155824 -8.31371e-06
2.54758e-05 -8.31371e-06 -0.00151378
0.00108789 -0.00035095 3.43003e-05
-0.00035095 0.000300393 -2.83342e-05
3.43003e-05 -2.83342e-05 0.000319597
-4.12139e-05 2.43396e-06 -1.49735e-06
2.43396e-06 -0.00022012 -9.98601e-06
-1.49735e-06 -9.98601e-06 -0.000423761
0.00183123 -0.000418403 5.08652e-05
-0.000418403 0.00107648 -2.47628e-05
5.08652e-05 -2.47628e-05 0.000694734
0.00163694 -6.11797e-05 -5.38263e-06
-6.11797e-05 0.000927925 5.98062e-06
-5.38263e-06 5.98062e-06 0.000649344
0.000320942 9.80942e-05 3.09859e-06
9.80942e-05 2.41376e-05 2.96996e-06
3.09859e-06 2.96996e-06 -0.000158607
0.000913423 0.000155149 -1.96872e-07
0.000155149 0.000441318 -2.50981e-06
-1.96872e-07 -2.50981e-06 0.000261414
0.000261916 -0.000952464 -4.43392e-06
-0.000952464 -0.000403821 -5.86499e-06
-4.43392e-06 -5.86499e-06 -0.000627272
0.000167829 -1.50704e-08 -6.90448e-06
-1.50704e-08 0.000437829 5.09593e-06
-6.90448e-06 5.09593e-06 -6.96514e-05
0.00167712 -0.000302757 7.67253e-06
-0.000302757 0.000813071 -9.37751e-06
7.67253e-06 -9.37751e-06 0.000581124
0.00125626 0.000170475 -2.00198e-07
0.000170475 0.000641621 -1.09794e-05
-2.00198e-07 -1.09794e-05 0.000469342
-0.00284273 -0.000123317 -0.000108712
-0.000123317 -0.000760633 -1.2347e-05
-0.000108712 -1.2347e-05 -0.0015546
-0.000191055 -0.000135576 -1.71584e-05
-0.000135576 0.000229911 7.43449e-06
-1.71584e-05 7.43449e-06 -0.000111056
0.000229651 0.000136177 -2.35256e-06
0.000136177 0.000428634 1.02438e-05
-2.35256e-06 1.02438e-05 2.73099e-05
-0.000103969 0.000105197 -5.77938e-06
0.000105197 -0.000606885 1.14392e-06
-5.77938e-06 1.14392e-06 -0.00135135
-0.00142876 0.000100259 2.84153e-05
0.000100259 0.000850873 -1.53133e-05
2.84153e-05 -1.53133e-05 0.000177754
-0.000134592 -0.000140072 0.000289016
-0.000140072 0.000758416 1.63253e-05
0.000289016 1.63253e-05 -0.00279622
-0.000127602 0.000336875 -2.83281e-06
0.000336875 7.67923e-05 1.66748e-05
-2.83281e-06 1.66748e-05 -0.00026876
0.000743703 0.000720123 -1.08516e-05
0.000720123 0.000419853 -3.69535e-06
-1.08516e-05 -3.69535e-06 -0.000129672
-0.00183505 7.81136e-06 -1.47345e-05
7.81136e-06 -3.94486e-05 -1.03612e-05
-1.47345e-05 -1.03612e-05 -0.000439525
-0.0040524 0.000690999 4.92634e-05
0.000690999 0.00210282 0.000159802
4.92634e-05 0.000159802 -0.00294995
-0.00363403 0.00127669 -0.000184112
0.00127669 -0.00234547 -0.000422548
-0.000184112 -0.000422548 -0.00620974
0.00328969 7.75949e-05 7.19072e-05
7.75949e-05 -0.000273486 0.000101916
7.19072e-05 0.000101916 -0.000227772
0.00611683 0.000139853 -0.000229982
0.000139853 -0.00272827 0.000206081
-0.000229982 0.000206081 -0.00285109
0.000325244 0.000294108 1.95776e-06
0.000294108 0.000470716 -1.18298e-06
1.95776e-06 -1.18298e-06 7.26943e-05
0.000979255 -7.9888e-06 2.66792e-05
-7.9888e-06 -0.00017982 -2.40172e-05
2.66792e-05 -2.40172e-05 -0.000199993
0.00379149 -0.000601428 -7.17017e-05
-0.000601428 0.00267266 5.29164e-06
-7.17017e-05 5.29164e-06 0.00128449
0.00020061 0.000554088 -0.000102974
0.000554088 0.00104554 -6.31362e-06
-0.000102974 -6.31362e-06 -0.000143192
0.0117205 0.00401334 5.72881e-05
0.00401334 0.00161737 -0.000349305
5.72881e-05 -0.000349305 -5.37884e-06
-0.000719415 0.00246112 6.51402e-05
0.00246112 0.0030957 0.000276156
6.51402e-05 0.000276156 -0.000927754
0.00563348 0.000430063 5.13396e-05
0.000430063 0.00591428 -2.30233e-05
5.13396e-05 -2.30233e-05 -0.000958209
0.000859592 -9.70713e-06 3.12904e-05
-9.70713e-06 0.00136734 -2.82035e-05
3.12904e-05 -2.82035e-05 0.000494771
0.000119236 -9.8663e-05 -7.97173e-05
-9.8663e-05 0.00154404 3.76416e-06
-7.97173e-05 3.76416e-06 0.00109625
0.00231584 -0.000815387 0.000603097
-0.000815387 0.000816397 -0.000237038
0.000603097 -0.000237038 -0.00371328
0.0148198 0.00564278 -4.14761e-05
0.00564278 0.010113 7.60283e-06
-4.14761e-05 7.60283e-06 0.00810889
0.00223699 0.00313554 -0.00015346
0.00313554 -0.000229728 0.000673772
-0.00015346 0.000673772 -0.0030961
0.0119173 -0.00280333 0.000223152
-0.00280333 0.00554098 -0.000191613
0.000223152 -0.000191613 0.000419305
0.00346349 -0.00069853 -7.04579e-05
-0.00069853 0.0026514 4.44651e-05
-7.04579e-05 4.44651e-05 0.00189469
0.00127394 0.000277897 5.278e-06
0.000277897 0.00104967 4.94933e-06
5.278e-06 4.94933e-06 0.000656533
-0.000124872 -3.21855e-05 -4.1609e-06
-3.21855e-05 0.000259523 -3.02814e-06
-4.1609e-06 -3.02814e-06 -6.61196e-05
0.0019484 -0.000464878 3.16865e-05
-0.000464878 0.00119372 -1.34435e-05
3.16865e-05 -1.34435e-05 0.000773934
0.00070457 -8.25722e-05 5.36332e-07
-8.25722e-05 0.000431467 3.05764e-06
5.36332e-07 3.05764e-06 0.000231597
8.18403e-05 -1.88228e-05 -1.74628e-07
-1.88228e-05 0.000290876 -4.6868e-06
-1.74628e-07 -4.6868e-06 -6.72854e-05
0.000215667 -0.000226026 -3.67512e-06
-0.000226026 0.000313612 4.25973e-07
-3.67512e-06 4.25973e-07 -4.17149e-06
0.000537775 -0.000444156 2.34341e-05
-0.000444156 0.000133458 -2.36337e-05
2.34341e-05 -2.36337e-05 -7.71035e-05
0.00249694 -0.000340677 -1.85655e-06
-0.000340677 0.00128666 2.50119e-06
-1.85655e-06 2.50119e-06 0.00108426
0.0022442 -0.000626449 1.40224e-05
-0.000626449 0.00104477 -3.83634e-06
1.40224e-05 -3.83634e-06 0.00068455
0.00153884 -0.00055739 9.76953e-06
-0.00055739 0.000612535 -2.54587e-06
9.76953e-06 -2.54587e-06 7.57728e-05
0.000370717 -0.000301994 -4.02946e-06
-0.000301994 -0.000146494 -2.71424e-06
-4.02946e-06 -2.71424e-06 -0.000348959
0.00154013 -0.000512287 -2.14448e-06
-0.000512287 0.000423099 1.51511e-07
-2.14448e-06 1.51511e-07 2.18359e-05
0.00216049 -0.000691182 -1.2456e-06
-0.000691182 0.000711123 6.65863e-07
-1.2456e-06 6.65863e-07 0.000211303
0.00182512 -0.000712101 -7.08313e-06
-0.000712101 0.000387378 1.69264e-06
-7.08313e-06 1.69264e-06 -5.15324e-05
0.00163839 -0.00057933 -1.21624e-06
-0.00057933 0.000407595 -5.40868e-07
-1.21624e-06 -5.40868e-07 2.47028e-05
0.00152848 -0.000552195 -4.75355e-06
-0.000552195 0.000339026 1.5962e-06
-4.75355e-06 1.5962e-06 -5.48085e-05
0.00112867 -0.000410252 -2.29832e-06
-0.000410252 0.000223417 -3.63828e-06
-2.29832e-06 -3.63828e-06 -0.000107213
0.00183282 -0.000451251 5.90385e-06
-0.000451251 0.000630666 1.4596e-06
5.90385e-06 1.4596e-06 0.000327833
0.00151363 -0.000456941 4.96417e-06
-0.000456941 0.000366684 -2.97639e-06
4.96417e-06 -2.97639e-06 4.1841e-05
0.000364514 -0.000177608 1.93752e-06
-0.000177608 -0.000124501 1.1494e-06
1.93752e-06 1.1494e-06 -0.000357936
0.000919892 -0.000321228 2.79384e-06
-0.000321228 0.000117088 -6.98421e-07
2.79384e-06 -6.98421e-07 -0.000148278
0.00029296 -0.000298303 -1.07409e-06
-0.000298303 -0.000342646 -8.12761e-06
-1.07409e-06 -8.12761e-06 -0.000628143
-0.00018626 -2.37237e-05 -1.80746e-07
-2.37237e-05 -0.000368581 5.01833e-07
-1.80746e-07 5.01833e-07 -0.000575444
0.00105801 -0.00019423 -4.63052e-07
-0.00019423 0.000413746 -2.25629e-07
-4.63052e-07 -2.25629e-07 0.000161854
0.00110154 -0.000336369 -2.30517e-07
-0.000336369 0.000381835 -2.51253e-06
-2.30517e-07 -2.51253e-06 0.000110039
0.00064634 -2.43301e-05 -9.79059e-07
-2.43301e-05 9.70287e-05 5.0665e-06
-9.79059e-07 5.0665e-06 -1.02982e-05
0.000819718 -0.000107454 -3.5943e-07
-0.000107454 0.000210981 -1.29597e-07
-3.5943e-07 -1.29597e-07 5.91597e-05
0.000145837 -9.68317e-05 1.38226e-06
-9.68317e-05 -0.000133423 1.49873e-06
1.38226e-06 1.49873e-06 -0.000336032
0.000873837 -0.000108643 1.02667e-06
-0.000108643 0.000265754 -9.96489e-07
1.02667e-06 -9.96489e-07 0.000120534
0.000611913 -3.97921e-05 -8.70433e-08
-3.97921e-05 7.51324e-05 -2.48619e-07
-8.70433e-08 -2.48619e-07 -2.03379e-05
0.000420936 3.09347e-05 7.84813e-07
3.09347e-05 -5.61657e-05 7.57833e-06
7.84813e-07 7.57833e-06 -9.36633e-05
0.000645627 -4.59827e-05 1.33826e-06
-4.59827e-05 9.51883e-05 -3.8304e-06
1.33826e-06 -3.8304e-06 1.0603e-05
0.000496343 2.18362e-05 -1.92174e-06
2.18362e-05 -1.88888e-05 -2.04295e-07
-1.92174e-06 -2.04295e-07 -4.97971e-05
0.0026599 9.61042e-05 -3.39814e-05
9.61042e-05 0.00133136 4.44069e-06
-3.39814e-05 4.44069e-06 0.00133629
0.000515623 5.03274e-06 2.30951e-06
5.03274e-06 -1.39445e-05 -5.63745e-06
2.30951e-06 -5.63745e-06 -4.07453e-05
0.00171119 6.30668e-05 1.71542e-05
6.30668e-05 0.000732536 -8.15295e-07
1.71542e-05 -8.15295e-07 0.000735855
0.00262696 6.29489e-05 2.48322e-05
6.29489e-05 0.00130143 -5.12852e-06
2.48322e-05 -5.12852e-06 0.00131112
0.000715418 8.82881e-05 3.45956e-06
8.82881e-05 0.000164579 5.84312e-07
3.45956e-06 5.84312e-07 3.56191e-05
0.00052687 4.34722e-05 1.49406e-06
4.34722e-05 1.64891e-05 -2.49374e-06
1.49406e-06 -2.49374e-06 -5.86586e-05
0.00046372 4.96966e-05 -1.1092e-06
4.96966e-05 1.15327e-05 -1.22789e-06
-1.1092e-06 -1.22789e-06 -0.000114958
0.000502274 -6.92528e-07 9.23499e-07
-6.92528e-07 -2.8264e-05 -5.04888e-06
9.23499e-07 -5.04888e-06 -4.59664e-05
0.000347368 3.45795e-05 -2.09053e-06
3.45795e-05 -9.30819e-05 -1.72659e-06
-2.09053e-06 -1.72659e-06 -0.000162605
0.000678184 7.03555e-05 -9.01227e-07
7.03555e-05 0.000149574 -1.50245e-06
-9.01227e-07 -1.50245e-06 2.90305e-05
0.00217143 -3.53571e-05 -1.92189e-05
-3.53571e-05 0.00101281 -4.74303e-06
-1.92189e-05 -4.74303e-06 0.00102912
0.000486852 -4.78824e-06 -8.9774e-08
-4.78824e-06 -3.8624e-05 -1.17054e-07
-8.9774e-08 -1.17054e-07 -5.15902e-05
0.000148495 1.25346e-05 -1.70082e-06
1.25346e-05 -0.000216392 4.60099e-07
-1.70082e-06 4.60099e-07 -0.000279252
0.0021137 -1.95892e-05 -5.1204e-06
-1.95892e-05 0.000976663 1.2004e-07
-5.1204e-06 1.2004e-07 0.000994292
0.000481432 -3.12553e-06 -2.05754e-06
-3.12553e-06 -4.17375e-05 3.46208e-06
-2.05754e-06 3.46208e-06 -5.1746e-05
0.00206146 -4.16405e-06 1.02507e-05
-4.16405e-06 0.00094456 4.77447e-06
1.02507e-05 4.77447e-06 0.000962716
0.00121907 -0.000175595 -4.12148e-05
-0.000175595 -0.000151101 2.99803e-05
-4.12148e-05 2.99803e-05 -0.000237347
-0.000270066 -0.000192898 4.77805e-05
-0.000192898 0.00132094 -2.85872e-06
4.77805e-05 -2.85872e-06 0.000871282
-0.000507031 -0.000342836 0.000147344
-0.000342836 0.000466266 -0.000108838
0.000147344 -0.000108838 -0.00312902
0.000219222 4.66355e-05 3.20428e-06
4.66355e-05 -0.00016871 3.00096e-06
3.20428e-06 3.00096e-06 -0.000299135
0.00185872 0.00010019 1.06308e-06
0.00010019 0.000828758 1.96931e-06
1.06308e-06 1.96931e-06 0.00067367
0.000723722 0.000135065 -1.84345e-06
0.000135065 0.000166106 -3.36951e-06
-1.84345e-06 -3.36951e-06 2.92831e-05
0.000460694 7.4185e-05 7.32093e-07
7.4185e-05 -2.82504e-05 8.23609e-07
7.32093e-07 8.23609e-07 -0.000149261
0.000507023 9.25797e-05 3.37624e-07
9.25797e-05 2.20241e-05 -4.47032e-07
3.37624e-07 -4.47032e-07 -0.000104438
0.000524249 8.48141e-05 4.84407e-06
8.48141e-05 2.37916e-05 3.21371e-06
4.84407e-06 3.21371e-06 -9.43891e-05
0.000544395 0.000163518 8.46287e-06
0.000163518 8.40413e-05 6.40572e-06
8.46287e-06 6.40572e-06 -5.56256e-05
0.00108937 0.00058502 0.000153212
0.00058502 -0.000451425 0.000239232
0.000153212 0.000239232 -0.00170285
0.00413953 -0.000124058 -3.57521e-05
-0.000124058 -0.000216575 5.71612e-05
-3.57521e-05 5.71612e-05 -0.000815516
0.00376862 -0.000554607 0.000140095
-0.000554607 0.0025287 -9.86429e-05
0.000140095 -9.86429e-05 0.00146039
0.00678699 -0.000109748 -5.55377e-06
-0.000109748 -0.00570243 0.000147335
-5.55377e-06 0.000147335 -0.00197211
0.00334862 -0.00216449 -9.29757e-05
-0.00216449 0.000441462 5.33092e-05
-9.29757e-05 5.33092e-05 0.000322248
0.0011474 -0.00322562 -0.000184129
-0.00322562 0.00136353 7.42484e-05
-0.000184129 7.42484e-05 -0.00380963
0.0136745 0.00363336 9.48038e-05
0.00363336 0.00665146 -0.000127475
9.48038e-05 -0.000127475 0.00282446
0.00279794 -0.00191255 -5.56311e-05
-0.00191255 0.000447256 2.34165e-05
-5.56311e-05 2.34165e-05 0.000570114
-0.00119039 -0.000640892 -4.14438e-05
-0.000640892 0.00327236 4.7968e-05
-4.14438e-05 4.7968e-05 -0.0031288
0.00635159 0.000539009 0.000153326
0.000539009 0.0027524 -2.00122e-05
0.000153326 -2.00122e-05 -0.000227502
0.0139049 -0.00207484 -6.57087e-05
-0.00207484 0.00185747 -2.43302e-05
-6.57087e-05 -2.43302e-05 0.00317995
-0.00219937 -0.000294745 -0.000180782
-0.000294745 -0.00064999 0.00012518
-0.000180782 0.00012518 -0.000604956
0.00349203 0.0019587 -0.000162519
0.0019587 0.00470861 -8.35672e-05
-0.000162519 -8.35672e-05 -0.00175458
-0.00316837 -0.00425581 2.86947e-05
-0.00425581 -0.000996494 -0.000223445
2.86947e-05 -0.000223445 -0.00520517
0.0116275 -0.00256807 9.13615e-05
-0.00256807 0.00230764 -0.000533279
9.13615e-05 -0.000533279 0.00152659
0.000982519 2.91584e-05 9.61129e-06
2.91584e-05 0.000450733 3.08901e-06
9.61129e-06 3.08901e-06 0.00027205
0.000728259 0.000163494 -1.1023e-06
0.000163494 0.000216493 -1.883e-06
-1.1023e-06 -1.883e-06 6.11298e-05
0.000835778 -1.42274e-05 1.23986e-06
-1.42274e-05 0.000331045 -2.78527e-06
1.23986e-06 -2.78527e-06 9.33765e-05
0.00100675 0.000141631 -2.93649e-06
0.000141631 0.000365159 -7.28928e-06
-2.93649e-06 -7.28928e-06 0.000195145
0.000444412 -0.000787042 9.78948e-06
-0.000787042 -0.000260168 3.9816e-05
9.78948e-06 3.9816e-05 -0.000515789
0.00401278 -0.000336532 -3.92326e-06
-0.000336532 0.00221884 -2.73077e-05
-3.92326e-06 -2.73077e-05 0.00191069
0.00073527 8.2734e-05 -4.86541e-06
8.2734e-05 0.000258342 -9.72677e-06
-4.86541e-06 -9.72677e-06 9.71165e-05
0.000384917 0.000197313 -1.98365e-06
0.000197313 0.000128421 -6.00327e-07
-1.98365e-06 -6.00327e-07 -5.3815e-05
0.000747863 8.47028e-05 -1.1025e-05
8.47028e-05 0.000720135 1.3073e-05
-1.1025e-05 1.3073e-05 0.000311184
0.000483091 5.60519e-05 3.82635e-06
5.60519e-05 0.000130335 3.68766e-06
3.82635e-06 3.68766e-06 -8.70765e-06
0.000181524 0.00018418 2.60762e-07
0.00018418 0.000409614 1.07747e-06
2.60762e-07 1.07747e-06 -8.43424e-06
0.00136453 -0.000334816 6.37256e-06
-0.000334816 0.0012869 3.4139e-06
6.37256e-06 3.4139e-06 0.000288109
5.99116e-05 -0.000124128 1.82885e-05
-0.000124128 0.000541348 1.62138e-06
1.82885e-05 1.62138e-06 0.000176427
-0.000400097 0.000106997 3.88387e-07
0.000106997 -0.000147714 -7.69991e-06
3.88387e-07 -7.69991e-06 -0.000381552
0.00239676 -0.000120414 -3.31795e-05
-0.000120414 0.00328116 -4.16949e-05
-3.31795e-05 -4.16949e-05 0.00170729
0.00113872 0.000322073 -1.39358e-05
0.000322073 0.00110123 2.149e-05
-1.39358e-05 2.149e-05 0.000604452
-0.00126497 5.63928e-05 -5.69348e-05
5.63928e-05 0.00118526 3.10373e-06
-5.69348e-05 3.10373e-06 0.000374004
0.000880122 1.89443e-05 7.77442e-06
1.89443e-05 -0.000197863 2.56568e-06
7.77442e-06 2.56568e-06 -0.000388427
-0.00192898 0.000121429 -3.73446e-06
0.000121429 0.000527825 -4.48004e-05
-3.73446e-06 -4.48004e-05 -4.49494e-05
0.000201919 0.000203143 -1.26556e-05
0.000203143 0.000499441 9.35875e-06
-1.26556e-05 9.35875e-06 0.000182246
-0.00135736 0.000686469 0.000114254
0.000686469 -0.000437264 9.58156e-05
0.000114254 9.58156e-05 -0.00105484
0.000712393 5.12191e-06 4.41138e-05
5.12191e-06 -0.000266277 -5.27488e-06
4.41138e-05 -5.27488e-06 -0.000127392
0.0046964 -0.00178034 0.000178267
-0.00178034 0.00497883 -0.000172131
0.000178267 -0.000172131 -0.00255745
0.0153529 0.00323023 -0.000143419
0.00323023 0.0068747 0.000123565
-0.000143419 0.000123565 0.00333993
0.0034122 -0.000452287 -0.000133739
-0.000452287 0.00221706 0.00010811
-0.000133739 0.00010811 0.0012743
0.0115008 0.003888 -3.03779e-05
0.003888 0.00355541 -0.000171556
-3.03779e-05 -0.000171556 0.00131673
0.000384461 0.000158506 -5.41189e-05
0.000158506 0.000990453 1.16398e-05
-5.41189e-05 1.16398e-05 0.000134698
0.000178035 -0.000129166 -5.60975e-05
-0.000129166 0.00128279 1.33081e-06
-5.60975e-05 1.33081e-06 0.0010234
0.00342738 -0.00111924 0.000235665
-0.00111924 0.00146441 -2.59643e-05
0.000235665 -2.59643e-05 -0.00290283
-0.00184576 -0.000146769 3.48103e-05
-0.000146769 -0.000435447 2.97567e-05
3.48103e-05 2.97567e-05 -0.000794379
0.00828074 0.00624288 0.00045244
0.00624288 0.00639739 -0.000219901
0.00045244 -0.000219901 0.00475064
0.00677495 0.00253692 -0.000155527
0.00253692 0.00166877 0.000302347
-0.000155527 0.000302347 -0.00137733
-0.00263828 -0.00111717 0.000138131
-0.00111717 0.00235414 -0.000121734
0.000138131 -0.000121734 -0.00443071
-0.000200528 -0.00036275 1.82092e-05
-0.00036275 0.000585471 -2.2245e-05
1.82092e-05 -2.2245e-05 -0.000258427
0.000142148 -0.000559789 0.000224548
-0.000559789 -0.000268538 -5.2655e-05
0.000224548 -5.2655e-05 -0.00293488
-0.00177407 0.000134725 -0.00082513
0.000134725 0.00536827 0.000229712
-0.00082513 0.000229712 0.00215992
0.0125634 0.00574513 -0.000506044
0.00574513 0.00348937 0.000515844
-0.000506044 0.000515844 0.00109152
0.00900689 -0.00273814 -9.95576e-05
-0.00273814 0.00360266 4.11498e-05
-9.95576e-05 4.11498e-05 -2.03948e-05
0.00287011 -0.00117798 -1.80241e-05
-0.00117798 0.0020625 1.81676e-05
-1.80241e-05 1.81676e-05 0.0014334
0.00064118 -6.13183e-05 7.63573e-06
-6.13183e-05 0.000633374 8.17356e-06
7.63573e-06 8.17356e-06 0.000316595
0.000243778 -0.000303625 -4.79975e-07
-0.000303625 0.000355448 -3.2741e-07
-4.79975e-07 -3.2741e-07 -7.50941e-05
0.00102585 -0.000612257 6.68604e-06
-0.000612257 0.000514879 -2.76708e-06
6.68604e-06 -2.76708e-06 0.000320703
-0.000422353 -0.000194477 2.74483e-06
-0.000194477 4.13769e-05 7.40758e-06
2.74483e-06 7.40758e-06 -0.000283922
-0.000736914 -0.000310247 8.32198e-07
-0.000310247 -0.000444894 -1.10775e-06
8.32198e-07 -1.10775e-06 -0.000663649
0.00274045 -0.000735571 4.15217e-05
-0.000735571 0.0011069 -4.77543e-06
4.15217e-05 -4.77543e-06 0.000802589
0.00620841 -0.00107189 -1.43468e-05
-0.00107189 0.00320265 4.59192e-06
-1.43468e-05 4.59192e-06 0.00278419
0.0026764 -0.000702515 7.39331e-06
-0.000702515 0.00115235 -5.7971e-07
7.39331e-06 -5.7971e-07 0.000619291
0.00166298 -0.000690275 1.09706e-05
-0.000690275 0.000422232 -9.80043e-06
1.09706e-05 -9.80043e-06 -0.000131194
0.00159953 -0.000513897 -8.01611e-06
-0.000513897 0.00042077 -4.35048e-06
-8.01611e-06 -4.35048e-06 2.46586e-05
0.00236529 -0.000724378 3.02712e-06
-0.000724378 0.000802018 -8.64044e-07
3.02712e-06 -8.64044e-07 0.000293589
0.00234966 -0.000771295 1.90357e-06
-0.000771295 0.000721171 -9.79173e-06
1.90357e-06 -9.79173e-06 0.000215611
0.00210002 -0.000663883 -3.48189e-06
-0.000663883 0.000402958 -4.99128e-06
-3.48189e-06 -4.99128e-06 4.23493e-05
0.00223722 -0.000758937 -4.78503e-06
-0.000758937 0.000598908 1.68333e-06
-4.78503e-06 1.68333e-06 0.000178474
0.00208542 -0.000742288 -2.31054e-06
-0.000742288 0.00052987 -2.47816e-08
-2.31054e-06 -2.47816e-08 8.16203e-05
0.00187139 -0.000572266 7.73872e-06
-0.000572266 0.000590889 6.5084e-07
7.73872e-06 6.5084e-07 0.000233333
0.00136625 -0.000541587 1.76754e-06
-0.000541587 0.000250165 -2.2004e-07
1.76754e-06 -2.2004e-07 -0.000118431
0.00126259 -0.000523994 1.01908e-06
-0.000523994 0.000177262 1.83151e-07
1.01908e-06 1.83151e-07 -0.000212035
0.00163082 -0.000384313 4.04212e-06
-0.000384313 0.00054501 2.03815e-06
4.04212e-06 2.03815e-06 0.000271593
0.00142753 -0.000406846 -8.26481e-07
-0.000406846 0.000381148 -1.44283e-06
-8.26481e-07 -1.44283e-06 8.51226e-05
0.0014042 -0.000449318 9.06403e-06
-0.000449318 0.00030483 -2.65454e-06
9.06403e-06 -2.65454e-06 -1.98702e-05
0.000717664 -0.00017329 2.67254e-06
-0.00017329 0.000193022 -1.56007e-06
2.67254e-06 -1.56007e-06 -7.92817e-05
0.000670933 -0.000211059 -1.8172e-06
-0.000211059 7.79527e-05 1.18685e-06
-1.8172e-06 1.18685e-06 -0.000162447
0.00110133 -0.000346307 5.90807e-06
-0.000346307 0.000240244 -7.56788e-06
5.90807e-06 -7.56788e-06 -2.89287e-05
0.000200013 -3.41005e-05 -1.08224e-07
-3.41005e-05 -0.000187461 5.11185e-06
-1.08224e-07 5.11185e-06 -0.000311072
0.000712977 -7.9716e-05 -8.34399e-07
-7.9716e-05 0.000185577 4.39403e-07
-8.34399e-07 4.39403e-07 -2.99203e-05
0.00136025 -0.000267071 1.59382e-06
-0.000267071 0.00061316 4.47455e-08
1.59382e-06 4.47455e-08 0.000349459
0.000408071 1.01579e-05 -4.27329e-06
1.01579e-05 -6.64514e-05 1.11846e-05
-4.27329e-06 1.11846e-05 -0.000107611
0.000657381 -3.90749e-05 -1.04937e-07
-3.90749e-05 9.7749e-05 -5.39411e-08
-1.04937e-07 -5.39411e-08 -7.66686e-06
0.00126692 -0.000160627 1.06768e-07
-0.000160627 0.000492011 -4.33272e-07
1.06768e-07 -4.33272e-07 0.000327994
0.000667825 -4.5075e-05 1.21184e-06
-4.5075e-05 0.000108573 -4.19073e-06
1.21184e-06 -4.19073e-06 1.3107e-05
0.000476598 2.32316e-05 -1.27115e-07
2.32316e-05 -2.44956e-05 -2.46795e-07
-1.27115e-07 -2.46795e-07 -6.09886e-05
0.00279627 0.000119527 -3.53019e-05
0.000119527 0.0014252 4.23361e-06
-3.53019e-05 4.23361e-06 0.00142472
0.000545507 1.79091e-05 1.32628e-06
1.79091e-05 8.81158e-06 -6.51282e-06
1.32628e-06 -6.51282e-06 -2.13794e-05
0.00267773 9.94715e-05 4.13512e-06
9.94715e-05 0.00134315 4.5723e-07
4.13512e-06 4.5723e-07 0.00134739
0.00260182 8.07042e-05 2.83004e-05
8.07042e-05 0.00128958 -4.64796e-06
2.83004e-05 -4.64796e-06 0.00129732
0.000784019 8.5286e-05 2.83101e-06
8.5286e-05 0.000254868 -3.83593e-06
2.83101e-06 -3.83593e-06 7.79855e-05
0.000793458 0.000114409 5.75065e-06
0.000114409 0.000227772 1.1426e-07
5.75065e-06 1.1426e-07 7.4155e-05
0.000579558 3.57354e-05 2.65686e-06
3.57354e-05 4.67078e-05 -3.31063e-06
2.65686e-06 -3.31063e-06 -3.6535e-05
0.000629276 9.92159e-05 2.30077e-07
9.92159e-05 0.00010729 -2.27707e-07
2.30077e-07 -2.27707e-07 -1.93553e-05
0.000485664 -4.26611e-06 4.41884e-07
-4.26611e-06 -3.61743e-05 -6.09545e-06
4.41884e-07 -6.09545e-06 -5.88702e-05
0.00054803 4.65962e-05 1.96018e-07
4.65962e-05 2.98554e-05 -1.40227e-07
1.96018e-07 -1.40227e-07 -4.53514e-05
0.000589041 5.38264e-05 -3.66355e-06
5.38264e-05 7.57106e-05 -1.13397e-06
-3.66355e-06 -1.13397e-06 -4.20519e-05
0.00232081 -5.13515e-05 -2.51268e-05
-5.13515e-05 0.00110765 -4.86127e-06
-2.51268e-05 -4.86127e-06 0.00112155
0.000490258 -6.23384e-06 -7.25526e-07
-6.23384e-06 -3.5284e-05 -1.27277e-07
-7.25526e-07 -1.27277e-07 -5.26775e-05
0.000495558 5.25209e-05 -3.08681e-06
5.25209e-05 7.62061e-08 7.24466e-07
-3.08681e-06 7.24466e-07 -6.88771e-05
0.00217856 -3.46179e-05 -4.63356e-06
-3.46179e-05 0.00101722 2.19589e-07
-4.63356e-06 2.19589e-07 0.00103363
0.000487803 -4.88717e-06 -2.18332e-06
-4.88717e-06 -3.82061e-05 3.83655e-06
-2.18332e-06 3.83655e-06 -5.09017e-05
0.00209445 -1.87416e-05 1.44126e-05
-1.87416e-05 0.000964456 4.6609e-06
1.44126e-05 4.6609e-06 0.000982208
-0.00178982 7.61424e-05 -1.37244e-05
7.61424e-05 -1.18461e-05 -1.58211e-05
-1.37244e-05 -1.58211e-05 -6.76717e-05
0.00122858 -0.000167582 -1.61121e-05
-0.000167582 -9.37987e-05 2.02396e-05
-1.61121e-05 2.02396e-05 -3.56202e-05
0.000127691 -0.000178634 7.32733e-06
-0.000178634 0.00126068 -3.04885e-05
7.32733e-06 -3.04885e-05 0.000868999
0.000819545 9.36807e-05 -3.62877e-07
9.36807e-05 0.000237693 7.97263e-07
-3.62877e-07 7.97263e-07 8.11366e-05
0.000471033 8.78566e-05 3.91224e-06
8.78566e-05 -2.47552e-05 -1.12985e-06
3.91224e-06 -1.12985e-06 -0.000168591
-0.00159301 -1.32346e-05 -3.55667e-06
-1.32346e-05 -0.00126666 -8.38935e-06
-3.55667e-06 -8.38935e-06 -0.00139021
-4.70355e-05 3.86773e-05 2.38349e-06
3.86773e-05 -0.000314843 1.0394e-05
2.38349e-06 1.0394e-05 -0.000447718
0.00281721 0.000372132 -2.56093e-06
0.000372132 0.00146409 -1.2501e-06
-2.56093e-06 -1.2501e-06 0.0012318
0.00069845 4.53261e-05 -5.12077e-06
4.53261e-05 0.000108897 -4.15023e-06
-5.12077e-06 -4.15023e-06 -9.46353e-06
0.000514016 8.9151e-05 -5.06223e-06
8.9151e-05 2.13645e-05 -8.169e-06
-5.06223e-06 -8.169e-06 -9.66735e-05
0.000701605 7.06896e-05 1.82155e-07
7.06896e-05 0.000134645 -3.81575e-07
1.82155e-07 -3.81575e-07 1.45651e-05
0.000961075 0.000148968 -2.89242e-07
0.000148968 0.000320438 -1.42582e-06
-2.89242e-07 -1.42582e-06 0.000191799
0.000736909 0.000111382 6.40541e-06
0.000111382 0.000291409 -1.19139e-05
6.40541e-06 -1.19139e-05 9.7871e-05
0.00477807 0.000712136 0.000326218
0.000712136 0.00338634 0.00042528
0.000326218 0.00042528 -0.00104726
0.00172733 0.000508885 1.73888e-05
0.000508885 -4.91553e-05 8.54046e-05
1.73888e-05 8.54046e-05 -0.00153508
0.0036108 -0.000100182 1.61372e-05
-0.000100182 -0.000130634 -1.53818e-05
1.61372e-05 -1.53818e-05 -0.000393673
0.0135328 -0.00176581 -0.000222202
-0.00176581 0.00193028 -0.000139818
-0.000222202 -0.000139818 0.00360271
-0.00416373 0.00161954 6.2256e-05
0.00161954 -0.00217278 0.00040904
6.2256e-05 0.00040904 -0.00618344
0.0033854 -0.00196133 -6.17185e-05
-0.00196133 0.00116609 -2.09832e-06
-6.17185e-05 -2.09832e-06 0.00123287
0.00974368 -0.00185102 -0.000121767
-0.00185102 0.0053429 1.64172e-05
-0.000121767 1.64172e-05 0.000649565
0.00103953 -0.000559541 -4.75093e-05
-0.000559541 0.00068671 8.80876e-05
-4.75093e-05 8.80876e-05 0.000426141
0.00941912 -0.000164806 -0.000119564
-0.000164806 0.00599644 -2.42226e-06
-0.000119564 -2.42226e-06 -2.12949e-05
0.0043662 -0.00233302 9.76552e-05
-0.00233302 0.00277068 0.000161532
9.76552e-05 0.000161532 -0.00126035
0.0131871 -0.00348255 -0.000181051
-0.00348255 0.00148396 -0.000630016
-0.000181051 -0.000630016 0.000485808
0.00388284 -7.89618e-06 -9.87467e-05
-7.89618e-06 0.00301654 9.22694e-05
-9.87467e-05 9.22694e-05 0.00215758
0.0126456 0.00227865 -0.000147362
0.00227865 0.00654934 2.74157e-05
-0.000147362 2.74157e-05 0.00185839
0.0175474 -0.00518925 -0.000199354
-0.00518925 0.0081074 -0.000595901
-0.000199354 -0.000595901 0.00502104
0.0184814 -0.00660292 7.37103e-05
-0.00660292 0.00651791 -5.61974e-05
7.37103e-05 -5.61974e-05 0.00531906
0.000734225 0.000214047 1.1338e-05
0.000214047 0.000369138 4.72751e-07
1.1338e-05 4.72751e-07 0.000135062
0.000294694 4.50868e-05 2.53884e-06
4.50868e-05 8.89088e-05 2.4239e-06
2.53884e-06 2.4239e-06 -0.00012484
0.000912899 0.000172401 -6.88877e-06
0.000172401 0.000340342 -1.0589e-05
-6.88877e-06 -1.0589e-05 0.000175368
0.00451199 -0.000501727 -3.05652e-05
-0.000501727 0.00239868 3.49426e-05
-3.05652e-05 3.49426e-05 0.00127263
0.000176377 -8.98186e-05 -8.57609e-06
-8.98186e-05 0.00072454 -3.93603e-05
-8.57609e-06 -3.93603e-05 0.000325454
5.59521e-05 7.75344e-07 -6.63512e-06
7.75344e-07 -0.000133422 1.94205e-06
-6.63512e-06 1.94205e-06 -0.000265981
-0.000135033 7.47034e-05 4.15489e-06
7.47034e-05 0.000220802 -5.86126e-06
4.15489e-06 -5.86126e-06 -0.000191425
0.000222256 0.000110458 1.9964e-06
0.000110458 0.000199103 -1.23898e-06
1.9964e-06 -1.23898e-06 -4.71198e-05
0.000499553 0.000307758 9.2949e-06
0.000307758 0.000653979 -3.4122e-07
9.2949e-06 -3.4122e-07 0.000159009
-0.00186545 -0.000124392 0.000258754
-0.000124392 0.000712291 -1.30697e-05
0.000258754 -1.30697e-05 -0.000994819
-0.00174699 0.000215065 -1.74369e-05
0.000215065 -0.000895131 1.43315e-05
-1.74369e-05 1.43315e-05 -0.00123872
0.00288503 0.000753237 -0.000131944
0.000753237 0.00216863 -6.97589e-05
-0.000131944 -6.97589e-05 0.000926988
0.00147551 0.000190746 0.000150706
0.000190746 0.00162545 4.81603e-05
0.000150706 4.81603e-05 -0.00192903
-0.00160667 0.00010589 -2.97226e-05
0.00010589 0.000901438 1.73442e-05
-2.97226e-05 1.73442e-05 0.000113355
0.00194837 -0.000179892 -1.39965e-05
-0.000179892 0.000292174 -6.43229e-08
-1.39965e-05 -6.43229e-08 0.000595509
-0.000610377 0.000426413 0.000114489
0.000426413 0.000330659 1.65676e-05
0.000114489 1.65676e-05 -0.000601969
0.00143302 0.000299925 -7.13157e-05
0.000299925 0.00178534 7.32514e-05
-7.13157e-05 7.32514e-05 0.000577398
4.70735e-05 -0.000196284 -1.39994e-05
-0.000196284 0.00120131 3.42761e-06
-1.39994e-05 3.42761e-06 0.000802543
0.0162747 -0.00338087 0.00019378
-0.00338087 0.00774874 -9.02828e-05
0.00019378 -9.02828e-05 0.00226744
0.0209726 0.00377577 -7.05404e-05
0.00377577 0.00889843 -0.00012301
-7.05404e-05 -0.00012301 0.00545575
0.00466552 -0.00123744 -0.000189613
-0.00123744 0.00223429 0.00021091
-0.000189613 0.00021091 -0.00208644
0.000757833 0.00710936 0.00203452
0.00710936 0.00201966 -0.00135883
0.00203452 -0.00135883 0.000443977
0.000993589 -0.0004148 2.63085e-05
-0.0004148 0.00121538 -8.19556e-06
2.63085e-05 -8.19556e-06 0.000287526
-0.000108115 -0.000403877 3.17711e-05
-0.000403877 0.000223126 1.4891e-05
3.17711e-05 1.4891e-05 -0.00295143
-0.00151387 0.000485601 -0.000953558
0.000485601 0.00518942 0.000318909
-0.000953558 0.000318909 0.00173463
0.000956156 -0.000692092 -7.53548e-07
-0.000692092 0.00101746 3.21406e-05
-7.53548e-07 3.21406e-05 0.000465087
0.01838 0.0050527 0.000277299
0.0050527 0.00541865 8.51266e-05
0.000277299 8.51266e-05 0.00316756
0.00747555 -0.00376647 0.000156381
-0.00376647 0.00250086 -6.72627e-05
0.000156381 -6.72627e-05 -0.00114569
0.0020439 -0.00107476 -1.78691e-05
-0.00107476 0.00110516 3.04154e-05
-1.78691e-05 3.04154e-05 0.000503727
-0.00644366 -0.00139596 0.000113684
-0.00139596 0.00444919 -6.17767e-05
0.000113684 -6.17767e-05 0.000860135
0.0147669 0.00469339 -0.00121715
0.00469339 0.00581692 0.000481757
-0.00121715 0.000481757 0.00373244
0.00523927 -0.00271575 -0.000354853
-0.00271575 -0.000412215 0.000177436
-0.000354853 0.000177436 -0.00389183
0.00190582 -0.00174953 0.000183064
-0.00174953 0.000244763 -0.000100687
0.000183064 -0.000100687 0.00105922
0.000279608 -0.000364222 -7.26607e-05
-0.000364222 0.000331868 2.72237e-05
-7.26607e-05 2.72237e-05 -6.08598e-05
0.000671549 -0.000532173 -8.12846e-06
-0.000532173 0.000368857 1.24467e-05
-8.12846e-06 1.24467e-05 0.000101628
0.00343977 -0.000811685 2.71208e-05
-0.000811685 0.00158856 -3.91011e-06
2.71208e-05 -3.91011e-06 0.00127208
-0.00217199 -0.000178032 5.35032e-06
-0.000178032 -0.0010974 1.34339e-05
5.35032e-06 1.34339e-05 -0.00132526
0.000957075 -0.000526024 5.58072e-06
-0.000526024 0.000172807 -3.19978e-07
5.58072e-06 -3.19978e-07 -0.000111034
0.00245765 -0.000804642 9.17552e-06
-0.000804642 0.000671813 -4.27024e-07
9.17552e-06 -4.27024e-07 0.000329747
0.00366948 -0.000827747 -2.74385e-05
-0.000827747 0.00161899 6.34657e-06
-2.74385e-05 6.34657e-06 0.00109403
0.00148336 -0.000651104 -2.31307e-07
-0.000651104 0.000307069 -7.45808e-07
-2.31307e-07 -7.45808e-07 -0.000222392
0.00182103 -0.000792596 4.37993e-06
-0.000792596 0.000264513 -9.68022e-06
4.37993e-06 -9.68022e-06 -0.000166104
0.00279165 -0.000784663 -2.64605e-06
-0.000784663 0.00101016 3.68905e-06
-2.64605e-06 3.68905e-06 0.000491975
0.00204439 -0.000743186 2.67603e-07
-0.000743186 0.000528375 -4.95906e-06
2.67603e-07 -4.95906e-06 4.10791e-05
0.00252823 -0.000715458 1.21557e-06
-0.000715458 0.000589441 -8.87415e-06
1.21557e-06 -8.87415e-06 0.00023607
0.00170579 -0.000477913 -4.60735e-06
-0.000477913 2.52848e-05 -3.23715e-06
-4.60735e-06 -3.23715e-06 -0.000214407
0.00180908 -0.000656469 -9.92367e-07
-0.000656469 0.000190003 -9.48018e-07
-9.92367e-07 -9.48018e-07 -0.000166515
0.00202869 -0.000656736 2.65927e-06
-0.000656736 0.000357133 -2.99035e-06
2.65927e-06 -2.99035e-06 2.0113e-07
0.00208849 -0.000663491 -1.61977e-06
-0.000663491 0.000579488 -1.09344e-07
-1.61977e-06 -1.09344e-07 0.00020156
0.00218762 -0.000752239 -2.47539e-06
-0.000752239 0.000581672 4.03459e-08
-2.47539e-06 4.03459e-08 0.000157516
0.00233068 -0.000771958 3.30541e-06
-0.000771958 0.000662715 -3.15435e-06
3.30541e-06 -3.15435e-06 0.000205401
0.00185327 -0.000481461 4.47543e-06
-0.000481461 0.000630694 2.86579e-06
4.47543e-06 2.86579e-06 0.000312259
0.00132527 -0.00050603 2.18645e-06
-0.00050603 0.00027451 4.95493e-07
2.18645e-06 4.95493e-07 -6.56991e-05
0.001148 -0.000511412 3.18665e-06
-0.000511412 0.000123677 8.28292e-07
3.18665e-06 8.28292e-07 -0.00023187
0.00120029 -0.000318875 -1.20062e-06
-0.000318875 0.000360308 8.39018e-07
-1.20062e-06 8.39018e-07 0.000103872
0.00112337 -0.000324115 7.59136e-08
-0.000324115 0.000240847 -8.63619e-07
7.59136e-08 -8.63619e-07 -2.11743e-05
0.00113522 -0.000373693 -5.1443e-06
-0.000373693 0.00020214 -3.07354e-06
-5.1443e-06 -3.07354e-06 -8.97255e-05
-0.000220825 -5.66967e-05 -1.45506e-06
-5.66967e-05 -0.000434221 5.51181e-06
-1.45506e-06 5.51181e-06 -0.00061465
0.000781941 -0.0001948 1.65698e-06
-0.0001948 0.000232166 -1.65855e-07
1.65698e-06 -1.65855e-07 -4.01387e-05
0.0013241 -0.000270854 -2.51908e-06
-0.000270854 0.000495695 1.5334e-06
-2.51908e-06 1.5334e-06 0.000240323
0.00175291 4.71325e-05 -3.67174e-05
4.71325e-05 0.000776473 7.13113e-06
-3.67174e-05 7.13113e-06 0.000731563
0.000703937 -7.83457e-05 1.57514e-07
-7.83457e-05 0.000116168 -7.804e-07
1.57514e-07 -7.804e-07 -1.18645e-05
0.00152609 -0.000133842 -1.97301e-06
-0.000133842 0.000689281 -6.27993e-07
-1.97301e-06 -6.27993e-07 0.00046382
0.000725432 4.10924e-05 -4.42579e-05
4.10924e-05 0.000134987 4.97915e-06
-4.42579e-05 4.97915e-06 0.000126825
0.00109972 2.94977e-05 -1.45059e-05
2.94977e-05 0.000366229 -5.44299e-07
-1.45059e-05 -5.44299e-07 0.000325924
0.000704769 -4.96128e-05 2.18948e-06
-4.96128e-05 0.000122026 -4.79855e-06
2.18948e-06 -4.79855e-06 1.75506e-05
0.000567797 1.95665e-05 2.13029e-06
1.95665e-05 3.04872e-05 -7.85199e-06
2.13029e-06 -7.85199e-06 -5.92608e-06
0.00283897 0.00012036 7.12263e-06
0.00012036 0.00145223 6.41186e-07
7.12263e-06 6.41186e-07 0.00145163
0.00266259 0.000100206 3.15018e-05
0.000100206 0.00133426 -4.47064e-06
3.15018e-05 -4.47064e-06 0.00133839
0.00105423 0.000129678 7.7688e-06
0.000129678 0.000403796 4.24689e-07
7.7688e-06 4.24689e-07 0.000220132
0.00121603 0.000144223 3.77059e-06
0.000144223 0.000511727 -2.05221e-06
3.77059e-06 -2.05221e-06 0.000330741
0.000199859 6.57682e-05 -3.1531e-07
6.57682e-05 -0.00013176 9.71448e-07
-3.1531e-07 9.71448e-07 -0.000288106
0.000616776 2.92404e-05 3.09459e-06
2.92404e-05 6.99098e-05 -4.53623e-06
3.09459e-06 -4.53623e-06 -2.42002e-05
0.000811732 0.000102667 6.4953e-07
0.000102667 0.000232068 7.43815e-08
6.4953e-07 7.43815e-08 8.68981e-05
0.000474948 4.13764e-06 -1.34112e-06
4.13764e-06 -3.78335e-05 -7.30248e-06
-1.34112e-06 -7.30248e-06 -6.54181e-05
0.000555303 3.83509e-05 -1.15341e-07
3.83509e-05 3.40448e-05 -3.59889e-07
-1.15341e-07 -3.59889e-07 -5.00301e-05
0.000716759 6.76439e-05 -2.96505e-06
6.76439e-05 0.000183468 1.13685e-07
-2.96505e-06 1.13685e-07 4.06042e-05
0.0025259 -6.90879e-05 -3.29324e-05
-6.90879e-05 0.0012392 -4.78305e-06
-3.29324e-05 -4.78305e-06 0.00124998
0.00046832 -1.76174e-06 -7.20277e-07
-1.76174e-06 -4.63581e-05 -1.18534e-07
-7.20277e-07 -1.18534e-07 -6.88227e-05
0.000563634 5.07407e-05 -7.58067e-07
5.07407e-05 4.05252e-05 2.87783e-06
-7.58067e-07 2.87783e-06 -3.50487e-05
0.0023276 -5.12941e-05 -5.64065e-06
-5.12941e-05 0.00111185 3.34242e-07
-5.64065e-06 3.34242e-07 0.0011258
0.000463167 -1.15167e-05 -3.32569e-06
-1.15167e-05 -5.1719e-05 4.797e-06
-3.32569e-06 4.797e-06 -6.89194e-05
0.00219412 -3.33505e-05 1.99169e-05
-3.33505e-05 0.00102689 4.59898e-06
1.99169e-05 4.59898e-06 0.00104342
0.00625983 0.000467562 0.000259236
0.000467562 0.00329032 5.31924e-05
0.000259236 5.31924e-05 0.00137643
-0.00157035 3.04935e-05 -1.44372e-06
3.04935e-05 -2.08841e-05 -5.21274e-06
-1.44372e-06 -5.21274e-06 -0.000252911
0.000782628 -1.26858e-05 -1.86914e-05
-1.26858e-05 -4.69296e-05 -2.27758e-06
-1.86914e-05 -2.27758e-06 2.75669e-05
-0.000288759 9.89854e-05 -7.07389e-06
9.89854e-05 -0.000478925 -6.86752e-07
-7.07389e-06 -6.86752e-07 -0.000620533
0.000553648 7.77459e-05 -5.65872e-06
7.77459e-05 6.80875e-05 -2.79596e-06
-5.65872e-06 -2.79596e-06 -7.7714e-05
0.000130509 6.46759e-05 -1.95214e-07
6.46759e-05 -0.000236275 -2.02033e-06
-1.95214e-07 -2.02033e-06 -0.000374314
0.00107019 6.70359e-05 1.00632e-06
6.70359e-05 0.000356737 -4.12692e-07
1.00632e-06 -4.12692e-07 0.000213979
0.000173516 8.72314e-05 -2.16675e-06
8.72314e-05 -0.000205167 -1.17289e-06
-2.16675e-06 -1.17289e-06 -0.000335603
0.00193308 0.000270544 -7.44908e-07
0.000270544 0.000921172 -3.04146e-06
-7.44908e-07 -3.04146e-06 0.000734966
0.00109277 0.000223472 -7.04247e-06
0.000223472 0.000376712 -1.58456e-05
-7.04247e-06 -1.58456e-05 0.000109861
-0.000692089 6.58456e-05 1.87239e-06
6.58456e-05 -0.00050504 4.07609e-07
1.87239e-06 4.07609e-07 -0.000779493
0.00083205 0.000147036 -4.65921e-06
0.000147036 0.000237496 -4.53235e-06
-4.65921e-06 -4.53235e-06 0.000100354
0.000148071 4.84109e-05 -6.02882e-06
4.84109e-05 -0.000215264 -6.93907e-06
-6.02882e-06 -6.93907e-06 -0.000310858
0.000124581 5.16928e-05 2.25756e-07
5.16928e-05 -9.8591e-05 8.7495e-07
2.25756e-07 8.7495e-07 -0.000278903
0.000764827 0.000222247 1.26677e-05
0.000222247 0.000438329 -2.78826e-06
1.26677e-05 -2.78826e-06 0.000118142
0.00213769 -0.00225958 0.000140366
-0.00225958 0.00482128 0.000253951
0.000140366 0.000253951 0.00025171
0.00550754 0.000978454 9.48397e-05
0.000978454 0.00288491 0.000152849
9.48397e-05 0.000152849 -0.00185717
0.00238589 0.000349668 -2.93947e-05
0.000349668 0.000404872 -7.963e-05
-2.93947e-05 -7.963e-05 -0.00129955
0.0201606 -0.00431907 -0.000580773
-0.00431907 0.00499166 -0.000327961
-0.000580773 -0.000327961 0.00383608
0.00614049 -0.00158288 0.000226432
-0.00158288 0.00321835 0.0004262
0.000226432 0.0004262 0.000228496
0.00328079 -0.00131787 -0.000193211
-0.00131787 0.00452946 8.7414e-05
-0.000193211 8.7414e-05 -0.00208405
-0.000294189 -0.000505689 0.000121389
-0.000505689 0.000960043 1.465e-05
0.000121389 1.465e-05 4.7617e-05
0.000242831 -0.000147155 5.90355e-05
-0.000147155 0.000897125 5.71078e-05
5.90355e-05 5.71078e-05 0.000376153
0.0102746 -0.00681113 0.000379238
-0.00681113 0.0043048 0.000361445
0.000379238 0.000361445 0.00294135
0.0024174 0.001378 -7.79361e-05
0.001378 0.00393546 -7.1258e-05
-7.79361e-05 -7.1258e-05 -0.00204941
0.00650395 -0.00312274 -0.000107739
-0.00312274 0.00219471 8.84115e-05
-0.000107739 8.84115e-05 -0.00146221
0.000451638 0.000565023 -2.63727e-05
0.000565023 0.000884068 6.67357e-05
-2.63727e-05 6.67357e-05 0.000643765
0.0113821 0.00309618 -0.000102108
0.00309618 0.00413212 8.83194e-06
-0.000102108 8.83194e-06 0.000512679
0.0114032 -0.00556465 -0.000696563
-0.00556465 0.00296543 -0.000470586
-0.000696563 -0.000470586 0.000330073
-0.000153889 0.00039668 -4.5091e-07
0.00039668 -0.000468021 -4.99985e-06
-4.5091e-07 -4.99985e-06 -0.000611935
0.000424219 0.000117888 7.62919e-06
0.000117888 0.000154461 2.9388e-06
7.62919e-06 2.9388e-06 -3.70801e-05
6.78773e-05 5.21938e-05 -6.70171e-06
5.21938e-05 -5.71262e-05 -4.70237e-06
-6.70171e-06 -4.70237e-06 -0.000266063
-0.00367213 -0.000329561 -0.00013405
-0.000329561 -0.000289971 -6.2001e-05
-0.00013405 -6.2001e-05 -0.00194146
-0.000934021 0.000224027 1.54472e-05
0.000224027 -0.000242042 -2.13029e-05
1.54472e-05 -2.13029e-05 -0.0007313
0.000957901 0.000153261 -6.08499e-06
0.000153261 0.00060348 7.03582e-06
-6.08499e-06 7.03582e-06 0.000350786
0.000975335 0.00056014 1.65095e-05
0.00056014 0.000525 4.12704e-06
1.65095e-05 4.12704e-06 0.000152966
-0.00044674 0.000393262 4.776e-05
0.000393262 0.000550206 -2.77792e-05
4.776e-05 -2.77792e-05 -0.000522807
0.00035863 0.00103319 4.62477e-05
0.00103319 -0.000212312 5.73179e-06
4.62477e-05 5.73179e-06 -0.000891706
-0.00507824 0.000941774 0.000292378
0.000941774 0.00494282 1.07124e-05
0.000292378 1.07124e-05 -0.000816104
0.00226908 -7.44623e-05 -6.69909e-06
-7.44623e-05 0.00184277 5.46892e-05
-6.69909e-06 5.46892e-05 -0.000662305
-0.00197837 -5.05324e-05 -8.63903e-06
-5.05324e-05 0.000486374 3.81429e-05
-8.63903e-06 3.81429e-05 -7.01634e-05
-0.000470401 -0.000205345 -5.05324e-05
-0.000205345 0.000569298 1.19518e-05
-5.05324e-05 1.19518e-05 -0.000403331
-0.00129379 -0.000324014 -4.91193e-05
-0.000324014 -0.000578126 3.71704e-05
-4.91193e-05 3.71704e-05 -0.000283482
5.74272e-05 -0.000322971 -0.000157573
-0.000322971 0.000502414 9.24209e-05
-0.000157573 9.24209e-05 -0.00283763
8.9456e-05 -0.0031136 0.000221371
-0.0031136 0.00189408 -8.40025e-05
0.000221371 -8.40025e-05 -0.00330534
0.00530784 0.00434163 0.000546618
0.00434163 -0.00109864 -0.000398069
0.000546618 -0.000398069 -0.00320783
0.00768812 0.00240956 -0.000360574
0.00240956 0.0064 0.000264091
-0.000360574 0.000264091 0.00317754
0.00129991 -0.000643987 -8.43749e-06
-0.000643987 0.0010642 -2.97332e-06
-8.43749e-06 -2.97332e-06 0.000504012
0.00149814 0.000397483 9.31745e-05
0.000397483 0.00626817 -1.11991e-05
9.31745e-05 -1.11991e-05 0.00301732
-0.000442045 0.00317635 1.2917e-05
0.00317635 0.000296234 5.68863e-05
1.2917e-05 5.68863e-05 -0.00263272
0.0024126 -0.00207497 8.28139e-05
-0.00207497 0.000664768 -3.26851e-05
8.28139e-05 -3.26851e-05 0.000760393
0.0167685 -0.00293015 2.39849e-05
-0.00293015 0.00393603 -9.27024e-06
2.39849e-05 -9.27024e-06 0.00204765
0.00328239 -0.00132698 1.02934e-05
-0.00132698 0.00130876 2.17679e-05
1.02934e-05 2.17679e-05 0.0010748
-0.00893333 0.000968378 -0.000447289
0.000968378 -0.00312133 5.67625e-05
-0.000447289 5.67625e-05 -0.00530698
0.0154389 -0.00187284 -0.000197121
-0.00187284 0.00243314 6.96418e-05
-0.000197121 6.96418e-05 0.00094417
0.00376935 -0.00233509 9.06633e-05
-0.00233509 -0.00015717 -6.35877e-05
9.06633e-05 -6.35877e-05 7.17067e-05
0.000196982 -0.000414063 -1.15856e-05
-0.000414063 0.000191976 1.75783e-05
-1.15856e-05 1.75783e-05 -0.000145225
0.000728022 -0.000641946 -3.40074e-06
-0.000641946 7.22021e-06 3.72675e-07
-3.40074e-06 3.72675e-07 -0.000172123
0.00573543 -0.000960844 2.63263e-05
-0.000960844 0.0024909 -5.99165e-06
2.63263e-05 -5.99165e-06 0.00213762
-0.000782346 -0.000329458 -9.35251e-06
-0.000329458 -0.000725071 7.22595e-06
-9.35251e-06 7.22595e-06 -0.000996605
0.00140445 -0.000687264 -5.54725e-06
-0.000687264 0.000151943 -2.65959e-06
-5.54725e-06 -2.65959e-06 -0.000202805
0.00259755 -0.000875156 5.29767e-06
-0.000875156 0.000565082 -7.2857e-06
5.29767e-06 -7.2857e-06 0.000210357
0.00128359 -0.000610052 -1.39998e-05
-0.000610052 0.000175522 4.58946e-06
-1.39998e-05 4.58946e-06 -0.000333462
0.00180472 -0.000776128 -1.68436e-06
-0.000776128 0.000266328 -3.68618e-07
-1.68436e-06 -3.68618e-07 -0.000168491
0.00161814 -0.000638457 1.75153e-06
-0.000638457 -6.70318e-05 -4.77735e-06
1.75153e-06 -4.77735e-06 -0.000339755
0.00147591 -0.000686038 -6.07144e-06
-0.000686038 0.000193692 1.79536e-06
-6.07144e-06 1.79536e-06 -0.000273625
0.00186267 -0.000635532 -7.37427e-07
-0.000635532 0.000231029 1.37326e-06
-7.37427e-07 1.37326e-06 -0.00010569
0.00186962 -0.000487591 -1.19411e-06
-0.000487591 5.25125e-05 -3.96524e-06
-1.19411e-06 -3.96524e-06 -0.000146468
0.0018087 -0.00040004 -5.54582e-06
-0.00040004 6.75494e-05 -1.27874e-06
-5.54582e-06 -1.27874e-06 -9.78636e-05
0.00164324 -0.00048555 -5.55843e-06
-0.00048555 6.09156e-06 -1.84841e-06
-5.55843e-06 -1.84841e-06 -0.000243328
0.00174557 -0.000474267 1.24854e-06
-0.000474267 5.3299e-05 2.66588e-06
1.24854e-06 2.66588e-06 -0.000182049
0.00160418 -0.000566677 -5.02101e-06
-0.000566677 0.000125763 -1.72343e-06
-5.02101e-06 -1.72343e-06 -0.000196496
0.00197358 -0.000663145 2.52876e-06
-0.000663145 0.000303011 -4.32291e-07
2.52876e-06 -4.32291e-07 -4.99788e-05
0.00203466 -0.000656737 3.5309e-06
-0.000656737 0.000355422 1.20372e-06
3.5309e-06 1.20372e-06 1.13109e-06
0.00152789 -0.000536463 -2.27836e-06
-0.000536463 0.000294816 -3.80949e-07
-2.27836e-06 -3.80949e-07 -4.98862e-05
0.00194176 -0.0006525 1.25817e-06
-0.0006525 0.000489991 -4.44888e-07
1.25817e-06 -4.44888e-07 0.000111924
0.00209628 -0.000740036 -8.23333e-07
-0.000740036 0.000539903 -1.41454e-06
-8.23333e-07 -1.41454e-06 0.00011269
0.00131118 -0.000328207 -5.33085e-06
-0.000328207 0.000315945 1.43922e-06
-5.33085e-06 1.43922e-06 6.78342e-05
0.00139428 -0.000432946 2.23887e-06
-0.000432946 0.000338687 9.82981e-07
2.23887e-06 9.82981e-07 3.18758e-05
0.000695368 -0.000430011 -2.63295e-06
-0.000430011 -9.33206e-05 -1.66308e-07
-2.63295e-06 -1.66308e-07 -0.000414371
0.000496282 -0.000174499 -4.12576e-06
-0.000174499 -2.94336e-05 2.9842e-06
-4.12576e-06 2.9842e-06 -0.000247823
0.00109207 -0.000321125 2.17918e-08
-0.000321125 0.00028329 1.86634e-07
2.17918e-08 1.86634e-07 3.25342e-05
0.000433184 -0.000249931 -6.78455e-06
-0.000249931 -0.000174592 -1.42618e-06
-6.78455e-06 -1.42618e-06 -0.000422592
0.000370932 -2.40393e-05 -7.63406e-06
-2.40393e-05 -9.11197e-05 1.20297e-05
-7.63406e-06 1.20297e-05 -0.00015462
0.000778326 -0.000135037 6.53415e-07
-0.000135037 0.00018059 5.58069e-07
6.53415e-07 5.58069e-07 -1.39479e-05
0.0010484 -0.000227536 1.21083e-06
-0.000227536 0.000390405 7.32335e-08
1.21083e-06 7.32335e-08 0.000121448
0.00343889 0.000203282 2.82083e-07
0.000203282 0.0018547 4.02714e-06
2.82083e-07 4.02714e-06 0.00182867
0.000417518 -3.26046e-06 -2.68559e-08
-3.26046e-06 -6.23818e-05 -1.01199e-07
-2.68559e-08 -1.01199e-07 -0.000114276
0.00108171 -0.000108769 2.26433e-06
-0.000108769 0.000348868 -5.85002e-06
2.26433e-06 -5.85002e-06 0.000212377
0.00312801 0.000139258 7.37321e-06
0.000139258 0.00163963 5.72545e-07
7.37321e-06 5.72545e-07 0.00163459
0.000560402 8.9736e-06 3.45383e-06
8.9736e-06 2.77865e-05 -8.93605e-06
3.45383e-06 -8.93605e-06 -1.57707e-05
0.00291805 0.00011953 4.5046e-05
0.00011953 0.00150137 -4.09528e-06
4.5046e-05 -4.09528e-06 0.00150114
0.00174056 0.000257184 6.77063e-06
0.000257184 0.00077467 3.59226e-06
6.77063e-06 3.59226e-06 0.000573185
0.000821955 0.000134973 5.9406e-07
0.000134973 0.000270016 -1.90742e-06
5.9406e-07 -1.90742e-06 8.02014e-05
0.00115762 0.000137212 1.5872e-06
0.000137212 0.000490678 -5.30146e-06
1.5872e-06 -5.30146e-06 0.000283049
0.000613934 4.12249e-05 2.65363e-06
4.12249e-05 7.53692e-05 -5.82109e-06
2.65363e-06 -5.82109e-06 -3.43133e-05
0.000698464 8.36633e-05 -3.10769e-08
8.36633e-05 0.000175498 1.13675e-06
-3.10769e-08 1.13675e-06 8.85572e-06
0.000420335 0.000101053 -9.70195e-07
0.000101053 1.19671e-05 3.90792e-06
-9.70195e-07 3.90792e-06 -0.000153259
0.000505303 -4.47167e-06 -1.44292e-06
-4.47167e-06 -1.33493e-05 -8.68338e-06
-1.44292e-06 -8.68338e-06 -4.69581e-05
0.000591682 3.51387e-05 -4.19249e-08
3.51387e-05 5.91575e-05 -2.90037e-07
-4.19249e-08 -2.90037e-07 -3.67332e-05
0.000455181 8.12553e-05 -4.04499e-06
8.12553e-05 -4.11778e-07 2.1724e-07
-4.04499e-06 2.1724e-07 -0.000132302
0.00268082 -8.58158e-05 -4.15112e-05
-8.58158e-05 0.001341 -4.47787e-06
-4.15112e-05 -4.47787e-06 0.0013489
0.000442996 -2.00627e-05 2.22869e-06
-2.00627e-05 -5.6405e-05 -1.20484e-07
2.22869e-06 -1.20484e-07 -8.45789e-05
0.000524523 4.26761e-05 -1.96784e-06
4.26761e-05 1.62808e-05 3.36564e-06
-1.96784e-06 3.36564e-06 -6.82258e-05
0.00250257 -6.89683e-05 -6.10009e-06
-6.89683e-05 0.00122444 4.38578e-07
-6.10009e-06 4.38578e-07 0.00123521
0.000460239 -9.46088e-06 -2.29223e-06
-9.46088e-06 -5.10626e-05 5.87619e-06
-2.29223e-06 5.87619e-06 -7.337e-05
0.00230495 -5.04777e-05 2.283e-05
-5.04777e-05 0.00109759 4.61027e-06
2.283e-05 4.61027e-06 0.00111178
-0.00942636 0.000920245 -7.14906e-05
0.000920245 0.00317689 7.99285e-05
-7.14906e-05 7.99285e-05 -0.00231008
0.00589862 0.000300934 -3.345e-06
0.000300934 0.00327396 -2.51358e-06
-3.345e-06 -2.51358e-06 0.00144616
-0.001291 -7.47587e-06 2.26372e-05
-7.47587e-06 -2.31119e-05 4.4963e-06
2.26372e-05 4.4963e-06 -0.000436806
5.5484e-05 9.66046e-05 -2.18429e-06
9.66046e-05 -0.000250606 2.12735e-06
-2.18429e-06 2.12735e-06 -0.000412252
0.00328098 0.000578632 8.67717e-06
0.000578632 0.00166061 9.48272e-06
8.67717e-06 9.48272e-06 0.00134616
0.00154955 0.000165058 -7.68153e-06
0.000165058 0.000721582 -9.6169e-07
-7.68153e-06 -9.6169e-07 0.00047088
0.000639167 6.86203e-05 -6.45481e-06
6.86203e-05 9.02281e-05 -1.06625e-05
-6.45481e-06 -1.06625e-05 -5.47032e-05
0.00219862 0.000233706 2.95862e-06
0.000233706 0.00101291 -2.52133e-07
2.95862e-06 -2.52133e-07 0.000866899
-0.000318948 5.43234e-05 -7.89328e-06
5.43234e-05 -0.000458858 6.81595e-06
-7.89328e-06 6.81595e-06 -0.000592318
0.000255383 7.54065e-05 -1.52613e-06
7.54065e-05 8.80529e-06 4.91587e-06
-1.52613e-06 4.91587e-06 -0.000234147
0.000475473 0.000142756 -2.92225e-06
0.000142756 4.0825e-05 -5.07402e-06
-2.92225e-06 -5.07402e-06 -0.000225227
0.00187562 0.000396285 6.68052e-06
0.000396285 0.000919574 -2.69884e-05
6.68052e-06 -2.69884e-05 0.000541364
0.000304149 0.000412402 -1.21612e-05
0.000412402 -0.000169662 3.59683e-05
-1.21612e-05 3.59683e-05 -0.000314293
0.00137876 4.60028e-05 -9.29926e-06
4.60028e-05 0.0006424 1.16282e-05
-9.29926e-06 1.16282e-05 0.000465101
0.0011912 0.000208495 3.39099e-06
0.000208495 0.000702117 -7.68017e-06
3.39099e-06 -7.68017e-06 0.000388764
-0.00206635 -0.00188717 -0.00119426
-0.00188717 0.00076073 -0.000206571
-0.00119426 -0.000206571 -0.00235433
-0.00321982 -0.00169223 0.000414005
-0.00169223 0.00446182 0.000180328
0.000414005 0.000180328 -0.000328915
0.00618552 0.00121267 -0.000421476
0.00121267 0.00274718 -0.000151962
-0.000421476 -0.000151962 -0.00231637
1.99071e-05 -0.00710541 0.00197266
-0.00710541 0.00195802 0.00130428
0.00197266 0.00130428 4.03028e-05
0.0219556 -0.00326544 4.45709e-05
-0.00326544 0.00727637 0.000294185
4.45709e-05 0.000294185 0.00483249
-0.0026051 0.00144205 -2.35123e-06
0.00144205 0.00183073 -0.000172401
-2.35123e-06 -0.000172401 -0.00346831
-0.00266586 0.000191694 -0.000394331
0.000191694 -9.51516e-06 -6.48498e-05
-0.000394331 -6.48498e-05 -0.00149363
0.00117979 0.000643216 6.84681e-05
0.000643216 0.00133831 4.82747e-05
6.84681e-05 4.82747e-05 0.0010907
0.0172609 -0.00406618 -0.000512568
-0.00406618 0.00709737 1.32509e-05
-0.000512568 1.32509e-05 0.00447149
-0.00221078 0.00235613 -8.44299e-05
0.00235613 0.000389397 -4.54745e-05
-8.44299e-05 -4.54745e-05 -0.00406434
0.00258722 0.00170829 -1.4462e-05
0.00170829 0.000718731 -6.99299e-05
-1.4462e-05 -6.99299e-05 0.00125168
0.00232504 0.0036301 -0.000313644
0.0036301 -0.00188627 -0.000105665
-0.000313644 -0.000105665 -0.00455148
0.00319345 0.00105299 1.98198e-05
0.00105299 0.00114368 -1.12811e-05
1.98198e-05 -1.12811e-05 0.0008224
0.000977661 0.00049343 -6.17365e-06
0.00049343 0.000264051 -9.11426e-07
-6.17365e-06 -9.11426e-07 0.000100951
0.000212354 0.000138783 -4.20955e-06
0.000138783 2.81617e-05 -3.22511e-08
-4.20955e-06 -3.22511e-08 -0.000167998
-0.00201682 0.000239829 -6.91373e-05
0.000239829 -0.000296745 -7.03299e-05
-6.91373e-05 -7.03299e-05 -0.00123025
0.00239796 0.00074272 -2.83602e-05
0.00074272 0.00122982 -2.16919e-05
-2.83602e-05 -2.16919e-05 0.000840617
0.0014929 0.00116615 1.43324e-05
0.00116615 0.000294946 -6.76284e-06
1.43324e-05 -6.76284e-06 -0.000377498
-0.000369984 0.00133722 9.52102e-05
0.00133722 -0.00144599 3.99031e-05
9.52102e-05 3.99031e-05 -0.00173527
-0.0058312 -0.000350304 -0.000484219
-0.000350304 -0.00460631 3.09712e-05
-0.000484219 3.09712e-05 -0.00375213
-0.00737608 0.000435232 0.000308259
0.000435232 0.00496072 1.31798e-05
0.000308259 1.31798e-05 -0.000516954
0.00291485 -0.000114081 -0.000105819
-0.000114081 0.00198687 3.38159e-05
-0.000105819 3.38159e-05 0.000329227
0.00214335 -0.000776172 -3.61336e-05
-0.000776172 0.00113615 -5.0699e-05
-3.61336e-05 -5.0699e-05 0.000591286
-0.000192147 -0.00166702 -9.9994e-06
-0.00166702 -0.000648504 4.44074e-05
-9.9994e-06 4.44074e-05 -0.00045517
0.000655087 0.0004478 1.64844e-05
0.0004478 0.00599169 3.53569e-05
1.64844e-05 3.53569e-05 0.0027184
0.00148813 -0.00252857 0.000376012
-0.00252857 -0.00152865 -0.000128934
0.000376012 -0.000128934 -0.00413453
0.0184997 0.00281888 0.000619656
0.00281888 0.00816326 -8.56939e-05
0.000619656 -8.56939e-05 0.00589336
0.00168812 -0.00135861 -1.61073e-05
-0.00135861 0.000365304 5.7675e-06
-1.61073e-05 5.7675e-06 -0.000102818
0.00126039 0.00114995 0.000208127
0.00114995 0.00021708 -6.15459e-05
0.000208127 -6.15459e-05 -0.00137922
0.00784144 -0.00164493 -0.000129918
-0.00164493 -0.00147068 0.000121035
-0.000129918 0.000121035 -0.0037432
0.00454356 -0.00238969 -1.50825e-05
-0.00238969 7.37903e-05 2.60771e-05
-1.50825e-05 2.60771e-05 0.000380717
0.00251602 -0.00115944 6.99123e-05
-0.00115944 0.000273188 -1.42238e-05
6.99123e-05 -1.42238e-05 0.000177127
0.0148305 -0.000738007 -3.27008e-05
-0.000738007 0.00302936 2.33838e-05
-3.27008e-05 2.33838e-05 0.00166485
0.00222347 -0.00143479 0.000108445
-0.00143479 -0.00271993 -8.76967e-05
0.000108445 -8.76967e-05 -0.00181709
-0.000669446 -0.000525414 -3.39522e-05
-0.000525414 -0.000846815 2.26096e-05
-3.39522e-05 2.26096e-05 -0.000905196
0.000240278 -0.000491734 -3.39969e-05
-0.000491734 -0.000531026 2.40329e-06
-3.39969e-05 2.40329e-06 -0.000651029
0.00570863 -0.000992597 6.23533e-05
-0.000992597 0.00211858 -1.92979e-05
6.23533e-05 -1.92979e-05 0.00193611
0.000524277 -0.00058123 -1.99529e-05
-0.00058123 -0.000284398 -4.46659e-06
-1.99529e-05 -4.46659e-06 -0.000644438
0.00208245 -0.000812839 -1.12023e-06
-0.000812839 0.000292566 -2.87533e-06
-1.12023e-06 -2.87533e-06 -4.30516e-05
0.00270675 -0.000752489 1.09905e-06
-0.000752489 0.00034677 -4.32472e-06
1.09905e-06 -4.32472e-06 0.000153672
0.00203042 -0.000786586 -5.5374e-06
-0.000786586 0.000390054 5.487e-06
-5.5374e-06 5.487e-06 -5.11014e-05
0.00205252 -0.000677532 -4.56648e-07
-0.000677532 0.000165897 1.50417e-06
-4.56648e-07 1.50417e-06 -0.00011166
0.00206853 -0.000510414 7.38771e-07
-0.000510414 5.58114e-05 -2.7747e-07
7.38771e-07 -2.7747e-07 -8.05967e-05
0.00128052 -0.000564591 4.85471e-06
-0.000564591 -8.38098e-05 7.09681e-06
4.85471e-06 7.09681e-06 -0.000405349
0.00191042 -0.000483019 -3.74258e-07
-0.000483019 8.13366e-05 1.93188e-06
-3.74258e-07 1.93188e-06 -0.000114051
0.0019395 -0.0004364 -3.09096e-06
-0.0004364 6.08972e-05 1.08884e-06
-3.09096e-06 1.08884e-06 -7.71106e-05
0.00207101 -0.000417249 -5.06927e-06
-0.000417249 0.000228357 9.60326e-07
-5.06927e-06 9.60326e-07 8.35863e-05
0.00191062 -0.000405883 -2.96289e-06
-0.000405883 0.000123197 3.40297e-06
-2.96289e-06 3.40297e-06 -3.88128e-05
0.00197477 -0.000422739 -3.18402e-06
-0.000422739 0.000201172 -4.24773e-06
-3.18402e-06 -4.24773e-06 2.15409e-05
0.00191514 -0.0005077 -6.26225e-06
-0.0005077 0.000197588 -2.29923e-06
-6.26225e-06 -2.29923e-06 -5.85729e-05
0.00185447 -0.000501873 1.71723e-06
-0.000501873 0.000138698 7.59635e-07
1.71723e-06 7.59635e-07 -0.000111806
0.00178306 -0.000470505 6.28333e-06
-0.000470505 7.86587e-05 7.40392e-06
6.28333e-06 7.40392e-06 -0.000152305
0.00180032 -0.000551182 -7.19787e-06
-0.000551182 0.000309469 -1.02891e-06
-7.19787e-06 -1.02891e-06 -1.03893e-05
0.00162039 -0.000573853 -5.10109e-07
-0.000573853 0.000123226 1.51233e-07
-5.10109e-07 1.51233e-07 -0.000201814
0.00209759 -0.000666838 6.7368e-06
-0.000666838 0.000391641 3.28115e-07
6.7368e-06 3.28115e-07 4.25316e-05
0.00147602 -0.000396135 -9.2543e-06
-0.000396135 0.000348125 5.11567e-06
-9.2543e-06 5.11567e-06 6.60224e-05
0.00159025 -0.000538574 -4.63824e-07
-0.000538574 0.000337598 7.53776e-07
-4.63824e-07 7.53776e-07 -6.12735e-06
0.00184058 -0.000647329 2.20416e-06
-0.000647329 0.000425869 -1.08736e-07
2.20416e-06 -1.08736e-07 4.68554e-05
0.000740284 -0.000214331 -6.94546e-06
-0.000214331 4.87792e-05 5.65181e-06
-6.94546e-06 5.65181e-06 -0.000155408
0.00111118 -0.000315825 6.18832e-07
-0.000315825 0.000187089 -7.89741e-07
6.18832e-07 -7.89741e-07 -6.16909e-05
0.000943062 -0.000385275 1.13361e-06
-0.000385275 5.17739e-05 -6.7699e-07
1.13361e-06 -6.7699e-07 -0.000243887
0.000409162 -0.000102265 -1.85928e-05
-0.000102265 -9.46998e-05 1.47083e-05
-1.85928e-05 1.47083e-05 -0.000176386
0.00067409 -0.000177935 -5.12944e-07
-0.000177935 9.23602e-05 9.94321e-07
-5.12944e-07 9.94321e-07 -0.000134006
0.000946617 -0.000336195 2.30136e-06
-0.000336195 0.000188862 -3.93454e-07
2.30136e-06 -3.93454e-07 -6.45201e-05
0.00385791 0.000189261 -7.89194e-05
0.000189261 0.0021182 4.74354e-06
-7.89194e-05 4.74354e-06 0.00209859
0.000505308 -4.11722e-05 8.20328e-07
-4.11722e-05 -1.45269e-05 -4.66695e-07
8.20328e-07 -4.66695e-07 -8.15155e-05
0.0016004 -0.000193954 3.62498e-06
-0.000193954 0.000685989 -6.00389e-06
3.62498e-06 -6.00389e-06 0.000480456
0.00223702 0.000121001 4.37696e-05
0.000121001 0.00109387 1.20305e-06
4.37696e-05 1.20305e-06 0.00107643
0.000654026 -9.62474e-06 7.67194e-06
-9.62474e-06 7.98624e-05 -1.10463e-05
7.67194e-06 -1.10463e-05 2.78108e-05
0.00327229 0.000132369 6.84475e-05
0.000132369 0.0017285 -3.90306e-06
6.84475e-05 -3.90306e-06 0.00172536
0.00126456 0.000269515 5.64227e-06
0.000269515 0.000389405 -1.67107e-07
5.64227e-06 -1.67107e-07 0.00019432
0.0004813 0.000120533 -1.71334e-06
0.000120533 -1.63866e-05 -2.37086e-07
-1.71334e-06 -2.37086e-07 -0.000187056
0.000527228 0.000136477 2.0557e-06
0.000136477 6.72701e-05 -5.40668e-06
2.0557e-06 -5.40668e-06 -0.00012941
0.000571651 0.000123967 -2.19442e-06
0.000123967 0.000109019 6.09934e-06
-2.19442e-06 6.09934e-06 -7.36983e-05
0.000611735 8.30911e-05 6.53483e-07
8.30911e-05 0.000124436 2.09165e-07
6.53483e-07 2.09165e-07 -5.87237e-05
0.000841734 7.98688e-05 1.21521e-06
7.98688e-05 0.000209639 -8.47467e-06
1.21521e-06 -8.47467e-06 8.1863e-05
0.000586592 1.59582e-05 -3.68131e-06
1.59582e-05 4.05598e-05 -1.08428e-05
-3.68131e-06 -1.08428e-05 -1.35149e-06
0.000621078 3.87146e-05 3.39362e-07
3.87146e-05 8.53135e-05 -3.53174e-08
3.39362e-07 -3.53174e-08 -2.57536e-05
0.000212319 4.04722e-05 -4.83674e-06
4.04722e-05 -0.000151225 2.01643e-06
-4.83674e-06 2.01643e-06 -0.000296361
0.00283138 -9.96177e-05 -5.55839e-05
-9.96177e-05 0.00144143 -4.44101e-06
-5.55839e-05 -4.44101e-06 0.00144687
0.000443805 4.23005e-06 8.21324e-07
4.23005e-06 -4.93992e-05 -2.46082e-07
8.21324e-07 -2.46082e-07 -8.3154e-05
0.000549872 3.65205e-05 -2.99586e-06
3.65205e-05 3.96688e-05 4.41256e-06
-2.99586e-06 4.41256e-06 -5.84275e-05
0.00265392 -8.61969e-05 -6.665e-06
-8.61969e-05 0.00132428 5.23332e-07
-6.665e-06 5.23332e-07 0.00133184
0.00042961 -1.63785e-05 4.29299e-08
-1.63785e-05 -6.35591e-05 6.98027e-06
4.29299e-08 6.98027e-06 -9.19087e-05
0.00249303 -6.84381e-05 2.87641e-05
-6.84381e-05 0.00121822 4.73862e-06
2.87641e-05 4.73862e-06 0.00122903
0.000584931 0.000178367 -0.00065475
0.000178367 0.00324415 -4.06701e-05
-0.00065475 -4.06701e-05 0.00132303
-0.00544461 0.000172308 3.69305e-05
0.000172308 0.0040656 2.77538e-06
3.69305e-05 2.77538e-06 -0.00158361
0.00553969 0.000131757 -0.000185485
0.000131757 0.00322295 -4.88303e-05
-0.000185485 -4.88303e-05 0.00152056
0.000264748 4.88543e-05 1.24702e-06
4.88543e-05 -0.000124223 -6.22824e-06
1.24702e-06 -6.22824e-06 -0.000288952
0.000859934 7.87001e-05 5.822e-06
7.87001e-05 0.000280889 5.85798e-06
5.822e-06 5.85798e-06 2.91369e-05
0.00249086 0.000486802 -2.70777e-06
0.000486802 0.00121034 3.65728e-06
-2.70777e-06 3.65728e-06 0.000916546
0.00211458 0.000570675 8.44937e-06
0.000570675 0.000841116 2.13368e-06
8.44937e-06 2.13368e-06 0.000452475
0.00035141 0.000273222 5.35835e-07
0.000273222 1.32591e-05 -2.80822e-06
5.35835e-07 -2.80822e-06 -0.000299863
0.000470004 0.000108119 -5.38595e-06
0.000108119 0.000139597 8.96687e-06
-5.38595e-06 8.96687e-06 -0.000110722
0.000550075 0.000141435 1.00877e-05
0.000141435 0.000113875 1.16367e-05
1.00877e-05 1.16367e-05 -0.000141799
0.000474458 0.000319806 -6.38855e-06
0.000319806 0.000134895 -2.85096e-06
-6.38855e-06 -2.85096e-06 -0.000252991
-0.00046035 0.000405288 6.2524e-06
0.000405288 -0.000724215 -1.11586e-05
6.2524e-06 -1.11586e-05 -0.00101563
0.00223851 0.000697279 -5.45508e-06
0.000697279 0.000793965 1.87084e-05
-5.45508e-06 1.87084e-05 0.000609181
0.00128879 0.000761796 2.14596e-05
0.000761796 -5.03149e-05 8.2807e-06
2.14596e-05 8.2807e-06 -0.000192814
0.00141099 0.000552626 -7.41608e-06
0.000552626 0.000507116 -3.38178e-06
-7.41608e-06 -3.38178e-06 0.000294939
0.00187944 0.000278338 -8.28554e-06
0.000278338 0.00100298 2.9759e-05
-8.28554e-06 2.9759e-05 0.00073532
0.0134805 0.00205236 -0.000102191
0.00205236 0.00199415 6.62519e-05
-0.000102191 6.62519e-05 0.000643873
0.00122177 -0.00156776 -0.000459199
-0.00156776 0.00333363 -0.000174213
-0.000459199 -0.000174213 0.000622973
-0.000719365 -0.00268326 0.000558119
-0.00268326 0.00484186 0.00015535
0.000558119 0.00015535 -8.91213e-06
0.00419713 -0.00247332 0.000228755
-0.00247332 0.00206355 0.000302804
0.000228755 0.000302804 -0.000446487
0.0132333 0.00366335 -8.55091e-05
0.00366335 0.00463606 -4.65191e-05
-8.55091e-05 -4.65191e-05 0.000758453
-0.00288858 0.000181533 -5.59107e-05
0.000181533 -0.000396946 -5.40801e-05
-5.59107e-05 -5.40801e-05 -0.000682122
0.00211227 0.00155011 -3.87912e-05
0.00155011 0.000557783 -1.44897e-05
-3.87912e-05 -1.44897e-05 0.00111647
0.0168788 0.00346741 1.93006e-05
0.00346741 0.00435121 3.60381e-05
1.93006e-05 3.60381e-05 0.00207551
0.00619938 0.00294944 -4.42928e-05
0.00294944 0.00017374 -9.37831e-05
-4.42928e-05 -9.37831e-05 0.000305373
0.00176804 0.00105473 1.12257e-05
0.00105473 0.000205233 -2.42367e-06
1.12257e-05 -2.42367e-06 -2.65944e-05
0.0015498 0.000819723 8.20457e-06
0.000819723 0.000389803 -2.44797e-06
8.20457e-06 -2.44797e-06 0.000103954
0.00187465 0.000538975 -2.16438e-05
0.000538975 0.000844886 2.63581e-06
-2.16438e-05 2.63581e-06 0.000673048
0.00281285 0.00138291 -5.77479e-05
0.00138291 0.000860395 -2.34748e-05
-5.77479e-05 -2.34748e-05 0.000201982
0.00165601 0.00156173 5.53823e-05
0.00156173 -0.000603355 3.14197e-05
5.53823e-05 3.14197e-05 -0.00093974
0.00171525 -0.000346899 -9.97187e-05
-0.000346899 -0.00448668 4.61757e-05
-9.97187e-05 4.61757e-05 -0.00473757
0.00110733 -0.00133459 7.73254e-06
-0.00133459 0.00178093 -9.92704e-06
7.73254e-06 -9.92704e-06 0.00125655
-0.010211 -0.000183659 0.00026394
-0.000183659 0.00515932 -2.27919e-05
0.00026394 -2.27919e-05 2.3667e-06
4.877e-05 -0.00140436 -4.48994e-05
-0.00140436 -0.000738242 6.33011e-06
-4.48994e-05 6.33011e-06 -0.00140417
0.00437387 -0.0024946 2.41047e-05
-0.0024946 0.00024721 3.64529e-05
2.41047e-05 3.64529e-05 0.000162007
0.0017566 -0.000147629 0.000700418
-0.000147629 0.00349108 -0.000154893
0.000700418 -0.000154893 0.00177951
0.0132677 -0.00191069 -0.000238695
-0.00191069 0.00164114 0.000114416
-0.000238695 0.000114416 0.000286845
0.00168771 -0.00116159 -3.18534e-05
-0.00116159 -8.60181e-05 -1.11278e-06
-3.18534e-05 -1.11278e-06 -0.000324935
0.0108382 -5.35914e-05 -0.000166978
-5.35914e-05 -0.000387285 5.05549e-05
-0.000166978 5.05549e-05 -0.00133774
0.00665669 -0.00168011 0.000100438
-0.00168011 -0.000145917 1.44113e-05
0.000100438 1.44113e-05 0.000287675
0.00411318 -0.00104834 6.45078e-05
-0.00104834 0.000836337 -3.55991e-05
6.45078e-05 -3.55991e-05 0.000576413
0.00301151 -0.000654893 -3.97687e-05
-0.000654893 -0.00131694 1.6452e-05
-3.97687e-05 1.6452e-05 -0.000462712
-0.00599394 2.6823e-05 5.30492e-06
2.6823e-05 -0.00391151 3.17444e-06
5.30492e-06 3.17444e-06 -0.00385937
0.0015893 -0.000655083 -1.33361e-05
-0.000655083 -0.000143632 1.40751e-06
-1.33361e-05 1.40751e-06 -0.000171808
0.0031965 -0.000658387 3.1275e-05
-0.000658387 0.000506855 -1.13562e-05
3.1275e-05 -1.13562e-05 0.000562607
0.00116635 -0.000715201 -7.91996e-06
-0.000715201 -0.000185226 7.09799e-06
-7.91996e-06 7.09799e-06 -0.000497134
0.00202229 -0.000688244 -3.174e-06
-0.000688244 -7.90049e-06 2.93689e-06
-3.174e-06 2.93689e-06 -0.00019444
0.002301 -0.000560265 4.55985e-06
-0.000560265 8.94104e-06 -1.17236e-06
4.55985e-06 -1.17236e-06 -3.22591e-05
0.00224391 -0.000689395 -4.70963e-06
-0.000689395 0.0002746 8.93869e-06
-4.70963e-06 8.93869e-06 -3.43325e-06
0.00205293 -0.000506995 2.50378e-07
-0.000506995 4.48535e-05 1.41526e-06
2.50378e-07 1.41526e-06 -8.64524e-05
0.00217403 -0.000492254 -9.38534e-07
-0.000492254 9.84387e-05 7.79911e-07
-9.38534e-07 7.79911e-07 1.77293e-05
0.00194345 -0.000478206 3.53106e-06
-0.000478206 0.000105732 6.11292e-06
3.53106e-06 6.11292e-06 -8.57515e-05
0.00196531 -0.000440098 -1.26631e-07
-0.000440098 7.31132e-05 1.2628e-06
-1.26631e-07 1.2628e-06 -6.33996e-05
0.00212659 -0.000469528 -2.73997e-06
-0.000469528 0.000171121 1.62711e-06
-2.73997e-06 1.62711e-06 4.04008e-05
0.00199983 -0.00041882 -4.08793e-06
-0.00041882 0.000177541 2.87235e-06
-4.08793e-06 2.87235e-06 3.39433e-05
0.00212677 -0.000424013 -1.42232e-06
-0.000424013 0.000289399 -1.44213e-06
-1.42232e-06 -1.44213e-06 0.000137451
0.00200049 -0.000411785 4.35191e-06
-0.000411785 0.000171893 6.5193e-06
4.35191e-06 6.5193e-06 1.31196e-05
0.00197319 -0.000422712 4.83895e-07
-0.000422712 0.00019883 -6.86682e-07
4.83895e-07 -6.86682e-07 1.91657e-05
0.00187039 -0.000436226 -3.06477e-06
-0.000436226 0.000142137 -3.17343e-06
-3.06477e-06 -3.17343e-06 -5.8285e-05
0.00193649 -0.000483526 -4.78838e-06
-0.000483526 0.000284399 -2.96203e-06
-4.78838e-06 -2.96203e-06 2.22808e-05
0.00197757 -0.000514875 -2.63253e-07
-0.000514875 0.00023782 -8.94261e-08
-2.63253e-07 -8.94261e-08 -2.07917e-05
0.00207121 -0.000518206 7.71233e-06
-0.000518206 0.000275595 3.67134e-06
7.71233e-06 3.67134e-06 2.40735e-05
0.00140408 -0.000421712 -9.34963e-06
-0.000421712 0.00017532 2.30263e-06
-9.34963e-06 2.30263e-06 -0.000111572
0.00171674 -0.000539665 -1.48033e-06
-0.000539665 0.000263234 -1.54217e-07
-1.48033e-06 -1.54217e-07 -5.58838e-05
0.00163969 -0.00058026 5.26027e-06
-0.00058026 0.000123124 1.17787e-06
5.26027e-06 1.17787e-06 -0.000204434
0.000741994 -0.000217506 -9.74248e-06
-0.000217506 -6.55105e-06 6.67658e-06
-9.74248e-06 6.67658e-06 -0.000208307
0.00121021 -0.000376245 1.84466e-06
-0.000376245 0.000177888 4.36615e-07
1.84466e-06 4.36615e-07 -0.000101509
0.00164422 -0.000539136 3.96462e-06
-0.000539136 0.000376353 5.8647e-07
3.96462e-06 5.8647e-07 3.4063e-05
0.0005217 -0.000167378 -2.19163e-05
-0.000167378 -4.67562e-05 1.78358e-05
-2.19163e-05 1.78358e-05 -0.000151919
0.000711206 -0.000219348 -4.6202e-07
-0.000219348 3.79447e-05 6.48419e-07
-4.6202e-07 6.48419e-07 -0.000170029
0.000731673 -0.000277976 4.00722e-06
-0.000277976 -5.43384e-05 -2.23968e-06
4.00722e-06 -2.23968e-06 -0.000296833
0.00472042 0.000199045 -0.000117374
0.000199045 0.00266316 8.41264e-06
-0.000117374 8.41264e-06 0.00263959
0.000552426 -0.000116927 -9.15706e-07
-0.000116927 -3.61834e-06 -9.11245e-07
-9.15706e-07 -9.11245e-07 -9.33193e-05
0.00115406 -0.000213483 4.56573e-06
-0.000213483 0.000392807 -4.38944e-06
4.56573e-06 -4.38944e-06 0.000159657
0.00413362 0.000168262 1.7646e-05
0.000168262 0.00228606 5.27836e-07
1.7646e-05 5.27836e-07 0.00227223
0.000635194 -5.92922e-05 1.47857e-05
-5.92922e-05 5.93658e-05 -1.33288e-05
1.47857e-05 -1.33288e-05 -1.22381e-05
0.00365503 0.000133893 0.000100577
0.000133893 0.00197213 -4.85369e-06
0.000100577 -4.85369e-06 0.00196904
0.001284 0.000398454 3.21808e-06
0.000398454 0.000335395 -4.90446e-06
3.21808e-06 -4.90446e-06 3.31545e-05
0.000937711 0.000244878 1.62681e-06
0.000244878 0.000190817 -1.84586e-06
1.62681e-06 -1.84586e-06 -3.93362e-06
6.93465e-05 0.000122726 4.45334e-06
0.000122726 -0.000275419 1.07196e-06
4.45334e-06 1.07196e-06 -0.000465734
-0.000779291 2.23848e-05 -2.98627e-06
2.23848e-05 -0.000772548 -6.72914e-07
-2.98627e-06 -6.72914e-07 -0.000937717
0.000344135 8.41379e-05 -9.7534e-08
8.41379e-05 -6.55143e-05 1.65381e-06
-9.7534e-08 1.65381e-06 -0.000250453
0.000847375 8.68344e-05 5.91511e-07
8.68344e-05 0.000212033 -8.45829e-06
5.91511e-07 -8.45829e-06 5.90788e-05
0.000340919 5.00953e-05 -2.46789e-06
5.00953e-05 -6.03442e-05 3.72161e-06
-2.46789e-06 3.72161e-06 -0.000229211
0.000556699 6.40722e-05 -1.84026e-07
6.40722e-05 4.07561e-05 -4.032e-08
-1.84026e-07 -4.032e-08 -8.46693e-05
0.000568091 1.87175e-05 -5.14303e-06
1.87175e-05 2.87015e-05 -1.3558e-05
-5.14303e-06 -1.3558e-05 -2.31582e-05
0.00308269 -0.000110312 -7.57153e-05
-0.000110312 0.00160631 -5.33479e-06
-7.57153e-05 -5.33479e-06 0.00160908
0.000447337 3.5792e-06 1.13538e-06
3.5792e-06 -4.15157e-05 -3.42134e-07
1.13538e-06 -3.42134e-07 -8.38667e-05
0.00056989 3.40524e-05 -3.22104e-06
3.40524e-05 5.88613e-05 6.39576e-06
-3.22104e-06 6.39576e-06 -5.2778e-05
0.002817 -0.000104386 -7.44231e-06
-0.000104386 0.00143332 6.40461e-07
-7.44231e-06 6.40461e-07 0.00143709
0.000363898 -4.51372e-05 -4.89323e-06
-4.51372e-05 -9.32406e-05 8.24835e-06
-4.89323e-06 8.24835e-06 -0.000129583
0.0026502 -8.6785e-05 3.57143e-05
-8.6785e-05 0.0013215 4.69125e-06
3.57143e-05 4.69125e-06 0.00132875
0.0141066 0.000534872 0.000413099
0.000534872 0.00222553 0.000101885
0.000413099 0.000101885 0.00165652
-0.00183422 -0.00229865 -0.00039066
-0.00229865 -0.00266534 -6.86736e-05
-0.00039066 -6.86736e-05 -0.00421999
-0.00889764 0.00121686 -0.000166876
0.00121686 0.00332799 -0.000113758
-0.000166876 -0.000113758 -0.00276851
0.000107959 1.61614e-05 1.81915e-05
1.61614e-05 -0.000168477 -6.5872e-08
1.81915e-05 -6.5872e-08 -0.000443103
0.00175451 0.000385842 -1.2113e-05
0.000385842 0.000776076 9.13018e-07
-1.2113e-05 9.13018e-07 0.000511056
0.00186267 0.000445355 -8.18327e-06
0.000445355 0.000890982 -2.41882e-06
-8.18327e-06 -2.41882e-06 0.000538649
0.00161683 0.000514229 1.40799e-06
0.000514229 0.000551786 -1.63739e-07
1.40799e-06 -1.63739e-07 0.000180439
0.00128048 0.00053207 9.04871e-06
0.00053207 0.00018671 1.55206e-05
9.04871e-06 1.55206e-05 -0.000173395
-0.000667935 0.000330314 1.579e-05
0.000330314 -0.000848243 1.91961e-06
1.579e-05 1.91961e-06 -0.00114578
-0.000291424 0.000243382 -8.38481e-06
0.000243382 -0.000241749 1.10558e-05
-8.38481e-06 1.10558e-05 -0.000666939
2.64671e-05 0.000459018 9.66031e-06
0.000459018 -0.000461267 -5.03145e-07
9.66031e-06 -5.03145e-07 -0.000776398
0.00222757 0.000685304 2.64447e-06
0.000685304 0.000845166 5.95454e-06
2.64447e-06 5.95454e-06 0.000609649
-0.000392606 0.00046033 5.20694e-06
0.00046033 -0.000821714 3.75432e-07
5.20694e-06 3.75432e-07 -0.00104312
0.00307244 0.000873375 1.14104e-06
0.000873375 0.000892888 1.24811e-05
1.14104e-06 1.24811e-05 0.000749725
0.00138562 0.000783966 1.63148e-05
0.000783966 2.12004e-05 8.1829e-06
1.63148e-05 8.1829e-06 -0.000231558
0.000745848 0.000692222 3.17398e-06
0.000692222 -0.000367512 -5.67315e-07
3.17398e-06 -5.67315e-07 -0.000459277
0.000622468 0.000452285 4.55644e-06
0.000452285 6.35703e-05 -3.48384e-05
4.55644e-06 -3.48384e-05 -0.000138053
0.00546509 0.00142829 1.63863e-05
0.00142829 -0.000834281 1.69979e-05
1.63863e-05 1.69979e-05 0.000269984
0.0131393 0.00223494 0.000235244
0.00223494 0.00141569 0.000120973
0.000235244 0.000120973 -0.00021762
0.0104017 -0.00336407 0.000387138
-0.00336407 0.00494384 -4.4692e-05
0.000387138 -4.4692e-05 0.00250186
0.005078 0.00372718 0.000459311
0.00372718 -0.000828326 0.000270232
0.000459311 0.000270232 -0.00492937
0.000192614 0.00103322 -5.01212e-05
0.00103322 9.0041e-05 -3.36215e-06
-5.01212e-05 -3.36215e-06 0.000618337
0.00375277 0.00216362 -0.000111583
0.00216362 -0.000433957 -4.82367e-05
-0.000111583 -4.82367e-05 -2.34238e-05
0.00566859 0.00185142 7.49866e-05
0.00185142 0.00114338 2.57734e-05
7.49866e-05 2.57734e-05 0.000912455
0.00390288 0.00133511 1.65556e-05
0.00133511 0.00114332 6.66812e-06
1.65556e-05 6.66812e-06 0.00086713
-0.000145978 0.00060152 -2.3228e-05
0.00060152 -0.000470551 9.53842e-06
-2.3228e-05 9.53842e-06 -0.000707227
0.00593538 0.00204675 -0.000168006
0.00204675 0.00136123 -2.13592e-05
-0.000168006 -2.13592e-05 0.000929925
0.00295423 -0.00041887 1.38459e-05
-0.00041887 -7.72646e-05 5.311e-06
1.38459e-05 5.311e-06 0.000238301
0.011057 -0.000492609 -3.38728e-05
-0.000492609 0.00168757 -4.64146e-07
-3.38728e-05 -4.64146e-07 0.00138838
-0.0119959 -0.00209635 0.000619871
-0.00209635 -0.00563193 5.58711e-06
0.000619871 5.58711e-06 -0.00597256
1.51054e-05 -0.00094403 -9.02324e-05
-0.00094403 -0.00085732 2.19339e-05
-9.02324e-05 2.19339e-05 -0.00107157
0.00877644 -0.00213937 3.88158e-05
-0.00213937 0.000418749 8.86093e-05
3.88158e-05 8.86093e-05 0.00116372
0.00100919 -0.000284194 -0.000233002
-0.000284194 -0.00401536 3.59988e-05
-0.000233002 3.59988e-05 -0.00594191
0.00225214 -0.000826031 2.34064e-05
-0.000826031 -0.000221614 1.48468e-06
2.34064e-05 1.48468e-06 -0.000194637
0.00464485 -0.000550101 -3.84938e-05
-0.000550101 -0.00033381 -5.44192e-06
-3.84938e-05 -5.44192e-06 0.000217495
0.00536653 -0.000742576 3.43906e-05
-0.000742576 0.00122116 -2.78869e-05
3.43906e-05 -2.78869e-05 0.0014857
0.00517104 -0.00034404 9.18225e-05
-0.00034404 0.00134102 4.64828e-06
9.18225e-05 4.64828e-06 0.00137875
-0.00303673 -0.000319771 2.13057e-06
-0.000319771 -0.00276687 7.25296e-06
2.13057e-06 7.25296e-06 -0.00255858
0.0019876 -0.00058046 -4.28187e-06
-0.00058046 -0.000191541 8.74015e-07
-4.28187e-06 8.74015e-07 -6.02795e-05
0.00217609 -0.000435876 2.10102e-05
-0.000435876 -0.000229064 -5.38758e-06
2.10102e-05 -5.38758e-06 6.34237e-06
0.00174698 -0.000666 -5.015e-07
-0.000666 -0.000155791 6.88857e-06
-5.015e-07 6.88857e-06 -0.000343312
0.00223884 -0.000557414 1.51418e-06
-0.000557414 -2.1279e-05 1.29579e-06
1.51418e-06 1.29579e-06 -6.4342e-05
0.00224873 -0.000482789 1.38143e-06
-0.000482789 2.01673e-05 -5.75688e-07
1.38143e-06 -5.75688e-07 1.92353e-05
0.00204911 -0.000505722 1.44922e-06
-0.000505722 3.93258e-05 3.82829e-06
1.44922e-06 3.82829e-06 -8.81782e-05
0.00210947 -0.000482141 4.07564e-07
-0.000482141 7.27767e-05 4.25991e-07
4.07564e-07 4.25991e-07 -8.07146e-06
0.00210528 -0.000431836 -2.90585e-06
-0.000431836 6.1524e-05 3.77955e-07
-2.90585e-06 3.77955e-07 -9.08687e-06
0.00198854 -0.000443573 4.00005e-06
-0.000443573 8.35476e-05 1.94891e-06
4.00005e-06 1.94891e-06 -5.20199e-05
0.00202737 -0.00046033 -1.51209e-07
-0.00046033 0.000129862 1.54029e-07
-1.51209e-07 1.54029e-07 2.82438e-07
0.00197273 -0.000420357 -2.04226e-07
-0.000420357 0.000131269 4.92084e-07
-2.04226e-07 4.92084e-07 -7.78116e-07
0.00193503 -0.000420584 6.12263e-07
-0.000420584 0.000131131 2.86902e-06
6.12263e-07 2.86902e-06 -1.14205e-05
0.00203672 -0.000413861 -2.03568e-06
-0.000413861 0.00022893 2.85275e-07
-2.03568e-06 2.85275e-07 8.08867e-05
0.0020589 -0.000417946 -1.00632e-06
-0.000417946 0.00025083 -1.35727e-06
-1.00632e-06 -1.35727e-06 8.18455e-05
0.00197119 -0.000421764 4.88202e-06
-0.000421764 0.000196626 3.12823e-06
4.88202e-06 3.12823e-06 1.72085e-05
0.00192756 -0.000441318 -3.11896e-08
-0.000441318 0.000177853 -3.19581e-07
-3.11896e-08 -3.19581e-07 -2.4067e-05
0.00195726 -0.000429593 -1.505e-06
-0.000429593 0.000254133 -2.36633e-06
-1.505e-06 -2.36633e-06 3.49456e-05
0.00156786 -0.000403956 -8.72324e-06
-0.000403956 0.000173069 5.5676e-07
-8.72324e-06 5.5676e-07 -8.45917e-05
0.00187704 -0.000483393 -8.49427e-07
-0.000483393 0.000248017 -8.5709e-07
-8.49427e-07 -8.5709e-07 -1.83822e-05
0.00203785 -0.000522209 5.10963e-06
-0.000522209 0.000277278 1.92493e-06
5.10963e-06 1.92493e-06 1.61202e-05
0.000841576 -0.000235167 -1.26184e-05
-0.000235167 -1.85492e-05 7.84684e-06
-1.26184e-05 7.84684e-06 -0.000222296
0.00143072 -0.00042043 -2.01719e-07
-0.00042043 0.000196076 5.2462e-07
-2.01719e-07 5.2462e-07 -8.91453e-05
0.00162703 -0.000527867 3.24588e-06
-0.000527867 0.000212802 9.24744e-07
3.24588e-06 9.24744e-07 -0.00010557
0.000423888 -0.000179019 -2.1139e-05
-0.000179019 -0.000124999 1.79871e-05
-2.1139e-05 1.79871e-05 -0.0002383
0.000783196 -0.00022361 3.6945e-07
-0.00022361 1.72359e-05 4.34412e-08
3.6945e-07 4.34412e-08 -0.000187363
0.000970582 -0.000357697 9.62195e-06
-0.000357697 2.55307e-05 -2.56418e-06
9.62195e-06 -2.56418e-06 -0.000251168
0.00575775 0.000133097 -0.000189805
0.000133097 0.00327356 1.10281e-05
-0.000189805 1.10281e-05 0.00326544
0.000463383 -0.00017474 -1.49677e-07
-0.00017474 -8.23725e-05 1.23926e-07
-1.49677e-07 1.23926e-07 -0.000188823
0.000665982 -0.000225326 8.98978e-06
-0.000225326 1.61422e-05 -6.00663e-06
8.98978e-06 -6.00663e-06 -0.000194796
0.00506887 0.00013387 4.23537e-06
0.00013387 0.00285873 -6.04513e-07
4.23537e-06 -6.04513e-07 0.00285017
0.000447312 -0.000123361 1.79055e-05
-0.000123361 -6.4973e-05 -1.60372e-05
1.79055e-05 -1.60372e-05 -0.000159263
0.00437733 0.000111801 0.000154538
0.000111801 0.00242657 -1.16574e-05
0.000154538 -1.16574e-05 0.00242497
0.00106119 0.000439112 -4.11482e-06
0.000439112 8.69599e-05 8.0682e-07
-4.11482e-06 8.0682e-07 -0.000234424
0.00169907 0.000438871 -7.37225e-07
0.000438871 0.000589276 -1.49371e-06
-7.37225e-07 -1.49371e-06 0.000282516
0.00069928 0.000253843 -1.42834e-06
0.000253843 -1.73632e-05 -1.98497e-06
-1.42834e-06 -1.98497e-06 -0.000253875
0.000686293 0.000236465 -6.1014e-06
0.000236465 5.90617e-05 -3.15551e-06
-6.1014e-06 -3.15551e-06 -0.000143808
-8.00704e-05 0.000123576 1.26697e-06
0.000123576 -0.000368579 -7.20852e-07
1.26697e-06 -7.20852e-07 -0.00056395
0.0012158 0.000232581 -2.67453e-06
0.000232581 0.000455757 -4.87557e-06
-2.67453e-06 -4.87557e-06 0.000251231
-7.02285e-05 4.50828e-05 -1.85441e-06
4.50828e-05 -0.00033235 2.03036e-06
-1.85441e-06 2.03036e-06 -0.000509071
0.000739393 9.70789e-05 3.39053e-07
9.70789e-05 0.000151993 -2.10111e-07
3.39053e-07 -2.10111e-07 -2.03968e-06
0.000646595 4.26075e-05 -9.81407e-06
4.26075e-05 7.42854e-05 -1.5358e-05
-9.81407e-06 -1.5358e-05 1.0691e-05
0.000599693 4.12411e-05 -2.35891e-06
4.12411e-05 7.60857e-05 9.45075e-06
-2.35891e-06 9.45075e-06 -5.07827e-05
0.000530811 2.3913e-05 2.26388e-07
2.3913e-05 9.27244e-06 -1.68583e-07
2.26388e-07 -1.68583e-07 -4.20883e-05
0.00356474 -0.000126946 -9.90204e-05
-0.000126946 0.00191788 -6.34126e-06
-9.90204e-05 -6.34126e-06 0.00191583
0.00308164 -0.000123213 -8.45605e-06
-0.000123213 0.00160769 7.81215e-07
-8.45605e-06 7.81215e-07 0.00160686
0.000355227 2.57534e-05 4.32524e-06
2.57534e-05 -9.72116e-05 1.06443e-05
4.32524e-06 1.06443e-05 -0.0001383
0.00275866 -0.000103857 4.36453e-05
-0.000103857 0.00139701 4.50362e-06
4.36453e-05 4.50362e-06 0.00140058
0.00403519 0.000135679 8.35278e-05
0.000135679 -0.000993523 2.42327e-05
8.35278e-05 2.42327e-05 0.000190929
0.00446107 -0.000882163 0.000140568
-0.000882163 -0.00381645 6.74514e-05
0.000140568 6.74514e-05 -0.00488226
0.0112488 -0.002459 -0.000184611
-0.002459 0.00425517 -8.38369e-05
-0.000184611 -8.38369e-05 0.0036528
0.00128089 0.000533225 9.31317e-06
0.000533225 5.251e-06 7.8334e-06
9.31317e-06 7.8334e-06 -0.000307736
0.00385971 0.000660617 -7.08644e-06
0.000660617 0.00205829 5.64378e-06
-7.08644e-06 5.64378e-06 0.00166645
0.00109108 0.000454947 -2.05228e-06
0.000454947 0.000245609 -3.944e-06
-2.05228e-06 -3.944e-06 -0.000108652
0.00128858 0.000553879 2.73895e-06
0.000553879 0.000321537 5.7553e-07
2.73895e-06 5.7553e-07 -2.37352e-05
0.00145634 0.000550714 -1.89969e-06
0.000550714 0.000307693 3.51214e-06
-1.89969e-06 3.51214e-06 -6.21723e-05
0.0015445 0.000644774 1.88199e-05
0.000644774 0.000299289 1.49107e-05
1.88199e-05 1.49107e-05 -2.50091e-05
0.00204358 0.000670232 -2.73042e-05
0.000670232 0.000732468 -1.41396e-06
-2.73042e-05 -1.41396e-06 0.00035353
0.000764894 0.000551047 1.89807e-05
0.000551047 4.24242e-05 -2.40769e-05
1.89807e-05 -2.40769e-05 -0.000197051
0.00137883 0.000667619 2.39909e-06
0.000667619 0.000177504 -2.66143e-06
2.39909e-06 -2.66143e-06 -8.16436e-05
0.00169412 0.000742822 6.05706e-06
0.000742822 6.2326e-05 1.65654e-06
6.05706e-06 1.65654e-06 2.71715e-05
0.0018115 0.000774124 1.33338e-05
0.000774124 0.000134231 4.27613e-07
1.33338e-05 4.27613e-07 -0.000127193
0.0016383 0.000694348 2.35177e-05
0.000694348 0.000112849 1.68147e-05
2.35177e-05 1.68147e-05 -6.6492e-05
0.000911991 0.000737705 -4.94771e-06
0.000737705 -0.000234571 -4.99587e-06
-4.94771e-06 -4.99587e-06 -0.000471988
0.000758903 0.000683785 -9.51634e-06
0.000683785 -0.000351859 -2.10324e-05
-9.51634e-06 -2.10324e-05 -0.000425566
0.00116118 0.000670155 4.61428e-05
0.000670155 -0.0009489 3.58853e-05
4.61428e-05 3.58853e-05 -0.000712665
0.00597604 0.00148152 -8.59023e-05
0.00148152 -0.000919166 -2.52086e-05
-8.59023e-05 -2.52086e-05 0.000212341
0.00386278 0.00144846 0.000480364
0.00144846 -0.00369338 7.9194e-05
0.000480364 7.9194e-05 -0.00554548
0.00109615 0.00163749 -0.000124654
0.00163749 -0.00119282 -4.59288e-05
-0.000124654 -4.59288e-05 -0.000715638
0.00417166 0.00150079 -3.11436e-05
0.00150079 0.000748943 -8.694e-06
-3.11436e-05 -8.694e-06 0.000579717
0.00431851 0.00138672 -0.000127928
0.00138672 0.00128982 -3.52526e-05
-0.000127928 -3.52526e-05 0.00100012
0.002688 -0.000268515 -5.55173e-05
-0.000268515 -0.000343278 -2.1963e-05
-5.55173e-05 -2.1963e-05 -7.34308e-05
-2.07144e-06 -0.000233193 6.30195e-05
-0.000233193 -0.000663533 1.38265e-05
6.30195e-05 1.38265e-05 -0.000122522
0.00229547 0.000847081 0.000173237
0.000847081 -0.00466278 -7.22826e-06
0.000173237 -7.22826e-06 -0.00485797
-0.000222087 -0.000608991 -3.74295e-05
-0.000608991 -0.00151479 6.12976e-05
-3.74295e-05 6.12976e-05 -0.00129356
0.00615577 -0.000598619 -0.00013308
-0.000598619 0.000554152 3.95022e-05
-0.00013308 3.95022e-05 0.000666
0.00245525 -0.00054235 -1.95145e-05
-0.00054235 -0.000326155 1.11996e-05
-1.95145e-05 1.11996e-05 -6.13569e-06
0.00412283 -0.000364902 -5.11421e-06
-0.000364902 0.000673401 -2.94932e-06
-5.11421e-06 -2.94932e-06 0.000730108
0.0025116 -0.000320717 5.21971e-05
-0.000320717 -0.000134042 -6.94027e-06
5.21971e-05 -6.94027e-06 0.000178107
0.00358032 -9.56965e-05 3.81037e-05
-9.56965e-05 0.00108021 -1.05762e-06
3.81037e-05 -1.05762e-06 0.00106206
0.000766529 -0.000487796 -2.50308e-05
-0.000487796 -0.000868043 1.04482e-05
-2.50308e-05 1.04482e-05 -0.000669392
0.00205175 -0.000450389 -1.47092e-06
-0.000450389 -0.000329219 1.84833e-06
-1.47092e-06 1.84833e-06 -9.85849e-05
0.00232382 -0.000396322 4.14943e-06
-0.000396322 -0.000147637 -1.9071e-06
4.14943e-06 -1.9071e-06 3.89155e-05
0.00216598 -0.000549088 -1.89612e-06
-0.000549088 -5.14238e-05 3.54488e-06
-1.89612e-06 3.54488e-06 -9.42937e-05
0.00224244 -0.00047676 1.49257e-07
-0.00047676 2.82036e-05 -2.04429e-07
1.49257e-07 -2.04429e-07 2.88662e-05
0.00218473 -0.000383699 -9.77446e-07
-0.000383699 6.99344e-06 -5.84773e-07
-9.77446e-07 -5.84773e-07 4.0928e-06
0.00204115 -0.000470822 5.08322e-07
-0.000470822 4.55285e-05 6.6561e-07
5.08322e-07 6.6561e-07 -3.40747e-05
0.00209898 -0.000438308 -8.6044e-07
-0.000438308 6.66433e-05 1.58327e-07
-8.6044e-07 1.58327e-07 -5.74729e-06
0.00201132 -0.000376846 -2.0287e-06
-0.000376846 8.30206e-05 9.38359e-07
-2.0287e-06 9.38359e-07 -1.14593e-05
0.00194306 -0.000451879 1.25384e-06
-0.000451879 9.7723e-05 -8.01444e-07
1.25384e-06 -8.01444e-07 -3.05508e-05
0.00192605 -0.000418204 1.12425e-06
-0.000418204 9.90406e-05 -5.37072e-07
1.12425e-06 -5.37072e-07 -3.36246e-05
0.00194095 -0.00039071 1.27718e-07
-0.00039071 0.000133914 -1.16784e-06
1.27718e-07 -1.16784e-06 -9.13219e-06
0.00194693 -0.000403735 -1.85787e-06
-0.000403735 0.000169027 2.53998e-06
-1.85787e-06 2.53998e-06 2.48847e-05
0.00208835 -0.000417309 -1.88219e-06
-0.000417309 0.000262919 6.46581e-07
-1.88219e-06 6.46581e-07 9.78231e-05
0.00204799 -0.000405618 -1.16401e-06
-0.000405618 0.000274661 -1.83224e-06
-1.16401e-06 -1.83224e-06 8.37608e-05
0.00198386 -0.000446804 3.11898e-06
-0.000446804 0.000212765 2.48232e-06
3.11898e-06 2.48232e-06 9.22674e-06
0.00196974 -0.000432529 5.80112e-07
-0.000432529 0.0002622 -5.30288e-07
5.80112e-07 -5.30288e-07 4.27417e-05
0.00168025 -0.000364041 -6.61643e-06
-0.000364041 0.00019572 8.21173e-07
-6.61643e-06 8.21173e-07 -3.25056e-05
0.000922072 -0.000238088 -1.37123e-05
-0.000238088 -3.25555e-05 7.2674e-06
-1.37123e-05 7.2674e-06 -0.000231728
0.0015411 -0.000399322 -1.07981e-06
-0.000399322 0.000164531 -2.20374e-07
-1.07981e-06 -2.20374e-07 -9.38723e-05
0.00181712 -0.000483366 3.02943e-06
-0.000483366 0.000210926 7.41618e-07
3.02943e-06 7.41618e-07 -5.97985e-05
0.000420759 -0.000217849 -2.21053e-05
-0.000217849 -0.000130223 1.85736e-05
-2.21053e-05 1.85736e-05 -0.000259648
0.000854297 -0.000240292 7.78479e-07
-0.000240292 -1.63448e-05 1.09639e-07
7.78479e-07 1.09639e-07 -0.000222217
0.00145789 -0.000419872 8.62571e-06
-0.000419872 0.00021579 -1.35768e-06
8.62571e-06 -1.35768e-06 -6.79818e-05
0.00639207 8.82816e-05 -0.000235137
8.82816e-05 0.00364439 1.48353e-05
-0.000235137 1.48353e-05 0.00364364
0.00046535 -0.000222058 -1.11377e-06
-0.000222058 -9.34503e-05 4.18572e-07
-1.11377e-06 4.18572e-07 -0.000215764
0.000775758 -0.000229276 1.13585e-05
-0.000229276 1.12175e-05 -7.24952e-06
1.13585e-05 -7.24952e-06 -0.000196668
0.00600426 0.000115389 -5.61295e-06
0.000115389 0.00342863 -5.56168e-07
-5.61295e-06 -5.56168e-07 0.00342003
0.00051027 -0.000199375 2.34467e-05
-0.000199375 -5.16497e-05 -1.78732e-05
2.34467e-05 -1.78732e-05 -0.00016265
0.00545306 0.000124878 0.000195397
0.000124878 0.00310491 -1.94957e-05
0.000195397 -1.94957e-05 0.00309294
0.00144963 0.000491863 -9.3663e-07
0.000491863 0.000174376 4.25811e-06
-9.3663e-07 4.25811e-06 -0.000140508
0.00156564 0.000496774 -3.38019e-06
0.000496774 0.000390982 -5.17909e-07
-3.38019e-06 -5.17909e-07 5.51398e-05
0.00108765 0.000347298 -6.20832e-06
0.000347298 0.000112889 -2.86749e-07
-6.20832e-06 -2.86749e-07 -0.000152556
0.00230778 0.000499929 4.33741e-07
0.000499929 0.000961218 2.60402e-06
4.33741e-07 2.60402e-06 0.000645765
0.000904226 0.000272544 -2.84836e-06
0.000272544 0.000116834 -1.68465e-06
-2.84836e-06 -1.68465e-06 -0.000123148
0.00118885 0.000228002 -7.56702e-06
0.000228002 0.000385929 -1.92343e-06
-7.56702e-06 -1.92343e-06 0.000172795
-0.00022595 0.000106595 -3.43521e-06
0.000106595 -0.00047224 -2.13043e-06
-3.43521e-06 -2.13043e-06 -0.000666742
0.000741678 0.00013124 -9.24605e-07
0.00013124 0.000150728 -5.45785e-07
-9.24605e-07 -5.45785e-07 -3.92485e-05
0.000653154 7.9505e-05 -1.67743e-05
7.9505e-05 6.45451e-05 -1.64463e-05
-1.67743e-05 -1.64463e-05 -1.34822e-05
0.000349148 6.94244e-05 1.71574e-07
6.94244e-05 -9.64594e-05 8.63928e-06
1.71574e-07 8.63928e-06 -0.000238036
0.000462001 3.72533e-05 -4.62787e-07
3.72533e-05 -3.59651e-05 -4.9479e-07
-4.62787e-07 -4.9479e-07 -9.67172e-05
0.0040447 -0.000141767 -0.000121104
-0.000141767 0.0022278 -8.56837e-06
-0.000121104 -8.56837e-06 0.00222
0.000300661 2.88195e-05 5.52968e-06
2.88195e-05 -0.000129108 1.32739e-05
5.52968e-06 1.32739e-05 -0.000179579
0.0034436 -0.000140671 -8.40798e-06
-0.000140671 0.00184444 8.3513e-07
-8.40798e-06 8.3513e-07 0.0018386
0.00300706 -0.000126321 5.25245e-05
-0.000126321 0.00156171 4.51766e-06
5.25245e-05 4.51766e-06 0.00155966
0.000451953 0.000114065 4.19958e-06
0.000114065 -0.00161745 1.33735e-05
4.19958e-06 1.33735e-05 -0.00109695
0.00521312 1.35454e-05 6.45616e-05
1.35454e-05 -0.000284034 1.3823e-05
6.45616e-05 1.3823e-05 0.000742528
0.0131428 0.00079067 -4.44098e-05
0.00079067 0.002516 4.2174e-06
-4.44098e-05 4.2174e-06 0.00201698
0.00190467 0.000664677 1.68871e-06
0.000664677 0.000348681 4.82503e-06
1.68871e-06 4.82503e-06 3.69313e-05
0.00206704 0.000646547 -4.37488e-07
0.000646547 0.000295825 3.06978e-06
-4.37488e-07 3.06978e-06 8.01788e-06
0.00141495 0.000551007 -1.4638e-07
0.000551007 9.89684e-05 -3.27588e-06
-1.4638e-07 -3.27588e-06 -0.000214153
0.00265473 0.000713146 -4.78201e-06
0.000713146 0.00112954 5.75215e-06
-4.78201e-06 5.75215e-06 0.000753613
0.0017468 0.000579325 -5.04161e-06
0.000579325 0.000503497 -8.16016e-06
-5.04161e-06 -8.16016e-06 0.000121091
0.00186966 0.000688603 6.52561e-06
0.000688603 0.000454911 3.12146e-06
6.52561e-06 3.12146e-06 0.000132662
0.00174078 0.000712188 -2.34278e-06
0.000712188 5.20853e-05 -2.8178e-06
-2.34278e-06 -2.8178e-06 -0.000217241
0.00254152 0.000807019 -1.55365e-05
0.000807019 0.000800585 3.39632e-06
-1.55365e-05 3.39632e-06 0.000512561
0.00122235 0.000690911 -9.08001e-07
0.000690911 -0.000246529 8.78183e-06
-9.08001e-07 8.78183e-06 -0.000214197
0.00264381 0.000859804 -1.35706e-06
0.000859804 0.000605937 2.05421e-06
-1.35706e-06 2.05421e-06 0.000325849
0.00263317 0.000750124 -4.92339e-06
0.000750124 0.000426761 3.46491e-06
-4.92339e-06 3.46491e-06 0.000206622
0.001083 0.000368507 3.02047e-05
0.000368507 -0.000363382 1.81101e-05
3.02047e-05 1.81101e-05 -0.000349207
0.000709613 0.000609177 1.00652e-05
0.000609177 -0.000362772 -2.44313e-06
1.00652e-05 -2.44313e-06 -0.000533922
0.00114116 0.000758888 -3.1129e-05
0.000758888 -0.000118051 -8.40635e-06
-3.1129e-05 -8.40635e-06 -0.000360195
0.00283204 0.000785694 2.61022e-06
0.000785694 -6.84161e-05 8.247e-06
2.61022e-06 8.247e-06 6.85201e-05
0.00621205 0.0010603 -1.3338e-05
0.0010603 -0.000737325 -3.44345e-05
-1.3338e-05 -3.44345e-05 1.51616e-05
0.00383182 0.00125262 -3.16032e-05
0.00125262 0.000930767 -4.5484e-05
-3.16032e-05 -4.5484e-05 0.000826571
0.00128907 -6.11191e-05 2.77719e-05
-6.11191e-05 -0.000391385 2.06646e-06
2.77719e-05 2.06646e-06 -0.000287447
0.00235717 -0.000211342 -4.75235e-05
-0.000211342 -0.000425127 2.90195e-06
-4.75235e-05 2.90195e-06 -0.000216169
0.00256995 0.000298026 1.81634e-05
0.000298026 -0.000592044 -5.84345e-06
1.81634e-05 -5.84345e-06 -0.000253281
0.000535292 -0.000427963 -5.31431e-05
-0.000427963 -0.00131705 4.40023e-05
-5.31431e-05 4.40023e-05 -0.000986471
0.00289002 -0.000425241 -9.52881e-05
-0.000425241 -6.50025e-05 -5.12992e-06
-9.52881e-05 -5.12992e-06 -9.71083e-06
0.00248013 -0.000329827 7.5759e-06
-0.000329827 -6.309e-05 -3.77264e-06
7.5759e-06 -3.77264e-06 0.00023152
0.00248508 -9.29131e-05 -1.26232e-05
-9.29131e-05 0.000369809 4.12455e-07
-1.26232e-05 4.12455e-07 0.00036662
0.00229773 -0.000227589 1.0869e-05
-0.000227589 -3.91041e-05 -2.68462e-07
1.0869e-05 -2.68462e-07 5.70952e-05
0.00228296 -4.59628e-06 8.39397e-06
-4.59628e-06 -2.37711e-06 1.43612e-06
8.39397e-06 1.43612e-06 2.63952e-05
0.00191937 -0.000470283 -1.45364e-05
-0.000470283 -0.000448181 4.94284e-06
-1.45364e-05 4.94284e-06 -0.0002184
0.00233019 -0.000406394 -2.53844e-06
-0.000406394 -0.000133408 5.81818e-07
-2.53844e-06 5.81818e-07 1.98123e-05
0.00225939 -0.000285727 6.62318e-07
-0.000285727 -5.84641e-05 -1.30051e-06
6.62318e-07 -1.30051e-06 5.19116e-06
0.002229 -0.000471759 -3.23014e-06
-0.000471759 2.97539e-05 1.01116e-06
-3.23014e-06 1.01116e-06 3.0902e-05
0.002184 -0.00038081 -1.35592e-07
-0.00038081 1.87261e-05 -6.95197e-09
-1.35592e-07 -6.95197e-09 1.12593e-05
0.0020875 -0.00032058 -1.21256e-06
-0.00032058 2.4912e-05 2.59118e-07
-1.21256e-06 2.59118e-07 -1.11835e-05
0.00209629 -0.000445204 2.5654e-07
-0.000445204 7.35459e-05 -8.65638e-07
2.5654e-07 -8.65638e-07 -8.64475e-07
0.00200848 -0.000375279 5.57833e-07
-0.000375279 7.75443e-05 -1.68348e-07
5.57833e-07 -1.68348e-07 -1.69283e-05
0.0020151 -0.000347095 -1.3663e-06
-0.000347095 0.000128187 3.35273e-07
-1.3663e-06 3.35273e-07 1.31689e-05
0.00188259 -0.00041619 2.15896e-06
-0.00041619 6.89158e-05 -1.40313e-06
2.15896e-06 -1.40313e-06 -6.43728e-05
0.00194394 -0.00039121 3.64324e-07
-0.00039121 0.000132708 -5.57477e-07
3.64324e-07 -5.57477e-07 -1.08695e-05
0.00193043 -0.00036699 -6.66286e-07
-0.00036699 0.000162301 -1.56716e-06
-6.66286e-07 -1.56716e-06 -3.32356e-06
0.00211556 -0.000416551 -1.11848e-06
-0.000416551 0.000273378 3.22392e-06
-1.11848e-06 3.22392e-06 0.000112193
0.00202474 -0.000404781 -5.80246e-07
-0.000404781 0.000261486 -1.10301e-07
-5.80246e-07 -1.10301e-07 7.16918e-05
0.00165209 -0.000333246 -5.20309e-06
-0.000333246 0.000140449 6.08566e-07
-5.20309e-06 6.08566e-07 -6.76051e-05
0.00198468 -0.000435587 3.30852e-06
-0.000435587 0.000271766 1.57016e-06
3.30852e-06 1.57016e-06 5.20216e-05
0.00171183 -0.000367919 -5.50964e-07
-0.000367919 0.000215188 2.72282e-08
-5.50964e-07 2.72282e-08 -1.2466e-05
0.000978812 -0.00022293 -1.44992e-05
-0.00022293 -3.28635e-05 6.85359e-06
-1.44992e-05 6.85359e-06 -0.000222473
0.000359795 -0.000192455 -1.98061e-05
-0.000192455 -0.00018519 1.71559e-05
-1.98061e-05 1.71559e-05 -0.000310496
0.000966579 -0.000242577 2.03129e-07
-0.000242577 -9.32913e-06 6.34421e-08
2.03129e-07 6.34421e-08 -0.000209479
0.00151663 -0.000394902 5.81219e-06
-0.000394902 0.000157289 -1.22319e-06
5.81219e-06 -1.22319e-06 -0.000101903
0.00664468 9.53609e-06 -0.000264799
9.53609e-06 0.0037776 1.7852e-05
-0.000264799 1.7852e-05 0.00378631
0.000422713 -0.000212494 -1.35061e-06
-0.000212494 -0.000136797 1.08385e-06
-1.35061e-06 1.08385e-06 -0.000261588
0.000890403 -0.000246046 1.25095e-05
-0.000246046 1.45179e-06 -6.84095e-06
1.25095e-05 -6.84095e-06 -0.000206591
0.00650938 6.23095e-05 -1.32733e-06
6.23095e-05 0.00371524 3.11201e-07
-1.32733e-06 3.11201e-07 0.00371533
0.000490198 -0.000226209 2.46959e-05
-0.000226209 -8.32629e-05 -1.86564e-05
2.46959e-05 -1.86564e-05 -0.000205463
0.00625934 8.72923e-05 0.000233498
8.72923e-05 0.00357845 -2.00156e-05
0.000233498 -2.00156e-05 0.00357336
0.00169554 0.000553263 -7.09176e-07
0.000553263 0.000181866 4.79726e-06
-7.09176e-07 4.79726e-06 -0.000112727
0.00150126 0.000504116 3.94498e-07
0.000504116 0.000206317 6.49282e-07
3.94498e-07 6.49282e-07 -0.000109771
0.00133756 0.000396679 -6.82351e-06
0.000396679 0.000189856 4.15962e-07
-6.82351e-06 4.15962e-07 -8.46155e-05
0.00167356 0.000512091 7.71201e-07
0.000512091 0.000451002 2.30728e-07
7.71201e-07 2.30728e-07 0.000110021
0.0011974 0.000350461 -1.38165e-06
0.000350461 0.000189558 9.43185e-08
-1.38165e-06 9.43185e-08 -7.42175e-05
0.000940548 0.000224297 -1.08098e-05
0.000224297 0.000153644 -4.09031e-06
-1.08098e-05 -4.09031e-06 -4.68694e-05
0.00130273 0.000308546 -1.65878e-06
0.000308546 0.000371413 -1.21496e-06
-1.65878e-06 -1.21496e-06 0.000124514
0.000647474 0.000196537 4.57763e-07
0.000196537 5.64157e-05 1.41594e-06
4.57763e-07 1.41594e-06 -0.000156253
0.000519681 0.000156085 -2.48353e-05
0.000156085 -3.51306e-05 -1.72624e-05
-2.48353e-05 -1.72624e-05 -0.000130245
0.000185032 8.17776e-05 3.86063e-07
8.17776e-05 -0.000184812 3.61879e-06
3.86063e-07 3.61879e-06 -0.000375842
0.000500369 6.83135e-05 -1.09479e-06
6.83135e-05 -2.47292e-05 -3.81652e-07
-1.09479e-06 -3.81652e-07 -0.000100383
0.00491788 -0.000158246 -0.000157635
-0.000158246 0.00278262 -1.22941e-05
-0.000157635 -1.22941e-05 0.00276759
0.000389996 3.30346e-05 8.23913e-06
3.30346e-05 -7.57847e-05 1.54688e-05
8.23913e-06 1.54688e-05 -0.000136791
0.00396833 -0.000164452 -7.67506e-06
-0.000164452 0.00218577 8.42172e-07
-7.67506e-06 8.42172e-07 0.00217242
0.00336066 -0.00014968 6.8454e-05
-0.00014968 0.00179442 4.96664e-06
6.8454e-05 4.96664e-06 0.00178575
0.00107036 0.00012375 2.48492e-05
0.00012375 -0.000490339 1.87725e-05
2.48492e-05 1.87725e-05 -0.000312204
0.00261644 0.000139846 -1.13966e-05
0.000139846 -0.000721943 -3.4464e-06
-1.13966e-05 -3.4464e-06 -0.000160436
0.00391379 0.000211345 0.000193151
0.000211345 -0.00149301 5.57244e-05
0.000193151 5.57244e-05 3.21066e-05
0.0025906 0.000709466 -8.67377e-06
0.000709466 0.000556121 -3.66656e-07
-8.67377e-06 -3.66656e-07 0.000278887
0.00171022 0.00066408 -6.75433e-06
0.00066408 0.000217519 -4.35724e-06
-6.75433e-06 -4.35724e-06 -8.92901e-05
0.00209596 0.00053108 2.23699e-07
0.00053108 0.000171035 4.3001e-06
2.23699e-07 4.3001e-06 -4.577e-05
0.00204728 0.000635501 1.14083e-06
0.000635501 0.000284342 3.43214e-07
1.14083e-06 3.43214e-07 -4.63003e-07
0.00153122 0.000566383 -4.66355e-07
0.000566383 0.00017998 -1.04681e-05
-4.66355e-07 -1.04681e-05 -0.000132875
0.00189381 0.000554777 -3.57831e-06
0.000554777 -1.30451e-05 9.05285e-07
-3.57831e-06 9.05285e-07 -0.00021072
0.00249757 0.000766079 -7.0895e-06
0.000766079 0.000788593 -3.53723e-06
-7.0895e-06 -3.53723e-06 0.00046179
0.00225057 0.000746379 -3.78783e-07
0.000746379 0.000360177 -5.45976e-07
-3.78783e-07 -5.45976e-07 8.0651e-05
0.00200359 0.000399005 -1.06897e-05
0.000399005 -0.000110126 4.91877e-07
-1.06897e-05 4.91877e-07 -0.00014857
0.00317891 0.000924175 -3.16009e-06
0.000924175 0.000897678 4.5546e-06
-3.16009e-06 4.5546e-06 0.000613036
0.00239545 0.000731201 -1.89331e-07
0.000731201 0.000293473 -4.90653e-07
-1.89331e-07 -4.90653e-07 7.26451e-05
0.000663623 0.000358657 2.46753e-06
0.000358657 -0.000565332 2.33908e-06
2.46753e-06 2.33908e-06 -0.0005537
-0.000815069 0.00047951 -2.27548e-05
0.00047951 -0.00115492 -8.78985e-06
-2.27548e-05 -8.78985e-06 -0.00130482
0.00363669 0.000874956 -0.000105579
0.000874956 0.000324108 -3.41242e-05
-0.000105579 -3.41242e-05 0.000378755
0.00205064 7.48335e-05 -1.33193e-06
7.48335e-05 -0.000173905 -7.36312e-07
-1.33193e-06 -7.36312e-07 -0.000103301
0.00254839 -7.10847e-05 8.14464e-06
-7.10847e-05 0.000433039 -1.03874e-07
8.14464e-06 -1.03874e-07 0.0005107
0.00244743 -0.00020231 -7.89275e-05
-0.00020231 -0.000309601 9.08731e-06
-7.89275e-05 9.08731e-06 -0.000120005
0.00215191 -0.00033236 -5.99925e-05
-0.00033236 -0.00017037 7.12329e-06
-5.99925e-05 7.12329e-06 0.00010207
0.00132971 -0.000102219 -1.096e-05
-0.000102219 -0.000373783 2.28993e-06
-1.096e-05 2.28993e-06 -0.000362343
0.00230687 -0.000228171 7.0509e-07
-0.000228171 -4.47628e-05 -1.5703e-06
7.0509e-07 -1.5703e-06 7.15001e-05
0.00231367 -4.44539e-06 -2.85304e-06
-4.44539e-06 -1.44073e-05 1.5229e-06
-2.85304e-06 1.5229e-06 2.181e-05
0.00230375 -7.41312e-05 4.68849e-07
-7.41312e-05 -3.43729e-05 -5.46099e-08
4.68849e-07 -5.46099e-08 2.59488e-05
0.00233658 -0.000413102 -5.88085e-06
-0.000413102 -0.000113736 1.42575e-06
-5.88085e-06 1.42575e-06 7.01318e-06
0.00222103 -0.00027545 3.8484e-07
-0.00027545 -6.33762e-05 -2.23911e-07
3.8484e-07 -2.23911e-07 -7.77191e-06
0.0021504 -0.000214596 1.13695e-07
-0.000214596 -8.64755e-06 -2.15797e-07
1.13695e-07 -2.15797e-07 1.39374e-05
0.00218582 -0.000378106 3.25532e-07
-0.000378106 3.22467e-05 2.67006e-07
3.25532e-07 2.67006e-07 2.03781e-05
0.00209014 -0.000318048 5.84749e-08
-0.000318048 3.15444e-05 1.09481e-07
5.84749e-08 1.09481e-07 -5.27666e-06
0.00205612 -0.000274917 -2.46584e-06
-0.000274917 9.11156e-05 6.74418e-07
-2.46584e-06 6.74418e-07 1.99388e-05
0.00200181 -0.000373486 2.53937e-06
-0.000373486 6.94628e-05 -1.06003e-06
2.53937e-06 -1.06003e-06 -2.49697e-05
0.0019615 -0.000343313 5.19613e-07
-0.000343313 9.30985e-05 -3.02776e-07
5.19613e-07 -3.02776e-07 -2.19642e-05
0.00192123 -0.000312764 -5.47712e-07
-0.000312764 0.00011418 -1.08551e-06
-5.47712e-07 -1.08551e-06 -2.11339e-05
0.00195153 -0.000392116 1.0332e-06
-0.000392116 0.000134199 5.55766e-09
1.0332e-06 5.55766e-09 -9.96372e-06
0.00196298 -0.000368442 -3.806e-07
-0.000368442 0.000184601 -1.17686e-07
-3.806e-07 -1.17686e-07 1.88125e-05
0.00170262 -0.000302529 -3.20311e-06
-0.000302529 0.000132602 2.75079e-07
-3.20311e-06 2.75079e-07 -5.54581e-05
0.00200064 -0.000403778 7.30761e-07
-0.000403778 0.000247591 1.68915e-06
7.30761e-07 1.68915e-06 5.89636e-05
0.00168636 -0.000335474 -4.60255e-07
-0.000335474 0.000161621 8.18483e-08
-4.60255e-07 8.18483e-08 -4.62575e-05
0.00100232 -0.000201287 -1.45642e-05
-0.000201287 -3.85164e-05 6.0554e-06
-1.45642e-05 6.0554e-06 -0.000218868
0.00174168 -0.00037162 5.54133e-06
-0.00037162 0.000233655 -5.1876e-07
5.54133e-06 -5.1876e-07 6.61618e-06
0.001028 -0.000225048 6.86701e-08
-0.000225048 -5.92724e-06 1.09153e-07
6.86701e-08 1.09153e-07 -0.000195212
0.00269472 -0.000168148 -4.5185e-05
-0.000168148 0.00124233 1.12725e-05
-4.5185e-05 1.12725e-05 0.00114451
0.00206013 -8.88139e-05 -0.000239188
-8.88139e-05 0.00092809 3.1478e-05
-0.000239188 3.1478e-05 0.000909035
0.00158967 -0.000194407 -1.16789e-05
-0.000194407 0.000570678 -2.35288e-07
-1.16789e-05 -2.35288e-07 0.000455278
0.00100893 -0.000246951 1.36081e-05
-0.000246951 1.30053e-05 -6.68596e-06
1.36081e-05 -6.68596e-06 -0.00018814
0.00669394 -7.66033e-06 -7.15023e-06
-7.66033e-06 0.00381484 7.9104e-07
-7.15023e-06 7.9104e-07 0.00381997
0.000458577 -0.000238008 2.45039e-05
-0.000238008 -0.000114837 -1.81599e-05
2.45039e-05 -1.81599e-05 -0.000242271
0.00658254 4.07426e-05 0.000256991
4.07426e-05 0.00376514 -2.37511e-05
0.000256991 -2.37511e-05 0.00376269
0.00211132 0.000406972 7.99307e-07
0.000406972 0.000167236 1.01092e-06
7.99307e-07 1.01092e-06 3.50559e-06
0.00202516 0.000528518 3.30118e-06
0.000528518 0.00026986 5.0442e-06
3.30118e-06 5.0442e-06 2.21002e-05
0.00199318 0.000578737 2.2762e-07
0.000578737 0.000356801 2.15424e-07
2.2762e-07 2.15424e-07 6.07774e-05
0.00155849 0.000432358 -5.97157e-06
0.000432358 0.00022488 1.32491e-06
-5.97157e-06 1.32491e-06 -4.54646e-05
0.00159581 0.000522351 3.26391e-06
0.000522351 0.000262598 -2.86495e-06
3.26391e-06 -2.86495e-06 -5.63352e-05
0.00134896 0.000399739 -1.23249e-07
0.000399739 0.000191555 4.48323e-07
-1.23249e-07 4.48323e-07 -8.46145e-05
0.000862826 0.000231737 -1.25908e-05
0.000231737 2.26334e-05 -5.22589e-06
-1.25908e-05 -5.22589e-06 -0.000174315
0.00122787 0.000346252 5.85778e-06
0.000346252 0.000216904 1.40947e-06
5.85778e-06 1.40947e-06 -4.39593e-05
0.000698744 0.000205472 1.1902e-06
0.000205472 -1.35595e-06 1.15642e-07
1.1902e-06 1.15642e-07 -0.000197337
0.000583639 0.000229585 -2.72528e-05
0.000229585 -9.5783e-06 -1.84036e-05
-2.72528e-05 -1.84036e-05 -0.000125061
0.000327054 0.000167017 3.45214e-06
0.000167017 -0.000148927 2.22428e-06
3.45214e-06 2.22428e-06 -0.000356478
0.000559345 0.000138204 -2.65844e-07
0.000138204 -1.23079e-05 -6.87191e-07
-2.65844e-07 -6.87191e-07 -0.000104209
0.00575891 -0.00015611 -0.000198175
-0.00015611 0.00331141 -1.96789e-05
-0.000198175 -1.96789e-05 0.00328776
0.000370926 6.17514e-05 1.36152e-05
6.17514e-05 -0.000102678 1.64578e-05
1.36152e-05 1.64578e-05 -0.000172542
0.00452699 -0.000186508 -1.13651e-05
-0.000186508 0.00254586 1.04104e-06
-1.13651e-05 1.04104e-06 0.00252414
0.00379551 -0.000174014 8.74468e-05
-0.000174014 0.00208008 6.054e-06
8.74468e-05 6.054e-06 0.00206399
0.0021756 0.000205532 -4.55675e-06
0.000205532 -0.000127199 -3.86815e-07
-4.55675e-06 -3.86815e-07 -4.52477e-05
0.00211923 8.34012e-05 2.42977e-05
8.34012e-05 2.42429e-05 -2.92797e-06
2.42977e-05 -2.92797e-06 0.000207778
0.00551392 0.000215822 -0.000110008
0.000215822 0.000606831 -7.15577e-06
-0.000110008 -7.15577e-06 0.00118056
0.00206997 0.000482103 -4.37168e-06
0.000482103 0.000115173 1.51107e-06
-4.37168e-06 1.51107e-06 -6.62735e-05
0.00211677 0.000657663 -3.08116e-06
0.000657663 0.000307892 -1.78294e-07
-3.08116e-06 -1.78294e-07 3.86616e-05
0.00159463 0.000671042 -5.74903e-06
0.000671042 0.000130237 -9.13763e-06
-5.74903e-06 -9.13763e-06 -0.000172115
0.00223061 0.000525937 3.05546e-06
0.000525937 0.000271061 1.38966e-06
3.05546e-06 1.38966e-06 5.71576e-05
0.00201109 0.000624172 1.10912e-06
0.000624172 0.000263731 -4.05896e-06
1.10912e-06 -4.05896e-06 -1.82132e-05
0.00233667 0.00039024 -3.52577e-07
0.00039024 7.19958e-05 3.54023e-07
-3.52577e-07 3.54023e-07 2.37911e-05
0.00196206 0.000563621 -5.29586e-07
0.000563621 4.84237e-05 4.76167e-07
-5.29586e-07 4.76167e-07 -0.000150422
0.00275526 0.000780444 -2.67993e-06
0.000780444 0.000668292 -1.43965e-06
-2.67993e-06 -1.43965e-06 0.000375988
0.00202684 0.000394217 -1.91947e-07
0.000394217 -8.41533e-05 -5.07225e-07
-1.91947e-07 -5.07225e-07 -0.000121754
0.00218123 0.00071091 1.21314e-05
0.00071091 0.000164477 1.52477e-06
1.21314e-05 1.52477e-06 -5.73715e-05
0.00050884 0.000346895 -3.88647e-05
0.000346895 -0.000634274 -1.80047e-05
-3.88647e-05 -1.80047e-05 -0.000624804
0.00228873 7.92244e-05 6.08697e-07
7.92244e-05 -1.41584e-05 4.18792e-07
6.08697e-07 4.18792e-07 3.76391e-05
0.00223139 8.60806e-05 -2.04424e-06
8.60806e-05 -4.40226e-05 3.05615e-07
-2.04424e-06 3.05615e-07 1.98026e-05
0.00340129 -6.93541e-05 -4.27209e-05
-6.93541e-05 0.00101876 1.84035e-06
-4.27209e-05 1.84035e-06 0.00107027
0.00229538 -0.000225502 -1.777e-05
-0.000225502 -6.6513e-05 2.22542e-06
-1.777e-05 2.22542e-06 6.88967e-05
0.00234876 -7.97153e-07 -4.63838e-06
-7.97153e-07 -2.84222e-05 -3.37428e-06
-4.63838e-06 -3.37428e-06 1.48707e-05
0.00226597 -8.07776e-05 -4.83984e-07
-8.07776e-05 -7.49418e-05 -7.15981e-08
-4.83984e-07 -7.15981e-08 -6.86114e-06
0.00203753 -6.6658e-05 -1.30726e-07
-6.6658e-05 -1.81568e-05 2.96372e-07
-1.30726e-07 2.96372e-07 -3.29918e-06
0.00218063 -0.000264261 -4.86719e-07
-0.000264261 -6.83107e-05 6.8421e-07
-4.86719e-07 6.8421e-07 -2.0695e-05
0.00210624 -0.000218543 -1.66613e-07
-0.000218543 -2.78135e-05 -1.85556e-08
-1.66613e-07 -1.85556e-08 -1.07643e-05
0.00204118 -0.000186311 -1.87322e-06
-0.000186311 4.5462e-05 2.96271e-08
-1.87322e-06 2.96271e-08 1.12689e-05
0.00209441 -0.000315653 1.47179e-06
-0.000315653 3.91153e-05 7.50228e-08
1.47179e-06 7.50228e-08 1.59787e-06
0.00202361 -0.00027266 3.42675e-07
-0.00027266 6.76347e-05 -4.02464e-08
3.42675e-07 -4.02464e-08 -3.50678e-06
0.00195928 -0.000249469 -1.23453e-06
-0.000249469 9.51078e-05 -6.80286e-07
-1.23453e-06 -6.80286e-07 -1.06105e-05
0.00190318 -0.000339115 2.17736e-06
-0.000339115 5.49962e-05 -7.90642e-07
2.17736e-06 -7.90642e-07 -6.00533e-05
0.00197336 -0.000315911 -3.0266e-07
-0.000315911 0.000144652 -5.89187e-08
-3.0266e-07 -5.89187e-08 8.85124e-06
0.00174614 -0.000260134 -2.08744e-06
-0.000260134 0.000124474 -5.48365e-08
-2.08744e-06 -5.48365e-08 -4.24488e-05
0.00199304 -0.000369794 6.31769e-07
-0.000369794 0.000205353 1.08837e-06
6.31769e-07 1.08837e-06 3.93973e-05
0.00173505 -0.000304692 -3.52883e-07
-0.000304692 0.000151472 6.6185e-08
-3.52883e-07 6.6185e-08 -3.64045e-05
0.00102476 -0.000179962 -1.39442e-05
-0.000179962 -4.28683e-05 4.98515e-06
-1.39442e-05 4.98515e-06 -0.000215241
0.00172045 -0.000337758 4.07925e-06
-0.000337758 0.000182568 -4.83048e-07
4.07925e-06 -4.83048e-07 -2.51518e-05
0.0010579 -0.000203047 -8.39417e-08
-0.000203047 -9.08315e-06 1.74997e-07
-8.39417e-08 1.74997e-07 -0.000188711
0.00270203 -0.000165277 -5.33828e-05
-0.000165277 0.001237 1.07719e-05
-5.33828e-05 1.07719e-05 0.00114756
0.00107383 -0.000227316 1.45793e-05
-0.000227316 1.89115e-05 -6.46855e-06
1.45793e-05 -6.46855e-06 -0.000170111
0.00282316 -0.000207401 4.64781e-05
-0.000207401 0.00132173 -7.03393e-06
4.64781e-05 -7.03393e-06 0.00123129
0.00211645 -0.00012648 -0.000240905
-0.00012648 0.000969249 3.62107e-05
-0.000240905 3.62107e-05 0.000948148
0.00427987 -9.45241e-05 -0.00023637
-9.45241e-05 0.00232096 2.25739e-05
-0.00023637 2.25739e-05 0.00231358
0.00290145 -0.000264423 0.00015114
-0.000264423 0.0013854 -2.38866e-05
0.00015114 -2.38866e-05 0.0012946
0.0067415 -2.32e-05 0.000272635
-2.32e-05 0.00385305 -2.80639e-05
0.000272635 -2.80639e-05 0.00385409
0.00229464 0.000405404 -1.54121e-06
0.000405404 0.000275543 4.41384e-08
-1.54121e-06 4.41384e-08 0.000134267
0.00183388 0.000406633 3.08022e-06
0.000406633 0.000107683 1.90968e-06
3.08022e-06 1.90968e-06 -8.69472e-05
0.00209541 0.000397557 4.79236e-07
0.000397557 0.00016324 -1.73697e-06
4.79236e-07 -1.73697e-06 6.44449e-06
0.00170145 0.000419062 -4.36743e-06
0.000419062 0.000201424 1.81445e-06
-4.36743e-06 1.81445e-06 -4.49048e-05
0.00209748 0.00053453 6.92147e-07
0.00053453 0.00030038 3.22754e-07
6.92147e-07 3.22754e-07 5.1897e-05
0.00228281 0.000604165 9.67569e-07
0.000604165 0.000526979 -4.09675e-06
9.67569e-07 -4.09675e-06 0.00022947
0.00152446 0.000432838 2.25585e-07
0.000432838 0.000196827 4.71867e-07
2.25585e-07 4.71867e-07 -7.52737e-05
0.000963098 0.000256324 -1.42361e-05
0.000256324 3.90408e-07 -5.3225e-06
-1.42361e-05 -5.3225e-06 -0.0002008
0.0013471 0.000401413 8.02384e-06
0.000401413 0.000185326 1.02103e-06
8.02384e-06 1.02103e-06 -9.22725e-05
0.000781212 0.000224579 -6.20187e-07
0.000224579 -2.48393e-05 -7.48314e-08
-6.20187e-07 -7.48314e-08 -0.000218836
0.000446746 0.000241494 -2.57033e-05
0.000241494 -0.000106529 -1.884e-05
-2.57033e-05 -1.884e-05 -0.000232967
0.000338323 0.000182716 8.52745e-06
0.000182716 -0.000224576 2.41818e-06
8.52745e-06 2.41818e-06 -0.000415828
0.000363557 0.000192335 2.72391e-06
0.000192335 -0.000147816 4.09314e-07
2.72391e-06 4.09314e-07 -0.000256396
0.00646701 -8.73891e-05 -0.000236764
-8.73891e-05 0.00372436 -2.40356e-05
-0.000236764 -2.40356e-05 0.00370869
0.000350691 0.00010348 1.94689e-05
0.00010348 -0.000138699 1.62117e-05
1.94689e-05 1.62117e-05 -0.000225134
0.00544985 -0.000172608 -1.22271e-06
-0.000172608 0.00311055 -1.15001e-06
-1.22271e-06 -1.15001e-06 0.00309051
0.00438293 -0.000207775 0.00010444
-0.000207775 0.00246188 8.01814e-06
0.00010444 8.01814e-06 0.00243509
0.00232451 0.000237551 -1.41483e-07
0.000237551 -1.22178e-06 4.75545e-07
-1.41483e-07 4.75545e-07 4.30977e-05
0.00211677 0.000211603 1.46217e-06
0.000211603 -0.000149441 5.6512e-08
1.46217e-06 5.6512e-08 -6.89418e-05
0.00285074 5.03558e-05 -8.10791e-05
5.03558e-05 0.00036648 -1.1233e-05
-8.10791e-05 -1.1233e-05 0.000561448
0.00205536 0.000343113 -9.82032e-08
0.000343113 1.66885e-05 1.71886e-07
-9.82032e-08 1.71886e-07 -7.23567e-05
0.00207126 0.000479179 -6.80274e-07
0.000479179 0.000139118 4.53599e-07
-6.80274e-07 4.53599e-07 -4.15371e-05
0.00160376 0.000600273 6.69317e-06
0.000600273 3.79836e-05 -2.07876e-06
6.69317e-06 -2.07876e-06 -0.000222114
0.00236488 0.000520491 -5.01175e-07
0.000520491 0.000371259 -3.20399e-06
-5.01175e-07 -3.20399e-06 0.000160396
0.00227639 0.000376374 -9.57179e-07
0.000376374 4.89382e-05 3.59145e-08
-9.57179e-07 3.59145e-08 3.0966e-06
0.00202292 0.000571927 -7.76947e-07
0.000571927 0.000105991 -1.31295e-07
-7.76947e-07 -1.31295e-07 -9.40666e-05
0.00194331 0.000383059 1.10406e-05
0.000383059 -9.21796e-05 -7.03168e-07
1.10406e-05 -7.03168e-07 -0.000128533
0.00211229 6.32377e-05 1.55728e-06
6.32377e-05 -1.69121e-06 4.73747e-07
1.55728e-06 4.73747e-07 1.92866e-05
0.00221966 7.49757e-05 9.36826e-08
7.49757e-05 -4.51358e-05 6.76823e-09
9.36826e-08 6.76823e-09 5.05353e-06
0.00239647 0.000102237 -8.34216e-06
0.000102237 7.91202e-05 -6.57015e-07
-8.34216e-06 -6.57015e-07 0.000135744
0.00197557 -1.22863e-05 -3.68558e-06
-1.22863e-05 1.67751e-05 4.76763e-07
-3.68558e-06 4.76763e-07 1.03295e-05
0.00223152 -9.31517e-05 2.53237e-07
-9.31517e-05 -0.000112228 -7.56465e-07
2.53237e-07 -7.56465e-07 -3.6406e-05
0.00206324 -6.95387e-05 -7.62885e-07
-6.95387e-05 -7.06197e-06 3.06769e-07
-7.62885e-07 3.06769e-07 8.46677e-06
0.00194997 -0.00010528 -3.88457e-06
-0.00010528 -5.99595e-06 4.22397e-07
-3.88457e-06 4.22397e-07 -2.83755e-05
0.00206086 -0.000222306 5.15844e-07
-0.000222306 -4.76285e-05 2.11912e-07
5.15844e-07 2.11912e-07 -3.65557e-05
0.00203913 -0.000185085 1.38726e-06
-0.000185085 4.40111e-05 -3.61837e-07
1.38726e-06 -3.61837e-07 1.00993e-05
0.00200033 -0.000179258 7.15471e-07
-0.000179258 9.93009e-05 -9.43183e-07
7.15471e-07 -9.43183e-07 1.77538e-05
0.00199094 -0.000269825 2.64465e-06
-0.000269825 4.42874e-05 -7.15382e-07
2.64465e-06 -7.15382e-07 -2.67038e-05
0.00198266 -0.000249236 -2.43774e-07
-0.000249236 0.000107668 -1.92937e-07
-2.43774e-07 -1.92937e-07 2.01216e-06
0.00175265 -0.00020586 -1.28665e-06
-0.00020586 0.000106692 -1.62762e-07
-1.28665e-06 -1.62762e-07 -3.96292e-05
0.00202963 -0.000319059 1.08037e-06
-0.000319059 0.000178525 7.09803e-07
1.08037e-06 7.09803e-07 4.22727e-05
0.00176142 -0.000260376 -3.1336e-07
-0.000260376 0.000133119 2.09052e-08
-3.1336e-07 2.09052e-08 -3.33671e-05
0.00104708 -0.000155341 -1.31876e-05
-0.000155341 -4.41703e-05 3.82974e-06
-1.31876e-05 3.82974e-06 -0.000207873
0.00176851 -0.000306791 2.32067e-06
-0.000306791 0.00017115 -1.65168e-07
2.32067e-06 -1.65168e-07 -1.65097e-05
0.00107751 -0.000180386 -2.10615e-07
-0.000180386 -1.47368e-05 2.61927e-07
-2.10615e-07 2.61927e-07 -0.000186022
0.00267784 -0.00016158 -6.08153e-05
-0.00016158 0.00122018 1.04978e-05
-6.08153e-05 1.04978e-05 0.00113429
0.00111457 -0.00020486 1.46144e-05
-0.00020486 2.08294e-05 -5.75225e-06
1.46144e-05 -5.75225e-06 -0.000158014
0.00277822 -0.000188486 4.25328e-05
-0.000188486 0.00128429 -5.5763e-06
4.25328e-05 -5.5763e-06 0.00120149
0.00214923 -0.000108194 -0.000235221
-0.000108194 0.000981852 3.17517e-05
-0.000235221 3.17517e-05 0.000963302
0.00293353 -0.000215663 0.000146531
-0.000215663 0.00138553 -2.49705e-05
0.000146531 -2.49705e-05 0.0013041
0.00179728 -6.45351e-05 -9.94369e-05
-6.45351e-05 0.000773693 1.39976e-05
-9.94369e-05 1.39976e-05 0.000740603
0.00636228 4.40567e-05 7.86167e-05
4.40567e-05 0.00359971 -3.54166e-06
7.86167e-05 -3.54166e-06 0.00357996
0.00207799 0.000343789 9.1639e-07
0.000343789 0.000116011 5.53361e-07
9.1639e-07 5.53361e-07 -2.06623e-06
0.00214893 0.000381615 2.8802e-07
0.000381615 0.000249697 5.2443e-10
2.8802e-07 5.2443e-10 8.60474e-05
0.00220243 0.000403126 -3.86368e-06
0.000403126 0.000208089 -1.54848e-07
-3.86368e-06 -1.54848e-07 6.41289e-05
0.00183958 0.000372702 -1.72983e-06
0.000372702 0.000223492 8.88206e-07
-1.72983e-06 8.88206e-07 7.8588e-06
0.00182703 0.000412347 -7.06499e-07
0.000412347 8.56434e-05 -1.96228e-06
-7.06499e-07 -1.96228e-06 -0.000105541
0.00207656 0.000388101 -4.8778e-06
0.000388101 0.000157243 -5.53396e-06
-4.8778e-06 -5.53396e-06 7.39525e-06
0.00109044 0.000255162 -1.53301e-05
0.000255162 1.55163e-05 -4.99263e-06
-1.53301e-05 -4.99263e-06 -0.000179448
0.00165153 0.00041616 7.31431e-07
0.00041616 0.000169817 4.017e-07
7.31431e-07 4.017e-07 -7.69972e-05
0.00217277 0.000540319 1.73712e-06
0.000540319 0.000331804 -3.90919e-06
1.73712e-06 -3.90919e-06 8.26987e-05
0.00148936 0.000432937 7.04165e-06
0.000432937 0.000168861 -1.88312e-07
7.04165e-06 -1.88312e-07 -0.000104883
0.000906468 0.000247228 -8.7038e-07
0.000247228 -2.58483e-05 1.07324e-08
-8.7038e-07 1.07324e-08 -0.000224355
0.00037649 0.000236571 -2.50185e-05
0.000236571 -0.000157792 -1.75594e-05
-2.50185e-05 -1.75594e-05 -0.000286533
0.000692071 0.000214732 1.21763e-05
0.000214732 -7.69968e-05 5.78024e-06
1.21763e-05 5.78024e-06 -0.000267522
0.00040696 0.000229551 2.09625e-06
0.000229551 -0.000124963 7.28793e-07
2.09625e-06 7.28793e-07 -0.000251731
0.00674038 7.13697e-07 -0.000259678
7.13697e-07 0.0038772 -3.02394e-05
-0.000259678 -3.02394e-05 0.00386559
0.000433893 0.000175421 2.39729e-05
0.000175421 -0.000108616 1.85025e-05
2.39729e-05 1.85025e-05 -0.000214622
0.00622542 -0.000124074 3.71374e-06
-0.000124074 0.00357193 -1.04454e-06
3.71374e-06 -1.04454e-06 0.00355758
0.00505484 -0.000213678 0.000135411
-0.000213678 0.00287846 9.31888e-06
0.000135411 9.31888e-06 0.00284897
0.00209044 0.000186733 -7.62003e-07
0.000186733 9.713e-06 -1.91646e-07
-7.62003e-07 -1.91646e-07 4.87486e-06
0.00228306 0.000239152 3.65853e-08
0.000239152 -3.38053e-05 5.7113e-07
3.65853e-08 5.7113e-07 1.31351e-05
0.00212532 0.000217291 3.64364e-06
0.000217291 -0.000148404 -2.04897e-07
3.64364e-06 -2.04897e-07 -6.86555e-05
0.0021081 0.000341591 -3.27848e-07
0.000341591 5.43089e-05 1.10337e-07
-3.27848e-07 1.10337e-07 -3.0601e-05
0.00206909 0.000475517 1.55614e-06
0.000475517 0.000163308 -7.02218e-07
1.55614e-06 -7.02218e-07 -1.63851e-05
0.00224154 0.000364485 1.86106e-06
0.000364485 3.52419e-05 -4.30242e-07
1.86106e-06 -4.30242e-07 -8.41715e-06
0.00199641 6.07609e-05 -1.61175e-06
6.07609e-05 1.26282e-06 3.35902e-07
-1.61175e-06 3.35902e-07 -6.34249e-07
0.00209488 5.81976e-05 3.52778e-07
5.81976e-05 -9.15399e-06 -1.02665e-07
3.52778e-07 -1.02665e-07 1.00617e-05
0.00215171 7.08782e-05 -6.49764e-07
7.08782e-05 -7.68832e-05 -4.18818e-07
-6.49764e-07 -4.18818e-07 -2.75659e-05
0.0019657 -1.18235e-05 -1.04409e-06
-1.18235e-05 7.57365e-06 2.64169e-08
-1.04409e-06 2.64169e-08 7.24759e-07
0.0019615 -3.88586e-05 -6.32958e-06
-3.88586e-05 3.36175e-05 6.4498e-07
-6.32958e-06 6.4498e-07 6.35909e-06
0.0020905 -7.21336e-05 3.11905e-07
-7.21336e-05 4.49808e-06 -6.1505e-08
3.11905e-07 -6.1505e-08 2.10205e-05
0.00197755 -0.000105189 -1.51207e-06
-0.000105189 1.70114e-05 2.59405e-07
-1.51207e-06 2.59405e-07 -8.38851e-06
0.00195732 -0.000114716 -4.45447e-06
-0.000114716 6.44436e-05 4.06213e-07
-4.45447e-06 4.06213e-07 2.02473e-06
0.00203943 -0.000184389 4.48472e-06
-0.000184389 4.4497e-05 -7.80314e-07
4.48472e-06 -7.80314e-07 1.07488e-05
0.00196096 -0.000179022 2.80612e-06
-0.000179022 7.34946e-05 -8.39659e-07
2.80612e-06 -8.39659e-07 -7.96873e-06
0.00173845 -0.000149434 1.71788e-06
-0.000149434 8.50097e-05 -6.25783e-07
1.71788e-06 -6.25783e-07 -4.48493e-05
0.00199437 -0.000250255 1.62065e-06
-0.000250255 0.000111791 1.37121e-07
1.62065e-06 1.37121e-07 5.89467e-06
0.00175479 -0.000206604 -2.03324e-07
-0.000206604 0.000105608 -7.1292e-08
-2.03324e-07 -7.1292e-08 -4.05591e-05
0.00105945 -0.000124757 -1.25332e-05
-0.000124757 -4.69495e-05 2.88968e-06
-1.25332e-05 2.88968e-06 -0.000200822
0.00177759 -0.000260863 1.1935e-06
-0.000260863 0.000141082 7.7498e-08
1.1935e-06 7.7498e-08 -2.50181e-05
0.00108684 -0.000154159 -3.36668e-07
-0.000154159 -2.20131e-05 2.15102e-07
-3.36668e-07 2.15102e-07 -0.000184535
0.00260999 -0.000164566 -6.32731e-05
-0.000164566 0.00117859 9.21417e-06
-6.32731e-05 9.21417e-06 0.00109471
0.00112949 -0.000180781 1.39625e-05
-0.000180781 1.26755e-05 -4.59164e-06
1.39625e-05 -4.59164e-06 -0.000157489
0.00273656 -0.000163014 4.07587e-05
-0.000163014 0.00125193 -4.24094e-06
4.07587e-05 -4.24094e-06 0.00117409
0.0021648 -9.05446e-05 -0.000233454
-9.05446e-05 0.000984732 2.6753e-05
-0.000233454 2.6753e-05 0.000967692
0.00285423 -0.000181583 0.000143328
-0.000181583 0.00132431 -2.12687e-05
0.000143328 -2.12687e-05 0.00125139
0.00179182 -6.94201e-05 -9.01041e-05
-6.94201e-05 0.000765127 1.12619e-05
-9.01041e-05 1.12619e-05 0.000734809
0.00151732 -6.21837e-05 5.52561e-05
-6.21837e-05 0.000610074 -8.559e-06
5.52561e-05 -8.559e-06 0.000562406
0.00202699 0.000219623 -7.42535e-07
0.000219623 4.92611e-05 3.65769e-07
-7.42535e-07 3.65769e-07 -1.25484e-05
0.00207172 0.000315814 -9.71503e-07
0.000315814 0.000168293 8.63316e-07
-9.71503e-07 8.63316e-07 3.18794e-05
0.00205109 0.000345091 -6.36753e-08
0.000345091 7.98874e-05 1.48962e-07
-6.36753e-08 1.48962e-07 -3.19513e-05
0.0019474 0.000339881 -5.02555e-07
0.000339881 0.000240367 8.41484e-07
-5.02555e-07 8.41484e-07 5.31538e-05
0.00206859 0.000374761 -8.41824e-07
0.000374761 0.000208508 -4.29851e-07
-8.41824e-07 -4.29851e-07 4.36565e-05
0.00210476 0.000400988 -1.14918e-07
0.000400988 0.000137206 -4.41284e-07
-1.14918e-07 -4.41284e-07 -9.56105e-06
0.00116131 0.00023281 -1.57099e-05
0.00023281 3.17306e-05 -4.64862e-06
-1.57099e-05 -4.64862e-06 -0.000151944
0.00176908 0.000372546 2.48157e-06
0.000372546 0.00017246 1.68148e-08
2.48157e-06 1.68148e-08 -4.02129e-05
0.00183408 0.000419043 -2.0417e-06
0.000419043 7.27138e-05 -4.08768e-06
-2.0417e-06 -4.08768e-06 -0.00011517
0.000312931 0.00018536 -2.22984e-05
0.00018536 -0.000219595 -1.44158e-05
-2.22984e-05 -1.44158e-05 -0.0003381
0.00102291 0.000248258 -5.23167e-07
0.000248258 -1.98961e-05 1.26462e-07
-5.23167e-07 1.26462e-07 -0.000213704
0.00160375 0.000413761 6.23534e-06
0.000413761 0.000138762 -9.91091e-07
6.23534e-06 -9.91091e-07 -0.000108677
0.000871854 0.000240126 1.428e-05
0.000240126 -3.90184e-05 6.08451e-06
1.428e-05 6.08451e-06 -0.000235223
0.000393017 0.000222192 7.10098e-07
0.000222192 -0.000145135 9.22389e-07
7.10098e-07 9.22389e-07 -0.000275231
0.00688212 0.000101721 -0.000274307
0.000101721 0.00394613 -3.45202e-05
-0.000274307 -3.45202e-05 0.00393863
0.000364678 0.000211776 2.23906e-05
0.000211776 -0.000148039 1.77072e-05
2.23906e-05 1.77072e-05 -0.000273045
0.00663272 -2.88836e-05 7.25059e-06
-2.88836e-05 0.00379838 -1.99659e-07
7.25059e-06 -1.99659e-07 0.00379391
0.00597902 -0.000155961 0.000189279
-0.000155961 0.00341756 1.06671e-05
0.000189279 1.06671e-05 0.00340236
0.0020177 0.000122037 -4.02119e-06
0.000122037 3.49988e-05 -8.97568e-07
-4.02119e-06 -8.97568e-07 2.19023e-05
0.00209353 0.000190579 8.90592e-07
0.000190579 1.06415e-05 3.40159e-07
8.90592e-07 3.40159e-07 4.67766e-06
0.00222991 0.000240999 -3.35784e-07
0.000240999 -7.02397e-05 -7.96977e-07
-3.35784e-07 -7.96977e-07 -2.12014e-05
0.00216413 0.000339154 2.65003e-06
0.000339154 9.41319e-05 -7.44811e-08
2.65003e-06 -7.44811e-08 1.34738e-05
0.00193558 1.28406e-05 -5.64853e-06
1.28406e-05 3.69573e-05 5.91852e-07
-5.64853e-06 5.91852e-07 1.94492e-07
0.00197648 5.11395e-05 2.87643e-08
5.11395e-05 -9.51464e-06 6.91844e-08
2.87643e-08 6.91844e-08 -1.27384e-05
0.00207723 5.30519e-05 -8.38039e-07
5.30519e-05 -1.58327e-05 -3.1274e-07
-8.38039e-07 -3.1274e-07 9.092e-07
0.00195408 -1.01055e-05 1.13631e-06
-1.01055e-05 -2.37059e-06 -7.24226e-07
1.13631e-06 -7.24226e-07 -9.86489e-06
0.00195827 -3.3411e-05 -8.58363e-07
-3.3411e-05 2.97509e-05 -1.31421e-07
-8.58363e-07 -1.31421e-07 3.60622e-06
0.00190993 -4.89026e-05 -2.91e-06
-4.89026e-05 4.49863e-05 2.87539e-07
-2.91e-06 2.87539e-07 -1.84001e-05
0.00200405 -0.000105288 3.44868e-06
-0.000105288 3.90893e-05 -9.5505e-08
3.44868e-06 -9.5505e-08 1.04971e-05
0.00193763 -0.000114574 -2.02088e-06
-0.000114574 5.90653e-05 5.88044e-07
-2.02088e-06 5.88044e-07 -1.00303e-05
0.0018219 -9.62986e-05 -6.8206e-07
-9.62986e-05 0.000126651 -2.45595e-07
-6.8206e-07 -2.45595e-07 1.67302e-05
0.00193088 -0.000177631 5.51979e-06
-0.000177631 5.34386e-05 -8.17091e-07
5.51979e-06 -8.17091e-07 -2.76709e-05
0.00175773 -0.000147856 2.03092e-06
-0.000147856 9.47547e-05 -5.1389e-07
2.03092e-06 -5.1389e-07 -3.44507e-05
0.00105557 -9.12764e-05 -1.21928e-05
-9.12764e-05 -5.42319e-05 2.01026e-06
-1.21928e-05 2.01026e-06 -0.000198623
0.00177187 -0.000205461 7.4855e-07
-0.000205461 0.000115561 1.14192e-08
7.4855e-07 1.14192e-08 -2.99909e-05
0.00107282 -0.000123811 -1.3946e-07
-0.000123811 -3.8009e-05 1.75914e-07
-1.3946e-07 1.75914e-07 -0.00019118
0.000446424 -8.86544e-05 -1.99109e-05
-8.86544e-05 -0.000180387 5.865e-06
-1.99109e-05 5.865e-06 -0.000271829
0.00112301 -0.000152707 1.30501e-05
-0.000152707 -1.58791e-06 -3.5044e-06
1.30501e-05 -3.5044e-06 -0.000162877
0.00157936 -0.000107279 5.94961e-05
-0.000107279 0.000526115 -4.43199e-06
5.94961e-05 -4.43199e-06 0.000445567
0.00634538 -0.000154007 -0.000308276
-0.000154007 0.00358972 2.22054e-05
-0.000308276 2.22054e-05 0.00360517
0.00281093 -0.000146629 0.000140865
-0.000146629 0.00128814 -1.68891e-05
0.000140865 -1.68891e-05 0.00122074
0.00179574 -7.0238e-05 -8.14532e-05
-7.0238e-05 0.000766054 7.35545e-06
-8.14532e-05 7.35545e-06 0.000735875
0.00143375 -9.0329e-05 6.68698e-05
-9.0329e-05 0.000562467 -1.01348e-05
6.68698e-05 -1.01348e-05 0.00051378
0.00198846 0.000160513 -3.18986e-06
0.000160513 5.26168e-05 -3.95625e-07
-3.18986e-06 -3.95625e-07 4.01004e-06
0.00204662 0.000237093 -3.81495e-07
0.000237093 0.000136423 1.37443e-06
-3.81495e-07 1.37443e-06 3.2004e-05
0.0020189 0.000214809 6.37387e-07
0.000214809 5.05482e-05 3.82641e-07
6.37387e-07 3.82641e-07 -1.48833e-05
0.00186675 0.000272875 -3.72309e-07
0.000272875 0.000163786 1.2188e-06
-3.72309e-07 1.2188e-06 5.106e-06
0.00199217 0.000309592 8.8628e-07
0.000309592 0.000122181 1.10278e-07
8.8628e-07 1.10278e-07 -1.36545e-05
0.00202725 0.000347176 4.3284e-07
0.000347176 4.52612e-05 1.70002e-07
4.3284e-07 1.70002e-07 -6.04455e-05
0.00110807 0.000201922 -1.60282e-05
0.000201922 -2.48964e-05 -3.47236e-06
-1.60282e-05 -3.47236e-06 -0.000195108
0.0019406 0.000338079 2.41149e-06
0.000338079 0.000235442 5.97067e-07
2.41149e-06 5.97067e-07 4.89082e-05
0.00197689 0.000366928 -1.55998e-06
0.000366928 0.000160822 -1.62623e-06
-1.55998e-06 -1.62623e-06 -5.10066e-06
0.000323091 0.00013169 -1.95125e-05
0.00013169 -0.000237615 -1.06685e-05
-1.95125e-05 -1.06685e-05 -0.000342936
0.00103459 0.000226557 4.24377e-07
0.000226557 -4.7643e-05 3.59527e-07
4.24377e-07 3.59527e-07 -0.000230221
0.00168712 0.00037153 6.56812e-06
0.00037153 0.000113945 -1.16791e-06
6.56812e-06 -1.16791e-06 -9.5576e-05
0.00680317 0.000181256 -0.000284069
0.000181256 0.00387998 -3.41929e-05
-0.000284069 -3.41929e-05 0.00387871
0.000351386 0.000178613 2.66211e-07
0.000178613 -0.000197098 8.22921e-07
2.66211e-07 8.22921e-07 -0.00031656
0.000952526 0.000241271 1.53626e-05
0.000241271 -5.65379e-05 5.64314e-06
1.53626e-05 5.64314e-06 -0.000249169
0.000360972 0.000207503 2.13422e-05
0.000207503 -0.000161806 1.73363e-05
2.13422e-05 1.73363e-05 -0.000292994
0.00675772 9.1341e-05 1.00696e-05
9.1341e-05 0.00386212 7.64027e-07
1.00696e-05 7.64027e-07 0.0038615
0.00651159 -6.09643e-05 0.000242838
-6.09643e-05 0.00371463 1.52386e-05
0.000242838 1.52386e-05 0.00371475
0.00194425 6.68592e-05 -7.84713e-06
6.68592e-05 3.92265e-05 9.83155e-08
-7.84713e-06 9.83155e-08 -8.04014e-07
0.00200524 0.000118974 2.29701e-07
0.000118974 2.63713e-05 4.24965e-08
2.29701e-07 4.24965e-08 1.27794e-05
0.00209708 0.000194515 1.15512e-06
0.000194515 1.16138e-05 3.55106e-07
1.15512e-06 3.55106e-07 5.01012e-06
0.00189498 4.67761e-06 -3.04408e-06
4.67761e-06 4.73638e-05 1.53289e-07
-3.04408e-06 1.53289e-07 -2.07115e-05
0.00193698 1.78715e-05 1.47366e-07
1.78715e-05 3.62783e-05 5.88138e-08
1.47366e-07 5.88138e-08 2.3773e-06
0.00195928 4.04293e-05 9.62542e-07
4.04293e-05 -1.88279e-05 -3.40546e-07
9.62542e-07 -3.40546e-07 -2.32437e-05
0.00195568 -2.87842e-05 3.61197e-06
-2.87842e-05 2.59137e-05 -5.04886e-07
3.61197e-06 -5.04886e-07 1.22641e-06
0.00189594 -4.70336e-05 -1.37267e-06
-4.70336e-05 3.68076e-05 2.9276e-07
-1.37267e-06 2.9276e-07 -2.57215e-05
0.0018875 -4.34767e-05 1.78478e-06
-4.34767e-05 0.000179538 -5.75646e-07
1.78478e-06 -5.75646e-07 7.37296e-05
0.00191229 -0.000114116 -4.02788e-07
-0.000114116 5.05204e-05 6.28654e-07
-4.02788e-07 6.28654e-07 -2.50951e-05
0.00181681 -9.73859e-05 5.293e-07
-9.73859e-05 0.000127558 2.57237e-08
5.293e-07 2.57237e-08 1.16747e-05
0.00100654 -5.31337e-05 -1.2932e-05
-5.31337e-05 -9.0214e-05 9.87543e-07
-1.2932e-05 9.87543e-07 -0.000222816
0.00175984 -0.00014809 2.15346e-06
-0.00014809 9.32906e-05 -3.98215e-07
2.15346e-06 -3.98215e-07 -3.56984e-05
0.00106449 -8.76029e-05 -7.01617e-08
-8.76029e-05 -4.85865e-05 1.43474e-07
-7.01617e-08 1.43474e-07 -0.00019216
0.000456528 -2.3051e-05 -1.85223e-05
-2.3051e-05 -0.000178345 3.51799e-06
-1.85223e-05 3.51799e-06 -0.000264652
0.00110821 -0.000122451 1.23848e-05
-0.000122451 -1.69921e-05 -2.57433e-06
1.23848e-05 -2.57433e-06 -0.000169252
0.000453846 -7.30283e-05 -2.19792e-07
-7.30283e-05 -0.000174474 4.36851e-07
-2.19792e-07 4.36851e-07 -0.00026669
0.00629405 -4.64411e-05 -0.00029829
-4.64411e-05 0.00355262 1.36634e-05
-0.00029829 1.36634e-05 0.00357242
0.000494857 -7.48224e-05 1.49508e-05
-7.48224e-05 -0.000150493 -7.73835e-06
1.49508e-05 -7.73835e-06 -0.000246869
0.00398781 -0.000100594 0.000132777
-0.000100594 0.00213018 -6.58198e-06
0.000132777 -6.58198e-06 0.00211438
0.00139785 -8.60542e-05 7.27288e-05
-8.60542e-05 0.000540314 -1.00734e-05
7.27288e-05 -1.00734e-05 0.000491941
0.00198005 0.000124554 -6.85884e-06
0.000124554 6.2581e-05 -3.63735e-07
-6.85884e-06 -3.63735e-07 1.04872e-05
0.00200198 0.000171427 -7.0605e-07
0.000171427 0.000109292 1.7014e-06
-7.0605e-07 1.7014e-06 2.05987e-05
0.00198132 0.000155766 -6.60087e-07
0.000155766 4.69509e-05 -1.44965e-07
-6.60087e-07 -1.44965e-07 -1.29014e-06
0.00179795 0.000206144 1.02585e-07
0.000206144 0.000112793 1.02928e-06
1.02585e-07 1.02928e-06 -3.11406e-05
0.00203706 0.000236227 3.78032e-07
0.000236227 0.000127785 1.96847e-07
3.78032e-07 1.96847e-07 2.19454e-05
0.00201462 0.000209845 2.48591e-06
0.000209845 5.42453e-05 3.43738e-07
2.48591e-06 3.43738e-07 -1.48273e-05
0.00109357 0.000164171 -1.45371e-05
0.000164171 -4.2724e-05 -2.44028e-06
-1.45371e-05 -2.44028e-06 -0.000200117
0.0018539 0.000270412 1.24647e-06
0.000270412 0.00016212 5.95262e-07
1.24647e-06 5.95262e-07 -7.0576e-07
0.00191085 0.000303188 -1.91479e-07
0.000303188 7.49022e-05 -9.76651e-07
-1.91479e-07 -9.76651e-07 -6.02727e-05
0.000356379 9.38115e-05 -1.82222e-05
9.38115e-05 -0.000233347 -7.56062e-06
-1.82222e-05 -7.56062e-06 -0.000329867
0.00103425 0.000197204 -1.34321e-06
0.000197204 -6.8619e-05 1.45641e-07
-1.34321e-06 1.45641e-07 -0.000238352
0.00193972 0.000336755 5.41626e-06
0.000336755 0.000234218 4.10038e-07
5.41626e-06 4.10038e-07 4.82729e-05
0.00662885 0.00024232 -0.000300347
0.00024232 0.00377043 -3.29525e-05
-0.000300347 -3.29525e-05 0.00377179
0.000365525 0.000131004 -9.05639e-08
0.000131004 -0.00021343 4.14899e-07
-9.05639e-08 4.14899e-07 -0.000319343
0.000912877 0.000220942 1.4941e-05
0.000220942 -0.000124264 4.59727e-06
1.4941e-05 4.59727e-06 -0.000305816
0.00675253 0.000198004 1.37945e-05
0.000198004 0.00385554 3.24458e-06
1.37945e-05 3.24458e-06 0.0038527
0.000379268 0.000170438 1.99618e-05
0.000170438 -0.000181208 1.43163e-05
1.99618e-05 1.43163e-05 -0.00030145
0.00663355 5.47619e-05 0.000267981
5.47619e-05 0.00377299 2.23388e-05
0.000267981 2.23388e-05 0.00378007
0.00187905 4.882e-05 -3.81397e-06
4.882e-05 2.69424e-05 2.63588e-07
-3.81397e-06 2.63588e-07 -4.21652e-05
0.00193916 7.05149e-05 -7.90009e-07
7.05149e-05 4.3804e-05 -2.40058e-07
-7.90009e-07 -2.40058e-07 2.59823e-06
0.00198771 0.000115993 3.59337e-06
0.000115993 1.51537e-05 5.23465e-07
3.59337e-06 5.23465e-07 9.60125e-07
0.00187394 -3.89076e-06 2.34367e-06
-3.89076e-06 0.000174498 -4.25107e-07
2.34367e-06 -4.25107e-07 7.0825e-05
0.00187185 5.50058e-06 -1.85193e-06
5.50058e-06 2.9886e-05 2.44542e-07
-1.85193e-06 2.44542e-07 -3.58099e-05
0.00193863 2.42297e-05 6.9933e-06
2.42297e-05 3.58201e-05 -2.51414e-07
6.9933e-06 -2.51414e-07 4.6844e-06
0.00187955 -4.54588e-05 -7.10234e-08
-4.54588e-05 2.73949e-05 3.84408e-07
-7.10234e-08 3.84408e-07 -3.45205e-05
0.00185927 -4.25905e-05 3.14024e-06
-4.25905e-05 0.000160311 -2.39776e-07
3.14024e-06 -2.39776e-07 5.47329e-05
0.00100262 -2.12547e-05 -1.25971e-05
-2.12547e-05 -8.67594e-05 3.01245e-07
-1.25971e-05 3.01245e-07 -0.000213645
0.00181835 -9.88137e-05 3.14402e-08
-9.88137e-05 0.000132625 2.69905e-07
3.14402e-08 2.69905e-07 1.07452e-05
0.00102982 -5.31842e-05 -7.76403e-07
-5.31842e-05 -7.40158e-05 -1.47719e-09
-7.76403e-07 -1.47719e-09 -0.000208351
0.000463097 -8.07605e-06 -1.88332e-05
-8.07605e-06 -0.000174878 2.16629e-06
-1.88332e-05 2.16629e-06 -0.000258123
0.00107399 -8.51972e-05 1.17621e-05
-8.51972e-05 -4.18659e-05 -1.75561e-06
1.17621e-05 -1.75561e-06 -0.000184779
0.000435241 -3.53977e-05 8.66917e-07
-3.53977e-05 -0.000191675 -1.92167e-07
8.66917e-07 -1.92167e-07 -0.000277194
0.00615503 -0.000142878 -0.00030261
-0.000142878 0.00348086 1.49345e-05
-0.00030261 1.49345e-05 0.0034953
0.000424224 -5.63472e-05 1.79405e-05
-5.63472e-05 -0.000192767 -4.50089e-06
1.79405e-05 -4.50089e-06 -0.000284514
0.00624811 -8.28124e-05 7.58089e-06
-8.28124e-05 0.00352673 -3.97269e-08
7.58089e-06 -3.97269e-08 0.00354614
0.00174659 -3.23804e-05 0.000235146
-3.23804e-05 0.00072646 -1.51277e-05
0.000235146 -1.51277e-05 0.000716267
0.00188076 0.000113267 -2.79069e-06
0.000113267 2.29253e-05 3.12718e-07
-2.79069e-06 3.12718e-07 -5.93351e-05
0.00197389 0.000127196 -2.74694e-06
0.000127196 5.05161e-05 -5.06673e-07
-2.74694e-06 -5.06673e-07 2.24599e-06
0.00176255 0.000142812 1.01597e-06
0.000142812 8.75876e-05 1.1863e-06
1.01597e-06 1.1863e-06 -3.96161e-05
0.00199937 0.000170448 9.26488e-07
0.000170448 0.00010654 1.76829e-07
9.26488e-07 1.76829e-07 1.79665e-05
0.00196768 0.000150861 3.97322e-06
0.000150861 3.62223e-05 -3.43036e-08
3.97322e-06 -3.43036e-08 -1.14923e-05
0.00112712 0.000122855 -1.26539e-05
0.000122855 -1.39039e-05 -1.83211e-06
-1.26539e-05 -1.83211e-06 -0.000162551
0.00179419 0.000204802 1.76535e-07
0.000204802 0.000114035 3.32028e-08
1.76535e-07 3.32028e-08 -2.98849e-05
0.00202336 0.000235161 1.26938e-06
0.000235161 0.000116867 -1.27321e-06
1.26938e-06 -1.27321e-06 9.5751e-06
0.000400437 6.8779e-05 -1.78855e-05
6.8779e-05 -0.000213576 -5.3928e-06
-1.78855e-05 -5.3928e-06 -0.000305369
0.00107322 0.000163573 -1.23928e-06
0.000163573 -5.15211e-05 2.09586e-07
-1.23928e-06 2.09586e-07 -0.000210906
0.00184682 0.000268036 2.48402e-06
0.000268036 0.000164557 1.13569e-07
2.48402e-06 1.13569e-07 -2.39988e-06
0.00647219 0.000261618 -0.000316458
0.000261618 0.00368309 -3.08406e-05
-0.000316458 -3.08406e-05 0.00368355
0.000404967 9.6796e-05 -1.06554e-07
9.6796e-05 -0.000205157 1.89838e-07
-1.06554e-07 1.89838e-07 -0.000302217
0.000962442 0.000192528 1.14492e-05
0.000192528 -0.000111492 3.49711e-06
1.14492e-05 3.49711e-06 -0.000280648
0.00663304 0.000265359 1.09481e-05
0.000265359 0.00378514 4.51995e-06
1.09481e-05 4.51995e-06 0.00378081
0.000415706 0.000128901 1.88718e-05
0.000128901 -0.00018494 1.08432e-05
1.88718e-05 1.08432e-05 -0.000291106
0.00673896 0.000197483 0.000296945
0.000197483 0.00383756 3.17485e-05
0.000296945 3.17485e-05 0.00384124
0.00183126 4.26399e-05 3.57456e-06
4.26399e-05 0.000146937 4.71557e-08
3.57456e-06 4.71557e-08 4.09754e-05
0.00187652 4.79876e-05 -2.95597e-06
4.79876e-05 3.05739e-05 -5.40157e-08
-2.95597e-06 -5.40157e-08 -3.99855e-05
0.00193539 7.36332e-05 5.99343e-06
7.36332e-05 4.90734e-05 -1.58192e-07
5.99343e-06 -1.58192e-07 6.73546e-06
0.000992862 -9.04929e-06 -1.28957e-05
-9.04929e-06 -8.35261e-05 -9.90049e-08
-1.28957e-05 -9.90049e-08 -0.000208501
0.00185073 9.59175e-07 3.4081e-06
9.59175e-07 0.000159289 -1.22143e-07
3.4081e-06 -1.22143e-07 5.56899e-05
0.00184896 5.7728e-06 -2.80577e-07
5.7728e-06 1.25677e-05 2.81357e-07
-2.80577e-07 2.81357e-07 -5.06528e-05
0.001836 -4.20031e-05 4.29734e-06
-4.20031e-05 0.000144338 1.5475e-07
4.29734e-06 1.5475e-07 3.8993e-05
0.000994539 -2.2355e-05 -4.71236e-07
-2.2355e-05 -9.35488e-05 -7.53475e-09
-4.71236e-07 -7.53475e-09 -0.000220713
0.00046621 -3.21097e-05 -1.93141e-05
-3.21097e-05 -0.000171719 1.03995e-06
-1.93141e-05 1.03995e-06 -0.000251873
0.00103354 -5.22667e-05 1.14423e-05
-5.22667e-05 -6.97071e-05 -1.2874e-06
1.14423e-05 -1.2874e-06 -0.000205801
0.000441238 3.33363e-06 3.63251e-07
3.33363e-06 -0.000189145 4.38487e-08
3.63251e-07 4.38487e-08 -0.000271317
0.00609321 -0.000114621 -0.000304885
-0.000114621 0.00344126 1.10246e-05
-0.000304885 1.10246e-05 0.00345872
0.00044868 -4.2444e-05 1.8781e-05
-4.2444e-05 -0.000181035 -3.07488e-06
1.8781e-05 -3.07488e-06 -0.000267712
0.00615643 -3.72383e-05 -3.01666e-06
-3.72383e-05 0.00346992 2.56969e-06
-3.01666e-06 2.56969e-06 0.00349164
0.00622613 -9.77915e-05 0.00030197
-9.77915e-05 0.00351361 -1.32495e-05
0.00030197 -1.32495e-05 0.00353348
0.00170188 8.6583e-05 1.1071e-06
8.6583e-05 5.55477e-05 4.84346e-07
1.1071e-06 4.84346e-07 -6.11398e-05
0.00191998 0.000112348 -3.18642e-06
0.000112348 4.41132e-05 -7.47889e-07
-3.18642e-06 -7.47889e-07 -3.2241e-05
0.00197268 0.000130396 3.66619e-06
0.000130396 4.24493e-05 -1.58127e-07
3.66619e-06 -1.58127e-07 -2.19463e-06
0.00111947 7.93792e-05 -1.21734e-05
7.93792e-05 -1.35933e-05 -1.26071e-06
-1.21734e-05 -1.26071e-06 -0.000152039
0.0017724 0.000141782 2.51393e-07
0.000141782 9.6428e-05 -1.64612e-08
2.51393e-07 -1.64612e-08 -3.09066e-05
0.00198778 0.000169266 8.54053e-07
0.000169266 9.82429e-05 -1.7978e-06
8.54053e-07 -1.7978e-06 9.69784e-06
0.000435106 4.62224e-05 -1.74806e-05
4.62224e-05 -0.0001926 -3.89628e-06
-1.74806e-05 -3.89628e-06 -0.000280875
0.00109515 0.00012438 3.80083e-07
0.00012438 -3.41943e-05 2.34934e-07
3.80083e-07 2.34934e-07 -0.000183901
0.00179147 0.0002035 6.72083e-07
0.0002035 0.00011555 -8.62316e-07
6.72083e-07 -8.62316e-07 -2.83704e-05
0.00630574 0.000223193 -0.000324813
0.000223193 0.00358094 -2.55015e-05
-0.000324813 -2.55015e-05 0.00358732
0.00043624 7.46104e-05 3.71569e-07
7.46104e-05 -0.000191609 1.70277e-07
3.71569e-07 1.70277e-07 -0.000284518
0.00105128 0.000162788 1.14147e-05
0.000162788 -6.16484e-05 2.8664e-06
1.14147e-05 2.8664e-06 -0.000222955
0.0065141 0.000277191 6.00123e-06
0.000277191 0.00371456 3.34783e-06
6.00123e-06 3.34783e-06 0.00371267
0.000458019 0.000101811 1.82513e-05
0.000101811 -0.000173063 8.26648e-06
1.82513e-05 8.26648e-06 -0.000271199
0.00665956 0.000296882 0.000313869
0.000296882 0.00380783 3.82572e-05
0.000313869 3.82572e-05 0.00380025
0.00103852 2.26641e-05 -1.25423e-05
2.26641e-05 -4.86537e-05 -4.99179e-07
-1.25423e-05 -4.99179e-07 -0.000178154
0.00179727 3.93628e-05 3.60434e-06
3.93628e-05 0.000123418 7.10859e-08
3.60434e-06 7.10859e-08 1.9592e-05
0.00187391 4.71576e-05 -2.274e-06
4.71576e-05 3.39076e-05 -1.18766e-07
-2.274e-06 -1.18766e-07 -3.8135e-05
0.000502956 3.18624e-05 -1.99014e-05
3.18624e-05 -0.000157169 -6.23029e-07
-1.99014e-05 -6.23029e-07 -0.000229405
0.000972886 -3.21357e-06 -6.1281e-07
-3.21357e-06 -9.76264e-05 3.06706e-10
-6.1281e-07 3.06706e-10 -0.000222727
0.00182211 7.09153e-06 4.47284e-06
7.09153e-06 0.000140418 1.2051e-07
4.47284e-06 1.2051e-07 3.68791e-05
0.000983813 -2.30327e-05 1.17105e-05
-2.30327e-05 -0.000102219 -5.6087e-07
1.17105e-05 -5.6087e-07 -0.00022964
0.000462693 -5.55486e-06 3.84664e-07
-5.55486e-06 -0.000173935 3.82794e-07
3.84664e-07 3.82794e-07 -0.000254166
0.00600226 1.98599e-05 -0.000307244
1.98599e-05 0.00337865 1.05361e-06
-0.000307244 1.05361e-06 0.00340242
0.000419893 1.50332e-05 1.8337e-05
1.50332e-05 -0.000203826 -1.2455e-06
1.8337e-05 -1.2455e-06 -0.000284636
0.00605394 -0.000112678 -7.74643e-06
-0.000112678 0.00341862 1.89025e-06
-7.74643e-06 1.89025e-06 0.00343552
0.00609394 -1.88175e-05 0.000289747
-1.88175e-05 0.0034316 -6.75071e-06
0.000289747 -6.75071e-06 0.00345328
0.0010843 4.57462e-05 -1.2381e-05
4.57462e-05 -2.66562e-05 -1.08356e-06
-1.2381e-05 -1.08356e-06 -0.000158711
0.00175323 8.40803e-05 -2.75828e-07
8.40803e-05 8.75214e-05 -3.38671e-07
-2.75828e-07 -3.38671e-07 -2.50036e-05
0.00197868 0.000111349 -2.87804e-06
0.000111349 7.76805e-05 -2.09303e-06
-2.87804e-06 -2.09303e-06 7.34382e-06
0.00268015 6.15369e-05 -0.000142473
6.15369e-05 0.00119929 -4.88882e-06
-0.000142473 -4.88882e-06 0.00114754
0.001071 8.09186e-05 3.17096e-07
8.09186e-05 -4.42675e-05 1.44932e-07
3.17096e-07 1.44932e-07 -0.000183556
0.00178046 0.000140624 5.38265e-07
0.000140624 0.000104076 -1.06037e-06
5.38265e-07 -1.06037e-06 -2.3405e-05
0.00616359 0.000163597 -0.000323811
0.000163597 0.00348766 -1.83129e-05
-0.000323811 -1.83129e-05 0.00350226
0.000466652 6.52755e-05 8.92146e-07
6.52755e-05 -0.000170915 4.08185e-07
8.92146e-07 4.08185e-07 -0.000261221
0.0010648 0.000125802 1.26207e-05
0.000125802 -5.33767e-05 2.1716e-06
1.26207e-05 2.1716e-06 -0.000204111
0.00639468 0.00023825 1.34993e-06
0.00023825 0.0036371 1.60361e-06
1.34993e-06 1.60361e-06 0.00364225
0.000482131 8.3326e-05 1.84467e-05
8.3326e-05 -0.000162264 6.45686e-06
1.84467e-05 6.45686e-06 -0.000256955
0.00654482 0.000310877 0.000323503
0.000310877 0.00374632 3.83837e-05
0.000323503 3.83837e-05 0.00373762
0.000569572 1.15772e-05 -1.59105e-05
1.15772e-05 -0.000105304 -1.82025e-06
-1.59105e-05 -1.82025e-06 -0.000186742
0.000997265 2.19441e-05 3.16093e-07
2.19441e-05 -7.82513e-05 2.07531e-07
3.16093e-07 2.07531e-07 -0.000206116
0.00176371 3.50247e-05 3.76575e-06
3.50247e-05 0.000100029 -7.40168e-08
3.76575e-06 -7.40168e-08 -1.61533e-06
0.00585232 -0.000100512 -0.000290346
-0.000100512 0.00330402 3.4113e-06
-0.000290346 3.4113e-06 0.00331692
0.000457849 9.28199e-06 -5.87809e-07
9.28199e-06 -0.000180519 -4.76624e-08
-5.87809e-07 -4.76624e-08 -0.000255401
0.000971435 1.4622e-06 1.16266e-05
1.4622e-06 -0.000100456 -5.53561e-08
1.16266e-05 -5.53561e-08 -0.00022562
0.00041848 2.09437e-05 1.85729e-05
2.09437e-05 -0.000202547 1.78367e-07
1.85729e-05 1.78367e-07 -0.000281707
0.00594627 -1.5809e-05 2.10252e-06
-1.5809e-05 0.00334991 -1.50275e-06
2.10252e-06 -1.50275e-06 0.00336929
0.00604201 -3.3629e-05 0.000296057
-3.3629e-05 0.00339973 -4.58192e-06
0.000296057 -4.58192e-06 0.00342251
0.00276251 1.51655e-05 -0.000137294
1.51655e-05 0.00124842 -2.78608e-06
-0.000137294 -2.78608e-06 0.00119963
0.00105929 4.89414e-05 9.19194e-08
4.89414e-05 -4.39072e-05 -1.1874e-08
9.19194e-08 -1.1874e-08 -0.000176614
0.0017961 8.17287e-05 7.2128e-07
8.17287e-05 0.000114318 -9.91088e-07
7.2128e-07 -9.91088e-07 5.97029e-06
0.00568429 -3.79318e-05 -0.000123789
-3.79318e-05 0.00320295 4.45151e-07
-0.000123789 4.45151e-07 0.00319118
0.000476686 5.7536e-05 1.54164e-07
5.7536e-05 -0.00016401 2.51085e-07
1.54164e-07 2.51085e-07 -0.000249336
0.00103906 8.31208e-05 1.21216e-05
8.31208e-05 -6.53669e-05 1.52631e-06
1.21216e-05 1.52631e-06 -0.000205446
0.00623898 0.000138993 -1.0588e-05
0.000138993 0.00352896 -1.72485e-06
-1.0588e-05 -1.72485e-06 0.00354483
0.00049384 8.83452e-05 1.96898e-05
8.83452e-05 -0.00015348 5.48184e-06
1.96898e-05 5.48184e-06 -0.000244807
0.00645446 0.000262391 0.000331212
0.000262391 0.00368052 3.29712e-05
0.000331212 3.29712e-05 0.00368283
0.00177432 -5.3316e-05 -0.000232698
-5.3316e-05 0.000743917 1.31013e-06
-0.000232698 1.31013e-06 0.000741996
0.00161356 3.06486e-05 -5.87122e-05
3.06486e-05 0.000534462 1.19924e-07
-5.87122e-05 1.19924e-07 0.000474504
0.000951139 2.38534e-05 1.25023e-05
2.38534e-05 -0.000110485 6.91062e-07
1.25023e-05 6.91062e-07 -0.000236787
0.00592935 -4.71088e-05 7.02297e-06
-4.71088e-05 0.00334508 2.43904e-06
7.02297e-06 2.43904e-06 0.00336332
0.000473452 -1.19824e-05 1.91846e-05
-1.19824e-05 -0.000164434 6.93132e-07
1.91846e-05 6.93132e-07 -0.000243223
0.00598719 -7.97076e-05 0.000309067
-7.97076e-05 0.00337844 -4.42991e-06
0.000309067 -4.42991e-06 0.00339765
0.00134229 2.0962e-05 -5.86978e-05
2.0962e-05 0.00050319 -9.16497e-07
-5.86978e-05 -9.16497e-07 0.00046551
0.00160111 1.7978e-05 -5.93792e-05
1.7978e-05 0.000529871 -1.28169e-06
-5.93792e-05 -1.28169e-06 0.000465757
0.00102454 5.06997e-05 1.22383e-05
5.06997e-05 -6.69537e-05 1.07649e-06
1.22383e-05 1.07649e-06 -0.000200336
0.00375023 6.5651e-05 0.000114668
6.5651e-05 0.00198545 3.34484e-06
0.000114668 3.34484e-06 0.00197733
0.000485655 6.80115e-05 1.99154e-05
6.80115e-05 -0.000158452 4.21509e-06
1.99154e-05 4.21509e-06 -0.000243743
0.00632102 0.000126885 0.000315584
0.000126885 0.003572 1.9719e-05
0.000315584 1.9719e-05 0.00359158
0.00588292 -2.02295e-05 -8.90055e-06
-2.02295e-05 0.00331954 -3.02106e-06
-8.90055e-06 -3.02106e-06 0.00333655
0.000468042 4.97048e-05 2.07652e-05
4.97048e-05 -0.000178595 2.30442e-06
2.07652e-05 2.30442e-06 -0.0002504
0.00584089 3.91005e-05 0.000297034
3.91005e-05 0.0032862 2.09137e-07
0.000297034 2.09137e-07 0.00330803
0.0036457 3.12928e-05 0.000126936
3.12928e-05 0.0019254 4.87376e-06
0.000126936 4.87376e-06 0.00191902
0.000498652 8.42045e-06 1.91309e-05
8.42045e-06 -0.000150711 2.54284e-06
1.91309e-05 2.54284e-06 -0.00023087
0.00611883 -2.83365e-06 0.000302969
-2.83365e-06 0.00344872 8.67252e-06
0.000302969 8.67252e-06 0.00346968
0.00593012 -0.000119879 0.00029457
-0.000119879 0.00335313 -4.14199e-06
0.00029457 -4.14199e-06 0.00336563
0.00594112 6.39319e-06 0.000296401
6.39319e-06 0.00333895 4.94838e-06
0.000296401 4.94838e-06 0.00336301
