# vtk DataFile Version 2.0
Wound Healing Simulation
ASCII
DATASET UNSTRUCTURED_GRID
POINTS 3012 float
69.9759 18.75 4
67.2507 60.3285 4
69.976 18.75 2
73.0099 25.446 4
71.1327 20.9142 4
68.6801 16.6661 4
67.8247 19.9262 3.98068
67.2507 60.3286 2
71.1327 54.0858 4
68.6801 58.3339 4
65.6939 62.2254 4
65.3112 59.0007 3.97972
74.6784 42.3946 4
73.7221 47.2057 4
69.9759 18.75 0
73.0099 25.446 2
68.6801 16.6661 2
71.1327 20.9142 2
67.8253 19.9295 2
74.6792 32.6053 4
73.7222 27.7943 4
72.1454 23.1494 4
70.6135 26.2209 3.98028
68.8849 21.958 3.98118
67.2507 14.6715 4
66.6361 17.9724 3.97981
65.7942 21.0269 3.97021
67.2507 60.3285 0
71.1327 54.0858 2
68.6801 58.3339 2
65.694 62.2255 2
65.3125 58.9968 2
72.1454 51.8506 4
69.9759 56.25 4
68.8356 53.113 3.98034
64.0165 64.0165 4
66.6099 57.1335 3.98042
63.8844 60.765 3.98002
63.4975 57.7683 3.97129
60.3285 67.2507 4
74.6792 42.3947 2
73.7222 47.2057 2
74.9194 39.9526 4
74.2788 44.8158 4
72.1678 42.0855 3.97991
73.0099 49.554 4
71.2487 46.5979 3.97954
73.0099 25.446 0
71.1327 20.9142 0
68.6801 16.6661 0
67.8247 19.9262 0.0193242
74.6792 32.6053 2
73.7222 27.7943 2
67.2508 14.6715 2
72.1455 23.1494 2
70.6134 26.2214 2
66.6371 17.9765 2
68.8853 21.9602 2
65.7936 21.0279 2
74.9197 35.0474 4
74.2794 30.1841 4
72.1844 32.9434 3.98019
71.2776 28.4313 3.97984
69.8148 24.0595 3.98091
68.3444 26.9521 3.96929
66.7599 22.9343 3.96974
65.694 12.7746 4
65.3224 16.1045 3.97939
64.7106 19.1978 3.97062
63.8798 22.04 3.96656
71.1327 54.0858 0
65.6939 62.2254 0
68.6801 58.3339 0
65.3112 59.0007 0.0202766
72.1455 51.8506 2
69.9759 56.25 2
68.8358 53.111 2
64.0165 64.0165 2
66.6108 57.1297 2
63.8861 60.7616 2
63.4969 57.768 2
62.2254 65.694 4
58.8939 65.4139 3.98947
69.7682 50.9888 3.98006
67.7829 55.167 3.98019
66.6468 52.2079 3.96889
62.3351 62.4269 3.98417
64.6581 56.0295 3.97067
62.1991 59.3979 3.96967
61.8166 56.6737 3.96643
58.3339 68.6801 4
60.3285 67.2508 2
73.7221 47.2057 0
74.6784 42.3946 0
74.9197 39.9526 2
74.2794 44.8159 2
72.1673 42.0854 2
73.0099 49.554 2
71.2485 46.5977 2
75 37.5 4
72.405 39.8021 3.98051
71.782 44.3527 3.97992
69.8021 41.7893 3.9694
70.5744 48.8134 3.97965
68.9099 46.014 3.96901
74.6792 32.6053 0
73.7222 27.7943 0
67.2507 14.6715 0
72.1454 23.1494 0
70.6135 26.2209 0.0197172
68.8849 21.958 0.018823
66.6361 17.9724 0.020191
65.7942 21.0269 0.0297939
74.9197 35.0474 2
74.2794 30.1841 2
72.1839 32.9437 2
71.2775 28.4318 2
65.694 12.7745 2
65.3239 16.1087 2
69.8149 24.0607 2
68.3443 26.9528 2
64.71 19.1986 2
66.7595 22.9352 2
63.8793 22.0405 2
72.4129 35.2242 3.98055
71.8034 30.6763 3.98024
69.8381 33.2687 3.96961
68.9638 29.0387 3.96929
67.6087 24.9128 3.96942
66.1805 27.6383 3.96705
64.0165 10.9835 4
64.7468 23.8341 3.96676
63.8888 14.3285 3.98104
63.5096 17.452 3.97103
62.8998 20.3269 3.96649
62.0554 22.9581 3.9668
60.6831 11.0987 3.98552
57.6112 11.4533 3.97724
72.1454 51.8506 0
69.9759 56.25 0
68.8356 53.113 0.0196586
64.0165 64.0165 0
63.8844 60.765 0.019985
66.6099 57.1335 0.0195779
63.4975 57.7683 0.028715
62.2255 65.694 2
58.8953 65.413 2
69.7682 50.9879 2
67.7834 55.164 2
66.6464 52.2071 2
62.3371 62.4244 2
64.6575 56.0289 2
62.1985 59.3983 2
61.8161 56.6736 2
60.6678 63.9764 3.98661
57.0251 66.7346 3.99095
57.5566 63.6882 3.97921
67.5049 50.1755 3.96865
65.699 54.1717 3.96938
64.5251 51.3799 3.9659
60.7707 60.9325 3.97374
62.8139 55.0621 3.9667
60.6494 58.1477 3.96401
60.3177 55.7728 3.96583
56.25 69.9759 4
58.3339 68.6801 2
60.3285 67.2507 0
58.9205 9.65682 3.98722
62.2254 9.30607 4
73.0099 49.554 0
74.2788 44.8158 0
71.2487 46.5979 0.0204585
72.1678 42.0855 0.0200926
74.9194 39.9526 0
75 37.5 2
72.405 39.8023 2
71.782 44.3524 2
69.8016 41.789 2
70.5743 48.8131 2
68.9099 46.0134 2
72.4884 37.512 3.98011
70.0394 39.6572 3.96949
69.4283 43.907 3.9693
67.5831 41.4955 3.96826
68.2634 48.1061 3.96868
66.6897 45.4355 3.96749
74.9197 35.0474 0
74.2794 30.1841 0
72.1844 32.9434 0.0198125
71.2776 28.4313 0.020163
65.694 12.7746 0
65.3224 16.1045 0.0206103
69.8148 24.0595 0.0190874
68.3444 26.9521 0.0307131
66.7599 22.9343 0.0302632
64.7106 19.1978 0.0293828
63.8798 22.04 0.0334381
72.4128 35.2243 2
71.8034 30.6768 2
69.8375 33.2691 2
68.9638 29.0393 2
64.0165 10.9835 2
63.8908 14.3323 2
63.5091 17.4528 2
67.6085 24.9136 2
66.1806 27.6387 2
62.8992 20.3273 2
64.7464 23.8346 2
62.0548 22.9585 2
60.6855 11.1013 2
57.6121 11.4516 2
70.0561 35.3921 3.96963
69.4651 31.1499 3.96941
67.6444 33.5925 3.96804
66.7575 29.626 3.96734
65.5112 25.7032 3.96686
64.0817 28.2688 3.96995
62.3407 12.6559 3.9841
62.81 24.6518 3.96806
62.1955 15.7922 3.97152
61.8052 18.6945 3.9663
61.186 21.3576 3.96534
60.3457 23.754 3.96907
59.2444 12.7855 3.97464
55.8737 10.2384 3.97944
56.403 13.1293 3.97377
69.7682 50.9888 0.019938
62.2254 65.694 0
58.8939 65.4139 0.0105283
67.7829 55.167 0.0198085
66.6468 52.2079 0.031107
62.3351 62.4269 0.0158265
62.1991 59.3979 0.0303281
64.6581 56.0295 0.0293259
61.8166 56.6737 0.0335677
60.6696 63.9748 2
57.0261 66.7343 2
57.5566 63.6898 2
67.5046 50.1747 2
65.6983 54.1709 2
64.525 51.3796 2
60.7705 60.9334 2
62.8133 55.0619 2
60.6492 58.1479 2
60.3172 55.7725 2
55.071 67.9315 3.99173
59.2171 62.3608 3.97491
55.804 64.9078 3.98375
56.3242 62.0796 3.97512
65.3139 49.4027 3.96629
63.6988 53.2874 3.96574
62.386 50.6348 3.9672
59.3274 59.5462 3.96845
61.0597 54.2961 3.96582
59.2713 56.9939 3.96403
59.2256 55.1657 3.96522
48.1017 68.5773 3.98718
50.9488 69.9312 3.99187
54.0858 71.1327 4
56.25 69.976 2
58.3339 68.6801 0
57.058 8.3366 3.98856
60.3285 7.74928 4
58.9228 9.65836 2
62.2255 9.30602 2
70.5744 48.8134 0.0203473
71.782 44.3527 0.0200751
68.9099 46.014 0.0309934
69.8021 41.7893 0.0305961
72.405 39.8021 0.0194911
75 37.5 0
72.4879 37.5122 2
70.0394 39.6571 2
69.4282 43.9065 2
67.5831 41.4953 2
68.2633 48.1054 2
66.6893 45.4352 2
70.1274 37.5215 3.96952
67.8232 39.5113 3.96832
67.2055 43.4667 3.9679
65.4825 41.2028 3.97223
66.0481 47.4128 3.9669
64.5718 44.835 3.97048
72.4129 35.2242 0.0194472
71.8034 30.6763 0.0197613
69.8381 33.2687 0.0303911
68.9638 29.0387 0.0307063
64.0165 10.9835 0
63.8888 14.3285 0.0189585
63.5096 17.452 0.02897
67.6087 24.9128 0.0305847
66.1805 27.6383 0.0329548
64.7468 23.8341 0.0332382
62.8998 20.3269 0.0335096
62.0554 22.9581 0.0331972
60.6831 11.0987 0.0144803
57.6112 11.4533 0.0227628
70.0561 35.3923 2
69.465 31.1503 2
67.6446 33.5927 2
66.7576 29.6263 2
62.343 12.6594 2
62.195 15.7924 2
61.8045 18.6949 2
65.511 25.7036 2
64.0806 28.2692 2
61.1851 21.358 2
62.8093 24.6523 2
60.3455 23.7547 2
59.2453 12.7852 2
56.4036 13.1275 2
55.8743 10.237 2
67.8615 35.5483 3.96828
67.2522 31.6249 3.96774
65.6359 33.9324 3.97229
64.5954 30.2033 3.97076
63.4834 26.4283 3.96911
62.1402 28.8 3.9739
60.7732 14.2298 3.97412
60.9528 25.3636 3.97105
60.6034 17.1414 3.96619
60.1961 19.8343 3.96373
59.5853 22.2868 3.96595
58.8638 24.3563 3.97155
54.037 9.13937 3.98144
57.9067 14.3458 3.97415
54.7849 12.0221 3.97479
55.3074 14.6688 3.97215
67.5049 50.1755 0.0313545
57.0251 66.7346 0.0090533
60.6678 63.9764 0.0133925
57.5566 63.6882 0.0207894
65.699 54.1717 0.0306204
64.5251 51.3799 0.0341032
60.7707 60.9325 0.0262599
60.6494 58.1477 0.0359941
62.8139 55.0621 0.0333037
60.3177 55.7728 0.0341721
55.0717 67.9314 2
59.2172 62.362 2
55.8039 64.9088 2
56.3237 62.0819 2
65.3137 49.4023 2
63.6984 53.2872 2
62.386 50.6345 2
59.3268 59.5477 2
61.06 54.2959 2
59.2716 56.9936 2
59.226 55.1653 2
53.043 68.9993 3.99177
53.9664 66.0115 3.98527
57.8766 60.8587 3.97425
54.6827 63.2025 3.97848
55.2064 60.5988 3.97385
63.1264 48.6439 3.96834
61.7042 52.5596 3.96638
60.1659 49.9898 3.96905
58.0049 58.2453 3.96555
59.2895 53.926 3.96702
58.0886 55.7891 3.96142
50.1084 67.8557 3.98688
47.4625 66.5776 3.98365
46.0554 69.1563 3.98738
48.1017 68.578 2
48.8028 70.7224 3.99198
50.9492 69.9312 2
51.8506 72.1454 4
54.0858 71.1327 2
56.25 69.9759 0
55.1028 7.14093 3.99023
58.3339 6.31992 4
57.0598 8.33739 2
60.3286 7.74926 2
58.9205 9.65682 0.0127824
62.2254 9.30607 0
68.2634 48.1061 0.031324
69.4283 43.907 0.0307012
66.6897 45.4355 0.0325134
67.5831 41.4955 0.0317434
70.0394 39.6572 0.0305084
72.4884 37.512 0.0198947
70.127 37.5216 2
67.823 39.5112 2
67.2062 43.4664 2
65.4813 41.2025 2
66.0482 47.4124 2
64.5705 44.8346 2
67.9219 37.522 3.96834
65.72 39.3664 3.97246
65.1011 43.0152 3.97174
63.6244 40.9179 3.97675
63.8866 46.7007 3.96935
62.6689 44.1948 3.97446
70.0561 35.3921 0.030366
69.4651 31.1499 0.0305911
67.6444 33.5925 0.0319586
66.7575 29.626 0.0326604
62.3407 12.6559 0.0158959
62.1955 15.7922 0.0284765
61.8052 18.6945 0.0336993
65.5112 25.7032 0.0331402
64.0817 28.2688 0.030047
62.81 24.6518 0.0319447
61.186 21.3576 0.0346604
60.3457 23.754 0.0309337
59.2444 12.7855 0.0253623
56.403 13.1293 0.0262267
55.8737 10.2384 0.0205627
67.8611 35.5484 2
67.2526 31.6251 2
65.635 33.9326 2
64.5944 30.2037 2
60.7733 14.2304 2
60.603 17.1414 2
60.1971 19.8344 2
63.4826 26.4287 2
62.1382 28.8006 2
59.5869 22.2873 2
60.9521 25.3642 2
58.8629 24.3574 2
57.9067 14.3448 2
55.3078 14.6682 2
54.0375 9.13798 2
54.7855 12.0197 2
65.8115 35.6691 3.9724
65.1159 32.1629 3.97131
64.1779 34.2573 3.97667
62.4554 30.6558 3.97481
61.5449 27.0968 3.97227
60.6945 29.1693 3.9773
59.305 15.6815 3.97028
59.1918 25.8332 3.97445
59.1052 18.3756 3.96434
58.6829 20.8827 3.96289
58.1722 23.131 3.96656
57.8326 24.7079 3.97361
52.1119 8.15597 3.98399
53.0569 11.0255 3.97677
56.6692 15.7623 3.97287
53.8058 13.7003 3.97444
54.3664 16.0251 3.97382
55.071 67.9315 0.00826998
65.3139 49.4027 0.0337069
55.804 64.9078 0.0162504
59.2171 62.3608 0.0250912
56.3242 62.0796 0.0248787
63.6988 53.2874 0.0342596
62.386 50.6348 0.032802
59.3274 59.5462 0.0315525
59.2713 56.9939 0.0359691
61.0597 54.2961 0.0341786
59.2256 55.1657 0.034783
53.0435 68.9993 2
53.9664 66.0123 2
57.8758 60.8602 2
54.6821 63.2033 2
55.2062 60.6005 2
63.1256 48.6435 2
61.705 52.5595 2
60.1658 49.9892 2
58.0044 58.2467 2
59.2914 53.9257 2
58.0871 55.7882 2
52.0697 66.9985 3.98654
52.9527 64.2146 3.98175
56.6401 59.474 3.97312
53.6777 61.6136 3.97605
54.2502 59.3004 3.97409
60.8561 47.8506 3.96986
59.6267 52.0776 3.96784
57.8759 49.577 3.97076
56.7524 56.9639 3.96742
57.0599 54.093 3.96473
50.1084 67.856 2
49.3366 65.9183 3.98361
47.4626 66.5782 2
46.8918 64.7308 3.98197
45.5576 67.0944 3.98371
43.9725 69.5884 3.98756
46.0554 69.1569 2
46.6093 71.3669 3.99202
48.1017 68.5773 0.0128171
48.8033 70.7226 2
49.554 73.0099 4
50.9488 69.9312 0.00812975
51.8506 72.1455 2
54.0858 71.1327 0
53.0645 6.07213 3.99132
55.1042 7.1411 2
56.25 5.02411 4
58.3339 6.3199 2
57.058 8.3366 0.0114432
60.3285 7.74928 0
66.0481 47.4128 0.0330989
67.2055 43.4667 0.0320965
64.5718 44.835 0.0295157
65.4825 41.2028 0.0277686
67.8232 39.5113 0.0316838
70.1274 37.5215 0.0304837
67.9219 37.522 2
65.7187 39.3663 2
65.0999 43.0148 2
63.622 40.9174 2
63.8853 46.7003 2
62.6666 44.1942 2
65.826 37.5011 3.97244
63.7751 39.2603 3.97699
63.1864 42.5329 3.97562
62.2533 40.6803 3.97706
61.8291 45.8932 3.97222
61.2653 43.6559 3.97728
67.8615 35.5483 0.0317155
67.2522 31.6249 0.0322587
65.6359 33.9324 0.0277116
64.5954 30.2033 0.0292412
60.7732 14.2298 0.0258816
60.6034 17.1414 0.0338131
60.1961 19.8343 0.0362655
63.4834 26.4283 0.030891
62.1402 28.8 0.0260992
60.9528 25.3636 0.0289462
59.5853 22.2868 0.0340494
58.8638 24.3563 0.0284499
57.9067 14.3458 0.0258544
55.3074 14.6688 0.0278475
54.037 9.13937 0.0185571
54.7849 12.0221 0.0252137
65.8102 35.6692 2
65.1148 32.1632 2
64.1768 34.2575 2
62.4538 30.6562 2
59.3043 15.6818 2
59.1053 18.3755 2
58.6878 20.8827 2
61.5436 27.0975 2
60.6934 29.17 2
58.1708 23.1324 2
59.191 25.8342 2
57.8322 24.7093 2
56.6691 15.7611 2
54.3665 16.0254 2
53.8059 13.6957 2
52.1122 8.15485 2
53.0571 11.0241 2
63.9759 35.6362 3.97633
62.788 33.0607 3.97572
60.429 30.6412 3.97672
59.4082 27.9462 3.97549
57.9272 17.0034 3.96749
57.584 25.7718 3.97622
57.6803 19.5028 3.96088
57.2722 21.8814 3.96342
57.0356 23.9964 3.96782
50.1123 7.28662 3.98655
51.2322 10.1306 3.97953
52.1691 12.8098 3.97646
55.5236 16.997 3.97196
52.9713 15.2921 3.97156
53.7437 17.0107 3.97834
53.043 68.9993 0.00822735
53.9664 66.0115 0.0147315
63.1264 48.6439 0.0316589
54.6827 63.2025 0.0215206
57.8766 60.8587 0.0257477
55.2064 60.5988 0.0261466
61.7042 52.5596 0.0336223
60.1659 49.9898 0.0309452
58.0049 58.2453 0.0344457
58.0886 55.7891 0.0385772
59.2895 53.926 0.0329821
52.0697 66.9992 2
52.9524 64.2154 2
56.6396 59.475 2
53.6771 61.6137 2
54.25 59.3024 2
60.8548 47.8499 2
59.6268 52.0771 2
57.8734 49.5758 2
56.7512 56.9683 2
57.0578 54.092 2
51.1677 65.1251 3.98355
52.0442 62.5322 3.97877
55.4655 58.2318 3.97466
52.8267 60.1156 3.97744
53.6244 58.4506 3.97907
58.1038 46.8054 3.97421
57.4531 51.7506 3.96728
56.0633 49.5073 3.97065
55.4322 55.7635 3.96335
55.2704 53.3469 3.96318
50.1084 67.8557 0.0131157
49.3364 65.9186 2
48.6177 64.1181 3.9825
47.4625 66.5776 0.0163465
45.5577 67.095 2
46.8919 64.7313 2
46.3813 63.0461 3.98214
45.1321 65.1913 3.98177
43.6308 67.4649 3.98385
41.86 69.8755 3.98736
43.9725 69.5889 2
44.3766 71.8617 3.99198
46.0554 69.1563 0.012623
46.6097 71.3671 2
47.2057 73.7222 4
48.8028 70.7224 0.00801905
49.554 73.0099 2
51.8506 72.1454 0
50.9546 5.13254 3.99197
53.0654 6.07215 2
54.0858 3.86728 4
55.1028 7.14093 0.00976607
56.25 5.02406 2
58.3339 6.31992 0
63.8866 46.7007 0.0306503
65.1011 43.0152 0.0282632
62.6689 44.1948 0.0255415
63.6244 40.9179 0.0232457
65.72 39.3664 0.0275383
67.9219 37.522 0.0316605
65.8248 37.5011 2
63.7729 39.26 2
63.1845 42.5324 2
62.2509 40.6798 2
61.8271 45.8924 2
61.2632 43.655 2
63.8371 37.456 3.97656
61.9725 39.3434 3.97709
61.0126 41.9328 3.97707
60.0568 44.7367 3.97683
65.8115 35.6691 0.0276016
65.1159 32.1629 0.0286923
64.1779 34.2573 0.0233307
62.4554 30.6558 0.0251894
59.305 15.6815 0.0297199
59.1052 18.3756 0.0356592
58.6829 20.8827 0.0371061
61.5449 27.0968 0.0277274
60.6945 29.1693 0.0227035
59.1918 25.8332 0.0255513
58.1722 23.131 0.0334375
57.8326 24.7079 0.0263882
56.6692 15.7623 0.0271333
54.3664 16.0251 0.0261795
53.8058 13.7003 0.025563
52.1119 8.15597 0.0160126
53.0569 11.0255 0.0232271
63.9741 35.6364 2
62.7864 33.0611 2
60.4274 30.642 2
57.9264 17.0035 2
57.6831 19.5018 2
57.2753 21.882 2
59.4073 27.9471 2
57.0347 23.9981 2
57.5836 25.7732 2
50.1126 7.28503 2
55.5237 16.9963 2
53.7435 17.0099 2
52.9714 15.2902 2
52.1697 12.8093 2
51.2325 10.1292 2
62.0106 35.3712 3.977
60.0668 32.7729 3.97706
58.4008 30.1191 3.97699
57.0896 27.4331 3.97677
56.614 18.1822 3.96662
56.1186 25.1595 3.97365
56.299 20.5587 3.95992
55.9727 22.9222 3.96248
48.0567 6.52819 3.98847
49.3246 9.33559 3.98163
50.4317 12.0041 3.97667
51.3719 14.5171 3.97269
54.3929 17.9496 3.97376
52.3473 17.0735 3.96917
52.0697 66.9985 0.0134631
52.9527 64.2146 0.0182469
60.8561 47.8506 0.0301396
53.6777 61.6136 0.0239511
56.6401 59.474 0.0268837
54.2502 59.3004 0.0259137
59.6267 52.0776 0.0321574
57.8759 49.577 0.0292422
56.7524 56.9639 0.0325843
57.0599 54.093 0.0352746
51.1675 65.1257 2
52.0438 62.5329 2
55.465 58.233 2
52.8265 60.119 2
53.624 58.4517 2
58.1028 46.8043 2
57.4517 51.7497 2
56.0607 49.5063 2
55.4319 55.7641 2
55.2729 53.3473 2
50.3456 63.3765 3.98216
51.2395 60.9247 3.9765
54.1942 57.2479 3.97498
52.2983 58.609 3.97541
56.4178 44.1268 3.97753
55.2599 47.8414 3.974
54.9308 51.346 3.96599
53.9426 54.5103 3.96454
49.3366 65.9183 0.0163933
48.6176 64.1183 2
47.9611 62.4684 3.98179
45.5576 67.0944 0.0162899
46.8918 64.7308 0.0180266
43.6309 67.4655 2
46.3815 63.0466 2
45.1322 65.1919 2
45.9864 61.5772 3.98376
44.7667 63.4453 3.98048
43.3563 65.5003 3.98147
41.6631 67.6834 3.98369
39.7021 70.0222 3.98749
41.8599 69.8761 2
42.1109 72.2065 3.99205
43.9725 69.5884 0.0124392
44.3769 71.8619 2
44.8159 74.2794 4
46.6093 71.3669 0.00798018
47.2057 73.7222 2
49.554 73.0099 0
48.7853 4.32303 3.99258
50.9552 5.132 2
51.8506 2.85458 4
53.0645 6.07213 0.00867599
54.0858 3.86728 2
56.25 5.02411 0
61.8291 45.8932 0.0277837
63.1864 42.5329 0.0243782
61.2653 43.6559 0.0227194
62.2533 40.6803 0.0229374
63.7751 39.2603 0.0230131
65.826 37.5011 0.0275571
63.8349 37.4559 2
61.9704 39.3434 2
61.0107 41.9322 2
60.0559 44.7358 2
61.809 37.4438 3.97737
60.0004 39.8263 3.97724
58.7239 42.8768 3.97691
63.9759 35.6362 0.023675
62.788 33.0607 0.0242837
60.429 30.6412 0.0232761
57.9272 17.0034 0.0325114
57.6803 19.5028 0.0391245
57.2722 21.8814 0.0365798
59.4082 27.9462 0.0245097
57.584 25.7718 0.0237849
57.0356 23.9964 0.0321808
55.5236 16.997 0.0280445
53.7437 17.0107 0.0216598
52.9713 15.2921 0.0284392
50.1123 7.28662 0.0134512
52.1691 12.8098 0.0235359
51.2322 10.1306 0.0204746
62.0087 35.3716 2
60.0648 32.7732 2
58.4003 30.1201 2
56.6133 18.1823 2
56.303 20.5561 2
55.9754 22.9236 2
57.09 27.4343 2
56.1196 25.1613 2
48.0567 6.52706 2
49.325 9.33378 2
54.3934 17.9492 2
52.3472 17.0727 2
51.3715 14.5125 2
50.4322 12.0025 2
59.6436 35.1353 3.9771
57.7045 32.3119 3.9766
56.3 29.3983 3.97743
55.2073 26.6711 3.97732
55.3054 19.2202 3.96164
54.7605 24.1242 3.96382
54.9108 21.6119 3.95988
45.9627 5.88306 3.98892
43.3742 7.47443 3.9859
47.3556 8.62602 3.98422
48.5994 11.3013 3.97844
49.7089 13.7565 3.97629
50.623 16.1612 3.9755
53.0964 18.6978 3.9682
51.2807 18.0952 3.97798
51.1677 65.1251 0.0164533
52.0442 62.5322 0.0212262
58.1038 46.8054 0.0257897
52.8267 60.1156 0.0225567
55.4655 58.2318 0.0253376
53.6244 58.4506 0.0209308
57.4531 51.7506 0.0327163
56.0633 49.5073 0.0293501
55.4322 55.7635 0.0366507
55.2704 53.3469 0.0368207
50.3453 63.3767 2
51.2389 60.925 2
54.194 57.2493 2
52.2979 58.61 2
56.4167 44.1259 2
55.2595 47.8405 2
54.9327 51.346 2
53.9433 54.5116 2
49.5901 61.7388 3.98058
55.241 41.6694 3.97584
50.556 59.3116 3.97376
52.152 56.4652 3.96982
53.8598 45.4958 3.97498
53.1251 49.2726 3.96978
52.5639 52.8119 3.96194
48.6177 64.1181 0.0175027
47.961 62.4682 2
47.3266 61.0013 3.98507
43.6308 67.4649 0.016147
45.1321 65.1913 0.0182327
46.3813 63.0461 0.0178588
41.6633 67.6836 2
43.3563 65.5011 2
45.9866 61.5778 2
44.7668 63.446 2
45.7629 60.6213 3.98315
44.4828 61.824 3.98088
43.146 63.7168 3.9798
41.546 65.6377 3.98055
39.6325 67.7625 3.98331
37.526 70.0469 3.98697
39.702 70.0227 2
39.8177 72.4034 3.99185
41.86 69.8755 0.0126425
42.1112 72.2068 2
42.3947 74.6792 4
44.3766 71.8617 0.00801951
44.8159 74.2794 2
47.2057 73.7222 0
43.8519 5.35998 3.98891
46.5712 3.6475 3.99271
48.7856 4.32258 2
49.554 1.99015 4
50.9546 5.13254 0.00803162
51.8506 2.85453 2
54.0858 3.86728 0
60.0568 44.7367 0.0231696
61.0126 41.9328 0.0229256
61.9725 39.3434 0.0229067
63.8371 37.456 0.0234369
61.8075 37.4439 2
59.9997 39.8266 2
58.7229 42.8758 2
59.5018 37.5651 3.97746
57.6789 40.6262 3.97744
54.6649 39.6856 3.97532
62.0106 35.3712 0.0230021
60.0668 32.7729 0.0229383
58.4008 30.1191 0.0230144
56.614 18.1822 0.0333826
56.299 20.5587 0.0400842
55.9727 22.9222 0.0375159
57.0896 27.4331 0.0232336
56.1186 25.1595 0.0263539
54.3929 17.9496 0.0262444
52.3473 17.0735 0.030835
51.3719 14.5171 0.0273108
48.0567 6.52819 0.0115271
49.3246 9.33559 0.0183686
50.4317 12.0041 0.0233278
59.6431 35.1348 2
45.9626 5.88234 2
43.3741 7.47362 2
57.7042 32.3124 2
56.299 29.3996 2
55.3052 19.2208 2
54.9183 21.6114 2
54.7599 24.1264 2
55.2042 26.6735 2
47.3557 8.62412 2
48.5999 11.2992 2
53.0976 18.697 2
51.2816 18.0958 2
50.6235 16.161 2
49.7088 13.7551 2
57.0652 34.7786 3.9774
55.4206 31.5699 3.97696
54.219 28.4857 3.97761
53.5688 25.5821 3.97593
53.9171 20.1786 3.962
53.4586 22.7782 3.95535
41.3994 7.08026 3.98604
45.3604 7.99582 3.98651
42.8663 9.4178 3.98275
46.667 10.6575 3.98132
47.7418 13.1125 3.97824
48.9229 15.4197 3.97319
49.9871 17.7257 3.97499
51.6144 19.3732 3.97671
50.3456 63.3765 0.0178384
51.2395 60.9247 0.0234967
56.4178 44.1268 0.0224739
55.2599 47.8414 0.0260017
52.2983 58.609 0.0245923
54.1942 57.2479 0.0250185
54.9308 51.346 0.0340137
53.9426 54.5103 0.0354577
49.5896 61.7386 2
55.2385 41.6679 2
50.5558 59.3131 2
52.1517 56.4665 2
53.862 45.4957 2
53.1327 49.273 2
52.5639 52.8112 2
48.8425 60.1948 3.97849
52.0846 42.5643 3.98113
49.7671 57.6045 3.9707
50.5231 54.4 3.96286
51.5291 47.204 3.97578
51.0565 50.8989 3.95659
47.7463 43.7006 3.98826
47.9611 62.4684 0.0182134
47.3266 61.0011 2
46.6129 59.7885 3.98556
41.6631 67.6834 0.0163052
43.3563 65.5003 0.0185333
44.7667 63.4453 0.0195222
45.9864 61.5772 0.0162411
39.6329 67.7632 2
41.5458 65.6375 2
45.7629 60.622 2
43.1462 63.7177 2
44.483 61.8247 2
44.6197 60.2811 3.98417
42.9499 62.0705 3.97789
41.5997 63.8096 3.9798
39.6474 65.6044 3.97943
37.5634 67.7439 3.98246
31.6973 65.1239 3.98072
33.3925 67.482 3.98222
35.3339 69.9572 3.98719
37.5259 70.0479 2
37.5095 72.4579 3.9919
39.7021 70.0222 0.0125058
39.8179 72.4037 2
39.9526 74.9197 4
42.1109 72.2065 0.00795417
42.3947 74.6792 2
44.8159 74.2794 0
41.7365 4.96914 3.98909
43.8519 5.35915 2
44.3265 3.11065 3.99304
46.5714 3.64715 2
47.2057 1.27793 4
48.7853 4.32303 0.00742045
49.554 1.99013 2
51.8506 2.85458 0
58.7239 42.8768 0.0230855
60.0004 39.8263 0.0227635
61.809 37.4438 0.0226338
59.5022 37.5655 2
57.6786 40.6267 2
54.6637 39.6864 2
56.4544 37.8852 3.97718
49.1164 41.2707 3.98632
52.6807 39.3064 3.9835
39.4429 6.80409 3.986
59.6436 35.1353 0.022897
57.7045 32.3119 0.0234001
56.3 29.3983 0.0225739
55.3054 19.2202 0.0383608
54.9108 21.6119 0.0401171
54.7605 24.1242 0.0361779
55.2073 26.6711 0.0226769
53.0964 18.6978 0.0318017
51.2807 18.0952 0.0220238
50.623 16.1612 0.0245028
45.9627 5.88306 0.0110783
49.7089 13.7565 0.0237121
47.3556 8.62602 0.0157835
48.5994 11.3013 0.0215649
43.3742 7.47443 0.0141012
57.0646 34.7781 2
41.3994 7.07907 2
45.3602 7.99511 2
42.8661 9.4171 2
55.4235 31.5685 2
54.2192 28.4864 2
53.9184 20.181 2
53.4582 22.7765 2
53.567 25.584 2
46.6671 10.6544 2
47.7422 13.1095 2
51.6162 19.3736 2
49.987 17.7237 2
48.9225 15.4202 2
54.4674 33.9768 3.97598
53.1621 30.5746 3.97756
52.3122 27.3005 3.97574
51.9888 24.1897 3.97734
52.3189 21.112 3.97345
41.0138 9.05178 3.98243
44.7255 9.99601 3.98462
42.4681 10.9043 3.98614
46.0031 12.736 3.97717
47.6737 14.5975 3.97322
48.0943 17.0041 3.97285
49.7952 19.7165 3.97226
49.5901 61.7388 0.0194171
50.556 59.3116 0.026235
55.241 41.6694 0.0241648
53.8598 45.4958 0.0250195
53.1251 49.2726 0.0302187
52.152 56.4652 0.0301803
52.5639 52.8119 0.038065
48.8421 60.1933 2
52.0987 42.5683 2
49.7666 57.6055 2
50.5229 54.4017 2
51.5326 47.2042 2
51.0569 50.8973 2
47.7566 43.7249 2
47.9729 58.7276 3.97893
49.7018 45.2072 3.97883
48.5544 55.8975 3.97555
49.0266 52.5606 3.97748
49.4647 48.9895 3.97394
45.5168 39.8387 3.88073
45.9801 42.572 3.91184
46.1529 45.7356 3.98406
43.3259 41.0902 3.77024
41.8077 41.9728 3.60747
47.3266 61.0013 0.0149287
46.6125 59.7882 2
45.4589 58.7833 3.9828
39.6325 67.7625 0.0166861
41.546 65.6377 0.0194493
43.146 63.7168 0.0201996
44.4828 61.824 0.0191153
45.7629 60.6213 0.0168494
41.5998 63.8098 2
37.5636 67.7448 2
39.6473 65.6051 2
44.6199 60.2817 2
42.9501 62.0713 2
41.7529 62.4813 3.97891
42.478 59.9664 3.9814
39.8938 63.5419 3.97762
37.6422 65.5024 3.98017
35.4636 67.6535 3.98245
33.5756 65.3358 3.97963
31.9592 63.2925 3.98048
29.8835 64.7157 3.98192
31.6972 65.1245 2
31.3771 67.1924 3.98291
33.3926 67.4828 2
33.1572 69.751 3.98705
35.3337 69.958 2
35.1951 72.3723 3.9918
37.526 70.0469 0.0130274
37.5096 72.4584 2
37.5 75 4
39.8177 72.4034 0.00815008
39.9526 74.9197 2
42.3947 74.6792 0
39.6242 4.71668 3.98946
41.7365 4.96822 2
42.0628 2.71812 3.99328
43.8519 5.35998 0.0110894
44.3266 3.11013 2
44.8158 0.721173 4
46.5712 3.6475 0.00729199
47.2057 1.27779 2
49.554 1.99015 0
57.6789 40.6262 0.0225559
59.5018 37.5651 0.0225419
54.6649 39.6856 0.0246784
49.1386 41.2843 2
56.4555 37.8855 2
52.6796 39.2937 2
53.5258 36.6314 3.97732
47.0411 40.3619 3.91797
50.0576 38.5231 3.99066
37.5169 6.67536 3.98591
39.4429 6.80275 2
39.2112 8.69482 3.98332
35.9427 8.49508 3.98392
57.0652 34.7786 0.0225988
55.4206 31.5699 0.0230383
54.219 28.4857 0.0223856
53.9171 20.1786 0.0380002
53.4586 22.7782 0.0446504
53.5688 25.5821 0.0240651
51.6144 19.3732 0.0232851
49.9871 17.7257 0.0250142
48.9229 15.4197 0.0268057
45.3604 7.99582 0.0134888
47.7418 13.1125 0.0217575
46.667 10.6575 0.0186835
41.3994 7.08026 0.0139553
42.8663 9.4178 0.0172534
54.464 33.9793 2
41.0139 9.05072 2
44.7247 9.99548 2
42.4679 10.9043 2
53.1596 30.5743 2
52.32 27.3019 2
52.3223 21.1126 2
51.99 24.193 2
46.003 12.7313 2
47.6735 14.5943 2
49.7973 19.7162 2
48.0932 17.0023 2
52.0102 32.8908 3.98014
50.9592 29.2616 3.97533
50.565 25.8238 3.97307
49.8715 22.307 3.9832
40.5687 11.6115 3.98079
43.8575 11.9164 3.98014
45.793 15.436 3.98164
47.4864 19.3291 3.97724
45.9068 37.4826 3.87789
48.8425 60.1948 0.0215126
49.7671 57.6045 0.0292958
52.0846 42.5643 0.0188728
51.5291 47.204 0.024216
51.0565 50.8989 0.0434072
50.5231 54.4 0.0371447
47.7463 43.7006 0.0117445
47.9723 58.7292 2
49.7148 45.2172 2
48.553 55.8999 2
49.0256 52.5647 2
49.4678 48.9864 2
45.5611 39.8491 2
46.005 42.5981 2
46.1596 45.7423 2
43.3516 41.119 2
41.8278 41.9911 2
46.8159 57.3298 3.98114
44.0779 39.3788 3.76882
42.1611 40.8483 3.66013
47.787 47.2002 3.97929
47.1044 54.2119 3.97082
47.4478 50.7133 3.96901
44.5575 47.3361 3.97647
44.6306 41.9085 3.85985
44.6281 44.4692 3.92794
42.2361 42.5854 3.78293
40.7475 42.2957 3.64556
46.6129 59.7885 0.0144376
45.4594 58.7836 2
43.8634 57.6991 3.98163
37.5634 67.7439 0.017541
39.6474 65.6044 0.0205714
41.5997 63.8096 0.0202021
42.9499 62.0705 0.0221115
44.6197 60.2811 0.0158288
35.4638 67.6545 2
41.7531 62.4819 2
39.8935 63.5425 2
37.6422 65.5033 2
42.4785 59.967 2
40.6231 61.6356 3.98051
40.4402 58.1887 3.97937
37.8369 63.2028 3.97825
35.573 65.4247 3.97974
33.5755 65.3365 2
31.959 63.2931 2
33.6285 63.3302 3.97877
30.3786 62.8522 3.98132
32.1238 61.9967 3.98373
26.8711 61.4928 3.97871
28.0625 64.1441 3.98145
29.8834 64.7163 2
29.4066 66.7566 3.9836
31.6973 65.1239 0.0192751
31.3772 67.1931 2
31.0147 69.4161 3.98697
33.3925 67.482 0.0177766
33.157 69.7517 2
32.8922 72.1467 3.9919
35.3339 69.9572 0.0128079
35.1949 72.3728 2
35.0474 74.9194 4
37.5095 72.4579 0.00810067
37.5 75 2
39.9526 74.9197 0
35.6215 6.72651 3.9855
37.5237 4.61617 3.98956
39.6242 4.71552 2
39.7893 2.47467 3.99325
41.7365 4.96914 0.0109056
42.0629 2.71759 2
42.3946 0.32156 4
44.3265 3.11065 0.00696284
44.8159 0.72056 2
47.2057 1.27793 0
49.1164 41.2707 0.0136798
56.4544 37.8852 0.0228217
52.6807 39.3064 0.0165037
47.0622 40.3611 2
50.0644 38.5111 2
53.5318 36.6364 2
50.8456 35.5797 3.97609
47.7091 37.7541 3.93329
45.518 35.1484 3.87767
43.3324 33.8959 3.7643
41.8082 33.0242 3.60339
37.4584 8.53662 3.98416
37.5168 6.67417 2
39.4429 6.80409 0.0139981
39.2115 8.69324 2
38.9763 10.1296 3.98365
35.899 9.77688 3.98141
34.1517 8.82576 3.98274
35.9423 8.49355 2
54.4674 33.9768 0.024018
53.1621 30.5746 0.0224352
52.3122 27.3005 0.0242581
52.3189 21.112 0.0265531
51.9888 24.1897 0.0226613
49.7952 19.7165 0.0277443
48.0943 17.0041 0.0271517
47.6737 14.5975 0.0267801
44.7255 9.99601 0.0153819
46.0031 12.736 0.0228251
41.0138 9.05178 0.0175651
42.4681 10.9043 0.0138571
52.0167 32.8902 2
40.5696 11.6116 2
43.8564 11.9167 2
50.9772 29.2623 2
50.5698 25.8262 2
49.8729 22.3044 2
45.7915 15.4241 2
47.4878 19.3329 2
49.5559 31.4878 3.98692
48.9914 27.5951 3.97492
49.246 24.5018 3.97786
47.1489 22.0739 3.98363
38.3022 12.7419 3.97793
42.0995 14.3068 3.97887
44.7883 18.5187 3.97783
44.4277 37.4912 3.77857
45.9756 37.4905 2
47.9729 58.7276 0.0210714
48.5544 55.8975 0.0244543
49.7018 45.2072 0.0211664
49.4647 48.9895 0.0260567
49.0266 52.5606 0.0225181
45.5168 39.8387 0.11927
45.9801 42.572 0.0881642
46.1529 45.7356 0.0159406
43.3259 41.0902 0.229759
41.8077 41.9728 0.392527
46.8147 57.3309 2
44.1141 39.4004 2
42.1552 40.8584 2
47.7918 47.2007 2
47.1026 54.2161 2
47.4503 50.717 2
44.5696 47.3149 2
44.656 41.9325 2
44.6522 44.489 2
42.2844 42.6171 2
40.7582 42.2942 2
45.3635 55.9182 3.98941
42.4846 39.2639 3.67181
40.63 40.7368 3.76441
45.8979 48.8692 3.99045
45.4417 52.4994 3.983
43.2623 48.3433 3.99819
43.1973 46.0052 3.90934
43.3661 43.6883 3.85799
40.8894 43.6954 3.76559
39.2461 42.586 3.65974
45.4589 58.7833 0.0171952
43.8637 57.7002 2
42.0911 56.3083 3.98354
35.4636 67.6535 0.0175495
37.6422 65.5024 0.0198286
39.8938 63.5419 0.0223759
41.7529 62.4813 0.0210877
42.478 59.9664 0.0185957
35.5731 65.4259 2
40.6233 61.6365 2
37.8364 63.2035 2
40.4406 58.1903 2
38.9188 56.4805 3.99052
38.2508 60.3175 3.97896
35.6067 63.1957 3.97666
33.5756 65.3358 0.02037
31.9592 63.2925 0.0195194
33.6284 63.3311 2
30.3785 62.8526 2
32.1242 61.9976 2
28.682 62.1975 3.98085
33.3457 61.5061 3.98039
31.069 61.2142 3.98065
27.5756 59.5865 3.98086
23.8015 59.0734 3.97867
25.0377 60.8657 3.97904
26.8714 61.4933 2
26.2298 63.4744 3.98041
28.0625 64.1443 2
27.4633 66.1808 3.9838
29.8835 64.7157 0.0180771
29.4067 66.7571 2
28.9071 68.9422 3.98679
31.3771 67.1924 0.0170852
31.0146 69.4168 2
30.6146 71.7777 3.9917
33.1572 69.751 0.0129458
32.8919 72.1471 2
32.6054 74.6784 4
35.1951 72.3723 0.00819738
35.0474 74.9197 2
37.5 75 0
33.7244 6.98189 3.9848
35.4356 4.68645 3.98942
35.6213 6.72549 2
37.5149 2.38717 3.99326
37.5236 4.61533 2
39.6242 4.71668 0.0105422
39.7892 2.47403 2
39.9526 0.0806499 4
42.0628 2.71812 0.00672241
42.3947 0.320817 2
44.8158 0.721173 0
44.0892 35.6009 3.76657
42.164 34.1412 3.65478
47.0411 40.3619 0.0820271
50.0576 38.5231 0.00933509
53.5258 36.6314 0.0226807
47.7088 37.7551 2
50.8584 35.5754 2
45.5542 35.1241 2
43.3631 33.8656 2
41.829 33.0049 2
47.877 34.3049 3.96058
44.6314 33.0635 3.85384
42.2386 32.4111 3.77624
40.7493 32.705 3.64243
37.3108 10.6342 3.98102
37.4584 8.53491 2
37.5169 6.67536 0.0140882
39.2112 8.69482 0.016676
38.9774 10.1282 2
34.7548 10.3847 3.98134
35.8994 9.77426 2
32.3787 9.37335 3.98045
34.1508 8.82373 2
35.9427 8.49508 0.0160807
52.0102 32.8908 0.0198641
50.9592 29.2616 0.0246651
50.565 25.8238 0.0269268
49.8715 22.307 0.0168034
47.4864 19.3291 0.0227595
45.793 15.436 0.0183622
43.8575 11.9164 0.0198598
40.5687 11.6115 0.0192126
49.5704 31.4848 2
38.3024 12.7401 2
42.1002 14.3101 2
48.9987 27.5963 2
49.25 24.4996 2
47.1454 22.0664 2
44.7885 18.5377 2
47.3947 29.5929 3.98353
46.9343 25.2478 3.97921
44.2636 21.454 3.97754
36.5831 12.9411 3.97601
38.6829 14.8225 3.97586
41.7453 17.8808 3.97865
42.6047 37.4844 3.6877
44.4614 37.4902 2
45.9068 37.4826 0.12211
46.8159 57.3298 0.0188645
47.1044 54.2119 0.0291779
47.787 47.2002 0.0207086
47.4478 50.7133 0.0309856
44.0779 39.3788 0.231178
44.6306 41.9085 0.140146
44.6281 44.4692 0.072062
44.5575 47.3361 0.0235345
42.2361 42.5854 0.217065
42.1611 40.8483 0.339874
40.7475 42.2957 0.354437
45.3622 55.9176 2
42.4765 39.2634 2
40.6262 40.7223 2
45.8997 48.877 2
45.4408 52.5059 2
43.2677 48.3619 2
43.2344 46.0351 2
43.4015 43.7155 2
40.9224 43.7395 2
39.2439 42.5854 2
43.6943 54.4131 3.997
40.7268 39.1392 3.78184
39.1128 40.8043 3.76209
43.564 50.4065 4.00454
41.862 47.5481 3.94611
41.769 45.1002 3.87311
39.3355 44.3726 3.76769
37.5055 42.6811 3.68389
43.8634 57.6991 0.0183713
42.0912 56.3094 2
40.4029 54.8941 3.98225
35.573 65.4247 0.0202559
37.8369 63.2028 0.0217514
40.6231 61.6356 0.019489
40.4402 58.1887 0.0206315
35.6065 63.1965 2
38.2511 60.3183 2
38.919 56.4814 2
37.9948 55.2161 3.99116
36.9338 57.6143 3.98387
35.3635 60.9013 3.97657
33.6285 63.3302 0.0212283
30.3786 62.8522 0.0186792
32.1238 61.9967 0.016273
33.3463 61.5071 2
28.6822 62.1975 2
31.0695 61.2149 2
29.4074 60.2833 3.97893
32.3612 59.7367 3.98857
28.037 58.3678 3.99019
27.5765 59.5871 2
25.3903 58.5874 3.97739
22.7709 58.2275 3.96957
23.4054 60.3426 3.97919
23.8021 59.0744 2
25.0381 60.8665 2
24.4332 62.7659 3.98055
26.8711 61.4928 0.0212856
26.2299 63.4751 2
25.5477 65.49 3.9827
28.0625 64.1441 0.0185524
27.4634 66.1813 2
26.8366 68.3305 3.98679
29.4066 66.7566 0.0163959
28.907 68.9424 2
28.3696 71.263 3.9917
31.0147 69.4161 0.0130261
30.6141 71.778 2
30.1842 74.2788 4
32.8922 72.1467 0.00810268
32.6053 74.6792 2
35.0474 74.9194 0
31.7889 7.422 3.98356
33.348 4.92601 3.98884
33.724 6.98036 2
35.2451 2.46321 3.99316
35.4354 4.68583 2
35.6215 6.72651 0.0145036
37.5 0 4
37.5146 2.38672 2
37.5237 4.61617 0.0104365
39.7893 2.47467 0.00674791
39.9526 0.0802889 2
42.3946 0.32156 0
42.4743 35.7105 3.67041
44.125 35.5792 2
40.6351 34.2598 3.7629
42.1546 34.1317 2
47.7091 37.7541 0.066712
50.8456 35.5797 0.0239119
45.518 35.1484 0.122329
43.3324 33.8959 0.235697
41.8082 33.0242 0.396612
47.8941 34.3014 2
44.6591 33.045 2
42.2912 32.3755 2
40.7616 32.7059 2
45.9072 31.6405 3.93232
43.3598 31.3104 3.85921
40.8887 31.3049 3.76749
39.246 32.4252 3.65854
35.6934 11.782 3.97943
37.3123 10.6317 2
37.4584 8.53662 0.015836
38.9763 10.1296 0.0163542
33.0995 11.2237 3.97702
34.7543 10.3813 2
35.899 9.77688 0.0185921
30.4838 10.0233 3.98007
32.3778 9.37259 2
34.1517 8.82576 0.0172619
49.5559 31.4878 0.0130779
48.9914 27.5951 0.0250841
49.246 24.5018 0.0221371
47.1489 22.0739 0.0163739
44.7883 18.5187 0.0221721
42.0995 14.3068 0.021129
38.3022 12.7419 0.0220728
36.5823 12.9352 2
47.408 29.5677 2
38.6817 14.8146 2
41.743 17.8798 2
46.9418 25.248 2
44.2592 21.4384 2
45.2753 27.72 4.00241
43.7005 24.1695 4.0095
41.3236 20.8417 3.97991
35.7737 14.7754 3.97726
38.6819 17.625 3.97848
40.7782 37.478 3.79222
42.6024 37.4867 2
44.4277 37.4912 0.221428
45.3635 55.9182 0.0105889
45.4417 52.4994 0.0170003
45.8979 48.8692 0.00955097
42.4846 39.2639 0.32819
43.3661 43.6883 0.142006
43.1973 46.0052 0.0906606
43.2623 48.3433 0.00181239
40.8894 43.6954 0.234413
40.63 40.7368 0.235594
39.2461 42.586 0.340262
43.6918 54.4127 2
40.7109 39.1333 2
39.1149 40.787 2
43.5633 50.4236 2
41.8536 47.5697 2
41.7913 45.1327 2
37.5031 42.6838 2
39.3521 44.4114 2
41.845 52.9508 3.99515
39.1316 39.1518 3.78294
37.5054 40.8538 3.77665
35.7671 42.5937 3.66124
40.857 49.6017 3.9971
39.7967 45.9352 3.84969
37.5041 44.6034 3.76541
42.0911 56.3083 0.0164611
40.4 54.9042 2
38.7215 53.7743 3.99687
35.6067 63.1957 0.0233378
38.2508 60.3175 0.0210428
38.9188 56.4805 0.00947689
35.3638 60.9011 2
36.9345 57.6154 2
37.994 55.2066 2
36.3247 55.2926 3.99873
34.4895 58.5067 3.98539
33.3457 61.5061 0.0196118
28.682 62.1975 0.0191469
31.069 61.2142 0.0193493
32.3619 59.7381 2
29.4083 60.2832 2
30.3145 57.8121 3.98436
28.0378 58.3683 2
26.9722 56.8207 3.97539
27.5756 59.5865 0.0191449
25.3912 58.5884 2
23.8661 56.7877 3.9623
21.3536 57.3798 3.96811
22.0015 59.6119 3.97705
22.7714 58.2292 2
22.7381 62.0159 3.97816
23.406 60.3434 2
23.8015 59.0734 0.021326
25.0377 60.8657 0.0209632
24.4334 62.7667 2
23.682 64.7071 3.9821
26.2298 63.4744 0.0195876
25.5477 65.4909 2
24.8088 67.5916 3.98639
27.4633 66.1808 0.016201
26.8366 68.3312 2
26.1647 70.6037 3.99173
28.9071 68.9422 0.0132103
28.3691 71.2631 2
27.7943 73.7221 4
30.6146 71.7777 0.00830307
30.1841 74.2794 2
32.6054 74.6784 0
29.8116 7.99674 3.9825
31.2534 5.33301 3.98792
31.7884 7.42097 2
32.9809 2.70151 3.99285
33.3476 4.92494 2
33.7244 6.98189 0.0152006
35.0474 0.080333 4
35.2448 2.46292 2
35.4356 4.68645 0.010583
37.5 0 2
37.5149 2.38717 0.0067432
39.9526 0.0806499 0
40.732 35.8314 3.77943
42.4665 35.7135 2
44.0892 35.6009 0.233432
28.5444 10.6987 3.97891
39.1085 34.2054 3.76151
40.626 34.2741 2
42.164 34.1412 0.345216
47.877 34.3049 0.0394248
44.6314 33.0635 0.146161
42.2386 32.4111 0.223759
40.7493 32.705 0.357566
45.9362 31.6231 2
43.3941 31.2784 2
40.9253 31.2605 2
39.2493 32.4268 2
44.1769 29.8362 3.92632
41.7631 29.899 3.87159
39.3395 30.6329 3.76648
37.5085 32.3387 3.68352
34.0945 12.9451 3.97565
35.693 11.776 2
37.3108 10.6342 0.0189792
31.188 11.994 3.97798
33.0996 11.2227 2
34.7548 10.3847 0.0186573
30.4824 10.0206 2
32.3787 9.37335 0.0195511
47.3947 29.5929 0.0164694
46.9343 25.2478 0.020786
36.5831 12.9411 0.023989
44.2636 21.454 0.0224638
41.7453 17.8808 0.0213484
38.6829 14.8225 0.0241353
35.7744 14.781 2
45.28 27.7197 2
38.6794 17.6267 2
41.3185 20.8337 2
43.7041 24.1608 2
33.611 15.8939 3.97718
42.887 26.5714 3.9937
40.8587 23.41 4.00856
38.4122 20.4033 3.98465
35.8523 17.5293 3.97961
39.1362 37.4893 3.80665
40.7641 37.4781 2
42.6047 37.4844 0.312297
43.6943 54.4131 0.0029954
43.564 50.4065 -0.00454183
40.7268 39.1392 0.21816
41.769 45.1002 0.126891
41.862 47.5481 0.0538904
39.3355 44.3726 0.232308
39.1128 40.8043 0.237908
37.5055 42.6811 0.316108
41.8417 52.9482 2
39.1216 39.1397 2
37.5049 40.8318 2
40.8603 49.6172 2
35.7635 42.5927 2
39.8153 45.9752 2
37.4971 44.6374 2
39.7854 51.8145 4.00093
37.5021 39.1618 3.81072
35.8999 40.8177 3.76256
34.2633 42.3069 3.64278
35.6718 44.3851 3.76377
38.6688 48.5811 3.96046
37.5177 46.2291 3.86711
40.4029 54.8941 0.0177454
38.7216 53.7673 2
36.7451 53.1107 3.99864
35.3635 60.9013 0.0234333
36.9338 57.6143 0.0161271
37.9948 55.2161 0.00884471
34.4899 58.5062 2
36.3252 55.2945 2
33.2481 55.4779 3.99358
32.3612 59.7367 0.0114254
29.4074 60.2833 0.0210686
30.3156 57.812 2
28.7337 55.3083 3.97928
28.037 58.3678 0.00980732
26.9726 56.8214 2
25.3581 55.1264 3.96862
21.8458 55.3277 3.96432
25.3903 58.5874 0.0226127
23.8662 56.7902 2
20.2399 57.0086 3.97063
20.656 58.7634 3.97194
21.3536 57.3813 2
21.1705 61.1625 3.97693
22.002 59.6128 2
22.7709 58.2275 0.0304253
21.8959 63.8342 3.98075
22.7385 62.0166 2
23.4054 60.3426 0.0208098
24.4332 62.7659 0.019445
23.6821 64.7079 2
22.8372 66.7346 3.98541
25.5477 65.49 0.0173004
24.8088 67.5926 2
24.0089 69.8048 3.99178
26.8366 68.3305 0.013209
26.1642 70.6039 2
25.446 73.0099 4
28.3696 71.263 0.00830074
27.7943 73.7222 2
30.1842 74.2788 0
27.8214 8.65634 3.98214
29.1557 5.87936 3.98675
29.8107 7.99458 2
30.7262 3.09853 3.99257
31.253 5.3321 2
31.7889 7.422 0.0164394
32.6053 0.320823 4
32.9805 2.70099 2
33.348 4.92601 0.0111619
35.0474 0.0802903 2
35.2451 2.46321 0.00684017
37.5 0 0
39.13 35.8388 3.7839
40.7142 35.8365 2
42.4743 35.7105 0.329586
28.5432 10.6977 2
26.6228 11.3949 3.9788
29.2271 12.65 3.97885
37.5014 34.1682 3.77545
39.1112 34.2241 2
40.6351 34.2598 0.237105
45.9072 31.6405 0.0676797
43.3598 31.3104 0.140788
40.8887 31.3049 0.23251
39.246 32.4252 0.341458
44.1805 29.8253 2
41.7816 29.8704 2
39.3501 30.5936 2
37.5103 32.3353 2
42.2161 28.5015 3.8975
39.798 29.0605 3.8706
37.5105 30.4121 3.76484
35.7724 32.4259 3.65956
31.9177 14.4943 3.97742
34.0952 12.9454 2
35.6934 11.782 0.0205659
31.187 11.99 2
33.0995 11.2237 0.0229783
30.4838 10.0233 0.0199315
45.2753 27.72 -0.0024121
43.7005 24.1695 -0.00949962
35.7737 14.7754 0.0227449
41.3236 20.8417 0.0200872
38.6819 17.625 0.0215178
33.6094 15.8892 2
35.8488 17.532 2
42.896 26.573 2
38.4094 20.4029 2
40.8528 23.3948 2
33.5557 17.4037 3.97838
40.3183 25.7765 3.98315
38.0659 23.0692 3.99851
35.5836 20.116 3.98267
37.5005 37.4999 3.82922
39.1272 37.4883 2
40.7782 37.478 0.207784
41.845 52.9508 0.00484833
40.857 49.6017 0.00289599
39.1316 39.1518 0.217065
39.7967 45.9352 0.150305
37.5041 44.6034 0.234595
37.5054 40.8538 0.223346
35.7671 42.5937 0.338764
39.7852 51.8171 2
37.5025 39.1485 2
35.8979 40.801 2
38.6819 48.6235 2
34.2522 42.3061 2
35.654 44.4258 2
37.5207 46.2704 2
37.6593 50.8748 4.00109
35.8778 39.1695 3.78391
34.3826 40.7581 3.76343
33.1985 41.9852 3.60681
34.109 43.6976 3.76651
35.1914 45.9332 3.86303
36.9151 48.2033 3.92924
38.7215 53.7743 0.00313213
36.7404 53.1131 2
34.401 52.4189 3.99653
34.4895 58.5067 0.0146094
36.3247 55.2926 0.00126554
33.2486 55.4813 2
30.5665 53.3361 3.9836
30.3145 57.8121 0.0156374
28.7341 55.3098 2
26.9541 53.4219 3.97218
26.9722 56.8207 0.024611
25.3582 55.1302 2
23.6532 53.4567 3.95853
20.5617 53.1913 3.9617
19.9631 55.8099 3.96555
21.8444 55.3292 2
23.8661 56.7877 0.0376982
19.4527 57.8701 3.97117
20.2395 57.01 2
19.7122 60.1892 3.9755
20.6562 58.7639 2
21.3536 57.3798 0.0318919
20.2091 62.8539 3.97773
21.1711 61.1644 2
22.0015 59.6119 0.0229452
20.9385 65.7632 3.98435
21.896 63.8351 2
22.7381 62.0159 0.0218356
23.682 64.7071 0.0179023
22.8372 66.7353 2
21.9114 68.8718 3.99141
24.8088 67.5916 0.0136097
24.0082 69.805 2
23.1494 72.1454 4
26.1647 70.6037 0.00827313
25.446 73.0099 2
27.7943 73.7221 0
25.8606 9.38525 3.98114
27.0704 6.5434 3.98569
27.8205 8.65541 2
28.4885 3.64459 3.99201
29.155 5.87798 2
29.8116 7.99674 0.0174967
30.1841 0.720592 4
30.7256 3.09815 2
31.2534 5.33301 0.0120792
32.6053 0.320817 2
32.9809 2.70151 0.00715248
35.0474 0.080333 0
37.5014 35.8444 3.80963
39.1177 35.8486 2
40.732 35.8314 0.220568
24.7779 12.0805 3.97859
23.7538 14.3704 3.97678
28.5444 10.6987 0.0210857
26.622 11.3947 2
29.2262 12.6489 2
27.2934 13.3834 3.97818
29.784 14.2122 3.97846
35.8958 34.2046 3.76103
37.5034 34.1896 2
39.1085 34.2054 0.238488
37.5085 32.3387 0.316477
44.1769 29.8362 0.0736769
41.7631 29.899 0.128415
39.3395 30.6329 0.233519
42.2367 28.4708 2
39.8106 29.0238 2
37.5143 30.3754 2
35.771 32.4267 2
39.9796 27.6994 3.90249
37.5009 28.7791 3.867
35.6785 30.6446 3.76969
34.2727 32.7116 3.64294
30.9312 16.8559 3.97814
31.9167 14.4874 2
34.0945 12.9451 0.0243473
31.188 11.994 0.022024
42.887 26.5714 0.00629821
40.8587 23.41 -0.00855778
33.611 15.8939 0.0228237
35.8523 17.5293 0.0203892
38.4122 20.4033 0.0153546
33.5509 17.4161 2
35.5839 20.1193 2
40.3253 25.7605 2
38.0548 23.0581 2
32.8702 19.8087 3.98901
37.7744 25.3753 3.99525
35.1941 22.7851 3.99429
35.8652 37.5039 3.80762
37.5002 37.5 2
39.1362 37.4893 0.193347
39.7854 51.8145 -0.000933858
38.6688 48.5811 0.0395419
37.5021 39.1618 0.189279
37.5177 46.2291 0.132891
35.6718 44.3851 0.236231
35.8999 40.8177 0.237444
34.2633 42.3069 0.357222
37.6484 50.8966 2
35.8899 39.1577 2
34.3856 40.7448 2
36.8925 48.2468 2
33.1779 42.0025 2
34.0814 43.7391 2
35.1767 45.9656 2
35.5155 50.0426 3.99101
34.2855 39.1685 3.78151
32.8409 40.8661 3.65717
32.7673 42.5995 3.77862
33.2439 45.1035 3.86896
34.3529 47.3061 3.90389
36.7451 53.1107 0.00136185
34.395 52.4253 2
32.0872 51.1517 4.01255
33.2481 55.4779 0.00642167
30.5666 53.3404 2
28.517 51.5573 3.98478
28.7337 55.3083 0.0207228
26.9537 53.4253 2
25.1895 51.7085 3.95604
25.3581 55.1264 0.0313807
23.6524 53.4593 2
22.0949 51.7646 3.95427
19.3449 51.5964 3.96228
18.977 54.2821 3.96282
20.5611 53.1906 2
18.4688 56.703 3.9672
19.9619 55.8113 2
21.8458 55.3277 0.0356843
18.3776 59.0925 3.96945
19.4524 57.8711 2
20.2399 57.0086 0.0293659
18.6219 61.7556 3.97449
19.7129 60.1905 2
20.656 58.7634 0.028056
19.1277 64.6726 3.98302
20.2092 62.8552 2
21.1705 61.1625 0.0230675
19.8857 67.8085 3.9913
20.9385 65.764 2
21.8959 63.8342 0.0192512
22.8372 66.7346 0.0145913
21.9107 68.8717 2
20.9142 71.1327 4
24.0089 69.8048 0.00822141
23.1494 72.1455 2
25.446 73.0099 0
23.0974 12.7964 3.97804
23.9731 10.1737 3.98016
25.024 7.3141 3.98464
25.8597 9.38475 2
26.2803 4.32869 3.99149
27.0696 6.54269 2
27.8214 8.65634 0.017858
27.7943 1.27781 4
28.4876 3.64417 2
29.1557 5.87936 0.0132477
30.1841 0.720551 2
30.7262 3.09853 0.00743257
32.6053 0.320823 0
35.8688 35.8423 3.78132
37.5023 35.8581 2
39.13 35.8388 0.216104
24.7771 12.0793 2
23.7543 14.371 2
22.4833 15.0482 3.97856
25.3597 13.9189 3.97664
24.0312 15.6341 3.97939
26.6228 11.3949 0.0212027
29.2271 12.65 0.0211511
27.2934 13.3837 2
29.7819 14.2105 2
28.3625 15.9877 3.9779
34.3836 34.2681 3.76219
35.8935 34.2226 2
37.5014 34.1682 0.224555
35.7724 32.4259 0.340438
37.5105 30.4121 0.235163
42.2161 28.5015 0.102497
39.798 29.0605 0.129397
39.9977 27.6689 2
37.5012 28.7405 2
35.6624 30.6 2
34.2583 32.7144 2
37.5746 27.4144 3.91431
35.2009 29.0766 3.86926
34.1187 31.3193 3.76639
33.2136 33.0349 3.60556
30.2174 19.3736 3.98092
30.9291 16.8486 2
31.9177 14.4943 0.0225766
40.3183 25.7765 0.016854
38.0659 23.0692 0.00149161
33.5557 17.4037 0.021616
35.5836 20.116 0.0173259
32.868 19.8219 2
35.1887 22.7735 2
37.775 25.3627 2
32.3213 22.5064 3.99642
35.0241 25.3355 4.00039
34.2274 37.5122 3.7933
35.8746 37.5049 2
37.5005 37.4999 0.170783
37.6593 50.8748 -0.00109314
36.9151 48.2033 0.0707574
35.8778 39.1695 0.216092
35.1914 45.9332 0.136974
34.109 43.6976 0.233492
34.3826 40.7581 0.236569
33.1985 41.9852 0.39319
35.504 50.0475 2
34.3032 39.1631 2
32.8459 40.8736 2
34.3448 47.3467 2
32.7291 42.6308 2
33.2266 45.1333 2
33.3376 49.0502 3.9821
32.5225 39.2908 3.67286
31.6682 41.1071 3.76777
31.638 43.6975 3.86021
32.4181 46.2508 3.90255
34.401 52.4189 0.00347344
32.0883 51.1619 2
29.9976 49.6829 3.99016
30.5665 53.3361 0.0164031
28.5156 51.5551 2
26.6545 49.9354 3.96964
26.9541 53.4219 0.0278234
25.1881 51.7064 2
23.5046 50.1364 3.96392
23.6532 53.4567 0.0414676
22.0941 51.7628 2
20.6374 50.2666 3.9649
18.1521 50.2905 3.96788
17.9446 52.7595 3.96422
19.3434 51.5957 2
17.4731 55.3191 3.96279
18.9735 54.2823 2
20.5617 53.1913 0.0383041
17.1481 57.8548 3.9662
18.468 56.7033 2
19.9631 55.8099 0.0344526
17.1405 60.5327 3.97254
18.3776 59.0936 2
19.4527 57.8701 0.0288291
17.4091 63.4633 3.97851
18.6223 61.7566 2
19.7122 60.1892 0.0244985
17.9422 66.617 3.99041
19.1275 64.6737 2
20.2091 62.8539 0.0222746
18.75 69.9759 4
19.8848 67.8082 2
20.9385 65.7632 0.0156507
21.9114 68.8718 0.00859082
20.9142 71.1327 2
23.1494 72.1454 0
21.5889 13.6182 3.97779
22.1912 11.0341 3.97912
23.0974 12.7969 2
23.0418 8.18061 3.98367
23.9723 10.1726 2
24.1179 5.14348 3.99096
25.0232 7.31345 2
25.8606 9.38525 0.018859
25.446 1.99014 4
26.2791 4.32869 2
27.0704 6.5434 0.0143142
27.7943 1.27778 2
28.4885 3.64459 0.00798771
30.1841 0.720592 0
34.2805 35.8532 3.78139
35.8795 35.854 2
37.5014 35.8444 0.190371
21.3111 15.8454 3.98092
24.7779 12.0805 0.0214131
23.7538 14.3704 0.0232157
25.3598 13.9172 2
22.4841 15.0483 2
24.0316 15.6359 2
23.2727 16.2649 3.9754
25.3873 16.1045 3.97907
27.2934 13.3834 0.0218177
29.784 14.2122 0.0215449
28.3599 15.9915 2
27.4487 18.8259 3.97904
32.848 34.1558 3.65814
34.3907 34.2826 2
35.8958 34.2046 0.238969
34.2727 32.7116 0.357065
35.6785 30.6446 0.230312
37.5009 28.7791 0.133005
39.9796 27.6994 0.0975079
37.5781 27.3778 2
33.1922 33.0179 2
35.1939 29.0322 2
34.0819 31.2714 2
35.0972 27.5302 3.91295
33.2405 29.9124 3.86662
32.7819 32.4139 3.76539
29.6115 21.9722 3.99579
30.2162 19.3862 2
30.9312 16.8559 0.021856
37.7744 25.3753 0.00475009
35.1941 22.7851 0.00571343
32.8702 19.8087 0.0109883
32.3208 22.4969 2
35.043 25.323 2
31.8092 25.7332 4.00789
32.387 37.5135 3.6903
34.2462 37.512 2
35.8652 37.5039 0.192381
35.5155 50.0426 0.00899423
34.3529 47.3061 0.0961062
34.2855 39.1685 0.218487
33.2439 45.1035 0.131039
32.7673 42.5995 0.221381
32.8409 40.8661 0.342832
33.3295 49.0509 2
32.537 39.2899 2
31.6359 41.1337 2
32.3853 46.2837 2
31.6057 43.7254 2
31.3212 47.8892 3.98462
30.9174 39.4019 3.76827
30.3682 41.9398 3.85555
30.6683 44.8549 3.92395
32.0872 51.1517 -0.0125488
29.9969 49.6923 2
28.0817 48.1204 3.96058
28.517 51.5573 0.0152154
26.6535 49.9334 2
24.861 48.4041 3.97213
25.1895 51.7085 0.0439647
23.5042 50.1342 2
21.8837 48.7276 3.96974
22.0949 51.7646 0.0457313
20.6355 50.2655 2
19.2279 49.0457 3.97204
17.0471 49.296 3.97312
16.8947 51.3753 3.96696
18.1541 50.2893 2
16.45 53.8471 3.96447
17.9426 52.7592 2
19.3449 51.5964 0.0377234
15.9936 56.4592 3.96541
17.4702 55.3197 2
18.977 54.2821 0.0371842
15.7571 59.1956 3.96899
17.1481 57.8555 2
18.4688 56.703 0.0328008
15.7907 62.1297 3.97339
17.141 60.5344 2
18.3776 59.0925 0.0305478
16.0894 65.2993 3.98912
17.4087 63.465 2
18.6219 61.7556 0.0255144
16.6661 68.6801 4
17.9411 66.6165 2
19.1277 64.6726 0.0169801
18.75 69.9759 2
19.8857 67.8085 0.00870346
20.9142 71.1327 0
20.2225 14.6093 3.9762
21.5892 13.6183 2
20.5308 12.0055 3.9784
21.1445 9.151 3.98287
22.1908 11.0342 2
23.0974 12.7964 0.0219588
22.017 6.08271 3.99034
23.0409 8.17964 2
23.9731 10.1737 0.0198424
23.1494 2.85457 4
24.1166 5.14363 2
25.024 7.3141 0.0153577
25.446 1.99012 2
26.2803 4.32869 0.00850699
27.7943 1.27781 0
32.5145 35.7333 3.66917
34.2992 35.861 2
35.8688 35.8423 0.218683
21.312 15.8448 2
20.3125 16.9777 3.98014
22.105 16.6514 3.97237
25.3597 13.9189 0.0233575
22.4833 15.0482 0.0214354
24.0312 15.6341 0.0206131
25.3869 16.1039 2
23.2733 16.2654 2
24.2145 18.4828 3.97345
27.052 21.4949 3.99197
28.3625 15.9877 0.0220956
27.4494 18.8239 2
31.6841 33.9229 3.76455
32.8552 34.1454 2
34.3836 34.2681 0.237813
33.2136 33.0349 0.394439
34.1187 31.3193 0.233611
35.2009 29.0766 0.130741
37.5746 27.4144 0.0856859
35.0951 27.4887 2
32.7135 32.3822 2
33.2265 29.8929 2
32.678 28.2362 3.9238
31.638 31.3304 3.86036
28.919 24.4553 3.98242
29.6058 21.9835 2
30.2174 19.3736 0.019077
35.0241 25.3355 -0.000391138
32.3213 22.5064 0.0035821
31.8107 25.7107 2
29.8222 27.3875 3.97491
30.5601 37.5095 3.77699
32.3991 37.5122 2
34.2274 37.5122 0.206697
33.3376 49.0502 0.0178961
32.4181 46.2508 0.0974524
32.5225 39.2908 0.32714
31.638 43.6975 0.13979
31.6682 41.1071 0.232225
31.3184 47.8929 2
30.8736 39.4238 2
30.3414 41.9563 2
30.6445 44.8782 2
29.4507 46.4948 4.00076
29.4734 39.8537 3.87947
29.0727 43.0876 3.924
29.9976 49.6829 0.00983605
28.0788 48.1168 2
26.2187 46.5827 3.97635
26.6545 49.9354 0.0303611
24.8604 48.4014 2
23.0876 47.0041 3.97492
23.5046 50.1364 0.036081
21.8823 48.7266 2
20.2049 47.5642 3.97723
20.6374 50.2666 0.035103
19.2296 49.0442 2
17.8501 48.1383 3.97633
16.2853 48.6513 3.97612
17.0485 49.295 2
15.9749 50.14 3.97061
15.4576 52.3916 3.96642
16.8955 51.3746 2
18.1521 50.2905 0.0321155
14.8971 54.9615 3.96451
16.4503 53.8468 2
17.9446 52.7595 0.0357833
14.4696 57.7263 3.9662
15.9941 56.4592 2
17.4731 55.3191 0.0372097
14.2699 60.6836 3.97247
15.7575 59.1967 2
17.1481 57.8548 0.0337972
14.3347 63.858 3.98562
15.7906 62.1309 2
17.1405 60.5327 0.0274583
14.6715 67.2507 4
16.0878 65.2984 2
17.4091 63.4633 0.0214919
16.6661 68.6801 2
17.9422 66.617 0.00958851
18.75 69.9759 0
18.9381 15.7961 3.97758
20.2229 14.6091 2
18.9812 13.1178 3.97691
21.5889 13.6182 0.022208
20.5307 12.0054 2
19.3438 10.2398 3.98199
19.9915 7.1474 3.9898
21.1439 9.15088 2
22.1912 11.0341 0.0208757
20.9142 3.86727 4
22.0153 6.08301 2
23.0418 8.18061 0.0163275
23.1494 2.85451 2
24.1179 5.14348 0.00904464
25.446 1.99014 0
30.9358 35.6301 3.76916
32.5252 35.7352 2
34.2805 35.8532 0.218608
21.3111 15.8454 0.0190792
22.1058 16.6515 2
20.313 16.9763 2
19.2636 18.4272 3.97264
21.7924 17.8722 3.98005
25.3873 16.1045 0.020932
23.2727 16.2649 0.0245962
24.2143 18.4843 2
22.3113 19.9243 3.9678
24.6338 21.3709 3.98823
26.5278 23.7624 3.9722
27.0509 21.4902 2
27.4487 18.8259 0.0209609
30.4003 33.0951 3.86894
31.6587 33.8851 2
32.848 34.1558 0.341856
32.7819 32.4139 0.234607
33.2405 29.9124 0.133376
35.0972 27.5302 0.0870503
32.6363 28.2076 2
31.6001 31.2942 2
30.3539 29.649 3.94419
28.0713 26.5984 3.98908
28.9132 24.4714 2
29.6115 21.9722 0.00421064
31.8092 25.7332 -0.00788724
29.8169 27.358 2
29.0789 37.5194 3.87861
30.5331 37.5103 2
32.387 37.5135 0.309701
31.3212 47.8892 0.0153773
30.6683 44.8549 0.0760517
30.9174 39.4019 0.231728
30.3682 41.9398 0.144446
29.4491 46.5073 2
29.4383 39.8735 2
29.0436 43.1165 2
27.6448 44.8021 3.97276
27.2437 40.5946 3.94988
28.0817 48.1204 0.0394162
26.2146 46.5842 2
24.3475 45.1249 3.97603
24.861 48.4041 0.0278701
23.0865 47.0034 2
21.188 45.8311 3.97805
21.8837 48.7276 0.030259
20.2038 47.5629 2
18.5366 46.6904 3.97803
19.2279 49.0457 0.0279627
17.8513 48.1371 2
16.4952 47.6799 3.9771
16.2866 48.6505 2
15.32 48.9875 3.97399
17.0471 49.296 0.0268789
15.9765 50.1392 2
14.5772 50.9618 3.96869
13.8693 53.4191 3.96559
15.4587 52.3911 2
16.8947 51.3753 0.0330439
13.2649 56.1579 3.96638
14.8964 54.9616 2
16.45 53.8471 0.0355252
12.8538 59.1175 3.97086
14.4703 57.7263 2
15.9936 56.4592 0.0345865
12.6805 62.3 3.98259
14.27 60.6839 2
15.7571 59.1956 0.0310081
12.7746 65.6939 4
14.3327 63.856 2
15.7907 62.1297 0.0266074
14.6714 67.2507 2
16.0894 65.2993 0.0108849
16.6661 68.6801 0
17.6789 17.1733 3.97149
18.9385 15.7954 2
17.5138 14.3831 3.97595
20.2225 14.6093 0.0238038
18.9814 13.1176 2
17.6395 11.4596 3.98053
20.5308 12.0055 0.0216006
19.3433 10.2397 2
18.0516 8.34043 3.98936
18.75 5.0241 4
19.9898 7.14843 2
21.1445 9.151 0.0171269
20.9142 3.86727 2
22.017 6.08271 0.00966226
23.1494 2.85457 0
29.4905 35.1683 3.88177
30.8848 35.6055 2
32.5145 35.7333 0.330826
22.105 16.6514 0.0276303
20.3125 16.9777 0.0198593
21.7931 17.8709 2
19.2639 18.4258 2
18.0221 19.9654 3.95988
20.9054 19.4028 3.97246
24.2145 18.4828 0.0265547
22.3109 19.9241 2
24.633 21.3727 2
22.4185 21.7569 3.97774
24.7963 23.2044 3.97572
25.66 25.9944 3.97732
26.5296 23.7594 2
27.052 21.4949 0.00802837
28.7793 32.4212 3.92782
30.3652 33.0723 2
31.6841 33.9229 0.235445
31.638 31.3304 0.139636
32.678 28.2362 0.0761962
30.3466 29.6496 2
27.3075 29.1876 4.00669
28.0621 26.6107 2
28.919 24.4553 0.0175769
29.8222 27.3875 0.0250894
27.354 37.3684 3.93033
29.0206 37.5074 2
30.5601 37.5095 0.223009
29.4507 46.4948 -0.000758314
29.0727 43.0876 0.076004
29.4734 39.8537 0.120534
27.6344 44.8282 2
27.2247 40.5975 2
25.6736 43.1091 3.98842
24.5003 39.454 3.97553
26.2187 46.5827 0.0236509
24.339 45.1259 2
22.2343 43.8811 3.9778
23.0876 47.0041 0.0250793
21.1853 45.8303 2
19.2444 44.923 3.97763
20.2049 47.5642 0.0227733
18.537 46.6892 2
16.8193 46.1766 3.97705
17.8501 48.1383 0.0236688
16.4966 47.679 2
15.0687 47.6425 3.97543
16.2853 48.6513 0.0238818
15.3217 48.9868 2
13.8805 49.5244 3.97087
15.9749 50.14 0.0293902
14.5781 50.9612 2
12.9413 51.8598 3.96689
12.1525 54.5201 3.96629
13.8693 53.419 2
15.4576 52.3916 0.0335802
11.5394 57.4521 3.97062
13.2655 56.1579 2
14.8971 54.9615 0.0354866
11.1353 60.6256 3.98026
12.8544 59.117 2
14.4696 57.7263 0.0338007
10.9835 64.0165 4
12.6786 62.2971 2
14.2699 60.6836 0.0275305
12.7745 65.694 2
14.3347 63.858 0.0143837
14.6715 67.2507 0
16.4222 18.6706 3.96463
17.679 17.1726 2
16.107 15.7937 3.97304
18.9381 15.7961 0.0224158
17.514 14.3824 2
16.0215 12.8142 3.9783
18.9812 13.1178 0.0230929
17.6392 11.4595 2
16.2027 9.66362 3.98883
19.3438 10.2398 0.0180094
18.0498 8.34183 2
16.6661 6.31991 4
18.75 5.02404 2
19.9915 7.1474 0.0102022
20.9142 3.86727 0
27.8869 34.8088 3.92095
29.4543 35.1522 2
30.9358 35.6301 0.230845
16.7335 21.401 3.96517
21.7924 17.8722 0.0199482
19.2636 18.4272 0.0273576
20.9054 19.4013 2
18.0224 19.9645 2
19.7903 21.6052 3.96889
22.3113 19.9243 0.032199
24.6338 21.3709 0.0117664
22.4182 21.757 2
24.7964 23.2036 2
23.0021 24.6439 3.97293
24.849 28.5779 3.97883
25.6567 25.9914 2
26.5278 23.7624 0.0277995
26.628 31.773 3.98181
28.7511 32.3979 2
30.4003 33.0951 0.131056
30.3539 29.649 0.0558116
27.3285 29.169 2
28.0713 26.5984 0.0109238
25.1843 36.8598 3.98098
27.3416 37.361 2
29.0789 37.5194 0.121391
27.6448 44.8021 0.0272389
27.2437 40.5946 0.0501152
25.6563 43.1219 2
24.4834 39.4546 2
23.394 41.8147 3.98014
22.2174 38.5224 3.97776
24.3475 45.1249 0.0239743
22.2332 43.8815 2
20.0749 42.8576 3.97672
21.188 45.8311 0.0219522
19.2447 44.923 2
17.1944 44.3435 3.97699
18.5366 46.6904 0.0219665
16.821 46.1757 2
15.0116 46.0633 3.9759
16.4952 47.6799 0.0228977
15.0701 47.642 2
13.4002 47.9879 3.97261
15.32 48.9875 0.0260072
13.8817 49.5239 2
12.1656 50.2395 3.96808
14.5772 50.9618 0.0313132
12.9417 51.8596 2
11.1493 52.8313 3.96644
10.3301 55.7069 3.97004
12.1531 54.5199 2
13.8693 53.4191 0.0344071
9.70198 58.848 3.9792
11.5397 57.4516 2
13.2649 56.1579 0.0336152
9.30605 62.2254 4
11.1338 60.6223 2
12.8538 59.1175 0.0291436
10.9835 64.0165 2
12.6805 62.3 0.0174136
12.7746 65.6939 0
15.17 20.2026 3.96448
16.4221 18.6703 2
14.7587 17.3205 3.96676
17.6789 17.1733 0.0285118
16.1073 15.7928 2
14.4849 14.2978 3.97581
17.5138 14.3831 0.0240532
16.0213 12.8138 2
14.4455 11.115 3.98784
17.6395 11.4596 0.0194705
16.2009 9.66545 2
14.6715 7.74927 4
18.0516 8.34043 0.0106353
16.6661 6.31988 2
18.75 5.0241 0
25.8467 34.2994 3.98861
27.864 34.817 2
29.4905 35.1683 0.118225
17.9404 22.3522 3.97072
15.5997 22.9434 3.96791
16.7339 21.401 2
20.9054 19.4028 0.0275396
18.0221 19.9654 0.0401162
19.7905 21.6048 2
19.8328 24.4249 3.97078
22.4185 21.7569 0.0222613
24.7963 23.2044 0.0242803
23.0007 24.6438 2
22.2164 27.8793 3.97305
24.185 31.2513 3.9767
24.8625 28.5778 2
25.66 25.9944 0.022676
26.6104 31.7412 2
28.7793 32.4212 0.0721783
27.3075 29.1876 -0.00668654
22.9378 36.2889 3.98249
25.1695 36.8636 2
27.354 37.3684 0.0696682
25.6736 43.1091 0.0115843
24.5003 39.454 0.0244742
23.3831 41.8141 2
22.2093 38.521 2
21.1143 40.6363 3.97554
20.5046 37.8037 3.97697
22.2343 43.8811 0.0221984
20.0736 42.8589 2
17.6556 42.0684 3.97642
19.2444 44.923 0.0223697
17.196 44.3435 2
15.0464 44.1738 3.97626
16.8193 46.1766 0.0229525
15.0128 46.0628 2
13.0899 46.2762 3.97389
15.0687 47.6425 0.0245724
13.4013 47.9874 2
11.5449 48.5374 3.96906
13.8805 49.5244 0.0291297
12.1663 50.2392 2
10.2769 51.0761 3.96659
12.9413 51.8598 0.0331107
11.1499 52.831 2
9.23869 53.8871 3.96998
8.38541 56.9812 3.97969
10.3306 55.7063 2
12.1525 54.5201 0.0337141
7.74927 60.3285 4
9.70074 58.8444 2
11.5394 57.4521 0.0293817
9.306 62.2255 2
11.1353 60.6256 0.0197402
10.9835 64.0165 0
13.9958 21.7686 3.965
15.1704 20.2024 2
13.4616 18.9152 3.96668
16.4222 18.6706 0.03537
14.7592 17.3199 2
13.0327 15.8943 3.97204
16.107 15.7937 0.0269581
14.4846 14.2972 2
12.7832 12.6889 3.98584
16.0215 12.8142 0.0217045
14.4437 11.1173 2
12.7746 9.30605 4
16.2027 9.66362 0.011167
14.6715 7.74924 2
16.6661 6.31991 0
23.5242 33.8402 3.9839
25.8216 34.2916 2
27.8869 34.8088 0.0790464
17.7698 24.0777 3.96969
17.9416 22.3523 2
14.4303 24.4772 3.96964
15.601 22.9436 2
16.7335 21.401 0.0348304
19.2902 27.2525 3.97211
19.7903 21.6052 0.031114
19.8301 24.4248 2
21.5533 30.722 3.97545
23.0021 24.6439 0.0270731
22.2247 27.8808 2
24.1647 31.2504 2
24.849 28.5779 0.0211724
26.628 31.773 0.0181919
20.6259 35.9544 3.97682
22.9379 36.2879 2
25.1843 36.8598 0.0190173
23.394 41.8147 0.0198569
22.2174 38.5224 0.0222424
21.1201 40.6359 2
20.5047 37.8024 2
18.4005 39.0052 3.97724
20.0749 42.8576 0.0232756
17.6563 42.0687 2
15.0294 41.8947 3.97682
17.1944 44.3435 0.023013
15.0479 44.1733 2
12.8522 44.375 3.97466
15.0116 46.0633 0.0240978
13.0913 46.2758 2
11.0554 46.7222 3.96983
13.4002 47.9879 0.0273889
11.5456 48.5371 2
9.54225 49.2365 3.96661
12.1656 50.2395 0.0319236
10.2774 51.0758 2
8.27149 52.001 3.96973
11.1493 52.8313 0.0335607
9.23918 53.8863 2
7.19435 55.0322 3.98061
6.31991 58.3339 4
8.3845 56.9777 2
10.3301 55.7069 0.0299603
7.74924 60.3285 2
9.70198 58.848 0.0208025
9.30605 62.2254 0
13.3222 25.3839 3.97251
12.8838 23.2979 3.96701
13.995 21.7683 2
12.2471 20.56 3.96716
15.17 20.2026 0.0355222
13.4628 18.9151 2
11.664 17.574 3.97069
14.7587 17.3205 0.0332448
13.0332 15.8931 2
11.2214 14.375 3.9816
14.4849 14.2978 0.0241924
12.7811 12.6915 2
10.9835 10.9835 4
14.4455 11.115 0.0121624
12.7745 9.306 2
14.6715 7.74927 0
20.9878 33.4473 3.97595
23.5241 33.8413 2
25.8467 34.2994 0.0113851
16.0922 26.4369 3.97201
17.7702 24.0777 2
17.9404 22.3522 0.0292817
14.4304 24.4776 2
15.5997 22.9434 0.0320865
18.6737 30.2214 3.97488
19.2881 27.2528 2
19.8328 24.4249 0.0292248
21.5562 30.7223 2
22.2164 27.8793 0.0269489
24.185 31.2513 0.0232951
18.0123 35.9858 3.97803
20.6268 35.9559 2
22.9378 36.2889 0.0175068
21.1143 40.6363 0.0244628
20.5046 37.8037 0.0230283
18.3987 39.0049 2
14.537 39.17 3.97749
17.6556 42.0684 0.0235813
15.0306 41.8943 2
12.547 42.2651 3.97577
15.0464 44.1738 0.0237372
12.8535 44.3746 2
10.6424 44.7925 3.97056
13.0899 46.2762 0.026107
11.0562 46.7219 2
8.92685 47.3158 3.96664
11.5449 48.5374 0.0309388
9.54241 49.2361 2
7.43834 50.0347 3.96932
10.2769 51.0761 0.0334072
8.27184 52.0002 2
6.13498 53.0075 3.981
9.23869 53.8871 0.0300204
7.1938 55.0293 2
5.0241 56.25 4
6.31988 58.3339 2
8.38541 56.9812 0.0203096
7.74927 60.3285 0
13.5887 26.8381 3.972
11.9935 24.8027 3.96888
13.3215 25.3841 2
11.1542 22.242 3.9662
12.8841 23.2981 2
13.9958 21.7686 0.0349955
12.2482 20.56 2
10.3949 19.3259 3.97044
13.4616 18.9152 0.0333245
11.6651 17.5742 2
9.76257 16.1591 3.97928
13.0327 15.8943 0.027959
11.2194 14.3786 2
9.30607 12.7746 4
12.7832 12.6889 0.0141647
10.9835 10.9835 2
12.7746 9.30605 0
18.1853 33.1543 3.97709
20.9888 33.4488 2
23.5242 33.8402 0.0160952
15.7175 29.6714 3.97458
16.0916 26.4373 2
17.7698 24.0777 0.030309
14.4303 24.4772 0.0303557
18.6724 30.2218 2
19.2902 27.2525 0.0278919
21.5533 30.722 0.0245539
15.1564 36.0355 3.97778
18.0132 35.9856 2
20.6259 35.9544 0.0231751
12.7746 37.8317 3.9775
18.4005 39.0052 0.0227564
14.5377 39.1698 2
12.0501 40.1352 3.97658
15.0294 41.8947 0.0231758
12.5481 42.2647 2
10.2483 42.7701 3.97088
12.8522 44.375 0.0253438
10.6431 44.7922 2
8.40581 45.318 3.967
11.0554 46.7222 0.0301749
8.92662 47.3155 2
6.72951 48 3.969
9.54225 49.2365 0.0333887
7.43855 50.034 2
5.21179 50.9109 3.9807
8.27149 52.001 0.0302736
6.1347 53.0055 2
3.86727 54.0858 4
7.19435 55.0322 0.019392
5.02404 56.25 2
6.31991 58.3339 0
13.065 29.0555 3.97167
11.4377 26.5023 3.96925
13.5881 26.8383 2
10.2147 23.9736 3.96675
11.9946 24.803 2
13.3222 25.3839 0.0274889
9.2474 21.1421 3.96982
11.1549 22.2421 2
12.8838 23.2979 0.0329937
12.2471 20.56 0.032843
10.396 19.3263 2
8.41822 18.0299 3.97937
11.664 17.574 0.0293143
9.76118 16.1634 2
7.74928 14.6715 4
11.2214 14.375 0.0184027
9.30602 12.7745 2
10.9835 10.9835 0
14.7118 32.889 3.97678
18.1833 33.1543 2
20.9878 33.4473 0.0240489
15.7191 29.672 2
16.0922 26.4369 0.0279939
18.6737 30.2214 0.0251166
13.0677 36.2184 3.97719
15.1566 36.0355 2
18.0123 35.9858 0.0219733
12.7764 37.8314 2
11.3943 38.3097 3.97634
14.537 39.17 0.0225086
12.0522 40.135 2
9.83326 40.7495 3.97139
12.547 42.2651 0.024226
10.2495 42.7698 2
7.95578 43.2674 3.96737
10.6424 44.7925 0.0294444
8.40601 45.3177 2
6.13553 45.9052 3.96888
8.92685 47.3158 0.033357
6.72969 47.9994 2
4.42328 48.7515 3.98008
7.43834 50.0347 0.0306781
5.21168 50.9098 2
2.85457 51.8506 4
6.13498 53.0075 0.0190048
3.86727 54.0858 2
5.0241 56.25 0
12.2092 31.275 3.97284
10.8598 28.4291 3.96953
13.0665 29.0559 2
9.4322 25.8032 3.96709
11.4383 26.5025 2
13.5887 26.8381 0.028
8.23398 23.0254 3.96972
10.2153 23.9739 2
11.9935 24.8027 0.0311163
7.20033 19.9796 3.97994
9.24843 21.1427 2
11.1542 22.242 0.0338015
10.3949 19.3259 0.0295585
8.41741 18.0341 2
6.31992 16.6661 4
9.76257 16.1591 0.0207224
7.74926 14.6714 2
9.30607 12.7746 0
12.2353 34.3081 3.97698
14.713 32.8896 2
18.1853 33.1543 0.0229096
15.7175 29.6714 0.0254206
10.9483 36.6149 3.97567
13.069 36.2184 2
15.1564 36.0355 0.0222201
12.7746 37.8317 0.0225043
11.3964 38.3096 2
9.42109 38.8218 3.97197
12.0501 40.1352 0.0234199
9.83436 40.7493 2
7.56715 41.2098 3.96778
10.2483 42.7701 0.029121
7.95509 43.2672 2
5.64736 43.7681 3.96887
8.40581 45.318 0.0330008
6.13567 45.9047 2
3.76882 46.5371 3.97969
6.72951 48 0.0310003
4.42338 48.751 2
1.99014 49.554 4
5.21179 50.9109 0.0192962
2.85451 51.8506 2
3.86727 54.0858 0
11.0356 32.9315 3.97473
10.1766 30.3942 3.97006
12.2107 31.2754 2
8.74384 27.7366 3.96717
10.8606 28.4294 2
13.065 29.0555 0.0283313
7.35942 24.9838 3.9694
9.43234 25.8034 2
11.4377 26.5023 0.0307545
6.11722 22.0026 3.98089
8.23464 23.0259 2
10.2147 23.9736 0.0332488
5.02411 18.75 4
7.19998 19.9828 2
9.2474 21.1421 0.0301755
8.41822 18.0299 0.0206338
6.3199 16.6661 2
7.74928 14.6715 0
10.549 35.0068 3.9754
12.2374 34.3086 2
14.7118 32.889 0.0232168
9.0845 36.9862 3.97257
10.95 36.615 2
13.0677 36.2184 0.0228079
11.3943 38.3097 0.0236624
9.42249 38.8216 2
7.24466 39.1817 3.96825
9.83326 40.7495 0.028612
7.56724 41.2096 2
5.26243 41.6139 3.96883
7.95578 43.2674 0.0326262
5.64745 43.7677 2
3.24652 44.2818 3.97971
6.13553 45.9052 0.0311187
3.76901 46.5367 2
1.27781 47.2057 4
4.42328 48.7515 0.0199187
1.99012 49.554 2
2.85457 51.8506 0
10.1851 33.8899 3.97556
9.45938 32.1633 3.97088
11.0373 32.9319 2
8.09157 29.6995 3.9675
10.1777 30.3945 2
12.2092 31.275 0.0271624
6.60293 27.0094 3.96924
8.74349 27.7368 2
10.8598 28.4291 0.0304735
5.17261 24.0951 3.98078
7.35976 24.9842 2
9.4322 25.8032 0.032914
3.86728 20.9142 4
6.1171 22.0046 2
8.23398 23.0254 0.0302782
5.02406 18.75 2
7.20033 19.9796 0.0200638
6.31992 16.6661 0
8.90553 35.2832 3.9726
10.5502 35.0069 2
12.2353 34.3081 0.0230157
7.02445 37.2064 3.96823
9.08556 36.9861 2
10.9483 36.6149 0.0243303
9.42109 38.8218 0.0280261
7.24513 39.1815 2
4.98996 39.4674 3.96905
7.56715 41.2098 0.0322207
5.26286 41.6136 2
2.85693 42.0021 3.97975
5.64736 43.7681 0.031126
3.24659 44.2816 2
0.720592 44.8159 4
3.76882 46.5371 0.0203067
1.27778 47.2057 2
1.99014 49.554 0
8.94617 33.7037 3.97212
10.1865 33.8901 2
7.52681 31.6122 3.96784
9.46066 32.1636 2
11.0356 32.9315 0.0252658
5.94788 29.0702 3.9693
8.09101 29.6997 2
10.1766 30.3942 0.0299425
4.36026 26.2475 3.98031
6.60307 27.0098 2
8.74384 27.7366 0.0328267
2.85458 23.1494 4
5.17262 24.096 2
7.35942 24.9838 0.0305971
3.86728 20.9142 2
6.11722 22.0026 0.0191053
5.02411 18.75 0
6.97296 35.3073 3.96821
8.90646 35.2832 2
10.549 35.0068 0.0246018
4.84003 37.3398 3.96947
7.02496 37.2064 2
9.0845 36.9862 0.0274343
7.24466 39.1817 0.0317528
4.99038 39.4672 2
2.60496 39.7138 3.97976
5.26243 41.6139 0.0311693
2.85728 42.0021 2
0.320823 42.3947 4
3.24652 44.2818 0.0202891
0.720551 44.8159 2
1.27781 47.2057 0
7.1364 33.463 3.96807
8.94686 33.7038 2
10.1851 33.8899 0.0244356
5.41848 31.1339 3.96958
7.52663 31.6123 2
9.45938 32.1633 0.0291223
3.68189 28.4434 3.97993
5.94801 29.0706 2
8.09157 29.6995 0.0325037
1.99015 25.446 4
4.36034 26.2478 2
6.60293 27.0094 0.030762
2.85453 23.1494 2
5.17261 24.0951 0.0192173
3.86728 20.9142 0
4.85435 35.2517 3.96958
6.97295 35.3074 2
8.90553 35.2832 0.0273971
2.49637 37.4284 3.98045
4.84007 37.3399 2
7.02445 37.2064 0.0317682
4.98996 39.4674 0.0309494
2.60538 39.7141 2
0.080333 39.9526 4
2.85693 42.0021 0.0202525
0.320817 42.3947 2
0.720592 44.8159 0
5.04778 33.1904 3.96961
7.13626 33.4631 2
8.94617 33.7037 0.0278837
3.1461 30.6661 3.97996
5.41861 31.1343 2
7.52681 31.6122 0.0321648
1.27793 27.7943 4
3.68209 28.4437 2
5.94788 29.0702 0.0306954
1.99013 25.446 2
4.36026 26.2475 0.0196857
2.85458 23.1494 0
2.54847 35.159 3.98026
4.85489 35.2519 2
6.97296 35.3073 0.0317877
0 37.5 4
2.49641 37.4288 2
4.84003 37.3398 0.0305257
2.60496 39.7138 0.020244
0.0802903 39.9526 2
0.320823 42.3947 0
2.7661 32.9057 3.98038
5.04793 33.1908 2
7.1364 33.463 0.0319335
0.721173 30.1842 4
3.14633 30.6666 2
5.41848 31.1339 0.0304209
1.27779 27.7943 2
3.68189 28.4434 0.0200651
1.99015 25.446 0
0.0806499 35.0474 4
2.54899 35.1594 2
4.85435 35.2517 0.0304236
0 37.5 2
2.49637 37.4284 0.0195457
0.080333 39.9526 0
0.32156 32.6054 4
2.76621 32.9063 2
5.04778 33.1904 0.0303868
0.72056 30.1841 2
3.1461 30.6661 0.0200369
1.27793 27.7943 0
0.0802889 35.0474 2
2.54847 35.159 0.019743
0 37.5 0
0.320817 32.6053 2
2.7661 32.9057 0.0196152
0.721173 30.1842 0
0.0806499 35.0474 0
0.32156 32.6054 0
CELLS 1910 17190
8 18 6 25 56 2 0 5 16
8 57 23 6 18 17 4 0 2
8 78 36 9 29 31 11 1 7
8 31 11 1 7 79 37 10 30
8 110 57 18 50 48 17 2 14
8 50 18 56 111 14 2 16 49
8 116 62 22 55 52 20 3 15
8 56 25 67 118 16 5 24 53
8 119 63 23 57 54 21 4 17
8 55 22 63 119 15 3 21 54
8 58 26 68 121 18 6 25 56
8 122 65 26 58 57 23 6 18
8 73 31 7 27 142 79 30 71
8 143 78 29 72 73 31 7 27
8 83 147 76 34 32 74 28 8
8 84 148 78 36 33 75 29 9
8 76 34 8 28 148 84 33 75
8 37 79 150 86 10 30 77 35
8 151 87 36 78 80 38 11 31
8 80 38 11 31 152 88 37 79
8 175 100 42 94 96 44 12 40
8 44 96 176 101 12 40 95 43
8 101 176 98 46 43 95 41 13
8 46 98 178 103 13 41 97 45
8 178 103 45 97 147 83 32 74
8 189 116 55 109 106 52 15 47
8 111 56 118 191 49 16 53 107
8 192 119 57 110 108 54 17 48
8 109 55 119 192 47 15 54 108
8 194 122 58 112 110 57 18 50
8 112 58 121 195 50 18 56 111
8 115 61 19 51 197 124 59 113
8 115 61 125 198 51 19 60 114
8 198 125 62 116 114 60 20 52
8 200 127 64 120 116 62 22 55
8 118 67 132 202 53 24 66 117
8 121 68 133 203 56 25 67 118
8 120 64 128 204 55 22 63 119
8 204 128 65 122 119 63 23 57
8 206 134 68 121 123 69 26 58
8 123 69 26 58 207 131 65 122
8 226 147 74 138 140 76 28 70
8 229 148 75 139 143 78 29 72
8 140 76 28 70 229 148 75 139
8 142 79 30 71 231 150 77 141
8 144 80 31 73 232 152 79 142
8 233 151 78 143 144 80 31 73
8 150 86 35 77 235 154 81 145
8 235 154 81 145 146 82 39 91
8 146 82 39 91 236 155 90 165
8 238 157 83 147 149 85 34 76
8 239 158 84 148 151 87 36 78
8 149 85 34 76 239 158 84 148
8 152 88 37 79 241 160 86 150
8 242 161 87 151 153 89 38 80
8 153 89 38 80 243 162 88 152
8 171 98 41 92 265 178 97 169
8 265 178 97 169 226 147 74 138
8 172 96 40 93 266 176 95 170
8 266 176 95 170 171 98 41 92
8 269 175 94 173 172 96 40 93
8 271 180 99 174 175 100 42 94
8 197 124 59 113 271 180 99 174
8 272 181 100 175 177 102 44 96
8 273 182 101 176 179 104 46 98
8 177 102 44 96 273 182 101 176
8 179 104 46 98 275 184 103 178
8 275 184 103 178 238 157 83 147
8 188 115 51 105 283 197 113 186
8 188 115 198 284 105 51 114 187
8 284 198 116 189 187 114 52 106
8 286 200 120 193 189 116 55 109
8 191 118 202 288 107 53 117 190
8 195 121 203 289 111 56 118 191
8 193 120 204 290 109 55 119 192
8 290 204 122 194 192 119 57 110
8 196 123 58 112 292 207 122 194
8 293 206 121 195 196 123 58 112
8 199 126 61 115 297 211 124 197
8 298 212 127 200 198 125 62 116
8 199 126 212 298 115 61 125 198
8 205 129 64 120 300 214 127 200
8 301 217 130 201 202 132 66 117
8 209 136 168 264 301 217 130 201
8 302 219 132 202 203 133 67 118
8 303 220 133 203 206 134 68 121
8 205 129 215 304 120 64 128 204
8 304 215 131 207 204 128 65 122
8 306 221 134 206 208 135 69 123
8 208 135 69 123 307 218 131 207
8 210 137 167 263 309 223 136 209
8 328 238 147 226 230 149 76 140
8 228 146 91 166 329 236 165 260
8 231 150 77 141 330 235 145 227
8 330 235 145 227 228 146 91 166
8 332 239 148 229 233 151 78 143
8 230 149 76 140 332 239 148 229
8 232 152 79 142 334 241 150 231
8 234 153 80 144 335 243 152 232
8 336 242 151 233 234 153 80 144
8 236 155 90 165 338 245 164 259
8 241 160 86 150 339 246 154 235
8 339 246 154 235 237 156 82 146
8 237 156 82 146 340 247 155 236
8 342 249 157 238 240 159 85 149
8 343 250 158 239 242 161 87 151
8 240 159 85 149 343 250 158 239
8 243 162 88 152 345 252 160 241
8 244 163 253 346 153 89 161 242
8 244 163 89 153 347 254 162 243
8 311 224 261 371 210 137 167 263
8 263 167 262 372 209 136 168 264
8 267 179 98 171 375 275 178 265
8 375 275 178 265 328 238 147 226
8 376 273 176 266 267 179 98 171
8 268 177 96 172 376 273 176 266
8 379 272 175 269 268 177 96 172
8 380 271 174 270 269 175 94 173
8 283 197 113 186 380 271 174 270
8 381 277 180 271 272 181 100 175
8 297 211 124 197 381 277 180 271
8 382 278 181 272 274 183 102 177
8 274 183 102 177 383 279 182 273
8 383 279 182 273 276 185 104 179
8 385 281 184 275 342 249 157 238
8 276 185 104 179 385 281 184 275
8 285 199 115 188 393 297 197 283
8 394 298 200 286 284 198 116 189
8 285 199 298 394 188 115 198 284
8 291 205 120 193 396 300 200 286
8 397 301 201 287 288 202 117 190
8 295 209 264 374 397 301 201 287
8 398 302 202 288 289 203 118 191
8 399 303 203 289 293 206 121 195
8 291 205 304 400 193 120 204 290
8 400 304 207 292 290 204 122 194
8 294 208 123 196 402 307 207 292
8 403 306 206 293 294 208 123 196
8 296 210 263 373 405 309 209 295
8 408 312 213 299 297 211 126 199
8 299 213 313 409 199 126 212 298
8 409 313 214 300 298 212 127 200
8 305 216 129 205 411 315 214 300
8 412 318 217 301 302 219 132 202
8 309 223 136 209 412 318 217 301
8 413 320 219 302 303 220 133 203
8 306 221 321 414 206 134 220 303
8 307 218 131 207 415 316 215 304
8 305 216 316 415 205 129 215 304
8 417 322 221 306 308 222 135 208
8 308 222 135 208 418 319 218 307
8 310 225 137 210 420 325 223 309
8 423 326 224 311 310 225 137 210
8 329 236 165 260 441 338 259 368
8 442 342 238 328 333 240 149 230
8 331 237 146 228 443 340 236 329
8 334 241 150 231 444 339 235 330
8 444 339 235 330 331 237 146 228
8 446 343 239 332 336 242 151 233
8 333 240 149 230 446 343 239 332
8 335 243 152 232 448 345 241 334
8 337 244 153 234 449 347 243 335
8 337 244 346 450 234 153 242 336
8 338 245 164 259 452 349 258 367
8 340 247 155 236 453 350 245 338
8 345 252 160 241 454 351 246 339
8 454 351 246 339 341 248 156 237
8 341 248 156 237 455 352 247 340
8 240 159 251 344 342 249 354 457
8 242 161 253 346 343 250 355 458
8 343 250 355 458 240 159 251 344
8 347 254 162 243 460 357 252 345
8 348 255 358 461 244 163 253 346
8 348 255 163 244 462 359 254 347
8 473 360 257 365 363 256 364 482
8 452 349 258 367 365 257 366 485
8 422 324 369 488 311 224 261 371
8 371 261 370 490 263 167 262 372
8 407 311 371 491 296 210 263 373
8 373 263 372 492 295 209 264 374
8 493 385 275 375 442 342 238 328
8 377 276 179 267 493 385 275 375
8 378 274 177 268 494 383 273 376
8 494 383 273 376 377 276 179 267
8 497 382 272 379 378 274 177 268
8 498 381 271 380 379 272 175 269
8 393 297 197 283 498 381 271 380
8 499 387 277 381 382 278 181 272
8 408 312 211 297 499 387 277 381
8 500 388 278 382 384 280 183 274
8 501 389 279 383 386 282 185 276
8 384 280 183 274 501 389 279 383
8 386 282 185 276 503 391 281 385
8 503 391 281 385 457 354 249 342
8 511 408 299 395 393 297 199 285
8 395 299 409 512 285 199 298 394
8 512 409 300 396 394 298 200 286
8 401 305 205 291 514 411 300 396
8 515 412 301 397 398 302 202 288
8 405 309 209 295 515 412 301 397
8 516 413 302 398 399 303 203 289
8 403 306 414 517 293 206 303 399
8 402 307 207 292 518 415 304 400
8 401 305 415 518 291 205 304 400
8 404 308 208 294 520 418 307 402
8 521 417 306 403 404 308 208 294
8 406 310 210 296 523 420 309 405
8 526 423 311 407 406 310 210 296
8 410 314 213 299 527 424 312 408
8 528 425 315 411 409 313 214 300
8 410 314 425 528 299 213 313 409
8 416 317 216 305 530 427 315 411
8 531 430 318 412 413 320 219 302
8 420 325 223 309 531 430 318 412
8 532 432 320 413 414 321 220 303
8 417 322 433 533 306 221 321 414
8 418 319 218 307 534 428 316 415
8 416 317 428 534 305 216 316 415
8 419 323 434 536 308 222 322 417
8 419 323 222 308 537 431 319 418
8 421 327 225 310 539 438 325 420
8 421 327 439 541 310 225 326 423
8 543 437 324 422 423 326 224 311
8 441 338 259 368 559 452 367 486
8 443 340 236 329 560 453 338 441
8 333 240 344 447 442 342 457 561
8 445 341 237 331 562 455 340 443
8 448 345 241 334 563 454 339 444
8 563 454 339 444 445 341 237 331
8 336 242 346 450 446 343 458 565
8 446 343 458 565 333 240 344 447
8 449 347 243 335 567 460 345 448
8 451 348 244 337 568 462 347 449
8 451 348 461 569 337 244 346 450
8 570 463 349 452 473 360 257 365
8 453 350 245 338 570 463 349 452
8 455 352 247 340 571 464 350 453
8 460 357 252 345 572 465 351 454
8 572 465 351 454 456 353 248 341
8 456 353 248 341 573 466 352 455
8 344 251 356 459 457 354 468 575
8 458 355 469 576 344 251 356 459
8 346 253 358 461 458 355 469 576
8 462 359 254 347 578 471 357 460
8 348 255 359 462 461 358 472 579
8 591 474 360 473 475 361 256 363
8 475 361 256 363 594 477 362 479
8 363 256 364 482 479 362 480 603
8 590 473 365 484 481 363 482 605
8 482 364 257 365 606 483 366 485
8 559 452 367 486 484 365 485 607
8 542 436 487 609 422 324 369 488
8 525 422 488 611 407 311 371 491
8 488 369 489 612 371 261 370 490
8 491 371 490 613 373 263 372 492
8 495 386 276 377 614 503 385 493
8 614 503 385 493 561 457 342 442
8 615 501 383 494 495 386 276 377
8 496 384 274 378 615 501 383 494
8 618 500 382 497 496 384 274 378
8 619 499 381 498 497 382 272 379
8 511 408 297 393 619 499 381 498
8 620 505 387 499 500 388 278 382
8 527 424 312 408 620 505 387 499
8 502 390 506 621 384 280 388 500
8 622 507 389 501 504 392 282 386
8 502 390 280 384 622 507 389 501
8 504 392 282 386 624 509 391 503
8 624 509 391 503 575 468 354 457
8 513 410 299 395 630 527 408 511
8 631 528 411 514 512 409 300 396
8 513 410 528 631 395 299 409 512
8 519 416 305 401 633 530 411 514
8 634 531 412 515 516 413 302 398
8 523 420 309 405 634 531 412 515
8 635 532 413 516 517 414 303 399
8 521 417 533 636 403 306 414 517
8 520 418 307 402 637 534 415 518
8 519 416 534 637 401 305 415 518
8 522 419 308 404 639 537 418 520
8 522 419 536 640 404 308 417 521
8 524 421 310 406 642 539 420 523
8 524 421 541 644 406 310 423 526
8 646 543 422 525 526 423 311 407
8 529 426 314 410 647 544 424 527
8 528 425 545 648 411 315 427 530
8 529 426 545 648 410 314 425 528
8 535 429 317 416 649 546 427 530
8 650 548 430 531 532 432 320 413
8 539 438 325 420 650 548 430 531
8 533 433 550 651 414 321 432 532
8 536 434 551 652 417 322 433 533
8 537 431 319 418 653 547 428 534
8 535 429 547 653 416 317 428 534
8 538 435 552 654 419 323 434 536
8 538 435 323 419 655 549 431 537
8 540 440 327 421 657 556 438 539
8 540 440 557 659 421 327 439 541
8 541 439 555 660 423 326 437 543
8 661 554 436 542 543 437 324 422
8 676 570 452 559 590 473 365 484
8 560 453 338 441 676 570 452 559
8 562 455 340 443 677 571 453 560
8 447 344 459 566 561 457 575 678
8 564 456 341 445 679 573 455 562
8 567 460 345 448 680 572 454 563
8 680 572 454 563 564 456 341 445
8 565 458 576 682 447 344 459 566
8 450 346 461 569 565 458 576 682
8 568 462 347 449 684 578 460 567
8 451 348 462 568 569 461 579 685
8 686 580 463 570 591 474 360 473
8 571 464 350 453 686 580 463 570
8 573 466 352 455 687 581 464 571
8 572 465 582 688 460 357 471 578
8 574 467 582 688 456 353 465 572
8 574 467 353 456 689 583 466 573
8 459 356 470 577 575 468 585 691
8 576 469 586 692 459 356 470 577
8 461 358 472 579 576 469 586 692
8 462 359 471 578 579 472 588 694
8 704 591 473 590 593 475 363 481
8 595 476 592 705 475 361 474 591
8 593 475 363 481 707 594 479 602
8 594 477 362 479 709 598 478 600
8 595 476 361 475 711 597 477 594
8 479 362 480 603 600 478 601 720
8 481 363 482 605 602 479 603 722
8 603 480 364 482 723 604 483 606
8 605 482 365 484 724 606 485 607
8 656 553 608 726 542 436 487 609
8 645 542 609 728 525 422 488 611
8 609 487 610 729 488 369 489 612
8 611 488 612 730 491 371 490 613
8 616 504 386 495 731 624 503 614
8 731 624 503 614 678 575 457 561
8 732 622 501 615 616 504 386 495
8 617 502 384 496 732 622 501 615
8 617 502 621 735 496 384 500 618
8 736 620 499 619 618 500 382 497
8 630 527 408 511 736 620 499 619
8 621 506 626 737 500 388 505 620
8 647 544 424 527 737 626 505 620
8 623 508 627 738 502 390 506 621
8 623 508 390 502 739 628 507 622
8 625 510 628 739 504 392 507 622
8 740 629 509 624 691 585 468 575
8 625 510 392 504 740 629 509 624
8 632 529 410 513 744 647 527 630
8 631 528 648 745 514 411 530 633
8 632 529 648 745 513 410 528 631
8 638 535 416 519 746 649 530 633
8 747 650 531 634 635 532 413 516
8 642 539 420 523 747 650 531 634
8 636 533 651 748 517 414 532 635
8 640 536 652 749 521 417 533 636
8 639 537 418 520 750 653 534 637
8 638 535 653 750 519 416 534 637
8 641 538 419 522 751 655 537 639
8 641 538 654 752 522 419 536 640
8 643 540 421 524 753 657 539 642
8 643 540 659 755 524 421 541 644
8 644 541 660 757 526 423 543 646
8 758 661 542 645 646 543 422 525
8 529 426 544 647 648 545 662 759
8 530 427 545 648 649 546 663 760
8 535 429 546 649 653 547 664 761
8 762 666 548 650 651 550 432 532
8 657 556 438 539 762 666 548 650
8 652 551 668 763 533 433 550 651
8 654 552 669 764 536 434 551 652
8 655 549 431 537 765 665 547 653
8 538 435 549 655 654 552 667 766
8 661 554 671 768 542 436 553 656
8 658 558 440 540 769 674 556 657
8 658 558 675 770 540 440 557 659
8 659 557 673 771 541 439 555 660
8 660 555 672 772 543 437 554 661
8 788 686 570 676 704 591 473 590
8 677 571 453 560 788 686 570 676
8 679 573 455 562 789 687 571 677
8 566 459 577 683 678 575 691 790
8 681 574 456 564 791 689 573 679
8 680 572 688 792 567 460 578 684
8 681 574 688 792 564 456 572 680
8 682 576 692 794 566 459 577 683
8 569 461 579 685 682 576 692 794
8 568 462 578 684 685 579 694 796
8 687 581 464 571 798 696 580 686
8 798 696 580 686 705 592 474 591
8 689 583 466 573 799 697 581 687
8 688 582 698 800 578 471 588 694
8 690 584 698 800 574 467 582 688
8 690 584 467 574 801 699 583 689
8 693 587 701 803 577 470 585 691
8 693 587 470 577 804 702 586 692
8 695 589 702 804 579 472 586 692
8 695 589 472 579 805 703 588 694
8 708 595 705 813 593 475 591 704
8 710 596 706 814 595 476 592 705
8 707 594 479 602 816 709 600 719
8 708 595 475 593 817 711 594 707
8 709 598 478 600 819 715 599 717
8 711 597 477 594 820 714 598 709
8 710 596 476 595 822 713 597 711
8 600 478 601 720 717 599 718 832
8 602 479 603 722 719 600 720 834
8 720 601 480 603 835 721 604 723
8 722 603 482 605 836 723 606 724
8 767 670 725 839 656 553 608 726
8 756 656 726 841 645 542 609 728
8 726 608 727 842 609 487 610 729
8 728 609 729 843 611 488 612 730
8 844 740 624 731 790 691 575 678
8 733 625 504 616 844 740 624 731
8 734 623 502 617 845 739 622 732
8 733 625 739 845 616 504 622 732
8 734 623 738 846 617 502 621 735
8 735 621 737 847 618 500 620 736
8 744 647 527 630 847 737 620 736
8 621 506 627 738 737 626 741 848
8 647 544 626 737 759 662 741 848
8 623 508 628 739 738 627 742 849
8 740 629 585 691 850 743 700 802
8 625 510 629 740 739 628 743 850
8 632 529 647 744 745 648 759 854
8 633 530 648 745 746 649 760 855
8 638 535 649 746 750 653 761 856
8 857 762 650 747 748 651 532 635
8 753 657 539 642 857 762 650 747
8 749 652 763 858 636 533 651 748
8 752 654 764 859 640 536 652 749
8 751 655 537 639 860 765 653 750
8 641 538 655 751 752 654 766 861
8 754 658 540 643 862 769 657 753
8 754 658 770 863 643 540 659 755
8 755 659 771 864 644 541 660 757
8 758 661 768 866 645 542 656 756
8 757 660 772 867 646 543 661 758
8 759 662 773 868 648 545 663 760
8 649 546 663 760 761 664 774 871
8 765 665 547 653 872 775 664 761
8 873 777 666 762 763 668 550 651
8 769 674 556 657 873 777 666 762
8 764 669 779 874 652 551 668 763
8 654 552 667 766 764 669 778 875
8 655 549 665 765 766 667 776 876
8 768 671 782 877 656 553 670 767
8 772 672 783 878 661 554 671 768
8 658 558 674 769 770 675 786 879
8 659 557 675 770 771 673 785 881
8 882 784 672 772 771 673 555 660
8 789 687 571 677 897 798 686 788
8 897 798 686 788 813 705 591 704
8 791 689 573 679 898 799 687 789
8 795 693 803 900 683 577 691 790
8 793 690 574 681 901 801 689 791
8 792 688 800 902 684 578 694 796
8 793 690 800 902 681 574 688 792
8 795 693 577 683 903 804 692 794
8 797 695 804 903 685 579 692 794
8 797 695 579 685 904 805 694 796
8 905 806 697 799 798 696 581 687
8 814 706 806 905 705 592 696 798
8 689 583 697 799 801 699 808 907
8 800 698 809 908 694 588 703 805
8 690 584 699 801 800 698 809 908
8 803 701 810 909 691 585 700 802
8 693 587 702 804 803 701 811 910
8 695 589 703 805 804 702 812 911
8 818 710 814 919 708 595 705 813
8 821 712 815 920 710 596 706 814
8 816 709 600 719 922 819 717 831
8 817 711 594 707 923 820 709 816
8 818 710 595 708 924 822 711 817
8 819 715 599 717 926 827 716 829
8 820 714 598 709 927 826 715 819
8 929 825 713 822 820 714 597 711
8 821 712 596 710 930 824 713 822
8 717 599 718 832 829 716 830 942
8 719 600 720 834 831 717 832 944
8 832 718 601 720 945 833 721 835
8 834 720 603 722 946 835 723 836
8 869 780 838 950 767 670 725 839
8 865 767 839 952 756 656 726 841
8 839 725 840 953 726 608 727 842
8 841 726 842 954 728 609 729 843
8 844 740 691 790 955 850 802 899
8 733 625 740 844 845 739 850 955
8 734 623 739 845 846 738 849 956
8 735 621 738 846 847 737 848 957
8 744 647 737 847 854 759 848 957
8 738 627 742 849 848 741 851 958
8 848 741 851 958 759 662 773 868
8 850 743 700 802 959 852 807 906
8 849 742 628 739 959 852 743 850
8 854 759 868 965 745 648 760 855
8 746 649 760 855 856 761 871 966
8 860 765 653 750 967 872 761 856
8 968 873 762 857 858 763 651 748
8 862 769 657 753 968 873 762 857
8 859 764 874 969 749 652 763 858
8 752 654 766 861 859 764 875 970
8 751 655 765 860 861 766 876 971
8 754 658 769 862 863 770 879 972
8 755 659 770 863 864 771 881 974
8 976 882 772 867 864 771 660 757
8 866 768 877 977 756 656 767 865
8 867 772 878 978 758 661 768 866
8 760 663 773 868 871 774 883 980
8 870 781 837 948 982 890 780 869
8 982 890 780 869 877 782 670 767
8 761 664 774 871 872 775 884 984
8 876 776 665 765 985 885 775 872
8 873 777 668 763 986 887 779 874
8 769 674 777 873 879 786 887 986
8 764 669 778 875 874 779 888 987
8 766 667 776 876 875 778 886 988
8 878 783 892 989 768 671 782 877
8 878 783 672 772 990 893 784 882
8 880 787 675 770 991 896 786 879
8 880 787 895 992 770 675 785 881
8 881 785 894 993 771 673 784 882
8 1006 905 799 898 897 798 687 789
8 919 814 905 1006 813 705 798 897
8 791 689 799 898 901 801 907 1007
8 900 803 909 1009 790 691 802 899
8 795 693 804 903 900 803 910 1010
8 902 800 908 1011 796 694 805 904
8 793 690 801 901 902 800 908 1011
8 797 695 805 904 903 804 911 1012
8 799 697 806 905 907 808 912 1013
8 920 815 912 1013 814 706 806 905
8 802 700 810 909 906 807 913 1014
8 801 699 808 907 908 809 914 1015
8 805 703 809 908 911 812 915 1016
8 803 701 811 910 909 810 916 1017
8 911 812 917 1018 804 702 811 910
8 925 821 920 1030 818 710 814 919
8 928 823 921 1031 821 712 815 920
8 922 819 717 831 1033 926 829 941
8 923 820 709 816 1034 927 819 922
8 1035 929 822 924 923 820 711 817
8 925 821 710 818 1036 930 822 924
8 1038 933 825 929 927 826 714 820
8 926 827 716 829 1039 935 828 939
8 927 826 715 819 1040 934 827 926
8 928 823 712 821 1041 931 824 930
8 1042 932 824 930 929 825 713 822
8 829 716 830 942 939 828 940 1058
8 831 717 832 944 941 829 942 1060
8 942 830 718 832 1061 943 833 945
8 944 832 720 834 1062 945 835 946
8 981 889 947 1064 870 781 837 948
8 948 837 949 1067 869 780 838 950
8 975 869 950 1069 865 767 839 952
8 950 838 951 1070 839 725 840 953
8 952 839 953 1071 841 726 842 954
8 955 850 802 899 1072 959 906 1008
8 956 849 739 845 1072 959 850 955
8 846 738 849 956 957 848 958 1073
8 957 848 958 1073 854 759 868 965
8 849 742 852 959 958 851 961 1076
8 960 853 961 1076 906 807 852 959
8 958 851 961 1076 868 773 883 980
8 960 853 807 906 1077 963 913 1014
8 855 760 868 965 966 871 980 1085
8 856 761 871 966 967 872 984 1086
8 971 876 765 860 1087 985 872 967
8 968 873 763 858 1088 986 874 969
8 862 769 873 968 972 879 986 1088
8 859 764 875 970 969 874 987 1089
8 861 766 876 971 970 875 988 1090
8 973 880 770 863 1091 991 879 972
8 973 880 992 1092 863 770 881 974
8 974 881 993 1093 864 771 882 976
8 979 870 948 1066 1094 982 869 975
8 1094 982 869 975 977 877 767 865
8 978 878 772 867 1095 990 882 976
8 978 878 989 1096 866 768 877 977
8 871 774 883 980 984 884 994 1099
8 983 891 999 1100 870 781 889 981
8 1101 1000 890 982 989 892 782 877
8 983 891 781 870 1101 1000 890 982
8 872 775 884 984 985 885 995 1103
8 876 776 885 985 988 886 996 1104
8 986 887 779 874 1105 998 888 987
8 879 786 887 986 991 896 998 1105
8 875 778 886 988 987 888 997 1106
8 990 893 1002 1107 878 783 892 989
8 1108 1003 893 990 993 894 784 882
8 880 787 896 991 992 895 1005 1109
8 993 894 785 881 1110 1004 895 992
8 898 799 905 1006 1007 907 1013 1120
8 1030 920 1013 1120 919 814 905 1006
8 901 801 907 1007 1011 908 1015 1121
8 899 802 909 1009 1008 906 1014 1122
8 900 803 910 1010 1009 909 1017 1123
8 1012 911 1018 1124 903 804 910 1010
8 904 805 908 1011 1012 911 1016 1125
8 1013 912 1020 1127 907 808 914 1015
8 1031 921 1020 1127 920 815 912 1013
8 1019 918 962 1075 1128 1021 913 1014
8 1128 1021 913 1014 1017 916 810 909
8 1015 914 1022 1129 908 809 915 1016
8 1016 915 1023 1130 911 812 917 1018
8 1018 917 1024 1131 910 811 916 1017
8 1037 928 1031 1148 925 821 920 1030
8 928 823 931 1041 1031 921 1032 1149
8 1033 926 829 941 1151 1039 939 1057
8 1034 927 819 922 1152 1040 926 1033
8 1153 1038 929 1035 1034 927 820 923
8 1154 1042 930 1036 1035 929 822 924
8 1037 928 821 925 1155 1041 930 1036
8 1039 935 828 939 1156 1047 938 1055
8 1157 1043 932 1042 1038 933 825 929
8 1038 933 826 927 1158 1045 934 1040
8 1040 934 827 926 1159 1046 935 1039
8 930 824 932 1042 1041 931 1044 1160
8 1051 936 1048 1165 1175 1052 937 1053
8 1156 1047 938 1055 1053 937 1054 1178
8 939 828 940 1058 1055 938 1056 1181
8 941 829 942 1060 1057 939 1058 1183
8 942 830 943 1061 1058 940 1059 1184
8 1060 942 832 944 1185 1061 945 1062
8 1082 964 1063 1188 981 889 947 1064
8 1097 981 1064 1190 979 870 948 1066
8 1064 947 1065 1191 948 837 949 1067
8 1066 948 1067 1193 975 869 950 1069
8 1067 949 1068 1194 950 838 951 1070
8 1069 950 1070 1195 952 839 953 1071
8 956 849 959 1072 1073 958 1076 1197
8 1074 960 1076 1197 1008 906 959 1072
8 1073 958 1076 1197 965 868 980 1085
8 1074 960 906 1008 1198 1077 1014 1122
8 1133 1026 1079 1199 1019 918 962 1075
8 1077 963 913 1014 1200 1080 962 1075
8 960 853 963 1077 1076 961 1078 1201
8 980 883 961 1076 1099 994 1078 1201
8 1210 1083 964 1082 1100 999 889 981
8 966 871 980 1085 1086 984 1099 1215
8 967 872 984 1086 1087 985 1103 1216
8 971 876 985 1087 1090 988 1104 1217
8 1088 986 874 969 1218 1105 987 1089
8 972 879 986 1088 1091 991 1105 1218
8 970 875 988 1090 1089 987 1106 1219
8 973 880 991 1091 1092 992 1109 1220
8 1093 993 881 974 1221 1110 992 1092
8 1222 1108 990 1095 1093 993 882 976
8 1223 1101 982 1094 1096 989 877 977
8 1098 983 870 979 1223 1101 982 1094
8 1095 990 1107 1224 978 878 989 1096
8 1098 983 1100 1225 979 870 981 1097
8 984 884 994 1099 1103 995 1111 1227
8 1102 1001 1115 1228 983 891 999 1100
8 1101 1000 892 989 1229 1116 1002 1107
8 1102 1001 891 983 1229 1116 1000 1101
8 985 885 995 1103 1104 996 1112 1230
8 988 886 996 1104 1106 997 1113 1231
8 1105 998 888 987 1232 1114 997 1106
8 991 896 998 1105 1109 1005 1114 1232
8 1108 1003 1117 1233 990 893 1002 1107
8 1108 1003 894 993 1233 1117 1004 1110
8 992 895 1005 1109 1110 1004 1118 1234
8 1120 1013 1127 1244 1007 907 1015 1121
8 1148 1031 1127 1244 1030 920 1013 1120
8 1121 1015 1129 1245 1011 908 1016 1125
8 1126 1019 1075 1196 1246 1128 1014 1122
8 1246 1128 1014 1122 1123 1017 909 1009
8 1124 1018 1131 1247 1010 910 1017 1123
8 1125 1016 1130 1248 1012 911 1018 1124
8 1127 1020 1137 1254 1015 914 1022 1129
8 1031 921 1032 1149 1127 1020 1137 1254
8 1134 1027 918 1019 1257 1140 1021 1128
8 1257 1140 1021 1128 1131 1024 916 1017
8 1129 1022 1141 1258 1016 915 1023 1130
8 1130 1023 1142 1259 1018 917 1024 1131
8 1261 1144 1025 1132 1133 1026 1079 1199
8 1255 1138 1025 1132 1135 1028 1144 1261
8 1133 1026 918 1019 1262 1145 1027 1134
8 1136 1029 1139 1256 1263 1146 1028 1135
8 1037 928 1041 1155 1148 1031 1149 1275
8 1041 931 1044 1160 1149 1032 1150 1276
8 1151 1039 939 1057 1278 1156 1055 1180
8 1152 1040 926 1033 1279 1159 1039 1151
8 1153 1038 927 1034 1280 1158 1040 1152
8 1281 1157 1042 1154 1153 1038 929 1035
8 1036 930 1042 1154 1155 1041 1160 1282
8 1283 1164 1046 1159 1156 1047 935 1039
8 1165 1048 1164 1283 1053 937 1047 1156
8 1157 1043 933 1038 1284 1161 1045 1158
8 1157 1043 1161 1284 1042 932 1044 1160
8 1040 934 1046 1159 1158 1045 1163 1285
8 1166 1049 1167 1292 1051 936 1048 1165
8 1166 1049 936 1051 1293 1168 1050 1172
8 1051 936 1052 1175 1172 1050 1173 1306
8 1174 1051 1165 1290 1308 1175 1053 1177
8 1053 937 1054 1178 1175 1052 1176 1309
8 1278 1156 1055 1180 1177 1053 1178 1311
8 1055 938 1056 1181 1178 1054 1179 1312
8 1057 939 1058 1183 1180 1055 1181 1314
8 1058 940 1059 1184 1181 1056 1182 1315
8 1060 942 1061 1185 1183 1058 1184 1316
8 1208 1081 1187 1321 1082 964 1063 1188
8 1209 1082 1188 1322 1097 981 1064 1190
8 1188 1063 1189 1323 1064 947 1065 1191
8 1190 1064 1191 1325 1066 948 1067 1193
8 1191 1065 1192 1326 1067 949 1068 1194
8 1067 1193 1069 950 1194 1327 1195 1070
8 1250 1133 1199 1330 1126 1019 1075 1196
8 1198 1077 1014 1122 1331 1200 1075 1196
8 1074 960 1077 1198 1197 1076 1201 1332
8 1085 980 1076 1197 1215 1099 1201 1332
8 1199 1079 1203 1333 1075 962 1080 1200
8 1132 1025 1119 1243 1199 1079 1203 1333
8 1201 1078 963 1077 1334 1202 1080 1200
8 1099 994 1078 1201 1227 1111 1202 1334
8 1343 1207 1081 1208 1210 1083 964 1082
8 1214 1084 1186 1319 1343 1207 1081 1208
8 1345 1210 1082 1209 1225 1100 981 1097
8 1346 1211 1083 1210 1228 1115 999 1100
8 1086 984 1099 1215 1216 1103 1227 1352
8 1087 985 1103 1216 1217 1104 1230 1353
8 1090 988 1104 1217 1219 1106 1231 1354
8 1218 1105 987 1089 1355 1232 1106 1219
8 1091 991 1105 1218 1220 1109 1232 1355
8 1092 992 1109 1220 1221 1110 1234 1356
8 1222 1108 1233 1357 1095 990 1107 1224
8 1222 1108 993 1093 1357 1233 1110 1221
8 1223 1101 989 1096 1358 1229 1107 1224
8 1226 1102 983 1098 1358 1229 1101 1223
8 1226 1102 1228 1359 1098 983 1100 1225
8 1103 995 1111 1227 1230 1112 1235 1360
8 1107 1002 1117 1233 1229 1116 1240 1362
8 1102 1001 1116 1229 1228 1115 1240 1362
8 1104 996 1112 1230 1231 1113 1236 1363
8 1364 1237 1114 1232 1231 1113 997 1106
8 1109 1005 1114 1232 1234 1118 1238 1365
8 1110 1004 1118 1234 1233 1117 1241 1366
8 1242 1374 1255 1138 1119 1243 1132 1025
8 1244 1127 1254 1376 1121 1015 1129 1245
8 1148 1031 1149 1275 1244 1127 1254 1376
8 1245 1129 1258 1377 1125 1016 1130 1248
8 1251 1134 1019 1126 1378 1257 1128 1246
8 1378 1257 1128 1246 1247 1131 1017 1123
8 1248 1130 1259 1379 1124 1018 1131 1247
8 1261 1381 1250 1133 1132 1249 1330 1199
8 1255 1380 1252 1135 1132 1249 1381 1261
8 1250 1133 1019 1126 1382 1262 1134 1251
8 1253 1136 1256 1385 1384 1263 1135 1252
8 1254 1137 1265 1387 1129 1022 1141 1258
8 1149 1032 1150 1276 1254 1137 1265 1387
8 1028 1135 1255 1138 1139 1256 1388 1266
8 1136 1029 1147 1264 1256 1139 1267 1389
8 1390 1268 1140 1257 1259 1142 1024 1131
8 1260 1143 1027 1134 1390 1268 1140 1257
8 1258 1141 1269 1391 1130 1023 1142 1259
8 1262 1145 1027 1134 1393 1271 1143 1260
8 1261 1144 1026 1133 1394 1272 1145 1262
8 1135 1028 1144 1261 1263 1146 1272 1394
8 1136 1029 1146 1263 1264 1147 1273 1395
8 1155 1041 1160 1282 1275 1149 1276 1405
8 1276 1150 1044 1160 1406 1277 1162 1286
8 1408 1283 1159 1279 1278 1156 1039 1151
8 1290 1165 1283 1408 1177 1053 1156 1278
8 1152 1040 1159 1279 1280 1158 1285 1409
8 1281 1157 1038 1153 1410 1284 1158 1280
8 1281 1157 1284 1410 1154 1042 1160 1282
8 1159 1046 1164 1283 1285 1163 1289 1412
8 1292 1167 1289 1412 1165 1048 1164 1283
8 1158 1045 1163 1285 1284 1161 1288 1413
8 1284 1161 1288 1413 1160 1044 1162 1286
8 1291 1166 1292 1418 1174 1051 1165 1290
8 1291 1166 1051 1174 1419 1293 1172 1305
8 1294 1169 1296 1421 1166 1049 1167 1292
8 1293 1168 1050 1172 1422 1295 1171 1303
8 1294 1169 1049 1166 1423 1297 1168 1293
8 1422 1295 1171 1303 1301 1170 1302 1435
8 1172 1050 1173 1306 1303 1171 1304 1438
8 1174 1051 1175 1308 1305 1172 1306 1440
8 1175 1052 1176 1309 1306 1173 1307 1441
8 1177 1053 1178 1311 1308 1175 1309 1443
8 1178 1054 1179 1312 1309 1176 1310 1444
8 1180 1055 1181 1314 1311 1178 1312 1446
8 1056 1181 1312 1179 1182 1315 1447 1313
8 1183 1058 1184 1316 1314 1181 1315 1448
8 1319 1186 1084 1214 1451 1317 1213 1350
8 1319 1186 1318 1453 1208 1081 1187 1321
8 1321 1187 1320 1456 1188 1063 1189 1323
8 1344 1208 1321 1457 1209 1082 1188 1322
8 1322 1188 1323 1458 1190 1064 1191 1325
8 1323 1189 1324 1459 1191 1065 1192 1326
8 1191 1325 1193 1067 1326 1460 1327 1194
8 1242 1374 1243 1119 1328 1462 1335 1204
8 1330 1199 1333 1465 1196 1075 1200 1331
8 1132 1249 1330 1199 1243 1375 1465 1333
8 1332 1201 1077 1198 1466 1334 1200 1331
8 1215 1099 1201 1332 1352 1227 1334 1466
8 1119 1243 1333 1203 1204 1335 1470 1338
8 1333 1203 1338 1470 1200 1080 1202 1334
8 1227 1111 1202 1334 1360 1235 1338 1470
8 1328 1462 1335 1204 1205 1336 1471 1339
8 1337 1206 1340 1472 1464 1329 1205 1336
8 1346 1211 1342 1479 1210 1083 1207 1343
8 1346 1211 1115 1228 1479 1342 1239 1361
8 1348 1212 1084 1214 1479 1342 1207 1343
8 1480 1343 1208 1344 1345 1210 1082 1209
8 1351 1214 1319 1454 1480 1343 1208 1344
8 1481 1346 1210 1345 1359 1228 1100 1225
8 1348 1212 1347 1483 1214 1084 1213 1350
8 1216 1103 1227 1352 1353 1230 1360 1488
8 1217 1104 1230 1353 1354 1231 1363 1489
8 1490 1364 1232 1355 1354 1231 1106 1219
8 1220 1109 1232 1355 1356 1234 1365 1491
8 1221 1110 1234 1356 1357 1233 1366 1492
8 1224 1107 1233 1357 1358 1229 1362 1493
8 1226 1102 1229 1358 1359 1228 1362 1493
8 1230 1112 1235 1360 1363 1236 1367 1496
8 1361 1239 1115 1228 1497 1371 1240 1362
8 1366 1241 1372 1498 1233 1117 1240 1362
8 1364 1237 1113 1231 1499 1368 1236 1363
8 1364 1237 1368 1499 1232 1114 1238 1365
8 1234 1118 1238 1365 1366 1241 1369 1500
8 1507 1373 1242 1374 1388 1266 1138 1255
8 1508 1374 1243 1375 1380 1255 1132 1249
8 1376 1254 1387 1509 1245 1129 1258 1377
8 1275 1149 1276 1405 1376 1254 1387 1509
8 1377 1258 1391 1510 1248 1130 1259 1379
8 1511 1390 1257 1378 1379 1259 1131 1247
8 1383 1260 1134 1251 1511 1390 1257 1378
8 1252 1135 1256 1385 1380 1255 1388 1512
8 1261 1381 1513 1394 1133 1250 1382 1262
8 1135 1252 1384 1263 1261 1381 1513 1394
8 1382 1262 1134 1251 1514 1393 1260 1383
8 1253 1136 1263 1384 1386 1264 1395 1516
8 1253 1136 1264 1386 1385 1256 1389 1517
8 1387 1265 1397 1519 1258 1141 1269 1391
8 1276 1150 1277 1406 1387 1265 1397 1519
8 1256 1139 1267 1389 1388 1266 1398 1520
8 1264 1147 1274 1396 1389 1267 1399 1521
8 1392 1270 1143 1260 1522 1400 1268 1390
8 1390 1268 1142 1259 1522 1400 1269 1391
8 1392 1270 1401 1523 1260 1143 1271 1393
8 1272 1394 1524 1402 1145 1262 1393 1271
8 1395 1273 1146 1263 1524 1402 1272 1394
8 1273 1395 1264 1147 1403 1526 1396 1274
8 1405 1276 1160 1282 1534 1406 1286 1411
8 1414 1287 1407 1535 1286 1162 1277 1406
8 1279 1159 1283 1408 1409 1285 1412 1537
8 1418 1292 1412 1537 1290 1165 1283 1408
8 1280 1158 1285 1409 1410 1284 1413 1538
8 1410 1284 1413 1538 1282 1160 1286 1411
8 1285 1163 1289 1412 1413 1288 1417 1540
8 1421 1296 1417 1540 1292 1167 1289 1412
8 1414 1287 1162 1286 1541 1416 1288 1413
8 1420 1294 1421 1545 1291 1166 1292 1418
8 1419 1293 1172 1305 1546 1422 1303 1437
8 1420 1294 1166 1291 1547 1423 1293 1419
8 1294 1169 1297 1423 1421 1296 1425 1548
8 1423 1297 1168 1293 1549 1424 1295 1422
8 1301 1170 1298 1427 1422 1295 1424 1549
8 1432 1300 1428 1554 1301 1170 1298 1427
8 1431 1299 1428 1554 1560 1430 1300 1432
8 1563 1433 1300 1432 1435 1302 1170 1301
8 1546 1422 1303 1437 1434 1301 1435 1565
8 1303 1171 1304 1438 1435 1302 1436 1566
8 1305 1172 1306 1440 1437 1303 1438 1568
8 1306 1173 1307 1441 1438 1304 1439 1569
8 1308 1175 1309 1443 1440 1306 1441 1571
8 1309 1176 1310 1444 1441 1307 1442 1572
8 1311 1178 1312 1446 1443 1309 1444 1574
8 1179 1312 1444 1310 1313 1447 1575 1445
8 1314 1181 1315 1448 1446 1312 1447 1576
8 1350 1213 1349 1486 1451 1317 1449 1579
8 1451 1317 1450 1581 1319 1186 1318 1453
8 1454 1319 1214 1351 1582 1451 1350 1487
8 1453 1318 1452 1584 1321 1187 1320 1456
8 1454 1319 1453 1585 1344 1208 1321 1457
8 1456 1320 1455 1586 1323 1189 1324 1459
8 1457 1321 1456 1587 1322 1188 1323 1458
8 1458 1323 1459 1588 1325 1191 1326 1460
8 1205 1336 1464 1329 1328 1462 1590 1461
8 1507 1373 1461 1590 1374 1242 1328 1462
8 1508 1374 1462 1591 1375 1243 1335 1467
8 1337 1206 1329 1464 1473 1341 1463 1594
8 1375 1243 1335 1467 1465 1333 1470 1596
8 1465 1333 1470 1596 1331 1200 1334 1466
8 1352 1227 1334 1466 1488 1360 1470 1596
8 1591 1462 1336 1468 1467 1335 1471 1597
8 1469 1337 1472 1598 1595 1464 1336 1468
8 1471 1339 1474 1600 1335 1204 1338 1470
8 1600 1474 1367 1496 1470 1338 1235 1360
8 1336 1205 1340 1472 1471 1339 1475 1601
8 1337 1206 1341 1473 1472 1340 1476 1602
8 1495 1370 1478 1609 1361 1239 1342 1479
8 1348 1212 1342 1479 1483 1347 1478 1609
8 1481 1346 1479 1610 1345 1210 1343 1480
8 1481 1346 1228 1359 1610 1479 1361 1494
8 1484 1348 1214 1351 1610 1479 1343 1480
8 1483 1347 1482 1612 1350 1213 1349 1486
8 1484 1348 1483 1613 1351 1214 1350 1487
8 1353 1230 1360 1488 1489 1363 1496 1616
8 1490 1364 1231 1354 1617 1499 1363 1489
8 1490 1364 1499 1617 1355 1232 1365 1491
8 1356 1234 1365 1491 1492 1366 1500 1619
8 1492 1366 1498 1620 1357 1233 1362 1493
8 1494 1361 1228 1359 1621 1497 1362 1493
8 1495 1370 1239 1361 1622 1504 1371 1497
8 1363 1236 1367 1496 1499 1368 1501 1623
8 1497 1371 1240 1362 1624 1505 1372 1498
8 1625 1503 1372 1498 1500 1369 1241 1366
8 1365 1238 1368 1499 1500 1369 1502 1626
8 1520 1398 1506 1633 1388 1266 1373 1507
8 1634 1507 1374 1508 1512 1388 1255 1380
8 1509 1387 1519 1635 1377 1258 1391 1510
8 1405 1276 1406 1534 1509 1387 1519 1635
8 1515 1392 1260 1383 1636 1522 1390 1511
8 1511 1390 1259 1379 1636 1522 1391 1510
8 1385 1256 1389 1517 1512 1388 1520 1637
8 1513 1394 1262 1382 1638 1524 1393 1514
8 1395 1516 1638 1524 1263 1384 1513 1394
8 1515 1392 1523 1639 1383 1260 1393 1514
8 1516 1395 1526 1640 1386 1264 1396 1518
8 1386 1264 1396 1518 1517 1389 1521 1641
8 1519 1397 1527 1643 1391 1269 1400 1522
8 1535 1407 1527 1643 1406 1277 1397 1519
8 1389 1267 1399 1521 1520 1398 1528 1644
8 1645 1529 1399 1521 1525 1404 1274 1396
8 1392 1270 1400 1522 1523 1401 1531 1646
8 1524 1402 1271 1393 1648 1532 1401 1523
8 1403 1526 1648 1532 1273 1395 1524 1402
8 1525 1404 1274 1396 1649 1533 1403 1526
8 1539 1414 1535 1657 1411 1286 1406 1534
8 1542 1415 1536 1658 1414 1287 1407 1535
8 1409 1285 1412 1537 1538 1413 1540 1660
8 1545 1421 1540 1660 1418 1292 1412 1537
8 1539 1414 1286 1411 1661 1541 1413 1538
8 1540 1417 1544 1663 1413 1288 1416 1541
8 1421 1296 1425 1548 1540 1417 1544 1663
8 1542 1415 1287 1414 1664 1543 1416 1541
8 1420 1294 1423 1547 1545 1421 1548 1666
8 1547 1423 1293 1419 1667 1549 1422 1546
8 1434 1301 1427 1553 1546 1422 1549 1667
8 1423 1297 1424 1549 1548 1425 1550 1668
8 1551 1426 1550 1668 1427 1298 1424 1549
8 1551 1426 1298 1427 1671 1552 1428 1554
8 1562 1432 1554 1674 1434 1301 1427 1553
8 1431 1299 1429 1558 1554 1428 1555 1675
8 1431 1299 1430 1560 1558 1429 1557 1680
8 1560 1430 1300 1432 1683 1559 1433 1563
8 1561 1431 1554 1674 1684 1560 1432 1562
8 1685 1563 1432 1562 1565 1435 1301 1434
8 1435 1302 1436 1566 1563 1433 1564 1686
8 1437 1303 1438 1568 1565 1435 1566 1688
8 1438 1304 1439 1569 1566 1436 1567 1689
8 1440 1306 1441 1571 1568 1438 1569 1691
8 1441 1307 1442 1572 1569 1439 1570 1692
8 1443 1309 1444 1574 1571 1441 1572 1694
8 1310 1444 1572 1442 1445 1575 1695 1573
8 1446 1312 1447 1576 1574 1444 1575 1696
8 1486 1349 1485 1614 1579 1449 1577 1699
8 1451 1317 1449 1579 1581 1450 1578 1701
8 1487 1350 1486 1615 1582 1451 1579 1702
8 1581 1450 1580 1704 1453 1318 1452 1584
8 1582 1451 1581 1705 1454 1319 1453 1585
8 1584 1452 1583 1706 1456 1320 1455 1586
8 1585 1453 1584 1707 1457 1321 1456 1587
8 1587 1456 1586 1708 1458 1323 1459 1588
8 1633 1506 1589 1710 1507 1373 1461 1590
8 1464 1329 1461 1590 1594 1463 1589 1710
8 1468 1336 1462 1591 1595 1464 1590 1711
8 1634 1507 1590 1711 1508 1374 1462 1591
8 1473 1341 1463 1594 1603 1477 1593 1716
8 1469 1337 1464 1595 1599 1473 1594 1717
8 1471 1597 1467 1335 1600 1718 1596 1470
8 1718 1600 1496 1616 1596 1470 1360 1488
8 1336 1468 1597 1471 1472 1598 1719 1601
8 1469 1337 1473 1599 1598 1472 1602 1720
8 1722 1604 1501 1623 1600 1474 1367 1496
8 1475 1601 1471 1339 1604 1722 1600 1474
8 1602 1476 1605 1723 1472 1340 1475 1601
8 1476 1602 1724 1606 1341 1473 1603 1477
8 1483 1347 1478 1609 1612 1482 1608 1731
8 1495 1370 1504 1622 1609 1478 1608 1731
8 1618 1495 1609 1732 1494 1361 1479 1610
8 1484 1348 1479 1610 1613 1483 1609 1732
8 1486 1349 1482 1612 1614 1485 1611 1733
8 1613 1483 1612 1734 1487 1350 1486 1615
8 1489 1363 1496 1616 1617 1499 1623 1736
8 1491 1365 1499 1617 1619 1500 1626 1737
8 1618 1495 1361 1494 1738 1622 1497 1621
8 1739 1625 1498 1620 1619 1500 1366 1492
8 1621 1497 1362 1493 1740 1624 1498 1620
8 1742 1631 1504 1622 1624 1505 1371 1497
8 1743 1628 1502 1626 1623 1501 1368 1499
8 1744 1630 1505 1624 1625 1503 1372 1498
8 1745 1629 1503 1625 1626 1502 1369 1500
8 1520 1398 1528 1644 1633 1506 1632 1751
8 1637 1520 1633 1752 1512 1388 1507 1634
8 1635 1519 1643 1753 1510 1391 1522 1636
8 1657 1535 1643 1753 1534 1406 1519 1635
8 1515 1392 1522 1636 1639 1523 1646 1754
8 1517 1389 1521 1641 1637 1520 1644 1755
8 1524 1638 1756 1648 1393 1514 1639 1523
8 1640 1526 1395 1516 1756 1648 1524 1638
8 1642 1525 1396 1518 1757 1649 1526 1640
8 1758 1645 1521 1641 1642 1525 1396 1518
8 1646 1531 1400 1522 1760 1650 1527 1643
8 1535 1407 1536 1658 1643 1527 1650 1760
8 1521 1399 1529 1645 1644 1528 1651 1761
8 1647 1530 1652 1762 1525 1404 1529 1645
8 1401 1523 1648 1532 1531 1646 1763 1655
8 1525 1404 1533 1649 1647 1530 1654 1765
8 1533 1649 1766 1656 1403 1526 1648 1532
8 1662 1542 1658 1774 1539 1414 1535 1657
8 1542 1415 1543 1664 1658 1536 1659 1775
8 1660 1540 1663 1777 1538 1413 1541 1661
8 1545 1421 1548 1666 1660 1540 1663 1777
8 1662 1542 1414 1539 1778 1664 1541 1661
8 1664 1543 1416 1541 1779 1665 1544 1663
8 1548 1425 1550 1668 1663 1544 1665 1779
8 1547 1423 1549 1667 1666 1548 1668 1781
8 1670 1551 1668 1781 1553 1427 1549 1667
8 1551 1426 1552 1671 1668 1550 1669 1782
8 1670 1551 1427 1553 1784 1671 1554 1674
8 1675 1555 1672 1785 1554 1428 1552 1671
8 1678 1556 1673 1789 1558 1429 1555 1675
8 1561 1431 1558 1681 1674 1554 1675 1790
8 1794 1677 1556 1678 1680 1557 1429 1558
8 1560 1430 1559 1683 1680 1557 1679 1797
8 1561 1431 1560 1684 1681 1558 1680 1798
8 1563 1433 1564 1686 1683 1559 1682 1800
8 1684 1560 1432 1562 1801 1683 1563 1685
8 1565 1435 1566 1688 1685 1563 1686 1802
8 1566 1436 1567 1689 1686 1564 1687 1803
8 1568 1438 1569 1691 1688 1566 1689 1805
8 1569 1439 1570 1692 1689 1567 1690 1806
8 1571 1441 1572 1694 1691 1569 1692 1808
8 1442 1572 1692 1570 1573 1695 1809 1693
8 1574 1444 1575 1696 1694 1572 1695 1810
8 1614 1485 1592 1712 1699 1577 1697 1813
8 1579 1449 1577 1699 1701 1578 1698 1815
8 1615 1486 1614 1735 1702 1579 1699 1816
8 1701 1578 1700 1818 1581 1450 1580 1704
8 1582 1451 1579 1702 1705 1581 1701 1819
8 1704 1580 1703 1820 1584 1452 1583 1706
8 1705 1581 1704 1821 1585 1453 1584 1707
8 1707 1584 1706 1822 1587 1456 1586 1708
8 1710 1589 1506 1633 1824 1709 1632 1751
8 1594 1463 1589 1710 1716 1593 1709 1824
8 1752 1633 1710 1825 1634 1507 1590 1711
8 1595 1464 1590 1711 1717 1594 1710 1825
8 1830 1714 1592 1712 1733 1611 1485 1614
8 1603 1477 1593 1716 1725 1607 1715 1834
8 1599 1473 1594 1717 1721 1603 1716 1835
8 1837 1722 1623 1736 1718 1600 1496 1616
8 1719 1601 1722 1837 1597 1471 1600 1718
8 1602 1720 1598 1472 1723 1838 1719 1601
8 1720 1602 1473 1599 1839 1724 1603 1721
8 1723 1605 1726 1840 1601 1475 1604 1722
8 1840 1726 1628 1743 1722 1604 1501 1623
8 1724 1606 1727 1841 1602 1476 1605 1723
8 1725 1607 1728 1842 1603 1477 1606 1724
8 1612 1482 1608 1731 1733 1611 1730 1849
8 1741 1627 1730 1849 1622 1504 1608 1731
8 1613 1483 1609 1732 1734 1612 1731 1850
8 1618 1495 1622 1738 1732 1609 1731 1850
8 1615 1486 1612 1734 1735 1614 1733 1851
8 1852 1743 1626 1737 1736 1623 1499 1617
8 1853 1745 1625 1739 1737 1626 1500 1619
8 1855 1742 1622 1738 1740 1624 1497 1621
8 1856 1744 1624 1740 1739 1625 1498 1620
8 1741 1627 1504 1622 1857 1746 1631 1742
8 1742 1631 1505 1624 1858 1749 1630 1744
8 1859 1747 1629 1745 1743 1628 1502 1626
8 1860 1748 1630 1744 1745 1629 1503 1625
8 1644 1528 1651 1761 1751 1632 1750 1865
8 1637 1520 1644 1755 1752 1633 1751 1866
8 1754 1646 1522 1636 1867 1760 1643 1753
8 1657 1535 1658 1774 1753 1643 1760 1867
8 1639 1523 1646 1754 1756 1648 1763 1868
8 1641 1521 1645 1758 1755 1644 1761 1869
8 1757 1649 1526 1640 1870 1766 1648 1756
8 1642 1525 1649 1757 1759 1647 1765 1871
8 1759 1647 1762 1872 1642 1525 1645 1758
8 1760 1650 1767 1874 1646 1531 1655 1763
8 1658 1536 1659 1775 1760 1650 1767 1874
8 1762 1652 1768 1875 1645 1529 1651 1761
8 1764 1653 1769 1876 1647 1530 1652 1762
8 1656 1766 1877 1773 1532 1648 1763 1655
8 1771 1879 1765 1654 1653 1764 1647 1530
8 1533 1649 1765 1654 1656 1766 1880 1772
8 1662 1542 1664 1778 1774 1658 1775 1887
8 1664 1543 1665 1779 1775 1659 1776 1888
8 1778 1664 1541 1661 1890 1779 1663 1777
8 1666 1548 1668 1781 1777 1663 1779 1890
8 1782 1669 1780 1891 1668 1550 1665 1779
8 1670 1551 1671 1784 1781 1668 1782 1893
8 1671 1552 1672 1785 1782 1669 1783 1894
8 1790 1675 1785 1896 1674 1554 1671 1784
8 1675 1555 1673 1789 1785 1672 1786 1897
8 1792 1676 1788 1903 1678 1556 1673 1789
8 1795 1678 1789 1904 1681 1558 1675 1790
8 1792 1676 1556 1678 1906 1791 1677 1794
8 1680 1557 1679 1797 1794 1677 1793 1909
8 1910 1794 1678 1795 1798 1680 1558 1681
8 1683 1559 1682 1800 1797 1679 1796 1912
8 1684 1560 1683 1801 1798 1680 1797 1913
8 1686 1564 1687 1803 1800 1682 1799 1915
8 1685 1563 1686 1802 1801 1683 1800 1916
8 1688 1566 1689 1805 1802 1686 1803 1917
8 1689 1567 1690 1806 1803 1687 1804 1918
8 1691 1569 1692 1808 1805 1689 1806 1920
8 1692 1570 1693 1809 1806 1690 1807 1921
8 1694 1572 1695 1810 1808 1692 1809 1922
8 1829 1713 1811 1926 1712 1592 1697 1813
8 1813 1697 1812 1928 1699 1577 1698 1815
8 1735 1614 1712 1828 1816 1699 1813 1929
8 1815 1698 1814 1931 1701 1578 1700 1818
8 1702 1579 1699 1816 1819 1701 1815 1932
8 1818 1700 1817 1933 1704 1580 1703 1820
8 1819 1701 1818 1934 1705 1581 1704 1821
8 1821 1704 1820 1935 1707 1584 1706 1822
8 1824 1709 1632 1751 1937 1823 1750 1865
8 1716 1593 1709 1824 1834 1715 1823 1937
8 1825 1710 1633 1752 1938 1824 1751 1866
8 1717 1594 1710 1825 1835 1716 1824 1938
8 1945 1830 1712 1828 1851 1733 1614 1735
8 1830 1714 1831 1946 1712 1592 1713 1829
8 1947 1832 1714 1830 1849 1730 1611 1733
8 1843 1729 1607 1725 1950 1833 1715 1834
8 1721 1603 1716 1835 1836 1725 1834 1951
8 1836 1725 1842 1953 1721 1603 1724 1839
8 1723 1838 1719 1601 1840 1954 1837 1722
8 1954 1840 1743 1852 1837 1722 1623 1736
8 1724 1839 1720 1602 1841 1955 1838 1723
8 1841 1727 1844 1956 1723 1605 1726 1840
8 1956 1844 1747 1859 1840 1726 1628 1743
8 1728 1842 1724 1606 1845 1957 1841 1727
8 1725 1607 1729 1843 1842 1728 1846 1958
8 1741 1627 1746 1857 1849 1730 1848 1965
8 1734 1612 1731 1850 1851 1733 1849 1966
8 1854 1741 1849 1966 1738 1622 1731 1850
8 1967 1859 1745 1853 1852 1743 1626 1737
8 1968 1860 1744 1856 1853 1745 1625 1739
8 1854 1741 1622 1738 1969 1857 1742 1855
8 1855 1742 1624 1740 1970 1858 1744 1856
8 1857 1746 1631 1742 1971 1861 1749 1858
8 1858 1749 1630 1744 1972 1863 1748 1860
8 1859 1747 1862 1973 1745 1629 1748 1860
8 1875 1768 1864 1977 1761 1651 1750 1865
8 1755 1644 1761 1869 1866 1751 1865 1978
8 1867 1760 1874 1979 1754 1646 1763 1868
8 1774 1658 1775 1887 1867 1760 1874 1979
8 1870 1766 1648 1756 1980 1877 1763 1868
8 1872 1762 1875 1981 1758 1645 1761 1869
8 1757 1649 1766 1870 1871 1765 1880 1982
8 1983 1879 1764 1873 1871 1765 1647 1759
8 1873 1764 1876 1984 1759 1647 1762 1872
8 1877 1773 1655 1763 1986 1881 1767 1874
8 1775 1659 1776 1888 1874 1767 1881 1986
8 1876 1769 1882 1987 1762 1652 1768 1875
8 1878 1770 1883 1988 1764 1653 1769 1876
8 1880 1772 1656 1766 1989 1886 1773 1877
8 1878 1770 1653 1764 1990 1884 1771 1879
8 1765 1654 1772 1880 1879 1771 1885 1991
8 1778 1664 1779 1890 1887 1775 1888 1997
8 1998 1889 1776 1888 1891 1780 1665 1779
8 1893 1782 1891 2000 1781 1668 1779 1890
8 1894 1783 1892 2001 1782 1669 1780 1891
8 1784 1671 1785 1896 1893 1782 1894 2003
8 1897 1786 1895 2004 1785 1672 1783 1894
8 1790 1675 1789 1904 1896 1785 1897 2006
8 1901 1787 1898 2007 1789 1673 1786 1897
8 1903 1788 1900 2013 1789 1673 1787 1901
8 1792 1676 1791 1906 1903 1788 1902 2016
8 1907 1792 1903 2017 1795 1678 1789 1904
8 1906 1791 1677 1794 2019 1905 1793 1909
8 1907 1792 1678 1795 2020 1906 1794 1910
8 1797 1679 1796 1912 1909 1793 1908 2022
8 1798 1680 1797 1913 1910 1794 1909 2023
8 1800 1682 1799 1915 1912 1796 1911 2025
8 1801 1683 1800 1916 1913 1797 1912 2026
8 1803 1687 1804 1918 1915 1799 1914 2028
8 1802 1686 1803 1917 1916 1800 1915 2029
8 1805 1689 1806 1920 1917 1803 1918 2030
8 1806 1690 1807 1921 1918 1804 1919 2031
8 1808 1692 1809 1922 1920 1806 1921 2032
8 1939 1826 1924 2037 1829 1713 1811 1926
8 1926 1811 1925 2039 1813 1697 1812 1928
8 1944 1829 1926 2040 1828 1712 1813 1929
8 1928 1812 1927 2042 1815 1698 1814 1931
8 1929 1813 1928 2043 1816 1699 1815 1932
8 1931 1814 1930 2044 1818 1700 1817 1933
8 1932 1815 1931 2045 1819 1701 1818 1934
8 1934 1818 1933 2046 1821 1704 1820 1935
8 2048 1936 1823 1937 1977 1864 1750 1865
8 1950 1833 1715 1834 2048 1936 1823 1937
8 1938 1824 1751 1866 2049 1937 1865 1978
8 1835 1716 1824 1938 1951 1834 1937 2049
8 1939 1826 1713 1829 2053 1942 1831 1946
8 1940 1827 1923 2035 2053 1942 1826 1939
8 1945 1830 1946 2058 1828 1712 1829 1944
8 2059 1947 1830 1945 1966 1849 1733 1851
8 1947 1832 1730 1849 2060 1948 1848 1965
8 1947 1832 1948 2060 1830 1714 1831 1946
8 1959 1847 1729 1843 2063 1949 1833 1950
8 1952 1843 1725 1836 2064 1950 1834 1951
8 1836 1725 1843 1952 1953 1842 1958 2066
8 1953 1842 1957 2067 1839 1724 1841 1955
8 1841 1955 1838 1723 1956 2068 1954 1840
8 2068 1956 1859 1967 1954 1840 1743 1852
8 1956 1844 1960 2069 1859 1747 1862 1973
8 1845 1957 1841 1727 1960 2069 1956 1844
8 1728 1842 1957 1845 1846 1958 2071 1961
8 1962 2072 1959 1847 1846 1958 1843 1729
8 1971 1861 1964 2077 1857 1746 1848 1965
8 1854 1741 1857 1969 1966 1849 1965 2078
8 1967 1859 1973 2079 1853 1745 1860 1968
8 1970 1858 1744 1856 2080 1972 1860 1968
8 1969 1857 1742 1855 2081 1971 1858 1970
8 1971 1861 1749 1858 2082 1974 1863 1972
8 1973 1862 1975 2083 1860 1748 1863 1972
8 1987 1882 1976 2086 1875 1768 1864 1977
8 1981 1875 1977 2087 1869 1761 1865 1978
8 1980 1877 1763 1868 2088 1986 1874 1979
8 1887 1775 1888 1997 1979 1874 1986 2088
8 1880 1982 2089 1989 1766 1870 1980 1877
8 1984 1876 1987 2090 1872 1762 1875 1981
8 1765 1871 1983 1879 1880 1982 2091 1991
8 1985 1878 1764 1873 2092 1990 1879 1983
8 1985 1878 1988 2093 1873 1764 1876 1984
8 2094 1992 1881 1986 1998 1889 1776 1888
8 1986 1881 1992 2094 1877 1773 1886 1989
8 1988 1883 1993 2095 1876 1769 1882 1987
8 1878 1770 1884 1990 1988 1883 1994 2096
8 1991 1885 1772 1880 2097 1996 1886 1989
8 1879 1771 1885 1991 1990 1884 1995 2098
8 2103 1998 1888 1997 2000 1891 1779 1890
8 2104 1999 1889 1998 2001 1892 1780 1891
8 2003 1894 2001 2106 1893 1782 1891 2000
8 2004 1895 2002 2107 1894 1783 1892 2001
8 2006 1897 2004 2109 1896 1785 1894 2003
8 2007 1898 2005 2110 1897 1786 1895 2004
8 2014 1901 2007 2112 1904 1789 1897 2006
8 2011 1899 2008 2113 1901 1787 1898 2007
8 2119 2010 1899 2011 2013 1900 1787 1901
8 2016 1902 2012 2122 1903 1788 1900 2013
8 2017 1903 2013 2123 1904 1789 1901 2014
8 1906 1791 1905 2019 2016 1902 2015 2125
8 1907 1792 1906 2020 2017 1903 2016 2126
8 1909 1793 1908 2022 2019 1905 2018 2128
8 2020 1906 1794 1910 2129 2019 1909 2023
8 1912 1796 1911 2025 2022 1908 2021 2131
8 1913 1797 1912 2026 2023 1909 2022 2132
8 1915 1799 1914 2028 2025 1911 2024 2134
8 1916 1800 1915 2029 2026 1912 2025 2135
8 1918 1804 1919 2031 2028 1914 2027 2136
8 1917 1803 1918 2030 2029 1915 2028 2137
8 1920 1806 1921 2032 2030 1918 2031 2138
8 1940 1827 1941 2054 2035 1923 2033 2140
8 2035 1923 2034 2143 1939 1826 1924 2037
8 2037 1924 2036 2146 1926 1811 1925 2039
8 2051 1939 2037 2147 1944 1829 1926 2040
8 2039 1925 2038 2149 1928 1812 1927 2042
8 2040 1926 2039 2150 1929 1813 1928 2043
8 2042 1927 2041 2151 1931 1814 1930 2044
8 2043 1928 2042 2152 1932 1815 1931 2045
8 2045 1931 2044 2153 1934 1818 1933 2046
8 2155 2047 1936 2048 2086 1976 1864 1977
8 2063 1949 1833 1950 2155 2047 1936 2048
8 2156 2048 1937 2049 2087 1977 1865 1978
8 2064 1950 1834 1951 2156 2048 1937 2049
8 2051 1939 1829 1944 2160 2053 1946 2058
8 2052 1940 2035 2144 2160 2053 1939 2051
8 2053 1942 1831 1946 2163 2057 1948 2060
8 2055 1943 1827 1940 2163 2057 1942 2053
8 2055 1943 2056 2164 1940 1827 1941 2054
8 2059 1947 1849 1966 2167 2060 1965 2078
8 2059 1947 2060 2167 1945 1830 1946 2058
8 2077 1964 2061 2168 1965 1848 1948 2060
8 2070 1963 1847 1959 2170 2062 1949 2063
8 2065 1959 1843 1952 2171 2063 1950 2064
8 2173 2072 1958 2066 2065 1959 1843 1952
8 1953 1842 1958 2066 2067 1957 2071 2174
8 2068 1956 2069 2175 1967 1859 1973 2079
8 2067 1957 2069 2175 1955 1841 1956 2068
8 1845 1957 2069 1960 1961 2071 2176 2073
8 2069 1960 2073 2176 1973 1862 1975 2083
8 2070 1963 2075 2177 1959 1847 1962 2072
8 1846 1958 2071 1961 1962 2072 2178 2074
8 2077 1964 1861 1971 2182 2076 1974 2082
8 2081 1971 2077 2183 1969 1857 1965 2078
8 2079 1973 2083 2184 1968 1860 1972 2080
8 2081 1971 1858 1970 2185 2082 1972 2080
8 2083 1975 2084 2186 1972 1863 1974 2082
8 2086 1976 1882 1987 2189 2085 1993 2095
8 2090 1987 2086 2190 1981 1875 1977 2087
8 2191 2094 1986 2088 2103 1998 1888 1997
8 2088 1986 2094 2191 1980 1877 1989 2089
8 1991 2091 2192 2097 1880 1982 2089 1989
8 2093 1988 2095 2193 1984 1876 1987 2090
8 1879 1983 2092 1990 1991 2091 2194 2098
8 1985 1878 1990 2092 2093 1988 2096 2195
8 2097 1996 1886 1989 2196 2099 1992 2094
8 2196 2099 1992 2094 2104 1999 1889 1998
8 1994 2096 1988 1883 2100 2197 2095 1993
8 2096 1994 1884 1990 2198 2101 1995 2098
8 1995 2098 2199 2102 1885 1991 2097 1996
8 2203 2104 1998 2103 2106 2001 1891 2000
8 2107 2002 2105 2204 2001 1892 1999 2104
8 2109 2004 2107 2206 2003 1894 2001 2106
8 2110 2005 2108 2207 2004 1895 2002 2107
8 2112 2007 2110 2209 2006 1897 2004 2109
8 2113 2008 2111 2210 2007 1898 2005 2110
8 2120 2011 2113 2212 2014 1901 2007 2112
8 2117 2009 2114 2213 2011 1899 2008 2113
8 2219 2116 2009 2117 2119 2010 1899 2011
8 2222 2118 2010 2119 2122 2012 1900 2013
8 2223 2119 2011 2120 2123 2013 1901 2014
8 2016 1902 2015 2125 2122 2012 2121 2225
8 2126 2016 2122 2226 2017 1903 2013 2123
8 2019 1905 2018 2128 2125 2015 2124 2228
8 2020 1906 2019 2129 2126 2016 2125 2229
8 2022 1908 2021 2131 2128 2018 2127 2231
8 2023 1909 2022 2132 2129 2019 2128 2232
8 2025 1911 2024 2134 2131 2021 2130 2234
8 2026 1912 2025 2135 2132 2022 2131 2235
8 1914 2028 2134 2024 2027 2136 2236 2133
8 2029 1915 2028 2137 2135 2025 2134 2237
8 2030 1918 2031 2138 2137 2028 2136 2238
8 2157 2050 2139 2240 2054 1941 2033 2140
8 2052 1940 2054 2161 2144 2035 2140 2242
8 2140 2033 2141 2243 2035 1923 2034 2143
8 2143 2034 2142 2246 2037 1924 2036 2146
8 2144 2035 2143 2247 2051 1939 2037 2147
8 2146 2036 2145 2249 2039 1925 2038 2149
8 2147 2037 2146 2250 2040 1926 2039 2150
8 2149 2038 2148 2251 2042 1927 2041 2151
8 2150 2039 2149 2252 2043 1928 2042 2152
8 2152 2042 2151 2253 2045 1931 2044 2153
8 2255 2154 2047 2155 2189 2085 1976 2086
8 2170 2062 1949 2063 2255 2154 2047 2155
8 2256 2155 2048 2156 2190 2086 1977 2087
8 2171 2063 1950 2064 2256 2155 2048 2156
8 2258 2159 2050 2157 2164 2056 1941 2054
8 2160 2053 1946 2058 2262 2163 2060 2167
8 2162 2055 1940 2052 2262 2163 2053 2160
8 2162 2055 2164 2263 2052 1940 2054 2161
8 2163 2057 1948 2060 2264 2165 2061 2168
8 2055 1943 2057 2163 2164 2056 2165 2264
8 2182 2076 2166 2268 2077 1964 2061 2168
8 2183 2077 2168 2269 2078 1965 2060 2167
8 2070 1963 2062 2170 2177 2075 2169 2271
8 2172 2070 1959 2065 2272 2170 2063 2171
8 2172 2070 2177 2273 2065 1959 2072 2173
8 2066 1958 2072 2173 2174 2071 2178 2274
8 2067 1957 2071 2174 2175 2069 2176 2275
8 2175 2069 2176 2275 2079 1973 2083 2184
8 2071 1961 2074 2178 2176 2073 2179 2276
8 2176 2073 2179 2276 2083 1975 2084 2186
8 2072 1962 2075 2177 2178 2074 2180 2277
8 2182 2076 1974 2082 2280 2181 2084 2186
8 2183 2077 1971 2081 2281 2182 2082 2185
8 2184 2083 2186 2282 2080 1972 2082 2185
8 2189 2085 1993 2095 2285 2188 2100 2197
8 2190 2086 1987 2090 2286 2189 2095 2193
8 2192 2097 1989 2089 2287 2196 2094 2191
8 2287 2196 2094 2191 2203 2104 1998 2103
8 2194 2098 1991 2091 2288 2199 2097 2192
8 2195 2096 2197 2289 2093 1988 2095 2193
8 2096 2195 2290 2198 1990 2092 2194 2098
8 2097 1996 2099 2196 2199 2102 2200 2291
8 2196 2099 1999 2104 2291 2200 2105 2204
8 2100 2197 2292 2201 1994 2096 2198 2101
8 1995 2098 2198 2101 2102 2199 2293 2202
8 2206 2107 2204 2296 2106 2001 2104 2203
8 2207 2108 2205 2297 2107 2002 2105 2204
8 2209 2110 2207 2299 2109 2004 2107 2206
8 2210 2111 2208 2300 2110 2005 2108 2207
8 2212 2113 2210 2302 2112 2007 2110 2209
8 2213 2114 2211 2303 2113 2008 2111 2210
8 2220 2117 2213 2305 2120 2011 2113 2212
8 2216 2115 2214 2306 2117 2009 2114 2213
8 2216 2115 2009 2117 2311 2217 2116 2219
8 2219 2116 2010 2119 2314 2218 2118 2222
8 2315 2219 2117 2220 2223 2119 2011 2120
8 2122 2012 2121 2225 2222 2118 2221 2317
8 2318 2222 2119 2223 2226 2122 2013 2123
8 2125 2015 2124 2228 2225 2121 2224 2320
8 2126 2016 2125 2229 2226 2122 2225 2321
8 2128 2018 2127 2231 2228 2124 2227 2323
8 2129 2019 2128 2232 2229 2125 2228 2324
8 2131 2021 2130 2234 2231 2127 2230 2326
8 2132 2022 2131 2235 2232 2128 2231 2327
8 2134 2024 2133 2236 2234 2130 2233 2328
8 2135 2025 2134 2237 2235 2131 2234 2329
8 2137 2028 2136 2238 2237 2134 2236 2330
8 2157 2050 2158 2259 2240 2139 2239 2332
8 2257 2157 2240 2334 2161 2054 2140 2242
8 2240 2139 2241 2335 2140 2033 2141 2243
8 2242 2140 2243 2337 2144 2035 2143 2247
8 2243 2141 2244 2338 2143 2034 2142 2246
8 2246 2142 2245 2341 2146 2036 2145 2249
8 2247 2143 2246 2342 2147 2037 2146 2250
8 2249 2145 2248 2343 2149 2038 2148 2251
8 2250 2146 2249 2344 2150 2039 2149 2252
8 2252 2149 2251 2345 2152 2042 2151 2253
8 2169 2271 2347 2254 2062 2170 2255 2154
8 2189 2085 2188 2285 2255 2154 2254 2347
8 2348 2255 2155 2256 2286 2189 2086 2190
8 2272 2170 2063 2171 2348 2255 2155 2256
8 2349 2258 2157 2257 2263 2164 2054 2161
8 2258 2159 2261 2351 2157 2050 2158 2259
8 2258 2159 2056 2164 2351 2261 2165 2264
8 2262 2163 2060 2167 2355 2264 2168 2269
8 2162 2055 2163 2262 2263 2164 2264 2355
8 2357 2266 2165 2264 2268 2166 2061 2168
8 2268 2166 2076 2182 2361 2267 2181 2280
8 2281 2182 2268 2362 2183 2077 2168 2269
8 2271 2169 2270 2364 2177 2075 2180 2277
8 2172 2070 2170 2272 2273 2177 2271 2365
8 2072 2173 2274 2178 2177 2273 2366 2277
8 2071 2174 2275 2176 2178 2274 2367 2276
8 2275 2176 2276 2367 2184 2083 2186 2282
8 2283 2187 2084 2186 2368 2278 2179 2276
8 2178 2074 2180 2277 2276 2179 2278 2368
8 2283 2187 2279 2370 2186 2084 2181 2280
8 2281 2182 2082 2185 2371 2280 2186 2282
8 2188 2285 2374 2284 2100 2197 2292 2201
8 2286 2189 2095 2193 2375 2285 2197 2289
8 2192 2097 2196 2287 2288 2199 2291 2376
8 2287 2196 2104 2203 2376 2291 2204 2296
8 2194 2098 2199 2288 2290 2198 2293 2377
8 2289 2197 2096 2195 2378 2292 2198 2290
8 2291 2200 2105 2204 2379 2294 2205 2297
8 2199 2102 2200 2291 2293 2202 2294 2379
8 2198 2101 2202 2293 2292 2201 2295 2380
8 2299 2207 2297 2383 2206 2107 2204 2296
8 2300 2208 2298 2384 2207 2108 2205 2297
8 2302 2210 2300 2386 2209 2110 2207 2299
8 2303 2211 2301 2387 2210 2111 2208 2300
8 2305 2213 2303 2389 2212 2113 2210 2302
8 2306 2214 2304 2390 2213 2114 2211 2303
8 2310 2216 2306 2392 2220 2117 2213 2305
8 2308 2215 2307 2393 2216 2115 2214 2306
8 2308 2215 2115 2216 2396 2309 2217 2311
8 2310 2216 2117 2220 2398 2311 2219 2315
8 2311 2217 2116 2219 2399 2312 2218 2314
8 2314 2218 2118 2222 2402 2313 2221 2317
8 2315 2219 2119 2223 2403 2314 2222 2318
8 2225 2121 2224 2320 2317 2221 2316 2405
8 2226 2122 2225 2321 2318 2222 2317 2406
8 2228 2124 2227 2323 2320 2224 2319 2408
8 2229 2125 2228 2324 2321 2225 2320 2409
8 2231 2127 2230 2326 2323 2227 2322 2411
8 2232 2128 2231 2327 2324 2228 2323 2412
8 2234 2130 2233 2328 2326 2230 2325 2413
8 2235 2131 2234 2329 2327 2231 2326 2414
8 2237 2134 2236 2330 2329 2234 2328 2415
8 2259 2158 2260 2352 2332 2239 2331 2417
8 2257 2157 2259 2350 2334 2240 2332 2419
8 2240 2139 2239 2332 2335 2241 2333 2420
8 2334 2240 2335 2422 2242 2140 2243 2337
8 2335 2241 2336 2423 2243 2141 2244 2338
8 2337 2243 2338 2425 2247 2143 2246 2342
8 2338 2244 2339 2426 2246 2142 2245 2341
8 2341 2245 2340 2428 2249 2145 2248 2343
8 2342 2246 2341 2429 2250 2146 2249 2344
8 2344 2249 2343 2430 2252 2149 2251 2345
8 2188 2285 2347 2254 2284 2374 2432 2346
8 2347 2254 2346 2432 2271 2169 2270 2364
8 2365 2271 2170 2272 2433 2347 2255 2348
8 2286 2189 2285 2375 2348 2255 2347 2433
8 2349 2258 2351 2435 2257 2157 2259 2350
8 2349 2258 2164 2263 2435 2351 2264 2355
8 2259 2158 2261 2351 2352 2260 2354 2437
8 2356 2265 2354 2437 2264 2165 2261 2351
8 2441 2357 2264 2355 2362 2268 2168 2269
8 2356 2265 2165 2264 2442 2358 2266 2357
8 2443 2359 2266 2357 2361 2267 2166 2268
8 2370 2279 2360 2446 2280 2181 2267 2361
8 2362 2268 2182 2281 2447 2361 2280 2371
8 2180 2277 2368 2278 2270 2364 2449 2363
8 2271 2365 2273 2177 2364 2450 2366 2277
8 2372 2283 2186 2282 2451 2368 2276 2367
8 2178 2274 2367 2276 2277 2366 2451 2368
8 2283 2187 2278 2368 2370 2279 2369 2452
8 2372 2283 2370 2453 2282 2186 2280 2371
8 2284 2374 2455 2373 2201 2292 2380 2295
8 2375 2285 2197 2289 2456 2374 2292 2378
8 2376 2291 2204 2296 2457 2379 2297 2383
8 2288 2199 2291 2376 2377 2293 2379 2457
8 2198 2290 2378 2292 2293 2377 2458 2380
8 2293 2202 2294 2379 2380 2295 2381 2459
8 2384 2298 2381 2459 2297 2205 2294 2379
8 2386 2300 2384 2463 2299 2207 2297 2383
8 2387 2301 2385 2464 2300 2208 2298 2384
8 2389 2303 2387 2466 2302 2210 2300 2386
8 2390 2304 2388 2467 2303 2211 2301 2387
8 2392 2306 2390 2469 2305 2213 2303 2389
8 2393 2307 2391 2470 2306 2214 2304 2390
8 2395 2308 2393 2472 2310 2216 2306 2392
8 2308 2215 2309 2396 2393 2307 2394 2473
8 2395 2308 2216 2310 2475 2396 2311 2398
8 2396 2309 2217 2311 2476 2397 2312 2399
8 2398 2311 2219 2315 2478 2399 2314 2403
8 2399 2312 2218 2314 2479 2400 2313 2402
8 2317 2221 2316 2405 2402 2313 2401 2482
8 2403 2314 2222 2318 2483 2402 2317 2406
8 2320 2224 2319 2408 2405 2316 2404 2485
8 2321 2225 2320 2409 2406 2317 2405 2486
8 2323 2227 2322 2411 2408 2319 2407 2488
8 2324 2228 2323 2412 2409 2320 2408 2489
8 2326 2230 2325 2413 2411 2322 2410 2490
8 2327 2231 2326 2414 2412 2323 2411 2491
8 2329 2234 2328 2415 2414 2326 2413 2492
8 2417 2331 2260 2352 2494 2416 2353 2438
8 2350 2259 2352 2436 2419 2332 2417 2496
8 2332 2239 2331 2417 2420 2333 2418 2497
8 2334 2240 2332 2419 2422 2335 2420 2499
8 2420 2333 2421 2500 2335 2241 2336 2423
8 2422 2335 2423 2502 2337 2243 2338 2425
8 2423 2336 2424 2503 2338 2244 2339 2426
8 2425 2338 2426 2505 2342 2246 2341 2429
8 2426 2339 2427 2506 2341 2245 2340 2428
8 2429 2341 2428 2507 2344 2249 2343 2430
8 2432 2346 2284 2374 2509 2431 2373 2455
8 2432 2346 2431 2509 2364 2270 2363 2449
8 2375 2285 2374 2456 2433 2347 2432 2510
8 2347 2433 2365 2271 2432 2510 2450 2364
8 2350 2259 2351 2435 2436 2352 2437 2514
8 2440 2356 2437 2514 2355 2264 2351 2435
8 2352 2260 2354 2437 2438 2353 2439 2516
8 2356 2265 2358 2442 2437 2354 2439 2516
8 2440 2356 2264 2355 2518 2442 2357 2441
8 2519 2443 2357 2441 2447 2361 2268 2362
8 2443 2359 2444 2520 2357 2266 2358 2442
8 2443 2359 2267 2361 2520 2444 2360 2446
8 2446 2360 2279 2370 2523 2445 2369 2452
8 2453 2370 2446 2524 2371 2280 2361 2447
8 2449 2363 2448 2525 2368 2278 2369 2452
8 2366 2277 2364 2450 2451 2368 2449 2526
8 2372 2283 2368 2451 2453 2370 2452 2527
8 2455 2373 2295 2380 2529 2454 2382 2460
8 2456 2374 2292 2378 2530 2455 2380 2458
8 2377 2293 2379 2457 2458 2380 2459 2531
8 2463 2384 2459 2531 2383 2297 2379 2457
8 2533 2461 2382 2460 2459 2381 2295 2380
8 2464 2385 2461 2533 2384 2298 2381 2459
8 2466 2387 2464 2537 2386 2300 2384 2463
8 2467 2388 2465 2538 2387 2301 2385 2464
8 2469 2390 2467 2540 2389 2303 2387 2466
8 2470 2391 2468 2541 2390 2304 2388 2467
8 2472 2393 2470 2543 2392 2306 2390 2469
8 2393 2307 2394 2473 2470 2391 2471 2544
8 2395 2308 2396 2475 2472 2393 2473 2546
8 2396 2309 2397 2476 2473 2394 2474 2547
8 2475 2396 2311 2398 2549 2476 2399 2478
8 2476 2397 2312 2399 2550 2477 2400 2479
8 2478 2399 2314 2403 2552 2479 2402 2483
8 2479 2400 2313 2402 2553 2480 2401 2482
8 2405 2316 2404 2485 2482 2401 2481 2556
8 2406 2317 2405 2486 2483 2402 2482 2557
8 2408 2319 2407 2488 2485 2404 2484 2559
8 2409 2320 2408 2489 2486 2405 2485 2560
8 2411 2322 2410 2490 2488 2407 2487 2561
8 2412 2323 2411 2491 2489 2408 2488 2562
8 2414 2326 2413 2492 2491 2411 2490 2563
8 2513 2434 2493 2565 2438 2353 2416 2494
8 2496 2417 2352 2436 2567 2494 2438 2515
8 2494 2416 2495 2568 2417 2331 2418 2497
8 2419 2332 2417 2496 2499 2420 2497 2570
8 2497 2418 2498 2571 2420 2333 2421 2500
8 2499 2420 2500 2573 2422 2335 2423 2502
8 2500 2421 2501 2574 2423 2336 2424 2503
8 2502 2423 2503 2576 2425 2338 2426 2505
8 2503 2424 2504 2577 2426 2339 2427 2506
8 2505 2426 2506 2578 2429 2341 2428 2507
8 2509 2431 2373 2455 2580 2508 2454 2529
8 2509 2431 2508 2580 2449 2363 2448 2525
8 2432 2510 2581 2509 2374 2456 2530 2455
8 2432 2510 2450 2364 2509 2581 2526 2449
8 2583 2511 2434 2513 2516 2439 2353 2438
8 2436 2352 2437 2514 2515 2438 2516 2588
8 2440 2356 2442 2518 2514 2437 2516 2588
8 2442 2358 2444 2520 2516 2439 2517 2589
8 2519 2443 2520 2591 2441 2357 2442 2518
8 2519 2443 2361 2447 2591 2520 2446 2524
8 2446 2360 2445 2523 2520 2444 2521 2592
8 2525 2448 2522 2593 2452 2369 2445 2523
8 2524 2446 2370 2453 2594 2523 2452 2527
8 2526 2449 2525 2595 2451 2368 2452 2527
8 2534 2462 2528 2597 2460 2382 2454 2529
8 2530 2455 2380 2458 2598 2529 2460 2532
8 2599 2533 2460 2532 2531 2459 2380 2458
8 2537 2464 2533 2599 2463 2384 2459 2531
8 2534 2462 2382 2460 2601 2535 2461 2533
8 2538 2465 2535 2601 2464 2385 2461 2533
8 2540 2467 2538 2604 2466 2387 2464 2537
8 2541 2468 2539 2605 2467 2388 2465 2538
8 2543 2470 2541 2607 2469 2390 2467 2540
8 2470 2391 2471 2544 2541 2468 2542 2608
8 2472 2393 2473 2546 2543 2470 2544 2610
8 2473 2394 2474 2547 2544 2471 2545 2611
8 2475 2396 2476 2549 2546 2473 2547 2613
8 2476 2397 2477 2550 2547 2474 2548 2614
8 2549 2476 2399 2478 2616 2550 2479 2552
8 2479 2400 2480 2553 2550 2477 2551 2617
8 2552 2479 2402 2483 2619 2553 2482 2557
8 2482 2401 2481 2556 2553 2480 2554 2620
8 2485 2404 2484 2559 2556 2481 2555 2623
8 2486 2405 2485 2560 2557 2482 2556 2624
8 2488 2407 2487 2561 2559 2484 2558 2625
8 2489 2408 2488 2562 2560 2485 2559 2626
8 2491 2411 2490 2563 2562 2488 2561 2627
8 2513 2434 2512 2585 2565 2493 2564 2630
8 2586 2513 2565 2632 2515 2438 2494 2567
8 2565 2493 2566 2633 2494 2416 2495 2568
8 2567 2494 2568 2635 2496 2417 2497 2570
8 2568 2495 2569 2636 2497 2418 2498 2571
8 2570 2497 2571 2638 2499 2420 2500 2573
8 2571 2498 2572 2639 2500 2421 2501 2574
8 2573 2500 2574 2641 2502 2423 2503 2576
8 2574 2501 2575 2642 2503 2424 2504 2577
8 2576 2503 2577 2643 2505 2426 2506 2578
8 2597 2528 2579 2645 2529 2454 2508 2580
8 2580 2508 2579 2645 2525 2448 2522 2593
8 2581 2509 2455 2530 2646 2580 2529 2598
8 2581 2509 2580 2646 2526 2449 2525 2595
8 2583 2511 2582 2648 2513 2434 2512 2585
8 2583 2511 2439 2516 2648 2582 2517 2589
8 2649 2583 2513 2586 2588 2516 2438 2515
8 2589 2517 2444 2520 2653 2587 2521 2592
8 2518 2442 2520 2591 2588 2516 2589 2654
8 2593 2522 2590 2655 2523 2445 2521 2592
8 2524 2446 2523 2594 2591 2520 2592 2656
8 2595 2525 2593 2657 2527 2452 2523 2594
8 2602 2536 2596 2659 2534 2462 2528 2597
8 2600 2534 2597 2660 2532 2460 2529 2598
8 2600 2534 2460 2532 2661 2601 2533 2599
8 2604 2538 2601 2661 2537 2464 2533 2599
8 2602 2536 2462 2534 2663 2603 2535 2601
8 2601 2535 2465 2538 2663 2603 2539 2605
8 2607 2541 2605 2665 2540 2467 2538 2604
8 2608 2542 2606 2666 2541 2468 2539 2605
8 2543 2470 2544 2610 2607 2541 2608 2668
8 2544 2471 2545 2611 2608 2542 2609 2669
8 2546 2473 2547 2613 2610 2544 2611 2671
8 2547 2474 2548 2614 2611 2545 2612 2672
8 2549 2476 2550 2616 2613 2547 2614 2674
8 2550 2477 2551 2617 2614 2548 2615 2675
8 2552 2479 2553 2619 2616 2550 2617 2677
8 2553 2480 2554 2620 2617 2551 2618 2678
8 2557 2482 2556 2624 2619 2553 2620 2680
8 2556 2481 2555 2623 2620 2554 2621 2681
8 2559 2484 2558 2625 2623 2555 2622 2683
8 2560 2485 2559 2626 2624 2556 2623 2684
8 2562 2488 2561 2627 2626 2559 2625 2685
8 2690 2629 2564 2630 2650 2584 2512 2585
8 2586 2513 2585 2651 2632 2565 2630 2691
8 2630 2564 2631 2692 2565 2493 2566 2633
8 2632 2565 2633 2694 2567 2494 2568 2635
8 2633 2566 2634 2695 2568 2495 2569 2636
8 2635 2568 2636 2697 2570 2497 2571 2638
8 2636 2569 2637 2698 2571 2498 2572 2639
8 2638 2571 2639 2700 2573 2500 2574 2641
8 2639 2572 2640 2701 2574 2501 2575 2642
8 2641 2574 2642 2702 2576 2503 2577 2643
8 2597 2528 2596 2659 2645 2579 2644 2704
8 2645 2579 2644 2704 2593 2522 2590 2655
8 2660 2597 2645 2705 2598 2529 2580 2646
8 2646 2580 2645 2705 2595 2525 2593 2657
8 2650 2584 2512 2585 2707 2647 2582 2648
8 2648 2582 2517 2589 2707 2647 2587 2653
8 2649 2583 2648 2708 2586 2513 2585 2651
8 2649 2583 2516 2588 2708 2648 2589 2654
8 2655 2590 2652 2710 2592 2521 2587 2653
8 2654 2589 2520 2591 2711 2653 2592 2656
8 2657 2593 2655 2712 2594 2523 2592 2656
8 2602 2536 2603 2663 2659 2596 2658 2714
8 2662 2602 2659 2715 2600 2534 2597 2660
8 2662 2602 2534 2600 2717 2663 2601 2661
8 2661 2601 2538 2604 2717 2663 2605 2665
8 2666 2606 2664 2718 2605 2539 2603 2663
8 2668 2608 2666 2720 2607 2541 2605 2665
8 2608 2542 2609 2669 2666 2606 2667 2721
8 2610 2544 2611 2671 2668 2608 2669 2723
8 2611 2545 2612 2672 2669 2609 2670 2724
8 2613 2547 2614 2674 2671 2611 2672 2726
8 2614 2548 2615 2675 2672 2612 2673 2727
8 2616 2550 2617 2677 2674 2614 2675 2729
8 2617 2551 2618 2678 2675 2615 2676 2730
8 2619 2553 2620 2680 2677 2617 2678 2732
8 2620 2554 2621 2681 2678 2618 2679 2733
8 2624 2556 2623 2684 2680 2620 2681 2735
8 2681 2621 2555 2623 2736 2682 2622 2683
8 2626 2559 2625 2685 2684 2623 2683 2737
8 2688 2628 2584 2650 2740 2686 2647 2707
8 2688 2628 2687 2742 2650 2584 2629 2690
8 2690 2629 2689 2745 2630 2564 2631 2692
8 2746 2690 2630 2691 2709 2650 2585 2651
8 2691 2630 2692 2747 2632 2565 2633 2694
8 2692 2631 2693 2748 2633 2566 2634 2695
8 2694 2633 2695 2750 2635 2568 2636 2697
8 2695 2634 2696 2751 2636 2569 2637 2698
8 2697 2636 2698 2753 2638 2571 2639 2700
8 2698 2637 2699 2754 2639 2572 2640 2701
8 2700 2639 2701 2755 2641 2574 2642 2702
8 2659 2596 2658 2714 2704 2644 2703 2757
8 2704 2644 2703 2757 2655 2590 2652 2710
8 2660 2597 2659 2715 2705 2645 2704 2758
8 2705 2645 2704 2758 2657 2593 2655 2712
8 2759 2706 2647 2707 2710 2652 2587 2653
8 2709 2650 2585 2651 2760 2707 2648 2708
8 2708 2648 2589 2654 2760 2707 2653 2711
8 2712 2655 2710 2761 2656 2592 2653 2711
8 2763 2713 2658 2714 2718 2664 2603 2663
8 2662 2602 2663 2717 2715 2659 2714 2764
8 2720 2666 2718 2767 2665 2605 2663 2717
8 2768 2719 2664 2718 2721 2667 2606 2666
8 2668 2608 2669 2723 2720 2666 2721 2770
8 2669 2609 2670 2724 2721 2667 2722 2771
8 2671 2611 2672 2726 2723 2669 2724 2773
8 2672 2612 2673 2727 2724 2670 2725 2774
8 2674 2614 2675 2729 2726 2672 2727 2776
8 2675 2615 2676 2730 2727 2673 2728 2777
8 2677 2617 2678 2732 2729 2675 2730 2779
8 2678 2618 2679 2733 2730 2676 2731 2780
8 2680 2620 2681 2735 2732 2678 2733 2782
8 2733 2679 2621 2681 2783 2734 2682 2736
8 2735 2681 2623 2684 2784 2736 2683 2737
8 2740 2686 2647 2707 2787 2738 2706 2759
8 2688 2628 2686 2740 2742 2687 2739 2789
8 2743 2688 2650 2709 2790 2740 2707 2760
8 2742 2687 2741 2792 2690 2629 2689 2745
8 2743 2688 2742 2793 2709 2650 2690 2746
8 2745 2689 2744 2795 2692 2631 2693 2748
8 2746 2690 2745 2796 2691 2630 2692 2747
8 2747 2692 2748 2797 2694 2633 2695 2750
8 2748 2693 2749 2798 2695 2634 2696 2751
8 2750 2695 2751 2800 2697 2636 2698 2753
8 2751 2696 2752 2801 2698 2637 2699 2754
8 2753 2698 2754 2802 2700 2639 2701 2755
8 2763 2713 2756 2804 2714 2658 2703 2757
8 2759 2706 2652 2710 2804 2756 2703 2757
8 2715 2659 2714 2764 2758 2704 2757 2805
8 2758 2704 2757 2805 2712 2655 2710 2761
8 2806 2759 2707 2760 2761 2710 2653 2711
8 2765 2716 2762 2808 2718 2664 2713 2763
8 2809 2763 2714 2764 2767 2718 2663 2717
8 2765 2716 2664 2718 2811 2766 2719 2768
8 2813 2768 2718 2767 2770 2721 2666 2720
8 2814 2769 2719 2768 2771 2722 2667 2721
8 2723 2669 2724 2773 2770 2721 2771 2816
8 2724 2670 2725 2774 2771 2722 2772 2817
8 2726 2672 2727 2776 2773 2724 2774 2819
8 2727 2673 2728 2777 2774 2725 2775 2820
8 2729 2675 2730 2779 2776 2727 2777 2822
8 2730 2676 2731 2780 2777 2728 2778 2823
8 2732 2678 2733 2782 2779 2730 2780 2825
8 2780 2731 2679 2733 2826 2781 2734 2783
8 2782 2733 2681 2735 2827 2783 2736 2784
8 2830 2785 2738 2787 2804 2756 2706 2759
8 2789 2739 2686 2740 2832 2786 2738 2787
8 2790 2740 2707 2760 2833 2787 2759 2806
8 2742 2687 2739 2789 2792 2741 2788 2835
8 2743 2688 2740 2790 2793 2742 2789 2836
8 2792 2741 2791 2838 2745 2689 2744 2795
8 2793 2742 2792 2839 2746 2690 2745 2796
8 2795 2744 2794 2841 2748 2693 2749 2798
8 2796 2745 2795 2842 2747 2692 2748 2797
8 2797 2748 2798 2843 2750 2695 2751 2800
8 2798 2749 2799 2844 2751 2696 2752 2801
8 2800 2751 2801 2845 2753 2698 2754 2802
8 2808 2762 2803 2847 2763 2713 2756 2804
8 2809 2763 2804 2848 2764 2714 2757 2805
8 2806 2759 2710 2761 2848 2804 2757 2805
8 2765 2716 2766 2811 2808 2762 2807 2850
8 2810 2765 2808 2851 2767 2718 2763 2809
8 2810 2765 2718 2767 2852 2811 2768 2813
8 2811 2766 2719 2768 2853 2812 2769 2814
8 2855 2814 2768 2813 2816 2771 2721 2770
8 2856 2815 2769 2814 2817 2772 2722 2771
8 2773 2724 2774 2819 2816 2771 2817 2858
8 2774 2725 2775 2820 2817 2772 2818 2859
8 2776 2727 2777 2822 2819 2774 2820 2861
8 2777 2728 2778 2823 2820 2775 2821 2862
8 2779 2730 2780 2825 2822 2777 2823 2864
8 2823 2778 2731 2780 2865 2824 2781 2826
8 2825 2780 2733 2782 2866 2826 2783 2827
8 2869 2828 2785 2830 2847 2803 2756 2804
8 2871 2829 2786 2832 2830 2785 2738 2787
8 2872 2830 2787 2833 2848 2804 2759 2806
8 2789 2739 2786 2832 2835 2788 2831 2874
8 2836 2789 2740 2790 2875 2832 2787 2833
8 2792 2741 2788 2835 2838 2791 2834 2877
8 2793 2742 2789 2836 2839 2792 2835 2878
8 2838 2791 2837 2880 2795 2744 2794 2841
8 2839 2792 2838 2881 2796 2745 2795 2842
8 2841 2794 2840 2882 2798 2749 2799 2844
8 2842 2795 2841 2883 2797 2748 2798 2843
8 2843 2798 2844 2884 2800 2751 2801 2845
8 2886 2846 2803 2847 2850 2807 2762 2808
8 2851 2808 2847 2887 2809 2763 2804 2848
8 2850 2807 2766 2811 2889 2849 2812 2853
8 2810 2765 2811 2852 2851 2808 2850 2890
8 2852 2811 2768 2813 2891 2853 2814 2855
8 2853 2812 2769 2814 2892 2854 2815 2856
8 2894 2856 2814 2855 2858 2817 2771 2816
8 2817 2772 2818 2859 2856 2815 2857 2895
8 2819 2774 2820 2861 2858 2817 2859 2897
8 2820 2775 2821 2862 2859 2818 2860 2898
8 2822 2777 2823 2864 2861 2820 2862 2900
8 2823 2778 2824 2865 2862 2821 2863 2901
8 2864 2823 2780 2825 2902 2865 2826 2866
8 2904 2867 2828 2869 2886 2846 2803 2847
8 2869 2828 2868 2906 2830 2785 2829 2871
8 2907 2869 2830 2872 2887 2847 2804 2848
8 2871 2829 2870 2909 2832 2786 2831 2874
8 2910 2871 2832 2875 2872 2830 2787 2833
8 2835 2788 2831 2874 2877 2834 2873 2912
8 2836 2789 2832 2875 2878 2835 2874 2913
8 2877 2834 2876 2915 2838 2791 2837 2880
8 2839 2792 2835 2878 2881 2838 2877 2916
8 2880 2837 2879 2917 2841 2794 2840 2882
8 2881 2838 2880 2918 2842 2795 2841 2883
8 2883 2841 2882 2919 2843 2798 2844 2884
8 2921 2885 2846 2886 2889 2849 2807 2850
8 2922 2886 2847 2887 2890 2850 2808 2851
8 2889 2849 2812 2853 2924 2888 2854 2892
8 2890 2850 2811 2852 2925 2889 2853 2891
8 2891 2853 2814 2855 2926 2892 2856 2894
8 2892 2854 2815 2856 2927 2893 2857 2895
8 2858 2817 2859 2897 2894 2856 2895 2929
8 2859 2818 2860 2898 2895 2857 2896 2930
8 2861 2820 2862 2900 2897 2859 2898 2932
8 2862 2821 2863 2901 2898 2860 2899 2933
8 2864 2823 2865 2902 2900 2862 2901 2934
8 2904 2867 2846 2886 2936 2903 2885 2921
8 2904 2867 2903 2936 2869 2828 2868 2906
8 2937 2904 2869 2907 2922 2886 2847 2887
8 2906 2868 2905 2939 2871 2829 2870 2909
8 2907 2869 2906 2940 2872 2830 2871 2910
8 2909 2870 2908 2942 2874 2831 2873 2912
8 2910 2871 2909 2943 2875 2832 2874 2913
8 2912 2873 2911 2945 2877 2834 2876 2915
8 2878 2835 2874 2913 2916 2877 2912 2946
8 2915 2876 2914 2947 2880 2837 2879 2917
8 2916 2877 2915 2948 2881 2838 2880 2918
8 2918 2880 2917 2949 2883 2841 2882 2919
8 2921 2885 2849 2889 2951 2920 2888 2924
8 2952 2921 2886 2922 2925 2889 2850 2890
8 2924 2888 2854 2892 2954 2923 2893 2927
8 2925 2889 2853 2891 2955 2924 2892 2926
8 2926 2892 2856 2894 2956 2927 2895 2929
8 2895 2857 2896 2930 2927 2893 2928 2957
8 2897 2859 2898 2932 2929 2895 2930 2959
8 2898 2860 2899 2933 2930 2896 2931 2960
8 2900 2862 2901 2934 2932 2898 2933 2961
8 2936 2903 2885 2921 2963 2935 2920 2951
8 2936 2903 2935 2963 2906 2868 2905 2939
8 2937 2904 2886 2922 2964 2936 2921 2952
8 2937 2904 2936 2964 2907 2869 2906 2940
8 2939 2905 2938 2966 2909 2870 2908 2942
8 2940 2906 2939 2967 2910 2871 2909 2943
8 2942 2908 2941 2969 2912 2873 2911 2945
8 2943 2909 2942 2970 2913 2874 2912 2946
8 2945 2911 2944 2971 2915 2876 2914 2947
8 2946 2912 2945 2972 2916 2877 2915 2948
8 2948 2915 2947 2973 2918 2880 2917 2949
8 2951 2920 2888 2924 2975 2950 2923 2954
8 2952 2921 2889 2925 2976 2951 2924 2955
8 2927 2893 2928 2957 2954 2923 2953 2978
8 2955 2924 2892 2926 2979 2954 2927 2956
8 2929 2895 2930 2959 2956 2927 2957 2980
8 2930 2896 2931 2960 2957 2928 2958 2981
8 2932 2898 2933 2961 2959 2930 2960 2982
8 2951 2920 2950 2975 2963 2935 2962 2984
8 2963 2935 2962 2984 2939 2905 2938 2966
8 2964 2936 2921 2952 2985 2963 2951 2976
8 2964 2936 2963 2985 2940 2906 2939 2967
8 2966 2938 2965 2987 2942 2908 2941 2969
8 2967 2939 2966 2988 2943 2909 2942 2970
8 2969 2941 2968 2989 2945 2911 2944 2971
8 2970 2942 2969 2990 2946 2912 2945 2972
8 2972 2945 2971 2991 2948 2915 2947 2973
8 2954 2923 2953 2978 2975 2950 2974 2993
8 2976 2951 2924 2955 2994 2975 2954 2979
8 2957 2928 2958 2981 2978 2953 2977 2995
8 2956 2927 2957 2980 2979 2954 2978 2996
8 2959 2930 2960 2982 2980 2957 2981 2997
8 2984 2962 2983 2999 2966 2938 2965 2987
8 2975 2950 2974 2993 2984 2962 2983 2999
8 2976 2951 2975 2994 2985 2963 2984 3000
8 2985 2963 2984 3000 2967 2939 2966 2988
8 2987 2965 2986 3001 2969 2941 2968 2989
8 2988 2966 2987 3002 2970 2942 2969 2990
8 2990 2969 2989 3003 2972 2945 2971 2991
8 2978 2953 2977 2995 2993 2974 2992 3004
8 2979 2954 2978 2996 2994 2975 2993 3005
8 2980 2957 2981 2997 2996 2978 2995 3006
8 2974 2993 2999 2983 2992 3004 3007 2998
8 2983 2999 2987 2965 2998 3007 3001 2986
8 3000 2984 2999 3008 2988 2966 2987 3002
8 2994 2975 2993 3005 3000 2984 2999 3008
8 3002 2987 3001 3009 2990 2969 2989 3003
8 2996 2978 2995 3006 3005 2993 3004 3010
8 3005 2993 3004 3010 3008 2999 3007 3011
8 3008 2999 3007 3011 3002 2987 3001 3009

CELL_TYPES 1910
12
12
12
12
12
12
12
12
12
12
12
12
12
12
12
12
12
12
12
12
12
12
12
12
12
12
12
12
12
12
12
12
12
12
12
12
12
12
12
12
12
12
12
12
12
12
12
12
12
12
12
12
12
12
12
12
12
12
12
12
12
12
12
12
12
12
12
12
12
12
12
12
12
12
12
12
12
12
12
12
12
12
12
12
12
12
12
12
12
12
12
12
12
12
12
12
12
12
12
12
12
12
12
12
12
12
12
12
12
12
12
12
12
12
12
12
12
12
12
12
12
12
12
12
12
12
12
12
12
12
12
12
12
12
12
12
12
12
12
12
12
12
12
12
12
12
12
12
12
12
12
12
12
12
12
12
12
12
12
12
12
12
12
12
12
12
12
12
12
12
12
12
12
12
12
12
12
12
12
12
12
12
12
12
12
12
12
12
12
12
12
12
12
12
12
12
12
12
12
12
12
12
12
12
12
12
12
12
12
12
12
12
12
12
12
12
12
12
12
12
12
12
12
12
12
12
12
12
12
12
12
12
12
12
12
12
12
12
12
12
12
12
12
12
12
12
12
12
12
12
12
12
12
12
12
12
12
12
12
12
12
12
12
12
12
12
12
12
12
12
12
12
12
12
12
12
12
12
12
12
12
12
12
12
12
12
12
12
12
12
12
12
12
12
12
12
12
12
12
12
12
12
12
12
12
12
12
12
12
12
12
12
12
12
12
12
12
12
12
12
12
12
12
12
12
12
12
12
12
12
12
12
12
12
12
12
12
12
12
12
12
12
12
12
12
12
12
12
12
12
12
12
12
12
12
12
12
12
12
12
12
12
12
12
12
12
12
12
12
12
12
12
12
12
12
12
12
12
12
12
12
12
12
12
12
12
12
12
12
12
12
12
12
12
12
12
12
12
12
12
12
12
12
12
12
12
12
12
12
12
12
12
12
12
12
12
12
12
12
12
12
12
12
12
12
12
12
12
12
12
12
12
12
12
12
12
12
12
12
12
12
12
12
12
12
12
12
12
12
12
12
12
12
12
12
12
12
12
12
12
12
12
12
12
12
12
12
12
12
12
12
12
12
12
12
12
12
12
12
12
12
12
12
12
12
12
12
12
12
12
12
12
12
12
12
12
12
12
12
12
12
12
12
12
12
12
12
12
12
12
12
12
12
12
12
12
12
12
12
12
12
12
12
12
12
12
12
12
12
12
12
12
12
12
12
12
12
12
12
12
12
12
12
12
12
12
12
12
12
12
12
12
12
12
12
12
12
12
12
12
12
12
12
12
12
12
12
12
12
12
12
12
12
12
12
12
12
12
12
12
12
12
12
12
12
12
12
12
12
12
12
12
12
12
12
12
12
12
12
12
12
12
12
12
12
12
12
12
12
12
12
12
12
12
12
12
12
12
12
12
12
12
12
12
12
12
12
12
12
12
12
12
12
12
12
12
12
12
12
12
12
12
12
12
12
12
12
12
12
12
12
12
12
12
12
12
12
12
12
12
12
12
12
12
12
12
12
12
12
12
12
12
12
12
12
12
12
12
12
12
12
12
12
12
12
12
12
12
12
12
12
12
12
12
12
12
12
12
12
12
12
12
12
12
12
12
12
12
12
12
12
12
12
12
12
12
12
12
12
12
12
12
12
12
12
12
12
12
12
12
12
12
12
12
12
12
12
12
12
12
12
12
12
12
12
12
12
12
12
12
12
12
12
12
12
12
12
12
12
12
12
12
12
12
12
12
12
12
12
12
12
12
12
12
12
12
12
12
12
12
12
12
12
12
12
12
12
12
12
12
12
12
12
12
12
12
12
12
12
12
12
12
12
12
12
12
12
12
12
12
12
12
12
12
12
12
12
12
12
12
12
12
12
12
12
12
12
12
12
12
12
12
12
12
12
12
12
12
12
12
12
12
12
12
12
12
12
12
12
12
12
12
12
12
12
12
12
12
12
12
12
12
12
12
12
12
12
12
12
12
12
12
12
12
12
12
12
12
12
12
12
12
12
12
12
12
12
12
12
12
12
12
12
12
12
12
12
12
12
12
12
12
12
12
12
12
12
12
12
12
12
12
12
12
12
12
12
12
12
12
12
12
12
12
12
12
12
12
12
12
12
12
12
12
12
12
12
12
12
12
12
12
12
12
12
12
12
12
12
12
12
12
12
12
12
12
12
12
12
12
12
12
12
12
12
12
12
12
12
12
12
12
12
12
12
12
12
12
12
12
12
12
12
12
12
12
12
12
12
12
12
12
12
12
12
12
12
12
12
12
12
12
12
12
12
12
12
12
12
12
12
12
12
12
12
12
12
12
12
12
12
12
12
12
12
12
12
12
12
12
12
12
12
12
12
12
12
12
12
12
12
12
12
12
12
12
12
12
12
12
12
12
12
12
12
12
12
12
12
12
12
12
12
12
12
12
12
12
12
12
12
12
12
12
12
12
12
12
12
12
12
12
12
12
12
12
12
12
12
12
12
12
12
12
12
12
12
12
12
12
12
12
12
12
12
12
12
12
12
12
12
12
12
12
12
12
12
12
12
12
12
12
12
12
12
12
12
12
12
12
12
12
12
12
12
12
12
12
12
12
12
12
12
12
12
12
12
12
12
12
12
12
12
12
12
12
12
12
12
12
12
12
12
12
12
12
12
12
12
12
12
12
12
12
12
12
12
12
12
12
12
12
12
12
12
12
12
12
12
12
12
12
12
12
12
12
12
12
12
12
12
12
12
12
12
12
12
12
12
12
12
12
12
12
12
12
12
12
12
12
12
12
12
12
12
12
12
12
12
12
12
12
12
12
12
12
12
12
12
12
12
12
12
12
12
12
12
12
12
12
12
12
12
12
12
12
12
12
12
12
12
12
12
12
12
12
12
12
12
12
12
12
12
12
12
12
12
12
12
12
12
12
12
12
12
12
12
12
12
12
12
12
12
12
12
12
12
12
12
12
12
12
12
12
12
12
12
12
12
12
12
12
12
12
12
12
12
12
12
12
12
12
12
12
12
12
12
12
12
12
12
12
12
12
12
12
12
12
12
12
12
12
12
12
12
12
12
12
12
12
12
12
12
12
12
12
12
12
12
12
12
12
12
12
12
12
12
12
12
12
12
12
12
12
12
12
12
12
12
12
12
12
12
12
12
12
12
12
12
12
12
12
12
12
12
12
12
12
12
12
12
12
12
12
12
12
12
12
12
12
12
12
12
12
12
12
12
12
12
12
12
12
12
12
12
12
12
12
12
12
12
12
12
12
12
12
12
12
12
12
12
12
12
12
12
12
12
12
12
12
12
12
12
12
12
12
12
12
12
12
12
12
12
12
12
12
12
12
12
12
12
12
12
12
12
12
12
12
12
12
12
12
12
12
12
12
12
12
12
12
12
12
12
12
12
12
12
12
12
12
12
12
12
12
12
12
12
12
12
12
12
12
12
12
12
12
12
12
12
12
12
12
12
12
12
12
12
12
12
12
12
12
12
12
12
12
12
12
12
12
12
12
12
12
12
12
12
12
12
12
12
12
12
12
12
12
12
12
12
12
12
12
12
12
12
12
12
12
12
12
12
12
12
12
12
12
12
12
12
12
12
12
12
12
12
12
12
12
12
12
12
12
12
12
12
12
12
12
12
12
12
12
12
12
12
12
12
12
12
12
12
12
12
12
12
12
12
12
12
12
12
12
12
12
12
12
12
12
12
12
12
12
12
12
12
12
12
12
12
12
12
12
12
12
12
12
12
12
12
12
12
12
12
12
12
12
12
12
12
12
12
12
12
12
12
12
12
12
12
12
12
12
12
12
12
12
12
12
12
12
12
12
12
12
12
12
12
12
12
12
12
12
12
12
12
12
12
12
12
12
12
12
12
12
12
12
12
12
12
12
12
12
12
12
12
12
12
12
12
12
12
12
12
12
12
12
12
12
12
12
12
12
12
12
12
12
12
12
12
12
12
12
12
12
12
12
12
12
12
12
12
12
12
12
12
12
12
12
12
12
12
12
12
12
12
12
12
12
12
12
12
12
12
12
12
12
12
12
12
12
12
12
12
12
12
12
12
12
12
12
12
12
12
12
12
12
12
12
12
12
12
12
12
12
12
12
12
12
12
12
12
12
12
12
12
12
12
12
12
12
12
12
12
12
12
12
12
12
12
12
12
12
12
12
12
12
12
12
12
12
12
12
12
12
12
12
12
12
12
12
12
12
12
12
12
12
12
12
12
12
12
12
12
12
12
12
12
12
12
12
12
12
12
12
12
12
12
12
12
12
12
12
12
12
12
12
12
12
12
12
12
12
12
12
12
12
12
12
12
12
12
12
12
12
12
12
12
12
12
12

POINT_DATA 3012
SCALARS Jp_lamdaP float 4
LOOKUP_TABLE default
0.99986 1 1 0.99986
1 1 1 1
0.999864 1 1 0.999864
0.999818 1 1 0.999818
0.999859 1 1 0.999859
0.999855 1 1 0.999855
0.999338 1 1 0.999338
1 1 1 1
1 1 1 1
1 1 1 1
0.999932 1 1 0.999932
0.999498 1 1 0.999498
0.99978 1 1 0.99978
0.999809 1 1 0.999809
0.999864 1 1 0.999864
0.999833 1 1 0.999833
0.999859 1 1 0.999859
0.999867 1 1 0.999867
0.999341 1 1 0.999341
1 1 1 1
0.999798 1 1 0.999798
0.999842 1 1 0.999842
0.999209 1 1 0.999209
0.999307 1 1 0.999307
0.999875 1 1 0.999875
0.999372 1 1 0.999372
0.998687 1.00018 1 0.998512
1 1 1 1
0.999919 1 1 0.999919
0.999932 1 1 0.999932
1 1 1 1
0.999506 1 1 0.999506
0.999832 1 1 0.999832
0.999855 1 1 0.999855
0.999421 1 1 0.999421
1 1 1 1
0.999511 1 1 0.999511
0.999595 1 1 0.999595
0.998558 1 1 0.998558
1 1 1 1
1 1 1 1
0.999903 1 1 0.999903
1 1 1 1
0.999801 1 1 0.999801
0.999138 1 1 0.999138
1 1 1 1
0.999328 1 1 0.999328
0.999846 1 1 0.999846
0.999872 1 1 0.999872
0.999861 1 1 0.999861
0.999346 1 1 0.999346
0.999887 1 1 0.999887
0.999813 1 1 0.999813
0.999885 1 1 0.999885
0.999855 1 1 0.999855
0.999209 1 1 0.999209
0.999376 1 1 0.999376
0.999309 1 1 0.999309
0.998803 1.00031 1 0.998497
1 1 1 1
0.999786 1 1 0.999786
0.999302 1 1 0.999302
0.999173 1 1 0.999173
0.999259 1 1 0.999259
1.00018 1.00196 1 0.998214
0.998987 1.00064 1 0.998348
0.99993 1 1 0.99993
0.999486 1 1 0.999486
0.998622 1 1 0.998617
1.00415 1.00638 1 0.99778
1 1 1 1
1 1 1 1
1 1 1 1
0.999515 1 1 0.999515
1 1 1 1
1 1 1 1
0.999343 1 1 0.999343
0.999985 1 1 0.999985
0.999451 1 1 0.999451
0.999647 1 1 0.999647
0.998555 1 1 0.998555
1 1 1 1
0.999953 1 1 0.999953
0.999284 1 1 0.999284
0.99938 1 1 0.99938
0.999937 1.0018 1 0.998138
0.999785 1 1 0.999785
0.998512 1.00006 1 0.998456
0.998693 1 1 0.998693
0.998351 1.00034 1 0.998013
1 1 1 1
1 1 1 1
1 1 1 1
1 1 1 1
1 1 1 1
0.999897 1 1 0.999897
0.999215 1 1 0.999215
0.999908 1 1 0.999908
0.999284 1 1 0.999284
1 1 1 1
0.999124 1 1 0.999124
0.9993 1 1 0.9993
1 1.00216 1 0.997842
0.999363 1 1 0.999363
1.00123 1.00331 1 0.99793
0.999798 1 1 0.999798
0.999826 1 1 0.999826
0.999894 1 1 0.999894
0.999865 1 1 0.999865
0.999211 1 1 0.999211
0.999314 1 1 0.999314
0.999382 1 1 0.999382
0.998912 1.00043 1 0.998482
1 1 1 1
0.999801 1 1 0.999801
0.999149 1 1 0.999149
0.999172 1 1 0.999172
0.999965 1 1 0.999965
0.999539 1 1 0.999539
0.999261 1 1 0.999261
1.00015 1.00198 1 0.998174
0.998634 1.00004 1 0.998599
0.999143 1.00077 1 0.998377
1.00448 1.00671 1 0.997784
0.999146 1 1 0.999146
0.99915 1 1 0.99915
0.999634 1.00163 1 0.998005
1.00023 1.00214 1 0.998098
0.999825 1.0016 1 0.998231
1.01081 1.01327 1 0.997573
1 1 1 1
1.00608 1.00839 1 0.997709
0.999709 1 1 0.999709
0.998655 1 1 0.998655
1.00275 1.00491 1 0.997849
1.01433 1.01684 1 0.997538
0.999874 1 1 0.999874
0.999489 1 1.0003 0.99919
1 1 1 1
1 1 1 1
0.99935 1 1 0.99935
1 1 1 1
0.999647 1 1 0.999647
0.999455 1 1 0.999455
0.998552 1 1 0.998552
1 1 1 1
0.999966 1 1 0.999966
0.99934 1 1 0.99934
0.999433 1 1 0.999433
0.999596 1.00146 1 0.99814
0.999799 1 1 0.999799
0.998479 1.00002 1 0.998459
0.998692 1 1 0.998692
0.998415 1.00042 1 0.997997
0.999886 1 1 0.999886
0.99999 1 1 0.99999
0.999397 1 1.00002 0.999375
1.00082 1.0028 1 0.998026
0.998953 1.00065 1 0.9983
1.00764 1.01009 1 0.997574
0.998908 1 1 0.998908
1.00097 1.00308 1 0.997904
0.998902 1.00023 1.00057 0.998106
1.00066 1.00283 1 0.997835
1 1 1 1
1 1 1 1
1 1 1 1
0.999924 1 1 0.999924
1 1 1 1
1 1 1 1
1 1 1 1
0.999237 1 1 0.999237
0.999164 1 1 0.999164
1 1 1 1
1 1 1 1
0.999126 1 1 0.999126
0.999255 1 1 0.999255
1.00022 1.00238 1 0.997843
0.999265 1 1 0.999265
1.00125 1.00333 1 0.997929
0.999117 1 1 0.999117
0.999399 1.00161 1 0.997793
1.0007 1.00281 1 0.997896
1.01396 1.01664 1 0.997371
1.00125 1.00329 1 0.997964
1.01435 1.01695 1 0.997442
1 1 1 1
0.999816 1 1 0.999816
0.998985 1 1 0.998985
0.999172 1 1 0.999172
1 1 1 1
0.999592 1 1 0.999592
0.999264 1 1 0.999264
1.00013 1.002 1 0.998134
0.9993 1.0009 1 0.998405
0.99865 1.00007 1 0.99858
1.00481 1.00704 1 0.997788
0.999143 1 1 0.999143
0.999149 1 1 0.999149
0.999502 1.00159 1 0.997914
1.00026 1.00214 1 0.998127
1 1 1 1
0.999704 1 1 0.999704
0.998705 1 1 0.998705
0.999798 1.00157 1 0.99823
1.01072 1.01322 1 0.997535
1.00279 1.00497 1 0.997838
1.00641 1.00869 1 0.997739
1.01384 1.01634 1 0.997544
0.999864 1 1 0.999864
0.999486 1 1.00029 0.999191
0.999141 1.00133 1 0.997814
1.00004 1.00199 1 0.998057
1.01188 1.01445 1 0.997468
1.01132 1.0139 1 0.997458
1.00819 1.01055 1 0.997667
1.02209 1.0247 1 0.99745
0.999803 1 1 0.999803
1.01624 1.01876 1 0.997524
0.998873 1 1.00006 0.998817
0.99968 1.0017 1 0.997979
1.01201 1.01446 1 0.997581
1.01783 1.02033 1 0.997547
0.999228 1 1.00018 0.999048
0.999377 1 1 0.999375
0.999953 1 1.0013 0.99865
0.999303 1 1 0.999303
1 1 1 1
0.999979 1 1 0.999979
0.999407 1 1 0.999407
0.999236 1.0011 1 0.998143
0.999809 1 1 0.999809
0.998732 1 1.00004 0.998691
0.998463 1 1 0.998463
0.998514 1.00053 1 0.997981
0.999904 1 1 0.999904
0.999994 1 1 0.999994
0.999499 1 1.00012 0.999378
1.00057 1.00255 1 0.998026
0.998745 1.00044 1 0.998305
1.00736 1.00981 1 0.997572
0.998931 1 1.00002 0.998911
1.00045 1.00254 1 0.997914
0.998939 1.00037 1.00047 0.998101
1.00079 1.00298 1 0.997821
1 1 1 1
0.999193 1 1.00006 0.999133
0.999674 1 1.00006 0.999609
0.999557 1 1.00073 0.998832
1.01064 1.01319 1 0.997488
1.00462 1.00689 1 0.997744
1.0169 1.01957 1 0.997381
0.99879 1 1.00044 0.998353
1.0054 1.00769 1 0.997724
1.00234 1.00298 1.00158 0.997793
1.00744 1.00978 1 0.99769
0.999864 1 1 0.999864
1 1 1 1
1 1 1 1
1 1 1 1
1 1 1 1
0.999962 1 1 0.999962
1 1 1 1
0.999913 1 1 0.999913
1 1 1 1
0.999266 1 1 0.999266
0.999204 1 1 0.999204
1.00134 1.00342 1 0.997929
1.00042 1.00258 1 0.997843
0.999128 1 1 0.999128
1 1 1 1
0.999116 1 1 0.999116
0.999549 1.00176 1 0.997793
1.00089 1.003 1 0.997895
1.01379 1.01647 1 0.99737
1.00118 1.00323 1 0.997963
1.01433 1.01693 1 0.997441
0.99906 1.00128 1 0.997785
1.01302 1.01574 1 0.997325
1.01456 1.01719 1 0.997414
1.0277 1.03038 1 0.997393
1.01333 1.01592 1 0.997459
1.0265 1.02916 1 0.997411
0.99914 1 1 0.99914
0.999147 1 1 0.999147
0.999377 1.00156 1 0.997824
1.0003 1.00215 1 0.998155
1 1 1 1
0.9997 1 1 0.9997
0.998755 1 1 0.998755
0.99977 1.00154 1 0.998229
1.01063 1.01317 1 0.997497
1.00674 1.00899 1 0.997769
1.00281 1.00499 1 0.997827
1.01345 1.01594 1 0.99755
0.999854 1 1 0.999854
0.999535 1 1.00034 0.999193
0.999089 1.0013 1 0.997789
1 1.00195 1 0.998054
1.0121 1.01467 1 0.997465
1.01147 1.01401 1 0.997494
0.999793 1 1 0.999793
0.998814 1 1 0.998814
1.0001 1.00209 1 0.998013
1.00842 1.01078 1 0.997664
1.02242 1.02502 1 0.99746
1.01133 1.01381 1 0.997548
1.01609 1.01861 1 0.997527
1.01816 1.02066 1 0.997547
0.999179 1 1.00013 0.999051
0.999977 1 1.00133 0.998652
0.999564 1 1.00019 0.999372
1.0121 1.01473 1 0.997413
1.01234 1.01488 1 0.997493
1.02585 1.02854 1 0.997382
1.02432 1.02698 1 0.997405
1.01826 1.02081 1 0.997506
1.02424 1.0267 1 0.997601
0.998953 1 1 0.998953
1.0198 1.02227 1 0.997581
0.998584 1.00029 1 0.99829
1.00408 1.00651 1 0.997585
1.01531 1.01793 1 0.997419
1.01727 1.01962 1 0.997695
0.999533 1 1 0.999533
0.998642 1 1.00002 0.998623
1.00049 1 1.00175 0.998739
0.99944 1 1.00096 0.998479
1.00033 1.0023 1 0.998026
0.999997 1 1 0.999997
0.999922 1 1 0.999922
0.99952 1 1.00014 0.99938
0.998528 1.00022 1 0.99831
1.00707 1.00953 1 0.99757
0.998914 1 1 0.998914
0.998917 1.00049 1.00033 0.998097
0.999883 1.00196 1 0.997925
1.00079 1.00299 1 0.997807
1 1 1 1
0.999203 1 1.00007 0.999133
0.999628 1 1.00001 0.999617
0.999668 1 1.00084 0.998828
1.01046 1.01301 1 0.997484
1.0037 1.00597 1 0.997745
1.01693 1.0196 1 0.997379
0.998808 1 1.00045 0.998358
1.00534 1.00762 1 0.997738
1.00233 1.00282 1.00173 0.997781
1.00745 1.00972 1 0.997756
1 1 1 1
0.999753 1 1 0.999753
0.99885 1 1.00023 0.998618
0.999607 1 1.00054 0.999063
0.999715 1 1.00116 0.998554
1.02023 1.02294 1 0.997355
1.01133 1.01383 1 0.997534
1.01686 1.01951 1 0.997396
1.00074 1.00076 1.00199 0.997993
1.00833 1.01071 1 0.997654
1.00561 1.00725 1.00086 0.997512
0.999847 1 1 0.999847
0.999478 1 1 0.999478
0.999875 1 1 0.999875
0.999866 1 1 0.999866
1 1 1 1
1 1 1 1
1 1 1 1
1 1 1 1
1 1 1 1
0.999987 1 1 0.999987
1 1 1 1
0.999952 1 1 0.999952
1 1 1 1
0.999902 1 1 0.999902
1 1 1 1
1.00108 1.00313 1 0.997962
1.00102 1.00314 1 0.997895
1.01417 1.01678 1 0.99744
1.01359 1.01627 1 0.997368
0.999739 1.00195 1 0.997793
0.999115 1 1 0.999115
0.999154 1.00137 1 0.997785
1.01299 1.0157 1 0.997325
1.01425 1.01689 1 0.997413
1.02796 1.03064 1 0.997404
1.01297 1.01555 1 0.997456
1.02598 1.02864 1 0.99741
1.01251 1.01524 1 0.997315
1.02679 1.02949 1 0.997384
1.02803 1.0307 1 0.997407
1.03209 1.03474 0.999894 0.997549
1.02269 1.02537 1 0.997389
1.02715 1.02958 1 0.997633
0.999061 1.0013 1 0.997763
0.999973 1.00193 1 0.998051
1.01231 1.01488 1 0.997462
1.01162 1.01413 1 0.997531
0.999783 1 1 0.999783
0.998812 1 1 0.998812
1.00051 1.00246 1 0.998047
1.00868 1.01104 1 0.997662
1.02275 1.02535 1 0.99747
1.01595 1.01846 1 0.99753
1.01055 1.01307 1 0.997514
1.01846 1.02096 1 0.997547
0.999112 1 1.00006 0.999053
0.999966 1 1.00131 0.998654
0.999718 1 1.00035 0.999369
1.01222 1.01488 1 0.997378
1.01242 1.01497 1 0.997492
1.02547 1.02815 1 0.997395
1.02458 1.02725 1 0.997407
0.99898 1 1.00003 0.998952
0.998926 1.00064 1 0.998284
1.00369 1.00604 1.00003 0.997635
1.01842 1.02097 1 0.997504
1.02368 1.02611 1 0.997635
1.01534 1.018 1 0.997387
1.01984 1.02231 1 0.997584
1.01681 1.01913 1 0.997719
0.99873 1 1.0001 0.998625
0.999418 1 1.00096 0.998461
0.999528 1 1 0.999528
1.00049 1 1.00172 0.998765
1.02573 1.02846 1 0.997349
1.02643 1.02909 1 0.997414
1.02853 1.03114 1 0.997473
1.02622 1.02879 0.99988 0.997619
1.02159 1.02402 1 0.99763
1.02285 1.02513 1 0.997783
0.998522 1 1 0.998522
1.01732 1.01953 1 0.997828
0.998712 1.00079 1 0.997925
1.00813 1.01063 1.00018 0.997348
1.01698 1.01968 1 0.997353
1.01584 1.01813 1 0.997754
0.999639 1 1 0.999639
0.999308 1 1.00039 0.99892
0.998446 1 1 0.998446
1.00076 1 1.00224 0.998519
0.998936 1 1.0005 0.998432
1 1 1 1
1.01022 1.01277 1 0.997481
0.999624 1 1 0.999624
0.999252 1 1.00012 0.999134
0.999887 1 1.00106 0.998823
1.00285 1.00512 1 0.997746
1.01702 1.0197 1 0.997377
0.998869 1 1.00051 0.998363
1.00257 1.00287 1.00193 0.99777
1.0054 1.00767 1 0.997752
1.00766 1.00986 1 0.997823
1 1 1 1
0.999759 1 1 0.999759
0.99889 1 1.00027 0.99862
0.999688 1 1.00062 0.999064
1.00011 1 1.00158 0.998532
1.02048 1.02319 1 0.99735
1.01158 1.01408 1 0.997533
1.01681 1.01948 1 0.997386
1.00058 1.00045 1.00213 0.997998
1.01063 1.013 1 0.997665
1.00481 1.00633 1.00096 0.997531
0.999816 1 1 0.999816
0.999268 1 1 0.999268
0.998786 1 1.00048 0.99831
1.00067 1 1.00194 0.998733
0.999758 1 1.00134 0.998415
1.02055 1.02317 1 0.997433
1.01248 1.01502 1 0.9975
1.01496 1.01744 1 0.997561
1.00154 1 1.00379 0.99776
1.00574 1.00837 1 0.997391
0.99985 1 1 0.99985
0.999412 1 1 0.999412
0.999457 1 1 0.999457
0.999249 1 1 0.999249
0.999487 1 1 0.999487
0.999879 1 1 0.999879
0.999877 1 1 0.999877
1 1 1 1
0.999868 1 1 0.999868
1 1 1 1
1 1 1 1
1 1 1 1
1 1 1 1
1 1 1 1
0.999999 1 1 0.999999
0.999981 1 1 0.999981
1 1 1 1
1 1 1 1
0.999942 1 1 0.999942
1 1 1 1
1.01269 1.01527 1 0.997454
1.01409 1.01672 1 0.997412
1.02555 1.02821 1 0.997409
1.02828 1.03095 1 0.997415
1.01291 1.01563 1 0.997326
0.999202 1.00142 1 0.997784
1.01239 1.01512 1 0.997316
1.02673 1.02943 1 0.997377
1.02799 1.03067 1 0.997407
1.03118 1.03404 0.999658 0.997576
1.02319 1.02587 1 0.997384
1.02739 1.02984 0.999973 0.99765
1.02588 1.0286 1 0.997351
1.03003 1.03325 0.999371 0.997512
1.03012 1.03258 0.999979 0.997639
1.03019 1.03372 0.99889 0.997695
1.02444 1.02695 1 0.997553
1.02762 1.0301 0.999774 0.997824
1.01232 1.01502 1 0.997342
1.0125 1.01504 1 0.99749
1.02508 1.02774 1 0.997408
1.02484 1.02751 1 0.997409
0.998951 1 1 0.998951
0.999312 1.00104 1 0.998277
1.00351 1.00566 1.00018 0.997685
1.01858 1.02113 1 0.997503
1.02307 1.02546 1 0.99767
1.01987 1.02234 1 0.997588
1.01544 1.01813 1 0.997356
1.01628 1.01858 1 0.997743
0.998834 1 1.00021 0.998628
0.99937 1 1.00093 0.998443
0.999524 1 1 0.999524
1.00031 1 1.00152 0.99879
1.0256 1.02832 1 0.997349
1.02597 1.02864 1 0.997399
1.02846 1.03104 1 0.997495
1.02596 1.02847 0.999956 0.997603
0.998517 1 1 0.998517
0.998922 1.00092 1.00003 0.99797
1.00834 1.01063 1.00039 0.99734
1.0213 1.02376 1 0.9976
1.02279 1.02501 0.999992 0.997833
1.0163 1.01901 1 0.997341
1.01755 1.01976 1 0.997831
1.01715 1.0194 1 0.997796
0.998444 1 1 0.998444
0.998681 1 1.00025 0.998436
1.00128 1 1.00277 0.998513
0.999605 1 1 0.999605
0.999199 1 1.00025 0.998944
1.02896 1.0323 0.999272 0.997493
1.02947 1.03218 0.999824 0.997546
1.02387 1.02704 0.999097 0.997813
1.02013 1.02234 0.999982 0.997858
0.998297 1 1 0.998297
1.0203 1.02236 1 0.997982
0.998538 1.00055 1.00029 0.997697
1.00921 1.01162 1.00051 0.997116
1.01553 1.01825 1 0.997323
0.999672 1 1 0.999672
0.999149 1 1 0.999149
0.999784 1 1.00108 0.998701
0.998402 1 1 0.998402
1.0016 1 1.00327 0.998341
0.99837 1 1 0.99837
1 1 1 1
0.999766 1 1 0.999766
1.02075 1.02347 1 0.997345
0.999733 1 1.00067 0.999064
0.998858 1 1.00024 0.998621
1.00064 1 1.00213 0.998511
1.01164 1.01415 1 0.997532
1.01661 1.01928 1 0.997377
1.00036 1.00008 1.00229 0.998002
1.00353 1.00522 1.00077 0.99755
1.01268 1.01504 1 0.997676
0.999821 1 1 0.999821
0.999272 1 1 0.999272
0.998728 1 1.00041 0.998315
1.00104 1 1.00232 0.99873
0.999872 1 1.00147 0.998408
1.02047 1.02311 1 0.997427
1.01298 1.01553 1 0.997491
1.0148 1.01725 1 0.997586
1.00111 1.00014 1.00324 0.997731
1.00474 1.00734 1.00006 0.997362
0.99939 1 1 0.99939
0.999916 1 1.00102 0.998892
1.00014 1 1.002 0.998147
1.00139 1 1.00293 0.998465
0.999294 1 1.001 0.9983
1.02133 1.02356 1 0.997826
1.01101 1.01363 1 0.997412
1.01197 1.0144 1 0.997611
1.00346 1.00157 1.00433 0.997565
1.00075 1.0036 1 0.997164
0.999853 1 1 0.999853
0.999429 1 1 0.999429
0.999161 1 1 0.999161
0.999437 1 1 0.999437
0.999487 1 1 0.999487
0.999219 1 1 0.999219
0.999075 1 1 0.999075
0.999193 1 1 0.999193
0.999491 1 1 0.999491
0.999876 1 1 0.999876
0.999879 1 1 0.999879
1 1 1 1
0.999878 1 1 0.999878
1 1 1 1
1 1 1 1
1 1 1 1
1 1 1 1
1 1 1 1
1 1 1 1
0.999996 1 1 0.999996
1 1 1 1
0.999974 1 1 0.999974
1 1 1 1
1 1 1 1
1.02363 1.02632 1 0.997379
1.02785 1.03052 1 0.997406
1.02762 1.0301 0.999929 0.997667
1.03022 1.03332 0.999395 0.997603
1.02667 1.02937 1 0.99737
1.01233 1.01505 1 0.997316
1.02613 1.02887 1 0.997335
1.03031 1.03336 0.99954 0.997504
1.0298 1.03228 0.999982 0.997618
1.02969 1.03348 0.998623 0.99771
1.0238 1.02631 1 0.997553
1.02691 1.02937 0.999747 0.997863
1.02959 1.03247 0.999733 0.997476
1.03029 1.03556 0.997225 0.997686
1.0289 1.03261 0.998595 0.997814
1.02489 1.02723 0.9998 0.997919
1.02547 1.0282 1 0.99735
1.02551 1.0282 1 0.997384
1.02838 1.03094 1 0.997516
1.02573 1.02822 1 0.997587
0.998511 1 1 0.998511
0.998867 1.00085 1 0.998015
1.00844 1.01054 1.00058 0.997332
1.02097 1.02345 1 0.99757
1.02276 1.02493 0.999993 0.997884
1.01784 1.02006 1 0.997833
1.0157 1.01842 1 0.997328
1.01838 1.02059 1 0.997839
0.998442 1 1 0.998442
0.998439 1 1 0.998439
1.00223 1 1.00373 0.998507
0.999572 1 1 0.999572
0.999203 1 1.00023 0.998968
1.02932 1.03237 0.999554 0.997496
1.02969 1.03236 0.999868 0.997548
1.02375 1.02674 0.999292 0.997803
0.998419 1.00013 1 0.998291
0.999667 1.00167 1.00026 0.99774
1.00884 1.011 1.00076 0.997105
1.02075 1.02297 0.999988 0.997847
1.01522 1.01787 1 0.997395
1.01889 1.02102 0.999953 0.997962
0.999685 1 1 0.999685
0.998395 1 1 0.998395
0.998439 1 1 0.998439
1.00146 1 1.00314 0.998326
0.999772 1 1.00106 0.998711
0.999123 1 1 0.999123
1.02988 1.0343 0.998144 0.997576
1.02774 1.03353 0.99667 0.997724
1.02093 1.02551 0.99763 0.9979
1.02513 1.02793 0.999232 0.998045
0.99845 1.0003 1 0.998148
1.01637 1.01875 1 0.997668
1.00171 1.00279 1.00165 0.997282
1.00591 1.00792 1.00104 0.996971
0.999781 1 1 0.999781
0.999292 1 1 0.999292
0.998866 1 1 0.998866
1.00184 1 1.00342 0.998419
0.998305 1 1 0.998305
1.00008 1 1.00186 0.998224
0.999825 1 1 0.999825
0.999275 1 1 0.999275
1.02056 1.02319 1 0.997421
1.00106 1 1.00233 0.998727
0.99859 1 1.00027 0.998321
0.999879 1 1.00148 0.998401
1.01375 1.01631 1 0.997481
1.01485 1.01728 1 0.997611
1.00077 1.00035 1.00273 0.9977
1.00386 1.00628 1.00027 0.997332
0.999392 1 1 0.999392
0.999537 1 1.00064 0.998901
1.00014 1 1.00198 0.998164
1.00163 1 1.00317 0.99847
0.99884 1 1.00048 0.998365
1.02165 1.02384 1 0.997858
1.01044 1.01306 1 0.997417
1.01335 1.0157 1 0.997686
1.00301 1.0009 1.00458 0.997531
1.00148 1.00435 1.00003 0.997117
0.999091 1 1 0.999091
1.0005 1 1.00192 0.998574
1.00196 1.00018 1.00378 0.997997
0.999736 1 1.00155 0.998185
1.02445 1.0317 0.994896 0.998064
1.01693 1.01917 0.999872 0.997936
1.0063 1.00911 1 0.997219
1.00326 1.00184 1.00426 0.997178
0.999446 1 1 0.999446
0.999174 1 1 0.999174
0.999031 1 1 0.999031
0.999487 1 1 0.999487
0.999189 1 1 0.999189
0.99949 1 1 0.99949
0.999057 1 1 0.999057
0.999205 1 1 0.999205
0.998961 1 1 0.998961
0.999026 1 1 0.999026
0.999179 1 1 0.999179
0.999479 1 1 0.999479
0.999869 1 1 0.999869
0.999875 1 1 0.999875
1 1 1 1
0.999879 1 1 0.999879
1 1 1 1
1 1 1 1
1 1 1 1
1 1 1 1
1 1 1 1
1 1 1 1
1 1 1 1
1 1 1 1
0.999994 1 1 0.999994
1 1 1 1
1 1 1 1
1.0231 1.02561 1 0.997553
1.02952 1.032 1 0.997598
1.02623 1.02866 0.99974 0.997902
1.02921 1.03322 0.998391 0.997724
1.03059 1.03345 0.999731 0.997495
1.02639 1.02915 1 0.99732
1.02929 1.03244 0.999467 0.997481
1.0296 1.03467 0.997421 0.997677
1.02859 1.03243 0.998465 0.997814
1.02642 1.02871 0.999854 0.997922
1.02989 1.03506 0.997373 0.997627
1.02975 1.03724 0.994915 0.997856
1.02973 1.03448 0.997451 0.997953
1.02969 1.03244 0.999834 0.997499
1.02992 1.03251 0.999942 0.99755
1.02361 1.02637 0.999521 0.997792
0.998638 1.00035 1 0.998284
1.00083 1.00288 1.00018 0.997782
1.00823 1.01031 1.00085 0.997095
1.02135 1.02358 0.99999 0.997837
1.01763 1.0198 0.999931 0.997942
1.01522 1.0178 1 0.997467
0.998425 1.00004 1 0.998388
0.998507 1 1 0.998507
1.00119 1 1.00288 0.998312
0.999697 1 1 0.999697
0.999387 1 1.00067 0.998722
0.999096 1 1 0.999096
1.03063 1.03466 0.998513 0.997583
1.02822 1.03373 0.996931 0.997732
1.02117 1.0253 0.998067 0.997892
0.998801 1.00067 1 0.998137
1.00145 1.00269 1.0014 0.997368
1.00521 1.00732 1.0009 0.997009
1.02501 1.02761 0.999415 0.998054
1.01699 1.01942 0.999966 0.997656
0.999819 1 1 0.999819
0.999291 1 1 0.999291
0.998331 1 1 0.998331
1.00088 1 1.00259 0.998298
1.00175 1 1.00332 0.998437
0.998844 1 1 0.998844
1.02949 1.03639 0.995554 0.997773
1.02065 1.0305 0.992562 0.997864
1.0218 1.02717 0.99668 0.998089
1.01985 1.02305 0.998783 0.998081
0.999464 1.00067 1.00088 0.99791
1.00514 1.00664 1.0014 0.997104
1.00321 1.00349 1.00264 0.997087
0.999908 1 1 0.999908
0.999552 1 1 0.999552
0.999363 1 1 0.999363
0.998955 1 1 0.998955
0.999583 1 1.00099 0.998599
1.00141 1 1.00311 0.998311
0.99836 1 1 0.99836
1.01255 1 1.01413 0.998443
0.999394 1 1 0.999394
0.999374 1 1.00046 0.99891
1.02186 1.02402 1 0.99789
1.00217 1 1.0037 0.998474
1.00033 1 1.00215 0.99818
0.998465 1 1.00004 0.99843
1.00962 1.01223 1 0.997421
1.01456 1.01684 1 0.99776
1.00273 1.00042 1.00482 0.997498
1.00237 1.00531 1 0.997071
0.999073 1 1 0.999073
1.00079 1 1.00221 0.998587
1.00228 1.00012 1.00415 0.998022
0.999565 1 1.00135 0.998214
1.02587 1.03269 0.995305 0.998076
1.01672 1.01891 0.999949 0.9979
1.00728 1.01005 1 0.997258
1.00324 1.00234 1.00377 0.997137
0.999082 1 1.00019 0.998888
1.02307 1.03378 0.991556 0.998073
1.00101 1 1.00268 0.998335
1.00095 1.00052 1.00268 0.997761
1.02327 1.02673 0.998455 0.998165
1.00739 1.01008 1 0.997345
1.00463 1.0044 1.00323 0.997
0.999186 1 1 0.999186
0.999027 1 1 0.999027
0.998923 1 1 0.998923
0.99949 1 1 0.99949
0.999218 1 1 0.999218
0.99904 1 1 0.99904
0.999477 1 1 0.999477
0.999181 1 1 0.999181
0.998946 1 1 0.998946
0.999048 1 1 0.999048
0.99888 1 1 0.99888
0.998918 1 1 0.998918
0.999017 1 1 0.999017
0.999166 1 1 0.999166
0.999452 1 1 0.999452
0.99986 1 1 0.99986
0.999868 1 1 0.999868
1 1 1 1
0.999874 1 1 0.999874
1 1 1 1
1 1 1 1
1 1 1 1
1 1 1 1
1 1 1 1
0.999935 1 1 0.999935
1 1 1 1
1 1 1 1
1 1 1 1
1 1 1 1
1 1 1 1
1 1 1 1
1.02799 1.03021 0.999915 0.997925
1.02826 1.03223 0.998335 0.997814
1.02891 1.0338 0.997596 0.997668
1.029 1.03242 0.999202 0.997486
1.02949 1.03495 0.997074 0.997646
1.03 1.03725 0.995155 0.997845
1.02922 1.03425 0.997162 0.997966
1.02964 1.03798 0.994125 0.997829
1.03298 1.04137 0.993957 0.997971
1.01745 1.0317 0.987979 0.998186
1.03141 1.03507 0.998873 0.99759
1.02875 1.03403 0.997145 0.99774
1.02132 1.02509 0.99843 0.997884
0.999185 1.001 1.00006 0.998126
1.00119 1.00248 1.00126 0.997454
1.00458 1.00677 1.00078 0.997048
1.02498 1.02743 0.999551 0.998064
1.01708 1.01958 0.999907 0.997644
0.998358 1 1 0.998358
1.00171 1 1.00334 0.99837
1.00212 1 1.00367 0.998456
0.999857 1 1 0.999857
0.999291 1 1 0.999291
0.998964 1 1.00014 0.998821
1.02925 1.03655 0.995165 0.997786
0.999904 1 1 0.999904
0.999531 1 1 0.999531
1.0204 1.0297 0.99309 0.997864
1.02233 1.02789 0.99653 0.998057
0.999218 1.00039 1.00084 0.997991
1.00347 1.00312 1.0033 0.997062
1.00573 1.0078 1.00084 0.997105
1.01873 1.02203 0.998699 0.998064
0.999422 1 1 0.999422
0.998952 1 1 0.998952
0.998293 1 1 0.998293
1.00889 1 1.01035 0.998549
1.00129 1 1.00299 0.998303
0.999858 1 1.00125 0.998612
1.03255 1.04078 0.99415 0.997931
1.01122 1.02811 0.985539 0.998003
1.01904 1.02593 0.995007 0.99827
1.0055 1.00938 0.99836 0.997789
1.00038 1.00004 1.00234 0.997995
1.00423 1.00183 1.00547 0.996939
0.999544 1 1 0.999544
0.9995 1 1 0.9995
0.999276 1 1 0.999276
0.998987 1 1 0.998987
0.998855 1 1.0001 0.998758
0.999841 1 1.00148 0.998367
1.01868 1 1.02045 0.998271
1.00049 1 1.00191 0.998583
0.999055 1 1 0.999055
1.00077 1 1.00217 0.9986
1.02708 1.0334 0.995791 0.998089
1.01668 1.01886 1 0.997865
0.999341 1 1.0011 0.998242
1.00245 1 1.00441 0.998046
1.00853 1.01123 1.00004 0.997297
1.0031 1.00267 1.00335 0.997095
0.999137 1 1.00026 0.99888
1.02419 1.03571 0.990757 0.998103
1.00083 1 1.00248 0.998352
1.00067 1.00025 1.00269 0.997731
1.02201 1.02583 0.998144 0.998139
1.00768 1.01031 1 0.997396
1.00453 1.00404 1.00348 0.997013
1.0002 1 1.00159 0.99861
1.01696 1.02909 0.989748 0.998448
1.00027 1.00037 1.00177 0.99813
1.00238 1.00113 1.00379 0.997463
1.01102 1.01628 0.997001 0.997813
1.00218 1.00284 1.00221 0.997134
1.00292 1.00731 0.99717 0.998469
0.999024 1 1 0.999024
0.999001 1 1.00008 0.998921
0.998906 1 1.0001 0.998804
0.999476 1 1 0.999476
0.999184 1 1 0.999184
0.99907 1 1 0.99907
0.998931 1 1 0.998931
0.999451 1 1 0.999451
0.999155 1 1 0.999155
0.99886 1 1 0.99886
0.999017 1 1 0.999017
0.998931 1 1 0.998931
0.998846 1 1 0.998846
0.998892 1 1 0.998892
0.999008 1 1 0.999008
0.999096 1 1 0.999096
0.999381 1 1 0.999381
0.999213 1 1 0.999213
0.999375 1 1 0.999375
0.999852 1 1 0.999852
0.999859 1 1 0.999859
1 1 1 1
0.999867 1 1 0.999867
1 1 1 1
1 1 1 1
1 1 1 1
1 1 1 1
1 1 1 1
0.999951 1 1 0.999951
0.999932 1 1 0.999932
1 1 1 1
1 1 1 1
1 1 1 1
1 1 1 1
1 1 1 1
1 1 1 1
1.02875 1.03413 0.996822 0.997978
1.03024 1.03728 0.995378 0.997833
1.0291 1.03484 0.996779 0.997665
1.0295 1.03781 0.994153 0.997827
1.03137 1.03968 0.994026 0.997968
1.01808 1.03131 0.988994 0.998156
1.03102 1.04182 0.991582 0.998034
0.994688 1.01596 0.981406 0.997613
1.00945 1.02673 0.984474 0.998677
0.999624 1 1 0.999624
1.02896 1.03663 0.994792 0.997799
1.02048 1.02899 0.993853 0.997864
1.02295 1.02855 0.996517 0.998025
0.998958 1.00007 1.00082 0.998072
1.00374 1.00269 1.00402 0.997038
1.00659 1.00905 1.00045 0.997107
1.01762 1.02092 0.998727 0.998048
0.998227 1 1 0.998227
1.00517 1 1.00652 0.998658
1.00095 1 1.00266 0.998296
0.9999 1 1 0.9999
0.999943 1 1.00132 0.998625
0.999482 1 1 0.999482
0.998948 1 1 0.998948
0.99951 1 1 0.99951
1.03136 1.04126 0.992531 0.997939
0.999573 1 1 0.999573
0.999499 1 1 0.999499
0.999237 1 1 0.999237
1.01235 1.02766 0.987071 0.998005
1.01891 1.02579 0.995064 0.998223
0.99978 1.00006 1.00171 0.998015
1.00423 1.00171 1.00555 0.996986
1.00466 1.00808 0.998821 0.997786
0.99902 1 1 0.99902
0.998945 1 1.00022 0.99873
1.00333 1 1.00483 0.998512
1.01514 1 1.01686 0.998309
0.999627 1 1.00124 0.998393
1.02111 1.03396 0.989526 0.99802
1.01158 1.03092 0.983086 0.99812
1.01152 1.01663 0.996993 0.997982
1.00205 1.00397 1.00048 0.997607
1.0031 1 1.00497 0.998138
0.999211 1 1 0.999211
0.99911 1 1 0.99911
0.998995 1 1 0.998995
0.999017 1 1.00023 0.998783
0.999482 1 1.00092 0.998565
1.01362 1 1.01534 0.998305
1.01539 1 1.01717 0.998249
0.99919 1 1.00032 0.998872
1.00065 1 1.00229 0.998369
1.02505 1.0379 0.98946 0.998134
1.02066 1.02495 0.997697 0.998112
1.00751 1.01009 1 0.997446
1.00038 1 1.00268 0.997702
1.00417 1.00355 1.0036 0.997027
1.00014 1 1.00149 0.998648
1.01501 1.02857 0.988333 0.998462
0.999652 1.00018 1.00132 0.998158
1.00213 1.00058 1.00408 0.997475
1.01197 1.01684 0.997312 0.997896
1.00216 1.00236 1.00269 0.997119
1.00182 1.00744 0.996469 0.997945
1.00024 1 1.00176 0.998481
1.00611 1.01801 0.989849 0.998445
1.00008 1 1.00194 0.998138
1.00416 1.00033 1.00636 0.997483
1.00075 1.00571 0.997498 0.997569
0.951377 0.980903 0.983993 0.985676
0.970378 0.985776 0.991281 0.993038
0.982959 0.997894 0.986495 0.998519
0.847249 0.897054 0.962955 0.980813
0.803426 0.892549 0.921153 0.977196
0.998986 1 1.00007 0.998919
0.999127 1 1.00031 0.998821
0.998828 1 1 0.998828
0.99945 1 1 0.99945
0.999145 1 1 0.999145
0.999016 1 1 0.999016
0.998944 1 1 0.998944
0.998841 1 1 0.998841
0.998987 1 1 0.998987
0.999405 1 1 0.999405
0.99911 1 1 0.99911
0.998846 1 1 0.998846
0.998897 1 1 0.998897
0.998904 1 1 0.998904
0.99888 1 1 0.99888
0.998928 1 1 0.998928
0.999066 1 1 0.999066
0.999367 1 1 0.999367
0.999133 1 1 0.999133
0.999049 1 1 0.999049
0.999196 1 1 0.999196
0.999183 1 1 0.999183
0.999442 1 1 0.999442
0.999373 1 1 0.999373
0.999847 1 1 0.999847
0.999852 1 1 0.999852
1 1 1 1
0.999858 1 1 0.999858
1 1 1 1
1 1 1 1
1 1 1 1
1 1 1 1
1 1 1 1
0.99996 1 1 0.99996
0.999948 1 1 0.999948
1 1 1 1
0.999929 1 1 0.999929
1 1 1 1
1 1 1 1
1 1 1 1
1 1 1 1
1 1 1 1
1.02971 1.03792 0.99411 0.997965
1.02934 1.03762 0.994179 0.997825
1.01884 1.03081 0.990239 0.998126
0.99744 1.01574 0.984291 0.99766
1.0291 1.03996 0.991501 0.998032
1.01476 1.0289 0.987651 0.998591
1.02681 1.03365 0.995284 0.998093
0.958758 0.98456 0.98143 0.992219
1.00443 1.01935 0.98726 0.99808
0.99963 1 1 0.99963
0.999623 1 1 0.999623
0.999302 1 1 0.999302
0.999331 1 1 0.999331
1.02991 1.04161 0.990802 0.997947
1.01263 1.02674 0.988231 0.998007
1.01861 1.02556 0.995041 0.998176
0.998936 1.00013 1.00077 0.998035
1.00403 1.00165 1.00536 0.997033
1.00384 1.00708 0.999002 0.997781
1.00605 1 1.00762 0.998439
1.01162 1 1.01329 0.998347
0.999408 1 1.00099 0.998419
0.999498 1 1 0.999498
0.998936 1 1.00023 0.998702
0.999053 1 1 0.999053
0.999603 1 1 0.999603
0.999197 1 1 0.999197
1.01919 1.03327 0.988315 0.998034
0.999255 1 1 0.999255
0.999144 1 1 0.999144
0.99903 1 1 0.99903
1.01399 1.03291 0.983533 0.998125
1.01013 1.01574 0.996494 0.99798
1.00281 1 1.0047 0.998126
1.00248 1.00431 1.00055 0.997626
0.999043 1 1.00027 0.998777
0.999153 1 1.00062 0.998537
1.01645 1 1.01824 0.998246
1.01438 1 1.01613 0.998278
1.00806 1.03089 0.979698 0.998112
1.00425 1.02471 0.98192 0.998085
1.00497 1.00768 0.999624 0.997688
0.998331 1.00034 0.999757 0.998239
0.998898 1 1 0.998898
0.999161 1 1.00031 0.998851
1.00435 1 1.00577 0.998587
1.02719 1 1.02914 0.998111
0.932212 0.972473 0.973406 0.984789
1.00031 1 1.00162 0.998685
0.999278 1 1.00109 0.998186
1.01304 1.0278 0.987142 0.998475
1.01319 1.01761 0.997671 0.997978
1.0026 1.00221 1.0033 0.997105
1.00194 1 1.00447 0.997486
1.0011 1.00736 0.996365 0.997411
1.00026 1 1.00175 0.998511
1.00617 1.01861 0.989341 0.998432
0.999585 1 1.00144 0.99815
1.00379 1.00021 1.00611 0.997482
1.00204 1.00661 0.997868 0.997593
0.950294 0.983792 0.980677 0.984984
0.965431 0.983272 0.990573 0.991198
0.984115 0.995881 0.989626 0.998545
0.849688 0.895978 0.966885 0.980814
0.787122 0.880611 0.916517 0.975253
0.999592 1 1.00092 0.998672
0.872765 0.91707 0.969739 0.981387
0.845633 0.897671 0.962733 0.978496
0.984773 1.00706 0.97951 0.998324
1.00503 1.0002 1.00657 0.998275
1.01114 1.0032 1.01019 0.99775
0.978135 0.991177 0.988151 0.998675
0.948091 0.971821 0.990707 0.984733
0.951139 0.964652 0.995529 0.99042
0.826291 0.897277 0.93849 0.981244
0.856395 0.93189 0.938691 0.979008
0.999469 1 1.00063 0.998839
0.999066 1 1.00025 0.998818
0.999436 1 1.00039 0.99905
0.999429 1 1 0.999429
0.999124 1 1 0.999124
0.998967 1 1 0.998967
0.998903 1 1 0.998903
0.998846 1 1 0.998846
0.999367 1 1 0.999367
0.998899 1 1 0.998899
0.998946 1 1 0.998946
0.999091 1 1 0.999091
0.998922 1 1.00004 0.99888
0.998873 1 1 0.998873
0.999201 1 1.0003 0.998904
0.998909 1 1 0.998909
0.999095 1 1 0.999095
0.99913 1 1 0.99913
0.999037 1 1 0.999037
0.998973 1 1 0.998973
0.999034 1 1 0.999034
0.998981 1 1 0.998981
0.998892 1 1 0.998892
0.999175 1 1 0.999175
0.999196 1 1 0.999196
0.999456 1 1 0.999456
0.999153 1 1 0.999153
0.999421 1 1 0.999421
0.999845 1 1 0.999845
0.999371 1 1 0.999371
0.999848 1 1 0.999848
1 1 1 1
0.999851 1 1 0.999851
1 1 1 1
1 1 1 1
1 1 1 1
1 1 1 1
1 1 1 1
0.999608 1 1 0.999608
0.999959 1 1 0.999959
0.999958 1 1 0.999958
1 1 1 1
0.999945 1 1 0.999945
1 1 1 1
1 1 1 1
1 1 1 1
1 1 1 1
1 1 1 1
0.999619 1.01579 0.986338 0.997709
1.02764 1.03823 0.991748 0.99803
1.01939 1.03124 0.989994 0.998504
0.954749 0.979878 0.981103 0.993122
1.00464 1.01907 0.98764 0.998176
1.02881 1.03658 0.994445 0.998056
1.01634 1.02413 0.994423 0.997955
0.965379 0.982449 0.988725 0.99383
0.952037 0.979241 0.987849 0.984178
0.829267 0.889874 0.950564 0.980357
0.784794 0.86589 0.927917 0.976751
0.999288 1 1 0.999288
0.99963 1 1 0.99963
0.999621 1 1 0.999621
0.999289 1 1 0.999289
0.999084 1 1 0.999084
0.999119 1 1 0.999119
0.999278 1 1 0.999278
0.999308 1 1 0.999308
1.0178 1.03301 0.987198 0.998049
1.01725 1.03577 0.983962 0.998128
1.00896 1.01493 0.99613 0.997978
1.00305 1.00006 1.00488 0.998115
1.00298 1.00437 1.00097 0.997645
1.01736 1 1.01915 0.998243
1.01561 1 1.01739 0.998252
0.998985 1 1.00048 0.99851
0.999178 1 1 0.999178
0.999047 1 1.00028 0.998771
0.999298 1 1 0.999298
0.999065 1 1 0.999065
1.00929 1.03105 0.980762 0.998098
0.998924 1 1 0.998924
0.999052 1 1.00018 0.998869
1.00511 1.02412 0.983347 0.998064
1.00348 1.0073 0.998404 0.997797
1.00026 1.00064 1.00146 0.998169
1.00635 1 1.00782 0.998535
1.02432 1 1.02625 0.998122
1.00696 1.02612 0.983203 0.998091
0.986097 1.00756 0.980542 0.998119
0.995276 1.00056 0.996584 0.998125
1.00544 1.00025 1.00692 0.99828
0.999029 1 1.00031 0.998721
1.00273 1 1.0041 0.998639
1.02323 1 1.02494 0.998329
0.860877 0.922018 0.950857 0.981945
0.94561 0.976618 0.981617 0.986383
0.999936 1 1.0014 0.998542
0.999227 1 1.00107 0.998162
1.00674 1.0196 0.988945 0.998421
1.00307 1.00741 0.998071 0.997618
1.00328 1.0001 1.00571 0.997482
0.947197 0.97732 0.98465 0.984287
0.968288 0.987839 0.988252 0.991861
0.985793 0.994482 0.992686 0.998566
0.844116 0.896977 0.959063 0.981236
0.773141 0.868266 0.914888 0.97328
0.999243 1 1.00057 0.998673
0.865108 0.919668 0.95813 0.981781
0.839815 0.891333 0.963761 0.97763
0.986641 1.00787 0.980589 0.998316
1.00465 1.00019 1.00617 0.998297
1.00999 1.00166 1.01047 0.997877
0.969755 0.98613 0.984609 0.998766
0.953752 0.97989 0.98965 0.983505
0.953215 0.968492 0.991959 0.992204
0.829361 0.891751 0.949076 0.979939
0.855563 0.933849 0.936467 0.978325
1.00108 1 1.00216 0.998918
0.87289 0.906725 0.982193 0.980138
0.938001 0.961381 0.990694 0.984846
0.989334 1.00006 0.990465 0.998803
1.01249 1.00174 1.01196 0.998783
0.984248 0.977757 1.00772 0.998929
0.935897 0.95418 0.987496 0.99326
0.938414 0.956204 0.99813 0.983234
0.844909 0.906722 0.950513 0.980342
0.885174 0.954839 0.944539 0.981474
0.999143 1 1.00034 0.998808
0.999219 1 1.00019 0.999029
1.00149 1 1.00226 0.999226
0.999368 1 1 0.999368
0.999116 1 1 0.999116
0.998964 1 1 0.998964
0.998894 1 1 0.998894
0.998972 1 1.00009 0.99888
0.999094 1 1 0.999094
0.998877 1 1 0.998877
0.99891 1 1 0.99891
0.999814 1 1.00089 0.998929
1.00784 0.999982 1.0087 0.999175
0.998933 1 1.00009 0.998847
0.998889 1 1 0.998889
0.999127 1 1 0.999127
0.999024 1 1 0.999024
0.998971 1 1 0.998971
0.99903 1 1 0.99903
0.998992 1 1 0.998992
0.998983 1 1 0.998983
0.998932 1 1 0.998932
0.998976 1 1 0.998976
0.998754 1 1 0.998754
0.999315 1 1.00093 0.998388
0.998771 1 1 0.99877
0.998889 1 1 0.998889
0.999119 1 1 0.999119
0.999174 1 1 0.999174
0.999451 1 1 0.999451
0.999195 1 1 0.999195
0.999457 1 1 0.999457
0.999846 1 1 0.999846
0.999401 1 1 0.999401
0.999846 1 1 0.999846
1 1 1 1
0.999848 1 1 0.999848
1 1 1 1
1 1 1 1
1 1 1 1
1 1 1 1
1 1 1 1
0.999627 1 1 0.999627
0.99995 1 1 0.99995
0.999608 1 1 0.999608
1 1 1 1
0.99996 1 1 0.99996
0.999956 1 1 0.999956
1 1 1 1
1 1 1 1
1 1 1 1
1 1 1 1
1 1 1 1
0.861573 0.910204 0.964729 0.981179
0.84915 0.899387 0.964344 0.979053
0.957066 0.983136 0.979726 0.993627
1.00671 1.01871 0.989932 0.998273
1.03118 1.03924 0.994216 0.998019
0.957736 0.974274 0.987852 0.995115
1.01584 1.02374 0.994267 0.998013
0.956272 0.984518 0.985615 0.985485
0.843205 0.896195 0.95943 0.980658
0.776029 0.865243 0.920111 0.974765
0.984296 0.998377 0.989441 0.996417
0.949943 0.973375 0.990601 0.985188
0.819024 0.891739 0.936405 0.980832
0.848317 0.923241 0.939789 0.977715
0.998996 1 1 0.998996
0.999309 1 1 0.999309
0.999629 1 1 0.999629
0.999277 1 1 0.999277
0.999116 1 1 0.999116
0.999154 1 1.00014 0.999015
0.999118 1 1 0.999118
0.999132 1 1 0.999132
0.999252 1 1 0.999252
0.999286 1 1 0.999286
1.01031 1.03073 0.982062 0.998085
1.00469 1.02242 0.984589 0.998044
1.00216 1.00716 0.997123 0.997907
1.0019 1.00096 1.00284 0.998098
1.0205 1 1.02241 0.998133
1.00837 1 1.0099 0.998482
0.998887 1 1 0.998887
0.998949 1 1 0.998949
1.0063 1.02645 0.98223 0.998104
0.999235 1 1.00053 0.998706
1.00265 1 1.00405 0.998608
0.986583 1.0062 0.982425 0.99804
0.994704 1.00041 0.996044 0.998245
1.00651 1.00079 1.00755 0.998179
1.02044 1 1.02217 0.998303
0.998276 1.00483 0.995072 0.998399
0.987529 1 0.988723 0.998792
1.01356 1.00043 1.0148 0.998356
1.00154 1 1.00286 0.998684
1.0011 1 1.00256 0.998543
1.01393 1 1.01554 0.998419
0.880336 0.913617 0.980425 0.982811
0.869437 0.921037 0.961606 0.981666
0.938648 0.976641 0.975926 0.984807
0.998915 1 1.00024 0.998674
1.00425 1.00013 1.00581 0.99832
0.989287 1.00851 0.982599 0.998309
1.00903 1.00013 1.01092 0.998004
0.858512 0.914397 0.95653 0.981552
0.954212 0.978298 0.989953 0.985279
0.947468 0.967496 0.988695 0.990496
0.965917 0.981908 0.984838 0.998859
0.829716 0.892086 0.949133 0.979931
0.842166 0.896055 0.961417 0.977578
0.846288 0.927584 0.932383 0.978522
1.00175 1 1.00283 0.998924
0.873962 0.910298 0.978783 0.980895
0.943363 0.966007 0.991674 0.984759
0.991652 1.00015 0.992617 0.998879
1.01196 1.00046 1.01275 0.998761
0.981946 0.976858 1.00634 0.998873
0.937085 0.956395 0.988308 0.991401
0.940825 0.960719 0.995004 0.98421
0.856349 0.918717 0.950444 0.980715
0.874606 0.945586 0.942223 0.981653
1.00356 0.999757 1.00435 0.999462
0.941232 0.965898 0.986482 0.987817
0.92563 0.955127 0.980559 0.988331
1.00357 0.990022 1.01398 0.999715
0.955962 0.957882 1.00223 0.995774
0.946433 0.956338 1.00628 0.983464
0.892583 0.936955 0.971416 0.980675
0.891979 0.967553 0.939795 0.980949
0.999008 1 1 0.999008
1.00083 1 1.0016 0.999228
1.01255 1 1.01316 0.999402
0.999093 1 1 0.999093
0.99891 1 1 0.99891
0.998882 1 1 0.998882
1.00002 1 1.00106 0.998955
0.998887 1 1 0.998887
0.998909 1 1.00007 0.998842
1.0103 1 1.01108 0.99922
1.01882 0.998225 1.02119 0.999446
1.008 1 1.00891 0.999103
0.998841 1 1 0.998841
0.998969 1 1 0.998969
0.999027 1 1 0.999027
0.999003 1 1 0.999003
0.998941 1 1 0.998941
0.998982 1 1 0.998982
0.998983 1 1 0.998983
0.9989 1 1 0.9989
0.999174 1 1.00008 0.999096
0.998785 1 1 0.998785
0.99878 1 1 0.99878
0.999206 1 1.00069 0.998512
0.999502 1 1.00153 0.997979
0.999143 1 1.00046 0.998678
0.99927 1 1.00079 0.998479
0.998801 1 1 0.998801
0.998992 1 1 0.998992
0.998886 1 1 0.998886
0.999117 1 1 0.999117
0.999414 1 1 0.999414
0.999172 1 1 0.999172
0.99945 1 1 0.99945
0.999844 1 1 0.999844
0.999457 1 1 0.999457
0.999846 1 1 0.999846
1 1 1 1
0.999846 1 1 0.999846
1 1 1 1
1 1 1 1
1 1 1 1
1 1 1 1
1 1 1 1
0.999498 1 1 0.999498
0.999935 1 1 0.999935
0.999576 1 1 0.999576
1 1 1 1
0.999953 1 1 0.999953
0.999608 1 1 0.999608
1 1 1 1
1 1 1 1
0.99996 1 1 0.99996
1 1 1 1
1 1 1 1
1 1 1 1
0.875812 0.909789 0.980519 0.981781
0.865308 0.91621 0.962693 0.981043
0.940321 0.966845 0.987748 0.98463
0.840507 0.892318 0.962846 0.978283
0.954624 0.977561 0.983203 0.993219
1.01369 1.02346 0.992365 0.998073
0.96056 0.984616 0.98869 0.986729
0.844783 0.89936 0.957897 0.980602
0.770714 0.867177 0.913647 0.972762
0.980625 0.995956 0.98884 0.995718
0.948912 0.973761 0.99096 0.983372
0.830452 0.898847 0.943157 0.97959
0.847472 0.925395 0.937507 0.976839
0.963399 0.984197 0.98405 0.994734
0.950793 0.962176 1.00532 0.982939
0.855156 0.921063 0.947302 0.980093
0.881008 0.955955 0.940475 0.979931
0.999321 1 1.00049 0.998829
0.999026 1 1 0.999026
0.99933 1 1 0.99933
0.999148 1 1 0.999148
0.998834 1 1 0.998834
0.999037 1 1 0.999037
0.999116 1 1 0.999116
0.9991 1 1 0.9991
0.99916 1 1 0.99916
0.999225 1 1 0.999225
1.00682 1.02755 0.98167 0.998117
0.98876 1.00573 0.985138 0.997963
0.994066 1.00014 0.995556 0.998364
1.00832 1.00132 1.00892 0.99808
1.01777 1 1.01953 0.998277
1.00229 1 1.00372 0.998578
0.999501 1 1.00081 0.998691
1.00088 1 1.00221 0.998677
0.994495 1.00567 0.990463 0.998412
1.00091 1 1.00237 0.99855
1.01383 1 1.01544 0.998412
0.986154 1.00023 0.987199 0.998713
1.01368 1.00085 1.01451 0.998332
0.96709 0.990864 0.977083 0.9989
1.00319 0.998029 1.00591 0.999263
1.01946 1 1.02092 0.998574
1.00021 1 1.00166 0.99856
1.00796 1 1.00955 0.998422
0.942214 0.962259 0.989711 0.989348
0.884369 0.913573 0.984918 0.982856
0.861975 0.916896 0.957525 0.981803
1.00241 1 1.00348 0.998929
1.01155 0.999314 1.01352 0.998738
0.99146 1 0.992502 0.99895
0.883638 0.916165 0.982524 0.981652
0.949796 0.960136 1.00635 0.982985
0.939325 0.957149 0.988617 0.992678
0.972015 0.973202 0.99999 0.99879
0.857335 0.918015 0.95258 0.980392
0.948151 0.96982 0.99287 0.984677
0.874818 0.946182 0.941771 0.981742
1.00317 0.999425 1.00431 0.999437
0.93896 0.964001 0.985244 0.988612
0.927755 0.957011 0.980866 0.988341
1.00498 0.992083 1.01343 0.999568
0.960521 0.961257 1.00388 0.995369
0.936168 0.95412 0.998828 0.982335
0.895144 0.969518 0.940429 0.981773
0.89074 0.936011 0.970494 0.980567
1.00491 0.993696 1.01158 0.999711
0.922231 0.95169 0.975672 0.993207
0.936493 0.967818 0.978344 0.989053
0.882914 0.956706 0.941713 0.979989
0.989436 0.975998 1.01492 0.998865
0.96285 0.96503 1.01379 0.984168
0.898721 0.93354 0.981426 0.980922
1.00081 1 1.00158 0.99923
1.01157 1 1.01224 0.99934
1.01597 0.996648 1.01983 0.999566
0.998885 1 1 0.998885
0.998952 1 1.00011 0.998838
1.01396 1 1.0147 0.999264
0.998851 1 1 0.998851
1.00773 1 1.00863 0.99911
1.02037 0.998068 1.02294 0.999421
1.00833 0.997455 1.01142 0.999489
1.00502 1 1.00592 0.999103
0.998951 1 1 0.998951
0.998981 1 1 0.998981
0.99899 1 1 0.99899
0.999163 1 1.00008 0.99908
0.998909 1 1 0.998909
0.99936 1 1.00033 0.999028
0.998913 1 1 0.998913
1.00087 1 1.00259 0.998282
0.998805 1 1 0.998805
0.999042 1 1.00057 0.998477
0.998821 1 1.00101 0.99781
0.999192 1 1.00129 0.997905
1.00002 1 1.00154 0.998487
0.99938 1 1.00138 0.998
0.999093 1 1.00023 0.998867
0.999219 1 1.00057 0.99865
0.999215 1 1.00065 0.99857
0.998832 1 1 0.998832
0.999023 1 1 0.999022
0.999348 1 1 0.999348
0.999116 1 1 0.999116
0.999414 1 1 0.999414
0.99983 1 1 0.99983
0.999449 1 1 0.999449
0.999842 1 1 0.999842
1 1 1 1
0.999846 1 1 0.999846
1 1 1 1
1 1 1 1
1 1 1 1
1 1 1 1
1 1 1 1
0.999344 1 1 0.999344
0.999829 1 1 0.999829
0.999496 1 1 0.999496
1 1 1 1
0.999903 1 1 0.999903
0.999525 1 1 0.999525
1 1 1 1
1 1 1 1
0.999955 1 1 0.999955
1 1 1 1
1 1 1 1
1 1 1 1
0.93502 0.961259 0.983955 0.988565
0.865083 0.907679 0.970794 0.981744
0.865311 0.913049 0.966194 0.980875
0.999006 1 1 0.999006
0.927541 0.953013 0.983856 0.989243
0.942933 0.967719 0.989662 0.984565
0.836826 0.894265 0.956469 0.978358
0.98345 0.99712 0.991374 0.994873
0.950535 0.972858 0.99202 0.984914
0.83675 0.910089 0.938597 0.979564
0.841768 0.919041 0.937575 0.976902
0.965297 0.984651 0.987704 0.992549
0.937385 0.956082 0.996179 0.984205
0.865638 0.924794 0.955093 0.980044
0.879348 0.951947 0.942866 0.979711
0.945333 0.963976 0.989777 0.990788
0.946101 0.951386 1.01237 0.982294
0.895955 0.942106 0.970092 0.980333
0.891659 0.96602 0.940959 0.980938
0.999362 1 1.0007 0.998664
0.999604 1 1.0008 0.998806
0.999057 1 1 0.999057
0.998832 1 1 0.998832
0.998941 1 1.00007 0.998872
0.99906 1 1 0.99906
0.999108 1 1 0.999108
0.999188 1 1 0.999188
0.988513 1.00566 0.984503 0.998424
0.983787 1.00014 0.984994 0.998635
1.00014 1 1.00147 0.99867
1.01401 1.00127 1.01444 0.998307
1.01451 1 1.01613 0.998406
1.00099 1 1.00243 0.998558
1.00047 1 1.0019 0.998569
0.971702 0.992499 0.980095 0.99893
1.00865 1 1.01021 0.998449
1.01642 1.00006 1.01781 0.998578
0.997983 0.998463 1.00022 0.999295
1.00034 1 1.00174 0.998603
0.962597 0.982549 0.98047 0.999208
1.0084 0.995432 1.01358 0.999454
1.02756 1 1.02894 0.998653
1.00199 1 1.00342 0.998571
0.9349 0.954058 0.985747 0.994089
0.94154 0.961328 0.989846 0.989463
0.889507 0.913718 0.990435 0.982904
1.00217 0.999008 1.00375 0.999416
1.00785 0.994374 1.01414 0.999425
0.937382 0.962617 0.984216 0.9894
0.953617 0.955434 1.01437 0.983962
0.955035 0.959443 1.00244 0.992983
0.895367 0.939963 0.972293 0.979699
0.928506 0.95756 0.981088 0.98835
0.899386 0.972609 0.941097 0.982593
1.00618 0.995583 1.01098 0.999672
0.922428 0.951508 0.976062 0.993213
0.934189 0.965904 0.976784 0.990152
0.998128 0.982541 1.01607 0.999801
0.880497 0.952876 0.943153 0.979738
0.951835 0.957382 1.01093 0.983458
0.909361 0.947217 0.979449 0.980179
1.00668 0.991589 1.01546 0.999771
0.93588 0.965371 0.97517 0.994135
0.92799 0.95389 0.983374 0.989296
0.848272 0.924665 0.938215 0.977797
0.895625 0.943697 0.968408 0.98002
0.972125 0.968982 1.00523 0.998029
0.965565 0.958792 1.02603 0.981516
1.0093 1 1.01003 0.999278
1.01523 0.996099 1.01967 0.999541
1.00367 0.985583 1.01878 0.999582
0.998862 1 1 0.998862
1.00696 1 1.00785 0.999116
1.02108 0.998708 1.02301 0.999396
1.00268 1 1.0036 0.99909
1.00846 0.998192 1.0108 0.999488
1.00703 0.997344 1.01047 0.999252
0.999064 1 1 0.999064
0.998917 1 1 0.998917
0.999998 1 1.001 0.998999
1.00636 1 1.00787 0.998502
0.99904 1 1 0.99904
1.00036 1 1.00198 0.998383
1.00183 1 1.00413 0.997713
1.00066 1.00143 1.00188 0.997359
0.998844 1 1.0004 0.99844
0.999002 1.00019 1.00109 0.997716
0.998522 1 1.00053 0.997997
1.00059 1 1.00232 0.998271
0.999213 1 1.00125 0.997962
1.00046 1 1.00174 0.998725
1.00003 1 1.00156 0.998479
0.999298 1 1.00128 0.998022
0.999232 1 1 0.999232
0.999202 1 1.00034 0.998862
0.999382 1 1.00076 0.998622
0.999053 1 1 0.999053
0.999346 1 1 0.999346
0.999798 1 1 0.999798
0.999413 1 1 0.999413
0.999827 1 1 0.999827
1 1 1 1
0.999841 1 1 0.999841
1 1 1 1
1 1 1 1
1 1 1 1
1 1 1 1
1 1 1 1
0.999279 1 1 0.999279
0.999755 1 1 0.999755
0.999373 1 1 0.999373
1 1 1 1
0.999822 1 1 0.999822
0.999495 1 1 0.999495
1 1 1 1
1 1 1 1
0.999871 1 1 0.999871
1 1 1 1
1 1 1 1
1 1 1 1
0.924205 0.951838 0.977552 0.993266
0.936443 0.961702 0.985006 0.988557
0.865077 0.90891 0.969373 0.981845
0.999023 1 1 0.999023
0.998974 1 1 0.998974
0.99887 1 1 0.99887
0.933278 0.96665 0.97622 0.988995
0.92511 0.952047 0.982252 0.989264
0.945831 0.968685 0.991779 0.9845
0.971777 0.986875 0.990491 0.994154
0.935704 0.956142 0.995616 0.982934
0.856049 0.913385 0.955965 0.980399
0.888071 0.957619 0.946875 0.979405
0.947788 0.964566 0.989839 0.992692
0.942046 0.950718 1.00783 0.983175
0.884629 0.927123 0.97216 0.98149
0.893629 0.968278 0.940067 0.981744
0.934884 0.953976 0.988451 0.991437
0.960368 0.961542 1.01543 0.983603
0.899703 0.931962 0.983983 0.981101
0.885835 0.954306 0.945858 0.981385
0.998653 1 1 0.998653
0.999596 1 1.00094 0.998658
0.999686 1 1.0009 0.998784
0.998827 1 1 0.998827
0.998909 1 1 0.998909
0.999116 1 1 0.999116
0.978519 0.994974 0.984493 0.998952
0.993386 0.99881 0.995242 0.999324
1.00065 1 1.00207 0.998578
1.01287 1.00012 1.01419 0.998583
1.00934 1 1.01088 0.998477
1.00014 1 1.00157 0.998579
1.00174 1 1.00316 0.998586
0.973928 0.985561 0.988945 0.999243
1.02412 1 1.02539 0.998757
1.00614 0.990874 1.01594 0.99948
1.00005 1 1.00135 0.998701
0.988473 0.974881 1.01455 0.999404
0.999733 0.987938 1.01242 0.999522
1.0197 1 1.02084 0.99888
0.950976 0.969294 0.985812 0.995222
0.934527 0.954231 0.98486 0.994407
0.941174 0.960293 0.990414 0.989575
1.0085 0.997813 1.01108 0.999634
0.992776 0.984127 1.00952 0.999271
0.923258 0.95194 0.976493 0.993218
0.951701 0.951397 1.01353 0.986962
0.90818 0.944185 0.980546 0.980949
0.93296 0.964385 0.975951 0.991253
0.888932 0.958176 0.947183 0.979465
1.00475 0.991086 1.01401 0.999788
0.936627 0.965691 0.975301 0.994466
0.9264 0.95325 0.982327 0.989318
0.971155 0.965774 1.01035 0.995273
0.846454 0.925749 0.935907 0.976961
0.881998 0.929726 0.966868 0.981172
0.974239 0.963931 1.02771 0.98344
1.00144 0.973351 1.02927 0.999597
0.924984 0.952407 0.977724 0.993335
0.942051 0.968759 0.987485 0.984755
0.78274 0.864133 0.927141 0.976992
0.856712 0.922809 0.947207 0.980118
0.959951 0.961213 1.01569 0.98326
0.949622 0.961042 0.994389 0.993693
1.01441 0.995184 1.01982 0.999515
1.00697 0.989714 1.01785 0.999586
1.01689 0.994924 1.02256 0.999529
1.00038 1 1.0013 0.999078
1.00881 0.998167 1.01118 0.999487
1.0084 0.997361 1.01175 0.999327
1.01573 1 1.01693 0.998825
1.00074 1 1.00177 0.99897
1.00665 1 1.00827 0.998398
1.01501 1 1.01743 0.997615
0.999929 1 1.00145 0.998486
1.0031 1.00036 1.00509 0.99767
1.00478 1.0018 1.00596 0.997026
1.00313 1.00429 1.00191 0.996947
0.998933 1.00019 1.00108 0.99767
1.00061 1.00141 1.00189 0.99732
0.999216 1.00036 1.00124 0.997622
0.999282 1 1.0011 0.998187
0.998566 1 1.00048 0.998087
1.00106 1 1.0026 0.998469
1.00067 1 1.00237 0.998309
0.999186 1 1.00117 0.998018
0.999843 1 1.00081 0.999035
1.00014 1 1.00141 0.998728
0.999947 1 1.00148 0.998471
0.999738 1 1 0.999738
0.99923 1 1 0.99923
0.999208 1 1.00035 0.998857
0.999344 1 1 0.999344
0.999794 1 1 0.999794
1 1 1 1
0.999824 1 1 0.999824
1 1 1 1
1 1 1 1
1 1 1 1
1 1 1 1
1 1 1 1
0.999269 1 1 0.999269
0.999761 1 1 0.999761
0.999298 1 1 0.999298
1 1 1 1
0.999787 1 1 0.999787
0.999402 1 1 0.999402
1 1 1 1
1 1 1 1
0.999816 1 1 0.999816
1 1 1 1
1 1 1 1
1 1 1 1
0.935293 0.964705 0.975272 0.994095
0.924297 0.952255 0.977213 0.993274
0.936173 0.962059 0.984354 0.98856
0.998949 1 1 0.998949
0.998832 1 1 0.998832
0.99904 1 1 0.99904
0.998971 1 1 0.998971
0.998852 1 1 0.998852
0.998858 1 1 0.998858
0.998758 1 1 0.998758
0.922863 0.954433 0.978437 0.988232
0.932851 0.964665 0.976688 0.990102
0.922809 0.950912 0.980957 0.989286
0.896137 0.971047 0.939245 0.982551
0.936725 0.954824 0.989958 0.990996
0.944811 0.951558 1.00886 0.984192
0.88891 0.928692 0.976108 0.98059
0.930356 0.953392 0.984978 0.990721
0.951215 0.953447 1.01542 0.982511
0.911575 0.948332 0.980204 0.980654
0.873903 0.945026 0.942102 0.98157
0.935439 0.954963 0.986848 0.99261
0.958021 0.9593 1.01684 0.982127
0.894855 0.938906 0.971689 0.980851
0.853933 0.93029 0.93783 0.978771
1.00023 1 1.00148 0.998749
0.998768 1 1.00011 0.998654
0.99996 1 1.00131 0.998651
0.998823 1 1 0.998823
0.982393 0.987652 0.995389 0.999283
1.00286 0.987056 1.01652 0.999505
0.998604 1 1.00005 0.998555
1.00149 1 1.00289 0.9986
1.02011 1 1.02127 0.99886
0.999507 1 1.00081 0.998694
1.02035 0.999745 1.02177 0.998866
0.984317 0.973186 1.01274 0.998716
1.00253 0.987318 1.01578 0.999633
1.0092 0.999065 1.01118 0.998975
0.989749 0.971895 1.01983 0.998571
1.01851 0.993373 1.02603 0.999298
0.935441 0.954296 0.986033 0.994127
0.946514 0.967356 0.982793 0.995586
0.933973 0.954403 0.983784 0.994724
1.00198 0.9896 1.01271 0.999805
0.974486 0.967665 1.0089 0.998168
0.936485 0.965336 0.975185 0.994798
0.967818 0.962512 1.02409 0.981864
0.885399 0.92955 0.971716 0.980228
0.9246 0.952604 0.981062 0.989339
0.841431 0.919115 0.937006 0.977027
1.00655 0.977033 1.03054 0.999677
0.924661 0.952774 0.976996 0.993344
0.944172 0.969188 0.989338 0.984687
0.951888 0.960833 0.994807 0.995862
0.77604 0.864791 0.920352 0.975032
0.863134 0.923798 0.953446 0.979953
0.957946 0.9564 1.01902 0.982917
0.999774 0.978599 1.02275 0.99891
0.936414 0.962426 0.98408 0.988713
0.849751 0.899649 0.964498 0.979303
0.821829 0.892867 0.938179 0.98109
0.944049 0.949133 1.01122 0.983612
0.931841 0.953416 0.985671 0.99158
1.01065 0.99387 1.0173 0.99959
1.01758 0.99346 1.02476 0.999522
1.01014 0.998358 1.01245 0.999359
1.01003 0.997636 1.01303 0.999402
1.01488 0.998457 1.01757 0.998901
1.00914 1.0008 1.01032 0.998033
1.00714 1 1.00886 0.998294
1.01408 1 1.01656 0.997564
1.00899 1.00017 1.01184 0.99701
1.00443 1.00077 1.00604 0.997628
1.00488 1.00144 1.0065 0.996955
1.00317 1.00209 1.00435 0.996738
1.00536 1.0084 1 0.996987
1.00511 1.00722 1.00077 0.997144
1.00366 1.0046 1.00218 0.996895
0.998594 1.00056 1.00013 0.997905
0.998741 1.00028 1.00074 0.997725
1.0006 1.00143 1.0019 0.997282
0.999324 1 1.00112 0.998211
0.99926 1 1.00108 0.998179
0.998602 1 1.00043 0.998176
1.00076 1 1.002 0.99877
1.00096 1 1.00245 0.998511
1.00075 1 1.00241 0.998348
0.999599 1 1 0.999599
0.999632 1 1.0006 0.999036
0.999946 1 1.00122 0.99873
1 1 1 1
0.999731 1 1 0.999731
0.999228 1 1 0.999228
0.99979 1 1 0.99979
1 1 1 1
1 1 1 1
1 1 1 1
1 1 1 1
1 1 1 1
0.998943 1 1 0.998943
0.999213 1 1 0.999213
0.999707 1 1 0.999707
0.999267 1 1 0.999267
1 1 1 1
0.999765 1 1 0.999765
0.999317 1 1 0.999317
1 1 1 1
1 1 1 1
0.999819 1 1 0.999819
1 1 1 1
1 1 1 1
1 1 1 1
0.921611 0.951691 0.975043 0.993179
0.935788 0.965141 0.975017 0.99443
0.924537 0.952744 0.976958 0.993281
0.998959 1 1 0.998959
0.998818 1 1 0.998818
0.99876 1 1 0.99876
0.998818 1 1 0.998818
0.999249 1 1.00052 0.998729
0.998968 1 1 0.998968
0.998833 1 1 0.998833
0.998859 1 1 0.998859
0.998759 1 1 0.998759
0.999697 1 1.00089 0.998805
0.936086 0.960024 0.990268 0.984647
0.926421 0.956484 0.980084 0.988252
0.933458 0.963475 0.977438 0.991208
0.872634 0.945397 0.940266 0.981673
0.908968 0.942673 0.982766 0.981154
0.922845 0.94923 0.982263 0.98976
0.95947 0.960936 1.01535 0.983382
0.93609 0.956968 0.987568 0.990497
0.969152 0.96833 1.01785 0.9833
0.893043 0.937015 0.971537 0.980993
0.854579 0.933009 0.936509 0.978035
0.956415 0.96449 0.999678 0.991947
0.959405 0.960933 1.01487 0.983777
0.843302 0.906527 0.949112 0.980133
0.805705 0.893546 0.923252 0.976649
1.00228 1 1.00312 0.999159
1.00179 1 1.00304 0.998748
0.999565 1 1.00091 0.998655
0.982618 0.972005 1.01293 0.998016
1.00525 0.986019 1.01976 0.999748
0.999843 1 1.00116 0.998687
1.02164 0.999614 1.02321 0.998852
1.01042 0.999582 1.01187 0.998982
1.01963 0.995426 1.02505 0.999287
0.985818 0.968568 1.01923 0.998607
1.01599 0.998935 1.01774 0.999345
0.99221 0.978786 1.01531 0.99843
0.944367 0.964105 0.990185 0.989236
0.935035 0.954342 0.985247 0.99444
0.94199 0.9655 0.979619 0.995948
1.01172 0.980986 1.03158 0.999751
0.951043 0.961951 0.99594 0.992691
0.925004 0.953115 0.977002 0.993351
0.95932 0.962824 1.01536 0.981293
0.855381 0.912634 0.956063 0.980339
0.94631 0.969617 0.991204 0.984623
0.772712 0.86817 0.914694 0.973055
0.99887 0.977249 1.02312 0.999027
0.937845 0.963 0.985003 0.988706
0.841458 0.893337 0.962587 0.978537
0.934338 0.956583 0.983949 0.99268
0.832457 0.899419 0.944605 0.979827
0.93229 0.947079 1.00204 0.98238
0.974298 0.977128 0.999029 0.998073
0.876146 0.910684 0.97968 0.982029
0.831363 0.890547 0.951976 0.980636
0.949684 0.962426 1.00381 0.983013
0.929621 0.952685 0.982574 0.993097
1.01722 0.9921 1.02582 0.999515
1.01166 0.996905 1.01548 0.99933
0.996033 1.001 0.996348 0.998681
1.01361 0.996617 1.0181 0.998976
1.00916 1.00091 1.01013 0.99813
1.00181 1.00197 1.00225 0.997584
1.01287 1 1.01539 0.997512
1.0074 1.00032 1.01009 0.997025
0.999569 1.00147 1.00098 0.997121
1.00469 1.00105 1.00677 0.996885
1.00335 1.00301 1.00359 0.996759
1.00605 1.00893 1 0.997147
1.01563 1.01835 1 0.997331
1.00986 1.01285 1.00002 0.997026
1.00496 1.00798 1 0.997005
1.00219 1.00478 1 0.997424
1.00343 1.00527 1.00107 0.997098
1.00421 1.00494 1.00244 0.996843
0.998259 1.0002 1 0.99806
0.998351 1.00036 1.00002 0.99797
0.998455 1.00036 1.00032 0.99778
0.999796 1 1.00128 0.998516
0.999521 1 1.00129 0.998236
0.999264 1 1.0011 0.99817
0.999795 1 1.00045 0.999342
1.00055 1 1.00179 0.998771
1.00082 1 1.00227 0.998552
0.999996 1 1 0.999996
0.999612 1 1.00002 0.999592
0.999471 1 1.00043 0.999037
1 1 1 1
0.999999 1 1 0.999999
0.999725 1 1 0.999725
1 1 1 1
1 1 1 1
1 1 1 1
0.998857 1 1 0.998857
0.999147 1 1 0.999147
0.99893 1 1 0.99893
0.999662 1 1 0.999662
0.999212 1 1 0.999212
0.999996 1 1 0.999996
0.99971 1 1 0.99971
0.999266 1 1 0.999266
1 1 1 1
1 1 1 1
0.999768 1 1 0.999768
1 1 1 1
1 1 1 1
1 1 1 1
0.939795 0.966221 0.982966 0.989505
0.921688 0.951417 0.975397 0.993188
0.935752 0.964836 0.974957 0.994767
0.998763 1 1 0.998763
0.99897 1 1 0.99897
0.998804 1 1 0.998804
0.998832 1 1 0.998832
0.998776 1 1 0.998776
0.999013 1 1.00028 0.998735
1.00029 1 1.00167 0.998622
1.00041 1 1.0017 0.998704
0.998859 1 1 0.998859
0.998759 1 1 0.998759
0.999847 1 1.00105 0.998796
1.00083 1 1.00188 0.998945
0.845649 0.898306 0.962392 0.978168
0.941732 0.965121 0.991068 0.98456
0.928098 0.956622 0.981697 0.988271
0.847811 0.928333 0.933582 0.978234
0.900074 0.944257 0.972253 0.980412
0.959258 0.959852 1.01751 0.982182
0.941269 0.957883 0.99131 0.99127
0.955735 0.961594 1.00024 0.993672
0.789328 0.881603 0.918508 0.974768
0.95486 0.956538 1.0163 0.982239
0.853505 0.917879 0.948446 0.980411
0.946293 0.960002 0.991561 0.99411
0.947293 0.953094 1.00962 0.984441
0.826172 0.897671 0.938773 0.980376
1.00037 1 1.00078 0.999588
1.00195 1 1.00279 0.999162
1.00297 1 1.00422 0.998747
0.982553 0.966061 1.01846 0.998641
1.02152 0.998328 1.02397 0.999277
1.01157 1 1.01259 0.998989
1.01533 0.999532 1.01647 0.999344
0.992331 0.980554 1.01355 0.99848
1.00001 0.991793 1.00939 0.998906
0.88226 0.914632 0.98313 0.981158
0.942536 0.962812 0.988506 0.990323
0.934223 0.954294 0.984131 0.994753
0.999186 0.975742 1.02492 0.999132
0.929981 0.956197 0.979004 0.993441
0.937478 0.963474 0.984133 0.988706
0.940727 0.947372 1.00909 0.984043
0.840352 0.911712 0.940698 0.979836
0.83704 0.8947 0.95599 0.978623
0.975991 0.977683 1.00014 0.998133
0.86555 0.908264 0.970452 0.981987
0.845945 0.897234 0.961127 0.98097
0.931831 0.952964 0.986815 0.990889
0.938294 0.959192 0.993901 0.984216
0.965034 0.986379 0.979362 0.998977
0.861487 0.910506 0.964089 0.981406
0.952481 0.976111 0.990707 0.984946
0.943762 0.965438 0.98674 0.990686
1.01389 0.995873 1.0188 0.999301
0.990431 1.00043 0.991205 0.998785
0.984833 1.00262 0.984023 0.99821
1.00966 1.00103 1.01042 0.998226
1.00317 1.00238 1.00321 0.997576
1.00051 1.00336 0.999428 0.997734
1.00616 1.0005 1.00863 0.99704
0.999626 1.00112 1.00138 0.997134
1.01133 1.01369 1 0.997674
1.00373 1.00395 1.00301 0.996781
1.00566 1.00852 1 0.997155
1.01555 1.01786 1 0.997734
1.021 1.02333 1 0.997731
1.01764 1.02043 1 0.997264
1.01507 1.01776 1 0.997359
1.00883 1.01163 1 0.99724
1.00904 1.01201 1 0.997069
1.00444 1.00744 1 0.997022
1.00014 1.00235 1 0.997791
1.00219 1.00462 1.00014 0.997447
1.00188 1.00336 1.00148 0.997052
0.998313 1 1 0.998313
0.998674 1.00062 1 0.998054
0.998035 1 1 0.998035
0.999446 1 1.0004 0.999049
0.999634 1 1.00112 0.998518
0.999705 1 1.00145 0.998261
0.999971 1 1 0.999971
0.999714 1 1.00038 0.999338
1.0002 1 1.00143 0.998773
1 1 1 1
0.999991 1 1 0.999991
0.999602 1 1.00002 0.999585
1 1 1 1
0.999998 1 1 0.999998
1 1 1 1
0.99882 1 1 0.99882
0.998858 1 1 0.998857
0.999061 1 1 0.999061
0.999618 1 1 0.999618
0.999148 1 1 0.999148
0.998916 1 1 0.998916
0.999989 1 1 0.999989
0.999665 1 1 0.999665
0.999211 1 1 0.999211
1 1 1 1
0.999997 1 1 0.999997
0.999713 1 1 0.999713
1 1 1 1
1 1 1 1
1 1 1 1
0.870933 0.905441 0.981273 0.980245
0.938038 0.963935 0.98345 0.989511
0.922588 0.951976 0.975768 0.993197
0.998799 1 1.00005 0.998748
0.998695 1 1.00001 0.998685
0.999641 1 1.00098 0.998661
0.998846 1 1 0.998846
0.998793 1 1 0.998793
0.99916 1 1.00042 0.998742
1.00036 1 1.00167 0.998699
1.0002 1 1.00157 0.998626
1.00079 1 1.00226 0.998536
0.998493 1 0.999439 0.999053
0.999561 1 1.00078 0.998787
1.00024 1 1.00132 0.998925
0.842196 0.894011 0.960936 0.980339
0.838809 0.890848 0.963478 0.977276
0.94709 0.969737 0.992041 0.984481
0.773994 0.867798 0.916784 0.972864
0.854536 0.915618 0.95221 0.980128
0.954996 0.958515 1.01194 0.984571
0.956758 0.959398 1.00563 0.991669
0.945043 0.959337 0.992685 0.992359
0.82768 0.890603 0.948877 0.979419
0.937341 0.948965 1.00394 0.983872
0.940002 0.961069 0.984972 0.993003
0.936148 0.960799 0.990802 0.983388
1.00715 1 1.00812 0.999042
0.999986 1 1.00046 0.999527
1.00125 1 1.00209 0.999165
0.991389 0.981009 1.01207 0.998526
1.01447 1 1.01514 0.999344
1.00053 0.992746 1.00905 0.998805
0.991347 0.995866 0.997415 0.998043
0.860876 0.923196 0.949587 0.982001
0.886028 0.914842 0.986275 0.981981
0.941495 0.961589 0.987594 0.991402
0.976428 0.980074 0.998048 0.998229
0.931247 0.952588 0.985828 0.991651
0.865767 0.909538 0.969244 0.98208
0.9353 0.956134 0.995067 0.98306
0.849733 0.903107 0.959235 0.980886
0.96848 0.986937 0.982836 0.998435
0.866526 0.917235 0.962761 0.981257
0.952435 0.977135 0.991218 0.983357
0.950429 0.967425 0.989814 0.992542
0.977909 0.993835 0.985141 0.998816
0.954454 0.981645 0.988019 0.984091
0.961934 0.984458 0.983214 0.993802
0.985285 0.999758 0.986622 0.998887
0.985431 1.00346 0.983811 0.998188
0.983818 1.00668 0.979154 0.998093
1.00385 1.00273 1.00356 0.997567
0.999835 1.00347 0.998648 0.997729
1.01515 1.01995 0.997099 0.99819
0.999487 1.00066 1.00168 0.997147
1.01121 1.01358 1 0.997663
1.02063 1.02289 0.999619 0.998163
1.0051 1.00796 1 0.997162
1.01491 1.01721 1 0.997734
1.02138 1.02333 1 0.998092
1.01892 1.02099 1 0.997977
1.02138 1.02365 1 0.997778
1.02078 1.02322 1 0.99762
1.01681 1.01952 1 0.997344
1.01824 1.02102 1 0.99727
1.01459 1.01725 1 0.997386
1.00506 1.00757 1 0.997512
1.00941 1.01216 1 0.997276
1.00823 1.01115 1 0.997111
0.998492 1.0004 1 0.998096
1.00086 1.00309 1 0.997784
1.00234 1.00471 1.00017 0.997469
0.998836 1 1 0.998836
0.998311 1 1 0.998311
0.999193 1.00115 1 0.998049
0.999888 1 1 0.999888
0.999444 1 1.0004 0.99905
0.999566 1 1.00105 0.99852
1 1 1 1
0.999954 1 1 0.999954
0.99971 1 1.00038 0.999334
1 1 1 1
0.999986 1 1 0.999986
1 1 1 1
0.998755 1 1 0.998755
0.998813 1 1 0.998813
0.998968 1 1 0.998968
0.998856 1 1 0.998856
0.999061 1 1 0.999061
0.99955 1 1 0.99955
0.999983 1 1 0.999983
0.999621 1 1 0.999621
0.999148 1 1 0.999148
1 1 1 1
0.999991 1 1 0.999991
0.999667 1 1 0.999667
1 1 1 1
0.999998 1 1 0.999998
1 1 1 1
0.869155 0.914391 0.968594 0.981349
0.873786 0.910004 0.979786 0.98001
0.936613 0.962089 0.983835 0.989516
0.998733 1 1 0.998733
0.99966 1 1.00104 0.998617
0.998726 1 1 0.998726
0.998394 1 1 0.998394
0.999455 1 1.00087 0.998585
1.00037 1 1.00168 0.998695
0.999837 1 1.00121 0.998631
1.00063 1 1.00206 0.998569
0.998412 1 1 0.998412
0.997369 1.00033 0.998184 0.998856
0.998622 1.00034 1.00026 0.99803
0.999326 1 1.00022 0.999104
0.999992 1 1.00109 0.998905
0.947341 0.975617 0.987275 0.983533
0.845025 0.892584 0.965568 0.980477
0.839794 0.893896 0.961363 0.977233
0.825849 0.891484 0.945953 0.979305
0.942546 0.952356 1.00751 0.982323
0.947831 0.957601 0.995526 0.994245
0.941179 0.96006 0.986051 0.994202
0.942429 0.96233 0.994362 0.984873
0.963797 0.985207 0.984953 0.993214
1.00059 1.00132 1.00104 0.998239
1.00567 1 1.00666 0.999019
0.999493 1 1.00003 0.999465
1.00122 0.994508 1.00804 0.998722
0.996814 0.999721 0.999129 0.997961
0.933974 0.973577 0.974138 0.984791
0.869933 0.922434 0.960573 0.981794
0.89097 0.915434 0.990292 0.982817
0.971483 0.988171 0.985211 0.997869
0.945726 0.963034 0.99115 0.990796
0.867411 0.914858 0.966445 0.981058
0.951321 0.973688 0.992173 0.984736
0.978509 0.993894 0.985664 0.998841
0.957488 0.985548 0.98604 0.985283
0.962851 0.984395 0.986062 0.99194
0.99693 1.00478 0.993904 0.998274
0.978372 0.995872 0.986652 0.995718
0.98608 1.00447 0.98349 0.998171
0.985332 1.00613 0.981248 0.998045
1.00485 1.02667 0.980487 0.998226
0.999417 1.00358 0.998123 0.997723
1.01456 1.01955 0.996923 0.998176
1.022 1.02995 0.993891 0.998383
1.01122 1.0136 1 0.997653
1.0204 1.02304 0.999266 0.998146
1.01975 1.02312 0.99841 0.998292
1.01444 1.01675 1 0.997733
1.02163 1.02366 0.999935 0.998076
1.02013 1.02205 1 0.998123
1.01958 1.0216 1 0.998021
1.01881 1.02104 1 0.997816
1.02173 1.02396 1 0.997825
1.02067 1.02311 1 0.997613
1.01967 1.02221 1 0.997512
1.0117 1.01428 1 0.997458
1.01666 1.01938 1 0.997335
1.01879 1.02158 1 0.997276
1.0001 1.00222 1 0.997891
1.00497 1.00745 1 0.997533
1.00992 1.01264 1 0.997311
0.998665 1 1 0.998665
0.998885 1.00079 1 0.998091
1.00128 1.00351 1 0.997777
0.999755 1 1 0.999755
0.998837 1 1 0.998837
0.99831 1 1 0.99831
1 1 1 1
0.999866 1 1 0.999866
0.999388 1 1.00034 0.99905
1 1 1 1
0.999937 1 1 0.999937
1 1 1 1
0.998811 1.00041 1 0.998407
0.998754 1 1 0.998754
0.998833 1 1 0.998833
0.998807 1 1 0.998805
0.998947 1 1 0.998947
0.999424 1 1 0.999424
0.999061 1 1 0.999061
0.999552 1 1 0.999552
0.999975 1 1 0.999975
1 1 1 1
0.999985 1 1 0.999985
0.999623 1 1 0.999623
1 1 1 1
0.999993 1 1 0.999993
1 1 1 1
0.953853 0.982199 0.985292 0.985636
0.861723 0.916573 0.957562 0.981824
0.884658 0.916288 0.985419 0.979766
0.999792 1 1.00122 0.998573
0.998768 1 1 0.998768
0.999372 1 1.00078 0.998593
0.998411 1 1 0.998411
1.0014 1.00336 1.00002 0.998026
0.998462 1 1 0.998462
1.00055 1 1.00195 0.998602
0.998306 1 1 0.998306
0.998326 1.00016 0.999341 0.998822
0.998426 1.00018 1 0.998247
0.999146 1.00256 0.998385 0.998203
0.998127 1.00129 0.999211 0.99763
0.998515 1.00081 0.999558 0.998152
1.00036 1 1.0012 0.999155
0.962275 0.986477 0.981966 0.993381
0.950094 0.976928 0.988048 0.984297
0.840121 0.893371 0.958773 0.980832
0.954995 0.968872 1.00266 0.983065
0.940959 0.959166 0.985884 0.995065
0.96771 0.985987 0.985969 0.99543
0.993276 1.00377 0.991338 0.998192
0.998402 1.00067 0.999449 0.998284
1.00462 1 1.00563 0.998997
0.996975 1.00112 0.997994 0.997861
0.964825 0.981419 0.98963 0.993394
0.946539 0.977312 0.981914 0.986352
0.860923 0.917417 0.955724 0.981895
0.980213 0.994763 0.986494 0.998864
0.967169 0.986532 0.986982 0.993304
0.961268 0.985696 0.988581 0.986482
0.99074 1.00386 0.988624 0.998288
0.976076 0.993648 0.987179 0.995074
0.997177 1.02344 0.976236 0.998054
1.00556 1.01521 0.992806 0.997678
0.986559 1.00546 0.983174 0.997993
1.00466 1.02604 0.980908 0.998218
1.00842 1.03414 0.976828 0.998261
1.01419 1.01948 0.996643 0.998163
1.0217 1.02978 0.993778 0.998368
1.01518 1.02422 0.992918 0.998237
1.02006 1.02311 0.99889 0.998129
1.01922 1.02276 0.998261 0.998276
1.02067 1.02414 0.99852 0.998087
1.02183 1.02396 0.999865 0.99806
1.01952 1.02151 0.999933 0.998119
1.01898 1.02116 1 0.997862
1.02027 1.02224 1 0.998065
1.01874 1.02093 1 0.997852
1.01999 1.02244 1 0.997604
1.0206 1.02305 1 0.997606
1.01956 1.02211 1 0.997503
1.01526 1.01776 1 0.997545
1.00274 1.00501 1 0.99774
1.01134 1.01389 1 0.997477
1.0165 1.01922 1 0.997326
0.998491 1 1 0.998491
1.00094 1.00305 1 0.997891
1.00511 1.00757 1 0.997554
0.999611 1 1 0.999611
0.998664 1 1 0.998664
0.999316 1.00123 1 0.998087
1 1 1 1
0.99974 1 1 0.99974
0.998837 1 1 0.998837
1 1 1 1
0.999844 1 1 0.999844
1 1 1 1
1.00082 1.00275 1 0.998079
0.998617 1.0002 1 0.998419
0.998596 1 1 0.998596
0.998753 1 1 0.998753
0.998812 1 1 0.998812
0.999249 1 1 0.999249
0.998926 1 1 0.998926
0.999426 1 1 0.999426
0.999958 1 1 0.999958
0.999554 1 1 0.999554
0.999977 1 1 0.999977
1 1 1 1
1 1 1 1
0.999986 1 1 0.999986
1 1 1 1
0.963741 0.984718 0.984837 0.993766
0.950039 0.982991 0.981711 0.984483
0.85524 0.91208 0.955319 0.981537
1.00703 1.00929 1.00007 0.997701
0.999295 1 1.0007 0.9986
0.998429 1 1 0.998429
0.998431 1 1 0.998431
1.00115 1.00302 1.00012 0.998015
1.00021 1.00189 1 0.998325
0.998201 1 1 0.998201
0.999135 1 1.00035 0.998789
0.998578 1.00037 0.99992 0.998288
0.997896 1.00172 0.998001 0.998175
1.00125 1.00368 1 0.997588
1.00293 1.0058 0.999558 0.997592
0.999206 1.00195 0.999673 0.997583
0.998524 1.00134 0.998914 0.998275
0.99481 1.00619 0.989991 0.998688
0.961489 0.986839 0.981689 0.992485
0.954008 0.978369 0.989586 0.985362
0.961636 0.982049 0.985301 0.993822
0.997289 1.00583 0.992935 0.998559
0.999142 1.0002 1.00062 0.998327
0.997444 1.00668 0.993071 0.997736
0.960108 0.974473 0.990551 0.994658
0.939162 0.976658 0.976363 0.984887
0.984123 1.00223 0.983613 0.998296
0.979758 0.994883 0.990473 0.99427
0.998645 1.0244 0.97672 0.998092
1.00444 1.01377 0.992961 0.997818
1.00554 1.03104 0.977162 0.998059
1.02273 1.0285 0.99642 0.997964
1.00426 1.02508 0.981446 0.99821
1.01096 1.03532 0.978166 0.998259
1.0083 1.02837 0.982347 0.9981
1.02108 1.02927 0.993676 0.998354
1.01562 1.02437 0.993204 0.998234
1.01993 1.0261 0.996 0.997976
1.01873 1.0224 0.998148 0.998261
1.02055 1.02377 0.998751 0.9981
1.02112 1.02345 0.999942 0.997788
1.01889 1.02095 0.999871 0.998115
1.019 1.02119 1 0.997862
1.02176 1.02421 1 0.99761
1.01862 1.02078 1 0.997888
1.02003 1.02246 1 0.997627
1.01706 1.01959 1 0.997523
1.01942 1.02198 1 0.997495
1.01508 1.0176 1 0.997524
1.00545 1.00774 1 0.997725
0.998445 1.00008 1 0.998366
1.00311 1.00535 1 0.997766
1.01093 1.01347 1 0.997496
0.999481 1 1 0.999481
0.99849 1 1 0.99849
1.00171 1.00383 1 0.997892
1 1 1 1
0.999599 1 1 0.999599
0.998662 1 1 0.998662
1 1 1 1
0.999724 1 1 0.999724
1 1 1 1
1.00251 1.00476 1 0.997767
1.00028 1.00219 1 0.998085
0.99866 1.00033 1 0.99833
0.998439 1 1.00001 0.998432
0.998603 1 1 0.998603
0.999095 1 1.00005 0.99905
0.99879 1 1 0.99879
0.999248 1 1 0.999248
0.999919 1 1 0.999919
0.999428 1 1 0.999428
0.999964 1 1 0.999964
1 1 1 1
0.99998 1 1 0.99998
1 1 1 1
1 1 1 1
0.998557 1.01054 0.989479 0.998647
0.95806 0.982762 0.982707 0.99202
0.948484 0.975646 0.986032 0.985932
1.00648 1.00857 1.00001 0.997914
1.01219 1.01469 1 0.99753
1.00604 1.00818 1.00013 0.997742
0.9984 1 1 0.9984
1.00087 1.00262 1.00024 0.998003
1.00094 1.00267 1 0.99827
1.00851 1.01088 1 0.997662
0.99865 1.00053 0.999792 0.998328
0.996588 1.00077 0.997671 0.998147
1.00199 1.00443 0.999917 0.99765
1.01064 1.01335 1 0.997334
1.01057 1.01783 0.994957 0.997906
1.00311 1.00619 0.999374 0.997566
0.999961 1.00262 0.999806 0.997536
0.99899 1.00847 0.991775 0.998811
0.963862 0.98719 0.9848 0.99144
0.997672 1.00707 0.991722 0.998935
1.0143 1.02269 0.993253 0.998526
0.996432 1.00539 0.993252 0.997821
0.959951 0.979087 0.987435 0.992932
1.00071 1.02562 0.977548 0.998129
1.00258 1.0126 0.992125 0.997965
1.0048 1.0311 0.976325 0.998125
1.02448 1.03061 0.996064 0.997973
1.01995 1.03358 0.988814 0.997972
1.03588 1.04271 0.995358 0.998083
1.01369 1.03706 0.979166 0.998257
1.00971 1.02808 0.984007 0.998103
1.02293 1.03269 0.992652 0.997882
1.01614 1.0246 0.993502 0.998231
1.02016 1.02567 0.996652 0.997973
1.0249 1.02795 0.999287 0.997744
1.02039 1.02336 0.998981 0.998113
1.02143 1.02372 0.999979 0.997786
1.02436 1.02687 1 0.997554
1.01902 1.02121 1 0.997862
1.02162 1.02407 1 0.997611
1.01932 1.02189 1 0.997478
1.02008 1.02249 1 0.99765
1.01687 1.01939 1 0.997529
1.00678 1.00913 1 0.997671
1.01493 1.01747 1 0.997503
1.00536 1.00766 1 0.997714
0.99867 1.00038 1 0.998292
0.999403 1 1 0.999403
0.998499 1.00013 1 0.998365
1.00351 1.00573 1 0.997791
1 1 1 1
0.99947 1 1 0.99947
0.99849 1 1 0.99849
1 1 1 1
0.999586 1 1 0.999586
1 1 1 1
1.00514 1.00762 1 0.99754
1.00254 1.00481 1 0.99774
0.999988 1.00195 1 0.99804
0.999715 1.00163 1 0.99809
0.998558 1.00022 1 0.998335
0.998831 1 1 0.998831
0.99861 1 1 0.99861
0.999149 1 1.0001 0.999051
0.999835 1 1 0.999835
0.999248 1 1 0.999248
0.999932 1 1 0.999932
1 1 1 1
0.999969 1 1 0.999969
1 1 1 1
1 1 1 1
1.01021 1.0229 0.989217 0.998356
0.995667 1.00952 0.987987 0.998269
0.955992 0.983526 0.979028 0.992826
1.01477 1.01721 1 0.997599
1.0064 1.00834 1 0.998076
1.02294 1.02556 1 0.997449
1.0124 1.01492 1 0.997516
1.00517 1.00722 1.00018 0.997785
1.02134 1.02407 1 0.997338
1.0017 1.00349 1 0.998215
1.00764 1.01007 1 0.997603
1.02654 1.03021 0.998921 0.997516
1.00262 1.00505 0.999871 0.997712
1.0117 1.01444 1 0.997301
1.01042 1.01739 0.995223 0.997922
1.00284 1.00582 0.999497 0.997538
1.00285 1.01034 0.993648 0.998935
1.0288 1.03817 0.992801 0.998156
1.01416 1.02266 0.993146 0.99853
0.996457 1.00409 0.994485 0.997901
1.00423 1.03074 0.976046 0.998193
1.02509 1.0319 0.995407 0.997982
1.01863 1.03384 0.987265 0.997988
1.03595 1.04365 0.994525 0.998084
1.033 1.04234 0.99305 0.997982
1.01091 1.02757 0.985652 0.998107
1.02277 1.03224 0.992926 0.99789
1.02837 1.03433 0.996476 0.997754
1.02038 1.02526 0.997263 0.99797
1.02455 1.02739 0.999507 0.997726
1.02655 1.02912 1 0.997497
1.02181 1.02408 1 0.997785
1.02411 1.02662 1 0.997552
1.0223 1.02495 1 0.99741
1.02151 1.02395 1 0.997612
1.01931 1.02188 1 0.99748
1.00851 1.01095 1 0.997585
1.01669 1.0192 1 0.997535
1.00693 1.00928 1 0.997673
0.999076 1.00086 1 0.998215
1.00525 1.00756 1 0.997703
0.99879 1.0005 1 0.99829
0.999468 1 1 0.999468
0.999837 1 1 0.999837
0.999437 1 1 0.999437
0.998554 1.00019 1 0.998365
1 1 1 1
0.999458 1 1 0.999458
1 1 1 1
1.02921 1.03179 1 0.997496
1.01507 1.01761 1 0.997506
1.00595 1.00845 1 0.997526
1.00312 1.00528 1 0.997852
1.00248 1.00477 1 0.997714
0.999429 1.00139 1 0.998043
0.998619 1 1 0.998619
0.998468 1.00013 1 0.99834
0.998864 1 1.00003 0.998834
0.999694 1 1 0.999694
0.999066 1 1.00001 0.999053
0.999854 1 1 0.999854
1 1 1 1
0.999944 1 1 0.999944
1 1 1 1
1 1 1 1
1.0294 1.03692 0.994832 0.997909
1.01368 1.02621 0.989341 0.998439
0.993378 1.00962 0.985993 0.997893
1.02427 1.02695 1 0.997384
1.01416 1.01653 1 0.997668
1.00618 1.00796 1 0.998234
1.02257 1.02517 1 0.997468
1.01261 1.01515 1 0.997501
1.0317 1.03462 0.999683 0.997497
1.01909 1.02185 1 0.997299
1.0069 1.00938 1 0.997544
1.0259 1.02942 0.999071 0.99751
1.01369 1.01647 1 0.997268
1.01232 1.01927 0.995224 0.997942
1.03513 1.04304 0.994328 0.998072
1.03069 1.03943 0.993405 0.998169
1.01468 1.02269 0.993628 0.998535
1.01812 1.03491 0.985745 0.998003
1.03681 1.04511 0.993958 0.998086
1.03315 1.04313 0.992428 0.997994
1.03154 1.03799 0.995963 0.99782
1.02247 1.03166 0.993172 0.997898
1.02802 1.03361 0.996843 0.997745
1.02892 1.03154 0.999964 0.997501
1.02417 1.02678 0.999749 0.997708
1.02714 1.02972 1 0.997497
1.02535 1.02808 1 0.997352
1.02382 1.02633 1 0.997551
1.02239 1.02504 1 0.997411
1.01036 1.01291 1 0.997491
1.0193 1.02187 1 0.997482
1.00874 1.01118 1 0.997586
0.999502 1.00139 1 0.998117
1.00708 1.00942 1 0.997676
0.99921 1.001 1 0.998213
0.999468 1 1 0.999468
0.998908 1.00062 1 0.998288
0.999464 1 1 0.999464
0.999847 1 1 0.999847
0.999921 1 1 0.999921
0.999473 1 1 0.999473
1 1 1 1
1.02826 1.03096 1 0.997387
1.02053 1.02305 1 0.997531
1.02899 1.03146 1 0.997598
1.00634 1.00863 1 0.997727
1.01653 1.01908 1 0.997497
1.00686 1.00937 1 0.997512
1.00211 1.00427 1 0.99785
0.998777 1.00034 1 0.998441
0.9989 1.00086 1 0.998047
0.99862 1 1 0.99862
0.999539 1 1 0.999539
0.999033 1 1.0002 0.998838
0.999713 1 1 0.999713
1 1 1 1
0.999873 1 1 0.999873
1 1 1 1
1 1 1 1
1.03383 1.03885 0.997377 0.997791
1.02924 1.03671 0.994886 0.997905
1.01541 1.02804 0.989178 0.998517
1.03143 1.03409 1 0.997424
1.02324 1.02592 1 0.997387
1.01371 1.016 1 0.997737
1.02207 1.02465 1 0.997488
1.03135 1.0343 0.99967 0.997476
1.01686 1.01965 1 0.997259
1.02384 1.02719 0.999229 0.997503
1.0337 1.03958 0.996453 0.997882
1.03455 1.04215 0.994665 0.998034
1.03258 1.0408 0.993911 0.998182
1.03175 1.03634 0.997862 0.997707
1.03315 1.04373 0.991842 0.998006
1.03128 1.03775 0.995943 0.997808
1.0305 1.03336 0.999642 0.997587
1.02773 1.03293 0.99723 0.997735
1.03001 1.03269 0.999904 0.997504
1.02662 1.02938 1 0.997325
1.02771 1.03029 1 0.997497
1.02508 1.0278 1 0.997353
1.01212 1.01474 1 0.997415
1.02244 1.0251 1 0.997411
1.01063 1.01317 1 0.997492
0.999916 1.0019 1 0.998016
1.00895 1.01139 1 0.997588
0.999643 1.00153 1 0.998115
0.999446 1 1 0.999446
0.99935 1.00114 1 0.998211
0.99946 1 1 0.99946
0.99985 1 1 0.99985
0.999461 1 1 0.999461
0.99985 1 1 0.99985
1 1 1 1
1.0289 1.0317 1 0.997288
1.02223 1.02491 1 0.997385
1.02891 1.03159 1 0.997403
1.00826 1.01058 1 0.997708
1.02079 1.02331 1 0.997538
1.02885 1.03122 1 0.997698
0.999382 1.0011 1 0.998286
1.00593 1.00823 1 0.997722
1.0181 1.02066 1 0.997488
1.00099 1.00314 1 0.997849
0.998623 1.00018 1 0.998442
0.999426 1 1 0.999426
0.998622 1 1 0.998622
0.999552 1 1 0.999552
1 1 1 1
0.999731 1 1 0.999731
1 1 1 1
1 1 1 1
1.03384 1.03714 0.999172 0.997646
1.03376 1.03918 0.997003 0.997776
1.02972 1.03713 0.994941 0.997902
1.0309 1.03355 1 0.997433
1.02216 1.02483 1 0.99739
1.03085 1.03384 0.999653 0.997455
1.03213 1.03589 0.998655 0.997711
1.03384 1.03959 0.996584 0.997874
1.0339 1.0412 0.994985 0.997995
1.03239 1.03692 0.997896 0.997726
1.03105 1.03377 0.999833 0.997534
1.03101 1.03753 0.995906 0.997796
1.03093 1.03372 0.999748 0.997553
1.02637 1.02908 1 0.997373
1.03104 1.03378 0.999845 0.997506
1.02623 1.02898 1 0.997328
1.0135 1.01619 1 0.997356
1.02492 1.02764 1 0.997354
1.0125 1.01512 1 0.997416
1.00026 1.00233 1 0.997939
1.01096 1.0135 1 0.997493
1.00004 1.00203 1 0.998016
0.9994 1 1 0.9994
0.99979 1.00168 1 0.998113
0.999434 1 1 0.999434
0.999837 1 1 0.999837
0.999455 1 1 0.999455
0.999858 1 1 0.999858
0.99985 1 1 0.99985
1.03064 1.03324 1 0.997479
1.02449 1.02731 1 0.997255
1.0293 1.03208 1 0.997304
1.01078 1.01326 1 0.997559
1.02188 1.02456 1 0.997387
1.02952 1.03218 1 0.99742
0.999872 1.0017 1 0.998171
1.00827 1.01064 1 0.997662
1.02091 1.02343 1 0.997545
0.999369 1 1 0.999369
0.999159 1.00087 1 0.998289
1.00557 1.00787 1 0.997717
0.99848 1.00004 1 0.998444
0.999436 1 1 0.999436
1 1 1 1
0.999565 1 1 0.999565
1 1 1 1
1 1 1 1
1.03074 1.03373 0.999496 0.997614
1.03298 1.03657 0.998895 0.997643
1.03375 1.03956 0.996638 0.997761
1.03034 1.03299 1 0.997441
1.03082 1.03341 1 0.997497
1.03292 1.03687 0.99847 0.997721
1.03393 1.03954 0.996734 0.997867
1.03305 1.03754 0.997917 0.997746
1.03032 1.03327 0.999594 0.997545
1.02617 1.02886 1 0.997383
1.03146 1.03419 0.999843 0.997519
1.0261 1.02882 1 0.997353
1.01433 1.01703 1 0.997335
1.02582 1.02857 1 0.997331
1.0137 1.01638 1 0.997359
1.00039 1.00253 1 0.997871
1.01275 1.01537 1 0.997416
1.0003 1.00237 1 0.997938
0.999261 1 1 0.999261
1.00014 1.00213 1 0.998015
0.999348 1 1 0.999348
1 1 1 1
0.999424 1 1 0.999424
0.999849 1 1 0.999849
0.999863 1 1 0.999863
1.02914 1.03168 1 0.99754
1.0255 1.02824 1 0.997328
1.03023 1.03284 1 0.997475
1.01333 1.01599 1 0.997377
1.02447 1.02727 1 0.997277
1.02978 1.03255 1 0.99732
1.00036 1.00238 1 0.997982
1.01088 1.01335 1 0.997558
1.02161 1.02429 1 0.997389
0.999345 1 1 0.999345
0.999703 1.00158 1 0.998129
1.00831 1.01072 1 0.997617
1 1 1 1
0.999379 1 1 0.999379
0.998918 1.00063 1 0.998292
0.999447 1 1 0.999447
1 1 1 1
1 1 1 1
1.02927 1.03184 1 0.997509
1.03122 1.03416 0.999531 0.997621
1.03211 1.03598 0.998613 0.99764
1.02706 1.02981 1 0.997329
1.02983 1.03242 0.99999 0.997505
1.03366 1.03779 0.998282 0.997731
1.0296 1.03276 0.999382 0.997556
1.02618 1.02887 1 0.997383
1.0139 1.01656 1 0.99739
1.02574 1.02849 1 0.997333
1.01427 1.01696 1 0.997363
1.00046 1.00273 1 0.997742
1.01397 1.01665 1 0.997361
1.00047 1.0026 1 0.997871
0.999209 1 1 0.999209
1.00039 1.00246 1 0.997938
0.999258 1 1 0.999258
1 1 1 1
0.999289 1 1 0.999289
0.999912 1 1 0.999912
0.999859 1 1 0.999859
1.02683 1.02941 1 0.997499
1.02573 1.02843 1 0.997375
1.02893 1.03146 1 0.997544
1.01432 1.01699 1 0.99738
1.02603 1.02879 1 0.997319
1.02983 1.03245 1 0.997471
1.00098 1.00311 1 0.997876
1.01327 1.01589 1 0.99742
1.0244 1.02717 1 0.997298
0.999319 1 1 0.999319
1.00033 1.00236 1 0.997968
1.01096 1.01344 1 0.997556
1 1 1 1
0.999354 1 1 0.999354
0.999545 1.00146 1 0.998087
1 1 1 1
0.999389 1 1 0.999389
1 1 1 1
1.02758 1.03029 1 0.997372
1.02868 1.03126 1 0.997499
1.03177 1.03467 0.999562 0.997629
1.01303 1.01569 1 0.997378
1.0271 1.02983 1 0.997346
1.02891 1.03151 0.999967 0.997512
1.0262 1.02889 1 0.997384
1.01396 1.01661 1 0.99739
1.00007 1.00237 1 0.997705
1.01424 1.01689 1 0.997391
1.00047 1.0027 1 0.997776
0.999144 1 1 0.999144
1.0005 1.00263 1 0.997872
0.999206 1 1 0.999206
1 1 1 1
0.999255 1 1 0.999255
1 1 1 1
0.999841 1 1 0.999841
1.02617 1.02885 1 0.997397
1.02683 1.02939 1 0.997513
1.01395 1.0166 1 0.997393
1.02584 1.02854 1 0.997374
1.0287 1.03123 1 0.997547
1.00094 1.00305 1 0.997898
1.01413 1.0168 1 0.997377
1.02654 1.02931 1 0.99731
0.999273 1 1 0.999273
1.00104 1.00314 1 0.997905
1.0132 1.01577 1 0.997463
1 1 1 1
0.999324 1 1 0.999324
1.0003 1.00235 1 0.997954
1 1 1 1
0.999363 1 1 0.999363
1 1 1 1
1.01288 1.01551 1 0.997414
1.0275 1.03021 1 0.997365
1.028 1.03059 1 0.997489
0.999321 1.00162 1 0.997708
1.01307 1.01573 1 0.997378
1.02712 1.02983 1 0.997362
1.014 1.01666 1 0.997389
1.00007 1.00236 1 0.997707
0.999098 1 1 0.999098
1.0005 1.00269 1 0.997811
0.999141 1 1 0.999141
1 1 1 1
0.999202 1 1 0.999202
1 1 1 1
1 1 1 1
1.01336 1.01601 1 0.997391
1.02584 1.0285 1 0.997412
1.02684 1.02938 1 0.997527
1.00042 1.00255 1 0.997877
1.01394 1.01659 1 0.99739
1.02591 1.02861 1 0.997373
0.999224 1 1 0.999224
1.00103 1.00314 1 0.997897
1.01398 1.01665 1 0.997374
1 1 1 1
0.999277 1 1 0.999277
1.0011 1.00318 1 0.997934
1 1 1 1
0.99933 1 1 0.99933
1 1 1 1
0.99906 1.00126 1 0.997798
1.0128 1.01546 1 0.997377
1.02743 1.03015 1 0.997358
0.999096 1 1 0.999096
0.99935 1.00165 1 0.997706
1.01311 1.01578 1 0.997378
1.00007 1.00236 1 0.99771
0.999097 1 1 0.999097
1 1 1 1
0.999138 1 1 0.999138
1 1 1 1
1 1 1 1
0.999589 1.00175 1 0.997842
1.01313 1.01578 1 0.99739
1.02555 1.0282 1 0.997428
0.999303 1 1 0.999303
1.0006 1.00274 1 0.997875
1.01393 1.01658 1 0.997387
1 1 1 1
0.999225 1 1 0.999225
1.00111 1.00322 1 0.997895
1 1 1 1
0.99928 1 1 0.99928
1 1 1 1
0.999096 1 1 0.999096
0.99916 1.0014 1 0.997767
1.01272 1.01542 1 0.997341
1 1 1 1
0.999096 1 1 0.999096
0.999376 1.00168 1 0.997705
0.999095 1 1 0.999095
1 1 1 1
1 1 1 1
0.999255 1 1 0.999255
0.999846 1.00201 1 0.997842
1.01287 1.01552 1 0.997389
1 1 1 1
0.999184 1 1 0.999184
1.0008 1.00294 1 0.997873
1 1 1 1
0.999227 1 1 0.999227
1 1 1 1
0.999761 1 1 0.999761
0.999176 1 1 0.999176
0.999254 1.00152 1 0.997736
1 1 1 1
0.999096 1 1 0.999096
1 1 1 1
0.999778 1 1 0.999778
0.999205 1 1 0.999205
1.00011 1.00227 1 0.997842
0.999892 1 1 0.999892
0.999183 1 1 0.999183
1 1 1 1
1 1 1 1
0.999118 1 1 0.999118
1 1 1 1
0.999886 1 1 0.999886
0.999149 1 1 0.999149
1 1 1 1
1 1 1 1
1 1 1 1

VECTORS lamdaE float
1.00035 1.00014 0.994891
1.00014 1.00045 0.997562
1.00001 1.00035 0.995088
1.00061 0.99994 0.994715
1.00044 0.999948 0.994961
1.0003 1.00033 0.994746
1.00162 1.00048 0.992041
1.00017 1.00036 0.997562
1.00006 1.00021 0.997872
0.999643 1.00074 0.99791
1.00015 1.00038 0.99492
1.00142 1.00123 0.991025
1.00042 1.00001 0.994819
1.00014 0.999995 0.995055
0.999713 1.00058 0.995257
1.00036 0.999918 0.994958
0.999942 1.00064 0.99492
1.00017 1.00002 0.99517
1.0018 1.00031 0.991957
1.00042 1 0.99749
1.00062 0.999998 0.994624
1.00055 0.999885 0.994874
1.00195 1.00001 0.99196
1.00179 1.00011 0.992119
1.0003 1.00032 0.994698
1.00139 1.00101 0.99188
1.00434 1.00026 0.987681
1.00017 1.00031 0.99758
1.00022 1.0001 0.996371
0.999895 1.00057 0.996385
1.00015 1.00017 0.997656
1.00133 1.00137 0.991024
1.0005 0.999846 0.994801
1.00021 1.00037 0.994865
1.00206 1.00016 0.992356
0.999643 0.999634 0.998309
1.00173 1.00083 0.992331
1.00108 1.0017 0.991116
1.00348 1.00166 0.987024
0.999728 0.998547 0.998662
1.00043 1.00001 0.99747
1.00031 1.00001 0.99626
1.00039 0.999992 0.997491
1.00007 1.00004 0.995138
1.00205 1.00002 0.991168
1.00023 0.999966 0.997783
1.00222 1.0001 0.992178
1.00012 0.999857 0.995201
0.999908 1.00008 0.995366
0.999598 1.00099 0.995077
1.00195 1.00013 0.991886
1.00029 1.00002 0.996286
1.00036 1 0.994873
0.999932 1.00069 0.99486
1.0003 0.99987 0.995101
1.00205 0.999969 0.991857
1.0016 1.0008 0.991799
1.00193 1.00001 0.992033
1.00432 1.00028 0.987675
1.00037 1 0.997507
1.00054 1.00003 0.9947
1.00187 1 0.992704
1.00196 1.00004 0.991911
1.0019 0.999977 0.992067
1.00444 0.999969 0.987673
1.00441 0.999975 0.987565
1.00008 0.99989 0.995203
1.00091 1.00176 0.991871
1.0041 1.00073 0.987609
1.00517 1.00008 0.985653
1.00041 1.00013 0.997542
1.00003 0.999951 0.997854
1.00015 1.0004 0.997563
1.00126 1.00147 0.991015
1.00053 0.999976 0.997499
1.0003 1.00032 0.997556
1.00195 1.00011 0.991138
0.999775 0.999701 0.997004
1.0015 1.00091 0.991139
1.00098 1.00176 0.991942
1.00355 1.00155 0.987008
0.999891 0.999027 0.998336
0.999788 1.00058 0.994594
1.00215 0.999992 0.990994
1.00188 1.00039 0.991097
1.00446 1.00023 0.986735
1.00055 1.00168 0.993432
1.0039 1.00093 0.987043
1.00253 1.00329 0.987078
1.00476 1.00131 0.985119
0.999633 0.998077 0.998931
0.999637 0.998452 0.998776
1.00052 0.999994 0.99745
1.00046 1 0.997467
1.00042 0.999995 0.997492
1.00027 1.00001 0.996307
1.00208 1 0.991811
1.00037 0.999975 0.996262
1.00216 1.00011 0.991576
1.00041 0.999991 0.9975
1.00196 0.999935 0.991355
1.00217 1.00009 0.992282
1.00448 0.999666 0.987308
1.0022 1.00002 0.992244
1.00453 0.999876 0.987011
1.00039 1.00001 0.994865
1.00009 1 0.995126
0.999568 1.00109 0.995027
1.00006 0.999832 0.995325
1.00216 0.999971 0.991754
1.00205 0.999924 0.991953
1.0018 1.00054 0.991726
1.0043 1.0003 0.987669
1.00041 0.999995 0.997502
1.00028 1.00003 0.99495
1.002 0.999977 0.991623
1.00206 1.00002 0.991797
0.999954 1.0002 0.996459
1.00119 1.00159 0.992013
1.00201 0.999925 0.991974
1.00446 0.999945 0.987607
1.00408 1.00076 0.987611
1.0044 1.00005 0.987622
1.00515 1.00009 0.985677
1.00194 0.999966 0.991374
1.00188 1.00002 0.992018
1.0044 0.999638 0.987904
1.00445 0.999854 0.987609
1.00444 0.99989 0.987576
1.00522 0.999546 0.986378
0.999782 0.999622 0.998189
1.00519 0.999866 0.985828
1.00041 1.00223 0.991595
1.00346 1.00162 0.987064
1.00508 1.00044 0.985509
1.00522 0.999745 0.985865
0.999936 1.00158 0.993154
1.00028 1.00456 0.989721
1.00051 1 0.997519
1.00024 1.00031 0.997564
1.00197 1.00009 0.991132
0.999863 0.999387 0.998231
1.0007 1.00205 0.991348
1.00146 1.00094 0.991148
1.00363 1.00144 0.986993
0.999787 0.998948 0.998459
0.999761 1.00049 0.99465
1.00215 1.00002 0.991656
1.00187 1.00041 0.991744
1.00445 1.00024 0.986727
1.00029 1.00176 0.992481
1.00391 1.0009 0.98705
1.00257 1.00323 0.987065
1.00474 1.00125 0.985112
1.00001 1.00125 0.993544
0.999775 0.999754 0.995427
1.00033 1.00376 0.990593
1.00452 1.0001 0.986769
1.00426 1.00049 0.986819
1.00516 1.00013 0.985616
1.00156 1.00424 0.987897
1.00485 1.00073 0.985412
1.00415 1.00271 0.984981
1.0051 1.00112 0.984856
0.999643 0.997743 0.999066
0.999597 0.998005 0.998989
0.999574 0.998333 0.998873
0.999841 1.00108 0.993827
0.999709 0.999226 0.998407
1.00055 0.999977 0.997471
1.00047 1 0.997452
1.00206 1.00013 0.990987
1.00199 1 0.991233
1.00039 0.999999 0.997492
1.00038 0.999994 0.997498
1.00195 0.999943 0.991351
1.0021 1.00008 0.991677
1.00447 0.999665 0.987309
1.0021 1.00005 0.990978
1.00452 0.999874 0.987005
1.00193 0.999933 0.991388
1.00445 0.999605 0.987404
1.0045 0.999756 0.987174
1.00521 0.998805 0.986965
1.00455 0.999988 0.98686
1.00523 0.999234 0.986502
1.00039 0.999993 0.997496
1.00002 1.00004 0.9952
1.00201 0.999971 0.990647
1.00216 1.00002 0.991681
0.999537 1.00053 0.998018
1.00153 1.00132 0.992155
1.00212 0.999897 0.991883
1.00448 0.999904 0.98754
1.0044 1.00011 0.987678
1.00405 1.00082 0.987612
1.00512 1.0001 0.9857
1.00193 0.999952 0.991375
1.002 1.00002 0.991899
1.00443 0.999618 0.987587
1.00447 0.9999 0.987635
0.999841 0.999712 0.998094
1.00065 1.002 0.992222
1.00337 1.00185 0.987326
1.00445 0.999923 0.98755
1.00521 0.999398 0.986437
1.00505 1.00046 0.98548
1.00519 0.999911 0.985927
1.00523 0.999734 0.985896
0.999993 1.00157 0.993139
1.00037 1.00438 0.989739
1.00442 0.999626 0.987436
1.00442 0.999769 0.987762
1.00521 0.999001 0.986933
1.00521 0.999085 0.986686
1.00521 0.999563 0.986331
1.00523 0.998337 0.987395
1.00011 1.002 0.992392
1.00522 0.999131 0.986508
1.00222 1.00339 0.987422
1.00483 1.00107 0.985109
1.00523 1.00047 0.985329
1.00518 0.998763 0.987038
1.00075 1.00452 0.988966
1.00021 1.00384 0.990574
1.00108 1.00473 0.988373
1.00206 1.00001 0.991065
0.999682 0.998851 0.998588
0.999746 1.00038 0.994705
1.00174 1.00045 0.991163
1.00445 1.00024 0.986719
1.00019 1.00187 0.992392
1.00258 1.00317 0.987051
1.00391 1.00089 0.987056
1.00471 1.00118 0.985104
0.999963 1.00121 0.993571
0.999784 0.999629 0.99547
1.00016 1.00387 0.990588
1.00452 1.00011 0.986756
1.00426 1.00049 0.98682
1.00518 1.00013 0.985597
1.00147 1.00431 0.987923
1.00491 1.00073 0.98542
1.00409 1.00269 0.984967
1.00507 1.001 0.984827
0.99988 0.999094 0.995864
1.00093 1.0041 0.989132
1.0001 1.00264 0.992023
1.00059 1.00473 0.989178
1.0052 0.999815 0.985896
1.00506 1.00041 0.985464
1.0052 0.999446 0.986252
1.0028 1.00408 0.98612
1.00516 1.00045 0.985378
1.00464 1.00201 0.984596
1.00522 1.00091 0.9847
1.00028 1.00052 0.993782
1.00011 0.998452 0.99609
0.999708 0.997505 0.999109
0.999633 0.997703 0.999081
0.999572 0.997938 0.99903
0.999841 1.00044 0.994501
0.999667 0.998812 0.998599
0.999879 1.00113 0.993801
0.999773 0.999279 0.998332
1.00209 1.00008 0.990974
1.00204 1.00007 0.991092
1.00452 0.999873 0.987
1.00446 0.999666 0.98731
1.00196 0.999952 0.991351
1.00042 0.999993 0.997493
1.00194 0.999935 0.991389
1.00444 0.999612 0.987405
1.00449 0.999761 0.987171
1.00521 0.998815 0.986962
1.00454 0.999997 0.986848
1.00523 0.999237 0.98649
1.00442 0.999608 0.987441
1.00521 0.998699 0.987072
1.00522 0.998992 0.986771
1.00521 0.997155 0.988671
1.00523 0.999512 0.986196
1.00522 0.997904 0.987864
1.00194 0.99994 0.991379
1.00212 0.999994 0.99178
1.00445 0.999585 0.987273
1.00449 0.999937 0.98766
0.999925 0.999814 0.997982
1.0009 1.00187 0.992716
1.00337 1.002 0.987586
1.00445 0.999945 0.987525
1.00521 0.999246 0.986496
1.00518 0.999957 0.986026
1.00502 1.00048 0.985452
1.00523 0.999722 0.985927
1.00005 1.00156 0.993122
1.00045 1.00423 0.989756
1.00442 0.999563 0.987411
1.00444 0.999751 0.987745
1.00521 0.998865 0.987089
1.00521 0.99924 0.986599
1.0002 1.00196 0.992379
1.0023 1.00335 0.987427
1.0048 1.00113 0.985155
1.00521 0.999657 0.98625
1.00522 0.998139 0.987627
1.00523 1.00044 0.985343
1.00522 0.999125 0.986527
1.00518 0.998715 0.987027
1.00083 1.00437 0.98896
1.00093 1.00465 0.988393
1.00025 1.00376 0.990576
1.00521 0.998867 0.987062
1.00521 0.998952 0.987013
1.00522 0.997359 0.988408
1.00521 0.997832 0.987907
1.00521 0.998428 0.987222
1.00516 0.996684 0.989042
1.00132 1.00424 0.988215
1.00518 0.997772 0.987822
1.00383 1.00269 0.985442
1.00518 1.00122 0.984398
1.0052 0.99997 0.985783
1.00512 0.99785 0.987965
1.0002 1.00296 0.991474
1.00159 1.00409 0.987933
1.00048 1.00503 0.988772
1.00189 1.00383 0.988006
1.00451 1.00012 0.986742
0.999792 0.999525 0.995512
0.9999 1.0012 0.993598
1.00004 1.00399 0.990584
1.00427 1.00048 0.986821
1.00519 1.00014 0.985579
1.00138 1.00439 0.98795
1.00405 1.00271 0.984951
1.00498 1.00074 0.985428
1.00504 1.00088 0.984797
0.999897 0.999021 0.995885
1.00081 1.00424 0.989146
1.00005 1.00262 0.99205
1.00045 1.0049 0.989138
1.00521 0.999824 0.985881
1.0051 1.0004 0.985439
1.00519 0.999446 0.986243
1.0027 1.00402 0.986145
1.00517 1.0005 0.98535
1.00476 1.00179 0.984608
1.00523 1.00093 0.984683
1.00002 0.998666 0.996025
1.00023 1.00146 0.99295
1.00147 1.0045 0.987911
1.00027 1.00427 0.990285
1.0012 1.00424 0.988708
1.00519 0.998948 0.986779
1.00518 0.999942 0.985732
1.00514 0.998588 0.987092
1.00347 1.00304 0.985616
1.00518 1.00009 0.985681
1.00456 1.00184 0.984395
1.00029 1.00059 0.99368
1.00027 1.00191 0.99245
1.00022 1.00055 0.993861
1.00027 1.00053 0.99378
1.00013 0.998274 0.996726
1.0001 0.998435 0.996391
0.999865 0.997315 0.997952
0.999714 0.997467 0.999112
0.999629 0.997655 0.999094
0.999836 0.999806 0.995165
0.999659 0.998381 0.998799
0.999847 1.00051 0.994479
0.999724 0.998889 0.998532
0.99993 1.00113 0.993775
0.999828 0.999343 0.998256
1.00453 1 0.986835
1.00449 0.999764 0.987169
1.00522 0.999255 0.986478
1.0052 0.998824 0.986959
1.00443 0.999619 0.987406
1.00193 0.999936 0.991387
1.00442 0.999607 0.987442
1.00521 0.998703 0.987071
1.00521 0.999007 0.986761
1.00521 0.996997 0.988825
1.00523 0.999522 0.986185
1.00522 0.997917 0.987847
1.00521 0.998683 0.98709
1.00521 0.99674 0.989137
1.00521 0.997426 0.98837
1.00515 0.995657 0.990145
1.00521 0.998453 0.987311
1.0052 0.99624 0.989318
1.00443 0.999504 0.987386
1.00447 0.999748 0.987728
1.00521 0.998743 0.987245
1.00521 0.999397 0.986512
1.00031 1.00192 0.992365
1.00226 1.00336 0.987433
1.00476 1.00119 0.985202
1.00521 0.999751 0.98617
1.00522 0.997939 0.987859
1.00522 0.999119 0.986546
1.00522 1.00041 0.985357
1.00518 0.998667 0.987014
1.00094 1.00423 0.988952
1.00089 1.0046 0.988413
1.00029 1.00364 0.990581
1.00521 0.998809 0.987055
1.00521 0.998952 0.987004
1.00522 0.997109 0.988698
1.00521 0.997935 0.987808
1.00137 1.0042 0.988187
1.00385 1.00267 0.985442
1.00516 1.00131 0.984414
1.00521 0.998628 0.987025
1.00517 0.996474 0.989255
1.0052 0.999967 0.98571
1.00518 0.997789 0.987831
1.00513 0.997723 0.988089
1.0017 1.00405 0.987919
1.00182 1.00387 0.987984
1.00023 1.0029 0.991464
1.00041 1.00494 0.988873
1.00521 0.997023 0.988812
1.00522 0.997552 0.988289
1.00516 0.995858 0.989946
1.00518 0.995828 0.989798
1.00516 0.996985 0.988652
1.00515 0.99581 0.989985
1.00263 1.00361 0.986674
1.00513 0.996415 0.989066
1.00458 1.00243 0.984325
1.00516 1.00136 0.984327
1.00517 0.99948 0.986068
1.00514 0.997472 0.988271
1.00014 1.00213 0.992338
1.00024 1.00466 0.989544
1.00242 1.00328 0.987313
1.00077 1.00504 0.98845
1.00226 1.00306 0.988232
0.999906 0.998961 0.995905
1.00521 0.999832 0.985866
1.00002 1.00256 0.992077
1.00067 1.00444 0.989159
1.00033 1.005 0.989097
1.00515 1.00039 0.985414
1.00519 0.999446 0.986233
1.00273 1.00382 0.98617
1.00491 1.00159 0.984623
1.00519 1.00055 0.985324
1.00524 1.00097 0.984668
1.00003 0.998644 0.996037
1.00019 1.00148 0.992975
1.00148 1.0044 0.987929
1.00013 1.00428 0.990276
1.00102 1.00418 0.988721
1.0052 0.998942 0.986767
1.00519 0.999939 0.985711
1.00514 0.99856 0.987063
1.00355 1.00302 0.985634
1.00519 1.00012 0.985549
1.00487 1.00177 0.984362
1.0003 1.00086 0.993443
1.00024 1.00307 0.991464
1.00221 1.0034 0.987621
1.00042 1.0049 0.989507
1.00155 1.00313 0.989173
1.00516 0.997888 0.987785
1.00514 0.999253 0.98637
1.00512 0.997866 0.987466
1.00344 1.00217 0.986296
1.00497 1.00101 0.984744
1.0003 1.00059 0.993676
1.00027 1.00186 0.992406
1.00019 1.00198 0.992407
1.0003 1.00253 0.991933
1.00021 1.002 0.992468
1.00015 1.00063 0.993897
1.00021 1.00055 0.993861
1.00014 0.998222 0.996754
1.00026 1.00055 0.993778
1.00014 0.9983 0.99673
0.999958 0.997095 0.997982
1.00009 0.998434 0.996686
0.999827 0.997276 0.99854
0.999723 0.997413 0.999115
0.99988 0.99917 0.995729
0.999831 0.999872 0.995136
0.999651 0.997966 0.998971
0.999696 0.998471 0.998724
0.999851 1.00059 0.994456
0.999782 0.998942 0.998459
1.00522 0.99953 0.986174
1.00521 0.999009 0.986752
1.00522 0.997925 0.98783
1.00521 0.996834 0.988978
1.00521 0.998707 0.98707
1.00442 0.999607 0.987443
1.00521 0.998684 0.987091
1.00521 0.996724 0.989147
1.00521 0.997434 0.988358
1.00516 0.995506 0.990295
1.00521 0.998444 0.98729
1.0052 0.996152 0.98944
1.0052 0.996745 0.98914
1.00516 0.995472 0.990367
1.00519 0.995552 0.990121
1.00516 0.994975 0.990747
1.00518 0.997078 0.988588
1.00518 0.995372 0.990211
1.00521 0.998746 0.987047
1.00521 0.998961 0.986996
1.00521 0.99685 0.988988
1.00521 0.998035 0.987708
1.00144 1.00419 0.98816
1.00388 1.00264 0.985442
1.00511 1.00134 0.98443
1.00521 0.998831 0.986828
1.00518 0.996268 0.989469
1.00518 0.997806 0.987841
1.00519 0.999974 0.985637
1.00513 0.997593 0.988213
1.00165 1.00409 0.987905
1.0016 1.00393 0.987962
1.00027 1.00288 0.991453
1.00034 1.00489 0.988975
1.00521 0.997032 0.988809
1.00521 0.99765 0.988161
1.00516 0.99564 0.990178
1.00519 0.9959 0.989709
1.00252 1.00385 0.986638
1.00451 1.00237 0.984388
1.00515 1.00135 0.984291
1.00516 0.99719 0.988444
1.00514 0.995537 0.990174
1.00516 0.999525 0.986041
1.00514 0.996434 0.989063
1.00513 0.997198 0.988438
1.00255 1.00319 0.987287
1.00217 1.00298 0.988325
1.00075 1.00505 0.988425
1.00015 1.00213 0.992271
1.00014 1.00465 0.98967
1.00517 0.995343 0.990557
1.00518 0.995578 0.990206
1.00517 0.995071 0.990476
1.00514 0.9957 0.989812
1.00338 1.00328 0.98576
1.00517 0.995952 0.989677
1.00508 1.00228 0.983512
1.00504 1.00132 0.98443
1.00512 0.999162 0.98627
1.00005 1.00134 0.993099
1.00007 1.00406 0.99064
1.00048 1.00498 0.989147
1.00287 1.00269 0.987263
1.00102 1.00478 0.987989
1.0025 1.00216 0.988101
1.00003 0.998629 0.996049
1.00016 1.00147 0.993001
1.0052 0.998935 0.986756
0.999954 1.00436 0.990267
1.00136 1.00447 0.987949
1.00084 1.00412 0.988733
1.0052 0.999938 0.98569
1.00513 0.998534 0.987034
1.00361 1.00298 0.985651
1.00514 1.00174 0.984326
1.00522 1.00015 0.985417
1.00028 1.00085 0.993452
1.00011 1.00315 0.991486
1.00225 1.00345 0.987554
1.00024 1.00496 0.989477
1.00146 1.00293 0.989298
1.00516 0.997897 0.987761
1.00514 0.999257 0.986343
1.00511 0.997902 0.987515
1.0036 1.0021 0.986081
1.00498 1.00107 0.984808
1.00024 1.00224 0.992224
0.999792 1.0044 0.990495
1.00292 1.00164 0.988195
1.00037 1.00454 0.989585
1.00211 1.00162 0.989376
1.00513 0.996444 0.988976
1.00511 0.99935 0.986219
1.00508 0.997765 0.987531
1.0041 1.00154 0.985943
1.00476 1.00087 0.985102
1.0003 1.00058 0.993673
1.00027 1.00188 0.992429
1.00009 1.00251 0.992024
1.00014 1.00204 0.992365
1.00017 1.00206 0.992462
1.00017 1.00262 0.991892
1.00011 1.00281 0.991877
1.0001 1.00286 0.991644
1.00012 1.00215 0.992467
1.00008 1.00076 0.993886
1.00015 1.00063 0.993897
1.00014 0.998236 0.99676
1.0002 1.00054 0.993862
1.00015 0.998247 0.996755
1.00002 0.996975 0.997994
1.00014 0.998313 0.996736
0.999946 0.997065 0.997989
0.999786 0.99723 0.99914
0.999934 0.998678 0.996145
0.99987 0.999251 0.995693
0.999674 0.997642 0.999083
0.999825 0.999957 0.995109
0.999679 0.998062 0.998919
0.999743 0.998541 0.998656
1.00521 0.998435 0.987269
1.00521 0.997447 0.988347
1.00519 0.99607 0.989563
1.00516 0.99536 0.990445
1.00522 0.996709 0.989158
1.00521 0.998686 0.987092
1.00521 0.996863 0.989004
1.00516 0.995499 0.990377
1.00519 0.995584 0.990125
1.00516 0.994975 0.990755
1.00518 0.997111 0.988581
1.00518 0.995209 0.990341
1.00516 0.995294 0.990611
1.00515 0.994971 0.990866
1.00519 0.994958 0.990648
1.00518 0.995515 0.990019
1.00521 0.997041 0.988806
1.00521 0.997744 0.988033
1.00516 0.995429 0.990408
1.0052 0.995982 0.98962
1.00253 1.00396 0.986602
1.00448 1.00232 0.984453
1.00515 1.00137 0.984256
1.00516 0.997392 0.988235
1.00513 0.995249 0.990362
1.00516 0.996453 0.989061
1.00515 0.999561 0.986014
1.00513 0.996936 0.988605
1.00266 1.00314 0.987261
1.00217 1.0027 0.988415
1.00072 1.00508 0.988399
1.00017 1.00209 0.992205
1.00011 1.00453 0.989798
1.00517 0.995348 0.990543
1.00518 0.995599 0.990142
1.00516 0.995161 0.99042
1.00331 1.00337 0.985743
1.00486 1.00234 0.983609
1.00505 1.00122 0.984421
1.00514 0.99571 0.989802
1.00513 0.998923 0.986588
1.00515 0.995924 0.989529
1.00007 1.0012 0.993225
1.00305 1.00248 0.987181
1.00229 1.00185 0.988772
1.0012 1.0049 0.987914
1.0005 1.00495 0.989213
1.00009 1.00401 0.990577
1.00519 0.994947 0.99074
1.00517 0.995087 0.99058
1.00516 0.994943 0.99045
1.00515 0.995182 0.99033
1.00417 1.00268 0.985083
1.00511 0.997085 0.988358
1.00507 1.00268 0.982957
1.00497 1.00144 0.984242
1.00013 1.00033 0.994005
1.00005 1.00298 0.991752
1.00027 1.00464 0.989852
1.00088 1.00505 0.988301
1.00305 1.0024 0.986714
1.00226 1.00359 0.987291
1.00026 1.00084 0.99346
1 1.00317 0.991509
1.00516 0.997903 0.987737
1.00004 1.00504 0.989448
1.0023 1.00347 0.987486
1.00116 1.00284 0.989427
1.00514 0.99926 0.986317
1.00511 0.997945 0.987562
1.00377 1.00209 0.985864
1.00502 1.00111 0.984871
1.00019 1.00226 0.992238
0.999875 1.00452 0.99042
1.00301 1.00168 0.988119
1.00017 1.00473 0.989625
1.00197 1.00131 0.989817
1.00514 0.996388 0.989163
1.0051 0.99933 0.986315
1.00509 0.997874 0.987499
1.00404 1.00173 0.985835
1.00484 1.00093 0.984957
0.999849 1.00305 0.991738
0.999745 1.00504 0.989699
1.00344 1.00064 0.988077
1.00106 1.00296 0.98904
1.00519 0.995262 0.989995
1.00507 0.996823 0.98894
1.00496 0.999786 0.985835
1.00436 1.00091 0.985337
1.00029 1.00186 0.992453
1.00012 1.00252 0.992032
0.999828 1.00299 0.992257
1.00012 1.00214 0.992456
1.00005 1.00271 0.991853
1.0001 1.00218 0.992459
1.00004 1.00278 0.991945
1.00013 1.00284 0.991675
0.999988 1.00245 0.992404
1.00007 1.0032 0.991467
1.00012 1.00309 0.991401
1.00009 1.00227 0.992387
1.00003 1.00088 0.993826
1.00008 1.00073 0.993884
1.00011 0.998276 0.996761
1.00014 1.00061 0.993897
1.00014 0.998267 0.996759
1.00005 0.99692 0.997992
1.00015 0.998275 0.996757
1.00001 0.996943 0.998
0.999931 0.997043 0.997991
1.00003 0.998258 0.996416
0.99994 0.998718 0.996111
0.999732 0.997306 0.99916
0.999858 0.999332 0.995655
0.99969 0.997691 0.999054
0.999713 0.998147 0.998845
1.00517 0.997141 0.988574
1.00519 0.99561 0.990129
1.00517 0.995036 0.990471
1.00516 0.994971 0.990763
1.00515 0.995525 0.990387
1.00521 0.996986 0.988869
1.00516 0.995415 0.990485
1.00516 0.994969 0.990864
1.00518 0.99501 0.99061
1.00518 0.995411 0.990112
1.00517 0.994948 0.990877
1.00517 0.994949 0.990754
1.0052 0.994944 0.990526
1.00518 0.995354 0.990529
1.00518 0.995611 0.990078
1.00516 0.995252 0.990365
1.00324 1.00346 0.985725
1.00472 1.00239 0.983703
1.00508 1.00114 0.98441
1.00515 0.995731 0.989792
1.00514 0.995873 0.98938
1.00514 0.998679 0.986907
1.00323 1.00233 0.987098
1.00203 1.0017 0.98944
1.00142 1.00504 0.987839
1.00009 1.0011 0.993352
1.00038 1.00498 0.989279
1.00009 1.00396 0.990513
1.00519 0.994964 0.99077
1.00517 0.995001 0.990614
1.00515 0.995003 0.99048
1.00398 1.00286 0.985054
1.00494 1.0027 0.982996
1.00498 1.00123 0.98456
1.00515 0.995159 0.990284
1.0051 0.997034 0.988292
1.00012 1.0003 0.994169
1.00007 1.00296 0.991753
1.00279 1.00223 0.987144
1.00211 1.00366 0.98781
1.00081 1.00505 0.988492
1.00024 1.00468 0.989807
1.00516 0.99493 0.990796
1.00517 0.99492 0.990526
1.00514 0.994974 0.990512
1.00508 0.995076 0.990176
1.00438 1.00309 0.983446
1.00477 1.00042 0.985601
1.00497 1.00298 0.982946
1.00021 0.999866 0.994554
1.00023 1.00099 0.993462
1.00009 1.00175 0.992761
1.00003 1.00406 0.990654
1.00035 1.0049 0.989137
1.00064 1.0046 0.988518
1.00282 1.00177 0.987351
1.00213 1.00371 0.98857
1.00012 1.00231 0.992251
0.999956 1.00463 0.990346
1.00515 0.996322 0.98935
1.00022 1.00478 0.989661
1.0031 1.00176 0.988045
1.00181 1.00105 0.990254
1.0051 0.999296 0.986414
1.0051 0.997965 0.987468
1.00397 1.00188 0.985731
1.00489 1.00098 0.984814
0.99989 1.00315 0.991623
0.999869 1.005 0.989768
1.00348 1.00069 0.988154
1.00138 1.00307 0.989159
1.00518 0.995187 0.990109
1.00508 0.996835 0.988758
1.00498 0.99974 0.985849
1.00468 1.00096 0.985186
0.999698 1.0038 0.991296
1.00523 0.994894 0.990301
1.00085 1.00479 0.989033
1.00354 1.00112 0.98742
1.00514 0.995718 0.990044
1.00507 0.998402 0.986157
1.00493 1.00133 0.984734
1.00012 1.00256 0.99204
0.999791 1.00295 0.992219
0.999491 1.00291 0.992937
1.0001 1.00215 0.992451
1.00015 1.00283 0.991707
0.999808 1.00291 0.992012
1.00008 1.00227 0.992373
1.00007 1.00311 0.991429
0.999767 1.00259 0.992498
1.00016 1.0031 0.991477
0.999963 1.00205 0.993118
0.999886 1.00295 0.992036
1.00016 1.00364 0.9909
1.00027 1.00317 0.991136
1.0001 1.00244 0.992185
0.999987 1.00104 0.993736
1.00001 1.00092 0.993819
1.00009 0.99837 0.996729
1.00007 1.00075 0.993882
1.00011 0.998319 0.996757
1.00006 0.996892 0.998
1.00014 0.998301 0.99676
1.00005 0.996888 0.997997
1.00001 0.996914 0.998003
1.0002 0.99987 0.994599
1.00009 0.998021 0.996556
1.00003 0.998291 0.996398
0.999821 0.997025 0.999207
0.999942 0.998769 0.996077
0.999738 0.997392 0.999139
0.999711 0.997766 0.999023
1.00519 0.995308 0.990205
1.00516 0.995071 0.990573
1.00517 0.994968 0.990861
1.00516 0.995532 0.990358
1.00517 0.994943 0.990894
1.00517 0.994949 0.990769
1.00519 0.994948 0.990482
1.00517 0.994962 0.990802
1.00521 0.994939 0.990587
1.00526 0.994923 0.990905
1.00518 0.994982 0.990799
1.00517 0.994921 0.990648
1.00515 0.995049 0.990511
1.00374 1.00304 0.985028
1.00492 1.00279 0.983043
1.00497 1.00103 0.984878
1.00515 0.995155 0.990239
1.0051 0.996994 0.988226
1.00255 1.00215 0.987578
1.00203 1.00369 0.988327
1.00059 1.00505 0.988683
1.0001 1.00023 0.994332
1.00012 1.00292 0.991754
1.00022 1.00474 0.989761
1.00517 0.994932 0.990773
1.00019 0.999887 0.994548
1.00018 1.00104 0.993386
1.00517 0.994913 0.99054
1.00514 0.994964 0.990509
1.00414 1.00326 0.983806
1.00493 1.0029 0.983079
1.00483 1.00019 0.985533
1.00508 0.995248 0.990115
1.00008 1.00177 0.992947
1.0001 1.00401 0.990628
1.00308 1.00239 0.986977
1.00151 1.00367 0.988983
1.0007 1.00462 0.9887
1.00031 1.00496 0.989226
1.00521 0.994933 0.990535
1.00517 0.994846 0.990543
1.0051 0.994922 0.990251
1.0047 0.99584 0.989894
1.00383 1.00344 0.984356
1.00431 1.00349 0.983846
1.0001 1.00127 0.993193
1.00019 1.00107 0.993424
1.00043 1.00146 0.992794
1.00017 1.00295 0.991397
1.00005 1.00473 0.990098
1.00122 1.00435 0.988478
0.999942 1.00491 0.989112
1.00219 1.00125 0.988872
0.999929 1.00323 0.99151
1.00006 1.00496 0.989841
1.00517 0.995122 0.990223
1.00508 0.996878 0.988576
1.00169 1.00318 0.989278
1.00351 1.00071 0.988229
1.005 0.999713 0.985861
1.00498 1.00103 0.985032
0.999806 1.00378 0.991246
1.00523 0.994901 0.990422
1.00065 1.00473 0.989085
1.00365 1.00113 0.987176
1.00514 0.995586 0.990035
1.00506 0.99853 0.986437
1.00488 1.00132 0.984763
0.999882 1.00467 0.990606
1.00454 0.995052 0.991584
1.00222 1.00324 0.988471
1.00411 1.0017 0.986178
1.00483 0.996527 0.989337
1.00381 1.00121 0.985722
0.998591 0.997532 0.990236
0.999713 1.00297 0.992182
0.999309 1.00305 0.992917
0.999624 1.00301 0.992936
1.00006 1.00231 0.99236
1.00006 1.00315 0.991457
1.0003 1.00296 0.991487
0.999642 1.0026 0.992591
1.00009 1.00245 0.992186
1.00023 1.00325 0.991126
0.999929 1.00204 0.993031
1.00013 1.00369 0.990906
1.00002 1.00287 0.991927
0.99991 1.00237 0.992761
1.00029 1.00375 0.990613
1.00018 1.00384 0.990714
1.00037 1.00336 0.990805
1.00014 1.00258 0.991862
1.00024 1.00305 0.991488
1.00014 1.00264 0.991753
0.999986 1.00106 0.993702
0.999988 1.00104 0.99373
1.00008 0.99847 0.996115
1.00002 1.0009 0.993812
1.00009 0.99842 0.996428
1.00002 0.996901 0.99914
1.00011 0.99836 0.996754
1.00006 0.996854 0.998004
1.00005 0.996857 0.997997
1.00014 0.999864 0.994667
1.0002 0.999821 0.99461
1.0001 0.997904 0.996664
1.00007 0.998025 0.996814
0.999892 0.996845 0.999238
1.00002 0.998325 0.99638
0.999812 0.997092 0.999195
0.999746 0.997436 0.999119
1.00519 0.994949 0.990438
1.00516 0.994948 0.990784
1.00517 0.994938 0.990911
1.00517 0.994961 0.990803
1.00521 0.994936 0.990589
1.00526 0.994922 0.990535
1.00526 0.994946 0.99053
1.00107 0.99485 0.986285
1.00446 0.994872 0.993024
1.00003 1.00131 0.993417
1.00518 0.994934 0.99075
1.00517 0.994909 0.990554
1.00513 0.994955 0.990506
1.00391 1.00329 0.98416
1.00492 1.0028 0.983213
1.00489 1.00002 0.98547
1.00508 0.995415 0.990052
1.00352 1.00257 0.986606
1.00084 1.0036 0.989402
1.00082 1.00466 0.988883
1.00017 0.999929 0.994543
1.00032 1.005 0.989315
1.00006 1.00175 0.993131
1.0002 1.00395 0.990602
1.00017 1.00102 0.993309
1.00521 0.994927 0.990538
1.00011 1.00123 0.993291
1.00016 1.00111 0.993419
1.00038 1.00148 0.992752
1.00517 0.994867 0.990524
1.00512 0.994913 0.990281
1.004 1.00333 0.98439
1.00427 1.00277 0.98443
1.00462 0.996345 0.989787
1.00005 1.00302 0.99155
1.00017 1.00464 0.989933
1.00213 1.00213 0.988587
1.00041 1.00475 0.989148
1.00109 1.00424 0.988604
1.00521 0.99506 0.990593
1.00514 0.994845 0.990598
1.00507 0.99546 0.989822
1.0044 0.998227 0.989061
1.00195 1.00357 0.987895
1.0001 1.00222 0.992254
1.00042 1.00165 0.992287
1.00015 1.00225 0.992081
0.999916 1.00442 0.990965
1.00011 1.00469 0.989709
1.00029 1.00456 0.989197
1.00077 1.00319 0.989517
0.999981 1.00371 0.991191
1.00035 1.00468 0.989135
1.00524 0.994894 0.990536
1.00514 0.995444 0.990025
1.00505 0.998697 0.986717
1.00379 1.00111 0.986933
1.00484 1.00126 0.984794
0.999992 1.00454 0.990705
1.0045 0.995088 0.991694
1.00198 1.00322 0.988445
1.00393 1.00176 0.98608
1.00499 0.995978 0.989596
1.00401 1.00139 0.985717
0.998604 0.997817 0.988061
1.00011 1.00441 0.990429
1.00263 0.998095 0.991609
1.00196 1.0025 0.988814
1.0025 1.00168 0.987731
1.00364 0.997494 0.98952
1.00003 0.995183 0.952283
0.997028 0.994892 0.971098
0.996386 1.00182 0.98946
0.9998 0.99622 0.893201
0.994681 0.995993 0.866415
0.999148 1.0032 0.992898
0.999189 1.00325 0.99307
0.99958 1.00313 0.992693
1.00008 1.00245 0.992187
1.00029 1.00314 0.991116
1.0001 1.00373 0.990913
1.00015 1.00279 0.991816
0.999846 1.00202 0.992945
1.00022 1.0038 0.99068
1.00013 1.00256 0.991933
1.00036 1.00334 0.990829
0.999933 1.00226 0.99265
1.00018 1.00378 0.990765
1.00021 1.00398 0.990762
0.999671 1.0037 0.991461
1.00026 1.00392 0.990505
1.00034 1.00331 0.990818
1.00018 1.00259 0.991743
1.00033 1.00335 0.990956
1.00015 1.00325 0.991391
1.00009 1.00301 0.991631
1.00022 1.00308 0.991423
1.00022 1.00229 0.992145
1.00016 1.00264 0.991739
1.00004 1.00099 0.993689
0.999993 1.00106 0.993701
1.00007 0.998528 0.996099
0.999978 1.00106 0.993725
1.00007 0.998485 0.996113
1.00002 0.996896 0.999141
1.00009 0.998473 0.996127
1.00004 0.996897 0.998557
1.00006 0.996818 0.998007
1.00007 0.99989 0.99476
1.00015 0.999853 0.994671
1.00011 0.997811 0.996753
1.00021 0.999781 0.99462
1.0001 0.997861 0.996921
0.999942 0.99668 0.999269
1.00009 0.99806 0.996531
0.999882 0.996921 0.999223
0.999808 0.997161 0.999184
1.00521 0.994932 0.99059
1.00517 0.994961 0.990805
1.00527 0.994924 0.990168
1.00086 0.994942 0.986411
1.00525 0.994944 0.990529
1.00433 0.995226 0.992619
1.00505 0.99618 0.991127
0.996671 0.994882 0.970145
1.00051 0.996828 0.988248
1.00005 1.00133 0.993379
1.00009 1.00125 0.993409
1.00002 1.0023 0.992431
0.999998 1.00223 0.992553
1.00521 0.994924 0.99054
1.00516 0.994884 0.990506
1.00513 0.994906 0.99031
1.00446 1.00314 0.984422
1.00413 1.00181 0.985007
1.00454 0.996868 0.989676
1.00184 1.00329 0.988301
1.001 1.00459 0.989183
1.00094 1.00405 0.98873
1.00012 1.0012 0.993414
1.00023 1.0046 0.989766
1.00006 1.00305 0.991704
1.00011 1.00123 0.99339
1.00028 1.00154 0.992705
1.00522 0.995 0.990595
1.00014 1.00223 0.992334
1.0004 1.00165 0.992471
0.999888 1.0022 0.992585
1.00515 0.994838 0.990501
1.00494 0.995454 0.989845
1.00258 1.00275 0.987803
1.00405 0.997986 0.989502
1.00003 1.00421 0.990788
1.00025 1.00485 0.989292
1.0009 1.00384 0.989405
1.00094 1.00433 0.989059
1.00457 0.995004 0.99149
1.00509 0.995539 0.990277
1.00502 0.99607 0.989644
1.00201 0.999584 0.991668
0.999868 1.00327 0.991651
1.00024 1.00276 0.991503
0.999258 1.00475 0.991189
0.999541 1.00476 0.99013
0.999996 0.994894 0.943775
1.00004 1.00445 0.990803
1.00163 1.00332 0.988417
1.00449 0.995002 0.991807
1.0051 0.995564 0.989852
1.00415 1.00147 0.985703
1.00373 1.0019 0.985977
0.998724 0.997666 0.985822
0.999986 1.00457 0.990591
1.00271 0.997737 0.991648
1.00191 1.00257 0.988823
1.00308 1.00118 0.987691
1.00391 0.997526 0.989493
1.00113 0.99527 0.942266
0.996877 0.99491 0.966745
0.996444 1.00224 0.989276
0.999784 0.996025 0.896863
0.994698 0.996007 0.855313
0.999789 1.00391 0.991476
0.999824 0.994874 0.903765
0.994683 0.99574 0.866219
1.00148 1.00006 0.991361
1.00101 1.0023 0.990327
1.00194 1.00072 0.989628
0.996305 1.00264 0.989564
1.00073 0.9966 0.94843
0.994914 0.995862 0.964424
0.997613 0.998603 0.902691
0.99478 0.996493 0.861105
0.998889 1.00346 0.993203
0.999418 1.00325 0.992608
0.999429 1.0033 0.993021
1.00016 1.00251 0.992003
1.00036 1.00336 0.990852
1.00002 1.00399 0.990648
1.00007 1.00379 0.990918
1.00001 1.00213 0.992539
1.00019 1.00258 0.991751
1.00005 1.00411 0.990705
1.00026 1.00392 0.990487
1.0004 1.00325 0.990874
0.99966 1.0037 0.991515
0.999869 1.0042 0.991178
0.998981 1.00456 0.991578
1.00041 1.00371 0.990417
1.00041 1.00338 0.990782
1.00036 1.00333 0.990933
1.00011 1.00324 0.991462
1.00039 1.00344 0.99076
0.999982 1.00333 0.991524
0.999707 1.00314 0.991732
0.999707 1.00436 0.990851
0.999928 1.00334 0.991553
1.00013 1.00298 0.991628
1.00014 1.00221 0.992345
1.00021 1.00308 0.991358
1.00023 1.0023 0.992075
1.00012 1.00091 0.993656
1.00019 1.00264 0.991725
1.00003 1.00101 0.993693
1.00009 0.998474 0.996692
0.999981 1.00108 0.993699
1.00007 0.998494 0.9964
1.00006 0.99691 0.997958
1.00007 0.998497 0.99611
1.00002 0.996908 0.99914
1.00006 0.996905 0.997973
1.00009 1.00141 0.99321
1.00001 0.999947 0.994791
1.00007 0.999877 0.994763
1.00011 0.997784 0.996785
1.00016 0.999826 0.994674
1.00012 0.997772 0.996756
0.999981 0.996577 0.999285
1.00009 0.997861 0.997155
0.999958 0.996767 0.99875
0.999925 0.996971 0.99818
1.0005 0.995176 0.986555
1.00524 0.994954 0.990529
1.00413 0.99597 0.992206
0.996695 0.994869 0.971336
1.00045 0.996512 0.988545
1.00507 0.995826 0.990981
1.00307 0.997296 0.988362
0.996501 0.996852 0.97415
1.00002 0.995519 0.949409
0.999424 0.997811 0.906335
0.994647 0.996328 0.864577
0.999931 1.0023 0.992456
1.00008 1.00131 0.993375
1.00015 1.00118 0.9934
1.00003 1.0023 0.99243
0.999766 1.00326 0.991909
1.00024 1.00248 0.991866
1.00003 1.00272 0.992174
0.999996 1.0023 0.992447
1.00522 0.9949 0.990593
1.00517 0.994842 0.990402
1.00485 0.995326 0.989869
1.0028 1.00226 0.987717
1.00374 0.997886 0.989949
1.00106 1.00446 0.989288
1.00153 1.00418 0.988922
1.00053 1.00499 0.988878
1.0003 1.00163 0.992657
1.00003 1.00425 0.990609
1.00018 1.00226 0.992417
0.999778 1.00213 0.993087
1.00461 0.994913 0.991622
0.999857 1.00332 0.991707
1.0002 1.00289 0.991659
1.00502 0.995349 0.990238
1.00482 0.995629 0.989793
1.00197 0.999559 0.991303
0.999662 1.00498 0.990643
1.00023 1.00442 0.990211
1.00331 0.995606 0.991885
1.00458 0.996563 0.990484
1.0046 0.995109 0.991066
1.00149 0.999256 0.992497
0.999963 1.00441 0.990412
0.999548 1.00424 0.991163
0.999474 1.00509 0.990887
0.99985 0.994846 0.905253
1.00049 0.994936 0.953874
0.999925 1.00466 0.990754
1.0019 1.0025 0.988837
1.0027 0.997554 0.991694
1.00426 0.997648 0.989469
1.00375 1.00069 0.987663
1.00022 0.994921 0.950804
0.997201 0.99508 0.966017
0.996504 1.00258 0.989047
0.999612 0.996545 0.907779
0.994725 0.996114 0.843817
0.999824 1.0038 0.991446
0.999839 0.995564 0.902566
0.994716 0.995787 0.860574
1.0015 1.00003 0.991413
1.00113 1.00215 0.990383
1.00211 1.00048 0.990291
0.99649 1.00287 0.990194
1.00175 0.996613 0.941579
0.994919 0.995375 0.968235
0.998458 0.99904 0.902627
0.994795 0.996087 0.859379
0.999471 1.00355 0.992783
0.994797 0.99582 0.863878
0.9948 0.995977 0.878303
0.999232 1.00183 0.993748
0.999571 1.00273 0.993203
0.995704 1.00257 0.990017
0.99486 0.997931 0.967591
0.997931 0.998946 0.938922
0.994784 0.999806 0.908262
0.994849 0.994802 0.864655
0.999381 1.00332 0.992524
0.999597 1.00299 0.992885
0.998298 1.0043 0.993027
1.00019 1.00258 0.991758
1.00042 1.00321 0.990931
1.00027 1.00388 0.990468
0.999951 1.00425 0.990647
0.999563 1.00379 0.991568
1.0004 1.00339 0.990777
0.999906 1.00402 0.991045
1.00042 1.00367 0.990449
0.998718 1.00473 0.991774
0.997064 1.00519 0.993994
1.00002 1.00402 0.990851
1.00063 1.00388 0.990004
1.00039 1.00331 0.990911
1.00014 1.00315 0.991532
1.00039 1.0035 0.990715
1.00003 1.00331 0.991486
0.999691 1.00311 0.992017
0.999735 1.00396 0.991227
0.999786 1.00377 0.991163
0.999509 1.00316 0.992203
1.00027 1.0028 0.991526
1.00038 1.00423 0.989346
0.999585 1.00459 0.990669
0.999796 1.00429 0.990849
0.999775 1.00388 0.991267
0.999964 1.00335 0.991542
1.00002 1.00236 0.992346
1.00013 1.00302 0.991624
1.00015 1.0022 0.992352
1.00019 1.00076 0.993645
1.00023 1.00231 0.992005
1.00012 1.00089 0.993668
1.00013 0.998451 0.996653
1.00003 1.00101 0.993697
1.0001 0.998446 0.996389
1.00006 0.996853 0.997965
1.00009 0.998466 0.996106
1.00002 0.99691 0.999137
1.00002 0.996905 0.99914
1.00012 1.00165 0.99319
0.999997 1.00008 0.994695
1.00008 1.00144 0.993216
1.00011 0.997791 0.996776
1.00001 0.999947 0.994793
1.00008 0.999882 0.994766
1.00011 0.997773 0.996782
1.00001 0.996518 0.999287
1.0001 0.997746 0.997234
0.999998 0.99659 0.998794
0.999979 0.996776 0.998262
0.999848 0.995551 0.89478
0.994668 0.995881 0.863385
0.998058 0.994875 0.971251
1.0005 0.99549 0.988866
1.00513 0.995108 0.990836
0.996183 0.995869 0.975133
1.00336 0.996276 0.988728
1.00122 0.995794 0.948064
0.999829 0.996664 0.895412
0.994679 0.996302 0.853472
0.998649 0.994898 0.978859
1.00002 0.997405 0.948971
0.998125 0.998911 0.900784
0.994769 0.995914 0.861262
1.00004 1.00329 0.991462
0.999924 1.00228 0.99254
1.00012 1.00126 0.993371
1.00002 1.00228 0.992429
0.999756 1.00309 0.992102
1.00003 1.00358 0.991254
1.00017 1.00278 0.991789
1.00026 1.00314 0.991167
1.00007 1.00266 0.992071
0.999969 1.00242 0.992342
1.00466 0.994854 0.991752
1.00501 0.99508 0.990213
1.00442 0.995349 0.98994
1.00178 0.999682 0.990938
1.00075 1.00436 0.990295
0.999824 1.0051 0.990096
1.00017 1.0029 0.991819
0.999803 1.0034 0.991761
1.00327 0.995466 0.99216
0.999915 1.00463 0.990283
0.999478 1.00436 0.991067
1.00472 0.996041 0.990351
1.00447 0.995255 0.990869
1.00132 0.999306 0.992581
0.9997 1.00495 0.990876
1.00069 0.997081 0.992354
1.00292 0.996099 0.993807
1.00036 1.00118 0.992729
0.999408 1.00475 0.990166
0.9996 1.00502 0.99016
0.99928 1.00511 0.990977
0.994748 0.996063 0.880563
0.999841 0.994869 0.908617
0.999998 0.994901 0.944089
0.999673 1.00384 0.991413
1.00124 1.00205 0.990433
1.00153 1.00002 0.991466
1.00228 1.00023 0.990949
0.999834 0.995103 0.910614
1.00002 0.996447 0.941481
0.994892 0.994892 0.964597
0.996647 1.00209 0.990794
0.99779 0.998711 0.891509
0.994668 0.99577 0.862988
0.994759 0.995744 0.866318
0.999184 1.00345 0.992719
0.994703 0.995331 0.870731
0.994821 0.99613 0.87795
0.999212 1.00152 0.993872
0.999372 1.00256 0.993215
0.995657 0.999528 0.99284
0.994878 0.997547 0.966651
0.997423 0.999535 0.948933
0.997005 0.999917 0.896261
0.994818 0.994791 0.872131
0.997507 1.00368 0.995595
0.994813 0.995801 0.887372
0.994796 0.994768 0.881898
0.995651 1.00203 0.999681
0.994829 0.999527 0.974192
0.994902 0.99996 0.949746
0.994861 0.999354 0.892346
0.994872 0.994813 0.870531
0.999742 1.00269 0.992746
0.998561 1.00425 0.993332
0.996875 1.00503 0.995221
1.00036 1.00346 0.990772
1.00046 1.00363 0.99048
0.999974 1.00377 0.990913
0.998445 1.00501 0.991976
1.00052 1.00398 0.989991
0.999982 1.00412 0.990796
0.997202 1.00504 0.994449
0.99509 1.00531 0.997293
0.997861 1.00483 0.993926
1.00038 1.00397 0.990304
1.00041 1.00355 0.990669
1.00005 1.0033 0.991447
0.999601 1.00314 0.992298
0.999822 1.00365 0.991296
0.999784 1.00393 0.991241
0.999522 1.00329 0.99226
0.999962 1.0034 0.991676
0.998214 1.00385 0.993639
1.0015 0.999856 0.992
1.0003 1.00264 0.991653
1.00063 1.00333 0.990143
1.0022 1.00401 0.987031
0.999986 1.00473 0.990501
1.00022 1.00433 0.989714
0.999742 1.00449 0.990697
0.999621 1.0043 0.990927
0.999885 1.00423 0.990846
0.999887 1.00375 0.991268
0.99996 1.00277 0.992058
1.00007 1.00326 0.991531
1.00009 1.00233 0.992338
1.00022 1.00077 0.993604
1.00019 1.00216 0.992358
1.00021 1.00078 0.993651
1.00015 0.99843 0.99663
1.00013 1.00088 0.993679
1.00014 0.998431 0.996349
1.00004 0.996937 0.997927
1.00012 0.998422 0.996091
1.00004 0.99688 0.998552
1.00002 0.996898 0.999139
1.00015 1.00211 0.992465
1.00005 1.0002 0.994504
1.00009 1.00168 0.993013
1.00011 0.997854 0.996711
1 1.00006 0.994697
1.00006 1.00149 0.99322
1.00003 0.9965 0.999283
1.0001 0.99779 0.996776
1.00002 0.999938 0.994796
1.00011 0.997763 0.996778
1.00001 0.996537 0.999288
0.99998 0.996576 0.999285
0.994683 0.994835 0.869546
0.999864 0.995391 0.901799
0.994813 0.996456 0.876856
0.994679 0.995932 0.860941
0.995912 0.995618 0.972547
1.00343 0.996125 0.989131
1.00005 0.996142 0.946161
0.999823 0.997064 0.906999
0.994724 0.996498 0.842101
0.998255 0.995647 0.978047
1.00143 0.997242 0.937837
0.998327 0.999262 0.901491
0.994794 0.996179 0.85575
0.995605 0.995829 0.972747
0.997682 0.998778 0.939424
0.99547 0.999846 0.891218
0.99484 0.994808 0.859674
1.0001 1.00412 0.990794
1.00001 1.00317 0.991597
0.999912 1.00231 0.992623
0.999744 1.00294 0.992297
1.0004 1.00393 0.990118
0.999994 1.00344 0.991392
1.00001 1.00301 0.991713
1.00047 1.00307 0.991051
1.00029 1.00317 0.991251
1.00009 1.00258 0.991967
1.00333 0.994875 0.992421
1.00478 0.995454 0.990233
1.0046 0.995279 0.99067
1.00129 0.999066 0.992676
1.0001 1.00461 0.990866
0.999581 1.00449 0.990974
0.99982 1.00477 0.990154
0.999954 1.00488 0.989944
1.00062 0.996578 0.992655
0.999873 1.00493 0.990056
0.999587 1.00509 0.990962
1.00305 0.995755 0.993791
1.00103 1.00038 0.992552
0.998303 0.997 0.993562
0.998215 0.998845 0.999841
0.998564 1.0036 0.992853
1.00001 1.00475 0.990012
0.999282 1.005 0.991036
0.994839 0.996014 0.891781
0.994743 0.99596 0.877818
0.999823 0.994856 0.897765
0.998946 1.00332 0.99266
0.999173 1.00228 0.993214
0.999295 1.00141 0.994007
0.994686 0.99484 0.870952
0.997372 0.99875 0.940208
0.994857 0.997145 0.966837
0.995911 0.997993 0.995886
0.995152 0.99986 0.908745
0.994845 0.996253 0.877687
0.994837 0.994806 0.872414
0.997494 1.00357 0.995879
0.994819 0.995309 0.890172
0.99479 0.994766 0.881998
0.995777 1.00223 0.998664
0.994863 0.999204 0.975759
0.996031 0.999792 0.940109
0.994861 0.994813 0.87001
0.994848 0.999934 0.899799
0.995599 1.00484 0.99842
0.994739 0.994792 0.899185
0.994813 0.99478 0.8851
0.994837 0.994797 0.860313
0.995127 1.00012 0.992442
0.994953 0.999622 0.953107
0.994979 0.999734 0.900726
0.998938 1.00413 0.993636
0.997456 1.00507 0.994369
0.995156 1.00507 0.998525
1.00048 1.00401 0.989978
0.999913 1.00417 0.990739
0.997199 1.00484 0.994893
1.00022 1.00403 0.990361
0.997899 1.00466 0.993957
0.995408 1.00531 0.997046
0.995146 1.00519 0.99834
0.997779 1.00455 0.993877
0.999832 1.00359 0.991431
0.999831 1.0039 0.991256
0.999573 1.00342 0.992322
0.998513 1.00391 0.993497
0.999835 1.00334 0.991667
0.999569 1.0026 0.99302
1.00066 1.00034 0.993061
1.0015 1.00175 0.989623
1.00033 1.00248 0.991783
1.00109 1.00328 0.989819
1.0029 1.00298 0.986526
1.00294 1.0032 0.98636
1.00053 1.00456 0.989487
1.00186 1.00395 0.987122
0.999882 1.00482 0.990305
0.999869 1.00476 0.990459
1.00003 1.00442 0.990082
0.999893 1.00439 0.990725
0.999693 1.00415 0.991018
0.99997 1.00312 0.991683
0.999983 1.00363 0.991269
1.00002 1.00271 0.992063
1.00019 1.00102 0.993408
1.00013 1.00231 0.992332
1.00023 1.00077 0.993598
1.00013 0.998437 0.996634
1.00022 1.00077 0.993657
1.00015 0.998409 0.996331
1.00001 0.997012 0.997926
1.00016 0.998384 0.996054
1.00002 0.996942 0.998529
1.00001 0.996913 0.999133
1.00031 1.00228 0.991838
1.0001 1.00051 0.993881
1.00018 1.00209 0.992463
1.00013 0.997948 0.996577
1.00005 1.00021 0.994361
1.00009 1.00166 0.992837
1.00003 0.996554 0.999265
1.00011 0.997842 0.996717
1.00001 1.00004 0.9947
1.00003 0.996512 0.999285
1.0001 0.99779 0.996776
1.00001 0.996535 0.999288
0.994826 0.994811 0.886584
0.994694 0.995354 0.876377
0.999848 0.995539 0.902453
1.0006 1.00317 0.99064
0.994793 0.994895 0.887878
0.994808 0.995953 0.876707
0.994706 0.995909 0.866894
0.998433 0.995956 0.976787
0.99964 0.997818 0.948093
0.998005 0.998659 0.88974
0.994773 0.995991 0.85931
0.996561 0.995291 0.969103
0.997425 0.999034 0.948404
0.996762 0.999895 0.895334
0.994826 0.994815 0.86298
0.994864 0.995938 0.964899
0.995275 0.999914 0.947936
0.994872 0.999979 0.900662
0.994876 0.994826 0.870242
1.00013 1.0046 0.989979
1.00008 1.00415 0.990603
1.00006 1.00306 0.991732
1.00041 1.00386 0.990232
1.00029 1.00402 0.990324
1.00001 1.0034 0.991528
1.00051 1.00306 0.991072
1.00029 1.00319 0.991332
1.00019 0.997066 0.992879
1.00324 0.99555 0.993732
1.00011 1.00504 0.989722
1.00162 0.999918 0.992367
0.999873 1.0051 0.990945
1.00003 1.00501 0.989951
0.999914 1.00479 0.990004
0.997555 0.99741 0.994202
0.999544 1.00482 0.991145
0.999274 1.00333 0.992922
0.998205 0.998414 0.999863
0.999999 1.00482 0.9902
0.996004 0.999235 0.992835
0.995006 1.00196 1.00183
0.997728 1.00512 0.993177
0.999616 1.00464 0.991232
0.994728 0.994774 0.904443
0.994841 0.99595 0.891471
0.994736 0.995894 0.875056
0.997448 1.00357 0.996186
0.995608 1.00196 0.997637
0.994824 0.994807 0.892884
0.99495 0.999988 0.949911
0.994879 0.998771 0.972943
0.99484 0.999956 0.899264
0.994781 0.994764 0.882055
0.994851 0.994814 0.869491
0.995862 1.00467 0.998037
0.994743 0.994796 0.898984
0.994809 0.994769 0.888694
0.994945 1.00087 0.995824
0.994817 0.994913 0.863372
0.994909 0.998881 0.947328
0.994965 0.999761 0.905173
0.995066 1.00405 0.998531
0.994756 0.994798 0.903165
0.994786 0.995152 0.888315
0.994743 0.996062 0.861542
0.995667 0.999979 0.900254
0.994894 0.999941 0.981683
0.994961 1.00011 0.939999
0.998146 1.00497 0.993518
0.995498 1.00498 0.998033
0.994921 1.00508 0.999577
1.00005 1.00405 0.990419
0.997901 1.00452 0.993992
0.995901 1.0053 0.996807
0.997983 1.00448 0.993763
0.995253 1.00464 0.998319
0.997573 1.00332 0.99645
0.998825 1.00389 0.993349
0.999613 1.00335 0.991659
0.999608 1.00282 0.993165
0.999338 1.00345 0.991478
0.99981 1.00079 0.994103
1.00139 1.00157 0.990197
1.00318 1.00267 0.986325
1.00452 1.00195 0.984688
1.00156 1.00322 0.98949
1.0033 1.00308 0.985737
1.00398 1.00235 0.986272
1.00144 1.0039 0.98793
1.00287 1.00317 0.986551
0.999947 1.00501 0.989723
1.00055 1.00458 0.989436
1.00152 1.0039 0.987214
0.999985 1.00366 0.991046
0.999753 1.00478 0.990413
0.999772 1.00478 0.990416
0.999773 1.00402 0.991108
1.00003 1.00309 0.991683
1.00019 1.00137 0.993044
1.00008 1.00267 0.992068
1.0002 1.00103 0.993401
1.00008 0.998589 0.996
1.00024 1.0008 0.993592
1.00015 0.998435 0.996037
0.999889 0.997075 0.999126
1.00017 0.998395 0.996032
0.999984 0.997018 0.998519
0.99999 0.99697 0.999121
1.00033 1.00249 0.991539
1.00021 1.00084 0.993382
1.00027 1.00233 0.991944
1.00015 0.998111 0.996384
1.00013 1.00052 0.993821
1.00017 1.0021 0.99246
1.00004 0.996614 0.999234
1.00013 0.997935 0.996589
1.00005 1.00023 0.99422
1.00004 0.996528 0.999271
1.00011 0.997827 0.996722
1.00002 0.996527 0.999286
0.994746 0.994788 0.900637
0.994818 0.995379 0.88647
0.994692 0.995919 0.876587
1.00052 1.0032 0.990741
1.00048 1.00338 0.990483
1.00057 1.00355 0.990439
0.994821 0.994774 0.884575
0.994789 0.995043 0.887929
0.994805 0.995968 0.876551
0.996446 0.994867 0.971307
0.998221 0.999125 0.938133
0.995149 0.999908 0.907997
0.994853 0.995166 0.859005
0.994876 0.996247 0.968378
0.995915 0.999945 0.944463
0.994819 0.999787 0.900024
0.994868 0.99482 0.869602
0.994903 0.996485 0.964183
0.994907 0.999567 0.949743
0.995037 0.999911 0.900688
0.994858 0.994803 0.864549
1.00035 1.00415 0.989975
1.00022 1.00456 0.989833
1.00023 1.00409 0.990412
1.0005 1.00373 0.990203
1.00013 1.00409 0.990532
1.00053 1.00308 0.991092
0.996947 0.99769 0.994837
0.997806 0.998084 0.999918
1.00002 1.00455 0.989996
0.9999 1.00272 0.992994
0.999607 1.00475 0.991255
0.999921 1.00467 0.990158
0.999252 1.00467 0.991371
0.995709 0.999232 0.993089
0.997804 1.00514 0.993824
0.995244 1.0019 1.00087
0.999507 1.0041 0.991602
0.995291 0.999028 0.99216
0.995935 1.00263 0.997804
0.998062 1.00517 0.993797
0.994748 0.994748 0.908228
0.994731 0.994767 0.905371
0.994845 0.995851 0.891152
0.996005 1.00464 0.997635
0.994896 1.00093 0.992618
0.994752 0.994802 0.898789
0.994856 0.999258 0.948876
0.99496 0.999726 0.893804
0.994802 0.994766 0.892275
0.994845 0.995464 0.859547
0.995154 1.00389 0.999008
0.994753 0.994803 0.904636
0.994788 0.995179 0.888382
0.994916 0.999665 0.978419
0.99478 0.996443 0.856137
0.99482 0.999976 0.899306
0.99492 0.999885 0.950662
0.995104 1.00487 0.994495
0.994749 0.994792 0.900969
0.994816 0.996832 0.877348
0.994645 0.996602 0.865284
0.995802 0.999124 0.891069
0.995748 0.999952 0.94826
0.994928 1.00048 0.972394
0.995941 1.00503 0.997553
0.99527 1.00412 0.99951
0.996934 1.00304 0.998002
0.998138 1.00453 0.993651
0.995501 1.00412 0.998318
0.996523 1.00427 0.996762
0.999598 1.00037 0.996077
0.999674 1.00301 0.993309
1.00079 1.00291 0.991095
1.00197 1.00382 0.987482
1.00126 1.00142 0.990793
1.00327 1.00274 0.98626
1.00409 1.00393 0.983485
1.00487 1.00184 0.984113
1.00437 1.0018 0.985111
1.00451 1.00215 0.984499
1.00373 1.00314 0.984947
1.00343 1.00253 0.986776
1.00367 1.00222 0.986465
1.00072 1.0045 0.98847
1.00156 1.00393 0.988092
1.00282 1.00316 0.986744
0.999958 1.00458 0.989966
1.00012 1.005 0.989712
1.00055 1.00462 0.989383
1.00018 1.00189 0.992579
1.0001 1.00362 0.991038
0.999631 1.00476 0.990521
1.00008 1.00303 0.991684
1.00021 1.00138 0.993037
1.00001 0.998839 0.995881
1.00022 1.00103 0.993393
1.00009 0.998596 0.995989
0.999835 0.997234 0.999112
1.00015 0.998434 0.996033
0.999925 0.997106 0.998522
0.99995 0.997053 0.999117
1.00036 1.00284 0.991371
1.0003 1.00107 0.993191
1.00037 1.00248 0.991605
1.00017 0.998303 0.996138
1.0002 1.00084 0.993466
1.00029 1.00233 0.992051
1.00003 0.996736 0.99919
1.00015 0.998083 0.9964
1.00015 1.00051 0.99376
1.00004 0.996609 0.999243
1.00012 0.997924 0.9966
1.00004 0.996528 0.999278
0.994762 0.994803 0.902807
0.994751 0.994804 0.900444
0.99481 0.995891 0.886466
1.00035 1.00387 0.990187
1.00064 1.00399 0.989858
1.00044 1.00326 0.990845
1.00043 1.00352 0.990447
1.0004 1.00366 0.990421
1.00031 1.00396 0.990255
1.00039 1.00379 0.990295
0.994812 0.994761 0.88136
0.994814 0.994772 0.888228
0.994782 0.994755 0.887998
0.994853 0.994815 0.868999
0.994897 0.996034 0.965378
0.99515 0.999943 0.941278
0.994873 0.99951 0.908023
0.995009 0.996905 0.963267
0.994888 0.999856 0.940498
0.994959 0.999735 0.90552
0.994827 0.994792 0.872064
0.995301 0.996351 0.967168
0.99492 0.999936 0.940591
0.994878 0.999679 0.89293
0.994787 0.996738 0.860381
0.999536 1.00496 0.990761
1.00021 1.00435 0.990016
1.00028 1.0047 0.989687
1.00061 1.00363 0.990175
0.995499 0.999381 0.993486
0.995371 1.00289 0.999901
0.999858 1.00493 0.990118
0.999198 1.00465 0.991509
0.998232 1.00512 0.994464
0.999494 1.00426 0.99155
0.997797 1.00516 0.993797
0.995088 1.00068 0.989273
0.995355 1.00384 0.998194
0.997445 1.00477 0.994706
0.99491 0.999068 0.988663
0.99718 1.00411 0.997402
0.994723 0.994781 0.904569
0.994749 0.994748 0.911039
0.99473 0.994758 0.906295
0.995002 1.00361 0.99943
0.994934 0.998466 0.9824
0.994749 0.9948 0.906146
0.995844 0.999663 0.940667
0.994844 0.999825 0.907321
0.994791 0.994753 0.888459
0.994773 0.996323 0.859775
0.994923 1.0039 0.995152
0.994753 0.994799 0.900793
0.9948 0.996216 0.877203
0.994937 1.00055 0.973192
0.994667 0.996495 0.85442
0.99679 0.999901 0.894894
0.994854 0.999847 0.939885
0.995611 1.00465 0.989034
0.994823 0.994821 0.887269
0.994656 0.996003 0.864246
0.99851 0.997822 0.901487
0.995083 0.999943 0.947968
0.995005 1.00002 0.965885
0.995292 1.00337 0.999646
0.996174 1.00372 0.998005
0.997131 1.00098 0.998817
0.995525 1.00512 0.997066
0.998363 1.00068 0.996416
1.00264 0.999109 0.99206
1.00227 1.00229 0.990711
1.00242 1.00361 0.987433
1.00302 1.00431 0.984475
1.00334 1.00282 0.986197
1.00443 1.00389 0.983108
1.00428 1.00442 0.982605
1.00494 1.00122 0.98471
1.00504 1.00128 0.98452
1.0048 1.00199 0.984085
1.00418 1.00158 0.985478
1.00436 1.00172 0.985267
1.00446 1.0024 0.984311
1.00268 1.00374 0.986598
1.00328 1.00248 0.986748
1.00331 1.00208 0.986656
1.00047 1.00495 0.988768
1.00076 1.00456 0.988692
1.0017 1.00393 0.988258
1.00005 1.00283 0.991729
1.00016 1.00452 0.989989
1.00026 1.00495 0.989702
0.99992 0.999128 0.995729
1.00021 1.00187 0.99256
1.00019 1.00362 0.991031
1.00023 1.00138 0.99303
1 0.998869 0.995865
0.999755 0.997443 0.99909
1.0001 0.998598 0.995979
0.999829 0.997272 0.999107
0.999893 0.997134 0.999117
1.00032 1.0041 0.990128
1.00047 1.00309 0.990962
1.00033 1.00145 0.992761
1.00038 1.00281 0.99136
1.00017 0.998564 0.995872
1.00029 1.00109 0.99319
1.00032 1.00255 0.991671
1.00002 0.996883 0.999132
1.00016 0.998299 0.996155
1.0002 1.00084 0.993549
1.00003 0.996706 0.999203
1.00015 0.998065 0.996416
1.00004 0.996578 0.999253
0.99473 0.994787 0.898794
0.994756 0.994803 0.904316
0.994757 0.994821 0.900229
1.00042 1.00388 0.990215
1.00049 1.00403 0.989886
1.00027 1.00361 0.990268
1.00018 1.00431 0.989932
1.00058 1.00435 0.98992
1.00043 1.0036 0.990411
1.00034 1.00377 0.990403
1.00038 1.00391 0.990262
1.00043 1.00389 0.990339
1.00005 1.00464 0.990307
0.99479 0.996448 0.877564
0.994794 0.994762 0.881526
0.994818 0.994772 0.891855
0.99484 0.994801 0.872346
0.995019 0.999904 0.893872
0.99502 0.998031 0.961701
0.994902 0.999948 0.949535
0.995257 0.996388 0.964008
0.994914 0.999333 0.950214
0.994849 0.999972 0.900974
0.994799 0.996402 0.858426
0.994881 0.99522 0.968866
0.994906 0.999995 0.950086
0.995304 0.999865 0.907079
0.99469 0.996298 0.864089
0.99863 1.00391 0.992967
0.999657 1.00482 0.9907
1.00022 1.00436 0.990059
0.995029 1.00131 0.9862
0.995278 1.00423 0.998579
0.999423 1.00423 0.991497
0.997103 1.0052 0.9938
0.99753 1.00438 0.994721
0.996296 1.0037 0.997485
0.994917 0.999419 0.988646
0.995978 1.002 0.998818
0.995962 0.999793 0.990131
0.99484 0.995681 0.891369
0.99473 0.994775 0.905465
0.994753 0.99475 0.913853
0.994995 1.0027 0.995463
0.994966 1.00083 0.969847
0.994757 0.994822 0.900589
0.995779 0.999964 0.947443
0.99496 0.99991 0.907475
0.994784 0.996163 0.877072
0.994701 0.996548 0.843281
0.995522 1.00474 0.989606
0.994814 0.99516 0.887162
0.994677 0.996085 0.86182
0.99497 1 0.966875
0.998381 0.999047 0.902133
0.995923 0.999922 0.943396
0.995022 1.00471 0.986929
0.994687 0.994835 0.870483
0.999794 0.997301 0.907281
0.99755 0.998616 0.93945
0.99485 0.9974 0.968873
0.995545 1.00461 0.997994
0.996937 1.00115 0.998744
1.00086 1.00227 0.992819
0.997158 1.00109 0.996689
1.0015 0.999647 0.992262
1.00369 0.999385 0.988708
1.00281 1.00336 0.98738
1.00311 1.00419 0.984473
1.00432 1.00176 0.984724
1.00476 1.00391 0.982732
1.00433 1.00402 0.982704
1.00475 1.00108 0.985067
1.00514 0.999114 0.986292
1.00509 1.00058 0.984946
1.00489 1.00111 0.984797
1.00507 1.0015 0.984434
1.00504 1.00131 0.984502
1.00475 1.0021 0.984056
1.00403 1.00242 0.985475
1.00416 1.00162 0.985582
1.00436 1.00165 0.985424
1.0017 1.00412 0.987578
1.00247 1.00367 0.986777
1.00314 1.00246 0.986719
1.00006 1.00422 0.990186
1.00062 1.00494 0.988784
1.00081 1.00464 0.988912
0.999849 0.999686 0.995951
1.00014 1.00285 0.991704
1.00037 1.00444 0.990013
0.999688 0.997697 0.997769
0.999916 0.999227 0.995975
1.00024 1.00185 0.992541
0.999996 0.998902 0.99585
0.999753 0.997479 0.99908
0.999822 0.997296 0.999101
1.00023 1.00436 0.990038
1.00042 1.00356 0.990588
1.00027 1.00416 0.99009
1.00036 1.00181 0.992348
1.00037 1.00323 0.990955
1.00015 0.99888 0.995603
1.00033 1.00143 0.992764
1.00045 1.00274 0.991348
0.999995 0.997084 0.999071
1.00017 0.998544 0.995887
1.00027 1.00111 0.993189
1.00002 0.996871 0.99915
1.00016 0.998285 0.996172
1.00003 0.996689 0.999217
0.994822 0.994824 0.893553
0.994744 0.994793 0.898607
0.994747 0.994802 0.905852
1.00055 1.00315 0.990506
1.00035 1.00402 0.990242
1.00041 1.00401 0.989913
1.00034 1.00435 0.989905
1.00057 1.00346 0.990323
1.00043 1.00414 0.990204
1.001 1.00387 0.989242
0.999686 1.00477 0.990106
1.00044 1.00382 0.990269
1.00014 1.00397 0.990382
0.999904 1.00455 0.99029
0.99929 1.00497 0.991643
0.994921 0.996163 0.86508
0.994839 0.99638 0.877218
0.994781 0.994763 0.881652
0.994785 0.995968 0.865496
0.994844 0.999956 0.900794
0.995006 0.99973 0.940638
0.995147 0.996156 0.962803
0.994859 0.995289 0.970391
0.994709 0.996486 0.853383
0.994886 0.999662 0.944749
0.996854 0.999921 0.895301
0.99486 0.996174 0.971173
0.995113 0.999957 0.95034
0.999001 0.998554 0.897908
0.999144 1.00149 0.995185
0.998788 1.00398 0.992925
0.999545 1.00475 0.990638
0.994872 0.999765 0.988858
0.995599 1.00332 0.997563
0.997519 1.00404 0.994735
0.997126 1.00186 0.998679
0.995478 0.999617 0.990236
0.996943 0.998591 0.993486
0.994751 0.996712 0.874758
0.994836 0.995287 0.894639
0.994737 0.994763 0.906357
0.995365 1.00469 0.98993
0.994863 0.999994 0.966937
0.994805 0.995549 0.88716
0.994962 0.99995 0.940649
0.998361 0.997778 0.89061
0.994702 0.996054 0.867781
0.994979 1.00475 0.986926
0.994699 0.995186 0.877252
0.999824 0.996151 0.896501
0.994973 0.997046 0.964971
0.997425 0.99894 0.948337
0.996164 1.00279 0.990995
0.999838 0.995432 0.895452
1.00001 0.99729 0.949014
0.99488 0.995381 0.964363
0.9967 1.00114 0.99878
1.00012 1.00165 0.992919
1.00284 1.00228 0.98873
1.00041 1.00016 0.992472
1.00307 1.00005 0.988669
1.00449 0.998527 0.98787
1.00317 1.00409 0.984472
1.00421 1.00183 0.984702
1.00498 0.997745 0.987399
1.00437 1.0036 0.982802
1.00467 1.00089 0.985113
1.0051 0.997377 0.987959
1.00512 0.997311 0.988206
1.00517 0.99934 0.986058
1.00513 0.998981 0.986435
1.00511 1.00073 0.98485
1.00508 1.00059 0.985021
1.00485 1.00101 0.984883
1.00497 1.00126 0.984896
1.00497 1.00144 0.984549
1.00502 1.00131 0.984483
1.00317 1.00294 0.986306
1.00398 1.0024 0.985465
1.00418 1.00163 0.985685
1.00075 1.00481 0.988631
1.0018 1.00419 0.98755
1.00226 1.00358 0.986957
0.999786 1.00055 0.99445
1.00031 1.00406 0.990188
1.00082 1.00493 0.988798
0.999604 0.998004 0.998981
0.999837 0.999786 0.995223
1.00022 1.00284 0.99168
0.999695 0.997686 0.999047
0.999889 0.999302 0.995644
0.999752 0.99753 0.999071
1.00075 1.0038 0.989791
1.00029 1.00434 0.989984
1.00045 1.00391 0.99019
1.0003 1.00229 0.991975
1.00038 1.00358 0.990581
1.00031 1.00411 0.990051
1.00013 0.999188 0.995333
1.00033 1.00185 0.992353
1.0003 1.00334 0.990949
0.99996 0.997308 0.999004
1.00015 0.998837 0.995617
1.00033 1.00143 0.992768
0.999996 0.997046 0.999089
1.00017 0.998528 0.995903
1.00002 0.996829 0.999168
0.995025 0.995737 0.864471
0.99489 0.994813 0.893479
0.994752 0.9948 0.898424
1.00038 1.00346 0.990444
1.0016 1.00314 0.989985
1.00061 1.00359 0.990069
1.00037 1.00446 0.989877
1.00087 1.00332 0.990376
1.00012 1.00384 0.990487
0.999916 1.00479 0.990014
1.00076 1.00403 0.989396
1.00051 1.00467 0.989336
0.999948 1.00074 0.993768
1.00013 1.00449 0.990273
0.999385 1.0048 0.99131
0.999796 0.997296 0.891168
0.994835 0.996146 0.859433
0.994997 0.996437 0.876983
0.994721 0.996771 0.842344
0.996493 0.999137 0.907284
0.994842 0.999943 0.942216
0.994913 0.995517 0.968127
0.994908 0.996109 0.96988
0.99838 0.99942 0.900528
0.995986 0.999914 0.941012
0.994894 0.997453 0.971386
0.998425 0.998838 0.939281
1.00179 0.997735 0.994664
0.99906 1.00169 0.995054
0.998929 1.00408 0.992896
0.994993 0.999448 0.990295
0.998051 1.00174 0.998527
0.997524 0.998716 0.99306
0.998792 0.998121 0.99083
0.999857 0.994856 0.90485
0.994743 0.996147 0.874531
0.994828 0.994825 0.897812
0.994962 1.00492 0.987101
0.994933 0.996823 0.962902
0.994695 0.995467 0.877406
0.998609 0.998418 0.938431
0.999837 0.996487 0.908058
0.995737 1.0022 0.988646
0.999857 0.995268 0.90258
1.00147 0.996935 0.938316
0.994924 0.995412 0.967774
0.998208 0.997499 0.990792
1.00002 0.995628 0.949857
0.996229 0.995702 0.970214
0.999412 1.00076 0.992947
1.00269 1.00047 0.988724
1.00487 0.998249 0.988734
1.00244 1.00074 0.988637
1.00421 0.998722 0.987889
1.00491 0.996294 0.989211
1.00421 1.00186 0.984681
1.00493 0.998071 0.987317
1.00511 0.99567 0.989525
1.00462 1.00071 0.985159
1.0051 0.997399 0.98794
1.00512 0.99579 0.989638
1.00512 0.996372 0.989435
1.00513 0.997128 0.988424
1.00513 0.997975 0.987722
1.00517 0.99978 0.985845
1.00516 0.999413 0.98611
1.00513 0.998848 0.986578
1.00516 1.00077 0.984982
1.00512 1.00073 0.984831
1.00508 1.00059 0.985095
1.00434 1.00173 0.985488
1.00486 1.00135 0.984901
1.00483 1.00144 0.984665
1.00173 1.00409 0.987692
1.00321 1.00298 0.986296
1.00394 1.00238 0.985455
0.99998 1.00144 0.993183
1.00089 1.00457 0.988636
1.00196 1.00417 0.987524
0.999658 0.998332 0.998819
0.99982 1.00064 0.994393
1.00051 1.00396 0.990191
0.999647 0.998027 0.998274
0.999831 0.999876 0.995208
0.999711 0.997763 0.999013
1.00116 1.00301 0.98986
1.00045 1.00396 0.989916
1.00037 1.00431 0.989771
1.00039 1.00432 0.98993
1.00035 1.00401 0.990186
1.00029 1.00272 0.991565
1.00006 0.99956 0.995084
1.0003 1.00227 0.991978
1.0003 1.00367 0.990574
0.999911 0.997536 0.998931
1.00011 0.999178 0.995345
1.00031 1.00187 0.992357
0.999961 0.997264 0.999025
1.00016 0.998807 0.995631
0.999998 0.997027 0.999108
0.999822 0.994951 0.903273
0.994826 0.995704 0.86763
0.994833 0.994799 0.893374
1.00023 1.00384 0.990381
1.00059 1.00425 0.98942
1.00121 1.00303 0.990256
1.00276 1.00332 0.986854
1.00055 1.00413 0.989867
1.00008 1.00485 0.989924
1.00061 1.00422 0.989551
1.00027 1.00462 0.989589
1.00108 1.00335 0.988655
1.00143 0.999729 0.99279
1.00417 0.996878 0.990372
1.00025 1.00036 0.993831
0.999872 1.00405 0.990974
0.998699 0.997304 0.948718
0.999783 0.997664 0.896025
0.994676 0.996067 0.86167
0.998919 0.999714 0.888443
0.995484 0.999955 0.947787
0.994864 0.996043 0.970948
0.994881 0.997416 0.973101
0.997418 0.998837 0.94999
0.995875 0.99721 0.972535
1.00207 0.996042 0.994943
1.00109 0.998464 0.994734
0.999019 1.00197 0.994915
0.998279 0.998383 0.992728
0.999254 0.997993 0.990648
0.999986 0.99494 0.943862
0.999847 0.994884 0.908655
0.994728 0.995658 0.874417
0.995127 1.00208 0.986233
0.995062 0.995057 0.964648
0.99985 0.995445 0.903252
1.00041 0.997338 0.947936
0.997263 0.998703 0.991206
1.00117 0.995755 0.948047
0.996685 0.995142 0.967283
1.0014 0.99628 0.989949
0.999076 0.995508 0.976452
1.00253 0.998888 0.988802
1.00479 0.997117 0.988684
1.00501 0.995898 0.99024
1.0039 0.998908 0.987906
1.00474 0.996485 0.989134
1.00518 0.994961 0.990153
1.00481 0.998404 0.987236
1.0051 0.995738 0.989475
1.00509 0.995003 0.990419
1.0051 0.997414 0.98792
1.00513 0.995826 0.98959
1.00515 0.995399 0.990199
1.00511 0.996134 0.989568
1.00511 0.996882 0.988911
1.00515 0.996943 0.988643
1.00513 0.997986 0.9877
1.00517 0.998824 0.986843
1.0052 1.00022 0.985468
1.00517 0.999824 0.985824
1.00515 0.999482 0.986163
1.00492 1.00075 0.985377
1.00512 1.00079 0.984938
1.00513 1.00073 0.984811
1.00284 1.00263 0.987176
1.0043 1.00182 0.985493
1.00473 1.00145 0.984907
1.00042 1.00187 0.992003
1.00178 1.00399 0.987682
1.00315 1.00314 0.986285
0.999786 0.998898 0.998514
1.00006 1.00146 0.993157
1.00109 1.00433 0.988641
0.999728 0.998454 0.998724
0.999871 1.00072 0.994335
0.999718 0.998068 0.998886
1.00275 1.00319 0.9869
1.00125 1.00285 0.989828
1.00057 1.00418 0.989385
1.00019 1.00407 0.990041
1.00032 1.00435 0.989741
1.00032 1.00322 0.991003
1.00026 1.00409 0.990182
1.00026 1.00273 0.991572
0.999987 0.999933 0.994842
0.999842 0.997824 0.998864
1.00005 0.999526 0.995096
1.0003 1.00224 0.991982
0.999914 0.997519 0.998954
1.0001 0.999166 0.995357
0.999966 0.997219 0.999045
1.00003 0.995296 0.952655
0.999843 0.994879 0.902349
0.994706 0.995669 0.863963
1.00058 1.00484 0.988772
1.0009 1.00285 0.990528
1.00085 1.00396 0.989711
1.00269 1.00334 0.987029
1.00412 1.00255 0.984582
1.00135 1.00357 0.988285
1.00001 1.00462 0.989839
1.00185 1.00324 0.987841
1.00117 0.999787 0.992858
1.00309 0.999805 0.988937
1.00477 0.995975 0.990881
1.00403 0.99643 0.991092
1.00371 0.996837 0.990917
1 1.00045 0.993897
0.995987 0.995885 0.971778
1.00002 0.997161 0.945675
0.998089 0.997307 0.907118
0.997625 0.999427 0.939271
0.994865 0.997802 0.973684
0.995741 0.997486 0.977445
0.999609 0.997646 0.992251
1.00243 0.995711 0.994821
1.00065 0.99903 0.994805
1.00056 0.998307 0.990453
0.996456 0.997456 0.972589
1.00021 0.995003 0.953829
0.999831 0.994876 0.897658
0.99653 0.999408 0.991442
0.996869 0.99489 0.969166
1.00004 0.996549 0.946025
1.00088 0.996242 0.99005
0.998449 0.995746 0.97585
1.00364 0.995562 0.990719
1.00269 0.998289 0.987117
1.0047 0.996063 0.9886
1.00487 0.995712 0.990263
1.00518 0.994853 0.99059
1.00461 0.996664 0.989057
1.00518 0.994961 0.990109
1.00513 0.994939 0.990509
1.00509 0.995811 0.989424
1.00507 0.995083 0.990387
1.00516 0.995053 0.990466
1.00513 0.995867 0.989543
1.00514 0.995388 0.990132
1.00512 0.995917 0.98967
1.00511 0.995902 0.989698
1.00512 0.996738 0.989053
1.00516 0.998078 0.987716
1.00514 0.997998 0.987677
1.00517 0.998877 0.986816
1.0052 0.999652 0.986132
1.00511 1.00027 0.985507
1.0052 1.00027 0.985422
1.00517 0.999872 0.985802
1.00375 1.00123 0.986994
1.00491 1.0008 0.985385
1.00509 1.00083 0.984893
1.00085 1.00191 0.991214
1.00281 1.00269 0.98718
1.00428 1.00189 0.985497
1.00001 0.999451 0.998115
1.00052 1.00181 0.991993
1.00184 1.00388 0.987671
0.999898 0.99901 0.998364
1.00012 1.00148 0.993131
0.999821 0.998535 0.998606
1.00421 1.00251 0.98504
1.0029 1.00317 0.986916
1.00176 1.0041 0.987498
1.00125 1.00279 0.989797
1.00069 1.0041 0.989255
1.00064 1.00353 0.990204
1.00025 1.00439 0.98971
1.00029 1.00324 0.991007
0.999912 1.00039 0.994524
1.00024 1.00273 0.991579
0.999978 0.999895 0.994858
0.999767 0.998116 0.998796
0.999848 0.997773 0.998886
1.00005 0.999496 0.995107
0.999913 0.997465 0.998977
0.996822 0.994877 0.973342
1.00004 0.995589 0.94292
0.999828 0.995243 0.91026
1.00512 1.0009 0.984602
1.00115 1.00377 0.989554
1.00265 1.00338 0.987207
1.00178 1.00346 0.988035
1.00424 1.0027 0.984559
1.00376 1.0008 0.987013
1.00257 1.00322 0.98703
1.0009 0.999817 0.992931
1.00348 0.999629 0.988794
1.00471 0.995853 0.990536
1.00483 0.996346 0.989252
1.00414 0.995542 0.992038
1.00393 0.99605 0.991057
1.00323 0.996742 0.991462
0.999886 0.996981 0.992124
0.995785 0.995665 0.970056
0.999388 0.996422 0.94322
0.995337 0.99718 0.976068
0.999804 0.996758 0.99434
1.00219 0.995359 0.994687
1.00053 0.997591 0.986406
0.996382 0.996141 0.973975
0.999994 0.994886 0.943975
1.00001 0.99672 0.990225
0.998443 0.996136 0.974753
1.00316 0.995514 0.991061
1.00278 0.997693 0.98759
1.00442 0.994858 0.991181
1.00457 0.997543 0.990671
1.00475 0.995507 0.990285
1.00518 0.994861 0.990476
1.00521 0.994856 0.9904
1.00518 0.994981 0.990066
1.00512 0.994935 0.990503
1.00517 0.994937 0.990513
1.00506 0.995164 0.990355
1.00516 0.995023 0.990439
1.00515 0.99549 0.990094
1.00513 0.995369 0.990065
1.00513 0.995928 0.989655
1.00515 0.997159 0.988567
1.00512 0.996594 0.989195
1.00516 0.997935 0.987894
1.0052 0.999179 0.986597
1.00517 0.998929 0.98679
1.0052 0.999661 0.98611
1.00516 1.0001 0.985673
1.00415 1.00049 0.986999
1.00508 1.00034 0.985507
1.00519 1.00033 0.985375
1.00137 1.00138 0.990901
1.00369 1.00129 0.986999
1.00489 1.00085 0.985393
1.00015 0.999912 0.997791
1.00104 1.00168 0.991208
1.00277 1.00271 0.987186
1.0001 0.999548 0.997985
1.00065 1.0017 0.991989
1.00001 0.99912 0.998213
1.00508 1.00121 0.984616
1.00419 1.00244 0.985043
1.0034 1.00299 0.985905
1.00305 1.00315 0.986932
1.00187 1.00414 0.987443
1.00102 1.00417 0.989003
1.00084 1.00402 0.989122
1.00046 1.00375 0.99021
0.999897 1.00094 0.993997
1.00023 1.00328 0.991013
0.999901 1.00033 0.994546
0.999709 0.998454 0.998697
0.99997 0.999859 0.994874
0.999771 0.998065 0.998821
0.999853 0.997746 0.998907
1.00102 0.994885 0.990367
0.996718 0.994884 0.969952
0.999995 0.994911 0.953147
1.00491 0.999754 0.986105
1.00516 0.999341 0.986298
1.00509 1.00082 0.984758
1.0022 1.00329 0.98778
1.00436 1.00286 0.984532
1.00395 1.00062 0.987062
1.00504 0.997261 0.988022
1.00389 0.99944 0.98865
1.00458 0.995798 0.990183
1.00485 0.996451 0.989452
1.005 0.995496 0.989973
1.00413 0.995428 0.991729
1.00383 0.99573 0.991927
1.00407 0.995758 0.991015
1.00017 0.996807 0.992251
0.995934 0.995575 0.968323
1.00014 0.996502 0.996509
1.00419 0.995569 0.991874
1.00045 0.997684 0.986596
0.99628 0.995825 0.971741
1.00302 0.99488 0.991376
1.00282 0.997513 0.988098
1.00448 0.994983 0.991552
1.00459 0.996755 0.990643
1.00524 0.994935 0.990422
1.00529 0.994974 0.990624
1.00519 0.994866 0.990365
1.00522 0.994879 0.990381
1.0052 0.994929 0.990405
1.00511 0.994931 0.990496
1.00517 0.99494 0.990502
1.00518 0.995138 0.990391
1.00515 0.994994 0.990413
1.00515 0.995484 0.990079
1.00515 0.996508 0.98921
1.00515 0.995941 0.989639
1.00515 0.997178 0.988568
1.00521 0.998692 0.987028
1.00516 0.99779 0.988072
1.0052 0.999123 0.986662
1.00519 0.999942 0.985795
1.0052 0.999671 0.986088
1.00515 1.00008 0.985699
1.00433 1.00018 0.987013
1.00165 1.00077 0.990969
1.00415 1.00052 0.986989
1.00505 1.00041 0.985507
1.00024 1.00023 0.997582
1.00142 1.0013 0.990899
1.00361 1.0014 0.987005
1.00021 1.00001 0.997697
1.00114 1.00157 0.991205
1.00017 0.999667 0.99786
1.00515 1.00026 0.985379
1.00508 1.00111 0.984662
1.00461 1.00126 0.985454
1.00418 1.00235 0.985048
1.00338 1.00302 0.985917
1.00191 1.00376 0.987739
1.00194 1.0042 0.987389
1.00083 1.00428 0.989026
1.0001 1.00166 0.993014
1.00031 1.00394 0.990218
0.999871 1.0009 0.994022
0.999704 0.998892 0.998517
0.999894 1.00028 0.994569
0.9997 0.998384 0.998738
0.999775 0.998013 0.998843
1.00408 0.994858 0.992532
1.00099 0.99492 0.988611
0.996566 0.994889 0.969331
1.00512 0.998465 0.987326
1.00503 0.999335 0.986315
1.00522 0.998025 0.987522
1.00517 0.999308 0.986303
1.00505 1.00073 0.984915
1.00513 0.99639 0.98888
1.00418 1.00044 0.987111
1.00502 0.9975 0.988015
1.00516 0.995089 0.990147
1.00489 0.996523 0.989656
1.00496 0.995604 0.989857
1.00416 0.995514 0.991863
1.00335 0.99588 0.991808
1.00043 0.996542 0.99229
1.00525 0.994898 0.99048
1.00415 0.996281 0.991948
1.00048 0.997401 0.986775
1.00452 0.995162 0.991914
1.0046 0.996034 0.990619
1.00523 0.994924 0.990465
1.00528 0.995027 0.990546
1.00523 0.994946 0.990617
1.00522 0.994902 0.990364
1.0052 0.994926 0.990422
1.00519 0.994954 0.990594
1.00517 0.994942 0.990492
1.00517 0.99514 0.99036
1.00516 0.995968 0.989707
1.00516 0.99549 0.990065
1.00515 0.996533 0.989206
1.00522 0.99822 0.987499
1.00514 0.997197 0.988568
1.00521 0.998698 0.987049
1.0052 0.999795 0.985939
1.0052 0.999065 0.986727
1.00518 0.999939 0.985814
1.00439 1.0001 0.987007
1.00515 1.00006 0.985725
1.00433 1.00019 0.987007
1.00172 1.00038 0.992608
1.00046 1.00007 0.994723
1.0017 1.00073 0.991672
1.00414 1.00056 0.986979
1.00027 1.00028 0.997543
1.00155 1.00112 0.990894
1.00026 1.00011 0.997612
1.00524 0.997921 0.987692
1.00521 0.999322 0.986314
1.00517 1.00027 0.985477
1.00491 1.00049 0.985651
1.00508 1.00104 0.984706
1.00467 1.00118 0.985436
1.0031 1.00221 0.987104
1.00338 1.00302 0.985928
1.00186 1.00381 0.987737
1.00059 1.00203 0.991753
1.00067 1.00449 0.989048
0.999984 1.00167 0.993045
0.999802 0.999505 0.998156
0.999846 1.00085 0.994045
0.999664 0.998784 0.998593
0.999698 0.998319 0.998772
1.00523 0.994862 0.990451
1.00443 0.994854 0.992445
1.00116 0.994902 0.986902
1.00515 0.996992 0.98841
1.00513 0.998401 0.98717
1.00512 0.998939 0.986521
1.0052 0.99816 0.987483
1.00518 0.999273 0.986307
1.00522 0.99545 0.990031
1.0051 0.996387 0.988843
1.005 0.997757 0.988007
1.00517 0.995057 0.990153
1.00497 0.995699 0.98974
1.00417 0.995631 0.992019
1.00522 0.994904 0.990722
1.00524 0.9949 0.990648
1.00409 0.997007 0.992028
1.00523 0.994914 0.990501
1.00529 0.994966 0.990471
1.00523 0.994947 0.990564
1.00517 0.994942 0.990838
1.0052 0.994924 0.990439
1.00518 0.994944 0.990561
1.00516 0.995573 0.990128
1.00516 0.995131 0.99033
1.00517 0.99599 0.989706
1.00522 0.997857 0.987879
1.00515 0.99656 0.989203
1.00522 0.998226 0.987511
1.00522 0.99963 0.986107
1.0052 0.998704 0.98707
1.0052 0.999786 0.985957
1.00443 1.00008 0.986953
1.00518 0.999936 0.985833
1.0044 1.00009 0.98701
1.00183 1.0001 0.99273
1.00434 1.00019 0.987001
1.00188 1.00029 0.992533
1.00045 0.999982 0.994888
1.00025 1.00032 0.996151
1.00187 1.00066 0.992245
1.00027 1.00036 0.997516
1.00518 0.997266 0.988467
1.00524 0.99894 0.986602
1.00523 0.997728 0.987881
1.00507 1.00007 0.985759
1.00523 0.999402 0.986258
1.00518 1.00029 0.985573
1.00497 1.00044 0.985625
1.00391 1.0009 0.986984
1.00473 1.00111 0.985418
1.00318 1.00211 0.987084
1.00114 1.00179 0.990964
1.00179 1.00381 0.987736
1.00041 1.00221 0.991773
0.99995 1.00026 0.997738
0.999849 1.00175 0.993073
0.999701 0.999393 0.998308
0.999645 0.998683 0.998657
1.00522 0.994906 0.990486
1.00522 0.994862 0.990435
1.00471 0.99487 0.992326
1.00518 0.99609 0.989501
1.00514 0.997068 0.988393
1.00514 0.998339 0.987017
1.00519 0.998295 0.987445
1.00521 0.995461 0.989957
1.00508 0.996392 0.988805
1.00516 0.995041 0.99016
1.00516 0.994917 0.990866
1.00521 0.994907 0.990714
1.00523 0.994907 0.990816
1.00521 0.994949 0.990789
1.00523 0.994946 0.990511
1.00517 0.994943 0.990802
1.00517 0.99543 0.99042
1.00518 0.994934 0.990528
1.00517 0.995598 0.990129
1.0052 0.99765 0.988163
1.00518 0.996015 0.989705
1.00522 0.99786 0.987887
1.00522 0.999435 0.986325
1.00522 0.998232 0.987523
1.00522 0.999617 0.986121
1.00446 1.00007 0.986915
1.0052 0.999776 0.985974
1.00444 1.00007 0.986962
1.0019 1.00005 0.992675
1.00441 1.00007 0.987012
1.00196 1.00005 0.992625
1.0005 0.999885 0.994927
1.00203 1.00019 0.992466
1.00015 1.00014 0.995077
0.999815 1.00061 0.997843
1.00517 0.997185 0.988468
1.00522 0.998385 0.987298
1.00519 0.997322 0.988323
1.00523 0.999774 0.986061
1.00525 0.998738 0.98678
1.00522 0.997539 0.988068
1.0043 1.00023 0.986987
1.00512 1.00005 0.98573
1.00524 0.99948 0.986201
1.00504 1.00038 0.985601
1.00395 1.00084 0.986991
1.00148 1.00124 0.990873
1.00325 1.00199 0.987064
1.00102 1.00192 0.990971
1 1.00076 0.997529
1.00026 1.00232 0.991797
0.999841 1.0001 0.997896
0.999632 0.999217 0.998436
1.00516 0.995363 0.99033
1.00523 0.994902 0.990491
1.00522 0.994857 0.99042
1.00518 0.996003 0.989588
1.00512 0.997138 0.988377
1.0052 0.995466 0.989884
1.00521 0.994925 0.990828
1.00516 0.994925 0.990879
1.00522 0.99491 0.990706
1.00521 0.994947 0.990836
1.00521 0.995678 0.990095
1.00517 0.994947 0.990766
1.00517 0.995585 0.990239
1.00519 0.997241 0.988694
1.00518 0.995619 0.990129
1.0052 0.997623 0.988169
1.00521 0.999221 0.986558
1.00522 0.997852 0.987895
1.00522 0.999421 0.986334
1.00449 1.00001 0.986936
1.00522 0.999605 0.986135
1.00447 1.00006 0.986926
1.00194 1.00011 0.992519
1.00445 1.00006 0.986971
1.00202 1 0.99255
1.00056 0.999887 0.994834
1.00208 1 0.99253
1.00023 0.999936 0.995139
0.999861 1.00033 0.995249
1.00517 0.996521 0.989265
1.00521 0.998208 0.987483
1.00518 0.996994 0.98863
1.00523 0.999333 0.986497
1.00522 0.99848 0.987185
1.00519 0.997378 0.988179
1.00446 0.999917 0.987051
1.00523 0.999647 0.986063
1.00526 0.998539 0.986958
1.00167 1.00064 0.991093
1.00431 1.00021 0.986999
1.00518 1.00004 0.985699
1.00399 1.0008 0.986999
1.00141 1.00132 0.990877
1.00003 1.00087 0.99751
1.00091 1.00206 0.99098
0.99998 1.00061 0.99759
0.999725 0.999938 0.99806
1.00519 0.995141 0.990537
1.00516 0.995399 0.990273
1.00523 0.9949 0.990496
1.00518 0.995921 0.989674
1.00519 0.99579 0.990029
1.00521 0.994931 0.990842
1.00516 0.994933 0.990893
1.0052 0.994944 0.990883
1.00521 0.995651 0.990118
1.0052 0.997288 0.988632
1.00517 0.995734 0.990057
1.00519 0.99746 0.988404
1.00521 0.998826 0.987001
1.00519 0.997606 0.988174
1.00521 0.999216 0.986562
1.00449 0.999915 0.987005
1.00521 0.999416 0.986342
1.00449 1 0.986945
1.00201 1.00018 0.991018
1.00447 1.00006 0.986938
1.00206 1.00008 0.991719
1.00048 0.999942 0.997518
1.00214 0.999974 0.992427
1.00032 0.999875 0.995059
0.999982 0.999982 0.995335
1.00518 0.996072 0.989732
1.00521 0.997858 0.987928
1.00517 0.99659 0.989228
1.00523 0.999085 0.986614
1.00521 0.998215 0.987473
1.00518 0.9968 0.988792
1.0045 0.999708 0.986994
1.00524 0.999335 0.986505
1.00522 0.998573 0.987073
1.00184 1.00011 0.991312
1.00445 0.99987 0.986985
1.00523 0.999512 0.986066
1.00012 1.00067 0.997572
1.00166 1.00064 0.9911
1.00432 1.00018 0.987012
1.00135 1.00138 0.990883
1.00004 1.00078 0.997505
0.999901 1.00052 0.997677
1.00517 0.99573 0.990125
1.0052 0.995197 0.990505
1.00516 0.995436 0.990215
1.00516 0.997365 0.988534
1.00519 0.995668 0.990119
1.00521 0.994939 0.990855
1.00521 0.995618 0.990141
1.0052 0.99725 0.988642
1.00518 0.998759 0.987261
1.00519 0.997683 0.988114
1.00521 0.99899 0.986883
1.00449 0.999696 0.987094
1.00521 0.999203 0.986567
1.0045 0.999913 0.98701
1.00202 1.00014 0.991032
1.00449 1 0.986954
1.00202 1.00016 0.991019
1.00047 0.999986 0.997486
1.00209 1.00007 0.991021
1.00037 0.999938 0.996266
1.00008 0.999842 0.995281
1.00518 0.996181 0.989591
1.00521 0.997683 0.988117
1.00519 0.99604 0.989791
1.00522 0.999126 0.986579
1.00522 0.997915 0.987847
1.00517 0.996662 0.989192
1.00453 0.99963 0.987054
1.00523 0.999215 0.98656
1.00521 0.998223 0.987462
1.00196 0.999876 0.991338
1.00449 0.999705 0.986999
1.00524 0.999339 0.986513
1.00028 1.00031 0.997606
1.00185 1.00009 0.991314
1.00444 0.999823 0.986916
1.00013 1.00063 0.997542
1.00166 1.00064 0.991105
1.00001 1.00074 0.997516
1.00517 0.99722 0.988693
1.00516 0.995816 0.990014
1.00521 0.995251 0.990473
1.00517 0.998651 0.987391
1.00516 0.997265 0.988633
1.00519 0.995553 0.99021
1.0052 0.997212 0.988652
1.00518 0.998764 0.987257
1.00445 0.999598 0.987274
1.00521 0.999157 0.986764
1.0045 0.999756 0.987093
1.00204 1.00005 0.991101
1.0045 0.999908 0.987015
1.00201 1.00015 0.991034
1.00045 1.00001 0.997452
1.00202 1.00015 0.991018
1.00046 0.999999 0.997468
1.00045 0.999898 0.994808
1.00521 0.997575 0.988189
1.00517 0.996003 0.989763
1.00522 0.998998 0.986748
1.00521 0.997689 0.988102
1.00519 0.996007 0.98985
1.00451 0.999687 0.987207
1.00522 0.999135 0.986574
1.00522 0.997969 0.987766
1.00205 0.999857 0.991227
1.00452 0.999678 0.987088
1.00522 0.999348 0.986506
1.00044 1.00005 0.997563
1.00197 0.999869 0.991339
1.00448 0.999696 0.987003
1.00026 1.00033 0.997596
1.00187 1.00008 0.991316
1.00013 1.00061 0.997521
1.00519 0.998634 0.987355
1.00517 0.997303 0.988595
1.00515 0.995909 0.989903
1.00441 0.999549 0.987387
1.00517 0.998655 0.98739
1.00516 0.997162 0.988732
1.00518 0.998771 0.987252
1.00446 0.999589 0.98725
1.00199 1.00001 0.991226
1.0045 0.999816 0.987091
1.00202 1.00006 0.991105
1.00047 1.00001 0.997444
1.00202 1.00014 0.991037
1.00046 1.00003 0.997452
1.00047 1.00001 0.997456
1.00521 0.998883 0.986881
1.00521 0.997346 0.988438
1.00515 0.995825 0.989936
1.00448 0.999668 0.987304
1.00521 0.999006 0.986737
1.00522 0.997696 0.988087
1.00205 0.999944 0.991157
1.0045 0.999692 0.987201
1.00521 0.999143 0.98657
1.00051 0.999948 0.997492
1.00205 0.999873 0.991227
1.00451 0.999719 0.987124
1.0004 1.00009 0.997583
1.00198 0.999878 0.991341
1.00027 1.00032 0.997575
1.00441 0.999646 0.987436
1.00519 0.998574 0.987349
1.00517 0.997385 0.988497
1.00195 0.999946 0.991368
1.00442 0.999532 0.987375
1.00517 0.998657 0.987389
1.00448 0.999575 0.987226
1.00199 0.999989 0.991233
1.00046 1.00001 0.997441
1.002 1.00007 0.991109
1.00046 1.00002 0.997438
1.00044 1.00004 0.99745
1.00444 0.999651 0.987389
1.00521 0.998747 0.987026
1.00521 0.997118 0.988687
1.0021 0.999997 0.992433
1.00446 0.999668 0.987305
1.00521 0.999016 0.986726
1.0005 0.999955 0.997451
1.00205 0.999964 0.991157
1.00449 0.999698 0.987195
1.00049 0.999978 0.99752
1.00205 0.999898 0.991228
1.00038 1.0001 0.997598
1.002 0.999949 0.991312
1.00441 0.999582 0.987415
1.00519 0.998512 0.987342
1.0004 0.999993 0.99748
1.00194 0.999947 0.991366
1.00443 0.999517 0.987363
1.00198 0.999973 0.991236
1.00044 1.00001 0.997452
1.00046 1.00003 0.997438
1.00213 0.999976 0.992464
1.00443 0.999649 0.987389
1.0052 0.998608 0.987171
1.0001 0.999993 0.997836
1.00201 1 0.991203
1.00446 0.999665 0.987306
1.0005 0.999967 0.997471
1.00205 0.999985 0.991157
1.00048 0.999998 0.997544
1.00039 0.999978 0.994909
1.00203 0.999947 0.991948
1.00441 0.999519 0.987394
1.00042 0.999994 0.997485
1.00194 0.999949 0.991371
1.00045 1 0.997459
1.00001 0.999998 0.995271
1.00205 0.99997 0.991886
1.00443 0.999651 0.987388
1.00026 0.999989 0.996334
1.00201 1 0.991214
1.0005 0.999977 0.997492
1.0004 0.999986 0.997485
1.00193 0.999943 0.991393
1.00039 0.999994 0.997485
1.00022 0.999983 0.996383
1.00197 0.999967 0.991326
1.00047 0.99998 0.997468
1.00041 0.999983 0.997495
1.00041 0.999983 0.997484

TENSORS stress float
0.00178464 -0.000103648 0.000190924
-0.000103648 0.000726599 -2.71944e-05
0.000190924 -2.71944e-05 0.000704634
0.00559548 -8.40093e-05 0.000189122
-8.40093e-05 0.00303021 1.98303e-05
0.000189122 1.98303e-05 0.00301393
0.00154976 -3.4499e-05 8.70656e-05
-3.4499e-05 0.000592186 -1.07566e-05
8.70656e-05 -1.07566e-05 0.00056091
0.00189729 -6.10832e-05 0.000189815
-6.10832e-05 0.000769212 -1.68412e-05
0.000189815 -1.68412e-05 0.000751859
0.00185179 -9.26975e-05 0.000187001
-9.26975e-05 0.000757873 -2.44105e-05
0.000187001 -2.44105e-05 0.000737932
0.00172084 -0.000100751 0.000195524
-0.000100751 0.000688369 -2.71462e-05
0.000195524 -2.71462e-05 0.000667802
0.00153263 -8.11903e-05 3.13307e-05
-8.11903e-05 0.000500162 -1.01571e-05
3.13307e-05 -1.01571e-05 0.000413388
0.00553421 -8.94392e-05 -7.01788e-06
-8.94392e-05 0.00298276 2.00106e-07
-7.01788e-06 2.00106e-07 0.00297207
0.00552392 8.76276e-05 8.93166e-05
8.76276e-05 0.00294431 5.8924e-06
8.93166e-05 5.8924e-06 0.0029293
0.00529176 -0.0001817 2.55914e-05
-0.0001817 0.00284143 2.66065e-06
2.55914e-05 2.66065e-06 0.00281039
0.00170855 0.000105958 0.00019348
0.000105958 0.00067633 1.90109e-05
0.00019348 1.90109e-05 0.000667606
0.000613653 0.000198357 2.36588e-05
0.000198357 -3.12337e-05 1.47881e-05
2.36588e-05 1.47881e-05 -0.00012839
0.00166354 -3.34906e-05 0.00019786
-3.34906e-05 0.000625515 2.68327e-06
0.00019786 2.68327e-06 0.000618574
0.00129303 -8.91999e-06 3.88283e-05
-8.91999e-06 0.000426842 1.12703e-06
3.88283e-05 1.12703e-06 0.000388737
0.00138052 -2.72544e-05 -3.34473e-05
-2.72544e-05 0.000493942 5.94312e-06
-3.34473e-05 5.94312e-06 0.000455946
0.00159448 -6.482e-05 6.59654e-05
-6.482e-05 0.000602269 -3.78403e-06
6.59654e-05 -3.78403e-06 0.00057386
0.00154119 -1.75822e-05 9.3835e-05
-1.75822e-05 0.000594871 -1.04526e-05
9.3835e-05 -1.04526e-05 0.000559687
0.00156859 -4.94146e-05 7.73686e-05
-4.94146e-05 0.00059207 -9.12128e-06
7.73686e-05 -9.12128e-06 0.000565081
0.00159338 -0.000121472 -3.24578e-05
-0.000121472 0.000528673 3.51587e-06
-3.24578e-05 3.51587e-06 0.000450458
0.00555166 -0.000113667 0.000240249
-0.000113667 0.0029686 -7.59357e-06
0.000240249 -7.59357e-06 0.00297455
0.00186746 -4.26378e-05 0.000191751
-4.26378e-05 0.000749182 -1.25574e-05
0.000191751 -1.25574e-05 0.000732865
0.00189763 -7.86703e-05 0.000187715
-7.86703e-05 0.000775559 -2.08798e-05
0.000187715 -2.08798e-05 0.000757408
0.0015489 -0.00010826 5.25497e-05
-0.00010826 0.000483956 -8.00334e-06
5.25497e-05 -8.00334e-06 0.000406069
0.00153923 -9.44844e-05 4.04579e-05
-9.44844e-05 0.00048717 -9.33989e-06
4.04579e-05 -9.33989e-06 0.000407955
0.00164093 -7.31884e-05 0.000188993
-7.31884e-05 0.000633046 -2.34186e-05
0.000188993 -2.34186e-05 0.000615994
0.00147982 -6.76434e-05 2.38013e-05
-6.76434e-05 0.000489996 -1.09719e-05
2.38013e-05 -1.09719e-05 0.000394261
0.00204615 -0.000228263 1.43898e-05
-0.000228263 0.000660309 -6.41526e-06
1.43898e-05 -6.41526e-06 0.000511238
0.00548822 -0.000104283 -0.000186746
-0.000104283 0.0029466 -1.16693e-05
-0.000186746 -1.16693e-05 0.00294015
0.00356331 8.17421e-05 -0.000109949
8.17421e-05 0.00178051 -9.56264e-06
-0.000109949 -9.56264e-06 0.00176186
0.00344625 -2.67699e-05 -0.000103718
-2.67699e-05 0.00173315 -5.8131e-06
-0.000103718 -5.8131e-06 0.00170919
0.00532651 -0.000149146 1.3442e-06
-0.000149146 0.00287133 3.36021e-07
1.3442e-06 3.36021e-07 0.00285375
0.000574497 0.000185541 -2.3201e-06
0.000185541 -5.4104e-05 -6.75031e-07
-2.3201e-06 -6.75031e-07 -0.000149134
0.00161055 5.51404e-05 0.00019345
5.51404e-05 0.00060411 1.53037e-05
0.00019345 1.53037e-05 0.000588257
0.00176139 0.000130346 0.000196049
0.000130346 0.000718219 2.2968e-05
0.000196049 2.2968e-05 0.000696131
0.00263411 0.00017819 0.000119442
0.00017819 0.00113427 1.54892e-05
0.000119442 1.54892e-05 0.00106696
0.00420259 -0.000281354 -3.546e-06
-0.000281354 0.00223557 5.15164e-06
-3.546e-06 5.15164e-06 0.0021876
0.00271605 0.00022592 0.000119466
0.00022592 0.00121141 1.78696e-05
0.000119466 1.78696e-05 0.00113817
0.000576774 0.000162576 2.74538e-05
0.000162576 -4.75549e-05 1.88252e-05
2.74538e-05 1.88252e-05 -0.000138413
0.000878367 0.000183884 1.0487e-05
0.000183884 3.28342e-05 5.42605e-06
1.0487e-05 5.42605e-06 -0.000133009
0.00334064 -0.000104879 0.000110451
-0.000104879 0.00167896 4.99708e-06
0.000110451 4.99708e-06 0.00168246
0.00556034 6.90298e-05 3.64284e-06
6.90298e-05 0.00296458 -1.40292e-06
3.64284e-06 -1.40292e-06 0.00297565
0.00350663 6.3887e-05 -9.10157e-05
6.3887e-05 0.00174092 -3.40088e-06
-9.10157e-05 -3.40088e-06 0.00172719
0.00546637 6.00551e-05 0.000235725
6.00551e-05 0.00291102 2.81445e-06
0.000235725 2.81445e-06 0.00292212
0.00129626 7.36609e-05 4.21487e-05
7.36609e-05 0.000426546 2.33636e-06
4.21487e-05 2.33636e-06 0.00039315
0.000659615 9.11087e-06 1.61961e-05
9.11087e-06 -7.33245e-05 1.66787e-06
1.61961e-05 1.66787e-06 -0.00014713
0.00543853 0.000193227 0.000122767
0.000193227 0.00291665 1.07957e-05
0.000122767 1.07957e-05 0.0028941
0.0026994 5.89781e-05 0.000116347
5.89781e-05 0.00113987 6.84784e-06
0.000116347 6.84784e-06 0.00108749
0.00122999 -7.38804e-05 -5.27232e-05
-7.38804e-05 0.000400719 6.54485e-06
-5.27232e-05 6.54485e-06 0.000359774
0.00128586 -6.88211e-05 -4.54309e-05
-6.88211e-05 0.000436543 7.01785e-06
-4.54309e-05 7.01785e-06 0.000397864
0.00143418 2.37712e-05 -2.17035e-05
2.37712e-05 0.000532549 5.8422e-06
-2.17035e-05 5.8422e-06 0.000490634
0.00161427 -0.000130282 -0.0001034
-0.000130282 0.000534451 1.68061e-05
-0.0001034 1.68061e-05 0.000463494
0.00348605 7.76445e-06 -9.62235e-05
7.76445e-06 0.00173525 -1.90526e-06
-9.62235e-05 -1.90526e-06 0.00171926
0.00158523 -4.85328e-05 7.2514e-05
-4.85328e-05 0.00059171 -3.18395e-06
7.2514e-05 -3.18395e-06 0.000565517
0.00150053 7.38441e-06 9.64601e-05
7.38441e-06 0.000573452 -8.34016e-06
9.64601e-05 -8.34016e-06 0.000537208
0.00158706 -5.84447e-05 7.04027e-05
-5.84447e-05 0.000597377 -6.42698e-06
7.04027e-05 -6.42698e-06 0.000570991
0.00160426 -8.94565e-05 -2.59953e-05
-8.94565e-05 0.000509469 1.23358e-06
-2.59953e-05 1.23358e-06 0.00043911
0.00156813 -0.000114067 -3.7415e-05
-0.000114067 0.000528449 3.55975e-06
-3.7415e-05 3.55975e-06 0.000444717
0.00159763 -0.000118107 -2.75462e-05
-0.000118107 0.000519715 2.51751e-06
-2.75462e-05 2.51751e-06 0.000445857
0.00202778 -0.000225936 -7.35609e-06
-0.000225936 0.00064724 1.96986e-06
-7.35609e-06 1.96986e-06 0.000498544
0.00543434 3.76057e-05 0.000229782
3.76057e-05 0.00289147 -2.60325e-07
0.000229782 -2.60325e-07 0.00290331
0.00183277 -2.31974e-05 0.00019112
-2.31974e-05 0.00073108 -8.61488e-06
0.00019112 -8.61488e-06 0.000716517
0.00241944 1.60758e-05 3.70264e-05
1.60758e-05 0.000990435 -9.55139e-07
3.70264e-05 -9.55139e-07 0.000929327
0.00154919 -8.73791e-05 4.60347e-05
-8.73791e-05 0.000475707 -5.40843e-06
4.60347e-05 -5.40843e-06 0.000402221
0.00154595 -0.000103027 4.78721e-05
-0.000103027 0.000483579 -8.812e-06
4.78721e-05 -8.812e-06 0.000406298
0.00190591 -0.000140116 1.15649e-05
-0.000140116 0.000523478 -3.04469e-06
1.15649e-05 -3.04469e-06 0.000395279
0.00166686 -0.000183932 1.58461e-05
-0.000183932 0.00041201 -5.70636e-06
1.58461e-05 -5.70636e-06 0.000270796
0.00119966 -3.20356e-05 0.000151327
-3.20356e-05 0.000372339 -1.6696e-05
0.000151327 -1.6696e-05 0.00035936
0.00134017 -2.36287e-05 1.4993e-05
-2.36287e-05 0.000430351 -1.11369e-05
1.4993e-05 -1.11369e-05 0.000335016
0.00199037 -0.000244964 1.33038e-05
-0.000244964 0.00065572 -6.90368e-06
1.33038e-05 -6.90368e-06 0.000497036
0.0012944 -0.000231107 7.75053e-06
-0.000231107 9.53346e-05 -2.61486e-06
7.75053e-06 -2.61486e-06 -8.7862e-05
0.00579648 0.000156494 -0.000244377
0.000156494 0.0031072 -2.10729e-05
-0.000244377 -2.10729e-05 0.00311017
0.0049829 -0.000178559 -0.000142959
-0.000178559 0.00267284 -9.81562e-06
-0.000142959 -9.81562e-06 0.00265299
0.00555075 -2.7212e-05 -0.000205423
-2.7212e-05 0.0029713 -1.4107e-05
-0.000205423 -1.4107e-05 0.00297333
0.00053697 0.000180565 -2.41943e-05
0.000180565 -7.26349e-05 -1.50069e-05
-2.41943e-05 -1.50069e-05 -0.00016861
0.00580247 0.000170736 -2.91257e-06
0.000170736 0.0031098 -1.91519e-06
-2.91257e-06 -1.91519e-06 0.00311266
0.00581424 8.94107e-05 -8.69523e-06
8.94107e-05 0.00311974 -1.41678e-06
-8.69523e-06 -1.41678e-06 0.00312234
0.000516446 0.000122289 -9.96849e-08
0.000122289 -0.000127249 -2.19269e-07
-9.96849e-08 -2.19269e-07 -0.000216433
0.00275179 -0.0001328 -6.02936e-05
-0.0001328 0.0013433 -2.42141e-06
-6.02936e-05 -2.42141e-06 0.00131349
0.00051821 0.000181843 -5.17349e-07
0.000181843 -9.02346e-05 -3.31787e-07
-5.17349e-07 -3.31787e-07 -0.000187038
0.00157955 0.000142439 3.98914e-05
0.000142439 0.000558464 1.05097e-06
3.98914e-05 1.05097e-06 0.000481238
0.000880251 0.000181554 -2.91928e-08
0.000181554 2.97586e-05 2.24239e-07
-2.91928e-08 2.24239e-07 -0.000135314
0.00398234 -0.00011165 0.000137568
-0.00011165 0.00206111 7.8922e-06
0.000137568 7.8922e-06 0.0020611
0.000653385 -2.43821e-05 4.85232e-06
-2.43821e-05 5.87192e-05 8.90465e-06
4.85232e-06 8.90465e-06 1.51835e-05
0.0006312 9.21322e-05 1.6944e-05
9.21322e-05 -7.92025e-05 8.81803e-06
1.6944e-05 8.81803e-06 -0.000163773
0.000666987 0.000147404 2.18202e-05
0.000147404 -2.47821e-05 1.51909e-05
2.18202e-05 1.51909e-05 -0.000119723
0.00099661 0.000153032 1.37146e-05
0.000153032 -9.03977e-07 5.43748e-06
1.37146e-05 5.43748e-06 -0.000151261
0.00252789 7.66178e-05 8.88656e-05
7.66178e-05 0.00114451 1.18753e-05
8.88656e-05 1.18753e-05 0.00108888
0.000942419 0.000178485 1.16947e-05
0.000178485 3.52897e-05 6.61491e-06
1.16947e-05 6.61491e-06 -0.000123562
0.000856339 0.000192818 1.02278e-05
0.000192818 8.76961e-05 5.05753e-06
1.02278e-05 5.05753e-06 -8.88125e-05
0.00110409 0.000235007 5.19521e-06
0.000235007 9.3694e-05 1.4327e-06
5.19521e-06 1.4327e-06 -0.000109564
0.00280566 -0.000120247 6.27629e-05
-0.000120247 0.00135902 2.36694e-06
6.27629e-05 2.36694e-06 0.00135895
0.00313841 -0.00013754 1.19643e-05
-0.00013754 0.00156422 -3.21332e-07
1.19643e-05 -3.21332e-07 0.00155938
0.00573751 2.68513e-05 -0.000237379
2.68513e-05 0.00306277 -1.00578e-05
-0.000237379 -1.00578e-05 0.00307256
0.00561367 5.92719e-05 -0.000240563
5.92719e-05 0.00299368 -6.06162e-06
-0.000240563 -6.06162e-06 0.00300557
0.00553805 8.38707e-05 -1.59651e-07
8.38707e-05 0.00295961 -2.74931e-06
-1.59651e-07 -2.74931e-06 0.00296667
0.00345997 1.485e-05 -0.000104728
1.485e-05 0.00171157 -4.28898e-06
-0.000104728 -4.28898e-06 0.0017013
0.00165084 3.31004e-05 4.98531e-05
3.31004e-05 0.00051825 1.01046e-06
4.98531e-05 1.01046e-06 0.000456878
0.00359036 0.000111765 -9.28649e-05
0.000111765 0.00179455 -4.72638e-06
-9.28649e-05 -4.72638e-06 0.00177619
0.00168751 7.7917e-05 4.91931e-05
7.7917e-05 0.000541388 1.9586e-06
4.91931e-05 1.9586e-06 0.000474626
0.00551349 0.000139003 0.000238602
0.000139003 0.00295497 5.93364e-06
0.000238602 5.93364e-06 0.00295593
0.000585214 1.03619e-05 1.85595e-05
1.03619e-05 -0.000114303 5.32933e-07
1.85595e-05 5.32933e-07 -0.000186307
0.00271785 2.62511e-05 0.00011633
2.62511e-05 0.00115001 4.5711e-06
0.00011633 4.5711e-06 0.00110074
0.00102349 3.68459e-05 1.24587e-05
3.68459e-05 -1.90974e-05 1.22695e-06
1.24587e-05 1.22695e-06 -0.000141831
0.00262451 0.000101344 0.000118712
0.000101344 0.00110303 8.79613e-06
0.000118712 8.79613e-06 0.00104655
0.00104576 8.73387e-05 1.21625e-05
8.73387e-05 -7.74125e-06 2.50831e-06
1.21625e-05 2.50831e-06 -0.000139772
0.00167466 4.20449e-05 -0.000196418
4.20449e-05 0.00063328 1.7748e-06
-0.000196418 1.7748e-06 0.000626731
0.0012721 -7.54554e-07 -3.9655e-05
-7.54554e-07 0.000416915 1.78161e-06
-3.9655e-05 1.78161e-06 0.000379659
0.00142383 7.1457e-05 -1.18977e-05
7.1457e-05 0.000539608 6.5641e-06
-1.18977e-05 6.5641e-06 0.000490782
0.00123724 -7.86968e-05 -5.33744e-05
-7.86968e-05 0.000406746 7.47683e-06
-5.33744e-05 7.47683e-06 0.000366844
0.00172031 -6.93924e-05 -0.000101782
-6.93924e-05 0.000570428 8.8246e-06
-0.000101782 8.8246e-06 0.000508063
0.00166826 -0.000111048 -0.000101422
-0.000111048 0.000554512 1.44929e-05
-0.000101422 1.44929e-05 0.000488106
0.0015925 -0.000137896 -0.000104847
-0.000137896 0.000533974 1.74831e-05
-0.000104847 1.74831e-05 0.000458601
0.00201195 -0.000223797 -2.74318e-05
-0.000223797 0.000636249 9.68554e-06
-2.74318e-05 9.68554e-06 0.000487993
0.00552494 -8.64708e-05 2.04023e-06
-8.64708e-05 0.00295254 -1.50379e-06
2.04023e-06 -1.50379e-06 0.00295917
0.00152244 4.36089e-05 8.07911e-05
4.36089e-05 0.000553183 -3.05436e-06
8.07911e-05 -3.05436e-06 0.000530392
0.00113293 -2.15256e-06 -5.28791e-05
-2.15256e-06 0.000214421 1.0178e-06
-5.28791e-05 1.0178e-06 0.000151541
0.00160821 -5.36843e-05 -2.98945e-05
-5.36843e-05 0.000506008 1.74887e-06
-2.98945e-05 1.74887e-06 0.000438476
0.00314893 3.82041e-05 0.000161529
3.82041e-05 0.00155926 -4.32646e-06
0.000161529 -4.32646e-06 0.00154729
0.00199664 -9.3417e-05 -3.34069e-05
-9.3417e-05 0.00080327 8.87026e-07
-3.34069e-05 8.87026e-07 0.000719956
0.0016063 -0.000106298 -2.53165e-05
-0.000106298 0.000516398 1.69259e-06
-2.53165e-05 1.69259e-06 0.000444793
0.00182915 -0.000134604 -8.90096e-06
-0.000134604 0.000475669 1.56773e-06
-8.90096e-06 1.56773e-06 0.000347217
0.00200224 -0.000246064 -6.13575e-06
-0.000246064 0.000662013 1.84997e-06
-6.13575e-06 1.84997e-06 0.00050299
0.00184806 -0.000191573 -4.70322e-06
-0.000191573 0.000518761 1.15701e-06
-4.70322e-06 1.15701e-06 0.000378055
0.00128564 -0.000230871 1.81146e-07
-0.000230871 8.87779e-05 -1.62917e-07
1.81146e-07 -1.62917e-07 -9.41879e-05
0.000621148 1.29348e-05 1.91084e-05
1.29348e-05 -9.55368e-05 -1.16409e-06
1.91084e-05 -1.16409e-06 -0.000164431
0.00148632 1.42624e-05 3.71382e-05
1.42624e-05 0.000433963 -2.58489e-06
3.71382e-05 -2.58489e-06 0.000366198
0.00165191 -3.43977e-05 1.27067e-05
-3.43977e-05 0.000359521 -1.07361e-06
1.27067e-05 -1.07361e-06 0.000245833
0.00166179 -0.000105117 1.25296e-05
-0.000105117 0.000370163 -2.38004e-06
1.25296e-05 -2.38004e-06 0.000245498
0.00165513 -0.000157479 1.45108e-05
-0.000157479 0.000384189 -4.31763e-06
1.45108e-05 -4.31763e-06 0.00024955
0.00172314 -0.000174183 1.57355e-06
-0.000174183 0.000254256 -6.96854e-07
1.57355e-06 -6.96854e-07 0.000102348
0.00436273 0.000168336 0.000122857
0.000168336 0.00230794 -7.22056e-06
0.000122857 -7.22056e-06 0.00229147
0.00133022 -0.000215447 6.42106e-06
-0.000215447 8.47511e-05 -1.9648e-06
6.42106e-06 -1.9648e-06 -8.93535e-05
0.000329015 -9.77194e-05 1.6642e-05
-9.77194e-05 -0.000177124 -1.45163e-05
1.6642e-05 -1.45163e-05 -0.000250492
0.000846772 -0.000182909 1.03053e-05
-0.000182909 1.62984e-05 -7.04471e-06
1.03053e-05 -7.04471e-06 -0.000149285
0.00134068 -0.000253599 8.82816e-06
-0.000253599 0.000159693 -3.11867e-06
8.82816e-06 -3.11867e-06 -3.53852e-05
0.00156979 -0.000300585 3.54796e-06
-0.000300585 0.00014517 4.37997e-07
3.54796e-06 4.37997e-07 -5.18786e-05
0.000394368 -3.29586e-05 9.02878e-06
-3.29586e-05 -0.000105466 -1.15131e-05
9.02878e-06 -1.15131e-05 -0.000162684
0.000673055 -4.38177e-05 1.1327e-06
-4.38177e-05 6.89747e-05 -4.01704e-06
1.1327e-06 -4.01704e-06 -5.22455e-05
0.00581663 0.00018731 -0.000255315
0.00018731 0.00312273 -2.15271e-05
-0.000255315 -2.15271e-05 0.00312338
0.00567304 7.09026e-05 -0.000223987
7.09026e-05 0.00303473 -1.77207e-05
-0.000223987 -1.77207e-05 0.00304039
0.000513819 0.000115963 -1.83941e-05
0.000115963 -0.000130745 -1.04791e-05
-1.83941e-05 -1.04791e-05 -0.0002198
0.00428313 -0.000174638 -0.000119702
-0.000174638 0.00225751 -6.49033e-06
-0.000119702 -6.49033e-06 0.00224208
0.000436431 0.000128755 -2.00461e-05
0.000128755 -0.000124588 -1.47094e-05
-2.00461e-05 -1.47094e-05 -0.000203449
0.000471425 0.000166152 -2.02951e-05
0.000166152 -0.000113823 -1.42674e-05
-2.02951e-05 -1.42674e-05 -0.00021217
0.000895127 0.000181773 -1.21661e-05
0.000181773 3.457e-05 -5.29636e-06
-1.21661e-05 -5.29636e-06 -0.00013015
0.00378196 -0.000133985 8.60286e-06
-0.000133985 0.00194846 -5.39273e-07
8.60286e-06 -5.39273e-07 0.00194417
0.000528701 -3.56009e-05 3.72007e-07
-3.56009e-05 -1.08877e-05 5.16699e-07
3.72007e-07 5.16699e-07 -5.4676e-05
0.00165807 0.000121022 4.95144e-05
0.000121022 0.000535782 3.35586e-06
4.95144e-05 3.35586e-06 0.000461725
0.00161102 0.000172064 4.82846e-05
0.000172064 0.000541489 3.11348e-06
4.82846e-05 3.11348e-06 0.000457606
0.000971611 0.000152908 5.77498e-08
0.000152908 -1.17806e-05 -2.22412e-07
5.77498e-08 -2.22412e-07 -0.000162651
0.000609374 7.21981e-05 -5.58373e-07
7.21981e-05 2.23402e-06 1.29379e-07
-5.58373e-07 1.29379e-07 -6.39541e-05
0.000935506 0.000178591 5.50157e-07
0.000178591 3.19988e-05 2.25542e-07
5.50157e-07 2.25542e-07 -0.000126925
0.00085721 0.000182121 6.74444e-07
0.000182121 8.41594e-05 -1.49985e-06
6.74444e-07 -1.49985e-06 -9.02743e-05
0.000963481 0.000225439 -7.56997e-07
0.000225439 9.10377e-06 3.60706e-07
-7.56997e-07 3.60706e-07 -0.000193045
0.000674975 2.82084e-05 1.17084e-05
2.82084e-05 5.82441e-05 1.07386e-05
1.17084e-05 1.07386e-05 3.30346e-06
0.000610043 -5.80886e-05 6.39569e-07
-5.80886e-05 3.80099e-05 7.03008e-06
6.39569e-07 7.03008e-06 1.70858e-06
0.000904712 7.87254e-05 3.30358e-06
7.87254e-05 0.000221945 4.65588e-06
3.30358e-06 4.65588e-06 0.000102113
0.00101432 0.000132475 1.31359e-05
0.000132475 -1.0163e-05 4.38729e-06
1.31359e-05 4.38729e-06 -0.000154515
0.000965362 0.000169674 1.34675e-05
0.000169674 1.17563e-05 6.23316e-06
1.34675e-05 6.23316e-06 -0.000143885
0.00136321 0.000229324 5.73082e-06
0.000229324 9.44694e-05 1.44408e-06
5.73082e-06 1.44408e-06 -8.85265e-05
0.000878988 0.000185814 7.4496e-06
0.000185814 0.000164472 7.30997e-06
7.4496e-06 7.30997e-06 -6.18139e-06
0.00100322 0.000225658 5.24338e-06
0.000225658 -1.3185e-05 2.44426e-06
5.24338e-06 2.44426e-06 -0.000206894
0.00134332 0.000265484 6.00011e-06
0.000265484 0.000296514 7.02211e-07
6.00011e-06 7.02211e-07 7.04717e-05
0.00152774 0.000290212 -3.43276e-07
0.000290212 0.000293706 -2.45005e-07
-3.43276e-07 -2.45005e-07 7.55807e-05
0.00253875 -0.000119518 3.37533e-05
-0.000119518 0.00119554 2.94734e-06
3.37533e-05 2.94734e-06 0.0011953
0.00269339 -0.00013437 7.28624e-06
-0.00013437 0.00129539 -6.31586e-07
7.28624e-06 -6.31586e-07 0.00129107
0.0029419 -0.000154018 -4.67635e-05
-0.000154018 0.00145152 -2.49342e-06
-4.67635e-05 -2.49342e-06 0.0014416
0.000398789 -1.37943e-05 6.59614e-06
-1.37943e-05 -9.57302e-05 -9.5494e-06
6.59614e-06 -9.5494e-06 -0.000145654
0.0039152 0.000146529 0.000107424
0.000146529 0.00203436 -5.75525e-06
0.000107424 -5.75525e-06 0.00202433
0.00581485 0.000175018 -0.000258118
0.000175018 0.00312058 -1.89131e-05
-0.000258118 -1.89131e-05 0.00312286
0.00562032 6.57422e-05 -0.000237978
6.57422e-05 0.00299573 -8.43183e-06
-0.000237978 -8.43183e-06 0.00300696
0.000601846 8.92248e-05 -1.96737e-05
8.92248e-05 -0.000104098 -4.74277e-06
-1.96737e-05 -4.74277e-06 -0.00018196
0.0005832 3.99569e-05 -1.92143e-05
3.99569e-05 -0.000113526 -2.31053e-06
-1.92143e-05 -2.31053e-06 -0.000188182
0.00547338 -1.43929e-05 -0.00023071
-1.43929e-05 0.00291198 -1.44855e-06
-0.00023071 -1.44855e-06 0.00292478
0.00545196 1.74623e-05 -6.29134e-07
1.74623e-05 0.00290034 -4.55978e-07
-6.29134e-07 -4.55978e-07 0.00291285
0.000566694 7.9227e-07 -1.44699e-07
7.9227e-07 -0.000127502 -3.19244e-08
-1.44699e-07 -3.19244e-08 -0.000197868
0.00163457 3.17385e-05 4.97258e-05
3.17385e-05 0.000506914 1.76723e-06
4.97258e-05 1.76723e-06 0.000444979
0.00100153 4.05605e-05 7.34872e-09
4.05605e-05 -3.26165e-05 -1.37201e-07
7.34872e-09 -1.37201e-07 -0.000155765
0.000569759 7.46741e-05 -4.08854e-07
7.46741e-05 -0.000118661 -3.06646e-07
-4.08854e-07 -3.06646e-07 -0.000200367
0.00100835 8.88122e-05 -1.12705e-07
8.88122e-05 -2.90052e-05 -1.37233e-07
-1.12705e-07 -1.37233e-07 -0.000161627
0.000560252 -2.75713e-05 1.90581e-05
-2.75713e-05 -0.00013348 -8.57987e-07
1.90581e-05 -8.57987e-07 -0.000201577
0.00100201 1.5802e-05 1.22739e-05
1.5802e-05 -2.82473e-05 5.46263e-07
1.22739e-05 5.46263e-07 -0.000149078
0.00101764 6.20412e-05 1.21651e-05
6.20412e-05 -2.40265e-05 1.93606e-06
1.21651e-05 1.93606e-06 -0.000150655
0.00147545 6.23911e-05 1.40766e-06
6.23911e-05 5.73706e-05 1.68295e-07
1.40766e-06 1.68295e-07 -6.9951e-05
0.00104412 0.000110189 1.25404e-05
0.000110189 -4.19422e-06 3.30332e-06
1.25404e-05 3.30332e-06 -0.000142272
0.00150757 0.00013734 2.39962e-06
0.00013734 8.45428e-05 1.85468e-07
2.39962e-06 1.85468e-07 -5.96183e-05
0.00545509 -4.6592e-05 -0.000237409
-4.6592e-05 0.00290539 7.09508e-07
-0.000237409 7.09508e-07 0.00291601
0.00125428 -0.000134404 -4.18982e-05
-0.000134404 0.000411972 4.36813e-06
-4.18982e-05 4.36813e-06 0.000374246
-0.000266279 -1.98011e-06 -1.29116e-05
-1.98011e-06 -0.000616157 2.15309e-06
-1.29116e-05 2.15309e-06 -0.000698569
0.00169808 -4.78313e-05 -0.000101936
-4.78313e-05 0.00055434 6.34408e-06
-0.000101936 6.34408e-06 0.000493203
0.00480937 0.000352303 1.46915e-05
0.000352303 0.00262942 7.60748e-06
1.46915e-05 7.60748e-06 0.00255831
0.00266556 -0.000181349 -0.000105437
-0.000181349 0.00118944 1.73689e-05
-0.000105437 1.73689e-05 0.00111375
0.00170677 -9.06393e-05 -0.000101363
-9.06393e-05 0.000567932 1.16649e-05
-0.000101363 1.16649e-05 0.00050433
0.00172605 -0.000128064 -2.74848e-05
-0.000128064 0.000411919 5.41686e-06
-2.74848e-05 5.41686e-06 0.000283438
0.00201398 -0.000198277 -2.60003e-05
-0.000198277 0.000616382 8.13421e-06
-2.60003e-05 8.13421e-06 0.000476455
0.00203516 -0.000248384 -2.5003e-05
-0.000248384 0.000681853 1.0157e-05
-2.5003e-05 1.0157e-05 0.000522226
0.00127707 -0.000230656 -6.39856e-06
-0.000230656 8.24004e-05 2.01483e-06
-6.39856e-06 2.01483e-06 -0.000100357
0.000562962 7.29488e-06 -5.4609e-08
7.29488e-06 -0.000128213 1.02929e-07
-5.4609e-08 1.02929e-07 -0.000198054
0.00160935 -6.69507e-05 -2.91775e-05
-6.69507e-05 0.000506982 3.29401e-07
-2.91775e-05 3.29401e-07 0.000442162
0.0012283 -2.98323e-05 -7.33206e-06
-2.98323e-05 0.000108228 3.8629e-07
-7.33206e-06 3.8629e-07 -9.85042e-06
0.00182362 -0.000106681 -5.58035e-06
-0.000106681 0.000464626 8.46333e-07
-5.58035e-06 8.46333e-07 0.000341198
0.00450719 0.00015674 -7.23297e-06
0.00015674 0.00239076 -1.02322e-06
-7.23297e-06 -1.02322e-06 0.00237622
0.00151982 -8.49274e-05 -2.69681e-06
-8.49274e-05 0.00054471 -1.189e-07
-2.69681e-06 -1.189e-07 0.000458266
0.00131035 -0.000209702 1.36349e-06
-0.000209702 0.000299735 -8.7514e-07
1.36349e-06 -8.7514e-07 0.00013385
0.00168513 -0.000157713 -5.8955e-06
-0.000157713 0.000401814 1.33117e-06
-5.8955e-06 1.33117e-06 0.000267084
0.00160304 -0.000171565 -2.31976e-06
-0.000171565 0.000181005 4.43924e-07
-2.31976e-06 4.43924e-07 2.99964e-05
0.00125228 -0.000249201 2.91078e-07
-0.000249201 0.000107961 -9.57644e-10
2.91078e-07 -9.57644e-10 -8.7638e-05
0.00151398 -0.000223571 3.48217e-07
-0.000223571 0.000192122 -1.52263e-07
3.48217e-07 -1.52263e-07 1.89675e-05
0.0015958 -0.000300499 6.61623e-07
-0.000300499 0.000165463 -9.78996e-08
6.61623e-07 -9.78996e-08 -3.07796e-05
0.000517195 -3.96332e-05 -9.56761e-07
-3.96332e-05 -3.61874e-05 1.28255e-07
-9.56761e-07 1.28255e-07 -9.41363e-05
0.000671254 -6.62816e-05 -1.90984e-07
-6.62816e-05 6.73632e-05 1.90018e-07
-1.90984e-07 1.90018e-07 -5.62714e-05
0.00098975 -1.42947e-05 1.22387e-05
-1.42947e-05 -3.11289e-05 -8.71665e-07
1.22387e-05 -8.71665e-07 -0.000151394
0.00168586 -6.47113e-05 1.19803e-05
-6.47113e-05 0.000379854 -1.64372e-06
1.19803e-05 -1.64372e-06 0.000262212
0.00167629 -5.54322e-05 5.21193e-07
-5.54322e-05 0.00019633 4.7365e-08
5.21193e-07 4.7365e-08 7.01018e-05
0.00149979 -0.000135563 2.65867e-06
-0.000135563 0.00010397 -2.02653e-07
2.65867e-06 -2.02653e-07 -3.66032e-05
0.00167794 -0.000210215 3.4222e-06
-0.000210215 0.00025797 -8.41957e-07
3.4222e-06 -8.41957e-07 9.70545e-05
0.00176339 -0.00021191 -4.80572e-07
-0.00021191 0.000149051 4.60404e-07
-4.80572e-07 4.60404e-07 7.3312e-06
0.000359931 -6.91766e-05 1.35842e-05
-6.91766e-05 -0.000138974 -1.31798e-05
1.35842e-05 -1.31798e-05 -0.000203937
0.00163417 -0.000278042 1.63377e-06
-0.000278042 0.000146292 7.19242e-07
1.63377e-06 7.19242e-07 -3.00712e-05
0.000691652 -0.000162499 5.99683e-06
-0.000162499 5.8557e-06 -7.59102e-06
5.99683e-06 -7.59102e-06 -0.00016236
0.00095403 -0.000239524 9.76362e-06
-0.000239524 -8.8861e-06 -3.56754e-06
9.76362e-06 -3.56754e-06 -0.00021583
0.00179873 -0.000342159 3.27844e-06
-0.000342159 0.000332308 -6.99147e-08
3.27844e-06 -6.99147e-08 0.00011137
0.00191887 -0.000337099 -1.57601e-06
-0.000337099 0.000297161 3.25847e-06
-1.57601e-06 3.25847e-06 0.000114367
0.000723661 -0.000109355 2.17548e-06
-0.000109355 9.66203e-05 -5.13046e-06
2.17548e-06 -5.13046e-06 -4.7745e-05
0.000669378 -2.94827e-05 7.59934e-07
-2.94827e-05 6.96299e-05 -3.71917e-06
7.59934e-07 -3.71917e-06 -3.68278e-05
0.00105215 -0.000168039 -6.3674e-08
-0.000168039 0.000310117 5.19219e-07
-6.3674e-08 5.19219e-07 0.000125417
0.000542304 9.48833e-05 -1.7715e-05
9.48833e-05 -0.000126993 -8.1077e-06
-1.7715e-05 -8.1077e-06 -0.000212114
0.00356037 -0.000160956 -8.42812e-05
-0.000160956 0.00182219 -3.17668e-06
-8.42812e-05 -3.17668e-06 0.0018111
0.000390517 -4.78774e-05 3.57299e-07
-4.78774e-05 -8.71055e-05 -8.29663e-06
3.57299e-07 -8.29663e-06 -0.000132292
0.000489193 0.000143287 -1.9295e-05
0.000143287 -0.000123312 -1.31642e-05
-1.9295e-05 -1.31642e-05 -0.000217893
0.000945331 0.00015284 -1.42439e-05
0.00015284 -2.33662e-05 -5.84088e-06
-1.42439e-05 -5.84088e-06 -0.000174744
0.000366696 6.50955e-05 -1.49881e-05
6.50955e-05 -0.000140286 -1.25784e-05
-1.49881e-05 -1.25784e-05 -0.000203734
0.000771874 0.000168968 -7.84558e-06
0.000168968 3.1196e-05 -7.47573e-06
-7.84558e-06 -7.47573e-06 -0.000141212
0.000924078 0.000178234 -1.16348e-05
0.000178234 2.61938e-05 -6.57541e-06
-1.16348e-05 -6.57541e-06 -0.000132769
0.000781195 0.000212231 -6.97974e-06
0.000212231 -0.000100168 -7.70821e-07
-6.97974e-06 -7.70821e-07 -0.00030062
0.000538997 1.71847e-05 2.10107e-06
1.71847e-05 -2.06446e-05 3.93936e-07
2.10107e-06 3.93936e-07 -7.37413e-05
0.000506299 -6.60696e-05 3.59478e-07
-6.60696e-05 -2.04559e-05 2.48704e-07
3.59478e-07 2.48704e-07 -5.79928e-05
0.000625157 2.8883e-05 7.36515e-07
2.8883e-05 4.59466e-05 4.88941e-07
7.36515e-07 4.88941e-07 -6.22347e-05
0.000995296 0.000133307 1.22387e-08
0.000133307 -1.83764e-05 -2.48546e-07
1.22387e-08 -2.48546e-07 -0.000163438
0.000951723 0.000169703 4.19852e-07
0.000169703 6.51212e-06 -2.95022e-07
4.19852e-07 -2.95022e-07 -0.000149453
0.00137728 0.000229962 2.13768e-07
0.000229962 0.000104127 -1.0171e-08
2.13768e-07 -1.0171e-08 -7.91873e-05
0.000797636 0.000167341 -5.88899e-07
0.000167341 0.000118302 2.14603e-07
-5.88899e-07 2.14603e-07 -4.97861e-05
0.00117193 0.000235533 3.47923e-07
0.000235533 8.94719e-05 3.17826e-08
3.47923e-07 3.17826e-08 -0.0001048
0.00113486 0.000247586 6.36383e-07
0.000247586 0.000174045 -1.74598e-06
6.36383e-07 -1.74598e-06 -4.93972e-05
0.00124977 0.00027476 -5.85042e-07
0.00027476 0.000125812 1.83536e-07
-5.85042e-07 1.83536e-07 -9.11591e-05
0.00054687 -7.02064e-05 -2.23947e-06
-7.02064e-05 -4.56765e-06 5.94923e-06
-2.23947e-06 5.94923e-06 -3.61852e-05
0.000811039 0.000126421 5.4126e-06
0.000126421 0.000144123 4.88602e-06
5.4126e-06 4.88602e-06 4.45821e-07
0.000720278 3.20473e-06 1.19353e-06
3.20473e-06 9.71503e-05 4.22501e-06
1.19353e-06 4.22501e-06 1.46333e-05
0.000925701 0.000113944 1.61019e-06
0.000113944 0.000258694 -2.19142e-07
1.61019e-06 -2.19142e-07 8.80167e-05
0.00144485 0.0002054 4.38136e-06
0.0002054 9.85286e-05 5.1793e-07
4.38136e-06 5.1793e-07 -7.1354e-05
0.00122976 0.000238115 6.31626e-06
0.000238115 6.45389e-05 2.27783e-06
6.31626e-06 2.27783e-06 -0.000126756
0.00173308 0.000305627 1.27904e-06
0.000305627 0.00020109 -1.90081e-07
1.27904e-06 -1.90081e-07 1.11821e-05
0.0013765 0.000245714 3.51546e-06
0.000245714 0.000405383 3.85836e-06
3.51546e-06 3.85836e-06 0.000190635
0.00164784 0.000330553 -5.26074e-07
0.000330553 0.000294191 -4.3498e-07
-5.26074e-07 -4.3498e-07 7.66736e-05
0.00121371 0.000273948 1.68431e-06
0.000273948 0.000162222 -9.32894e-07
1.68431e-06 -9.32894e-07 -8.25434e-05
0.00151833 0.000309021 1.0398e-06
0.000309021 0.000201438 2.31512e-07
1.0398e-06 2.31512e-07 -2.29121e-05
0.00062061 8.09298e-06 2.34223e-06
8.09298e-06 1.79707e-05 2.36495e-06
2.34223e-06 2.36495e-06 -3.30315e-05
0.000536073 -4.39765e-05 7.05601e-07
-4.39765e-05 -3.79139e-05 4.70092e-06
7.05601e-07 4.70092e-06 -5.80218e-05
0.00241998 -0.000103749 2.84124e-05
-0.000103749 0.00111606 3.31433e-06
2.84124e-05 3.31433e-06 0.00111976
0.00247698 -0.000117055 3.53659e-06
-0.000117055 0.00115832 -3.72846e-07
3.53659e-06 -3.72846e-07 0.00115853
0.00259131 -0.000132725 -3.57072e-05
-0.000132725 0.00123492 -2.72707e-06
-3.57072e-05 -2.72707e-06 0.00123073
0.000434519 -4.13153e-06 5.11342e-06
-4.13153e-06 -7.53067e-05 -8.05417e-06
5.11342e-06 -8.05417e-06 -0.000116695
0.00348274 0.000131309 9.00497e-05
0.000131309 0.00177044 -4.55034e-06
9.00497e-05 -4.55034e-06 0.00176486
0.000526228 -1.61192e-05 -3.08322e-07
-1.61192e-05 -2.29934e-05 2.58117e-07
-3.08322e-07 2.58117e-07 -7.33923e-05
0.00404955 0.000134547 -5.3405e-06
0.000134547 0.00211045 -7.79591e-07
-5.3405e-06 -7.79591e-07 0.00210322
0.000594822 9.87378e-05 -1.91912e-05
9.87378e-05 -0.000102076 -6.38543e-06
-1.91912e-05 -6.38543e-06 -0.000185212
0.000602884 3.2918e-05 -1.84355e-05
3.2918e-05 -0.000105557 -3.2265e-06
-1.84355e-05 -3.2265e-06 -0.000180367
0.00098796 9.01085e-05 -1.20568e-05
9.01085e-05 -4.11806e-05 -2.77283e-06
-1.20568e-05 -2.77283e-06 -0.000174273
0.000978569 4.25484e-05 -1.23449e-05
4.25484e-05 -4.67863e-05 -1.47542e-06
-1.23449e-05 -1.47542e-06 -0.000170213
0.000616888 -6.6359e-06 -1.92693e-05
-6.6359e-06 -0.000101376 -7.3407e-07
-1.92693e-05 -7.3407e-07 -0.000169717
0.00552737 -9.48331e-05 -0.000244262
-9.48331e-05 0.00295377 3.72737e-06
-0.000244262 3.72737e-06 0.00296141
0.00060418 -5.57376e-07 1.31946e-07
-5.57376e-07 -0.000108111 -5.07187e-07
1.31946e-07 -5.07187e-07 -0.000176238
0.000993164 2.06084e-05 -3.50653e-08
2.06084e-05 -3.39157e-05 -7.46536e-08
-3.50653e-08 -7.46536e-08 -0.000154951
0.00101017 6.38067e-05 -8.19834e-08
6.38067e-05 -2.93098e-05 -8.52326e-08
-8.19834e-08 -8.52326e-08 -0.000156312
0.00147237 6.14297e-05 -5.69052e-08
6.14297e-05 5.70286e-05 7.97087e-08
-5.69052e-08 7.97087e-08 -7.03956e-05
0.00101055 0.000111715 -1.27962e-07
0.000111715 -2.22691e-05 -2.4056e-07
-1.27962e-07 -2.4056e-07 -0.000161183
0.00149084 0.00013782 -5.14952e-08
0.00013782 7.4892e-05 -5.40791e-09
-5.14952e-08 -5.40791e-09 -6.98123e-05
0.000988789 -6.40027e-07 1.22548e-05
-6.40027e-07 -3.22476e-05 -3.28909e-07
1.22548e-05 -3.28909e-07 -0.000152532
0.00145841 3.23697e-05 1.60727e-06
3.23697e-05 5.26264e-05 1.3671e-07
1.60727e-06 1.3671e-07 -7.12168e-05
0.00148752 9.91395e-05 1.51368e-06
9.91395e-05 6.50277e-05 1.10109e-07
1.51368e-06 1.10109e-07 -6.92191e-05
0.00179975 8.75915e-05 -2.10036e-06
8.75915e-05 0.000102326 -3.35641e-07
-2.10036e-06 -3.35641e-07 1.55366e-06
0.00149585 0.000174846 3.33647e-06
0.000174846 9.40634e-05 4.00082e-07
3.33647e-06 4.00082e-07 -6.25441e-05
0.00180883 0.00018177 -3.50502e-07
0.00018177 0.000129879 -1.33706e-06
-3.50502e-07 -1.33706e-06 2.47318e-06
0.000587242 8.84703e-07 -1.84391e-05
8.84703e-07 -0.000111854 1.12473e-06
-1.84391e-05 1.12473e-06 -0.000183403
0.00168922 -2.55621e-05 -0.000101424
-2.55621e-05 0.00054867 4.16438e-06
-0.000101424 4.16438e-06 0.000490098
0.000776367 -2.39881e-05 -1.46539e-05
-2.39881e-05 -0.000159319 1.7445e-06
-1.46539e-05 1.7445e-06 -0.000282009
0.00196883 -0.00010698 -2.44008e-05
-0.00010698 0.000548893 3.88668e-06
-2.44008e-05 3.88668e-06 0.000426882
0.00471129 0.000130234 -0.000156112
0.000130234 0.00250491 1.06594e-05
-0.000156112 1.06594e-05 0.00249518
0.00269348 -0.000132737 -9.98755e-05
-0.000132737 0.00123089 1.36797e-05
-9.98755e-05 1.36797e-05 0.00116323
0.00193109 -0.000253422 -1.98924e-05
-0.000253422 0.000672827 8.6917e-06
-1.98924e-05 8.6917e-06 0.000503976
0.00169598 -0.000156718 -2.58029e-05
-0.000156718 0.000407753 6.63862e-06
-2.58029e-05 6.63862e-06 0.000273233
0.00147901 -0.000168777 -5.56253e-06
-0.000168777 0.000105242 1.06588e-06
-5.56253e-06 1.06588e-06 -4.48514e-05
0.00169881 -0.00023186 -6.75967e-06
-0.00023186 0.000300282 2.02439e-06
-6.75967e-06 2.02439e-06 0.000128043
0.00117552 -0.000245936 -7.3278e-06
-0.000245936 6.30625e-05 2.46593e-06
-7.3278e-06 2.46593e-06 -0.000133248
0.00162359 -0.000300826 -2.05276e-06
-0.000300826 0.000185858 -6.86755e-07
-2.05276e-06 -6.86755e-07 -9.66562e-06
0.000622193 -4.96464e-05 -1.1751e-05
-4.96464e-05 2.43792e-05 1.17515e-05
-1.1751e-05 1.17515e-05 -3.53014e-05
0.000687266 -9.10123e-05 -1.77789e-06
-9.10123e-05 7.97092e-05 3.45287e-06
-1.77789e-06 3.45287e-06 -4.84746e-05
0.000876344 -9.54734e-06 -2.46715e-07
-9.54734e-06 -9.85654e-05 -3.93866e-08
-2.46715e-07 -3.93866e-08 -0.000219259
0.00169438 -6.58114e-05 -6.05492e-06
-6.58114e-05 0.000383664 6.39904e-07
-6.05492e-06 6.39904e-07 0.000266116
0.00171069 -5.16825e-05 -1.84427e-06
-5.16825e-05 0.000213119 2.85958e-07
-1.84427e-06 2.85958e-07 8.98275e-05
0.00158501 -0.000136705 -5.79478e-07
-0.000136705 0.000155815 2.34304e-07
-5.79478e-07 2.34304e-07 1.40085e-05
0.00051327 -8.05893e-05 -1.15583e-07
-8.05893e-05 -5.01148e-05 3.88035e-07
-1.15583e-07 3.88035e-07 -0.000117766
0.000848898 -0.00018041 -7.64979e-07
-0.00018041 9.70335e-05 -5.67227e-07
-7.64979e-07 -5.67227e-07 -7.33432e-05
0.00101891 -0.000244273 2.61699e-06
-0.000244273 2.98239e-05 -9.27986e-07
2.61699e-06 -9.27986e-07 -0.000177147
0.00169149 -0.000208621 -2.8416e-06
-0.000208621 0.000265436 7.41262e-07
-2.8416e-06 7.41262e-07 0.000103574
0.00182538 -0.000216315 8.08532e-07
-0.000216315 0.000179609 -1.83098e-07
8.08532e-07 -1.83098e-07 4.14558e-05
0.00179222 -0.000346139 -1.74584e-06
-0.000346139 0.00033094 2.97268e-07
-1.74584e-06 2.97268e-07 0.000108569
0.00165282 -0.000278561 5.28157e-07
-0.000278561 0.000158856 -2.77014e-08
5.28157e-07 -2.77014e-08 -1.7163e-05
0.00185965 -0.000335353 7.45043e-07
-0.000335353 0.000255838 6.13145e-07
7.45043e-07 6.13145e-07 7.29091e-05
0.000720721 -0.000122412 -2.54908e-07
-0.000122412 9.43582e-05 -2.15848e-07
-2.54908e-07 -2.15848e-07 -5.22209e-05
0.000563227 -0.000104295 -4.80511e-07
-0.000104295 5.64639e-06 -5.93633e-07
-4.80511e-07 -5.93633e-07 -0.000163515
0.000676023 -4.2679e-05 -4.79936e-08
-4.2679e-05 7.24804e-05 6.27807e-08
-4.79936e-08 6.27807e-08 -3.57188e-05
0.00166179 -2.1656e-05 3.68169e-07
-2.1656e-05 0.000182352 -2.84444e-09
3.68169e-07 -2.84444e-09 5.93918e-05
0.00174232 -9.09447e-05 1.59696e-07
-9.09447e-05 0.000233705 4.39604e-07
1.59696e-07 4.39604e-07 0.000105651
0.0016928 -7.40004e-05 -2.02942e-06
-7.40004e-05 5.63727e-05 1.11692e-06
-2.02942e-06 1.11692e-06 -4.72229e-05
0.00175906 -0.000173436 -2.36714e-06
-0.000173436 0.000112988 1.22154e-06
-2.36714e-06 1.22154e-06 -1.21833e-05
0.00164678 -0.000252181 -4.99137e-08
-0.000252181 0.000118296 1.51382e-06
-4.99137e-08 1.51382e-06 -3.69515e-05
0.00184621 -0.000239314 -9.86094e-07
-0.000239314 0.000137777 1.00582e-06
-9.86094e-07 1.00582e-06 2.2348e-05
0.000712951 -0.000144847 3.97496e-06
-0.000144847 7.28502e-05 -5.86989e-06
3.97496e-06 -5.86989e-06 -8.78179e-05
0.00172327 -0.00030628 -1.70288e-06
-0.00030628 0.000130865 1.86714e-06
-1.70288e-06 1.86714e-06 -2.74397e-05
0.0010856 -0.000243411 3.95392e-06
-0.000243411 0.000165554 -5.45178e-06
3.95392e-06 -5.45178e-06 -4.789e-05
0.00137079 -0.000335288 4.5824e-06
-0.000335288 0.00017011 -1.41505e-06
4.5824e-06 -1.41505e-06 -7.56373e-05
0.00191893 -0.000384131 1.19839e-06
-0.000384131 0.000344237 3.25615e-06
1.19839e-06 3.25615e-06 0.000119238
0.00201266 -0.000358491 -3.07371e-06
-0.000358491 0.00032291 3.63578e-06
-3.07371e-06 3.63578e-06 0.000153578
0.000632759 -3.00105e-05 7.8512e-07
-3.00105e-05 4.95201e-05 -3.72678e-06
7.8512e-07 -3.72678e-06 -4.42083e-05
0.00077984 -0.000162062 3.47106e-07
-0.000162062 0.000105792 -7.85499e-08
3.47106e-07 -7.85499e-08 -6.71871e-05
0.000515043 -8.86903e-05 -5.27093e-07
-8.86903e-05 6.94395e-06 9.61886e-07
-5.27093e-07 9.61886e-07 -0.000162873
0.00132124 -0.00022844 -2.80262e-06
-0.00022844 0.000435205 2.35034e-06
-2.80262e-06 2.35034e-06 0.000239434
0.000972767 0.00013432 -1.37582e-05
0.00013432 -2.88064e-05 -4.81375e-06
-1.37582e-05 -4.81375e-06 -0.000174602
0.000433547 -6.73666e-05 1.66076e-06
-6.73666e-05 -6.33045e-05 -6.58271e-06
1.66076e-06 -6.58271e-06 -0.000100495
0.000383801 -1.56354e-06 -5.53619e-06
-1.56354e-06 -0.000107894 -1.05197e-05
-5.53619e-06 -1.05197e-05 -0.000160352
0.000462934 -7.00255e-06 1.91651e-07
-7.00255e-06 -4.79303e-05 -5.05658e-06
1.91651e-07 -5.05658e-06 -0.00015341
0.000942818 0.000170458 -1.31898e-05
0.000170458 4.039e-06 -6.89785e-06
-1.31898e-05 -6.89785e-06 -0.000152376
0.00139118 0.00023051 -5.55737e-06
0.00023051 0.000113743 -1.44998e-06
-5.55737e-06 -1.44998e-06 -6.98672e-05
0.000713446 0.000144332 -4.83059e-06
0.000144332 6.87558e-05 -5.04635e-06
-4.83059e-06 -5.04635e-06 -9.534e-05
0.00101086 0.000236695 -5.46256e-06
0.000236695 0.000101563 -4.65986e-06
-5.46256e-06 -4.65986e-06 -0.000119952
0.00134867 0.000246088 -6.00059e-06
0.000246088 0.000197266 -2.5478e-06
-6.00059e-06 -2.5478e-06 2.30772e-06
0.000974879 0.000259033 -3.66004e-06
0.000259033 -3.89102e-05 7.85861e-08
-3.66004e-06 7.85861e-08 -0.000254674
0.000511283 -6.67873e-05 -2.76739e-07
-6.67873e-05 -2.82433e-05 1.86221e-07
-2.76739e-07 1.86221e-07 -5.84718e-05
0.000750061 0.000116719 2.68138e-07
0.000116719 0.000116603 -4.23858e-07
2.68138e-07 -4.23858e-07 -2.86805e-05
0.000612859 -1.47675e-05 -4.28556e-07
-1.47675e-05 3.58486e-05 7.61786e-07
-4.28556e-07 7.61786e-07 -4.59318e-05
0.000791112 8.90041e-05 1.34538e-06
8.90041e-05 0.000176182 -8.78166e-07
1.34538e-06 -8.78166e-07 1.04421e-05
0.00144035 0.000204974 -2.86777e-08
0.000204974 9.68842e-05 -3.98545e-07
-2.86777e-08 -3.98545e-07 -7.32683e-05
0.0012852 0.000240571 4.95023e-07
0.000240571 0.000102719 6.63128e-08
4.95023e-07 6.63128e-08 -8.88569e-05
0.00170614 0.00030387 2.39035e-07
0.00030387 0.000184794 1.08006e-07
2.39035e-07 1.08006e-07 -5.10989e-06
0.00106608 0.000221595 1.21137e-06
0.000221595 0.000224699 3.9269e-07
1.21137e-06 3.9269e-07 1.3697e-05
0.00170384 0.000330181 -1.16393e-06
0.000330181 0.000329336 -1.92384e-07
-1.16393e-06 -1.92384e-07 0.000112268
0.0012573 0.000282541 1.22747e-07
0.000282541 0.000182257 -1.67065e-06
1.22747e-07 -1.67065e-06 -6.47625e-05
0.00153973 0.000310886 -3.46076e-06
0.000310886 0.000216034 4.54127e-07
-3.46076e-06 4.54127e-07 -8.18053e-06
0.000528967 -5.73505e-05 -3.8707e-07
-5.73505e-05 -3.11426e-05 5.08827e-06
-3.8707e-07 5.08827e-06 -5.57362e-05
0.000671077 -7.86384e-06 1.6488e-06
-7.86384e-06 5.75478e-05 3.37178e-06
1.6488e-06 3.37178e-06 -8.36224e-06
0.00105668 0.000190762 1.2039e-06
0.000190762 0.000285599 1.9418e-06
1.2039e-06 1.9418e-06 0.000101911
0.0010297 6.35737e-05 -7.9645e-07
6.35737e-05 0.000324044 2.61364e-06
-7.9645e-07 2.61364e-06 0.000178858
0.00115835 0.000175924 -2.86564e-07
0.000175924 0.000373518 -1.85264e-06
-2.86564e-07 -1.85264e-06 0.000183427
0.00177553 0.000268726 9.48799e-07
0.000268726 0.000178242 -1.47173e-06
9.48799e-07 -1.47173e-06 1.0527e-05
0.0016177 0.000327295 1.07658e-06
0.000327295 0.00020104 1.73086e-07
1.07658e-06 1.73086e-07 -7.76201e-06
0.0018316 0.000341054 -1.25699e-09
0.000341054 0.000220526 -2.43882e-07
-1.25699e-09 -2.43882e-07 3.71964e-05
0.00102992 0.000257422 2.44739e-06
0.000257422 0.000155636 4.0779e-06
2.44739e-06 4.0779e-06 -8.6767e-05
0.00191614 0.000395066 1.35e-06
0.000395066 0.000389275 -6.1849e-07
1.35e-06 -6.1849e-07 0.000161113
0.000696322 0.000247917 4.30684e-06
0.000247917 -0.000211461 -1.34932e-06
4.30684e-06 -1.34932e-06 -0.000454207
0.000619428 3.16039e-06 2.62683e-06
3.16039e-06 1.76607e-05 2.39771e-06
2.62683e-06 2.39771e-06 -3.51265e-05
0.000678912 4.82642e-05 1.53629e-07
4.82642e-05 8.25073e-05 1.12226e-06
1.53629e-07 1.12226e-06 -4.67134e-06
0.000637357 1.82483e-05 2.13155e-06
1.82483e-05 3.14038e-05 2.36586e-06
2.13155e-06 2.36586e-06 -1.94389e-05
0.000606188 -1.55413e-05 -5.48275e-07
-1.55413e-05 1.15788e-05 1.83664e-09
-5.48275e-07 1.83664e-09 -4.04486e-05
0.00124478 -5.13176e-05 1.04324e-06
-5.13176e-05 0.000381984 2.70926e-06
1.04324e-06 2.70926e-06 0.000367839
0.000914232 -5.15313e-05 5.3037e-07
-5.15313e-05 0.000188662 -9.49602e-08
5.3037e-07 -9.49602e-08 0.000170451
0.00089746 -5.1838e-05 2.3654e-05
-5.1838e-05 0.000190415 7.4986e-06
2.3654e-05 7.4986e-06 0.000191631
0.00238516 -0.000101286 3.74997e-06
-0.000101286 0.00109421 -3.34762e-07
3.74997e-06 -3.34762e-07 0.00109844
0.00241592 -0.000113572 -3.28771e-05
-0.000113572 0.00112117 -3.02439e-06
-3.28771e-05 -3.02439e-06 0.00112213
0.000461 1.87246e-05 1.31257e-06
1.87246e-05 -5.94331e-05 -6.5497e-06
1.31257e-06 -6.5497e-06 -9.35126e-05
0.00312899 0.000133744 5.84062e-05
0.000133744 0.00155368 -3.22368e-06
5.84062e-05 -3.22368e-06 0.00154822
0.00052304 -4.9654e-06 -4.27241e-07
-4.9654e-06 -2.33842e-05 2.46076e-07
-4.27241e-07 2.46076e-07 -6.54332e-05
0.0036445 0.000121519 -5.8348e-06
0.000121519 0.0018638 -5.50683e-07
-5.8348e-06 -5.50683e-07 0.00186059
0.000632963 -1.84949e-05 -7.3908e-06
-1.84949e-05 3.6957e-05 9.93585e-06
-7.3908e-06 9.93585e-06 -1.40777e-05
0.00417301 0.000120952 -0.000134202
0.000120952 0.0021798 8.10598e-06
-0.000134202 8.10598e-06 0.00217549
0.00098255 0.000113285 -1.27384e-05
0.000113285 -3.71846e-05 -3.72663e-06
-1.27384e-05 -3.72663e-06 -0.000176851
0.000989255 6.7498e-05 -1.21102e-05
6.7498e-05 -4.15643e-05 -2.09478e-06
-1.21102e-05 -2.09478e-06 -0.000169174
0.00149005 0.00013514 -3.15081e-06
0.00013514 7.52071e-05 -2.53539e-07
-3.15081e-06 -2.53539e-07 -6.95525e-05
0.00146884 6.06597e-05 -1.74705e-06
6.06597e-05 5.66241e-05 2.78874e-08
-1.74705e-06 2.78874e-08 -7.09152e-05
0.000989285 2.44113e-05 -1.23497e-05
2.44113e-05 -3.7058e-05 -7.42252e-07
-1.23497e-05 -7.42252e-07 -0.000158304
0.000569295 2.74235e-05 -1.90426e-05
2.74235e-05 -0.000128697 -1.48624e-07
-1.90426e-05 -1.48624e-07 -0.000196513
0.000987905 1.90234e-06 2.8361e-10
1.90234e-06 -3.34711e-05 -1.52029e-07
2.8361e-10 -1.52029e-07 -0.000153793
0.00145802 3.38281e-05 -6.79294e-08
3.38281e-05 5.29286e-05 4.06836e-08
-6.79294e-08 4.06836e-08 -7.10373e-05
0.00148872 9.6692e-05 -2.74492e-09
9.6692e-05 6.7513e-05 3.01964e-08
-2.74492e-09 3.01964e-08 -6.67242e-05
0.00181111 8.66267e-05 8.2014e-08
8.66267e-05 0.000103717 2.45435e-07
8.2014e-08 2.45435e-07 5.77359e-06
0.00148271 0.000173917 -2.18582e-07
0.000173917 8.8804e-05 -8.43988e-08
-2.18582e-07 -8.43988e-08 -6.80054e-05
0.00179664 0.000179156 -3.13261e-07
0.000179156 0.000126957 -9.75123e-10
-3.13261e-07 -9.75123e-10 -3.7768e-07
0.00145131 5.32002e-06 1.86277e-06
5.32002e-06 5.21512e-05 2.72208e-08
1.86277e-06 2.72208e-08 -7.07724e-05
0.00181941 4.4606e-05 -3.5725e-06
4.4606e-05 0.000119894 -1.44432e-07
-3.5725e-06 -1.44432e-07 3.0231e-05
0.00180985 0.000138441 -1.5245e-06
0.000138441 0.00010911 -8.93272e-07
-1.5245e-06 -8.93272e-07 -2.77015e-06
0.00177995 8.70686e-05 3.18217e-06
8.70686e-05 2.50821e-05 3.14797e-07
3.18217e-06 3.14797e-07 -4.80727e-05
0.00180428 0.000224459 1.13724e-07
0.000224459 0.00016451 -1.19722e-06
1.13724e-07 -1.19722e-06 1.85637e-05
0.00175656 0.000200635 -3.68339e-07
0.000200635 4.10945e-05 -1.19072e-06
-3.68339e-07 -1.19072e-06 -6.03386e-05
0.000767291 -6.34648e-06 -1.21575e-05
-6.34648e-06 -0.000163451 7.22903e-07
-1.21575e-05 7.22903e-07 -0.000284629
0.00172583 -6.82599e-05 -2.39708e-05
-6.82599e-05 0.000401088 2.88562e-06
-2.39708e-05 2.88562e-06 0.000283585
0.00176946 -4.57649e-05 -5.07469e-06
-4.57649e-05 0.000244145 1.33186e-07
-5.07469e-06 1.33186e-07 0.000124032
0.00167223 -0.000137962 -4.07414e-06
-0.000137962 0.000208877 9.66921e-07
-4.07414e-06 9.66921e-07 6.5831e-05
0.000735586 -9.66767e-05 -1.6342e-05
-9.66767e-05 7.99054e-05 1.40389e-05
-1.6342e-05 1.40389e-05 8.43049e-06
0.000769877 -0.0001859 -8.63761e-06
-0.0001859 5.29342e-05 7.08093e-06
-8.63761e-06 7.08093e-06 -0.000118482
0.00106363 -0.000246935 -5.41984e-06
-0.000246935 5.68871e-05 2.50262e-06
-5.41984e-06 2.50262e-06 -0.000149736
0.00170551 -0.0002069 -7.88411e-06
-0.0002069 0.000273091 2.26818e-06
-7.88411e-06 2.26818e-06 0.000110317
0.00188749 -0.000220592 5.29561e-07
-0.000220592 0.000210093 -1.13147e-06
5.29561e-07 -1.13147e-06 7.55489e-05
0.00167073 -0.000279042 -1.11597e-06
-0.000279042 0.000170924 -6.24352e-07
-1.11597e-06 -6.24352e-07 -4.7487e-06
0.00177243 -0.000348736 -4.68736e-06
-0.000348736 0.000322411 -4.19769e-07
-4.68736e-06 -4.19769e-07 9.88975e-05
0.0017965 -0.000332487 3.07729e-06
-0.000332487 0.000212569 -2.57641e-06
3.07729e-06 -2.57641e-06 2.98002e-05
0.000774351 -0.000129517 -3.83067e-06
-0.000129517 0.000120473 5.05465e-06
-3.83067e-06 5.05465e-06 -2.54629e-05
0.000435399 -8.94889e-05 -4.98847e-07
-8.94889e-05 -6.95006e-05 -1.12692e-06
-4.98847e-07 -1.12692e-06 -0.000237206
0.000600364 -5.06361e-05 -1.64018e-06
-5.06361e-05 2.72996e-05 3.2891e-06
-1.64018e-06 3.2891e-06 -8.27112e-05
0.00157295 -1.93705e-05 -2.02229e-06
-1.93705e-05 0.000128307 1.38404e-07
-2.02229e-06 1.38404e-07 5.06469e-06
0.00174314 -9.86375e-05 -2.83393e-06
-9.86375e-05 0.000233325 4.44851e-07
-2.83393e-06 4.44851e-07 0.000104369
0.00174689 -7.10135e-05 1.66828e-06
-7.10135e-05 8.89994e-05 5.75692e-07
1.66828e-06 5.75692e-07 -9.16453e-06
0.00175571 -0.000169814 -1.69015e-06
-0.000169814 0.00011008 5.29747e-07
-1.69015e-06 5.29747e-07 -1.62648e-05
0.000751127 -0.00016197 3.97567e-07
-0.00016197 9.6886e-05 1.19318e-07
3.97567e-07 1.19318e-07 -6.71709e-05
0.00109829 -0.00024526 -1.56263e-06
-0.00024526 0.000168028 -6.62128e-07
-1.56263e-06 -6.62128e-07 -4.53523e-05
0.00144124 -0.000336972 2.44745e-06
-0.000336972 0.000219757 -2.82621e-07
2.44745e-06 -2.82621e-07 -2.58299e-05
0.00164279 -0.00025066 -9.18103e-07
-0.00025066 0.000118191 6.08654e-07
-9.18103e-07 6.08654e-07 -4.03382e-05
0.00187954 -0.000240812 1.68748e-06
-0.000240812 0.000157366 3.8583e-08
1.68748e-06 3.8583e-08 4.60552e-05
0.00181986 -0.000383868 -7.37845e-07
-0.000383868 0.000282325 4.13017e-07
-7.37845e-07 4.13017e-07 5.46715e-05
0.00175747 -0.000307351 7.12579e-08
-0.000307351 0.000150832 3.56615e-07
7.12579e-08 3.56615e-07 -7.37078e-06
0.0020345 -0.000355073 1.88967e-06
-0.000355073 0.000334402 -2.43095e-07
1.88967e-06 -2.43095e-07 0.000168766
0.000979887 -0.000187939 3.93204e-07
-0.000187939 0.000227682 8.79844e-07
3.93204e-07 8.79844e-07 4.78346e-05
0.00116928 -0.000224018 -3.10559e-07
-0.000224018 0.000352026 3.26442e-07
-3.10559e-07 3.26442e-07 0.000153665
0.000626341 -3.48194e-05 -5.38158e-08
-3.48194e-05 4.46613e-05 1.75577e-07
-5.38158e-08 1.75577e-07 -4.98121e-05
0.000349865 -4.67195e-05 -1.04047e-07
-4.67195e-05 -0.000102564 -6.71671e-07
-1.04047e-07 -6.71671e-07 -0.000260725
0.00176075 -3.87808e-05 -2.43949e-06
-3.87808e-05 9.59321e-05 1.45415e-07
-2.43949e-06 1.45415e-07 5.67888e-07
0.00184253 -0.000117964 -5.60657e-07
-0.000117964 0.000144025 1.39714e-06
-5.60657e-07 1.39714e-06 3.37222e-05
0.00174372 -8.10896e-05 2.13763e-06
-8.10896e-05 3.89468e-05 -1.47113e-07
2.13763e-06 -1.47113e-07 -3.82937e-05
0.00180611 -0.000196074 -3.04518e-06
-0.000196074 7.02414e-05 6.82198e-07
-3.04518e-06 6.82198e-07 -2.15469e-05
0.00172849 -0.000272735 -3.2232e-06
-0.000272735 0.000101427 2.577e-06
-3.2232e-06 2.577e-06 -3.09468e-05
0.00200256 -0.000248851 2.73476e-06
-0.000248851 0.00021552 -1.0464e-06
2.73476e-06 -1.0464e-06 0.00011801
0.000972932 -0.000217495 7.01909e-07
-0.000217495 0.000180408 -4.33833e-06
7.01909e-07 -4.33833e-06 -1.91489e-05
0.00165845 -0.000317632 -4.4842e-06
-0.000317632 7.25646e-05 2.17765e-06
-4.4842e-06 2.17765e-06 -6.35456e-05
0.00125439 -0.0003061 2.80346e-06
-0.0003061 0.000215354 -4.19928e-06
2.80346e-06 -4.19928e-06 -3.24987e-05
0.00169305 -0.000412106 -1.69152e-06
-0.000412106 0.000304743 1.78149e-06
-1.69152e-06 1.78149e-06 3.32023e-05
0.00175815 -0.000391786 1.53047e-06
-0.000391786 0.000200684 4.944e-06
1.53047e-06 4.944e-06 -2.25486e-05
0.00204673 -0.000343062 1.70927e-07
-0.000343062 0.00032996 7.90476e-07
1.70927e-07 7.90476e-07 0.000171861
0.000527023 -3.60553e-05 9.49751e-07
-3.60553e-05 -1.31919e-05 -3.3741e-06
9.49751e-07 -3.3741e-06 -9.40887e-05
0.000454511 -4.33038e-05 -1.75859e-06
-4.33038e-05 -2.95024e-05 -1.05761e-06
-1.75859e-06 -1.05761e-06 -0.000173889
0.000891896 -0.000218646 -1.56083e-06
-0.000218646 0.000145538 7.03668e-07
-1.56083e-06 7.03668e-07 -5.01256e-05
0.000822667 -0.000156982 2.45345e-07
-0.000156982 0.000196802 3.0227e-06
2.45345e-07 3.0227e-06 2.5329e-06
0.00147849 -0.000274319 -4.4593e-06
-0.000274319 0.00051761 4.51741e-06
-4.4593e-06 4.51741e-06 0.000317134
0.000478173 -6.17819e-05 -3.7408e-07
-6.17819e-05 -5.05706e-05 -5.11827e-06
-3.7408e-07 -5.11827e-06 -7.92141e-05
0.00143304 0.000204244 -4.48349e-06
0.000204244 9.41381e-05 -1.27225e-06
-4.48349e-06 -1.27225e-06 -7.62467e-05
0.0004829 -3.12078e-05 -3.54772e-07
-3.12078e-05 -3.80245e-05 -3.56448e-06
-3.54772e-07 -3.56448e-06 -0.000119976
0.000685044 8.88071e-05 -1.83551e-06
8.88071e-05 7.46324e-05 -4.81722e-06
-1.83551e-06 -4.81722e-06 -6.37877e-05
0.000565693 6.59993e-05 1.25975e-06
6.59993e-05 3.77246e-05 -6.52296e-07
1.25975e-06 -6.52296e-07 -0.000122203
0.00133956 0.000243149 -6.27939e-06
0.000243149 0.000139724 -2.37075e-06
-6.27939e-06 -2.37075e-06 -5.2196e-05
0.00168156 0.00030241 1.49384e-08
0.00030241 0.000169352 6.06888e-07
1.49384e-08 6.06888e-07 -2.06064e-05
0.000864536 0.000209211 -1.50557e-06
0.000209211 0.000107909 -4.12443e-06
-1.50557e-06 -4.12443e-06 -0.000102701
0.00138994 0.00030068 -2.73677e-06
0.00030068 0.00025285 -1.42347e-06
-2.73677e-06 -1.42347e-06 1.54488e-06
0.00176031 0.00033004 -2.23953e-06
0.00033004 0.000363765 -3.42362e-07
-2.23953e-06 -3.42362e-07 0.000147097
0.00158383 0.000315843 -5.6186e-06
0.000315843 0.000243326 3.74453e-06
-5.6186e-06 3.74453e-06 1.85569e-05
0.000534559 -5.17502e-05 1.01346e-08
-5.17502e-05 -3.05711e-05 3.96274e-09
1.01346e-08 3.96274e-09 -5.3716e-05
0.000631915 -1.72822e-05 -6.29673e-07
-1.72822e-05 3.71836e-05 2.95658e-07
-6.29673e-07 2.95658e-07 -2.89166e-05
0.00096832 0.000182863 -2.18695e-07
0.000182863 0.00023233 1.08765e-06
-2.18695e-07 1.08765e-06 5.00775e-05
0.000671768 2.13095e-05 -4.54654e-07
2.13095e-05 0.000102049 8.08921e-08
-4.54654e-07 8.08921e-08 -3.25307e-05
0.00061165 0.00011846 6.81568e-07
0.00011846 4.0562e-05 -6.45967e-07
6.81568e-07 -6.45967e-07 -0.000137835
0.00175948 0.000269247 -2.92483e-07
0.000269247 0.000165986 -9.01991e-07
-2.92483e-07 -9.01991e-07 -2.15275e-06
0.00160891 0.000327558 4.94316e-07
0.000327558 0.000193263 2.03355e-07
4.94316e-07 2.03355e-07 -1.59849e-05
0.00174998 0.000337315 1.78361e-06
0.000337315 0.000173919 2.12826e-07
1.78361e-06 2.12826e-07 -9.71853e-06
0.00122099 0.000275863 1.382e-06
0.000275863 0.000275625 6.08641e-07
1.382e-06 6.08641e-07 2.82587e-05
0.00182609 0.000386479 9.82605e-07
0.000386479 0.000318968 1.52748e-07
9.82605e-07 1.52748e-07 9.07813e-05
0.00135648 0.00030562 -1.23753e-06
0.00030562 0.000177068 4.08253e-07
-1.23753e-06 4.08253e-07 -7.33403e-05
0.00068147 -3.47811e-06 2.12531e-06
-3.47811e-06 5.66894e-05 2.64321e-06
2.12531e-06 2.64321e-06 -3.56338e-07
0.000891067 6.01199e-05 6.97237e-07
6.01199e-05 0.000220922 2.78416e-06
6.97237e-07 2.78416e-06 0.000110145
0.00105639 0.000236191 -3.06854e-06
0.000236191 0.000247714 -7.23538e-07
-3.06854e-06 -7.23538e-07 4.6036e-05
0.00126188 9.36297e-05 -1.1465e-07
9.36297e-05 0.00045723 7.06689e-07
-1.1465e-07 7.06689e-07 0.000287223
0.00115273 0.000146391 -5.84888e-06
0.000146391 0.000316068 -6.49771e-06
-5.84888e-06 -6.49771e-06 0.000149811
0.0017873 0.0002799 -2.92136e-06
0.0002799 0.0001493 -2.62376e-06
-2.92136e-06 -2.62376e-06 -1.9981e-06
0.00180898 0.000386051 1.33315e-06
0.000386051 0.000255045 2.42688e-07
1.33315e-06 2.42688e-07 4.24463e-05
0.0015468 0.00035775 3.28197e-06
0.00035775 2.94381e-05 -7.62074e-07
3.28197e-06 -7.62074e-07 -0.000151749
0.000820945 0.000253641 -1.44735e-06
0.000253641 3.1353e-05 2.4602e-06
-1.44735e-06 2.4602e-06 -0.000219741
0.00141234 0.000357145 6.23035e-06
0.000357145 0.000131211 -1.23018e-06
6.23035e-06 -1.23018e-06 -0.000114842
0.000622416 -4.483e-06 -1.87581e-07
-4.483e-06 1.87514e-05 2.72839e-08
-1.87581e-07 2.72839e-08 -3.37021e-05
0.00055274 2.5434e-05 1.50778e-06
2.5434e-05 -3.39093e-06 1.60256e-06
1.50778e-06 1.60256e-06 -8.50708e-05
0.000540675 1.55184e-05 -6.016e-07
1.55184e-05 -6.61401e-06 -1.09867e-07
-6.016e-07 -1.09867e-07 -8.8042e-05
0.000928959 9.53258e-05 3.53269e-07
9.53258e-05 0.000236313 -5.53462e-07
3.53269e-07 -5.53462e-07 0.0001342
0.000677332 7.32553e-05 1.94198e-06
7.32553e-05 8.27593e-05 1.48419e-06
1.94198e-06 1.48419e-06 -3.31935e-06
0.000613275 3.04413e-05 2.22522e-06
3.04413e-05 2.26715e-05 2.4443e-06
2.22522e-06 2.4443e-06 -2.93309e-05
0.000610291 -7.61018e-06 -6.34888e-07
-7.61018e-06 1.65227e-05 -5.53488e-09
-6.34888e-07 -5.53488e-09 -3.47658e-05
0.00124411 -3.85217e-05 8.71304e-07
-3.85217e-05 0.000378165 2.57721e-06
8.71304e-07 2.57721e-06 0.000365913
0.000614463 -1.49638e-05 -1.30571e-06
-1.49638e-05 1.4975e-05 -2.41527e-06
-1.30571e-06 -2.41527e-06 -3.58596e-05
0.00129631 -4.8126e-05 -5.43345e-06
-4.8126e-05 0.000412522 -1.40687e-06
-5.43345e-06 -1.40687e-06 0.000398868
0.000858583 -4.06455e-05 2.34181e-05
-4.06455e-05 0.000158714 7.62565e-06
2.34181e-05 7.62565e-06 0.000163146
0.00131503 -5.70738e-05 -9.58786e-06
-5.70738e-05 0.000429497 -3.91011e-06
-9.58786e-06 -3.91011e-06 0.000413566
0.00158488 -6.85114e-05 2.10263e-05
-6.85114e-05 0.000604208 1.90368e-06
2.10263e-05 1.90368e-06 0.000608702
0.00233511 -9.82576e-05 -2.90057e-05
-9.82576e-05 0.00106302 -3.57737e-06
-2.90057e-05 -3.57737e-06 0.0010679
0.000460468 6.48858e-05 -2.44744e-06
6.48858e-05 -5.59825e-05 -5.37322e-06
-2.44744e-06 -5.37322e-06 -8.79758e-05
0.000506194 1.81072e-05 3.93689e-07
1.81072e-05 -3.14318e-05 3.48572e-07
3.93689e-07 3.48572e-07 -6.68496e-05
0.00275147 0.000122758 3.38376e-05
0.000122758 0.00132284 -3.50424e-06
3.38376e-05 -3.50424e-06 0.00132024
0.00324097 0.000110976 -7.1626e-06
0.000110976 0.00161766 -4.42024e-07
-7.1626e-06 -4.42024e-07 0.00161766
0.000629473 -6.45717e-06 -5.86269e-06
-6.45717e-06 3.9141e-05 8.12998e-06
-5.86269e-06 8.12998e-06 -3.64095e-06
0.0037635 0.000106744 -0.000118962
0.000106744 0.00193073 6.81402e-06
-0.000118962 6.81402e-06 0.00193086
0.00147149 0.000173369 -3.93737e-06
0.000173369 8.40327e-05 -5.63435e-07
-3.93737e-06 -5.63435e-07 -7.30396e-05
0.00147409 9.70711e-05 -2.14397e-06
9.70711e-05 6.00988e-05 -5.82594e-08
-2.14397e-06 -5.82594e-08 -7.45719e-05
0.00178048 0.000177714 -3.29515e-07
0.000177714 0.000121211 1.29571e-06
-3.29515e-07 1.29571e-06 -6.23442e-06
0.00182043 8.56219e-05 1.16196e-06
8.56219e-05 0.000103267 7.06564e-07
1.16196e-06 7.06564e-07 8.19802e-06
0.00145427 3.66821e-05 -1.72057e-06
3.66821e-05 5.17185e-05 -3.37369e-08
-1.72057e-06 -3.37369e-08 -7.2424e-05
0.000992782 6.49909e-06 -1.2131e-05
6.49909e-06 -3.11538e-05 -8.46219e-08
-1.2131e-05 -8.46219e-08 -0.000151441
0.0014461 8.88355e-06 7.14353e-08
8.88355e-06 5.06403e-05 3.15107e-08
7.14353e-08 3.15107e-08 -7.23861e-05
0.00181346 3.58316e-05 -2.02483e-06
3.58316e-05 0.000116894 -6.60799e-08
-2.02483e-06 -6.60799e-08 2.7674e-05
0.00181309 0.000137184 -2.92572e-07
0.000137184 0.000110826 2.25398e-07
-2.92572e-07 2.25398e-07 -9.61313e-07
0.00181004 8.53881e-05 2.30514e-06
8.53881e-05 4.2913e-05 7.25378e-07
2.30514e-06 7.25378e-07 -2.49002e-05
0.00177687 0.000224983 -2.84802e-07
0.000224983 0.000143581 -9.30844e-08
-2.84802e-07 -9.30844e-08 -2.97429e-06
0.00178524 0.000197679 -3.79603e-07
0.000197679 5.61541e-05 8.38072e-07
-3.79603e-07 8.38072e-07 -4.22519e-05
0.00177859 1.66976e-06 -2.70905e-06
1.66976e-06 0.000105976 1.59925e-07
-2.70905e-06 1.59925e-07 1.70828e-05
0.00177443 4.00905e-05 3.49045e-06
4.00905e-05 3.37117e-05 2.25593e-07
3.49045e-06 2.25593e-07 -2.81159e-05
0.00182082 0.000143741 -3.45785e-08
0.000143741 5.23219e-05 -6.11774e-07
-3.45785e-08 -6.11774e-07 -2.69465e-05
0.00181542 9.13413e-05 5.6117e-06
9.13413e-05 2.28117e-05 6.26468e-07
5.6117e-06 6.26468e-07 -2.92284e-05
0.00175905 0.000224482 -3.86733e-07
0.000224482 8.73742e-05 -2.26014e-06
-3.86733e-07 -2.26014e-06 -3.3493e-05
0.00191644 0.000206863 3.80746e-06
0.000206863 9.70103e-05 9.21423e-07
3.80746e-06 9.21423e-07 1.5084e-05
0.00147169 -1.7295e-05 -3.7514e-06
-1.7295e-05 6.71725e-05 8.31635e-08
-3.7514e-06 8.31635e-08 -5.63738e-05
0.00175459 -0.000103631 -5.95358e-06
-0.000103631 0.000239055 6.89142e-07
-5.95358e-06 6.89142e-07 0.000109472
0.00178053 -6.90496e-05 3.42108e-06
-6.90496e-05 0.00010971 -1.24663e-06
3.42108e-06 -1.24663e-06 1.68275e-05
0.00174279 -0.000166483 -2.76075e-07
-0.000166483 0.000101783 -1.11929e-07
-2.76075e-07 -1.11929e-07 -2.58186e-05
0.000874451 -0.000185773 -5.69084e-06
-0.000185773 0.000171296 7.62521e-06
-5.69084e-06 7.62521e-06 3.43124e-06
0.00113645 -0.000249621 -6.3727e-06
-0.000249621 0.000185279 3.84445e-06
-6.3727e-06 3.84445e-06 -2.85305e-05
0.00134094 -0.000323227 -6.31117e-07
-0.000323227 0.000168201 7.7951e-07
-6.31117e-07 7.7951e-07 -7.53704e-05
0.00164222 -0.000249321 -1.11491e-06
-0.000249321 0.000120121 1.56252e-07
-1.11491e-06 1.56252e-07 -4.17181e-05
0.0019142 -0.000241993 2.83006e-06
-0.000241993 0.000178399 -1.66939e-06
2.83006e-06 -1.66939e-06 7.12394e-05
0.00179546 -0.000308633 2.18803e-06
-0.000308633 0.000173089 -1.16067e-06
2.18803e-06 -1.16067e-06 1.4972e-05
0.00174205 -0.000386221 -4.62902e-07
-0.000386221 0.000232193 -1.94692e-06
-4.62902e-07 -1.94692e-06 1.31642e-06
0.00204886 -0.000351252 5.53379e-06
-0.000351252 0.000342248 -6.17023e-06
5.53379e-06 -6.17023e-06 0.000180347
0.000909568 -0.000187269 5.41077e-07
-0.000187269 0.000188275 1.74642e-06
5.41077e-07 1.74642e-06 7.40867e-06
0.000629888 -0.000159298 7.58101e-07
-0.000159298 2.18237e-05 -8.41557e-07
7.58101e-07 -8.41557e-07 -0.000162103
0.000701794 -4.08165e-05 -1.32179e-06
-4.08165e-05 8.69989e-05 3.60155e-06
-1.32179e-06 3.60155e-06 -7.75189e-06
0.000245817 -1.67157e-05 8.97304e-07
-1.67157e-05 -0.00016966 -2.25019e-06
8.97304e-07 -2.25019e-06 -0.000319578
0.00175636 -3.8879e-05 6.57342e-09
-3.8879e-05 9.47799e-05 1.11389e-07
6.57342e-09 1.11389e-07 -6.95014e-07
0.00178969 -0.000117229 6.35141e-07
-0.000117229 0.000115937 -3.50961e-07
6.35141e-07 -3.50961e-07 3.48881e-06
0.00175837 -7.92954e-05 2.15518e-06
-7.92954e-05 4.66191e-05 -6.11985e-07
2.15518e-06 -6.11985e-07 -2.62949e-05
0.00177804 -0.000192537 -1.80087e-06
-0.000192537 5.94677e-05 6.68374e-07
-1.80087e-06 6.68374e-07 -3.43116e-05
0.00100139 -0.000213783 -1.21192e-06
-0.000213783 0.000198267 6.42198e-07
-1.21192e-06 6.42198e-07 -3.60566e-07
0.00105853 -0.000282537 1.72254e-06
-0.000282537 9.85089e-05 -1.91268e-06
1.72254e-06 -1.91268e-06 -0.000142646
0.00162431 -0.000411458 -2.05913e-07
-0.000411458 0.000263102 1.03403e-06
-2.05913e-07 1.03403e-06 -1.18324e-05
0.00170073 -0.000269986 -1.52362e-06
-0.000269986 9.106e-05 7.82665e-07
-1.52362e-06 7.82665e-07 -4.49522e-05
0.00186738 -0.000245225 1.9859e-06
-0.000245225 0.000133289 -1.0075e-06
1.9859e-06 -1.0075e-06 4.00486e-05
0.00175667 -0.000394364 -5.77879e-07
-0.000394364 0.00020527 6.03691e-07
-5.77879e-07 6.03691e-07 -1.95174e-05
0.00171821 -0.000321262 -6.27601e-07
-0.000321262 0.00010312 1.05565e-06
-6.27601e-07 1.05565e-06 -3.35166e-05
0.00188981 -0.000333063 3.70093e-06
-0.000333063 0.000225477 -5.54704e-06
3.70093e-06 -5.54704e-06 7.29108e-05
0.00104684 -0.000234063 6.08121e-07
-0.000234063 0.000232695 1.51457e-06
6.08121e-07 1.51457e-06 3.45508e-05
0.00128702 -0.000249608 3.67334e-06
-0.000249608 0.000395772 1.37702e-06
3.67334e-06 1.37702e-06 0.000205038
0.000769572 -0.000122301 -2.12221e-07
-0.000122301 0.000161635 -2.85137e-07
-2.12221e-07 -2.85137e-07 -3.2462e-05
0.00046039 -1.06668e-05 -1.40973e-06
-1.06668e-05 -5.32358e-05 4.73486e-07
-1.40973e-06 4.73486e-07 -0.000135545
0.00036553 -9.59623e-06 -3.32903e-07
-9.59623e-06 -8.46001e-05 -5.75121e-07
-3.32903e-07 -5.75121e-07 -0.000222189
0.00188105 -5.11298e-05 1.85772e-06
-5.11298e-05 0.000102895 -7.11016e-07
1.85772e-06 -7.11016e-07 4.4507e-05
0.00188073 -0.00011548 3.2069e-06
-0.00011548 9.59229e-05 1.51081e-07
3.2069e-06 1.51081e-07 2.27145e-05
0.00184008 -0.000233595 1.05709e-06
-0.000233595 6.59079e-05 -1.80215e-06
1.05709e-06 -1.80215e-06 -9.42578e-06
0.00167584 -0.000270024 -3.84398e-07
-0.000270024 4.14773e-05 -2.6693e-07
-3.84398e-07 -2.6693e-07 -6.51668e-05
0.00121157 -0.000267266 -2.17353e-06
-0.000267266 0.000283399 -4.51049e-06
-2.17353e-06 -4.51049e-06 5.96605e-05
0.00224142 -0.000385177 -2.9842e-06
-0.000385177 0.00034448 3.04423e-07
-2.9842e-06 3.04423e-07 0.000209506
0.00138118 -0.000363988 2.75615e-06
-0.000363988 0.000251806 -4.40181e-06
2.75615e-06 -4.40181e-06 -2.77532e-05
0.00174109 -0.00046098 -5.13204e-07
-0.00046098 0.000292515 2.14243e-06
-5.13204e-07 2.14243e-06 2.804e-06
0.00164543 -0.000378481 1.94013e-06
-0.000378481 0.00011528 3.89255e-06
1.94013e-06 3.89255e-06 -0.000100035
0.000230502 1.00421e-05 1.23679e-07
1.00421e-05 -0.000189198 -3.52958e-06
1.23679e-07 -3.52958e-06 -0.000258995
0.000716971 -4.58053e-05 5.5221e-07
-4.58053e-05 0.000137807 -8.998e-07
5.5221e-07 -8.998e-07 8.86028e-06
0.000996868 -7.8714e-05 -1.37876e-06
-7.8714e-05 0.000293487 1.18749e-06
-1.37876e-06 1.18749e-06 0.000127922
0.00115486 -0.000255014 -7.28607e-06
-0.000255014 0.000275743 5.59646e-07
-7.28607e-06 5.59646e-07 7.44709e-05
0.000465541 -0.000129266 2.8247e-06
-0.000129266 -3.36571e-05 5.4289e-06
2.8247e-06 5.4289e-06 -0.000238041
0.000667254 -0.00021291 -1.75368e-06
-0.00021291 -5.59187e-06 9.52786e-07
-1.75368e-06 9.52786e-07 -0.000189125
0.000539556 -4.97447e-05 -1.0792e-06
-4.97447e-05 -2.88178e-05 -4.67616e-06
-1.0792e-06 -4.67616e-06 -5.14147e-05
0.000580108 -2.13002e-05 -1.75114e-06
-2.13002e-05 8.55622e-06 -2.79111e-06
-1.75114e-06 -2.79111e-06 -5.74612e-05
0.00174168 0.000269747 -1.5109e-06
0.000269747 0.000152464 -3.29683e-07
-1.5109e-06 -3.29683e-07 -1.61141e-05
0.000330885 -5.41453e-05 1.26918e-06
-5.41453e-05 -0.000102486 -2.60658e-06
1.26918e-06 -2.60658e-06 -0.000230161
0.000778533 0.000165365 -1.09903e-06
0.000165365 0.000121459 3.66672e-07
-1.09903e-06 3.66672e-07 -5.67759e-05
0.000102895 6.45386e-05 1.64983e-06
6.45386e-05 -0.000268843 1.57963e-06
1.64983e-06 1.57963e-06 -0.00043706
0.0016016 0.000327531 9.5938e-08
0.000327531 0.000187767 3.62405e-07
9.5938e-08 3.62405e-07 -2.18277e-05
0.00166692 0.000333065 5.06944e-07
0.000333065 0.000127804 1.40285e-07
5.06944e-07 1.40285e-07 -5.6016e-05
0.00133873 0.000287164 1.53291e-06
0.000287164 0.00035306 -1.62131e-06
1.53291e-06 -1.62131e-06 0.000101736
0.00196877 0.000357813 -1.31576e-06
0.000357813 0.000536513 -1.39329e-06
-1.31576e-06 -1.39329e-06 0.000281031
0.00172622 0.000377074 -2.70937e-06
0.000377074 0.000244609 1.43991e-07
-2.70937e-06 1.43991e-07 1.6519e-05
0.000620056 -3.7498e-06 -3.70281e-07
-3.7498e-06 2.14157e-05 2.60587e-07
-3.70281e-07 2.60587e-07 -3.54962e-05
0.000702676 2.60106e-06 -8.74772e-07
2.60106e-06 0.000107301 4.58676e-07
-8.74772e-07 4.58676e-07 2.18512e-06
0.00110713 0.000241447 -5.76695e-07
0.000241447 0.000280427 2.35859e-07
-5.76695e-07 2.35859e-07 7.67417e-05
0.000826811 4.48371e-05 4.73295e-07
4.48371e-05 0.000194291 -5.31528e-08
4.73295e-07 -5.31528e-08 3.28705e-05
0.000800125 0.000156426 1.72433e-06
0.000156426 0.000124318 1.30023e-06
1.72433e-06 1.30023e-06 -4.81831e-05
0.00176063 0.000281031 -1.97824e-06
0.000281031 0.000135963 -1.51691e-06
-1.97824e-06 -1.51691e-06 -1.65351e-05
0.00176631 0.000382334 1.62324e-06
0.000382334 0.000227926 3.93853e-07
1.62324e-06 3.93853e-07 1.55798e-05
0.00167586 0.000361721 4.20736e-07
0.000361721 0.000105682 -1.10924e-07
4.20736e-07 -1.10924e-07 -7.43841e-05
0.000843301 0.000262901 8.81632e-07
0.000262901 3.56825e-05 3.27199e-06
8.81632e-07 3.27199e-06 -0.000217199
0.00161665 0.000374499 -2.36438e-06
0.000374499 0.000262439 -1.15755e-06
-2.36438e-06 -1.15755e-06 1.3016e-05
0.000781802 3.72109e-05 6.05948e-07
3.72109e-05 0.000145455 1.98223e-06
6.05948e-07 1.98223e-06 5.32733e-05
0.000328868 -4.28431e-06 -1.86716e-06
-4.28431e-06 -0.000101992 2.42655e-06
-1.86716e-06 2.42655e-06 -0.0002282
0.00123403 0.000269585 -3.87558e-06
0.000269585 0.0003072 -1.9043e-06
-3.87558e-06 -1.9043e-06 0.000101127
0.000737269 0.000125975 -5.59633e-06
0.000125975 0.000160764 -4.85339e-06
-5.59633e-06 -4.85339e-06 -2.57441e-05
0.000718504 0.000214438 -1.29916e-06
0.000214438 4.11532e-05 -3.01955e-06
-1.29916e-06 -3.01955e-06 -0.00013333
0.001665 0.00030032 -8.34684e-07
0.00030032 1.4694e-05 -2.15823e-06
-8.34684e-07 -2.15823e-06 -0.000113664
0.00192014 0.000420212 3.40479e-06
0.000420212 0.000302347 -1.99134e-06
3.40479e-06 -1.99134e-06 7.70202e-05
0.00156584 0.000375144 1.98516e-06
0.000375144 3.26877e-05 3.65329e-08
1.98516e-06 3.65329e-08 -0.000150129
0.00126717 0.000311113 1.75154e-06
0.000311113 0.000232172 7.97785e-06
1.75154e-06 7.97785e-06 -3.75361e-05
0.00135631 0.00037898 -9.21565e-07
0.00037898 0.000123721 -7.80322e-07
-9.21565e-07 -7.80322e-07 -0.000128982
0.000601589 -1.48498e-05 -1.60817e-06
-1.48498e-05 7.23962e-06 -2.51616e-06
-1.60817e-06 -2.51616e-06 -4.57033e-05
0.000612768 3.00197e-05 1.03703e-06
3.00197e-05 3.41889e-05 3.39103e-07
1.03703e-06 3.39103e-07 -4.81885e-05
0.000519571 9.8671e-06 -1.20159e-07
9.8671e-06 -2.13966e-05 1.01214e-06
-1.20159e-07 1.01214e-06 -0.000108593
0.000427678 -2.7345e-05 -7.33987e-07
-2.7345e-05 -7.38846e-05 -1.45605e-06
-7.33987e-07 -1.45605e-06 -0.000154495
0.000655964 3.78444e-05 -2.8737e-07
3.78444e-05 6.92218e-05 1.25579e-08
-2.8737e-07 1.25579e-08 -1.53228e-05
0.000684602 5.1008e-05 -3.65743e-07
5.1008e-05 8.00505e-05 -3.39785e-07
-3.65743e-07 -3.39785e-07 -1.20068e-05
0.000807095 8.2533e-05 -1.28883e-06
8.2533e-05 0.000161815 -1.96124e-06
-1.28883e-06 -1.96124e-06 6.09417e-05
0.000492094 -9.56206e-06 7.72012e-07
-9.56206e-06 -1.84733e-05 1.97177e-07
7.72012e-07 1.97177e-07 -0.000121554
0.000685061 6.21234e-05 9.89045e-07
6.21234e-05 8.36048e-05 1.62347e-06
9.89045e-07 1.62347e-06 2.1948e-06
0.00062326 3.72879e-05 2.34999e-06
3.72879e-05 3.34542e-05 2.46362e-06
2.34999e-06 2.46362e-06 -2.00464e-05
0.000610356 1.90093e-06 -1.26981e-06
1.90093e-06 2.07526e-05 5.67627e-10
-1.26981e-06 5.67627e-10 -3.10796e-05
0.00125124 -2.62109e-05 9.82117e-07
-2.62109e-05 0.000381428 2.52301e-06
9.82117e-07 2.52301e-06 0.000370065
0.000572686 -4.7102e-05 -2.45083e-08
-4.7102e-05 -1.85123e-06 -2.42612e-06
-2.45083e-08 -2.42612e-06 -5.53101e-05
0.00129688 -3.53779e-05 -4.69777e-06
-3.53779e-05 0.000409442 -1.46143e-06
-4.69777e-06 -1.46143e-06 0.000397489
0.000851595 -3.2777e-05 1.97605e-05
-3.2777e-05 0.000149387 7.98887e-06
1.97605e-05 7.98887e-06 0.000155363
0.00133821 -4.58608e-05 -8.51035e-06
-4.58608e-05 0.000437248 -5.54811e-06
-8.51035e-06 -5.54811e-06 0.000423816
0.000804025 -4.16316e-05 7.17552e-06
-4.16316e-05 0.00012545 2.9956e-06
7.17552e-06 2.9956e-06 0.000129298
0.00226834 -9.1974e-05 -4.47466e-06
-9.1974e-05 0.00101477 -1.99361e-06
-4.47466e-06 -1.99361e-06 0.00102107
0.000492093 4.61817e-05 -8.73745e-07
4.61817e-05 -5.14594e-05 -3.96073e-06
-8.73745e-07 -3.96073e-06 -7.31861e-05
0.000505217 4.1597e-05 -1.26005e-06
4.1597e-05 -3.45296e-05 -1.4778e-08
-1.26005e-06 -1.4778e-08 -6.38074e-05
0.00250022 0.000104694 2.50758e-05
0.000104694 0.00116587 -3.67538e-06
2.50758e-05 -3.67538e-06 0.00116806
0.000578023 2.47869e-06 -4.61743e-06
2.47869e-06 8.16361e-06 6.86191e-06
-4.61743e-06 6.86191e-06 -2.59791e-05
0.0028871 0.000120249 -1.41751e-05
0.000120249 0.00140295 -6.85594e-07
-1.41751e-05 -6.85594e-07 0.0014012
0.00336495 9.80038e-05 -9.95011e-05
9.80038e-05 0.00168878 5.41276e-06
-9.95011e-05 5.41276e-06 0.00169177
0.00175019 0.000225382 -1.82421e-06
0.000225382 0.00012353 7.45588e-07
-1.82421e-06 7.45588e-07 -2.36042e-05
0.00181308 0.000134779 1.22171e-06
0.000134779 0.000111252 1.39085e-06
1.22171e-06 1.39085e-06 -2.98479e-07
0.00182399 0.000195139 7.65146e-07
0.000195139 7.69416e-05 2.10054e-06
7.65146e-07 2.10054e-06 -1.83458e-05
0.001843 8.37358e-05 8.91063e-07
8.37358e-05 6.24458e-05 1.0041e-06
8.91063e-07 1.0041e-06 1.88704e-07
0.00180957 2.94436e-05 -5.60487e-07
2.94436e-05 0.000115312 7.397e-08
-5.60487e-07 7.397e-08 2.64699e-05
0.00144669 1.17369e-05 -1.62037e-06
1.17369e-05 5.19028e-05 5.34474e-08
-1.62037e-06 5.34474e-08 -7.11459e-05
0.00175756 2.77802e-06 -1.87608e-06
2.77802e-06 9.2474e-05 -6.35239e-09
-1.87608e-06 -6.35239e-09 1.1127e-06
0.00179535 3.85893e-05 2.21753e-06
3.85893e-05 4.96544e-05 1.10336e-07
2.21753e-06 1.10336e-07 -1.37465e-05
0.00186815 0.000143592 -1.38298e-06
0.000143592 8.32006e-05 -5.72663e-07
-1.38298e-06 -5.72663e-07 3.87152e-06
0.00183944 9.34898e-05 1.59001e-06
9.34898e-05 3.46644e-05 4.86881e-07
1.59001e-06 4.86881e-07 -1.47924e-05
0.00177624 0.000223136 -8.75266e-07
0.000223136 0.000105496 -2.24369e-07
-8.75266e-07 -2.24369e-07 -1.52275e-05
0.00188188 0.000208375 3.56933e-06
0.000208375 7.74948e-05 1.47019e-06
3.56933e-06 1.47019e-06 -1.6888e-06
0.00180348 -6.97215e-06 1.51947e-06
-6.97215e-06 6.63357e-05 1.88166e-07
1.51947e-06 1.88166e-07 5.68705e-06
0.00186247 4.32728e-05 5.23441e-06
4.32728e-05 3.29691e-05 -5.47177e-10
5.23441e-06 -5.47177e-10 1.15566e-07
0.00189293 0.000146948 4.25907e-06
0.000146948 5.58707e-05 9.89874e-07
4.25907e-06 9.89874e-07 8.58387e-07
0.00193142 0.000261746 3.38441e-07
0.000261746 0.000119878 -1.83827e-07
3.38441e-07 -1.83827e-07 2.58052e-05
0.00175865 -3.90895e-05 1.67289e-06
-3.90895e-05 9.75164e-05 9.62831e-08
1.67289e-06 9.62831e-08 1.95582e-06
0.00173228 -0.00011795 2.34379e-06
-0.00011795 8.51639e-05 -1.20156e-06
2.34379e-06 -1.20156e-06 -2.95782e-05
0.00178408 -7.76742e-05 3.51379e-06
-7.76742e-05 6.11298e-05 -1.88674e-06
3.51379e-06 -1.88674e-06 -7.48558e-06
0.00177255 -0.000189281 -1.47193e-06
-0.000189281 6.09572e-05 3.16776e-07
-1.47193e-06 3.16776e-07 -3.45179e-05
0.00114891 -0.000226607 -1.70531e-06
-0.000226607 0.000287182 4.80489e-06
-1.70531e-06 4.80489e-06 8.54507e-05
0.000974541 -0.000269212 -1.09053e-06
-0.000269212 4.80197e-05 1.95807e-06
-1.09053e-06 1.95807e-06 -0.000187533
0.00161118 -0.000416388 1.18438e-06
-0.000416388 0.000255836 -7.57501e-07
1.18438e-06 -7.57501e-07 -2.3668e-05
0.00166425 -0.000267014 -1.25613e-07
-0.000267014 7.58663e-05 -2.91012e-07
-1.25613e-07 -2.91012e-07 -6.37678e-05
0.00171182 -0.000241155 2.582e-06
-0.000241155 3.86571e-05 -1.1012e-06
2.582e-06 -1.1012e-06 -5.03351e-05
0.00178284 -0.000325253 3.15191e-06
-0.000325253 0.000135897 -4.08417e-08
3.15191e-06 -4.08417e-08 -1.30484e-06
0.00174424 -0.000395358 -2.17921e-06
-0.000395358 0.000202589 -2.4151e-06
-2.17921e-06 -2.4151e-06 -2.33413e-05
0.00175521 -0.000324117 2.12323e-06
-0.000324117 0.0001353 -1.14663e-05
2.12323e-06 -1.14663e-05 -1.19185e-05
0.00124307 -0.000253283 3.18935e-06
-0.000253283 0.000346029 2.35058e-06
3.18935e-06 2.35058e-06 0.000144371
0.0010168 -0.000222169 4.70125e-06
-0.000222169 0.000222112 -3.16186e-06
4.70125e-06 -3.16186e-06 4.23682e-05
0.000689955 -9.93224e-05 1.94107e-06
-9.93224e-05 0.000111763 -4.15222e-06
1.94107e-06 -4.15222e-06 -8.36694e-05
0.000365883 7.17e-06 -9.67032e-07
7.17e-06 -0.000109048 3.18237e-06
-9.67032e-07 3.18237e-06 -0.000193507
0.000309969 1.80716e-05 1.43389e-06
1.80716e-05 -0.000120657 -5.78872e-09
1.43389e-06 -5.78872e-09 -0.000253703
0.00188303 -5.66161e-05 -1.72146e-07
-5.66161e-05 0.000105391 -1.61614e-07
-1.72146e-07 -1.61614e-07 4.39968e-05
0.00182445 -0.000117004 1.35916e-06
-0.000117004 6.02363e-05 -6.81055e-07
1.35916e-06 -6.81055e-07 -1.47972e-05
0.00184508 -0.000227286 -2.07883e-06
-0.000227286 7.80411e-05 2.91652e-07
-2.07883e-06 2.91652e-07 2.75878e-07
0.00116854 -0.000261454 -1.41153e-06
-0.000261454 0.000256703 -5.42765e-08
-1.41153e-06 -5.42765e-08 3.39563e-05
0.00101966 -0.00032096 1.30631e-06
-0.00032096 3.48211e-05 -1.98391e-06
1.30631e-06 -1.98391e-06 -0.000233422
0.00162572 -0.000456207 -2.85247e-07
-0.000456207 0.000227374 -4.70026e-08
-2.85247e-07 -4.70026e-08 -6.49908e-05
0.00168418 -0.000270518 5.70561e-07
-0.000270518 4.0878e-05 -3.10947e-07
5.70561e-07 -3.10947e-07 -6.61112e-05
0.00175116 -0.000382288 9.17961e-07
-0.000382288 0.000179254 -2.47566e-06
9.17961e-07 -2.47566e-06 -2.95481e-05
0.00191856 -0.000362401 -4.3224e-07
-0.000362401 0.000173141 -1.12734e-06
-4.3224e-07 -1.12734e-06 3.94495e-05
0.000283657 3.61727e-05 -4.56744e-07
3.61727e-05 -0.000163142 -9.02794e-07
-4.56744e-07 -9.02794e-07 -0.000228727
0.00123113 -0.000260398 -1.83701e-07
-0.000260398 0.000308136 1.57819e-06
-1.83701e-07 1.57819e-06 0.000107368
0.000629493 -0.000206897 4.03428e-07
-0.000206897 -2.26807e-05 7.77371e-07
4.03428e-07 7.77371e-07 -0.000195624
0.00098018 -0.000173963 -6.52172e-07
-0.000173963 0.000274814 5.7354e-07
-6.52172e-07 5.7354e-07 6.05697e-05
0.00111423 -8.24642e-05 3.93112e-07
-8.24642e-05 0.000361844 -1.15884e-06
3.93112e-07 -1.15884e-06 0.00019708
0.00059864 -2.61323e-06 -5.45493e-07
-2.61323e-06 5.93948e-05 5.51694e-07
-5.45493e-07 5.51694e-07 -6.59658e-05
0.00175174 -6.48344e-05 3.46137e-06
-6.48344e-05 -1.87343e-05 -3.36362e-07
3.46137e-06 -3.36362e-07 -6.31145e-05
0.00202492 -0.000159364 2.56987e-06
-0.000159364 0.000102851 -5.83796e-08
2.56987e-06 -5.83796e-08 6.15335e-05
0.00170575 -0.000263788 1.93435e-06
-0.000263788 -2.61827e-05 -1.82783e-06
1.93435e-06 -1.82783e-06 -9.40277e-05
0.00207418 -0.000339512 3.40959e-08
-0.000339512 0.000177043 -2.46355e-06
3.40959e-08 -2.46355e-06 7.54608e-05
0.00156423 -0.000322846 -5.24008e-06
-0.000322846 0.000437825 -5.32655e-06
-5.24008e-06 -5.32655e-06 0.000196336
0.00188585 -0.000405447 1.32457e-06
-0.000405447 0.000182618 3.85983e-06
1.32457e-06 3.85983e-06 9.2834e-06
0.00151125 -0.0004307 -4.49082e-06
-0.0004307 0.000280815 1.7462e-06
-4.49082e-06 1.7462e-06 -4.34452e-05
0.00167578 -0.000477131 -4.11089e-06
-0.000477131 0.000253029 2.66635e-06
-4.11089e-06 2.66635e-06 -5.14904e-05
0.000288246 5.38498e-05 -2.07877e-06
5.38498e-05 -0.000164803 -2.2879e-06
-2.07877e-06 -2.2879e-06 -0.000219658
0.000704493 9.04975e-07 -2.90713e-07
9.04975e-07 0.000118311 -6.20052e-07
-2.90713e-07 -6.20052e-07 1.21575e-05
0.000970333 -0.000107315 -1.85274e-06
-0.000107315 0.000283083 2.19552e-06
-1.85274e-06 2.19552e-06 0.00013575
0.000927206 -3.02879e-05 -2.06859e-06
-3.02879e-05 0.000245306 4.53916e-06
-2.06859e-06 4.53916e-06 4.767e-05
0.000518406 -0.000219559 -4.63925e-06
-0.000219559 -0.000129959 -4.02882e-06
-4.63925e-06 -4.02882e-06 -0.000333915
0.000985244 -0.000237038 -7.3976e-06
-0.000237038 0.000219366 2.67938e-06
-7.3976e-06 2.67938e-06 5.04429e-07
0.000563202 -1.14272e-05 -2.23717e-06
-1.14272e-05 -1.17285e-05 -2.42023e-06
-2.23717e-06 -2.42023e-06 -6.82066e-05
0.000501608 -3.39394e-05 5.48615e-07
-3.39394e-05 -1.90655e-05 -1.93796e-06
5.48615e-07 -1.93796e-06 -0.000115909
0.00173748 0.000282719 -2.25763e-06
0.000282719 0.000123312 -6.24202e-07
-2.25763e-06 -6.24202e-07 -3.04748e-05
0.000396215 -6.37266e-06 9.64492e-07
-6.37266e-06 -6.66928e-05 -9.7749e-07
9.64492e-07 -9.7749e-07 -0.000217501
0.00115075 0.00024568 1.89786e-06
0.00024568 0.000308758 -3.96491e-07
1.89786e-06 -3.96491e-07 0.000103882
9.02027e-05 7.59052e-05 3.51231e-06
7.59052e-05 -0.000308123 3.03015e-06
3.51231e-06 3.03015e-06 -0.000459504
0.00173206 0.000379651 -3.14167e-07
0.000379651 0.000203584 1.5628e-07
-3.14167e-07 1.5628e-07 -8.69915e-06
0.00181318 0.000366558 -2.02371e-06
0.000366558 0.000184342 1.08062e-06
-2.02371e-06 1.08062e-06 5.17875e-06
0.000948316 0.000278617 -8.04107e-07
0.000278617 9.08971e-05 4.18654e-07
-8.04107e-07 4.18654e-07 -0.000164701
0.00186084 0.000394648 -2.30989e-06
0.000394648 0.000417458 8.01772e-07
-2.30989e-06 8.01772e-07 0.000163363
0.000685839 1.41734e-05 -9.19151e-07
1.41734e-05 8.48719e-05 2.34028e-07
-9.19151e-07 2.34028e-07 -3.01538e-06
0.000606075 2.35471e-05 7.45023e-07
2.35471e-05 6.19063e-05 1.18485e-06
7.45023e-07 1.18485e-06 -6.62142e-05
0.00139032 0.000283836 -9.52083e-07
0.000283836 0.000411172 -2.62448e-06
-9.52083e-07 -2.62448e-06 0.000198627
0.000565957 4.13352e-05 -1.1186e-06
4.13352e-05 2.99359e-05 -3.3673e-07
-1.1186e-06 -3.3673e-07 -0.000130147
0.000558646 0.000180936 -1.66713e-06
0.000180936 -6.5349e-05 -5.98637e-07
-1.66713e-06 -5.98637e-07 -0.000219371
0.00188443 0.000311466 -2.89125e-06
0.000311466 0.000138827 -1.28623e-06
-2.89125e-06 -1.28623e-06 1.24918e-05
0.00200164 0.000421289 1.88002e-06
0.000421289 0.000354275 -3.48108e-07
1.88002e-06 -3.48108e-07 0.000131355
0.00173133 0.000393746 1.69338e-06
0.000393746 0.000116647 2.54396e-06
1.69338e-06 2.54396e-06 -6.97372e-05
0.00124499 0.000312195 3.58388e-06
0.000312195 0.00023315 4.47443e-06
3.58388e-06 4.47443e-06 -4.22218e-05
0.00144581 0.000394596 -3.24242e-06
0.000394596 0.000169504 4.49241e-07
-3.24242e-06 4.49241e-07 -8.99183e-05
0.000283814 -1.75656e-05 -1.1731e-06
-1.75656e-05 -0.000141982 2.79291e-06
-1.1731e-06 2.79291e-06 -0.00023932
-3.26314e-06 7.65203e-05 4.24119e-07
7.65203e-05 -0.000262253 1.66734e-07
4.24119e-07 1.66734e-07 -0.000428661
0.00101094 0.000256707 2.01432e-06
0.000256707 0.000153227 2.95587e-06
2.01432e-06 2.95587e-06 -6.7979e-05
-0.00052077 7.96296e-05 3.76663e-06
7.96296e-05 -0.000655935 -9.49692e-07
3.76663e-06 -9.49692e-07 -0.000821655
0.00200732 0.00032143 -1.02337e-06
0.00032143 3.37936e-05 -1.8643e-08
-1.02337e-06 -1.8643e-08 -2.49098e-05
0.00235848 0.000397381 4.1819e-07
0.000397381 0.000408121 -1.01149e-06
4.1819e-07 -1.01149e-06 0.000260628
0.00180933 0.000450256 -2.9883e-06
0.000450256 0.000253668 -4.01128e-06
-2.9883e-06 -4.01128e-06 7.97482e-06
0.000449496 0.000280603 -9.45487e-07
0.000280603 -0.000295609 2.12922e-06
-9.45487e-07 2.12922e-06 -0.000578386
0.000665534 6.09903e-05 -1.00598e-06
6.09903e-05 7.04062e-05 -8.19956e-07
-1.00598e-06 -8.19956e-07 -1.49946e-05
0.00061368 3.92872e-05 -1.65456e-07
3.92872e-05 4.28166e-05 2.6056e-07
-1.65456e-07 2.6056e-07 -5.02403e-05
0.000921397 3.23991e-05 -2.40683e-06
3.23991e-05 0.000223606 -1.48571e-06
-2.40683e-06 -1.48571e-06 0.000136581
0.000646184 1.08259e-05 -1.51958e-06
1.08259e-05 5.2346e-05 -1.47093e-06
-1.51958e-06 -1.47093e-06 -2.4013e-05
0.000440841 -1.1368e-06 -3.46786e-07
-1.1368e-06 -6.14565e-05 -6.83692e-07
-3.46786e-07 -6.83692e-07 -0.000152749
0.000659901 2.8524e-05 -2.09664e-08
2.8524e-05 7.09266e-05 9.27935e-09
-2.09664e-08 9.27935e-09 -1.15139e-05
0.000669486 8.1632e-05 -7.33212e-07
8.1632e-05 9.05701e-05 -2.05668e-07
-7.33212e-07 -2.05668e-07 -1.39668e-05
0.000594493 2.40165e-05 8.2042e-07
2.40165e-05 4.51329e-05 3.54837e-07
8.2042e-07 3.54837e-07 -6.02352e-05
0.000756079 5.45579e-05 9.20364e-07
5.45579e-05 0.000122357 -1.40925e-06
9.20364e-07 -1.40925e-06 3.29352e-05
0.000680791 -1.69782e-05 1.80486e-06
-1.69782e-05 9.48055e-05 -1.78113e-06
1.80486e-06 -1.78113e-06 -1.43673e-05
0.000521675 4.90263e-05 7.67054e-07
4.90263e-05 1.66402e-06 1.31457e-06
7.67054e-07 1.31457e-06 -0.000106424
0.000659392 7.38025e-05 1.36674e-06
7.38025e-05 7.45594e-05 2.05439e-06
1.36674e-06 2.05439e-06 -1.10316e-05
0.000566639 4.64085e-05 1.92961e-06
4.64085e-05 6.0796e-06 2.26216e-06
1.92961e-06 2.26216e-06 -5.0354e-05
0.000580692 -1.96309e-06 -1.16296e-06
-1.96309e-06 9.39253e-06 -1.698e-08
-1.16296e-06 -1.698e-08 -4.48104e-05
0.0012533 -1.4301e-05 8.03558e-07
-1.4301e-05 0.000383395 2.41751e-06
8.03558e-07 2.41751e-06 0.000372328
0.000576472 -4.39423e-05 9.34602e-08
-4.39423e-05 3.23744e-06 -2.42381e-06
9.34602e-08 -2.42381e-06 -5.01303e-05
0.00130301 -2.32166e-05 -3.96808e-06
-2.32166e-05 0.000412522 -1.54652e-06
-3.96808e-06 -1.54652e-06 0.000401255
0.000848149 -2.45461e-05 1.6695e-05
-2.45461e-05 0.000144434 8.30124e-06
1.6695e-05 8.30124e-06 0.0001513
0.00134542 -3.32139e-05 -7.18458e-06
-3.32139e-05 0.000438557 -5.57514e-06
-7.18458e-06 -5.57514e-06 0.000426617
0.000801772 -3.3312e-05 5.82838e-06
-3.3312e-05 0.00011872 3.09862e-06
5.82838e-06 3.09862e-06 0.000124389
0.000741567 -4.0317e-05 -1.18341e-06
-4.0317e-05 8.75512e-05 -2.18825e-06
-1.18341e-06 -2.18825e-06 9.14584e-05
0.000523184 3.71259e-05 2.11186e-07
3.71259e-05 -4.48992e-05 -3.37814e-06
2.11186e-07 -3.37814e-06 -6.03107e-05
0.000517032 5.44012e-05 2.11106e-08
5.44012e-05 -3.4009e-05 1.50461e-07
2.11106e-08 1.50461e-07 -5.76543e-05
0.00226618 8.63862e-05 1.99487e-05
8.63862e-05 0.00101775 -3.78126e-06
1.99487e-05 -3.78126e-06 0.00102481
0.000539837 3.49783e-05 -2.71669e-06
3.49783e-05 -1.41036e-05 5.77479e-06
-2.71669e-06 5.77479e-06 -4.347e-05
0.00256674 0.000106632 -6.49157e-06
0.000106632 0.00120566 -5.03181e-07
-6.49157e-06 -5.03181e-07 0.00120743
0.00298869 9.16034e-05 -7.79793e-05
9.16034e-05 0.00146007 4.25946e-06
-7.79793e-05 4.25946e-06 0.00146503
0.0017856 0.000221402 -2.93602e-07
0.000221402 0.000119721 2.07219e-06
-2.93602e-07 2.07219e-06 -8.37735e-07
0.00191534 0.000143332 -2.12704e-06
0.000143332 0.000113835 4.82803e-07
-2.12704e-06 4.82803e-07 3.43766e-05
0.0018316 0.000209112 1.81426e-06
0.000209112 4.86336e-05 5.43451e-07
1.81426e-06 5.43451e-07 -2.78873e-05
0.00186059 9.57364e-05 -3.69547e-06
9.57364e-05 4.52178e-05 -4.88649e-07
-3.69547e-06 -4.88649e-07 -1.99353e-06
0.0018156 3.75619e-05 8.1105e-07
3.75619e-05 6.54946e-05 -2.40807e-07
8.1105e-07 -2.40807e-07 3.00546e-07
0.00174275 8.23145e-07 -3.28418e-07
8.23145e-07 8.25241e-05 9.9649e-08
-3.28418e-07 9.9649e-08 -1.12566e-05
0.00178921 -4.02175e-06 -2.06927e-07
-4.02175e-06 5.69947e-05 -8.1283e-08
-2.06927e-07 -8.1283e-08 -3.50456e-06
0.00187474 4.29668e-05 9.15649e-07
4.29668e-05 4.95655e-05 1.9449e-07
9.15649e-07 1.9449e-07 1.47677e-05
0.00190064 0.000152222 5.09581e-07
0.000152222 5.97849e-05 -1.75051e-07
5.09581e-07 -1.75051e-07 4.43071e-06
0.00193795 0.000257898 2.38576e-07
0.000257898 0.000110046 1.03672e-07
2.38576e-07 1.03672e-07 1.82513e-05
0.00180451 -8.95387e-06 2.88453e-06
-8.95387e-06 1.23151e-05 -2.30276e-07
2.88453e-06 -2.30276e-07 -2.09614e-05
0.0019439 8.8869e-05 2.82974e-06
8.8869e-05 2.46177e-05 -2.29138e-07
2.82974e-06 -2.29138e-07 9.68331e-06
0.00202745 0.000226127 3.32297e-06
0.000226127 7.68512e-05 9.7806e-07
3.32297e-06 9.7806e-07 2.00212e-05
0.0018837 -6.19888e-05 -4.45497e-07
-6.19888e-05 0.000107059 2.23253e-07
-4.45497e-07 2.23253e-07 4.26925e-05
0.00175601 -0.000118273 -5.73366e-07
-0.000118273 1.76795e-05 -7.30927e-07
-5.73366e-07 -7.30927e-07 -5.93856e-05
0.00184759 -0.000220828 -2.47016e-06
-0.000220828 8.98223e-05 1.10212e-06
-2.47016e-06 1.10212e-06 9.35291e-06
0.00110509 -0.000253976 -9.72479e-07
-0.000253976 0.000217029 4.67306e-06
-9.72479e-07 4.67306e-06 -4.42117e-06
0.000830297 -0.000294202 1.61733e-06
-0.000294202 -8.21535e-05 9.0953e-07
1.61733e-06 9.0953e-07 -0.000341549
0.00160805 -0.000461287 1.67293e-06
-0.000461287 0.000216652 -1.70967e-06
1.67293e-06 -1.70967e-06 -7.86463e-05
0.00170567 -0.00027141 -1.54932e-07
-0.00027141 4.81902e-05 3.34837e-07
-1.54932e-07 3.34837e-07 -5.91517e-05
0.00156413 -0.000340057 5.12711e-07
-0.000340057 -1.96147e-05 -2.41136e-06
5.12711e-07 -2.41136e-06 -0.000152451
0.00185013 -0.000387496 -2.4983e-06
-0.000387496 0.000236679 -7.81643e-06
-2.4983e-06 -7.81643e-06 3.38879e-05
0.00133185 -0.000268664 3.8929e-06
-0.000268664 0.000357501 5.00536e-06
3.8929e-06 5.00536e-06 0.000156078
0.000696437 -0.000209563 -7.68848e-06
-0.000209563 2.70364e-05 5.93286e-07
-7.68848e-06 5.93286e-07 -0.000137824
0.00165667 -0.000229227 1.29563e-06
-0.000229227 0.00068925 -1.46293e-06
1.29563e-06 -1.46293e-06 0.00045685
0.000354564 2.72701e-05 6.65788e-07
2.72701e-05 -0.000122129 7.35628e-07
6.65788e-07 7.35628e-07 -0.000186014
0.00092427 -8.86641e-05 1.90439e-06
-8.86641e-05 0.000244908 -1.13211e-06
1.90439e-06 -1.13211e-06 8.93488e-05
0.000432722 3.43549e-05 2.76299e-06
3.43549e-05 -4.67572e-05 1.66021e-06
2.76299e-06 1.66021e-06 -0.000168142
0.00180181 -6.49765e-05 -4.42981e-07
-6.49765e-05 1.28717e-05 1.96088e-07
-4.42981e-07 1.96088e-07 -3.44568e-05
0.00195484 -0.000164898 7.84712e-08
-0.000164898 5.98921e-05 -2.49609e-07
7.84712e-08 -2.49609e-07 1.63534e-05
0.00181444 -0.000265844 -2.38382e-07
-0.000265844 4.35458e-05 4.93949e-07
-2.38382e-07 4.93949e-07 -2.78307e-05
0.00129362 -0.000296107 -2.48687e-06
-0.000296107 0.000279231 4.78968e-07
-2.48687e-06 4.78968e-07 4.14464e-05
0.0012122 -0.000397927 2.52475e-07
-0.000397927 0.000109815 -1.07199e-06
2.52475e-07 -1.07199e-06 -0.000205178
0.00185241 -0.000485151 -3.73108e-06
-0.000485151 0.000354945 3.54116e-07
-3.73108e-06 3.54116e-07 5.7699e-05
0.00195954 -0.000339371 7.57656e-07
-0.000339371 0.000114533 -3.85843e-07
7.57656e-07 -3.85843e-07 9.87185e-06
0.0017104 -0.000397151 1.24483e-06
-0.000397151 7.28997e-05 -2.95633e-06
1.24483e-06 -2.95633e-06 -0.000100035
0.000447014 4.63909e-05 -3.77546e-07
4.63909e-05 -7.30004e-05 -9.91065e-07
-3.77546e-07 -9.91065e-07 -0.000123828
0.00072336 -9.73324e-06 -6.24816e-07
-9.73324e-06 0.00012762 2.89695e-07
-6.24816e-07 2.89695e-07 2.21862e-05
0.00022539 -0.000189801 -3.34616e-06
-0.000189801 -0.000299043 5.85823e-06
-3.34616e-06 5.85823e-06 -0.000491303
0.00140685 -0.000258331 6.1991e-07
-0.000258331 0.000482308 -7.52446e-07
6.1991e-07 -7.52446e-07 0.000261671
0.00101041 -7.79257e-05 -6.56403e-08
-7.79257e-05 0.000304635 -1.3543e-06
-6.56403e-08 -1.3543e-06 0.000105584
0.000866942 -8.351e-05 -6.79633e-07
-8.351e-05 0.000223303 1.33009e-06
-6.79633e-07 1.33009e-06 7.52995e-05
0.0019065 -8.16519e-05 1.82917e-06
-8.16519e-05 1.79546e-05 5.2478e-07
1.82917e-06 5.2478e-07 -1.73109e-06
0.00200356 -0.000237377 7.56986e-07
-0.000237377 3.7235e-05 -7.66996e-08
7.56986e-07 -7.66996e-08 2.33034e-05
0.00195267 -0.000287742 1.05181e-06
-0.000287742 8.38538e-05 -2.08561e-06
1.05181e-06 -2.08561e-06 2.23109e-05
0.00189893 -0.000443169 4.55656e-06
-0.000443169 5.15634e-05 -2.59116e-06
4.55656e-06 -2.59116e-06 -7.59142e-05
0.000615387 -0.000278607 -6.88567e-06
-0.000278607 -0.000149103 -7.58805e-06
-6.88567e-06 -7.58805e-06 -0.000424559
0.00184997 -0.00048821 -2.50664e-06
-0.00048821 0.000313987 1.19833e-05
-2.50664e-06 1.19833e-05 3.37358e-05
0.0019264 -0.000506821 -4.952e-06
-0.000506821 0.000488938 -2.19034e-07
-4.952e-06 -2.19034e-07 0.00013532
0.000610427 4.71414e-05 1.35585e-07
4.71414e-05 1.59783e-05 -1.22966e-06
1.35585e-07 -1.22966e-06 -2.7128e-05
0.000682251 -0.000108511 2.87107e-06
-0.000108511 9.7789e-05 -1.53631e-06
2.87107e-06 -1.53631e-06 1.50556e-05
0.00045188 5.05111e-05 -2.3674e-06
5.05111e-05 -4.27752e-05 -1.2126e-06
-2.3674e-06 -1.2126e-06 -0.000130473
0.000654683 -4.74924e-05 -1.13381e-06
-4.74924e-05 0.000105171 2.67986e-06
-1.13381e-06 2.67986e-06 -2.98532e-05
0.000568636 -3.45038e-05 1.11118e-06
-3.45038e-05 2.28595e-05 1.25497e-08
1.11118e-06 1.25497e-08 -0.000130392
-2.69508e-05 -8.3094e-05 -7.834e-07
-8.3094e-05 -0.000310636 2.39062e-06
-7.834e-07 2.39062e-06 -0.000502602
-5.45384e-05 -0.000188616 -4.60851e-06
-0.000188616 -0.000468502 -6.32128e-06
-4.60851e-06 -6.32128e-06 -0.00065552
0.00272065 -0.000379149 -1.26485e-05
-0.000379149 0.00132854 3.45283e-06
-1.26485e-05 3.45283e-06 0.00100709
0.000627634 -4.99728e-06 -1.12198e-06
-4.99728e-06 4.45082e-05 -9.30256e-07
-1.12198e-06 -9.30256e-07 -3.75106e-05
0.000867146 3.8088e-05 6.03233e-07
3.8088e-05 0.000220447 -1.38284e-06
6.03233e-07 -1.38284e-06 8.71053e-05
0.00208715 0.000321224 -1.25661e-06
0.000321224 0.000254563 -5.85631e-07
-1.25661e-06 -5.85631e-07 0.000130528
0.000817513 7.9094e-05 -1.16204e-06
7.9094e-05 0.000191094 3.40588e-06
-1.16204e-06 3.40588e-06 1.91496e-05
0.00160191 0.00030482 2.40535e-06
0.00030482 0.00054853 -7.98966e-07
2.40535e-06 -7.98966e-07 0.000326395
0.000402494 0.000148702 -4.01947e-07
0.000148702 -0.000165876 2.08901e-06
-4.01947e-07 2.08901e-06 -0.000301246
0.00205989 0.000419206 -2.95136e-06
0.000419206 0.000395499 6.73207e-08
-2.95136e-06 6.73207e-08 0.000175734
0.00185696 0.000409672 -9.23396e-07
0.000409672 0.000179271 5.63259e-06
-9.23396e-07 5.63259e-06 -1.01836e-05
0.0011349 0.00030758 -5.00277e-07
0.00030758 0.000180708 -5.21569e-07
-5.00277e-07 -5.21569e-07 -9.98064e-05
0.00147366 0.000405435 -6.71231e-08
0.000405435 0.000177469 1.54543e-06
-6.71231e-08 1.54543e-06 -8.74796e-05
0.000360644 1.21782e-05 -1.8524e-07
1.21782e-05 -8.91207e-05 1.18382e-06
-1.8524e-07 1.18382e-06 -0.000193632
0.000360266 0.000106445 -6.39745e-07
0.000106445 -4.29454e-05 -2.22015e-06
-6.39745e-07 -2.22015e-06 -0.000216165
0.00128927 0.000286522 3.45753e-06
0.000286522 0.000325783 -1.83605e-06
3.45753e-06 -1.83605e-06 9.58192e-05
0.000672193 0.000172483 -2.0642e-06
0.000172483 4.45879e-05 -3.03137e-06
-2.0642e-06 -3.03137e-06 -0.000131796
0.00204511 0.000312617 1.03954e-06
0.000312617 5.2765e-05 -8.72082e-07
1.03954e-06 -8.72082e-07 -5.15513e-06
0.00210862 0.000389822 2.96778e-06
0.000389822 0.000271961 6.88707e-07
2.96778e-06 6.88707e-07 0.000120389
0.0018219 0.000444823 -7.56957e-07
0.000444823 0.000252904 3.65881e-07
-7.56957e-07 3.65881e-07 1.0009e-05
0.00119857 0.000353455 9.23744e-08
0.000353455 0.000113556 5.36724e-07
9.23744e-08 5.36724e-07 -0.000174182
0.00038393 3.69277e-05 -1.33473e-06
3.69277e-05 -8.17856e-05 2.82731e-06
-1.33473e-06 2.82731e-06 -0.000186481
0.00198922 0.000254322 3.32621e-07
0.000254322 -2.63434e-05 2.43203e-06
3.32621e-07 2.43203e-06 -3.46172e-05
0.00157517 0.00027692 1.34294e-06
0.00027692 0.000663366 3.08172e-06
1.34294e-06 3.08172e-06 0.000441847
0.00119634 0.000290874 5.19835e-06
0.000290874 0.000234458 3.74241e-06
5.19835e-06 3.74241e-06 1.05192e-06
0.00250824 0.000388492 -1.7191e-05
0.000388492 0.000389623 -5.12461e-06
-1.7191e-05 -5.12461e-06 0.000285079
0.00102177 0.00041368 -5.29674e-06
0.00041368 -0.000293531 -7.96209e-06
-5.29674e-06 -7.96209e-06 -0.000518432
0.00207256 0.000464719 -8.15637e-07
0.000464719 0.000538219 2.764e-06
-8.15637e-07 2.764e-06 0.000232616
0.000684079 5.45558e-05 -1.32859e-06
5.45558e-05 8.45392e-05 -6.31838e-07
-1.32859e-06 -6.31838e-07 -8.07044e-06
0.000699274 4.78902e-05 -1.50214e-06
4.78902e-05 9.93746e-05 -5.3958e-07
-1.50214e-06 -5.3958e-07 8.92999e-06
0.000929576 3.60995e-05 -1.90248e-06
3.60995e-05 0.000241601 2.86179e-07
-1.90248e-06 2.86179e-07 0.000158898
0.000614769 -4.66239e-06 2.60988e-08
-4.66239e-06 4.67989e-05 -2.13115e-06
2.60988e-08 -2.13115e-06 -3.73861e-05
0.000663109 4.96072e-05 8.25058e-07
4.96072e-05 8.74202e-05 3.92126e-08
8.25058e-07 3.92126e-08 -1.89446e-05
0.000359061 2.12882e-05 -1.06866e-06
2.12882e-05 -8.06197e-05 1.46189e-06
-1.06866e-06 1.46189e-06 -0.000185759
0.00062463 4.36846e-06 -6.69396e-07
4.36846e-06 6.10254e-05 -6.24625e-09
-6.69396e-07 -6.24625e-09 -2.89903e-05
0.00046912 -1.9921e-05 -6.40004e-07
-1.9921e-05 -2.08629e-05 3.52259e-07
-6.40004e-07 3.52259e-07 -0.000132656
0.000523338 7.06363e-06 3.62435e-07
7.06363e-06 -9.25218e-06 2.6059e-07
3.62435e-07 2.6059e-07 -9.48776e-05
0.000765057 4.41737e-05 5.66675e-07
4.41737e-05 0.00015583 -3.0551e-07
5.66675e-07 -3.0551e-07 3.74012e-05
0.00115283 4.93965e-05 3.7604e-07
4.93965e-05 0.000344849 -1.13691e-06
3.7604e-07 -1.13691e-06 0.000269069
0.000682037 -1.85184e-05 2.41134e-06
-1.85184e-05 8.5664e-05 -2.48686e-06
2.41134e-06 -2.48686e-06 -9.03592e-06
0.000722925 4.24543e-05 1.24392e-07
4.24543e-05 0.000132377 1.62728e-07
1.24392e-07 1.62728e-07 6.48248e-06
0.000635202 3.74395e-05 2.26732e-06
3.74395e-05 8.02143e-05 1.66708e-06
2.26732e-06 1.66708e-06 -4.19701e-05
0.00065583 2.20124e-05 1.6273e-06
2.20124e-05 7.29862e-05 2.07199e-06
1.6273e-06 2.07199e-06 -1.57124e-05
0.000572236 -3.03292e-05 -1.78734e-07
-3.03292e-05 8.59168e-06 2.10092e-06
-1.78734e-07 2.10092e-06 -4.72826e-05
0.000585274 -6.85658e-06 -3.3862e-07
-6.85658e-06 1.42372e-05 4.31695e-09
-3.3862e-07 4.31695e-09 -4.02164e-05
0.00127874 -3.70325e-06 8.34674e-07
-3.70325e-06 0.000400404 2.30691e-06
8.34674e-07 2.30691e-06 0.000388728
0.000592745 -2.57027e-05 6.92861e-07
-2.57027e-05 1.45417e-05 -2.54258e-06
6.92861e-07 -2.54258e-06 -3.82235e-05
0.00130888 -1.15157e-05 -3.03288e-06
-1.15157e-05 0.000417169 -1.58963e-06
-3.03288e-06 -1.58963e-06 0.000405961
0.000840004 -1.65773e-05 1.24849e-05
-1.65773e-05 0.000138253 8.38983e-06
1.24849e-05 8.38983e-06 0.000145642
0.00135839 -2.12877e-05 -5.15712e-06
-2.12877e-05 0.000445892 -5.70605e-06
-5.15712e-06 -5.70605e-06 0.000434476
0.000814109 -2.5224e-05 3.86967e-06
-2.5224e-05 0.000122662 3.21272e-06
3.86967e-06 3.21272e-06 0.000129338
0.000764209 -3.22352e-05 -7.8913e-07
-3.22352e-05 9.48089e-05 -2.17608e-06
-7.8913e-07 -2.17608e-06 0.000100663
0.000655306 1.05441e-05 1.18752e-06
1.05441e-05 3.83248e-05 -1.39484e-06
1.18752e-06 -1.39484e-06 -1.2633e-06
0.000535969 2.84894e-05 3.84232e-07
2.84894e-05 -4.45754e-05 -3.43897e-06
3.84232e-07 -3.43897e-06 -5.62707e-05
0.000542928 3.82326e-05 1.67671e-07
3.82326e-05 -3.2306e-05 1.26772e-07
1.67671e-07 1.26772e-07 -4.81726e-05
0.00215251 6.98995e-05 1.80322e-05
6.98995e-05 0.000940885 -3.96874e-06
1.80322e-05 -3.96874e-06 0.000952094
0.000547648 5.855e-05 3.15514e-06
5.855e-05 -1.41528e-05 4.96161e-06
3.15514e-06 4.96161e-06 -3.9316e-05
0.00237977 9.04261e-05 -4.36553e-06
9.04261e-05 0.00108645 -3.43505e-07
-4.36553e-06 -3.43505e-07 0.00109251
0.00268599 0.000109666 -3.04844e-05
0.000109666 0.00127694 3.78952e-06
-3.04844e-05 3.78952e-06 0.00127803
0.00195014 0.000254498 -6.92822e-07
0.000254498 0.000103368 9.63556e-07
-6.92822e-07 9.63556e-07 1.37428e-05
0.00191637 0.000157646 -3.25069e-06
0.000157646 6.88436e-05 -4.69125e-07
-3.25069e-06 -4.69125e-07 1.30982e-05
0.00188444 4.4758e-05 -3.74257e-06
4.4758e-05 6.43745e-05 -6.31228e-08
-3.74257e-06 -6.31228e-08 2.78455e-05
0.00176639 -1.11417e-06 -9.24528e-07
-1.11417e-06 4.24825e-05 -5.36232e-08
-9.24528e-07 -5.36232e-08 -1.78914e-05
0.00182831 -5.67989e-06 -9.43792e-07
-5.67989e-06 2.43423e-05 -7.23247e-08
-9.43792e-07 -7.23247e-08 -5.79523e-06
0.00192752 8.42067e-05 1.31639e-07
8.42067e-05 1.91788e-05 -2.59383e-08
1.31639e-07 -2.59383e-08 2.68257e-06
0.00197319 0.000228662 -5.062e-07
0.000228662 4.35941e-05 -6.31825e-08
-5.062e-07 -6.31825e-08 -1.15597e-05
0.00192814 -1.27785e-06 1.49849e-06
-1.27785e-06 1.21176e-05 -3.63906e-07
1.49849e-06 -3.63906e-07 7.69079e-06
0.00203972 0.000129358 2.44762e-06
0.000129358 1.59757e-05 -8.5092e-07
2.44762e-06 -8.5092e-07 5.18838e-06
0.00224605 8.01992e-05 -3.70097e-06
8.01992e-05 0.000185745 4.44134e-06
-3.70097e-06 4.44134e-06 0.000223177
0.00185263 -6.53853e-05 -4.14015e-06
-6.53853e-05 4.44906e-05 7.73075e-08
-4.14015e-06 7.73075e-08 -5.71666e-06
0.00189844 -0.000171687 -3.76815e-06
-0.000171687 2.34702e-05 6.62147e-07
-3.76815e-06 6.62147e-07 -2.20797e-05
0.00190961 -0.000267257 -2.89974e-06
-0.000267257 0.000104522 1.95934e-06
-2.89974e-06 1.95934e-06 3.02569e-05
0.000895326 -0.00025678 1.48239e-06
-0.00025678 4.67044e-05 5.84897e-06
1.48239e-06 5.84897e-06 -0.000185458
0.00134545 -0.000406474 2.40944e-06
-0.000406474 0.000190287 -3.5536e-07
2.40944e-06 -3.5536e-07 -0.000123105
0.00194701 -0.000483397 -2.31849e-06
-0.000483397 0.000412998 -1.71193e-06
-2.31849e-06 -1.71193e-06 0.000124549
0.00187 -0.000338693 2.10031e-06
-0.000338693 6.72562e-05 1.12524e-06
2.10031e-06 1.12524e-06 -3.98212e-05
0.00154037 -0.000384323 -3.54981e-06
-0.000384323 -2.66702e-05 -6.04454e-06
-3.54981e-06 -6.04454e-06 -0.000197811
0.000102237 -0.000175092 8.35193e-08
-0.000175092 -0.000366613 1.19289e-05
8.35193e-08 1.19289e-05 -0.000550144
0.00199802 -0.000298442 1.45431e-05
-0.000298442 0.000847094 -4.33331e-06
1.45431e-05 -4.33331e-06 0.000620838
0.000749352 -3.11021e-05 5.36456e-07
-3.11021e-05 0.000137183 -1.47951e-06
5.36456e-07 -1.47951e-06 -4.47227e-05
0.000545347 1.53012e-05 4.91969e-08
1.53012e-05 -1.59071e-05 5.73272e-07
4.91969e-08 5.73272e-07 -6.33276e-05
0.0007983 2.54119e-05 1.6167e-06
2.54119e-05 0.000168212 8.79246e-07
1.6167e-06 8.79246e-07 6.36774e-05
0.000868231 -5.49956e-05 6.35309e-07
-5.49956e-05 0.000225512 1.51141e-06
6.35309e-07 1.51141e-06 7.53644e-05
0.0019267 -8.44244e-05 2.39558e-07
-8.44244e-05 2.25805e-05 -1.20623e-07
2.39558e-07 -1.20623e-07 5.76135e-06
0.000588361 1.81935e-05 1.00018e-06
1.81935e-05 2.01558e-06 1.1924e-07
1.00018e-06 1.1924e-07 -4.02367e-05
0.000531754 -3.9742e-05 -1.75155e-06
-3.9742e-05 -9.83215e-06 -4.37433e-08
-1.75155e-06 -4.37433e-08 -8.08727e-05
0.00197524 -0.000227286 -1.64757e-07
-0.000227286 3.67944e-05 2.37428e-07
-1.64757e-07 2.37428e-07 1.92009e-05
0.00190242 -0.000286305 -1.39161e-06
-0.000286305 5.07259e-05 1.80485e-07
-1.39161e-06 1.80485e-07 -9.45838e-06
0.000729372 -0.000286029 -8.77322e-07
-0.000286029 -7.23993e-05 1.55069e-06
-8.77322e-07 1.55069e-06 -0.000343426
0.00188349 -0.000502925 2.7307e-07
-0.000502925 0.00047234 4.54856e-07
2.7307e-07 4.54856e-07 0.000114619
0.00158046 -0.000469018 3.21416e-06
-0.000469018 0.000141948 -1.48671e-06
3.21416e-06 -1.48671e-06 -0.000130536
0.00206001 -0.000449771 2.41207e-06
-0.000449771 0.000153939 -9.78367e-07
2.41207e-06 -9.78367e-07 2.43688e-05
0.000708336 -9.17101e-06 8.1872e-07
-9.17101e-06 0.000116163 -1.13201e-06
8.1872e-07 -1.13201e-06 2.74264e-05
0.0007253 -3.05393e-05 2.13557e-07
-3.05393e-05 0.000147442 1.31346e-06
2.13557e-07 1.31346e-06 9.83517e-06
0.00097077 -0.000256993 -3.83735e-06
-0.000256993 0.000130112 -1.70622e-06
-3.83735e-06 -1.70622e-06 -7.15289e-05
0.00164148 -0.000282262 1.44514e-05
-0.000282262 0.000685993 -3.28057e-06
1.44514e-05 -3.28057e-06 0.000415959
0.000441036 -8.48983e-05 -2.67247e-06
-8.48983e-05 -4.0872e-05 -3.35266e-07
-2.67247e-06 -3.35266e-07 -0.000230055
0.000664989 -3.09399e-05 6.22367e-07
-3.09399e-05 9.26663e-05 -8.45374e-07
6.22367e-07 -8.45374e-07 -6.7096e-05
0.00193953 -9.73063e-05 1.67433e-06
-9.73063e-05 -4.08629e-05 -1.1296e-06
1.67433e-06 -1.1296e-06 -5.08905e-05
0.00190566 -0.000267022 -3.50332e-07
-0.000267022 -6.54808e-05 2.52703e-07
-3.50332e-07 2.52703e-07 -1.65376e-05
0.00203762 -0.00039783 -4.01514e-06
-0.00039783 4.93365e-05 -2.01312e-06
-4.01514e-06 -2.01312e-06 -2.53213e-05
0.00154892 -0.000507588 1.06328e-06
-0.000507588 -1.7475e-05 -7.1933e-07
1.06328e-06 -7.1933e-07 -0.000181183
0.000954661 -0.00028153 -1.11557e-05
-0.00028153 8.69759e-05 -8.24314e-06
-1.11557e-05 -8.24314e-06 -0.000187478
0.0024973 -0.000597415 -9.55242e-06
-0.000597415 0.000792924 8.02558e-06
-9.55242e-06 8.02558e-06 0.000411594
0.000383276 5.22252e-05 -1.14023e-06
5.22252e-05 -8.89894e-05 -2.10209e-06
-1.14023e-06 -2.10209e-06 -0.000165361
0.000650818 -5.71294e-05 3.22136e-06
-5.71294e-05 6.2216e-05 -7.43302e-07
3.22136e-06 -7.43302e-07 -9.88135e-06
0.000935054 -9.14144e-05 1.39892e-06
-9.14144e-05 0.000242325 1.92959e-06
1.39892e-06 1.92959e-06 0.000144332
0.000449926 1.84878e-05 -1.78994e-06
1.84878e-05 -2.38151e-05 2.37673e-06
-1.78994e-06 2.37673e-06 -0.000148791
0.000924728 -7.14791e-05 -1.95836e-06
-7.14791e-05 0.000247873 2.92111e-06
-1.95836e-06 2.92111e-06 0.000110509
0.00104944 -5.14556e-05 1.85038e-06
-5.14556e-05 0.000274089 2.24182e-07
1.85038e-06 2.24182e-07 0.000101568
-0.000535529 -0.000104681 5.40891e-06
-0.000104681 -0.000441725 9.14062e-07
5.40891e-06 9.14062e-07 -0.000796093
-7.77684e-05 -0.000249131 -2.192e-05
-0.000249131 -0.000468476 2.92206e-06
-2.192e-05 2.92206e-06 -0.000669173
0.000410043 5.02681e-05 -7.08102e-08
5.02681e-05 -5.41207e-05 -8.68243e-07
-7.08102e-08 -8.68243e-07 -0.000164829
0.000912269 0.000148596 -4.8319e-06
0.000148596 0.000282561 -2.68379e-06
-4.8319e-06 -2.68379e-06 0.000104203
0.0020727 0.000304204 -3.94059e-06
0.000304204 6.83733e-05 -1.65615e-06
-3.94059e-06 -1.65615e-06 1.04664e-05
0.00191827 0.000385488 1.05411e-07
0.000385488 0.000168527 1.65351e-06
1.05411e-07 1.65351e-06 1.25068e-05
0.00180722 0.000236797 -7.35925e-06
0.000236797 0.000697368 -1.33453e-06
-7.35925e-06 -1.33453e-06 0.00051983
0.00151154 0.000309719 -3.79215e-06
0.000309719 0.000463794 -8.14274e-06
-3.79215e-06 -8.14274e-06 0.000227883
0.00184008 0.000440477 1.72322e-06
0.000440477 0.000254453 2.07247e-06
1.72322e-06 2.07247e-06 1.36373e-05
0.00190534 0.000420312 -4.63092e-07
0.000420312 0.000503226 -1.47747e-06
-4.63092e-07 -1.47747e-06 0.000210194
0.000552651 6.6837e-05 7.5092e-07
6.6837e-05 3.05011e-05 -9.76972e-07
7.5092e-07 -9.76972e-07 -8.6033e-05
0.00205247 0.000241006 -9.49664e-07
0.000241006 3.09699e-06 -7.4961e-07
-9.49664e-07 -7.4961e-07 1.31813e-06
0.00104047 0.000200309 1.08388e-06
0.000200309 0.00033675 1.60426e-06
1.08388e-06 1.60426e-06 0.000133794
0.00111124 0.000284769 1.26339e-06
0.000284769 0.000190479 -5.46304e-07
1.26339e-06 -5.46304e-07 -4.69081e-05
0.00228517 0.000379745 2.72837e-06
0.000379745 0.000268205 6.2712e-07
2.72837e-06 6.2712e-07 0.000166299
0.00163348 0.000454937 -1.25665e-06
0.000454937 4.52546e-05 -3.9e-06
-1.25665e-06 -3.9e-06 -0.000180767
0.00195312 0.000453365 -1.25475e-07
0.000453365 0.000481583 2.49456e-07
-1.25475e-07 2.49456e-07 0.000176125
0.00115221 0.000154336 -3.9779e-06
0.000154336 0.000408717 3.17015e-06
-3.9779e-06 3.17015e-06 0.000249082
0.00241957 0.000277262 -4.62358e-05
0.000277262 0.000270906 -1.22936e-05
-4.62358e-05 -1.22936e-05 0.000291949
0.00217155 0.000383744 -5.91329e-06
0.000383744 0.000924366 2.51838e-07
-5.91329e-06 2.51838e-07 0.000690407
0.00210834 0.000420862 -7.89539e-06
0.000420862 0.000675967 -2.49031e-07
-7.89539e-06 -2.49031e-07 0.000400366
0.00190746 0.000495072 -2.3181e-05
0.000495072 9.55818e-05 -1.28271e-05
-2.3181e-05 -1.28271e-05 -6.0419e-05
0.000825927 0.000383406 -1.73496e-05
0.000383406 -0.000204302 -1.68706e-06
-1.73496e-05 -1.68706e-06 -0.000482612
0.000797593 0.000366494 3.29978e-05
0.000366494 -0.000574887 -2.15935e-05
3.29978e-05 -2.15935e-05 -0.000815527
0.000463074 6.2329e-05 1.03772e-06
6.2329e-05 -2.93341e-05 -5.50965e-07
1.03772e-06 -5.50965e-07 -0.000124204
0.000637576 4.33757e-05 -1.53774e-07
4.33757e-05 8.43112e-05 9.58969e-07
-1.53774e-07 9.58969e-07 -2.13976e-06
0.00143373 7.67072e-05 3.6818e-07
7.67072e-05 0.000536549 -9.46116e-08
3.6818e-07 -9.46116e-08 0.000447652
0.000586479 -6.08553e-05 2.00678e-07
-6.08553e-05 4.55216e-05 -2.62787e-06
2.00678e-07 -2.62787e-06 -4.84563e-05
0.000528103 -3.95518e-05 -1.21256e-06
-3.95518e-05 9.04071e-06 -4.122e-08
-1.21256e-06 -4.122e-08 -9.87818e-05
0.000923298 0.00013138 -1.91099e-07
0.00013138 0.00024951 8.60878e-07
-1.91099e-07 8.60878e-07 0.000127551
0.000349298 -7.0101e-06 -1.656e-06
-7.0101e-06 -0.00010285 4.02386e-06
-1.656e-06 4.02386e-06 -0.000189643
0.000622376 -2.28982e-05 -1.19198e-07
-2.28982e-05 6.53254e-05 -4.04123e-08
-1.19198e-07 -4.04123e-08 -3.07702e-05
0.000621492 4.40384e-05 -7.59584e-08
4.40384e-05 5.7251e-05 -4.55434e-07
-7.59584e-08 -4.55434e-07 -5.43406e-05
0.000916779 4.20254e-05 -1.31197e-06
4.20254e-05 0.000206807 4.74973e-07
-1.31197e-06 4.74973e-07 0.000130271
0.000729409 2.59618e-05 5.73199e-07
2.59618e-05 0.000122946 1.09155e-08
5.73199e-07 1.09155e-08 6.41867e-06
0.000747171 5.90675e-06 -2.61315e-07
5.90675e-06 0.000120436 -4.20661e-07
-2.61315e-07 -4.20661e-07 2.33559e-05
0.000964093 4.17239e-05 -1.46209e-07
4.17239e-05 0.000237118 -3.47382e-06
-1.46209e-07 -3.47382e-06 0.000156483
0.000814545 4.69637e-05 -1.76689e-06
4.69637e-05 0.000159814 -2.53325e-06
-1.76689e-06 -2.53325e-06 4.1296e-05
0.000813215 7.85215e-05 7.34624e-07
7.85215e-05 0.000165248 2.3962e-07
7.34624e-07 2.3962e-07 4.99165e-05
0.000681164 4.3621e-05 4.82471e-07
4.3621e-05 0.000107481 1.28378e-06
4.82471e-07 1.28378e-06 -2.14822e-05
0.000475572 -2.25078e-05 -2.31513e-07
-2.25078e-05 -3.7447e-05 2.25648e-06
-2.31513e-07 2.25648e-06 -0.000129191
0.000887967 -3.03394e-05 2.09245e-07
-3.03394e-05 0.000250284 -9.18527e-07
2.09245e-07 -9.18527e-07 0.000120861
0.000398776 -1.62775e-05 -9.16302e-07
-1.62775e-05 -7.94651e-05 2.29258e-06
-9.16302e-07 2.29258e-06 -0.000174952
0.00054294 5.40575e-06 -1.32337e-06
5.40575e-06 -5.92138e-06 2.15547e-06
-1.32337e-06 2.15547e-06 -6.3988e-05
0.000560726 2.27482e-05 1.39727e-06
2.27482e-05 3.70813e-06 -1.26261e-08
1.39727e-06 -1.26261e-08 -5.34769e-05
0.000526639 5.77488e-06 4.99797e-07
5.77488e-06 -4.75378e-05 3.79894e-06
4.99797e-07 3.79894e-06 -6.40579e-05
0.000567112 -1.02617e-07 -1.83024e-06
-1.02617e-07 5.55599e-06 -2.35665e-06
-1.83024e-06 -2.35665e-06 -5.05053e-05
0.000932857 -2.03993e-07 -2.04848e-06
-2.03993e-07 0.000194303 -1.65829e-06
-2.04848e-06 -1.65829e-06 0.000180298
0.00239547 -1.32831e-05 8.31662e-06
-1.32831e-05 0.00106882 5.23686e-06
8.31662e-06 5.23686e-06 0.00108408
0.00136403 -9.70201e-06 -3.26752e-06
-9.70201e-06 0.000450712 -5.60445e-06
-3.26752e-06 -5.60445e-06 0.00043922
0.000809829 -1.66695e-05 2.15084e-06
-1.66695e-05 0.000118432 3.25428e-06
2.15084e-06 3.25428e-06 0.000125887
0.000779048 -2.36837e-05 -2.23451e-07
-2.36837e-05 0.000100038 -2.20643e-06
-2.23451e-07 -2.20643e-06 0.000106988
0.000598069 1.0042e-05 -6.27798e-07
1.0042e-05 7.24344e-06 -1.39191e-06
-6.27798e-07 -1.39191e-06 -3.18232e-05
0.000616364 -4.15916e-06 1.06582e-06
-4.15916e-06 1.65933e-05 -1.23086e-07
1.06582e-06 -1.23086e-07 -2.39811e-05
0.000566081 2.1731e-05 3.31617e-07
2.1731e-05 -2.99195e-05 -3.35099e-06
3.31617e-07 -3.35099e-06 -3.9395e-05
0.000872472 3.48237e-05 -3.64959e-07
3.48237e-05 0.000158114 4.69404e-08
-3.64959e-07 4.69404e-08 0.00014784
0.00211589 5.58886e-05 1.4135e-05
5.58886e-05 0.000912181 -4.18428e-06
1.4135e-05 -4.18428e-06 0.00092616
0.000553995 4.13761e-05 9.02183e-07
4.13761e-05 -2.41043e-05 3.7979e-06
9.02183e-07 3.7979e-06 -4.07795e-05
0.0022101 7.30939e-05 -2.88891e-06
7.30939e-05 0.000976557 -1.93523e-07
-2.88891e-06 -1.93523e-07 0.00098693
0.00243412 9.30013e-05 -2.03663e-05
9.30013e-05 0.0011194 4.01144e-06
-2.03663e-05 4.01144e-06 0.00112479
0.00191983 0.000231382 -4.33181e-06
0.000231382 9.63045e-06 -1.75761e-06
-4.33181e-06 -1.75761e-06 -4.33905e-05
0.00190822 8.01093e-05 -1.88144e-06
8.01093e-05 1.17961e-05 5.80461e-07
-1.88144e-06 5.80461e-07 -6.09819e-06
0.00185206 -4.1561e-06 -4.24631e-06
-4.1561e-06 3.63437e-05 8.58687e-08
-4.24631e-06 8.58687e-08 9.34909e-06
0.00192331 -4.93802e-07 1.36041e-07
-4.93802e-07 1.17946e-05 -1.70371e-07
1.36041e-07 -1.70371e-07 7.2601e-06
0.0020204 0.000129821 9.64054e-08
0.000129821 1.93992e-05 1.87466e-07
9.64054e-08 1.87466e-07 7.5409e-06
0.00193424 6.72991e-05 5.20788e-06
6.72991e-05 -8.90593e-06 -8.36585e-07
5.20788e-06 -8.36585e-07 2.26465e-05
0.00201797 4.95315e-06 -1.78347e-06
4.95315e-06 -1.64527e-05 -1.48616e-06
-1.78347e-06 -1.48616e-06 1.10929e-06
0.00299542 0.000345593 3.46286e-05
0.000345593 -0.000363916 5.54314e-06
3.46286e-05 5.54314e-06 -0.000129969
0.00226623 4.27694e-05 -2.95296e-05
4.27694e-05 0.000341874 1.45555e-05
-2.95296e-05 1.45555e-05 0.000422864
0.000585488 8.34237e-05 -8.92701e-07
8.34237e-05 3.50589e-05 -2.9528e-07
-8.92701e-07 -2.9528e-07 -3.86709e-05
0.00194164 -8.65046e-05 -1.71834e-06
-8.65046e-05 2.51063e-05 -3.15835e-07
-1.71834e-06 -3.15835e-07 1.10876e-05
0.00194005 -0.000217469 -6.80483e-07
-0.000217469 3.35867e-05 2.27163e-07
-6.80483e-07 2.27163e-07 1.04909e-05
0.00185831 -0.000287011 -3.76022e-07
-0.000287011 2.201e-05 2.27352e-06
-3.76022e-07 2.27352e-06 -3.83754e-05
0.000669036 -0.000277258 1.79827e-07
-0.000277258 -0.000103879 8.76393e-06
1.79827e-07 8.76393e-06 -0.000366856
0.0018932 -0.000503117 4.86797e-06
-0.000503117 0.000484591 4.12235e-06
4.86797e-06 4.12235e-06 0.000123759
0.00144334 -0.000463367 1.49724e-06
-0.000463367 4.15552e-05 -8.16138e-06
1.49724e-06 -8.16138e-06 -0.000226727
0.00221209 -0.000457848 -2.91206e-06
-0.000457848 0.000251051 -1.1952e-06
-2.91206e-06 -1.1952e-06 0.000117925
0.00182867 -0.000315236 1.69788e-05
-0.000315236 0.000618701 -3.47363e-07
1.69788e-05 -3.47363e-07 0.000405092
0.000404352 -0.000172898 1.23651e-05
-0.000172898 -4.47965e-05 -5.80647e-06
1.23651e-05 -5.80647e-06 -0.000264546
0.00107261 -0.000116563 1.60004e-06
-0.000116563 0.000327141 -2.87084e-06
1.60004e-06 -2.87084e-06 0.00013837
0.000588736 4.92151e-06 -6.41375e-07
4.92151e-06 1.30874e-06 1.45623e-06
-6.41375e-07 1.45623e-06 -3.98887e-05
0.000863109 -1.98103e-05 1.81431e-06
-1.98103e-05 0.000221046 -1.4215e-06
1.81431e-06 -1.4215e-06 5.47858e-05
0.000904892 -3.8359e-05 2.20507e-06
-3.8359e-05 0.000241347 -4.1928e-07
2.20507e-06 -4.1928e-07 0.000150636
0.000841688 -2.79275e-05 1.08859e-06
-2.79275e-05 0.000213261 -8.60258e-07
1.08859e-06 -8.60258e-07 7.4171e-05
0.000373219 -2.78331e-05 -2.1148e-06
-2.78331e-05 -0.000110749 6.67612e-07
-2.1148e-06 6.67612e-07 -0.000178413
0.00196725 -0.000111493 -2.29521e-07
-0.000111493 -4.61613e-05 1.24317e-07
-2.29521e-07 1.24317e-07 -4.27761e-05
0.000484081 3.60442e-05 -1.42746e-08
3.60442e-05 -2.3081e-05 -1.35234e-06
-1.42746e-08 -1.35234e-06 -0.000102125
0.000640024 -5.44087e-05 9.1579e-07
-5.44087e-05 6.42632e-05 4.60356e-07
9.1579e-07 4.60356e-07 -1.26827e-05
0.000783891 -6.09496e-05 -1.8383e-08
-6.09496e-05 0.000150805 7.57644e-07
-1.8383e-08 7.57644e-07 5.44464e-05
0.00193526 -0.000269872 1.24569e-06
-0.000269872 -3.58143e-05 -1.60082e-07
1.24569e-06 -1.60082e-07 -1.85141e-06
0.00206779 -0.000398984 -1.50098e-07
-0.000398984 7.48506e-05 -5.10585e-07
-1.50098e-07 -5.10585e-07 -9.50181e-07
0.00130298 -0.000327173 6.8143e-06
-0.000327173 0.000271334 -1.20532e-07
6.8143e-06 -1.20532e-07 -2.92683e-06
0.00209017 -0.000560404 6.14971e-06
-0.000560404 0.000575843 -5.58627e-08
6.14971e-06 -5.58627e-08 0.000206393
0.00190763 -0.000529187 -9.03383e-07
-0.000529187 0.000200739 1.53801e-06
-9.03383e-07 1.53801e-06 2.57179e-05
0.000469307 -1.18588e-05 -5.59279e-07
-1.18588e-05 -8.54975e-06 -1.40658e-07
-5.59279e-07 -1.40658e-07 -0.000130501
0.000845317 -8.18754e-05 -1.6611e-06
-8.18754e-05 0.000208336 5.57225e-07
-1.6611e-06 5.57225e-07 6.04498e-05
0.000627707 -0.000309214 -6.65033e-06
-0.000309214 -5.05555e-05 -4.84538e-07
-6.65033e-06 -4.84538e-07 -0.000291942
0.000545156 -0.000115857 -1.27812e-07
-0.000115857 0.000111501 -1.36322e-06
-1.27812e-07 -1.36322e-06 -0.000186033
0.000732838 -7.23593e-05 -1.23075e-07
-7.23593e-05 8.90046e-05 1.89761e-07
-1.23075e-07 1.89761e-07 -7.76943e-05
0.00239593 -0.000228255 -3.27783e-06
-0.000228255 0.000186061 -1.50958e-06
-3.27783e-06 -1.50958e-06 0.00019652
0.00178676 -0.000285545 -1.21088e-05
-0.000285545 -0.000153751 1.76394e-06
-1.21088e-05 1.76394e-06 -9.03476e-05
0.00245234 -0.000557911 -9.52772e-06
-0.000557911 0.000322763 -2.48378e-06
-9.52772e-06 -2.48378e-06 0.000178334
0.00283873 -0.000646051 -2.25612e-05
-0.000646051 0.000832157 1.17095e-06
-2.25612e-05 1.17095e-06 0.000590589
0.00124292 -0.000356957 -2.04739e-05
-0.000356957 0.000289957 -3.05455e-06
-2.04739e-05 -3.05455e-06 5.75246e-06
0.000426595 1.02782e-06 1.21593e-06
1.02782e-06 -5.60834e-05 -2.34064e-07
1.21593e-06 -2.34064e-07 -0.000153137
0.000477918 4.13438e-05 5.29274e-07
4.13438e-05 -3.79462e-05 1.16093e-06
5.29274e-07 1.16093e-06 -0.000137755
0.000364593 -4.00356e-06 -1.46882e-07
-4.00356e-06 -9.2321e-05 -8.07833e-07
-1.46882e-07 -8.07833e-07 -0.000198593
0.00135622 -0.000162398 -3.04978e-06
-0.000162398 0.000530292 5.72344e-06
-3.04978e-06 5.72344e-06 0.000386278
0.00046053 -5.86427e-05 -1.37745e-06
-5.86427e-05 -4.31096e-05 6.94168e-06
-1.37745e-06 6.94168e-06 -0.00018227
-9.71569e-05 -8.62623e-05 1.23947e-06
-8.62623e-05 -0.000190464 4.28993e-06
1.23947e-06 4.28993e-06 -0.000520093
-3.87087e-05 -0.000351875 2.06642e-06
-0.000351875 -0.000217889 1.12019e-06
2.06642e-06 1.12019e-06 -0.000603044
0.000803301 0.000107198 9.58834e-07
0.000107198 0.000192814 -4.48781e-06
9.58834e-07 -4.48781e-06 6.10233e-05
0.000257701 9.73713e-05 -1.06435e-06
9.73713e-05 -0.000136984 -1.13964e-06
-1.06435e-06 -1.13964e-06 -0.000316175
0.00211545 0.000225045 7.43331e-06
0.000225045 2.78847e-05 1.5771e-07
7.43331e-06 1.5771e-07 3.66007e-05
0.0020476 0.000369982 1.3741e-05
0.000369982 0.00013983 3.77935e-06
1.3741e-05 3.77935e-06 4.1973e-05
0.00226185 0.000496238 1.24079e-05
0.000496238 0.00039728 4.06885e-06
1.24079e-05 4.06885e-06 0.000170114
0.00108684 0.000285145 -4.15453e-07
0.000285145 0.000178879 -1.31629e-06
-4.15453e-07 -1.31629e-06 -6.25641e-05
0.00182335 0.000440737 1.11722e-06
0.000440737 0.000416717 1.35305e-06
1.11722e-06 1.35305e-06 0.000112893
0.00139945 0.000135445 -1.19525e-08
0.000135445 0.000534562 2.90247e-07
-1.19525e-08 2.90247e-07 0.000387572
0.00228629 0.000242574 -2.62683e-06
0.000242574 0.000224166 6.91576e-07
-2.62683e-06 6.91576e-07 0.000252052
0.00148564 0.000293678 -1.96755e-06
0.000293678 0.000515347 5.80802e-07
-1.96755e-06 5.80802e-07 0.000302066
0.00153364 0.000367111 2.78744e-07
0.000367111 0.000374387 2.0006e-06
2.78744e-07 2.0006e-06 9.50542e-05
0.00195765 0.000490456 -1.69937e-06
0.000490456 0.00011148 -2.77507e-06
-1.69937e-06 -2.77507e-06 -3.20359e-05
0.00164155 0.000459665 -3.45921e-06
0.000459665 0.000251988 5.33049e-06
-3.45921e-06 5.33049e-06 -4.11332e-05
0.00232688 0.000494371 4.09255e-05
0.000494371 -6.1389e-05 4.65311e-06
4.09255e-05 4.65311e-06 -0.000376878
0.00110483 0.000200952 -5.63415e-06
0.000200952 0.000385559 -6.22608e-07
-5.63415e-06 -6.22608e-07 0.000212386
0.00270313 0.000412779 -5.7377e-05
0.000412779 0.000565685 -2.72483e-05
-5.7377e-05 -2.72483e-05 0.000534748
0.00117291 0.00028935 -4.80546e-06
0.00028935 0.00025598 -1.51866e-06
-4.80546e-06 -1.51866e-06 4.92792e-05
0.00041235 0.000287006 -7.91101e-07
0.000287006 -0.000272496 -5.00012e-06
-7.91101e-07 -5.00012e-06 -0.000544387
0.000397969 0.000449217 -1.88675e-05
0.000449217 -0.000576688 -3.63417e-06
-1.88675e-05 -3.63417e-06 -0.000765983
0.0108793 0.0004045 -0.00021667
0.0004045 0.00230051 -4.54093e-05
-0.00021667 -4.54093e-05 0.00141435
0.00599352 0.000892347 0.000124143
0.000892347 0.000767788 -3.00997e-05
0.000124143 -3.00997e-05 0.000533684
0.000281998 0.000607283 1.48602e-05
0.000607283 -0.000680928 7.16935e-06
1.48602e-05 7.16935e-06 -0.000938844
-0.00427752 -0.000876996 0.000464912
-0.000876996 -0.000760521 5.90046e-05
0.000464912 5.90046e-05 -0.00228271
0.00964977 -0.00294867 -2.20647e-05
-0.00294867 0.0022881 1.85392e-05
-2.20647e-05 1.85392e-05 0.00346322
0.000404953 5.22751e-05 3.93998e-06
5.22751e-05 -4.09038e-05 7.5532e-07
3.93998e-06 7.5532e-07 -0.00012962
0.000853652 4.90775e-05 1.30305e-06
4.90775e-05 0.000217014 -7.62263e-07
1.30305e-06 -7.62263e-07 0.000128812
0.00112091 0.000113397 -2.38144e-06
0.000113397 0.000375702 -5.57439e-07
-2.38144e-06 -5.57439e-07 0.000270958
0.000598969 -6.10967e-05 -1.06637e-07
-6.10967e-05 5.96212e-05 -1.92377e-06
-1.06637e-07 -1.92377e-06 -4.13306e-05
0.000604661 5.96817e-05 -1.37595e-06
5.96817e-05 5.0795e-05 -1.61092e-06
-1.37595e-06 -1.61092e-06 -6.48833e-05
0.000735496 -2.70517e-05 2.00717e-07
-2.70517e-05 0.000128878 -1.89317e-07
2.00717e-07 -1.89317e-07 1.17268e-05
0.000817092 3.03578e-05 -1.6998e-06
3.03578e-05 0.000157661 3.33456e-06
-1.6998e-06 3.33456e-06 5.83263e-05
0.000552632 2.98627e-05 -1.45023e-06
2.98627e-05 -4.78259e-06 2.70792e-06
-1.45023e-06 2.70792e-06 -8.17908e-05
0.000784196 8.3609e-05 -1.673e-06
8.3609e-05 0.000163383 -5.41343e-07
-1.673e-06 -5.41343e-07 3.68123e-05
0.000538699 -9.66764e-06 8.03199e-09
-9.66764e-06 6.56577e-06 7.15606e-07
8.03199e-09 7.15606e-07 -8.82277e-05
0.000656367 2.13411e-05 2.27114e-07
2.13411e-05 8.892e-05 1.60787e-07
2.27114e-07 1.60787e-07 -3.6822e-05
0.000693859 3.99222e-05 7.15043e-07
3.99222e-05 7.65518e-05 -5.89274e-07
7.15043e-07 -5.89274e-07 -4.92457e-06
0.000800373 5.23913e-05 -7.92216e-07
5.23913e-05 0.000151489 -1.78728e-07
-7.92216e-07 -1.78728e-07 3.76753e-05
0.00115782 0.000103416 -1.49208e-06
0.000103416 0.00036979 -1.67233e-06
-1.49208e-06 -1.67233e-06 0.000251292
0.000394953 5.11663e-05 -3.36896e-08
5.11663e-05 -7.133e-05 -3.04675e-06
-3.36896e-08 -3.04675e-06 -0.000174651
0.000804086 8.42201e-05 1.86321e-06
8.42201e-05 0.000160349 2.59766e-07
1.86321e-06 2.59766e-07 4.00961e-05
0.000552483 -2.16617e-05 1.27068e-06
-2.16617e-05 1.3617e-05 -1.80108e-08
1.27068e-06 -1.80108e-08 -0.000103239
0.000434463 -5.40393e-05 -1.20026e-06
-5.40393e-05 -5.70318e-05 2.05311e-06
-1.20026e-06 2.05311e-06 -0.000154722
0.000778484 -6.73305e-06 -7.6942e-07
-6.73305e-06 0.000158621 -1.63714e-07
-7.6942e-07 -1.63714e-07 3.71945e-05
0.000817389 3.24347e-05 -4.64771e-08
3.24347e-05 0.000184755 -3.23729e-06
-4.64771e-08 -3.23729e-06 6.82485e-05
0.000653073 -2.49508e-05 -6.68132e-07
-2.49508e-05 9.49845e-05 3.93773e-08
-6.68132e-07 3.93773e-08 -1.95017e-05
0.000791256 -2.5675e-05 1.17494e-06
-2.5675e-05 0.000173638 -6.08555e-07
1.17494e-06 -6.08555e-07 5.58612e-05
0.000667671 -8.81323e-05 -2.44483e-06
-8.81323e-05 8.1559e-05 1.503e-06
-2.44483e-06 1.503e-06 -1.17715e-05
0.000443356 -1.24887e-05 1.35271e-07
-1.24887e-05 -5.10354e-05 8.62413e-07
1.35271e-07 8.62413e-07 -0.000148618
0.000580254 -2.25046e-05 -1.53367e-06
-2.25046e-05 8.93847e-06 2.45618e-06
-1.53367e-06 2.45618e-06 -4.63176e-05
0.000573072 -2.00783e-05 1.10198e-06
-2.00783e-05 1.04735e-05 4.44056e-09
1.10198e-06 4.44056e-09 -4.69022e-05
0.000569375 6.79157e-06 1.07566e-07
6.79157e-06 -2.1128e-05 5.56546e-06
1.07566e-07 5.56546e-06 -3.81995e-05
0.000573243 2.12363e-05 -9.83765e-07
2.12363e-05 8.5653e-06 -2.22625e-06
-9.83765e-07 -2.22625e-06 -4.6869e-05
0.000538358 5.57889e-06 3.82961e-07
5.57889e-06 -4.02413e-05 2.4875e-09
3.82961e-07 2.4875e-09 -5.6879e-05
0.00238017 -1.63929e-06 -8.18925e-07
-1.63929e-06 0.00105959 5.30055e-06
-8.18925e-07 5.30055e-06 0.00107487
0.000583452 3.21631e-06 -9.08351e-07
3.21631e-06 -1.46642e-05 -5.73183e-06
-9.08351e-07 -5.73183e-06 -3.1126e-05
0.00160495 -9.91025e-06 2.27913e-08
-9.91025e-06 0.000594376 8.67474e-08
2.27913e-08 8.67474e-08 0.000605569
0.000775316 -1.481e-05 2.23865e-07
-1.481e-05 9.59619e-05 -2.13024e-06
2.23865e-07 -2.13024e-06 0.000103772
0.000594692 -1.25223e-05 9.81336e-07
-1.25223e-05 7.77867e-06 -1.32672e-06
9.81336e-07 -1.32672e-06 -3.0072e-05
0.000618488 -2.06367e-05 3.96259e-07
-2.06367e-05 1.98767e-05 -4.75275e-08
3.96259e-07 -4.75275e-08 -1.99122e-05
0.000582867 1.41087e-05 4.61849e-07
1.41087e-05 -2.21223e-05 -3.108e-06
4.61849e-07 -3.108e-06 -2.97863e-05
0.00059346 -1.55066e-05 -1.38167e-06
-1.55066e-05 1.79804e-06 1.20345e-06
-1.38167e-06 1.20345e-06 -3.81588e-05
0.000854505 2.56214e-05 -6.29825e-08
2.56214e-05 0.000143125 -7.12743e-07
-6.29825e-08 -7.12743e-07 0.000135582
0.00204499 4.15211e-05 1.06339e-05
4.15211e-05 0.000864743 -4.30122e-06
1.06339e-05 -4.30122e-06 0.000881161
0.000550791 3.04566e-05 -3.90793e-07
3.04566e-05 -3.46455e-05 3.41787e-06
-3.90793e-07 3.41787e-06 -4.69533e-05
0.00217775 5.81624e-05 -7.15678e-06
5.81624e-05 0.00095138 1.11435e-06
-7.15678e-06 1.11435e-06 0.000964666
0.00228375 7.66237e-05 -1.5858e-05
7.66237e-05 0.0010218 4.08273e-06
-1.5858e-05 4.08273e-06 0.00103128
0.00199387 0.000130357 -2.42353e-06
0.000130357 1.9182e-05 -1.31472e-07
-2.42353e-06 -1.31472e-07 6.17224e-06
0.00192606 -3.79977e-07 -1.27233e-06
-3.79977e-07 1.60161e-05 1.68597e-07
-1.27233e-06 1.68597e-07 1.13589e-05
0.00163927 5.51822e-05 9.27781e-06
5.51822e-05 -0.000194344 2.97182e-08
9.27781e-06 2.97182e-08 -0.000169068
0.00231192 0.000251509 4.00759e-05
0.000251509 -0.000536583 8.63187e-06
4.00759e-05 8.63187e-06 -0.000389611
0.00198315 -9.53125e-06 -2.13854e-06
-9.53125e-06 -2.54278e-05 -4.91246e-07
-2.13854e-06 -4.91246e-07 -7.30521e-06
0.00191102 5.16946e-05 3.75431e-06
5.16946e-05 0.000138693 -2.68667e-06
3.75431e-06 -2.68667e-06 0.000202363
0.00282284 -1.80537e-05 -2.76612e-05
-1.80537e-05 0.000698627 4.17094e-06
-2.76612e-05 4.17094e-06 0.000678079
0.0019731 -2.57932e-05 5.16564e-05
-2.57932e-05 -0.00141148 -2.33377e-05
5.16564e-05 -2.33377e-05 -0.00119702
0.00251748 9.04817e-05 3.6726e-05
9.04817e-05 -0.000114693 2.14356e-05
3.6726e-05 2.14356e-05 4.91331e-05
0.000620716 7.06094e-05 8.55444e-08
7.06094e-05 5.92722e-05 -5.83619e-07
8.55444e-08 -5.83619e-07 -1.75836e-05
0.000645105 -8.58542e-06 5.8781e-07
-8.58542e-06 7.56637e-05 -2.01245e-07
5.8781e-07 -2.01245e-07 -3.06426e-06
0.000620856 -9.57332e-05 -8.59516e-07
-9.57332e-05 6.1054e-05 1.07618e-06
-8.59516e-07 1.07618e-06 -3.25747e-05
0.000601082 -4.19536e-05 -1.21417e-06
-4.19536e-05 7.1019e-05 1.0766e-06
-1.21417e-06 1.0766e-06 -3.32677e-05
0.00200899 -0.000124114 -3.67323e-06
-0.000124114 -4.28517e-05 6.10019e-07
-3.67323e-06 6.10019e-07 -2.51254e-05
0.00195213 -0.000267596 7.89595e-07
-0.000267596 -1.04565e-05 -2.25983e-07
7.89595e-07 -2.25983e-07 1.22483e-05
0.00209002 -0.000396962 -2.45718e-06
-0.000396962 9.60277e-05 2.34914e-06
-2.45718e-06 2.34914e-06 2.05614e-05
0.00233723 -0.000444591 1.06878e-05
-0.000444591 0.000845749 3.64073e-06
1.06878e-05 3.64073e-06 0.00056153
0.00107808 -0.000471114 1.17219e-05
-0.000471114 2.38589e-05 -3.68829e-06
1.17219e-05 -3.68829e-06 -0.000329699
0.00230543 -0.000554297 6.60441e-06
-0.000554297 0.000436454 -3.08927e-06
6.60441e-06 -3.08927e-06 0.000251636
0.00113505 -0.000340983 -4.06331e-06
-0.000340983 0.000255421 2.64197e-06
-4.06331e-06 2.64197e-06 -1.68693e-05
0.00194767 -0.000154026 1.33297e-06
-0.000154026 0.000850188 -1.00742e-06
1.33297e-06 -1.00742e-06 0.00060735
0.000262262 -7.76504e-05 -2.30408e-07
-7.76504e-05 -0.000191514 -1.23087e-06
-2.30408e-07 -1.23087e-06 -0.000348473
0.000676425 -3.99001e-05 -1.45695e-07
-3.99001e-05 8.43515e-05 1.08167e-06
-1.45695e-07 1.08167e-06 8.96827e-06
0.000684267 -8.94409e-05 5.10109e-07
-8.94409e-05 0.000123501 -2.75299e-06
5.10109e-07 -2.75299e-06 -3.44513e-05
0.000753574 -8.18005e-06 8.62702e-07
-8.18005e-06 0.000161343 -6.56175e-07
8.62702e-07 -6.56175e-07 4.00255e-05
0.000644094 7.51148e-06 1.7133e-07
7.51148e-06 7.85665e-05 -1.58307e-07
1.7133e-07 -1.58307e-07 -3.48699e-06
0.000546018 2.76153e-07 -3.18799e-06
2.76153e-07 9.88181e-06 2.20845e-06
-3.18799e-06 2.20845e-06 -8.44981e-05
0.00231095 -0.000210082 1.20787e-06
-0.000210082 0.000145803 5.9284e-07
1.20787e-06 5.9284e-07 0.000169862
0.000646104 -1.35071e-05 1.13193e-06
-1.35071e-05 8.53202e-05 -2.59513e-07
1.13193e-06 -2.59513e-07 -1.86592e-05
0.000689278 3.5394e-06 2.57796e-06
3.5394e-06 9.67453e-05 -1.32304e-07
2.57796e-06 -1.32304e-07 -6.63109e-06
0.000363529 3.25626e-05 1.99009e-07
3.25626e-05 -9.11687e-05 1.34224e-06
1.99009e-07 1.34224e-06 -0.000185192
0.00176902 -0.000288593 -8.36508e-07
-0.000288593 -0.000189991 -1.62936e-06
-8.36508e-07 -1.62936e-06 -0.000130408
0.00205705 -0.000522457 1.50167e-06
-0.000522457 0.000122533 -4.20588e-07
1.50167e-06 -4.20588e-07 -1.14007e-05
0.00165318 -0.000432003 -1.08133e-06
-0.000432003 0.00050821 5.45074e-08
-1.08133e-06 5.45074e-08 0.00021216
0.00215875 -0.000594006 -5.59992e-06
-0.000594006 0.000467438 1.95935e-06
-5.59992e-06 1.95935e-06 0.000230237
0.00108351 -8.00882e-05 -9.59758e-07
-8.00882e-05 0.000350089 3.7849e-07
-9.59758e-07 3.7849e-07 0.00021443
0.000461088 -7.2027e-05 2.67049e-07
-7.2027e-05 -4.42272e-05 9.10801e-07
2.67049e-07 9.10801e-07 -0.000190554
0.00109751 -0.000429803 3.92358e-06
-0.000429803 0.000426281 -1.71002e-06
3.92358e-06 -1.71002e-06 2.52828e-05
0.00115757 -0.000196342 2.13752e-07
-0.000196342 0.00045299 -3.94137e-07
2.13752e-07 -3.94137e-07 0.000154752
0.00246679 -0.000253991 -2.3628e-05
-0.000253991 0.0001476 -1.02007e-06
-2.3628e-05 -1.02007e-06 0.000264652
0.00230882 -0.000425202 -2.818e-05
-0.000425202 0.000149061 6.06655e-06
-2.818e-05 6.06655e-06 0.000164922
0.00281497 -0.000680877 -1.21364e-05
-0.000680877 0.000625723 -5.71063e-06
-1.21364e-05 -5.71063e-06 0.000407809
0.0016355 -0.000506468 -9.63412e-06
-0.000506468 0.000376118 2.87221e-06
-9.63412e-06 2.87221e-06 0.000152077
0.00053513 -1.00532e-05 -1.62936e-06
-1.00532e-05 3.57344e-05 -2.09971e-06
-1.62936e-06 -2.09971e-06 -8.66843e-05
0.000538288 -8.09713e-05 -8.38297e-07
-8.09713e-05 2.66221e-05 -4.34965e-06
-8.38297e-07 -4.34965e-06 -0.000104871
0.000450072 -0.000119534 -3.01514e-06
-0.000119534 6.91404e-05 1.12979e-05
-3.01514e-06 1.12979e-05 -0.000123471
-0.000356522 -0.000211414 -3.06761e-06
-0.000211414 -0.000183426 -5.62278e-06
-3.06761e-06 -5.62278e-06 -0.000668925
0.0010024 -0.000405268 2.75306e-05
-0.000405268 -0.00330259 -5.59691e-06
2.75306e-05 -5.59691e-06 -0.00353241
0.00153061 0.000126655 8.0601e-07
0.000126655 0.000600469 -3.78118e-06
8.0601e-07 -3.78118e-06 0.000461617
0.000642565 0.000196127 3.04794e-06
0.000196127 2.46527e-05 1.87434e-06
3.04794e-06 1.87434e-06 -0.00017129
0.00209451 0.000214858 5.37415e-05
0.000214858 0.000137338 1.08568e-05
5.37415e-05 1.08568e-05 0.000168326
0.00205891 0.000485489 1.82582e-05
0.000485489 0.000158861 6.79859e-06
1.82582e-05 6.79859e-06 2.48531e-05
0.00209015 0.000503627 7.19943e-06
0.000503627 0.00051235 8.18143e-06
7.19943e-06 8.18143e-06 0.000206316
0.00100047 0.000316956 6.15779e-06
0.000316956 9.6335e-05 4.1844e-06
6.15779e-06 4.1844e-06 -0.000187873
0.00343184 0.000600585 7.97329e-05
0.000600585 0.000256054 2.87306e-05
7.97329e-05 2.87306e-05 -0.000174502
0.00126989 0.000185996 3.59221e-06
0.000185996 0.000483321 6.36325e-07
3.59221e-06 6.36325e-07 0.000314012
0.00236878 0.00039339 -1.24349e-05
0.00039339 0.00035758 -9.69684e-07
-1.24349e-05 -9.69684e-07 0.000349313
0.00110982 0.000284031 1.72775e-06
0.000284031 0.000241155 7.0129e-07
1.72775e-06 7.0129e-07 3.32454e-05
0.00118087 0.000376502 2.27744e-06
0.000376502 0.000156947 -2.65458e-06
2.27744e-06 -2.65458e-06 -0.000128498
0.00121918 0.000513621 -5.06747e-06
0.000513621 -0.000153541 -1.53839e-06
-5.06747e-06 -1.53839e-06 -0.000349742
0.00283848 -0.000325804 -0.00012511
-0.000325804 -0.00256472 -3.72285e-05
-0.00012511 -3.72285e-05 -0.00355813
0.00592077 0.000747398 -2.41896e-05
0.000747398 0.000566068 -4.55287e-05
-2.41896e-05 -4.55287e-05 0.000127577
0.000585917 0.000521572 -8.85718e-06
0.000521572 -0.00037987 7.2932e-06
-8.85718e-06 7.2932e-06 -0.000698406
-0.00196376 -0.000661161 0.000203858
-0.000661161 0.00111733 8.7066e-05
0.000203858 8.7066e-05 -0.00058425
0.00169126 -0.00293864 -0.000149367
-0.00293864 -0.000318113 -0.000159167
-0.000149367 -0.000159167 0.00103053
0.00112876 0.000206223 -6.62471e-06
0.000206223 0.000382096 -2.73786e-06
-6.62471e-06 -2.73786e-06 0.000228073
0.000565302 0.000444233 0.000234862
0.000444233 0.0020486 -6.60553e-06
0.000234862 -6.60553e-06 0.000787219
0.00103308 -0.000906677 -0.000123079
-0.000906677 0.00269188 -0.000189929
-0.000123079 -0.000189929 0.000508402
0.00266451 0.000608964 -3.19088e-05
0.000608964 0.000503276 -8.18614e-06
-3.19088e-05 -8.18614e-06 0.000526716
0.000747118 0.000174966 -1.39121e-05
0.000174966 3.36835e-05 -3.75148e-06
-1.39121e-05 -3.75148e-06 -0.000161944
0.000295164 0.000417337 -2.47162e-05
0.000417337 -0.00032253 -1.71327e-05
-2.47162e-05 -1.71327e-05 -0.000614245
9.28303e-05 0.000552388 3.30092e-05
0.000552388 -0.000698713 7.05874e-05
3.30092e-05 7.05874e-05 -0.000864455
0.0131132 0.000919766 -1.30756e-05
0.000919766 0.00381069 -4.26149e-05
-1.30756e-05 -4.26149e-05 0.00233176
0.00276873 0.00108865 1.38162e-05
0.00108865 0.000437789 4.38018e-06
1.38162e-05 4.38018e-06 -0.00064456
0.00381543 -0.00260623 0.000378109
-0.00260623 0.000104728 0.000259657
0.000378109 0.000259657 0.000111303
0.00662695 -0.00136379 -2.93619e-05
-0.00136379 -9.67608e-05 0.0002782
-2.93619e-05 0.0002782 0.000664756
0.000571843 3.20355e-05 2.42566e-06
3.20355e-05 6.8623e-05 -2.19568e-06
2.42566e-06 -2.19568e-06 -2.10604e-05
0.00074956 9.45653e-05 3.02589e-06
9.45653e-05 0.000162965 9.66089e-07
3.02589e-06 9.66089e-07 5.79549e-05
0.00145555 0.000166279 -2.61467e-06
0.000166279 0.000589355 -2.65649e-06
-2.61467e-06 -2.65649e-06 0.000475536
0.000619 4.97295e-06 8.01688e-07
4.97295e-06 7.19236e-05 -4.43929e-07
8.01688e-07 -4.43929e-07 -3.3626e-05
0.00072804 3.59227e-05 -1.47947e-08
3.59227e-05 0.000129303 -1.58056e-06
-1.47947e-08 -1.58056e-06 5.21165e-06
0.000520969 -2.31714e-06 -1.62642e-06
-2.31714e-06 -5.04852e-06 4.46363e-07
-1.62642e-06 4.46363e-07 -0.000118599
0.000764887 5.78071e-05 -1.36631e-06
5.78071e-05 0.000131331 1.70415e-06
-1.36631e-06 1.70415e-06 2.18047e-05
0.000548555 3.92832e-05 -1.14245e-06
3.92832e-05 -1.36855e-05 -8.85806e-08
-1.14245e-06 -8.85806e-08 -9.56929e-05
0.000436432 -4.22471e-06 2.52189e-07
-4.22471e-06 -5.12894e-05 7.9318e-07
2.52189e-07 7.9318e-07 -0.000151757
0.000878229 4.38996e-05 4.94156e-07
4.38996e-05 0.000207136 7.57811e-07
4.94156e-07 7.57811e-07 9.07595e-05
0.000782538 3.35746e-05 2.83816e-07
3.35746e-05 0.000148362 3.61995e-07
2.83816e-07 3.61995e-07 2.75148e-05
0.000688761 1.93763e-05 6.25146e-07
1.93763e-05 0.000110083 -3.27349e-07
6.25146e-07 -3.27349e-07 -1.73784e-05
0.000448526 5.41902e-05 -3.38317e-07
5.41902e-05 -3.79943e-05 -9.73316e-07
-3.38317e-07 -9.73316e-07 -0.000141808
0.00123224 6.90104e-05 -7.86272e-07
6.90104e-05 0.000418064 -3.09865e-06
-7.86272e-07 -3.09865e-06 0.00031055
4.28409e-05 4.62393e-05 -3.38235e-06
4.62393e-05 -0.000232529 -4.87495e-06
-3.38235e-06 -4.87495e-06 -0.00034511
0.000754376 -8.02459e-05 2.39831e-08
-8.02459e-05 0.000131829 -1.35601e-07
2.39831e-08 -1.35601e-07 6.21289e-06
0.00076943 -5.69127e-05 -7.75802e-07
-5.69127e-05 0.000163914 -4.60663e-07
-7.75802e-07 -4.60663e-07 3.12705e-05
0.000793923 -2.86195e-05 -4.88644e-07
-2.86195e-05 0.00017779 -3.7676e-07
-4.88644e-07 -3.7676e-07 4.90664e-05
0.000802191 2.33075e-06 -1.19844e-06
2.33075e-06 0.000167151 -1.99387e-07
-1.19844e-06 -1.99387e-07 5.77912e-05
0.000795703 1.51291e-05 -3.07996e-06
1.51291e-05 0.000184873 -2.52743e-06
-3.07996e-06 -2.52743e-06 4.62503e-05
0.000718515 6.95874e-06 1.279e-06
6.95874e-06 0.000121655 -1.76955e-06
1.279e-06 -1.76955e-06 1.29156e-05
5.22178e-05 -2.09208e-05 -3.12398e-07
-2.09208e-05 -0.000280753 -2.48293e-06
-3.12398e-07 -2.48293e-06 -0.000374827
0.000589439 -3.44176e-06 9.59575e-07
-3.44176e-06 3.46427e-05 3.14346e-08
9.59575e-07 3.14346e-08 -7.23622e-05
0.000641743 -5.039e-05 2.83858e-07
-5.039e-05 6.64294e-05 5.30581e-07
2.83858e-07 5.30581e-07 -3.18989e-05
0.00071313 -4.76963e-05 -2.34175e-07
-4.76963e-05 0.000123958 -4.0888e-08
-2.34175e-07 -4.0888e-08 1.22205e-05
0.000656025 -5.44307e-05 -2.02807e-06
-5.44307e-05 6.31059e-05 1.2079e-06
-2.02807e-06 1.2079e-06 -1.8655e-05
0.000679315 -3.84868e-05 1.4403e-06
-3.84868e-05 8.71301e-05 -4.07121e-07
1.4403e-06 -4.07121e-07 -1.86576e-05
0.000600696 -8.14808e-05 1.30032e-08
-8.14808e-05 3.93604e-05 2.21802e-07
1.30032e-08 2.21802e-07 -5.3727e-05
0.000620746 -2.1082e-05 -2.03594e-06
-2.1082e-05 2.84373e-05 2.6718e-06
-2.03594e-06 2.6718e-06 -2.65878e-05
0.00048157 -6.19601e-06 1.25134e-06
-6.19601e-06 -1.84912e-05 -6.85645e-07
1.25134e-06 -6.85645e-07 -0.000123132
0.000578577 3.16642e-06 1.32304e-06
3.16642e-06 1.21477e-05 -1.0285e-08
1.32304e-06 -1.0285e-08 -4.5457e-05
0.00138771 9.90976e-06 -3.21416e-06
9.90976e-06 0.000467257 5.47622e-06
-3.21416e-06 5.47622e-06 0.000454536
0.000571273 3.66544e-05 -6.93006e-07
3.66544e-05 9.63365e-06 -2.24747e-06
-6.93006e-07 -2.24747e-06 -4.76087e-05
0.000950508 3.07365e-06 -1.85084e-06
3.07365e-06 0.000206766 8.10631e-07
-1.85084e-06 8.10631e-07 0.000192074
0.000832188 3.16325e-06 -4.18838e-06
3.16325e-06 0.000132557 5.07589e-06
-4.18838e-06 5.07589e-06 0.000139662
0.000544798 -4.64406e-07 4.88797e-07
-4.64406e-07 -3.62208e-05 -3.8218e-06
4.88797e-07 -3.8218e-06 -5.2903e-05
0.00239413 1.36481e-07 4.64248e-06
1.36481e-07 0.00106804 -6.84065e-09
4.64248e-06 -6.84065e-09 0.00108325
0.000850575 -2.83837e-06 -4.25283e-06
-2.83837e-06 0.000143283 -5.18597e-06
-4.25283e-06 -5.18597e-06 0.000150533
0.000593135 6.42286e-05 1.97361e-06
6.42286e-05 4.9251e-05 1.68885e-07
1.97361e-06 1.68885e-07 -3.48233e-05
0.000573315 2.86632e-05 -1.33452e-06
2.86632e-05 4.75922e-07 -1.76616e-06
-1.33452e-06 -1.76616e-06 -3.89885e-05
0.000585067 -6.41197e-06 1.02144e-06
-6.41197e-06 4.39567e-06 1.62791e-08
1.02144e-06 1.62791e-08 -3.50247e-05
0.000583994 8.24666e-06 3.87154e-07
8.24666e-06 -2.20523e-05 -3.06581e-06
3.87154e-07 -3.06581e-06 -2.90349e-05
0.000612738 -3.51561e-05 -1.76202e-06
-3.51561e-05 1.82398e-05 1.35123e-06
-1.76202e-06 1.35123e-06 -2.30574e-05
0.000552862 1.40789e-05 1.62634e-08
1.40789e-05 -4.06608e-05 -7.5789e-07
1.62634e-08 -7.5789e-07 -4.8015e-05
0.00201868 2.79035e-05 7.12656e-06
2.79035e-05 0.000845354 -4.45648e-06
7.12656e-06 -4.45648e-06 0.000863349
0.00115416 3.21844e-05 -6.28701e-07
3.21844e-05 0.000323755 1.8191e-06
-6.28701e-07 1.8191e-06 0.00031746
0.00147902 3.57325e-05 8.2386e-08
3.57325e-05 0.000525361 1.40643e-06
8.2386e-08 1.40643e-06 0.000537693
0.000885909 3.89017e-05 -1.30957e-05
3.89017e-05 0.000174553 7.18237e-06
-1.30957e-05 7.18237e-06 0.000181051
0.0014997 0.000166096 7.43365e-05
0.000166096 -0.000850039 1.57386e-05
7.43365e-05 1.57386e-05 -0.000720076
0.00195241 -2.28266e-05 2.60993e-06
-2.28266e-05 -2.94425e-05 1.29922e-06
2.60993e-06 1.29922e-06 -1.42267e-05
0.00192697 6.35815e-05 3.49705e-05
6.35815e-05 0.000165117 -1.17108e-05
3.49705e-05 -1.17108e-05 0.000219265
0.00152614 0.000136888 -1.90462e-05
0.000136888 -0.00122367 -1.18738e-05
-1.90462e-05 -1.18738e-05 -0.000835
0.00187059 6.53767e-05 2.02919e-05
6.53767e-05 -0.000375572 1.04606e-08
2.02919e-05 1.04606e-08 -0.000221837
0.00236926 -2.16886e-05 5.20829e-07
-2.16886e-05 0.000377939 -2.6864e-06
5.20829e-07 -2.6864e-06 0.000361648
0.00353486 -9.34845e-05 -6.0409e-05
-9.34845e-05 0.00082771 2.21206e-06
-6.0409e-05 2.21206e-06 0.000800569
0.00300342 -7.24517e-05 7.82748e-05
-7.24517e-05 0.000294337 2.43913e-06
7.82748e-05 2.43913e-06 0.000244376
0.0103736 -0.000498733 1.3974e-05
-0.000498733 0.002379 4.04419e-05
1.3974e-05 4.04419e-05 0.000848414
0.0100722 0.0021332 0.000474089
0.0021332 0.00454938 -0.000204995
0.000474089 -0.000204995 0.00425476
0.00619149 0.00232043 -2.54489e-05
0.00232043 0.0046259 1.96948e-05
-2.54489e-05 1.96948e-05 0.00482435
0.000412999 -8.96752e-05 1.82369e-06
-8.96752e-05 -5.28295e-05 -1.4128e-07
1.82369e-06 -1.4128e-07 -0.000149265
0.000640749 -1.15641e-05 1.33891e-06
-1.15641e-05 7.30175e-05 -1.68495e-07
1.33891e-06 -1.68495e-07 -5.71088e-06
0.000685612 -8.02241e-05 -1.65218e-06
-8.02241e-05 0.000105891 1.10172e-06
-1.65218e-06 1.10172e-06 2.15007e-05
0.000623882 -4.31098e-05 -1.91121e-07
-4.31098e-05 6.46368e-05 2.4515e-07
-1.91121e-07 2.4515e-07 -3.03683e-05
0.0006213 5.96251e-05 -1.44147e-06
5.96251e-05 8.56153e-05 1.88719e-06
-1.44147e-06 1.88719e-06 -2.68974e-05
0.000615566 0.000118796 1.33498e-06
0.000118796 6.04911e-05 4.05185e-06
1.33498e-06 4.05185e-06 -4.9835e-05
0.000860347 -1.42274e-05 2.85948e-06
-1.42274e-05 0.000224039 2.77321e-07
2.85948e-06 2.77321e-07 0.000114307
0.00056559 -2.86918e-05 -1.09206e-06
-2.86918e-05 3.86764e-05 9.8612e-07
-1.09206e-06 9.8612e-07 -6.00674e-05
0.00215845 -0.000195146 5.23968e-06
-0.000195146 6.14332e-05 2.07153e-06
5.23968e-06 2.07153e-06 9.88637e-05
0.00181616 -0.000301499 9.57638e-06
-0.000301499 -0.000198456 -1.91922e-06
9.57638e-06 -1.91922e-06 -0.000145122
0.00162266 -0.000485409 6.25356e-06
-0.000485409 -0.000102689 3.68493e-06
6.25356e-06 3.68493e-06 -0.000227064
0.00145539 -0.000438678 1.48848e-05
-0.000438678 0.000381659 4.38324e-07
1.48848e-05 4.38324e-07 8.1206e-05
0.00178263 -0.00056833 6.32421e-06
-0.00056833 0.000271572 2.21585e-06
6.32421e-06 2.21585e-06 3.6443e-05
0.0022475 -0.000505905 7.94058e-06
-0.000505905 0.00107909 -2.88795e-06
7.94058e-06 -2.88795e-06 0.000659016
0.00235641 -0.000308134 1.28539e-06
-0.000308134 0.00108751 -2.85705e-06
1.28539e-06 -2.85705e-06 0.000804767
0.000781871 -0.00013358 4.28669e-06
-0.00013358 0.000152702 -4.21243e-06
4.28669e-06 -4.21243e-06 -1.21823e-05
0.000674457 -2.56009e-05 5.24258e-07
-2.56009e-05 8.8003e-05 2.15528e-06
5.24258e-07 2.15528e-06 -1.03965e-05
0.000893032 -4.43977e-05 1.93614e-06
-4.43977e-05 0.000221157 -6.87012e-06
1.93614e-06 -6.87012e-06 9.43154e-05
0.000918575 -2.39616e-05 1.66611e-06
-2.39616e-05 0.000250024 -7.2138e-08
1.66611e-06 -7.2138e-08 0.000143866
0.000711756 9.33571e-05 2.21102e-06
9.33571e-05 0.000118576 1.99596e-06
2.21102e-06 1.99596e-06 3.10027e-05
0.00202367 -0.000240953 -1.71231e-07
-0.000240953 -3.49431e-05 2.02495e-06
-1.71231e-07 2.02495e-06 6.45618e-05
0.00066121 1.04836e-05 -1.56036e-06
1.04836e-05 0.000110982 2.21145e-07
-1.56036e-06 2.21145e-07 -1.06717e-05
0.000845573 -9.04912e-05 -2.57385e-06
-9.04912e-05 0.000199716 1.50984e-06
-2.57385e-06 1.50984e-06 7.72349e-05
0.00178205 -0.000409663 2.125e-06
-0.000409663 -0.000131361 -1.64652e-06
2.125e-06 -1.64652e-06 -0.00012076
0.00165639 -0.000582136 3.54367e-07
-0.000582136 9.24732e-06 2.23009e-07
3.54367e-07 2.23009e-07 -0.000176557
0.000999377 -0.000448994 -1.02228e-06
-0.000448994 3.16123e-05 -1.81254e-06
-1.02228e-06 -1.81254e-06 -0.000204514
0.00108051 -0.000164541 2.35217e-07
-0.000164541 0.000419811 -5.70161e-06
2.35217e-07 -5.70161e-06 0.00020682
0.00115132 -0.000280117 -1.73316e-06
-0.000280117 0.000615102 1.41999e-06
-1.73316e-06 1.41999e-06 0.000172886
0.00316951 -0.000366064 -3.44169e-05
-0.000366064 0.000554106 4.58966e-06
-3.44169e-05 4.58966e-06 0.000590042
0.00285379 -0.00058962 -3.63716e-05
-0.00058962 0.000572725 5.33092e-06
-3.63716e-05 5.33092e-06 0.000536772
0.00176504 -0.000641256 -1.27919e-05
-0.000641256 0.00016124 -5.22356e-07
-1.27919e-05 -5.22356e-07 -2.92645e-05
0.000564441 -0.0003196 -1.50887e-05
-0.0003196 -6.27494e-05 1.7009e-05
-1.50887e-05 1.7009e-05 -0.000280353
0.000656765 -0.000136322 1.46978e-06
-0.000136322 0.000113568 1.68425e-06
1.46978e-06 1.68425e-06 -3.38862e-05
0.000430291 -0.000112823 2.83885e-06
-0.000112823 2.0574e-05 -5.08779e-07
2.83885e-06 -5.08779e-07 -0.00014873
0.00106261 -0.000116719 -4.12707e-07
-0.000116719 0.000573585 -4.29693e-06
-4.12707e-07 -4.29693e-06 0.000200053
-0.00517106 -0.0001141 0.000280155
-0.0001141 -0.00375663 2.65421e-06
0.000280155 2.65421e-06 -0.00264231
0.0103345 -0.000153697 1.39859e-05
-0.000153697 0.00269073 1.04702e-07
1.39859e-05 1.04702e-07 0.00214013
0.00148963 0.000165431 6.21607e-06
0.000165431 0.000599434 -3.21363e-06
6.21607e-06 -3.21363e-06 0.000442009
0.000919895 0.000266505 3.12461e-06
0.000266505 0.000148687 -1.53287e-06
3.12461e-06 -1.53287e-06 -5.77543e-05
0.0020022 0.0003555 4.77735e-05
0.0003555 0.000150361 2.46053e-05
4.77735e-05 2.46053e-05 0.00016165
0.0024179 0.000610676 1.49344e-05
0.000610676 0.00046774 4.87906e-06
1.49344e-05 4.87906e-06 0.000262073
0.00222249 0.000492059 1.06952e-05
0.000492059 0.000729605 5.46696e-07
1.06952e-05 5.46696e-07 0.000429541
0.0113028 0.000611228 4.9708e-05
0.000611228 0.00286676 2.27087e-05
4.9708e-05 2.27087e-05 0.00176169
0.00769565 0.00108175 -0.000167134
0.00108175 0.000910709 -2.47458e-05
-0.000167134 -2.47458e-05 0.000598016
0.000710345 0.000444281 6.80521e-06
0.000444281 -0.000189404 -1.86612e-05
6.80521e-06 -1.86612e-05 -0.000573127
0.0101114 -0.001711 -0.00012729
-0.001711 0.00461984 1.72761e-05
-0.00012729 1.72761e-05 0.00380323
-0.00724899 -0.00298329 -0.000800918
-0.00298329 -0.00300881 -0.000602406
-0.000800918 -0.000602406 -0.00178924
0.000986461 0.000199062 -6.66235e-07
0.000199062 0.000309433 -1.49939e-06
-6.66235e-07 -1.49939e-06 0.000154687
-0.00242771 -0.000887969 0.000160077
-0.000887969 -0.00227728 2.25736e-05
0.000160077 2.25736e-05 -0.00262681
-0.00310037 -0.000648442 -0.000188417
-0.000648442 0.0017709 -9.46233e-05
-0.000188417 -9.46233e-05 -0.000767398
0.00281331 0.000549269 -1.19855e-05
0.000549269 0.000594754 -1.21128e-06
-1.19855e-05 -1.21128e-06 0.000618941
0.000874248 0.000237722 -4.03308e-06
0.000237722 0.000136847 1.31769e-06
-4.03308e-06 1.31769e-06 -8.14598e-05
0.00122717 0.000497592 4.69539e-06
0.000497592 0.000182251 2.29345e-06
4.69539e-06 2.29345e-06 -0.000116052
0.00119492 0.000493834 1.92965e-05
0.000493834 1.97371e-05 1.61723e-05
1.92965e-05 1.61723e-05 -2.63283e-05
0.00964612 0.000732849 -6.84377e-05
0.000732849 0.00139254 -3.27607e-05
-6.84377e-05 -3.27607e-05 -0.000464442
0.00607596 0.00155037 -6.40827e-05
0.00155037 0.00140517 -2.88665e-05
-6.40827e-05 -2.88665e-05 0.000675046
0.0114246 -0.00201164 0.000161913
-0.00201164 0.00502512 -5.03531e-05
0.000161913 -5.03531e-05 0.00464459
0.00597638 -0.00170188 0.000163444
-0.00170188 -0.000906461 0.000357744
0.000163444 0.000357744 -0.000131351
0.00163763 0.000196535 -1.66994e-05
0.000196535 0.000694589 -8.95094e-06
-1.66994e-05 -8.95094e-06 0.000555295
-0.00659864 0.000409049 -9.67392e-05
0.000409049 0.00125899 -6.00008e-05
-9.67392e-05 -6.00008e-05 -0.00194438
0.00335916 0.000371187 -0.000187469
0.000371187 0.0020453 -0.00025193
-0.000187469 -0.00025193 -0.00110021
0.00178265 0.000482517 -1.9293e-05
0.000482517 0.000308573 7.01094e-06
-1.9293e-05 7.01094e-06 0.000307354
0.00140696 0.00043922 -5.11728e-05
0.00043922 0.000510094 -1.82234e-05
-5.11728e-05 -1.82234e-05 0.000259358
0.00231572 0.000432811 -6.11617e-05
0.000432811 0.00127669 -6.09043e-06
-6.11617e-05 -6.09043e-06 0.000845616
0.00159892 0.00104306 -4.1832e-05
0.00104306 3.59863e-05 -1.71713e-05
-4.1832e-05 -1.71713e-05 -0.000210938
0.000687028 0.000951321 0.0001731
0.000951321 -0.000443475 0.000120486
0.0001731 0.000120486 -0.00324044
0.0105871 -0.00237163 0.000114417
-0.00237163 0.00379908 0.000317723
0.000114417 0.000317723 0.00300855
0.00515373 -0.000978824 -5.79584e-05
-0.000978824 -0.00200378 -5.9189e-05
-5.79584e-05 -5.9189e-05 -0.000805267
0.000634713 0.00011202 3.52865e-06
0.00011202 0.000106598 1.21922e-06
3.52865e-06 1.21922e-06 -7.2912e-06
0.00123742 0.000149781 6.07886e-06
0.000149781 0.000450419 3.32623e-06
6.07886e-06 3.32623e-06 0.000339945
-1.88412e-05 5.68794e-05 2.36198e-06
5.68794e-05 -0.000213478 -7.98e-06
2.36198e-06 -7.98e-06 -0.000331145
0.000445624 4.62635e-05 1.40375e-06
4.62635e-05 -4.63797e-05 -3.85855e-07
1.40375e-06 -3.85855e-07 -0.000146482
0.00075067 5.20765e-05 -5.93656e-07
5.20765e-05 0.000153167 -1.11461e-06
-5.93656e-07 -1.11461e-06 2.20936e-05
0.000739223 -6.49512e-06 -6.84431e-07
-6.49512e-06 0.000121827 1.74809e-06
-6.84431e-07 1.74809e-06 1.09736e-06
0.000737249 2.648e-06 3.02978e-06
2.648e-06 0.000133244 1.32279e-06
3.02978e-06 1.32279e-06 1.31085e-05
0.000401773 4.44358e-05 2.90269e-07
4.44358e-05 -6.19601e-05 2.27621e-06
2.90269e-07 2.27621e-06 -0.000164881
0.000761971 4.54729e-05 -2.02236e-08
4.54729e-05 0.000160051 -8.25418e-07
-2.02236e-08 -8.25418e-07 2.71821e-05
0.000862483 4.96034e-05 6.64427e-08
4.96034e-05 0.000196447 8.339e-08
6.64427e-08 8.339e-08 8.85496e-05
0.000774098 -3.78932e-05 -6.29768e-07
-3.78932e-05 0.000146022 6.63149e-07
-6.29768e-07 6.63149e-07 1.87889e-05
-0.000106588 3.21974e-05 4.79315e-07
3.21974e-05 -0.000304369 6.60001e-07
4.79315e-07 6.60001e-07 -0.000419146
-0.000525319 2.38826e-05 -9.22135e-07
2.38826e-05 -0.000385698 -2.36417e-06
-9.22135e-07 -2.36417e-06 -0.000562407
0.000880126 -3.86973e-06 -3.17349e-06
-3.86973e-06 0.000214614 -5.1007e-06
-3.17349e-06 -5.1007e-06 9.6144e-05
0.000938893 1.00447e-05 -5.34044e-07
1.00447e-05 0.000265964 -2.39711e-07
-5.34044e-07 -2.39711e-07 0.000113535
0.000798074 -5.75232e-05 -2.23282e-07
-5.75232e-05 0.00018474 -7.08612e-07
-2.23282e-07 -7.08612e-07 5.21953e-05
0.000864135 -4.06368e-05 1.40358e-07
-4.06368e-05 0.000197049 1.70058e-06
1.40358e-07 1.70058e-06 9.15359e-05
0.000827229 -5.38987e-05 2.50974e-07
-5.38987e-05 0.000192322 -6.45549e-07
2.50974e-07 -6.45549e-07 6.02709e-05
0.000755698 -1.69705e-06 -3.53344e-07
-1.69705e-06 0.000138535 -6.5115e-08
-3.53344e-07 -6.5115e-08 3.10745e-05
0.000371499 -5.0204e-05 5.55121e-07
-5.0204e-05 -8.49559e-05 1.55689e-06
5.55121e-07 1.55689e-06 -0.000179955
0.000606567 5.74686e-06 1.00125e-06
5.74686e-06 5.20607e-05 8.52549e-07
1.00125e-06 8.52549e-07 -5.28029e-05
0.00033473 -1.43322e-05 -2.86218e-06
-1.43322e-05 -8.48304e-05 -3.8818e-06
-2.86218e-06 -3.8818e-06 -0.000205855
0.000252803 -4.09655e-05 2.15683e-06
-4.09655e-05 -0.000150624 -1.35891e-06
2.15683e-06 -1.35891e-06 -0.000242323
0.000764557 -3.8692e-05 3.71008e-06
-3.8692e-05 0.000101856 -5.75408e-06
3.71008e-06 -5.75408e-06 4.65887e-06
2.41e-05 -5.04388e-05 6.70334e-08
-5.04388e-05 -0.000312898 1.3574e-06
6.70334e-08 1.3574e-06 -0.000464096
0.000360164 4.94822e-06 -9.88157e-07
4.94822e-06 -9.25446e-05 -8.66608e-07
-9.88157e-07 -8.66608e-07 -0.000205723
0.000722224 -1.10768e-05 2.45608e-07
-1.10768e-05 0.000110821 2.46697e-07
2.45608e-07 2.46697e-07 1.7247e-06
0.000634617 -1.49307e-05 1.97353e-07
-1.49307e-05 6.18876e-05 7.78447e-07
1.97353e-07 7.78447e-07 -3.69113e-05
0.000715825 -3.21321e-05 -1.7128e-07
-3.21321e-05 0.000123416 -7.1969e-08
-1.7128e-07 -7.1969e-08 1.53843e-05
0.000563421 -3.36007e-08 -5.39087e-07
-3.36007e-08 1.65273e-05 1.07282e-06
-5.39087e-07 1.07282e-06 -6.76311e-05
0.00076818 -2.84485e-05 -4.58438e-08
-2.84485e-05 0.000154018 -1.79488e-07
-4.58438e-08 -1.79488e-07 4.3794e-05
0.000664173 -4.81421e-05 -5.02058e-07
-4.81421e-05 7.67164e-05 1.0892e-07
-5.02058e-07 1.0892e-07 -1.07159e-05
0.000556946 3.96677e-05 -7.92237e-07
3.96677e-05 -1.07069e-05 2.50449e-06
-7.92237e-07 2.50449e-06 -6.69127e-05
0.000535394 -7.19947e-05 1.78602e-06
-7.19947e-05 -4.52688e-06 -1.12633e-06
1.78602e-06 -1.12633e-06 -9.5597e-05
0.000592103 -5.40679e-06 -3.44841e-07
-5.40679e-06 1.07935e-05 -2.31427e-10
-3.44841e-07 -2.31427e-10 -4.36018e-05
0.00138472 2.08522e-05 -4.87529e-06
2.08522e-05 0.000464033 5.65788e-06
-4.87529e-06 5.65788e-06 0.000450835
0.000579885 -2.72857e-05 1.08015e-06
-2.72857e-05 1.07521e-05 -2.22928e-06
1.08015e-06 -2.22928e-06 -4.54205e-05
0.000944474 9.05365e-06 -2.82071e-06
9.05365e-06 0.000201347 7.38587e-07
-2.82071e-06 7.38587e-07 0.000186766
0.000759868 1.4672e-05 -1.39981e-08
1.4672e-05 8.71519e-05 2.02119e-06
-1.39981e-08 2.02119e-06 9.43981e-05
0.000536335 6.7891e-07 8.01825e-07
6.7891e-07 -4.2392e-05 -3.84237e-06
8.01825e-07 -3.84237e-06 -5.8901e-05
0.0023932 1.37723e-05 4.43504e-06
1.37723e-05 0.00106768 5.84298e-08
4.43504e-06 5.84298e-08 0.00108276
0.00238707 1.92545e-06 -5.44725e-07
1.92545e-06 0.00106385 -5.26781e-06
-5.44725e-07 -5.26781e-06 0.00107905
0.000991462 7.19686e-05 -9.65115e-07
7.19686e-05 0.000281668 -5.8241e-07
-9.65115e-07 -5.8241e-07 0.0001992
0.000591593 3.84112e-05 -1.2021e-06
3.84112e-05 1.48203e-05 -2.01387e-06
-1.2021e-06 -2.01387e-06 -2.77092e-05
0.000630574 -9.89982e-06 5.92406e-07
-9.89982e-06 7.0808e-05 8.74228e-07
5.92406e-07 8.74228e-07 -1.2623e-05
0.000585028 3.36874e-06 3.29147e-07
3.36874e-06 -2.16403e-05 -3.28232e-06
3.29147e-07 -3.28232e-06 -2.86168e-05
0.000584166 -1.355e-05 1.81515e-07
-1.355e-05 7.33718e-06 -2.40535e-08
1.81515e-07 -2.40535e-08 -3.24758e-05
0.00060861 -3.52347e-05 -1.50598e-06
-3.52347e-05 1.95794e-05 1.24217e-06
-1.50598e-06 1.24217e-06 -2.08143e-05
0.000567303 7.84852e-06 -2.36432e-07
7.84852e-06 -3.20488e-05 -1.99648e-08
-2.36432e-07 -1.99648e-08 -3.89688e-05
0.00200714 1.50079e-05 2.62804e-06
1.50079e-05 0.000836019 -4.61332e-06
2.62804e-06 -4.61332e-06 0.000854887
0.00113978 2.10382e-05 -6.90711e-07
2.10382e-05 0.000312148 1.79569e-06
-6.90711e-07 1.79569e-06 0.000307967
0.00139057 2.37109e-05 6.74882e-07
2.37109e-05 0.000467433 3.30642e-09
6.74882e-07 3.30642e-09 0.000482064
0.000858755 2.81899e-05 -1.24764e-05
2.81899e-05 0.000152617 7.02547e-06
-1.24764e-05 7.02547e-06 0.000162092
-0.00863526 0.000490188 0.000233189
0.000490188 -0.00373284 2.17045e-06
0.000233189 2.17045e-06 -0.00482424
-0.00214169 3.21401e-06 0.000319109
3.21401e-06 0.00243578 -1.80735e-05
0.000319109 -1.80735e-05 0.000582334
0.00451619 0.000238715 -0.000226018
0.000238715 0.00011924 -1.93876e-05
-0.000226018 -1.93876e-05 0.000635065
0.000467047 4.58192e-05 2.72964e-05
4.58192e-05 -0.00104964 -1.4797e-05
2.72964e-05 -1.4797e-05 -0.0009704
0.00149988 -3.16875e-05 1.81746e-05
-3.16875e-05 -0.000200451 -2.49266e-07
1.81746e-05 -2.49266e-07 -0.000214654
-4.08156e-05 5.29413e-05 -1.95326e-05
5.29413e-05 -0.00084071 -8.39013e-06
-1.95326e-05 -8.39013e-06 -0.000717456
0.00268135 -0.000135223 -2.89863e-06
-0.000135223 0.000259747 4.38126e-06
-2.89863e-06 4.38126e-06 0.000226291
0.0095409 0.000110058 6.09969e-05
0.000110058 0.00124003 -3.47674e-05
6.09969e-05 -3.47674e-05 0.00019725
-0.00303921 0.00130233 -2.05852e-05
0.00130233 -0.000688641 -1.86569e-05
-2.05852e-05 -1.86569e-05 -0.00215757
-0.000365609 0.00252963 -0.000162727
0.00252963 0.000977358 8.8391e-05
-0.000162727 8.8391e-05 0.00176261
0.00192838 -0.000282745 6.80989e-05
-0.000282745 -0.000748906 -6.30999e-06
6.80989e-05 -6.30999e-06 -0.000722848
0.0129002 -0.000541345 0.000113051
-0.000541345 0.00325587 -3.14057e-05
0.000113051 -3.14057e-05 0.00172122
0.00432539 0.00244717 0.000160223
0.00244717 0.00056687 -0.000299686
0.000160223 -0.000299686 0.000781744
0.00792436 0.00178229 -0.00023446
0.00178229 0.00139264 0.000143386
-0.00023446 0.000143386 0.00119553
0.000715563 9.34066e-05 -2.39037e-06
9.34066e-05 0.000148513 1.61262e-06
-2.39037e-06 1.61262e-06 1.73814e-05
0.000481577 1.74215e-05 -1.34785e-07
1.74215e-05 -1.73568e-05 -7.55768e-07
-1.34785e-07 -7.55768e-07 -0.000109292
0.000664754 -8.93018e-05 -9.41677e-07
-8.93018e-05 9.26096e-05 9.13209e-07
-9.41677e-07 9.13209e-07 9.42316e-06
0.00055583 -7.47216e-06 9.77637e-07
-7.47216e-06 3.15837e-05 -4.99886e-07
9.77637e-07 -4.99886e-07 -6.76148e-05
0.000621804 5.75811e-05 9.81466e-07
5.75811e-05 9.16761e-05 1.37412e-06
9.81466e-07 1.37412e-06 -2.15548e-05
0.000792436 5.57644e-05 1.1313e-07
5.57644e-05 0.000195652 3.02989e-06
1.1313e-07 3.02989e-06 6.22708e-05
0.000749671 8.90631e-05 1.50301e-06
8.90631e-05 0.000152655 1.96005e-06
1.50301e-06 1.96005e-06 3.54297e-05
0.000611985 2.14561e-05 3.30547e-06
2.14561e-05 5.62707e-05 4.24385e-07
3.30547e-06 4.24385e-07 -6.0069e-05
0.000712643 -2.67074e-05 1.42734e-06
-2.67074e-05 0.000136848 -9.46003e-07
1.42734e-06 -9.46003e-07 2.44779e-05
0.000521805 -8.88982e-06 -1.9299e-07
-8.88982e-06 1.93794e-06 -4.97817e-07
-1.9299e-07 -4.97817e-07 -9.07841e-05
0.00166388 -0.000223889 2.10577e-05
-0.000223889 -0.000165952 -1.88681e-07
2.10577e-05 -1.88681e-07 -8.55392e-05
0.00134046 -0.000391161 2.69731e-05
-0.000391161 -0.000363739 -3.95037e-06
2.69731e-05 -3.95037e-06 -0.000354638
0.000143479 -0.00044934 1.56693e-05
-0.00044934 -0.000795172 3.4261e-06
1.56693e-05 3.4261e-06 -0.000940083
0.000142401 -0.000375567 7.83522e-06
-0.000375567 -0.000420844 -1.88356e-06
7.83522e-06 -1.88356e-06 -0.0006592
0.00259749 -0.000344377 4.2567e-06
-0.000344377 0.00138004 5.81806e-06
4.2567e-06 5.81806e-06 0.000986058
0.000908518 -0.00020448 3.69476e-06
-0.00020448 0.000324342 -1.73993e-06
3.69476e-06 -1.73993e-06 8.20877e-05
0.00102471 -0.000101663 9.14106e-08
-0.000101663 0.000293074 -3.58952e-07
9.14106e-08 -3.58952e-07 0.000182186
0.000713036 8.6522e-06 -1.57293e-06
8.6522e-06 0.000141358 1.71139e-06
-1.57293e-06 1.71139e-06 2.23156e-05
0.00210065 -0.000299242 6.82297e-06
-0.000299242 3.53786e-05 -3.62375e-06
6.82297e-06 -3.62375e-06 9.15314e-05
0.000676869 -6.72524e-05 -2.21577e-07
-6.72524e-05 0.000130412 -2.49108e-07
-2.21577e-07 -2.49108e-07 -2.13856e-05
0.000271747 -9.4432e-05 7.93317e-07
-9.4432e-05 -6.7222e-05 -1.98594e-06
7.93317e-07 -1.98594e-06 -0.000239067
0.00208031 -0.000538757 7.07995e-06
-0.000538757 0.000171377 -9.2366e-07
7.07995e-06 -9.2366e-07 0.000133594
0.00147847 -0.000624521 6.50331e-07
-0.000624521 -2.14287e-05 3.63427e-06
6.50331e-07 3.63427e-06 -0.000192718
0.000412569 -0.000354792 8.85099e-06
-0.000354792 -0.000138076 -4.6976e-06
8.85099e-06 -4.6976e-06 -0.000378135
0.0014671 -0.000182356 -8.59245e-07
-0.000182356 0.00077487 -4.75597e-06
-8.59245e-07 -4.75597e-06 0.000423341
0.00233261 -0.000481323 -3.46233e-05
-0.000481323 0.000552027 5.24657e-06
-3.46233e-05 5.24657e-06 0.000266888
0.00164549 -0.000498062 -4.40436e-05
-0.000498062 0.0002134 6.02767e-06
-4.40436e-05 6.02767e-06 0.000122403
0.00045239 -0.000268429 -3.20158e-05
-0.000268429 6.06069e-05 3.83552e-05
-3.20158e-05 3.83552e-05 -0.00022174
-0.000632697 -3.06515e-05 -2.88807e-07
-3.06515e-05 -0.00062715 2.79919e-06
-2.88807e-07 2.79919e-06 -0.000782741
0.000249909 -0.000114221 2.86148e-06
-0.000114221 -8.38046e-05 1.80623e-06
2.86148e-06 1.80623e-06 -0.000261796
0.000757622 -9.66898e-05 4.32997e-06
-9.66898e-05 0.000296279 -6.68397e-07
4.32997e-06 -6.68397e-07 3.64661e-05
-0.000140264 0.000352727 -0.000182341
0.000352727 0.00424876 6.89737e-06
-0.000182341 6.89737e-06 0.00214389
0.0015826 -0.0005088 1.465e-05
-0.0005088 0.00140276 2.55085e-05
1.465e-05 2.55085e-05 0.00137476
0.00117915 0.000795334 -6.31671e-05
0.000795334 -0.00329654 4.11933e-06
-6.31671e-05 4.11933e-06 -0.00371501
0.000577093 0.000165634 6.10918e-06
0.000165634 8.09239e-05 2.14902e-06
6.10918e-06 2.14902e-06 -6.90271e-05
0.0010605 0.000305527 7.35757e-06
0.000305527 0.000269719 1.11749e-05
7.35757e-06 1.11749e-05 2.98196e-05
0.00301487 0.000479758 3.16478e-05
0.000479758 0.000731214 1.08255e-05
3.16478e-05 1.08255e-05 0.00074344
0.00217058 0.000554096 1.86786e-05
0.000554096 0.000697007 1.37099e-05
1.86786e-05 1.37099e-05 0.000394959
0.00769272 -0.00101378 8.21017e-05
-0.00101378 0.00277355 4.21466e-05
8.21017e-05 4.21466e-05 0.00296726
0.00297512 0.000170575 -0.000172953
0.000170575 -0.00212344 -9.04547e-06
-0.000172953 -9.04547e-06 -0.00392705
0.00286888 0.0013926 -6.19415e-05
0.0013926 -0.000420031 -1.01738e-05
-6.19415e-05 -1.01738e-05 -0.00105024
0.000633268 0.000327498 2.72095e-05
0.000327498 -5.81633e-05 -2.44567e-05
2.72095e-05 -2.44567e-05 -5.68595e-05
-0.00324577 -0.00118159 -0.000139798
-0.00118159 -0.000703543 -0.000159878
-0.000139798 -0.000159878 -0.00137238
-0.000927314 -0.0010551 -0.000132343
-0.0010551 0.00178546 -2.26437e-05
-0.000132343 -2.26437e-05 -0.000794789
0.0105774 -0.00217678 0.000256442
-0.00217678 0.00154257 0.000188494
0.000256442 0.000188494 0.00238029
0.00062284 0.000138192 7.67128e-06
0.000138192 0.000124943 -2.48575e-06
7.67128e-06 -2.48575e-06 -1.93357e-05
-0.00243684 0.000128657 -9.55484e-05
0.000128657 0.00242809 -2.57314e-05
-9.55484e-05 -2.57314e-05 -0.000272275
0.00378102 0.000428312 -2.19932e-05
0.000428312 0.00199705 -8.88248e-05
-2.19932e-05 -8.88248e-05 -0.00126034
0.00132283 0.000448261 -3.85727e-06
0.000448261 0.000114493 4.97639e-06
-3.85727e-06 4.97639e-06 7.60865e-05
0.000564203 0.000308624 3.70408e-06
0.000308624 9.4478e-05 2.35962e-06
3.70408e-06 2.35962e-06 -0.000158344
-0.000523229 0.00032162 1.29729e-05
0.00032162 -0.000300068 -4.10381e-05
1.29729e-05 -4.10381e-05 -0.000614443
0.00513476 0.00162802 -7.59102e-06
0.00162802 0.00178651 7.61289e-06
-7.59102e-06 7.61289e-06 0.00121102
0.0125545 0.00111531 6.46967e-05
0.00111531 0.00425815 2.32408e-05
6.46967e-05 2.32408e-05 0.00220425
0.00465515 -0.0015471 3.01453e-05
-0.0015471 1.11505e-07 -5.02789e-05
3.01453e-05 -5.02789e-05 -0.000875553
0.010097 -0.00134658 4.59866e-06
-0.00134658 0.0013341 -3.88346e-05
4.59866e-06 -3.88346e-05 0.00255282
0.000593182 0.000203494 -8.53538e-06
0.000203494 0.000159836 -1.16737e-05
-8.53538e-06 -1.16737e-05 1.95323e-05
0.00294189 0.000106319 -0.000136
0.000106319 0.00117348 -2.94202e-05
-0.000136 -2.94202e-05 -0.000856087
7.11949e-05 0.000130822 -3.44858e-05
0.000130822 3.46973e-05 -0.000102783
-3.44858e-05 -0.000102783 -0.00152043
-0.000898212 9.53994e-05 -1.05325e-05
9.53994e-05 -0.000408562 -1.78763e-05
-1.05325e-05 -1.78763e-05 -0.000576091
0.00131179 0.000378561 -4.77923e-05
0.000378561 0.000968616 4.07217e-05
-4.77923e-05 4.07217e-05 0.000246959
0.00998119 0.00156447 4.66305e-05
0.00156447 0.00390343 1.65212e-06
4.66305e-05 1.65212e-06 0.000727877
-0.00674073 -0.00224827 -3.9872e-05
-0.00224827 -0.00341855 0.000140511
-3.9872e-05 0.000140511 -0.00580701
0.0081899 0.000472774 2.46844e-05
0.000472774 -0.00104541 -0.000197203
2.46844e-05 -0.000197203 0.00107028
0.000976454 0.000117906 2.07435e-06
0.000117906 0.000279106 7.4313e-06
2.07435e-06 7.4313e-06 0.000177733
0.00103031 0.000141693 -5.98661e-06
0.000141693 0.000403991 -1.26682e-06
-5.98661e-06 -1.26682e-06 0.000278354
0.000338902 8.65587e-05 -1.74625e-06
8.65587e-05 0.000169455 -6.4937e-06
-1.74625e-06 -6.4937e-06 -3.15128e-05
0.000749912 7.93355e-05 -2.56569e-06
7.93355e-05 0.000142145 -1.36173e-06
-2.56569e-06 -1.36173e-06 1.71571e-05
0.000846229 -2.87277e-05 -1.09736e-06
-2.87277e-05 0.000199611 1.58344e-06
-1.09736e-06 1.58344e-06 6.49545e-05
0.000463756 3.62196e-05 1.27179e-06
3.62196e-05 -4.27437e-05 2.4049e-06
1.27179e-06 2.4049e-06 -0.000151501
-0.000100521 2.91702e-05 1.94113e-06
2.91702e-05 -0.000283321 4.30668e-06
1.94113e-06 4.30668e-06 -0.000399332
0.000807037 -6.3504e-06 1.11821e-06
-6.3504e-06 0.000169044 1.52446e-07
1.11821e-06 1.52446e-07 3.13479e-05
0.000826376 2.57402e-05 1.75231e-07
2.57402e-05 0.000187357 -1.03711e-06
1.75231e-07 -1.03711e-06 6.66874e-05
0.000275005 -6.23145e-06 1.5712e-06
-6.23145e-06 8.57147e-05 2.01255e-06
1.5712e-06 2.01255e-06 -9.73158e-05
-0.000933125 7.28257e-06 -1.79123e-06
7.28257e-06 -0.000380798 1.17439e-06
-1.79123e-06 1.17439e-06 -0.000654666
0.000946978 -3.90819e-07 -2.40265e-06
-3.90819e-07 0.000414486 -7.05084e-06
-2.40265e-06 -7.05084e-06 0.000256914
0.000893346 3.69168e-05 -1.81501e-06
3.69168e-05 0.000228884 -3.3072e-06
-1.81501e-06 -3.3072e-06 9.11514e-05
0.00088566 -0.000113488 1.6385e-06
-0.000113488 0.000214694 9.4309e-07
1.6385e-06 9.4309e-07 8.92749e-05
0.000740423 -1.36879e-06 -4.29741e-07
-1.36879e-06 0.000124273 -8.48599e-08
-4.29741e-07 -8.48599e-08 1.89595e-05
0.000592054 -5.96162e-05 -1.16925e-06
-5.96162e-05 5.17768e-05 3.98939e-06
-1.16925e-06 3.98939e-06 -4.15548e-05
0.00044883 -3.18771e-05 2.01037e-06
-3.18771e-05 -2.97831e-05 1.49584e-06
2.01037e-06 1.49584e-06 -0.000142536
0.000703296 9.55069e-07 3.45154e-07
9.55069e-07 0.000109252 -9.18519e-08
3.45154e-07 -9.18519e-08 2.53911e-06
0.000576173 -3.12486e-05 -7.01536e-07
-3.12486e-05 3.79425e-05 -1.48148e-07
-7.01536e-07 -1.48148e-07 -5.21559e-05
0.00101461 -3.02575e-05 -7.5856e-07
-3.02575e-05 0.000271731 -3.13304e-06
-7.5856e-07 -3.13304e-06 0.000175779
8.16995e-06 -3.98161e-05 3.97392e-06
-3.98161e-05 -0.000223336 -4.85482e-06
3.97392e-06 -4.85482e-06 -0.000306749
0.000354613 -0.000108278 8.6376e-07
-0.000108278 -0.000196098 -4.94376e-07
8.6376e-07 -4.94376e-07 -0.000292828
0.000775672 -6.84469e-05 -2.88884e-06
-6.84469e-05 0.000115204 -3.95174e-07
-2.88884e-06 -3.95174e-07 1.29503e-05
0.000515157 -0.000107551 5.04625e-06
-0.000107551 -3.3521e-05 3.42163e-06
5.04625e-06 3.42163e-06 -0.000177418
0.00120379 -0.000253984 -2.1511e-06
-0.000253984 0.000326403 8.1933e-06
-2.1511e-06 8.1933e-06 9.90935e-05
0.0013579 -0.000130027 1.08924e-06
-0.000130027 0.000505359 -1.07195e-06
1.08924e-06 -1.07195e-06 0.000363626
0.000288381 -8.22211e-05 -2.03349e-06
-8.22211e-05 -0.000141224 -4.94078e-06
-2.03349e-06 -4.94078e-06 -0.00029412
0.000663724 -1.4266e-05 -2.45245e-07
-1.4266e-05 7.64768e-05 7.85041e-08
-2.45245e-07 7.85041e-08 -3.5244e-05
0.000367011 -3.86463e-06 1.26353e-08
-3.86463e-06 -8.4616e-05 -2.28828e-09
1.26353e-08 -2.28828e-09 -0.000192342
0.000858331 -2.47555e-05 -6.7831e-07
-2.47555e-05 0.000189476 8.95818e-07
-6.7831e-07 8.95818e-07 7.79791e-05
0.000731894 -4.27774e-05 -5.60999e-07
-4.27774e-05 0.0001301 6.74473e-07
-5.60999e-07 6.74473e-07 2.0972e-05
0.000601925 -2.33854e-05 -5.2827e-07
-2.33854e-05 3.43246e-05 1.14638e-06
-5.2827e-07 1.14638e-06 -4.91142e-05
0.000846578 -6.22182e-05 -3.60795e-07
-6.22182e-05 0.000213948 -9.65798e-07
-3.60795e-07 -9.65798e-07 9.41237e-05
0.000672465 -5.56142e-05 -6.04617e-07
-5.56142e-05 8.23861e-05 -4.12475e-08
-6.04617e-07 -4.12475e-08 -4.4751e-06
0.000579353 2.88136e-05 -2.02091e-06
2.88136e-05 1.53327e-06 1.99597e-06
-2.02091e-06 1.99597e-06 -5.50442e-05
0.000706682 -8.70745e-05 1.89334e-06
-8.70745e-05 0.000105095 -1.35031e-06
1.89334e-06 -1.35031e-06 1.46758e-05
0.00063685 -1.5485e-05 -2.62232e-07
-1.5485e-05 3.28937e-05 4.51396e-08
-2.62232e-07 4.51396e-08 -2.12326e-05
0.00137709 3.09569e-05 -7.61861e-06
3.09569e-05 0.000459074 5.66963e-06
-7.61861e-06 5.66963e-06 0.000445303
0.000607139 -3.42502e-05 2.0527e-06
-3.42502e-05 2.23975e-05 -2.29783e-06
2.0527e-06 -2.29783e-06 -3.37597e-05
0.000950301 1.80031e-05 -3.76134e-06
1.80031e-05 0.000203405 7.15879e-07
-3.76134e-06 7.15879e-07 0.000188324
0.000772672 2.34642e-05 -2.6646e-07
2.34642e-05 9.72711e-05 2.16885e-06
-2.6646e-07 2.16885e-06 0.000103122
0.00053568 6.14159e-06 5.05883e-07
6.14159e-06 -4.47559e-05 -3.95398e-06
5.05883e-07 -3.95398e-06 -6.12084e-05
0.00156616 2.3294e-05 5.92215e-06
2.3294e-05 0.000571928 -1.50012e-06
5.92215e-06 -1.50012e-06 0.000582884
0.00237409 1.62203e-05 4.43032e-06
1.62203e-05 0.00105631 -5.17163e-06
4.43032e-06 -5.17163e-06 0.00107142
0.000686007 1.27249e-05 1.46504e-06
1.27249e-05 8.97282e-05 -1.3002e-06
1.46504e-06 -1.3002e-06 3.75302e-06
0.000639579 3.43054e-05 -6.95083e-07
3.43054e-05 4.05673e-05 -1.86672e-06
-6.95083e-07 -1.86672e-06 -3.89142e-06
0.00068795 -3.42723e-06 1.20482e-06
-3.42723e-06 9.8175e-05 3.5456e-07
1.20482e-06 3.5456e-07 1.62121e-05
0.000572153 -2.03991e-06 4.81888e-07
-2.03991e-06 -2.83826e-05 -3.48524e-06
4.81888e-07 -3.48524e-06 -3.62609e-05
0.000584976 2.70688e-05 8.36134e-08
2.70688e-05 8.90819e-06 -3.11422e-08
8.36134e-08 -3.11422e-08 -3.24444e-05
0.000648134 -9.28824e-05 -3.5235e-06
-9.28824e-05 7.53669e-05 1.37406e-06
-3.5235e-06 1.37406e-06 -3.77927e-06
0.00202264 2.22602e-06 -2.16128e-06
2.22602e-06 0.00084393 -4.7346e-06
-2.16128e-06 -4.7346e-06 0.000863107
0.000566594 2.87294e-06 -1.81998e-07
2.87294e-06 -3.22047e-05 -3.64975e-09
-1.81998e-07 -3.64975e-09 -3.91734e-05
0.000584661 -2.02784e-05 -1.58603e-06
-2.02784e-05 6.11494e-06 1.60875e-06
-1.58603e-06 1.60875e-06 -3.28159e-05
0.000549371 7.51216e-06 -6.2361e-07
7.51216e-06 -4.27857e-05 3.14538e-06
-6.2361e-07 3.14538e-06 -4.96618e-05
0.00203093 1.65062e-05 -4.00291e-06
1.65062e-05 0.000850472 -5.10547e-08
-4.00291e-06 -5.10547e-08 0.000869192
0.00201506 2.87402e-05 -9.22793e-06
2.87402e-05 0.000843201 4.33149e-06
-9.22793e-06 4.33149e-06 0.000861295
-0.00479808 -0.000495909 -5.98129e-05
-0.000495909 0.00194417 2.30179e-05
-5.98129e-05 2.30179e-05 -0.000581604
-0.000394152 0.000578498 -9.91462e-05
0.000578498 -0.000333335 2.32648e-05
-9.91462e-05 2.32648e-05 -0.00101693
0.00344052 -0.000460921 -0.000298648
-0.000460921 0.00115895 0.000182364
-0.000298648 0.000182364 -0.00174152
-0.00309584 7.57471e-05 0.000432831
7.57471e-05 0.00247754 -0.00018167
0.000432831 -0.00018167 0.000591885
0.000340353 0.000293361 -1.80628e-05
0.000293361 -0.0012919 2.4036e-06
-1.80628e-05 2.4036e-06 -0.00119089
0.00250448 -0.000190344 0.000100766
-0.000190344 7.64153e-05 -8.76407e-06
0.000100766 -8.76407e-06 7.60668e-05
0.0010197 -0.000399543 5.67882e-06
-0.000399543 -0.00241553 -7.23842e-05
5.67882e-06 -7.23842e-05 -0.0039971
0.0115085 0.001278 -0.000171293
0.001278 0.00554015 -1.30312e-05
-0.000171293 -1.30312e-05 0.00468338
-0.00738186 0.00285156 -0.000755015
0.00285156 -0.00304455 0.000583892
-0.000755015 0.000583892 -0.00175532
0.00290453 -0.000152356 -1.64278e-06
-0.000152356 -0.000269056 -4.51938e-06
-1.64278e-06 -4.51938e-06 -0.000296326
0.00536669 -0.000599173 6.18006e-05
-0.000599173 -0.000276402 -6.28578e-05
6.18006e-05 -6.28578e-05 -0.00246532
0.0120907 0.00230918 -0.000103672
0.00230918 0.00366287 -8.88096e-05
-0.000103672 -8.88096e-05 0.00392726
0.00481682 0.00176887 -7.74053e-05
0.00176887 -0.000779239 0.000199133
-7.74053e-05 0.000199133 -0.000914703
0.00281357 -0.000775426 -7.51622e-05
-0.000775426 -0.000890549 2.01244e-05
-7.51622e-05 2.01244e-05 -0.000733192
0.00302663 -0.00115951 0.000214841
-0.00115951 3.2552e-05 -0.000141336
0.000214841 -0.000141336 -0.00339261
-0.00370822 0.00138288 -7.34283e-05
0.00138288 -0.00372645 -0.000372919
-7.34283e-05 -0.000372919 -0.00420485
0.00452124 0.000941265 -9.86739e-05
0.000941265 -0.00297384 5.65609e-06
-9.86739e-05 5.65609e-06 -0.00171804
0.00111876 -3.83258e-05 7.57956e-07
-3.83258e-05 0.000405958 5.0655e-06
7.57956e-07 5.0655e-06 0.000247843
0.000664898 8.06158e-05 -1.72545e-06
8.06158e-05 0.000110089 -1.37583e-06
-1.72545e-06 -1.37583e-06 -1.28697e-05
0.00062643 6.94029e-05 1.67642e-07
6.94029e-05 6.40395e-05 -1.4953e-06
1.67642e-07 -1.4953e-06 -2.37414e-05
0.00065551 6.2342e-05 3.87933e-06
6.2342e-05 0.000115182 7.10982e-07
3.87933e-06 7.10982e-07 2.88677e-06
0.000628295 5.21119e-05 1.54263e-06
5.21119e-05 8.50691e-05 1.90593e-06
1.54263e-06 1.90593e-06 -6.53477e-05
0.000706815 6.0948e-05 -2.13162e-07
6.0948e-05 0.000141362 1.49064e-06
-2.13162e-07 1.49064e-06 1.3647e-05
0.0005823 3.16961e-05 6.19404e-07
3.16961e-05 5.48762e-05 -3.68112e-07
6.19404e-07 -3.68112e-07 -5.97609e-05
0.000877944 0.000132257 1.54884e-06
0.000132257 0.000238601 2.22757e-06
1.54884e-06 2.22757e-06 9.87824e-05
0.000840853 8.46846e-05 -1.09846e-07
8.46846e-05 0.000217336 3.4671e-07
-1.09846e-07 3.4671e-07 8.51085e-05
0.000502507 -1.10618e-05 -3.32042e-06
-1.10618e-05 9.45115e-06 -2.02187e-06
-3.32042e-06 -2.02187e-06 -0.000103181
0.000665287 -0.00022698 4.33146e-05
-0.00022698 -0.000709196 -1.75924e-05
4.33146e-05 -1.75924e-05 -0.000633043
0.00100856 -0.000482004 3.56266e-05
-0.000482004 -0.000395711 -4.61946e-06
3.56266e-05 -4.61946e-06 -0.0004365
0.00178502 -0.000658408 1.6883e-05
-0.000658408 0.000124825 4.33725e-06
1.6883e-05 4.33725e-06 -4.54389e-05
0.000271083 -0.000395716 9.22436e-06
-0.000395716 -0.000214735 -1.58838e-05
9.22436e-06 -1.58838e-05 -0.000491133
0.00206692 -0.000223555 -2.50106e-06
-0.000223555 0.00105777 1.54063e-05
-2.50106e-06 1.54063e-05 0.000747173
0.000603609 -0.000100545 -1.12571e-06
-0.000100545 0.000131511 1.79801e-06
-1.12571e-06 1.79801e-06 -4.67443e-05
0.000451278 7.88268e-05 -3.034e-07
7.88268e-05 2.00645e-06 -4.03176e-06
-3.034e-07 -4.03176e-06 -0.000152226
0.000653341 -6.36956e-05 -6.24351e-07
-6.36956e-05 0.000132639 3.53778e-06
-6.24351e-07 3.53778e-06 -4.1313e-05
0.00126128 -0.00036864 4.79336e-07
-0.00036864 -9.51348e-05 -1.54035e-06
4.79336e-07 -1.54035e-06 -0.000250608
0.000681061 -2.91394e-05 4.20543e-08
-2.91394e-05 0.000153523 1.60531e-06
4.20543e-08 1.60531e-06 -2.29298e-05
0.00151471 -0.000158884 -2.34062e-07
-0.000158884 0.000734949 -7.47908e-07
-2.34062e-07 -7.47908e-07 0.000467731
0.00163603 -0.000506245 1.58972e-06
-0.000506245 0.000166854 2.93798e-06
1.58972e-06 2.93798e-06 9.47612e-05
0.00086876 -0.000342615 -1.58176e-05
-0.000342615 0.000253655 4.81343e-06
-1.58176e-05 4.81343e-06 -2.80742e-05
0.00104207 -0.000626427 -6.04257e-06
-0.000626427 -0.00024719 -2.57448e-05
-6.04257e-06 -2.57448e-05 -0.00025552
0.00131876 -0.000295041 -1.80134e-05
-0.000295041 0.0005107 1.45541e-05
-1.80134e-05 1.45541e-05 0.000384636
-0.000774865 -4.57225e-05 2.07342e-06
-4.57225e-05 -0.000494087 1.9239e-05
2.07342e-06 1.9239e-05 -0.000804865
0.000717936 1.21534e-05 -7.48334e-07
1.21534e-05 0.00014362 -3.89401e-06
-7.48334e-07 -3.89401e-06 -1.34542e-05
0.000692036 4.12165e-05 3.16962e-06
4.12165e-05 0.000245415 5.49367e-07
3.16962e-06 5.49367e-07 1.33894e-05
0.00176645 -5.01923e-05 -2.07419e-05
-5.01923e-05 0.00129908 -7.04016e-06
-2.07419e-05 -7.04016e-06 -0.000667242
-0.00304198 0.000132249 -0.000146567
0.000132249 0.00334371 -5.86495e-06
-0.000146567 -5.86495e-06 0.000783976
-0.0102475 -0.000747085 -0.000329058
-0.000747085 -0.00539875 7.2467e-07
-0.000329058 7.2467e-07 -0.00516631
-0.000292363 9.91845e-05 6.46676e-06
9.91845e-05 -0.00037996 -1.89859e-06
6.46676e-06 -1.89859e-06 -0.000536826
-0.000437306 0.000194514 1.58774e-06
0.000194514 -0.000420376 5.10797e-06
1.58774e-06 5.10797e-06 -0.000676255
0.00153027 0.000446544 2.37786e-05
0.000446544 0.000216883 8.25986e-06
2.37786e-05 8.25986e-06 0.000188198
-0.00412796 0.000601581 -1.57557e-05
0.000601581 0.001906 2.08535e-05
-1.57557e-05 2.08535e-05 -0.000849858
0.001422 0.00098786 -0.000102677
0.00098786 -0.000107633 -0.000106181
-0.000102677 -0.000106181 -0.00360428
0.00286818 0.00119772 0.000189057
0.00119772 0.000524874 4.84709e-05
0.000189057 4.84709e-05 0.000127613
0.000209988 0.000371973 9.08295e-06
0.000371973 -6.73863e-05 -3.00181e-05
9.08295e-06 -3.00181e-05 -0.000138495
0.0136477 -0.00167597 -1.54465e-05
-0.00167597 0.00395029 -0.000136425
-1.54465e-05 -0.000136425 0.00342476
0.00420759 0.000468914 0.000168463
0.000468914 0.00203925 7.88891e-05
0.000168463 7.88891e-05 -0.00134689
0.0102495 -0.00118799 6.7401e-05
-0.00118799 0.00157243 1.93463e-05
6.7401e-05 1.93463e-05 0.00284481
0.000796421 0.000216261 1.86914e-06
0.000216261 0.000331059 -2.24537e-06
1.86914e-06 -2.24537e-06 0.000181523
0.00359596 0.000126784 1.14093e-05
0.000126784 0.00171045 1.99272e-06
1.14093e-05 1.99272e-06 6.75971e-05
0.000645538 0.000149279 1.93412e-05
0.000149279 9.23098e-05 1.03895e-05
1.93412e-05 1.03895e-05 -0.00150282
-0.00034095 0.00022895 -6.242e-06
0.00022895 -0.00018233 -1.71307e-06
-6.242e-06 -1.71307e-06 -0.000394206
0.0020204 0.000653575 -8.12604e-05
0.000653575 0.00107191 -3.99969e-05
-8.12604e-05 -3.99969e-05 0.00016712
0.00282733 0.00189525 9.05094e-05
0.00189525 0.00102284 6.23542e-05
9.05094e-05 6.23542e-05 -0.00232829
0.00626774 0.000179988 -1.16511e-05
0.000179988 -0.00263362 -0.000127112
-1.16511e-05 -0.000127112 -0.000196735
0.00238511 -0.0013916 -3.87511e-05
-0.0013916 0.000729526 -5.44988e-05
-3.87511e-05 -5.44988e-05 -0.00126251
0.000960474 0.000175637 -5.49848e-06
0.000175637 0.000622478 -1.24634e-05
-5.49848e-06 -1.24634e-05 0.000448537
0.000115935 -4.93785e-05 -2.06162e-06
-4.93785e-05 -5.08636e-06 -6.5034e-06
-2.06162e-06 -6.5034e-06 4.01888e-05
0.00285791 2.33847e-05 3.43841e-05
2.33847e-05 0.00020178 -9.41364e-05
3.43841e-05 -9.41364e-05 -0.000911296
0.00459411 0.000980778 0.000104529
0.000980778 -0.00282382 -1.20826e-05
0.000104529 -1.20826e-05 -0.00171656
-0.000781737 0.000120968 -9.51286e-07
0.000120968 1.18905e-05 -1.91631e-05
-9.51286e-07 -1.91631e-05 -0.000542324
0.0106905 0.00145239 0.000140557
0.00145239 0.00519434 5.05713e-05
0.000140557 5.05713e-05 0.00136765
-0.00847911 -0.000404615 7.48605e-05
-0.000404615 -0.000313464 0.00022268
7.48605e-05 0.00022268 -0.00246443
0.00227393 0.000250659 1.90846e-05
0.000250659 0.00114334 1.31728e-05
1.90846e-05 1.31728e-05 0.00099931
0.000695014 0.000138253 -4.70307e-06
0.000138253 0.00035117 -2.03102e-06
-4.70307e-06 -2.03102e-06 0.000139252
-4.34401e-05 6.73665e-05 -2.21611e-06
6.73665e-05 0.000139465 -9.91515e-07
-2.21611e-06 -9.91515e-07 -9.96376e-05
0.000726566 0.000138208 4.66878e-07
0.000138208 0.000133482 3.37566e-07
4.66878e-07 3.37566e-07 -1.08116e-05
0.000642029 6.73127e-05 1.07333e-06
6.73127e-05 7.47661e-05 2.09142e-06
1.07333e-06 2.09142e-06 -4.23054e-05
0.00060775 1.51944e-06 7.02527e-06
1.51944e-06 0.000304955 7.01998e-06
7.02527e-06 7.01998e-06 0.000100952
0.000658937 4.6367e-05 -2.84157e-07
4.6367e-05 8.6644e-05 -3.95e-07
-2.84157e-07 -3.95e-07 -4.34471e-05
0.000817992 -1.78525e-05 -1.67707e-06
-1.78525e-05 0.000345268 -2.17662e-06
-1.67707e-06 -2.17662e-06 0.000182935
-0.000379845 3.27337e-05 3.62751e-06
3.27337e-05 -7.32698e-05 5.80905e-06
3.62751e-06 5.80905e-06 -0.00035174
0.000643427 2.47397e-06 -6.45843e-06
2.47397e-06 0.000400002 -5.77305e-06
-6.45843e-06 -5.77305e-06 0.000260672
0.00024475 -4.19472e-05 -3.23233e-06
-4.19472e-05 -5.26448e-06 -7.69085e-06
-3.23233e-06 -7.69085e-06 -0.000144451
0.000598298 -5.30099e-05 3.24308e-06
-5.30099e-05 4.52012e-05 4.40835e-06
3.24308e-06 4.40835e-06 -5.80125e-05
0.00079956 7.0646e-07 -9.20269e-07
7.0646e-07 0.000165563 -1.1627e-07
-9.20269e-07 -1.1627e-07 5.74091e-05
0.000990151 -2.87589e-05 -7.45145e-06
-2.87589e-05 0.000279282 5.4782e-06
-7.45145e-06 5.4782e-06 0.000190093
0.000673995 -4.96326e-05 4.07412e-06
-4.96326e-05 0.000153378 -4.81838e-07
4.07412e-06 -4.81838e-07 6.88901e-05
0.000581077 -2.03762e-05 -1.03366e-06
-2.03762e-05 2.42981e-05 8.80478e-08
-1.03366e-06 8.80478e-08 -7.27531e-05
0.000780112 -9.50496e-05 2.84572e-06
-9.50496e-05 0.000170819 -2.56876e-07
2.84572e-06 -2.56876e-07 7.13108e-05
0.000404654 -9.32746e-05 -2.53904e-06
-9.32746e-05 -0.000130976 -1.02218e-06
-2.53904e-06 -1.02218e-06 -0.000213078
-0.000283346 -0.000160372 7.79188e-06
-0.000160372 -0.000508355 1.74219e-06
7.79188e-06 1.74219e-06 -0.000691495
0.00081912 -9.66483e-05 -2.56083e-07
-9.66483e-05 0.000147847 1.00062e-06
-2.56083e-07 1.00062e-06 3.9951e-05
0.00118171 -0.000178095 -7.56264e-07
-0.000178095 0.000346844 2.95e-06
-7.56264e-07 2.95e-06 0.000188013
0.000913705 -0.00026008 -4.43067e-06
-0.00026008 0.000115204 4.98913e-06
-4.43067e-06 4.98913e-06 -0.00011648
0.000969969 -0.000242098 -4.54155e-06
-0.000242098 0.000145663 5.23076e-07
-4.54155e-06 5.23076e-07 -8.2222e-05
0.00104056 -0.000195942 -2.47936e-06
-0.000195942 0.000331346 4.99656e-06
-2.47936e-06 4.99656e-06 0.000144907
0.000350296 -0.000165139 2.2752e-06
-0.000165139 -0.000172222 -2.47415e-08
2.2752e-06 -2.47415e-08 -0.000381679
0.000921943 -8.1315e-05 1.17184e-06
-8.1315e-05 0.000243395 -5.58985e-07
1.17184e-06 -5.58985e-07 0.000114994
0.00104573 -0.000120866 -1.55317e-06
-0.000120866 0.000331542 -3.91506e-07
-1.55317e-06 -3.91506e-07 0.000185737
0.000442167 -0.000104846 4.6033e-06
-0.000104846 -3.58672e-05 -1.11199e-05
4.6033e-06 -1.11199e-05 -0.000188
0.000955398 -3.37654e-05 -1.6157e-07
-3.37654e-05 0.000238667 -8.83035e-08
-1.6157e-07 -8.83035e-08 0.000128508
0.000469372 -1.36474e-05 3.9391e-07
-1.36474e-05 -2.24249e-05 -1.46666e-07
3.9391e-07 -1.46666e-07 -0.000132373
0.000609933 -1.26636e-05 -3.39335e-07
-1.26636e-05 3.84412e-05 8.41101e-07
-3.39335e-07 8.41101e-07 -5.04883e-05
0.000794835 -6.06184e-05 -2.42663e-07
-6.06184e-05 0.000177459 3.02543e-10
-2.42663e-07 3.02543e-10 5.87889e-05
0.000670314 -3.80266e-05 -8.57092e-08
-3.80266e-05 8.32354e-05 5.07204e-08
-8.57092e-08 5.07204e-08 -7.21861e-06
0.000581714 2.84195e-05 -3.36474e-07
2.84195e-05 8.13159e-06 2.09403e-06
-3.36474e-07 2.09403e-06 -5.30081e-05
0.000734931 -7.12732e-05 5.06454e-07
-7.12732e-05 0.000127149 -1.46505e-06
5.06454e-07 -1.46505e-06 3.41546e-05
0.000605756 2.0008e-05 -1.0489e-06
2.0008e-05 1.79024e-05 -7.50968e-08
-1.0489e-06 -7.50968e-08 -3.95509e-05
0.00133799 4.43862e-05 -8.62164e-06
4.43862e-05 0.000438828 3.78834e-06
-8.62164e-06 3.78834e-06 0.000423931
0.000642444 -2.70919e-05 2.32277e-06
-2.70919e-05 3.75772e-05 -2.34316e-06
2.32277e-06 -2.34316e-06 -1.75781e-05
0.000934179 2.77726e-05 -4.73884e-06
2.77726e-05 0.000193719 6.26524e-07
-4.73884e-06 6.26524e-07 0.000178037
0.000798981 3.23952e-05 -8.97444e-07
3.23952e-05 0.000116092 2.24478e-06
-8.97444e-07 2.24478e-06 0.000120676
0.000521202 1.3689e-05 8.10478e-07
1.3689e-05 -5.52474e-05 -4.2137e-06
8.10478e-07 -4.2137e-06 -7.20215e-05
0.0015796 3.506e-05 8.08158e-06
3.506e-05 0.000582297 -1.35068e-06
8.08158e-06 -1.35068e-06 0.000592062
0.00236808 3.12477e-05 7.95981e-06
3.12477e-05 0.00105412 -5.11939e-06
7.95981e-06 -5.11939e-06 0.0010686
0.00043145 6.76616e-06 1.0016e-06
6.76616e-06 -5.10301e-05 -4.04657e-07
1.0016e-06 -4.04657e-07 -0.000156603
0.000303933 5.50902e-06 5.90684e-09
5.50902e-06 -0.000159788 -3.23301e-06
5.90684e-09 -3.23301e-06 -0.000212434
0.000728398 2.27274e-05 1.42881e-08
2.27274e-05 0.00012105 1.22162e-07
1.42881e-08 1.22162e-07 3.03247e-05
0.000567352 -6.61138e-06 3.96788e-07
-6.61138e-06 -3.11042e-05 -3.63651e-06
3.96788e-07 -3.63651e-06 -4.07023e-05
0.000435921 2.2682e-06 1.18265e-06
2.2682e-06 -8.23177e-05 -6.61334e-08
1.18265e-06 -6.61334e-08 -0.000127192
0.000426541 -8.31869e-05 -1.48773e-06
-8.31869e-05 -5.68198e-05 7.30405e-07
-1.48773e-06 7.30405e-07 -0.000141529
0.00208982 -1.10429e-05 -6.57564e-06
-1.10429e-05 0.000884255 -4.78302e-06
-6.57564e-06 -4.78302e-06 0.000902865
0.000566989 -2.16888e-06 -1.0288e-07
-2.16888e-06 -3.16831e-05 -4.60518e-08
-1.0288e-07 -4.60518e-08 -3.94531e-05
0.000562976 -1.56957e-05 -1.7246e-06
-1.56957e-05 -5.94177e-06 1.8652e-06
-1.7246e-06 1.8652e-06 -4.61125e-05
0.00203685 3.61904e-06 -3.96219e-06
3.61904e-06 0.00085262 1.32793e-08
-3.96219e-06 1.32793e-08 0.000871719
0.000549919 2.57514e-06 -5.1506e-07
2.57514e-06 -4.17163e-05 3.26413e-06
-5.1506e-07 3.26413e-06 -4.86852e-05
0.0020251 1.79008e-05 -2.20417e-06
1.79008e-05 0.000847087 4.52811e-06
-2.20417e-06 4.52811e-06 0.000865765
0.000335053 -0.000216991 -0.000109846
-0.000216991 -0.000207333 3.18269e-05
-0.000109846 3.18269e-05 -0.001877
0.00138304 0.000186364 -3.45006e-05
0.000186364 0.00386664 -6.2319e-06
-3.45006e-05 -6.2319e-06 0.00220072
0.00106097 -0.000341251 -0.000314388
-0.000341251 0.00218062 1.54047e-05
-0.000314388 1.54047e-05 0.00113906
0.000757449 8.56022e-05 2.15308e-06
8.56022e-05 0.000145115 7.41237e-07
2.15308e-06 7.41237e-07 1.035e-05
0.00348527 -0.000292757 -2.48023e-05
-0.000292757 0.00235814 0.000106139
-2.48023e-05 0.000106139 0.000921426
0.00365156 -0.000522849 -0.000119819
-0.000522849 0.00131634 8.14738e-06
-0.000119819 8.14738e-06 -0.00176824
0.00292395 0.000825146 0.000213873
0.000825146 0.0037741 -0.000178144
0.000213873 -0.000178144 0.00236078
0.00422226 -0.000284333 3.48212e-05
-0.000284333 0.000292761 -3.66985e-05
3.48212e-05 -3.66985e-05 2.18667e-05
0.0118242 -0.000583514 0.000131809
-0.000583514 0.00287544 -6.75205e-05
0.000131809 -6.75205e-05 0.00126314
-0.00126041 0.00191996 -0.00016863
0.00191996 -0.00343474 0.000176632
-0.00016863 0.000176632 -0.00295974
0.00599803 0.00189656 3.55655e-05
0.00189656 0.00042718 5.77679e-05
3.55655e-05 5.77679e-05 -5.79749e-05
0.00501786 -0.000909785 -9.31221e-05
-0.000909785 0.000197994 -1.72959e-06
-9.31221e-05 -1.72959e-06 -0.000106293
0.0114401 -0.00105824 5.66577e-05
-0.00105824 0.00397172 -1.54682e-05
5.66577e-05 -1.54682e-05 0.00181028
0.00722668 0.00124814 8.02877e-05
0.00124814 0.00078554 -0.000142985
8.02877e-05 -0.000142985 0.000101653
0.00618151 0.000873731 5.3463e-07
0.000873731 -0.00156795 1.31474e-05
5.3463e-07 1.31474e-05 -0.00065746
0.00328684 -0.00134022 1.62793e-05
-0.00134022 0.000113311 5.24897e-06
1.62793e-05 5.24897e-06 -0.00060701
0.0116345 -0.00166544 0.000102481
-0.00166544 0.00538863 -5.50246e-05
0.000102481 -5.50246e-05 0.0016387
0.00400879 -0.000103131 7.8977e-05
-0.000103131 0.000739134 -0.000215719
7.8977e-05 -0.000215719 9.02879e-06
0.00788557 0.00045425 -5.37439e-05
0.00045425 -0.000987089 0.000121152
-5.37439e-05 0.000121152 0.000974416
0.000724809 -2.1992e-05 1.75042e-06
-2.1992e-05 0.000158133 2.6359e-06
1.75042e-06 2.6359e-06 -2.81464e-06
0.000843738 -6.90209e-05 -3.08239e-07
-6.90209e-05 0.000245314 -5.15114e-08
-3.08239e-07 -5.15114e-08 8.3214e-05
0.00079855 0.000103472 -2.32985e-07
0.000103472 0.000194722 -2.72329e-06
-2.32985e-07 -2.72329e-06 6.90227e-05
0.000723212 5.35434e-05 1.02259e-06
5.35434e-05 0.000114456 3.21494e-06
1.02259e-06 3.21494e-06 -1.75258e-05
0.000786364 0.000101141 -4.35021e-07
0.000101141 0.000188566 7.27742e-07
-4.35021e-07 7.27742e-07 3.72744e-05
0.000889932 6.23924e-05 -2.13049e-06
6.23924e-05 0.000249337 -6.1424e-07
-2.13049e-06 -6.1424e-07 0.000123258
0.000997157 0.00012517 -9.86708e-07
0.00012517 0.000307763 -8.13875e-08
-9.86708e-07 -8.13875e-08 0.000168133
0.000981933 0.000132927 7.38327e-07
0.000132927 0.000312867 2.27572e-06
7.38327e-07 2.27572e-06 0.000174276
0.0004289 -0.000267105 5.60066e-05
-0.000267105 -0.000602723 -2.22424e-05
5.60066e-05 -2.22424e-05 -0.000607709
0.00191616 -0.000532769 1.22705e-05
-0.000532769 0.000278411 -1.01368e-05
1.22705e-05 -1.01368e-05 0.000223008
0.000947761 -0.000186312 -7.92637e-07
-0.000186312 0.000316092 -4.39364e-06
-7.92637e-07 -4.39364e-06 0.000131221
0.0015531 -0.000414905 1.79911e-05
-0.000414905 0.000610254 -2.2652e-05
1.79911e-05 -2.2652e-05 0.000328262
0.00227799 -0.000225852 -5.6055e-06
-0.000225852 0.00116875 3.88144e-06
-5.6055e-06 3.88144e-06 0.000897566
0.0010524 -8.31907e-05 -1.77762e-06
-8.31907e-05 0.000361498 -7.02504e-06
-1.77762e-06 -7.02504e-06 0.000184558
0.000498623 -1.25656e-05 9.14144e-07
-1.25656e-05 2.21202e-05 2.96416e-06
9.14144e-07 2.96416e-06 -0.000137814
0.000257625 -0.00057134 -4.87475e-06
-0.00057134 -0.000688386 -9.20684e-07
-4.87475e-06 -9.20684e-07 -0.000656695
0.00127818 4.65748e-05 3.39208e-07
4.65748e-05 0.000587827 4.16591e-07
3.39208e-07 4.16591e-07 0.000347056
0.000904151 -0.000181457 -1.26425e-05
-0.000181457 0.000404391 3.25804e-06
-1.26425e-05 3.25804e-06 0.000119463
0.000549102 -0.000213074 1.30077e-05
-0.000213074 5.47987e-05 3.20429e-06
1.30077e-05 3.20429e-06 -2.25774e-05
0.00106102 7.36942e-05 1.94799e-06
7.36942e-05 0.000323163 -2.25341e-06
1.94799e-06 -2.25341e-06 0.000184424
0.00106005 -0.000493598 1.89837e-05
-0.000493598 -8.49136e-05 -3.8743e-05
1.89837e-05 -3.8743e-05 5.36595e-05
-5.49128e-05 -0.000119011 1.15514e-05
-0.000119011 -2.21913e-06 2.05276e-05
1.15514e-05 2.05276e-05 -0.000130447
-0.000327177 4.97068e-05 5.19829e-06
4.97068e-05 -8.96856e-05 7.85695e-06
5.19829e-06 7.85695e-06 -0.000488432
0.00136832 0.00020279 2.49587e-06
0.00020279 0.000583623 -3.92006e-06
2.49587e-06 -3.92006e-06 0.000401517
0.000262285 -5.02107e-06 3.07083e-07
-5.02107e-06 0.000742744 -8.93207e-06
3.07083e-07 -8.93207e-06 0.000100862
0.00122358 -4.64139e-05 8.74745e-05
-4.64139e-05 0.00103602 -1.23678e-05
8.74745e-05 -1.23678e-05 -0.000951223
-0.00605252 -7.01469e-05 -0.000157133
-7.01469e-05 0.002526 6.67111e-06
-0.000157133 6.67111e-06 -0.000559328
0.00109484 0.000227498 1.47194e-05
0.000227498 0.000567419 4.54255e-06
1.47194e-05 4.54255e-06 0.000408874
-0.00138277 0.000280825 5.14178e-06
0.000280825 -0.000771277 9.99124e-06
5.14178e-06 9.99124e-06 -0.00105296
0.00417176 0.000119659 0.000101894
0.000119659 0.00217747 6.303e-06
0.000101894 6.303e-06 0.000909727
0.00765584 0.00103362 0.000161641
0.00103362 0.00344189 8.61867e-05
0.000161641 8.61867e-05 -0.000160408
0.00336158 0.00096779 -0.000110712
0.00096779 0.00164581 -8.7574e-05
-0.000110712 -8.7574e-05 0.000553419
0.00476417 -0.000928263 -2.78554e-05
-0.000928263 0.00167722 -0.000236889
-2.78554e-05 -0.000236889 -3.07331e-05
0.00107663 0.0001704 5.78681e-05
0.0001704 0.00015445 0.000129064
5.78681e-05 0.000129064 -0.00141983
0.00452225 -5.55225e-05 -1.74535e-05
-5.55225e-05 -0.00429326 -0.000129837
-1.74535e-05 -0.000129837 -0.00143286
0.000688323 0.000192769 4.58394e-07
0.000192769 0.000469302 -2.31643e-06
4.58394e-07 -2.31643e-06 0.000276488
8.06554e-05 -4.8822e-05 8.32288e-07
-4.8822e-05 -8.56853e-06 -1.02455e-06
8.32288e-07 -1.02455e-06 1.15003e-05
0.00291008 5.24348e-05 4.26145e-05
5.24348e-05 0.000345976 1.80262e-05
4.26145e-05 1.80262e-05 -0.000348086
-0.000978678 0.000175577 -8.69349e-06
0.000175577 -0.000345448 -5.73161e-06
-8.69349e-06 -5.73161e-06 -0.000793752
0.00633411 0.000962672 6.44645e-07
0.000962672 -0.00152066 -1.27932e-05
6.44645e-07 -1.27932e-05 -0.000664208
0.00483236 0.00106101 0.000126835
0.00106101 0.00313149 6.51068e-05
0.000126835 6.51068e-05 -0.000910312
0.003654 0.00046015 -8.10546e-05
0.00046015 0.0024844 6.34075e-06
-8.10546e-05 6.34075e-06 0.000991607
0.00034679 0.000209484 -1.47396e-05
0.000209484 0.000302062 -1.59681e-05
-1.47396e-05 -1.59681e-05 2.58183e-05
0.00163286 7.53755e-05 1.12459e-05
7.53755e-05 -0.000260778 -1.55078e-05
1.12459e-05 -1.55078e-05 -3.57107e-05
0.00356834 -0.00024498 3.01211e-05
-0.00024498 0.00236448 -0.000107982
3.01211e-05 -0.000107982 0.000986425
0.00804007 0.0019007 0.000214853
0.0019007 0.00114156 -0.00014205
0.000214853 -0.00014205 0.00110322
0.00654954 -0.000142481 -9.44211e-05
-0.000142481 0.00162549 0.000213497
-9.44211e-05 0.000213497 0.001057
0.000980237 0.000178931 -1.14789e-06
0.000178931 0.000222615 -7.2759e-05
-1.14789e-06 -7.2759e-05 6.10003e-05
-0.000593163 0.00111914 0.000129459
0.00111914 0.00282632 3.06244e-05
0.000129459 3.06244e-05 -0.00321755
0.00115347 0.000204886 3.82173e-06
0.000204886 0.000572086 1.75268e-05
3.82173e-06 1.75268e-05 0.000361605
0.000141825 0.00010183 2.63061e-06
0.00010183 0.00023543 1.13765e-06
2.63061e-06 1.13765e-06 -7.19417e-06
0.000983626 -1.87963e-06 -7.78805e-06
-1.87963e-06 0.000753419 -1.01855e-05
-7.78805e-06 -1.01855e-05 0.000598384
0.000339071 -2.5057e-05 1.29027e-06
-2.5057e-05 -0.000115464 3.6121e-06
1.29027e-06 3.6121e-06 -0.00023172
0.000664644 -1.83932e-05 1.85464e-06
-1.83932e-05 0.000257504 5.37349e-06
1.85464e-06 5.37349e-06 9.50743e-05
0.000604796 -1.33609e-05 2.93374e-06
-1.33609e-05 0.000455827 -3.57564e-06
2.93374e-06 -3.57564e-06 0.000189657
0.000513852 -5.89417e-05 4.27002e-07
-5.89417e-05 0.000123965 -1.09993e-07
4.27002e-07 -1.09993e-07 3.62748e-06
8.59924e-05 -1.35826e-05 5.03021e-07
-1.35826e-05 7.33964e-05 1.93273e-06
5.03021e-07 1.93273e-06 -6.97579e-05
0.00134634 -0.000229604 8.06907e-06
-0.000229604 0.000733792 -1.01616e-05
8.06907e-06 -1.01616e-05 0.000541488
0.00123277 -6.78904e-05 -1.417e-06
-6.78904e-05 0.000468517 3.92033e-06
-1.417e-06 3.92033e-06 0.000382419
1.20815e-05 -4.32544e-06 -9.92871e-07
-4.32544e-06 -0.000300909 1.72356e-06
-9.92871e-07 1.72356e-06 -0.000397549
0.00146837 -0.000159567 1.68324e-06
-0.000159567 0.000561926 1.95339e-06
1.68324e-06 1.95339e-06 0.000449627
-0.000845394 -0.00012026 5.64491e-06
-0.00012026 -0.000674627 1.33407e-06
5.64491e-06 1.33407e-06 -0.000901013
0.000354574 -7.2556e-05 -5.03894e-06
-7.2556e-05 -0.000124959 7.08354e-07
-5.03894e-06 7.08354e-07 -0.000191856
2.08787e-05 -0.000168258 2.77086e-06
-0.000168258 -0.00033884 -1.02871e-06
2.77086e-06 -1.02871e-06 -0.000507812
0.00111262 -0.000308994 1.02455e-05
-0.000308994 0.000201825 -3.88354e-06
1.02455e-05 -3.88354e-06 -6.7772e-05
0.00132673 -0.000345612 -4.19752e-06
-0.000345612 0.00021307 3.17518e-06
-4.19752e-06 3.17518e-06 -6.03849e-05
0.00185151 -0.000249029 -2.0433e-06
-0.000249029 0.00072988 3.39862e-07
-2.0433e-06 3.39862e-07 0.00055569
0.000993828 -0.00026848 -2.62409e-07
-0.00026848 0.000134565 4.25187e-07
-2.62409e-07 4.25187e-07 -0.000108905
0.0023114 -0.000380908 2.95789e-06
-0.000380908 0.000904098 -1.22321e-06
2.95789e-06 -1.22321e-06 0.000663516
0.00022346 -0.000139069 -1.7176e-06
-0.000139069 -0.000205755 2.62939e-06
-1.7176e-06 2.62939e-06 -0.000407183
0.000991625 -0.000239954 -3.38867e-07
-0.000239954 0.000165284 -4.79765e-07
-3.38867e-07 -4.79765e-07 -5.90333e-05
0.00052443 -7.24609e-05 1.20908e-07
-7.24609e-05 2.04391e-05 -1.47215e-06
1.20908e-07 -1.47215e-06 -0.000131627
0.00106222 -0.000209205 -4.08966e-06
-0.000209205 0.000346914 2.40108e-06
-4.08966e-06 2.40108e-06 0.00015635
-0.000491455 -7.77631e-05 -2.26359e-06
-7.77631e-05 -0.000662644 -4.23007e-06
-2.26359e-06 -4.23007e-06 -0.000855608
0.000519876 5.21819e-06 8.57312e-07
5.21819e-06 -7.59568e-06 1.22405e-06
8.57312e-07 1.22405e-06 -0.000111362
0.000671736 -6.42627e-05 5.9622e-07
-6.42627e-05 0.000105251 -1.99851e-08
5.9622e-07 -1.99851e-08 -2.43741e-05
0.000751529 -0.000112443 4.11041e-06
-0.000112443 0.000167538 -2.56941e-06
4.11041e-06 -2.56941e-06 1.69267e-05
0.000614742 -2.51987e-05 2.42921e-07
-2.51987e-05 6.51193e-05 -3.81764e-07
2.42921e-07 -3.81764e-07 -4.72674e-05
0.000687642 -2.51132e-05 -6.35327e-07
-2.51132e-05 9.45456e-05 -1.05464e-07
-6.35327e-07 -1.05464e-07 -2.59616e-06
0.000568951 3.24804e-05 -3.16195e-07
3.24804e-05 1.69824e-06 2.62731e-06
-3.16195e-07 2.62731e-06 -6.43203e-05
0.000761801 -5.09166e-05 4.45452e-07
-5.09166e-05 0.00014502 -9.4476e-07
4.45452e-07 -9.4476e-07 4.80487e-05
0.000606319 2.49368e-05 -9.23357e-07
2.49368e-05 2.11905e-05 -1.61693e-07
-9.23357e-07 -1.61693e-07 -3.94176e-05
0.000539485 4.11818e-05 -9.94185e-07
4.11818e-05 -3.42374e-05 4.36305e-06
-9.94185e-07 4.36305e-06 -5.5534e-05
0.000674842 -1.86746e-05 2.17933e-06
-1.86746e-05 5.47938e-05 -2.19893e-06
2.17933e-06 -2.19893e-06 -4.91783e-07
0.000547667 3.14525e-05 1.69529e-07
3.14525e-05 -3.63227e-05 -2.61307e-09
1.69529e-07 -2.61307e-09 -5.50167e-05
0.00228581 7.7008e-05 -3.89475e-06
7.7008e-05 0.00101581 1.96547e-06
-3.89475e-06 1.96547e-06 0.00102514
0.000522855 2.30542e-05 9.40062e-07
2.30542e-05 -5.34959e-05 -4.32379e-06
9.40062e-07 -4.32379e-06 -7.11569e-05
0.0015858 4.67218e-05 9.61177e-06
4.67218e-05 0.000589719 -1.15354e-06
9.61177e-06 -1.15354e-06 0.000598014
0.00238047 4.57871e-05 1.2786e-05
4.57871e-05 0.00106426 -4.94558e-06
1.2786e-05 -4.94558e-06 0.00107757
0.000374951 5.69274e-06 8.25513e-07
5.69274e-06 -9.91338e-05 -1.73488e-06
8.25513e-07 -1.73488e-06 -0.000200104
0.000325135 1.60914e-06 3.33011e-07
1.60914e-06 -0.00014949 -2.79304e-06
3.33011e-07 -2.79304e-06 -0.000209393
0.00055813 1.74605e-05 -4.45641e-07
1.74605e-05 2.33308e-05 -1.10847e-06
-4.45641e-07 -1.10847e-06 -7.91104e-05
0.000570844 -1.21761e-05 6.27343e-07
-1.21761e-05 -2.77398e-05 -3.90296e-06
6.27343e-07 -3.90296e-06 -4.00613e-05
0.000291242 4.42672e-06 -4.63885e-07
4.42672e-06 -0.00016786 -1.2801e-06
-4.63885e-07 -1.2801e-06 -0.00022151
0.000728674 3.26019e-05 -3.03816e-07
3.26019e-05 0.000130318 1.56171e-06
-3.03816e-07 1.56171e-06 3.39684e-05
0.00213856 -2.41888e-05 -1.13859e-05
-2.41888e-05 0.000914129 -4.72189e-06
-1.13859e-05 -4.72189e-06 0.000931848
0.000562444 -7.12625e-06 -2.45107e-07
-7.12625e-06 -3.41095e-05 -4.90966e-08
-2.45107e-07 -4.90966e-08 -4.35425e-05
0.00025635 4.51427e-06 6.93527e-07
4.51427e-06 -0.000187754 1.77832e-06
6.93527e-07 1.77832e-06 -0.000235281
0.00206492 -9.53175e-06 -3.67356e-06
-9.53175e-06 0.000869078 4.36214e-08
-3.67356e-06 4.36214e-08 0.000887943
0.000557774 -2.28843e-06 -4.88396e-07
-2.28843e-06 -3.734e-05 3.43405e-06
-4.88396e-07 3.43405e-06 -4.49633e-05
0.00205569 5.06878e-06 2.41692e-06
5.06878e-06 0.000864097 4.66905e-06
2.41692e-06 4.66905e-06 0.000883043
0.000713992 -4.32491e-06 1.84319e-05
-4.32491e-06 0.000517595 7.41829e-06
1.84319e-05 7.41829e-06 0.000416275
0.000698396 -0.000151904 -2.54677e-06
-0.000151904 0.000110206 -1.28202e-05
-2.54677e-06 -1.28202e-05 -0.00168333
0.00145367 9.28164e-05 2.96091e-05
9.28164e-05 0.00387471 -2.96268e-05
2.96091e-05 -2.96268e-05 0.00240422
0.000738535 9.22195e-05 -1.389e-07
9.22195e-05 0.000126547 3.60891e-07
-1.389e-07 3.60891e-07 1.49179e-07
0.00054239 6.52549e-05 1.82659e-06
6.52549e-05 -5.35819e-06 -4.6533e-07
1.82659e-06 -4.6533e-07 -0.000124138
0.000967431 0.000132111 3.01729e-06
0.000132111 0.000263266 2.85408e-06
3.01729e-06 2.85408e-06 0.000127125
0.00287759 -5.55714e-05 1.1613e-06
-5.55714e-05 5.21157e-05 0.000171524
1.1613e-06 0.000171524 -0.00084862
0.00353163 -0.000263978 1.55428e-05
-0.000263978 0.00237825 -4.78648e-06
1.55428e-05 -4.78648e-06 0.00113392
0.00406327 -0.000586365 6.67911e-05
-0.000586365 0.00158845 -0.000131265
6.67911e-05 -0.000131265 -0.00170113
0.00612023 -0.00110185 -9.07914e-05
-0.00110185 0.000748942 -3.30839e-06
-9.07914e-05 -3.30839e-06 0.000482246
0.00220336 -0.0010567 -0.000142147
-0.0010567 -0.000161416 8.68214e-05
-0.000142147 8.68214e-05 -0.00281679
0.0125094 0.00176557 0.000112301
0.00176557 0.00441999 5.04363e-05
0.000112301 5.04363e-05 0.00345071
0.00327868 0.000256647 8.89723e-05
0.000256647 -0.00311973 -0.000107637
8.89723e-05 -0.000107637 -0.0024228
0.0053577 -0.00153992 -1.92001e-05
-0.00153992 0.00115198 5.28905e-06
-1.92001e-05 5.28905e-06 0.00057531
0.00648633 -0.00138728 -3.20918e-05
-0.00138728 0.00299546 2.26395e-05
-3.20918e-05 2.26395e-05 -0.000509758
-0.00313524 0.00138153 -3.86945e-05
0.00138153 0.000316647 -0.000145817
-3.86945e-05 -0.000145817 -0.00190336
0.00615319 0.00013705 -1.97526e-05
0.00013705 -0.00267577 5.9636e-05
-1.97526e-05 5.9636e-05 -0.0002176
0.00139225 -0.000881441 -4.20638e-05
-0.000881441 0.000152182 -1.48806e-05
-4.20638e-05 -1.48806e-05 -0.000354567
0.0113915 -0.00162709 -8.52815e-05
-0.00162709 0.00504682 6.44213e-05
-8.52815e-05 6.44213e-05 0.00113988
-0.00869369 -0.000114875 3.81259e-05
-0.000114875 -0.000109268 -0.000211089
3.81259e-05 -0.000211089 -0.00255075
0.00483117 -0.000993169 4.69909e-05
-0.000993169 -0.00195287 -9.42033e-06
4.69909e-05 -9.42033e-06 -0.000887
0.000646936 5.99548e-05 1.38709e-06
5.99548e-05 7.53676e-05 8.78651e-06
1.38709e-06 8.78651e-06 -6.56907e-05
0.000696208 -5.77467e-06 1.18538e-06
-5.77467e-06 0.000140241 -9.6419e-07
1.18538e-06 -9.6419e-07 -2.55904e-05
0.00085711 -8.86634e-05 5.07142e-07
-8.86634e-05 0.000242523 -3.05589e-06
5.07142e-07 -3.05589e-06 7.90954e-05
0.000722616 7.23913e-05 -9.10674e-07
7.23913e-05 0.000114131 -4.71949e-07
-9.10674e-07 -4.71949e-07 -2.09661e-05
0.000771526 0.000116695 6.78659e-07
0.000116695 0.000182568 -1.12337e-06
6.78659e-07 -1.12337e-06 3.72405e-05
0.00109063 0.000137378 -2.39607e-06
0.000137378 0.000366992 -1.21167e-06
-2.39607e-06 -1.21167e-06 0.000224778
-0.000243618 -0.000536509 1.93896e-05
-0.000536509 -0.000971401 1.04306e-05
1.93896e-05 1.04306e-05 -0.000962751
-0.00107375 -0.000131837 1.68057e-05
-0.000131837 -0.00086646 -1.51041e-05
1.68057e-05 -1.51041e-05 -0.000893987
0.000409198 3.79697e-05 -2.11515e-06
3.79697e-05 -2.58186e-05 -2.82444e-06
-2.11515e-06 -2.82444e-06 -0.000192212
0.00185306 -0.000297415 4.16328e-05
-0.000297415 0.000893342 -3.10326e-05
4.16328e-05 -3.10326e-05 0.000623016
0.0015167 7.31287e-06 -4.49844e-06
7.31287e-06 0.000716403 -3.57313e-06
-4.49844e-06 -3.57313e-06 0.000479485
0.000571323 5.25941e-05 -2.04026e-09
5.25941e-05 4.51123e-05 2.35361e-06
-2.04026e-09 2.35361e-06 -9.76514e-05
0.000663806 0.000121585 4.98607e-07
0.000121585 0.000169781 -1.54881e-06
4.98607e-07 -1.54881e-06 4.45933e-06
0.000415888 -0.000527312 -1.15888e-06
-0.000527312 -0.00040446 -4.84858e-06
-1.15888e-06 -4.84858e-06 -0.000429079
0.000755879 -1.51862e-05 -1.4665e-06
-1.51862e-05 0.000465101 3.38978e-07
-1.4665e-06 3.38978e-07 0.000147826
4.08521e-05 -0.000110541 4.40362e-06
-0.000110541 0.000113256 -2.1696e-06
4.40362e-06 -2.1696e-06 -5.1469e-05
0.000820056 9.33738e-05 4.09713e-06
9.33738e-05 0.000210123 -1.10048e-05
4.09713e-06 -1.10048e-05 8.16941e-05
-0.00231968 2.47975e-05 -5.6668e-05
2.47975e-05 -0.000869296 -1.68176e-05
-5.6668e-05 -1.68176e-05 -0.00133925
-0.000431284 4.17271e-05 2.51457e-05
4.17271e-05 -0.00015772 2.36547e-05
2.51457e-05 2.36547e-05 -0.000321008
0.00133763 2.51947e-05 8.01209e-06
2.51947e-05 0.000740347 2.92666e-06
8.01209e-06 2.92666e-06 0.00049393
0.000788897 -1.09228e-05 -1.16662e-06
-1.09228e-05 -0.000207461 9.5239e-07
-1.16662e-06 9.5239e-07 -0.000689307
6.17844e-05 -3.50348e-06 -1.35371e-05
-3.50348e-06 0.000508989 -1.31234e-05
-1.35371e-05 -1.31234e-05 -2.02345e-05
0.000572333 -3.93523e-05 0.000191246
-3.93523e-05 0.000758568 -9.59229e-06
0.000191246 -9.59229e-06 -0.00128461
0.000251246 0.000187997 6.79901e-06
0.000187997 0.000214066 1.65595e-05
6.79901e-06 1.65595e-05 2.57286e-06
0.000924441 0.000442656 8.6643e-06
0.000442656 0.000195478 -1.2313e-05
8.6643e-06 -1.2313e-05 -0.000135077
0.000101037 -5.11332e-05 1.15824e-05
-5.11332e-05 -2.97924e-05 2.80651e-06
1.15824e-05 2.80651e-06 -3.9655e-05
-0.00298706 0.000571082 4.22048e-05
0.000571082 0.000508493 7.74597e-05
4.22048e-05 7.74597e-05 -0.00351064
-0.00973747 0.00062579 -9.49374e-05
0.00062579 -0.00361056 -0.000265062
-9.49374e-05 -0.000265062 -0.00597976
0.00284064 6.31325e-05 4.04481e-05
6.31325e-05 0.000492654 6.90164e-05
4.04481e-05 6.90164e-05 0.000130154
0.00349118 0.000326943 -9.20065e-05
0.000326943 -0.00296369 0.000108811
-9.20065e-05 0.000108811 -0.00230665
0.000581916 0.000194075 6.95197e-06
0.000194075 0.000436115 -8.22385e-07
6.95197e-06 -8.22385e-07 0.000199032
0.00143191 8.08852e-06 1.58134e-05
8.08852e-06 -0.000377894 -2.6841e-05
1.58134e-05 -2.6841e-05 -0.000123957
0.0035432 -0.000195086 -1.5481e-05
-0.000195086 0.00236219 4.46834e-06
-1.5481e-05 4.46834e-06 0.00112747
0.00104928 0.00025227 -5.30317e-05
0.00025227 0.000611304 -5.0139e-06
-5.30317e-05 -5.0139e-06 -8.24269e-05
0.00482514 0.00182128 7.02653e-05
0.00182128 -0.000940448 -0.000194384
7.02653e-05 -0.000194384 -0.000888747
-0.0026757 0.00124341 3.75355e-05
0.00124341 -0.000253227 0.00014208
3.75355e-05 0.00014208 -0.0020307
0.0071319 0.000116207 5.97648e-05
0.000116207 0.00578187 -2.67487e-05
5.97648e-05 -2.67487e-05 0.000268168
0.00154879 -6.45839e-05 5.48597e-05
-6.45839e-05 0.0013721 -2.05995e-05
5.48597e-05 -2.05995e-05 0.000856137
0.000800671 2.37063e-05 -1.94082e-05
2.37063e-05 0.000530568 -5.39332e-06
-1.94082e-05 -5.39332e-06 0.000426138
0.00348968 -0.000422588 0.000310554
-0.000422588 0.00107403 -0.000180698
0.000310554 -0.000180698 -0.00177785
0.00623952 0.00240581 4.80653e-07
0.00240581 0.00467888 -7.45073e-06
4.80653e-07 -7.45073e-06 0.00494609
-0.00329574 0.00136102 2.48125e-05
0.00136102 -0.0037761 0.000373661
2.48125e-05 0.000373661 -0.00420288
0.013307 -0.0015771 0.000131182
-0.0015771 0.00550846 -0.000114221
0.000131182 -0.000114221 0.00154695
0.00307589 -0.000470604 -6.48647e-05
-0.000470604 0.00134741 6.92188e-05
-6.48647e-05 6.92188e-05 0.000962269
0.000854373 0.000167763 8.625e-06
0.000167763 0.000629928 4.57588e-06
8.625e-06 4.57588e-06 0.000385845
0.00025168 2.7332e-06 -2.78493e-05
2.7332e-06 0.000292852 1.2223e-06
-2.78493e-05 1.2223e-06 0.000126164
0.00139631 -0.000301691 2.14363e-05
-0.000301691 0.000907068 -7.95733e-06
2.14363e-05 -7.95733e-06 0.000590592
0.000829457 -8.05054e-05 1.16825e-06
-8.05054e-05 0.000286574 3.01383e-06
1.16825e-06 3.01383e-06 0.000182163
-3.96072e-05 -3.46821e-05 7.82032e-07
-3.46821e-05 -4.40585e-06 3.3212e-06
7.82032e-07 3.3212e-06 -0.000153349
0.000469643 -0.000209251 -8.99659e-07
-0.000209251 0.000283405 -7.87675e-07
-8.99659e-07 -7.87675e-07 9.63102e-05
0.00171916 -0.000368219 2.78409e-05
-0.000368219 0.000818834 -1.91829e-05
2.78409e-05 -1.91829e-05 0.000574372
0.00219394 -0.000223292 -6.11719e-06
-0.000223292 0.0009735 4.16326e-06
-6.11719e-06 4.16326e-06 0.000847046
0.00184345 -0.000376802 4.87163e-06
-0.000376802 0.000763312 -8.23914e-07
4.87163e-06 -8.23914e-07 0.000514198
0.00135336 -0.000356985 1.24625e-05
-0.000356985 0.000507611 1.8512e-06
1.24625e-05 1.8512e-06 9.48211e-05
0.000356874 -0.000167104 -2.85102e-06
-0.000167104 -0.000154236 -8.72437e-07
-2.85102e-06 -8.72437e-07 -0.000305247
0.00146175 -0.000340866 -1.8185e-06
-0.000340866 0.000370193 1.22684e-06
-1.8185e-06 1.22684e-06 9.17613e-05
0.00176999 -0.000439933 -6.95636e-07
-0.000439933 0.000485237 2.23227e-06
-6.95636e-07 2.23227e-06 0.000119019
0.0017053 -0.000457507 -3.91472e-06
-0.000457507 0.000332199 3.31438e-06
-3.91472e-06 3.31438e-06 2.02696e-05
0.00112662 -0.000309355 2.00738e-07
-0.000309355 0.00013234 3.79988e-06
2.00738e-07 3.79988e-06 -0.000117756
0.00133242 -0.000348477 -2.6296e-06
-0.000348477 0.000216429 1.61357e-06
-2.6296e-06 1.61357e-06 -6.17583e-05
0.00112103 -0.000282087 -7.17378e-06
-0.000282087 0.000178656 2.20192e-06
-7.17378e-06 2.20192e-06 -7.72741e-05
0.00178442 -0.000323469 5.14399e-06
-0.000323469 0.000626071 -7.95216e-07
5.14399e-06 -7.95216e-07 0.000397671
0.00157037 -0.000309073 2.95805e-06
-0.000309073 0.000469644 -2.99156e-06
2.95805e-06 -2.99156e-06 0.000245667
2.7656e-06 -6.74028e-05 1.24726e-06
-6.74028e-05 -0.000317995 5.47497e-07
1.24726e-06 5.47497e-07 -0.000495956
0.000822013 -0.000200884 1.95917e-06
-0.000200884 0.00015525 -1.2651e-06
1.95917e-06 -1.2651e-06 -5.51762e-05
0.0010981 -0.000246135 5.94019e-06
-0.000246135 0.000235557 -5.18629e-06
5.94019e-06 -5.18629e-06 1.35987e-05
0.000242095 3.39525e-06 1.03637e-06
3.39525e-06 -0.000162956 1.74256e-06
1.03637e-06 1.74256e-06 -0.000290834
0.000924259 -0.000111971 -5.12751e-07
-0.000111971 0.000263133 3.11646e-07
-5.12751e-07 3.11646e-07 0.000101654
0.00104697 -0.000218027 -1.04088e-06
-0.000218027 0.000341206 -1.05894e-06
-1.04088e-06 -1.05894e-06 0.000147922
0.000625251 1.49363e-05 -1.15859e-06
1.49363e-05 3.60702e-05 2.84154e-06
-1.15859e-06 2.84154e-06 -3.60801e-05
0.000726698 -3.09268e-05 -4.388e-07
-3.09268e-05 0.000113629 -3.64774e-07
-4.388e-07 -3.64774e-07 6.95967e-06
0.000484687 -4.59416e-05 2.46572e-07
-4.59416e-05 4.04364e-06 3.85921e-07
2.46572e-07 3.85921e-07 -0.000126516
0.000756183 -4.41122e-05 4.3258e-07
-4.41122e-05 0.000138599 -1.27126e-06
4.3258e-07 -1.27126e-06 3.74013e-05
0.000631766 -3.53768e-07 -2.42268e-07
-3.53768e-07 3.4363e-05 -1.89205e-07
-2.42268e-07 -1.89205e-07 -2.95284e-05
0.000527326 5.03458e-05 -2.7014e-07
5.03458e-05 -3.2323e-05 4.99727e-06
-2.7014e-07 4.99727e-06 -5.76807e-05
0.000644769 -9.43098e-06 1.77623e-06
-9.43098e-06 3.93791e-05 -2.14314e-06
1.77623e-06 -2.14314e-06 -1.8879e-05
0.000551023 4.33504e-05 -2.43325e-07
4.33504e-05 -2.69957e-05 -5.69273e-08
-2.43325e-07 -5.69273e-08 -4.86805e-05
0.00235424 8.49517e-05 -2.53095e-05
8.49517e-05 0.00106445 3.92172e-06
-2.53095e-05 3.92172e-06 0.00107229
0.000543616 3.24701e-05 9.91646e-07
3.24701e-05 -3.85549e-05 -4.27686e-06
9.91646e-07 -4.27686e-06 -5.73774e-05
0.00156695 5.86419e-05 1.15568e-05
5.86419e-05 0.0005841 -9.83861e-07
1.15568e-05 -9.83861e-07 0.000590586
0.00239139 6.06376e-05 1.68109e-05
6.06376e-05 0.00107521 -4.60802e-06
1.68109e-05 -4.60802e-06 0.00108687
0.000700522 6.82811e-05 6.98118e-07
6.82811e-05 0.000101539 -1.01262e-06
6.98118e-07 -1.01262e-06 -6.87483e-06
0.000613628 2.73776e-05 -9.57279e-08
2.73776e-05 2.03367e-05 -2.4294e-06
-9.57279e-08 -2.4294e-06 -4.24696e-05
0.00055139 4.10368e-05 -1.18219e-06
4.10368e-05 1.81027e-05 -1.16718e-06
-1.18219e-06 -1.16718e-06 -9.09777e-05
0.000554826 -1.68022e-05 6.19599e-07
-1.68022e-05 -3.58368e-05 -4.37709e-06
6.19599e-07 -4.37709e-06 -5.15668e-05
0.000431366 1.92114e-05 -1.52853e-06
1.92114e-05 -8.57336e-05 -1.27973e-06
-1.52853e-06 -1.27973e-06 -0.000144467
0.000763275 4.52356e-05 -4.72704e-07
4.52356e-05 0.000145722 -9.33475e-07
-4.72704e-07 -9.33475e-07 4.40448e-05
0.0022397 -3.83466e-05 -1.61501e-05
-3.83466e-05 0.000976488 -4.68317e-06
-1.61501e-05 -4.68317e-06 0.000992523
0.000556155 -1.23205e-05 -1.86738e-07
-1.23205e-05 -3.68933e-05 -7.75901e-08
-1.86738e-07 -7.75901e-08 -4.89413e-05
0.000235974 3.39881e-06 -9.51262e-07
3.39881e-06 -0.000201122 8.08021e-07
-9.51262e-07 8.08021e-07 -0.000255555
0.00214797 -2.30573e-05 -4.16511e-06
-2.30573e-05 0.000919549 9.88421e-08
-4.16511e-06 9.88421e-08 0.000937385
0.000557364 -7.8453e-06 -6.73133e-07
-7.8453e-06 -3.71491e-05 3.49341e-06
-6.73133e-07 3.49341e-06 -4.64594e-05
0.0020802 -8.05526e-06 7.15049e-06
-8.05526e-06 0.000878086 4.72678e-06
7.15049e-06 4.72678e-06 0.00089696
0.00150253 -4.81365e-05 -1.55716e-05
-4.81365e-05 -0.000280466 1.82965e-05
-1.55716e-05 1.82965e-05 -6.829e-05
0.000738475 -4.12324e-05 1.13708e-05
-4.12324e-05 0.000479019 -1.98809e-06
1.13708e-05 -1.98809e-06 0.000403318
0.00113426 -0.000140175 0.000112493
-0.000140175 0.000322527 -3.60923e-05
0.000112493 -3.60923e-05 -0.00142509
0.000515554 2.54914e-05 8.26744e-07
2.54914e-05 -3.33624e-05 -4.52184e-07
8.26744e-07 -4.52184e-07 -0.000144998
0.000984861 6.08068e-05 -7.32089e-07
6.08068e-05 0.000239252 6.50262e-07
-7.32089e-07 6.50262e-07 0.000113971
0.000791624 0.000102098 -4.85602e-07
0.000102098 0.000157405 -1.06943e-07
-4.85602e-07 -1.06943e-07 3.47123e-05
0.000566495 4.85052e-05 2.29422e-07
4.85052e-05 1.30467e-06 3.05334e-07
2.29422e-07 3.05334e-07 -0.000111581
0.000680928 6.43795e-05 1.35988e-07
6.43795e-05 8.89237e-05 3.50701e-07
1.35988e-07 3.50701e-07 -3.97013e-05
0.000647766 5.92953e-05 1.55594e-06
5.92953e-05 6.0479e-05 -1.61998e-06
1.55594e-06 -1.61998e-06 -6.16978e-05
0.00065376 0.000150458 4.41413e-06
0.000150458 9.83117e-05 3.64253e-06
4.41413e-06 3.64253e-06 -4.96899e-05
8.12524e-05 8.80978e-05 6.28175e-05
8.80978e-05 -8.68937e-05 0.000169147
6.28175e-05 0.000169147 -0.00147953
0.00274938 -3.82359e-05 -1.16077e-05
-3.82359e-05 0.000345389 5.16968e-05
-1.16077e-05 5.16968e-05 -0.00037227
0.00323358 -0.000190654 3.87425e-05
-0.000190654 0.00226862 -6.96387e-05
3.87425e-05 -6.96387e-05 0.00118095
0.00440586 -0.000121574 -6.4838e-06
-0.000121574 -0.00441655 6.5859e-05
-6.4838e-06 6.5859e-05 -0.00139635
0.00290637 -0.00124674 -9.30653e-05
-0.00124674 0.000893646 6.8577e-05
-9.30653e-05 6.8577e-05 9.85467e-05
-0.00192667 -0.00152429 -3.46638e-05
-0.00152429 -0.000148598 8.6594e-05
-3.46638e-05 8.6594e-05 -0.00421311
0.00929457 0.00200379 7.80185e-05
0.00200379 0.00488084 -6.20983e-05
7.80185e-05 -6.20983e-05 0.00274027
0.00328442 -0.00113592 -2.80415e-05
-0.00113592 0.000841846 4.94111e-06
-2.80415e-05 4.94111e-06 0.000409641
-0.000601356 -0.000525482 2.7712e-05
-0.000525482 0.00174002 3.01332e-05
2.7712e-05 3.01332e-05 -0.00299067
0.0047587 0.000185148 2.6851e-05
0.000185148 0.00255955 -1.11426e-05
2.6851e-05 -1.11426e-05 0.00103441
0.00979755 -0.00135304 -3.40383e-05
-0.00135304 0.00128349 -3.8145e-05
-3.40383e-05 -3.8145e-05 0.00250838
-0.00117855 -6.58956e-05 -0.000142367
-6.58956e-05 -0.00115102 8.15385e-05
-0.000142367 8.15385e-05 -0.000978051
0.000805316 0.00142204 -6.20062e-05
0.00142204 0.00214445 -8.30121e-05
-6.20062e-05 -8.30121e-05 -0.0026392
-0.00642817 -0.00220508 4.96655e-05
-0.00220508 -0.00345607 -0.00014494
4.96655e-05 -0.00014494 -0.00578033
0.00623532 -0.00135006 4.78925e-05
-0.00135006 -0.000158388 -0.000281947
4.78925e-05 -0.000281947 0.000694394
0.00089847 2.53873e-05 5.38271e-06
2.53873e-05 0.000242199 -3.14746e-07
5.38271e-06 -3.14746e-07 0.000116165
0.00063673 7.49998e-05 -6.4176e-08
7.49998e-05 7.71265e-05 -1.2809e-06
-6.4176e-08 -1.2809e-06 -6.45721e-05
0.000831586 -1.04599e-05 2.49381e-07
-1.04599e-05 0.000234321 -2.93795e-06
2.49381e-07 -2.93795e-06 5.45522e-05
0.000818279 6.13682e-05 -1.6286e-06
6.13682e-05 0.000182558 -4.94392e-06
-1.6286e-06 -4.94392e-06 3.64333e-05
0.000486813 -0.000448343 -5.41629e-06
-0.000448343 -0.000367605 3.43627e-05
-5.41629e-06 3.43627e-05 -0.000460691
0.00144854 -9.26978e-05 -2.15523e-05
-9.26978e-05 0.000942992 -2.16985e-05
-2.15523e-05 -2.16985e-05 0.000755799
0.00073841 4.45342e-05 -3.44242e-06
4.45342e-05 0.000123267 -4.68443e-06
-3.44242e-06 -4.68443e-06 1.35152e-07
0.00069348 0.000165287 -1.74251e-06
0.000165287 0.000199376 3.8392e-06
-1.74251e-06 3.8392e-06 2.92296e-05
0.00269098 -2.83996e-05 9.20619e-06
-2.83996e-05 0.0014949 -2.04122e-05
9.20619e-06 -2.04122e-05 0.0012656
0.000947941 7.34989e-05 2.65791e-06
7.34989e-05 0.000273379 3.61174e-06
2.65791e-06 3.61174e-06 0.000154266
0.000625723 0.000119738 -2.659e-06
0.000119738 0.000361149 -1.20644e-06
-2.659e-06 -1.20644e-06 8.71805e-05
0.000497635 -6.22224e-05 2.64206e-05
-6.22224e-05 0.000523231 -1.06675e-05
2.64206e-05 -1.06675e-05 -6.09798e-05
0.000188862 2.06625e-05 2.41393e-05
2.06625e-05 0.000231463 -1.0751e-06
2.41393e-05 -1.0751e-06 7.32233e-05
0.000738794 0.000137709 5.04347e-07
0.000137709 0.000368017 -6.97674e-06
5.04347e-07 -6.97674e-06 0.00017999
-0.000520272 -5.0387e-05 -3.39442e-05
-5.0387e-05 0.000447957 -4.58227e-05
-3.39442e-05 -4.58227e-05 -0.000819677
0.00379639 0.000168787 2.62153e-05
0.000168787 0.00212104 2.28054e-05
2.62153e-05 2.28054e-05 0.00187648
0.000280173 1.119e-05 -6.48144e-06
1.119e-05 0.000760175 1.37009e-05
-6.48144e-06 1.37009e-05 0.000102284
0.00125911 -2.71657e-05 -2.47702e-08
-2.71657e-05 1.94241e-05 5.75118e-07
-2.47702e-08 5.75118e-07 -0.000158051
-0.000104862 -6.35346e-06 2.17158e-06
-6.35346e-06 0.000271742 -1.91167e-05
2.17158e-06 -1.91167e-05 -0.000125919
-0.000134542 0.000110409 -1.25631e-06
0.000110409 9.60818e-05 5.47343e-06
-1.25631e-06 5.47343e-06 -0.000100291
-0.00111739 0.000342174 6.49018e-05
0.000342174 -0.000813411 5.38319e-05
6.49018e-05 5.38319e-05 -0.00111131
0.00125133 -2.25292e-05 2.03019e-05
-2.25292e-05 -0.000449935 -6.42104e-06
2.03019e-05 -6.42104e-06 -0.000147845
0.00301933 -0.00122096 0.000133069
-0.00122096 0.00365003 -0.000128254
0.000133069 -0.000128254 -0.00202873
0.0097891 0.00200094 -8.0681e-05
0.00200094 0.00455503 5.88406e-05
-8.0681e-05 5.88406e-05 0.00270172
0.00326263 -0.000128224 -4.4139e-05
-0.000128224 0.00221486 7.28842e-05
-4.4139e-05 7.28842e-05 0.00112947
0.0059927 0.00190144 -2.68941e-05
0.00190144 0.000423161 -5.64566e-05
-2.68941e-05 -5.64566e-05 9.06752e-06
-7.09847e-06 0.000122941 -4.09552e-05
0.000122941 0.000513316 1.05852e-05
-4.09552e-05 1.05852e-05 -6.1479e-05
0.000839362 -5.21373e-07 -1.344e-05
-5.21373e-07 0.000475436 2.21748e-06
-1.344e-05 2.21748e-06 0.000428339
0.00364768 -0.000484034 0.000116941
-0.000484034 0.0012301 -1.03082e-05
0.000116941 -1.03082e-05 -0.00180202
-0.000226573 -0.000200586 1.24162e-05
-0.000200586 -0.000430979 2.54434e-05
1.24162e-05 2.54434e-05 -0.000536813
-0.000351136 0.00259888 0.000168756
0.00259888 0.00103706 -8.25822e-05
0.000168756 -8.25822e-05 0.00182625
0.00734006 0.00122239 -7.46481e-05
0.00122239 0.000635129 0.000142312
-7.46481e-05 0.000142312 0.000120477
-0.00309543 -0.000796758 7.5774e-05
-0.000796758 0.000727198 -7.83894e-05
7.5774e-05 -7.83894e-05 -0.00461276
0.000511824 -0.000189835 4.11008e-05
-0.000189835 0.000494707 -9.41945e-06
4.11008e-05 -9.41945e-06 5.1307e-05
0.000504723 -0.000202445 9.9938e-05
-0.000202445 -0.000217212 -3.26717e-05
9.9938e-05 -3.26717e-05 -0.00186784
-0.002078 6.24708e-05 -0.00031136
6.24708e-05 0.00244891 2.61282e-05
-0.00031136 2.61282e-05 0.000617502
0.00456287 0.0024406 -0.000244524
0.0024406 0.000586568 0.000314545
-0.000244524 0.000314545 0.000684934
0.0080593 -0.001049 -1.83266e-05
-0.001049 0.00362539 6.31249e-06
-1.83266e-05 6.31249e-06 0.000205183
0.00302138 -0.000609843 -6.06982e-05
-0.000609843 0.00117398 4.49482e-05
-6.06982e-05 4.49482e-05 0.000778194
-0.0007645 3.66264e-05 2.51168e-05
3.66264e-05 -0.000296494 8.05777e-06
2.51168e-05 8.05777e-06 -0.000481502
0.000304042 -0.000218628 -1.28335e-06
-0.000218628 0.000327257 5.4655e-07
-1.28335e-06 5.4655e-07 1.71946e-05
0.000987939 -0.000351345 1.66745e-05
-0.000351345 0.000414242 -4.30398e-06
1.66745e-05 -4.30398e-06 0.000260215
-0.000437339 -0.000184258 -6.76743e-06
-0.000184258 -0.000182103 6.58508e-06
-6.76743e-06 6.58508e-06 -0.000364005
-0.000639142 -0.000195908 -9.29717e-07
-0.000195908 -0.000430513 -4.08212e-06
-9.29717e-07 -4.08212e-06 -0.000673829
0.00318639 -0.000592517 3.2037e-05
-0.000592517 0.00128228 -1.74822e-06
3.2037e-05 -1.74822e-06 0.00100586
0.00446073 -0.000639799 -9.78149e-06
-0.000639799 0.00215561 3.7988e-06
-9.78149e-06 3.7988e-06 0.00188257
0.00230659 -0.000450942 6.91591e-06
-0.000450942 0.000959777 4.00147e-07
6.91591e-06 4.00147e-07 0.000570389
0.00121442 -0.000418307 8.52911e-06
-0.000418307 0.000210686 -6.00937e-06
8.52911e-06 -6.00937e-06 -0.000206128
0.00176546 -0.0003693 -8.32102e-06
-0.0003693 0.000511539 2.0558e-06
-8.32102e-06 2.0558e-06 0.000225397
0.00214688 -0.000485762 1.06151e-06
-0.000485762 0.000660952 5.16739e-07
1.06151e-06 5.16739e-07 0.000285784
0.00197658 -0.000495665 1.40514e-06
-0.000495665 0.000524187 -5.60636e-06
1.40514e-06 -5.60636e-06 0.000147318
0.00197835 -0.000465952 -1.50727e-06
-0.000465952 0.000406149 -2.94152e-06
-1.50727e-06 -2.94152e-06 0.000130359
0.00179718 -0.000460222 -1.43326e-06
-0.000460222 0.00036592 2.37761e-06
-1.43326e-06 2.37761e-06 7.46275e-05
0.00172927 -0.000464316 -9.38687e-07
-0.000464316 0.000346232 -1.64401e-07
-9.38687e-07 -1.64401e-07 2.8264e-05
0.000698628 -0.000251135 6.63593e-06
-0.000251135 -0.000111604 2.27834e-06
6.63593e-06 2.27834e-06 -0.000332907
0.00115937 -0.000305175 1.87203e-06
-0.000305175 0.000147854 -6.77795e-09
1.87203e-06 -6.77795e-09 -9.41224e-05
0.00130979 -0.000347879 8.53957e-07
-0.000347879 0.000205424 -2.27552e-06
8.53957e-07 -2.27552e-06 -7.70827e-05
0.00130301 -0.000261163 3.50433e-06
-0.000261163 0.000378776 1.89265e-06
3.50433e-06 1.89265e-06 0.000153775
0.00130228 -0.000275584 -2.22431e-06
-0.000275584 0.00033607 -1.87128e-06
-2.22431e-06 -1.87128e-06 0.000115827
0.000700813 -0.000225113 5.57715e-06
-0.000225113 -3.9846e-05 -5.65442e-06
5.57715e-06 -5.65442e-06 -0.000245053
0.000373394 -8.70464e-05 1.94306e-06
-8.70464e-05 -7.77443e-05 7.2446e-07
1.94306e-06 7.2446e-07 -0.000250084
0.000484288 -0.00011338 -6.43343e-07
-0.00011338 -1.7767e-05 1.00707e-06
-6.43343e-07 1.00707e-06 -0.000204555
0.00142527 -0.000263078 3.15246e-06
-0.000263078 0.000518398 -4.72828e-06
3.15246e-06 -4.72828e-06 0.00029888
0.000451598 1.75157e-05 -2.12982e-08
1.75157e-05 -5.94335e-05 3.38211e-06
-2.12982e-08 3.38211e-06 -0.000144959
0.000713025 -3.7688e-05 -2.53362e-07
-3.7688e-05 0.000123289 -1.63089e-07
-2.53362e-07 -1.63089e-07 -1.49049e-05
0.00121202 -0.000153506 7.08007e-07
-0.000153506 0.000439736 -1.47809e-07
7.08007e-07 -1.47809e-07 0.000269068
0.000499966 5.41778e-05 -1.18337e-06
5.41778e-05 -3.94973e-05 7.19543e-06
-1.18337e-06 7.19543e-06 -6.87667e-05
0.000642041 1.02256e-05 -3.12768e-07
1.02256e-05 4.37122e-05 -2.39348e-07
-3.12768e-07 -2.39348e-07 -2.82265e-05
0.000946565 -5.69961e-05 -2.83914e-07
-5.69961e-05 0.000248591 -1.46087e-06
-2.83914e-07 -1.46087e-06 0.000135675
0.000665182 -1.646e-06 1.48516e-06
-1.646e-06 5.31302e-05 -2.57421e-06
1.48516e-06 -2.57421e-06 -1.07974e-05
0.000538033 5.26235e-05 3.27125e-07
5.26235e-05 -2.47023e-05 1.71532e-08
3.27125e-07 1.71532e-08 -5.07245e-05
0.0024241 0.000101458 -2.71515e-05
0.000101458 0.00111479 3.59426e-06
-2.71515e-05 3.59426e-06 0.00111887
0.00055945 4.76096e-05 -3.71918e-07
4.76096e-05 -2.11535e-05 -4.70555e-06
-3.71918e-07 -4.70555e-06 -4.36245e-05
0.00238738 8.80631e-05 2.77344e-06
8.80631e-05 0.00108519 2.62207e-07
2.77344e-06 2.62207e-07 0.00109237
0.0023649 7.46037e-05 2.03559e-05
7.46037e-05 0.00106509 -4.1581e-06
2.03559e-05 -4.1581e-06 0.00107488
0.000693329 6.22647e-05 -2.52837e-07
6.22647e-05 0.00010547 -1.04419e-06
-2.52837e-07 -1.04419e-06 -2.82198e-05
0.000770612 8.87584e-05 7.99893e-07
8.87584e-05 0.000153497 -1.36251e-06
7.99893e-07 -1.36251e-06 2.97564e-05
0.000635114 1.91887e-05 2.89541e-08
1.91887e-05 3.33082e-05 -2.78693e-06
2.89541e-08 -2.78693e-06 -3.56197e-05
0.000696799 8.04237e-05 -3.7214e-08
8.04237e-05 9.77374e-05 -4.04782e-08
-3.7214e-08 -4.04782e-08 -1.03588e-05
0.000545415 -1.95306e-05 -1.89039e-07
-1.95306e-05 -3.79881e-05 -5.03665e-06
-1.89039e-07 -5.03665e-06 -5.77149e-05
0.00061721 2.79577e-05 1.35692e-08
2.79577e-05 2.31192e-05 -9.31774e-08
1.35692e-08 -9.31774e-08 -3.97167e-05
0.000628492 4.31907e-05 -2.22048e-06
4.31907e-05 5.31161e-05 2.75075e-07
-2.22048e-06 2.75075e-07 -4.69848e-05
0.00234162 -5.27368e-05 -2.11854e-05
-5.27368e-05 0.00104026 -4.63781e-06
-2.11854e-05 -4.63781e-06 0.00105412
0.000554325 -1.78459e-05 -3.38023e-07
-1.78459e-05 -3.57218e-05 -6.95211e-08
-3.38023e-07 -6.95211e-08 -5.13748e-05
0.000548201 3.11492e-05 -1.50539e-06
3.11492e-05 -1.57695e-05 7.7725e-07
-1.50539e-06 7.7725e-07 -7.33348e-05
0.00221823 -3.69552e-05 -4.12261e-06
-3.69552e-05 0.000963265 1.59167e-07
-4.12261e-06 1.59167e-07 0.000979623
0.000555791 -1.21962e-05 -7.25749e-07
-1.21962e-05 -3.74102e-05 3.68973e-06
-7.25749e-07 3.68973e-06 -4.92198e-05
0.00212329 -2.17277e-05 1.12747e-05
-2.17277e-05 0.000904413 4.68172e-06
1.12747e-05 4.68172e-06 0.000922506
0.000258162 -7.32006e-05 -7.416e-07
-7.32006e-05 -9.75142e-06 7.36234e-06
-7.416e-07 7.36234e-06 7.56934e-05
0.00143563 -8.84614e-05 -1.63938e-05
-8.84614e-05 -0.000371029 2.64162e-05
-1.63938e-05 2.64162e-05 -0.000104935
0.000782708 -6.81189e-05 8.95064e-06
-6.81189e-05 0.000448159 -1.53436e-05
8.95064e-06 -1.53436e-05 0.00038686
0.000730877 6.34951e-05 -2.33096e-07
6.34951e-05 0.000115983 1.53225e-07
-2.33096e-07 1.53225e-07 -1.10072e-05
0.000710442 4.73142e-05 1.20402e-06
4.73142e-05 7.7936e-05 -2.88728e-07
1.20402e-06 -2.88728e-07 -4.35577e-05
8.75462e-05 3.21265e-05 -4.08382e-06
3.21265e-05 -0.000288547 -4.46037e-06
-4.08382e-06 -4.46037e-06 -0.000401751
0.000367338 1.3381e-05 5.89202e-07
1.3381e-05 -0.000109449 9.11718e-07
5.89202e-07 9.11718e-07 -0.000230063
0.00146902 0.000167175 -8.16498e-07
0.000167175 0.000561303 -9.37119e-07
-8.16498e-07 -9.37119e-07 0.000407719
0.00064866 3.05295e-05 -1.64766e-06
3.05295e-05 4.30848e-05 6.20558e-07
-1.64766e-06 6.20558e-07 -6.61303e-05
0.000669611 5.47277e-05 -2.47401e-06
5.47277e-05 7.34126e-05 -2.93228e-06
-2.47401e-06 -2.93228e-06 -4.85656e-05
0.000766208 6.45642e-05 -9.83583e-08
6.45642e-05 0.00013133 -2.13627e-07
-9.83583e-08 -2.13627e-07 6.60385e-06
0.000997438 0.00010392 1.62553e-07
0.00010392 0.000279269 -6.47117e-08
1.62553e-07 -6.47117e-08 0.000144279
0.00106653 8.16009e-05 2.80598e-06
8.16009e-05 0.000342034 -2.03088e-06
2.80598e-06 -2.03088e-06 0.000199283
0.00321249 0.000267938 0.000178768
0.000267938 0.0021087 0.000249423
0.000178768 0.000249423 -0.00105146
0.000590136 0.000106757 9.44261e-06
0.000106757 4.77442e-05 6.64228e-05
9.44261e-06 6.64228e-05 -0.00149693
0.00265845 -4.56701e-05 -1.1281e-05
-4.56701e-05 0.000593989 -5.65965e-06
-1.1281e-05 -5.65965e-06 7.38857e-05
0.0100797 -0.00118127 -0.000102553
-0.00118127 0.00141888 -0.000109095
-0.000102553 -0.000109095 0.00285036
-0.00992878 0.000951524 -2.04645e-05
0.000951524 -0.00335645 0.00026131
-2.04645e-05 0.00026131 -0.00596614
0.0052014 -0.00124859 -0.000125535
-0.00124859 0.00197639 4.08406e-05
-0.000125535 4.08406e-05 0.00156543
0.0109468 -0.00103172 -6.81431e-05
-0.00103172 0.00489936 -1.97364e-06
-6.81431e-05 -1.97364e-06 0.00123595
0.00225405 -0.000271292 -2.34127e-05
-0.000271292 0.000569804 6.60016e-05
-2.34127e-05 6.60016e-05 0.000343406
0.011545 -0.000123746 -1.27301e-05
-0.000123746 0.00594 -1.28434e-05
-1.27301e-05 -1.28434e-05 0.00140427
0.00253926 -0.00136915 5.57756e-05
-0.00136915 0.000771638 7.51002e-05
5.57756e-05 7.51002e-05 -0.00114221
0.00551185 -0.00164609 -0.000146996
-0.00164609 -0.000964342 -0.000342504
-0.000146996 -0.000342504 -0.000195621
0.00290841 8.4274e-05 -0.000119954
8.4274e-05 0.000850895 5.12806e-05
-0.000119954 5.12806e-05 0.000281478
0.0100707 0.00112662 -4.83748e-05
0.00112662 0.00471481 1.55812e-05
-4.83748e-05 1.55812e-05 0.00105328
0.0114515 -0.00237752 -8.62244e-05
-0.00237752 0.00398657 -0.000297696
-8.62244e-05 -0.000297696 0.00349272
0.00869349 -0.00270141 7.27469e-05
-0.00270141 0.00209844 -7.02131e-07
7.27469e-05 -7.02131e-07 0.00315792
0.000165403 7.68869e-05 4.78958e-06
7.68869e-05 -0.000105635 -5.19176e-06
4.78958e-06 -5.19176e-06 -0.000245447
0.000907723 2.61021e-05 1.05739e-06
2.61021e-05 0.000265477 2.95956e-06
1.05739e-06 2.95956e-06 0.000118461
0.000728205 8.87396e-05 -2.8894e-06
8.87396e-05 0.000133506 -6.39627e-06
-2.8894e-06 -6.39627e-06 -1.20663e-05
0.0017866 -0.000211747 -2.58302e-05
-0.000211747 0.00111342 2.2657e-05
-2.58302e-05 2.2657e-05 0.000387196
0.000951186 -3.08207e-05 -6.66717e-05
-3.08207e-05 0.000681533 -2.25946e-05
-6.66717e-05 -2.25946e-05 0.000540549
0.000647535 8.27732e-06 -4.78794e-06
8.27732e-06 9.66875e-05 4.59871e-06
-4.78794e-06 4.59871e-06 -2.09889e-05
-0.00114422 0.000101989 -8.95521e-06
0.000101989 -0.000599025 -4.12836e-06
-8.95521e-06 -4.12836e-06 -0.000916024
0.000431604 7.83544e-05 6.16212e-07
7.83544e-05 0.000181803 -2.40608e-06
6.16212e-07 -2.40608e-06 -1.27154e-05
0.000620407 0.000144065 -4.69776e-08
0.000144065 0.00042164 2.88261e-06
-4.69776e-08 2.88261e-06 0.000129488
-0.000433109 -6.16674e-05 0.000121722
-6.16674e-05 0.000719013 -4.10609e-05
0.000121722 -4.10609e-05 -0.000530963
-0.0022087 1.59616e-05 -2.18064e-05
1.59616e-05 -0.00117093 1.31375e-05
-2.18064e-05 1.31375e-05 -0.00139377
0.00245323 0.000312717 -5.04112e-05
0.000312717 0.0015782 -4.60423e-05
-5.04112e-05 -4.60423e-05 0.000727536
0.00189479 4.18685e-05 8.83537e-05
4.18685e-05 0.00118415 1.49391e-05
8.83537e-05 1.49391e-05 -0.000876815
6.48268e-05 8.30159e-06 1.4391e-05
8.30159e-06 0.000534336 1.45569e-05
1.4391e-05 1.45569e-05 -1.99274e-05
0.00174909 -7.12777e-05 2.45278e-07
-7.12777e-05 0.000246397 -3.07957e-07
2.45278e-07 -3.07957e-07 0.000363357
-0.00176679 0.00028391 0.000101471
0.00028391 -0.000435955 7.68217e-06
0.000101471 7.68217e-06 -0.00112272
0.00311188 0.000148159 -2.96166e-05
0.000148159 0.0015454 1.53409e-05
-2.96166e-05 1.53409e-05 0.000798455
0.000821661 -3.93504e-05 -8.34815e-06
-3.93504e-05 0.000447591 1.22317e-05
-8.34815e-06 1.22317e-05 0.000395551
0.016148 -0.00176169 0.000135447
-0.00176169 0.00703467 -4.30179e-05
0.000135447 -4.30179e-05 0.00286857
0.0115346 0.00182689 -6.7532e-05
0.00182689 0.00408798 -5.38898e-05
-6.7532e-05 -5.38898e-05 0.00305536
0.00410171 -0.000534075 -8.24051e-05
-0.000534075 0.00153533 0.000131883
-8.24051e-05 0.000131883 -0.00166505
-0.007168 0.00292012 0.000786656
0.00292012 -0.00297443 -0.000598133
0.000786656 -0.000598133 -0.00174424
0.000752082 -0.000195795 1.1342e-05
-0.000195795 0.000731327 -4.03687e-06
1.1342e-05 -4.03687e-06 0.000205829
0.000803322 -0.000156691 1.67879e-06
-0.000156691 3.6453e-05 1.23537e-05
1.67879e-06 1.23537e-05 -0.0017297
-0.00288747 0.000156666 -0.000435431
0.000156666 0.00244027 0.000181846
-0.000435431 0.000181846 0.00061765
0.00140817 -0.000376052 -2.31766e-05
-0.000376052 0.000381764 3.60637e-05
-2.31766e-05 3.60637e-05 2.2741e-05
0.0123457 0.00239569 0.000110685
0.00239569 0.00373173 8.1994e-05
0.000110685 8.1994e-05 0.00391057
0.00782106 -0.00168227 9.22789e-05
-0.00168227 0.00323372 -5.61398e-05
9.22789e-05 -5.61398e-05 0.000103687
0.00214308 -0.000476938 2.82635e-06
-0.000476938 0.000946124 2.19728e-05
2.82635e-06 2.19728e-05 0.000831519
-0.00452273 -0.000473658 4.27967e-05
-0.000473658 0.00192145 -2.655e-05
4.27967e-05 -2.655e-05 -0.000466121
0.010734 0.00221541 -0.000482467
0.00221541 0.00483935 0.000226443
-0.000482467 0.000226443 0.00451611
0.0025066 -0.00104598 -0.00021713
-0.00104598 -0.000343157 0.000143751
-0.00021713 0.000143751 -0.00362057
0.0023933 -0.000984593 0.000103476
-0.000984593 0.000464816 -5.01261e-05
0.000103476 -5.01261e-05 0.000441828
-0.000231054 -0.000192888 -4.8798e-05
-0.000192888 2.2058e-05 1.39631e-05
-4.8798e-05 1.39631e-05 -0.000268857
0.000585384 -0.000299025 -7.71521e-06
-0.000299025 0.00026029 9.05849e-06
-7.71521e-06 9.05849e-06 4.13054e-05
0.00380292 -0.000617647 3.11297e-05
-0.000617647 0.00160409 2.12602e-06
3.11297e-05 2.12602e-06 0.00144118
-0.00287844 -4.86165e-05 -1.84346e-06
-4.86165e-05 -0.0016059 1.03828e-05
-1.84346e-06 1.03828e-05 -0.00184846
0.00081492 -0.000350341 4.38661e-06
-0.000350341 6.56165e-05 2.13167e-06
4.38661e-06 2.13167e-06 -0.000209116
0.00222102 -0.000571749 5.25328e-06
-0.000571749 0.000515738 1.34956e-06
5.25328e-06 1.34956e-06 0.000255038
0.00303966 -0.000520259 -1.47816e-05
-0.000520259 0.00129141 4.94331e-06
-1.47816e-05 4.94331e-06 0.000929074
0.00129625 -0.000416479 -2.42953e-06
-0.000416479 0.000225756 -3.84241e-06
-2.42953e-06 -3.84241e-06 -0.00016777
0.00181355 -0.000544949 4.76155e-06
-0.000544949 0.000276671 -5.87842e-06
4.76155e-06 -5.87842e-06 -3.25713e-05
0.00258731 -0.000536157 -3.74347e-06
-0.000536157 0.000874325 -1.30124e-06
-3.74347e-06 -1.30124e-06 0.000491343
0.001654 -0.000469752 1.85397e-07
-0.000469752 0.000319853 -3.5703e-06
1.85397e-07 -3.5703e-06 -4.17295e-05
0.00207481 -0.000479889 4.527e-07
-0.000479889 0.000402281 -6.74082e-06
4.527e-07 -6.74082e-06 0.000135868
0.00168519 -0.000371381 -3.37723e-06
-0.000371381 0.000123217 -3.30232e-06
-3.37723e-06 -3.30232e-06 -8.59056e-05
0.00160408 -0.000443926 1.52036e-06
-0.000443926 0.000173525 -7.14276e-07
1.52036e-06 -7.14276e-07 -9.64357e-05
0.00179147 -0.00044916 1.95229e-06
-0.00044916 0.000302146 -2.47374e-06
1.95229e-06 -2.47374e-06 3.06807e-05
0.00170841 -0.000389659 -3.64687e-07
-0.000389659 0.000375042 1.91138e-06
-3.64687e-07 1.91138e-06 0.000112429
0.00179417 -0.000460797 -2.08034e-06
-0.000460797 0.000381958 1.19569e-07
-2.08034e-06 1.19569e-07 8.60755e-05
0.00173781 -0.000470869 1.39897e-06
-0.000470869 0.000350791 -3.72341e-06
1.39897e-06 -3.72341e-06 2.70105e-05
0.00136421 -0.000287932 3.46612e-06
-0.000287932 0.000317309 1.16491e-06
3.46612e-06 1.16491e-06 9.13525e-05
0.00085055 -0.000261379 8.87432e-07
-0.000261379 -1.9337e-05 -4.24468e-08
8.87432e-07 -4.24468e-08 -0.000239088
0.00128682 -0.000310695 4.05651e-06
-0.000310695 0.000217927 -3.37609e-06
4.05651e-06 -3.37609e-06 -1.69739e-05
0.000651124 -0.000187051 -2.32278e-07
-0.000187051 3.53176e-05 2.26045e-07
-2.32278e-07 2.26045e-07 -0.000160155
0.000927738 -0.000221594 1.40191e-08
-0.000221594 0.00015861 -4.04188e-07
1.40191e-08 -4.04188e-07 -5.77322e-05
0.00087554 -0.000232572 -3.94994e-06
-0.000232572 7.90079e-05 -1.63083e-06
-3.94994e-06 -1.63083e-06 -0.000134086
0.000309867 1.60486e-05 3.72028e-07
1.60486e-05 -0.000137341 5.00514e-06
3.72028e-07 5.00514e-06 -0.000250912
0.000776072 -0.000108131 1.08529e-06
-0.000108131 0.000168726 5.9021e-07
1.08529e-06 5.9021e-07 -1.3421e-05
0.00105905 -0.000163293 -2.30424e-06
-0.000163293 0.000337629 4.07395e-07
-2.30424e-06 4.07395e-07 0.000141071
0.00143924 8.89212e-05 -1.72543e-05
8.89212e-05 0.00053605 4.78676e-06
-1.72543e-05 4.78676e-06 0.00050188
0.000677223 -9.05437e-06 -1.82284e-07
-9.05437e-06 7.08745e-05 -6.56142e-07
-1.82284e-07 -6.56142e-07 -1.60078e-05
0.00114624 -7.23539e-05 -1.78613e-06
-7.23539e-05 0.000386954 -1.66381e-06
-1.78613e-06 -1.66381e-06 0.000238404
0.000742611 4.95787e-05 -2.92543e-05
4.95787e-05 0.000111638 3.75345e-06
-2.92543e-05 3.75345e-06 0.000108941
0.000987081 6.9487e-05 -8.9365e-06
6.9487e-05 0.000254507 -1.04293e-07
-8.9365e-06 -1.04293e-07 0.000225527
0.000668456 3.86887e-06 1.19367e-06
3.86887e-06 5.65369e-05 -3.31866e-06
1.19367e-06 -3.31866e-06 -1.50401e-05
0.000549146 5.56749e-05 -3.87107e-07
5.56749e-05 -1.65878e-05 -5.32587e-06
-3.87107e-07 -5.32587e-06 -4.34425e-05
0.00245656 0.000103487 4.1046e-06
0.000103487 0.00113498 3.7123e-07
4.1046e-06 3.7123e-07 0.00113867
0.00239556 9.01753e-05 2.27577e-05
9.01753e-05 0.00109104 -3.92113e-06
2.27577e-05 -3.92113e-06 0.00109778
0.000723162 6.31974e-05 5.91216e-07
6.31974e-05 0.000106771 7.45945e-07
5.91216e-07 7.45945e-07 -1.76775e-05
0.000791204 7.88913e-05 4.28532e-07
7.88913e-05 0.000164987 -1.99766e-06
4.28532e-07 -1.99766e-06 3.72623e-05
0.000605714 4.86193e-05 -3.16278e-07
4.86193e-05 3.56944e-05 4.27327e-07
-3.16278e-07 4.27327e-07 -8.57923e-05
0.000640094 8.41096e-06 -1.77064e-07
8.41096e-06 3.63675e-05 -3.07201e-06
-1.77064e-07 -3.07201e-06 -3.82278e-05
0.000725774 6.54442e-05 5.82863e-07
6.54442e-05 0.000114745 3.3679e-08
5.82863e-07 3.3679e-08 1.37519e-06
0.00054476 -2.09589e-05 -8.21579e-07
-2.09589e-05 -3.36267e-05 -5.58583e-06
-8.21579e-07 -5.58583e-06 -5.7723e-05
0.000611128 2.19826e-05 -2.45069e-08
2.19826e-05 2.01787e-05 -1.25539e-07
-2.45069e-08 -1.25539e-07 -4.92028e-05
0.000733744 6.79489e-05 -7.53268e-07
6.79489e-05 0.000135913 1.68737e-06
-7.53268e-07 1.68737e-06 1.56477e-05
0.00248568 -6.79218e-05 -2.76723e-05
-6.79218e-05 0.00113063 -4.50266e-06
-2.76723e-05 -4.50266e-06 0.00114179
0.00053618 -2.18489e-05 -4.90218e-07
-2.18489e-05 -4.33771e-05 -5.0095e-08
-4.90218e-07 -5.0095e-08 -6.3039e-05
0.000604705 3.0555e-05 2.51487e-07
3.0555e-05 1.65167e-05 2.56258e-06
2.51487e-07 2.56258e-06 -4.63276e-05
0.00234968 -5.20437e-05 -4.41777e-06
-5.20437e-05 0.00104482 2.36212e-07
-4.41777e-06 2.36212e-07 0.00105884
0.000538234 -1.85667e-05 -1.01685e-06
-1.85667e-05 -4.50486e-05 4.20318e-06
-1.01685e-06 4.20318e-06 -6.05774e-05
0.00221981 -3.56434e-05 1.61676e-05
-3.56434e-05 0.000963843 4.60178e-06
1.61676e-05 4.60178e-06 0.000980404
0.00474443 0.00010029 0.000110064
0.00010029 0.0019349 2.4514e-05
0.000110064 2.4514e-05 0.000753062
0.000215123 -6.89602e-05 -8.52924e-07
-6.89602e-05 -1.1337e-05 -2.82265e-07
-8.52924e-07 -2.82265e-07 5.21617e-05
0.00131371 -7.54e-05 -1.76514e-05
-7.54e-05 -0.00041576 4.29321e-06
-1.76514e-05 4.29321e-06 -0.000107779
0.000469564 0.000102575 -6.08345e-06
0.000102575 -5.33678e-05 -1.69422e-06
-6.08345e-06 -1.69422e-06 -0.000179388
0.000820672 6.41798e-05 -9.49307e-07
6.41798e-05 0.0001654 1.94313e-07
-9.49307e-07 1.94313e-07 4.31589e-05
0.000514202 3.74306e-05 6.89347e-07
3.74306e-05 -3.98175e-05 1.45938e-07
6.89347e-07 1.45938e-07 -0.000157549
0.000816768 4.011e-05 8.64429e-08
4.011e-05 0.000147636 -1.68231e-07
8.64429e-08 -1.68231e-07 2.72439e-05
0.000725415 7.99237e-05 -7.44377e-07
7.99237e-05 8.66565e-05 1.69625e-07
-7.44377e-07 1.69625e-07 -3.36496e-05
0.00117268 0.000138863 6.35313e-07
0.000138863 0.000382185 -5.87174e-07
6.35313e-07 -5.87174e-07 0.00024054
0.000863303 0.000107091 -1.18973e-06
0.000107091 0.000172984 -6.52823e-06
-1.18973e-06 -6.52823e-06 1.38121e-05
3.99846e-05 2.50274e-05 5.37349e-07
2.50274e-05 -0.000262925 5.78147e-07
5.37349e-07 5.78147e-07 -0.000402068
0.000800489 0.000117324 -1.71593e-06
0.000117324 0.000164053 1.25831e-06
-1.71593e-06 1.25831e-06 2.95507e-05
0.000426768 2.23685e-05 -3.12677e-06
2.23685e-05 -7.97174e-05 -2.44646e-06
-3.12677e-06 -2.44646e-06 -0.000191517
0.000541474 5.9366e-05 -1.2088e-07
5.9366e-05 2.91535e-05 9.65139e-07
-1.2088e-07 9.65139e-07 -0.000107889
0.00157962 0.0001695 9.49618e-06
0.0001695 0.000688247 6.21447e-06
9.49618e-06 6.21447e-06 0.000534934
0.00111832 -0.00095832 0.000123189
-0.00095832 0.0027102 0.000204233
0.000123189 0.000204233 0.000510891
0.00366734 0.000352031 2.55213e-05
0.000352031 0.00199786 8.85737e-05
2.55213e-05 8.85737e-05 -0.00126032
0.000883474 0.000108922 -2.3276e-05
0.000108922 0.000248516 -4.24705e-05
-2.3276e-05 -4.24705e-05 -0.00144347
0.0101853 -0.00208894 -0.000273719
-0.00208894 0.00153924 -0.000201018
-0.000273719 -0.000201018 0.00223459
0.00572339 -0.000755098 7.32412e-05
-0.000755098 0.001494 0.000257301
7.32412e-05 0.000257301 4.10189e-05
0.000804537 -0.00083276 -0.000102278
-0.00083276 0.0020058 9.01165e-05
-0.000102278 9.01165e-05 -0.00286036
0.000992757 -0.000355722 8.06347e-06
-0.000355722 0.000178538 5.85115e-05
8.06347e-06 5.85115e-05 -0.000386423
0.00228576 -0.000111999 2.88205e-05
-0.000111999 0.000672042 5.23989e-05
2.88205e-05 5.23989e-05 0.000292428
0.00115364 -0.00276809 0.000134639
-0.00276809 -0.000363522 0.000146336
0.000134639 0.000146336 0.000836729
0.00467253 0.000950586 -1.30468e-05
0.000950586 0.00366814 -2.75842e-05
-1.30468e-05 -2.75842e-05 -0.000859183
0.00323358 -0.00141905 -4.33634e-05
-0.00141905 -0.000609021 5.51768e-05
-4.33634e-05 5.51768e-05 -0.00127977
0.000610849 0.000332157 -7.9984e-06
0.000332157 1.42289e-05 4.96949e-05
-7.9984e-06 4.96949e-05 -0.00010287
0.00826751 0.00113012 -4.37271e-05
0.00113012 0.00383579 -2.12776e-05
-4.37271e-05 -2.12776e-05 0.000609001
0.0041876 -0.0023495 -0.000265453
-0.0023495 0.000165967 -0.000226635
-0.000265453 -0.000226635 0.000171899
0.000896137 0.000335226 6.34102e-06
0.000335226 0.000211509 -1.30034e-05
6.34102e-06 -1.30034e-05 6.48248e-05
0.000640504 9.49319e-05 2.79192e-06
9.49319e-05 0.00015992 -3.74748e-07
2.79192e-06 -3.74748e-07 2.60552e-05
0.000424428 4.19973e-05 -3.72806e-06
4.19973e-05 -8.69344e-06 -1.91392e-06
-3.72806e-06 -1.91392e-06 -0.000165046
-4.5477e-05 -7.79832e-05 -0.000165235
-7.79832e-05 0.00107402 -4.3981e-05
-0.000165235 -4.3981e-05 -0.000123493
-0.00197915 0.000148539 2.21951e-06
0.000148539 -0.00101446 -1.63512e-05
2.21951e-06 -1.63512e-05 -0.00132967
-7.84882e-05 0.000100899 -5.17721e-06
0.000100899 -9.91198e-05 4.75442e-06
-5.17721e-06 4.75442e-06 -0.000317654
0.000551536 0.000320897 1.19459e-05
0.000320897 0.000263809 3.28116e-06
1.19459e-05 3.28116e-06 1.88527e-05
0.000730628 0.000270575 -1.02443e-07
0.000270575 0.000590845 -3.39991e-05
-1.02443e-07 -3.39991e-05 -0.000142166
-5.3414e-05 0.000534365 3.13303e-05
0.000534365 -0.000442183 7.66971e-06
3.13303e-05 7.66971e-06 -0.000809943
-0.00155649 0.000362186 0.000168435
0.000362186 0.00348581 5.38655e-06
0.000168435 5.38655e-06 0.000624546
0.00211225 -1.55537e-05 -5.90879e-06
-1.55537e-05 0.00131402 2.43147e-05
-5.90879e-06 2.43147e-05 -0.000304601
-0.000168481 -1.70182e-05 5.40727e-07
-1.70182e-05 0.000281955 1.70695e-05
5.40727e-07 1.70695e-05 -0.000137203
0.000138936 -0.000138416 -5.46958e-05
-0.000138416 0.000509111 5.67924e-06
-5.46958e-05 5.67924e-06 -2.33995e-05
-0.000431417 -0.000100264 -6.34618e-05
-0.000100264 -0.00102411 2.33685e-05
-6.34618e-05 2.33685e-05 -0.000804696
0.00123358 -0.000126187 -9.76561e-05
-0.000126187 0.00020608 3.64798e-05
-9.76561e-05 3.64798e-05 -0.00150743
-0.0022605 -0.001512 7.94055e-05
-0.001512 2.38585e-05 -0.00010506
7.94055e-05 -0.00010506 -0.00414387
-0.000698043 0.00195279 0.000219179
0.00195279 -0.00326764 -0.000195953
0.000219179 -0.000195953 -0.00293231
0.00291421 0.00089833 -0.000218248
0.00089833 0.00371023 0.000167921
-0.000218248 0.000167921 0.00236596
0.00153243 -0.000229212 -6.56853e-06
-0.000229212 0.000620971 -2.10976e-06
-6.56853e-06 -2.10976e-06 0.000590266
0.00149092 0.000197625 3.54322e-05
0.000197625 0.00380731 6.58422e-06
3.54322e-05 6.58422e-06 0.0022102
-0.00328399 0.00137549 2.59094e-05
0.00137549 -0.00076753 1.69442e-05
2.59094e-05 1.69442e-05 -0.00235189
0.00363649 -0.00118708 4.93872e-05
-0.00118708 0.00128707 -1.41421e-05
4.93872e-05 -1.41421e-05 0.00072263
0.0117986 -0.000957717 1.68468e-05
-0.000957717 0.00371022 -1.18947e-05
1.68468e-05 -1.18947e-05 0.00178496
0.00312751 -0.000719346 -1.12904e-05
-0.000719346 0.00106725 2.32198e-05
-1.12904e-05 2.32198e-05 0.00106303
-0.00841282 0.000522927 -0.000227349
0.000522927 -0.00377514 9.18693e-06
-0.000227349 9.18693e-06 -0.00479245
0.0126645 -0.000559708 -0.000103615
-0.000559708 0.00316442 3.24762e-05
-0.000103615 3.24762e-05 0.00160206
0.00338821 -0.00132142 2.56589e-05
-0.00132142 -0.000136716 -2.66929e-05
2.56589e-05 -2.66929e-05 -0.000591504
5.17468e-06 -0.000215665 -1.41186e-05
-0.000215665 8.64287e-06 1.70297e-05
-1.41186e-05 1.70297e-05 -0.000276241
0.00159187 -0.00046598 -3.72446e-06
-0.00046598 0.000317837 1.18386e-06
-3.72446e-06 1.18386e-06 0.000273379
0.00354592 -0.000580949 1.12427e-05
-0.000580949 0.00116135 -4.60856e-06
1.12427e-05 -4.60856e-06 0.00105053
-0.00145986 -0.000121645 -5.11422e-06
-0.000121645 -0.00109669 2.36457e-06
-5.11422e-06 2.36457e-06 -0.00137304
0.00130605 -0.000478802 -5.37877e-06
-0.000478802 7.38681e-05 -2.96931e-06
-5.37877e-06 -2.96931e-06 -0.000195807
0.00228274 -0.000601894 3.55212e-06
-0.000601894 0.000394104 -9.45087e-07
3.55212e-06 -9.45087e-07 0.000162388
0.00133196 -0.000412393 -1.56106e-05
-0.000412393 0.000222924 -1.82243e-06
-1.56106e-05 -1.82243e-06 -0.000150631
0.00154253 -0.000510479 4.58753e-08
-0.000510479 0.000142918 3.33554e-07
4.58753e-08 3.33554e-07 -0.000168522
0.00159974 -0.000454452 8.66106e-07
-0.000454452 -6.26043e-06 -5.75179e-06
8.66106e-07 -5.75179e-06 -0.000211809
0.00126484 -0.000438857 -4.07801e-06
-0.000438857 7.98407e-05 -5.15344e-07
-4.07801e-06 -5.15344e-07 -0.000267531
0.00163566 -0.000438029 -4.39591e-07
-0.000438029 0.00016118 6.12238e-07
-4.39591e-07 6.12238e-07 -9.76103e-05
0.00174891 -0.000365229 -1.64326e-06
-0.000365229 9.74886e-05 -5.19555e-06
-1.64326e-06 -5.19555e-06 -7.10527e-05
0.0016417 -0.000292363 -4.46486e-06
-0.000292363 4.92726e-05 -2.89337e-06
-4.46486e-06 -2.89337e-06 -9.76953e-05
0.00154018 -0.000359102 -3.40986e-06
-0.000359102 5.90402e-05 -2.13517e-06
-3.40986e-06 -2.13517e-06 -0.00015483
0.00164129 -0.000360103 1.06877e-06
-0.000360103 0.000105212 1.6651e-06
1.06877e-06 1.6651e-06 -9.85771e-05
0.00146214 -0.000382465 -2.46809e-06
-0.000382465 0.000139783 -8.64728e-07
-2.46809e-06 -8.64728e-07 -0.000112447
0.00168085 -0.000444568 1.6603e-06
-0.000444568 0.000227904 -2.07402e-07
1.6603e-06 -2.07402e-07 -3.96055e-05
0.00165874 -0.000436528 1.70213e-06
-0.000436528 0.000228751 1.74087e-07
1.70213e-06 1.74087e-07 -3.88148e-05
0.00143659 -0.00031517 -1.75833e-06
-0.00031517 0.000269275 1.60963e-06
-1.75833e-06 1.60963e-06 3.69661e-05
0.00152841 -0.00037547 1.10885e-06
-0.00037547 0.000272808 -5.56625e-07
1.10885e-06 -5.56625e-07 1.25652e-05
0.00172047 -0.000454248 -2.35567e-06
-0.000454248 0.000357191 -1.67972e-06
-2.35567e-06 -1.67972e-06 5.73775e-05
0.000931909 -0.000218928 -1.57659e-06
-0.000218928 0.000111248 2.70202e-06
-1.57659e-06 2.70202e-06 -8.91822e-05
0.0011998 -0.000271962 1.31007e-06
-0.000271962 0.000214471 4.39018e-07
1.31007e-06 4.39018e-07 -8.13209e-06
0.00103202 -0.000274005 -9.0619e-07
-0.000274005 9.05504e-05 -3.55386e-06
-9.0619e-07 -3.55386e-06 -0.000128511
0.000680736 -9.0302e-05 -7.68581e-07
-9.0302e-05 6.87858e-05 5.36773e-06
-7.68581e-07 5.36773e-06 -8.01147e-05
0.000989444 -0.000194258 1.13028e-08
-0.000194258 0.000232976 1.10372e-08
1.13028e-08 1.10372e-08 3.50363e-05
0.000503072 -0.000178955 -3.82572e-06
-0.000178955 -9.13899e-05 -7.86654e-07
-3.82572e-06 -7.86654e-07 -0.000298394
0.000380441 3.71429e-05 -4.74471e-07
3.71429e-05 -9.81142e-05 8.28862e-06
-4.74471e-07 8.28862e-06 -0.000144289
0.000694007 -5.71205e-05 -7.18523e-07
-5.71205e-05 8.97584e-05 -5.0377e-07
-7.18523e-07 -5.0377e-07 -3.14695e-05
0.00129146 -0.00013211 9.27601e-07
-0.00013211 0.000479818 -1.70483e-06
9.27601e-07 -1.70483e-06 0.000288413
0.00270353 0.000148074 -6.28773e-06
0.000148074 0.00130053 2.01545e-06
-6.28773e-06 2.01545e-06 0.00129164
0.000518231 4.86885e-05 -3.24175e-07
4.86885e-05 -2.1139e-05 -2.22157e-07
-3.24175e-07 -2.22157e-07 -5.77421e-05
0.000833874 -3.35896e-05 2.41026e-06
-3.35896e-05 0.000162792 -4.30909e-06
2.41026e-06 -4.30909e-06 7.3342e-05
0.00256129 0.000117155 4.12291e-06
0.000117155 0.00120499 3.33017e-07
4.12291e-06 3.33017e-07 0.00120551
0.000560881 5.22007e-05 1.33899e-07
5.22007e-05 -1.63386e-06 -5.83743e-06
1.33899e-07 -5.83743e-06 -3.20472e-05
0.00251599 0.000105809 2.92312e-05
0.000105809 0.00117125 -3.3785e-06
2.92312e-05 -3.3785e-06 0.00117447
0.00088867 0.000127071 1.01308e-06
0.000127071 0.000197538 2.17217e-06
1.01308e-06 2.17217e-06 5.76784e-05
0.000775324 7.52518e-05 6.08682e-08
7.52518e-05 0.000140248 -4.07437e-08
6.08682e-08 -4.07437e-08 1.19171e-05
0.000811163 6.53867e-05 1.75728e-07
6.53867e-05 0.000180326 -2.65908e-06
1.75728e-07 -2.65908e-06 4.23781e-05
0.000651602 7.09178e-06 -6.60042e-07
7.09178e-06 4.82859e-05 -3.81615e-06
-6.60042e-07 -3.81615e-06 -3.29219e-05
0.000715445 4.75705e-05 2.91088e-07
4.75705e-05 0.000111341 2.59244e-07
2.91088e-07 2.59244e-07 -9.6231e-06
0.000558944 6.37011e-05 9.16765e-07
6.37011e-05 1.47471e-05 1.38295e-06
9.16765e-07 1.38295e-06 -0.000112494
0.000550188 -2.15851e-05 -1.44944e-06
-2.15851e-05 -2.66379e-05 -6.17618e-06
-1.44944e-06 -6.17618e-06 -5.49308e-05
0.000623439 1.48019e-05 -2.96964e-08
1.48019e-05 2.97714e-05 -8.55682e-08
-2.96964e-08 -8.55682e-08 -4.59784e-05
0.000685659 6.18926e-05 1.7981e-07
6.18926e-05 8.71493e-05 1.45647e-06
1.7981e-07 1.45647e-06 -2.1588e-05
0.0026252 -8.2707e-05 -3.56304e-05
-8.2707e-05 0.0012195 -4.2377e-06
-3.56304e-05 -4.2377e-06 0.00122774
0.000521534 -2.16899e-05 -3.7218e-08
-2.16899e-05 -4.78873e-05 -1.0428e-07
-3.7218e-08 -1.0428e-07 -7.16538e-05
0.000613683 2.49106e-05 1.73261e-07
2.49106e-05 2.24605e-05 2.89012e-06
1.73261e-07 2.89012e-06 -4.72157e-05
0.00246018 -6.69648e-05 -4.87028e-06
-6.69648e-05 0.0011149 3.0685e-07
-4.87028e-06 3.0685e-07 0.00112632
0.000528163 -2.26097e-05 -8.98156e-07
-2.26097e-05 -4.81024e-05 4.87032e-06
-8.98156e-07 4.87032e-06 -6.76139e-05
0.00231253 -5.05187e-05 2.03261e-05
-5.05187e-05 0.00102222 4.51147e-06
2.03261e-05 4.51147e-06 0.00103664
-0.00614547 0.000310764 -9.08845e-06
0.000310764 0.0015157 4.65032e-05
-9.08845e-06 4.65032e-05 -0.00153363
0.00456227 2.91572e-05 -4.52581e-06
2.91572e-05 0.00213744 4.47098e-06
-4.52581e-06 4.47098e-06 0.000944061
0.000255653 -7.24186e-05 -7.87971e-06
-7.24186e-05 -3.97425e-05 -6.3435e-06
-7.87971e-06 -6.3435e-06 -2.05347e-06
0.00041248 7.19213e-05 -1.42035e-06
7.19213e-05 -9.08954e-05 1.44138e-06
-1.42035e-06 1.44138e-06 -0.000210708
0.00246251 0.000352055 9.02167e-08
0.000352055 0.00113984 3.87252e-06
9.02167e-08 3.87252e-06 0.000948092
0.000661582 7.40625e-05 -3.68646e-06
7.40625e-05 5.37174e-05 -2.77718e-07
-3.68646e-06 -2.77718e-07 -8.10602e-05
0.00102677 4.31836e-05 -8.93438e-07
4.31836e-05 0.000266961 -1.76808e-06
-8.93438e-07 -1.76808e-06 0.00014855
0.00135695 0.000136734 2.63802e-06
0.000136734 0.000455711 2.13078e-07
2.63802e-06 2.13078e-07 0.00032965
0.000367198 5.12554e-05 -2.61872e-06
5.12554e-05 -0.000109826 3.19218e-06
-2.61872e-06 3.19218e-06 -0.000227646
0.000525772 6.98711e-05 -1.14992e-06
6.98711e-05 2.89613e-05 1.23377e-06
-1.14992e-06 1.23377e-06 -0.000121963
0.000699414 8.49026e-05 -1.73188e-06
8.49026e-05 8.0012e-05 -2.09619e-06
-1.73188e-06 -2.09619e-06 -7.16969e-05
0.000964228 0.000160319 2.04347e-06
0.000160319 0.000276932 -4.59351e-06
2.04347e-06 -4.59351e-06 8.45325e-05
0.000565497 0.000238413 2.1916e-06
0.000238413 -4.77076e-05 -2.79837e-06
2.1916e-06 -2.79837e-06 -0.00015936
0.00100414 8.78194e-05 -2.92522e-06
8.78194e-05 0.000308328 5.02476e-07
-2.92522e-06 5.02476e-07 0.000161075
0.00106372 0.000146873 5.91372e-07
0.000146873 0.000390133 3.38553e-06
5.91372e-07 3.38553e-06 0.000236096
-0.00486694 -0.00101128 -0.000465867
-0.00101128 -0.000921089 -2.36301e-05
-0.000465867 -2.36301e-05 -0.00240224
-0.00322317 -0.00071811 0.000190468
-0.00071811 0.00176758 9.5604e-05
0.000190468 9.5604e-05 -0.000781182
0.00433578 0.000396686 -0.000163071
0.000396686 0.00206337 -7.80268e-05
-0.000163071 -7.80268e-05 -0.00130188
-0.0076324 -0.0028431 0.000664554
-0.0028431 -0.00285349 0.000519294
0.000664554 0.000519294 -0.00180332
0.0144045 -0.00165161 -4.7818e-05
-0.00165161 0.00441543 0.000153966
-4.7818e-05 0.000153966 0.00402499
-0.00158649 0.00110388 -5.07606e-06
0.00110388 0.000414389 -8.29659e-05
-5.07606e-06 -8.29659e-05 -0.00388383
0.00250766 1.90476e-06 -0.000135365
1.90476e-06 0.00116925 2.76377e-05
-0.000135365 2.76377e-05 0.00024493
0.0021925 0.000430215 2.98848e-06
0.000430215 0.00078589 2.55843e-05
2.98848e-06 2.55843e-05 0.000527034
0.010327 -0.00182711 -0.000200183
-0.00182711 0.00481853 5.61795e-05
-0.000200183 5.61795e-05 0.00445057
-0.000238695 0.0011976 -1.73757e-05
0.0011976 0.000535046 -3.19394e-05
-1.73757e-05 -3.19394e-05 -0.00293322
0.00187502 0.000853606 -3.30433e-05
0.000853606 0.000356066 -6.01644e-05
-3.30433e-05 -6.01644e-05 0.000352923
0.0042957 0.00176693 -0.000198924
0.00176693 0.000122528 -0.000112759
-0.000198924 -0.000112759 -0.00226114
0.00225733 0.00066571 1.75834e-05
0.00066571 0.0006333 -2.05536e-05
1.75834e-05 -2.05536e-05 0.000390217
0.000817929 0.000308538 -4.55523e-06
0.000308538 0.000170294 5.6281e-07
-4.55523e-06 5.6281e-07 3.35499e-05
0.00115283 0.000101817 -6.55057e-06
0.000101817 0.000444237 4.52661e-06
-6.55057e-06 4.52661e-06 0.000321651
-0.00104642 0.00021372 -4.85935e-05
0.00021372 -0.00041807 -4.88628e-05
-4.85935e-05 -4.88628e-05 -0.00105854
0.00262867 0.000478851 -2.29484e-05
0.000478851 0.00133352 -1.57772e-05
-2.29484e-05 -1.57772e-05 0.00108698
0.00128498 0.000656852 1.375e-05
0.000656852 0.000183985 -4.02903e-06
1.375e-05 -4.02903e-06 -0.00018223
0.00304766 0.00103259 0.000105577
0.00103259 0.000438922 3.32149e-05
0.000105577 3.32149e-05 0.000293813
-0.00484628 -0.000105213 -0.000298613
-0.000105213 -0.00390638 5.53548e-06
-0.000298613 5.53548e-06 -0.00270594
-0.00363223 0.000206239 0.000147372
0.000206239 0.00286913 2.68353e-06
0.000147372 2.68353e-06 -0.000116379
0.00223431 -5.8427e-05 -7.43114e-05
-5.8427e-05 0.00143456 3.08585e-05
-7.43114e-05 3.08585e-05 0.000197319
0.00202383 -0.000300737 -5.51391e-05
-0.000300737 0.000699819 -3.82234e-05
-5.51391e-05 -3.82234e-05 0.000661761
0.00133366 -0.00100543 -1.5968e-05
-0.00100543 -0.000100727 1.59181e-05
-1.5968e-05 1.59181e-05 -0.00047881
0.00150982 0.000148362 -1.96493e-05
0.000148362 0.00373756 3.22538e-05
-1.96493e-05 3.22538e-05 0.00228329
0.00281557 -0.00106025 0.000190022
-0.00106025 2.67875e-05 -0.000134895
0.000190022 -0.000134895 -0.00248581
0.0113055 0.00133692 0.000171141
0.00133692 0.00525991 -6.12604e-06
0.000171141 -6.12604e-06 0.00428048
0.00265896 -0.000841722 -2.22355e-05
-0.000841722 0.000666022 7.32123e-06
-2.22355e-05 7.32123e-06 0.000495435
-0.000358057 0.000614732 9.40554e-05
0.000614732 -0.000429212 -2.32528e-05
9.40554e-05 -2.32528e-05 -0.00108944
0.00510927 -0.00051873 -6.21538e-05
-0.00051873 -0.000527055 6.09356e-05
-6.21538e-05 6.09356e-05 -0.00270235
0.00571143 -0.00145978 -3.5207e-05
-0.00145978 0.00109058 1.69551e-05
-3.5207e-05 1.69551e-05 0.000581647
0.00142549 -0.000587868 4.79696e-05
-0.000587868 -8.5167e-06 -1.15341e-05
4.79696e-05 -1.15341e-05 -0.000217359
0.0106024 -0.000479253 7.51573e-06
-0.000479253 0.00250415 -2.70112e-05
7.51573e-06 -2.70112e-05 0.000965669
0.0036487 -0.000776983 7.74449e-05
-0.000776983 -0.000698491 -4.51338e-05
7.74449e-05 -4.51338e-05 -0.000510158
-0.000972665 -0.000269319 -2.3894e-05
-0.000269319 -0.00113304 1.1844e-05
-2.3894e-05 1.1844e-05 -0.00107468
0.000389259 -0.000360421 -1.06509e-05
-0.000360421 -0.000559913 -9.87906e-07
-1.06509e-05 -9.87906e-07 -0.000594282
0.00359747 -0.000602662 3.18918e-05
-0.000602662 0.000944535 -1.85515e-05
3.18918e-05 -1.85515e-05 0.00088428
0.000392162 -0.000383105 -1.39226e-05
-0.000383105 -0.000370771 -7.6601e-06
-1.39226e-05 -7.6601e-06 -0.000642464
0.00176491 -0.00054969 1.87276e-08
-0.00054969 0.000134136 -8.2588e-07
1.87276e-08 -8.2588e-07 -8.51039e-05
0.00220999 -0.0005028 -7.13464e-07
-0.0005028 0.000183285 -8.83891e-07
-7.13464e-07 -8.83891e-07 4.23407e-05
0.00156534 -0.000501937 -2.91618e-06
-0.000501937 0.000159777 4.13843e-06
-2.91618e-06 4.13843e-06 -0.000155399
0.00184377 -0.000471856 -2.04633e-06
-0.000471856 0.000125203 7.52678e-07
-2.04633e-06 7.52678e-07 -8.50192e-05
0.00189739 -0.000368005 1.68439e-07
-0.000368005 7.35556e-05 -9.6092e-07
1.68439e-07 -9.6092e-07 -5.19765e-05
0.00126338 -0.000400843 3.73275e-06
-0.000400843 -4.3174e-05 4.46301e-06
3.73275e-06 4.46301e-06 -0.000294879
0.00173046 -0.000357152 -1.55329e-07
-0.000357152 9.46743e-05 9.85143e-07
-1.55329e-07 9.85143e-07 -7.20757e-05
0.00178918 -0.00030271 -3.46087e-06
-0.00030271 7.55248e-05 -1.22434e-06
-3.46087e-06 -1.22434e-06 -3.98346e-05
0.00199062 -0.000287738 -3.01769e-06
-0.000287738 0.000257788 -4.60413e-07
-3.01769e-06 -4.60413e-07 0.000139413
0.0017219 -0.000294939 -2.51683e-06
-0.000294939 9.09222e-05 3.15751e-06
-2.51683e-06 3.15751e-06 -5.1478e-05
0.00176086 -0.000309869 -1.64292e-06
-0.000309869 0.000152098 -5.40975e-06
-1.64292e-06 -5.40975e-06 -1.00372e-05
0.00168304 -0.000358748 -4.22061e-06
-0.000358748 0.000179853 -1.9337e-06
-4.22061e-06 -1.9337e-06 -3.71298e-05
0.00168334 -0.000369175 1.24227e-06
-0.000369175 0.000142946 4.50178e-07
1.24227e-06 4.50178e-07 -7.17873e-05
0.00160495 -0.000349319 3.91599e-06
-0.000349319 9.05826e-05 5.92493e-06
3.91599e-06 5.92493e-06 -0.000107899
0.00150683 -0.000335437 -6.51221e-06
-0.000335437 0.000230472 1.6503e-06
-6.51221e-06 1.6503e-06 -2.17309e-06
0.00146021 -0.000383245 -4.6835e-07
-0.000383245 0.000134311 2.82888e-07
-4.6835e-07 2.82888e-07 -0.000118108
0.00175616 -0.00044572 2.81611e-06
-0.00044572 0.000280777 4.85848e-07
2.81611e-06 4.85848e-07 1.5517e-05
0.00109259 -0.000242672 -4.34343e-06
-0.000242672 0.000126316 3.51417e-06
-4.34343e-06 3.51417e-06 -8.01412e-05
0.00131096 -0.000305242 3.02952e-07
-0.000305242 0.000192743 2.94244e-07
3.02952e-07 2.94244e-07 -3.8707e-05
0.00136082 -0.000362822 2.33032e-06
-0.000362822 0.000176423 -2.14459e-06
2.33032e-06 -2.14459e-06 -8.1231e-05
0.000815159 -0.000156739 -5.51703e-06
-0.000156739 0.000107834 5.0323e-06
-5.51703e-06 5.0323e-06 -5.86714e-05
0.00109359 -0.000233759 8.37225e-07
-0.000233759 0.00020727 -2.67849e-07
8.37225e-07 -2.67849e-07 4.01791e-06
0.00105299 -0.000258575 1.18086e-06
-0.000258575 0.000122016 -1.70899e-06
1.18086e-06 -1.70899e-06 -9.80381e-05
0.000349484 -1.91591e-05 -6.17412e-06
-1.91591e-05 -0.000135109 1.12673e-05
-6.17412e-06 1.12673e-05 -0.000191325
0.000716425 -0.000113148 5.81965e-07
-0.000113148 9.42238e-05 6.6588e-07
5.81965e-07 6.6588e-07 -6.20553e-05
0.00132103 -0.000214499 4.18911e-07
-0.000214499 0.000428548 -1.30488e-06
4.18911e-07 -1.30488e-06 0.000224763
0.00307872 0.000154999 -5.06488e-05
0.000154999 0.00152815 2.42886e-06
-5.06488e-05 2.42886e-06 0.00151855
0.000524305 2.2238e-05 -2.05089e-07
2.2238e-05 -1.87261e-05 -6.41966e-07
-2.05089e-07 -6.41966e-07 -6.41144e-05
0.00107543 -0.000104095 2.24187e-06
-0.000104095 0.000317858 -5.11986e-06
2.24187e-06 -5.11986e-06 0.000188454
0.00183602 0.000104189 2.4501e-05
0.000104189 0.000776175 4.45435e-07
2.4501e-05 4.45435e-07 0.000768738
0.000615793 4.17996e-05 1.9232e-06
4.17996e-05 3.46592e-05 -7.01724e-06
1.9232e-06 -7.01724e-06 -1.18429e-06
0.00266512 0.000119249 3.98829e-05
0.000119249 0.0012671 -2.79707e-06
3.98829e-05 -2.79707e-06 0.00126729
0.000900082 0.000139236 3.80286e-06
0.000139236 0.000179224 9.2639e-07
3.80286e-06 9.2639e-07 4.08882e-05
0.000552059 7.50097e-05 -2.06802e-07
7.50097e-05 -7.28892e-06 1.87381e-07
-2.06802e-07 1.87381e-07 -0.000133093
0.000635498 5.45213e-05 -3.43618e-07
5.45213e-05 5.23937e-05 -1.54961e-06
-3.43618e-07 -1.54961e-06 -7.59008e-05
0.000922868 9.78086e-05 5.46116e-07
9.78086e-05 0.000231219 4.87137e-07
5.46116e-07 4.87137e-07 9.71859e-05
0.000707155 4.08143e-05 2.15857e-07
4.08143e-05 9.81336e-05 4.91064e-08
2.15857e-07 4.91064e-08 -2.36678e-05
0.000665993 1.14199e-05 -1.05909e-06
1.14199e-05 5.82529e-05 -4.53801e-06
-1.05909e-06 -4.53801e-06 -3.01276e-05
0.000561523 -2.26772e-05 -2.16344e-06
-2.26772e-05 -1.3602e-05 -7.04164e-06
-2.16344e-06 -7.04164e-06 -4.6401e-05
0.00061472 7.43481e-06 2.44899e-07
7.43481e-06 2.77229e-05 -7.42872e-08
2.44899e-07 -7.42872e-08 -5.41343e-05
0.00063486 2.06197e-05 -4.14888e-07
2.06197e-05 4.2439e-05 1.8638e-06
-4.14888e-07 1.8638e-06 -6.29369e-05
0.00272802 -9.62158e-05 -4.47108e-05
-9.62158e-05 0.00128745 -3.92472e-06
-4.47108e-05 -3.92472e-06 0.0012929
0.00052027 -1.91769e-05 -5.69528e-08
-1.91769e-05 -4.35948e-05 -8.58401e-08
-5.69528e-08 -8.58401e-08 -7.16805e-05
0.000595235 1.87163e-05 5.32111e-07
1.87163e-05 1.67451e-05 3.18733e-06
5.32111e-07 3.18733e-06 -6.04722e-05
0.0025938 -8.22384e-05 -5.19028e-06
-8.22384e-05 0.00120024 3.52521e-07
-5.19028e-06 3.52521e-07 0.00120861
0.000510299 -2.56288e-05 -1.93022e-07
-2.56288e-05 -5.42845e-05 5.49311e-06
-1.93022e-07 5.49311e-06 -7.8106e-05
0.0024642 -6.63246e-05 2.54206e-05
-6.63246e-05 0.00111688 4.44646e-06
2.54206e-05 4.44646e-06 0.00112841
3.2984e-05 0.000319373 -0.000255687
0.000319373 0.00184667 2.02631e-05
-0.000255687 2.02631e-05 0.000623728
-0.00305269 1.8629e-05 1.74082e-05
1.8629e-05 0.00208401 1.39871e-05
1.74082e-05 1.39871e-05 -0.000985185
0.00425303 -2.88054e-05 -7.63293e-05
-2.88054e-05 0.00221882 -9.34888e-06
-7.63293e-05 -9.34888e-06 0.00102124
0.000481027 4.57228e-05 2.54306e-06
4.57228e-05 -5.33195e-05 -2.31286e-06
2.54306e-06 -2.31286e-06 -0.000167437
0.000641235 5.40478e-05 2.71264e-06
5.40478e-05 3.80406e-05 1.05622e-06
2.71264e-06 1.05622e-06 -0.000102003
0.00166053 0.000269444 -1.53773e-06
0.000269444 0.000668354 1.02995e-06
-1.53773e-06 1.02995e-06 0.000496014
0.00133065 0.000291995 3.3089e-06
0.000291995 0.000378806 -2.40618e-06
3.3089e-06 -2.40618e-06 0.000157595
0.00104453 0.000208842 -6.27967e-06
0.000208842 0.000333374 -2.57617e-07
-6.27967e-06 -2.57617e-07 0.000150692
0.000912504 0.000120606 4.49479e-07
0.000120606 0.00025989 3.1055e-06
4.49479e-07 3.1055e-06 0.00010084
0.000818457 0.000107418 4.8131e-06
0.000107418 0.00016094 3.35462e-06
4.8131e-06 3.35462e-06 9.99589e-06
0.000611335 0.000162813 -4.68183e-06
0.000162813 8.2968e-05 -3.39694e-06
-4.68183e-06 -3.39694e-06 -0.000103626
-0.000393346 0.000148301 7.3575e-07
0.000148301 -0.000570658 -5.83677e-07
7.3575e-07 -5.83677e-07 -0.0007542
0.00163076 0.000347975 3.75798e-06
0.000347975 0.000483212 -2.75642e-06
3.75798e-06 -2.75642e-06 0.00035195
0.00202862 0.000563867 5.41565e-06
0.000563867 0.000426752 -7.3679e-06
5.41565e-06 -7.3679e-06 0.000217396
0.000818021 0.000266075 -5.92875e-06
0.000266075 0.000111021 -6.70494e-07
-5.92875e-06 -6.70494e-07 -1.29765e-05
0.000737224 0.000106331 -1.90812e-06
0.000106331 0.000149981 -2.45972e-06
-1.90812e-06 -2.45972e-06 8.81541e-06
0.0115932 0.000965139 -0.000100457
0.000965139 0.0027582 3.96858e-05
-0.000100457 3.96858e-05 0.00128604
-0.000101356 -0.000800771 -0.000218144
-0.000800771 0.00223782 -7.48209e-05
-0.000218144 -7.48209e-05 0.000664759
-0.00143266 -0.00115292 0.000132153
-0.00115292 0.00176431 3.33161e-06
0.000132153 3.33161e-06 -0.000826499
-0.00101276 -0.00102026 4.69962e-05
-0.00102026 -9.89824e-05 0.000173936
4.69962e-05 0.000173936 -0.0005304
0.0112903 0.00135756 -3.64013e-06
0.00135756 0.00493617 2.34036e-06
-3.64013e-06 2.34036e-06 0.00162662
-0.000159244 0.000297798 -2.6724e-05
0.000297798 -0.000342806 -2.56272e-05
-2.6724e-05 -2.56272e-05 -0.000523594
0.00162955 0.000793718 -2.40229e-05
0.000793718 0.000329602 -1.20402e-05
-2.40229e-05 -1.20402e-05 0.000315742
0.0109936 0.00120646 2.5465e-05
0.00120646 0.00346296 2.3751e-05
2.5465e-05 2.3751e-05 0.00145633
0.00587876 0.00163506 -4.40856e-05
0.00163506 0.000897061 -5.32054e-05
-4.40856e-05 -5.32054e-05 0.000498141
0.00161621 0.00067604 3.82863e-06
0.00067604 0.000148332 -6.52223e-06
3.82863e-06 -6.52223e-06 -2.66213e-05
0.00112543 0.0005111 5.92109e-06
0.0005111 0.000160853 -5.86502e-07
5.92109e-06 -5.86502e-07 -6.53695e-05
0.000925561 0.000286587 -1.77648e-05
0.000286587 0.000250001 1.74822e-05
-1.77648e-05 1.74822e-05 0.000123223
0.00268088 0.000823937 -4.70718e-05
0.000823937 0.000782278 -1.98702e-05
-4.70718e-05 -1.98702e-05 0.000430222
0.00198588 0.00093761 1.34665e-06
0.00093761 -0.000218257 1.96051e-05
1.34665e-06 1.96051e-05 -0.000364871
0.00103425 -0.000362222 -3.88612e-05
-0.000362222 -0.00328297 2.31174e-05
-3.88612e-05 2.31174e-05 -0.00350849
0.00205519 -0.000550006 -4.20849e-07
-0.000550006 0.00127221 -2.31487e-05
-4.20849e-07 -2.31487e-05 0.00134412
-0.00587985 2.55204e-05 0.000171264
2.55204e-05 0.00233762 -5.24668e-06
0.000171264 -5.24668e-06 -0.000807724
0.00177965 -0.000866977 -3.05051e-05
-0.000866977 0.000123585 6.97363e-06
-3.05051e-05 6.97363e-06 -0.000147513
0.00332186 -0.00130768 3.15659e-05
-0.00130768 0.000491322 -3.80634e-06
3.15659e-05 -3.80634e-06 -0.000320848
0.00124159 -0.000300603 0.000292511
-0.000300603 0.00215164 -2.57456e-05
0.000292511 -2.57456e-05 0.00114937
0.0128246 -0.000643558 -0.000148728
-0.000643558 0.00346567 6.95642e-05
-0.000148728 6.95642e-05 0.00186165
0.00103783 -0.000585074 -2.92201e-05
-0.000585074 -0.000237413 -2.93699e-06
-2.92201e-05 -2.93699e-06 -0.000396245
0.00884943 5.32375e-05 -7.23232e-05
5.32375e-05 0.000958087 3.1499e-05
-7.23232e-05 3.1499e-05 -0.000109041
0.00483256 -0.000854141 7.99964e-05
-0.000854141 -0.000118127 6.34785e-06
7.99964e-05 6.34785e-06 -0.000329103
0.00362659 -0.000596865 5.67705e-05
-0.000596865 0.0010005 -1.43531e-05
5.67705e-05 -1.43531e-05 0.00067813
0.00326993 -0.000313337 -8.97027e-05
-0.000313337 -0.000173475 7.01163e-06
-8.97027e-05 7.01163e-06 -8.78537e-05
-0.00228176 -0.000187126 -1.39034e-05
-0.000187126 -0.00203774 5.12114e-06
-1.39034e-05 5.12114e-06 -0.00199581
0.00151543 -0.000472152 -1.0886e-06
-0.000472152 -0.000166298 -5.56286e-07
-1.0886e-06 -5.56286e-07 -0.000195838
0.00246547 -0.000421896 1.79268e-05
-0.000421896 0.000196172 -9.66041e-06
1.79268e-05 -9.66041e-06 0.000229507
0.00114427 -0.000492773 -2.7018e-06
-0.000492773 -0.000176803 3.08627e-06
-2.7018e-06 3.08627e-06 -0.000384841
0.00181018 -0.000463823 -2.02976e-06
-0.000463823 -7.39349e-06 5.55707e-07
-2.02976e-06 5.55707e-07 -0.000144584
0.00203717 -0.000367454 2.028e-06
-0.000367454 1.41084e-05 9.73113e-07
2.028e-06 9.73113e-07 -3.74248e-05
0.00188846 -0.000472388 -4.56009e-06
-0.000472388 0.000152504 6.49519e-06
-4.56009e-06 6.49519e-06 -6.03247e-05
0.00187476 -0.000365931 3.79855e-07
-0.000365931 6.1479e-05 1.77141e-06
3.79855e-07 1.77141e-06 -6.21053e-05
0.00188511 -0.00032672 -3.05047e-07
-0.00032672 7.36562e-05 2.0357e-06
-3.05047e-07 2.0357e-06 -1.31422e-05
0.00169442 -0.000349052 3.68974e-06
-0.000349052 8.06352e-05 5.71388e-06
3.68974e-06 5.71388e-06 -8.44376e-05
0.00177176 -0.00030471 -4.33027e-07
-0.00030471 6.38672e-05 1.43171e-06
-4.33027e-07 1.43171e-06 -5.25747e-05
0.00200704 -0.000309465 -1.20839e-06
-0.000309465 0.000211602 5.42583e-07
-1.20839e-06 5.42583e-07 0.000106788
0.00184999 -0.000282216 -4.00877e-06
-0.000282216 0.000166862 3.49046e-06
-4.00877e-06 3.49046e-06 5.21084e-05
0.00188226 -0.00029291 1.19767e-06
-0.00029291 0.000215592 -3.08064e-06
1.19767e-06 -3.08064e-06 8.38768e-05
0.00180021 -0.000297986 3.05983e-06
-0.000297986 0.000131599 7.80954e-06
3.05983e-06 7.80954e-06 -6.38119e-06
0.00176463 -0.000311076 3.24946e-07
-0.000311076 0.000153176 -8.12011e-07
3.24946e-07 -8.12011e-07 -9.52452e-06
0.00169399 -0.000309756 -1.64254e-06
-0.000309756 0.000144995 -3.35075e-06
-1.64254e-06 -3.35075e-06 -3.46567e-05
0.00159673 -0.000322487 -5.3264e-06
-0.000322487 0.00019985 -8.19207e-07
-5.3264e-06 -8.19207e-07 -1.41105e-05
0.00172492 -0.000362604 2.90056e-07
-0.000362604 0.00020576 -2.92093e-07
2.90056e-07 -2.92093e-07 -1.25527e-05
0.00182144 -0.000378966 4.45537e-06
-0.000378966 0.000224512 2.78849e-06
4.45537e-06 2.78849e-06 8.93973e-06
0.00113309 -0.000243336 -7.21403e-06
-0.000243336 8.07414e-05 2.52774e-06
-7.21403e-06 2.52774e-06 -0.000119246
0.00137675 -0.000322857 -9.01195e-07
-0.000322857 0.000156598 2.55922e-07
-9.01195e-07 2.55922e-07 -7.45641e-05
0.00145019 -0.000382757 2.82695e-06
-0.000382757 0.000124321 5.55297e-07
2.82695e-06 5.55297e-07 -0.000127999
0.000828651 -0.000170101 -7.52218e-06
-0.000170101 4.60013e-05 6.48388e-06
-7.52218e-06 6.48388e-06 -0.000120837
0.00113711 -0.000246813 8.63935e-07
-0.000246813 0.000151573 4.78713e-07
8.63935e-07 4.78713e-07 -5.58891e-05
0.00111899 -0.000287805 3.18859e-06
-0.000287805 7.95563e-05 -1.4554e-06
3.18859e-06 -1.4554e-06 -0.000149451
0.000393809 -9.15515e-05 -1.62138e-05
-9.15515e-05 -0.000135766 1.31717e-05
-1.62138e-05 1.31717e-05 -0.000204284
0.00079202 -0.000169801 -4.73758e-07
-0.000169801 9.37482e-05 3.31469e-07
-4.73758e-07 3.31469e-07 -7.45348e-05
0.00115602 -0.000234475 2.03973e-06
-0.000234475 0.000244866 -2.01058e-06
2.03973e-06 -2.01058e-06 4.20835e-05
0.00378805 0.000174214 -8.08478e-05
0.000174214 0.00195365 2.92569e-06
-8.08478e-05 2.92569e-06 0.0019396
0.00054571 -3.91026e-05 1.21585e-06
-3.91026e-05 -2.27577e-05 -3.54477e-07
1.21585e-06 -3.54477e-07 -8.06801e-05
0.000865938 -0.000161443 4.88435e-06
-0.000161443 0.000183582 -4.6432e-06
4.88435e-06 -4.6432e-06 2.07436e-05
0.00329969 0.000145533 9.63338e-06
0.000145533 0.001656 3.70651e-07
9.63338e-06 3.70651e-07 0.00164963
0.000687311 4.3529e-06 6.83971e-06
4.3529e-06 7.23858e-05 -9.33509e-06
6.83971e-06 -9.33509e-06 2.71015e-05
0.00294459 0.000125912 6.32474e-05
0.000125912 0.00143785 -2.17778e-06
6.32474e-05 -2.17778e-06 0.00143696
0.00105407 0.000237681 4.38218e-06
0.000237681 0.000216219 -4.14183e-06
4.38218e-06 -4.14183e-06 1.38133e-05
0.000853664 0.00016405 1.27545e-06
0.00016405 0.000161142 -1.54224e-07
1.27545e-06 -1.54224e-07 1.43053e-05
0.000394355 6.00432e-05 6.35275e-07
6.00432e-05 -0.000101104 -7.55745e-07
6.35275e-07 -7.55745e-07 -0.000235426
0.0002195 3.45337e-05 -2.40194e-07
3.45337e-05 -0.000202901 -7.30462e-07
-2.40194e-07 -7.30462e-07 -0.000320046
0.000503261 2.59933e-05 -3.00651e-07
2.59933e-05 -2.95653e-05 6.96026e-07
-3.00651e-07 6.96026e-07 -0.000154244
0.000667669 1.96728e-05 -1.38653e-06
1.96728e-05 5.79729e-05 -4.71173e-06
-1.38653e-06 -4.71173e-06 -3.98255e-05
0.000603747 1.84942e-05 1.29401e-07
1.84942e-05 2.71597e-05 2.12233e-06
1.29401e-07 2.12233e-06 -8.58973e-05
0.000608053 4.61427e-06 3.18578e-07
4.61427e-06 2.59717e-05 -2.22973e-07
3.18578e-07 -2.22973e-07 -6.25043e-05
0.000567474 -2.5224e-05 -2.72079e-06
-2.5224e-05 -3.86806e-06 -7.92417e-06
-2.72079e-06 -7.92417e-06 -4.1157e-05
0.00287343 -0.000110962 -5.40621e-05
-0.000110962 0.00138278 -3.47021e-06
-5.40621e-05 -3.47021e-06 0.00138491
0.000513299 -2.14447e-05 1.89224e-07
-2.14447e-05 -4.20164e-05 -3.94865e-08
1.89224e-07 -3.94865e-08 -7.44751e-05
0.000579147 8.81931e-06 9.6171e-07
8.81931e-06 7.72974e-06 3.90488e-06
9.6171e-07 3.90488e-06 -7.45083e-05
0.00274462 -9.75561e-05 -5.61104e-06
-9.75561e-05 0.00129717 4.33614e-07
-5.61104e-06 4.33614e-07 0.00130222
0.000483891 -2.23112e-05 8.12259e-07
-2.23112e-05 -6.41523e-05 6.12886e-06
8.12259e-07 6.12886e-06 -9.22942e-05
0.00257234 -8.15454e-05 3.14761e-05
-8.15454e-05 0.00118667 4.29231e-06
3.14761e-05 4.29231e-06 0.00119525
0.0117971 0.000543234 0.000220429
0.000543234 0.00266824 6.11984e-05
0.000220429 6.11984e-05 0.00176909
-0.00329244 -0.00105277 -0.000156168
-0.00105277 -0.00257078 -2.26803e-05
-0.000156168 -2.26803e-05 -0.00292909
-0.00587364 0.000484093 -8.01929e-05
0.000484093 0.000972616 -4.46651e-05
-8.01929e-05 -4.46651e-05 -0.00266944
0.000548049 2.74222e-05 1.06227e-05
2.74222e-05 -2.34285e-05 1.42072e-06
1.06227e-05 1.42072e-06 -0.000167854
0.000962488 0.000202391 -4.25503e-06
0.000202391 0.000257185 1.03807e-06
-4.25503e-06 1.03807e-06 0.000102495
0.00135634 0.000232441 -6.44494e-07
0.000232441 0.000500592 -1.0653e-06
-6.44494e-07 -1.0653e-06 0.00031487
0.00143073 0.000298388 -4.40034e-06
0.000298388 0.000447368 1.24502e-06
-4.40034e-06 1.24502e-06 0.000226942
0.000725047 0.000272806 1.35368e-05
0.000272806 -0.000116233 1.95714e-06
1.35368e-05 1.95714e-06 -0.000358853
0.000114249 0.000185416 1.2023e-06
0.000185416 -0.000283534 -2.3974e-06
1.2023e-06 -2.3974e-06 -0.000475708
0.000288221 0.0001473 -3.52059e-06
0.0001473 -8.94015e-05 -2.64275e-06
-3.52059e-06 -2.64275e-06 -0.000271936
0.00032395 0.000226107 1.34965e-06
0.000226107 -0.000183707 1.83209e-06
1.34965e-06 1.83209e-06 -0.000390974
0.00114182 0.000319772 1.18633e-08
0.000319772 0.000223267 9.37964e-07
1.18633e-08 9.37964e-07 8.60281e-05
0.000728457 0.000338062 5.73809e-06
0.000338062 -0.000117937 2.07366e-06
5.73809e-06 2.07366e-06 -0.000312434
0.00311367 0.000619979 -2.39075e-06
0.000619979 0.000995346 -2.96343e-06
-2.39075e-06 -2.96343e-06 0.000805498
0.00206332 0.000594469 -3.16182e-06
0.000594469 0.000366577 5.7891e-06
-3.16182e-06 5.7891e-06 0.000171578
0.00142185 0.00050914 4.02192e-06
0.00050914 0.000112639 -3.4809e-06
4.02192e-06 -3.4809e-06 -7.60754e-05
0.000318947 0.000243304 -3.20127e-06
0.000243304 -0.000158175 1.63901e-06
-3.20127e-06 1.63901e-06 -0.00028736
0.00582344 0.000743012 -1.32745e-05
0.000743012 0.000290276 1.12665e-05
-1.32745e-05 1.12665e-05 0.000611496
0.00995088 0.000842432 0.000110561
0.000842432 0.00183161 5.51149e-05
0.000110561 5.51149e-05 0.000201206
0.00583904 -0.00161732 0.000123281
-0.00161732 0.00326345 -5.63966e-05
0.000123281 -5.63966e-05 0.00232985
0.00378834 0.00163547 0.000356996
0.00163547 -0.000119208 0.000174491
0.000356996 0.000174491 -0.00362834
0.000881298 0.000623214 -5.19433e-05
0.000623214 8.97914e-05 -5.12415e-06
-5.19433e-05 -5.12415e-06 0.000251235
0.00340622 0.00124592 -9.02807e-05
0.00124592 -9.33568e-05 -2.73084e-05
-9.02807e-05 -2.73084e-05 -0.000221349
0.00411483 0.00102964 4.38148e-05
0.00102964 0.000742462 2.02857e-05
4.38148e-05 2.02857e-05 0.000681741
0.00313781 0.000822565 9.92621e-06
0.000822565 0.000823823 5.6163e-06
9.92621e-06 5.6163e-06 0.000643369
0.000640203 0.000438661 -1.1173e-05
0.000438661 -4.37371e-05 1.83091e-05
-1.1173e-05 1.83091e-05 -0.000252968
0.00434711 0.00114804 -0.000129141
0.00114804 0.000895892 -2.59719e-05
-0.000129141 -2.59719e-05 0.000684568
0.00295763 -0.000238904 -5.70979e-05
-0.000238904 0.000367607 6.86244e-06
-5.70979e-05 6.86244e-06 0.00020954
0.0101315 -0.000311278 -1.3451e-05
-0.000311278 0.00247654 5.585e-06
-1.3451e-05 5.585e-06 0.00190591
-0.00972148 -0.000798452 0.000339651
-0.000798452 -0.00543835 -7.00678e-06
0.000339651 -7.00678e-06 -0.00507976
0.000317913 -0.000540876 -5.10684e-05
-0.000540876 -0.000690359 1.16493e-05
-5.10684e-05 1.16493e-05 -0.000791929
0.00715936 -0.00111577 0.000108026
-0.00111577 0.000937433 3.56789e-05
0.000108026 3.56789e-05 0.000851708
0.00153225 -0.000364879 -3.04275e-05
-0.000364879 -0.00223442 5.97111e-05
-3.04275e-05 5.97111e-05 -0.00380661
0.0016471 -0.000436417 1.71778e-05
-0.000436417 -0.000119356 1.36105e-06
1.71778e-05 1.36105e-06 -0.000257535
0.00300143 -0.000190262 -9.20799e-06
-0.000190262 -0.000360003 4.64436e-06
-9.20799e-06 4.64436e-06 -0.000356377
0.00435344 -0.000437958 2.5063e-05
-0.000437958 0.00101244 -1.09837e-05
2.5063e-05 -1.09837e-05 0.0011099
0.00368983 -0.000114087 7.06134e-05
-0.000114087 0.000857303 1.82135e-06
7.06134e-05 1.82135e-06 0.000814684
-0.000541319 -0.000356101 -7.2963e-06
-0.000356101 -0.00127567 7.73697e-06
-7.2963e-06 7.73697e-06 -0.00126512
0.00179259 -0.000389289 -3.90653e-07
-0.000389289 -0.000166476 4.77781e-07
-3.90653e-07 4.77781e-07 -0.00011993
0.0018505 -0.00027519 1.45931e-05
-0.00027519 -0.000207568 -3.30458e-06
1.45931e-05 -3.30458e-06 -8.25569e-05
0.00155369 -0.000437243 -1.80616e-07
-0.000437243 -0.00013115 2.26057e-06
-1.80616e-07 2.26057e-06 -0.000265745
0.0019782 -0.000366261 1.6712e-06
-0.000366261 -1.48672e-05 7.0641e-07
1.6712e-06 7.0641e-07 -6.71664e-05
0.00192272 -0.000302868 8.7813e-07
-0.000302868 2.79945e-05 9.21028e-07
8.7813e-07 9.21028e-07 3.71135e-06
0.0018517 -0.000363243 3.42344e-06
-0.000363243 4.89735e-05 3.78783e-06
3.42344e-06 3.78783e-06 -7.23435e-05
0.00186902 -0.000322242 7.38816e-07
-0.000322242 7.29777e-05 3.00938e-07
7.38816e-07 3.00938e-07 -1.27523e-05
0.00195018 -0.000291466 -2.59549e-06
-0.000291466 0.00013187 1.71997e-06
-2.59549e-06 1.71997e-06 5.19444e-05
0.00176247 -0.000306587 4.25774e-06
-0.000306587 5.72233e-05 3.44246e-06
4.25774e-06 3.44246e-06 -6.01733e-05
0.00184214 -0.000302263 2.64469e-07
-0.000302263 0.000123816 4.85179e-07
2.64469e-07 4.85179e-07 1.89582e-05
0.00170979 -0.000281069 2.73143e-06
-0.000281069 8.24081e-05 -1.46522e-06
2.73143e-06 -1.46522e-06 -3.11308e-05
0.00171199 -0.000276828 -1.68579e-06
-0.000276828 7.77067e-05 6.79992e-06
-1.68579e-06 6.79992e-06 -3.34811e-05
0.00189675 -0.000290034 -2.21467e-06
-0.000290034 0.000220935 1.83461e-07
-2.21467e-06 1.83461e-07 9.29431e-05
0.00182642 -0.00028733 5.13616e-07
-0.00028733 0.000205598 -1.99698e-06
5.13616e-07 -1.99698e-06 5.11497e-05
0.00176823 -0.000311686 2.70952e-06
-0.000311686 0.000154062 3.71605e-06
2.70952e-06 3.71605e-06 -9.03389e-06
0.0017374 -0.000313385 5.22655e-07
-0.000313385 0.000172025 -5.99979e-07
5.22655e-07 -5.99979e-07 -8.81313e-06
0.00172849 -0.000292345 -2.11466e-06
-0.000292345 0.000230165 -1.54851e-06
-2.11466e-06 -1.54851e-06 4.22883e-05
0.00117061 -0.000236376 -9.0194e-06
-0.000236376 4.82606e-05 2.46961e-06
-9.0194e-06 2.46961e-06 -0.000142954
0.00160175 -0.000323423 -9.55069e-07
-0.000323423 0.000206862 -2.93602e-07
-9.55069e-07 -2.93602e-07 -8.27341e-06
0.00176319 -0.000366071 4.10158e-06
-0.000366071 0.000230073 9.9948e-07
4.10158e-06 9.9948e-07 1.04795e-05
0.000912074 -0.000182332 -1.07745e-05
-0.000182332 3.34739e-05 6.38145e-06
-1.07745e-05 6.38145e-06 -0.00012998
0.00118357 -0.000248996 -2.38259e-07
-0.000248996 0.000105298 1.60769e-07
-2.38259e-07 1.60769e-07 -9.58205e-05
0.00128404 -0.00031423 2.18804e-06
-0.00031423 0.00010307 -4.26372e-07
2.18804e-06 -4.26372e-07 -0.000127373
0.000434404 -0.000121552 -1.87308e-05
-0.000121552 -0.000134335 1.41523e-05
-1.87308e-05 1.41523e-05 -0.000213672
0.000842101 -0.000175498 5.99795e-07
-0.000175498 5.64524e-05 4.80025e-07
5.99795e-07 4.80025e-07 -0.000111679
0.00119592 -0.00025252 6.41724e-06
-0.00025252 0.000184497 -2.36746e-06
6.41724e-06 -2.36746e-06 -2.41994e-05
0.00457947 0.000186045 -0.00012094
0.000186045 0.0024273 5.98432e-06
-0.00012094 5.98432e-06 0.00240909
0.000561222 -9.61819e-05 -7.99704e-08
-9.61819e-05 -3.67737e-05 -3.09287e-07
-7.99704e-08 -3.09287e-07 -0.000109364
0.000773488 -0.000182901 6.89429e-06
-0.000182901 8.04115e-05 -5.9605e-06
6.89429e-06 -5.9605e-06 -8.88499e-05
0.00402048 0.000145066 9.62728e-06
0.000145066 0.00208536 4.8577e-07
9.62728e-06 4.8577e-07 0.00207816
0.000713435 -4.87356e-05 1.23638e-05
-4.87356e-05 7.34169e-05 -1.14333e-05
1.23638e-05 -1.14333e-05 1.39839e-05
0.00347965 0.000111968 0.000107267
0.000111968 0.00175621 -4.59891e-06
0.000107267 -4.59891e-06 0.00175799
0.00135217 0.000290937 -3.77596e-06
0.000290937 0.000282464 -4.28772e-06
-3.77596e-06 -4.28772e-06 5.13013e-05
0.00142459 0.00027137 1.20273e-06
0.00027137 0.000440372 6.80871e-07
1.20273e-06 6.80871e-07 0.000231975
0.000648675 0.000154371 1.51016e-07
0.000154371 1.24633e-05 -5.8936e-06
1.51016e-07 -5.8936e-06 -0.00016464
0.000693307 0.000174099 -2.44923e-06
0.000174099 7.81492e-05 -2.86652e-07
-2.44923e-06 -2.86652e-07 -7.56197e-05
0.000401763 7.17103e-05 3.71885e-07
7.17103e-05 -9.72767e-05 -5.84697e-07
3.71885e-07 -5.84697e-07 -0.000236739
0.000782885 0.000100123 -2.83127e-06
0.000100123 0.000134223 -5.08313e-06
-2.83127e-06 -5.08313e-06 9.70966e-06
0.000358588 5.78432e-06 2.59189e-07
5.78432e-06 -0.000120502 1.62976e-06
2.59189e-07 1.62976e-06 -0.00024044
0.000631863 1.88702e-05 4.39078e-08
1.88702e-05 3.87071e-05 -2.50942e-07
4.39078e-08 -2.50942e-07 -5.92449e-05
0.00057722 -2.02414e-05 -3.66358e-06
-2.02414e-05 6.43374e-06 -8.85884e-06
-3.66358e-06 -8.85884e-06 -3.57096e-05
0.000560919 1.73897e-06 9.28416e-07
1.73897e-06 -1.52251e-06 4.51204e-06
9.28416e-07 4.51204e-06 -8.92487e-05
0.000510931 -2.28707e-05 2.82487e-07
-2.28707e-05 -3.70287e-05 -7.39242e-08
2.82487e-07 -7.39242e-08 -7.38601e-05
0.00300831 -0.000123167 -6.52207e-05
-0.000123167 0.00147212 -2.91676e-06
-6.52207e-05 -2.91676e-06 0.0014714
0.00284721 -0.000111726 -4.51669e-06
-0.000111726 0.00136657 4.42044e-07
-4.51669e-06 4.42044e-07 0.00136833
0.000479126 -1.41805e-05 2.96602e-06
-1.41805e-05 -6.2711e-05 7.0022e-06
2.96602e-06 7.0022e-06 -9.44658e-05
0.00269599 -9.68363e-05 3.86355e-05
-9.68363e-05 0.00126767 4.01983e-06
3.86355e-05 4.01983e-06 0.0012728
0.00361054 4.35511e-05 3.36248e-05
4.35511e-05 -0.000290915 1.22554e-05
3.36248e-05 1.22554e-05 -4.17566e-05
0.00306583 -0.000588814 7.09379e-05
-0.000588814 -0.00237855 3.26135e-05
7.09379e-05 3.26135e-05 -0.00346138
0.00808653 -0.00109569 -9.81771e-05
-0.00109569 0.00304236 -6.0522e-05
-9.81771e-05 -6.0522e-05 0.0033442
0.00116256 0.000341391 6.32043e-06
0.000341391 1.40591e-05 4.89767e-06
6.32043e-06 4.89767e-06 -0.000232449
0.0016323 0.000259454 1.2056e-06
0.000259454 0.0006472 1.85115e-06
1.2056e-06 1.85115e-06 0.000457567
0.00160521 0.000312864 -5.84374e-06
0.000312864 0.000560667 7.8448e-06
-5.84374e-06 7.8448e-06 0.000339163
0.000763703 0.000254267 1.5536e-06
0.000254267 8.44372e-05 2.61e-06
1.5536e-06 2.61e-06 -0.000123908
0.00123479 0.000321841 -1.2374e-06
0.000321841 0.000195249 -1.54473e-06
-1.2374e-06 -1.54473e-06 -5.92843e-05
0.00110756 0.000373461 8.05099e-06
0.000373461 7.90432e-05 6.18705e-06
8.05099e-06 6.18705e-06 -0.000148544
0.00105994 0.000305468 -7.65957e-06
0.000305468 0.000218271 -3.83559e-06
-7.65957e-06 -3.83559e-06 -1.35143e-05
0.000594206 0.000289109 3.13216e-06
0.000289109 -7.19342e-05 3.69951e-06
3.13216e-06 3.69951e-06 -0.000211987
0.00130935 0.000397727 2.45679e-06
0.000397727 0.000197788 -1.07575e-06
2.45679e-06 -1.07575e-06 -6.26014e-06
0.00219964 0.000539445 3.08176e-06
0.000539445 0.000491921 6.34803e-06
3.08176e-06 6.34803e-06 0.000321178
0.00171606 0.000532863 3.05521e-06
0.000532863 0.000143495 3.93627e-07
3.05521e-06 3.93627e-07 -6.0643e-05
0.0017351 0.000498618 6.73273e-06
0.000498618 0.00017137 8.46206e-06
6.73273e-06 8.46206e-06 3.18427e-05
0.00120818 0.000524394 -3.18707e-06
0.000524394 -8.93575e-05 -2.8414e-06
-3.18707e-06 -2.8414e-06 -0.000273669
0.000658408 0.000435895 -1.54547e-06
0.000435895 -0.000282554 -5.26639e-07
-1.54547e-06 -5.26639e-07 -0.000446128
0.0015639 0.00041428 3.16351e-05
0.00041428 -0.00026176 3.41899e-05
3.16351e-05 3.41899e-05 -0.000192025
0.00523221 0.000841158 -5.4215e-05
0.000841158 -0.000254087 -1.53337e-05
-5.4215e-05 -1.53337e-05 2.95311e-05
0.00224754 0.000525856 0.000307482
0.000525856 -0.00226401 4.07156e-05
0.000307482 4.07156e-05 -0.00408686
0.000341146 0.000906267 -2.48276e-05
0.000906267 -0.00134166 -2.57088e-05
-2.48276e-05 -2.57088e-05 -0.00139802
0.0028153 0.000827599 -2.63864e-05
0.000827599 0.000370741 -3.48196e-06
-2.63864e-05 -3.48196e-06 0.000296511
0.00268121 0.000770027 -6.86356e-05
0.000770027 0.000593357 -2.43807e-05
-6.86356e-05 -2.43807e-05 0.000409218
0.00233185 -0.000200009 -1.77493e-05
-0.000200009 -1.81976e-05 -1.00871e-05
-1.77493e-05 -1.00871e-05 4.89465e-07
0.000804641 -8.4127e-05 1.74683e-05
-8.4127e-05 -0.000271636 6.70355e-06
1.74683e-05 6.70355e-06 -0.000370786
0.00124649 0.000756903 9.87768e-05
0.000756903 -0.00329593 -2.00923e-05
9.87768e-05 -2.00923e-05 -0.00373456
-0.000478834 -0.000279557 -2.04574e-05
-0.000279557 -0.00127956 3.18651e-05
-2.04574e-05 3.18651e-05 -0.00123078
0.00392419 -0.0001652 -4.61405e-05
-0.0001652 9.01936e-05 3.76921e-05
-4.61405e-05 3.76921e-05 -0.00018705
0.00226111 -0.00031721 -1.70459e-05
-0.00031721 -6.13214e-05 6.20809e-06
-1.70459e-05 6.20809e-06 6.90241e-05
0.00322227 -0.000153866 -1.21609e-06
-0.000153866 0.000552748 -3.56413e-06
-1.21609e-06 -3.56413e-06 0.000509262
0.00159289 -0.000181274 3.27161e-05
-0.000181274 -0.000387242 -2.02927e-06
3.27161e-05 -2.02927e-06 -0.000224183
0.00329705 -4.35907e-05 2.64356e-05
-4.35907e-05 0.00099615 1.06022e-07
2.64356e-05 1.06022e-07 0.000956142
0.0011221 -0.000352234 -1.78226e-05
-0.000352234 -0.000516871 8.66727e-06
-1.78226e-05 8.66727e-06 -0.000460793
0.00181875 -0.000285757 3.73416e-07
-0.000285757 -0.000242438 2.16973e-06
3.73416e-07 2.16973e-06 -0.000129258
0.00200986 -0.000276214 2.0388e-06
-0.000276214 -6.58301e-05 -8.29644e-07
2.0388e-06 -8.29644e-07 9.07088e-06
0.00192594 -0.000363264 -4.29113e-07
-0.000363264 -3.56441e-05 1.8217e-06
-4.29113e-07 1.8217e-06 -8.86358e-05
0.00193057 -0.000308453 3.90833e-07
-0.000308453 3.20213e-05 5.93458e-08
3.90833e-07 5.93458e-08 3.02202e-06
0.00194671 -0.000272307 -1.81401e-06
-0.000272307 7.32027e-05 4.19461e-07
-1.81401e-06 4.19461e-07 2.27142e-05
0.00186775 -0.000319043 4.69359e-07
-0.000319043 8.0812e-05 2.35785e-07
4.69359e-07 2.35785e-07 -4.38384e-06
0.00186162 -0.000294103 -6.32609e-07
-0.000294103 8.56262e-05 6.26305e-08
-6.32609e-07 6.26305e-08 2.21975e-06
0.00179697 -0.00026003 -9.35841e-08
-0.00026003 9.83391e-05 3.79638e-07
-9.35841e-08 3.79638e-07 5.72673e-09
0.00166779 -0.00029452 4.47751e-07
-0.00029452 3.08579e-05 6.68503e-07
4.47751e-07 6.68503e-07 -7.4009e-05
0.00174301 -0.000282998 8.37921e-07
-0.000282998 9.98075e-05 -6.85275e-07
8.37921e-07 -6.85275e-07 -1.41589e-05
0.00176475 -0.000270256 1.7502e-06
-0.000270256 0.00013307 -2.07564e-06
1.7502e-06 -2.07564e-06 -9.68275e-07
0.00191014 -0.000286891 -4.45135e-06
-0.000286891 0.000226095 4.80001e-06
-4.45135e-06 4.80001e-06 0.000101865
0.00188828 -0.000288628 -1.3965e-06
-0.000288628 0.000238865 3.93811e-07
-1.3965e-06 3.93811e-07 8.79208e-05
0.00171992 -0.000265653 -1.33042e-06
-0.000265653 0.000195268 -1.23323e-06
-1.33042e-06 -1.23323e-06 2.45809e-05
0.00178227 -0.000317476 2.61291e-06
-0.000317476 0.000199838 1.9527e-06
2.61291e-06 1.9527e-06 1.77081e-05
0.00171385 -0.000293694 8.83388e-07
-0.000293694 0.000222338 -6.58304e-07
8.83388e-07 -6.58304e-07 3.33611e-05
0.00132536 -0.000224171 -7.23499e-06
-0.000224171 0.000100378 1.98819e-06
-7.23499e-06 1.98819e-06 -8.01636e-05
0.000902082 -0.000172144 -1.17521e-05
-0.000172144 -8.99988e-06 6.47032e-06
-1.17521e-05 6.47032e-06 -0.000164567
0.00120132 -0.000238683 -1.58749e-06
-0.000238683 6.69701e-05 3.97502e-07
-1.58749e-06 3.97502e-07 -0.000124824
0.00161167 -0.00032485 3.31379e-06
-0.00032485 0.000216718 -2.91189e-07
3.31379e-06 -2.91189e-07 3.22288e-07
0.000516574 -0.000178401 -2.17067e-05
-0.000178401 -9.1944e-05 1.47441e-05
-2.17067e-05 1.47441e-05 -0.000188197
0.00087296 -0.000180295 3.80381e-07
-0.000180295 1.25999e-05 1.73497e-08
3.80381e-07 1.73497e-08 -0.000150746
0.00122702 -0.000253953 6.99193e-06
-0.000253953 0.000126191 -2.36207e-06
6.99193e-06 -2.36207e-06 -7.59156e-05
0.00515695 0.000180824 -0.000147651
0.000180824 0.00276814 8.98501e-06
-0.000147651 8.98501e-06 0.00274834
0.000564199 -0.000159653 -1.11246e-06
-0.000159653 -5.2905e-05 1.40026e-07
-1.11246e-06 1.40026e-07 -0.000140858
0.000793253 -0.000178377 9.15465e-06
-0.000178377 3.03872e-05 -6.12135e-06
9.15465e-06 -6.12135e-06 -0.000138885
0.00475581 0.000157525 1.00699e-05
0.000157525 0.00252609 1.29052e-06
1.00699e-05 1.29052e-06 0.00251252
0.000730009 -0.000117526 1.83788e-05
-0.000117526 6.17898e-05 -1.37349e-05
1.83788e-05 -1.37349e-05 -1.49027e-05
0.00424493 0.000112311 0.000141971
0.000112311 0.00221108 -8.41142e-06
0.000141971 -8.41142e-06 0.00220959
0.00126632 0.000301711 -3.69327e-06
0.000301711 0.000136774 2.04523e-07
-3.69327e-06 2.04523e-07 -9.52549e-05
0.00118982 0.000274981 -2.12282e-06
0.000274981 0.000189218 -7.92806e-07
-2.12282e-06 -7.92806e-07 -3.88292e-05
0.00102749 0.000224269 -4.33515e-06
0.000224269 0.00015067 -2.28734e-06
-4.33515e-06 -2.28734e-06 -5.30057e-05
0.00178887 0.000304151 -2.67352e-06
0.000304151 0.000660839 3.50851e-06
-2.67352e-06 3.50851e-06 0.000446638
0.000892663 0.000176469 -1.29623e-06
0.000176469 0.000158612 -2.02988e-06
-1.29623e-06 -2.02988e-06 -2.282e-05
0.000959912 0.000153363 -4.0851e-06
0.000153363 0.000235253 -6.06515e-06
-4.0851e-06 -6.06515e-06 8.37817e-05
0.000465481 8.66289e-05 -4.58784e-07
8.66289e-05 -6.21022e-05 3.2065e-07
-4.58784e-07 3.2065e-07 -0.000206076
0.000662584 4.86345e-05 -6.48624e-07
4.86345e-05 5.53771e-05 -2.26173e-07
-6.48624e-07 -2.26173e-07 -5.88083e-05
0.000591946 -2.12754e-06 -6.23064e-06
-2.12754e-06 1.44971e-05 -9.91595e-06
-6.23064e-06 -9.91595e-06 -3.43476e-05
0.000544005 -3.48886e-07 9.45665e-07
-3.48886e-07 -1.17798e-05 4.8839e-06
9.45665e-07 4.8839e-06 -0.000108478
0.000500396 -2.37908e-05 3.9333e-07
-2.37908e-05 -3.73888e-05 -1.63226e-07
3.9333e-07 -1.63226e-07 -7.94926e-05
0.00321256 -0.000131087 -8.16175e-05
-0.000131087 0.00160187 -2.64598e-06
-8.16175e-05 -2.64598e-06 0.00159915
0.000458931 -2.0727e-05 3.12909e-06
-2.0727e-05 -6.75803e-05 7.77767e-06
3.12909e-06 7.77767e-06 -0.000103948
0.00298147 -0.000126467 -3.67137e-06
-0.000126467 0.001456 4.09027e-07
-3.67137e-06 4.09027e-07 0.00145416
0.00285211 -0.000112323 4.77749e-05
-0.000112323 0.00136906 3.68736e-06
4.77749e-05 3.68736e-06 0.00137055
0.000365355 5.7363e-05 1.69639e-05
5.7363e-05 -0.00101523 9.78597e-06
1.69639e-05 9.78597e-06 -0.000902765
0.00478491 3.64235e-05 5.50925e-05
3.64235e-05 0.00025232 1.35663e-06
5.50925e-05 1.35663e-06 0.000419613
0.0110087 0.000668999 -7.32835e-05
0.000668999 0.00297749 -1.62255e-05
-7.32835e-05 -1.62255e-05 0.00199277
0.00136874 0.000401225 3.10065e-06
0.000401225 9.78224e-05 2.87313e-06
3.10065e-06 2.87313e-06 -0.000136261
0.00176358 0.000421752 2.3828e-06
0.000421752 0.000250445 2.37161e-06
2.3828e-06 2.37161e-06 2.40801e-05
0.00122623 0.000354234 7.58155e-07
0.000354234 5.89898e-05 -1.86585e-06
7.58155e-07 -1.86585e-06 -0.000189085
0.00125611 0.000307947 -2.60087e-06
0.000307947 0.000358944 2.65338e-06
-2.60087e-06 2.65338e-06 0.000137692
0.00173951 0.00036933 -1.74942e-06
0.00036933 0.000503526 -1.16519e-06
-1.74942e-06 -1.16519e-06 0.000237479
0.00145591 0.000406961 7.20132e-06
0.000406961 0.000259285 1.02343e-06
7.20132e-06 1.02343e-06 2.83432e-05
0.0016901 0.000495279 -2.6169e-06
0.000495279 0.000107098 -1.4733e-06
-2.6169e-06 -1.4733e-06 -0.000105155
0.00194219 0.000462274 -6.82186e-06
0.000462274 0.000540225 6.23593e-07
-6.82186e-06 6.23593e-07 0.000326122
0.00119392 0.000453066 9.505e-06
0.000453066 -6.14463e-05 1.57945e-05
9.505e-06 1.57945e-05 -0.000213775
0.00219051 0.000568741 -2.67223e-06
0.000568741 0.000405574 7.74443e-07
-2.67223e-06 7.74443e-07 0.00019925
0.00192565 0.000496725 -9.95145e-06
0.000496725 0.000151298 1.10556e-06
-9.95145e-06 1.10556e-06 -1.77327e-05
0.000656284 0.000250469 1.65108e-05
0.000250469 -0.000515232 9.07614e-06
1.65108e-05 9.07614e-06 -0.000547379
0.000970369 0.000440257 1.0323e-05
0.000440257 -0.000218989 -2.29862e-07
1.0323e-05 -2.29862e-07 -0.000353773
0.00113907 0.000511061 -1.13407e-05
0.000511061 -0.000132281 -9.87473e-06
-1.13407e-05 -9.87473e-06 -0.000313685
0.00195831 0.000425731 3.8255e-06
0.000425731 -5.89545e-05 7.10646e-06
3.8255e-06 7.10646e-06 -3.99926e-05
0.00556738 0.000558564 2.75208e-05
0.000558564 -1.31585e-05 -2.13806e-05
2.75208e-05 -2.13806e-05 -5.127e-05
0.00291932 0.000725895 6.12194e-06
0.000725895 0.000692316 -3.22867e-05
6.12194e-06 -3.22867e-05 0.000633196
0.00149737 -4.4122e-05 2.4232e-05
-4.4122e-05 -2.78182e-05 -3.02437e-06
2.4232e-05 -3.02437e-06 -2.32024e-05
0.00217327 -0.000133859 -2.79308e-05
-0.000133859 -4.59022e-05 1.79666e-07
-2.79308e-05 1.79666e-07 -3.83654e-05
0.00156222 0.000190602 2.67024e-05
0.000190602 -0.00056172 -6.93531e-06
2.67024e-05 -6.93531e-06 -0.00071214
0.000202395 -0.000219081 -3.23256e-05
-0.000219081 -0.00113129 2.50845e-05
-3.23256e-05 2.50845e-05 -0.000985811
0.00329697 -0.00023031 -9.50833e-05
-0.00023031 0.000514102 -1.14127e-06
-9.50833e-05 -1.14127e-06 0.000511555
0.00191284 -0.000210687 4.11346e-06
-0.000210687 -0.000154209 -3.08824e-06
4.11346e-06 -3.08824e-06 -7.71048e-06
0.00233942 -6.11572e-05 -8.54917e-06
-6.11572e-05 0.000389882 3.98474e-07
-8.54917e-06 3.98474e-07 0.000355852
0.00207761 -0.00018933 4.58726e-06
-0.00018933 5.01364e-06 9.19828e-07
4.58726e-06 9.19828e-07 3.07456e-05
0.00204892 -2.27111e-05 5.88683e-06
-2.27111e-05 3.76015e-05 2.62279e-07
5.88683e-06 2.62279e-07 2.36126e-05
0.00181004 -0.000300658 -8.21397e-06
-0.000300658 -0.000273321 3.24507e-06
-8.21397e-06 3.24507e-06 -0.000169718
0.00203323 -0.000275005 -1.85955e-06
-0.000275005 -4.1076e-05 1.19998e-07
-1.85955e-06 1.19998e-07 1.98965e-05
0.00201524 -0.000211672 -1.70388e-06
-0.000211672 1.43655e-05 -5.24788e-07
-1.70388e-06 -5.24788e-07 3.25563e-06
0.00193885 -0.000313912 -1.71296e-06
-0.000313912 3.55019e-05 -5.83588e-07
-1.71296e-06 -5.83588e-07 1.95792e-06
0.0019211 -0.000267669 1.23325e-07
-0.000267669 6.86419e-05 8.1206e-09
1.23325e-07 8.1206e-09 1.27749e-05
0.00191638 -0.000237194 -1.50465e-06
-0.000237194 9.62875e-05 3.97091e-07
-1.50465e-06 3.97091e-07 1.70234e-05
0.00177971 -0.000296769 -9.94123e-07
-0.000296769 4.32908e-05 -1.22797e-06
-9.94123e-07 -1.22797e-06 -4.35277e-05
0.00178069 -0.000258968 4.58649e-07
-0.000258968 8.51834e-05 -1.74304e-07
4.58649e-07 -1.74304e-07 -1.34568e-05
0.00178016 -0.000243398 1.12939e-06
-0.000243398 0.000102491 -9.72187e-07
1.12939e-06 -9.72187e-07 -1.27086e-05
0.00177961 -0.000285114 -7.87705e-07
-0.000285114 0.000119102 8.31668e-08
-7.87705e-07 8.31668e-08 4.69766e-06
0.0017859 -0.000270622 -2.83191e-08
-0.000270622 0.000146372 -3.26589e-07
-2.83191e-08 -3.26589e-07 1.23128e-05
0.00167199 -0.000243545 -1.96491e-07
-0.000243545 0.000135261 -1.08298e-06
-1.96491e-07 -1.08298e-06 -2.18783e-05
0.0019507 -0.000290031 -1.75918e-06
-0.000290031 0.000272253 3.55952e-06
-1.75918e-06 3.55952e-06 0.000124806
0.00173327 -0.00026688 -6.46187e-07
-0.00026688 0.000203849 -1.05637e-07
-6.46187e-07 -1.05637e-07 3.40985e-05
0.00133894 -0.000203815 -6.3755e-06
-0.000203815 8.45025e-05 1.69371e-06
-6.3755e-06 1.69371e-06 -8.72657e-05
0.00169902 -0.000294954 4.15908e-06
-0.000294954 0.000214289 4.26672e-07
4.15908e-06 4.26672e-07 2.42254e-05
0.00132068 -0.000225104 -1.69339e-07
-0.000225104 9.79549e-05 -4.9213e-08
-1.69339e-07 -4.9213e-08 -8.26071e-05
0.000937683 -0.00015694 -1.30968e-05
-0.00015694 -1.07233e-05 6.07304e-06
-1.30968e-05 6.07304e-06 -0.000158948
0.000442599 -0.000168304 -2.00086e-05
-0.000168304 -0.00014584 1.40062e-05
-2.00086e-05 1.40062e-05 -0.000243311
0.000930059 -0.000173475 2.28986e-07
-0.000173475 7.13991e-06 1.41647e-07
2.28986e-07 1.41647e-07 -0.000148665
0.00123264 -0.000241013 5.7079e-06
-0.000241013 8.59366e-05 -1.85974e-06
5.7079e-06 -1.85974e-06 -0.000106439
0.00555245 0.000111776 -0.000180857
0.000111776 0.00297892 9.77928e-06
-0.000180857 9.77928e-06 0.002972
0.000545595 -0.000173887 -1.83379e-06
-0.000173887 -8.13085e-05 6.9276e-07
-1.83379e-06 6.9276e-07 -0.000174761
0.000849529 -0.000180339 1.0533e-05
-0.000180339 2.11531e-06 -6.1161e-06
1.0533e-05 -6.1161e-06 -0.00016148
0.00531356 0.000145767 3.4303e-06
0.000145767 0.00285267 2.39179e-07
3.4303e-06 2.39179e-07 0.00283837
0.000664294 -0.000162245 2.15827e-05
-0.000162245 3.1621e-06 -1.46056e-05
2.15827e-05 -1.46056e-05 -8.63705e-05
0.00495356 0.000129013 0.000163491
0.000129013 0.0026359 -1.11802e-05
0.000163491 -1.11802e-05 0.0026267
0.00135983 0.00033214 -2.85505e-06
0.00033214 0.000129735 1.64385e-06
-2.85505e-06 1.64385e-06 -9.47215e-05
0.00118501 0.000295605 1.72945e-07
0.000295605 8.62145e-05 4.38488e-07
1.72945e-07 4.38488e-07 -0.000144112
0.00110026 0.000240085 -7.29629e-06
0.000240085 9.25841e-05 -1.63518e-06
-7.29629e-06 -1.63518e-06 -0.000108879
0.00102754 0.000259259 -8.71593e-07
0.000259259 9.57975e-05 2.64475e-06
-8.71593e-07 2.64475e-06 -0.000129069
0.00104989 0.000225255 -1.81828e-06
0.000225255 0.000166883 9.95086e-07
-1.81828e-06 9.95086e-07 -3.70261e-05
0.000881227 0.000181485 -6.94944e-06
0.000181485 0.000140245 -5.03183e-06
-6.94944e-06 -5.03183e-06 -2.83335e-05
0.00109554 0.000195132 -8.48753e-07
0.000195132 0.000280953 1.2652e-06
-8.48753e-07 1.2652e-06 9.56579e-05
0.000686955 0.000122949 -4.32812e-08
0.000122949 7.66761e-05 -3.0353e-07
-4.32812e-08 -3.0353e-07 -7.07027e-05
0.00075396 5.44206e-05 -1.23607e-05
5.44206e-05 0.000101834 -1.23447e-05
-1.23607e-05 -1.23447e-05 3.83914e-05
0.000578932 1.37681e-05 1.21359e-06
1.37681e-05 4.94287e-06 4.9066e-06
1.21359e-06 4.9066e-06 -0.000104216
0.000502348 -1.07383e-05 -1.90473e-07
-1.07383e-05 -3.59609e-05 -2.89765e-07
-1.90473e-07 -2.89765e-07 -8.4523e-05
0.00357647 -0.000132388 -0.000106495
-0.000132388 0.00182464 -3.54272e-06
-0.000106495 -3.54272e-06 0.00182074
0.000439439 -2.45717e-05 3.20266e-06
-2.45717e-05 -7.26132e-05 8.56231e-06
3.20266e-06 8.56231e-06 -0.000114384
0.00314537 -0.000139707 -3.60611e-06
-0.000139707 0.00156292 3.93746e-07
-3.60611e-06 3.93746e-07 0.00155766
0.00294792 -0.000126847 5.55238e-05
-0.000126847 0.00143554 3.25841e-06
5.55238e-05 3.25841e-06 0.00143337
0.00054619 6.73182e-05 2.0838e-05
6.73182e-05 -0.000596982 2.6637e-06
2.0838e-05 2.6637e-06 -0.000539747
0.00204555 3.83216e-05 -8.04972e-06
3.83216e-05 -0.000316593 -1.34765e-06
-8.04972e-06 -1.34765e-06 -0.000183283
0.00427442 5.49332e-05 0.000146321
5.49332e-05 -0.000426946 4.03206e-05
0.000146321 4.03206e-05 0.000135725
0.002232 0.000485825 -1.90457e-06
0.000485825 0.00043413 3.92928e-07
-1.90457e-06 3.92928e-07 0.000216956
0.00147284 0.000428212 -1.53071e-06
0.000428212 0.00014456 -3.14947e-06
-1.53071e-06 -3.14947e-06 -9.00078e-05
0.00196427 0.000385713 -1.65467e-07
0.000385713 0.000231978 3.4105e-06
-1.65467e-07 3.4105e-06 4.45745e-05
0.00176384 0.000418702 8.42022e-07
0.000418702 0.000248661 2.77289e-07
8.42022e-07 2.77289e-07 2.33147e-05
0.00127166 0.000366234 1.67434e-06
0.000366234 9.09887e-05 -6.58625e-06
1.67434e-06 -6.58625e-06 -0.000158587
0.00185025 0.000409298 -9.14289e-07
0.000409298 8.25683e-05 1.27262e-06
-9.14289e-07 1.27262e-06 -8.35331e-05
0.00190101 0.000450337 -3.80771e-06
0.000450337 0.000496525 -1.93484e-06
-3.80771e-06 -1.93484e-06 0.000260213
0.00193739 0.000506665 -1.71666e-08
0.000506665 0.0002616 -2.11555e-07
-1.71666e-08 -2.11555e-07 4.71986e-05
0.00181067 0.000295163 -4.10695e-06
0.000295163 -2.41392e-05 -9.29652e-08
-4.10695e-06 -9.29652e-08 -0.00012146
0.00265866 0.000604594 3.26213e-06
0.000604594 0.000662394 2.06859e-06
3.26213e-06 2.06859e-06 0.00045393
0.0019244 0.000500022 -1.65484e-06
0.000500022 0.000140413 1.00656e-07
-1.65484e-06 1.00656e-07 -3.1827e-05
0.00090437 0.000267086 4.80276e-06
0.000267086 -0.000344814 3.14007e-06
4.80276e-06 3.14007e-06 -0.000386849
-0.000356525 0.0003435 -4.17866e-06
0.0003435 -0.0008976 -4.21714e-06
-4.17866e-06 -4.21714e-06 -0.00102343
0.00204453 0.000439299 -5.74201e-05
0.000439299 -2.43364e-05 -2.85272e-05
-5.74201e-05 -2.85272e-05 -4.91534e-05
0.00187446 4.48226e-05 6.23651e-07
4.48226e-05 -7.58202e-05 -1.65853e-06
6.23651e-07 -1.65853e-06 -6.93508e-05
0.00219668 -3.83517e-05 1.25612e-06
-3.83517e-05 0.000405837 1.56701e-06
1.25612e-06 1.56701e-06 0.000411749
0.0017347 -6.9014e-05 -5.65332e-05
-6.9014e-05 -0.000182033 2.88924e-07
-5.65332e-05 2.88924e-07 -0.000266216
0.00228325 -0.00023995 -3.60132e-05
-0.00023995 0.000105409 2.93803e-06
-3.60132e-05 2.93803e-06 0.000229796
0.00142268 -7.61632e-05 -9.314e-06
-7.61632e-05 -0.000185776 1.13739e-06
-9.314e-06 1.13739e-06 -0.000213247
0.00200917 -0.0001829 1.54498e-08
-0.0001829 -3.77997e-05 -7.6747e-07
1.54498e-08 -7.6747e-07 -7.30718e-08
0.00211615 -2.39113e-05 -2.14924e-06
-2.39113e-05 5.67799e-05 1.45574e-06
-2.14924e-06 1.45574e-06 4.88945e-05
0.00208798 -6.78699e-05 -2.26349e-06
-6.78699e-05 2.98935e-05 -1.71778e-07
-2.26349e-06 -1.71778e-07 3.20756e-05
0.00204712 -0.000271948 -3.98992e-06
-0.000271948 -1.84455e-05 5.73725e-07
-3.98992e-06 5.73725e-07 2.88391e-05
0.00198796 -0.00020335 4.25474e-07
-0.00020335 9.47458e-06 -2.07579e-07
4.25474e-07 -2.07579e-07 -3.00498e-06
0.00202006 -0.000167392 -1.69996e-06
-0.000167392 7.18991e-05 -1.8431e-07
-1.69996e-06 -1.8431e-07 3.29386e-05
0.00189312 -0.000263534 1.12092e-06
-0.000263534 6.21107e-05 -1.0177e-06
1.12092e-06 -1.0177e-06 1.05337e-06
0.00184044 -0.000232171 2.09127e-07
-0.000232171 5.90117e-05 -4.05287e-08
2.09127e-07 -4.05287e-08 -2.23037e-05
0.0017763 -0.000192541 4.25786e-07
-0.000192541 5.99456e-05 -3.97654e-07
4.25786e-07 -3.97654e-07 -3.56843e-05
0.001779 -0.00025855 8.5671e-07
-0.00025855 7.98023e-05 -5.67884e-07
8.5671e-07 -5.67884e-07 -1.91039e-05
0.00180665 -0.00024369 2.79813e-08
-0.00024369 0.000119473 -2.33299e-07
2.79813e-08 -2.33299e-07 4.22851e-06
0.00171541 -0.000216725 7.13306e-07
-0.000216725 0.000120914 -8.71386e-07
7.13306e-07 -8.71386e-07 -2.09799e-05
0.00180541 -0.000270956 -1.05869e-06
-0.000270956 0.00015855 1.24264e-06
-1.05869e-06 1.24264e-06 2.44631e-05
0.0016997 -0.000244389 -3.07391e-07
-0.000244389 0.000152337 -7.89818e-08
-3.07391e-07 -7.89818e-08 -4.51909e-06
0.00138454 -0.000185698 -4.76099e-06
-0.000185698 8.67805e-05 1.3289e-06
-4.76099e-06 1.3289e-06 -7.75232e-05
0.00174513 -0.000267965 8.83269e-07
-0.000267965 0.000211399 1.14105e-06
8.83269e-07 1.14105e-06 4.26236e-05
0.00135843 -0.000204719 -2.19564e-07
-0.000204719 9.50056e-05 5.95335e-08
-2.19564e-07 5.95335e-08 -7.64586e-05
0.000964582 -0.000140665 -1.36387e-05
-0.000140665 -9.4978e-06 5.67263e-06
-1.36387e-05 5.67263e-06 -0.000152645
0.00131927 -0.000226278 6.39587e-06
-0.000226278 9.7465e-05 -1.54252e-06
6.39587e-06 -1.54252e-06 -8.31535e-05
0.00096079 -0.00015718 1.34528e-07
-0.00015718 1.21505e-06 5.4664e-08
1.34528e-07 5.4664e-08 -0.000146837
0.00245735 -0.000118937 -3.12565e-05
-0.000118937 0.0010437 8.76151e-06
-3.12565e-05 8.76151e-06 0.000964112
0.00171824 -5.20244e-05 -0.000185967
-5.20244e-05 0.000671125 2.07455e-05
-0.000185967 2.07455e-05 0.000653228
0.00154166 -0.000153408 -5.98086e-06
-0.000153408 0.000504435 -3.14853e-07
-5.98086e-06 -3.14853e-07 0.000413389
0.000964131 -0.000175243 1.20693e-05
-0.000175243 2.6963e-05 -5.97688e-06
1.20693e-05 -5.97688e-06 -0.000129171
0.0056435 9.5187e-05 -6.12255e-06
9.5187e-05 0.00303926 -5.37316e-07
-6.12255e-06 -5.37316e-07 0.00302918
0.000611255 -0.000195675 2.31752e-05
-0.000195675 -4.26512e-05 -1.45125e-05
2.31752e-05 -1.45125e-05 -0.000139506
0.00544803 0.000137483 0.000175033
0.000137483 0.00294229 -1.58831e-05
0.000175033 -1.58831e-05 0.00292247
0.00195269 0.000305625 7.82314e-07
0.000305625 0.000193075 4.83256e-07
7.82314e-07 4.83256e-07 3.42802e-05
0.00168057 0.000347198 1.26398e-06
0.000347198 0.000196506 3.08382e-06
1.26398e-06 3.08382e-06 -7.81996e-06
0.00159245 0.000355952 1.44659e-08
0.000355952 0.000257704 2.43923e-08
1.44659e-08 2.43923e-08 3.01948e-05
0.00117036 0.0002505 -6.2334e-06
0.0002505 7.00777e-05 -1.93711e-06
-6.2334e-06 -1.93711e-06 -0.000126038
0.00114712 0.000293505 5.13451e-06
0.000293505 6.22989e-05 1.08936e-06
5.13451e-06 1.08936e-06 -0.000167118
0.00112099 0.000239864 -2.39592e-07
0.000239864 0.000105948 2.67221e-07
-2.39592e-07 2.67221e-07 -9.4844e-05
0.000811869 0.000177776 -9.5474e-06
0.000177776 1.75387e-05 -4.73772e-06
-9.5474e-06 -4.73772e-06 -0.000149266
0.00105895 0.000225226 2.14024e-06
0.000225226 0.000174068 4.64196e-06
2.14024e-06 4.64196e-06 -2.97667e-05
0.000818015 0.000166039 -3.35827e-07
0.000166039 0.000103456 6.57772e-07
-3.35827e-07 6.57772e-07 -6.335e-05
0.000729204 0.000138183 -1.99508e-05
0.000138183 6.77607e-05 -1.4111e-05
-1.99508e-05 -1.4111e-05 -1.49216e-05
0.000618825 8.87258e-05 1.8975e-06
8.87258e-05 3.17463e-05 4.67788e-06
1.8975e-06 4.67788e-06 -0.000107315
0.000507925 4.01342e-05 -1.29436e-06
4.01342e-05 -4.08794e-05 -6.64844e-07
-1.29436e-06 -6.64844e-07 -0.000100878
0.00419666 -0.000126221 -0.000141474
-0.000126221 0.00219747 -7.20656e-06
-0.000141474 -7.20656e-06 0.00219091
0.000384437 -1.83179e-05 3.60346e-06
-1.83179e-05 -0.000102276 9.61602e-06
3.60346e-06 9.61602e-06 -0.000150952
0.00342583 -0.000151229 -4.856e-06
-0.000151229 0.00173835 3.97288e-07
-4.856e-06 3.97288e-07 0.00172972
0.00309409 -0.000142527 6.38308e-05
-0.000142527 0.00153249 2.66347e-06
6.38308e-05 2.66347e-06 0.00152623
0.00193294 0.00015683 1.04444e-06
0.00015683 -3.32899e-05 -9.72588e-07
1.04444e-06 -9.72588e-07 -5.61161e-05
0.00191215 5.06809e-05 1.69132e-05
5.06809e-05 0.000120995 -3.38141e-07
1.69132e-05 -3.38141e-07 0.00016644
0.00426758 4.21841e-05 -9.90212e-05
4.21841e-05 0.000632152 -1.43618e-05
-9.90212e-05 -1.43618e-05 0.000810406
0.00178893 0.000351884 -2.48536e-06
0.000351884 6.49248e-05 1.41711e-06
-2.48536e-06 1.41711e-06 -9.43949e-05
0.00189508 0.000456062 -2.50685e-06
0.000456062 0.000254439 -9.1953e-08
-2.50685e-06 -9.1953e-08 4.01283e-05
0.00148464 0.000445602 -1.11002e-05
0.000445602 0.00014062 -7.49946e-06
-1.11002e-05 -7.49946e-06 -9.23504e-05
0.00202024 0.000377405 2.76438e-06
0.000377405 0.00027616 1.03205e-06
2.76438e-06 1.03205e-06 9.09955e-05
0.00175198 0.00041488 -1.3765e-06
0.00041488 0.000240831 -2.73404e-06
-1.3765e-06 -2.73404e-06 1.65124e-05
0.00219644 0.000292949 8.08335e-07
0.000292949 0.000200705 7.18776e-07
8.08335e-07 7.18776e-07 9.77591e-05
0.00172712 0.000402392 -7.08135e-07
0.000402392 3.07352e-05 7.45392e-07
-7.08135e-07 7.45392e-07 -0.000135738
0.0022138 0.000520759 -1.98159e-06
0.000520759 0.000431677 -6.33446e-07
-1.98159e-06 -6.33446e-07 0.000214551
0.00181352 0.000299562 -1.00475e-06
0.000299562 -1.64458e-05 -1.99481e-07
-1.00475e-06 -1.99481e-07 -0.000115455
0.00204594 0.00051177 1.70633e-05
0.00051177 0.000186575 1.9759e-06
1.70633e-05 1.9759e-06 1.05932e-05
0.00118168 0.000271603 -2.76292e-05
0.000271603 -0.00017091 -6.94765e-06
-2.76292e-05 -6.94765e-06 -0.000220152
0.0020413 5.26504e-05 -2.39943e-06
5.26504e-05 2.11958e-05 3.30709e-07
-2.39943e-06 3.30709e-07 1.57273e-05
0.00197735 5.44835e-05 -2.07919e-06
5.44835e-05 -7.16809e-06 2.43195e-07
-2.07919e-06 2.43195e-07 -4.51052e-06
0.00290261 -2.80709e-05 -3.88906e-05
-2.80709e-05 0.000849174 3.32225e-06
-3.88906e-05 3.32225e-06 0.000850657
0.00192473 -0.00017521 -9.29671e-06
-0.00017521 -9.45797e-05 -6.7081e-07
-9.29671e-06 -6.7081e-07 -4.5029e-05
0.00204249 -2.3285e-05 -1.08057e-06
-2.3285e-05 -1.27683e-05 -1.46995e-06
-1.08057e-06 -1.46995e-06 -1.57099e-05
0.00205476 -7.19353e-05 -3.52147e-07
-7.19353e-05 -5.30078e-06 7.14003e-08
-3.52147e-07 7.14003e-08 1.87961e-06
0.00193709 -5.69595e-05 -2.15026e-06
-5.69595e-05 3.46749e-05 1.84891e-07
-2.15026e-06 1.84891e-07 1.3491e-05
0.00196102 -0.000193943 2.02988e-06
-0.000193943 6.13741e-06 1.52533e-07
2.02988e-06 1.52533e-07 -7.41894e-06
0.00191717 -0.00016717 1.98347e-07
-0.00016717 2.25735e-05 -1.03388e-08
1.98347e-07 -1.03388e-08 -2.03822e-05
0.00179433 -0.000127471 2.49107e-06
-0.000127471 4.30517e-05 -1.48746e-06
2.49107e-06 -1.48746e-06 -3.48684e-05
0.00174778 -0.000226373 1.70863e-06
-0.000226373 1.24058e-05 -4.27593e-07
1.70863e-06 -4.27593e-07 -7.10486e-05
0.00183887 -0.000195335 -6.98412e-08
-0.000195335 9.16165e-05 5.67327e-08
-6.98412e-08 5.67327e-08 -4.24062e-06
0.00179047 -0.00017871 9.74038e-07
-0.00017871 0.000122419 -6.93432e-07
9.74038e-07 -6.93432e-07 -4.55434e-06
0.00183253 -0.000243806 -3.72257e-07
-0.000243806 0.000136479 4.08509e-07
-3.72257e-07 4.08509e-07 2.12205e-05
0.00174818 -0.00021774 -2.33282e-07
-0.00021774 0.000139918 -3.46387e-08
-2.33282e-07 -3.46387e-08 -1.80178e-06
0.00143405 -0.000162898 -3.63731e-06
-0.000162898 8.95997e-05 9.06888e-07
-3.63731e-06 9.06888e-07 -6.66295e-05
0.00172678 -0.000245226 -2.99301e-07
-0.000245226 0.000169103 8.77515e-07
-2.99301e-07 8.77515e-07 1.25277e-05
0.00139961 -0.000186212 -1.71769e-07
-0.000186212 9.37849e-05 6.8027e-08
-1.71769e-07 6.8027e-08 -7.01427e-05
0.000971217 -0.000124514 -1.33455e-05
-0.000124514 -1.71113e-05 4.90137e-06
-1.33455e-05 4.90137e-06 -0.000157357
0.00137576 -0.000205532 5.5083e-06
-0.000205532 0.000104246 -1.45256e-06
5.5083e-06 -1.45256e-06 -6.69117e-05
0.000977975 -0.00013971 1.31862e-07
-0.00013971 -3.65086e-06 1.14657e-07
1.31862e-07 1.14657e-07 -0.000146267
0.00248826 -0.000124376 -3.88445e-05
-0.000124376 0.00104997 8.05116e-06
-3.88445e-05 8.05116e-06 0.000977781
0.000975103 -0.000157136 1.31934e-05
-0.000157136 8.17092e-06 -5.93962e-06
1.31934e-05 -5.93962e-06 -0.000139716
0.00261165 -0.000163242 3.83582e-05
-0.000163242 0.00113138 -4.97794e-06
3.83582e-05 -4.97794e-06 0.00105812
0.00180642 -9.17785e-05 -0.000190104
-9.17785e-05 0.000730185 2.51164e-05
-0.000190104 2.51164e-05 0.000710863
0.00364162 -2.79688e-05 -0.000187075
-2.79688e-05 0.0018376 1.2656e-05
-0.000187075 1.2656e-05 0.00182521
0.00270316 -0.000216411 0.000119067
-0.000216411 0.00119229 -1.65729e-05
0.000119067 -1.65729e-05 0.00112074
0.00571947 8.03356e-05 0.000193083
8.03356e-05 0.00309374 -1.86551e-05
0.000193083 -1.86551e-05 0.00307928
0.00208064 0.000300667 -1.89269e-06
0.000300667 0.000247113 -7.70165e-07
-1.89269e-06 -7.70165e-07 0.000104745
0.00158849 0.000280712 2.76444e-06
0.000280712 8.3776e-05 1.11286e-06
2.76444e-06 1.11286e-06 -9.21316e-05
0.00194042 0.000303189 3.85638e-07
0.000303189 0.000183943 -1.23847e-06
3.85638e-07 -1.23847e-06 2.99764e-05
0.00121088 0.000243977 -6.16134e-06
0.000243977 3.73577e-05 -9.78361e-07
-6.16134e-06 -9.78361e-07 -0.000151138
0.00174832 0.000349968 6.64005e-07
0.000349968 0.000226823 5.20279e-07
6.64005e-07 5.20279e-07 2.16881e-05
0.00183063 0.000380557 2.4033e-06
0.000380557 0.000388201 -1.14887e-06
2.4033e-06 -1.14887e-06 0.000157506
0.00120029 0.000249541 -6.79726e-08
0.000249541 9.22299e-05 -2.16241e-07
-6.79726e-08 -2.16241e-07 -0.000103122
0.000858125 0.000176428 -1.14672e-05
0.000176428 -1.84741e-05 -5.68848e-06
-1.14672e-05 -5.68848e-06 -0.000178375
0.00113577 0.000239261 7.10674e-06
0.000239261 0.000115945 2.12111e-06
7.10674e-06 2.12111e-06 -8.42014e-05
0.000838725 0.000174959 -4.56815e-07
0.000174959 2.91979e-05 3.36363e-07
-4.56815e-07 3.36363e-07 -0.000136724
0.000626867 0.000187264 -2.29992e-05
0.000187264 -1.40046e-05 -1.48583e-05
-2.29992e-05 -1.48583e-05 -0.000109646
0.000615593 0.000153696 4.03295e-06
0.000153696 -1.22908e-05 5.68119e-06
4.03295e-06 5.68119e-06 -0.000178916
0.000553171 0.00011018 -2.46405e-07
0.00011018 -3.30024e-05 1.05183e-07
-2.46405e-07 1.05183e-07 -0.000111097
0.00506496 -0.000126143 -0.000171544
-0.000126143 0.00272467 -1.36473e-05
-0.000171544 -1.36473e-05 0.00270772
0.000312067 1.27279e-05 6.39312e-06
1.27279e-05 -0.000149641 1.12543e-05
6.39312e-06 1.12543e-05 -0.000208549
0.00399387 -0.000166796 -8.87649e-06
-0.000166796 0.0020862 5.98977e-07
-8.87649e-06 5.98977e-07 0.00207172
0.00332272 -0.000159358 7.41674e-05
-0.000159358 0.00167819 2.26115e-06
7.41674e-05 2.26115e-06 0.0016673
0.00196941 0.000171932 -8.26205e-07
0.000171932 4.84665e-06 5.21226e-07
-8.26205e-07 5.21226e-07 -4.39282e-05
0.00187136 0.000157327 8.48399e-07
0.000157327 -6.66143e-05 -2.01113e-07
8.48399e-07 -2.01113e-07 -8.99843e-05
0.00304951 3.7998e-05 -7.03904e-05
3.7998e-05 0.000726061 -6.78904e-06
-7.03904e-05 -6.78904e-06 0.000766183
0.00201294 0.000258528 9.44234e-07
0.000258528 0.000136682 7.56766e-07
9.44234e-07 7.56766e-07 2.46146e-05
0.00180323 0.000348559 -4.95734e-07
0.000348559 9.09066e-05 3.5244e-07
-4.95734e-07 3.5244e-07 -6.81524e-05
0.00156959 0.000427101 -2.48662e-07
0.000427101 7.97814e-05 -2.24073e-06
-2.48662e-07 -2.24073e-06 -0.000131768
0.00207765 0.000368805 -6.704e-07
0.000368805 0.000321727 -2.41441e-06
-6.704e-07 -2.41441e-06 0.000138922
0.00205832 0.000283034 -8.82639e-07
0.000283034 0.000123235 -1.26656e-07
-8.82639e-07 -1.26656e-07 2.03817e-05
0.00160687 0.000395504 -2.28659e-06
0.000395504 -2.00544e-05 6.73416e-09
-2.28659e-06 6.73416e-09 -0.000186889
0.00176687 0.000300386 6.58889e-06
0.000300386 -2.27566e-05 -3.87559e-08
6.58889e-06 -3.87559e-08 -0.000123341
0.00191268 4.83676e-05 -8.49363e-07
4.83676e-05 1.33421e-05 4.81996e-07
-8.49363e-07 4.81996e-07 -1.09584e-05
0.00200005 5.24334e-05 3.13109e-07
5.24334e-05 7.5985e-06 -1.19674e-07
3.13109e-07 -1.19674e-07 -1.25943e-06
0.00203661 6.42471e-05 -7.69903e-06
6.42471e-05 3.55234e-05 6.24859e-07
-7.69903e-06 6.24859e-07 3.56482e-05
0.00180667 -1.38629e-05 -3.57472e-06
-1.38629e-05 1.64516e-06 2.70726e-07
-3.57472e-06 2.70726e-07 -3.62009e-05
0.00201786 -8.02021e-05 2.44354e-06
-8.02021e-05 -4.19089e-05 -5.43438e-07
2.44354e-06 -5.43438e-07 -3.03119e-05
0.00191712 -5.96939e-05 -7.36713e-07
-5.96939e-05 2.1471e-05 2.46941e-07
-7.36713e-07 2.46941e-07 -5.70386e-07
0.00188174 -7.37296e-05 -1.71494e-06
-7.37296e-05 9.06452e-05 -1.39787e-07
-1.71494e-06 -1.39787e-07 2.63298e-05
0.00181771 -0.00016698 2.70427e-06
-0.00016698 -2.51266e-05 -2.60741e-07
2.70427e-06 -2.60741e-07 -7.22223e-05
0.00185938 -0.000129531 2.14863e-06
-0.000129531 7.2305e-05 -7.95911e-07
2.14863e-06 -7.95911e-07 -5.22725e-06
0.00183737 -0.000125919 3.1363e-06
-0.000125919 0.000131034 -1.26296e-06
3.1363e-06 -1.26296e-06 1.70588e-05
0.00190982 -0.000197884 5.08732e-08
-0.000197884 0.000128286 4.62556e-07
5.08732e-08 4.62556e-07 3.22838e-05
0.00180218 -0.000177421 -1.13404e-07
-0.000177421 0.000131735 -9.37616e-08
-1.13404e-07 -9.37616e-08 5.13538e-06
0.00147578 -0.000132283 -2.79971e-06
-0.000132283 8.85753e-05 4.2553e-07
-2.79971e-06 4.2553e-07 -5.82902e-05
0.00178116 -0.000218636 -7.97458e-07
-0.000218636 0.000159354 7.23776e-07
-7.97458e-07 7.23776e-07 1.7837e-05
0.00143567 -0.000162434 -1.69337e-07
-0.000162434 8.84392e-05 1.39222e-07
-1.69337e-07 1.39222e-07 -6.73723e-05
0.000981522 -0.000106587 -1.28644e-05
-0.000106587 -2.21693e-05 3.96278e-06
-1.28644e-05 3.96278e-06 -0.000159569
0.0014134 -0.00018658 4.19756e-06
-0.00018658 0.000100119 -1.15492e-06
4.19756e-06 -1.15492e-06 -6.34071e-05
0.000990425 -0.000123137 1.55706e-08
-0.000123137 -8.00247e-06 1.95441e-07
1.55706e-08 1.95441e-07 -0.00014754
0.00251603 -0.000131682 -4.66451e-05
-0.000131682 0.00106076 7.814e-06
-4.66451e-05 7.814e-06 0.000990879
0.000992042 -0.00013886 1.35262e-05
-0.00013886 2.3887e-06 -5.48741e-06
1.35262e-05 -5.48741e-06 -0.00013967
0.00259144 -0.000154305 3.48684e-05
-0.000154305 0.00110988 -4.11415e-06
3.48684e-05 -4.11415e-06 0.00104212
0.00184429 -7.95894e-05 -0.00018573
-7.95894e-05 0.000747759 2.24238e-05
-0.00018573 2.24238e-05 0.000729525
0.00274472 -0.000178979 0.000117555
-0.000178979 0.00120668 -1.84417e-05
0.000117555 -1.84417e-05 0.00113899
0.00156169 -2.93154e-05 -8.39693e-05
-2.93154e-05 0.000590506 9.78506e-06
-8.39693e-05 9.78506e-06 0.000561423
0.00543606 0.000159492 3.52928e-05
0.000159492 0.00291476 -2.21627e-06
3.52928e-05 -2.21627e-06 0.00288766
0.00188197 0.000246149 5.66362e-07
0.000246149 0.000114985 3.35941e-07
5.66362e-07 3.35941e-07 -1.54484e-05
0.00186085 0.000271978 2.46265e-09
0.000271978 0.000199347 -6.81257e-07
2.46265e-09 -6.81257e-07 4.10524e-05
0.00195933 0.00029585 -3.44442e-06
0.00029585 0.000172442 3.44997e-08
-3.44442e-06 3.44997e-08 2.81108e-05
0.00166004 0.000243843 -3.50722e-06
0.000243843 0.000261337 -5.77868e-07
-3.50722e-06 -5.77868e-07 8.57014e-05
0.00162416 0.000287843 3.46389e-07
0.000287843 9.57384e-05 -1.47175e-06
3.46389e-07 -1.47175e-06 -7.83321e-05
0.00193266 0.000301165 -3.01248e-06
0.000301165 0.000177506 -3.49154e-06
-3.01248e-06 -3.49154e-06 2.83323e-05
0.000949454 0.000173508 -1.3383e-05
0.000173508 -4.95339e-06 -5.51321e-06
-1.3383e-05 -5.51321e-06 -0.000158813
0.00128263 0.000248723 -3.08443e-07
0.000248723 8.01935e-05 3.6989e-07
-3.08443e-07 3.6989e-07 -0.000109062
0.00181231 0.00035241 2.8012e-06
0.00035241 0.000254008 -1.89434e-06
2.8012e-06 -1.89434e-06 4.80949e-05
0.00124421 0.000249458 7.74744e-06
0.000249458 0.000123473 2.10022e-06
7.74744e-06 2.10022e-06 -7.11998e-05
0.00088669 0.0001781 -5.94566e-07
0.0001781 -1.53356e-06 -1.31384e-07
-5.94566e-07 -1.31384e-07 -0.000161324
0.000569818 0.000212495 -2.50031e-05
0.000212495 -5.99427e-05 -1.4568e-05
-2.50031e-05 -1.4568e-05 -0.000159498
0.000803553 0.000170613 9.01832e-06
0.000170613 4.4213e-06 5.54117e-06
9.01832e-06 5.54117e-06 -0.00016043
0.000535407 0.000179334 2.08927e-06
0.000179334 -6.5453e-05 4.3379e-07
2.08927e-06 4.3379e-07 -0.000159236
0.00563143 -0.000107604 -0.000182899
-0.000107604 0.00307162 -2.00468e-05
-0.000182899 -2.00468e-05 0.00304437
0.000349838 9.47306e-05 1.4645e-05
9.47306e-05 -0.00015365 1.37408e-05
1.4645e-05 1.37408e-05 -0.000225898
0.00478297 -0.000168872 -1.07382e-05
-0.000168872 0.00255982 8.05286e-07
-1.07382e-05 8.05286e-07 0.00254022
0.003747 -0.000181445 8.92001e-05
-0.000181445 0.00194199 2.72099e-06
8.92001e-05 2.72099e-06 0.00192427
0.00192725 0.000139561 -1.04994e-06
0.000139561 5.36789e-05 1.30663e-06
-1.04994e-06 1.30663e-06 -1.34792e-05
0.00199591 0.000175636 7.33546e-07
0.000175636 1.38266e-05 3.57699e-07
7.33546e-07 3.57699e-07 -3.20509e-05
0.0018681 0.000162076 -3.81744e-07
0.000162076 -7.43663e-05 8.11608e-07
-3.81744e-07 8.11608e-07 -9.87127e-05
0.00199738 0.000253697 1.79202e-07
0.000253697 0.000131731 -2.2643e-08
1.79202e-07 -2.2643e-08 2.23601e-05
0.00180728 0.000344569 -1.16505e-06
0.000344569 0.000111752 -9.83975e-07
-1.16505e-06 -9.83975e-07 -4.69786e-05
0.00193106 0.000273049 -2.35163e-07
0.000273049 5.31777e-05 -8.69084e-07
-2.35163e-07 -8.69084e-07 -4.94179e-05
0.00190789 5.31509e-05 -1.57486e-06
5.31509e-05 6.59673e-05 -2.48156e-08
-1.57486e-06 -2.48156e-08 2.02573e-05
0.00193041 4.61935e-05 4.11467e-07
4.61935e-05 2.74728e-05 -1.28283e-07
4.11467e-07 -1.28283e-07 2.06107e-06
0.00199052 5.28816e-05 1.91597e-06
5.28816e-05 1.30774e-05 9.14005e-09
1.91597e-06 9.14005e-09 8.19247e-07
0.00186963 -1.87732e-05 -2.11884e-06
-1.87732e-05 3.60613e-05 7.90469e-08
-2.11884e-06 7.90469e-08 -1.32667e-06
0.00177269 -3.66411e-05 -1.87305e-06
-3.66411e-05 3.50432e-05 -1.25958e-07
-1.87305e-06 -1.25958e-07 -3.44839e-05
0.00189916 -6.24371e-05 1.46775e-06
-6.24371e-05 9.3411e-06 5.9794e-08
1.46775e-06 5.9794e-08 -1.34476e-05
0.00183529 -7.30965e-05 -1.80237e-06
-7.30965e-05 6.27978e-05 5.95154e-07
-1.80237e-06 5.95154e-07 -5.82247e-06
0.00189358 -7.40892e-05 3.45679e-07
-7.40892e-05 0.000169421 -4.28049e-07
3.45679e-07 -4.28049e-07 6.98524e-05
0.0019112 -0.000131679 2.45985e-06
-0.000131679 9.44157e-05 -1.71287e-07
2.45985e-06 -1.71287e-07 1.71772e-05
0.00179212 -0.000126099 2.27031e-06
-0.000126099 0.000107746 -7.17551e-07
2.27031e-06 -7.17551e-07 -6.31776e-06
0.0014926 -9.40965e-05 -1.62515e-06
-9.40965e-05 7.64499e-05 -7.18812e-08
-1.62515e-06 -7.18812e-08 -6.13868e-05
0.00179942 -0.000177456 -1.24126e-06
-0.000177456 0.000131774 4.97956e-07
-1.24126e-06 4.97956e-07 5.27779e-06
0.00146623 -0.000131855 -1.10052e-07
-0.000131855 7.98503e-05 4.50582e-08
-1.10052e-07 4.50582e-08 -6.67776e-05
0.000986611 -8.43407e-05 -1.24788e-05
-8.43407e-05 -2.98847e-05 3.01023e-06
-1.24788e-05 3.01023e-06 -0.000163358
0.00144182 -0.000162195 3.19227e-06
-0.000162195 8.93083e-05 -6.51638e-07
3.19227e-06 -6.51638e-07 -6.60956e-05
0.000998905 -0.000104777 -1.08946e-07
-0.000104777 -1.36784e-05 2.36477e-07
-1.08946e-07 2.36477e-07 -0.000150397
0.00249627 -0.000143722 -5.0271e-05
-0.000143722 0.00104566 7.02581e-06
-5.0271e-05 7.02581e-06 0.000975509
0.00100932 -0.000121813 1.32683e-05
-0.000121813 7.44785e-07 -4.6005e-06
1.32683e-05 -4.6005e-06 -0.000138064
0.00258359 -0.0001385 3.35288e-05
-0.0001385 0.00109739 -3.11923e-06
3.35288e-05 -3.11923e-06 0.00103224
0.00187968 -6.78586e-05 -0.00018566
-6.78586e-05 0.00076245 1.92215e-05
-0.00018566 1.92215e-05 0.000744762
0.00269298 -0.000153478 0.000115789
-0.000153478 0.00116501 -1.60125e-05
0.000115789 -1.60125e-05 0.00110335
0.00156301 -4.07039e-05 -7.61339e-05
-4.07039e-05 0.000584847 8.45286e-06
-7.61339e-05 8.45286e-06 0.000558729
0.00137 -2.23357e-05 3.58123e-05
-2.23357e-05 0.000480915 -5.52354e-06
3.58123e-05 -5.52354e-06 0.000444123
0.00194427 0.000147933 -8.44992e-07
0.000147933 0.000130857 1.58088e-06
-8.44992e-07 1.58088e-06 3.44536e-05
0.00182929 0.000227772 -1.10343e-06
0.000227772 0.000149994 2.80377e-07
-1.10343e-06 2.80377e-07 5.36758e-06
0.00188082 0.000246592 -7.10174e-07
0.000246592 0.000106572 -8.09095e-08
-7.10174e-07 -8.09095e-08 -2.08798e-05
0.00174878 0.000226398 -2.73306e-06
0.000226398 0.000267824 -4.21382e-07
-2.73306e-06 -4.21382e-07 0.000105689
0.00180482 0.000267251 2.93421e-07
0.000267251 0.000172052 -5.56833e-08
2.93421e-07 -5.56833e-08 1.25928e-05
0.00183642 0.000291135 4.86496e-07
0.000291135 9.71371e-05 1.19349e-07
4.86496e-07 1.19349e-07 -4.92231e-05
0.00100943 0.000160204 -1.40085e-05
0.000160204 5.84738e-06 -5.15455e-06
-1.40085e-05 -5.15455e-06 -0.000140967
0.00151413 0.000240649 3.23453e-06
0.000240649 0.000170323 6.33819e-07
3.23453e-06 6.33819e-07 -5.63103e-06
0.00166606 0.000295326 1.57838e-07
0.000295326 0.000111869 -2.33599e-06
1.57838e-07 -2.33599e-06 -6.03768e-05
0.000502071 0.000177874 -2.26237e-05
0.000177874 -0.000110365 -1.27562e-05
-2.26237e-05 -1.27562e-05 -0.000206881
0.000956326 0.000173667 -6.49535e-07
0.000173667 6.13316e-07 1.68468e-07
-6.49535e-07 1.68468e-07 -0.000153034
0.00136169 0.000254043 7.74784e-06
0.000254043 0.000127036 2.55792e-06
7.74784e-06 2.55792e-06 -6.30838e-05
0.000924928 0.00018045 1.16193e-05
0.00018045 2.11532e-05 5.6481e-06
1.16193e-05 5.6481e-06 -0.000138672
0.000534221 0.000194083 1.51697e-06
0.000194083 -7.66692e-05 5.76398e-07
1.51697e-06 5.76398e-07 -0.000177654
0.00587232 -1.37053e-05 -0.000199883
-1.37053e-05 0.00319247 -2.26538e-05
-0.000199883 -2.26538e-05 0.00317493
0.000462908 0.000166884 2.09367e-05
0.000166884 -0.000107869 1.46247e-05
2.09367e-05 1.46247e-05 -0.000198647
0.00545294 -0.000122948 2.18387e-06
-0.000122948 0.00295017 -8.0077e-07
2.18387e-06 -8.0077e-07 0.00293233
0.00448712 -0.000215263 0.000109911
-0.000215263 0.00239792 5.72082e-06
0.000109911 5.72082e-06 0.00236831
0.00181085 9.67661e-05 -3.10584e-06
9.67661e-05 2.67343e-05 1.03147e-06
-3.10584e-06 1.03147e-06 -3.49723e-05
0.00189642 0.00013892 1.22618e-06
0.00013892 3.79709e-05 7.84309e-07
1.22618e-06 7.84309e-07 -2.76089e-05
0.00199808 0.000179152 -5.80408e-07
0.000179152 8.40134e-06 -2.90852e-07
-5.80408e-07 -2.90852e-07 -3.46415e-05
0.00198587 0.00024863 2.25457e-06
0.00024863 0.00012919 -4.1827e-07
2.25457e-06 -4.1827e-07 2.25892e-05
0.0017571 1.1972e-06 7.49693e-07
1.1972e-06 3.47802e-05 -2.48227e-07
7.49693e-07 -2.48227e-07 -3.79617e-05
0.00192281 4.63504e-05 4.44289e-07
4.63504e-05 6.73838e-05 -1.65978e-08
4.44289e-07 -1.65978e-08 2.37027e-05
0.00194875 4.41435e-05 1.88557e-06
4.41435e-05 4.27715e-05 -1.59013e-07
1.88557e-06 -1.59013e-07 1.60901e-05
0.00192949 -2.13593e-05 -8.18219e-08
-2.13593e-05 6.82436e-05 -3.29142e-07
-8.18219e-08 -3.29142e-07 3.1383e-05
0.00176151 -2.97563e-05 -2.05411e-06
-2.97563e-05 3.00918e-05 4.33218e-08
-2.05411e-06 4.33218e-08 -3.66564e-05
0.00182172 -3.04858e-05 2.22543e-06
-3.04858e-05 0.000134561 -8.01575e-07
2.22543e-06 -8.01575e-07 3.65824e-05
0.00178374 -7.24547e-05 -1.38639e-06
-7.24547e-05 3.07419e-05 1.14093e-06
-1.38639e-06 1.14093e-06 -4.20786e-05
0.00178739 -7.35191e-05 -3.38721e-07
-7.35191e-05 0.000109777 3.33095e-07
-3.38721e-07 3.33095e-07 5.18899e-06
0.00156114 -5.46612e-05 -2.48319e-06
-5.46612e-05 0.000102407 -1.30929e-07
-2.48319e-06 -1.30929e-07 -2.40203e-05
0.00176608 -0.00012517 1.25526e-06
-0.00012517 9.56468e-05 -1.3219e-07
1.25526e-06 -1.3219e-07 -1.82433e-05
0.00148775 -9.20076e-05 6.60126e-07
-9.20076e-05 7.1851e-05 -2.32569e-07
6.60126e-07 -2.32569e-07 -6.55441e-05
0.000983878 -5.85791e-05 -1.22669e-05
-5.85791e-05 -3.98614e-05 2.22733e-06
-1.22669e-05 2.22733e-06 -0.000169325
0.00146201 -0.000129389 2.53673e-06
-0.000129389 7.50219e-05 -3.92985e-07
2.53673e-06 -3.92985e-07 -7.10644e-05
0.000993228 -8.35392e-05 -5.63998e-08
-8.35392e-05 -2.65357e-05 1.65535e-07
-5.63998e-08 1.65535e-07 -0.000159682
0.000579475 -8.19416e-05 -1.97623e-05
-8.19416e-05 -0.000115034 4.91138e-06
-1.97623e-05 4.91138e-06 -0.000191329
0.0010161 -0.000102951 1.27455e-05
-0.000102951 -5.18439e-06 -3.54208e-06
1.27455e-05 -3.54208e-06 -0.000141197
0.0015819 -9.20999e-05 4.73549e-05
-9.20999e-05 0.0004902 -3.13375e-06
4.73549e-05 -3.13375e-06 0.000421764
0.00564589 -0.000122175 -0.000239096
-0.000122175 0.00301415 1.51842e-05
-0.000239096 1.51842e-05 0.00302117
0.00266906 -0.000125131 0.00011485
-0.000125131 0.00114002 -1.2944e-05
0.00011485 -1.2944e-05 0.00108197
0.00157836 -5.05515e-05 -6.86275e-05
-5.05515e-05 0.000590669 5.8008e-06
-6.86275e-05 5.8008e-06 0.000564488
0.00128575 -6.2514e-05 4.69345e-05
-6.2514e-05 0.000431893 -6.58345e-06
4.69345e-05 -6.58345e-06 0.000394584
0.00188987 0.00010351 -1.02008e-06
0.00010351 0.000114584 1.78496e-06
-1.02008e-06 1.78496e-06 3.27477e-05
0.00188082 0.00016021 2.82943e-07
0.00016021 0.000165674 1.43329e-06
2.82943e-07 1.43329e-06 4.26404e-05
0.00196921 0.000144853 4.43577e-07
0.000144853 0.000152493 5.01021e-08
4.43577e-07 5.01021e-08 5.54705e-05
0.00155262 0.000181683 -3.14055e-06
0.000181683 0.000114704 -2.66479e-07
-3.14055e-06 -2.66479e-07 -3.66463e-05
0.00180866 0.00022445 3.84715e-07
0.00022445 0.000138236 2.97886e-09
3.84715e-07 2.97886e-09 -5.77892e-06
0.00187332 0.000247175 3.81316e-07
0.000247175 9.36959e-05 -1.81515e-07
3.81316e-07 -1.81515e-07 -3.08503e-05
0.000743535 0.000127333 -1.55867e-05
0.000127333 -0.000171714 -4.53903e-06
-1.55867e-05 -4.53903e-06 -0.000313183
0.00176637 0.000227397 2.50422e-06
0.000227397 0.000278012 6.60753e-07
2.50422e-06 6.60753e-07 0.000115958
0.00174213 0.000262056 1.62756e-07
0.000262056 0.000140734 -4.59024e-07
1.62756e-07 -4.59024e-07 -1.98624e-05
0.000482867 0.000130539 -1.9595e-05
0.000130539 -0.000140671 -1.00029e-05
-1.9595e-05 -1.00029e-05 -0.000228711
0.000820736 0.000150799 4.84704e-07
0.000150799 -0.000105455 2.92138e-07
4.84704e-07 2.92138e-07 -0.000252728
0.00135598 0.000236656 9.12962e-06
0.000236656 7.17776e-05 1.50552e-06
9.12962e-06 1.50552e-06 -0.000104374
0.00590091 7.07126e-05 -0.000212068
7.07126e-05 0.00318498 -2.20101e-05
-0.000212068 -2.20101e-05 0.00317873
0.000499445 0.000165691 1.04439e-06
0.000165691 -0.000111382 7.11169e-07
1.04439e-06 7.11169e-07 -0.000208784
0.000949585 0.000173189 1.31641e-05
0.000173189 -1.55747e-06 5.93324e-06
1.31641e-05 5.93324e-06 -0.000154953
0.000453056 0.000177183 2.0884e-05
0.000177183 -0.000120168 1.44378e-05
2.0884e-05 1.44378e-05 -0.000222305
0.00574578 -2.49998e-05 8.85701e-06
-2.49998e-05 0.0031076 -5.92932e-07
8.85701e-06 -5.92932e-07 0.00309718
0.00525035 -0.000164816 0.000154561
-0.000164816 0.00282983 7.96531e-06
0.000154561 7.96531e-06 0.00281075
0.00186943 6.28434e-05 -2.1665e-06
6.28434e-05 0.000102641 -4.79504e-07
-2.1665e-06 -4.79504e-07 2.95338e-05
0.00186741 9.72396e-05 4.43496e-07
9.72396e-05 5.74207e-05 6.40178e-07
4.43496e-07 6.40178e-07 -5.11319e-06
0.0018674 0.000138277 1.93336e-06
0.000138277 2.34757e-05 1.48072e-07
1.93336e-06 1.48072e-07 -4.04872e-05
0.00168198 4.27645e-06 2.35892e-06
4.27645e-06 4.62838e-05 -6.0417e-07
2.35892e-06 -6.0417e-07 -5.38207e-05
0.00172039 3.61354e-06 5.55557e-07
3.61354e-06 1.78072e-05 1.00565e-07
5.55557e-07 1.00565e-07 -5.29971e-05
0.00193545 3.79912e-05 1.70886e-06
3.79912e-05 6.78459e-05 -1.34438e-07
1.70886e-06 -1.34438e-07 2.62166e-05
0.00174318 -2.39315e-05 -1.88355e-06
-2.39315e-05 2.08564e-05 7.18752e-07
-1.88355e-06 7.18752e-07 -4.3321e-05
0.00178105 -2.66303e-05 9.39215e-07
-2.66303e-05 0.000109436 -5.55092e-08
9.39215e-07 -5.55092e-08 1.18167e-05
0.00174707 -2.03695e-05 -3.80865e-07
-2.03695e-05 0.000217735 -5.68638e-07
-3.80865e-07 -5.68638e-07 9.76271e-05
0.0016811 -7.28767e-05 -2.22335e-06
-7.28767e-05 5.08455e-05 1.10642e-06
-2.22335e-06 1.10642e-06 -5.87794e-05
0.00161611 -5.49725e-05 7.35036e-08
-5.49725e-05 0.000136987 5.91612e-08
7.35036e-08 5.91612e-08 8.78721e-06
0.00079498 -2.8875e-05 -1.37476e-05
-2.8875e-05 -0.000159602 1.36917e-06
-1.37476e-05 1.36917e-06 -0.000286197
0.00147297 -9.19155e-05 2.81153e-06
-9.19155e-05 6.12209e-05 -4.47384e-07
2.81153e-06 -4.47384e-07 -7.60416e-05
0.000990424 -5.55655e-05 -3.91953e-08
-5.55655e-05 -3.72168e-05 1.29699e-07
-3.91953e-08 1.29699e-07 -0.000166221
0.000583178 -2.0791e-05 -1.84486e-05
-2.0791e-05 -0.000116415 3.18369e-06
-1.84486e-05 3.18369e-06 -0.00019148
0.00101393 -8.2143e-05 1.23451e-05
-8.2143e-05 -1.56442e-05 -2.66903e-06
1.23451e-05 -2.66903e-06 -0.000148307
0.000585543 -6.47015e-05 -2.23743e-07
-6.47015e-05 -0.000109143 3.46279e-07
-2.23743e-07 3.46279e-07 -0.000187067
0.00565133 -1.70013e-05 -0.000230322
-1.70013e-05 0.00301389 9.2086e-06
-0.000230322 9.2086e-06 0.00302329
0.000617081 -6.77018e-05 1.59556e-05
-6.77018e-05 -8.86555e-05 -6.82356e-06
1.59556e-05 -6.82356e-06 -0.000168902
0.00355884 -8.02888e-05 0.000106686
-8.02888e-05 0.00177257 -4.07857e-06
0.000106686 -4.07857e-06 0.00175654
0.00124368 -7.364e-05 5.3165e-05
-7.364e-05 0.000408558 -7.08158e-06
5.3165e-05 -7.08158e-06 0.000369025
0.0018013 9.28162e-05 -1.35111e-06
9.28162e-05 8.25832e-05 2.2145e-07
-1.35111e-06 2.2145e-07 -1.09988e-06
0.00176409 9.90502e-05 2.33908e-06
9.90502e-05 9.95427e-05 2.39821e-06
2.33908e-06 2.39821e-06 -1.15298e-05
0.00193634 0.000100682 7.22806e-08
0.000100682 0.000143606 -3.34819e-07
7.22806e-08 -3.34819e-07 6.30717e-05
0.0015033 0.000130139 -1.94039e-06
0.000130139 7.12756e-05 -3.21189e-08
-1.94039e-06 -3.21189e-08 -7.08199e-05
0.00185317 0.000159304 5.39895e-07
0.000159304 0.000144955 1.8886e-07
5.39895e-07 1.8886e-07 2.06668e-05
0.00200004 0.000141667 4.60637e-07
0.000141667 0.000177574 -1.61513e-06
4.60637e-07 -1.61513e-06 7.99681e-05
0.00079778 0.000105913 -1.46569e-05
0.000105913 -0.000155567 -3.47272e-06
-1.46569e-05 -3.47272e-06 -0.00029138
0.00164433 0.000183061 2.19817e-08
0.000183061 0.000172577 2.50991e-07
2.19817e-08 2.50991e-07 2.0661e-05
0.00179175 0.000221236 7.26159e-07
0.000221236 0.000129047 -4.66058e-07
7.26159e-07 -4.66058e-07 -1.43414e-05
0.000503253 9.26396e-05 -1.79978e-05
9.26396e-05 -0.000146663 -7.32357e-06
-1.79978e-05 -7.32357e-06 -0.000227853
0.000722274 0.00012654 -2.75887e-06
0.00012654 -0.000183466 -3.51276e-07
-2.75887e-06 -3.51276e-07 -0.000325065
0.00178765 0.000228824 7.91753e-06
0.000228824 0.000290399 1.84831e-06
7.91753e-06 1.84831e-06 0.000128351
0.00582822 0.000146787 -0.000230084
0.000146787 0.00312792 -2.10687e-05
-0.000230084 -2.10687e-05 0.00312866
0.000496298 0.000125256 3.4546e-07
0.000125256 -0.00013364 3.57307e-07
3.4546e-07 3.57307e-07 -0.000222128
0.000640737 0.00014215 1.37455e-05
0.00014215 -0.00021187 5.06675e-06
1.37455e-05 5.06675e-06 -0.000359683
0.00581008 8.52727e-05 1.27893e-05
8.52727e-05 0.00313273 1.38566e-06
1.27893e-05 1.38566e-06 0.00312722
0.000481579 0.000152932 1.94668e-05
0.000152932 -0.000121397 1.2735e-05
1.94668e-05 1.2735e-05 -0.00021954
0.00563282 -5.69459e-05 0.000193489
-5.69459e-05 0.0030305 1.21604e-05
0.000193489 1.21604e-05 0.00302651
0.0018038 4.44556e-05 1.06338e-06
4.44556e-05 0.000106532 -4.40014e-07
1.06338e-06 -4.40014e-07 8.4605e-06
0.00179594 6.03698e-05 -1.7945e-06
6.03698e-05 6.61868e-05 4.22853e-07
-1.7945e-06 4.22853e-07 -8.795e-06
0.00192372 9.74283e-05 2.60021e-06
9.74283e-05 8.74303e-05 1.95485e-07
2.60021e-06 1.95485e-07 2.41488e-05
0.00174797 -1.85825e-06 6.60246e-07
-1.85825e-06 0.000224753 -3.62621e-07
6.60246e-07 -3.62621e-07 0.000106982
0.00169463 2.75751e-06 7.68559e-08
2.75751e-06 5.212e-05 9.60846e-09
7.68559e-08 9.60846e-09 -4.6148e-05
0.00170167 7.21263e-06 1.65546e-06
7.21263e-06 1.11264e-05 3.62342e-07
1.65546e-06 3.62342e-07 -5.76348e-05
0.00173607 -2.3133e-05 -4.41701e-07
-2.3133e-05 8.18976e-05 7.22338e-07
-4.41701e-07 7.22338e-07 -1.53875e-05
0.00175015 -2.0264e-05 2.76754e-06
-2.0264e-05 0.000218922 -2.68812e-07
2.76754e-06 -2.68812e-07 9.87669e-05
0.000812066 -9.63284e-06 -1.32676e-05
-9.63284e-06 -0.000146935 5.56318e-07
-1.32676e-05 5.56318e-07 -0.000270441
0.00167615 -5.54831e-05 2.76575e-06
-5.54831e-05 0.000174506 3.73183e-08
2.76575e-06 3.73183e-08 4.45316e-05
0.000896934 -2.85917e-05 -2.18699e-06
-2.85917e-05 -9.89701e-05 2.04245e-07
-2.18699e-06 2.04245e-07 -0.000225151
0.000586341 -6.55794e-06 -1.86978e-05
-6.55794e-06 -0.000118216 2.0596e-06
-1.86978e-05 2.0596e-06 -0.000191779
0.00100127 -5.3722e-05 1.18924e-05
-5.3722e-05 -3.16361e-05 -1.93813e-06
1.18924e-05 -1.93813e-06 -0.00016029
0.000565831 -3.17911e-05 8.52018e-07
-3.17911e-05 -0.000128403 -5.58342e-08
8.52018e-07 -5.58342e-08 -0.000202102
0.00559758 -0.000114627 -0.000238683
-0.000114627 0.00299058 9.72019e-06
-0.000238683 9.72019e-06 0.00299661
0.000561133 -4.80966e-05 1.78328e-05
-4.80966e-05 -0.000123706 -3.856e-06
1.78328e-05 -3.856e-06 -0.00020141
0.00562865 -5.30797e-05 7.72677e-06
-5.30797e-05 0.00300141 -5.49523e-08
7.72677e-06 -5.49523e-08 0.00301096
0.00157909 -2.09301e-05 0.000191323
-2.09301e-05 0.000583085 -1.06545e-05
0.000191323 -1.06545e-05 0.000570116
0.00167931 7.05616e-05 2.51337e-06
7.05616e-05 4.511e-05 5.58067e-07
2.51337e-06 5.58067e-07 -6.20392e-05
0.00178565 9.67383e-05 -3.17772e-06
9.67383e-05 6.8846e-05 -9.12602e-07
-3.17772e-06 -9.12602e-07 -1.21128e-05
0.00150341 8.08256e-05 -9.99475e-07
8.08256e-05 7.05672e-05 2.30696e-07
-9.99475e-07 2.30696e-07 -6.16934e-05
0.00176683 9.79731e-05 6.3802e-07
9.79731e-05 9.98499e-05 1.87191e-07
6.3802e-07 1.87191e-07 -1.13234e-05
0.00198227 9.80723e-05 -3.59901e-08
9.80723e-05 0.000172239 -3.03339e-06
-3.59901e-08 -3.03339e-06 9.29871e-05
0.00104496 8.19882e-05 -1.24966e-05
8.19882e-05 -1.26131e-05 -2.33877e-06
-1.24966e-05 -2.33877e-06 -0.000141045
0.00150064 0.000129773 9.66524e-08
0.000129773 7.13721e-05 7.93176e-08
9.66524e-08 7.93176e-08 -7.08783e-05
0.00182071 0.000158218 3.00305e-07
0.000158218 0.000121546 -8.85521e-07
3.00305e-07 -8.85521e-07 -3.99821e-06
0.000529267 6.58033e-05 -1.75598e-05
6.58033e-05 -0.000144158 -5.28505e-06
-1.75598e-05 -5.28505e-06 -0.000221627
0.000883531 0.000109374 -2.9399e-06
0.000109374 -0.00010302 -2.67645e-07
-2.9399e-06 -2.67645e-07 -0.000238537
0.00173875 0.000184295 4.13869e-06
0.000184295 0.00023228 1.07122e-06
4.13869e-06 1.07122e-06 7.9836e-05
0.00577219 0.000189536 -0.000248567
0.000189536 0.00309633 -2.02548e-05
-0.000248567 -2.02548e-05 0.00309645
0.000525284 9.21086e-05 2.16325e-08
9.21086e-05 -0.000134592 1.79367e-07
2.16325e-08 1.79367e-07 -0.000215955
0.000700584 0.000125802 9.66585e-06
0.000125802 -0.000195717 3.66595e-06
9.66585e-06 3.66595e-06 -0.000337396
0.00578223 0.000167069 1.08021e-05
0.000167069 0.00311005 2.98091e-06
1.08021e-05 2.98091e-06 0.00310646
0.000512996 0.000118498 1.84306e-05
0.000118498 -0.000125205 9.92425e-06
1.84306e-05 9.92425e-06 -0.000213687
0.00575068 8.02039e-05 0.000219306
8.02039e-05 0.00308657 1.81101e-05
0.000219306 1.81101e-05 0.00308856
0.00172913 3.04562e-05 1.53866e-06
3.04562e-05 0.00021257 -9.29317e-09
1.53866e-06 -9.29317e-09 9.42483e-05
0.00176012 3.97712e-05 -1.45215e-06
3.97712e-05 8.36958e-05 9.3518e-08
-1.45215e-06 9.3518e-08 -1.58694e-05
0.00172565 5.76517e-05 -1.18445e-06
5.76517e-05 3.2545e-05 3.23985e-07
-1.18445e-06 3.23985e-07 -4.43106e-05
0.000802815 -7.5152e-06 -1.37815e-05
-7.5152e-06 -0.000144797 -1.42669e-07
-1.37815e-05 -1.42669e-07 -0.00026674
0.00175139 4.02926e-06 3.19761e-06
4.02926e-06 0.000226644 -2.03763e-07
3.19761e-06 -2.03763e-07 0.000108824
0.00170009 1.12446e-06 -1.5151e-06
1.12446e-06 5.3659e-05 5.98772e-07
-1.5151e-06 5.98772e-07 -4.27608e-05
0.00175703 -2.05374e-05 5.72884e-06
-2.05374e-05 0.000222371 8.49934e-08
5.72884e-06 8.49934e-08 0.000102168
0.000802436 -9.75087e-06 -1.61911e-06
-9.75087e-06 -0.000153535 8.09194e-08
-1.61911e-06 8.09194e-08 -0.000277279
0.000588629 -2.92059e-05 -1.90794e-05
-2.92059e-05 -0.000117798 8.29349e-07
-1.90794e-05 8.29349e-07 -0.000189154
0.000980955 -2.74709e-05 1.02569e-05
-2.74709e-05 -4.88308e-05 -1.20903e-06
1.02569e-05 -1.20903e-06 -0.000174622
0.000566858 4.34354e-06 3.27018e-07
4.34354e-06 -0.000130176 7.04751e-08
3.27018e-07 7.04751e-08 -0.000203062
0.00562289 -9.13858e-05 -0.000245063
-9.13858e-05 0.00300334 6.91049e-06
-0.000245063 6.91049e-06 0.00301163
0.000578103 -3.52643e-05 1.86448e-05
-3.52643e-05 -0.000119399 -2.6132e-06
1.86448e-05 -2.6132e-06 -0.000194277
0.0056284 -8.51809e-06 -3.04484e-06
-8.51809e-06 0.00299978 1.67637e-06
-3.04484e-06 1.67637e-06 0.00301121
0.00563399 -7.09397e-05 0.000238751
-7.09397e-05 0.00300331 -8.62618e-06
0.000238751 -8.62618e-06 0.00301401
0.00147361 4.81441e-05 -8.08341e-07
4.81441e-05 5.869e-05 5.88658e-08
-8.08341e-07 5.88658e-08 -6.85716e-05
0.00173995 7.37296e-05 -1.56904e-06
7.37296e-05 7.91042e-05 -1.2528e-06
-1.56904e-06 -1.2528e-06 -2.37184e-05
0.00176963 0.000101033 -4.09575e-06
0.000101033 5.48778e-05 -2.01038e-06
-4.09575e-06 -2.01038e-06 -2.33973e-05
0.00104609 4.77466e-05 -1.22272e-05
4.77466e-05 -1.01165e-05 -1.80373e-06
-1.22272e-05 -1.80373e-06 -0.000133452
0.00148835 8.04745e-05 1.91284e-07
8.04745e-05 6.21047e-05 7.72804e-09
1.91284e-07 7.72804e-09 -7.05474e-05
0.00177027 9.68283e-05 -8.878e-07
9.68283e-05 0.00010091 -1.80958e-06
-8.878e-07 -1.80958e-06 -1.0356e-05
0.00055594 4.13851e-05 -1.71572e-05
4.13851e-05 -0.000133538 -3.79235e-06
-1.71572e-05 -3.79235e-06 -0.000208708
0.00101296 8.31553e-05 2.35919e-07
8.31553e-05 -3.11575e-05 2.43869e-07
2.35919e-07 2.43869e-07 -0.000160143
0.00149895 0.000129465 2.55188e-06
0.000129465 7.16822e-05 2.50877e-07
2.55188e-06 2.50877e-07 -7.07391e-05
0.00569939 0.000178844 -0.000260337
0.000178844 0.00305518 -1.74801e-05
-0.000260337 -1.74801e-05 0.00305655
0.000555415 6.89993e-05 3.32375e-07
6.89993e-05 -0.000128649 1.51761e-07
3.32375e-07 1.51761e-07 -0.000206666
0.000967464 0.000112824 9.71127e-06
0.000112824 -5.17485e-05 3.05527e-06
9.71127e-06 3.05527e-06 -0.000186932
0.00575735 0.000203128 6.24796e-06
0.000203128 0.00309418 2.74487e-06
6.24796e-06 2.74487e-06 0.00309161
0.000550761 9.28856e-05 1.7655e-05
9.28856e-05 -0.000119837 7.74234e-06
1.7655e-05 7.74234e-06 -0.000201562
0.00576674 0.000190502 0.000238199
0.000190502 0.00310128 2.32482e-05
0.000238199 2.32482e-05 0.00309796
0.00100493 1.44501e-05 -1.28635e-05
1.44501e-05 -2.18301e-05 -7.34154e-07
-1.28635e-05 -7.34154e-07 -0.000142461
0.00162793 2.60901e-05 3.64597e-06
2.60901e-05 0.000153211 1.081e-07
3.64597e-06 1.081e-07 3.46176e-05
0.00172027 3.45414e-05 -4.32931e-06
3.45414e-05 6.28112e-05 1.44506e-07
-4.32931e-06 1.44506e-07 -3.82561e-05
0.000618087 2.99537e-05 -1.95862e-05
2.99537e-05 -0.00010747 -4.77327e-07
-1.95862e-05 -4.77327e-07 -0.000171844
0.000783201 -1.90558e-06 -1.8367e-06
-1.90558e-06 -0.00015731 5.37429e-08
-1.8367e-06 5.37429e-08 -0.000279409
0.00175226 1.04233e-05 5.81865e-06
1.04233e-05 0.000226977 1.39882e-07
5.81865e-06 1.39882e-07 0.000109091
0.000791779 -9.4905e-06 1.00899e-05
-9.4905e-06 -0.000160896 -4.13714e-07
1.00899e-05 -4.13714e-07 -0.000284852
0.00058237 -4.56328e-06 2.82824e-07
-4.56328e-06 -0.000121223 3.29615e-07
2.82824e-07 3.29615e-07 -0.000192808
0.00559159 3.81668e-05 -0.000250465
3.81668e-05 0.00298041 -4.14627e-07
-0.000250465 -4.14627e-07 0.00299266
0.000543857 1.57341e-05 1.81521e-05
1.57341e-05 -0.000144832 -1.22489e-06
1.81521e-05 -1.22489e-06 -0.000216699
0.00560318 -9.01115e-05 -7.84068e-06
-9.01115e-05 0.00299242 1.56813e-06
-7.84068e-06 1.56813e-06 0.00300038
0.00559313 1.11277e-05 0.000230007
1.11277e-05 0.00297918 -3.89899e-06
0.000230007 -3.89899e-06 0.00299032
0.00102107 2.55007e-05 -1.26401e-05
2.55007e-05 -1.75832e-05 -1.38872e-06
-1.26401e-05 -1.38872e-06 -0.000138553
0.00148174 4.74336e-05 -1.50065e-07
4.74336e-05 6.3531e-05 -7.57807e-08
-1.50065e-07 -7.57807e-08 -6.13195e-05
0.00180275 7.66136e-05 -4.57321e-06
7.66136e-05 0.000114151 -2.18118e-06
-4.57321e-06 -2.18118e-06 1.56728e-05
0.00262175 5.08703e-05 -0.000119878
5.08703e-05 0.00109553 -3.85183e-06
-0.000119878 -3.85183e-06 0.00104708
0.00101264 4.96174e-05 2.74409e-07
4.96174e-05 -3.03518e-05 1.12261e-07
2.74409e-07 1.12261e-07 -0.000154092
0.00147476 8.00711e-05 2.21423e-06
8.00711e-05 5.44559e-05 -7.59018e-08
2.21423e-06 -7.59018e-08 -7.85951e-05
0.00562603 0.00014006 -0.000262091
0.00014006 0.00300931 -1.29481e-05
-0.000262091 -1.29481e-05 0.00301472
0.000589928 5.8467e-05 8.25216e-07
5.8467e-05 -0.000111487 3.54799e-07
8.25216e-07 3.54799e-07 -0.000188212
0.000984699 8.44504e-05 1.23747e-05
8.44504e-05 -4.74383e-05 2.77881e-06
1.23747e-05 2.77881e-06 -0.000176955
0.00574206 0.000190879 1.77872e-06
0.000190879 0.00308247 1.6558e-06
1.77872e-06 1.6558e-06 0.00308279
0.000591907 7.48612e-05 1.79962e-05
7.48612e-05 -0.000105935 6.07821e-06
1.79962e-05 6.07821e-06 -0.000185093
0.00574289 0.000230459 0.000249425
0.000230459 0.00309429 2.46523e-05
0.000249425 2.46523e-05 0.00308713
0.000664157 9.4573e-06 -1.63512e-05
9.4573e-06 -6.94446e-05 -1.78666e-06
-1.63512e-05 -1.78666e-06 -0.000141896
0.000887238 1.27546e-05 6.50277e-07
1.27546e-05 -9.27275e-05 2.49719e-07
6.50277e-07 2.49719e-07 -0.000213912
0.00152312 2.11691e-05 4.91772e-06
2.11691e-05 9.15596e-05 1.11147e-07
4.91772e-06 1.11147e-07 -2.72669e-05
0.00546356 -9.39193e-05 -0.000234318
-9.39193e-05 0.00292077 1.21831e-06
-0.000234318 1.21831e-06 0.00292325
0.000578184 7.84179e-06 -5.16857e-07
7.84179e-06 -0.000126365 1.24022e-07
-5.16857e-07 1.24022e-07 -0.000193373
0.000775842 3.06772e-06 9.98911e-06
3.06772e-06 -0.000162746 1.02917e-07
9.98911e-06 1.02917e-07 -0.000284963
0.000541778 2.0672e-05 1.83789e-05
2.0672e-05 -0.000145747 1.50999e-07
1.83789e-05 1.50999e-07 -0.000216711
0.00554607 2.33534e-06 2.46123e-06
2.33534e-06 0.00295789 -9.41768e-07
2.46123e-06 -9.41768e-07 0.00296675
0.00561388 -5.53112e-06 0.000239235
-5.53112e-06 0.0029893 -2.03368e-06
0.000239235 -2.03368e-06 0.00300198
0.002692 8.13569e-06 -0.000116456
8.13569e-06 0.00113441 -2.38539e-06
-0.000116456 -2.38539e-06 0.00108742
0.0010159 2.84622e-05 5.09417e-08
2.84622e-05 -2.23247e-05 8.59241e-08
5.09417e-08 8.59241e-08 -0.000143571
0.00148546 4.68772e-05 1.90747e-06
4.68772e-05 6.60257e-05 -2.37931e-07
1.90747e-06 -2.37931e-07 -5.64106e-05
0.00521919 -5.53451e-05 -8.35045e-05
-5.53451e-05 0.00277839 5.01309e-07
-8.35045e-05 5.01309e-07 0.00276462
0.000605786 5.08247e-05 5.43843e-08
5.08247e-05 -0.000103567 2.08997e-07
5.43843e-08 2.08997e-07 -0.000177295
0.000995924 5.20325e-05 1.21428e-05
5.20325e-05 -4.12643e-05 2.06445e-06
1.21428e-05 2.06445e-06 -0.00016535
0.00567808 0.000110785 -1.08315e-05
0.000110785 0.00303562 -1.22673e-06
-1.08315e-05 -1.22673e-06 0.00304273
0.000620994 8.0645e-05 1.94293e-05
8.0645e-05 -9.25169e-05 5.08949e-06
1.94293e-05 5.08949e-06 -0.000169899
0.00575656 0.000215031 0.000260363
0.000215031 0.00309841 2.25703e-05
0.000260363 2.25703e-05 0.00309524
0.00167402 -5.02079e-05 -0.000196784
-5.02079e-05 0.000634548 7.56943e-07
-0.000196784 7.56943e-07 0.000626653
0.00164652 2.60192e-05 -4.8682e-05
2.60192e-05 0.000509198 2.0655e-07
-4.8682e-05 2.0655e-07 0.000453957
0.000767097 1.35184e-05 1.2425e-05
1.35184e-05 -0.000164793 9.44984e-07
1.2425e-05 9.44984e-07 -0.000286592
0.00552226 -4.06754e-05 7.69744e-06
-4.06754e-05 0.00295023 1.42318e-06
7.69744e-06 1.42318e-06 0.00295695
0.000593905 -1.25199e-05 1.89204e-05
-1.25199e-05 -0.000111686 8.05338e-07
1.89204e-05 8.05338e-07 -0.000181944
0.00557972 -6.50503e-05 0.000253367
-6.50503e-05 0.00297913 -2.27635e-06
0.000253367 -2.27635e-06 0.00298848
0.00126741 1.14614e-05 -4.06662e-05
1.14614e-05 0.000415961 -6.84097e-07
-4.06662e-05 -6.84097e-07 0.00038187
0.00163656 1.29799e-05 -4.90698e-05
1.29799e-05 0.000506949 -6.91976e-07
-4.90698e-05 -6.91976e-07 0.000448555
0.000999818 3.0038e-05 1.23747e-05
3.0038e-05 -3.32265e-05 1.6113e-06
1.23747e-05 1.6113e-06 -0.000154777
0.00345292 5.14737e-05 9.30498e-05
5.14737e-05 0.00170901 2.24328e-06
9.30498e-05 2.24328e-06 0.00169803
0.000614156 6.1035e-05 1.96994e-05
6.1035e-05 -9.85169e-05 3.91074e-06
1.96994e-05 3.91074e-06 -0.000172304
0.00573129 0.000100272 0.000248983
0.000100272 0.00306166 1.36733e-05
0.000248983 1.36733e-05 0.0030717
0.00546971 -2.1685e-05 -8.88888e-06
-2.1685e-05 0.0029216 -2.04728e-06
-8.88888e-06 -2.04728e-06 0.00292747
0.000595493 4.392e-05 2.03187e-05
4.392e-05 -0.000119082 2.0013e-06
2.03187e-05 2.0013e-06 -0.000183211
0.00543856 4.91178e-05 0.000240121
4.91178e-05 0.00289741 6.56645e-08
0.000240121 6.56645e-08 0.00290701
0.0033896 2.67602e-05 0.000106618
2.67602e-05 0.0016755 3.36179e-06
0.000106618 3.36179e-06 0.0016649
0.000625393 5.23373e-06 1.8875e-05
5.23373e-06 -9.3169e-05 2.65218e-06
1.8875e-05 2.65218e-06 -0.000163779
0.00561083 -2.32754e-05 0.000239981
-2.32754e-05 0.00299268 6.01574e-06
0.000239981 6.01574e-06 0.00300231
0.00550439 -0.000126331 0.000236282
-0.000126331 0.00294769 -3.07128e-06
0.000236282 -3.07128e-06 0.00294873
0.00549108 -8.80362e-06 0.00023586
-8.80362e-06 0.00291973 3.16871e-06
0.00023586 3.16871e-06 0.00293257
