# vtk DataFile Version 2.0
Wound Healing Simulation
ASCII
DATASET UNSTRUCTURED_GRID
POINTS 3012 float
69.9759 18.75 4
67.2507 60.3285 4
69.976 18.75 2
73.0099 25.446 4
71.1327 20.9142 4
68.6801 16.6661 4
67.8222 19.9262 3.97518
67.2507 60.3286 2
71.1327 54.0858 4
68.6801 58.3339 4
65.6939 62.2254 4
65.3092 58.9993 3.97398
74.6784 42.3946 4
73.7221 47.2057 4
69.9759 18.75 0
73.0099 25.446 2
68.6801 16.6661 2
71.1327 20.9142 2
67.823 19.9302 2
74.6792 32.6053 4
73.7222 27.7943 4
72.1454 23.1494 4
70.6117 26.2216 3.97494
68.8826 21.9579 3.97556
67.2507 14.6715 4
66.6335 17.973 3.97398
65.7832 21.0303 3.96373
67.2507 60.3285 0
71.1327 54.0858 2
68.6801 58.3339 2
65.694 62.2255 2
65.3102 58.9946 2
72.1454 51.8506 4
69.9759 56.25 4
68.8332 53.1136 3.97506
64.0165 64.0165 4
66.6074 57.1327 3.97478
63.8824 60.7633 3.97361
63.4922 57.764 3.96549
60.3285 67.2507 4
74.6792 42.3947 2
73.7222 47.2057 2
74.9194 39.9526 4
74.2788 44.8158 4
72.1665 42.0856 3.97642
73.0099 49.554 4
71.2469 46.598 3.97479
73.0099 25.446 0
71.1327 20.9142 0
68.6801 16.6661 0
67.8222 19.9262 0.0248183
74.6792 32.6053 2
73.7222 27.7943 2
67.2508 14.6715 2
72.1455 23.1494 2
70.6113 26.2222 2
66.6349 17.9777 2
68.8829 21.9607 2
65.7804 21.0324 2
74.9197 35.0474 4
74.2794 30.1841 4
72.1832 32.9443 3.97672
71.2761 28.4322 3.97531
69.8128 24.0597 3.97531
68.3394 26.9549 3.96423
66.7501 22.9373 3.96377
65.694 12.7746 4
65.3197 16.1059 3.97221
64.7029 19.2011 3.96376
63.794 22.0716 3.96433
71.1327 54.0858 0
65.6939 62.2254 0
68.6801 58.3339 0
65.3092 58.9993 0.0260213
72.1455 51.8506 2
69.9759 56.25 2
68.8334 53.111 2
64.0165 64.0165 2
66.6083 57.1285 2
63.8838 60.7582 2
63.4906 57.7639 2
62.2254 65.694 4
58.8917 65.4129 3.98317
69.766 50.9894 3.97478
67.7804 55.1672 3.97516
66.6334 52.2057 3.9639
62.3326 62.4244 3.97702
64.6518 56.0272 3.96442
62.1954 59.3912 3.96526
61.7682 56.6515 3.96143
58.3339 68.6801 4
60.3285 67.2508 2
73.7221 47.2057 0
74.6784 42.3946 0
74.9197 39.9526 2
74.2794 44.8159 2
72.1657 42.0853 2
73.0099 49.554 2
71.2464 46.5977 2
75 37.5 4
72.4038 39.8025 3.97746
71.7806 44.3529 3.97615
69.7988 41.7898 3.96689
70.5725 48.8138 3.9745
68.9051 46.0136 3.96531
74.6792 32.6053 0
73.7222 27.7943 0
67.2507 14.6715 0
72.1454 23.1494 0
70.6117 26.2216 0.0250557
68.8826 21.9579 0.0244443
66.6335 17.973 0.0260163
65.7832 21.0303 0.0362719
74.9197 35.0474 2
74.2794 30.1841 2
72.1824 32.9446 2
71.2757 28.4328 2
65.694 12.7745 2
65.3211 16.111 2
69.8126 24.0613 2
68.3397 26.9559 2
64.6979 19.2034 2
66.75 22.9391 2
63.7933 22.0726 2
72.4117 35.2249 3.97752
71.8021 30.6773 3.9763
69.835 33.2712 3.96682
68.9601 29.0414 3.96515
67.602 24.9155 3.96394
66.0869 27.6629 3.96838
64.0165 10.9835 4
64.6552 23.8643 3.96582
63.8858 14.3305 3.97296
63.5034 17.4571 3.96425
62.8203 20.3593 3.96236
61.9074 23.0138 3.96855
60.6808 11.1018 3.9781
57.6054 11.4747 3.9692
72.1454 51.8506 0
69.9759 56.25 0
68.8332 53.1136 0.0249409
64.0165 64.0165 0
63.8824 60.7633 0.0263911
66.6074 57.1327 0.0252197
63.4922 57.764 0.0345077
62.2255 65.694 2
58.8939 65.409 2
69.7657 50.9878 2
67.781 55.1637 2
66.6327 52.2044 2
62.3349 62.4197 2
64.6484 56.0262 2
62.1928 59.391 2
61.7674 56.6519 2
60.6659 63.9736 3.97972
57.0226 66.7337 3.98617
57.5523 63.6741 3.97133
67.492 50.1736 3.96413
65.6897 54.1699 3.96401
64.4203 51.3511 3.96598
60.7674 60.9178 3.96834
62.7432 55.0368 3.96332
60.6197 58.1281 3.96025
60.2141 55.7304 3.96467
56.25 69.9759 4
58.3339 68.6801 2
60.3285 67.2507 0
58.9181 9.6597 3.97943
62.2254 9.30607 4
73.0099 49.554 0
74.2788 44.8158 0
71.2469 46.598 0.0252119
72.1665 42.0856 0.0235766
74.9194 39.9526 0
75 37.5 2
72.4036 39.8024 2
71.7804 44.3523 2
69.798 41.7895 2
70.5719 48.813 2
68.9054 46.0131 2
72.4872 37.5126 3.97708
70.0364 39.6582 3.96727
69.4247 43.907 3.96641
67.4963 41.4885 3.97271
68.2535 48.1048 3.96458
66.5879 45.4179 3.97067
74.9197 35.0474 0
74.2794 30.1841 0
72.1832 32.9443 0.0232796
71.2761 28.4322 0.0246865
65.694 12.7746 0
65.3197 16.1059 0.0277883
69.8128 24.0597 0.0246889
68.3394 26.9549 0.0357682
66.7501 22.9373 0.0362261
64.7029 19.2011 0.0362398
63.794 22.0716 0.035667
72.4115 35.2249 2
71.8019 30.6779 2
69.8342 33.2719 2
68.9598 29.0424 2
64.0165 10.9835 2
63.8878 14.3359 2
63.5016 17.4583 2
67.6028 24.9169 2
66.0858 27.6637 2
62.8183 20.3602 2
64.6542 23.8654 2
61.9063 23.0149 2
60.6835 11.1061 2
57.6063 11.468 2
70.0532 35.3942 3.9673
69.4617 31.1526 3.96591
67.5619 33.6035 3.97187
66.6638 29.6468 3.96931
65.4182 25.7309 3.96722
63.919 28.3112 3.97522
62.3377 12.6589 3.97612
62.6533 24.7045 3.97083
62.1901 15.8012 3.96548
61.7423 18.7252 3.96052
61.0435 21.4168 3.96555
60.1523 23.8303 3.9726
59.2391 12.8102 3.96657
55.8683 10.2587 3.97276
56.3935 13.1728 3.96924
69.766 50.9894 0.0252189
62.2254 65.694 0
58.8917 65.4129 0.0168339
67.7804 55.1672 0.0248433
66.6334 52.2057 0.0361031
62.3326 62.4244 0.0229758
62.1954 59.3912 0.0347444
64.6518 56.0272 0.0355818
61.7682 56.6515 0.038571
60.6682 63.9706 2
57.0251 66.7315 2
57.5533 63.6787 2
67.4928 50.1726 2
65.6865 54.1684 2
64.4201 51.3506 2
60.7659 60.9196 2
62.7427 55.0368 2
60.6231 58.13 2
60.2125 55.7303 2
55.0684 67.9311 3.98772
59.2131 62.3369 3.96887
55.8006 64.9005 3.97439
56.3158 62.0441 3.97137
65.2039 49.3758 3.96734
63.6038 53.2584 3.96458
62.2072 50.5854 3.96987
59.3158 59.5254 3.96148
60.918 54.2483 3.96716
59.1846 56.9524 3.96146
59.0759 55.1095 3.96775
48.0996 68.574 3.98379
50.9462 69.9312 3.98965
54.0858 71.1327 4
56.25 69.976 2
58.3339 68.6801 0
57.0555 8.33886 3.98172
60.3285 7.74928 4
58.9211 9.66383 2
62.2255 9.30602 2
70.5725 48.8138 0.0255045
71.7806 44.3529 0.0238542
68.9051 46.0136 0.0346883
69.7988 41.7898 0.0331131
72.4038 39.8025 0.0225363
75 37.5 0
72.4865 37.5125 2
70.0361 39.6581 2
69.4244 43.9065 2
67.4944 41.4882 2
68.2553 48.1042 2
66.5855 45.4173 2
70.1245 37.5231 3.96734
67.7423 39.5091 3.97298
67.1085 43.4544 3.9714
65.319 41.188 3.97657
65.9401 47.3899 3.96925
64.3922 44.8023 3.97599
72.4117 35.2249 0.0224829
71.8021 30.6773 0.0237044
69.835 33.2712 0.0331837
68.9601 29.0414 0.0348468
64.0165 10.9835 0
63.8858 14.3305 0.0270365
63.5034 17.4571 0.03575
67.602 24.9155 0.0360562
66.0869 27.6629 0.0316206
64.6552 23.8643 0.0341786
62.8203 20.3593 0.0376362
61.9074 23.0138 0.0314546
60.6808 11.1018 0.0219027
57.6054 11.4747 0.0308038
70.053 35.3945 2
69.4614 31.1533 2
67.56 33.604 2
66.6618 29.6475 2
62.3404 12.664 2
62.1883 15.8023 2
61.7416 18.7254 2
65.4173 25.7319 2
63.9168 28.3125 2
61.0419 21.4178 2
62.6517 24.7057 2
60.1507 23.8316 2
59.2397 12.8104 2
56.3947 13.1704 2
55.8705 10.2564 2
67.7807 35.5549 3.97245
67.1666 31.6406 3.97084
65.4756 33.9517 3.97681
64.4303 30.2395 3.97625
63.3206 26.4765 3.97315
61.9198 28.8632 3.97609
60.7678 14.2468 3.96662
60.747 25.4368 3.97499
60.5673 17.1682 3.95998
60.059 19.8963 3.96201
59.3988 22.3676 3.96836
58.6339 24.4523 3.97453
54.0337 9.14827 3.97265
57.896 14.3792 3.96505
54.7751 12.071 3.96787
55.2923 14.7199 3.96517
67.492 50.1736 0.0358743
57.0226 66.7337 0.0138308
60.6659 63.9736 0.0202794
57.5523 63.6741 0.0286746
65.6897 54.1699 0.03599
64.4203 51.3511 0.0340244
60.7674 60.9178 0.0316604
60.6197 58.1281 0.0397455
62.7432 55.0368 0.0366832
60.2141 55.7304 0.0353272
55.0707 67.9293 2
59.2129 62.3395 2
55.8013 64.899 2
56.3146 62.0443 2
65.2031 49.3752 2
63.6036 53.2582 2
62.2067 50.5849 2
59.3157 59.5286 2
60.9181 54.2483 2
59.1904 56.954 2
59.0799 55.1103 2
53.0405 68.9993 3.98922
53.9631 66.0047 3.97797
57.8673 60.8326 3.9687
54.6733 63.1739 3.97079
55.1932 60.5632 3.97484
62.9431 48.5985 3.97218
61.5412 52.5098 3.96849
59.9298 49.9217 3.97252
57.9592 58.2116 3.96074
59.1071 53.8636 3.9694
57.9337 55.7261 3.96294
50.1062 67.8519 3.98284
47.4604 66.57 3.97863
46.0536 69.1533 3.98481
48.1006 68.5739 2
48.8002 70.7225 3.99015
50.948 69.9304 2
51.8506 72.1454 4
54.0858 71.1327 2
56.25 69.9759 0
55.1005 7.14318 3.98528
58.3339 6.31992 4
57.0588 8.34233 2
60.3286 7.74926 2
58.9181 9.6597 0.0205686
62.2254 9.30607 0
68.2535 48.1048 0.0354161
69.4247 43.907 0.0335898
66.5879 45.4179 0.0293318
67.4963 41.4885 0.0272869
70.0364 39.6582 0.0327296
72.4872 37.5126 0.0229187
70.1237 37.5232 2
67.74 39.509 2
67.1076 43.4541 2
65.3161 41.1875 2
65.9394 47.3893 2
64.3905 44.8015 2
67.8428 37.5242 3.97285
65.5585 39.3611 3.97662
64.9314 42.9901 3.9767
63.4145 40.8998 3.97659
63.7017 46.6611 3.97427
62.4326 44.1472 3.97619
70.0532 35.3942 0.0326992
69.4617 31.1526 0.034087
67.5619 33.6035 0.0281269
66.6638 29.6468 0.0306855
62.3377 12.6589 0.0238763
62.1901 15.8012 0.0345221
61.7423 18.7252 0.0394827
65.4182 25.7309 0.0327792
63.919 28.3112 0.0247785
62.6533 24.7045 0.0291708
61.0435 21.4168 0.0344464
60.1523 23.8303 0.0273958
59.2391 12.8102 0.0334348
56.3935 13.1728 0.0307595
55.8683 10.2587 0.0272393
67.7782 35.5552 2
67.1653 31.6412 2
65.4718 33.9525 2
64.4274 30.2407 2
60.7674 14.2478 2
60.5647 17.1684 2
60.0574 19.8973 2
63.3188 26.4777 2
61.9177 28.8639 2
59.3999 22.3684 2
60.7447 25.4382 2
58.6321 24.4538 2
57.8948 14.3795 2
55.2936 14.7166 2
54.0361 9.14812 2
54.7762 12.0662 2
65.6571 35.6809 3.97669
64.9506 32.191 3.97652
63.9814 34.2805 3.97658
62.2367 30.7045 3.97626
61.3307 27.1661 3.97574
60.4383 29.2426 3.97629
59.2885 15.7102 3.96046
58.9482 25.9301 3.97618
59.007 18.4319 3.96027
58.5015 20.9674 3.96372
57.9544 23.2305 3.9698
57.589 24.816 3.97526
52.1092 8.16343 3.97646
53.0482 11.0578 3.96945
56.6467 15.8093 3.96019
53.7883 13.7596 3.96532
54.3331 16.0896 3.96056
55.0684 67.9311 0.0122829
65.2039 49.3758 0.0326566
55.8006 64.9005 0.0256072
59.2131 62.3369 0.0311265
56.3158 62.0441 0.0286282
63.6038 53.2584 0.0354173
62.2072 50.5854 0.0301313
59.3158 59.5254 0.0385223
59.1846 56.9524 0.0385372
60.918 54.2483 0.0328409
59.0759 55.1095 0.0322469
53.0426 68.9983 2
53.9642 66.0041 2
57.8658 60.8336 2
54.6729 63.1752 2
55.1906 60.5634 2
62.9415 48.5977 2
61.5415 52.5096 2
59.931 49.9214 2
57.9564 58.2126 2
59.1112 53.8641 2
57.93 55.7247 2
52.0673 66.9939 3.98139
52.947 64.2009 3.97505
56.6197 59.4429 3.9647
53.661 61.5655 3.97066
54.2265 59.2665 3.9723
60.6047 47.7851 3.97391
59.418 52.0111 3.97048
57.5934 49.4891 3.97388
56.6692 56.9148 3.96325
56.8437 54.0129 3.96679
50.107 67.8515 2
49.3338 65.9103 3.97856
47.4608 66.5698 2
46.888 64.7187 3.97726
45.5561 67.0876 3.97939
43.9713 69.5854 3.98587
46.0546 69.1533 2
46.6067 71.3669 3.99064
48.0996 68.574 0.0162112
48.8018 70.722 2
49.554 73.0099 4
50.9462 69.9312 0.010348
51.8506 72.1455 2
54.0858 71.1327 0
53.0629 6.07343 3.98848
55.1039 7.14477 2
56.25 5.02411 4
58.3339 6.3199 2
57.0555 8.33886 0.0182758
60.3285 7.74928 0
65.9401 47.3899 0.0307494
67.1085 43.4544 0.0285965
64.3922 44.8023 0.0240071
65.319 41.188 0.0234343
67.7423 39.5091 0.0270237
70.1245 37.5231 0.0326554
67.8407 37.5243 2
65.5551 39.3609 2
64.9283 42.9891 2
63.4136 40.8995 2
63.7 46.6603 2
62.4312 44.1467 2
65.6674 37.5047 3.97661
63.5639 39.2537 3.97667
62.9676 42.5049 3.97638
62.0094 40.6608 3.9766
61.5778 45.8351 3.97566
60.9852 43.6067 3.97611
67.7807 35.5549 0.0275486
67.1666 31.6406 0.0291644
65.4756 33.9517 0.0231916
64.4303 30.2395 0.023749
60.7678 14.2468 0.0333775
60.5673 17.1682 0.0400162
60.059 19.8963 0.0379906
63.3206 26.4765 0.0268546
61.9198 28.8632 0.0239088
60.747 25.4368 0.0250064
59.3988 22.3676 0.0316368
58.6339 24.4523 0.025473
57.896 14.3792 0.0349504
55.2923 14.7199 0.0348334
54.0337 9.14827 0.0273474
54.7751 12.071 0.0321283
65.6535 35.681 2
64.9472 32.192 2
63.9798 34.2809 2
62.235 30.7049 2
59.2874 15.7091 2
59.0166 18.4297 2
58.501 20.9686 2
61.329 27.1673 2
60.4378 29.2432 2
57.9459 23.2337 2
58.9471 25.9313 2
57.5942 24.8178 2
56.645 15.8089 2
54.3382 16.0836 2
53.788 13.7483 2
52.1113 8.16313 2
53.0495 11.0565 2
63.7738 35.6507 3.97648
62.5611 33.0953 3.97623
60.1529 30.7088 3.97596
59.1367 28.0371 3.97604
57.8765 17.0527 3.95928
57.3024 25.8905 3.97604
57.5253 19.5864 3.95994
57.0535 21.987 3.96411
56.781 24.1132 3.97067
50.1104 7.29253 3.98187
51.2255 10.1486 3.97316
52.1538 12.8626 3.96929
55.4737 17.0629 3.95863
52.9406 15.3591 3.96327
53.6924 17.0885 3.95826
53.0405 68.9993 0.0107785
53.9631 66.0047 0.0220283
62.9431 48.5985 0.0278211
54.6733 63.1739 0.0292059
57.8673 60.8326 0.0313004
55.1932 60.5632 0.0251639
61.5412 52.5098 0.0315052
59.9298 49.9217 0.0274849
57.9592 58.2116 0.0392602
57.9337 55.7261 0.0370578
59.1071 53.8636 0.0305963
52.0683 66.994 2
52.9465 64.2023 2
56.6175 59.4432 2
53.6591 61.567 2
54.2231 59.2683 2
60.6043 47.7844 2
59.4193 52.0109 2
57.5924 49.4883 2
56.6652 56.9181 2
56.8407 54.0118 2
51.1641 65.1155 3.97719
52.0317 62.5082 3.97166
55.4193 58.1903 3.9611
52.7965 60.0592 3.96845
53.5893 58.4075 3.96599
57.7721 46.7104 3.97581
57.2006 51.6658 3.97067
55.7387 49.4033 3.97331
55.3139 55.7008 3.96442
55.0292 53.2589 3.96349
50.1062 67.8519 0.0171593
49.3339 65.9098 2
48.6122 64.1063 3.97796
47.4604 66.57 0.0213663
45.5564 67.088 2
46.8886 64.7179 2
46.3742 63.0306 3.98234
45.1298 65.1801 3.9774
43.6298 67.4597 3.98142
41.8591 69.8726 3.98557
43.972 69.5859 2
44.3741 71.8614 3.99103
46.0536 69.1533 0.0151937
46.608 71.3666 2
47.2057 73.7222 4
48.8002 70.7225 0.00984513
49.554 73.0099 2
51.8506 72.1454 0
50.9537 5.13407 3.99033
53.0654 6.07435 2
54.0858 3.86728 4
55.1005 7.14318 0.0147193
56.25 5.02406 2
58.3339 6.31992 0
63.7017 46.6611 0.0257259
64.9314 42.9901 0.0232964
62.4326 44.1472 0.0238083
63.4145 40.8998 0.0234142
65.5585 39.3611 0.0233804
67.8428 37.5242 0.0271466
65.6638 37.5047 2
63.5633 39.2537 2
62.967 42.5047 2
62.0102 40.6606 2
61.5766 45.8342 2
60.9848 43.6067 2
63.6281 37.459 3.97657
61.7172 39.3342 3.97675
60.73 41.8962 3.97657
59.7435 44.6615 3.97609
65.6571 35.6809 0.0233125
64.9506 32.191 0.02348
63.9814 34.2805 0.0234249
62.2367 30.7045 0.0237438
59.2885 15.7102 0.0395405
59.007 18.4319 0.0397307
58.5015 20.9674 0.0362832
61.3307 27.1661 0.0242586
60.4383 29.2426 0.0237138
58.9482 25.9301 0.0238152
57.9544 23.2305 0.0302022
57.589 24.816 0.0247445
56.6467 15.8093 0.0398055
54.3331 16.0896 0.0394433
53.7883 13.7596 0.034683
52.1092 8.16343 0.0235373
53.0482 11.0578 0.0305535
63.7729 35.6507 2
62.5612 33.0957 2
60.1534 30.709 2
57.877 17.0525 2
57.5414 19.5822 2
57.0495 21.9895 2
59.136 28.038 2
56.7976 24.1143 2
57.3046 25.8935 2
50.1124 7.29027 2
55.4777 17.0599 2
53.7031 17.0778 2
52.9401 15.3498 2
52.1548 12.8668 2
51.2275 10.1456 2
61.7607 35.3848 3.97648
59.7728 32.8192 3.97611
58.0717 30.2022 3.97579
56.7812 27.5525 3.97641
56.527 18.2536 3.96015
55.8274 25.2915 3.97511
56.1154 20.6611 3.96086
55.7259 23.0447 3.96411
48.0557 6.53232 3.98603
49.3205 9.3465 3.97597
50.4194 12.0411 3.97217
51.3443 14.5756 3.96442
54.3134 18.0347 3.95914
52.3053 17.1578 3.95871
52.0673 66.9939 0.0186062
52.947 64.2009 0.0249481
60.6047 47.7851 0.0260899
53.661 61.5655 0.0293358
56.6197 59.4429 0.0352987
54.2265 59.2665 0.0276966
59.418 52.0111 0.0295204
57.5934 49.4891 0.026123
56.6692 56.9148 0.0367549
56.8437 54.0129 0.0332123
51.1638 65.1156 2
52.0301 62.5099 2
55.4177 58.1914 2
52.7952 60.0626 2
53.5875 58.4102 2
57.7718 46.7096 2
57.1972 51.6647 2
55.7332 49.4017 2
55.3112 55.7006 2
55.0297 53.2591 2
50.3376 63.3637 3.979
51.2152 60.8764 3.97534
54.1312 57.1957 3.96751
52.2355 58.5539 3.96913
55.9978 44.0301 3.97647
54.8879 47.7261 3.97494
54.6137 51.2407 3.966
53.7795 54.4363 3.966
49.3338 65.9103 0.0214416
48.6123 64.1047 2
47.9495 62.4538 3.98104
45.5561 67.0876 0.0206064
46.888 64.7187 0.0227393
43.63 67.4604 2
46.3745 63.0301 2
45.1305 65.18 2
45.9753 61.5597 3.98972
44.7623 63.428 3.97683
43.3557 65.4921 3.97817
41.6623 67.6783 3.98107
39.7015 70.0184 3.985
41.8597 69.8729 2
42.1088 72.2058 3.99146
43.9713 69.5854 0.0141337
44.3752 71.8613 2
44.8159 74.2794 4
46.6067 71.3669 0.00935515
47.2057 73.7222 2
49.554 73.0099 0
48.7852 4.32433 3.99124
50.9556 5.13368 2
51.8506 2.85458 4
53.0629 6.07343 0.0115222
54.0858 3.86728 2
56.25 5.02411 0
61.5778 45.8351 0.0243378
62.9676 42.5049 0.0236194
60.9852 43.6067 0.0238878
62.0094 40.6608 0.0234025
63.5639 39.2537 0.0233265
65.6674 37.5047 0.023387
63.6275 37.4589 2
61.7183 39.3343 2
60.7314 41.8962 2
59.7437 44.6609 2
61.5462 37.4454 3.97691
59.6837 39.8079 3.97679
58.3671 42.822 3.97604
63.7738 35.6507 0.0235195
62.5611 33.0953 0.0237687
60.1529 30.7088 0.0240391
57.8765 17.0527 0.0407215
57.5253 19.5864 0.0400566
57.0535 21.987 0.0358922
59.1367 28.0371 0.0239637
57.3024 25.8905 0.02396
56.781 24.1132 0.0293287
55.4737 17.0629 0.0413684
53.6924 17.0885 0.0417362
52.9406 15.3591 0.0367283
50.1104 7.29253 0.0181305
52.1538 12.8626 0.0307131
51.2255 10.1486 0.0268363
61.7616 35.3848 2
59.7731 32.8191 2
58.0729 30.2015 2
56.5298 18.2522 2
56.1379 20.6546 2
55.7353 23.0492 2
56.7813 27.5541 2
55.8344 25.297 2
48.0568 6.53121 2
49.3225 9.34458 2
54.3312 18.0323 2
52.2982 17.1498 2
51.3414 14.5765 2
50.4213 12.0415 2
59.3194 35.1564 3.97658
57.3426 32.3717 3.9756
55.9326 29.5061 3.97611
54.8817 26.8214 3.97558
55.1961 19.3098 3.96229
54.5043 24.2611 3.97276
54.7045 21.7292 3.96034
45.9625 5.88613 3.98794
43.3744 7.48002 3.98379
47.3534 8.6338 3.98085
48.5906 11.3235 3.97359
49.6845 13.7969 3.96886
50.583 16.229 3.96184
53.0064 18.8016 3.96281
51.2233 18.2116 3.96149
51.1641 65.1155 0.0228078
52.0317 62.5082 0.0283441
57.7721 46.7104 0.0241947
52.7965 60.0592 0.0315536
55.4193 58.1903 0.038898
53.5893 58.4075 0.0340146
57.2006 51.6658 0.0293303
55.7387 49.4033 0.0266948
55.3139 55.7008 0.0355793
55.0292 53.2589 0.0365088
50.3368 63.3624 2
51.2132 60.8751 2
54.13 57.1973 2
52.2325 58.5563 2
55.9984 44.0301 2
54.885 47.7247 2
54.6104 51.2395 2
53.7784 54.4381 2
49.573 61.7251 3.97488
54.7369 41.6274 3.97404
50.5091 59.2669 3.97019
52.0462 56.4038 3.9677
53.4037 45.3617 3.97418
52.7505 49.1537 3.96978
52.3122 52.7195 3.96024
48.6122 64.1063 0.022038
47.9489 62.4505 2
47.3086 60.9845 3.99382
43.6298 67.4597 0.0185771
45.1298 65.1801 0.0226003
46.3742 63.0306 0.017665
41.6628 67.6777 2
43.3567 65.493 2
45.9741 61.5597 2
44.7627 63.4274 2
45.7428 60.6054 3.99006
44.4752 61.8023 3.97923
43.1438 63.7036 3.97813
41.5456 65.6306 3.97642
39.632 67.7554 3.98029
37.5259 70.0427 3.98406
39.7019 70.0185 2
39.8162 72.4024 3.9914
41.8591 69.8726 0.0144269
42.1096 72.206 2
42.3947 74.6792 4
44.3741 71.8614 0.00896688
44.8159 74.2794 2
47.2057 73.7222 0
43.8519 5.36275 3.98729
46.5714 3.64872 3.9918
48.7861 4.32406 2
49.554 1.99015 4
50.9537 5.13407 0.00967456
51.8506 2.85453 2
54.0858 3.86728 0
59.7435 44.6615 0.0239055
60.73 41.8962 0.0234308
61.7172 39.3342 0.0232524
63.6281 37.459 0.0234334
61.5471 37.4452 2
59.6851 39.8075 2
58.3676 42.8222 2
59.1737 37.5656 3.97729
57.292 40.5904 3.97725
54.1361 39.6421 3.97544
61.7607 35.3848 0.0235225
59.7728 32.8192 0.0238914
58.0717 30.2022 0.0242104
56.527 18.2536 0.0398451
56.1154 20.6611 0.0391446
55.7259 23.0447 0.0358906
56.7812 27.5525 0.0235926
55.8274 25.2915 0.0248861
54.3134 18.0347 0.0408627
52.3053 17.1578 0.041291
51.3443 14.5756 0.0355757
48.0557 6.53232 0.0139661
49.3205 9.3465 0.0240256
50.4194 12.0411 0.0278313
59.3201 35.1558 2
45.9631 5.88455 2
43.3747 7.4775 2
57.3436 32.3722 2
55.9323 29.5055 2
55.1869 19.3153 2
54.7403 21.7307 2
54.5053 24.2668 2
54.8799 26.8232 2
47.3551 8.63111 2
48.5927 11.3216 2
53.02 18.7752 2
51.2308 18.2066 2
50.58 16.2278 2
49.6838 13.8009 2
56.6653 34.813 3.97715
54.9901 31.6567 3.97562
53.8484 28.617 3.97695
53.2594 25.7379 3.97453
53.7855 20.2803 3.96049
53.2444 22.9196 3.95722
41.4002 7.08411 3.98352
45.3598 8.00004 3.98654
42.8666 9.42667 3.97735
46.6629 10.67 3.97849
47.7217 13.1361 3.97373
48.8884 15.4735 3.96856
49.9286 17.7932 3.95809
51.5203 19.4973 3.97306
50.3376 63.3637 0.0209969
51.2152 60.8764 0.0246576
55.9978 44.0301 0.0235332
54.8879 47.7261 0.0250638
52.2355 58.5539 0.0308738
54.1312 57.1957 0.0324939
54.6137 51.2407 0.0340044
53.7795 54.4363 0.0340011
49.5714 61.7226 2
54.7269 41.6229 2
50.5062 59.2684 2
52.0487 56.4074 2
53.3989 45.3594 2
52.7474 49.1516 2
52.3147 52.7197 2
48.8101 60.1751 3.97823
51.4897 42.4959 3.98329
49.692 57.5624 3.96429
50.3556 54.3303 3.96207
51.0753 47.0662 3.97547
50.7496 50.7933 3.95496
47.1793 43.5477 3.97387
47.9495 62.4538 0.0189613
47.3063 60.9815 2
46.5844 59.777 3.99437
41.6623 67.6783 0.0189278
43.3557 65.4921 0.0218295
44.7623 63.428 0.0231743
45.9753 61.5597 0.0102839
39.6328 67.7559 2
41.5463 65.6283 2
45.7426 60.605 2
43.1436 63.7026 2
44.4733 61.8039 2
44.5997 60.2598 3.99611
42.9437 62.0558 3.97482
41.599 63.7995 3.97693
39.6467 65.5948 3.9758
37.5632 67.7361 3.97844
31.6982 65.1128 3.97564
33.393 67.4744 3.97831
35.3341 69.9532 3.98435
37.5258 70.0441 2
37.509 72.4566 3.99196
39.7015 70.0184 0.015004
39.8168 72.4024 2
39.9526 74.9197 4
42.1088 72.2058 0.0085409
42.3947 74.6792 2
44.8159 74.2794 0
41.7368 4.97077 3.98806
43.8523 5.36089 2
44.3269 3.11167 3.99242
46.572 3.64816 2
47.2057 1.27793 4
48.7852 4.32433 0.00875908
49.554 1.99013 2
51.8506 2.85458 0
58.3671 42.822 0.0239579
59.6837 39.8079 0.0232059
61.5462 37.4454 0.0230874
59.1752 37.5661 2
57.2927 40.5921 2
54.1264 39.6499 2
56.0198 37.8747 3.97678
48.5156 41.2174 3.97083
52.0779 39.279 3.98199
39.4439 6.80733 3.98417
59.3194 35.1564 0.0234198
57.3426 32.3717 0.0244027
55.9326 29.5061 0.0238935
55.1961 19.3098 0.0377069
54.7045 21.7292 0.0396564
54.5043 24.2611 0.0272352
54.8817 26.8214 0.0244196
53.0064 18.8016 0.0371898
51.2233 18.2116 0.0385052
50.583 16.229 0.038159
45.9625 5.88613 0.0120575
49.6845 13.7969 0.0311435
47.3534 8.6338 0.019153
48.5906 11.3235 0.0264068
43.3744 7.48002 0.0162144
56.6648 34.8133 2
41.4004 7.0838 2
45.3606 7.99772 2
42.8671 9.42422 2
54.9923 31.6556 2
53.8473 28.6183 2
53.7909 20.2976 2
53.2311 22.9224 2
53.2555 25.7394 2
46.6648 10.665 2
47.7224 13.133 2
51.5436 19.4971 2
49.9278 17.7939 2
48.8815 15.4847 2
53.9572 34.014 3.97484
52.6903 30.7138 3.97535
51.959 27.4714 3.97472
51.7494 24.3639 3.97855
52.1798 21.243 3.97468
41.0136 9.05814 3.97738
44.7261 10.0021 3.98507
42.4603 10.9108 4.0036
45.9841 12.7458 3.96904
47.6453 14.649 3.96635
48.0375 17.0486 3.96654
49.7303 19.8943 3.9792
49.573 61.7251 0.0251232
50.5091 59.2669 0.0298093
54.7369 41.6274 0.0259557
53.4037 45.3617 0.0258169
52.7505 49.1537 0.0302216
52.0462 56.4038 0.0322971
52.3122 52.7195 0.0397614
48.8068 60.1722 2
51.5019 42.5075 2
49.6892 57.5625 2
50.3567 54.3326 2
51.0778 47.0649 2
50.7535 50.7932 2
47.1903 43.5813 2
47.923 58.6902 3.98724
49.1686 45.0894 3.98093
48.4436 55.8474 3.95905
48.8088 52.4809 3.97648
49.1059 48.8697 3.97019
44.9122 39.7753 3.84897
45.4123 42.4717 3.88924
45.6897 45.5429 3.98289
42.7482 40.997 3.66074
41.5166 41.7648 3.46072
47.3086 60.9845 0.00618059
46.5827 59.7703 2
45.4214 58.7721 3.9946
39.632 67.7554 0.0197092
41.5456 65.6306 0.0235813
43.1438 63.7036 0.0218708
44.4752 61.8023 0.0207741
45.7428 60.6054 0.00993943
41.5993 63.7975 2
37.5637 67.7377 2
39.6479 65.5953 2
44.6003 60.2613 2
42.9416 62.0556 2
41.7472 62.4622 3.97669
42.4622 59.9495 3.98234
39.8939 63.5312 3.97607
37.6416 65.4907 3.97512
35.4637 67.6458 3.97836
33.5761 65.324 3.97446
31.9606 63.2726 3.97674
29.8862 64.7025 3.97942
31.6977 65.1122 2
31.3781 67.1855 3.97888
33.3927 67.4751 2
33.1577 69.7469 3.98431
35.3336 69.9547 2
35.1959 72.3713 3.99202
37.5259 70.0427 0.0159363
37.5092 72.4572 2
37.5 75 4
39.8162 72.4024 0.00860253
39.9526 74.9197 2
42.3947 74.6792 0
39.6249 4.71848 3.98912
41.7369 4.97029 2
42.0635 2.71867 3.99283
43.8519 5.36275 0.0127095
44.3271 3.11072 2
44.8158 0.721173 4
46.5714 3.64872 0.00819872
47.2057 1.27779 2
49.554 1.99015 0
57.292 40.5904 0.0227526
59.1737 37.5656 0.0227091
54.1361 39.6421 0.0245599
48.5383 41.2243 2
56.0211 37.8715 2
52.072 39.2426 2
52.9365 36.6139 3.97776
46.446 40.294 3.89439
49.4561 38.5036 3.98339
37.5179 6.67689 3.98522
39.4446 6.80554 2
39.2115 8.69984 3.98178
35.944 8.49775 3.98345
56.6653 34.813 0.022854
54.9901 31.6567 0.0243776
53.8484 28.617 0.0230491
53.7855 20.2803 0.0395123
53.2444 22.9196 0.0427843
53.2594 25.7379 0.0254726
51.5203 19.4973 0.0269363
49.9286 17.7932 0.0419116
48.8884 15.4735 0.0314381
45.3598 8.00004 0.0134571
47.7217 13.1361 0.0262744
46.6629 10.67 0.0215145
41.4002 7.08411 0.0164776
42.8666 9.42667 0.0226514
53.9559 34.0113 2
41.0148 9.05972 2
44.7264 9.99908 2
42.4616 10.9112 2
52.684 30.7115 2
51.966 27.4736 2
52.1772 21.2526 2
51.7372 24.3689 2
45.9851 12.7385 2
47.6376 14.6184 2
49.7508 19.8771 2
48.0334 17.0573 2
51.4543 32.9327 3.98218
50.5227 29.4324 3.97736
50.2614 25.969 3.97014
49.7436 22.4904 3.9856
40.5635 11.6204 3.98394
43.8398 11.9162 3.97705
45.7619 15.4939 3.9894
47.4368 19.5058 3.97969
45.3725 37.4833 3.84713
48.8101 60.1751 0.0217675
49.692 57.5624 0.0357057
51.4897 42.4959 0.0167079
51.0753 47.0662 0.0245346
50.7496 50.7933 0.0450389
50.3556 54.3303 0.037925
47.1793 43.5477 0.0261318
47.9195 58.696 2
49.1848 45.1048 2
48.4393 55.8499 2
48.8095 52.4855 2
49.1099 48.872 2
45.0091 39.8013 2
45.4403 42.4918 2
45.6973 45.5618 2
42.8026 41.0503 2
41.5551 41.7898 2
46.7465 57.2959 3.97997
43.4639 39.3485 3.65946
41.8943 40.7048 3.46929
47.3644 47.1176 3.98394
46.9567 54.1528 3.95977
47.1824 50.6235 3.97779
44.2392 47.1709 3.98383
44.0618 41.8119 3.84791
44.1845 44.2773 3.88438
41.8056 42.4008 3.70474
40.5538 42.0554 3.43646
46.5844 59.777 0.00562613
45.4214 58.7705 2
43.8289 57.6533 3.98293
37.5632 67.7361 0.0215612
39.6467 65.5948 0.0241952
41.599 63.7995 0.0230746
42.9437 62.0558 0.0251775
44.5997 60.2598 0.00389063
35.4638 67.6478 2
41.7456 62.4652 2
39.8933 63.5313 2
37.6423 65.4924 2
42.4646 59.9466 2
40.6175 61.6036 3.98174
40.4258 58.1248 3.98408
37.837 63.1869 3.97266
35.5729 65.4134 3.97647
33.5761 65.3243 2
31.9619 63.2759 2
33.6293 63.315 3.97513
30.3808 62.8347 3.98092
32.1295 61.9755 3.98731
26.8826 61.4543 3.98004
28.0674 64.1318 3.97932
29.8854 64.7032 2
29.4081 66.7481 3.97911
31.6982 65.1128 0.0243586
31.3778 67.1853 2
31.0156 69.4126 3.98428
33.393 67.4744 0.0216904
33.157 69.7477 2
32.894 72.1457 3.99135
35.3341 69.9532 0.015648
35.1954 72.372 2
35.0474 74.9194 4
37.509 72.4566 0.00804436
37.5 75 2
39.9526 74.9197 0
35.6224 6.72847 3.98441
37.5247 4.61747 3.98944
39.6249 4.71689 2
39.79 2.47534 3.99293
41.7368 4.97077 0.0119353
42.0633 2.71828 2
42.3946 0.32156 4
44.3269 3.11167 0.00757743
44.8159 0.72056 2
47.2057 1.27793 0
48.5156 41.2174 0.0291686
56.0198 37.8747 0.0232178
52.0779 39.279 0.0180097
46.4656 40.3007 2
49.4547 38.5021 2
52.9379 36.6413 2
50.2618 35.5598 3.97418
47.1046 37.7561 3.90069
44.9383 35.1926 3.84797
42.7963 33.9566 3.65947
41.5534 33.1927 3.45944
37.4594 8.53752 3.98455
37.5185 6.67635 2
39.4439 6.80733 0.0158305
39.2135 8.69739 2
38.9759 10.1363 3.9853
35.9002 9.78053 3.98005
34.1539 8.82974 3.98142
35.9451 8.49512 2
53.9572 34.014 0.0251584
52.6903 30.7138 0.0246494
51.959 27.4714 0.0252787
52.1798 21.243 0.0253165
51.7494 24.3639 0.0214521
49.7303 19.8943 0.0207987
48.0375 17.0486 0.0334599
47.6453 14.649 0.033652
44.7261 10.0021 0.01493
45.9841 12.7458 0.0309578
41.0136 9.05814 0.0226208
42.4603 10.9108 -0.00360325
51.4666 32.9277 2
40.566 11.6243 2
43.8392 11.909 2
50.5405 29.4325 2
50.2567 25.9745 2
49.7291 22.4809 2
45.7506 15.4401 2
47.4392 19.5365 2
49.0423 31.5538 3.98578
48.6286 27.7378 3.9764
49.0161 24.6123 3.98079
47.0626 22.2754 3.98995
38.299 12.7522 3.97697
42.0808 14.3277 3.98008
44.7507 18.6204 3.97406
43.8873 37.4851 3.67273
45.4713 37.4876 2
47.923 58.6902 0.0127624
48.4436 55.8474 0.0409503
49.1686 45.0894 0.0190692
49.1059 48.8697 0.0298061
48.8088 52.4809 0.0235235
44.9122 39.7753 0.151026
45.4123 42.4717 0.11076
45.6897 45.5429 0.0171091
42.7482 40.997 0.339262
41.5166 41.7648 0.539279
46.743 57.3026 2
43.5367 39.3753 2
41.9026 40.7182 2
47.3723 47.1142 2
46.9516 54.157 2
47.1841 50.632 2
44.2738 47.1684 2
44.1224 41.8453 2
44.2418 44.3063 2
41.8635 42.4589 2
40.5874 42.0708 2
45.2762 55.8754 4.00017
42.2386 39.192 3.47978
40.4428 40.5851 3.58205
45.5904 48.7595 4.00188
45.2403 52.4143 3.9857
42.9983 48.1657 3.99403
42.8843 45.8058 3.87863
42.9734 43.5755 3.83089
40.6774 43.3878 3.68072
39.1648 42.3126 3.48903
45.4214 58.7721 0.00540445
43.8269 57.662 2
42.0519 56.233 3.98841
35.4637 67.6458 0.0216376
37.6416 65.4907 0.0248831
39.8939 63.5312 0.0239349
41.7472 62.4622 0.0233114
42.4622 59.9495 0.017657
35.5735 65.4163 2
40.6176 61.6022 2
37.8375 63.1862 2
40.4262 58.1289 2
38.9039 56.3767 3.99356
38.2456 60.2849 3.98133
35.607 63.1811 3.97244
33.5761 65.324 0.025541
31.9606 63.2726 0.0232642
33.6309 63.3163 2
30.3816 62.8374 2
32.1311 61.9778 2
28.6886 62.1737 3.9801
33.3484 61.4808 3.97909
31.0797 61.1999 3.98315
27.5974 59.5481 3.98024
23.8334 59.0239 3.99349
25.0531 60.8216 3.97643
26.8837 61.4549 2
26.237 63.4614 3.97592
28.0667 64.1299 2
27.4654 66.1717 3.97887
29.8862 64.7025 0.0205833
29.4076 66.7479 2
28.9083 68.9378 3.98334
31.3781 67.1855 0.0211224
31.0147 69.4124 2
30.617 71.7773 3.9908
33.1577 69.7469 0.0156915
32.8931 72.1461 2
32.6054 74.6784 4
35.1959 72.3713 0.00798413
35.0474 74.9197 2
37.5 75 0
33.7255 6.98461 3.98308
35.4368 4.68763 3.98902
35.6229 6.72708 2
37.5158 2.3877 3.99304
37.5247 4.61678 2
39.6249 4.71848 0.0108785
39.7897 2.47449 2
39.9526 0.0806499 4
42.0635 2.71867 0.0071698
42.3947 0.320817 2
44.8158 0.721173 0
43.4833 35.6185 3.66386
41.9185 34.2479 3.45634
46.446 40.294 0.105611
49.4561 38.5036 0.0166081
52.9365 36.6139 0.0222414
47.1002 37.7357 2
50.2736 35.5593 2
45.0198 35.1731 2
42.8397 33.9075 2
41.5814 33.167 2
47.311 34.3604 3.9414
44.118 33.1527 3.83544
41.859 32.5591 3.70334
40.5841 32.9118 3.43545
37.312 10.6347 3.98151
37.461 8.53746 2
37.5179 6.67689 0.0147762
39.2115 8.69984 0.0182183
38.9795 10.1341 2
34.757 10.3902 3.98001
35.9027 9.77532 2
32.3809 9.37587 3.9778
34.1533 8.82525 2
35.944 8.49775 0.0165493
51.4543 32.9327 0.0178157
50.5227 29.4324 0.0226354
50.2614 25.969 0.0298567
49.7436 22.4904 0.0144038
47.4368 19.5058 0.020313
45.7619 15.4939 0.0106022
43.8398 11.9162 0.0229509
40.5635 11.6204 0.0160592
49.063 31.5392 2
38.3007 12.7474 2
42.0874 14.3405 2
48.6296 27.74 2
49.0082 24.6169 2
47.0474 22.2757 2
44.7541 18.6869 2
46.9666 29.7312 3.98345
46.6992 25.3296 3.97269
44.2009 21.625 3.98042
36.586 12.966 3.97461
38.6768 14.8689 3.97497
41.7201 17.9567 3.97837
42.4054 37.465 3.51651
43.9491 37.4866 2
45.3725 37.4833 0.152873
46.7465 57.2959 0.0200301
46.9567 54.1528 0.0402334
47.3644 47.1176 0.0160552
47.1824 50.6235 0.022213
43.4639 39.3485 0.340542
44.0618 41.8119 0.152088
44.1845 44.2773 0.115619
44.2392 47.1709 0.016167
41.8056 42.4008 0.29526
41.8943 40.7048 0.530713
40.5538 42.0554 0.56354
45.2726 55.8781 2
42.2435 39.1992 2
40.482 40.5716 2
45.591 48.7785 2
45.2354 52.4168 2
43.0343 48.1808 2
42.9429 45.8562 2
43.0274 43.6076 2
40.7236 43.4576 2
39.1609 42.3301 2
43.5983 54.3312 3.99581
40.5434 39.0369 3.60303
39.0604 40.6617 3.55097
43.3198 50.2539 4.00372
41.6406 47.3099 3.92449
41.5514 44.9001 3.84181
39.3451 44.0385 3.6485
37.5013 42.4324 3.53387
43.8289 57.6533 0.0170739
42.0559 56.2258 2
40.3657 54.7918 3.99485
35.5729 65.4134 0.0235345
37.837 63.1869 0.0273445
40.6175 61.6036 0.0182641
40.4258 58.1248 0.0159159
35.6081 63.1789 2
38.2443 60.2859 2
38.9067 56.3586 2
37.9785 55.052 3.99488
36.9269 57.5665 3.99135
35.3642 60.8795 3.97943
33.6293 63.315 0.0248686
30.3808 62.8347 0.0190833
32.1295 61.9755 0.0126895
33.3495 61.4815 2
28.6895 62.1769 2
31.0812 61.205 2
29.4241 60.2565 3.977
32.3693 59.6957 3.99616
28.07 58.3348 4.01492
27.5994 59.5475 2
25.4221 58.5444 3.97963
22.8218 58.1796 3.96761
23.4235 60.2882 3.97703
23.8357 59.0243 2
25.0546 60.8208 2
24.4431 62.7418 3.97661
26.8826 61.4543 0.0199565
26.2374 63.4605 2
25.5505 65.4803 3.97758
28.0674 64.1318 0.0206751
27.465 66.1719 2
26.8381 68.3257 3.98314
29.4081 66.7481 0.0208875
28.9074 68.9374 2
28.3722 71.2626 3.99002
31.0156 69.4126 0.0157235
30.6158 71.777 2
30.1842 74.2788 4
32.894 72.1457 0.00864529
32.6053 74.6792 2
35.0474 74.9194 0
31.7899 7.42387 3.98172
33.3494 4.9274 3.98799
33.7253 6.98198 2
35.2462 2.4636 3.99308
35.4367 4.68689 2
35.6224 6.72847 0.0155874
37.5 0 4
37.5151 2.38728 2
37.5247 4.61747 0.0105587
39.79 2.47534 0.00706916
39.9526 0.0802889 2
42.3946 0.32156 0
42.2332 35.7359 3.46352
43.5655 35.5882 2
40.4868 34.3696 3.58259
41.9185 34.2304 2
47.1046 37.7561 0.0993065
50.2618 35.5598 0.02582
44.9383 35.1926 0.152034
42.7963 33.9566 0.340527
41.5534 33.1927 0.540563
47.341 34.3766 2
44.162 33.1158 2
41.9116 32.499 2
40.6141 32.8957 2
45.4312 31.7788 3.90039
43.0237 31.3867 3.82405
40.7212 31.5761 3.68034
39.1847 32.6716 3.48423
35.6964 11.7883 3.97618
37.3162 10.6337 2
37.4594 8.53752 0.0154463
38.9759 10.1363 0.0147032
33.102 11.2282 3.97298
34.7566 10.3823 2
35.9002 9.78053 0.0199467
30.4865 10.0278 3.9772
32.3803 9.37445 2
34.1539 8.82974 0.0185843
49.0423 31.5538 0.014221
48.6286 27.7378 0.0236033
49.0161 24.6123 0.0192072
47.0626 22.2754 0.0100479
44.7507 18.6204 0.0259413
42.0808 14.3277 0.0199197
38.299 12.7522 0.0230293
36.5831 12.9446 2
46.973 29.6775 2
38.676 14.8473 2
41.7119 17.9587 2
46.6987 25.3318 2
44.1852 21.6004 2
44.9498 27.8725 3.99549
43.5536 24.2657 4.02521
41.2775 20.9705 3.9901
35.7708 14.8057 3.97949
38.6602 17.6861 3.98335
40.6 37.4466 3.62009
42.4178 37.4695 2
43.8873 37.4851 0.327267
45.2762 55.8754 -0.000167181
45.2403 52.4143 0.0142993
45.5904 48.7595 -0.0018843
42.2386 39.192 0.520216
42.9734 43.5755 0.169115
42.8843 45.8058 0.121366
42.9983 48.1657 0.00596876
40.6774 43.3878 0.319281
40.4428 40.5851 0.417945
39.1648 42.3126 0.510974
43.5953 54.3282 2
40.5559 39.0374 2
39.0595 40.658 2
43.3119 50.267 2
41.6439 47.3463 2
41.5708 44.9462 2
37.4963 42.4547 2
39.3619 44.1072 2
41.7486 52.7961 4.00012
39.0698 39.0774 3.55754
37.5041 40.7167 3.58661
35.8457 42.3221 3.48614
40.7853 49.393 3.99401
39.7061 45.6257 3.80822
37.4994 44.3078 3.68345
42.0519 56.233 0.0115887
40.3648 54.8 2
38.72 53.5916 3.9965
35.607 63.1811 0.0275557
38.2456 60.2849 0.0186657
38.9039 56.3767 0.00644072
35.3639 60.872 2
36.9284 57.5743 2
37.9786 55.0498 2
36.3155 55.1352 3.99739
34.4939 58.4789 3.99355
33.3484 61.4808 0.0209095
28.6886 62.1737 0.0199004
31.0797 61.1999 0.0168498
32.3693 59.6983 2
29.4257 60.2551 2
30.3401 57.7772 3.98608
28.0732 58.3333 2
27.0415 56.7821 3.96925
27.5974 59.5481 0.0197553
25.425 58.5439 2
23.9522 56.7345 3.95944
21.4422 57.3202 3.95848
22.0261 59.5619 3.98009
22.8237 58.1813 2
22.7501 61.984 3.97286
23.4249 60.288 2
23.8334 59.0239 0.00651455
25.0531 60.8216 0.0235748
24.444 62.7443 2
23.6865 64.6957 3.97498
26.237 63.4614 0.0240816
25.5502 65.4817 2
24.8105 67.5869 3.98203
27.4654 66.1717 0.0211297
26.8371 68.3267 2
26.1675 70.6033 3.98976
28.9083 68.9378 0.0166572
28.371 71.2622 2
27.7943 73.7221 4
30.617 71.7773 0.00920033
30.1841 74.2794 2
32.6054 74.6784 0
29.8128 7.9999 3.97987
31.2547 5.33403 3.98704
31.7894 7.42233 2
32.9823 2.70181 3.99266
33.3489 4.92585 2
33.7255 6.98461 0.0169222
35.0474 0.080333 4
35.2455 2.46333 2
35.4368 4.68763 0.0109762
37.5 0 2
37.5158 2.3877 0.00695866
39.9526 0.0806499 0
40.597 35.8835 3.60835
42.2412 35.7366 2
43.4833 35.6185 0.336139
28.5468 10.7021 3.97727
39.0736 34.3215 3.5475
40.4981 34.3769 2
41.9185 34.2479 0.543657
47.311 34.3604 0.0585981
44.118 33.1527 0.164562
41.859 32.5591 0.296656
40.5841 32.9118 0.564554
45.4666 31.7633 2
43.0717 31.3504 2
40.7675 31.5058 2
39.1873 32.6535 2
43.8205 30.0108 3.89215
41.5744 30.0561 3.84267
39.3757 30.9335 3.64759
37.5319 32.5602 3.5313
34.0995 12.9523 3.97504
35.6964 11.7749 2
37.312 10.6347 0.0184852
31.1924 12 3.97779
33.1026 11.2269 2
34.757 10.3902 0.0199858
30.4844 10.0225 2
32.3809 9.37587 0.0222014
46.9666 29.7312 0.0165514
46.6992 25.3296 0.0273091
36.586 12.966 0.0253903
44.2009 21.625 0.0195798
41.7201 17.9567 0.0216255
38.6768 14.8689 0.0250294
35.7737 14.8124 2
44.9439 27.8699 2
38.6596 17.69 2
41.2598 20.9609 2
43.5403 24.2479 2
33.6162 15.9101 3.98711
42.7156 26.7055 3.98411
40.7742 23.572 3.99424
38.3857 20.4639 3.99362
35.8444 17.5745 3.98553
39.0903 37.4873 3.56873
40.6049 37.4512 2
42.4054 37.465 0.483486
43.5983 54.3312 0.00418591
43.3198 50.2539 -0.00371908
40.5434 39.0369 0.396969
41.5514 44.9001 0.15819
41.6406 47.3099 0.0755126
39.3451 44.0385 0.3515
39.0604 40.6617 0.449026
37.5013 42.4324 0.466127
41.7401 52.7972 2
39.0622 39.0649 2
37.5 40.7078 2
40.7656 49.4095 2
35.8452 42.3386 2
39.724 45.686 2
37.4935 44.3727 2
39.713 51.5875 4.00277
37.509 39.0793 3.59754
35.9558 40.6765 3.55207
34.4498 42.0718 3.43799
35.6526 44.0552 3.63885
38.6558 48.2775 3.9347
37.5306 45.9189 3.84183
40.3657 54.7918 0.00515397
38.7188 53.5877 2
36.763 52.9126 3.99676
35.3642 60.8795 0.0205738
36.9269 57.5665 0.00865364
37.9785 55.052 0.00512222
34.4923 58.4769 2
36.3194 55.1244 2
33.2735 55.3381 3.99288
32.3693 59.6957 0.00383583
29.4241 60.2565 0.0229955
30.3427 57.7724 2
28.8387 55.2844 3.9891
28.07 58.3348 -0.0149158
27.045 56.7806 2
25.4867 55.0647 3.95554
22.0013 55.2491 3.96029
25.4221 58.5444 0.0203696
23.9549 56.7363 2
20.3156 56.9522 3.96282
20.688 58.718 3.96509
21.4449 57.3216 2
21.1857 61.1121 3.97271
22.0274 59.5631 2
22.8218 58.1796 0.0323856
21.9023 63.8153 3.97449
22.7516 61.9853 2
23.4235 60.2882 0.0229738
24.4431 62.7418 0.0233919
23.6862 64.6951 2
22.8391 66.7289 3.97903
25.5505 65.4803 0.0224206
24.8094 67.5873 2
24.0118 69.805 3.98965
26.8381 68.3257 0.0168591
26.1658 70.6033 2
25.446 73.0099 4
28.3722 71.2626 0.00997942
27.7943 73.7222 2
30.1842 74.2788 0
27.8226 8.65958 3.98022
29.1569 5.88088 3.98525
29.8113 7.99606 2
30.7278 3.09857 3.99239
31.2541 5.33259 2
31.7899 7.42387 0.0182841
32.6053 0.320823 4
32.9813 2.70125 2
33.3494 4.9274 0.0120112
35.0474 0.0802903 2
35.2462 2.4636 0.00692022
37.5 0 0
39.0516 35.9054 3.56827
40.5786 35.8825 2
42.2332 35.7359 0.536479
28.5447 10.6991 2
26.6255 11.3996 3.97789
29.2334 12.6508 3.98138
37.5272 34.2821 3.58607
39.0917 34.3376 2
40.4868 34.3696 0.417405
45.4312 31.7788 0.0996131
43.0237 31.3867 0.175952
40.7212 31.5761 0.319658
39.1847 32.6716 0.515767
43.8504 29.9773 2
41.6022 30.0126 2
39.3849 30.8665 2
37.534 32.5358 2
41.9979 28.7008 3.86287
39.711 29.3356 3.83072
37.5282 30.6854 3.68802
35.8658 32.6724 3.49141
31.9289 14.4992 3.98089
34.0999 12.9575 2
35.6964 11.7883 0.0238167
31.1904 11.9915 2
33.102 11.2282 0.0270248
30.4865 10.0278 0.0228029
44.9498 27.8725 0.00451231
43.5536 24.2657 -0.0252072
35.7708 14.8057 0.0205107
41.2775 20.9705 0.00990482
38.6602 17.6861 0.0166486
33.6097 15.8946 2
35.8399 17.5664 2
42.754 26.684 2
38.368 20.5211 2
40.7681 23.5533 2
33.5519 17.4541 3.98211
40.2062 26.0083 3.9568
38.0292 23.3228 3.99786
35.5564 20.2268 3.99673
37.5161 37.4875 3.61311
39.0766 37.4788 2
40.6 37.4466 0.379914
41.7486 52.7961 -0.000122425
40.7853 49.393 0.00599276
39.0698 39.0774 0.442462
39.7061 45.6257 0.191777
37.4994 44.3078 0.316554
37.5041 40.7167 0.41339
35.8457 42.3221 0.513865
39.6939 51.5914 2
37.5106 39.0763 2
35.9531 40.6655 2
38.6746 48.3376 2
34.4213 42.0874 2
35.6327 44.1196 2
37.5225 45.9782 2
37.681 50.5825 3.99439
35.9686 39.0879 3.56776
34.5665 40.6107 3.5854
33.4812 41.7837 3.46346
34.3332 43.4012 3.67435
35.2574 45.6505 3.82762
36.9213 47.8852 3.89954
38.72 53.5916 0.00350162
36.7613 52.8825 2
34.4604 52.2372 3.99904
34.4939 58.4789 0.00644696
36.3155 55.1352 0.00260889
33.2796 55.3474 2
30.6805 53.2495 3.99418
30.3401 57.7772 0.0139203
28.841 55.2793 2
27.1275 53.3523 3.95714
27.0415 56.7821 0.0307506
25.4906 55.0661 2
23.8562 53.3614 3.95442
20.8133 53.0878 3.95822
20.0978 55.7388 3.96161
22.0012 55.2508 2
23.9522 56.7345 0.040557
19.5015 57.8225 3.96257
20.3128 56.9544 2
19.7272 60.1434 3.9751
20.6871 58.7195 2
21.4422 57.3202 0.0415171
20.2175 62.8224 3.97137
21.1867 61.1137 2
22.0261 59.5619 0.0199135
20.9411 65.7545 3.97623
21.9025 63.8188 2
22.7501 61.984 0.0271407
23.6865 64.6957 0.0250167
22.8381 66.7288 2
21.9145 68.872 3.98881
24.8105 67.5869 0.0179721
24.0095 69.8041 2
23.1494 72.1454 4
26.1675 70.6033 0.0102396
25.446 73.0099 2
27.7943 73.7221 0
25.862 9.3892 3.97892
27.0716 6.54522 3.98386
27.8205 8.65733 2
28.4903 3.64452 3.99155
29.1558 5.87856 2
29.8128 7.9999 0.0201279
30.1841 0.720592 4
30.7263 3.09822 2
31.2547 5.33403 0.0129624
32.6053 0.320817 2
32.9823 2.70181 0.00734017
35.0474 0.080333 0
37.5122 35.9013 3.59229
39.0353 35.8975 2
40.597 35.8835 0.391653
24.7833 12.0874 3.97631
23.7675 14.3961 3.97728
28.5468 10.7021 0.022728
26.6235 11.396 2
29.2304 12.649 2
27.3007 13.3845 3.97814
29.7961 14.2103 3.98284
35.9646 34.322 3.55284
37.5353 34.2888 2
39.0736 34.3215 0.452502
37.5319 32.5602 0.468696
43.8205 30.0108 0.10785
41.5744 30.0561 0.157329
39.3757 30.9335 0.352414
42.0322 28.6398 2
39.7364 29.2788 2
37.53 30.62 2
35.8671 32.657 2
39.8766 27.9697 3.87722
37.4885 29.0656 3.83288
35.6855 30.9507 3.64925
34.47 32.9242 3.4397
30.9453 16.8545 3.99103
31.923 14.4851 2
34.0995 12.9523 0.0249577
31.1924 12 0.0222121
42.7156 26.7055 0.015886
40.7742 23.572 0.0057637
33.6162 15.9101 0.0128851
35.8444 17.5745 0.0144727
38.3857 20.4639 0.00638126
33.5445 17.4631 2
35.562 20.2302 2
40.277 25.988 2
38.0161 23.2839 2
32.8947 19.8526 3.99606
37.6609 25.646 3.96537
35.2554 22.9734 4.0042
35.9471 37.4837 3.57122
37.5074 37.4869 2
39.0903 37.4873 0.431272
39.713 51.5875 -0.00277333
38.6558 48.2775 0.0653008
37.509 39.0793 0.402461
37.5306 45.9189 0.15817
35.6526 44.0552 0.361153
35.9558 40.6765 0.447933
34.4498 42.0718 0.562009
37.6621 50.6208 2
35.9892 39.0757 2
34.5284 40.606 2
36.9083 47.9475 2
33.4448 41.8108 2
34.2856 43.4685 2
35.2364 45.7051 2
35.5668 49.7749 3.9851
34.4609 39.0804 3.60613
33.1125 40.7301 3.46214
33.1889 42.4168 3.70901
33.4826 44.9072 3.83153
34.4956 47.0372 3.8718
36.763 52.9126 0.00324461
34.4506 52.2487 2
32.2556 51.0458 4.00946
33.2735 55.3381 0.00712378
30.6846 53.2514 2
28.7293 51.456 3.982
28.8387 55.2844 0.010903
27.1299 53.3502 2
25.4361 51.5952 3.95304
25.4867 55.0647 0.0444603
23.8583 53.3675 2
22.3826 51.6499 3.95195
19.6737 51.4773 3.96159
19.1977 54.1918 3.96123
20.816 53.0861 2
18.5695 56.6427 3.96311
20.0964 55.7403 2
22.0013 55.2491 0.039714
18.399 59.0551 3.96508
19.4991 57.8242 2
20.3156 56.9522 0.0371777
18.6321 61.7139 3.97175
19.7277 60.1456 2
20.688 58.718 0.034906
19.1306 64.665 3.97527
20.218 62.8262 2
21.1857 61.1121 0.0272878
19.8888 67.8082 3.98633
20.9402 65.7537 2
21.9023 63.8153 0.0255148
22.8391 66.7289 0.0209669
21.9118 68.8706 2
20.9142 71.1327 4
24.0118 69.805 0.0103516
23.1494 72.1455 2
25.446 73.0099 0
23.1062 12.812 3.97711
23.9748 10.178 3.97622
25.0252 7.31636 3.98234
25.8593 9.387 2
26.2822 4.3286 3.99064
27.0699 6.54391 2
27.8226 8.65958 0.0197838
27.7943 1.27781 4
28.4881 3.64425 2
29.1569 5.88088 0.014748
30.1841 0.720551 2
30.7278 3.09857 0.00760728
32.6053 0.320823 0
35.9524 35.8906 3.55752
37.5334 35.91 2
39.0516 35.9054 0.431733
24.7798 12.0846 2
23.7676 14.4002 2
22.5021 15.087 3.97817
25.3699 13.9385 3.9717
24.0564 15.6553 3.98644
26.6255 11.3996 0.0221082
29.2334 12.6508 0.0186248
27.3008 13.3829 2
29.7888 14.2083 2
28.3822 15.9775 3.985
34.5859 34.3907 3.58092
35.9629 34.3253 2
37.5272 34.2821 0.413931
35.8658 32.6724 0.50859
37.5282 30.6854 0.311983
41.9979 28.7008 0.137134
39.711 29.3356 0.169278
39.9042 27.9266 2
37.4861 29.0072 2
35.6705 30.8783 2
34.4362 32.9104 2
37.6307 27.6998 3.87167
35.3159 29.3509 3.82877
34.3409 31.593 3.67927
33.5003 33.2097 3.4611
30.2397 19.4461 3.98193
30.937 16.8415 2
31.9289 14.4992 0.0191076
40.2062 26.0083 0.0431974
38.0292 23.3228 0.00213988
33.5519 17.4541 0.017889
35.5564 20.2268 0.00327258
32.8962 19.8817 2
35.251 22.9637 2
37.7131 25.6254 2
32.4485 22.5911 3.99702
35.1373 25.5562 3.98978
34.4195 37.5058 3.62418
35.9471 37.4937 2
37.5161 37.4875 0.386887
37.681 50.5825 0.00561073
36.9213 47.8852 0.100456
35.9686 39.0879 0.432236
35.2574 45.6505 0.172375
34.3332 43.4012 0.325651
34.5665 40.6107 0.414597
33.4812 41.7837 0.536543
35.5476 49.7885 2
34.4551 39.0785 2
33.1057 40.7432 2
34.4682 47.0937 2
33.1445 42.4761 2
33.4557 44.9539 2
33.4287 48.8706 3.97333
32.7846 39.2325 3.46799
32.2342 41.0194 3.66152
32.0197 43.5898 3.82944
32.6816 46.0269 3.8731
34.4604 52.2372 0.000963242
32.2644 51.0525 2
30.2712 49.6069 4.00046
30.6805 53.2495 0.0058216
28.7324 51.4518 2
26.9552 49.8204 3.97452
27.1275 53.3523 0.0428581
25.4374 51.5982 2
23.8345 50.0056 3.96549
23.8562 53.3614 0.0455779
22.3847 51.6479 2
21.0025 50.1364 3.96398
18.4543 50.1807 3.97002
18.2216 52.657 3.9641
19.6717 51.4763 2
17.6559 55.2412 3.96231
19.1964 54.1916 2
20.8133 53.0878 0.0417807
17.2075 57.8108 3.96087
18.5659 56.6441 2
20.0978 55.7388 0.0383895
17.1479 60.5018 3.96678
18.3984 59.0563 2
19.5015 57.8225 0.0374311
17.4139 63.4419 3.96943
18.6333 61.7151 2
19.7272 60.1434 0.0249019
17.9447 66.6155 3.98452
19.13 64.6628 2
20.2175 62.8224 0.028634
18.75 69.9759 4
19.886 67.8057 2
20.9411 65.7545 0.0237716
21.9145 68.872 0.0111931
20.9142 71.1327 2
23.1494 72.1454 0
21.602 13.6446 3.97469
22.1951 11.0456 3.97353
23.104 12.815 2
23.0426 8.1831 3.97999
23.972 10.1783 2
24.1199 5.14346 3.99003
25.0228 7.31518 2
25.862 9.3892 0.0210798
25.446 1.99014 4
26.2793 4.32912 2
27.0716 6.54522 0.016141
27.7943 1.27778 2
28.4903 3.64452 0.00845363
30.1841 0.720592 0
34.4876 35.9244 3.60189
35.9642 35.9063 2
37.5122 35.9013 0.407714
21.3375 15.8927 3.97823
24.7833 12.0874 0.0236938
23.7675 14.3961 0.0227194
25.3687 13.9194 2
22.5036 15.0819 2
24.0599 15.6609 2
23.3067 16.2943 3.96668
25.4135 16.125 3.98579
27.3007 13.3845 0.0218596
29.7961 14.2103 0.0171593
28.3738 15.9906 2
27.4807 18.8753 3.98344
33.1255 34.2708 3.47156
34.5465 34.4037 2
35.9646 34.322 0.447157
34.47 32.9242 0.5603
35.6855 30.9507 0.350748
37.4885 29.0656 0.167124
39.8766 27.9697 0.122783
37.6018 27.66 2
33.4672 33.1849 2
35.3148 29.2885 2
34.2974 31.5245 2
35.2084 27.7932 3.88679
33.4785 30.0777 3.83289
33.2126 32.5757 3.70703
29.762 22.0499 4.00649
30.2423 19.457 2
30.9453 16.8545 0.00896777
37.6609 25.646 0.0346296
35.2554 22.9734 -0.00420051
32.8947 19.8526 0.00394284
32.4512 22.582 2
35.1662 25.5475 2
32.0266 25.862 4.00589
32.6104 37.5032 3.51525
34.4294 37.4997 2
35.9471 37.4837 0.428777
35.5668 49.7749 0.0149
34.4956 47.0372 0.128203
34.4609 39.0804 0.393867
33.4826 44.9072 0.168473
33.1889 42.4168 0.290986
33.1125 40.7301 0.537865
33.4112 48.8722 2
32.7924 39.2406 2
32.1916 41.0668 2
32.6531 46.0782 2
31.9681 43.6235 2
31.6183 47.717 3.98111
31.5435 39.3656 3.66418
30.9197 41.8337 3.84139
31.093 44.6614 3.88413
32.2556 51.0458 -0.00946423
30.2799 49.636 2
28.4353 47.9959 3.96698
28.7293 51.456 0.0179951
26.9553 49.8227 2
25.2497 48.262 3.96509
25.4361 51.5952 0.0469579
23.8372 50.0046 2
22.2923 48.5822 3.97094
22.3826 51.6499 0.0480542
21.0024 50.1354 2
19.5746 48.9225 3.9735
17.3308 49.1958 3.97498
17.1652 51.2784 3.96906
18.4564 50.179 2
16.6697 53.7635 3.96538
18.2194 52.6568 2
19.6737 51.4773 0.0384089
16.1076 56.4037 3.96204
17.6554 55.2415 2
19.1977 54.1918 0.0387723
15.7673 59.1702 3.96297
17.2027 57.8129 2
18.5695 56.6427 0.0368851
15.7936 62.1016 3.96819
17.1496 60.5038 2
18.399 59.0551 0.0349231
16.0914 65.2978 3.98259
17.4128 63.4473 2
18.6321 61.7139 0.0282464
16.6661 68.6801 4
17.942 66.6126 2
19.1306 64.665 0.0247337
18.75 69.9759 2
19.8888 67.8082 0.0136714
20.9142 71.1327 0
20.2377 14.654 3.96787
21.5999 13.6567 2
20.5372 12.0277 3.97376
21.146 9.15626 3.97722
22.192 11.0429 2
23.1062 12.812 0.0228902
22.019 6.08213 3.9894
23.0401 8.18284 2
23.9748 10.178 0.0237805
23.1494 2.85457 4
24.1163 5.14434 2
25.0252 7.31636 0.0176585
25.446 1.99012 2
26.2822 4.3286 0.00936123
27.7943 1.27781 0
32.7753 35.7789 3.47992
34.4719 35.9242 2
35.9524 35.8906 0.442478
21.3407 15.886 2
20.3528 17.0189 3.96687
22.1395 16.6921 3.96502
25.3699 13.9385 0.0283037
22.5021 15.087 0.0218283
24.0564 15.6553 0.0135627
25.4154 16.1193 2
23.3109 16.2914 2
24.2616 18.572 3.96943
27.1952 21.6683 3.99379
28.3822 15.9775 0.0149952
27.4781 18.9192 2
32.2742 33.9761 3.65575
33.1212 34.2541 2
34.5859 34.3907 0.419078
33.5003 33.2097 0.538904
34.3409 31.593 0.320727
35.3159 29.3509 0.171233
37.6307 27.6998 0.128334
35.2085 27.7449 2
33.1392 32.516 2
33.4481 30.036 2
32.9299 28.4381 3.89561
32.0299 31.4036 3.82033
29.159 24.544 4.00741
29.751 22.0707 2
30.2397 19.4461 0.0180748
35.1373 25.5562 0.0102236
32.4485 22.5911 0.00297733
32.0163 25.8345 2
30.1668 27.5232 3.9762
31.1318 37.4929 3.6694
32.6142 37.5025 2
34.4195 37.5058 0.37582
33.4287 48.8706 0.026673
32.6816 46.0269 0.126898
32.7846 39.2325 0.532005
32.0197 43.5898 0.17056
32.2342 41.0194 0.338484
31.5712 47.742 2
31.4659 39.3874 2
30.8743 41.8716 2
31.0488 44.7019 2
29.8648 46.326 3.98995
30.083 39.7954 3.85095
29.6022 42.9442 3.89537
30.2712 49.6069 -0.000458365
28.4332 47.9967 2
26.6672 46.4274 3.98002
26.9552 49.8204 0.0254822
25.2512 48.2605 2
23.5465 46.8453 3.97323
23.8345 50.0056 0.0345066
22.2925 48.5823 2
20.5849 47.4301 3.97645
21.0025 50.1364 0.0360163
19.5754 48.921 2
18.1676 48.0269 3.97693
16.5625 48.557 3.97653
17.3311 49.1947 2
16.2296 50.0516 3.97337
15.6798 52.3118 3.96912
17.1666 51.2774 2
18.4543 50.1807 0.0299781
15.0607 54.8976 3.96385
16.6708 53.7632 2
18.2216 52.657 0.0359038
14.506 57.6993 3.96164
16.1083 56.404 2
17.6559 55.2412 0.0376911
14.2715 60.6677 3.96754
15.77 59.1711 2
17.2075 57.8108 0.0391276
14.3362 63.8543 3.97821
15.7945 62.1034 2
17.1479 60.5018 0.0332228
14.6715 67.2507 4
16.089 65.2941 2
17.4139 63.4419 0.0305727
16.6661 68.6801 2
17.9447 66.6155 0.0154752
18.75 69.9759 0
18.9582 15.8364 3.97571
20.2391 14.6514 2
18.991 13.1516 3.97286
21.602 13.6446 0.0253126
20.5357 12.0283 2
19.3463 10.2474 3.97458
19.9938 7.14746 3.98746
21.1429 9.15636 2
22.1951 11.0456 0.0264659
20.9142 3.86727 4
22.0149 6.08409 2
23.0426 8.1831 0.0200055
23.1494 2.85451 2
24.1199 5.14346 0.00997451
25.446 1.99014 0
31.57 35.6338 3.65933
32.7782 35.7704 2
34.4876 35.9244 0.398109
21.3375 15.8927 0.0217693
22.1425 16.6852 2
20.3548 17.0155 2
19.3603 18.4893 3.95742
21.8367 17.9435 3.97688
25.4135 16.125 0.014212
23.3067 16.2943 0.0333189
24.2516 18.5946 2
22.4442 20.0161 3.9747
24.7772 21.5309 3.98807
26.7834 23.8277 3.98368
27.2011 21.5863 2
27.4807 18.8753 0.0165621
30.9748 33.1681 3.84337
32.2296 33.923 2
33.1255 34.2708 0.528436
33.2126 32.5757 0.292969
33.4785 30.0777 0.167106
35.2084 27.7932 0.113214
32.8902 28.4054 2
31.9742 31.3604 2
30.7861 29.8174 3.92137
28.4329 26.7069 3.99682
29.1443 24.5456 2
29.762 22.0499 -0.00648926
32.0266 25.862 -0.0058863
30.1585 27.4998 2
29.6381 37.4906 3.84837
31.0659 37.4909 2
32.6104 37.5032 0.484752
31.6183 47.717 0.0188889
31.093 44.6614 0.115874
31.5435 39.3656 0.335816
30.9197 41.8337 0.158611
29.8684 46.3294 2
30.0071 39.8084 2
29.5696 42.9732 2
28.1465 44.6513 3.96895
27.8403 40.5127 3.93089
28.4353 47.9959 0.0330166
26.6659 46.4285 2
24.8584 44.9591 3.97897
25.2497 48.262 0.0349077
23.5453 46.8446 2
21.6138 45.7108 3.97778
22.2923 48.5822 0.0290558
20.5854 47.429 2
18.9048 46.5792 3.97652
19.5746 48.9225 0.0265008
18.1684 48.0257 2
16.8045 47.5804 3.97632
16.5639 48.556 2
15.5762 48.9033 3.97554
17.3308 49.1958 0.0250186
16.2313 50.0506 2
14.7926 50.8891 3.97252
14.0329 53.3592 3.96684
15.681 52.3112 2
17.1652 51.2784 0.0309357
13.3422 56.1241 3.96147
15.0609 54.8975 2
16.6697 53.7635 0.0346243
12.8588 59.1071 3.96574
14.5103 57.6991 2
16.1076 56.4037 0.0379604
12.6822 62.2968 3.97608
14.273 60.6677 2
15.7673 59.1702 0.0370322
12.7746 65.6939 4
14.3341 63.8508 2
15.7936 62.1016 0.0318123
14.6714 67.2507 2
16.0914 65.2978 0.0174058
16.6661 68.6801 0
17.7251 17.217 3.96249
18.9581 15.8351 2
17.5273 14.4212 3.96798
20.2377 14.654 0.0321334
18.9904 13.1561 2
17.6437 11.4708 3.97333
20.5372 12.0277 0.0262417
19.3426 10.2482 2
18.0541 8.341 3.98516
18.75 5.0241 4
19.9891 7.15006 2
21.146 9.15626 0.0227781
20.9142 3.86727 2
22.019 6.08213 0.0106004
23.1494 2.85457 0
30.112 35.2075 3.84955
31.4938 35.6096 2
32.7753 35.7789 0.520077
22.1395 16.6921 0.0349778
20.3528 17.0189 0.0331274
21.8355 17.9427 2
19.3529 18.483 2
18.198 20.0449 3.96171
21.0262 19.4867 3.96556
24.2616 18.572 0.0305711
22.4343 20.0227 2
24.7834 21.5148 2
22.6242 21.8619 3.9806
25.0608 23.2659 3.97169
26.0387 26.0817 3.97878
26.7799 23.822 2
27.1952 21.6683 0.0062072
29.3672 32.5151 3.89537
30.9043 33.1327 2
32.2742 33.9761 0.344254
32.0299 31.4036 0.179665
32.9299 28.4381 0.10439
30.7638 29.8069 2
27.8019 29.288 4.01412
28.4199 26.7146 2
29.159 24.544 -0.00740954
30.1668 27.5232 0.0238006
27.9878 37.3637 3.89571
29.5636 37.4839 2
31.1318 37.4929 0.3306
29.8648 46.326 0.0100464
29.6022 42.9442 0.104634
30.083 39.7954 0.149049
28.1416 44.7073 2
27.8078 40.5136 2
26.2383 43.0244 3.98642
25.1138 39.4373 3.97191
26.6672 46.4274 0.0199813
24.8478 44.9609 2
22.7758 43.7493 3.97575
23.5465 46.8453 0.0267731
21.6104 45.7124 2
19.6802 44.8169 3.97614
20.5849 47.4301 0.0235471
18.9045 46.5796 2
17.1649 46.079 3.97612
18.1676 48.0269 0.0230695
16.8056 47.5798 2
15.343 47.5574 3.97596
16.5625 48.557 0.0234719
15.5781 48.9025 2
14.1025 49.4561 3.9748
16.2296 50.0516 0.02663
14.7938 50.8884 2
13.1029 51.8053 3.96928
12.2482 54.4848 3.96343
14.0336 53.3588 2
15.6798 52.3118 0.0308782
11.5462 57.4458 3.96429
13.3423 56.1242 2
15.0607 54.8976 0.0361455
11.1375 60.6221 3.97251
12.8606 59.1063 2
14.506 57.6993 0.0383573
10.9835 64.0165 4
12.6805 62.2923 2
14.2715 60.6677 0.032456
12.7745 65.694 2
14.3362 63.8543 0.0217855
14.6715 67.2507 0
16.5352 18.7263 3.96196
17.7189 17.2136 2
16.1222 15.8252 3.96553
18.9582 15.8364 0.0242882
17.5274 14.4182 2
16.0279 12.8408 3.97026
18.991 13.1516 0.0271443
17.6416 11.479 2
16.2053 9.66527 3.98259
19.3463 10.2474 0.0254212
18.049 8.34564 2
16.6661 6.31991 4
18.75 5.02404 2
19.9938 7.14746 0.01254
20.9142 3.86727 0
28.5059 34.8522 3.89703
30.0245 35.1714 2
31.57 35.6338 0.34067
16.9403 21.4823 3.96737
21.8367 17.9435 0.0231194
19.3603 18.4893 0.0425758
21.0149 19.4826 2
18.1976 20.0427 2
20.0258 21.7045 3.97143
22.4442 20.0161 0.0253015
24.7772 21.5309 0.0119272
22.6206 21.8672 2
25.0521 23.2694 2
23.3522 24.7473 3.97194
25.3531 28.682 3.98383
26.031 26.0882 2
26.7834 23.8277 0.0163211
27.222 31.8749 3.98183
29.3306 32.4934 2
30.9748 33.1681 0.156634
30.7861 29.8174 0.078626
27.8137 29.2658 2
28.4329 26.7069 0.00317608
25.811 36.8475 3.97107
27.9665 37.3651 2
29.6381 37.4906 0.151626
28.1465 44.6513 0.0310483
27.8403 40.5127 0.0691055
26.2146 43.0473 2
25.0876 39.4405 2
23.9934 41.7681 3.98221
22.832 38.5232 3.97976
24.8584 44.9591 0.0210341
22.7731 43.7505 2
20.5644 42.7689 3.9752
21.6138 45.7108 0.0222161
19.6806 44.8174 2
17.5759 44.2597 3.97551
18.9048 46.5792 0.0234806
17.1653 46.0792 2
15.308 45.9833 3.97578
16.8045 47.5804 0.0236786
15.3445 47.5566 2
13.6337 47.9219 3.97565
15.5762 48.9033 0.0244594
14.1042 49.4553 2
12.3345 50.1888 3.97143
14.7926 50.8891 0.0274814
13.1037 51.8046 2
11.2449 52.7988 3.96499
10.3421 55.7019 3.96395
12.2491 54.4843 2
14.0329 53.3592 0.0331606
9.70442 58.8454 3.97247
11.5476 57.4451 2
13.3422 56.1241 0.0385347
9.30605 62.2254 4
11.1362 60.6179 2
12.8588 59.1071 0.034257
10.9835 64.0165 2
12.6822 62.2968 0.0239195
12.7746 65.6939 0
15.3267 20.2651 3.96392
16.5368 18.7257 2
14.7921 17.3476 3.96322
17.7251 17.217 0.0375119
16.1239 15.8235 2
14.4904 14.3231 3.96749
17.5273 14.4212 0.0320191
16.0273 12.8373 2
14.4476 11.1171 3.98011
17.6437 11.4708 0.0266683
16.2007 9.67105 2
14.6715 7.74927 4
18.0541 8.341 0.0148379
16.6661 6.31988 2
18.75 5.0241 0
26.4658 34.3644 3.9747
28.4888 34.8593 2
30.112 35.2075 0.150445
18.2021 22.4501 3.97439
15.8448 23.0263 3.97146
16.9436 21.4822 2
21.0262 19.4867 0.0344387
18.198 20.0449 0.0382871
20.025 21.7026 2
20.1486 24.5445 3.97197
22.6242 21.8619 0.0193955
25.0608 23.2659 0.0283086
23.3484 24.7489 2
22.7163 28.0164 3.9716
24.7876 31.3717 3.98232
25.3591 28.6696 2
26.0387 26.0817 0.0212158
27.1955 31.836 2
29.3672 32.5151 0.104628
27.8019 29.288 -0.0141211
23.5628 36.2986 3.9797
25.791 36.8438 2
27.9878 37.3637 0.104293
26.2383 43.0244 0.0135825
25.1138 39.4373 0.0280859
23.9715 41.7665 2
22.8179 38.5177 2
21.6744 40.5891 3.97458
21.0231 37.7998 3.97675
22.7758 43.7493 0.0242531
20.5641 42.7691 2
18.0562 42.0123 3.97567
19.6802 44.8169 0.0238622
17.576 44.2599 2
15.3573 44.1052 3.97542
17.1649 46.079 0.0238789
15.3084 45.9831 2
13.3337 46.2127 3.97584
15.343 47.5574 0.0240358
13.6353 47.9211 2
11.7253 48.49 3.97337
14.1025 49.4561 0.0251976
12.3362 50.1879 2
10.376 51.0461 3.96631
13.1029 51.8053 0.0307193
11.2455 52.7982 2
9.25386 53.8827 3.96402
8.38786 56.98 3.9742
10.3465 55.7 2
12.2482 54.4848 0.0365748
7.74927 60.3285 4
9.70331 58.8413 2
11.5462 57.4458 0.0357113
9.306 62.2255 2
11.1375 60.6221 0.0274898
10.9835 64.0165 0
14.1633 21.8284 3.96745
15.3254 20.2641 2
13.5222 18.9446 3.96271
16.5352 18.7263 0.0380421
14.7931 17.3466 2
13.0359 15.9085 3.96891
16.1222 15.8252 0.0344745
14.4923 14.3216 2
12.7855 12.6929 3.97711
16.0279 12.8408 0.0297416
14.4445 11.1243 2
12.7746 9.30605 4
16.2053 9.66527 0.0174065
14.6715 7.74924 2
16.6661 6.31991 0
24.1399 33.8824 3.98071
26.4456 34.3633 2
28.5059 34.8522 0.102973
18.0768 24.1833 3.97286
18.2098 22.4505 2
14.679 24.5552 3.97345
15.8474 23.0263 2
16.9403 21.4823 0.0326311
19.6882 27.3837 3.97406
20.0258 21.7045 0.0285676
20.1426 24.5431 2
22.094 30.8365 3.97442
23.3522 24.7473 0.0280581
22.7158 28.019 2
24.7532 31.3695 2
25.3531 28.682 0.0161691
27.222 31.8749 0.0181728
21.1428 35.9656 3.97667
23.5614 36.2997 2
25.811 36.8475 0.0289282
23.9934 41.7681 0.0177875
22.832 38.5232 0.0202437
21.679 40.5913 2
21.0229 37.7984 2
18.8199 38.9826 3.97708
20.5644 42.7689 0.0248002
18.0559 42.0124 2
15.3423 41.8574 3.97598
17.5759 44.2597 0.0244927
15.3569 44.1052 2
13.0979 44.322 3.97578
15.308 45.9833 0.0242201
13.335 46.2121 2
11.2405 46.6795 3.97501
13.6337 47.9219 0.0243472
11.7273 48.489 2
9.64602 49.2089 3.9677
12.3345 50.1888 0.0285658
10.3768 51.0452 2
8.28487 51.9976 3.96406
11.2449 52.7988 0.0350135
9.2557 53.881 2
7.19693 55.0318 3.97522
6.31991 58.3339 4
8.38665 56.9759 2
10.3421 55.7019 0.0360461
7.74924 60.3285 2
9.70442 58.8454 0.0275275
9.30605 62.2254 0
13.5402 25.4485 3.97606
13.0663 23.3549 3.9704
14.1632 21.8279 2
12.3383 20.5933 3.9638
15.3267 20.2651 0.0360848
13.5234 18.9439 2
11.6694 17.5814 3.96714
14.7921 17.3476 0.0367805
13.0393 15.9076 2
11.2237 14.3788 3.97339
14.4904 14.3231 0.0325063
12.7833 12.6989 2
10.9835 10.9835 4
14.4476 11.1171 0.0198864
12.7745 9.306 2
14.6715 7.74927 0
21.4896 33.5008 3.97639
24.1436 33.8685 2
26.4658 34.3644 0.0252994
16.4047 26.5357 3.97443
18.0808 24.1833 2
18.2021 22.4501 0.0256066
14.6784 24.5551 2
15.8448 23.0263 0.0285351
19.0907 30.328 3.97469
19.6887 27.384 2
20.1486 24.5445 0.0280321
22.1118 30.8381 2
22.7163 28.0164 0.0284046
24.7876 31.3717 0.0176787
18.4244 36.001 3.97771
21.145 35.9651 2
23.5628 36.2986 0.020296
21.6744 40.5891 0.0254241
21.0231 37.7998 0.0232473
18.8184 38.9822 2
14.8376 39.1573 3.97697
18.0562 42.0123 0.0243333
15.3416 41.8571 2
12.7929 42.2312 3.97609
15.3573 44.1052 0.0245791
13.0987 44.3216 2
10.8285 44.7558 3.97624
13.3337 46.2127 0.0241555
11.2428 46.6784 2
9.03321 47.2915 3.96885
11.7253 48.49 0.0266331
9.64692 49.2081 2
7.44817 50.0321 3.96413
10.376 51.0461 0.0336927
8.2848 51.9961 2
6.1375 53.0076 3.97548
9.25386 53.8827 0.0359768
7.19621 55.0282 2
5.0241 56.25 4
6.31988 58.3339 2
8.38786 56.98 0.0258033
7.74927 60.3285 0
13.822 26.9063 3.9756
12.1757 24.8532 3.97345
13.5397 25.4486 2
11.2687 22.2766 3.96583
13.0665 23.3549 2
14.1633 21.8284 0.0325542
12.3408 20.5934 2
10.4032 19.3294 3.96476
13.5222 18.9446 0.0372918
11.6725 17.581 2
9.76455 16.1621 3.97251
13.0359 15.9085 0.031094
11.2223 14.3844 2
9.30607 12.7746 4
12.7855 12.6929 0.0228904
10.9835 10.9835 2
12.7746 9.30605 0
18.5829 33.1907 3.976
21.4884 33.5042 2
24.1399 33.8824 0.0192883
16.0291 29.7568 3.9755
16.4043 26.5356 2
18.0768 24.1833 0.027136
14.679 24.5552 0.0265532
19.0889 30.3279 2
19.6882 27.3837 0.0259448
22.094 30.8365 0.0255756
15.4736 36.0373 3.97734
18.4238 36.0015 2
21.1428 35.9656 0.0233311
13.0236 37.828 3.97696
18.8199 38.9826 0.0229163
14.8371 39.1571 2
12.2928 40.1157 3.97658
15.3423 41.8574 0.0240191
12.7932 42.2307 2
10.4306 42.7422 3.9763
13.0979 44.322 0.024219
10.8308 44.7548 2
8.5112 45.2983 3.96993
11.2405 46.6795 0.0249874
9.03367 47.2909 2
6.73675 47.9979 3.96432
9.64602 49.2089 0.0323041
7.44709 50.031 2
5.2141 50.9111 3.9751
8.28487 51.9976 0.0359433
6.13721 53.005 2
3.86727 54.0858 4
7.19693 55.0318 0.0247757
5.02404 56.25 2
6.31991 58.3339 0
13.3054 29.1136 3.97514
11.6204 26.5474 3.97442
13.8218 26.9064 2
10.3219 24.0031 3.96771
12.1784 24.8538 2
13.5402 25.4485 0.0239429
9.26609 21.1458 3.96469
11.2691 22.2767 2
13.0663 23.3549 0.0295995
12.3383 20.5933 0.0362045
10.4109 19.3311 2
8.4207 18.0318 3.97389
11.6694 17.5814 0.0328569
9.76375 16.1671 2
7.74928 14.6715 4
11.2237 14.3788 0.0266125
9.30602 12.7745 2
10.9835 10.9835 0
15.016 32.9231 3.97625
18.5818 33.1901 2
21.4896 33.5008 0.0236134
16.0295 29.7569 2
16.4047 26.5357 0.0255729
19.0907 30.328 0.0253112
13.3261 36.221 3.97672
15.473 36.0373 2
18.4244 36.001 0.0222859
13.0235 37.8279 2
11.6179 38.3039 3.97687
14.8376 39.1573 0.0230317
12.2936 40.1156 2
10.007 40.7337 3.97643
12.7929 42.2312 0.0239116
10.4339 42.7414 2
8.05399 43.2533 3.97117
10.8285 44.7558 0.0237567
8.51387 45.2976 2
6.13982 45.9036 3.96482
9.03321 47.2915 0.0311525
6.73538 47.9971 2
4.42528 48.7515 3.97469
7.44817 50.0321 0.0358688
5.2142 50.9094 2
2.85457 51.8506 4
6.1375 53.0076 0.0245192
3.86727 54.0858 2
5.0241 56.25 0
12.4353 31.3107 3.97612
11.0319 28.4664 3.97533
13.3056 29.1136 2
9.53646 25.8285 3.96885
11.6231 26.5482 2
13.822 26.9063 0.0243982
8.25057 23.0277 3.96478
10.3234 24.0036 2
12.1757 24.8532 0.0265475
7.20282 19.9798 3.97515
9.27261 21.1478 2
11.2687 22.2766 0.0341667
10.4032 19.3294 0.0352392
8.4198 18.0359 2
6.31992 16.6661 4
9.76455 16.1621 0.0274949
7.74926 14.6714 2
9.30607 12.7746 0
12.472 34.3256 3.97648
15.0154 32.9238 2
18.5829 33.1907 0.0240012
16.0291 29.7568 0.0244979
11.1533 36.6196 3.97663
13.3259 36.221 2
15.4736 36.0373 0.0226619
13.0236 37.828 0.0230411
11.6191 38.3035 2
9.58651 38.8162 3.9767
12.2928 40.1157 0.0234204
10.0101 40.7331 2
7.6571 41.2009 3.97199
10.4306 42.7422 0.0236963
8.05501 43.2528 2
5.65101 43.7667 3.96562
8.5112 45.2983 0.0300713
6.14008 45.9029 2
3.77058 46.5368 3.97489
6.73675 47.9979 0.0356812
4.42579 48.7506 2
1.99014 49.554 4
5.2141 50.9111 0.0249012
2.85451 51.8506 2
3.86727 54.0858 0
11.2419 32.9564 3.9766
10.3377 30.4223 3.97611
12.4357 31.3113 2
8.84448 27.7577 3.96915
11.0341 28.4671 2
13.3054 29.1136 0.024862
7.37099 24.9849 3.96469
9.53791 25.8291 2
11.6204 26.5474 0.0255813
6.1198 22.0019 3.9758
8.25205 23.0291 2
10.3219 24.0031 0.0322919
5.02411 18.75 4
7.20229 19.9832 2
9.26609 21.1458 0.0353088
8.4207 18.0318 0.0261119
6.3199 16.6661 2
7.74928 14.6715 0
10.7375 35.0179 3.97655
12.4716 34.3258 2
15.016 32.9231 0.0237531
9.24314 36.9881 3.97679
11.1547 36.6197 2
13.3261 36.221 0.0232763
11.6179 38.3039 0.0231288
9.58976 38.8158 2
7.3316 39.1775 3.9722
10.007 40.7337 0.0235731
7.65896 41.2005 2
5.26582 41.6127 3.96611
8.05399 43.2533 0.0288288
5.65135 43.7661 2
3.24798 44.2815 3.97559
6.13982 45.9036 0.0351817
3.77102 46.5363 2
1.27781 47.2057 4
4.42528 48.7515 0.0253149
1.99012 49.554 2
2.85457 51.8506 0
10.3714 33.9055 3.97633
9.61442 32.1827 3.97656
11.2435 32.9569 2
8.18298 29.7154 3.96967
10.3404 30.4231 2
12.4353 31.3107 0.0238802
6.6101 27.0099 3.9648
8.84548 27.7582 2
11.0319 28.4664 0.0246718
5.17491 24.0942 3.97554
7.36999 24.9858 2
9.53646 25.8285 0.0311482
3.86728 20.9142 4
6.11961 22.0043 2
8.25057 23.0277 0.0352194
5.02406 18.75 2
7.20282 19.9798 0.0248511
6.31992 16.6661 0
9.05624 35.291 3.97701
10.7392 35.018 2
12.472 34.3256 0.0235182
7.10855 37.2064 3.97195
9.24649 36.9879 2
11.1533 36.6196 0.0233678
9.58651 38.8162 0.0232991
7.33391 39.1773 2
4.99296 39.4667 3.96676
7.6571 41.2009 0.0280143
5.26655 41.6123 2
2.85827 42.0016 3.97601
5.65101 43.7667 0.0343841
3.24825 44.281 2
0.720592 44.8159 4
3.77058 46.5368 0.0251054
1.27778 47.2057 2
1.99014 49.554 0
9.09653 33.7165 3.97699
10.374 33.9058 2
7.61197 31.6235 3.97057
9.61763 32.1835 2
11.2419 32.9564 0.0234037
5.9519 29.0706 3.96514
8.18458 29.7159 2
10.3377 30.4223 0.0238881
4.36216 26.2469 3.97519
6.60829 27.0105 2
8.84448 27.7577 0.0308493
2.85458 23.1494 4
5.17513 24.0956 2
7.37099 24.9849 0.0353062
3.86728 20.9142 2
6.1198 22.0019 0.0241974
5.02411 18.75 0
7.05678 35.311 3.97156
9.05992 35.2912 2
10.7375 35.0179 0.023454
4.84305 37.3397 3.96719
7.11119 37.2063 2
9.24314 36.9881 0.0232057
7.3316 39.1775 0.0277983
4.9937 39.4664 2
2.60612 39.7133 3.9765
5.26582 41.6127 0.0338916
2.85886 42.0015 2
0.320823 42.3947 4
3.24798 44.2815 0.0244076
0.720551 44.8159 2
1.27781 47.2057 0
7.22031 33.4703 3.97121
9.10008 33.717 2
10.3714 33.9055 0.0236726
5.42218 31.1345 3.96583
7.61398 31.6238 2
9.61442 32.1827 0.0234445
3.68352 28.4433 3.97532
5.95223 29.0711 2
8.18298 29.7154 0.0303335
1.99015 25.446 4
4.36267 26.2476 2
6.6101 27.0099 0.0352007
2.85453 23.1494 2
5.17491 24.0942 0.0244594
3.86728 20.9142 0
4.85736 35.252 3.96701
7.05866 35.3111 2
9.05624 35.291 0.0229905
2.49755 37.428 3.97737
4.84325 37.3398 2
7.10855 37.2064 0.0280538
4.99296 39.4667 0.0332378
2.60682 39.7136 2
0.080333 39.9526 4
2.85827 42.0016 0.0239944
0.320817 42.3947 2
0.720592 44.8159 0
5.05092 33.191 3.96665
7.22233 33.4705 2
9.09653 33.7165 0.0230123
3.14755 30.6662 3.97585
5.42254 31.1351 2
7.61197 31.6235 0.0294294
1.27793 27.7943 4
3.68402 28.4435 2
5.9519 29.0706 0.0348569
1.99013 25.446 2
4.36216 26.2469 0.0248076
2.85458 23.1494 0
2.54964 35.1587 3.97708
4.85819 35.2523 2
7.05678 35.311 0.0284372
0 37.5 4
2.49774 37.4285 2
4.84305 37.3397 0.0328124
2.60612 39.7133 0.0234977
0.0802903 39.9526 2
0.320823 42.3947 0
2.76736 32.9057 3.97704
5.05126 33.1915 2
7.22031 33.4703 0.0287934
0.721173 30.1842 4
3.14801 30.6667 2
5.42218 31.1345 0.0341745
1.27779 27.7943 2
3.68352 28.4433 0.0246813
1.99015 25.446 0
0.0806499 35.0474 4
2.55042 35.1593 2
4.85736 35.252 0.0329876
0 37.5 2
2.49755 37.428 0.0226257
0.080333 39.9526 0
0.32156 32.6054 4
2.76763 32.9063 2
5.05092 33.191 0.0333492
0.72056 30.1841 2
3.14755 30.6662 0.0241482
1.27793 27.7943 0
0.0802889 35.0474 2
2.54964 35.1587 0.0229152
0 37.5 0
0.320817 32.6053 2
2.76736 32.9057 0.0229649
0.721173 30.1842 0
0.0806499 35.0474 0
0.32156 32.6054 0
CELLS 1910 17190
8 18 6 25 56 2 0 5 16
8 57 23 6 18 17 4 0 2
8 78 36 9 29 31 11 1 7
8 31 11 1 7 79 37 10 30
8 110 57 18 50 48 17 2 14
8 50 18 56 111 14 2 16 49
8 116 62 22 55 52 20 3 15
8 56 25 67 118 16 5 24 53
8 119 63 23 57 54 21 4 17
8 55 22 63 119 15 3 21 54
8 58 26 68 121 18 6 25 56
8 122 65 26 58 57 23 6 18
8 73 31 7 27 142 79 30 71
8 143 78 29 72 73 31 7 27
8 83 147 76 34 32 74 28 8
8 84 148 78 36 33 75 29 9
8 76 34 8 28 148 84 33 75
8 37 79 150 86 10 30 77 35
8 151 87 36 78 80 38 11 31
8 80 38 11 31 152 88 37 79
8 175 100 42 94 96 44 12 40
8 44 96 176 101 12 40 95 43
8 101 176 98 46 43 95 41 13
8 46 98 178 103 13 41 97 45
8 178 103 45 97 147 83 32 74
8 189 116 55 109 106 52 15 47
8 111 56 118 191 49 16 53 107
8 192 119 57 110 108 54 17 48
8 109 55 119 192 47 15 54 108
8 194 122 58 112 110 57 18 50
8 112 58 121 195 50 18 56 111
8 115 61 19 51 197 124 59 113
8 115 61 125 198 51 19 60 114
8 198 125 62 116 114 60 20 52
8 200 127 64 120 116 62 22 55
8 118 67 132 202 53 24 66 117
8 121 68 133 203 56 25 67 118
8 120 64 128 204 55 22 63 119
8 204 128 65 122 119 63 23 57
8 206 134 68 121 123 69 26 58
8 123 69 26 58 207 131 65 122
8 226 147 74 138 140 76 28 70
8 229 148 75 139 143 78 29 72
8 140 76 28 70 229 148 75 139
8 142 79 30 71 231 150 77 141
8 144 80 31 73 232 152 79 142
8 233 151 78 143 144 80 31 73
8 150 86 35 77 235 154 81 145
8 235 154 81 145 146 82 39 91
8 146 82 39 91 236 155 90 165
8 238 157 83 147 149 85 34 76
8 239 158 84 148 151 87 36 78
8 149 85 34 76 239 158 84 148
8 152 88 37 79 241 160 86 150
8 242 161 87 151 153 89 38 80
8 153 89 38 80 243 162 88 152
8 171 98 41 92 265 178 97 169
8 265 178 97 169 226 147 74 138
8 172 96 40 93 266 176 95 170
8 266 176 95 170 171 98 41 92
8 269 175 94 173 172 96 40 93
8 271 180 99 174 175 100 42 94
8 197 124 59 113 271 180 99 174
8 272 181 100 175 177 102 44 96
8 273 182 101 176 179 104 46 98
8 177 102 44 96 273 182 101 176
8 179 104 46 98 275 184 103 178
8 275 184 103 178 238 157 83 147
8 188 115 51 105 283 197 113 186
8 188 115 198 284 105 51 114 187
8 284 198 116 189 187 114 52 106
8 286 200 120 193 189 116 55 109
8 191 118 202 288 107 53 117 190
8 195 121 203 289 111 56 118 191
8 193 120 204 290 109 55 119 192
8 290 204 122 194 192 119 57 110
8 196 123 58 112 292 207 122 194
8 293 206 121 195 196 123 58 112
8 199 126 61 115 297 211 124 197
8 298 212 127 200 198 125 62 116
8 199 126 212 298 115 61 125 198
8 205 129 64 120 300 214 127 200
8 301 217 130 201 202 132 66 117
8 209 136 168 264 301 217 130 201
8 302 219 132 202 203 133 67 118
8 303 220 133 203 206 134 68 121
8 205 129 215 304 120 64 128 204
8 304 215 131 207 204 128 65 122
8 306 221 134 206 208 135 69 123
8 208 135 69 123 307 218 131 207
8 210 137 167 263 309 223 136 209
8 328 238 147 226 230 149 76 140
8 228 146 91 166 329 236 165 260
8 231 150 77 141 330 235 145 227
8 330 235 145 227 228 146 91 166
8 332 239 148 229 233 151 78 143
8 230 149 76 140 332 239 148 229
8 232 152 79 142 334 241 150 231
8 234 153 80 144 335 243 152 232
8 336 242 151 233 234 153 80 144
8 236 155 90 165 338 245 164 259
8 241 160 86 150 339 246 154 235
8 339 246 154 235 237 156 82 146
8 237 156 82 146 340 247 155 236
8 342 249 157 238 240 159 85 149
8 343 250 158 239 242 161 87 151
8 240 159 85 149 343 250 158 239
8 243 162 88 152 345 252 160 241
8 244 163 253 346 153 89 161 242
8 244 163 89 153 347 254 162 243
8 311 224 261 371 210 137 167 263
8 263 167 262 372 209 136 168 264
8 267 179 98 171 375 275 178 265
8 375 275 178 265 328 238 147 226
8 376 273 176 266 267 179 98 171
8 268 177 96 172 376 273 176 266
8 379 272 175 269 268 177 96 172
8 380 271 174 270 269 175 94 173
8 283 197 113 186 380 271 174 270
8 381 277 180 271 272 181 100 175
8 297 211 124 197 381 277 180 271
8 382 278 181 272 274 183 102 177
8 274 183 102 177 383 279 182 273
8 383 279 182 273 276 185 104 179
8 385 281 184 275 342 249 157 238
8 276 185 104 179 385 281 184 275
8 285 199 115 188 393 297 197 283
8 394 298 200 286 284 198 116 189
8 285 199 298 394 188 115 198 284
8 291 205 120 193 396 300 200 286
8 397 301 201 287 288 202 117 190
8 295 209 264 374 397 301 201 287
8 398 302 202 288 289 203 118 191
8 399 303 203 289 293 206 121 195
8 291 205 304 400 193 120 204 290
8 400 304 207 292 290 204 122 194
8 294 208 123 196 402 307 207 292
8 403 306 206 293 294 208 123 196
8 296 210 263 373 405 309 209 295
8 408 312 213 299 297 211 126 199
8 299 213 313 409 199 126 212 298
8 409 313 214 300 298 212 127 200
8 305 216 129 205 411 315 214 300
8 412 318 217 301 302 219 132 202
8 309 223 136 209 412 318 217 301
8 413 320 219 302 303 220 133 203
8 306 221 321 414 206 134 220 303
8 307 218 131 207 415 316 215 304
8 305 216 316 415 205 129 215 304
8 417 322 221 306 308 222 135 208
8 308 222 135 208 418 319 218 307
8 310 225 137 210 420 325 223 309
8 423 326 224 311 310 225 137 210
8 329 236 165 260 441 338 259 368
8 442 342 238 328 333 240 149 230
8 331 237 146 228 443 340 236 329
8 334 241 150 231 444 339 235 330
8 444 339 235 330 331 237 146 228
8 446 343 239 332 336 242 151 233
8 333 240 149 230 446 343 239 332
8 335 243 152 232 448 345 241 334
8 337 244 153 234 449 347 243 335
8 337 244 346 450 234 153 242 336
8 338 245 164 259 452 349 258 367
8 340 247 155 236 453 350 245 338
8 345 252 160 241 454 351 246 339
8 454 351 246 339 341 248 156 237
8 341 248 156 237 455 352 247 340
8 240 159 251 344 342 249 354 457
8 242 161 253 346 343 250 355 458
8 343 250 355 458 240 159 251 344
8 347 254 162 243 460 357 252 345
8 348 255 358 461 244 163 253 346
8 348 255 163 244 462 359 254 347
8 473 360 257 365 363 256 364 482
8 452 349 258 367 365 257 366 485
8 422 324 369 488 311 224 261 371
8 371 261 370 490 263 167 262 372
8 407 311 371 491 296 210 263 373
8 373 263 372 492 295 209 264 374
8 493 385 275 375 442 342 238 328
8 377 276 179 267 493 385 275 375
8 378 274 177 268 494 383 273 376
8 494 383 273 376 377 276 179 267
8 497 382 272 379 378 274 177 268
8 498 381 271 380 379 272 175 269
8 393 297 197 283 498 381 271 380
8 499 387 277 381 382 278 181 272
8 408 312 211 297 499 387 277 381
8 500 388 278 382 384 280 183 274
8 501 389 279 383 386 282 185 276
8 384 280 183 274 501 389 279 383
8 386 282 185 276 503 391 281 385
8 503 391 281 385 457 354 249 342
8 511 408 299 395 393 297 199 285
8 395 299 409 512 285 199 298 394
8 512 409 300 396 394 298 200 286
8 401 305 205 291 514 411 300 396
8 515 412 301 397 398 302 202 288
8 405 309 209 295 515 412 301 397
8 516 413 302 398 399 303 203 289
8 403 306 414 517 293 206 303 399
8 402 307 207 292 518 415 304 400
8 401 305 415 518 291 205 304 400
8 404 308 208 294 520 418 307 402
8 521 417 306 403 404 308 208 294
8 406 310 210 296 523 420 309 405
8 526 423 311 407 406 310 210 296
8 410 314 213 299 527 424 312 408
8 528 425 315 411 409 313 214 300
8 410 314 425 528 299 213 313 409
8 416 317 216 305 530 427 315 411
8 531 430 318 412 413 320 219 302
8 420 325 223 309 531 430 318 412
8 532 432 320 413 414 321 220 303
8 417 322 433 533 306 221 321 414
8 418 319 218 307 534 428 316 415
8 416 317 428 534 305 216 316 415
8 419 323 434 536 308 222 322 417
8 419 323 222 308 537 431 319 418
8 421 327 225 310 539 438 325 420
8 421 327 439 541 310 225 326 423
8 543 437 324 422 423 326 224 311
8 441 338 259 368 559 452 367 486
8 443 340 236 329 560 453 338 441
8 333 240 344 447 442 342 457 561
8 445 341 237 331 562 455 340 443
8 448 345 241 334 563 454 339 444
8 563 454 339 444 445 341 237 331
8 336 242 346 450 446 343 458 565
8 446 343 458 565 333 240 344 447
8 449 347 243 335 567 460 345 448
8 451 348 244 337 568 462 347 449
8 451 348 461 569 337 244 346 450
8 570 463 349 452 473 360 257 365
8 453 350 245 338 570 463 349 452
8 455 352 247 340 571 464 350 453
8 460 357 252 345 572 465 351 454
8 572 465 351 454 456 353 248 341
8 456 353 248 341 573 466 352 455
8 344 251 356 459 457 354 468 575
8 458 355 469 576 344 251 356 459
8 346 253 358 461 458 355 469 576
8 462 359 254 347 578 471 357 460
8 348 255 359 462 461 358 472 579
8 591 474 360 473 475 361 256 363
8 475 361 256 363 594 477 362 479
8 363 256 364 482 479 362 480 603
8 590 473 365 484 481 363 482 605
8 482 364 257 365 606 483 366 485
8 559 452 367 486 484 365 485 607
8 542 436 487 609 422 324 369 488
8 525 422 488 611 407 311 371 491
8 488 369 489 612 371 261 370 490
8 491 371 490 613 373 263 372 492
8 495 386 276 377 614 503 385 493
8 614 503 385 493 561 457 342 442
8 615 501 383 494 495 386 276 377
8 496 384 274 378 615 501 383 494
8 618 500 382 497 496 384 274 378
8 619 499 381 498 497 382 272 379
8 511 408 297 393 619 499 381 498
8 620 505 387 499 500 388 278 382
8 527 424 312 408 620 505 387 499
8 502 390 506 621 384 280 388 500
8 622 507 389 501 504 392 282 386
8 502 390 280 384 622 507 389 501
8 504 392 282 386 624 509 391 503
8 624 509 391 503 575 468 354 457
8 513 410 299 395 630 527 408 511
8 631 528 411 514 512 409 300 396
8 513 410 528 631 395 299 409 512
8 519 416 305 401 633 530 411 514
8 634 531 412 515 516 413 302 398
8 523 420 309 405 634 531 412 515
8 635 532 413 516 517 414 303 399
8 521 417 533 636 403 306 414 517
8 520 418 307 402 637 534 415 518
8 519 416 534 637 401 305 415 518
8 522 419 308 404 639 537 418 520
8 522 419 536 640 404 308 417 521
8 524 421 310 406 642 539 420 523
8 524 421 541 644 406 310 423 526
8 646 543 422 525 526 423 311 407
8 529 426 314 410 647 544 424 527
8 528 425 545 648 411 315 427 530
8 529 426 545 648 410 314 425 528
8 535 429 317 416 649 546 427 530
8 650 548 430 531 532 432 320 413
8 539 438 325 420 650 548 430 531
8 533 433 550 651 414 321 432 532
8 536 434 551 652 417 322 433 533
8 537 431 319 418 653 547 428 534
8 535 429 547 653 416 317 428 534
8 538 435 552 654 419 323 434 536
8 538 435 323 419 655 549 431 537
8 540 440 327 421 657 556 438 539
8 540 440 557 659 421 327 439 541
8 541 439 555 660 423 326 437 543
8 661 554 436 542 543 437 324 422
8 676 570 452 559 590 473 365 484
8 560 453 338 441 676 570 452 559
8 562 455 340 443 677 571 453 560
8 447 344 459 566 561 457 575 678
8 564 456 341 445 679 573 455 562
8 567 460 345 448 680 572 454 563
8 680 572 454 563 564 456 341 445
8 565 458 576 682 447 344 459 566
8 450 346 461 569 565 458 576 682
8 568 462 347 449 684 578 460 567
8 451 348 462 568 569 461 579 685
8 686 580 463 570 591 474 360 473
8 571 464 350 453 686 580 463 570
8 573 466 352 455 687 581 464 571
8 572 465 582 688 460 357 471 578
8 574 467 582 688 456 353 465 572
8 574 467 353 456 689 583 466 573
8 459 356 470 577 575 468 585 691
8 576 469 586 692 459 356 470 577
8 461 358 472 579 576 469 586 692
8 462 359 471 578 579 472 588 694
8 704 591 473 590 593 475 363 481
8 595 476 592 705 475 361 474 591
8 593 475 363 481 707 594 479 602
8 594 477 362 479 709 598 478 600
8 595 476 361 475 711 597 477 594
8 479 362 480 603 600 478 601 720
8 481 363 482 605 602 479 603 722
8 603 480 364 482 723 604 483 606
8 605 482 365 484 724 606 485 607
8 656 553 608 726 542 436 487 609
8 645 542 609 728 525 422 488 611
8 609 487 610 729 488 369 489 612
8 611 488 612 730 491 371 490 613
8 616 504 386 495 731 624 503 614
8 731 624 503 614 678 575 457 561
8 732 622 501 615 616 504 386 495
8 617 502 384 496 732 622 501 615
8 617 502 621 735 496 384 500 618
8 736 620 499 619 618 500 382 497
8 630 527 408 511 736 620 499 619
8 621 506 626 737 500 388 505 620
8 647 544 424 527 737 626 505 620
8 623 508 627 738 502 390 506 621
8 623 508 390 502 739 628 507 622
8 625 510 628 739 504 392 507 622
8 740 629 509 624 691 585 468 575
8 625 510 392 504 740 629 509 624
8 632 529 410 513 744 647 527 630
8 631 528 648 745 514 411 530 633
8 632 529 648 745 513 410 528 631
8 638 535 416 519 746 649 530 633
8 747 650 531 634 635 532 413 516
8 642 539 420 523 747 650 531 634
8 636 533 651 748 517 414 532 635
8 640 536 652 749 521 417 533 636
8 639 537 418 520 750 653 534 637
8 638 535 653 750 519 416 534 637
8 641 538 419 522 751 655 537 639
8 641 538 654 752 522 419 536 640
8 643 540 421 524 753 657 539 642
8 643 540 659 755 524 421 541 644
8 644 541 660 757 526 423 543 646
8 758 661 542 645 646 543 422 525
8 529 426 544 647 648 545 662 759
8 530 427 545 648 649 546 663 760
8 535 429 546 649 653 547 664 761
8 762 666 548 650 651 550 432 532
8 657 556 438 539 762 666 548 650
8 652 551 668 763 533 433 550 651
8 654 552 669 764 536 434 551 652
8 655 549 431 537 765 665 547 653
8 538 435 549 655 654 552 667 766
8 661 554 671 768 542 436 553 656
8 658 558 440 540 769 674 556 657
8 658 558 675 770 540 440 557 659
8 659 557 673 771 541 439 555 660
8 660 555 672 772 543 437 554 661
8 788 686 570 676 704 591 473 590
8 677 571 453 560 788 686 570 676
8 679 573 455 562 789 687 571 677
8 566 459 577 683 678 575 691 790
8 681 574 456 564 791 689 573 679
8 680 572 688 792 567 460 578 684
8 681 574 688 792 564 456 572 680
8 682 576 692 794 566 459 577 683
8 569 461 579 685 682 576 692 794
8 568 462 578 684 685 579 694 796
8 687 581 464 571 798 696 580 686
8 798 696 580 686 705 592 474 591
8 689 583 466 573 799 697 581 687
8 688 582 698 800 578 471 588 694
8 690 584 698 800 574 467 582 688
8 690 584 467 574 801 699 583 689
8 693 587 701 803 577 470 585 691
8 693 587 470 577 804 702 586 692
8 695 589 702 804 579 472 586 692
8 695 589 472 579 805 703 588 694
8 708 595 705 813 593 475 591 704
8 710 596 706 814 595 476 592 705
8 707 594 479 602 816 709 600 719
8 708 595 475 593 817 711 594 707
8 709 598 478 600 819 715 599 717
8 711 597 477 594 820 714 598 709
8 710 596 476 595 822 713 597 711
8 600 478 601 720 717 599 718 832
8 602 479 603 722 719 600 720 834
8 720 601 480 603 835 721 604 723
8 722 603 482 605 836 723 606 724
8 767 670 725 839 656 553 608 726
8 756 656 726 841 645 542 609 728
8 726 608 727 842 609 487 610 729
8 728 609 729 843 611 488 612 730
8 844 740 624 731 790 691 575 678
8 733 625 504 616 844 740 624 731
8 734 623 502 617 845 739 622 732
8 733 625 739 845 616 504 622 732
8 734 623 738 846 617 502 621 735
8 735 621 737 847 618 500 620 736
8 744 647 527 630 847 737 620 736
8 621 506 627 738 737 626 741 848
8 647 544 626 737 759 662 741 848
8 623 508 628 739 738 627 742 849
8 740 629 585 691 850 743 700 802
8 625 510 629 740 739 628 743 850
8 632 529 647 744 745 648 759 854
8 633 530 648 745 746 649 760 855
8 638 535 649 746 750 653 761 856
8 857 762 650 747 748 651 532 635
8 753 657 539 642 857 762 650 747
8 749 652 763 858 636 533 651 748
8 752 654 764 859 640 536 652 749
8 751 655 537 639 860 765 653 750
8 641 538 655 751 752 654 766 861
8 754 658 540 643 862 769 657 753
8 754 658 770 863 643 540 659 755
8 755 659 771 864 644 541 660 757
8 758 661 768 866 645 542 656 756
8 757 660 772 867 646 543 661 758
8 759 662 773 868 648 545 663 760
8 649 546 663 760 761 664 774 871
8 765 665 547 653 872 775 664 761
8 873 777 666 762 763 668 550 651
8 769 674 556 657 873 777 666 762
8 764 669 779 874 652 551 668 763
8 654 552 667 766 764 669 778 875
8 655 549 665 765 766 667 776 876
8 768 671 782 877 656 553 670 767
8 772 672 783 878 661 554 671 768
8 658 558 674 769 770 675 786 879
8 659 557 675 770 771 673 785 881
8 882 784 672 772 771 673 555 660
8 789 687 571 677 897 798 686 788
8 897 798 686 788 813 705 591 704
8 791 689 573 679 898 799 687 789
8 795 693 803 900 683 577 691 790
8 793 690 574 681 901 801 689 791
8 792 688 800 902 684 578 694 796
8 793 690 800 902 681 574 688 792
8 795 693 577 683 903 804 692 794
8 797 695 804 903 685 579 692 794
8 797 695 579 685 904 805 694 796
8 905 806 697 799 798 696 581 687
8 814 706 806 905 705 592 696 798
8 689 583 697 799 801 699 808 907
8 800 698 809 908 694 588 703 805
8 690 584 699 801 800 698 809 908
8 803 701 810 909 691 585 700 802
8 693 587 702 804 803 701 811 910
8 695 589 703 805 804 702 812 911
8 818 710 814 919 708 595 705 813
8 821 712 815 920 710 596 706 814
8 816 709 600 719 922 819 717 831
8 817 711 594 707 923 820 709 816
8 818 710 595 708 924 822 711 817
8 819 715 599 717 926 827 716 829
8 820 714 598 709 927 826 715 819
8 929 825 713 822 820 714 597 711
8 821 712 596 710 930 824 713 822
8 717 599 718 832 829 716 830 942
8 719 600 720 834 831 717 832 944
8 832 718 601 720 945 833 721 835
8 834 720 603 722 946 835 723 836
8 869 780 838 950 767 670 725 839
8 865 767 839 952 756 656 726 841
8 839 725 840 953 726 608 727 842
8 841 726 842 954 728 609 729 843
8 844 740 691 790 955 850 802 899
8 733 625 740 844 845 739 850 955
8 734 623 739 845 846 738 849 956
8 735 621 738 846 847 737 848 957
8 744 647 737 847 854 759 848 957
8 738 627 742 849 848 741 851 958
8 848 741 851 958 759 662 773 868
8 850 743 700 802 959 852 807 906
8 849 742 628 739 959 852 743 850
8 854 759 868 965 745 648 760 855
8 746 649 760 855 856 761 871 966
8 860 765 653 750 967 872 761 856
8 968 873 762 857 858 763 651 748
8 862 769 657 753 968 873 762 857
8 859 764 874 969 749 652 763 858
8 752 654 766 861 859 764 875 970
8 751 655 765 860 861 766 876 971
8 754 658 769 862 863 770 879 972
8 755 659 770 863 864 771 881 974
8 976 882 772 867 864 771 660 757
8 866 768 877 977 756 656 767 865
8 867 772 878 978 758 661 768 866
8 760 663 773 868 871 774 883 980
8 870 781 837 948 982 890 780 869
8 982 890 780 869 877 782 670 767
8 761 664 774 871 872 775 884 984
8 876 776 665 765 985 885 775 872
8 873 777 668 763 986 887 779 874
8 769 674 777 873 879 786 887 986
8 764 669 778 875 874 779 888 987
8 766 667 776 876 875 778 886 988
8 878 783 892 989 768 671 782 877
8 878 783 672 772 990 893 784 882
8 880 787 675 770 991 896 786 879
8 880 787 895 992 770 675 785 881
8 881 785 894 993 771 673 784 882
8 1006 905 799 898 897 798 687 789
8 919 814 905 1006 813 705 798 897
8 791 689 799 898 901 801 907 1007
8 900 803 909 1009 790 691 802 899
8 795 693 804 903 900 803 910 1010
8 902 800 908 1011 796 694 805 904
8 793 690 801 901 902 800 908 1011
8 797 695 805 904 903 804 911 1012
8 799 697 806 905 907 808 912 1013
8 920 815 912 1013 814 706 806 905
8 802 700 810 909 906 807 913 1014
8 801 699 808 907 908 809 914 1015
8 805 703 809 908 911 812 915 1016
8 803 701 811 910 909 810 916 1017
8 911 812 917 1018 804 702 811 910
8 925 821 920 1030 818 710 814 919
8 928 823 921 1031 821 712 815 920
8 922 819 717 831 1033 926 829 941
8 923 820 709 816 1034 927 819 922
8 1035 929 822 924 923 820 711 817
8 925 821 710 818 1036 930 822 924
8 1038 933 825 929 927 826 714 820
8 926 827 716 829 1039 935 828 939
8 927 826 715 819 1040 934 827 926
8 928 823 712 821 1041 931 824 930
8 1042 932 824 930 929 825 713 822
8 829 716 830 942 939 828 940 1058
8 831 717 832 944 941 829 942 1060
8 942 830 718 832 1061 943 833 945
8 944 832 720 834 1062 945 835 946
8 981 889 947 1064 870 781 837 948
8 948 837 949 1067 869 780 838 950
8 975 869 950 1069 865 767 839 952
8 950 838 951 1070 839 725 840 953
8 952 839 953 1071 841 726 842 954
8 955 850 802 899 1072 959 906 1008
8 956 849 739 845 1072 959 850 955
8 846 738 849 956 957 848 958 1073
8 957 848 958 1073 854 759 868 965
8 849 742 852 959 958 851 961 1076
8 960 853 961 1076 906 807 852 959
8 958 851 961 1076 868 773 883 980
8 960 853 807 906 1077 963 913 1014
8 855 760 868 965 966 871 980 1085
8 856 761 871 966 967 872 984 1086
8 971 876 765 860 1087 985 872 967
8 968 873 763 858 1088 986 874 969
8 862 769 873 968 972 879 986 1088
8 859 764 875 970 969 874 987 1089
8 861 766 876 971 970 875 988 1090
8 973 880 770 863 1091 991 879 972
8 973 880 992 1092 863 770 881 974
8 974 881 993 1093 864 771 882 976
8 979 870 948 1066 1094 982 869 975
8 1094 982 869 975 977 877 767 865
8 978 878 772 867 1095 990 882 976
8 978 878 989 1096 866 768 877 977
8 871 774 883 980 984 884 994 1099
8 983 891 999 1100 870 781 889 981
8 1101 1000 890 982 989 892 782 877
8 983 891 781 870 1101 1000 890 982
8 872 775 884 984 985 885 995 1103
8 876 776 885 985 988 886 996 1104
8 986 887 779 874 1105 998 888 987
8 879 786 887 986 991 896 998 1105
8 875 778 886 988 987 888 997 1106
8 990 893 1002 1107 878 783 892 989
8 1108 1003 893 990 993 894 784 882
8 880 787 896 991 992 895 1005 1109
8 993 894 785 881 1110 1004 895 992
8 898 799 905 1006 1007 907 1013 1120
8 1030 920 1013 1120 919 814 905 1006
8 901 801 907 1007 1011 908 1015 1121
8 899 802 909 1009 1008 906 1014 1122
8 900 803 910 1010 1009 909 1017 1123
8 1012 911 1018 1124 903 804 910 1010
8 904 805 908 1011 1012 911 1016 1125
8 1013 912 1020 1127 907 808 914 1015
8 1031 921 1020 1127 920 815 912 1013
8 1019 918 962 1075 1128 1021 913 1014
8 1128 1021 913 1014 1017 916 810 909
8 1015 914 1022 1129 908 809 915 1016
8 1016 915 1023 1130 911 812 917 1018
8 1018 917 1024 1131 910 811 916 1017
8 1037 928 1031 1148 925 821 920 1030
8 928 823 931 1041 1031 921 1032 1149
8 1033 926 829 941 1151 1039 939 1057
8 1034 927 819 922 1152 1040 926 1033
8 1153 1038 929 1035 1034 927 820 923
8 1154 1042 930 1036 1035 929 822 924
8 1037 928 821 925 1155 1041 930 1036
8 1039 935 828 939 1156 1047 938 1055
8 1157 1043 932 1042 1038 933 825 929
8 1038 933 826 927 1158 1045 934 1040
8 1040 934 827 926 1159 1046 935 1039
8 930 824 932 1042 1041 931 1044 1160
8 1051 936 1048 1165 1175 1052 937 1053
8 1156 1047 938 1055 1053 937 1054 1178
8 939 828 940 1058 1055 938 1056 1181
8 941 829 942 1060 1057 939 1058 1183
8 942 830 943 1061 1058 940 1059 1184
8 1060 942 832 944 1185 1061 945 1062
8 1082 964 1063 1188 981 889 947 1064
8 1097 981 1064 1190 979 870 948 1066
8 1064 947 1065 1191 948 837 949 1067
8 1066 948 1067 1193 975 869 950 1069
8 1067 949 1068 1194 950 838 951 1070
8 1069 950 1070 1195 952 839 953 1071
8 956 849 959 1072 1073 958 1076 1197
8 1074 960 1076 1197 1008 906 959 1072
8 1073 958 1076 1197 965 868 980 1085
8 1074 960 906 1008 1198 1077 1014 1122
8 1133 1026 1079 1199 1019 918 962 1075
8 1077 963 913 1014 1200 1080 962 1075
8 960 853 963 1077 1076 961 1078 1201
8 980 883 961 1076 1099 994 1078 1201
8 1210 1083 964 1082 1100 999 889 981
8 966 871 980 1085 1086 984 1099 1215
8 967 872 984 1086 1087 985 1103 1216
8 971 876 985 1087 1090 988 1104 1217
8 1088 986 874 969 1218 1105 987 1089
8 972 879 986 1088 1091 991 1105 1218
8 970 875 988 1090 1089 987 1106 1219
8 973 880 991 1091 1092 992 1109 1220
8 1093 993 881 974 1221 1110 992 1092
8 1222 1108 990 1095 1093 993 882 976
8 1223 1101 982 1094 1096 989 877 977
8 1098 983 870 979 1223 1101 982 1094
8 1095 990 1107 1224 978 878 989 1096
8 1098 983 1100 1225 979 870 981 1097
8 984 884 994 1099 1103 995 1111 1227
8 1102 1001 1115 1228 983 891 999 1100
8 1101 1000 892 989 1229 1116 1002 1107
8 1102 1001 891 983 1229 1116 1000 1101
8 985 885 995 1103 1104 996 1112 1230
8 988 886 996 1104 1106 997 1113 1231
8 1105 998 888 987 1232 1114 997 1106
8 991 896 998 1105 1109 1005 1114 1232
8 1108 1003 1117 1233 990 893 1002 1107
8 1108 1003 894 993 1233 1117 1004 1110
8 992 895 1005 1109 1110 1004 1118 1234
8 1120 1013 1127 1244 1007 907 1015 1121
8 1148 1031 1127 1244 1030 920 1013 1120
8 1121 1015 1129 1245 1011 908 1016 1125
8 1126 1019 1075 1196 1246 1128 1014 1122
8 1246 1128 1014 1122 1123 1017 909 1009
8 1124 1018 1131 1247 1010 910 1017 1123
8 1125 1016 1130 1248 1012 911 1018 1124
8 1127 1020 1137 1254 1015 914 1022 1129
8 1031 921 1032 1149 1127 1020 1137 1254
8 1134 1027 918 1019 1257 1140 1021 1128
8 1257 1140 1021 1128 1131 1024 916 1017
8 1129 1022 1141 1258 1016 915 1023 1130
8 1130 1023 1142 1259 1018 917 1024 1131
8 1261 1144 1025 1132 1133 1026 1079 1199
8 1255 1138 1025 1132 1135 1028 1144 1261
8 1133 1026 918 1019 1262 1145 1027 1134
8 1136 1029 1139 1256 1263 1146 1028 1135
8 1037 928 1041 1155 1148 1031 1149 1275
8 1041 931 1044 1160 1149 1032 1150 1276
8 1151 1039 939 1057 1278 1156 1055 1180
8 1152 1040 926 1033 1279 1159 1039 1151
8 1153 1038 927 1034 1280 1158 1040 1152
8 1281 1157 1042 1154 1153 1038 929 1035
8 1036 930 1042 1154 1155 1041 1160 1282
8 1283 1164 1046 1159 1156 1047 935 1039
8 1165 1048 1164 1283 1053 937 1047 1156
8 1157 1043 933 1038 1284 1161 1045 1158
8 1157 1043 1161 1284 1042 932 1044 1160
8 1040 934 1046 1159 1158 1045 1163 1285
8 1166 1049 1167 1292 1051 936 1048 1165
8 1166 1049 936 1051 1293 1168 1050 1172
8 1051 936 1052 1175 1172 1050 1173 1306
8 1174 1051 1165 1290 1308 1175 1053 1177
8 1053 937 1054 1178 1175 1052 1176 1309
8 1278 1156 1055 1180 1177 1053 1178 1311
8 1055 938 1056 1181 1178 1054 1179 1312
8 1057 939 1058 1183 1180 1055 1181 1314
8 1058 940 1059 1184 1181 1056 1182 1315
8 1060 942 1061 1185 1183 1058 1184 1316
8 1208 1081 1187 1321 1082 964 1063 1188
8 1209 1082 1188 1322 1097 981 1064 1190
8 1188 1063 1189 1323 1064 947 1065 1191
8 1190 1064 1191 1325 1066 948 1067 1193
8 1191 1065 1192 1326 1067 949 1068 1194
8 1067 1193 1069 950 1194 1327 1195 1070
8 1250 1133 1199 1330 1126 1019 1075 1196
8 1198 1077 1014 1122 1331 1200 1075 1196
8 1074 960 1077 1198 1197 1076 1201 1332
8 1085 980 1076 1197 1215 1099 1201 1332
8 1199 1079 1203 1333 1075 962 1080 1200
8 1132 1025 1119 1243 1199 1079 1203 1333
8 1201 1078 963 1077 1334 1202 1080 1200
8 1099 994 1078 1201 1227 1111 1202 1334
8 1343 1207 1081 1208 1210 1083 964 1082
8 1214 1084 1186 1319 1343 1207 1081 1208
8 1345 1210 1082 1209 1225 1100 981 1097
8 1346 1211 1083 1210 1228 1115 999 1100
8 1086 984 1099 1215 1216 1103 1227 1352
8 1087 985 1103 1216 1217 1104 1230 1353
8 1090 988 1104 1217 1219 1106 1231 1354
8 1218 1105 987 1089 1355 1232 1106 1219
8 1091 991 1105 1218 1220 1109 1232 1355
8 1092 992 1109 1220 1221 1110 1234 1356
8 1222 1108 1233 1357 1095 990 1107 1224
8 1222 1108 993 1093 1357 1233 1110 1221
8 1223 1101 989 1096 1358 1229 1107 1224
8 1226 1102 983 1098 1358 1229 1101 1223
8 1226 1102 1228 1359 1098 983 1100 1225
8 1103 995 1111 1227 1230 1112 1235 1360
8 1107 1002 1117 1233 1229 1116 1240 1362
8 1102 1001 1116 1229 1228 1115 1240 1362
8 1104 996 1112 1230 1231 1113 1236 1363
8 1364 1237 1114 1232 1231 1113 997 1106
8 1109 1005 1114 1232 1234 1118 1238 1365
8 1110 1004 1118 1234 1233 1117 1241 1366
8 1242 1374 1255 1138 1119 1243 1132 1025
8 1244 1127 1254 1376 1121 1015 1129 1245
8 1148 1031 1149 1275 1244 1127 1254 1376
8 1245 1129 1258 1377 1125 1016 1130 1248
8 1251 1134 1019 1126 1378 1257 1128 1246
8 1378 1257 1128 1246 1247 1131 1017 1123
8 1248 1130 1259 1379 1124 1018 1131 1247
8 1261 1381 1250 1133 1132 1249 1330 1199
8 1255 1380 1252 1135 1132 1249 1381 1261
8 1250 1133 1019 1126 1382 1262 1134 1251
8 1253 1136 1256 1385 1384 1263 1135 1252
8 1254 1137 1265 1387 1129 1022 1141 1258
8 1149 1032 1150 1276 1254 1137 1265 1387
8 1028 1135 1255 1138 1139 1256 1388 1266
8 1136 1029 1147 1264 1256 1139 1267 1389
8 1390 1268 1140 1257 1259 1142 1024 1131
8 1260 1143 1027 1134 1390 1268 1140 1257
8 1258 1141 1269 1391 1130 1023 1142 1259
8 1262 1145 1027 1134 1393 1271 1143 1260
8 1261 1144 1026 1133 1394 1272 1145 1262
8 1135 1028 1144 1261 1263 1146 1272 1394
8 1136 1029 1146 1263 1264 1147 1273 1395
8 1155 1041 1160 1282 1275 1149 1276 1405
8 1276 1150 1044 1160 1406 1277 1162 1286
8 1408 1283 1159 1279 1278 1156 1039 1151
8 1290 1165 1283 1408 1177 1053 1156 1278
8 1152 1040 1159 1279 1280 1158 1285 1409
8 1281 1157 1038 1153 1410 1284 1158 1280
8 1281 1157 1284 1410 1154 1042 1160 1282
8 1159 1046 1164 1283 1285 1163 1289 1412
8 1292 1167 1289 1412 1165 1048 1164 1283
8 1158 1045 1163 1285 1284 1161 1288 1413
8 1284 1161 1288 1413 1160 1044 1162 1286
8 1291 1166 1292 1418 1174 1051 1165 1290
8 1291 1166 1051 1174 1419 1293 1172 1305
8 1294 1169 1296 1421 1166 1049 1167 1292
8 1293 1168 1050 1172 1422 1295 1171 1303
8 1294 1169 1049 1166 1423 1297 1168 1293
8 1422 1295 1171 1303 1301 1170 1302 1435
8 1172 1050 1173 1306 1303 1171 1304 1438
8 1174 1051 1175 1308 1305 1172 1306 1440
8 1175 1052 1176 1309 1306 1173 1307 1441
8 1177 1053 1178 1311 1308 1175 1309 1443
8 1178 1054 1179 1312 1309 1176 1310 1444
8 1180 1055 1181 1314 1311 1178 1312 1446
8 1056 1181 1312 1179 1182 1315 1447 1313
8 1183 1058 1184 1316 1314 1181 1315 1448
8 1319 1186 1084 1214 1451 1317 1213 1350
8 1319 1186 1318 1453 1208 1081 1187 1321
8 1321 1187 1320 1456 1188 1063 1189 1323
8 1344 1208 1321 1457 1209 1082 1188 1322
8 1322 1188 1323 1458 1190 1064 1191 1325
8 1323 1189 1324 1459 1191 1065 1192 1326
8 1191 1325 1193 1067 1326 1460 1327 1194
8 1242 1374 1243 1119 1328 1462 1335 1204
8 1330 1199 1333 1465 1196 1075 1200 1331
8 1132 1249 1330 1199 1243 1375 1465 1333
8 1332 1201 1077 1198 1466 1334 1200 1331
8 1215 1099 1201 1332 1352 1227 1334 1466
8 1119 1243 1333 1203 1204 1335 1470 1338
8 1333 1203 1338 1470 1200 1080 1202 1334
8 1227 1111 1202 1334 1360 1235 1338 1470
8 1328 1462 1335 1204 1205 1336 1471 1339
8 1337 1206 1340 1472 1464 1329 1205 1336
8 1346 1211 1342 1479 1210 1083 1207 1343
8 1346 1211 1115 1228 1479 1342 1239 1361
8 1348 1212 1084 1214 1479 1342 1207 1343
8 1480 1343 1208 1344 1345 1210 1082 1209
8 1351 1214 1319 1454 1480 1343 1208 1344
8 1481 1346 1210 1345 1359 1228 1100 1225
8 1348 1212 1347 1483 1214 1084 1213 1350
8 1216 1103 1227 1352 1353 1230 1360 1488
8 1217 1104 1230 1353 1354 1231 1363 1489
8 1490 1364 1232 1355 1354 1231 1106 1219
8 1220 1109 1232 1355 1356 1234 1365 1491
8 1221 1110 1234 1356 1357 1233 1366 1492
8 1224 1107 1233 1357 1358 1229 1362 1493
8 1226 1102 1229 1358 1359 1228 1362 1493
8 1230 1112 1235 1360 1363 1236 1367 1496
8 1361 1239 1115 1228 1497 1371 1240 1362
8 1366 1241 1372 1498 1233 1117 1240 1362
8 1364 1237 1113 1231 1499 1368 1236 1363
8 1364 1237 1368 1499 1232 1114 1238 1365
8 1234 1118 1238 1365 1366 1241 1369 1500
8 1507 1373 1242 1374 1388 1266 1138 1255
8 1508 1374 1243 1375 1380 1255 1132 1249
8 1376 1254 1387 1509 1245 1129 1258 1377
8 1275 1149 1276 1405 1376 1254 1387 1509
8 1377 1258 1391 1510 1248 1130 1259 1379
8 1511 1390 1257 1378 1379 1259 1131 1247
8 1383 1260 1134 1251 1511 1390 1257 1378
8 1252 1135 1256 1385 1380 1255 1388 1512
8 1261 1381 1513 1394 1133 1250 1382 1262
8 1135 1252 1384 1263 1261 1381 1513 1394
8 1382 1262 1134 1251 1514 1393 1260 1383
8 1253 1136 1263 1384 1386 1264 1395 1516
8 1253 1136 1264 1386 1385 1256 1389 1517
8 1387 1265 1397 1519 1258 1141 1269 1391
8 1276 1150 1277 1406 1387 1265 1397 1519
8 1256 1139 1267 1389 1388 1266 1398 1520
8 1264 1147 1274 1396 1389 1267 1399 1521
8 1392 1270 1143 1260 1522 1400 1268 1390
8 1390 1268 1142 1259 1522 1400 1269 1391
8 1392 1270 1401 1523 1260 1143 1271 1393
8 1272 1394 1524 1402 1145 1262 1393 1271
8 1395 1273 1146 1263 1524 1402 1272 1394
8 1273 1395 1264 1147 1403 1526 1396 1274
8 1405 1276 1160 1282 1534 1406 1286 1411
8 1414 1287 1407 1535 1286 1162 1277 1406
8 1279 1159 1283 1408 1409 1285 1412 1537
8 1418 1292 1412 1537 1290 1165 1283 1408
8 1280 1158 1285 1409 1410 1284 1413 1538
8 1410 1284 1413 1538 1282 1160 1286 1411
8 1285 1163 1289 1412 1413 1288 1417 1540
8 1421 1296 1417 1540 1292 1167 1289 1412
8 1414 1287 1162 1286 1541 1416 1288 1413
8 1420 1294 1421 1545 1291 1166 1292 1418
8 1419 1293 1172 1305 1546 1422 1303 1437
8 1420 1294 1166 1291 1547 1423 1293 1419
8 1294 1169 1297 1423 1421 1296 1425 1548
8 1423 1297 1168 1293 1549 1424 1295 1422
8 1301 1170 1298 1427 1422 1295 1424 1549
8 1432 1300 1428 1554 1301 1170 1298 1427
8 1431 1299 1428 1554 1560 1430 1300 1432
8 1563 1433 1300 1432 1435 1302 1170 1301
8 1546 1422 1303 1437 1434 1301 1435 1565
8 1303 1171 1304 1438 1435 1302 1436 1566
8 1305 1172 1306 1440 1437 1303 1438 1568
8 1306 1173 1307 1441 1438 1304 1439 1569
8 1308 1175 1309 1443 1440 1306 1441 1571
8 1309 1176 1310 1444 1441 1307 1442 1572
8 1311 1178 1312 1446 1443 1309 1444 1574
8 1179 1312 1444 1310 1313 1447 1575 1445
8 1314 1181 1315 1448 1446 1312 1447 1576
8 1350 1213 1349 1486 1451 1317 1449 1579
8 1451 1317 1450 1581 1319 1186 1318 1453
8 1454 1319 1214 1351 1582 1451 1350 1487
8 1453 1318 1452 1584 1321 1187 1320 1456
8 1454 1319 1453 1585 1344 1208 1321 1457
8 1456 1320 1455 1586 1323 1189 1324 1459
8 1457 1321 1456 1587 1322 1188 1323 1458
8 1458 1323 1459 1588 1325 1191 1326 1460
8 1205 1336 1464 1329 1328 1462 1590 1461
8 1507 1373 1461 1590 1374 1242 1328 1462
8 1508 1374 1462 1591 1375 1243 1335 1467
8 1337 1206 1329 1464 1473 1341 1463 1594
8 1375 1243 1335 1467 1465 1333 1470 1596
8 1465 1333 1470 1596 1331 1200 1334 1466
8 1352 1227 1334 1466 1488 1360 1470 1596
8 1591 1462 1336 1468 1467 1335 1471 1597
8 1469 1337 1472 1598 1595 1464 1336 1468
8 1471 1339 1474 1600 1335 1204 1338 1470
8 1600 1474 1367 1496 1470 1338 1235 1360
8 1336 1205 1340 1472 1471 1339 1475 1601
8 1337 1206 1341 1473 1472 1340 1476 1602
8 1495 1370 1478 1609 1361 1239 1342 1479
8 1348 1212 1342 1479 1483 1347 1478 1609
8 1481 1346 1479 1610 1345 1210 1343 1480
8 1481 1346 1228 1359 1610 1479 1361 1494
8 1484 1348 1214 1351 1610 1479 1343 1480
8 1483 1347 1482 1612 1350 1213 1349 1486
8 1484 1348 1483 1613 1351 1214 1350 1487
8 1353 1230 1360 1488 1489 1363 1496 1616
8 1490 1364 1231 1354 1617 1499 1363 1489
8 1490 1364 1499 1617 1355 1232 1365 1491
8 1356 1234 1365 1491 1492 1366 1500 1619
8 1492 1366 1498 1620 1357 1233 1362 1493
8 1494 1361 1228 1359 1621 1497 1362 1493
8 1495 1370 1239 1361 1622 1504 1371 1497
8 1363 1236 1367 1496 1499 1368 1501 1623
8 1497 1371 1240 1362 1624 1505 1372 1498
8 1625 1503 1372 1498 1500 1369 1241 1366
8 1365 1238 1368 1499 1500 1369 1502 1626
8 1520 1398 1506 1633 1388 1266 1373 1507
8 1634 1507 1374 1508 1512 1388 1255 1380
8 1509 1387 1519 1635 1377 1258 1391 1510
8 1405 1276 1406 1534 1509 1387 1519 1635
8 1515 1392 1260 1383 1636 1522 1390 1511
8 1511 1390 1259 1379 1636 1522 1391 1510
8 1385 1256 1389 1517 1512 1388 1520 1637
8 1513 1394 1262 1382 1638 1524 1393 1514
8 1395 1516 1638 1524 1263 1384 1513 1394
8 1515 1392 1523 1639 1383 1260 1393 1514
8 1516 1395 1526 1640 1386 1264 1396 1518
8 1386 1264 1396 1518 1517 1389 1521 1641
8 1519 1397 1527 1643 1391 1269 1400 1522
8 1535 1407 1527 1643 1406 1277 1397 1519
8 1389 1267 1399 1521 1520 1398 1528 1644
8 1645 1529 1399 1521 1525 1404 1274 1396
8 1392 1270 1400 1522 1523 1401 1531 1646
8 1524 1402 1271 1393 1648 1532 1401 1523
8 1403 1526 1648 1532 1273 1395 1524 1402
8 1525 1404 1274 1396 1649 1533 1403 1526
8 1539 1414 1535 1657 1411 1286 1406 1534
8 1542 1415 1536 1658 1414 1287 1407 1535
8 1409 1285 1412 1537 1538 1413 1540 1660
8 1545 1421 1540 1660 1418 1292 1412 1537
8 1539 1414 1286 1411 1661 1541 1413 1538
8 1540 1417 1544 1663 1413 1288 1416 1541
8 1421 1296 1425 1548 1540 1417 1544 1663
8 1542 1415 1287 1414 1664 1543 1416 1541
8 1420 1294 1423 1547 1545 1421 1548 1666
8 1547 1423 1293 1419 1667 1549 1422 1546
8 1434 1301 1427 1553 1546 1422 1549 1667
8 1423 1297 1424 1549 1548 1425 1550 1668
8 1551 1426 1550 1668 1427 1298 1424 1549
8 1551 1426 1298 1427 1671 1552 1428 1554
8 1562 1432 1554 1674 1434 1301 1427 1553
8 1431 1299 1429 1558 1554 1428 1555 1675
8 1431 1299 1430 1560 1558 1429 1557 1680
8 1560 1430 1300 1432 1683 1559 1433 1563
8 1561 1431 1554 1674 1684 1560 1432 1562
8 1685 1563 1432 1562 1565 1435 1301 1434
8 1435 1302 1436 1566 1563 1433 1564 1686
8 1437 1303 1438 1568 1565 1435 1566 1688
8 1438 1304 1439 1569 1566 1436 1567 1689
8 1440 1306 1441 1571 1568 1438 1569 1691
8 1441 1307 1442 1572 1569 1439 1570 1692
8 1443 1309 1444 1574 1571 1441 1572 1694
8 1310 1444 1572 1442 1445 1575 1695 1573
8 1446 1312 1447 1576 1574 1444 1575 1696
8 1486 1349 1485 1614 1579 1449 1577 1699
8 1451 1317 1449 1579 1581 1450 1578 1701
8 1487 1350 1486 1615 1582 1451 1579 1702
8 1581 1450 1580 1704 1453 1318 1452 1584
8 1582 1451 1581 1705 1454 1319 1453 1585
8 1584 1452 1583 1706 1456 1320 1455 1586
8 1585 1453 1584 1707 1457 1321 1456 1587
8 1587 1456 1586 1708 1458 1323 1459 1588
8 1633 1506 1589 1710 1507 1373 1461 1590
8 1464 1329 1461 1590 1594 1463 1589 1710
8 1468 1336 1462 1591 1595 1464 1590 1711
8 1634 1507 1590 1711 1508 1374 1462 1591
8 1473 1341 1463 1594 1603 1477 1593 1716
8 1469 1337 1464 1595 1599 1473 1594 1717
8 1471 1597 1467 1335 1600 1718 1596 1470
8 1718 1600 1496 1616 1596 1470 1360 1488
8 1336 1468 1597 1471 1472 1598 1719 1601
8 1469 1337 1473 1599 1598 1472 1602 1720
8 1722 1604 1501 1623 1600 1474 1367 1496
8 1475 1601 1471 1339 1604 1722 1600 1474
8 1602 1476 1605 1723 1472 1340 1475 1601
8 1476 1602 1724 1606 1341 1473 1603 1477
8 1483 1347 1478 1609 1612 1482 1608 1731
8 1495 1370 1504 1622 1609 1478 1608 1731
8 1618 1495 1609 1732 1494 1361 1479 1610
8 1484 1348 1479 1610 1613 1483 1609 1732
8 1486 1349 1482 1612 1614 1485 1611 1733
8 1613 1483 1612 1734 1487 1350 1486 1615
8 1489 1363 1496 1616 1617 1499 1623 1736
8 1491 1365 1499 1617 1619 1500 1626 1737
8 1618 1495 1361 1494 1738 1622 1497 1621
8 1739 1625 1498 1620 1619 1500 1366 1492
8 1621 1497 1362 1493 1740 1624 1498 1620
8 1742 1631 1504 1622 1624 1505 1371 1497
8 1743 1628 1502 1626 1623 1501 1368 1499
8 1744 1630 1505 1624 1625 1503 1372 1498
8 1745 1629 1503 1625 1626 1502 1369 1500
8 1520 1398 1528 1644 1633 1506 1632 1751
8 1637 1520 1633 1752 1512 1388 1507 1634
8 1635 1519 1643 1753 1510 1391 1522 1636
8 1657 1535 1643 1753 1534 1406 1519 1635
8 1515 1392 1522 1636 1639 1523 1646 1754
8 1517 1389 1521 1641 1637 1520 1644 1755
8 1524 1638 1756 1648 1393 1514 1639 1523
8 1640 1526 1395 1516 1756 1648 1524 1638
8 1642 1525 1396 1518 1757 1649 1526 1640
8 1758 1645 1521 1641 1642 1525 1396 1518
8 1646 1531 1400 1522 1760 1650 1527 1643
8 1535 1407 1536 1658 1643 1527 1650 1760
8 1521 1399 1529 1645 1644 1528 1651 1761
8 1647 1530 1652 1762 1525 1404 1529 1645
8 1401 1523 1648 1532 1531 1646 1763 1655
8 1525 1404 1533 1649 1647 1530 1654 1765
8 1533 1649 1766 1656 1403 1526 1648 1532
8 1662 1542 1658 1774 1539 1414 1535 1657
8 1542 1415 1543 1664 1658 1536 1659 1775
8 1660 1540 1663 1777 1538 1413 1541 1661
8 1545 1421 1548 1666 1660 1540 1663 1777
8 1662 1542 1414 1539 1778 1664 1541 1661
8 1664 1543 1416 1541 1779 1665 1544 1663
8 1548 1425 1550 1668 1663 1544 1665 1779
8 1547 1423 1549 1667 1666 1548 1668 1781
8 1670 1551 1668 1781 1553 1427 1549 1667
8 1551 1426 1552 1671 1668 1550 1669 1782
8 1670 1551 1427 1553 1784 1671 1554 1674
8 1675 1555 1672 1785 1554 1428 1552 1671
8 1678 1556 1673 1789 1558 1429 1555 1675
8 1561 1431 1558 1681 1674 1554 1675 1790
8 1794 1677 1556 1678 1680 1557 1429 1558
8 1560 1430 1559 1683 1680 1557 1679 1797
8 1561 1431 1560 1684 1681 1558 1680 1798
8 1563 1433 1564 1686 1683 1559 1682 1800
8 1684 1560 1432 1562 1801 1683 1563 1685
8 1565 1435 1566 1688 1685 1563 1686 1802
8 1566 1436 1567 1689 1686 1564 1687 1803
8 1568 1438 1569 1691 1688 1566 1689 1805
8 1569 1439 1570 1692 1689 1567 1690 1806
8 1571 1441 1572 1694 1691 1569 1692 1808
8 1442 1572 1692 1570 1573 1695 1809 1693
8 1574 1444 1575 1696 1694 1572 1695 1810
8 1614 1485 1592 1712 1699 1577 1697 1813
8 1579 1449 1577 1699 1701 1578 1698 1815
8 1615 1486 1614 1735 1702 1579 1699 1816
8 1701 1578 1700 1818 1581 1450 1580 1704
8 1582 1451 1579 1702 1705 1581 1701 1819
8 1704 1580 1703 1820 1584 1452 1583 1706
8 1705 1581 1704 1821 1585 1453 1584 1707
8 1707 1584 1706 1822 1587 1456 1586 1708
8 1710 1589 1506 1633 1824 1709 1632 1751
8 1594 1463 1589 1710 1716 1593 1709 1824
8 1752 1633 1710 1825 1634 1507 1590 1711
8 1595 1464 1590 1711 1717 1594 1710 1825
8 1830 1714 1592 1712 1733 1611 1485 1614
8 1603 1477 1593 1716 1725 1607 1715 1834
8 1599 1473 1594 1717 1721 1603 1716 1835
8 1837 1722 1623 1736 1718 1600 1496 1616
8 1719 1601 1722 1837 1597 1471 1600 1718
8 1602 1720 1598 1472 1723 1838 1719 1601
8 1720 1602 1473 1599 1839 1724 1603 1721
8 1723 1605 1726 1840 1601 1475 1604 1722
8 1840 1726 1628 1743 1722 1604 1501 1623
8 1724 1606 1727 1841 1602 1476 1605 1723
8 1725 1607 1728 1842 1603 1477 1606 1724
8 1612 1482 1608 1731 1733 1611 1730 1849
8 1741 1627 1730 1849 1622 1504 1608 1731
8 1613 1483 1609 1732 1734 1612 1731 1850
8 1618 1495 1622 1738 1732 1609 1731 1850
8 1615 1486 1612 1734 1735 1614 1733 1851
8 1852 1743 1626 1737 1736 1623 1499 1617
8 1853 1745 1625 1739 1737 1626 1500 1619
8 1855 1742 1622 1738 1740 1624 1497 1621
8 1856 1744 1624 1740 1739 1625 1498 1620
8 1741 1627 1504 1622 1857 1746 1631 1742
8 1742 1631 1505 1624 1858 1749 1630 1744
8 1859 1747 1629 1745 1743 1628 1502 1626
8 1860 1748 1630 1744 1745 1629 1503 1625
8 1644 1528 1651 1761 1751 1632 1750 1865
8 1637 1520 1644 1755 1752 1633 1751 1866
8 1754 1646 1522 1636 1867 1760 1643 1753
8 1657 1535 1658 1774 1753 1643 1760 1867
8 1639 1523 1646 1754 1756 1648 1763 1868
8 1641 1521 1645 1758 1755 1644 1761 1869
8 1757 1649 1526 1640 1870 1766 1648 1756
8 1642 1525 1649 1757 1759 1647 1765 1871
8 1759 1647 1762 1872 1642 1525 1645 1758
8 1760 1650 1767 1874 1646 1531 1655 1763
8 1658 1536 1659 1775 1760 1650 1767 1874
8 1762 1652 1768 1875 1645 1529 1651 1761
8 1764 1653 1769 1876 1647 1530 1652 1762
8 1656 1766 1877 1773 1532 1648 1763 1655
8 1771 1879 1765 1654 1653 1764 1647 1530
8 1533 1649 1765 1654 1656 1766 1880 1772
8 1662 1542 1664 1778 1774 1658 1775 1887
8 1664 1543 1665 1779 1775 1659 1776 1888
8 1778 1664 1541 1661 1890 1779 1663 1777
8 1666 1548 1668 1781 1777 1663 1779 1890
8 1782 1669 1780 1891 1668 1550 1665 1779
8 1670 1551 1671 1784 1781 1668 1782 1893
8 1671 1552 1672 1785 1782 1669 1783 1894
8 1790 1675 1785 1896 1674 1554 1671 1784
8 1675 1555 1673 1789 1785 1672 1786 1897
8 1792 1676 1788 1903 1678 1556 1673 1789
8 1795 1678 1789 1904 1681 1558 1675 1790
8 1792 1676 1556 1678 1906 1791 1677 1794
8 1680 1557 1679 1797 1794 1677 1793 1909
8 1910 1794 1678 1795 1798 1680 1558 1681
8 1683 1559 1682 1800 1797 1679 1796 1912
8 1684 1560 1683 1801 1798 1680 1797 1913
8 1686 1564 1687 1803 1800 1682 1799 1915
8 1685 1563 1686 1802 1801 1683 1800 1916
8 1688 1566 1689 1805 1802 1686 1803 1917
8 1689 1567 1690 1806 1803 1687 1804 1918
8 1691 1569 1692 1808 1805 1689 1806 1920
8 1692 1570 1693 1809 1806 1690 1807 1921
8 1694 1572 1695 1810 1808 1692 1809 1922
8 1829 1713 1811 1926 1712 1592 1697 1813
8 1813 1697 1812 1928 1699 1577 1698 1815
8 1735 1614 1712 1828 1816 1699 1813 1929
8 1815 1698 1814 1931 1701 1578 1700 1818
8 1702 1579 1699 1816 1819 1701 1815 1932
8 1818 1700 1817 1933 1704 1580 1703 1820
8 1819 1701 1818 1934 1705 1581 1704 1821
8 1821 1704 1820 1935 1707 1584 1706 1822
8 1824 1709 1632 1751 1937 1823 1750 1865
8 1716 1593 1709 1824 1834 1715 1823 1937
8 1825 1710 1633 1752 1938 1824 1751 1866
8 1717 1594 1710 1825 1835 1716 1824 1938
8 1945 1830 1712 1828 1851 1733 1614 1735
8 1830 1714 1831 1946 1712 1592 1713 1829
8 1947 1832 1714 1830 1849 1730 1611 1733
8 1843 1729 1607 1725 1950 1833 1715 1834
8 1721 1603 1716 1835 1836 1725 1834 1951
8 1836 1725 1842 1953 1721 1603 1724 1839
8 1723 1838 1719 1601 1840 1954 1837 1722
8 1954 1840 1743 1852 1837 1722 1623 1736
8 1724 1839 1720 1602 1841 1955 1838 1723
8 1841 1727 1844 1956 1723 1605 1726 1840
8 1956 1844 1747 1859 1840 1726 1628 1743
8 1728 1842 1724 1606 1845 1957 1841 1727
8 1725 1607 1729 1843 1842 1728 1846 1958
8 1741 1627 1746 1857 1849 1730 1848 1965
8 1734 1612 1731 1850 1851 1733 1849 1966
8 1854 1741 1849 1966 1738 1622 1731 1850
8 1967 1859 1745 1853 1852 1743 1626 1737
8 1968 1860 1744 1856 1853 1745 1625 1739
8 1854 1741 1622 1738 1969 1857 1742 1855
8 1855 1742 1624 1740 1970 1858 1744 1856
8 1857 1746 1631 1742 1971 1861 1749 1858
8 1858 1749 1630 1744 1972 1863 1748 1860
8 1859 1747 1862 1973 1745 1629 1748 1860
8 1875 1768 1864 1977 1761 1651 1750 1865
8 1755 1644 1761 1869 1866 1751 1865 1978
8 1867 1760 1874 1979 1754 1646 1763 1868
8 1774 1658 1775 1887 1867 1760 1874 1979
8 1870 1766 1648 1756 1980 1877 1763 1868
8 1872 1762 1875 1981 1758 1645 1761 1869
8 1757 1649 1766 1870 1871 1765 1880 1982
8 1983 1879 1764 1873 1871 1765 1647 1759
8 1873 1764 1876 1984 1759 1647 1762 1872
8 1877 1773 1655 1763 1986 1881 1767 1874
8 1775 1659 1776 1888 1874 1767 1881 1986
8 1876 1769 1882 1987 1762 1652 1768 1875
8 1878 1770 1883 1988 1764 1653 1769 1876
8 1880 1772 1656 1766 1989 1886 1773 1877
8 1878 1770 1653 1764 1990 1884 1771 1879
8 1765 1654 1772 1880 1879 1771 1885 1991
8 1778 1664 1779 1890 1887 1775 1888 1997
8 1998 1889 1776 1888 1891 1780 1665 1779
8 1893 1782 1891 2000 1781 1668 1779 1890
8 1894 1783 1892 2001 1782 1669 1780 1891
8 1784 1671 1785 1896 1893 1782 1894 2003
8 1897 1786 1895 2004 1785 1672 1783 1894
8 1790 1675 1789 1904 1896 1785 1897 2006
8 1901 1787 1898 2007 1789 1673 1786 1897
8 1903 1788 1900 2013 1789 1673 1787 1901
8 1792 1676 1791 1906 1903 1788 1902 2016
8 1907 1792 1903 2017 1795 1678 1789 1904
8 1906 1791 1677 1794 2019 1905 1793 1909
8 1907 1792 1678 1795 2020 1906 1794 1910
8 1797 1679 1796 1912 1909 1793 1908 2022
8 1798 1680 1797 1913 1910 1794 1909 2023
8 1800 1682 1799 1915 1912 1796 1911 2025
8 1801 1683 1800 1916 1913 1797 1912 2026
8 1803 1687 1804 1918 1915 1799 1914 2028
8 1802 1686 1803 1917 1916 1800 1915 2029
8 1805 1689 1806 1920 1917 1803 1918 2030
8 1806 1690 1807 1921 1918 1804 1919 2031
8 1808 1692 1809 1922 1920 1806 1921 2032
8 1939 1826 1924 2037 1829 1713 1811 1926
8 1926 1811 1925 2039 1813 1697 1812 1928
8 1944 1829 1926 2040 1828 1712 1813 1929
8 1928 1812 1927 2042 1815 1698 1814 1931
8 1929 1813 1928 2043 1816 1699 1815 1932
8 1931 1814 1930 2044 1818 1700 1817 1933
8 1932 1815 1931 2045 1819 1701 1818 1934
8 1934 1818 1933 2046 1821 1704 1820 1935
8 2048 1936 1823 1937 1977 1864 1750 1865
8 1950 1833 1715 1834 2048 1936 1823 1937
8 1938 1824 1751 1866 2049 1937 1865 1978
8 1835 1716 1824 1938 1951 1834 1937 2049
8 1939 1826 1713 1829 2053 1942 1831 1946
8 1940 1827 1923 2035 2053 1942 1826 1939
8 1945 1830 1946 2058 1828 1712 1829 1944
8 2059 1947 1830 1945 1966 1849 1733 1851
8 1947 1832 1730 1849 2060 1948 1848 1965
8 1947 1832 1948 2060 1830 1714 1831 1946
8 1959 1847 1729 1843 2063 1949 1833 1950
8 1952 1843 1725 1836 2064 1950 1834 1951
8 1836 1725 1843 1952 1953 1842 1958 2066
8 1953 1842 1957 2067 1839 1724 1841 1955
8 1841 1955 1838 1723 1956 2068 1954 1840
8 2068 1956 1859 1967 1954 1840 1743 1852
8 1956 1844 1960 2069 1859 1747 1862 1973
8 1845 1957 1841 1727 1960 2069 1956 1844
8 1728 1842 1957 1845 1846 1958 2071 1961
8 1962 2072 1959 1847 1846 1958 1843 1729
8 1971 1861 1964 2077 1857 1746 1848 1965
8 1854 1741 1857 1969 1966 1849 1965 2078
8 1967 1859 1973 2079 1853 1745 1860 1968
8 1970 1858 1744 1856 2080 1972 1860 1968
8 1969 1857 1742 1855 2081 1971 1858 1970
8 1971 1861 1749 1858 2082 1974 1863 1972
8 1973 1862 1975 2083 1860 1748 1863 1972
8 1987 1882 1976 2086 1875 1768 1864 1977
8 1981 1875 1977 2087 1869 1761 1865 1978
8 1980 1877 1763 1868 2088 1986 1874 1979
8 1887 1775 1888 1997 1979 1874 1986 2088
8 1880 1982 2089 1989 1766 1870 1980 1877
8 1984 1876 1987 2090 1872 1762 1875 1981
8 1765 1871 1983 1879 1880 1982 2091 1991
8 1985 1878 1764 1873 2092 1990 1879 1983
8 1985 1878 1988 2093 1873 1764 1876 1984
8 2094 1992 1881 1986 1998 1889 1776 1888
8 1986 1881 1992 2094 1877 1773 1886 1989
8 1988 1883 1993 2095 1876 1769 1882 1987
8 1878 1770 1884 1990 1988 1883 1994 2096
8 1991 1885 1772 1880 2097 1996 1886 1989
8 1879 1771 1885 1991 1990 1884 1995 2098
8 2103 1998 1888 1997 2000 1891 1779 1890
8 2104 1999 1889 1998 2001 1892 1780 1891
8 2003 1894 2001 2106 1893 1782 1891 2000
8 2004 1895 2002 2107 1894 1783 1892 2001
8 2006 1897 2004 2109 1896 1785 1894 2003
8 2007 1898 2005 2110 1897 1786 1895 2004
8 2014 1901 2007 2112 1904 1789 1897 2006
8 2011 1899 2008 2113 1901 1787 1898 2007
8 2119 2010 1899 2011 2013 1900 1787 1901
8 2016 1902 2012 2122 1903 1788 1900 2013
8 2017 1903 2013 2123 1904 1789 1901 2014
8 1906 1791 1905 2019 2016 1902 2015 2125
8 1907 1792 1906 2020 2017 1903 2016 2126
8 1909 1793 1908 2022 2019 1905 2018 2128
8 2020 1906 1794 1910 2129 2019 1909 2023
8 1912 1796 1911 2025 2022 1908 2021 2131
8 1913 1797 1912 2026 2023 1909 2022 2132
8 1915 1799 1914 2028 2025 1911 2024 2134
8 1916 1800 1915 2029 2026 1912 2025 2135
8 1918 1804 1919 2031 2028 1914 2027 2136
8 1917 1803 1918 2030 2029 1915 2028 2137
8 1920 1806 1921 2032 2030 1918 2031 2138
8 1940 1827 1941 2054 2035 1923 2033 2140
8 2035 1923 2034 2143 1939 1826 1924 2037
8 2037 1924 2036 2146 1926 1811 1925 2039
8 2051 1939 2037 2147 1944 1829 1926 2040
8 2039 1925 2038 2149 1928 1812 1927 2042
8 2040 1926 2039 2150 1929 1813 1928 2043
8 2042 1927 2041 2151 1931 1814 1930 2044
8 2043 1928 2042 2152 1932 1815 1931 2045
8 2045 1931 2044 2153 1934 1818 1933 2046
8 2155 2047 1936 2048 2086 1976 1864 1977
8 2063 1949 1833 1950 2155 2047 1936 2048
8 2156 2048 1937 2049 2087 1977 1865 1978
8 2064 1950 1834 1951 2156 2048 1937 2049
8 2051 1939 1829 1944 2160 2053 1946 2058
8 2052 1940 2035 2144 2160 2053 1939 2051
8 2053 1942 1831 1946 2163 2057 1948 2060
8 2055 1943 1827 1940 2163 2057 1942 2053
8 2055 1943 2056 2164 1940 1827 1941 2054
8 2059 1947 1849 1966 2167 2060 1965 2078
8 2059 1947 2060 2167 1945 1830 1946 2058
8 2077 1964 2061 2168 1965 1848 1948 2060
8 2070 1963 1847 1959 2170 2062 1949 2063
8 2065 1959 1843 1952 2171 2063 1950 2064
8 2173 2072 1958 2066 2065 1959 1843 1952
8 1953 1842 1958 2066 2067 1957 2071 2174
8 2068 1956 2069 2175 1967 1859 1973 2079
8 2067 1957 2069 2175 1955 1841 1956 2068
8 1845 1957 2069 1960 1961 2071 2176 2073
8 2069 1960 2073 2176 1973 1862 1975 2083
8 2070 1963 2075 2177 1959 1847 1962 2072
8 1846 1958 2071 1961 1962 2072 2178 2074
8 2077 1964 1861 1971 2182 2076 1974 2082
8 2081 1971 2077 2183 1969 1857 1965 2078
8 2079 1973 2083 2184 1968 1860 1972 2080
8 2081 1971 1858 1970 2185 2082 1972 2080
8 2083 1975 2084 2186 1972 1863 1974 2082
8 2086 1976 1882 1987 2189 2085 1993 2095
8 2090 1987 2086 2190 1981 1875 1977 2087
8 2191 2094 1986 2088 2103 1998 1888 1997
8 2088 1986 2094 2191 1980 1877 1989 2089
8 1991 2091 2192 2097 1880 1982 2089 1989
8 2093 1988 2095 2193 1984 1876 1987 2090
8 1879 1983 2092 1990 1991 2091 2194 2098
8 1985 1878 1990 2092 2093 1988 2096 2195
8 2097 1996 1886 1989 2196 2099 1992 2094
8 2196 2099 1992 2094 2104 1999 1889 1998
8 1994 2096 1988 1883 2100 2197 2095 1993
8 2096 1994 1884 1990 2198 2101 1995 2098
8 1995 2098 2199 2102 1885 1991 2097 1996
8 2203 2104 1998 2103 2106 2001 1891 2000
8 2107 2002 2105 2204 2001 1892 1999 2104
8 2109 2004 2107 2206 2003 1894 2001 2106
8 2110 2005 2108 2207 2004 1895 2002 2107
8 2112 2007 2110 2209 2006 1897 2004 2109
8 2113 2008 2111 2210 2007 1898 2005 2110
8 2120 2011 2113 2212 2014 1901 2007 2112
8 2117 2009 2114 2213 2011 1899 2008 2113
8 2219 2116 2009 2117 2119 2010 1899 2011
8 2222 2118 2010 2119 2122 2012 1900 2013
8 2223 2119 2011 2120 2123 2013 1901 2014
8 2016 1902 2015 2125 2122 2012 2121 2225
8 2126 2016 2122 2226 2017 1903 2013 2123
8 2019 1905 2018 2128 2125 2015 2124 2228
8 2020 1906 2019 2129 2126 2016 2125 2229
8 2022 1908 2021 2131 2128 2018 2127 2231
8 2023 1909 2022 2132 2129 2019 2128 2232
8 2025 1911 2024 2134 2131 2021 2130 2234
8 2026 1912 2025 2135 2132 2022 2131 2235
8 1914 2028 2134 2024 2027 2136 2236 2133
8 2029 1915 2028 2137 2135 2025 2134 2237
8 2030 1918 2031 2138 2137 2028 2136 2238
8 2157 2050 2139 2240 2054 1941 2033 2140
8 2052 1940 2054 2161 2144 2035 2140 2242
8 2140 2033 2141 2243 2035 1923 2034 2143
8 2143 2034 2142 2246 2037 1924 2036 2146
8 2144 2035 2143 2247 2051 1939 2037 2147
8 2146 2036 2145 2249 2039 1925 2038 2149
8 2147 2037 2146 2250 2040 1926 2039 2150
8 2149 2038 2148 2251 2042 1927 2041 2151
8 2150 2039 2149 2252 2043 1928 2042 2152
8 2152 2042 2151 2253 2045 1931 2044 2153
8 2255 2154 2047 2155 2189 2085 1976 2086
8 2170 2062 1949 2063 2255 2154 2047 2155
8 2256 2155 2048 2156 2190 2086 1977 2087
8 2171 2063 1950 2064 2256 2155 2048 2156
8 2258 2159 2050 2157 2164 2056 1941 2054
8 2160 2053 1946 2058 2262 2163 2060 2167
8 2162 2055 1940 2052 2262 2163 2053 2160
8 2162 2055 2164 2263 2052 1940 2054 2161
8 2163 2057 1948 2060 2264 2165 2061 2168
8 2055 1943 2057 2163 2164 2056 2165 2264
8 2182 2076 2166 2268 2077 1964 2061 2168
8 2183 2077 2168 2269 2078 1965 2060 2167
8 2070 1963 2062 2170 2177 2075 2169 2271
8 2172 2070 1959 2065 2272 2170 2063 2171
8 2172 2070 2177 2273 2065 1959 2072 2173
8 2066 1958 2072 2173 2174 2071 2178 2274
8 2067 1957 2071 2174 2175 2069 2176 2275
8 2175 2069 2176 2275 2079 1973 2083 2184
8 2071 1961 2074 2178 2176 2073 2179 2276
8 2176 2073 2179 2276 2083 1975 2084 2186
8 2072 1962 2075 2177 2178 2074 2180 2277
8 2182 2076 1974 2082 2280 2181 2084 2186
8 2183 2077 1971 2081 2281 2182 2082 2185
8 2184 2083 2186 2282 2080 1972 2082 2185
8 2189 2085 1993 2095 2285 2188 2100 2197
8 2190 2086 1987 2090 2286 2189 2095 2193
8 2192 2097 1989 2089 2287 2196 2094 2191
8 2287 2196 2094 2191 2203 2104 1998 2103
8 2194 2098 1991 2091 2288 2199 2097 2192
8 2195 2096 2197 2289 2093 1988 2095 2193
8 2096 2195 2290 2198 1990 2092 2194 2098
8 2097 1996 2099 2196 2199 2102 2200 2291
8 2196 2099 1999 2104 2291 2200 2105 2204
8 2100 2197 2292 2201 1994 2096 2198 2101
8 1995 2098 2198 2101 2102 2199 2293 2202
8 2206 2107 2204 2296 2106 2001 2104 2203
8 2207 2108 2205 2297 2107 2002 2105 2204
8 2209 2110 2207 2299 2109 2004 2107 2206
8 2210 2111 2208 2300 2110 2005 2108 2207
8 2212 2113 2210 2302 2112 2007 2110 2209
8 2213 2114 2211 2303 2113 2008 2111 2210
8 2220 2117 2213 2305 2120 2011 2113 2212
8 2216 2115 2214 2306 2117 2009 2114 2213
8 2216 2115 2009 2117 2311 2217 2116 2219
8 2219 2116 2010 2119 2314 2218 2118 2222
8 2315 2219 2117 2220 2223 2119 2011 2120
8 2122 2012 2121 2225 2222 2118 2221 2317
8 2318 2222 2119 2223 2226 2122 2013 2123
8 2125 2015 2124 2228 2225 2121 2224 2320
8 2126 2016 2125 2229 2226 2122 2225 2321
8 2128 2018 2127 2231 2228 2124 2227 2323
8 2129 2019 2128 2232 2229 2125 2228 2324
8 2131 2021 2130 2234 2231 2127 2230 2326
8 2132 2022 2131 2235 2232 2128 2231 2327
8 2134 2024 2133 2236 2234 2130 2233 2328
8 2135 2025 2134 2237 2235 2131 2234 2329
8 2137 2028 2136 2238 2237 2134 2236 2330
8 2157 2050 2158 2259 2240 2139 2239 2332
8 2257 2157 2240 2334 2161 2054 2140 2242
8 2240 2139 2241 2335 2140 2033 2141 2243
8 2242 2140 2243 2337 2144 2035 2143 2247
8 2243 2141 2244 2338 2143 2034 2142 2246
8 2246 2142 2245 2341 2146 2036 2145 2249
8 2247 2143 2246 2342 2147 2037 2146 2250
8 2249 2145 2248 2343 2149 2038 2148 2251
8 2250 2146 2249 2344 2150 2039 2149 2252
8 2252 2149 2251 2345 2152 2042 2151 2253
8 2169 2271 2347 2254 2062 2170 2255 2154
8 2189 2085 2188 2285 2255 2154 2254 2347
8 2348 2255 2155 2256 2286 2189 2086 2190
8 2272 2170 2063 2171 2348 2255 2155 2256
8 2349 2258 2157 2257 2263 2164 2054 2161
8 2258 2159 2261 2351 2157 2050 2158 2259
8 2258 2159 2056 2164 2351 2261 2165 2264
8 2262 2163 2060 2167 2355 2264 2168 2269
8 2162 2055 2163 2262 2263 2164 2264 2355
8 2357 2266 2165 2264 2268 2166 2061 2168
8 2268 2166 2076 2182 2361 2267 2181 2280
8 2281 2182 2268 2362 2183 2077 2168 2269
8 2271 2169 2270 2364 2177 2075 2180 2277
8 2172 2070 2170 2272 2273 2177 2271 2365
8 2072 2173 2274 2178 2177 2273 2366 2277
8 2071 2174 2275 2176 2178 2274 2367 2276
8 2275 2176 2276 2367 2184 2083 2186 2282
8 2283 2187 2084 2186 2368 2278 2179 2276
8 2178 2074 2180 2277 2276 2179 2278 2368
8 2283 2187 2279 2370 2186 2084 2181 2280
8 2281 2182 2082 2185 2371 2280 2186 2282
8 2188 2285 2374 2284 2100 2197 2292 2201
8 2286 2189 2095 2193 2375 2285 2197 2289
8 2192 2097 2196 2287 2288 2199 2291 2376
8 2287 2196 2104 2203 2376 2291 2204 2296
8 2194 2098 2199 2288 2290 2198 2293 2377
8 2289 2197 2096 2195 2378 2292 2198 2290
8 2291 2200 2105 2204 2379 2294 2205 2297
8 2199 2102 2200 2291 2293 2202 2294 2379
8 2198 2101 2202 2293 2292 2201 2295 2380
8 2299 2207 2297 2383 2206 2107 2204 2296
8 2300 2208 2298 2384 2207 2108 2205 2297
8 2302 2210 2300 2386 2209 2110 2207 2299
8 2303 2211 2301 2387 2210 2111 2208 2300
8 2305 2213 2303 2389 2212 2113 2210 2302
8 2306 2214 2304 2390 2213 2114 2211 2303
8 2310 2216 2306 2392 2220 2117 2213 2305
8 2308 2215 2307 2393 2216 2115 2214 2306
8 2308 2215 2115 2216 2396 2309 2217 2311
8 2310 2216 2117 2220 2398 2311 2219 2315
8 2311 2217 2116 2219 2399 2312 2218 2314
8 2314 2218 2118 2222 2402 2313 2221 2317
8 2315 2219 2119 2223 2403 2314 2222 2318
8 2225 2121 2224 2320 2317 2221 2316 2405
8 2226 2122 2225 2321 2318 2222 2317 2406
8 2228 2124 2227 2323 2320 2224 2319 2408
8 2229 2125 2228 2324 2321 2225 2320 2409
8 2231 2127 2230 2326 2323 2227 2322 2411
8 2232 2128 2231 2327 2324 2228 2323 2412
8 2234 2130 2233 2328 2326 2230 2325 2413
8 2235 2131 2234 2329 2327 2231 2326 2414
8 2237 2134 2236 2330 2329 2234 2328 2415
8 2259 2158 2260 2352 2332 2239 2331 2417
8 2257 2157 2259 2350 2334 2240 2332 2419
8 2240 2139 2239 2332 2335 2241 2333 2420
8 2334 2240 2335 2422 2242 2140 2243 2337
8 2335 2241 2336 2423 2243 2141 2244 2338
8 2337 2243 2338 2425 2247 2143 2246 2342
8 2338 2244 2339 2426 2246 2142 2245 2341
8 2341 2245 2340 2428 2249 2145 2248 2343
8 2342 2246 2341 2429 2250 2146 2249 2344
8 2344 2249 2343 2430 2252 2149 2251 2345
8 2188 2285 2347 2254 2284 2374 2432 2346
8 2347 2254 2346 2432 2271 2169 2270 2364
8 2365 2271 2170 2272 2433 2347 2255 2348
8 2286 2189 2285 2375 2348 2255 2347 2433
8 2349 2258 2351 2435 2257 2157 2259 2350
8 2349 2258 2164 2263 2435 2351 2264 2355
8 2259 2158 2261 2351 2352 2260 2354 2437
8 2356 2265 2354 2437 2264 2165 2261 2351
8 2441 2357 2264 2355 2362 2268 2168 2269
8 2356 2265 2165 2264 2442 2358 2266 2357
8 2443 2359 2266 2357 2361 2267 2166 2268
8 2370 2279 2360 2446 2280 2181 2267 2361
8 2362 2268 2182 2281 2447 2361 2280 2371
8 2180 2277 2368 2278 2270 2364 2449 2363
8 2271 2365 2273 2177 2364 2450 2366 2277
8 2372 2283 2186 2282 2451 2368 2276 2367
8 2178 2274 2367 2276 2277 2366 2451 2368
8 2283 2187 2278 2368 2370 2279 2369 2452
8 2372 2283 2370 2453 2282 2186 2280 2371
8 2284 2374 2455 2373 2201 2292 2380 2295
8 2375 2285 2197 2289 2456 2374 2292 2378
8 2376 2291 2204 2296 2457 2379 2297 2383
8 2288 2199 2291 2376 2377 2293 2379 2457
8 2198 2290 2378 2292 2293 2377 2458 2380
8 2293 2202 2294 2379 2380 2295 2381 2459
8 2384 2298 2381 2459 2297 2205 2294 2379
8 2386 2300 2384 2463 2299 2207 2297 2383
8 2387 2301 2385 2464 2300 2208 2298 2384
8 2389 2303 2387 2466 2302 2210 2300 2386
8 2390 2304 2388 2467 2303 2211 2301 2387
8 2392 2306 2390 2469 2305 2213 2303 2389
8 2393 2307 2391 2470 2306 2214 2304 2390
8 2395 2308 2393 2472 2310 2216 2306 2392
8 2308 2215 2309 2396 2393 2307 2394 2473
8 2395 2308 2216 2310 2475 2396 2311 2398
8 2396 2309 2217 2311 2476 2397 2312 2399
8 2398 2311 2219 2315 2478 2399 2314 2403
8 2399 2312 2218 2314 2479 2400 2313 2402
8 2317 2221 2316 2405 2402 2313 2401 2482
8 2403 2314 2222 2318 2483 2402 2317 2406
8 2320 2224 2319 2408 2405 2316 2404 2485
8 2321 2225 2320 2409 2406 2317 2405 2486
8 2323 2227 2322 2411 2408 2319 2407 2488
8 2324 2228 2323 2412 2409 2320 2408 2489
8 2326 2230 2325 2413 2411 2322 2410 2490
8 2327 2231 2326 2414 2412 2323 2411 2491
8 2329 2234 2328 2415 2414 2326 2413 2492
8 2417 2331 2260 2352 2494 2416 2353 2438
8 2350 2259 2352 2436 2419 2332 2417 2496
8 2332 2239 2331 2417 2420 2333 2418 2497
8 2334 2240 2332 2419 2422 2335 2420 2499
8 2420 2333 2421 2500 2335 2241 2336 2423
8 2422 2335 2423 2502 2337 2243 2338 2425
8 2423 2336 2424 2503 2338 2244 2339 2426
8 2425 2338 2426 2505 2342 2246 2341 2429
8 2426 2339 2427 2506 2341 2245 2340 2428
8 2429 2341 2428 2507 2344 2249 2343 2430
8 2432 2346 2284 2374 2509 2431 2373 2455
8 2432 2346 2431 2509 2364 2270 2363 2449
8 2375 2285 2374 2456 2433 2347 2432 2510
8 2347 2433 2365 2271 2432 2510 2450 2364
8 2350 2259 2351 2435 2436 2352 2437 2514
8 2440 2356 2437 2514 2355 2264 2351 2435
8 2352 2260 2354 2437 2438 2353 2439 2516
8 2356 2265 2358 2442 2437 2354 2439 2516
8 2440 2356 2264 2355 2518 2442 2357 2441
8 2519 2443 2357 2441 2447 2361 2268 2362
8 2443 2359 2444 2520 2357 2266 2358 2442
8 2443 2359 2267 2361 2520 2444 2360 2446
8 2446 2360 2279 2370 2523 2445 2369 2452
8 2453 2370 2446 2524 2371 2280 2361 2447
8 2449 2363 2448 2525 2368 2278 2369 2452
8 2366 2277 2364 2450 2451 2368 2449 2526
8 2372 2283 2368 2451 2453 2370 2452 2527
8 2455 2373 2295 2380 2529 2454 2382 2460
8 2456 2374 2292 2378 2530 2455 2380 2458
8 2377 2293 2379 2457 2458 2380 2459 2531
8 2463 2384 2459 2531 2383 2297 2379 2457
8 2533 2461 2382 2460 2459 2381 2295 2380
8 2464 2385 2461 2533 2384 2298 2381 2459
8 2466 2387 2464 2537 2386 2300 2384 2463
8 2467 2388 2465 2538 2387 2301 2385 2464
8 2469 2390 2467 2540 2389 2303 2387 2466
8 2470 2391 2468 2541 2390 2304 2388 2467
8 2472 2393 2470 2543 2392 2306 2390 2469
8 2393 2307 2394 2473 2470 2391 2471 2544
8 2395 2308 2396 2475 2472 2393 2473 2546
8 2396 2309 2397 2476 2473 2394 2474 2547
8 2475 2396 2311 2398 2549 2476 2399 2478
8 2476 2397 2312 2399 2550 2477 2400 2479
8 2478 2399 2314 2403 2552 2479 2402 2483
8 2479 2400 2313 2402 2553 2480 2401 2482
8 2405 2316 2404 2485 2482 2401 2481 2556
8 2406 2317 2405 2486 2483 2402 2482 2557
8 2408 2319 2407 2488 2485 2404 2484 2559
8 2409 2320 2408 2489 2486 2405 2485 2560
8 2411 2322 2410 2490 2488 2407 2487 2561
8 2412 2323 2411 2491 2489 2408 2488 2562
8 2414 2326 2413 2492 2491 2411 2490 2563
8 2513 2434 2493 2565 2438 2353 2416 2494
8 2496 2417 2352 2436 2567 2494 2438 2515
8 2494 2416 2495 2568 2417 2331 2418 2497
8 2419 2332 2417 2496 2499 2420 2497 2570
8 2497 2418 2498 2571 2420 2333 2421 2500
8 2499 2420 2500 2573 2422 2335 2423 2502
8 2500 2421 2501 2574 2423 2336 2424 2503
8 2502 2423 2503 2576 2425 2338 2426 2505
8 2503 2424 2504 2577 2426 2339 2427 2506
8 2505 2426 2506 2578 2429 2341 2428 2507
8 2509 2431 2373 2455 2580 2508 2454 2529
8 2509 2431 2508 2580 2449 2363 2448 2525
8 2432 2510 2581 2509 2374 2456 2530 2455
8 2432 2510 2450 2364 2509 2581 2526 2449
8 2583 2511 2434 2513 2516 2439 2353 2438
8 2436 2352 2437 2514 2515 2438 2516 2588
8 2440 2356 2442 2518 2514 2437 2516 2588
8 2442 2358 2444 2520 2516 2439 2517 2589
8 2519 2443 2520 2591 2441 2357 2442 2518
8 2519 2443 2361 2447 2591 2520 2446 2524
8 2446 2360 2445 2523 2520 2444 2521 2592
8 2525 2448 2522 2593 2452 2369 2445 2523
8 2524 2446 2370 2453 2594 2523 2452 2527
8 2526 2449 2525 2595 2451 2368 2452 2527
8 2534 2462 2528 2597 2460 2382 2454 2529
8 2530 2455 2380 2458 2598 2529 2460 2532
8 2599 2533 2460 2532 2531 2459 2380 2458
8 2537 2464 2533 2599 2463 2384 2459 2531
8 2534 2462 2382 2460 2601 2535 2461 2533
8 2538 2465 2535 2601 2464 2385 2461 2533
8 2540 2467 2538 2604 2466 2387 2464 2537
8 2541 2468 2539 2605 2467 2388 2465 2538
8 2543 2470 2541 2607 2469 2390 2467 2540
8 2470 2391 2471 2544 2541 2468 2542 2608
8 2472 2393 2473 2546 2543 2470 2544 2610
8 2473 2394 2474 2547 2544 2471 2545 2611
8 2475 2396 2476 2549 2546 2473 2547 2613
8 2476 2397 2477 2550 2547 2474 2548 2614
8 2549 2476 2399 2478 2616 2550 2479 2552
8 2479 2400 2480 2553 2550 2477 2551 2617
8 2552 2479 2402 2483 2619 2553 2482 2557
8 2482 2401 2481 2556 2553 2480 2554 2620
8 2485 2404 2484 2559 2556 2481 2555 2623
8 2486 2405 2485 2560 2557 2482 2556 2624
8 2488 2407 2487 2561 2559 2484 2558 2625
8 2489 2408 2488 2562 2560 2485 2559 2626
8 2491 2411 2490 2563 2562 2488 2561 2627
8 2513 2434 2512 2585 2565 2493 2564 2630
8 2586 2513 2565 2632 2515 2438 2494 2567
8 2565 2493 2566 2633 2494 2416 2495 2568
8 2567 2494 2568 2635 2496 2417 2497 2570
8 2568 2495 2569 2636 2497 2418 2498 2571
8 2570 2497 2571 2638 2499 2420 2500 2573
8 2571 2498 2572 2639 2500 2421 2501 2574
8 2573 2500 2574 2641 2502 2423 2503 2576
8 2574 2501 2575 2642 2503 2424 2504 2577
8 2576 2503 2577 2643 2505 2426 2506 2578
8 2597 2528 2579 2645 2529 2454 2508 2580
8 2580 2508 2579 2645 2525 2448 2522 2593
8 2581 2509 2455 2530 2646 2580 2529 2598
8 2581 2509 2580 2646 2526 2449 2525 2595
8 2583 2511 2582 2648 2513 2434 2512 2585
8 2583 2511 2439 2516 2648 2582 2517 2589
8 2649 2583 2513 2586 2588 2516 2438 2515
8 2589 2517 2444 2520 2653 2587 2521 2592
8 2518 2442 2520 2591 2588 2516 2589 2654
8 2593 2522 2590 2655 2523 2445 2521 2592
8 2524 2446 2523 2594 2591 2520 2592 2656
8 2595 2525 2593 2657 2527 2452 2523 2594
8 2602 2536 2596 2659 2534 2462 2528 2597
8 2600 2534 2597 2660 2532 2460 2529 2598
8 2600 2534 2460 2532 2661 2601 2533 2599
8 2604 2538 2601 2661 2537 2464 2533 2599
8 2602 2536 2462 2534 2663 2603 2535 2601
8 2601 2535 2465 2538 2663 2603 2539 2605
8 2607 2541 2605 2665 2540 2467 2538 2604
8 2608 2542 2606 2666 2541 2468 2539 2605
8 2543 2470 2544 2610 2607 2541 2608 2668
8 2544 2471 2545 2611 2608 2542 2609 2669
8 2546 2473 2547 2613 2610 2544 2611 2671
8 2547 2474 2548 2614 2611 2545 2612 2672
8 2549 2476 2550 2616 2613 2547 2614 2674
8 2550 2477 2551 2617 2614 2548 2615 2675
8 2552 2479 2553 2619 2616 2550 2617 2677
8 2553 2480 2554 2620 2617 2551 2618 2678
8 2557 2482 2556 2624 2619 2553 2620 2680
8 2556 2481 2555 2623 2620 2554 2621 2681
8 2559 2484 2558 2625 2623 2555 2622 2683
8 2560 2485 2559 2626 2624 2556 2623 2684
8 2562 2488 2561 2627 2626 2559 2625 2685
8 2690 2629 2564 2630 2650 2584 2512 2585
8 2586 2513 2585 2651 2632 2565 2630 2691
8 2630 2564 2631 2692 2565 2493 2566 2633
8 2632 2565 2633 2694 2567 2494 2568 2635
8 2633 2566 2634 2695 2568 2495 2569 2636
8 2635 2568 2636 2697 2570 2497 2571 2638
8 2636 2569 2637 2698 2571 2498 2572 2639
8 2638 2571 2639 2700 2573 2500 2574 2641
8 2639 2572 2640 2701 2574 2501 2575 2642
8 2641 2574 2642 2702 2576 2503 2577 2643
8 2597 2528 2596 2659 2645 2579 2644 2704
8 2645 2579 2644 2704 2593 2522 2590 2655
8 2660 2597 2645 2705 2598 2529 2580 2646
8 2646 2580 2645 2705 2595 2525 2593 2657
8 2650 2584 2512 2585 2707 2647 2582 2648
8 2648 2582 2517 2589 2707 2647 2587 2653
8 2649 2583 2648 2708 2586 2513 2585 2651
8 2649 2583 2516 2588 2708 2648 2589 2654
8 2655 2590 2652 2710 2592 2521 2587 2653
8 2654 2589 2520 2591 2711 2653 2592 2656
8 2657 2593 2655 2712 2594 2523 2592 2656
8 2602 2536 2603 2663 2659 2596 2658 2714
8 2662 2602 2659 2715 2600 2534 2597 2660
8 2662 2602 2534 2600 2717 2663 2601 2661
8 2661 2601 2538 2604 2717 2663 2605 2665
8 2666 2606 2664 2718 2605 2539 2603 2663
8 2668 2608 2666 2720 2607 2541 2605 2665
8 2608 2542 2609 2669 2666 2606 2667 2721
8 2610 2544 2611 2671 2668 2608 2669 2723
8 2611 2545 2612 2672 2669 2609 2670 2724
8 2613 2547 2614 2674 2671 2611 2672 2726
8 2614 2548 2615 2675 2672 2612 2673 2727
8 2616 2550 2617 2677 2674 2614 2675 2729
8 2617 2551 2618 2678 2675 2615 2676 2730
8 2619 2553 2620 2680 2677 2617 2678 2732
8 2620 2554 2621 2681 2678 2618 2679 2733
8 2624 2556 2623 2684 2680 2620 2681 2735
8 2681 2621 2555 2623 2736 2682 2622 2683
8 2626 2559 2625 2685 2684 2623 2683 2737
8 2688 2628 2584 2650 2740 2686 2647 2707
8 2688 2628 2687 2742 2650 2584 2629 2690
8 2690 2629 2689 2745 2630 2564 2631 2692
8 2746 2690 2630 2691 2709 2650 2585 2651
8 2691 2630 2692 2747 2632 2565 2633 2694
8 2692 2631 2693 2748 2633 2566 2634 2695
8 2694 2633 2695 2750 2635 2568 2636 2697
8 2695 2634 2696 2751 2636 2569 2637 2698
8 2697 2636 2698 2753 2638 2571 2639 2700
8 2698 2637 2699 2754 2639 2572 2640 2701
8 2700 2639 2701 2755 2641 2574 2642 2702
8 2659 2596 2658 2714 2704 2644 2703 2757
8 2704 2644 2703 2757 2655 2590 2652 2710
8 2660 2597 2659 2715 2705 2645 2704 2758
8 2705 2645 2704 2758 2657 2593 2655 2712
8 2759 2706 2647 2707 2710 2652 2587 2653
8 2709 2650 2585 2651 2760 2707 2648 2708
8 2708 2648 2589 2654 2760 2707 2653 2711
8 2712 2655 2710 2761 2656 2592 2653 2711
8 2763 2713 2658 2714 2718 2664 2603 2663
8 2662 2602 2663 2717 2715 2659 2714 2764
8 2720 2666 2718 2767 2665 2605 2663 2717
8 2768 2719 2664 2718 2721 2667 2606 2666
8 2668 2608 2669 2723 2720 2666 2721 2770
8 2669 2609 2670 2724 2721 2667 2722 2771
8 2671 2611 2672 2726 2723 2669 2724 2773
8 2672 2612 2673 2727 2724 2670 2725 2774
8 2674 2614 2675 2729 2726 2672 2727 2776
8 2675 2615 2676 2730 2727 2673 2728 2777
8 2677 2617 2678 2732 2729 2675 2730 2779
8 2678 2618 2679 2733 2730 2676 2731 2780
8 2680 2620 2681 2735 2732 2678 2733 2782
8 2733 2679 2621 2681 2783 2734 2682 2736
8 2735 2681 2623 2684 2784 2736 2683 2737
8 2740 2686 2647 2707 2787 2738 2706 2759
8 2688 2628 2686 2740 2742 2687 2739 2789
8 2743 2688 2650 2709 2790 2740 2707 2760
8 2742 2687 2741 2792 2690 2629 2689 2745
8 2743 2688 2742 2793 2709 2650 2690 2746
8 2745 2689 2744 2795 2692 2631 2693 2748
8 2746 2690 2745 2796 2691 2630 2692 2747
8 2747 2692 2748 2797 2694 2633 2695 2750
8 2748 2693 2749 2798 2695 2634 2696 2751
8 2750 2695 2751 2800 2697 2636 2698 2753
8 2751 2696 2752 2801 2698 2637 2699 2754
8 2753 2698 2754 2802 2700 2639 2701 2755
8 2763 2713 2756 2804 2714 2658 2703 2757
8 2759 2706 2652 2710 2804 2756 2703 2757
8 2715 2659 2714 2764 2758 2704 2757 2805
8 2758 2704 2757 2805 2712 2655 2710 2761
8 2806 2759 2707 2760 2761 2710 2653 2711
8 2765 2716 2762 2808 2718 2664 2713 2763
8 2809 2763 2714 2764 2767 2718 2663 2717
8 2765 2716 2664 2718 2811 2766 2719 2768
8 2813 2768 2718 2767 2770 2721 2666 2720
8 2814 2769 2719 2768 2771 2722 2667 2721
8 2723 2669 2724 2773 2770 2721 2771 2816
8 2724 2670 2725 2774 2771 2722 2772 2817
8 2726 2672 2727 2776 2773 2724 2774 2819
8 2727 2673 2728 2777 2774 2725 2775 2820
8 2729 2675 2730 2779 2776 2727 2777 2822
8 2730 2676 2731 2780 2777 2728 2778 2823
8 2732 2678 2733 2782 2779 2730 2780 2825
8 2780 2731 2679 2733 2826 2781 2734 2783
8 2782 2733 2681 2735 2827 2783 2736 2784
8 2830 2785 2738 2787 2804 2756 2706 2759
8 2789 2739 2686 2740 2832 2786 2738 2787
8 2790 2740 2707 2760 2833 2787 2759 2806
8 2742 2687 2739 2789 2792 2741 2788 2835
8 2743 2688 2740 2790 2793 2742 2789 2836
8 2792 2741 2791 2838 2745 2689 2744 2795
8 2793 2742 2792 2839 2746 2690 2745 2796
8 2795 2744 2794 2841 2748 2693 2749 2798
8 2796 2745 2795 2842 2747 2692 2748 2797
8 2797 2748 2798 2843 2750 2695 2751 2800
8 2798 2749 2799 2844 2751 2696 2752 2801
8 2800 2751 2801 2845 2753 2698 2754 2802
8 2808 2762 2803 2847 2763 2713 2756 2804
8 2809 2763 2804 2848 2764 2714 2757 2805
8 2806 2759 2710 2761 2848 2804 2757 2805
8 2765 2716 2766 2811 2808 2762 2807 2850
8 2810 2765 2808 2851 2767 2718 2763 2809
8 2810 2765 2718 2767 2852 2811 2768 2813
8 2811 2766 2719 2768 2853 2812 2769 2814
8 2855 2814 2768 2813 2816 2771 2721 2770
8 2856 2815 2769 2814 2817 2772 2722 2771
8 2773 2724 2774 2819 2816 2771 2817 2858
8 2774 2725 2775 2820 2817 2772 2818 2859
8 2776 2727 2777 2822 2819 2774 2820 2861
8 2777 2728 2778 2823 2820 2775 2821 2862
8 2779 2730 2780 2825 2822 2777 2823 2864
8 2823 2778 2731 2780 2865 2824 2781 2826
8 2825 2780 2733 2782 2866 2826 2783 2827
8 2869 2828 2785 2830 2847 2803 2756 2804
8 2871 2829 2786 2832 2830 2785 2738 2787
8 2872 2830 2787 2833 2848 2804 2759 2806
8 2789 2739 2786 2832 2835 2788 2831 2874
8 2836 2789 2740 2790 2875 2832 2787 2833
8 2792 2741 2788 2835 2838 2791 2834 2877
8 2793 2742 2789 2836 2839 2792 2835 2878
8 2838 2791 2837 2880 2795 2744 2794 2841
8 2839 2792 2838 2881 2796 2745 2795 2842
8 2841 2794 2840 2882 2798 2749 2799 2844
8 2842 2795 2841 2883 2797 2748 2798 2843
8 2843 2798 2844 2884 2800 2751 2801 2845
8 2886 2846 2803 2847 2850 2807 2762 2808
8 2851 2808 2847 2887 2809 2763 2804 2848
8 2850 2807 2766 2811 2889 2849 2812 2853
8 2810 2765 2811 2852 2851 2808 2850 2890
8 2852 2811 2768 2813 2891 2853 2814 2855
8 2853 2812 2769 2814 2892 2854 2815 2856
8 2894 2856 2814 2855 2858 2817 2771 2816
8 2817 2772 2818 2859 2856 2815 2857 2895
8 2819 2774 2820 2861 2858 2817 2859 2897
8 2820 2775 2821 2862 2859 2818 2860 2898
8 2822 2777 2823 2864 2861 2820 2862 2900
8 2823 2778 2824 2865 2862 2821 2863 2901
8 2864 2823 2780 2825 2902 2865 2826 2866
8 2904 2867 2828 2869 2886 2846 2803 2847
8 2869 2828 2868 2906 2830 2785 2829 2871
8 2907 2869 2830 2872 2887 2847 2804 2848
8 2871 2829 2870 2909 2832 2786 2831 2874
8 2910 2871 2832 2875 2872 2830 2787 2833
8 2835 2788 2831 2874 2877 2834 2873 2912
8 2836 2789 2832 2875 2878 2835 2874 2913
8 2877 2834 2876 2915 2838 2791 2837 2880
8 2839 2792 2835 2878 2881 2838 2877 2916
8 2880 2837 2879 2917 2841 2794 2840 2882
8 2881 2838 2880 2918 2842 2795 2841 2883
8 2883 2841 2882 2919 2843 2798 2844 2884
8 2921 2885 2846 2886 2889 2849 2807 2850
8 2922 2886 2847 2887 2890 2850 2808 2851
8 2889 2849 2812 2853 2924 2888 2854 2892
8 2890 2850 2811 2852 2925 2889 2853 2891
8 2891 2853 2814 2855 2926 2892 2856 2894
8 2892 2854 2815 2856 2927 2893 2857 2895
8 2858 2817 2859 2897 2894 2856 2895 2929
8 2859 2818 2860 2898 2895 2857 2896 2930
8 2861 2820 2862 2900 2897 2859 2898 2932
8 2862 2821 2863 2901 2898 2860 2899 2933
8 2864 2823 2865 2902 2900 2862 2901 2934
8 2904 2867 2846 2886 2936 2903 2885 2921
8 2904 2867 2903 2936 2869 2828 2868 2906
8 2937 2904 2869 2907 2922 2886 2847 2887
8 2906 2868 2905 2939 2871 2829 2870 2909
8 2907 2869 2906 2940 2872 2830 2871 2910
8 2909 2870 2908 2942 2874 2831 2873 2912
8 2910 2871 2909 2943 2875 2832 2874 2913
8 2912 2873 2911 2945 2877 2834 2876 2915
8 2878 2835 2874 2913 2916 2877 2912 2946
8 2915 2876 2914 2947 2880 2837 2879 2917
8 2916 2877 2915 2948 2881 2838 2880 2918
8 2918 2880 2917 2949 2883 2841 2882 2919
8 2921 2885 2849 2889 2951 2920 2888 2924
8 2952 2921 2886 2922 2925 2889 2850 2890
8 2924 2888 2854 2892 2954 2923 2893 2927
8 2925 2889 2853 2891 2955 2924 2892 2926
8 2926 2892 2856 2894 2956 2927 2895 2929
8 2895 2857 2896 2930 2927 2893 2928 2957
8 2897 2859 2898 2932 2929 2895 2930 2959
8 2898 2860 2899 2933 2930 2896 2931 2960
8 2900 2862 2901 2934 2932 2898 2933 2961
8 2936 2903 2885 2921 2963 2935 2920 2951
8 2936 2903 2935 2963 2906 2868 2905 2939
8 2937 2904 2886 2922 2964 2936 2921 2952
8 2937 2904 2936 2964 2907 2869 2906 2940
8 2939 2905 2938 2966 2909 2870 2908 2942
8 2940 2906 2939 2967 2910 2871 2909 2943
8 2942 2908 2941 2969 2912 2873 2911 2945
8 2943 2909 2942 2970 2913 2874 2912 2946
8 2945 2911 2944 2971 2915 2876 2914 2947
8 2946 2912 2945 2972 2916 2877 2915 2948
8 2948 2915 2947 2973 2918 2880 2917 2949
8 2951 2920 2888 2924 2975 2950 2923 2954
8 2952 2921 2889 2925 2976 2951 2924 2955
8 2927 2893 2928 2957 2954 2923 2953 2978
8 2955 2924 2892 2926 2979 2954 2927 2956
8 2929 2895 2930 2959 2956 2927 2957 2980
8 2930 2896 2931 2960 2957 2928 2958 2981
8 2932 2898 2933 2961 2959 2930 2960 2982
8 2951 2920 2950 2975 2963 2935 2962 2984
8 2963 2935 2962 2984 2939 2905 2938 2966
8 2964 2936 2921 2952 2985 2963 2951 2976
8 2964 2936 2963 2985 2940 2906 2939 2967
8 2966 2938 2965 2987 2942 2908 2941 2969
8 2967 2939 2966 2988 2943 2909 2942 2970
8 2969 2941 2968 2989 2945 2911 2944 2971
8 2970 2942 2969 2990 2946 2912 2945 2972
8 2972 2945 2971 2991 2948 2915 2947 2973
8 2954 2923 2953 2978 2975 2950 2974 2993
8 2976 2951 2924 2955 2994 2975 2954 2979
8 2957 2928 2958 2981 2978 2953 2977 2995
8 2956 2927 2957 2980 2979 2954 2978 2996
8 2959 2930 2960 2982 2980 2957 2981 2997
8 2984 2962 2983 2999 2966 2938 2965 2987
8 2975 2950 2974 2993 2984 2962 2983 2999
8 2976 2951 2975 2994 2985 2963 2984 3000
8 2985 2963 2984 3000 2967 2939 2966 2988
8 2987 2965 2986 3001 2969 2941 2968 2989
8 2988 2966 2987 3002 2970 2942 2969 2990
8 2990 2969 2989 3003 2972 2945 2971 2991
8 2978 2953 2977 2995 2993 2974 2992 3004
8 2979 2954 2978 2996 2994 2975 2993 3005
8 2980 2957 2981 2997 2996 2978 2995 3006
8 2974 2993 2999 2983 2992 3004 3007 2998
8 2983 2999 2987 2965 2998 3007 3001 2986
8 3000 2984 2999 3008 2988 2966 2987 3002
8 2994 2975 2993 3005 3000 2984 2999 3008
8 3002 2987 3001 3009 2990 2969 2989 3003
8 2996 2978 2995 3006 3005 2993 3004 3010
8 3005 2993 3004 3010 3008 2999 3007 3011
8 3008 2999 3007 3011 3002 2987 3001 3009

CELL_TYPES 1910
12
12
12
12
12
12
12
12
12
12
12
12
12
12
12
12
12
12
12
12
12
12
12
12
12
12
12
12
12
12
12
12
12
12
12
12
12
12
12
12
12
12
12
12
12
12
12
12
12
12
12
12
12
12
12
12
12
12
12
12
12
12
12
12
12
12
12
12
12
12
12
12
12
12
12
12
12
12
12
12
12
12
12
12
12
12
12
12
12
12
12
12
12
12
12
12
12
12
12
12
12
12
12
12
12
12
12
12
12
12
12
12
12
12
12
12
12
12
12
12
12
12
12
12
12
12
12
12
12
12
12
12
12
12
12
12
12
12
12
12
12
12
12
12
12
12
12
12
12
12
12
12
12
12
12
12
12
12
12
12
12
12
12
12
12
12
12
12
12
12
12
12
12
12
12
12
12
12
12
12
12
12
12
12
12
12
12
12
12
12
12
12
12
12
12
12
12
12
12
12
12
12
12
12
12
12
12
12
12
12
12
12
12
12
12
12
12
12
12
12
12
12
12
12
12
12
12
12
12
12
12
12
12
12
12
12
12
12
12
12
12
12
12
12
12
12
12
12
12
12
12
12
12
12
12
12
12
12
12
12
12
12
12
12
12
12
12
12
12
12
12
12
12
12
12
12
12
12
12
12
12
12
12
12
12
12
12
12
12
12
12
12
12
12
12
12
12
12
12
12
12
12
12
12
12
12
12
12
12
12
12
12
12
12
12
12
12
12
12
12
12
12
12
12
12
12
12
12
12
12
12
12
12
12
12
12
12
12
12
12
12
12
12
12
12
12
12
12
12
12
12
12
12
12
12
12
12
12
12
12
12
12
12
12
12
12
12
12
12
12
12
12
12
12
12
12
12
12
12
12
12
12
12
12
12
12
12
12
12
12
12
12
12
12
12
12
12
12
12
12
12
12
12
12
12
12
12
12
12
12
12
12
12
12
12
12
12
12
12
12
12
12
12
12
12
12
12
12
12
12
12
12
12
12
12
12
12
12
12
12
12
12
12
12
12
12
12
12
12
12
12
12
12
12
12
12
12
12
12
12
12
12
12
12
12
12
12
12
12
12
12
12
12
12
12
12
12
12
12
12
12
12
12
12
12
12
12
12
12
12
12
12
12
12
12
12
12
12
12
12
12
12
12
12
12
12
12
12
12
12
12
12
12
12
12
12
12
12
12
12
12
12
12
12
12
12
12
12
12
12
12
12
12
12
12
12
12
12
12
12
12
12
12
12
12
12
12
12
12
12
12
12
12
12
12
12
12
12
12
12
12
12
12
12
12
12
12
12
12
12
12
12
12
12
12
12
12
12
12
12
12
12
12
12
12
12
12
12
12
12
12
12
12
12
12
12
12
12
12
12
12
12
12
12
12
12
12
12
12
12
12
12
12
12
12
12
12
12
12
12
12
12
12
12
12
12
12
12
12
12
12
12
12
12
12
12
12
12
12
12
12
12
12
12
12
12
12
12
12
12
12
12
12
12
12
12
12
12
12
12
12
12
12
12
12
12
12
12
12
12
12
12
12
12
12
12
12
12
12
12
12
12
12
12
12
12
12
12
12
12
12
12
12
12
12
12
12
12
12
12
12
12
12
12
12
12
12
12
12
12
12
12
12
12
12
12
12
12
12
12
12
12
12
12
12
12
12
12
12
12
12
12
12
12
12
12
12
12
12
12
12
12
12
12
12
12
12
12
12
12
12
12
12
12
12
12
12
12
12
12
12
12
12
12
12
12
12
12
12
12
12
12
12
12
12
12
12
12
12
12
12
12
12
12
12
12
12
12
12
12
12
12
12
12
12
12
12
12
12
12
12
12
12
12
12
12
12
12
12
12
12
12
12
12
12
12
12
12
12
12
12
12
12
12
12
12
12
12
12
12
12
12
12
12
12
12
12
12
12
12
12
12
12
12
12
12
12
12
12
12
12
12
12
12
12
12
12
12
12
12
12
12
12
12
12
12
12
12
12
12
12
12
12
12
12
12
12
12
12
12
12
12
12
12
12
12
12
12
12
12
12
12
12
12
12
12
12
12
12
12
12
12
12
12
12
12
12
12
12
12
12
12
12
12
12
12
12
12
12
12
12
12
12
12
12
12
12
12
12
12
12
12
12
12
12
12
12
12
12
12
12
12
12
12
12
12
12
12
12
12
12
12
12
12
12
12
12
12
12
12
12
12
12
12
12
12
12
12
12
12
12
12
12
12
12
12
12
12
12
12
12
12
12
12
12
12
12
12
12
12
12
12
12
12
12
12
12
12
12
12
12
12
12
12
12
12
12
12
12
12
12
12
12
12
12
12
12
12
12
12
12
12
12
12
12
12
12
12
12
12
12
12
12
12
12
12
12
12
12
12
12
12
12
12
12
12
12
12
12
12
12
12
12
12
12
12
12
12
12
12
12
12
12
12
12
12
12
12
12
12
12
12
12
12
12
12
12
12
12
12
12
12
12
12
12
12
12
12
12
12
12
12
12
12
12
12
12
12
12
12
12
12
12
12
12
12
12
12
12
12
12
12
12
12
12
12
12
12
12
12
12
12
12
12
12
12
12
12
12
12
12
12
12
12
12
12
12
12
12
12
12
12
12
12
12
12
12
12
12
12
12
12
12
12
12
12
12
12
12
12
12
12
12
12
12
12
12
12
12
12
12
12
12
12
12
12
12
12
12
12
12
12
12
12
12
12
12
12
12
12
12
12
12
12
12
12
12
12
12
12
12
12
12
12
12
12
12
12
12
12
12
12
12
12
12
12
12
12
12
12
12
12
12
12
12
12
12
12
12
12
12
12
12
12
12
12
12
12
12
12
12
12
12
12
12
12
12
12
12
12
12
12
12
12
12
12
12
12
12
12
12
12
12
12
12
12
12
12
12
12
12
12
12
12
12
12
12
12
12
12
12
12
12
12
12
12
12
12
12
12
12
12
12
12
12
12
12
12
12
12
12
12
12
12
12
12
12
12
12
12
12
12
12
12
12
12
12
12
12
12
12
12
12
12
12
12
12
12
12
12
12
12
12
12
12
12
12
12
12
12
12
12
12
12
12
12
12
12
12
12
12
12
12
12
12
12
12
12
12
12
12
12
12
12
12
12
12
12
12
12
12
12
12
12
12
12
12
12
12
12
12
12
12
12
12
12
12
12
12
12
12
12
12
12
12
12
12
12
12
12
12
12
12
12
12
12
12
12
12
12
12
12
12
12
12
12
12
12
12
12
12
12
12
12
12
12
12
12
12
12
12
12
12
12
12
12
12
12
12
12
12
12
12
12
12
12
12
12
12
12
12
12
12
12
12
12
12
12
12
12
12
12
12
12
12
12
12
12
12
12
12
12
12
12
12
12
12
12
12
12
12
12
12
12
12
12
12
12
12
12
12
12
12
12
12
12
12
12
12
12
12
12
12
12
12
12
12
12
12
12
12
12
12
12
12
12
12
12
12
12
12
12
12
12
12
12
12
12
12
12
12
12
12
12
12
12
12
12
12
12
12
12
12
12
12
12
12
12
12
12
12
12
12
12
12
12
12
12
12
12
12
12
12
12
12
12
12
12
12
12
12
12
12
12
12
12
12
12
12
12
12
12
12
12
12
12
12
12
12
12
12
12
12
12
12
12
12
12
12
12
12
12
12
12
12
12
12
12
12
12
12
12
12
12
12
12
12
12
12
12
12
12
12
12
12
12
12
12
12
12
12
12
12
12
12
12
12
12
12
12
12
12
12
12
12
12
12
12
12
12
12
12
12
12
12
12
12
12
12
12
12
12
12
12
12
12
12
12
12
12
12
12
12
12
12
12
12
12
12
12
12
12
12
12
12
12
12
12
12
12
12
12
12
12
12
12
12
12
12
12
12
12
12
12
12
12
12
12
12
12
12
12
12
12
12
12
12
12
12
12
12
12
12
12
12
12
12
12
12
12
12
12
12
12
12
12
12
12
12
12
12
12
12
12
12
12
12
12
12
12
12
12
12
12
12
12
12
12
12
12
12
12
12
12
12
12
12
12
12
12
12
12
12
12
12
12
12
12
12
12
12
12
12
12
12
12
12
12
12
12
12
12
12
12
12
12
12
12
12
12
12
12
12
12
12
12
12
12
12
12
12
12
12
12
12
12
12
12
12
12
12
12
12
12
12
12
12
12
12
12
12
12
12
12
12
12
12
12
12
12
12
12
12
12
12
12
12
12
12
12
12
12
12
12
12
12
12
12
12
12
12
12
12
12
12
12
12
12
12
12
12
12
12
12
12
12
12
12
12
12
12
12
12
12
12
12
12
12
12
12
12
12
12
12
12
12
12
12
12
12
12
12
12
12
12
12
12
12
12
12

POINT_DATA 3012
SCALARS Jp_lamdaP float 4
LOOKUP_TABLE default
0.999642 1 1 0.999642
1 1 1 1
0.999652 1 1 0.999652
0.999587 1 1 0.999587
0.999644 1 1 0.999644
0.999621 1 1 0.999621
0.99992 1.00115 1 0.998774
1 1 1 1
1 1 1 1
1 1 1 1
0.999716 1 1 0.999716
0.998884 1.00001 1 0.998874
0.999589 1 1 0.999589
0.999593 1 1 0.999593
0.999655 1 1 0.999655
0.999615 1 1 0.999615
0.999628 1 1 0.999628
0.999662 1 1 0.999662
1.00003 1.00126 1 0.998775
1 1 1 1
0.999569 1 1 0.999569
0.99962 1 1 0.99962
0.998775 1.00012 1 0.998653
0.999725 1.00097 1 0.998753
0.999624 1 1 0.999624
0.999203 1.00042 1 0.998786
1.01625 1.01884 1 0.997458
1 1 1 1
0.999813 1 1 0.999813
0.999826 1 1 0.999826
1 1 1 1
0.998951 1.00007 1 0.998883
0.999618 1 1 0.999618
0.999646 1 1 0.999646
1.00048 1.00155 1 0.998931
1 1 1 1
0.999485 1.00047 1 0.999012
0.998974 1 1 0.998974
1.00857 1.01117 1 0.997435
1 1 1 1
1 1 1 1
0.999797 1 1 0.999797
1 1 1 1
0.999601 1 1 0.999601
0.998585 1 1 0.998585
1 1 1 1
0.998882 1.00005 1 0.998835
0.999639 1 1 0.999639
0.999675 1 1 0.999675
0.99963 1 1 0.99963
1.00014 1.00136 1 0.99878
0.999782 1 1 0.999782
0.999595 1 1 0.999595
0.999638 1 1 0.999638
0.999645 1 1 0.999645
0.998719 1.00007 1 0.998649
0.99947 1.00068 1 0.998789
0.999714 1.00096 1 0.998754
1.0164 1.019 1 0.997444
1 1 1 1
0.999572 1 1 0.999572
0.998871 1 1 0.998871
0.998625 1 1 0.998625
0.999123 1.00042 1 0.998706
1.01905 1.02191 1 0.997201
1.01735 1.0201 1 0.997311
0.999689 1 1 0.999689
0.998886 1 1 0.998886
1.01342 1.01591 1 0.997545
1.03639 1.03996 1 0.996567
1 1 1 1
1 1 1 1
1 1 1 1
0.998892 1 1 0.998892
1 1 1 1
1 1 1 1
1.00019 1.00145 1 0.998739
0.999894 1 1 0.999894
0.99915 1.00031 1 0.998841
0.999136 1 1.00004 0.999099
1.00715 1.00974 1 0.997431
1 1 1 1
1.00122 1 1.00149 0.999727
0.999925 1.00127 1 0.998659
0.999987 1.00122 1 0.998772
1.02068 1.02374 1 0.997012
0.999721 1 1.00036 0.999366
1.01326 1.01597 1 0.997334
1.00376 1.00618 1 0.997587
1.01843 1.02181 1 0.996699
1 1 1 1
1 1 1 1
1 1 1 1
1 1 1 1
1 1 1 1
0.999799 1 1 0.999799
0.998719 1 1 0.998719
0.999798 1 1 0.999798
0.998943 1.00021 1 0.998734
1 1 1 1
0.998602 1 1 0.998602
0.998831 1 1 0.998831
1.01759 1.0208 1 0.996848
0.99941 1.00054 1 0.998868
1.0218 1.025 1 0.996871
0.999611 1 1 0.999611
0.999618 1 1 0.999618
0.999648 1 1 0.999648
0.999666 1 1 0.999666
0.998671 1.00002 1 0.998647
0.999725 1.00097 1 0.998757
0.999655 1.00086 1 0.998795
1.01648 1.0191 1 0.99743
1 1 1 1
0.999596 1 1 0.999596
0.998632 1 1 0.998632
0.998619 1 1 0.998619
0.999846 1 1 0.999846
0.998976 1.00001 1 0.998965
0.999059 1.00035 1 0.998705
1.01909 1.02199 1 0.997166
1.01368 1.01619 1 0.997528
1.0177 1.02041 1 0.997337
1.0363 1.03986 1 0.996575
0.998625 1 1 0.998625
0.998626 1 1 0.998626
1.01672 1.01967 1 0.997101
1.01904 1.02198 1 0.997119
1.01866 1.02151 1 0.997214
1.04627 1.04991 1 0.996528
1 1 1 1
1.0398 1.0434 1 0.996552
0.999365 1 1.00028 0.999085
1.00795 1.01046 1 0.997518
1.03301 1.03655 1 0.996581
1.042 1.04569 1 0.99647
1.00143 1 1.002 0.999433
1.00653 1 1.00824 0.998309
1 1 1 1
1 1 1 1
1.00006 1.00132 1 0.998745
1 1 1 1
0.999236 1 1.00019 0.999047
0.999124 1.00028 1 0.998848
1.00605 1.00865 1 0.997428
1 1 1 1
1.00098 1 1.00123 0.999751
1.00015 1.00137 1 0.99878
0.999824 1.00094 1 0.998883
1.0201 1.02316 1 0.997012
1.00001 1 1.00071 0.999299
1.01217 1.01488 1 0.997336
1.00269 1.00509 1.00003 0.997586
1.01987 1.02326 1 0.996689
1.00117 1 1.00166 0.999518
1.00025 1 1.00038 0.999868
1.00369 1 1.00509 0.998612
1.02263 1.02579 1 0.996913
1.01742 1.02031 1 0.997171
1.04305 1.04679 1 0.996425
1.00098 1.00248 1.00063 0.997876
1.02874 1.03218 1 0.996661
1.0128 1.01549 1.00057 0.996785
1.02834 1.03191 1 0.996545
1 1 1 1
1 1 1 1
1 1 1 1
1.00125 1 1.00167 0.999585
1 1 1 1
1 1 1 1
1 1 1 1
0.999042 1.00041 1 0.998634
0.998619 1 1 0.998619
1 1 1 1
1 1 1 1
0.998603 1 1 0.998603
0.998731 1 1 0.998731
1.01829 1.02151 1 0.996848
0.999463 1.00082 1 0.998647
1.0219 1.0251 1 0.99687
0.998601 1 1 0.998601
1.01612 1.01937 1 0.996819
1.01978 1.02298 1 0.996872
1.05158 1.05528 1 0.996488
1.02292 1.02612 1 0.996874
1.05293 1.05665 1 0.996478
1 1 1 1
0.999621 1 1 0.999621
0.998368 1 1 0.998368
0.998614 1 1 0.998614
1 1 1 1
0.999185 1.00014 1 0.999047
0.999012 1.00031 1 0.998706
1.01912 1.02205 1 0.997132
1.01813 1.02083 1 0.997362
1.01394 1.01647 1 0.997512
1.03628 1.03984 1 0.996583
0.998623 1 1 0.998623
0.99862 1 1 0.99862
1.01665 1.01974 1 0.996971
1.01913 1.02206 1 0.997139
1 1 1 1
0.999265 1 1.00013 0.999138
1.00949 1.01192 1 0.997599
1.0188 1.02166 1 0.997209
1.04613 1.04978 1 0.996518
1.03252 1.03607 1 0.996575
1.04005 1.04362 1 0.996587
1.04158 1.04526 1 0.996479
1.00127 1 1.00185 0.999422
1.00518 1 1.00688 0.998311
1.01598 1.01921 1 0.996839
1.01752 1.02047 1 0.997118
1.04861 1.05225 1 0.996545
1.04697 1.05067 0.999967 0.996507
1.0436 1.04717 1 0.996598
1.05224 1.05614 0.99967 0.996643
1.00046 1 1.0012 0.99926
1.04473 1.04832 1 0.996566
1.00289 1.00509 1.00011 0.997708
1.02609 1.02954 1 0.996649
1.03937 1.04314 1 0.996393
1.04186 1.04532 1 0.996686
1.00312 1.00035 1.00471 0.998069
1.00537 1 1.00677 0.998607
1.00344 1.00037 1.00546 0.997619
1.00014 1.00145 1 0.998689
1 1 1 1
1.00026 1 1.00048 0.999775
0.999561 1.00076 1 0.998806
1.01958 1.02263 1 0.997012
1.00019 1 1.00089 0.999301
1.00123 1.00362 1.00004 0.997584
1.01096 1.01366 1 0.997339
1.0212 1.0246 1 0.99668
1.0011 1 1.00156 0.999539
0.999898 1 1.00001 0.999886
1.00453 1 1.00592 0.998612
1.02205 1.02521 1 0.996911
1.01679 1.01967 1 0.997175
1.04317 1.04692 1 0.996419
0.999937 1.00156 1.0005 0.99788
1.0299 1.03334 1 0.996664
1.01269 1.01548 1.00047 0.996779
1.02916 1.03273 1 0.996541
0.999937 1 1 0.999937
1.00178 1.00047 1.0031 0.998215
1.00304 1 1.00402 0.999022
1.00467 1.00046 1.0063 0.997924
1.04746 1.05125 1 0.996401
1.03726 1.04087 1 0.996536
1.04643 1.05022 1 0.996387
1.00638 1.0088 1.00049 0.997123
1.03427 1.03782 1 0.996583
1.02447 1.02648 1.00158 0.99647
1.03675 1.04042 1 0.99647
0.999643 1 1 0.999643
0.999985 1 1 0.999985
1 1 1 1
1 1 1 1
1 1 1 1
1.00046 1 1.00073 0.999728
1 1 1 1
1.00156 1 1.00199 0.999571
1 1 1 1
0.999645 1.001 1 0.998648
0.998648 1.00002 1 0.99863
1.02204 1.02525 1 0.99687
1.01897 1.0222 1 0.996849
0.998605 1 1 0.998605
1 1 1 1
0.9986 1 1 0.9986
1.01648 1.01973 1 0.996819
1.02041 1.02361 1 0.996871
1.05066 1.05436 1 0.996487
1.02256 1.02577 1 0.996871
1.05286 1.05659 1 0.996475
1.0157 1.01894 1 0.996816
1.04965 1.05337 1 0.996463
1.05274 1.05644 1 0.996496
1.05495 1.06125 0.99726 0.996793
1.05179 1.05555 1 0.996436
1.05745 1.06171 0.999298 0.99669
0.99862 1 1 0.99862
0.998613 1 1 0.998613
1.01659 1.01981 1 0.996842
1.01924 1.02214 1 0.997159
1 1 1 1
0.999191 1 1 0.999191
1.01091 1.01327 1 0.99768
1.01893 1.02178 1 0.997204
1.04601 1.04967 1 0.996508
1.0402 1.04373 1 0.996622
1.03212 1.03568 1 0.99657
1.04131 1.04498 1 0.996488
1.00128 1 1.00187 0.99941
1.00443 1 1.00613 0.998313
1.01587 1.01911 1 0.996823
1.01761 1.02056 1 0.997112
1.04838 1.05212 0.999878 0.996568
1.04709 1.05078 0.999976 0.996512
1.00014 1 1.00089 0.999249
1.00438 1.0066 1.00009 0.997706
1.02542 1.02884 1 0.99668
1.0438 1.04738 1 0.99658
1.05213 1.05612 0.999533 0.996687
1.03911 1.04289 1 0.996376
1.04451 1.0481 1 0.996571
1.04204 1.0455 1 0.996682
1.00297 1.00052 1.00438 0.99807
1.00407 1.00052 1.00594 0.997619
1.00562 1 1.00702 0.998606
1.04801 1.05167 1 0.996517
1.04839 1.05216 0.999833 0.996579
1.05479 1.06022 0.998149 0.996728
1.05319 1.05763 0.99911 0.996688
1.04762 1.05135 0.999789 0.99666
1.04672 1.05402 0.996084 0.996982
0.999952 1.00146 1.0006 0.9979
1.04394 1.04758 0.999697 0.996827
1.01336 1.01646 1 0.996949
1.03097 1.03484 1 0.996258
1.03813 1.04191 1 0.99637
1.03623 1.03945 0.999961 0.996944
1.00338 1 1.00449 0.99889
0.999815 1.00165 1.00067 0.997499
1.00868 1 1.01092 0.99778
1.00302 1.00302 1.00266 0.99735
1.02153 1.02469 1 0.996909
0.999903 1 1 0.999903
1.00121 1 1.00165 0.999562
1.00619 1 1.00758 0.998612
1.01598 1.01886 1 0.997178
1.04325 1.04701 1 0.996414
0.998983 1.00069 1.00041 0.997885
1.01263 1.01557 1.00033 0.996773
1.03111 1.03456 1 0.996667
1.02906 1.03263 1 0.996538
0.999948 1 1 0.999948
1.00253 1.00026 1.00406 0.998216
1.00273 1 1.0037 0.999031
1.00498 1.00026 1.00681 0.997918
1.04744 1.05123 1 0.996395
1.0374 1.04101 1 0.996534
1.04597 1.04976 1 0.996384
1.00488 1.00732 1.00045 0.99713
1.03391 1.03745 1 0.99658
1.0234 1.02527 1.00173 0.996458
1.03648 1.04007 1 0.996553
0.999971 1 1 0.999971
1.00072 1 1.0014 0.999322
1.0029 1.00343 1.00191 0.997562
1.00632 1 1.00805 0.998291
1.0022 1.00136 1.00322 0.99763
1.05129 1.05503 1 0.996452
1.04009 1.0438 1 0.996453
1.04141 1.04505 1 0.996523
1.0098 1.01109 1.00199 0.996737
1.03278 1.03632 1 0.996588
1.02105 1.02402 1.00086 0.996248
0.999593 1 1 0.999593
0.999061 1 1 0.999061
0.999681 1 1 0.999681
0.999644 1 1 0.999644
0.999992 1 1 0.999992
0.999987 1 1 0.999987
1 1 1 1
1 1 1 1
1 1 1 1
0.999917 1 1.00005 0.999863
1 1 1 1
1.00089 1 1.00118 0.999712
1 1 1 1
1.0015 1 1.00194 0.999556
1 1 1 1
1.02232 1.02553 1 0.996868
1.02092 1.02413 1 0.996871
1.05251 1.05624 1 0.996472
1.04971 1.05342 1 0.996485
1.0169 1.02015 1 0.996819
0.9986 1 1 0.9986
1.01578 1.01902 1 0.996816
1.04932 1.05305 1 0.996463
1.05195 1.05565 1 0.996494
1.05519 1.06181 0.996945 0.996811
1.05116 1.05492 1 0.996432
1.05737 1.06152 0.999401 0.996688
1.04821 1.05194 1 0.996455
1.05477 1.06156 0.99678 0.996815
1.05621 1.06178 0.997995 0.996762
1.05086 1.05987 0.994452 0.997028
1.05453 1.05816 0.999998 0.996578
1.05184 1.06125 0.994074 0.997036
1.01579 1.01904 1 0.996807
1.01771 1.02066 1 0.997107
1.04814 1.052 0.999742 0.996592
1.04721 1.05087 1 0.996518
0.999826 1 1.00059 0.999239
1.00594 1.00819 1.00007 0.997704
1.02527 1.02865 1 0.996711
1.04401 1.04762 1 0.996561
1.05201 1.05614 0.99936 0.996732
1.04432 1.04791 1 0.996576
1.03873 1.04253 1 0.996359
1.04223 1.0457 1 0.996678
1.00256 1.00075 1.00375 0.998072
1.00475 1.00085 1.00629 0.99762
1.00569 1 1.00709 0.998605
1.04807 1.05176 1 0.996494
1.0485 1.05225 0.999858 0.996577
1.05435 1.06004 0.997856 0.996772
1.05294 1.05745 0.999064 0.99667
1.00112 1.00246 1.00077 0.997898
1.01419 1.01729 1 0.996945
1.02968 1.03347 1.00003 0.996299
1.04778 1.05146 0.999878 0.996626
1.04643 1.05419 0.995594 0.997031
1.03884 1.04267 1 0.996332
1.0441 1.04775 0.999691 0.996829
1.03715 1.04032 0.999977 0.996979
1.00138 1.00272 1.00117 0.997499
1.00338 1.0033 1.00277 0.997316
1.00376 1 1.00488 0.998886
1.00806 1 1.01026 0.99782
1.05439 1.06021 0.997736 0.996765
1.05535 1.06056 0.998359 0.996719
1.04612 1.05533 0.994315 0.996943
1.0454 1.05608 0.99281 0.997058
1.04526 1.05022 0.998309 0.996964
1.04349 1.05337 0.993388 0.997213
1.00383 1.00658 1 0.997265
1.03768 1.04326 0.997457 0.997192
1.01775 1.02132 1 0.996509
1.02856 1.03244 1.00018 0.996069
1.03958 1.04338 1 0.996359
1.03807 1.04118 1 0.997011
1.00037 1 1.00124 0.999128
1.00925 1 1.0112 0.998076
1.00229 1.00511 1 0.997199
1.00471 1.00078 1.00645 0.997493
1.00432 1.00488 1.00225 0.997206
0.999959 1 1 0.999959
1.04735 1.05115 1 0.996389
1.00183 1 1.0028 0.999039
1.00313 1.00017 1.00475 0.998217
1.00497 1.00005 1.00703 0.997911
1.03766 1.04127 1 0.996532
1.04556 1.04936 1 0.996381
1.00377 1.00614 1.00051 0.997137
1.02388 1.02555 1.00193 0.996446
1.0337 1.03725 1 0.996578
1.03692 1.04042 1 0.996635
0.999976 1 1 0.999976
1.0003 1 1.00097 0.999332
1.00135 1.00245 1.00134 0.997566
1.00743 1 1.00916 0.998289
1.00229 1.00106 1.00363 0.99761
1.05115 1.0549 1 0.996446
1.03995 1.04366 1 0.996451
1.04145 1.0451 1 0.996511
1.01036 1.01151 1.00213 0.99674
1.03534 1.03889 1 0.996581
1.02143 1.02426 1.00096 0.996272
0.999558 1 1.00006 0.9995
1.0027 1 1.00405 0.998659
1.00114 1.00345 1.00048 0.997215
1.00824 1.00112 1.00922 0.997918
1.00282 1.00323 1.00203 0.997565
1.04819 1.0518 0.99991 0.996658
1.03573 1.03935 1 0.996524
1.041 1.04441 1 0.996735
1.00395 1.0036 1.00379 0.996565
1.01952 1.02339 1 0.996217
0.999596 1 1 0.999596
0.998979 1 1 0.998979
0.999043 1 1.00001 0.999035
0.99878 1 1 0.99878
0.999086 1 1 0.999086
0.999704 1 1 0.999704
0.999683 1 1 0.999683
0.999997 1 1 0.999997
0.999646 1 1 0.999646
0.999994 1 1 0.999994
1 1 1 1
0.99999 1 1 0.99999
1 1 1 1
1 1 1 1
0.999954 1 1 0.999954
1.00024 1 1.0004 0.999842
1 1 1 1
1 1 1 1
1.00136 1 1.00167 0.999695
1 1 1 1
1.05059 1.05436 1 0.996427
1.05144 1.05514 1 0.996492
1.05756 1.06161 0.999495 0.996685
1.0555 1.06243 0.996639 0.996828
1.04891 1.05263 1 0.996464
1.0158 1.01904 1 0.996816
1.04827 1.052 1 0.996456
1.05462 1.06134 0.996846 0.99681
1.05672 1.06223 0.99805 0.996762
1.05014 1.05969 0.993916 0.997058
1.05528 1.05892 0.999994 0.996571
1.05205 1.06118 0.994325 0.997058
1.05466 1.06099 0.997241 0.996785
1.04875 1.05851 0.99376 0.997004
1.05102 1.06115 0.993341 0.9971
1.05026 1.0627 0.991091 0.997181
1.05257 1.0578 0.998177 0.996875
1.04978 1.06295 0.99032 0.997265
1.04804 1.05176 1 0.996472
1.04858 1.0523 0.999895 0.996575
1.05389 1.05982 0.997577 0.996816
1.05256 1.05715 0.999001 0.996651
1.00223 1.0034 1.00094 0.997896
1.01399 1.0171 1 0.996941
1.02783 1.03142 1.00018 0.996339
1.04793 1.05152 1 0.996591
1.04615 1.05432 0.995153 0.997081
1.04414 1.04779 0.999685 0.996832
1.03943 1.04329 1 0.996294
1.0373 1.0404 1 0.997015
1.00287 1.00359 1.00179 0.997499
1.00346 1.00329 1.0029 0.997281
1.00411 1 1.00523 0.998883
1.00722 1 1.00938 0.99786
1.0543 1.06014 0.99772 0.996765
1.05487 1.05991 0.998541 0.996699
1.04628 1.05554 0.994237 0.996976
1.04627 1.05634 0.993413 0.99704
1.00456 1.00732 1 0.997257
1.0162 1.01968 1.00003 0.996551
1.02847 1.03214 1.00039 0.996058
1.04553 1.05011 0.998715 0.996914
1.04234 1.05259 0.99298 0.99727
1.03578 1.03958 1 0.996344
1.03856 1.04405 0.997543 0.997193
1.03889 1.04194 1 0.997072
1.00205 1.00487 1 0.997198
1.00388 1.00505 1.00164 0.9972
1.00588 1.00115 1.00726 0.997487
1.00094 1 1.00185 0.999093
1.00891 1 1.01081 0.998117
1.04722 1.05733 0.993436 0.99699
1.04726 1.05783 0.992965 0.997017
1.04308 1.05736 0.989204 0.997255
1.03885 1.0494 0.992647 0.997277
1.0073 1.01041 1 0.996924
1.0427 1.04842 0.997176 0.997368
1.0098 1.0133 1.00029 0.996262
1.02422 1.02794 1.00051 0.995872
1.0322 1.03598 1 0.996346
0.999504 1 1.00018 0.99932
1.00566 1 1.00722 0.998452
1.00652 1 1.00872 0.997821
1.00323 1.00617 1 0.997073
1.00464 1.00106 1.0064 0.997195
1.00517 1.00611 1.00202 0.997047
0.99998 1 1 0.99998
0.999806 1 1.00046 0.999342
1.051 1.05476 1 0.99644
1.00877 1 1.0105 0.998287
0.999445 1.00114 1.00074 0.997569
1.00236 1.00087 1.0039 0.997591
1.03962 1.04332 1 0.996449
1.04145 1.04511 1 0.9965
1.01007 1.01106 1.00229 0.996743
1.02059 1.02359 1.00077 0.996296
1.03788 1.04145 1 0.996573
0.999506 1 1 0.999506
1.00293 1 1.00428 0.998663
1.00183 1.00422 1.00041 0.99721
1.00926 1.00088 1.01049 0.997911
1.00302 1.00372 1.00174 0.997564
1.0479 1.05147 0.999955 0.996651
1.03643 1.04006 1 0.996511
1.0411 1.0445 0.999989 0.996761
1.00492 1.00516 1.00324 0.996528
1.01822 1.02206 1.00006 0.996187
0.999515 1 1.00061 0.998908
1.00918 1 1.01098 0.998221
1.00294 1.00388 1.002 0.997074
1.00867 1.00372 1.00726 0.997688
1.01021 1.01181 1.001 0.99743
1.04504 1.05145 0.996742 0.997148
1.03636 1.04009 1 0.996416
1.03903 1.04242 1 0.996748
1.00701 1.00627 1.00433 0.996418
1.00854 1.0126 1 0.995997
0.999599 1 1 0.999599
0.998997 1 1 0.998997
0.998707 1 1 0.998707
0.999009 1 1 0.999009
0.999085 1 1 0.999085
0.998857 1 1.00011 0.998751
0.998827 1 1.00016 0.998671
0.999083 1 1.00039 0.998691
0.999109 1 1 0.999109
0.999698 1 1 0.999698
0.999704 1 1 0.999704
0.999999 1 1 0.999999
0.999685 1 1 0.999685
0.999998 1 1 0.999998
1 1 1 1
0.999995 1 1 0.999995
1 1 1 1
1 1 1 1
0.999992 1 1 0.999992
0.999937 1 1 0.999937
1 1 1 1
1.00068 1 1.00086 0.999822
1 1 1 1
1 1 1 1
1.05598 1.05962 1 0.996564
1.05695 1.06241 0.9981 0.996762
1.0522 1.06102 0.994593 0.997081
1.04937 1.05946 0.993371 0.997089
1.0545 1.06115 0.996916 0.996804
1.04843 1.05215 1 0.996457
1.05459 1.06078 0.997393 0.996766
1.04932 1.05868 0.994144 0.996996
1.05025 1.0605 0.993225 0.997085
1.04909 1.06223 0.990413 0.997192
1.05223 1.05719 0.99843 0.996877
1.04768 1.0616 0.989563 0.997304
1.0494 1.05842 0.99448 0.996978
1.05034 1.06383 0.990115 0.997178
1.0505 1.06466 0.9894 0.997278
1.04474 1.05886 0.98931 0.997328
1.05427 1.06012 0.997705 0.996764
1.05446 1.05935 0.998709 0.99668
1.04647 1.05577 0.99417 0.997008
1.04724 1.05671 0.993997 0.997023
1.00594 1.00871 1 0.997249
1.01549 1.01896 1 0.996592
1.02844 1.03192 1.00058 0.996047
1.04579 1.05005 0.999078 0.996864
1.04112 1.05177 0.992527 0.997327
1.03977 1.04519 0.99761 0.997194
1.03294 1.03674 1 0.996329
1.04127 1.04426 1 0.997132
1.00176 1.00457 1 0.997198
1.00392 1.00605 1.00069 0.997195
1.0072 1.00122 1.00851 0.997481
1.00136 1 1.00231 0.999058
1.00862 1 1.01048 0.998158
1.04754 1.0576 0.993475 0.996992
1.04783 1.05847 0.99292 0.997013
1.04299 1.05659 0.989862 0.997247
1.00702 1.01013 1 0.996919
1.01039 1.01388 1.00026 0.996303
1.02268 1.02615 1.00076 0.99586
1.03929 1.04947 0.99302 0.997263
1.03562 1.0393 1 0.996457
1.0391 1.04506 0.996951 0.997335
0.999516 1 1.00016 0.999357
1.00343 1.00634 1.00004 0.997064
1.00315 1.00496 1.00103 0.99717
1.00704 1.00231 1.00755 0.997186
1.00687 1 1.00904 0.997846
1.00568 1 1.00728 0.998416
1.0487 1.0618 0.990571 0.997067
1.0468 1.06437 0.986274 0.997183
1.03682 1.05515 0.985251 0.997337
1.03662 1.05199 0.987881 0.997478
1.00678 1.01009 1 0.996727
1.03465 1.03863 0.999234 0.996934
1.00469 1.00721 1.00165 0.995859
1.01313 1.01644 1.00104 0.99571
0.999612 1 1 0.999612
1.00107 1 1.0023 0.998768
1.00573 1 1.00763 0.99811
1.00658 1 1.00922 0.997381
1.00323 1.0049 1.00145 0.996898
1.00811 1.00286 1.00838 0.996875
0.999512 1 1 0.999512
1.0032 1 1.00454 0.998667
1.04781 1.05134 1 0.996645
1.01008 1.00056 1.01163 0.997905
1.00258 1.00512 1.00027 0.997205
1.0026 1.00352 1.00152 0.997564
1.03732 1.04096 1 0.996499
1.04136 1.04474 0.999983 0.996787
1.00637 1.00716 1.00273 0.99649
1.01693 1.02058 1.00027 0.996158
0.999393 1 1.00048 0.998912
1.00939 1 1.0112 0.998209
1.00355 1.00449 1.00198 0.997082
1.00769 1.00336 1.00664 0.997694
1.01096 1.01301 1.00048 0.997501
1.04642 1.05293 0.996613 0.997195
1.0359 1.0396 1 0.99644
1.0403 1.04363 0.999988 0.996822
1.00714 1.00618 1.00458 0.996385
1.0087 1.0128 1.00003 0.995924
1.00043 1 1.00184 0.998585
1.00907 1.00026 1.011 0.997839
1.00907 1.00832 1.00378 0.996978
1.00918 1.01027 1.00161 0.997314
1.04305 1.06774 0.97938 0.997449
1.04032 1.04507 0.998231 0.997221
1.02365 1.02765 1 0.996109
1.01148 1.01123 1.00426 0.996003
0.999015 1 1 0.999015
0.998725 1 1.00001 0.99872
0.998677 1 1 0.998677
0.999099 1 1.00002 0.999083
0.998899 1 1.00018 0.998723
0.999107 1 1 0.999107
0.998746 1 1.00007 0.998678
0.999162 1 1.00046 0.998701
0.998728 1 1 0.998728
0.999423 1 1.00088 0.998542
0.999248 1 1.0006 0.998653
0.999089 1 1 0.999089
0.999667 1 1 0.999667
0.999696 1 1 0.999696
1 1 1 1
0.999704 1 1 0.999704
1 1 1 1
1 1 1 1
0.999999 1 1 0.999999
1 1 1 1
1 1 1 1
1 1 1 1
0.999984 1 1 0.999984
1 1 1 1
0.999919 1 1 0.999919
1 1 1 1
1 1 1 1
1.05182 1.0565 0.998688 0.996878
1.04959 1.05999 0.993097 0.997069
1.04569 1.06033 0.988818 0.997343
1.04797 1.06183 0.989721 0.997203
1.04991 1.05888 0.994522 0.996989
1.05447 1.06052 0.997537 0.996747
1.04917 1.0583 0.994384 0.996978
1.05021 1.0635 0.990305 0.997169
1.04912 1.06382 0.988874 0.997277
1.04594 1.05975 0.989607 0.997338
1.05143 1.06382 0.991204 0.997123
1.05201 1.07044 0.985415 0.99733
1.05054 1.07029 0.984107 0.997395
1.04783 1.05786 0.993502 0.996994
1.04834 1.05903 0.992884 0.997008
1.04302 1.05581 0.990623 0.997238
1.00665 1.00977 1 0.996915
1.01031 1.01384 1.00018 0.996344
1.02077 1.02415 1.00085 0.995848
1.0398 1.04958 0.993413 0.997249
1.03493 1.04127 0.996597 0.997302
1.03768 1.04126 1 0.996568
1.00258 1.00517 1.00037 0.997056
0.999067 1.00178 1 0.997293
1.00855 1.00306 1.00832 0.997178
0.99955 1 1.00015 0.999395
1.00637 1 1.00852 0.99787
1.00592 1 1.00756 0.998381
1.04949 1.06232 0.99082 0.997075
1.04615 1.06409 0.985907 0.997189
1.03704 1.05482 0.985784 0.997329
1.0041 1.0074 1 0.99672
1.00471 1.0074 1.0014 0.995936
1.01332 1.01668 1.0009 0.995792
1.03686 1.05169 0.988392 0.997481
1.03147 1.0362 0.998517 0.996914
0.999676 1 1 0.999676
1.00113 1 1.00237 0.998766
1.00059 1.00327 1.00038 0.996945
1.01004 1.00219 1.01084 0.997027
1.00599 1.00012 1.00846 0.997428
1.0056 1 1.00754 0.998073
1.04941 1.06806 0.985244 0.997251
1.03824 1.06528 0.977269 0.997291
1.0339 1.05502 0.982415 0.997524
1.02707 1.03992 0.990137 0.997485
1.00245 1.00473 1.00131 0.996422
1.01406 1.01665 1.0014 0.996061
1.00544 1.00718 1.00264 0.995648
0.999836 1 1 0.999836
0.999331 1 1 0.999331
0.99919 1 1.00014 0.999048
1.00175 1 1.00347 0.998294
1.00688 1 1.00917 0.997729
1.00878 1.00004 1.01157 0.99719
0.99959 1.00192 1.00064 0.997037
1.03312 1.00107 1.03482 0.997282
0.999275 1 1.00036 0.998915
1.00997 1 1.01179 0.998197
1.04783 1.0544 0.99652 0.997242
1.00796 1.00396 1.0063 0.997699
1.00435 1.00511 1.00215 0.997091
1.01153 1.01396 1.00004 0.997571
1.03519 1.03887 1 0.996464
1.04146 1.04474 0.999971 0.996897
1.00721 1.00605 1.00482 0.996352
1.0086 1.0128 1 0.995851
1.00096 1 1.00242 0.998549
1.00823 1.00007 1.01033 0.997846
1.01141 1.01025 1.00415 0.997004
1.00848 1.00973 1.00142 0.99735
1.04512 1.06997 0.97925 0.997468
1.04151 1.04581 0.998708 0.997169
1.02345 1.02739 1 0.996159
1.01295 1.01325 1.00377 0.995951
1.00212 1 1.00378 0.998341
1.04681 1.07436 0.976824 0.997474
1.00231 1.00015 1.00468 0.997488
1.01089 1.01147 1.00268 0.996753
1.03687 1.05612 0.984166 0.997572
1.02059 1.02446 0.999977 0.99625
1.00946 1.0105 1.00323 0.995744
0.998732 1 1 0.998732
0.998666 1 1 0.998666
0.998769 1 1.00002 0.998748
0.999105 1 1 0.999105
0.999247 1 1.00054 0.998712
0.998747 1 1.00006 0.998686
0.999086 1 1 0.999086
0.999354 1 1.0007 0.998658
0.998742 1 1 0.998742
0.99914 1 1.00058 0.998558
0.998815 1 1 0.998815
0.998752 1 1.00013 0.998621
0.999577 1 1.00115 0.998424
0.998598 1 1 0.998595
0.99902 1 1 0.99902
0.999627 1 1 0.999627
0.999664 1 1 0.999664
1 1 1 1
0.999695 1 1 0.999695
1 1 1 1
1 1 1 1
1 1 1 1
1 1 1 1
1 1 1 1
0.999862 1 1 0.999862
1 1 1 1
0.999998 1 1 0.999998
1 1 1 1
0.999976 1 1 0.999976
1 1 1 1
1 1 1 1
1.04709 1.06062 0.98986 0.997348
1.04771 1.0629 0.988405 0.997276
1.05005 1.06313 0.990509 0.99716
1.04894 1.05816 0.994298 0.996978
1.05107 1.06372 0.990943 0.997142
1.05181 1.06986 0.98577 0.997321
1.04839 1.06809 0.984109 0.997404
1.05161 1.07033 0.985164 0.997311
1.06143 1.08177 0.983739 0.997421
1.05421 1.07824 0.979985 0.997685
1.05025 1.06281 0.991075 0.997083
1.04543 1.06383 0.985465 0.997195
1.03716 1.0545 0.986206 0.997321
1.00344 1.00669 1.00006 0.996713
1.0054 1.00815 1.00126 0.996015
1.01585 1.01927 1.00078 0.995874
1.03708 1.05118 0.98907 0.997485
1.02854 1.03372 0.998085 0.996893
1.00111 1.00365 1.00047 0.996992
1.01364 1.0029 1.01357 0.997177
1.00684 1.00042 1.00897 0.997474
0.99974 1 1 0.99974
1.00105 1 1.00229 0.998764
1.00561 1 1.00759 0.998036
1.04928 1.06836 0.984843 0.997261
0.999831 1 1 0.999831
0.999296 1 1 0.999296
1.03891 1.06447 0.978636 0.997293
1.0323 1.05393 0.981936 0.997494
1.00315 1.00483 1.00183 0.996507
1.00564 1.0067 1.00332 0.995642
1.01481 1.01803 1.00079 0.996051
1.02596 1.03943 0.989551 0.997459
0.999311 1 1.00018 0.99913
1.00171 1 1.00343 0.998286
1.00135 1.00183 1.0026 0.996932
1.02854 1.00115 1.02999 0.997441
1.00727 1.00016 1.00993 0.997207
1.00623 1 1.0085 0.997745
1.05874 1.0812 0.981799 0.997376
1.01965 1.06277 0.961899 0.997428
1.0219 1.04642 0.978842 0.997675
1.00781 1.02085 0.990023 0.997178
1.00495 1.00259 1.00577 0.996598
1.00519 1.00408 1.0055 0.99563
0.99926 1 1 0.99926
0.999293 1 1 0.999293
0.998995 1 1 0.998995
0.998659 1 1.00018 0.998483
1.00456 1 1.00654 0.998034
1.00557 1.00016 1.00803 0.997391
1.0476 1 1.05052 0.997223
1.00168 1.00049 1.0036 0.997593
1.00146 1 1.00295 0.998514
1.00705 1 1.00922 0.997854
1.04644 1.07118 0.979362 0.997488
1.04225 1.04619 0.999119 0.997117
1.00764 1.00912 1.00115 0.997386
1.01391 1.01247 1.00441 0.99703
1.02357 1.02743 1.00004 0.996208
1.0147 1.01548 1.00335 0.995898
1.0023 1 1.00398 0.998323
1.04955 1.07774 0.976258 0.99753
1.00313 1.00013 1.00549 0.997516
1.00918 1.00981 1.00269 0.996693
1.03566 1.05517 0.983929 0.997547
1.01971 1.02348 0.999984 0.996332
1.01054 1.01132 1.00348 0.99576
1.00518 1 1.00717 0.998016
1.01429 1.04704 0.970702 0.997957
1.00402 1.00312 1.0037 0.997218
1.00461 1.00458 1.00379 0.996252
1.0175 1.02873 0.991944 0.997118
1.00247 1.00431 1.00221 0.995962
0.977778 1.00353 0.97692 0.997359
0.998648 0.999988 1.00001 0.998656
0.9992 0.999651 1.0008 0.998747
0.999354 1 1.00069 0.998668
0.999083 1 1 0.999083
0.99964 1 1.00098 0.998664
0.998827 1 1.00025 0.998575
0.998756 1 1 0.998756
0.99902 1 1 0.99902
0.998716 1 1.00013 0.998587
0.998781 1 1 0.998781
0.999394 1 1.00097 0.998426
0.998731 1 1.00013 0.998604
0.998806 1 1.00004 0.99877
0.998771 1 1.00053 0.998245
1.00029 1 1.00189 0.9984
0.998542 1 1.00007 0.998474
0.99888 1 1 0.99888
0.999149 1 1.0005 0.998653
0.998879 1 1.00003 0.998851
0.999607 1 1 0.999607
0.999624 1 1 0.999624
1 1 1 1
0.999661 1 1 0.999661
1 1 1 1
1 1 1 1
1 1 1 1
1 1 1 1
1 1 1 1
0.999889 1 1 0.999889
0.999863 1 1 0.999863
1 1 1 1
1 1 1 1
1 1 1 1
0.999997 1 1 0.999997
1 1 1 1
1 1 1 1
1.0465 1.06626 0.984009 0.997412
1.05148 1.06928 0.986003 0.997311
1.05077 1.06367 0.990683 0.99716
1.05161 1.07025 0.985235 0.997309
1.05898 1.07951 0.983523 0.997418
1.05344 1.07643 0.980983 0.997611
1.06323 1.08764 0.980019 0.997486
0.973834 1.01605 0.962613 0.995671
1.01352 1.04545 0.971031 0.998383
0.999399 1 1 0.999399
1.04917 1.06865 0.984457 0.997272
1.03969 1.06371 0.980074 0.997294
1.03065 1.05294 0.981322 0.997463
1.00011 1.00271 1.00082 0.996591
1.00449 1.00486 1.00402 0.995635
1.01406 1.01785 1.00024 0.996043
1.02476 1.03901 0.988828 0.997433
0.99891 1.00199 1.0001 0.99683
1.02142 1.0002 1.02367 0.997604
1.00532 1 1.00812 0.997226
0.999826 1 1 0.999826
1.00693 1 1.00919 0.997762
0.999427 1 1.00022 0.999212
1.00172 1 1.00344 0.998278
0.999262 1 1 0.999262
1.05538 1.08143 0.978467 0.997383
0.999304 1 1 0.999304
0.999292 1 1 0.999292
0.998829 1.00001 0.999864 0.998959
1.02403 1.06316 0.965679 0.997427
1.02233 1.04668 0.979057 0.997628
1.00155 1.00203 1.0029 0.996627
1.00857 1.00727 1.00556 0.995751
1.00695 1.01867 0.991306 0.997161
0.998778 1 1.00024 0.998538
1.0047 1 1.00673 0.997985
1.00752 1.00031 1.00975 0.997483
1.03776 1.00001 1.04061 0.99725
1.00466 1.0001 1.00714 0.997439
1.03701 1.06998 0.971622 0.997489
1.0027 1.05306 0.954491 0.99758
1.01459 1.02981 0.987851 0.997331
0.991932 1.00763 0.987465 0.996917
1.00359 1 1.00639 0.997216
0.998834 1 1 0.998834
0.998771 1 1 0.998771
0.999864 1 1.00117 0.998696
1.00462 1 1.00637 0.998269
1.00742 1 1.00958 0.997866
1.03541 0.999858 1.03819 0.997468
1.02991 1.00158 1.03086 0.99751
1.00223 1 1.00393 0.998305
1.00361 1 1.00608 0.997544
1.05143 1.08198 0.974123 0.997585
1.03499 1.05502 0.983451 0.99752
1.01919 1.02288 0.999975 0.996414
1.0072 1.0079 1.00268 0.996632
1.01127 1.01192 1.0036 0.995778
1.00462 1 1.00658 0.998057
1.01359 1.04738 0.969678 0.997995
1.00142 1.00199 1.00221 0.997229
1.00377 1.00345 1.00408 0.996255
1.01672 1.02894 0.990864 0.997234
1.00293 1.00426 1.00273 0.995955
0.977537 1.00352 0.977631 0.996397
1.00528 1.00065 1.00674 0.997902
1.00329 1.02381 0.981979 0.997939
1.00052 1.00137 1.00206 0.997103
1.00436 1.00145 1.00644 0.996491
0.992348 1.00605 0.989362 0.996983
0.918509 0.977867 0.962576 0.975818
0.916414 0.969929 0.956738 0.987549
0.970446 0.985037 0.98767 0.997487
0.739924 0.843028 0.920514 0.953486
0.661201 0.807437 0.871554 0.939573
0.999175 0.999186 1.00124 0.998747
1.00027 0.999463 1.00208 0.998721
0.999817 1 1.00111 0.998705
0.999019 1 1 0.999019
0.998582 1 1 0.998579
0.999071 1 1.00064 0.998427
0.998685 1 1.0001 0.998586
0.998747 1 1 0.998747
1.00094 1 1.00257 0.998375
0.998915 1 1 0.998915
0.998512 1 1.00002 0.998494
0.998889 1 1.00016 0.998728
0.99908 1 1.0008 0.998286
1.00208 1 1.00379 0.998297
1.00276 1 1.00436 0.998401
1.00162 1 1.00332 0.998308
0.998849 1 1.00045 0.998402
0.998846 1 1 0.998846
0.998724 1 1.00023 0.998489
0.998926 1 1.00044 0.998489
0.998962 1 1.00029 0.998675
0.999196 1 1.00058 0.998613
0.998967 1 1 0.998967
0.998908 1 1.00006 0.998847
0.999602 1 1 0.999602
0.999607 1 1 0.999607
1 1 1 1
0.999622 1 1 0.999622
1 1 1 1
1 1 1 1
1 1 1 1
1 1 1 1
1 1 1 1
0.999918 1 1 0.999918
0.999885 1 1 0.999885
1 1 1 1
0.999863 1 1 0.999863
1 1 1 1
1 1 1 1
1 1 1 1
1 1 1 1
1 1 1 1
1.05617 1.07693 0.983261 0.997414
1.05166 1.07019 0.985345 0.997307
1.05315 1.07492 0.982165 0.997538
0.974999 1.01587 0.96387 0.995746
1.06016 1.08495 0.979616 0.997486
1.02587 1.04895 0.9797 0.998254
1.04385 1.06044 0.986708 0.997613
0.930233 0.980459 0.961599 0.986662
0.992576 1.01935 0.977109 0.996544
0.99942 1 1 0.99942
0.999395 1 1 0.999395
0.998946 1 1 0.998946
0.999035 1 1 0.999035
1.05302 1.08169 0.976039 0.997391
1.02799 1.06301 0.969556 0.997425
1.02276 1.04671 0.979486 0.997581
1.00044 1.0009 1.00289 0.996655
1.01291 1.0117 1.00535 0.995871
1.00617 1.01688 0.992298 0.997144
1.01721 1 1.01989 0.997372
1.03033 1.00004 1.0331 0.997276
1.00287 1.00001 1.00538 0.997487
0.999292 1 1 0.999292
1.00306 1 1.00513 0.997937
0.998839 1 1.00025 0.998593
0.999349 1 1 0.999349
0.998922 1.00001 0.999993 0.998923
1.03473 1.06989 0.969558 0.997504
0.998873 1 1 0.998873
0.99883 1 0.999996 0.998831
0.999423 0.999995 1.00058 0.998849
1.00796 1.05576 0.957043 0.997572
1.01405 1.02978 0.987361 0.99733
1.00379 1.00055 1.00605 0.997198
0.994823 1.00778 0.990121 0.996989
1.00303 1 1.00482 0.998213
1.00663 1 1.00889 0.997759
1.03636 1.0015 1.03741 0.99749
1.03589 1.00019 1.0384 0.997392
0.996509 1.04441 0.956344 0.997687
0.995278 1.03417 0.964743 0.997567
1.00511 1.01161 0.996566 0.997
0.984254 1.00093 0.985434 0.997877
1.00001 1 1.00146 0.99855
1.00134 1 1.0029 0.998444
1.01361 0.999893 1.0155 0.998242
1.05559 1 1.05822 0.997519
0.895641 0.968317 0.950752 0.972857
1.00491 1 1.00683 0.998098
0.999276 1.00088 1.00116 0.99724
1.01432 1.0474 0.970325 0.998034
1.01601 1.02859 0.990389 0.997349
1.00332 1.0041 1.0033 0.995945
1.00336 1.00265 1.00447 0.996256
0.978017 1.00481 0.977825 0.995409
1.00395 1.00026 1.00574 0.997959
1.00298 1.02494 0.980601 0.997924
1.00027 1.00142 1.00174 0.997119
1.00456 1.00197 1.00611 0.996494
0.995951 1.00709 0.991932 0.996979
0.916816 0.984342 0.957339 0.972904
0.909857 0.966808 0.955617 0.984803
0.974261 0.985703 0.990856 0.997514
0.737103 0.838677 0.920804 0.954479
0.647135 0.797149 0.868158 0.935097
1.00177 0.999924 1.00371 0.998141
0.76821 0.859655 0.933942 0.956832
0.699016 0.813701 0.913185 0.940727
0.988126 1.00621 0.984081 0.997917
1.00758 1.00153 1.00848 0.99759
1.01316 1.00494 1.01088 0.997334
0.964808 0.977808 0.988893 0.997788
0.900575 0.958938 0.964195 0.974012
0.883214 0.940411 0.955229 0.983197
0.728077 0.838957 0.906641 0.9572
0.71921 0.860271 0.89079 0.938524
1.00196 0.99918 1.00401 0.998773
1.00098 0.999682 1.00262 0.998679
1.00412 1 1.00528 0.998842
0.998949 1 1 0.998949
0.998514 1 1 0.998514
1.00154 1 1.00319 0.998352
0.99962 1 1.0013 0.998326
0.998687 1 1 0.998687
0.998847 1 1 0.998847
1.0024 1 1.00413 0.998285
1.00199 1 1.00368 0.998318
0.998566 1 1.00012 0.998441
1.00294 1 1.00452 0.998427
1.00469 1 1.00634 0.998357
1.01158 1 1.01307 0.998533
1.00042 1 1.00218 0.998244
0.998869 1 1.00041 0.998455
0.998538 1 1.00005 0.998485
0.999275 1 1.00078 0.998497
0.999532 1 1.00122 0.998314
0.999253 1 1.00072 0.998531
1.00066 1 1.00215 0.998517
1.00472 1 1.00641 0.998317
0.99977 1 1.00114 0.998635
0.998891 1 1.00022 0.998676
0.999003 1 1 0.999003
0.998972 1 1.0004 0.998574
0.998938 1 1 0.998938
0.99959 1 1 0.99959
0.998884 1 1.00004 0.998844
0.999603 1 1 0.999603
1 1 1 1
0.999607 1 1 0.999607
1 1 1 1
1 1 1 1
1 1 1 1
1 1 1 1
1 1 1 1
0.999374 1 1 0.999374
0.999923 1 1 0.999923
0.999914 1 1 0.999914
1 1 1 1
0.999882 1 1 0.999882
1 1 1 1
1 1 1 1
1 1 1 1
1 1 1 1
1 1 1 1
0.976911 1.01565 0.96589 0.995826
1.05785 1.08201 0.980136 0.997485
1.03321 1.05213 0.983856 0.998124
0.923353 0.974318 0.959407 0.987789
0.992076 1.01908 0.976707 0.996717
1.04332 1.0643 0.98268 0.997568
1.0038 1.02771 0.979868 0.996803
0.93773 0.975288 0.97204 0.989147
0.916821 0.977431 0.96337 0.973657
0.737442 0.840689 0.916556 0.957048
0.62763 0.766672 0.87207 0.938734
0.998981 1 1 0.998981
0.999418 1 1 0.999418
0.999391 1 1 0.999391
0.998939 1 1 0.998939
0.998711 1 1 0.998711
0.998726 1 1 0.998726
0.99891 1 1 0.99891
0.998995 1 1 0.998995
1.0311 1.07018 0.965884 0.997518
1.01373 1.05963 0.959018 0.997563
1.0136 1.02985 0.986856 0.99733
1.00316 1.00163 1.00436 0.997181
0.997368 1.00743 0.992928 0.997062
1.03968 1.00094 1.04134 0.997468
1.03566 1.00062 1.0378 0.997317
1.00749 1 1.00986 0.997653
0.99863 1.00001 0.999728 0.998891
1.00307 1 1.00492 0.998156
0.998913 1 1 0.998913
0.999002 1 1 0.999002
0.995438 1.04515 0.954632 0.997703
0.999981 1 1.00142 0.998566
1.00163 1 1.00314 0.998493
0.993575 1.03268 0.964505 0.997542
1.0023 1.01205 0.993208 0.997139
0.986295 1.0012 0.987327 0.997755
1.02218 1.00011 1.02408 0.99804
1.05161 1.00126 1.05287 0.997551
0.979731 1.02743 0.955821 0.997649
0.986828 1.01061 0.978857 0.997563
0.977254 1.00166 0.977983 0.9976
0.987613 1.00118 0.988395 0.998035
1.00479 1 1.00665 0.99815
1.01095 1 1.01274 0.998227
1.04972 1 1.05197 0.997865
0.770372 0.869087 0.92465 0.958649
0.913278 0.975796 0.958167 0.976794
1.00155 0.999741 1.0038 0.998016
0.999942 1.00125 1.00156 0.997136
1.0028 1.02641 0.979042 0.99791
0.999018 1.00857 0.99353 0.996976
1.00487 1.00268 1.00571 0.996501
0.913914 0.974915 0.962395 0.974059
0.914371 0.974004 0.952668 0.985417
0.975613 0.984411 0.993512 0.997535
0.74176 0.840415 0.921307 0.958
0.63436 0.78696 0.866314 0.930481
1.00096 0.999789 1.00304 0.998141
0.768292 0.866502 0.925906 0.957612
0.684769 0.80046 0.911788 0.938234
0.988041 1.00722 0.983012 0.997914
1.00767 1.00194 1.00813 0.99761
1.01134 1.00325 1.0106 0.997485
0.957808 0.971862 0.987554 0.99796
0.911154 0.970747 0.966203 0.971443
0.879433 0.937883 0.951306 0.985675
0.734039 0.836802 0.918251 0.955289
0.718416 0.866346 0.884487 0.937547
1.00316 1 1.00454 0.998632
0.730432 0.825926 0.939092 0.941739
0.802454 0.898886 0.940366 0.949333
0.987477 0.995473 0.993292 0.998667
1.01486 1.00255 1.0137 0.998597
0.96677 0.96339 1.00591 0.997615
0.889465 0.927624 0.971589 0.986902
0.867131 0.926571 0.964756 0.970037
0.738159 0.831521 0.928393 0.956191
0.767584 0.908357 0.897265 0.941779
1.00195 0.999425 1.00388 0.998655
1.00327 1 1.00447 0.998802
1.00632 0.999533 1.00772 0.999075
0.998848 1 1 0.998848
0.99848 1 1 0.99848
1.00271 1 1.00439 0.998327
1.00298 1 1.00471 0.998272
1.00288 1 1.00443 0.998454
0.998791 1 1.00034 0.998453
1.00328 1 1.00495 0.998336
1.00048 1 1.00224 0.998246
1.01126 0.999862 1.01283 0.998592
1.03062 0.998858 1.03274 0.999095
1.00631 1 1.00796 0.998369
0.999845 1 1.00164 0.998204
0.998505 1 1.00002 0.998481
0.999693 1 1.00119 0.998504
0.999907 1 1.0016 0.998306
0.99961 1 1.00109 0.998519
0.999621 1 1.00102 0.998604
1.00275 1 1.0043 0.998457
1.00152 1 1.00311 0.998411
1.00198 0.999934 1.00343 0.998617
0.99909 1 1.00072 0.998372
0.998711 1.00002 1.00093 0.997763
1.00397 1 1.00577 0.998215
1.00394 1 1.00563 0.998318
1.00359 1 1.00508 0.998521
1.00048 1 1.00185 0.998633
0.998983 1 1 0.998983
0.999119 1 1.00044 0.998677
0.999005 1 1 0.999005
0.999581 1 1 0.999581
0.99891 1 1 0.99891
0.999593 1 1 0.999593
0.999996 1 1 0.999996
0.999604 1 1 0.999604
0.999999 1 1 0.999999
1 1 1 1
1 1 1 1
1 1 1 1
1 1 1 1
0.999381 1 1 0.999381
0.999901 1 1 0.999901
0.999375 1 1 0.999375
1 1 1 1
0.999924 1 1 0.999924
0.999911 1 1 0.999911
1 1 1 1
1 1 1 1
1 1 1 1
1 1 1 1
1 1 1 1
0.761872 0.85736 0.931014 0.954471
0.690706 0.809016 0.90827 0.939985
0.923971 0.977363 0.956544 0.98832
0.993656 1.01897 0.978194 0.996896
1.04589 1.06831 0.981451 0.997523
0.919783 0.958652 0.968616 0.990542
1.00436 1.02697 0.980979 0.996953
0.929017 0.989523 0.963209 0.974713
0.736026 0.842531 0.915402 0.954323
0.629235 0.776585 0.867311 0.934219
0.95264 0.996202 0.963085 0.992926
0.914806 0.969424 0.968359 0.974493
0.726527 0.838394 0.905968 0.956512
0.704727 0.85132 0.882904 0.937593
1.00002 1 1.00147 0.998555
0.999016 1 1 0.999016
0.999416 1 1 0.999416
0.998933 1 1 0.998933
0.998768 1 1 0.998768
0.999597 1 1.00109 0.998512
0.998703 1 1 0.998703
0.998592 1 1 0.998592
0.998869 1 1 0.998869
0.998954 1 1 0.998954
0.995171 1.04524 0.954272 0.997719
0.990398 1.02998 0.963963 0.997519
0.999998 1.01276 0.990094 0.997278
0.988597 1.00138 0.98958 0.997634
1.04658 1.003 1.04597 0.997583
1.03122 1.00027 1.03318 0.997839
1.00043 1 1.00189 0.998544
0.999941 0.999994 1.00137 0.998581
0.980524 1.02778 0.956207 0.997719
1.0058 1 1.00771 0.998112
1.0106 1 1.01244 0.99818
0.983862 1.00875 0.977771 0.997501
0.975273 1.00133 0.976227 0.997696
0.988704 1.00201 0.988728 0.997968
1.04333 1 1.04561 0.997819
0.978484 1.00375 0.976811 0.997968
0.969589 0.999052 0.972072 0.998392
1.0136 1.00091 1.01452 0.998187
1.00868 1 1.01064 0.99806
1.01008 1 1.01214 0.99796
1.02709 1 1.02918 0.997971
0.756175 0.841678 0.94582 0.949878
0.777619 0.867916 0.93443 0.958832
0.901792 0.972307 0.95324 0.972973
1.00048 0.999573 1.00277 0.99814
1.00732 1.00193 1.00777 0.997627
0.990586 1.00829 0.984498 0.997911
1.00981 1.0019 1.01029 0.997631
0.764405 0.861558 0.92504 0.959133
0.905507 0.967158 0.962289 0.972946
0.876895 0.934796 0.953989 0.983304
0.95469 0.96783 0.988275 0.998127
0.728404 0.837485 0.913103 0.952523
0.684417 0.801084 0.909763 0.939105
0.711306 0.858567 0.88116 0.940216
1.00331 0.99981 1.00489 0.99862
0.732313 0.82826 0.936056 0.944558
0.814229 0.9098 0.942971 0.949079
0.987277 0.993411 0.995061 0.998757
1.01494 1.00165 1.01474 0.998552
0.964121 0.961996 1.00415 0.998066
0.882135 0.931168 0.962196 0.984563
0.886483 0.93617 0.973117 0.973085
0.755754 0.852131 0.930074 0.953579
0.756204 0.897473 0.892571 0.944006
1.00741 0.99892 1.00907 0.999431
0.83093 0.915604 0.949765 0.955522
0.801655 0.906761 0.92731 0.953389
0.986136 0.971643 1.0152 0.999715
0.912465 0.927879 0.992267 0.991052
0.891554 0.924477 0.992401 0.971772
0.804512 0.888151 0.951923 0.951577
0.794305 0.935743 0.899611 0.943573
1.00314 1 1.00439 0.998763
1.0066 0.999162 1.00839 0.999068
1.02332 0.996582 1.0275 0.999354
0.99893 1 1.00048 0.998451
1.00044 1 1.0022 0.998249
1.00145 1 1.00314 0.998315
1.01108 0.999705 1.01275 0.998651
1.00023 1 1.00203 0.998204
1.00606 1 1.00771 0.99836
1.03525 0.999605 1.03652 0.999173
1.04379 0.996268 1.04828 0.999446
1.0352 0.99924 1.03696 0.999068
1.00049 1 1.00218 0.998307
1.00008 1 1.00179 0.998298
0.999602 1 1.0011 0.998507
0.998816 1 1.00013 0.998689
1.00122 1 1.0028 0.99843
1.00194 1 1.00349 0.998458
1.00268 1 1.00405 0.998635
1.00097 1 1.00251 0.998469
1.00699 0.999205 1.00884 0.998963
0.996808 1.00028 0.998046 0.998479
0.999743 1.00053 1.00083 0.998389
0.998678 1 1.00069 0.997985
1.00145 1.003 1.00153 0.996931
1.00261 1.00001 1.00449 0.998109
0.99879 1 1.00079 0.998
1.00371 1 1.00549 0.998229
1.00659 1 1.00825 0.998358
1.00292 1 1.0046 0.998318
1.0033 1 1.00478 0.998521
0.999306 1 1.00042 0.998881
1.00082 1 1.0022 0.99863
0.998981 1 1 0.998981
0.999563 1 1 0.999563
0.999007 1 1 0.999007
0.999581 1 1 0.999581
0.999988 1 1 0.999988
0.999595 1 1 0.999595
0.999993 1 1 0.999993
1 1 1 1
0.999998 1 1 0.999998
1 1 1 1
1 1 1 1
0.999142 1 1 0.999142
0.99986 1 1 0.99986
0.999307 1 1 0.999307
1 1 1 1
0.999906 1 1 0.999906
0.999377 1 1 0.999377
1 1 1 1
1 1 1 1
0.999925 1 1 0.999925
1 1 1 1
1 1 1 1
1 1 1 1
0.724719 0.824432 0.930516 0.944693
0.76845 0.864547 0.929374 0.956392
0.808113 0.908391 0.93781 0.948602
0.6868 0.806216 0.907604 0.938604
0.920736 0.968209 0.962452 0.988068
1.00233 1.02642 0.979358 0.997113
0.933548 0.986867 0.969681 0.975549
0.746018 0.845745 0.921511 0.957215
0.63441 0.789622 0.86426 0.929621
0.951261 0.990797 0.967791 0.99205
0.90827 0.968909 0.966347 0.970061
0.740411 0.846685 0.915971 0.954705
0.704729 0.854453 0.881863 0.935261
0.925862 0.976097 0.95855 0.989551
0.883244 0.930552 0.97911 0.969412
0.762159 0.866225 0.924667 0.951545
0.762002 0.90582 0.895887 0.93899
1.00173 1 1.00347 0.998269
0.999337 1 1.00074 0.998601
0.999052 1 1 0.999052
0.998826 1 1 0.998826
0.998563 1 1.0004 0.998162
0.998907 1 1.00035 0.998557
0.998681 1 1 0.998681
0.99856 1 1 0.99856
0.998639 1 1.00001 0.998631
0.998828 1 1 0.998828
0.981735 1.02892 0.956255 0.997789
0.983051 1.00769 0.978049 0.997442
0.972878 1.00129 0.973777 0.997791
0.991815 1.00326 0.99067 0.997904
1.03581 1 1.03812 0.997772
1.01024 1 1.01213 0.998133
1.00622 1 1.00816 0.998075
1.00785 1 1.00985 0.998019
0.976269 1.00397 0.974369 0.997983
1.0086 1 1.01068 0.997947
1.02751 1 1.02961 0.997954
0.96831 0.99963 0.970243 0.998377
1.00979 1.00196 1.00968 0.998144
0.952113 0.981701 0.971439 0.998374
0.982736 0.988457 0.994974 0.999234
1.0391 0.999653 1.04113 0.998397
1.0048 1 1.00685 0.997965
1.01861 1 1.0206 0.998049
0.841162 0.922045 0.951254 0.959027
0.756945 0.840895 0.948332 0.949209
0.766558 0.86239 0.929561 0.956232
1.00345 0.999813 1.00503 0.99861
1.01541 1.00063 1.01629 0.998506
0.983876 0.991324 0.99363 0.99885
0.734759 0.829933 0.936512 0.94534
0.881604 0.930497 0.977046 0.969714
0.886061 0.929022 0.967237 0.986063
0.955976 0.957976 0.9994 0.998511
0.757739 0.856699 0.924648 0.956566
0.821304 0.915349 0.945562 0.948915
0.760707 0.900399 0.894789 0.944196
1.00581 0.998815 1.00763 0.999382
0.828139 0.914615 0.946081 0.957054
0.801651 0.906589 0.927407 0.953464
0.988444 0.975333 1.0139 0.999546
0.924649 0.938083 0.994801 0.990831
0.865479 0.917585 0.973992 0.968399
0.794464 0.935348 0.899608 0.944164
0.819309 0.895388 0.960237 0.952923
1.00185 0.979509 1.02311 0.999711
0.81221 0.901321 0.935431 0.963335
0.827157 0.930351 0.930774 0.955206
0.760983 0.904504 0.895772 0.93922
0.96201 0.950901 1.01406 0.997651
0.919201 0.939132 1.0059 0.973034
0.863984 0.931821 0.971181 0.954714
1.0073 0.998778 1.00948 0.999061
1.02306 0.99653 1.02737 0.99927
1.02259 0.984713 1.03891 0.999566
1.00029 1 1.00209 0.998203
1.00525 1 1.00691 0.998351
1.03976 0.999723 1.04083 0.999251
1.00094 1 1.00263 0.998313
1.0344 0.999328 1.03605 0.999079
1.04549 0.996051 1.05024 0.999421
1.0341 0.991756 1.04323 0.999489
1.02167 0.998581 1.02409 0.999058
1.00087 1 1.00243 0.998449
1.00146 1 1.003 0.99846
1.00325 1 1.0046 0.998655
1.00632 0.999526 1.00787 0.998935
1.00056 1 1.00209 0.998467
1.00179 1 1.00295 0.998846
0.997814 1.0001 0.998959 0.998754
1.00221 1.00027 1.00441 0.997542
1.00028 1.00103 1.00084 0.998409
0.999236 1.00078 1.00057 0.997894
0.998738 1.00106 1.00101 0.996671
1.0131 1.01524 1.00129 0.996614
1.00231 1.0018 1.00276 0.997755
1.00033 1.00197 1.00138 0.996985
1.00885 1 1.01072 0.998153
1.00375 1.00048 1.00518 0.998105
0.998879 1 1.00065 0.998234
1.00365 1 1.00542 0.998242
1.00591 1 1.00752 0.998393
1.00036 1 1.00162 0.998745
1.00314 1 1.00462 0.99852
0.99933 1 1.00045 0.998882
0.999502 1 1 0.999502
0.998978 1 1 0.998978
0.999561 1 1 0.999561
0.999982 1 1 0.999982
0.999582 1 1 0.999582
0.999986 1 1 0.999986
1 1 1 1
0.999991 1 1 0.999991
1 1 1 1
1 1 1 1
0.998893 1 1 0.998893
0.999668 1 1 0.999668
0.99914 1 1 0.99914
1 1 1 1
0.99981 1 1 0.99981
0.999234 1 1 0.999234
1 1 1 1
1 1 1 1
0.99991 1 1 0.99991
1 1 1 1
1 1 1 1
1 1 1 1
0.828041 0.919416 0.942009 0.956059
0.723381 0.82429 0.926782 0.946912
0.764208 0.860317 0.929243 0.955924
0.998439 1 1 0.998439
0.808061 0.904739 0.934377 0.95587
0.806909 0.908006 0.936953 0.948457
0.691492 0.813926 0.903019 0.940817
0.95914 0.993776 0.973971 0.990941
0.903986 0.960432 0.966513 0.973839
0.743559 0.859047 0.909379 0.951818
0.69945 0.842289 0.886524 0.93671
0.923253 0.972002 0.962748 0.986599
0.885278 0.933033 0.975377 0.97277
0.769044 0.864665 0.934258 0.951999
0.758158 0.900498 0.895966 0.939692
0.882345 0.931959 0.962616 0.983532
0.878372 0.916112 0.988348 0.970107
0.832898 0.907155 0.963078 0.953342
0.795604 0.935114 0.901747 0.943512
1.00111 1 1.00307 0.998043
1.00295 1 1.00474 0.998225
0.998859 1 1.00021 0.998647
0.998257 1 1.00002 0.998241
0.998794 1 1.00056 0.998231
0.998602 1 1 0.998602
0.998565 1 1 0.998565
0.998694 1 1.00003 0.998669
0.973161 1.00467 0.97059 0.997991
0.966823 1.00075 0.967681 0.998369
1.0074 1 1.00944 0.997978
1.00625 1.00297 1.00519 0.998099
1.02931 1 1.03144 0.997937
1.00812 1 1.0102 0.997935
1.0053 1 1.00734 0.997977
0.955796 0.981623 0.975171 0.998481
1.01696 1 1.01892 0.998074
1.02862 1.00032 1.0299 0.998432
0.97973 0.989719 0.990613 0.999287
1.00733 1 1.00923 0.998116
0.948135 0.966741 0.982555 0.998166
1.00187 0.985857 1.01678 0.999475
1.05065 0.997261 1.05508 0.998536
1.01525 1 1.01704 0.99824
0.822149 0.904058 0.941302 0.966108
0.840696 0.922122 0.95076 0.958914
0.759336 0.839934 0.9531 0.948528
1.00375 0.998648 1.00578 0.999335
0.991418 0.978354 1.01398 0.999381
0.827777 0.915846 0.942924 0.95855
0.891154 0.918811 0.997284 0.972541
0.913638 0.935711 0.988718 0.987552
0.817949 0.894598 0.96088 0.951544
0.802536 0.907728 0.927215 0.953516
0.795716 0.9359 0.899928 0.944758
1.00626 0.986318 1.02056 0.999669
0.813828 0.902738 0.935854 0.963303
0.826509 0.928129 0.930225 0.957306
0.970907 0.956308 1.01587 0.999401
0.756657 0.898826 0.89573 0.939824
0.896579 0.922705 1.00093 0.970778
0.86984 0.938197 0.971584 0.954256
0.999841 0.97401 1.02678 0.999747
0.837682 0.923547 0.939294 0.965648
0.805537 0.901537 0.934526 0.956117
0.702324 0.849433 0.881656 0.937797
0.831407 0.906363 0.962705 0.952836
0.95021 0.949585 1.00588 0.99481
0.927137 0.937243 1.02285 0.967114
1.02049 0.997176 1.02421 0.999188
1.02479 0.9856 1.04024 0.999534
1.01222 0.973834 1.03985 0.999582
1.00153 1 1.00321 0.998318
1.03675 0.999392 1.03833 0.999091
1.04845 0.997118 1.05212 0.999396
1.01677 0.998844 1.01892 0.999045
1.03408 0.993526 1.04135 0.999488
1.01063 0.988762 1.02289 0.999235
1.00554 0.999851 1.00679 0.998905
1.00029 1 1.00183 0.998466
1.00435 1 1.00553 0.998825
1.01069 0.999903 1.01268 0.998139
0.999028 1 1 0.999028
0.999965 1.00022 1.00201 0.997736
1.00218 1.00098 1.00488 0.996348
1.00526 1.00745 1.00188 0.995954
0.999851 1.00165 1.0004 0.9978
0.999262 1.00163 1.00115 0.996483
1.01424 1.01706 1.00053 0.996703
1.00812 1.00828 1.00261 0.997236
1.01216 1.01423 1.00125 0.996706
1.00743 1 1.0095 0.997955
1.00463 1.00356 1.00335 0.997729
0.998945 1.00063 1.00128 0.99704
1.00464 1 1.0061 0.998552
1.00819 1 1.01004 0.99817
1.00495 1.00089 1.00597 0.9981
1.0055 1 1.00708 0.998428
1.00093 1 1.00219 0.998745
0.999515 1 1.00013 0.999385
0.999544 1 1.00066 0.998882
0.999497 1 1 0.999497
0.999976 1 1 0.999976
0.999558 1 1 0.999558
0.999981 1 1 0.999981
1 1 1 1
0.999984 1 1 0.999984
1 1 1 1
1 1 1 1
0.998806 1 1 0.998806
0.999519 1 1 0.999519
0.998939 1 1 0.998939
1 1 1 1
0.999652 1 1 0.999652
0.999137 1 1 0.999137
1 1 1 1
1 1 1 1
0.99976 1 1 0.99976
1 1 1 1
1 1 1 1
1 1 1 1
0.818563 0.904267 0.938668 0.96437
0.830633 0.918941 0.945457 0.956048
0.724008 0.824203 0.92752 0.947078
0.998475 1 1 0.998475
0.998402 1 1 0.998402
0.99835 1 1 0.99835
0.82658 0.931915 0.928798 0.954965
0.804634 0.904173 0.930925 0.955943
0.805998 0.907398 0.936655 0.948323
0.929236 0.97729 0.961784 0.98861
0.868154 0.926415 0.966798 0.969294
0.76162 0.849445 0.937632 0.956248
0.769299 0.909361 0.901632 0.938273
0.884739 0.936615 0.957757 0.986276
0.886409 0.921485 0.991228 0.970449
0.812904 0.885179 0.962436 0.954193
0.794459 0.935656 0.899427 0.944037
0.883668 0.926603 0.969138 0.984033
0.901408 0.926947 1.00091 0.971564
0.863901 0.929859 0.972874 0.954971
0.771471 0.911338 0.898877 0.941759
0.998768 1 1.00064 0.998126
1.00176 1 1.00376 0.998013
1.00286 1 1.00469 0.99818
0.998241 1 1.00001 0.99823
0.998639 1 1.00034 0.998301
0.998571 1 1 0.998571
0.957745 0.978518 0.980173 0.998571
0.975305 0.988892 0.986929 0.999322
1.00558 1 1.00761 0.997988
1.02009 1.00052 1.02113 0.998466
1.01737 1 1.01931 0.998099
1.00942 1 1.01133 0.998111
1.01319 0.998859 1.01611 0.998267
0.955456 0.966841 0.989947 0.99826
1.04828 0.996498 1.05336 0.998679
1.00595 0.981814 1.02523 0.999372
1.009 0.998296 1.01232 0.998424
0.976502 0.96096 1.01822 0.997993
1.00683 0.977085 1.03109 0.999374
1.03486 0.987135 1.04961 0.998792
0.850514 0.928822 0.945879 0.968085
0.823961 0.904724 0.942194 0.966608
0.840115 0.922105 0.950234 0.9588
1.01167 0.992935 1.01925 0.999627
0.959767 0.953294 1.00864 0.99817
0.815248 0.903705 0.936513 0.963273
0.892515 0.911234 1.00473 0.974842
0.864597 0.93572 0.970261 0.952313
0.82676 0.926583 0.930022 0.959404
0.769919 0.908519 0.902956 0.938522
0.995585 0.97126 1.02527 0.999779
0.838595 0.923044 0.940064 0.966435
0.80648 0.904333 0.932651 0.956194
0.946081 0.945138 1.01005 0.991034
0.702951 0.852559 0.881287 0.935584
0.807606 0.882999 0.959313 0.953409
0.936522 0.943665 1.02117 0.971852
1.00207 0.959155 1.04594 0.998852
0.819402 0.903341 0.940445 0.964522
0.816047 0.913968 0.940855 0.94899
0.626777 0.764336 0.873004 0.939317
0.754981 0.859329 0.92338 0.951471
0.901484 0.923563 1.00542 0.97083
0.924483 0.940418 0.994722 0.988271
1.02666 0.986324 1.04141 0.999501
1.01672 0.980681 1.03718 0.999586
1.01117 0.984445 1.02765 0.999513
1.01126 0.999194 1.01305 0.999032
1.03149 0.994778 1.03743 0.999487
1.01433 0.986619 1.02879 0.999319
1.00838 0.999781 1.00981 0.998805
1.007 1 1.0082 0.998803
1.00862 0.999972 1.01072 0.997952
1.0207 1.00085 1.02337 0.996552
0.997607 1.00005 0.999621 0.997933
1.00364 1.00127 1.00604 0.996348
1.0045 1.00252 1.00653 0.995472
1.00614 1.00872 1.00191 0.995543
1.00808 1.01072 1.00108 0.996315
1.00516 1.00733 1.00195 0.995903
0.999522 1.002 1.00124 0.996296
1.00696 1.00887 1.0011 0.997011
1.01454 1.01732 1.00048 0.996789
1.00258 1.00041 1.00464 0.997544
1.00972 1.00968 1.00274 0.997305
1.01179 1.01385 1.00117 0.996799
1.00885 1 1.01063 0.998246
1.00693 1.00041 1.00859 0.997952
1.00706 1.00553 1.00383 0.997703
0.99992 1 1.00069 0.999234
1.00403 1 1.00549 0.99855
1.00712 1 1.00895 0.998188
1.00085 1 1.00211 0.998744
0.99958 1 1.0002 0.99938
0.999958 1 1 0.999958
0.999493 1 1 0.999493
0.999972 1 1 0.999972
1 1 1 1
0.99998 1 1 0.99998
1 1 1 1
1 1 1 1
0.998769 1 1 0.998769
0.999498 1 1 0.999498
0.998833 1 1 0.998833
0.999998 1 1 0.999998
0.999562 1 1 0.999562
0.998985 1 1 0.998985
1 1 1 1
1 1 1 1
0.999637 1 1 0.999637
1 1 1 1
1 1 1 1
1 1 1 1
0.836921 0.923433 0.938742 0.965456
0.821088 0.905099 0.940721 0.964345
0.832279 0.917923 0.948361 0.956069
1.00027 1 1.00198 0.99829
1.00054 1 1.00239 0.998155
0.998511 1 1 0.998511
0.998389 1 1 0.998389
0.998343 1 1 0.998343
0.998547 1 1.00022 0.998331
0.998314 1 1 0.998314
0.803129 0.910052 0.925863 0.953175
0.828746 0.929999 0.931076 0.957093
0.803348 0.902577 0.931006 0.95602
0.794112 0.936318 0.897884 0.944578
0.880308 0.933837 0.958144 0.983858
0.885897 0.917555 0.994602 0.970738
0.821338 0.896621 0.958591 0.955608
0.874165 0.927751 0.958457 0.98308
0.900077 0.919475 1.01116 0.968102
0.86843 0.93663 0.970961 0.954916
0.757757 0.899277 0.892629 0.943986
0.900609 0.932074 0.980221 0.985739
0.913927 0.929531 1.01596 0.967768
0.80842 0.891311 0.952784 0.951947
0.720313 0.862694 0.889885 0.938276
1.01561 1 1.01723 0.998406
1.00034 1 1.0022 0.998146
1.00283 1 1.00486 0.997982
0.998219 1 1 0.998219
0.963097 0.967297 0.997269 0.998385
1.00813 0.979804 1.02967 0.999264
1.00877 1 1.01068 0.998107
1.0111 0.998934 1.0139 0.998295
1.04031 0.993993 1.04783 0.998821
1.00776 0.999526 1.00983 0.998424
1.03706 0.987396 1.05159 0.998779
0.975733 0.960629 1.01911 0.996682
1.0052 0.967975 1.03896 0.999521
1.01101 0.988648 1.02373 0.998906
0.953392 0.930387 1.02855 0.99628
1.01093 0.964764 1.04859 0.999296
0.823356 0.903607 0.943053 0.966211
0.848517 0.927926 0.943412 0.969272
0.825659 0.905193 0.943162 0.967105
0.990814 0.96683 1.02501 0.999805
0.951994 0.94936 1.00766 0.995153
0.837554 0.921657 0.939535 0.967232
0.935444 0.946905 1.02078 0.967781
0.812223 0.890207 0.95549 0.9549
0.8073 0.906311 0.931493 0.956266
0.698707 0.840632 0.887049 0.937004
1.00326 0.961654 1.04428 0.999033
0.820637 0.906085 0.939029 0.964502
0.810256 0.909447 0.938961 0.948849
0.926977 0.940668 0.994598 0.990797
0.629428 0.775664 0.868008 0.934864
0.760365 0.857384 0.931898 0.951653
0.900545 0.920852 1.00984 0.968422
0.995272 0.967344 1.03162 0.997331
0.829513 0.921201 0.941573 0.956346
0.690741 0.80766 0.909243 0.940603
0.728809 0.840349 0.906177 0.957065
0.868591 0.904487 0.988541 0.971446
0.889248 0.920519 0.981212 0.984526
1.02209 0.98481 1.03828 0.99959
1.01281 0.981752 1.03214 0.999513
0.984626 0.979239 1.0062 0.999311
1.01902 0.98494 1.03522 0.999402
1.00586 0.992325 1.01476 0.998894
1.0019 1.0008 1.00333 0.997775
1.0068 1.00003 1.00903 0.997765
1.01845 1.00079 1.02129 0.996441
1.01029 1.00044 1.01432 0.995592
1.0054 1.00185 1.00722 0.996348
1.00518 1.00229 1.00754 0.995381
1.00183 1.00221 1.00448 0.99517
1.02161 1.02601 1 0.995711
1.01399 1.01746 1.00077 0.995833
1.00645 1.00882 1.00218 0.995486
1.00571 1.009 1.00013 0.996615
1.00686 1.00977 1.00074 0.996378
1.00509 1.00714 1.00212 0.995851
1.00408 1.00591 1.00112 0.99707
1.00684 1.00879 1.00108 0.996986
1.01458 1.01733 1.00043 0.996874
1.00585 1.00025 1.00777 0.99785
1.00336 1.00113 1.00463 0.997612
1.01104 1.01079 1.00288 0.997375
1.00287 1 1.00391 0.99897
1.00751 1 1.00928 0.998251
1.00648 1.00081 1.00773 0.99795
0.999926 1 1 0.999926
1.00049 1 1.00127 0.999227
1.0038 1 1.00526 0.998548
0.9998 1 1.00042 0.999376
0.99995 1 1 0.99995
1 1 1 1
0.999968 1 1 0.999968
1 1 1 1
1 1 1 1
1.00293 1 1.00465 0.99828
0.998971 1 1.00035 0.998624
0.999377 1 1 0.999377
0.998765 1 1 0.998765
0.999986 1 1 0.999986
0.9995 1 1 0.9995
0.99886 1 1 0.99886
1 1 1 1
0.999999 1 1 0.999999
0.999604 1 1 0.999604
1 1 1 1
1 1 1 1
1 1 1 1
0.811997 0.901566 0.935052 0.963211
0.834988 0.921152 0.938112 0.96626
0.821936 0.907412 0.939321 0.964316
1.00058 1 1.00229 0.998301
1.00191 1 1.00376 0.998158
1.00049 1 1.0023 0.998189
1.00131 1 1.00314 0.998168
1.00668 1 1.00857 0.998123
0.998423 1 1.00005 0.998376
0.998336 1 1 0.998336
0.998427 1 1.00009 0.998333
0.998319 1 1 0.998319
1.00941 1 1.01105 0.998379
0.802903 0.900648 0.939338 0.949043
0.803486 0.909038 0.927205 0.953281
0.830162 0.929248 0.93136 0.959211
0.760214 0.901594 0.893033 0.944186
0.865549 0.934438 0.972304 0.952662
0.869351 0.923423 0.958999 0.981695
0.909224 0.928242 1.00857 0.971187
0.896825 0.935114 0.975969 0.982669
0.92342 0.940494 1.01091 0.971251
0.822622 0.895708 0.9629 0.95379
0.720074 0.869142 0.883994 0.937211
0.911207 0.926848 0.998107 0.984989
0.9055 0.921676 1.01087 0.971884
0.740989 0.834024 0.929507 0.95583
0.660687 0.806802 0.872305 0.938773
1.01514 1 1.01617 0.998978
1.01698 1 1.01859 0.998418
1.00316 1 1.005 0.998166
0.977756 0.962989 1.02011 0.995317
1.00754 0.961805 1.04789 0.999678
1.0077 1 1.00929 0.998424
1.04043 0.986749 1.0557 0.998767
1.01272 0.991768 1.02224 0.998913
1.01679 0.972057 1.04677 0.999284
0.959301 0.940894 1.02342 0.996229
1.01692 0.992263 1.02552 0.999345
0.971496 0.957827 1.0176 0.99673
0.83996 0.921778 0.95055 0.958643
0.826324 0.905336 0.944164 0.966703
0.846332 0.926739 0.941031 0.970463
1.00481 0.96781 1.03907 0.999189
0.922745 0.937707 0.99742 0.98659
0.82435 0.908786 0.940501 0.964474
0.903912 0.928176 1.00549 0.968543
0.751582 0.840146 0.935901 0.955853
0.804077 0.904896 0.936601 0.948734
0.634047 0.788274 0.864593 0.930321
0.993404 0.965737 1.03117 0.997554
0.830353 0.918467 0.945353 0.956325
0.687153 0.805952 0.907745 0.939248
0.898088 0.92966 0.979773 0.985983
0.741883 0.847662 0.916287 0.955172
0.864275 0.911282 0.978574 0.969182
0.953374 0.952659 1.0049 0.995875
0.72521 0.825291 0.929691 0.945188
0.737643 0.840473 0.916488 0.957626
0.879755 0.930403 0.975304 0.969507
0.867443 0.918649 0.956868 0.986824
1.01181 0.97891 1.03411 0.999514
0.987396 0.97687 1.0115 0.999286
0.995324 0.992643 1.00426 0.998451
1.00246 0.983774 1.02004 0.998979
1.00172 1.00077 1.00309 0.99786
0.99796 1.002 0.999119 0.996844
1.01602 1.00068 1.01907 0.996329
1.00898 1.00086 1.01257 0.995596
0.999161 1.00197 1.00137 0.995835
1.00541 1.00197 1.00818 0.995291
1.00205 1.00317 1.0037 0.995204
1.01941 1.02357 1 0.995933
1.0431 1.04696 1 0.996312
1.03182 1.03615 1.00002 0.995796
1.02172 1.02609 1 0.99574
1.01644 1.0204 1 0.99612
1.01258 1.01578 1.00107 0.995779
1.00703 1.00919 1.00244 0.99543
1.00857 1.01183 1 0.996773
1.00414 1.00745 1.00002 0.99669
1.0054 1.00867 1.00032 0.996442
1.00147 1.00195 1.00208 0.997447
1.00339 1.005 1.0013 0.997107
1.00693 1.00889 1.0011 0.996961
1.0077 1 1.00918 0.998529
1.00653 1.00063 1.00807 0.997853
1.00418 1.00171 1.00479 0.997678
0.999874 1 1.00001 0.999866
1.00343 1 1.00448 0.998962
1.00681 1 1.00857 0.998257
0.999996 1 1 0.999996
0.999913 1 1 0.999913
1.00095 1 1.00173 0.99922
0.999942 1 1 0.999942
1 1 1 1
1 1 1 1
1.0054 1 1.00724 0.998177
1.00081 1 1.00234 0.998472
1.00368 1 1.00543 0.99826
0.999389 1 1.00014 0.999249
0.999188 1 1.00057 0.998622
0.999962 1 1 0.999962
0.999381 1 1 0.999381
0.998762 1 1 0.998762
1 1 1 1
0.99999 1 1 0.99999
0.999503 1 1 0.999503
1 1 1 1
1 1 1 1
1 1 1 1
0.826968 0.916138 0.941337 0.958921
0.815407 0.904084 0.936387 0.963186
0.835232 0.918609 0.9402 0.967067
0.999085 1.00051 1.00039 0.99819
1.00086 1 1.00256 0.998312
1.00175 1 1.00359 0.998162
1.00009 1 1.00193 0.99816
1.00043 1 1.00222 0.998212
1.00409 1 1.00588 0.998222
1.01206 1 1.01427 0.997824
1.01519 1 1.01703 0.998183
0.998341 1 1.00001 0.998336
0.998324 1 1 0.998324
1.00939 1 1.01105 0.998363
1.02294 0.999577 1.02483 0.998574
0.699307 0.81311 0.914714 0.940229
0.814101 0.911337 0.941514 0.948796
0.804349 0.908816 0.928349 0.953361
0.713575 0.861992 0.880812 0.939838
0.822789 0.898311 0.961247 0.952855
0.917707 0.933752 1.01547 0.96784
0.896675 0.927041 0.983577 0.983394
0.909754 0.926923 0.994435 0.98697
0.647945 0.798263 0.868681 0.934398
0.899601 0.920688 1.0086 0.968768
0.758725 0.854107 0.932059 0.953079
0.910246 0.93601 0.98409 0.988196
0.889692 0.921721 0.991976 0.973059
0.728941 0.840512 0.90749 0.955667
0.996866 1 0.997325 0.999539
1.0144 1 1.01544 0.998983
1.0171 1 1.0187 0.998428
0.958557 0.942641 1.02071 0.996255
1.0229 0.979407 1.04516 0.999273
1.014 0.995467 1.01972 0.99892
1.01614 0.992531 1.02446 0.999344
0.967948 0.956373 1.01538 0.996775
0.99254 0.986014 1.00881 0.997829
0.75677 0.841142 0.950377 0.946669
0.837111 0.920949 0.946316 0.960532
0.826567 0.906243 0.943027 0.967185
0.994592 0.964886 1.03316 0.997705
0.888222 0.925356 0.972657 0.986855
0.829 0.915874 0.946466 0.956343
0.871093 0.90389 0.993293 0.970223
0.74709 0.86217 0.909839 0.952392
0.692868 0.814341 0.903778 0.941418
0.954066 0.949969 1.0084 0.995946
0.724049 0.824883 0.926527 0.947366
0.737289 0.842725 0.916187 0.954923
0.866979 0.919786 0.958356 0.983547
0.883755 0.935567 0.970999 0.972833
0.947473 0.963292 0.985541 0.998008
0.758934 0.854313 0.930379 0.954832
0.916939 0.971864 0.968257 0.974416
0.875584 0.93221 0.955206 0.983302
0.990293 0.974984 1.01645 0.999266
0.986837 0.992416 0.995831 0.998541
0.994699 1.00114 0.995984 0.997571
1.00212 1.00091 1.00327 0.997945
1.00122 1.00249 1.00192 0.996822
1.00043 1.00421 0.999428 0.996808
1.00774 1.00124 1.01094 0.995601
0.999048 1.00155 1.00167 0.995844
1.02389 1.0284 0.998855 0.996758
1.00238 1.00398 1.00319 0.995237
1.01826 1.0224 1 0.995944
1.04373 1.04756 0.999429 0.996916
1.04614 1.04943 0.999894 0.996969
1.04555 1.04951 1 0.996227
1.04347 1.04729 1 0.996357
1.03338 1.03751 1 0.996019
1.03017 1.03446 1 0.995856
1.02143 1.02577 1 0.99577
1.02209 1.02572 1 0.996459
1.01669 1.02049 1.00014 0.996146
1.01127 1.01411 1.00148 0.995725
1.0046 1.00752 1 0.997105
1.00845 1.01172 1 0.996768
1.00256 1.00581 1 0.996764
1.00343 1.00024 1.00512 0.998083
1.00312 1.00335 1.00234 0.997443
1.00238 1.0038 1.00145 0.997144
1.00088 1 1.00116 0.999726
1.00564 1 1.00712 0.998525
1.00628 1.00105 1.00739 0.997856
1 1 1 1
1.00017 1 1.00033 0.999844
1.00334 1 1.00439 0.998955
1 1 1 1
0.999903 1 1 0.999903
1 1 1 1
1.00024 1.00036 1.00183 0.998055
1.00419 1 1.00604 0.998162
1.00441 1 1.00609 0.998327
1.00014 1 1.00102 0.999114
1.0013 1 1.00283 0.99847
1.00384 1 1.00561 0.99824
0.999929 1 1 0.999929
0.999263 1 1.00001 0.999254
0.998946 1 1.00033 0.998619
1 1 1 1
0.999969 1 1 0.999969
0.999385 1 1 0.999385
1 1 1 1
0.999994 1 1 0.999994
1 1 1 1
0.73035 0.826057 0.938284 0.942295
0.828324 0.917388 0.941576 0.95894
0.819083 0.906869 0.937742 0.963164
1.00136 1.00018 1.00302 0.998169
1.00535 1.00257 1.00494 0.997842
1.0092 1.00008 1.01113 0.998005
1.00141 1 1.00327 0.998151
1.00017 1 1.00194 0.998235
1.00441 1 1.0061 0.998319
1.01402 1 1.01591 0.998144
1.01165 1.00003 1.01376 0.997882
1.01432 1.0006 1.01598 0.997773
0.987304 1.00099 0.987342 0.99897
1.00787 1 1.00954 0.998346
1.01896 0.999774 1.02067 0.998551
0.737736 0.839082 0.922949 0.952619
0.684263 0.799462 0.912733 0.937738
0.821524 0.917498 0.943868 0.948646
0.635923 0.788835 0.866923 0.929903
0.760489 0.856625 0.928591 0.956044
0.887914 0.915372 0.999313 0.970671
0.916261 0.932899 0.99777 0.984361
0.899079 0.928034 0.982621 0.985935
0.731553 0.834984 0.918095 0.954289
0.87171 0.911105 0.986129 0.970219
0.887126 0.933674 0.96243 0.987236
0.86959 0.933766 0.960053 0.970022
1.0029 1 1.00388 0.999021
0.99704 1 0.997555 0.999484
1.01382 1 1.01485 0.998987
0.964629 0.95535 1.01293 0.996823
1.01503 0.992083 1.0238 0.999344
0.993498 0.9875 1.00832 0.997768
0.979254 0.991205 0.991078 0.996837
0.771642 0.87104 0.924164 0.958581
0.756326 0.839532 0.950994 0.947314
0.838393 0.922438 0.944413 0.962383
0.957321 0.956769 1.00449 0.996106
0.869838 0.919609 0.961196 0.984062
0.72511 0.825447 0.927121 0.947499
0.864503 0.925769 0.963062 0.969638
0.748794 0.848223 0.921646 0.957829
0.950696 0.965759 0.987416 0.996948
0.768828 0.864157 0.929895 0.956759
0.911566 0.971622 0.966896 0.970311
0.879174 0.93465 0.954129 0.985868
0.958891 0.984183 0.976366 0.997884
0.921604 0.979597 0.966158 0.973752
0.921997 0.975389 0.95656 0.988188
0.977759 0.991143 0.987864 0.998617
0.990943 1.00154 0.991853 0.997543
0.981929 1.00774 0.976899 0.997427
1.00314 1.00279 1.00356 0.996801
0.999772 1.00434 0.998648 0.996803
1.02354 1.0362 0.990296 0.99746
0.998866 1.00116 1.00186 0.995853
1.02284 1.02813 0.998117 0.996739
1.03867 1.04935 0.992312 0.9975
1.01734 1.02147 1 0.995955
1.0427 1.04709 0.998897 0.996909
1.04401 1.05028 0.99656 0.997466
1.04278 1.04642 0.999179 0.997344
1.04702 1.05042 0.999725 0.99704
1.04516 1.0485 1 0.996819
1.04703 1.05093 1 0.996291
1.04556 1.0495 1 0.996245
1.04414 1.04791 1 0.996402
1.03483 1.03871 1 0.996262
1.03507 1.03918 1 0.99605
1.02855 1.03277 1 0.995916
1.01612 1.01937 1 0.996807
1.02136 1.025 1 0.996456
1.01689 1.02062 1.00017 0.996172
0.999204 1.00116 1.00026 0.997782
1.00617 1.0091 1 0.997102
1.00901 1.01228 1 0.996763
1.00176 1 1.00228 0.99948
1.00325 1.00047 1.00471 0.998084
1.00534 1.00491 1.003 0.99744
1 1 1 1
1.0016 1 1.0019 0.999701
1.00471 1 1.0062 0.998522
0.999995 1 1 0.999995
1.00073 1 1.0009 0.999829
1 1 1 1
0.999001 1.00105 1 0.99795
1.00121 1.00025 1.00289 0.998072
1.00448 1 1.00631 0.998185
1.00234 1 1.0042 0.998146
1.0047 1 1.00638 0.998327
1.00204 1 1.0031 0.998949
0.999884 1 1 0.999884
0.999922 1 1.00081 0.999116
1.00234 1 1.00388 0.998467
1 1 1 1
0.999939 1 1 0.999939
0.999258 1 1 0.999258
1 1 1 1
0.999977 1 1 0.999977
1 1 1 1
0.76713 0.859302 0.933218 0.956622
0.733015 0.828085 0.938731 0.942968
0.828305 0.917772 0.941148 0.958953
1.00392 1 1.00579 0.998148
1.01141 1 1.01359 0.997848
1.00311 1.00157 1.00363 0.997917
1.00355 1.00563 1.00091 0.997024
1.01149 1.00124 1.01242 0.997853
1.01266 1 1.01458 0.998108
1.0098 1 1.01189 0.99794
1.01705 1.00064 1.01859 0.997856
0.999263 1.00239 0.999327 0.997554
0.977901 1.00174 0.97762 0.99855
0.976277 1.00035 0.978179 0.997705
0.98733 1.00085 0.987469 0.999008
1.01354 1 1.01503 0.998528
0.900651 0.962231 0.962465 0.972506
0.733759 0.834698 0.921572 0.953882
0.682879 0.799506 0.910025 0.938575
0.729037 0.838388 0.913978 0.951413
0.882303 0.922275 0.986049 0.970195
0.903126 0.924326 0.988655 0.988277
0.887988 0.932598 0.962833 0.98892
0.889925 0.939096 0.973105 0.973831
0.913952 0.968209 0.955384 0.988045
0.993863 1.00132 0.994326 0.998218
1.00218 1 1.00318 0.998999
0.99739 1 0.99796 0.999428
0.995513 0.990292 1.00754 0.997748
0.985018 0.994363 0.993517 0.997067
0.897808 0.966689 0.954639 0.972876
0.77865 0.869507 0.933897 0.958893
0.754987 0.836367 0.952222 0.947993
0.955693 0.971016 0.988344 0.995828
0.88415 0.940536 0.95584 0.983481
0.76615 0.860842 0.930686 0.956285
0.903816 0.960544 0.966242 0.973816
0.966125 0.983886 0.98395 0.997965
0.931125 0.989563 0.965489 0.97458
0.918909 0.971137 0.959976 0.98567
0.976619 1.00385 0.975448 0.997359
0.94972 0.993473 0.963852 0.991812
0.991448 1.00397 0.989966 0.997538
0.980771 1.00749 0.976041 0.997379
0.995753 1.03539 0.963911 0.997724
0.999206 1.0043 0.998123 0.996798
1.02474 1.03695 0.990773 0.997432
1.03582 1.05712 0.982027 0.997783
1.02166 1.02781 0.997286 0.996719
1.03825 1.04949 0.991794 0.997476
1.03342 1.04905 0.987359 0.997709
1.04142 1.04641 0.998321 0.996902
1.04387 1.05061 0.996129 0.997445
1.04132 1.04939 0.994754 0.997545
1.04299 1.04684 0.998911 0.997399
1.04132 1.04479 0.999521 0.997156
1.04768 1.0512 0.999535 0.997112
1.04501 1.04835 1 0.99681
1.04707 1.05063 1 0.996612
1.04423 1.04808 1 0.996325
1.04684 1.05075 1 0.996279
1.04555 1.04948 1 0.996263
1.02934 1.03285 1 0.996595
1.03459 1.03846 1 0.99627
1.03686 1.04094 1 0.99608
1.00253 1.00499 1 0.997555
1.01588 1.01914 1 0.996805
1.02043 1.02406 1 0.996453
1.00029 1 1.00109 0.999201
1.00045 1.00217 1.0005 0.997783
1.00743 1.01037 1 0.997098
1 1 1 1
1.00152 1 1.00207 0.999455
1.00258 1.00069 1.00381 0.998085
1 1 1 1
1.00191 1 1.00223 0.999676
1 1 1 1
1.00443 1.00729 1 0.997158
0.999426 1.00149 1 0.997936
1.0004 1.00018 1.00226 0.997969
1.0027 1 1.00461 0.998091
1.00387 1 1.00573 0.998152
1.00394 1 1.00523 0.998714
1.00535 1 1.00703 0.998327
1.00178 1 1.00283 0.998949
1.00006 1 1.00024 0.999822
1 1 1 1
0.999896 1 1 0.999896
0.999518 1 1.0004 0.999118
1 1 1 1
0.999949 1 1 0.999949
1 1 1 1
0.92114 0.980203 0.963115 0.975733
0.767997 0.866062 0.926149 0.95748
0.737319 0.830946 0.942371 0.941586
1.01292 1 1.01526 0.997691
1.00103 1.00108 1.00196 0.997992
1.00961 1.0013 1.01052 0.997805
1.00461 1.00638 1.00113 0.997109
1.01486 1.01811 1.00016 0.996648
0.999768 1.00235 1 0.997421
1.02113 1.00099 1.02224 0.997937
1.00026 1.00305 0.999863 0.997354
0.983951 1.00207 0.983357 0.998533
0.995548 1.00176 0.996198 0.997588
0.973829 1.00341 0.972683 0.997779
0.994704 1.00136 0.996061 0.997286
0.978231 1.00082 0.979556 0.99783
0.991375 1.00076 0.991562 0.999048
0.921932 0.97526 0.956752 0.98805
0.907138 0.968376 0.963148 0.972605
0.739349 0.835975 0.923898 0.957265
0.88873 0.940079 0.975103 0.969515
0.89467 0.932871 0.968823 0.989912
0.916168 0.963745 0.958789 0.991495
0.983415 1.00377 0.982289 0.997388
0.991823 1.00067 0.992964 0.998183
1.0015 1 1.00253 0.998978
0.986694 0.996453 0.992909 0.997278
0.935383 0.973554 0.972077 0.98839
0.913063 0.973695 0.960056 0.976745
0.766678 0.863594 0.928406 0.956238
0.965346 0.979837 0.987143 0.998042
0.923609 0.976681 0.95778 0.987347
0.934552 0.987352 0.970468 0.975326
0.969348 1.00205 0.969874 0.997412
0.948432 0.989419 0.967257 0.991024
0.970144 1.02452 0.949378 0.997414
0.991814 1.01709 0.978806 0.996267
0.978608 1.00725 0.974175 0.997324
0.993478 1.03364 0.963346 0.997719
1.00461 1.05783 0.951848 0.997729
1.02653 1.03827 0.991271 0.997404
1.03552 1.05688 0.981979 0.997763
1.03184 1.05363 0.981616 0.99766
1.0383 1.04988 0.991491 0.997452
1.03344 1.04845 0.987958 0.99769
1.04136 1.05503 0.989502 0.997513
1.04397 1.05107 0.995805 0.997424
1.03934 1.04724 0.994909 0.997537
1.04199 1.04836 0.996656 0.997265
1.04333 1.04737 0.998687 0.997454
1.0417 1.04511 0.999533 0.997202
1.04561 1.04894 0.999995 0.996828
1.04494 1.0483 1 0.996802
1.04713 1.0507 1 0.9966
1.04628 1.04993 1 0.996517
1.03713 1.04076 1 0.996509
1.04434 1.0482 1 0.996326
1.04659 1.05051 1 0.996268
1.00945 1.01212 1 0.997356
1.02832 1.03183 1 0.996599
1.03427 1.03813 1 0.996278
0.999165 1 1.00019 0.998974
1.00441 1.00688 1 0.997553
1.01549 1.01874 1 0.996803
1 1 1 1
0.999994 1 1.00081 0.999184
1.00163 1.00314 1.00071 0.997783
1 1 1 1
1.00147 1 1.00204 0.99943
1 1 1 1
1.0154 1.01872 1 0.996743
1.00658 1.00942 1 0.997187
1.0052 1.00708 1.00066 0.997476
0.999205 1.00129 1 0.997922
1.00015 1.00004 1.00219 0.997923
1.00269 1.00031 1.00398 0.998404
1.00332 1 1.00521 0.998119
1.00416 1 1.00545 0.998716
1.00141 1 1.00168 0.99973
1.00191 1 1.00297 0.998949
1.00002 1 1.00019 0.999833
1 1 1 1
1 1 1 1
0.999908 1 1 0.999908
1 1 1 1
0.925785 0.975648 0.959669 0.988771
0.912232 0.979418 0.95792 0.972318
0.761574 0.858893 0.924658 0.958941
1.03069 1.03426 1.00007 0.996477
1.00781 1.00109 1.00897 0.997759
1.00575 1.00722 1.00135 0.997195
0.999978 1.00258 1 0.997407
1.01375 1.01675 1.00042 0.996629
1.0039 1.00671 0.999854 0.997355
0.999877 1.00273 1 0.997154
0.985637 1.00169 0.985435 0.998515
0.993411 1.00213 0.993685 0.997599
0.967457 1.00239 0.967417 0.997662
1.00457 1.01172 0.995994 0.996927
0.998833 1.00696 0.994593 0.997324
0.995351 1.00199 0.996111 0.997253
0.979068 1.00134 0.979765 0.997955
0.981492 1.00613 0.977583 0.997886
0.916886 0.972652 0.955333 0.98674
0.907559 0.969842 0.961629 0.97312
0.910544 0.957372 0.961407 0.989266
0.986195 1.00525 0.982883 0.998127
0.991793 1.0002 0.993442 0.998141
0.983214 1.00668 0.980751 0.995856
0.920878 0.9588 0.970315 0.989832
0.900653 0.97061 0.953672 0.973002
0.966447 0.999901 0.969001 0.997464
0.955864 0.991424 0.973876 0.989995
0.974034 1.02579 0.951899 0.997527
0.994442 1.01682 0.981391 0.996539
0.992392 1.04097 0.955659 0.997564
1.0436 1.05922 0.987804 0.997418
0.990521 1.03132 0.962639 0.997714
1.00911 1.05916 0.95493 0.997714
1.02099 1.06539 0.960705 0.997517
1.03446 1.05614 0.981692 0.997743
1.02976 1.05228 0.980896 0.997657
1.04089 1.06156 0.983092 0.997396
1.0331 1.04768 0.98839 0.997671
1.03985 1.05374 0.989269 0.997526
1.04387 1.05415 0.993014 0.997215
1.03725 1.04505 0.994996 0.997529
1.0425 1.04884 0.996686 0.997264
1.04777 1.05171 0.999311 0.996938
1.04202 1.04538 0.999541 0.997248
1.046 1.04928 0.999997 0.996872
1.04832 1.0519 1 0.996589
1.04718 1.05076 1 0.996589
1.04603 1.04971 1 0.9965
1.03978 1.04338 1 0.996544
1.01562 1.01844 1 0.997233
1.03643 1.04005 1 0.996524
1.04447 1.04832 1 0.996326
0.999067 1.00024 1 0.998824
1.0109 1.01358 1 0.997355
1.0275 1.03101 1 0.996602
1 1 1 1
0.999027 1.00001 1.00005 0.998961
1.00648 1.00895 1 0.997551
1 1 1 1
0.99958 1 1.00041 0.999167
1 1 1 1
1.02996 1.03363 1 0.996454
1.01738 1.02071 1 0.996741
1.01479 1.01777 1 0.997071
1.00911 1.01192 1.00001 0.997216
1.00433 1.00632 1.00056 0.997469
1.00252 1.00237 1.00208 0.998075
0.999834 1 1.00196 0.997878
1.00337 1.00008 1.0049 0.998405
1.00167 1 1.00208 0.999587
1.00357 1 1.00486 0.998717
1.00061 1 1.00087 0.999741
1 1 1 1
0.999843 1 1 0.999843
1 1 1 1
1 1 1 1
0.97846 1.01057 0.970542 0.997618
0.920423 0.972926 0.959219 0.986257
0.910446 0.970339 0.961263 0.976087
1.02147 1.02462 1.00001 0.996913
1.04095 1.04454 1 0.996562
1.02877 1.0322 1.00013 0.996548
1.00049 1.00311 1 0.997392
1.01267 1.01537 1.00073 0.996609
1.00502 1.00874 0.998976 0.997331
1.0224 1.02748 0.998176 0.996875
0.992831 1.00322 0.992012 0.997611
0.963993 1.00189 0.964545 0.997544
1.00566 1.0135 0.995228 0.99702
1.02309 1.03303 0.993602 0.996755
1.00364 1.02528 0.981297 0.997547
1.00214 1.00886 0.996053 0.99728
0.996783 1.00262 0.996946 0.997219
0.985958 1.00789 0.980067 0.998138
0.920605 0.97533 0.957943 0.985332
0.986217 1.00554 0.981873 0.998887
1.0234 1.04626 0.98008 0.998023
0.980875 1.00539 0.979546 0.995984
0.924477 0.969814 0.965213 0.987608
0.977041 1.02737 0.95327 0.997635
0.996831 1.01704 0.983248 0.996826
0.989919 1.04144 0.952715 0.997707
1.04293 1.06066 0.985817 0.997436
1.03831 1.07137 0.971644 0.997424
1.0731 1.09126 0.985759 0.997562
1.01357 1.06125 0.957279 0.997698
1.02659 1.06675 0.964742 0.997517
1.04421 1.07133 0.977318 0.997301
1.02794 1.05108 0.980291 0.997653
1.04062 1.06066 0.983674 0.997396
1.04438 1.05986 0.988178 0.99718
1.03842 1.05248 0.989077 0.997539
1.0444 1.05466 0.993034 0.997211
1.04921 1.05571 0.996888 0.996945
1.04299 1.0493 0.996718 0.997261
1.04811 1.05203 0.999338 0.996937
1.05152 1.05508 1 0.996623
1.04638 1.04962 1 0.996915
1.0478 1.05138 1 0.996604
1.04281 1.04643 1 0.996533
1.04583 1.04952 1 0.996483
1.03971 1.04332 1 0.996542
1.0179 1.02079 1 0.997168
0.999886 1.00112 1 0.998766
1.01582 1.01864 1 0.997233
1.03588 1.03948 1 0.996538
1 1 1 1
0.999243 1.00043 1 0.998813
1.01244 1.01512 1 0.997355
1 1 1 1
0.998947 1 1 0.998947
1 1 1 1
1.03848 1.04222 1 0.996408
1.02952 1.03319 1 0.996446
1.02339 1.0267 1 0.99677
1.01868 1.02201 1 0.996738
1.01369 1.01666 1 0.997078
1.00503 1.00691 1.00035 0.997787
1.00292 1.005 1.00046 0.997463
1.0022 1.00159 1.00254 0.998077
1.00052 1 1.00116 0.999363
1.00494 1 1.00654 0.998407
1.00161 1 1.002 0.999604
1 1 1 1
1.0003 1 1.00055 0.999753
1 1 1 1
1 1 1 1
1.00505 1.03979 0.968525 0.998001
0.975399 1.00952 0.969283 0.996819
0.921187 0.974805 0.957471 0.986971
1.03565 1.03902 1 0.996757
1.02293 1.0259 1 0.997111
1.05584 1.05941 0.99999 0.99664
1.04151 1.04512 1 0.996546
1.02689 1.03019 1.00018 0.99662
1.04657 1.05418 0.996123 0.996643
1.00617 1.01098 0.997929 0.997309
1.02256 1.02708 0.998786 0.996812
1.0422 1.0641 0.98244 0.996924
1.00551 1.01509 0.993429 0.997114
1.02363 1.03373 0.993516 0.996695
1.00477 1.02746 0.98029 0.997582
1.00282 1.00911 0.996524 0.997234
0.99099 1.00965 0.983114 0.998375
1.0588 1.08212 0.980799 0.997603
1.026 1.04591 0.982887 0.998049
0.979699 1.00414 0.979475 0.996108
0.988168 1.04112 0.951185 0.997849
1.04132 1.06093 0.984018 0.997455
1.0337 1.07031 0.968265 0.997447
1.07479 1.09346 0.985337 0.997554
1.0618 1.08501 0.981124 0.997441
1.03191 1.06775 0.968837 0.997517
1.04495 1.0707 0.978578 0.997311
1.04571 1.06518 0.984473 0.997207
1.04032 1.05973 0.984251 0.997395
1.04439 1.05965 0.988408 0.997161
1.04793 1.05819 0.993359 0.996932
1.04495 1.05521 0.993056 0.997208
1.04948 1.05596 0.99691 0.996941
1.05443 1.05827 0.999725 0.996642
1.04848 1.05237 0.999364 0.996935
1.05138 1.05494 1 0.996626
1.04692 1.0506 1 0.996498
1.04729 1.05085 1 0.996618
1.04282 1.04644 1 0.996539
1.01881 1.02177 1 0.997098
1.03961 1.04322 1 0.996541
1.01812 1.02102 1 0.997166
1.00074 1.00176 1 0.99898
0.999604 1 1 0.999604
1.00011 1.00125 1 0.998858
1.01563 1.01845 1 0.997232
1 1 1 1
0.999342 1.00054 1 0.9988
1 1 1 1
1.06145 1.06493 1 0.996733
1.04738 1.05102 1 0.996536
1.03936 1.0431 1 0.996415
1.03131 1.0348 1 0.99663
1.0295 1.03318 1 0.996438
1.02457 1.02789 1 0.996768
1.01009 1.01258 1 0.997544
1.01311 1.01607 1 0.997085
1.00367 1.00542 1.00048 0.997789
0.999214 1 1.00012 0.999092
1.00161 1.00071 1.00282 0.998079
1.00079 1 1.00141 0.999383
1 1 1 1
1.0011 1 1.00148 0.999621
1 1 1 1
1 1 1 1
1.05127 1.08048 0.975544 0.99735
1.00949 1.04612 0.966871 0.998051
0.97226 1.00962 0.966834 0.996033
1.05243 1.05762 0.998424 0.99667
1.03255 1.03586 1 0.996807
1.0241 1.02687 1 0.997305
1.05439 1.05793 0.999996 0.996657
1.04212 1.04575 1 0.996529
1.05394 1.07408 0.984294 0.996904
1.04315 1.05115 0.995773 0.996603
1.02249 1.02623 0.9996 0.99675
1.04044 1.06219 0.982554 0.996921
1.02715 1.03672 0.994119 0.996634
1.00993 1.03397 0.979082 0.997625
1.06202 1.08188 0.984061 0.99754
1.06199 1.08459 0.981484 0.997638
1.0277 1.04584 0.984554 0.998075
1.03065 1.07057 0.965152 0.997468
1.07747 1.09662 0.984955 0.997547
1.06188 1.08595 0.980335 0.997448
1.05218 1.06696 0.988811 0.997305
1.04566 1.06999 0.979889 0.997321
1.0461 1.06491 0.985096 0.997194
1.04929 1.06032 0.992601 0.996968
1.04445 1.05948 0.988637 0.997142
1.04866 1.05891 0.993375 0.99693
1.05634 1.06105 0.998898 0.996654
1.04973 1.05619 0.996935 0.996937
1.05463 1.05848 0.999719 0.996643
1.04987 1.0536 1 0.996455
1.05126 1.05482 1 0.996629
1.04701 1.05068 1 0.996503
1.02 1.02306 1 0.997006
1.04282 1.04644 1 0.996545
1.01947 1.02244 1 0.997098
1.00064 1.00165 1 0.998993
1.01838 1.02128 1 0.997165
1.00079 1.00181 1 0.998974
0.999628 1 1 0.999628
0.99981 1 1 0.99981
1.00054 1.00159 1 0.998958
1 1 1 1
1.05586 1.06071 0.998685 0.996735
1.05245 1.05603 1 0.996607
1.06027 1.06364 0.999969 0.996858
1.04189 1.04547 1 0.996573
1.04944 1.0531 1 0.996524
1.04023 1.04397 1 0.996421
1.03233 1.03583 1 0.996622
1.01516 1.01786 1 0.997343
1.02551 1.02884 1 0.996765
1.00829 1.01077 1 0.997545
0.999054 1.00017 1 0.998884
1.00216 1.00385 1.00052 0.997792
0.9995 1 1.00039 0.999111
1 1 1 1
1.00118 1 1.00178 0.999403
1 1 1 1
1 1 1 1
1.05275 1.07578 0.981302 0.997237
1.04811 1.07712 0.975656 0.997346
1.01223 1.04959 0.966244 0.998093
1.05364 1.06654 0.991055 0.996823
1.04954 1.05499 0.998156 0.99667
1.02983 1.03307 1 0.996859
1.05274 1.05625 1 0.996674
1.05241 1.07218 0.984629 0.99688
1.03966 1.04803 0.995433 0.996563
1.0342 1.0555 0.982845 0.996917
1.05631 1.07062 0.989238 0.997367
1.06033 1.07999 0.984258 0.997501
1.06497 1.08656 0.982409 0.997674
1.05084 1.0618 0.99245 0.997205
1.06135 1.08649 0.979353 0.997455
1.05209 1.06705 0.988657 0.997291
1.05124 1.06123 0.993499 0.997071
1.0465 1.06464 0.98574 0.997181
1.0494 1.06048 0.992558 0.99697
1.05658 1.06237 0.997863 0.996673
1.04936 1.05959 0.993395 0.996929
1.05589 1.06061 0.998887 0.996655
1.05094 1.05471 1 0.996428
1.05473 1.05858 0.999713 0.996643
1.04996 1.05369 1 0.996459
1.02086 1.02401 1 0.996918
1.04703 1.0507 1 0.996507
1.02058 1.02364 1 0.997007
0.999994 1.00103 1 0.998967
1.02021 1.02318 1 0.997097
1.00049 1.00151 1 0.998981
0.999633 1 1 0.999633
1.0008 1.00183 1 0.998972
0.999637 1 1 0.999637
1 1 1 1
1.05406 1.06144 0.996393 0.99664
1.0549 1.05864 0.999896 0.996569
1.05756 1.06245 0.998657 0.996733
1.04825 1.05182 1 0.996607
1.05385 1.05741 0.999983 0.996643
1.05928 1.06254 0.999943 0.996982
1.0203 1.02318 1 0.997186
1.04162 1.04521 1 0.996563
1.05167 1.05535 1 0.996512
1.03334 1.03685 1 0.996614
1.01438 1.01708 1 0.997344
1.00034 1.00156 1 0.998784
1.00684 1.00931 1 0.997546
0.999134 1.00024 1 0.998899
1 1 1 1
0.99976 1 1.00063 0.999129
1 1 1 1
1 1 1 1
1.0508 1.06619 0.988418 0.997111
1.05272 1.07602 0.981072 0.997219
1.04739 1.07647 0.975574 0.997342
1.05306 1.06599 0.990997 0.996839
1.04631 1.05202 0.997891 0.99667
1.05197 1.0714 0.984956 0.996856
1.05267 1.06392 0.9922 0.997204
1.05653 1.07078 0.98931 0.997361
1.05876 1.07828 0.984401 0.997461
1.05127 1.06204 0.992614 0.997226
1.05047 1.05926 0.994661 0.997022
1.05199 1.06716 0.988482 0.997277
1.05148 1.06119 0.993801 0.997031
1.05604 1.06264 0.997011 0.996761
1.04954 1.06066 0.992513 0.996972
1.05614 1.06198 0.997814 0.996676
1.05108 1.05486 1 0.996413
1.05563 1.06038 0.998862 0.996656
1.05164 1.05541 1 0.99643
1.02105 1.02426 1 0.996862
1.0502 1.05393 1 0.996462
1.02112 1.02427 1 0.996919
0.99937 1.00046 1 0.998911
1.02124 1.0243 1 0.997007
0.99982 1.00087 1 0.99895
0.999611 1 1 0.999611
1.00031 1.00134 1 0.998973
0.999651 1 1 0.999651
0.999641 1 1 0.999641
1.0532 1.06303 0.993837 0.996898
1.05623 1.06045 0.999528 0.996489
1.05431 1.06272 0.995396 0.996668
1.05077 1.05441 1 0.996546
1.0541 1.05782 0.999925 0.996556
1.05923 1.06417 0.99863 0.996731
1.02288 1.02588 1 0.997081
1.04811 1.05171 1 0.996581
1.05504 1.05859 0.999963 0.996679
1.00139 1.00263 1 0.998761
1.02014 1.02302 1 0.997188
1.04164 1.04525 1 0.996553
1.01328 1.01598 1 0.997345
0.99986 1.00107 1 0.998795
1 1 1 1
0.998987 1.00007 1 0.998914
1 1 1 1
1 1 1 1
1.04957 1.06093 0.992172 0.997098
1.05112 1.06634 0.988591 0.997102
1.05214 1.07564 0.980894 0.997202
1.05252 1.0655 0.990934 0.996856
1.05098 1.05828 0.996107 0.99698
1.05279 1.06396 0.99226 0.997215
1.0568 1.07092 0.989439 0.997354
1.05173 1.06228 0.992801 0.997246
1.05059 1.05951 0.994539 0.997031
1.0563 1.06209 0.997795 0.996746
1.05176 1.06116 0.994129 0.996991
1.05634 1.06253 0.997452 0.99671
1.05067 1.05473 0.999676 0.996469
1.05563 1.06151 0.997776 0.996678
1.0518 1.05558 1 0.996415
1.02009 1.02335 1 0.996822
1.05207 1.05583 1 0.996432
1.02084 1.02405 1 0.996863
0.998827 1.00017 1 0.998657
1.02142 1.02457 1 0.99692
0.99916 1.00036 1 0.998801
1 1 1 1
0.999624 1.00069 1 0.998934
0.999635 1 1 0.999635
0.999663 1 1 0.999663
1.0514 1.05959 0.995264 0.996991
1.05514 1.06049 0.998328 0.996622
1.05366 1.06272 0.994576 0.996889
1.05095 1.05472 1 0.99642
1.05521 1.0598 0.999166 0.996501
1.05459 1.06404 0.994412 0.996696
1.02244 1.0256 1 0.996915
1.05082 1.05446 1 0.996547
1.05335 1.05705 0.999952 0.996543
1.00086 1.00209 1 0.998765
1.0223 1.02534 1 0.997042
1.04783 1.05146 1 0.996555
1 1 1 1
1.00109 1.00232 1 0.998772
1.01957 1.02245 1 0.99719
0.999639 1.00083 1 0.998808
1 1 1 1
1 1 1 1
1.04955 1.05666 0.996274 0.996991
1.04991 1.06105 0.992366 0.997105
1.05137 1.06646 0.988721 0.997094
1.05618 1.06116 0.998622 0.996685
1.05041 1.05805 0.995766 0.996992
1.05291 1.06402 0.992317 0.997226
1.05067 1.05975 0.99437 0.997041
1.05593 1.06186 0.997662 0.996747
1.04971 1.0536 0.999788 0.996527
1.05654 1.06236 0.997862 0.99666
1.05098 1.05489 0.999831 0.996462
1.01866 1.02199 1 0.996743
1.05266 1.05645 1 0.996417
1.01971 1.02296 1 0.996823
0.998622 1 1 0.998622
1.02065 1.02386 1 0.996863
0.998704 1.00005 1 0.998655
1 1 1 1
0.998845 1.00017 1 0.998672
0.999796 1 1 0.999796
0.999656 1 1 0.999656
1.0499 1.05674 0.996563 0.996948
1.05593 1.06048 0.999018 0.996694
1.05123 1.05931 0.995356 0.996999
1.05095 1.05474 1 0.996412
1.05617 1.06117 0.998678 0.996606
1.05409 1.06238 0.995303 0.996879
1.02132 1.02457 1 0.996827
1.05061 1.05437 1 0.996435
1.05413 1.0591 0.99879 0.996514
0.999762 1.00102 1 0.998742
1.02216 1.02534 1 0.996902
1.05085 1.05449 1 0.996547
1 1 1 1
1.0011 1.00233 1 0.998774
1.022 1.02508 1 0.997003
1 1 1 1
1.00093 1.00215 1 0.998783
1 1 1 1
1.05567 1.06053 0.998681 0.99673
1.0491 1.0562 0.996284 0.996976
1.05019 1.06111 0.992572 0.997111
1.04912 1.05296 0.999835 0.996523
1.05561 1.06089 0.998303 0.996706
1.04984 1.05782 0.995432 0.997004
1.05559 1.06163 0.997558 0.996748
1.04958 1.05356 0.999687 0.996527
1.01758 1.02091 1 0.996734
1.05131 1.05505 1 0.996454
1.01852 1.02182 1 0.996765
0.998579 1 1 0.998579
1.01925 1.02249 1 0.996824
0.99862 1 1 0.99862
1 1 1 1
0.998653 1 1 0.998653
1 1 1 1
0.99963 1 1 0.99963
1.05681 1.06141 0.99896 0.996707
1.04913 1.05651 0.996035 0.996969
1.05038 1.05412 1 0.996453
1.05648 1.06103 0.999017 0.996692
1.05111 1.0591 0.995434 0.997006
1.01963 1.02285 1 0.996853
1.05026 1.05405 1 0.996408
1.05723 1.06186 0.999043 0.996591
0.998918 1.00023 1 0.99869
1.02147 1.0247 1 0.996848
1.05023 1.05397 1 0.996451
1 1 1 1
1.00005 1.00131 1 0.998748
1.02196 1.02514 1 0.996889
1 1 1 1
1.00126 1.00248 1 0.998783
1 1 1 1
1.04916 1.05288 0.999915 0.996549
1.05558 1.06035 0.998788 0.996718
1.04867 1.05577 0.996307 0.996961
1.01693 1.02025 1 0.996748
1.04897 1.05287 0.999766 0.996524
1.05499 1.06061 0.997967 0.996728
1.04944 1.05353 0.999585 0.996527
1.01767 1.02101 1 0.996733
0.998555 1 1 0.998555
1.01839 1.02167 1 0.996786
0.998577 1 1 0.998577
1 1 1 1
0.998618 1 1 0.998618
1 1 1 1
1 1 1 1
1.05013 1.05385 1 0.996475
1.05651 1.0613 0.99873 0.996752
1.04833 1.05624 0.9955 0.996991
1.0186 1.02182 1 0.996855
1.04998 1.05372 1 0.99645
1.05704 1.06159 0.99902 0.996691
0.998643 1 1 0.998643
1.02013 1.02335 1 0.99685
1.04962 1.05341 1 0.996405
1 1 1 1
0.99918 1.00049 1 0.998693
1.02178 1.02499 1 0.996869
1 1 1 1
1.00028 1.00153 1 0.998754
1 1 1 1
1.01719 1.02045 1 0.996813
1.04891 1.05274 0.999836 0.996525
1.0555 1.06018 0.998877 0.996705
0.998574 1 1 0.998574
1.01708 1.0204 1 0.996746
1.04883 1.0528 0.999707 0.996524
1.01777 1.02111 1 0.996732
0.998556 1 1 0.998556
1 1 1 1
0.998574 1 1 0.998574
1 1 1 1
1 1 1 1
1.01782 1.02104 1 0.996844
1.04976 1.0535 0.999955 0.996499
1.05625 1.0612 0.99854 0.996797
0.998851 1 1 0.998851
1.0189 1.02211 1 0.996854
1.04955 1.0533 1 0.996446
1 1 1 1
0.998694 1.00005 1 0.998644
1.02048 1.0237 1 0.996848
1 1 1 1
0.999324 1.00063 1 0.998696
1 1 1 1
0.998563 1 1 0.998563
1.01734 1.02062 1 0.996792
1.04869 1.05262 0.999764 0.9965
1 1 1 1
0.998573 1 1 0.998573
1.01723 1.02055 1 0.996743
0.998554 1 1 0.998554
1 1 1 1
1 1 1 1
0.998814 1 1 0.998814
1.01807 1.02129 1 0.996844
1.04935 1.05314 0.999878 0.996522
1 1 1 1
0.998621 1 1 0.998621
1.0192 1.02242 1 0.996852
1 1 1 1
0.998833 1.00019 1 0.998645
1 1 1 1
0.999583 1 1 0.999583
0.9987 1 1 0.9987
1.01747 1.02077 1 0.996771
1 1 1 1
0.998574 1 1 0.998574
1 1 1 1
0.999597 1 1 0.999597
0.998714 1 1 0.998714
1.01835 1.02157 1 0.996844
0.999796 1 1 0.999796
0.998622 1 1 0.998622
1 1 1 1
1 1 1 1
0.998596 1 1 0.998596
1 1 1 1
0.999797 1 1 0.999797
0.998613 1 1 0.998613
1 1 1 1
1 1 1 1
1 1 1 1

VECTORS lamdaE float
1.0016 1.00006 0.993433
1.00117 1.00079 0.996739
1.0011 1.00029 0.993755
1.00167 1.00005 0.99332
1.00166 0.999943 0.993468
1.00159 1.0003 0.993225
1.00293 1.00045 0.990377
1.00118 1.00074 0.996723
1.00104 1.00013 0.997273
1.00058 1.00089 0.997284
1.00097 1.001 0.993331
1.00272 1.00123 0.988958
1.00115 0.999987 0.993969
1.00095 1 0.994042
1.00065 1.00053 0.994048
1.00132 1.00004 0.993677
1.00102 1.00068 0.99351
1.00125 1 0.993806
1.00316 1.00029 0.990228
1.00117 1.00002 0.996924
1.00155 1.0001 0.993431
1.00169 0.999973 0.993388
1.00302 1.00016 0.990548
1.00302 1.00019 0.990499
1.0016 1.00053 0.992892
1.00281 1.00093 0.990089
1.00526 1.00092 0.98577
1.00118 1.0007 0.996726
1.00127 1.00001 0.995422
1.00092 1.00063 0.995389
1.00106 1.0008 0.996778
1.00261 1.00138 0.988975
1.00157 0.999803 0.99349
1.00135 1.00016 0.99358
1.00331 1.00008 0.990803
1.00006 1.00108 0.997558
1.00313 1.00066 0.990625
1.00233 1.00193 0.988901
1.00478 1.00138 0.985385
1.00027 0.999681 0.997855
1.00118 0.999992 0.996915
1.00118 1.00002 0.995429
1.0011 0.99997 0.996978
1.00073 1.00005 0.994323
1.00284 0.999939 0.99014
1.00115 0.999953 0.997192
1.0033 1.00008 0.990863
1.00097 0.999959 0.994032
1.00086 1.00005 0.99413
1.0005 1.00107 0.993774
1.00337 1.0001 0.990095
1.00098 1.00004 0.995614
1.00118 1.00012 0.993784
1.00102 1.00103 0.993165
1.00134 0.999941 0.993739
1.00318 1.00012 0.990371
1.0031 1.00066 0.989949
1.00321 1.00009 0.990343
1.00525 1.0009 0.985802
1.00107 1 0.996974
1.00139 1.00008 0.993654
1.00258 0.999993 0.991874
1.00285 1.00017 0.99078
1.00305 1.00013 0.990516
1.00521 1.00023 0.986474
1.00524 1.00035 0.986253
1.00128 1.00055 0.993211
1.00239 1.00189 0.989776
1.00525 1.00123 0.985472
1.00528 1.00024 0.985644
1.00157 1.00003 0.996784
1.00096 1.00071 0.996956
1.00127 1.00053 0.996749
1.00255 1.00149 0.988982
1.00163 0.999921 0.996725
1.00145 1.00021 0.996803
1.00318 1.00002 0.989355
1.00033 1.00086 0.995775
1.0029 1.00068 0.989175
1.00219 1.00216 0.989845
1.00485 1.00123 0.985371
1.00055 1.00019 0.997444
1.00038 1.00223 0.992046
1.00334 0.999988 0.989199
1.00321 1.00013 0.98928
1.00526 1.00041 0.985626
1.0016 1.00262 0.991271
1.00509 1.00086 0.985361
1.00384 1.00276 0.985593
1.00533 1.00143 0.984294
1.00007 0.998848 0.998282
1.00011 0.999424 0.998035
1.0015 0.99999 0.996718
1.00123 0.99999 0.996893
1.00114 0.999977 0.996973
1.001 1.00001 0.995615
1.00288 0.999929 0.990838
1.00134 0.999957 0.995339
1.00321 1.00011 0.990149
1.0011 0.999982 0.996994
1.00268 0.999829 0.990455
1.00308 1.00005 0.99122
1.00497 0.999288 0.987336
1.00335 1.00003 0.990775
1.00523 0.99963 0.986557
1.00112 0.999995 0.994007
1.0008 1.00012 0.994141
1.00043 1.00154 0.993435
1.00098 0.999893 0.994088
1.00333 1.00013 0.990194
1.0034 0.999998 0.990195
1.00335 1.00039 0.989819
1.00524 1.00088 0.985833
1.00112 0.999983 0.996984
1.00103 1.00008 0.994006
1.00277 0.999949 0.990719
1.00301 1.00014 0.990595
1.00104 1.00098 0.994958
1.00278 1.00169 0.989825
1.00322 1.00007 0.990352
1.00522 1.00007 0.986654
1.00523 1.00122 0.985508
1.00524 1.00052 0.986134
1.00528 1.00024 0.985677
1.00266 0.999872 0.990464
1.00269 1.00006 0.991097
1.00489 0.999109 0.988173
1.0051 0.999691 0.987164
1.00522 1.00008 0.986575
1.00535 0.998507 0.987531
1.00059 1.0008 0.9972
1.0053 0.999515 0.986347
1.00179 1.00286 0.988694
1.00495 1.00156 0.984886
1.00528 1.00106 0.984903
1.00524 0.998162 0.987627
1.00096 1.003 0.990151
1.00212 1.00448 0.986837
1.00164 0.999939 0.996745
1.00143 1.00025 0.996786
1.0032 0.999989 0.98934
1.00054 1.00053 0.997335
1.00183 1.00247 0.989119
1.00286 1.00068 0.9892
1.00496 1.00112 0.985361
1.00037 1.00016 0.997594
1.00029 1.00228 0.992065
1.00336 1.00002 0.989983
1.00324 1.00018 0.990006
1.00525 1.00042 0.985601
1.00119 1.00281 0.989943
1.00515 1.00083 0.985345
1.00408 1.00237 0.985575
1.00534 1.00134 0.98445
1.00077 1.00256 0.9909
1.00017 1.00151 0.993137
1.00177 1.00468 0.987716
1.00526 1.00017 0.985884
1.00523 1.00063 0.985424
1.00529 0.999325 0.986656
1.00317 1.00327 0.98615
1.00532 1.00049 0.98545
1.00514 1.00209 0.983982
1.00531 1.00038 0.985243
1.00001 0.998356 0.998578
0.999997 0.998804 0.998407
1.00002 0.999297 0.9982
1.00069 1.00285 0.990835
1.00034 1.00058 0.997455
1.00163 0.999944 0.996704
1.00133 0.999996 0.9968
1.00304 1.00016 0.989504
1.00275 0.999932 0.990215
1.00112 0.999976 0.996958
1.00107 0.999976 0.99699
1.00266 0.999841 0.990448
1.003 1.00004 0.990512
1.00495 0.999293 0.987334
1.00321 1.00007 0.989292
1.00519 0.999668 0.986555
1.00262 0.999833 0.990528
1.00491 0.999168 0.987538
1.00507 0.999462 0.986988
1.00533 0.996566 0.989621
1.00527 0.999907 0.986188
1.00534 0.99741 0.988746
1.00108 0.999982 0.996984
1.00064 1.00014 0.994357
1.00279 0.999943 0.989711
1.00317 1.00014 0.990409
1.00032 1.00154 0.997155
1.00326 1.00131 0.989876
1.00339 1.00003 0.99019
1.00524 0.999892 0.986835
1.00525 1.00067 0.986012
1.0052 1.00121 0.985549
1.00528 1.00024 0.98571
1.00264 0.999865 0.990467
1.00285 1.00008 0.990913
1.00492 0.999085 0.987895
1.00513 0.999868 0.986996
1.00074 1.00083 0.997081
1.00206 1.00261 0.989578
1.00478 1.00188 0.985122
1.00523 1.00012 0.986532
1.00536 0.998138 0.987928
1.00529 1.00096 0.984987
1.0053 0.999653 0.986304
1.00524 0.998182 0.987642
1.00102 1.00291 0.990134
1.00214 1.00441 0.98684
1.00488 0.999235 0.987532
1.00498 0.999431 0.987715
1.00533 0.997222 0.988961
1.00538 0.997274 0.988691
1.00533 0.998725 0.987208
1.00526 0.995886 0.990167
1.00129 1.00307 0.989412
1.00526 0.997065 0.988744
1.00416 1.00257 0.985096
1.00532 1.00167 0.98407
1.00523 0.999668 0.986285
1.00521 0.99642 0.989543
1.00296 1.00372 0.986009
1.00137 1.00504 0.987624
1.0038 1.00228 0.986219
1.00324 0.999998 0.989293
1.00018 0.99998 0.997765
1.00017 1.00236 0.992081
1.00308 1.00019 0.989325
1.00526 1.00043 0.985575
1.00112 1.00299 0.989869
1.00425 1.00197 0.985556
1.00518 1.0008 0.985326
1.00534 1.00123 0.984605
1.00072 1.00268 0.99091
1.00007 1.00152 0.993171
1.00144 1.0048 0.987681
1.00526 1.00019 0.985856
1.00524 1.00063 0.985402
1.00529 0.999327 0.986633
1.00329 1.00309 0.986164
1.00531 1.00059 0.985344
1.00528 1.00203 0.983938
1.00532 1.00011 0.985447
1.00012 1.00067 0.993996
1.0026 1.00388 0.986866
1.00108 1.00462 0.988702
1.00293 1.00273 0.987412
1.00529 0.998642 0.987395
1.00529 1 0.985926
1.00523 0.997321 0.988529
1.00482 1.00212 0.984518
1.00524 0.998879 0.987081
1.00533 1.00134 0.984601
1.00533 0.999189 0.986447
1.00023 1.00218 0.992331
1.00028 0.999407 0.994981
1.00003 0.997837 0.998761
0.999979 0.998226 0.998649
0.99994 0.998661 0.998507
1.00025 1.00262 0.99173
1.00016 1.00022 0.997716
1.00075 1.00277 0.990797
1.00045 1.00063 0.997367
1.00319 1.0001 0.989293
1.00291 1.00002 0.989876
1.00515 0.999709 0.986552
1.00494 0.999303 0.987332
1.00268 0.999858 0.990447
1.00113 0.999965 0.996988
1.00264 0.999827 0.990531
1.0049 0.999178 0.987542
1.00506 0.999468 0.986985
1.00533 0.996585 0.989629
1.00525 0.999926 0.986164
1.00532 0.997394 0.988744
1.00488 0.999161 0.987592
1.00531 0.996413 0.989836
1.00536 0.99693 0.989215
1.00529 0.994938 0.991248
1.00529 0.997975 0.988138
1.00522 0.995244 0.990882
1.00265 0.999864 0.990477
1.00302 1.00006 0.990729
1.00495 0.99904 0.987619
1.00516 1.00002 0.986828
1.00088 1.00088 0.996942
1.00241 1.00243 0.990249
1.00478 1.00214 0.985354
1.00525 1.00016 0.986488
1.00536 0.997771 0.988324
1.00529 0.999797 0.986262
1.0053 1.00085 0.985069
1.00524 0.998201 0.987657
1.00106 1.00285 0.990117
1.0022 1.00431 0.986844
1.00489 0.999033 0.98772
1.00501 0.999399 0.987689
1.00532 0.997062 0.989138
1.00538 0.997695 0.988288
1.00136 1.00302 0.989412
1.00408 1.00277 0.985125
1.00532 1.00179 0.983946
1.00532 0.998947 0.987048
1.00524 0.995642 0.990402
1.00524 0.999436 0.986516
1.00526 0.99709 0.988741
1.00521 0.996381 0.989464
1.00297 1.00385 0.985963
1.00368 1.00257 0.986054
1.0014 1.0049 0.987668
1.00532 0.996993 0.989236
1.00537 0.99727 0.988877
1.00526 0.995237 0.990986
1.00527 0.995074 0.990952
1.00526 0.996087 0.989707
1.00522 0.994994 0.990921
1.00351 1.00337 0.98547
1.00522 0.995384 0.990321
1.00528 1.00256 0.98336
1.00526 1.00074 0.984931
1.0052 0.998007 0.987883
1.00518 0.995864 0.990069
1.00086 1.005 0.98832
1.00458 1.00253 0.984887
1.00293 1.00372 0.986192
1.00501 1.00215 0.984862
1.00525 1.00021 0.985829
1.00002 1.00148 0.993203
1.00057 1.00288 0.990929
1.00113 1.00486 0.987646
1.00525 1.00062 0.985377
1.00529 0.999331 0.986611
1.00342 1.00282 0.986182
1.00531 1.00201 0.983893
1.00531 1.0007 0.985239
1.00531 0.999846 0.98565
1.0001 1.00062 0.994038
1.0025 1.00373 0.986903
1.00088 1.00473 0.988684
1.00282 1.00279 0.987424
1.00529 0.998644 0.987372
1.00529 1 0.985903
1.00523 0.997309 0.988527
1.00492 1.00211 0.98451
1.00524 0.999055 0.986863
1.0053 1.00121 0.984579
1.00533 0.999048 0.986619
1.00022 0.999903 0.994627
1.00074 1.00393 0.989948
1.00383 1.00225 0.986129
1.00203 1.00416 0.987899
1.00375 1.00027 0.988503
1.00524 0.996481 0.989427
1.00523 0.998117 0.987672
1.00522 0.99609 0.989574
1.00504 1.00195 0.984343
1.00525 0.997836 0.987906
1.0051 1.00019 0.985767
1.00036 1.00241 0.991889
1.00034 1.00383 0.99054
1.00009 1.00201 0.992749
1.00019 1.00222 0.992328
1.00023 0.999141 0.995944
1.00026 0.999351 0.995381
1.00021 0.997429 0.99739
1.00003 0.997783 0.9988
0.999963 0.998131 0.998708
0.999914 1.002 0.992932
0.999976 0.999728 0.998086
1.00035 1.00253 0.991721
1.00027 1.0003 0.997611
1.00081 1.00268 0.990761
1.00057 1.00066 0.997278
1.00523 0.999943 0.986143
1.00505 0.999466 0.986983
1.00531 0.997401 0.988742
1.00532 0.996601 0.989637
1.00488 0.99919 0.987546
1.00263 0.999815 0.990529
1.00487 0.999162 0.987597
1.00531 0.99642 0.989839
1.00534 0.996948 0.989225
1.00529 0.994934 0.991244
1.0053 0.997967 0.988122
1.00523 0.995235 0.990895
1.00531 0.996445 0.989817
1.00528 0.994959 0.991268
1.00525 0.995 0.991176
1.00522 0.994961 0.991223
1.00524 0.995742 0.990267
1.00525 0.994898 0.990945
1.00489 0.998835 0.987909
1.00504 0.999389 0.987662
1.00532 0.996936 0.989315
1.00539 0.998118 0.987887
1.00145 1.00297 0.989417
1.00387 1.00311 0.985158
1.00532 1.00192 0.983823
1.00531 0.999159 0.986889
1.00523 0.995404 0.990638
1.00526 0.997115 0.988738
1.00525 0.999211 0.986746
1.0052 0.996322 0.989385
1.00298 1.00409 0.985915
1.00354 1.00272 0.985888
1.00139 1.00471 0.987711
1.00531 0.996797 0.989461
1.00536 0.99723 0.988889
1.00526 0.995104 0.991112
1.00525 0.995325 0.990729
1.00344 1.00355 0.985469
1.00526 1.00259 0.983405
1.00526 1.00091 0.984747
1.00526 0.996365 0.989434
1.00523 0.994957 0.990914
1.00521 0.997895 0.987857
1.00522 0.995407 0.990296
1.00518 0.995755 0.990112
1.00432 1.00281 0.98486
1.00489 1.00214 0.98463
1.00102 1.00487 0.988335
1.00275 1.00365 0.986212
1.00526 0.99496 0.991328
1.00526 0.995355 0.99073
1.0052 0.994946 0.991293
1.0052 0.994907 0.990999
1.00524 0.994975 0.990722
1.00526 0.994916 0.990789
1.00515 1.00278 0.983586
1.00521 0.994987 0.990615
1.00523 1.00211 0.983672
1.00523 0.9999 0.985676
1.0052 0.997246 0.988387
1.0052 0.995885 0.989958
1.00059 1.00447 0.989342
1.00153 1.0051 0.98675
1.0051 1.00302 0.983402
1.00473 1.00303 0.98529
1.00497 1.00358 0.983264
1.00007 1.00053 0.994079
1.0053 0.998645 0.98735
1.00065 1.00484 0.988668
1.00238 1.00369 0.986938
1.00277 1.00272 0.987433
1.00529 1 0.98588
1.00523 0.997296 0.988524
1.00517 1.00192 0.984498
1.00528 1.00114 0.984559
1.00523 0.999218 0.986646
1.00533 0.998924 0.98679
1.0002 0.999847 0.994659
1.00051 1.00407 0.989964
1.00407 1.00187 0.986207
1.00165 1.00427 0.987823
1.00369 1.00034 0.988087
1.00524 0.996453 0.989433
1.00523 0.9981 0.98767
1.00522 0.99604 0.989574
1.00507 1.00202 0.98426
1.00526 0.997923 0.987731
1.00515 1.00021 0.985904
1.00044 1.00308 0.991153
1.00111 1.00503 0.988689
1.00448 1.00165 0.985604
1.00267 1.00267 0.988002
1.0049 1.00041 0.987596
1.00528 0.995397 0.990268
1.00521 0.996846 0.988703
1.00523 0.995568 0.989766
1.00492 1.00126 0.984827
1.0051 0.998781 0.986826
1.00035 1.00242 0.99189
1.00046 1.00362 0.990333
1.00011 1.00401 0.990505
1.00051 1.0041 0.990287
1.00016 1.0038 0.990926
1.00001 1.00176 0.993097
1.00006 1.002 0.992762
1.00019 0.998984 0.996147
1.00018 1.00225 0.992326
1.00025 0.999103 0.995974
1.00025 0.997175 0.997533
1.00025 0.999326 0.995772
1.00012 0.997473 0.998138
1.00003 0.997684 0.998833
0.999806 1.00084 0.994208
0.999987 1.00188 0.992925
0.999787 0.998994 0.998519
1.0001 0.999788 0.997934
1.00044 1.0024 0.991712
1.00037 1.0004 0.997515
1.00531 0.997956 0.988107
1.00532 0.996945 0.989235
1.00525 0.995225 0.990908
1.00528 0.99493 0.99124
1.00531 0.996426 0.989842
1.00487 0.999163 0.987602
1.00531 0.996448 0.989816
1.00528 0.99496 0.991275
1.00526 0.994984 0.991189
1.00523 0.994962 0.991194
1.00523 0.995712 0.990281
1.00526 0.994906 0.990946
1.00527 0.99496 0.991298
1.00523 0.994945 0.991298
1.00524 0.99495 0.991085
1.00528 0.994943 0.991108
1.00527 0.995008 0.990721
1.00532 0.994899 0.990817
1.00531 0.996595 0.989685
1.00536 0.997183 0.988902
1.00527 0.994951 0.99124
1.00524 0.99558 0.990507
1.00338 1.00364 0.98547
1.00522 1.00258 0.983447
1.00525 1.00102 0.98456
1.00526 0.99664 0.98916
1.00523 0.994908 0.990907
1.00523 0.995429 0.990269
1.00522 0.997792 0.987832
1.00519 0.995617 0.990161
1.00397 1.00328 0.984836
1.00491 1.00218 0.984399
1.00121 1.00474 0.988351
1.00265 1.00347 0.986235
1.00527 0.99496 0.99132
1.00527 0.995315 0.990783
1.0052 0.994945 0.991267
1.0052 0.994913 0.991013
1.00495 1.00299 0.983603
1.00523 1.00219 0.983569
1.00522 0.999888 0.985659
1.00525 0.995026 0.990662
1.00525 0.994918 0.990765
1.00518 0.997265 0.988389
1.00521 0.994957 0.990598
1.0052 0.995701 0.990068
1.00506 1.00306 0.983467
1.00491 1.00371 0.983066
1.00413 1.00273 0.985323
1.00059 1.00429 0.989397
1.00143 1.0051 0.9869
1.00523 0.99495 0.991253
1.00523 0.99494 0.991102
1.00527 0.994903 0.990708
1.00525 0.994899 0.990722
1.00517 1.00318 0.982943
1.00523 0.994991 0.990492
1.00512 1.00148 0.984035
1.00518 0.999288 0.986208
1.00515 0.996958 0.988583
0.999987 1.00358 0.990974
1.0011 1.0051 0.988148
1.00211 1.00506 0.986478
1.00499 1.00409 0.982644
1.00498 1.00295 0.984251
1.00498 1.00322 0.982713
1.00018 0.999801 0.994691
1.00034 1.00423 0.989979
1.00523 0.996426 0.98944
1.00132 1.00442 0.987747
1.00426 1.00175 0.986289
1.00362 1.00057 0.987675
1.00522 0.998085 0.987668
1.00522 0.995992 0.989575
1.00519 1.002 0.984179
1.00517 1.00025 0.986043
1.00528 0.997996 0.987554
1.00038 1.00312 0.991159
1.00072 1.00508 0.988694
1.0048 1.0015 0.985352
1.00252 1.0027 0.988004
1.0045 0.999705 0.987428
1.00526 0.995368 0.990291
1.00523 0.996866 0.988681
1.00524 0.995605 0.989743
1.00493 1.0013 0.984921
1.00511 0.998891 0.986812
1.0007 1.00438 0.98977
1.00046 1.00486 0.98861
1.00482 1.00188 0.984871
1.00311 1.0011 0.987676
1.005 1.00062 0.986733
1.00525 0.994989 0.990419
1.00527 0.996932 0.988364
1.00529 0.995882 0.9892
1.00495 1.00007 0.986089
1.00511 0.998992 0.986754
1.00034 1.00241 0.991891
1.00047 1.00375 0.990314
0.99999 1.00394 0.990689
0.999947 1.00411 0.990471
1.00002 1.00394 0.990919
1.00003 1.00438 0.990391
0.999923 1.00345 0.991641
0.99993 1.00449 0.99026
0.999991 1.00358 0.991387
0.999997 1.00176 0.993131
1 1.00176 0.993101
1.0001 0.998914 0.996328
1.00003 1.00196 0.992772
1.0002 0.998954 0.996177
1.00022 0.997058 0.997659
1.00026 0.999061 0.996007
1.00021 0.997214 0.997532
1.00002 0.997497 0.998907
0.999827 0.999814 0.995196
0.99985 1.00088 0.994162
0.999733 0.99836 0.998819
1.00011 1.00176 0.992919
0.999905 0.999177 0.99836
1.00021 0.999918 0.997793
1.00522 0.995678 0.990295
1.00528 0.994973 0.991201
1.00526 0.994913 0.990947
1.00524 0.994963 0.991165
1.00528 0.994961 0.991282
1.00531 0.996452 0.989815
1.00527 0.994962 0.991314
1.00524 0.994945 0.991304
1.00523 0.994947 0.991105
1.00527 0.99494 0.991093
1.00528 0.995023 0.990747
1.00531 0.994898 0.990766
1.00523 0.994949 0.991297
1.00528 0.994933 0.991189
1.00529 0.994938 0.990952
1.00531 0.99487 0.99062
1.00527 0.994959 0.991313
1.00527 0.995281 0.990835
1.0052 0.994944 0.991242
1.0052 0.994918 0.991027
1.00481 1.00305 0.983618
1.00523 1.00231 0.98347
1.00521 0.999933 0.985642
1.00525 0.995085 0.990601
1.00525 0.994919 0.990743
1.00521 0.994936 0.990582
1.00517 0.997255 0.988386
1.0052 0.995584 0.990177
1.00477 1.00314 0.98353
1.00493 1.00379 0.982872
1.00356 1.00293 0.985356
1.0006 1.00407 0.989463
1.00146 1.00511 0.987052
1.00522 0.99495 0.991247
1.00523 0.994938 0.991125
1.00527 0.99491 0.990736
1.00514 1.00319 0.982999
1.00514 1.0017 0.983934
1.00516 0.999338 0.986207
1.00525 0.994901 0.990725
1.00517 0.996816 0.988813
1.00522 0.995028 0.990451
0.999951 1.00338 0.991211
1.00481 1.00401 0.982732
1.00477 1.00445 0.982393
1.00458 1.0032 0.98435
1.00232 1.00487 0.986504
1.00088 1.0051 0.988161
1.00527 0.994938 0.991146
1.0053 0.994905 0.990872
1.00528 0.994902 0.990613
1.00525 0.994867 0.990595
1.00509 1.00304 0.983146
1.00519 0.99529 0.990289
1.00505 1.00109 0.984694
1.0051 0.999305 0.986367
0.999956 1.00168 0.992864
1.00026 1.0049 0.98976
1.00165 1.00511 0.987858
1.00284 1.00498 0.985064
1.00468 1.00445 0.983259
1.00492 1.00372 0.983014
1.0003 1.0032 0.991165
1.00027 1.00511 0.988701
1.00523 0.995339 0.990313
1.00236 1.00265 0.988003
1.00512 1.00133 0.985096
1.00386 0.999525 0.987251
1.00524 0.996887 0.988659
1.00524 0.995638 0.989718
1.00495 1.0014 0.985011
1.00514 0.999024 0.986798
1.00049 1.00443 0.989778
1.00093 1.00489 0.988341
1.00482 1.00185 0.98484
1.0036 1.00103 0.987535
1.00479 1.00088 0.986365
1.00526 0.995031 0.990446
1.00526 0.996846 0.988576
1.00528 0.995921 0.989307
1.0049 1.00005 0.986166
1.00505 0.999206 0.986543
0.999616 1.00439 0.990045
1.00078 1.00386 0.988865
1.0048 1.00064 0.986086
1.00427 1.00009 0.986886
1.00534 0.994859 0.990374
1.00527 0.995508 0.990024
1.00525 0.998017 0.987123
1.00512 0.999302 0.986327
1.00062 1.00373 0.990294
1.00014 1.00393 0.990653
0.999268 1.00384 0.992755
0.999886 1.00411 0.990913
0.999486 1.00472 0.990496
0.999955 1.0036 0.991374
0.999592 1.00345 0.992035
0.999957 1.00468 0.990181
0.999743 1.00114 0.994205
0.999756 1.00443 0.990901
0.999819 1.00454 0.990356
1.0001 1.00337 0.991411
0.999968 1.00197 0.992901
0.999962 1.00176 0.993121
0.999986 0.998955 0.996451
0.999981 1.00173 0.993108
1.00011 0.998918 0.996347
1.00014 0.997085 0.997763
1.0002 0.998933 0.99621
1.00021 0.997084 0.997655
1.00017 0.997261 0.997522
0.999962 0.999056 0.995789
0.99983 0.999945 0.99513
0.999727 0.997868 0.99899
0.999857 1.00097 0.994112
0.999778 0.998462 0.998738
1.00004 0.999254 0.998186
1.00528 0.995036 0.990772
1.00523 0.994945 0.991125
1.0053 0.994898 0.990716
1.00527 0.994936 0.991078
1.00524 0.994944 0.991311
1.00527 0.994964 0.991329
1.00523 0.994949 0.991308
1.00528 0.994932 0.991185
1.00529 0.99493 0.990938
1.00531 0.994867 0.990635
1.00527 0.994935 0.991216
1.00528 0.994926 0.991091
1.00533 0.994888 0.990736
1.00521 0.994951 0.991241
1.00523 0.994936 0.991149
1.00527 0.994917 0.990763
1.00517 1.00317 0.983057
1.00513 1.00185 0.98383
1.00514 0.999243 0.986203
1.00524 0.994903 0.990728
1.00522 0.995051 0.990408
1.00521 0.996589 0.989038
1.00472 1.00388 0.982818
1.00497 1.00452 0.982092
1.00431 1.00316 0.984446
0.999987 1.0032 0.991456
1.00267 1.00459 0.986528
1.00058 1.0051 0.988166
1.00527 0.99494 0.991161
1.0053 0.994902 0.990839
1.00529 0.994898 0.990605
1.00504 1.00314 0.983173
1.00495 1.00099 0.984605
1.00509 0.999036 0.986713
1.00524 0.99487 0.990564
1.00504 0.995362 0.990237
0.999964 1.00165 0.993083
1.00017 1.00488 0.989733
1.00471 1.00328 0.983134
1.00476 1.00371 0.983226
1.00337 1.00461 0.985189
1.00141 1.0051 0.98767
1.00529 0.994907 0.991087
1.00533 0.994856 0.990581
1.00529 0.994898 0.990549
1.00521 0.994891 0.990334
1.00449 1.0024 0.984084
1.00516 0.996888 0.988826
1.00496 1.00125 0.984819
1.00013 1.00076 0.993915
1.00024 1.0019 0.992723
0.999617 1.00355 0.991797
1.00068 1.00505 0.988848
1.00139 1.00508 0.986869
1.00392 1.00419 0.983647
1.0035 1.00421 0.984559
1.00381 1.00504 0.98454
1.00023 1.00454 0.989786
1.00131 1.00489 0.988072
1.00528 0.995073 0.990474
1.00411 1.00017 0.987398
1.00482 1.0018 0.984815
1.00474 1.00115 0.98601
1.00526 0.996736 0.988791
1.00527 0.995948 0.989416
1.00491 0.999982 0.986241
1.00502 0.999347 0.986333
1.00016 1.00416 0.989878
1.0011 1.00401 0.988561
1.00491 1.00064 0.985925
1.00471 1.0004 0.98687
1.00535 0.994841 0.990381
1.00529 0.995434 0.989965
1.0052 0.997973 0.987239
1.00515 0.999372 0.986312
0.999663 1.00433 0.990319
1.00537 0.994892 0.990389
1.00298 1.00324 0.988221
1.00481 0.999696 0.986702
1.0053 0.994898 0.990665
1.0052 0.997133 0.987093
1.00508 1.00046 0.985699
1.00026 1.00394 0.990617
0.999151 1.00364 0.992665
0.99829 1.00218 0.99586
0.999955 1.00353 0.991362
0.999973 1.00487 0.990101
0.998585 1.00413 0.992421
1.00011 1.00328 0.991402
0.999839 1.00459 0.990357
0.998806 1.00189 0.994603
0.999902 1.00439 0.990773
0.999258 0.999682 0.997254
0.999009 1.00284 0.993513
0.9997 1.00498 0.990187
1.00033 1.00445 0.989872
1.00019 1.00353 0.991015
0.99992 1.00228 0.992678
0.999899 1.00212 0.99288
0.999863 0.999155 0.996503
0.999922 1.00185 0.993111
1 0.998991 0.996451
1.00003 0.997188 0.997853
1.00012 0.998901 0.99637
1.00015 0.997088 0.997757
1.0002 0.997112 0.997644
1.00013 1.00071 0.994008
1.00003 0.998627 0.996112
0.999949 0.999147 0.995743
0.999801 0.997515 0.999082
0.999834 1.00005 0.995066
0.99976 0.997986 0.998951
0.99985 0.998613 0.998625
1.00531 0.994864 0.990649
1.00529 0.994921 0.990924
1.00528 0.994931 0.991181
1.00523 0.994949 0.991319
1.00527 0.994934 0.99122
1.00528 0.994924 0.991104
1.00531 0.99489 0.990699
1.00528 0.994916 0.991149
1.00534 0.994911 0.990933
1.00548 0.99511 0.991077
1.00527 0.994942 0.991177
1.0053 0.994896 0.990807
1.00529 0.994897 0.990596
1.00484 1.00326 0.983203
1.00498 1.00141 0.98454
1.00485 0.998894 0.987054
1.00524 0.994882 0.990533
1.00498 0.995477 0.990187
1.00435 1.00373 0.983012
1.00433 1.00431 0.983397
1.0033 1.00424 0.985314
0.999963 1.00156 0.993299
1.00012 1.00491 0.989703
1.00126 1.00509 0.987478
1.00529 0.994905 0.991067
1.00011 1.00075 0.993904
1.00015 1.00195 0.992578
1.00533 0.994867 0.990594
1.00527 0.994897 0.990561
1.00476 1.00262 0.983984
1.00472 1.00119 0.985052
1.00508 0.996654 0.988736
1.00522 0.994893 0.990291
0.999698 1.00349 0.991965
1.00067 1.00505 0.988799
1.00374 1.00406 0.984418
1.00372 1.00454 0.984005
1.00412 1.00443 0.983614
1.00157 1.00509 0.986813
1.00538 0.994865 0.990813
1.00533 0.994833 0.990477
1.00525 0.994862 0.990407
1.00519 0.994918 0.990355
1.00409 1.0022 0.985222
1.00455 1.00059 0.986592
1.00007 1.00241 0.992132
0.999942 1.00209 0.992891
1.00143 1.00057 0.992412
1.00056 1.00383 0.989978
1.00092 1.00511 0.988312
1.00252 1.00452 0.986302
1.00255 1.0051 0.984316
1.00249 1.0012 0.98854
1.00066 1.00398 0.989713
1.00148 1.00422 0.988252
1.00535 0.994822 0.990388
1.0053 0.995415 0.989907
1.00522 1.00088 0.98685
1.00496 1.00067 0.985758
1.00514 0.997946 0.987352
1.00518 0.999465 0.9863
1.00031 1.00396 0.990202
1.00538 0.994933 0.990619
1.00211 1.00337 0.988392
1.00496 0.999891 0.986491
1.0053 0.994902 0.990686
1.00519 0.997323 0.987292
1.00497 1.0003 0.98568
0.999498 1.00494 0.991244
1.00496 0.994806 0.990772
1.0024 1.00258 0.988218
1.00469 1.00128 0.985092
1.0051 0.99559 0.989931
1.00369 1.00099 0.986326
0.99878 0.99515 0.986094
0.998885 1.00364 0.992584
0.997772 1.00262 0.995891
0.998185 1.00164 0.997042
1.00001 1.00335 0.991393
0.999766 1.00473 0.99036
1.00036 1.00402 0.990649
0.998315 1.00217 0.995018
1.00012 1.00364 0.991017
1.00025 1.0044 0.989947
0.999318 0.999466 0.997031
0.999773 1.00495 0.990198
0.999424 1.00284 0.993048
0.998136 1.00127 0.997381
1.00042 1.00411 0.990192
1.00015 1.00488 0.989959
1.00072 1.00429 0.989598
1.00013 1.00398 0.990439
1.00034 1.00476 0.989965
1.00009 1.00421 0.990214
0.999901 1.00236 0.992609
0.999917 1.00229 0.992661
0.999738 0.999245 0.995958
0.99989 1.00211 0.992859
0.999849 0.9992 0.996179
0.999994 0.997342 0.999096
1.00001 0.999035 0.996452
1.00005 0.997166 0.997851
1.00017 0.997091 0.997746
1.00004 1.00059 0.994189
1.00015 1.00061 0.994039
1.00008 0.998371 0.996339
1.00003 0.998641 0.996393
0.999862 0.997237 0.99915
0.999929 0.999266 0.995698
0.999802 0.997589 0.999061
0.999793 0.998012 0.998913
1.00529 0.994893 0.990663
1.00528 0.994922 0.991116
1.00527 0.994932 0.991225
1.00528 0.994917 0.99115
1.00534 0.994911 0.990905
1.00546 0.995014 0.990844
1.00542 0.994878 0.990932
1.00133 0.994857 0.98157
1.00483 0.995034 0.992017
1.0001 1.00181 0.992868
1.00529 0.994906 0.991047
1.00533 0.994877 0.990607
1.00526 0.99489 0.990573
1.00481 1.00228 0.98386
1.00494 1.00073 0.985266
1.00488 0.996566 0.988642
1.00522 0.994885 0.990251
1.00428 1.00326 0.984326
1.00427 1.00417 0.983534
1.00397 1.00442 0.98358
1.0001 1.00078 0.993896
1.00211 1.00508 0.986757
0.99974 1.00342 0.992117
1.00066 1.00506 0.988747
1.00012 1.00196 0.992434
1.00537 0.994857 0.990816
1.00004 1.0024 0.992287
0.999926 1.00214 0.99291
1.00101 1.00067 0.992814
1.00534 0.99484 0.990449
1.00523 0.994867 0.990372
1.0033 1.00313 0.985317
1.0048 0.99931 0.987083
1.00518 0.994906 0.990289
1.00039 1.00384 0.99018
1.00117 1.0051 0.98814
1.00274 1.00255 0.987886
1.00311 1.00494 0.98406
1.00295 1.00386 0.98647
1.00535 0.99478 0.990969
1.00525 0.994796 0.990721
1.00518 0.994985 0.989913
1.00505 0.996859 0.990345
1.00182 1.00183 0.989045
0.999439 1.00354 0.991878
1.00138 1.001 0.991762
1.00003 1.00021 0.993152
1.0008 1.00436 0.990201
1.00051 1.00507 0.989138
1.00096 1.00417 0.988091
1.00195 1.00007 0.990933
1.00122 1.00352 0.99008
1.0011 1.00347 0.988569
1.00539 0.994972 0.99084
1.00531 0.994861 0.990699
1.00518 0.997469 0.987489
1.00501 1.00003 0.986277
1.00488 1.00015 0.985666
0.999956 1.0047 0.991215
1.00467 0.994842 0.990978
1.00266 1.00241 0.988015
1.00478 1.0013 0.985003
1.00505 0.995489 0.990208
1.00398 1.00084 0.986404
0.998548 0.99625 0.984197
0.998594 1.00438 0.992565
1.00305 0.995825 0.991109
1.00329 1.00233 0.986129
1.00303 1.00106 0.987053
1.00343 0.997545 0.990698
0.999959 0.994877 0.943496
0.995186 0.994782 0.964746
0.99568 0.999293 0.988078
0.999185 0.994801 0.858725
0.99471 0.994848 0.820382
0.997402 1.00294 0.995913
0.997603 1.00184 0.997254
0.997582 1.003 0.996876
1.00008 1.00368 0.991019
1.00025 1.0043 0.990021
0.999933 1.00485 0.990209
0.999683 1.00299 0.992565
0.999293 0.99892 0.9968
1.00005 1.00491 0.990009
1.00017 1.00395 0.990518
1.00063 1.0043 0.989622
0.998483 1.00038 0.996807
0.999977 1.00435 0.990567
1.00045 1.00456 0.990591
0.998677 1.00434 0.99251
1.00004 1.00471 0.990283
1.00054 1.00464 0.989096
1.00018 1.00407 0.990351
1.00028 1.00499 0.989396
1.00037 1.00414 0.99065
0.999647 1.00495 0.990605
1.00017 1.00474 0.989949
1.00026 1.00393 0.99057
1.00014 1.00421 0.990213
0.999907 1.00239 0.992603
0.99991 1.00237 0.992613
0.99971 0.999306 0.995986
0.99988 1.00239 0.992645
0.999723 0.999288 0.995953
0.999943 0.997337 0.999128
0.999826 0.999259 0.995857
0.999965 0.997339 0.998487
1.00008 0.997147 0.997846
0.999915 1.00042 0.994526
1.00002 1.00064 0.994194
1.00009 0.998193 0.99653
1.00017 1.0005 0.994069
1.00008 0.99832 0.996626
0.999918 0.996943 0.999208
1.00005 0.998699 0.996057
0.999862 0.997371 0.999122
0.999814 0.997693 0.999042
1.00533 0.99491 0.990877
1.00528 0.994917 0.991151
1.00544 0.994913 0.990618
1.00067 0.994845 0.981734
1.00543 0.994878 0.990938
1.00466 0.994973 0.991847
1.00523 0.995854 0.991183
0.996169 0.994889 0.964367
1.00155 0.995284 0.983626
1.00016 1.00153 0.993145
1.00006 1.00199 0.99283
0.999376 1.00385 0.991893
0.999857 1.00241 0.992594
1.00537 0.994854 0.990818
1.00535 0.994852 0.99042
1.00523 0.994878 0.990337
1.00418 1.00358 0.98542
1.00467 0.997398 0.987601
1.00519 0.994904 0.990223
1.00236 1.00317 0.987196
1.00461 1.00481 0.983793
1.00317 1.00227 0.986628
0.999885 1.00223 0.992933
1.00104 1.0051 0.987982
1.00027 1.00393 0.990383
0.999936 1.00258 0.99244
1.00052 1.00092 0.99318
1.00536 0.994784 0.990973
0.999786 1.00351 0.991658
1.00148 1.00056 0.992017
0.998166 1.0012 0.995702
1.00526 0.994819 0.990637
1.00518 0.995053 0.989928
1.00314 1.00066 0.989056
1.0047 0.995913 0.990605
1.00088 1.00447 0.989526
1.00084 1.00475 0.988245
1.00168 1.00155 0.990863
1.00244 1.00348 0.987502
1.00428 0.995202 0.991543
1.00513 0.995031 0.991002
1.00505 0.99592 0.989652
1.0035 0.996365 0.993196
0.997865 1.00463 0.993409
1.00107 1.00156 0.991423
0.998093 1.00468 0.993209
0.999271 1.00452 0.991332
0.999988 0.994884 0.929965
1.00022 1.00454 0.991183
1.00271 1.00268 0.987805
1.0043 0.994886 0.991215
1.00505 0.995432 0.990479
1.00416 1.00072 0.986461
1.00465 1.00142 0.984906
0.998432 0.997012 0.982158
0.999045 1.00423 0.992659
1.00296 0.996103 0.991002
1.00324 1.00267 0.986138
1.00359 1.00097 0.987165
1.00379 0.997639 0.990449
0.999952 0.994864 0.930499
0.995557 0.994804 0.961316
0.995632 0.99984 0.988313
0.998092 0.994773 0.863555
0.994721 0.994845 0.811443
0.999211 1.00422 0.991728
0.999788 0.994819 0.86977
0.994724 0.994812 0.812464
1.00039 0.999496 0.992651
1.00156 1.00196 0.989547
1.00146 0.999529 0.992589
0.994905 0.99828 0.990887
0.997639 0.994821 0.942475
0.994894 0.994782 0.95729
0.99632 0.994834 0.881706
0.994731 0.994816 0.802491
0.997115 1.0021 0.997479
0.997366 1.00239 0.996748
0.997494 1.00456 0.995583
1.00025 1.0039 0.990594
1.00058 1.00427 0.989647
0.999577 1.00503 0.990058
0.999672 1.00462 0.990941
0.999024 0.999642 0.996241
1.00022 1.004 0.990355
1.0002 1.00457 0.990439
0.999917 1.00486 0.990101
1.00071 1.00461 0.989232
0.998605 1.00418 0.992805
0.999403 1.00443 0.992031
0.997402 1.00505 0.993605
1.00007 1.00506 0.989526
1.0005 1.00469 0.989464
1.00042 1.00496 0.989372
1.00015 1.0037 0.990951
1.00024 1.00499 0.989841
0.999903 1.00368 0.99149
0.999112 1.0027 0.992313
0.999099 1.00498 0.991093
0.999499 1.00478 0.990696
0.999802 1.0047 0.990631
1.00009 1.00402 0.990657
1.00004 1.00475 0.989935
1.00025 1.00394 0.990497
0.999998 1.00237 0.992492
1.00019 1.00423 0.990212
0.999929 1.00233 0.992614
0.999903 0.999273 0.99642
0.999885 1.00239 0.992616
0.999759 0.999275 0.996243
0.999892 0.997313 0.997974
0.999711 0.999302 0.995948
0.999937 0.997353 0.999137
0.999954 0.997368 0.997875
1.00027 1.0015 0.992935
0.99992 1.00029 0.994667
0.999918 1.00045 0.994518
1.00005 0.99812 0.996639
0.999999 1.0007 0.994199
1.00009 0.998158 0.996527
0.999964 0.996825 0.999242
1.00006 0.99832 0.996871
0.99992 0.997115 0.998631
0.999886 0.997432 0.99795
1.00017 0.994826 0.981875
1.00543 0.994879 0.990942
1.00452 0.995363 0.991663
0.996399 0.994846 0.964911
1.0017 0.995117 0.984004
1.00524 0.995541 0.991167
1.00346 0.996233 0.986431
0.997353 0.994848 0.967534
0.999979 0.994867 0.941781
0.997721 0.994811 0.883241
0.994659 0.994806 0.81904
0.999679 1.00251 0.992626
1.00017 1.00148 0.993132
1.00017 1.00189 0.99279
0.999723 1.00325 0.992058
0.999023 1.00423 0.992497
1.00053 1.00208 0.991886
1.00023 1.00293 0.99186
1.00013 1.00219 0.992467
1.00537 0.994789 0.990968
1.00527 0.994839 0.990558
1.00519 0.995082 0.989938
1.00309 1.00098 0.989062
1.00455 0.995498 0.990862
1.00137 1.00227 0.990772
1.00384 1.00373 0.986923
1.00174 1.00498 0.987359
1.00146 1.00021 0.992263
1.001 1.00458 0.988813
1.00036 1.00313 0.991452
0.996999 1.00184 0.998213
1.00427 0.994848 0.991823
0.998315 1.00431 0.993301
1.00082 1.00183 0.992106
1.00486 0.994928 0.990972
1.00468 0.995869 0.990026
1.00275 0.996583 0.99288
0.99949 1.00508 0.991423
1.00042 1.00317 0.991568
1.00332 0.994907 0.99112
1.00383 0.998613 0.990544
1.00452 0.995515 0.99131
1.00087 0.997788 0.994197
0.999356 1.00483 0.990973
0.99869 1.00457 0.992366
0.999465 1.00493 0.991976
0.999788 0.994916 0.872261
1.00024 0.994863 0.944089
0.999881 1.00373 0.99276
1.00342 1.00288 0.986159
1.00288 0.996715 0.99089
1.00409 0.997749 0.990214
1.00407 1.00098 0.987302
0.999988 0.994853 0.941786
0.995845 0.994801 0.960814
0.995627 1.00001 0.988583
0.997563 0.99483 0.881615
0.994738 0.994828 0.801983
0.999516 1.0042 0.991688
0.999813 0.99485 0.868816
0.994692 0.994797 0.805687
1.00046 0.999428 0.992599
1.00157 1.00213 0.989555
1.00136 0.999691 0.993001
0.994899 0.999359 0.991649
0.998414 0.995057 0.936155
0.994911 0.994797 0.958561
0.995788 0.995059 0.881428
0.994749 0.994811 0.800844
0.998408 1.0042 0.994439
0.99472 0.9948 0.802823
0.994746 0.994775 0.811261
0.996941 1.00198 0.996919
0.999858 1.00174 0.994853
0.994895 0.999367 0.988696
0.995033 0.994878 0.960174
0.995322 0.994783 0.931212
0.994755 0.995402 0.886104
0.994832 0.994845 0.807946
0.997429 1.00182 0.996628
0.997979 1.00388 0.995309
0.996747 1.00395 0.995913
1.00025 1.00394 0.99036
1.00082 1.00446 0.989369
0.999974 1.00496 0.989917
0.999895 1.00462 0.99029
0.99818 1.00406 0.993102
1.0005 1.00473 0.989448
0.99948 1.00415 0.991651
1.0003 1.00499 0.989545
0.997014 1.00496 0.993951
0.99598 1.00521 0.996443
0.998748 1.0049 0.992103
1.00056 1.00505 0.989418
1.00055 1.00476 0.989349
1.00001 1.00336 0.991246
1.00013 1.00493 0.989784
1.00004 1.00351 0.991397
0.998885 1.00316 0.992971
0.998944 1.00466 0.991527
0.998582 1.00509 0.991737
0.998536 1.00313 0.993769
1.00026 1.00177 0.992876
1.0028 0.999316 0.990922
0.999094 1.00485 0.991045
0.999338 1.00483 0.991134
0.999548 1.00501 0.990067
0.999549 1.00495 0.990703
1.00006 1.00413 0.990549
0.999751 1.00474 0.990654
1.00012 1.00401 0.990693
1.00002 1.00245 0.992283
1.00026 1.00401 0.990424
0.999976 1.00238 0.992506
1.00003 0.999235 0.996217
0.999924 1.00233 0.992627
0.999882 0.999242 0.996071
1 0.997254 0.997823
0.999753 0.999258 0.995953
0.99995 0.997302 0.999147
0.999933 0.997349 0.999146
1.00035 1.00189 0.99277
0.999954 1.00044 0.994495
1.00015 1.00169 0.992947
1.00005 0.998078 0.99668
0.999909 1.00031 0.994665
0.999913 1.00051 0.994511
1.00006 0.998118 0.996629
0.999991 0.996737 0.999257
1.00007 0.998176 0.997025
0.999973 0.996827 0.998711
0.999936 0.997129 0.998113
0.999801 0.994825 0.856591
0.994695 0.994775 0.802677
0.99646 0.994848 0.965343
1.0014 0.994903 0.984487
1.00526 0.994792 0.991163
0.997026 0.995076 0.966981
1.0035 0.995304 0.986959
1.00068 0.994873 0.938169
0.998225 0.994773 0.863988
0.994705 0.994824 0.810374
0.997839 0.99479 0.973346
0.998303 0.994853 0.942363
0.996562 0.994852 0.881749
0.994764 0.994825 0.809432
1.00002 1.0034 0.991752
0.99982 1.00228 0.992744
1.00011 1.00161 0.993122
0.999863 1.00297 0.992222
0.99885 1.00412 0.992849
1.00029 1.00349 0.990811
1.00024 1.00285 0.991753
1.00056 1.00341 0.990437
1.00018 1.00293 0.991741
0.99997 1.00254 0.992333
1.00408 0.994762 0.992089
1.00471 0.994855 0.990942
1.00426 0.995878 0.990402
1.00226 0.997108 0.992561
1.00092 1.00272 0.991801
0.999561 1.00513 0.989668
1.00027 1.00217 0.99288
0.998461 1.00418 0.993176
1.00243 0.994984 0.991575
0.999435 1.00495 0.990748
0.998386 1.00491 0.99221
1.00352 0.997656 0.990702
1.00421 0.99557 0.991577
1.00108 0.997981 0.994445
0.999244 1.00491 0.991626
1.0002 0.995303 0.990221
1.0012 0.998781 0.993821
0.998668 1.00163 0.995249
0.998813 1.00452 0.990422
0.99848 1.00499 0.991254
0.998766 1.00484 0.992243
0.994721 0.994837 0.826085
0.999786 0.994879 0.877564
1 0.994879 0.930348
0.999377 1.00407 0.991625
1.00182 1.00237 0.989533
1.00053 0.999182 0.99254
1.00117 0.999792 0.993417
0.999818 0.994878 0.881598
0.997918 0.994831 0.930727
0.994847 0.994817 0.957368
0.99489 1.00065 0.992306
0.99667 0.994836 0.866317
0.994664 0.99479 0.811417
0.994777 0.994824 0.815442
0.998266 1.00358 0.994148
0.994708 0.994809 0.812798
0.994767 0.994779 0.810673
0.997102 1.0004 0.99754
0.999398 1.00167 0.994742
0.994878 0.998216 0.991054
0.995418 0.994838 0.959016
0.99633 0.996198 0.942456
0.994721 0.997252 0.868769
0.994968 0.99484 0.818246
0.99695 1.0037 0.997029
0.994779 0.994827 0.819524
0.994812 0.994798 0.807978
0.994981 1.00222 1.00008
0.995244 0.996954 0.967896
0.99482 0.997483 0.941207
0.995071 0.99548 0.861357
0.995329 0.994877 0.826956
0.998414 1.00276 0.994996
0.997095 1.00424 0.996065
0.995643 1.0042 0.998111
1.00038 1.00478 0.989431
1.00042 1.00505 0.989567
0.999621 1.00382 0.99127
0.996822 1.00482 0.9943
1.00022 1.00506 0.989429
0.998693 1.00492 0.99207
0.99573 1.0052 0.996766
0.995012 1.00506 0.998261
0.995873 1.00517 0.996733
0.999341 1.00509 0.991407
1.00017 1.005 0.989723
1.00011 1.00313 0.991301
0.998532 1.00342 0.99361
0.998624 1.00509 0.99183
0.999194 1.00461 0.99153
0.998475 1.00337 0.993869
0.99865 1.00451 0.992536
0.996043 1.00505 0.996377
1.00204 0.997463 0.994085
0.999848 1.00144 0.99353
1.00127 1.00075 0.991662
1.00481 1.00025 0.987056
1.00193 1.00151 0.990876
1.00157 0.999016 0.992903
0.999634 1.00461 0.990775
0.999755 1.00512 0.989533
0.999628 1.00462 0.991175
0.999883 1.00506 0.990068
1.00016 1.00458 0.989935
0.999946 1.00482 0.990709
1.0003 1.00392 0.990536
1.00011 1.00263 0.992036
1.00032 1.00372 0.990729
1.0001 1.00244 0.99229
1.00015 0.999285 0.995986
1.00001 1.00233 0.992521
1.00002 0.999246 0.995835
1.0001 0.99729 0.997673
0.999889 0.999216 0.995775
0.999994 0.997257 0.998482
0.999963 0.997272 0.999128
1.00026 1.00249 0.991911
1.0001 1.00056 0.994192
1.00024 1.00194 0.992591
1.00005 0.99813 0.996626
0.999971 1.00039 0.994503
1.00014 1.00167 0.992959
1.00002 0.996697 0.999265
1.00004 0.998079 0.996681
0.99991 1.00034 0.994664
1.00007 0.998107 0.996618
0.999992 0.996777 0.999254
0.999959 0.996824 0.999238
0.994689 0.994772 0.805722
0.999772 0.994842 0.86877
0.994752 0.994768 0.808453
0.994712 0.994773 0.802007
0.99714 0.994882 0.965133
1.0034 0.994811 0.987492
0.999866 0.994845 0.933853
0.999066 0.994816 0.883065
0.994747 0.994832 0.801462
0.998441 0.994839 0.972405
0.998971 0.99567 0.928347
0.995976 0.995747 0.880204
0.994721 0.994818 0.802073
0.995146 0.994818 0.965046
0.996212 0.995886 0.929736
0.99485 0.997403 0.861158
0.994824 0.994875 0.807149
1.00077 1.00448 0.990408
0.999679 1.00336 0.991858
1.00001 1.00198 0.992859
0.998541 1.00377 0.993205
1.00091 1.00365 0.989584
1.00022 1.0034 0.991011
0.999803 1.00332 0.991624
1.00106 1.00287 0.990486
1.00064 1.00352 0.990526
1.00023 1.00273 0.991625
1.00205 0.99478 0.992023
1.00329 0.996944 0.990869
1.00374 0.995647 0.991848
1.00085 0.997252 0.994711
1.00033 1.00489 0.991256
0.998789 1.00509 0.992065
0.999523 1.00501 0.990519
1.00009 1.00463 0.990146
0.999867 0.995664 0.990729
0.999407 1.005 0.990959
0.999494 1.00473 0.992084
1.00109 0.99849 0.994422
0.999615 1.00046 0.99507
0.996457 0.999887 0.989917
0.996797 0.999268 1.00036
0.996636 1.00365 0.995946
0.999194 1.00444 0.991766
0.997708 1.00502 0.993645
0.994807 0.994813 0.825662
0.994714 0.994816 0.821977
0.999799 0.994891 0.860278
0.998291 1.00322 0.993917
0.999107 1.00134 0.994626
0.997308 0.999771 0.998162
0.994681 0.994793 0.811253
0.996362 0.995769 0.930971
0.995506 0.994868 0.958581
0.994853 0.996423 0.993726
0.994784 0.996958 0.887427
0.994775 0.994782 0.810772
0.995147 0.994846 0.81951
0.997337 1.00363 0.996906
0.994789 0.994826 0.822367
0.994803 0.994798 0.808896
0.995207 1.00148 0.999169
0.995226 0.996086 0.969826
0.994811 0.995948 0.929569
0.995136 0.994867 0.822913
0.995044 0.998662 0.869773
0.994928 1.00467 1.00014
0.994795 0.994828 0.813499
0.994869 0.994831 0.817057
0.994819 0.99486 0.807543
0.994787 0.99871 0.990089
0.994871 0.998248 0.94455
0.997462 0.996477 0.878298
0.997541 1.00481 0.996244
0.995775 1.00473 0.997884
0.995202 1.00476 0.999185
1.00014 1.00507 0.989441
0.998701 1.00499 0.992033
0.995534 1.00521 0.997083
0.998964 1.0051 0.991408
0.995996 1.00517 0.996736
0.995196 1.0049 0.998216
0.994929 1.0052 0.998446
0.995624 1.00508 0.997052
0.998497 1.00507 0.991939
0.999396 1.00467 0.991533
0.998504 1.0039 0.993994
0.996311 1.00496 0.996251
0.99861 1.00465 0.992433
0.998972 1.00178 0.994854
0.999407 0.997747 0.997827
1.0023 0.999911 0.989751
0.999457 1.00112 0.994132
1.00183 1.00072 0.99121
1.00441 1.00175 0.985917
1.00491 1.00254 0.984156
1.00379 0.999017 0.989975
1.00393 1.00023 0.987471
1.00089 1.0051 0.988655
1.00112 1.00195 0.991299
1.00033 0.998785 0.994858
1.00018 1.00443 0.990506
0.999957 1.00512 0.989574
1.00029 1.00505 0.989163
1.00022 1.00506 0.990072
1.00031 1.00446 0.989945
1.00015 1.00303 0.991485
1.00041 1.00383 0.990522
1.00016 1.00254 0.992029
1.00018 0.999387 0.995831
1.00012 1.00241 0.992297
1.00013 0.999313 0.995597
1.00019 0.997323 0.997502
1.00002 0.999268 0.995511
1.00008 0.997273 0.998374
1.00003 0.997238 0.999068
1.0006 1.00267 0.991063
1.00013 1.00091 0.99349
1.00041 1.00235 0.991904
1.00011 0.998178 0.996472
1.00007 1.00058 0.994038
1.00016 1.00199 0.992413
1.00004 0.996711 0.99925
1.00006 0.998099 0.996637
0.999985 1.00032 0.994511
1.00002 0.996718 0.999263
1.00003 0.998096 0.996682
0.999992 0.996753 0.999251
0.99482 0.994819 0.815979
0.994698 0.994807 0.818717
0.999786 0.994812 0.867743
1.00114 1.00257 0.990527
0.994817 0.994798 0.814635
0.994754 0.994769 0.808416
0.994744 0.994779 0.814912
0.999011 0.994864 0.971601
0.997839 0.994829 0.941515
0.996238 0.994852 0.863871
0.994692 0.994822 0.811142
0.996333 0.99483 0.962612
0.996379 0.997311 0.940926
0.994748 0.996374 0.86454
0.994839 0.99486 0.811091
0.99481 0.994865 0.956919
0.994806 0.995525 0.939075
0.995439 0.999851 0.873231
0.995134 0.994889 0.827049
0.999542 1.00467 0.990803
1.00017 1.00429 0.990373
0.99986 1.00333 0.991966
1.00075 1.00288 0.990672
1.00069 1.00405 0.989824
1.00017 1.00372 0.991208
1.00107 1.00301 0.990439
1.00063 1.00356 0.990608
0.998693 0.997282 0.99108
1.00059 0.998096 0.994942
1.00029 1.00474 0.989865
1.00064 0.99967 0.9949
0.999686 1.00462 0.991929
0.999907 1.00505 0.990669
0.999013 1.00438 0.991767
0.995993 0.999279 0.990559
0.998129 1.00486 0.993731
0.997481 1.00306 0.99622
0.996213 1.0002 1.00049
0.998651 1.00425 0.99307
0.994798 1.00129 0.987449
0.99545 1.00278 0.998701
0.996011 1.00478 0.997003
0.997368 1.00522 0.994889
0.994779 0.994809 0.818962
0.994811 0.994815 0.823179
0.994704 0.994802 0.817758
0.997593 1.00369 0.996759
0.995436 1.00049 0.998235
0.994804 0.994827 0.825022
0.994774 0.996983 0.941997
0.995642 0.996063 0.967093
0.995088 0.997937 0.868093
0.994804 0.994798 0.809599
0.994891 0.994861 0.818874
0.99534 1.00447 0.999795
0.994797 0.994826 0.813583
0.994869 0.99484 0.81787
0.994792 0.999355 0.993827
0.994833 0.994848 0.811289
0.994849 0.996373 0.936785
0.996083 0.99744 0.880413
0.994811 1.00324 0.998462
0.994838 0.994842 0.820431
0.994803 0.994804 0.81585
0.994759 0.99482 0.809561
0.995763 0.999853 0.872017
0.994858 1.00097 0.974466
0.995552 0.99761 0.92984
0.996079 1.00502 0.997671
0.995085 1.0051 0.999171
0.994891 1.0052 0.998425
0.998485 1.00513 0.991409
0.995765 1.0052 0.996744
0.994984 1.00522 0.998179
0.995657 1.00497 0.996985
0.994946 1.00518 0.998469
0.997663 1.00229 0.997771
0.996448 1.00489 0.996107
0.998526 1.00469 0.992347
0.998716 1.00201 0.995523
0.998713 1.00139 0.993372
0.996915 0.998022 1.00139
1.00197 0.999688 0.991041
1.00433 1.00448 0.982452
1.00453 1.00296 0.983918
1.00235 1.00062 0.990705
1.00429 1.00211 0.985268
1.00509 1.00229 0.98401
1.00501 0.999943 0.986598
1.00462 1.00226 0.984508
1.00199 1.00275 0.988825
1.00331 0.999698 0.989721
1.00311 1.00018 0.987911
1.00048 1.00512 0.988495
1.00041 1.00503 0.988913
1.00035 1.00226 0.991711
1.00008 1.00511 0.989614
1.00044 1.00501 0.989184
1.00022 1.00403 0.990449
1.00045 1.0045 0.989954
1.0002 1.00308 0.991467
1.00015 0.999609 0.994924
1.00026 1.00252 0.992024
1.00021 0.999394 0.995086
1.0001 0.997331 0.99892
1.00013 0.999369 0.995253
1.00015 0.997315 0.998247
1.0001 0.997263 0.998994
1.00053 1.00281 0.990996
1.0003 1.00134 0.992833
1.00054 1.00271 0.991217
1.00018 0.998327 0.996227
1.00022 1.00087 0.993415
1.00045 1.00233 0.991894
1.00008 0.996701 0.999215
1.00012 0.998153 0.996486
1.00008 1.00057 0.993886
1.00004 0.996696 0.999256
1.00007 0.998064 0.996648
1.00001 0.996758 0.999261
0.994797 0.994829 0.820721
0.994816 0.994818 0.816283
0.99469 0.994824 0.818553
1.00105 1.00259 0.990691
1.00065 1.00298 0.990538
1.0012 1.0018 0.991454
0.994876 0.994836 0.816136
0.994816 0.994796 0.8154
0.994755 0.99476 0.808473
0.996763 0.994819 0.963215
0.995687 0.994771 0.929095
0.994794 0.99806 0.885984
0.994828 0.994841 0.805477
0.994979 0.995019 0.959345
0.994905 0.997261 0.935153
0.995388 0.997447 0.869829
0.995117 0.994878 0.822717
0.995746 0.995147 0.956422
0.994855 0.997199 0.939674
0.996423 0.996352 0.879614
0.994838 0.994842 0.809
0.999715 1.0028 0.992271
1.00019 1.00397 0.990615
1.00025 1.00391 0.990335
1.00092 1.00276 0.990614
1.00037 1.0043 0.990065
1.00103 1.0032 0.990393
0.996006 0.99797 0.99134
0.996063 1.00109 1.00077
0.999469 1.00363 0.991766
0.998587 1.00233 0.9964
0.998472 1.0045 0.99381
0.99803 1.00401 0.993688
0.996944 1.00491 0.995119
0.994795 1.00181 0.987294
0.995721 1.00508 0.997394
0.995594 1.00324 0.998035
0.996948 1.0051 0.994969
0.994882 1.00265 0.984794
0.995489 1.00502 0.995243
0.995106 1.00422 0.998724
0.994848 0.994835 0.818168
0.994783 0.994819 0.818207
0.994815 0.994812 0.820737
0.995753 1.0038 0.999413
0.994798 0.999616 0.98968
0.994794 0.994825 0.813677
0.994827 0.997624 0.936361
0.99673 0.996485 0.865237
0.994869 0.994841 0.81866
0.994826 0.994833 0.806016
0.994793 1.00309 0.998938
0.994828 0.994843 0.820612
0.99482 0.994804 0.81667
0.99487 0.999778 0.971927
0.994718 0.994816 0.802622
0.995802 0.999273 0.867283
0.994892 0.995582 0.94339
0.994868 1.00517 0.990414
0.99479 0.994838 0.821092
0.994774 0.994784 0.809771
0.994673 0.994813 0.820514
0.994803 0.997394 0.860232
0.994858 0.998545 0.938427
0.994872 1.00119 0.966281
0.995081 1.00507 0.999122
0.994917 1.00519 0.998358
0.996112 1.00407 0.997501
0.995886 1.00479 0.996923
0.99496 1.0051 0.998497
0.996306 1.0039 0.997772
0.999288 0.999192 0.997879
0.998413 1.00238 0.99618
1.0011 1.00109 0.992417
1.00221 1.00489 0.985797
1.00145 0.9995 0.992583
1.00423 1.00427 0.983286
1.00429 1.00477 0.982261
1.00501 1.00146 0.984229
1.00503 1.00186 0.984329
1.00453 1.00307 0.983777
1.00443 1.0024 0.984638
1.00509 1.00156 0.984763
1.0051 1.00218 0.984085
1.00406 1.00042 0.98763
1.00464 1.00007 0.986936
1.00428 1.002 0.984861
1.00088 1.00504 0.98794
1.00195 1.00308 0.988758
1.00269 1.00054 0.989459
1.00045 1.00465 0.989463
1.00081 1.00511 0.988496
1.00014 1.00499 0.989171
1.00065 1.00495 0.989206
1.00036 1.00383 0.990457
1.00008 1.00022 0.994403
1.00033 1.00295 0.99145
1.00017 0.999652 0.994899
1.00012 0.997466 0.998881
1.00022 0.999401 0.995085
1.00017 0.997355 0.998176
1.00014 0.997321 0.998931
1.00076 1.00315 0.990654
1.00041 1.00161 0.992569
1.00068 1.00265 0.991053
1.00026 0.998554 0.995865
1.00029 1.00133 0.992919
1.00055 1.00268 0.991373
1.00011 0.996764 0.99916
1.00019 0.998272 0.996245
1.00026 1.00083 0.993341
1.00008 0.996719 0.999226
1.00012 0.998128 0.996501
1.00005 0.996712 0.999263
0.994834 0.994838 0.819487
0.9948 0.994844 0.820822
0.994813 0.994827 0.816624
1.00005 1.00467 0.98977
1.001 1.00421 0.990224
1.00087 1.00269 0.990861
1.00055 1.00335 0.990427
1.00066 1.00196 0.991661
1.00025 1.00288 0.991392
0.999991 1.00173 0.992902
0.994832 0.994806 0.808565
0.994879 0.994845 0.817057
0.99481 0.994818 0.816182
0.994895 0.994872 0.818452
0.995236 0.99507 0.957218
0.99483 0.998442 0.929919
0.995432 0.995319 0.883856
0.995261 0.995065 0.955631
0.99486 0.99842 0.927019
0.995564 0.997497 0.880932
0.994903 0.994838 0.819081
0.996012 0.996525 0.959806
0.994941 0.998971 0.92859
0.995001 0.995983 0.861881
0.994737 0.994815 0.80352
0.997635 1.00464 0.994252
0.999432 1.00335 0.992616
1.00028 1.00417 0.990428
1.00096 1.00299 0.990562
0.994804 1.0017 0.987294
0.995668 1.00375 0.997226
0.997617 1.00483 0.994306
0.996933 1.00481 0.995357
0.995511 1.00514 0.997876
0.996766 1.00507 0.995123
0.995352 1.00434 0.998752
0.99555 1.00231 0.981477
0.995158 1.00524 0.995483
0.995735 1.00411 0.997566
0.994883 1.00485 0.979781
0.995201 1.00289 0.999255
0.994777 0.994818 0.819566
0.994841 0.994836 0.821398
0.994789 0.994834 0.817432
0.994793 1.00309 0.999397
0.994861 0.999966 0.975218
0.994819 0.994839 0.820839
0.995086 0.997506 0.930875
0.996307 0.996205 0.882023
0.994829 0.994826 0.817405
0.994687 0.994822 0.811438
0.994876 1.00466 0.991319
0.994807 0.994837 0.821217
0.994758 0.994783 0.809789
0.994869 0.999777 0.966259
0.994712 0.994824 0.81194
0.994726 0.99719 0.862825
0.994958 0.998655 0.926469
0.994896 1.00472 0.985237
0.994834 0.994818 0.816153
0.994687 0.994781 0.804305
0.996307 0.994841 0.883283
0.994767 0.99719 0.938372
0.994794 0.999981 0.959443
0.994937 1.00527 0.998692
0.995512 1.0044 0.997579
0.996772 1.0003 0.998669
0.995256 1.00511 0.997764
0.997548 1.00082 0.998263
1.00197 1.00028 0.992554
1.00356 1.00067 0.99147
1.0031 1.005 0.985056
1.00401 1.00329 0.983751
1.00387 1.00414 0.984119
1.00442 1.00468 0.982202
1.00446 1.00388 0.983053
1.00522 0.999621 0.985671
1.00511 1.00089 0.985099
1.00504 1.00165 0.984182
1.00509 1.00164 0.984525
1.00502 1.00171 0.984337
1.00444 1.00322 0.983634
1.00512 1.00118 0.985354
1.00503 1.00178 0.98462
1.0051 1.00208 0.984165
1.00267 1.00329 0.987427
1.00353 1.0008 0.988076
1.00434 1.0001 0.987277
1.0006 1.00495 0.988493
1.00127 1.00481 0.988004
1.00169 1.00344 0.988688
1.00018 1.0008 0.993652
1.00057 1.00449 0.989477
1.00106 1.0051 0.988496
1.00044 1.00374 0.990463
1.00009 1.00028 0.994369
1.00007 0.99772 0.9988
1.00018 0.999691 0.994874
1.00012 0.997467 0.998866
1.00015 0.997315 0.998899
1.00008 1.00511 0.989934
1.00073 1.00429 0.989735
1.00056 1.00207 0.991892
1.00064 1.0032 0.990636
1.00027 0.998904 0.995475
1.00041 1.00163 0.992561
1.0007 1.00262 0.991111
1.00014 0.996912 0.99907
1.00025 0.998543 0.995886
1.0003 1.00133 0.993001
1.00011 0.996755 0.999177
1.0002 0.998242 0.996266
1.00008 0.996704 0.999238
0.9948 0.994837 0.813875
0.99482 0.994834 0.819699
0.99481 0.994833 0.820918
1.00027 1.0048 0.98976
1.00027 1.00364 0.990418
1.0004 1.00305 0.989563
0.999328 1.00449 0.990408
1.00131 1.00341 0.990688
1.0007 1.00373 0.990316
1.00052 1.00206 0.991867
1.00029 1.00314 0.991422
1.00034 1.00167 0.992947
0.9989 1.00392 0.993183
0.994752 0.994775 0.811638
0.994815 0.994807 0.809547
0.994882 0.994841 0.817909
0.995092 0.994842 0.820247
0.995664 0.996359 0.866373
0.994867 0.995056 0.954512
0.99483 0.997246 0.939139
0.995358 0.996403 0.955981
0.994894 0.996075 0.940459
0.995011 0.998755 0.870428
0.994754 0.994814 0.801936
0.994889 0.998706 0.959145
0.994854 1.00049 0.940173
0.994776 0.996778 0.886122
0.994711 0.994855 0.821887
0.998458 1.00161 0.996176
0.997247 1.00447 0.994645
0.999414 1.00315 0.992978
0.995779 1.00219 0.977898
0.994964 1.00525 0.995687
0.996543 1.00498 0.995269
0.994942 1.00458 0.998773
0.996037 1.00403 0.997537
0.99519 1.00225 0.999591
0.994856 1.00262 0.979202
0.996044 1.00121 0.99998
0.995621 1.00025 0.985933
0.994813 0.99482 0.824726
0.994791 0.994829 0.818825
0.994832 0.994834 0.824678
0.994899 1.00414 0.991615
0.994859 0.999615 0.963862
0.994824 0.994844 0.821336
0.994835 0.999037 0.938327
0.994769 0.998073 0.883615
0.994744 0.99476 0.809981
0.99474 0.994838 0.803072
0.99534 1.00473 0.985974
0.994816 0.994822 0.816344
0.994709 0.994783 0.803707
0.99504 0.999119 0.960521
0.995812 0.995204 0.881156
0.994874 0.997325 0.932977
0.995184 1.00275 0.98295
0.994693 0.994777 0.806561
0.997757 0.994821 0.884502
0.996056 0.995966 0.929921
0.994849 0.996314 0.961624
0.995576 1.00502 0.997667
0.996273 1.00173 0.99858
0.999011 1.00199 0.995506
0.995887 1.00299 0.998634
1.00084 1.00039 0.993502
1.00396 0.998815 0.989709
1.00393 1.00507 0.984299
1.00384 1.00355 0.983642
1.00441 1.00037 0.985935
1.00467 1.00465 0.982144
1.00453 1.0034 0.983143
1.00499 0.999737 0.986072
1.0053 0.997074 0.987981
1.00523 0.999173 0.986034
1.00522 0.999551 0.985745
1.00517 1.00076 0.985292
1.00511 1.00092 0.985016
1.00507 1.00178 0.984132
1.00519 1.002 0.984349
1.00504 1.00155 0.984543
1.00501 1.0016 0.984342
1.00445 1.00153 0.986187
1.0046 1.00159 0.985523
1.00497 1.00206 0.984479
1.00123 1.00483 0.987324
1.00247 1.00329 0.987421
1.00317 1.00111 0.98852
1.00012 1.00188 0.993746
1.0009 1.00491 0.988507
1.00162 1.00452 0.988069
1.00013 0.998304 0.996574
1.00017 1.001 0.994021
1.0007 1.00437 0.98949
1.00012 1.00037 0.994334
1.00009 0.997809 0.998744
1.00012 0.997486 0.998849
1.00073 1.00484 0.989028
1.00088 1.00508 0.988937
0.999608 1.00512 0.989853
1.00051 1.00314 0.990957
1.00056 1.00437 0.989709
1.00024 0.999303 0.995131
1.0005 1.00215 0.991909
1.00069 1.00322 0.990613
1.00013 0.997176 0.99898
1.00027 0.998877 0.995492
1.0004 1.00167 0.992554
1.00013 0.996912 0.999098
1.00024 0.998514 0.995906
1.00011 0.996756 0.999194
0.994785 0.994821 0.82588
0.994806 0.994838 0.813983
0.994806 0.99485 0.819924
1.00212 1.00148 0.988973
0.999875 1.00501 0.989747
1.00001 1.00363 0.990633
1.00017 1.00502 0.990088
1.00135 1.0026 0.989674
1.0005 1.00331 0.991833
1.00318 1.00259 0.987134
0.997851 1.00501 0.992263
1.00016 1.00319 0.991446
1.00012 1.00124 0.99299
0.998412 1.00387 0.993112
0.998291 1.00436 0.993684
0.994725 0.994808 0.812865
0.994772 0.99478 0.811094
0.99481 0.994808 0.81034
0.99479 0.994859 0.816241
0.994934 0.998512 0.86907
0.994996 0.99856 0.928753
0.994913 0.995654 0.95617
0.994901 0.999202 0.958516
0.994726 0.994872 0.812741
0.994879 0.996364 0.932173
0.994742 0.997412 0.869035
0.994894 0.99652 0.964138
0.994832 0.998715 0.941554
0.995794 0.994858 0.883273
0.99987 0.995022 1.00014
0.998413 1.00151 0.996088
0.997084 1.00437 0.995014
0.994888 1.00187 0.978973
0.995277 1.0014 0.999889
0.996578 1.00406 0.997517
0.997084 1.00054 1.00022
0.995199 0.999153 0.986096
0.996323 0.99858 0.991952
0.994712 0.994832 0.820764
0.994811 0.994812 0.825954
0.994801 0.994831 0.817993
0.994967 1.00443 0.986219
0.994856 0.999966 0.960148
0.994799 0.994828 0.816731
0.994829 0.99857 0.928049
0.996071 0.994854 0.865298
0.994751 0.994803 0.81626
0.994783 1.00485 0.982874
0.994702 0.994818 0.81932
0.9979 0.994767 0.865149
0.994857 0.995791 0.957399
0.996152 0.996981 0.941333
0.994886 1.00238 0.989369
0.999811 0.994843 0.856791
0.998096 0.994847 0.943434
0.994835 0.994831 0.956463
0.995678 1.00286 0.998535
0.998313 1.00141 0.995313
1.00116 1.00257 0.991608
0.999791 1.00025 0.994452
1.00315 0.999494 0.989497
1.00446 0.999202 0.988009
1.0038 1.00378 0.983531
1.00436 1.00059 0.985839
1.00505 0.996731 0.988424
1.00458 1.00283 0.983236
1.00491 0.999602 0.986052
1.00531 0.995947 0.989116
1.00527 0.995614 0.989891
1.00527 0.99726 0.987954
1.00531 0.997019 0.9881
1.00525 0.999041 0.98622
1.00523 0.999152 0.986219
1.00521 0.99951 0.985821
1.00526 1.00116 0.984602
1.00517 1.00067 0.985247
1.00512 1.00092 0.984931
1.00517 1.00147 0.984769
1.00506 1.00195 0.98439
1.00497 1.00144 0.984561
1.0027 1.00358 0.986574
1.00414 1.0019 0.986093
1.004 1.00199 0.985694
1.00028 1.00258 0.991671
1.00172 1.00476 0.987345
1.00232 1.00348 0.987411
0.99983 0.99924 0.998364
1.0002 1.00184 0.992621
1.00116 1.00484 0.988522
1.0001 0.99824 0.998544
1.00018 1.00105 0.993513
1.00011 0.997865 0.998679
1.00304 1.00308 0.987759
1.0008 1.00473 0.98888
1.00113 1.00509 0.98843
1.00062 1.00407 0.989893
1.00061 1.00508 0.988911
0.999812 1.00518 0.989775
1.00015 0.999961 0.994662
1.00048 1.00312 0.990974
1.00037 1.00433 0.989681
1.00011 0.997384 0.998903
1.00024 0.999261 0.995147
1.00044 1.00218 0.991926
1.00013 0.997125 0.999006
1.00028 0.998853 0.995507
1.00012 0.996867 0.999127
0.994722 0.994799 0.805195
0.994804 0.994823 0.826206
0.994814 0.994838 0.814118
1.00197 1.00234 0.98887
1.00485 1.00156 0.986629
1.00234 1.00315 0.98799
1.00006 1.00488 0.989764
1.00257 1.00227 0.989784
0.999075 1.00244 0.992942
0.998834 1.00464 0.991758
1.00213 1.00309 0.988144
1.00227 1.00208 0.989379
0.999057 0.999742 0.99618
0.999176 1.0039 0.993028
0.998534 1.0045 0.993598
0.99867 0.994804 0.858509
0.994695 0.994797 0.806395
0.994779 0.994784 0.811214
0.994742 0.994837 0.803062
0.994803 0.99737 0.88753
0.994857 0.997719 0.927717
0.994895 0.997057 0.95714
0.994868 0.996883 0.961912
0.99607 0.9965 0.881263
0.99484 0.996654 0.929474
0.994856 0.997381 0.965195
0.995875 0.994786 0.930038
0.999856 0.995501 1.00178
0.999577 0.996232 1.00013
0.998192 1.00141 0.996063
0.994924 0.998879 0.986417
0.997738 0.999748 1.00046
0.996748 0.998788 0.991596
0.996458 0.996458 0.990246
0.999788 0.994929 0.871163
0.994703 0.994821 0.818119
0.994817 0.994814 0.827006
0.994785 1.00502 0.98321
0.994856 0.994892 0.955699
0.994696 0.994831 0.818991
0.995576 0.994774 0.930441
0.998806 0.994815 0.884525
0.99489 1.00041 0.986086
0.999767 0.994852 0.86909
0.998253 0.995185 0.929823
0.994842 0.99479 0.958084
0.996653 0.998338 0.987395
0.999956 0.994885 0.942581
0.995165 0.9948 0.963542
0.997674 1.00063 0.995107
1.00023 1.00115 0.991644
1.00365 0.999758 0.99053
1.00237 1.00045 0.989303
1.0042 0.999087 0.987968
1.00517 0.996401 0.989045
1.00428 1.00084 0.985749
1.00491 0.997221 0.988374
1.00528 0.995006 0.989994
1.00483 0.999466 0.98603
1.00531 0.995979 0.989063
1.00526 0.994974 0.990452
1.00528 0.995119 0.990497
1.00528 0.995574 0.990029
1.00524 0.99598 0.989821
1.00527 0.997623 0.987935
1.00527 0.997308 0.988087
1.00533 0.996953 0.98822
1.00529 0.999849 0.985802
1.00525 0.999092 0.986173
1.00522 0.999108 0.986404
1.0053 1.00161 0.984274
1.00528 1.00118 0.984634
1.00518 1.00061 0.9852
1.00354 1.00274 0.986055
1.0051 1.00155 0.984767
1.00488 1.00192 0.984434
1.00076 1.00302 0.990503
1.00275 1.0036 0.986546
1.00396 1.00199 0.986003
1.00007 0.999457 0.998078
1.00044 1.00248 0.991643
1.0021 1.00463 0.987366
1.00001 0.999124 0.997218
1.00034 1.0017 0.992631
1.00011 0.998504 0.998424
1.00441 1.00074 0.987413
1.00226 1.00304 0.987871
1.00114 1.00488 0.987959
1.00075 1.00472 0.988722
1.00077 1.00511 0.988476
1.00089 1.00469 0.988995
1.00014 1.00077 0.993897
1.00054 1.00417 0.989876
1.00016 1.0051 0.988887
1.00008 0.997738 0.998765
1.00014 0.999868 0.994691
1.00046 1.00312 0.990991
1.0001 0.997388 0.998926
1.00023 0.999231 0.995171
1.00012 0.997105 0.999032
0.999751 0.994821 0.869081
0.994708 0.994807 0.81097
0.994814 0.994822 0.826559
1.00171 1.00256 0.988771
1.00236 1.00355 0.98719
1.00441 1.00212 0.986616
1.00502 1.00342 0.983416
1.00214 1.00291 0.988162
0.999476 1.00491 0.991299
1.00164 1.00347 0.989146
1.00146 1.00218 0.99006
1.00452 0.996898 0.989177
1.0021 0.998806 0.993206
1.00238 0.996261 0.994563
1.0002 0.998955 0.995934
0.999541 1.00308 0.993514
0.997782 0.994855 0.94012
0.998764 0.994774 0.863133
0.994669 0.994794 0.811923
0.996176 0.994846 0.867219
0.994828 0.998519 0.939011
0.994854 0.995775 0.963316
0.994854 0.996846 0.966878
0.996552 0.997755 0.942208
0.995736 0.994799 0.966063
0.999219 0.996592 0.999933
0.999142 0.99603 1.00183
0.999254 0.997599 1.00006
0.997249 0.998247 0.991361
0.997397 0.997084 0.990373
0.999988 0.994893 0.929823
0.999792 0.994887 0.876944
0.994689 0.994802 0.815593
0.994902 0.999451 0.982497
0.995107 0.994782 0.956766
0.999805 0.994811 0.868216
0.99783 0.994821 0.942623
0.99639 0.998195 0.987641
1.00029 0.994876 0.93844
0.99599 0.994832 0.961353
1.00041 0.994963 0.987241
0.998052 0.994832 0.971471
0.999224 0.999516 0.991724
1.00283 0.998238 0.990574
1.0051 0.995246 0.991243
1.00398 0.998806 0.987917
1.00511 0.996233 0.988957
1.00528 0.994864 0.990333
1.00471 0.997684 0.988325
1.00528 0.995067 0.989942
1.00526 0.994855 0.990483
1.00531 0.995999 0.98901
1.00525 0.995007 0.990422
1.00528 0.994873 0.990617
1.00527 0.995071 0.990555
1.00526 0.995307 0.990494
1.00528 0.995529 0.990166
1.00523 0.995961 0.989822
1.00522 0.996509 0.989267
1.00528 0.998646 0.98714
1.00527 0.997684 0.987918
1.00527 0.997355 0.98822
1.00534 1.00121 0.984547
1.0053 0.999935 0.985657
1.00526 0.999146 0.986127
1.00431 1.00201 0.985489
1.00523 1.00164 0.984325
1.00529 1.0012 0.984664
1.00124 1.0031 0.98949
1.00336 1.003 0.986057
1.00485 1.0018 0.984764
1.00019 1.00021 0.997666
1.00087 1.00284 0.990494
1.00296 1.00368 0.986518
1.00013 0.999645 0.997931
1.00057 1.00236 0.991615
1.00013 0.999071 0.99816
1.00516 1.00263 0.984158
1.00396 1.00081 0.987325
1.00259 1.00304 0.987198
1.00169 1.00304 0.988
1.00121 1.00484 0.987788
1.00112 1.00508 0.988161
1.00057 1.00513 0.988518
1.00062 1.00484 0.988962
1.00019 1.00161 0.99295
1.00005 0.998269 0.998523
1.0001 1.00071 0.993923
1.00038 1.00425 0.989861
1.00006 0.99767 0.998816
1.00015 0.999768 0.994706
1.00009 0.997347 0.998948
0.99997 0.994883 0.943292
0.999816 0.994854 0.868431
0.994685 0.994796 0.805093
1.00202 1.0047 0.986383
1.00366 1.00259 0.986605
1.00326 1.00284 0.987533
1.00456 1.00323 0.983848
1.00519 1.00081 0.984871
1.00364 1.00023 0.986971
1.00061 1.0026 0.990704
1.00455 0.996272 0.989476
1.00217 0.998453 0.99325
1.00424 0.995396 0.990485
1.00379 0.997153 0.9923
1.00242 0.996974 0.993503
1.00198 0.996475 0.994448
0.999659 0.999631 0.995697
0.995741 0.994824 0.964337
0.998698 0.995942 0.935618
0.997649 0.994833 0.880325
0.995837 0.996287 0.929725
0.994909 0.996871 0.967322
0.995514 0.995743 0.971831
0.999281 0.994818 0.992271
1 0.995945 0.999377
0.99848 0.99628 1.0019
0.998704 0.999003 0.990542
0.997399 0.995234 0.965784
1.00007 0.994871 0.943822
0.9998 0.994904 0.859541
0.995977 0.998248 0.987991
0.996383 0.994849 0.96179
0.999803 0.994848 0.933877
0.999817 0.995736 0.987615
0.998418 0.994855 0.970588
1.0029 0.995296 0.989699
1.00346 0.996364 0.984821
1.0018 0.997049 0.990604
1.00457 0.995206 0.991259
1.00525 0.994836 0.990793
1.00504 0.996157 0.98887
1.00528 0.994861 0.990281
1.0053 0.994914 0.990463
1.00529 0.995146 0.989888
1.00526 0.994867 0.990463
1.00531 0.994909 0.990501
1.00525 0.995048 0.990391
1.00527 0.994885 0.990619
1.00528 0.994916 0.990637
1.00527 0.99503 0.990611
1.00526 0.995255 0.990509
1.00523 0.995765 0.99017
1.00523 0.995949 0.989824
1.00522 0.996534 0.989263
1.00526 0.997817 0.988088
1.00531 1.00029 0.985535
1.00528 0.998828 0.986896
1.00527 0.997749 0.987901
1.00509 1.00103 0.985173
1.00533 1.00122 0.984594
1.00531 1.00002 0.985513
1.00187 1.00275 0.988708
1.00412 1.00231 0.985504
1.00517 1.00168 0.984374
1.00059 1.00074 0.997209
1.00132 1.003 0.989481
1.00319 1.00328 0.986059
1.0004 1.00037 0.997481
1.00092 1.00271 0.990493
1.00028 0.99985 0.997755
1.00521 1.00149 0.984623
1.00517 1.00218 0.984317
1.00447 1.00196 0.985284
1.00381 1.00144 0.987236
1.00261 1.00314 0.987004
1.00217 1.00428 0.987149
1.0012 1.00476 0.987621
1.00096 1.00509 0.988172
1.00041 1.00234 0.991951
1.00042 1.00504 0.988933
1.00008 1.00175 0.992969
1.00003 0.99906 0.998221
1.00002 0.998211 0.998614
1.00005 1.00072 0.993955
1.00005 0.997633 0.998859
0.996736 0.994874 0.966296
0.999921 0.994876 0.929319
0.999818 0.994878 0.880957
1.00526 0.9987 0.986666
1.00449 1.00276 0.986925
1.00416 1.00297 0.984279
1.00434 1 0.987401
1.00518 1.00101 0.98483
1.00496 0.997467 0.988369
1.00492 0.997301 0.989785
1.00195 0.997576 0.993309
1.00473 0.996168 0.990472
1.00359 0.997421 0.991239
1.00468 0.996442 0.989696
1.00328 0.994889 0.994304
1.00242 0.996612 0.993602
1.00193 0.996666 0.994322
0.998682 0.994813 0.990823
0.995771 0.994831 0.962761
0.998464 0.994824 0.930267
0.995186 0.996285 0.971233
0.998882 0.994834 0.995004
1.00018 0.995372 0.998765
1.00231 0.994851 0.981479
0.997468 0.994873 0.965618
0.999998 0.99488 0.929941
0.99891 0.995916 0.987992
0.998719 0.994864 0.96992
1.00203 0.994981 0.990208
1.00324 0.995594 0.985678
1.00389 0.995248 0.990901
1.00507 0.996398 0.990926
1.00408 0.995101 0.991266
1.00519 0.994863 0.990701
1.00536 0.994908 0.990343
1.00528 0.994861 0.990232
1.00528 0.994905 0.990468
1.00535 0.994908 0.990424
1.00527 0.994877 0.990444
1.0053 0.994903 0.990515
1.0053 0.994909 0.990652
1.00526 0.994895 0.990622
1.00528 0.994914 0.990628
1.00526 0.995052 0.990705
1.00525 0.995203 0.990524
1.00523 0.995636 0.990264
1.00525 0.996891 0.989112
1.00523 0.996554 0.989259
1.00526 0.99773 0.988174
1.00529 0.999845 0.986142
1.00527 1.00076 0.985205
1.00531 1.00045 0.985371
1.00529 0.999004 0.986652
1.00274 1.00151 0.988565
1.005 1.00117 0.985173
1.00532 1.00121 0.984642
1.00096 1.00093 0.996851
1.00214 1.00246 0.98869
1.00395 1.00252 0.985523
1.00073 1.00079 0.997069
1.00148 1.00289 0.989476
1.00055 1.00049 0.997321
1.00525 1.00014 0.985534
1.00523 1.00149 0.984531
1.00513 1.00129 0.984906
1.0052 1.00171 0.984476
1.00467 1.00178 0.985238
1.00316 1.00344 0.986459
1.00275 1.00287 0.986809
1.00207 1.00437 0.987159
1.0007 1.00275 0.990912
1.00083 1.00511 0.988172
1.00022 1.00244 0.991976
1.00004 0.999766 0.997886
0.99996 1.00178 0.992989
0.999986 0.998897 0.998333
1 0.998067 0.998696
1.0003 0.995169 0.986535
0.996596 0.994889 0.962557
0.999985 0.994866 0.943083
1.00522 0.99703 0.988471
1.00524 0.996685 0.988833
1.00526 0.998427 0.986926
1.00498 0.999337 0.987824
1.00516 1.00129 0.984794
1.00506 0.997383 0.988615
1.00523 0.995472 0.989497
1.005 0.99593 0.990461
1.00335 0.99814 0.990184
1.00445 0.996952 0.990109
1.00511 0.99497 0.990806
1.00371 0.994857 0.993024
1.00293 0.994941 0.993987
1.00265 0.996177 0.993715
0.999388 0.994802 0.990878
0.995815 0.994829 0.961409
0.998857 0.994884 0.997868
1.00491 0.994961 0.990453
1.00225 0.995408 0.9816
0.99767 0.994858 0.964244
1.00173 0.994784 0.99067
1.00304 0.994813 0.986553
1.00392 0.995089 0.991573
1.00509 0.99557 0.991027
1.00537 0.994784 0.990944
1.00547 0.994812 0.991191
1.0052 0.994881 0.990609
1.00538 0.994907 0.99032
1.00537 0.994889 0.990507
1.00527 0.994894 0.990473
1.00534 0.994905 0.990452
1.00531 0.994906 0.990639
1.00529 0.994897 0.990529
1.0053 0.994908 0.990648
1.00525 0.994911 0.990896
1.00529 0.994913 0.990618
1.00526 0.995057 0.990681
1.00526 0.996102 0.989819
1.00524 0.995502 0.990358
1.00526 0.996827 0.989144
1.00531 0.999256 0.986702
1.00526 0.997646 0.98826
1.00529 0.999746 0.986263
1.00527 1.00059 0.985386
1.00301 1.00066 0.988934
1.00522 1.0008 0.985214
1.00532 1.00062 0.985206
1.0013 1.00088 0.996614
1.00279 1.00146 0.988554
1.00484 1.00139 0.985174
1.00109 1.00099 0.996725
1.00231 1.00226 0.988669
1.00088 1.00091 0.996916
1.00524 0.998331 0.987322
1.00524 0.999987 0.985732
1.00527 1.00091 0.985073
1.00523 1.00146 0.984434
1.0052 1.00125 0.984885
1.00366 1.00248 0.986321
1.0049 1.00166 0.985197
1.00307 1.00313 0.986448
1.00105 1.00311 0.989866
1.00177 1.00439 0.987174
1.00061 1.00289 0.990941
1.00018 1.00059 0.997519
1.00011 1.00259 0.991998
0.999992 0.999649 0.998016
0.999929 0.998773 0.998437
1.00432 0.995221 0.991848
1.00041 0.995051 0.984317
0.996511 0.994915 0.962187
1.00525 0.995886 0.989672
1.00521 0.996605 0.988781
1.00525 0.995588 0.990042
1.00524 0.996746 0.988801
1.00526 0.998124 0.987182
1.00534 0.994874 0.990167
1.00513 0.997507 0.988852
1.00524 0.995747 0.989508
1.0053 0.99481 0.990564
1.00435 0.99731 0.99052
1.00512 0.995072 0.990485
1.00336 0.995007 0.993294
1.00229 0.995463 0.993676
0.999796 0.994794 0.990721
1.00544 0.994874 0.990868
1.00492 0.995508 0.990511
1.00201 0.995688 0.9818
1.00383 0.994799 0.992234
1.00507 0.994753 0.991139
1.00535 0.994788 0.990988
1.0055 0.994841 0.991093
1.0054 0.994841 0.990983
1.0054 0.994908 0.9903
1.00536 0.99489 0.990521
1.00531 0.994896 0.990821
1.00534 0.994903 0.990479
1.00531 0.994907 0.990635
1.00524 0.994912 0.990978
1.0053 0.994908 0.990644
1.00526 0.994912 0.990873
1.00528 0.99546 0.990522
1.00526 0.995063 0.990656
1.00527 0.996137 0.989805
1.00535 0.998613 0.987369
1.00526 0.996762 0.989175
1.00531 0.999262 0.986727
1.00526 1.00045 0.985565
1.00529 0.999645 0.986385
1.00527 1.00058 0.985403
1.00301 1.00032 0.991005
1.00165 1.00023 0.993238
1.00304 1.00067 0.989778
1.0052 1.00084 0.985219
1.00131 1.00086 0.996618
1.00293 1.00125 0.988535
1.00118 1.00104 0.996633
1.00523 0.995498 0.990387
1.00524 0.997022 0.988803
1.00523 0.9983 0.987522
1.00527 1.0003 0.985645
1.00524 0.999845 0.985932
1.00527 1.00096 0.985002
1.0044 1.00127 0.986011
1.00524 1.0012 0.984864
1.00382 1.002 0.986304
1.00177 1.00283 0.988974
1.00319 1.00281 0.986434
1.00103 1.00319 0.989855
1.00048 1.00117 0.997076
1.00048 1.00293 0.990972
1.00006 1.00033 0.997665
0.999922 0.999506 0.998135
1.00542 0.994818 0.990825
1.00431 0.995127 0.991542
1.00085 0.994897 0.982165
1.00529 0.99502 0.990438
1.00522 0.995899 0.989551
1.00521 0.996199 0.989093
1.00524 0.995765 0.989992
1.00523 0.996809 0.988767
1.00537 0.994824 0.990566
1.00534 0.994873 0.990164
1.00525 0.995964 0.989518
1.00526 0.994808 0.99061
1.00511 0.995101 0.990163
1.00318 0.99475 0.99356
1.00533 0.994896 0.991078
1.00546 0.994855 0.99096
1.00501 0.995944 0.990565
1.00534 0.994796 0.991011
1.00552 0.994874 0.990998
1.0054 0.994848 0.990938
1.0053 0.994917 0.991117
1.00536 0.994892 0.990535
1.00531 0.994901 0.990783
1.00524 0.994942 0.991069
1.00531 0.994908 0.990632
1.00524 0.994913 0.990971
1.00529 0.995054 0.990987
1.00527 0.994913 0.990851
1.00527 0.995481 0.990505
1.00537 0.998013 0.98799
1.00527 0.996172 0.989791
1.00534 0.998624 0.98739
1.00526 1.00029 0.985752
1.0053 0.999269 0.986752
1.00527 1.00043 0.985588
1.00309 1.0001 0.991106
1.00528 1.00057 0.985418
1.00323 1.00021 0.990871
1.00168 0.99991 0.993473
1.00133 1.00053 0.995053
1.00326 1.00064 0.990447
1.0013 1.00087 0.99664
1.00525 0.994972 0.990902
1.00523 0.996677 0.989196
1.00523 0.995399 0.990511
1.00529 0.999402 0.986511
1.00525 0.997077 0.98879
1.00523 0.998273 0.987721
1.00527 1.00031 0.985584
1.00503 1.00061 0.985635
1.00527 1.00101 0.98493
1.00459 1.00103 0.986008
1.00251 1.00181 0.988649
1.00394 1.00162 0.986292
1.00158 1.00302 0.988973
1.00081 1.00146 0.996715
1.0009 1.00333 0.989857
1.00032 1.00101 0.997254
0.999997 1.00019 0.997805
1.00532 0.994895 0.990804
1.00536 0.994819 0.990874
1.00413 0.995103 0.991235
1.00529 0.994845 0.990769
1.00528 0.995081 0.990386
1.00518 0.995916 0.989437
1.00523 0.995938 0.989941
1.00536 0.994825 0.990567
1.00534 0.99487 0.990161
1.00523 0.994811 0.990656
1.00528 0.994946 0.991144
1.00532 0.994898 0.991054
1.00547 0.994836 0.991048
1.00528 0.994938 0.991206
1.00541 0.994849 0.990892
1.0053 0.994918 0.991105
1.00524 0.994942 0.991172
1.00531 0.994904 0.990746
1.00524 0.994941 0.991077
1.00529 0.994934 0.99118
1.00525 0.994913 0.990964
1.00527 0.99506 0.99097
1.00537 0.997489 0.988565
1.00525 0.995503 0.990488
1.00537 0.998022 0.988003
1.00525 1.00011 0.985992
1.00533 0.998635 0.987411
1.00528 1.00027 0.985778
1.00312 1.0001 0.991056
1.00528 1.00041 0.985611
1.00328 1.00003 0.990943
1.00175 0.999816 0.993471
1.00343 1.00009 0.990746
1.00122 1.0001 0.993783
1.00067 1.00088 0.997216
1.00523 0.994886 0.991009
1.00524 0.995814 0.990108
1.00525 0.995017 0.990854
1.0053 0.999007 0.986971
1.00524 0.996369 0.989444
1.00523 0.995301 0.990636
1.00527 1.00024 0.985715
1.00529 0.999395 0.986474
1.00525 0.997132 0.988778
1.00528 1.00032 0.985523
1.00512 1.00052 0.985633
1.00285 1.0009 0.988954
1.00474 1.0008 0.98601
1.00235 1.00203 0.988685
1.00101 1.00138 0.996649
1.00152 1.00314 0.98896
1.0007 1.00134 0.996846
1.00016 1.00081 0.997422
1.00528 0.994928 0.990991
1.00533 0.994895 0.990757
1.00532 0.994818 0.990926
1.00529 0.994846 0.990785
1.00527 0.995143 0.990335
1.00536 0.994826 0.990568
1.00527 0.994956 0.99117
1.00528 0.994941 0.991159
1.00531 0.9949 0.99103
1.00528 0.994942 0.991198
1.00522 0.994943 0.991346
1.00529 0.994919 0.991093
1.00524 0.994944 0.991201
1.0053 0.994944 0.991195
1.00523 0.994939 0.991085
1.00529 0.994933 0.991167
1.00536 0.997058 0.989076
1.00526 0.995065 0.990953
1.00539 0.997488 0.988564
1.00517 0.999957 0.986318
1.00537 0.998033 0.988017
1.00526 1.00009 0.986008
1.00305 1.0002 0.99103
1.00529 1.00024 0.985803
1.00328 1.00006 0.99088
1.00177 0.999885 0.993361
1.00345 0.999962 0.990788
1.00134 0.99987 0.993807
1.00078 1.00032 0.994077
1.00519 0.994923 0.991128
1.00523 0.995218 0.990811
1.00522 0.994881 0.990986
1.00532 0.998002 0.987981
1.00524 0.995885 0.990049
1.00525 0.995059 0.990807
1.00529 1.00004 0.985947
1.0053 0.998625 0.987297
1.00525 0.99606 0.989691
1.00298 1.00027 0.989382
1.00526 1.00026 0.985697
1.00528 0.999386 0.986438
1.00523 1.0004 0.985627
1.00283 1.00095 0.98897
1.00113 1.00099 0.996754
1.00222 1.00225 0.988715
1.00098 1.00132 0.996653
1.00056 1.00125 0.996994
1.00527 0.99495 0.991131
1.00528 0.99493 0.990966
1.00533 0.994894 0.99071
1.0053 0.994847 0.990802
1.00521 0.994956 0.991352
1.00527 0.994951 0.991177
1.00528 0.994937 0.991173
1.00527 0.994946 0.99119
1.00522 0.994941 0.991336
1.00528 0.99515 0.991017
1.00524 0.994944 0.991231
1.0053 0.995072 0.991077
1.00534 0.996563 0.989663
1.00529 0.994932 0.991154
1.00537 0.997053 0.989066
1.00507 0.999746 0.9867
1.00541 0.997501 0.988562
1.00519 0.999915 0.986328
1.00299 1.00029 0.989445
1.00528 1.00006 0.986026
1.00321 1.00016 0.990042
1.00154 0.999958 0.996728
1.00345 1.00002 0.990705
1.00141 0.999863 0.993708
1.00096 0.999921 0.994127
1.00519 0.994952 0.991202
1.00524 0.995046 0.991028
1.00519 0.994929 0.991152
1.00537 0.997318 0.988701
1.00525 0.995361 0.990578
1.00522 0.994877 0.990963
1.00527 0.999566 0.986463
1.00531 0.998014 0.987997
1.00525 0.995951 0.989989
1.0031 0.999891 0.989578
1.00528 0.999865 0.986085
1.0053 0.998241 0.987623
1.00126 1.00052 0.99685
1.00301 1.00023 0.989379
1.00527 1.00027 0.985674
1.00278 1.00101 0.988994
1.00115 1.001 0.996708
1.00092 1.00129 0.996694
1.00519 0.994964 0.991279
1.00526 0.994954 0.99113
1.00529 0.994933 0.990941
1.00526 0.995189 0.991079
1.00521 0.994955 0.991324
1.00527 0.994946 0.991184
1.00523 0.99494 0.991327
1.00528 0.995197 0.991015
1.00533 0.996811 0.989396
1.0053 0.995213 0.990958
1.00535 0.996891 0.989297
1.00497 0.999138 0.987512
1.00539 0.997033 0.989055
1.00507 0.999733 0.986706
1.0029 1.00019 0.989712
1.00521 0.999879 0.986337
1.00302 1.00025 0.989456
1.00144 1.00002 0.996737
1.00325 1.00016 0.9892
1.00138 0.999971 0.995251
1.00106 0.999833 0.994053
1.00515 0.994959 0.991345
1.00526 0.994967 0.991218
1.00519 0.994954 0.991208
1.0054 0.997452 0.988523
1.00525 0.995002 0.991073
1.00519 0.994934 0.991175
1.00526 0.999408 0.986649
1.00537 0.997689 0.988308
1.00526 0.995509 0.990345
1.00316 0.999825 0.989561
1.00527 0.999527 0.986479
1.0053 0.998028 0.988013
1.00144 1.00012 0.996856
1.00313 0.999845 0.989576
1.00527 0.999693 0.986223
1.00129 1.00054 0.996816
1.00304 1.00017 0.989378
1.00111 1.00102 0.99667
1.00523 0.995245 0.99099
1.00519 0.994962 0.991304
1.00526 0.994958 0.99113
1.00533 0.996809 0.989415
1.00526 0.995232 0.991052
1.00521 0.994954 0.991296
1.00528 0.995242 0.991013
1.00533 0.996843 0.989403
1.00491 0.998955 0.9878
1.00535 0.997205 0.988931
1.00499 0.999322 0.98726
1.00283 1.00004 0.989985
1.00507 0.999716 0.986712
1.00287 1.00021 0.989724
1.00133 1.00004 0.996778
1.00302 1.00022 0.989465
1.00141 1.00004 0.996747
1.00147 0.99993 0.99348
1.00523 0.995312 0.990955
1.00516 0.994957 0.991282
1.00538 0.997216 0.988829
1.00526 0.99496 0.991229
1.00518 0.994957 0.991213
1.0052 0.999698 0.986483
1.00539 0.997469 0.988525
1.00525 0.994961 0.991119
1.00315 0.999919 0.989525
1.00525 0.99959 0.986467
1.00535 0.998065 0.987915
1.00154 0.999939 0.996794
1.00318 0.999814 0.98956
1.00526 0.999486 0.986496
1.00143 1.00016 0.996859
1.00317 0.999807 0.989573
1.00132 1.00056 0.99678
1.00534 0.996907 0.989282
1.00523 0.995283 0.991019
1.0052 0.994961 0.991329
1.0049 0.998897 0.98787
1.00533 0.996845 0.989416
1.00525 0.995276 0.991025
1.00533 0.996879 0.98941
1.00494 0.998931 0.987766
1.00271 0.999964 0.99026
1.005 0.999506 0.987007
1.0028 1.00005 0.989995
1.00126 1.00002 0.996835
1.00287 1.00022 0.989737
1.00129 1.00006 0.996804
1.00137 1.00004 0.996764
1.00535 0.997068 0.98909
1.00523 0.995147 0.991101
1.00516 0.994954 0.991219
1.00509 0.999618 0.986793
1.00538 0.997228 0.988838
1.00525 0.994947 0.99124
1.00305 1.00002 0.989631
1.00517 0.999745 0.986482
1.00538 0.997483 0.988527
1.00152 0.99992 0.996748
1.00315 0.999939 0.989524
1.00525 0.99976 0.986287
1.00153 0.999969 0.996819
1.00319 0.999815 0.989557
1.00146 1.00017 0.99685
1.00493 0.999309 0.987375
1.00533 0.996748 0.98948
1.00523 0.99532 0.991048
1.00266 0.999874 0.990465
1.0049 0.998868 0.987865
1.00532 0.996877 0.989417
1.00496 0.998903 0.987733
1.00272 0.999936 0.99027
1.00119 1.00002 0.996881
1.00278 1.00006 0.990005
1.00124 1.00003 0.996846
1.00124 1.00008 0.996824
1.005 0.999441 0.987142
1.00535 0.996886 0.98929
1.00523 0.994967 0.991248
1.00301 1.00004 0.99128
1.00506 0.999632 0.986796
1.00538 0.997244 0.988846
1.00141 0.999958 0.996761
1.00304 1.00005 0.989627
1.00514 0.999796 0.986478
1.00153 0.999934 0.996763
1.00314 0.999963 0.989521
1.00154 0.999981 0.996841
1.00276 0.999871 0.990354
1.00492 0.99912 0.987567
1.00533 0.996588 0.989678
1.0011 0.999979 0.996955
1.00264 0.999872 0.99046
1.00492 0.998842 0.987862
1.00271 0.999911 0.990276
1.00116 1.00001 0.996907
1.0012 1.00005 0.996865
1.00296 0.99995 0.991508
1.00498 0.999445 0.987144
1.00535 0.996718 0.989489
1.0008 1.00001 0.997356
1.00289 1.00005 0.989884
1.00504 0.999642 0.986799
1.00144 0.999967 0.99676
1.00301 1.0001 0.989624
1.00156 0.999942 0.996781
1.00109 0.999938 0.994111
1.00279 0.999875 0.99104
1.00492 0.998931 0.987759
1.00113 0.999982 0.996963
1.00265 0.999874 0.990462
1.00117 0.999996 0.996928
1.00061 0.999991 0.994551
1.00287 0.999932 0.990849
1.00496 0.999454 0.987146
1.00103 0.999995 0.995591
1.00288 1.00005 0.989906
1.00147 0.999969 0.996762
1.00112 0.999965 0.996955
1.00266 0.999864 0.990448
1.00109 0.999984 0.996961
1.00089 0.999962 0.995757
1.00276 0.999924 0.990246
1.00133 0.999986 0.9968
1.00115 0.999965 0.996957
1.0012 0.999973 0.996888

TENSORS stress float
0.00227643 -0.000156944 0.000263996
-0.000156944 0.0011003 -4.54196e-05
0.000263996 -4.54196e-05 0.00107405
0.00708592 6.82222e-05 0.000306181
6.82222e-05 0.00413787 3.51353e-05
0.000306181 3.51353e-05 0.00414435
0.0018961 -8.71025e-05 0.000110267
-8.71025e-05 0.000859299 -1.77542e-05
0.000110267 -1.77542e-05 0.000821073
0.00225725 -8.91395e-05 0.00025541
-8.91395e-05 0.00106407 -2.59698e-05
0.00025541 -2.59698e-05 0.00104748
0.00230562 -0.00013796 0.000257894
-0.00013796 0.00110865 -3.9996e-05
0.000257894 -3.9996e-05 0.00108583
0.00229938 -0.000161659 0.000275998
-0.000161659 0.00111503 -4.70854e-05
0.000275998 -4.70854e-05 0.00108916
0.00187461 -0.000148336 5.21413e-05
-0.000148336 0.000750748 -1.45724e-05
5.21413e-05 -1.45724e-05 0.000634662
0.00701247 5.9351e-05 -7.70179e-06
5.9351e-05 0.00408306 -1.64839e-06
-7.70179e-06 -1.64839e-06 0.00409418
0.00661635 0.000220027 0.000151775
0.000220027 0.0038364 1.51308e-05
0.000151775 1.51308e-05 0.00380942
0.00665986 -1.69328e-05 8.71584e-05
-1.69328e-05 0.00384414 4.47421e-06
8.71584e-05 4.47421e-06 0.00382452
0.0019939 0.000204456 0.000282084
0.000204456 0.000930568 3.74068e-05
0.000282084 3.74068e-05 0.000920153
0.000414198 0.000261075 2.67625e-05
0.000261075 -0.000131218 2.04807e-05
2.67625e-05 2.04807e-05 -0.000272809
0.00183675 -3.26026e-05 0.00024889
-3.26026e-05 0.000799978 4.12741e-06
0.00024889 4.12741e-06 0.000801459
0.00149676 3.38587e-06 6.54447e-05
3.38587e-06 0.000606577 1.81745e-06
6.54447e-05 1.81745e-06 0.000559196
0.0015983 -8.63752e-05 -5.90056e-05
-8.63752e-05 0.000683087 1.08746e-05
-5.90056e-05 1.08746e-05 0.000627259
0.0019001 -8.85689e-05 8.33487e-05
-8.85689e-05 0.00085715 -5.22506e-06
8.33487e-05 -5.22506e-06 0.000822067
0.00192089 -7.60986e-05 0.000120669
-7.60986e-05 0.000879987 -1.91618e-05
0.000120669 -1.91618e-05 0.000837982
0.00190371 -9.39697e-05 9.84329e-05
-9.39697e-05 0.000857945 -1.36841e-05
9.84329e-05 -1.36841e-05 0.000822625
0.0019585 -0.000184543 -4.1737e-05
-0.000184543 0.000801831 6.17632e-06
-4.1737e-05 6.17632e-06 0.000694937
0.00621954 -0.00014731 0.000323879
-0.00014731 0.00359629 -1.4235e-05
0.000323879 -1.4235e-05 0.00361525
0.00219212 -6.57586e-05 0.000251975
-6.57586e-05 0.00102443 -1.92903e-05
0.000251975 -1.92903e-05 0.00101115
0.00229971 -0.000114205 0.000256189
-0.000114205 0.00109598 -3.32683e-05
0.000256189 -3.32683e-05 0.00107654
0.00184532 -0.00014198 7.20741e-05
-0.00014198 0.000730283 -1.11224e-05
7.20741e-05 -1.11224e-05 0.000629638
0.00187029 -0.000151656 6.06707e-05
-0.000151656 0.000740591 -1.4091e-05
6.06707e-05 -1.4091e-05 0.000632804
0.00217833 -0.000140844 0.00027811
-0.000140844 0.00103037 -4.39269e-05
0.00027811 -4.39269e-05 0.00100661
0.00188225 -0.000146622 4.55149e-05
-0.000146622 0.000774869 -1.48248e-05
4.55149e-05 -1.48248e-05 0.000646613
0.00207603 -0.000339672 1.96924e-05
-0.000339672 0.000638959 -8.45763e-06
1.96924e-05 -8.45763e-06 0.000416819
0.00696778 4.35928e-05 -0.000304117
4.35928e-05 0.00404456 -2.54402e-05
-0.000304117 -2.54402e-05 0.00406026
0.00430792 0.000162496 -0.000148638
0.000162496 0.00237627 -1.69844e-05
-0.000148638 -1.69844e-05 0.00235349
0.00432318 7.85719e-05 -0.000149114
7.85719e-05 0.00239224 -1.51039e-05
-0.000149114 -1.51039e-05 0.00237094
0.00690419 -1.40025e-05 -3.48569e-06
-1.40025e-05 0.00402568 -5.68029e-07
-3.48569e-06 -5.68029e-07 0.00403285
0.000401651 0.000242305 -1.22414e-06
0.000242305 -0.000137092 -1.23057e-06
-1.22414e-06 -1.23057e-06 -0.000278327
0.00189991 7.08034e-05 0.000259089
7.08034e-05 0.000838951 2.44459e-05
0.000259089 2.44459e-05 0.000826769
0.00202778 0.000161057 0.000265922
0.000161057 0.000952345 3.77196e-05
0.000265922 3.77196e-05 0.000927885
0.00284702 0.000215316 0.000158831
0.000215316 0.00134675 2.33263e-05
0.000158831 2.33263e-05 0.00126199
0.00604307 -0.000286957 1.64172e-05
-0.000286957 0.00354815 4.65013e-06
1.64172e-05 4.65013e-06 0.00349424
0.00296868 0.000293961 0.000166791
0.000293961 0.00146506 2.90542e-05
0.000166791 2.90542e-05 0.00136386
0.000418273 0.000229314 2.63055e-05
0.000229314 -0.000121476 2.75008e-05
2.63055e-05 2.75008e-05 -0.000262737
0.000933292 0.000275224 1.47289e-05
0.000275224 2.55239e-05 6.25442e-06
1.47289e-05 6.25442e-06 -0.000204223
0.00487988 -0.000111232 0.000184451
-0.000111232 0.00281152 1.79392e-05
0.000184451 1.79392e-05 0.00280845
0.00620144 8.40453e-05 3.35743e-06
8.40453e-05 0.00357126 -1.90486e-06
3.35743e-06 -1.90486e-06 0.00359779
0.00407152 9.31733e-05 -0.000124632
9.31733e-05 0.00222473 -5.83384e-06
-0.000124632 -5.83384e-06 0.00221333
0.00604875 5.80711e-05 0.000314597
5.80711e-05 0.00347809 4.42742e-06
0.000314597 4.42742e-06 0.00350538
0.00144934 8.79273e-05 6.69281e-05
8.79273e-05 0.00058254 4.4053e-06
6.69281e-05 4.4053e-06 0.000540192
0.000497108 1.19264e-05 1.50538e-05
1.19264e-05 -0.000143973 1.81143e-06
1.50538e-05 1.81143e-06 -0.000231402
0.00646492 0.000238462 0.000183089
0.000238462 0.00376387 1.78229e-05
0.000183089 1.78229e-05 0.00373806
0.00286972 7.92353e-05 0.000149294
7.92353e-05 0.00133715 9.43593e-06
0.000149294 9.43593e-06 0.00127729
0.00146778 -8.87064e-05 -8.00594e-05
-8.87064e-05 0.000603558 1.03254e-05
-8.00594e-05 1.03254e-05 0.000549523
0.00151529 -0.000113653 -7.22915e-05
-0.000113653 0.000637549 1.30482e-05
-7.22915e-05 1.30482e-05 0.000579395
0.00166031 -4.46459e-05 -4.68976e-05
-4.46459e-05 0.000717032 9.06545e-06
-4.68976e-05 9.06545e-06 0.000661025
0.00200068 -0.000186477 -0.000142723
-0.000186477 0.000819525 2.69097e-05
-0.000142723 2.69097e-05 0.000724469
0.00390052 -2.2855e-05 -0.000126243
-2.2855e-05 0.00212839 -1.62766e-06
-0.000126243 -1.62766e-06 0.00211704
0.001834 -6.87951e-05 8.79624e-05
-6.87951e-05 0.000813795 -4.08646e-06
8.79624e-05 -4.08646e-06 0.000783255
0.00195372 -5.35044e-05 0.000126497
-5.35044e-05 0.000900184 -1.83702e-05
0.000126497 -1.83702e-05 0.000855641
0.00190941 -9.20266e-05 8.93506e-05
-9.20266e-05 0.000860225 -8.97625e-06
8.93506e-05 -8.97625e-06 0.000825518
0.00191876 -0.000119902 -3.38852e-05
-0.000119902 0.000765265 2.41842e-06
-3.38852e-05 2.41842e-06 0.000676696
0.00197081 -0.00018897 -4.91365e-05
-0.00018897 0.000821613 7.10466e-06
-4.91365e-05 7.10466e-06 0.000706606
0.00195203 -0.000168744 -3.61616e-05
-0.000168744 0.000790749 4.41385e-06
-3.61616e-05 4.41385e-06 0.000691311
0.00208931 -0.000341449 -1.02914e-05
-0.000341449 0.000644135 2.71502e-06
-1.02914e-05 2.71502e-06 0.000422531
0.00603357 2.74693e-06 0.000310655
2.74693e-06 0.00346636 -2.57923e-06
0.000310655 -2.57923e-06 0.00349495
0.00210309 -4.06373e-05 0.000246396
-4.06373e-05 0.000972612 -1.3303e-05
0.000246396 -1.3303e-05 0.000963152
0.00244904 -1.09672e-05 5.30303e-05
-1.09672e-05 0.0011015 -1.02371e-06
5.30303e-05 -1.02371e-06 0.00103226
0.00179056 -0.000114958 6.42449e-05
-0.000114958 0.000693211 -7.34955e-06
6.42449e-05 -7.34955e-06 0.000601934
0.00186298 -0.000148436 6.78817e-05
-0.000148436 0.000738287 -1.31664e-05
6.78817e-05 -1.31664e-05 0.000634342
0.0019322 -0.000221487 1.00297e-05
-0.000221487 0.000471743 -2.9478e-06
1.00297e-05 -2.9478e-06 0.000300131
0.0019335 -0.000297126 1.64542e-05
-0.000297126 0.000508874 -6.10382e-06
1.64542e-05 -6.10382e-06 0.000309195
0.00190276 -9.51709e-05 0.00024987
-9.51709e-05 0.000861042 -3.55193e-05
0.00024987 -3.55193e-05 0.000841556
0.00186622 -0.000112714 3.54586e-05
-0.000112714 0.000779221 -1.3855e-05
3.54586e-05 -1.3855e-05 0.000647621
0.00206926 -0.000368907 2.10909e-05
-0.000368907 0.000680369 -9.42039e-06
2.10909e-05 -9.42039e-06 0.0004398
0.00173616 -0.000446589 7.5117e-06
-0.000446589 0.00019373 -8.91527e-07
7.5117e-06 -8.91527e-07 -7.53705e-05
0.00701012 0.000275941 -0.000353748
0.000275941 0.00408285 -4.03525e-05
-0.000353748 -4.03525e-05 0.00408883
0.00676521 -4.20555e-05 -0.00027095
-4.20555e-05 0.0039405 -2.0267e-05
-0.00027095 -2.0267e-05 0.00394935
0.00697402 0.000122433 -0.000321111
0.000122433 0.00404334 -3.05058e-05
-0.000321111 -3.05058e-05 0.00406086
0.000431683 0.000237244 -2.55412e-05
0.000237244 -0.000112802 -2.07162e-05
-2.55412e-05 -2.07162e-05 -0.000257009
0.00689602 0.000246699 -2.45277e-06
0.000246699 0.00400613 -2.44423e-06
-2.45277e-06 -2.44423e-06 0.00401706
0.00702181 0.000227867 -9.15366e-06
0.000227867 0.00408191 -3.12508e-06
-9.15366e-06 -3.12508e-06 0.00409108
0.000350331 0.000134743 3.57939e-07
0.000134743 -0.000228629 -2.71104e-07
3.57939e-07 -2.71104e-07 -0.000346077
0.00376789 -8.63052e-05 -0.00012214
-8.63052e-05 0.00209157 -5.37095e-06
-0.00012214 -5.37095e-06 0.00205918
0.000360687 0.000215397 4.51973e-07
0.000215397 -0.000174778 -5.92976e-07
4.51973e-07 -5.92976e-07 -0.000311914
0.00176749 0.000238606 5.99928e-05
0.000238606 0.00073167 3.60538e-06
5.99928e-05 3.60538e-06 0.000614231
0.000841316 0.000266106 4.59035e-07
0.000266106 -2.40186e-05 2.21004e-07
4.59035e-07 2.21004e-07 -0.000251272
0.00569382 -0.000137101 0.000210774
-0.000137101 0.00333583 2.5242e-05
0.000210774 2.5242e-05 0.00331992
0.000637111 7.13991e-05 1.78024e-05
7.13991e-05 7.38606e-05 1.38272e-05
1.78024e-05 1.38272e-05 -3.69337e-06
0.000460153 0.000104561 1.48978e-05
0.000104561 -0.000177842 1.07712e-05
1.48978e-05 1.07712e-05 -0.000288841
0.000461931 0.000163605 1.96068e-05
0.000163605 -0.000145394 1.83892e-05
1.96068e-05 1.83892e-05 -0.0002707
0.00119685 0.000263063 1.56497e-05
0.000263063 1.66662e-05 5.77974e-06
1.56497e-05 5.77974e-06 -0.00019083
0.00307034 0.00022492 0.000149191
0.00022492 0.00156305 2.13858e-05
0.000149191 2.13858e-05 0.00148047
0.000957878 0.000284493 1.78895e-05
0.000284493 -2.43901e-05 6.84444e-06
1.78895e-05 6.84444e-06 -0.000252306
0.000856121 0.000269718 1.34223e-05
0.000269718 8.04993e-05 5.71946e-06
1.34223e-05 5.71946e-06 -0.000154426
0.00132392 0.000446429 3.69719e-06
0.000446429 0.000153749 -2.15517e-06
3.69719e-06 -2.15517e-06 -0.000160545
0.00382969 -0.000126713 0.000118025
-0.000126713 0.00213553 8.24157e-06
0.000118025 8.24157e-06 0.00213294
0.00439566 -0.000169181 2.47861e-05
-0.000169181 0.00251473 -6.6743e-07
2.47861e-05 -6.6743e-07 0.00249857
0.00669267 6.55334e-05 -0.000334814
6.55334e-05 0.00386294 -1.70397e-05
-0.000334814 -1.70397e-05 0.00388807
0.00628726 7.52978e-05 -0.000324831
7.52978e-05 0.00362121 -1.03696e-05
-0.000324831 -1.03696e-05 0.00364877
0.00614098 8.39269e-05 -6.66336e-08
8.39269e-05 0.00354086 -3.90923e-06
-6.66336e-08 -3.90923e-06 0.00356503
0.0039041 3.49615e-05 -0.000135217
3.49615e-05 0.00212093 -7.25562e-06
-0.000135217 -7.25562e-06 0.00211504
0.00158707 3.9235e-05 6.44633e-05
3.9235e-05 0.000543115 1.79801e-06
6.44633e-05 1.79801e-06 0.00047369
0.00424423 0.000153215 -0.000127444
0.000153215 0.00233777 -7.67872e-06
-0.000127444 -7.67872e-06 0.00231821
0.00165755 9.41143e-05 6.6135e-05
9.41143e-05 0.000578878 3.30372e-06
6.6135e-05 3.30372e-06 0.000497441
0.00608734 0.000119767 0.00031719
0.000119767 0.00351605 7.31379e-06
0.00031719 7.31379e-06 0.00353534
0.000394625 1.04141e-05 1.8281e-05
1.04141e-05 -0.000203323 8.63896e-07
1.8281e-05 8.63896e-07 -0.000287117
0.00280659 4.122e-05 0.000145889
4.122e-05 0.00130372 6.31619e-06
0.000145889 6.31619e-06 0.00125026
0.00112152 6.82109e-05 1.14501e-05
6.82109e-05 -4.32491e-05 7.16926e-07
1.14501e-05 7.16926e-07 -0.000177161
0.00279355 0.00012426 0.000154536
0.00012426 0.00129146 1.29841e-05
0.000154536 1.29841e-05 0.0012244
0.0012283 0.000153199 1.06149e-05
0.000153199 -9.86046e-06 1.38615e-06
1.06149e-05 1.38615e-06 -0.000168445
0.00185025 4.1711e-05 -0.000247877
4.1711e-05 0.000806295 3.25988e-06
-0.000247877 3.25988e-06 0.000810028
0.00144367 -1.94294e-05 -6.56298e-05
-1.94294e-05 0.000581307 3.07744e-06
-6.56298e-05 3.07744e-06 0.00053386
0.00168187 -1.27399e-05 -4.05826e-05
-1.27399e-05 0.000731374 8.58488e-06
-4.05826e-05 8.58488e-06 0.000673071
0.00148436 -0.000105802 -8.13435e-05
-0.000105802 0.000616797 1.28095e-05
-8.13435e-05 1.28095e-05 0.000560759
0.0020457 -9.86144e-05 -0.000134903
-9.86144e-05 0.000834461 1.29727e-05
-0.000134903 1.29727e-05 0.000757906
0.0020441 -0.000155043 -0.000138235
-0.000155043 0.00083629 2.26986e-05
-0.000138235 2.26986e-05 0.000750051
0.00198477 -0.000204228 -0.000148061
-0.000204228 0.000823448 2.86426e-05
-0.000148061 2.86426e-05 0.000720248
0.00210652 -0.000343043 -3.58727e-05
-0.000343043 0.000653123 1.26309e-05
-3.58727e-05 1.26309e-05 0.000432245
0.00612827 -0.000108239 2.36628e-06
-0.000108239 0.00353843 -1.91786e-06
2.36628e-06 -1.91786e-06 0.00355917
0.00174271 2.73215e-05 9.48148e-05
2.73215e-05 0.000749798 -4.76752e-06
9.48148e-05 -4.76752e-06 0.000728412
0.0011632 -1.19894e-05 -6.74885e-05
-1.19894e-05 0.000281935 2.12338e-06
-6.74885e-05 2.12338e-06 0.0002117
0.00186868 -7.90328e-05 -3.68464e-05
-7.90328e-05 0.000733749 3.07855e-06
-3.68464e-05 3.07855e-06 0.00065272
0.00448142 -5.05359e-05 0.000257777
-5.05359e-05 0.0024998 -1.83488e-05
0.000257777 -1.83488e-05 0.0024932
0.00253756 -0.000199245 -4.48941e-05
-0.000199245 0.00119032 4.28871e-06
-4.48941e-05 4.28871e-06 0.00107095
0.00194454 -0.00014542 -3.34272e-05
-0.00014542 0.000783498 3.1311e-06
-3.34272e-05 3.1311e-06 0.000689972
0.00199312 -0.000221787 -9.92487e-06
-0.000221787 0.000506073 1.78193e-06
-9.92487e-06 1.78193e-06 0.00033827
0.00207521 -0.00037313 -8.75467e-06
-0.00037313 0.000681251 2.39851e-06
-8.75467e-06 2.39851e-06 0.000439839
0.00201264 -0.000300371 -9.01193e-06
-0.000300371 0.000559132 2.36436e-06
-9.01193e-06 2.36436e-06 0.000357903
0.00178612 -0.000449473 9.23255e-07
-0.000449473 0.000226589 -1.61862e-07
9.23255e-07 -1.61862e-07 -4.21612e-05
0.00043044 9.23291e-06 1.90855e-05
9.23291e-06 -0.00018446 -6.34009e-07
1.90855e-05 -6.34009e-07 -0.000264737
0.00170571 -6.3595e-06 5.47e-05
-6.3595e-06 0.000630009 -2.79809e-06
5.47e-05 -2.79809e-06 0.000552406
0.0018586 -7.31248e-05 9.87983e-06
-7.31248e-05 0.000424724 -3.69127e-07
9.87983e-06 -3.69127e-07 0.000305426
0.00183324 -0.000173739 1.02419e-05
-0.000173739 0.000398958 -1.39691e-06
1.02419e-05 -1.39691e-06 0.00024846
0.00193685 -0.000259704 1.2318e-05
-0.000259704 0.000484405 -4.04436e-06
1.2318e-05 -4.04436e-06 0.000303025
0.00192213 -0.000313383 2.34412e-07
-0.000313383 0.000177128 -2.53157e-07
2.34412e-07 -2.53157e-07 -1.2972e-06
0.006383 9.12951e-05 0.000231207
9.12951e-05 0.00372468 -1.82433e-05
0.000231207 -1.82433e-05 0.00372266
0.00173527 -0.00041001 4.7884e-06
-0.00041001 0.000138615 -7.25875e-07
4.7884e-06 -7.25875e-07 -9.96796e-05
0.00020733 -0.000185492 2.02617e-05
-0.000185492 -0.000265076 -2.19054e-05
2.02617e-05 -2.19054e-05 -0.000390187
0.000951446 -0.000292042 1.57829e-05
-0.000292042 3.96953e-05 -9.2503e-06
1.57829e-05 -9.2503e-06 -0.00020318
0.00184925 -0.000499264 1.10379e-05
-0.000499264 0.00032852 -1.66501e-06
1.10379e-05 -1.66501e-06 2.02403e-05
0.00195629 -0.000518517 2.6826e-06
-0.000518517 0.00022575 2.05232e-06
2.6826e-06 2.05232e-06 -2.89754e-05
0.000452694 -0.000153396 2.25518e-05
-0.000153396 -7.39204e-05 -1.73511e-05
2.25518e-05 -1.73511e-05 -0.00017964
0.000711245 -0.000142043 -4.93869e-07
-0.000142043 0.000137702 -5.98605e-07
-4.93869e-07 -5.98605e-07 -0.000107639
0.0069726 0.000270912 -0.000361525
0.000270912 0.0040602 -3.80437e-05
-0.000361525 -3.80437e-05 0.00406785
0.00701443 0.000216332 -0.00034063
0.000216332 0.00407526 -3.70381e-05
-0.00034063 -3.70381e-05 0.00408822
0.000335771 0.000132461 -1.83727e-05
0.000132461 -0.000239314 -1.32395e-05
-1.83727e-05 -1.32395e-05 -0.000357069
0.00603047 -0.000116841 -0.000215568
-0.000116841 0.00351434 -1.59668e-05
-0.000215568 -1.59668e-05 0.00351097
0.000303795 0.000205062 -2.29971e-05
0.000205062 -0.000193062 -2.11041e-05
-2.29971e-05 -2.11041e-05 -0.000318707
0.000313728 0.000198974 -2.07202e-05
0.000198974 -0.000202178 -1.86024e-05
-2.07202e-05 -1.86024e-05 -0.000339914
0.000919101 0.000268623 -1.6168e-05
0.000268623 2.89205e-05 -6.71936e-06
-1.6168e-05 -6.71936e-06 -0.000197427
0.00546259 -0.000122775 -3.02177e-06
-0.000122775 0.00317446 1.14761e-06
-3.02177e-06 1.14761e-06 0.00316801
0.000495254 5.65181e-05 1.76907e-06
5.65181e-05 -1.16701e-05 3.8852e-07
1.76907e-06 3.8852e-07 -8.60123e-05
0.00167812 0.000147086 6.80437e-05
0.000147086 0.000593003 6.04102e-06
6.80437e-05 6.04102e-06 0.000497775
0.00166114 0.000209722 6.94938e-05
0.000209722 0.000617514 6.92955e-06
6.94938e-05 6.92955e-06 0.000506607
0.00116605 0.000261985 3.28895e-08
0.000261985 2.75048e-06 -3.01378e-07
3.28895e-08 -3.01378e-07 -0.000205663
0.000437438 0.000178948 -1.84174e-07
0.000178948 -9.20579e-05 -4.22493e-07
-1.84174e-07 -4.22493e-07 -0.000201692
0.00102467 0.000285814 1.25878e-06
0.000285814 2.47563e-05 3.13802e-08
1.25878e-06 3.13802e-08 -0.000202681
0.000818588 0.000256075 4.21805e-07
0.000256075 4.97165e-05 -9.832e-07
4.21805e-07 -9.832e-07 -0.000179572
0.00147089 0.000469135 -4.67084e-07
0.000469135 0.000232396 -4.3705e-07
-4.67084e-07 -4.3705e-07 -8.56003e-05
0.00043409 0.000132344 1.89311e-05
0.000132344 -6.91162e-05 1.67923e-05
1.89311e-05 1.67923e-05 -0.000169378
0.00062903 1.86831e-05 9.84464e-06
1.86831e-05 8.0611e-05 1.25344e-05
9.84464e-06 1.25344e-05 2.23529e-05
0.00137779 0.000206132 4.91953e-06
0.000206132 0.00057943 3.35296e-06
4.91953e-06 3.35296e-06 0.000357871
0.00122256 0.000229534 1.17679e-05
0.000229534 -1.51441e-06 4.10916e-06
1.17679e-05 4.10916e-06 -0.000192576
0.00113541 0.000286877 1.86556e-05
0.000286877 2.81666e-05 6.85763e-06
1.86556e-05 6.85763e-06 -0.000193746
0.00193431 0.000439506 3.83039e-06
0.000439506 0.000241871 -1.9962e-07
3.83039e-06 -1.9962e-07 -8.63783e-07
0.00065538 0.000222093 1.00251e-05
0.000222093 1.98777e-05 5.77405e-06
1.00251e-05 5.77405e-06 -0.000202885
0.00186112 0.000512837 4.86673e-06
0.000512837 0.000364334 -1.32006e-06
4.86673e-06 -1.32006e-06 6.12298e-05
0.00117558 0.000419299 1.65216e-06
0.000419299 0.000162646 -2.74651e-06
1.65216e-06 -2.74651e-06 -0.00016405
0.00157224 0.000551284 -5.66703e-06
0.000551284 0.000194766 -5.20189e-06
-5.66703e-06 -5.20189e-06 -0.000141318
0.00338938 -0.000134589 7.67209e-05
-0.000134589 0.001851 4.56807e-06
7.67209e-05 4.56807e-06 0.00184672
0.00376452 -0.000165916 1.50591e-05
-0.000165916 0.00210206 -9.45033e-07
1.50591e-05 -9.45033e-07 0.00208902
0.00422613 -0.000210794 -8.79009e-05
-0.000210794 0.00241344 -7.46293e-06
-8.79009e-05 -7.46293e-06 0.002387
0.000529405 -0.000140599 2.19637e-05
-0.000140599 -6.95946e-06 -1.53687e-05
2.19637e-05 -1.53687e-05 -9.90292e-05
0.00578924 0.000138897 0.000192018
0.000138897 0.00338486 -1.8431e-05
0.000192018 -1.8431e-05 0.00337081
0.00690108 0.000226983 -0.000360214
0.000226983 0.00400882 -3.14361e-05
-0.000360214 -3.14361e-05 0.00402323
0.00640428 9.90084e-05 -0.000329131
9.90084e-05 0.00369049 -1.46141e-05
-0.000329131 -1.46141e-05 0.00371653
0.000386169 9.77424e-05 -1.89552e-05
9.77424e-05 -0.000218663 -5.60085e-06
-1.89552e-05 -5.60085e-06 -0.000317884
0.00038316 4.35238e-05 -1.87879e-05
4.35238e-05 -0.000210455 -2.77486e-06
-1.87879e-05 -2.77486e-06 -0.00029859
0.0060859 -4.97233e-06 -0.000312471
-4.97233e-06 0.00349729 -2.78438e-06
-0.000312471 -2.78438e-06 0.00352604
0.00602487 4.437e-06 -1.03961e-07
4.437e-06 0.0034605 -1.06514e-06
-1.03961e-07 -1.06514e-06 0.00348937
0.00037317 8.21854e-07 -4.12253e-08
8.21854e-07 -0.000219525 1.80671e-07
-4.12253e-08 1.80671e-07 -0.000301538
0.00156372 4.08636e-05 6.50392e-05
4.08636e-05 0.000522941 3.09408e-06
6.50392e-05 3.09408e-06 0.000450524
0.00108773 7.17464e-05 -9.85099e-09
7.17464e-05 -6.92126e-05 -7.12845e-08
-9.85099e-09 -7.12845e-08 -0.000204139
0.000385602 8.66823e-05 -7.12728e-07
8.66823e-05 -0.000222872 -3.88987e-07
-7.12728e-07 -3.88987e-07 -0.000328697
0.00117073 0.000153485 -1.63293e-07
0.000153485 -4.46615e-05 -2.13501e-07
-1.63293e-07 -2.13501e-07 -0.00020456
0.000369616 -3.19299e-05 1.88706e-05
-3.19299e-05 -0.000222971 -8.22849e-07
1.88706e-05 -8.22849e-07 -0.000302194
0.00107456 2.98144e-05 1.11557e-05
2.98144e-05 -6.17232e-05 3.21217e-07
1.11557e-05 3.21217e-07 -0.00019
0.00114538 0.000110866 1.10105e-05
0.000110866 -4.35576e-05 1.13869e-06
1.10105e-05 1.13869e-06 -0.000188352
0.0018593 0.000113405 8.86881e-07
0.000113405 5.17637e-05 -4.14671e-07
8.86881e-07 -4.14671e-07 -4.84827e-05
0.00124288 0.0001905 9.93961e-06
0.0001905 -3.53643e-06 2.54084e-06
9.93961e-06 2.54084e-06 -0.000177576
0.00202668 0.000264001 6.50955e-07
0.000264001 0.000171125 -7.28714e-07
6.50955e-07 -7.28714e-07 2.82599e-05
0.00604551 -6.98212e-05 -0.000316279
-6.98212e-05 0.00348064 3.47109e-06
-0.000316279 3.47109e-06 0.00350541
0.00138954 -0.000158407 -6.65441e-05
-0.000158407 0.000565508 8.19999e-06
-6.65441e-05 8.19999e-06 0.000513032
-0.000241315 -7.14778e-06 -1.18973e-05
-7.14778e-06 -0.000597389 1.71451e-06
-1.18973e-05 1.71451e-06 -0.000693878
0.00197791 -7.02149e-05 -0.00013234
-7.02149e-05 0.000795343 9.04225e-06
-0.00013234 9.04225e-06 0.000724139
0.00677521 0.00025047 -3.61713e-05
0.00025047 0.00396798 3.61861e-06
-3.61713e-05 3.61861e-06 0.00391996
0.00316012 -0.000281416 -0.000153204
-0.000281416 0.00157954 2.96913e-05
-0.000153204 2.96913e-05 0.00146575
0.00205845 -0.00012554 -0.000136154
-0.00012554 0.000842276 1.77521e-05
-0.000136154 1.77521e-05 0.000761884
0.00205273 -0.000221674 -3.02296e-05
-0.000221674 0.000539334 5.61635e-06
-3.02296e-05 5.61635e-06 0.000375589
0.00206876 -0.000302344 -3.23556e-05
-0.000302344 0.000593727 1.0883e-05
-3.23556e-05 1.0883e-05 0.000391295
0.00207999 -0.000375763 -3.60024e-05
-0.000375763 0.000680889 1.35172e-05
-3.60024e-05 1.35172e-05 0.000439299
0.00183792 -0.000452721 -6.06284e-06
-0.000452721 0.000259963 7.64415e-07
-6.06284e-06 7.64415e-07 -8.52869e-06
0.000372395 4.19892e-06 -1.83522e-08
4.19892e-06 -0.000218887 3.40715e-07
-1.83522e-08 3.40715e-07 -0.000300164
0.00183835 -8.89982e-05 -3.53083e-05
-8.89982e-05 0.000720277 5.2459e-07
-3.53083e-05 5.2459e-07 0.000644128
0.00151158 -6.87253e-05 -1.11104e-05
-6.87253e-05 0.00020584 7.40379e-07
-1.11104e-05 7.40379e-07 8.23229e-05
0.00191952 -0.000175022 -9.49261e-06
-0.000175022 0.000452763 1.49465e-06
-9.49261e-06 1.49465e-06 0.000300492
0.00660658 9.03075e-05 5.12063e-06
9.03075e-05 0.00386723 4.72525e-07
5.12063e-06 4.72525e-07 0.00386311
0.00176327 -0.000193289 5.82757e-06
-0.000193289 0.000725859 7.46607e-07
5.82757e-06 7.46607e-07 0.000591199
0.00135083 -0.000321359 1.59861e-06
-0.000321359 0.000289457 -1.18764e-06
1.59861e-06 -1.18764e-06 4.43614e-05
0.00198072 -0.000262619 -9.43173e-06
-0.000262619 0.000509519 2.45673e-06
-9.43173e-06 2.45673e-06 0.000327484
0.00200394 -0.000319874 -1.19304e-07
-0.000319874 0.000225096 -9.87143e-08
-1.19304e-07 -9.87143e-08 5.26324e-05
0.00184018 -0.000498306 9.14418e-07
-0.000498306 0.000325298 -2.31505e-07
9.14418e-07 -2.31505e-07 1.86163e-05
0.00185573 -0.000414633 4.96764e-07
-0.000414633 0.000217703 -2.41836e-07
4.96764e-07 -2.41836e-07 -2.12076e-05
0.00199658 -0.000519973 8.59285e-07
-0.000519973 0.000255515 1.57586e-07
8.59285e-07 1.57586e-07 9.17652e-07
0.000459468 -0.000166434 1.98708e-06
-0.000166434 -7.54194e-05 4.81976e-07
1.98708e-06 4.81976e-07 -0.0001808
0.000683315 -0.000184077 1.3653e-06
-0.000184077 0.000112727 3.07926e-07
1.3653e-06 3.07926e-07 -0.000125128
0.00107514 -3.40028e-05 1.14238e-05
-3.40028e-05 -5.71882e-05 -5.5735e-07
1.14238e-05 -5.5735e-07 -0.000185757
0.00192457 -0.000120553 9.16294e-06
-0.000120553 0.000462645 -7.05138e-07
9.16294e-06 -7.05138e-07 0.000331084
0.00183683 -0.000121619 1.23169e-06
-0.000121619 6.73816e-05 3.57465e-08
1.23169e-06 3.57465e-08 -4.42199e-05
0.00184237 -0.000257106 -1.18338e-07
-0.000257106 9.09726e-05 6.99295e-07
-1.18338e-07 6.99295e-07 -5.07612e-05
0.00185424 -0.00036988 2.55079e-07
-0.00036988 0.000164158 2.43834e-07
2.55079e-07 2.43834e-07 -3.95157e-05
0.00209641 -0.000360631 3.0806e-06
-0.000360631 0.000176048 -7.6759e-07
3.0806e-06 -7.6759e-07 3.79453e-05
0.000321654 -0.000172151 2.0141e-05
-0.000172151 -0.000171229 -2.07985e-05
2.0141e-05 -2.07985e-05 -0.000290356
0.00199784 -0.000477603 1.11511e-06
-0.000477603 0.000200634 1.39687e-06
1.11511e-06 1.39687e-06 -1.15931e-05
0.000638883 -0.000251515 1.10013e-05
-0.000251515 -6.22682e-05 -9.05819e-06
1.10013e-05 -9.05819e-06 -0.000299199
0.00154588 -0.000515613 1.26493e-05
-0.000515613 0.000231037 -1.99233e-06
1.26493e-05 -1.99233e-06 -0.000113813
0.00217247 -0.00058234 3.93105e-06
-0.00058234 0.000430295 1.08625e-06
3.93105e-06 1.08625e-06 0.000119427
0.0022741 -0.000557374 -2.1543e-07
-0.000557374 0.000389206 3.81196e-06
-2.1543e-07 3.81196e-06 0.000163655
0.000511809 -0.000206937 1.1011e-06
-0.000206937 -1.50714e-05 -4.20491e-06
1.1011e-06 -4.20491e-06 -0.000270332
0.000801368 -0.00012703 -1.45394e-07
-0.00012703 0.000217962 -1.22881e-06
-1.45394e-07 -1.22881e-06 1.73368e-06
0.000819978 -0.000265927 -8.77233e-07
-0.000265927 0.000181456 2.61751e-06
-8.77233e-07 2.61751e-06 -0.000109914
0.000354462 0.000110403 -1.74323e-05
0.000110403 -0.000239579 -1.024e-05
-1.74323e-05 -1.024e-05 -0.000351827
0.0049696 -0.000173667 -0.000148936
-0.000173667 0.00287687 -1.19634e-05
-0.000148936 -1.19634e-05 0.00285957
0.00035077 4.48242e-05 -1.28013e-05
4.48242e-05 -0.000100197 -1.36464e-05
-1.28013e-05 -1.36464e-05 -0.000168285
0.000312921 0.000163287 -1.97556e-05
0.000163287 -0.000230163 -1.62427e-05
-1.97556e-05 -1.62427e-05 -0.000356724
0.00113784 0.000261368 -1.66603e-05
0.000261368 -1.00061e-05 -6.34893e-06
-1.66603e-05 -6.34893e-06 -0.00021939
0.000420435 0.000168639 -2.28828e-05
0.000168639 -0.000104452 -1.91748e-05
-2.28828e-05 -1.91748e-05 -0.000212773
0.000609989 0.000234936 -1.1834e-05
0.000234936 -8.04368e-05 -7.61188e-06
-1.1834e-05 -7.61188e-06 -0.000303631
0.00101946 0.000281611 -1.84048e-05
0.000281611 3.00885e-05 -7.79823e-06
-1.84048e-05 -7.79823e-06 -0.00019613
0.0015787 0.000487639 -5.23702e-06
0.000487639 0.000286476 9.94415e-07
-5.23702e-06 9.94415e-07 -3.42264e-05
0.000487159 0.000130331 -1.27667e-06
0.000130331 -4.31623e-05 1.34584e-06
-1.27667e-06 1.34584e-06 -0.000135783
0.000449804 -2.98301e-06 7.50848e-07
-2.98301e-06 -2.34299e-05 5.43473e-07
7.50848e-07 5.43473e-07 -8.13801e-05
0.000714188 0.000135251 2.43712e-06
0.000135251 0.000148137 -6.11427e-07
2.43712e-06 -6.11427e-07 -5.61673e-05
0.00119919 0.000229497 -1.34373e-07
0.000229497 -1.07728e-05 -3.09583e-07
-1.34373e-07 -3.09583e-07 -0.000202969
0.00110496 0.000283528 3.65565e-07
0.000283528 1.42823e-05 -1.98942e-07
3.65565e-07 -1.98942e-07 -0.000207559
0.00190987 0.000437793 -3.10591e-07
0.000437793 0.000225094 -1.29552e-07
-3.10591e-07 -1.29552e-07 -1.77616e-05
0.000670945 0.000224623 -3.13463e-07
0.000224623 3.29716e-05 7.58165e-08
-3.13463e-07 7.58165e-08 -0.000187672
0.00182613 0.000507433 -3.73659e-07
0.000507433 0.000337684 -3.9889e-07
-3.73659e-07 -3.9889e-07 3.41314e-05
0.00135905 0.000441853 -1.02211e-07
0.000441853 0.000276241 -1.06712e-06
-1.02211e-07 -1.06712e-06 -5.55841e-05
0.00156685 0.000561409 -6.5562e-07
0.000561409 0.000173646 1.85377e-06
-6.5562e-07 1.85377e-06 -0.000162186
0.000514655 -1.52936e-05 2.96268e-06
-1.52936e-05 1.46654e-05 1.08877e-05
2.96268e-06 1.08877e-05 -3.26298e-05
0.0010524 0.00019451 5.7473e-06
0.00019451 0.000327251 2.73217e-06
5.7473e-06 2.73217e-06 0.000103311
0.0010104 8.7828e-05 1.77292e-06
8.7828e-05 0.000328055 5.96918e-06
1.77292e-06 5.96918e-06 0.000165726
0.000973713 0.000216937 7.28666e-07
0.000216937 0.000323245 8.37821e-07
7.28666e-07 8.37821e-07 4.96924e-05
0.00197693 0.00038818 1.05518e-06
0.00038818 0.000207109 -1.79583e-06
1.05518e-06 -1.79583e-06 6.2731e-08
0.00187312 0.000482205 4.90924e-06
0.000482205 0.000279422 -2.69381e-07
4.90924e-06 -2.69381e-07 1.7691e-06
0.00209805 0.000505832 6.73167e-08
0.000505832 0.000251498 -1.23531e-06
6.73167e-08 -1.23531e-06 2.27623e-05
0.000939504 0.000338483 3.93494e-06
0.000338483 8.3708e-05 1.08953e-07
3.93494e-06 1.08953e-07 -0.000206483
0.00226908 0.000630521 -3.87851e-06
0.000630521 0.000505879 -2.54797e-06
-3.87851e-06 -2.54797e-06 0.000193588
0.00189771 0.00060707 -4.47453e-06
0.00060707 0.00051161 -7.40038e-06
-4.47453e-06 -7.40038e-06 0.000117172
0.00193551 0.000609704 -1.069e-06
0.000609704 0.000307974 -2.26945e-06
-1.069e-06 -2.26945e-06 -1.7473e-05
0.000569453 5.31556e-05 2.01468e-06
5.31556e-05 6.5629e-05 5.12762e-06
2.01468e-06 5.12762e-06 -1.51847e-05
0.000475492 -1.32933e-05 2.02781e-06
-1.32933e-05 -2.27913e-05 7.72424e-06
2.02781e-06 7.72424e-06 -5.44479e-05
0.00295027 -0.000122795 4.96522e-05
-0.000122795 0.00156451 4.41066e-06
4.96522e-05 4.41066e-06 0.00156303
0.00323527 -0.00014949 9.23582e-06
-0.00014949 0.0017565 -9.07335e-07
9.23582e-06 -9.07335e-07 0.00174774
0.00356652 -0.000181469 -6.0931e-05
-0.000181469 0.00198001 -4.66207e-06
-6.0931e-05 -4.66207e-06 0.00196182
0.000419789 -0.000121004 1.91027e-05
-0.000121004 -5.18186e-05 -1.46187e-05
1.91027e-05 -1.46187e-05 -0.000130164
0.00522255 0.000168681 0.000152844
0.000168681 0.00304512 -1.72093e-05
0.000152844 -1.72093e-05 0.00302339
0.000495415 -0.000139759 1.10413e-06
-0.000139759 -2.96509e-05 4.69915e-07
1.10413e-06 4.69915e-07 -0.000125834
0.00600587 0.000120016 5.50733e-06
0.000120016 0.00351507 7.45873e-07
5.50733e-06 7.45873e-07 0.00350366
0.000370295 0.000111975 -1.845e-05
0.000111975 -0.000230121 -7.97997e-06
-1.845e-05 -7.97997e-06 -0.000338212
0.000411739 3.54812e-05 -1.78549e-05
3.54812e-05 -0.000200522 -3.18661e-06
-1.78549e-05 -3.18661e-06 -0.000291511
0.00113818 0.000153656 -1.05303e-05
0.000153656 -6.46719e-05 -1.74073e-06
-1.05303e-05 -1.74073e-06 -0.000225691
0.00107179 7.45981e-05 -1.15665e-05
7.45981e-05 -8.40113e-05 -8.0166e-07
-1.15665e-05 -8.0166e-07 -0.000219723
0.000427112 -7.64343e-06 -1.89504e-05
-7.64343e-06 -0.00018878 -7.60383e-07
-1.89504e-05 -7.60383e-07 -0.000269046
0.00611791 -0.00010062 -0.000323126
-0.00010062 0.00353079 5.6708e-06
-0.000323126 5.6708e-06 0.00355355
0.00041708 -2.51822e-06 7.85427e-08
-2.51822e-06 -0.000194134 -6.90974e-07
7.85427e-08 -6.90974e-07 -0.000273243
0.00105534 3.51e-05 -1.03467e-07
3.51e-05 -7.5642e-05 5.57863e-08
-1.03467e-07 5.57863e-08 -0.000204424
0.00115128 0.000113684 -1.69896e-07
0.000113684 -4.54522e-05 3.81957e-08
-1.69896e-07 3.81957e-08 -0.000191137
0.00188308 0.000112131 -1.94389e-07
0.000112131 7.55019e-05 3.16163e-07
-1.94389e-07 3.16163e-07 -2.4546e-05
0.00119474 0.000191572 -3.30978e-07
0.000191572 -2.99475e-05 -2.65626e-07
-3.30978e-07 -2.65626e-07 -0.00020557
0.00195596 0.000260198 -1.50514e-07
0.000260198 0.00012577 1.89249e-07
-1.50514e-07 1.89249e-07 -1.70317e-05
0.00104731 -3.83113e-06 1.1215e-05
-3.83113e-06 -7.38539e-05 -3.14307e-07
1.1215e-05 -3.14307e-07 -0.000200986
0.00184164 5.42566e-05 1.69588e-06
5.42566e-05 5.17433e-05 -2.28098e-09
1.69588e-06 -2.28098e-09 -3.98848e-05
0.00194713 0.000186632 5.31761e-07
0.000186632 0.000110579 -9.3967e-07
5.31761e-07 -9.3967e-07 -7.46242e-06
0.00206867 0.000141439 4.41648e-06
0.000141439 7.38577e-05 8.17402e-07
4.41648e-06 8.17402e-07 2.69701e-05
0.00199022 0.000328644 9.27185e-07
0.000328644 0.000166279 -1.0735e-06
9.27185e-07 -1.0735e-06 -6.46728e-06
0.00202626 0.000287073 2.45593e-06
0.000287073 7.02726e-05 2.35489e-07
2.45593e-06 2.35489e-07 -3.19973e-05
0.000402333 -3.04422e-06 -1.81081e-05
-3.04422e-06 -0.000196792 8.56385e-07
-1.81081e-05 8.56385e-07 -0.000280303
0.00193538 -4.46454e-05 -0.000129875
-4.46454e-05 0.000771225 6.08763e-06
-0.000129875 6.08763e-06 0.000706052
0.00112819 -6.35792e-05 -1.85258e-05
-6.35792e-05 -3.56614e-05 1.64365e-06
-1.85258e-05 1.64365e-06 -0.000163792
0.00197625 -0.000174885 -2.86175e-05
-0.000174885 0.000486614 4.37049e-06
-2.86175e-05 4.37049e-06 0.000332834
0.00680444 6.76242e-05 -0.00026441
6.76242e-05 0.00398515 2.62461e-05
-0.00026441 2.62461e-05 0.00398309
0.00331118 -0.000270254 -0.000160838
-0.000270254 0.00169319 2.51941e-05
-0.000160838 2.51941e-05 0.00158898
0.00206748 -0.00038262 -2.88035e-05
-0.00038262 0.000735815 1.15285e-05
-2.88035e-05 1.15285e-05 0.000482176
0.00201095 -0.000264717 -3.06419e-05
-0.000264717 0.000525957 8.37154e-06
-3.06419e-05 8.37154e-06 0.000343488
0.00208417 -0.000326426 -2.22027e-06
-0.000326426 0.000271758 -3.53876e-07
-2.22027e-06 -3.53876e-07 0.000105182
0.00197692 -0.000419137 -3.7397e-06
-0.000419137 0.000298668 1.05577e-06
-3.7397e-06 1.05577e-06 5.91417e-05
0.00183748 -0.00049802 -8.6977e-06
-0.00049802 0.000324517 7.36898e-07
-8.6977e-06 7.36898e-07 1.94143e-05
0.00203265 -0.000521516 -9.78241e-07
-0.000521516 0.000281318 -1.76719e-06
-9.78241e-07 -1.76719e-06 2.67594e-05
0.000430443 -0.000174144 -2.12538e-05
-0.000174144 -8.83586e-05 1.86457e-05
-2.12538e-05 1.86457e-05 -0.000199711
0.000681862 -0.000210457 -1.5039e-07
-0.000210457 0.000115247 3.50067e-07
-1.5039e-07 3.50067e-07 -0.000124626
0.00108156 -2.89796e-05 4.19743e-07
-2.89796e-05 -5.50029e-05 5.0421e-08
4.19743e-07 5.0421e-08 -0.000180114
0.00190688 -0.000120693 -9.68552e-06
-0.000120693 0.000448555 1.24098e-06
-9.68552e-06 1.24098e-06 0.000317199
0.00186776 -0.000118531 5.22175e-07
-0.000118531 8.43205e-05 -2.31965e-07
5.22175e-07 -2.31965e-07 -2.2207e-05
0.00186387 -0.000257616 -2.6385e-06
-0.000257616 0.000111592 8.33587e-07
-2.6385e-06 8.33587e-07 -3.73083e-05
0.000422235 -0.000193972 3.11306e-07
-0.000193972 -0.00010908 2.10644e-07
3.11306e-07 2.10644e-07 -0.000229448
0.000800231 -0.000266248 -5.01173e-07
-0.000266248 3.035e-05 -1.91613e-07
-5.01173e-07 -1.91613e-07 -0.000210282
0.00151498 -0.000510278 1.84244e-06
-0.000510278 0.000218708 -2.23651e-07
1.84244e-06 -2.23651e-07 -0.000126533
0.00190179 -0.000371188 -2.87977e-06
-0.000371188 0.000197889 8.75306e-07
-2.87977e-06 8.75306e-07 -8.95858e-06
0.00208056 -0.000362117 2.34124e-06
-0.000362117 0.000157615 -9.51686e-07
2.34124e-06 -9.51686e-07 2.50297e-05
0.00221583 -0.000590864 -6.27521e-07
-0.000590864 0.000452552 -7.19468e-07
-6.27521e-07 -7.19468e-07 0.000143089
0.00202762 -0.000479655 5.51382e-07
-0.000479655 0.000221211 1.20276e-09
5.51382e-07 1.20276e-09 8.49324e-06
0.00211411 -0.000549655 7.4527e-07
-0.000549655 0.000282186 8.53866e-07
7.4527e-07 8.53866e-07 5.60762e-05
0.000640989 -0.000207639 4.12281e-07
-0.000207639 6.60274e-05 -4.80934e-07
4.12281e-07 -4.80934e-07 -0.000187674
0.000694088 -0.000209357 1.17984e-06
-0.000209357 7.56888e-05 1.02375e-06
1.17984e-06 1.02375e-06 -0.000196362
0.000742634 -0.000149016 4.85955e-07
-0.000149016 0.000183155 1.18408e-07
4.85955e-07 1.18408e-07 -3.73994e-05
0.00182084 -5.5295e-05 1.36323e-06
-5.5295e-05 5.85546e-05 -8.13368e-08
1.36323e-06 -8.13368e-08 -4.27937e-05
0.00197293 -0.00018561 -1.1938e-06
-0.00018561 0.000156261 6.14732e-07
-1.1938e-06 6.14732e-07 3.63598e-05
0.00200134 -0.000132714 6.71806e-06
-0.000132714 4.94232e-05 -8.82026e-07
6.71806e-06 -8.82026e-07 -1.01614e-05
0.00203148 -0.000297911 1.65653e-06
-0.000297911 9.57446e-05 -5.01123e-07
1.65653e-06 -5.01123e-07 -4.44174e-06
0.00193788 -0.000426969 -4.49894e-07
-0.000426969 0.000111569 1.49792e-06
-4.49894e-07 1.49792e-06 -5.94296e-05
0.00214371 -0.000384182 3.93706e-06
-0.000384182 0.000136415 -1.23721e-06
3.93706e-06 -1.23721e-06 4.3994e-05
0.000634792 -0.000241031 6.82195e-06
-0.000241031 1.12795e-05 -7.69993e-06
6.82195e-06 -7.69993e-06 -0.000226071
0.00198788 -0.000505132 5.76256e-07
-0.000505132 0.000146675 9.48266e-07
5.76256e-07 9.48266e-07 -3.87384e-05
0.00135713 -0.000474477 9.15463e-06
-0.000474477 0.000271111 -3.20206e-06
9.15463e-06 -3.20206e-06 -8.11029e-05
0.00190887 -0.000658251 6.5863e-06
-0.000658251 0.00035487 2.06529e-06
6.5863e-06 2.06529e-06 -3.15234e-05
0.0022756 -0.000619382 5.77233e-06
-0.000619382 0.00044751 3.51904e-06
5.77233e-06 3.51904e-06 0.000155349
0.00232145 -0.000580562 -1.24964e-06
-0.000580562 0.00042436 1.97515e-06
-1.24964e-06 1.97515e-06 0.000205059
0.000439143 -0.000118187 -3.89499e-07
-0.000118187 9.51688e-06 -5.83951e-06
-3.89499e-07 -5.83951e-06 -0.000178063
0.00128239 -0.000320148 2.05827e-07
-0.000320148 0.000378621 -3.66778e-06
2.05827e-07 -3.66778e-06 0.000108804
0.000637346 -0.000217619 -3.6684e-07
-0.000217619 0.000152033 6.27454e-06
-3.6684e-07 6.27454e-06 -0.000179035
0.00179438 -0.000406115 -4.15001e-06
-0.000406115 0.000721966 3.87444e-06
-4.15001e-06 3.87444e-06 0.000403507
0.00116318 0.000229122 -1.29712e-05
0.000229122 -2.84794e-05 -4.67033e-06
-1.29712e-05 -4.67033e-06 -0.000221827
0.000302635 -2.91933e-05 1.10063e-06
-2.91933e-05 -0.000100079 -1.33578e-05
1.10063e-06 -1.33578e-05 -0.000164557
0.000429047 0.000107866 -2.16386e-05
0.000107866 -7.79286e-05 -1.44288e-05
-2.16386e-05 -1.44288e-05 -0.000165366
-3.57672e-05 0.000108167 -3.12477e-06
0.000108167 -0.000307431 -2.24271e-06
-3.12477e-06 -2.24271e-06 -0.000517781
0.00107595 0.000279987 -1.92631e-05
0.000279987 2.51803e-06 -7.44168e-06
-1.92631e-05 -7.44168e-06 -0.000219134
0.00188071 0.000435549 -3.61118e-06
0.000435549 0.000205572 2.551e-07
-3.61118e-06 2.551e-07 -3.73076e-05
0.000612939 0.000219362 -6.93384e-06
0.000219362 -3.63697e-06 -3.80324e-06
-6.93384e-06 -3.80324e-06 -0.000220383
0.00134067 0.000443201 -4.29659e-06
0.000443201 0.000262997 -2.80641e-07
-4.29659e-06 -2.80641e-07 -6.92408e-05
0.00183343 0.000506151 -5.19961e-06
0.000506151 0.000337388 7.14903e-07
-5.19961e-06 7.14903e-07 3.26263e-05
0.00152728 0.000565305 3.25645e-06
0.000565305 0.00013812 7.36672e-06
3.25645e-06 7.36672e-06 -0.00019575
0.000456012 -3.09699e-05 -3.70738e-06
-3.09699e-05 -1.38462e-05 8.33756e-07
-3.70738e-06 8.33756e-07 -6.45136e-05
0.000648558 0.000207533 -1.38667e-06
0.000207533 8.81744e-05 -6.976e-07
-1.38667e-06 -6.976e-07 -0.000143976
0.000643412 7.68747e-05 8.77751e-07
7.68747e-05 9.98126e-05 -2.37602e-07
8.77751e-07 -2.37602e-07 -5.60987e-05
0.000812277 0.000193267 -5.46514e-07
0.000193267 0.000205709 5.32318e-08
-5.46514e-07 5.32318e-08 -5.5306e-05
0.00195751 0.000386445 -1.37571e-06
0.000386445 0.000194541 -1.14883e-06
-1.37571e-06 -1.14883e-06 -1.25979e-05
0.0018374 0.000480139 -4.20439e-07
0.000480139 0.000256226 -2.48069e-07
-4.20439e-07 -2.48069e-07 -2.17694e-05
0.00207516 0.000502175 2.24021e-07
0.000502175 0.000241269 2.39524e-07
2.24021e-07 2.39524e-07 1.34125e-05
0.00112697 0.000349628 3.17008e-06
0.000349628 0.000216264 -6.50639e-08
3.17008e-06 -6.50639e-08 -7.38331e-05
0.00216094 0.000612625 3.06911e-07
0.000612625 0.000448257 5.35323e-07
3.06911e-07 5.35323e-07 0.000137131
0.0016365 0.000581412 -1.14043e-06
0.000581412 0.000351523 -1.81713e-06
-1.14043e-06 -1.81713e-06 -3.99746e-05
0.00194357 0.000600254 -4.66225e-06
0.000600254 0.000317786 2.12843e-06
-4.66225e-06 2.12843e-06 7.79115e-07
0.000540015 -1.97559e-05 1.85965e-06
-1.97559e-05 2.39147e-05 9.00279e-06
1.85965e-06 9.00279e-06 -1.40169e-05
0.000920817 6.83744e-05 1.57366e-06
6.83744e-05 0.000277286 7.43673e-06
1.57366e-06 7.43673e-06 0.000153218
0.000780004 0.000245442 6.70727e-07
0.000245442 7.53025e-05 2.43523e-06
6.70727e-07 2.43523e-06 -0.000170535
0.00150568 0.000173952 1.36929e-06
0.000173952 0.000715289 -5.93115e-07
1.36929e-06 -5.93115e-07 0.000439617
0.00109565 0.000301551 -2.25052e-06
0.000301551 0.000327184 3.22335e-06
-2.25052e-06 3.22335e-06 8.20281e-05
0.00214322 0.000448607 -1.30172e-07
0.000448607 0.000212327 -3.14313e-06
-1.30172e-07 -3.14313e-06 2.71817e-05
0.00208099 0.000566962 -1.13444e-06
0.000566962 0.00031231 -1.66051e-06
-1.13444e-06 -1.66051e-06 3.84244e-05
0.00210061 0.000550404 -2.50618e-06
0.000550404 0.000236519 -1.45461e-06
-2.50618e-06 -1.45461e-06 1.42444e-05
0.00140635 0.000524127 5.69806e-06
0.000524127 0.000369312 -5.58832e-07
5.69806e-06 -5.58832e-07 -1.90314e-05
0.00234099 0.000675634 -2.99504e-06
0.000675634 0.000499686 -2.21818e-06
-2.99504e-06 -2.21818e-06 0.000189398
0.00163508 0.000631925 6.6562e-06
0.000631925 0.00028402 -4.47943e-06
6.6562e-06 -4.47943e-06 -0.000100145
0.000579611 4.97231e-05 1.87434e-06
4.97231e-05 6.87004e-05 5.47815e-06
1.87434e-06 5.47815e-06 -1.81806e-05
0.000632681 0.000103979 -4.45851e-07
0.000103979 0.00014664 3.06659e-06
-4.45851e-07 3.06659e-06 1.00889e-05
0.00059149 6.03377e-05 1.84982e-06
6.03377e-05 8.62669e-05 4.75776e-06
1.84982e-06 4.75776e-06 8.89733e-06
0.000524323 1.35026e-05 -7.08225e-07
1.35026e-05 3.84398e-05 -5.42898e-08
-7.08225e-07 -5.42898e-08 -4.23068e-05
0.00136098 -3.22824e-05 1.5605e-06
-3.22824e-05 0.00053737 4.5186e-06
1.5605e-06 4.5186e-06 0.000512733
0.000912215 -2.61038e-05 2.7414e-07
-2.61038e-05 0.000254658 -1.78255e-07
2.7414e-07 -1.78255e-07 0.000225113
0.000839657 -4.76691e-05 3.64471e-05
-4.76691e-05 0.000211633 9.79679e-06
3.64471e-05 9.79679e-06 0.000209078
0.00292158 -0.000127259 7.87547e-06
-0.000127259 0.0015469 -7.53975e-07
7.87547e-06 -7.53975e-07 0.00154422
0.00314454 -0.000152686 -4.82988e-05
-0.000152686 0.00169994 -4.32409e-06
-4.82988e-05 -4.32409e-06 0.00169021
0.000418061 -7.08656e-05 1.01266e-05
-7.08656e-05 -3.57312e-05 -1.22661e-05
1.01266e-05 -1.22661e-05 -9.76649e-05
0.00459378 0.000174004 0.000109453
0.000174004 0.00264428 -1.14914e-05
0.000109453 -1.14914e-05 0.00262285
0.00051998 -0.000116394 -1.24936e-06
-0.000116394 1.11217e-05 7.58249e-07
-1.24936e-06 7.58249e-07 -7.22334e-05
0.00543979 0.000139845 -6.9146e-06
0.000139845 0.00317361 -3.75035e-07
-6.9146e-06 -3.75035e-07 0.00315801
0.000489767 -0.000141466 -2.0925e-05
-0.000141466 -3.62608e-05 1.62148e-05
-2.0925e-05 1.62148e-05 -0.000134613
0.00621127 0.000122036 -0.000222976
0.000122036 0.00364803 2.51191e-05
-0.000222976 2.51191e-05 0.00363436
0.00115607 0.000193062 -1.06659e-05
0.000193062 -5.15012e-05 -3.00556e-06
-1.06659e-05 -3.00556e-06 -0.000228636
0.0011095 0.000116831 -1.15342e-05
0.000116831 -7.55733e-05 -1.02166e-06
-1.15342e-05 -1.02166e-06 -0.000222515
0.0019242 0.000254044 -1.73057e-06
0.000254044 0.00010664 1.12061e-06
-1.73057e-06 1.12061e-06 -3.52907e-05
0.00190013 0.000110848 -8.08822e-07
0.000110848 9.50208e-05 1.16847e-06
-8.08822e-07 1.16847e-06 -4.85522e-06
0.00103794 3.99938e-05 -1.1186e-05
3.99938e-05 -8.89357e-05 -2.36248e-07
-1.1186e-05 -2.36248e-07 -0.000218244
0.000380029 2.8928e-05 -1.88755e-05
2.8928e-05 -0.000219426 -6.5844e-07
-1.88755e-05 -6.5844e-07 -0.000297093
0.00103997 8.07923e-08 -5.77856e-08
8.07923e-08 -7.85018e-05 -4.72579e-08
-5.77856e-08 -4.72579e-08 -0.000205663
0.00186173 5.50273e-05 -8.43278e-08
5.50273e-05 6.8496e-05 1.88112e-07
-8.43278e-08 1.88112e-07 -2.31286e-05
0.00193326 0.00018281 -9.06787e-08
0.00018281 0.000106433 -3.01595e-08
-9.06787e-08 -3.01595e-08 -1.11126e-05
0.00205727 0.000138393 -9.94857e-08
0.000138393 5.70115e-05 2.70934e-08
-9.94857e-08 2.70934e-08 1.35514e-05
0.00197966 0.000326501 -4.93098e-07
0.000326501 0.000163264 -2.06498e-08
-4.93098e-07 -2.06498e-08 -9.20122e-06
0.0020621 0.000288925 -4.44523e-07
0.000288925 9.66843e-05 2.88252e-07
-4.44523e-07 2.88252e-07 -6.35702e-06
0.00184682 -5.96153e-07 1.90804e-06
-5.96153e-07 6.61377e-05 1.37758e-07
1.90804e-06 1.37758e-07 -2.41822e-05
0.00203345 6.67371e-05 3.71457e-06
6.67371e-05 4.46351e-05 2.96384e-07
3.71457e-06 2.96384e-07 1.02238e-05
0.0020188 0.000208801 3.56041e-06
0.000208801 5.00093e-05 9.7938e-07
3.56041e-06 9.7938e-07 -1.69269e-05
0.00202228 0.000125991 5.78635e-06
0.000125991 1.2563e-05 7.47417e-07
5.78635e-06 7.47417e-07 -4.35777e-06
0.00214235 0.000379839 1.35699e-06
0.000379839 0.000172686 -8.33698e-07
1.35699e-06 -8.33698e-07 2.82926e-05
0.0020867 0.000303229 2.75757e-06
0.000303229 1.50509e-05 7.52703e-07
2.75757e-06 7.52703e-07 -3.50991e-05
0.00108527 -2.49953e-05 -1.1923e-05
-2.49953e-05 -5.42855e-05 7.1023e-07
-1.1923e-05 7.1023e-07 -0.000176054
0.00191901 -0.000121817 -2.82012e-05
-0.000121817 0.000453716 3.04613e-06
-2.82012e-05 3.04613e-06 0.000322444
0.00195206 -0.000114456 -2.32555e-06
-0.000114456 0.000135497 -3.70245e-07
-2.32555e-06 -3.70245e-07 3.45365e-05
0.00189009 -0.000257893 -3.1364e-06
-0.000257893 0.000135624 7.35212e-07
-3.1364e-06 7.35212e-07 -2.0504e-05
0.000564299 -0.000224736 -2.62928e-05
-0.000224736 -2.1808e-05 2.08303e-05
-2.62928e-05 2.08303e-05 -0.000143493
0.000858783 -0.00027544 -1.26073e-05
-0.00027544 6.50062e-05 8.72591e-06
-1.26073e-05 8.72591e-06 -0.000179329
0.00151968 -0.000510909 -8.38281e-06
-0.000510909 0.000225496 1.92575e-06
-8.38281e-06 1.92575e-06 -0.000121903
0.00193649 -0.000371551 -4.44138e-06
-0.000371551 0.000222909 1.26259e-06
-4.44138e-06 1.26259e-06 1.30799e-05
0.00207348 -0.000364092 1.60357e-08
-0.000364092 0.000144295 -7.56382e-07
1.60357e-08 -7.56382e-07 1.74576e-05
0.00205565 -0.000481616 -9.82467e-07
-0.000481616 0.000240522 -1.04317e-06
-9.82467e-07 -1.04317e-06 2.73165e-05
0.00227076 -0.000599361 -3.38981e-06
-0.000599361 0.00048399 -3.7261e-06
-3.38981e-06 -3.7261e-06 0.00017612
0.00193286 -0.000537107 9.31378e-07
-0.000537107 0.000161973 -2.22321e-06
9.31378e-07 -2.22321e-06 -6.31338e-05
0.000946327 -0.000220301 -5.68043e-06
-0.000220301 0.000249072 5.1979e-06
-5.68043e-06 5.1979e-06 1.54739e-06
0.000343752 -0.000166476 1.94342e-06
-0.000166476 -0.000149525 -1.4202e-06
1.94342e-06 -1.4202e-06 -0.000417856
0.000514389 -0.000177589 -4.96873e-07
-0.000177589 3.91993e-05 7.66696e-07
-4.96873e-07 7.66696e-07 -0.000181824
0.00186301 -5.21755e-05 6.98548e-07
-5.21755e-05 8.31836e-05 -5.64105e-08
6.98548e-07 -5.64105e-08 -1.42491e-05
0.00192375 -0.000192183 -2.3506e-06
-0.000192183 0.000124915 1.89302e-07
-2.3506e-06 1.89302e-07 3.46852e-06
0.00203082 -0.000130513 2.33463e-06
-0.000130513 6.23322e-05 -3.61759e-07
2.33463e-06 -3.61759e-07 8.97996e-06
0.00200622 -0.000288519 -1.16115e-06
-0.000288519 8.45246e-05 5.10094e-07
-1.16115e-06 5.10094e-07 -1.78232e-05
0.000750965 -0.000250414 8.31096e-07
-0.000250414 8.18552e-05 -3.4764e-07
8.31096e-07 -3.4764e-07 -0.000160056
0.00143581 -0.000485359 -7.71881e-07
-0.000485359 0.000314108 -3.28489e-07
-7.71881e-07 -3.28489e-07 -4.00409e-05
0.0018444 -0.000649723 5.48866e-07
-0.000649723 0.000329546 1.01679e-06
5.48866e-07 1.01679e-06 -5.89415e-05
0.00191635 -0.000422988 -1.18127e-06
-0.000422988 0.000103779 1.00858e-06
-1.18127e-06 1.00858e-06 -7.27539e-05
0.00212936 -0.000388011 6.50528e-07
-0.000388011 0.000117325 -3.90502e-07
6.50528e-07 -3.90502e-07 2.93297e-05
0.00214747 -0.000615241 -2.22199e-07
-0.000615241 0.000354993 4.11151e-07
-2.22199e-07 4.11151e-07 6.17979e-05
0.00200072 -0.000505258 -3.17083e-07
-0.000505258 0.000152335 7.4772e-07
-3.17083e-07 7.4772e-07 -3.32596e-05
0.00222889 -0.00056335 5.17272e-07
-0.00056335 0.000357489 -5.51711e-07
5.17272e-07 -5.51711e-07 0.000144861
0.00104391 -0.000305857 -1.08564e-06
-0.000305857 0.000237668 8.09384e-07
-1.08564e-06 8.09384e-07 -3.96958e-05
0.00113788 -0.000341896 -1.29037e-06
-0.000341896 0.000302291 2.34691e-06
-1.29037e-06 2.34691e-06 -9.07172e-06
0.00067087 -0.000131481 -1.87232e-08
-0.000131481 0.000152888 -7.28578e-07
-1.87232e-08 -7.28578e-07 -3.97496e-05
0.000107353 -0.000124315 1.63039e-06
-0.000124315 -0.000206712 -2.24272e-06
1.63039e-06 -2.24272e-06 -0.000507958
0.00204594 -6.89862e-05 5.82601e-06
-6.89862e-05 7.41436e-05 -4.04578e-07
5.82601e-06 -4.04578e-07 3.07065e-05
0.00197519 -0.000213424 4.29483e-06
-0.000213424 2.7452e-05 -1.16562e-06
4.29483e-06 -1.16562e-06 -5.05497e-05
0.00201453 -0.000122344 6.76956e-06
-0.000122344 4.53193e-05 -9.99732e-07
6.76956e-06 -9.99732e-07 3.01643e-05
0.00207483 -0.00031257 1.53021e-06
-0.00031257 3.19465e-05 -6.93808e-07
1.53021e-06 -6.93808e-07 -8.18781e-06
0.00198929 -0.000453936 -3.34835e-07
-0.000453936 9.28243e-05 -4.77584e-07
-3.34835e-07 -4.77584e-07 -4.83392e-05
0.00212683 -0.000403071 3.95265e-06
-0.000403071 7.68804e-05 -1.52212e-06
3.95265e-06 -1.52212e-06 7.32546e-06
0.00134531 -0.000409588 6.2141e-06
-0.000409588 0.000377038 -5.56051e-06
6.2141e-06 -5.56051e-06 5.34408e-05
0.00203563 -0.000538833 -2.49444e-06
-0.000538833 0.000148018 -1.00644e-07
-2.49444e-06 -1.00644e-07 -1.60887e-05
0.00165112 -0.000657381 -6.15394e-06
-0.000657381 0.000375683 3.79342e-06
-6.15394e-06 3.79342e-06 -5.40561e-05
0.00207777 -0.000718297 4.96932e-06
-0.000718297 0.000412892 2.75234e-06
4.96932e-06 2.75234e-06 1.84234e-05
0.00210094 -0.000623353 1.47194e-06
-0.000623353 0.000283794 3.67559e-06
1.47194e-06 3.67559e-06 -5.66803e-07
0.00230011 -0.000600184 -1.08278e-05
-0.000600184 0.000369871 -2.01082e-06
-1.08278e-05 -2.01082e-06 0.000145975
0.000480477 -0.000120855 -1.60608e-06
-0.000120855 2.62573e-05 -6.80956e-06
-1.60608e-06 -6.80956e-06 -0.00012048
-5.45257e-05 -0.000143641 -3.94368e-06
-0.000143641 -0.00020988 -1.41049e-06
-3.94368e-06 -1.41049e-06 -0.000532067
0.00135891 -0.000439476 -2.30447e-06
-0.000439476 0.000416187 -2.98176e-06
-2.30447e-06 -2.98176e-06 6.85821e-05
0.00288398 -0.000472173 -4.548e-06
-0.000472173 0.00148163 1.19195e-05
-4.548e-06 1.19195e-05 0.00113631
0.00164372 -0.000451938 -1.45984e-05
-0.000451938 0.000625852 9.84414e-06
-1.45984e-05 9.84414e-06 0.000253545
0.000302406 -3.68774e-05 -1.09984e-06
-3.68774e-05 -0.000108586 -1.0234e-05
-1.09984e-06 -1.0234e-05 -0.000158092
0.00194097 0.00038451 -3.27902e-06
0.00038451 0.000184472 -2.54586e-07
-3.27902e-06 -2.54586e-07 -2.26644e-05
0.00021488 4.43482e-05 -8.70694e-07
4.43482e-05 -0.000160797 -6.55936e-06
-8.70694e-07 -6.55936e-06 -0.000311051
0.000365244 0.000202215 -6.82827e-06
0.000202215 -0.00011315 -6.6622e-08
-6.82827e-06 -6.6622e-08 -0.000329287
0.000602911 0.000180012 -1.3699e-06
0.000180012 5.78052e-05 2.29464e-06
-1.3699e-06 2.29464e-06 -0.000190454
0.00179769 0.000478047 -4.86233e-06
0.000478047 0.000229675 1.7308e-07
-4.86233e-06 1.7308e-07 -4.8735e-05
0.00205414 0.000498792 1.18421e-06
0.000498792 0.000231755 1.90578e-06
1.18421e-06 1.90578e-06 4.71517e-06
0.00140342 0.000390264 -2.96379e-06
0.000390264 0.000412797 -3.56277e-06
-2.96379e-06 -3.56277e-06 0.000109868
0.00151212 0.000578019 4.60427e-07
0.000578019 0.000268116 3.96984e-06
4.60427e-07 3.96984e-06 -0.000127144
0.00204004 0.000592932 1.9758e-06
0.000592932 0.000380999 3.74078e-06
1.9758e-06 3.74078e-06 7.15822e-05
0.00200118 0.00060086 4.31961e-06
0.00060086 0.000356027 1.06787e-05
4.31961e-06 1.06787e-05 4.40949e-05
0.000455568 -1.57071e-05 -8.96534e-07
-1.57071e-05 -2.80617e-05 2.90198e-07
-8.96534e-07 2.90198e-07 -6.52641e-05
0.000593041 5.09161e-05 4.58481e-08
5.09161e-05 7.70131e-05 4.16641e-07
4.58481e-08 4.16641e-07 -4.29377e-05
0.000915888 0.000276148 1.22874e-06
0.000276148 0.000166996 1.72355e-06
1.22874e-06 1.72355e-06 -8.06076e-05
0.000628588 0.000122732 8.68301e-07
0.000122732 0.000155429 -1.44124e-06
8.68301e-07 -1.44124e-06 -0.000107233
0.000465701 0.000211921 -1.93195e-06
0.000211921 -0.000100956 3.50994e-06
-1.93195e-06 3.50994e-06 -0.000322022
0.00211784 0.000447298 -1.82109e-06
0.000447298 0.000196658 -1.92782e-06
-1.82109e-06 -1.92782e-06 1.17834e-05
0.00204041 0.000562702 5.51343e-07
0.000562702 0.000289344 1.36265e-07
5.51343e-07 1.36265e-07 1.63691e-05
0.00203271 0.000546118 1.66591e-06
0.000546118 0.000196188 1.55602e-07
1.66591e-06 1.55602e-07 -2.57534e-05
0.00145597 0.000528148 1.90671e-06
0.000528148 0.000406312 -2.58167e-07
1.90671e-06 -2.58167e-07 1.3997e-05
0.00222878 0.000662891 2.51336e-06
0.000662891 0.00041566 4.36393e-07
2.51336e-06 4.36393e-07 0.000105863
0.00199745 0.000668959 -3.56646e-06
0.000668959 0.000513064 2.2943e-08
-3.56646e-06 2.2943e-08 0.000123625
0.000680693 5.27776e-05 7.74732e-07
5.27776e-05 0.000132015 5.94268e-06
7.74732e-07 5.94268e-06 3.36378e-05
0.00162409 0.000193525 1.07963e-07
0.000193525 0.000790848 2.39681e-06
1.07963e-07 2.39681e-06 0.000571451
0.00101448 0.000378718 -1.02694e-06
0.000378718 0.00021547 5.70099e-06
-1.02694e-06 5.70099e-06 -8.50763e-05
0.00115411 0.000152385 6.3356e-06
0.000152385 0.000422777 -3.11374e-06
6.3356e-06 -3.11374e-06 0.000156743
0.00300996 0.000402793 -4.63756e-06
0.000402793 0.00139623 -2.1214e-07
-4.63756e-06 -2.1214e-07 0.00114195
0.00211479 0.000472426 -3.94592e-06
0.000472426 0.000166083 -2.19315e-06
-3.94592e-06 -2.19315e-06 -5.51122e-06
0.00207534 0.000615508 -2.17722e-06
0.000615508 0.000275124 -1.17722e-06
-2.17722e-06 -1.17722e-06 4.29345e-06
0.00197512 0.00059581 4.62465e-06
0.00059581 0.000118469 -3.09464e-07
4.62465e-06 -3.09464e-07 -0.000113807
0.00116343 0.000575739 1.03108e-05
0.000575739 0.000242065 -4.76762e-06
1.03108e-05 -4.76762e-06 -0.00018841
0.00163396 0.000657458 1.15268e-05
0.000657458 0.000179194 -1.93738e-06
1.15268e-05 -1.93738e-06 -0.000172424
0.000579609 4.3504e-05 -3.83386e-07
4.3504e-05 6.6198e-05 1.86524e-07
-3.83386e-07 1.86524e-07 -1.88057e-05
0.00032806 6.96626e-05 5.88481e-07
6.96626e-05 -7.03455e-05 3.18059e-06
5.88481e-07 3.18059e-06 -0.000196641
0.000310512 6.25361e-05 -3.80506e-07
6.25361e-05 -7.43507e-05 -3.31479e-07
-3.80506e-07 -3.31479e-07 -0.000194757
0.00111168 0.000170024 -2.05515e-06
0.000170024 0.000454349 -1.13501e-06
-2.05515e-06 -1.13501e-06 0.000298314
0.000718632 0.000123142 1.02441e-06
0.000123142 0.000205247 3.11163e-06
1.02441e-06 3.11163e-06 7.38991e-05
0.000541574 6.79936e-05 2.12418e-06
6.79936e-05 6.01341e-05 4.1436e-06
2.12418e-06 4.1436e-06 -1.48924e-05
0.000523663 1.85827e-05 -7.35898e-07
1.85827e-05 4.37139e-05 -4.55821e-08
-7.35898e-07 -4.55821e-08 -3.28924e-05
0.00132027 -1.70727e-05 1.45752e-06
-1.70727e-05 0.00051091 4.02251e-06
1.45752e-06 4.02251e-06 0.000489786
0.00054237 3.14293e-05 -1.07568e-06
3.14293e-05 4.39655e-05 -5.20452e-06
-1.07568e-06 -5.20452e-06 -3.30077e-05
0.00137939 -2.60659e-05 -8.76229e-06
-2.60659e-05 0.000548123 -1.64614e-06
-8.76229e-06 -1.64614e-06 0.000525236
0.000779101 -3.41522e-05 3.52614e-05
-3.41522e-05 0.000166565 9.58686e-06
3.52614e-05 9.58686e-06 0.000168564
0.0014104 -3.27575e-05 -1.60582e-05
-3.27575e-05 0.000571575 -6.00625e-06
-1.60582e-05 -6.00625e-06 0.000545508
0.00177829 -7.59452e-05 3.53377e-05
-7.59452e-05 0.000810357 1.44222e-06
3.53377e-05 1.44222e-06 0.000810202
0.0028267 -0.000123393 -4.11699e-05
-0.000123393 0.0014856 -4.55328e-06
-4.11699e-05 -4.55328e-06 0.00148377
0.000301524 7.4458e-05 -6.09029e-06
7.4458e-05 -8.05929e-05 -9.79162e-06
-6.09029e-06 -9.79162e-06 -0.000140522
0.000409161 -5.07144e-05 -6.35242e-07
-5.07144e-05 -3.70988e-05 6.06488e-07
-6.35242e-07 6.06488e-07 -0.000105532
0.00371117 0.00018929 1.74119e-05
0.00018929 0.0020765 -7.44993e-06
1.74119e-05 -7.44993e-06 0.00205163
0.00475845 0.000135528 -1.64295e-05
0.000135528 0.00274263 -1.5871e-06
-1.64295e-05 -1.5871e-06 0.00272977
0.000531433 -0.000119229 -1.78727e-05
-0.000119229 1.44217e-05 1.40064e-05
-1.78727e-05 1.40064e-05 -7.18808e-05
0.00567175 0.000135909 -0.000191347
0.000135909 0.00332388 2.40254e-05
-0.000191347 2.40254e-05 0.00330629
0.00195538 0.000324042 -2.00696e-06
0.000324042 0.000150878 1.23006e-06
-2.00696e-06 1.23006e-06 -2.13862e-05
0.00189461 0.000181568 -7.76699e-07
0.000181568 8.5416e-05 9.55247e-07
-7.76699e-07 9.55247e-07 -3.23749e-05
0.00209631 0.000292168 -2.33878e-06
0.000292168 0.000120245 5.64189e-07
-2.33878e-06 5.64189e-07 1.61641e-05
0.0020482 0.000135401 -4.03877e-06
0.000135401 4.12971e-05 -5.59115e-07
-4.03877e-06 -5.59115e-07 1.18287e-06
0.0018811 5.69722e-05 -1.66679e-06
5.69722e-05 8.55101e-05 4.38722e-07
-1.66679e-06 4.38722e-07 -6.12577e-06
0.0010451 4.8648e-06 -1.0876e-05
4.8648e-06 -7.5164e-05 1.07036e-07
-1.0876e-05 1.07036e-07 -0.000202236
0.00185518 2.60727e-06 8.8542e-08
2.60727e-06 7.2254e-05 1.5586e-07
8.8542e-08 1.5586e-07 -1.81288e-05
0.00202808 5.7906e-05 -6.75727e-07
5.7906e-05 4.3687e-05 4.99802e-09
-6.75727e-07 4.99802e-09 9.14284e-06
0.00205939 0.000210436 -1.39832e-07
0.000210436 7.25472e-05 2.75797e-07
-1.39832e-07 2.75797e-07 5.47289e-06
0.00201852 0.000125402 1.64049e-07
0.000125402 4.03151e-06 -1.70096e-09
1.64049e-07 -1.70096e-09 -7.75116e-06
0.00211337 0.000380163 -4.02315e-07
0.000380163 0.00014851 7.51793e-08
-4.02315e-07 7.51793e-08 4.00587e-06
0.00208833 0.000296802 1.68738e-07
0.000296802 1.81683e-05 1.15569e-07
1.68738e-07 1.15569e-07 -3.21469e-05
0.00201674 -5.78092e-06 4.71075e-06
-5.78092e-06 4.40086e-05 9.53421e-08
4.71075e-06 9.53421e-08 7.45639e-06
0.00202466 5.45536e-05 5.1061e-06
5.45536e-05 2.48531e-05 2.165e-07
5.1061e-06 2.165e-07 2.1356e-05
0.00207123 0.00020245 2.29799e-06
0.00020245 1.09926e-05 3.44253e-07
2.29799e-06 3.44253e-07 -9.04904e-06
0.0021045 0.00013006 1.70189e-06
0.00013006 -3.03103e-06 2.75801e-07
1.70189e-06 2.75801e-07 1.09899e-05
0.00203524 0.000375162 1.07026e-06
0.000375162 4.65197e-05 3.34109e-07
1.07026e-06 3.34109e-07 -6.5753e-05
0.00226215 0.000302703 2.48903e-06
0.000302703 5.36759e-05 7.20758e-07
2.48903e-06 7.20758e-07 3.97965e-05
0.00189658 -4.89513e-05 -2.06034e-06
-4.89513e-05 0.000102886 -2.30038e-07
-2.06034e-06 -2.30038e-07 9.39851e-06
0.00187392 -0.000196846 -3.33606e-06
-0.000196846 9.12248e-05 -9.62854e-08
-3.33606e-06 -9.62854e-08 -3.14477e-05
0.00202968 -0.000128604 -2.09029e-06
-0.000128604 5.54314e-05 2.24953e-07
-2.09029e-06 2.24953e-07 8.00463e-06
0.00198844 -0.000280011 -3.27858e-06
-0.000280011 7.94331e-05 7.74397e-07
-3.27858e-06 7.74397e-07 -2.50847e-05
0.000729301 -0.000249708 -9.80386e-06
-0.000249708 6.42725e-05 8.8895e-06
-9.80386e-06 8.8895e-06 -0.000179756
0.00139102 -0.000479346 -9.53018e-06
-0.000479346 0.000285809 2.34133e-06
-9.53018e-06 2.34133e-06 -6.56914e-05
0.00165277 -0.000627245 1.99398e-06
-0.000627245 0.000229772 -1.93397e-06
1.99398e-06 -1.93397e-06 -0.000158382
0.00189042 -0.000418628 -1.75522e-06
-0.000418628 9.38131e-05 4.23536e-07
-1.75522e-06 4.23536e-07 -8.84727e-05
0.00209342 -0.000390159 -1.65033e-06
-0.000390159 8.49911e-05 5.77781e-07
-1.65033e-06 5.77781e-07 1.28671e-06
0.00200935 -0.00050486 -8.05288e-07
-0.00050486 0.000156349 4.07694e-07
-8.05288e-07 4.07694e-07 -2.93442e-05
0.00202564 -0.000616572 -4.30012e-06
-0.000616572 0.000266925 -3.22228e-06
-4.30012e-06 -3.22228e-06 -2.93823e-05
0.00210342 -0.000550551 7.08245e-06
-0.000550551 0.000275811 -3.98051e-06
7.08245e-06 -3.98051e-06 6.78125e-05
0.000852047 -0.00028558 -4.26144e-07
-0.00028558 0.000126554 2.88549e-06
-4.26144e-07 2.88549e-06 -0.000154514
0.000940353 -0.000297141 3.80244e-06
-0.000297141 0.000145875 -1.14796e-06
3.80244e-06 -1.14796e-06 -0.000149943
0.00098204 -0.000140188 -2.11424e-07
-0.000140188 0.000342407 5.36072e-06
-2.11424e-07 5.36072e-06 0.000146602
-0.000364282 -7.89589e-05 1.59316e-06
-7.89589e-05 -0.000526247 -7.47011e-06
1.59316e-06 -7.47011e-06 -0.000801758
0.0020465 -6.8865e-05 -2.29229e-07
-6.8865e-05 7.47702e-05 8.87564e-08
-2.29229e-07 8.87564e-08 3.14152e-05
0.00200285 -0.000214266 2.87695e-06
-0.000214266 5.14319e-05 -8.35168e-07
2.87695e-06 -8.35168e-07 -2.77145e-05
0.00198583 -0.000120955 8.63029e-07
-0.000120955 2.21753e-05 -1.73986e-07
8.63029e-07 -1.73986e-07 8.07303e-06
0.00208281 -0.000312228 -6.92465e-07
-0.000312228 4.39143e-05 1.85447e-07
-6.92465e-07 1.85447e-07 -1.80784e-06
0.00120966 -0.000381992 -2.85737e-06
-0.000381992 0.000275822 4.8595e-08
-2.85737e-06 4.8595e-08 -3.71147e-05
0.00156075 -0.000635304 1.46757e-06
-0.000635304 0.000333287 -3.19181e-07
1.46757e-06 -3.19181e-07 -9.02179e-05
0.00200482 -0.000724385 -4.35751e-07
-0.000724385 0.000366023 3.95167e-07
-4.35751e-07 3.95167e-07 -3.50465e-05
0.00197364 -0.0004483 -1.26388e-06
-0.0004483 9.00403e-05 5.17679e-07
-1.26388e-06 5.17679e-07 -5.52615e-05
0.00209502 -0.000402381 1.04313e-06
-0.000402381 5.80307e-05 -2.83843e-07
1.04313e-06 -2.83843e-07 -7.49754e-06
0.00209527 -0.000626086 -3.82126e-07
-0.000626086 0.00030601 3.82612e-07
-3.82126e-07 3.82612e-07 1.95954e-05
0.00198722 -0.00053745 -8.93529e-07
-0.00053745 0.000111206 9.76526e-07
-8.93529e-07 9.76526e-07 -5.35765e-05
0.00218912 -0.000587594 3.6474e-06
-0.000587594 0.000294525 -4.50529e-06
3.6474e-06 -4.50529e-06 7.74076e-05
0.00140558 -0.000443554 -1.10714e-06
-0.000443554 0.000447082 -1.12605e-06
-1.10714e-06 -1.12605e-06 9.95156e-05
0.00143774 -0.000428364 -1.46087e-06
-0.000428364 0.000478205 1.45703e-06
-1.46087e-06 1.45703e-06 0.000116627
0.00101826 -0.000295494 1.52406e-06
-0.000295494 0.000294965 -3.80251e-07
1.52406e-06 -3.80251e-07 -2.07887e-05
0.000294519 -9.15104e-05 -2.41312e-06
-9.15104e-05 -9.19108e-05 1.03257e-06
-2.41312e-06 1.03257e-06 -0.000239762
-5.44055e-05 -9.7549e-05 -1.06636e-06
-9.7549e-05 -0.000233614 -1.19405e-06
-1.06636e-06 -1.19405e-06 -0.000534096
0.00196633 -6.78131e-05 4.53833e-06
-6.78131e-05 -9.41269e-06 -1.82248e-07
4.53833e-06 -1.82248e-07 -1.10411e-05
0.00201819 -0.000187004 3.37485e-06
-0.000187004 -3.19449e-06 -8.10591e-07
3.37485e-06 -8.10591e-07 -1.65473e-05
0.00214547 -0.000368706 6.76498e-07
-0.000368706 1.34862e-06 -4.41662e-07
6.76498e-07 -4.41662e-07 -1.89551e-05
0.00211503 -0.000472956 1.66331e-06
-0.000472956 9.20091e-05 -2.04181e-06
1.66331e-06 -2.04181e-06 5.22545e-06
0.00141691 -0.000534209 -3.25795e-06
-0.000534209 0.00038769 1.229e-07
-3.25795e-06 1.229e-07 -1.04584e-05
0.00225771 -0.000647628 -7.37198e-06
-0.000647628 0.000183713 -5.32357e-06
-7.37198e-06 -5.32357e-06 -6.68427e-06
0.00132987 -0.000699448 -2.08443e-05
-0.000699448 0.000177453 7.62287e-06
-2.08443e-05 7.62287e-06 -0.000276806
0.00213483 -0.000787566 -1.20572e-07
-0.000787566 0.0004079 8.32262e-07
-1.20572e-07 8.32262e-07 -5.60185e-06
0.00195119 -0.000595258 -1.62235e-05
-0.000595258 0.000215066 7.3551e-07
-1.62235e-05 7.3551e-07 -5.53668e-05
7.42603e-05 -1.68193e-05 -2.83489e-06
-1.68193e-05 -0.000215571 -5.91871e-06
-2.83489e-06 -5.91871e-06 -0.000330686
0.000909451 -0.000168099 -3.1865e-06
-0.000168099 0.000388282 -1.22903e-06
-3.1865e-06 -1.22903e-06 0.00012004
0.000992165 -0.000239825 -1.79742e-06
-0.000239825 0.000398303 -4.19815e-06
-1.79742e-06 -4.19815e-06 9.2398e-05
0.00178444 -0.000547972 -1.47225e-05
-0.000547972 0.000669539 5.70808e-06
-1.47225e-05 5.70808e-06 0.000265942
0.00209315 -0.000386364 -3.90536e-06
-0.000386364 0.000918352 1.18289e-05
-3.90536e-06 1.18289e-05 0.000579631
0.000669541 -0.000391501 -1.727e-05
-0.000391501 -3.67512e-05 1.79209e-05
-1.727e-05 1.79209e-05 -0.000406715
0.00038573 -1.34383e-05 -2.51258e-06
-1.34383e-05 -7.12522e-05 -8.3176e-06
-2.51258e-06 -8.3176e-06 -0.000107819
0.000443046 3.76581e-05 -3.70603e-07
3.76581e-05 -1.19873e-05 -7.61769e-06
-3.70603e-07 -7.61769e-06 -0.000129046
0.00209133 0.00044585 -2.67158e-06
0.00044585 0.000180608 -4.23519e-07
-2.67158e-06 -4.23519e-07 -3.98106e-06
-8.32268e-05 3.89757e-05 2.66243e-07
3.89757e-05 -0.000297268 -1.2399e-06
2.66243e-07 -1.2399e-06 -0.0005514
0.00128934 0.000302481 -2.12086e-07
0.000302481 0.00039986 -1.40764e-07
-2.12086e-07 -1.40764e-07 0.000157715
5.75209e-05 0.000145519 -4.97626e-06
0.000145519 -0.000384328 1.9752e-06
-4.97626e-06 1.9752e-06 -0.000587037
0.00199892 0.000557819 2.07031e-06
0.000557819 0.000267416 1.83262e-06
2.07031e-06 1.83262e-06 -4.44859e-06
0.00197711 0.000542658 2.63183e-06
0.000542658 0.000163431 1.10599e-06
2.63183e-06 1.10599e-06 -5.82553e-05
0.00156341 0.000535154 -1.49483e-06
0.000535154 0.000483451 2.88646e-07
-1.49483e-06 2.88646e-07 8.68824e-05
0.00228546 0.00069098 -4.63734e-06
0.00069098 0.000700354 4.07516e-06
-4.63734e-06 4.07516e-06 0.000312241
0.00211036 0.00065057 1.46914e-06
0.00065057 0.000327201 3.09389e-06
1.46914e-06 3.09389e-06 1.76344e-05
0.000596409 4.68871e-05 -3.37576e-07
4.68871e-05 8.1664e-05 5.74318e-07
-3.37576e-07 5.74318e-07 -1.64658e-05
0.000775383 9.12646e-05 -1.32982e-06
9.12646e-05 0.000248291 -1.32172e-08
-1.32982e-06 -1.32172e-08 4.58979e-05
0.00120334 0.000403272 1.13088e-06
0.000403272 0.000320193 2.14564e-06
1.13088e-06 2.14564e-06 1.28086e-05
0.000813524 0.000118792 1.87232e-06
0.000118792 0.000205123 -1.61292e-06
1.87232e-06 -1.61292e-06 -5.70136e-05
0.000792506 0.000221261 3.73658e-06
0.000221261 -7.64139e-06 -2.08688e-06
3.73658e-06 -2.08688e-06 -0.000224979
0.00205253 0.000470562 -2.30817e-06
0.000470562 0.000133871 -1.45635e-06
-2.30817e-06 -1.45635e-06 -3.86461e-05
0.00210912 0.000618171 1.99146e-06
0.000618171 0.000292212 6.05573e-07
1.99146e-06 6.05573e-07 2.08442e-05
0.00203124 0.00059645 1.14544e-06
0.00059645 0.000148823 2.61036e-07
1.14544e-06 2.61036e-07 -8.23634e-05
0.0013842 0.000612465 2.21459e-06
0.000612465 0.000359896 6.83034e-07
2.21459e-06 6.83034e-07 -7.43892e-05
0.00180828 0.000679523 -2.12195e-06
0.000679523 0.000301629 -2.03729e-06
-2.12195e-06 -2.03729e-06 -5.82729e-05
0.00122257 0.000143051 1.52669e-06
0.000143051 0.000514112 3.4464e-06
1.52669e-06 3.4464e-06 0.000354817
-0.000271182 1.40888e-05 -1.38947e-06
1.40888e-05 -0.000354499 8.87908e-07
-1.38947e-06 8.87908e-07 -0.000620641
0.00139456 0.000482143 -1.42623e-06
0.000482143 0.000436974 -3.82998e-06
-1.42623e-06 -3.82998e-06 7.34824e-05
-0.000353045 0.000143067 5.6801e-06
0.000143067 -0.000655093 -8.42155e-07
5.6801e-06 -8.42155e-07 -0.000880132
0.0025922 0.000547964 -2.51909e-06
0.000547964 0.00108024 -4.64098e-06
-2.51909e-06 -4.64098e-06 0.00077223
0.00203871 0.000513942 1.9395e-07
0.000513942 3.38013e-05 -2.31067e-07
1.9395e-07 -2.31067e-07 -0.000109729
0.00217469 0.000680709 9.14141e-06
0.000680709 0.000295085 -2.24087e-06
9.14141e-06 -2.24087e-06 -5.34578e-06
0.00209358 0.000631034 9.96525e-06
0.000631034 0.000149157 1.54619e-06
9.96525e-06 1.54619e-06 -0.00010013
0.00153978 0.000657237 1.13171e-05
0.000657237 0.000399941 -9.57547e-08
1.13171e-05 -9.57547e-08 -3.26928e-05
0.00210686 0.000781914 3.98355e-06
0.000781914 0.000493515 -5.70048e-07
3.98355e-06 -5.70048e-07 9.58172e-05
0.000536315 3.50646e-05 -1.48534e-06
3.50646e-05 3.72307e-05 -5.45066e-06
-1.48534e-06 -5.45066e-06 -4.62423e-05
0.0005178 8.47436e-05 1.28128e-06
8.47436e-05 5.36989e-05 2.81612e-07
1.28128e-06 2.81612e-07 -7.61002e-05
0.00023338 6.80928e-05 -3.62942e-07
6.80928e-05 -0.000130259 1.43864e-06
-3.62942e-07 1.43864e-06 -0.000249204
2.30065e-05 -2.11804e-05 5.60317e-07
-2.11804e-05 -0.000248662 -3.81608e-06
5.60317e-07 -3.81608e-06 -0.000369735
0.000587744 6.86212e-05 -3.93411e-07
6.86212e-05 0.000122136 8.41877e-08
-3.93411e-07 8.41877e-08 -5.58619e-06
0.000510875 9.87978e-05 -3.43758e-07
9.87978e-05 6.42096e-05 -5.09033e-08
-3.43758e-07 -5.09033e-08 -7.07529e-05
0.000734676 0.000145814 -3.03851e-06
0.000145814 0.000220532 -4.33909e-06
-3.03851e-06 -4.33909e-06 8.52252e-05
0.000254998 2.99049e-05 -1.97296e-06
2.99049e-05 -8.11972e-05 -1.35871e-07
-1.97296e-06 -1.35871e-07 -0.000226559
0.00067916 0.000102687 9.74607e-08
0.000102687 0.00016935 2.9266e-06
9.74607e-08 2.9266e-06 5.36956e-05
0.000554615 7.50383e-05 2.95176e-06
7.50383e-05 7.1002e-05 3.99985e-06
2.95176e-06 3.99985e-06 -5.3709e-06
0.000515362 2.57242e-05 -2.63075e-06
2.57242e-05 4.15809e-05 4.67797e-08
-2.63075e-06 4.67797e-08 -3.1886e-05
0.00127302 -1.53331e-06 1.97202e-06
-1.53331e-06 0.000484117 3.52019e-06
1.97202e-06 3.52019e-06 0.000465089
0.000398609 -6.79542e-05 3.30175e-06
-6.79542e-05 -2.6435e-05 -4.57242e-06
3.30175e-06 -4.57242e-06 -0.000107184
0.00133991 -1.1846e-05 -7.56811e-06
-1.1846e-05 0.000522881 -1.70496e-06
-7.56811e-06 -1.70496e-06 0.000503071
0.000731843 -2.43687e-05 3.05503e-05
-2.43687e-05 0.000135195 9.57993e-06
3.05503e-05 9.57993e-06 0.00013947
0.00139784 -2.18911e-05 -1.40487e-05
-2.18911e-05 0.000559018 -7.75466e-06
-1.40487e-05 -7.75466e-06 0.000537143
0.000759836 -3.9639e-05 1.25511e-05
-3.9639e-05 0.000154332 3.55181e-06
1.25511e-05 3.55181e-06 0.000153826
0.00265686 -0.000117392 -1.30084e-06
-0.000117392 0.00137002 -3.06572e-06
-1.30084e-06 -3.06572e-06 0.00136885
0.000287421 6.43053e-05 -4.41295e-06
6.43053e-05 -0.000101786 -6.20523e-06
-4.41295e-06 -6.20523e-06 -0.000144238
0.000401301 7.56501e-06 -3.6097e-06
7.56501e-06 -3.61166e-05 2.7778e-07
-3.6097e-06 2.7778e-07 -8.80851e-05
0.00309553 0.000161605 -7.63663e-07
0.000161605 0.00167986 -7.05527e-06
-7.63663e-07 -7.05527e-06 0.00166466
0.000528137 -8.27396e-05 -1.2304e-05
-8.27396e-05 2.93877e-05 1.22222e-05
-1.2304e-05 1.22222e-05 -3.97878e-05
0.00402892 0.000141877 -3.60451e-05
0.000141877 0.00226976 -1.28629e-07
-3.60451e-05 -1.28629e-07 0.00225742
0.0050126 0.000107026 -0.000171582
0.000107026 0.00289578 1.94005e-05
-0.000171582 1.94005e-05 0.00288905
0.00208101 0.000380243 -2.35239e-06
0.000380243 0.000122529 1.09014e-06
-2.35239e-06 1.09014e-06 -2.21042e-05
0.00210148 0.000210714 -3.14185e-06
0.000210714 9.77718e-05 -3.49301e-07
-3.14185e-06 -3.49301e-07 3.09177e-05
0.0020877 0.000289721 -1.12695e-06
0.000289721 2.05126e-05 -1.30911e-07
-1.12695e-06 -1.30911e-07 -2.99578e-05
0.00201551 0.000124958 -2.29663e-06
0.000124958 -3.77364e-06 -3.27184e-07
-2.29663e-06 -3.27184e-07 -1.03899e-05
0.00202154 5.06451e-05 -5.42256e-06
5.06451e-05 4.20047e-05 -9.38255e-08
-5.42256e-06 -9.38255e-08 7.22978e-06
0.00186216 5.15887e-06 -1.84944e-06
5.15887e-06 7.64129e-05 2.31743e-07
-1.84944e-06 2.31743e-07 -1.39947e-05
0.00202733 -6.69409e-06 -1.37859e-07
-6.69409e-06 5.54107e-05 1.69856e-08
-1.37859e-07 1.69856e-08 1.74298e-05
0.00202586 5.51847e-05 1.2629e-06
5.51847e-05 2.90078e-05 3.36735e-08
1.2629e-06 3.36735e-08 2.18986e-05
0.00207992 0.000200087 -1.62818e-07
0.000200087 2.04619e-05 -4.23214e-08
-1.62818e-07 -4.23214e-08 2.06975e-06
0.00208763 0.000131239 6.26803e-07
0.000131239 -1.87823e-05 1.68616e-07
6.26803e-07 1.68616e-07 1.60577e-06
0.00208166 0.000377143 -5.21525e-07
0.000377143 8.58535e-05 2.97358e-07
-5.21525e-07 2.97358e-07 -2.86215e-05
0.00219492 0.000302943 2.74811e-06
0.000302943 1.0247e-05 3.77726e-07
2.74811e-06 3.77726e-07 3.12952e-06
0.0019782 -1.27014e-05 4.31309e-06
-1.27014e-05 5.14744e-06 2.45033e-07
4.31309e-06 2.45033e-07 -3.93215e-06
0.00209689 6.26464e-05 1.18782e-07
6.26464e-05 -1.77049e-05 -4.02311e-08
1.18782e-07 -4.02311e-08 1.21062e-05
0.00216477 0.000201201 -5.61987e-07
0.000201201 -1.37541e-05 -2.11208e-07
-5.61987e-07 -2.11208e-07 4.60237e-06
0.00221697 0.000412937 -5.20646e-07
0.000412937 2.84697e-05 6.4644e-07
-5.20646e-07 6.4644e-07 -6.38239e-06
0.00204791 -6.88614e-05 -6.08318e-06
-6.88614e-05 7.54729e-05 5.39585e-07
-6.08318e-06 5.39585e-07 3.21761e-05
0.00203117 -0.000215883 -1.06296e-06
-0.000215883 7.62896e-05 5.98583e-08
-1.06296e-06 5.98583e-08 -4.06123e-06
0.00195611 -0.000119824 -4.97387e-06
-0.000119824 -1.44211e-06 9.40589e-07
-4.97387e-06 9.40589e-07 -1.46578e-05
0.00209618 -0.000312269 -5.37038e-06
-0.000312269 5.76061e-05 1.23898e-06
-5.37038e-06 1.23898e-06 6.43066e-06
0.000984309 -0.000366401 -6.71343e-06
-0.000366401 0.00012494 2.99814e-06
-6.71343e-06 2.99814e-06 -0.000186535
0.00154322 -0.000622988 1.21654e-05
-0.000622988 0.000329954 -3.91057e-06
1.21654e-05 -3.91057e-06 -8.92786e-05
0.00201084 -0.000738934 -2.56426e-06
-0.000738934 0.000366689 -2.47205e-06
-2.56426e-06 -2.47205e-06 -4.30098e-05
0.00197008 -0.000443764 -3.44047e-06
-0.000443764 9.42527e-05 1.24963e-06
-3.44047e-06 1.24963e-06 -5.50233e-05
0.00206232 -0.000402129 -5.75419e-07
-0.000402129 3.86653e-05 1.27073e-06
-5.75419e-07 1.27073e-06 -2.25585e-05
0.00194974 -0.000537966 2.70563e-07
-0.000537966 7.80625e-05 2.0122e-06
2.70563e-07 2.0122e-06 -8.76424e-05
0.00204571 -0.000612702 -1.67692e-06
-0.000612702 0.000296281 -2.35754e-06
-1.67692e-06 -2.35754e-06 1.33057e-05
0.00214457 -0.000576219 1.55607e-05
-0.000576219 0.000252973 -5.99915e-06
1.55607e-05 -5.99915e-06 4.269e-05
0.000933431 -0.000387156 1.19407e-07
-0.000387156 0.0001515 5.54861e-07
1.19407e-07 5.54861e-07 -0.000181594
0.00137117 -0.000427636 1.56823e-05
-0.000427636 0.000414064 -8.25113e-06
1.56823e-05 -8.25113e-06 5.85763e-05
-9.63283e-05 -0.000152398 1.49373e-06
-0.000152398 -0.000394277 -1.275e-05
1.49373e-06 -1.275e-05 -0.000698224
0.000100516 -8.06009e-05 4.47434e-07
-8.06009e-05 -0.000214489 5.42053e-06
4.47434e-07 5.42053e-06 -0.000364027
0.000260065 -6.58539e-05 4.86764e-06
-6.58539e-05 -5.09213e-05 4.95649e-07
4.86764e-06 4.95649e-07 -0.000339276
0.00195466 -7.62263e-05 8.91712e-08
-7.62263e-05 -1.90962e-05 -1.72443e-07
8.91712e-08 -1.72443e-07 -2.17947e-05
0.00205488 -0.000188566 1.40158e-06
-0.000188566 1.61273e-05 -1.35954e-08
1.40158e-06 -1.35954e-08 2.69663e-06
0.00214947 -0.000362361 -6.4219e-07
-0.000362361 2.05046e-05 5.88262e-08
-6.4219e-07 5.88262e-08 -4.67547e-06
0.00147636 -0.000541779 -1.2502e-06
-0.000541779 0.000423761 -6.9988e-07
-1.2502e-06 -6.9988e-07 2.46888e-05
0.00152142 -0.000703528 3.63597e-06
-0.000703528 0.000291677 -8.52761e-07
3.63597e-06 -8.52761e-07 -0.000160326
0.002152 -0.0007967 -1.9362e-07
-0.0007967 0.000424759 -2.98261e-07
-1.9362e-07 -2.98261e-07 4.66565e-06
0.00209597 -0.00046928 3.73197e-07
-0.00046928 8.3631e-05 1.42082e-07
3.73197e-07 1.42082e-07 -5.66186e-06
0.00214166 -0.000633155 2.26508e-06
-0.000633155 0.000300403 -3.81307e-06
2.26508e-06 -3.81307e-06 2.59217e-05
0.00219058 -0.000627019 -1.57998e-06
-0.000627019 0.000176517 -2.94227e-07
-1.57998e-06 -2.94227e-07 -8.47762e-06
4.25538e-05 4.36016e-05 -1.95787e-06
4.36016e-05 -0.000246684 -9.08163e-07
-1.95787e-06 -9.08163e-07 -0.000350791
0.00134133 -0.000491281 1.19165e-08
-0.000491281 0.000389464 -1.97046e-06
1.19165e-08 -1.97046e-06 2.45122e-06
0.00145376 -0.000486249 -3.47837e-06
-0.000486249 0.000470127 1.72112e-06
-3.47837e-06 1.72112e-06 7.29902e-05
0.00156388 -0.000364551 -9.55401e-07
-0.000364551 0.000622908 2.71274e-06
-9.55401e-07 2.71274e-06 0.000265956
0.00125681 -0.000267639 1.72334e-06
-0.000267639 0.000560255 -2.41835e-06
1.72334e-06 -2.41835e-06 0.000249752
0.000408261 -8.89741e-05 -9.81499e-07
-8.89741e-05 6.18364e-05 1.42377e-06
-9.81499e-07 1.42377e-06 -0.000192892
0.00206001 -9.8663e-05 1.34857e-06
-9.8663e-05 -2.32113e-05 1.73645e-07
1.34857e-06 1.73645e-07 -1.7364e-06
0.00221985 -0.000252827 1.84451e-07
-0.000252827 -2.12566e-05 1.06342e-07
1.84451e-07 1.06342e-07 1.50815e-05
0.00222735 -0.000446441 6.91455e-07
-0.000446441 1.94905e-05 -4.76228e-07
6.91455e-07 -4.76228e-07 1.37402e-05
0.00226369 -0.000561769 1.20617e-06
-0.000561769 8.25975e-05 -2.87571e-06
1.20617e-06 -2.87571e-06 1.39394e-05
0.00167732 -0.000642473 -1.40678e-05
-0.000642473 0.000504305 6.20032e-06
-1.40678e-05 6.20032e-06 6.60151e-05
0.00239561 -0.000734511 -9.03592e-06
-0.000734511 0.000348419 -6.94316e-06
-9.03592e-06 -6.94316e-06 9.36207e-05
0.00192694 -0.000827474 -4.46029e-05
-0.000827474 0.000506792 6.598e-06
-4.46029e-05 6.598e-06 1.1027e-05
0.00234888 -0.000858597 -2.77837e-05
-0.000858597 0.000558378 6.80499e-07
-2.77837e-05 6.80499e-07 0.000117139
-6.18103e-05 5.21865e-05 -6.23999e-06
5.21865e-05 -0.000315127 -2.78017e-06
-6.23999e-06 -2.78017e-06 -0.000394145
0.000910629 -4.2356e-06 -3.35963e-06
-4.2356e-06 0.00036087 -4.71577e-07
-3.35963e-06 -4.71577e-07 0.000174828
0.00186922 -0.00028983 -6.30976e-06
-0.00028983 0.000997126 -5.33597e-07
-6.30976e-06 -5.33597e-07 0.000697105
0.000683199 -0.000161904 -1.82518e-07
-0.000161904 0.000150554 -6.18947e-06
-1.82518e-07 -6.18947e-06 -0.000166333
0.00272889 -0.000692499 -2.42722e-05
-0.000692499 0.00122017 1.40041e-05
-2.42722e-05 1.40041e-05 0.000773237
0.00161703 -0.000483753 -4.37659e-06
-0.000483753 0.000621903 2.21154e-05
-4.37659e-06 2.21154e-05 0.00017984
0.000535564 3.37531e-05 -1.09001e-06
3.37531e-05 4.47226e-05 -5.97116e-06
-1.09001e-06 -5.97116e-06 -5.22464e-05
-0.000274731 2.47986e-05 9.49393e-07
2.47986e-05 -0.000416344 -1.11447e-06
9.49393e-07 -1.11447e-06 -0.000602221
0.00198948 0.000469162 -1.6956e-06
0.000469162 9.95771e-05 -8.43335e-07
-1.6956e-06 -8.43335e-07 -7.40051e-05
0.000353615 8.10903e-05 -2.03072e-06
8.10903e-05 -9.08752e-05 2.65765e-06
-2.03072e-06 2.65765e-06 -0.000345303
0.00137252 0.000426365 -2.27222e-06
0.000426365 0.000411493 -5.39004e-06
-2.27222e-06 -5.39004e-06 9.8333e-05
-0.00130069 3.27564e-05 -5.27897e-06
3.27564e-05 -0.00132453 -3.97099e-07
-5.27897e-06 -3.97099e-07 -0.00149325
0.0021413 0.000621089 3.12362e-06
0.000621089 0.000307003 1.74696e-06
3.12362e-06 1.74696e-06 3.49871e-05
0.00206179 0.000594607 -6.30561e-06
0.000594607 0.000162722 2.09386e-07
-6.30561e-06 2.09386e-07 -6.70158e-05
0.0017162 0.000662101 -4.82366e-06
0.000662101 0.000546289 4.41317e-06
-4.82366e-06 4.41317e-06 0.000104315
0.00205999 0.000710089 -7.16443e-06
0.000710089 0.000473109 1.07978e-06
-7.16443e-06 1.07978e-06 0.000101794
0.000800646 0.000104398 -5.47688e-07
0.000104398 0.00023837 7.01083e-08
-5.47688e-07 7.01083e-08 9.23922e-05
0.000538362 9.49397e-05 1.49053e-06
9.49397e-05 0.000147082 -1.17704e-07
1.49053e-06 -1.17704e-07 -0.000133242
0.00127881 0.000463283 -3.39054e-06
0.000463283 0.000361055 -1.23326e-06
-3.39054e-06 -1.23326e-06 3.51909e-06
0.000563697 0.00017672 5.05401e-07
0.00017672 -9.97219e-05 -9.767e-07
5.05401e-07 -9.767e-07 -0.000325302
0.00193923 0.000440271 2.96408e-06
0.000440271 0.000650371 -1.89142e-06
2.96408e-06 -1.89142e-06 0.000371327
0.00219271 0.000528991 -2.52657e-06
0.000528991 0.000114629 -8.48514e-07
-2.52657e-06 -8.48514e-07 -2.96139e-05
0.00231703 0.000681108 2.79971e-06
0.000681108 0.000386422 -5.75515e-07
2.79971e-06 -5.75515e-07 9.24729e-05
0.00228044 0.000654922 2.05225e-06
0.000654922 0.000254799 2.74577e-06
2.05225e-06 2.74577e-06 1.74566e-06
0.001524 0.000659613 3.92113e-06
0.000659613 0.00039299 1.21914e-06
3.92113e-06 1.21914e-06 -4.30226e-05
0.00195939 0.000790451 -4.84178e-06
0.000790451 0.000408565 2.82935e-07
-4.84178e-06 2.82935e-07 -1.2513e-06
-0.000942262 7.40374e-06 -3.92839e-06
7.40374e-06 -0.000838319 6.84345e-06
-3.92839e-06 6.84345e-06 -0.000979986
-0.000576213 0.00024529 1.03449e-06
0.00024529 -0.000474253 1.41275e-06
1.03449e-06 1.41275e-06 -0.000807384
0.0014685 0.000520797 3.8042e-06
0.000520797 0.000436984 -3.3094e-06
3.8042e-06 -3.3094e-06 6.39313e-05
0.000212416 0.000238818 1.96135e-06
0.000238818 -0.000425713 -3.62224e-06
1.96135e-06 -3.62224e-06 -0.000651761
0.00242834 0.000533866 5.26098e-06
0.000533866 -4.23181e-05 2.26203e-06
5.26098e-06 2.26203e-06 -2.06738e-05
0.00270772 0.000657987 8.85222e-06
0.000657987 0.000437959 1.44733e-06
8.85222e-06 1.44733e-06 0.000234261
0.00222679 0.00078165 7.54363e-06
0.00078165 0.00034998 -3.44774e-06
7.54363e-06 -3.44774e-06 -1.56013e-05
0.00168554 0.000767205 1.91503e-06
0.000767205 0.000353484 -6.62562e-07
1.91503e-06 -6.62562e-07 -0.000108355
0.000805542 0.000129688 -6.4278e-07
0.000129688 0.000245842 -2.77755e-06
-6.4278e-07 -2.77755e-06 0.000105712
0.000517247 0.000119728 -1.3706e-06
0.000119728 6.3587e-05 -8.66184e-07
-1.3706e-06 -8.66184e-07 -6.8827e-05
0.00135158 0.000117855 -8.68772e-06
0.000117855 0.000590713 -4.18553e-06
-8.68772e-06 -4.18553e-06 0.000485457
0.000520257 4.69559e-05 -2.69289e-07
4.69559e-05 5.46889e-05 -3.38716e-06
-2.69289e-07 -3.38716e-06 -5.47785e-05
-0.000134481 4.41116e-05 2.64827e-07
4.41116e-05 -0.00033607 -1.41142e-06
2.64827e-07 -1.41142e-06 -0.000459798
0.000605068 5.41989e-05 -7.50296e-07
5.41989e-05 0.000124956 2.32587e-07
-7.50296e-07 2.32587e-07 8.7583e-06
0.000484213 0.000136182 4.27617e-07
0.000136182 8.25409e-05 8.7392e-07
4.27617e-07 8.7392e-07 -5.12654e-05
0.000481893 6.30346e-05 9.49573e-07
6.30346e-05 7.32236e-05 7.47123e-08
9.49573e-07 7.47123e-08 -8.1894e-05
0.000678183 0.000119169 5.44283e-06
0.000119169 0.000143701 -3.02387e-06
5.44283e-06 -3.02387e-06 5.91156e-05
0.00069295 2.27555e-05 3.15826e-06
2.27555e-05 0.000201375 -4.87102e-06
3.15826e-06 -4.87102e-06 5.38098e-05
0.000188403 6.85569e-05 -4.08609e-07
6.85569e-05 -0.000115978 2.39455e-06
-4.08609e-07 2.39455e-06 -0.000262962
0.000672952 0.000115047 2.13108e-06
0.000115047 0.000167232 4.00745e-06
2.13108e-06 4.00745e-06 4.79416e-05
0.000460036 8.02171e-05 2.96539e-06
8.02171e-05 1.78976e-05 3.93857e-06
2.96539e-06 3.93857e-06 -6.46768e-05
0.00045109 1.70014e-05 -1.55411e-06
1.70014e-05 3.7325e-06 -3.29774e-07
-1.55411e-06 -3.29774e-07 -7.05624e-05
0.00123572 8.06443e-06 1.28275e-06
8.06443e-06 0.000466443 3.09786e-06
1.28275e-06 3.09786e-06 0.000447797
0.000438797 -4.2445e-05 6.50319e-07
-4.2445e-05 -8.82799e-06 -3.51049e-06
6.50319e-07 -3.51049e-06 -8.0313e-05
0.00132437 -4.86655e-06 -7.2534e-06
-4.86655e-06 0.000516338 -1.72077e-06
-7.2534e-06 -1.72077e-06 0.00049813
0.000730998 -1.47303e-05 2.796e-05
-1.47303e-05 0.000137075 9.38274e-06
2.796e-05 9.38274e-06 0.000142325
0.00136704 -1.85285e-05 -1.09499e-05
-1.85285e-05 0.000540065 -7.20753e-06
-1.09499e-05 -7.20753e-06 0.000520906
0.00074595 -2.89261e-05 1.08974e-05
-2.89261e-05 0.000142551 3.5826e-06
1.08974e-05 3.5826e-06 0.000145023
0.000736458 -4.1444e-05 5.20353e-07
-4.1444e-05 0.000139238 -3.40729e-06
5.20353e-07 -3.40729e-06 0.00013765
0.000378419 4.45566e-05 -1.90051e-06
4.45566e-05 -6.72167e-05 -4.25819e-06
-1.90051e-06 -4.25819e-06 -9.47033e-05
0.000393935 7.14388e-05 -4.60854e-07
7.14388e-05 -3.30886e-05 3.29637e-07
-4.60854e-07 3.29637e-07 -7.80061e-05
0.0026126 0.000123381 5.50093e-06
0.000123381 0.0013628 -5.50921e-06
5.50093e-06 -5.50921e-06 0.00135825
0.000481833 7.52883e-06 -6.07014e-06
7.52883e-06 1.61876e-05 1.04739e-05
-6.07014e-06 1.04739e-05 -3.85236e-05
0.00323234 0.000160165 -1.90288e-05
0.000160165 0.00176454 -1.97887e-06
-1.90288e-05 -1.97887e-06 0.00174935
0.00421481 8.4751e-05 -0.000141362
8.4751e-05 0.00238166 1.4309e-05
-0.000141362 1.4309e-05 0.00238288
0.00212258 0.000378652 -9.01972e-07
0.000378652 0.000122447 3.99471e-07
-9.01972e-07 3.99471e-07 5.80706e-06
0.0020935 0.000198493 -4.14009e-06
0.000198493 3.20088e-05 -6.12602e-07
-4.14009e-06 -6.12602e-07 1.52268e-05
0.00212534 0.000303006 3.96672e-07
0.000303006 -3.51437e-05 4.30172e-07
3.96672e-07 4.30172e-07 -3.5528e-05
0.00206787 0.000132571 1.79926e-07
0.000132571 -3.70461e-05 -1.07848e-08
1.79926e-07 -1.07848e-08 -1.01291e-05
0.00202689 5.60176e-05 -4.11591e-06
5.60176e-05 3.28442e-05 -3.32359e-07
-4.11591e-06 -3.32359e-07 2.21828e-05
0.00204233 -9.59582e-06 -6.84374e-06
-9.59582e-06 6.97598e-05 8.82578e-08
-6.84374e-06 8.82578e-08 3.047e-05
0.0019908 -1.09761e-05 1.03805e-07
-1.09761e-05 1.43318e-05 -3.41488e-08
1.03805e-07 -3.41488e-08 6.06269e-06
0.00208274 6.53977e-05 1.1362e-06
6.53977e-05 -2.21964e-05 1.31226e-07
1.1362e-06 1.31226e-07 5.61322e-06
0.00216219 0.000207969 1.10887e-06
0.000207969 -1.62107e-05 2.04893e-07
1.10887e-06 2.04893e-07 5.33627e-06
0.00222125 0.000402186 5.66998e-07
0.000402186 2.4436e-05 1.69601e-07
5.66998e-07 1.69601e-07 -9.2238e-06
0.00205195 -1.6531e-05 -4.06072e-07
-1.6531e-05 -3.0661e-05 8.02554e-08
-4.06072e-07 8.02554e-08 -8.95859e-06
0.00221292 0.000116784 -1.91317e-06
0.000116784 -5.67383e-05 -5.19121e-07
-1.91317e-06 -5.19121e-07 1.16742e-05
0.00238747 0.000315253 1.59444e-06
0.000315253 6.22512e-07 -1.0294e-07
1.59444e-06 -1.0294e-07 4.03661e-05
0.00194261 -8.45375e-05 -4.17096e-06
-8.45375e-05 -2.91049e-05 2.10907e-07
-4.17096e-06 2.10907e-07 -3.27517e-05
0.00209256 -0.000189608 -3.4038e-06
-0.000189608 3.68351e-05 6.40083e-07
-3.4038e-06 6.40083e-07 2.33315e-05
0.00215005 -0.000355493 -2.18794e-06
-0.000355493 3.83231e-05 6.17592e-07
-2.18794e-06 6.17592e-07 7.49042e-06
0.00159129 -0.000555608 1.79005e-06
-0.000555608 0.000492811 -9.27931e-07
1.79005e-06 -9.27931e-07 9.17972e-05
0.00151912 -0.000679025 2.35619e-05
-0.000679025 0.00029585 -7.61387e-06
2.35619e-05 -7.61387e-06 -0.000145475
0.00195439 -0.000782586 1.29205e-06
-0.000782586 0.000323024 2.96495e-07
1.29205e-06 2.96495e-07 -9.75394e-05
0.0020794 -0.000465547 -1.60848e-06
-0.000465547 7.64354e-05 1.62309e-06
-1.60848e-06 1.62309e-06 -1.54355e-05
0.00212864 -0.000606598 8.71128e-06
-0.000606598 0.000172209 3.26346e-06
8.71128e-06 3.26346e-06 -6.14471e-06
0.00224555 -0.000667594 1.61206e-05
-0.000667594 0.000340246 -6.70552e-06
1.61206e-05 -6.70552e-06 6.18769e-05
0.00107187 -0.000450738 7.52357e-06
-0.000450738 0.000222503 -6.61395e-06
7.52357e-06 -6.61395e-06 -0.00015308
0.00164355 -0.000525346 1.82558e-05
-0.000525346 0.000601084 -1.75439e-05
1.82558e-05 -1.75439e-05 0.000196669
0.000969818 -0.000373022 -6.70565e-07
-0.000373022 0.000278643 -1.21923e-05
-6.70565e-07 -1.21923e-05 -9.26251e-05
0.000223656 3.89256e-05 4.05295e-06
3.89256e-05 -0.000136863 2.01088e-06
4.05295e-06 2.01088e-06 -0.00023648
0.00174706 -0.000292795 3.27579e-06
-0.000292795 0.000834238 4.27679e-06
3.27579e-06 4.27679e-06 0.000535364
-0.000303205 2.55949e-06 6.64037e-06
2.55949e-06 -0.000395992 5.21391e-07
6.64037e-06 5.21391e-07 -0.000636022
0.00207508 -9.62142e-05 -5.65167e-07
-9.62142e-05 -1.4121e-05 1.38014e-07
-5.65167e-07 1.38014e-07 5.42614e-06
0.00218863 -0.000260784 9.51153e-08
-0.000260784 -4.40185e-05 -1.10423e-07
9.51153e-08 -1.10423e-07 -6.02565e-06
0.00221467 -0.000438342 -6.75221e-07
-0.000438342 1.75995e-05 3.42018e-07
-6.75221e-07 3.42018e-07 9.0655e-06
0.00170112 -0.000641184 -6.93749e-07
-0.000641184 0.000538692 8.62684e-07
-6.93749e-07 8.62684e-07 0.000100719
0.00133339 -0.000748116 5.66025e-06
-0.000748116 0.000164537 -2.17374e-06
5.66025e-06 -2.17374e-06 -0.00031117
0.00241198 -0.000844996 -3.99097e-06
-0.000844996 0.000594818 -2.65065e-07
-3.99097e-06 -2.65065e-07 0.000169878
0.00222869 -0.000570234 2.3904e-07
-0.000570234 6.39009e-05 -5.20179e-07
2.3904e-07 -5.20179e-07 -1.25436e-05
0.00200683 -0.000685657 2.47521e-06
-0.000685657 0.000140418 -1.06571e-06
2.47521e-06 -1.06571e-06 -9.91247e-05
0.000245798 6.04168e-05 -1.78734e-06
6.04168e-05 -0.000123563 -1.33353e-06
-1.78734e-06 -1.33353e-06 -0.000198983
0.000641166 -3.47841e-05 -8.17979e-07
-3.47841e-05 0.000181317 9.40812e-07
-8.17979e-07 9.40812e-07 4.1091e-06
0.000958493 -0.000492975 -3.23905e-06
-0.000492975 0.000125056 2.18417e-06
-3.23905e-06 2.18417e-06 -0.000267026
0.00144997 -0.00044006 -5.71157e-06
-0.00044006 0.000529842 1.0176e-06
-5.71157e-06 1.0176e-06 9.41858e-05
0.00164455 -0.000236843 -6.22299e-07
-0.000236843 0.000738398 -1.19179e-06
-6.22299e-07 -1.19179e-06 0.000413787
0.00102808 -0.000209778 -5.9396e-07
-0.000209778 0.000458901 1.64528e-06
-5.9396e-07 1.64528e-06 0.000170333
0.00218148 -0.000133937 -1.83383e-06
-0.000133937 -5.75788e-05 1.01844e-06
-1.83383e-06 1.01844e-06 1.05232e-05
0.00232991 -0.000374631 -2.06287e-06
-0.000374631 -8.31927e-05 9.90843e-07
-2.06287e-06 9.90843e-07 7.12254e-06
0.0023075 -0.000536059 2.53111e-06
-0.000536059 1.83055e-05 -1.05233e-06
2.53111e-06 -1.05233e-06 1.70534e-05
0.00237903 -0.000733496 6.69846e-06
-0.000733496 0.000164133 -4.52804e-06
6.69846e-06 -4.52804e-06 1.0315e-05
0.000961908 -0.000595239 -1.13168e-05
-0.000595239 7.74709e-05 -7.41666e-06
-1.13168e-05 -7.41666e-06 -0.000358411
0.00280035 -0.000935026 -7.29562e-06
-0.000935026 0.00072623 4.74187e-07
-7.29562e-06 4.74187e-07 0.000325706
0.00238705 -0.000955001 -4.92072e-05
-0.000955001 0.00070579 -3.09044e-06
-4.92072e-05 -3.09044e-06 0.000162551
0.000543547 4.50769e-05 -2.88547e-07
4.50769e-05 4.65705e-05 2.36685e-08
-2.88547e-07 2.36685e-08 -1.01521e-05
0.000704156 -0.000148429 3.77679e-06
-0.000148429 0.000209923 -8.62996e-07
3.77679e-06 -8.62996e-07 9.33314e-05
0.00033523 8.82274e-05 -8.53543e-06
8.82274e-05 -1.90219e-05 -1.90441e-07
-8.53543e-06 -1.90441e-07 -0.000142097
0.000850867 -7.4756e-05 -4.4925e-06
-7.4756e-05 0.000338427 2.40354e-06
-4.4925e-06 2.40354e-06 0.000107905
-0.000167426 -0.000152733 2.3505e-06
-0.000152733 -0.000337704 -8.40163e-06
2.3505e-06 -8.40163e-06 -0.000614733
0.000181952 -0.00017311 6.56607e-06
-0.00017311 -0.000114814 -1.12404e-06
6.56607e-06 -1.12404e-06 -0.0005233
0.00124797 -0.000558828 -4.11853e-05
-0.000558828 0.000326689 2.71572e-05
-4.11853e-05 2.71572e-05 -6.8346e-05
0.00310285 -0.000571362 -3.3022e-05
-0.000571362 0.00173405 1.95382e-05
-3.3022e-05 1.95382e-05 0.0010617
0.000355342 5.4441e-05 -2.77376e-07
5.4441e-05 -5.75976e-05 -2.01467e-06
-2.77376e-07 -2.01467e-06 -0.00018584
0.00108397 0.000241288 -8.81226e-07
0.000241288 0.00046988 3.67864e-07
-8.81226e-07 3.67864e-07 0.000182829
0.00234723 0.000544375 -2.73051e-06
0.000544375 0.000196236 -1.53607e-06
-2.73051e-06 -1.53607e-06 5.09701e-05
0.000353644 0.000199899 -4.06753e-06
0.000199899 -0.000212636 1.74906e-06
-4.06753e-06 1.74906e-06 -0.000466526
0.00115697 0.000444775 -1.60647e-06
0.000444775 0.000281449 3.86045e-07
-1.60647e-06 3.86045e-07 -7.20468e-05
0.00173418 0.000381341 -3.28208e-06
0.000381341 0.000500651 -1.77425e-06
-3.28208e-06 -1.77425e-06 0.000238393
0.00244143 0.000677592 -7.36524e-06
0.000677592 0.000468942 -2.27314e-07
-7.36524e-06 -2.27314e-07 0.00018287
0.00245736 0.000677703 -1.14303e-05
0.000677703 0.000355687 4.78022e-06
-1.14303e-05 4.78022e-06 9.9385e-05
0.0016187 0.000679221 -4.5158e-06
0.000679221 0.000447894 1.63646e-06
-4.5158e-06 1.63646e-06 6.06765e-06
0.00178344 0.000797316 -6.50231e-06
0.000797316 0.00030375 -2.35577e-07
-6.50231e-06 -2.35577e-07 -0.000116789
-0.000227343 6.99615e-05 1.15748e-06
6.99615e-05 -0.000383232 1.45068e-06
1.15748e-06 1.45068e-06 -0.000549849
-1.45662e-05 0.00028069 -3.94354e-07
0.00028069 -0.000130864 -2.51754e-06
-3.94354e-07 -2.51754e-06 -0.000463711
0.00156946 0.00054439 1.41176e-06
0.00054439 0.00047759 1.75858e-07
1.41176e-06 1.75858e-07 9.37134e-05
0.00170293 0.000379165 -3.95199e-06
0.000379165 0.000527243 1.56299e-06
-3.95199e-06 1.56299e-06 0.000271485
0.00241119 0.000512982 6.69714e-07
0.000512982 -7.3642e-05 -8.49634e-07
6.69714e-07 -8.49634e-07 -4.07779e-05
0.00259055 0.000658906 3.44696e-06
0.000658906 0.00036819 -1.26545e-08
3.44696e-06 -1.26545e-08 0.000156723
0.00214842 0.000759263 -2.45138e-06
0.000759263 0.00032186 -2.20942e-08
-2.45138e-06 -2.20942e-08 -3.51211e-05
0.00189484 0.000784759 1.06555e-06
0.000784759 0.000456524 1.11059e-07
1.06555e-06 1.11059e-07 -1.37022e-06
-0.000509485 3.63118e-05 -3.3911e-06
3.63118e-05 -0.000547895 5.28883e-06
-3.3911e-06 5.28883e-06 -0.000713723
0.00228202 0.000389076 1.27244e-05
0.000389076 -0.000194298 3.4253e-06
1.27244e-05 3.4253e-06 -0.000109527
0.00314405 0.000591549 8.42636e-06
0.000591549 0.00176838 9.77658e-06
8.42636e-06 9.77658e-06 0.00140491
0.00134259 0.000521758 3.07193e-06
0.000521758 0.000257437 -3.15273e-06
3.07193e-06 -3.15273e-06 -9.19468e-05
0.00257673 0.00063926 -1.28708e-05
0.00063926 0.000176068 -7.41056e-06
-1.28708e-05 -7.41056e-06 0.000112125
0.00124358 0.000706785 4.31762e-06
0.000706785 -0.000304831 -8.43235e-06
4.31762e-06 -8.43235e-06 -0.000640852
0.00279113 0.000910429 1.30754e-06
0.000910429 0.000913067 3.94999e-06
1.30754e-06 3.94999e-06 0.000424259
0.000768725 0.000128634 -1.24552e-06
0.000128634 0.000223035 -2.94819e-06
-1.24552e-06 -2.94819e-06 8.72228e-05
0.000619214 0.000119968 -3.83505e-06
0.000119968 0.000155398 -1.68877e-06
-3.83505e-06 -1.68877e-06 4.34865e-05
0.00104837 0.000111187 -2.34986e-06
0.000111187 0.000428036 3.95685e-06
-2.34986e-06 3.95685e-06 0.000357535
0.00047892 7.93221e-06 1.08937e-06
7.93221e-06 4.67063e-05 -3.87134e-06
1.08937e-06 -3.87134e-06 -6.97612e-05
0.000665701 8.91133e-05 2.73054e-06
8.91133e-05 0.000194985 -1.25769e-06
2.73054e-06 -1.25769e-06 3.39963e-05
-0.00040061 8.99102e-05 -2.91579e-06
8.99102e-05 -0.000438425 5.61217e-06
-2.91579e-06 5.61217e-06 -0.000561146
0.000546396 2.43686e-05 -1.53837e-06
2.43686e-05 9.25295e-05 1.8035e-08
-1.53837e-06 1.8035e-08 -2.96576e-05
0.000306548 -8.94308e-06 -9.95654e-07
-8.94308e-06 -2.67402e-05 -2.31144e-07
-9.95654e-07 -2.31144e-07 -0.000184191
6.24824e-05 6.18827e-05 -9.82409e-07
6.18827e-05 -0.000212224 2.15626e-06
-9.82409e-07 2.15626e-06 -0.00028404
0.000797215 0.000111526 1.14514e-06
0.000111526 0.000280347 -1.61863e-06
1.14514e-06 -1.61863e-06 0.00012054
0.00180681 0.000151741 -3.89385e-07
0.000151741 0.000839107 -1.03542e-06
-3.89385e-07 -1.03542e-06 0.00079292
0.000362936 3.00572e-05 1.07735e-05
3.00572e-05 -2.89228e-05 -8.26642e-06
1.07735e-05 -8.26642e-06 -0.000117013
0.000317095 0.000116044 6.42933e-07
0.000116044 -9.97138e-06 2.60887e-06
6.42933e-07 2.60887e-06 -0.00017932
0.000574805 5.36922e-05 1.37623e-06
5.36922e-05 0.000135792 4.28933e-06
1.37623e-06 4.28933e-06 -3.28116e-05
0.000560178 3.15024e-05 2.38282e-06
3.15024e-05 9.09663e-05 3.54401e-06
2.38282e-06 3.54401e-06 -3.20953e-05
0.00048158 -6.16912e-05 -9.34901e-07
-6.16912e-05 2.7544e-05 3.17283e-06
-9.34901e-07 3.17283e-06 -5.49844e-05
0.000483022 1.25895e-05 4.04455e-07
1.25895e-05 2.30858e-05 -3.96607e-07
4.04455e-07 -3.96607e-07 -5.29344e-05
0.00130766 2.98044e-05 3.48319e-06
2.98044e-05 0.000519953 3.33608e-06
3.48319e-06 3.33608e-06 0.000499061
0.000487433 6.31329e-06 4.36966e-07
6.31329e-06 1.60858e-05 -3.64208e-06
4.36966e-07 -3.64208e-06 -5.12842e-05
0.00131943 1.36859e-05 -6.97204e-06
1.36859e-05 0.000519655 -1.76052e-06
-6.97204e-06 -1.76052e-06 0.000500749
0.000740964 -7.47622e-06 2.2954e-05
-7.47622e-06 0.000148281 9.07535e-06
2.2954e-05 9.07535e-06 0.000153296
0.00134831 -9.32743e-06 -8.61618e-06
-9.32743e-06 0.000531247 -6.89766e-06
-8.61618e-06 -6.89766e-06 0.000513599
0.000768123 -1.93e-05 8.58344e-06
-1.93e-05 0.000157452 3.58376e-06
8.58344e-06 3.58376e-06 0.000161323
0.00076384 -3.10955e-05 3.78725e-07
-3.10955e-05 0.000151716 -3.09721e-06
3.78725e-07 -3.09721e-06 0.000153423
0.000623378 -1.36041e-05 1.47739e-06
-1.36041e-05 9.06548e-05 -1.23623e-06
1.47739e-06 -1.23623e-06 3.84204e-05
0.000397132 2.80239e-05 -2.58089e-07
2.80239e-05 -6.74258e-05 -3.67872e-06
-2.58089e-07 -3.67872e-06 -8.69355e-05
0.000414079 4.88108e-05 3.28645e-07
4.88108e-05 -4.17589e-05 2.64392e-07
3.28645e-07 2.64392e-07 -7.10413e-05
0.00241014 9.64841e-05 1.06889e-05
9.64841e-05 0.00122346 -4.78396e-06
1.06889e-05 -4.78396e-06 0.0012263
0.000472082 6.17613e-05 4.95107e-06
6.17613e-05 9.31985e-06 7.71996e-06
4.95107e-06 7.71996e-06 -3.32403e-05
0.00280665 0.000134145 -4.87879e-06
0.000134145 0.00148744 -5.6045e-07
-4.87879e-06 -5.6045e-07 0.00148038
0.00346592 0.000118029 -5.55612e-05
0.000118029 0.00190081 6.36207e-06
-5.55612e-05 6.36207e-06 0.0018946
0.00223025 0.000392242 5.41575e-07
0.000392242 2.30635e-05 -2.10096e-07
5.41575e-07 -2.10096e-07 -9.24589e-06
0.00216152 0.000214814 -4.13538e-07
0.000214814 -1.62763e-05 2.55038e-07
-4.13538e-07 2.55038e-07 7.86255e-06
0.0020688 6.91891e-05 -9.07891e-08
6.91891e-05 -2.57067e-05 -1.99234e-08
-9.07891e-08 -1.99234e-08 -6.06236e-08
0.00200161 -9.1653e-06 -4.36669e-06
-9.1653e-06 2.26062e-05 -2.89882e-07
-4.36669e-06 -2.89882e-07 1.50966e-05
0.00205861 -1.136e-05 -9.6937e-07
-1.136e-05 -2.77808e-05 -3.87531e-08
-9.6937e-07 -3.87531e-08 -3.47551e-06
0.00219918 0.000110204 -2.52253e-08
0.000110204 -5.5514e-05 3.5129e-07
-2.52253e-08 3.5129e-07 1.03494e-05
0.00231394 0.000322283 -1.21065e-06
0.000322283 -3.13072e-05 -1.02854e-07
-1.21065e-06 -1.02854e-07 7.30428e-06
0.00217913 -1.10331e-05 -2.42207e-06
-1.10331e-05 -7.2767e-05 1.26935e-07
-2.42207e-06 1.26935e-07 4.52182e-06
0.00242161 0.000165544 3.80844e-06
0.000165544 -5.22141e-05 -1.37118e-06
3.80844e-06 -1.37118e-06 2.68285e-05
0.00259964 0.000122587 1.31963e-05
0.000122587 0.000131384 1.25764e-05
1.31963e-05 1.25764e-05 0.000218376
0.00208851 -9.42864e-05 -1.19115e-06
-9.42864e-05 -5.78008e-06 -1.12757e-07
-1.19115e-06 -1.12757e-07 1.17804e-05
0.00216115 -0.000270213 -5.20725e-07
-0.000270213 -6.56481e-05 -2.49241e-07
-5.20725e-07 -2.49241e-07 -2.56568e-05
0.00220642 -0.000429799 -1.89147e-07
-0.000429799 1.84404e-05 -1.63228e-07
-1.89147e-07 -1.63228e-07 8.07704e-06
0.00143817 -0.0006177 1.03291e-05
-0.0006177 0.0003788 -4.22419e-06
1.03291e-05 -4.22419e-06 -5.65226e-05
0.00189519 -0.000811888 3.16562e-05
-0.000811888 0.000488558 -1.88702e-06
3.16562e-05 -1.88702e-06 -1.34641e-06
0.00198401 -0.000771668 1.51663e-05
-0.000771668 0.000358864 -1.62514e-06
1.51663e-05 -1.62514e-06 -4.0071e-05
0.00218913 -0.000575886 1.32728e-06
-0.000575886 4.69487e-05 3.18567e-06
1.32728e-06 3.18567e-06 -3.80602e-05
0.00188744 -0.00066226 1.17712e-05
-0.00066226 9.25115e-05 3.98387e-06
1.17712e-05 3.98387e-06 -0.000138745
0.000521295 -0.000432437 1.93086e-05
-0.000432437 -0.00013516 -2.08745e-05
1.93086e-05 -2.08745e-05 -0.000517998
0.00137893 -0.000404371 1.92571e-05
-0.000404371 0.000539807 -2.09012e-05
1.92571e-05 -2.09012e-05 8.81244e-05
0.0010992 -0.000139399 -2.2147e-06
-0.000139399 0.000365413 2.39122e-06
-2.2147e-06 2.39122e-06 6.64545e-05
0.000424153 1.72504e-05 2.91822e-06
1.72504e-05 -1.3243e-05 8.59632e-07
2.91822e-06 8.59632e-07 -8.43611e-05
0.000519727 2.49736e-05 7.38661e-06
2.49736e-05 9.7277e-05 1.26516e-06
7.38661e-06 1.26516e-06 -7.37706e-05
0.000371949 -0.000147376 1.5447e-06
-0.000147376 3.05133e-05 7.43721e-06
1.5447e-06 7.43721e-06 -0.00024566
0.00219167 -0.000136697 5.67868e-07
-0.000136697 -6.02001e-05 -8.99724e-08
5.67868e-07 -8.99724e-08 1.03692e-05
0.000481566 8.1573e-06 1.81305e-06
8.1573e-06 7.73028e-06 3.41889e-07
1.81305e-06 3.41889e-07 -4.89237e-05
0.000389428 -7.55547e-05 -2.46835e-06
-7.55547e-05 -2.27938e-05 -6.04309e-07
-2.46835e-06 -6.04309e-07 -0.000117891
0.00230366 -0.000363989 -2.11008e-07
-0.000363989 -7.6201e-05 1.30694e-07
-2.11008e-07 1.30694e-07 3.67587e-06
0.00226098 -0.000522823 -1.85374e-06
-0.000522823 5.35141e-07 4.00208e-07
-1.85374e-06 4.00208e-07 6.71146e-06
0.00182218 -0.00070966 -1.54042e-06
-0.00070966 0.000582091 2.13545e-06
-1.54042e-06 2.13545e-06 0.000113485
0.00191283 -0.000891773 9.11971e-06
-0.000891773 0.000460991 6.50522e-07
9.11971e-06 6.50522e-07 -7.41054e-05
0.00210449 -0.000862944 2.25166e-06
-0.000862944 0.000317856 -5.72292e-06
2.25166e-06 -5.72292e-06 -6.37186e-05
0.00234329 -0.000729177 2.96618e-06
-0.000729177 0.000146044 -9.47871e-07
2.96618e-06 -9.47871e-07 -3.08538e-06
0.000664506 1.16454e-05 -8.16653e-07
1.16454e-05 0.000195692 -1.3845e-06
-8.16653e-07 -1.3845e-06 6.89427e-05
0.0007713 -6.38712e-05 1.21541e-06
-6.38712e-05 0.000287286 2.09195e-06
1.21541e-06 2.09195e-06 5.80246e-05
0.00146529 -0.000558494 4.98177e-06
-0.000558494 0.000480001 6.23028e-06
4.98177e-06 6.23028e-06 6.82638e-05
0.00128371 -0.000413038 1.17261e-05
-0.000413038 0.000595041 -9.76497e-06
1.17261e-05 -9.76497e-06 2.36611e-05
0.000973367 -0.000169175 -1.3741e-08
-0.000169175 0.000303589 -3.00137e-07
-1.3741e-08 -3.00137e-07 -5.65219e-05
0.000201188 -0.000119397 7.57407e-07
-0.000119397 -0.000101463 -2.564e-06
7.57407e-07 -2.564e-06 -0.00038612
0.00219402 -0.000159641 8.861e-07
-0.000159641 -0.000212237 2.88987e-07
8.861e-07 2.88987e-07 -0.000113592
0.00230488 -0.000468674 -8.22054e-07
-0.000468674 -0.000231868 2.95393e-06
-8.22054e-07 2.95393e-06 -1.57391e-05
0.00252275 -0.000725761 -3.65932e-06
-0.000725761 8.867e-05 -2.34029e-06
-3.65932e-06 -2.34029e-06 5.33138e-05
0.0025733 -0.000952044 1.25641e-05
-0.000952044 0.000361397 -6.32975e-06
1.25641e-05 -6.32975e-06 0.000113103
0.00124099 -0.000678304 -4.99735e-06
-0.000678304 0.000282603 -2.08205e-05
-4.99735e-06 -2.08205e-05 -0.000201891
0.00321533 -0.00113327 -1.20184e-05
-0.00113327 0.0010896 7.32857e-06
-1.20184e-05 7.32857e-06 0.000510917
0.000196565 5.5931e-05 -2.74955e-06
5.5931e-05 -0.000139196 -4.3514e-06
-2.74955e-06 -4.3514e-06 -0.000240939
0.000533184 -4.62087e-05 4.04391e-06
-4.62087e-05 7.43514e-05 1.13415e-06
4.04391e-06 1.13415e-06 -1.71083e-05
0.0012427 -0.000170639 -3.6065e-06
-0.000170639 0.000485097 1.57055e-05
-3.6065e-06 1.57055e-05 0.000365231
0.000420378 1.05091e-05 -4.53861e-06
1.05091e-05 2.77572e-05 4.94108e-06
-4.53861e-06 4.94108e-06 -0.000143303
0.00078804 -0.000113571 -4.7453e-06
-0.000113571 0.000276638 7.98435e-06
-4.7453e-06 7.98435e-06 3.14179e-05
0.000968191 -8.74575e-05 1.30284e-05
-8.74575e-05 0.000295748 -1.0599e-05
1.30284e-05 -1.0599e-05 3.16386e-05
-0.000814518 -0.000346937 -1.01274e-06
-0.000346937 -0.000335333 1.5659e-06
-1.01274e-06 1.5659e-06 -0.0011655
0.000125774 -0.000556714 -6.33061e-05
-0.000556714 -0.000371047 2.77203e-05
-6.33061e-05 2.77203e-05 -0.000736775
0.000485491 8.97194e-05 -1.38876e-06
8.97194e-05 8.93702e-05 -2.27606e-06
-1.38876e-06 -2.27606e-06 -0.000112653
0.000770019 0.000281646 -1.06832e-05
0.000281646 0.000326469 -5.79215e-06
-1.06832e-05 -5.79215e-06 1.19598e-05
0.00239142 0.000491464 -9.32684e-06
0.000491464 -9.8178e-05 -2.87554e-06
-9.32684e-06 -2.87554e-06 -5.66766e-05
0.00253536 0.000664125 -8.92897e-06
0.000664125 0.00033869 -1.08731e-06
-8.92897e-06 -1.08731e-06 0.000118826
0.00363068 0.000516203 -5.73381e-06
0.000516203 0.00171613 1.06548e-06
-5.73381e-06 1.06548e-06 0.00144686
0.00151707 0.000547756 -4.1263e-06
0.000547756 0.000428359 -1.38775e-06
-4.1263e-06 -1.38775e-06 3.78797e-05
0.00208131 0.000738165 -6.1005e-06
0.000738165 0.00030003 1.84467e-06
-6.1005e-06 1.84467e-06 -4.91185e-05
0.00211554 0.00080033 -4.86287e-06
0.00080033 0.000568216 -9.41731e-07
-4.86287e-06 -9.41731e-07 0.000114315
0.000339505 0.000117348 1.33167e-06
0.000117348 8.98918e-06 -1.3531e-06
1.33167e-06 -1.3531e-06 -0.000198349
0.00245629 0.000374206 -2.4543e-06
0.000374206 -8.28191e-05 -2.01107e-06
-2.4543e-06 -2.01107e-06 6.82002e-06
0.00144353 0.000364948 7.98634e-07
0.000364948 0.000691368 1.28752e-06
7.98634e-07 1.28752e-06 0.000383056
0.0016485 0.000549919 2.44871e-06
0.000549919 0.000479702 1.12946e-06
2.44871e-06 1.12946e-06 0.000118451
0.00261828 0.000633515 1.6387e-06
0.000633515 0.000219062 3.31295e-07
1.6387e-06 3.31295e-07 0.000153425
0.00173356 0.000752665 -1.89318e-06
0.000752665 -1.26719e-05 -4.70483e-06
-1.89318e-06 -4.70483e-06 -0.000354537
0.00224877 0.000833551 -1.78465e-07
0.000833551 0.000618082 4.63772e-07
-1.78465e-07 4.63772e-07 0.000144626
0.00130998 0.000306544 -2.94193e-06
0.000306544 0.000715943 1.03178e-06
-2.94193e-06 1.03178e-06 0.000436472
0.00358345 0.000550975 -7.94705e-05
0.000550975 0.000573246 -1.97701e-05
-7.94705e-05 -1.97701e-05 0.000733513
0.00106302 0.000484104 -8.03837e-06
0.000484104 0.000388043 5.19917e-06
-8.03837e-06 5.19917e-06 3.71335e-05
0.00155778 0.000630339 -3.40153e-06
0.000630339 0.000356295 -7.25594e-06
-3.40153e-06 -7.25594e-06 -6.93275e-05
0.00239517 0.000841059 -3.24369e-05
0.000841059 0.000208739 -2.00255e-05
-3.24369e-05 -2.00255e-05 -2.31908e-05
0.00112284 0.000716827 -2.28777e-05
0.000716827 -5.65128e-05 -2.95543e-06
-2.28777e-05 -2.95543e-06 -0.00048807
0.000422634 0.000879551 3.37756e-05
0.000879551 -0.00186535 -3.61589e-05
3.37756e-05 -3.61589e-05 -0.00144636
-0.000179637 0.000133369 4.47344e-06
0.000133369 -0.000304523 -1.3248e-06
4.47344e-06 -1.3248e-06 -0.000427188
0.000425557 0.000110148 2.39024e-06
0.000110148 9.25311e-05 2.5424e-06
2.39024e-06 2.5424e-06 8.08761e-06
0.00168613 0.000165219 2.41906e-06
0.000165219 0.000834322 3.05213e-06
2.41906e-06 3.05213e-06 0.000760082
0.000393789 -6.47603e-05 9.93446e-07
-6.47603e-05 4.46294e-06 -4.52142e-06
9.93446e-07 -4.52142e-06 -0.000120513
0.000340359 -3.26941e-05 -4.21297e-07
-3.26941e-05 -1.09188e-05 -1.53703e-06
-4.21297e-07 -1.53703e-06 -0.000163966
0.00116774 0.000202508 4.00144e-07
0.000202508 0.000514121 6.06088e-07
4.00144e-07 6.06088e-07 0.000341738
-0.00013212 4.07612e-05 -7.42706e-06
4.07612e-05 -0.000310121 1.41991e-05
-7.42706e-06 1.41991e-05 -0.000379339
0.000513495 -1.46224e-05 -2.95741e-07
-1.46224e-05 7.92168e-05 -1.55828e-07
-2.95741e-07 -1.55828e-07 -5.3e-05
0.000428727 7.2919e-05 1.93699e-07
7.2919e-05 2.00782e-05 -7.76838e-07
1.93699e-07 -7.76838e-07 -0.000130506
0.00130583 0.000133533 2.24683e-06
0.000133533 0.000521256 4.59965e-06
2.24683e-06 4.59965e-06 0.0004765
0.000476368 7.60744e-05 1.70109e-06
7.60744e-05 6.79995e-05 8.05436e-07
1.70109e-06 8.05436e-07 -8.94706e-05
0.000699247 6.41974e-05 -1.20635e-06
6.41974e-05 0.000175293 -2.07876e-06
-1.20635e-06 -2.07876e-06 7.47124e-05
0.00152438 0.000141648 -2.96882e-06
0.000141648 0.000703603 -1.37669e-05
-2.96882e-06 -1.37669e-05 0.000650576
0.000857074 0.000149406 -2.18549e-06
0.000149406 0.000254305 -2.57018e-06
-2.18549e-06 -2.57018e-06 0.000106691
0.000959271 0.00013944 1.71162e-06
0.00013944 0.000362725 2.04707e-06
1.71162e-06 2.04707e-06 0.000192782
0.000887898 0.000104243 -2.24091e-07
0.000104243 0.000327957 2.17058e-06
-2.24091e-07 2.17058e-06 0.000148404
0.000228351 -2.36169e-05 -9.50815e-07
-2.36169e-05 -0.000121082 2.2751e-06
-9.50815e-07 2.2751e-06 -0.000247994
0.00117329 -9.56617e-05 6.54801e-07
-9.56617e-05 0.00055697 -1.2288e-06
6.54801e-07 -1.2288e-06 0.000357687
0.000147193 -4.44879e-05 -1.20001e-06
-4.44879e-05 -0.000167908 4.01155e-06
-1.20001e-06 4.01155e-06 -0.000299796
0.000443548 3.95891e-06 -2.01924e-06
3.95891e-06 9.94158e-06 3.12848e-06
-2.01924e-06 3.12848e-06 -7.71912e-05
0.000461478 3.96712e-05 2.50123e-06
3.96712e-05 1.88602e-05 -1.37072e-07
2.50123e-06 -1.37072e-07 -6.62492e-05
0.000371588 2.14429e-05 -3.66844e-07
2.14429e-05 -6.49471e-05 4.64465e-06
-3.66844e-07 4.64465e-06 -8.97172e-05
0.000414462 5.67129e-06 -2.30813e-06
5.67129e-06 -1.03819e-05 -4.00172e-06
-2.30813e-06 -4.00172e-06 -9.2381e-05
0.000879325 1.65386e-05 -3.69212e-06
1.65386e-05 0.000249534 -1.53222e-06
-3.69212e-06 -1.53222e-06 0.000227616
0.00264582 -3.00174e-06 2.12353e-05
-3.00174e-06 0.00135117 5.63997e-06
2.12353e-05 5.63997e-06 0.0013637
0.00140371 2.83137e-05 -1.13343e-05
2.83137e-05 0.000573987 -7.02838e-06
-1.13343e-05 -7.02838e-06 0.000554463
0.000767051 -9.68439e-06 7.66644e-06
-9.68439e-06 0.000161229 3.4871e-06
7.66644e-06 3.4871e-06 0.000165629
0.000802804 -2.09769e-05 7.12454e-07
-2.09769e-05 0.000175764 -2.79072e-06
7.12454e-07 -2.79072e-06 0.000179267
0.000478736 1.37018e-05 -2.08224e-06
1.37018e-05 6.98084e-06 -2.25636e-06
-2.08224e-06 -2.25636e-06 -4.54156e-05
0.000548777 -2.79162e-05 7.83178e-07
-2.79162e-05 4.72991e-05 -3.24711e-07
7.83178e-07 -3.24711e-07 -6.73225e-06
0.000482369 2.31358e-05 1.61878e-07
2.31358e-05 -1.99182e-05 -3.45676e-06
1.61878e-07 -3.45676e-06 -3.53159e-05
0.000799456 3.95407e-05 -5.65237e-08
3.95407e-05 0.000188464 1.71031e-07
-5.65237e-08 1.71031e-07 0.000170009
0.00224959 7.47658e-05 8.32876e-06
7.47658e-05 0.00111345 -4.63596e-06
8.32876e-06 -4.63596e-06 0.00112154
0.000471216 5.76678e-05 5.269e-06
5.76678e-05 -2.78844e-07 5.79238e-06
5.269e-06 5.79238e-06 -3.29397e-05
0.00249023 0.000102844 -2.83536e-06
0.000102844 0.00127574 -2.85916e-07
-2.83536e-06 -2.85916e-07 0.00127701
0.0028664 0.000140535 1.02305e-05
0.000140535 0.00152643 8.124e-06
1.02305e-05 8.124e-06 0.00151795
0.0022376 0.000328892 -1.58241e-06
0.000328892 -6.84501e-05 2.09161e-08
-1.58241e-06 2.09161e-08 -2.97764e-05
0.00218151 0.00010522 3.19759e-06
0.00010522 -5.7932e-05 4.05955e-07
3.19759e-06 4.05955e-07 6.55258e-06
0.00206762 -6.88448e-06 2.08527e-07
-6.88448e-06 -2.40118e-05 -3.43109e-07
2.08527e-07 -3.43109e-07 2.91503e-06
0.00216215 -6.90193e-06 9.12023e-08
-6.90193e-06 -8.22984e-05 -2.70815e-07
9.12023e-08 -2.70815e-07 -5.2103e-06
0.00237772 0.000171374 -2.4562e-07
0.000171374 -6.52747e-05 4.30419e-07
-2.4562e-07 4.30419e-07 1.30551e-05
0.00235591 9.80329e-05 8.24025e-06
9.80329e-05 -3.47375e-05 -6.38672e-06
8.24025e-06 -6.38672e-06 4.6745e-05
0.00244641 7.33684e-07 -1.70729e-07
7.33684e-07 -0.00010262 -1.46242e-06
-1.70729e-07 -1.46242e-06 2.01126e-05
0.00464543 0.000915063 6.85138e-05
0.000915063 -0.000551846 1.52629e-05
6.85138e-05 1.52629e-05 0.000194425
0.00294294 7.90346e-05 -2.27178e-05
7.90346e-05 0.00047797 3.01862e-05
-2.27178e-05 3.01862e-05 0.000703005
0.000481305 0.000112039 -2.83248e-06
0.000112039 4.81804e-05 -9.78342e-07
-2.83248e-06 -9.78342e-07 -5.00296e-05
0.00219705 -0.00013755 1.17374e-06
-0.00013755 -6.55742e-05 -1.04609e-06
1.17374e-06 -1.04609e-06 7.53389e-06
0.0022767 -0.000353095 2.14502e-06
-0.000353095 -7.01863e-05 -6.91701e-07
2.14502e-06 -6.91701e-07 -1.13871e-06
0.00221726 -0.0005125 -1.73972e-07
-0.0005125 -1.88552e-05 7.08957e-07
-1.73972e-07 7.08957e-07 -4.68971e-06
0.00124779 -0.000651162 3.69357e-06
-0.000651162 0.000253194 1.04157e-05
3.69357e-06 1.04157e-05 -0.00019862
0.00219853 -0.000914241 3.04687e-05
-0.000914241 0.000621805 9.58464e-06
3.04687e-05 9.58464e-06 8.96168e-05
0.00129796 -0.000773788 -1.80247e-06
-0.000773788 -0.000136766 -2.77705e-06
-1.80247e-06 -2.77705e-06 -0.000496118
0.00228439 -0.00072486 -4.97884e-06
-0.00072486 0.000112802 2.64601e-06
-4.97884e-06 2.64601e-06 -3.05894e-05
0.0016072 -0.000545176 4.95466e-05
-0.000545176 0.000479233 -3.67911e-05
4.95466e-05 -3.67911e-05 0.00010986
0.00145967 -0.00045423 3.09143e-05
-0.00045423 0.000649237 -3.54842e-05
3.09143e-05 -3.54842e-05 0.000134701
0.000531882 -6.51931e-05 1.66207e-07
-6.51931e-05 -9.47743e-06 4.81612e-06
1.66207e-07 4.81612e-06 -0.000331716
0.000480927 1.02489e-05 2.59097e-06
1.02489e-05 8.29203e-06 7.53378e-07
2.59097e-06 7.53378e-07 -4.91234e-05
0.00145401 -0.000133346 1.11823e-06
-0.000133346 0.000683387 8.75558e-06
1.11823e-06 8.75558e-06 0.000377948
0.000877683 -2.30877e-05 7.94788e-06
-2.30877e-05 0.000342038 -1.55885e-06
7.94788e-06 -1.55885e-06 0.000210446
0.000682986 -5.8594e-05 3.26456e-06
-5.8594e-05 0.000222034 -1.78037e-06
3.26456e-06 -1.78037e-06 -1.9649e-06
9.71322e-05 -4.56611e-05 -3.44427e-06
-4.56611e-05 -0.000215288 -8.19911e-07
-3.44427e-06 -8.19911e-07 -0.000305721
0.00227052 -0.00017787 -3.10631e-07
-0.00017787 -0.000197123 1.35284e-07
-3.10631e-07 1.35284e-07 -7.10889e-05
0.000335657 2.8599e-05 5.09802e-07
2.8599e-05 -3.94202e-05 -2.6051e-06
5.09802e-07 -2.6051e-06 -0.000146244
0.000594956 -6.25164e-05 2.73689e-06
-6.25164e-05 0.000131023 9.98742e-07
2.73689e-06 9.98742e-07 2.86936e-05
0.000989032 -0.000143018 4.60503e-06
-0.000143018 0.000326831 1.03541e-07
4.60503e-06 1.03541e-07 0.000217641
0.00232694 -0.000482983 2.11976e-06
-0.000482983 -0.000198626 -8.75111e-07
2.11976e-06 -8.75111e-07 -2.26863e-05
0.00243208 -0.000719533 5.34158e-07
-0.000719533 4.02531e-05 -5.65061e-07
5.34158e-07 -5.65061e-07 4.90661e-06
0.000544861 -0.000530058 7.22687e-06
-0.000530058 -0.000121583 -2.57539e-07
7.22687e-06 -2.57539e-07 -0.000536692
0.00273606 -0.00108862 2.00181e-05
-0.00108862 0.000795994 2.5471e-07
2.00181e-05 2.5471e-07 0.000242616
0.00244293 -0.000944438 -6.7307e-07
-0.000944438 0.000304717 2.19713e-06
-6.7307e-07 2.19713e-06 4.66903e-05
0.000299241 -2.61806e-05 -4.64895e-07
-2.61806e-05 -4.6197e-05 3.23779e-07
-4.64895e-07 3.23779e-07 -0.000211178
0.00113572 -0.000138668 -4.46868e-07
-0.000138668 0.000517742 3.93623e-06
-4.46868e-07 3.93623e-06 0.000244773
0.00182148 -0.000773434 -1.13566e-07
-0.000773434 0.000621636 1.88552e-06
-1.13566e-07 1.88552e-06 0.000157513
9.92496e-05 -0.000240333 -1.95205e-06
-0.000240333 -1.27963e-05 3.07419e-06
-1.95205e-06 3.07419e-06 -0.000655847
0.00126514 -0.000139321 1.43959e-06
-0.000139321 0.000485357 5.72425e-06
1.43959e-06 5.72425e-06 0.000214816
0.00272008 -0.000337447 -7.97008e-06
-0.000337447 6.76441e-05 2.55689e-06
-7.97008e-06 2.55689e-06 0.000204594
0.00208894 -0.000537723 -1.56695e-05
-0.000537723 -0.000318116 7.24178e-06
-1.56695e-05 7.24178e-06 -6.6372e-05
0.0022041 -0.000848995 -6.44175e-06
-0.000848995 4.25141e-05 -3.23552e-06
-6.44175e-06 -3.23552e-06 -0.000143251
0.00468822 -0.00128827 -5.21536e-06
-0.00128827 0.0016931 -4.38839e-06
-5.21536e-06 -4.38839e-06 0.00131587
-3.86041e-05 -0.000642604 -1.93134e-05
-0.000642604 -0.00048918 -7.93583e-06
-1.93134e-05 -7.93583e-06 -0.000939521
1.6989e-06 -2.94123e-05 1.01529e-06
-2.94123e-05 -0.000243535 2.04006e-06
1.01529e-06 2.04006e-06 -0.000353763
0.000835002 4.05312e-06 -5.1706e-06
4.05312e-06 0.000200417 1.46713e-05
-5.1706e-06 1.46713e-05 9.09573e-05
-0.00155733 -0.000125574 -7.20558e-06
-0.000125574 -0.00125632 2.43437e-06
-7.20558e-06 2.43437e-06 -0.00134005
0.00212918 -0.000306942 -2.77086e-05
-0.000306942 0.00111641 2.72464e-05
-2.77086e-05 2.72464e-05 0.000885568
0.000934781 -0.000114738 -5.53947e-06
-0.000114738 0.00037326 2.77771e-05
-5.53947e-06 2.77771e-05 0.000122031
-0.00137561 -0.000131341 6.93953e-06
-0.000131341 -0.000453706 6.04581e-07
6.93953e-06 6.04581e-07 -0.00123125
0.00053095 -0.000830268 -2.5362e-05
-0.000830268 0.000162446 1.34232e-05
-2.5362e-05 1.34232e-05 -0.000507623
0.00174242 0.000288688 -5.33199e-06
0.000288688 0.000887595 -7.06967e-06
-5.33199e-06 -7.06967e-06 0.00064603
-0.000659175 9.86676e-05 -5.71135e-06
9.86676e-05 -0.000629494 -2.26193e-06
-5.71135e-06 -2.26193e-06 -0.000872684
0.00260368 0.00034968 9.23659e-07
0.00034968 2.46957e-06 1.24377e-06
9.23659e-07 1.24377e-06 0.000107555
0.00260624 0.000624563 1.14507e-05
0.000624563 0.000222588 5.82165e-06
1.14507e-05 5.82165e-06 0.000160152
0.00217456 0.000793385 5.12932e-06
0.000793385 0.000249723 2.97036e-06
5.12932e-06 2.97036e-06 -9.64783e-05
0.00160502 0.000538128 -2.12276e-06
0.000538128 0.000483966 2.10545e-06
-2.12276e-06 2.10545e-06 0.000120827
0.00174284 0.000763367 2.13237e-06
0.000763367 0.000343451 3.43886e-06
2.13237e-06 3.43886e-06 -0.000115261
0.00207629 0.000349762 8.64243e-07
0.000349762 0.00111826 -8.52504e-07
8.64243e-07 -8.52504e-07 0.000871834
0.00282613 0.000445532 6.26905e-06
0.000445532 0.000173825 3.24901e-06
6.26905e-06 3.24901e-06 0.000369676
0.00118323 0.000430038 -4.24863e-06
0.000430038 0.000426416 4.55306e-06
-4.24863e-06 4.55306e-06 0.000111382
0.00166657 0.000648854 3.35045e-06
0.000648854 0.000459753 -5.04826e-07
3.35045e-06 -5.04826e-07 1.69547e-05
0.0023707 0.000820916 -3.1224e-06
0.000820916 0.000212911 -3.628e-06
-3.1224e-06 -3.628e-06 2.48723e-06
0.00185714 0.000811907 -4.40356e-06
0.000811907 0.00035602 5.47207e-06
-4.40356e-06 5.47207e-06 -9.75343e-05
0.00309476 0.00120611 3.74261e-05
0.00120611 -0.000722622 7.73894e-06
3.74261e-05 7.73894e-06 -0.000483511
0.000188777 0.00027274 -6.28203e-07
0.00027274 5.70549e-05 6.01451e-07
-6.28203e-07 6.01451e-07 -0.000212423
0.00279917 0.000815458 -8.34967e-05
0.000815458 0.000281037 -3.92005e-05
-8.34967e-05 -3.92005e-05 0.000247561
0.000592306 0.000420545 -8.11363e-06
0.000420545 -0.000122074 2.87789e-06
-8.11363e-06 2.87789e-06 -0.000453898
-3.44558e-05 0.000494444 -1.72804e-06
0.000494444 -0.000544698 -1.67913e-05
-1.72804e-06 -1.67913e-05 -0.000956867
0.00150811 0.000892785 -4.03235e-05
0.000892785 -5.6158e-05 -1.44819e-05
-4.03235e-05 -1.44819e-05 -0.00034909
0.0150097 0.000443352 -0.000541307
0.000443352 0.00214225 -9.23982e-05
-0.000541307 -9.23982e-05 0.00180541
0.00342763 0.00185317 -6.7184e-05
0.00185317 -0.00227092 -6.70975e-05
-6.7184e-05 -6.70975e-05 -0.000771913
0.000515877 0.00138574 1.55549e-05
0.00138574 -0.000844392 3.43761e-07
1.55549e-05 3.43761e-07 -0.00108727
0.00339512 -0.00244308 0.00166946
-0.00244308 0.00227199 0.000324743
0.00166946 0.000324743 -0.00141242
0.0233721 -0.00930361 -5.00886e-05
-0.00930361 0.00951204 8.27667e-05
-5.00886e-05 8.27667e-05 0.00618125
2.93283e-06 0.000111165 7.37053e-06
0.000111165 -0.000132637 1.76013e-06
7.37053e-06 1.76013e-06 -0.000226363
0.000839647 0.000117704 -1.65951e-06
0.000117704 0.000351787 -2.95265e-06
-1.65951e-06 -2.95265e-06 0.000273705
0.00186151 0.000281149 2.17765e-06
0.000281149 0.00101016 -7.34155e-07
2.17765e-06 -7.34155e-07 0.000878539
0.000494145 -5.70246e-05 -1.29098e-07
-5.70246e-05 7.7163e-05 -3.11775e-06
-1.29098e-07 -3.11775e-06 -6.04245e-05
0.000396141 6.92483e-05 -6.85319e-07
6.92483e-05 2.54702e-06 -3.70314e-06
-6.85319e-07 -3.70314e-06 -0.000148447
0.00073474 -2.34946e-05 -2.11667e-07
-2.34946e-05 0.000228637 -1.52353e-06
-2.11667e-07 -1.52353e-06 6.89607e-05
0.000853373 8.72661e-05 -3.45031e-06
8.72661e-05 0.000263694 1.08579e-05
-3.45031e-06 1.08579e-05 0.00015702
0.00010206 8.85132e-05 2.21942e-06
8.85132e-05 -0.000228287 7.94974e-06
2.21942e-06 7.94974e-06 -0.000267169
0.000805205 0.000157969 -1.30442e-06
0.000157969 0.000299732 -3.14892e-07
-1.30442e-06 -3.14892e-07 0.000109331
0.000402531 -1.34227e-05 3.46714e-07
-1.34227e-05 -1.99836e-06 1.073e-06
3.46714e-07 1.073e-06 -0.000134896
0.000719459 5.63528e-05 -7.9212e-07
5.63528e-05 0.000215466 5.22842e-08
-7.9212e-07 5.22842e-08 4.34512e-05
0.000233283 9.45849e-05 -1.0427e-06
9.45849e-05 -0.000103819 -2.32653e-06
-1.0427e-06 -2.32653e-06 -0.000154631
0.000657336 0.000122815 -1.5454e-06
0.000122815 0.000149156 -2.7372e-07
-1.5454e-06 -2.7372e-07 4.74637e-06
0.00213768 0.00025517 -1.40886e-06
0.00025517 0.00111708 -6.97755e-07
-1.40886e-06 -6.97755e-07 0.000916396
0.000211699 0.00010551 -1.24272e-07
0.00010551 -3.47999e-05 -3.86489e-06
-1.24272e-07 -3.86489e-06 -0.000201799
0.000885451 0.000106647 2.87288e-06
0.000106647 0.000332807 2.07716e-07
2.87288e-06 2.07716e-07 0.000155123
0.000262394 -4.92809e-06 5.22837e-07
-4.92809e-06 -9.23255e-05 2.10642e-07
5.22837e-07 2.10642e-07 -0.000257116
0.000337028 -7.28351e-05 -8.05509e-07
-7.28351e-05 -4.25777e-05 1.04384e-06
-8.05509e-07 1.04384e-06 -0.000178491
0.000576154 -2.89472e-05 -7.517e-07
-2.89472e-05 0.000123345 -9.89007e-07
-7.517e-07 -9.89007e-07 -4.31854e-05
0.00139493 -2.1068e-05 1.18078e-06
-2.1068e-05 0.000635066 -1.10718e-05
1.18078e-06 -1.10718e-05 0.00047253
0.000724198 -5.04189e-05 -1.2146e-06
-5.04189e-05 0.000260464 -8.86117e-07
-1.2146e-06 -8.86117e-07 9.39638e-05
0.000736111 -7.78193e-05 1.89917e-06
-7.78193e-05 0.000244627 -8.9334e-07
1.89917e-06 -8.9334e-07 7.29544e-05
0.000645247 -0.000127577 -2.00391e-06
-0.000127577 0.000157494 4.01696e-06
-2.00391e-06 4.01696e-06 1.88324e-05
0.000253355 -2.45149e-05 2.62578e-07
-2.45149e-05 -9.62583e-05 9.73538e-07
2.62578e-07 9.73538e-07 -0.000232561
0.00049713 -5.99794e-05 -1.85267e-06
-5.99794e-05 3.40346e-05 4.1017e-06
-1.85267e-06 4.1017e-06 -4.75461e-05
0.000496144 -4.03567e-05 1.96717e-06
-4.03567e-05 4.05714e-05 1.12506e-07
1.96717e-06 1.12506e-07 -4.5344e-05
0.000425021 2.35888e-06 3.09628e-06
2.35888e-06 -2.78492e-05 6.51165e-06
3.09628e-06 6.51165e-06 -5.41444e-05
0.000501081 5.48536e-05 -1.62494e-06
5.48536e-05 3.74961e-05 -3.46996e-06
-1.62494e-06 -3.46996e-06 -4.33977e-05
0.000391958 3.23855e-05 3.60199e-07
3.23855e-05 -5.01288e-05 8.13428e-08
3.60199e-07 8.13428e-08 -7.59149e-05
0.00256337 6.35986e-06 7.34223e-06
6.35986e-06 0.00130119 5.44854e-06
7.34223e-06 5.44854e-06 0.00131331
0.000447533 4.43702e-05 -3.87026e-06
4.43702e-05 -1.87029e-05 -7.57765e-06
-3.87026e-06 -7.57765e-06 -4.57138e-05
0.00171421 -4.21741e-06 -4.62873e-06
-4.21741e-06 0.000762766 1.87303e-07
-4.62873e-06 1.87303e-07 0.000770341
0.00081797 -1.06413e-05 5.11316e-07
-1.06413e-05 0.000188599 -2.42087e-06
5.11316e-07 -2.42087e-06 0.000192973
0.000426058 8.70267e-06 -2.31517e-07
8.70267e-06 -3.153e-05 -1.62827e-06
-2.31517e-07 -1.62827e-06 -7.46614e-05
0.000522448 -3.946e-05 1.33746e-07
-3.946e-05 3.80243e-05 4.47687e-08
1.33746e-07 4.47687e-08 -1.65308e-05
0.000512816 1.18183e-05 1.16412e-06
1.18183e-05 -3.78567e-06 -3.24255e-06
1.16412e-06 -3.24255e-06 -1.5713e-05
0.000481523 -4.10512e-05 -1.37841e-06
-4.10512e-05 5.77107e-06 9.58155e-08
-1.37841e-06 9.58155e-08 -4.87876e-05
0.000794128 2.80491e-05 -1.63495e-07
2.80491e-05 0.000177784 -7.22161e-07
-1.63495e-07 -7.22161e-07 0.00016457
0.00203942 5.46403e-05 5.25056e-06
5.46403e-05 0.000973513 -4.65045e-06
5.25056e-06 -4.65045e-06 0.000986162
0.000458289 3.59655e-05 1.36148e-06
3.59655e-05 -2.70956e-05 3.89603e-06
1.36148e-06 3.89603e-06 -4.83633e-05
0.00240085 8.15553e-05 -5.43344e-06
8.15553e-05 0.00121247 1.21254e-06
-5.43344e-06 1.21254e-06 0.00121879
0.00264146 0.000112429 2.49949e-06
0.000112429 0.00137401 6.21683e-06
2.49949e-06 6.21683e-06 0.00137312
0.00233082 0.000179749 -1.74457e-06
0.000179749 -7.80699e-05 -8.20857e-07
-1.74457e-06 -8.20857e-07 -1.29789e-07
0.00215171 -5.68389e-06 2.63082e-06
-5.68389e-06 -8.71928e-05 -5.93906e-07
2.63082e-06 -5.93906e-07 -1.07388e-05
0.00211923 7.0349e-05 -8.32032e-06
7.0349e-05 -0.000206503 3.89388e-06
-8.32032e-06 3.89388e-06 -0.000126831
0.00258354 0.000687688 9.9555e-05
0.000687688 -0.0016247 2.18591e-05
9.9555e-05 2.18591e-05 -0.000771764
0.0024314 -2.9515e-05 1.59294e-07
-2.9515e-05 -8.75874e-05 -2.91725e-06
1.59294e-07 -2.91725e-06 3.35673e-05
0.00225404 6.97012e-05 -6.64453e-07
6.97012e-05 6.3241e-05 -9.8626e-06
-6.64453e-07 -9.8626e-06 0.000223704
0.00307181 -4.60964e-05 -2.47374e-05
-4.60964e-05 0.000669113 -2.32278e-06
-2.47374e-05 -2.32278e-06 0.000714184
0.00330728 0.000204608 -2.29101e-05
0.000204608 -0.00202526 -4.36912e-05
-2.29101e-05 -4.36912e-05 -0.000807527
0.0024772 0.000234256 0.000136277
0.000234256 -0.000982198 5.00167e-05
0.000136277 5.00167e-05 -0.000415771
0.000589394 8.99866e-05 1.41284e-07
8.99866e-05 0.000118924 -8.16574e-07
1.41284e-07 -8.16574e-07 2.12744e-05
0.000576387 -3.61062e-06 2.8642e-07
-3.61062e-06 0.000122278 -1.2287e-07
2.8642e-07 -1.2287e-07 1.5443e-05
0.000329899 -9.21609e-05 -6.21161e-06
-9.21609e-05 -2.22405e-05 2.10188e-06
-6.21161e-06 2.10188e-06 -0.000140232
0.000382725 -4.52358e-05 -3.82561e-06
-4.52358e-05 1.58499e-05 2.20542e-06
-3.82561e-06 2.20542e-06 -0.000104892
0.00235153 -0.000198148 -3.50318e-06
-0.000198148 -0.000170979 -1.25958e-06
-3.50318e-06 -1.25958e-06 -2.69197e-05
0.002321 -0.000491053 3.26274e-07
-0.000491053 -0.000175022 -2.0509e-06
3.26274e-07 -2.0509e-06 -3.81403e-05
0.00234551 -0.000710509 -3.40647e-06
-0.000710509 -2.59055e-06 2.15879e-06
-3.40647e-06 2.15879e-06 -3.9004e-05
0.00377654 -0.000895988 2.30515e-05
-0.000895988 0.00173625 1.49322e-05
2.30515e-05 1.49322e-05 0.00125115
0.000262635 -0.000819957 -1.85498e-06
-0.000819957 -0.000601243 3.47218e-06
-1.85498e-06 3.47218e-06 -0.00110008
0.0023714 -0.000943628 -1.20379e-06
-0.000943628 0.000277679 -2.02834e-07
-1.20379e-06 -2.02834e-07 9.93058e-06
0.000804738 -0.00072576 2.76393e-05
-0.00072576 2.11077e-06 -2.44897e-05
2.76393e-05 -2.44897e-05 -0.00049548
0.0035768 -0.000351993 1.24211e-05
-0.000351993 0.00174512 -8.392e-06
1.24211e-05 -8.392e-06 0.00133667
-0.000203873 -2.43814e-05 -7.74355e-06
-2.43814e-05 -0.000493032 4.24035e-06
-7.74355e-06 4.24035e-06 -0.000713117
0.000660023 -6.51782e-05 3.95699e-06
-6.51782e-05 0.000171894 -1.10813e-06
3.95699e-06 -1.10813e-06 6.95906e-05
0.000585975 -0.000139374 -5.15813e-06
-0.000139374 0.000193766 -1.32457e-05
-5.15813e-06 -1.32457e-05 -8.28142e-05
0.000451777 -2.3822e-05 6.00729e-06
-2.3822e-05 4.96484e-05 -2.02631e-06
6.00729e-06 -2.02631e-06 -0.000110464
0.000566756 5.09764e-07 5.23952e-07
5.09764e-07 0.000131977 1.50285e-06
5.23952e-07 1.50285e-06 1.26413e-05
0.000732445 -8.59318e-05 -8.35912e-06
-8.59318e-05 0.000165415 -1.3527e-06
-8.35912e-06 -1.3527e-06 6.90647e-05
0.00265774 -0.000318932 2.11983e-06
-0.000318932 4.15727e-05 1.4882e-06
2.11983e-06 1.4882e-06 0.000195262
0.000465641 -2.8361e-05 -8.22466e-07
-2.8361e-05 6.74583e-05 2.28347e-06
-8.22466e-07 2.28347e-06 -6.47414e-05
0.000810059 -5.32384e-05 7.28174e-06
-5.32384e-05 0.000199039 -5.45122e-07
7.28174e-06 -5.45122e-07 7.95371e-05
-0.0009396 -4.73949e-05 5.62311e-06
-4.73949e-05 -0.00080198 -7.82446e-07
5.62311e-06 -7.82446e-07 -0.000864358
0.00208585 -0.000551555 8.02767e-07
-0.000551555 -0.000340236 -1.28717e-06
8.02767e-07 -1.28717e-06 -0.000107894
0.00231929 -0.000861057 2.21048e-06
-0.000861057 0.000100011 -1.36753e-06
2.21048e-06 -1.36753e-06 -8.08859e-05
0.00199562 -0.000911508 -5.55601e-06
-0.000911508 0.000640947 9.23733e-07
-5.55601e-06 9.23733e-07 0.000141523
0.00271031 -0.00108599 -6.21692e-06
-0.00108599 0.000613862 1.57118e-06
-6.21692e-06 1.57118e-06 0.000263562
0.00150256 -0.000170224 4.91935e-06
-0.000170224 0.000715984 -3.12198e-06
4.91935e-06 -3.12198e-06 0.000491464
4.8413e-06 -4.1501e-05 7.75082e-06
-4.1501e-05 -0.0002313 9.60215e-06
7.75082e-06 9.60215e-06 -0.000480654
0.00182566 -0.00109849 6.23631e-07
-0.00109849 0.000982253 -2.81269e-06
6.23631e-07 -2.81269e-06 0.000214938
0.00122764 -0.000428345 -8.83949e-06
-0.000428345 0.000563798 -5.55729e-09
-8.83949e-06 -5.55729e-09 4.84005e-05
0.00348916 -0.000469684 -4.67486e-05
-0.000469684 0.000455228 7.94328e-06
-4.67486e-05 7.94328e-06 0.000727651
0.00273217 -0.000719343 -4.15784e-05
-0.000719343 0.000250964 1.26156e-05
-4.15784e-05 1.26156e-05 0.000313505
0.0026762 -0.00100532 3.75068e-06
-0.00100532 0.000499897 -1.25694e-05
3.75068e-06 -1.25694e-05 0.00015648
0.00313788 -0.00109954 9.21116e-06
-0.00109954 0.00107674 7.56899e-06
9.21116e-06 7.56899e-06 0.000705812
6.21718e-06 -7.56793e-05 -2.46128e-06
-7.56793e-05 -0.000134548 -7.19473e-06
-2.46128e-06 -7.19473e-06 -0.000270091
0.000421921 -0.000143278 -1.4197e-05
-0.000143278 5.31523e-05 -5.64397e-07
-1.4197e-05 -5.64397e-07 -0.000151986
8.44614e-05 -0.000192405 -6.88258e-06
-0.000192405 0.000123873 5.34523e-05
-6.88258e-06 5.34523e-05 -0.000217079
-0.000110154 -0.000965397 -2.91844e-06
-0.000965397 0.000559907 -2.73346e-05
-2.91844e-06 -2.73346e-05 -0.000574152
0.00297054 -0.000455291 6.23009e-05
-0.000455291 -0.00550922 -2.45436e-05
6.23009e-05 -2.45436e-05 -0.00555998
0.00246031 0.00032202 2.06755e-06
0.00032202 0.00132921 -3.50038e-06
2.06755e-06 -3.50038e-06 0.00108493
0.00137035 0.000388173 -2.00189e-06
0.000388173 0.000526591 1.50615e-07
-2.00189e-06 1.50615e-07 0.00023466
0.00190771 0.000360445 5.44581e-05
0.000360445 -0.000339198 1.60434e-05
5.44581e-05 1.60434e-05 -0.000114816
0.00253623 0.000819972 2.44621e-05
0.000819972 0.000319629 1.07719e-05
2.44621e-05 1.07719e-05 0.000123346
0.00228919 0.000866039 9.34679e-06
0.000866039 0.000608761 1.19993e-05
9.34679e-06 1.19993e-05 0.00014001
0.00133149 0.000613004 8.14764e-06
0.000613004 0.000295281 8.28937e-06
8.14764e-06 8.28937e-06 -0.000152691
0.00551206 0.00156023 0.000112787
0.00156023 0.000192802 3.29305e-05
0.000112787 3.29305e-05 0.00023198
0.0012487 0.000324313 5.13805e-06
0.000324313 0.000670275 5.4047e-07
5.13805e-06 5.4047e-07 0.000409141
0.00264404 0.000775338 -2.53538e-05
0.000775338 0.000182868 9.01117e-07
-2.53538e-05 9.01117e-07 0.000186215
0.000913539 0.000460677 -5.63132e-06
0.000460677 0.000117535 4.17208e-06
-5.63132e-06 4.17208e-06 -0.000232337
0.00149323 0.000702232 5.56962e-07
0.000702232 0.000336006 -6.97842e-06
5.56962e-07 -6.97842e-06 -0.000119316
0.00235609 0.000962285 -1.13482e-05
0.000962285 0.000404255 -2.99077e-07
-1.13482e-05 -2.99077e-07 8.52721e-05
0.00491592 -0.000644574 -0.000170946
-0.000644574 -0.00503694 -9.64665e-05
-0.000170946 -9.64665e-05 -0.00579751
0.00691014 0.00194382 -0.000152453
0.00194382 -0.000562279 -6.24135e-05
-0.000152453 -6.24135e-05 0.000696076
0.00135448 0.00140019 -2.07512e-07
0.00140019 -0.000383144 4.65005e-06
-2.07512e-07 4.65005e-06 -0.000743443
0.00163142 -0.00223302 0.000591327
-0.00223302 0.00312158 0.000222907
0.000591327 0.000222907 1.16612e-05
0.0155572 -0.00955434 -0.000514398
-0.00955434 0.00779466 -0.000464053
-0.000514398 -0.000464053 0.00427288
0.000573073 0.000256892 -1.39978e-05
0.000256892 0.000127176 -2.57593e-06
-1.39978e-05 -2.57593e-06 -0.000100193
0.00162437 0.000538548 0.00084129
0.000538548 0.00439853 7.32604e-05
0.00084129 7.32604e-05 0.0023532
0.00436443 -0.00355951 -0.000175437
-0.00355951 0.00625761 -0.000227826
-0.000175437 -0.000227826 0.000576282
0.00336472 0.0012606 -6.24964e-05
0.0012606 0.000711176 -1.73234e-05
-6.24964e-05 -1.73234e-05 0.000495129
0.000617189 0.000365199 -2.85307e-05
0.000365199 -6.67815e-05 -6.23661e-06
-2.85307e-05 -6.23661e-06 -0.000373162
0.000925349 0.000717926 -3.59641e-05
0.000717926 7.37135e-05 -3.01648e-05
-3.59641e-05 -3.01648e-05 -0.000312573
-0.000541072 0.00121686 5.85294e-05
0.00121686 -0.00107646 9.91269e-05
5.85294e-05 9.91269e-05 -0.00144334
0.0126074 0.00266119 6.83048e-05
0.00266119 0.00121096 -1.38259e-05
6.83048e-05 -1.38259e-05 0.000562676
0.00515679 0.00287064 -5.8555e-05
0.00287064 -0.000324674 -5.27605e-05
-5.8555e-05 -5.27605e-05 0.000538562
0.0169994 -0.00687873 0.00106349
-0.00687873 0.00567803 0.000528429
0.00106349 0.000528429 0.00135852
0.0138827 -0.00311604 -0.000121174
-0.00311604 0.00432123 0.00065271
-0.000121174 0.00065271 0.00231849
0.000340265 8.2202e-05 3.16988e-06
8.2202e-05 8.56947e-05 -5.78962e-06
3.16988e-06 -5.78962e-06 -7.88235e-06
0.00022709 0.000140093 7.97832e-06
0.000140093 1.36342e-05 1.52328e-06
7.97832e-06 1.52328e-06 -0.00010294
0.00189647 0.00031186 3.00325e-06
0.00031186 0.00104984 -2.71311e-06
3.00325e-06 -2.71311e-06 0.000855752
0.000585162 5.2309e-06 1.46982e-06
5.2309e-06 0.000139461 -3.90196e-08
1.46982e-06 -3.90196e-08 -1.06758e-05
0.00059197 7.09749e-05 -2.65127e-07
7.09749e-05 0.000126233 -2.58846e-06
-2.65127e-07 -2.58846e-06 -3.8011e-05
-7.83472e-05 3.69395e-05 -1.50947e-06
3.69395e-05 -0.00027613 8.57329e-07
-1.50947e-06 8.57329e-07 -0.000440368
0.00084099 0.00012979 -7.72738e-06
0.00012979 0.000287665 2.20173e-06
-7.72738e-06 2.20173e-06 0.000137426
-0.000331832 7.03942e-05 -3.36149e-06
7.03942e-05 -0.000474969 4.32572e-09
-3.36149e-06 4.32572e-09 -0.000523707
0.000333109 -1.21077e-05 -4.84218e-08
-1.21077e-05 -3.98521e-05 7.44234e-07
-4.84218e-08 7.44234e-07 -0.000179749
0.0013569 0.000158159 2.19412e-06
0.000158159 0.000604876 3.62002e-07
2.19412e-06 3.62002e-07 0.000423638
0.000543427 6.1733e-05 -1.72107e-07
6.1733e-05 0.000130107 -5.96108e-08
-1.72107e-07 -5.96108e-08 -5.51097e-05
0.000792142 4.14217e-05 1.39357e-06
4.14217e-05 0.000274269 -3.79197e-07
1.39357e-06 -3.79197e-07 8.6738e-05
0.000221607 0.000102343 -6.61085e-07
0.000102343 -2.62606e-05 -3.19729e-06
-6.61085e-07 -3.19729e-06 -0.000192147
0.00150605 0.00014622 -2.34879e-06
0.00014622 0.000728907 -3.1059e-06
-2.34879e-06 -3.1059e-06 0.000553865
-0.0003744 6.32454e-05 -6.86742e-06
6.32454e-05 -0.000240298 -4.978e-06
-6.86742e-06 -4.978e-06 -0.000489931
0.00035527 -7.16424e-05 1.42729e-08
-7.16424e-05 5.97433e-07 6.31132e-07
1.42729e-08 6.31132e-07 -0.000180475
0.000758651 -8.50269e-05 -1.92969e-06
-8.50269e-05 0.000260328 -9.29456e-07
-1.92969e-06 -9.29456e-07 7.48349e-05
0.000818615 -5.75335e-05 -3.48018e-07
-5.75335e-05 0.000296842 -7.46014e-07
-3.48018e-07 -7.46014e-07 0.000113877
0.00065946 -3.65913e-05 -3.92527e-06
-3.65913e-05 0.000157939 5.49724e-07
-3.92527e-06 5.49724e-07 1.53787e-05
0.00109502 1.21082e-05 -7.19776e-06
1.21082e-05 0.000509211 -5.65996e-06
-7.19776e-06 -5.65996e-06 0.000301312
0.000819961 -7.62909e-05 2.72775e-06
-7.62909e-05 0.000264998 -1.10421e-05
2.72775e-06 -1.10421e-05 0.000129182
-0.00136882 2.84428e-06 -4.11911e-06
2.84428e-06 -0.00107528 -8.3136e-06
-4.11911e-06 -8.3136e-06 -0.00119574
0.000189844 -4.17687e-05 2.08422e-06
-4.17687e-05 -6.63486e-05 -2.01999e-06
2.08422e-06 -2.01999e-06 -0.0002572
0.00028054 -7.78799e-05 1.28979e-06
-7.78799e-05 -5.90855e-05 4.52518e-07
1.28979e-06 4.52518e-07 -0.000199743
0.000786829 -0.000120865 -1.06393e-06
-0.000120865 0.000282257 3.07454e-07
-1.06393e-06 3.07454e-07 0.000122268
0.000514458 -8.78317e-05 -1.20595e-06
-8.78317e-05 5.74359e-05 2.80437e-06
-1.20595e-06 2.80437e-06 -6.4906e-05
0.000446062 -9.35875e-05 3.30912e-06
-9.35875e-05 2.64426e-05 2.93157e-07
3.30912e-06 2.93157e-07 -0.000119224
0.000542787 -0.000118327 -1.1387e-08
-0.000118327 9.02777e-05 1.59466e-07
-1.1387e-08 1.59466e-07 -4.74728e-05
0.00053216 -5.9325e-05 -2.2085e-06
-5.9325e-05 5.2835e-05 5.149e-06
-2.2085e-06 5.149e-06 -2.9841e-05
0.000390032 -9.67922e-06 8.36195e-07
-9.67922e-06 8.27876e-06 -1.19496e-06
8.36195e-07 -1.19496e-06 -0.000140901
0.00048406 3.87184e-07 2.36833e-06
3.87184e-07 3.34401e-05 1.51602e-07
2.36833e-06 1.51602e-07 -5.31206e-05
0.00144948 -3.48651e-05 -1.03138e-05
-3.48651e-05 0.000609821 7.00945e-06
-1.03138e-05 7.00945e-06 0.000587661
0.00046649 6.96325e-05 -2.04327e-06
6.96325e-05 2.18548e-05 -3.29342e-06
-2.04327e-06 -3.29342e-06 -6.33964e-05
0.000861827 -1.87748e-05 -4.19991e-06
-1.87748e-05 0.000246617 7.30861e-07
-4.19991e-06 7.30861e-07 0.000222373
0.000789051 3.46734e-06 -2.76222e-06
3.46734e-06 0.000184476 4.79733e-06
-2.76222e-06 4.79733e-06 0.000188754
0.000374856 -2.25121e-05 3.85406e-06
-2.25121e-05 -6.15824e-05 -5.07353e-06
3.85406e-06 -5.07353e-06 -8.65643e-05
0.00258575 4.27063e-06 7.56064e-06
4.27063e-06 0.00131569 -8.3217e-09
7.56064e-06 -8.3217e-09 0.00132774
0.000875402 3.70985e-06 -1.01645e-05
3.70985e-06 0.000236094 -5.47661e-06
-1.01645e-05 -5.47661e-06 0.000239418
0.000503471 6.85669e-05 2.45146e-06
6.85669e-05 6.589e-05 8.81478e-07
2.45146e-06 8.81478e-07 -3.75675e-05
0.000449607 5.50491e-05 -2.38964e-06
5.50491e-05 -4.98323e-06 -2.28704e-06
-2.38964e-06 -2.28704e-06 -5.40425e-05
0.000469618 -2.14154e-06 1.58868e-06
-2.14154e-06 8.41338e-06 1.65771e-07
1.58868e-06 1.65771e-07 -4.25849e-05
0.000471521 9.53584e-06 1.0972e-06
9.53584e-06 -2.89912e-05 -3.05694e-06
1.0972e-06 -3.05694e-06 -3.94258e-05
0.000552615 -6.56516e-05 -1.98158e-06
-6.56516e-05 6.5874e-05 1.95338e-06
-1.98158e-06 1.95338e-06 6.37064e-06
0.000467768 1.30198e-05 1.25357e-07
1.30198e-05 -3.24867e-05 -7.18662e-07
1.25357e-07 -7.18662e-07 -4.4233e-05
0.00202571 3.80732e-05 3.50037e-06
3.80732e-05 0.000960284 -4.69772e-06
3.50037e-06 -4.69772e-06 0.000975407
0.00110614 3.65893e-05 -1.98834e-08
3.65893e-05 0.00037659 1.59153e-06
-1.98834e-08 1.59153e-06 0.00036445
0.00148297 4.72132e-05 -4.33892e-07
4.72132e-05 0.00062251 1.41756e-06
-4.33892e-07 1.41756e-06 0.000630154
0.000897506 5.13636e-05 -5.03559e-06
5.13636e-05 0.000258624 8.41995e-06
-5.03559e-06 8.41995e-06 0.000257967
0.000965202 0.000484659 7.54922e-05
0.000484659 -0.00239072 1.52438e-05
7.54922e-05 1.52438e-05 -0.0015081
0.00240177 -5.13267e-05 -3.68301e-06
-5.13267e-05 -7.13479e-05 6.23941e-06
-3.68301e-06 6.23941e-06 4.09954e-05
0.0022166 7.10187e-05 3.17172e-05
7.10187e-05 6.57532e-05 -1.25259e-05
3.17172e-05 -1.25259e-05 0.000197505
0.00286438 0.000435556 -5.91304e-05
0.000435556 -0.00200213 -3.84114e-05
-5.91304e-05 -3.84114e-05 -0.000478852
0.00272471 0.000119343 5.093e-05
0.000119343 -0.000643898 -1.64166e-06
5.093e-05 -1.64166e-06 -0.000160202
0.00268472 -5.2402e-05 2.17163e-06
-5.2402e-05 0.000354459 -1.01114e-05
2.17163e-06 -1.01114e-05 0.000433743
0.00493794 -0.000399214 -6.1308e-05
-0.000399214 0.00108239 -2.15009e-05
-6.1308e-05 -2.15009e-05 0.00129936
0.00334097 -0.000320993 2.95356e-05
-0.000320993 -0.000584795 -2.36745e-06
2.95356e-05 -2.36745e-06 0.000228264
0.0171915 -0.000914043 6.38768e-05
-0.000914043 0.00290104 -3.13638e-05
6.38768e-05 -3.13638e-05 0.001973
0.0154309 0.00613477 0.00157878
0.00613477 0.0060314 -0.000465877
0.00157878 -0.000465877 0.00261956
0.0208463 0.00708838 6.38665e-05
0.00708838 0.0134152 1.81878e-05
6.38665e-05 1.81878e-05 0.00985797
0.000145776 -9.99834e-05 1.9243e-07
-9.99834e-05 -0.00013976 -4.31036e-07
1.9243e-07 -4.31036e-07 -0.000252991
0.000535929 -5.70243e-06 1.65308e-06
-5.70243e-06 8.38857e-05 -6.57153e-08
1.65308e-06 -6.57153e-08 -1.32268e-05
0.000614764 -8.92578e-05 -5.95159e-07
-8.92578e-05 0.000152676 3.16777e-06
-5.95159e-07 3.16777e-06 3.93754e-05
0.000535715 -3.39612e-05 1.01473e-06
-3.39612e-05 9.54576e-05 3.38407e-07
1.01473e-06 3.38407e-07 -2.14933e-05
0.00091575 0.000114616 -4.97745e-06
0.000114616 0.000386893 1.11494e-06
-4.97745e-06 1.11494e-06 0.000249197
0.000505911 0.000135712 5.39555e-07
0.000135712 5.56971e-05 7.53731e-06
5.39555e-07 7.53731e-06 -6.89391e-05
0.000965701 2.52393e-07 2.34926e-06
2.52393e-07 0.000383386 4.18055e-06
2.34926e-06 4.18055e-06 0.000240919
0.000522564 -2.68008e-05 -1.5281e-06
-2.68008e-05 8.47766e-05 1.30635e-06
-1.5281e-06 1.30635e-06 -3.29918e-05
0.00262205 -0.000303696 1.22606e-05
-0.000303696 1.31621e-05 -2.92311e-06
1.22606e-05 -2.92311e-06 0.000198415
0.00213609 -0.000577378 1.44756e-05
-0.000577378 -0.000344168 -6.39826e-06
1.44756e-05 -6.39826e-06 -0.000131334
0.00237902 -0.000868624 -2.41153e-07
-0.000868624 0.000125776 5.44044e-06
-2.41153e-07 5.44044e-06 -4.91061e-05
0.00240616 -0.000931909 1.72693e-05
-0.000931909 0.00082972 9.11973e-06
1.72693e-05 9.11973e-06 0.000355909
0.00208264 -0.00103949 -2.09149e-05
-0.00103949 0.000267854 5.97329e-06
-2.09149e-05 5.97329e-06 -8.67756e-05
0.001819 -0.0011537 3.8875e-05
-0.0011537 0.0010813 -1.46314e-05
3.8875e-05 -1.46314e-05 0.000216417
0.00472385 -0.000786206 6.1113e-06
-0.000786206 0.00238149 3.34949e-06
6.1113e-06 3.34949e-06 0.00196203
0.00120936 -0.000268786 1.04202e-05
-0.000268786 0.00058845 -5.05539e-05
1.04202e-05 -5.05539e-05 0.00024947
0.000635973 -0.00010688 2.87775e-06
-0.00010688 7.13314e-05 -8.15032e-07
2.87775e-06 -8.15032e-07 -3.33072e-05
0.000927028 -8.18333e-05 1.12933e-05
-8.18333e-05 0.000321625 -2.16451e-05
1.12933e-05 -2.16451e-05 0.000113641
0.0010206 -5.203e-05 3.82862e-06
-5.203e-05 0.000405651 1.22532e-06
3.82862e-06 1.22532e-06 0.000262713
0.0008441 1.70179e-05 8.80723e-06
1.70179e-05 0.000328178 -7.55714e-06
8.80723e-06 -7.55714e-06 0.000297839
0.00245826 -0.000416356 -6.20559e-07
-0.000416356 -9.69562e-05 2.98179e-06
-6.20559e-07 2.98179e-06 0.00020845
0.000473231 -8.47459e-05 -3.98129e-06
-8.47459e-05 0.000139846 -6.8418e-07
-3.98129e-06 -6.8418e-07 -5.87619e-07
0.00122441 -0.000187375 -8.45221e-06
-0.000187375 0.000522711 4.3167e-06
-8.45221e-06 4.3167e-06 0.000349301
0.00172767 -0.000656051 8.41073e-06
-0.000656051 -0.000337345 -3.83987e-06
8.41073e-06 -3.83987e-06 -0.000216349
0.00186933 -0.000880762 1.35936e-06
-0.000880762 5.367e-05 8.15815e-07
1.35936e-06 8.15815e-07 -0.000208618
0.000960051 -0.000833873 -2.56933e-06
-0.000833873 -0.000172506 -6.12203e-06
-2.56933e-06 -6.12203e-06 -0.00047321
0.00177036 -0.000375659 9.8255e-07
-0.000375659 0.00103426 -2.61354e-05
9.8255e-07 -2.61354e-05 0.000629093
0.00149542 -0.000676592 7.64632e-06
-0.000676592 0.00123482 3.66455e-06
7.64632e-06 3.66455e-06 0.000357816
0.0054315 -0.000890863 -5.63213e-05
-0.000890863 0.00136177 2.60691e-05
-5.63213e-05 2.60691e-05 0.00157315
0.00414551 -0.00101947 -4.77149e-05
-0.00101947 0.0013205 1.11763e-05
-4.77149e-05 1.11763e-05 0.00111002
0.00218461 -0.00102376 1.2835e-05
-0.00102376 0.000338882 -4.73753e-06
1.2835e-05 -4.73753e-06 6.5589e-05
-0.00102456 -0.000451721 -1.90302e-06
-0.000451721 -0.000995502 1.3612e-05
-1.90302e-06 1.3612e-05 -0.00111476
0.000377969 -0.000150653 8.86074e-07
-0.000150653 0.000117198 8.46013e-06
8.86074e-07 8.46013e-06 -0.000123046
0.000349513 -0.000169545 4.16035e-06
-0.000169545 0.000169766 7.79908e-07
4.16035e-06 7.79908e-07 -0.000113934
0.00212111 -0.000255524 -9.36511e-06
-0.000255524 0.00154962 -2.46813e-05
-9.36511e-06 -2.46813e-05 0.000850702
-0.00697951 -0.000424672 0.000616378
-0.000424672 -0.00412211 -3.73284e-05
0.000616378 -3.73284e-05 -0.00409491
0.0118751 -0.000377687 7.28091e-05
-0.000377687 0.000912418 2.68081e-05
7.28091e-05 2.68081e-05 0.00116094
0.00279025 0.000399446 1.12426e-05
0.000399446 0.00153692 -1.09628e-05
1.12426e-05 -1.09628e-05 0.00130819
0.00163296 0.000549284 -3.17338e-06
0.000549284 0.000594938 6.64344e-06
-3.17338e-06 6.64344e-06 0.000215324
0.00293307 0.000738583 0.000104147
0.000738583 0.000357421 4.48946e-05
0.000104147 4.48946e-05 0.00038301
0.0030705 0.0010294 2.66112e-05
0.0010294 0.000790258 1.15562e-05
2.66112e-05 1.15562e-05 0.000450977
0.00297204 0.000899328 1.96499e-05
0.000899328 0.00118112 6.68026e-06
1.96499e-05 6.68026e-06 0.000687803
0.0163172 0.000760676 9.18375e-05
0.000760676 0.00285612 -4.19506e-05
9.18375e-05 -4.19506e-05 0.00222856
0.00854895 0.00248061 -0.000231484
0.00248061 -0.000821633 -3.34759e-05
-0.000231484 -3.34759e-05 0.000770199
0.00166727 0.00134394 9.73146e-06
0.00134394 -3.97443e-05 -3.15626e-05
9.73146e-06 -3.15626e-05 -0.000517807
0.0139654 -0.00471664 -0.000535092
-0.00471664 0.00599557 5.86995e-06
-0.000535092 5.86995e-06 0.00286036
0.00591352 -0.0100731 -0.00258337
-0.0100731 0.00596741 -0.00157706
-0.00258337 -0.00157706 0.00197262
0.00109261 0.000347312 2.53817e-06
0.000347312 0.000510727 -1.93676e-06
2.53817e-06 -1.93676e-06 0.000244748
-0.001388 -0.00278267 0.000536177
-0.00278267 -0.0025591 8.49625e-05
0.000536177 8.49625e-05 -0.00476497
-0.00199599 -0.00274073 -0.0005702
-0.00274073 0.00622255 -0.000206171
-0.0005702 -0.000206171 0.0004366
0.00351958 0.00117851 -1.64167e-05
0.00117851 0.000751024 2.19924e-06
-1.64167e-05 2.19924e-06 0.000594225
0.000818773 0.000454405 -9.2762e-06
0.000454405 0.000111333 8.39084e-06
-9.2762e-06 8.39084e-06 -0.000246898
0.00142748 0.000838677 5.9272e-06
0.000838677 0.000341688 1.86285e-06
5.9272e-06 1.86285e-06 -9.12854e-05
0.00111679 0.00123943 5.50777e-05
0.00123943 7.43988e-05 3.9743e-05
5.50777e-05 3.9743e-05 -0.000235476
0.0142973 0.00288193 -0.000156853
0.00288193 0.000939934 -9.54563e-05
-0.000156853 -9.54563e-05 -0.000684691
0.00423736 0.00308619 -3.16867e-05
0.00308619 -0.000671269 -4.05739e-05
-3.16867e-05 -4.05739e-05 0.000410139
0.0181838 -0.00543758 0.000607368
-0.00543758 0.00752756 -1.58041e-05
0.000607368 -1.58041e-05 0.00305515
0.017299 -0.00455826 0.000119407
-0.00455826 0.00367964 0.000757292
0.000119407 0.000757292 0.00113777
0.00206116 0.000413466 -2.05222e-05
0.000413466 0.00105037 -1.56604e-05
-2.05222e-05 -1.56604e-05 0.000817132
-0.0103429 0.00130556 -0.000141914
0.00130556 0.00402248 -0.000146475
-0.000141914 -0.000146475 -0.00294442
0.00531979 0.000999779 -0.000406007
0.000999779 0.00430112 -0.000519624
-0.000406007 -0.000519624 -0.000593491
0.00264662 0.000877497 -3.24248e-05
0.000877497 0.000661702 -6.9733e-06
-3.24248e-05 -6.9733e-06 0.000602435
0.00257385 0.000872056 -7.69931e-05
0.000872056 0.00110637 -2.93061e-05
-7.69931e-05 -2.93061e-05 0.000700025
0.000928082 0.000885883 -9.96853e-05
0.000885883 0.000784426 -2.65749e-05
-9.96853e-05 -2.65749e-05 6.4351e-05
-0.00267758 0.00189604 -1.13981e-05
0.00189604 -0.00118918 -3.56054e-05
-1.13981e-05 -3.56054e-05 -0.00139188
0.00132363 0.00356797 0.000414112
0.00356797 -0.00201488 0.000145944
0.000414112 0.000145944 -0.00412223
0.0190011 -0.00686923 0.000161225
-0.00686923 0.0101532 0.000747332
0.000161225 0.000747332 0.00506962
0.0090395 -0.000708349 -0.000189634
-0.000708349 -0.00200515 -0.000159588
-0.000189634 -0.000159588 -0.00107312
-0.00067208 0.00013494 1.81397e-06
0.00013494 -0.00048968 -5.6968e-06
1.81397e-06 -5.6968e-06 -0.000635048
0.0017386 0.00031967 1.07492e-05
0.00031967 0.000937824 2.51834e-06
1.07492e-05 2.51834e-06 0.00074373
-0.000593474 8.02881e-05 -2.44397e-06
8.02881e-05 -0.000399718 -1.90008e-06
-2.44397e-06 -1.90008e-06 -0.000570632
0.000340677 5.25685e-05 1.99973e-06
5.25685e-05 -3.64548e-05 9.54777e-07
1.99973e-06 9.54777e-07 -0.000176137
0.00103911 9.21969e-05 -3.09859e-07
9.21969e-05 0.000438358 -1.73734e-06
-3.09859e-07 -1.73734e-06 0.00024468
0.000557958 2.21382e-05 -1.99476e-06
2.21382e-05 0.000145047 1.55447e-06
-1.99476e-06 1.55447e-06 -4.96185e-05
0.000450968 0.000102291 5.63054e-06
0.000102291 5.37481e-05 6.13327e-06
5.63054e-06 6.13327e-06 -0.000130845
-0.000597107 4.63665e-05 -4.04869e-06
4.63665e-05 -0.000511253 9.46015e-07
-4.04869e-06 9.46015e-07 -0.000669783
0.000778611 4.27953e-05 2.96379e-07
4.27953e-05 0.000275606 -8.17162e-07
2.96379e-07 -8.17162e-07 8.83915e-05
0.000719218 9.31429e-05 7.14745e-07
9.31429e-05 0.000231569 -1.31721e-07
7.14745e-07 -1.31721e-07 6.45608e-05
0.000840809 -4.10554e-05 -1.2315e-06
-4.10554e-05 0.00031502 2.15865e-06
-1.2315e-06 2.15865e-06 0.000121347
-0.000984522 3.03896e-05 2.33605e-06
3.03896e-05 -0.000599864 5.36434e-07
2.33605e-06 5.36434e-07 -0.00084124
0.000265197 5.88877e-05 -3.34344e-06
5.88877e-05 0.00034894 6.09007e-06
-3.34344e-06 6.09007e-06 -2.32088e-05
0.000633962 -2.77791e-05 -1.37106e-06
-2.77791e-05 0.000274183 -7.91977e-06
-1.37106e-06 -7.91977e-06 6.68547e-05
0.00135496 -1.16041e-05 -1.48428e-06
-1.16041e-05 0.000679141 1.48833e-06
-1.48428e-06 1.48833e-06 0.00045312
0.000800538 -8.08588e-05 -4.85118e-07
-8.08588e-05 0.000287177 -1.6015e-06
-4.85118e-07 -1.6015e-06 0.000100127
0.000242307 -9.63252e-05 4.04395e-06
-9.63252e-05 -0.000110718 9.51454e-06
4.04395e-06 9.51454e-06 -0.000243818
0.000682453 -8.51797e-05 4.86474e-07
-8.51797e-05 0.000228029 -1.07568e-06
4.86474e-07 -1.07568e-06 3.55116e-05
0.000760137 -8.834e-05 -1.92314e-06
-8.834e-05 0.000215535 -2.32235e-07
-1.92314e-06 -2.32235e-07 8.10021e-05
-0.000293914 -6.5939e-05 1.94626e-06
-6.5939e-05 -0.000399484 4.83929e-06
1.94626e-06 4.83929e-06 -0.000514139
-2.9587e-05 -5.77719e-05 -3.33848e-07
-5.77719e-05 -0.000212318 -3.33785e-06
-3.33848e-07 -3.33785e-06 -0.000372567
-2.35491e-05 -2.72746e-05 -7.97549e-06
-2.72746e-05 -0.00014977 -4.45585e-06
-7.97549e-06 -4.45585e-06 -0.000329712
-6.60243e-05 -8.75549e-05 2.96846e-06
-8.75549e-05 -0.000226866 -6.544e-06
2.96846e-06 -6.544e-06 -0.000357456
0.00102471 -0.00011924 1.12732e-05
-0.00011924 0.000316151 -1.69431e-05
1.12732e-05 -1.69431e-05 0.000213639
0.00111332 -0.000256905 -1.07529e-06
-0.000256905 0.000315719 4.02757e-06
-1.07529e-06 4.02757e-06 0.000134124
-7.78196e-05 -5.63681e-05 -7.38156e-06
-5.63681e-05 -0.000241075 -2.95506e-06
-7.38156e-06 -2.95506e-06 -0.000425815
0.000633268 -5.58658e-05 1.78129e-06
-5.58658e-05 0.000195633 -9.58157e-07
1.78129e-06 -9.58157e-07 9.30329e-06
-0.000177487 -3.31699e-05 2.13687e-06
-3.31699e-05 -0.000321057 -4.76522e-07
2.13687e-06 -4.76522e-07 -0.000501283
0.000665508 -0.000122071 -4.95918e-07
-0.000122071 0.000207135 -3.54387e-07
-4.95918e-07 -3.54387e-07 4.41078e-05
0.000455224 -2.90868e-05 7.79717e-07
-2.90868e-05 2.36571e-05 1.30354e-06
7.79717e-07 1.30354e-06 -0.000102726
0.000758879 -0.000120317 -7.37495e-07
-0.000120317 0.000251948 5.36443e-07
-7.37495e-07 5.36443e-07 9.96826e-05
0.000629013 -8.62294e-05 -6.55406e-07
-8.62294e-05 0.000144959 1.82288e-07
-6.55406e-07 1.82288e-07 1.21389e-05
0.00039491 3.2167e-05 1.18107e-07
3.2167e-05 -3.40906e-05 4.51707e-06
1.18107e-07 4.51707e-06 -0.000118669
0.00054627 -0.00011352 9.37596e-07
-0.00011352 8.68732e-05 -2.57179e-06
9.37596e-07 -2.57179e-06 -4.86851e-05
0.000510764 -4.21507e-05 -5.21022e-07
-4.21507e-05 3.58277e-05 1.05285e-07
-5.21022e-07 1.05285e-07 -4.39144e-05
0.00141601 1.50234e-05 -7.68105e-06
1.50234e-05 0.000579992 7.48184e-06
-7.68105e-06 7.48184e-06 0.000558628
0.000481814 -6.45159e-05 1.35682e-06
-6.45159e-05 2.66284e-05 -3.82163e-06
1.35682e-06 -3.82163e-06 -5.63349e-05
0.000861615 -1.94318e-05 -7.67627e-06
-1.94318e-05 0.000239034 8.47517e-07
-7.67627e-06 8.47517e-07 0.000215165
0.000757361 1.19945e-05 1.23951e-06
1.19945e-05 0.00015522 2.30252e-06
1.23951e-06 2.30252e-06 0.000158572
0.000420815 -2.07025e-05 2.85045e-06
-2.07025e-05 -3.59183e-05 -4.73443e-06
2.85045e-06 -4.73443e-06 -6.01517e-05
0.00255911 1.20625e-05 7.1388e-06
1.20625e-05 0.00129815 2.10354e-08
7.1388e-06 2.10354e-08 0.00131063
0.00258523 1.35794e-06 1.90204e-06
1.35794e-06 0.00131534 -5.06785e-06
1.90204e-06 -5.06785e-06 0.0013274
0.00103747 8.25895e-05 -7.99649e-07
8.25895e-05 0.000402182 9.65519e-07
-7.99649e-07 9.65519e-07 0.000293558
0.000505794 6.41002e-05 -1.75103e-06
6.41002e-05 3.39727e-05 -2.51957e-06
-1.75103e-06 -2.51957e-06 -2.04849e-05
0.000534824 -1.34838e-05 -2.95351e-07
-1.34838e-05 9.05023e-05 7.82125e-07
-2.95351e-07 7.82125e-07 -1.36288e-05
0.000471194 7.84131e-06 1.14293e-06
7.84131e-06 -2.9526e-05 -3.35622e-06
1.14293e-06 -3.35622e-06 -3.92534e-05
0.000447876 -1.14305e-05 1.13458e-06
-1.14305e-05 -7.67367e-06 -1.98433e-07
1.13458e-06 -1.98433e-07 -5.55932e-05
0.000522249 -6.03618e-05 -1.81179e-06
-6.03618e-05 4.53835e-05 2.08601e-06
-1.81179e-06 2.08601e-06 -8.18912e-06
0.000474647 7.30753e-06 -4.90332e-07
7.30753e-06 -2.73871e-05 -5.88651e-10
-4.90332e-07 -5.88651e-10 -3.77959e-05
0.00198595 2.3703e-05 -1.85177e-06
2.3703e-05 0.000932258 -4.78361e-06
-1.85177e-06 -4.78361e-06 0.000948979
0.00113312 2.4462e-05 -6.31327e-07
2.4462e-05 0.000390262 2.00322e-06
-6.31327e-07 2.00322e-06 0.000381327
0.00130849 3.04137e-05 -1.86601e-06
3.04137e-05 0.000504893 -1.90351e-08
-1.86601e-06 -1.90351e-08 0.000516622
0.000816072 3.66505e-05 -7.74331e-06
3.66505e-05 0.00019939 7.46093e-06
-7.74331e-06 7.46093e-06 0.00020404
-0.00829931 0.00140228 0.000597532
0.00140228 -0.00282615 -6.22475e-05
0.000597532 -6.22475e-05 -0.00586681
-0.000388305 0.000455534 0.00130015
0.000455534 0.00685619 -0.000318446
0.00130015 -0.000318446 0.00279239
0.00219084 0.000400891 -0.000165562
0.000400891 -0.00253358 -3.09063e-05
-0.000165562 -3.09063e-05 -0.000723593
0.00189085 -1.87935e-06 1.31366e-05
-1.87935e-06 -0.0010691 -2.79958e-05
1.31366e-05 -2.79958e-05 -0.000538077
0.00174502 -7.83637e-05 1.00614e-05
-7.83637e-05 -0.000308403 2.22304e-05
1.00614e-05 2.22304e-05 -0.000220052
-0.00154866 1.82577e-05 -0.000105189
1.82577e-05 -0.00195215 -2.85255e-05
-0.000105189 -2.85255e-05 -0.000700188
0.00391774 -0.00045163 3.55571e-06
-0.00045163 0.000344712 5.59324e-06
3.55571e-06 5.59324e-06 0.00054711
0.0123441 -0.0001363 0.000202492
-0.0001363 -0.000980777 -8.70809e-05
0.000202492 -8.70809e-05 -0.0016233
0.00209854 0.00404721 2.39804e-07
0.00404721 0.00105245 -6.92049e-05
2.39804e-07 -6.92049e-05 -0.00262709
0.0149709 0.00820599 -0.00057306
0.00820599 0.0100539 0.000272347
-0.00057306 0.000272347 0.00650811
0.0016674 -0.000867216 1.54047e-05
-0.000867216 -0.00259565 -3.81377e-05
1.54047e-05 -3.81377e-05 -0.00127381
0.0155781 -0.00266628 0.000237476
-0.00266628 0.00161149 -7.36532e-05
0.000237476 -7.36532e-05 0.000256016
0.0186663 0.00658329 0.000391213
0.00658329 0.00607525 -0.00054281
0.000391213 -0.00054281 0.00184135
0.0212773 0.00463533 -0.000329923
0.00463533 0.00671743 0.000292033
-0.000329923 0.000292033 0.0042103
0.00101072 0.000170382 -3.27765e-06
0.000170382 0.00045263 3.3249e-06
-3.27765e-06 3.3249e-06 0.000271061
0.00033264 4.05041e-05 4.27283e-07
4.05041e-05 -3.76134e-05 -1.0502e-06
4.27283e-07 -1.0502e-06 -0.000143314
0.000543118 -9.64814e-05 1.72015e-06
-9.64814e-05 0.000100672 1.37035e-06
1.72015e-06 1.37035e-06 -2.82785e-06
0.000678189 8.76932e-06 6.83522e-06
8.76932e-06 0.00019334 -1.30488e-06
6.83522e-06 -1.30488e-06 7.00974e-05
0.000847215 8.80397e-05 2.76237e-06
8.80397e-05 0.000357148 1.27976e-06
2.76237e-06 1.27976e-06 0.000219558
0.000471488 2.38276e-05 -2.61625e-07
2.38276e-05 7.40033e-05 8.27895e-06
-2.61625e-07 8.27895e-06 -9.2328e-05
0.000742304 9.48929e-05 6.68632e-07
9.48929e-05 0.000232536 3.26889e-06
6.68632e-07 3.26889e-06 9.36504e-05
0.000449107 6.71862e-05 5.02752e-06
6.71862e-05 1.63808e-05 2.58982e-06
5.02752e-06 2.58982e-06 -0.000124916
0.000682326 -2.49802e-05 2.60602e-06
-2.49802e-05 0.000203707 -1.18201e-06
2.60602e-06 -1.18201e-06 6.32478e-05
0.000475866 -1.60459e-05 2.21687e-06
-1.60459e-05 4.65432e-05 -2.8718e-06
2.21687e-06 -2.8718e-06 -6.39459e-05
0.00135824 -0.00035026 3.65407e-05
-0.00035026 -0.000673836 -8.57679e-06
3.65407e-05 -8.57679e-06 -0.000346046
0.00105694 -0.000601783 2.89904e-05
-0.000601783 -0.000704754 -9.24012e-06
2.89904e-05 -9.24012e-06 -0.00054553
0.00103146 -0.000754508 1.29046e-06
-0.000754508 -0.000414463 6.52216e-06
1.29046e-06 6.52216e-06 -0.00059469
-6.75219e-05 -0.000709485 -1.76529e-05
-0.000709485 -0.000727438 4.16904e-06
-1.76529e-05 4.16904e-06 -0.00100334
0.00266236 -0.000497023 8.08288e-06
-0.000497023 0.00169673 3.59798e-05
8.08288e-06 3.59798e-05 0.00101565
-0.000388056 -0.000549959 -5.89917e-06
-0.000549959 -0.000262691 -8.03707e-06
-5.89917e-06 -8.03707e-06 -0.000805952
0.00150587 -0.000270124 6.53832e-06
-0.000270124 0.000703815 -4.98608e-06
6.53832e-06 -4.98608e-06 0.000551953
0.000453225 -5.9825e-05 6.95023e-07
-5.9825e-05 0.00011279 2.82629e-06
6.95023e-07 2.82629e-06 -2.37831e-05
0.0024666 -0.000633753 1.25305e-05
-0.000633753 -0.000241593 -9.0702e-06
1.25305e-05 -9.0702e-06 6.63918e-05
0.000426273 -6.93989e-05 4.70539e-07
-6.93989e-05 0.000147872 1.70463e-06
4.70539e-07 1.70463e-06 -0.000102769
-0.000134101 -0.000210628 -1.83247e-06
-0.000210628 -0.000108705 -5.98484e-06
-1.83247e-06 -5.98484e-06 -0.000398315
0.00182633 -0.000803437 1.90048e-05
-0.000803437 8.86419e-06 -1.59933e-06
1.90048e-05 -1.59933e-06 -6.6458e-05
0.00196437 -0.000999685 -9.15845e-07
-0.000999685 0.000149992 2.37355e-06
-9.15845e-07 2.37355e-06 -4.76502e-05
0.000260787 -0.000740259 2.05788e-05
-0.000740259 -0.000240866 -1.57333e-05
2.05788e-05 -1.57333e-05 -0.000497756
0.00102996 -0.000369246 8.16961e-06
-0.000369246 0.000935712 -2.0163e-05
8.16961e-06 -2.0163e-05 0.000217112
0.00211123 -0.000966196 -7.00599e-05
-0.000966196 3.61819e-05 4.32158e-05
-7.00599e-05 4.32158e-05 -0.000208427
0.00104759 -0.000743887 -2.80929e-05
-0.000743887 -0.000177585 2.3708e-06
-2.80929e-05 2.3708e-06 -0.00019249
-2.31503e-05 -0.000644204 -6.67369e-05
-0.000644204 1.85598e-05 4.22094e-05
-6.67369e-05 4.22094e-05 -0.000411313
-0.00221427 -0.000204215 -8.30346e-06
-0.000204215 -0.00149364 1.20933e-05
-8.30346e-06 1.20933e-05 -0.00174077
-0.00115509 -2.89345e-05 4.5699e-07
-2.89345e-05 -0.000741356 1.12763e-05
4.5699e-07 1.12763e-05 -0.00103894
0.000790045 -9.17776e-05 8.27388e-06
-9.17776e-05 0.000502298 -1.47075e-05
8.27388e-06 -1.47075e-05 0.000116836
-0.00258561 0.00134898 -0.000449528
0.00134898 0.00729812 2.12545e-05
-0.000449528 2.12545e-05 0.00208065
9.57978e-05 -0.0016541 -1.45852e-05
-0.0016541 0.00256824 6.6152e-06
-1.45852e-05 6.6152e-06 0.00147621
0.00300104 0.00100961 -0.00013555
0.00100961 -0.00556813 -2.0225e-05
-0.00013555 -2.0225e-05 -0.00575506
0.000351165 0.000282219 1.30208e-05
0.000282219 8.6811e-05 -2.35714e-06
1.30208e-05 -2.35714e-06 -0.000173473
0.00174392 0.00063565 1.36007e-05
0.00063565 0.000704411 2.19526e-05
1.36007e-05 2.19526e-05 0.000276932
0.00344802 0.00103806 7.23985e-05
0.00103806 0.000697056 2.47379e-05
7.23985e-05 2.47379e-05 0.000587789
0.00150145 0.000895247 1.69869e-05
0.000895247 0.000407173 2.33032e-05
1.69869e-05 2.33032e-05 -6.2298e-05
0.0132955 -0.00322588 0.000255805
-0.00322588 0.00515309 8.66867e-05
0.000255805 8.66867e-05 0.00364816
0.00358411 0.00163779 -0.000387225
0.00163779 -0.00472907 -8.73338e-05
-0.000387225 -8.73338e-05 -0.00620108
0.00527185 0.00296968 4.74055e-05
0.00296968 0.000299974 2.72689e-05
4.74055e-05 2.72689e-05 0.000955433
0.00311087 0.00129813 5.81225e-05
0.00129813 0.00129126 -9.59666e-06
5.81225e-05 -9.59666e-06 0.0010209
0.00995875 -0.00333302 -0.000417049
-0.00333302 0.00423214 -0.000374545
-0.000417049 -0.000374545 0.000300344
0.000109999 -0.00387077 -0.000792763
-0.00387077 0.0068458 -0.000237759
-0.000792763 -0.000237759 0.00094253
0.0259014 -0.00595684 0.000809907
-0.00595684 0.00748445 0.000401571
0.000809907 0.000401571 0.00455839
0.000337219 0.000262877 1.74158e-05
0.000262877 3.71264e-05 -4.44891e-06
1.74158e-05 -4.44891e-06 -0.000184224
-0.00407041 0.000466732 -0.000190944
0.000466732 0.0060064 -3.49487e-05
-0.000190944 -3.49487e-05 6.9663e-05
0.00602396 0.00137485 -0.000150692
0.00137485 0.00346985 -0.000180209
-0.000150692 -0.000180209 -0.00195669
0.00176917 0.000899749 9.64347e-06
0.000899749 0.000292119 2.96933e-06
9.64347e-06 2.96933e-06 0.00016406
0.000776507 0.000670727 1.45817e-05
0.000670727 0.00023689 5.13062e-06
1.45817e-05 5.13062e-06 -0.000180745
0.000722814 0.00101907 -5.87975e-05
0.00101907 0.000509859 -6.30737e-05
-5.87975e-05 -6.30737e-05 -8.00545e-05
0.00420511 0.00340966 3.46787e-05
0.00340966 0.00123482 3.47682e-05
3.46787e-05 3.47682e-05 0.00109982
0.0163453 0.00469794 2.14893e-05
0.00469794 0.00334065 9.93854e-06
2.14893e-05 9.93854e-06 0.00113281
0.00913541 -0.00394713 9.01468e-05
-0.00394713 0.0044538 -0.000100916
9.01468e-05 -0.000100916 -0.00103602
0.0159056 -0.00220223 -1.52935e-05
-0.00220223 0.00225058 -7.11534e-05
-1.52935e-05 -7.11534e-05 0.00333822
0.000648736 0.000496892 -1.40582e-05
0.000496892 0.000223914 -9.43968e-06
-1.40582e-05 -9.43968e-06 -8.14717e-05
0.00179785 0.000241373 -0.000377199
0.000241373 0.00235351 -9.31043e-05
-0.000377199 -9.31043e-05 -0.00268553
0.00116608 0.000917386 -0.000144643
0.000917386 -0.00016296 -0.000178311
-0.000144643 -0.000178311 -0.00177994
-0.000695501 0.000330988 -6.26651e-06
0.000330988 -0.00014331 -2.0263e-05
-6.26651e-06 -2.0263e-05 -0.000420738
-0.00101543 0.000727136 -0.000191452
0.000727136 0.000957368 -1.43238e-05
-0.000191452 -1.43238e-05 0.000168046
0.0126499 0.00523151 0.000125852
0.00523151 0.00410251 -4.20802e-05
0.000125852 -4.20802e-05 -0.000406737
-0.00149951 -0.00566501 -1.15728e-05
-0.00566501 -8.76476e-05 0.000236841
-1.15728e-05 0.000236841 -0.00536724
0.0123105 8.181e-05 7.22186e-05
8.181e-05 -0.00163647 -0.000331884
7.22186e-05 -0.000331884 0.000845886
0.000784816 0.000196647 -4.00882e-06
0.000196647 0.000308311 1.76344e-05
-4.00882e-06 1.76344e-05 0.000157198
0.000940139 0.00024614 -9.29578e-06
0.00024614 0.000544035 -5.47797e-06
-9.29578e-06 -5.47797e-06 0.000330014
-0.000264575 0.000135323 8.64482e-07
0.000135323 5.75619e-06 -1.70866e-06
8.64482e-07 -1.70866e-06 -0.000316841
0.000539505 8.69604e-05 -1.08311e-06
8.69604e-05 0.000104552 -1.1896e-06
-1.08311e-06 -1.1896e-06 -6.70379e-05
0.00125195 -3.01788e-05 -2.26853e-06
-3.01788e-05 0.000591168 4.24852e-06
-2.26853e-06 4.24852e-06 0.000382923
2.48034e-05 7.62506e-05 2.93352e-06
7.62506e-05 -0.000211357 2.4234e-06
2.93352e-06 2.4234e-06 -0.000370895
-0.00119339 3.93251e-05 2.31217e-06
3.93251e-05 -0.000712884 1.45039e-06
2.31217e-06 1.45039e-06 -0.000953525
0.000573866 -2.25218e-05 1.22227e-06
-2.25218e-05 0.00015059 3.96742e-07
1.22227e-06 3.96742e-07 -4.34327e-05
0.000496652 4.32778e-05 6.31797e-07
4.32778e-05 0.000181352 -2.32469e-06
6.31797e-07 -2.32469e-06 -2.01326e-05
7.49447e-05 4.40488e-05 2.40792e-06
4.40488e-05 0.000283021 2.91344e-06
2.40792e-06 2.91344e-06 -0.000123671
-0.000408559 6.49995e-05 -3.26971e-06
6.49995e-05 0.000153654 1.28664e-05
-3.26971e-06 1.28664e-05 -0.00035104
0.000507244 6.65549e-06 -2.8949e-06
6.65549e-06 0.000537245 -3.7976e-06
-2.8949e-06 -3.7976e-06 0.000136451
0.00134885 2.947e-05 -2.00324e-06
2.947e-05 0.000691608 -2.81194e-06
-2.00324e-06 -2.81194e-06 0.000501274
0.000804079 -0.000161338 3.23289e-06
-0.000161338 0.000296065 2.05114e-06
3.23289e-06 2.05114e-06 0.000106737
0.00024774 -6.54751e-05 1.29541e-06
-6.54751e-05 -0.000124288 4.96342e-06
1.29541e-06 4.96342e-06 -0.000247685
0.000167698 -8.63746e-05 3.19776e-06
-8.63746e-05 -0.000108769 1.48106e-05
3.19776e-06 1.48106e-05 -0.000209673
0.000223026 -3.64574e-05 2.33981e-06
-3.64574e-05 -1.28591e-05 2.55055e-06
2.33981e-06 2.55055e-06 -0.000180821
0.000521912 -5.0751e-05 -1.32927e-07
-5.0751e-05 0.000117328 7.53263e-07
-1.32927e-07 7.53263e-07 -3.84726e-05
0.000304934 -5.32463e-05 -2.8789e-07
-5.32463e-05 6.95443e-07 -1.81969e-06
-2.8789e-07 -1.81969e-06 -0.000128124
0.000488713 -6.99606e-05 -8.24198e-06
-6.99606e-05 9.78668e-05 -4.99881e-06
-8.24198e-06 -4.99881e-06 -3.34053e-05
0.000373077 -7.4108e-05 9.05253e-06
-7.4108e-05 0.000219442 -8.11088e-06
9.05253e-06 -8.11088e-06 5.32742e-05
0.00108076 -0.000251829 1.14024e-06
-0.000251829 0.000257942 4.4044e-06
1.14024e-06 4.4044e-06 0.000170732
0.00051329 -0.000134841 -1.39455e-05
-0.000134841 2.37369e-05 -3.66233e-07
-1.39455e-05 -3.66233e-07 -8.53003e-05
0.000442157 -0.000211778 7.5453e-06
-0.000211778 -5.22106e-05 6.59923e-06
7.5453e-06 6.59923e-06 -0.000216397
0.00222169 -0.000585774 -2.42317e-06
-0.000585774 0.000943796 2.19956e-05
-2.42317e-06 2.19956e-05 0.000589944
0.0018878 -0.000269347 4.20613e-06
-0.000269347 0.000870256 -1.0663e-05
4.20613e-06 -1.0663e-05 0.000667165
0.000418185 -0.000188305 -6.70186e-06
-0.000188305 -7.73771e-05 -6.95475e-06
-6.70186e-06 -6.95475e-06 -0.000218909
0.000527491 -8.36933e-05 -2.82532e-07
-8.36933e-05 0.000105155 -1.04531e-06
-2.82532e-07 -1.04531e-06 -7.77807e-05
-0.000282198 -4.46248e-05 -7.46919e-07
-4.46248e-05 -0.000363942 -2.07634e-06
-7.46919e-07 -2.07634e-06 -0.000584769
0.00110611 -6.5355e-05 5.4927e-07
-6.5355e-05 0.000476423 1.58542e-06
5.4927e-07 1.58542e-06 0.00029439
0.000719658 -0.000136843 2.05306e-08
-0.000136843 0.000242269 2.33501e-07
2.05306e-08 2.33501e-07 4.96329e-05
0.000468048 -6.52496e-05 6.53094e-07
-6.52496e-05 1.651e-05 1.59035e-06
6.53094e-07 1.59035e-06 -0.000113093
0.00143607 -0.000206853 -2.50972e-06
-0.000206853 0.000710693 -5.51088e-07
-2.50972e-06 -5.51088e-07 0.00052061
0.000688525 -0.000114478 -5.12236e-07
-0.000114478 0.000171917 4.97135e-08
-5.12236e-07 4.97135e-08 3.82705e-05
0.000510484 2.65868e-06 -1.42845e-06
2.65868e-06 3.16904e-05 3.61852e-06
-1.42845e-06 3.61852e-06 -5.34225e-05
0.000722246 -0.00013494 8.84585e-07
-0.00013494 0.000203867 -2.25642e-06
8.84585e-07 -2.25642e-06 6.67577e-05
0.000586291 -5.90716e-05 -9.88774e-08
-5.90716e-05 8.28126e-05 1.32222e-07
-9.88774e-08 1.32222e-07 -1.58457e-06
0.00143781 1.00384e-05 -1.26554e-05
1.00384e-05 0.000589519 7.73854e-06
-1.26554e-05 7.73854e-06 0.000566104
0.000536635 -7.06575e-05 1.71767e-06
-7.06575e-05 6.11658e-05 -4.77836e-06
1.71767e-06 -4.77836e-06 -2.46593e-05
0.000858697 -1.3977e-05 -8.99533e-06
-1.3977e-05 0.000230207 7.11298e-07
-8.99533e-06 7.11298e-07 0.000205405
0.000817248 2.13712e-05 1.22828e-06
2.13712e-05 0.000189732 2.98857e-06
1.22828e-06 2.98857e-06 0.00019122
0.000427427 -3.38446e-05 2.65546e-06
-3.38446e-05 -3.67353e-05 -5.26584e-06
2.65546e-06 -5.26584e-06 -6.27509e-05
0.00166448 2.0338e-05 1.15963e-05
2.0338e-05 0.000730893 -1.48201e-06
1.15963e-05 -1.48201e-06 0.000738937
0.00251609 1.07915e-05 1.25497e-05
1.07915e-05 0.00127025 -5.19027e-06
1.25497e-05 -5.19027e-06 0.00128295
0.000485922 5.51262e-05 1.46868e-06
5.51262e-05 3.13757e-05 -6.89248e-07
1.46868e-06 -6.89248e-07 -7.2303e-05
0.000594769 6.56183e-05 -1.2291e-06
6.56183e-05 8.37823e-05 -1.96699e-06
-1.2291e-06 -1.96699e-06 2.62885e-05
0.000583274 4.31394e-06 7.47266e-07
4.31394e-06 0.00010811 8.3179e-07
7.47266e-07 8.3179e-07 5.11239e-06
0.000460272 5.15322e-06 1.851e-06
5.15322e-06 -3.55425e-05 -3.68914e-06
1.851e-06 -3.68914e-06 -4.5946e-05
0.000487442 5.51255e-05 7.66943e-09
5.51255e-05 1.75531e-05 -1.83598e-07
7.66943e-09 -1.83598e-07 -3.39112e-05
0.000504998 -0.000113881 -2.89988e-06
-0.000113881 6.10002e-05 7.65677e-07
-2.89988e-06 7.65677e-07 -3.62737e-05
0.00201023 9.81844e-06 -7.05721e-06
9.81844e-06 0.000945439 -4.83459e-06
-7.05721e-06 -4.83459e-06 0.000963057
0.000449482 6.11226e-06 -2.54574e-07
6.11226e-06 -4.27562e-05 2.88838e-08
-2.54574e-07 2.88838e-08 -5.24655e-05
0.000494112 -8.34243e-06 -1.57987e-06
-8.34243e-06 1.70831e-05 2.1076e-06
-1.57987e-06 2.1076e-06 -2.81472e-05
0.000462654 5.29145e-06 -1.66121e-06
5.29145e-06 -3.55938e-05 3.30645e-06
-1.66121e-06 3.30645e-06 -4.59812e-05
0.00204066 2.5308e-05 -5.47163e-06
2.5308e-05 0.000967154 -1.14297e-07
-5.47163e-06 -1.14297e-07 0.000983506
0.00200671 3.93347e-05 -4.36416e-06
3.93347e-05 0.000948539 4.71658e-06
-4.36416e-06 4.71658e-06 0.000963611
-0.00619911 -0.00188565 -0.000205619
-0.00188565 0.00608455 6.00266e-05
-0.000205619 6.00266e-05 0.00172135
0.00239936 0.00157896 -0.000289974
0.00157896 0.000902655 9.26882e-05
-0.000289974 9.26882e-05 -0.00149306
0.00293027 -0.00105339 -0.000636842
-0.00105339 0.00126193 0.000272615
-0.000636842 0.000272615 -0.00344779
0.000556823 0.000970921 0.00118107
0.000970921 0.00674479 -0.000336628
0.00118107 -0.000336628 0.00216186
0.00310216 0.000659241 -5.07128e-05
0.000659241 -0.000925423 1.04902e-05
-5.07128e-05 1.04902e-05 8.27695e-05
0.0029734 -0.000517054 9.35949e-05
-0.000517054 -0.000247839 9.40005e-06
9.35949e-05 9.40005e-06 -8.21193e-05
0.000933866 -0.000386803 0.000309552
-0.000386803 -0.00534075 -5.87514e-05
0.000309552 -5.87514e-05 -0.00680025
0.023485 0.00355195 -0.000959682
0.00355195 0.0103774 6.97586e-05
-0.000959682 6.97586e-05 0.0070371
0.00733513 0.00958001 -0.00248411
0.00958001 0.00584972 0.00156471
-0.00248411 0.00156471 0.00199184
0.00493295 -0.000724993 3.36556e-05
-0.000724993 -0.000511413 4.98763e-06
3.36556e-05 4.98763e-06 0.000336923
0.00870014 -0.00253289 0.000181693
-0.00253289 -0.00217547 -0.000148917
0.000181693 -0.000148917 -0.00430232
0.0207355 0.00594659 -0.000358031
0.00594659 0.00685424 -0.000118408
-0.000358031 -0.000118408 0.00254345
0.0158921 0.00467645 1.95895e-05
0.00467645 0.0036691 0.000422987
1.95895e-05 0.000422987 0.000971992
0.00184502 -0.00191264 -0.000120995
-0.00191264 -0.00334488 2.8443e-05
-0.000120995 2.8443e-05 -0.00194578
0.00651954 -0.0040666 0.000473826
-0.0040666 -0.000199268 -0.000235276
0.000473826 -0.000235276 -0.00386931
0.00860776 0.00359459 6.60804e-05
0.00359459 0.00211073 -0.000868216
6.60804e-05 -0.000868216 -0.00239688
0.0089273 0.000621243 -0.000316743
0.000621243 -0.00200579 1.30599e-05
-0.000316743 1.30599e-05 -0.00136403
0.00248427 -8.57208e-05 9.9302e-07
-8.57208e-05 0.00142871 1.70978e-05
9.9302e-07 1.70978e-05 0.00115442
0.000299517 9.26342e-05 -1.57251e-06
9.26342e-05 -2.6429e-05 -2.20258e-06
-1.57251e-06 -2.20258e-06 -0.000170606
0.000516079 0.000104352 2.92377e-06
0.000104352 6.51065e-05 -9.11676e-07
2.92377e-06 -9.11676e-07 -3.55621e-05
0.000115314 -9.12615e-06 5.94606e-06
-9.12615e-06 -0.000128904 -3.19664e-06
5.94606e-06 -3.19664e-06 -0.000233764
0.00043658 0.000105737 3.66301e-06
0.000105737 2.75433e-05 6.03206e-06
3.66301e-06 6.03206e-06 -0.000155789
0.000452481 4.71318e-05 -1.98885e-08
4.71318e-05 5.2701e-05 1.98133e-06
-1.98885e-08 1.98133e-06 -0.000101031
0.000199901 2.44233e-05 1.49285e-06
2.44233e-05 -0.000107534 -3.75448e-06
1.49285e-06 -3.75448e-06 -0.000238519
0.000907047 0.000183641 4.97555e-06
0.000183641 0.000341629 8.97747e-06
4.97555e-06 8.97747e-06 0.000164442
0.000911752 0.00013695 -2.88319e-07
0.00013695 0.000354311 -4.21183e-07
-2.88319e-07 -4.21183e-07 0.000180365
0.000355131 -1.32687e-05 -3.59492e-06
-1.32687e-05 -1.65323e-05 -6.81805e-06
-3.59492e-06 -6.81805e-06 -0.000150333
0.000516304 -0.000500365 9.03508e-05
-0.000500365 -0.00129129 -4.69317e-05
9.03508e-05 -4.69317e-05 -0.000935249
0.000116834 -0.000653168 1.03677e-05
-0.000653168 -0.000959233 -7.09806e-06
1.03677e-05 -7.09806e-06 -0.00094851
0.00127071 -0.000918717 -1.4029e-05
-0.000918717 -0.000285768 2.06802e-05
-1.4029e-05 2.06802e-05 -0.000375474
-0.00104131 -0.000722965 3.19983e-06
-0.000722965 -0.000935883 -2.97607e-06
3.19983e-06 -2.97607e-06 -0.00127769
0.00340976 -0.000462736 -2.89989e-05
-0.000462736 0.00212498 7.12372e-05
-2.89989e-05 7.12372e-05 0.00159342
0.000916515 -0.00021456 -2.48248e-06
-0.00021456 0.000548608 7.01158e-06
-2.48248e-06 7.01158e-06 0.000236133
0.000412984 0.000125766 -2.23178e-06
0.000125766 0.000125017 -1.60772e-05
-2.23178e-06 -1.60772e-05 -0.000121182
0.000719317 -5.19891e-05 -2.91147e-06
-5.19891e-05 0.000315628 9.09068e-06
-2.91147e-06 9.09068e-06 3.51382e-05
0.00185982 -0.00087634 -1.31475e-05
-0.00087634 -0.000196958 -3.03446e-06
-1.31475e-05 -3.03446e-06 -0.000237048
0.000743085 -4.53881e-05 1.1586e-06
-4.53881e-05 0.000370174 4.66633e-06
1.1586e-06 4.66633e-06 8.87117e-05
0.00224556 -0.000316592 2.68375e-06
-0.000316592 0.00136724 -2.07197e-06
2.68375e-06 -2.07197e-06 0.000961243
0.00134631 -0.000775494 9.74918e-06
-0.000775494 -2.10725e-05 2.12432e-06
9.74918e-06 2.12432e-06 -5.10278e-05
0.000511327 -0.000660262 -3.4596e-05
-0.000660262 0.00024436 8.81503e-06
-3.4596e-05 8.81503e-06 -0.000142776
0.00211158 -0.00153654 6.37895e-05
-0.00153654 1.34304e-05 -2.57821e-05
6.37895e-05 -2.57821e-05 -9.85308e-05
-0.000265914 -0.000516987 -5.61872e-06
-0.000516987 -0.000385742 2.30636e-05
-5.61872e-06 2.30636e-05 -0.000461872
-0.0015938 -7.50901e-05 2.20763e-05
-7.50901e-05 -0.000704923 -1.5699e-06
2.20763e-05 -1.5699e-06 -0.00118906
0.000580407 4.99545e-05 -4.35026e-06
4.99545e-05 0.000217502 3.76517e-06
-4.35026e-06 3.76517e-06 2.62954e-07
0.000460498 -4.87891e-05 5.01443e-06
-4.87891e-05 0.000317411 -4.41959e-06
5.01443e-06 -4.41959e-06 -1.18009e-05
0.00133012 0.000157766 -5.24451e-05
0.000157766 0.0019428 -2.04268e-05
-5.24451e-05 -2.04268e-05 -0.00226365
-0.00689884 0.000448471 -0.000399435
0.000448471 0.00669935 -2.05363e-05
-0.000399435 -2.05363e-05 0.00135221
-0.0135067 -0.00273591 -0.000782956
-0.00273591 -0.0051456 -6.57761e-06
-0.000782956 -6.57761e-06 -0.00623349
-0.000514279 0.000223249 1.18194e-05
0.000223249 -0.000409163 -4.28621e-06
1.18194e-05 -4.28621e-06 -0.000659457
-0.000837189 0.000509801 -2.5207e-06
0.000509801 -0.000569224 1.00162e-05
-2.5207e-06 1.00162e-05 -0.000998044
0.00240857 0.00106128 3.61653e-05
0.00106128 0.000646391 3.04734e-05
3.61653e-05 3.04734e-05 0.000467405
-0.00544647 0.00209502 9.12112e-05
0.00209502 0.00663137 6.02859e-05
9.12112e-05 6.02859e-05 0.00178371
0.00685741 0.00400461 -0.000327386
0.00400461 -4.82237e-05 -0.00018293
-0.000327386 -0.00018293 -0.00334249
0.00129114 0.00222052 0.000440133
0.00222052 0.000116123 0.000162718
0.000440133 0.000162718 1.07231e-05
-0.000154683 0.000951581 1.42143e-05
0.000951581 -6.89711e-05 -4.86156e-05
1.42143e-05 -4.86156e-05 -0.000367444
0.0278796 -0.00390703 -0.000149671
-0.00390703 0.00922338 -0.000397023
-0.000149671 -0.000397023 0.005384
0.00662564 0.00178575 0.000602659
0.00178575 0.00330165 0.000215415
0.000602659 0.000215415 -0.00259566
0.0139571 -0.0017856 0.000176762
-0.0017856 0.0024585 3.62129e-05
0.000176762 3.62129e-05 0.00376311
0.00131467 0.000566494 3.88061e-06
0.000566494 0.000685013 -1.80943e-06
3.88061e-06 -1.80943e-06 0.000364075
0.00383119 0.000666827 -1.6307e-05
0.000666827 0.00330946 1.27496e-05
-1.6307e-05 1.27496e-05 -0.000483135
0.00177992 0.000825642 7.63548e-05
0.000825642 0.00013341 -1.83461e-06
7.63548e-05 -1.83461e-06 -0.00150804
-0.000469098 0.000510643 -1.91327e-06
0.000510643 -0.000127016 -5.46329e-06
-1.91327e-06 -5.46329e-06 -0.000472076
-3.16436e-05 0.00136439 -0.000124145
0.00136439 0.000740272 -6.24763e-05
-0.000124145 -6.24763e-05 -0.000516983
0.00146384 0.00498362 0.000235367
0.00498362 0.000795255 0.000115723
0.000235367 0.000115723 -0.00364948
0.0100299 -0.000133494 -3.03968e-08
-0.000133494 -0.00348123 -0.000218409
-3.03968e-08 -0.000218409 -0.000708988
0.00633648 -0.00266315 -8.23676e-05
-0.00266315 0.00377073 -0.000173557
-8.23676e-05 -0.000173557 -0.00140195
0.00107374 0.000458391 -8.23749e-06
0.000458391 0.000848376 -1.52357e-05
-8.23749e-06 -1.52357e-05 0.000477803
-0.00321083 0.00028785 1.71056e-05
0.00028785 0.000120754 3.21097e-05
1.71056e-05 3.21097e-05 -0.000450491
0.00535877 -0.000272512 0.000133544
-0.000272512 -0.000194933 -0.00015493
0.000133544 -0.00015493 -0.00151027
0.0087565 0.000775707 0.000308423
0.000775707 -0.0018449 -1.99362e-05
0.000308423 -1.99362e-05 -0.00118418
-0.00271222 0.00015217 4.26589e-05
0.00015217 -0.000130689 -2.8585e-05
4.26589e-05 -2.8585e-05 -0.000981661
0.0127757 0.00363744 0.000348819
0.00363744 0.00625633 8.73108e-05
0.000348819 8.73108e-05 0.000786547
0.00295632 -0.000628696 2.31007e-05
-0.000628696 0.00303277 0.000403798
2.31007e-05 0.000403798 -0.0007868
0.00318186 0.00048068 2.66154e-05
0.00048068 0.00193351 1.16295e-05
2.66154e-05 1.16295e-05 0.00165989
0.000415295 0.00022658 -6.06378e-06
0.00022658 0.000444624 -1.55948e-06
-6.06378e-06 -1.55948e-06 7.78048e-05
0.000248358 0.00019553 4.63637e-06
0.00019553 0.000507471 -2.69097e-06
4.63637e-06 -2.69097e-06 4.16966e-05
0.000417933 0.00013821 1.32107e-06
0.00013821 6.32072e-05 -1.64338e-06
1.32107e-06 -1.64338e-06 -0.000135327
0.0005637 9.11086e-05 1.06311e-06
9.11086e-05 0.000201534 2.3441e-06
1.06311e-06 2.3441e-06 1.56354e-05
0.000114423 -8.70513e-06 6.86319e-06
-8.70513e-06 0.000330417 -4.16436e-06
6.86319e-06 -4.16436e-06 -8.81092e-05
0.000464529 3.32843e-05 8.22e-08
3.32843e-05 0.000123979 -7.94954e-07
8.22e-08 -7.94954e-07 -4.76503e-05
0.000781621 -4.09076e-05 -8.66591e-07
-4.09076e-05 0.00071097 -2.48085e-06
-8.66591e-07 -2.48085e-06 0.000307618
-5.28512e-06 3.26555e-05 -1.66139e-07
3.26555e-05 0.000396819 -1.21667e-06
-1.66139e-07 -1.21667e-06 -0.000107012
-0.000104417 -2.82066e-05 -3.97852e-06
-2.82066e-05 0.000305657 1.15076e-05
-3.97852e-06 1.15076e-05 -0.000127206
0.000309765 -3.15183e-05 -1.88139e-06
-3.15183e-05 0.000366322 -6.68214e-06
-1.88139e-06 -6.68214e-06 5.13362e-05
5.31329e-05 -6.22763e-05 4.83748e-06
-6.22763e-05 -0.000147295 9.74318e-06
4.83748e-06 9.74318e-06 -0.000292989
0.00111936 -5.64296e-05 -2.93789e-08
-5.64296e-05 0.000476835 3.38263e-06
-2.93789e-08 3.38263e-06 0.00032428
0.00135489 -7.89176e-05 -1.65055e-05
-7.89176e-05 0.000646272 1.36067e-05
-1.65055e-05 1.36067e-05 0.000516938
0.000732708 -8.91196e-05 5.98545e-06
-8.91196e-05 0.00041529 -1.06991e-06
5.98545e-06 -1.06991e-06 0.000258809
0.000444615 -5.7375e-05 -1.27516e-06
-5.7375e-05 7.13556e-05 -1.18665e-06
-1.27516e-06 -1.18665e-06 -5.84852e-05
0.00062262 -0.000203311 -9.39698e-07
-0.000203311 0.000168117 4.11288e-06
-9.39698e-07 4.11288e-06 3.63882e-05
0.00024487 -0.000174771 -1.34568e-05
-0.000174771 -0.00013688 -8.94239e-07
-1.34568e-05 -8.94239e-07 -0.000186359
-0.000933159 -0.000292114 1.17607e-05
-0.000292114 -0.000794374 2.12292e-05
1.17607e-05 2.12292e-05 -0.00109349
-2.01099e-05 -0.000157419 5.53912e-06
-0.000157419 -0.000279863 -2.35239e-07
5.53912e-06 -2.35239e-07 -0.000392917
0.00116426 -0.000299385 -4.0746e-06
-0.000299385 0.0003761 1.19329e-05
-4.0746e-06 1.19329e-05 0.000185851
0.00202152 -0.000588794 -6.37917e-06
-0.000588794 0.000826806 1.42859e-05
-6.37917e-06 1.42859e-05 0.000445203
0.00174465 -0.000572269 -6.9489e-06
-0.000572269 0.000550286 -8.06431e-07
-6.9489e-06 -8.06431e-07 0.000146544
0.00164684 -0.000401117 1.20339e-06
-0.000401117 0.000668902 1.48389e-06
1.20339e-06 1.48389e-06 0.000417332
0.000567535 -0.000371045 9.10676e-06
-0.000371045 -7.40441e-05 -4.14919e-06
9.10676e-06 -4.14919e-06 -0.000366692
0.00124788 -0.00018318 2.88898e-06
-0.00018318 0.000573137 -3.72868e-06
2.88898e-06 -3.72868e-06 0.000301816
0.0011337 -0.00022744 -8.61656e-06
-0.00022744 0.000449596 1.8326e-06
-8.61656e-06 1.8326e-06 0.000237618
-0.000238479 -0.000125013 1.51246e-05
-0.000125013 -0.000456484 -1.69389e-05
1.51246e-05 -1.69389e-05 -0.0005586
0.00124348 -0.000116863 -2.01359e-06
-0.000116863 0.000519997 2.31449e-06
-2.01359e-06 2.31449e-06 0.000336863
0.000274599 -8.71586e-05 8.18082e-07
-8.71586e-05 -2.51494e-05 -1.3273e-07
8.18082e-07 -1.3273e-07 -0.000243556
0.000357624 -5.61353e-05 1.41344e-06
-5.61353e-05 -5.05645e-05 8.18096e-07
1.41344e-06 8.18096e-07 -0.000200592
0.0015698 -0.000243256 -1.83152e-06
-0.000243256 0.000778648 -6.85737e-08
-1.83152e-06 -6.85737e-08 0.000570705
0.000668452 -0.000103848 -3.83711e-07
-0.000103848 0.000158334 -1.28068e-07
-3.83711e-07 -1.28068e-07 1.40731e-05
0.000395803 8.56735e-06 2.75567e-06
8.56735e-06 -2.857e-05 4.61351e-06
2.75567e-06 4.61351e-06 -0.000128965
0.000799052 -0.000143785 -1.38936e-07
-0.000143785 0.000254 -2.25025e-06
-1.38936e-07 -2.25025e-06 0.000109063
0.000474658 6.03165e-06 -2.17524e-06
6.03165e-06 1.92998e-05 -1.95084e-07
-2.17524e-06 -1.95084e-07 -7.3148e-05
0.00143437 5.58332e-06 -1.7724e-05
5.58332e-06 0.000587487 5.49196e-06
-1.7724e-05 5.49196e-06 0.000562316
0.000586379 -6.76908e-05 2.17329e-06
-6.76908e-05 8.76717e-05 -4.54538e-06
2.17329e-06 -4.54538e-06 3.05499e-07
0.000878795 -9.81882e-06 -8.84462e-06
-9.81882e-06 0.000237531 5.43005e-07
-8.84462e-06 5.43005e-07 0.000211363
0.000837939 3.1439e-05 5.07779e-07
3.1439e-05 0.000200314 3.14122e-06
5.07779e-07 3.14122e-06 0.000199474
0.000446018 -2.64508e-05 2.74185e-06
-2.64508e-05 -3.20131e-05 -6.189e-06
2.74185e-06 -6.189e-06 -5.95048e-05
0.00173232 3.2521e-05 1.46051e-05
3.2521e-05 0.000771063 -1.23151e-06
1.46051e-05 -1.23151e-06 0.000777797
0.00254213 2.46938e-05 1.75402e-05
2.46938e-05 0.00128415 -5.49635e-06
1.75402e-05 -5.49635e-06 0.00129655
0.000314449 1.91056e-05 1.71033e-06
1.91056e-05 -5.89161e-05 2.20708e-06
1.71033e-06 2.20708e-06 -0.000193177
0.000143944 2.07445e-05 6.30932e-08
2.07445e-05 -0.000204344 -3.6113e-06
6.30932e-08 -3.6113e-06 -0.000268986
0.000619028 5.41868e-05 1.37115e-07
5.41868e-05 0.000126292 2.06629e-07
1.37115e-07 2.06629e-07 1.20183e-05
0.000460927 5.21031e-06 1.62054e-06
5.21031e-06 -3.72149e-05 -3.84706e-06
1.62054e-06 -3.84706e-06 -4.9104e-05
0.000321982 7.31716e-06 1.62972e-06
7.31716e-06 -9.39891e-05 4.44518e-08
1.62972e-06 4.44518e-08 -0.000148729
0.00023577 -9.38161e-05 -9.67914e-07
-9.38161e-05 -0.000112584 -7.47838e-07
-9.67914e-07 -7.47838e-07 -0.000215019
0.00206327 -4.21193e-06 -1.1775e-05
-4.21193e-06 0.000978027 -4.85858e-06
-1.1775e-05 -4.85858e-06 0.00099566
0.000455948 4.10266e-06 1.27249e-08
4.10266e-06 -3.91248e-05 -6.71727e-08
1.27249e-08 -6.71727e-08 -4.92344e-05
0.000427868 -1.46609e-05 -2.90506e-06
-1.46609e-05 -2.51978e-05 2.3212e-06
-2.90506e-06 2.3212e-06 -7.32591e-05
0.00202679 1.11979e-05 -4.73065e-06
1.11979e-05 0.000956328 7.11605e-09
-4.73065e-06 7.11605e-09 0.000973721
0.00044912 5.31069e-06 -1.50609e-06
5.31069e-06 -4.23523e-05 3.25897e-06
-1.50609e-06 3.25897e-06 -5.2138e-05
0.0020019 2.62947e-05 1.89305e-06
2.62947e-05 0.000942591 4.86752e-06
1.89305e-06 4.86752e-06 0.00095898
-0.000385603 -0.000867839 -0.000258403
-0.000867839 -0.000130598 0.000101262
-0.000258403 0.000101262 -0.00347379
0.00201724 0.000738695 -0.000125643
0.000738695 0.00795423 2.63834e-05
-0.000125643 2.63834e-05 0.00350759
0.00256218 4.2781e-05 -0.000939875
4.2781e-05 0.00396491 0.000199665
-0.000939875 0.000199665 0.00203345
0.000726228 0.000123655 5.8692e-06
0.000123655 0.000196275 7.01568e-06
5.8692e-06 7.01568e-06 3.80781e-05
0.00524574 -0.000984592 -0.000106395
-0.000984592 0.00329307 0.000252532
-0.000106395 0.000252532 0.00109083
0.00416571 -0.00133889 -0.000285417
-0.00133889 0.00176003 2.74056e-05
-0.000285417 2.74056e-05 -0.00295626
0.012137 0.00378328 0.000345448
0.00378328 0.00819967 -0.000366502
0.000345448 -0.000366502 0.0035786
0.00742582 -0.00114546 0.000128979
-0.00114546 0.000722217 -2.25842e-05
0.000128979 -2.25842e-05 0.0011243
0.0131813 -0.00247049 0.000278576
-0.00247049 0.000942385 -0.000150138
0.000278576 -0.000150138 -1.71516e-05
0.0101821 0.00495267 -0.000710447
0.00495267 0.00122264 0.000432444
-0.000710447 0.000432444 -0.00274103
0.0141986 0.00441578 0.00013202
0.00441578 0.0054992 0.000240385
0.00013202 0.000240385 0.0026479
0.00764077 -0.00242186 -0.000120024
-0.00242186 0.000131302 -4.04323e-06
-0.000120024 -4.04323e-06 0.000725941
0.0171129 -0.00446193 3.05892e-05
-0.00446193 0.0037991 -3.58503e-05
3.05892e-05 -3.58503e-05 0.00128876
0.00889423 0.00290988 0.000142212
0.00290988 0.003544 -0.000368629
0.000142212 -0.000368629 -0.00110418
0.0125835 0.00127506 9.53052e-06
0.00127506 -0.000113849 4.36201e-05
9.53052e-06 4.36201e-05 -0.000120212
0.00281688 -0.00251188 -6.79715e-05
-0.00251188 1.86748e-05 8.37224e-05
-6.79715e-05 8.37224e-05 8.13072e-05
0.0105336 -0.00461167 0.00017377
-0.00461167 0.00447546 -0.000110882
0.00017377 -0.000110882 0.000148588
0.0100715 -0.000298858 0.000123633
-0.000298858 0.0050113 -0.000468091
0.000123633 -0.000468091 0.00187221
0.0123829 0.00027911 -0.000147345
0.00027911 -0.00126185 0.000263179
-0.000147345 0.000263179 0.000786316
0.000367413 7.52955e-05 5.4647e-06
7.52955e-05 7.66142e-05 1.22988e-05
5.4647e-06 1.22988e-05 -0.000137202
0.000693176 -0.000131935 5.59912e-07
-0.000131935 0.000294888 -1.28709e-07
5.59912e-07 -1.28709e-07 4.88378e-05
0.000840835 0.00012092 2.09363e-06
0.00012092 0.00033115 -4.857e-06
2.09363e-06 -4.857e-06 0.000174323
0.000504039 0.000137736 3.15319e-06
0.000137736 3.71381e-05 1.27787e-05
3.15319e-06 1.27787e-05 -0.00010691
0.000826212 0.000195026 2.44558e-07
0.000195026 0.000302973 4.97512e-07
2.44558e-07 4.97512e-07 0.000106178
0.00107601 0.000110296 -4.36639e-06
0.000110296 0.000463542 -5.22509e-06
-4.36639e-06 -5.22509e-06 0.000301368
0.0010511 0.000176568 -1.53787e-06
0.000176568 0.000435937 8.78548e-09
-1.53787e-06 8.78548e-09 0.000255589
0.00106189 0.000186594 1.36977e-06
0.000186594 0.00046708 1.61051e-06
1.36977e-06 1.61051e-06 0.000282653
0.000709687 -0.000666311 0.000127042
-0.000666311 -0.000880063 -6.93198e-05
0.000127042 -6.93198e-05 -0.000709562
0.000307345 -0.000697819 -2.99351e-05
-0.000697819 -0.000678683 -1.85348e-06
-2.99351e-05 -1.85348e-06 -0.000623292
0.000947968 -0.000229506 4.02403e-06
-0.000229506 0.000476279 -2.98208e-05
4.02403e-06 -2.98208e-05 0.000178692
0.0018155 -0.00070968 2.02661e-05
-0.00070968 0.000929724 -2.3352e-05
2.02661e-05 -2.3352e-05 0.000583399
0.00245913 -0.000485124 -2.20395e-05
-0.000485124 0.00143585 2.22495e-05
-2.20395e-05 2.22495e-05 0.00103612
0.00164749 -0.000166632 5.66555e-06
-0.000166632 0.000916969 -2.25721e-05
5.66555e-06 -2.25721e-05 0.000618056
6.04291e-05 -6.32363e-06 3.46253e-06
-6.32363e-06 -0.000111436 7.40074e-06
3.46253e-06 7.40074e-06 -0.000323375
0.000580693 -0.0012703 -9.41943e-06
-0.0012703 -0.000617643 -5.10243e-06
-9.41943e-06 -5.10243e-06 -0.000724449
0.00134058 -2.34101e-05 -7.1064e-07
-2.34101e-05 0.00085737 -5.9029e-07
-7.1064e-07 -5.9029e-07 0.000521648
0.000224094 -0.00023866 -3.29907e-06
-0.00023866 0.000275217 5.70821e-06
-3.29907e-06 5.70821e-06 -0.000166241
-0.000382708 -0.000412735 2.34395e-05
-0.000412735 -0.000491542 5.21708e-08
2.34395e-05 5.21708e-08 -0.00047026
0.000875157 0.000116688 2.61138e-06
0.000116688 0.00040184 5.93757e-06
2.61138e-06 5.93757e-06 0.000205661
7.96771e-05 -0.00117939 -6.03856e-05
-0.00117939 -0.000259095 -2.37371e-05
-6.03856e-05 -2.37371e-05 -0.000554415
-0.000962402 -0.000435437 -2.0103e-05
-0.000435437 -0.000480544 2.92162e-05
-2.0103e-05 2.92162e-05 -0.000782459
0.000106032 0.000146496 1.69675e-05
0.000146496 0.000414427 -2.47888e-05
1.69675e-05 -2.47888e-05 -0.000106094
0.00164197 0.000269817 -1.61771e-06
0.000269817 0.00107704 -1.94625e-07
-1.61771e-06 -1.94625e-07 0.000762587
-0.00119996 0.000111999 0.000129862
0.000111999 0.00169124 2.73901e-05
0.000129862 2.73901e-05 0.000671804
0.000376445 -1.01523e-05 0.00016531
-1.01523e-05 0.00125653 -3.47371e-05
0.00016531 -3.47371e-05 -0.00299177
-0.0119314 -0.000375708 -0.000289194
-0.000375708 0.00620027 2.79232e-05
-0.000289194 2.79232e-05 0.000514413
0.00174291 0.000595235 2.04068e-05
0.000595235 0.00101924 4.12461e-06
2.04068e-05 4.12461e-06 0.00069072
-0.000681367 0.000718277 1.28199e-05
0.000718277 -0.000273926 1.05378e-05
1.28199e-05 1.05378e-05 -0.000741222
0.0056011 0.000894841 0.000344064
0.000894841 0.0038844 6.96415e-05
0.000344064 6.96415e-05 0.00124636
0.00895939 0.00395555 0.000257837
0.00395555 0.00317694 0.000206069
0.000257837 0.000206069 -0.000961149
0.00454595 0.00264451 -0.000107237
0.00264451 0.00253989 -0.00010469
-0.000107237 -0.00010469 0.00110482
0.00446142 -0.00229297 -0.000177517
-0.00229297 0.00435285 -0.000465933
-0.000177517 -0.000465933 0.000329341
0.00287351 0.000675599 0.000140249
0.000675599 0.000411075 0.000183949
0.000140249 0.000183949 -0.00121728
0.0079115 -0.000275685 -5.48159e-05
-0.000275685 -0.00544345 -0.000245118
-5.48159e-05 -0.000245118 -0.00225396
0.000994884 0.000530741 5.74679e-06
0.000530741 0.000762304 1.51221e-06
5.74679e-06 1.51221e-06 0.000359125
-0.00267508 0.000134665 -2.81038e-06
0.000134665 0.0002042 3.2912e-06
-2.81038e-06 3.2912e-06 -0.000507019
0.00464902 -0.000145286 0.000121313
-0.000145286 -0.000240038 2.15239e-05
0.000121313 2.15239e-05 -0.000927696
-0.00179317 0.000459718 -1.46772e-05
0.000459718 -0.000237769 -1.14696e-05
-1.46772e-05 -1.14696e-05 -0.000997631
0.0122923 0.0014185 -3.13347e-06
0.0014185 -9.64061e-05 -4.66674e-05
-3.13347e-06 -4.66674e-05 -0.00013922
0.00285287 0.00203818 0.000236419
0.00203818 0.00403366 0.000143712
0.000236419 0.000143712 -0.00177385
0.00758779 0.000691336 -0.000179439
0.000691336 0.00328412 5.51468e-06
-0.000179439 5.51468e-06 -0.000571967
0.00032752 0.000453345 7.47798e-06
0.000453345 0.000541236 -2.39549e-05
7.47798e-06 -2.39549e-05 -7.15774e-06
0.00161322 -2.27261e-05 2.14522e-06
-2.27261e-05 0.000398342 -1.27013e-05
2.14522e-06 -1.27013e-05 -0.000125574
0.00398559 -0.00128686 9.02703e-05
-0.00128686 0.00328028 -0.000248635
9.02703e-05 -0.000248635 0.00134588
0.0210646 0.00507156 0.000319503
0.00507156 0.00659092 -0.000293443
0.000319503 -0.000293443 0.00402721
0.00931237 -0.000176728 -0.000116242
-0.000176728 0.00516562 0.000481142
-0.000116242 0.000481142 0.00173007
3.26836e-05 0.000444703 -2.73277e-05
0.000444703 0.00073689 -0.000136511
-2.73277e-05 -0.000136511 1.32566e-05
0.00450018 0.00142347 0.000270436
0.00142347 0.00634743 2.6488e-05
0.000270436 2.6488e-05 -0.00212152
0.00124111 0.000352926 8.48798e-06
0.000352926 0.000917963 1.13923e-05
8.48798e-06 1.13923e-05 0.000533476
0.000645736 0.000259009 4.09406e-06
0.000259009 0.00073808 2.81351e-06
4.09406e-06 2.81351e-06 0.000291083
0.000518962 -3.60922e-05 -1.50637e-05
-3.60922e-05 0.000818258 4.39863e-06
-1.50637e-05 4.39863e-06 0.000427174
-0.000641191 -3.04105e-05 1.79254e-06
-3.04105e-05 -0.000577263 1.8155e-06
1.79254e-06 1.8155e-06 -0.000732077
0.000218923 -2.13868e-05 4.68783e-06
-2.13868e-05 0.000406078 -9.89664e-08
4.68783e-06 -9.89664e-08 -2.61677e-05
-1.62683e-05 4.79364e-05 3.73101e-06
4.79364e-05 0.00040704 -5.73552e-06
3.73101e-06 -5.73552e-06 -0.000104555
0.000140165 -2.91734e-05 2.46057e-07
-2.91734e-05 0.000204984 7.52195e-07
2.46057e-07 7.52195e-07 -5.70308e-05
-6.00337e-05 -4.40847e-05 3.42084e-06
-4.40847e-05 0.000318467 1.07105e-06
3.42084e-06 1.07105e-06 -0.000113189
0.00164667 -0.000393484 4.87302e-06
-0.000393484 0.00109933 -1.07592e-05
4.87302e-06 -1.07592e-05 0.000760706
0.00077614 -9.26558e-05 -6.25075e-06
-9.26558e-05 0.00042351 6.14314e-06
-6.25075e-06 6.14314e-06 0.000276189
0.00016776 -3.33668e-06 -5.07008e-07
-3.33668e-06 -9.57594e-05 1.73859e-06
-5.07008e-07 1.73859e-06 -0.000224129
0.00133537 -0.00029218 7.16419e-07
-0.00029218 0.000601314 5.64765e-06
7.16419e-07 5.64765e-06 0.000431791
-0.00323724 -8.73006e-05 1.89368e-05
-8.73006e-05 -0.00195693 2.21637e-05
1.89368e-05 2.21637e-05 -0.00229205
-0.000473722 -0.000104059 1.3587e-05
-0.000104059 -0.000482328 -1.74415e-06
1.3587e-05 -1.74415e-06 -0.000496142
-9.4631e-05 -0.000345031 -1.10872e-06
-0.000345031 -0.000338378 -5.55614e-06
-1.10872e-06 -5.55614e-06 -0.000600486
0.00134441 -0.000568064 -1.09628e-06
-0.000568064 0.000379159 -2.41071e-07
-1.09628e-06 -2.41071e-07 -0.000100357
0.00172251 -0.000677016 -8.80573e-06
-0.000677016 0.000492198 6.89485e-07
-8.80573e-06 6.89485e-07 3.37647e-05
0.00165401 -0.000368053 5.97706e-06
-0.000368053 0.000660501 -4.03259e-06
5.97706e-06 -4.03259e-06 0.000447886
0.00130391 -0.000504367 6.54932e-07
-0.000504367 0.00037722 5.14305e-07
6.54932e-07 5.14305e-07 4.33864e-06
0.00163173 -0.000577078 3.66944e-06
-0.000577078 0.000445754 -4.01654e-06
3.66944e-06 -4.01654e-06 4.95164e-05
0.00134285 -0.00042204 -2.50161e-06
-0.00042204 0.000372182 8.28546e-06
-2.50161e-06 8.28546e-06 6.22954e-05
0.0010771 -0.000487094 2.25748e-06
-0.000487094 0.000149123 -4.55945e-06
2.25748e-06 -4.55945e-06 -0.00022746
0.000755808 -0.000181071 7.15977e-07
-0.000181071 0.000209365 -5.9376e-06
7.15977e-07 -5.9376e-06 -5.09764e-05
0.00110829 -0.000362254 -5.68174e-06
-0.000362254 0.000344603 3.09243e-06
-5.68174e-06 3.09243e-06 8.41376e-05
-0.000979409 -0.000167493 1.02028e-06
-0.000167493 -0.00102059 -9.87609e-06
1.02028e-06 -9.87609e-06 -0.00125381
-2.26677e-05 -5.88734e-05 7.69136e-07
-5.88734e-05 -0.000256823 -2.63859e-06
7.69136e-07 -2.63859e-06 -0.000460633
0.000320554 -0.000143035 2.42436e-07
-0.000143035 2.42116e-05 2.5722e-07
2.42436e-07 2.5722e-07 -0.000245418
0.000265566 -0.000188594 1.22573e-05
-0.000188594 -3.64168e-05 5.21553e-07
1.22573e-05 5.21553e-07 -0.000261607
0.000642723 -0.00013419 4.58233e-08
-0.00013419 0.000195631 2.10999e-06
4.58233e-08 2.10999e-06 -1.87169e-05
0.000706269 -0.000122652 1.06142e-07
-0.000122652 0.000183371 3.64021e-07
1.06142e-07 3.64021e-07 1.6169e-05
0.00054441 -8.99765e-06 1.57536e-06
-8.99765e-06 5.42519e-05 6.28807e-06
1.57536e-06 6.28807e-06 -5.53303e-05
0.00105669 -0.000157047 -1.58132e-06
-0.000157047 0.000419873 -1.15845e-06
-1.58132e-06 -1.15845e-06 0.000258682
0.000585346 -1.406e-05 -1.22305e-06
-1.406e-05 7.83001e-05 -3.35785e-07
-1.22305e-06 -3.35785e-07 -1.641e-05
0.000391325 4.87978e-05 2.59923e-06
4.87978e-05 -6.15547e-05 7.33915e-06
2.59923e-06 7.33915e-06 -9.98826e-05
0.000699621 -6.91152e-05 1.34872e-06
-6.91152e-05 0.000151667 -3.81343e-06
1.34872e-06 -3.81343e-06 6.19643e-05
0.000447849 2.66235e-07 -1.47277e-06
2.66235e-07 -3.72034e-05 -5.3294e-08
-1.47277e-06 -5.3294e-08 -6.8538e-05
0.00263586 9.19958e-05 -1.88818e-06
9.19958e-05 0.00134548 2.67121e-06
-1.88818e-06 2.67121e-06 0.00134962
0.000470368 -1.81679e-05 2.79471e-06
-1.81679e-05 -2.1445e-05 -6.33387e-06
2.79471e-06 -6.33387e-06 -5.08648e-05
0.00176824 4.60745e-05 1.76412e-05
4.60745e-05 0.000793065 -1.0428e-06
1.76412e-05 -1.0428e-06 0.00079777
0.00262636 4.07606e-05 2.45348e-05
4.07606e-05 0.00133607 -5.70087e-06
2.45348e-05 -5.70087e-06 0.00134744
0.000262318 2.37913e-05 2.11339e-06
2.37913e-05 -0.000110392 1.64184e-06
2.11339e-06 1.64184e-06 -0.00023284
0.000214741 1.06992e-05 1.67119e-06
1.06992e-05 -0.00016145 -2.49411e-06
1.67119e-06 -2.49411e-06 -0.000237193
0.000457144 3.74632e-05 -5.70103e-07
3.74632e-05 2.53069e-05 -1.26681e-06
-5.70103e-07 -1.26681e-06 -0.000101876
0.000483737 5.96215e-06 1.56468e-06
5.96215e-06 -2.34689e-05 -4.31304e-06
1.56468e-06 -4.31304e-06 -3.82781e-05
0.000187917 1.74186e-05 -6.29032e-07
1.74186e-05 -0.000177453 -1.76076e-06
-6.29032e-07 -1.76076e-06 -0.000244182
0.000664913 5.81061e-05 -1.22079e-07
5.81061e-05 0.000168287 1.21501e-06
-1.22079e-07 1.21501e-06 4.4822e-05
0.00208571 -1.77505e-05 -1.70863e-05
-1.77505e-05 0.000990893 -4.76511e-06
-1.70863e-05 -4.76511e-06 0.00100837
0.000463639 3.088e-06 -6.94148e-07
3.088e-06 -3.60027e-05 -7.2258e-08
-6.94148e-07 -7.2258e-08 -4.75447e-05
0.000104231 1.66382e-05 1.49708e-06
1.66382e-05 -0.000228087 1.79361e-06
1.49708e-06 1.79361e-06 -0.000286698
0.0020498 -3.03966e-06 -4.09934e-06
-3.03966e-06 0.000969398 5.09436e-08
-4.09934e-06 5.09436e-08 0.000987136
0.000445691 3.57458e-06 -1.76175e-06
3.57458e-06 -4.62109e-05 3.49732e-06
-1.76175e-06 3.49732e-06 -5.59619e-05
0.0020741 1.27668e-05 7.49452e-06
1.27668e-05 0.000986735 4.93439e-06
7.49452e-06 4.93439e-06 0.00100369
0.00047143 -4.8473e-05 0.000144656
-4.8473e-05 0.0024168 6.12722e-05
0.000144656 6.12722e-05 0.0016547
-0.000306636 -0.000412355 -5.55614e-05
-0.000412355 0.000421295 -9.27314e-06
-5.55614e-05 -9.27314e-06 -0.0035815
0.000195007 0.000724233 -5.60179e-05
0.000724233 0.00758235 -5.09776e-05
-5.60179e-05 -5.09776e-05 0.00295184
0.000776453 0.000136133 7.38941e-07
0.000136133 0.000214813 1.97173e-07
7.38941e-07 1.97173e-07 6.84884e-05
0.00017728 8.76774e-05 6.37832e-06
8.76774e-05 -0.000169687 5.07705e-06
6.37832e-06 5.07705e-06 -0.000303263
0.00111828 0.000200598 1.03614e-05
0.000200598 0.000431874 8.94861e-06
1.03614e-05 8.94861e-06 0.000282368
0.0063249 -0.000441294 -0.000114465
-0.000441294 -0.000365647 0.00022395
-0.000114465 0.00022395 -0.00151154
0.00520421 -0.00119038 0.000101935
-0.00119038 0.00295209 9.39367e-06
0.000101935 9.39367e-06 0.00143091
0.00463282 -0.00193716 0.000212175
-0.00193716 0.00193508 -0.000269047
0.000212175 -0.000269047 -0.00284159
0.00892036 -0.00290969 -6.98846e-06
-0.00290969 0.000141403 -3.59406e-05
-6.98846e-06 -3.59406e-05 0.00092189
0.00124842 -0.00354597 -0.000449312
-0.00354597 -0.00210441 9.30874e-05
-0.000449312 9.30874e-05 -0.00459958
0.0265634 0.00448027 0.000266919
0.00448027 0.0111468 0.000184212
0.000266919 0.000184212 0.00588784
0.00750254 -0.000229159 0.000317127
-0.000229159 -0.0025847 -0.000248979
0.000317127 -0.000248979 -0.00291475
0.00409511 -0.00291004 -2.94145e-05
-0.00291004 -0.000131258 1.77956e-05
-2.94145e-05 1.77956e-05 0.000407771
0.00733661 -0.00455833 -0.000130792
-0.00455833 0.00270144 2.07376e-05
-0.000130792 2.07376e-05 -0.00210826
-0.00145569 0.00387895 -9.26336e-05
0.00387895 0.00423371 -0.000322593
-9.26336e-05 -0.000322593 -0.000894644
0.0103907 1.48165e-05 -8.5642e-05
1.48165e-05 -0.0034662 0.000150058
-8.5642e-05 0.000150058 -0.000692734
0.00158502 -0.00211015 -0.000109022
-0.00211015 0.00113706 4.63062e-05
-0.000109022 4.63062e-05 0.00068144
0.010896 -0.00326897 -0.000316783
-0.00326897 0.00593727 0.000187622
-0.000316783 0.000187622 0.000746417
0.000394446 -0.000167889 6.02243e-05
-0.000167889 0.00261254 -0.000341564
6.02243e-05 -0.000341564 -0.00132713
0.00924017 -0.000733187 0.000128234
-0.000733187 -0.00194601 7.3847e-05
0.000128234 7.3847e-05 -0.00123925
0.000193008 0.000100947 9.76663e-06
0.000100947 -0.000102626 2.21076e-05
9.76663e-06 2.21076e-05 -0.000245846
0.000674274 -1.90071e-06 2.50276e-06
-1.90071e-06 0.000245063 -2.98408e-06
2.50276e-06 -2.98408e-06 2.1843e-05
0.000343598 -0.000164921 2.43549e-06
-0.000164921 -2.35434e-06 -1.14857e-05
2.43549e-06 -1.14857e-05 -0.000209403
0.000647426 0.000139518 -1.92439e-06
0.000139518 0.000131366 1.6896e-06
-1.92439e-06 1.6896e-06 -2.01696e-05
0.000764934 0.000147461 2.04687e-06
0.000147461 0.000268324 -6.79324e-06
2.04687e-06 -6.79324e-06 8.23583e-05
0.00116437 0.000199755 -4.47833e-06
0.000199755 0.000508959 -5.45895e-06
-4.47833e-06 -5.45895e-06 0.00032728
-0.000237203 -0.00109701 3.66226e-05
-0.00109701 -0.000949698 -1.6704e-05
3.66226e-05 -1.6704e-05 -0.00103728
0.000952938 -0.00039026 2.23746e-05
-0.00039026 0.000245276 -2.29622e-05
2.23746e-05 -2.29622e-05 0.00029157
8.88043e-05 8.75017e-05 -1.95196e-06
8.75017e-05 -8.34172e-05 -1.82505e-05
-1.95196e-06 -1.82505e-05 -0.00031089
0.00242277 -0.000486236 6.29791e-05
-0.000486236 0.00147182 -2.67202e-05
6.29791e-05 -2.67202e-05 0.00107277
0.00177784 -0.000141426 -4.69979e-07
-0.000141426 0.00106982 2.79464e-06
-4.69979e-07 2.79464e-06 0.000766195
-0.000148844 9.7464e-05 4.10592e-06
9.7464e-05 -0.000163857 4.21072e-06
4.10592e-06 4.21072e-06 -0.000384335
0.000514316 0.000102807 8.90089e-07
0.000102807 0.000362995 -5.27624e-07
8.90089e-07 -5.27624e-07 9.524e-05
0.000682037 -0.00127115 -3.89082e-05
-0.00127115 -4.49051e-06 1.85346e-06
-3.89082e-05 1.85346e-06 -0.000396904
0.000219163 -3.83563e-05 -5.67151e-06
-3.83563e-05 0.000520399 3.96219e-06
-5.67151e-06 3.96219e-06 -1.58213e-05
0.00102113 -0.00037891 -5.28228e-06
-0.00037891 0.000693703 -7.90192e-06
-5.28228e-06 -7.90192e-06 0.000301259
0.000580316 0.000163696 4.04805e-06
0.000163696 0.000387195 -1.15871e-05
4.04805e-06 -1.15871e-05 0.000140938
-0.00194468 -0.000303939 -4.9722e-05
-0.000303939 -9.27013e-05 -1.6455e-05
-4.9722e-05 -1.6455e-05 -0.00102093
0.000830526 -0.000235784 -3.12667e-05
-0.000235784 0.000957757 5.75662e-06
-3.12667e-05 5.75662e-06 0.000520446
-0.000786147 2.89772e-05 -1.30381e-05
2.89772e-05 4.94012e-05 3.68749e-06
-1.30381e-05 3.68749e-06 -0.000451527
-0.00018876 0.00022161 -1.19624e-05
0.00022161 -0.000596784 3.12175e-06
-1.19624e-05 3.12175e-06 -0.00191293
-0.00188182 0.00023245 6.48162e-05
0.00023245 0.00142013 -1.25007e-05
6.48162e-05 -1.25007e-05 0.00038034
-0.000497149 -0.000154798 0.000347802
-0.000154798 0.000630166 3.07874e-05
0.000347802 3.07874e-05 -0.00361113
0.000155049 0.00050967 3.73815e-06
0.00050967 0.000254636 1.74039e-05
3.73815e-06 1.74039e-05 -0.000173575
0.000256327 0.000826231 -2.3093e-05
0.000826231 0.000423096 -1.10428e-05
-2.3093e-05 -1.10428e-05 -0.000252335
-0.0024184 8.64895e-05 -4.88599e-05
8.64895e-05 0.000280597 -2.42347e-05
-4.88599e-05 -2.42347e-05 -0.000574023
-0.00484087 0.000718715 7.1082e-05
0.000718715 0.00267435 0.000196176
7.1082e-05 0.000196176 -0.0028342
-9.42676e-05 0.00113166 -0.000181362
0.00113166 -0.00153492 -0.000489054
-0.000181362 -0.000489054 -0.00628903
0.00387105 -1.11183e-05 9.00525e-05
-1.11183e-05 -0.000340725 9.15345e-05
9.00525e-05 9.15345e-05 -0.000484693
0.0069235 -4.19683e-05 -0.000313196
-4.19683e-05 -0.00243173 0.000248918
-0.000313196 0.000248918 -0.00295579
0.000189207 0.000369837 -7.19125e-07
0.000369837 0.000506973 -6.17224e-07
-7.19125e-07 -6.17224e-07 3.15749e-05
0.00109065 2.70151e-05 3.37656e-05
2.70151e-05 0.000321045 -1.06327e-05
3.37656e-05 -1.06327e-05 -0.000182707
0.00433834 -0.000921741 -9.79328e-05
-0.000921741 0.00293011 -5.4969e-07
-9.79328e-05 -5.4969e-07 0.00136033
-0.000500766 0.000699569 -0.000140622
0.000699569 0.00116566 -7.15507e-06
-0.000140622 -7.15507e-06 -0.000307348
0.0152187 0.00514215 -5.62225e-06
0.00514215 0.00366636 -0.000415248
-5.62225e-06 -0.000415248 0.000957846
0.000582371 0.00327036 8.59991e-05
0.00327036 0.0046344 0.000335056
8.59991e-05 0.000335056 -0.000669553
0.00511136 0.000767054 6.39417e-05
0.000767054 0.00586897 -2.05559e-05
6.39417e-05 -2.05559e-05 -0.0015182
0.00053503 -1.27854e-05 4.009e-05
-1.27854e-05 0.00141855 -2.64183e-05
4.009e-05 -2.64183e-05 0.000341757
1.24619e-05 -0.000148411 -0.000129688
-0.000148411 0.00255 3.54368e-06
-0.000129688 3.54368e-06 0.00160334
0.00187674 -0.000932795 0.000735779
-0.000932795 0.000653633 -0.000262834
0.000735779 -0.000262834 -0.00433379
0.0200602 0.00765383 -7.7131e-05
0.00765383 0.0135781 -7.4535e-06
-7.7131e-05 -7.4535e-06 0.00982995
0.0072615 0.00388393 -0.000101896
0.00388393 0.00218724 0.000834864
-0.000101896 0.000834864 -0.00227685
0.0119571 -0.00358831 0.000296905
-0.00358831 0.00616326 -0.000242633
0.000296905 -0.000242633 0.000250925
0.00352435 -0.00078549 -6.8213e-05
-0.00078549 0.0033008 3.55556e-05
-6.8213e-05 3.55556e-05 0.00234369
0.000755068 0.000242586 -5.00898e-06
0.000242586 0.000817101 2.75565e-06
-5.00898e-06 2.75565e-06 0.000380582
-1.88296e-05 -5.83954e-05 -6.68042e-06
-5.83954e-05 0.000437788 -3.72663e-06
-6.68042e-06 -3.72663e-06 8.43251e-06
0.00125404 -0.000531798 4.24662e-05
-0.000531798 0.000945364 -1.31012e-05
4.24662e-05 -1.31012e-05 0.000416252
0.000342101 -7.79159e-05 -1.61077e-06
-7.79159e-05 0.00028111 4.80586e-06
-1.61077e-06 4.80586e-06 6.38407e-05
-7.11295e-05 -6.02255e-05 -7.51256e-07
-6.02255e-05 0.000278587 -1.42071e-05
-7.51256e-07 -1.42071e-05 -0.000128763
0.000517203 -0.000309701 -4.56511e-06
-0.000309701 0.000563737 3.77671e-07
-4.56511e-06 3.77671e-07 0.00020909
0.00105214 -0.000620576 2.18846e-05
-0.000620576 0.000431957 -1.77043e-05
2.18846e-05 -1.77043e-05 0.000130725
0.00210203 -0.000386096 9.62583e-08
-0.000386096 0.0010898 4.55159e-07
9.62583e-08 4.55159e-07 0.000865773
0.00159992 -0.000641068 1.51909e-05
-0.000641068 0.000711774 -2.77825e-06
1.51909e-05 -2.77825e-06 0.000305302
0.00104897 -0.000576416 8.03531e-06
-0.000576416 0.000393676 1.80703e-06
8.03531e-06 1.80703e-06 -0.000250916
0.000641015 -0.00036048 -5.87581e-06
-0.00036048 6.63623e-05 -6.55957e-06
-5.87581e-06 -6.55957e-06 -0.000144767
0.00204109 -0.000652839 -2.91251e-06
-0.000652839 0.000748107 -1.50241e-06
-2.91251e-06 -1.50241e-06 0.000267506
0.00204074 -0.000801196 -9.68582e-06
-0.000801196 0.000638677 -7.76598e-07
-9.68582e-06 -7.76598e-07 5.89752e-05
0.00198527 -0.000865639 -1.26907e-05
-0.000865639 0.000455148 2.28164e-06
-1.26907e-05 2.28164e-06 -5.48175e-05
0.00184202 -0.000734249 -3.90543e-06
-0.000734249 0.000531583 1.0538e-07
-3.90543e-06 1.0538e-07 7.24173e-05
0.00168232 -0.000674183 -4.5714e-06
-0.000674183 0.000457814 1.06871e-06
-4.5714e-06 1.06871e-06 -2.86858e-06
0.00124707 -0.000502992 4.26903e-07
-0.000502992 0.000316779 -6.13298e-06
4.26903e-07 -6.13298e-06 -6.51004e-05
0.0014666 -0.00052218 8.83174e-06
-0.00052218 0.000419236 -2.25045e-06
8.83174e-06 -2.25045e-06 5.2229e-05
0.00159838 -0.000581439 6.22241e-06
-0.000581439 0.000428591 -1.84494e-06
6.22241e-06 -1.84494e-06 3.16554e-05
0.000911736 -0.000261713 9.94897e-07
-0.000261713 0.000182353 -6.13878e-07
9.94897e-07 -6.13878e-07 -6.82469e-05
0.0010887 -0.000404614 5.29332e-06
-0.000404614 0.000218069 -4.52803e-06
5.29332e-06 -4.52803e-06 -8.77405e-05
0.000318325 -0.000392989 -1.54477e-06
-0.000392989 -0.000311008 -8.50896e-06
-1.54477e-06 -8.50896e-06 -0.000659197
5.0674e-05 -7.02781e-05 2.01214e-07
-7.02781e-05 -0.000191581 -3.23188e-06
2.01214e-07 -3.23188e-06 -0.000448234
0.00104496 -0.000228922 -3.03982e-07
-0.000228922 0.000403018 6.53744e-07
-3.03982e-07 6.53744e-07 0.000134997
0.00044477 -0.000305778 -3.84231e-06
-0.000305778 -5.96059e-05 -1.66381e-06
-3.84231e-06 -1.66381e-06 -0.000323895
0.000585612 -5.13247e-05 -6.47659e-08
-5.13247e-05 7.43255e-05 7.25488e-06
-6.47659e-08 7.25488e-06 -5.26082e-05
0.000770626 -0.000116386 -3.99995e-07
-0.000116386 0.0002328 -4.36025e-08
-3.99995e-07 -4.36025e-08 2.54929e-05
-3.82326e-05 -0.00010946 1.22867e-07
-0.00010946 -0.000193757 4.71271e-06
1.22867e-07 4.71271e-06 -0.0004502
0.00116815 -0.000148243 1.83297e-07
-0.000148243 0.000483759 -6.96181e-07
1.83297e-07 -6.96181e-07 0.000304489
0.000608064 -5.41007e-05 -3.21929e-07
-5.41007e-05 9.25192e-05 -3.41644e-07
-3.21929e-07 -3.41644e-07 -1.95531e-05
0.000339823 2.29148e-05 2.02926e-06
2.29148e-05 -8.90034e-05 9.60252e-06
2.02926e-06 9.60252e-06 -0.000133631
0.000672814 -6.09986e-05 1.89839e-07
-6.09986e-05 0.000130812 -4.7764e-06
1.89839e-07 -4.7764e-06 3.44031e-05
0.000470703 1.29221e-05 -3.08903e-06
1.29221e-05 -1.7969e-05 -2.76172e-07
-3.08903e-06 -2.76172e-07 -5.35491e-05
0.00281278 9.82026e-05 -3.91263e-05
9.82026e-05 0.00146421 4.79123e-06
-3.91263e-05 4.79123e-06 0.00146812
0.000492616 -9.75888e-06 2.68622e-06
-9.75888e-06 -1.16565e-05 -6.47398e-06
2.68622e-06 -6.47398e-06 -4.21406e-05
0.00177959 6.30984e-05 2.07779e-05
6.30984e-05 0.000802519 -7.2269e-07
2.07779e-05 -7.2269e-07 0.00080464
0.00271594 6.02623e-05 3.03012e-05
6.02623e-05 0.00139355 -5.34936e-06
3.03012e-05 -5.34936e-06 0.001403
0.000816163 0.000104329 5.1938e-06
0.000104329 0.000249385 9.46974e-07
5.1938e-06 9.46974e-07 0.000108513
0.000509637 4.8774e-05 2.48073e-06
4.8774e-05 2.55079e-05 -1.99953e-06
2.48073e-06 -1.99953e-06 -5.65143e-05
0.000454939 5.00126e-05 -8.06308e-07
5.00126e-05 2.59369e-05 -1.36818e-06
-8.06308e-07 -1.36818e-06 -0.000108512
0.000477823 6.48988e-06 1.05501e-06
6.48988e-06 -2.73192e-05 -5.26573e-06
1.05501e-06 -5.26573e-06 -4.67405e-05
0.000319206 4.00158e-05 -2.34148e-06
4.00158e-05 -9.41724e-05 -1.87568e-06
-2.34148e-06 -1.87568e-06 -0.000169398
0.000658198 8.05643e-05 -1.41131e-06
8.05643e-05 0.000156081 -3.42886e-06
-1.41131e-06 -3.42886e-06 2.80117e-05
0.00217645 -3.32478e-05 -2.08603e-05
-3.32478e-05 0.0010482 -4.83424e-06
-2.08603e-05 -4.83424e-06 0.0010644
0.000457813 -1.8362e-06 1.0643e-07
-1.8362e-06 -4.08489e-05 -1.37273e-07
1.0643e-07 -1.37273e-07 -5.50532e-05
0.00012277 1.51457e-05 -1.68357e-06
1.51457e-05 -0.000219075 1.81406e-07
-1.68357e-06 1.81406e-07 -0.000286974
0.00212304 -1.71614e-05 -5.5345e-06
-1.71614e-05 0.00101471 1.28965e-07
-5.5345e-06 1.28965e-07 0.00103206
0.000456205 -4.16338e-07 -2.69921e-06
-4.16338e-07 -4.10877e-05 3.65195e-06
-2.69921e-06 3.65195e-06 -5.23368e-05
0.00208597 -1.56349e-06 1.24146e-05
-1.56349e-06 0.000992339 4.92263e-06
1.24146e-05 4.92263e-06 0.0010099
0.00156109 -0.000269951 -6.7779e-05
-0.000269951 0.000266047 3.43342e-05
-6.7779e-05 3.43342e-05 -0.000278216
-0.000817672 -0.000206711 7.11393e-05
-0.000206711 0.00203191 -3.96993e-06
7.11393e-05 -3.96993e-06 0.00105478
-0.000924416 -0.000383361 0.000158952
-0.000383361 0.000716428 -0.000159656
0.000158952 -0.000159656 -0.00378571
0.000130772 5.03854e-05 3.73084e-06
5.03854e-05 -0.000180459 7.0348e-06
3.73084e-06 7.0348e-06 -0.000331648
0.00243952 0.000104622 2.64739e-06
0.000104622 0.00126088 5.33865e-06
2.64739e-06 5.33865e-06 0.00107874
0.000748003 0.000154142 -4.00352e-06
0.000154142 0.000205136 -5.95162e-06
-4.00352e-06 -5.95162e-06 5.97413e-05
0.000330262 7.79165e-05 9.42463e-07
7.79165e-05 -8.34747e-05 1.05296e-06
9.42463e-07 1.05296e-06 -0.000210455
0.000368193 9.09785e-05 5.53014e-07
9.09785e-05 -5.63188e-05 -1.06144e-06
5.53014e-07 -1.06144e-06 -0.000178452
0.000342478 8.91317e-05 7.86507e-06
8.91317e-05 -6.19331e-05 1.6413e-06
7.86507e-06 1.6413e-06 -0.000185454
0.000199302 0.000124185 1.48832e-05
0.000124185 -0.000114525 6.85076e-06
1.48832e-05 6.85076e-06 -0.000237989
0.00196779 0.00108412 0.000228176
0.00108412 -0.000440979 0.000249661
0.000228176 0.000249661 -0.00182301
0.0051892 -0.000280059 -5.56327e-05
-0.000280059 -0.000185714 5.4878e-05
-5.56327e-05 5.4878e-05 -0.00118253
0.00414918 -0.000758214 0.000231786
-0.000758214 0.00287985 -0.000113363
0.000231786 -0.000113363 0.00148996
0.00827816 -0.00017281 -7.19433e-07
-0.00017281 -0.00577509 0.000185068
-7.19433e-07 0.000185068 -0.00222385
0.00522498 -0.00312484 -0.000126279
-0.00312484 0.000706014 3.9552e-05
-0.000126279 3.9552e-05 0.000971135
0.00120731 -0.00418366 -0.000286642
-0.00418366 0.00153908 9.40481e-05
-0.000286642 9.40481e-05 -0.00424471
0.0160048 0.00437611 0.000138273
0.00437611 0.00733451 -0.000165869
0.000138273 -0.000165869 0.00260033
0.00238931 -0.00249939 -5.87534e-05
-0.00249939 0.000178944 2.35134e-05
-5.87534e-05 2.35134e-05 0.000473185
-0.00129321 -0.000915889 -5.47553e-05
-0.000915889 0.00404678 5.29064e-05
-5.47553e-05 5.29064e-05 -0.00311286
0.00894589 0.000571624 0.000214198
0.000571624 0.00355364 -2.9768e-05
0.000214198 -2.9768e-05 -7.23504e-05
0.0157577 -0.00202608 -7.75834e-05
-0.00202608 0.00204145 -1.58589e-05
-7.75834e-05 -1.58589e-05 0.00325694
-0.0010278 -0.000612285 -0.00017934
-0.000612285 0.000583269 0.000150092
-0.00017934 0.000150092 0.000453827
0.00309798 0.00212046 -0.000199792
0.00212046 0.00538321 -0.000103439
-0.000199792 -0.000103439 -0.00194178
-0.00133678 -0.00539401 2.76573e-06
-0.00539401 -0.000243048 -0.00024817
2.76573e-06 -0.00024817 -0.0054484
0.0141934 -0.00297146 0.000142126
-0.00297146 0.00412992 -0.000650568
0.000142126 -0.000650568 0.00235937
0.000651635 2.06006e-05 1.66477e-05
2.06006e-05 0.000362816 1.37186e-06
1.66477e-05 1.37186e-06 0.000119647
0.000807667 0.000184131 -1.38121e-06
0.000184131 0.000308242 -3.98777e-06
-1.38121e-06 -3.98777e-06 0.0001481
0.000914794 -1.7481e-05 -1.01898e-06
-1.7481e-05 0.000414047 -5.33553e-06
-1.01898e-06 -5.33553e-06 0.000164629
0.00100404 0.00015789 -5.33625e-06
0.00015789 0.000380667 -1.14135e-05
-5.33625e-06 -1.14135e-05 0.000208977
0.000459773 -0.00109741 3.69081e-05
-0.00109741 -4.73562e-05 3.12945e-05
3.69081e-05 3.12945e-05 -0.000497369
0.00258687 -0.00036096 5.80069e-06
-0.00036096 0.00163072 -2.75719e-05
5.80069e-06 -2.75719e-05 0.00115664
0.000954073 0.000108228 -1.41451e-05
0.000108228 0.000507592 -1.93218e-05
-1.41451e-05 -1.93218e-05 0.000310008
0.00068708 4.35982e-05 -1.41928e-07
4.35982e-05 0.000450555 -8.3811e-06
-1.41928e-07 -8.3811e-06 0.000203091
0.000390784 -2.75249e-05 -2.75887e-06
-2.75249e-05 0.000612426 1.51972e-05
-2.75887e-06 1.51972e-05 0.000147276
0.000372389 7.85519e-05 2.16598e-06
7.85519e-05 0.000198941 4.04115e-06
2.16598e-06 4.04115e-06 -6.27536e-07
8.84217e-05 1.84777e-05 1.68775e-06
1.84777e-05 0.000523551 1.17374e-06
1.68775e-06 1.17374e-06 3.11652e-05
0.000704887 -0.000448709 -3.70628e-06
-0.000448709 0.00121474 5.7645e-06
-3.70628e-06 5.7645e-06 9.66437e-06
0.000329123 -0.000129385 9.10421e-06
-0.000129385 0.000847174 -1.04921e-06
9.10421e-06 -1.04921e-06 0.000399864
-0.000648542 0.000107086 2.77348e-06
0.000107086 -0.000219858 -1.46245e-05
2.77348e-06 -1.46245e-05 -0.000473373
0.0018136 1.96538e-05 -0.000113371
1.96538e-05 0.00356636 -2.56211e-05
-0.000113371 -2.56211e-05 0.00169854
0.000862416 0.000332653 -2.70907e-05
0.000332653 0.00112306 8.9557e-06
-2.70907e-05 8.9557e-06 0.000570834
-0.00199218 5.74831e-05 -8.33971e-05
5.74831e-05 0.00173622 -2.13165e-05
-8.33971e-05 -2.13165e-05 0.00060342
0.000981517 7.21811e-05 1.68713e-05
7.21811e-05 -2.38639e-05 6.74885e-06
1.68713e-05 6.74885e-06 -0.000604226
-0.00287877 0.00031932 -2.13717e-05
0.00031932 0.000997101 -6.43972e-05
-2.13717e-05 -6.43972e-05 -7.22399e-05
0.000303791 0.00028872 -2.51657e-05
0.00028872 0.000662275 6.52234e-06
-2.51657e-05 6.52234e-06 0.000276211
-0.00136734 0.000833184 0.000146262
0.000833184 4.1881e-05 0.000109456
0.000146262 0.000109456 -0.000750036
0.000725255 3.51405e-05 6.74021e-05
3.51405e-05 0.000250912 -7.15999e-06
6.74021e-05 -7.15999e-06 -2.4757e-05
0.00560068 -0.0022058 0.000250964
-0.0022058 0.00579762 -0.000182323
0.000250964 -0.000182323 -0.00256723
0.0186078 0.00377129 -0.000180849
0.00377129 0.00812867 0.00016056
-0.000180849 0.00016056 0.00341731
0.00329789 -0.000676675 -0.000208181
-0.000676675 0.00222901 0.00011465
-0.000208181 0.00011465 0.000979458
0.0132908 0.00470991 -9.15654e-05
0.00470991 0.00557376 -0.000227199
-9.15654e-05 -0.000227199 0.00254742
0.000461644 0.000223619 -5.6518e-05
0.000223619 0.00122421 1.41942e-05
-5.6518e-05 1.41942e-05 0.00019958
5.71159e-06 -0.000223245 -8.08023e-05
-0.000223245 0.00203356 1.12337e-06
-8.08023e-05 1.12337e-06 0.00134839
0.0031979 -0.00147501 0.000278965
-0.00147501 0.00157151 -3.93789e-05
0.000278965 -3.93789e-05 -0.0032477
-0.00280553 -0.00011853 4.80999e-05
-0.00011853 -0.000497325 3.16992e-05
4.80999e-05 3.16992e-05 -0.000961686
0.0141366 0.00868233 0.000625548
0.00868233 0.0100917 -0.000270852
0.000625548 -0.000270852 0.00641826
0.00836601 0.00307047 -0.000160467
0.00307047 0.003634 0.000371771
-0.000160467 0.000371771 -0.00096897
-0.00296788 -0.00122226 0.000173233
-0.00122226 0.00283581 -0.00014261
0.000173233 -0.00014261 -0.00479682
-0.000967508 -0.00040209 1.43438e-05
-0.00040209 0.00047496 -2.91512e-05
1.43438e-05 -2.91512e-05 -0.000565067
0.000355464 -0.00079501 0.000296639
-0.00079501 -0.000166892 -7.40222e-05
0.000296639 -7.40222e-05 -0.00347145
-0.000566441 0.000677113 -0.00123254
0.000677113 0.00710471 0.000325816
-0.00123254 0.000325816 0.00299686
0.0187386 0.00699132 -0.000566828
0.00699132 0.00599007 0.000539458
-0.000566828 0.000539458 0.0017337
0.00771385 -0.00350266 -0.000172586
-0.00350266 0.00335873 5.65473e-05
-0.000172586 5.65473e-05 -0.000273315
0.00271431 -0.00154269 2.9166e-05
-0.00154269 0.00268477 1.62333e-06
2.9166e-05 1.62333e-06 0.00179899
0.000273982 -5.50419e-05 4.35955e-06
-5.50419e-05 0.000552718 -5.29773e-06
4.35955e-06 -5.29773e-06 0.00010207
3.11522e-05 -0.000376564 2.36755e-06
-0.000376564 0.000364216 -1.44479e-06
2.36755e-06 -1.44479e-06 -0.000188182
-6.49974e-05 -0.000659478 -7.00021e-07
-0.000659478 8.19535e-06 -6.51589e-08
-7.00021e-07 -6.51589e-08 -0.000301506
-0.000411446 -0.000222393 6.11015e-07
-0.000222393 0.000130287 7.66677e-06
6.11015e-07 7.66677e-06 -0.000234849
-0.0006429 -0.000388694 1.84076e-06
-0.000388694 -0.000370527 3.26269e-07
1.84076e-06 3.26269e-07 -0.000657103
0.00305376 -0.000904752 3.78551e-05
-0.000904752 0.00128423 -1.45515e-05
3.78551e-05 -1.45515e-05 0.000884486
0.00647154 -0.0012248 -1.26751e-05
-0.0012248 0.0033931 -1.68539e-06
-1.26751e-05 -1.68539e-06 0.00290561
0.00280994 -0.000810362 1.01099e-05
-0.000810362 0.0012795 -2.67424e-06
1.01099e-05 -2.67424e-06 0.000640558
0.00175449 -0.000843429 5.44834e-06
-0.000843429 0.000433582 -1.70616e-05
5.44834e-06 -1.70616e-05 -0.000204073
0.00218086 -0.000664608 -1.01026e-05
-0.000664608 0.000800795 -6.96779e-06
-1.01026e-05 -6.96779e-06 0.000332048
0.00223474 -0.000832349 1.73687e-06
-0.000832349 0.000731911 -1.80515e-06
1.73687e-06 -1.80515e-06 0.000140568
0.00262865 -0.000953677 -2.95277e-06
-0.000953677 0.000847117 -1.12799e-05
-2.95277e-06 -1.12799e-05 0.000262589
0.00216186 -0.000762011 -5.64536e-06
-0.000762011 0.000380514 -4.4303e-06
-5.64536e-06 -4.4303e-06 -1.96865e-05
0.0025005 -0.000922072 -8.97207e-06
-0.000922072 0.000717625 1.60716e-06
-8.97207e-06 1.60716e-06 0.000224555
0.0023201 -0.000908149 -2.9299e-06
-0.000908149 0.00063676 1.16169e-08
-2.9299e-06 1.16169e-08 0.000114422
0.00174078 -0.000697684 7.6618e-06
-0.000697684 0.000499414 -3.49145e-06
7.6618e-06 -3.49145e-06 6.8142e-05
0.00155253 -0.000687526 2.85817e-06
-0.000687526 0.000366119 -9.30962e-07
2.85817e-06 -9.30962e-07 -7.5061e-05
0.00150931 -0.000653202 5.73925e-06
-0.000653202 0.000344318 -2.44849e-07
5.73925e-06 -2.44849e-07 -0.000114623
0.00165955 -0.000476091 8.6725e-06
-0.000476091 0.000574723 4.77275e-06
8.6725e-06 4.77275e-06 0.000241845
0.00145266 -0.000517662 -1.39349e-06
-0.000517662 0.000415348 -2.20442e-06
-1.39349e-06 -2.20442e-06 4.7085e-05
0.00157578 -0.000586092 6.40829e-06
-0.000586092 0.000417473 2.19164e-06
6.40829e-06 2.19164e-06 2.03886e-05
0.0012189 -0.000222314 1.28549e-06
-0.000222314 0.000467563 -4.83062e-06
1.28549e-06 -4.83062e-06 0.000196992
0.000780258 -0.00026072 -3.51108e-06
-0.00026072 0.000125883 2.42043e-06
-3.51108e-06 2.42043e-06 -0.000121475
0.000884512 -0.000389559 -5.39199e-07
-0.000389559 9.33131e-05 -1.18611e-05
-5.39199e-07 -1.18611e-05 -0.000208016
-8.36442e-06 -6.8891e-05 -1.84499e-06
-6.8891e-05 -0.000285906 4.78577e-06
-1.84499e-06 4.78577e-06 -0.000452534
0.000764102 -0.000133165 2.53039e-07
-0.000133165 0.000249779 9.13563e-07
2.53039e-07 9.13563e-07 -1.012e-05
0.00082831 -0.000273594 3.76803e-06
-0.000273594 0.000298026 1.8839e-06
3.76803e-06 1.8839e-06 1.68001e-05
0.000346237 -1.24723e-05 -5.96602e-06
-1.24723e-05 -9.64746e-05 1.45411e-05
-5.96602e-06 1.45411e-05 -0.000145265
0.000669323 -7.21415e-05 7.92268e-07
-7.21415e-05 0.00012006 1.53571e-07
7.92268e-07 1.53571e-07 -7.70003e-06
0.00138585 -0.000195472 -1.48919e-06
-0.000195472 0.000612072 1.97102e-06
-1.48919e-06 1.97102e-06 0.000400268
0.000679419 -6.2986e-05 -1.22392e-07
-6.2986e-05 0.000134906 -5.64622e-06
-1.22392e-07 -5.64622e-06 2.14711e-05
0.000436414 1.05195e-05 -5.54231e-07
1.05195e-05 -3.4116e-05 -4.89728e-07
-5.54231e-07 -4.89728e-07 -7.67786e-05
0.00294729 0.000124123 -3.94672e-05
0.000124123 0.0015589 4.74654e-06
-3.94672e-05 4.74654e-06 0.00155668
0.000516537 1.294e-06 1.93613e-06
1.294e-06 6.57161e-06 -7.83438e-06
1.93613e-06 -7.83438e-06 -2.7252e-05
0.00279098 0.000100659 4.91139e-06
0.000100659 0.0014507 5.73803e-07
4.91139e-06 5.73803e-07 0.0014542
0.00268615 7.93247e-05 3.32546e-05
7.93247e-05 0.00137769 -4.89266e-06
3.32546e-05 -4.89266e-06 0.00138517
0.00104118 9.65285e-05 3.9023e-06
9.65285e-05 0.000482219 -3.17218e-06
3.9023e-06 -3.17218e-06 0.000260198
0.00108501 0.000142744 6.92535e-06
0.000142744 0.000461229 -1.67939e-07
6.92535e-06 -1.67939e-07 0.000279192
0.000556885 3.95224e-05 3.90584e-06
3.95224e-05 5.12307e-05 -3.76725e-06
3.90584e-06 -3.76725e-06 -4.04984e-05
0.000592995 0.000107843 1.98373e-07
0.000107843 0.000108928 -2.64725e-07
1.98373e-07 -2.64725e-07 -2.88019e-05
0.000457835 2.98506e-07 1.29774e-06
2.98506e-07 -3.70686e-05 -6.47158e-06
1.29774e-06 -6.47158e-06 -6.16941e-05
0.000524721 5.14342e-05 2.48311e-07
5.14342e-05 3.52382e-05 -1.84276e-07
2.48311e-07 -1.84276e-07 -4.6811e-05
0.000564987 5.5647e-05 -5.00127e-06
5.5647e-05 8.09071e-05 -2.59238e-06
-5.00127e-06 -2.59238e-06 -4.44382e-05
0.0023149 -4.93822e-05 -2.69421e-05
-4.93822e-05 0.00113734 -5.01225e-06
-2.69421e-05 -5.01225e-06 0.00115127
0.000467143 1.40407e-06 -7.89906e-07
1.40407e-06 -3.3545e-05 -1.58913e-07
-7.89906e-07 -1.58913e-07 -5.24599e-05
0.000465316 5.69162e-05 -3.79732e-06
5.69162e-05 -6.0416e-07 -1.02586e-07
-3.79732e-06 -1.02586e-07 -7.5422e-05
0.00217983 -3.26242e-05 -4.81344e-06
-3.26242e-05 0.00105032 2.37477e-07
-4.81344e-06 2.37477e-07 0.00106659
0.000467051 -8.97598e-07 -2.7425e-06
-8.97598e-07 -3.57058e-05 4.00274e-06
-2.7425e-06 4.00274e-06 -4.95317e-05
0.00211679 -1.65989e-05 1.63752e-05
-1.65989e-05 0.00101062 4.78217e-06
1.63752e-05 4.78217e-06 0.00102798
-0.00245439 0.000252481 -1.49922e-05
0.000252481 0.000405032 -4.84975e-05
-1.49922e-05 -4.84975e-05 -0.00013149
0.00161998 -0.000216787 -1.54915e-05
-0.000216787 0.000500924 1.51989e-06
-1.54915e-05 1.51989e-06 0.00014355
-5.27837e-05 -0.000225142 9.48129e-06
-0.000225142 0.00186857 -4.01141e-05
9.48129e-06 -4.01141e-05 0.00109014
0.000800705 0.000104463 2.58171e-07
0.000104463 0.000289072 -3.18449e-07
2.58171e-07 -3.18449e-07 9.89537e-05
0.000127504 8.95621e-05 6.19045e-06
8.95621e-05 -0.000172749 -2.09827e-06
6.19045e-06 -2.09827e-06 -0.000343981
-0.00166274 -1.11254e-05 -1.18359e-06
-1.11254e-05 -0.00130749 -9.97782e-06
-1.18359e-06 -9.97782e-06 -0.00146378
-0.000978908 1.58164e-05 -5.61717e-07
1.58164e-05 -0.000827562 1.73167e-05
-5.61717e-07 1.73167e-05 -0.000990194
0.00284917 0.000398258 -3.71231e-07
0.000398258 0.00154217 -3.7612e-07
-3.71231e-07 -3.7612e-07 0.00127052
0.00108162 4.59386e-05 -6.25489e-06
4.59386e-05 0.000378017 -5.10173e-06
-6.25489e-06 -5.10173e-06 0.000250549
0.000478564 0.000110202 -1.03573e-05
0.000110202 1.41591e-05 -1.04483e-05
-1.03573e-05 -1.04483e-05 -0.000104517
0.000856032 5.78363e-05 7.07388e-07
5.78363e-05 0.000258023 -4.57754e-07
7.07388e-07 -4.57754e-07 0.000135155
0.00103593 0.000172698 -1.10375e-06
0.000172698 0.000393709 -2.97405e-06
-1.10375e-06 -2.97405e-06 0.000267056
0.00110288 0.000136402 8.88423e-06
0.000136402 0.00059015 -1.74776e-05
8.88423e-06 -1.74776e-05 0.000358096
0.005775 0.00106059 0.000422547
0.00106059 0.00414525 0.000507258
0.000422547 0.000507258 -0.000631267
0.002446 0.000867544 2.21822e-05
0.000867544 0.000127871 9.02862e-05
2.21822e-05 9.02862e-05 -0.00149332
0.00455319 -0.000212986 5.16937e-05
-0.000212986 -0.000224964 -1.98015e-05
5.16937e-05 -1.98015e-05 -0.000758028
0.0141432 -0.00162333 -0.00028415
-0.00162333 0.0021473 -0.000133026
-0.00028415 -0.000133026 0.00383939
-0.00303782 0.00130027 6.99859e-05
0.00130027 -0.00228399 0.000423698
6.99859e-05 0.000423698 -0.00703303
0.00180972 -0.00244825 -5.61917e-05
-0.00244825 0.000444484 -3.66025e-05
-5.61917e-05 -3.66025e-05 0.000509322
0.00812061 -0.00217963 -0.000150838
-0.00217963 0.00525856 3.92472e-05
-0.000150838 3.92472e-05 -5.44072e-05
0.000782155 -0.00104353 -0.000101112
-0.00104353 0.00087433 0.00011589
-0.000101112 0.00011589 0.000504474
0.00982817 -5.52425e-05 -0.00017204
-5.52425e-05 0.00668217 1.5652e-06
-0.00017204 1.5652e-06 4.88519e-05
0.00578325 -0.00267917 9.53856e-05
-0.00267917 0.00382782 0.000197195
9.53856e-05 0.000197195 -0.0012533
0.0174759 -0.00437463 -0.000120707
-0.00437463 0.0034673 -0.0007525
-0.000120707 -0.0007525 0.00109817
0.00250549 6.01958e-05 -0.000151802
6.01958e-05 0.00297669 0.000115534
-0.000151802 0.000115534 0.00178261
0.0129785 0.00270013 -0.000222443
0.00270013 0.00743414 -1.66694e-06
-0.000222443 -1.66694e-06 0.0021382
0.0200392 -0.00694682 -0.000117006
-0.00694682 0.0102349 -0.000747598
-0.000117006 -0.000747598 0.00518645
0.0236755 -0.00894526 8.97475e-05
-0.00894526 0.00973519 -7.3485e-05
8.97475e-05 -7.3485e-05 0.0064391
0.000861319 0.000303115 1.66161e-05
0.000303115 0.000517945 -6.75102e-06
1.66161e-05 -6.75102e-06 0.000188838
-6.17048e-05 4.70465e-05 3.83111e-06
4.70465e-05 3.8904e-06 2.27513e-06
3.83111e-06 2.27513e-06 -0.000290067
0.000995275 0.000189652 -1.58097e-05
0.000189652 0.000442676 -1.7188e-05
-1.58097e-05 -1.7188e-05 0.000267312
0.00237496 -0.000643581 4.70493e-05
-0.000643581 0.00169995 2.08171e-05
4.70493e-05 2.08171e-05 0.000268007
-0.000182894 -0.000113674 2.78522e-05
-0.000113674 0.000741672 -3.36636e-05
2.78522e-05 -3.36636e-05 0.000226943
-5.22397e-05 7.25235e-05 -6.52144e-06
7.25235e-05 -6.34094e-05 -5.62674e-07
-6.52144e-06 -5.62674e-07 -0.000256609
-0.000438787 -4.70274e-05 1.65901e-05
-4.70274e-05 0.00025055 -4.32327e-06
1.65901e-05 -4.32327e-06 -0.000277479
-3.28104e-05 0.000128527 -8.29055e-07
0.000128527 0.000120346 -6.619e-07
-8.29055e-07 -6.619e-07 -0.000142264
0.000243001 0.000318144 1.53954e-05
0.000318144 0.000624537 2.35515e-06
1.53954e-05 2.35515e-06 5.64746e-05
-0.00222305 -5.36281e-05 0.000254331
-5.36281e-05 0.000950934 -2.63609e-05
0.000254331 -2.63609e-05 -0.000972369
-0.00078366 0.00041139 -1.09771e-06
0.00041139 -0.000402756 1.21846e-05
-1.09771e-06 1.21846e-05 -0.000791347
0.00276363 0.000956234 -0.000146471
0.000956234 0.00220808 -8.79706e-05
-0.000146471 -8.79706e-05 0.000750113
0.00118871 0.000182957 0.000193219
0.000182957 0.00173358 6.62877e-05
0.000193219 6.62877e-05 -0.00251441
-0.00230808 0.000214673 -7.03231e-05
0.000214673 0.00147109 1.4115e-05
-7.03231e-05 1.4115e-05 0.000217915
0.00250111 -0.000255695 -3.27173e-05
-0.000255695 0.000787684 -3.32456e-06
-3.27173e-05 -3.32456e-06 0.000854314
-0.000504042 0.000528354 0.000119279
0.000528354 0.000527524 1.32578e-05
0.000119279 1.32578e-05 -0.000564036
0.00126637 0.000309244 -0.000107985
0.000309244 0.002478 0.000102383
-0.000107985 0.000102383 0.00103806
-0.00035083 -0.000262052 -7.88532e-06
-0.000262052 0.00173625 -1.23683e-05
-7.88532e-06 -1.23683e-05 0.000853333
0.0165244 -0.00425196 0.000239665
-0.00425196 0.00849096 -0.000114676
0.000239665 -0.000114676 0.00218766
0.0235147 0.00496397 -0.000186313
0.00496397 0.010831 -0.000165189
-0.000186313 -0.000165189 0.00554647
0.00509314 -0.00169877 -0.00028957
-0.00169877 0.00260594 0.000263904
-0.00028957 0.000263904 -0.00194626
0.00665008 0.00999818 0.00258097
0.00999818 0.00586439 -0.00159768
0.00258097 -0.00159768 0.00202064
0.00119067 -0.00054359 4.12607e-05
-0.00054359 0.00155818 -1.25659e-05
4.12607e-05 -1.25659e-05 0.00044144
-0.000342645 -0.000568854 4.85937e-05
-0.000568854 0.000449189 1.27566e-05
4.85937e-05 1.27566e-05 -0.00347232
0.000470466 0.001122 -0.00120995
0.001122 0.00676803 0.000336429
-0.00120995 0.000336429 0.00228293
0.000518172 -0.000869097 1.60282e-05
-0.000869097 0.0013207 3.09181e-05
1.60282e-05 3.09181e-05 0.00054346
0.01993 0.00643573 0.00036942
0.00643573 0.00648632 0.00010016
0.00036942 0.00010016 0.00210994
0.00759305 -0.00519061 0.000215211
-0.00519061 0.0025297 -7.9511e-05
0.000215211 -7.9511e-05 -0.00148389
0.000712015 -0.00128071 -2.4949e-06
-0.00128071 0.000625778 2.88518e-05
-2.4949e-06 2.88518e-05 -0.00025298
-0.00609142 -0.00183376 0.000153216
-0.00183376 0.00587986 -8.44989e-05
0.000153216 -8.44989e-05 0.00173781
0.0160352 0.00631555 -0.00162736
0.00631555 0.00630965 0.000522223
-0.00162736 0.000522223 0.00295075
0.0064109 -0.00385961 -0.000461557
-0.00385961 -0.000486626 0.00019406
-0.000461557 0.00019406 -0.00371467
0.000841622 -0.00201718 0.000190836
-0.00201718 -1.31709e-05 -0.000129032
0.000190836 -0.000129032 0.000900947
0.00117639 -0.000551694 -0.00010551
-0.000551694 0.000872552 3.42917e-05
-0.00010551 3.42917e-05 0.000376224
0.000740493 -0.000610955 -5.97487e-06
-0.000610955 0.000505912 1.15767e-05
-5.97487e-06 1.15767e-05 0.00013391
0.00308563 -0.000934757 1.66487e-05
-0.000934757 0.00140297 -1.53191e-05
1.66487e-05 -1.53191e-05 0.00099737
-0.00131912 -0.000203477 8.43316e-06
-0.000203477 -0.000577116 8.78227e-06
8.43316e-06 8.78227e-06 -0.000861843
0.0012924 -0.000678425 3.99268e-06
-0.000678425 0.000366748 -3.43406e-06
3.99268e-06 -3.43406e-06 -1.29173e-05
0.00326435 -0.00104387 8.62158e-06
-0.00104387 0.0010554 -2.94373e-06
8.62158e-06 -2.94373e-06 0.000636544
0.00425706 -0.000998193 -2.84807e-05
-0.000998193 0.00200851 1.68148e-06
-2.84807e-05 1.68148e-06 0.00137842
0.00141256 -0.000770146 -1.34286e-06
-0.000770146 0.000243573 -1.39667e-06
-1.34286e-06 -1.39667e-06 -0.00036834
0.00201872 -0.000966494 5.81173e-07
-0.000966494 0.00032228 -1.17231e-05
5.81173e-07 -1.17231e-05 -0.00016616
0.00286091 -0.000917998 3.54702e-06
-0.000917998 0.0010626 6.42119e-06
3.54702e-06 6.42119e-06 0.000454564
0.00222729 -0.000908136 1.69854e-06
-0.000908136 0.000601042 -4.3182e-06
1.69854e-06 -4.3182e-06 3.86559e-05
0.00256927 -0.000819186 -2.01386e-06
-0.000819186 0.000564 -9.80217e-06
-2.01386e-06 -9.80217e-06 0.000165719
0.00177172 -0.000528152 -4.68207e-06
-0.000528152 -1.30141e-06 -2.46848e-06
-4.68207e-06 -2.46848e-06 -0.000251968
0.00191811 -0.000761996 -1.16034e-06
-0.000761996 0.00018633 -1.66634e-06
-1.16034e-06 -1.66634e-06 -0.000212813
0.00218733 -0.000768264 3.09735e-06
-0.000768264 0.000385177 -2.74981e-06
3.09735e-06 -2.74981e-06 -1.45709e-05
0.0023359 -0.000812038 -4.38647e-06
-0.000812038 0.000684039 -7.06846e-07
-4.38647e-06 -7.06846e-07 0.000241252
0.0024616 -0.000916972 -3.14366e-06
-0.000916972 0.000704705 1.91793e-08
-3.14366e-06 1.91793e-08 0.000207241
0.00256846 -0.00094124 8.66307e-06
-0.00094124 0.000767276 -4.92254e-06
8.66307e-06 -4.92254e-06 0.000234114
0.0018996 -0.000613354 7.03483e-06
-0.000613354 0.000648891 3.40933e-08
7.03483e-06 3.40933e-08 0.000254378
0.00146699 -0.000656542 2.37344e-06
-0.000656542 0.000349081 -4.79607e-07
2.37344e-06 -4.79607e-07 -6.9268e-05
0.00130561 -0.000648964 3.59927e-06
-0.000648964 0.000224664 1.52324e-06
3.59927e-06 1.52324e-06 -0.000200404
0.00137782 -0.000350979 1.77639e-07
-0.000350979 0.000460098 1.48522e-08
1.77639e-07 1.48522e-08 0.000186574
0.0011892 -0.000411652 1.12136e-06
-0.000411652 0.000300305 -1.50015e-07
1.12136e-06 -1.50015e-07 -1.64691e-05
0.00152135 -0.000521086 -5.31163e-06
-0.000521086 0.000464801 2.41452e-07
-5.31163e-06 2.41452e-07 9.32151e-05
-0.000310162 -0.000107144 -2.24413e-06
-0.000107144 -0.000477799 2.06552e-06
-2.24413e-06 2.06552e-06 -0.000702345
0.00069839 -0.000234583 -6.92685e-07
-0.000234583 0.000160725 -6.99349e-07
-6.92685e-07 -6.99349e-07 -0.000118567
0.000967155 -0.000289161 -4.25745e-06
-0.000289161 0.000268609 6.5369e-07
-4.25745e-06 6.5369e-07 1.58512e-05
0.00190712 1.61932e-05 -4.94423e-05
1.61932e-05 0.000898256 9.17649e-06
-4.94423e-05 9.17649e-06 0.000847156
0.00070709 -0.000119138 -1.37332e-07
-0.000119138 0.00014724 -4.67749e-07
-1.37332e-07 -4.67749e-07 -2.23626e-05
0.00129942 -0.000197376 1.20132e-07
-0.000197376 0.0005833 4.44137e-06
1.20132e-07 4.44137e-06 0.000316149
0.000756551 3.40077e-05 -5.37795e-05
3.40077e-05 0.000169504 6.30243e-06
-5.37795e-05 6.30243e-06 0.00015805
0.00115043 9.03961e-06 -1.78212e-05
9.03961e-06 0.000415009 -6.21123e-07
-1.78212e-05 -6.21123e-07 0.000367697
0.000843769 -8.98191e-05 3.43518e-06
-8.98191e-05 0.000223419 -6.28921e-06
3.43518e-06 -6.28921e-06 9.43793e-05
0.000591562 2.12452e-06 2.79111e-06
2.12452e-06 5.90645e-05 -9.89641e-06
2.79111e-06 -9.89641e-06 1.71225e-05
0.00303244 0.000124325 8.62727e-06
0.000124325 0.00161283 7.59285e-07
8.62727e-06 7.59285e-07 0.00161067
0.00280127 0.000100713 3.78892e-05
0.000100713 0.00145737 -4.74788e-06
3.78892e-05 -4.74788e-06 0.00146103
0.000940132 0.000161613 1.2987e-05
0.000161613 0.000386369 -1.78873e-06
1.2987e-05 -1.78873e-06 0.000145676
0.00146451 0.000185036 5.01795e-06
0.000185036 0.000720204 -1.13734e-06
5.01795e-06 -1.13734e-06 0.000498857
-0.000176465 4.21728e-05 9.34534e-07
4.21728e-05 -0.000311395 1.97393e-07
9.34534e-07 1.97393e-07 -0.000504883
0.000658575 4.74108e-05 3.41583e-06
4.74108e-05 0.000121333 -5.4926e-06
3.41583e-06 -5.4926e-06 1.3613e-05
0.000786773 0.000116227 5.85463e-07
0.000116227 0.000252892 2.64807e-07
5.85463e-07 2.64807e-07 8.61911e-05
0.000447777 9.61426e-06 -1.24331e-06
9.61426e-06 -3.74873e-05 -8.30908e-06
-1.24331e-06 -8.30908e-06 -6.819e-05
0.000552507 4.60951e-05 -1.26272e-07
4.60951e-05 5.40855e-05 -3.92331e-07
-1.26272e-07 -3.92331e-07 -3.92765e-05
0.000690908 5.59335e-05 -4.57981e-06
5.59335e-05 0.000195004 -8.59788e-08
-4.57981e-06 -8.59788e-08 4.11497e-05
0.00256218 -6.82137e-05 -3.55175e-05
-6.82137e-05 0.00129804 -4.94599e-06
-3.55175e-05 -4.94599e-06 0.00130865
0.000442601 3.06513e-06 -4.39751e-07
3.06513e-06 -4.5818e-05 -1.0551e-07
-4.39751e-07 -1.0551e-07 -7.04266e-05
0.000540103 5.68463e-05 -1.50011e-06
5.68463e-05 4.62058e-05 2.39407e-06
-1.50011e-06 2.39407e-06 -3.64299e-05
0.00234229 -5.01004e-05 -6.17796e-06
-5.01004e-05 0.0011548 3.77279e-07
-6.17796e-06 3.77279e-07 0.00116856
0.000430155 -1.05941e-05 -4.73517e-06
-1.05941e-05 -5.65299e-05 4.93295e-06
-4.73517e-06 4.93295e-06 -7.51233e-05
0.00220771 -3.14285e-05 2.19214e-05
-3.14285e-05 0.00106792 4.74687e-06
2.19214e-05 4.74687e-06 0.00108428
0.00662103 0.00072798 0.00035625
0.00072798 0.00394573 8.06045e-05
0.00035625 8.06045e-05 0.00153271
-0.00211936 0.000178723 -3.7627e-06
0.000178723 0.00035704 -8.33912e-06
-3.7627e-06 -8.33912e-06 -0.000442676
0.000554218 0.000170958 -1.11094e-05
0.000170958 0.000593896 -1.05039e-05
-1.11094e-05 -1.05039e-05 0.000116487
-0.00054433 0.000111252 -8.40441e-06
0.000111252 -0.000685686 2.02635e-06
-8.40441e-06 2.02635e-06 -0.000849245
0.000162918 4.24348e-05 -6.4892e-06
4.24348e-05 -0.000145389 -3.34799e-06
-6.4892e-06 -3.34799e-06 -0.000304096
-0.000194451 5.27135e-05 -3.03796e-06
5.27135e-05 -0.000368156 -7.95138e-06
-3.03796e-06 -7.95138e-06 -0.000532254
0.00141568 7.63491e-05 2.22409e-06
7.63491e-05 0.00063206 3.24345e-07
2.22409e-06 3.24345e-07 0.000465922
0.000185204 0.000106519 -3.03397e-06
0.000106519 -0.000185611 -3.59582e-06
-3.03397e-06 -3.59582e-06 -0.000347672
0.00232188 0.000323955 -7.04957e-06
0.000323955 0.0012185 -3.71883e-06
-7.04957e-06 -3.71883e-06 0.00100618
0.00106379 0.000265081 -4.90267e-06
0.000265081 0.000374446 -1.46583e-05
-4.90267e-06 -1.46583e-05 5.36265e-05
-0.00128979 0.000115722 1.27423e-06
0.000115722 -0.000726395 7.32531e-07
1.27423e-06 7.32531e-07 -0.00108808
0.000632757 0.000134936 -7.0786e-06
0.000134936 0.000150127 -3.62701e-06
-7.0786e-06 -3.62701e-06 1.11506e-05
-3.03179e-05 5.61319e-05 -1.30579e-05
5.61319e-05 -0.000324741 -7.89359e-06
-1.30579e-05 -7.89359e-06 -0.000410319
-0.000266433 3.74481e-05 -5.55479e-07
3.74481e-05 -0.00025191 1.68647e-06
-5.55479e-07 1.68647e-06 -0.000477739
0.00103972 0.000333533 1.91919e-05
0.000333533 0.000690141 -9.98138e-07
1.91919e-05 -9.98138e-07 0.000264136
0.00396123 -0.00346882 0.00011409
-0.00346882 0.00631978 0.0002503
0.00011409 0.0002503 0.000417976
0.00658015 0.00147516 0.000153604
0.00147516 0.00333163 0.000177331
0.000153604 0.000177331 -0.00191312
0.0032787 0.000551214 -3.39505e-05
0.000551214 0.000703752 -8.11715e-05
-3.39505e-05 -8.11715e-05 -0.00115893
0.0259814 -0.00564847 -0.000801821
-0.00564847 0.00725942 -0.000396356
-0.000801821 -0.000396356 0.00449584
0.00572318 -0.0016848 0.000288009
-0.0016848 0.00397917 0.000511137
0.000288009 0.000511137 0.000285359
0.00329488 -0.00174459 -0.000263728
-0.00174459 0.00511067 0.000104855
-0.000263728 0.000104855 -0.00224479
-0.00142327 -0.000540655 0.000115799
-0.000540655 0.00110814 2.08152e-05
0.000115799 2.08152e-05 0.000127996
-0.000598448 -0.000166562 0.000110447
-0.000166562 0.00112389 5.33538e-05
0.000110447 5.33538e-05 0.000371511
0.0161053 -0.00939889 0.000482731
-0.00939889 0.00789375 0.000454423
0.000482731 0.000454423 0.0042912
0.00172949 0.00158483 -0.000104034
0.00158483 0.00428344 -8.80271e-05
-0.000104034 -8.80271e-05 -0.00234237
0.00871901 -0.00395283 -0.000133349
-0.00395283 0.0043833 0.000111785
-0.000133349 0.000111785 -0.00121627
0.0004128 0.00075934 -1.59164e-05
0.00075934 0.00114579 5.89197e-05
-1.59164e-05 5.89197e-05 0.000723611
0.0115238 0.00428702 -0.000124837
0.00428702 0.00383403 5.74807e-06
-0.000124837 5.74807e-06 1.7206e-06
0.0164526 -0.00695674 -0.000861518
-0.00695674 0.00528512 -0.000507182
-0.000861518 -0.000507182 0.000725896
6.6859e-05 0.000521392 5.37023e-06
0.000521392 -0.000365746 -8.52771e-06
5.37023e-06 -8.52771e-06 -0.000516099
0.000518717 0.000191601 7.62428e-06
0.000191601 0.000277119 5.03844e-06
7.62428e-06 5.03844e-06 1.07357e-05
-9.76074e-05 5.41191e-05 -1.31417e-05
5.41191e-05 -3.56371e-05 -4.33849e-06
-1.31417e-05 -4.33849e-06 -0.000314516
-0.00391564 -0.000351623 -0.00012427
-0.000351623 -0.000176353 -6.40051e-05
-0.00012427 -6.40051e-05 -0.00200972
-0.00056128 0.000235353 1.21716e-05
0.000235353 -4.35446e-05 -1.561e-05
1.21716e-05 -1.561e-05 -0.00057561
0.00130574 0.000228188 -4.74214e-06
0.000228188 0.000877879 1.44055e-05
-4.74214e-06 1.44055e-05 0.000597818
0.001204 0.000694109 1.35356e-05
0.000694109 0.000629454 3.17814e-06
1.35356e-05 3.17814e-06 0.000209874
-0.000392163 0.000538423 4.05878e-05
0.000538423 0.000736237 -3.10451e-05
4.05878e-05 -3.10451e-05 -0.000509694
0.000917297 0.00140322 6.96237e-05
0.00140322 0.000120753 5.79459e-06
6.96237e-05 5.79459e-06 -0.000772164
-0.00620943 0.00117092 0.000375961
0.00117092 0.00557964 2.44142e-06
0.000375961 2.44142e-06 -0.00159231
0.00228505 -0.000200997 -1.01673e-05
-0.000200997 0.00203853 6.9613e-05
-1.01673e-05 6.9613e-05 -0.00085176
-0.00268552 -4.59508e-05 -1.451e-05
-4.59508e-05 0.000952289 5.77081e-05
-1.451e-05 5.77081e-05 -5.51662e-05
-0.000616627 -0.000296245 -6.3302e-05
-0.000296245 0.000701091 1.67206e-05
-6.3302e-05 1.67206e-05 -0.000480066
-0.00162853 -0.000476914 -7.02386e-05
-0.000476914 -0.0003278 5.62137e-05
-7.02386e-05 5.62137e-05 -0.000115164
-0.000375767 -0.000492877 -0.00019787
-0.000492877 0.000887052 0.000127168
-0.00019787 0.000127168 -0.00332708
-0.000502405 -0.00404109 0.000267415
-0.00404109 0.00208121 -9.83041e-05
0.000267415 -9.83041e-05 -0.0038417
0.011073 0.00536623 0.000733576
0.00536623 0.00124991 -0.000455277
0.000733576 -0.000455277 -0.00274103
0.0114153 0.00378868 -0.000414954
0.00378868 0.00803885 0.000346165
-0.000414954 0.000346165 0.00335604
0.00118571 -0.00088339 -1.18678e-05
-0.00088339 0.00135309 -1.15953e-06
-1.18678e-05 -1.15953e-06 0.000514926
0.00210353 0.000636717 0.000141266
0.000636717 0.00774342 -2.56478e-05
0.000141266 -2.56478e-05 0.0033843
0.00132762 0.00432203 8.35605e-06
0.00432203 0.000912532 7.3576e-05
8.35605e-06 7.3576e-05 -0.00286473
0.00246222 -0.00275646 8.51136e-05
-0.00275646 0.000767474 -4.47348e-05
8.51136e-05 -4.47348e-05 0.000981012
0.0168691 -0.00429712 1.33797e-05
-0.00429712 0.00308692 7.81677e-07
1.33797e-05 7.81677e-07 0.0011842
0.00312185 -0.00170318 2.50931e-06
-0.00170318 0.00125786 1.92677e-05
2.50931e-06 1.92677e-05 0.000856426
-0.00796785 0.00132418 -0.000636612
0.00132418 -0.00229793 0.000104048
-0.000636612 0.000104048 -0.00525825
0.0160675 -0.00276651 -0.000235752
-0.00276651 0.00200473 6.61989e-05
-0.000235752 6.61989e-05 0.000669022
0.00393928 -0.00281593 0.000114351
-0.00281593 -2.13288e-05 -7.54612e-05
0.000114351 -7.54612e-05 0.000618485
0.000883828 -0.000554287 -1.41472e-05
-0.000554287 0.00064121 1.35634e-05
-1.41472e-05 1.35634e-05 0.000206236
0.00130129 -0.000856812 1.13437e-06
-0.000856812 0.000330574 -3.19228e-06
1.13437e-06 -3.19228e-06 4.35503e-05
0.00502294 -0.00108391 2.19377e-05
-0.00108391 0.00204932 -1.5322e-05
2.19377e-05 -1.5322e-05 0.00166689
-0.000627898 -0.000446262 -6.25802e-06
-0.000446262 -0.000626579 8.30926e-06
-6.25802e-06 8.30926e-06 -0.000993775
0.00149598 -0.000838999 -3.00244e-06
-0.000838999 0.000151189 8.46859e-07
-3.00244e-06 8.46859e-07 -0.000261442
0.00324928 -0.00109066 2.92068e-06
-0.00109066 0.000858495 -8.26417e-06
2.92068e-06 -8.26417e-06 0.000433107
0.00148105 -0.000751732 -1.05185e-05
-0.000751732 0.000255416 1.00048e-05
-1.05185e-05 1.00048e-05 -0.000337112
0.00204249 -0.000959334 -8.97086e-07
-0.000959334 0.000341584 2.07939e-06
-8.97086e-07 2.07939e-06 -0.000153709
0.00195813 -0.000774401 -2.23311e-06
-0.000774401 5.64687e-05 -6.10283e-06
-2.23311e-06 -6.10283e-06 -0.000251332
0.00168194 -0.00084491 6.63648e-07
-0.00084491 0.000278589 4.22366e-06
6.63648e-07 4.22366e-06 -0.000261341
0.00209 -0.000754763 -1.67945e-06
-0.000754763 0.00030375 1.5436e-06
-1.67945e-06 1.5436e-06 -7.94083e-05
0.00208163 -0.000560631 -2.17093e-06
-0.000560631 0.000109414 -3.99648e-06
-2.17093e-06 -3.99648e-06 -0.000108043
0.00190137 -0.000466004 -4.3834e-06
-0.000466004 6.55972e-05 -4.4488e-07
-4.3834e-06 -4.4488e-07 -0.000113208
0.00173324 -0.000544488 -5.13231e-06
-0.000544488 -4.93275e-06 -1.92208e-06
-5.13231e-06 -1.92208e-06 -0.000267862
0.00184571 -0.000528446 1.64772e-06
-0.000528446 4.47959e-05 2.61395e-06
1.64772e-06 2.61395e-06 -0.000202408
0.00172119 -0.000661578 -5.66348e-06
-0.000661578 0.00013022 -2.86131e-06
-5.66348e-06 -2.86131e-06 -0.000228528
0.00209852 -0.000770571 2.84216e-06
-0.000770571 0.00031452 -2.05774e-07
2.84216e-06 -2.05774e-07 -8.12373e-05
0.00219129 -0.00076979 6.07449e-06
-0.00076979 0.000381723 1.03076e-06
6.07449e-06 1.03076e-06 -1.64224e-05
0.00173822 -0.00067455 -1.40402e-06
-0.00067455 0.000366203 -2.12881e-06
-1.40402e-06 -2.12881e-06 -4.31572e-05
0.00216918 -0.000798999 2.09863e-06
-0.000798999 0.000580157 -6.92606e-07
2.09863e-06 -6.92606e-07 0.000137239
0.00236127 -0.000902903 2.61302e-06
-0.000902903 0.000656461 -2.27991e-06
2.61302e-06 -2.27991e-06 0.000156322
0.00127518 -0.000401299 -6.77113e-06
-0.000401299 0.000291689 3.05173e-06
-6.77113e-06 3.05173e-06 -5.85664e-06
0.00157389 -0.00057057 1.79358e-06
-0.00057057 0.000440945 1.03966e-06
1.79358e-06 1.03966e-06 5.94437e-05
0.00113682 -0.000606864 -3.97396e-06
-0.000606864 0.000165762 1.78757e-06
-3.97396e-06 1.78757e-06 -0.000237702
0.000489779 -0.000218635 -7.82365e-06
-0.000218635 -6.39012e-05 -3.72879e-07
-7.82365e-06 -3.72879e-07 -0.000281314
0.00105695 -0.000334168 8.85187e-07
-0.000334168 0.000249421 -8.29453e-07
8.85187e-07 -8.29453e-07 -1.86716e-05
0.000494601 -0.000329811 -8.70886e-06
-0.000329811 -0.000108682 1.42561e-07
-8.70886e-06 1.42561e-07 -0.000406551
0.000333335 -5.99446e-05 -1.29547e-05
-5.99446e-05 -0.000113801 1.34941e-05
-1.29547e-05 1.34941e-05 -0.000190582
0.000855321 -0.0001887 3.17905e-06
-0.0001887 0.000251485 1.33201e-06
3.17905e-06 1.33201e-06 1.78983e-05
0.000598081 -0.00025549 6.58075e-08
-0.00025549 0.000109808 1.83557e-06
6.58075e-08 1.83557e-06 -0.000172644
0.0039508 0.000239609 6.11268e-06
0.000239609 0.00223696 5.68952e-06
6.11268e-06 5.68952e-06 0.00219842
0.000439723 -3.29442e-05 3.41637e-07
-3.29442e-05 -3.86468e-05 -2.24969e-07
3.41637e-07 -2.24969e-07 -0.00010197
0.00128017 -0.000117515 -7.48721e-08
-0.000117515 0.000507103 -6.01769e-06
-7.48721e-08 -6.01769e-06 0.000330036
0.00339023 0.000142536 9.29133e-06
0.000142536 0.00184675 7.0645e-07
9.29133e-06 7.0645e-07 0.00183992
0.000539324 -1.11046e-05 4.96013e-06
-1.11046e-05 2.53522e-05 -1.16121e-05
4.96013e-06 -1.16121e-05 -2.67718e-05
0.0030641 0.000117077 5.51943e-05
0.000117077 0.00163129 -5.11807e-06
5.51943e-05 -5.11807e-06 0.00163098
0.00223282 0.000351934 6.35968e-06
0.000351934 0.00109977 2.12283e-06
6.35968e-06 2.12283e-06 0.000850884
0.000735553 0.000170061 5.31768e-07
0.000170061 0.000265033 -4.61184e-06
5.31768e-07 -4.61184e-06 1.90554e-05
0.00140432 0.000198986 2.43963e-07
0.000198986 0.000691127 -5.3036e-06
2.43963e-07 -5.3036e-06 0.000432567
0.000768299 7.23328e-05 2.60179e-06
7.23328e-05 0.000190537 -6.07321e-06
2.60179e-06 -6.07321e-06 6.09809e-05
0.000787054 0.000107176 5.20586e-07
0.000107176 0.000281217 1.47678e-06
5.20586e-07 1.47678e-06 7.42097e-05
0.000261578 0.000114789 -2.09653e-06
0.000114789 -1.67044e-06 3.80841e-06
-2.09653e-06 3.80841e-06 -0.000224129
0.000523569 -3.11648e-07 -1.58738e-06
-3.11648e-07 1.76565e-05 -1.03639e-05
-1.58738e-06 -1.03639e-05 -2.1492e-05
0.000576804 4.47302e-05 -1.12175e-07
4.47302e-05 7.35313e-05 -3.82287e-07
-1.12175e-07 -3.82287e-07 -3.49109e-05
0.000245505 8.50332e-05 -5.41633e-06
8.50332e-05 -0.000109198 6.76873e-07
-5.41633e-06 6.76873e-07 -0.000255919
0.0026945 -8.50208e-05 -4.40241e-05
-8.50208e-05 0.00138735 -4.88287e-06
-4.40241e-05 -4.88287e-06 0.0013951
0.000410474 -2.11489e-05 2.85072e-06
-2.11489e-05 -5.85147e-05 -1.82404e-07
2.85072e-06 -1.82404e-07 -9.00052e-05
0.000484256 4.6049e-05 -3.04491e-06
4.6049e-05 1.48065e-05 3.59912e-06
-3.04491e-06 3.59912e-06 -7.90987e-05
0.00251306 -6.81936e-05 -6.76742e-06
-6.81936e-05 0.00126676 5.06245e-07
-6.76742e-06 5.06245e-07 0.0012773
0.000429503 -5.65368e-07 -2.3654e-06
-5.65368e-07 -5.41109e-05 6.20428e-06
-2.3654e-06 6.20428e-06 -7.81849e-05
0.00230281 -4.92671e-05 2.39213e-05
-4.92671e-05 0.0011297 4.75456e-06
2.39213e-05 4.75456e-06 0.00114373
-0.00951456 0.00110439 -0.000128841
0.00110439 0.00407895 8.0365e-05
-0.000128841 8.0365e-05 -0.00260107
0.00622618 0.000537545 8.44413e-06
0.000537545 0.00372117 -1.41441e-06
8.44413e-06 -1.41441e-06 0.00142312
-0.00168164 0.00010242 5.72086e-05
0.00010242 0.000385607 2.82173e-05
5.72086e-05 2.82173e-05 -0.000673249
0.000168 0.00014931 3.42569e-08
0.00014931 -0.000198404 3.11282e-06
3.42569e-08 3.11282e-06 -0.000402755
0.00326326 0.000693438 1.66737e-05
0.000693438 0.00165534 1.10213e-05
1.66737e-05 1.10213e-05 0.00128137
0.00090817 0.000192844 -8.68195e-06
0.000192844 0.000375735 2.16009e-06
-8.68195e-06 2.16009e-06 4.47881e-05
0.000442429 6.84457e-05 -7.91514e-06
6.84457e-05 3.30528e-05 -1.9012e-05
-7.91514e-06 -1.9012e-05 -0.000140256
0.00286352 0.000317171 3.31513e-06
0.000317171 0.00144899 -9.74105e-07
3.31513e-06 -9.74105e-07 0.00126484
-0.000941031 2.10037e-05 -1.37476e-05
2.10037e-05 -0.000781862 1.09334e-05
-1.37476e-05 1.09334e-05 -0.000935849
-4.52482e-05 0.000125712 -1.07385e-06
0.000125712 -8.48122e-05 6.86058e-06
-1.07385e-06 6.86058e-06 -0.000380325
0.000572874 0.000163291 -3.40351e-06
0.000163291 0.000137961 -5.557e-06
-3.40351e-06 -5.557e-06 -0.000184856
0.00172177 0.000563595 8.44199e-06
0.000563595 0.000851219 -2.50879e-05
8.44199e-06 -2.50879e-05 0.000382251
-0.000105241 0.000483482 -1.53584e-05
0.000483482 -0.000386155 5.23988e-05
-1.53584e-05 5.23988e-05 -0.000545052
0.00155739 6.13759e-05 -1.60963e-05
6.13759e-05 0.000823642 1.69453e-05
-1.60963e-05 1.69453e-05 0.000618158
0.00154894 0.000303475 6.08394e-06
0.000303475 0.000996395 -1.02264e-05
6.08394e-06 -1.02264e-05 0.000607694
0.000671572 -0.00259841 -0.00170088
-0.00259841 0.00180207 -0.000273398
-0.00170088 -0.000273398 -0.00231991
-0.00192801 -0.00266013 0.00057045
-0.00266013 0.00635155 0.000201388
0.00057045 0.000201388 0.000386633
0.00734638 0.00187007 -0.000607474
0.00187007 0.0030933 -0.000209242
-0.000607474 -0.000209242 -0.00257927
0.00624144 -0.00999616 0.00256357
-0.00999616 0.00591334 0.00156328
0.00256357 0.00156328 0.00172616
0.0272346 -0.00404011 6.44204e-05
-0.00404011 0.00936835 0.000385368
6.44204e-05 0.000385368 0.00550138
-0.00343553 0.00142413 -1.86019e-05
0.00142413 0.00241823 -0.000191159
-1.86019e-05 -0.000191159 -0.00341036
-0.00270454 0.000127544 -0.000370255
0.000127544 0.000903894 -6.24152e-05
-0.000370255 -6.24152e-05 -0.000832426
0.000936604 0.000775056 7.86928e-05
0.000775056 0.00167629 5.45063e-05
7.86928e-05 5.45063e-05 0.00130245
0.0202562 -0.00527846 -0.000695581
-0.00527846 0.00840644 9.23809e-06
-0.000695581 9.23809e-06 0.00393104
-0.00255104 0.00324521 -0.000123896
0.00324521 0.000353493 -4.81788e-05
-0.000123896 -4.81788e-05 -0.00443194
0.00323693 0.00231895 2.01281e-05
0.00231895 0.00101086 -7.48737e-05
2.01281e-05 -7.48737e-05 0.00170553
0.00341588 0.0051394 -0.000444123
0.0051394 -0.00199375 -0.000112317
-0.000444123 -0.000112317 -0.00456655
0.00328789 0.00121609 2.50716e-05
0.00121609 0.00125043 -1.18918e-05
2.50716e-05 -1.18918e-05 0.00088229
0.00100991 0.000591901 -4.60217e-06
0.000591901 0.000272422 -2.28327e-06
-4.60217e-06 -2.28327e-06 0.000110036
-0.000185859 0.000172869 -1.08496e-05
0.000172869 -0.000146551 7.38033e-06
-1.08496e-05 7.38033e-06 -0.000413739
-0.00158444 0.000390473 -9.03434e-05
0.000390473 0.000165531 -7.19834e-05
-9.03434e-05 -7.19834e-05 -0.000909233
0.00195224 0.000802204 -3.97344e-05
0.000802204 0.000969722 -2.06925e-05
-3.97344e-05 -2.06925e-05 0.000543367
0.00203504 0.00155522 1.11528e-05
0.00155522 0.000579867 -8.81208e-06
1.11528e-05 -8.81208e-06 -0.00030081
-0.000973845 0.00162705 0.000101494
0.00162705 -0.00180991 4.92002e-05
0.000101494 4.92002e-05 -0.00216486
-0.00640262 -0.000511262 -0.000641813
-0.000511262 -0.00417506 5.16692e-05
-0.000641813 5.16692e-05 -0.00426391
-0.00890439 0.000509685 0.000423168
0.000509685 0.00586013 1.78935e-05
0.000423168 1.78935e-05 -0.000665757
0.00291005 -7.78194e-05 -0.000132309
-7.78194e-05 0.00208918 3.36434e-05
-0.000132309 3.36434e-05 0.000242018
0.0021371 -0.0010379 -5.96722e-05
-0.0010379 0.00141837 -4.59795e-05
-5.96722e-05 -4.59795e-05 0.000611556
-0.000735703 -0.00204892 6.66354e-05
-0.00204892 -0.000620648 4.37164e-05
6.66354e-05 4.37164e-05 -0.0003698
0.000719487 0.000730942 8.32667e-05
0.000730942 0.00743516 5.02432e-05
8.32667e-05 5.02432e-05 0.00290337
0.00278191 -0.00365924 0.000507903
-0.00365924 -0.00174556 -0.000106594
0.000507903 -0.000106594 -0.00376655
0.0235464 0.0037214 0.000948742
0.0037214 0.0103727 -9.96863e-05
0.000948742 -9.96863e-05 0.00702897
0.00162517 -0.00178883 -1.92406e-05
-0.00178883 0.000368527 4.10246e-06
-1.92406e-05 4.10246e-06 -0.000293749
0.0024426 0.00161623 0.000285031
0.00161623 0.000943605 -8.80529e-05
0.000285031 -8.80529e-05 -0.00150244
0.00756865 -0.0024282 -0.000181795
-0.0024282 -0.0027757 0.00015205
-0.000181795 0.00015205 -0.00486975
0.00346765 -0.00278129 -9.68769e-06
-0.00278129 -0.00062222 2.61669e-05
-9.68769e-06 2.61669e-05 0.000338412
0.00252283 -0.00149425 7.21972e-05
-0.00149425 0.00020371 -2.02302e-05
7.21972e-05 -2.02302e-05 1.70698e-05
0.0176141 -0.000903468 -8.63528e-05
-0.000903468 0.00343638 5.73164e-05
-8.63528e-05 5.73164e-05 0.00229836
0.00267775 -0.00191232 0.000135642
-0.00191232 -0.00325943 -8.98408e-05
0.000135642 -8.98408e-05 -0.00165611
-0.000588328 -0.000716467 -2.66981e-05
-0.000716467 -0.000776495 3.43577e-05
-2.66981e-05 3.43577e-05 -0.000921689
0.000235237 -0.000621674 -4.01305e-05
-0.000621674 -0.000568059 3.99043e-06
-4.01305e-05 3.99043e-06 -0.000726614
0.00623665 -0.00119957 6.11786e-05
-0.00119957 0.00234977 -2.59744e-05
6.11786e-05 -2.59744e-05 0.00210794
0.000233446 -0.000678905 -1.06071e-05
-0.000678905 -0.000473882 2.71692e-06
-1.06071e-05 2.71692e-06 -0.00088335
0.00218823 -0.000958825 -3.16924e-06
-0.000958825 0.000312528 -3.46415e-06
-3.16924e-06 -3.46415e-06 -8.00603e-05
0.00283051 -0.000869224 2.54575e-07
-0.000869224 0.000350938 -5.28056e-06
2.54575e-07 -5.28056e-06 0.000134882
0.00203002 -0.000948062 4.34766e-06
-0.000948062 0.000343429 1.04164e-05
4.34766e-06 1.04164e-05 -0.000156356
0.00220958 -0.00079164 -1.41897e-06
-0.00079164 0.000201784 2.8378e-07
-1.41897e-06 2.8378e-07 -0.000106741
0.00216402 -0.000583867 -4.55164e-07
-0.000583867 2.38045e-05 -1.2072e-06
-4.55164e-07 -1.2072e-06 -0.000103224
0.00158361 -0.000687396 6.93023e-06
-0.000687396 2.70812e-05 7.4848e-06
6.93023e-06 7.4848e-06 -0.000340515
0.00202499 -0.000548619 -3.86145e-07
-0.000548619 7.68155e-05 2.48303e-06
-3.86145e-07 2.48303e-06 -0.000133319
0.00210426 -0.000521425 -2.82704e-06
-0.000521425 8.61004e-05 1.582e-06
-2.82704e-06 1.582e-06 -5.47414e-05
0.0020542 -0.000490571 -4.27932e-06
-0.000490571 0.00015021 1.23114e-06
-4.27932e-06 1.23114e-06 -8.48079e-06
0.0020373 -0.00047669 -3.05129e-06
-0.00047669 0.00014228 3.20084e-06
-3.05129e-06 3.20084e-06 -3.32769e-05
0.00211017 -0.000486088 -2.27634e-06
-0.000486088 0.000238966 -3.53754e-06
-2.27634e-06 -3.53754e-06 4.73761e-05
0.00204957 -0.000577166 -6.6267e-06
-0.000577166 0.000215419 -2.78883e-06
-6.6267e-06 -2.78883e-06 -5.71085e-05
0.00197268 -0.00056218 1.70802e-06
-0.00056218 0.000148975 9.41199e-07
1.70802e-06 9.41199e-07 -0.000114706
0.00193223 -0.000530597 5.95123e-06
-0.000530597 9.52944e-05 7.26799e-06
5.95123e-06 7.26799e-06 -0.000148735
0.00195857 -0.00065662 -7.51585e-06
-0.00065662 0.000337628 -2.71855e-06
-7.51585e-06 -2.71855e-06 -2.46444e-05
0.00172398 -0.00066962 -5.46218e-07
-0.00066962 0.000118007 1.287e-07
-5.46218e-07 1.287e-07 -0.000244373
0.00225002 -0.000777467 8.173e-06
-0.000777467 0.000423814 1.45142e-06
8.173e-06 1.45142e-06 3.16096e-05
0.00142927 -0.000498767 -1.10592e-05
-0.000498767 0.000267944 3.19579e-06
-1.10592e-05 3.19579e-06 -7.30671e-05
0.00184128 -0.000685257 -6.11087e-07
-0.000685257 0.00043048 7.8608e-07
-6.11087e-07 7.8608e-07 1.94735e-05
0.00204823 -0.000793016 3.92506e-06
-0.000793016 0.000502079 6.72184e-07
3.92506e-06 6.72184e-07 5.75456e-05
0.000663901 -0.000221607 -8.04487e-06
-0.000221607 5.40852e-06 5.13446e-06
-8.04487e-06 5.13446e-06 -0.000211206
0.00124597 -0.000405896 1.3359e-06
-0.000405896 0.000264454 1.49178e-07
1.3359e-06 1.49178e-07 -3.64968e-05
0.00115827 -0.000520706 -2.01359e-06
-0.000520706 0.000172218 1.94994e-06
-2.01359e-06 1.94994e-06 -0.000195489
0.000485122 -0.000136307 -2.39235e-05
-0.000136307 -5.11107e-05 1.50729e-05
-2.39235e-05 1.50729e-05 -0.000148916
0.000620787 -0.000215759 -2.39933e-06
-0.000215759 4.45966e-05 9.38848e-07
-2.39933e-06 9.38848e-07 -0.000191145
0.000639997 -0.000338371 1.62146e-06
-0.000338371 -1.54479e-05 -6.45517e-07
1.62146e-06 -6.45517e-07 -0.000289638
0.00439844 0.000214356 -8.98835e-05
0.000214356 0.00251973 7.74459e-06
-8.98835e-05 7.74459e-06 0.00249149
0.000549893 -7.79568e-05 1.69449e-06
-7.79568e-05 1.72093e-05 -2.66097e-07
1.69449e-06 -2.66097e-07 -6.58423e-05
0.00164458 -0.000272202 6.44036e-06
-0.000272202 0.000738693 -2.74377e-06
6.44036e-06 -2.74377e-06 0.000499223
0.0025754 0.000134222 5.42058e-05
0.000134222 0.00134594 1.43004e-06
5.42058e-05 1.43004e-06 0.00132079
0.000598989 -4.07765e-05 1.13029e-05
-4.07765e-05 5.57443e-05 -1.34198e-05
1.13029e-05 -1.34198e-05 -1.07335e-05
0.003627 0.000133218 8.51278e-05
0.000133218 0.00199642 -5.46983e-06
8.51278e-05 -5.46983e-06 0.00199196
0.00185276 0.000365307 3.67612e-06
0.000365307 0.000740617 -4.41168e-06
3.67612e-06 -4.41168e-06 0.000511839
0.000454703 0.000154916 -4.292e-06
0.000154916 -4.42845e-05 -1.165e-07
-4.292e-06 -1.165e-07 -0.000244598
0.000488961 0.000171239 1.19559e-06
0.000171239 7.26568e-05 -8.01862e-06
1.19559e-06 -8.01862e-06 -0.000171343
0.000373018 0.000137576 -2.61792e-06
0.000137576 1.49765e-05 1.1039e-05
-2.61792e-06 1.1039e-05 -0.000207292
0.000610526 0.000104938 6.34189e-07
0.000104938 0.000169049 1.47704e-07
6.34189e-07 1.47704e-07 -6.45936e-05
0.00106673 0.000120624 -2.29306e-08
0.000120624 0.0003686 -9.21472e-06
-2.29306e-08 -9.21472e-06 0.000214068
0.000574732 3.49969e-05 -5.32958e-06
3.49969e-05 5.09429e-05 -1.27396e-05
-5.32958e-06 -1.27396e-05 1.44789e-06
0.000681954 6.57543e-05 3.98608e-07
6.57543e-05 0.000141853 -7.13322e-08
3.98608e-07 -7.13322e-08 1.17703e-05
-0.000291896 2.91265e-05 -6.27343e-06
2.91265e-05 -0.000423395 2.54026e-07
-6.27343e-06 2.54026e-07 -0.000605828
0.00293141 -9.90631e-05 -6.1609e-05
-9.90631e-05 0.00154521 -5.32399e-06
-6.1609e-05 -5.32399e-06 0.00155019
0.000407235 1.62417e-05 1.03462e-06
1.62417e-05 -5.37922e-05 -3.23299e-07
1.03462e-06 -3.23299e-07 -9.26634e-05
0.000540617 4.92692e-05 -3.63238e-06
4.92692e-05 5.63574e-05 5.65761e-06
-3.63238e-06 5.65761e-06 -5.44445e-05
0.00271376 -8.70235e-05 -7.50153e-06
-8.70235e-05 0.00140005 6.25248e-07
-7.50153e-06 6.25248e-07 0.00140698
0.000381665 -1.16021e-05 -3.79467e-07
-1.16021e-05 -7.53043e-05 7.69528e-06
-3.79467e-07 7.69528e-06 -0.000106626
0.00251548 -6.82665e-05 2.99576e-05
-6.82665e-05 0.00126805 4.94389e-06
2.99576e-05 4.94389e-06 0.00127844
0.00146152 3.07727e-05 -0.000930208
3.07727e-05 0.00395901 -6.54236e-05
-0.000930208 -6.54236e-05 0.00176067
-0.00581972 0.000144088 3.39206e-05
0.000144088 0.00513703 -6.68696e-06
3.39206e-05 -6.68696e-06 -0.00179887
0.00594601 0.000255522 -0.000276885
0.000255522 0.00358002 -7.46515e-05
-0.000276885 -7.46515e-05 0.00144592
-0.000308388 5.35442e-05 3.04698e-06
5.35442e-05 -0.000489952 -7.06557e-06
3.04698e-06 -7.06557e-06 -0.000695121
0.00040217 9.96561e-05 6.46363e-06
9.96561e-05 4.33323e-06 7.55392e-06
6.46363e-06 7.55392e-06 -0.000303798
0.00290284 0.000628815 -3.21603e-06
0.000628815 0.00146756 3.88275e-06
-3.21603e-06 3.88275e-06 0.00110147
0.00230798 0.000731177 1.80643e-05
0.000731177 0.000959068 8.09991e-06
1.80643e-05 8.09991e-06 0.000486381
0.000665491 0.000441893 9.99167e-06
0.000441893 0.000234863 4.97258e-06
9.99167e-06 4.97258e-06 -0.000171259
0.00126481 0.000196867 -8.4738e-06
0.000196867 0.000703178 8.05164e-06
-8.4738e-06 8.05164e-06 0.000405797
0.00131633 0.000206113 1.01573e-05
0.000206113 0.000627453 1.08746e-05
1.01573e-05 1.08746e-05 0.000324846
0.000674331 0.00046995 -4.48912e-06
0.00046995 0.000283988 -5.59157e-07
-4.48912e-06 -5.59157e-07 -0.000182556
1.20744e-05 0.000629335 1.84821e-05
0.000629335 -0.000505461 -1.04437e-05
1.84821e-05 -1.04437e-05 -0.000858292
0.0025695 0.000874452 -8.53329e-06
0.000874452 0.00096646 2.62907e-05
-8.53329e-06 2.62907e-05 0.000715313
0.00151488 0.000918958 3.23587e-05
0.000918958 8.37869e-05 1.10204e-05
3.23587e-05 1.10204e-05 -6.78157e-05
0.00143166 0.000670688 -6.45983e-06
0.000670688 0.000530335 -2.95934e-06
-6.45983e-06 -2.95934e-06 0.000285958
0.00204552 0.000411468 -7.61535e-06
0.000411468 0.00116843 3.4301e-05
-7.61535e-06 3.4301e-05 0.000810249
0.0139304 0.00273468 -0.00013046
0.00273468 0.00162293 6.2677e-05
-0.00013046 6.2677e-05 0.000440345
0.00314469 -0.00221001 -0.000604924
-0.00221001 0.00400283 -0.000215425
-0.000604924 -0.000215425 0.000718184
0.00030612 -0.00391536 0.000858133
-0.00391536 0.00700737 0.000223254
0.000858133 0.000223254 0.000945034
0.00907725 -0.0031672 0.000335688
-0.0031672 0.0038087 0.000326499
0.000335688 0.000326499 -0.000255832
0.0142723 0.00521294 -0.00011321
0.00521294 0.00465834 -5.26236e-05
-0.00011321 -5.26236e-05 0.000638468
-0.003054 0.000274701 -5.18312e-05
0.000274701 3.702e-06 -4.87806e-05
-5.18312e-05 -4.87806e-05 -0.000449158
0.00210137 0.00201968 -6.10992e-05
0.00201968 0.000523791 -2.37558e-05
-6.10992e-05 -2.37558e-05 0.00133449
0.0170443 0.00499239 1.82566e-05
0.00499239 0.0034935 3.86633e-05
1.82566e-05 3.86633e-05 0.0010337
0.0066422 0.00382859 -9.42865e-05
0.00382859 -0.000223422 -0.000111398
-9.42865e-05 -0.000111398 0.000308102
0.00172547 0.00126028 8.24246e-06
0.00126028 0.000164574 -1.24951e-06
8.24246e-06 -1.24951e-06 -0.000110832
0.0016173 0.000960202 1.07745e-05
0.000960202 0.000463886 -4.23143e-06
1.07745e-05 -4.23143e-06 0.000149365
0.00199726 0.000638632 -2.89423e-05
0.000638632 0.000942316 3.46067e-06
-2.89423e-05 3.46067e-06 0.000765284
0.00261035 0.00171294 -7.37883e-05
0.00171294 0.000722722 -2.70345e-05
-7.37883e-05 -2.70345e-05 -0.000139163
0.00143362 0.00190847 7.99678e-05
0.00190847 -0.000789438 4.15078e-05
7.99678e-05 4.15078e-05 -0.00124541
0.00270949 -0.000289728 -0.000131485
-0.000289728 -0.00512276 5.7443e-05
-0.000131485 5.7443e-05 -0.00536927
0.000638971 -0.00179777 1.18526e-05
-0.00179777 0.00238405 1.13448e-05
1.18526e-05 1.13448e-05 0.00124238
-0.0121096 -0.000303869 0.000337325
-0.000303869 0.0063979 -2.35885e-05
0.000337325 -2.35885e-05 0.000619451
0.000761107 -0.00200024 -6.15217e-05
-0.00200024 -0.00036999 2.52769e-05
-6.15217e-05 2.52769e-05 -0.00125029
0.00599484 -0.00341702 3.06996e-05
-0.00341702 0.000354787 4.78098e-05
3.06996e-05 4.78098e-05 0.000830373
0.00274297 5.99522e-05 0.00100353
5.99522e-05 0.0041182 -0.000239379
0.00100353 -0.000239379 0.00211668
0.0142478 -0.00263083 -0.00029997
-0.00263083 0.00155998 0.000166013
-0.00029997 0.000166013 0.00070455
0.00173314 -0.00147955 -3.05093e-05
-0.00147955 -0.000142821 1.88062e-06
-3.05093e-05 1.88062e-06 -0.000464158
0.011678 -0.000131762 -0.000204899
-0.000131762 -0.00117097 7.29968e-05
-0.000204899 7.29968e-05 -0.00195106
0.00729499 -0.00222482 9.96205e-05
-0.00222482 -0.000407909 1.08207e-05
9.96205e-05 1.08207e-05 0.000512904
0.00358722 -0.00126413 6.49007e-05
-0.00126413 0.000289647 -4.52533e-05
6.49007e-05 -4.52533e-05 0.000114764
0.00243026 -0.00083151 4.96851e-06
-0.00083151 -0.00224643 4.17822e-06
4.96851e-06 4.17822e-06 -0.000962173
-0.005056 -0.000121661 1.28755e-05
-0.000121661 -0.00343981 1.44356e-05
1.28755e-05 1.44356e-05 -0.0034198
0.0014702 -0.000764519 -1.92281e-05
-0.000764519 -0.000279347 1.95498e-06
-1.92281e-05 1.95498e-06 -0.000295636
0.00379743 -0.000813729 3.81222e-05
-0.000813729 0.00075426 -1.52609e-05
3.81222e-05 -1.52609e-05 0.00080332
0.00102699 -0.000821939 -9.96628e-06
-0.000821939 -0.00028868 7.2246e-06
-9.96628e-06 7.2246e-06 -0.000648888
0.00221921 -0.000810604 -3.70188e-06
-0.000810604 2.65034e-05 3.26453e-06
-3.70188e-06 3.26453e-06 -0.000182578
0.00244545 -0.000658515 5.70381e-06
-0.000658515 -1.15938e-05 -1.36204e-06
5.70381e-06 -1.36204e-06 -3.96612e-05
0.00224859 -0.000783041 -3.85229e-06
-0.000783041 0.000234652 9.94172e-06
-3.85229e-06 9.94172e-06 -6.85682e-05
0.00215982 -0.000581542 4.64106e-07
-0.000581542 2.02663e-05 1.43637e-06
4.64106e-07 1.43637e-06 -0.000103088
0.00230304 -0.00057648 -4.7802e-07
-0.00057648 8.20764e-05 4.21617e-07
-4.7802e-07 4.21617e-07 1.79314e-05
0.00192894 -0.000532082 5.06902e-06
-0.000532082 2.2799e-05 6.42221e-06
5.06902e-06 6.42221e-06 -0.000178845
0.00207878 -0.00051964 1.9057e-08
-0.00051964 6.89822e-05 1.3194e-06
1.9057e-08 1.3194e-06 -6.9204e-05
0.00222991 -0.000556713 -2.33953e-06
-0.000556713 0.000142328 1.61564e-06
-2.33953e-06 1.61564e-06 1.43867e-05
0.00206585 -0.000498245 -4.41438e-06
-0.000498245 0.000148859 2.32964e-06
-4.41438e-06 2.32964e-06 -7.97474e-06
0.00219826 -0.00049634 -1.35333e-06
-0.00049634 0.00027962 -7.88934e-07
-1.35333e-06 -7.88934e-07 0.000111584
0.00215257 -0.000486304 2.82222e-06
-0.000486304 0.000207785 5.27613e-06
2.82222e-06 5.27613e-06 3.56798e-05
0.00208858 -0.000484862 6.61964e-07
-0.000484862 0.000224323 -6.35512e-07
6.61964e-07 -6.35512e-07 3.29924e-05
0.00199405 -0.000502278 -2.98676e-06
-0.000502278 0.000169607 -2.62846e-06
-2.98676e-06 -2.62846e-06 -4.25054e-05
0.00208215 -0.000560237 -4.42316e-06
-0.000560237 0.000309431 -4.22308e-06
-4.42316e-06 -4.22308e-06 2.59093e-05
0.00211534 -0.000585362 -4.7973e-07
-0.000585362 0.000258819 4.46517e-08
-4.7973e-07 4.46517e-08 -1.65531e-05
0.00220625 -0.000579013 7.95688e-06
-0.000579013 0.000300693 4.18502e-06
7.95688e-06 4.18502e-06 3.64348e-05
0.00163209 -0.000539616 -1.05367e-05
-0.000539616 0.000243444 2.14479e-06
-1.05367e-05 2.14479e-06 -9.76749e-05
0.00188385 -0.00064728 -1.77763e-06
-0.00064728 0.000292648 -2.81721e-07
-1.77763e-06 -2.81721e-07 -6.99916e-05
0.00174566 -0.000678845 6.05743e-06
-0.000678845 0.000117004 2.32175e-06
6.05743e-06 2.32175e-06 -0.000249168
0.000772114 -0.000258965 -1.11048e-05
-0.000258965 3.73037e-06 7.64559e-06
-1.11048e-05 7.64559e-06 -0.000225478
0.00138257 -0.000495442 7.1258e-07
-0.000495442 0.000241635 2.93413e-07
7.1258e-07 2.93413e-07 -9.86407e-05
0.00194092 -0.00069414 3.2361e-06
-0.00069414 0.000494938 2.32027e-06
3.2361e-06 2.32027e-06 8.29787e-05
0.000338759 -0.000186925 -2.19427e-05
-0.000186925 -0.000151492 1.89371e-05
-2.19427e-05 1.89371e-05 -0.000274108
0.000626044 -0.000225971 -5.04579e-07
-0.000225971 -1.24846e-05 2.49624e-07
-5.04579e-07 2.49624e-07 -0.000235002
0.00100616 -0.000379811 7.46919e-06
-0.000379811 0.000106405 -1.4318e-06
7.46919e-06 -1.4318e-06 -0.000189183
0.00521622 0.000166941 -0.000149438
0.000166941 0.00302104 9.87868e-06
-0.000149438 9.87868e-06 0.00300503
0.000502454 -0.000156465 -3.44251e-06
-0.000156465 -3.79824e-05 -8.60515e-07
-3.44251e-06 -8.60515e-07 -0.000141709
0.00120638 -0.000264777 5.77285e-06
-0.000264777 0.000426873 -2.51096e-06
5.77285e-06 -2.51096e-06 0.000174972
0.00461986 0.000180382 2.23449e-05
0.000180382 0.00265447 6.83372e-07
2.23449e-05 6.83372e-07 0.00263475
0.000664589 -0.000103008 2.09595e-05
-0.000103008 8.54734e-05 -1.45318e-05
2.09595e-05 -1.45318e-05 -2.20133e-06
0.00411718 0.000140786 0.000116505
0.000140786 0.00231559 -7.64058e-06
0.000116505 -7.64058e-06 0.002309
0.00220917 0.00061354 5.88864e-06
0.00061354 0.00091931 -1.20001e-06
5.88864e-06 -1.20001e-06 0.000524298
0.000721439 0.000271132 -1.34699e-06
0.000271132 4.71612e-05 -3.23761e-06
-1.34699e-06 -3.23761e-06 -0.000172047
0.000312156 0.00016989 4.51234e-06
0.00016989 -0.000151484 3.2467e-06
4.51234e-06 3.2467e-06 -0.000361945
-0.000744371 4.49386e-05 -2.70512e-06
4.49386e-05 -0.000775401 1.56805e-06
-2.70512e-06 1.56805e-06 -0.000976043
0.000368306 0.000122932 -1.27272e-07
0.000122932 -3.38536e-05 2.22415e-06
-1.27272e-07 2.22415e-06 -0.000258408
0.00101141 0.000111468 2.53975e-07
0.000111468 0.000344023 -1.16612e-05
2.53975e-07 -1.16612e-05 0.000152794
0.000229152 6.32369e-05 -3.42015e-06
6.32369e-05 -8.67079e-05 3.16336e-06
-3.42015e-06 3.16336e-06 -0.000305898
0.000577118 8.87141e-05 -1.35917e-07
8.87141e-05 7.65334e-05 5.66272e-07
-1.35917e-07 5.66272e-07 -7.90481e-05
0.000545902 4.44897e-05 -8.03262e-06
4.44897e-05 3.12842e-05 -1.56374e-05
-8.03262e-06 -1.56374e-05 -3.11571e-05
0.00328753 -0.000107584 -8.8958e-05
-0.000107584 0.00178034 -6.98088e-06
-8.8958e-05 -6.98088e-06 0.00178295
0.000414508 1.48383e-05 1.34208e-06
1.48383e-05 -4.43184e-05 -4.18093e-07
1.34208e-06 -4.18093e-07 -9.4604e-05
0.00040067 5.34596e-05 -3.78896e-06
5.34596e-05 -2.98781e-05 7.11205e-06
-3.78896e-06 7.11205e-06 -0.000157561
0.00286428 -0.000106111 -8.44581e-06
-0.000106111 0.00150359 7.86217e-07
-8.44581e-06 7.86217e-07 0.00150624
0.000298205 -5.27986e-05 -7.05053e-06
-5.27986e-05 -0.000114262 9.78548e-06
-7.05053e-06 9.78548e-06 -0.00015689
0.00267203 -8.71788e-05 3.7213e-05
-8.71788e-05 0.00137345 5.00397e-06
3.7213e-05 5.00397e-06 0.00138003
0.0151699 0.000629284 0.000512281
0.000629284 0.00184297 0.000125724
0.000512281 0.000125724 0.00162876
-0.00087938 -0.00310341 -0.000558115
-0.00310341 -0.00235361 -8.75881e-05
-0.000558115 -8.75881e-05 -0.00480239
-0.0094899 0.0015612 -0.000221672
0.0015612 0.0046155 -0.000128284
-0.000221672 -0.000128284 -0.00256916
0.000112739 4.71859e-05 1.59579e-05
4.71859e-05 -0.000166366 -7.81904e-06
1.59579e-05 -7.81904e-06 -0.000490385
0.00162047 0.00046927 -8.89507e-06
0.00046927 0.000697942 -1.36763e-07
-8.89507e-06 -1.36763e-07 0.000363265
0.00256496 0.000648243 -1.07987e-05
0.000648243 0.00134067 -2.65862e-06
-1.07987e-05 -2.65862e-06 0.000887223
0.00143842 0.000620353 1.093e-06
0.000620353 0.000435045 -9.21698e-07
1.093e-06 -9.21698e-07 -8.21996e-06
0.00149911 0.000680412 1.20561e-05
0.000680412 0.000274967 1.87224e-05
1.20561e-05 1.87224e-05 -0.000149246
-0.000617583 0.000469669 3.37271e-05
0.000469669 -0.000828504 7.52244e-06
3.37271e-05 7.52244e-06 -0.00118805
-8.41894e-05 0.000348323 -1.4058e-05
0.000348323 -8.76351e-05 1.05463e-05
-1.4058e-05 1.05463e-05 -0.000577243
-0.000324825 0.000572347 9.189e-06
0.000572347 -0.00071619 -1.53417e-06
9.189e-06 -1.53417e-06 -0.00105
0.00227605 0.000840208 7.38604e-06
0.000840208 0.000851172 7.69224e-06
7.38604e-06 7.69224e-06 0.000557413
-0.000402369 0.000585173 6.47997e-06
0.000585173 -0.000887487 -5.43874e-06
6.47997e-06 -5.43874e-06 -0.00114377
0.0038205 0.00108339 6.23194e-06
0.00108339 0.00133588 1.40596e-05
6.23194e-06 1.40596e-05 0.00112722
0.00130979 0.000907157 2.24167e-05
0.000907157 -1.15448e-05 6.30633e-06
2.24167e-05 6.30633e-06 -0.00031293
0.000529484 0.000795709 3.86585e-06
0.000795709 -0.000488013 1.01292e-08
3.86585e-06 1.01292e-08 -0.000563081
0.000662137 0.000545447 -1.5221e-06
0.000545447 8.22726e-05 -5.56957e-05
-1.5221e-06 -5.56957e-05 -0.000129793
0.00490216 0.00184231 2.12424e-05
0.00184231 -0.00173692 2.92296e-05
2.12424e-05 2.92296e-05 -0.000129828
0.0138882 0.00325892 0.000295672
0.00325892 0.000740086 0.00016132
0.000295672 0.00016132 -0.000779975
0.0120055 -0.00460085 0.000576444
-0.00460085 0.00577624 -4.45392e-05
0.000576444 -4.45392e-05 0.00221334
0.00589487 0.0052755 0.000595671
0.0052755 -0.00105995 0.000333432
0.000595671 0.000333432 -0.00518141
9.10604e-05 0.00139482 -5.62492e-05
0.00139482 0.000147714 4.26386e-06
-5.62492e-05 4.26386e-06 0.000791809
0.00392394 0.00263125 -0.00010706
0.00263125 -0.000681444 -5.46295e-05
-0.00010706 -5.46295e-05 0.000217372
0.00623933 0.00228347 7.00739e-05
0.00228347 0.00117208 3.28446e-05
7.00739e-05 3.28446e-05 0.000920716
0.00446019 0.00165771 2.04177e-05
0.00165771 0.00138217 9.55535e-06
2.04177e-05 9.55535e-06 0.00102137
-8.11205e-05 0.000720928 -3.03665e-05
0.000720928 -0.000423894 8.59443e-06
-3.03665e-05 8.59443e-06 -0.000664531
0.00720726 0.00262915 -0.000187369
0.00262915 0.00189133 -1.93623e-05
-0.000187369 -1.93623e-05 0.00124604
0.00309305 -0.000558169 1.48418e-05
-0.000558169 -0.000807114 1.76639e-05
1.48418e-05 1.76639e-05 2.46237e-05
0.0115612 -0.000570806 -5.0562e-05
-0.000570806 0.000984988 -1.51009e-05
-5.0562e-05 -1.51009e-05 0.00107166
-0.0128192 -0.00293533 0.000829825
-0.00293533 -0.00510825 1.31545e-06
0.000829825 1.31545e-06 -0.00630685
0.000927849 -0.00128582 -0.000116768
-0.00128582 -0.000445623 3.57691e-05
-0.000116768 3.57691e-05 -0.000720971
0.00864142 -0.00272544 -2.25348e-05
-0.00272544 -0.000443149 9.12148e-05
-2.25348e-05 9.12148e-05 0.000736786
0.00110233 -0.000293811 -0.000301271
-0.000293811 -0.00515188 3.51815e-05
-0.000301271 3.51815e-05 -0.00672976
0.00293759 -0.00109193 3.53452e-05
-0.00109193 -8.82884e-05 7.69863e-07
3.53452e-05 7.69863e-07 3.09857e-05
0.00518657 -0.00078056 -5.03268e-05
-0.00078056 -0.000583057 -2.70717e-07
-5.03268e-05 -2.70717e-07 0.000313357
0.00601165 -0.000936434 4.96649e-05
-0.000936434 0.00136441 -3.49176e-05
4.96649e-05 -3.49176e-05 0.00173016
0.00584412 -0.000494052 0.000112804
-0.000494052 0.0013554 1.2278e-06
0.000112804 1.2278e-06 0.00162311
-0.00331992 -0.000359681 1.02643e-05
-0.000359681 -0.00300024 1.23242e-05
1.02643e-05 1.23242e-05 -0.00272996
0.00209889 -0.000682904 -7.46036e-06
-0.000682904 -0.000227586 2.16716e-06
-7.46036e-06 2.16716e-06 -5.93755e-05
0.00239056 -0.000520425 2.6159e-05
-0.000520425 -0.000222645 -6.51911e-06
2.6159e-05 -6.51911e-06 5.55553e-05
0.00174135 -0.000769554 1.8707e-06
-0.000769554 -0.000232483 6.20522e-06
1.8707e-06 6.20522e-06 -0.000439306
0.0023802 -0.000653717 1.35612e-06
-0.000653717 -4.18465e-05 1.61748e-06
1.35612e-06 1.61748e-06 -7.14041e-05
0.00242454 -0.000573454 2.11844e-06
-0.000573454 1.56414e-05 -5.14339e-07
2.11844e-06 -5.14339e-07 2.21125e-05
0.00218535 -0.000583753 2.70103e-06
-0.000583753 3.32216e-05 5.40872e-06
2.70103e-06 5.40872e-06 -8.91944e-05
0.00225475 -0.00056867 2.96525e-07
-0.00056867 6.68408e-05 4.55538e-07
2.96525e-07 4.55538e-07 -7.91146e-07
0.00224705 -0.00050726 -1.97411e-06
-0.00050726 5.08711e-05 2.33475e-07
-1.97411e-06 2.33475e-07 -1.05223e-05
0.00206994 -0.000519845 3.89042e-06
-0.000519845 6.09776e-05 1.43796e-06
3.89042e-06 1.43796e-06 -7.57613e-05
0.00219414 -0.000549987 -1.11031e-07
-0.000549987 0.000144646 3.54749e-08
-1.11031e-07 3.54749e-08 1.595e-05
0.00209153 -0.000491839 1.16216e-08
-0.000491839 0.000123937 5.08822e-07
1.16216e-08 5.08822e-07 -8.68655e-06
0.00209816 -0.000507078 -1.07084e-06
-0.000507078 0.000160232 1.56725e-06
-1.07084e-06 1.56725e-06 4.73168e-06
0.00213399 -0.000486734 -1.71893e-06
-0.000486734 0.000234777 2.64974e-07
-1.71893e-06 2.64974e-07 7.02018e-05
0.00219469 -0.000488856 -2.04756e-06
-0.000488856 0.000285421 -5.90368e-07
-2.04756e-06 -5.90368e-07 0.000103437
0.00207925 -0.000483284 4.42296e-06
-0.000483284 0.000217419 2.61165e-06
4.42296e-06 2.61165e-06 2.66182e-05
0.00204045 -0.00050573 -3.22645e-07
-0.00050573 0.000198021 -1.33733e-07
-3.22645e-07 -1.33733e-07 -1.49459e-05
0.00208606 -0.000500602 -1.05041e-06
-0.000500602 0.000273222 -2.69197e-06
-1.05041e-06 -2.69197e-06 3.86384e-05
0.00175747 -0.000491452 -8.78058e-06
-0.000491452 0.000218261 -8.54983e-07
-8.78058e-06 -8.54983e-07 -7.43476e-05
0.00202047 -0.000560887 -7.27896e-07
-0.000560887 0.000269799 -1.21285e-06
-7.27896e-07 -1.21285e-06 -1.97003e-05
0.00218326 -0.000594121 5.01379e-06
-0.000594121 0.000304213 2.74772e-06
5.01379e-06 2.74772e-06 2.58024e-05
0.000931007 -0.000293248 -1.57021e-05
-0.000293248 -2.02879e-06 8.18293e-06
-1.57021e-05 8.18293e-06 -0.000238962
0.00168371 -0.000537298 -9.981e-08
-0.000537298 0.00028376 8.73659e-07
-9.981e-08 8.73659e-07 -5.43933e-05
0.00181438 -0.000638171 3.19846e-06
-0.000638171 0.000251511 2.08966e-06
3.19846e-06 2.08966e-06 -0.000111472
0.000214873 -0.000192493 -1.88147e-05
-0.000192493 -0.000249358 2.01838e-05
-1.88147e-05 2.01838e-05 -0.00038198
0.00077857 -0.000266708 9.15237e-07
-0.000266708 3.43299e-06 1.59606e-07
9.15237e-07 1.59606e-07 -0.0002302
0.0013531 -0.000493058 1.12956e-05
-0.000493058 0.000227596 -2.01952e-06
1.12956e-05 -2.01952e-06 -0.000112025
0.00630079 9.01199e-05 -0.000226558
9.01199e-05 0.00366978 1.43286e-05
-0.000226558 1.43286e-05 0.00366934
0.000373555 -0.000195045 -1.43866e-06
-0.000195045 -0.00012943 -1.65526e-07
-1.43866e-06 -1.65526e-07 -0.000253061
0.000617461 -0.000230443 9.59892e-06
-0.000230443 -1.27538e-05 -6.34826e-06
9.59892e-06 -6.34826e-06 -0.00024046
0.00568316 0.000118823 -5.81566e-06
0.000118823 0.00330652 -1.69765e-06
-5.81566e-06 -1.69765e-06 0.00329843
0.000418341 -0.000154441 2.00881e-05
-0.000154441 -8.27802e-05 -1.69957e-05
2.00881e-05 -1.69957e-05 -0.000193223
0.00502464 0.000115195 0.000181413
0.000115195 0.00289863 -1.67613e-05
0.000181413 -1.67613e-05 0.00289273
0.00178559 0.000634133 -3.89541e-06
0.000634133 0.000500577 3.60235e-06
-3.89541e-06 3.60235e-06 0.000101814
0.00178841 0.000563832 -1.39308e-06
0.000563832 0.000635275 -1.4055e-06
-1.39308e-06 -1.4055e-06 0.000258029
0.00084195 0.00033394 -9.07216e-07
0.00033394 6.49229e-05 -2.99757e-06
-9.07216e-07 -2.99757e-06 -0.00021388
0.0011245 0.000336323 -9.2392e-06
0.000336323 0.000340422 -2.74348e-06
-9.2392e-06 -2.74348e-06 9.19638e-05
0.000230638 0.000172636 2.09802e-06
0.000172636 -0.000190674 -2.55333e-07
2.09802e-06 -2.55333e-07 -0.000408531
0.000945363 0.000251536 -2.30304e-06
0.000251536 0.0002988 -6.86319e-06
-2.30304e-06 -6.86319e-06 6.4648e-05
-1.56608e-05 7.31394e-05 -6.98904e-07
7.31394e-05 -0.000290286 3.44573e-06
-6.98904e-07 3.44573e-06 -0.000502555
0.000658947 0.000133365 9.29321e-07
0.000133365 0.000138616 -4.45878e-07
9.29321e-07 -4.45878e-07 -6.05324e-05
0.000725892 8.12254e-05 -1.54394e-05
8.12254e-05 0.000132317 -1.76686e-05
-1.54394e-05 -1.76686e-05 5.29559e-05
0.000310985 5.99808e-05 -3.06337e-06
5.99808e-05 -7.0785e-05 1.02725e-05
-3.06337e-06 1.02725e-05 -0.000233852
0.000526954 5.19099e-05 1.25095e-07
5.19099e-05 2.42355e-05 -2.14741e-07
1.25095e-07 -2.14741e-07 -3.75597e-05
0.00395776 -0.000129165 -0.000115584
-0.000129165 0.00221784 -9.44325e-06
-0.000115584 -9.44325e-06 0.00221372
0.00326508 -0.000128248 -1.1108e-05
-0.000128248 0.0017692 9.75145e-07
-1.1108e-05 9.75145e-07 0.00176611
0.000366248 4.25189e-05 5.70442e-06
4.25189e-05 -7.34287e-05 1.26127e-05
5.70442e-06 1.26127e-05 -0.00012239
0.0028502 -0.000107223 4.55289e-05
-0.000107223 0.00149481 5.05578e-06
4.55289e-05 5.05578e-06 0.00149695
0.00395452 0.000173729 9.14542e-05
0.000173729 -0.00134059 3.10777e-05
9.14542e-05 3.10777e-05 0.000229604
0.00538437 -0.000931661 0.000187195
-0.000931661 -0.00452743 8.781e-05
0.000187195 8.781e-05 -0.00538773
0.0130889 -0.0033567 -0.000237981
-0.0033567 0.00538829 -0.000105533
-0.000237981 -0.000105533 0.00381625
0.00149999 0.000657696 6.13182e-06
0.000657696 7.91766e-05 8.85222e-06
6.13182e-06 8.85222e-06 -0.000280247
0.00476353 0.000881278 -1.37169e-05
0.000881278 0.00260545 3.93728e-07
-1.37169e-05 3.93728e-07 0.00211504
0.000652321 0.000518883 -1.0179e-05
0.000518883 -3.70271e-05 -6.0208e-06
-1.0179e-05 -6.0208e-06 -0.000452688
0.00149892 0.000726368 1.35962e-06
0.000726368 0.000439386 -2.8485e-06
1.35962e-06 -2.8485e-06 2.25619e-05
0.0017111 0.000704794 -1.75791e-06
0.000704794 0.000427693 3.68616e-06
-1.75791e-06 3.68616e-06 -8.3936e-06
0.0015567 0.000768521 2.34712e-05
0.000768521 0.000269211 1.29044e-05
2.34712e-05 1.29044e-05 -0.000106072
0.00264161 0.000895287 -4.50841e-05
0.000895287 0.00106503 -2.26059e-06
-4.50841e-05 -2.26059e-06 0.000647069
0.000464342 0.000646354 1.67762e-05
0.000646354 -0.000156502 -3.62193e-05
1.67762e-05 -3.62193e-05 -0.000436983
0.00200223 0.000894766 1.20986e-06
0.000894766 0.000485822 -1.83991e-06
1.20986e-06 -1.83991e-06 0.000161675
0.00215006 0.000916427 8.98324e-06
0.000916427 0.000316527 -8.90069e-07
8.98324e-06 -8.90069e-07 0.000252148
0.00219231 0.000935894 1.53464e-05
0.000935894 0.000309979 -3.15191e-06
1.53464e-05 -3.15191e-06 -1.81451e-05
0.00187204 0.000800006 2.4039e-05
0.000800006 0.000221743 2.32806e-05
2.4039e-05 2.32806e-05 2.51488e-05
0.000865009 0.000857625 -6.40695e-06
0.000857625 -0.000248829 -6.28162e-06
-6.40695e-06 -6.28162e-06 -0.000528276
0.000442235 0.000780388 -1.97467e-05
0.000780388 -0.000527725 -2.49794e-05
-1.97467e-05 -2.49794e-05 -0.000589518
0.00131977 0.00082056 5.43813e-05
0.00082056 -0.00115126 3.71909e-05
5.43813e-05 3.71909e-05 -0.000747055
0.00610159 0.00191261 -9.42018e-05
0.00191261 -0.00133426 -2.83186e-05
-9.42018e-05 -2.83186e-05 0.000202031
0.00429506 0.00219238 0.000582513
0.00219238 -0.00469075 0.000129303
0.000582513 0.000129303 -0.00631801
0.00226423 0.00210599 -0.000181425
0.00210599 -0.00070507 -7.21368e-05
-0.000181425 -7.21368e-05 8.24851e-05
0.00469869 0.00185951 -3.08817e-05
0.00185951 0.000802073 -9.55357e-06
-3.08817e-05 -9.55357e-06 0.000642683
0.0052496 0.00177175 -0.000153359
0.00177175 0.00168818 -4.02224e-05
-0.000153359 -4.02224e-05 0.00130674
0.00250086 -0.000237269 -6.16741e-05
-0.000237269 -0.000769468 -1.873e-05
-6.16741e-05 -1.873e-05 -0.000369775
-0.000678863 -0.000309135 9.31283e-05
-0.000309135 -0.00143742 1.99621e-05
9.31283e-05 1.99621e-05 -0.000425782
0.00364129 0.000791028 0.00023148
0.000791028 -0.005172 -1.95465e-05
0.00023148 -1.95465e-05 -0.00537281
0.000482515 -0.000823077 -5.26819e-05
-0.000823077 -0.00132292 7.65782e-05
-5.26819e-05 7.65782e-05 -0.00100828
0.00680008 -0.000873444 -0.000173253
-0.000873444 0.000338453 4.91534e-05
-0.000173253 4.91534e-05 0.000769238
0.00262206 -0.000688334 -2.06595e-05
-0.000688334 -0.000485949 1.18684e-05
-2.06595e-05 1.18684e-05 -3.44296e-05
0.00430422 -0.000492811 -9.6478e-06
-0.000492811 0.000477398 -2.84707e-06
-9.6478e-06 -2.84707e-06 0.000679872
0.00288459 -0.000389372 6.6462e-05
-0.000389372 -3.90108e-05 -8.85414e-06
6.6462e-05 -8.85414e-06 0.000317245
0.00378083 -0.000111391 5.07203e-05
-0.000111391 0.00110309 2.57589e-06
5.07203e-05 2.57589e-06 0.00112737
0.000368929 -0.000538207 -2.22157e-05
-0.000538207 -0.00120027 1.38798e-05
-2.22157e-05 1.38798e-05 -0.000918349
0.00221333 -0.000538168 -2.70186e-06
-0.000538168 -0.000351173 1.54829e-06
-2.70186e-06 1.54829e-06 -8.13833e-05
0.00245084 -0.000452436 4.92532e-06
-0.000452436 -0.000192273 -1.35659e-06
4.92532e-06 -1.35659e-06 2.91716e-05
0.00230679 -0.000643426 -2.03618e-06
-0.000643426 -7.0968e-05 3.81241e-06
-2.03618e-06 3.81241e-06 -9.9066e-05
0.00240749 -0.000560411 1.05875e-08
-0.000560411 2.52065e-05 -3.91913e-07
1.05875e-08 -3.91913e-07 3.69066e-05
0.00231653 -0.000442348 -5.82067e-07
-0.000442348 -2.04177e-05 -1.48763e-07
-5.82067e-07 -1.48763e-07 -3.59324e-06
0.00220188 -0.000559045 -2.2795e-07
-0.000559045 5.02586e-05 8.87681e-07
-2.2795e-07 8.87681e-07 -1.91815e-05
0.00223968 -0.000512248 -8.77565e-07
-0.000512248 5.75353e-05 5.98353e-08
-8.77565e-07 5.98353e-08 -4.23461e-06
0.00213855 -0.000433731 -1.37272e-06
-0.000433731 6.86029e-05 9.47496e-07
-1.37272e-06 9.47496e-07 -9.51352e-06
0.00214773 -0.000542313 6.12861e-07
-0.000542313 0.000140537 -1.12597e-06
6.12861e-07 -1.12597e-06 1.1864e-05
0.00207846 -0.000492342 9.96693e-07
-0.000492342 0.000112401 -4.80129e-07
9.96693e-07 -4.80129e-07 -2.07676e-05
0.00205444 -0.000453975 -9.08688e-07
-0.000453975 0.000141892 -8.51447e-08
-9.08688e-07 -8.51447e-08 -9.15392e-06
0.00206614 -0.000477222 -1.39424e-06
-0.000477222 0.000188189 1.47669e-06
-1.39424e-06 1.47669e-06 2.70176e-05
0.00215352 -0.000484214 -1.70487e-06
-0.000484214 0.000252361 6.75557e-07
-1.70487e-06 6.75557e-07 7.41572e-05
0.00217656 -0.000476297 -1.12818e-06
-0.000476297 0.000290504 -2.01609e-06
-1.12818e-06 -2.01609e-06 8.94516e-05
0.00208275 -0.000509205 2.72988e-06
-0.000509205 0.000223347 2.83187e-06
2.72988e-06 2.83187e-06 9.49367e-06
0.00209204 -0.000503018 3.83465e-07
-0.000503018 0.000277003 -4.17133e-07
3.83465e-07 -4.17133e-07 4.28531e-05
0.00186468 -0.00043913 -6.05175e-06
-0.00043913 0.000243255 2.01238e-07
-6.05175e-06 2.01238e-07 -1.02169e-05
0.00109356 -0.000301327 -1.93493e-05
-0.000301327 2.64153e-05 8.22147e-06
-1.93493e-05 8.22147e-06 -0.000206231
0.00174406 -0.000488404 -1.159e-06
-0.000488404 0.000218369 -5.58955e-07
-1.159e-06 -5.58955e-07 -7.62981e-05
0.00195009 -0.000561095 2.73135e-06
-0.000561095 0.000224089 1.50959e-06
2.73135e-06 1.50959e-06 -7.13836e-05
0.000318365 -0.000232823 -2.19679e-05
-0.000232823 -0.000196825 1.94584e-05
-2.19679e-05 1.94584e-05 -0.000345153
0.000925592 -0.000296201 1.46428e-06
-0.000296201 -1.40687e-05 -1.66948e-08
1.46428e-06 -1.66948e-08 -0.000252832
0.00171386 -0.000533954 9.3802e-06
-0.000533954 0.000308398 -2.97006e-07
9.3802e-06 -2.97006e-07 -2.67204e-05
0.00696288 4.49811e-05 -0.000269087
4.49811e-05 0.00406144 1.91463e-05
-0.000269087 1.91463e-05 0.00406667
0.000428032 -0.000248081 -1.67785e-06
-0.000248081 -0.000108782 8.26924e-07
-1.67785e-06 8.26924e-07 -0.000253027
0.000731733 -0.000275339 1.23547e-05
-0.000275339 -3.11485e-05 -7.24489e-06
1.23547e-05 -7.24489e-06 -0.000269865
0.00649268 7.37687e-05 -5.094e-06
7.37687e-05 0.00379262 -2.32532e-07
-5.094e-06 -2.32532e-07 0.00379093
0.000599853 -0.000241875 2.63646e-05
-0.000241875 9.26069e-06 -1.96458e-05
2.63646e-05 -1.96458e-05 -0.000116628
0.00595004 0.000135379 0.000209515
0.000135379 0.00349523 -2.55054e-05
0.000209515 -2.55054e-05 0.0034755
0.00159543 0.00060153 -1.86376e-06
0.00060153 0.000201348 5.73819e-06
-1.86376e-06 5.73819e-06 -0.000156953
0.00170754 0.000632696 -1.71358e-06
0.000632696 0.000440567 4.48435e-07
-1.71358e-06 4.48435e-07 3.9311e-05
0.00125552 0.000449537 -7.61879e-06
0.000449537 0.000199565 -4.56939e-07
-7.61879e-06 -4.56939e-07 -0.000115709
0.00138164 0.000518091 -4.76491e-06
0.000518091 0.000351561 -1.04805e-06
-4.76491e-06 -1.04805e-06 -8.59825e-06
0.000975084 0.000328997 -3.90844e-06
0.000328997 0.000142727 -1.98656e-06
-3.90844e-06 -1.98656e-06 -0.00012922
0.00123113 0.000258773 -8.96321e-06
0.000258773 0.000406368 -2.53119e-06
-8.96321e-06 -2.53119e-06 0.000172973
-0.000109802 0.000128721 -3.56279e-06
0.000128721 -0.000417152 -1.25851e-06
-3.56279e-06 -1.25851e-06 -0.000627663
0.000864497 0.000170056 -9.38102e-07
0.000170056 0.000228561 -4.07571e-07
-9.38102e-07 -4.07571e-07 9.35766e-06
0.000543343 0.000126238 -2.33099e-05
0.000126238 -5.95951e-06 -1.81408e-05
-2.33099e-05 -1.81408e-05 -9.75477e-05
0.000353483 0.000100431 7.93668e-07
0.000100431 -6.3991e-05 1.08229e-05
7.93668e-07 1.08229e-05 -0.000248833
0.000434682 7.51177e-05 -7.22374e-07
7.51177e-05 -4.38832e-05 -3.40494e-07
-7.22374e-07 -3.40494e-07 -0.000118288
0.00452188 -0.000151495 -0.000137304
-0.000151495 0.0025892 -1.28272e-05
-0.000137304 -1.28272e-05 0.00257626
0.000293425 5.54181e-05 8.75372e-06
5.54181e-05 -0.000116715 1.54111e-05
8.75372e-06 1.54111e-05 -0.000176955
0.00376778 -0.000148319 -1.08252e-05
-0.000148319 0.00210223 1.12443e-06
-1.08252e-05 1.12443e-06 0.00209281
0.00312414 -0.000133265 5.37645e-05
-0.000133265 0.00167994 5.50286e-06
5.37645e-05 5.50286e-06 0.00167502
0.000646983 0.000166271 -2.70738e-06
0.000166271 -0.00180771 9.45852e-06
-2.70738e-06 9.45852e-06 -0.00106364
0.00506138 6.06293e-05 6.66349e-05
6.06293e-05 -0.000797881 2.00126e-05
6.66349e-05 2.00126e-05 0.000659543
0.0145667 0.000832935 -1.47656e-05
0.000832935 0.00214692 1.65154e-05
-1.47656e-05 1.65154e-05 0.00200308
0.00194969 0.000771851 -5.65582e-07
0.000771851 0.00031841 5.13831e-06
-5.65582e-07 5.13831e-06 -3.41361e-05
0.00217532 0.000739693 -1.05793e-06
0.000739693 0.000292126 3.93997e-06
-1.05793e-06 3.93997e-06 -2.29553e-05
0.00153982 0.000665012 -5.57502e-07
0.000665012 0.000113894 -3.76158e-06
-5.57502e-07 -3.76158e-06 -0.000243191
0.00285965 0.000895139 -1.51471e-05
0.000895139 0.0012417 2.62507e-06
-1.51471e-05 2.62507e-06 0.000793134
0.00199626 0.000736441 -6.51448e-06
0.000736441 0.000627054 -9.65952e-06
-6.51448e-06 -9.65952e-06 0.000176815
0.00206509 0.000848403 7.31103e-06
0.000848403 0.000526254 3.58352e-06
7.31103e-06 3.58352e-06 0.000143018
0.00201942 0.000850544 -1.94231e-06
0.000850544 0.000148636 -3.50783e-06
-1.94231e-06 -3.50783e-06 -0.000167116
0.0023725 0.000960404 -1.89399e-05
0.000960404 0.000643962 5.65192e-06
-1.89399e-05 5.65192e-06 0.00031412
0.00101601 0.000799757 -1.48843e-05
0.000799757 -0.000402816 1.49899e-05
-1.48843e-05 1.49899e-05 -0.000336766
0.00276117 0.000999649 8.58157e-07
0.000999649 0.000640666 3.81028e-06
8.58157e-07 3.81028e-06 0.000300834
0.00270909 0.000855889 -4.46143e-06
0.000855889 0.000405554 3.86891e-06
-4.46143e-06 3.86891e-06 0.000170077
0.00127996 0.000410936 3.93656e-05
0.000410936 -0.000302476 1.71845e-05
3.93656e-05 1.71845e-05 -0.000237306
0.000379684 0.000661161 9.38886e-06
0.000661161 -0.000561145 -4.69759e-06
9.38886e-06 -4.69759e-06 -0.000741421
0.000968982 0.000866725 -3.57788e-05
0.000866725 -0.000189697 -3.67455e-06
-3.57788e-05 -3.67455e-06 -0.000474352
0.00311432 0.000968 8.71102e-06
0.000968 -0.000167783 8.47523e-06
8.71102e-06 8.47523e-06 9.32902e-05
0.0072989 0.00154336 -2.93026e-05
0.00154336 -0.000724462 -4.30657e-05
-2.93026e-05 -4.30657e-05 0.000446103
0.00449357 0.0015641 -4.7306e-05
0.0015641 0.00111744 -5.80376e-05
-4.7306e-05 -5.80376e-05 0.00102961
0.00227946 -9.27299e-05 4.03765e-05
-9.27299e-05 1.76194e-05 3.7163e-06
4.03765e-05 3.7163e-06 0.000202494
0.00297681 -0.000246782 -6.29206e-05
-0.000246782 -0.000441403 3.78206e-06
-6.29206e-05 3.78206e-06 5.79356e-07
0.00429554 0.000395206 2.34899e-05
0.000395206 -0.000143008 -2.05864e-05
2.34899e-05 -2.05864e-05 0.000582675
0.000909231 -0.000584439 -7.27222e-05
-0.000584439 -0.00138698 5.37387e-05
-7.27222e-05 5.37387e-05 -0.000915273
0.00272092 -0.000538807 -0.000100584
-0.000538807 -0.000405531 -1.30604e-06
-0.000100584 -1.30604e-06 -0.000265614
0.00271062 -0.000385689 8.64836e-06
-0.000385689 -5.69388e-05 -3.17022e-06
8.64836e-06 -3.17022e-06 0.000304364
0.00256241 -0.000104655 -1.69231e-05
-0.000104655 0.000293602 6.98547e-07
-1.69231e-05 6.98547e-07 0.000344462
0.00251315 -0.00024973 1.53504e-05
-0.00024973 -1.63042e-05 -2.85588e-07
1.53504e-05 -2.85588e-07 0.000138241
0.00237682 9.95021e-06 1.11966e-05
9.95021e-06 -7.18501e-05 3.20333e-06
1.11966e-05 3.20333e-06 3.10359e-06
0.00217806 -0.00056522 -1.89523e-05
-0.00056522 -0.000397444 5.69157e-06
-1.89523e-05 5.69157e-06 -0.000143418
0.00247038 -0.00046905 -2.70127e-06
-0.00046905 -0.000178375 7.1528e-07
-2.70127e-06 7.1528e-07 5.69207e-06
0.0023863 -0.000325908 2.11657e-07
-0.000325908 -9.93533e-05 -8.69174e-07
2.11657e-07 -8.69174e-07 2.17457e-06
0.00238495 -0.000548134 -3.9576e-06
-0.000548134 2.83665e-05 8.76671e-07
-3.9576e-06 8.76671e-07 4.49501e-05
0.00232035 -0.000439534 -3.02638e-08
-0.000439534 -5.19208e-06 -1.84634e-07
-3.02638e-08 -1.84634e-07 7.00061e-06
0.00222152 -0.00036407 -4.86474e-07
-0.00036407 1.29219e-05 4.92479e-07
-4.86474e-07 4.92479e-07 1.25719e-06
0.00223889 -0.000517772 -5.04521e-07
-0.000517772 6.76743e-05 -7.61492e-07
-5.04521e-07 -7.61492e-07 5.12109e-06
0.0021438 -0.000433233 4.79689e-07
-0.000433233 6.75971e-05 -1.50501e-07
4.79689e-07 -1.50501e-07 -1.03538e-05
0.00209643 -0.000395253 -2.13948e-06
-0.000395253 0.000102371 8.217e-07
-2.13948e-06 8.217e-07 -2.08539e-06
0.00206882 -0.000492919 2.26114e-06
-0.000492919 0.000103017 -1.36948e-06
2.26114e-06 -1.36948e-06 -3.06951e-05
0.00203693 -0.000452435 6.47317e-07
-0.000452435 0.00012714 -4.72329e-07
6.47317e-07 -4.72329e-07 -2.40964e-05
0.00204384 -0.000426035 -9.8043e-07
-0.000426035 0.000164754 -1.2551e-06
-9.8043e-07 -1.2551e-06 -5.53018e-06
0.00210867 -0.000479427 -6.80433e-07
-0.000479427 0.000216741 2.18638e-06
-6.80433e-07 2.18638e-06 4.23336e-05
0.00213799 -0.000474746 -4.49183e-07
-0.000474746 0.00026757 -2.04077e-07
-4.49183e-07 -2.04077e-07 6.72767e-05
0.00185037 -0.000404747 -4.35673e-06
-0.000404747 0.000187252 9.22e-08
-4.35673e-06 9.22e-08 -4.00693e-05
0.00210154 -0.000505652 2.25791e-06
-0.000505652 0.000283116 2.35391e-06
2.25791e-06 2.35391e-06 4.93571e-05
0.00190922 -0.000444279 -8.73809e-07
-0.000444279 0.000270978 2.04847e-08
-8.73809e-07 2.04847e-08 1.83441e-05
0.00110755 -0.000272029 -1.7997e-05
-0.000272029 -2.46607e-06 7.71156e-06
-1.7997e-05 7.71156e-06 -0.000218696
0.000274535 -0.00020179 -1.94668e-05
-0.00020179 -0.00024399 1.7714e-05
-1.94668e-05 1.7714e-05 -0.000383165
0.00106105 -0.000300327 6.60203e-07
-0.000300327 5.29935e-06 -3.63614e-08
6.60203e-07 -3.63614e-08 -0.000227578
0.00175568 -0.000487741 6.67546e-06
-0.000487741 0.000233481 -6.96871e-07
6.67546e-06 -6.96871e-07 -6.36774e-05
0.00736396 -4.04062e-05 -0.000309962
-4.04062e-05 0.00428676 2.3657e-05
-0.000309962 2.3657e-05 0.00430059
0.000352459 -0.000232857 -1.30372e-06
-0.000232857 -0.000185201 1.56013e-06
-1.30372e-06 1.56013e-06 -0.000328598
0.000882628 -0.000295303 1.52271e-05
-0.000295303 -4.81785e-05 -6.81651e-06
1.52271e-05 -6.81651e-06 -0.00028844
0.00717492 1.31031e-05 -1.02683e-06
1.31031e-05 0.00419131 6.88624e-07
-1.02683e-06 6.88624e-07 0.00419796
0.000540524 -0.000253731 2.48979e-05
-0.000253731 -4.47672e-05 -2.06431e-05
2.48979e-05 -2.06431e-05 -0.000189592
0.00681646 3.66663e-05 0.000275243
3.66663e-05 0.00398673 -2.52372e-05
0.000275243 -2.52372e-05 0.00398954
0.00189458 0.000658688 -1.2837e-06
0.000658688 0.000239278 6.17633e-06
-1.2837e-06 6.17633e-06 -8.98687e-05
0.00166348 0.000613991 -1.134e-07
0.000613991 0.000247974 8.15332e-07
-1.134e-07 8.15332e-07 -0.000110948
0.00157504 0.000509141 -8.81145e-06
0.000509141 0.000284057 5.19878e-07
-8.81145e-06 5.19878e-07 -3.97478e-05
0.00152211 0.00061664 1.17421e-07
0.00061664 0.000318423 -2.67798e-06
1.17421e-07 -2.67798e-06 -8.13074e-05
0.00130296 0.0004484 -1.20264e-06
0.0004484 0.000236521 -8.7816e-09
-1.20264e-06 -8.7816e-09 -7.70804e-05
0.00101277 0.000254321 -1.24296e-05
0.000254321 0.000178344 -4.15201e-06
-1.24296e-05 -4.15201e-06 -4.31546e-05
0.00126083 0.000334426 9.36877e-07
0.000334426 0.000321768 -1.43157e-06
9.36877e-07 -1.43157e-06 5.44392e-05
0.000517994 0.000202955 6.98213e-07
0.000202955 -4.07471e-05 1.32367e-06
6.98213e-07 1.32367e-06 -0.000265924
0.000428408 0.00019695 -2.82425e-05
0.00019695 -9.36238e-05 -1.93533e-05
-2.82425e-05 -1.93533e-05 -0.000202948
0.000179576 0.000113119 1.09819e-06
0.000113119 -0.000189275 6.42252e-06
1.09819e-06 6.42252e-06 -0.000411923
0.000553953 0.000110182 -7.88343e-07
0.000110182 5.79951e-06 -5.74135e-07
-7.88343e-07 -5.74135e-07 -8.41656e-05
0.00551293 -0.000167992 -0.000180871
-0.000167992 0.00322975 -1.82707e-05
-0.000180871 -1.82707e-05 0.00320777
0.000407505 7.20735e-05 1.35081e-05
7.20735e-05 -5.56601e-05 1.80047e-05
1.35081e-05 1.80047e-05 -0.000128482
0.00441338 -0.000175636 -1.0809e-05
-0.000175636 0.00252712 1.29007e-06
-1.0809e-05 1.29007e-06 0.00250838
0.0036037 -0.000160717 7.4191e-05
-0.000160717 0.00200093 6.76591e-06
7.4191e-05 6.76591e-06 0.00198753
0.001523 0.000182371 3.20856e-05
0.000182371 -0.000320788 1.74439e-05
3.20856e-05 1.74439e-05 -8.43209e-05
0.00261727 0.000221369 -2.19706e-05
0.000221369 -0.00106709 -2.28741e-06
-2.19706e-05 -2.28741e-06 -0.000255861
0.00424465 0.000324252 0.000225215
0.000324252 -0.00171427 6.47895e-05
0.000225215 6.47895e-05 0.000214456
0.00259153 0.000794111 -8.88434e-06
0.000794111 0.000494059 1.56049e-07
-8.88434e-06 1.56049e-07 0.00019166
0.00183699 0.000782416 -6.45077e-06
0.000782416 0.00023117 -4.98666e-06
-6.45077e-06 -4.98666e-06 -0.000118311
0.00222251 0.000599217 1.25987e-06
0.000599217 0.00019374 4.72558e-06
1.25987e-06 4.72558e-06 -3.60407e-05
0.00218698 0.000730561 1.41914e-06
0.000730561 0.000302242 4.83505e-07
1.41914e-06 4.83505e-07 -1.01712e-05
0.00153849 0.000668035 3.57841e-06
0.000668035 0.000122314 -1.11791e-05
3.57841e-06 -1.11791e-05 -0.00023155
0.00221858 0.00066308 -2.77383e-06
0.00066308 8.0005e-05 8.77364e-07
-2.77383e-06 8.77364e-07 -0.000122815
0.00276789 0.000951611 -8.98028e-06
0.000951611 0.000899263 -3.84874e-06
-8.98028e-06 -3.84874e-06 0.000501515
0.0024431 0.00087439 7.43531e-07
0.00087439 0.000405407 1.53815e-07
7.43531e-07 1.53815e-07 8.01984e-05
0.00209254 0.000436715 -1.36625e-05
0.000436715 -0.000166787 -1.23671e-06
-1.36625e-05 -1.23671e-06 -0.000157953
0.00345789 0.00108909 -6.34232e-06
0.00108909 0.00102392 6.99612e-06
-6.34232e-06 6.99612e-06 0.000673036
0.00253359 0.000841432 3.80138e-07
0.000841432 0.000306457 -7.25045e-07
3.80138e-07 -7.25045e-07 6.87322e-05
0.000674766 0.000402936 -1.27483e-06
0.000402936 -0.000641937 1.566e-06
-1.27483e-06 1.566e-06 -0.000561824
-0.00124782 0.000507536 -2.48162e-05
0.000507536 -0.00140265 -1.06118e-05
-2.48162e-05 -1.06118e-05 -0.00155343
0.00380649 0.00107941 -0.000129099
0.00107941 0.000182783 -4.24848e-05
-0.000129099 -4.24848e-05 0.000327922
0.00221167 0.000109904 -1.20842e-06
0.000109904 -0.000187094 -3.95411e-07
-1.20842e-06 -3.95411e-07 -8.05212e-05
0.00273139 -8.34343e-05 5.06619e-06
-8.34343e-05 0.0003983 -7.16199e-07
5.06619e-06 -7.16199e-07 0.000520345
0.00274699 -0.000267717 -9.9621e-05
-0.000267717 -0.000541759 3.72367e-06
-9.9621e-05 3.72367e-06 -7.46511e-05
0.0020633 -0.000368983 -7.49655e-05
-0.000368983 -0.000363148 7.47421e-06
-7.49655e-05 7.47421e-06 4.42975e-06
0.00129616 -0.000112724 -1.51125e-05
-0.000112724 -0.000539483 8.25936e-08
-1.51125e-05 8.25936e-08 -0.00046611
0.00250249 -0.000254753 1.73182e-06
-0.000254753 -4.60411e-05 -1.93376e-06
1.73182e-06 -1.93376e-06 0.000133473
0.00243482 1.39302e-05 -2.95251e-06
1.39302e-05 -6.29269e-05 3.55092e-07
-2.95251e-06 3.55092e-07 1.33713e-05
0.00241723 -7.8075e-05 5.08617e-07
-7.8075e-05 -9.454e-05 -9.30478e-07
5.08617e-07 -9.30478e-07 1.69158e-05
0.00248834 -0.00048256 -5.97001e-06
-0.00048256 -0.000158221 8.88122e-07
-5.97001e-06 8.88122e-07 -1.2186e-05
0.00233923 -0.000314349 3.77239e-07
-0.000314349 -0.000109944 -2.51465e-07
3.77239e-07 -2.51465e-07 -1.71918e-05
0.00226609 -0.000241099 5.22457e-07
-0.000241099 -2.83841e-05 -2.46537e-07
5.22457e-07 -2.46537e-07 2.55987e-05
0.00232437 -0.000436909 -3.80397e-07
-0.000436909 1.08712e-05 1.06934e-07
-3.80397e-07 1.06934e-07 1.82216e-05
0.00221217 -0.000360569 8.30965e-08
-0.000360569 1.11976e-05 2.12524e-07
8.30965e-08 2.12524e-07 -1.73307e-06
0.00211478 -0.00030634 -2.73488e-06
-0.00030634 5.13286e-05 9.35432e-07
-2.73488e-06 9.35432e-07 6.0431e-06
0.00214789 -0.000432617 1.96504e-06
-0.000432617 6.56731e-05 -1.13278e-06
1.96504e-06 -1.13278e-06 -1.20879e-05
0.00208735 -0.000393913 6.51511e-07
-0.000393913 9.35996e-05 -2.38798e-07
6.51511e-07 -2.38798e-07 -1.09157e-05
0.00208095 -0.000365942 -1.52547e-06
-0.000365942 0.000146747 -4.38059e-07
-1.52547e-06 -4.38059e-07 1.27533e-05
0.002019 -0.000450954 1.84173e-06
-0.000450954 0.000112037 -6.97531e-07
1.84173e-06 -6.97531e-07 -3.94033e-05
0.00207585 -0.000428133 -2.9897e-07
-0.000428133 0.000185713 -1.68695e-07
-2.9897e-07 -1.68695e-07 1.48353e-05
0.00190557 -0.000367194 -2.27781e-06
-0.000367194 0.000174301 -3.12192e-07
-2.27781e-06 -3.12192e-07 -2.56865e-05
0.00209975 -0.000473055 7.15127e-07
-0.000473055 0.00024473 1.63687e-06
7.15127e-07 1.63687e-06 4.52778e-05
0.00187828 -0.000406613 -6.19818e-07
-0.000406613 0.000205839 1.46068e-07
-6.19818e-07 1.46068e-07 -2.13291e-05
0.00111707 -0.00023997 -1.47366e-05
-0.00023997 -1.87617e-05 6.59092e-06
-1.47366e-05 6.59092e-06 -0.000219802
0.00194737 -0.000448908 5.29337e-06
-0.000448908 0.000294629 1.3457e-08
5.29337e-06 1.3457e-08 4.29284e-05
0.00112778 -0.000272333 1.67593e-07
-0.000272333 6.61506e-06 9.29399e-08
1.67593e-07 9.29399e-08 -0.000208814
0.00278032 -0.000191067 -5.10352e-05
-0.000191067 0.00131241 1.28677e-05
-5.10352e-05 1.28677e-05 0.00120444
0.00237711 -0.00011092 -0.000272162
-0.00011092 0.00114568 3.75586e-05
-0.000272162 3.75586e-05 0.00112707
0.0015804 -0.00021165 -1.44397e-05
-0.00021165 0.000571378 -1.61126e-08
-1.44397e-05 -1.61126e-08 0.000442875
0.00106565 -0.000300707 1.84217e-05
-0.000300707 9.64246e-06 -7.33925e-06
1.84217e-05 -7.33925e-06 -0.000223338
0.00737672 -5.90895e-05 -7.44784e-06
-5.90895e-05 0.00430297 1.48107e-06
-7.44784e-06 1.48107e-06 0.00431353
0.000363319 -0.000262246 2.56466e-05
-0.000262246 -0.000177491 -1.91451e-05
2.56466e-05 -1.91451e-05 -0.000323922
0.00732757 -9.40956e-06 0.000303439
-9.40956e-06 0.00429143 -2.9791e-05
0.000303439 -2.9791e-05 0.00429514
0.0021506 0.000458665 -1.87232e-07
0.000458665 0.000145832 7.67481e-07
-1.87232e-07 7.67481e-07 -2.38713e-05
0.00214759 0.000602633 2.93626e-06
0.000602633 0.000289438 5.77621e-06
2.93626e-06 5.77621e-06 2.43657e-05
0.00214484 0.000678294 4.41108e-07
0.000678294 0.000389116 1.95289e-07
4.41108e-07 1.95289e-07 6.0435e-05
0.00180122 0.000541391 -8.73065e-06
0.000541391 0.000310732 1.53742e-06
-8.73065e-06 1.53742e-06 -3.47322e-06
0.00175495 0.000630723 5.29444e-06
0.000630723 0.000305562 -3.65838e-06
5.29444e-06 -3.65838e-06 -5.53264e-05
0.00155329 0.000511804 -2.03652e-07
0.000511804 0.000260902 6.40636e-07
-2.03652e-07 6.40636e-07 -6.55358e-05
0.00077238 0.000276017 -1.5579e-05
0.000276017 -7.21564e-05 -5.69062e-06
-1.5579e-05 -5.69062e-06 -0.000296933
0.00129441 0.000443782 7.89948e-06
0.000443782 0.000234569 1.89535e-06
7.89948e-06 1.89535e-06 -7.69825e-05
0.000660551 0.000232463 1.03324e-06
0.000232463 -4.05182e-05 9.99234e-08
1.03324e-06 9.99234e-08 -0.00025619
0.000518389 0.000263691 -2.87271e-05
0.000263691 -5.02071e-05 -2.01599e-05
-2.87271e-05 -2.01599e-05 -0.000182234
0.000340896 0.000182089 5.35847e-06
0.000182089 -0.000163486 2.71583e-06
5.35847e-06 2.71583e-06 -0.000380318
0.000476714 0.000177975 1.75879e-06
0.000177975 -6.82759e-05 -1.00495e-06
1.75879e-06 -1.00495e-06 -0.000173482
0.00646883 -0.00012636 -0.000233723
-0.00012636 0.00381234 -2.39593e-05
-0.000233723 -2.39593e-05 0.00379416
0.000340429 0.000101588 1.94257e-05
0.000101588 -0.000124762 1.82565e-05
1.94257e-05 1.82565e-05 -0.000208868
0.00508333 -0.000182919 -5.01763e-06
-0.000182919 0.00295247 -3.90126e-07
-5.01763e-06 -3.90126e-07 0.00293007
0.00420903 -0.000192462 9.76159e-05
-0.000192462 0.00240293 9.27681e-06
9.76159e-05 9.27681e-06 0.00237943
0.00228295 0.000224372 -6.75113e-06
0.000224372 -0.000190217 -1.4278e-06
-6.75113e-06 -1.4278e-06 -5.05349e-05
0.00213555 0.000134648 2.00782e-05
0.000134648 -0.000108144 -2.7549e-06
2.00782e-05 -2.7549e-06 0.000178458
0.00551097 0.000329832 -0.000118678
0.000329832 0.000223268 -2.40304e-06
-0.000118678 -2.40304e-06 0.00108186
0.00223627 0.000549926 -3.36486e-06
0.000549926 0.000141405 1.47098e-06
-3.36486e-06 1.47098e-06 -3.97274e-05
0.00226011 0.000749004 -3.87211e-06
0.000749004 0.000337562 -3.91169e-07
-3.87211e-06 -3.91169e-07 4.26452e-05
0.00176938 0.000796991 -3.71013e-06
0.000796991 0.000171434 -1.04707e-05
-3.71013e-06 -1.04707e-05 -0.000175182
0.00231662 0.000591863 2.81307e-06
0.000591863 0.000269581 1.44459e-06
2.81307e-06 1.44459e-06 4.25048e-05
0.00219702 0.000721225 1.5333e-06
0.000721225 0.000311749 -5.04302e-06
1.5333e-06 -5.04302e-06 1.98149e-06
0.00245726 0.000438584 -2.07955e-07
0.000438584 1.54093e-05 3.96959e-07
-2.07955e-07 3.96959e-07 1.4942e-05
0.00223329 0.000670514 -8.03457e-07
0.000670514 0.000103985 2.24795e-07
-8.03457e-07 2.24795e-07 -9.84658e-05
0.00279341 0.000890089 -6.14371e-06
0.000890089 0.00062439 -2.13832e-06
-6.14371e-06 -2.13832e-06 0.000289891
0.00206098 0.000424743 1.86479e-08
0.000424743 -0.000160923 -2.16139e-07
1.86479e-08 -2.16139e-07 -0.000150195
0.00223278 0.000810764 1.316e-05
0.000810764 0.000126834 2.9312e-06
1.316e-05 2.9312e-06 -0.000109397
-5.95865e-05 0.000358798 -4.02864e-05
0.000358798 -0.00106358 -1.93654e-05
-4.02864e-05 -1.93654e-05 -0.000963737
0.00241428 9.21194e-05 7.82606e-07
9.21194e-05 -3.75783e-05 2.38338e-07
7.82606e-07 2.38338e-07 4.60617e-05
0.00223584 0.00011732 -1.35701e-06
0.00011732 -0.000165829 3.48111e-07
-1.35701e-06 3.48111e-07 -6.48765e-05
0.00323483 -7.91652e-05 -5.19377e-05
-7.91652e-05 0.00079428 1.39543e-06
-5.19377e-05 1.39543e-06 0.000865727
0.00246975 -0.000254544 -2.42656e-05
-0.000254544 -9.48862e-05 2.16931e-06
-2.42656e-05 2.16931e-06 0.000108876
0.00249968 2.26935e-05 -7.74496e-06
2.26935e-05 -5.58678e-05 -4.23162e-06
-7.74496e-06 -4.23162e-06 2.14999e-05
0.00238191 -8.69869e-05 -1.73675e-07
-8.69869e-05 -0.000131235 1.34703e-07
-1.73675e-07 1.34703e-07 -1.39344e-05
0.00214123 -7.34416e-05 3.65323e-07
-7.34416e-05 -3.83773e-05 7.61867e-08
3.65323e-07 7.61867e-08 2.64101e-06
0.0022897 -0.000301924 -1.01408e-07
-0.000301924 -0.00012062 3.15053e-08
-1.01408e-07 3.15053e-08 -3.68913e-05
0.00221863 -0.000246583 -1.5265e-07
-0.000246583 -5.09002e-05 4.03596e-08
-1.5265e-07 4.03596e-08 -4.06383e-06
0.00208462 -0.00020522 -1.74005e-06
-0.00020522 1.26073e-05 1.68302e-07
-1.74005e-06 1.68302e-07 -1.83873e-06
0.00220239 -0.000357099 6.31021e-07
-0.000357099 9.09434e-06 -7.44616e-09
6.31021e-07 -7.44616e-09 -5.1074e-06
0.00211813 -0.000307595 2.77586e-07
-0.000307595 4.8186e-05 3.94835e-08
2.77586e-07 3.94835e-08 2.57111e-06
0.00211367 -0.000296076 -2.788e-06
-0.000296076 0.000120122 2.41917e-07
-2.788e-06 2.41917e-07 2.28114e-05
0.00207903 -0.000392475 2.84256e-06
-0.000392475 8.54694e-05 -1.1376e-06
2.84256e-06 -1.1376e-06 -1.90622e-05
0.00206315 -0.000365101 -2.0023e-07
-0.000365101 0.000132693 -1.64836e-07
-2.0023e-07 -1.64836e-07 -1.60906e-06
0.00190802 -0.000315845 -1.47711e-06
-0.000315845 0.000137005 -4.51416e-07
-1.47711e-06 -4.51416e-07 -3.4951e-05
0.00211069 -0.000430464 1.42497e-06
-0.000430464 0.000208468 6.03981e-07
1.42497e-06 6.03981e-07 3.69536e-05
0.00192604 -0.000368772 -4.99234e-07
-0.000368772 0.000187879 1.53752e-08
-4.99234e-07 1.53752e-08 -1.20418e-05
0.00111843 -0.000212921 -1.21424e-05
-0.000212921 -3.84087e-05 5.09745e-06
-1.21424e-05 5.09745e-06 -0.0002275
0.0019061 -0.000408405 3.39792e-06
-0.000408405 0.00022453 3.18702e-08
3.39792e-06 3.18702e-08 -2.46832e-06
0.0011557 -0.000241632 -1.35414e-08
-0.000241632 -1.5785e-06 2.10201e-07
-1.35414e-08 2.10201e-07 -0.000201834
0.0027752 -0.000183277 -5.88452e-05
-0.000183277 0.00130092 1.25204e-05
-5.88452e-05 1.25204e-05 0.00120199
0.00115389 -0.000273365 1.74791e-05
-0.000273365 1.92543e-05 -7.3028e-06
1.74791e-05 -7.3028e-06 -0.000195523
0.00293039 -0.000229598 5.0426e-05
-0.000229598 0.0014076 -8.02394e-06
5.0426e-05 -8.02394e-06 0.0013077
0.00231406 -0.000142981 -0.000264674
-0.000142981 0.00111379 4.20169e-05
-0.000264674 4.20169e-05 0.00109241
0.00466903 -0.000125717 -0.000259999
-0.000125717 0.0026063 2.77386e-05
-0.000259999 2.77386e-05 0.00260068
0.00301083 -0.000286628 0.000165769
-0.000286628 0.00147429 -2.72674e-05
0.000165769 -2.72674e-05 0.00137256
0.00738913 -7.12203e-05 0.00031226
-7.12203e-05 0.00431936 -3.38313e-05
0.00031226 -3.38313e-05 0.00432547
0.0023175 0.000453829 -2.4361e-06
0.000453829 0.00023063 -5.17154e-07
-2.4361e-06 -5.17154e-07 8.93509e-05
0.00195312 0.000465969 1.05179e-06
0.000465969 0.000127595 1.62251e-06
1.05179e-06 1.62251e-06 -7.42594e-05
0.00215829 0.000449563 2.04358e-07
0.000449563 0.000159095 -1.51662e-06
2.04358e-07 -1.51662e-06 -3.88468e-06
0.00191769 0.000505256 -5.9793e-06
0.000505256 0.000264488 1.81908e-06
-5.9793e-06 1.81908e-06 -1.05019e-05
0.00223535 0.000612196 8.72093e-07
0.000612196 0.000329563 4.23074e-07
8.72093e-07 4.23074e-07 6.29024e-05
0.00241678 0.000701225 1.09898e-06
0.000701225 0.000552892 -5.31106e-06
1.09898e-06 -5.31106e-06 0.000223845
0.00174376 0.00053963 3.52922e-07
0.00053963 0.000266595 6.60891e-07
3.52922e-07 6.60891e-07 -4.90726e-05
0.000948525 0.000311849 -2.24283e-05
0.000311849 -4.71966e-05 -6.81176e-06
-2.24283e-05 -6.81176e-06 -0.000281231
0.00153284 0.000513761 1.04148e-05
0.000513761 0.000240208 1.39123e-06
1.04148e-05 1.39123e-06 -8.85666e-05
0.000847399 0.000277487 -1.3951e-06
0.000277487 -1.80151e-05 -4.38926e-07
-1.3951e-06 -4.38926e-07 -0.000240425
0.000341664 0.000262338 -2.61897e-05
0.000262338 -0.000173392 -2.0005e-05
-2.61897e-05 -2.0005e-05 -0.000318078
0.000348234 0.000209686 9.77423e-06
0.000209686 -0.000230512 2.33001e-06
9.77423e-06 2.33001e-06 -0.000440593
0.000315905 0.000219631 3.10374e-06
0.000219631 -0.000177402 4.1858e-07
3.10374e-06 4.1858e-07 -0.000303933
0.00717681 -3.56486e-05 -0.000281646
-3.56486e-05 0.00422342 -2.98867e-05
-0.000281646 -2.98867e-05 0.00421581
0.000357949 0.000137607 2.34397e-05
0.000137607 -0.000140625 1.83232e-05
2.34397e-05 1.83232e-05 -0.000241714
0.00609259 -0.000156988 6.77998e-06
-0.000156988 0.00357648 -2.68046e-06
6.77998e-06 -2.68046e-06 0.0035569
0.00490444 -0.000228632 0.000120954
-0.000228632 0.00286015 1.23376e-05
0.000120954 1.23376e-05 0.00282432
0.00241071 0.000262491 3.65262e-07
0.000262491 -4.93482e-05 7.48772e-07
3.65262e-07 7.48772e-07 2.94952e-05
0.0021974 0.000229526 1.8333e-06
0.000229526 -0.000215254 -1.58373e-07
1.8333e-06 -1.58373e-07 -7.60955e-05
0.002416 9.20685e-05 -7.4585e-05
9.20685e-05 -7.82147e-05 -8.38415e-06
-7.4585e-05 -8.38415e-06 0.00026279
0.00221855 0.000392085 8.075e-07
0.000392085 1.33531e-05 4.08103e-07
8.075e-07 4.08103e-07 -3.72428e-05
0.002206 0.000544595 -7.86695e-07
0.000544595 0.00014543 2.86696e-07
-7.86695e-07 2.86696e-07 -3.3404e-05
0.00192583 0.000702932 7.19827e-06
0.000702932 0.000178213 -2.66022e-06
7.19827e-06 -2.66022e-06 -0.000108957
0.00240455 0.000583832 -6.36546e-07
0.000583832 0.000341881 -2.91244e-06
-6.36546e-07 -2.91244e-06 0.000117744
0.00240295 0.000421437 -1.00516e-06
0.000421437 -1.03009e-07 -8.54145e-08
-1.00516e-06 -8.54145e-08 6.43008e-07
0.00224103 0.000677643 -2.45325e-06
0.000677643 0.000123719 -2.0085e-07
-2.45325e-06 -2.0085e-07 -7.83758e-05
0.00200919 0.000414637 1.28586e-05
0.000414637 -0.000134633 6.45235e-07
1.28586e-05 6.45235e-07 -0.000123725
0.00220453 7.10299e-05 2.07805e-06
7.10299e-05 -2.10488e-05 3.26438e-07
2.07805e-06 3.26438e-07 1.62398e-05
0.00233492 8.64608e-05 7.99189e-08
8.64608e-05 -7.33096e-05 -6.72996e-09
7.99189e-08 -6.72996e-09 8.68457e-06
0.00223893 0.0001302 -7.72587e-06
0.0001302 -0.000153049 -1.57869e-06
-7.72587e-06 -1.57869e-06 -5.96854e-05
0.00206106 -1.39593e-05 -2.63356e-06
-1.39593e-05 -4.45575e-07 2.8336e-07
-2.63356e-06 2.8336e-07 1.03488e-05
0.00234404 -0.000102432 -1.84401e-07
-0.000102432 -0.000169067 -3.06779e-07
-1.84401e-07 -3.06779e-07 -4.43955e-05
0.00215305 -7.66188e-05 -6.16381e-07
-7.66188e-05 -3.54074e-05 2.21283e-07
-6.16381e-07 2.21283e-07 5.68923e-06
0.00201335 -0.000111923 -3.13816e-06
-0.000111923 -1.98381e-05 3.75539e-07
-3.13816e-06 3.75539e-07 -2.66029e-05
0.00216997 -0.000251783 1.07126e-08
-0.000251783 -7.41276e-05 2.02822e-07
1.07126e-08 2.02822e-07 -3.45813e-05
0.00208026 -0.000203202 1.00362e-06
-0.000203202 9.01585e-06 -2.93651e-07
1.00362e-06 -2.93651e-07 -4.6939e-06
0.00211968 -0.000208291 -1.78178e-06
-0.000208291 9.57809e-05 3.74059e-07
-1.78178e-06 3.74059e-07 3.09366e-05
0.00212458 -0.000308581 2.90614e-06
-0.000308581 4.69942e-05 -8.81683e-07
2.90614e-06 -8.81683e-07 1.08889e-06
0.00206643 -0.000290752 2.31805e-08
-0.000290752 9.20831e-05 -3.23813e-07
2.31805e-08 -3.23813e-07 -4.69137e-06
0.00189614 -0.000247962 -1.55357e-06
-0.000247962 0.000105057 -5.68199e-07
-1.55357e-06 -5.68199e-07 -3.84871e-05
0.0020395 -0.000363707 2.15184e-06
-0.000363707 0.000115637 -1.28919e-07
2.15184e-06 -1.28919e-07 -1.88801e-05
0.00194592 -0.000316827 -3.1779e-07
-0.000316827 0.000162001 1.34251e-08
-3.1779e-07 1.34251e-08 -9.59502e-06
0.00114545 -0.000185547 -1.11336e-05
-0.000185547 -3.84244e-05 3.61691e-06
-1.11336e-05 3.61691e-06 -0.000215546
0.00194609 -0.000370046 1.3746e-06
-0.000370046 0.000201671 1.56585e-07
1.3746e-06 1.56585e-07 1.90657e-06
0.00116741 -0.000213749 -1.94439e-07
-0.000213749 -1.39922e-05 2.38744e-07
-1.94439e-07 2.38744e-07 -0.000201928
0.00274425 -0.000174621 -6.61217e-05
-0.000174621 0.0012826 1.20066e-05
-6.61217e-05 1.20066e-05 0.00118794
0.00118442 -0.000242899 1.42042e-05
-0.000242899 8.7683e-06 -6.20147e-06
1.42042e-05 -6.20147e-06 -0.000190648
0.0028676 -0.000204951 4.60509e-05
-0.000204951 0.00135937 -6.3373e-06
4.60509e-05 -6.3373e-06 0.00126835
0.00231943 -0.00012145 -0.000258045
-0.00012145 0.00110835 3.68023e-05
-0.000258045 3.68023e-05 0.00108965
0.00304729 -0.000236776 0.000159424
-0.000236776 0.00147575 -2.84281e-05
0.000159424 -2.84281e-05 0.00138651
0.00193789 -7.9898e-05 -0.000106853
-7.9898e-05 0.000878907 1.58709e-05
-0.000106853 1.58709e-05 0.000843982
0.00676387 -6.33922e-06 9.701e-05
-6.33922e-06 0.00390961 -5.06921e-06
9.701e-05 -5.06921e-06 0.0038903
0.002219 0.000391425 -1.12216e-06
0.000391425 0.000130337 -1.79838e-07
-1.12216e-06 -1.79838e-07 3.10167e-05
0.00212288 0.000425402 -2.40981e-06
0.000425402 0.000169911 -7.90686e-07
-2.40981e-06 -7.90686e-07 5.9274e-06
0.00230345 0.000455562 -3.50724e-06
0.000455562 0.000212609 -1.47697e-07
-3.50724e-06 -1.47697e-07 6.99436e-05
0.00192613 0.000430861 -2.64859e-06
0.000430861 0.000202733 3.39075e-07
-2.64859e-06 3.39075e-07 -2.96866e-05
0.00194459 0.000473045 -1.0602e-06
0.000473045 0.000102393 -2.3404e-06
-1.0602e-06 -2.3404e-06 -9.62792e-05
0.00217088 0.000440899 -3.41895e-06
0.000440899 0.000175444 -3.87311e-06
-3.41895e-06 -3.87311e-06 1.90967e-05
0.00117918 0.000309829 -2.31507e-05
0.000309829 2.39724e-05 -7.10245e-06
-2.31507e-05 -7.10245e-06 -0.000199727
0.00184234 0.000499569 1.22107e-06
0.000499569 0.000218232 3.83101e-07
1.22107e-06 3.83101e-07 -5.66018e-05
0.00231265 0.000620416 1.44483e-06
0.000620416 0.00036262 -4.61691e-06
1.44483e-06 -4.61691e-06 9.46366e-05
0.00170104 0.000539078 1.01703e-05
0.000539078 0.000231933 -1.74004e-07
1.01703e-05 -1.74004e-07 -8.54288e-05
0.000998049 0.000311347 -2.00276e-06
0.000311347 -1.26013e-05 3.35719e-08
-2.00276e-06 3.35719e-08 -0.000245011
0.000269265 0.000246619 -2.57751e-05
0.000246619 -0.000233997 -1.83452e-05
-2.57751e-05 -1.83452e-05 -0.000376528
0.000846236 0.000273094 1.62811e-05
0.000273094 -1.26693e-05 6.28511e-06
1.62811e-05 6.28511e-06 -0.000232144
0.000332214 0.000250143 1.45043e-06
0.000250143 -0.000173939 1.18685e-06
1.45043e-06 1.18685e-06 -0.000318884
0.00745509 5.3259e-05 -0.000301271
5.3259e-05 0.00438123 -3.66207e-05
-0.000301271 -3.66207e-05 0.00437523
0.000325926 0.000198569 2.4358e-05
0.000198569 -0.00017518 2.02883e-05
2.4358e-05 2.02883e-05 -0.000298841
0.00692372 -8.15254e-05 4.28146e-06
-8.15254e-05 0.00406197 -7.0243e-07
4.28146e-06 -7.0243e-07 0.00405515
0.00566911 -0.000185249 0.000166258
-0.000185249 0.00330986 1.12537e-05
0.000166258 1.12537e-05 0.00328792
0.00219006 0.000209816 8.8863e-08
0.000209816 -1.56927e-05 -2.63479e-07
8.8863e-08 -2.63479e-07 7.59621e-06
0.00238034 0.000266946 -2.00366e-07
0.000266946 -7.56927e-05 5.37881e-07
-2.00366e-07 5.37881e-07 5.0282e-06
0.00219583 0.000233277 3.63435e-06
0.000233277 -0.000210865 2.56573e-07
3.63435e-06 2.56573e-07 -7.16994e-05
0.00223671 0.00038759 -1.1172e-07
0.00038759 2.86453e-05 7.83316e-08
-1.1172e-07 7.83316e-08 -1.92034e-05
0.00217725 0.000538531 6.93445e-07
0.000538531 0.000153444 -8.57856e-07
6.93445e-07 -8.57856e-07 -2.29651e-05
0.00236821 0.000406112 1.97528e-06
0.000406112 -1.08602e-05 -2.31331e-07
1.97528e-06 -2.31331e-07 -9.24864e-06
0.00208553 6.40656e-05 -5.06731e-07
6.40656e-05 -8.43777e-06 1.58001e-07
-5.06731e-07 1.58001e-07 1.88449e-06
0.002188 6.62712e-05 3.27542e-07
6.62712e-05 -2.95994e-05 -1.78767e-07
3.27542e-07 -1.78767e-07 7.95204e-06
0.00225605 8.05739e-05 -1.11459e-06
8.05739e-05 -0.000110426 -1.70171e-07
-1.11459e-06 -1.70171e-07 -2.94014e-05
0.00205463 -1.20331e-05 -8.71255e-07
-1.20331e-05 -5.94046e-06 3.64318e-08
-8.71255e-07 3.64318e-08 3.65477e-06
0.00203496 -3.74481e-05 -5.97215e-06
-3.74481e-05 3.49901e-05 5.345e-07
-5.97215e-06 5.345e-07 2.45727e-05
0.00216578 -7.96058e-05 -3.51588e-07
-7.96058e-05 -3.22534e-05 3.50829e-07
-3.51588e-07 3.50829e-07 9.09039e-06
0.00203371 -0.000111589 -1.51975e-06
-0.000111589 -8.42328e-07 2.45452e-07
-1.51975e-06 2.45452e-07 -1.04398e-05
0.00204248 -0.000130377 -5.99433e-06
-0.000130377 3.74364e-05 7.13973e-07
-5.99433e-06 7.13973e-07 -6.19064e-06
0.00207555 -0.000201538 3.85738e-06
-0.000201538 5.50913e-06 -8.40111e-07
3.85738e-06 -8.40111e-07 -7.55911e-06
0.00208349 -0.000207235 2.79725e-06
-0.000207235 7.5884e-05 -5.41854e-07
2.79725e-06 -5.41854e-07 1.11501e-05
0.00192598 -0.000180597 8.25582e-07
-0.000180597 0.000106684 -1.20516e-06
8.25582e-07 -1.20516e-06 -1.33924e-05
0.00201385 -0.000286634 2.94163e-06
-0.000286634 5.97515e-05 -9.3358e-07
2.94163e-06 -9.3358e-07 -3.67373e-05
0.00194265 -0.000251757 -1.96456e-07
-0.000251757 0.000129558 1.05151e-08
-1.96456e-07 1.05151e-08 -1.42864e-05
0.00116559 -0.000149882 -1.17128e-05
-0.000149882 -3.41146e-05 2.36371e-06
-1.17128e-05 2.36371e-06 -0.000197682
0.00197358 -0.000317632 5.60165e-07
-0.000317632 0.00017928 3.51431e-07
5.60165e-07 3.51431e-07 7.96061e-06
0.00116873 -0.000183581 -3.20697e-07
-0.000183581 -2.71624e-05 2.75349e-07
-3.20697e-07 2.75349e-07 -0.000202895
0.00266959 -0.000174048 -6.83609e-05
-0.000174048 0.0012391 1.01219e-05
-6.83609e-05 1.01219e-05 0.0011476
0.00120789 -0.000214367 1.16313e-05
-0.000214367 4.4284e-06 -4.73458e-06
1.16313e-05 -4.73458e-06 -0.000182358
0.00281924 -0.000175004 4.39676e-05
-0.000175004 0.00132478 -4.86615e-06
4.39676e-05 -4.86615e-06 0.00123968
0.00231704 -0.000100837 -0.000255791
-0.000100837 0.0010999 3.08248e-05
-0.000255791 3.08248e-05 0.00108263
0.00295968 -0.000197211 0.000155343
-0.000197211 0.00140925 -2.42395e-05
0.000155343 -2.42395e-05 0.00132988
0.00192298 -8.13849e-05 -9.68453e-05
-8.13849e-05 0.000864145 1.26274e-05
-9.68453e-05 1.26274e-05 0.000831717
0.00162618 -7.71744e-05 6.34959e-05
-7.71744e-05 0.000695867 -1.03053e-05
6.34959e-05 -1.03053e-05 0.000642905
0.00208642 0.000247309 -1.7832e-06
0.000247309 5.88221e-06 -6.89796e-07
-1.7832e-06 -6.89796e-07 -2.82575e-05
0.00214135 0.000354564 -2.65674e-06
0.000354564 0.000150286 1.54328e-07
-2.65674e-06 1.54328e-07 2.56542e-05
0.00219785 0.000392857 -3.95245e-07
0.000392857 9.54698e-05 -8.38341e-08
-3.95245e-07 -8.38341e-08 5.04496e-06
0.00201929 0.000392053 1.30275e-07
0.000392053 0.000203179 5.5057e-07
1.30275e-07 5.5057e-07 7.52728e-06
0.0021261 0.000422638 -1.5198e-06
0.000422638 0.000181501 -6.23766e-07
-1.5198e-06 -6.23766e-07 1.68669e-05
0.00228358 0.00045757 2.21976e-06
0.00045757 0.000190567 2.52466e-07
2.21976e-06 2.52466e-07 4.6347e-05
0.00123383 0.00026994 -1.84706e-05
0.00026994 1.65055e-05 -6.3507e-06
-1.84706e-05 -6.3507e-06 -0.000186523
0.00188811 0.000433462 1.93212e-06
0.000433462 0.000170893 -1.91925e-07
1.93212e-06 -1.91925e-07 -5.70274e-05
0.00194532 0.000480854 -1.81445e-06
0.000480854 8.32988e-05 -4.92408e-06
-1.81445e-06 -4.92408e-06 -0.000112253
0.000296571 0.000192801 -2.23139e-05
0.000192801 -0.000240761 -1.55532e-05
-2.23139e-05 -1.55532e-05 -0.000370435
0.00113258 0.000305166 -7.00216e-07
0.000305166 -2.91879e-06 1.98225e-08
-7.00216e-07 1.98225e-08 -0.000226282
0.0017617 0.000494347 7.8768e-06
0.000494347 0.000166447 -1.23785e-06
7.8768e-06 -1.23785e-06 -0.000108465
0.00108241 0.000312858 2.36779e-05
0.000312858 4.41179e-05 8.69401e-06
2.36779e-05 8.69401e-06 -0.000186638
0.000331394 0.000237535 4.84583e-07
0.000237535 -0.000192098 1.09372e-06
4.84583e-07 1.09372e-06 -0.000336388
0.00732665 0.000153076 -0.000306988
0.000153076 0.00428523 -4.07111e-05
-0.000306988 -4.07111e-05 0.00428152
0.00037767 0.000237581 2.2678e-05
0.000237581 -0.000143398 1.90831e-05
2.2678e-05 1.90831e-05 -0.000287008
0.00730428 2.57212e-05 7.8138e-06
2.57212e-05 0.00427446 4.03584e-07
7.8138e-06 4.03584e-07 0.00427662
0.00667581 -0.000112304 0.000230497
-0.000112304 0.00390368 1.41855e-05
0.000230497 1.41855e-05 0.00389732
0.00210821 0.000128388 -2.83739e-06
0.000128388 2.317e-05 -7.15122e-07
-2.83739e-06 -7.15122e-07 2.68002e-05
0.00218667 0.000214361 7.24297e-07
0.000214361 -2.02775e-05 3.42652e-07
7.24297e-07 3.42652e-07 3.61622e-07
0.00233797 0.000271722 -3.65704e-07
0.000271722 -0.000105332 -7.57637e-07
-3.65704e-07 -7.57637e-07 -2.31783e-05
0.00224991 0.00038186 1.77174e-06
0.00038186 4.0493e-05 -1.72741e-07
1.77174e-06 -1.72741e-07 -4.18882e-06
0.00200472 2.00606e-05 -5.9019e-06
2.00606e-05 3.8608e-05 3.3196e-07
-5.9019e-06 3.3196e-07 1.48261e-05
0.00207502 5.47306e-05 -3.14962e-08
5.47306e-05 -1.42474e-05 -1.17547e-08
-3.14962e-08 -1.17547e-08 -3.61719e-06
0.00217259 6.14401e-05 -1.25972e-06
6.14401e-05 -3.67138e-05 -1.07798e-07
-1.25972e-06 -1.07798e-07 5.24278e-07
0.00204505 -9.16024e-06 -1.78281e-07
-9.16024e-06 -1.30427e-05 -3.63942e-07
-1.78281e-07 -3.63942e-07 -4.88008e-06
0.00203483 -3.17369e-05 -6.96836e-07
-3.17369e-05 3.09525e-05 -1.43554e-07
-6.96836e-07 -1.43554e-07 2.18378e-05
0.00190076 -5.64372e-05 -4.97346e-06
-5.64372e-05 -3.55588e-05 4.30894e-07
-4.97346e-06 4.30894e-07 -8.39537e-05
0.00205171 -0.000111333 3.46988e-06
-0.000111333 1.66008e-05 -1.23777e-07
3.46988e-06 -1.23777e-07 3.9432e-06
0.00203752 -0.0001315 -1.9766e-06
-0.0001315 4.27448e-05 3.80832e-07
-1.9766e-06 3.80832e-07 -7.92381e-06
0.00199471 -0.000120685 -1.69626e-06
-0.000120685 0.000135686 -3.23702e-07
-1.69626e-06 -3.23702e-07 3.91579e-05
0.00205261 -0.000205179 7.11254e-06
-0.000205179 5.91452e-05 -1.35294e-06
7.11254e-06 -1.35294e-06 -5.25501e-06
0.00194183 -0.000179761 1.6648e-06
-0.000179761 0.00010972 -5.85422e-07
1.6648e-06 -5.85422e-07 -9.9363e-06
0.00114395 -0.000111432 -1.2044e-05
-0.000111432 -4.67682e-05 1.49683e-06
-1.2044e-05 1.49683e-06 -0.000197362
0.00201887 -0.000254314 1.4136e-06
-0.000254314 0.00017486 4.68524e-07
1.4136e-06 4.68524e-07 3.12307e-05
0.00115987 -0.000148651 -8.5532e-08
-0.000148651 -3.68656e-05 1.99833e-07
-8.5532e-08 1.99833e-07 -0.000199522
0.000364135 -8.98557e-05 -1.94433e-05
-8.98557e-05 -0.000226953 5.77039e-06
-1.94433e-05 5.77039e-06 -0.000326646
0.00121143 -0.000182414 1.07943e-05
-0.000182414 -4.08291e-06 -3.18908e-06
1.07943e-05 -3.18908e-06 -0.000178368
0.00157848 -0.000113872 6.50405e-05
-0.000113872 0.000537038 -5.0697e-06
6.50405e-05 -5.0697e-06 0.000449539
0.0067434 -0.000170385 -0.000340581
-0.000170385 0.00390318 2.58414e-05
-0.000340581 2.58414e-05 0.00392266
0.00290836 -0.000158036 0.000152449
-0.000158036 0.00137025 -1.91067e-05
0.000152449 -1.91067e-05 0.0012972
0.00192641 -7.88644e-05 -8.77672e-05
-7.88644e-05 0.000864806 8.25591e-06
-8.77672e-05 8.25591e-06 0.000832308
0.00154487 -0.000100669 7.54797e-05
-0.000100669 0.000648368 -1.21357e-05
7.54797e-05 -1.21357e-05 0.000594496
0.00203063 0.000169983 -3.67081e-06
0.000169983 1.68311e-05 -1.16452e-06
-3.67081e-06 -1.16452e-06 -1.41646e-05
0.00208049 0.000270668 -1.61999e-06
0.000270668 8.67657e-05 2.11816e-07
-1.61999e-06 2.11816e-07 1.3154e-06
0.002094 0.000241127 -9.96652e-08
0.000241127 2.15658e-05 6.32682e-08
-9.96652e-08 6.32682e-08 -1.83136e-05
0.00208053 0.000321445 9.11055e-07
0.000321445 0.000218474 1.25105e-06
9.11055e-07 1.25105e-06 5.9174e-05
0.00204651 0.000349077 9.77569e-07
0.000349077 9.01339e-05 2.04511e-07
9.77569e-07 2.04511e-07 -3.39323e-05
0.00217711 0.000394584 9.31107e-07
0.000394584 6.08746e-05 1.40302e-07
9.31107e-07 1.40302e-07 -2.08948e-05
0.00125522 0.000237332 -1.42667e-05
0.000237332 1.1915e-05 -4.12879e-06
-1.42667e-05 -4.12879e-06 -0.000171199
0.00202646 0.000389505 2.17889e-06
0.000389505 0.000209164 5.50101e-07
2.17889e-06 5.50101e-07 1.44952e-05
0.00211469 0.000418692 6.33505e-07
0.000418692 0.000184144 -1.30515e-06
6.33505e-07 -1.30515e-06 1.90329e-05
0.000317376 0.000137248 -1.94447e-05
0.000137248 -0.000250101 -1.2111e-05
-1.94447e-05 -1.2111e-05 -0.000364742
0.00117106 0.000266942 4.67679e-07
0.000266942 -2.10846e-05 4.8283e-07
4.67679e-07 4.8283e-07 -0.000222065
0.0018387 0.000434397 6.64075e-06
0.000434397 0.000132515 -1.4901e-06
6.64075e-06 -1.4901e-06 -9.04971e-05
0.00711747 0.000226382 -0.000314159
0.000226382 0.00414339 -4.03981e-05
-0.000314159 -4.03981e-05 0.00414392
0.000311706 0.000186015 2.62146e-07
0.000186015 -0.000232121 7.3566e-07
2.62146e-07 7.3566e-07 -0.000362296
0.00112758 0.000302647 2.41314e-05
0.000302647 -3.92183e-07 7.74793e-06
2.41314e-05 7.74793e-06 -0.000223511
0.000334861 0.000223035 2.2035e-05
0.000223035 -0.000186505 1.77185e-05
2.2035e-05 1.77185e-05 -0.000331974
0.00732656 0.000145783 1.02852e-05
0.000145783 0.00427926 1.49264e-06
1.02852e-05 1.49264e-06 0.00428223
0.00718872 -1.19649e-05 0.000283127
-1.19649e-05 0.00419167 2.023e-05
0.000283127 2.023e-05 0.00419838
0.00196844 7.21344e-05 -7.63924e-06
7.21344e-05 1.76074e-05 -2.25755e-07
-7.63924e-06 -2.25755e-07 -1.08376e-05
0.00209735 0.000124702 8.79985e-08
0.000124702 1.73316e-05 -4.03002e-08
8.79985e-08 -4.03002e-08 1.96757e-05
0.00218521 0.00021896 3.52798e-07
0.00021896 -2.39405e-05 1.87161e-07
3.52798e-07 1.87161e-07 -5.59234e-06
0.00194472 6.12766e-06 -6.11324e-06
6.12766e-06 1.37779e-05 7.11403e-08
-6.11324e-06 7.11403e-08 -4.08311e-05
0.00198634 2.50134e-05 4.30039e-07
2.50134e-05 2.33086e-05 2.30468e-08
4.30039e-07 2.30468e-08 2.35952e-06
0.00206771 4.43791e-05 -1.04567e-07
4.43791e-05 -1.8301e-05 -1.27048e-07
-1.04567e-07 -1.27048e-07 -7.30338e-06
0.00203651 -2.6659e-05 3.67221e-06
-2.6659e-05 2.75588e-05 -3.58471e-07
3.67221e-06 -3.58471e-07 2.02033e-05
0.0019629 -5.5133e-05 -1.25141e-06
-5.5133e-05 7.90065e-06 1.91682e-07
-1.25141e-06 1.91682e-07 -3.91415e-05
0.00187373 -5.79585e-05 -3.55038e-07
-5.79585e-05 7.05085e-05 -3.02124e-07
-3.55038e-07 -3.02124e-07 -2.55703e-05
0.00205093 -0.000132784 2.07511e-06
-0.000132784 6.09778e-05 -8.32534e-08
2.07511e-06 -8.32534e-08 3.55278e-06
0.00193813 -0.000121615 5.10917e-07
-0.000121615 0.000103072 1.5405e-08
5.10917e-07 1.5405e-08 -1.38e-06
0.00119582 -6.80941e-05 -1.19653e-05
-6.80941e-05 -9.92629e-06 6.32571e-07
-1.19653e-05 6.32571e-07 -0.000141836
0.00193631 -0.000180533 3.12659e-06
-0.000180533 9.84756e-05 -1.07424e-07
3.12659e-06 -1.07424e-07 -2.12417e-05
0.00113442 -0.000106592 -8.47194e-09
-0.000106592 -4.97534e-05 4.11699e-08
-8.47194e-09 4.11699e-08 -0.000199232
0.000383957 -2.43869e-05 -1.8221e-05
-2.43869e-05 -0.000216986 3.23931e-06
-1.8221e-05 3.23931e-06 -0.00030945
0.00116836 -0.000146377 1.1301e-05
-0.000146377 -3.16904e-05 -1.97997e-06
1.1301e-05 -1.97997e-06 -0.000193168
0.000390597 -7.57112e-05 -2.91304e-07
-7.57112e-05 -0.000209824 4.76025e-07
-2.91304e-07 4.76025e-07 -0.000309774
0.00662361 -6.02958e-05 -0.000328854
-6.02958e-05 0.00382275 1.60278e-05
-0.000328854 1.60278e-05 0.00384751
0.000453027 -7.86572e-05 1.43206e-05
-7.86572e-05 -0.000175699 -7.98172e-06
1.43206e-05 -7.98172e-06 -0.00028126
0.00422947 -0.000111037 0.000145276
-0.000111037 0.0023224 -7.79142e-06
0.000145276 -7.79142e-06 0.00230619
0.0015203 -9.25945e-05 8.17774e-05
-9.25945e-05 0.000631551 -1.17724e-05
8.17774e-05 -1.17724e-05 0.000578543
0.00204208 0.00013108 -8.06804e-06
0.00013108 6.6713e-05 -9.59576e-07
-8.06804e-06 -9.59576e-07 2.97577e-05
0.00210331 0.000200598 -2.91971e-06
0.000200598 0.000110349 -2.56102e-08
-2.91971e-06 -2.56102e-08 3.75837e-05
0.00201521 0.000164165 -6.16575e-07
0.000164165 1.00326e-05 -1.18919e-07
-6.16575e-07 -1.18919e-07 -2.06419e-05
0.00197288 0.00024905 -2.23207e-07
0.00024905 0.000136352 1.08723e-06
-2.23207e-07 1.08723e-06 -6.18781e-06
0.00209392 0.000270316 8.10018e-08
0.000270316 9.24344e-05 -5.64758e-08
8.10018e-08 -5.64758e-08 4.76135e-06
0.0020986 0.000234863 2.97962e-06
0.000234863 3.53022e-05 8.33752e-07
2.97962e-06 8.33752e-07 -1.01542e-05
0.0012208 0.000193487 -1.20608e-05
0.000193487 -1.42056e-05 -2.74254e-06
-1.20608e-05 -2.74254e-06 -0.000181484
0.00200695 0.00031636 2.32948e-06
0.00031636 0.000178944 7.60185e-07
2.32948e-06 7.60185e-07 1.34263e-05
0.00196126 0.000344026 1.53589e-06
0.000344026 3.64947e-05 -3.53744e-07
1.53589e-06 -3.53744e-07 -8.69035e-05
0.000340873 9.72969e-05 -1.80045e-05
9.72969e-05 -0.000247517 -8.82196e-06
-1.80045e-05 -8.82196e-06 -0.000352707
0.00120257 0.000232769 -3.98227e-07
0.000232769 -1.87354e-05 4.55444e-07
-3.98227e-07 4.55444e-07 -0.000200927
0.0020392 0.00038772 4.57632e-06
0.00038772 0.000219004 6.95641e-07
4.57632e-06 6.95641e-07 2.512e-05
0.00694407 0.000278042 -0.000330134
0.000278042 0.00403738 -3.88712e-05
-0.000330134 -3.88712e-05 0.00403917
0.000326593 0.00013655 -4.12507e-08
0.00013655 -0.000247747 3.9362e-07
-4.12507e-08 3.9362e-07 -0.000363028
0.00110235 0.000264879 1.80775e-05
0.000264879 -6.42013e-05 6.03848e-06
1.80775e-05 6.03848e-06 -0.00026347
0.00713584 0.000244647 1.39232e-05
0.000244647 0.00416299 4.0524e-06
1.39232e-05 4.0524e-06 0.00416114
0.000292744 0.000176477 1.9946e-05
0.000176477 -0.000245922 1.54258e-05
1.9946e-05 1.54258e-05 -0.000376257
0.00722028 0.000111028 0.000311717
0.000111028 0.00419876 2.89821e-05
0.000311717 2.89821e-05 0.00421029
0.0019036 5.49856e-05 -6.40067e-06
5.49856e-05 -1.3503e-05 -2.86004e-08
-6.40067e-06 -2.86004e-08 -7.08543e-05
0.00200129 7.81552e-05 -8.81153e-07
7.81552e-05 4.52186e-05 -1.94846e-07
-8.81153e-07 -1.94846e-07 1.62001e-05
0.00208458 0.000121329 2.43022e-06
0.000121329 1.10931e-05 4.23608e-07
2.43022e-06 4.23608e-07 1.20169e-05
0.0018656 -7.41475e-06 3.33499e-07
-7.41475e-06 7.15597e-05 -3.1412e-07
3.33499e-07 -3.1412e-07 -2.29441e-05
0.0019663 7.34679e-06 -1.66822e-06
7.34679e-06 2.76611e-05 1.30565e-07
-1.66822e-06 1.30565e-07 -2.41186e-05
0.00196685 3.11281e-05 6.47871e-06
3.11281e-05 7.42424e-06 -9.56158e-08
6.47871e-06 -9.56158e-08 -1.08051e-05
0.00202304 -5.38515e-05 2.22566e-06
-5.38515e-05 5.03412e-05 -1.34164e-08
2.22566e-06 -1.34164e-08 4.38186e-06
0.00191653 -5.77871e-05 1.8941e-06
-5.77871e-05 9.95463e-05 -3.29546e-08
1.8941e-06 -3.29546e-08 4.55326e-06
0.0011649 -2.97133e-05 -1.16454e-05
-2.97133e-05 -2.02242e-05 -3.65851e-08
-1.16454e-05 -3.65851e-08 -0.000144741
0.00186383 -0.000122467 6.81497e-07
-0.000122467 5.82601e-05 3.64502e-07
6.81497e-07 3.64502e-07 -5.42649e-05
0.00113618 -6.73395e-05 5.95855e-07
-6.73395e-05 -4.6306e-05 -1.45875e-07
5.95855e-07 -1.45875e-07 -0.000181938
0.000390563 -9.11141e-06 -1.85073e-05
-9.11141e-06 -0.0002128 1.97841e-06
-1.85073e-05 1.97841e-06 -0.00030118
0.00110982 -0.000102729 1.10865e-05
-0.000102729 -6.11985e-05 -1.3867e-06
1.10865e-05 -1.3867e-06 -0.000209791
0.000361843 -3.64773e-05 8.30604e-07
-3.64773e-05 -0.000230523 -2.91873e-07
8.30604e-07 -2.91873e-07 -0.000322375
0.00641517 -0.000154912 -0.000329736
-0.000154912 0.00370974 1.73683e-05
-0.000329736 1.73683e-05 0.00372813
0.000364556 -5.93646e-05 1.7812e-05
-5.93646e-05 -0.000226441 -4.34246e-06
1.7812e-05 -4.34246e-06 -0.000325607
0.0065687 -9.6863e-05 7.89572e-06
-9.6863e-05 0.00379195 5.19584e-09
7.89572e-06 5.19584e-09 0.00381586
0.00183357 -3.75964e-05 0.000255144
-3.75964e-05 0.00079673 -1.73775e-05
0.000255144 -1.73775e-05 0.000787105
0.00201528 0.000132648 -6.04435e-06
0.000132648 5.59268e-05 -6.43096e-07
-6.04435e-06 -6.43096e-07 -1.22044e-05
0.00200019 0.000132366 -1.81578e-06
0.000132366 3.11789e-05 -1.09632e-07
-1.81578e-06 -1.09632e-07 -1.48559e-06
0.00191843 0.000179026 -1.65865e-08
0.000179026 9.45244e-05 1.06359e-06
-1.65865e-08 1.06359e-06 -2.75964e-05
0.00209982 0.00020036 7.35345e-07
0.00020036 0.000103144 -2.30414e-08
7.35345e-07 -2.30414e-08 3.0672e-05
0.00199909 0.000158185 4.56901e-06
0.000158185 2.10464e-06 7.9431e-07
4.56901e-06 7.9431e-07 -2.8123e-05
0.00117314 0.000145931 -1.14799e-05
0.000145931 -3.13011e-05 -1.81215e-06
-1.14799e-05 -1.81215e-06 -0.00019003
0.00196298 0.000246512 1.57262e-07
0.000246512 0.000135919 1.33367e-07
1.57262e-07 1.33367e-07 -6.37239e-06
0.00211093 0.000269957 3.01554e-06
0.000269957 0.000100695 -1.72769e-07
3.01554e-06 -1.72769e-07 1.06539e-05
0.000372212 7.14686e-05 -1.7779e-05
7.14686e-05 -0.000231313 -6.12761e-06
-1.7779e-05 -6.12761e-06 -0.000331394
0.00119082 0.000192548 6.34781e-08
0.000192548 -2.99562e-05 4.66039e-07
6.34781e-08 4.66039e-07 -0.000200418
0.00193034 0.000310944 1.58765e-06
0.000310944 0.000138106 3.9274e-07
1.58765e-06 3.9274e-07 -3.35872e-05
0.00680214 0.000287237 -0.000346403
0.000287237 0.00395879 -3.59505e-05
-0.000346403 -3.59505e-05 0.00396043
0.000361302 0.000100511 3.01431e-07
0.000100511 -0.00023735 2.19064e-07
3.01431e-07 2.19064e-07 -0.000343324
0.00114434 0.000227582 1.09079e-05
0.000227582 -5.35546e-05 4.55494e-06
1.09079e-05 4.55494e-06 -0.000234627
0.00697941 0.000302804 1.05497e-05
0.000302804 0.00407204 5.013e-06
1.05497e-05 5.013e-06 0.00406804
0.000360274 0.000136023 1.85995e-05
0.000136023 -0.000230339 1.24766e-05
1.85995e-05 1.24766e-05 -0.000346061
0.00718776 0.000249624 0.000335302
0.000249624 0.00418761 3.93401e-05
0.000335302 3.93401e-05 0.004192
0.00183601 5.14175e-05 1.93564e-06
5.14175e-05 5.46209e-05 -1.23079e-07
1.93564e-06 -1.23079e-07 -4.39858e-05
0.00197041 5.62765e-05 -3.33541e-06
5.62765e-05 3.73456e-05 -1.09707e-07
-3.33541e-06 -1.09707e-07 -2.08751e-05
0.00203491 8.36059e-05 7.19222e-06
8.36059e-05 7.33277e-05 3.156e-07
7.19222e-06 3.156e-07 4.36974e-05
0.00113302 -1.13127e-05 -1.20795e-05
-1.13127e-05 -3.40434e-05 -2.63085e-07
-1.20795e-05 -2.63085e-07 -0.000156703
0.00190495 -3.21242e-06 2.3798e-06
-3.21242e-06 9.93906e-05 -4.60768e-08
2.3798e-06 -4.60768e-08 5.46749e-06
0.00199047 8.04653e-06 2.08688e-06
8.04653e-06 4.33636e-05 1.64406e-07
2.08688e-06 1.64406e-07 -5.40451e-06
0.00196391 -5.80835e-05 3.80007e-06
-5.80835e-05 0.000131761 2.0143e-07
3.80007e-06 2.0143e-07 3.78545e-05
0.00114553 -3.11255e-05 4.93736e-07
-3.11255e-05 -3.54841e-05 -7.57426e-08
4.93736e-07 -7.57426e-08 -0.000160308
0.000393829 -3.25234e-05 -1.90055e-05
-3.25234e-05 -0.000208735 7.82674e-07
-1.90055e-05 7.82674e-07 -0.00029322
0.00106039 -6.56296e-05 1.19408e-05
-6.56296e-05 -9.26046e-05 -1.1085e-06
1.19408e-05 -1.1085e-06 -0.000231968
0.000369208 2.3974e-06 4.50454e-07
2.3974e-06 -0.000227192 8.7099e-08
4.50454e-07 8.7099e-08 -0.000314346
0.00632453 -0.000125086 -0.00032959
-0.000125086 0.00365185 1.29867e-05
-0.00032959 1.29867e-05 0.00367341
0.000387602 -4.43656e-05 1.83909e-05
-4.43656e-05 -0.000211998 -2.96505e-06
1.83909e-05 -2.96505e-06 -0.000305006
0.00641061 -4.98801e-05 -3.13155e-06
-4.98801e-05 0.0036941 2.94393e-06
-3.13155e-06 2.94393e-06 0.00372035
0.00650919 -0.000110358 0.000328388
-0.000110358 0.00375627 -1.54838e-05
0.000328388 -1.54838e-05 0.00378023
0.00188058 0.000112117 6.58167e-08
0.000112117 7.65784e-05 3.73223e-07
6.58167e-08 3.73223e-07 -3.20409e-05
0.00202072 0.000130911 -3.32548e-06
0.000130911 5.21056e-05 -4.91488e-07
-3.32548e-06 -4.91488e-07 -1.02557e-05
0.00195977 0.000134188 6.21778e-06
0.000134188 -3.26577e-06 8.09175e-07
6.21778e-06 8.09175e-07 -3.16709e-05
0.00116986 9.77381e-05 -1.19128e-05
9.77381e-05 -2.488e-05 -1.04297e-06
-1.19128e-05 -1.04297e-06 -0.000170469
0.00194557 0.000178087 3.10948e-07
0.000178087 0.000116279 -1.18759e-07
3.10948e-07 -1.18759e-07 -5.68649e-06
0.00209241 0.000199924 3.15641e-06
0.000199924 9.32928e-05 -2.2876e-07
3.15641e-06 -2.2876e-07 2.11053e-05
0.000387273 4.878e-05 -1.7407e-05
4.878e-05 -0.000219965 -4.1775e-06
-1.7407e-05 -4.1775e-06 -0.000315728
0.00117226 0.000148296 2.64147e-07
0.000148296 -3.27889e-05 2.93737e-07
2.64147e-07 2.93737e-07 -0.000192822
0.00195653 0.000244201 8.29584e-07
0.000244201 0.000137189 -8.61022e-07
8.29584e-07 -8.61022e-07 -4.86653e-06
0.00664912 0.000240035 -0.000354828
0.000240035 0.00386188 -2.93171e-05
-0.000354828 -2.93171e-05 0.00387157
0.000382032 7.7374e-05 7.70432e-07
7.7374e-05 -0.000225466 2.29234e-07
7.70432e-07 2.29234e-07 -0.000326969
0.00116114 0.000191578 9.62474e-06
0.000191578 -4.77049e-05 3.39329e-06
9.62474e-06 3.39329e-06 -0.000221249
0.00686716 0.000304329 5.76418e-06
0.000304329 0.00400467 3.48599e-06
5.76418e-06 3.48599e-06 0.00400408
0.000387422 0.000105924 1.75179e-05
0.000105924 -0.000222295 9.64201e-06
1.75179e-05 9.64201e-06 -0.000329655
0.00703542 0.000337418 0.000346207
0.000337418 0.00411609 4.56344e-05
0.000346207 4.56344e-05 0.00410738
0.00108038 2.7522e-05 -1.21509e-05
2.7522e-05 -6.47836e-05 -6.05867e-07
-1.21509e-05 -6.05867e-07 -0.000195783
0.00189054 4.92047e-05 2.60594e-06
4.92047e-05 8.89909e-05 1.31541e-08
2.60594e-06 1.31541e-08 -5.574e-06
0.00203786 5.79276e-05 9.14869e-07
5.79276e-05 8.80331e-05 2.40134e-07
9.14869e-07 2.40134e-07 2.905e-05
0.000432828 3.1878e-05 -1.95363e-05
3.1878e-05 -0.000191976 -9.62048e-07
-1.95363e-05 -9.62048e-07 -0.000267838
0.00110641 -5.88119e-06 2.90518e-07
-5.88119e-06 -5.35723e-05 2.88544e-08
2.90518e-07 2.88544e-08 -0.000176256
0.00193853 2.37307e-06 4.24192e-06
2.37307e-06 0.00012325 4.87747e-08
4.24192e-06 4.87747e-08 2.98037e-05
0.00112247 -3.20935e-05 1.25723e-05
-3.20935e-05 -5.3393e-05 -4.16908e-07
1.25723e-05 -4.16908e-07 -0.000178506
0.000391368 -5.95393e-06 4.684e-07
-5.95393e-06 -0.000210495 3.75188e-07
4.684e-07 3.75188e-07 -0.000294909
0.00621571 1.14113e-05 -0.000331687
1.14113e-05 0.00357596 1.9059e-06
-0.000331687 1.9059e-06 0.00360513
0.000347187 1.41879e-05 1.79066e-05
1.41879e-05 -0.000242726 -9.06082e-07
1.79066e-05 -9.06082e-07 -0.0003284
0.00628541 -0.000122642 -7.92393e-06
-0.000122642 0.00362913 2.06986e-06
-7.92393e-06 2.06986e-06 0.00365028
0.00634325 -3.20485e-05 0.000315602
-3.20485e-05 0.00365215 -8.32393e-06
0.000315602 -8.32393e-06 0.00367861
0.00113974 5.81617e-05 -1.20512e-05
5.81617e-05 -3.48067e-05 -1.03127e-06
-1.20512e-05 -1.03127e-06 -0.000170545
0.00192107 0.0001091 -2.95128e-07
0.0001091 0.000101848 -4.28121e-07
-2.95128e-07 -4.28121e-07 -2.33483e-06
0.00200459 0.000128417 -4.81012e-07
0.000128417 3.38969e-05 -4.19138e-07
-4.81012e-07 -4.19138e-07 -2.3009e-05
0.00271614 6.57836e-05 -0.000152314
6.57836e-05 0.00124915 -5.45775e-06
-0.000152314 -5.45775e-06 0.00119528
0.00113884 9.96363e-05 2.49526e-07
9.96363e-05 -4.55831e-05 1.83578e-07
2.49526e-07 1.83578e-07 -0.000192169
0.0019787 0.000177232 1.06896e-06
0.000177232 0.000142112 -1.29412e-06
1.06896e-06 -1.29412e-06 2.03022e-05
0.00646377 0.000173349 -0.000352014
0.000173349 0.0037397 -2.08539e-05
-0.000352014 -2.08539e-05 0.003759
0.000410559 6.7923e-05 1.13546e-06
6.7923e-05 -0.000202529 4.74069e-07
1.13546e-06 4.74069e-07 -0.000300573
0.00117031 0.000150114 1.1714e-05
0.000150114 -3.37495e-05 2.30716e-06
1.1714e-05 2.30716e-06 -0.000195011
0.00672737 0.000255604 9.02061e-07
0.000255604 0.00391219 1.57976e-06
9.02061e-07 1.57976e-06 0.00392045
0.000406576 8.62052e-05 1.77395e-05
8.62052e-05 -0.000209057 7.29749e-06
1.77395e-05 7.29749e-06 -0.000312619
0.00693812 0.000340278 0.000356733
0.000340278 0.0040627 4.49714e-05
0.000356733 4.49714e-05 0.00405505
0.000516982 1.22697e-05 -1.54618e-05
1.22697e-05 -0.000128765 -2.05108e-06
-1.54618e-05 -2.05108e-06 -0.000213921
0.0010839 2.70701e-05 7.39481e-08
2.70701e-05 -6.71084e-05 1.86185e-07
7.39481e-08 1.86185e-07 -0.000195186
0.00194177 4.56779e-05 4.1594e-06
4.56779e-05 0.000121095 -1.21518e-07
4.1594e-06 -1.21518e-07 3.0557e-05
0.00603778 -0.0001033 -0.000313241
-0.0001033 0.00348334 4.33606e-06
-0.000313241 4.33606e-06 0.00350124
0.00038999 9.68271e-06 -5.83651e-07
9.68271e-06 -0.000214476 -1.38291e-07
-5.83651e-07 -1.38291e-07 -0.00029299
0.00109606 -1.71662e-06 1.25129e-05
-1.71662e-06 -6.30385e-05 4.15463e-08
1.25129e-05 4.15463e-08 -0.000185685
0.000348175 2.07627e-05 1.82119e-05
2.07627e-05 -0.000239243 4.87141e-07
1.82119e-05 4.87141e-07 -0.000322363
0.0061516 -2.39897e-05 1.87212e-06
-2.39897e-05 0.00354243 -1.69214e-06
1.87212e-06 -1.69214e-06 0.00356668
0.00627142 -4.55782e-05 0.000320316
-4.55782e-05 0.00360814 -5.89948e-06
0.000320316 -5.89948e-06 0.00363548
0.0027851 1.79254e-05 -0.000145754
1.79254e-05 0.00129257 -3.07386e-06
-0.000145754 -3.07386e-06 0.00124302
0.00111175 6.12893e-05 8.6e-08
6.12893e-05 -5.44507e-05 -8.38469e-08
8.6e-08 -8.38469e-08 -0.000190981
0.00198011 0.000106605 1.50967e-06
0.000106605 0.000139844 -8.61662e-07
1.50967e-06 -8.61662e-07 4.0357e-05
0.00593094 -3.0513e-05 -0.000140276
-3.0513e-05 0.00341853 1.91171e-07
-0.000140276 1.91171e-07 0.00340758
0.000402744 5.96312e-05 2.62587e-07
5.96312e-05 -0.000204771 3.06143e-07
2.62587e-07 3.06143e-07 -0.000296522
0.00111185 0.000101861 1.20736e-05
0.000101861 -6.43985e-05 1.39255e-06
1.20736e-05 1.39255e-06 -0.000211967
0.00655679 0.000150522 -1.08247e-05
0.000150522 0.0037923 -1.85369e-06
-1.08247e-05 -1.85369e-06 0.00381274
0.000409865 9.00079e-05 1.92004e-05
9.00079e-05 -0.000201345 5.87408e-06
1.92004e-05 5.87408e-06 -0.000300749
0.00682023 0.000280265 0.000362924
0.000280265 0.00397612 3.78505e-05
0.000362924 3.78505e-05 0.00398193
0.00182769 -5.39457e-05 -0.000247175
-5.39457e-05 0.000798432 1.4315e-06
-0.000247175 1.4315e-06 0.000799083
0.00158137 3.20237e-05 -6.27785e-05
3.20237e-05 0.000533905 5.3293e-08
-6.27785e-05 5.3293e-08 0.000471925
0.00108212 2.92353e-05 1.26164e-05
2.92353e-05 -7.21588e-05 6.41097e-07
1.26164e-05 6.41097e-07 -0.00019739
0.00611366 -5.00185e-05 6.70011e-06
-5.00185e-05 0.00352421 2.78755e-06
6.70011e-06 2.78755e-06 0.00354779
0.000407572 -1.13466e-05 1.88527e-05
-1.13466e-05 -0.000196874 9.0756e-07
1.88527e-05 9.0756e-07 -0.000279349
0.00618675 -8.64037e-05 0.000331824
-8.64037e-05 0.00356879 -5.4395e-06
0.000331824 -5.4395e-06 0.00359254
0.00139281 2.33073e-05 -6.56921e-05
2.33073e-05 0.000552664 -1.18398e-06
-6.56921e-05 -1.18398e-06 0.000512876
0.00157614 2.01109e-05 -6.39594e-05
2.01109e-05 0.000532207 -1.55128e-06
-6.39594e-05 -1.55128e-06 0.000465275
0.00107658 6.29109e-05 1.2047e-05
6.29109e-05 -7.83778e-05 8.47212e-07
1.2047e-05 8.47212e-07 -0.000215706
0.00391573 7.15184e-05 0.000124617
7.15184e-05 0.00212956 3.90315e-06
0.000124617 3.90315e-06 0.0021226
0.000419706 6.9801e-05 1.96907e-05
6.9801e-05 -0.000194089 4.44358e-06
1.96907e-05 4.44358e-06 -0.000285771
0.00663502 0.000137759 0.000345372
0.000137759 0.00383308 2.26604e-05
0.000345372 2.26604e-05 0.00385734
0.0060656 -1.98333e-05 -8.77162e-06
-1.98333e-05 0.00349744 -3.34221e-06
-8.77162e-06 -3.34221e-06 0.00351967
0.000401107 5.09276e-05 2.04897e-05
5.09276e-05 -0.000212577 2.60613e-06
2.04897e-05 2.60613e-06 -0.000288035
0.00602491 3.46754e-05 0.000319664
3.46754e-05 0.00346397 1.93426e-07
0.000319664 1.93426e-07 0.00349135
0.00377794 3.35665e-05 0.000135699
3.35665e-05 0.00204878 5.45071e-06
0.000135699 5.45071e-06 0.00204427
0.00043358 9.97832e-06 1.89416e-05
9.97832e-06 -0.000184408 2.60169e-06
1.89416e-05 2.60169e-06 -0.000269238
0.00639616 6.02181e-06 0.000331525
6.02181e-06 0.00368496 1.01786e-05
0.000331525 1.01786e-05 0.00371144
0.00612684 -0.000116744 0.000318574
-0.000116744 0.00353952 -4.36841e-06
0.000318574 -4.36841e-06 0.00355756
0.00617592 1.25175e-05 0.000322864
1.25175e-05 0.0035483 5.93449e-06
0.000322864 5.93449e-06 0.00357779
