# vtk DataFile Version 2.0
Wound Healing Simulation
ASCII
DATASET UNSTRUCTURED_GRID
POINTS 3012 float
69.9759 18.75 4
67.2507 60.3285 4
69.976 18.75 2
73.0099 25.446 4
71.1327 20.9142 4
68.6801 16.6661 4
67.8276 19.9249 3.98744
67.2507 60.3286 2
71.1327 54.0858 4
68.6801 58.3339 4
65.6939 62.2254 4
65.3141 59.0039 3.98853
74.6784 42.3946 4
73.7221 47.2057 4
69.9759 18.75 0
73.0099 25.446 2
68.6801 16.6661 2
71.1327 20.9142 2
67.8282 19.9263 2
74.6792 32.6053 4
73.7222 27.7943 4
72.1454 23.1494 4
70.6157 26.2225 3.98597
68.8878 21.9583 3.98706
67.2507 14.6715 4
66.6391 17.9695 3.98803
65.803 21.0218 3.98212
67.2507 60.3285 0
71.1327 54.0858 2
68.6801 58.3339 2
65.694 62.2255 2
65.3145 59.0034 2
72.1454 51.8506 4
69.9759 56.25 4
68.8385 53.1129 3.98672
64.0165 64.0165 4
66.6128 57.1358 3.98822
63.8874 60.7688 3.98989
63.5053 57.7785 3.98385
60.3285 67.2507 4
74.6792 42.3947 2
73.7222 47.2057 2
74.9194 39.9526 4
74.2788 44.8158 4
72.169 42.0855 3.9843
73.0099 49.554 4
71.2507 46.5973 3.9858
73.0099 25.446 0
71.1327 20.9142 0
68.6801 16.6661 0
67.8276 19.9249 0.012558
74.6792 32.6053 2
73.7222 27.7943 2
67.2508 14.6715 2
72.1455 23.1494 2
70.6157 26.2232 2
66.6397 17.9702 2
68.8881 21.9599 2
65.8032 21.0212 2
74.9197 35.0474 4
74.2794 30.1841 4
72.1857 32.9434 3.98491
71.2795 28.4324 3.98586
69.8174 24.0609 3.98657
68.3506 26.952 3.97791
66.768 22.9317 3.98068
65.694 12.7746 4
65.3255 16.1003 3.98906
64.7196 19.189 3.98341
63.896 22.029 3.979
71.1327 54.0858 0
65.6939 62.2254 0
68.6801 58.3339 0
65.3141 59.0039 0.01147
72.1455 51.8506 2
69.9759 56.25 2
68.8388 53.1113 2
64.0165 64.0165 2
66.6133 57.1348 2
63.8877 60.7685 2
63.5054 57.7792 2
62.2254 65.694 4
58.8948 65.4159 3.99265
69.7709 50.9878 3.98629
67.786 55.1684 3.98763
66.655 52.211 3.98029
62.3374 62.4298 3.9913
64.6667 56.037 3.98379
62.2065 59.412 3.98434
61.8308 56.6915 3.98133
58.3339 68.6801 4
60.3285 67.2508 2
73.7221 47.2057 0
74.6784 42.3946 0
74.9197 39.9526 2
74.2794 44.8159 2
72.169 42.0857 2
73.0099 49.554 2
71.2507 46.5972 2
75 37.5 4
72.4059 39.8021 3.98344
71.7837 44.3525 3.98525
69.8066 41.7896 3.97658
70.5768 48.8123 3.98611
68.9162 46.0148 3.97766
74.6792 32.6053 0
73.7222 27.7943 0
67.2507 14.6715 0
72.1454 23.1494 0
70.6157 26.2225 0.0140298
68.8878 21.9583 0.012941
66.6391 17.9695 0.011966
65.803 21.0218 0.0178787
74.9197 35.0474 2
74.2794 30.1841 2
72.1857 32.9434 2
71.2796 28.4327 2
65.694 12.7745 2
65.326 16.1004 2
69.8176 24.0622 2
68.3505 26.9521 2
64.7199 19.188 2
66.7679 22.9315 2
63.8962 22.0283 2
72.4138 35.2242 3.98374
71.8051 30.6767 3.98572
69.8429 33.2687 3.97718
68.9698 29.0387 3.97787
67.6159 24.9119 3.97914
66.1997 27.6339 3.97479
64.0165 10.9835 4
64.7645 23.8263 3.97744
63.8915 14.324 3.99019
63.5182 17.439 3.98473
62.916 20.3113 3.98018
62.1039 22.9345 3.97731
60.6848 11.0953 3.99181
57.6132 11.4402 3.98689
72.1454 51.8506 0
69.9759 56.25 0
68.8385 53.1129 0.0132752
64.0165 64.0165 0
63.8874 60.7688 0.0101111
66.6128 57.1358 0.0117845
63.5053 57.7785 0.0161543
62.2255 65.694 2
58.895 65.416 2
69.771 50.9866 2
67.7865 55.1669 2
66.6549 52.2112 2
62.3377 62.4296 2
64.6669 56.0378 2
62.2065 59.4126 2
61.8309 56.6923 2
60.6696 63.9789 3.99204
57.0253 66.7367 3.99319
57.5588 63.697 3.9874
67.5123 50.1774 3.97889
65.7082 54.1769 3.98238
64.5458 51.3896 3.97666
60.7755 60.945 3.9853
62.8294 55.0769 3.98142
60.6641 58.1703 3.9814
60.3376 55.7985 3.98025
56.25 69.9759 4
58.3339 68.6801 2
60.3285 67.2507 0
58.9218 9.65364 3.99241
62.2254 9.30607 4
73.0099 49.554 0
74.2788 44.8158 0
71.2507 46.5973 0.0142026
72.169 42.0855 0.0156958
74.9194 39.9526 0
75 37.5 2
72.4059 39.8024 2
71.7837 44.3527 2
69.8067 41.7897 2
70.5769 48.8117 2
68.9161 46.0146 2
72.4892 37.512 3.98331
70.0427 39.6574 3.97517
69.4338 43.9074 3.97744
67.6012 41.4985 3.97333
68.2703 48.1073 3.97813
66.7155 45.4414 3.9747
74.9197 35.0474 0
74.2794 30.1841 0
72.1857 32.9434 0.0150919
71.2795 28.4324 0.0141399
65.694 12.7746 0
65.3255 16.1003 0.0109359
69.8174 24.0609 0.0134283
68.3506 26.952 0.0220944
66.768 22.9317 0.0193177
64.7196 19.189 0.0165882
63.896 22.029 0.0209977
72.4138 35.2241 2
71.8052 30.6767 2
69.843 33.2689 2
68.9699 29.0388 2
64.0165 10.9835 2
63.8918 14.3241 2
63.5184 17.4381 2
67.6158 24.9118 2
66.1997 27.6337 2
62.9164 20.3104 2
64.7646 23.8257 2
62.1042 22.9339 2
60.6851 11.0954 2
57.6133 11.4395 2
70.0597 35.3923 3.9758
69.4707 31.1498 3.97792
67.6599 33.5906 3.9739
66.7776 29.622 3.97473
65.5305 25.6974 3.97589
64.1524 28.2531 3.97382
62.3427 12.6523 3.9911
62.8664 24.6314 3.97587
62.2023 15.7765 3.98516
61.8214 18.6736 3.98171
61.2287 21.3303 3.97808
60.4381 23.7167 3.97673
59.2475 12.7715 3.98548
55.8751 10.2268 3.98834
56.4065 13.1027 3.98369
69.7709 50.9878 0.0137054
62.2254 65.694 0
58.8948 65.4159 0.00734761
67.786 55.1684 0.0123714
66.655 52.211 0.0197063
62.3374 62.4298 0.00870044
62.2065 59.412 0.0156648
64.6667 56.037 0.0162058
61.8308 56.6915 0.0186724
60.6698 63.979 2
57.0255 66.7367 2
57.5587 63.6977 2
67.5122 50.1774 2
65.7083 54.1775 2
64.5458 51.3902 2
60.7755 60.9458 2
62.8296 55.0778 2
60.6641 58.1711 2
60.3377 55.7993 2
55.0707 67.9336 3.99346
59.2208 62.3723 3.98597
55.8051 64.9144 3.98888
56.3285 62.098 3.98426
65.3388 49.4111 3.97548
63.7155 53.2991 3.97925
62.4515 50.6587 3.97481
59.3371 59.5673 3.98307
61.0884 54.3206 3.98043
59.2964 57.0257 3.97936
59.2528 55.197 3.98104
48.1032 68.5816 3.99025
50.9484 69.933 3.99388
54.0858 71.1327 4
56.25 69.976 2
58.3339 68.6801 0
57.0589 8.33352 3.99288
60.3285 7.74928 4
58.9221 9.6536 2
62.2255 9.30602 2
70.5768 48.8123 0.013893
71.7837 44.3525 0.0147512
68.9162 46.0148 0.0223382
69.8066 41.7896 0.0234174
72.4059 39.8021 0.0165581
75 37.5 0
72.4892 37.5122 2
70.0427 39.6574 2
69.4338 43.9074 2
67.6012 41.4986 2
68.2702 48.1072 2
66.7155 45.4416 2
70.1307 37.5217 3.9752
67.8366 39.5128 3.97191
67.2287 43.4712 3.9743
65.5607 41.212 3.97235
66.075 47.42 3.97513
64.6593 44.8517 3.97377
72.4138 35.2242 0.0162622
71.8051 30.6767 0.0142807
69.8429 33.2687 0.0228242
68.9698 29.0387 0.0221254
64.0165 10.9835 0
63.8915 14.324 0.0098095
63.5182 17.439 0.0152667
67.6159 24.9119 0.0208609
66.1997 27.6339 0.0252087
64.7645 23.8263 0.0225607
62.916 20.3113 0.0198234
62.1039 22.9345 0.0226936
60.6848 11.0953 0.00818665
57.6132 11.4402 0.0131149
70.0598 35.3925 2
69.4708 31.15 2
67.66 33.5906 2
66.7777 29.6219 2
62.3429 12.6525 2
62.2024 15.776 2
61.8218 18.6726 2
65.5305 25.6971 2
64.1525 28.2529 2
61.2292 21.3295 2
62.8665 24.6309 2
60.4384 23.7162 2
59.2475 12.7708 2
56.4065 13.1018 2
55.8751 10.2261 2
67.8733 35.5477 3.97267
67.2708 31.6216 3.97484
65.7033 33.9262 3.9727
64.6695 30.1898 3.97361
63.5456 26.4105 3.9744
62.2642 28.7739 3.97442
60.7772 14.216 3.98505
61.0554 25.3301 3.9751
60.6179 17.1165 3.98302
60.232 19.8031 3.97977
59.6734 22.2452 3.97664
58.9913 24.3077 3.97721
54.038 9.13045 3.98893
57.9121 14.3215 3.98339
54.7876 12.0018 3.98494
55.3141 14.6332 3.98234
67.5123 50.1774 0.0211116
57.0253 66.7367 0.0068105
60.6696 63.9789 0.00795917
57.5588 63.697 0.0125993
65.7082 54.1769 0.0176159
64.5458 51.3896 0.0233423
60.7755 60.945 0.0147024
60.6641 58.1703 0.0185989
62.8294 55.0769 0.0185841
60.3376 55.7985 0.0197465
55.071 67.9336 2
59.2208 62.3732 2
55.805 64.915 2
56.3284 62.0987 2
65.3387 49.4115 2
63.7156 53.3 2
62.4516 50.6593 2
59.3371 59.5682 2
61.0887 54.3214 2
59.2965 57.0263 2
59.253 55.1976 2
53.0426 69.0013 3.9937
53.9673 66.0164 3.9895
57.8831 60.8791 3.98363
54.6847 63.2142 3.98553
55.2134 60.6261 3.98264
63.2026 48.6661 3.97399
61.7531 52.5845 3.97771
60.2842 50.0284 3.9738
58.0231 58.2733 3.98085
59.3395 53.9606 3.97957
58.1352 55.8268 3.97737
50.1098 67.8597 3.99007
47.4638 66.586 3.98798
46.0569 69.1612 3.99046
48.1032 68.5821 2
48.8026 70.7243 3.99404
50.9487 69.9331 2
51.8506 72.1454 4
54.0858 71.1327 2
56.25 69.9759 0
55.1031 7.13812 3.99309
58.3339 6.31992 4
57.0592 8.33339 2
60.3286 7.74926 2
58.9218 9.65364 0.00759415
62.2254 9.30607 0
68.2703 48.1073 0.0218704
69.4338 43.9074 0.022565
66.7155 45.4414 0.0253032
67.6012 41.4985 0.0266735
70.0427 39.6574 0.0248325
72.4892 37.512 0.0166891
70.1307 37.5218 2
67.8367 39.5129 2
67.2288 43.4714 2
65.5608 41.2122 2
66.075 47.4202 2
64.6592 44.852 2
67.9329 37.5224 3.9719
65.7902 39.3715 3.97091
65.1823 43.0282 3.97331
63.7613 40.9327 3.97215
63.9733 46.7207 3.97402
62.8153 44.2215 3.97426
70.0597 35.3923 0.0241968
69.4707 31.1498 0.0220816
67.6599 33.5906 0.0261006
66.7776 29.622 0.0252709
62.3427 12.6523 0.00890247
62.2023 15.7765 0.014839
61.8214 18.6736 0.0182886
65.5305 25.6974 0.0241137
64.1524 28.2531 0.0261836
62.8664 24.6314 0.0241302
61.2287 21.3303 0.0219242
60.4381 23.7167 0.0232748
59.2475 12.7715 0.0145226
56.4065 13.1027 0.0163097
55.8751 10.2268 0.0116556
67.8734 35.5477 2
67.2709 31.6215 2
65.7034 33.9261 2
64.6696 30.1896 2
60.7772 14.2154 2
60.618 17.1156 2
60.2325 19.8022 2
63.5457 26.4102 2
62.2643 28.7737 2
59.674 22.2445 2
61.0557 25.3297 2
58.9917 24.3073 2
57.912 14.3208 2
55.314 14.6324 2
54.038 9.12983 2
54.7876 12.0009 2
65.88 35.6667 3.97154
65.1931 32.152 3.9736
64.2905 34.2489 3.9728
62.6027 30.6322 3.97331
61.6593 27.0672 3.97345
60.8581 29.1345 3.97529
59.3135 15.6583 3.98342
59.342 25.7863 3.97749
59.13 18.3421 3.98188
58.7505 20.8392 3.97775
58.2975 23.0778 3.97535
57.9811 24.6515 3.97756
52.1126 8.14918 3.98925
53.0584 11.0085 3.98595
56.6788 15.7298 3.98256
53.8106 13.6681 3.98327
54.3782 15.9842 3.98211
55.0707 67.9336 0.00653639
65.3388 49.4111 0.0245157
55.8051 64.9144 0.0111229
59.2208 62.3723 0.0140336
56.3285 62.098 0.0157432
63.7155 53.2991 0.020746
62.4515 50.6587 0.0251903
59.3371 59.5673 0.016928
59.2964 57.0257 0.0206429
61.0884 54.3206 0.0195703
59.2528 55.197 0.0189574
53.0428 69.0014 2
53.9672 66.0169 2
57.883 60.8798 2
54.6845 63.2149 2
55.2133 60.6269 2
63.2027 48.6665 2
61.7534 52.5853 2
60.2844 50.029 2
58.0232 58.2742 2
59.3397 53.9613 2
58.1354 55.8274 2
52.0708 67.0028 3.98986
52.9538 64.2243 3.98665
56.6515 59.4997 3.98232
53.6823 61.6312 3.98374
54.2628 59.3324 3.98125
61.0031 47.8879 3.97307
59.7227 52.1169 3.97734
58.0366 49.6297 3.97552
56.7827 57.0015 3.97754
57.1319 54.1368 3.97742
50.1097 67.86 2
49.3375 65.9263 3.98779
47.4636 66.5866 2
46.8926 64.7435 3.98643
45.5589 67.1037 3.98787
43.9739 69.5936 3.99049
46.0569 69.1616 2
46.6093 71.3688 3.99421
48.1032 68.5816 0.00974747
48.8029 70.7244 2
49.554 73.0099 4
50.9484 69.933 0.00612021
51.8506 72.1455 2
54.0858 71.1327 0
53.0641 6.06972 3.99328
55.1034 7.138 2
56.25 5.02411 4
58.3339 6.3199 2
57.0589 8.33352 0.00711545
60.3285 7.74928 0
66.075 47.42 0.024874
67.2287 43.4712 0.0256977
64.6593 44.8517 0.0262262
65.5607 41.212 0.0276483
67.8366 39.5128 0.0280891
70.1307 37.5217 0.0248033
67.9329 37.5225 2
65.7904 39.3716 2
65.1824 43.0285 2
63.7615 40.9329 2
63.9732 46.721 2
62.8153 44.2218 2
65.8932 37.5024 3.97056
63.9032 39.2686 3.97078
63.3364 42.5545 3.97304
62.4383 40.7009 3.97256
61.9766 45.9254 3.97426
61.4612 43.6896 3.97455
67.8733 35.5477 0.0273294
67.2708 31.6216 0.0251554
65.7033 33.9262 0.0273021
64.6695 30.1898 0.0263867
60.7772 14.216 0.0149505
60.6179 17.1165 0.0169832
60.232 19.8031 0.0202252
63.5456 26.4105 0.0256039
62.2642 28.7739 0.0255814
61.0554 25.3301 0.0249015
59.6734 22.2452 0.0233606
58.9913 24.3077 0.0227923
57.9121 14.3215 0.0166147
55.3141 14.6332 0.0176554
54.038 9.13045 0.0110748
54.7876 12.0018 0.0150611
65.8802 35.6667 2
65.1932 32.1519 2
64.2907 34.2487 2
62.6029 30.632 2
59.3135 15.6574 2
59.1304 18.3411 2
58.7512 20.8383 2
61.6595 27.067 2
60.8582 29.1343 2
58.2982 23.0772 2
59.3423 25.786 2
57.9817 24.6512 2
56.6787 15.729 2
54.3781 15.9833 2
53.8106 13.6671 2
52.1126 8.14862 2
53.0584 11.0078 2
64.0952 35.6322 3.97138
62.9393 33.0439 3.97289
60.6239 30.6068 3.97257
59.5803 27.9023 3.97356
57.943 16.9706 3.98261
57.7522 25.7139 3.97912
57.7221 19.4611 3.98039
57.3815 21.8246 3.97529
57.1987 23.9326 3.9749
50.1126 7.28131 3.98946
51.2327 10.1172 3.98665
52.1726 12.7856 3.98453
55.54 16.9582 3.98253
52.9789 15.2491 3.98162
53.7605 16.9656 3.98225
53.0426 69.0013 0.00629969
53.9673 66.0164 0.0105017
63.2026 48.6661 0.0260149
54.6847 63.2142 0.0144678
57.8831 60.8791 0.016369
55.2134 60.6261 0.0173645
61.7531 52.5845 0.0222889
60.2842 50.0284 0.0262013
58.0231 58.2733 0.0191494
58.1352 55.8268 0.022631
59.3395 53.9606 0.0204313
52.0707 67.0032 2
52.9536 64.2249 2
56.6514 59.5006 2
53.6821 61.632 2
54.2626 59.3335 2
61.0032 47.8883 2
59.723 52.1176 2
58.0369 49.63 2
56.7829 57.0025 2
57.1322 54.1372 2
51.1683 65.1332 3.98736
52.0467 62.5463 3.98484
55.4845 58.2621 3.98174
52.8362 60.1455 3.98219
53.6433 58.4827 3.98029
58.3173 46.8599 3.97538
57.5733 51.8006 3.97672
56.2593 49.5658 3.98134
55.4788 55.8072 3.9766
55.3679 53.3956 3.97207
50.1098 67.8597 0.009928
49.3373 65.9267 2
48.6184 64.1297 3.98601
47.4638 66.586 0.0120183
45.5588 67.1041 2
46.8925 64.744 2
46.382 63.0621 3.98523
45.1329 65.205 3.98656
43.632 67.4746 3.98802
41.8611 69.8811 3.99044
43.9739 69.5941 2
44.3767 71.8636 3.99418
46.0569 69.1612 0.00953679
46.6095 71.3689 2
47.2057 73.7222 4
48.8026 70.7243 0.00596235
49.554 73.0099 2
51.8506 72.1454 0
50.9538 5.13015 3.99347
53.0643 6.06956 2
54.0858 3.86728 4
55.1031 7.13812 0.0069149
56.25 5.02406 2
58.3339 6.31992 0
63.9733 46.7207 0.0259777
65.1823 43.0282 0.0266851
62.8153 44.2215 0.0257379
63.7613 40.9327 0.0278531
65.7902 39.3715 0.0290912
67.9329 37.5224 0.0281019
65.8933 37.5025 2
63.9034 39.2687 2
63.3365 42.5547 2
62.4384 40.7011 2
61.9766 45.9256 2
61.4612 43.6898 2
63.9635 37.4577 3.97057
62.1639 39.357 3.97138
61.2285 41.9632 3.97307
60.2611 44.7785 3.97481
65.88 35.6667 0.0284621
65.1931 32.152 0.0263974
64.2905 34.2489 0.0271966
62.6027 30.6322 0.0266885
59.3135 15.6583 0.0165767
59.13 18.3421 0.0181192
58.7505 20.8392 0.0222467
61.6593 27.0672 0.0265504
60.8581 29.1345 0.0247126
59.342 25.7863 0.0225054
58.2975 23.0778 0.0246511
57.9811 24.6515 0.0224397
56.6788 15.7298 0.0174449
54.3782 15.9842 0.0178946
53.8106 13.6681 0.0167317
52.1126 8.14918 0.0107487
53.0584 11.0085 0.0140538
64.0955 35.6322 2
62.9395 33.0436 2
60.6241 30.6066 2
57.9431 16.9697 2
57.7227 19.4599 2
57.3823 21.8239 2
59.5805 27.9021 2
57.1994 23.9323 2
57.7527 25.7137 2
50.1126 7.28087 2
55.54 16.9572 2
53.7603 16.9645 2
52.9788 15.248 2
52.1725 12.7848 2
51.2326 10.1166 2
62.1975 35.3584 3.97122
60.3038 32.743 3.97265
58.6333 30.0693 3.97262
57.3022 27.3697 3.97378
56.6402 18.1419 3.98247
56.3058 25.0892 3.97436
56.3648 20.506 3.97758
56.1199 22.8537 3.97223
48.0562 6.52455 3.98974
49.3244 9.32545 3.98696
50.4333 11.9841 3.9849
51.3787 14.4846 3.9831
54.4179 17.9063 3.98258
52.363 17.0209 3.9813
52.0708 67.0028 0.0101446
52.9538 64.2243 0.0133518
61.0031 47.8879 0.0269302
53.6823 61.6312 0.0162562
56.6515 59.4997 0.0176756
54.2628 59.3324 0.0187537
59.7227 52.1169 0.022658
58.0366 49.6297 0.0244767
56.7827 57.0015 0.0224592
57.1319 54.1368 0.0225774
51.168 65.1337 2
52.0465 62.547 2
55.4845 58.2631 2
52.836 60.1463 2
53.6432 58.4837 2
58.3175 46.8602 2
57.5737 51.8011 2
56.2596 49.5664 2
55.4791 55.8084 2
55.3682 53.3964 2
50.3466 63.3878 3.98556
51.2451 60.9444 3.98303
54.2243 57.2766 3.97997
52.3151 58.6454 3.9806
56.7362 44.1941 3.97367
55.5063 47.9089 3.97662
55.082 51.3985 3.97298
54.0125 54.558 3.97486
49.3375 65.9263 0.0122058
48.6181 64.1301 2
47.9623 62.4831 3.98484
45.5589 67.1037 0.012134
46.8926 64.7435 0.0135703
43.6319 67.4751 2
46.3818 63.0627 2
45.1327 65.2055 2
45.9874 61.5958 3.9843
44.7673 63.4635 3.98579
43.3568 65.515 3.98673
41.664 67.6938 3.98799
39.7027 70.0284 3.99031
41.8611 69.8816 2
42.1111 72.2084 3.9941
43.9739 69.5936 0.00950878
44.3769 71.8638 2
44.8159 74.2794 4
46.6093 71.3688 0.00578658
47.2057 73.7222 2
49.554 73.0099 0
48.7842 4.32123 3.99369
50.954 5.13 2
51.8506 2.85458 4
53.0641 6.06972 0.0067228
54.0858 3.86728 2
56.25 5.02411 0
61.9766 45.9254 0.0257441
63.3364 42.5545 0.0269555
61.4612 43.6896 0.0254514
62.4383 40.7009 0.0274402
63.9032 39.2686 0.0292227
65.8932 37.5024 0.029444
63.9636 37.4577 2
62.1642 39.3572 2
61.2286 41.9634 2
60.2611 44.7787 2
61.9991 37.4451 3.97104
60.2601 39.851 3.97241
59.0105 42.9254 3.97363
64.0952 35.6322 0.028623
62.9393 33.0439 0.0271108
60.6239 30.6068 0.0274333
57.943 16.9706 0.0173855
57.7221 19.4611 0.0196088
57.3815 21.8246 0.0247071
59.5803 27.9023 0.0264437
57.7522 25.7139 0.0208779
57.1987 23.9326 0.0251027
55.54 16.9582 0.0174689
53.7605 16.9656 0.0177537
52.9789 15.2491 0.0183794
50.1126 7.28131 0.0105371
52.1726 12.7856 0.0154681
51.2327 10.1172 0.0133524
62.1979 35.3585 2
60.3039 32.7428 2
58.6335 30.0694 2
56.6404 18.1408 2
56.3657 20.5048 2
56.1209 22.8534 2
57.3025 27.3695 2
56.3065 25.0893 2
48.0563 6.52406 2
49.3243 9.32503 2
54.418 17.9051 2
52.3628 17.0198 2
51.3786 14.4837 2
50.4332 11.9834 2
59.9073 35.1192 3.97202
58.0129 32.2666 3.9734
56.5596 29.3307 3.97198
55.4608 26.5881 3.97643
55.3466 19.1751 3.98217
54.9421 24.0422 3.97135
55.0096 21.5477 3.97515
45.9621 5.87963 3.99005
43.3733 7.46898 3.98812
47.3547 8.61952 3.98722
48.5998 11.286 3.98546
49.7143 13.7322 3.98385
50.6347 16.118 3.98116
53.1278 18.6451 3.98055
51.3047 18.0336 3.98537
51.1683 65.1332 0.0126391
52.0467 62.5463 0.0151583
58.3173 46.8599 0.0246182
52.8362 60.1455 0.0178091
55.4845 58.2621 0.0182573
53.6433 58.4827 0.0197084
57.5733 51.8006 0.0232787
56.2593 49.5658 0.0186624
55.4788 55.8072 0.023403
55.3679 53.3956 0.0279305
50.3463 63.3882 2
51.2448 60.9451 2
54.2245 57.2778 2
52.315 58.6462 2
56.7363 44.1943 2
55.5064 47.9097 2
55.0824 51.399 2
54.0129 54.5598 2
49.5923 61.7529 3.98425
55.6662 41.715 3.97523
50.5685 59.3384 3.98063
52.1902 56.5014 3.97735
54.2066 45.5784 3.97639
53.3549 49.3371 3.97451
52.6786 52.86 3.97164
48.6184 64.1297 0.0139853
47.962 62.4834 2
47.3295 61.0186 3.98377
43.632 67.4746 0.0119786
45.1329 65.205 0.0134449
46.382 63.0621 0.014771
41.6638 67.6942 2
43.3567 65.5155 2
45.9871 61.5962 2
44.7671 63.464 2
45.7664 60.6404 3.98345
44.4832 61.8458 3.98451
43.1466 63.7364 3.98566
41.5463 65.6531 3.9867
39.6329 67.7736 3.98782
37.5261 70.0535 3.99022
39.7027 70.0289 2
39.8179 72.4055 3.99403
41.8611 69.8811 0.0095623
42.1112 72.2086 2
42.3947 74.6792 4
44.3767 71.8636 0.00581938
44.8159 74.2794 2
47.2057 73.7222 0
43.8514 5.35672 3.9903
46.5703 3.64582 3.99392
48.7845 4.32103 2
49.554 1.99015 4
50.9538 5.13015 0.00653237
51.8506 2.85453 2
54.0858 3.86728 0
60.2611 44.7785 0.0251873
61.2285 41.9632 0.026925
62.1639 39.357 0.0286246
63.9635 37.4577 0.0294337
61.9996 37.4452 2
60.2605 39.8511 2
59.0104 42.9256 2
59.7703 37.5684 3.97203
58.0204 40.6632 3.97308
55.1418 39.7279 3.97588
62.1975 35.3584 0.0287779
60.3038 32.743 0.0273455
58.6333 30.0693 0.0273826
56.6402 18.1419 0.0175315
56.3648 20.506 0.0224249
56.1199 22.8537 0.0277661
57.3022 27.3697 0.0262189
56.3058 25.0892 0.0256352
54.4179 17.9063 0.0174166
52.363 17.0209 0.0187017
51.3787 14.4846 0.0169018
48.0562 6.52455 0.0102632
49.3244 9.32545 0.0130388
50.4333 11.9841 0.015101
59.908 35.1192 2
45.9621 5.87915 2
43.3733 7.46849 2
58.0129 32.2665 2
56.5601 29.3308 2
55.3471 19.1738 2
55.0108 21.546 2
54.943 24.0429 2
55.4612 26.5884 2
47.3547 8.61899 2
48.5997 11.2856 2
53.1279 18.6438 2
51.3048 18.0327 2
50.6345 16.117 2
49.7142 13.7314 2
57.4206 34.7599 3.97435
55.7496 31.5134 3.97264
54.5214 28.3926 3.9765
53.7861 25.4849 3.97448
53.9742 20.1224 3.98192
53.5902 22.6953 3.97202
41.3983 7.07414 3.98834
45.3594 7.99099 3.98745
42.8649 9.40973 3.98663
46.666 10.6472 3.98552
47.7453 13.0929 3.98405
48.932 15.389 3.98298
50.0079 17.6873 3.97913
51.6546 19.3099 3.98708
50.3466 63.3878 0.0144383
51.2451 60.9444 0.0169729
56.7362 44.1941 0.0263277
55.5063 47.9089 0.0233758
52.3151 58.6454 0.0194037
54.2243 57.2766 0.0200329
55.082 51.3985 0.027023
54.0125 54.558 0.0251368
49.5919 61.7533 2
55.6676 41.7147 2
50.5682 59.3392 2
52.1904 56.5023 2
54.2076 45.5787 2
53.3552 49.3369 2
52.6792 52.8601 2
48.8497 60.2113 3.98278
52.5763 42.6574 3.97619
49.792 57.6377 3.97941
50.601 54.4372 3.97578
51.8333 47.2815 3.97811
51.2284 50.9516 3.9709
48.2108 43.8147 3.98918
47.9623 62.4831 0.0151551
47.3291 61.0189 2
46.6193 59.8055 3.98282
41.664 67.6938 0.0120122
43.3568 65.515 0.0132687
44.7673 63.4635 0.0142137
45.9874 61.5958 0.0156998
39.6329 67.7741 2
41.5462 65.6535 2
45.7661 60.6408 2
43.1464 63.7367 2
44.483 61.8462 2
44.6238 60.3032 3.98376
42.9504 62.0947 3.98503
41.6 63.8301 3.98559
39.6478 65.6215 3.98649
37.5634 67.7561 3.9878
31.6971 65.1401 3.98656
33.392 67.4937 3.9877
35.3333 69.9636 3.99017
37.526 70.054 2
37.5095 72.46 3.99393
39.7027 70.0284 0.00968774
39.8179 72.4058 2
39.9526 74.9197 4
42.1111 72.2084 0.00590297
42.3947 74.6792 2
44.8159 74.2794 0
41.7359 4.96581 3.99056
43.8515 5.35626 2
44.3256 3.10914 3.99404
46.5705 3.64558 2
47.2057 1.27793 4
48.7842 4.32123 0.00631217
49.554 1.99013 2
51.8506 2.85458 0
59.0105 42.9254 0.0263657
60.2601 39.851 0.0275852
61.9991 37.4451 0.0289596
59.7711 37.5685 2
58.0212 40.6633 2
55.1424 39.7278 2
56.8445 37.8993 3.97469
49.6514 41.3432 3.98251
53.1821 39.3137 3.97663
39.4416 6.79755 3.98855
59.9073 35.1192 0.0279818
58.0129 32.2666 0.0266048
56.5596 29.3307 0.0280164
55.3466 19.1751 0.0178326
55.0096 21.5477 0.0248462
54.9421 24.0422 0.0286543
55.4608 26.5881 0.0235651
53.1278 18.6451 0.0194549
51.3047 18.0336 0.0146291
50.6347 16.118 0.018838
45.9621 5.87963 0.00995456
49.7143 13.7322 0.0161531
47.3547 8.61952 0.0127849
48.5998 11.286 0.0145438
43.3733 7.46898 0.0118828
57.4216 34.7599 2
41.3984 7.07359 2
45.3594 7.99052 2
42.8649 9.4092 2
55.7492 31.5135 2
54.5217 28.3931 2
53.9749 20.1208 2
53.5912 22.691 2
53.7868 25.4856 2
46.6659 10.6468 2
47.745 13.0924 2
51.655 19.3091 2
50.0078 17.6864 2
48.9318 15.3882 2
54.9241 33.9695 3.97459
53.513 30.4759 3.97296
52.6052 27.1857 3.97636
52.1556 24.0799 3.97358
52.397 21.0472 3.98119
41.0129 9.04285 3.98664
44.723 9.99028 3.98584
42.4675 10.8955 3.9849
46.0047 12.7214 3.98419
47.6818 14.5742 3.98369
48.1149 16.9765 3.98081
49.8196 19.5879 3.97718
49.5923 61.7529 0.0157454
50.5685 59.3384 0.0193665
55.6662 41.715 0.024771
54.2066 45.5784 0.023605
53.3549 49.3371 0.0254934
52.1902 56.5014 0.0226503
52.6786 52.86 0.0283581
48.8493 60.2117 2
52.5778 42.6568 2
49.7919 57.6386 2
50.6013 54.4385 2
51.8336 47.2807 2
51.229 50.9509 2
48.209 43.8188 2
47.9884 58.7537 3.982
50.1361 45.2946 3.97492
48.6025 55.9287 3.98081
49.1389 52.6057 3.97525
49.6871 49.0562 3.97379
46.0669 39.8913 3.9069
46.4628 42.7053 3.95494
46.5285 45.8592 3.98983
43.9099 41.1939 3.91554
42.0792 42.0228 3.88841
47.3295 61.0186 0.0162254
46.6188 59.8057 2
45.4691 58.8024 3.98298
39.6329 67.7736 0.0121792
41.5463 65.6531 0.0133034
43.1466 63.7364 0.0143444
44.4832 61.8458 0.0154933
45.7664 60.6404 0.0165538
41.5998 63.8304 2
37.5634 67.7566 2
39.6477 65.6219 2
44.6234 60.3037 2
42.9502 62.0951 2
41.7536 62.5056 3.98539
42.4818 59.996 3.98461
39.8935 63.5656 3.98544
37.6424 65.5206 3.98602
35.4634 67.6654 3.98778
33.5754 65.3536 3.98632
31.9596 63.3139 3.98558
29.8832 64.7309 3.98657
31.6972 65.1405 2
31.3765 67.2033 3.98779
33.3921 67.4941 2
33.156 69.757 3.99019
35.3332 69.9641 2
35.1949 72.3744 3.99389
37.5261 70.0535 0.00978
37.5095 72.4603 2
37.5 75 4
39.8179 72.4055 0.00596958
39.9526 74.9197 2
42.3947 74.6792 0
39.6234 4.71293 3.99071
41.736 4.96532 2
42.062 2.71677 3.9942
43.8514 5.35672 0.00970313
44.3257 3.10888 2
44.8158 0.721173 4
46.5703 3.64582 0.00608081
47.2057 1.27779 2
49.554 1.99015 0
58.0204 40.6632 0.0269159
59.7703 37.5684 0.027967
55.1418 39.7279 0.0241249
49.6556 41.3457 2
56.8451 37.8994 2
53.1827 39.3133 2
54.023 36.629 3.97602
47.5841 40.4416 3.96331
50.6162 38.5138 3.98078
37.5153 6.66857 3.98854
39.4417 6.797 2
39.2103 8.68521 3.98694
35.9407 8.4849 3.98723
57.4206 34.7599 0.0256453
55.7496 31.5134 0.0273592
54.5214 28.3926 0.023499
53.9742 20.1224 0.0180818
53.5902 22.6953 0.0279806
53.7861 25.4849 0.0255213
51.6546 19.3099 0.0129197
50.0079 17.6873 0.020873
48.932 15.389 0.0170157
45.3594 7.99099 0.0125465
47.7453 13.0929 0.0159497
46.666 10.6472 0.0144756
41.3983 7.07414 0.0116573
42.8649 9.40973 0.0133712
54.9258 33.9696 2
41.0129 9.04225 2
44.723 9.98987 2
42.4674 10.8949 2
53.5128 30.4748 2
52.6057 27.1879 2
52.398 21.0462 2
52.1573 24.0794 2
46.0044 12.7209 2
47.6815 14.5735 2
49.82 19.5865 2
48.1148 16.9754 2
52.4702 32.8689 3.97678
51.3488 29.1431 3.9716
50.8059 25.7113 3.973
49.946 22.1672 3.97936
40.5683 11.5986 3.98467
43.8573 11.9108 3.985
45.8031 15.4097 3.98346
47.5058 19.2091 3.97856
46.407 37.5059 3.91144
48.8497 60.2113 0.0172239
49.792 57.6377 0.0205885
52.5763 42.6574 0.0238096
51.8333 47.2815 0.0218937
51.2284 50.9516 0.0291023
50.601 54.4372 0.0242205
48.2108 43.8147 0.0108207
47.988 58.754 2
50.1378 45.2967 2
48.6025 55.9299 2
49.1394 52.609 2
49.6875 49.0555 2
46.0784 39.8966 2
46.4731 42.715 2
46.5264 45.8489 2
43.9227 41.2007 2
42.0845 42.0248 2
46.8408 57.3573 3.98284
44.6725 39.4747 3.90622
42.4544 40.8909 3.90341
48.1123 47.2552 3.97773
47.1739 54.2651 3.98151
47.6005 50.7615 3.97577
44.8263 47.4379 3.99989
45.1389 41.9867 3.91243
44.9466 44.6157 3.95644
42.7226 42.7166 3.91786
40.9404 42.3592 3.91413
46.6193 59.8055 0.017179
45.4686 58.8028 2
43.8774 57.7276 3.98379
37.5634 67.7561 0.0121957
39.6478 65.6215 0.0135132
41.6 63.8301 0.0144055
42.9504 62.0947 0.0149699
44.6238 60.3032 0.0162361
35.4634 67.666 2
41.7533 62.5059 2
39.8933 63.5659 2
37.6423 65.5211 2
42.4814 59.9965 2
40.6233 61.6647 3.98467
40.4459 58.2302 3.98432
37.8369 63.2271 3.98546
35.573 65.4429 3.9862
33.5754 65.354 2
31.9596 63.3142 2
33.6292 63.3538 3.98533
30.3786 62.8723 3.98567
32.1233 62.0212 3.98508
26.8681 61.5154 3.98469
28.062 64.1587 3.98638
29.8833 64.7313 2
29.4059 66.7668 3.9878
31.6971 65.1401 0.0134399
31.3766 67.2037 2
31.0132 69.4219 3.99016
33.392 67.4937 0.0123019
33.1559 69.7574 2
32.892 72.1487 3.99392
35.3333 69.9636 0.0098262
35.1948 72.3747 2
35.0474 74.9194 4
37.5095 72.46 0.00607139
37.5 75 2
39.9526 74.9197 0
35.6197 6.71954 3.98862
37.5225 4.61239 3.99085
39.6235 4.71246 2
39.7884 2.47321 3.99432
41.7359 4.96581 0.00944052
42.0621 2.71647 2
42.3946 0.32156 4
44.3256 3.10914 0.00596355
44.8159 0.72056 2
47.2057 1.27793 0
49.6514 41.3432 0.0174916
56.8445 37.8993 0.0253072
53.1821 39.3137 0.0233722
47.5886 40.4432 2
50.6181 38.5146 2
54.0232 36.629 2
51.4008 35.5832 3.96657
48.2536 37.7739 3.97424
46.0649 35.1373 3.9132
43.9087 33.817 3.91241
42.0721 32.9895 3.88686
37.457 8.5269 3.98709
37.5153 6.66802 2
39.4416 6.79755 0.0114455
39.2104 8.68457 2
38.9754 10.1172 3.98649
35.8972 9.76405 3.98605
34.1491 8.8143 3.98707
35.9406 8.4842 2
54.9241 33.9695 0.0254125
53.513 30.4759 0.0270375
52.6052 27.1857 0.0236375
52.397 21.0472 0.0188085
52.1556 24.0799 0.0264214
49.8196 19.5879 0.0228224
48.1149 16.9765 0.0191942
47.6818 14.5742 0.016307
44.723 9.99028 0.0141626
46.0047 12.7214 0.015812
41.0129 9.04285 0.0133573
42.4675 10.8955 0.0150956
52.4719 32.8683 2
40.5681 11.598 2
43.8571 11.9104 2
51.3513 29.1447 2
50.8081 25.7124 2
49.9472 22.1655 2
45.8027 15.409 2
47.5061 19.2081 2
50.0335 31.4024 3.96554
49.3066 27.4562 3.97987
49.417 24.3786 3.98008
47.1904 21.9121 3.97738
38.3006 12.7225 3.98463
42.1007 14.2934 3.98355
44.8018 18.4423 3.98321
44.9577 37.514 3.90823
46.425 37.5109 2
47.9884 58.7537 0.0179964
48.6025 55.9287 0.0191883
50.1361 45.2946 0.0250754
49.6871 49.0562 0.0262082
49.1389 52.6057 0.0247504
46.0669 39.8913 0.0931002
46.4628 42.7053 0.0450641
46.5285 45.8592 0.0101675
43.9099 41.1939 0.0844582
42.0792 42.0228 0.111593
46.8403 57.3577 2
44.687 39.4789 2
42.456 40.89 2
48.1125 47.2549 2
47.1741 54.2663 2
47.6014 50.763 2
44.8287 47.4214 2
45.148 41.9949 2
44.9584 44.6284 2
42.7413 42.726 2
40.9465 42.3575 2
45.4006 55.9448 3.9835
42.8037 39.2756 3.91823
40.9066 40.8085 3.95992
46.1117 48.93 3.98089
45.554 52.5608 3.98335
43.4738 48.4794 3.99809
43.3661 46.1871 3.96269
43.7077 43.8044 3.9075
41.2089 43.8823 3.9189
39.315 42.6883 3.92631
45.4691 58.8024 0.0170152
43.8769 57.728 2
42.1083 56.3549 3.98501
35.4634 67.6654 0.0122217
37.6424 65.5206 0.0139782
39.8935 63.5656 0.0145566
41.7536 62.5056 0.0146144
42.4818 59.996 0.0153906
35.573 65.4433 2
40.6229 61.6649 2
37.8368 63.2273 2
40.4454 58.2306 2
38.9269 56.5259 3.98709
38.2508 60.3498 3.98512
35.6072 63.2208 3.98522
33.5754 65.3536 0.0136841
31.9596 63.3139 0.0144191
33.6292 63.3541 2
30.3786 62.8726 2
32.1233 62.0214 2
28.6809 62.2174 3.98547
33.3461 61.5343 3.98513
31.0662 61.2385 3.98502
27.5666 59.614 3.98294
23.7884 59.1006 3.98281
25.0332 60.888 3.9838
26.8682 61.5156 2
26.2285 63.4908 3.98602
28.0621 64.1591 2
27.4624 66.1904 3.98778
29.8832 64.7309 0.0134301
29.406 66.7672 2
28.9054 68.9473 3.99015
31.3765 67.2033 0.0122141
31.0131 69.4223 2
30.6144 71.7797 3.99394
33.156 69.757 0.0098115
32.8918 72.1489 2
32.6054 74.6784 4
35.1949 72.3744 0.00610524
35.0474 74.9197 2
37.5 75 0
33.7222 6.97413 3.98834
35.4338 4.68276 3.99083
35.6197 6.71892 2
37.5139 2.38584 3.9944
37.5225 4.61192 2
39.6234 4.71293 0.00928506
39.7885 2.47292 2
39.9526 0.0806499 4
42.062 2.71677 0.00579774
42.3947 0.320817 2
44.8158 0.721173 0
44.6786 35.5397 3.90578
42.453 34.1169 3.90204
47.5841 40.4416 0.0366947
50.6162 38.5138 0.0192215
54.023 36.629 0.0239821
48.2569 37.7727 2
51.4028 35.5822 2
46.0737 35.1288 2
43.9252 33.8063 2
42.0768 32.9892 2
48.414 34.2758 3.99489
45.1334 33.0321 3.90686
42.7201 32.2994 3.91839
40.9325 32.6529 3.91727
37.3093 10.6201 3.98573
37.457 8.5262 2
37.5153 6.66857 0.0114636
39.2103 8.68521 0.013059
38.9754 10.1165 2
34.7523 10.3694 3.9857
35.8972 9.76328 2
32.3758 9.36087 3.98643
34.149 8.81356 2
35.9407 8.4849 0.0127749
52.4702 32.8689 0.0232198
51.3488 29.1431 0.0283981
50.8059 25.7113 0.0269988
49.946 22.1672 0.0206449
47.5058 19.2091 0.0214357
45.8031 15.4097 0.0165355
43.8573 11.9108 0.014996
40.5683 11.5986 0.015327
50.0355 31.4019 2
38.3003 12.7217 2
42.1002 14.2928 2
49.3088 27.4565 2
49.4188 24.377 2
47.1916 21.9129 2
44.8019 18.4414 2
47.8259 29.5648 3.97228
47.1175 25.1015 3.98284
44.2916 21.2909 3.98229
36.5803 12.919 3.98413
38.6801 14.7911 3.98323
41.7501 17.8202 3.98156
42.9456 37.4948 3.91144
44.9786 37.5131 2
46.407 37.5059 0.0885638
46.8408 57.3573 0.0171629
47.1739 54.2651 0.0184874
48.1123 47.2552 0.0222747
47.6005 50.7615 0.0242348
44.6725 39.4747 0.093782
45.1389 41.9867 0.0875743
44.9466 44.6157 0.0435642
44.8263 47.4379 0.000108837
42.7226 42.7166 0.0821443
42.4544 40.8909 0.0965909
40.9404 42.3592 0.0858743
45.4002 55.9453 2
42.8076 39.274 2
40.9065 40.8054 2
46.1122 48.93 2
45.5548 52.5618 2
43.4745 48.4989 2
43.3904 46.2 2
43.7218 43.8135 2
41.222 43.8851 2
39.318 42.6868 2
43.7402 54.4568 3.98853
40.9994 39.1749 3.97363
39.2387 40.892 3.97512
43.7221 50.54 3.99252
41.9784 47.721 3.9887
41.8895 45.2042 3.90299
39.4436 44.6276 3.92514
37.4951 42.8212 3.92691
43.8774 57.7276 0.0162083
42.1076 56.3553 2
40.4214 54.9639 3.98658
35.573 65.4429 0.0137985
37.8369 63.2271 0.0145398
40.6233 61.6647 0.0153255
40.4459 58.2302 0.0156815
35.6071 63.221 2
38.2503 60.3497 2
38.9261 56.527 2
38.0004 55.2847 3.98711
36.9356 57.6558 3.98505
35.3638 60.934 3.98509
33.6292 63.3538 0.0146745
30.3786 62.8723 0.0143295
32.1233 62.0212 0.0149247
33.346 61.5345 2
28.681 62.2177 2
31.0662 61.2386 2
29.4021 60.3081 3.98436
32.3556 59.7673 3.98442
28.0182 58.3935 3.98363
27.5667 59.614 2
25.3754 58.6132 3.98169
22.7507 58.259 3.97941
23.3983 60.3673 3.98238
23.7885 59.101 2
25.0333 60.8882 2
24.4308 62.7831 3.98544
26.8681 61.5154 0.0153114
26.2287 63.4911 2
25.5464 65.5003 3.98767
28.062 64.1587 0.013621
27.4625 66.1909 2
26.835 68.3355 3.9901
29.4059 66.7668 0.0122011
28.9053 68.9477 2
28.3695 71.2649 3.99394
31.0132 69.4219 0.00983872
30.6142 71.7799 2
30.1842 74.2788 4
32.892 72.1487 0.0060779
32.6053 74.6792 2
35.0474 74.9194 0
31.7865 7.41398 3.98812
33.3457 4.92191 3.99069
33.7221 6.97348 2
35.2441 2.46199 3.99438
35.4338 4.68224 2
35.6197 6.71954 0.0113841
37.5 0 4
37.514 2.38554 2
37.5225 4.61239 0.0091547
39.7884 2.47321 0.00568055
39.9526 0.0802889 2
42.3946 0.32156 0
42.8106 35.7219 3.916
44.6901 35.5369 2
40.906 34.1989 3.96002
42.4549 34.1176 2
48.2536 37.7739 0.0257627
51.4008 35.5832 0.0334274
46.0649 35.1373 0.086802
43.9087 33.817 0.0875899
42.0721 32.9895 0.113137
48.4187 34.2726 2
45.1445 33.0253 2
42.7362 32.2921 2
40.9347 32.6539 2
46.3644 31.5543 3.97918
43.7001 31.2173 3.90926
41.2115 31.1211 3.91153
39.3052 32.3202 3.92572
35.6905 11.7641 3.98433
37.3093 10.6193 2
37.457 8.5269 0.012914
38.9754 10.1172 0.0135088
33.0961 11.2059 3.98447
34.7523 10.3685 2
35.8972 9.76405 0.0139457
30.4804 10.009 3.98575
32.3756 9.36005 2
34.1491 8.8143 0.0129279
50.0335 31.4024 0.0344584
49.3066 27.4562 0.0201337
49.417 24.3786 0.0199182
47.1904 21.9121 0.0226236
44.8018 18.4423 0.0167902
42.1007 14.2934 0.0164497
38.3006 12.7225 0.0153744
36.58 12.9182 2
47.8265 29.5624 2
38.6795 14.7904 2
41.7498 17.8193 2
47.1199 25.1023 2
44.2925 21.2892 2
45.5837 27.7017 3.99102
43.8124 24.0162 3.9915
41.3428 20.6962 3.98147
35.7701 14.7434 3.98341
38.6806 17.5766 3.98159
41.0488 37.4858 3.9715
42.9509 37.4956 2
44.9577 37.514 0.0917661
45.4006 55.9448 0.0164987
45.554 52.5608 0.0166543
46.1117 48.93 0.0191146
42.8037 39.2756 0.0817678
43.7077 43.8044 0.0925002
43.3661 46.1871 0.0373107
43.4738 48.4794 0.00191178
41.2089 43.8823 0.0811014
40.9066 40.8085 0.0400775
39.315 42.6883 0.0736888
43.7398 54.4579 2
41.0004 39.1733 2
39.238 40.8905 2
43.7223 50.547 2
41.9811 47.7317 2
41.9082 45.2119 2
37.4974 42.82 2
39.4587 44.6247 2
41.8862 53.0331 3.9947
39.2384 39.1768 3.9667
37.4965 40.9375 3.96862
35.6817 42.69 3.92719
40.9594 49.7708 4.0024
39.8025 46.0958 3.89947
37.4978 44.8801 3.92638
42.1083 56.3549 0.0149935
40.4203 54.9642 2
38.7301 53.8982 3.98796
35.6072 63.2208 0.0147824
38.2508 60.3498 0.0148815
38.9269 56.5259 0.0129115
35.3635 60.934 2
36.9349 57.6551 2
37.9994 55.284 2
36.3193 55.4196 3.98842
34.4874 58.5469 3.98489
33.3461 61.5343 0.0148734
28.6809 62.2174 0.0145302
31.0662 61.2385 0.0149778
32.3556 59.7672 2
29.4022 60.3082 2
30.2938 57.84 3.98488
28.0183 58.3935 2
26.9365 56.8433 3.98084
27.5666 59.614 0.0170637
25.3754 58.6134 2
23.8299 56.8245 3.97642
21.3257 57.4179 3.979
21.9898 59.6393 3.9821
22.7508 58.2595 2
22.7343 62.0342 3.98442
23.3984 60.3677 2
23.7884 59.1006 0.0171892
25.0332 60.888 0.016199
24.431 62.7834 2
23.6803 64.7185 3.98724
26.2285 63.4908 0.0139759
25.5466 65.5007 2
24.8073 67.5966 3.99001
27.4624 66.1904 0.0122191
26.835 68.3359 2
26.1647 70.6057 3.99392
28.9054 68.9473 0.00985227
28.3692 71.2651 2
27.7943 73.7221 4
30.6144 71.7797 0.00606087
30.1841 74.2794 2
32.6054 74.6784 0
29.809 7.98718 3.98764
31.2507 5.32913 3.99038
31.7864 7.41317 2
32.9799 2.7001 3.99429
33.3457 4.92134 2
33.7222 6.97413 0.0116644
35.0474 0.080333 4
35.2441 2.46167 2
35.4338 4.68276 0.00917246
37.5 0 2
37.5139 2.38584 0.00560063
39.9526 0.0806499 0
41.006 35.8082 3.97254
42.8128 35.7238 2
44.6786 35.5397 0.0942231
28.5412 10.6843 3.98562
39.2355 34.1158 3.97469
40.9052 34.2029 2
42.453 34.1169 0.0979624
48.414 34.2758 0.00510703
45.1334 33.0321 0.0931395
42.7201 32.2994 0.0816085
40.9325 32.6529 0.0827292
46.3784 31.552 2
43.7072 31.2092 2
41.2253 31.1158 2
39.3075 32.3206 2
44.4124 29.7315 3.96775
41.8949 29.8055 3.90498
39.4448 30.379 3.92549
37.4839 32.1817 3.92862
34.0904 12.9219 3.98372
35.6904 11.7632 2
37.3093 10.6201 0.0142709
31.1841 11.9741 3.98472
33.0961 11.205 2
34.7523 10.3694 0.0143044
30.4803 10.0081 2
32.3758 9.36087 0.0135716
47.8259 29.5648 0.0277241
47.1175 25.1015 0.0171569
36.5803 12.919 0.0158722
44.2916 21.2909 0.0177087
41.7501 17.8202 0.0184353
38.6801 14.7911 0.0167743
35.7695 14.7426 2
45.5855 27.6948 2
38.6801 17.5756 2
41.3428 20.6939 2
43.8148 24.0182 2
33.6054 15.8598 3.9833
43.0789 26.4966 3.99756
40.9224 23.2678 3.98467
38.4222 20.304 3.98329
35.8466 17.4902 3.98314
39.2454 37.4852 3.96278
41.0494 37.4861 2
42.9456 37.4948 0.0885613
43.7402 54.4568 0.0114706
43.7221 50.54 0.00747529
40.9994 39.1749 0.0263704
41.8895 45.2042 0.097012
41.9784 47.721 0.0113017
39.4436 44.6276 0.0748638
39.2387 40.892 0.0248756
37.4951 42.8212 0.073086
41.8852 53.0351 2
39.239 39.1759 2
37.4964 40.9357 2
40.9591 49.7729 2
35.6798 42.6883 2
39.8238 46.1121 2
37.4952 44.8768 2
39.8289 51.956 4.00159
37.4948 39.1863 3.95334
35.7562 40.8987 3.97512
34.0546 42.3556 3.91521
35.5359 44.628 3.92263
38.7489 48.7657 4.00716
37.498 46.4143 3.8996
40.4214 54.9639 0.0134249
38.729 53.8968 2
36.7176 53.2553 3.99661
35.3638 60.934 0.0149112
36.9356 57.6558 0.0149536
38.0004 55.2847 0.0128944
34.4871 58.5465 2
36.3185 55.4176 2
33.2221 55.5338 3.98623
32.3556 59.7673 0.0155789
29.4021 60.3081 0.0156366
30.2939 57.8399 2
28.6761 55.3326 3.98107
28.0182 58.3935 0.0163713
26.9365 56.8433 2
25.2955 55.1622 3.97754
21.7937 55.3651 3.97543
25.3754 58.6132 0.0183132
23.8299 56.8248 2
20.2091 57.0477 3.98129
20.6396 58.7971 3.98107
21.3258 57.4182 2
21.1639 61.184 3.98371
21.9899 59.6398 2
22.7507 58.259 0.0205854
21.8935 63.8464 3.98659
22.7345 62.0347 2
23.3983 60.3673 0.017619
24.4308 62.7831 0.0145638
23.6805 64.719 2
22.8356 66.7403 3.98986
25.5464 65.5003 0.0123306
24.8073 67.5969 2
24.009 69.8068 3.99384
26.835 68.3355 0.00990138
26.1644 70.6058 2
25.446 73.0099 4
28.3695 71.2649 0.00605642
27.7943 73.7222 2
30.1842 74.2788 0
27.8189 8.6469 3.9873
29.1526 5.87487 3.99003
29.8089 7.98642 2
30.7251 3.09727 3.99408
31.2507 5.32847 2
31.7865 7.41398 0.0118752
32.6053 0.320823 4
32.9798 2.69978 2
33.3457 4.92191 0.00930781
35.0474 0.0802903 2
35.2441 2.46199 0.00562249
37.5 0 0
39.2429 35.8061 3.9667
41.0064 35.8105 2
42.8106 35.7219 0.0840034
28.5411 10.6837 2
26.6201 11.3797 3.98531
29.223 12.6307 3.98481
37.4908 34.0661 3.96719
39.2345 34.1164 2
40.906 34.1989 0.0399832
46.3644 31.5543 0.0208191
43.7001 31.2173 0.0907441
41.2115 31.1211 0.0884747
39.3052 32.3202 0.074284
44.4263 29.7221 2
41.9128 29.7961 2
39.4571 30.3809 2
37.4843 32.1813 2
42.34 28.3499 3.94989
39.8216 28.9103 3.90739
37.489 30.1178 3.92698
35.6686 32.3095 3.92617
31.9118 14.4666 3.98387
34.0902 12.9209 2
35.6905 11.7641 0.0156708
31.184 11.9733 2
33.0961 11.2059 0.0155343
30.4804 10.009 0.0142507
45.5837 27.7017 0.00897936
43.8124 24.0162 0.00850277
35.7701 14.7434 0.0165854
41.3428 20.6962 0.0185253
38.6806 17.5766 0.0184134
33.605 15.8595 2
35.8461 17.4895 2
43.0815 26.4947 2
38.4218 20.3029 2
40.9231 23.2625 2
33.5476 17.3673 3.98473
40.4578 25.6143 4.01122
38.0793 22.8296 3.99222
35.5826 20.0562 3.98389
37.4953 37.4927 3.93867
39.2459 37.4851 2
41.0488 37.4858 0.0284974
41.8862 53.0331 0.00529776
40.9594 49.7708 -0.00239735
39.2384 39.1768 0.0332977
39.8025 46.0958 0.100531
37.4978 44.8801 0.0736213
37.4965 40.9375 0.0313763
35.6817 42.69 0.0728138
39.8283 51.9561 2
37.4951 39.1853 2
35.7565 40.8979 2
38.7452 48.7916 2
34.0511 42.3554 2
35.5268 44.6301 2
37.4943 46.4346 2
37.6735 51.0564 4.01109
35.7561 39.189 3.96697
34.0927 40.8122 3.95728
32.9132 42.0154 3.8877
33.7704 43.8748 3.91666
35.1752 46.0924 3.90515
36.8777 48.4139 3.99176
38.7301 53.8982 0.0120431
36.7171 53.2521 2
34.3531 52.5133 3.98982
34.4874 58.5469 0.0151055
36.3193 55.4196 0.0115774
33.222 55.5326 2
30.5025 53.4332 3.98409
30.2938 57.84 0.0151245
28.6763 55.3326 2
26.8611 53.4612 3.97688
26.9365 56.8433 0.0191597
25.2956 55.1623 2
23.551 53.5036 3.97403
20.4457 53.2454 3.97256
19.919 55.8512 3.98011
21.7938 55.3653 2
23.8299 56.8245 0.0235804
19.4308 57.9088 3.98067
20.2091 57.0481 2
19.7027 60.2178 3.98259
20.6397 58.7976 2
21.3257 57.4179 0.0210045
20.2057 62.8677 3.98557
21.1641 61.1845 2
21.9898 59.6393 0.0178968
20.937 65.7694 3.98954
21.8937 63.847 2
22.7343 62.0342 0.015578
23.6803 64.7185 0.0127629
22.8356 66.7406 2
21.9115 68.874 3.99373
24.8073 67.5966 0.00999493
24.0087 69.8069 2
23.1494 72.1454 4
26.1647 70.6057 0.00607627
25.446 73.0099 2
27.7943 73.7221 0
25.8581 9.37498 3.9869
27.0674 6.53902 3.98964
27.8188 8.64616 2
28.4872 3.64318 3.99387
29.1525 5.87425 2
29.809 7.98718 0.0123555
30.1841 0.720592 4
30.7249 3.09694 2
31.2507 5.32913 0.00962153
32.6053 0.320817 2
32.9799 2.7001 0.00571348
35.0474 0.080333 0
37.4957 35.8047 3.95259
39.2428 35.8067 2
41.006 35.8082 0.0274567
24.7749 12.0626 3.98532
23.7489 14.3467 3.98433
28.5412 10.6843 0.014383
26.6201 11.3791 2
29.2229 12.63 2
27.2891 13.3638 3.98463
29.7776 14.1892 3.9838
35.7515 34.1007 3.97499
37.4905 34.0671 2
39.2355 34.1158 0.0253126
37.4839 32.1817 0.0713795
44.4124 29.7315 0.0322475
41.8949 29.8055 0.0950228
39.4448 30.379 0.074512
42.3529 28.3386 2
39.8395 28.8964 2
37.4893 30.1222 2
35.6671 32.3092 2
40.0245 27.5217 3.96848
37.4969 28.5778 3.90292
35.5249 30.3687 3.92445
34.0478 32.635 3.91526
30.9231 16.8221 3.98366
31.9117 14.4658 2
34.0904 12.9219 0.0162821
31.1841 11.9741 0.0152781
43.0789 26.4966 0.00244326
40.9224 23.2678 0.0153255
33.6054 15.8598 0.0167032
35.8466 17.4902 0.0168614
38.4222 20.304 0.0167089
33.5471 17.3674 2
35.5821 20.0549 2
40.4575 25.6117 2
38.079 22.8295 2
32.8606 19.7712 3.98516
37.7989 25.1295 4.0264
35.2021 22.613 3.98415
35.7482 37.4964 3.96318
37.4957 37.4927 2
39.2454 37.4852 0.0372199
39.8289 51.956 -0.00158854
38.7489 48.7657 -0.00715648
37.4948 39.1863 0.0466582
37.498 46.4143 0.100402
35.5359 44.628 0.077372
35.7562 40.8987 0.0248834
34.0546 42.3556 0.0847933
37.6727 51.0624 2
35.7564 39.1883 2
34.0928 40.8082 2
36.8748 48.4261 2
32.9081 42.0153 2
33.7604 43.8826 2
35.1526 46.1062 2
35.4338 50.195 4.00981
33.9997 39.1856 3.9698
32.5338 40.8869 3.90331
32.2633 42.7041 3.91697
33.1143 45.1889 3.91037
34.276 47.4767 3.96605
36.7176 53.2553 0.00339048
34.3531 52.512 2
31.9745 51.2398 3.99039
33.2221 55.5338 0.0137656
30.503 53.4338 2
28.4001 51.6442 3.97972
28.6761 55.3326 0.0189345
26.8615 53.4612 2
25.0488 51.7834 3.97153
25.2955 55.1622 0.0224601
23.5513 53.5036 2
21.9358 51.8289 3.97167
19.1758 51.6546 3.97242
18.9043 54.3273 3.97574
20.4459 53.2457 2
18.4368 56.7409 3.98134
19.919 55.8516 2
21.7937 55.3651 0.0245721
18.3636 59.1249 3.9809
19.4309 57.9092 2
20.2091 57.0477 0.0187091
18.6161 61.7754 3.98435
19.7028 60.2184 2
20.6396 58.7971 0.0189282
19.1258 64.6802 3.98883
20.2058 62.8684 2
21.1639 61.184 0.0162873
19.8855 67.8106 3.99352
20.937 65.7698 2
21.8935 63.8464 0.0134079
22.8356 66.7403 0.0101353
21.9112 68.874 2
20.9142 71.1327 4
24.009 69.8068 0.00616183
23.1494 72.1455 2
25.446 73.0099 0
23.0942 12.7774 3.98494
23.9707 10.1615 3.9867
25.0212 7.30912 3.98943
25.8581 9.37429 2
26.279 4.3274 3.99362
27.0672 6.53838 2
27.8189 8.6469 0.0126977
27.7943 1.27781 4
28.487 3.6429 2
29.1526 5.87487 0.00997198
30.1841 0.720551 2
30.7251 3.09727 0.00592441
32.6053 0.320823 0
35.7514 35.8057 3.96716
37.4958 35.8056 2
39.2429 35.8061 0.0332965
24.775 12.0621 2
23.7491 14.3465 2
22.4773 15.0231 3.98378
25.3552 13.8959 3.98419
24.0217 15.6083 3.98334
26.6201 11.3797 0.0146863
29.223 12.6307 0.0151861
27.2892 13.3635 2
29.7776 14.1884 2
28.3533 15.9631 3.98416
34.0952 34.1861 3.95933
35.7525 34.1015 2
37.4908 34.0661 0.0328107
35.6686 32.3095 0.0738341
37.489 30.1178 0.0730178
42.34 28.3499 0.0501056
39.8216 28.9103 0.092614
40.0324 27.51 2
37.4964 28.5607 2
35.512 30.3718 2
34.048 32.6352 2
37.6167 27.1991 3.97
35.1494 28.8944 3.90583
33.7552 31.1146 3.91494
32.9127 32.9759 3.88829
30.2042 19.3243 3.98512
30.9229 16.8216 2
31.9118 14.4666 0.0161308
40.4578 25.6143 -0.0112183
38.0793 22.8296 0.0077803
33.5476 17.3673 0.0152653
35.5826 20.0562 0.0161123
32.8596 19.7717 2
35.2015 22.6098 2
37.8003 25.1329 2
32.3061 22.3826 3.98508
34.9554 25.1396 4.00722
33.9501 37.4969 3.96994
35.7486 37.4964 2
37.4953 37.4927 0.0613296
37.6735 51.0564 -0.0110945
36.8777 48.4139 0.00823637
35.7561 39.189 0.0330272
35.1752 46.0924 0.0948489
33.7704 43.8748 0.0833409
34.0927 40.8122 0.0427177
32.9132 42.0154 0.112301
35.433 50.1981 2
34 39.1832 2
32.5314 40.8844 2
34.2685 47.506 2
32.2484 42.7076 2
33.0951 45.2057 2
33.1987 49.1847 4.00832
32.1828 39.2772 3.91717
31.0759 41.1805 3.91419
31.2874 43.7862 3.90692
32.2312 46.403 3.96382
34.3531 52.5133 0.0101764
31.9748 51.2413 2
29.8118 49.7536 3.98374
30.5025 53.4332 0.015912
28.4007 51.6416 2
26.4649 50.0227 3.97196
26.8611 53.4612 0.0231168
25.0494 51.7829 2
23.303 50.2225 3.97259
23.551 53.5036 0.0259743
21.9362 51.8293 2
20.4341 50.336 3.97247
17.9638 50.3461 3.9743
17.8136 52.8091 3.97408
19.1762 51.6547 2
17.4236 55.3567 3.97836
18.9043 54.3278 2
20.4457 53.2454 0.0274406
17.1277 57.8873 3.9818
18.4368 56.7413 2
19.919 55.8512 0.0198934
17.133 60.5588 3.98282
18.3637 59.1255 2
19.4308 57.9088 0.0193344
17.406 63.473 3.98756
18.6163 61.7761 2
19.7027 60.2178 0.0174076
17.9416 66.619 3.9932
19.1258 64.6807 2
20.2057 62.8677 0.0144274
18.75 69.9759 4
19.8852 67.8106 2
20.937 65.7694 0.0104586
21.9115 68.874 0.00626981
20.9142 71.1327 2
23.1494 72.1454 0
21.5848 13.5974 3.98451
22.1888 11.0207 3.98622
23.0944 12.7772 2
23.0392 8.17447 3.98927
23.9708 10.1611 2
24.1166 5.14209 3.99345
25.0211 7.30859 2
25.8581 9.37498 0.0130993
25.446 1.99014 4
26.2787 4.32717 2
27.0674 6.53902 0.010363
27.7943 1.27778 2
28.4872 3.64318 0.00613128
30.1841 0.720592 0
33.9928 35.8095 3.97145
35.7516 35.8065 2
37.4957 35.8047 0.0474072
21.3021 15.8189 3.98304
24.7749 12.0626 0.0146759
23.7489 14.3467 0.0156679
25.3553 13.8955 2
22.4776 15.0231 2
24.022 15.6081 2
23.2606 16.2397 3.98318
25.377 16.0759 3.98418
27.2891 13.3638 0.0153746
29.7776 14.1892 0.0162039
28.3536 15.9628 2
27.4357 18.784 3.98471
32.5476 34.1055 3.90409
34.097 34.1883 2
35.7515 34.1007 0.025009
34.0478 32.635 0.0847406
35.5249 30.3687 0.075552
37.4969 28.5778 0.0970766
40.0245 27.5217 0.0315246
37.6134 27.1652 2
32.9119 32.9759 2
35.1299 28.8783 2
33.7407 31.1007 2
35.065 27.3248 3.97427
33.0839 29.8 3.90652
32.2508 32.2759 3.91431
29.5673 21.9183 3.99172
30.2038 19.3243 2
30.9231 16.8221 0.0163394
37.7989 25.1295 -0.0264034
35.2021 22.613 0.0158505
32.8606 19.7712 0.0148354
32.3053 22.3836 2
34.9596 25.1434 2
31.6578 25.5987 3.99435
32.0483 37.4979 3.9132
33.951 37.4963 2
35.7482 37.4964 0.0368155
35.4338 50.195 -0.00980971
34.276 47.4767 0.0339484
33.9997 39.1856 0.0302022
33.1143 45.1889 0.0896296
32.2633 42.7041 0.0830289
32.5338 40.8869 0.0966943
33.1986 49.1689 2
32.1801 39.2744 2
31.0593 41.1877 2
32.2134 46.4194 2
31.277 43.7956 2
31.0865 48.0067 4.00018
30.3089 39.4558 3.90648
29.8523 41.975 3.90678
30.3743 44.9812 3.96351
31.9745 51.2398 0.00960957
29.8124 49.7485 2
27.8127 48.2205 3.97707
28.4001 51.6442 0.0202767
26.4659 50.021 2
24.5998 48.5009 3.9749
25.0488 51.7834 0.0284668
23.3037 50.2226 2
21.612 48.814 3.97501
21.9358 51.8289 0.0283342
20.4348 50.336 2
19.004 49.1092 3.97617
16.8726 49.344 3.97711
16.7541 51.4213 3.97478
17.9644 50.3464 2
16.3742 53.8849 3.97646
17.8139 52.8094 2
19.1758 51.6546 0.0275758
15.9674 56.4887 3.98038
17.4235 55.3571 2
18.9043 54.3273 0.0242606
15.7454 59.2197 3.98258
17.1278 57.8878 2
18.4368 56.7409 0.0186623
15.7863 62.1434 3.98584
17.1331 60.5594 2
18.3636 59.1249 0.0191032
16.0881 65.3016 3.99281
17.406 63.4735 2
18.6161 61.7754 0.0156484
16.6661 68.6801 4
17.9413 66.619 2
19.1258 64.6802 0.0111714
18.75 69.9759 2
19.8855 67.8106 0.00647973
20.9142 71.1327 0
20.2167 14.5862 3.9838
21.5851 13.5973 2
20.528 11.9903 3.98564
21.1423 9.14414 3.98914
22.189 11.0204 2
23.0942 12.7774 0.015057
22.0156 6.08107 3.99331
23.0392 8.17411 2
23.9707 10.1615 0.0132986
23.1494 2.85457 4
24.1162 5.14195 2
25.0212 7.30912 0.0105722
25.446 1.99012 2
26.279 4.3274 0.00637763
27.7943 1.27781 0
32.1871 35.7157 3.91798
33.9938 35.8106 2
35.7514 35.8057 0.0328408
21.3023 15.8184 2
20.299 16.953 3.9833
22.0936 16.6242 3.98209
25.3552 13.8959 0.0158078
22.4773 15.0231 0.0162217
24.0217 15.6083 0.0166557
25.3773 16.0756 2
23.2609 16.2397 2
24.1998 18.438 3.98188
27.0042 21.4417 3.98494
28.3533 15.9631 0.0158383
27.4355 18.784 2
31.0823 33.8066 3.91156
32.5453 34.1087 2
34.0952 34.1861 0.0406663
32.9127 32.9759 0.11171
33.7552 31.1146 0.0850556
35.1494 28.8944 0.0941732
37.6167 27.1991 0.0300027
35.0509 27.3069 2
32.2461 32.2803 2
33.0646 29.7807 2
32.495 28.0521 3.98456
31.2603 31.2031 3.90831
28.7715 24.3838 3.9867
29.5664 21.9192 2
30.2042 19.3243 0.0148849
34.9554 25.1396 -0.00721769
32.3061 22.3826 0.0149234
31.6595 25.5865 2
29.594 27.2887 3.97582
30.0259 37.4855 3.90778
32.0462 37.4974 2
33.9501 37.4969 0.0300601
33.1987 49.1847 -0.00832245
32.2312 46.403 0.0361815
32.1828 39.2772 0.0828324
31.2874 43.7862 0.0930795
31.0759 41.1805 0.0858101
31.088 48.0071 2
30.2948 39.4646 2
29.8414 41.9824 2
30.3609 44.9948 2
29.1081 46.5711 3.99578
28.9203 39.8656 3.9085
28.5894 43.1895 3.96677
29.8118 49.7536 0.016257
27.8136 48.216 2
25.8792 46.6906 3.98096
26.4649 50.0227 0.028038
24.6006 48.501 2
22.7527 47.1098 3.97949
23.303 50.2225 0.0274063
21.6129 48.8138 2
19.9516 47.638 3.9784
20.4341 50.336 0.0275312
19.0047 49.1095 2
17.6484 48.1915 3.97868
16.125 48.6938 3.97921
16.8731 49.3444 2
15.8329 50.1813 3.97623
15.3636 52.4272 3.97592
16.7545 51.4216 2
17.9638 50.3461 0.0256986
14.858 54.9885 3.97841
16.3743 53.8853 2
17.8136 52.8091 0.0259235
14.4535 57.7485 3.98196
15.9674 56.4892 2
17.4236 55.3567 0.0216414
14.264 60.6977 3.98477
15.7456 59.2203 2
17.1277 57.8873 0.0181954
14.3324 63.8608 3.99202
15.7863 62.144 2
17.133 60.5588 0.0171822
14.6715 67.2507 4
16.0879 65.3016 2
17.406 63.473 0.0124417
16.6661 68.6801 2
17.9416 66.619 0.00680033
18.75 69.9759 0
18.9302 15.7734 3.98306
20.2168 14.5859 2
18.9776 13.1012 3.98489
21.5848 13.5974 0.0154929
20.5283 11.9901 2
19.3417 10.2317 3.98886
19.9902 7.14572 3.99324
21.1424 9.14382 2
22.1888 11.0207 0.0137786
20.9142 3.86727 4
22.0152 6.08107 2
23.0392 8.17447 0.0107268
23.1494 2.85451 2
24.1166 5.14209 0.00654915
25.446 1.99014 0
30.3155 35.5338 3.90923
32.1846 35.7173 2
33.9928 35.8095 0.0285496
21.3021 15.8189 0.0169639
22.0938 16.6238 2
20.299 16.9523 2
19.2373 18.3996 3.98244
21.7775 17.8402 3.98228
25.377 16.0759 0.0158173
23.2606 16.2397 0.0168231
24.1998 18.438 2
22.2702 19.8809 3.98084
24.5808 21.3083 3.98291
26.3945 23.7068 3.98047
27.0043 21.4422 2
27.4357 18.784 0.0152883
29.8502 33.0062 3.90569
31.067 33.7887 2
32.5476 34.1055 0.0959068
32.2508 32.2759 0.0856855
33.0839 29.8 0.0934841
35.065 27.3248 0.0257331
32.4825 28.0467 2
31.2637 31.2028 2
30.0484 29.5076 3.97509
27.8352 26.525 3.97288
28.7717 24.3885 2
29.5673 21.9183 0.00828269
31.6578 25.5987 0.00565147
29.5869 27.2521 2
28.575 37.493 3.91335
30.0127 37.4887 2
32.0483 37.4979 0.0868034
31.0865 48.0067 -0.000182985
30.3743 44.9812 0.0364893
30.3089 39.4558 0.0935238
29.8523 41.975 0.0932182
29.1104 46.5903 2
28.9078 39.871 2
28.5752 43.1978 2
27.1921 44.8433 3.98126
26.6989 40.6278 3.99353
27.8127 48.2205 0.0229255
25.8793 46.6899 2
23.9273 45.2395 3.9736
24.5998 48.5009 0.0250962
22.7535 47.1093 2
20.888 45.9196 3.97775
21.612 48.814 0.0249893
19.9523 47.6383 2
18.2962 46.752 3.97672
19.004 49.1092 0.0238282
17.6489 48.1921 2
16.3162 47.7239 3.97883
16.1254 48.6943 2
15.1807 49.0243 3.9774
16.8726 49.344 0.0228939
15.8334 50.1817 2
14.4783 50.9934 3.97615
13.8199 53.4428 3.97738
15.3639 52.4276 2
16.7541 51.4213 0.0252177
13.2478 56.1754 3.98058
14.858 54.989 2
16.3742 53.8849 0.0235387
12.8458 59.1313 3.98462
14.4536 57.7491 2
15.9674 56.4887 0.0196214
12.6777 62.3034 3.99088
14.264 60.698 2
15.7454 59.2197 0.0174208
12.7746 65.6939 4
14.3321 63.8606 2
15.7863 62.1434 0.0141639
14.6714 67.2507 2
16.0881 65.3016 0.00719265
16.6661 68.6801 0
17.6638 17.1489 3.98242
18.9302 15.7729 2
17.509 14.3657 3.98398
20.2167 14.5862 0.0162017
18.9779 13.1007 2
17.6374 11.4506 3.98802
20.528 11.9903 0.0143622
19.3419 10.2314 2
18.0503 8.33855 3.99318
18.75 5.0241 4
19.9898 7.1458 2
21.1423 9.14414 0.0108609
20.9142 3.86727 2
22.0156 6.08107 0.00669287
23.1494 2.85457 0
28.9176 35.1044 3.90698
30.3007 35.5297 2
32.1871 35.7157 0.0820232
22.0936 16.6242 0.0179122
20.299 16.953 0.0166968
21.7775 17.8396 2
19.2373 18.3989 2
17.9719 19.9318 3.98139
20.869 19.3681 3.98227
24.1998 18.438 0.0181186
22.2704 19.8801 2
24.5812 21.3088 2
22.3451 21.7054 3.98239
24.6761 23.1531 3.98047
25.4216 25.9342 3.97183
26.3954 23.7063 2
27.0042 21.4417 0.0150647
28.2325 32.281 3.95476
29.8416 33.0051 2
31.0823 33.8066 0.0884408
31.2603 31.2031 0.0916898
32.495 28.0521 0.0154395
30.0243 29.4965 2
26.9522 29.1162 3.98612
27.8308 26.5222 2
28.7715 24.3838 0.0132996
29.594 27.2887 0.0241774
26.8021 37.352 3.96842
28.564 37.4899 2
30.0259 37.4855 0.0922169
29.1081 46.5711 0.00422257
28.5894 43.1895 0.0332313
28.9203 39.8656 0.0914985
27.1947 44.8469 2
26.6928 40.6347 2
25.1767 43.1917 3.96948
23.9401 39.4278 3.96927
25.8792 46.6906 0.0190403
23.924 45.2407 2
21.8541 43.9698 3.97668
22.7527 47.1098 0.020509
20.8885 45.9199 2
18.954 44.9832 3.9746
19.9516 47.638 0.021604
18.2966 46.7527 2
16.6076 46.223 3.97445
17.6484 48.1915 0.02132
16.3167 47.7244 2
14.9119 47.6776 3.97635
16.125 48.6938 0.0207903
15.1812 49.0248 2
13.7775 49.5524 3.97633
15.8329 50.1813 0.0237666
14.4787 50.9939 2
12.8874 51.8798 3.97687
12.1352 54.5323 3.97943
13.82 53.4433 2
15.3636 52.4272 0.0240839
11.53 57.4628 3.98375
13.2477 56.176 2
14.858 54.9885 0.0215887
11.1322 60.6295 3.98984
12.8458 59.1316 2
14.4535 57.7485 0.0180434
10.9835 64.0165 4
12.6775 62.3031 2
14.264 60.6977 0.0152262
12.7745 65.694 2
14.3324 63.8608 0.00797576
14.6715 67.2507 0
16.3954 18.6428 3.98204
17.6638 17.1482 2
16.0997 15.7747 3.98369
18.9302 15.7734 0.0169446
17.5092 14.3649 2
16.0191 12.8042 3.9864
18.9776 13.1012 0.0151137
17.6376 11.4501 2
16.2015 9.66168 3.99288
19.3417 10.2317 0.0111378
18.0501 8.33867 2
16.6661 6.31991 4
18.75 5.02404 2
19.9902 7.14572 0.0067601
20.9142 3.86727 0
27.3116 34.7409 3.95613
28.904 35.1005 2
30.3155 35.5338 0.0907725
16.6711 21.3677 3.97868
21.7775 17.8402 0.0177177
19.2373 18.3996 0.0175618
20.8691 19.3673 2
17.972 19.9312 2
19.7124 21.5609 3.98449
22.2702 19.8809 0.0191628
24.5808 21.3083 0.017091
22.3454 21.704 2
24.676 23.153 2
22.8219 24.5878 3.97584
24.4953 28.5109 3.96772
25.4189 25.9323 2
26.3945 23.7068 0.0195256
26.0748 31.688 3.99102
28.222 32.2722 2
29.8502 33.0062 0.0943073
30.0484 29.5076 0.024914
26.9573 29.1162 2
27.8352 26.525 0.0271245
24.6183 36.8518 3.97926
26.7959 37.356 2
28.575 37.493 0.0866514
27.1921 44.8433 0.018742
26.6989 40.6278 0.00647419
25.1734 43.1947 2
23.9372 39.4302 2
22.9044 41.8098 3.97879
21.6709 38.4985 3.97306
23.9273 45.2395 0.0263973
21.8547 43.9714 2
19.6997 42.8965 3.97465
20.888 45.9196 0.0222466
18.9538 44.9838 2
16.9335 44.3878 3.97205
18.2962 46.752 0.023276
16.6078 46.2236 2
14.8332 46.0968 3.97367
16.3162 47.7239 0.0211688
14.9122 47.6781 2
13.286 48.0133 3.97521
15.1807 49.0243 0.022597
13.7779 49.5529 2
12.1076 50.2565 3.97645
14.4783 50.9934 0.0238452
12.8877 51.8803 2
11.1313 52.8396 3.97855
10.3204 55.7136 3.98263
12.1352 54.5331 2
13.8199 53.4428 0.0226219
9.69867 58.8515 3.98865
11.5298 57.4635 2
13.2478 56.1754 0.0194217
9.30605 62.2254 4
11.1319 60.6293 2
12.8458 59.1313 0.0153844
10.9835 64.0165 2
12.6777 62.3034 0.00911621
12.7746 65.6939 0
15.1395 20.1771 3.98004
16.3954 18.6421 2
14.7449 17.2973 3.98264
17.6638 17.1489 0.0175755
16.0998 15.7738 2
14.4815 14.2861 3.98532
17.509 14.3657 0.0160235
16.0193 12.8034 2
14.4442 11.1129 3.99236
17.6374 11.4506 0.0119784
16.2013 9.66174 2
14.6715 7.74927 4
18.0503 8.33855 0.00682297
16.6661 6.31988 2
18.75 5.0241 0
25.2624 34.2523 3.98758
27.304 34.74 2
28.9176 35.1044 0.0930159
17.8431 22.3122 3.98509
15.516 22.9116 3.97601
16.671 21.3668 2
20.869 19.3681 0.0177273
17.9719 19.9318 0.0186122
19.7125 21.56 2
19.6448 24.3649 3.97896
22.3451 21.7054 0.0176132
24.6761 23.1531 0.0195253
22.82 24.5859 2
21.8739 27.8053 3.96876
23.662 31.1709 3.9713
24.4976 28.5105 2
25.4216 25.9342 0.0281668
26.078 31.6829 2
28.2325 32.281 0.045243
26.9522 29.1162 0.0138778
22.3949 36.2678 3.97585
24.6143 36.8514 2
26.8021 37.352 0.0315816
25.1767 43.1917 0.0305153
23.9401 39.4278 0.0307266
22.9026 41.8112 2
21.6717 38.4992 2
20.6321 40.6339 3.97406
20.0259 37.779 3.97499
21.8541 43.9698 0.023321
19.7001 42.8971 2
17.327 42.1044 3.97397
18.954 44.9832 0.0253981
16.9335 44.3882 2
14.8322 44.2055 3.97267
16.6076 46.223 0.0255452
14.8334 46.0973 2
12.959 46.2992 3.97346
14.9119 47.6776 0.023651
13.2864 48.0138 2
11.4804 48.552 3.97518
13.7775 49.5524 0.0236692
12.1079 50.257 2
10.2578 51.0818 3.97769
12.8874 51.8798 0.0231269
11.1315 52.8403 2
9.22943 53.8905 3.98175
8.38219 56.9835 3.98766
10.3203 55.7143 2
12.1352 54.5323 0.0205687
7.74927 60.3285 4
9.69822 58.8511 2
11.53 57.4628 0.016253
9.306 62.2255 2
11.1322 60.6295 0.0101589
10.9835 64.0165 0
13.9515 21.744 3.97809
15.1395 20.1762 2
13.445 18.8943 3.98139
16.3954 18.6428 0.0179596
14.7449 17.2965 2
13.0266 15.8788 3.98465
16.0997 15.7747 0.0163115
14.4816 14.2853 2
12.7816 12.6861 3.99144
16.0191 12.8042 0.0136
14.444 11.1129 2
12.7746 9.30605 4
16.2015 9.66168 0.00711712
14.6715 7.74924 2
16.6661 6.31991 0
22.9782 33.7879 3.97361
25.2561 34.2505 2
27.3116 34.7409 0.0438665
17.6118 24.0307 3.97852
17.8428 22.3112 2
14.2992 24.444 3.97446
15.5154 22.9104 2
16.6711 21.3677 0.0213167
19.007 27.1845 3.96762
19.7124 21.5609 0.0155075
19.6433 24.3643 2
21.1086 30.6469 3.97103
22.8219 24.5878 0.0241589
21.8747 27.8049 2
23.6571 31.171 2
24.4953 28.5109 0.0322767
26.0748 31.688 0.00898116
20.1578 35.915 3.97457
22.3912 36.2688 2
24.6183 36.8518 0.0207355
22.9044 41.8098 0.0212132
21.6709 38.4985 0.0269444
20.6296 40.6343 2
20.0246 37.7794 2
18.0106 39.001 3.97348
19.6997 42.8965 0.0253473
17.3273 42.105 2
14.7798 41.9209 3.97304
16.9335 44.3878 0.027951
14.8321 44.2059 2
12.6974 44.3952 3.97333
14.8332 46.0968 0.0263332
12.9592 46.2997 2
10.9831 46.735 3.9738
13.286 48.0133 0.0247889
11.4807 48.5525 2
9.52228 49.2404 3.97636
12.1076 50.2565 0.0235526
10.2582 51.0823 2
8.26283 52.0023 3.98083
11.1313 52.8396 0.0214528
9.22952 53.891 2
7.1912 55.0329 3.98717
6.31991 58.3339 4
8.38165 56.9826 2
10.3204 55.7136 0.0173712
7.74924 60.3285 2
9.69867 58.8515 0.0113528
9.30605 62.2254 0
13.221 25.3572 3.98023
12.8192 23.274 3.97664
13.9512 21.7429 2
12.2301 20.5438 3.98027
15.1395 20.1771 0.0199578
13.445 18.8934 2
11.656 17.5598 3.9843
14.7449 17.2973 0.0173596
13.0267 15.8781 2
11.219 14.3708 3.9902
14.4815 14.2861 0.0146759
12.7814 12.6861 2
10.9835 10.9835 4
14.4442 11.1129 0.00764292
12.7745 9.306 2
14.6715 7.74927 0
20.5354 33.3821 3.97286
22.9768 33.7889 2
25.2624 34.2523 0.0124236
15.8868 26.3919 3.97136
17.6108 24.0298 2
17.8431 22.3122 0.0149116
14.2988 24.4435 2
15.516 22.9116 0.0239854
18.3429 30.1584 3.96959
19.0072 27.1842 2
19.6448 24.3649 0.0210448
21.1054 30.6463 2
21.8739 27.8053 0.0312439
23.662 31.1709 0.0287034
17.655 35.9593 3.97278
20.155 35.9154 2
22.3949 36.2678 0.0241466
20.6321 40.6339 0.025942
20.0259 37.779 0.0250107
18.0096 39.0014 2
14.2922 39.1761 3.97181
17.327 42.1044 0.0260267
14.7799 41.9214 2
12.3849 42.279 3.97228
14.8322 44.2055 0.027328
12.6974 44.3956 2
10.5593 44.8039 3.97382
12.959 46.2992 0.0265368
10.9832 46.7355 2
8.90566 47.3188 3.9751
11.4804 48.552 0.0248245
9.52261 49.2408 2
7.43052 50.0347 3.97948
10.2578 51.0818 0.0223055
8.26311 52.0025 2
6.13189 53.0066 3.98698
9.22943 53.8905 0.0182544
7.19076 55.0314 2
5.0241 56.25 4
6.31988 58.3339 2
8.38219 56.9835 0.0123438
7.74927 60.3285 0
13.4591 26.8076 3.97279
11.9342 24.7841 3.97546
13.2207 25.3567 2
11.1336 22.2297 3.97868
12.819 23.2732 2
13.9515 21.744 0.0219145
12.2299 20.5426 2
10.386 19.3151 3.98359
13.445 18.8943 0.0186077
11.656 17.5589 2
9.75972 16.1544 3.98901
13.0266 15.8788 0.0153495
11.2187 14.3709 2
9.30607 12.7746 4
12.7816 12.6861 0.0085639
10.9835 10.9835 2
12.7746 9.30605 0
17.8193 33.1017 3.97176
20.5339 33.3822 2
22.9782 33.7879 0.0263859
15.4719 29.6285 3.97166
15.8865 26.3918 2
17.6118 24.0307 0.0214837
14.2992 24.444 0.0255368
18.3425 30.1584 2
19.007 27.1845 0.0323848
21.1086 30.6469 0.0289658
14.8984 36.015 3.97199
17.6534 35.9594 2
20.1578 35.915 0.0254261
12.5901 37.8284 3.97167
18.0106 39.001 0.0265221
14.2919 39.1764 2
11.902 40.1411 3.97084
14.7798 41.9209 0.0269646
12.385 42.2793 2
10.1587 42.779 3.97275
12.6974 44.3952 0.026675
10.5593 44.8043 2
8.38333 45.3209 3.97505
10.9831 46.735 0.0262027
8.90587 47.3193 2
6.72254 47.9993 3.97827
9.52228 49.2404 0.0236393
7.43082 50.0348 2
5.20891 50.9091 3.98669
8.26283 52.0023 0.0191744
6.13169 53.0051 2
3.86727 54.0858 4
7.1912 55.0329 0.0128315
5.02404 56.25 2
6.31991 58.3339 0
12.9132 29.0271 3.97016
11.3653 26.4848 3.97386
13.4589 26.8072 2
10.1942 23.9653 3.9766
11.934 24.7836 2
13.221 25.3572 0.0197701
9.23844 21.1352 3.98208
11.1335 22.2288 2
12.8192 23.274 0.0233612
12.2301 20.5438 0.0197265
10.3858 19.314 2
8.41546 18.0259 3.98819
11.656 17.5598 0.0157007
9.75934 16.1545 2
7.74928 14.6715 4
11.219 14.3708 0.00980032
9.30602 12.7745 2
10.9835 10.9835 0
14.467 32.857 3.97199
17.8211 33.1017 2
20.5354 33.3821 0.0271362
15.4718 29.6285 2
15.8868 26.3919 0.0286414
18.3429 30.1584 0.0304138
12.8825 36.2072 3.97132
14.898 36.0151 2
17.655 35.9593 0.02722
12.5902 37.8285 2
11.2612 38.3095 3.97119
14.2922 39.1761 0.028188
11.902 40.1413 2
9.74704 40.7543 3.97123
12.3849 42.279 0.0277178
10.1587 42.7794 2
7.93267 43.2699 3.97433
10.5593 44.8039 0.0261799
8.3834 45.3213 2
6.12882 45.9045 3.97808
8.90566 47.3188 0.0249009
6.72274 47.9994 2
4.42083 48.7497 3.98627
7.43052 50.0347 0.0205168
5.20886 50.908 2
2.85457 51.8506 4
6.13189 53.0066 0.0130157
3.86727 54.0858 2
5.0241 56.25 0
12.0551 31.2524 3.97107
10.7776 28.4124 3.97264
12.9132 29.0269 2
9.41017 25.7969 3.97522
11.3652 26.4845 2
13.4591 26.8076 0.0272068
8.22644 23.0219 3.97993
10.1942 23.9646 2
11.9342 24.7841 0.0245394
7.1976 19.9768 3.98742
9.23844 21.1344 2
11.1336 22.2297 0.021324
10.386 19.3151 0.0164116
8.41493 18.0265 2
6.31992 16.6661 4
9.75972 16.1544 0.010992
7.74926 14.6714 2
9.30607 12.7746 0
12.0761 34.2922 3.97136
14.467 32.857 2
17.8193 33.1017 0.028238
15.4719 29.6285 0.0283357
10.8245 36.6101 3.97104
12.8827 36.2073 2
14.8984 36.015 0.0280093
12.5901 37.8284 0.0283344
11.2613 38.3096 2
9.34409 38.8231 3.97094
11.902 40.1411 0.0291599
9.74704 40.7546 2
7.54604 41.2107 3.97255
10.1587 42.779 0.0272486
7.93271 43.2702 2
5.64093 43.7677 3.97791
8.38333 45.3209 0.0249495
6.12891 45.9046 2
3.76667 46.5359 3.98615
6.72254 47.9993 0.0217333
4.42084 48.7491 2
1.99014 49.554 4
5.20891 50.9091 0.0133096
2.85451 51.8506 2
3.86727 54.0858 0
10.9179 32.9166 3.97192
10.0916 30.3802 3.97215
12.055 31.2523 2
8.71849 27.731 3.9746
10.7776 28.4122 2
12.9132 29.0271 0.0298384
7.35271 24.9821 3.97854
9.41017 25.7965 2
11.3653 26.4848 0.026141
6.11476 22.0018 3.98652
8.22659 23.0215 2
10.1942 23.9653 0.0233999
5.02411 18.75 4
7.19714 19.978 2
9.23844 21.1352 0.0179249
8.41546 18.0259 0.0118055
6.3199 16.6661 2
7.74928 14.6715 0
10.4339 34.9987 3.97141
12.076 34.2922 2
14.467 32.857 0.0280072
9.0158 36.9844 3.97082
10.8249 36.6102 2
12.8825 36.2072 0.0286759
11.2612 38.3095 0.0288057
9.34418 38.8232 2
7.22877 39.181 3.97163
9.74704 40.7543 0.0287651
7.54608 41.2109 2
5.25752 41.6133 3.97633
7.93267 43.2699 0.0256697
5.64096 43.7677 2
3.24455 44.2814 3.98583
6.12882 45.9045 0.0219225
3.76672 46.5359 2
1.27781 47.2057 4
4.42083 48.7497 0.0137289
1.99012 49.554 2
2.85457 51.8506 0
10.0857 33.88 3.97191
9.38546 32.1527 3.97288
10.9179 32.9166 2
8.06848 29.6949 3.97372
10.0915 30.3801 2
12.0551 31.2524 0.0289318
6.59671 27.0085 3.97792
8.71847 27.7308 2
10.7776 28.4124 0.0273641
5.17028 24.0957 3.9861
7.35282 24.982 2
9.41017 25.7969 0.0247815
3.86728 20.9142 4
6.11455 22.0031 2
8.22644 23.0219 0.0200716
5.02406 18.75 2
7.1976 19.9768 0.0125815
6.31992 16.6661 0
8.84232 35.2786 3.97108
10.4339 34.9987 2
12.0761 34.2922 0.0286368
7.01268 37.2053 3.972
9.01584 36.9845 2
10.8245 36.6101 0.0289564
9.34409 38.8231 0.029061
7.22884 39.1811 2
4.98683 39.4667 3.97468
7.54604 41.2107 0.0274511
5.25758 41.6133 2
2.85549 42.0021 3.98455
5.64093 43.7677 0.0220851
3.24457 44.2817 2
0.720592 44.8159 4
3.76667 46.5359 0.0138469
1.27778 47.2057 2
1.99014 49.554 0
8.88292 33.6965 3.97214
10.0856 33.8799 2
7.50684 31.6087 3.9737
9.38535 32.1526 2
10.9179 32.9166 0.0280768
5.94239 29.0698 3.97724
8.0684 29.6948 2
10.0916 30.3802 0.0278461
4.35811 26.2484 3.98596
6.59676 27.0086 2
8.71849 27.731 0.0254005
2.85458 23.1494 4
5.17016 24.0966 2
7.35271 24.9821 0.0214573
3.86728 20.9142 2
6.11476 22.0018 0.0134796
5.02411 18.75 0
6.96312 35.3056 3.97189
8.84238 35.2785 2
10.4339 34.9987 0.0285851
4.83711 37.3394 3.97504
7.01273 37.2053 2
9.0158 36.9844 0.0291843
7.22877 39.181 0.0283688
4.98688 39.4667 2
2.60414 39.7138 3.98293
5.25752 41.6133 0.0236748
2.8556 42.0025 2
0.320823 42.3947 4
3.24455 44.2814 0.0141675
0.720551 44.8159 2
1.27781 47.2057 0
7.1219 33.4606 3.97311
8.88286 33.6964 2
10.0857 33.88 0.0280902
5.41394 31.1338 3.97681
7.50671 31.6087 2
9.38546 32.1527 0.0271192
3.68011 28.4441 3.98555
5.94235 29.0699 2
8.06848 29.6949 0.0262761
1.99015 25.446 4
4.35805 26.249 2
6.59671 27.0085 0.0220845
2.85453 23.1494 2
5.17028 24.0957 0.0139043
3.86728 20.9142 0
4.85155 35.2515 3.97502
6.96318 35.3056 2
8.84232 35.2786 0.0289168
2.4956 37.4285 3.98314
4.83715 37.3396 2
7.01268 37.2053 0.0280047
4.98683 39.4667 0.0253201
2.60422 39.7144 2
0.080333 39.9526 4
2.85549 42.0021 0.0154519
0.320817 42.3947 2
0.720592 44.8159 0
5.04422 33.1904 3.97605
7.12184 33.4605 2
8.88292 33.6965 0.0278561
3.14477 30.6664 3.98471
5.41381 31.134 2
7.50684 31.6087 0.0262973
1.27793 27.7943 4
3.68009 28.4443 2
5.94239 29.0698 0.0227634
1.99013 25.446 2
4.35811 26.2484 0.0140353
2.85458 23.1494 0
2.54778 35.159 3.9831
4.8516 35.2517 2
6.96312 35.3056 0.0281104
0 37.5 4
2.49569 37.429 2
4.83711 37.3394 0.0249633
2.60414 39.7138 0.0170724
0.0802903 39.9526 2
0.320823 42.3947 0
2.76514 32.9058 3.98379
5.04415 33.1906 2
7.1219 33.4606 0.0268934
0.721173 30.1842 4
3.14473 30.6665 2
5.41394 31.1338 0.0231861
1.27779 27.7943 2
3.68011 28.4441 0.0144504
1.99015 25.446 0
0.0806499 35.0474 4
2.54788 35.1595 2
4.85155 35.2515 0.0249785
0 37.5 2
2.4956 37.4285 0.0168611
0.080333 39.9526 0
0.32156 32.6054 4
2.76515 32.9061 2
5.04422 33.1904 0.0239499
0.72056 30.1841 2
3.14477 30.6664 0.0152878
1.27793 27.7943 0
0.0802889 35.0474 2
2.54778 35.159 0.016895
0 37.5 0
0.320817 32.6053 2
2.76514 32.9058 0.0162105
0.721173 30.1842 0
0.0806499 35.0474 0
0.32156 32.6054 0
CELLS 1910 17190
8 18 6 25 56 2 0 5 16
8 57 23 6 18 17 4 0 2
8 78 36 9 29 31 11 1 7
8 31 11 1 7 79 37 10 30
8 110 57 18 50 48 17 2 14
8 50 18 56 111 14 2 16 49
8 116 62 22 55 52 20 3 15
8 56 25 67 118 16 5 24 53
8 119 63 23 57 54 21 4 17
8 55 22 63 119 15 3 21 54
8 58 26 68 121 18 6 25 56
8 122 65 26 58 57 23 6 18
8 73 31 7 27 142 79 30 71
8 143 78 29 72 73 31 7 27
8 83 147 76 34 32 74 28 8
8 84 148 78 36 33 75 29 9
8 76 34 8 28 148 84 33 75
8 37 79 150 86 10 30 77 35
8 151 87 36 78 80 38 11 31
8 80 38 11 31 152 88 37 79
8 175 100 42 94 96 44 12 40
8 44 96 176 101 12 40 95 43
8 101 176 98 46 43 95 41 13
8 46 98 178 103 13 41 97 45
8 178 103 45 97 147 83 32 74
8 189 116 55 109 106 52 15 47
8 111 56 118 191 49 16 53 107
8 192 119 57 110 108 54 17 48
8 109 55 119 192 47 15 54 108
8 194 122 58 112 110 57 18 50
8 112 58 121 195 50 18 56 111
8 115 61 19 51 197 124 59 113
8 115 61 125 198 51 19 60 114
8 198 125 62 116 114 60 20 52
8 200 127 64 120 116 62 22 55
8 118 67 132 202 53 24 66 117
8 121 68 133 203 56 25 67 118
8 120 64 128 204 55 22 63 119
8 204 128 65 122 119 63 23 57
8 206 134 68 121 123 69 26 58
8 123 69 26 58 207 131 65 122
8 226 147 74 138 140 76 28 70
8 229 148 75 139 143 78 29 72
8 140 76 28 70 229 148 75 139
8 142 79 30 71 231 150 77 141
8 144 80 31 73 232 152 79 142
8 233 151 78 143 144 80 31 73
8 150 86 35 77 235 154 81 145
8 235 154 81 145 146 82 39 91
8 146 82 39 91 236 155 90 165
8 238 157 83 147 149 85 34 76
8 239 158 84 148 151 87 36 78
8 149 85 34 76 239 158 84 148
8 152 88 37 79 241 160 86 150
8 242 161 87 151 153 89 38 80
8 153 89 38 80 243 162 88 152
8 171 98 41 92 265 178 97 169
8 265 178 97 169 226 147 74 138
8 172 96 40 93 266 176 95 170
8 266 176 95 170 171 98 41 92
8 269 175 94 173 172 96 40 93
8 271 180 99 174 175 100 42 94
8 197 124 59 113 271 180 99 174
8 272 181 100 175 177 102 44 96
8 273 182 101 176 179 104 46 98
8 177 102 44 96 273 182 101 176
8 179 104 46 98 275 184 103 178
8 275 184 103 178 238 157 83 147
8 188 115 51 105 283 197 113 186
8 188 115 198 284 105 51 114 187
8 284 198 116 189 187 114 52 106
8 286 200 120 193 189 116 55 109
8 191 118 202 288 107 53 117 190
8 195 121 203 289 111 56 118 191
8 193 120 204 290 109 55 119 192
8 290 204 122 194 192 119 57 110
8 196 123 58 112 292 207 122 194
8 293 206 121 195 196 123 58 112
8 199 126 61 115 297 211 124 197
8 298 212 127 200 198 125 62 116
8 199 126 212 298 115 61 125 198
8 205 129 64 120 300 214 127 200
8 301 217 130 201 202 132 66 117
8 209 136 168 264 301 217 130 201
8 302 219 132 202 203 133 67 118
8 303 220 133 203 206 134 68 121
8 205 129 215 304 120 64 128 204
8 304 215 131 207 204 128 65 122
8 306 221 134 206 208 135 69 123
8 208 135 69 123 307 218 131 207
8 210 137 167 263 309 223 136 209
8 328 238 147 226 230 149 76 140
8 228 146 91 166 329 236 165 260
8 231 150 77 141 330 235 145 227
8 330 235 145 227 228 146 91 166
8 332 239 148 229 233 151 78 143
8 230 149 76 140 332 239 148 229
8 232 152 79 142 334 241 150 231
8 234 153 80 144 335 243 152 232
8 336 242 151 233 234 153 80 144
8 236 155 90 165 338 245 164 259
8 241 160 86 150 339 246 154 235
8 339 246 154 235 237 156 82 146
8 237 156 82 146 340 247 155 236
8 342 249 157 238 240 159 85 149
8 343 250 158 239 242 161 87 151
8 240 159 85 149 343 250 158 239
8 243 162 88 152 345 252 160 241
8 244 163 253 346 153 89 161 242
8 244 163 89 153 347 254 162 243
8 311 224 261 371 210 137 167 263
8 263 167 262 372 209 136 168 264
8 267 179 98 171 375 275 178 265
8 375 275 178 265 328 238 147 226
8 376 273 176 266 267 179 98 171
8 268 177 96 172 376 273 176 266
8 379 272 175 269 268 177 96 172
8 380 271 174 270 269 175 94 173
8 283 197 113 186 380 271 174 270
8 381 277 180 271 272 181 100 175
8 297 211 124 197 381 277 180 271
8 382 278 181 272 274 183 102 177
8 274 183 102 177 383 279 182 273
8 383 279 182 273 276 185 104 179
8 385 281 184 275 342 249 157 238
8 276 185 104 179 385 281 184 275
8 285 199 115 188 393 297 197 283
8 394 298 200 286 284 198 116 189
8 285 199 298 394 188 115 198 284
8 291 205 120 193 396 300 200 286
8 397 301 201 287 288 202 117 190
8 295 209 264 374 397 301 201 287
8 398 302 202 288 289 203 118 191
8 399 303 203 289 293 206 121 195
8 291 205 304 400 193 120 204 290
8 400 304 207 292 290 204 122 194
8 294 208 123 196 402 307 207 292
8 403 306 206 293 294 208 123 196
8 296 210 263 373 405 309 209 295
8 408 312 213 299 297 211 126 199
8 299 213 313 409 199 126 212 298
8 409 313 214 300 298 212 127 200
8 305 216 129 205 411 315 214 300
8 412 318 217 301 302 219 132 202
8 309 223 136 209 412 318 217 301
8 413 320 219 302 303 220 133 203
8 306 221 321 414 206 134 220 303
8 307 218 131 207 415 316 215 304
8 305 216 316 415 205 129 215 304
8 417 322 221 306 308 222 135 208
8 308 222 135 208 418 319 218 307
8 310 225 137 210 420 325 223 309
8 423 326 224 311 310 225 137 210
8 329 236 165 260 441 338 259 368
8 442 342 238 328 333 240 149 230
8 331 237 146 228 443 340 236 329
8 334 241 150 231 444 339 235 330
8 444 339 235 330 331 237 146 228
8 446 343 239 332 336 242 151 233
8 333 240 149 230 446 343 239 332
8 335 243 152 232 448 345 241 334
8 337 244 153 234 449 347 243 335
8 337 244 346 450 234 153 242 336
8 338 245 164 259 452 349 258 367
8 340 247 155 236 453 350 245 338
8 345 252 160 241 454 351 246 339
8 454 351 246 339 341 248 156 237
8 341 248 156 237 455 352 247 340
8 240 159 251 344 342 249 354 457
8 242 161 253 346 343 250 355 458
8 343 250 355 458 240 159 251 344
8 347 254 162 243 460 357 252 345
8 348 255 358 461 244 163 253 346
8 348 255 163 244 462 359 254 347
8 473 360 257 365 363 256 364 482
8 452 349 258 367 365 257 366 485
8 422 324 369 488 311 224 261 371
8 371 261 370 490 263 167 262 372
8 407 311 371 491 296 210 263 373
8 373 263 372 492 295 209 264 374
8 493 385 275 375 442 342 238 328
8 377 276 179 267 493 385 275 375
8 378 274 177 268 494 383 273 376
8 494 383 273 376 377 276 179 267
8 497 382 272 379 378 274 177 268
8 498 381 271 380 379 272 175 269
8 393 297 197 283 498 381 271 380
8 499 387 277 381 382 278 181 272
8 408 312 211 297 499 387 277 381
8 500 388 278 382 384 280 183 274
8 501 389 279 383 386 282 185 276
8 384 280 183 274 501 389 279 383
8 386 282 185 276 503 391 281 385
8 503 391 281 385 457 354 249 342
8 511 408 299 395 393 297 199 285
8 395 299 409 512 285 199 298 394
8 512 409 300 396 394 298 200 286
8 401 305 205 291 514 411 300 396
8 515 412 301 397 398 302 202 288
8 405 309 209 295 515 412 301 397
8 516 413 302 398 399 303 203 289
8 403 306 414 517 293 206 303 399
8 402 307 207 292 518 415 304 400
8 401 305 415 518 291 205 304 400
8 404 308 208 294 520 418 307 402
8 521 417 306 403 404 308 208 294
8 406 310 210 296 523 420 309 405
8 526 423 311 407 406 310 210 296
8 410 314 213 299 527 424 312 408
8 528 425 315 411 409 313 214 300
8 410 314 425 528 299 213 313 409
8 416 317 216 305 530 427 315 411
8 531 430 318 412 413 320 219 302
8 420 325 223 309 531 430 318 412
8 532 432 320 413 414 321 220 303
8 417 322 433 533 306 221 321 414
8 418 319 218 307 534 428 316 415
8 416 317 428 534 305 216 316 415
8 419 323 434 536 308 222 322 417
8 419 323 222 308 537 431 319 418
8 421 327 225 310 539 438 325 420
8 421 327 439 541 310 225 326 423
8 543 437 324 422 423 326 224 311
8 441 338 259 368 559 452 367 486
8 443 340 236 329 560 453 338 441
8 333 240 344 447 442 342 457 561
8 445 341 237 331 562 455 340 443
8 448 345 241 334 563 454 339 444
8 563 454 339 444 445 341 237 331
8 336 242 346 450 446 343 458 565
8 446 343 458 565 333 240 344 447
8 449 347 243 335 567 460 345 448
8 451 348 244 337 568 462 347 449
8 451 348 461 569 337 244 346 450
8 570 463 349 452 473 360 257 365
8 453 350 245 338 570 463 349 452
8 455 352 247 340 571 464 350 453
8 460 357 252 345 572 465 351 454
8 572 465 351 454 456 353 248 341
8 456 353 248 341 573 466 352 455
8 344 251 356 459 457 354 468 575
8 458 355 469 576 344 251 356 459
8 346 253 358 461 458 355 469 576
8 462 359 254 347 578 471 357 460
8 348 255 359 462 461 358 472 579
8 591 474 360 473 475 361 256 363
8 475 361 256 363 594 477 362 479
8 363 256 364 482 479 362 480 603
8 590 473 365 484 481 363 482 605
8 482 364 257 365 606 483 366 485
8 559 452 367 486 484 365 485 607
8 542 436 487 609 422 324 369 488
8 525 422 488 611 407 311 371 491
8 488 369 489 612 371 261 370 490
8 491 371 490 613 373 263 372 492
8 495 386 276 377 614 503 385 493
8 614 503 385 493 561 457 342 442
8 615 501 383 494 495 386 276 377
8 496 384 274 378 615 501 383 494
8 618 500 382 497 496 384 274 378
8 619 499 381 498 497 382 272 379
8 511 408 297 393 619 499 381 498
8 620 505 387 499 500 388 278 382
8 527 424 312 408 620 505 387 499
8 502 390 506 621 384 280 388 500
8 622 507 389 501 504 392 282 386
8 502 390 280 384 622 507 389 501
8 504 392 282 386 624 509 391 503
8 624 509 391 503 575 468 354 457
8 513 410 299 395 630 527 408 511
8 631 528 411 514 512 409 300 396
8 513 410 528 631 395 299 409 512
8 519 416 305 401 633 530 411 514
8 634 531 412 515 516 413 302 398
8 523 420 309 405 634 531 412 515
8 635 532 413 516 517 414 303 399
8 521 417 533 636 403 306 414 517
8 520 418 307 402 637 534 415 518
8 519 416 534 637 401 305 415 518
8 522 419 308 404 639 537 418 520
8 522 419 536 640 404 308 417 521
8 524 421 310 406 642 539 420 523
8 524 421 541 644 406 310 423 526
8 646 543 422 525 526 423 311 407
8 529 426 314 410 647 544 424 527
8 528 425 545 648 411 315 427 530
8 529 426 545 648 410 314 425 528
8 535 429 317 416 649 546 427 530
8 650 548 430 531 532 432 320 413
8 539 438 325 420 650 548 430 531
8 533 433 550 651 414 321 432 532
8 536 434 551 652 417 322 433 533
8 537 431 319 418 653 547 428 534
8 535 429 547 653 416 317 428 534
8 538 435 552 654 419 323 434 536
8 538 435 323 419 655 549 431 537
8 540 440 327 421 657 556 438 539
8 540 440 557 659 421 327 439 541
8 541 439 555 660 423 326 437 543
8 661 554 436 542 543 437 324 422
8 676 570 452 559 590 473 365 484
8 560 453 338 441 676 570 452 559
8 562 455 340 443 677 571 453 560
8 447 344 459 566 561 457 575 678
8 564 456 341 445 679 573 455 562
8 567 460 345 448 680 572 454 563
8 680 572 454 563 564 456 341 445
8 565 458 576 682 447 344 459 566
8 450 346 461 569 565 458 576 682
8 568 462 347 449 684 578 460 567
8 451 348 462 568 569 461 579 685
8 686 580 463 570 591 474 360 473
8 571 464 350 453 686 580 463 570
8 573 466 352 455 687 581 464 571
8 572 465 582 688 460 357 471 578
8 574 467 582 688 456 353 465 572
8 574 467 353 456 689 583 466 573
8 459 356 470 577 575 468 585 691
8 576 469 586 692 459 356 470 577
8 461 358 472 579 576 469 586 692
8 462 359 471 578 579 472 588 694
8 704 591 473 590 593 475 363 481
8 595 476 592 705 475 361 474 591
8 593 475 363 481 707 594 479 602
8 594 477 362 479 709 598 478 600
8 595 476 361 475 711 597 477 594
8 479 362 480 603 600 478 601 720
8 481 363 482 605 602 479 603 722
8 603 480 364 482 723 604 483 606
8 605 482 365 484 724 606 485 607
8 656 553 608 726 542 436 487 609
8 645 542 609 728 525 422 488 611
8 609 487 610 729 488 369 489 612
8 611 488 612 730 491 371 490 613
8 616 504 386 495 731 624 503 614
8 731 624 503 614 678 575 457 561
8 732 622 501 615 616 504 386 495
8 617 502 384 496 732 622 501 615
8 617 502 621 735 496 384 500 618
8 736 620 499 619 618 500 382 497
8 630 527 408 511 736 620 499 619
8 621 506 626 737 500 388 505 620
8 647 544 424 527 737 626 505 620
8 623 508 627 738 502 390 506 621
8 623 508 390 502 739 628 507 622
8 625 510 628 739 504 392 507 622
8 740 629 509 624 691 585 468 575
8 625 510 392 504 740 629 509 624
8 632 529 410 513 744 647 527 630
8 631 528 648 745 514 411 530 633
8 632 529 648 745 513 410 528 631
8 638 535 416 519 746 649 530 633
8 747 650 531 634 635 532 413 516
8 642 539 420 523 747 650 531 634
8 636 533 651 748 517 414 532 635
8 640 536 652 749 521 417 533 636
8 639 537 418 520 750 653 534 637
8 638 535 653 750 519 416 534 637
8 641 538 419 522 751 655 537 639
8 641 538 654 752 522 419 536 640
8 643 540 421 524 753 657 539 642
8 643 540 659 755 524 421 541 644
8 644 541 660 757 526 423 543 646
8 758 661 542 645 646 543 422 525
8 529 426 544 647 648 545 662 759
8 530 427 545 648 649 546 663 760
8 535 429 546 649 653 547 664 761
8 762 666 548 650 651 550 432 532
8 657 556 438 539 762 666 548 650
8 652 551 668 763 533 433 550 651
8 654 552 669 764 536 434 551 652
8 655 549 431 537 765 665 547 653
8 538 435 549 655 654 552 667 766
8 661 554 671 768 542 436 553 656
8 658 558 440 540 769 674 556 657
8 658 558 675 770 540 440 557 659
8 659 557 673 771 541 439 555 660
8 660 555 672 772 543 437 554 661
8 788 686 570 676 704 591 473 590
8 677 571 453 560 788 686 570 676
8 679 573 455 562 789 687 571 677
8 566 459 577 683 678 575 691 790
8 681 574 456 564 791 689 573 679
8 680 572 688 792 567 460 578 684
8 681 574 688 792 564 456 572 680
8 682 576 692 794 566 459 577 683
8 569 461 579 685 682 576 692 794
8 568 462 578 684 685 579 694 796
8 687 581 464 571 798 696 580 686
8 798 696 580 686 705 592 474 591
8 689 583 466 573 799 697 581 687
8 688 582 698 800 578 471 588 694
8 690 584 698 800 574 467 582 688
8 690 584 467 574 801 699 583 689
8 693 587 701 803 577 470 585 691
8 693 587 470 577 804 702 586 692
8 695 589 702 804 579 472 586 692
8 695 589 472 579 805 703 588 694
8 708 595 705 813 593 475 591 704
8 710 596 706 814 595 476 592 705
8 707 594 479 602 816 709 600 719
8 708 595 475 593 817 711 594 707
8 709 598 478 600 819 715 599 717
8 711 597 477 594 820 714 598 709
8 710 596 476 595 822 713 597 711
8 600 478 601 720 717 599 718 832
8 602 479 603 722 719 600 720 834
8 720 601 480 603 835 721 604 723
8 722 603 482 605 836 723 606 724
8 767 670 725 839 656 553 608 726
8 756 656 726 841 645 542 609 728
8 726 608 727 842 609 487 610 729
8 728 609 729 843 611 488 612 730
8 844 740 624 731 790 691 575 678
8 733 625 504 616 844 740 624 731
8 734 623 502 617 845 739 622 732
8 733 625 739 845 616 504 622 732
8 734 623 738 846 617 502 621 735
8 735 621 737 847 618 500 620 736
8 744 647 527 630 847 737 620 736
8 621 506 627 738 737 626 741 848
8 647 544 626 737 759 662 741 848
8 623 508 628 739 738 627 742 849
8 740 629 585 691 850 743 700 802
8 625 510 629 740 739 628 743 850
8 632 529 647 744 745 648 759 854
8 633 530 648 745 746 649 760 855
8 638 535 649 746 750 653 761 856
8 857 762 650 747 748 651 532 635
8 753 657 539 642 857 762 650 747
8 749 652 763 858 636 533 651 748
8 752 654 764 859 640 536 652 749
8 751 655 537 639 860 765 653 750
8 641 538 655 751 752 654 766 861
8 754 658 540 643 862 769 657 753
8 754 658 770 863 643 540 659 755
8 755 659 771 864 644 541 660 757
8 758 661 768 866 645 542 656 756
8 757 660 772 867 646 543 661 758
8 759 662 773 868 648 545 663 760
8 649 546 663 760 761 664 774 871
8 765 665 547 653 872 775 664 761
8 873 777 666 762 763 668 550 651
8 769 674 556 657 873 777 666 762
8 764 669 779 874 652 551 668 763
8 654 552 667 766 764 669 778 875
8 655 549 665 765 766 667 776 876
8 768 671 782 877 656 553 670 767
8 772 672 783 878 661 554 671 768
8 658 558 674 769 770 675 786 879
8 659 557 675 770 771 673 785 881
8 882 784 672 772 771 673 555 660
8 789 687 571 677 897 798 686 788
8 897 798 686 788 813 705 591 704
8 791 689 573 679 898 799 687 789
8 795 693 803 900 683 577 691 790
8 793 690 574 681 901 801 689 791
8 792 688 800 902 684 578 694 796
8 793 690 800 902 681 574 688 792
8 795 693 577 683 903 804 692 794
8 797 695 804 903 685 579 692 794
8 797 695 579 685 904 805 694 796
8 905 806 697 799 798 696 581 687
8 814 706 806 905 705 592 696 798
8 689 583 697 799 801 699 808 907
8 800 698 809 908 694 588 703 805
8 690 584 699 801 800 698 809 908
8 803 701 810 909 691 585 700 802
8 693 587 702 804 803 701 811 910
8 695 589 703 805 804 702 812 911
8 818 710 814 919 708 595 705 813
8 821 712 815 920 710 596 706 814
8 816 709 600 719 922 819 717 831
8 817 711 594 707 923 820 709 816
8 818 710 595 708 924 822 711 817
8 819 715 599 717 926 827 716 829
8 820 714 598 709 927 826 715 819
8 929 825 713 822 820 714 597 711
8 821 712 596 710 930 824 713 822
8 717 599 718 832 829 716 830 942
8 719 600 720 834 831 717 832 944
8 832 718 601 720 945 833 721 835
8 834 720 603 722 946 835 723 836
8 869 780 838 950 767 670 725 839
8 865 767 839 952 756 656 726 841
8 839 725 840 953 726 608 727 842
8 841 726 842 954 728 609 729 843
8 844 740 691 790 955 850 802 899
8 733 625 740 844 845 739 850 955
8 734 623 739 845 846 738 849 956
8 735 621 738 846 847 737 848 957
8 744 647 737 847 854 759 848 957
8 738 627 742 849 848 741 851 958
8 848 741 851 958 759 662 773 868
8 850 743 700 802 959 852 807 906
8 849 742 628 739 959 852 743 850
8 854 759 868 965 745 648 760 855
8 746 649 760 855 856 761 871 966
8 860 765 653 750 967 872 761 856
8 968 873 762 857 858 763 651 748
8 862 769 657 753 968 873 762 857
8 859 764 874 969 749 652 763 858
8 752 654 766 861 859 764 875 970
8 751 655 765 860 861 766 876 971
8 754 658 769 862 863 770 879 972
8 755 659 770 863 864 771 881 974
8 976 882 772 867 864 771 660 757
8 866 768 877 977 756 656 767 865
8 867 772 878 978 758 661 768 866
8 760 663 773 868 871 774 883 980
8 870 781 837 948 982 890 780 869
8 982 890 780 869 877 782 670 767
8 761 664 774 871 872 775 884 984
8 876 776 665 765 985 885 775 872
8 873 777 668 763 986 887 779 874
8 769 674 777 873 879 786 887 986
8 764 669 778 875 874 779 888 987
8 766 667 776 876 875 778 886 988
8 878 783 892 989 768 671 782 877
8 878 783 672 772 990 893 784 882
8 880 787 675 770 991 896 786 879
8 880 787 895 992 770 675 785 881
8 881 785 894 993 771 673 784 882
8 1006 905 799 898 897 798 687 789
8 919 814 905 1006 813 705 798 897
8 791 689 799 898 901 801 907 1007
8 900 803 909 1009 790 691 802 899
8 795 693 804 903 900 803 910 1010
8 902 800 908 1011 796 694 805 904
8 793 690 801 901 902 800 908 1011
8 797 695 805 904 903 804 911 1012
8 799 697 806 905 907 808 912 1013
8 920 815 912 1013 814 706 806 905
8 802 700 810 909 906 807 913 1014
8 801 699 808 907 908 809 914 1015
8 805 703 809 908 911 812 915 1016
8 803 701 811 910 909 810 916 1017
8 911 812 917 1018 804 702 811 910
8 925 821 920 1030 818 710 814 919
8 928 823 921 1031 821 712 815 920
8 922 819 717 831 1033 926 829 941
8 923 820 709 816 1034 927 819 922
8 1035 929 822 924 923 820 711 817
8 925 821 710 818 1036 930 822 924
8 1038 933 825 929 927 826 714 820
8 926 827 716 829 1039 935 828 939
8 927 826 715 819 1040 934 827 926
8 928 823 712 821 1041 931 824 930
8 1042 932 824 930 929 825 713 822
8 829 716 830 942 939 828 940 1058
8 831 717 832 944 941 829 942 1060
8 942 830 718 832 1061 943 833 945
8 944 832 720 834 1062 945 835 946
8 981 889 947 1064 870 781 837 948
8 948 837 949 1067 869 780 838 950
8 975 869 950 1069 865 767 839 952
8 950 838 951 1070 839 725 840 953
8 952 839 953 1071 841 726 842 954
8 955 850 802 899 1072 959 906 1008
8 956 849 739 845 1072 959 850 955
8 846 738 849 956 957 848 958 1073
8 957 848 958 1073 854 759 868 965
8 849 742 852 959 958 851 961 1076
8 960 853 961 1076 906 807 852 959
8 958 851 961 1076 868 773 883 980
8 960 853 807 906 1077 963 913 1014
8 855 760 868 965 966 871 980 1085
8 856 761 871 966 967 872 984 1086
8 971 876 765 860 1087 985 872 967
8 968 873 763 858 1088 986 874 969
8 862 769 873 968 972 879 986 1088
8 859 764 875 970 969 874 987 1089
8 861 766 876 971 970 875 988 1090
8 973 880 770 863 1091 991 879 972
8 973 880 992 1092 863 770 881 974
8 974 881 993 1093 864 771 882 976
8 979 870 948 1066 1094 982 869 975
8 1094 982 869 975 977 877 767 865
8 978 878 772 867 1095 990 882 976
8 978 878 989 1096 866 768 877 977
8 871 774 883 980 984 884 994 1099
8 983 891 999 1100 870 781 889 981
8 1101 1000 890 982 989 892 782 877
8 983 891 781 870 1101 1000 890 982
8 872 775 884 984 985 885 995 1103
8 876 776 885 985 988 886 996 1104
8 986 887 779 874 1105 998 888 987
8 879 786 887 986 991 896 998 1105
8 875 778 886 988 987 888 997 1106
8 990 893 1002 1107 878 783 892 989
8 1108 1003 893 990 993 894 784 882
8 880 787 896 991 992 895 1005 1109
8 993 894 785 881 1110 1004 895 992
8 898 799 905 1006 1007 907 1013 1120
8 1030 920 1013 1120 919 814 905 1006
8 901 801 907 1007 1011 908 1015 1121
8 899 802 909 1009 1008 906 1014 1122
8 900 803 910 1010 1009 909 1017 1123
8 1012 911 1018 1124 903 804 910 1010
8 904 805 908 1011 1012 911 1016 1125
8 1013 912 1020 1127 907 808 914 1015
8 1031 921 1020 1127 920 815 912 1013
8 1019 918 962 1075 1128 1021 913 1014
8 1128 1021 913 1014 1017 916 810 909
8 1015 914 1022 1129 908 809 915 1016
8 1016 915 1023 1130 911 812 917 1018
8 1018 917 1024 1131 910 811 916 1017
8 1037 928 1031 1148 925 821 920 1030
8 928 823 931 1041 1031 921 1032 1149
8 1033 926 829 941 1151 1039 939 1057
8 1034 927 819 922 1152 1040 926 1033
8 1153 1038 929 1035 1034 927 820 923
8 1154 1042 930 1036 1035 929 822 924
8 1037 928 821 925 1155 1041 930 1036
8 1039 935 828 939 1156 1047 938 1055
8 1157 1043 932 1042 1038 933 825 929
8 1038 933 826 927 1158 1045 934 1040
8 1040 934 827 926 1159 1046 935 1039
8 930 824 932 1042 1041 931 1044 1160
8 1051 936 1048 1165 1175 1052 937 1053
8 1156 1047 938 1055 1053 937 1054 1178
8 939 828 940 1058 1055 938 1056 1181
8 941 829 942 1060 1057 939 1058 1183
8 942 830 943 1061 1058 940 1059 1184
8 1060 942 832 944 1185 1061 945 1062
8 1082 964 1063 1188 981 889 947 1064
8 1097 981 1064 1190 979 870 948 1066
8 1064 947 1065 1191 948 837 949 1067
8 1066 948 1067 1193 975 869 950 1069
8 1067 949 1068 1194 950 838 951 1070
8 1069 950 1070 1195 952 839 953 1071
8 956 849 959 1072 1073 958 1076 1197
8 1074 960 1076 1197 1008 906 959 1072
8 1073 958 1076 1197 965 868 980 1085
8 1074 960 906 1008 1198 1077 1014 1122
8 1133 1026 1079 1199 1019 918 962 1075
8 1077 963 913 1014 1200 1080 962 1075
8 960 853 963 1077 1076 961 1078 1201
8 980 883 961 1076 1099 994 1078 1201
8 1210 1083 964 1082 1100 999 889 981
8 966 871 980 1085 1086 984 1099 1215
8 967 872 984 1086 1087 985 1103 1216
8 971 876 985 1087 1090 988 1104 1217
8 1088 986 874 969 1218 1105 987 1089
8 972 879 986 1088 1091 991 1105 1218
8 970 875 988 1090 1089 987 1106 1219
8 973 880 991 1091 1092 992 1109 1220
8 1093 993 881 974 1221 1110 992 1092
8 1222 1108 990 1095 1093 993 882 976
8 1223 1101 982 1094 1096 989 877 977
8 1098 983 870 979 1223 1101 982 1094
8 1095 990 1107 1224 978 878 989 1096
8 1098 983 1100 1225 979 870 981 1097
8 984 884 994 1099 1103 995 1111 1227
8 1102 1001 1115 1228 983 891 999 1100
8 1101 1000 892 989 1229 1116 1002 1107
8 1102 1001 891 983 1229 1116 1000 1101
8 985 885 995 1103 1104 996 1112 1230
8 988 886 996 1104 1106 997 1113 1231
8 1105 998 888 987 1232 1114 997 1106
8 991 896 998 1105 1109 1005 1114 1232
8 1108 1003 1117 1233 990 893 1002 1107
8 1108 1003 894 993 1233 1117 1004 1110
8 992 895 1005 1109 1110 1004 1118 1234
8 1120 1013 1127 1244 1007 907 1015 1121
8 1148 1031 1127 1244 1030 920 1013 1120
8 1121 1015 1129 1245 1011 908 1016 1125
8 1126 1019 1075 1196 1246 1128 1014 1122
8 1246 1128 1014 1122 1123 1017 909 1009
8 1124 1018 1131 1247 1010 910 1017 1123
8 1125 1016 1130 1248 1012 911 1018 1124
8 1127 1020 1137 1254 1015 914 1022 1129
8 1031 921 1032 1149 1127 1020 1137 1254
8 1134 1027 918 1019 1257 1140 1021 1128
8 1257 1140 1021 1128 1131 1024 916 1017
8 1129 1022 1141 1258 1016 915 1023 1130
8 1130 1023 1142 1259 1018 917 1024 1131
8 1261 1144 1025 1132 1133 1026 1079 1199
8 1255 1138 1025 1132 1135 1028 1144 1261
8 1133 1026 918 1019 1262 1145 1027 1134
8 1136 1029 1139 1256 1263 1146 1028 1135
8 1037 928 1041 1155 1148 1031 1149 1275
8 1041 931 1044 1160 1149 1032 1150 1276
8 1151 1039 939 1057 1278 1156 1055 1180
8 1152 1040 926 1033 1279 1159 1039 1151
8 1153 1038 927 1034 1280 1158 1040 1152
8 1281 1157 1042 1154 1153 1038 929 1035
8 1036 930 1042 1154 1155 1041 1160 1282
8 1283 1164 1046 1159 1156 1047 935 1039
8 1165 1048 1164 1283 1053 937 1047 1156
8 1157 1043 933 1038 1284 1161 1045 1158
8 1157 1043 1161 1284 1042 932 1044 1160
8 1040 934 1046 1159 1158 1045 1163 1285
8 1166 1049 1167 1292 1051 936 1048 1165
8 1166 1049 936 1051 1293 1168 1050 1172
8 1051 936 1052 1175 1172 1050 1173 1306
8 1174 1051 1165 1290 1308 1175 1053 1177
8 1053 937 1054 1178 1175 1052 1176 1309
8 1278 1156 1055 1180 1177 1053 1178 1311
8 1055 938 1056 1181 1178 1054 1179 1312
8 1057 939 1058 1183 1180 1055 1181 1314
8 1058 940 1059 1184 1181 1056 1182 1315
8 1060 942 1061 1185 1183 1058 1184 1316
8 1208 1081 1187 1321 1082 964 1063 1188
8 1209 1082 1188 1322 1097 981 1064 1190
8 1188 1063 1189 1323 1064 947 1065 1191
8 1190 1064 1191 1325 1066 948 1067 1193
8 1191 1065 1192 1326 1067 949 1068 1194
8 1067 1193 1069 950 1194 1327 1195 1070
8 1250 1133 1199 1330 1126 1019 1075 1196
8 1198 1077 1014 1122 1331 1200 1075 1196
8 1074 960 1077 1198 1197 1076 1201 1332
8 1085 980 1076 1197 1215 1099 1201 1332
8 1199 1079 1203 1333 1075 962 1080 1200
8 1132 1025 1119 1243 1199 1079 1203 1333
8 1201 1078 963 1077 1334 1202 1080 1200
8 1099 994 1078 1201 1227 1111 1202 1334
8 1343 1207 1081 1208 1210 1083 964 1082
8 1214 1084 1186 1319 1343 1207 1081 1208
8 1345 1210 1082 1209 1225 1100 981 1097
8 1346 1211 1083 1210 1228 1115 999 1100
8 1086 984 1099 1215 1216 1103 1227 1352
8 1087 985 1103 1216 1217 1104 1230 1353
8 1090 988 1104 1217 1219 1106 1231 1354
8 1218 1105 987 1089 1355 1232 1106 1219
8 1091 991 1105 1218 1220 1109 1232 1355
8 1092 992 1109 1220 1221 1110 1234 1356
8 1222 1108 1233 1357 1095 990 1107 1224
8 1222 1108 993 1093 1357 1233 1110 1221
8 1223 1101 989 1096 1358 1229 1107 1224
8 1226 1102 983 1098 1358 1229 1101 1223
8 1226 1102 1228 1359 1098 983 1100 1225
8 1103 995 1111 1227 1230 1112 1235 1360
8 1107 1002 1117 1233 1229 1116 1240 1362
8 1102 1001 1116 1229 1228 1115 1240 1362
8 1104 996 1112 1230 1231 1113 1236 1363
8 1364 1237 1114 1232 1231 1113 997 1106
8 1109 1005 1114 1232 1234 1118 1238 1365
8 1110 1004 1118 1234 1233 1117 1241 1366
8 1242 1374 1255 1138 1119 1243 1132 1025
8 1244 1127 1254 1376 1121 1015 1129 1245
8 1148 1031 1149 1275 1244 1127 1254 1376
8 1245 1129 1258 1377 1125 1016 1130 1248
8 1251 1134 1019 1126 1378 1257 1128 1246
8 1378 1257 1128 1246 1247 1131 1017 1123
8 1248 1130 1259 1379 1124 1018 1131 1247
8 1261 1381 1250 1133 1132 1249 1330 1199
8 1255 1380 1252 1135 1132 1249 1381 1261
8 1250 1133 1019 1126 1382 1262 1134 1251
8 1253 1136 1256 1385 1384 1263 1135 1252
8 1254 1137 1265 1387 1129 1022 1141 1258
8 1149 1032 1150 1276 1254 1137 1265 1387
8 1028 1135 1255 1138 1139 1256 1388 1266
8 1136 1029 1147 1264 1256 1139 1267 1389
8 1390 1268 1140 1257 1259 1142 1024 1131
8 1260 1143 1027 1134 1390 1268 1140 1257
8 1258 1141 1269 1391 1130 1023 1142 1259
8 1262 1145 1027 1134 1393 1271 1143 1260
8 1261 1144 1026 1133 1394 1272 1145 1262
8 1135 1028 1144 1261 1263 1146 1272 1394
8 1136 1029 1146 1263 1264 1147 1273 1395
8 1155 1041 1160 1282 1275 1149 1276 1405
8 1276 1150 1044 1160 1406 1277 1162 1286
8 1408 1283 1159 1279 1278 1156 1039 1151
8 1290 1165 1283 1408 1177 1053 1156 1278
8 1152 1040 1159 1279 1280 1158 1285 1409
8 1281 1157 1038 1153 1410 1284 1158 1280
8 1281 1157 1284 1410 1154 1042 1160 1282
8 1159 1046 1164 1283 1285 1163 1289 1412
8 1292 1167 1289 1412 1165 1048 1164 1283
8 1158 1045 1163 1285 1284 1161 1288 1413
8 1284 1161 1288 1413 1160 1044 1162 1286
8 1291 1166 1292 1418 1174 1051 1165 1290
8 1291 1166 1051 1174 1419 1293 1172 1305
8 1294 1169 1296 1421 1166 1049 1167 1292
8 1293 1168 1050 1172 1422 1295 1171 1303
8 1294 1169 1049 1166 1423 1297 1168 1293
8 1422 1295 1171 1303 1301 1170 1302 1435
8 1172 1050 1173 1306 1303 1171 1304 1438
8 1174 1051 1175 1308 1305 1172 1306 1440
8 1175 1052 1176 1309 1306 1173 1307 1441
8 1177 1053 1178 1311 1308 1175 1309 1443
8 1178 1054 1179 1312 1309 1176 1310 1444
8 1180 1055 1181 1314 1311 1178 1312 1446
8 1056 1181 1312 1179 1182 1315 1447 1313
8 1183 1058 1184 1316 1314 1181 1315 1448
8 1319 1186 1084 1214 1451 1317 1213 1350
8 1319 1186 1318 1453 1208 1081 1187 1321
8 1321 1187 1320 1456 1188 1063 1189 1323
8 1344 1208 1321 1457 1209 1082 1188 1322
8 1322 1188 1323 1458 1190 1064 1191 1325
8 1323 1189 1324 1459 1191 1065 1192 1326
8 1191 1325 1193 1067 1326 1460 1327 1194
8 1242 1374 1243 1119 1328 1462 1335 1204
8 1330 1199 1333 1465 1196 1075 1200 1331
8 1132 1249 1330 1199 1243 1375 1465 1333
8 1332 1201 1077 1198 1466 1334 1200 1331
8 1215 1099 1201 1332 1352 1227 1334 1466
8 1119 1243 1333 1203 1204 1335 1470 1338
8 1333 1203 1338 1470 1200 1080 1202 1334
8 1227 1111 1202 1334 1360 1235 1338 1470
8 1328 1462 1335 1204 1205 1336 1471 1339
8 1337 1206 1340 1472 1464 1329 1205 1336
8 1346 1211 1342 1479 1210 1083 1207 1343
8 1346 1211 1115 1228 1479 1342 1239 1361
8 1348 1212 1084 1214 1479 1342 1207 1343
8 1480 1343 1208 1344 1345 1210 1082 1209
8 1351 1214 1319 1454 1480 1343 1208 1344
8 1481 1346 1210 1345 1359 1228 1100 1225
8 1348 1212 1347 1483 1214 1084 1213 1350
8 1216 1103 1227 1352 1353 1230 1360 1488
8 1217 1104 1230 1353 1354 1231 1363 1489
8 1490 1364 1232 1355 1354 1231 1106 1219
8 1220 1109 1232 1355 1356 1234 1365 1491
8 1221 1110 1234 1356 1357 1233 1366 1492
8 1224 1107 1233 1357 1358 1229 1362 1493
8 1226 1102 1229 1358 1359 1228 1362 1493
8 1230 1112 1235 1360 1363 1236 1367 1496
8 1361 1239 1115 1228 1497 1371 1240 1362
8 1366 1241 1372 1498 1233 1117 1240 1362
8 1364 1237 1113 1231 1499 1368 1236 1363
8 1364 1237 1368 1499 1232 1114 1238 1365
8 1234 1118 1238 1365 1366 1241 1369 1500
8 1507 1373 1242 1374 1388 1266 1138 1255
8 1508 1374 1243 1375 1380 1255 1132 1249
8 1376 1254 1387 1509 1245 1129 1258 1377
8 1275 1149 1276 1405 1376 1254 1387 1509
8 1377 1258 1391 1510 1248 1130 1259 1379
8 1511 1390 1257 1378 1379 1259 1131 1247
8 1383 1260 1134 1251 1511 1390 1257 1378
8 1252 1135 1256 1385 1380 1255 1388 1512
8 1261 1381 1513 1394 1133 1250 1382 1262
8 1135 1252 1384 1263 1261 1381 1513 1394
8 1382 1262 1134 1251 1514 1393 1260 1383
8 1253 1136 1263 1384 1386 1264 1395 1516
8 1253 1136 1264 1386 1385 1256 1389 1517
8 1387 1265 1397 1519 1258 1141 1269 1391
8 1276 1150 1277 1406 1387 1265 1397 1519
8 1256 1139 1267 1389 1388 1266 1398 1520
8 1264 1147 1274 1396 1389 1267 1399 1521
8 1392 1270 1143 1260 1522 1400 1268 1390
8 1390 1268 1142 1259 1522 1400 1269 1391
8 1392 1270 1401 1523 1260 1143 1271 1393
8 1272 1394 1524 1402 1145 1262 1393 1271
8 1395 1273 1146 1263 1524 1402 1272 1394
8 1273 1395 1264 1147 1403 1526 1396 1274
8 1405 1276 1160 1282 1534 1406 1286 1411
8 1414 1287 1407 1535 1286 1162 1277 1406
8 1279 1159 1283 1408 1409 1285 1412 1537
8 1418 1292 1412 1537 1290 1165 1283 1408
8 1280 1158 1285 1409 1410 1284 1413 1538
8 1410 1284 1413 1538 1282 1160 1286 1411
8 1285 1163 1289 1412 1413 1288 1417 1540
8 1421 1296 1417 1540 1292 1167 1289 1412
8 1414 1287 1162 1286 1541 1416 1288 1413
8 1420 1294 1421 1545 1291 1166 1292 1418
8 1419 1293 1172 1305 1546 1422 1303 1437
8 1420 1294 1166 1291 1547 1423 1293 1419
8 1294 1169 1297 1423 1421 1296 1425 1548
8 1423 1297 1168 1293 1549 1424 1295 1422
8 1301 1170 1298 1427 1422 1295 1424 1549
8 1432 1300 1428 1554 1301 1170 1298 1427
8 1431 1299 1428 1554 1560 1430 1300 1432
8 1563 1433 1300 1432 1435 1302 1170 1301
8 1546 1422 1303 1437 1434 1301 1435 1565
8 1303 1171 1304 1438 1435 1302 1436 1566
8 1305 1172 1306 1440 1437 1303 1438 1568
8 1306 1173 1307 1441 1438 1304 1439 1569
8 1308 1175 1309 1443 1440 1306 1441 1571
8 1309 1176 1310 1444 1441 1307 1442 1572
8 1311 1178 1312 1446 1443 1309 1444 1574
8 1179 1312 1444 1310 1313 1447 1575 1445
8 1314 1181 1315 1448 1446 1312 1447 1576
8 1350 1213 1349 1486 1451 1317 1449 1579
8 1451 1317 1450 1581 1319 1186 1318 1453
8 1454 1319 1214 1351 1582 1451 1350 1487
8 1453 1318 1452 1584 1321 1187 1320 1456
8 1454 1319 1453 1585 1344 1208 1321 1457
8 1456 1320 1455 1586 1323 1189 1324 1459
8 1457 1321 1456 1587 1322 1188 1323 1458
8 1458 1323 1459 1588 1325 1191 1326 1460
8 1205 1336 1464 1329 1328 1462 1590 1461
8 1507 1373 1461 1590 1374 1242 1328 1462
8 1508 1374 1462 1591 1375 1243 1335 1467
8 1337 1206 1329 1464 1473 1341 1463 1594
8 1375 1243 1335 1467 1465 1333 1470 1596
8 1465 1333 1470 1596 1331 1200 1334 1466
8 1352 1227 1334 1466 1488 1360 1470 1596
8 1591 1462 1336 1468 1467 1335 1471 1597
8 1469 1337 1472 1598 1595 1464 1336 1468
8 1471 1339 1474 1600 1335 1204 1338 1470
8 1600 1474 1367 1496 1470 1338 1235 1360
8 1336 1205 1340 1472 1471 1339 1475 1601
8 1337 1206 1341 1473 1472 1340 1476 1602
8 1495 1370 1478 1609 1361 1239 1342 1479
8 1348 1212 1342 1479 1483 1347 1478 1609
8 1481 1346 1479 1610 1345 1210 1343 1480
8 1481 1346 1228 1359 1610 1479 1361 1494
8 1484 1348 1214 1351 1610 1479 1343 1480
8 1483 1347 1482 1612 1350 1213 1349 1486
8 1484 1348 1483 1613 1351 1214 1350 1487
8 1353 1230 1360 1488 1489 1363 1496 1616
8 1490 1364 1231 1354 1617 1499 1363 1489
8 1490 1364 1499 1617 1355 1232 1365 1491
8 1356 1234 1365 1491 1492 1366 1500 1619
8 1492 1366 1498 1620 1357 1233 1362 1493
8 1494 1361 1228 1359 1621 1497 1362 1493
8 1495 1370 1239 1361 1622 1504 1371 1497
8 1363 1236 1367 1496 1499 1368 1501 1623
8 1497 1371 1240 1362 1624 1505 1372 1498
8 1625 1503 1372 1498 1500 1369 1241 1366
8 1365 1238 1368 1499 1500 1369 1502 1626
8 1520 1398 1506 1633 1388 1266 1373 1507
8 1634 1507 1374 1508 1512 1388 1255 1380
8 1509 1387 1519 1635 1377 1258 1391 1510
8 1405 1276 1406 1534 1509 1387 1519 1635
8 1515 1392 1260 1383 1636 1522 1390 1511
8 1511 1390 1259 1379 1636 1522 1391 1510
8 1385 1256 1389 1517 1512 1388 1520 1637
8 1513 1394 1262 1382 1638 1524 1393 1514
8 1395 1516 1638 1524 1263 1384 1513 1394
8 1515 1392 1523 1639 1383 1260 1393 1514
8 1516 1395 1526 1640 1386 1264 1396 1518
8 1386 1264 1396 1518 1517 1389 1521 1641
8 1519 1397 1527 1643 1391 1269 1400 1522
8 1535 1407 1527 1643 1406 1277 1397 1519
8 1389 1267 1399 1521 1520 1398 1528 1644
8 1645 1529 1399 1521 1525 1404 1274 1396
8 1392 1270 1400 1522 1523 1401 1531 1646
8 1524 1402 1271 1393 1648 1532 1401 1523
8 1403 1526 1648 1532 1273 1395 1524 1402
8 1525 1404 1274 1396 1649 1533 1403 1526
8 1539 1414 1535 1657 1411 1286 1406 1534
8 1542 1415 1536 1658 1414 1287 1407 1535
8 1409 1285 1412 1537 1538 1413 1540 1660
8 1545 1421 1540 1660 1418 1292 1412 1537
8 1539 1414 1286 1411 1661 1541 1413 1538
8 1540 1417 1544 1663 1413 1288 1416 1541
8 1421 1296 1425 1548 1540 1417 1544 1663
8 1542 1415 1287 1414 1664 1543 1416 1541
8 1420 1294 1423 1547 1545 1421 1548 1666
8 1547 1423 1293 1419 1667 1549 1422 1546
8 1434 1301 1427 1553 1546 1422 1549 1667
8 1423 1297 1424 1549 1548 1425 1550 1668
8 1551 1426 1550 1668 1427 1298 1424 1549
8 1551 1426 1298 1427 1671 1552 1428 1554
8 1562 1432 1554 1674 1434 1301 1427 1553
8 1431 1299 1429 1558 1554 1428 1555 1675
8 1431 1299 1430 1560 1558 1429 1557 1680
8 1560 1430 1300 1432 1683 1559 1433 1563
8 1561 1431 1554 1674 1684 1560 1432 1562
8 1685 1563 1432 1562 1565 1435 1301 1434
8 1435 1302 1436 1566 1563 1433 1564 1686
8 1437 1303 1438 1568 1565 1435 1566 1688
8 1438 1304 1439 1569 1566 1436 1567 1689
8 1440 1306 1441 1571 1568 1438 1569 1691
8 1441 1307 1442 1572 1569 1439 1570 1692
8 1443 1309 1444 1574 1571 1441 1572 1694
8 1310 1444 1572 1442 1445 1575 1695 1573
8 1446 1312 1447 1576 1574 1444 1575 1696
8 1486 1349 1485 1614 1579 1449 1577 1699
8 1451 1317 1449 1579 1581 1450 1578 1701
8 1487 1350 1486 1615 1582 1451 1579 1702
8 1581 1450 1580 1704 1453 1318 1452 1584
8 1582 1451 1581 1705 1454 1319 1453 1585
8 1584 1452 1583 1706 1456 1320 1455 1586
8 1585 1453 1584 1707 1457 1321 1456 1587
8 1587 1456 1586 1708 1458 1323 1459 1588
8 1633 1506 1589 1710 1507 1373 1461 1590
8 1464 1329 1461 1590 1594 1463 1589 1710
8 1468 1336 1462 1591 1595 1464 1590 1711
8 1634 1507 1590 1711 1508 1374 1462 1591
8 1473 1341 1463 1594 1603 1477 1593 1716
8 1469 1337 1464 1595 1599 1473 1594 1717
8 1471 1597 1467 1335 1600 1718 1596 1470
8 1718 1600 1496 1616 1596 1470 1360 1488
8 1336 1468 1597 1471 1472 1598 1719 1601
8 1469 1337 1473 1599 1598 1472 1602 1720
8 1722 1604 1501 1623 1600 1474 1367 1496
8 1475 1601 1471 1339 1604 1722 1600 1474
8 1602 1476 1605 1723 1472 1340 1475 1601
8 1476 1602 1724 1606 1341 1473 1603 1477
8 1483 1347 1478 1609 1612 1482 1608 1731
8 1495 1370 1504 1622 1609 1478 1608 1731
8 1618 1495 1609 1732 1494 1361 1479 1610
8 1484 1348 1479 1610 1613 1483 1609 1732
8 1486 1349 1482 1612 1614 1485 1611 1733
8 1613 1483 1612 1734 1487 1350 1486 1615
8 1489 1363 1496 1616 1617 1499 1623 1736
8 1491 1365 1499 1617 1619 1500 1626 1737
8 1618 1495 1361 1494 1738 1622 1497 1621
8 1739 1625 1498 1620 1619 1500 1366 1492
8 1621 1497 1362 1493 1740 1624 1498 1620
8 1742 1631 1504 1622 1624 1505 1371 1497
8 1743 1628 1502 1626 1623 1501 1368 1499
8 1744 1630 1505 1624 1625 1503 1372 1498
8 1745 1629 1503 1625 1626 1502 1369 1500
8 1520 1398 1528 1644 1633 1506 1632 1751
8 1637 1520 1633 1752 1512 1388 1507 1634
8 1635 1519 1643 1753 1510 1391 1522 1636
8 1657 1535 1643 1753 1534 1406 1519 1635
8 1515 1392 1522 1636 1639 1523 1646 1754
8 1517 1389 1521 1641 1637 1520 1644 1755
8 1524 1638 1756 1648 1393 1514 1639 1523
8 1640 1526 1395 1516 1756 1648 1524 1638
8 1642 1525 1396 1518 1757 1649 1526 1640
8 1758 1645 1521 1641 1642 1525 1396 1518
8 1646 1531 1400 1522 1760 1650 1527 1643
8 1535 1407 1536 1658 1643 1527 1650 1760
8 1521 1399 1529 1645 1644 1528 1651 1761
8 1647 1530 1652 1762 1525 1404 1529 1645
8 1401 1523 1648 1532 1531 1646 1763 1655
8 1525 1404 1533 1649 1647 1530 1654 1765
8 1533 1649 1766 1656 1403 1526 1648 1532
8 1662 1542 1658 1774 1539 1414 1535 1657
8 1542 1415 1543 1664 1658 1536 1659 1775
8 1660 1540 1663 1777 1538 1413 1541 1661
8 1545 1421 1548 1666 1660 1540 1663 1777
8 1662 1542 1414 1539 1778 1664 1541 1661
8 1664 1543 1416 1541 1779 1665 1544 1663
8 1548 1425 1550 1668 1663 1544 1665 1779
8 1547 1423 1549 1667 1666 1548 1668 1781
8 1670 1551 1668 1781 1553 1427 1549 1667
8 1551 1426 1552 1671 1668 1550 1669 1782
8 1670 1551 1427 1553 1784 1671 1554 1674
8 1675 1555 1672 1785 1554 1428 1552 1671
8 1678 1556 1673 1789 1558 1429 1555 1675
8 1561 1431 1558 1681 1674 1554 1675 1790
8 1794 1677 1556 1678 1680 1557 1429 1558
8 1560 1430 1559 1683 1680 1557 1679 1797
8 1561 1431 1560 1684 1681 1558 1680 1798
8 1563 1433 1564 1686 1683 1559 1682 1800
8 1684 1560 1432 1562 1801 1683 1563 1685
8 1565 1435 1566 1688 1685 1563 1686 1802
8 1566 1436 1567 1689 1686 1564 1687 1803
8 1568 1438 1569 1691 1688 1566 1689 1805
8 1569 1439 1570 1692 1689 1567 1690 1806
8 1571 1441 1572 1694 1691 1569 1692 1808
8 1442 1572 1692 1570 1573 1695 1809 1693
8 1574 1444 1575 1696 1694 1572 1695 1810
8 1614 1485 1592 1712 1699 1577 1697 1813
8 1579 1449 1577 1699 1701 1578 1698 1815
8 1615 1486 1614 1735 1702 1579 1699 1816
8 1701 1578 1700 1818 1581 1450 1580 1704
8 1582 1451 1579 1702 1705 1581 1701 1819
8 1704 1580 1703 1820 1584 1452 1583 1706
8 1705 1581 1704 1821 1585 1453 1584 1707
8 1707 1584 1706 1822 1587 1456 1586 1708
8 1710 1589 1506 1633 1824 1709 1632 1751
8 1594 1463 1589 1710 1716 1593 1709 1824
8 1752 1633 1710 1825 1634 1507 1590 1711
8 1595 1464 1590 1711 1717 1594 1710 1825
8 1830 1714 1592 1712 1733 1611 1485 1614
8 1603 1477 1593 1716 1725 1607 1715 1834
8 1599 1473 1594 1717 1721 1603 1716 1835
8 1837 1722 1623 1736 1718 1600 1496 1616
8 1719 1601 1722 1837 1597 1471 1600 1718
8 1602 1720 1598 1472 1723 1838 1719 1601
8 1720 1602 1473 1599 1839 1724 1603 1721
8 1723 1605 1726 1840 1601 1475 1604 1722
8 1840 1726 1628 1743 1722 1604 1501 1623
8 1724 1606 1727 1841 1602 1476 1605 1723
8 1725 1607 1728 1842 1603 1477 1606 1724
8 1612 1482 1608 1731 1733 1611 1730 1849
8 1741 1627 1730 1849 1622 1504 1608 1731
8 1613 1483 1609 1732 1734 1612 1731 1850
8 1618 1495 1622 1738 1732 1609 1731 1850
8 1615 1486 1612 1734 1735 1614 1733 1851
8 1852 1743 1626 1737 1736 1623 1499 1617
8 1853 1745 1625 1739 1737 1626 1500 1619
8 1855 1742 1622 1738 1740 1624 1497 1621
8 1856 1744 1624 1740 1739 1625 1498 1620
8 1741 1627 1504 1622 1857 1746 1631 1742
8 1742 1631 1505 1624 1858 1749 1630 1744
8 1859 1747 1629 1745 1743 1628 1502 1626
8 1860 1748 1630 1744 1745 1629 1503 1625
8 1644 1528 1651 1761 1751 1632 1750 1865
8 1637 1520 1644 1755 1752 1633 1751 1866
8 1754 1646 1522 1636 1867 1760 1643 1753
8 1657 1535 1658 1774 1753 1643 1760 1867
8 1639 1523 1646 1754 1756 1648 1763 1868
8 1641 1521 1645 1758 1755 1644 1761 1869
8 1757 1649 1526 1640 1870 1766 1648 1756
8 1642 1525 1649 1757 1759 1647 1765 1871
8 1759 1647 1762 1872 1642 1525 1645 1758
8 1760 1650 1767 1874 1646 1531 1655 1763
8 1658 1536 1659 1775 1760 1650 1767 1874
8 1762 1652 1768 1875 1645 1529 1651 1761
8 1764 1653 1769 1876 1647 1530 1652 1762
8 1656 1766 1877 1773 1532 1648 1763 1655
8 1771 1879 1765 1654 1653 1764 1647 1530
8 1533 1649 1765 1654 1656 1766 1880 1772
8 1662 1542 1664 1778 1774 1658 1775 1887
8 1664 1543 1665 1779 1775 1659 1776 1888
8 1778 1664 1541 1661 1890 1779 1663 1777
8 1666 1548 1668 1781 1777 1663 1779 1890
8 1782 1669 1780 1891 1668 1550 1665 1779
8 1670 1551 1671 1784 1781 1668 1782 1893
8 1671 1552 1672 1785 1782 1669 1783 1894
8 1790 1675 1785 1896 1674 1554 1671 1784
8 1675 1555 1673 1789 1785 1672 1786 1897
8 1792 1676 1788 1903 1678 1556 1673 1789
8 1795 1678 1789 1904 1681 1558 1675 1790
8 1792 1676 1556 1678 1906 1791 1677 1794
8 1680 1557 1679 1797 1794 1677 1793 1909
8 1910 1794 1678 1795 1798 1680 1558 1681
8 1683 1559 1682 1800 1797 1679 1796 1912
8 1684 1560 1683 1801 1798 1680 1797 1913
8 1686 1564 1687 1803 1800 1682 1799 1915
8 1685 1563 1686 1802 1801 1683 1800 1916
8 1688 1566 1689 1805 1802 1686 1803 1917
8 1689 1567 1690 1806 1803 1687 1804 1918
8 1691 1569 1692 1808 1805 1689 1806 1920
8 1692 1570 1693 1809 1806 1690 1807 1921
8 1694 1572 1695 1810 1808 1692 1809 1922
8 1829 1713 1811 1926 1712 1592 1697 1813
8 1813 1697 1812 1928 1699 1577 1698 1815
8 1735 1614 1712 1828 1816 1699 1813 1929
8 1815 1698 1814 1931 1701 1578 1700 1818
8 1702 1579 1699 1816 1819 1701 1815 1932
8 1818 1700 1817 1933 1704 1580 1703 1820
8 1819 1701 1818 1934 1705 1581 1704 1821
8 1821 1704 1820 1935 1707 1584 1706 1822
8 1824 1709 1632 1751 1937 1823 1750 1865
8 1716 1593 1709 1824 1834 1715 1823 1937
8 1825 1710 1633 1752 1938 1824 1751 1866
8 1717 1594 1710 1825 1835 1716 1824 1938
8 1945 1830 1712 1828 1851 1733 1614 1735
8 1830 1714 1831 1946 1712 1592 1713 1829
8 1947 1832 1714 1830 1849 1730 1611 1733
8 1843 1729 1607 1725 1950 1833 1715 1834
8 1721 1603 1716 1835 1836 1725 1834 1951
8 1836 1725 1842 1953 1721 1603 1724 1839
8 1723 1838 1719 1601 1840 1954 1837 1722
8 1954 1840 1743 1852 1837 1722 1623 1736
8 1724 1839 1720 1602 1841 1955 1838 1723
8 1841 1727 1844 1956 1723 1605 1726 1840
8 1956 1844 1747 1859 1840 1726 1628 1743
8 1728 1842 1724 1606 1845 1957 1841 1727
8 1725 1607 1729 1843 1842 1728 1846 1958
8 1741 1627 1746 1857 1849 1730 1848 1965
8 1734 1612 1731 1850 1851 1733 1849 1966
8 1854 1741 1849 1966 1738 1622 1731 1850
8 1967 1859 1745 1853 1852 1743 1626 1737
8 1968 1860 1744 1856 1853 1745 1625 1739
8 1854 1741 1622 1738 1969 1857 1742 1855
8 1855 1742 1624 1740 1970 1858 1744 1856
8 1857 1746 1631 1742 1971 1861 1749 1858
8 1858 1749 1630 1744 1972 1863 1748 1860
8 1859 1747 1862 1973 1745 1629 1748 1860
8 1875 1768 1864 1977 1761 1651 1750 1865
8 1755 1644 1761 1869 1866 1751 1865 1978
8 1867 1760 1874 1979 1754 1646 1763 1868
8 1774 1658 1775 1887 1867 1760 1874 1979
8 1870 1766 1648 1756 1980 1877 1763 1868
8 1872 1762 1875 1981 1758 1645 1761 1869
8 1757 1649 1766 1870 1871 1765 1880 1982
8 1983 1879 1764 1873 1871 1765 1647 1759
8 1873 1764 1876 1984 1759 1647 1762 1872
8 1877 1773 1655 1763 1986 1881 1767 1874
8 1775 1659 1776 1888 1874 1767 1881 1986
8 1876 1769 1882 1987 1762 1652 1768 1875
8 1878 1770 1883 1988 1764 1653 1769 1876
8 1880 1772 1656 1766 1989 1886 1773 1877
8 1878 1770 1653 1764 1990 1884 1771 1879
8 1765 1654 1772 1880 1879 1771 1885 1991
8 1778 1664 1779 1890 1887 1775 1888 1997
8 1998 1889 1776 1888 1891 1780 1665 1779
8 1893 1782 1891 2000 1781 1668 1779 1890
8 1894 1783 1892 2001 1782 1669 1780 1891
8 1784 1671 1785 1896 1893 1782 1894 2003
8 1897 1786 1895 2004 1785 1672 1783 1894
8 1790 1675 1789 1904 1896 1785 1897 2006
8 1901 1787 1898 2007 1789 1673 1786 1897
8 1903 1788 1900 2013 1789 1673 1787 1901
8 1792 1676 1791 1906 1903 1788 1902 2016
8 1907 1792 1903 2017 1795 1678 1789 1904
8 1906 1791 1677 1794 2019 1905 1793 1909
8 1907 1792 1678 1795 2020 1906 1794 1910
8 1797 1679 1796 1912 1909 1793 1908 2022
8 1798 1680 1797 1913 1910 1794 1909 2023
8 1800 1682 1799 1915 1912 1796 1911 2025
8 1801 1683 1800 1916 1913 1797 1912 2026
8 1803 1687 1804 1918 1915 1799 1914 2028
8 1802 1686 1803 1917 1916 1800 1915 2029
8 1805 1689 1806 1920 1917 1803 1918 2030
8 1806 1690 1807 1921 1918 1804 1919 2031
8 1808 1692 1809 1922 1920 1806 1921 2032
8 1939 1826 1924 2037 1829 1713 1811 1926
8 1926 1811 1925 2039 1813 1697 1812 1928
8 1944 1829 1926 2040 1828 1712 1813 1929
8 1928 1812 1927 2042 1815 1698 1814 1931
8 1929 1813 1928 2043 1816 1699 1815 1932
8 1931 1814 1930 2044 1818 1700 1817 1933
8 1932 1815 1931 2045 1819 1701 1818 1934
8 1934 1818 1933 2046 1821 1704 1820 1935
8 2048 1936 1823 1937 1977 1864 1750 1865
8 1950 1833 1715 1834 2048 1936 1823 1937
8 1938 1824 1751 1866 2049 1937 1865 1978
8 1835 1716 1824 1938 1951 1834 1937 2049
8 1939 1826 1713 1829 2053 1942 1831 1946
8 1940 1827 1923 2035 2053 1942 1826 1939
8 1945 1830 1946 2058 1828 1712 1829 1944
8 2059 1947 1830 1945 1966 1849 1733 1851
8 1947 1832 1730 1849 2060 1948 1848 1965
8 1947 1832 1948 2060 1830 1714 1831 1946
8 1959 1847 1729 1843 2063 1949 1833 1950
8 1952 1843 1725 1836 2064 1950 1834 1951
8 1836 1725 1843 1952 1953 1842 1958 2066
8 1953 1842 1957 2067 1839 1724 1841 1955
8 1841 1955 1838 1723 1956 2068 1954 1840
8 2068 1956 1859 1967 1954 1840 1743 1852
8 1956 1844 1960 2069 1859 1747 1862 1973
8 1845 1957 1841 1727 1960 2069 1956 1844
8 1728 1842 1957 1845 1846 1958 2071 1961
8 1962 2072 1959 1847 1846 1958 1843 1729
8 1971 1861 1964 2077 1857 1746 1848 1965
8 1854 1741 1857 1969 1966 1849 1965 2078
8 1967 1859 1973 2079 1853 1745 1860 1968
8 1970 1858 1744 1856 2080 1972 1860 1968
8 1969 1857 1742 1855 2081 1971 1858 1970
8 1971 1861 1749 1858 2082 1974 1863 1972
8 1973 1862 1975 2083 1860 1748 1863 1972
8 1987 1882 1976 2086 1875 1768 1864 1977
8 1981 1875 1977 2087 1869 1761 1865 1978
8 1980 1877 1763 1868 2088 1986 1874 1979
8 1887 1775 1888 1997 1979 1874 1986 2088
8 1880 1982 2089 1989 1766 1870 1980 1877
8 1984 1876 1987 2090 1872 1762 1875 1981
8 1765 1871 1983 1879 1880 1982 2091 1991
8 1985 1878 1764 1873 2092 1990 1879 1983
8 1985 1878 1988 2093 1873 1764 1876 1984
8 2094 1992 1881 1986 1998 1889 1776 1888
8 1986 1881 1992 2094 1877 1773 1886 1989
8 1988 1883 1993 2095 1876 1769 1882 1987
8 1878 1770 1884 1990 1988 1883 1994 2096
8 1991 1885 1772 1880 2097 1996 1886 1989
8 1879 1771 1885 1991 1990 1884 1995 2098
8 2103 1998 1888 1997 2000 1891 1779 1890
8 2104 1999 1889 1998 2001 1892 1780 1891
8 2003 1894 2001 2106 1893 1782 1891 2000
8 2004 1895 2002 2107 1894 1783 1892 2001
8 2006 1897 2004 2109 1896 1785 1894 2003
8 2007 1898 2005 2110 1897 1786 1895 2004
8 2014 1901 2007 2112 1904 1789 1897 2006
8 2011 1899 2008 2113 1901 1787 1898 2007
8 2119 2010 1899 2011 2013 1900 1787 1901
8 2016 1902 2012 2122 1903 1788 1900 2013
8 2017 1903 2013 2123 1904 1789 1901 2014
8 1906 1791 1905 2019 2016 1902 2015 2125
8 1907 1792 1906 2020 2017 1903 2016 2126
8 1909 1793 1908 2022 2019 1905 2018 2128
8 2020 1906 1794 1910 2129 2019 1909 2023
8 1912 1796 1911 2025 2022 1908 2021 2131
8 1913 1797 1912 2026 2023 1909 2022 2132
8 1915 1799 1914 2028 2025 1911 2024 2134
8 1916 1800 1915 2029 2026 1912 2025 2135
8 1918 1804 1919 2031 2028 1914 2027 2136
8 1917 1803 1918 2030 2029 1915 2028 2137
8 1920 1806 1921 2032 2030 1918 2031 2138
8 1940 1827 1941 2054 2035 1923 2033 2140
8 2035 1923 2034 2143 1939 1826 1924 2037
8 2037 1924 2036 2146 1926 1811 1925 2039
8 2051 1939 2037 2147 1944 1829 1926 2040
8 2039 1925 2038 2149 1928 1812 1927 2042
8 2040 1926 2039 2150 1929 1813 1928 2043
8 2042 1927 2041 2151 1931 1814 1930 2044
8 2043 1928 2042 2152 1932 1815 1931 2045
8 2045 1931 2044 2153 1934 1818 1933 2046
8 2155 2047 1936 2048 2086 1976 1864 1977
8 2063 1949 1833 1950 2155 2047 1936 2048
8 2156 2048 1937 2049 2087 1977 1865 1978
8 2064 1950 1834 1951 2156 2048 1937 2049
8 2051 1939 1829 1944 2160 2053 1946 2058
8 2052 1940 2035 2144 2160 2053 1939 2051
8 2053 1942 1831 1946 2163 2057 1948 2060
8 2055 1943 1827 1940 2163 2057 1942 2053
8 2055 1943 2056 2164 1940 1827 1941 2054
8 2059 1947 1849 1966 2167 2060 1965 2078
8 2059 1947 2060 2167 1945 1830 1946 2058
8 2077 1964 2061 2168 1965 1848 1948 2060
8 2070 1963 1847 1959 2170 2062 1949 2063
8 2065 1959 1843 1952 2171 2063 1950 2064
8 2173 2072 1958 2066 2065 1959 1843 1952
8 1953 1842 1958 2066 2067 1957 2071 2174
8 2068 1956 2069 2175 1967 1859 1973 2079
8 2067 1957 2069 2175 1955 1841 1956 2068
8 1845 1957 2069 1960 1961 2071 2176 2073
8 2069 1960 2073 2176 1973 1862 1975 2083
8 2070 1963 2075 2177 1959 1847 1962 2072
8 1846 1958 2071 1961 1962 2072 2178 2074
8 2077 1964 1861 1971 2182 2076 1974 2082
8 2081 1971 2077 2183 1969 1857 1965 2078
8 2079 1973 2083 2184 1968 1860 1972 2080
8 2081 1971 1858 1970 2185 2082 1972 2080
8 2083 1975 2084 2186 1972 1863 1974 2082
8 2086 1976 1882 1987 2189 2085 1993 2095
8 2090 1987 2086 2190 1981 1875 1977 2087
8 2191 2094 1986 2088 2103 1998 1888 1997
8 2088 1986 2094 2191 1980 1877 1989 2089
8 1991 2091 2192 2097 1880 1982 2089 1989
8 2093 1988 2095 2193 1984 1876 1987 2090
8 1879 1983 2092 1990 1991 2091 2194 2098
8 1985 1878 1990 2092 2093 1988 2096 2195
8 2097 1996 1886 1989 2196 2099 1992 2094
8 2196 2099 1992 2094 2104 1999 1889 1998
8 1994 2096 1988 1883 2100 2197 2095 1993
8 2096 1994 1884 1990 2198 2101 1995 2098
8 1995 2098 2199 2102 1885 1991 2097 1996
8 2203 2104 1998 2103 2106 2001 1891 2000
8 2107 2002 2105 2204 2001 1892 1999 2104
8 2109 2004 2107 2206 2003 1894 2001 2106
8 2110 2005 2108 2207 2004 1895 2002 2107
8 2112 2007 2110 2209 2006 1897 2004 2109
8 2113 2008 2111 2210 2007 1898 2005 2110
8 2120 2011 2113 2212 2014 1901 2007 2112
8 2117 2009 2114 2213 2011 1899 2008 2113
8 2219 2116 2009 2117 2119 2010 1899 2011
8 2222 2118 2010 2119 2122 2012 1900 2013
8 2223 2119 2011 2120 2123 2013 1901 2014
8 2016 1902 2015 2125 2122 2012 2121 2225
8 2126 2016 2122 2226 2017 1903 2013 2123
8 2019 1905 2018 2128 2125 2015 2124 2228
8 2020 1906 2019 2129 2126 2016 2125 2229
8 2022 1908 2021 2131 2128 2018 2127 2231
8 2023 1909 2022 2132 2129 2019 2128 2232
8 2025 1911 2024 2134 2131 2021 2130 2234
8 2026 1912 2025 2135 2132 2022 2131 2235
8 1914 2028 2134 2024 2027 2136 2236 2133
8 2029 1915 2028 2137 2135 2025 2134 2237
8 2030 1918 2031 2138 2137 2028 2136 2238
8 2157 2050 2139 2240 2054 1941 2033 2140
8 2052 1940 2054 2161 2144 2035 2140 2242
8 2140 2033 2141 2243 2035 1923 2034 2143
8 2143 2034 2142 2246 2037 1924 2036 2146
8 2144 2035 2143 2247 2051 1939 2037 2147
8 2146 2036 2145 2249 2039 1925 2038 2149
8 2147 2037 2146 2250 2040 1926 2039 2150
8 2149 2038 2148 2251 2042 1927 2041 2151
8 2150 2039 2149 2252 2043 1928 2042 2152
8 2152 2042 2151 2253 2045 1931 2044 2153
8 2255 2154 2047 2155 2189 2085 1976 2086
8 2170 2062 1949 2063 2255 2154 2047 2155
8 2256 2155 2048 2156 2190 2086 1977 2087
8 2171 2063 1950 2064 2256 2155 2048 2156
8 2258 2159 2050 2157 2164 2056 1941 2054
8 2160 2053 1946 2058 2262 2163 2060 2167
8 2162 2055 1940 2052 2262 2163 2053 2160
8 2162 2055 2164 2263 2052 1940 2054 2161
8 2163 2057 1948 2060 2264 2165 2061 2168
8 2055 1943 2057 2163 2164 2056 2165 2264
8 2182 2076 2166 2268 2077 1964 2061 2168
8 2183 2077 2168 2269 2078 1965 2060 2167
8 2070 1963 2062 2170 2177 2075 2169 2271
8 2172 2070 1959 2065 2272 2170 2063 2171
8 2172 2070 2177 2273 2065 1959 2072 2173
8 2066 1958 2072 2173 2174 2071 2178 2274
8 2067 1957 2071 2174 2175 2069 2176 2275
8 2175 2069 2176 2275 2079 1973 2083 2184
8 2071 1961 2074 2178 2176 2073 2179 2276
8 2176 2073 2179 2276 2083 1975 2084 2186
8 2072 1962 2075 2177 2178 2074 2180 2277
8 2182 2076 1974 2082 2280 2181 2084 2186
8 2183 2077 1971 2081 2281 2182 2082 2185
8 2184 2083 2186 2282 2080 1972 2082 2185
8 2189 2085 1993 2095 2285 2188 2100 2197
8 2190 2086 1987 2090 2286 2189 2095 2193
8 2192 2097 1989 2089 2287 2196 2094 2191
8 2287 2196 2094 2191 2203 2104 1998 2103
8 2194 2098 1991 2091 2288 2199 2097 2192
8 2195 2096 2197 2289 2093 1988 2095 2193
8 2096 2195 2290 2198 1990 2092 2194 2098
8 2097 1996 2099 2196 2199 2102 2200 2291
8 2196 2099 1999 2104 2291 2200 2105 2204
8 2100 2197 2292 2201 1994 2096 2198 2101
8 1995 2098 2198 2101 2102 2199 2293 2202
8 2206 2107 2204 2296 2106 2001 2104 2203
8 2207 2108 2205 2297 2107 2002 2105 2204
8 2209 2110 2207 2299 2109 2004 2107 2206
8 2210 2111 2208 2300 2110 2005 2108 2207
8 2212 2113 2210 2302 2112 2007 2110 2209
8 2213 2114 2211 2303 2113 2008 2111 2210
8 2220 2117 2213 2305 2120 2011 2113 2212
8 2216 2115 2214 2306 2117 2009 2114 2213
8 2216 2115 2009 2117 2311 2217 2116 2219
8 2219 2116 2010 2119 2314 2218 2118 2222
8 2315 2219 2117 2220 2223 2119 2011 2120
8 2122 2012 2121 2225 2222 2118 2221 2317
8 2318 2222 2119 2223 2226 2122 2013 2123
8 2125 2015 2124 2228 2225 2121 2224 2320
8 2126 2016 2125 2229 2226 2122 2225 2321
8 2128 2018 2127 2231 2228 2124 2227 2323
8 2129 2019 2128 2232 2229 2125 2228 2324
8 2131 2021 2130 2234 2231 2127 2230 2326
8 2132 2022 2131 2235 2232 2128 2231 2327
8 2134 2024 2133 2236 2234 2130 2233 2328
8 2135 2025 2134 2237 2235 2131 2234 2329
8 2137 2028 2136 2238 2237 2134 2236 2330
8 2157 2050 2158 2259 2240 2139 2239 2332
8 2257 2157 2240 2334 2161 2054 2140 2242
8 2240 2139 2241 2335 2140 2033 2141 2243
8 2242 2140 2243 2337 2144 2035 2143 2247
8 2243 2141 2244 2338 2143 2034 2142 2246
8 2246 2142 2245 2341 2146 2036 2145 2249
8 2247 2143 2246 2342 2147 2037 2146 2250
8 2249 2145 2248 2343 2149 2038 2148 2251
8 2250 2146 2249 2344 2150 2039 2149 2252
8 2252 2149 2251 2345 2152 2042 2151 2253
8 2169 2271 2347 2254 2062 2170 2255 2154
8 2189 2085 2188 2285 2255 2154 2254 2347
8 2348 2255 2155 2256 2286 2189 2086 2190
8 2272 2170 2063 2171 2348 2255 2155 2256
8 2349 2258 2157 2257 2263 2164 2054 2161
8 2258 2159 2261 2351 2157 2050 2158 2259
8 2258 2159 2056 2164 2351 2261 2165 2264
8 2262 2163 2060 2167 2355 2264 2168 2269
8 2162 2055 2163 2262 2263 2164 2264 2355
8 2357 2266 2165 2264 2268 2166 2061 2168
8 2268 2166 2076 2182 2361 2267 2181 2280
8 2281 2182 2268 2362 2183 2077 2168 2269
8 2271 2169 2270 2364 2177 2075 2180 2277
8 2172 2070 2170 2272 2273 2177 2271 2365
8 2072 2173 2274 2178 2177 2273 2366 2277
8 2071 2174 2275 2176 2178 2274 2367 2276
8 2275 2176 2276 2367 2184 2083 2186 2282
8 2283 2187 2084 2186 2368 2278 2179 2276
8 2178 2074 2180 2277 2276 2179 2278 2368
8 2283 2187 2279 2370 2186 2084 2181 2280
8 2281 2182 2082 2185 2371 2280 2186 2282
8 2188 2285 2374 2284 2100 2197 2292 2201
8 2286 2189 2095 2193 2375 2285 2197 2289
8 2192 2097 2196 2287 2288 2199 2291 2376
8 2287 2196 2104 2203 2376 2291 2204 2296
8 2194 2098 2199 2288 2290 2198 2293 2377
8 2289 2197 2096 2195 2378 2292 2198 2290
8 2291 2200 2105 2204 2379 2294 2205 2297
8 2199 2102 2200 2291 2293 2202 2294 2379
8 2198 2101 2202 2293 2292 2201 2295 2380
8 2299 2207 2297 2383 2206 2107 2204 2296
8 2300 2208 2298 2384 2207 2108 2205 2297
8 2302 2210 2300 2386 2209 2110 2207 2299
8 2303 2211 2301 2387 2210 2111 2208 2300
8 2305 2213 2303 2389 2212 2113 2210 2302
8 2306 2214 2304 2390 2213 2114 2211 2303
8 2310 2216 2306 2392 2220 2117 2213 2305
8 2308 2215 2307 2393 2216 2115 2214 2306
8 2308 2215 2115 2216 2396 2309 2217 2311
8 2310 2216 2117 2220 2398 2311 2219 2315
8 2311 2217 2116 2219 2399 2312 2218 2314
8 2314 2218 2118 2222 2402 2313 2221 2317
8 2315 2219 2119 2223 2403 2314 2222 2318
8 2225 2121 2224 2320 2317 2221 2316 2405
8 2226 2122 2225 2321 2318 2222 2317 2406
8 2228 2124 2227 2323 2320 2224 2319 2408
8 2229 2125 2228 2324 2321 2225 2320 2409
8 2231 2127 2230 2326 2323 2227 2322 2411
8 2232 2128 2231 2327 2324 2228 2323 2412
8 2234 2130 2233 2328 2326 2230 2325 2413
8 2235 2131 2234 2329 2327 2231 2326 2414
8 2237 2134 2236 2330 2329 2234 2328 2415
8 2259 2158 2260 2352 2332 2239 2331 2417
8 2257 2157 2259 2350 2334 2240 2332 2419
8 2240 2139 2239 2332 2335 2241 2333 2420
8 2334 2240 2335 2422 2242 2140 2243 2337
8 2335 2241 2336 2423 2243 2141 2244 2338
8 2337 2243 2338 2425 2247 2143 2246 2342
8 2338 2244 2339 2426 2246 2142 2245 2341
8 2341 2245 2340 2428 2249 2145 2248 2343
8 2342 2246 2341 2429 2250 2146 2249 2344
8 2344 2249 2343 2430 2252 2149 2251 2345
8 2188 2285 2347 2254 2284 2374 2432 2346
8 2347 2254 2346 2432 2271 2169 2270 2364
8 2365 2271 2170 2272 2433 2347 2255 2348
8 2286 2189 2285 2375 2348 2255 2347 2433
8 2349 2258 2351 2435 2257 2157 2259 2350
8 2349 2258 2164 2263 2435 2351 2264 2355
8 2259 2158 2261 2351 2352 2260 2354 2437
8 2356 2265 2354 2437 2264 2165 2261 2351
8 2441 2357 2264 2355 2362 2268 2168 2269
8 2356 2265 2165 2264 2442 2358 2266 2357
8 2443 2359 2266 2357 2361 2267 2166 2268
8 2370 2279 2360 2446 2280 2181 2267 2361
8 2362 2268 2182 2281 2447 2361 2280 2371
8 2180 2277 2368 2278 2270 2364 2449 2363
8 2271 2365 2273 2177 2364 2450 2366 2277
8 2372 2283 2186 2282 2451 2368 2276 2367
8 2178 2274 2367 2276 2277 2366 2451 2368
8 2283 2187 2278 2368 2370 2279 2369 2452
8 2372 2283 2370 2453 2282 2186 2280 2371
8 2284 2374 2455 2373 2201 2292 2380 2295
8 2375 2285 2197 2289 2456 2374 2292 2378
8 2376 2291 2204 2296 2457 2379 2297 2383
8 2288 2199 2291 2376 2377 2293 2379 2457
8 2198 2290 2378 2292 2293 2377 2458 2380
8 2293 2202 2294 2379 2380 2295 2381 2459
8 2384 2298 2381 2459 2297 2205 2294 2379
8 2386 2300 2384 2463 2299 2207 2297 2383
8 2387 2301 2385 2464 2300 2208 2298 2384
8 2389 2303 2387 2466 2302 2210 2300 2386
8 2390 2304 2388 2467 2303 2211 2301 2387
8 2392 2306 2390 2469 2305 2213 2303 2389
8 2393 2307 2391 2470 2306 2214 2304 2390
8 2395 2308 2393 2472 2310 2216 2306 2392
8 2308 2215 2309 2396 2393 2307 2394 2473
8 2395 2308 2216 2310 2475 2396 2311 2398
8 2396 2309 2217 2311 2476 2397 2312 2399
8 2398 2311 2219 2315 2478 2399 2314 2403
8 2399 2312 2218 2314 2479 2400 2313 2402
8 2317 2221 2316 2405 2402 2313 2401 2482
8 2403 2314 2222 2318 2483 2402 2317 2406
8 2320 2224 2319 2408 2405 2316 2404 2485
8 2321 2225 2320 2409 2406 2317 2405 2486
8 2323 2227 2322 2411 2408 2319 2407 2488
8 2324 2228 2323 2412 2409 2320 2408 2489
8 2326 2230 2325 2413 2411 2322 2410 2490
8 2327 2231 2326 2414 2412 2323 2411 2491
8 2329 2234 2328 2415 2414 2326 2413 2492
8 2417 2331 2260 2352 2494 2416 2353 2438
8 2350 2259 2352 2436 2419 2332 2417 2496
8 2332 2239 2331 2417 2420 2333 2418 2497
8 2334 2240 2332 2419 2422 2335 2420 2499
8 2420 2333 2421 2500 2335 2241 2336 2423
8 2422 2335 2423 2502 2337 2243 2338 2425
8 2423 2336 2424 2503 2338 2244 2339 2426
8 2425 2338 2426 2505 2342 2246 2341 2429
8 2426 2339 2427 2506 2341 2245 2340 2428
8 2429 2341 2428 2507 2344 2249 2343 2430
8 2432 2346 2284 2374 2509 2431 2373 2455
8 2432 2346 2431 2509 2364 2270 2363 2449
8 2375 2285 2374 2456 2433 2347 2432 2510
8 2347 2433 2365 2271 2432 2510 2450 2364
8 2350 2259 2351 2435 2436 2352 2437 2514
8 2440 2356 2437 2514 2355 2264 2351 2435
8 2352 2260 2354 2437 2438 2353 2439 2516
8 2356 2265 2358 2442 2437 2354 2439 2516
8 2440 2356 2264 2355 2518 2442 2357 2441
8 2519 2443 2357 2441 2447 2361 2268 2362
8 2443 2359 2444 2520 2357 2266 2358 2442
8 2443 2359 2267 2361 2520 2444 2360 2446
8 2446 2360 2279 2370 2523 2445 2369 2452
8 2453 2370 2446 2524 2371 2280 2361 2447
8 2449 2363 2448 2525 2368 2278 2369 2452
8 2366 2277 2364 2450 2451 2368 2449 2526
8 2372 2283 2368 2451 2453 2370 2452 2527
8 2455 2373 2295 2380 2529 2454 2382 2460
8 2456 2374 2292 2378 2530 2455 2380 2458
8 2377 2293 2379 2457 2458 2380 2459 2531
8 2463 2384 2459 2531 2383 2297 2379 2457
8 2533 2461 2382 2460 2459 2381 2295 2380
8 2464 2385 2461 2533 2384 2298 2381 2459
8 2466 2387 2464 2537 2386 2300 2384 2463
8 2467 2388 2465 2538 2387 2301 2385 2464
8 2469 2390 2467 2540 2389 2303 2387 2466
8 2470 2391 2468 2541 2390 2304 2388 2467
8 2472 2393 2470 2543 2392 2306 2390 2469
8 2393 2307 2394 2473 2470 2391 2471 2544
8 2395 2308 2396 2475 2472 2393 2473 2546
8 2396 2309 2397 2476 2473 2394 2474 2547
8 2475 2396 2311 2398 2549 2476 2399 2478
8 2476 2397 2312 2399 2550 2477 2400 2479
8 2478 2399 2314 2403 2552 2479 2402 2483
8 2479 2400 2313 2402 2553 2480 2401 2482
8 2405 2316 2404 2485 2482 2401 2481 2556
8 2406 2317 2405 2486 2483 2402 2482 2557
8 2408 2319 2407 2488 2485 2404 2484 2559
8 2409 2320 2408 2489 2486 2405 2485 2560
8 2411 2322 2410 2490 2488 2407 2487 2561
8 2412 2323 2411 2491 2489 2408 2488 2562
8 2414 2326 2413 2492 2491 2411 2490 2563
8 2513 2434 2493 2565 2438 2353 2416 2494
8 2496 2417 2352 2436 2567 2494 2438 2515
8 2494 2416 2495 2568 2417 2331 2418 2497
8 2419 2332 2417 2496 2499 2420 2497 2570
8 2497 2418 2498 2571 2420 2333 2421 2500
8 2499 2420 2500 2573 2422 2335 2423 2502
8 2500 2421 2501 2574 2423 2336 2424 2503
8 2502 2423 2503 2576 2425 2338 2426 2505
8 2503 2424 2504 2577 2426 2339 2427 2506
8 2505 2426 2506 2578 2429 2341 2428 2507
8 2509 2431 2373 2455 2580 2508 2454 2529
8 2509 2431 2508 2580 2449 2363 2448 2525
8 2432 2510 2581 2509 2374 2456 2530 2455
8 2432 2510 2450 2364 2509 2581 2526 2449
8 2583 2511 2434 2513 2516 2439 2353 2438
8 2436 2352 2437 2514 2515 2438 2516 2588
8 2440 2356 2442 2518 2514 2437 2516 2588
8 2442 2358 2444 2520 2516 2439 2517 2589
8 2519 2443 2520 2591 2441 2357 2442 2518
8 2519 2443 2361 2447 2591 2520 2446 2524
8 2446 2360 2445 2523 2520 2444 2521 2592
8 2525 2448 2522 2593 2452 2369 2445 2523
8 2524 2446 2370 2453 2594 2523 2452 2527
8 2526 2449 2525 2595 2451 2368 2452 2527
8 2534 2462 2528 2597 2460 2382 2454 2529
8 2530 2455 2380 2458 2598 2529 2460 2532
8 2599 2533 2460 2532 2531 2459 2380 2458
8 2537 2464 2533 2599 2463 2384 2459 2531
8 2534 2462 2382 2460 2601 2535 2461 2533
8 2538 2465 2535 2601 2464 2385 2461 2533
8 2540 2467 2538 2604 2466 2387 2464 2537
8 2541 2468 2539 2605 2467 2388 2465 2538
8 2543 2470 2541 2607 2469 2390 2467 2540
8 2470 2391 2471 2544 2541 2468 2542 2608
8 2472 2393 2473 2546 2543 2470 2544 2610
8 2473 2394 2474 2547 2544 2471 2545 2611
8 2475 2396 2476 2549 2546 2473 2547 2613
8 2476 2397 2477 2550 2547 2474 2548 2614
8 2549 2476 2399 2478 2616 2550 2479 2552
8 2479 2400 2480 2553 2550 2477 2551 2617
8 2552 2479 2402 2483 2619 2553 2482 2557
8 2482 2401 2481 2556 2553 2480 2554 2620
8 2485 2404 2484 2559 2556 2481 2555 2623
8 2486 2405 2485 2560 2557 2482 2556 2624
8 2488 2407 2487 2561 2559 2484 2558 2625
8 2489 2408 2488 2562 2560 2485 2559 2626
8 2491 2411 2490 2563 2562 2488 2561 2627
8 2513 2434 2512 2585 2565 2493 2564 2630
8 2586 2513 2565 2632 2515 2438 2494 2567
8 2565 2493 2566 2633 2494 2416 2495 2568
8 2567 2494 2568 2635 2496 2417 2497 2570
8 2568 2495 2569 2636 2497 2418 2498 2571
8 2570 2497 2571 2638 2499 2420 2500 2573
8 2571 2498 2572 2639 2500 2421 2501 2574
8 2573 2500 2574 2641 2502 2423 2503 2576
8 2574 2501 2575 2642 2503 2424 2504 2577
8 2576 2503 2577 2643 2505 2426 2506 2578
8 2597 2528 2579 2645 2529 2454 2508 2580
8 2580 2508 2579 2645 2525 2448 2522 2593
8 2581 2509 2455 2530 2646 2580 2529 2598
8 2581 2509 2580 2646 2526 2449 2525 2595
8 2583 2511 2582 2648 2513 2434 2512 2585
8 2583 2511 2439 2516 2648 2582 2517 2589
8 2649 2583 2513 2586 2588 2516 2438 2515
8 2589 2517 2444 2520 2653 2587 2521 2592
8 2518 2442 2520 2591 2588 2516 2589 2654
8 2593 2522 2590 2655 2523 2445 2521 2592
8 2524 2446 2523 2594 2591 2520 2592 2656
8 2595 2525 2593 2657 2527 2452 2523 2594
8 2602 2536 2596 2659 2534 2462 2528 2597
8 2600 2534 2597 2660 2532 2460 2529 2598
8 2600 2534 2460 2532 2661 2601 2533 2599
8 2604 2538 2601 2661 2537 2464 2533 2599
8 2602 2536 2462 2534 2663 2603 2535 2601
8 2601 2535 2465 2538 2663 2603 2539 2605
8 2607 2541 2605 2665 2540 2467 2538 2604
8 2608 2542 2606 2666 2541 2468 2539 2605
8 2543 2470 2544 2610 2607 2541 2608 2668
8 2544 2471 2545 2611 2608 2542 2609 2669
8 2546 2473 2547 2613 2610 2544 2611 2671
8 2547 2474 2548 2614 2611 2545 2612 2672
8 2549 2476 2550 2616 2613 2547 2614 2674
8 2550 2477 2551 2617 2614 2548 2615 2675
8 2552 2479 2553 2619 2616 2550 2617 2677
8 2553 2480 2554 2620 2617 2551 2618 2678
8 2557 2482 2556 2624 2619 2553 2620 2680
8 2556 2481 2555 2623 2620 2554 2621 2681
8 2559 2484 2558 2625 2623 2555 2622 2683
8 2560 2485 2559 2626 2624 2556 2623 2684
8 2562 2488 2561 2627 2626 2559 2625 2685
8 2690 2629 2564 2630 2650 2584 2512 2585
8 2586 2513 2585 2651 2632 2565 2630 2691
8 2630 2564 2631 2692 2565 2493 2566 2633
8 2632 2565 2633 2694 2567 2494 2568 2635
8 2633 2566 2634 2695 2568 2495 2569 2636
8 2635 2568 2636 2697 2570 2497 2571 2638
8 2636 2569 2637 2698 2571 2498 2572 2639
8 2638 2571 2639 2700 2573 2500 2574 2641
8 2639 2572 2640 2701 2574 2501 2575 2642
8 2641 2574 2642 2702 2576 2503 2577 2643
8 2597 2528 2596 2659 2645 2579 2644 2704
8 2645 2579 2644 2704 2593 2522 2590 2655
8 2660 2597 2645 2705 2598 2529 2580 2646
8 2646 2580 2645 2705 2595 2525 2593 2657
8 2650 2584 2512 2585 2707 2647 2582 2648
8 2648 2582 2517 2589 2707 2647 2587 2653
8 2649 2583 2648 2708 2586 2513 2585 2651
8 2649 2583 2516 2588 2708 2648 2589 2654
8 2655 2590 2652 2710 2592 2521 2587 2653
8 2654 2589 2520 2591 2711 2653 2592 2656
8 2657 2593 2655 2712 2594 2523 2592 2656
8 2602 2536 2603 2663 2659 2596 2658 2714
8 2662 2602 2659 2715 2600 2534 2597 2660
8 2662 2602 2534 2600 2717 2663 2601 2661
8 2661 2601 2538 2604 2717 2663 2605 2665
8 2666 2606 2664 2718 2605 2539 2603 2663
8 2668 2608 2666 2720 2607 2541 2605 2665
8 2608 2542 2609 2669 2666 2606 2667 2721
8 2610 2544 2611 2671 2668 2608 2669 2723
8 2611 2545 2612 2672 2669 2609 2670 2724
8 2613 2547 2614 2674 2671 2611 2672 2726
8 2614 2548 2615 2675 2672 2612 2673 2727
8 2616 2550 2617 2677 2674 2614 2675 2729
8 2617 2551 2618 2678 2675 2615 2676 2730
8 2619 2553 2620 2680 2677 2617 2678 2732
8 2620 2554 2621 2681 2678 2618 2679 2733
8 2624 2556 2623 2684 2680 2620 2681 2735
8 2681 2621 2555 2623 2736 2682 2622 2683
8 2626 2559 2625 2685 2684 2623 2683 2737
8 2688 2628 2584 2650 2740 2686 2647 2707
8 2688 2628 2687 2742 2650 2584 2629 2690
8 2690 2629 2689 2745 2630 2564 2631 2692
8 2746 2690 2630 2691 2709 2650 2585 2651
8 2691 2630 2692 2747 2632 2565 2633 2694
8 2692 2631 2693 2748 2633 2566 2634 2695
8 2694 2633 2695 2750 2635 2568 2636 2697
8 2695 2634 2696 2751 2636 2569 2637 2698
8 2697 2636 2698 2753 2638 2571 2639 2700
8 2698 2637 2699 2754 2639 2572 2640 2701
8 2700 2639 2701 2755 2641 2574 2642 2702
8 2659 2596 2658 2714 2704 2644 2703 2757
8 2704 2644 2703 2757 2655 2590 2652 2710
8 2660 2597 2659 2715 2705 2645 2704 2758
8 2705 2645 2704 2758 2657 2593 2655 2712
8 2759 2706 2647 2707 2710 2652 2587 2653
8 2709 2650 2585 2651 2760 2707 2648 2708
8 2708 2648 2589 2654 2760 2707 2653 2711
8 2712 2655 2710 2761 2656 2592 2653 2711
8 2763 2713 2658 2714 2718 2664 2603 2663
8 2662 2602 2663 2717 2715 2659 2714 2764
8 2720 2666 2718 2767 2665 2605 2663 2717
8 2768 2719 2664 2718 2721 2667 2606 2666
8 2668 2608 2669 2723 2720 2666 2721 2770
8 2669 2609 2670 2724 2721 2667 2722 2771
8 2671 2611 2672 2726 2723 2669 2724 2773
8 2672 2612 2673 2727 2724 2670 2725 2774
8 2674 2614 2675 2729 2726 2672 2727 2776
8 2675 2615 2676 2730 2727 2673 2728 2777
8 2677 2617 2678 2732 2729 2675 2730 2779
8 2678 2618 2679 2733 2730 2676 2731 2780
8 2680 2620 2681 2735 2732 2678 2733 2782
8 2733 2679 2621 2681 2783 2734 2682 2736
8 2735 2681 2623 2684 2784 2736 2683 2737
8 2740 2686 2647 2707 2787 2738 2706 2759
8 2688 2628 2686 2740 2742 2687 2739 2789
8 2743 2688 2650 2709 2790 2740 2707 2760
8 2742 2687 2741 2792 2690 2629 2689 2745
8 2743 2688 2742 2793 2709 2650 2690 2746
8 2745 2689 2744 2795 2692 2631 2693 2748
8 2746 2690 2745 2796 2691 2630 2692 2747
8 2747 2692 2748 2797 2694 2633 2695 2750
8 2748 2693 2749 2798 2695 2634 2696 2751
8 2750 2695 2751 2800 2697 2636 2698 2753
8 2751 2696 2752 2801 2698 2637 2699 2754
8 2753 2698 2754 2802 2700 2639 2701 2755
8 2763 2713 2756 2804 2714 2658 2703 2757
8 2759 2706 2652 2710 2804 2756 2703 2757
8 2715 2659 2714 2764 2758 2704 2757 2805
8 2758 2704 2757 2805 2712 2655 2710 2761
8 2806 2759 2707 2760 2761 2710 2653 2711
8 2765 2716 2762 2808 2718 2664 2713 2763
8 2809 2763 2714 2764 2767 2718 2663 2717
8 2765 2716 2664 2718 2811 2766 2719 2768
8 2813 2768 2718 2767 2770 2721 2666 2720
8 2814 2769 2719 2768 2771 2722 2667 2721
8 2723 2669 2724 2773 2770 2721 2771 2816
8 2724 2670 2725 2774 2771 2722 2772 2817
8 2726 2672 2727 2776 2773 2724 2774 2819
8 2727 2673 2728 2777 2774 2725 2775 2820
8 2729 2675 2730 2779 2776 2727 2777 2822
8 2730 2676 2731 2780 2777 2728 2778 2823
8 2732 2678 2733 2782 2779 2730 2780 2825
8 2780 2731 2679 2733 2826 2781 2734 2783
8 2782 2733 2681 2735 2827 2783 2736 2784
8 2830 2785 2738 2787 2804 2756 2706 2759
8 2789 2739 2686 2740 2832 2786 2738 2787
8 2790 2740 2707 2760 2833 2787 2759 2806
8 2742 2687 2739 2789 2792 2741 2788 2835
8 2743 2688 2740 2790 2793 2742 2789 2836
8 2792 2741 2791 2838 2745 2689 2744 2795
8 2793 2742 2792 2839 2746 2690 2745 2796
8 2795 2744 2794 2841 2748 2693 2749 2798
8 2796 2745 2795 2842 2747 2692 2748 2797
8 2797 2748 2798 2843 2750 2695 2751 2800
8 2798 2749 2799 2844 2751 2696 2752 2801
8 2800 2751 2801 2845 2753 2698 2754 2802
8 2808 2762 2803 2847 2763 2713 2756 2804
8 2809 2763 2804 2848 2764 2714 2757 2805
8 2806 2759 2710 2761 2848 2804 2757 2805
8 2765 2716 2766 2811 2808 2762 2807 2850
8 2810 2765 2808 2851 2767 2718 2763 2809
8 2810 2765 2718 2767 2852 2811 2768 2813
8 2811 2766 2719 2768 2853 2812 2769 2814
8 2855 2814 2768 2813 2816 2771 2721 2770
8 2856 2815 2769 2814 2817 2772 2722 2771
8 2773 2724 2774 2819 2816 2771 2817 2858
8 2774 2725 2775 2820 2817 2772 2818 2859
8 2776 2727 2777 2822 2819 2774 2820 2861
8 2777 2728 2778 2823 2820 2775 2821 2862
8 2779 2730 2780 2825 2822 2777 2823 2864
8 2823 2778 2731 2780 2865 2824 2781 2826
8 2825 2780 2733 2782 2866 2826 2783 2827
8 2869 2828 2785 2830 2847 2803 2756 2804
8 2871 2829 2786 2832 2830 2785 2738 2787
8 2872 2830 2787 2833 2848 2804 2759 2806
8 2789 2739 2786 2832 2835 2788 2831 2874
8 2836 2789 2740 2790 2875 2832 2787 2833
8 2792 2741 2788 2835 2838 2791 2834 2877
8 2793 2742 2789 2836 2839 2792 2835 2878
8 2838 2791 2837 2880 2795 2744 2794 2841
8 2839 2792 2838 2881 2796 2745 2795 2842
8 2841 2794 2840 2882 2798 2749 2799 2844
8 2842 2795 2841 2883 2797 2748 2798 2843
8 2843 2798 2844 2884 2800 2751 2801 2845
8 2886 2846 2803 2847 2850 2807 2762 2808
8 2851 2808 2847 2887 2809 2763 2804 2848
8 2850 2807 2766 2811 2889 2849 2812 2853
8 2810 2765 2811 2852 2851 2808 2850 2890
8 2852 2811 2768 2813 2891 2853 2814 2855
8 2853 2812 2769 2814 2892 2854 2815 2856
8 2894 2856 2814 2855 2858 2817 2771 2816
8 2817 2772 2818 2859 2856 2815 2857 2895
8 2819 2774 2820 2861 2858 2817 2859 2897
8 2820 2775 2821 2862 2859 2818 2860 2898
8 2822 2777 2823 2864 2861 2820 2862 2900
8 2823 2778 2824 2865 2862 2821 2863 2901
8 2864 2823 2780 2825 2902 2865 2826 2866
8 2904 2867 2828 2869 2886 2846 2803 2847
8 2869 2828 2868 2906 2830 2785 2829 2871
8 2907 2869 2830 2872 2887 2847 2804 2848
8 2871 2829 2870 2909 2832 2786 2831 2874
8 2910 2871 2832 2875 2872 2830 2787 2833
8 2835 2788 2831 2874 2877 2834 2873 2912
8 2836 2789 2832 2875 2878 2835 2874 2913
8 2877 2834 2876 2915 2838 2791 2837 2880
8 2839 2792 2835 2878 2881 2838 2877 2916
8 2880 2837 2879 2917 2841 2794 2840 2882
8 2881 2838 2880 2918 2842 2795 2841 2883
8 2883 2841 2882 2919 2843 2798 2844 2884
8 2921 2885 2846 2886 2889 2849 2807 2850
8 2922 2886 2847 2887 2890 2850 2808 2851
8 2889 2849 2812 2853 2924 2888 2854 2892
8 2890 2850 2811 2852 2925 2889 2853 2891
8 2891 2853 2814 2855 2926 2892 2856 2894
8 2892 2854 2815 2856 2927 2893 2857 2895
8 2858 2817 2859 2897 2894 2856 2895 2929
8 2859 2818 2860 2898 2895 2857 2896 2930
8 2861 2820 2862 2900 2897 2859 2898 2932
8 2862 2821 2863 2901 2898 2860 2899 2933
8 2864 2823 2865 2902 2900 2862 2901 2934
8 2904 2867 2846 2886 2936 2903 2885 2921
8 2904 2867 2903 2936 2869 2828 2868 2906
8 2937 2904 2869 2907 2922 2886 2847 2887
8 2906 2868 2905 2939 2871 2829 2870 2909
8 2907 2869 2906 2940 2872 2830 2871 2910
8 2909 2870 2908 2942 2874 2831 2873 2912
8 2910 2871 2909 2943 2875 2832 2874 2913
8 2912 2873 2911 2945 2877 2834 2876 2915
8 2878 2835 2874 2913 2916 2877 2912 2946
8 2915 2876 2914 2947 2880 2837 2879 2917
8 2916 2877 2915 2948 2881 2838 2880 2918
8 2918 2880 2917 2949 2883 2841 2882 2919
8 2921 2885 2849 2889 2951 2920 2888 2924
8 2952 2921 2886 2922 2925 2889 2850 2890
8 2924 2888 2854 2892 2954 2923 2893 2927
8 2925 2889 2853 2891 2955 2924 2892 2926
8 2926 2892 2856 2894 2956 2927 2895 2929
8 2895 2857 2896 2930 2927 2893 2928 2957
8 2897 2859 2898 2932 2929 2895 2930 2959
8 2898 2860 2899 2933 2930 2896 2931 2960
8 2900 2862 2901 2934 2932 2898 2933 2961
8 2936 2903 2885 2921 2963 2935 2920 2951
8 2936 2903 2935 2963 2906 2868 2905 2939
8 2937 2904 2886 2922 2964 2936 2921 2952
8 2937 2904 2936 2964 2907 2869 2906 2940
8 2939 2905 2938 2966 2909 2870 2908 2942
8 2940 2906 2939 2967 2910 2871 2909 2943
8 2942 2908 2941 2969 2912 2873 2911 2945
8 2943 2909 2942 2970 2913 2874 2912 2946
8 2945 2911 2944 2971 2915 2876 2914 2947
8 2946 2912 2945 2972 2916 2877 2915 2948
8 2948 2915 2947 2973 2918 2880 2917 2949
8 2951 2920 2888 2924 2975 2950 2923 2954
8 2952 2921 2889 2925 2976 2951 2924 2955
8 2927 2893 2928 2957 2954 2923 2953 2978
8 2955 2924 2892 2926 2979 2954 2927 2956
8 2929 2895 2930 2959 2956 2927 2957 2980
8 2930 2896 2931 2960 2957 2928 2958 2981
8 2932 2898 2933 2961 2959 2930 2960 2982
8 2951 2920 2950 2975 2963 2935 2962 2984
8 2963 2935 2962 2984 2939 2905 2938 2966
8 2964 2936 2921 2952 2985 2963 2951 2976
8 2964 2936 2963 2985 2940 2906 2939 2967
8 2966 2938 2965 2987 2942 2908 2941 2969
8 2967 2939 2966 2988 2943 2909 2942 2970
8 2969 2941 2968 2989 2945 2911 2944 2971
8 2970 2942 2969 2990 2946 2912 2945 2972
8 2972 2945 2971 2991 2948 2915 2947 2973
8 2954 2923 2953 2978 2975 2950 2974 2993
8 2976 2951 2924 2955 2994 2975 2954 2979
8 2957 2928 2958 2981 2978 2953 2977 2995
8 2956 2927 2957 2980 2979 2954 2978 2996
8 2959 2930 2960 2982 2980 2957 2981 2997
8 2984 2962 2983 2999 2966 2938 2965 2987
8 2975 2950 2974 2993 2984 2962 2983 2999
8 2976 2951 2975 2994 2985 2963 2984 3000
8 2985 2963 2984 3000 2967 2939 2966 2988
8 2987 2965 2986 3001 2969 2941 2968 2989
8 2988 2966 2987 3002 2970 2942 2969 2990
8 2990 2969 2989 3003 2972 2945 2971 2991
8 2978 2953 2977 2995 2993 2974 2992 3004
8 2979 2954 2978 2996 2994 2975 2993 3005
8 2980 2957 2981 2997 2996 2978 2995 3006
8 2974 2993 2999 2983 2992 3004 3007 2998
8 2983 2999 2987 2965 2998 3007 3001 2986
8 3000 2984 2999 3008 2988 2966 2987 3002
8 2994 2975 2993 3005 3000 2984 2999 3008
8 3002 2987 3001 3009 2990 2969 2989 3003
8 2996 2978 2995 3006 3005 2993 3004 3010
8 3005 2993 3004 3010 3008 2999 3007 3011
8 3008 2999 3007 3011 3002 2987 3001 3009

CELL_TYPES 1910
12
12
12
12
12
12
12
12
12
12
12
12
12
12
12
12
12
12
12
12
12
12
12
12
12
12
12
12
12
12
12
12
12
12
12
12
12
12
12
12
12
12
12
12
12
12
12
12
12
12
12
12
12
12
12
12
12
12
12
12
12
12
12
12
12
12
12
12
12
12
12
12
12
12
12
12
12
12
12
12
12
12
12
12
12
12
12
12
12
12
12
12
12
12
12
12
12
12
12
12
12
12
12
12
12
12
12
12
12
12
12
12
12
12
12
12
12
12
12
12
12
12
12
12
12
12
12
12
12
12
12
12
12
12
12
12
12
12
12
12
12
12
12
12
12
12
12
12
12
12
12
12
12
12
12
12
12
12
12
12
12
12
12
12
12
12
12
12
12
12
12
12
12
12
12
12
12
12
12
12
12
12
12
12
12
12
12
12
12
12
12
12
12
12
12
12
12
12
12
12
12
12
12
12
12
12
12
12
12
12
12
12
12
12
12
12
12
12
12
12
12
12
12
12
12
12
12
12
12
12
12
12
12
12
12
12
12
12
12
12
12
12
12
12
12
12
12
12
12
12
12
12
12
12
12
12
12
12
12
12
12
12
12
12
12
12
12
12
12
12
12
12
12
12
12
12
12
12
12
12
12
12
12
12
12
12
12
12
12
12
12
12
12
12
12
12
12
12
12
12
12
12
12
12
12
12
12
12
12
12
12
12
12
12
12
12
12
12
12
12
12
12
12
12
12
12
12
12
12
12
12
12
12
12
12
12
12
12
12
12
12
12
12
12
12
12
12
12
12
12
12
12
12
12
12
12
12
12
12
12
12
12
12
12
12
12
12
12
12
12
12
12
12
12
12
12
12
12
12
12
12
12
12
12
12
12
12
12
12
12
12
12
12
12
12
12
12
12
12
12
12
12
12
12
12
12
12
12
12
12
12
12
12
12
12
12
12
12
12
12
12
12
12
12
12
12
12
12
12
12
12
12
12
12
12
12
12
12
12
12
12
12
12
12
12
12
12
12
12
12
12
12
12
12
12
12
12
12
12
12
12
12
12
12
12
12
12
12
12
12
12
12
12
12
12
12
12
12
12
12
12
12
12
12
12
12
12
12
12
12
12
12
12
12
12
12
12
12
12
12
12
12
12
12
12
12
12
12
12
12
12
12
12
12
12
12
12
12
12
12
12
12
12
12
12
12
12
12
12
12
12
12
12
12
12
12
12
12
12
12
12
12
12
12
12
12
12
12
12
12
12
12
12
12
12
12
12
12
12
12
12
12
12
12
12
12
12
12
12
12
12
12
12
12
12
12
12
12
12
12
12
12
12
12
12
12
12
12
12
12
12
12
12
12
12
12
12
12
12
12
12
12
12
12
12
12
12
12
12
12
12
12
12
12
12
12
12
12
12
12
12
12
12
12
12
12
12
12
12
12
12
12
12
12
12
12
12
12
12
12
12
12
12
12
12
12
12
12
12
12
12
12
12
12
12
12
12
12
12
12
12
12
12
12
12
12
12
12
12
12
12
12
12
12
12
12
12
12
12
12
12
12
12
12
12
12
12
12
12
12
12
12
12
12
12
12
12
12
12
12
12
12
12
12
12
12
12
12
12
12
12
12
12
12
12
12
12
12
12
12
12
12
12
12
12
12
12
12
12
12
12
12
12
12
12
12
12
12
12
12
12
12
12
12
12
12
12
12
12
12
12
12
12
12
12
12
12
12
12
12
12
12
12
12
12
12
12
12
12
12
12
12
12
12
12
12
12
12
12
12
12
12
12
12
12
12
12
12
12
12
12
12
12
12
12
12
12
12
12
12
12
12
12
12
12
12
12
12
12
12
12
12
12
12
12
12
12
12
12
12
12
12
12
12
12
12
12
12
12
12
12
12
12
12
12
12
12
12
12
12
12
12
12
12
12
12
12
12
12
12
12
12
12
12
12
12
12
12
12
12
12
12
12
12
12
12
12
12
12
12
12
12
12
12
12
12
12
12
12
12
12
12
12
12
12
12
12
12
12
12
12
12
12
12
12
12
12
12
12
12
12
12
12
12
12
12
12
12
12
12
12
12
12
12
12
12
12
12
12
12
12
12
12
12
12
12
12
12
12
12
12
12
12
12
12
12
12
12
12
12
12
12
12
12
12
12
12
12
12
12
12
12
12
12
12
12
12
12
12
12
12
12
12
12
12
12
12
12
12
12
12
12
12
12
12
12
12
12
12
12
12
12
12
12
12
12
12
12
12
12
12
12
12
12
12
12
12
12
12
12
12
12
12
12
12
12
12
12
12
12
12
12
12
12
12
12
12
12
12
12
12
12
12
12
12
12
12
12
12
12
12
12
12
12
12
12
12
12
12
12
12
12
12
12
12
12
12
12
12
12
12
12
12
12
12
12
12
12
12
12
12
12
12
12
12
12
12
12
12
12
12
12
12
12
12
12
12
12
12
12
12
12
12
12
12
12
12
12
12
12
12
12
12
12
12
12
12
12
12
12
12
12
12
12
12
12
12
12
12
12
12
12
12
12
12
12
12
12
12
12
12
12
12
12
12
12
12
12
12
12
12
12
12
12
12
12
12
12
12
12
12
12
12
12
12
12
12
12
12
12
12
12
12
12
12
12
12
12
12
12
12
12
12
12
12
12
12
12
12
12
12
12
12
12
12
12
12
12
12
12
12
12
12
12
12
12
12
12
12
12
12
12
12
12
12
12
12
12
12
12
12
12
12
12
12
12
12
12
12
12
12
12
12
12
12
12
12
12
12
12
12
12
12
12
12
12
12
12
12
12
12
12
12
12
12
12
12
12
12
12
12
12
12
12
12
12
12
12
12
12
12
12
12
12
12
12
12
12
12
12
12
12
12
12
12
12
12
12
12
12
12
12
12
12
12
12
12
12
12
12
12
12
12
12
12
12
12
12
12
12
12
12
12
12
12
12
12
12
12
12
12
12
12
12
12
12
12
12
12
12
12
12
12
12
12
12
12
12
12
12
12
12
12
12
12
12
12
12
12
12
12
12
12
12
12
12
12
12
12
12
12
12
12
12
12
12
12
12
12
12
12
12
12
12
12
12
12
12
12
12
12
12
12
12
12
12
12
12
12
12
12
12
12
12
12
12
12
12
12
12
12
12
12
12
12
12
12
12
12
12
12
12
12
12
12
12
12
12
12
12
12
12
12
12
12
12
12
12
12
12
12
12
12
12
12
12
12
12
12
12
12
12
12
12
12
12
12
12
12
12
12
12
12
12
12
12
12
12
12
12
12
12
12
12
12
12
12
12
12
12
12
12
12
12
12
12
12
12
12
12
12
12
12
12
12
12
12
12
12
12
12
12
12
12
12
12
12
12
12
12
12
12
12
12
12
12
12
12
12
12
12
12
12
12
12
12
12
12
12
12
12
12
12
12
12
12
12
12
12
12
12
12
12
12
12
12
12
12
12
12
12
12
12
12
12
12
12
12
12
12
12
12
12
12
12
12
12
12
12
12
12
12
12
12
12
12
12
12
12
12
12
12
12
12
12
12
12
12
12
12
12
12
12
12
12
12
12
12
12
12
12
12
12
12
12
12
12
12
12
12
12
12
12
12
12
12
12
12
12
12
12
12
12
12
12
12
12
12
12
12
12
12
12
12
12
12
12
12
12
12
12
12
12
12
12
12
12
12
12
12
12
12
12
12
12
12
12
12
12
12
12
12
12
12
12
12
12
12
12
12
12
12
12
12
12
12
12
12
12
12
12
12
12
12
12
12
12
12
12
12
12
12
12
12
12
12
12
12
12
12
12
12
12
12
12
12
12
12
12
12
12
12
12
12
12
12
12
12
12
12
12
12
12
12
12
12
12
12
12
12
12
12
12
12
12
12
12
12
12
12
12
12
12
12
12
12
12
12
12
12
12
12
12
12
12
12
12
12
12
12
12
12
12
12
12
12
12
12
12
12
12
12
12
12
12
12
12
12
12
12
12
12
12
12
12
12
12
12
12
12
12
12
12
12
12
12
12
12
12
12
12
12
12
12
12
12
12
12
12
12
12
12
12
12
12
12
12
12
12
12
12
12
12
12
12
12
12
12
12
12
12
12
12
12
12
12
12
12
12
12
12
12
12
12
12
12
12
12
12
12
12
12
12
12
12
12
12
12
12
12
12
12
12
12
12
12
12
12
12
12
12
12
12
12
12
12
12
12
12
12
12
12
12
12
12
12
12
12
12
12
12
12
12
12
12
12
12
12
12
12
12
12
12
12
12
12
12
12
12
12
12
12
12
12
12
12
12
12
12
12
12
12
12
12
12
12
12
12
12
12
12
12
12
12
12
12
12
12
12
12

POINT_DATA 3012
SCALARS Jp_lamdaP float 4
LOOKUP_TABLE default
1 1 1 1
1 1 1 1
1 1 1 1
0.999992 1 1 0.999992
0.999999 1 1 0.999999
1 1 1 1
0.999902 1 1 0.999902
1 1 1 1
1 1 1 1
1 1 1 1
1 1 1 1
0.999973 1 1 0.999973
0.99998 1 1 0.99998
0.999994 1 1 0.999994
1 1 1 1
0.999994 1 1 0.999994
1 1 1 1
1 1 1 1
0.999903 1 1 0.999903
1 1 1 1
0.99999 1 1 0.99999
0.999997 1 1 0.999997
0.99983 1 1 0.99983
0.999882 1 1 0.999882
1 1 1 1
0.999924 1 1 0.999924
0.999718 1 1 0.999718
1 1 1 1
0.999999 1 1 0.999999
1 1 1 1
1 1 1 1
0.999977 1 1 0.999977
0.999997 1 1 0.999997
1 1 1 1
0.999924 1 1 0.999924
1 1 1 1
0.999962 1 1 0.999962
0.999986 1 1 0.999986
0.999761 1 1 0.999761
1 1 1 1
1 1 1 1
0.999996 1 1 0.999996
1 1 1 1
0.99999 1 1 0.99999
0.999829 1 1 0.999829
1 1 1 1
0.999885 1 1 0.999885
0.999995 1 1 0.999995
1 1 1 1
1 1 1 1
0.999904 1 1 0.999904
0.999991 1 1 0.999991
0.999991 1 1 0.999991
1 1 1 1
0.999998 1 1 0.999998
0.999831 1 1 0.999831
0.999925 1 1 0.999925
0.999883 1 1 0.999883
0.999711 1 1 0.999711
1 1 1 1
0.999986 1 1 0.999986
0.999851 1 1 0.999851
0.999814 1 1 0.999814
0.999857 1 1 0.999857
0.999545 1 1 0.999545
0.999647 1 1 0.999647
1 1 1 1
0.999951 1 1 0.999951
0.999768 1 1 0.999768
0.999485 1 1 0.999485
1 1 1 1
1 1 1 1
1 1 1 1
0.99998 1 1 0.99998
1 1 1 1
1 1 1 1
0.999929 1 1 0.999929
1 1 1 1
0.999965 1 1 0.999965
0.99999 1 1 0.99999
0.99976 1 1 0.99976
1 1 1 1
1 1 1 1
0.999905 1 1 0.999905
0.999944 1 1 0.999944
0.999616 1 1 0.999616
0.999997 1 1 0.999997
0.999738 1 1 0.999738
0.999784 1 1 0.999784
0.999593 1 1 0.999593
1 1 1 1
1 1 1 1
1 1 1 1
1 1 1 1
1 1 1 1
0.999993 1 1 0.999993
0.999841 1 1 0.999841
0.999998 1 1 0.999998
0.999886 1 1 0.999886
1 1 1 1
0.999804 1 1 0.999804
0.999868 1 1 0.999868
0.999402 1 1 0.999402
0.999897 1 1 0.999897
0.999468 1 1 0.999468
0.999983 1 1 0.999983
0.999992 1 1 0.999992
1 1 1 1
0.999998 1 1 0.999998
0.999833 1 1 0.999833
0.999885 1 1 0.999885
0.999926 1 1 0.999926
0.999705 1 1 0.999705
1 1 1 1
0.999988 1 1 0.999988
0.999813 1 1 0.999813
0.999815 1 1 0.999815
1 1 1 1
0.999966 1 1 0.999966
0.999859 1 1 0.999859
0.99953 1 1 0.99953
0.999761 1 1 0.999761
0.999657 1 1 0.999657
0.999486 1 1 0.999486
0.999815 1 1 0.999815
0.999809 1 1 0.999809
0.999443 1 1 0.999443
0.999489 1 1 0.999489
0.999581 1 1 0.999581
0.999315 1 1 0.999315
1 1 1 1
0.999445 1 1 0.999445
0.999996 1 1 0.999996
0.999781 1 1 0.999781
0.999525 1 1 0.999525
0.999392 1 1 0.999392
1 1 1 1
0.999861 1 1 0.999861
1 1 1 1
1 1 1 1
0.999934 1 1 0.999934
1 1 1 1
0.999994 1 1 0.999994
0.999968 1 1 0.999968
0.999759 1 1 0.999759
1 1 1 1
1 1 1 1
0.99991 1 1 0.99991
0.99995 1 1 0.99995
0.999618 1 1 0.999618
0.999998 1 1 0.999998
0.999739 1 1 0.999739
0.999784 1 1 0.999784
0.999587 1 1 0.999587
1 1 1 1
1 1 1 1
0.999876 1 1 0.999876
0.999552 1 1 0.999552
0.999688 1 1 0.999688
0.99942 1 1 0.99942
0.999817 1 1 0.999817
0.999567 1 1 0.999567
0.999606 1 1 0.999606
0.99952 1 1 0.99952
1 1 1 1
1 1 1 1
1 1 1 1
1 1 1 1
1 1 1 1
1 1 1 1
1 1 1 1
0.999886 1 1 0.999886
0.999839 1 1 0.999839
1 1 1 1
1 1 1 1
0.999806 1 1 0.999806
0.999869 1 1 0.999869
0.999402 1 1 0.999402
0.999897 1 1 0.999897
0.999469 1 1 0.999469
0.999796 1 1 0.999796
0.999361 1 1 0.999361
0.99944 1 1 0.99944
0.99921 1 1 0.99921
0.999503 1 1 0.999503
0.999283 1 1 0.999283
1 1 1 1
0.99999 1 1 0.99999
0.999774 1 1 0.999774
0.999816 1 1 0.999816
1 1 1 1
0.999982 1 1 0.999982
0.999861 1 1 0.999861
0.999515 1 1 0.999515
0.999666 1 1 0.999666
0.999753 1 1 0.999753
0.999487 1 1 0.999487
0.999812 1 1 0.999812
0.999809 1 1 0.999809
0.999414 1 1 0.999414
0.999499 1 1 0.999499
1 1 1 1
0.999993 1 1 0.999993
0.999794 1 1 0.999794
0.999583 1 1 0.999583
0.999297 1 1 0.999297
0.999522 1 1 0.999522
0.999453 1 1 0.999453
0.999393 1 1 0.999393
1 1 1 1
0.999861 1 1 0.999861
0.999369 1 1 0.999369
0.999473 1 1 0.999473
0.999239 1 1 0.999239
0.999244 1 1 0.999244
0.999395 1 1 0.999395
0.99923 1 1 0.99923
1 1 1 1
0.999356 1 1 0.999356
0.999802 1 1 0.999802
0.999577 1 1 0.999577
0.999429 1 1 0.999429
0.999364 1 1 0.999364
0.999829 1 1 0.999829
0.999905 1 1 0.999905
0.999648 1 1 0.999648
0.999913 1 1 0.999913
1 1 1 1
1 1 1 1
0.999955 1 1 0.999955
0.999619 1 1 0.999619
1 1 1 1
0.999784 1 1 0.999784
0.999739 1 1 0.999739
0.999582 1 1 0.999582
1 1 1 1
1 1 1 1
0.999876 1 1 0.999876
0.999552 1 1 0.999552
0.99969 1 1 0.99969
0.999421 1 1 0.999421
0.999817 1 1 0.999817
0.999573 1 1 0.999573
0.999605 1 1 0.999605
0.999512 1 1 0.999512
1 1 1 1
0.999845 1 1 0.999845
0.999912 1 1 0.999912
0.999678 1 1 0.999678
0.999356 1 1 0.999356
0.999509 1 1 0.999509
0.999323 1 1 0.999323
0.999636 1 1 0.999636
0.999495 1 1 0.999495
0.999496 1 1 0.999496
0.999458 1 1 0.999458
0.999978 1 1 0.999978
1 1 1 1
1 1 1 1
1 1 1 1
1 1 1 1
1 1 1 1
1 1 1 1
1 1 1 1
1 1 1 1
0.999899 1 1 0.999899
0.999868 1 1 0.999868
0.999469 1 1 0.999469
0.999402 1 1 0.999402
0.999808 1 1 0.999808
1 1 1 1
0.999795 1 1 0.999795
0.999361 1 1 0.999361
0.99944 1 1 0.99944
0.999209 1 1 0.999209
0.999504 1 1 0.999504
0.999283 1 1 0.999283
0.999349 1 1 0.999349
0.999167 1 1 0.999167
0.999249 1 1 0.999249
0.999153 1 1 0.999153
0.999316 1 1 0.999316
0.999219 1 1 0.999219
0.99981 1 1 0.99981
0.999809 1 1 0.999809
0.999385 1 1 0.999385
0.999509 1 1 0.999509
1 1 1 1
0.999991 1 1 0.999991
0.999806 1 1 0.999806
0.999584 1 1 0.999584
0.99928 1 1 0.99928
0.99946 1 1 0.99946
0.999519 1 1 0.999519
0.999395 1 1 0.999395
1 1 1 1
0.999861 1 1 0.999861
0.999359 1 1 0.999359
0.999473 1 1 0.999473
0.999232 1 1 0.999232
0.999262 1 1 0.999262
0.999999 1 1 0.999999
0.999802 1 1 0.999802
0.999589 1 1 0.999589
0.999394 1 1 0.999394
0.999226 1 1 0.999226
0.999416 1 1 0.999416
0.999356 1 1 0.999356
0.999363 1 1 0.999363
0.999829 1 1 0.999829
0.999644 1 1 0.999644
0.999904 1 1 0.999904
0.999205 1 1 0.999205
0.999251 1 1 0.999251
0.999141 1 1 0.999141
0.999177 1 1 0.999177
0.999303 1 1 0.999303
0.999232 1 1 0.999232
0.999814 1 1 0.999814
0.999338 1 1 0.999338
0.999637 1 1 0.999637
0.999465 1 1 0.999465
0.999348 1 1 0.999348
0.99939 1 1 0.99939
0.999944 1 1 0.999944
0.999648 1 1 0.999648
0.999655 1 1 0.999655
0.999565 1 1 0.999565
0.999553 1 1 0.999553
1 1 1 1
1 1 1 1
0.999876 1 1 0.999876
0.999692 1 1 0.999692
0.999421 1 1 0.999421
0.999817 1 1 0.999817
0.999604 1 1 0.999604
0.999579 1 1 0.999579
0.999505 1 1 0.999505
1 1 1 1
0.999845 1 1 0.999845
0.999913 1 1 0.999913
0.999676 1 1 0.999676
0.999355 1 1 0.999355
0.99951 1 1 0.99951
0.999323 1 1 0.999323
0.999637 1 1 0.999637
0.999502 1 1 0.999502
0.999493 1 1 0.999493
0.999476 1 1 0.999476
1 1 1 1
0.99994 1 1 0.99994
0.99966 1 1 0.99966
0.999706 1 1 0.999706
0.999563 1 1 0.999563
0.99927 1 1 0.99927
0.999419 1 1 0.999419
0.999288 1 1 0.999288
0.999517 1 1 0.999517
0.999448 1 1 0.999448
0.999379 1 1 0.999379
0.999969 1 1 0.999969
0.999823 1 1 0.999823
0.999985 1 1 0.999985
0.99998 1 1 0.99998
1 1 1 1
1 1 1 1
1 1 1 1
1 1 1 1
1 1 1 1
1 1 1 1
1 1 1 1
1 1 1 1
1 1 1 1
1 1 1 1
1 1 1 1
0.999504 1 1 0.999504
0.99944 1 1 0.99944
0.999283 1 1 0.999283
0.999209 1 1 0.999209
0.999361 1 1 0.999361
0.999795 1 1 0.999795
0.999349 1 1 0.999349
0.999167 1 1 0.999167
0.999249 1 1 0.999249
0.999149 1 1 0.999149
0.999315 1 1 0.999315
0.999219 1 1 0.999219
0.999153 1 1 0.999153
0.999119 1.00001 1 0.999112
0.999183 1 1 0.999183
0.99914 1 1 0.99914
0.999246 1 1 0.999246
0.999243 1 1 0.999243
0.999349 1 1 0.999349
0.999473 1 1 0.999473
0.999225 1 1 0.999225
0.999281 1 1 0.999281
0.999998 1 1 0.999998
0.999802 1 1 0.999802
0.999601 1 1 0.999601
0.999394 1 1 0.999394
0.999222 1 1 0.999222
0.999356 1 1 0.999356
0.999403 1 1 0.999403
0.999362 1 1 0.999362
0.99983 1 1 0.99983
0.999641 1 1 0.999641
0.999904 1 1 0.999904
0.99919 1 1 0.99919
0.99925 1 1 0.99925
0.999133 1 1 0.999133
0.99918 1 1 0.99918
0.999814 1 1 0.999814
0.999636 1 1 0.999636
0.999479 1 1 0.999479
0.999308 1 1 0.999308
0.999238 1 1 0.999238
0.999337 1 1 0.999337
0.999339 1 1 0.999339
0.999395 1 1 0.999395
0.999649 1 1 0.999649
0.999556 1 1 0.999556
0.999941 1 1 0.999941
0.999661 1 1 0.999661
0.999104 1 1 0.999104
0.999153 1 1 0.999153
0.999095 1 1 0.999095
0.999166 1 1 0.999166
0.999301 1 1 0.999301
0.999259 1 1 0.999259
0.999651 1 1 0.999651
0.999394 1 1 0.999394
0.999536 1 1 0.999536
0.999374 1 1 0.999374
0.999292 1 1 0.999292
0.999393 1 1 0.999393
0.999962 1 1 0.999962
0.999699 1 1 0.999699
0.999569 1 1 0.999569
0.999552 1 1 0.999552
0.999524 1 1 0.999524
1 1 1 1
0.999354 1 1 0.999354
0.999914 1 1 0.999914
0.999845 1 1 0.999845
0.999675 1 1 0.999675
0.999511 1 1 0.999511
0.999323 1 1 0.999323
0.999637 1 1 0.999637
0.999489 1 1 0.999489
0.99951 1 1 0.99951
0.999495 1 1 0.999495
1 1 1 1
0.999942 1 1 0.999942
0.99966 1 1 0.99966
0.999705 1 1 0.999705
0.999559 1 1 0.999559
0.999268 1 1 0.999268
0.999419 1 1 0.999419
0.999284 1 1 0.999284
0.999518 1 1 0.999518
0.999453 1 1 0.999453
0.999388 1 1 0.999388
0.999957 1 1 0.999957
0.99974 1 1 0.99974
0.999544 1 1 0.999544
0.999581 1 1 0.999581
0.999506 1 1 0.999506
0.999249 1 1 0.999249
0.999375 1 1 0.999375
0.999333 1 1 0.999333
0.999409 1 1 0.999409
0.999322 1 1 0.999322
0.999972 1 1 0.999972
0.999778 1 1 0.999778
0.999812 1 1 0.999812
0.999705 1 1 0.999705
0.999834 1 1 0.999834
0.99999 1 1 0.99999
0.999987 1 1 0.999987
1 1 1 1
0.999983 1 1 0.999983
1 1 1 1
1 1 1 1
1 1 1 1
1 1 1 1
1 1 1 1
1 1 1 1
1 1 1 1
1 1 1 1
1 1 1 1
1 1 1 1
1 1 1 1
0.999315 1 1 0.999315
0.999249 1 1 0.999249
0.99922 1 1 0.99922
0.999146 1 1 0.999146
0.999168 1 1 0.999168
0.999349 1 1 0.999349
0.999154 1 1 0.999154
0.99911 1 1 0.999106
0.999184 1 1 0.999184
0.999139 1 1 0.999139
0.999245 1 1 0.999245
0.999242 1 1 0.999242
0.999095 1.00001 1 0.999086
0.999412 1.00032 1 0.999096
0.99918 1 1 0.99918
0.99913 1 1 0.99913
0.999251 1 1 0.999251
0.999263 1 1 0.999263
0.999175 1 1 0.999175
0.99925 1 1 0.99925
0.999125 1 1 0.999125
0.999184 1 1 0.999184
0.999815 1 1 0.999815
0.999635 1 1 0.999635
0.999492 1 1 0.999492
0.999314 1 1 0.999314
0.999245 1 1 0.999245
0.999339 1 1 0.999339
0.999327 1 1 0.999327
0.9994 1 1 0.9994
0.999651 1 1 0.999651
0.999546 1 1 0.999546
0.999938 1 1 0.999938
0.999667 1 1 0.999667
0.999105 1 1 0.999105
0.999156 1 1 0.999156
0.999095 1 1 0.999095
0.999168 1 1 0.999168
0.999652 1 1 0.999652
0.999547 1 1 0.999547
0.999373 1 1 0.999373
0.999297 1 1 0.999297
0.999285 1 1 0.999285
0.999287 1 1 0.999287
0.999396 1 1 0.999396
0.99941 1 1 0.99941
0.99957 1 1 0.99957
0.999521 1 1 0.999521
0.99955 1 1 0.99955
0.999945 1 1 0.999945
0.999705 1 1 0.999705
0.99912 1.00005 1 0.999069
0.999087 1 1 0.999087
0.999185 1 1 0.999185
0.999339 1 1 0.999339
0.999578 1 1 0.999578
0.999446 1 1 0.999446
0.999466 1 1 0.999466
0.999254 1 1 0.999254
0.999243 1 1 0.999243
0.999946 1 1 0.999946
0.999768 1 1 0.999768
0.999589 1 1 0.999589
0.999542 1 1 0.999542
0.999472 1 1 0.999472
0.999491 1 1 0.999491
1 1 1 1
0.999944 1 1 0.999944
0.999267 1 1 0.999267
0.999705 1 1 0.999705
0.999659 1 1 0.999659
0.999555 1 1 0.999555
0.99942 1 1 0.99942
0.999281 1 1 0.999281
0.99952 1 1 0.99952
0.999397 1 1 0.999397
0.999458 1 1 0.999458
0.99996 1 1 0.99996
0.99974 1 1 0.99974
0.99955 1 1 0.99955
0.99958 1 1 0.99958
0.999498 1 1 0.999498
0.999247 1 1 0.999247
0.999372 1 1 0.999372
0.999338 1 1 0.999338
0.999402 1 1 0.999402
0.999306 1 1 0.999306
0.99977 1 1 0.99977
0.999589 1 1 0.999589
0.999465 1 1 0.999465
0.999487 1 1 0.999487
0.99945 1 1 0.99945
0.999365 1 1 0.999365
0.999294 1 1 0.999294
0.999322 1 1 0.999322
0.999448 1 1.00012 0.999329
0.999178 1 1 0.999178
0.999974 1 1 0.999974
0.999787 1 1 0.999787
0.999645 1 1 0.999645
0.9998 1 1 0.9998
0.999834 1 1 0.999834
0.999688 1 1 0.999688
0.999599 1 1 0.999599
0.999684 1 1 0.999684
0.999844 1 1 0.999844
0.999992 1 1 0.999992
0.999991 1 1 0.999991
1 1 1 1
0.999988 1 1 0.999988
1 1 1 1
1 1 1 1
1 1 1 1
1 1 1 1
1 1 1 1
1 1 1 1
1 1 1 1
1 1 1 1
1 1 1 1
1 1 1 1
1 1 1 1
0.999243 1 1 0.999243
0.999185 1 1 0.999185
0.999242 1 1 0.999242
0.999137 1 1 0.999137
0.999102 1 1 0.9991
0.999154 1 1 0.999154
0.999093 1.00001 1 0.999084
0.999317 1.00022 1 0.999098
0.999174 1 1 0.999174
0.999126 1 1 0.999125
0.999252 1 1 0.999252
0.999278 1 1 0.999278
0.99971 1.00064 1 0.999071
0.999612 1.0005 1 0.999108
0.999206 1.00003 1 0.999177
0.999327 1 1 0.999327
0.999107 1 1 0.999105
0.999158 1 1 0.999158
0.999095 1 1 0.999095
0.999169 1 1 0.999169
0.999652 1 1 0.999652
0.999558 1 1 0.999558
0.999372 1 1 0.999372
0.999292 1 1 0.999292
0.999311 1 1 0.999311
0.999397 1 1 0.999397
0.999281 1 1 0.999281
0.999427 1 1 0.999427
0.99957 1 1 0.99957
0.999518 1 1 0.999518
0.999547 1 1 0.999547
0.999928 1 1 0.999928
0.999711 1 1 0.999711
0.999117 1.00005 1 0.999071
0.999093 1 1 0.999092
0.999211 1.00002 1 0.999195
0.999577 1 1 0.999577
0.99948 1 1 0.99948
0.999251 1 1 0.999251
0.999329 1 1 0.999329
0.999268 1 1 0.999268
0.999444 1 1 0.999444
0.999946 1 1 0.999946
0.999541 1 1 0.999541
0.999499 1 1 0.999499
0.999471 1 1 0.999471
0.999594 1 1 0.999594
0.999755 1 1 0.999755
0.999247 1.00018 1 0.999066
0.999085 1.00001 1 0.999077
0.99931 1.00008 1 0.999234
0.999457 1.00005 1 0.999403
0.999534 1 1 0.999534
0.999311 1 1 0.999311
0.999336 1 1 0.999336
0.999237 1 1.00008 0.99916
0.999959 1 1 0.999959
0.999803 1 1 0.999803
0.999635 1 1 0.999635
0.999466 1 1 0.999466
0.999502 1 1 0.999502
0.99944 1 1 0.99944
0.999962 1 1 0.999962
0.999739 1 1 0.999739
0.999246 1 1 0.999246
0.999579 1 1 0.999579
0.999557 1 1 0.999557
0.99949 1 1 0.99949
0.999369 1 1 0.999369
0.999343 1 1 0.999343
0.999396 1 1 0.999396
0.99929 1 1 0.99929
0.999771 1 1 0.999771
0.999593 1 1 0.999593
0.999476 1 1 0.999476
0.999493 1 1 0.999493
0.999454 1 1 0.999454
0.999364 1 1 0.999364
0.999298 1 1 0.999298
0.999365 1 1 0.999365
0.999411 1 1.00009 0.99932
0.999159 1 1 0.999158
0.99962 1 1 0.99962
0.99948 1 1 0.99948
0.99948 1 1.00009 0.999391
0.999408 1 1 0.999408
0.999599 1.00026 1 0.999336
1.00003 1.00076 0.999872 0.999398
0.999162 1 1 0.999162
1.00078 1 1.00164 0.999147
0.999795 1 1 0.999795
0.999653 1 1 0.999653
0.999563 1 1 0.999563
0.999834 1 1 0.999834
0.999671 1 1 0.999671
0.999844 1 1 0.999844
0.999587 1 1 0.999587
0.99969 1 1 0.99969
0.999516 1 1 0.999516
0.999586 1 1 0.999586
0.999693 1 1 0.999693
0.999849 1 1 0.999849
0.999992 1 1 0.999992
0.999992 1 1 0.999992
1 1 1 1
0.999991 1 1 0.999991
1 1 1 1
1 1 1 1
1 1 1 1
1 1 1 1
1 1 1 1
1 1 1 1
1 1 1 1
1 1 1 1
1 1 1 1
1 1 1 1
1 1 1 1
0.999252 1 1 0.999252
0.999168 1 1 0.999168
0.999293 1 1 0.999293
0.99912 1 1 0.99912
0.999203 1.0001 1 0.9991
0.999089 1.00001 1 0.999081
0.999595 1.00052 1 0.999075
0.999585 1.00048 1 0.999107
0.999235 1.00005 1 0.999184
0.999322 1 1 0.999322
1.00004 1.00095 1 0.999088
0.999963 1.00082 1 0.999148
0.999383 1.00014 1 0.999246
0.999112 1.00004 1 0.999073
0.999097 1 1 0.999097
0.999244 1.00004 1 0.999205
0.999576 1 1 0.999576
0.999494 1 1 0.999494
0.999248 1 1 0.999248
0.999319 1 1 0.999319
0.999441 1 1 0.999441
0.999294 1 1 0.999294
0.99954 1 1 0.99954
0.999507 1 1 0.999507
0.999471 1 1 0.999471
0.999946 1 1 0.999946
0.9996 1 1 0.9996
0.999743 1 1 0.999743
0.999336 1.00027 1 0.999069
0.999085 1.00001 1 0.999074
0.999274 1.00005 1 0.999221
0.999531 1 1 0.999531
0.999358 1 1 0.999358
0.999253 1 1.00009 0.999165
0.999851 1.00044 1 0.999413
0.999309 1 1 0.999309
0.999972 1 1 0.999972
0.999803 1 1 0.999803
0.999501 1 1 0.999501
0.999447 1 1 0.999447
0.999471 1 1 0.999471
0.999625 1 1 0.999625
0.999547 1.00046 1 0.999091
0.999537 1.00044 1 0.999093
1.00047 1.00121 0.999905 0.999352
1.00063 1.0012 1 0.999424
0.999465 1 1 0.999465
1.00038 1 1.00127 0.999107
0.999406 1 1.00016 0.999241
0.999995 1 1 0.999995
0.999872 1 1 0.999872
0.999806 1 1 0.999806
0.999648 1 1 0.999648
0.999508 1 1 0.999508
0.999385 1 1 0.999385
0.999484 1 1 0.999484
0.999422 1 1 0.999422
0.999771 1 1 0.999771
0.999598 1 1 0.999598
0.999363 1 1 0.999363
0.999498 1 1 0.999498
0.999486 1 1 0.999486
0.999458 1 1 0.999458
0.999303 1 1 0.999303
0.999407 1 1 0.999407
0.9994 1 1.00009 0.999311
0.999138 1 1 0.999138
0.999616 1 1 0.999616
0.999489 1 1 0.999489
0.999504 1 1.0001 0.9994
0.999415 1 1 0.999415
0.999556 1.00023 1 0.999328
0.999793 1.00045 0.999949 0.999396
0.999182 1 1 0.999182
1.00039 1 1.00125 0.999137
0.999532 1 1 0.999532
0.99953 1.00028 1 0.999251
0.999413 1 1 0.999413
0.999602 1 1.0003 0.999305
1.0017 1.0026 0.999722 0.999378
0.999809 1.00066 1 0.999146
1.00148 1 1.00242 0.999062
0.999661 1 1 0.999661
0.999563 1 1 0.999563
0.999487 1 1 0.999487
0.999844 1 1 0.999844
0.999696 1 1 0.999696
0.999574 1 1 0.999574
0.999849 1 1 0.999849
0.999693 1 1 0.999693
0.999506 1 1 0.999506
0.999599 1 1 0.999599
0.999455 1 1 0.999455
0.999503 1 1 0.999503
0.99961 1 1 0.99961
0.999712 1 1 0.999712
0.999848 1 1 0.999848
0.999991 1 1 0.999991
0.999992 1 1 0.999992
1 1 1 1
0.999992 1 1 0.999992
1 1 1 1
1 1 1 1
1 1 1 1
1 1 1 1
1 1 1 1
0.999999 1 1 0.999999
1 1 1 1
1 1 1 1
1 1 1 1
1 1 1 1
1 1 1 1
1 1 1 1
0.999317 1 1 0.999317
0.999273 1.00008 1 0.99919
0.999577 1.00047 1 0.999107
0.999498 1.00042 1 0.999079
1.00011 1.00102 1 0.999093
1.00004 1.0009 1 0.99914
0.999429 1.00017 1 0.99926
1.00021 1.00108 1 0.999131
1.00002 1.00084 1 0.999179
0.999626 1.00035 1 0.999274
0.999428 1.00036 1 0.999071
0.999086 1.00001 1 0.999072
0.999241 1.00003 1 0.999208
0.999529 1 1 0.999529
0.999379 1 1 0.999379
0.999177 1 1.00001 0.99917
1.00022 1.0008 1 0.999424
0.999307 1 1 0.999307
0.9995 1 1 0.9995
0.999453 1 1 0.999453
0.999476 1 1 0.999476
0.999984 1 1 0.999984
0.999804 1 1 0.999804
0.999616 1 1 0.999616
0.999491 1.0004 1 0.999095
0.999992 1 1 0.999992
0.999864 1 1 0.999864
0.999609 1.00052 1 0.999093
1.00079 1.00147 1 0.99933
0.999477 1 1 0.999477
0.999833 1 1.00061 0.99922
0.999716 1 1.0006 0.999114
1.00023 1.00081 1 0.999423
0.99983 1 1 0.99983
0.999648 1 1 0.999648
0.999479 1 1 0.999479
0.99946 1 1.00001 0.999449
0.999371 1 1 0.999371
0.99951 1 1 0.99951
1.00014 1.00101 1 0.999131
1.00119 1.00202 1 0.999174
1.00216 1.00307 0.999601 0.999489
0.999229 1 1 0.999229
0.999856 1 1.00043 0.999423
1.00221 1 1.00313 0.999085
0.999873 1 1 0.999873
0.999851 1 1 0.999851
0.999753 1 1 0.999753
0.999654 1 1 0.999654
0.999546 1 1 0.999546
0.999407 1 1 0.999407
0.999326 1 1.00002 0.999309
0.999454 1 1 0.999454
0.999611 1 1 0.999611
0.999497 1 1 0.999497
0.999562 1.00024 1 0.99932
0.999547 1.00015 1 0.999394
0.999423 1 1 0.999423
0.999503 1 1.00009 0.999409
0.999203 1 1 0.999202
1.00004 1 1.00092 0.999128
0.999532 1 1 0.999532
0.999511 1.00024 1 0.999267
0.999413 1 1 0.999413
0.999805 1 1.00051 0.999291
1.00099 1.00188 0.99974 0.99937
1.00011 1.00096 1 0.999152
1.00142 1 1.00235 0.999063
0.999443 1 1 0.999443
1.00854 1.00987 0.999367 0.999317
0.99935 1 1 0.99935
1.00116 1 1.00198 0.999173
0.999053 1.00266 0.997225 0.999177
1.00106 1 1.00204 0.999017
1.00644 1.00928 0.997964 0.999225
0.999564 1 1 0.999564
0.999487 1 1 0.999487
0.999434 1 1 0.999434
0.999849 1 1 0.999849
0.999692 1 1 0.999692
0.999612 1 1 0.999612
0.999496 1 1 0.999496
0.999848 1 1 0.999848
0.999703 1 1 0.999703
0.999452 1 1 0.999452
0.99961 1 1 0.99961
0.999514 1 1 0.999514
0.999434 1 1 0.999434
0.999541 1 1 0.999541
0.999619 1 1 0.999619
0.999692 1 1 0.999692
0.999824 1 1 0.999824
0.99973 1 1 0.99973
0.999824 1 1 0.999824
0.99999 1 1 0.99999
0.999991 1 1 0.999991
1 1 1 1
0.999992 1 1 0.999992
1 1 1 1
1 1 1 1
1 1 1 1
1 1 1 1
1 1 1 1
1 1 1 1
0.999998 1 1 0.999998
1 1 1 1
1 1 1 1
1 1 1 1
1 1 1 1
1 1 1 1
1 1 1 1
0.999461 1.00019 1 0.999274
1.00013 1.001 1 0.999133
1.00016 1.00106 1 0.999098
1.00026 1.00113 1 0.999131
1.00007 1.00088 1 0.999185
0.99947 1.00019 1 0.999283
1.00075 1.00154 1 0.999207
1.00572 1.01112 0.995275 0.999389
1.00801 1.00897 0.999666 0.999384
0.999904 1 1 0.999904
0.999446 1.00035 1 0.999099
0.999668 1.00058 1 0.999093
1.00103 1.00172 1 0.999307
0.999488 1 1 0.999488
1.00047 1 1.00127 0.999199
0.999238 1 1.00012 0.999121
0.99984 1.00042 1 0.999422
0.999473 1 1 0.999473
0.999476 1 1 0.999476
0.999356 1 1 0.999356
0.99999 1 1 0.99999
0.999512 1 1 0.999512
0.999855 1 1 0.999855
0.999647 1 1 0.999647
0.999855 1 1 0.999855
0.999998 1.00087 1 0.999127
0.999883 1 1 0.999883
0.999851 1 1 0.999851
0.999734 1 1 0.999734
1.00148 1.00231 1 0.999178
1.00119 1.00226 0.999469 0.999459
0.999732 1 1.0003 0.99943
1.00243 1 1.00335 0.999076
0.999396 1 1.00016 0.999234
0.999667 1 1 0.999667
0.999541 1 1 0.999541
0.99944 1 1 0.99944
0.999419 1 1.0001 0.999324
0.999417 1 1 0.999417
1.00258 1.00342 1.00004 0.999124
1.00176 1.00508 0.997374 0.999319
1.00017 1.00115 0.999716 0.999309
1.00125 1 1.00214 0.999114
1.00201 1 1.00267 0.999333
0.999736 1 1 0.999736
0.999689 1 1 0.999689
0.999633 1 1 0.999633
0.999555 1 1 0.999555
0.999464 1 1 0.999464
0.999348 1 1 0.999348
1.00101 1 1.00173 0.999283
0.999531 1 1 0.999531
0.999414 1 1 0.999414
0.999456 1.00017 1 0.999282
1.00021 1.00114 0.999712 0.999362
1.0004 1.00124 1 0.999157
0.999987 1 1.00071 0.999276
1.00121 1 1.00215 0.999063
0.999451 1 1 0.999451
1.00818 1.00996 0.998909 0.999323
0.999353 1 1 0.999353
1.00105 1 1.00188 0.999174
1.00022 1.00318 0.99784 0.999207
1.00155 1 1.00254 0.999013
1.00828 1.01147 0.997629 0.99921
0.999391 1 1 0.999391
0.998613 1.00798 0.991478 0.999228
0.999747 1 1.00043 0.999316
1.00456 1 1.00546 0.999106
1.00056 1.00043 1.00109 0.999042
0.958811 0.963823 0.998537 0.996258
1.00393 1.00096 1.00442 0.99855
0.990757 1.00982 0.981808 0.999297
0.929125 0.944069 0.98567 0.998479
0.935927 0.968562 0.967347 0.998925
0.999487 1 1 0.999487
0.999437 1 1 0.999437
0.999407 1 1 0.999407
0.999848 1 1 0.999848
0.999695 1 1 0.999695
0.99961 1 1 0.99961
0.999525 1 1 0.999525
0.999449 1 1 0.999449
0.999607 1 1 0.999607
0.999834 1 1 0.999834
0.999701 1 1 0.999701
0.99944 1 1 0.99944
0.999538 1 1 0.999538
0.999549 1 1 0.999549
0.999467 1 1 0.999467
0.999586 1 1 0.999586
0.999689 1 1 0.999689
0.999823 1 1 0.999823
0.999716 1 1 0.999716
0.999625 1 1 0.999625
0.999701 1 1 0.999701
0.999714 1 1 0.999714
0.999842 1 1 0.999842
0.999824 1 1 0.999824
0.999989 1 1 0.999989
0.99999 1 1 0.99999
1 1 1 1
0.999991 1 1 0.999991
1 1 1 1
1 1 1 1
1 1 1 1
1 1 1 1
1 1 1 1
1 1 1 1
1 1 1 1
1 1 1 1
0.999997 1 1 0.999997
1 1 1 1
1 1 1 1
1 1 1 1
1 1 1 1
1 1 1 1
1.00009 1.0009 1 0.999191
1.00026 1.00113 1 0.99913
0.999304 1.00001 1 0.999293
1.00714 1.0111 0.996688 0.999398
1.0008 1.0016 1 0.999204
1.00814 1.00901 0.999787 0.99935
1.00731 1.00817 1.00004 0.99911
0.978774 0.984914 0.99554 0.998219
1.00793 1.00914 0.999311 0.999484
0.99991 1 1 0.99991
0.999903 1 1 0.999903
0.999773 1 1 0.999773
0.999788 1 1 0.999788
0.999858 1.00074 1 0.999123
1.0018 1.00262 1 0.999182
1.00028 1.00137 0.999481 0.999429
0.999437 1 1 0.999437
1.00218 1 1.00312 0.999066
0.999371 1 1.00013 0.99924
0.999427 1 1 0.999427
0.999558 1 1.00022 0.999339
0.999427 1 1 0.999427
0.99985 1 1 0.99985
0.999535 1 1 0.999535
0.99968 1 1 0.99968
0.999894 1 1 0.999894
0.999715 1 1 0.999715
1.00208 1.0029 1.00003 0.999141
0.999755 1 1 0.999755
0.9997 1 1 0.9997
0.999632 1 1 0.999632
1.00286 1.00524 0.998305 0.999324
0.99962 1.00077 0.999541 0.999308
1.00172 1 1.00239 0.999332
1.00118 1 1.00207 0.999106
0.999559 1 1 0.999559
0.999468 1 1 0.999468
1.00036 1 1.00108 0.999283
0.999446 1 1.00011 0.999336
1.00862 1.00949 0.999954 0.999182
1.00153 1.00456 0.997704 0.99928
1.00009 1.00031 1.00073 0.999055
1.00124 1 1.002 0.999243
0.999597 1 1 0.999597
0.999581 1 1 0.999581
0.999428 1 1 0.999428
1.00147 1 1.00225 0.999224
0.953412 0.963719 0.993138 0.99614
0.999459 1 1 0.999459
0.999356 1 1 0.999356
1.00782 1.01001 0.998492 0.999329
1.00147 1.00367 0.99857 0.999237
1.00219 1 1.00319 0.999009
1.00116 1 1.00198 0.999176
1.01031 1.01354 0.99761 0.999194
0.999397 1 1 0.999397
0.998683 1.00815 0.991388 0.999219
0.999579 1 1.00026 0.999318
1.00442 1 1.00532 0.999111
0.999928 1.00055 1.00033 0.999054
0.957589 0.964303 0.996537 0.996488
0.998268 0.997331 1.00306 0.997889
0.994155 1.01161 0.983406 0.999325
0.935258 0.946628 0.989824 0.998147
0.929005 0.963802 0.964995 0.998862
0.999399 1 1 0.999399
0.936767 0.945817 0.992625 0.99779
0.952182 0.969745 0.982827 0.999045
0.9798 1.00203 0.97859 0.999211
1.00246 1 1.00316 0.999305
1.00898 1 1.00983 0.999157
0.994425 1.01017 0.985062 0.999344
0.969793 0.970787 1.00299 0.996002
1.00674 1.00369 1.00532 0.997725
0.929194 0.95163 0.978001 0.998386
0.975552 1.00109 0.975172 0.999306
0.99944 1 1 0.99944
0.999408 1 1 0.999408
0.999397 1 1 0.999397
0.999844 1 1 0.999844
0.99971 1 1 0.99971
0.999594 1 1 0.999594
0.999534 1 1 0.999534
0.999446 1 1 0.999446
0.999823 1 1 0.999823
0.99955 1 1 0.99955
0.999599 1 1 0.999599
0.999699 1 1 0.999699
0.999456 1 1 0.999456
0.999508 1 1 0.999508
0.999617 1 1.0002 0.99942
0.999601 1 1 0.999601
0.999709 1 1 0.999709
0.999716 1 1 0.999716
0.999611 1 1 0.999611
0.999612 1 1 0.999612
0.999597 1 1 0.999597
0.999546 1 1 0.999546
0.999536 1 1 0.999536
0.99968 1 1 0.99968
0.999701 1 1 0.999701
0.999835 1 1 0.999835
0.999697 1 1 0.999697
0.999833 1 1 0.999833
0.999988 1 1 0.999988
0.999824 1 1 0.999824
0.999989 1 1 0.999989
1 1 1 1
0.99999 1 1 0.99999
1 1 1 1
1 1 1 1
1 1 1 1
1 1 1 1
1 1 1 1
0.999906 1 1 0.999906
1 1 1 1
1 1 1 1
1 1 1 1
0.999999 1 1 0.999999
1 1 1 1
1 1 1 1
1 1 1 1
1 1 1 1
1 1 1 1
1.00869 1.01145 0.997867 0.999407
1.00088 1.00168 1 0.999201
1.00822 1.00902 0.999888 0.999315
0.980427 0.98446 0.997269 0.998631
1.00813 1.00896 0.999676 0.999496
1.00776 1.00864 1.00003 0.999094
1.01062 1.00981 1.00159 0.99921
0.986353 0.986526 1.00132 0.998508
0.961361 0.967027 0.998654 0.99548
0.922351 0.943992 0.979441 0.997585
0.930937 0.960593 0.970179 0.998915
0.999768 1 1 0.999768
0.99991 1 1 0.99991
0.999903 1 1 0.999903
0.999768 1 1 0.999768
0.999681 1 1 0.999681
0.999702 1 1 0.999702
0.999772 1 1 0.999772
0.99978 1 1 0.99978
1.00149 1.00231 1.00003 0.999157
1.00392 1.00548 0.999126 0.99933
0.999157 1.00053 0.999317 0.999308
1.00176 1 1.00243 0.999331
1.00156 1 1.00247 0.999098
0.999739 1 1.00046 0.999283
0.999515 1 1.00019 0.999324
0.999472 1 1 0.999472
0.999711 1 1 0.999711
0.999563 1 1 0.999563
0.999774 1 1 0.999774
0.999631 1 1 0.999631
1.00887 1.01026 0.999465 0.999162
0.999604 1 1 0.999604
0.999582 1 1 0.999582
1.00056 1.00401 0.997283 0.999277
0.999877 1.00039 1.0004 0.999089
1.00182 1 1.0026 0.99922
0.999422 1 1 0.999422
1.00138 1 1.00215 0.999228
1.00195 1.01229 0.990652 0.999124
0.999821 1.00086 0.999842 0.999114
1.00017 1 1.00103 0.999139
1.0043 1 1.0051 0.999207
0.999524 1 1 0.999524
0.99946 1 1 0.99946
0.999845 1 1.00054 0.999301
0.931597 0.948176 0.984288 0.998199
0.959833 0.965575 0.99772 0.996325
0.999402 1 1 0.999402
0.99932 1 1 0.99932
0.999123 1.00851 0.991472 0.99921
0.999201 1.0007 0.999438 0.999065
1.00405 1 1.00494 0.999115
0.958803 0.964993 0.998129 0.995449
0.998398 0.997939 1.00191 0.998553
0.997753 1.01377 0.98484 0.999353
0.92981 0.946749 0.984338 0.997735
0.921532 0.958559 0.962528 0.998798
0.999398 1 1 0.999398
0.930834 0.947875 0.983714 0.998279
0.954217 0.967883 0.98681 0.999058
0.981827 1.00222 0.980434 0.999201
1.00197 1 1.00266 0.999309
1.00822 1 1.00906 0.999171
0.989601 1.00758 0.982812 0.999334
0.971315 0.972629 1.00296 0.995703
1.00143 0.998895 1.00413 0.998421
0.931018 0.951677 0.98057 0.997677
0.969717 0.998688 0.971722 0.999248
0.999381 1 1 0.999381
0.969425 0.972471 0.997557 0.999308
1.01475 1.01724 0.997914 0.999631
0.989381 1 0.990039 0.999336
1.00718 1 1.00775 0.999436
1.00863 1.00361 1.00537 0.999633
0.996147 0.995635 1.0015 0.999013
0.975339 0.973149 1.00643 0.995849
0.94882 0.972713 0.977741 0.997643
0.994657 1.01757 0.978 0.99947
0.999409 1 1 0.999409
0.99939 1 1 0.99939
0.999819 1 1.00042 0.999397
0.999823 1 1 0.999823
0.99971 1 1 0.99971
0.999613 1 1 0.999613
0.999551 1 1 0.999551
0.999445 1 1 0.999445
0.999709 1 1 0.999709
0.999518 1 1 0.999518
0.9996 1 1 0.9996
0.99966 1 1.00024 0.999415
0.999954 1 1.00055 0.9994
0.999578 1 1.00009 0.999491
0.999605 1 1 0.999605
0.999715 1 1 0.999715
0.999598 1 1 0.999598
0.999612 1 1 0.999612
0.999597 1 1 0.999597
0.999543 1 1 0.999543
0.999569 1 1 0.999569
0.999538 1 1 0.999538
0.9995 1 1 0.9995
0.999461 1 1 0.999461
0.99946 1 1 0.99946
0.999515 1 1 0.999515
0.999536 1 1 0.999536
0.999652 1 1 0.999652
0.999679 1 1 0.999679
0.999822 1 1 0.999822
0.999701 1 1 0.999701
0.999835 1 1 0.999835
0.999986 1 1 0.999986
0.999823 1 1 0.999823
0.999988 1 1 0.999988
1 1 1 1
0.999989 1 1 0.999989
1 1 1 1
1 1 1 1
1 1 1 1
1 1 1 1
1 1 1 1
0.999914 1 1 0.999914
1 1 1 1
0.999906 1 1 0.999906
1 1 1 1
1 1 1 1
1 1 1 1
1 1 1 1
1 1 1 1
1 1 1 1
1 1 1 1
1 1 1 1
0.931445 0.945725 0.986462 0.998418
0.956606 0.968735 0.988253 0.999217
0.983498 0.98512 0.9994 0.998953
1.00816 1.0088 0.999862 0.999507
1.00827 1.00917 1.00003 0.999079
0.985907 0.985026 1.00165 0.999246
1.00961 1.0096 1.0008 0.999218
0.964178 0.969111 0.998622 0.996282
0.929916 0.945 0.985618 0.998397
0.926694 0.960316 0.966092 0.998858
1.00045 0.997681 1.00333 0.999444
0.970836 0.972453 1.00217 0.996174
0.927166 0.950593 0.976946 0.998371
0.970499 0.99549 0.975742 0.999132
0.999647 1 1 0.999647
0.999776 1 1 0.999776
0.999909 1 1 0.999909
0.999762 1 1 0.999762
0.999691 1 1 0.999691
0.999664 1 1 0.999664
0.999704 1 1 0.999704
0.999721 1 1 0.999721
0.999761 1 1 0.999761
0.999772 1 1 0.999772
1.00916 1.01101 0.999025 0.999143
0.999707 1.00338 0.997063 0.999274
0.999661 1.00041 1.00013 0.999122
1.00215 1 1.00295 0.999198
1.00121 1 1.00198 0.999232
0.999417 1 1 0.999417
0.999584 1 1 0.999584
0.999611 1 1 0.999611
1.00342 1.01216 0.992262 0.999095
0.999518 1 1 0.999518
0.999446 1 1 0.999446
0.999283 1.00054 0.999657 0.999086
1.00051 1 1.00133 0.999173
1.00335 1 1.00416 0.999191
1.00041 1 1.00112 0.999294
1.00479 1.01275 0.993155 0.998985
1.00546 1 1.00621 0.999252
1.00396 1 1.00476 0.999208
0.999511 1 1 0.999511
0.999428 1 1 0.999428
0.999331 1 1 0.999331
0.9686 0.973651 0.99558 0.999228
0.933864 0.947318 0.98811 0.99766
0.956902 0.965399 0.995056 0.996124
0.999396 1 1 0.999396
1.00156 1 1.00225 0.999314
0.983758 1.00234 0.982257 0.999191
1.00767 1 1.00849 0.999185
0.928809 0.947568 0.982526 0.997636
0.969768 0.971873 1.00107 0.996768
1.00258 0.999927 1.00489 0.997773
0.987593 1.00518 0.983161 0.999331
0.934595 0.951455 0.983788 0.998467
0.954637 0.968378 0.986795 0.999002
0.961982 0.993052 0.96954 0.999147
0.999379 1 1 0.999379
0.966063 0.972244 0.994394 0.999244
1.01424 1.01683 0.997815 0.999635
0.991819 1 0.99247 0.999345
1.00735 1 1.00791 0.999438
1.00806 1.00315 1.00565 0.999247
0.996886 0.995926 1.00293 0.998036
0.973923 0.974637 1.00354 0.995745
0.954425 0.975654 0.979643 0.998569
0.987623 1.01123 0.977266 0.999377
0.999756 1 1.00021 0.999547
1.02014 1.02063 0.999791 0.999735
1.02383 1.02672 0.997399 0.999792
1.00796 1 1.00825 0.999717
0.997622 0.991752 1.00637 0.999548
0.981087 0.979295 1.0061 0.995755
0.976797 0.991308 0.986685 0.99866
0.989074 1.01333 0.976703 0.999348
0.999382 1 1 0.999382
0.999767 1 1.00036 0.999412
1.00077 1 1.0013 0.999465
0.999709 1 1 0.999709
0.9996 1 1 0.9996
0.999527 1 1 0.999527
0.999692 1 1.00028 0.999411
0.999605 1 1 0.999605
0.999523 1 1.00003 0.999492
1.00033 1 1.00093 0.999401
1.00032 1 1.00086 0.999462
0.999628 1 1.00021 0.999415
0.999526 1 1 0.999526
0.999612 1 1 0.999612
0.999596 1 1 0.999596
0.99954 1 1 0.99954
0.999539 1 1 0.999539
0.999569 1 1 0.999569
0.999505 1 1 0.999505
0.999474 1 1 0.999474
0.999474 1 1 0.999474
0.99943 1 1 0.99943
0.999464 1 1 0.999464
0.999441 1 1 0.999441
0.9994 1 1 0.9994
0.999542 1 1 0.999542
0.99949 1 1 0.99949
0.999526 1 1 0.999526
0.999611 1 1 0.999611
0.999537 1 1 0.999537
0.999652 1 1 0.999652
0.999801 1 1 0.999801
0.999679 1 1 0.999679
0.999821 1 1 0.999821
0.999982 1 1 0.999982
0.999834 1 1 0.999834
0.999985 1 1 0.999985
1 1 1 1
0.999987 1 1 0.999987
1 1 1 1
1 1 1 1
1 1 1 1
1 1 1 1
1 1 1 1
0.999871 1 1 0.999871
1 1 1 1
0.999896 1 1 0.999896
1 1 1 1
1 1 1 1
0.999906 1 1 0.999906
1 1 1 1
1 1 1 1
1 1 1 1
1 1 1 1
1 1 1 1
1 1 1 1
0.969814 0.97277 0.997591 0.999369
0.932044 0.945655 0.987587 0.997995
1.01293 1.01737 0.996014 0.999616
0.953526 0.966844 0.987045 0.999169
0.981985 0.983685 0.999871 0.998401
1.00869 1.00942 1.00004 0.999226
0.965294 0.968948 0.999118 0.997108
0.927712 0.946132 0.982859 0.997633
0.922472 0.960158 0.961904 0.998801
0.997966 0.998635 1.00021 0.999121
0.970495 0.970836 1.00368 0.995985
0.929274 0.954071 0.976321 0.997632
0.97095 0.995872 0.975823 0.999131
1.00034 1.00401 0.997096 0.999248
0.970963 0.970912 1.00425 0.995817
0.957905 0.978205 0.980696 0.998523
0.99242 1.01576 0.977597 0.999407
0.999575 1 1 0.999575
0.999659 1 1 0.999659
0.999784 1 1 0.999784
0.999702 1 1 0.999702
0.999595 1 1 0.999595
0.999672 1 1 0.999672
0.999707 1 1 0.999707
0.999706 1 1 0.999706
0.999732 1 1 0.999732
0.99975 1 1 0.99975
1.00501 1.01235 0.993679 0.999066
0.998417 1.00022 0.999143 0.999058
1.0008 1 1.00159 0.999207
1.00266 1 1.00349 0.999175
1.00105 1 1.00176 0.999287
0.999432 1 1 0.999432
0.999513 1 1 0.999513
0.999512 1 1 0.999512
1.00244 1.01039 0.993125 0.999002
0.999435 1 1 0.999435
0.999419 1 1.00009 0.999329
1.00418 1 1.00497 0.999216
1.00382 1 1.00462 0.999209
0.998467 1.01062 0.988806 0.999161
1.01588 1 1.01652 0.999371
1.00006 1 1.00078 0.999278
0.999448 1 1 0.999448
0.999332 1 1 0.999332
1.02116 1.02164 0.999768 0.999766
0.969547 0.97311 0.997024 0.999313
0.933425 0.948056 0.986163 0.998382
0.999377 1 1 0.999377
1.0073 1 1.00786 0.999441
0.993188 1 0.993831 0.999353
0.97022 0.973189 0.997597 0.999351
0.973722 0.972277 1.00582 0.995694
0.998218 0.995898 1.00349 0.998839
1.00391 1.002 1.00307 0.998837
0.95046 0.972242 0.979903 0.997645
1.014 1.0167 0.997703 0.999639
0.985919 1.00914 0.977588 0.999387
0.999695 1 1.00014 0.999559
1.02033 1.02064 0.999921 0.999777
1.0247 1.02791 0.997088 0.999795
1.00787 0.999985 1.00828 0.999609
0.998396 0.993831 1.00534 0.999254
0.984619 0.981324 1.00773 0.995665
0.99247 1.01752 0.975941 0.999428
0.96815 0.985162 0.984482 0.998222
0.999975 1 1.00026 0.999711
1.02539 1.02717 0.998346 0.999924
1.02712 1.02994 0.997446 0.999815
0.993367 1.01481 0.979449 0.99941
1.0054 0.993764 1.01188 0.999828
0.982376 0.98003 1.00635 0.996068
0.9627 0.978817 0.984978 0.998533
0.999694 1 1.00027 0.999427
1.00052 1 1.00109 0.999429
1.00312 1 1.00355 0.999569
0.999605 1 1 0.999605
0.999492 1 1 0.999492
1.00078 1 1.00138 0.999403
0.999529 1 1 0.999529
0.999739 1 1.00033 0.999414
1.0007 1 1.00126 0.999438
0.999862 1 1.00035 0.999508
0.999442 1 1 0.999442
0.999541 1 1 0.999541
0.999569 1 1 0.999569
0.999509 1 1 0.999509
0.999474 1 1 0.999474
0.999477 1 1 0.999477
0.999446 1 1 0.999446
0.999452 1 1 0.999452
1.00021 1 1.00089 0.999316
0.999467 1 1 0.999467
0.999439 1 1 0.999438
0.999307 1 1 0.999307
0.999411 1 1 0.999411
0.999525 1 1 0.999525
0.999402 1 1 0.999402
0.999609 1 1 0.999609
0.999534 1 1 0.999534
0.99952 1 1 0.99952
0.999537 1 1 0.999537
0.999621 1 1 0.999621
0.999774 1 1 0.999774
0.999652 1 1 0.999652
0.9998 1 1 0.9998
0.999977 1 1 0.999977
0.999821 1 1 0.999821
0.999981 1 1 0.999981
1 1 1 1
0.999984 1 1 0.999984
1 1 1 1
1 1 1 1
1 1 1 1
1 1 1 1
1 1 1 1
0.999814 1 1 0.999814
0.999974 1 1 0.999974
0.99987 1 1 0.99987
1 1 1 1
0.99999 1 1 0.99999
0.999877 1 1 0.999877
1 1 1 1
1 1 1 1
1 1 1 1
1 1 1 1
1 1 1 1
1 1 1 1
1.02008 1.02068 0.999662 0.99975
0.964512 0.972081 0.993008 0.9992
0.934737 0.945827 0.990524 0.997729
0.999662 1 1 0.999662
1.02623 1.02905 0.997425 0.999836
1.01404 1.01774 0.996742 0.999619
0.948862 0.966928 0.982254 0.999044
0.996173 0.999419 0.997987 0.998762
0.971181 0.971501 1.00357 0.996116
0.933076 0.957108 0.976435 0.998418
0.968833 0.993556 0.976035 0.999059
1.00183 1.0071 0.99641 0.998351
0.97189 0.971304 1.00471 0.995913
0.958564 0.978135 0.981811 0.998146
0.989708 1.01415 0.976551 0.999335
0.994724 0.998486 0.998209 0.998019
0.977202 0.974377 1.00793 0.995007
0.968648 0.987762 0.982798 0.997814
0.990005 1.01553 0.975516 0.999334
0.999504 1 1 0.999504
0.999568 1 1 0.999568
0.999671 1 1 0.999671
0.99958 1 1 0.99958
0.999609 1 1 0.999609
0.999681 1 1 0.999681
0.99971 1 1 0.99971
0.999743 1 1 0.999743
1.00014 1.00784 0.993331 0.999019
1.00289 1 1.00371 0.999181
0.999513 1 1 0.999513
1.00358 1 1.00438 0.999209
0.999493 1 1.00017 0.999327
0.999443 1 1 0.999443
0.999449 1 1 0.999449
1.00201 1.00978 0.993127 0.99917
0.999342 1 1 0.999342
1.00088 1 1.0016 0.999272
1.01424 1 1.0149 0.999352
0.99945 1 1 0.99945
0.998931 1.00288 0.996519 0.999545
1.01308 1 1.01363 0.999459
0.999347 1 1 0.999347
0.999387 1 1 0.999387
1.02569 1.02647 0.999312 0.999931
1.02059 1.02111 0.999723 0.99977
0.970441 0.97243 0.998555 0.999399
0.999572 1 1 0.999572
1.00833 0.999979 1.00885 0.999503
1.02051 1.0207 0.999995 0.999818
0.98034 0.976306 1.00841 0.995755
1.00184 0.995817 1.0077 0.998365
0.967573 0.985945 0.983497 0.997833
1.02532 1.02881 0.996807 0.999798
0.996348 1.02222 0.975166 0.999509
1.00015 1 1.00047 0.999678
1.02604 1.02789 0.998278 0.999924
1.02736 1.02994 0.997638 0.999847
1.00662 0.994965 1.01179 0.999931
0.98989 1.01295 0.977885 0.999335
0.981047 0.980866 1.00397 0.996229
0.964323 0.982503 0.983727 0.997732
1.00633 0.997978 1.0086 0.999771
1.02311 1.02507 0.998144 0.999944
1.02711 1.0293 0.998035 0.999833
0.970216 0.995377 0.975558 0.999144
0.967078 0.986313 0.982641 0.99782
1.00165 0.99175 1.00984 1.00014
0.977955 0.97515 1.00698 0.995927
1.00028 1 1.00089 0.999393
1.00223 1 1.00268 0.999553
1.0122 1 1.01262 0.999581
0.999531 1 1 0.999531
0.999778 1 1.00037 0.999412
1.00095 1 1.00154 0.999414
0.999442 1 1 0.999442
0.999939 1 1.00043 0.999506
1.00282 1 1.00337 0.999445
0.999475 1 1 0.999475
0.99948 1 1 0.99948
0.999616 1 1.00018 0.999437
1.00198 1 1.00267 0.999318
0.999475 1 1 0.999475
0.999909 1 1.00057 0.999337
1.0007 1 1.0015 0.999203
0.999281 1 1.00002 0.999264
0.999437 1 1 0.999435
0.999289 1 1 0.999288
0.999466 1 1 0.999466
0.999505 1 1 0.999505
0.999426 1 1 0.999426
0.999605 1 1 0.999605
0.999523 1 1 0.999523
0.999404 1 1 0.999404
0.99975 1 1 0.99975
0.999605 1 1 0.999605
0.999526 1 1 0.999526
0.999632 1 1 0.999632
0.999774 1 1 0.999774
0.999967 1 1 0.999967
0.9998 1 1 0.9998
0.999975 1 1 0.999975
1 1 1 1
0.999979 1 1 0.999979
1 1 1 1
1 1 1 1
1 1 1 1
1 1 1 1
1 1 1 1
0.999787 1 1 0.999787
0.999958 1 1 0.999958
0.999825 1 1 0.999825
1 1 1 1
0.999974 1 1 0.999974
0.999868 1 1 0.999868
1 1 1 1
1 1 1 1
0.99998 1 1 0.99998
1 1 1 1
1 1 1 1
1 1 1 1
1.02653 1.02752 0.999119 0.99992
1.01994 1.02073 0.999473 0.999753
0.96554 0.972041 0.994102 0.999205
0.999667 1 1 0.999667
0.999635 1 1 0.999635
0.999583 1 1 0.999583
1.02618 1.02913 0.997318 0.999815
1.02697 1.02943 0.997777 0.999838
1.01567 1.01812 0.997973 0.999623
1.00813 1.01047 0.998554 0.999123
0.972151 0.970974 1.00536 0.995872
0.954584 0.974838 0.98154 0.99764
0.990993 1.01623 0.975769 0.99938
0.990789 0.996478 0.995445 0.99884
0.97691 0.974303 1.00688 0.995826
0.970816 0.987203 0.984823 0.998556
0.992739 1.01901 0.974788 0.99942
0.982366 0.989622 0.993756 0.998904
0.982027 0.976682 1.00954 0.995975
0.968087 0.982829 0.986503 0.998477
0.993021 1.0161 0.977807 0.999466
0.999486 1 1 0.999486
0.999504 1 1 0.999504
0.99956 1 1 0.99956
0.999579 1 1 0.999579
0.999623 1 1 0.999623
0.999714 1 1 0.999714
1.00571 1.00883 0.997726 0.999179
1.01249 1 1.01316 0.999334
0.999451 1 1 0.999451
1.00158 1 1.00231 0.999266
0.999351 1 1 0.999351
0.999447 1 1 0.999447
0.999384 1 1 0.999384
1.00171 1.0039 0.998283 0.999536
0.999364 1 1 0.999364
1.01271 0.999123 1.01412 0.999484
0.999421 1 1 0.999421
1.01751 0.996564 1.02127 0.999754
0.998092 0.998032 1.00044 0.999624
0.999364 1 1 0.999364
1.02109 1.02211 0.99904 0.999959
1.02498 1.02585 0.99921 0.999937
1.01999 1.02057 0.99965 0.999774
1.00035 1 1.00071 0.999645
1.00218 0.99459 1.00765 0.999985
1.02664 1.02855 0.998226 0.999924
0.988362 0.984471 1.00633 0.997636
0.972152 0.98685 0.986455 0.998633
1.02785 1.03002 0.998015 0.99988
0.991781 1.01514 0.977594 0.999381
1.00522 0.998571 1.00687 0.999788
1.02274 1.02434 0.998493 0.999948
1.02802 1.02969 0.998548 0.999835
1.00284 0.990569 1.01324 0.99916
0.970196 0.99588 0.975049 0.999139
0.968664 0.985797 0.984044 0.998553
0.982076 0.978023 1.00804 0.996132
1.02477 0.999164 1.02574 0.999889
1.02656 1.02734 0.999325 0.999918
1.01441 1.01807 0.996799 0.99961
0.930094 0.959619 0.970279 0.998921
0.955558 0.976604 0.979864 0.998557
0.987184 0.980242 1.0111 0.99603
0.982021 0.988528 0.994531 0.99888
1.00121 1 1.00167 0.999538
1.01327 1 1.01369 0.999586
1.0195 1 1.01998 0.999532
0.999441 1 1 0.999441
1.00006 1 1.00055 0.999503
1.00226 1 1.00281 0.999454
1.0105 1 1.01119 0.999324
0.999747 1 1.00032 0.999428
1.00221 1 1.00292 0.999295
1.00575 1 1.00663 0.99913
0.999618 1 1.00026 0.999358
1.00118 1 1.00199 0.9992
1.00161 1 1.00251 0.999104
0.999184 1 1.00002 0.999167
0.9994 1 1 0.9994
0.999351 1 1.0001 0.99925
0.99927 1 1 0.999268
0.999523 1 1 0.999523
0.999482 1 1 0.999482
0.999573 1 1 0.999573
0.999516 1 1 0.999516
0.999441 1 1 0.999441
0.999727 1 1 0.999727
0.999606 1 1 0.999606
0.999521 1 1 0.999521
0.999953 1 1 0.999953
0.99975 1 1 0.99975
0.999601 1 1 0.999601
0.999774 1 1 0.999774
0.999965 1 1 0.999965
1 1 1 1
0.999972 1 1 0.999972
1 1 1 1
1 1 1 1
1 1 1 1
1 1 1 1
1 1 1 1
0.999783 1 1 0.999783
0.999972 1 1 0.999972
0.999796 1 1 0.999796
1 1 1 1
0.999972 1 1 0.999972
0.999836 1 1 0.999836
1 1 1 1
1 1 1 1
0.999973 1 1 0.999973
1 1 1 1
1 1 1 1
1 1 1 1
1.0234 1.02503 0.998468 0.999943
1.02686 1.02793 0.999037 0.99992
1.01969 1.02078 0.999175 0.999756
0.999623 1 1 0.999623
0.999567 1 1 0.999567
0.999672 1 1 0.999672
0.999633 1 1 0.999633
0.999572 1 1 0.999572
0.999563 1 1 0.999563
0.999515 1 1 0.999515
1.02256 1.02506 0.997775 0.999791
1.02663 1.02944 0.997419 0.999847
1.02736 1.02982 0.997777 0.99984
0.996356 1.02316 0.974286 0.999506
0.992017 0.999739 0.994216 0.998048
0.979623 0.975674 1.00747 0.996598
0.970684 0.98377 0.988979 0.997694
0.984583 0.989761 0.996322 0.998441
0.981774 0.978455 1.00753 0.995891
0.969714 0.986684 0.985036 0.99773
0.988045 1.01162 0.977327 0.999353
0.977609 0.983078 0.995191 0.999242
0.976377 0.979989 1.0005 0.995818
0.982917 0.995614 0.988644 0.998588
0.976266 0.999867 0.977084 0.999295
0.99947 1 1 0.99947
0.999484 1 1 0.999484
0.999503 1 1 0.999503
0.999578 1 1 0.999578
1.00402 1.00489 0.999607 0.999526
1.01261 0.998167 1.01497 0.999508
0.999443 1 1 0.999443
0.999381 1 1 0.999381
0.99938 1 1 0.99938
0.999423 1 1 0.999423
0.999355 1 1 0.999355
1.00863 0.994445 1.01451 0.999754
0.999094 0.998988 1.00044 0.999668
0.999378 1 1 0.999378
1.01773 0.990011 1.02806 0.999943
1.00336 1 1.00395 0.999411
1.02619 1.02663 0.999645 0.999929
1.01893 1.0198 0.999185 0.999965
1.02437 1.02525 0.999198 0.999943
1.00402 0.999113 1.00511 0.999805
1.00416 0.990522 1.01367 1.0001
1.02236 1.02365 0.998792 0.999952
0.977841 0.975092 1.00691 0.995938
0.96732 0.981591 0.987728 0.997706
1.02848 1.03007 0.998619 0.999837
0.968445 0.993344 0.975837 0.999074
1.02673 0.998286 1.02863 0.999873
1.02679 1.0277 0.999189 0.999919
1.01567 1.0185 0.997604 0.999614
0.986516 0.991214 0.995344 0.999916
0.92567 0.959366 0.965974 0.998864
0.954684 0.975171 0.980777 0.99818
0.989147 0.980508 1.01255 0.996305
1.01348 0.9977 1.01598 0.999835
1.02056 1.02078 1.00004 0.999746
0.956523 0.968434 0.988469 0.999222
0.925734 0.948897 0.977175 0.998376
0.980232 0.975816 1.00865 0.995907
0.980956 0.989915 0.992503 0.998434
1.01446 1 1.01487 0.99959
1.02018 1 1.02066 0.999529
1.01514 1 1.01572 0.999433
1.00176 1 1.0023 0.999462
1.01095 1 1.01161 0.999344
1.00831 1 1.00918 0.999131
1.00255 1 1.00328 0.999273
1.00578 1 1.00667 0.999111
1.00316 1 1.00416 0.999005
1.00167 1 1.00248 0.999196
1.00144 1 1.00236 0.999086
1.00085 1 1.0018 0.999052
0.999145 1 1 0.999145
0.99929 1 1 0.99929
0.999274 1 1.00012 0.999149
0.999487 1 1 0.999487
0.999411 1 1 0.999411
0.999419 1 1.00018 0.999236
0.999552 1 1 0.999552
0.999518 1 1 0.999518
0.999499 1 1 0.999499
0.999694 1 1 0.999694
0.999581 1 1 0.999581
0.999526 1 1 0.999526
0.99993 1 1 0.99993
0.999728 1 1 0.999728
0.999607 1 1 0.999607
1 1 1 1
0.999951 1 1 0.999951
0.999751 1 1 0.999751
0.999962 1 1 0.999962
1 1 1 1
1 1 1 1
1 1 1 1
1 1 1 1
1 1 1 1
0.999624 1 1 0.999624
0.99976 1 1 0.99976
0.999963 1 1 0.999963
0.999783 1 1 0.999783
1 1 1 1
0.999975 1 1 0.999975
0.999805 1 1 0.999805
1 1 1 1
1 1 1 1
0.999986 1 1 0.999986
1 1 1 1
1 1 1 1
1 1 1 1
1.02585 1.02662 0.999336 0.999923
1.02311 1.02434 0.998852 0.999947
1.02721 1.02834 0.998978 0.99992
0.999628 1 1 0.999628
0.99956 1 1 0.99956
0.999542 1 1 0.999542
0.999554 1 1 0.999554
0.999525 1 1 0.999525
0.999631 1 1 0.999631
0.99956 1 1 0.99956
0.999563 1 1 0.999563
0.999513 1 1 0.999513
0.999514 1 1 0.999514
1.01417 1.01538 0.999178 0.999624
1.02341 1.02619 0.997493 0.999794
1.02677 1.02951 0.997465 0.999879
0.985864 1.00925 0.977445 0.999365
0.975483 0.988984 0.987732 0.9986
0.983186 0.988117 0.996978 0.998026
0.97938 0.979944 1.00345 0.995988
0.981611 0.983334 0.999908 0.998339
0.980505 0.979152 1.00546 0.995944
0.973118 0.989318 0.985427 0.998172
0.971435 0.997674 0.974443 0.999238
0.996968 0.982124 1.01655 0.998583
0.978937 0.980982 1.00185 0.996072
0.950457 0.973579 0.978538 0.997663
0.936922 0.969146 0.967794 0.99892
0.999552 1 1 0.999552
0.999471 1 1 0.999471
0.999482 1 1 0.999482
1.00052 0.992812 1.00801 0.999753
1.00012 1 1.00041 0.999715
0.999425 1 1 0.999425
0.999346 1 1 0.999346
0.99942 1 1.00003 0.999386
1.00385 1 1.00444 0.99941
1.01738 0.991548 1.02611 0.999945
1.00378 1 1.00435 0.999431
1.01122 0.997524 1.01406 0.999674
1.02058 1.02082 1 0.999758
1.0254 1.02589 0.999593 0.999936
1.01672 1.01749 0.999277 0.99997
1.02855 0.997469 1.03131 0.999855
0.985295 0.990306 0.996244 0.998691
1.02705 1.02806 0.999098 0.999919
0.980921 0.978541 1.00739 0.995083
0.952237 0.973182 0.980731 0.997703
1.01748 1.01894 0.998948 0.999617
0.921882 0.959449 0.961992 0.998807
1.01389 0.998098 1.01598 0.999838
1.02051 1.02087 0.999899 0.999749
0.953363 0.966346 0.987379 0.999174
0.97817 0.9893 0.98979 0.998948
0.928655 0.952973 0.976774 0.997654
0.979784 0.976799 1.00766 0.995432
0.994896 0.997422 0.997828 0.999639
0.969671 0.972629 0.997584 0.999373
0.922845 0.943364 0.980603 0.997599
0.974753 0.973032 1.00595 0.995839
0.997676 0.996259 1.00247 0.998953
1.02042 1 1.02091 0.999525
1.01773 1 1.01831 0.999432
0.997216 1 0.997951 0.999264
1.01122 1 1.01187 0.999365
1.00784 1 1.0087 0.999148
1.00163 1 1.00259 0.999043
1.00569 1 1.00661 0.999091
1.0028 1 1.0038 0.999008
0.99911 1 1.00003 0.999076
1.00126 1 1.00219 0.999067
1.00042 1 1.00136 0.999059
0.999161 1 1 0.999161
0.999233 1 1 0.999233
0.99923 1 1 0.99923
0.999151 1 1 0.999151
0.999401 1 1 0.999401
0.999269 1 1 0.999269
0.999368 1 1.00024 0.999132
0.999555 1 1 0.999555
0.9995 1 1 0.9995
0.999422 1 1 0.999422
0.999658 1 1 0.999658
0.999554 1 1 0.999554
0.999514 1 1 0.999514
0.999895 1 1 0.999895
0.999694 1 1 0.999694
0.999589 1 1 0.999589
1 1 1 1
0.999929 1 1 0.999929
0.999729 1 1 0.999729
1 1 1 1
1 1 1 1
0.999949 1 1 0.999949
1 1 1 1
1 1 1 1
1 1 1 1
0.999598 1 1 0.999598
0.999736 1 1 0.999736
0.999618 1 1 0.999618
0.999954 1 1 0.999954
0.99976 1 1 0.99976
1 1 1 1
0.999965 1 1 0.999965
0.999783 1 1 0.999783
1 1 1 1
1 1 1 1
0.999978 1 1 0.999978
1 1 1 1
1 1 1 1
1 1 1 1
1.01931 1.01952 1 0.9998
1.02676 1.02755 0.999312 0.999923
1.0228 1.02369 0.999182 0.999951
0.999548 1 1 0.999548
0.999632 1 1 0.999632
0.999553 1 1 0.999553
0.999562 1 1 0.999562
0.999549 1 1 0.999549
0.999525 1 1 0.999525
0.999504 1 1 0.999504
0.999509 1 1 0.999509
0.999564 1 1 0.999564
0.999511 1 1 0.999511
0.999513 1 1 0.999513
0.999502 1 1 0.999502
0.954715 0.970335 0.984855 0.999033
1.01332 1.01464 0.99907 0.999627
1.02458 1.02757 0.997295 0.999797
0.964761 0.99338 0.972046 0.99912
0.974759 0.99151 0.985267 0.997807
0.975288 0.979213 1.00016 0.995832
0.98395 0.980509 1.00419 0.999326
0.996328 0.980567 1.01655 0.99953
0.930713 0.964302 0.966262 0.998868
0.981857 0.979824 1.0066 0.995508
0.951547 0.973628 0.978782 0.998508
0.99234 0.988914 1.00396 0.999507
0.976615 0.975346 1.00512 0.9962
0.927006 0.949301 0.978092 0.998387
1.00008 1 1.00041 0.999677
0.999553 1 1 0.999553
0.999472 1 1 0.999472
1.01693 0.993132 1.02402 0.999944
1.00447 1 1.00506 0.999409
0.999445 1 1.00005 0.999395
1.00408 1 1.00465 0.999433
1.01078 0.998602 1.01251 0.999685
1.00907 1 1.00939 0.999684
0.968346 0.973199 0.995854 0.999156
1.02031 1.02053 0.999986 0.9998
1.02471 1.02516 0.999616 0.999942
1.0143 0.998531 1.01596 0.999843
0.979759 0.99154 0.988792 0.999318
1.02037 1.02097 0.999666 0.999751
0.982126 0.977975 1.00757 0.996696
0.932522 0.955857 0.977124 0.998427
0.948355 0.966541 0.982118 0.99905
0.994586 0.998036 0.996885 0.999656
0.963927 0.971773 0.992717 0.999204
0.930678 0.944028 0.987424 0.998415
0.997412 0.994304 1.00502 0.998118
0.976223 0.975542 1.00481 0.995909
0.989422 1.00537 0.984661 0.999465
0.931205 0.945771 0.986146 0.998431
0.973255 0.97305 1.00414 0.99609
1.00274 1.00314 1.0016 0.998001
1.02117 1 1.02175 0.99943
0.994563 1 0.995283 0.999277
0.989578 1.00022 0.990109 0.999239
1.00756 1 1.00841 0.999164
1.00161 1 1.00256 0.999046
0.999591 1.00038 1 0.999214
1.00246 1 1.00346 0.99901
0.999389 1 1.0003 0.999087
0.999335 1.00003 1 0.999301
0.999984 1 1.00092 0.999067
0.999166 1 1 0.999166
0.999346 1 1 0.999346
0.999374 1 1 0.999374
0.999265 1 1 0.999265
0.999247 1 1 0.999247
0.999331 1 1 0.999331
0.999243 1 1 0.999243
0.999157 1 1 0.999157
0.999517 1 1 0.999517
0.9994 1 1 0.9994
0.999249 1 1 0.999249
0.99964 1 1 0.99964
0.999554 1 1 0.999554
0.999513 1 1 0.999513
0.999853 1 1 0.999853
0.999659 1 1 0.999659
0.999556 1 1 0.999556
1 1 1 1
0.999894 1 1 0.999894
0.999694 1 1 0.999694
1 1 1 1
1 1 1 1
0.999928 1 1 0.999928
1 1 1 1
1 1 1 1
1 1 1 1
0.999603 1 1 0.999603
0.999601 1 1 0.999601
0.999712 1 1 0.999712
0.999942 1 1 0.999942
0.999736 1 1 0.999736
0.999612 1 1 0.999612
1 1 1 1
0.999956 1 1 0.999956
0.99976 1 1 0.99976
1 1 1 1
1 1 1 1
0.999968 1 1 0.999968
1 1 1 1
1 1 1 1
1 1 1 1
0.969135 0.972277 0.997458 0.999309
1.01933 1.01953 1 0.999803
1.02762 1.02841 0.999304 0.999923
0.999543 1 1 0.999543
0.999554 1 1 0.999554
0.999515 1 1 0.999515
0.99957 1 1 0.99957
0.999556 1 1 0.999556
0.999524 1 1 0.999524
0.999511 1 1 0.999511
0.999506 1 1 0.999506
0.999471 1 1 0.999471
0.999504 1 1 0.999504
0.999512 1 1 0.999512
0.999504 1 1 0.999504
0.930739 0.945863 0.985546 0.998441
0.954868 0.968607 0.986749 0.999055
1.01275 1.01407 0.99907 0.99963
0.9249 0.959913 0.964669 0.998815
0.948966 0.970345 0.980252 0.997669
0.989432 0.984723 1.00791 0.996898
1.00192 0.980558 1.02329 0.998538
0.992816 0.988882 1.00543 0.99856
0.929858 0.950996 0.980039 0.997688
0.980872 0.978409 1.00603 0.996506
0.993982 0.990489 1.00493 0.998605
0.976857 0.975585 1.00522 0.996102
1.00768 1 1.00819 0.999496
0.999939 1 1.00027 0.999672
0.999554 1 1 0.999554
1.00951 0.998934 1.0109 0.999696
1.00437 1 1.00494 0.999436
1.00877 0.999946 1.00918 0.999655
1.00157 1.00067 1.00146 0.999439
0.930695 0.949052 0.982396 0.99823
0.969247 0.972672 0.997201 0.999276
1.01993 1.02018 0.999918 0.999842
0.993214 0.99829 0.995238 0.999676
0.998456 0.993788 1.00577 0.998932
0.96503 0.971955 0.993662 0.999209
0.976796 0.973841 1.00718 0.995881
0.927383 0.94496 0.983718 0.997643
0.991603 1.00536 0.986863 0.999449
0.931943 0.945886 0.987246 0.997988
0.973368 0.972144 1.00533 0.995951
1.00272 1.00001 1.0039 0.998814
1.00909 1.01127 0.998595 0.99925
0.962389 0.967187 0.999596 0.995441
0.998531 1.00158 0.997876 0.99908
0.991905 1 0.99261 0.99929
0.991281 1.00031 0.991745 0.999225
0.992928 1.001 0.992648 0.999285
1.00152 1 1.00248 0.999049
0.999634 1.00053 0.999895 0.99921
1.00057 1.00171 0.999378 0.999486
0.999692 1 1.00059 0.999098
0.999364 1.00006 1 0.999303
0.999943 1.00045 1 0.999497
0.999172 1 1 0.999172
0.999346 1 1 0.999346
0.999473 1 1 0.999473
0.999449 1 1 0.999449
0.99939 1 1 0.99939
0.999362 1 1 0.999362
0.999325 1 1 0.999325
0.999267 1 1 0.999267
0.999262 1 1 0.999262
0.999432 1 1 0.999432
0.999346 1 1 0.999346
0.999256 1 1 0.999256
0.999615 1 1 0.999615
0.999515 1 1 0.999515
0.9994 1 1 0.9994
0.999818 1 1 0.999818
0.999641 1 1 0.999641
0.999553 1 1 0.999553
1 1 1 1
0.999852 1 1 0.999852
0.999661 1 1 0.999661
1 1 1 1
1 1 1 1
0.999894 1 1 0.999894
1 1 1 1
1 1 1 1
1 1 1 1
0.999593 1 1 0.999593
0.999594 1 1 0.999594
0.99969 1 1 0.99969
0.999603 1 1 0.999603
0.999711 1 1 0.999711
0.99992 1 1 0.99992
1 1 1 1
0.999943 1 1 0.999943
0.999736 1 1 0.999736
1 1 1 1
1 1 1 1
0.999958 1 1 0.999958
1 1 1 1
1 1 1 1
1 1 1 1
0.938207 0.947621 0.992235 0.997814
0.966946 0.972391 0.995185 0.999212
1.01936 1.01956 1 0.999807
0.999537 1 1 0.999537
0.999511 1 1 0.999511
0.99956 1 1 0.99956
0.999553 1 1 0.999553
0.999516 1 1 0.999516
0.999512 1 1 0.999512
0.999507 1 1 0.999507
0.999474 1 1 0.999474
0.999496 1 1 0.999496
0.999465 1 1 0.999465
0.999606 1 1.00026 0.999349
0.999502 1 1 0.999502
0.999505 1 1 0.999505
0.972394 0.97684 1.00005 0.995402
0.936014 0.948088 0.989136 0.998108
0.95427 0.96796 0.986852 0.998992
0.931504 0.951631 0.980363 0.998457
0.978156 0.975063 1.00799 0.995216
0.996004 0.99022 1.00632 0.999528
0.996324 0.99309 1.00417 0.999094
0.977053 0.977088 1.00375 0.996229
0.991714 0.998898 0.994196 0.998604
1.00606 1.00132 1.0057 0.999047
1.00614 1 1.00666 0.999485
0.999667 1 1 0.999667
1.00767 1 1.00804 0.999628
1.00061 1.00096 1.00017 0.999477
0.955297 0.965271 0.993478 0.996165
0.934096 0.948345 0.987227 0.997718
0.970594 0.97224 0.998909 0.999397
0.993754 1.00565 0.988736 0.999432
1.00669 1.00339 1.00529 0.998017
0.935314 0.945967 0.991006 0.997711
0.973867 0.971796 1.00608 0.996071
1.00325 1.01047 0.993613 0.999244
0.964726 0.968764 0.9996 0.99623
0.999856 1.00369 0.997916 0.998262
1.00405 1.01036 0.994695 0.99905
0.998342 0.99508 1.00389 0.99939
0.991854 1.00036 0.992283 0.99921
0.993844 1.00091 0.993667 0.999269
1.00131 1.00688 0.99512 0.999349
0.999536 1.0006 0.999732 0.999207
0.999717 1.0011 0.999141 0.99948
1.00089 1.00227 0.99908 0.999541
0.999393 1.00009 1 0.999305
0.99975 1.00027 0.999994 0.999487
0.999915 1.00042 0.999987 0.999509
0.999346 1 1 0.999346
0.999466 1 1 0.999466
0.999462 1 1 0.999462
0.999466 1 1 0.999466
0.999405 1 1 0.999405
0.999406 1 1 0.999406
0.999359 1 1 0.999359
0.999355 1 1 0.999355
0.999387 1 1 0.999387
0.999322 1 1 0.999322
0.99927 1 1 0.99927
0.999565 1 1 0.999565
0.999443 1 1 0.999443
0.999362 1 1 0.999362
0.99979 1 1 0.99979
0.999614 1 1 0.999614
0.999513 1 1 0.999513
0.999999 1 1 0.999999
0.999818 1 1 0.999818
0.999642 1 1 0.999642
1 1 1 1
1 1 1 1
0.999852 1 1 0.999852
1 1 1 1
1 1 1 1
1 1 1 1
0.99957 1 1 0.99957
0.999593 1 1 0.999593
0.999657 1 1 0.999657
0.999585 1 1 0.999585
0.999681 1 1 0.999681
0.999886 1 1 0.999886
0.999711 1 1 0.999711
0.99992 1 1 0.99992
1 1 1 1
1 1 1 1
1 1 1 1
0.999944 1 1 0.999944
1 1 1 1
1 1 1 1
1 1 1 1
0.966573 0.970669 0.999573 0.996205
0.93396 0.950144 0.984606 0.998335
0.969682 0.97298 0.997331 0.999278
0.999507 1 1 0.999507
0.999565 1 1 0.999565
0.999519 1 1 0.999519
0.999553 1 1 0.999553
0.999524 1 1 0.999524
0.999533 1 1 0.999533
0.999478 1 1 0.999478
0.999483 1 1 0.999483
0.999462 1 1 0.999462
0.999467 1 1 0.999467
0.99938 1 1 0.99938
0.999154 1 1.00011 0.999039
0.999416 1 1.00006 0.999359
0.999499 1 1 0.999499
0.989841 0.994079 0.996855 0.998878
0.971036 0.973864 1.00103 0.996069
0.929751 0.947887 0.983177 0.997651
0.975489 0.975014 1.00449 0.996016
0.991735 0.991395 1.00077 0.999572
0.992725 0.997044 0.996317 0.999349
0.997222 1.00476 0.993324 0.999165
1.00314 1.00066 1.00337 0.999114
1.0051 1 1.00563 0.999473
0.998532 1.00109 0.997932 0.999513
0.987016 0.986386 1.0022 0.998439
0.962138 0.966874 0.998749 0.996348
0.932535 0.948672 0.984543 0.998422
0.999779 1.00962 0.991007 0.999237
1.00636 1.00708 1.00034 0.998944
0.965994 0.96847 1.0004 0.997048
0.999962 1.00821 0.992741 0.99907
0.995104 0.995559 1.00048 0.999061
0.998923 1.01172 0.988205 0.999139
1.00866 1.00705 1.00249 0.999117
0.995558 1.00086 0.99544 0.999254
1.00136 1.00648 0.995558 0.999349
1.00263 1.006 0.997308 0.999344
0.999192 1.0007 0.999016 0.999474
1.00071 1.00198 0.999201 0.999534
1.00037 1.00119 0.999799 0.999382
0.99955 1.00007 1 0.999476
0.999714 1.00021 1 0.9995
0.99937 1 1 0.99937
0.999459 1 1 0.999459
0.999468 1 1 0.999468
0.99937 1 1 0.99937
0.999484 1 1 0.999484
0.999415 1 1 0.999415
0.999361 1 1 0.999361
0.999356 1 1 0.999356
0.999352 1 1 0.999352
0.999389 1 1 0.999389
0.999498 1 1 0.999498
0.999397 1 1 0.999397
0.999319 1 1 0.999319
0.999751 1 1 0.999751
0.999565 1 1 0.999565
0.999453 1 1 0.999453
0.999994 1 1 0.999994
0.99979 1 1 0.99979
0.999613 1 1 0.999613
1 1 1 1
0.999998 1 1 0.999998
0.999819 1 1 0.999819
1 1 1 1
1 1 1 1
1 1 1 1
0.999547 1 1 0.999547
0.999577 1 1 0.999577
0.999637 1 1 0.999637
0.999594 1 1 0.999594
0.999654 1 1 0.999654
0.999848 1 1 0.999848
0.999672 1 1 0.999672
0.999886 1 1 0.999886
1 1 1 1
0.999921 1 1 0.999921
1 1 1 1
1 1 1 1
1 1 1 1
1 1 1 1
1 1 1 1
0.983501 0.986272 0.998366 0.998822
0.960461 0.967849 0.996194 0.996158
0.932046 0.950127 0.983259 0.997672
0.99947 1 1 0.99947
0.999523 1 1 0.999523
0.999553 1 1 0.999553
0.999532 1 1 0.999532
0.999521 1 1 0.999521
0.999567 1 1 0.999567
0.999471 1 1 0.999471
0.999459 1 1 0.999459
0.999481 1 1 0.999481
0.999406 1 1 0.999406
0.999183 1 1 0.999183
1.00194 1.00314 1 0.998803
0.999171 1 1.00013 0.999043
0.999369 1 1 0.999369
0.999487 1.00421 0.996028 0.999265
0.99066 0.995444 0.996677 0.998512
0.972764 0.974818 1.0011 0.996801
0.995205 0.998414 0.998206 0.998577
1.00168 1.00593 0.996666 0.999107
1.00162 1.00013 1.00231 0.999182
1.00015 1.00073 1.00002 0.999405
0.988183 0.985341 1.00378 0.999108
0.958916 0.966694 0.995736 0.996202
0.994582 1.00592 0.98963 0.999089
0.992749 0.995639 0.998402 0.998693
1.00065 1.01174 0.989916 0.99912
1.00675 1.00619 1.00136 0.999203
1.00999 1.01141 0.999492 0.999101
1.00434 1.0053 1 0.999044
1.00112 1.00595 0.995841 0.999349
1.00393 1.00645 0.998138 0.99935
0.999895 1.00067 1 0.999224
1.00048 1.00157 0.999384 0.999527
1.00075 1.00142 0.999957 0.99938
0.999273 1.00005 1 0.999222
0.999527 1.00004 1 0.999492
0.999408 1.00002 1 0.99939
0.999262 1 1 0.999262
0.999474 1 1 0.999474
0.99937 1 1 0.99937
0.999312 1 1 0.999312
0.999424 1 1 0.999424
0.999364 1 1 0.999364
0.999362 1 1 0.999362
0.999349 1 1 0.999349
0.999382 1 1 0.999382
0.999469 1 1 0.999469
0.999704 1 1 0.999704
0.999509 1 1 0.999509
0.999407 1 1 0.999407
0.999981 1 1 0.999981
0.999751 1 1 0.999751
0.999564 1 1 0.999564
1 1 1 1
0.99999 1 1 0.99999
0.99979 1 1 0.99979
1 1 1 1
0.999997 1 1 0.999997
1 1 1 1
0.999498 1 1 0.999498
0.999548 1 1 0.999548
0.999619 1 1 0.999619
0.999583 1 1 0.999583
0.999641 1 1 0.999641
0.999814 1 1 0.999814
0.999651 1 1 0.999651
0.999848 1 1 0.999848
1 1 1 1
0.999887 1 1 0.999887
1 1 1 1
1 1 1 1
1 1 1 1
1 1 1 1
1 1 1 1
1.00119 1.00463 0.997094 0.999475
0.983157 0.987573 0.997396 0.998128
0.963919 0.968098 0.999425 0.996256
0.9995 1 1 0.9995
0.999355 1 1 0.999355
0.999479 1 1 0.999479
0.99953 1 1 0.99953
0.999518 1 1 0.999518
0.999555 1 1 0.999555
0.999282 1.00003 1 0.999256
0.999495 1 1 0.999495
0.999433 1 1 0.999433
0.999192 1 1 0.999192
0.999667 1.00077 1 0.998896
1.00394 1.00541 0.999519 0.999027
1.00126 1.00244 1 0.998816
0.999046 1 1 0.999046
1.0017 1.00621 0.996222 0.999294
0.988651 0.994916 0.995618 0.998076
1.00449 1.00682 0.998639 0.999049
1.00064 1.00122 1 0.999417
1.00092 1.00032 1.00116 0.999434
0.986335 0.98512 1.00295 0.998292
1.00278 1.01213 0.991655 0.999102
1.00475 1.00519 1.00027 0.999291
1.01012 1.01183 0.999187 0.999119
1.00511 1.00604 1 0.999078
1.00197 1.00284 1 0.999126
1.00203 1.00276 1 0.99927
1.00529 1.007 0.998947 0.999357
1.00003 1.0008 1 0.99923
0.99932 1.00019 1 0.999127
1.001 1.00162 1 0.999378
0.999337 1.0001 1 0.999234
0.999159 1 1 0.999159
0.99944 1.00003 1 0.99941
0.99926 1 1 0.99926
0.999222 1 1 0.999222
0.999371 1 1 0.999371
0.999312 1 1 0.999312
0.999312 1 1 0.999312
0.999367 1 1 0.999367
0.999363 1 1 0.999363
0.999435 1 1 0.999435
0.999375 1 1 0.999375
0.999465 1 1 0.999465
0.99966 1 1 0.99966
0.999962 1 1 0.999962
0.999703 1 1 0.999703
0.99952 1 1 0.99952
1 1 1 1
0.999976 1 1 0.999976
0.99975 1 1 0.99975
1 1 1 1
0.999987 1 1 0.999987
1 1 1 1
0.999404 1 1 0.999404
0.999488 1 1 0.999488
0.999578 1 1 0.999578
0.999549 1 1 0.999549
0.999619 1 1 0.999619
0.999785 1 1 0.999785
0.999646 1 1 0.999646
0.999814 1 1 0.999814
0.999998 1 1 0.999998
0.999848 1 1 0.999848
1 1 1 1
1 1 1 1
1 1 1 1
1 1 1 1
1 1 1 1
1.00123 1.00253 0.999381 0.999324
1.00015 1.00362 0.997079 0.99946
0.982837 0.986214 0.997831 0.998741
0.999311 1.00001 1 0.999306
0.99955 1 1 0.99955
0.999208 1 1 0.999208
0.999347 1 1 0.999347
0.999488 1 1 0.999488
1.00007 1.00108 1 0.998997
0.999542 1 1 0.999542
0.999258 1.00001 1 0.999249
1.00041 1.00144 1 0.998976
0.999201 1 1 0.999201
0.999807 1.00094 1 0.998873
1.00322 1.00454 0.999671 0.999021
1.00029 1.00147 1 0.998829
1.0035 1.00764 0.996564 0.999322
1.00094 1.00155 1 0.999398
1.00032 1.00091 1 0.999414
1.00175 1.00004 1.00224 0.999464
1.0104 1.01237 0.998911 0.999137
1.00619 1.00709 1 0.999113
1.00262 1.0035 1 0.999121
1.00254 1.00327 1 0.99927
1.00067 1.00146 1 0.999216
1.00016 1.00093 1 0.999236
0.999274 1.00014 1 0.999132
0.999122 1 1 0.999122
0.999407 1.00016 1 0.999246
0.999155 1 1 0.999155
0.999145 1 1 0.999145
0.999258 1 1 0.999258
0.99922 1 1 0.99922
0.999237 1 1 0.999237
0.999312 1 1 0.999312
0.999312 1 1 0.999312
0.99938 1 1 0.99938
0.999363 1 1 0.999363
0.999436 1 1 0.999436
0.999617 1 1 0.999617
0.999462 1 1 0.999462
0.99966 1 1 0.99966
0.999945 1 1 0.999945
1 1 1 1
0.999957 1 1 0.999957
0.999703 1 1 0.999703
1 1 1 1
0.99997 1 1 0.99997
1 1 1 1
0.999237 1 1 0.999237
0.999328 1 1 0.999328
0.999392 1 1 0.999392
0.999528 1 1 0.999528
0.999477 1 1 0.999477
0.999579 1 1 0.999579
0.999759 1 1 0.999759
0.99962 1 1 0.99962
0.999785 1 1 0.999785
0.99999 1 1 0.99999
0.999813 1 1 0.999813
0.999999 1 1 0.999999
1 1 1 1
1 1 1 1
1 1 1 1
1 1 1 1
1.00066 1.00143 1 0.999233
1.00252 1.00361 0.999567 0.999347
0.999876 1.00337 0.997069 0.999444
0.999404 1.00033 1 0.999078
0.999351 1 1 0.99935
0.9996 1 1 0.9996
0.999226 1 1 0.999226
0.99934 1 1 0.99934
1.00136 1.00242 1 0.998942
0.999925 1.00095 1 0.998975
0.999242 1 1 0.999242
1.00064 1.00167 1 0.99897
0.999966 1.00112 1 0.998849
1.00321 1.00441 0.99979 0.999015
1.00144 1.00214 1 0.999308
1.00073 1.00135 1 0.999387
0.999876 1.00047 1 0.999411
1.00303 1.00391 1 0.999116
1.00282 1.00355 1 0.999269
1.00063 1.00141 1 0.999218
0.999856 1.00068 1 0.999178
0.999249 1.00011 1 0.999138
0.999119 1 1 0.999119
0.999132 1 1 0.999132
0.999152 1 1 0.999152
0.999144 1 1 0.999144
0.999177 1 1 0.999177
0.999218 1 1 0.999218
0.999236 1 1 0.999236
0.999313 1 1 0.999313
0.999311 1 1 0.999311
0.99938 1 1 0.99938
0.999564 1 1 0.999564
0.999436 1 1 0.999436
0.999617 1 1 0.999617
0.99993 1 1 0.99993
0.99966 1 1 0.99966
0.99994 1 1 0.99994
1 1 1 1
1 1 1 1
0.999952 1 1 0.999952
1 1 1 1
0.999107 1 1 0.999107
0.999313 1 1 0.999313
0.9993 1 1 0.9993
0.999457 1 1 0.999457
0.999326 1 1 0.999326
0.999381 1 1 0.999381
0.999529 1 1 0.999529
0.999723 1 1 0.999723
0.999581 1 1 0.999581
0.999759 1 1 0.999759
0.999976 1 1 0.999976
0.999785 1 1 0.999785
0.999993 1 1 0.999993
1 1 1 1
1 1 1 1
1 1 1 1
1 1 1 1
1.00181 1.00268 1 0.999131
1.00063 1.0014 1 0.999231
1.00341 1.00425 0.999796 0.999369
1.00033 1.00134 1 0.998989
0.999401 1.00032 1 0.99908
0.999393 1 1 0.999393
0.999244 1 1 0.999244
1.00136 1.00242 1 0.998942
0.999871 1.00092 1 0.998954
1.00079 1.00182 1 0.998963
1.00196 1.00274 1 0.99922
1.00146 1.00218 1 0.999284
1.00052 1.00115 1 0.999375
1.0011 1.00195 1 0.999155
1.00068 1.00146 1 0.999219
1 1.00083 1 0.999177
0.999271 1.00011 1 0.999157
0.999115 1 1 0.999115
0.999139 1.00001 1 0.999133
0.999157 1 1 0.999157
0.999142 1 1 0.999142
0.999177 1 1 0.999177
0.999263 1 1 0.999263
0.999234 1 1 0.999234
0.999313 1 1 0.999313
0.999504 1 1 0.999504
0.999379 1 1 0.999379
0.999562 1 1 0.999562
0.999917 1 1 0.999917
0.999616 1 1 0.999616
0.999927 1 1 0.999927
0.999999 1 1 0.999999
0.999936 1 1 0.999936
1 1 1 1
1 1 1 1
0.999053 1.00003 1 0.999026
0.999185 1 1 0.999185
0.99913 1 1 0.99913
0.999408 1 1 0.999408
0.999312 1 1 0.999312
0.999363 1 1 0.999363
0.999657 1 1 0.999657
0.999457 1 1 0.999457
0.999325 1 1 0.999325
0.99953 1 1 0.99953
0.999723 1 1 0.999723
0.999959 1 1 0.999959
0.999759 1 1 0.999759
0.99998 1 1 0.99998
1 1 1 1
0.999996 1 1 0.999996
1 1 1 1
1 1 1 1
1.0012 1.0021 1 0.999101
1.00209 1.00298 1 0.999112
1.00073 1.0015 1 0.999229
1.00013 1.00114 1 0.998986
0.999391 1.00031 1 0.999082
1.00122 1.00228 1 0.998942
1.00208 1.00293 1 0.999148
1.00217 1.00295 1 0.99922
1.00146 1.0022 1 0.99926
1.00087 1.00172 1 0.999156
1.00011 1.00098 1 0.999133
1.00013 1.00096 1 0.999176
0.999286 1.00013 1 0.999157
0.999165 1 1 0.999165
0.99914 1.00001 1 0.999134
0.999159 1 1 0.999159
0.999237 1 1 0.999237
0.999176 1 1 0.999176
0.999263 1 1 0.999263
0.999463 1 1 0.999463
0.999312 1 1 0.999312
0.999503 1 1 0.999503
0.999902 1 1 0.999902
0.999561 1 1 0.999561
0.999913 1 1 0.999913
0.999997 1 1 0.999997
0.999924 1 1 0.999924
0.999999 1 1 0.999999
1 1 1 1
0.999287 1.00019 1 0.999102
0.99909 1 1 0.99909
0.999042 1.00002 1 0.99902
0.999306 1 1 0.999306
0.999195 1 1 0.999195
0.999153 1 1 0.999153
0.999581 1 1 0.999581
0.999388 1 1 0.999388
0.99931 1 1 0.99931
0.999934 1 1 0.999934
0.999658 1 1 0.999658
0.999456 1 1 0.999456
0.999724 1 1 0.999724
0.999964 1 1 0.999964
1 1 1 1
0.999985 1 1 0.999985
1 1 1 1
1 1 1 1
1.00056 1.00147 1 0.999098
1.00112 1.00202 1 0.999096
1.00236 1.00327 1 0.999093
0.999986 1.00101 1 0.998982
1.00091 1.0018 1 0.999105
1.00216 1.00301 1 0.999154
1.00241 1.00319 1 0.99922
1.00063 1.00148 1 0.999157
1.0002 1.00107 1 0.999133
0.999277 1.00013 1 0.999152
0.999307 1.00015 1 0.999158
0.999169 1 1 0.999169
0.999221 1 1 0.999221
0.99916 1 1 0.99916
0.999238 1 1 0.999238
0.99944 1 1 0.99944
0.999262 1 1 0.999262
0.999462 1 1 0.999462
0.999887 1 1 0.999887
0.999502 1 1 0.999502
0.999897 1 1 0.999897
1 1 1 1
0.999909 1 1 0.999909
0.999998 1 1 0.999998
1 1 1 1
0.999359 1.00024 1 0.99912
0.999123 1 1 0.999123
0.999288 1.00018 1 0.999104
0.9992 1 1 0.9992
0.999103 1 1 0.999103
0.999036 1.00002 1 0.999013
0.999477 1 1 0.999477
0.999305 1 1 0.999305
0.999206 1 1 0.999206
0.999907 1 1 0.999907
0.999563 1 1 0.999563
0.999367 1 1 0.999367
1 1 1 1
0.999941 1 1 0.999941
0.999659 1 1 0.999659
0.999969 1 1 0.999969
1 1 1 1
1 1 1 1
1.00017 1.00107 1 0.999105
1.00085 1.00174 1 0.999106
1.00098 1.00189 1 0.999092
0.999588 1.00048 1 0.999106
1.00085 1.00175 1 0.999102
1.00223 1.00308 1 0.999159
1.00028 1.00115 1 0.999133
0.999291 1.00014 1 0.999152
0.999224 1 1 0.999224
0.999174 1 1 0.999174
0.999237 1 1 0.999237
0.999391 1 1 0.999391
0.999238 1 1 0.999238
0.999441 1 1 0.999441
0.999874 1 1 0.999874
0.999462 1 1 0.999462
0.999885 1 1 0.999885
1 1 1 1
0.999893 1 1 0.999893
0.999998 1 1 0.999998
0.999999 1 1 0.999999
0.99928 1.00015 1 0.999129
0.999155 1 1 0.999155
0.999402 1.00028 1 0.999121
0.999212 1 1 0.999212
0.999128 1 1 0.999128
0.999286 1.00018 1 0.999106
0.999412 1 1 0.999412
0.999222 1 1 0.999222
0.999116 1 1 0.999116
0.999886 1 1 0.999886
0.999469 1 1 0.999469
0.999304 1 1 0.999304
1 1 1 1
0.999913 1 1 0.999913
0.999545 1 1 0.999545
1 1 1 1
0.999949 1 1 0.999949
1 1 1 1
0.999381 1.00026 1 0.999119
1 1.0009 1 0.999106
1.00114 1.00203 1 0.999114
0.999181 1 1 0.999181
0.9995 1.00039 1 0.999109
1.00082 1.00172 1 0.999099
0.99931 1.00016 1 0.999152
0.999224 1 1 0.999224
0.999358 1 1 0.999358
0.999254 1 1 0.999254
0.999407 1 1 0.999407
0.999849 1 1 0.999849
0.999441 1 1 0.999441
0.999872 1 1 0.999872
1 1 1 1
0.999884 1 1 0.999884
1 1 1 1
0.999996 1 1 0.999996
0.99916 1 1 0.99916
0.99921 1.00008 1 0.999128
0.999217 1 1 0.999217
0.999155 1 1 0.999155
0.999449 1.00033 1 0.999122
0.999415 1 1 0.999415
0.999211 1 1 0.999211
0.999133 1 1 0.999133
0.999872 1 1 0.999872
0.999423 1 1 0.999423
0.999244 1 1 0.999244
1 1 1 1
0.99989 1 1 0.99989
0.99946 1 1 0.99946
1 1 1 1
0.99992 1 1 0.99992
1 1 1 1
0.999197 1 1 0.999197
0.999263 1.00014 1 0.999122
0.999812 1.0007 1 0.999108
0.99933 1 1 0.99933
0.999181 1 1 0.999181
0.999391 1.00028 1 0.999111
0.999224 1 1 0.999224
0.999363 1 1 0.999363
0.999818 1 1 0.999818
0.999423 1 1 0.999423
0.999847 1 1 0.999847
1 1 1 1
0.999871 1 1 0.999871
1 1 1 1
1 1 1 1
0.999209 1 1 0.999209
0.999155 1 1 0.999155
0.999135 1.00001 1 0.999126
0.999404 1 1 0.999404
0.999217 1 1 0.999217
0.999155 1 1 0.999155
0.99986 1 1 0.99986
0.999414 1 1 0.999414
0.999209 1 1 0.999209
1 1 1 1
0.999874 1 1 0.999874
0.999434 1 1 0.999434
1 1 1 1
0.999894 1 1 0.999894
1 1 1 1
0.999362 1 1 0.999362
0.999181 1 1 0.999181
0.999162 1.00004 1 0.999125
0.999798 1 1 0.999798
0.999333 1 1 0.999333
0.999181 1 1 0.999181
0.999368 1 1 0.999368
0.999816 1 1 0.999816
1 1 1 1
0.999845 1 1 0.999845
1 1 1 1
1 1 1 1
0.999385 1 1 0.999385
0.999203 1 1 0.999203
0.99915 1 1 0.99915
0.999854 1 1 0.999854
0.999404 1 1 0.999404
0.999216 1 1 0.999216
1 1 1 1
0.99986 1 1 0.99986
0.999413 1 1 0.999413
1 1 1 1
0.999876 1 1 0.999876
1 1 1 1
0.999794 1 1 0.999794
0.99935 1 1 0.99935
0.999166 1 1 0.999166
1 1 1 1
0.999797 1 1 0.999797
0.999335 1 1 0.999335
0.999814 1 1 0.999814
1 1 1 1
1 1 1 1
0.99983 1 1 0.99983
0.999385 1 1 0.999385
0.999197 1 1 0.999197
1 1 1 1
0.999845 1 1 0.999845
0.999403 1 1 0.999403
1 1 1 1
0.999861 1 1 0.999861
1 1 1 1
0.999962 1 1 0.999962
0.999808 1 1 0.999808
0.999338 1 1 0.999338
1 1 1 1
0.999796 1 1 0.999796
1 1 1 1
0.999972 1 1 0.999972
0.999827 1 1 0.999827
0.999385 1 1 0.999385
0.999989 1 1 0.999989
0.999843 1 1 0.999843
1 1 1 1
1 1 1 1
0.9998 1 1 0.9998
1 1 1 1
0.999984 1 1 0.999984
0.99982 1 1 0.99982
1 1 1 1
1 1 1 1
1 1 1 1

VECTORS lamdaE float
0.998968 1.00015 0.996761
0.999162 0.999229 0.998709
0.998892 1.00025 0.996817
0.999368 1.00004 0.996351
0.999003 1.00027 0.996638
0.999066 0.999759 0.996916
0.999678 1.00072 0.994701
0.999191 0.999103 0.998746
0.998909 1.00032 0.998603
0.998911 0.999676 0.998748
0.999335 0.998733 0.997411
0.999682 1.00042 0.994747
0.999651 0.999999 0.995938
0.999288 0.9999 0.996454
0.998806 1.00039 0.996881
0.999269 1.00006 0.996434
0.999001 0.999827 0.996974
0.998914 1.00037 0.996711
0.999739 1.00068 0.994701
0.999534 0.999992 0.998256
0.999455 0.999954 0.996306
0.99917 1.00018 0.996494
1.00054 1.00004 0.993904
0.999937 1.00055 0.994434
0.999246 0.999154 0.997174
0.999502 1.00071 0.994999
1.00098 1.00118 0.991913
0.999217 0.998971 0.998786
0.998965 1.00026 0.997596
0.998984 0.999748 0.997847
0.999315 0.998589 0.998859
0.999619 1.0005 0.994749
0.999208 1.00024 0.996473
0.999005 1.00032 0.996795
1.00016 1.00047 0.994736
0.999374 0.99808 0.999069
0.999757 1.00051 0.995293
0.999617 1.00014 0.995109
1.00033 1.00164 0.992345
0.999491 0.997615 0.999174
0.99963 1 0.998178
0.999364 0.999965 0.997392
0.999744 0.999999 0.998087
0.999352 0.999924 0.996329
1.00097 1.00001 0.99262
0.999211 1.0001 0.99852
1.00072 0.999953 0.994236
0.999171 1.00009 0.996514
0.99882 1.00051 0.996776
0.998937 0.999892 0.997043
0.999802 1.0006 0.994697
0.999509 0.999982 0.997216
0.999364 0.999939 0.996387
0.999202 0.999149 0.997233
0.999069 1.00026 0.996577
1.00057 1.00003 0.993881
0.999556 1.00067 0.995
0.999994 1.00051 0.99443
1.00105 1.0012 0.991833
0.999628 1 0.998176
0.999478 0.999966 0.996237
1.0008 1 0.993975
1.00063 0.999909 0.993868
1.00025 1.0003 0.994146
1.00253 0.999987 0.990294
1.00151 1.00069 0.991165
0.999465 0.998455 0.997489
0.999393 1.00045 0.995452
1.00045 1.00157 0.992442
1.00172 1.00131 0.990032
0.998993 1.00017 0.998535
0.999343 0.99844 0.998932
0.999049 0.99951 0.998688
0.999556 1.00059 0.99475
0.999222 1.0002 0.99844
0.998967 1.00009 0.998584
1.00004 1.00052 0.993856
0.999397 0.998142 0.998393
0.999665 1.00064 0.994497
0.999583 1.0001 0.995544
1.00032 1.00163 0.992334
0.999456 0.997852 0.999097
0.99966 0.998791 0.996406
1.00041 1.0002 0.993537
0.999893 1.00064 0.994142
1.00166 1.00068 0.990744
0.999578 0.999599 0.996341
1.00063 1.00133 0.992087
1.00011 1.00181 0.992595
1.00079 1.00188 0.99116
0.999542 0.997333 0.999238
0.999485 0.997566 0.999196
0.999394 1.00002 0.998383
0.999569 1 0.99823
0.99972 1 0.998106
0.999438 0.999984 0.99728
1.00095 1.00001 0.993226
0.999257 1.00004 0.997462
1.00068 0.999945 0.993782
0.999738 0.999997 0.998096
1.00109 0.99997 0.9924
1.00083 0.999987 0.994019
1.00302 0.999761 0.989048
1.00059 1.00002 0.994392
1.00266 0.999873 0.989645
0.999584 0.999972 0.996073
0.999273 0.999911 0.996467
0.999153 0.999111 0.997299
0.998971 1.00035 0.996654
1.00061 1.00003 0.993859
1.00005 1.00044 0.994431
0.999612 1.00062 0.994996
1.00113 1.00123 0.991752
0.999676 1 0.998141
0.999387 0.99994 0.996331
1.00085 0.999983 0.993137
1.00067 0.999896 0.993833
0.999403 0.998418 0.998203
0.999476 1.00039 0.995561
1.0003 1.00027 0.994137
1.00252 0.999984 0.990193
1.00054 1.0016 0.992361
1.00154 1.00074 0.991233
1.00172 1.0013 0.990035
1.00099 1.00001 0.992559
1.00064 0.999929 0.993811
1.00287 0.999804 0.989571
1.00265 0.999747 0.990054
1.00212 1.00028 0.990505
1.00352 0.999726 0.98846
0.999484 0.997975 0.999043
1.00229 1.00075 0.989467
0.999568 0.999962 0.995385
1.00005 1.00174 0.992659
1.00119 1.0019 0.990552
1.00219 1.00124 0.989211
0.999686 0.999067 0.996016
1.00008 1.0007 0.993724
0.999151 1.00019 0.998459
0.998937 0.99994 0.998623
1.00001 1.00054 0.993869
0.999414 0.998059 0.99906
0.999534 1.00016 0.995211
0.99959 1.00075 0.994488
1.00032 1.00162 0.992322
0.99945 0.997825 0.999123
0.999666 0.998738 0.996428
1.00039 1.00018 0.99405
0.99981 1.00064 0.994616
1.00165 1.00067 0.990761
0.999582 0.999567 0.995762
1.00061 1.00132 0.992095
1.00009 1.00181 0.992588
1.0008 1.00188 0.991119
0.999606 0.999183 0.996099
0.999738 0.99839 0.996671
1.00001 1.00058 0.993941
1.00218 1.00025 0.990164
1.00106 1.00108 0.991508
1.00247 1.00073 0.98917
1.00008 1.00146 0.992978
1.00117 1.00145 0.990852
1.00048 1.00242 0.99134
1.00095 1.00215 0.990669
0.999619 0.997054 0.999283
0.999547 0.997279 0.999253
0.999483 0.997513 0.999217
0.999729 0.998706 0.996321
0.999515 0.997731 0.999123
0.999295 1.00009 0.998419
0.999467 0.999999 0.998323
1.00065 0.999918 0.993292
1.0009 1.00001 0.992722
0.999688 1 0.998131
0.999747 0.999999 0.998085
1.00108 0.999978 0.992411
1.00078 0.999994 0.993569
1.00302 0.999764 0.989052
1.00053 0.99998 0.993447
1.00266 0.999883 0.989645
1.00111 0.999962 0.992346
1.00326 0.999705 0.988642
1.00281 0.999802 0.98944
1.00403 0.99944 0.987505
1.00249 0.999998 0.989837
1.00363 0.999536 0.988168
0.999712 0.999997 0.99811
0.999294 0.999899 0.996429
1.00086 0.999966 0.992348
1.00071 0.999899 0.993799
0.999312 0.998352 0.998956
0.999556 1.00037 0.995668
1.00035 1.00023 0.99413
1.00251 0.999979 0.990092
1.00158 1.00079 0.991302
1.00062 1.00166 0.992279
1.00172 1.0013 0.990038
1.001 0.999993 0.992546
1.00068 0.999915 0.993779
1.00285 0.999789 0.989365
1.00265 0.99979 0.990149
0.999467 0.998015 0.999014
0.999571 0.999928 0.995714
1.00013 1.00175 0.992754
1.0021 1.00032 0.990512
1.00352 0.999665 0.988323
1.00113 1.0019 0.990538
1.00234 1.00077 0.989521
1.00219 1.00124 0.989219
0.999667 0.999133 0.996003
1.00008 1.00069 0.99372
1.00318 0.999736 0.988771
1.00264 0.999771 0.990026
1.00383 0.999568 0.988027
1.00369 0.999313 0.988151
1.00296 1.00018 0.988906
1.00406 0.999208 0.987828
0.999629 0.999473 0.995688
1.00288 1.00052 0.988611
1.00002 1.00159 0.99286
1.00054 1.00219 0.991177
1.00166 1.00205 0.989773
1.00255 1.00102 0.988849
1.0001 1.00118 0.993225
1.00009 1.00015 0.994245
1.00026 1.00179 0.9923
1.00033 1.0002 0.993601
0.999443 0.997789 0.999147
0.999669 0.998695 0.99645
0.999712 1.00076 0.994219
1.00164 1.00066 0.990779
0.999578 0.999528 0.995732
1.00007 1.0018 0.992582
1.0006 1.00131 0.992104
1.0008 1.00187 0.991078
0.999616 0.999123 0.996115
0.999732 0.998369 0.996687
1.00001 1.00059 0.993947
1.00218 1.00026 0.990171
1.00104 1.00107 0.991532
1.00247 1.00073 0.989172
1.00005 1.0015 0.992978
1.00119 1.00146 0.990894
1.00048 1.00241 0.991334
1.00093 1.00216 0.990626
0.999811 0.998073 0.996851
1.00007 1.001 0.99341
1.00001 1.00006 0.994476
1.00019 1.00163 0.992616
1.00309 1.00012 0.988589
1.00172 1.00124 0.990126
1.00296 1.0006 0.988375
1.00034 1.00228 0.991773
1.00147 1.00149 0.990359
1.00051 1.00316 0.990528
1.0011 1.00206 0.990234
1.00015 0.999075 0.995229
0.999929 0.997645 0.997047
0.999704 0.996814 0.999313
0.99963 0.997011 0.999293
0.999554 0.997227 0.999268
0.999787 0.998378 0.996553
0.999549 0.997476 0.999188
0.999726 0.998749 0.996299
0.999517 0.997762 0.999099
1.00054 0.999963 0.993447
1.00075 0.999978 0.993056
1.00265 0.999891 0.989644
1.00301 0.999769 0.989057
1.00107 0.999986 0.99242
0.999754 1 0.99808
1.00112 0.999967 0.992341
1.00326 0.999704 0.988645
1.00279 0.999813 0.989439
1.00403 0.999447 0.987506
1.00248 1.00001 0.989839
1.00364 0.999531 0.988168
1.00332 0.999681 0.988568
1.0043 0.999362 0.987064
1.0038 0.999453 0.987931
1.00446 0.999047 0.987097
1.00343 0.999747 0.988339
1.00415 0.999024 0.987693
1.00102 0.999983 0.992532
1.00073 0.999915 0.993746
1.00283 0.999767 0.989159
1.00265 0.999824 0.990244
0.999453 0.998069 0.998985
0.999589 0.999923 0.996026
1.00022 1.00176 0.992848
1.00208 1.00035 0.990519
1.00351 0.999601 0.988186
1.00239 1.00078 0.989575
1.00106 1.00189 0.990524
1.00218 1.00124 0.989226
0.999651 0.999196 0.995988
1.00008 1.00067 0.993716
1.00315 0.999725 0.988712
1.00266 0.999764 0.990021
1.00385 0.999543 0.987947
1.00369 0.999384 0.988286
0.999619 0.999533 0.995685
1.00005 1.00161 0.992862
1.00054 1.00216 0.991277
1.003 1.00023 0.988899
1.00406 0.999121 0.987795
1.0016 1.00206 0.989665
1.00288 1.00052 0.98861
1.00249 1.00099 0.988871
1.00011 1.00112 0.993232
1.00026 1.00175 0.992311
1.00009 1.00016 0.994234
1.00414 0.999484 0.987513
1.00365 0.99945 0.98834
1.00432 0.999287 0.987249
1.00425 0.998843 0.987704
1.00353 0.999711 0.988035
1.00439 0.998528 0.987787
1.00007 1.00145 0.992979
1.00318 1.00021 0.988318
1.0004 1.00203 0.991827
1.00079 1.00262 0.9903
1.00191 1.00208 0.989077
1.00274 1.00061 0.989103
1.00013 0.999752 0.994562
1.00034 1.00182 0.992138
1.00026 1.00136 0.992681
1.00025 1.00237 0.991824
1.00217 1.00026 0.990177
0.999725 0.998347 0.996704
0.99963 0.999063 0.99613
1.00001 1.00059 0.993952
1.00101 1.00107 0.991555
1.00246 1.00074 0.989174
1.00002 1.00155 0.992978
1.00047 1.00241 0.991329
1.00121 1.00146 0.990936
1.00091 1.00216 0.990582
0.999802 0.998066 0.996859
1.00006 1.00104 0.993409
1.00002 1.00005 0.994487
1.00018 1.00166 0.992605
1.0031 1.00014 0.988579
1.00169 1.00124 0.990141
1.00295 1.00059 0.988379
1.00031 1.00228 0.991783
1.00149 1.00151 0.990407
1.00053 1.00317 0.990491
1.00107 1.00202 0.99044
0.999873 0.997838 0.996967
1.00005 0.999643 0.994826
1.00029 1.0019 0.992211
1.00017 1.00115 0.993113
1.00014 1.00248 0.991891
1.00362 0.999816 0.987881
1.00207 1.00123 0.989444
1.00321 1.00043 0.988085
1.00031 1.00327 0.990867
1.00164 1.00143 0.990073
1.00067 1.00334 0.98961
1.00012 0.999218 0.995138
1.00018 1.00007 0.994187
1.00017 0.998969 0.995291
1.00014 0.999094 0.995225
0.999965 0.997443 0.997556
0.999919 0.997626 0.997274
0.999828 0.996626 0.998458
0.999716 0.996776 0.999321
0.999642 0.996967 0.999302
0.999854 0.998119 0.996689
0.999614 0.997218 0.999233
0.999793 0.998397 0.996537
0.999552 0.997518 0.999168
0.99972 0.998795 0.996278
0.999519 0.997795 0.999074
1.00248 1.00003 0.98984
1.00279 0.99982 0.989438
1.00364 0.999535 0.988168
1.00403 0.999454 0.987508
1.00326 0.999703 0.988648
1.00112 0.999971 0.992337
1.00332 0.999679 0.988565
1.0043 0.999363 0.987067
1.0038 0.999465 0.987933
1.00449 0.999026 0.987041
1.00344 0.999744 0.988332
1.00415 0.999028 0.987696
1.00436 0.999328 0.986989
1.00476 0.998992 0.986529
1.00432 0.998959 0.987443
1.00471 0.998745 0.987008
1.00394 0.999322 0.987796
1.00441 0.998417 0.987812
1.00312 0.999714 0.988653
1.00268 0.999749 0.990016
1.00387 0.999523 0.987866
1.00369 0.999457 0.988421
0.999612 0.999578 0.995682
1.00007 1.00161 0.992864
1.00056 1.00212 0.991377
1.00304 1.00027 0.988892
1.00406 0.999034 0.987762
1.00287 1.00053 0.988609
1.00155 1.00207 0.989556
1.00243 1.00096 0.988892
1.00012 1.00107 0.993239
1.00027 1.00172 0.992322
1.00008 1.00017 0.994223
1.00416 0.999464 0.987366
1.00367 0.999411 0.988341
1.00432 0.999248 0.987209
1.00425 0.998882 0.98773
1.0001 1.0014 0.992988
1.00044 1.00202 0.991809
1.00075 1.00262 0.990427
1.00353 0.999812 0.9881
1.0044 0.998421 0.987797
1.00183 1.00213 0.989012
1.0032 1.00019 0.988312
1.00268 1.00053 0.989133
1.00034 1.00183 0.992152
1.00026 1.00238 0.991768
1.00013 0.999772 0.994554
1.00026 1.00129 0.992755
1.00459 0.999152 0.986738
1.00417 0.999102 0.98768
1.00457 0.998953 0.987077
1.00455 0.99839 0.987535
1.004 0.999147 0.987789
1.00464 0.998174 0.987604
1.00037 1.00186 0.992056
1.00329 0.999405 0.988801
1.0004 1.00255 0.991135
1.00107 1.00304 0.98953
1.00207 1.00209 0.988591
1.00283 1.00055 0.989067
1.00015 0.999577 0.99471
1.00027 1.00085 0.993164
1.00035 1.00225 0.991726
1.00021 1.00213 0.992123
1.00025 1.00255 0.991612
0.999795 0.998058 0.996867
1.0031 1.00015 0.98857
1.00002 1.00003 0.994498
1.00005 1.0011 0.993409
1.00018 1.00169 0.992595
1.00167 1.00125 0.990156
1.00295 1.00059 0.988383
1.00028 1.00229 0.991792
1.00055 1.00318 0.990454
1.00152 1.00153 0.990454
1.00104 1.00197 0.990646
0.999867 0.997829 0.996971
1.00005 0.999635 0.994834
1.00028 1.00191 0.992209
1.00017 1.00117 0.993114
1.00014 1.00251 0.991835
1.00363 0.999833 0.987867
1.00207 1.00122 0.989451
1.00319 1.00044 0.98807
1.00027 1.00327 0.990882
1.00165 1.00145 0.990112
1.00078 1.00332 0.989692
1.00009 0.999397 0.995018
1.00018 1.00067 0.993583
1.00028 1.00277 0.991403
1.0001 1.00214 0.992301
1.00009 1.00316 0.991359
1.00395 0.999424 0.987642
1.00229 1.00105 0.989165
1.00303 0.999893 0.988745
1.00021 1.00429 0.989935
1.00145 1.00265 0.989222
1.00011 0.999227 0.995138
1.00017 1.00019 0.99399
1.00018 1.00008 0.994133
1.00014 1.00083 0.993635
1.0002 1.00004 0.99419
1.0002 0.998897 0.995307
1.00017 0.998973 0.995288
1.00002 0.997277 0.997612
1.00013 0.999112 0.995221
0.999971 0.997434 0.997564
0.999907 0.99642 0.998508
0.99991 0.997613 0.997498
0.999806 0.996592 0.998903
0.999728 0.99674 0.999329
0.999906 0.997925 0.996783
0.999858 0.99813 0.996682
0.999692 0.996996 0.999261
0.999609 0.997261 0.99922
0.999799 0.998414 0.996522
0.999555 0.997558 0.999148
1.00345 0.999741 0.988325
1.00379 0.999471 0.987936
1.00415 0.999029 0.987699
1.00451 0.999007 0.986986
1.0043 0.999363 0.98707
1.00332 0.999678 0.988562
1.00436 0.999329 0.986989
1.00478 0.999004 0.986474
1.00432 0.998965 0.987448
1.0047 0.998691 0.987016
1.00395 0.999322 0.987783
1.00443 0.998379 0.987783
1.00482 0.999005 0.986404
1.00499 0.998742 0.986409
1.00457 0.998476 0.987387
1.00483 0.998485 0.986978
1.00426 0.998682 0.987764
1.00464 0.998112 0.987761
1.00419 0.999441 0.987219
1.00368 0.999377 0.988342
1.00432 0.99921 0.98717
1.00425 0.998919 0.987756
1.00012 1.00135 0.992997
1.00048 1.00202 0.99179
1.00072 1.00263 0.990554
1.00353 0.999914 0.988166
1.00442 0.998315 0.987807
1.00322 1.00017 0.988306
1.00174 1.00219 0.988948
1.00262 1.00044 0.989162
1.00035 1.00182 0.992167
1.00027 1.0024 0.991713
1.00012 0.99979 0.994547
1.00026 1.00122 0.992828
1.0046 0.999154 0.986735
1.00418 0.999088 0.987694
1.00451 0.998935 0.987138
1.00456 0.998389 0.98755
1.00039 1.00185 0.992053
1.0004 1.0025 0.991239
1.00105 1.0031 0.989519
1.004 0.99924 0.987788
1.00458 0.998047 0.987792
1.00206 1.00215 0.988548
1.00332 0.999428 0.988796
1.00279 1.0003 0.989146
1.00037 1.00223 0.99173
1.00027 1.00255 0.991598
1.0002 1.00214 0.992116
1.00015 0.999571 0.994637
1.00027 1.0008 0.993213
1.00488 0.998767 0.986579
1.00457 0.998609 0.987307
1.00481 0.998096 0.987275
1.00424 0.998471 0.987861
1.00038 1.00223 0.991664
1.00369 0.998998 0.98888
1.0003 1.00301 0.990627
1.00136 1.00355 0.988491
1.00244 1.00207 0.988087
1.00017 0.999436 0.99467
1.00027 1.00056 0.993604
1.0002 1.00161 0.992663
1.00034 1.00233 0.991667
1.00019 1.00267 0.991674
1.00033 1.0025 0.991487
0.999862 0.997822 0.996976
1.00006 0.999627 0.994842
1.00363 0.999849 0.987854
1.00016 1.00119 0.993116
1.00026 1.0019 0.992207
1.00013 1.00255 0.991779
1.00207 1.00122 0.989458
1.00318 1.00045 0.988055
1.00024 1.00326 0.990897
1.00088 1.0033 0.989773
1.00166 1.00148 0.990153
1.00008 0.9994 0.995021
1.00018 1.00066 0.99359
1.00025 1.00276 0.991438
1.0001 1.00213 0.992297
1.00008 1.00321 0.991276
1.00392 0.999469 0.987643
1.00232 1.00104 0.98914
1.00311 0.99975 0.988815
1.00017 1.00426 0.989912
1.00145 1.00283 0.989059
1.00016 1.00038 0.993908
1.00013 1.00162 0.992666
1.00014 1.00376 0.990713
1.00006 1.00296 0.991474
1.00019 1.00349 0.990806
1.00423 0.998142 0.988365
1.00242 1.00145 0.988744
1.00328 0.99869 0.988757
1.00049 1.00466 0.98943
1.00119 1.00351 0.988096
1.00011 0.999237 0.995137
1.00017 1.00019 0.994039
1.00015 1.00096 0.993304
1.00018 1.00011 0.99408
1.0002 1.00005 0.994191
1.00013 1.00082 0.993556
1.00008 1.00139 0.99315
1.00012 1.00077 0.993557
1.00022 0.999995 0.994205
1.00021 0.998893 0.995283
1.0002 0.998896 0.995308
1.00006 0.997175 0.997621
1.00017 0.998977 0.995286
1.00002 0.997274 0.997615
0.999965 0.99626 0.998545
0.999977 0.997421 0.997573
0.999899 0.996397 0.998507
0.999783 0.996552 0.999352
0.999958 0.997739 0.996874
0.999911 0.997932 0.996778
0.999764 0.996797 0.999285
0.999863 0.998141 0.996675
0.999682 0.997028 0.999253
0.999604 0.9973 0.999207
1.00396 0.999322 0.987769
1.00432 0.998974 0.987453
1.00445 0.998338 0.987755
1.0047 0.998635 0.987023
1.0048 0.999013 0.98642
1.00436 0.99933 0.986989
1.00482 0.999027 0.986396
1.00499 0.998773 0.986397
1.00459 0.998481 0.987349
1.00483 0.998398 0.987028
1.00427 0.998681 0.987768
1.00459 0.998053 0.987815
1.00505 0.998738 0.986277
1.00504 0.998415 0.98661
1.00482 0.998029 0.987379
1.00458 0.998042 0.987903
1.0046 0.999156 0.986733
1.00419 0.99907 0.987708
1.00445 0.998916 0.987199
1.00457 0.998388 0.987564
1.00042 1.00185 0.99205
1.00041 1.00245 0.991343
1.00102 1.00316 0.989508
1.004 0.999332 0.987786
1.00452 0.997929 0.987978
1.00336 0.99945 0.988791
1.00204 1.0022 0.988505
1.00274 1.00007 0.989225
1.00039 1.00222 0.991734
1.00029 1.00255 0.991584
1.00019 1.00216 0.992108
1.00015 0.999568 0.994564
1.00028 1.00075 0.993262
1.00483 0.998756 0.986654
1.00458 0.998658 0.987275
1.00479 0.998151 0.987355
1.00042 1.00223 0.991651
1.0004 1.00297 0.990741
1.0013 1.00365 0.988468
1.00432 0.998487 0.987847
1.00241 1.00188 0.988246
1.0035 0.998964 0.988977
1.00017 0.999417 0.994687
1.00036 1.00233 0.991665
1.00032 1.00248 0.991521
1.00018 1.00272 0.991632
1.00021 1.00159 0.992694
1.00027 1.00055 0.993546
1.00493 0.998504 0.986764
1.00487 0.99806 0.987295
1.0048 0.998048 0.987187
1.00477 0.99783 0.987645
1.00036 1.00248 0.991457
1.0032 1.0004 0.988157
1.00052 1.00398 0.989396
1.0016 1.00401 0.987716
1.00018 0.999294 0.994806
1.00026 1.0004 0.993793
1.00022 1.00132 0.992974
1.00016 1.00232 0.992028
1.00037 1.00247 0.991509
1.0003 1.00266 0.991386
1.00008 0.999401 0.995023
1.00019 1.00065 0.993597
1.0039 0.999516 0.987644
1.00011 1.00212 0.992293
1.00022 1.00275 0.991473
1.00007 1.00326 0.991193
1.00235 1.00103 0.989115
1.00319 0.999599 0.988885
1.00013 1.00423 0.98989
1.00145 1.00303 0.988895
1.00017 1.00036 0.993912
1.00014 1.00162 0.992695
1.00009 1.00373 0.990802
1.00006 1.00298 0.991494
1.00014 1.00358 0.990772
1.00429 0.998202 0.988288
1.00249 1.00128 0.988761
1.0032 0.998607 0.989415
1.00039 1.00463 0.989397
1.00135 1.00389 0.987774
1.00015 1.00116 0.993108
1.0001 1.00246 0.991866
1.00009 1.00435 0.990164
1.00009 1.00361 0.990609
1.00493 0.99721 0.988148
1.00444 0.997048 0.988849
1.00263 1.00179 0.987743
1.00056 1.00481 0.988223
1.00018 1.00018 0.994088
1.00015 1.00098 0.993341
1.0001 1.0016 0.992861
1.0002 1.00004 0.994191
1.00013 1.00081 0.993477
1.00022 0.999985 0.994206
1.00009 1.00139 0.993086
1.00013 1.00076 0.99358
1.00006 1.00184 0.99271
1.00008 1.00127 0.993134
1.00013 1.00071 0.993592
1.00024 0.999981 0.99419
1.00022 0.998935 0.995234
1.00021 0.998893 0.995282
1.00009 0.997145 0.997598
1.0002 0.998891 0.995309
1.00006 0.997189 0.997618
1.00001 0.99618 0.998539
1.00003 0.997273 0.99762
0.999959 0.996239 0.998546
0.99989 0.996378 0.998505
1 0.997552 0.996974
0.999961 0.997746 0.99687
0.99983 0.996609 0.999309
0.999915 0.99794 0.996774
0.999755 0.996829 0.999277
0.999673 0.997063 0.999245
1.00428 0.99868 0.987772
1.00461 0.998488 0.98731
1.00456 0.997998 0.987869
1.00483 0.998312 0.987078
1.00499 0.998804 0.986385
1.00482 0.99905 0.986389
1.00502 0.998739 0.986325
1.00503 0.998432 0.98663
1.00483 0.998015 0.987388
1.00457 0.997992 0.987895
1.00508 0.998484 0.986485
1.00508 0.997818 0.987162
1.00492 0.997623 0.987623
1.00478 0.998742 0.986729
1.00459 0.998708 0.987243
1.00478 0.998196 0.987435
1.00046 1.00222 0.991639
1.00051 1.00293 0.990855
1.00125 1.00377 0.988444
1.0044 0.998498 0.987834
1.00332 0.998932 0.989074
1.00241 1.0017 0.988407
1.00037 1.00233 0.991663
1.00029 1.00248 0.991555
1.00017 1.00277 0.991591
1.00017 0.999394 0.994705
1.00021 1.00157 0.992725
1.00026 1.00053 0.993487
1.00495 0.998512 0.986701
1.00484 0.998086 0.987299
1.00486 0.998085 0.987164
1.0004 1.00249 0.991427
1.00045 1.00395 0.989642
1.00167 1.00398 0.987706
1.00462 0.997946 0.987864
1.00321 1.00033 0.988113
1.00018 0.999271 0.994894
1.00025 1.0004 0.993793
1.00033 1.00244 0.991504
1.00031 1.00257 0.9915
1.00016 1.00231 0.991998
1.00021 1.00135 0.992926
1.00504 0.998011 0.987018
1.00499 0.997641 0.987443
1.00505 0.997512 0.987359
1.00437 0.99786 0.988257
1.00012 1.00318 0.991042
1.00222 1.00318 0.987195
1.00083 1.00475 0.988653
1.00019 0.999124 0.995098
1.00018 1.0001 0.994158
1.00023 1.00035 0.993744
1.0002 1.00119 0.993077
1.00012 1.00202 0.992371
1.00004 1.0031 0.991362
1.0005 1.00178 0.991785
1.00022 1.00294 0.991823
1.00018 1.00035 0.993917
1.00014 1.00161 0.992724
1.00434 0.998277 0.988211
1.00006 1.00299 0.991514
1.00005 1.0037 0.990892
1.00007 1.00368 0.990738
1.00256 1.0011 0.988777
1.00313 0.998517 0.99007
1.00029 1.0046 0.989364
1.00151 1.0042 0.987452
1.00015 1.00119 0.993065
1.0001 1.00249 0.991886
1.00007 1.00433 0.990234
1.00013 1.00365 0.990656
1.00499 0.997209 0.988009
1.00434 0.997189 0.988928
1.00275 1.00167 0.987976
1.00074 1.00484 0.988081
1.0001 1.00189 0.99255
1.00501 0.996745 0.98819
1.00006 1.00342 0.991214
1.00035 1.00433 0.989658
1.00509 0.996186 0.988681
1.00413 0.99869 0.987908
1.00166 1.00425 0.98745
1.00015 1.00099 0.993378
1.0001 1.0016 0.992856
1.00005 1.00215 0.992397
1.00022 0.999979 0.994207
1.00013 1.00076 0.993602
1.00009 1.0014 0.993022
1.00024 0.999975 0.994189
1.00013 1.00072 0.99359
1.00007 1.00185 0.992652
1.00009 1.00127 0.993193
1.00007 1.00214 0.992351
1.00008 1.0017 0.992722
1.00009 1.00121 0.993274
1.00017 1.00067 0.993622
1.00024 1.00003 0.994138
1.00021 0.998989 0.995192
1.00021 0.998939 0.995234
1.00011 0.997148 0.997563
1.00021 0.998896 0.995282
1.00009 0.997166 0.997593
1.00004 0.996143 0.998521
1.00007 0.997203 0.997615
1.00001 0.996151 0.998543
0.999953 0.996218 0.998546
1.0002 0.998968 0.995233
1.00005 0.997374 0.997068
1.00001 0.99756 0.99697
0.999889 0.996429 0.999335
0.999963 0.997756 0.996866
0.999822 0.996638 0.999302
0.999746 0.996858 0.99927
1.00455 0.99794 0.987888
1.00483 0.998002 0.987397
1.00502 0.998445 0.98665
1.00499 0.998742 0.986373
1.00508 0.998476 0.986488
1.00509 0.997834 0.987104
1.00491 0.997601 0.987636
1.00508 0.997951 0.986991
1.00512 0.997336 0.987619
1.00498 0.996388 0.988471
1.00499 0.998523 0.986639
1.00482 0.998112 0.987302
1.00492 0.998141 0.987141
1.00043 1.00249 0.991396
1.00038 1.0039 0.989888
1.00171 1.0039 0.987696
1.00446 0.998054 0.988082
1.00321 1.00024 0.988069
1.00028 1.0024 0.991499
1.00033 1.00247 0.991612
1.00015 1.00232 0.991968
1.00018 0.999248 0.994983
1.00025 1.0004 0.993794
1.0002 1.00138 0.992878
1.00502 0.997952 0.987121
1.00019 0.999118 0.995096
1.00017 1.00011 0.994116
1.00499 0.997684 0.987419
1.005 0.997648 0.987281
1.00008 1.00315 0.991193
1.00081 1.00472 0.988514
1.00223 1.00305 0.987212
1.00437 0.997873 0.988287
1.00023 1.00034 0.99387
1.00019 1.00119 0.993076
1.00059 1.00187 0.991596
1.00012 1.00241 0.992207
1.00003 1.00318 0.991274
1.00014 1.00198 0.99238
1.00508 0.997127 0.987808
1.00511 0.997621 0.987393
1.00503 0.996413 0.988306
1.00343 0.999703 0.988037
1.00023 1.00318 0.991083
1.00136 1.00466 0.987683
1.00017 0.999979 0.994206
1.00019 1.00025 0.993978
1.00011 1.00097 0.993567
1.00017 1.00117 0.993041
1.00012 1.00188 0.992621
0.999965 1.0027 0.991812
0.999862 1.00413 0.990921
1.0002 1.00181 0.992334
1.00016 1.00122 0.993023
1.00009 1.00251 0.991906
1.00504 0.9972 0.98787
1.00424 0.997356 0.989009
1.00018 1.00367 0.990703
1.00005 1.00432 0.990304
1.00285 1.0016 0.98821
1.00091 1.00489 0.98794
1.0001 1.00191 0.992535
1.005 0.996753 0.988236
1.00005 1.00333 0.991234
1.00033 1.00429 0.989623
1.00507 0.996101 0.988617
1.00421 0.998632 0.987989
1.00155 1.0044 0.987553
1.00004 1.0028 0.991818
1.00516 0.995976 0.989404
1.00036 1.00373 0.99061
1.00076 1.00469 0.988964
1.00489 0.996294 0.988649
1.00244 1.00217 0.987592
1.00117 1.00001 0.991703
1.0001 1.0016 0.992851
1.00005 1.00216 0.992393
1.00011 1.00239 0.992042
1.00024 0.999969 0.994189
1.00013 1.00073 0.993589
1.00008 1.00127 0.993252
1.00008 1.00187 0.992594
1.00024 1.00002 0.994135
1.00017 1.00066 0.993592
1.00007 1.00215 0.992329
1.0001 1.0012 0.993268
1.00007 1.00171 0.992775
1.00009 1.00203 0.992412
1.00006 1.00149 0.993026
1.00015 1.00111 0.99328
1.00023 1.00066 0.993476
1.00025 1.00006 0.993994
1.0002 1.00069 0.993642
1.00023 1.00008 0.993997
1.00021 0.999015 0.995174
1.00021 0.998988 0.995193
1.00013 0.997195 0.997098
1.00021 0.998942 0.995234
1.00012 0.997173 0.997344
1.00002 0.99609 0.999368
1.00009 0.997187 0.997588
1.00004 0.99611 0.998524
1.00001 0.996123 0.998546
1.0002 0.998854 0.995345
1.0002 0.998969 0.995229
1.00009 0.997232 0.997145
1.00004 0.997381 0.997282
0.99994 0.996278 0.999357
1.00001 0.997566 0.996965
0.999881 0.996459 0.999327
0.999813 0.996672 0.999294
1.00489 0.997571 0.987649
1.00511 0.997847 0.987046
1.00509 0.99847 0.986492
1.00509 0.997948 0.98698
1.00511 0.997333 0.987586
1.00496 0.996539 0.988515
1.00509 0.996924 0.98798
1.00229 1.00005 0.988692
1.00512 0.995655 0.989313
1.00017 0.999906 0.994378
1.005 0.997897 0.987224
1.00499 0.997711 0.987394
1.00495 0.997813 0.987204
1.00004 1.00313 0.991344
1.0008 1.00473 0.988373
1.00223 1.00298 0.987228
1.00437 0.997935 0.988317
1.00067 1.00198 0.991408
1 1.00186 0.992595
1.00001 1.00325 0.991187
1.0002 0.999115 0.995094
1.00016 1.00194 0.99239
1.00023 1.00033 0.993997
1.00019 1.00119 0.993075
1.00017 1.00011 0.994073
1.00507 0.997094 0.987859
1.00017 0.99997 0.994263
1.0002 1.00025 0.993974
1.00011 1.00095 0.993472
1.00512 0.997411 0.9874
1.00498 0.996709 0.988213
1.00032 1.0028 0.991153
1.00112 1.00474 0.987656
1.00348 0.999775 0.98804
1.00017 1.00118 0.993103
1.00011 1.00186 0.992597
1.00015 1.00213 0.992092
0.999862 1.00392 0.991054
0.999988 1.00272 0.991877
1.00514 0.996788 0.988139
1.00515 0.997902 0.987036
1.00462 0.997101 0.988412
1.00208 1.00249 0.988354
1.00021 1.00341 0.990835
1.00012 1.00079 0.993499
1.00012 1.0011 0.993241
1.00011 1.00149 0.99303
1.00008 1.00176 0.992689
1.00006 1.00233 0.992252
0.999868 1.00338 0.991449
0.999746 1.00425 0.990734
1.00008 1.00194 0.992521
1.00003 1.00325 0.991254
1.00502 0.996756 0.988281
1.00505 0.996025 0.988552
1.00429 0.99854 0.988069
1.00031 1.00425 0.989588
1.00143 1.00454 0.987657
1.00002 1.00275 0.991909
1.00514 0.995769 0.989391
1.00023 1.0037 0.990644
1.00054 1.0047 0.989076
1.00493 0.995982 0.988839
1.00241 1.00235 0.987556
1.00119 1.00001 0.990589
1.00009 1.00311 0.991421
1.00512 0.995271 0.990435
1.00006 1.00399 0.990673
1.00056 1.0047 0.988836
1.00308 0.998738 0.988687
1.0009 0.995222 0.964637
0.996526 1.00119 0.980886
1.00073 1.00009 0.992655
0.998155 0.997539 0.956948
0.994408 0.998261 0.956628
1.00005 1.00216 0.99239
1.00009 1.0024 0.992087
1.00017 1.00218 0.992184
1.00024 1.00002 0.994131
1.00017 1.00064 0.993562
1.00011 1.00119 0.993263
1.00007 1.00173 0.992828
1.00008 1.00214 0.992307
1.00014 1.00111 0.993238
1.00024 1.00007 0.994045
1.00023 1.00065 0.993514
1.00008 1.00204 0.992422
1.00007 1.00149 0.993014
1.00009 1.00138 0.993033
1.00009 1.00165 0.99282
1.00022 1.00104 0.99313
1.00027 1.00069 0.993363
1.00024 1.00007 0.993991
1.00025 1.00067 0.9935
1.00021 1.00104 0.993256
1.00014 1.00075 0.993576
1.0002 1.00069 0.993578
1.00023 1.00006 0.994107
1.00023 1.00009 0.993994
1.00021 0.999023 0.995169
1.00021 0.999012 0.995173
1.00012 0.997241 0.997079
1.00021 0.998986 0.995194
1.00013 0.997198 0.997096
1.00003 0.996096 0.999362
1.00012 0.997196 0.997126
1.00004 0.996093 0.998937
1.00004 0.996077 0.998527
1.0002 0.998767 0.995428
1.0002 0.998849 0.995344
1.00011 0.997122 0.997212
1.00021 0.998968 0.995225
1.00008 0.997226 0.997358
0.99998 0.99616 0.999374
1.00005 0.9974 0.997053
0.999932 0.996325 0.999348
0.999874 0.996488 0.999319
1.00509 0.997335 0.987552
1.0051 0.997947 0.98697
1.00493 0.996685 0.988559
1.00214 0.998893 0.988818
1.00507 0.996928 0.988031
1.00516 0.996009 0.989173
1.00519 0.997082 0.987926
0.998531 0.999539 0.978439
1.00348 0.996947 0.989107
1.00018 0.999867 0.994412
1.00018 0.9999 0.994377
1.00011 1.0007 0.993715
1.00009 1.00065 0.993807
1.00507 0.997063 0.98791
1.00514 0.997289 0.987407
1.00497 0.996912 0.988119
1.0004 1.00246 0.991224
1.00089 1.00479 0.98763
1.00352 0.999883 0.988043
1.0001 1.00246 0.991846
0.999874 1.0037 0.991188
1.00001 1.00274 0.991942
1.0002 1.00026 0.993971
1.00011 1.00184 0.992574
1.00017 1.00118 0.993164
1.00018 0.999963 0.994319
1.00011 1.00093 0.993378
1.00499 0.996831 0.988181
1.00012 1.00079 0.993597
1.00012 1.00108 0.99328
1.00012 1.00147 0.992973
1.00516 0.9975 0.987132
1.00462 0.9972 0.988338
1.00027 1.00326 0.990822
1.00202 1.0028 0.988205
1.00009 1.00179 0.992689
1.00002 1.00232 0.992287
0.99977 1.00427 0.99073
0.999912 1.00355 0.991305
1.00525 0.996945 0.98776
1.00503 0.997078 0.987581
1.00308 1.00029 0.98848
1.00017 1.00398 0.990372
1.00012 1.00151 0.99285
1.00005 1.00166 0.992855
1.00002 1.00237 0.992215
0.999934 1.00416 0.990521
0.9999 0.995052 0.962254
0.999993 1.00268 0.992001
1.0001 1.00366 0.990678
1.00511 0.995532 0.989379
1.00496 0.995677 0.989029
1.00238 1.00253 0.987521
1.00033 1.00466 0.989188
1.00118 1.00001 0.989469
1.00002 1.00314 0.991468
1.0051 0.995146 0.990367
1.00001 1.00396 0.990699
1.0005 1.00479 0.988835
1.00337 0.998701 0.988673
1.00075 0.995671 0.962535
0.996414 1.00099 0.977469
1.00066 1.00011 0.992964
0.997445 0.99799 0.957011
0.994393 0.99824 0.953421
1.00002 1.00292 0.991784
0.999047 0.995072 0.957466
0.994591 0.999707 0.957591
1.00427 0.995729 0.990989
0.999755 1.00427 0.990969
1.00073 1.00337 0.989775
1.00008 0.999706 0.995374
0.998279 0.998747 0.964605
0.99504 1.00143 0.976603
0.996598 0.999481 0.958574
0.994688 0.998445 0.963771
1.00006 1.00241 0.992133
1.00014 1.0022 0.992181
1.00012 1.00184 0.992717
1.00023 1.00007 0.994096
1.00023 1.00063 0.993552
1.00015 1.00111 0.993196
1.00008 1.00148 0.993003
1.00008 1.00205 0.992431
1.00024 1.00008 0.993991
1.00009 1.00137 0.99306
1.00022 1.00106 0.993171
1.00028 1.00067 0.993428
1.00009 1.00166 0.992797
1.0002 1.0013 0.992896
1.00015 1.00141 0.992985
1.00028 1.00097 0.993155
1.00028 1.00067 0.993465
1.00026 1.00067 0.993497
1.00021 1.00103 0.993218
1.00028 1.00095 0.993148
1.00014 1.00114 0.993214
1.00024 1.0012 0.99305
0.999999 1.0018 0.992785
1.00011 1.00087 0.993515
1.00014 1.00076 0.993575
1.00021 1.00008 0.994117
1.0002 1.00069 0.993514
1.00023 1.00007 0.994069
1.0002 0.999035 0.995166
1.00023 1.0001 0.993991
1.00021 0.999018 0.995169
1.00009 0.997267 0.997521
1.00021 0.999011 0.995172
1.00011 0.997234 0.9973
1.00006 0.996121 0.998476
1.00013 0.997202 0.997095
1.00003 0.996101 0.99936
1.00006 0.996096 0.998506
1.00018 0.999863 0.994405
1.0002 0.998727 0.995474
1.00021 0.998765 0.995428
1.00012 0.997044 0.997268
1.00021 0.998845 0.995343
1.00011 0.997115 0.997214
1.00001 0.996067 0.99939
1.00007 0.997239 0.997559
0.99999 0.996203 0.998935
0.999966 0.996356 0.99847
1.00186 0.997847 0.98894
1.00506 0.996939 0.988083
1.00521 0.996362 0.989035
0.998051 0.99885 0.980469
1.00336 0.997605 0.989339
1.00524 0.996557 0.987938
1.00479 0.997631 0.988757
0.999007 0.997275 0.982139
0.999268 0.995598 0.963612
0.997606 0.997884 0.95708
0.994494 0.997556 0.956471
1.00008 1.00066 0.993706
1.00018 0.999869 0.994411
1.00018 0.999897 0.994376
1.00011 1.0007 0.993689
1.00005 1.00122 0.993294
1.0001 1.00108 0.993386
1.0001 1.00071 0.993746
1.00009 1.00066 0.993764
1.00487 0.996837 0.988223
1.00517 0.997033 0.987229
1.00459 0.997341 0.988264
1.00034 1.00307 0.990809
1.00197 1.00299 0.988055
0.999793 1.00427 0.990727
0.999955 1.00372 0.991161
0.999974 1.00232 0.992322
1.00011 1.00106 0.993319
1.0001 1.00181 0.992689
1.00013 1.0008 0.993695
1.00012 1.00143 0.992917
1.00514 0.997158 0.987626
1.00009 1.0015 0.992916
1.00006 1.00166 0.992824
1.00491 0.997329 0.987594
1.00275 1.00007 0.988837
1.00028 1.004 0.990163
1.00006 1.00239 0.992157
0.999953 1.00422 0.990528
1.00434 1.00063 0.986851
1.00421 0.997229 0.989561
1.00053 1.00257 0.990072
1.00005 1.00364 0.990989
1.00006 1.00174 0.992668
1.0001 1.00211 0.99235
1.00007 1.0029 0.991588
0.998804 0.994837 0.955974
1.00048 0.995092 0.96655
0.999953 1.00317 0.991515
0.999957 1.00398 0.990725
1.00508 0.995037 0.990298
1.00367 0.998725 0.98866
1.00044 1.00491 0.988833
1.00063 0.995277 0.961559
0.99646 1.00108 0.978721
1.00035 1.00012 0.993278
0.997347 0.997592 0.958458
0.994365 0.998234 0.950204
0.999979 1.00295 0.991776
0.999082 0.995155 0.955807
0.994573 0.999799 0.956325
1.00444 0.996071 0.990897
0.999661 1.00427 0.991008
1.0006 1.00312 0.989892
1.00007 0.9986 0.995929
0.998395 0.998709 0.96237
0.995315 1.00274 0.979313
0.996311 0.9997 0.957784
0.994877 0.99854 0.962045
0.99994 1.0026 0.992291
0.994469 0.999937 0.961129
0.99585 1.00105 0.974295
1.0016 0.998304 0.99376
0.999443 1.00399 0.992154
0.998671 1.00159 0.996606
0.996382 1.0012 0.983395
0.995935 1.00102 0.961995
0.995812 0.999619 0.959581
0.996544 0.997518 0.968968
1.00011 1.00222 0.992177
1.00012 1.00187 0.992635
0.999876 1.00129 0.993422
1.00024 1.00008 0.993992
1.00028 1.00065 0.993493
1.00022 1.00107 0.993213
1.00008 1.00136 0.993088
1.0001 1.00167 0.992774
1.00028 1.00066 0.993466
1.00018 1.00134 0.992937
1.00028 1.00096 0.99315
1.00011 1.00137 0.993065
1.00019 1.00081 0.993624
1.00029 1.00102 0.993052
1.0003 1.00095 0.993115
1.00026 1.00067 0.993495
1.00021 1.00102 0.993179
1.00028 1.00096 0.993151
1.00013 1.00114 0.99321
1.00024 1.00116 0.993037
1.00007 1.00137 0.993095
1.00027 1.00111 0.993017
1.00018 1.00135 0.992923
1.00005 1.00245 0.992045
0.999843 1.00361 0.991221
0.999953 1.00228 0.992301
0.999989 1.00185 0.992771
1.00009 1.00108 0.993354
1.00011 1.00089 0.993509
1.00019 1.00014 0.994107
1.00014 1.00077 0.993575
1.00021 1.00008 0.994117
1.00018 0.999074 0.99516
1.00023 1.00007 0.99403
1.0002 0.999031 0.995167
1.00006 0.997309 0.997526
1.00021 0.999015 0.995169
1.0001 0.997262 0.997303
1.00004 0.996129 0.998481
1.00013 0.997224 0.99708
1.00002 0.996122 0.999356
1.00003 0.996105 0.999358
1.00018 0.999933 0.994497
1.0002 0.998747 0.995467
1.00018 0.999877 0.994404
1.00013 0.997015 0.997297
1.0002 0.998728 0.995474
1.00021 0.998762 0.995428
1.00012 0.997048 0.997265
1.00002 0.996006 0.999402
1.00009 0.997115 0.997627
1.00002 0.996083 0.998965
1.00001 0.996212 0.998512
0.998677 0.995959 0.956447
0.994457 0.999017 0.96001
0.998277 0.997791 0.981891
1.00324 0.998412 0.989568
1.00529 0.996097 0.987948
0.998855 0.997214 0.984927
1.00479 0.997886 0.988717
0.999936 0.995027 0.965778
0.997479 0.997568 0.956653
0.994429 0.997806 0.953122
1.00016 0.996972 0.988978
0.997762 0.997831 0.96713
0.996299 0.999846 0.958323
0.995173 0.998612 0.960756
1.00009 1.00129 0.993144
1.00009 1.00065 0.993742
1.00018 0.999865 0.99441
1.0001 1.0007 0.993663
1.00004 1.00119 0.993355
1.00009 1.0013 0.993177
1.0001 1.00106 0.993367
1.00012 1.00092 0.993441
1.00011 1.0007 0.993695
1.00009 1.00066 0.993719
1.00499 0.997373 0.987494
1.00474 0.997471 0.987611
1.0024 0.999836 0.989196
1.00037 1.00405 0.989955
0.999978 1.00424 0.990535
1.00009 1.00241 0.9921
1.00007 1.00166 0.992793
1.00007 1.0015 0.992982
1.00447 0.999941 0.986843
1.00008 1.00176 0.992645
1.00011 1.00209 0.992294
1.00391 0.997319 0.989501
1.00043 1.00293 0.990276
1.00016 1.00361 0.990767
1.00012 1.00283 0.991609
1.00196 1.00363 0.988788
1.00138 0.999432 0.992784
0.999997 1.00297 0.991603
1.00006 1.00194 0.992556
1.00017 1.00205 0.992197
1.00025 1.00238 0.991795
0.995772 0.998764 0.964197
0.998889 0.995367 0.956765
1.00017 0.995158 0.961663
0.999944 1.00298 0.991769
0.999582 1.00426 0.991048
1.00471 0.996343 0.990805
1.00046 1.00289 0.990004
0.99917 0.995131 0.956922
0.998102 0.998725 0.964435
0.995465 1.00233 0.976494
1.00026 0.997379 0.996435
0.996486 0.999809 0.957083
0.994497 0.999869 0.956339
0.995227 0.998614 0.961403
0.999862 1.00265 0.99229
0.994632 0.999688 0.961922
0.995811 1.00131 0.974203
1.00176 0.998494 0.993572
0.999234 1.00385 0.992197
0.999204 0.999551 0.99786
0.996431 1.00163 0.97941
0.996081 1.00215 0.964564
0.996523 0.999103 0.959821
0.996564 0.997672 0.968663
0.999427 1.00185 0.994197
0.997243 1.00077 0.977749
0.999772 1.00051 0.979551
0.997947 1.00177 0.996553
0.997137 1.00155 0.989072
0.995719 1.00128 0.96409
0.995144 0.999956 0.961954
0.997917 0.998667 0.966204
1.0001 1.00188 0.992553
0.999959 1.00122 0.993499
0.99973 1.00009 0.994823
1.00028 1.00065 0.993466
1.00029 1.00094 0.993145
1.00017 1.00138 0.992977
1.00007 1.00132 0.993146
1.0003 1.00095 0.993117
1.00028 1.00106 0.993033
1.00016 1.00062 0.993728
0.999941 1.00032 0.994519
1.00036 1.00054 0.993428
1.00029 1.00101 0.993031
1.00027 1.00096 0.993154
1.00013 1.00114 0.993207
1.00025 1.00113 0.993024
1.00027 1.00111 0.993019
1.00006 1.00141 0.993083
1.00019 1.00132 0.992936
1.00008 1.00175 0.992691
1.00025 1.00122 0.992924
0.99996 1.00264 0.992027
1.00006 1.00243 0.992098
0.999822 1.00344 0.991431
1.00016 1.00395 0.99039
1.00002 1.00278 0.991914
0.999822 1.00349 0.991391
0.999959 1.00228 0.992404
1.00008 1.00143 0.992946
0.99998 1.0019 0.992758
1.00009 1.0011 0.993345
1.00017 1.00024 0.99404
1.00011 1.0009 0.993503
1.00019 1.00014 0.994105
1.00015 0.999158 0.99514
1.00022 1.00009 0.994116
1.00019 0.999069 0.995161
1.00003 0.997379 0.997526
1.0002 0.999025 0.995168
1.00007 0.997309 0.997307
1 0.996196 0.998485
1.00011 0.99725 0.997083
1.00002 0.996141 0.998918
1.00002 0.996127 0.999356
1.00018 1.00006 0.994257
1.00018 0.998828 0.995413
1.00017 0.999937 0.994382
1.00012 0.997042 0.997289
1.0002 0.998748 0.995467
1.00017 0.999894 0.994403
1.00002 0.995988 0.999406
1.00013 0.997014 0.997296
1.0002 0.998727 0.995474
1.00012 0.997052 0.997263
1.00002 0.996015 0.999399
1.00001 0.996078 0.999386
0.994915 0.99904 0.964379
0.998604 0.995364 0.956559
0.995659 1.00191 0.973475
0.994488 0.999209 0.95877
0.99933 0.997225 0.980776
1.0048 0.998077 0.988632
0.999487 0.99543 0.967721
0.997864 0.998035 0.957814
0.994359 0.998205 0.949768
0.999625 0.997856 0.987045
0.99852 0.997427 0.962359
0.996431 0.999652 0.957087
0.995108 0.998753 0.959507
0.996636 0.998437 0.987222
0.997112 0.999968 0.962078
0.995597 0.999685 0.958254
0.996838 0.998482 0.965636
1.0001 1.00171 0.99276
1.00008 1.00129 0.993192
1.0001 1.00065 0.993778
1.00004 1.00116 0.993415
1.00013 1.00155 0.992782
1.00009 1.00128 0.993223
1.0001 1.00106 0.993348
1.00016 1.00101 0.993362
1.00013 1.00091 0.993509
1.00012 1.0007 0.993645
1.00461 0.999362 0.986837
1.00361 0.997564 0.989438
1.00034 1.00326 0.990477
1.00026 1.00356 0.990545
1.00015 1.00279 0.991629
1.00013 1.00208 0.992238
1.0001 1.00178 0.992621
1.00006 1.00195 0.992552
1.00243 1.0021 0.989054
1.00016 1.00211 0.992237
1.00026 1.00235 0.991825
1.00136 0.999527 0.992393
1.00021 1.00267 0.991612
0.999885 1.00136 0.993168
0.999843 1.00058 0.994824
1.00023 1.00178 0.992116
1.00019 1.00197 0.992279
1.00029 1.00235 0.991693
0.999187 1.00001 0.978301
0.995778 0.999379 0.964112
0.998761 0.995867 0.956125
0.999783 1.00273 0.992288
0.999046 1.00377 0.992241
1.00175 0.998671 0.993404
0.994685 0.9994 0.963764
0.996658 1.00113 0.961505
0.996558 1.0013 0.981485
0.99979 0.998081 0.999207
0.995778 0.999409 0.959529
0.995601 1.00159 0.974114
0.996388 0.997816 0.969039
0.99937 1.00195 0.994092
0.996934 1.00025 0.980022
0.999533 1.00091 0.979798
0.997957 1.00208 0.996734
0.99691 1.00098 0.989013
0.996017 1.00162 0.961122
0.997945 0.998293 0.967787
0.994988 0.999658 0.96183
0.998232 1.00128 0.997013
1.00326 1.00113 0.983012
1.00085 1.00164 0.979426
0.997096 0.998129 0.965685
0.995073 1.00271 0.997099
0.995536 0.999079 0.967463
0.994572 1.00011 0.963038
1.00005 1.00114 0.993575
0.999865 1.00024 0.99451
0.999335 0.999279 0.996406
1.0003 1.00095 0.993119
1.00026 1.0011 0.993014
1.00016 1.00041 0.993831
1.0003 1.00103 0.993023
1.00034 1.00051 0.993417
1.00009 1.00008 0.994413
0.999621 1.00003 0.995127
1.0004 1.00076 0.99309
1.00026 1.00111 0.993021
1.00005 1.00146 0.993071
1.0002 1.00128 0.992949
1.00025 1.00122 0.99291
1.0001 1.00169 0.992745
0.99982 1.00212 0.992788
0.999897 1.00266 0.992106
0.999827 1.00399 0.990844
1.00008 1.00241 0.992151
0.999941 1.00343 0.991372
1.00007 1.00439 0.989824
1.00014 1.00414 0.990188
1.00003 1.00315 0.99144
1.0001 1.00399 0.990393
1.00009 1.00188 0.992567
1.00002 1.0028 0.991827
0.999799 1.00337 0.991562
0.999965 1.00229 0.992507
1.00008 1.0014 0.993029
1.00015 1.00044 0.993867
1.00009 1.00112 0.993337
1.00017 1.00025 0.994035
1.00011 0.99927 0.995098
1.00019 1.00014 0.994102
1.00016 0.999147 0.995141
0.999967 0.997492 0.997511
1.00019 0.999062 0.995162
1.00003 0.997386 0.997306
0.999954 0.996289 0.998485
1.00008 0.9973 0.997089
0.999989 0.996203 0.99892
0.999996 0.996166 0.999357
1.00019 1.00024 0.993907
1.00016 0.998988 0.995145
1.00018 1.00007 0.994254
1.0001 0.997135 0.997238
1.00018 0.998839 0.99533
1.00016 0.999942 0.994268
1.00001 0.996016 0.999402
1.00012 0.997037 0.99729
1.00019 0.998748 0.995468
1.00003 0.995988 0.999405
1.00013 0.997014 0.997295
1.00002 0.996024 0.999396
0.997966 1.00077 0.978004
0.994995 0.998637 0.963658
0.998585 0.995307 0.957098
1.00022 1.00103 0.993181
0.998566 1.00102 0.981893
0.995492 1.00164 0.973396
0.994427 0.999249 0.958748
0.999402 0.999015 0.985231
0.998485 0.997807 0.96701
0.996357 0.999757 0.956444
0.995198 0.998775 0.95869
0.996317 0.999402 0.982448
0.996116 1.00075 0.965683
0.996763 0.999864 0.958958
0.996941 0.998445 0.965024
0.995431 1.0022 0.978282
0.995559 1.00043 0.961573
0.995106 0.999883 0.961376
0.997591 0.998609 0.966438
1.00016 1.00185 0.992458
1.00009 1.00173 0.992734
1.00008 1.00129 0.99324
1.00017 1.00152 0.992782
1.00012 1.00155 0.992868
1.00009 1.00125 0.993269
1.00017 1.00101 0.993379
1.00014 1.0009 0.993576
1.00287 1.00055 0.989321
1.00137 0.999659 0.992002
1.00007 1.00196 0.992548
1.00042 1.00249 0.991621
1.00029 1.00228 0.991855
1.00014 1.00215 0.992277
1.00018 1.00202 0.992298
1.00062 1.00078 0.993465
1.00027 1.00231 0.99183
1.00033 1.00192 0.992104
0.999968 0.999883 0.994719
1.00023 1.00182 0.992448
0.998383 0.99876 0.997352
0.998836 1.00235 0.995134
1.00031 1.00138 0.992334
1.00027 1.00196 0.992207
1.00501 1.00105 0.981989
0.999269 1.0005 0.978097
0.995773 0.999979 0.964036
0.999291 1.00202 0.993993
0.997964 1.00201 0.996886
0.996649 0.999746 0.98228
0.995859 1.00015 0.964733
0.996912 1.00104 0.984624
0.994906 0.999882 0.961337
0.999406 1.00127 0.980047
0.998072 0.998085 0.969371
0.99833 1.00147 0.996479
1.00303 1.00122 0.983328
1.00123 1.00148 0.980557
0.995424 1.00342 0.999637
0.99726 0.998169 0.964851
0.995027 0.999309 0.965417
0.99488 0.999983 0.961813
0.996899 1.00104 0.999546
1.00741 1.00079 0.980099
0.998902 1.00058 0.981847
0.995274 0.998295 0.960876
0.994853 0.999805 0.961416
0.995399 0.999217 0.997758
0.995207 1.00015 0.961962
0.999977 1.00043 0.9942
0.999444 0.99952 0.996245
0.998369 0.998792 0.998988
1.00031 1.00107 0.993015
1.00034 1.0005 0.993406
1.0002 0.999943 0.994307
1.00035 1.00089 0.993063
0.999771 0.999706 0.995151
0.99952 1.00163 0.993756
1.00025 1.00123 0.992895
1.00013 1.00163 0.992799
0.999945 1.00211 0.992692
0.999394 1.0041 0.991544
0.999835 1.00268 0.992183
0.999729 1.00391 0.99106
1.00013 1.00491 0.989473
1.00073 1.00438 0.988883
1.00006 1.00341 0.991312
1.00019 1.00452 0.989585
1.00032 1.00372 0.990551
0.999916 1.00363 0.990991
1.00015 1.004 0.990329
1.00009 1.00227 0.992201
1.00007 1.00313 0.991427
1.00004 1.00402 0.990397
1.00015 1.00078 0.993553
1.00009 1.00186 0.99254
1.00003 1.00283 0.99174
1.00008 1.00137 0.993111
1.00015 1.00046 0.993858
1.00007 0.999434 0.995014
1.00016 1.00027 0.99403
1.00012 0.999264 0.995098
0.999923 0.997644 0.997041
1.00016 0.999136 0.995143
0.999986 0.997498 0.997073
0.999853 0.996406 0.999357
1.00004 0.997379 0.997088
0.999943 0.996291 0.99892
0.999961 0.996231 0.999357
1.00023 1.00032 0.993768
1.00015 0.999184 0.994957
1.0002 1.00024 0.993969
1.00007 0.99728 0.99715
1.00016 0.999001 0.995123
1.00018 1.00007 0.99425
0.999989 0.996098 0.999387
1.0001 0.997125 0.997241
1.00017 0.998848 0.995246
1.00002 0.996009 0.999404
1.00012 0.997032 0.997291
1.00003 0.995989 0.999405
1.00414 1.0004 0.982028
0.997867 1.00094 0.978152
0.994965 0.998433 0.963864
1.00021 1.00104 0.993203
1.00023 1.00109 0.993051
1.00015 1.00153 0.992852
1.00068 1.00215 0.979176
0.998307 1.00075 0.982127
0.995331 1.00131 0.973307
0.995782 1.00017 0.985999
0.996731 0.999995 0.962158
0.995726 0.999846 0.958279
0.996836 0.998523 0.965092
0.995325 1.00081 0.982333
0.996041 1.00134 0.962284
0.995143 1.00006 0.962692
0.997684 0.99866 0.967952
0.995606 1.00206 0.979747
0.995024 1.00052 0.965408
0.994557 1.00013 0.963618
0.996368 0.997702 0.968934
1.00024 1.00176 0.992439
1.00016 1.00187 0.992445
1.00009 1.00175 0.992707
1.00017 1.00153 0.992776
1.00011 1.00155 0.992954
1.00018 1.00101 0.993396
1.00139 1.00012 0.993756
0.999943 0.999209 0.994616
1.00016 1.00209 0.992316
1.00044 1.00187 0.992092
1.00024 1.00233 0.991968
1.00025 1.00176 0.992386
1.00023 1.00197 0.992249
0.99876 1 0.997393
1.00027 1.00143 0.99257
0.998568 1.00176 0.99625
1.0002 1.00147 0.99281
0.996923 0.998712 0.999531
0.998412 1.00039 0.998357
1.00007 1.00168 0.992731
1.01002 1.00088 0.97816
1.00597 1.00101 0.980993
0.999358 1.00102 0.977892
0.998474 1.0016 0.995938
0.995956 1.00141 0.998745
1.00279 1.00129 0.983645
0.99534 1.00002 0.972338
0.994958 1.00004 0.962782
1.00156 1.00125 0.981688
0.997173 0.998292 0.964911
0.997193 1.0011 0.999492
1.00809 1.00073 0.979286
0.998637 1.00034 0.982057
0.995043 1.00041 0.992008
0.995236 0.998636 0.959463
0.995332 0.999955 0.96199
0.995075 1.0001 0.9666
0.996263 1.00096 1.00243
1.00451 1.00006 0.981851
0.996255 1.00169 0.973024
0.994551 0.997291 0.956402
0.995189 0.999647 0.958893
0.995144 1.00008 0.965633
0.995259 0.999397 0.98834
0.999566 0.999807 0.996087
0.998484 0.998536 0.998907
0.998597 1.00012 0.99762
1.00031 1.00098 0.993036
0.999925 0.999345 0.995174
0.999384 1.00175 0.993916
0.999233 1.00317 0.99286
1.00008 1.0021 0.992597
0.999699 1.00406 0.991304
1.00008 1.00509 0.989399
0.999619 1.00383 0.991278
1.00016 1.00493 0.989432
1.00102 1.00491 0.98808
1.00133 1.00452 0.987788
1.00046 1.00356 0.990001
1.00072 1.00438 0.988824
1.0003 1.00466 0.989345
1.00028 1.00324 0.990979
1.00023 1.00355 0.990709
1 1.00293 0.99158
0.999966 1.00358 0.991086
1.00015 1.00386 0.99047
1.00015 1.00123 0.993097
1.0001 1.00226 0.992207
1.0001 1.00312 0.991414
1.00003 0.999686 0.994835
1.00014 1.00078 0.993548
1.00008 1.00185 0.992513
1.00015 1.00047 0.99385
1.00007 0.999434 0.995011
0.999852 0.997834 0.996982
1.00012 0.999257 0.995097
0.999927 0.997648 0.997039
0.999803 0.996557 0.999345
0.999992 0.997496 0.997072
0.999878 0.996422 0.998915
0.999913 0.996323 0.999355
1.00024 1.00041 0.993741
1.00015 0.999335 0.994949
1.00022 1.00033 0.993809
1.00002 0.997466 0.997045
1.00015 0.999195 0.995018
1.00021 1.00024 0.994031
0.999952 0.996222 0.999365
1.00006 0.99727 0.997155
1.00016 0.999017 0.995102
0.999993 0.99608 0.999392
1.0001 0.997116 0.997244
1.00002 0.996001 0.999406
1.00722 1.0012 0.979806
1.0038 1.00059 0.982333
0.997758 1.00099 0.97832
1.00023 1.0012 0.992942
1.00014 1.00179 0.992594
1.00019 1.00107 0.993224
1.00023 1.00111 0.993038
1.00016 1.00152 0.992803
1.00016 1.00158 0.992763
1.00015 1.00175 0.992587
0.999564 1.00077 0.979505
1.00099 1.00202 0.98027
0.998048 1.00049 0.982362
0.997738 0.998536 0.969467
0.994878 1.00022 0.97913
0.995886 1.00226 0.963265
0.994732 1.00006 0.961417
0.995525 0.99993 0.978106
0.995257 1.00008 0.962423
0.994828 1.00003 0.962636
0.996332 0.997865 0.968591
0.99556 0.997823 0.985343
0.995045 1.0002 0.96239
0.995414 0.999994 0.961899
0.994618 0.998284 0.963796
1.00023 1.00161 0.992652
1.00023 1.00171 0.992433
1.00015 1.00187 0.992431
1.00017 1.00154 0.992771
0.999203 1.00153 0.99741
0.998416 1.00124 0.997351
1.00028 1.00169 0.992324
1.0002 1.00195 0.992291
1.00022 1.00157 0.992807
1.00022 1.00147 0.992748
1.00004 1.00174 0.992661
0.996515 1.00043 0.998711
0.998237 1.00036 0.998749
0.999909 1.00157 0.993087
0.995801 0.997667 1.00078
0.998807 1.00213 0.996106
1.00517 1.00101 0.981891
1.01208 1.00014 0.975686
1.00694 1.00095 0.979997
0.997488 1.00116 0.999444
0.995391 0.999329 0.998115
1.00879 1.00071 0.978473
0.995286 1.00014 0.962307
0.994684 0.999994 0.961216
0.998371 1.00009 0.982267
0.995381 0.998804 0.958895
0.996306 1.0007 1.00258
1.00416 1.00025 0.982175
0.996011 1.00137 0.97295
0.995028 0.999412 0.992908
0.994484 0.997754 0.953168
0.996334 0.999843 0.959634
0.995276 1.0001 0.963942
0.996496 1.00152 0.999967
0.998489 1.00054 0.977545
0.994835 0.998859 0.960104
0.996511 0.999803 0.958116
0.99567 1.00065 0.965638
0.994842 0.99984 0.982895
0.998658 0.998286 0.998819
0.998458 1.00036 0.997612
1.00006 0.998903 0.99688
0.999232 1.00189 0.994075
0.998918 1.00322 0.993084
1.0003 1.00389 0.990115
1.00002 1.00399 0.991063
1.00024 1.00509 0.989216
1.00123 1.00454 0.987684
1.0002 1.00495 0.98939
1.00106 1.00491 0.987956
1.00166 1.00421 0.987182
1.00208 1.00334 0.987372
1.00128 1.00381 0.988719
1.00137 1.00454 0.987598
1.00044 1.00292 0.990632
1.00047 1.00355 0.990079
1.00073 1.00439 0.988765
1.00027 1.00301 0.991151
1.00026 1.00329 0.990952
1.00014 1.00339 0.990866
1.00015 1.00179 0.99251
1.00003 1.00285 0.991678
1.00002 1.00353 0.99118
1.00001 1.00005 0.994495
1.00015 1.00122 0.993098
1.00011 1.00223 0.992213
0.999793 0.998045 0.9969
1.00003 0.999694 0.994829
1.00014 1.00078 0.993542
1.00007 0.999432 0.995008
0.999858 0.99784 0.996979
0.999724 0.996737 0.99933
0.999931 0.997653 0.997037
0.999793 0.996582 0.999341
0.999854 0.996447 0.999348
1.00021 1.00132 0.992903
1.00025 1.00051 0.993619
1.00014 0.999468 0.994836
1.00024 1.0004 0.99374
0.999975 0.997658 0.996942
1.00015 0.999348 0.994948
1.00021 1.00034 0.993851
0.999904 0.996381 0.99934
1.00002 0.997454 0.997051
1.00016 0.999202 0.995078
0.999957 0.9962 0.999372
1.00006 0.99726 0.99716
0.999997 0.996063 0.999397
1.00327 1.00111 0.983023
1.00791 1.00125 0.979028
1.00345 1.0008 0.982638
1.00022 1.00121 0.992969
1.00015 1.0018 0.992549
1.00011 1.00215 0.992228
1.00014 1.0017 0.992602
1.00012 1.00214 0.992322
1.00023 1.00111 0.993024
1.00017 1.0015 0.992753
1.00014 1.00159 0.992767
1.00019 1.00173 0.992532
1.0001 1.00185 0.992629
0.995954 1.0009 0.974109
0.999389 1.00114 0.979748
1.00135 1.00204 0.981364
0.996292 0.998051 0.968996
0.994902 1.00006 0.963491
0.995116 1.00019 0.97627
0.995036 1.0001 0.965354
0.995405 0.996859 0.980289
0.995004 1.00011 0.965496
0.994807 0.99994 0.962013
0.994771 0.998409 0.962065
0.995186 0.994804 0.985063
0.995114 1.00007 0.966086
0.996001 0.999915 0.959122
0.994417 0.998248 0.956184
0.999863 1.00136 0.993477
1.00019 1.00168 0.992623
1.00023 1.00169 0.992428
0.996023 1.00193 0.997912
0.998063 1.00016 0.999167
1.00023 1.00147 0.992686
1.00002 1.00184 0.992591
0.999909 1.00152 0.993132
0.998649 1.00203 0.995838
0.995764 0.997352 1.00084
0.998662 1.00246 0.994636
0.996936 1.00094 0.997111
0.998884 1.0004 0.978117
1.00608 1.00087 0.980964
1.01412 0.999417 0.973212
0.996297 1.00052 1.00272
0.994923 0.999509 0.986198
1.00382 1.00045 0.982499
0.995437 1.00007 0.961713
0.9954 0.999827 0.959771
0.995775 1.00093 0.972874
0.994426 0.998173 0.949932
0.996534 1.00139 1.0002
0.998408 1.00068 0.977698
0.994792 0.998881 0.95886
0.994886 0.999718 0.985051
0.996242 0.999872 0.957264
0.995624 0.999965 0.962651
0.997898 1.00016 0.996909
0.99516 0.998783 0.964494
0.997256 0.997895 0.957168
0.997259 1.00075 0.96201
0.994914 1.00003 0.984693
0.998389 1.00056 0.997596
0.99988 0.998664 0.996905
1.00191 0.999027 0.992432
0.998616 1.00326 0.993307
0.99997 1.00395 0.990406
1.00196 1.00201 0.988443
1.00039 1.0051 0.989033
1.00129 1.00439 0.98769
1.00256 1.00248 0.98741
1.00108 1.0049 0.987833
1.00166 1.00419 0.987223
1.00271 1.00196 0.98749
1.00282 1.00132 0.987906
1.00174 1.00319 0.988051
1.00208 1.00322 0.987408
1.00102 1.00317 0.989659
1.0012 1.0039 0.988543
1.00139 1.00456 0.987409
1.00049 1.00259 0.991087
1.00043 1.0029 0.990754
1.00048 1.00353 0.990157
1.00025 1.00217 0.991962
1.00025 1.00299 0.991198
1.00023 1.00334 0.990924
1.00001 1.00061 0.993949
1.00016 1.00178 0.992512
1.00005 1.00278 0.991777
0.999709 0.998332 0.997207
1.00001 1.00007 0.994485
1.00015 1.0012 0.993098
0.999659 0.996979 0.998364
0.999788 0.998075 0.997108
1.00003 0.9997 0.994823
0.999864 0.997847 0.996975
0.999714 0.996772 0.999324
0.999782 0.99661 0.999336
1.00017 1.00166 0.992592
1.00025 1.00068 0.993444
1.00021 1.00136 0.992864
1.0001 0.999616 0.994755
1.00025 1.00052 0.99362
0.999921 0.99784 0.996859
1.00013 0.999489 0.994836
1.00025 1.00041 0.99374
0.999847 0.996555 0.999315
0.999971 0.997652 0.996947
1.00014 0.999367 0.994948
0.99991 0.996353 0.999347
1.00002 0.997443 0.997056
0.999962 0.996174 0.999379
0.997732 0.999897 0.981153
1.00301 1.00119 0.983321
1.0086 1.00135 0.978249
1.00006 1.00244 0.992098
1.00022 1.00124 0.992996
1.00016 1.00181 0.992504
1.00015 1.00172 0.992639
1.00013 1.00211 0.992274
1.00013 1.00212 0.992279
1.00011 1.00242 0.992019
1.00005 1.00212 0.992325
1.00012 1.0016 0.992772
1.00023 1.00171 0.992477
1.00009 1.00187 0.992606
1.00005 1.00219 0.99268
0.994638 0.999585 0.957314
0.995841 1.00123 0.974004
0.999171 1.00143 0.97999
0.994991 0.998601 0.961108
0.995256 0.999919 0.961865
0.995057 1.00021 0.962483
0.995191 0.995745 0.983181
0.995068 0.994816 0.98861
0.994378 0.998211 0.953096
0.994966 1.00013 0.962496
0.996252 0.999829 0.958956
0.99545 0.9973 0.987959
0.995802 0.999766 0.967053
0.996626 0.999912 0.957135
0.999408 1.00112 0.994489
0.999967 1.00132 0.993479
1.00014 1.00176 0.992593
0.995709 0.997049 1.00084
0.998668 1.00182 0.995585
0.999879 1.00147 0.993177
0.999054 1.00237 0.994474
0.996512 1.0011 0.997274
0.998228 1.00126 0.994859
0.995547 0.999631 0.960319
0.999293 1.00026 0.979877
1.00698 1.00073 0.980036
0.996492 1.00128 1.00049
0.994915 0.999676 0.986546
0.998301 1.00082 0.977871
0.995682 0.999544 0.965457
0.996409 0.999919 0.956445
0.994665 0.998927 0.958821
0.997715 0.999963 0.99701
0.995236 0.998473 0.963741
0.997223 0.997909 0.957036
0.994849 1.00019 0.980278
0.996164 1.00062 0.965177
0.998939 0.999673 0.996446
0.998587 0.995899 0.956733
0.997374 1.00009 0.965576
0.995065 1.00082 0.978354
0.999624 0.998475 0.996937
1.00152 0.998807 0.993216
1.00326 0.997052 0.991162
0.999636 1.00402 0.990698
1.00204 1.00197 0.988451
1.00381 0.998478 0.988512
1.00135 1.00424 0.987695
1.00249 1.0023 0.987468
1.00376 0.999054 0.988361
1.00166 1.00416 0.987266
1.00273 1.00181 0.987515
1.0036 0.999157 0.988601
1.00326 0.999548 0.988925
1.00245 1.00174 0.988211
1.00281 1.00123 0.98802
1.00138 1.00276 0.988924
1.00176 1.00315 0.988162
1.00207 1.00309 0.987443
1.00072 1.00264 0.990618
1.0009 1.00318 0.989674
1.00112 1.00399 0.988367
1.00044 1.00214 0.991659
1.00052 1.0026 0.991077
1.00042 1.00288 0.990876
1.00003 1.00124 0.993309
1.00027 1.00215 0.991976
1.00022 1.00297 0.991245
0.999661 0.99868 0.996482
1.00001 1.0006 0.993938
1.00018 1.00177 0.992513
0.999531 0.997236 0.999279
0.999722 0.998373 0.996703
1 1.00008 0.994475
0.999636 0.996975 0.999303
0.999795 0.99809 0.996867
0.999703 0.996808 0.999318
1.00011 1.00201 0.992441
1.00018 1.00165 0.992598
1.00022 1.00099 0.993188
1.00007 0.999772 0.994668
1.00025 1.00068 0.993447
1.0002 1.00138 0.992825
0.999864 0.998011 0.996798
1.0001 0.999617 0.994757
1.00025 1.00051 0.993621
0.999783 0.99673 0.999294
0.999916 0.997838 0.996862
1.00013 0.999503 0.994835
0.999853 0.996528 0.999322
0.999967 0.997643 0.996952
0.999916 0.996325 0.999355
0.995076 0.999651 0.96087
0.997591 0.999899 0.981317
1.00278 1.00127 0.98362
1.00005 1.0025 0.992052
1.00005 1.00278 0.991843
1.00005 1.0027 0.991848
1.00015 1.00172 0.992676
1.00014 1.00207 0.99232
1.00012 1.0021 0.992235
1.00007 1.00213 0.992299
1.0001 1.00244 0.991993
0.99996 1.00294 0.99182
1.00014 1.00178 0.992485
1.00009 1.00188 0.992583
0.999999 1.00206 0.99269
0.998178 0.99809 0.95593
0.994573 0.999792 0.956128
0.995704 1.00144 0.973916
0.99434 0.998209 0.949993
0.995295 0.999859 0.958865
0.995514 1.00015 0.966821
0.995137 0.994779 0.984739
0.995285 0.997371 0.984471
0.996345 0.999252 0.9567
0.995587 1.00004 0.964644
0.996558 0.996867 0.984043
0.997073 1.00088 0.961603
1.00084 1.001 0.992665
0.999586 1.00097 0.994392
1.00006 1.00128 0.993482
0.99605 1.00138 0.997419
0.999376 1.00229 0.994306
0.998862 1.00156 0.994383
1.00159 0.999526 0.99088
0.998784 0.994862 0.956122
0.99543 0.999793 0.962446
0.999723 1.00011 0.98163
0.997603 0.999665 0.997147
0.994954 0.999991 0.982197
0.99522 0.998251 0.963912
0.99642 1.00091 0.961693
0.997826 0.999092 0.957927
0.998871 0.99975 0.995763
0.998564 0.995741 0.956631
0.998443 0.998776 0.961524
0.994988 1.00105 0.981715
0.999807 1.00001 0.995103
0.999266 0.996957 0.962709
0.996599 0.99926 0.984252
1.00117 0.998584 0.993999
1.00309 0.997236 0.991074
1.00471 0.995128 0.990101
1.00211 1.00193 0.988459
1.00385 0.998492 0.98846
1.0047 0.996012 0.989309
1.00242 1.00212 0.987527
1.00374 0.998969 0.988346
1.0046 0.99644 0.989096
1.00275 1.00167 0.98754
1.00357 0.999112 0.988579
1.00399 0.997451 0.989493
1.00356 0.998565 0.989497
1.00325 0.999408 0.989051
1.00291 1.00023 0.988864
1.00219 1.00177 0.988732
1.00246 1.00178 0.98823
1.00281 1.00113 0.988134
1.00114 1.00249 0.989757
1.00142 1.00277 0.989054
1.00179 1.0031 0.988273
1.00059 1.00214 0.991343
1.00074 1.00265 0.990598
1.00079 1.00319 0.989689
1.00011 1.0015 0.992851
1.00046 1.00212 0.991664
1.00055 1.0026 0.991067
0.999627 0.999092 0.996099
1.00005 1.00117 0.99331
1.00028 1.00214 0.991989
0.999494 0.997469 0.999227
0.999661 0.998721 0.99646
1.00001 1.00059 0.993927
0.999555 0.997256 0.998783
0.99973 0.998382 0.996697
0.999623 0.997041 0.999288
1.00012 1.00236 0.99207
1.0001 1.00205 0.992393
1.00014 1.00143 0.992904
1.0002 1.00164 0.992604
1.00022 1.00099 0.993189
1 1.00005 0.9945
0.999808 0.998164 0.996754
1.00007 0.999762 0.994674
1.00024 1.0007 0.99345
0.99971 0.996904 0.999279
0.999859 0.998006 0.996801
1.0001 0.999618 0.994759
0.99979 0.996708 0.9993
0.99991 0.997836 0.996865
0.999859 0.996498 0.99933
0.998838 0.996035 0.957265
0.994836 1.00008 0.959909
0.997426 0.999902 0.981474
1.00003 1.00256 0.992006
1.00003 1.0028 0.991763
1 1.00275 0.991904
1.00016 1.00279 0.991633
0.999977 1.00309 0.991624
1.00009 1.00215 0.992274
1.00009 1.00245 0.991966
0.999932 1.00283 0.991861
0.999836 1.00292 0.991566
1.00013 1.00236 0.991925
1.00162 1.00167 0.990274
0.999955 1.00212 0.992574
0.999979 1.00193 0.992699
0.999215 0.999211 0.960837
0.99748 0.998207 0.956144
0.994476 1.00003 0.956081
0.996741 0.999523 0.955928
0.99562 1.00068 0.962383
0.994957 0.997374 0.988815
0.996774 0.997008 0.986355
0.997086 0.998984 0.965769
0.999624 0.998262 0.980983
1.00316 0.99915 0.989649
1.00045 1.00083 0.992648
0.999723 1.00082 0.994292
0.999389 1.00181 0.993924
1.00232 0.999895 0.990123
0.999839 0.995538 0.961852
0.998888 0.995334 0.957152
0.995291 1.00001 0.964582
0.99874 0.999856 0.995059
0.994842 1.00139 0.978642
0.998613 0.995399 0.956986
0.997854 0.999733 0.965603
1.00006 0.999968 0.995162
1.00013 0.995803 0.964678
0.996425 1.00019 0.9805
1.00174 1.00202 0.990994
1.00029 0.99661 0.987782
1.00294 0.997457 0.990982
1.00449 0.995661 0.989855
1.00515 0.995826 0.988804
1.00391 0.998504 0.988411
1.00466 0.996253 0.989238
1.00509 0.995671 0.989039
1.00373 0.99887 0.988332
1.00461 0.996615 0.989021
1.00482 0.996416 0.98882
1.00355 0.99907 0.988556
1.00393 0.997578 0.989433
1.0041 0.997475 0.989349
1.00348 0.998377 0.989663
1.00339 0.999268 0.989075
1.00324 0.999279 0.989179
1.00292 1.00025 0.988832
1.00271 1.00067 0.988838
1.00178 1.0018 0.989259
1.00218 1.00181 0.988706
1.00247 1.00182 0.988251
1.00088 1.00213 0.990812
1.00113 1.00249 0.989848
1.00145 1.00279 0.989185
1.00017 1.00162 0.992568
1.00063 1.00213 0.991327
1.00077 1.00265 0.990578
0.99963 0.999533 0.99563
1.00013 1.00147 0.99286
1.00049 1.0021 0.991668
0.999464 0.997746 0.999152
0.999617 0.999159 0.996078
1.00007 1.00111 0.993311
0.999499 0.997516 0.999207
0.999659 0.998766 0.996437
0.999552 0.997293 0.999248
1.00024 1.00254 0.991678
1.00011 1.00234 0.992073
1.00014 1.00185 0.992446
1.0001 1.00207 0.992344
1.00014 1.00149 0.992836
0.99996 1.00049 0.994127
1.00022 1.00099 0.99319
1.00002 1.00002 0.994507
0.999735 0.998379 0.99668
0.99963 0.997078 0.999267
0.999801 0.998163 0.996757
1.00007 0.999751 0.994679
0.99972 0.996882 0.999283
0.999854 0.998002 0.996803
0.999796 0.996684 0.999306
1.0008 0.996389 0.963657
0.998499 0.996109 0.956409
0.994469 1.00047 0.959929
1.00001 1.00291 0.991677
0.999953 1.00271 0.991966
0.999979 1.00309 0.991663
1.00014 1.00279 0.991635
1.00029 1.003 0.991194
0.999936 1.00292 0.991653
0.999904 1.00271 0.991902
0.999974 1.00307 0.991393
1.00003 1.00262 0.991829
1.00043 1.00206 0.991219
1.00189 1.00157 0.990544
1.00326 1.0001 0.988234
1.00137 1.00157 0.990484
0.99977 1.00246 0.992663
0.999414 0.998436 0.979619
0.998964 0.999057 0.961825
0.997618 0.998491 0.956942
0.997928 1.00062 0.961627
0.996985 0.997109 0.9886
0.999893 0.998051 0.985239
1.00341 0.997459 0.990589
1.00321 0.998841 0.990005
1.00029 1.00066 0.992629
1.00352 1.00043 0.989352
0.999191 0.998562 0.981031
1.00042 0.995503 0.966044
0.998734 0.995772 0.956563
1.00024 0.999922 0.995206
0.99624 1.00092 0.982801
0.999676 0.995797 0.966649
1.00188 1.00105 0.991213
0.999733 0.997686 0.985977
1.00416 0.999949 0.988568
1.00469 0.997316 0.98872
1.00427 0.996115 0.989609
1.00505 0.995802 0.988767
1.00516 0.996522 0.988377
1.00457 0.996488 0.989165
1.00502 0.995822 0.98904
1.00505 0.996888 0.988086
1.00462 0.996788 0.988946
1.0048 0.996613 0.988765
1.00478 0.997515 0.988034
1.00388 0.997703 0.989372
1.00395 0.997533 0.989473
1.00382 0.998622 0.98866
1.00339 0.998187 0.989828
1.00335 0.999137 0.989161
1.00322 0.999964 0.988723
1.00292 1.00026 0.988801
1.00271 1.0007 0.988814
1.00244 1.00097 0.989141
1.00133 1.00171 0.990162
1.00176 1.00182 0.98935
1.00217 1.00184 0.988681
1.00033 1.00173 0.992194
1.0009 1.00212 0.990805
1.00112 1.00249 0.989939
0.999603 1.00008 0.995166
1.0002 1.00164 0.99257
1.00067 1.00213 0.99131
0.999461 0.998028 0.999041
0.999628 0.999586 0.995621
1.00015 1.00143 0.99287
0.999476 0.99779 0.999119
0.99961 0.999218 0.996057
0.999506 0.997559 0.999185
1.00037 1.00273 0.991272
1.00025 1.00252 0.991712
1.00023 1.00213 0.992077
1.00011 1.00232 0.992077
1.00014 1.00191 0.992392
0.999977 1.00099 0.993597
1.00014 1.00155 0.992767
0.999966 1.00049 0.994133
0.999657 0.998697 0.996507
1.00003 1 0.994514
0.999731 0.998363 0.996689
0.99955 0.997291 0.999247
0.999643 0.997057 0.999271
0.999795 0.998159 0.996761
0.999728 0.996864 0.999288
0.99937 0.998127 0.980424
1.00055 0.996367 0.960439
0.998561 0.995967 0.956861
1.00083 1.00261 0.990527
0.999981 1.0031 0.991701
1.00011 1.00278 0.991638
0.99998 1.003 0.991654
1.00022 1.00309 0.991161
1.00028 1.0019 0.991944
1.00011 1.00326 0.99122
0.999994 1.0029 0.991732
1.00059 1.00207 0.991345
1.00161 1.00156 0.990602
1.00291 1.0002 0.988854
1.00487 0.998329 0.986669
1.00319 0.999979 0.988197
1.00119 1.00138 0.990694
1.00283 0.997184 0.992526
0.999302 0.998953 0.978078
0.999106 0.998868 0.963154
0.999707 0.997886 0.982668
1.00348 0.996859 0.991487
1.00291 0.998415 0.99037
1.00351 0.998622 0.988219
0.99901 0.997553 0.983429
1.00019 0.995505 0.961542
1.0021 1.00001 0.991425
0.99969 0.998794 0.984189
1.00414 0.998968 0.988635
1.00464 0.997616 0.989023
1.00526 0.996339 0.988194
1.00515 0.997611 0.987672
1.00492 0.995818 0.98873
1.00514 0.996211 0.988442
1.00501 0.996975 0.988252
1.00501 0.995926 0.989042
1.00505 0.996818 0.988097
1.00491 0.997955 0.987316
1.00478 0.99681 0.98871
1.00466 0.997537 0.988215
1.00435 0.99839 0.987845
1.0038 0.99759 0.989598
1.00384 0.998625 0.988646
1.00367 0.999364 0.988267
1.00332 0.999008 0.989246
1.0032 0.999874 0.988744
1.00291 1.00038 0.988776
1.00271 1.00072 0.988789
1.0024 1.00097 0.989093
1.00196 1.00115 0.989818
1.0007 1.00149 0.991741
1.00132 1.00171 0.990255
1.00173 1.00184 0.98944
0.999583 1.00057 0.99471
1.00035 1.00173 0.992192
1.00093 1.00211 0.990797
0.999393 0.998387 0.998915
0.999643 1.00003 0.995161
1.00022 1.00164 0.992571
0.999452 0.998079 0.999001
0.999627 0.999628 0.995611
0.999486 0.997833 0.999084
1.00066 1.00261 0.990654
1.00035 1.0027 0.991282
1.00039 1.00224 0.991725
1.00026 1.0025 0.991747
1.00021 1.00213 0.992097
1.00002 1.00141 0.993116
1.00014 1.00196 0.992339
0.999963 1.00103 0.993595
0.999585 0.999111 0.996214
0.99997 1.00048 0.994139
0.999658 0.998659 0.996525
0.999485 0.997534 0.999204
0.99973 0.998349 0.996697
0.99956 0.997255 0.999255
0.999653 0.997038 0.999274
1.00298 0.997762 0.991088
0.999369 0.99836 0.977033
1.00018 0.996741 0.964143
1.00093 1.0017 0.991005
1.00204 1.00152 0.989323
1.00062 1.00264 0.990646
1.00003 1.00305 0.991654
1.00017 1.00317 0.991125
1.00049 1.00187 0.99182
1.00296 0.999834 0.989229
1.0007 1.0021 0.991471
1.00119 1.00155 0.99066
1.00289 1.00018 0.988922
1.00458 0.99902 0.9865
1.0051 0.997049 0.987379
1.00489 0.998383 0.986717
1.00321 0.999953 0.988158
1.0031 0.997125 0.992694
0.999114 0.999719 0.975881
1.0038 0.996405 0.992371
1.00507 0.997031 0.988601
1.00335 0.998456 0.988477
0.999491 0.996646 0.979627
1.00415 0.998083 0.988715
1.00459 0.997899 0.989281
1.00516 0.996296 0.988395
1.00518 0.997238 0.987681
1.00509 0.996874 0.987964
1.00514 0.996685 0.987724
1.00515 0.995836 0.988508
1.00498 0.996824 0.988248
1.00486 0.997594 0.987725
1.00506 0.996825 0.988108
1.00487 0.997947 0.987403
1.00466 0.99834 0.98732
1.00454 0.997562 0.988396
1.0044 0.99839 0.987809
1.00421 0.998833 0.987746
1.00385 0.998628 0.988632
1.00368 0.999359 0.988259
1.00336 0.999909 0.988316
1.00317 0.999784 0.988765
1.00286 1.00035 0.988787
1.00237 1.00068 0.989436
1.00235 1.00098 0.989044
1.00191 1.00114 0.989794
1.00115 1.00105 0.991333
0.999659 1.00074 0.994343
1.00071 1.0015 0.991736
1.00132 1.00172 0.990349
0.999244 0.998902 0.99879
0.999655 1.00048 0.9947
1.00037 1.00174 0.992189
0.999367 0.998489 0.998876
0.999676 1.00001 0.995156
0.999448 0.998146 0.998962
1.00125 1.00225 0.989654
1.00066 1.0026 0.990556
1.00073 1.00214 0.991183
1.00034 1.00266 0.991292
1.00036 1.00223 0.991735
1.00008 1.00171 0.992757
1.0002 1.00212 0.992118
0.999991 1.00147 0.99311
0.999553 0.999567 0.995807
0.99995 1.00107 0.993594
0.999594 0.999054 0.996234
0.999444 0.997794 0.999129
0.99966 0.998621 0.996544
0.999488 0.997492 0.99922
0.999572 0.997225 0.999262
1.00504 0.996579 0.987981
1.00301 0.997559 0.99054
0.999419 0.997607 0.978596
1.00305 1.00017 0.989109
1.00074 1.00155 0.991522
1.003 1.00019 0.988181
1.00207 1.00154 0.989252
1.0004 1.00268 0.990767
1.0046 0.998976 0.986851
1.00069 1.00183 0.991699
1.00305 0.99975 0.989134
1.00505 0.99843 0.98642
1.0029 1.00011 0.98899
1.0048 0.999009 0.986282
1.00505 0.997199 0.987399
1.00476 0.998482 0.98676
1.00323 0.996952 0.99287
1.00503 0.997207 0.987659
1.00501 0.997118 0.988571
1.00309 0.998301 0.988728
1.00503 0.996196 0.988599
1.00521 0.996966 0.987688
1.00503 0.996853 0.988056
1.00514 0.996788 0.987856
1.00512 0.997427 0.987404
1.00494 0.996715 0.988245
1.00485 0.997653 0.987718
1.00479 0.998157 0.987299
1.00483 0.997944 0.98749
1.00467 0.998369 0.987315
1.00449 0.998663 0.987409
1.00445 0.99839 0.987773
1.00423 0.998836 0.98773
1.00388 0.999362 0.987883
1.00369 0.999354 0.988251
1.00337 0.999905 0.988315
1.00286 1.00028 0.988903
1.00282 1.00033 0.988798
1.00237 1.00068 0.98944
1.00157 1.00068 0.990911
1.00185 1.00112 0.989769
1.00115 1.00107 0.991325
0.999756 1.00068 0.995
0.999167 0.999567 0.996866
0.99973 1.00065 0.994767
1.00072 1.00152 0.991732
0.999223 0.999038 0.998746
0.999726 1.0004 0.994689
0.999346 0.998577 0.998833
1.00356 0.999287 0.988349
1.00201 1.00148 0.988997
1.00138 1.00223 0.989541
1.00113 1.00192 0.990603
1.00066 1.00258 0.990459
1.00068 1.00214 0.991204
1.00022 1.00177 0.992451
1.00033 1.00222 0.991745
1.00005 1.00172 0.992756
0.999578 1.00001 0.99533
0.999961 1.00155 0.993104
0.999557 0.999518 0.995821
0.999403 0.998103 0.999014
0.999602 0.998998 0.996254
0.99944 0.997754 0.999155
0.999494 0.997449 0.999234
1.005 0.997775 0.987152
1.00507 0.996799 0.9885
1.00309 0.997557 0.989997
1.00447 0.998848 0.987176
1.00269 1.00022 0.989512
1.00054 1.00138 0.992033
1.00322 1.00013 0.988319
1.00211 1.00156 0.989181
1.00514 0.998756 0.986181
1.00458 0.999079 0.986675
1.00312 0.999694 0.989037
1.00505 0.998446 0.986413
1.00504 0.998996 0.986065
1.00502 0.997317 0.987429
1.00515 0.997706 0.987152
1.00506 0.997127 0.987699
1.00504 0.997134 0.988541
1.00498 0.996836 0.988148
1.00513 0.996865 0.987987
1.00512 0.99735 0.987488
1.00508 0.998156 0.986793
1.00483 0.997706 0.98771
1.00473 0.998222 0.987329
1.00459 0.998875 0.986983
1.00468 0.998394 0.98731
1.00448 0.998665 0.987414
1.00414 0.999112 0.987636
1.00424 0.998838 0.987714
1.00388 0.99936 0.98788
1.00332 0.999837 0.988477
1.00337 0.9999 0.988313
1.00286 1.00028 0.988903
1.00198 1.00041 0.99041
1.00236 1.00068 0.989444
1.00158 1.00068 0.990899
0.999944 1.00051 0.994875
1.00115 1.00109 0.991317
0.999861 1.00065 0.994953
0.99904 1.00008 0.996699
0.999096 0.999636 0.997738
0.999823 1.00056 0.995154
0.999201 0.999165 0.998696
1.00453 0.9986 0.987333
1.00288 1.00045 0.988817
1.00341 0.998981 0.988975
1.00163 1.00161 0.989902
1.00213 1.00152 0.988964
1.00151 1.0022 0.989428
1.00109 1.00196 0.990611
1.00048 1.00168 0.992042
1.00064 1.00214 0.991224
1.0002 1.00175 0.992455
0.999623 1.0004 0.994878
1.00002 1.00172 0.992755
0.999554 1.00001 0.995336
0.999312 0.998527 0.998878
0.999562 0.999459 0.995833
0.999403 0.998047 0.999053
0.999438 0.997708 0.99918
1.00515 0.998067 0.986714
1.00502 0.997752 0.987144
1.00506 0.996939 0.98901
1.00499 0.998615 0.986461
1.00443 0.998935 0.98724
1.00236 1.00026 0.989916
1.00343 1.00005 0.988459
1.00513 0.998705 0.986183
1.00457 0.999182 0.986499
1.00504 0.99847 0.986406
1.00516 0.998026 0.986766
1.00515 0.997707 0.987108
1.00508 0.997062 0.98774
1.00515 0.9983 0.986562
1.00513 0.997279 0.987572
1.00506 0.998143 0.986842
1.00484 0.99882 0.986575
1.00468 0.998292 0.987359
1.00459 0.998882 0.986995
1.00425 0.999327 0.987202
1.00448 0.998669 0.987418
1.00414 0.999114 0.987633
1.00356 0.999571 0.988272
1.00389 0.999359 0.987877
1.00332 0.999835 0.988478
1.00234 1.00014 0.990001
1.00286 1.00028 0.988902
1.00199 1.00039 0.990397
1.00018 1.00028 0.994733
1.00158 1.00069 0.990886
1.00004 1.0005 0.994822
0.999025 1.00024 0.996627
0.999973 1.0006 0.994903
0.998969 1.00018 0.996751
0.998978 0.999655 0.998698
1.00479 0.998886 0.986729
1.00399 0.999212 0.987808
1.00441 0.998709 0.987525
1.00236 1.00094 0.989423
1.00287 1.00031 0.988844
1.00328 0.998684 0.989591
1.00093 1.00145 0.991392
1.00163 1.00163 0.989895
1.00224 1.00157 0.988931
1.00104 1.002 0.990619
1.00046 1.00167 0.99205
0.999681 1.0007 0.99449
1.00018 1.00173 0.992458
0.999564 1.00047 0.994883
0.999156 0.999095 0.998749
0.999532 1.00001 0.995343
0.999329 0.998438 0.998923
0.999406 0.997994 0.99909
1.00512 0.998107 0.986722
1.00515 0.998069 0.986679
1.00508 0.99773 0.987136
1.00502 0.998462 0.986565
1.00439 0.999026 0.987302
1.00512 0.998642 0.986186
1.00514 0.998238 0.986596
1.00517 0.998054 0.986742
1.00515 0.997707 0.987064
1.00515 0.99825 0.98659
1.00507 0.998627 0.986434
1.00503 0.998127 0.986891
1.00486 0.998852 0.986555
1.00453 0.999299 0.986646
1.0046 0.998887 0.987007
1.00425 0.999334 0.987201
1.0037 0.999681 0.9879
1.00415 0.999114 0.98763
1.00357 0.999571 0.988268
1.00253 0.999931 0.989824
1.00332 0.999833 0.988479
1.00235 1.00012 0.989996
1.00043 1.00005 0.994565
1.00201 1.00038 0.990384
1.00026 1.00028 0.99467
0.999133 1.00019 0.996534
1.00014 1.00047 0.994776
0.998954 1.00031 0.996695
0.99889 1.00031 0.99681
1.00496 0.998495 0.986601
1.00438 0.999024 0.987238
1.00477 0.998851 0.986695
1.00324 0.999978 0.988582
1.00398 0.999292 0.987839
1.00426 0.998815 0.987724
1.00152 1.00092 0.990721
1.00234 1.00088 0.989272
1.00286 1.00017 0.988871
0.999811 1.00083 0.994107
1.00092 1.00143 0.991407
1.00163 1.00165 0.989888
1.00043 1.00167 0.992059
0.999591 1.0008 0.994502
0.999006 0.999707 0.99864
0.9995 1.00056 0.994887
0.999185 0.998972 0.998795
0.999352 0.998348 0.998966
1.0051 0.998267 0.986664
1.00512 0.998122 0.986711
1.00514 0.998077 0.986643
1.00505 0.998313 0.986669
1.00509 0.998517 0.986455
1.00515 0.998251 0.986594
1.00518 0.998085 0.986717
1.00515 0.998211 0.986619
1.00507 0.99858 0.986443
1.00487 0.999036 0.986445
1.00488 0.998884 0.986535
1.00453 0.999358 0.986696
1.00395 0.999687 0.987254
1.00425 0.999343 0.9872
1.0037 0.999686 0.987894
1.00266 0.99993 0.989574
1.00357 0.999576 0.988263
1.00254 0.999917 0.989822
1.00056 0.999932 0.993453
1.00236 1.0001 0.989991
1.00048 1.00004 0.994021
0.999271 1.00013 0.998439
1.00035 1.00028 0.99461
0.999054 1.00025 0.996608
0.998875 1.00044 0.996751
1.00494 0.998468 0.986733
1.0045 0.998898 0.987019
1.00494 0.998544 0.986663
1.00369 0.999405 0.987964
1.00438 0.999054 0.987248
1.00475 0.99882 0.986661
1.00218 1.00021 0.989888
1.00326 0.999969 0.988576
1.00399 0.999375 0.987871
1.00007 1.00065 0.993733
1.00154 1.00088 0.990586
1.00233 1.00081 0.989122
0.998985 1.00017 0.99854
0.999723 1.0009 0.994127
1.0009 1.00143 0.991421
0.999504 1.00091 0.994514
0.99902 0.99957 0.99868
0.999216 0.998839 0.998834
1.00504 0.998451 0.986561
1.00511 0.998251 0.986665
1.00513 0.998139 0.986701
1.00492 0.99889 0.986458
1.00509 0.998509 0.986458
1.00516 0.998256 0.986592
1.00507 0.998528 0.986452
1.00487 0.999001 0.986439
1.00443 0.999408 0.986945
1.00453 0.99942 0.986746
1.00396 0.999738 0.987412
1.00295 0.99993 0.988731
1.00371 0.999687 0.987887
1.00267 0.999926 0.989566
1.00064 0.999984 0.993246
1.00256 0.999904 0.98982
1.00056 0.999936 0.993451
0.999327 1.00004 0.998419
1.00049 1.00005 0.993516
0.999232 1.00011 0.997494
0.998974 1.00032 0.996678
1.00485 0.998623 0.986776
1.00458 0.998781 0.987115
1.00494 0.998459 0.986745
1.00388 0.999329 0.987855
1.00453 0.998875 0.987036
1.00492 0.998588 0.986725
1.00261 0.999773 0.989523
1.00371 0.999474 0.988127
1.00437 0.999081 0.987256
1.00038 1.00026 0.993498
1.00222 1.00021 0.989836
1.00327 0.999959 0.98857
0.999094 1.00035 0.998457
1.00002 1.00068 0.993758
1.00155 1.00085 0.99045
0.998948 1.00006 0.998576
0.999647 1.00096 0.994149
0.99903 0.999421 0.998721
1.00488 0.998836 0.98657
1.00504 0.998479 0.986568
1.00511 0.998235 0.986665
1.00447 0.999208 0.987025
1.00492 0.998873 0.986475
1.00508 0.998507 0.986462
1.00486 0.998967 0.986433
1.00442 0.999417 0.986938
1.00338 0.999714 0.988146
1.00397 0.999791 0.98757
1.00293 0.999949 0.988903
1.00085 1.00005 0.992769
1.00269 0.999917 0.98956
1.00065 0.999982 0.993233
0.999388 1.00001 0.998378
1.00055 0.999945 0.99345
0.999345 1.00003 0.998409
0.999266 1.00008 0.996468
1.00466 0.998891 0.987038
1.00487 0.998559 0.986788
1.00403 0.999241 0.987673
1.00459 0.998765 0.987104
1.00493 0.99845 0.986757
1.00283 0.999711 0.989478
1.0039 0.999326 0.987847
1.00456 0.998854 0.987054
1.0006 0.999949 0.993358
1.00262 0.999821 0.989617
1.00372 0.999546 0.988289
0.999252 1.00026 0.998408
1.00035 1.00026 0.993513
1.00227 1.0002 0.989785
0.999036 1.00028 0.998482
0.999964 1.0007 0.993786
0.998913 0.999947 0.998615
1.0044 0.999211 0.987174
1.00488 0.998861 0.986568
1.00503 0.998507 0.986576
1.00344 0.999566 0.988199
1.00448 0.999209 0.987026
1.00492 0.998854 0.986492
1.00441 0.999428 0.98693
1.00335 0.999739 0.988184
1.00111 1.00003 0.992298
1.00291 0.999964 0.989074
1.00087 1.00005 0.992746
0.999517 1.00001 0.99827
1.00066 0.999983 0.993222
0.999428 1 0.998348
0.99937 1.00002 0.998397
1.00418 0.999226 0.987454
1.00465 0.99882 0.987
1.00488 0.998496 0.9868
1.00298 0.999677 0.989209
1.00404 0.999246 0.987665
1.00461 0.998749 0.987092
1.00076 0.999842 0.993158
1.00282 0.999726 0.989476
1.00392 0.999322 0.987839
0.999401 1.00009 0.998367
1.00059 0.999939 0.993368
1.00262 0.999865 0.989712
0.999202 1.00025 0.998421
1.00033 1.00026 0.993527
0.998968 1.00024 0.998512
1.00337 0.999626 0.98852
1.00442 0.999191 0.987033
1.00487 0.998885 0.986566
1.00121 0.999963 0.992172
1.00344 0.999557 0.988187
1.00448 0.99921 0.987026
1.00332 0.999762 0.988222
1.00112 1.00002 0.99229
0.999707 1.00001 0.998117
1.00089 1.00005 0.992722
0.999583 1.00001 0.998212
0.999467 0.999994 0.998311
1.00319 0.999659 0.988847
1.00419 0.999197 0.987384
1.00464 0.998748 0.986963
1.00095 0.999898 0.993906
1.00298 0.999688 0.989201
1.00406 0.999251 0.987656
0.999524 0.999977 0.998296
1.00076 0.999843 0.993167
1.00281 0.99974 0.989473
0.999357 1.00011 0.998382
1.00059 0.999934 0.993378
0.999149 1.00025 0.998433
1.0012 0.999961 0.992201
1.00337 0.999591 0.988425
1.00444 0.999166 0.986891
0.999806 1 0.998047
1.00121 0.999964 0.992173
1.00345 0.999551 0.988175
1.00113 1.00001 0.99228
0.999753 1.00001 0.998082
0.999658 1.00001 0.998155
1.00115 0.999957 0.993532
1.00319 0.999654 0.988849
1.00421 0.999169 0.987313
0.999442 0.999971 0.998371
1.00088 0.999905 0.992881
1.00299 0.999693 0.989193
0.99948 1 0.998324
1.00075 0.999849 0.993177
0.999319 1.00012 0.998394
0.999786 1.00001 0.995677
1.0012 0.999962 0.992824
1.00337 0.99956 0.988329
0.999805 0.999998 0.998046
1.0012 0.999964 0.992178
0.999787 1 0.998056
0.999534 0.999985 0.996002
1.00108 0.999968 0.993059
1.00319 0.999652 0.988851
0.999512 0.999973 0.997198
1.00089 0.999921 0.992864
0.999445 1.00002 0.998349
0.999791 0.999995 0.998054
1.00116 0.999961 0.992275
0.999804 0.999996 0.998046
0.999632 0.999996 0.997033
1.00103 0.999971 0.992519
0.99955 0.999985 0.998269
0.999759 0.99999 0.998085
0.999662 0.999985 0.99817

TENSORS stress float
0.00118922 -3.44728e-06 6.95661e-05
-3.44728e-06 0.000290244 -7.94878e-06
6.95661e-05 -7.94878e-06 0.000270568
0.00325314 -8.20262e-05 6.40594e-05
-8.20262e-05 0.00137312 3.47848e-06
6.40594e-05 3.47848e-06 0.00136875
0.00120427 3.37753e-05 3.30296e-05
3.37753e-05 0.00030767 -2.49131e-06
3.30296e-05 -2.49131e-06 0.000282691
0.00159167 -1.34746e-05 8.66147e-05
-1.34746e-05 0.000474749 -6.23712e-06
8.66147e-05 -6.23712e-06 0.000453246
0.00129592 -1.24262e-05 7.55669e-05
-1.24262e-05 0.000345519 -8.04038e-06
7.55669e-05 -8.04038e-06 0.000324289
0.00113227 2.39301e-05 5.87817e-05
2.39301e-05 0.000252266 -7.24076e-06
5.87817e-05 -7.24076e-06 0.000233993
0.00110647 -2.3905e-06 8.81498e-06
-2.3905e-06 0.000202228 -4.24331e-06
8.81498e-06 -4.24331e-06 0.00015283
0.00320722 -9.49232e-05 2.38606e-06
-9.49232e-05 0.00134674 -2.94022e-07
2.38606e-06 -2.94022e-07 0.00134176
0.00397323 -0.000171384 1.66154e-06
-0.000171384 0.00179003 2.2233e-06
1.66154e-06 2.2233e-06 0.0017657
0.00323866 -0.000136646 1.11756e-05
-0.000136646 0.0013917 1.62184e-06
1.11756e-05 1.62184e-06 0.00137574
0.00113829 -3.64766e-05 4.90416e-05
-3.64766e-05 0.000229691 4.19153e-06
4.90416e-05 4.19153e-06 0.000220854
0.000748097 2.22292e-05 7.53867e-06
2.22292e-05 3.4788e-06 4.71654e-06
7.53867e-06 4.71654e-06 -3.85989e-05
0.00175443 -8.98428e-06 0.000103542
-8.98428e-06 0.000542307 8.90178e-07
0.000103542 8.90178e-07 0.00051959
0.0013169 9.96389e-06 1.60732e-05
9.96389e-06 0.000332382 1.40967e-06
1.60732e-05 1.40967e-06 0.000307386
0.00125654 7.8792e-05 -3.10624e-06
7.8792e-05 0.00034684 2.99073e-06
-3.10624e-06 2.99073e-06 0.000315345
0.00147029 5.64635e-06 3.75497e-05
5.64635e-06 0.000416586 -2.23968e-06
3.75497e-05 -2.23968e-06 0.000392908
0.00113379 4.21279e-05 2.74702e-05
4.21279e-05 0.000259554 -2.44249e-06
2.74702e-05 -2.44249e-06 0.000238091
0.00129186 3.14331e-05 3.80257e-05
3.14331e-05 0.00035383 -2.35264e-06
3.80257e-05 -2.35264e-06 0.000327055
0.00121983 -1.36787e-05 -1.4189e-05
-1.36787e-05 0.00025663 3.79095e-07
-1.4189e-05 3.79095e-07 0.000209666
0.00480515 -7.54038e-06 0.000103106
-7.54038e-06 0.00217126 -1.1127e-06
0.000103106 -1.1127e-06 0.00216623
0.00165881 -7.76628e-06 9.01973e-05
-7.76628e-06 0.000503534 -4.68884e-06
9.01973e-05 -4.68884e-06 0.000482663
0.00144451 -1.41021e-05 8.08798e-05
-1.41021e-05 0.000412071 -7.4942e-06
8.08798e-05 -7.4942e-06 0.000390349
0.00145013 -2.34294e-05 1.79118e-05
-2.34294e-05 0.000312512 -3.42537e-06
1.79118e-05 -3.42537e-06 0.000263071
0.00122008 -1.03746e-06 9.04117e-06
-1.03746e-06 0.000244212 -4.76694e-06
9.04117e-06 -4.76694e-06 0.000192583
0.00114647 4.29496e-05 4.66208e-05
4.29496e-05 0.000243633 -6.83024e-06
4.66208e-05 -6.83024e-06 0.00022892
0.00101993 4.0927e-06 8.41592e-06
4.0927e-06 0.000166844 -3.47805e-06
8.41592e-06 -3.47805e-06 0.000121343
0.00150446 -8.82832e-05 3.88597e-06
-8.82832e-05 0.000321269 -1.58448e-06
3.88597e-06 -1.58448e-06 0.000243715
0.00314376 -0.00010079 -5.03991e-05
-0.00010079 0.00131056 -3.10727e-06
-5.03991e-05 -3.10727e-06 0.00130555
0.00257461 -5.88298e-05 -3.63904e-05
-5.88298e-05 0.001032 -7.50925e-07
-3.63904e-05 -7.50925e-07 0.00101156
0.00224018 -8.02588e-05 -2.54e-05
-8.02588e-05 0.000851874 -5.8833e-07
-2.54e-05 -5.8833e-07 0.000834782
0.00297793 -8.95225e-05 1.37539e-06
-8.95225e-05 0.00121161 -1.66475e-07
1.37539e-06 -1.66475e-07 0.00121066
0.000690575 1.40302e-05 -1.05162e-07
1.40302e-05 -2.18301e-05 -1.6232e-07
-1.05162e-07 -1.6232e-07 -6.43867e-05
0.00161622 2.51183e-05 8.28566e-05
2.51183e-05 0.000500306 5.08649e-06
8.28566e-05 5.08649e-06 0.000478996
0.00161086 8.36189e-06 7.2142e-05
8.36189e-06 0.000513203 5.78943e-06
7.2142e-05 5.78943e-06 0.000492701
0.00219439 6.98413e-05 4.5389e-05
6.98413e-05 0.00074299 5.35483e-06
4.5389e-05 5.35483e-06 0.00070035
0.00270765 -9.19596e-05 1.44778e-05
-9.19596e-05 0.00105978 1.36287e-06
1.44778e-05 1.36287e-06 0.00106146
0.00190149 3.03459e-05 3.49796e-05
3.03459e-05 0.0006147 4.14165e-06
3.49796e-05 4.14165e-06 0.00057662
0.00067959 -1.40411e-05 7.5706e-06
-1.40411e-05 -2.88846e-05 6.7423e-06
7.5706e-06 6.7423e-06 -6.68511e-05
0.000914077 5.97965e-05 3.64983e-06
5.97965e-05 5.87391e-05 8.26225e-07
3.64983e-06 8.26225e-07 -1.71386e-05
0.00251406 -6.43001e-05 3.8398e-05
-6.43001e-05 0.000943825 3.2853e-06
3.8398e-05 3.2853e-06 0.000953103
0.00498491 -1.24192e-05 1.31582e-06
-1.24192e-05 0.00226071 -5.31294e-07
1.31582e-06 -5.31294e-07 0.00225522
0.00300808 1.00156e-05 -4.108e-05
1.00156e-05 0.0012261 -9.49566e-07
-4.108e-05 -9.49566e-07 0.00121086
0.00517889 1.42539e-05 0.000112147
1.42539e-05 0.0023561 3.96889e-07
0.000112147 3.96889e-07 0.00235094
0.00135323 6.59637e-06 1.36387e-05
6.59637e-06 0.000347597 9.21239e-07
1.36387e-05 9.21239e-07 0.00032135
0.00079521 -4.45774e-06 1.44705e-05
-4.45774e-06 -7.17999e-05 2.12866e-06
1.44705e-05 2.12866e-06 -0.000128484
0.00442419 -2.49237e-05 2.67641e-05
-2.49237e-05 0.00198716 1.16764e-06
2.67641e-05 1.16764e-06 0.00197712
0.00234674 9.37839e-06 5.39473e-05
9.37839e-06 0.000772761 3.24044e-06
5.39473e-05 3.24044e-06 0.000732802
0.00134394 1.70792e-06 -1.63043e-05
1.70792e-06 0.00035553 2.03136e-06
-1.63043e-05 2.03136e-06 0.00033001
0.00132501 6.37754e-05 -4.3856e-06
6.37754e-05 0.000379383 2.9403e-06
-4.3856e-06 2.9403e-06 0.000348742
0.0011452 7.09992e-05 -6.11765e-06
7.09992e-05 0.000273179 2.40971e-06
-6.11765e-06 2.40971e-06 0.000247244
0.00128423 -2.82767e-05 -3.69824e-05
-2.82767e-05 0.00028411 4.94818e-06
-3.69824e-05 4.94818e-06 0.000240276
0.0031899 4.0913e-05 -4.19486e-05
4.0913e-05 0.00131752 -1.05557e-06
-4.19486e-05 -1.05557e-06 0.0012988
0.00149419 1.24666e-06 3.7285e-05
1.24666e-06 0.00042166 -1.53205e-06
3.7285e-05 -1.53205e-06 0.000398812
0.00110163 5.15788e-05 2.04785e-05
5.15788e-05 0.000223347 -2.31697e-06
2.04785e-05 -2.31697e-06 0.000207349
0.00138646 1.81841e-05 3.82319e-05
1.81841e-05 0.000389361 -2.4766e-06
3.82319e-05 -2.4766e-06 0.000364222
0.00150088 -3.18365e-05 -1.3618e-05
-3.18365e-05 0.000336967 2.50659e-07
-1.3618e-05 2.50659e-07 0.000289203
0.00112046 -6.52889e-07 -1.11431e-05
-6.52889e-07 0.000215512 3.42508e-07
-1.11431e-05 3.42508e-07 0.000171773
0.00131886 -2.19668e-05 -1.48735e-05
-2.19668e-05 0.000289251 3.64893e-07
-1.48735e-05 3.64893e-07 0.000241431
0.00163344 -9.36103e-05 -2.23259e-06
-9.36103e-05 0.000384639 7.97542e-07
-2.23259e-06 7.97542e-07 0.000305988
0.00497857 3.47583e-05 0.000102084
3.47583e-05 0.00225776 1.33976e-07
0.000102084 1.33976e-07 0.00225211
0.0016392 1.88469e-06 9.24641e-05
1.88469e-06 0.00049196 -3.37622e-06
9.24641e-05 -3.37622e-06 0.000470772
0.00225399 4.26061e-05 1.24529e-05
4.26061e-05 0.000720489 -1.09275e-06
1.24529e-05 -1.09275e-06 0.000672543
0.00148557 -2.39584e-05 1.98276e-05
-2.39584e-05 0.000322163 -2.44064e-06
1.98276e-05 -2.44064e-06 0.000274052
0.00133971 -1.25549e-05 1.33562e-05
-1.25549e-05 0.000279625 -4.40479e-06
1.33562e-05 -4.40479e-06 0.000229132
0.00194451 -7.72132e-05 6.40819e-06
-7.72132e-05 0.000425819 -2.00398e-06
6.40819e-06 -2.00398e-06 0.000342653
0.00123605 -7.92584e-05 5.87014e-06
-7.92584e-05 0.000135729 -2.85023e-06
5.87014e-06 -2.85023e-06 5.42592e-05
0.00122355 4.57785e-05 4.2397e-05
4.57785e-05 0.000263174 -6.60809e-06
4.2397e-05 -6.60809e-06 0.000255175
0.00097664 2.93825e-05 6.77602e-06
2.93825e-05 0.000147676 -2.96353e-06
6.77602e-06 -2.96353e-06 0.000109241
0.00132231 -7.50552e-05 2.79742e-06
-7.50552e-05 0.000264193 -1.01005e-06
2.79742e-06 -1.01005e-06 0.000190069
0.00112423 -9.56545e-05 2.53912e-06
-9.56545e-05 6.37629e-05 -8.79247e-07
2.53912e-06 -8.79247e-07 -3.57472e-05
0.0039026 -8.34144e-05 -6.71859e-05
-8.34144e-05 0.00173701 -4.02397e-06
-6.71859e-05 -4.02397e-06 0.00172497
0.00294457 -9.08516e-05 -4.54585e-05
-9.08516e-05 0.00119084 -3.10288e-06
-4.54585e-05 -3.10288e-06 0.00119093
0.00330588 -0.000105513 -5.64477e-05
-0.000105513 0.00141376 -3.0848e-06
-5.64477e-05 -3.0848e-06 0.00140455
0.000639471 1.39035e-05 -6.45281e-06
1.39035e-05 -4.48289e-05 -5.3246e-06
-6.45281e-06 -5.3246e-06 -8.72351e-05
0.00447806 -2.97878e-05 -2.83322e-06
-2.97878e-05 0.00202016 -2.47294e-07
-2.83322e-06 -2.47294e-07 0.00201201
0.00377746 -9.33624e-05 2.47103e-06
-9.33624e-05 0.00167491 -2.27411e-07
2.47103e-06 -2.27411e-07 0.00166194
0.000636051 6.78542e-05 -5.58753e-07
6.78542e-05 -7.81573e-05 -1.58482e-07
-5.58753e-07 -1.58482e-07 -0.000129556
0.00188377 -6.56388e-05 -1.77464e-05
-6.56388e-05 0.000618657 -6.97884e-07
-1.77464e-05 -6.97884e-07 0.000617397
0.000661289 3.80936e-05 -2.63346e-07
3.80936e-05 -3.85482e-05 -8.80522e-08
-2.63346e-07 -8.80522e-08 -8.46229e-05
0.00116256 -2.48254e-05 9.82572e-06
-2.48254e-05 0.000230191 4.59574e-07
9.82572e-06 4.59574e-07 0.000196301
0.000866476 5.85761e-05 1.66747e-07
5.85761e-05 3.26446e-05 -2.15155e-07
1.66747e-07 -2.15155e-07 -4.25796e-05
0.0026511 -7.12346e-05 4.23927e-05
-7.12346e-05 0.00102122 3.27015e-06
4.23927e-05 3.27015e-06 0.00102805
0.000721707 -5.12535e-05 1.66623e-06
-5.12535e-05 -1.61833e-05 4.24132e-06
1.66623e-06 4.24132e-06 -3.62721e-05
0.000779649 5.87184e-05 1.42672e-05
5.87184e-05 -3.04623e-05 6.27306e-06
1.42672e-05 6.27306e-06 -8.29264e-05
0.000801387 6.09357e-05 1.28458e-05
6.09357e-05 2.13063e-05 7.59686e-06
1.28458e-05 7.59686e-06 -2.87623e-05
0.00104964 7.81523e-05 6.28714e-06
7.81523e-05 2.41568e-05 2.70329e-06
6.28714e-06 2.70329e-06 -6.12119e-05
0.00157062 -5.31846e-05 2.10801e-05
-5.31846e-05 0.000446621 3.69406e-06
2.10801e-05 3.69406e-06 0.00042131
0.000962933 7.43486e-05 3.97342e-06
7.43486e-05 6.09861e-05 1.46824e-06
3.97342e-06 1.46824e-06 -1.58335e-05
0.000890683 4.25026e-05 3.53923e-06
4.25026e-05 6.29138e-05 1.6429e-06
3.53923e-06 1.6429e-06 -1.14161e-05
0.000884036 8.73972e-05 1.90392e-06
8.73972e-05 1.25698e-05 -5.75569e-07
1.90392e-06 -5.75569e-07 -7.95268e-05
0.00234195 -5.75111e-05 3.32398e-05
-5.75111e-05 0.00084626 3.35645e-06
3.32398e-05 3.35645e-06 0.00085813
0.0024583 -6.45284e-05 8.04486e-07
-6.45284e-05 0.000914247 -9.93246e-08
8.04486e-07 -9.93246e-08 0.000923757
0.00462531 1.56691e-05 -9.70434e-05
1.56691e-05 0.00208348 -3.04596e-06
-9.70434e-05 -3.04596e-06 0.0020783
0.00488606 -1.02279e-05 -0.000100635
-1.02279e-05 0.0022115 -1.16702e-06
-0.000100635 -1.16702e-06 0.0022063
0.00513844 1.59432e-05 3.49478e-06
1.59432e-05 0.00233779 -5.62138e-07
3.49478e-06 -5.62138e-07 0.00233163
0.00308375 -9.33675e-06 -4.12543e-05
-9.33675e-06 0.00126241 -5.19085e-07
-4.12543e-05 -5.19085e-07 0.00124604
0.00163108 8.2436e-06 2.35969e-05
8.2436e-06 0.00037456 1.50761e-07
2.35969e-05 1.50761e-07 0.000324328
0.00291584 -8.44202e-06 -4.2091e-05
-8.44202e-06 0.00118516 -1.09936e-06
-4.2091e-05 -1.09936e-06 0.00116931
0.00154289 2.56424e-05 2.10121e-05
2.56424e-05 0.000349979 3.84901e-07
2.10121e-05 3.84901e-07 0.000304143
0.00516852 8.19156e-05 0.000104744
8.19156e-05 0.00235504 1.43257e-06
0.000104744 1.43257e-06 0.00234706
0.000765502 -1.49614e-06 1.31428e-05
-1.49614e-06 -9.76676e-05 3.27855e-07
1.31428e-05 3.27855e-07 -0.000156065
0.00239692 -1.41195e-05 5.6218e-05
-1.41195e-05 0.000791198 2.29595e-06
5.6218e-05 2.29595e-06 0.000749371
0.00124936 1.61833e-05 8.15593e-06
1.61833e-05 1.01488e-05 1.69179e-06
8.15593e-06 1.69179e-06 -8.16215e-05
0.00226552 5.15769e-05 5.11758e-05
5.15769e-05 0.000743535 3.73047e-06
5.11758e-05 3.73047e-06 0.000702679
0.00119918 4.59299e-05 7.95335e-06
4.59299e-05 1.65859e-05 1.74857e-06
7.95335e-06 1.74857e-06 -7.10608e-05
0.00171868 1.80598e-05 -0.000100213
1.80598e-05 0.00052792 4.06327e-07
-0.000100213 4.06327e-07 0.000506033
0.00130703 -1.04632e-05 -1.73438e-05
-1.04632e-05 0.000328257 1.51445e-06
-1.73438e-05 1.51445e-06 0.000303327
0.00100131 6.22883e-05 -7.9162e-06
6.22883e-05 0.000174277 1.92268e-06
-7.9162e-06 1.92268e-06 0.000156606
0.00134896 2.31917e-05 -1.17267e-05
2.31917e-05 0.000374406 2.43342e-06
-1.17267e-05 2.43342e-06 0.00034787
0.0015595 -2.87002e-05 -4.72841e-05
-2.87002e-05 0.00036577 4.08212e-06
-4.72841e-05 4.08212e-06 0.000319462
0.00137903 -3.60655e-05 -4.10918e-05
-3.60655e-05 0.000314886 5.18605e-06
-4.10918e-05 5.18605e-06 0.000270171
0.00120273 -1.1112e-05 -3.2051e-05
-1.1112e-05 0.000253854 4.24829e-06
-3.2051e-05 4.24829e-06 0.000212543
0.00179616 -9.96867e-05 -9.11012e-06
-9.96867e-05 0.000465762 3.502e-06
-9.11012e-06 3.502e-06 0.000385918
0.00506158 6.08318e-06 -2.88276e-06
6.08318e-06 0.0022985 -5.10838e-07
-2.88276e-06 -5.10838e-07 0.00229308
0.00147746 6.20594e-07 3.88446e-05
6.20594e-07 0.000411798 -8.82617e-07
3.88446e-05 -8.82617e-07 0.000388567
0.00115778 7.59962e-06 -2.52295e-05
7.59962e-06 0.00013117 3.05113e-07
-2.52295e-05 3.05113e-07 7.95612e-05
0.00151549 -2.55903e-05 -1.40488e-05
-2.55903e-05 0.000335761 2.57627e-07
-1.40488e-05 2.57627e-07 0.000289007
0.00203011 6.59665e-05 3.39769e-05
6.59665e-05 0.000697905 -1.45812e-06
3.39769e-05 -1.45812e-06 0.000694365
0.00129419 2.91405e-05 -6.87715e-06
2.91405e-05 0.000312308 2.70141e-07
-6.87715e-06 2.70141e-07 0.000274583
0.00141938 -3.09994e-05 -1.38045e-05
-3.09994e-05 0.000316715 3.24242e-07
-1.38045e-05 3.24242e-07 0.000269111
0.00175771 -7.15911e-05 -4.48968e-06
-7.15911e-05 0.000327014 6.69902e-07
-4.48968e-06 6.69902e-07 0.000242791
0.00149758 -8.44245e-05 -1.78488e-06
-8.44245e-05 0.000352316 7.59097e-07
-1.78488e-06 7.59097e-07 0.000276644
0.00151486 -8.69597e-05 -1.05438e-06
-8.69597e-05 0.000281348 1.04463e-07
-1.05438e-06 1.04463e-07 0.000200343
0.00113379 -9.53772e-05 -3.92185e-08
-9.53772e-05 6.833e-05 8.31916e-08
-3.92185e-08 8.31916e-08 -3.10148e-05
0.000751112 2.65976e-06 1.29769e-05
2.65976e-06 -9.66293e-05 -1.56843e-06
1.29769e-05 -1.56843e-06 -0.000153879
0.00145937 -1.76372e-05 1.89345e-05
-1.76372e-05 0.000306832 -2.03223e-06
1.89345e-05 -2.03223e-06 0.000258619
0.00161753 -5.71668e-06 7.55698e-06
-5.71668e-06 0.000218499 -1.6502e-06
7.55698e-06 -1.6502e-06 0.000131888
0.0015738 -5.26511e-05 7.62869e-06
-5.26511e-05 0.000215913 -1.29291e-06
7.62869e-06 -1.29291e-06 0.000132718
0.00146296 -7.92659e-05 7.12605e-06
-7.92659e-05 0.000205894 -2.97458e-06
7.12605e-06 -2.97458e-06 0.000121317
0.00182862 -8.59615e-05 2.24607e-06
-8.59615e-05 0.000282049 -6.72896e-07
2.24607e-06 -6.72896e-07 0.000180393
0.00283622 8.08334e-05 4.34676e-05
8.08334e-05 0.00111866 -3.03227e-06
4.34676e-05 -3.03227e-06 0.00112345
0.00116345 -9.20702e-05 2.64483e-06
-9.20702e-05 3.56597e-05 -1.33514e-06
2.64483e-06 -1.33514e-06 -6.50417e-05
0.000681575 6.20119e-05 2.28955e-06
6.20119e-05 -2.09016e-05 -4.54781e-06
2.28955e-06 -4.54781e-06 -5.83438e-05
0.000699406 -5.01649e-05 2.5977e-06
-5.01649e-05 -3.69429e-05 -1.0232e-06
2.5977e-06 -1.0232e-06 -0.000108995
0.00122511 -0.000103618 2.40268e-06
-0.000103618 0.00016285 -9.25442e-07
2.40268e-06 -9.25442e-07 6.36762e-05
0.0012545 -0.00010707 1.01224e-06
-0.00010707 9.32297e-05 -3.1557e-07
1.01224e-06 -3.1557e-07 -1.54949e-05
0.00063116 5.41939e-05 2.44946e-06
5.41939e-05 -6.26608e-05 -4.51015e-06
2.44946e-06 -4.51015e-06 -8.81494e-05
0.000811782 3.35014e-05 8.32918e-07
3.35014e-05 1.29119e-05 -2.43989e-06
8.32918e-07 -2.43989e-06 -4.0618e-05
0.0042762 -2.90229e-05 -8.27087e-05
-2.90229e-05 0.00191679 -3.83353e-06
-8.27087e-05 -3.83353e-06 0.00190937
0.00351885 -0.000104167 -5.98131e-05
-0.000104167 0.001539 -3.59132e-06
-5.98131e-05 -3.59132e-06 0.00152657
0.000579235 5.96918e-05 -1.02906e-05
5.96918e-05 -0.00010609 -6.0027e-06
-1.02906e-05 -6.0027e-06 -0.00015737
0.00277988 -8.07252e-05 -4.25933e-05
-8.07252e-05 0.00109474 -3.04657e-06
-4.25933e-05 -3.04657e-06 0.00109899
0.000616457 -4.13091e-05 -1.90371e-06
-4.13091e-05 -5.49795e-05 -5.39187e-06
-1.90371e-06 -5.39187e-06 -9.2809e-05
0.000596118 3.37047e-05 -7.68449e-06
3.37047e-05 -6.75033e-05 -5.18738e-06
-7.68449e-06 -5.18738e-06 -0.000114109
0.000833383 5.73421e-05 -3.58854e-06
5.73421e-05 1.42777e-05 -1.27344e-06
-3.58854e-06 -1.27344e-06 -6.05568e-05
0.00263149 -7.17729e-05 7.45221e-07
-7.17729e-05 0.00101107 -1.28443e-07
7.45221e-07 -1.28443e-07 0.00101802
0.000694176 -4.81863e-05 1.21946e-07
-4.81863e-05 -3.20883e-05 8.20869e-08
1.21946e-07 8.20869e-08 -5.13409e-05
0.00142434 6.14519e-05 1.85689e-05
6.14519e-05 0.000314278 2.48557e-07
1.85689e-05 2.48557e-07 0.000267218
0.00125655 5.21187e-05 1.54377e-05
5.21187e-05 0.000268998 2.8033e-07
1.54377e-05 2.8033e-07 0.000224057
0.00103363 7.83123e-05 3.95583e-07
7.83123e-05 1.67139e-05 -1.35952e-07
3.95583e-07 -1.35952e-07 -6.85551e-05
0.00069123 -5.75386e-05 5.96579e-08
-5.75386e-05 -2.02761e-05 8.54905e-08
5.96579e-08 8.54905e-08 -5.1381e-05
0.000906474 7.10823e-05 1.09402e-07
7.10823e-05 3.17171e-05 3.08037e-07
1.09402e-07 3.08037e-07 -4.46756e-05
0.00084002 3.62409e-05 2.80517e-07
3.62409e-05 3.6723e-05 -2.85581e-07
2.80517e-07 -2.85581e-07 -3.73933e-05
0.00083849 8.52976e-05 -8.19279e-08
8.52976e-05 -1.22012e-05 -1.53725e-07
-8.19279e-08 -1.53725e-07 -0.000104586
0.000688999 -5.71393e-05 1.54899e-06
-5.71393e-05 -2.56234e-05 4.48167e-06
1.54899e-06 4.48167e-06 -5.15064e-05
0.000751158 -4.27522e-05 2.40401e-06
-4.27522e-05 -1.11187e-05 3.82984e-06
2.40401e-06 3.82984e-06 -2.54052e-05
0.000755723 -6.67901e-06 2.43442e-06
-6.67901e-06 -1.08975e-05 2.27368e-06
2.43442e-06 2.27368e-06 -6.32197e-05
0.00109589 6.96208e-05 7.15301e-06
6.96208e-05 4.90229e-06 2.47001e-06
7.15301e-06 2.47001e-06 -8.2216e-05
0.0010119 8.00892e-05 5.01114e-06
8.00892e-05 5.28689e-05 2.50953e-06
5.01114e-06 2.50953e-06 -2.82399e-05
0.00124484 9.87977e-05 3.41083e-06
9.87977e-05 6.4901e-05 1.50003e-06
3.41083e-06 1.50003e-06 -3.94231e-05
0.000856392 2.50989e-05 2.84498e-06
2.50989e-05 4.51667e-05 2.05029e-06
2.84498e-06 2.05029e-06 -2.34633e-05
0.000926247 9.06091e-05 1.49571e-06
9.06091e-05 2.87429e-06 -3.24077e-10
1.49571e-06 -3.24077e-10 -8.97308e-05
0.00105657 9.1085e-05 2.1195e-06
9.1085e-05 0.000130014 8.52849e-08
2.1195e-06 8.52849e-08 3.63733e-05
0.00106937 0.000104037 -6.60364e-07
0.000104037 0.000100173 -1.56489e-06
-6.60364e-07 -1.56489e-06 -6.89613e-07
0.0022215 -5.11839e-05 2.89612e-05
-5.11839e-05 0.000774315 3.43432e-06
2.89612e-05 3.43432e-06 0.000788678
0.00230209 -5.76849e-05 6.54173e-07
-5.76849e-05 0.000824293 -8.11376e-08
6.54173e-07 -8.11376e-08 0.000836451
0.00240515 -6.4573e-05 -3.33024e-05
-6.4573e-05 0.000885783 -3.1651e-06
-3.33024e-05 -3.1651e-06 0.00089559
0.000676399 4.41667e-05 2.84746e-06
4.41667e-05 -4.69125e-05 -3.97958e-06
2.84746e-06 -3.97958e-06 -6.62782e-05
0.00268164 7.27607e-05 3.93255e-05
7.27607e-05 0.00103222 -3.13505e-06
3.93255e-05 -3.13505e-06 0.00103964
0.00450225 3.21886e-06 -9.24759e-05
3.21886e-06 0.00202487 -3.60102e-06
-9.24759e-05 -3.60102e-06 0.0020191
0.00471933 9.45566e-06 -9.83372e-05
9.45566e-06 0.00212904 -2.14582e-06
-9.83372e-05 -2.14582e-06 0.00212399
0.000710664 3.15726e-05 -1.22901e-05
3.15726e-05 -9.04967e-05 -3.07651e-06
-1.22901e-05 -3.07651e-06 -0.000141506
0.000733461 1.82283e-05 -1.28435e-05
1.82283e-05 -9.84175e-05 -1.84966e-06
-1.28435e-05 -1.84966e-06 -0.000154558
0.00508557 -3.18676e-05 -0.000103594
-3.18676e-05 0.00231073 -2.096e-07
-0.000103594 -2.096e-07 0.00230508
0.0051828 8.33227e-06 -1.21406e-06
8.33227e-06 0.00235858 4.90194e-07
-1.21406e-06 4.90194e-07 0.00235308
0.00075878 3.34813e-07 -9.50565e-08
3.34813e-07 -0.000100161 -3.65479e-07
-9.50565e-08 -3.65479e-07 -0.000158569
0.00158925 8.31882e-06 2.22537e-05
8.31882e-06 0.000366124 3.742e-07
2.22537e-05 3.742e-07 0.00031886
0.00124442 1.98941e-05 1.64303e-07
1.98941e-05 8.20478e-06 4.66743e-08
1.64303e-07 4.66743e-08 -8.36055e-05
0.00066877 4.26956e-05 7.84145e-08
4.26956e-05 -0.000101579 -7.02805e-08
7.84145e-08 -7.02805e-08 -0.000152253
0.00119539 4.76913e-05 8.37218e-10
4.76913e-05 1.53099e-05 -1.53921e-07
8.37218e-10 -1.53921e-07 -7.25697e-05
0.000742255 -7.34484e-06 1.33382e-05
-7.34484e-06 -0.00011171 -6.49297e-07
1.33382e-05 -6.49297e-07 -0.000170645
0.00128503 7.34232e-06 8.43469e-06
7.34232e-06 9.15476e-06 3.95929e-07
8.43469e-06 3.95929e-07 -8.63895e-05
0.00122496 3.08595e-05 7.96718e-06
3.08595e-05 1.64315e-05 1.6574e-06
7.96718e-06 1.6574e-06 -7.20545e-05
0.00150628 1.94067e-05 3.63656e-06
1.94067e-05 6.29373e-05 1.39054e-06
3.63656e-06 1.39054e-06 -4.34683e-05
0.0011532 5.81368e-05 7.65437e-06
5.81368e-05 8.21886e-06 2.19668e-06
7.65437e-06 2.19668e-06 -7.92859e-05
0.00144412 5.30017e-05 3.43469e-06
5.30017e-05 6.52564e-05 5.93104e-07
3.43469e-06 5.93104e-07 -3.63195e-05
0.00511555 9.41495e-06 -0.000113029
9.41495e-06 0.00232492 -7.97679e-07
-0.000113029 -7.97679e-07 0.0023196
0.00129415 -1.65811e-05 -1.49241e-05
-1.65811e-05 0.000320459 1.09317e-06
-1.49241e-05 1.09317e-06 0.00029503
1.93074e-06 -3.65251e-08 -1.29267e-05
-3.65251e-08 -0.00048447 2.53081e-06
-1.29267e-05 2.53081e-06 -0.000544671
0.00157242 -1.76289e-05 -4.86626e-05
-1.76289e-05 0.000363561 2.78358e-06
-4.86626e-05 2.78358e-06 0.000318105
0.00276264 0.000100153 -1.5274e-05
0.000100153 0.00109584 1.26329e-06
-1.5274e-05 1.26329e-06 0.00109406
0.00164974 1.16043e-05 -2.56029e-05
1.16043e-05 0.000491946 3.86814e-06
-2.56029e-05 3.86814e-06 0.000458501
0.00148444 -3.5449e-05 -4.44106e-05
-3.5449e-05 0.000347552 4.931e-06
-4.44106e-05 4.931e-06 0.000301849
0.00156556 -6.6146e-05 -1.41396e-05
-6.6146e-05 0.000225368 3.17525e-06
-1.41396e-05 3.17525e-06 0.000140124
0.00180976 -9.55665e-05 -9.22054e-06
-9.55665e-05 0.000435745 3.33794e-06
-9.22054e-06 3.33794e-06 0.000355085
0.00168957 -9.34973e-05 -7.34134e-06
-9.34973e-05 0.000449412 2.80611e-06
-7.34134e-06 2.80611e-06 0.000372151
0.00114563 -9.5237e-05 -2.06331e-06
-9.5237e-05 7.41043e-05 9.03572e-07
-2.06331e-06 9.03572e-07 -2.50937e-05
0.000753022 4.55887e-06 -3.17813e-08
4.55887e-06 -9.69287e-05 -2.97589e-07
-3.17813e-08 -2.97589e-07 -0.000154168
0.0015108 -1.39521e-05 -1.52843e-05
-1.39521e-05 0.000331477 9.45198e-08
-1.52843e-05 9.45198e-08 0.000284638
0.00122935 -5.59988e-06 -2.87207e-06
-5.59988e-06 1.39424e-05 3.60773e-08
-2.87207e-06 3.60773e-08 -7.49772e-05
0.00178938 -5.45435e-05 -2.25005e-06
-5.45435e-05 0.000330037 3.03142e-07
-2.25005e-06 3.03142e-07 0.000247953
0.00280187 7.9745e-05 -6.63404e-07
7.9745e-05 0.00110194 -1.4679e-07
-6.63404e-07 -1.4679e-07 0.00110645
0.00112278 3.89827e-05 1.7878e-06
3.89827e-05 0.000209167 2.02886e-07
1.7878e-06 2.02886e-07 0.00017685
0.00109613 -5.31114e-05 1.50125e-07
-5.31114e-05 0.000169286 -9.01263e-08
1.50125e-07 -9.01263e-08 9.71956e-05
0.00146789 -7.85192e-05 -2.02788e-06
-7.85192e-05 0.000209957 2.70143e-07
-2.02788e-06 2.70143e-07 0.000125358
0.00151345 -7.87254e-05 -1.79852e-06
-7.87254e-05 0.000114654 4.16052e-07
-1.79852e-06 4.16052e-07 1.17065e-05
0.00100452 -9.39469e-05 -3.37451e-07
-9.39469e-05 4.94386e-05 -1.35721e-07
-3.37451e-07 -1.35721e-07 -4.93144e-05
0.00142058 -9.86553e-05 2.67722e-08
-9.86553e-05 0.000168305 -8.25054e-08
2.67722e-08 -8.25054e-08 6.817e-05
0.00124147 -0.000106005 1.10972e-07
-0.000106005 8.64672e-05 1.61554e-07
1.10972e-07 1.61554e-07 -2.20313e-05
0.000652176 5.67836e-05 -2.21339e-07
5.67836e-05 -4.94723e-05 4.54695e-08
-2.21339e-07 4.54695e-08 -7.58226e-05
0.000784594 3.01103e-05 -2.91947e-07
3.01103e-05 -2.06347e-06 1.34861e-07
-2.91947e-07 1.34861e-07 -5.54092e-05
0.00126448 -3.36823e-06 8.06887e-06
-3.36823e-06 5.44536e-06 -1.79071e-06
8.06887e-06 -1.79071e-06 -8.88517e-05
0.00154697 -2.3157e-05 7.23199e-06
-2.3157e-05 0.000199715 -1.34293e-06
7.23199e-06 -1.34293e-06 0.000117546
0.00186548 -1.02994e-05 2.40733e-06
-1.02994e-05 0.000269896 -9.13409e-07
2.40733e-06 -9.13409e-07 0.000168918
0.00126882 -5.29705e-05 4.22253e-06
-5.29705e-05 -3.42321e-05 -4.72664e-07
4.22253e-06 -4.72664e-07 -0.000135339
0.00148462 -9.52645e-05 2.7362e-06
-9.52645e-05 0.000149594 -1.18633e-06
2.7362e-06 -1.18633e-06 4.75967e-05
0.00177211 -8.41142e-05 1.74927e-07
-8.41142e-05 0.00020079 1.14922e-07
1.74927e-07 1.14922e-07 9.56445e-05
0.000579654 6.158e-05 1.48102e-06
6.158e-05 -8.14078e-05 -4.81441e-06
1.48102e-06 -4.81441e-06 -0.000113394
0.00133991 -0.000103296 6.72461e-07
-0.000103296 7.83367e-05 -9.86892e-07
6.72461e-07 -9.86892e-07 -3.06273e-05
0.000708641 -1.93813e-05 1.95815e-06
-1.93813e-05 -2.87874e-05 -1.03749e-06
1.95815e-06 -1.03749e-06 -9.90441e-05
0.000635782 -7.56262e-05 1.83846e-06
-7.56262e-05 -0.000100066 -1.31955e-06
1.83846e-06 -1.31955e-06 -0.000193497
0.00168333 -0.000131655 5.36192e-07
-0.000131655 0.000370675 -7.78535e-09
5.36192e-07 -7.78535e-09 0.000260305
0.00150076 -0.000119257 -9.06335e-07
-0.000119257 0.000189178 7.34472e-07
-9.06335e-07 7.34472e-07 7.76242e-05
0.000855485 4.0624e-06 1.629e-06
4.0624e-06 3.98874e-05 -2.36531e-06
1.629e-06 -2.36531e-06 -2.29516e-05
0.000800419 3.90804e-05 7.7403e-07
3.90804e-05 3.16051e-06 -1.88131e-06
7.7403e-07 -1.88131e-06 -4.24097e-05
0.000871562 -2.84904e-05 5.23583e-07
-2.84904e-05 4.32968e-05 -7.34012e-07
5.23583e-07 -7.34012e-07 -3.51437e-05
0.000626506 5.68782e-05 -1.12498e-05
5.68782e-05 -0.000105756 -5.27214e-06
-1.12498e-05 -5.27214e-06 -0.000157589
0.00259558 -7.22021e-05 -3.82198e-05
-7.22021e-05 0.000992257 -3.08048e-06
-3.82198e-05 -3.08048e-06 0.000999373
0.000672726 -4.47261e-05 -2.92407e-06
-4.47261e-05 -4.46093e-05 -3.89488e-06
-2.92407e-06 -3.89488e-06 -6.30483e-05
0.000564913 4.79508e-05 -8.52249e-06
4.79508e-05 -9.20671e-05 -5.73542e-06
-8.52249e-06 -5.73542e-06 -0.000141258
0.00101164 7.83861e-05 -6.03827e-06
7.83861e-05 6.35577e-06 -3.0885e-06
-6.03827e-06 -3.0885e-06 -7.88402e-05
0.000577131 -6.08696e-05 -1.39373e-06
-6.08696e-05 -7.88795e-05 -4.93806e-06
-1.39373e-06 -4.93806e-06 -0.000110852
0.000753252 3.06254e-05 -2.23541e-06
3.06254e-05 -8.74558e-06 -1.92802e-06
-2.23541e-06 -1.92802e-06 -8.22701e-05
0.000862849 6.79309e-05 -3.72294e-06
6.79309e-05 9.23553e-06 -9.41495e-07
-3.72294e-06 -9.41495e-07 -6.6755e-05
0.00078796 8.3006e-05 -2.4335e-06
8.3006e-05 -3.96608e-05 2.30945e-07
-2.4335e-06 2.30945e-07 -0.000132305
0.000655467 -5.63798e-05 2.02624e-07
-5.63798e-05 -4.43411e-05 7.39975e-08
2.02624e-07 7.39975e-08 -6.97533e-05
0.000726147 -4.04274e-05 -1.58604e-08
-4.04274e-05 -2.451e-05 8.57382e-08
-1.58604e-08 8.57382e-08 -3.83475e-05
0.000783983 -3.00906e-05 1.29582e-07
-3.00906e-05 1.98602e-06 1.52394e-07
1.29582e-07 1.52394e-07 -4.88122e-05
0.00110693 7.09982e-05 3.3281e-07
7.09982e-05 1.13852e-05 -1.73792e-07
3.3281e-07 -1.73792e-07 -7.58736e-05
0.000958346 7.78149e-05 2.8334e-07
7.78149e-05 2.62765e-05 2.09484e-07
2.8334e-07 2.09484e-07 -5.44775e-05
0.00123422 9.9101e-05 2.24698e-07
9.9101e-05 6.00416e-05 7.32093e-08
2.24698e-07 7.32093e-08 -4.44008e-05
0.000821836 2.16489e-05 -3.04705e-07
2.16489e-05 2.95059e-05 3.97096e-09
-3.04705e-07 3.97096e-09 -3.92752e-05
0.00105524 9.63516e-05 -9.15976e-08
9.63516e-05 7.08764e-05 -9.35659e-08
-9.15976e-08 -9.35659e-08 -2.1714e-05
0.00101589 8.91264e-05 2.45117e-07
8.91264e-05 0.000108837 -3.41926e-07
2.45117e-07 -3.41926e-07 1.53257e-05
0.000942861 9.91237e-05 -6.96721e-07
9.91237e-05 3.42663e-05 4.48608e-07
-6.96721e-07 4.48608e-07 -6.68616e-05
0.000764741 -3.61695e-05 2.6777e-06
-3.61695e-05 -1.30156e-05 3.49384e-06
2.6777e-06 3.49384e-06 -2.31005e-05
0.000781595 5.53228e-07 2.74073e-06
5.53228e-07 8.2137e-07 1.82016e-06
2.74073e-06 1.82016e-06 -5.88792e-05
0.000767987 -3.31003e-05 1.03324e-06
-3.31003e-05 -9.63783e-06 2.30138e-06
1.03324e-06 2.30138e-06 -5.23404e-05
0.000885903 2.06144e-05 9.69685e-07
2.06144e-05 5.46265e-05 8.15204e-07
9.69685e-07 8.15204e-07 -1.92882e-05
0.0013155 8.54975e-05 4.306e-06
8.54975e-05 4.83013e-05 9.8873e-07
4.306e-06 9.8873e-07 -5.60006e-05
0.00116967 0.000102305 2.44553e-06
0.000102305 8.82124e-05 1.48099e-06
2.44553e-06 1.48099e-06 -1.07683e-05
0.00134407 0.000108274 1.39806e-06
0.000108274 7.50666e-05 1.53266e-06
1.39806e-06 1.53266e-06 -3.78433e-05
0.00106277 6.22998e-05 1.96055e-06
6.22998e-05 0.000142439 9.73215e-07
1.96055e-06 9.73215e-07 5.49753e-05
0.00115151 0.000107523 -6.57352e-10
0.000107523 9.84502e-05 -2.2473e-07
-6.57352e-10 -2.2473e-07 -1.21823e-06
0.00104639 0.000102884 8.06487e-07
0.000102884 0.000126341 -1.2991e-06
8.06487e-07 -1.2991e-06 1.79452e-05
0.000748917 9.23809e-05 3.64772e-07
9.23809e-05 -8.54877e-05 -1.38625e-06
3.64772e-07 -1.38625e-06 -0.000189916
0.000829724 -1.77079e-05 1.00846e-06
-1.77079e-05 4.51258e-06 1.7129e-06
1.00846e-06 1.7129e-06 -2.39609e-05
0.0007719 -2.76288e-05 1.85447e-06
-2.76288e-05 -2.27112e-05 3.39595e-06
1.85447e-06 3.39595e-06 -2.76711e-05
0.0021588 -4.53096e-05 2.54424e-05
-4.53096e-05 0.000732818 3.56353e-06
2.54424e-05 3.56353e-06 0.000749316
0.00220599 -5.13227e-05 8.32092e-07
-5.13227e-05 0.000764933 -8.06513e-08
8.32092e-07 -8.06513e-08 0.000779541
0.00226707 -5.7494e-05 -2.97434e-05
-5.7494e-05 0.000804807 -3.28363e-06
-2.97434e-05 -3.28363e-06 0.000817315
0.000706099 3.79183e-05 2.92963e-06
3.79183e-05 -3.94964e-05 -3.55776e-06
2.92963e-06 -3.55776e-06 -5.41765e-05
0.00250085 6.55502e-05 3.42576e-05
6.55502e-05 0.000931552 -3.2296e-06
3.42576e-05 -3.2296e-06 0.000941438
0.000696144 4.82695e-05 -2.04913e-07
4.82695e-05 -3.51246e-05 5.41439e-08
-2.04913e-07 5.41439e-08 -5.53811e-05
0.00269994 7.21518e-05 -6.22819e-07
7.21518e-05 0.00104191 -1.23257e-07
-6.22819e-07 -1.23257e-07 0.00104919
0.00066692 4.6501e-05 -1.18582e-05
4.6501e-05 -0.000102663 -4.12884e-06
-1.18582e-05 -4.12884e-06 -0.000153652
0.000743494 2.82205e-05 -1.25736e-05
2.82205e-05 -8.11106e-05 -2.32586e-06
-1.25736e-05 -2.32586e-06 -0.000134371
0.00117851 4.82669e-05 -7.80364e-06
4.82669e-05 7.23836e-06 -1.93497e-06
-7.80364e-06 -1.93497e-06 -8.08125e-05
0.0012389 2.15444e-05 -7.93571e-06
2.15444e-05 6.01152e-06 -1.58682e-06
-7.93571e-06 -1.58682e-06 -8.58105e-05
0.000755259 4.44012e-06 -1.33625e-05
4.44012e-06 -0.000101249 -1.11618e-06
-1.33625e-05 -1.11618e-06 -0.00015954
0.00520111 -2.62131e-05 -0.000110646
-2.62131e-05 0.00236756 7.86556e-07
-0.000110646 7.86556e-07 0.00236236
0.000763332 -9.77967e-07 9.20428e-08
-9.77967e-07 -0.000101292 -3.14751e-07
9.20428e-08 -3.14751e-07 -0.000160159
0.00128697 1.12462e-05 6.25062e-08
1.12462e-05 1.03253e-05 -4.5887e-07
6.25062e-08 -4.5887e-07 -8.51698e-05
0.00120895 3.10182e-05 -3.95402e-08
3.10182e-05 8.9508e-06 4.2757e-08
-3.95402e-08 4.2757e-08 -7.96698e-05
0.0015223 1.90375e-05 1.00688e-07
1.90375e-05 7.134e-05 9.75488e-08
1.00688e-07 9.75488e-08 -3.50509e-05
0.001158 6.01453e-05 1.60091e-07
6.01453e-05 1.17273e-05 -1.25637e-07
1.60091e-07 -1.25637e-07 -7.60684e-05
0.00145171 5.5419e-05 1.43896e-08
5.5419e-05 6.91358e-05 -3.85251e-08
1.43896e-08 -3.85251e-08 -3.25777e-05
0.00129276 -1.67599e-07 8.39008e-06
-1.67599e-07 9.03524e-06 -7.49164e-07
8.39008e-06 -7.49164e-07 -8.70408e-05
0.00155161 1.45199e-05 3.89666e-06
1.45199e-05 6.44301e-05 3.06735e-07
3.89666e-06 3.06735e-07 -4.62052e-05
0.00148354 3.55611e-05 3.53534e-06
3.55611e-05 7.01347e-05 9.81831e-07
3.53534e-06 9.81831e-07 -3.24039e-05
0.00165122 1.5765e-05 1.19669e-06
1.5765e-05 9.86104e-05 1.15046e-06
1.19669e-06 1.15046e-06 -9.54072e-06
0.00138625 7.09138e-05 3.36146e-06
7.09138e-05 5.48084e-05 5.71162e-07
3.36146e-06 5.71162e-07 -4.78556e-05
0.0015723 5.75493e-05 9.72449e-07
5.75493e-05 8.39828e-05 1.39323e-07
9.72449e-07 1.39323e-07 -1.9531e-05
0.000769473 8.34548e-06 -1.28275e-05
8.34548e-06 -8.96224e-05 9.04185e-07
-1.28275e-05 9.04185e-07 -0.000147023
0.00158245 -1.49261e-06 -4.96591e-05
-1.49261e-06 0.000366859 1.84069e-06
-4.96591e-05 1.84069e-06 0.000321396
0.000837075 -3.91279e-06 -8.48476e-06
-3.91279e-06 -0.000192819 1.97286e-06
-8.48476e-06 1.97286e-06 -0.000284094
0.00198923 -5.53819e-05 -1.28395e-05
-5.53819e-05 0.000435688 2.00709e-06
-1.28395e-05 2.00709e-06 0.000354849
0.0027949 7.90968e-05 -4.51819e-05
7.90968e-05 0.00109962 3.20441e-06
-4.51819e-05 3.20441e-06 0.00110376
0.0016197 4.13711e-05 -2.26572e-05
4.13711e-05 0.000474221 3.14935e-06
-2.26572e-05 3.14935e-06 0.000443858
0.00149857 -6.49378e-05 -5.13823e-06
-6.49378e-05 0.000378043 1.72911e-06
-5.13823e-06 1.72911e-06 0.000305855
0.00147552 -7.80737e-05 -1.09448e-05
-7.80737e-05 0.00021551 3.49339e-06
-1.09448e-05 3.49339e-06 0.000130876
0.00119314 -7.13301e-05 -4.87443e-06
-7.13301e-05 -5.54056e-05 1.15755e-06
-4.87443e-06 1.15755e-06 -0.000159634
0.00167592 -0.000105231 -3.45438e-06
-0.000105231 0.000300058 1.39975e-06
-3.45438e-06 1.39975e-06 0.000200478
0.000779973 -8.39631e-05 -1.93028e-06
-8.39631e-05 -6.59106e-05 6.34628e-07
-1.93028e-06 6.34628e-07 -0.00016422
0.00122683 -0.000104878 -3.55027e-07
-0.000104878 7.88961e-05 5.65204e-07
-3.55027e-07 5.65204e-07 -2.93745e-05
0.000679427 5.53771e-05 -1.81669e-06
5.53771e-05 -3.4206e-05 4.5363e-06
-1.81669e-06 4.5363e-06 -6.0716e-05
0.000753301 1.9239e-05 -1.87709e-06
1.9239e-05 -1.88027e-05 2.10564e-06
-1.87709e-06 2.10564e-06 -7.2308e-05
0.00108328 2.80439e-07 -3.95454e-07
2.80439e-07 -8.8582e-05 -2.55985e-07
-3.95454e-07 -2.55985e-07 -0.000183795
0.00158453 -2.54022e-05 -2.43912e-06
-2.54022e-05 0.000218264 2.76238e-07
-2.43912e-06 2.76238e-07 0.000136083
0.0017763 -7.62258e-06 -1.77731e-06
-7.62258e-06 0.000220588 4.23587e-07
-1.77731e-06 4.23587e-07 0.000118782
0.00156075 -5.69091e-05 9.16397e-07
-5.69091e-05 0.000121266 -1.87776e-07
9.16397e-07 -1.87776e-07 2.15769e-05
0.000638719 5.71344e-05 -2.48263e-07
5.71344e-05 -5.0834e-05 5.22954e-08
-2.48263e-07 5.22954e-08 -8.23397e-05
0.000829281 -3.00126e-05 -9.02252e-08
-3.00126e-05 3.35598e-05 -1.01674e-07
-9.02252e-08 -1.01674e-07 -3.70494e-05
0.000755333 -8.09424e-05 7.58169e-07
-8.09424e-05 -3.67277e-05 -5.991e-07
7.58169e-07 -5.991e-07 -0.000129238
0.00164634 -9.85219e-05 -7.58286e-07
-9.85219e-05 0.000232624 1.32663e-07
-7.58286e-07 1.32663e-07 0.000130506
0.00159278 -7.89874e-05 -5.41822e-07
-7.89874e-05 0.000104822 4.8526e-07
-5.41822e-07 4.8526e-07 -1.68958e-07
0.00137969 -0.000118625 -1.00336e-06
-0.000118625 0.000212634 4.81672e-07
-1.00336e-06 4.81672e-07 0.000101695
0.00133893 -0.000102757 -5.50139e-08
-0.000102757 7.77296e-05 -4.22255e-09
-5.50139e-08 -4.22255e-09 -3.11886e-05
0.00131697 -0.000111883 3.64468e-07
-0.000111883 9.5642e-05 6.86402e-07
3.64468e-07 6.86402e-07 -1.52736e-05
0.000805799 -1.14108e-06 -2.69365e-07
-1.14108e-06 1.2289e-05 -7.36354e-08
-2.69365e-07 -7.36354e-08 -5.01738e-05
0.000837833 -7.87831e-06 -4.4409e-07
-7.87831e-06 2.13717e-05 -2.46898e-07
-4.4409e-07 -2.46898e-07 -5.43918e-05
0.000784553 3.64135e-05 4.88027e-08
3.64135e-05 -5.51086e-06 2.25857e-07
4.88027e-08 2.25857e-07 -5.10109e-05
0.00191224 3.49131e-06 2.55104e-06
3.49131e-06 0.000268938 -9.70978e-07
2.55104e-06 -9.70978e-07 0.000163233
0.00162684 -2.79831e-05 3.12167e-06
-2.79831e-05 0.000157395 -7.29502e-07
3.12167e-06 -7.29502e-07 5.94603e-05
0.00180565 -6.5297e-06 8.05708e-07
-6.5297e-06 0.000193839 -5.36566e-07
8.05708e-07 -5.36566e-07 8.59745e-05
0.00161363 -5.06179e-05 1.12526e-06
-5.06179e-05 9.60214e-05 -5.55258e-08
1.12526e-06 -5.55258e-08 -6.17831e-06
0.00122654 -9.27992e-05 1.56412e-06
-9.27992e-05 -4.00587e-05 -8.10905e-07
1.56412e-06 -8.10905e-07 -0.000148736
0.00170368 -7.51608e-05 -1.30394e-06
-7.51608e-05 0.000128245 8.27494e-07
-1.30394e-06 8.27494e-07 2.79418e-05
0.000814988 -1.54999e-05 2.43323e-06
-1.54999e-05 2.46369e-05 -1.65789e-06
2.43323e-06 -1.65789e-06 -4.41658e-05
0.00138658 -0.000107129 -1.49051e-06
-0.000107129 7.15029e-05 -7.61066e-07
-1.49051e-06 -7.61066e-07 -3.86876e-05
0.00092398 -8.30184e-05 1.05419e-06
-8.30184e-05 6.4577e-05 2.42379e-07
1.05419e-06 2.42379e-07 -2.14798e-05
0.000743504 -9.18127e-05 1.47759e-06
-9.18127e-05 -5.90411e-05 -1.84196e-06
1.47759e-06 -1.84196e-06 -0.000166337
0.00150496 -0.000129853 1.05772e-06
-0.000129853 0.000250647 6.4711e-07
1.05772e-06 6.4711e-07 0.000132512
0.0018672 -0.000134135 -2.62397e-06
-0.000134135 0.000359558 2.27564e-06
-2.62397e-06 2.27564e-06 0.000252907
0.000802484 3.26215e-05 1.40613e-06
3.26215e-05 -1.8493e-06 -1.5869e-06
1.40613e-06 -1.5869e-06 -4.14311e-05
0.000906739 -3.88881e-05 1.20447e-06
-3.88881e-05 5.53592e-05 9.1008e-08
1.20447e-06 9.1008e-08 -2.38787e-05
0.000778345 -3.5116e-06 6.80871e-07
-3.5116e-06 -1.09912e-05 -1.37245e-06
6.80871e-07 -1.37245e-06 -8.16253e-05
0.000988325 -7.48309e-05 -1.31603e-07
-7.48309e-05 0.000109722 1.05323e-06
-1.31603e-07 1.05323e-06 2.17644e-05
0.00111247 7.25319e-05 -7.4187e-06
7.25319e-05 1.50669e-05 -2.88752e-06
-7.4187e-06 -2.88752e-06 -7.23582e-05
0.000699181 -3.8553e-05 -2.9501e-06
-3.8553e-05 -3.8821e-05 -3.5574e-06
-2.9501e-06 -3.5574e-06 -5.22671e-05
0.000627433 -5.36789e-05 -2.50486e-06
-5.36789e-05 -6.08316e-05 -4.37143e-06
-2.50486e-06 -4.37143e-06 -8.54165e-05
0.000798138 -3.80174e-05 -8.79609e-07
-3.80174e-05 1.00746e-05 -2.47287e-06
-8.79609e-07 -2.47287e-06 -4.10449e-05
0.000907019 7.5606e-05 -4.32892e-06
7.5606e-05 1.12567e-06 -2.17607e-06
-4.32892e-06 -2.17607e-06 -7.93204e-05
0.00123147 9.96073e-05 -3.32141e-06
9.96073e-05 5.91949e-05 -1.44233e-06
-3.32141e-06 -1.44233e-06 -4.53687e-05
0.000794604 1.67574e-05 -2.41633e-06
1.67574e-05 1.76204e-05 -1.87061e-06
-2.41633e-06 -1.87061e-06 -5.13277e-05
0.000982622 8.73834e-05 -2.15495e-06
8.73834e-05 9.16156e-05 -1.03503e-06
-2.15495e-06 -1.03503e-06 -1.80495e-06
0.00117371 0.00010166 -1.73965e-06
0.00010166 0.000133499 -1.48719e-07
-1.73965e-06 -1.48719e-07 4.09495e-05
0.000810128 9.39067e-05 -2.05892e-06
9.39067e-05 -3.48439e-05 1.01848e-06
-2.05892e-06 1.01848e-06 -0.000136213
0.000741179 -3.51243e-05 9.65029e-08
-3.51243e-05 -2.51571e-05 3.02569e-08
9.65029e-08 3.02569e-08 -3.50889e-05
0.000803413 5.84037e-06 3.51569e-08
5.84037e-06 1.52301e-05 -3.58179e-08
3.51569e-08 -3.58179e-08 -4.57613e-05
0.0007844 -3.66707e-05 -1.01122e-07
-3.66707e-05 -1.00292e-06 2.19366e-07
-1.01122e-07 2.19366e-07 -4.37245e-05
0.000899748 1.14023e-05 2.41216e-07
1.14023e-05 6.10918e-05 -2.19294e-07
2.41216e-07 -2.19294e-07 -1.21552e-05
0.00133595 8.67608e-05 8.51576e-07
8.67608e-05 5.89133e-05 2.22533e-07
8.51576e-07 2.22533e-07 -4.56507e-05
0.00112517 0.000101176 9.24713e-08
0.000101176 6.67943e-05 4.79406e-08
9.24713e-08 4.79406e-08 -3.21397e-05
0.00134501 0.000108409 -3.9461e-08
0.000108409 7.57557e-05 5.582e-07
-3.9461e-08 5.582e-07 -3.71369e-05
0.000991752 6.35175e-05 2.8924e-07
6.35175e-05 0.000105986 2.47524e-07
2.8924e-07 2.47524e-07 1.93277e-05
0.00132093 0.000114731 -5.29054e-07
0.000114731 0.000187584 -9.1407e-07
-5.29054e-07 -9.1407e-07 8.78979e-05
0.00106722 0.000104318 2.39244e-07
0.000104318 0.000136316 -6.97838e-07
2.39244e-07 -6.97838e-07 2.73221e-05
0.000886256 9.85985e-05 -1.70461e-06
9.85985e-05 -9.68543e-06 -1.74505e-08
-1.70461e-06 -1.74505e-08 -0.000112121
0.000772728 -3.17342e-05 2.29382e-06
-3.17342e-05 -1.60286e-05 3.41867e-06
2.29382e-06 3.41867e-06 -2.3227e-05
0.000791593 -3.33882e-05 1.01875e-06
-3.33882e-05 -2.86125e-06 2.0313e-06
1.01875e-06 2.0313e-06 -3.96246e-05
0.000988601 3.20399e-05 1.46005e-06
3.20399e-05 0.000103918 5.18541e-07
1.46005e-06 5.18541e-07 2.42266e-05
0.000861989 3.90888e-06 7.31331e-07
3.90888e-06 3.765e-05 1.36059e-06
7.31331e-07 1.36059e-06 -2.69598e-05
0.000956984 6.41703e-05 1.07695e-06
6.41703e-05 0.000100128 -1.08602e-07
1.07695e-06 -1.08602e-07 1.27043e-05
0.00144015 9.04805e-05 2.41214e-06
9.04805e-05 6.57874e-05 2.4439e-07
2.41214e-06 2.4439e-07 -4.43907e-05
0.00120967 0.000111135 6.86269e-07
0.000111135 7.86956e-05 1.45374e-06
6.86269e-07 1.45374e-06 -2.856e-05
0.00146818 0.00011611 -7.80852e-07
0.00011611 0.000113178 1.23688e-06
-7.80852e-07 1.23688e-06 -2.36094e-06
0.00110449 0.000101428 2.68512e-06
0.000101428 0.000173597 2.32633e-06
2.68512e-06 2.32633e-06 6.83348e-05
0.0011777 0.000113806 1.5053e-06
0.000113806 9.41826e-05 -7.92508e-08
1.5053e-06 -7.92508e-08 -8.92397e-06
0.000461857 8.03065e-05 1.86209e-06
8.03065e-05 -0.000198911 -1.93688e-06
1.86209e-06 -1.93688e-06 -0.000317179
0.000823393 -2.17339e-05 1.18107e-06
-2.17339e-05 4.80733e-06 1.78616e-06
1.18107e-06 1.78616e-06 -2.56223e-05
0.00084961 4.9089e-06 3.90941e-07
4.9089e-06 2.42087e-05 7.70859e-07
3.90941e-07 7.70859e-07 -2.27833e-05
0.000841689 -1.25973e-05 7.7025e-07
-1.25973e-05 7.76052e-06 1.74469e-06
7.7025e-07 1.74469e-06 -1.9279e-05
0.000830866 -1.62547e-05 1.3115e-07
-1.62547e-05 5.76494e-06 2.60968e-09
1.3115e-07 2.60968e-09 -2.28289e-05
0.00131436 -2.95856e-05 1.96678e-06
-2.95856e-05 0.000262474 2.04395e-06
1.96678e-06 2.04395e-06 0.000262487
0.00104016 -3.02352e-05 7.95162e-07
-3.02352e-05 0.000121267 -2.86541e-08
7.95162e-07 -2.86541e-08 0.000117896
0.00101275 -2.69668e-05 2.09252e-05
-2.69668e-05 0.000109904 6.28505e-06
2.09252e-05 6.28505e-06 0.000122584
0.00215024 -4.53785e-05 9.8565e-07
-4.53785e-05 0.000727122 -7.45121e-08
9.8565e-07 -7.45121e-08 0.000743843
0.0021898 -5.12892e-05 -2.65756e-05
-5.12892e-05 0.000755185 -3.41846e-06
-2.65756e-05 -3.41846e-06 0.000770068
0.000721599 3.37282e-05 2.58785e-06
3.37282e-05 -3.90733e-05 -3.44625e-06
2.58785e-06 -3.44625e-06 -5.05289e-05
0.00237449 5.88235e-05 3.06415e-05
5.88235e-05 0.000857561 -3.36667e-06
3.06415e-05 -3.36667e-06 0.000869876
0.000727614 3.96726e-05 5.90644e-09
3.96726e-05 -2.8019e-05 6.915e-08
5.90644e-09 6.915e-08 -4.3061e-05
0.00254277 6.51703e-05 -8.26249e-07
6.51703e-05 0.00095387 -1.05408e-07
-8.26249e-07 -1.05408e-07 0.000963563
0.000716844 5.139e-05 -1.42458e-06
5.139e-05 -2.29218e-05 4.35943e-06
-1.42458e-06 4.35943e-06 -4.39961e-05
0.00271569 7.17459e-05 -4.27533e-05
7.17459e-05 0.00105035 3.2923e-06
-4.27533e-05 3.2923e-06 0.00105744
0.00116784 6.22719e-05 -7.86876e-06
6.22719e-05 1.76642e-05 -2.40913e-06
-7.86876e-06 -2.40913e-06 -7.03982e-05
0.00120581 3.42064e-05 -7.73219e-06
3.42064e-05 7.89982e-06 -1.48203e-06
-7.73219e-06 -1.48203e-06 -8.08943e-05
0.00145224 5.38156e-05 -3.45133e-06
5.38156e-05 6.94585e-05 -6.72591e-07
-3.45133e-06 -6.72591e-07 -3.22295e-05
0.00153757 1.89259e-05 -3.61899e-06
1.89259e-05 7.93355e-05 -1.16375e-06
-3.61899e-06 -1.16375e-06 -2.70411e-05
0.00128355 1.38047e-05 -8.40617e-06
1.38047e-05 8.82638e-06 -1.34942e-06
-8.40617e-06 -1.34942e-06 -8.66586e-05
0.000773825 4.91133e-06 -1.33693e-05
4.91133e-06 -9.59018e-05 1.89939e-08
-1.33693e-05 1.89939e-08 -0.000154873
0.00129156 1.67007e-06 -1.45651e-08
1.67007e-06 8.20799e-06 -2.54661e-07
-1.45651e-08 -2.54661e-07 -8.79305e-05
0.00156302 1.62423e-05 4.27553e-10
1.62423e-05 7.03486e-05 -4.51343e-07
4.27553e-10 -4.51343e-07 -4.02556e-05
0.0014825 3.25596e-05 8.64822e-08
3.25596e-05 7.00485e-05 1.32593e-07
8.64822e-08 1.32593e-07 -3.24092e-05
0.00161275 1.49498e-05 -7.03238e-09
1.49498e-05 7.60282e-05 1.71491e-07
-7.03238e-09 1.71491e-07 -3.26636e-05
0.00140239 7.16284e-05 -9.22961e-08
7.16284e-05 6.2577e-05 -2.573e-08
-9.22961e-08 -2.573e-08 -4.01674e-05
0.00157925 5.71909e-05 -4.04018e-08
5.71909e-05 8.76777e-05 8.7355e-08
-4.04018e-08 8.7355e-08 -1.58026e-05
0.00156735 6.49625e-06 4.17093e-06
6.49625e-06 6.77199e-05 -7.64091e-07
4.17093e-06 -7.64091e-07 -4.34341e-05
0.00161292 1.30438e-05 1.19726e-06
1.30438e-05 5.49485e-05 9.03844e-07
1.19726e-06 9.03844e-07 -5.91949e-05
0.0015976 3.57417e-05 1.18586e-06
3.57417e-05 8.21352e-05 6.11599e-07
1.18586e-06 6.11599e-07 -2.25556e-05
0.00182546 1.06385e-05 2.06039e-07
1.06385e-05 0.000165637 6.16122e-07
2.06039e-07 6.16122e-07 5.88693e-05
0.00151788 7.16651e-05 6.98877e-07
7.16651e-05 7.6106e-05 -3.07297e-07
6.98877e-07 -3.07297e-07 -2.94547e-05
0.00166574 4.77794e-05 -1.5601e-06
4.77794e-05 0.000101509 4.66749e-07
-1.5601e-06 4.66749e-07 4.2779e-06
0.000898311 1.8711e-06 -8.07424e-06
1.8711e-06 -0.000184406 1.13354e-06
-8.07424e-06 1.13354e-06 -0.000280574
0.00161494 -2.94909e-05 -1.22717e-05
-2.94909e-05 0.000232762 1.66691e-06
-1.22717e-05 1.66691e-06 0.000150646
0.00168286 -1.25885e-06 -5.70209e-06
-1.25885e-06 0.000169277 1.85141e-06
-5.70209e-06 1.85141e-06 6.66761e-05
0.00185615 -6.10237e-05 -3.62745e-06
-6.10237e-05 0.000278569 2.99006e-07
-3.62745e-06 2.99006e-07 0.000180288
0.000680782 4.36014e-05 -3.85423e-06
4.36014e-05 -3.01165e-05 4.30513e-06
-3.85423e-06 4.30513e-06 -6.05766e-05
0.000889709 -3.41873e-05 -2.94813e-06
-3.41873e-05 6.48226e-05 1.38449e-06
-2.94813e-06 1.38449e-06 -6.06563e-06
0.000883266 -8.6891e-05 -6.25664e-07
-8.6891e-05 3.06221e-05 6.75142e-08
-6.25664e-07 6.75142e-08 -6.09946e-05
0.00181493 -0.000102008 -4.55164e-06
-0.000102008 0.000319231 1.74441e-06
-4.55164e-06 1.74441e-06 0.000216976
0.00141299 -7.3819e-05 -1.54926e-06
-7.3819e-05 8.59398e-06 2.90271e-07
-1.54926e-06 2.90271e-07 -9.62372e-05
0.00133857 -0.000102257 -8.78255e-07
-0.000102257 7.7457e-05 1.01454e-06
-8.78255e-07 1.01454e-06 -3.14196e-05
0.00107211 -0.000105459 -1.32614e-06
-0.000105459 5.25245e-05 9.02487e-07
-1.32614e-06 9.02487e-07 -5.89695e-05
0.00112553 -0.000104157 2.25707e-06
-0.000104157 -1.78768e-06 -1.74235e-07
2.25707e-06 -1.74235e-07 -0.000112041
0.000772417 1.16339e-06 -2.56043e-06
1.16339e-06 -7.05345e-06 1.77452e-06
-2.56043e-06 1.77452e-06 -6.88831e-05
0.000819284 -4.77689e-06 -1.12667e-06
-4.77689e-06 1.09878e-05 2.32623e-07
-1.12667e-06 2.32623e-07 -6.44492e-05
0.00077003 3.59559e-05 -8.08024e-07
3.59559e-05 -1.30313e-05 2.07599e-06
-8.08024e-07 2.07599e-06 -5.86914e-05
0.00174464 4.11602e-06 -1.82747e-06
4.11602e-06 0.000177949 2.82248e-07
-1.82747e-06 2.82248e-07 7.04758e-05
0.00162767 -3.2827e-05 -8.75811e-07
-3.2827e-05 0.000156174 9.36877e-08
-8.75811e-07 9.36877e-08 5.84094e-05
0.00167566 -3.8885e-06 -6.98832e-07
-3.8885e-06 0.000125028 5.86324e-07
-6.98832e-07 5.86324e-07 1.67515e-05
0.00170567 -4.93884e-05 2.53006e-07
-4.93884e-05 0.000144975 -1.3218e-07
2.53006e-07 -1.3218e-07 4.30548e-05
0.000818958 -1.88706e-05 1.75351e-07
-1.88706e-05 2.46762e-05 -2.133e-07
1.75351e-07 -2.133e-07 -4.36848e-05
0.0010098 -8.75266e-05 -1.46508e-07
-8.75266e-05 0.000107394 2.84304e-07
-1.46508e-07 2.84304e-07 2.08967e-05
0.000833276 -9.47996e-05 5.72627e-07
-9.47996e-05 -8.9404e-06 -8.50665e-07
5.72627e-07 -8.50665e-07 -0.000114985
0.00147083 -9.87118e-05 2.9417e-07
-9.87118e-05 9.02389e-05 -5.28758e-07
2.9417e-07 -5.28758e-07 -1.8248e-05
0.00162376 -7.32043e-05 2.75326e-07
-7.32043e-05 8.30566e-05 8.753e-07
2.75326e-07 8.753e-07 -1.64088e-05
0.00124126 -0.000118937 -2.53003e-08
-0.000118937 0.000117086 2.09502e-07
-2.53003e-08 2.09502e-07 -1.71799e-06
0.0014002 -0.000106204 -1.98336e-07
-0.000106204 7.70644e-05 1.77365e-07
-1.98336e-07 1.77365e-07 -3.28825e-05
0.00160754 -0.000124768 9.32843e-07
-0.000124768 0.000225909 4.57084e-07
9.32843e-07 4.57084e-07 0.000120388
0.000947612 -4.50221e-05 -1.74762e-07
-4.50221e-05 7.83262e-05 -2.11155e-07
-1.74762e-07 -2.11155e-07 -1.68222e-06
0.000960831 -7.8851e-05 -2.78408e-07
-7.8851e-05 9.53492e-05 3.62819e-07
-2.78408e-07 3.62819e-07 6.16678e-06
0.000799705 3.3904e-05 1.46611e-07
3.3904e-05 -2.69726e-06 8.682e-08
1.46611e-07 8.682e-08 -4.25538e-05
0.000788094 1.3357e-05 -9.97894e-08
1.3357e-05 -8.99086e-06 -5.13637e-07
-9.97894e-08 -5.13637e-07 -7.67053e-05
0.00165972 1.82157e-06 1.50747e-06
1.82157e-06 9.42307e-05 -1.29072e-06
1.50747e-06 -1.29072e-06 -1.86074e-05
0.00170614 -2.61775e-05 1.06882e-06
-2.61775e-05 0.000151981 -1.10818e-07
1.06882e-06 -1.10818e-07 4.9211e-05
0.00180115 -2.19806e-06 3.52404e-07
-2.19806e-06 0.000167315 -2.9232e-07
3.52404e-07 -2.9232e-07 5.95667e-05
0.00161203 -4.1041e-05 -4.31519e-07
-4.1041e-05 6.39187e-05 -7.48867e-07
-4.31519e-07 -7.48867e-07 -3.65014e-05
0.00147639 -9.6959e-05 -1.48394e-06
-9.6959e-05 4.4645e-05 2.34501e-08
-1.48394e-06 2.34501e-08 -6.22903e-05
0.00171452 -7.03611e-05 6.30811e-07
-7.03611e-05 0.00010418 6.94563e-08
6.30811e-07 6.94563e-08 5.14324e-06
0.000924648 -7.95965e-05 1.20665e-06
-7.95965e-05 6.60588e-05 5.76246e-07
1.20665e-06 5.76246e-07 -1.62513e-05
0.00127112 -0.000104536 -3.60131e-06
-0.000104536 -1.00165e-05 4.38281e-07
-3.60131e-06 4.38281e-07 -0.000109616
0.000687963 -8.39567e-05 -1.28024e-07
-8.39567e-05 -5.80369e-05 -6.2401e-07
-1.28024e-07 -6.2401e-07 -0.00015579
0.00110377 -0.000113765 1.68277e-06
-0.000113765 0.000110693 -1.33864e-06
1.68277e-06 -1.33864e-06 -8.85126e-06
0.00131974 -0.000128551 8.87594e-07
-0.000128551 0.00013477 2.17408e-06
8.87594e-07 2.17408e-06 1.09006e-05
0.00202899 -0.000140862 -1.14518e-06
-0.000140862 0.000430725 1.67397e-06
-1.14518e-06 1.67397e-06 0.000323925
0.000815578 2.17297e-05 1.63482e-06
2.17297e-05 1.42166e-06 -1.58111e-06
1.63482e-06 -1.58111e-06 -3.49576e-05
0.000746145 3.92943e-06 5.30327e-07
3.92943e-06 -3.06272e-05 -1.26705e-06
5.30327e-07 -1.26705e-06 -9.3868e-05
0.000967747 -9.20993e-05 2.26177e-07
-9.20993e-05 9.44168e-05 1.34891e-06
2.26177e-07 1.34891e-06 4.11907e-06
0.000973406 -5.96669e-05 8.18156e-07
-5.96669e-05 9.95345e-05 1.10637e-07
8.18156e-07 1.10637e-07 1.75292e-05
0.000961773 -9.19021e-05 -4.98086e-07
-9.19021e-05 9.87654e-05 2.00762e-06
-4.98086e-07 2.00762e-06 5.26057e-06
0.000718139 -3.41957e-05 -2.58365e-06
-3.41957e-05 -3.70294e-05 -3.46262e-06
-2.58365e-06 -3.46262e-06 -4.68175e-05
0.0013553 8.79965e-05 -2.81302e-06
8.79965e-05 6.90013e-05 -5.75623e-07
-2.81302e-06 -5.75623e-07 -3.58357e-05
0.000797098 -3.96655e-05 -9.80896e-07
-3.96655e-05 5.73771e-06 -2.08059e-06
-9.80896e-07 -2.08059e-06 -3.70487e-05
0.000849244 -5.53491e-06 -1.48089e-06
-5.53491e-06 3.99278e-05 -2.2199e-06
-1.48089e-06 -2.2199e-06 -2.06312e-05
0.000910512 3.19422e-06 -2.66171e-07
3.19422e-06 6.58772e-05 -1.0913e-06
-2.66171e-07 -1.0913e-06 -6.67187e-06
0.00108813 0.000100433 -2.51701e-06
0.000100433 4.92299e-05 -1.4882e-06
-2.51701e-06 -1.4882e-06 -4.96875e-05
0.00134373 0.000108459 -1.38005e-06
0.000108459 7.53457e-05 -4.09533e-07
-1.38005e-06 -4.09533e-07 -3.75327e-05
0.0009323 7.87294e-05 -1.57871e-06
7.87294e-05 7.75221e-05 -4.44841e-07
-1.57871e-06 -4.44841e-07 -9.61749e-06
0.00110234 0.000106484 -2.14337e-06
0.000106484 0.000153752 -9.95746e-07
-2.14337e-06 -9.95746e-07 4.40843e-05
0.00149237 0.000122032 -1.59551e-06
0.000122032 0.000277752 -1.0558e-06
-1.59551e-06 -1.0558e-06 0.000178041
0.00102967 0.000105034 -3.41919e-06
0.000105034 6.9205e-05 2.10399e-06
-3.41919e-06 2.10399e-06 -3.12479e-05
0.000750443 -3.10037e-05 1.00354e-07
-3.10037e-05 -2.76012e-05 2.5467e-08
1.00354e-07 2.5467e-08 -3.46926e-05
0.000799417 -3.37084e-05 -8.75415e-08
-3.37084e-05 1.24073e-06 7.63848e-08
-8.75415e-08 7.63848e-08 -3.54503e-05
0.000948965 3.95974e-05 3.23041e-07
3.95974e-05 8.3987e-05 -8.70773e-08
3.23041e-07 -8.70773e-08 4.13612e-06
0.000870536 -8.74454e-06 2.41804e-09
-8.74454e-06 4.12067e-05 6.60111e-08
2.41804e-09 6.60111e-08 -2.25275e-05
0.000906456 5.29655e-05 4.16112e-07
5.29655e-05 7.18824e-05 -2.96596e-07
4.16112e-07 -2.96596e-07 -1.4938e-05
0.00145213 9.12388e-05 1.09085e-06
9.12388e-05 7.21233e-05 4.38377e-07
1.09085e-06 4.38377e-07 -3.8358e-05
0.00121544 0.000112075 1.53579e-07
0.000112075 8.20092e-05 -5.16525e-09
1.53579e-07 -5.16525e-09 -2.52938e-05
0.00141624 0.000115662 8.6553e-07
0.000115662 8.71699e-05 8.05777e-07
8.6553e-07 8.05777e-07 -2.87878e-05
0.00102949 9.80272e-05 8.39406e-07
9.80272e-05 0.000136252 9.3218e-07
8.39406e-07 9.3218e-07 3.12746e-05
0.00131241 0.000118898 5.7715e-07
0.000118898 0.00016553 -8.47435e-07
5.7715e-07 -8.47435e-07 6.24764e-05
0.000870351 9.99201e-05 -1.48339e-06
9.99201e-05 1.0859e-05 -8.22598e-07
-1.48339e-06 -8.22598e-07 -0.000107549
0.000811394 -2.71478e-05 1.17195e-06
-2.71478e-05 2.81765e-06 1.88174e-06
1.17195e-06 1.88174e-06 -3.01862e-05
0.000857164 -8.50322e-06 5.23919e-07
-8.50322e-06 2.87962e-05 1.23695e-06
5.23919e-07 1.23695e-06 -2.63755e-05
0.0010515 9.38023e-05 5.95855e-07
9.38023e-05 0.000145612 -2.09959e-07
5.95855e-07 -2.09959e-07 4.93699e-05
0.000923927 1.74852e-05 5.99813e-07
1.74852e-05 7.76531e-05 5.90185e-07
5.99813e-07 5.90185e-07 2.22439e-07
0.00102231 5.28473e-05 6.86561e-07
5.28473e-05 0.000138957 -8.17902e-07
6.86561e-07 -8.17902e-07 4.38885e-05
0.00151151 9.03244e-05 -1.45376e-06
9.03244e-05 6.97056e-05 -1.14286e-06
-1.45376e-06 -1.14286e-06 -4.01642e-05
0.0012661 0.000120966 7.70624e-07
0.000120966 8.26771e-05 1.1562e-06
7.70624e-07 1.1562e-06 -2.76264e-05
0.00118996 0.000119447 -3.78463e-06
0.000119447 -3.19119e-05 -1.98529e-07
-3.78463e-06 -1.98529e-07 -0.000138627
0.000975425 0.000100141 7.46612e-07
0.000100141 0.000115167 2.31387e-06
7.46612e-07 2.31387e-06 -5.91567e-06
0.00121905 0.000124804 3.81763e-06
0.000124804 0.00013738 -9.12377e-07
3.81763e-06 -9.12377e-07 1.60848e-05
0.000821366 -2.04987e-05 6.34655e-08
-2.04987e-05 4.09379e-06 1.40909e-09
6.34655e-08 1.40909e-09 -2.63487e-05
0.000703347 -1.85997e-05 5.51663e-07
-1.85997e-05 -5.48134e-05 1.48554e-06
5.51663e-07 1.48554e-06 -0.000102914
0.000790877 -1.20301e-05 -6.53525e-07
-1.20301e-05 -8.01127e-06 -8.57041e-09
-6.53525e-07 -8.57041e-09 -5.4879e-05
0.00105992 1.3226e-05 9.74808e-07
1.3226e-05 0.000143134 2.6233e-08
9.74808e-07 2.6233e-08 8.49801e-05
0.000860666 1.10321e-05 1.54638e-06
1.10321e-05 2.82179e-05 8.96772e-07
1.54638e-06 8.96772e-07 -1.8114e-05
0.000847764 -5.30317e-06 7.52007e-07
-5.30317e-06 7.94052e-06 1.74139e-06
7.52007e-07 1.74139e-06 -1.83095e-05
0.000839225 -1.31095e-05 3.26889e-08
-1.31095e-05 6.62441e-06 2.04846e-08
3.26889e-08 2.04846e-08 -2.0466e-05
0.00130865 -2.41298e-05 1.41895e-06
-2.41298e-05 0.000253756 2.00423e-06
1.41895e-06 2.00423e-06 0.000255627
0.000830308 -1.52846e-05 -1.02663e-06
-1.52846e-05 6.06357e-06 -1.81007e-06
-1.02663e-06 -1.81007e-06 -2.2653e-05
0.0013304 -2.78968e-05 -3.73838e-06
-2.78968e-05 0.000270583 -1.17455e-06
-3.73838e-06 -1.17455e-06 0.000270885
0.00101394 -2.3101e-05 1.7821e-05
-2.3101e-05 0.000102935 6.2171e-06
1.7821e-05 6.2171e-06 0.000117562
0.00131834 -3.09388e-05 -9.025e-06
-3.09388e-05 0.000270574 -3.17204e-06
-9.025e-06 -3.17204e-06 0.000269003
0.00154327 -3.34177e-05 1.61006e-05
-3.34177e-05 0.000394621 2.06152e-06
1.61006e-05 2.06152e-06 0.000410234
0.00214342 -4.53571e-05 -2.34568e-05
-4.53571e-05 0.000722359 -3.54556e-06
-2.34568e-05 -3.54556e-06 0.000739312
0.000727675 3.04753e-05 2.17085e-06
3.04753e-05 -4.18913e-05 -3.4337e-06
2.17085e-06 -3.4337e-06 -5.10173e-05
0.000738824 3.44116e-05 -1.35419e-07
3.44116e-05 -3.00237e-05 1.68105e-08
-1.35419e-07 1.68105e-08 -4.16246e-05
0.00231811 5.29414e-05 2.73534e-05
5.29414e-05 0.000819986 -3.52147e-06
2.73534e-05 -3.52147e-06 0.000834326
0.00240602 5.88245e-05 -7.5712e-07
5.88245e-05 0.000874965 -8.78492e-08
-7.5712e-07 -8.78492e-08 0.000887019
0.000745598 4.20504e-05 -2.27517e-06
4.20504e-05 -1.83012e-05 3.8479e-06
-2.27517e-06 3.8479e-06 -3.37819e-05
0.00258003 6.46634e-05 -3.89604e-05
6.46634e-05 0.000973691 3.34994e-06
-3.89604e-05 3.34994e-06 0.00098322
0.00141959 7.24995e-05 -3.6151e-06
7.24995e-05 7.08797e-05 -6.35227e-07
-3.6151e-06 -6.35227e-07 -3.19568e-05
0.00148601 3.3225e-05 -3.47858e-06
3.3225e-05 7.22521e-05 -6.91936e-07
-3.47858e-06 -6.91936e-07 -3.02785e-05
0.0015856 5.79486e-05 -7.53292e-07
5.79486e-05 9.10609e-05 7.8897e-08
-7.53292e-07 7.8897e-08 -1.24283e-05
0.0015739 1.40568e-05 -1.15013e-06
1.40568e-05 5.33559e-05 -8.97473e-07
-1.15013e-06 -8.97473e-07 -5.5888e-05
0.00157919 1.96675e-05 -3.75615e-06
1.96675e-05 7.87144e-05 -1.18414e-06
-3.75615e-06 -1.18414e-06 -3.18938e-05
0.00130276 6.49336e-06 -8.39486e-06
6.49336e-06 1.35485e-05 1.69178e-07
-8.39486e-06 1.69178e-07 -8.25798e-05
0.00157729 1.07488e-05 4.96185e-08
1.07488e-05 7.28369e-05 -3.12e-07
4.96185e-08 -3.12e-07 -3.83968e-05
0.00161376 4.86597e-06 2.26749e-07
4.86597e-06 5.37032e-05 1.05902e-07
2.26749e-07 1.05902e-07 -6.10761e-05
0.00161141 3.49623e-05 2.63491e-08
3.49623e-05 8.94456e-05 1.30335e-07
2.63491e-08 1.30335e-07 -1.5134e-05
0.00175427 1.0035e-05 -6.73821e-08
1.0035e-05 0.000127467 -2.33104e-07
-6.73821e-08 -2.33104e-07 2.10029e-05
0.00152812 7.30004e-05 -1.51734e-07
7.30004e-05 8.08191e-05 6.84446e-08
-1.51734e-07 6.84446e-08 -2.4976e-05
0.00163136 4.72064e-05 2.08377e-09
4.72064e-05 8.10938e-05 5.00862e-07
2.08377e-09 5.00862e-07 -1.61878e-05
0.00163902 1.49243e-07 2.00472e-06
1.49243e-07 6.38259e-05 -7.7265e-07
2.00472e-06 -7.7265e-07 -5.18371e-05
0.00179087 1.37648e-05 -5.89562e-08
1.37648e-05 0.00012419 7.95565e-07
-5.89562e-08 7.95565e-07 1.05178e-05
0.00160772 2.69017e-05 -3.10157e-07
2.69017e-05 5.78676e-05 1.12705e-06
-3.10157e-07 1.12705e-06 -4.3769e-05
0.00179473 5.58836e-06 1.64553e-09
5.58836e-06 0.000135192 1.54043e-07
1.64553e-09 1.54043e-07 2.97831e-05
0.0015214 6.56036e-05 -1.25488e-06
6.56036e-05 4.14527e-05 -8.73955e-07
-1.25488e-06 -8.73955e-07 -5.96174e-05
0.00184367 3.99648e-05 -3.45787e-07
3.99648e-05 0.000169217 -3.75271e-08
-3.45787e-07 -3.75271e-08 7.45486e-05
0.001569 4.12808e-06 -5.47489e-06
4.12808e-06 8.28169e-05 1.50971e-06
-5.47489e-06 1.50971e-06 -2.6426e-05
0.00162065 -3.4473e-05 -4.90264e-06
-3.4473e-05 0.000151158 8.12782e-07
-4.90264e-06 8.12782e-07 5.35828e-05
0.00155724 -3.34397e-06 -2.05078e-06
-3.34397e-06 6.21028e-05 1.46678e-06
-2.05078e-06 1.46678e-06 -4.6608e-05
0.00179963 -4.87635e-05 -1.47364e-06
-4.87635e-05 0.00019483 -1.41372e-07
-1.47364e-06 -1.41372e-07 9.31932e-05
0.000836002 -2.21828e-05 -2.67742e-06
-2.21828e-05 3.14634e-05 1.41626e-06
-2.67742e-06 1.41626e-06 -3.65008e-05
0.00108933 -9.16318e-05 -1.46217e-06
-9.16318e-05 0.000147184 3.61385e-07
-1.46217e-06 3.61385e-07 6.02484e-05
0.000914144 -9.71572e-05 -2.53239e-07
-9.71572e-05 3.68173e-05 1.0874e-07
-2.53239e-07 1.0874e-07 -6.79435e-05
0.00171692 -0.0001046 -1.16472e-06
-0.0001046 0.000221457 3.46183e-07
-1.16472e-06 3.46183e-07 0.000113164
0.00154483 -7.12711e-05 4.62578e-07
-7.12711e-05 3.8344e-05 3.63899e-08
4.62578e-07 3.63899e-08 -6.02765e-05
0.00141368 -0.000105342 1.50169e-06
-0.000105342 8.26144e-05 1.0335e-06
1.50169e-06 1.0335e-06 -2.70981e-05
0.000988054 -0.000108479 -6.38276e-07
-0.000108479 -1.10996e-05 2.4991e-08
-6.38276e-07 2.4991e-08 -0.000130606
0.00134442 -0.000115277 3.63297e-06
-0.000115277 9.02499e-05 -2.55547e-06
3.63297e-06 -2.55547e-06 -1.41037e-05
0.000965831 -3.60763e-05 -1.27848e-06
-3.60763e-05 8.72964e-05 -4.0755e-07
-1.27848e-06 -4.0755e-07 7.90293e-06
0.000942713 -6.44435e-05 -7.38631e-07
-6.44435e-05 8.1798e-05 -6.30294e-07
-7.38631e-07 -6.30294e-07 -6.09653e-06
0.000790773 3.30352e-05 -9.43915e-07
3.30352e-05 -7.04703e-06 1.79997e-06
-9.43915e-07 1.79997e-06 -4.69814e-05
0.000805299 2.43022e-05 -1.74718e-07
2.43022e-05 -1.52087e-06 3.13768e-07
-1.74718e-07 3.13768e-07 -6.75178e-05
0.00167936 2.62439e-06 -1.44135e-07
2.62439e-06 0.000104068 -1.2669e-07
-1.44135e-07 -1.2669e-07 -8.76175e-06
0.00173643 -2.35492e-05 -5.98668e-07
-2.35492e-05 0.000167015 7.45595e-08
-5.98668e-07 7.45595e-08 6.46419e-05
0.00170571 -3.00085e-06 -7.54541e-07
-3.00085e-06 0.000120955 8.34848e-07
-7.54541e-07 8.34848e-07 1.37804e-05
0.00166396 -4.23076e-05 -6.44459e-08
-4.23076e-05 9.04896e-05 -4.59364e-07
-6.44459e-08 -4.59364e-07 -9.72236e-06
0.000983662 -6.48388e-05 -2.22836e-07
-6.48388e-05 9.44156e-05 8.69047e-08
-2.22836e-07 8.69047e-08 1.29441e-05
0.000770847 -8.68601e-05 5.09288e-07
-8.68601e-05 -1.43178e-05 -4.39631e-07
5.09288e-07 -4.39631e-07 -0.000110774
0.00110529 -0.000113175 1.16851e-07
-0.000113175 0.000113184 -1.61182e-07
1.16851e-07 -1.61182e-07 -6.68249e-06
0.00161988 -0.00010011 -5.30612e-07
-0.00010011 0.000121333 -5.20235e-07
-5.30612e-07 -5.20235e-07 1.38516e-05
0.0016238 -6.91362e-05 -5.22766e-07
-6.91362e-05 6.05245e-05 3.33215e-07
-5.22766e-07 3.33215e-07 -3.56192e-05
0.00131354 -0.000126955 -2.57149e-07
-0.000126955 0.000132289 6.01575e-07
-2.57149e-07 6.01575e-07 7.7371e-06
0.00140866 -0.000107191 -2.46072e-07
-0.000107191 5.92969e-05 1.28662e-06
-2.46072e-07 1.28662e-06 -4.0361e-05
0.0016412 -0.000127097 1.05756e-06
-0.000127097 0.000228442 -1.4325e-06
1.05756e-06 -1.4325e-06 0.000124573
0.0010167 -9.4472e-05 5.31132e-08
-9.4472e-05 0.000119038 -3.63662e-08
5.31132e-08 -3.63662e-08 2.87047e-05
0.000988762 -8.91166e-05 6.90661e-08
-8.91166e-05 0.000111215 1.82636e-07
6.90661e-08 1.82636e-07 1.81659e-05
0.000957881 -4.18414e-05 -3.33227e-07
-4.18414e-05 8.99397e-05 -1.2194e-08
-3.33227e-07 -1.2194e-08 9.07868e-06
0.000697 2.69362e-05 -2.22717e-07
2.69362e-05 -6.11915e-05 -1.2152e-09
-2.22717e-07 -1.2152e-09 -9.86672e-05
0.000771063 2.08874e-05 5.16406e-08
2.08874e-05 -2.06367e-05 -3.42761e-07
5.16406e-08 -3.42761e-07 -8.14476e-05
0.00173206 4.96909e-06 4.40438e-07
4.96909e-06 0.000103797 -1.05892e-06
4.40438e-07 -1.05892e-06 -8.32139e-06
0.00165822 -9.03298e-06 1.14757e-06
-9.03298e-06 8.70915e-05 -5.26448e-07
1.14757e-06 -5.26448e-07 -1.64025e-05
0.00161448 -4.60278e-05 1.27856e-06
-4.60278e-05 3.6672e-05 -1.26793e-06
1.27856e-06 -1.26793e-06 -6.43764e-05
0.00137022 -8.35702e-05 6.92029e-08
-8.35702e-05 -4.43814e-05 -2.03413e-06
6.92029e-08 -2.03413e-06 -0.000144499
0.000938213 -9.23515e-05 -1.67346e-07
-9.23515e-05 7.64489e-05 1.32194e-06
-1.67346e-07 1.32194e-06 -1.44603e-05
0.00207355 -0.000132307 -1.43473e-06
-0.000132307 0.000364642 1.09626e-06
-1.43473e-06 1.09626e-06 0.000268525
0.000361398 -7.10392e-05 -2.5091e-07
-7.10392e-05 -0.000224777 -1.9124e-06
-2.5091e-07 -1.9124e-06 -0.000330099
0.00121229 -0.00012617 2.83128e-06
-0.00012617 0.000144698 -1.08542e-06
2.83128e-06 -1.08542e-06 9.85761e-06
0.00167132 -0.000145121 1.3566e-06
-0.000145121 0.000284683 2.19229e-06
1.3566e-06 2.19229e-06 0.000155067
0.000603274 1.98513e-05 1.29239e-06
1.98513e-05 -0.000114054 -2.31935e-06
1.29239e-06 -2.31935e-06 -0.000150156
0.000966399 7.10981e-07 1.34374e-06
7.10981e-07 8.49187e-05 -6.39664e-07
1.34374e-06 -6.39664e-07 2.82483e-05
0.000979766 -2.81761e-05 6.69646e-08
-2.81761e-05 9.76175e-05 -1.36262e-07
6.69646e-08 -1.36262e-07 2.598e-05
0.000970845 -9.27504e-05 -5.30994e-07
-9.27504e-05 9.6455e-05 2.19546e-06
-5.30994e-07 2.19546e-06 4.80935e-06
0.00107037 -6.32773e-05 3.59609e-07
-6.32773e-05 0.000152562 1.39854e-06
3.59609e-07 1.39854e-06 6.31201e-05
0.000922653 -8.99758e-05 -2.57563e-07
-8.99758e-05 7.15589e-05 1.99182e-06
-2.57563e-07 1.99182e-06 -2.28657e-05
0.000729681 -3.03494e-05 -2.13158e-06
-3.03494e-05 -3.83629e-05 -3.44452e-06
-2.13158e-06 -3.44452e-06 -4.53551e-05
0.000807227 -3.31484e-05 -1.42372e-06
-3.31484e-05 5.264e-06 -1.79674e-06
-1.42372e-06 -1.79674e-06 -3.1307e-05
0.0014676 9.21664e-05 -5.80052e-07
9.21664e-05 8.0198e-05 5.59159e-07
-5.80052e-07 5.59159e-07 -3.05889e-05
0.000889749 -2.34158e-05 -1.41568e-07
-2.34158e-05 5.02588e-05 -1.29932e-06
-1.41568e-07 -1.29932e-06 -1.25778e-05
0.000886468 3.35003e-05 -1.02991e-06
3.35003e-05 5.01068e-05 -4.0067e-07
-1.02991e-06 -4.0067e-07 -2.85564e-05
0.000858349 4.37493e-05 -6.69249e-08
4.37493e-05 4.4864e-05 -1.51033e-07
-6.69249e-08 -1.51033e-07 -4.13697e-05
0.00121994 0.000112911 -1.00563e-06
0.000112911 8.46707e-05 -1.62831e-06
-1.00563e-06 -1.62831e-06 -2.26675e-05
0.00136077 0.000115035 8.32967e-07
0.000115035 5.93745e-05 9.38981e-08
8.32967e-07 9.38981e-08 -5.69876e-05
0.00094732 9.4204e-05 -5.34237e-07
9.4204e-05 9.47256e-05 -2.54678e-07
-5.34237e-07 -2.54678e-07 -9.85755e-06
0.00126443 0.000118643 -1.96078e-06
0.000118643 0.000213129 9.87237e-07
-1.96078e-06 9.87237e-07 9.46716e-05
0.00144489 0.00012394 -2.50424e-06
0.00012394 0.000235852 -8.87932e-07
-2.50424e-06 -8.87932e-07 0.000132845
0.000813025 -2.62707e-05 2.11599e-08
-2.62707e-05 3.87273e-06 2.35038e-08
2.11599e-08 2.35038e-08 -2.90943e-05
0.000860274 -1.89797e-05 -1.80699e-07
-1.89797e-05 3.02989e-05 1.60553e-07
-1.80699e-07 1.60553e-07 -2.47316e-05
0.0010087 9.18172e-05 -4.5483e-07
9.18172e-05 0.000124762 -2.96523e-07
-4.5483e-07 -2.96523e-07 2.90447e-05
0.000911069 1.14596e-05 1.48842e-07
1.14596e-05 6.86886e-05 8.14479e-09
1.48842e-07 8.14479e-09 -7.58533e-06
0.000940303 5.96849e-05 1.3885e-07
5.96849e-05 9.77737e-05 -6.19469e-07
1.3885e-07 -6.19469e-07 6.49888e-07
0.00151604 9.25386e-05 -6.94699e-07
9.25386e-05 7.4139e-05 -2.33345e-07
-6.94699e-07 -2.33345e-07 -3.62967e-05
0.00129124 0.000121834 1.00631e-06
0.000121834 9.44935e-05 -8.36054e-08
1.00631e-06 -8.36054e-08 -1.60501e-05
0.00132543 0.000122883 6.44205e-07
0.000122883 3.16009e-05 1.55645e-06
6.44205e-07 1.55645e-06 -7.33026e-05
0.000780671 9.0913e-05 6.62446e-07
9.0913e-05 1.42607e-05 1.68329e-06
6.62446e-07 1.68329e-06 -0.000106473
0.00123135 0.000125134 -4.17028e-07
0.000125134 0.000145243 -9.72247e-07
-4.17028e-07 -9.72247e-07 2.10782e-05
0.000853002 -9.69493e-06 7.09281e-07
-9.69493e-06 2.56525e-05 1.10249e-06
7.09281e-07 1.10249e-06 -2.41419e-05
0.000791705 -6.93601e-06 9.34602e-08
-6.93601e-06 -4.97176e-07 1.38172e-06
9.34602e-08 1.38172e-06 -6.95839e-05
0.00112592 0.000103252 1.72575e-07
0.000103252 0.000199663 -6.55709e-07
1.72575e-07 -6.55709e-07 8.94843e-05
0.000822328 3.16424e-05 3.54363e-07
3.16424e-05 3.01067e-05 4.65869e-07
3.54363e-07 4.65869e-07 -6.07065e-05
0.00101507 7.10969e-05 5.32756e-08
7.10969e-05 0.000131639 -1.19434e-06
5.32756e-08 -1.19434e-06 2.71556e-05
0.00163626 9.19446e-05 -2.52345e-06
9.19446e-05 8.98045e-05 7.63742e-07
-2.52345e-06 7.63742e-07 -2.94825e-06
0.00167174 0.000150469 7.33812e-08
0.000150469 0.000282809 -1.34257e-06
7.33812e-08 -1.34257e-06 0.0001628
0.000237772 9.44216e-05 -4.58125e-08
9.44216e-05 -0.000567554 -1.49019e-06
-4.58125e-08 -1.49019e-06 -0.000666093
0.00162479 0.000134494 4.1449e-06
0.000134494 0.000439937 2.85807e-06
4.1449e-06 2.85807e-06 0.000308413
9.34701e-05 8.07297e-05 2.99723e-07
8.07297e-05 -0.000438951 -1.02942e-06
2.99723e-07 -1.02942e-06 -0.000576568
0.000820869 -1.8479e-05 -1.34487e-06
-1.8479e-05 4.17591e-06 -1.74974e-06
-1.34487e-06 -1.74974e-06 -2.62597e-05
0.000788002 -1.24212e-05 1.34973e-07
-1.24212e-05 -9.68908e-06 5.39108e-07
1.34973e-07 5.39108e-07 -5.753e-05
0.000785484 -2.24235e-05 1.82314e-07
-2.24235e-05 -6.78869e-06 1.10705e-06
1.82314e-07 1.10705e-06 -6.65531e-05
0.000745039 -2.80889e-05 -6.91182e-07
-2.80889e-05 -3.31211e-05 -7.207e-07
-6.91182e-07 -7.207e-07 -8.00537e-05
0.000871632 -2.8427e-06 2.17604e-07
-2.8427e-06 3.28342e-05 -3.5121e-08
2.17604e-07 -3.5121e-08 -1.27057e-05
0.000910672 -1.76047e-05 1.80494e-07
-1.76047e-05 6.11265e-05 -3.85831e-07
1.80494e-07 -3.85831e-07 4.20942e-06
0.00101342 5.72779e-06 2.53077e-07
5.72779e-06 0.000120056 -7.92208e-08
2.53077e-07 -7.92208e-08 5.57879e-05
0.000804684 -3.25769e-05 1.11688e-07
-3.25769e-05 6.52847e-06 5.43676e-07
1.11688e-07 5.43676e-07 -5.08356e-05
0.000889038 -1.65162e-05 1.20362e-07
-1.65162e-05 3.82978e-05 7.93887e-07
1.20362e-07 7.93887e-07 -5.59275e-06
0.000839656 1.24963e-06 7.89187e-07
1.24963e-06 2.66124e-06 1.60793e-06
7.89187e-07 1.60793e-06 -2.37074e-05
0.000842057 -9.51299e-06 -1.4382e-07
-9.51299e-06 5.14836e-06 1.76057e-08
-1.4382e-07 1.76057e-08 -2.11545e-05
0.00130485 -1.8003e-05 1.19791e-06
-1.8003e-05 0.000247219 1.93776e-06
1.19791e-06 1.93776e-06 0.000250122
0.000837398 -1.34048e-05 -6.71869e-07
-1.34048e-05 5.82595e-06 -1.79433e-06
-6.71869e-07 -1.79433e-06 -2.1306e-05
0.00132199 -2.25978e-05 -3.09938e-06
-2.25978e-05 0.000260607 -1.16001e-06
-3.09938e-06 -1.16001e-06 0.000262638
0.00100494 -1.91467e-05 1.43256e-05
-1.91467e-05 9.24816e-05 6.17463e-06
1.43256e-05 6.17463e-06 0.000108607
0.00134147 -2.66259e-05 -7.72608e-06
-2.66259e-05 0.000276038 -4.38422e-06
-7.72608e-06 -4.38422e-06 0.000276566
0.000959118 -2.43715e-05 5.85504e-06
-2.43715e-05 7.38619e-05 2.36666e-06
5.85504e-06 2.36666e-06 8.82909e-05
0.00206311 -4.36799e-05 -6.18805e-06
-4.36799e-05 0.000673576 -1.55169e-06
-6.18805e-06 -1.55169e-06 0.000691665
0.000741263 2.72711e-05 1.6493e-06
2.72711e-05 -4.05384e-05 -3.41583e-06
1.6493e-06 -3.41583e-06 -4.74254e-05
0.000744864 3.08595e-05 -1.20979e-07
3.08595e-05 -3.29436e-05 2.06529e-08
-1.20979e-07 2.06529e-08 -4.21484e-05
0.00227017 4.68756e-05 2.40424e-05
4.68756e-05 0.000787516 -3.65969e-06
2.40424e-05 -3.65969e-06 0.000803697
0.000757993 3.5249e-05 -2.78214e-06
3.5249e-05 -1.99246e-05 3.47894e-06
-2.78214e-06 3.47894e-06 -3.16855e-05
0.0023232 5.27063e-05 -1.00864e-06
5.27063e-05 0.000823649 -8.63258e-08
-1.00864e-06 -8.63258e-08 0.000837831
0.00242963 5.82515e-05 -3.40649e-05
5.82515e-05 0.000888082 3.4145e-06
-3.40649e-05 3.4145e-06 0.000899991
0.00153839 7.4267e-05 -1.52571e-06
7.4267e-05 8.55434e-05 3.33855e-07
-1.52571e-06 3.33855e-07 -2.04839e-05
0.00162927 3.32933e-05 -7.11401e-07
3.32933e-05 9.88206e-05 -2.82857e-07
-7.11401e-07 -2.82857e-07 -5.60951e-06
0.00159506 4.66438e-05 1.62698e-06
4.66438e-05 5.95603e-05 3.27929e-07
1.62698e-06 3.27929e-07 -3.77542e-05
0.00167927 9.33466e-06 -2.70961e-07
9.33466e-06 8.7338e-05 -1.268e-06
-2.70961e-07 -1.268e-06 -1.88229e-05
0.00161313 -1.76599e-08 -1.15591e-06
-1.76599e-08 5.16416e-05 -7.16485e-07
-1.15591e-06 -7.16485e-07 -6.37905e-05
0.00158639 1.41417e-05 -3.87504e-06
1.41417e-05 7.74916e-05 1.74719e-07
-3.87504e-06 1.74719e-07 -3.3784e-05
0.00166565 3.84367e-06 2.10839e-07
3.84367e-06 7.79507e-05 -3.01759e-07
2.10839e-07 -3.01759e-07 -3.79107e-05
0.00180379 9.6147e-06 7.43976e-08
9.6147e-06 0.000132432 -1.11212e-07
7.43976e-08 -1.11212e-07 1.85494e-05
0.00161687 2.51653e-05 6.27988e-09
2.51653e-05 6.11661e-05 3.65787e-07
6.27988e-09 3.65787e-07 -4.08606e-05
0.00173645 5.52913e-06 1.52041e-07
5.52913e-06 0.000103702 -8.2782e-07
1.52041e-07 -8.2782e-07 -7.46282e-07
0.00156793 6.72381e-05 -5.47472e-07
6.72381e-05 6.49246e-05 1.46555e-07
-5.47472e-07 1.46555e-07 -3.60903e-05
0.00171621 3.939e-05 1.26972e-06
3.939e-05 0.000104627 -5.09075e-07
1.26972e-06 -5.09075e-07 1.08642e-05
0.00176285 1.15628e-05 7.86525e-08
1.15628e-05 0.000102378 -4.03229e-07
7.86525e-08 -4.03229e-07 -1.3013e-05
0.00175512 6.27132e-06 -5.76826e-07
6.27132e-06 9.58928e-05 6.82086e-07
-5.76826e-07 6.82086e-07 -1.33631e-05
0.00171257 1.87975e-05 9.79637e-08
1.87975e-05 8.46975e-05 5.56483e-07
9.79637e-08 5.56483e-07 -1.34552e-05
0.00181507 6.03372e-05 -1.18974e-06
6.03372e-05 0.000155472 -3.6727e-07
-1.18974e-06 -3.6727e-07 6.19183e-05
0.00169588 3.38619e-06 -1.5751e-06
3.38619e-06 0.000112341 1.05883e-06
-1.5751e-06 1.05883e-06 -4.87088e-07
0.00176496 -2.26255e-05 -2.59746e-06
-2.26255e-05 0.000181056 4.79067e-07
-2.59746e-06 4.79067e-07 7.90492e-05
0.00158916 -3.86077e-06 -1.61833e-06
-3.86077e-06 6.40184e-05 1.81593e-06
-1.61833e-06 1.81593e-06 -4.26204e-05
0.00171247 -4.29857e-05 -4.5008e-07
-4.29857e-05 0.000115347 4.81017e-08
-4.5008e-07 4.81017e-08 1.53438e-05
0.00104419 -6.46926e-05 -1.37369e-06
-6.46926e-05 0.000125585 -4.20169e-07
-1.37369e-06 -4.20169e-07 4.36846e-05
0.000876511 -9.11037e-05 6.1925e-07
-9.11037e-05 4.09756e-05 -3.57624e-07
6.1925e-07 -3.57624e-07 -5.42882e-05
0.00109773 -0.000112175 -8.66191e-07
-0.000112175 0.000111025 1.47674e-06
-8.66191e-07 1.47674e-06 -9.13394e-06
0.00176291 -0.000103211 3.41958e-08
-0.000103211 0.000197748 -1.24521e-07
3.41958e-08 -1.24521e-07 8.97267e-05
0.00155107 -6.83206e-05 -1.09589e-06
-6.83206e-05 2.62204e-05 1.11088e-06
-1.09589e-06 1.11088e-06 -6.70769e-05
0.00153516 -0.000109597 2.76207e-06
-0.000109597 0.000123192 2.12158e-06
2.76207e-06 2.12158e-06 2.34679e-05
0.00127636 -0.000124085 -8.12411e-07
-0.000124085 0.000114023 -7.95377e-07
-8.12411e-07 -7.95377e-07 -1.11459e-05
0.00127157 -0.000113936 2.44153e-07
-0.000113936 3.57919e-05 -6.03009e-06
2.44153e-07 -6.03009e-06 -6.52438e-05
0.00106317 -9.67775e-05 -1.69134e-07
-9.67775e-05 0.000142579 -1.34757e-06
-1.69134e-07 -1.34757e-06 5.21819e-05
0.00102561 -8.86247e-05 -1.99825e-07
-8.86247e-05 0.000128804 -2.012e-06
-1.99825e-07 -2.012e-06 3.59548e-05
0.000932257 -2.54168e-05 9.85521e-08
-2.54168e-05 7.58756e-05 6.69317e-08
9.85521e-08 6.69317e-08 -4.16383e-06
0.000585793 2.85863e-05 -1.09703e-06
2.85863e-05 -0.000120239 1.69507e-06
-1.09703e-06 1.69507e-06 -0.000158639
0.000800375 3.48214e-05 -1.32279e-07
3.48214e-05 -7.21501e-06 3.36971e-07
-1.32279e-07 3.36971e-07 -6.63777e-05
0.00167707 4.36537e-06 -3.76508e-07
4.36537e-06 7.88086e-05 1.96977e-07
-3.76508e-07 1.96977e-07 -3.25444e-05
0.00171105 -9.93233e-06 -2.17363e-07
-9.93233e-06 0.00011479 -2.83907e-07
-2.17363e-07 -2.83907e-07 1.07428e-05
0.00177187 -4.81559e-05 -1.07185e-06
-4.81559e-05 0.000121032 -1.25785e-07
-1.07185e-06 -1.25785e-07 2.06808e-05
0.00102925 -9.63708e-05 -1.61901e-08
-9.63708e-05 0.0001221 2.22616e-07
-1.61901e-08 2.22616e-07 3.09e-05
0.00076887 -8.98005e-05 1.15107e-06
-8.98005e-05 -1.55327e-05 -1.0436e-06
1.15107e-06 -1.0436e-06 -0.000120414
0.00114343 -0.000122152 -1.34631e-07
-0.000122152 0.00011254 -1.17163e-07
-1.34631e-07 -1.17163e-07 -2.27874e-05
0.0016024 -8.85561e-05 5.49855e-07
-8.85561e-05 7.20677e-05 -1.33633e-06
5.49855e-07 -1.33633e-06 -2.8195e-05
0.00154216 -0.000137214 -1.84512e-07
-0.000137214 0.000218142 -1.51174e-07
-1.84512e-07 -1.51174e-07 9.20222e-05
0.00159404 -0.000121159 -1.33827e-06
-0.000121159 0.000128327 1.66786e-08
-1.33827e-06 1.66786e-08 3.31698e-05
0.000598751 2.29846e-05 7.53376e-08
2.29846e-05 -0.000116566 -5.8618e-07
7.53376e-08 -5.8618e-07 -0.000152431
0.00102062 -9.51897e-05 1.07948e-08
-9.51897e-05 0.000121853 1.16108e-07
1.07948e-08 1.16108e-07 3.00039e-05
0.000936969 -9.03537e-05 -5.48039e-07
-9.03537e-05 7.95039e-05 1.80955e-07
-5.48039e-07 1.80955e-07 -1.44622e-05
0.00105579 -6.52698e-05 -2.99404e-07
-6.52698e-05 0.000147575 8.02098e-07
-2.99404e-07 8.02098e-07 5.6351e-05
0.0010072 -2.42232e-05 2.02646e-08
-2.42232e-05 0.000112713 1.166e-08
2.02646e-08 1.166e-08 4.09484e-05
0.000860671 1.38405e-05 -2.27992e-07
1.38405e-05 2.64196e-05 1.95101e-07
-2.27992e-07 1.95101e-07 -2.93721e-05
0.00178342 2.15378e-06 3.2468e-07
2.15378e-06 0.000121714 -9.92891e-07
3.2468e-07 -9.92891e-07 1.34142e-05
0.00176337 -1.15523e-05 2.60522e-07
-1.15523e-05 0.000110271 -1.52767e-07
2.60522e-07 -1.52767e-07 1.04153e-05
0.00143283 -5.64117e-05 1.9408e-06
-5.64117e-05 -6.39849e-05 -1.12906e-06
1.9408e-06 -1.12906e-06 -0.000166217
0.00182758 -0.000109969 3.10671e-07
-0.000109969 0.000131273 -3.1117e-06
3.10671e-07 -3.1117e-06 3.29415e-05
0.000956578 -9.43194e-05 -8.46135e-07
-9.43194e-05 8.73566e-05 1.40552e-06
-8.46135e-07 1.40552e-06 -7.50778e-06
0.00163096 -0.000138866 2.61736e-06
-0.000138866 0.000179633 2.67318e-06
2.61736e-06 2.67318e-06 6.321e-05
0.000669144 -9.22563e-05 -6.97175e-07
-9.22563e-05 -7.53109e-05 -2.44569e-06
-6.97175e-07 -2.44569e-06 -0.000200733
0.00149505 -0.000143803 6.83055e-07
-0.000143803 0.000273073 1.21639e-06
6.83055e-07 1.21639e-06 0.000125537
0.000615482 1.92111e-05 8.49693e-07
1.92111e-05 -0.000109757 -2.32453e-06
8.49693e-07 -2.32453e-06 -0.000143512
0.000979779 -9.05104e-07 1.1275e-06
-9.05104e-07 9.05253e-05 -7.85863e-07
1.1275e-06 -7.85863e-07 3.76127e-05
0.0010462 -2.6124e-05 2.4335e-07
-2.6124e-05 0.000132972 6.41395e-07
2.4335e-07 6.41395e-07 6.4861e-05
0.000976783 -2.87308e-05 4.15677e-07
-2.87308e-05 0.000100904 -7.50336e-07
4.15677e-07 -7.50336e-07 1.82035e-05
0.00106298 -9.73119e-05 -3.24521e-07
-9.73119e-05 0.000142488 2.31015e-06
-3.24521e-07 2.31015e-06 4.79479e-05
0.000965052 -9.33901e-05 -1.07476e-06
-9.33901e-05 9.53838e-05 3.07519e-06
-1.07476e-06 3.07519e-06 -1.74347e-06
0.000813356 -2.51624e-05 -1.47682e-06
-2.51624e-05 4.14996e-06 -1.75128e-06
-1.47682e-06 -1.75128e-06 -2.87302e-05
0.000858056 -2.68681e-05 -3.60887e-07
-2.68681e-05 2.9169e-05 -1.13582e-06
-3.60887e-07 -1.13582e-06 -2.58207e-05
0.00152672 9.49747e-05 5.67094e-07
9.49747e-05 8.17202e-05 9.76602e-07
5.67094e-07 9.76602e-07 -2.92973e-05
0.000908577 2.93695e-06 -2.46032e-07
2.93695e-06 6.52053e-05 -6.20599e-07
-2.46032e-07 -6.20599e-07 -9.9222e-06
0.00095678 8.94518e-05 -3.66152e-07
8.94518e-05 9.95204e-05 -1.66765e-07
-3.66152e-07 -1.66765e-07 4.31102e-06
0.000867686 4.87922e-05 -5.77109e-07
4.87922e-05 5.77197e-05 -2.06791e-07
-5.77109e-07 -2.06791e-07 -3.90067e-05
0.00131651 0.000122725 -7.03024e-07
0.000122725 0.000106364 -1.66095e-06
-7.03024e-07 -1.66095e-06 -4.42154e-06
0.00144639 0.00012586 1.87933e-06
0.00012586 8.74592e-05 3.81945e-07
1.87933e-06 3.81945e-07 -1.55579e-05
0.000596145 8.23305e-05 -1.61097e-07
8.23305e-05 -8.11891e-05 4.66599e-07
-1.61097e-07 4.66599e-07 -0.000201658
0.00128161 0.000127336 -1.70434e-06
0.000127336 0.000173234 5.16641e-07
-1.70434e-06 5.16641e-07 4.59792e-05
0.000852058 -1.78298e-05 -2.00484e-07
-1.78298e-05 2.49139e-05 1.01545e-07
-2.00484e-07 1.01545e-07 -2.49162e-05
0.000842315 -4.76123e-07 7.36951e-08
-4.76123e-07 2.60761e-05 5.81665e-07
7.36951e-08 5.81665e-07 -4.28579e-05
0.00108209 0.000100969 5.85502e-08
0.000100969 0.00017969 -8.54488e-07
5.85502e-08 -8.54488e-07 7.065e-05
0.000874434 1.30241e-05 -1.74896e-07
1.30241e-05 5.39992e-05 -1.97344e-10
-1.74896e-07 -1.97344e-10 -3.4084e-05
0.000936347 6.579e-05 -9.97101e-07
6.579e-05 9.33489e-05 -9.70949e-07
-9.97101e-07 -9.70949e-07 -1.13394e-05
0.00179058 9.40532e-05 -1.47625e-06
9.40532e-05 0.00016605 -1.10894e-07
-1.47625e-06 -1.10894e-07 7.23328e-05
0.00164578 0.000148614 1.52585e-06
0.000148614 0.00026299 1.77028e-07
1.52585e-06 1.77028e-07 0.000144365
0.00083172 0.000113883 -7.5114e-07
0.000113883 -0.000248855 5.87175e-07
-7.5114e-07 5.87175e-07 -0.000340515
0.00126055 0.000117562 1.1951e-06
0.000117562 0.000253292 1.25172e-06
1.1951e-06 1.25172e-06 0.000122448
0.000651405 0.000107146 -1.42827e-06
0.000107146 -0.000152473 -7.88606e-07
-1.42827e-06 -7.88606e-07 -0.000296961
0.000791765 -1.16634e-05 3.42541e-07
-1.16634e-05 -3.49194e-06 1.24925e-06
3.42541e-07 1.24925e-06 -6.58623e-05
0.00077509 3.18527e-05 3.53937e-07
3.18527e-05 -3.77656e-07 2.51854e-07
3.53937e-07 2.51854e-07 -8.51283e-05
0.00105064 0.000100107 7.18375e-07
0.000100107 0.000164952 -5.01078e-07
7.18375e-07 -5.01078e-07 4.53637e-05
0.000610807 4.6266e-05 2.14336e-07
4.6266e-05 -7.9227e-05 5.40515e-07
2.14336e-07 5.40515e-07 -0.000184215
0.00206178 6.72251e-05 -1.50787e-06
6.72251e-05 0.000237417 5.88039e-07
-1.50787e-06 5.88039e-07 0.000152279
0.00146276 0.000112812 2.23651e-06
0.000112812 -4.5921e-05 3.84959e-07
2.23651e-06 3.84959e-07 -0.000127403
0.00139283 0.000150036 1.25426e-06
0.000150036 0.000114713 -3.65549e-06
1.25426e-06 -3.65549e-06 -1.95187e-05
0.000341993 8.09527e-05 2.28108e-07
8.09527e-05 -0.00023835 1.32163e-06
2.28108e-07 1.32163e-06 -0.00039679
0.000862668 3.26125e-06 -6.12511e-07
3.26125e-06 3.24632e-05 -5.16168e-07
-6.12511e-07 -5.16168e-07 -1.65963e-05
0.000870785 -6.73904e-06 -1.11047e-07
-6.73904e-06 3.97635e-05 3.81146e-07
-1.11047e-07 3.81146e-07 -2.05118e-05
0.000955698 -1.17385e-05 1.96221e-07
-1.17385e-05 8.73828e-05 6.83891e-07
1.96221e-07 6.83891e-07 2.00502e-05
0.000865301 -1.59705e-05 -6.65558e-07
-1.59705e-05 2.78823e-05 -7.89891e-07
-6.65558e-07 -7.89891e-07 -1.65834e-05
0.000760896 -3.16386e-05 1.5072e-07
-3.16386e-05 -1.83823e-05 -7.55854e-07
1.5072e-07 -7.55854e-07 -7.60249e-05
0.000875726 -1.1907e-05 7.04669e-08
-1.1907e-05 3.11041e-05 3.75739e-08
7.04669e-08 3.75739e-08 -1.26726e-05
0.000936218 1.55093e-05 -1.56013e-07
1.55093e-05 8.20285e-05 -3.29215e-07
-1.56013e-07 -3.29215e-07 1.49294e-05
0.000825453 -1.54681e-05 1.50934e-07
-1.54681e-05 1.95631e-05 2.98738e-07
1.50934e-07 2.98738e-07 -3.89696e-05
0.000968077 2.37711e-07 3.73124e-07
2.37711e-07 9.78363e-05 1.79996e-07
3.73124e-07 1.79996e-07 2.69494e-05
0.000816291 -3.38005e-05 -2.09634e-07
-3.38005e-05 1.70251e-05 6.25706e-07
-2.09634e-07 6.25706e-07 -4.82567e-05
0.00077309 1.4664e-05 3.74915e-07
1.4664e-05 -9.69535e-06 7.18768e-07
3.74915e-07 7.18768e-07 -6.70563e-05
0.000885954 1.46833e-06 2.61889e-07
1.46833e-06 3.53219e-05 7.11523e-07
2.61889e-07 7.11523e-07 -8.32984e-06
0.000831596 5.36478e-06 6.77778e-07
5.36478e-06 -1.27777e-06 1.53956e-06
6.77778e-07 1.53956e-06 -2.83343e-05
0.000838377 -5.51746e-06 -2.56975e-07
-5.51746e-06 2.09456e-06 6.47157e-09
-2.56975e-07 6.47157e-09 -2.43453e-05
0.00131154 -1.18871e-05 9.90688e-07
-1.18871e-05 0.000248085 1.87141e-06
9.90688e-07 1.87141e-06 0.000251205
0.00083313 -1.44436e-05 -3.19374e-07
-1.44436e-05 5.81617e-07 -1.70409e-06
-3.19374e-07 -1.70409e-06 -2.57619e-05
0.00132578 -1.6707e-05 -2.47043e-06
-1.6707e-05 0.000258443 -1.19132e-06
-2.47043e-06 -1.19132e-06 0.000261291
0.00100772 -1.47829e-05 1.13681e-05
-1.47829e-05 8.99139e-05 6.24075e-06
1.13681e-05 6.24075e-06 0.000106653
0.00133987 -2.15327e-05 -5.93416e-06
-2.15327e-05 0.000269899 -4.31565e-06
-5.93416e-06 -4.31565e-06 0.000272
0.000959273 -2.00793e-05 4.41486e-06
-2.00793e-05 6.81186e-05 2.36274e-06
4.41486e-06 2.36274e-06 8.41678e-05
0.000902253 -2.47064e-05 -2.29682e-06
-2.47064e-05 4.37643e-05 -1.60908e-06
-2.29682e-06 -1.60908e-06 5.81655e-05
0.00075177 2.36415e-05 1.19062e-06
2.36415e-05 -4.04243e-05 -3.34709e-06
1.19062e-06 -3.34709e-06 -4.50193e-05
0.000753901 2.75155e-05 -1.61432e-07
2.75155e-05 -3.39039e-05 1.93344e-08
-1.61432e-07 1.93344e-08 -4.08624e-05
0.00222132 4.05638e-05 2.04884e-05
4.05638e-05 0.000755083 -3.76001e-06
2.04884e-05 -3.76001e-06 0.000773013
0.000763466 3.12828e-05 -2.40497e-06
3.12828e-05 -2.3271e-05 3.40453e-06
-2.40497e-06 3.40453e-06 -3.2559e-05
0.00227913 4.68614e-05 -1.12896e-06
4.68614e-05 0.000793182 -7.95954e-08
-1.12896e-06 -7.95954e-08 0.000809173
0.00233587 5.24252e-05 -2.98913e-05
5.24252e-05 0.000831282 3.5075e-06
-2.98913e-05 3.5075e-06 0.000845307
0.00161236 6.8927e-05 1.3711e-06
6.8927e-05 8.73489e-05 1.5555e-06
1.3711e-06 1.5555e-06 -1.36195e-05
0.00162876 2.33297e-05 -4.80533e-08
2.33297e-05 6.59037e-05 -3.85598e-07
-4.80533e-08 -3.85598e-07 -3.65137e-05
0.00160889 3.88991e-05 1.82411e-06
3.88991e-05 5.02718e-05 -1.24862e-06
1.82411e-06 -1.24862e-06 -4.25814e-05
0.00167464 5.55795e-06 1.45167e-07
5.55795e-06 7.04846e-05 -1.57857e-06
1.45167e-07 -1.57857e-06 -3.30129e-05
0.0018233 6.64024e-06 1.40813e-07
6.64024e-06 0.00014425 -8.38056e-07
1.40813e-07 -8.38056e-07 3.00916e-05
0.00169066 2.67032e-06 -1.42807e-06
2.67032e-06 9.12365e-05 1.00018e-07
-1.42807e-06 1.00018e-07 -2.47898e-05
0.0017495 1.26076e-05 -1.2207e-07
1.26076e-05 9.85656e-05 -9.76117e-09
-1.2207e-07 -9.76117e-09 -1.62728e-05
0.00178023 2.39786e-06 3.86774e-07
2.39786e-06 0.000110162 -2.22993e-07
3.86774e-07 -2.22993e-07 1.11531e-06
0.0017191 1.93253e-05 4.67876e-07
1.93253e-05 8.75309e-05 -1.51313e-07
4.67876e-07 -1.51313e-07 -1.04126e-05
0.00169448 5.56796e-05 4.5442e-08
5.56796e-05 9.25366e-05 -1.49308e-07
4.5442e-08 -1.49308e-07 -7.18134e-07
0.00178438 7.27956e-06 -1.19616e-06
7.27956e-06 0.000105719 -1.4405e-07
-1.19616e-06 -1.4405e-07 -5.52504e-06
0.00185 1.61824e-06 -7.06253e-07
1.61824e-06 0.000128615 2.66796e-07
-7.06253e-07 2.66796e-07 2.98581e-05
0.00180342 3.7625e-05 1.19954e-07
3.7625e-05 0.000115496 9.46135e-07
1.19954e-07 9.46135e-07 2.27072e-05
0.00163628 3.9802e-06 -1.11143e-06
3.9802e-06 6.07578e-05 1.34564e-06
-1.11143e-06 1.34564e-06 -4.9778e-05
0.00175452 -1.09038e-05 -1.02769e-06
-1.09038e-05 0.000137875 3.81683e-07
-1.02769e-06 3.81683e-07 3.32532e-05
0.00190103 -5.00417e-05 -9.04627e-07
-5.00417e-05 0.000190821 4.80945e-07
-9.04627e-07 4.80945e-07 9.11952e-05
0.0011073 -9.9624e-05 -2.39947e-07
-9.9624e-05 0.000160927 -6.19759e-07
-2.39947e-07 -6.19759e-07 6.95291e-05
0.00119009 -0.000109298 3.54622e-07
-0.000109298 0.000200808 1.47027e-07
3.54622e-07 1.47027e-07 9.62971e-05
0.00114633 -0.000121155 -1.57913e-06
-0.000121155 0.000117938 1.79518e-06
-1.57913e-06 1.79518e-06 -1.81437e-05
0.00185104 -9.37962e-05 -3.18758e-07
-9.37962e-05 0.000196496 2.67519e-07
-3.18758e-07 2.67519e-07 9.61407e-05
0.00114663 -0.000110695 -3.43553e-06
-0.000110695 -9.22623e-05 1.80878e-06
-3.43553e-06 1.80878e-06 -0.00018647
0.00148579 -0.000132595 -1.81097e-06
-0.000132595 0.000188722 -2.99111e-06
-1.81097e-06 -2.99111e-06 6.59084e-05
0.00106751 -9.74742e-05 3.37052e-07
-9.74742e-05 0.000145788 -1.84082e-06
3.37052e-07 -1.84082e-06 5.37462e-05
0.000901313 -8.8112e-05 -1.46462e-06
-8.8112e-05 6.21307e-05 -2.20099e-06
-1.46462e-06 -2.20099e-06 -3.12178e-05
0.00103142 -7.56617e-05 3.80045e-07
-7.56617e-05 0.000138721 -7.9482e-08
3.80045e-07 -7.9482e-08 4.49369e-05
0.000582977 2.42083e-05 -9.86363e-07
2.42083e-05 -0.000124878 1.12391e-06
-9.86363e-07 1.12391e-06 -0.000160507
0.00103555 -1.41124e-05 3.86573e-08
-1.41124e-05 0.000126458 1.07179e-07
3.86573e-08 1.07179e-07 5.57154e-05
0.000746579 2.61608e-05 -1.66096e-07
2.61608e-05 -3.61375e-05 9.75436e-07
-1.66096e-07 9.75436e-07 -9.12071e-05
0.00177869 3.4308e-06 -4.70604e-08
3.4308e-06 0.000116757 -2.22174e-07
-4.70604e-08 -2.22174e-07 7.72856e-06
0.00172762 -1.3446e-05 7.90598e-07
-1.3446e-05 9.35301e-05 -1.50116e-07
7.90598e-07 -1.50116e-07 -6.58802e-06
0.00163531 -5.84018e-05 2.43626e-07
-5.84018e-05 3.81346e-05 -3.12782e-07
2.43626e-07 -3.12782e-07 -6.43489e-05
0.00103642 -9.80491e-05 -1.88875e-08
-9.80491e-05 0.000126964 6.67013e-07
-1.88875e-08 6.67013e-07 3.15719e-05
0.000794677 -9.6977e-05 -2.06063e-07
-9.6977e-05 -4.13786e-06 2.81566e-07
-2.06063e-07 2.81566e-07 -0.00012699
0.00164538 -0.000150087 -1.83873e-06
-0.000150087 0.000346941 1.20822e-06
-1.83873e-06 1.20822e-06 0.000199312
0.00186463 -0.000112552 -7.47863e-07
-0.000112552 0.000160046 5.42418e-07
-7.47863e-07 5.42418e-07 6.28283e-05
0.00150573 -0.000134692 2.00725e-06
-0.000134692 0.000112802 -1.19844e-06
2.00725e-06 -1.19844e-06 -3.46996e-06
0.000716587 1.91868e-05 1.64994e-07
1.91868e-05 -5.6324e-05 -5.66228e-07
1.64994e-07 -5.66228e-07 -8.90055e-05
0.000964046 1.0134e-05 -3.13661e-07
1.0134e-05 8.19458e-05 1.73577e-07
-3.13661e-07 1.73577e-07 2.94936e-05
0.000865382 -8.78355e-05 -8.50062e-07
-8.78355e-05 3.98198e-05 2.27022e-07
-8.50062e-07 2.27022e-07 -5.39415e-05
0.00100768 -9.09971e-05 1.16739e-06
-9.09971e-05 0.000116098 7.49865e-07
1.16739e-06 7.49865e-07 2.12817e-05
0.000928256 -2.99869e-05 -3.84639e-08
-2.99869e-05 7.62059e-05 -3.30829e-07
-3.84639e-08 -3.30829e-07 -7.44616e-06
0.00098444 -2.33078e-05 -5.44616e-07
-2.33078e-05 0.000100048 8.46406e-07
-5.44616e-07 8.46406e-07 3.19299e-05
0.00178726 2.2343e-06 -2.25572e-06
2.2343e-06 0.000105743 -2.25887e-07
-2.25572e-06 -2.25887e-07 3.71344e-06
0.0017597 -2.33883e-05 9.11281e-08
-2.33883e-05 8.7841e-05 5.0282e-07
9.11281e-08 5.0282e-07 -7.77958e-06
0.00180234 -8.07865e-05 4.38774e-07
-8.07865e-05 7.90132e-05 -1.74818e-06
4.38774e-07 -1.74818e-06 -1.69947e-05
0.00168713 -0.000135746 1.00096e-07
-0.000135746 6.60827e-05 -2.35644e-06
1.00096e-07 -2.35644e-06 -2.96778e-05
0.000700478 -8.35791e-05 -1.64664e-06
-8.35791e-05 -2.99735e-05 1.14306e-06
-1.64664e-06 1.14306e-06 -0.000132829
0.00143114 -0.00014699 -1.3126e-06
-0.00014699 0.000181971 3.46868e-06
-1.3126e-06 3.46868e-06 2.3769e-05
0.0016617 -0.000144263 4.40888e-07
-0.000144263 0.000429541 -2.15504e-06
4.40888e-07 -2.15504e-06 0.000287572
0.000838228 1.53929e-05 5.97707e-07
1.53929e-05 5.6295e-06 -1.65022e-06
5.97707e-07 -1.65022e-06 -2.39766e-05
0.000846927 -4.33885e-05 8.99794e-07
-4.33885e-05 2.65814e-05 -8.41317e-07
8.99794e-07 -8.41317e-07 -2.2431e-05
0.000739292 1.0371e-05 4.89794e-07
1.0371e-05 -3.43047e-05 -1.34542e-06
4.89794e-07 -1.34542e-06 -8.79521e-05
0.000939979 -2.86408e-05 8.99931e-07
-2.86408e-05 7.79312e-05 -1.16435e-07
8.99931e-07 -1.16435e-07 1.14437e-05
0.000939885 1.04591e-05 -1.06224e-07
1.04591e-05 7.86671e-05 -1.74625e-07
-1.06224e-07 -1.74625e-07 3.88527e-06
0.000817231 -8.78234e-05 2.20056e-06
-8.78234e-05 3.6807e-05 1.80124e-06
2.20056e-06 1.80124e-06 -6.35461e-05
0.000814724 -8.48536e-05 -2.29813e-06
-8.48536e-05 -5.6707e-06 2.35482e-06
-2.29813e-06 2.35482e-06 -9.25083e-05
0.00179011 -0.000135181 -1.71338e-06
-0.000135181 0.000540883 2.87628e-06
-1.71338e-06 2.87628e-06 0.000442981
0.000860694 -2.66343e-05 -4.43312e-07
-2.66343e-05 2.92397e-05 -1.05307e-06
-4.43312e-07 -1.05307e-06 -2.06329e-05
0.000894229 7.09708e-06 -4.00851e-07
7.09708e-06 5.34668e-05 -1.34481e-07
-4.00851e-07 -1.34481e-07 -1.53658e-05
0.00193112 9.57351e-05 8.86676e-07
9.57351e-05 0.000236099 2.71079e-07
8.86676e-07 2.71079e-07 0.000141329
0.000922507 1.97351e-05 -5.12939e-07
1.97351e-05 8.02081e-05 -4.58275e-07
-5.12939e-07 -4.58275e-07 -8.18901e-06
0.00104361 9.8967e-05 -6.72672e-07
9.8967e-05 0.000162475 -2.19237e-06
-6.72672e-07 -2.19237e-06 5.45474e-05
0.000852932 6.05339e-05 -1.35108e-06
6.05339e-05 5.31803e-05 -5.676e-07
-1.35108e-06 -5.676e-07 -5.17652e-05
0.00160549 0.000146106 4.42101e-07
0.000146106 0.000235421 2.79024e-07
4.42101e-07 2.79024e-07 0.000118269
0.00143397 0.000133985 2.52312e-06
0.000133985 7.35116e-05 3.31314e-06
2.52312e-06 3.31314e-06 -1.12696e-05
0.000872664 9.93755e-05 2.31601e-07
9.93755e-05 5.43724e-05 1.00695e-06
2.31601e-07 1.00695e-06 -7.58543e-05
0.00110993 0.000129195 -3.9513e-06
0.000129195 8.07359e-05 -1.27976e-06
-3.9513e-06 -1.27976e-06 -7.00823e-05
0.000795894 6.59698e-07 2.05421e-07
6.59698e-07 5.62043e-07 4.71265e-07
2.05421e-07 4.71265e-07 -6.3775e-05
0.000835119 3.98455e-05 -1.28675e-07
3.98455e-05 3.24207e-05 -8.23234e-07
-1.28675e-07 -8.23234e-07 -5.259e-05
0.0010691 0.000101253 -6.92145e-07
0.000101253 0.000176797 -1.04184e-06
-6.92145e-07 -1.04184e-06 5.76711e-05
0.000855626 5.66992e-05 -3.19724e-07
5.66992e-05 4.82921e-05 -1.96049e-07
-3.19724e-07 -1.96049e-07 -5.68947e-05
0.00201758 6.3859e-05 -4.57343e-09
6.3859e-05 0.000210511 6.40513e-07
-4.57343e-09 6.40513e-07 0.0001241
0.00146245 0.000113038 2.05556e-06
0.000113038 -3.14335e-05 -1.41372e-06
2.05556e-06 -1.41372e-06 -0.000113804
0.00190568 0.000168528 -2.81744e-06
0.000168528 0.000373339 -2.62154e-07
-2.81744e-06 -2.62154e-07 0.000242026
0.000687197 0.000100477 1.08965e-06
0.000100477 -7.20047e-05 4.1594e-07
1.08965e-06 4.1594e-07 -0.000228949
0.00094211 9.35657e-07 3.36717e-07
9.35657e-07 8.04525e-05 4.25465e-07
3.36717e-07 4.25465e-07 8.65092e-06
0.00162385 3.30619e-05 -2.9297e-06
3.30619e-05 2.34853e-06 -1.47226e-07
-2.9297e-06 -1.47226e-07 -7.84999e-05
0.00114485 8.79055e-05 2.65533e-07
8.79055e-05 0.000209649 1.59861e-06
2.65533e-07 1.59861e-06 0.000107454
0.00107748 0.000104603 4.26447e-07
0.000104603 0.00015906 9.71546e-07
4.26447e-07 9.71546e-07 3.16669e-05
0.0021562 9.07599e-05 -2.96259e-08
9.07599e-05 0.00021681 8.01247e-08
-2.96259e-08 8.01247e-08 0.000144936
0.00164942 0.000165274 3.31911e-06
0.000165274 8.69267e-05 -3.6611e-06
3.31911e-06 -3.6611e-06 -2.54594e-05
0.00165649 0.000154914 -3.47779e-07
0.000154914 0.000369222 2.10191e-06
-3.47779e-07 2.10191e-06 0.000196962
0.000956857 -2.32121e-06 -1.14656e-06
-2.32121e-06 8.43276e-05 -3.31567e-07
-1.14656e-06 -3.31567e-07 2.50677e-05
0.000950105 -1.20764e-05 -6.20382e-08
-1.20764e-05 8.43477e-05 3.96841e-08
-6.20382e-08 3.96841e-08 1.69944e-05
0.000947788 -5.97589e-06 3.36546e-07
-5.97589e-06 8.7773e-05 8.44768e-07
3.36546e-07 8.44768e-07 1.27673e-05
0.000868456 -1.64269e-05 -2.02617e-07
-1.64269e-05 2.79988e-05 -7.88941e-07
-2.02617e-07 -7.88941e-07 -1.62285e-05
0.000864796 -7.53432e-06 3.62757e-08
-7.53432e-06 4.09955e-05 6.30538e-08
3.62757e-08 6.30538e-08 -1.77983e-05
0.000851539 3.89974e-06 -3.1962e-07
3.89974e-06 3.77936e-05 -8.5326e-07
-3.1962e-07 -8.5326e-07 -3.04764e-05
0.000877595 -1.77526e-05 -1.39857e-07
-1.77526e-05 3.24927e-05 2.03288e-08
-1.39857e-07 2.03288e-08 -1.22401e-05
0.000794019 -1.71252e-05 -4.79762e-07
-1.71252e-05 9.37572e-07 3.36426e-07
-4.79762e-07 3.36426e-07 -5.62835e-05
0.000938532 -1.60501e-05 2.64962e-07
-1.60501e-05 8.13466e-05 -3.80741e-07
2.64962e-07 -3.80741e-07 9.8676e-06
0.000909815 3.67766e-06 9.78246e-08
3.67766e-06 6.89619e-05 4.82687e-07
9.78246e-08 4.82687e-07 2.70101e-06
0.000928001 -8.84803e-07 5.0021e-07
-8.84803e-07 7.55813e-05 -3.06289e-07
5.0021e-07 -3.06289e-07 -4.36215e-08
0.000837698 -3.24426e-05 7.21488e-08
-3.24426e-05 2.8003e-05 4.85699e-07
7.21488e-08 4.85699e-07 -4.30294e-05
0.000945263 1.09808e-05 3.76604e-07
1.09808e-05 8.47446e-05 1.15101e-07
3.76604e-07 1.15101e-07 2.13662e-05
0.000883473 7.58888e-06 1.07827e-06
7.58888e-06 4.78189e-05 4.53681e-07
1.07827e-06 4.53681e-07 -1.03477e-05
0.000883013 2.7614e-06 3.51283e-07
2.7614e-06 3.39119e-05 6.5888e-07
3.51283e-07 6.5888e-07 -1.04051e-05
0.000828854 9.2407e-06 4.2351e-07
9.2407e-06 -1.68996e-06 1.50145e-06
4.2351e-07 1.50145e-06 -2.95032e-05
0.000835116 -1.47541e-06 -1.61243e-07
-1.47541e-06 6.80957e-07 7.78929e-10
-1.61243e-07 7.78929e-10 -2.64035e-05
0.00131562 -5.81209e-06 7.53296e-07
-5.81209e-06 0.000248864 1.8283e-06
7.53296e-07 1.8283e-06 0.000251808
0.000841193 -1.20859e-05 -2.54866e-07
-1.20859e-05 3.71246e-06 -1.59589e-06
-2.54866e-07 -1.59589e-06 -2.28012e-05
0.00133386 -1.07563e-05 -1.81712e-06
-1.07563e-05 0.000260299 -1.21597e-06
-1.81712e-06 -1.21597e-06 0.000263269
0.00101407 -1.02274e-05 8.39208e-06
-1.02274e-05 9.06999e-05 6.34151e-06
8.39208e-06 6.34151e-06 0.000107621
0.00134824 -1.58157e-05 -4.40961e-06
-1.58157e-05 0.000270445 -4.27319e-06
-4.40961e-06 -4.27319e-06 0.000273184
0.000969539 -1.53876e-05 3.1147e-06
-1.53876e-05 6.90854e-05 2.39335e-06
3.1147e-06 2.39335e-06 8.59145e-05
0.00091276 -2.017e-05 -1.69405e-06
-2.017e-05 4.32557e-05 -1.57611e-06
-1.69405e-06 -1.57611e-06 5.93733e-05
0.000832132 1.14747e-05 2.96535e-07
1.14747e-05 5.2879e-08 -1.59731e-06
2.96535e-07 -1.59731e-06 -2.72825e-05
0.000763697 1.92349e-05 9.58914e-07
1.92349e-05 -3.94256e-05 -3.24328e-06
9.58914e-07 -3.24328e-06 -4.18273e-05
0.000767299 2.39511e-05 -1.32926e-07
2.39511e-05 -3.23424e-05 2.40035e-08
-1.32926e-07 2.40035e-08 -3.70157e-05
0.002164 3.38634e-05 1.69857e-05
3.38634e-05 0.000718771 -3.82062e-06
1.69857e-05 -3.82062e-06 0.000738408
0.000770282 2.784e-05 -1.96398e-06
2.784e-05 -2.52463e-05 3.37402e-06
-1.96398e-06 3.37402e-06 -3.22937e-05
0.00222817 4.06373e-05 -1.35784e-06
4.06373e-05 0.000759584 -7.36358e-08
-1.35784e-06 -7.36358e-08 0.000777325
0.00228331 4.66717e-05 -2.62295e-05
4.66717e-05 0.000796303 3.66539e-06
-2.62295e-05 3.66539e-06 0.000812146
0.00156281 5.09214e-05 6.83729e-07
5.09214e-05 2.39991e-05 -3.3272e-07
6.83729e-07 -3.3272e-07 -6.89565e-05
0.00171016 1.98099e-05 4.64115e-07
1.98099e-05 8.26043e-05 -8.01028e-07
4.64115e-07 -8.01028e-07 -1.516e-05
0.00180303 2.40562e-06 7.79808e-07
2.40562e-06 0.000122877 -8.95219e-07
7.79808e-07 -8.95219e-07 1.40898e-05
0.00172844 1.38954e-05 5.72249e-08
1.38954e-05 9.08114e-05 1.56432e-07
5.72249e-08 1.56432e-07 -2.34404e-05
0.00179195 7.43938e-06 -1.22782e-07
7.43938e-06 0.000108573 1.09999e-07
-1.22782e-07 1.09999e-07 -2.41839e-06
0.00183233 2.16404e-06 2.10581e-07
2.16404e-06 0.000117838 -5.55707e-08
2.10581e-07 -5.55707e-08 1.82659e-05
0.00175081 3.83572e-05 2.80667e-07
3.83572e-05 8.84468e-05 3.16178e-07
2.80667e-07 3.16178e-07 -4.05721e-06
0.0017887 -1.21844e-06 -1.74511e-06
-1.21844e-06 9.71929e-05 2.13284e-07
-1.74511e-06 2.13284e-07 -4.4107e-06
0.0019188 1.43321e-05 -2.74593e-06
1.43321e-05 0.000155814 2.15961e-07
-2.74593e-06 2.15961e-07 6.54438e-05
0.00171432 1.19613e-05 -1.54282e-06
1.19613e-05 3.51193e-05 3.85562e-07
-1.54282e-06 3.85562e-07 -3.96579e-05
0.0017978 4.76497e-06 4.79738e-07
4.76497e-06 0.000123841 8.3082e-07
4.79738e-07 8.3082e-07 1.41123e-05
0.00170585 -1.55175e-05 2.55169e-08
-1.55175e-05 8.3837e-05 -2.20475e-07
2.55169e-08 -2.20475e-07 -1.65298e-05
0.00185861 -6.07992e-05 -1.24576e-06
-6.07992e-05 0.000151453 -1.68479e-07
-1.24576e-06 -1.68479e-07 4.86095e-05
0.00110971 -0.000101469 -3.0685e-08
-0.000101469 0.000163137 2.56186e-07
-3.0685e-08 2.56186e-07 6.72491e-05
0.000873346 -9.9684e-05 5.86308e-07
-9.9684e-05 4.23401e-05 2.77759e-06
5.86308e-07 2.77759e-06 -7.77383e-05
0.00164554 -0.000149471 -2.21476e-06
-0.000149471 0.000342595 2.54455e-06
-2.21476e-06 2.54455e-06 0.000196105
0.0018856 -0.000114719 3.74248e-06
-0.000114719 0.00018111 2.28858e-06
3.74248e-06 2.28858e-06 8.50692e-05
0.00129436 -0.000127173 -1.70088e-06
-0.000127173 2.0599e-06 -1.89756e-06
-1.70088e-06 -1.89756e-06 -0.000113811
0.000662952 -7.8228e-05 -1.28368e-06
-7.8228e-05 -6.56026e-05 -1.01017e-06
-1.28368e-06 -1.01017e-06 -0.000158543
0.00110029 -9.48444e-05 2.72004e-06
-9.48444e-05 0.0001636 -3.00736e-06
2.72004e-06 -3.00736e-06 7.01824e-05
0.00087171 6.36983e-06 -4.43471e-08
6.36983e-06 4.17574e-05 -4.37418e-07
-4.43471e-08 -4.37418e-07 -3.87095e-05
0.000822375 1.88021e-05 -7.76191e-07
1.88021e-05 -5.97579e-07 1.09932e-06
-7.76191e-07 1.09932e-06 -3.21893e-05
0.000954572 2.51557e-05 -6.95257e-07
2.51557e-05 7.70644e-05 1.0573e-06
-6.95257e-07 1.0573e-06 2.46897e-05
0.000921448 -8.41027e-06 -5.63239e-07
-8.41027e-06 6.72589e-05 1.06501e-06
-5.63239e-07 1.06501e-06 -1.35959e-06
0.00179823 2.72218e-06 1.86241e-07
2.72218e-06 0.00011299 2.54356e-07
1.86241e-07 2.54356e-07 1.24689e-05
0.000836329 1.45152e-05 1.07753e-08
1.45152e-05 4.30802e-06 1.34816e-08
1.07753e-08 1.34816e-08 -2.52603e-05
0.000781115 -3.50533e-06 -3.03823e-07
-3.50533e-06 -1.24307e-05 7.35429e-08
-3.03823e-07 7.35429e-08 -5.91532e-05
0.00179543 -2.47795e-05 -1.98056e-07
-2.47795e-05 0.000105629 -3.94149e-07
-1.98056e-07 -3.94149e-07 9.45638e-06
0.00172394 -7.89639e-05 -2.56208e-07
-7.89639e-05 4.3783e-05 1.37355e-07
-2.56208e-07 1.37355e-07 -5.50534e-05
0.000757238 -8.56353e-05 8.65194e-08
-8.56353e-05 2.62574e-06 1.7699e-06
8.65194e-08 1.7699e-06 -9.86111e-05
0.00136295 -0.000129909 -7.69973e-07
-0.000129909 0.000275127 3.42025e-07
-7.69973e-07 3.42025e-07 0.00012843
0.00126947 -0.000138061 9.04876e-07
-0.000138061 9.19294e-05 8.83596e-07
9.04876e-07 8.83596e-07 -5.94347e-05
0.00174227 -0.000139033 5.72322e-07
-0.000139033 9.88151e-05 -2.69825e-07
5.72322e-07 -2.69825e-07 3.20591e-06
0.000919635 -1.41536e-05 1.00553e-06
-1.41536e-05 6.07431e-05 -4.97958e-07
1.00553e-06 -4.97958e-07 8.92467e-06
0.000922751 -1.51698e-05 -4.49695e-07
-1.51698e-05 7.02156e-05 4.33283e-07
-4.49695e-07 4.33283e-07 2.94612e-06
0.000924005 -8.88879e-05 4.7739e-07
-8.88879e-05 4.7138e-05 4.72758e-07
4.7739e-07 4.72758e-07 -4.21842e-05
0.00126649 -0.000110047 1.10408e-06
-0.000110047 0.000266089 -1.20913e-06
1.10408e-06 -1.20913e-06 0.000176435
0.000782764 -6.18764e-05 -1.30085e-07
-6.18764e-05 1.60946e-05 3.12778e-07
-1.30085e-07 3.12778e-07 -8.32039e-05
0.000933643 5.85235e-06 6.30445e-08
5.85235e-06 7.65172e-05 -2.5741e-07
6.30445e-08 -2.5741e-07 5.37376e-07
0.00178278 -1.72713e-06 -2.80273e-06
-1.72713e-06 8.28797e-05 -1.37749e-07
-2.80273e-06 -1.37749e-07 -4.3416e-06
0.00207031 -2.79646e-05 9.17992e-07
-2.79646e-05 0.000223246 1.53832e-06
9.17992e-07 1.53832e-06 0.000127915
0.00172059 -0.000121691 -3.29832e-06
-0.000121691 -1.32389e-05 -4.10316e-06
-3.29832e-06 -4.10316e-06 -9.19038e-05
0.00123679 -0.000145632 -9.86507e-07
-0.000145632 -6.52203e-05 1.67429e-06
-9.86507e-07 1.67429e-06 -0.000181614
0.00108736 -8.76335e-05 -2.57074e-06
-8.76335e-05 0.000165655 -4.5899e-07
-2.57074e-06 -4.5899e-07 6.1207e-05
0.00175639 -0.000164627 -2.50022e-06
-0.000164627 0.000443098 -8.5516e-08
-2.50022e-06 -8.5516e-08 0.000266197
0.000699244 3.60985e-05 -1.032e-06
3.60985e-05 -5.4654e-05 -1.23905e-06
-1.032e-06 -1.23905e-06 -0.000100758
0.000849573 -1.75959e-05 5.04832e-07
-1.75959e-05 2.24508e-05 -9.28067e-07
5.04832e-07 -9.28067e-07 -2.57391e-05
0.00105161 -2.99672e-05 5.21364e-07
-2.99672e-05 0.000144861 -3.09567e-07
5.21364e-07 -3.09567e-07 8.43557e-05
0.000775074 1.71719e-05 -6.25585e-07
1.71719e-05 -4.30933e-06 -5.00334e-07
-6.25585e-07 -5.00334e-07 -7.31308e-05
0.00106528 -4.5497e-06 1.96291e-07
-4.5497e-06 0.000148027 3.99736e-08
1.96291e-07 3.99736e-08 7.49618e-05
0.000660901 -1.26454e-05 1.87623e-07
-1.26454e-05 -5.10504e-05 5.61465e-07
1.87623e-07 5.61465e-07 -0.000138709
0.0011901 -7.14769e-05 4.95502e-06
-7.14769e-05 0.000246941 3.07697e-07
4.95502e-06 3.07697e-07 0.000137231
0.000809137 -9.23739e-05 -6.68526e-06
-9.23739e-05 9.93793e-06 2.75052e-06
-6.68526e-06 2.75052e-06 -7.40916e-05
0.00079225 1.38993e-05 -3.78476e-07
1.38993e-05 3.68056e-07 -2.95146e-07
-3.78476e-07 -2.95146e-07 -6.5904e-05
0.000890798 4.41066e-05 -1.46128e-06
4.41066e-05 6.25561e-05 -1.62654e-06
-1.46128e-06 -1.62654e-06 -2.24738e-05
0.00196123 6.09138e-05 1.31704e-06
6.09138e-05 0.000176901 -2.84284e-08
1.31704e-06 -2.84284e-08 8.92107e-05
0.00153284 0.000114887 2.64841e-07
0.000114887 1.8967e-05 7.72717e-07
2.64841e-07 7.72717e-07 -6.42664e-05
0.00110573 6.11287e-05 -1.67681e-06
6.11287e-05 0.000177502 -8.82648e-07
-1.67681e-06 -8.82648e-07 7.26615e-05
0.00109434 0.00010255 -1.84878e-06
0.00010255 0.000191578 -1.66444e-06
-1.84878e-06 -1.66444e-06 7.31594e-05
0.00246082 0.00018856 -1.35839e-06
0.00018856 0.000654935 1.81634e-06
-1.35839e-06 1.81634e-06 0.000526296
0.00106896 0.000121348 -1.4053e-06
0.000121348 0.000114459 -7.69169e-07
-1.4053e-06 -7.69169e-07 -4.15875e-05
0.000926596 1.59331e-05 1.23208e-07
1.59331e-05 7.51185e-05 -5.09314e-07
1.23208e-07 -5.09314e-07 1.657e-06
0.00175747 3.18318e-05 -3.60015e-07
3.18318e-05 6.94129e-05 1.7884e-08
-3.60015e-07 1.7884e-08 -1.07935e-05
0.000984443 7.10563e-05 9.66875e-08
7.10563e-05 0.000122885 8.02149e-07
9.66875e-08 8.02149e-07 2.31688e-05
0.000892445 9.46525e-05 5.24027e-08
9.46525e-05 6.48498e-05 -1.62609e-07
5.24027e-08 -1.62609e-07 -6.44991e-05
0.00189084 8.68714e-05 1.22854e-06
8.68714e-05 8.58707e-05 -2.21746e-07
1.22854e-06 -2.21746e-07 1.36914e-05
0.0019335 0.000174245 6.41638e-07
0.000174245 0.000222758 -4.54797e-07
6.41638e-07 -4.54797e-07 0.000111441
0.00171483 0.000158899 5.64359e-07
0.000158899 0.000408342 1.04418e-06
5.64359e-07 1.04418e-06 0.000237022
0.00102521 3.0654e-05 -1.37152e-07
3.0654e-05 0.000136567 7.89733e-07
-1.37152e-07 7.89733e-07 4.94449e-05
0.00214876 5.05375e-05 -4.75765e-06
5.05375e-05 0.000223279 -6.98522e-07
-4.75765e-06 -6.98522e-07 0.000162571
0.00158712 0.000109123 -1.58054e-06
0.000109123 0.000424134 1.95695e-07
-1.58054e-06 1.95695e-07 0.000312727
0.00183957 0.000151122 -2.28375e-06
0.000151122 0.0005379 8.47044e-07
-2.28375e-06 8.47044e-07 0.000386878
0.00190469 0.000164237 2.54592e-06
0.000164237 5.96759e-05 -1.04767e-06
2.54592e-06 -1.04767e-06 -3.56554e-06
0.0012126 0.000147074 -1.57538e-06
0.000147074 4.13734e-05 -5.78494e-08
-1.57538e-06 -5.78494e-08 -0.000116297
0.000698867 6.58513e-05 1.19583e-05
6.58513e-05 -0.000263703 1.43227e-06
1.19583e-05 1.43227e-06 -0.000358412
0.000950442 -6.94954e-06 -2.24783e-07
-6.94954e-06 8.44707e-05 -6.49821e-07
-2.24783e-07 -6.49821e-07 1.70434e-05
0.000947437 -2.76175e-06 7.33675e-08
-2.76175e-06 8.77862e-05 7.56791e-09
7.33675e-08 7.56791e-09 1.2681e-05
0.000961218 1.08987e-05 2.50554e-07
1.08987e-05 9.18331e-05 -8.06005e-08
2.50554e-07 -8.06005e-08 1.13784e-05
0.000868308 -2.98806e-05 -5.93905e-08
-2.98806e-05 2.87119e-05 -7.57241e-07
-5.93905e-08 -7.57241e-07 -1.67811e-05
0.000806893 -4.23522e-05 -5.49335e-07
-4.23522e-05 8.11998e-06 -1.66911e-08
-5.49335e-07 -1.66911e-08 -4.93986e-05
0.000989104 4.3181e-05 -8.09827e-07
4.3181e-05 0.000113922 1.0623e-07
-8.09827e-07 1.0623e-07 4.64483e-05
0.000918451 -1.85137e-05 4.69352e-08
-1.85137e-05 7.04206e-05 -6.99317e-07
4.69352e-08 -6.99317e-07 -2.09481e-06
0.000867269 -1.78295e-05 -1.79693e-07
-1.78295e-05 2.88647e-05 3.65208e-08
-1.79693e-07 3.65208e-08 -1.7601e-05
0.000822545 -1.70121e-06 1.41535e-07
-1.70121e-06 1.14959e-05 -2.46933e-08
1.41535e-07 -2.46933e-08 -4.4326e-05
0.000921809 -4.27979e-06 3.10716e-07
-4.27979e-06 7.21786e-05 -5.71858e-07
3.10716e-07 -5.71858e-07 -3.74662e-06
0.000945998 -1.43455e-05 -1.68538e-07
-1.43455e-05 8.40981e-05 -1.02682e-07
-1.68538e-07 -1.02682e-07 2.09595e-05
0.000927261 -2.43934e-05 1.80953e-07
-2.43934e-05 7.55885e-05 -1.82885e-08
1.80953e-07 -1.82885e-08 5.20812e-06
0.000909389 -9.47449e-06 -5.65133e-08
-9.47449e-06 6.45168e-05 -3.20644e-08
-5.65133e-08 -3.20644e-08 -1.05173e-05
0.000927336 -1.11876e-06 4.84418e-07
-1.11876e-06 7.45559e-05 -2.50713e-07
4.84418e-07 -2.50713e-07 8.62378e-06
0.00098108 4.32078e-06 6.19504e-07
4.32078e-06 9.73008e-05 -1.84927e-07
6.19504e-07 -1.84927e-07 3.58568e-05
0.00083199 1.00673e-05 -5.08816e-08
1.00673e-05 1.64215e-05 4.37209e-07
-5.08816e-08 4.37209e-07 -4.32178e-05
0.000751699 2.92476e-06 2.60332e-07
2.92476e-06 -3.62344e-05 1.09894e-06
2.60332e-07 1.09894e-06 -8.22992e-05
0.00101191 -4.29869e-06 3.05421e-07
-4.29869e-06 0.000120276 -2.47792e-08
3.05421e-07 -2.47792e-08 5.87552e-05
0.000737727 5.23475e-06 -4.06293e-07
5.23475e-06 -4.12495e-05 1.13278e-06
-4.06293e-07 1.13278e-06 -8.83203e-05
0.000829732 1.19091e-05 2.59237e-07
1.19091e-05 -6.55623e-07 1.5022e-06
2.59237e-07 1.5022e-06 -2.88439e-05
0.000828764 1.71553e-06 -2.22292e-07
1.71553e-06 -1.76684e-06 4.2697e-09
-2.22292e-07 4.2697e-09 -2.95394e-05
0.000777757 5.31046e-07 2.66246e-07
5.31046e-07 -3.98128e-05 3.04502e-06
2.66246e-07 3.04502e-06 -4.0259e-05
0.000838643 -8.53898e-06 4.02563e-08
-8.53898e-06 2.64666e-06 -1.51105e-06
4.02563e-08 -1.51105e-06 -2.44673e-05
0.00106217 -4.58529e-06 -1.14484e-06
-4.58529e-06 0.000113065 -1.26164e-06
-1.14484e-06 -1.26164e-06 0.000114406
0.00210087 -7.07433e-06 5.143e-06
-7.07433e-06 0.000672227 3.97566e-06
5.143e-06 3.97566e-06 0.000695127
0.00135815 -1.00323e-05 -2.75214e-06
-1.00323e-05 0.000273536 -4.27591e-06
-2.75214e-06 -4.27591e-06 0.000276314
0.000978963 -1.05134e-05 1.69166e-06
-1.05134e-05 7.11798e-05 2.43547e-06
1.69166e-06 2.43547e-06 8.82928e-05
0.000927725 -1.51869e-05 -1.20637e-06
-1.51869e-05 4.64071e-05 -1.54623e-06
-1.20637e-06 -1.54623e-06 6.34327e-05
0.000839457 7.77605e-06 2.07559e-07
7.77605e-06 2.43906e-06 -1.56209e-06
2.07559e-07 -1.56209e-06 -2.31426e-05
0.000838708 1.08293e-05 -3.71132e-08
1.08293e-05 3.25596e-06 1.34099e-08
-3.71132e-08 1.34099e-08 -2.40981e-05
0.000771842 1.45663e-05 5.29153e-07
1.45663e-05 -3.92471e-05 -3.18565e-06
5.29153e-07 -3.18565e-06 -3.98853e-05
0.00106104 2.15358e-05 -4.8799e-07
2.15358e-05 0.000120069 3.24479e-08
-4.8799e-07 3.24479e-08 0.000119001
0.00212151 2.69225e-05 1.39381e-05
2.69225e-05 0.00069112 -3.89278e-06
1.39381e-05 -3.89278e-06 0.000712217
0.000781116 2.42517e-05 -1.42901e-06
2.42517e-05 -2.51582e-05 3.33012e-06
-1.42901e-06 3.33012e-06 -2.99062e-05
0.00217555 3.41405e-05 -1.4355e-06
3.41405e-05 0.000725676 -6.60682e-08
-1.4355e-06 -6.60682e-08 0.000745089
0.0022411 4.06825e-05 -2.26965e-05
4.06825e-05 0.000767326 3.78443e-06
-2.26965e-05 3.78443e-06 0.000784861
0.00169172 3.91403e-05 -5.15381e-07
3.91403e-05 5.78933e-05 -9.67576e-08
-5.15381e-07 -9.67576e-08 -3.42876e-05
0.00181084 3.36962e-06 1.33399e-06
3.36962e-06 0.000104837 -4.79364e-07
1.33399e-06 -4.79364e-07 4.46629e-06
0.00180723 3.7409e-06 9.19186e-07
3.7409e-06 0.000115542 2.09882e-07
9.19186e-07 2.09882e-07 4.77742e-06
0.00179731 1.68854e-06 1.8781e-07
1.68854e-06 0.000100754 1.2817e-07
1.8781e-07 1.2817e-07 -9.52163e-07
0.00182399 1.40951e-05 -1.11072e-07
1.40951e-05 0.000107183 1.49887e-07
-1.11072e-07 1.49887e-07 1.63227e-05
0.00177829 8.85058e-06 1.91347e-06
8.85058e-06 8.22087e-05 4.6534e-08
1.91347e-06 4.6534e-08 7.19957e-06
0.0017257 8.36697e-06 -2.32784e-06
8.36697e-06 4.99475e-05 -1.6156e-07
-2.32784e-06 -1.6156e-07 -3.36195e-05
0.00375223 -7.10369e-05 5.01725e-06
-7.10369e-05 0.000974137 -1.35866e-07
5.01725e-06 -1.35866e-07 0.000928703
0.0014315 1.13223e-05 -2.79381e-06
1.13223e-05 -0.00014345 6.60097e-08
-2.79381e-06 6.60097e-08 -0.000202073
0.000871966 1.9118e-05 9.24981e-08
1.9118e-05 3.35121e-05 -6.68954e-07
9.24981e-08 -6.68954e-07 -8.58039e-06
0.00180802 3.12182e-06 1.63777e-06
3.12182e-06 0.000119712 2.03705e-07
1.63777e-06 2.03705e-07 2.06738e-05
0.0018006 -2.58453e-05 -1.00826e-06
-2.58453e-05 0.000107486 -8.09625e-07
-1.00826e-06 -8.09625e-07 1.08352e-05
0.00167558 -7.71148e-05 1.76399e-06
-7.71148e-05 2.39192e-05 1.01649e-06
1.76399e-06 1.01649e-06 -7.71211e-05
0.000844382 -8.90885e-05 1.67576e-06
-8.90885e-05 5.10108e-05 9.19666e-07
1.67576e-06 9.19666e-07 -4.8731e-05
0.00115236 -0.000119384 8.96246e-07
-0.000119384 0.000168354 2.85553e-06
8.96246e-07 2.85553e-06 1.46144e-05
0.00120895 -0.000134134 1.90798e-06
-0.000134134 5.64476e-05 -1.3406e-06
1.90798e-06 -1.3406e-06 -9.00857e-05
0.00189767 -0.000145317 1.51546e-06
-0.000145317 0.000182705 -5.8633e-07
1.51546e-06 -5.8633e-07 8.68601e-05
0.00104885 -9.15395e-05 3.9221e-06
-9.15395e-05 0.000108197 -3.33784e-06
3.9221e-06 -3.33784e-06 1.66192e-05
0.000675209 -8.23689e-05 -2.10553e-06
-8.23689e-05 -4.35955e-05 -7.4191e-06
-2.10553e-06 -7.4191e-06 -0.000124696
0.000703622 -5.64712e-05 1.71772e-07
-5.64712e-05 -2.53288e-05 3.80426e-07
1.71772e-07 3.80426e-07 -0.000125208
0.000837371 1.38514e-05 -7.41939e-07
1.38514e-05 4.64063e-06 1.69843e-06
-7.41939e-07 1.69843e-06 -2.49164e-05
0.000940362 -4.53712e-06 -6.6017e-08
-4.53712e-06 8.07015e-05 -5.22404e-07
-6.6017e-08 -5.22404e-07 3.64435e-06
0.00109606 -3.70799e-05 -4.64379e-07
-3.70799e-05 0.000156808 4.0166e-07
-4.64379e-07 4.0166e-07 0.000104853
0.000914641 -7.12034e-06 -6.03604e-07
-7.12034e-06 6.61319e-05 1.02088e-06
-6.03604e-07 1.02088e-06 -1.20051e-06
0.00070995 2.98326e-06 1.48671e-07
2.98326e-06 -5.2773e-05 7.91452e-07
1.48671e-07 7.91452e-07 -9.82126e-05
0.00179581 -1.97634e-06 -6.06159e-07
-1.97634e-06 9.12376e-05 -2.10131e-07
-6.06159e-07 -2.10131e-07 4.7294e-06
0.000783605 1.34903e-05 1.97149e-07
1.34903e-05 -9.9979e-06 -5.05649e-07
1.97149e-07 -5.05649e-07 -5.5557e-05
0.000856658 -2.6784e-05 -4.38465e-07
-2.6784e-05 2.88913e-05 2.59749e-08
-4.38465e-07 2.59749e-08 -2.12731e-05
0.000897025 -1.05939e-05 -7.12103e-07
-1.05939e-05 6.34111e-05 4.78425e-07
-7.12103e-07 4.78425e-07 1.24038e-06
0.00181461 -2.8922e-05 1.31868e-06
-2.8922e-05 8.26736e-05 -1.9927e-07
1.31868e-06 -1.9927e-07 -1.14874e-05
0.00185174 -0.000124248 -1.63515e-06
-0.000124248 6.83422e-05 2.85844e-07
-1.63515e-06 2.85844e-07 -1.27756e-05
0.000894763 -8.51308e-05 -4.78904e-07
-8.51308e-05 5.39604e-05 2.87705e-07
-4.78904e-07 2.87705e-07 -4.68676e-05
0.00112589 -0.000132114 1.75264e-07
-0.000132114 0.000136978 -6.36534e-07
1.75264e-07 -6.36534e-07 -4.42666e-05
0.00150721 -0.000157462 2.9647e-07
-0.000157462 7.17578e-05 4.03219e-07
2.9647e-07 4.03219e-07 -4.63719e-05
0.000876261 8.25424e-06 -1.65862e-07
8.25424e-06 4.99443e-05 1.16459e-08
-1.65862e-07 1.16459e-08 -1.85259e-05
0.000987994 -2.17928e-05 -1.34956e-07
-2.17928e-05 0.000110304 3.76322e-08
-1.34956e-07 3.76322e-08 3.51218e-05
0.000766353 -9.16627e-05 -4.10424e-06
-9.16627e-05 -7.26675e-06 9.24649e-07
-4.10424e-06 9.24649e-07 -9.55814e-05
0.00106537 -5.37331e-05 5.28842e-07
-5.37331e-05 0.000178797 -5.48672e-07
5.28842e-07 -5.48672e-07 7.24673e-05
0.000851802 -2.68657e-05 6.28852e-08
-2.68657e-05 4.98032e-05 8.71143e-07
6.28852e-08 8.71143e-07 -3.81492e-05
0.00209365 -2.20754e-05 -2.55249e-06
-2.20754e-05 0.000204965 5.30656e-07
-2.55249e-06 5.30656e-07 0.000123932
0.00240311 -6.65188e-05 -5.65005e-07
-6.65188e-05 0.000325284 4.85239e-07
-5.65005e-07 4.85239e-07 0.000244162
0.00171976 -0.000167665 1.38509e-06
-0.000167665 3.18433e-05 -3.31855e-06
1.38509e-06 -3.31855e-06 -5.88168e-05
0.00172584 -0.000170586 -5.85824e-06
-0.000170586 0.000340859 6.80612e-07
-5.85824e-06 6.80612e-07 0.000191012
0.00101315 -9.77154e-05 -1.13815e-06
-9.77154e-05 0.000146867 -1.332e-06
-1.13815e-06 -1.332e-06 1.25505e-05
0.000721555 1.21416e-05 5.64492e-08
1.21416e-05 -3.11107e-05 -7.40072e-07
5.64492e-08 -7.40072e-07 -9.20331e-05
0.000820454 4.02687e-05 -1.17781e-07
4.02687e-05 2.31683e-05 -7.68466e-07
-1.17781e-07 -7.68466e-07 -4.30626e-05
0.00107642 1.44547e-05 5.67734e-07
1.44547e-05 0.000157835 4.80904e-07
5.67734e-07 4.80904e-07 8.85802e-05
0.00088284 -4.14121e-05 1.07365e-06
-4.14121e-05 5.90932e-05 3.62796e-08
1.07365e-06 3.62796e-08 -1.6363e-05
0.00103629 4.05787e-06 5.24665e-07
4.05787e-06 0.000134608 7.7321e-07
5.24665e-07 7.7321e-07 5.69892e-05
0.000866171 -1.44051e-05 -2.42688e-07
-1.44051e-05 6.52389e-05 -1.21612e-06
-2.42688e-07 -1.21612e-06 -2.96778e-05
0.00075614 -6.72561e-05 6.6075e-06
-6.72561e-05 3.53835e-05 1.36653e-06
6.6075e-06 1.36653e-06 -9.1636e-05
0.000909785 3.43592e-05 -4.58577e-07
3.43592e-05 6.95905e-05 -1.56467e-06
-4.58577e-07 -1.56467e-06 -5.76815e-06
0.000831123 5.53322e-05 -1.81088e-07
5.53322e-05 4.01318e-05 -1.39074e-07
-1.81088e-07 -1.39074e-07 -5.72399e-05
0.00196838 3.07898e-05 2.74255e-06
3.07898e-05 0.000174813 -1.72192e-07
2.74255e-06 -1.72192e-07 9.53933e-05
0.0016011 8.24674e-05 1.92344e-06
8.24674e-05 -5.67011e-05 -6.80813e-07
1.92344e-06 -6.80813e-07 -0.000128837
0.00218073 0.000181947 -2.05593e-07
0.000181947 0.000338783 7.53687e-07
-2.05593e-07 7.53687e-07 0.000228785
0.000702607 8.48189e-05 4.06637e-07
8.48189e-05 -3.18322e-05 -3.0934e-07
4.06637e-07 -3.0934e-07 -0.000163022
0.00174249 0.000161624 1.14357e-07
0.000161624 0.00043064 1.02003e-06
1.14357e-07 1.02003e-06 0.000261341
0.00102422 2.33694e-05 -9.4068e-08
2.33694e-05 0.000135222 5.4502e-08
-9.4068e-08 5.4502e-08 5.063e-05
0.00181894 4.71159e-05 -1.69671e-06
4.71159e-05 3.94147e-05 -4.11358e-07
-1.69671e-06 -4.11358e-07 -1.50368e-05
0.00121006 9.331e-05 -7.31439e-07
9.331e-05 0.00023249 2.86447e-07
-7.31439e-07 2.86447e-07 0.00012269
0.00135772 0.000125379 -6.7312e-07
0.000125379 0.000301137 6.31297e-07
-6.7312e-07 6.31297e-07 0.000151486
0.00182415 0.000153647 1.16415e-06
0.000153647 1.39547e-05 -6.68099e-07
1.16415e-06 -6.68099e-07 -4.85648e-05
0.00134956 0.000155702 -1.03178e-06
0.000155702 0.000117201 1.24504e-06
-1.03178e-06 1.24504e-06 -4.53163e-05
0.00180101 5.79995e-05 3.76077e-06
5.79995e-05 0.000101654 7.8407e-07
3.76077e-06 7.8407e-07 4.95935e-06
0.00107137 4.35089e-05 -5.20281e-07
4.35089e-05 0.000159108 -6.41813e-07
-5.20281e-07 -6.41813e-07 6.55683e-05
0.00237741 0.000109332 -4.11192e-06
0.000109332 0.000279702 -7.07298e-06
-4.11192e-06 -7.07298e-06 0.000277921
0.00121394 0.000111594 -2.51364e-06
0.000111594 0.000249559 -1.24565e-06
-2.51364e-06 -1.24565e-06 0.00013281
0.00109528 0.000119172 -3.67794e-06
0.000119172 0.000166921 -6.28995e-07
-3.67794e-06 -6.28995e-07 -1.20733e-05
0.000118561 0.000151813 -3.07044e-06
0.000151813 -0.000651546 -1.77437e-06
-3.07044e-06 -1.77437e-06 -0.000773842
0.00667172 -6.99235e-05 -3.97396e-05
-6.99235e-05 0.00218564 -1.10101e-05
-3.97396e-05 -1.10101e-05 0.00152741
0.00278364 5.88135e-07 7.29908e-05
5.88135e-07 2.96091e-05 4.076e-06
7.29908e-05 4.076e-06 -0.000419702
0.000822509 0.000153698 1.05132e-05
0.000153698 -0.000315253 1.68965e-05
1.05132e-05 1.68965e-05 -0.000327717
-0.00207994 -0.00029666 -1.34356e-05
-0.00029666 -0.000974198 -1.26305e-05
-1.34356e-05 -1.26305e-05 -0.000934563
0.00245337 -0.000452114 -2.58145e-05
-0.000452114 0.000122021 -4.5984e-06
-2.58145e-05 -4.5984e-06 0.00112275
0.000954228 -4.78499e-06 -2.02101e-07
-4.78499e-06 9.13856e-05 -8.14416e-07
-2.02101e-07 -8.14416e-07 1.62303e-05
0.000969638 4.86228e-06 1.96798e-07
4.86228e-06 9.75942e-05 -3.10772e-07
1.96798e-07 -3.10772e-07 1.78908e-05
0.00103656 3.34119e-05 -3.28711e-09
3.34119e-05 0.000130119 -4.73901e-07
-3.28711e-09 -4.73901e-07 4.96327e-05
0.000853184 -4.00733e-05 2.4342e-07
-4.00733e-05 2.44852e-05 -8.22794e-07
2.4342e-07 -8.22794e-07 -2.40145e-05
0.000753752 2.06395e-05 -5.91132e-07
2.06395e-05 -2.36626e-05 -4.07307e-07
-5.91132e-07 -4.07307e-07 -8.06416e-05
0.000948682 -3.65738e-05 -2.93571e-08
-3.65738e-05 8.45438e-05 -3.28695e-07
-2.93571e-08 -3.28695e-07 2.15932e-05
0.00101154 -1.48963e-05 -3.71275e-07
-1.48963e-05 0.000120063 -1.64678e-07
-3.71275e-07 -1.64678e-07 5.06321e-05
0.000894004 -8.87712e-06 3.62287e-07
-8.87712e-06 5.73707e-05 -1.13822e-06
3.62287e-07 -1.13822e-06 -1.88635e-05
0.000910296 1.8204e-05 -5.10097e-07
1.8204e-05 6.20631e-05 -3.11808e-07
-5.10097e-07 -3.11808e-07 -1.28052e-06
0.000802463 1.32863e-06 6.75357e-08
1.32863e-06 -5.60596e-06 4.70425e-07
6.75357e-08 4.70425e-07 -5.30526e-05
0.000866987 1.03469e-05 -2.57873e-07
1.03469e-05 3.4885e-05 -4.76307e-08
-2.57873e-07 -4.76307e-08 -2.42162e-05
0.000916068 -8.42613e-06 -5.75225e-08
-8.42613e-06 6.82946e-05 2.38679e-07
-5.75225e-08 2.38679e-07 -6.49739e-06
0.000928508 -5.10203e-06 6.48669e-08
-5.10203e-06 7.44074e-05 -1.2703e-07
6.48669e-08 -1.2703e-07 8.45099e-06
0.000857587 1.34179e-05 5.77347e-07
1.34179e-05 3.47298e-05 -3.40653e-07
5.77347e-07 -3.40653e-07 -3.01826e-05
0.000959268 7.50662e-06 6.73624e-07
7.50662e-06 8.83919e-05 -2.43214e-07
6.73624e-07 -2.43214e-07 1.94464e-05
0.000860844 5.65571e-06 8.81052e-07
5.65571e-06 2.83871e-05 3.8464e-07
8.81052e-07 3.8464e-07 -3.44404e-05
0.000825274 1.1269e-06 8.52758e-07
1.1269e-06 8.20998e-06 1.65964e-07
8.52758e-07 1.65964e-07 -5.13348e-05
0.000720816 -3.43612e-05 -1.249e-06
-3.43612e-05 -4.8421e-05 1.19393e-06
-1.249e-06 1.19393e-06 -9.67707e-05
0.0009396 6.37685e-06 -2.1198e-07
6.37685e-06 7.39593e-05 3.45378e-07
-2.1198e-07 3.45378e-07 1.38111e-05
0.00101195 6.48367e-05 7.19215e-08
6.48367e-05 0.000115991 -9.73242e-08
7.19215e-08 -9.73242e-08 5.03761e-05
0.000862635 3.15351e-06 -4.47687e-07
3.15351e-06 4.02076e-05 3.55055e-07
-4.47687e-07 3.55055e-07 -1.96979e-05
0.000935884 9.54755e-06 4.65118e-07
9.54755e-06 7.51163e-05 -3.42744e-07
4.65118e-07 -3.42744e-07 1.57512e-05
0.0008665 -2.39709e-05 -1.22352e-06
-2.39709e-05 2.85268e-05 7.13953e-07
-1.22352e-06 7.13953e-07 -1.80589e-05
0.000746963 4.36134e-06 1.36287e-07
4.36134e-06 -3.36635e-05 3.82744e-07
1.36287e-07 3.82744e-07 -8.24786e-05
0.000834841 1.28568e-05 -7.66438e-08
1.28568e-05 2.09999e-06 1.57712e-06
-7.66438e-08 1.57712e-06 -2.61918e-05
0.000827011 4.1894e-06 -1.61191e-07
4.1894e-06 -2.28186e-06 8.99271e-10
-1.61191e-07 8.99271e-10 -3.0382e-05
0.000792703 4.97971e-06 -2.66492e-07
4.97971e-06 -3.07581e-05 4.32763e-06
-2.66492e-07 4.32763e-06 -3.17023e-05
0.000827378 -6.03184e-06 2.56708e-07
-6.03184e-06 -2.54561e-06 -1.4677e-06
2.56708e-07 -1.4677e-06 -3.02606e-05
0.000780902 5.86117e-07 1.57079e-07
5.86117e-07 -3.81417e-05 -6.51359e-09
1.57079e-07 -6.51359e-09 -3.86123e-05
0.00211562 -9.67562e-07 1.92378e-07
-9.67562e-07 0.000679712 4.02058e-06
1.92378e-07 4.02058e-06 0.000702513
0.000799046 -3.8208e-06 -5.58572e-07
-3.8208e-06 -2.78402e-05 -4.28935e-06
-5.58572e-07 -4.28935e-06 -2.81169e-05
0.00154086 -5.97724e-06 -2.76215e-07
-5.97724e-06 0.000371384 2.01949e-08
-2.76215e-07 2.01949e-08 0.000391398
0.000940791 -9.98301e-06 -7.22506e-07
-9.98301e-06 5.00951e-05 -1.53425e-06
-7.22506e-07 -1.53425e-06 6.74785e-05
0.000842766 3.51395e-06 -2.27038e-08
3.51395e-06 3.03628e-06 -1.61434e-06
-2.27038e-08 -1.61434e-06 -2.12359e-05
0.000839341 7.08106e-06 3.56095e-08
7.08106e-06 2.0982e-06 5.22986e-09
3.56095e-08 5.22986e-09 -2.34428e-05
0.000777964 9.74224e-06 3.08074e-07
9.74224e-06 -3.88591e-05 -3.13385e-06
3.08074e-07 -3.13385e-06 -3.80808e-05
0.000842897 1.01923e-05 -5.34711e-07
1.01923e-05 5.1647e-06 1.66238e-06
-5.34711e-07 1.66238e-06 -2.21943e-05
0.00105181 1.61614e-05 -2.47562e-07
1.61614e-05 0.000110768 -6.25296e-07
-2.47562e-07 -6.25296e-07 0.00011157
0.00209089 2.01049e-05 1.03302e-05
2.01049e-05 0.000670878 -3.94574e-06
1.03302e-05 -3.94574e-06 0.000693101
0.000781698 1.98403e-05 -1.02651e-06
1.98403e-05 -2.96072e-05 3.26321e-06
-1.02651e-06 3.26321e-06 -3.23036e-05
0.00215285 2.65711e-05 -5.75099e-06
2.65711e-05 0.000709002 1.11e-06
-5.75099e-06 1.11e-06 0.000729816
0.00218408 3.42982e-05 -1.88549e-05
3.42982e-05 0.000730984 3.87309e-06
-1.88549e-05 3.87309e-06 0.000750195
0.00173282 1.42551e-05 1.53379e-06
1.42551e-05 6.08467e-05 1.98252e-07
1.53379e-06 1.98252e-07 -3.05315e-05
0.00180011 3.8069e-06 1.76359e-06
3.8069e-06 0.000101801 1.23347e-07
1.76359e-06 1.23347e-07 -2.62643e-08
0.00180922 6.87547e-06 5.67889e-06
6.87547e-06 0.00011256 -2.33734e-07
5.67889e-06 -2.33734e-07 3.72926e-05
0.00169967 -3.01406e-05 4.48208e-06
-3.01406e-05 -5.66664e-05 1.37849e-06
4.48208e-06 1.37849e-06 -0.000114043
0.00182963 7.10635e-06 -4.2445e-07
7.10635e-06 0.000101417 1.19897e-07
-4.2445e-07 1.19897e-07 1.83907e-05
0.00179446 1.55636e-05 1.27163e-06
1.55636e-05 5.48621e-05 -1.90658e-07
1.27163e-06 -1.90658e-07 -7.6467e-06
0.00220263 1.81356e-05 -9.14456e-07
1.81356e-05 0.000245492 1.73265e-06
-9.14456e-07 1.73265e-06 0.000160024
0.00322203 -0.000133751 0.000139322
-0.000133751 0.000581152 2.13462e-05
0.000139322 2.13462e-05 0.000322661
0.00116667 -4.38791e-05 -4.82524e-06
-4.38791e-05 -0.000307176 7.19195e-07
-4.82524e-06 7.19195e-07 -0.000374796
0.000874256 2.24713e-05 -7.12848e-07
2.24713e-05 3.53239e-05 -7.29847e-07
-7.12848e-07 -7.29847e-07 -6.89911e-06
0.000868926 -1.36543e-05 6.30922e-07
-1.36543e-05 3.41723e-05 -3.89465e-08
6.30922e-07 -3.89465e-08 -9.55127e-06
0.000870861 -3.40251e-05 -1.65946e-07
-3.40251e-05 4.28945e-05 6.94065e-09
-1.65946e-07 6.94065e-09 -1.14056e-05
0.000876511 -2.75928e-05 -9.53227e-07
-2.75928e-05 5.59314e-05 1.39848e-07
-9.53227e-07 1.39848e-07 -2.89422e-06
0.00182059 -2.5219e-06 2.62999e-06
-2.5219e-06 0.000105489 -5.98419e-07
2.62999e-06 -5.98419e-07 1.96936e-05
0.0016981 -3.11094e-05 1.26256e-06
-3.11094e-05 1.56146e-05 -1.24628e-07
1.26256e-06 -1.24628e-07 -7.7824e-05
0.00195378 -0.000126386 -1.97214e-06
-0.000126386 0.00013273 2.20347e-06
-1.97214e-06 2.20347e-06 4.85404e-05
0.000740594 -8.41657e-05 2.62443e-06
-8.41657e-05 -3.78811e-05 2.13049e-06
2.62443e-06 2.13049e-06 -0.000134139
0.000447072 -9.74986e-05 3.77564e-06
-9.74986e-05 -0.000199678 -1.4534e-06
3.77564e-06 -1.4534e-06 -0.000380694
0.00181042 -0.000171017 1.56368e-06
-0.000171017 0.000226294 -1.38457e-06
1.56368e-06 -1.38457e-06 0.000107608
0.000771177 -8.95315e-05 -5.85582e-06
-8.95315e-05 -1.14695e-06 1.36926e-07
-5.85582e-06 1.36926e-07 -9.32851e-05
0.000982656 -3.82399e-05 -9.70871e-07
-3.82399e-05 0.000132747 -6.26614e-07
-9.70871e-07 -6.26614e-07 2.92554e-05
0.00104302 -4.381e-05 -9.48727e-07
-4.381e-05 0.00015075 1.26788e-06
-9.48727e-07 1.26788e-06 6.25418e-05
0.000868513 -5.23567e-06 -1.06081e-06
-5.23567e-06 3.48261e-05 9.57843e-07
-1.06081e-06 9.57843e-07 -1.53116e-05
0.00090378 -3.47029e-05 -3.32849e-07
-3.47029e-05 6.97792e-05 2.54427e-08
-3.32849e-07 2.54427e-08 -8.08061e-06
0.000978126 6.05599e-06 -7.07004e-07
6.05599e-06 0.000102245 5.13863e-07
-7.07004e-07 5.13863e-07 3.56442e-05
0.000869745 -3.77102e-06 1.4667e-08
-3.77102e-06 3.65161e-05 2.61946e-07
1.4667e-08 2.61946e-07 -9.08777e-06
0.000734891 1.86801e-05 2.29174e-07
1.86801e-05 -2.15793e-05 9.65565e-07
2.29174e-07 9.65565e-07 -8.55352e-05
0.00176932 -1.70252e-05 -4.5955e-07
-1.70252e-05 5.26297e-05 1.09059e-06
-4.5955e-07 1.09059e-06 -2.87981e-05
0.000879906 1.07754e-05 4.59891e-07
1.07754e-05 5.14811e-05 -4.59863e-07
4.59891e-07 -4.59863e-07 -7.50364e-06
0.000842681 2.07003e-05 5.20492e-07
2.07003e-05 3.4917e-05 -2.62633e-09
5.20492e-07 -2.62633e-09 -3.05774e-05
0.000955301 4.37451e-05 -2.95658e-07
4.37451e-05 9.46712e-05 6.99451e-07
-2.95658e-07 6.99451e-07 2.42438e-05
0.00200257 -6.1978e-05 -3.47246e-06
-6.1978e-05 0.000113671 3.73655e-07
-3.47246e-06 3.73655e-07 2.90709e-05
0.00170775 -0.000160958 1.11584e-06
-0.000160958 3.17646e-05 -1.23823e-06
1.11584e-06 -1.23823e-06 -5.85829e-05
0.000968103 -0.000101535 -6.25015e-07
-0.000101535 0.000109931 -2.69284e-07
-6.25015e-07 -2.69284e-07 -1.96552e-05
0.00180225 -0.000173853 -6.46561e-07
-0.000173853 0.000386768 -7.46443e-07
-6.46561e-07 -7.46443e-07 0.000231714
0.000948612 -1.23069e-05 -3.69425e-07
-1.23069e-05 9.0764e-05 1.02687e-07
-3.69425e-07 1.02687e-07 1.69624e-05
0.000949157 -5.20994e-06 1.28325e-07
-5.20994e-06 9.46398e-05 7.14878e-07
1.28325e-07 7.14878e-07 1.54469e-05
0.000859997 -7.11123e-05 3.27951e-06
-7.11123e-05 8.33317e-05 -8.70058e-07
3.27951e-06 -8.70058e-07 -3.86663e-05
0.00103359 -4.13352e-05 3.36875e-07
-4.13352e-05 0.000155619 -9.61467e-07
3.36875e-07 -9.61467e-07 5.50712e-05
0.00170898 -9.2387e-06 -2.37806e-06
-9.2387e-06 -3.56672e-05 1.5374e-06
-2.37806e-06 1.5374e-06 -0.000121253
0.00214964 -0.00014908 4.86121e-06
-0.00014908 0.000147429 -4.18759e-06
4.86121e-06 -4.18759e-06 6.68102e-05
0.0018081 -0.000176713 -4.10257e-06
-0.000176713 0.000250405 -1.06114e-06
-4.10257e-06 -1.06114e-06 0.000125789
0.00113958 -0.000130941 -2.12047e-06
-0.000130941 0.000200802 -1.2672e-07
-2.12047e-06 -1.2672e-07 5.94286e-05
0.000848804 2.23975e-05 -8.02583e-07
2.23975e-05 4.14456e-05 4.38362e-08
-8.02583e-07 4.38362e-08 -3.32705e-05
0.000885695 -3.54179e-05 7.26929e-07
-3.54179e-05 6.44044e-05 -4.43821e-07
7.26929e-07 -4.43821e-07 -9.9317e-06
0.000940658 -2.53885e-05 2.5199e-07
-2.53885e-05 8.8358e-05 1.16848e-07
2.5199e-07 1.16848e-07 7.84506e-06
0.00086102 -9.93953e-06 -1.62039e-06
-9.93953e-06 7.69564e-05 6.20915e-07
-1.62039e-06 6.20915e-07 -5.11475e-05
0.000452273 -3.80994e-05 -3.27227e-06
-3.80994e-05 -0.000919736 -7.97788e-06
-3.27227e-06 -7.97788e-06 -0.00133726
0.000998217 1.2908e-05 1.57197e-07
1.2908e-05 0.00012074 -9.4273e-07
1.57197e-07 -9.4273e-07 3.88776e-05
0.000832146 7.51405e-05 1.08794e-06
7.51405e-05 3.9806e-05 7.93953e-07
1.08794e-06 7.93953e-07 -6.8088e-05
0.00145669 4.3401e-05 4.23763e-06
4.3401e-05 -0.000163265 7.09768e-07
4.23763e-06 7.09768e-07 -0.000211625
0.00174944 0.000142488 -9.59484e-07
0.000142488 -2.74854e-05 2.73832e-07
-9.59484e-07 2.73832e-07 -8.99175e-05
0.00145709 0.000163532 9.92317e-08
0.000163532 0.000179905 2.62566e-06
9.92317e-08 2.62566e-06 1.10953e-05
0.000821205 9.70359e-05 2.17991e-06
9.70359e-05 3.58086e-05 6.40995e-07
2.17991e-06 6.40995e-07 -0.000113454
0.00284928 5.43338e-05 -1.43151e-06
5.43338e-05 0.0004566 -2.19426e-07
-1.43151e-06 -2.19426e-07 0.000345615
0.000975347 4.05986e-05 6.02051e-07
4.05986e-05 0.000113312 -3.84459e-07
6.02051e-07 -3.84459e-07 2.03061e-05
0.00206391 0.000104132 -4.14114e-06
0.000104132 0.000116686 -2.39664e-06
-4.14114e-06 -2.39664e-06 0.000121294
0.00104755 0.000103191 4.5047e-07
0.000103191 0.000164851 -3.42872e-07
4.5047e-07 -3.42872e-07 4.99341e-05
0.0010559 0.00012011 -2.0956e-07
0.00012011 0.000154376 3.87852e-07
-2.0956e-07 3.87852e-07 -2.64396e-05
0.000943261 0.000182922 -2.80621e-06
0.000182922 -0.000264207 3.18792e-07
-2.80621e-06 3.18792e-07 -0.000379505
0.0020079 -0.000176255 -3.03848e-05
-0.000176255 -5.22853e-05 -1.06271e-05
-3.03848e-05 -1.06271e-05 -0.000634833
0.00337915 -7.11616e-05 5.83324e-06
-7.11616e-05 0.000241459 -1.16211e-05
5.83324e-06 -1.16211e-05 -0.000306683
0.000893232 0.000146963 5.53274e-06
0.000146963 -0.000280066 1.78419e-06
5.53274e-06 1.78419e-06 -0.000297191
-0.0017395 -0.000263803 1.9989e-05
-0.000263803 -0.000616159 4.53557e-06
1.9989e-05 4.53557e-06 -0.000821012
0.000314539 -0.000484335 1.17008e-05
-0.000484335 -0.00105577 -6.87173e-09
1.17008e-05 -6.87173e-09 8.36248e-05
0.0010936 6.57786e-05 -2.83805e-07
6.57786e-05 0.000177789 -1.15964e-06
-2.83805e-07 -1.15964e-06 8.64444e-05
0.000673291 6.35912e-05 -8.71499e-05
6.35912e-05 0.000528027 -2.13062e-05
-8.71499e-05 -2.13062e-05 0.000260605
0.00150918 -0.000279406 -3.88982e-05
-0.000279406 0.000429353 -2.37517e-05
-3.88982e-05 -2.37517e-05 0.000772802
0.00124329 0.000126053 -7.01303e-06
0.000126053 -0.000232354 3.3671e-07
-7.01303e-06 3.3671e-07 -0.00019977
0.00115531 5.9667e-05 -2.70077e-06
5.9667e-05 0.000244758 -1.8743e-06
-2.70077e-06 -1.8743e-06 0.00011724
0.00123691 0.000145516 -6.84484e-06
0.000145516 0.000227265 -2.11205e-06
-6.84484e-06 -2.11205e-06 2.77445e-05
0.00127537 0.000186442 6.02556e-06
0.000186442 -3.9952e-05 2.96095e-05
6.02556e-06 2.96095e-05 3.5833e-06
0.00648413 -0.000267625 -5.51216e-05
-0.000267625 0.00211472 -1.46008e-05
-5.51216e-05 -1.46008e-05 0.00111686
0.00155195 7.58075e-05 1.29294e-05
7.58075e-05 -0.000678071 2.2132e-05
1.29294e-05 2.2132e-05 -0.00146755
6.34026e-05 -0.000437717 -4.08639e-05
-0.000437717 -0.000299915 -1.35926e-05
-4.08639e-05 -1.35926e-05 1.88524e-05
0.000496812 -0.000227934 -3.26761e-05
-0.000227934 -0.00158243 2.512e-06
-3.26761e-05 2.512e-06 -0.000843368
0.000975406 9.50259e-08 -2.16096e-07
9.50259e-08 0.000102575 -6.63224e-07
-2.16096e-07 -6.63224e-07 2.33918e-05
0.000983895 2.40002e-05 -2.57927e-07
2.40002e-05 0.000102627 1.58302e-07
-2.57927e-07 1.58302e-07 2.30994e-05
0.00116749 5.8725e-05 -1.00085e-07
5.8725e-05 0.000203593 -1.14714e-06
-1.00085e-07 -1.14714e-06 0.00012825
0.000855595 1.95452e-06 -9.84625e-08
1.95452e-06 2.74474e-05 -3.15015e-07
-9.84625e-08 -3.15015e-07 -2.22074e-05
0.000908002 1.5737e-06 -5.43968e-07
1.5737e-06 5.58566e-05 -3.80654e-07
-5.43968e-07 -3.80654e-07 -2.32595e-06
0.00085474 -2.16647e-05 -2.69427e-07
-2.16647e-05 2.95447e-05 -5.98297e-07
-2.69427e-07 -5.98297e-07 -3.24011e-05
0.000938799 -8.3532e-06 -9.79385e-08
-8.3532e-06 7.90048e-05 -2.63434e-07
-9.79385e-08 -2.63434e-07 1.29167e-05
0.000934287 -1.07597e-05 -5.0327e-08
-1.07597e-05 7.85158e-05 1.83705e-07
-5.0327e-08 1.83705e-07 3.7083e-06
0.000741358 -4.29554e-06 3.98151e-07
-4.29554e-06 -3.70908e-05 3.92699e-07
3.98151e-07 3.92699e-07 -8.58739e-05
0.000876004 -3.73788e-06 -1.20724e-07
-3.73788e-06 4.47017e-05 -2.99572e-07
-1.20724e-07 -2.99572e-07 -1.98775e-05
0.000947645 -1.89999e-05 -1.83201e-07
-1.89999e-05 7.60753e-05 3.355e-07
-1.83201e-07 3.355e-07 1.25166e-05
0.00090278 2.05777e-05 4.14685e-07
2.05777e-05 5.25313e-05 -2.09208e-07
4.14685e-07 -2.09208e-07 -8.44844e-06
0.000937655 9.34953e-06 4.22362e-08
9.34953e-06 7.6961e-05 3.32748e-08
4.22362e-08 3.32748e-08 7.6112e-06
0.000852334 -8.14577e-06 6.27146e-07
-8.14577e-06 2.32637e-05 8.5994e-09
6.27146e-07 8.5994e-09 -4.27494e-05
0.00101231 3.01758e-05 -6.09216e-08
3.01758e-05 0.000113423 -1.18344e-06
-6.09216e-08 -1.18344e-06 4.33598e-05
0.000959531 -5.43873e-05 1.62565e-07
-5.43873e-05 7.95999e-05 1.22406e-07
1.62565e-07 1.22406e-07 1.53155e-05
0.000954516 -3.63938e-05 -3.86861e-07
-3.63938e-05 8.0931e-05 2.39749e-08
-3.86861e-07 2.39749e-08 1.98024e-05
0.000953557 -4.58191e-06 -3.78803e-07
-4.58191e-06 8.07691e-05 -5.95385e-08
-3.78803e-07 -5.95385e-08 2.06921e-05
0.000947859 4.58271e-05 -2.93154e-07
4.58271e-05 7.84522e-05 -2.80625e-07
-2.93154e-07 -2.80625e-07 1.45191e-05
0.000938425 2.28446e-05 -1.89144e-08
2.28446e-05 7.31634e-05 -1.04068e-07
-1.89144e-08 -1.04068e-07 5.67278e-06
0.000903938 4.08583e-05 1.78578e-07
4.08583e-05 5.90449e-05 2.66964e-07
1.78578e-07 2.66964e-07 -4.82033e-06
0.00103177 5.71725e-05 -4.13557e-09
5.71725e-05 0.000121064 -1.64507e-07
-4.13557e-09 -1.64507e-07 5.39631e-05
0.000851863 1.73986e-05 8.21183e-07
1.73986e-05 3.99494e-05 1.50855e-06
8.21183e-07 1.50855e-06 -2.98188e-05
0.000863511 1.21874e-05 -9.64563e-08
1.21874e-05 3.72172e-05 4.27394e-07
-9.64563e-08 4.27394e-07 -2.02429e-05
0.000873854 3.37346e-07 -4.07315e-08
3.37346e-07 4.43005e-05 -1.89499e-08
-4.07315e-08 -1.89499e-08 -1.44332e-05
0.000861308 3.98695e-06 -8.73376e-07
3.98695e-06 2.52047e-05 6.63348e-07
-8.73376e-07 6.63348e-07 -2.02523e-05
0.000857935 1.07381e-05 3.47729e-07
1.07381e-05 2.83303e-05 -5.87378e-07
3.47729e-07 -5.87378e-07 -2.84672e-05
0.000815454 -1.39238e-05 3.68077e-08
-1.39238e-05 8.85862e-07 2.25502e-08
3.68077e-08 2.25502e-08 -4.5796e-05
0.000837705 1.35713e-05 -3.86143e-07
1.35713e-05 4.01722e-06 1.66834e-06
-3.86143e-07 1.66834e-06 -2.44165e-05
0.000758541 6.35108e-06 3.58564e-07
6.35108e-06 -2.59924e-05 -4.00066e-07
3.58564e-07 -4.00066e-07 -7.58401e-05
0.000831432 6.32862e-06 -1.51184e-07
6.32862e-06 5.3642e-08 -4.56559e-09
-1.51184e-07 -4.56559e-09 -2.81367e-05
0.00136904 1.08764e-05 -2.7696e-06
1.08764e-05 0.00028021 4.2966e-06
-2.7696e-06 4.2966e-06 0.000281918
0.000825345 -3.48249e-06 4.99811e-07
-3.48249e-06 -3.29006e-06 -1.51685e-06
4.99811e-07 -1.51685e-06 -3.13356e-05
0.00107591 5.67255e-06 -1.2316e-06
5.67255e-06 0.000121202 6.26179e-07
-1.2316e-06 6.26179e-07 0.000121779
0.000990473 2.99318e-06 -2.58757e-06
2.99318e-06 7.57855e-05 3.93551e-06
-2.58757e-06 3.93551e-06 9.25608e-05
0.00078476 6.34895e-07 -4.36178e-08
6.34895e-07 -3.60674e-05 -3.03536e-06
-4.36178e-08 -3.03536e-06 -3.65695e-05
0.00211967 -5.17709e-07 2.04533e-06
-5.17709e-07 0.000681909 2.6852e-10
2.04533e-06 2.6852e-10 0.000704665
0.000997401 -3.74324e-06 -1.79955e-06
-3.74324e-06 7.92968e-05 -3.91244e-06
-1.79955e-06 -3.91244e-06 9.6469e-05
0.000862841 4.01954e-05 3.62269e-07
4.01954e-05 3.19748e-05 -1.5547e-07
3.62269e-07 -1.5547e-07 -1.22373e-05
0.00084388 -7.71414e-07 -7.90934e-08
-7.71414e-07 3.46291e-06 -1.59391e-06
-7.90934e-08 -1.59391e-06 -2.01628e-05
0.000843891 2.84478e-06 -5.01458e-08
2.84478e-06 3.52802e-06 9.21344e-10
-5.01458e-08 9.21344e-10 -2.07273e-05
0.000786024 4.64601e-06 3.34661e-08
4.64601e-06 -3.63962e-05 -3.10028e-06
3.34661e-08 -3.10028e-06 -3.45616e-05
0.000840677 6.4351e-06 -2.37033e-07
6.4351e-06 2.53169e-06 1.55034e-06
-2.37033e-07 1.55034e-06 -2.29761e-05
0.00077918 9.91202e-06 5.25008e-08
9.91202e-06 -3.85267e-05 -6.36913e-07
5.25008e-08 -6.36913e-07 -3.76738e-05
0.00205694 1.31707e-05 6.8425e-06
1.31707e-05 0.000650012 -3.97741e-06
6.8425e-06 -3.97741e-06 0.000673145
0.00132421 1.88975e-05 -1.25929e-06
1.88975e-05 0.000257427 1.95065e-06
-1.25929e-06 1.95065e-06 0.000259411
0.00155274 1.73751e-05 3.52856e-07
1.73751e-05 0.000382841 1.24442e-06
3.52856e-07 1.24442e-06 0.00040186
0.00103537 1.96196e-05 -1.43971e-05
1.96196e-05 0.000109416 6.44885e-06
-1.43971e-05 6.44885e-06 0.000124269
-0.000599499 1.97557e-05 6.37336e-06
1.97557e-05 -0.00121093 3.87638e-06
6.37336e-06 3.87638e-06 -0.00127616
0.00195892 5.34136e-06 2.75075e-06
5.34136e-06 0.000165809 -6.52328e-08
2.75075e-06 -6.52328e-08 8.33079e-05
0.0021584 1.96439e-05 3.23137e-07
1.96439e-05 0.000254746 -2.48282e-06
3.23137e-07 -2.48282e-06 0.000188328
0.00112556 -6.31014e-05 2.72731e-05
-6.31014e-05 -0.000276335 -5.78717e-07
2.72731e-05 -5.78717e-07 -0.000517504
0.00173573 -3.82404e-05 -1.63942e-06
-3.82404e-05 4.6002e-05 4.70175e-08
-1.63942e-06 4.70175e-08 -3.59393e-05
0.00178333 1.43798e-05 -3.58109e-06
1.43798e-05 -4.82704e-06 -1.82798e-06
-3.58109e-06 -1.82798e-06 -8.80611e-05
0.00202721 2.7147e-05 -1.26615e-05
2.7147e-05 0.000232447 1.6372e-06
-1.26615e-05 1.6372e-06 0.00014212
0.00152053 -7.69893e-05 0.000127601
-7.69893e-05 -2.6825e-05 -2.74011e-06
0.000127601 -2.74011e-06 -0.000362445
0.0063067 8.9401e-05 -1.77998e-05
8.9401e-05 0.00193602 -5.71645e-07
-1.77998e-05 -5.71645e-07 0.00116843
0.00425281 0.000565614 -1.34906e-05
0.000565614 0.0018716 2.67429e-06
-1.34906e-05 2.67429e-06 0.00208669
0.00192831 0.000479967 -1.88117e-05
0.000479967 0.000275085 6.87924e-06
-1.88117e-05 6.87924e-06 0.00117464
0.000735603 -4.20136e-05 1.12568e-06
-4.20136e-05 -2.39774e-05 -5.68822e-07
1.12568e-06 -5.68822e-07 -8.04505e-05
0.0008748 -9.94934e-06 1.86413e-07
-9.94934e-06 3.64731e-05 -3.4485e-08
1.86413e-07 -3.4485e-08 -6.33637e-06
0.000867977 -4.60904e-05 -8.2778e-07
-4.60904e-05 3.6063e-05 8.05215e-07
-8.2778e-07 8.05215e-07 -9.36226e-06
0.000839028 -1.26483e-05 -3.23227e-07
-1.26483e-05 2.8622e-05 4.40313e-08
-3.23227e-07 4.40313e-08 -2.77344e-05
0.000872022 4.02145e-05 4.6444e-08
4.02145e-05 5.61261e-05 7.86768e-07
4.6444e-08 7.86768e-07 -1.07955e-05
0.000926021 5.26759e-05 2.14596e-07
5.26759e-05 7.79815e-05 8.17371e-07
2.14596e-07 8.17371e-07 1.52027e-05
0.000911704 -2.96081e-05 7.45953e-07
-2.96081e-05 6.90134e-05 -7.41015e-07
7.45953e-07 -7.41015e-07 1.2395e-05
0.000827813 -4.3234e-05 -5.69861e-07
-4.3234e-05 2.6292e-05 4.82543e-07
-5.69861e-07 4.82543e-07 -3.06058e-05
0.00148508 -1.08577e-05 2.91174e-06
-1.08577e-05 -8.06039e-05 -9.98525e-07
2.91174e-06 -9.98525e-07 -0.000162086
0.00151928 -5.7545e-05 -1.81851e-06
-5.7545e-05 -0.000144435 3.31487e-07
-1.81851e-06 3.31487e-07 -0.000231656
0.00169287 -0.000155856 -3.77089e-06
-0.000155856 3.07453e-05 2.79564e-06
-3.77089e-06 2.79564e-06 -5.92351e-05
0.000871459 -0.000102909 1.60999e-06
-0.000102909 4.76573e-05 1.14548e-06
1.60999e-06 1.14548e-06 -7.93682e-05
0.001715 -0.000170257 2.31724e-06
-0.000170257 0.000348934 -5.39966e-07
2.31724e-06 -5.39966e-07 0.000186011
0.000934103 -7.25263e-05 -1.17351e-07
-7.25263e-05 0.000115865 -1.00261e-06
-1.17351e-07 -1.00261e-06 -1.17483e-06
0.00119538 -6.75061e-05 2.47926e-07
-6.75061e-05 0.000242908 -3.04945e-07
2.47926e-07 -3.04945e-07 0.00013698
0.000864454 -1.86034e-05 -7.57604e-07
-1.86034e-05 5.56786e-05 2.48583e-07
-7.57604e-07 2.48583e-07 -2.48727e-05
0.000855847 6.13017e-06 3.92775e-07
6.13017e-06 4.2305e-05 4.31622e-07
3.92775e-07 4.31622e-07 -2.26402e-05
0.00101839 5.78886e-06 -7.99826e-07
5.78886e-06 0.000124633 -4.12996e-08
-7.99826e-07 -4.12996e-08 5.23354e-05
0.00105413 1.17015e-06 4.09318e-07
1.17015e-06 0.000141895 -1.70255e-08
4.09318e-07 -1.70255e-08 8.50247e-05
0.000834946 7.16506e-05 1.15027e-06
7.16506e-05 3.17949e-05 1.21611e-06
1.15027e-06 1.21611e-06 -3.98044e-05
0.0016023 -5.50952e-06 -3.58876e-07
-5.50952e-06 -9.32439e-05 -3.19597e-06
-3.58876e-07 -3.19597e-06 -0.000177482
0.000868449 2.32711e-05 -3.53389e-07
2.32711e-05 5.23957e-05 3.55589e-07
-3.53389e-07 3.55589e-07 -2.08381e-05
0.000877983 -2.41609e-05 -3.27333e-07
-2.41609e-05 5.7165e-05 -3.17827e-07
-3.27333e-07 -3.17827e-07 -1.59866e-05
0.00220614 -0.000150096 -3.46966e-07
-0.000150096 0.000187084 2.21944e-06
-3.46966e-07 2.21944e-06 0.000108326
0.00110283 -0.00014927 1.03228e-06
-0.00014927 -9.72159e-05 1.0032e-07
1.03228e-06 1.0032e-07 -0.000213737
0.00117599 -0.000134123 7.66476e-07
-0.000134123 0.000214282 -1.00448e-06
7.66476e-07 -1.00448e-06 6.68579e-05
0.000974798 -2.74872e-05 1.18114e-07
-2.74872e-05 0.000106912 -3.1309e-07
1.18114e-07 -3.1309e-07 2.40016e-05
0.00101228 -2.4996e-05 3.69309e-07
-2.4996e-05 0.000156974 4.2303e-07
3.69309e-07 4.2303e-07 2.83438e-05
0.00258435 -9.34389e-05 -8.8002e-06
-9.34389e-05 0.000471647 1.05761e-05
-8.8002e-06 1.05761e-05 0.000392784
0.00278887 -0.000238192 -3.69855e-06
-0.000238192 0.000568038 -6.25907e-06
-3.69855e-06 -6.25907e-06 0.000478017
2.36636e-06 -0.000108604 -4.6339e-06
-0.000108604 -0.000462759 -4.55055e-08
-4.6339e-06 -4.55055e-08 -0.000591951
0.0013371 -8.9951e-05 -4.1112e-06
-8.9951e-05 0.000318412 2.51722e-06
-4.1112e-06 2.51722e-06 0.000164371
0.000746774 -6.45e-05 8.20965e-07
-6.45e-05 -1.17699e-05 5.18142e-08
8.20965e-07 5.18142e-08 -8.79814e-05
0.000954282 -4.36087e-05 1.47321e-06
-4.36087e-05 9.42318e-05 1.71095e-07
1.47321e-06 1.71095e-07 1.38885e-05
0.000964673 -1.74302e-05 -2.05403e-06
-1.74302e-05 0.000103688 4.91981e-07
-2.05403e-06 4.91981e-07 7.6532e-06
-0.0030654 -1.6424e-05 -9.91634e-06
-1.6424e-05 -0.00144127 -9.35133e-07
-9.91634e-06 -9.35133e-07 -0.00124415
0.00703639 -2.81286e-05 -2.31097e-05
-2.81286e-05 0.0023821 -1.08355e-06
-2.31097e-05 -1.08355e-06 0.00181929
0.000895316 3.81557e-05 1.26601e-06
3.81557e-05 7.56784e-05 -5.65068e-07
1.26601e-06 -5.65068e-07 -1.68282e-05
0.000948735 9.78695e-05 2.06571e-06
9.78695e-05 0.000115785 -1.2075e-07
2.06571e-06 -1.2075e-07 2.93507e-06
0.00173609 9.68688e-05 -2.78339e-06
9.68688e-05 -5.57204e-05 3.47328e-06
-2.78339e-06 3.47328e-06 -4.30231e-05
0.00187651 0.000218349 1.30967e-07
0.000218349 0.000176837 1.26978e-06
1.30967e-07 1.26978e-06 6.92845e-05
0.00103598 0.000120882 3.12323e-06
0.000120882 0.000150724 1.00452e-06
3.12323e-06 1.00452e-06 -2.98699e-05
0.0055095 3.3557e-05 3.65278e-05
3.3557e-05 0.00155127 -8.38553e-06
3.65278e-05 -8.38553e-06 0.000793659
0.00386734 -5.61923e-05 -7.01805e-05
-5.61923e-05 0.000442081 -1.91279e-05
-7.01805e-05 -1.91279e-05 7.79172e-06
0.000283131 0.000112511 -3.37981e-06
0.000112511 -0.000598236 -1.90523e-05
-3.37981e-06 -1.90523e-05 -0.000601533
0.00331576 -0.000433247 2.92328e-05
-0.000433247 0.00163802 1.57354e-05
2.92328e-05 1.57354e-05 0.00163303
-0.00186563 -0.000526161 1.32161e-05
-0.000526161 -0.00223954 -1.50608e-05
1.32161e-05 -1.50608e-05 -0.000948958
0.0010178 7.9845e-05 6.99882e-08
7.9845e-05 0.000144376 -2.85247e-07
6.99882e-08 -2.85247e-07 5.0605e-05
-0.00253468 -0.000110271 2.94137e-06
-0.000110271 -0.00123297 -1.29506e-06
2.94137e-06 -1.29506e-06 -0.00107266
0.000150584 -0.000262961 -1.15639e-05
-0.000262961 -0.000152529 -2.70621e-06
-1.15639e-05 -2.70621e-06 1.2195e-05
0.00216824 0.000155725 -1.65685e-06
0.000155725 0.00021993 -2.13229e-06
-1.65685e-06 -2.13229e-06 0.000253461
0.000932076 6.78807e-05 -3.55812e-08
6.78807e-05 0.000139157 -8.84774e-07
-3.55812e-08 -8.84774e-07 1.13138e-05
0.000661291 0.00011583 1.64292e-07
0.00011583 -6.55098e-05 3.10836e-07
1.64292e-07 3.10836e-07 -0.000262873
-0.000219117 0.000110903 1.55968e-05
0.000110903 -0.000741951 8.49865e-06
1.55968e-05 8.49865e-06 -0.000674991
0.00492564 -0.000197035 -6.17493e-07
-0.000197035 0.00123829 -4.69871e-07
-6.17493e-07 -4.69871e-07 0.000175356
0.00443479 0.000149998 -2.46416e-05
0.000149998 0.000850717 -1.67039e-05
-2.46416e-05 -1.67039e-05 0.000317004
0.00378278 -0.000605558 1.31842e-05
-0.000605558 0.00133524 -3.09098e-06
1.31842e-05 -3.09098e-06 0.00146508
0.00081126 -0.000286046 9.7031e-06
-0.000286046 -0.00156769 2.69616e-05
9.7031e-06 2.69616e-05 -0.000645615
0.00113724 4.72975e-05 -2.52055e-06
4.72975e-05 0.000206072 -2.35455e-06
-2.52055e-06 -2.35455e-06 0.000122458
-0.000981343 -8.39486e-05 -5.2845e-05
-8.39486e-05 -0.00041397 -7.60729e-06
-5.2845e-05 -7.60729e-06 -0.000629193
0.00177078 -2.53678e-05 -3.68375e-05
-2.53678e-05 5.52347e-05 -3.4741e-05
-3.68375e-05 -3.4741e-05 -5.83936e-05
0.000875755 0.00012086 -1.11373e-05
0.00012086 -0.000116999 -7.14761e-06
-1.11373e-05 -7.14761e-06 -0.000132945
0.00159674 0.000118736 -1.09612e-05
0.000118736 0.000533331 -3.1952e-06
-1.09612e-05 -3.1952e-06 0.000380423
0.00100331 5.35007e-05 -1.46429e-05
5.35007e-05 0.00022001 -4.04588e-06
-1.46429e-05 -4.04588e-06 0.000163544
0.00307857 0.000381602 -9.50072e-05
0.000381602 0.000498367 1.35366e-05
-9.50072e-05 1.35366e-05 3.74393e-05
-8.32929e-05 -0.000255923 2.29341e-05
-0.000255923 -0.000757658 2.44536e-05
2.29341e-05 2.44536e-05 -0.00212151
0.00638956 -0.000599455 -5.32689e-05
-0.000599455 0.00170651 -1.01266e-06
-5.32689e-05 -1.01266e-06 0.00192062
0.000563187 -0.000130564 -8.73711e-06
-0.000130564 -0.00171101 -1.35659e-05
-8.73711e-06 -1.35659e-05 -0.00108991
0.000925858 3.09594e-05 2.19432e-07
3.09594e-05 7.55885e-05 9.78418e-07
2.19432e-07 9.78418e-07 -5.18153e-06
0.00107888 5.64112e-05 1.03537e-06
5.64112e-05 0.000156747 6.92336e-07
1.03537e-06 6.92336e-07 8.05775e-05
0.000665698 5.6463e-05 8.04311e-07
5.6463e-05 -4.43489e-05 -3.31769e-06
8.04311e-07 -3.31769e-06 -0.000115437
0.000755912 2.49816e-05 1.81737e-07
2.49816e-05 -2.94147e-05 -3.50296e-07
1.81737e-07 -3.50296e-07 -7.8239e-05
0.000970167 3.02475e-05 -5.6392e-07
3.02475e-05 9.11512e-05 -4.51898e-07
-5.6392e-07 -4.51898e-07 2.91333e-05
0.00103084 -3.34948e-05 -1.7047e-07
-3.34948e-05 0.000120446 1.25248e-07
-1.7047e-07 1.25248e-07 5.72259e-05
0.000871668 -9.41655e-06 -7.26083e-07
-9.41655e-06 4.35428e-05 -4.37336e-07
-7.26083e-07 -4.37336e-07 -2.10047e-05
0.000933703 6.16156e-06 -7.01422e-07
6.16156e-06 7.40278e-05 6.43472e-07
-7.01422e-07 6.43472e-07 4.69624e-06
0.000938841 1.62182e-05 4.03571e-07
1.62182e-05 7.32666e-05 -3.93787e-07
4.03571e-07 -3.93787e-07 1.17753e-05
0.000926445 -1.1409e-05 -4.80616e-08
-1.1409e-05 6.45281e-05 -1.1247e-08
-4.80616e-08 -1.1247e-08 -1.59963e-06
0.0009429 -3.81857e-05 1.68158e-07
-3.81857e-05 7.1308e-05 7.91002e-08
1.68158e-07 7.91002e-08 6.49545e-06
0.000952365 1.42524e-05 8.5607e-08
1.42524e-05 8.32954e-05 5.76556e-08
8.5607e-08 5.76556e-08 1.4764e-05
0.00118495 -2.53234e-05 1.25441e-06
-2.53234e-05 0.0002016 -9.47004e-07
1.25441e-06 -9.47004e-07 0.00013615
0.000943236 -2.12421e-05 1.29289e-07
-2.12421e-05 6.64141e-05 -2.76956e-07
1.29289e-07 -2.76956e-07 3.12073e-07
0.000948246 3.46477e-06 2.07734e-07
3.46477e-06 7.76394e-05 1.36242e-07
2.07734e-07 1.36242e-07 9.25876e-06
0.000957266 -2.76755e-05 7.33556e-08
-2.76755e-05 8.48976e-05 -5.41473e-07
7.33556e-08 -5.41473e-07 2.31652e-05
0.000875003 2.13152e-05 -2.41753e-07
2.13152e-05 3.59659e-05 -5.02855e-07
-2.41753e-07 -5.02855e-07 -2.59261e-05
0.000928615 -1.92748e-06 2.48204e-07
-1.92748e-06 6.80436e-05 -1.96024e-07
2.48204e-07 -1.96024e-07 8.75504e-07
0.000889674 3.98446e-05 -9.89579e-08
3.98446e-05 5.13045e-05 -3.5781e-09
-9.89579e-08 -3.5781e-09 -1.23543e-05
0.000967768 3.7828e-05 -5.07087e-07
3.7828e-05 8.44628e-05 -3.81496e-07
-5.07087e-07 -3.81496e-07 1.89986e-05
0.000854798 3.33045e-05 7.36522e-07
3.33045e-05 3.64984e-05 8.74062e-07
7.36522e-07 8.74062e-07 -2.8652e-05
0.000964472 3.67622e-05 4.35056e-07
3.67622e-05 8.55825e-05 1.35736e-08
4.35056e-07 1.35736e-08 1.64062e-05
0.000915717 3.04824e-05 1.71651e-07
3.04824e-05 5.97939e-05 2.49702e-07
1.71651e-07 2.49702e-07 -7.13518e-06
0.000874872 5.51888e-06 1.12659e-06
5.51888e-06 5.10031e-05 5.68178e-07
1.12659e-06 5.68178e-07 -2.96187e-05
0.000789096 -5.06077e-05 -5.23523e-08
-5.06077e-05 3.28873e-05 6.47577e-07
-5.23523e-08 6.47577e-07 -6.66713e-05
0.000722055 4.91157e-06 -1.46707e-07
4.91157e-06 -2.35516e-05 5.75626e-07
-1.46707e-07 5.75626e-07 -0.000100291
0.000878873 1.73376e-05 1.78377e-07
1.73376e-05 5.51988e-05 3.99205e-07
1.78377e-07 3.99205e-07 -1.49644e-05
0.00087357 1.94748e-05 2.44703e-07
1.94748e-05 4.3765e-05 1.04242e-06
2.44703e-07 1.04242e-06 -1.59767e-05
0.000880851 1.08973e-05 -1.82372e-07
1.08973e-05 4.73048e-05 -6.03081e-08
-1.82372e-07 -6.03081e-08 -1.0904e-05
0.000860108 2.02138e-05 -4.50252e-07
2.02138e-05 2.69225e-05 7.22516e-07
-4.50252e-07 7.22516e-07 -1.9338e-05
0.000891564 1.1799e-05 3.06048e-07
1.1799e-05 5.17574e-05 -2.53724e-07
3.06048e-07 -2.53724e-07 -5.73219e-06
0.000871089 2.70952e-06 -7.60565e-08
2.70952e-06 3.07454e-05 7.80862e-09
-7.60565e-08 7.80862e-09 -1.5086e-05
0.000833167 1.7143e-05 -7.22275e-07
1.7143e-05 3.47064e-06 1.67245e-06
-7.22275e-07 1.67245e-06 -2.54441e-05
0.000763683 9.38329e-07 4.61331e-07
9.38329e-07 -2.81493e-05 -6.75479e-07
4.61331e-07 -6.75479e-07 -7.42505e-05
0.000835458 9.25897e-06 -7.51713e-08
9.25897e-06 2.63215e-06 -3.60278e-09
-7.51713e-08 -3.60278e-09 -2.57166e-05
0.0013644 1.64286e-05 -4.47344e-06
1.64286e-05 0.000280107 4.30273e-06
-4.47344e-06 4.30273e-06 0.000281434
0.00082978 7.37248e-07 6.21817e-07
7.37248e-07 -1.04657e-06 -1.57384e-06
6.21817e-07 -1.57384e-06 -2.91549e-05
0.00107293 1.0837e-05 -1.94329e-06
1.0837e-05 0.000121181 6.11684e-07
-1.94329e-06 6.11684e-07 0.000121501
0.000944654 9.5837e-06 -6.30356e-07
9.5837e-06 5.26371e-05 1.55304e-06
-6.30356e-07 1.55304e-06 6.93003e-05
0.000780159 5.21597e-06 2.54764e-07
5.21597e-06 -3.79288e-05 -3.05659e-06
2.54764e-07 -3.05659e-06 -3.87321e-05
0.00212867 6.24965e-06 1.8822e-06
6.24965e-06 0.000687234 1.46494e-08
1.8822e-06 1.46494e-08 0.000709798
0.00212349 -6.55146e-08 9.89476e-07
-6.55146e-08 0.000683954 -4.04246e-06
9.89476e-07 -4.04246e-06 0.00070666
0.00110595 2.61242e-05 -9.28714e-07
2.61242e-05 0.000159566 -3.49136e-07
-9.28714e-07 -3.49136e-07 0.00011704
0.000843881 -4.51587e-06 -2.27764e-07
-4.51587e-06 4.20318e-06 -1.54229e-06
-2.27764e-07 -1.54229e-06 -1.96327e-05
0.000868188 2.63933e-06 6.70329e-07
2.63933e-06 3.45901e-05 4.50726e-07
6.70329e-07 4.50726e-07 -9.27811e-06
0.000791685 -5.71439e-07 -1.0286e-07
-5.71439e-07 -3.38131e-05 -3.06563e-06
-1.0286e-07 -3.06563e-06 -3.15273e-05
0.000845723 -1.24334e-06 3.14885e-08
-1.24334e-06 4.39658e-06 2.43443e-09
3.14885e-08 2.43443e-09 -1.92323e-05
0.000842751 2.2108e-06 -1.6882e-07
2.2108e-06 2.79784e-06 1.56906e-06
-1.6882e-07 1.56906e-06 -2.14296e-05
0.000788889 4.85248e-06 -1.33738e-07
4.85248e-06 -3.48591e-05 9.98764e-09
-1.33738e-07 9.98764e-09 -3.30626e-05
0.00202913 6.30766e-06 3.02372e-06
6.30766e-06 0.000633589 -3.98929e-06
3.02372e-06 -3.98929e-06 0.000657322
0.00131577 1.27631e-05 -7.54447e-07
1.27631e-05 0.000249741 1.90247e-06
-7.54447e-07 1.90247e-06 0.000253276
0.0015113 1.17882e-05 1.98388e-06
1.17882e-05 0.000357211 3.15425e-08
1.98388e-06 3.15425e-08 0.000377424
0.00102577 1.44562e-05 -1.20465e-05
1.44562e-05 9.95027e-05 6.42656e-06
-1.20465e-05 6.42656e-06 0.000115835
-0.00454072 0.000123562 -9.8245e-06
0.000123562 -0.00221377 3.93968e-06
-9.8245e-06 3.93968e-06 -0.00215375
-0.00120572 0.000233754 -9.14962e-06
0.000233754 -0.000795297 1.37432e-05
-9.14962e-06 1.37432e-05 -0.000632553
0.000706616 -2.35542e-05 -9.65169e-05
-2.35542e-05 -0.000525545 -1.03646e-05
-9.65169e-05 -1.03646e-05 -0.000752698
0.00254272 -4.04568e-05 4.04052e-06
-4.04568e-05 0.000520188 -1.92779e-07
4.04052e-06 -1.92779e-07 0.000426044
0.00144771 1.09278e-05 -8.55781e-06
1.09278e-05 -0.000210075 -8.43058e-07
-8.55781e-06 -8.43058e-07 -0.000291238
0.00122617 -1.89272e-05 2.29019e-05
-1.89272e-05 -4.1819e-06 -2.43496e-06
2.29019e-05 -2.43496e-06 -0.000256927
0.00212624 3.28228e-05 -3.19418e-08
3.28228e-05 0.000290185 1.67611e-06
-3.19418e-08 1.67611e-06 0.000201753
0.00520949 0.000260008 -2.10893e-05
0.000260008 0.00132679 -7.62221e-06
-2.10893e-05 -7.62221e-06 0.000677774
-0.00334636 0.000268529 -1.24828e-05
0.000268529 -0.00138763 -1.71079e-06
-1.24828e-05 -1.71079e-06 -0.00138151
6.13945e-05 0.000509213 3.06296e-06
0.000509213 -0.00101867 -6.38908e-06
3.06296e-06 -6.38908e-06 9.01905e-05
0.00161829 -1.21637e-05 5.04574e-05
-1.21637e-05 0.000156218 -1.10024e-05
5.04574e-05 -1.10024e-05 -7.36026e-05
0.00660929 0.000428674 6.61703e-06
0.000428674 0.00203755 -8.02148e-06
6.61703e-06 -8.02148e-06 0.00116516
-8.5259e-05 0.000458673 -3.8923e-05
0.000458673 -0.000331568 1.0988e-05
-3.8923e-05 1.0988e-05 4.03648e-05
0.0030626 0.000276436 -4.50055e-05
0.000276436 -1.86024e-05 2.37388e-05
-4.50055e-05 2.37388e-05 0.00066052
0.000861264 3.46639e-05 -6.8649e-07
3.46639e-05 4.90378e-05 4.49663e-09
-6.8649e-07 4.49663e-09 -2.07889e-05
0.000791706 -1.138e-05 9.08842e-08
-1.138e-05 4.73435e-06 -3.4282e-07
9.08842e-08 -3.4282e-07 -5.09217e-05
0.000866047 -4.3627e-05 -8.05151e-07
-4.3627e-05 3.38404e-05 7.73225e-07
-8.05151e-07 7.73225e-07 -1.03067e-05
0.000786262 6.4662e-06 2.24107e-07
6.4662e-06 2.02372e-06 2.41983e-07
2.24107e-07 2.41983e-07 -5.53817e-05
0.000885481 4.59864e-05 7.58579e-07
4.59864e-05 6.43413e-05 7.56038e-07
7.58579e-07 7.56038e-07 -2.0713e-06
0.000922465 2.95294e-05 -6.7355e-07
2.95294e-05 8.09512e-05 3.89719e-07
-6.7355e-07 3.89719e-07 1.21489e-05
0.000894348 3.57845e-05 1.13732e-06
3.57845e-05 6.62522e-05 9.90343e-07
1.13732e-06 9.90343e-07 -2.01129e-07
0.000853656 -2.05007e-05 6.31989e-07
-2.05007e-05 3.70933e-05 2.37789e-07
6.31989e-07 2.37789e-07 -2.40872e-05
0.000850403 -2.76178e-05 4.05048e-07
-2.76178e-05 3.84539e-05 -5.55217e-07
4.05048e-07 -5.55217e-07 -2.03932e-05
0.000773249 -3.94781e-05 -2.26484e-07
-3.94781e-05 -1.54341e-06 4.91906e-07
-2.26484e-07 4.91906e-07 -5.98031e-05
0.0014278 -1.56362e-06 1.13594e-07
-1.56362e-06 -0.000185097 -1.10326e-06
1.13594e-07 -1.10326e-06 -0.000268644
0.00200026 -0.000143603 -1.16335e-06
-0.000143603 9.48216e-05 4.49138e-06
-1.16335e-06 4.49138e-06 1.90447e-05
0.000321102 -0.00011759 4.51521e-06
-0.00011759 -0.000482301 7.60109e-07
4.51521e-06 7.60109e-07 -0.000590582
0.00122789 -0.000138429 2.39294e-06
-0.000138429 0.00023524 -2.94591e-07
2.39294e-06 -2.94591e-07 8.36281e-05
0.00112602 -4.22527e-05 2.97157e-06
-4.22527e-05 0.000216055 -8.21128e-07
2.97157e-06 -8.21128e-07 8.76251e-05
0.00102826 -4.06956e-05 -1.56278e-07
-4.06956e-05 0.000134118 -6.17855e-07
-1.56278e-07 -6.17855e-07 4.96852e-05
0.0008713 -2.04172e-05 -9.65723e-07
-2.04172e-05 5.04044e-05 -2.34642e-07
-9.65723e-07 -2.34642e-07 -2.14811e-05
0.00088642 2.36529e-05 -5.83906e-07
2.36529e-05 6.28152e-05 7.58527e-08
-5.83906e-07 7.58527e-08 -9.14874e-06
0.00171958 -7.14508e-05 -6.1608e-06
-7.14508e-05 3.16175e-05 1.92361e-06
-6.1608e-06 1.92361e-06 -4.59562e-05
0.000802126 -2.98248e-05 -1.79126e-07
-2.98248e-05 1.64249e-05 1.06196e-07
-1.79126e-07 1.06196e-07 -6.03368e-05
0.000905622 -4.69796e-05 5.82154e-07
-4.69796e-05 6.75722e-05 -3.31547e-07
5.82154e-07 -3.31547e-07 -1.3745e-05
0.00208527 -0.000209427 4.70835e-07
-0.000209427 0.000229773 -8.54585e-07
4.70835e-07 -8.54585e-07 0.000141367
0.000421234 -0.00012225 1.09484e-06
-0.00012225 -0.000232786 1.18329e-06
1.09484e-06 1.18329e-06 -0.000361897
0.0011872 -8.53992e-05 2.1509e-06
-8.53992e-05 0.000232273 -5.45804e-07
2.1509e-06 -5.45804e-07 8.43483e-05
0.00102166 -3.10045e-05 -8.47371e-07
-3.10045e-05 0.00013564 -3.81401e-07
-8.47371e-07 -3.81401e-07 3.49288e-05
0.00266565 -0.000202019 -1.51492e-07
-0.000202019 0.000667202 -3.51507e-06
-1.51492e-07 -3.51507e-06 0.000563148
0.00217798 -0.000216198 -8.64723e-06
-0.000216198 0.000542774 6.58808e-07
-8.64723e-06 6.58808e-07 0.000430368
0.000874882 -9.15576e-06 -5.30551e-06
-9.15576e-06 9.12452e-05 4.65782e-06
-5.30551e-06 4.65782e-06 -4.15282e-05
0.000879621 2.56759e-05 4.78558e-07
2.56759e-05 5.75981e-05 1.13753e-06
4.78558e-07 1.13753e-06 -1.95654e-05
0.000848924 -7.95037e-05 1.26565e-06
-7.95037e-05 3.7119e-05 2.73034e-07
1.26565e-06 2.73034e-07 -4.75218e-05
0.00100798 -3.86583e-05 2.09384e-07
-3.86583e-05 0.000107122 1.59556e-06
2.09384e-07 1.59556e-06 2.17923e-05
0.00111307 3.91099e-06 -5.26375e-05
3.91099e-06 0.000837198 8.57493e-07
-5.26375e-05 8.57493e-07 0.000739328
0.00129468 -1.23079e-05 1.37555e-05
-1.23079e-05 0.000697848 2.70503e-06
1.37555e-05 2.70503e-06 0.000665151
0.000134214 0.000170945 -4.39788e-05
0.000170945 -0.00109901 1.81648e-05
-4.39788e-05 1.81648e-05 -0.00163868
0.000954656 7.83438e-05 9.41275e-07
7.83438e-05 0.000114135 8.64334e-07
9.41275e-07 8.64334e-07 2.01238e-05
0.000728175 7.57443e-05 3.46539e-06
7.57443e-05 4.23822e-05 6.93375e-07
3.46539e-06 6.93375e-07 -8.62119e-05
0.00328476 0.000188816 2.87794e-06
0.000188816 0.000779521 -1.61354e-06
2.87794e-06 -1.61354e-06 0.000798381
0.000106643 8.73948e-05 6.08466e-06
8.73948e-05 -0.000345937 1.96285e-06
6.08466e-06 1.96285e-06 -0.000544412
0.00306451 -0.000279984 4.9116e-05
-0.000279984 0.00132389 9.44702e-06
4.9116e-05 9.44702e-06 0.00149901
0.00100081 -0.000275249 5.39813e-06
-0.000275249 -0.000605435 1.52913e-05
5.39813e-06 1.52913e-05 -0.00142677
0.00448524 0.000188711 -7.70157e-05
0.000188711 0.00066266 -5.55784e-05
-7.70157e-05 -5.55784e-05 -2.15915e-05
-0.00136324 7.7407e-05 8.38955e-06
7.7407e-05 -0.00125546 -2.31558e-06
8.38955e-06 -2.31558e-06 -0.00121211
-0.00229916 -0.000354432 5.30302e-05
-0.000354432 -0.00131835 2.30897e-05
5.30302e-05 2.30897e-05 -0.00123737
0.00147605 -0.000263624 3.759e-05
-0.000263624 0.000507448 1.85531e-05
3.759e-05 1.85531e-05 0.000659727
0.00347471 -0.000346988 4.51514e-05
-0.000346988 1.77341e-05 2.73565e-05
4.51514e-05 2.73565e-05 0.00104007
0.000982319 5.75488e-05 3.29651e-07
5.75488e-05 0.000130325 -3.06044e-07
3.29651e-07 -3.06044e-07 4.52982e-05
6.20056e-05 -0.000106322 -1.78069e-05
-0.000106322 9.33448e-05 -3.64624e-06
-1.78069e-05 -3.64624e-06 1.56695e-05
0.00201986 -2.41298e-05 -3.27733e-06
-2.41298e-05 0.000187974 -9.71859e-06
-3.27733e-06 -9.71859e-06 7.70899e-05
0.00135269 0.000106935 -3.89551e-06
0.000106935 0.000165459 -5.55146e-07
-3.89551e-06 -5.55146e-07 9.67968e-05
0.000803782 6.47686e-05 -1.72814e-06
6.47686e-05 0.000141569 -5.61871e-07
-1.72814e-06 -5.61871e-07 -1.80969e-05
-0.000133817 6.61641e-05 9.80324e-06
6.61641e-05 -0.000352251 -1.36722e-05
9.80324e-06 -1.36722e-05 -0.000386818
0.00555488 0.000510354 -3.33914e-05
0.000510354 0.0015462 -1.28829e-05
-3.33914e-05 -1.28829e-05 0.000876022
0.00788308 -0.000384312 5.00192e-06
-0.000384312 0.00261048 4.48601e-06
5.00192e-06 4.48601e-06 0.00147534
0.00039121 -0.000337028 5.53118e-06
-0.000337028 -0.00108743 6.53645e-06
5.53118e-06 6.53645e-06 -0.000851487
0.0034962 -0.00017814 2.71289e-06
-0.00017814 0.000168514 1.354e-06
2.71289e-06 1.354e-06 0.000819942
0.00137955 0.000104921 -5.46449e-06
0.000104921 0.000365695 -6.38839e-06
-5.46449e-06 -6.38839e-06 0.000296486
0.00175484 -4.82834e-06 -2.58742e-05
-4.82834e-06 0.000194866 -6.28473e-06
-2.58742e-05 -6.28473e-06 6.44033e-05
0.00139486 -6.75656e-06 -7.67652e-06
-6.75656e-06 -2.3514e-05 -1.70006e-05
-7.67652e-06 -1.70006e-05 -8.61534e-05
-0.000310265 -2.93736e-05 -1.47673e-05
-2.93736e-05 -0.000315161 -1.18933e-05
-1.47673e-05 -1.18933e-05 -0.000426991
0.00317669 0.000281838 -1.0795e-05
0.000281838 0.00112672 4.74936e-05
-1.0795e-05 4.74936e-05 0.000732719
0.00842242 -0.000244257 1.76661e-05
-0.000244257 0.00255412 -7.31975e-06
1.76661e-05 -7.31975e-06 0.00118044
-0.00250306 -0.000185234 -4.58964e-05
-0.000185234 -0.00252829 -3.02259e-05
-4.58964e-05 -3.02259e-05 -0.00268693
0.0040845 3.04345e-05 -8.37615e-07
3.04345e-05 0.000515567 -2.32305e-05
-8.37615e-07 -2.32305e-05 0.00114949
0.0009353 5.50107e-05 1.00584e-07
5.50107e-05 8.1579e-05 1.45229e-06
1.00584e-07 1.45229e-06 4.59471e-06
0.00091944 6.85506e-05 -4.49438e-07
6.85506e-05 8.45901e-05 -8.18405e-07
-4.49438e-07 -8.18405e-07 1.4509e-05
0.000571591 4.18342e-05 1.3631e-06
4.18342e-05 -8.76206e-05 -2.46214e-06
1.3631e-06 -2.46214e-06 -0.000145727
0.000938103 5.14917e-05 -9.80288e-07
5.14917e-05 7.03672e-05 -8.39768e-07
-9.80288e-07 -8.39768e-07 1.0417e-05
0.000931052 -2.51908e-05 5.27787e-08
-2.51908e-05 6.70929e-05 1.06336e-07
5.27787e-08 1.06336e-07 6.24377e-07
0.000997544 -1.3485e-05 -8.5325e-07
-1.3485e-05 0.000103846 3.15428e-07
-8.5325e-07 3.15428e-07 3.77313e-05
0.000877272 -9.83026e-07 -6.27693e-07
-9.83026e-07 4.54209e-05 8.14553e-07
-6.27693e-07 8.14553e-07 -2.19352e-05
0.000951729 8.55823e-06 3.54682e-07
8.55823e-06 7.56053e-05 -3.4883e-10
3.54682e-07 -3.4883e-10 9.9084e-06
0.00093656 -1.2495e-05 -1.96401e-07
-1.2495e-05 6.38604e-05 9.91223e-08
-1.96401e-07 9.91223e-08 -2.40786e-06
0.000988444 -1.88753e-05 3.05973e-07
-1.88753e-05 0.00010016 4.81948e-07
3.05973e-07 4.81948e-07 3.41846e-05
0.00110404 -3.71871e-05 2.99399e-07
-3.71871e-05 0.000169777 5.06632e-07
2.99399e-07 5.06632e-07 0.000114191
0.000998165 -4.12869e-05 1.67423e-06
-4.12869e-05 8.56556e-05 -4.78631e-07
1.67423e-06 -4.78631e-07 2.44517e-05
0.000880243 3.55744e-05 1.08807e-06
3.55744e-05 3.93393e-05 2.38951e-07
1.08807e-06 2.38951e-07 -2.95701e-05
0.000928947 -1.92166e-05 7.98699e-07
-1.92166e-05 6.67075e-05 -2.87906e-07
7.98699e-07 -2.87906e-07 7.89823e-07
0.000872527 4.02028e-05 -2.82537e-07
4.02028e-05 4.23539e-05 -3.87157e-07
-2.82537e-07 -3.87157e-07 -2.13119e-05
0.000919945 3.01556e-05 -7.1118e-07
3.01556e-05 5.74316e-05 -4.22779e-07
-7.1118e-07 -4.22779e-07 -7.18507e-06
0.000953596 3.54638e-05 -2.11834e-07
3.54638e-05 7.81863e-05 -1.34776e-07
-2.11834e-07 -1.34776e-07 1.03552e-05
0.000872028 3.63179e-05 2.88545e-07
3.63179e-05 4.72944e-05 3.49453e-07
2.88545e-07 3.49453e-07 -1.86701e-05
0.000911333 3.93545e-05 3.58216e-08
3.93545e-05 5.76699e-05 -1.53202e-07
3.58216e-08 -1.53202e-07 -9.49046e-06
0.000882179 2.09762e-05 1.40236e-06
2.09762e-05 4.94496e-05 1.00009e-06
1.40236e-06 1.00009e-06 -2.16232e-05
0.000931886 2.72496e-05 3.45994e-07
2.72496e-05 6.14688e-05 4.31236e-07
3.45994e-07 4.31236e-07 -4.48651e-06
0.000889635 -4.62156e-05 2.85366e-07
-4.62156e-05 7.13317e-05 4.77256e-07
2.85366e-07 4.77256e-07 -1.50616e-05
0.000961629 -3.07325e-06 -2.285e-07
-3.07325e-06 9.678e-05 -4.84395e-08
-2.285e-07 -4.84395e-08 1.60764e-05
0.000780079 -3.98652e-05 1.44245e-07
-3.98652e-05 2.60275e-05 2.51149e-06
1.44245e-07 2.51149e-06 -6.92545e-05
0.00101801 -9.73982e-05 -1.76244e-06
-9.73982e-05 0.000137861 3.51952e-06
-1.76244e-06 3.51952e-06 2.36101e-05
0.00107181 -3.10735e-05 5.7474e-07
-3.10735e-05 0.000163934 -1.98907e-07
5.7474e-07 -1.98907e-07 7.88206e-05
0.000794224 -5.37996e-05 3.61321e-07
-5.37996e-05 3.69868e-05 -1.97765e-06
3.61321e-07 -1.97765e-06 -6.02629e-05
0.000894393 4.4986e-06 -2.73241e-07
4.4986e-06 6.70181e-05 -5.77033e-07
-2.73241e-07 -5.77033e-07 -8.45587e-06
0.000751662 1.17593e-05 4.14759e-07
1.17593e-05 -1.88637e-05 1.11561e-06
4.14759e-07 1.11561e-06 -8.43583e-05
0.000905088 1.70284e-05 -3.56559e-07
1.70284e-05 7.00517e-05 -6.48246e-07
-3.56559e-07 -6.48246e-07 -4.90539e-07
0.000888735 7.42697e-06 -2.72981e-08
7.42697e-06 5.20461e-05 3.41492e-07
-2.72981e-08 3.41492e-07 -7.9594e-06
0.000854542 2.23289e-05 -5.2265e-07
2.23289e-05 2.5599e-05 8.85587e-07
-5.2265e-07 8.85587e-07 -2.20203e-05
0.000893342 -6.41325e-06 1.76588e-07
-6.41325e-06 5.56745e-05 -5.25185e-07
1.76588e-07 -5.25185e-07 -3.81867e-06
0.000863114 3.24258e-06 -3.02733e-07
3.24258e-06 2.87051e-05 1.33743e-08
-3.02733e-07 1.33743e-08 -1.7836e-05
0.00082793 2.05602e-05 -9.29068e-07
2.05602e-05 4.14513e-06 1.69754e-06
-9.29068e-07 1.69754e-06 -2.56919e-05
0.000882003 -7.30122e-06 9.72688e-07
-7.30122e-06 3.67953e-05 -7.11258e-07
9.72688e-07 -7.11258e-07 -9.35137e-06
0.000835282 1.27351e-05 -1.45974e-07
1.27351e-05 4.21037e-06 5.87493e-10
-1.45974e-07 5.87493e-10 -2.4574e-05
0.00135829 2.19843e-05 -6.16466e-06
2.19843e-05 0.000280428 4.29663e-06
-6.16466e-06 4.29663e-06 0.000281089
0.000832171 4.15287e-06 9.4023e-07
4.15287e-06 6.47197e-07 -1.62406e-06
9.4023e-07 -1.62406e-06 -2.75888e-05
0.00106882 1.60305e-05 -2.598e-06
1.60305e-05 0.000121627 5.87229e-07
-2.598e-06 5.87229e-07 0.000121511
0.000939717 1.47942e-05 -1.15948e-06
1.47942e-05 5.33997e-05 1.56967e-06
-1.15948e-06 1.56967e-06 6.94525e-05
0.000777235 9.97354e-06 4.78019e-07
9.97354e-06 -3.79622e-05 -3.09779e-06
4.78019e-07 -3.09779e-06 -3.902e-05
0.00153601 1.2053e-05 4.00394e-06
1.2053e-05 0.000370292 -1.19968e-06
4.00394e-06 -1.19968e-06 0.000389773
0.00212749 7.01306e-06 4.62499e-06
7.01306e-06 0.000686878 -4.00728e-06
4.62499e-06 -4.00728e-06 0.000709407
0.000922894 -2.69788e-05 7.32639e-07
-2.69788e-05 6.24869e-05 -3.24461e-07
7.32639e-07 -3.24461e-07 1.72843e-05
0.000841235 -8.41702e-06 -2.68704e-07
-8.41702e-06 4.75195e-06 -1.46798e-06
-2.68704e-07 -1.46798e-06 -2.01219e-05
0.000910464 -7.96013e-06 4.38816e-07
-7.96013e-06 5.6205e-05 1.55583e-07
4.38816e-07 1.55583e-07 1.26846e-05
0.000795408 -5.65351e-06 -3.44793e-07
-5.65351e-06 -3.09091e-05 -3.0369e-06
-3.44793e-07 -3.0369e-06 -2.89086e-05
0.000845954 -5.07758e-06 -2.92728e-08
-5.07758e-06 5.31016e-06 -1.93133e-09
-2.92728e-08 -1.93133e-09 -1.8536e-05
0.000878263 -2.90345e-05 -9.27745e-07
-2.90345e-05 3.77784e-05 1.03975e-06
-9.27745e-07 1.03975e-06 -4.46101e-06
0.00201531 -5.38529e-07 -6.9412e-07
-5.38529e-07 0.000625927 -3.9886e-06
-6.9412e-07 -3.9886e-06 0.000649858
0.000790704 -3.26487e-07 -7.52925e-08
-3.26487e-07 -3.43766e-05 2.84126e-09
-7.52925e-08 2.84126e-09 -3.20905e-05
0.000846561 -1.7528e-06 5.51913e-08
-1.7528e-06 4.77533e-06 1.57194e-06
5.51913e-08 1.57194e-06 -1.88474e-05
0.000792501 5.06079e-06 -2.08205e-07
5.06079e-06 -3.2913e-05 3.09542e-06
-2.08205e-07 3.09542e-06 -3.11607e-05
0.00203234 6.7003e-06 -2.00066e-06
6.7003e-06 0.000635492 -1.50249e-08
-2.00066e-06 -1.50249e-08 0.000659153
0.00206221 1.32196e-05 -8.97503e-06
1.32196e-05 0.000653006 3.96175e-06
-8.97503e-06 3.96175e-06 0.000676096
-0.00108492 9.09259e-05 -2.78094e-05
9.09259e-05 -0.000400794 1.93976e-06
-2.78094e-05 1.93976e-06 -0.000579774
-0.00112586 0.000242971 7.41163e-06
0.000242971 -0.000385932 1.68721e-06
7.41163e-06 1.68721e-06 -0.000403725
0.00172807 4.90947e-05 -5.00055e-05
4.90947e-05 -4.493e-05 2.60232e-05
-5.00055e-05 2.60232e-05 -0.000115387
-0.0012357 0.000269849 3.21585e-05
0.000269849 -0.000775134 -1.14077e-05
3.21585e-05 -1.14077e-05 -0.000567661
0.00205305 4.37634e-05 -8.12654e-05
4.37634e-05 0.000263555 1.39669e-06
-8.12654e-05 1.39669e-06 -5.43659e-05
0.00185265 3.06106e-05 2.89066e-05
3.06106e-05 0.000161139 -3.94045e-06
2.89066e-05 -3.94045e-06 7.60904e-05
0.00135833 -0.000112238 -4.99926e-05
-0.000112238 -0.000372308 -8.83505e-06
-4.99926e-05 -8.83505e-06 -0.000930855
0.00560581 0.000437865 7.78041e-05
0.000437865 0.00272954 -2.28883e-05
7.78041e-05 -2.28883e-05 0.00282814
-0.00172148 0.000543347 1.54263e-05
0.000543347 -0.00227829 1.88789e-05
1.54263e-05 1.88789e-05 -0.000951356
0.00134927 6.09496e-05 -3.18793e-06
6.09496e-05 -9.83491e-05 1.92945e-06
-3.18793e-06 1.92945e-06 -0.000311737
0.00217838 0.000281277 1.108e-05
0.000281277 -1.185e-06 -1.56074e-05
1.108e-05 -1.56074e-05 -0.00111819
0.00415053 0.000652559 -6.00774e-06
0.000652559 0.00114831 -5.89159e-06
-6.00774e-06 -5.89159e-06 0.00150521
0.00200055 0.000279826 -3.32747e-06
0.000279826 -0.0006692 4.96397e-06
-3.32747e-06 4.96397e-06 -8.89491e-06
0.00169317 5.11279e-06 -1.56548e-05
5.11279e-06 -0.000307223 -1.24018e-06
-1.56548e-05 -1.24018e-06 -0.000491254
0.00340242 0.000412273 6.1574e-05
0.000412273 0.000693145 -4.18121e-05
6.1574e-05 -4.18121e-05 -0.000526684
-0.00364397 0.000245643 -8.12105e-05
0.000245643 -0.00304796 1.84774e-05
-8.12105e-05 1.84774e-05 -0.00285471
0.00108983 0.000151265 -1.30317e-05
0.000151265 -0.00145086 1.88598e-05
-1.30317e-05 1.88598e-05 -0.000855074
0.000973861 -1.63451e-05 1.10911e-06
-1.63451e-05 0.000109123 4.21474e-07
1.10911e-06 4.21474e-07 3.25562e-05
0.000916186 3.23951e-05 -1.27365e-06
3.23951e-05 7.78719e-05 -3.57305e-07
-1.27365e-06 -3.57305e-07 9.20158e-06
0.000865052 6.90709e-06 7.22716e-07
6.90709e-06 4.33744e-05 -2.48313e-07
7.22716e-07 -2.48313e-07 -1.20533e-05
0.000916388 5.15186e-05 1.8454e-06
5.15186e-05 8.16625e-05 7.59055e-07
1.8454e-06 7.59055e-07 1.57022e-05
0.000837716 1.13543e-05 -1.66457e-07
1.13543e-05 3.62398e-05 6.87719e-07
-1.66457e-07 6.87719e-07 -3.98558e-05
0.000956183 2.95814e-05 1.50946e-07
2.95814e-05 9.97353e-05 5.27697e-07
1.50946e-07 5.27697e-07 3.09922e-05
0.000864692 -6.18572e-06 -3.01004e-07
-6.18572e-06 4.76285e-05 1.01471e-06
-3.01004e-07 1.01471e-06 -1.70128e-05
0.000969368 5.60475e-05 -7.10069e-07
5.60475e-05 0.000104295 2.71653e-07
-7.10069e-07 2.71653e-07 3.65832e-05
0.000952257 2.09637e-05 -3.61841e-07
2.09637e-05 9.47667e-05 3.34992e-07
-3.61841e-07 3.34992e-07 3.05866e-05
0.000796025 -2.23541e-05 -8.66075e-07
-2.23541e-05 1.0668e-05 -3.39551e-07
-8.66075e-07 -3.39551e-07 -4.99311e-05
0.00100248 -5.68363e-05 6.51923e-06
-5.68363e-05 -0.000328664 -1.73243e-08
6.51923e-06 -1.73243e-08 -0.000407372
0.00158059 -0.000184756 1.64723e-06
-0.000184756 -3.78466e-06 3.67262e-06
1.64723e-06 3.67262e-06 -9.10979e-05
0.000841865 -0.000136679 8.88097e-06
-0.000136679 -2.0787e-06 7.91344e-08
8.88097e-06 7.91344e-08 -0.000131535
0.00101013 -7.6661e-05 5.47436e-06
-7.6661e-05 0.000134044 -1.41889e-06
5.47436e-06 -1.41889e-06 -1.0444e-05
0.00106768 -1.9886e-05 6.92545e-07
-1.9886e-05 0.000164209 -1.29692e-06
6.92545e-07 -1.29692e-06 5.79168e-05
0.000833075 -4.89878e-05 -5.93084e-07
-4.89878e-05 3.08856e-05 -5.78876e-07
-5.93084e-07 -5.78876e-07 -5.27977e-05
0.000861175 4.00755e-05 -9.78474e-08
4.00755e-05 4.68706e-05 -3.01082e-07
-9.78474e-08 -3.01082e-07 -3.06865e-05
0.00091287 -2.42094e-05 -4.83389e-08
-2.42094e-05 7.68608e-05 5.41126e-07
-4.83389e-08 5.41126e-07 -1.75637e-06
0.00164065 -0.000162762 -8.79242e-07
-0.000162762 0.000156906 -4.20147e-07
-8.79242e-07 -4.20147e-07 7.53359e-05
0.000963832 -1.5066e-06 -2.07341e-07
-1.5066e-06 9.795e-05 -3.76812e-07
-2.07341e-07 -3.76812e-07 1.39584e-05
0.00103502 -3.66821e-05 -3.92539e-07
-3.66821e-05 0.000124017 -7.29889e-08
-3.92539e-07 -7.29889e-08 3.63353e-05
0.00154017 -0.000185198 2.8054e-07
-0.000185198 0.000233997 -1.26101e-06
2.8054e-07 -1.26101e-06 0.000118887
0.0010951 -2.67535e-05 -1.50254e-06
-2.67535e-05 0.000188099 1.02265e-06
-1.50254e-06 1.02265e-06 5.81469e-05
-0.000223334 -0.000196414 -5.69044e-07
-0.000196414 -0.000842998 -9.26492e-06
-5.69044e-07 -9.26492e-06 -0.000758665
0.00178516 -7.31862e-05 -5.19674e-06
-7.31862e-05 0.000572705 1.0045e-05
-5.19674e-06 1.0045e-05 0.000414486
0.000572483 1.86746e-05 -2.0885e-06
1.86746e-05 -0.000123159 5.727e-06
-2.0885e-06 5.727e-06 -0.000208903
0.00091362 6.12813e-06 4.3468e-07
6.12813e-06 6.25121e-05 9.325e-07
4.3468e-07 9.325e-07 -1.58983e-05
0.000896789 2.1163e-05 -4.86912e-07
2.1163e-05 5.09373e-05 1.25249e-06
-4.86912e-07 1.25249e-06 -3.7701e-05
0.00155028 -1.15725e-06 -9.51226e-06
-1.15725e-06 0.000120492 2.22804e-08
-9.51226e-06 2.22804e-08 2.41432e-06
2.87963e-05 -1.39053e-06 -7.3936e-06
-1.39053e-06 0.00027092 -1.06171e-06
-7.3936e-06 -1.06171e-06 0.000113117
-0.0050852 -5.18294e-05 3.03035e-06
-5.18294e-05 -0.00261805 4.49708e-06
3.03035e-06 4.49708e-06 -0.00249875
0.000870013 7.0417e-05 2.13967e-06
7.0417e-05 7.74746e-05 1.58921e-06
2.13967e-06 1.58921e-06 -9.32929e-06
0.000175842 2.12075e-05 4.23738e-06
2.12075e-05 -0.000166951 1.80835e-06
4.23738e-06 1.80835e-06 -0.000331525
0.00133635 8.04334e-05 9.31528e-06
8.04334e-05 0.000176887 -2.60297e-06
9.31528e-06 -2.60297e-06 8.74495e-05
-0.00122096 -5.60006e-05 1.89561e-05
-5.60006e-05 -0.000524685 2.89911e-06
1.89561e-05 2.89911e-06 -0.000715037
0.00310021 -0.0004053 1.01717e-05
-0.0004053 0.000562743 3.51808e-06
1.01717e-05 3.51808e-06 -0.000781607
0.00552223 0.000478366 8.39161e-05
0.000478366 0.00153289 -3.09875e-05
8.39161e-05 -3.09875e-05 0.00103678
0.00012971 6.51202e-05 -1.33789e-05
6.51202e-05 -0.00022634 1.31488e-05
-1.33789e-05 1.31488e-05 -0.000201898
0.00529364 -0.000555009 4.3145e-05
-0.000555009 0.00143349 3.83455e-05
4.3145e-05 3.83455e-05 0.00153524
0.00212181 -2.24696e-05 2.96752e-05
-2.24696e-05 0.000221994 1.46057e-05
2.96752e-05 1.46057e-05 0.000113372
0.00336384 -0.000157288 1.76893e-05
-0.000157288 0.000226865 1.42659e-05
1.76893e-05 1.42659e-05 0.0008591
0.00116752 9.56565e-05 8.5054e-07
9.56565e-05 0.000261123 -8.10687e-07
8.5054e-07 -8.10687e-07 0.000191776
0.00155299 -2.844e-06 5.94369e-07
-2.844e-06 0.000105852 -3.52602e-06
5.94369e-07 -3.52602e-06 -4.68888e-06
0.00158732 -7.99439e-06 -1.81481e-06
-7.99439e-06 7.65731e-05 -1.55116e-06
-1.81481e-06 -1.55116e-06 1.74871e-05
0.000106616 1.96695e-05 1.23427e-06
1.96695e-05 -9.60401e-05 2.9153e-07
1.23427e-06 2.9153e-07 -0.000207409
0.00333108 0.000352575 -2.5614e-05
0.000352575 0.000898977 -2.36246e-05
-2.5614e-05 -2.36246e-05 0.000597615
0.00436458 9.9264e-05 3.65313e-05
9.9264e-05 0.000781831 1.08431e-05
3.65313e-05 1.08431e-05 -0.000760867
0.00249007 1.52554e-05 1.00243e-06
1.52554e-05 -0.000534127 -8.33731e-06
1.00243e-06 -8.33731e-06 0.000132597
0.00083757 -0.000217237 -9.53056e-06
-0.000217237 -0.000698402 1.92818e-05
-9.53056e-06 1.92818e-05 -0.000795487
0.00112181 4.57862e-05 -2.9186e-06
4.57862e-05 0.000313276 -9.57864e-06
-2.9186e-06 -9.57864e-06 0.0002763
0.00100263 1.45302e-06 1.46763e-06
1.45302e-06 8.45394e-05 4.44253e-06
1.46763e-06 4.44253e-06 3.02547e-05
0.00176017 1.40932e-06 -3.20226e-06
1.40932e-06 0.000243751 -1.02532e-05
-3.20226e-06 -1.02532e-05 0.000168423
0.00108831 0.000138077 1.2266e-05
0.000138077 -0.00136041 -1.94187e-05
1.2266e-05 -1.94187e-05 -0.000830521
-0.00135785 6.62546e-05 9.65277e-06
6.62546e-05 -0.000688133 -7.25073e-06
9.65277e-06 -7.25073e-06 -0.00090837
0.00748764 -5.24664e-06 4.96285e-05
-5.24664e-06 0.00220572 1.33938e-05
4.96285e-05 1.33938e-05 0.000935075
-0.00113433 -3.74683e-05 1.40226e-05
-3.74683e-05 -0.000904636 -5.11452e-05
1.40226e-05 -5.11452e-05 -0.000993624
0.00118077 8.80256e-05 2.17132e-06
8.80256e-05 0.000217568 3.48422e-06
2.17132e-06 3.48422e-06 0.000148047
0.000704166 5.82454e-05 -9.00026e-07
5.82454e-05 -2.50532e-05 1.78254e-06
-9.00026e-07 1.78254e-06 -8.63649e-05
0.000425573 1.6625e-05 -2.45794e-07
1.6625e-05 -0.000121537 -3.25424e-06
-2.45794e-07 -3.25424e-06 -0.000180115
0.000956219 6.5594e-05 -3.86726e-07
6.5594e-05 7.90725e-05 -1.68521e-07
-3.86726e-07 -1.68521e-07 1.26111e-05
0.000924447 1.25274e-06 -6.16472e-07
1.25274e-06 5.69384e-05 -6.1709e-08
-6.16472e-07 -6.1709e-08 -8.33214e-06
0.000809445 -3.08396e-05 -1.73663e-06
-3.08396e-05 7.44279e-06 2.50648e-06
-1.73663e-06 2.50648e-06 -5.9811e-05
0.000940307 3.98072e-05 1.60471e-07
3.98072e-05 6.76865e-05 2.40021e-08
1.60471e-07 2.40021e-08 4.69679e-07
0.000886443 -4.91579e-05 3.73939e-08
-4.91579e-05 3.01738e-05 -3.8688e-07
3.73939e-08 -3.8688e-07 -3.29609e-05
0.00101032 -5.63802e-05 1.9618e-06
-5.63802e-05 0.00011367 1.42206e-06
1.9618e-06 1.42206e-06 5.37605e-05
0.000738924 -1.5345e-05 9.1199e-07
-1.5345e-05 -7.81517e-06 1.07864e-06
9.1199e-07 1.07864e-06 -5.38401e-05
0.000933308 -5.12223e-06 5.74497e-07
-5.12223e-06 4.93558e-05 -1.80667e-07
5.74497e-07 -1.80667e-07 -1.32688e-05
0.000940461 3.48413e-05 -6.50313e-07
3.48413e-05 6.92661e-05 -9.39594e-08
-6.50313e-07 -9.39594e-08 2.98203e-06
0.000889579 3.943e-05 -2.15697e-07
3.943e-05 5.81272e-05 -3.25501e-07
-2.15697e-07 -3.25501e-07 -8.61563e-06
0.000898148 4.2437e-05 -7.54494e-07
4.2437e-05 5.05506e-05 -6.66539e-07
-7.54494e-07 -6.66539e-07 -1.65649e-05
0.000918583 2.23984e-05 1.039e-07
2.23984e-05 5.39863e-05 2.26993e-07
1.039e-07 2.26993e-07 -1.19192e-05
0.00093703 2.23934e-05 5.93283e-07
2.23934e-05 7.70484e-05 3.20424e-07
5.93283e-07 3.20424e-07 6.66902e-06
0.000822756 -3.62319e-05 4.8374e-07
-3.62319e-05 4.18703e-05 1.14319e-06
4.8374e-07 1.14319e-06 -3.37817e-05
0.000848481 -2.76294e-05 -1.69862e-07
-2.76294e-05 5.09331e-05 -7.57233e-07
-1.69862e-07 -7.57233e-07 -3.24102e-05
0.000760378 -4.93936e-05 1.31036e-06
-4.93936e-05 2.40525e-05 1.67117e-06
1.31036e-06 1.67117e-06 -8.87588e-05
0.0010508 -1.06782e-05 -8.58715e-07
-1.06782e-05 0.000143464 -1.0298e-06
-8.58715e-07 -1.0298e-06 6.28563e-05
0.00102878 -5.28559e-05 -3.18676e-07
-5.28559e-05 0.000150004 7.88315e-07
-3.18676e-07 7.88315e-07 5.3302e-05
0.000583082 -7.94393e-05 -1.47786e-06
-7.94393e-05 -8.62755e-05 3.29265e-06
-1.47786e-06 3.29265e-06 -0.000208603
0.000925587 -9.36097e-05 -3.15997e-06
-9.36097e-05 9.20778e-05 8.78712e-07
-3.15997e-06 8.78712e-07 -2.48453e-05
0.000971444 -6.84197e-05 -8.93321e-07
-6.84197e-05 0.00011638 1.52486e-06
-8.93321e-07 1.52486e-06 2.12277e-05
0.000897363 -9.0975e-05 8.88142e-08
-9.0975e-05 7.80362e-05 2.34549e-07
8.88142e-08 2.34549e-07 -3.59228e-05
0.000914581 -6.1846e-06 2.6513e-07
-6.1846e-06 6.92534e-05 1.19808e-06
2.6513e-07 1.19808e-06 -2.39176e-06
0.000996031 -3.31408e-05 -5.69934e-07
-3.31408e-05 0.000123736 -5.31915e-07
-5.69934e-07 -5.31915e-07 3.73837e-05
0.000795768 -5.63555e-05 7.01261e-07
-5.63555e-05 3.92203e-05 -3.33484e-06
7.01261e-07 -3.33484e-06 -5.56943e-05
0.00106931 3.88718e-06 -7.93011e-07
3.88718e-06 0.000159012 -1.5637e-06
-7.93011e-07 -1.5637e-06 8.47923e-05
0.000832407 1.09276e-05 6.09794e-08
1.09276e-05 2.3714e-05 -2.15882e-08
6.09794e-08 -2.15882e-08 -4.07139e-05
0.000855751 2.96691e-05 -2.25529e-07
2.96691e-05 2.8747e-05 1.08055e-06
-2.25529e-07 1.08055e-06 -2.22067e-05
0.000904894 1.01771e-06 1.20883e-07
1.01771e-06 6.16033e-05 -4.29505e-07
1.20883e-07 -4.29505e-07 7.78555e-07
0.000863268 1.39061e-05 -3.5389e-07
1.39061e-05 3.04508e-05 -6.17169e-08
-3.5389e-07 -6.17169e-08 -1.73385e-05
0.000820667 2.49199e-05 -1.12528e-06
2.49199e-05 4.37405e-06 1.72728e-06
-1.12528e-06 1.72728e-06 -2.68481e-05
0.000871879 -5.1699e-06 8.49179e-07
-5.1699e-06 3.31971e-05 -8.21725e-07
8.49179e-07 -8.21725e-07 -1.34515e-05
0.000829505 1.94347e-05 -8.94109e-08
1.94347e-05 4.44756e-06 1.07765e-09
-8.94109e-08 1.07765e-09 -2.52825e-05
0.00132796 2.74424e-05 -6.96596e-06
2.74424e-05 0.000269959 3.08542e-06
-6.96596e-06 3.08542e-06 0.000269476
0.000834836 9.01394e-06 1.03659e-06
9.01394e-06 3.57487e-06 -1.6394e-06
1.03659e-06 -1.6394e-06 -2.50803e-05
0.00106476 2.12056e-05 -3.2173e-06
2.12056e-05 0.00012329 5.55207e-07
-3.2173e-06 5.55207e-07 0.00012243
0.000931184 1.9791e-05 -1.71135e-06
1.9791e-05 5.34394e-05 1.58316e-06
-1.71135e-06 1.58316e-06 6.86072e-05
0.000776092 1.48334e-05 7.49938e-07
1.48334e-05 -3.58734e-05 -3.1414e-06
7.49938e-07 -3.1414e-06 -3.73921e-05
0.00153076 1.81239e-05 5.33036e-06
1.81239e-05 0.000370613 -1.1451e-06
5.33036e-06 -1.1451e-06 0.000389542
0.00212291 1.4029e-05 8.06526e-06
1.4029e-05 0.000686436 -3.94134e-06
8.06526e-06 -3.94134e-06 0.000708633
0.000721308 -1.47895e-06 -2.44598e-07
-1.47895e-06 -4.03287e-05 -1.01245e-06
-2.44598e-07 -1.01245e-06 -9.29659e-05
0.000616071 -1.27312e-05 -2.15649e-07
-1.27312e-05 -0.000111505 -1.8318e-06
-2.15649e-07 -1.8318e-06 -0.000140037
0.000944499 -1.25067e-05 4.65879e-09
-1.25067e-05 7.54114e-05 3.27994e-08
4.65879e-09 3.27994e-08 2.90197e-05
0.000796577 -1.06872e-05 -4.36684e-07
-1.06872e-05 -2.78277e-05 -3.03125e-06
-4.36684e-07 -3.03125e-06 -2.69561e-05
0.000723904 -8.82766e-06 4.39026e-08
-8.82766e-06 -5.72369e-05 1.74455e-08
4.39026e-08 1.74455e-08 -8.30086e-05
0.000718344 -3.69967e-05 8.60029e-08
-3.69967e-05 -4.4389e-05 6.66442e-07
8.60029e-08 6.66442e-07 -8.95937e-05
0.00201851 -7.2766e-06 -4.58052e-06
-7.2766e-06 0.000628656 -3.9721e-06
-4.58052e-06 -3.9721e-06 0.000652337
0.00079004 -5.4486e-06 -1.50537e-07
-5.4486e-06 -3.38332e-05 -5.60842e-09
-1.50537e-07 -5.60842e-09 -3.17882e-05
0.000846161 -5.71228e-06 6.95792e-08
-5.71228e-06 5.41733e-06 1.54224e-06
6.95792e-08 1.54224e-06 -1.84312e-05
0.0020153 -1.33411e-07 -1.95215e-06
-1.33411e-07 0.000625913 -6.04128e-10
-1.95215e-06 -6.04128e-10 0.000649838
0.000791151 -8.66032e-08 5.26993e-08
-8.66032e-08 -3.41694e-05 3.07569e-06
5.26993e-08 3.07569e-06 -3.18922e-05
0.00203626 7.08624e-06 -4.48748e-06
7.08624e-06 0.00063777 4.01068e-06
-4.48748e-06 4.01068e-06 0.000661347
0.00103046 1.21997e-05 -2.60445e-05
1.21997e-05 -0.000195759 7.75067e-06
-2.60445e-05 7.75067e-06 -0.000322899
0.00113454 0.000134251 1.24095e-06
0.000134251 0.000747872 -3.07021e-06
1.24095e-06 -3.07021e-06 0.000749655
0.000534916 3.78298e-06 5.51608e-05
3.78298e-06 0.000405656 -1.32674e-05
5.51608e-05 -1.32674e-05 0.000248922
0.000895186 1.7831e-05 -3.55935e-08
1.7831e-05 5.82141e-05 1.35019e-07
-3.55935e-08 1.35019e-07 -9.91792e-06
0.00161657 2.74007e-05 -5.80182e-06
2.74007e-05 0.000115381 1.45486e-05
-5.80182e-06 1.45486e-05 6.52413e-05
0.00152705 4.14288e-05 -1.4826e-05
4.14288e-05 -0.000162811 5.08909e-06
-1.4826e-05 5.08909e-06 -0.000260744
0.0013059 0.00031531 5.21545e-05
0.00031531 0.000461993 -2.7995e-05
5.21545e-05 -2.7995e-05 0.00086706
0.00316651 5.43183e-05 -3.32837e-05
5.43183e-05 0.000619025 6.65429e-06
-3.32837e-05 6.65429e-06 0.000378608
0.00890303 0.000543827 1.74952e-05
0.000543827 0.00314428 -1.13304e-05
1.74952e-05 -1.13304e-05 0.00219156
-0.0023523 0.000411049 4.55407e-05
0.000411049 -0.00196073 -1.04246e-05
4.55407e-05 -1.04246e-05 -0.00149728
0.00286852 0.00029342 3.12801e-05
0.00029342 -8.67675e-05 -2.4194e-05
3.12801e-05 -2.4194e-05 0.000533862
0.00214279 -1.0362e-05 -4.49233e-05
-1.0362e-05 -0.000352435 4.08438e-06
-4.49233e-05 4.08438e-06 -0.000709357
0.00684902 0.000387036 3.4173e-05
0.000387036 0.00239031 -1.33059e-05
3.4173e-05 -1.33059e-05 0.00122495
0.0036375 0.00043589 -4.6152e-06
0.00043589 0.000172963 3.0537e-06
-4.6152e-06 3.0537e-06 0.000294882
0.00295363 0.000167934 -4.25575e-06
0.000167934 -0.000376869 2.37966e-06
-4.25575e-06 2.37966e-06 0.00024929
0.00419777 -0.000192268 5.61433e-05
-0.000192268 0.000636908 -2.84687e-05
5.61433e-05 -2.84687e-05 0.000134385
0.00675206 0.000411291 2.67733e-05
0.000411291 0.00225584 -8.93281e-06
2.67733e-05 -8.93281e-06 0.000631198
0.00243386 0.000288169 1.18189e-05
0.000288169 -0.000278106 4.33575e-05
1.18189e-05 4.33575e-05 -0.000339757
0.00398936 4.81389e-05 -6.5849e-07
4.81389e-05 0.000330608 1.37435e-05
-6.5849e-07 1.37435e-05 0.00101086
0.000914941 -1.87538e-05 5.01329e-07
-1.87538e-05 7.24259e-05 5.16912e-07
5.01329e-07 5.16912e-07 -7.31791e-06
0.000938067 -3.0343e-05 4.72441e-07
-3.0343e-05 9.20369e-05 1.38568e-08
4.72441e-07 1.38568e-08 1.40992e-05
0.000968559 4.02875e-05 -9.20959e-07
4.02875e-05 0.000107227 -7.71901e-08
-9.20959e-07 -7.71901e-08 3.83487e-05
0.000908811 -1.12145e-05 -2.07248e-07
-1.12145e-05 6.46942e-05 1.38237e-09
-2.07248e-07 1.38237e-09 -7.3326e-06
0.000931531 3.88737e-05 -5.27134e-07
3.88737e-05 8.63695e-05 3.41408e-07
-5.27134e-07 3.41408e-07 1.14572e-05
0.000984083 1.58994e-05 5.53365e-07
1.58994e-05 0.000116005 8.34591e-07
5.53365e-07 8.34591e-07 4.6951e-05
0.0010239 5.11664e-05 -4.80245e-07
5.11664e-05 0.000131764 1.19239e-07
-4.80245e-07 1.19239e-07 6.48562e-05
0.00106036 5.71602e-05 6.7094e-07
5.71602e-05 0.000154385 7.99798e-07
6.7094e-07 7.99798e-07 8.92501e-05
0.000560183 -0.000123479 2.05481e-05
-0.000123479 -0.000391533 -7.22233e-06
2.05481e-05 -7.22233e-06 -0.00044757
0.00106706 -0.000162232 5.59271e-06
-0.000162232 2.77323e-06 -1.8505e-06
5.59271e-06 -1.8505e-06 -0.000112151
0.00092755 -9.3576e-05 -2.02948e-06
-9.3576e-05 9.04615e-05 -2.05426e-07
-2.02948e-06 -2.05426e-07 7.82027e-06
0.0014656 -4.88169e-05 2.71593e-06
-4.88169e-05 0.00036373 -2.58081e-06
2.71593e-06 -2.58081e-06 0.000237719
0.00104879 -4.48177e-05 -1.01985e-06
-4.48177e-05 0.000130753 -1.1874e-06
-1.01985e-06 -1.1874e-06 4.2247e-05
0.00105958 -1.39313e-05 -9.71507e-07
-1.39313e-05 0.000144302 -6.27254e-07
-9.71507e-07 -6.27254e-07 6.38975e-05
0.000983339 1.1132e-05 2.31559e-08
1.1132e-05 0.000103479 -1.00505e-07
2.31559e-08 -1.00505e-07 2.29891e-05
0.00129329 -0.000256715 -6.01197e-06
-0.000256715 -8.10848e-05 5.20496e-07
-6.01197e-06 5.20496e-07 -4.39239e-05
0.000985654 1.08628e-05 1.23499e-07
1.08628e-05 0.000103289 -5.59513e-07
1.23499e-07 -5.59513e-07 1.3458e-05
0.00106115 -2.39917e-05 -9.10438e-07
-2.39917e-05 0.000132944 1.20234e-07
-9.10438e-07 1.20234e-07 4.05023e-05
0.000954674 -6.24402e-05 -3.27639e-07
-6.24402e-05 0.000137347 1.70487e-06
-3.27639e-07 1.70487e-06 -1.37896e-05
0.00107147 -2.63565e-06 1.74527e-07
-2.63565e-06 0.000140061 1.03007e-06
1.74527e-07 1.03007e-06 6.57083e-05
-0.00193463 -0.000225027 8.73711e-06
-0.000225027 -0.00144451 -9.69018e-06
8.73711e-06 -9.69018e-06 -0.00138842
0.0015524 1.92492e-05 -7.96103e-06
1.92492e-05 0.000584314 1.45029e-05
-7.96103e-06 1.45029e-05 0.000434515
0.000542988 2.9659e-06 -8.28897e-07
2.9659e-06 -0.000149247 3.93542e-06
-8.28897e-07 3.93542e-06 -0.000224932
0.000989607 7.84221e-05 5.97218e-07
7.84221e-05 0.000103976 1.58062e-06
5.97218e-07 1.58062e-06 2.06096e-05
0.0012931 2.36096e-07 8.52662e-06
2.36096e-07 0.000309174 1.3821e-06
8.52662e-06 1.3821e-06 0.000241529
0.00134977 -5.87114e-06 1.31449e-05
-5.87114e-06 2.6605e-05 5.59676e-07
1.31449e-05 5.59676e-07 -9.47338e-05
-0.00108543 -3.49601e-06 1.83529e-05
-3.49601e-06 -0.000311771 -1.53744e-07
1.83529e-05 -1.53744e-07 -0.000533868
0.000876054 7.92809e-05 5.52795e-06
7.92809e-05 0.000115495 3.18771e-06
5.52795e-06 3.18771e-06 4.72405e-05
-0.00014188 3.41585e-05 2.41182e-07
3.41585e-05 -0.000203947 7.45263e-06
2.41182e-07 7.45263e-06 -0.00032084
0.0013836 -2.77801e-06 1.9887e-05
-2.77801e-06 3.18533e-05 -7.8024e-07
1.9887e-05 -7.8024e-07 -5.68276e-05
0.0058165 -0.000485714 6.05505e-05
-0.000485714 0.0016801 2.16887e-05
6.05505e-05 2.16887e-05 0.000233002
0.00534961 0.000460021 -2.70801e-05
0.000460021 0.00166876 -6.91127e-05
-2.70801e-05 -6.91127e-05 0.00103779
0.00321398 -0.000324753 1.05761e-05
-0.000324753 0.00013676 6.80692e-05
1.05761e-05 6.80692e-05 4.02752e-05
0.00185959 -1.00466e-05 -4.92426e-07
-1.00466e-05 0.000237189 1.32587e-05
-4.92426e-07 1.32587e-05 0.000179951
0.0011098 1.39468e-05 8.40927e-07
1.39468e-05 -0.00146646 4.80458e-06
8.40927e-07 4.80458e-06 -0.000772536
0.000902416 6.26785e-05 8.26566e-07
6.26785e-05 0.000193246 2.12608e-07
8.26566e-07 2.12608e-07 0.000147073
0.000996834 1.61811e-06 -1.05233e-06
1.61811e-06 8.19747e-05 2.76936e-07
-1.05233e-06 2.76936e-07 2.89471e-05
0.00136573 1.13408e-06 -1.41958e-06
1.13408e-06 7.24184e-05 1.0399e-06
-1.41958e-06 1.0399e-06 5.21314e-06
-0.000523312 7.64493e-05 -6.06944e-08
7.64493e-05 -0.000196323 -1.29183e-06
-6.06944e-08 -1.29183e-06 -0.000341255
0.0029351 0.000160336 3.87506e-06
0.000160336 -0.000316458 -2.76375e-06
3.87506e-06 -2.76375e-06 0.000267379
0.00521787 0.000269441 3.93545e-05
0.000269441 0.000929247 1.84854e-06
3.93545e-05 1.84854e-06 -0.000195069
0.00318396 0.000121819 -4.75909e-05
0.000121819 0.000709299 -3.90979e-06
-4.75909e-05 -3.90979e-06 0.000550046
-0.000657598 3.34337e-05 2.82947e-06
3.34337e-05 -0.000404891 -1.2215e-05
2.82947e-06 -1.2215e-05 -0.000484796
0.00120617 1.67174e-06 -3.31867e-06
1.67174e-06 0.000292771 9.2104e-06
-3.31867e-06 9.2104e-06 0.000226598
0.00164076 1.98648e-05 8.3216e-06
1.98648e-05 0.000134281 -1.39332e-05
8.3216e-06 -1.39332e-05 7.26815e-05
0.00298373 0.000289286 4.11288e-05
0.000289286 -8.54308e-05 -2.38508e-05
4.11288e-05 -2.38508e-05 0.000612175
0.00210287 0.000331068 -1.1023e-05
0.000331068 -0.000383585 -5.07845e-05
-1.1023e-05 -5.07845e-05 -0.000421141
0.00149521 0.000233778 1.66267e-05
0.000233778 0.000286448 -1.14502e-05
1.66267e-05 -1.14502e-05 0.000335011
0.00268303 -0.000185146 9.47096e-05
-0.000185146 0.000427986 9.03595e-06
9.47096e-05 9.03595e-06 -0.000959746
0.000837951 7.64068e-05 -8.03955e-07
7.64068e-05 3.99556e-05 6.39195e-06
-8.03955e-07 6.39195e-06 -2.47506e-05
0.000914965 1.31359e-05 1.26552e-06
1.31359e-05 0.000121752 2.60951e-06
1.26552e-06 2.60951e-06 6.82251e-05
0.00026313 -3.78257e-05 7.29555e-06
-3.78257e-05 -6.27218e-05 -5.14861e-06
7.29555e-06 -5.14861e-06 -0.000160309
0.00099857 1.86924e-05 -7.09529e-07
1.86924e-05 9.49351e-05 -1.34586e-07
-7.09529e-07 -1.34586e-07 2.97702e-05
0.000824826 -5.2846e-05 -1.16591e-06
-5.2846e-05 -2.56449e-07 3.75591e-07
-1.16591e-06 3.75591e-07 -6.43216e-05
0.000970292 -5.52595e-05 -1.43748e-06
-5.52595e-05 8.5773e-05 1.45581e-06
-1.43748e-06 1.45581e-06 2.34047e-05
0.000955611 -1.84203e-05 -7.6501e-08
-1.84203e-05 6.53813e-05 -2.55229e-07
-7.6501e-08 -2.55229e-07 1.48622e-06
0.000728993 -2.08687e-05 -8.75798e-07
-2.08687e-05 -2.68301e-05 1.64997e-06
-8.75798e-07 1.64997e-06 -7.06416e-05
0.000740224 -4.50004e-05 1.58709e-06
-4.50004e-05 4.37987e-05 -3.95512e-07
1.58709e-06 -3.95512e-07 -5.54102e-05
0.000909984 1.3888e-05 -3.19714e-07
1.3888e-05 4.98388e-05 -5.6334e-08
-3.19714e-07 -5.6334e-08 -1.63586e-05
0.000999393 3.44842e-05 -3.17571e-07
3.44842e-05 0.000108789 -6.40941e-08
-3.17571e-07 -6.40941e-08 3.88274e-05
0.00101139 -3.34857e-05 3.72415e-07
-3.34857e-05 0.0001331 3.64138e-07
3.72415e-07 3.64138e-07 5.55579e-05
0.000650797 -4.84326e-05 2.34011e-06
-4.84326e-05 1.36214e-05 2.00673e-06
2.34011e-06 2.00673e-06 -0.000109622
0.00080108 -1.10191e-05 -2.6247e-06
-1.10191e-05 2.76556e-05 -1.24923e-06
-2.6247e-06 -1.24923e-06 -5.29462e-05
0.000674423 -5.38704e-05 2.38461e-07
-5.38704e-05 -1.58521e-05 -1.55526e-07
2.38461e-07 -1.55526e-07 -0.000124355
0.00103412 -0.000108535 1.07191e-06
-0.000108535 0.000158068 1.68622e-06
1.07191e-06 1.68622e-06 1.49705e-05
0.00113926 -0.000112533 -4.13517e-06
-0.000112533 0.000158735 3.04557e-06
-4.13517e-06 3.04557e-06 2.48376e-05
0.00128209 -6.69804e-05 -5.67314e-07
-6.69804e-05 0.000276358 -1.36851e-06
-5.67314e-07 -1.36851e-06 0.000178116
0.000778049 -8.9351e-05 -6.92198e-07
-8.9351e-05 8.8238e-06 4.45767e-07
-6.92198e-07 4.45767e-07 -0.000117122
0.00136789 -0.000117091 -5.28948e-07
-0.000117091 0.000314874 -2.58502e-07
-5.28948e-07 -2.58502e-07 0.000202317
0.000680146 -6.96651e-05 -1.49285e-06
-6.96651e-05 -2.5867e-05 6.19809e-07
-1.49285e-06 6.19809e-07 -0.000129022
0.000941624 -9.40715e-05 2.55879e-07
-9.40715e-05 9.97936e-05 -4.05325e-07
2.55879e-07 -4.05325e-07 -1.49219e-05
0.000936989 -1.28206e-05 -5.0112e-07
-1.28206e-05 8.35723e-05 9.77769e-07
-5.0112e-07 9.77769e-07 6.42526e-06
0.00102942 -6.8864e-05 -1.1013e-06
-6.8864e-05 0.000144705 9.29402e-07
-1.1013e-06 9.29402e-07 4.93659e-05
0.000773394 -8.44156e-05 2.65757e-07
-8.44156e-05 1.63792e-05 -2.00595e-06
2.65757e-07 -2.00595e-06 -9.72675e-05
0.000872025 2.7133e-05 -1.97963e-07
2.7133e-05 4.00655e-05 1.22799e-06
-1.97963e-07 1.22799e-06 -1.60861e-05
0.000833737 -4.57676e-06 4.31574e-07
-4.57676e-06 2.67118e-05 5.25609e-08
4.31574e-07 5.25609e-08 -4.51701e-05
0.000922951 -3.51354e-05 9.00293e-07
-3.51354e-05 8.49201e-05 -2.01837e-06
9.00293e-07 -2.01837e-06 -2.6847e-06
0.000911104 8.71878e-06 -3.07815e-08
8.71878e-06 6.52027e-05 -1.02864e-06
-3.07815e-08 -1.02864e-06 1.84826e-06
0.000860861 2.15014e-05 -1.81647e-07
2.15014e-05 3.11358e-05 -1.05357e-07
-1.81647e-07 -1.05357e-07 -1.96495e-05
0.000814926 3.05569e-05 -1.16395e-06
3.05569e-05 6.29497e-06 1.75227e-06
-1.16395e-06 1.75227e-06 -2.71659e-05
0.000865714 5.09435e-06 5.34772e-07
5.09435e-06 3.19104e-05 -1.02018e-06
5.34772e-07 -1.02018e-06 -1.59609e-05
0.000822065 2.58573e-05 -1.16519e-08
2.58573e-05 4.88495e-06 -5.49735e-09
-1.16519e-08 -5.49735e-09 -2.637e-05
0.000744192 2.79977e-05 -1.48987e-06
2.79977e-05 -3.71518e-05 3.3092e-06
-1.48987e-06 3.3092e-06 -4.22107e-05
0.00083204 1.77941e-05 9.70728e-07
1.77941e-05 5.23766e-06 -1.67976e-06
9.70728e-07 -1.67976e-06 -2.43703e-05
0.000763364 2.40752e-05 1.34645e-07
2.40752e-05 -3.32506e-05 1.35229e-08
1.34645e-07 1.35229e-08 -3.67558e-05
0.00205915 3.67431e-05 -4.83282e-06
3.67431e-05 0.000664891 1.54098e-06
-4.83282e-06 1.54098e-06 0.000684464
0.00077517 1.96542e-05 1.01572e-06
1.96542e-05 -3.24741e-05 -3.17909e-06
1.01572e-06 -3.17909e-06 -3.47691e-05
0.00152392 2.39976e-05 6.53105e-06
2.39976e-05 0.000371266 -1.08229e-06
6.53105e-06 -1.08229e-06 0.000389379
0.00211615 2.08581e-05 1.13919e-05
2.08581e-05 0.000686039 -3.85303e-06
1.13919e-05 -3.85303e-06 0.000707671
0.000743569 -2.1684e-05 9.45046e-08
-2.1684e-05 -3.4126e-05 -8.60841e-07
9.45046e-08 -8.60841e-07 -8.64507e-05
0.000586774 -1.6033e-05 -2.54003e-07
-1.6033e-05 -0.00012388 -1.87552e-06
-2.54003e-07 -1.87552e-06 -0.000155523
0.000839981 -3.31646e-06 -2.34814e-07
-3.31646e-06 2.19184e-05 -5.50455e-07
-2.34814e-07 -5.50455e-07 -2.9979e-05
0.000792391 -1.57194e-05 -5.21037e-07
-1.57194e-05 -2.62839e-05 -3.06969e-06
-5.21037e-07 -3.06969e-06 -2.72392e-05
0.000600611 -1.27935e-05 2.99723e-08
-1.27935e-05 -0.000119526 -5.71461e-07
2.99723e-08 -5.71461e-07 -0.000148359
0.000959243 -1.02149e-06 -1.77338e-07
-1.02149e-06 8.51915e-05 4.57611e-07
-1.77338e-07 4.57611e-07 3.72985e-05
0.00204649 -1.41276e-05 -8.06448e-06
-1.41276e-05 0.000645989 -3.96403e-06
-8.06448e-06 -3.96403e-06 0.000668906
0.000786218 -1.04684e-05 -1.07896e-07
-1.04684e-05 -3.34217e-05 -1.91245e-08
-1.07896e-07 -1.91245e-08 -3.24583e-05
0.00060184 -9.06645e-06 1.40207e-07
-9.06645e-06 -0.000121657 1.40586e-06
1.40207e-07 1.40586e-06 -0.000148317
0.00201663 -6.91793e-06 -2.07445e-06
-6.91793e-06 0.00062746 1.52121e-08
-2.07445e-06 1.52121e-08 0.000651202
0.000785451 -5.24905e-06 1.68795e-07
-5.24905e-06 -3.63263e-05 3.04984e-06
1.68795e-07 3.04984e-06 -3.4244e-05
0.00201652 2.75563e-07 -6.3319e-07
2.75563e-07 0.000626554 4.00472e-06
-6.3319e-07 4.00472e-06 0.000650461
0.00110944 5.17377e-06 3.63347e-06
5.17377e-06 0.000119848 -9.47851e-07
3.63347e-06 -9.47851e-07 5.31982e-05
0.00115391 7.76151e-06 -1.14278e-06
7.76151e-06 -0.000119579 5.60777e-07
-1.14278e-06 5.60777e-07 -0.000242759
0.000997237 0.000104516 3.74862e-05
0.000104516 0.000756158 -7.20777e-06
3.74862e-05 -7.20777e-06 0.000716503
0.000923076 1.72766e-05 1.31062e-07
1.72766e-05 7.0942e-05 6.34045e-08
1.31062e-07 6.34045e-08 4.8938e-06
0.000846303 -4.99679e-06 6.23919e-08
-4.99679e-06 2.56073e-05 4.45192e-08
6.23919e-08 4.45192e-08 -4.05085e-05
0.00098167 2.93094e-05 -3.62574e-07
2.93094e-05 0.000106449 7.47161e-07
-3.62574e-07 7.47161e-07 3.37765e-05
0.00176 1.56293e-05 3.8583e-06
1.56293e-05 0.000250096 1.99812e-05
3.8583e-06 1.99812e-05 0.000179807
0.00138696 2.44034e-05 -3.97574e-06
2.44034e-05 -3.31971e-05 2.65481e-06
-3.97574e-06 2.65481e-06 -8.88026e-05
0.0012878 3.46419e-05 2.07335e-05
3.46419e-05 -0.000297955 -2.00433e-05
2.07335e-05 -2.00433e-05 -0.000432662
0.00376687 -3.3732e-05 -4.20023e-05
-3.3732e-05 0.000530026 1.44562e-05
-4.20023e-05 1.44562e-05 0.000259735
0.00120229 0.000315287 -1.21324e-05
0.000315287 -0.000126524 8.42553e-06
-1.21324e-05 8.42553e-06 -0.00139954
0.00477272 0.000529278 5.75223e-05
0.000529278 0.00104972 -2.29592e-05
5.75223e-05 -2.29592e-05 0.00110974
0.00178244 0.00012889 7.68396e-06
0.00012889 -0.00112333 -1.78977e-05
7.68396e-06 -1.78977e-05 -0.000479833
0.0028121 -0.000164422 -9.91415e-06
-0.000164422 0.000125927 5.26652e-06
-9.91415e-06 5.26652e-06 -6.75444e-05
0.00548071 0.000199643 3.36498e-05
0.000199643 0.00159687 -2.98879e-05
3.36498e-05 -2.98879e-05 0.000174962
0.000852732 8.2075e-05 -9.54062e-06
8.2075e-05 -0.000619604 6.98422e-06
-9.54062e-06 6.98422e-06 -0.000645912
0.00263658 3.33479e-05 -1.25512e-06
3.33479e-05 -0.000524569 9.66176e-07
-1.25512e-06 9.66176e-07 0.000174746
0.00538966 -0.000470293 1.08122e-05
-0.000470293 0.0013335 -6.20831e-05
1.08122e-05 -6.20831e-05 0.00104995
0.00776708 0.000196916 5.01933e-05
0.000196916 0.00287153 -2.04008e-05
5.01933e-05 -2.04008e-05 0.00130191
-0.000718209 5.9114e-05 1.64832e-05
5.9114e-05 -0.000797994 4.15735e-05
1.64832e-05 4.15735e-05 -0.000972634
0.000568986 -0.000106573 6.56577e-06
-0.000106573 -0.00167078 7.45904e-06
6.56577e-06 7.45904e-06 -0.00104666
0.000963938 -1.37317e-06 6.87847e-08
-1.37317e-06 8.99908e-05 9.31961e-07
6.87847e-08 9.31961e-07 1.20522e-05
0.00090694 -1.16383e-05 1.87655e-08
-1.16383e-05 7.01786e-05 -1.45017e-07
1.87655e-08 -1.45017e-07 -1.10004e-05
0.000915597 -3.82876e-05 -3.22796e-07
-3.82876e-05 8.05682e-05 -3.48829e-07
-3.22796e-07 -3.48829e-07 2.0808e-06
0.000912088 8.99357e-06 -2.94533e-07
8.99357e-06 6.68901e-05 -4.00807e-07
-2.94533e-07 -4.00807e-07 -5.50013e-06
0.00102953 7.24688e-05 1.16288e-06
7.24688e-05 0.000138456 3.42105e-08
1.16288e-06 3.42105e-08 6.48706e-05
0.00107245 5.54259e-05 -5.90977e-08
5.54259e-05 0.000158492 1.69468e-07
-5.90977e-08 1.69468e-07 9.07756e-05
0.00276529 -0.000310248 1.0298e-05
-0.000310248 0.000681947 -3.84621e-06
1.0298e-05 -3.84621e-06 0.000654406
-0.000303979 -4.02486e-05 6.91802e-06
-4.02486e-05 -0.000497158 -3.97403e-06
6.91802e-06 -3.97403e-06 -0.000653273
0.00107151 3.76278e-05 1.20238e-07
3.76278e-05 0.000154923 -7.2659e-07
1.20238e-07 -7.2659e-07 7.20331e-05
0.00130322 -6.56268e-05 2.16718e-06
-6.56268e-05 0.000258197 -5.72545e-06
2.16718e-06 -5.72545e-06 0.000159288
0.00113543 2.07742e-06 -3.72899e-07
2.07742e-06 0.000183022 -2.07298e-06
-3.72899e-07 -2.07298e-06 9.54348e-05
0.000964715 -8.23518e-06 3.65377e-07
-8.23518e-06 8.25791e-05 -1.99525e-07
3.65377e-07 -1.99525e-07 7.29134e-06
0.000960056 4.0275e-05 1.70775e-07
4.0275e-05 8.74792e-05 -3.16628e-08
1.70775e-07 -3.16628e-08 6.8837e-06
0.000890575 -0.000281982 -1.00097e-05
-0.000281982 -1.15714e-05 1.65368e-06
-1.00097e-05 1.65368e-06 -3.11156e-06
0.000907608 -1.86014e-05 8.60805e-07
-1.86014e-05 4.49768e-05 -1.37662e-06
8.60805e-07 -1.37662e-06 -2.9432e-05
0.00100123 1.94978e-05 -2.50869e-07
1.94978e-05 0.000340885 -1.85695e-06
-2.50869e-07 -1.85695e-06 0.000200588
0.000964205 2.38022e-06 1.14386e-06
2.38022e-06 8.69479e-05 9.04276e-07
1.14386e-06 9.04276e-07 1.63696e-05
-0.00207354 -0.000115188 4.45626e-06
-0.000115188 -0.00102613 -1.14575e-05
4.45626e-06 -1.14575e-05 -0.00127266
0.000887493 6.98066e-07 1.22764e-06
6.98066e-07 0.000230395 1.99435e-05
1.22764e-06 1.99435e-05 0.00019934
0.000995639 -1.75657e-05 6.1276e-07
-1.75657e-05 0.000103887 2.99798e-06
6.1276e-07 2.99798e-06 2.95617e-05
0.00119671 1.65305e-06 -5.48538e-07
1.65305e-06 0.000364222 1.54788e-07
-5.48538e-07 1.54788e-07 0.000284195
0.000923773 1.12924e-06 6.57854e-07
1.12924e-06 0.000101717 7.10285e-07
6.57854e-07 7.10285e-07 3.0582e-05
0.00117417 -9.0524e-06 3.64783e-05
-9.0524e-06 -5.04091e-05 -8.59235e-08
3.64783e-05 -8.59235e-08 -0.000175601
0.000739254 7.66506e-05 6.40193e-06
7.66506e-05 9.83507e-05 8.03006e-06
6.40193e-06 8.03006e-06 4.32651e-05
0.0011357 0.000168157 9.87349e-06
0.000168157 0.000425542 -1.4972e-05
9.87349e-06 -1.4972e-05 0.000311727
0.000988327 1.77874e-06 -5.13221e-06
1.77874e-06 7.82316e-05 -3.72617e-06
-5.13221e-06 -3.72617e-06 2.64487e-05
0.00282349 0.00010714 -3.13438e-05
0.00010714 0.00032061 -3.04156e-06
-3.13438e-05 -3.04156e-06 -0.000795181
-0.0036201 2.43261e-05 -1.9359e-05
2.43261e-05 -0.00264019 5.40018e-05
-1.9359e-05 5.40018e-05 -0.0028083
0.000888377 1.4882e-06 -2.45228e-06
1.4882e-06 -0.000153324 8.21852e-06
-2.45228e-06 8.21852e-06 -0.000215014
0.00179849 0.000118087 -6.27992e-06
0.000118087 -0.00102965 1.74763e-05
-6.27992e-06 1.74763e-05 -0.000446993
0.00037171 3.74784e-05 -3.6972e-06
3.74784e-05 8.97706e-05 -3.46606e-06
-3.6972e-06 -3.46606e-06 2.53714e-05
0.000907289 9.34829e-07 -2.02713e-06
9.34829e-07 0.000123159 1.44414e-06
-2.02713e-06 1.44414e-06 5.09032e-05
0.00140111 1.58885e-05 4.58332e-06
1.58885e-05 -1.95682e-05 -2.60873e-06
4.58332e-06 -2.60873e-06 -8.83009e-05
0.00189498 0.000284175 5.04905e-05
0.000284175 0.000204208 1.48561e-06
5.04905e-05 1.48561e-06 0.000125204
0.00198362 0.000286016 2.46283e-06
0.000286016 -0.00072617 -6.82311e-06
2.46283e-06 -6.82311e-06 -2.42796e-05
0.000827645 0.000105 9.96246e-06
0.000105 -0.000662231 -8.37077e-06
9.96246e-06 -8.37077e-06 -0.000632023
0.00726732 0.00016781 1.33292e-05
0.00016781 0.00269707 -1.84372e-05
1.33292e-05 -1.84372e-05 0.00124218
-0.000436332 4.72972e-06 -2.58877e-05
4.72972e-06 -5.82968e-05 -1.40466e-05
-2.58877e-05 -1.40466e-05 -0.000201276
0.00111149 2.59277e-06 -2.53423e-06
2.59277e-06 0.00012047 9.80555e-07
-2.53423e-06 9.80555e-07 5.20942e-05
0.00185224 4.27759e-05 4.76558e-05
4.27759e-05 2.57149e-05 -2.45463e-05
4.76558e-05 -2.45463e-05 -6.48727e-05
0.00160583 0.000495978 1.88583e-05
0.000495978 0.000117246 -3.74706e-06
1.88583e-05 -3.74706e-06 0.00101809
-0.00445601 0.000271895 6.87714e-05
0.000271895 -0.00328757 -1.91542e-05
6.87714e-05 -1.91542e-05 -0.00306373
0.0078757 0.000242698 1.9496e-05
0.000242698 0.00272633 -4.68056e-05
1.9496e-05 -4.68056e-05 0.00109092
0.00281094 -7.66828e-05 -4.73777e-07
-7.66828e-05 0.00046228 9.99229e-05
-4.73777e-07 9.99229e-05 0.000393884
0.00151625 1.09561e-05 -5.40278e-06
1.09561e-05 0.000422452 9.10676e-06
-5.40278e-06 9.10676e-06 0.000375115
0.000174637 -3.46923e-05 1.59161e-06
-3.46923e-05 -0.000104328 1.43119e-06
1.59161e-06 1.43119e-06 -0.000217831
0.000419801 -6.02711e-05 3.58229e-06
-6.02711e-05 8.22112e-05 -4.85849e-06
3.58229e-06 -4.85849e-06 -8.59379e-05
0.000928456 -2.76374e-05 -2.56964e-07
-2.76374e-05 5.56326e-05 -6.35172e-07
-2.56964e-07 -6.35172e-07 -9.85869e-06
0.000675143 -2.25322e-05 -5.18769e-07
-2.25322e-05 -6.87342e-05 2.81304e-06
-5.18769e-07 2.81304e-06 -0.000110438
0.000755317 -1.19401e-05 2.2241e-07
-1.19401e-05 5.30349e-05 1.51266e-07
2.2241e-07 1.51266e-07 -3.66181e-05
0.000898244 -9.60246e-05 5.75985e-06
-9.60246e-05 0.000211526 -1.03569e-06
5.75985e-06 -1.03569e-06 2.65658e-05
0.00124226 -3.60862e-05 -9.09819e-07
-3.60862e-05 0.000245507 -2.58854e-07
-9.09819e-07 -2.58854e-07 0.000166608
0.00115288 -8.85573e-05 5.89679e-07
-8.85573e-05 0.000255755 4.16064e-07
5.89679e-07 4.16064e-07 0.00012773
0.00102398 -0.000111208 2.10029e-06
-0.000111208 0.000194311 3.40382e-06
2.10029e-06 3.40382e-06 3.09964e-06
0.000556379 -5.24183e-05 -6.26099e-07
-5.24183e-05 -7.32163e-05 -1.81456e-06
-6.26099e-07 -1.81456e-06 -0.000176431
0.00109586 -0.000109864 -4.87263e-07
-0.000109864 0.000190151 8.27262e-08
-4.87263e-07 8.27262e-08 4.29362e-05
0.00166374 -0.000150261 -1.38031e-06
-0.000150261 0.000426679 2.2019e-06
-1.38031e-06 2.2019e-06 0.000257176
0.00156209 -0.000144636 -4.16772e-06
-0.000144636 0.00033252 2.76602e-06
-4.16772e-06 2.76602e-06 0.000183444
0.000741925 -9.18231e-05 -1.68225e-06
-9.18231e-05 -3.19974e-05 2.50827e-06
-1.68225e-06 2.50827e-06 -0.000148348
0.00104973 -0.000109521 -1.2272e-06
-0.000109521 0.000111394 8.44703e-07
-1.2272e-06 8.44703e-07 -2.39041e-05
0.000966562 -9.89169e-05 -8.07647e-07
-9.89169e-05 0.000100875 -1.34593e-06
-8.07647e-07 -1.34593e-06 -2.8699e-05
0.00117131 -0.000105301 4.80163e-07
-0.000105301 0.000211277 -9.00243e-07
4.80163e-07 -9.00243e-07 0.000106838
0.00107962 -0.000102163 1.82454e-06
-0.000102163 0.000166628 -8.54713e-07
1.82454e-06 -8.54713e-07 5.76764e-05
0.000756343 -3.71591e-05 -1.9052e-07
-3.71591e-05 5.15689e-07 1.45178e-06
-1.9052e-07 1.45178e-06 -8.90086e-05
0.000896944 -7.57539e-05 4.74233e-07
-7.57539e-05 8.58538e-05 -1.59486e-07
4.74233e-07 -1.59486e-07 -1.64638e-05
0.000951079 -9.41577e-05 3.68738e-06
-9.41577e-05 0.000104092 -2.55266e-06
3.68738e-06 -2.55266e-06 -8.37632e-06
0.000880321 2.98976e-05 -2.68082e-07
2.98976e-05 4.81343e-05 1.39423e-06
-2.68082e-07 1.39423e-06 -1.57234e-05
0.000948679 -2.2931e-05 -1.65144e-07
-2.2931e-05 9.09849e-05 -2.56768e-08
-1.65144e-07 -2.56768e-08 1.27084e-05
0.00109341 -6.87675e-05 1.884e-07
-6.87675e-05 0.000175972 -6.70934e-07
1.884e-07 -6.70934e-07 8.06189e-05
0.000804896 3.53533e-05 -1.05322e-06
3.53533e-05 6.38281e-06 1.8655e-06
-1.05322e-06 1.8655e-06 -3.06798e-05
0.000862541 2.40548e-05 -5.45354e-08
2.40548e-05 3.47693e-05 -1.17434e-07
-5.45354e-08 -1.17434e-07 -2.11479e-05
0.000756767 -3.82415e-06 4.3299e-07
-3.82415e-06 -1.37893e-05 -1.1169e-06
4.3299e-07 -1.1169e-06 -8.59225e-05
0.000866548 1.62517e-05 4.43185e-07
1.62517e-05 3.40028e-05 -1.25234e-06
4.43185e-07 -1.25234e-06 -1.67196e-05
0.000814098 3.29509e-05 1.29352e-08
3.29509e-05 6.00849e-06 -2.93919e-08
1.29352e-08 -2.93919e-08 -2.76768e-05
0.000730622 3.21632e-05 -1.81877e-06
3.21632e-05 -3.70761e-05 3.34562e-06
-1.81877e-06 3.34562e-06 -4.4235e-05
0.00082454 2.69453e-05 9.12778e-07
2.69453e-05 5.94357e-06 -1.79191e-06
9.12778e-07 -1.79191e-06 -2.53417e-05
0.000758495 2.84576e-05 9.45148e-08
2.84576e-05 -2.97544e-05 -1.78033e-09
9.45148e-08 -1.78033e-09 -3.48598e-05
0.00211535 3.97145e-05 -1.90794e-05
3.97145e-05 0.000700284 3.55659e-06
-1.90794e-05 3.55659e-06 0.000718833
0.000775553 2.43802e-05 1.30948e-06
2.43802e-05 -2.71869e-05 -3.22652e-06
1.30948e-06 -3.22652e-06 -3.06751e-05
0.00151895 2.99089e-05 7.706e-06
2.99089e-05 0.00037462 -1.00757e-06
7.706e-06 -1.00757e-06 0.000391501
0.00210892 2.74807e-05 1.44872e-05
2.74807e-05 0.000686562 -3.74593e-06
1.44872e-05 -3.74593e-06 0.000707373
0.000864811 1.30475e-05 -5.02966e-07
1.30475e-05 3.08382e-05 -4.86359e-07
-5.02966e-07 -4.86359e-07 -2.27575e-05
0.000807367 -1.82723e-05 -6.63123e-07
-1.82723e-05 -5.26226e-06 -1.40089e-06
-6.63123e-07 -1.40089e-06 -3.77952e-05
0.000789719 9.72581e-06 -6.62022e-07
9.72581e-06 -5.98365e-06 -4.95296e-07
-6.62022e-07 -4.95296e-07 -5.96978e-05
0.000785517 -2.06763e-05 -5.72862e-07
-2.06763e-05 -2.4819e-05 -3.16417e-06
-5.72862e-07 -3.16417e-06 -2.80711e-05
0.000707423 -1.6319e-05 -1.06483e-07
-1.6319e-05 -6.00709e-05 -6.04648e-07
-1.06483e-07 -6.04648e-07 -9.11198e-05
0.000965503 -4.67845e-06 -1.58354e-08
-4.67845e-06 8.78094e-05 -5.72398e-08
-1.58354e-08 -5.72398e-08 3.66426e-05
0.00208908 -2.10169e-05 -1.13663e-05
-2.10169e-05 0.000672353 -3.94003e-06
-1.13663e-05 -3.94003e-06 0.000694101
0.000779505 -1.54656e-05 -1.33296e-07
-1.54656e-05 -3.31205e-05 -1.86712e-08
-1.33296e-07 -1.86712e-08 -3.39731e-05
0.000590753 -1.28095e-05 6.45431e-08
-1.28095e-05 -0.000124568 7.19694e-07
6.45431e-08 7.19694e-07 -0.00015372
0.00203758 -1.37386e-05 -1.88711e-06
-1.37386e-05 0.000640844 2.97247e-08
-1.88711e-06 2.97247e-08 0.000663917
0.000776587 -1.02608e-05 3.74534e-07
-1.02608e-05 -3.86188e-05 3.03909e-06
3.74534e-07 3.03909e-06 -3.75689e-05
0.00201351 -6.54618e-06 3.06777e-06
-6.54618e-06 0.000625578 3.97385e-06
3.06777e-06 3.97385e-06 0.000649381
0.00110703 2.33775e-06 2.96237e-06
2.33775e-06 0.000234135 -8.70599e-06
2.96237e-06 -8.70599e-06 0.000162981
0.00105545 4.27365e-06 -1.40495e-06
4.27365e-06 8.93239e-05 9.59241e-07
-1.40495e-06 9.59241e-07 2.48541e-05
0.0012092 3.01046e-06 2.4071e-05
3.01046e-06 -8.78076e-05 2.17237e-06
2.4071e-05 2.17237e-06 -0.000204472
0.00083869 -3.36071e-05 7.16491e-08
-3.36071e-05 1.83146e-05 -2.96082e-07
7.16491e-08 -2.96082e-07 -4.66863e-05
0.000975265 -1.21984e-05 -1.2793e-07
-1.21984e-05 9.68809e-05 -3.70516e-07
-1.2793e-07 -3.70516e-07 2.59218e-05
0.000952531 1.76641e-05 1.07936e-06
1.76641e-05 8.52443e-05 -8.88871e-08
1.07936e-06 -8.88871e-08 2.08211e-05
0.000850078 -1.79059e-05 2.49741e-08
-1.79059e-05 2.52609e-05 2.37008e-08
2.49741e-08 2.37008e-08 -3.9414e-05
0.000924738 9.13265e-06 2.23133e-08
9.13265e-06 7.33304e-05 3.22005e-07
2.23133e-08 3.22005e-07 1.51775e-06
0.000956752 3.2057e-06 -6.51299e-07
3.2057e-06 8.81606e-05 3.0009e-07
-6.51299e-07 3.0009e-07 1.73168e-05
0.000924258 8.62136e-05 2.76769e-07
8.62136e-05 8.03319e-05 9.55756e-07
2.76769e-07 9.55756e-07 7.39317e-07
0.00135047 -6.77488e-08 5.67953e-06
-6.77488e-08 -2.41964e-05 2.67846e-05
5.67953e-06 2.67846e-05 -8.84183e-05
0.00130205 1.27951e-05 1.09219e-06
1.27951e-05 3.48558e-05 6.73774e-06
1.09219e-06 6.73774e-06 -2.93266e-05
0.00116512 2.14537e-05 -1.52655e-06
2.14537e-05 -0.000182165 -1.03277e-05
-1.52655e-06 -1.03277e-05 -0.000237018
0.00116204 2.10936e-05 2.15424e-06
2.10936e-05 -0.00147865 -1.37367e-05
2.15424e-06 -1.37367e-05 -0.000764477
0.000929875 -0.000167525 -4.39064e-05
-0.000167525 -0.000987267 6.11862e-05
-4.39064e-05 6.11862e-05 -0.00133079
0.00220974 9.33296e-05 3.86178e-05
9.33296e-05 0.000225404 -2.45315e-05
3.86178e-05 -2.45315e-05 -0.00113918
0.00497997 0.000398629 2.79542e-05
0.000398629 0.00153043 -2.26505e-05
2.79542e-05 -2.26505e-05 0.00115951
0.0020173 -0.00031764 -2.51788e-05
-0.00031764 -0.000289325 9.20259e-06
-2.51788e-05 9.20259e-06 -0.000761252
0.00230997 -0.000104842 3.88132e-05
-0.000104842 6.22154e-05 -3.95711e-05
3.88132e-05 -3.95711e-05 -0.00136238
0.00361277 1.59877e-05 -1.79096e-05
1.59877e-05 0.000768189 1.58884e-06
-1.79096e-05 1.58884e-06 0.000537272
0.0034983 -0.000147138 -2.9596e-06
-0.000147138 0.000153644 -1.0857e-05
-2.9596e-06 -1.0857e-05 0.000800202
0.00349421 -0.000274485 -4.27573e-06
-0.000274485 0.00070441 -1.01262e-05
-4.27573e-06 -1.01262e-05 0.000666434
0.00291135 -0.000357566 1.34852e-05
-0.000357566 -0.000354511 -8.5567e-05
1.34852e-05 -8.5567e-05 -0.00119626
-0.00148997 -0.00016269 4.04366e-05
-0.00016269 -0.00219416 2.78913e-05
4.04366e-05 2.78913e-05 -0.00242561
0.000468133 -0.000201203 2.72916e-05
-0.000201203 -0.00150716 3.12405e-06
2.72916e-05 3.12405e-06 -0.000830846
0.00106024 -4.09689e-05 -5.22405e-09
-4.09689e-05 0.000134163 1.65503e-06
-5.22405e-09 1.65503e-06 6.26644e-05
0.000869342 -1.82019e-07 7.67637e-08
-1.82019e-07 4.06253e-05 -5.76551e-08
7.67637e-08 -5.76551e-08 -3.74391e-05
0.000860682 -2.21639e-06 -4.85096e-07
-2.21639e-06 4.77939e-05 -1.24324e-06
-4.85096e-07 -1.24324e-06 -3.44857e-05
0.000912333 2.15128e-05 -8.50709e-08
2.15128e-05 6.80138e-05 -1.2563e-06
-8.50709e-08 -1.2563e-06 -5.05153e-06
0.0043176 -0.000342656 1.0065e-05
-0.000342656 0.00171898 3.1988e-06
1.0065e-05 3.1988e-06 0.00169114
0.000905203 7.54814e-06 5.23908e-06
7.54814e-06 0.000320563 -8.8275e-06
5.23908e-06 -8.8275e-06 0.000200098
0.000841963 -2.49166e-05 7.6658e-08
-2.49166e-05 1.39049e-05 -1.64284e-06
7.6658e-08 -1.64284e-06 -6.06835e-05
0.000919552 3.83081e-05 5.21401e-07
3.83081e-05 7.12179e-05 -1.64369e-06
5.21401e-07 -1.64369e-06 -1.10747e-05
0.00138434 -2.81127e-06 1.17944e-06
-2.81127e-06 0.000302871 -6.38487e-06
1.17944e-06 -6.38487e-06 0.000227216
0.000917961 7.11499e-07 -2.68865e-08
7.11499e-07 6.04259e-05 7.58251e-08
-2.68865e-08 7.58251e-08 -1.01272e-05
0.000906059 -9.96513e-06 -1.42585e-06
-9.96513e-06 6.10427e-05 -1.38388e-07
-1.42585e-06 -1.38388e-07 -1.61064e-05
0.000346953 -0.000133388 -5.08591e-06
-0.000133388 0.000194778 -4.74629e-06
-5.08591e-06 -4.74629e-06 -3.54388e-05
0.000994807 -1.13062e-05 2.37096e-06
-1.13062e-05 0.000297961 5.39025e-06
2.37096e-06 5.39025e-06 0.000273651
0.000892332 -1.27679e-05 1.13809e-06
-1.27679e-05 5.99714e-05 -1.81398e-07
1.13809e-06 -1.81398e-07 -1.08428e-05
0.000145781 2.86138e-05 -1.01456e-05
2.86138e-05 0.000548129 -2.36646e-05
-1.01456e-05 -2.36646e-05 -0.000100745
0.00152764 -4.11092e-05 1.59663e-06
-4.11092e-05 0.000561305 1.31516e-05
1.59663e-06 1.31516e-05 0.000483254
0.0013296 -2.65847e-07 -8.51389e-06
-2.65847e-07 0.000333336 -1.44811e-06
-8.51389e-06 -1.44811e-06 0.000263078
0.00087014 1.3184e-06 -8.32351e-08
1.3184e-06 0.000148113 1.02984e-07
-8.32351e-08 1.02984e-07 5.74825e-05
0.000548857 2.15794e-06 -5.94022e-06
2.15794e-06 -0.000109558 2.18165e-06
-5.94022e-06 2.18165e-06 -0.000184797
0.00146074 4.81161e-05 1.92457e-06
4.81161e-05 0.000609762 5.07996e-06
1.92457e-06 5.07996e-06 0.000561441
0.00164621 0.000181806 -6.33039e-05
0.000181806 0.000402179 1.13072e-05
-6.33039e-05 1.13072e-05 0.000443968
0.000640608 2.32897e-07 -3.51159e-06
2.32897e-07 -2.61297e-05 -5.4253e-06
-3.51159e-06 -5.4253e-06 -0.000104206
0.00313157 0.000207024 5.4937e-05
0.000207024 0.000560908 -7.94165e-05
5.4937e-05 -7.94165e-05 -0.000796997
0.0048741 0.000409197 -3.29942e-05
0.000409197 0.00146793 2.95696e-05
-3.29942e-05 2.95696e-05 0.00116898
0.0011639 1.19125e-05 4.99273e-07
1.19125e-05 -0.000179374 1.04143e-05
4.99273e-07 1.04143e-05 -0.00024704
0.00310949 0.000294622 -3.23591e-05
0.000294622 5.82509e-05 2.14336e-05
-3.23591e-05 2.14336e-05 0.000686157
-0.000360305 -2.23845e-05 2.35014e-05
-2.23845e-05 -2.46362e-05 -3.04794e-06
2.35014e-05 -3.04794e-06 -0.000176146
0.00106325 1.99484e-06 1.81127e-06
1.99484e-06 9.42769e-05 -1.09304e-06
1.81127e-06 -1.09304e-06 2.83355e-05
0.00154824 3.28734e-05 1.31455e-05
3.28734e-05 -0.000155276 -4.92367e-06
1.31455e-05 -4.92367e-06 -0.00027701
0.00182148 -2.50747e-05 -1.24809e-05
-2.50747e-05 9.74199e-05 2.20449e-05
-1.24809e-05 2.20449e-05 0.000170207
-5.93746e-05 0.00052321 -3.43786e-06
0.00052321 -0.00105941 5.24457e-06
-3.43786e-06 5.24457e-06 5.48185e-05
0.00320167 0.000466019 2.21934e-06
0.000466019 8.4309e-05 1.07243e-06
2.21934e-06 1.07243e-06 0.000265514
0.00242111 -7.19074e-05 3.81171e-05
-7.19074e-05 0.000269326 -1.7304e-05
3.81171e-05 -1.7304e-05 -0.00145353
0.000769984 -7.15973e-05 2.95164e-05
-7.15973e-05 0.00031424 -7.31921e-06
2.95164e-05 -7.31921e-06 0.000243412
0.0010208 5.41425e-06 2.40132e-05
5.41425e-06 -0.000201679 -6.91031e-06
2.40132e-05 -6.91031e-06 -0.00033786
-0.00104167 0.000236292 9.28243e-06
0.000236292 -0.000673048 -1.22306e-05
9.28243e-06 -1.22306e-05 -0.000516013
-1.75755e-05 0.000472695 4.20147e-05
0.000472695 -0.000247736 -1.24367e-06
4.20147e-05 -1.24367e-06 0.000113368
0.00894446 0.000528033 2.48046e-05
0.000528033 0.00312429 -4.97488e-05
2.48046e-05 -4.97488e-05 0.00169883
0.00291613 -0.000287568 -6.05761e-05
-0.000287568 0.000310192 8.66348e-05
-6.05761e-05 8.66348e-05 -0.000120552
0.000262332 -4.10631e-05 -5.84561e-06
-4.10631e-05 -6.37132e-05 8.23336e-06
-5.84561e-06 8.23336e-06 -0.000189518
0.000409843 -3.02696e-05 9.10973e-08
-3.02696e-05 8.64712e-05 -5.79673e-07
9.10973e-08 -5.79673e-07 -8.45785e-05
0.00160559 -0.000160457 1.28079e-05
-0.000160457 0.000542084 -3.94836e-06
1.28079e-05 -3.94836e-06 0.000408149
0.000737628 1.42785e-05 -2.51929e-06
1.42785e-05 4.75941e-05 -1.17728e-06
-2.51929e-06 -1.17728e-06 -3.35375e-05
0.000365202 -5.54712e-05 9.62768e-07
-5.54712e-05 -3.81011e-05 -7.67324e-07
9.62768e-07 -7.67324e-07 -0.000227946
0.00114955 -0.000127899 4.86891e-06
-0.000127899 0.000230893 5.0933e-06
4.86891e-06 5.0933e-06 3.40687e-05
0.00164964 -0.000131614 -1.60322e-06
-0.000131614 0.000494987 -7.75991e-07
-1.60322e-06 -7.75991e-07 0.000361058
0.00125242 -0.000121392 2.56023e-07
-0.000121392 0.000296939 1.13439e-06
2.56023e-07 1.13439e-06 0.000106525
0.00122447 -0.000144357 -1.02195e-06
-0.000144357 0.000173006 6.20284e-07
-1.02195e-06 6.20284e-07 -1.56891e-05
0.00118403 -0.000112494 -9.47407e-07
-0.000112494 0.000235191 -1.99551e-06
-9.47407e-07 -1.99551e-06 8.38918e-05
0.00159441 -0.000147062 2.4273e-07
-0.000147062 0.000382778 3.89594e-07
2.4273e-07 3.89594e-07 0.000214477
0.00125695 -0.000140831 -1.15215e-06
-0.000140831 0.000146622 -6.02943e-07
-1.15215e-06 -6.02943e-07 -2.29634e-05
0.00145596 -0.000141851 -2.90673e-06
-0.000141851 0.000208583 -1.26089e-06
-2.90673e-06 -1.26089e-06 6.23495e-05
0.0016781 -0.000143337 -4.63376e-06
-0.000143337 0.000400832 4.05138e-06
-4.63376e-06 4.05138e-06 0.000266715
0.0014214 -0.000139453 -8.5366e-07
-0.000139453 0.000255821 5.76203e-07
-8.5366e-07 5.76203e-07 0.00010385
0.000639123 -8.39004e-05 -8.59689e-08
-8.39004e-05 -8.68004e-05 -3.24193e-07
-8.59689e-08 -3.24193e-07 -0.000191958
0.000871289 -9.7337e-05 1.57228e-06
-9.7337e-05 3.53751e-05 -4.47673e-07
1.57228e-06 -4.47673e-07 -8.0248e-05
0.000978518 -0.000107343 1.61177e-06
-0.000107343 7.33015e-05 -2.05255e-06
1.61177e-06 -2.05255e-06 -6.33928e-05
0.00102819 -9.31245e-05 -2.49265e-07
-9.31245e-05 0.000134184 5.66072e-07
-2.49265e-07 5.66072e-07 3.43716e-05
0.00112439 -0.000102498 -1.71746e-07
-0.000102498 0.00018801 -4.05674e-07
-1.71746e-07 -4.05674e-07 8.32574e-05
0.000809551 -8.81787e-05 3.46909e-06
-8.81787e-05 2.79957e-05 -2.93028e-07
3.46909e-06 -2.93028e-07 -7.74597e-05
0.000848518 1.20077e-05 2.20285e-07
1.20077e-05 3.77279e-05 1.43816e-06
2.20285e-07 1.43816e-06 -3.76569e-05
0.000858007 -4.09882e-05 5.04534e-08
-4.09882e-05 5.37728e-05 5.04806e-07
5.04534e-08 5.04806e-07 -3.51749e-05
0.00110864 -8.24735e-05 1.22256e-06
-8.24735e-05 0.000195141 -1.35639e-06
1.22256e-06 -1.35639e-06 9.34806e-05
0.000788936 4.50987e-05 -9.18407e-07
4.50987e-05 3.49272e-06 2.15151e-06
-9.18407e-07 2.15151e-06 -4.00451e-05
0.000861765 1.79238e-05 -1.37561e-07
1.79238e-05 3.95054e-05 -9.24278e-08
-1.37561e-07 -9.24278e-08 -2.52116e-05
0.000955203 -3.03258e-05 3.87706e-07
-3.03258e-05 9.54578e-05 -1.02142e-06
3.87706e-07 -1.02142e-06 1.62084e-05
0.00074179 3.62846e-05 -3.11881e-06
3.62846e-05 -2.42905e-05 4.62177e-06
-3.11881e-06 4.62177e-06 -3.38636e-05
0.000800673 4.02768e-05 1.34374e-07
4.02768e-05 5.05596e-06 -7.80186e-08
1.34374e-07 -7.80186e-08 -3.26511e-05
0.000852452 2.0811e-05 4.00457e-07
2.0811e-05 2.92041e-05 -1.32377e-06
4.00457e-07 -1.32377e-06 -2.65166e-05
0.000812204 3.5397e-05 7.21012e-07
3.5397e-05 5.13858e-06 -1.91656e-06
7.21012e-07 -1.91656e-06 -2.87547e-05
0.000750691 3.28481e-05 4.97738e-08
3.28481e-05 -2.66681e-05 -2.19188e-08
4.97738e-08 -2.19188e-08 -3.39156e-05
0.00213271 4.59274e-05 -2.16928e-05
4.59274e-05 0.000716837 3.42977e-06
-2.16928e-05 3.42977e-06 0.000733708
0.000774887 2.89678e-05 1.62264e-06
2.89678e-05 -2.12528e-05 -3.27847e-06
1.62264e-06 -3.27847e-06 -2.64118e-05
0.00211705 3.99658e-05 1.08542e-06
3.99658e-05 0.000702124 6.75965e-08
1.08542e-06 6.75965e-08 0.000720505
0.00210745 3.38961e-05 1.74526e-05
3.38961e-05 0.000691318 -3.64244e-06
1.74526e-05 -3.64244e-06 0.000711001
0.000908627 8.26694e-06 -1.23363e-07
8.26694e-06 6.00866e-05 -5.73866e-07
-1.23363e-07 -5.73866e-07 -7.87035e-06
0.000861133 2.46918e-05 -9.04885e-07
2.46918e-05 3.20142e-05 -9.65004e-07
-9.04885e-07 -9.65004e-07 -2.56125e-05
0.000802314 -2.52147e-05 -6.90214e-07
-2.52147e-05 -5.3263e-06 -1.57451e-06
-6.90214e-07 -1.57451e-06 -4.00806e-05
0.000865416 1.19096e-05 -1.42463e-07
1.19096e-05 3.04693e-05 -4.57478e-08
-1.42463e-07 -4.57478e-08 -2.27736e-05
0.000771825 -2.48152e-05 -9.68623e-07
-2.48152e-05 -2.63557e-05 -3.25611e-06
-9.68623e-07 -3.25611e-06 -3.1954e-05
0.000815462 -1.97924e-05 -1.14917e-07
-1.97924e-05 -5.37379e-07 3.49311e-09
-1.14917e-07 3.49311e-09 -3.32015e-05
0.000834493 2.82117e-06 1.46337e-07
2.82117e-06 1.3432e-05 -1.01916e-08
1.46337e-07 -1.01916e-08 -3.6458e-05
0.00214429 -2.78548e-05 -1.46369e-05
-2.78548e-05 0.000706554 -3.91318e-06
-1.46369e-05 -3.91318e-06 0.000726822
0.000769035 -2.02899e-05 -1.20414e-07
-2.02899e-05 -3.35657e-05 -2.04775e-08
-1.20414e-07 -2.04775e-08 -3.66959e-05
0.000823431 -1.68331e-05 8.98607e-08
-1.68331e-05 1.22278e-06 8.14262e-07
8.98607e-08 8.14262e-07 -2.92187e-05
0.00208032 -2.06722e-05 -1.77545e-06
-2.06722e-05 0.000667173 4.64162e-08
-1.77545e-06 4.64162e-08 0.00068911
0.000765045 -1.52098e-05 4.1938e-07
-1.52098e-05 -4.07761e-05 3.07257e-06
4.1938e-07 3.07257e-06 -4.15254e-05
0.00203084 -1.33253e-05 6.87825e-06
-1.33253e-05 0.000636841 3.93837e-06
6.87825e-06 3.93837e-06 0.000660059
0.00100145 -1.29552e-06 -2.00514e-06
-1.29552e-06 9.87233e-05 -3.9698e-06
-2.00514e-06 -3.9698e-06 3.53135e-05
0.00089559 1.58497e-06 2.02682e-06
1.58497e-06 0.000121996 -1.41866e-06
2.02682e-06 -1.41866e-06 4.45905e-05
0.00100645 3.33813e-06 -6.29916e-06
3.33813e-06 6.25921e-05 5.38132e-06
-6.29916e-06 5.38132e-06 -4.67449e-08
0.00087108 -2.3802e-06 -2.55724e-07
-2.3802e-06 3.95649e-05 -1.40698e-08
-2.55724e-07 -1.40698e-08 -2.76906e-05
0.000928687 -1.54344e-05 -1.24641e-07
-1.54344e-05 7.18746e-05 2.63984e-07
-1.24641e-07 2.63984e-07 4.12087e-07
0.000878647 -1.3528e-05 1.58216e-07
-1.3528e-05 4.91472e-05 -1.40081e-06
1.58216e-07 -1.40081e-06 -2.71831e-05
0.000835414 -2.19649e-05 -3.53433e-08
-2.19649e-05 2.31293e-05 -5.60996e-07
-3.53433e-08 -5.60996e-07 -4.77256e-05
0.0010253 2.87546e-05 -4.30542e-07
2.87546e-05 0.000130723 -7.2222e-08
-4.30542e-07 -7.2222e-08 5.18818e-05
0.000832713 -2.49104e-05 -1.01714e-07
-2.49104e-05 1.43719e-05 1.02028e-07
-1.01714e-07 1.02028e-07 -4.93267e-05
0.000857123 -1.03574e-05 1.78528e-07
-1.03574e-05 3.44988e-05 -4.1928e-07
1.78528e-07 -4.1928e-07 -3.63352e-05
0.000921087 1.4647e-05 -1.83185e-07
1.4647e-05 7.12571e-05 -4.99097e-08
-1.83185e-07 -4.99097e-08 2.44743e-08
0.000943289 2.49332e-05 1.85018e-07
2.49332e-05 8.14391e-05 3.77274e-07
1.85018e-07 3.77274e-07 5.33372e-06
0.0010029 1.76093e-05 -8.47685e-08
1.76093e-05 0.000119126 5.87864e-07
-8.47685e-08 5.87864e-07 4.36229e-05
0.00166136 -3.08577e-05 3.28987e-05
-3.08577e-05 6.86729e-05 3.43405e-05
3.28987e-05 3.43405e-05 -8.22071e-05
0.00158603 -1.55931e-06 1.76109e-06
-1.55931e-06 0.000108026 1.09887e-05
1.76109e-06 1.09887e-05 4.69537e-05
0.000969208 1.09395e-05 1.96692e-06
1.09395e-05 -9.62702e-05 -1.10676e-06
1.96692e-06 -1.10676e-06 -0.000152675
0.00351315 -0.000132728 -1.41885e-05
-0.000132728 0.000300777 -2.67424e-05
-1.41885e-05 -2.67424e-05 0.000933748
-0.00321418 0.000109484 -1.09292e-05
0.000109484 -0.00247664 -4.30264e-05
-1.09292e-05 -4.30264e-05 -0.00272259
0.00189884 -0.000331076 -9.88649e-05
-0.000331076 -0.000402911 8.24285e-05
-9.88649e-05 8.24285e-05 -0.000964709
0.00784973 0.000183803 -3.68815e-05
0.000183803 0.00232399 -4.11107e-05
-3.68815e-05 -4.11107e-05 0.0012408
0.0022367 -0.000274665 -4.04752e-05
-0.000274665 -5.03894e-05 4.1285e-05
-4.04752e-05 4.1285e-05 -0.000444005
0.00803218 -0.000157648 3.85426e-05
-0.000157648 0.00268673 -8.14675e-07
3.85426e-05 -8.14675e-07 0.00138707
0.000684282 -0.000188905 1.71525e-05
-0.000188905 -0.000869903 -1.4031e-05
1.71525e-05 -1.4031e-05 -0.00100488
0.000777072 -0.000242865 -9.25226e-06
-0.000242865 -0.00145795 -2.5813e-05
-9.25226e-06 -2.5813e-05 -0.000637246
0.00250005 -0.000101942 -7.51178e-05
-0.000101942 0.000371788 -4.23082e-05
-7.51178e-05 -4.23082e-05 -6.94646e-05
0.00812479 -0.000401841 -2.12281e-05
-0.000401841 0.00227336 4.90377e-05
-2.12281e-05 4.90377e-05 0.00130934
0.00773666 -0.000630365 3.20571e-05
-0.000630365 0.00226577 1.21015e-05
3.20571e-05 1.21015e-05 0.00248134
0.00249152 -0.000411812 1.4853e-05
-0.000411812 0.000169446 5.28477e-07
1.4853e-05 5.28477e-07 0.00115799
0.000818102 1.55847e-05 9.00372e-07
1.55847e-05 3.45131e-05 1.70582e-06
9.00372e-07 1.70582e-06 -3.10333e-05
0.00100149 -3.06505e-05 -1.10249e-07
-3.06505e-05 0.000107383 2.9307e-07
-1.10249e-07 2.9307e-07 3.44476e-05
0.000826572 -2.52542e-07 1.48633e-07
-2.52542e-07 1.746e-05 -1.05513e-06
1.48633e-07 -1.05513e-06 -6.04186e-05
0.00227814 -0.000140265 1.6211e-05
-0.000140265 0.00114972 -7.88715e-07
1.6211e-05 -7.88715e-07 0.000952262
0.000867993 -3.16855e-05 -7.01768e-06
-3.16855e-05 0.000246893 -6.50534e-06
-7.01768e-06 -6.50534e-06 0.000227184
0.000865326 -9.61002e-06 -6.14879e-07
-9.61002e-06 3.16324e-05 -5.5888e-07
-6.14879e-07 -5.5888e-07 -3.95471e-05
0.000888343 -4.4517e-05 -1.44014e-06
-4.4517e-05 5.06165e-05 -3.0856e-06
-1.44014e-06 -3.0856e-06 -2.56408e-05
0.000858214 -1.28458e-05 -4.97539e-07
-1.28458e-05 4.27213e-05 -3.32741e-07
-4.97539e-07 -3.32741e-07 -2.73086e-05
0.000545734 -3.73416e-05 1.30835e-06
-3.73416e-05 6.13064e-05 4.62239e-06
1.30835e-06 4.62239e-06 -1.94097e-05
-0.000293594 -8.03988e-06 2.26561e-05
-8.03988e-06 0.000231567 -2.2681e-05
2.26561e-05 -2.2681e-05 -0.000379846
-0.00014236 -1.10994e-05 -1.6502e-06
-1.10994e-05 -0.000309844 5.93261e-06
-1.6502e-06 5.93261e-06 -0.000408216
0.00155984 0.000129205 2.07094e-05
0.000129205 0.000694145 -1.02761e-05
2.07094e-05 -1.02761e-05 0.000384276
0.00147576 -2.24774e-06 1.80617e-05
-2.24774e-06 9.97616e-05 -2.65658e-07
1.80617e-05 -2.65658e-07 -2.77818e-05
0.000899097 6.9188e-07 -3.70414e-07
6.9188e-07 8.7298e-05 -7.08379e-07
-3.70414e-07 -7.08379e-07 1.36474e-05
0.000540276 9.28684e-07 3.9073e-07
9.28684e-07 -6.8635e-05 -6.82971e-08
3.9073e-07 -6.82971e-08 -0.000169696
-0.000811745 -3.25412e-05 -2.50671e-05
-3.25412e-05 -0.000208607 1.08302e-05
-2.50671e-05 1.08302e-05 -0.000379091
0.00136222 4.37349e-05 2.74993e-05
4.37349e-05 -0.000303299 -4.36031e-05
2.74993e-05 -4.36031e-05 -0.000517183
0.00101692 1.40575e-06 6.13411e-06
1.40575e-06 6.99786e-05 -5.57001e-06
6.13411e-06 -5.57001e-06 5.95801e-06
0.00944417 0.000182677 6.27905e-05
0.000182677 0.0032119 8.45406e-06
6.27905e-05 8.45406e-06 0.00163283
0.00539859 0.000634511 -4.97253e-05
0.000634511 0.00139456 3.02753e-05
-4.97253e-05 3.02753e-05 0.00149269
0.00117875 2.6154e-05 -2.27595e-05
2.6154e-05 -0.000372307 1.8823e-05
-2.27595e-05 1.8823e-05 -0.00053358
-0.00174175 0.000554389 -1.34358e-05
0.000554389 -0.00225126 -1.8843e-05
-1.34358e-05 -1.8843e-05 -0.000930741
0.000249525 -4.12334e-05 -7.92906e-06
-4.12334e-05 9.9883e-05 -8.04806e-07
-7.92906e-06 -8.04806e-07 4.01008e-06
0.00114276 1.86141e-06 5.46726e-07
1.86141e-06 -0.000126032 -4.22674e-07
5.46726e-07 -4.22674e-07 -0.000259099
-0.00125 0.000271878 -3.01681e-05
0.000271878 -0.000749519 1.04708e-05
-3.01681e-05 1.04708e-05 -0.00054937
0.00214071 -0.000253567 -8.36449e-06
-0.000253567 4.19222e-05 2.86047e-05
-8.36449e-06 2.86047e-05 -0.000236865
0.00382564 0.000664621 7.8608e-06
0.000664621 0.00105918 6.44851e-06
7.8608e-06 6.44851e-06 0.00138547
0.00540528 0.000132141 3.6073e-05
0.000132141 0.00134474 -2.02605e-05
3.6073e-05 -2.02605e-05 -0.000211429
0.00262668 -0.000199776 2.65776e-05
-0.000199776 0.000772943 1.13325e-05
2.65776e-05 1.13325e-05 0.000869118
-0.0010898 8.38057e-05 2.67477e-05
8.38057e-05 -0.0004018 -1.90161e-06
2.67477e-05 -1.90161e-06 -0.000574725
0.00279157 0.00049235 1.79293e-05
0.00049235 0.00131107 -4.81226e-06
1.79293e-05 -4.81226e-06 0.0014576
0.00537743 0.000489488 -4.29692e-05
0.000489488 0.00144873 3.71794e-05
-4.29692e-05 3.71794e-05 0.000119619
0.00225243 -0.000381185 -1.45334e-05
-0.000381185 0.000145082 2.4551e-05
-1.45334e-05 2.4551e-05 -0.000413601
0.000561043 -3.20497e-06 -2.71467e-06
-3.20497e-06 0.00016282 5.39595e-06
-2.71467e-06 5.39595e-06 -4.05507e-06
0.000789503 -0.000126636 1.32601e-06
-0.000126636 0.000152066 -2.51687e-06
1.32601e-06 -2.51687e-06 -8.3768e-06
0.00208747 -0.000173563 8.93308e-06
-0.000173563 0.000457944 1.29991e-06
8.93308e-06 1.29991e-06 0.00040275
-0.000156233 -1.42707e-05 -1.51311e-06
-1.42707e-05 -0.000283952 3.36322e-07
-1.51311e-06 3.36322e-07 -0.000476954
0.00071347 -0.000104887 2.95815e-06
-0.000104887 2.68611e-05 4.45847e-08
2.95815e-06 4.45847e-08 -0.00016847
0.00103503 -0.000158935 -1.81826e-07
-0.000158935 -4.196e-05 3.92219e-07
-1.81826e-07 3.92219e-07 -0.000197646
0.00143457 -0.000128938 -1.64599e-06
-0.000128938 0.000376581 -1.46215e-06
-1.64599e-06 -1.46215e-06 0.000187504
0.00118926 -0.000141545 -1.03995e-06
-0.000141545 0.000146406 -9.73593e-07
-1.03995e-06 -9.73593e-07 -3.76927e-05
0.00179985 -0.000175573 -1.83566e-06
-0.000175573 0.000319142 -2.45584e-06
-1.83566e-06 -2.45584e-06 0.000174472
0.00149637 -0.000142579 8.79344e-07
-0.000142579 0.000325242 -1.69199e-06
8.79344e-07 -1.69199e-06 0.000157917
0.00128438 -0.000138891 5.37803e-07
-0.000138891 0.000158478 -1.02726e-06
5.37803e-07 -1.02726e-06 -6.49629e-06
0.00150039 -0.000144472 -2.30615e-06
-0.000144472 0.00016418 -3.66819e-06
-2.30615e-06 -3.66819e-06 2.78826e-05
0.00144353 -0.000130787 -2.22649e-06
-0.000130787 0.000128815 -2.62972e-06
-2.22649e-06 -2.62972e-06 3.15684e-06
0.00115031 -0.000122189 -2.80298e-06
-0.000122189 7.88896e-05 2.64836e-07
-2.80298e-06 2.64836e-07 -5.7626e-05
0.00130418 -0.000133951 5.00253e-07
-0.000133951 0.000128316 -8.17803e-07
5.00253e-07 -8.17803e-07 -1.63376e-05
0.00132773 -0.000121139 -2.23489e-06
-0.000121139 0.000235029 2.57929e-06
-2.23489e-06 2.57929e-06 0.000116188
0.00132933 -0.000128062 -1.72763e-07
-0.000128062 0.000221082 7.06862e-07
-1.72763e-07 7.06862e-07 8.52554e-05
0.00126654 -0.000133592 1.80012e-06
-0.000133592 0.000172227 -1.0418e-06
1.80012e-06 -1.0418e-06 1.73245e-05
0.000960885 -9.52079e-05 -6.31408e-07
-9.52079e-05 8.10482e-05 -6.74363e-07
-6.31408e-07 -6.74363e-07 -1.76499e-05
0.00075653 -8.87467e-05 -2.6404e-07
-8.87467e-05 -2.36103e-05 -1.18341e-06
-2.6404e-07 -1.18341e-06 -0.000127622
0.000992915 -0.000102538 4.87455e-06
-0.000102538 9.85724e-05 -3.35416e-06
4.87455e-06 -3.35416e-06 -1.62833e-05
0.000906486 -4.46014e-05 -3.4883e-07
-4.46014e-05 6.5196e-05 1.35053e-06
-3.4883e-07 1.35053e-06 -1.93818e-05
0.00100708 -8.54091e-05 2.98924e-07
-8.54091e-05 0.000123214 5.08295e-07
2.98924e-07 5.08295e-07 2.48176e-05
0.00107018 -9.93592e-05 8.84907e-07
-9.93592e-05 0.000160923 6.35299e-07
8.84907e-07 6.35299e-07 5.58873e-05
0.000802523 6.26669e-05 -3.54214e-07
6.26669e-05 1.7503e-05 2.63206e-06
-3.54214e-07 2.63206e-06 -3.67083e-05
0.000879859 1.31072e-06 -4.77172e-10
1.31072e-06 5.52657e-05 -3.27435e-08
-4.77172e-10 -3.27435e-08 -2.13633e-05
0.000966059 -4.8613e-05 -5.9128e-08
-4.8613e-05 0.000110694 -4.92407e-07
-5.9128e-08 -4.92407e-07 2.21245e-05
0.00135951 4.75024e-05 -1.28334e-05
4.75024e-05 0.000314816 3.11804e-06
-1.28334e-05 3.11804e-06 0.000305003
0.000780751 4.41056e-05 5.26473e-09
4.41056e-05 -1.03443e-06 -1.76988e-07
5.26473e-09 -1.76988e-07 -4.44929e-05
0.000846431 7.12724e-06 5.66051e-07
7.12724e-06 3.25595e-05 -1.46756e-06
5.66051e-07 -1.46756e-06 -3.30016e-05
0.00090564 3.12384e-05 -2.03751e-05
3.12384e-05 6.81488e-05 3.50999e-06
-2.03751e-05 3.50999e-06 7.7147e-05
0.00107179 4.09488e-05 -5.40998e-06
4.09488e-05 0.000152647 3.65296e-07
-5.40998e-06 3.65296e-07 0.000144277
0.000794607 4.48389e-05 4.57208e-07
4.48389e-05 2.55365e-06 -2.09656e-06
4.57208e-07 -2.09656e-06 -3.56584e-05
0.000772042 3.36249e-05 1.82966e-06
3.36249e-05 -1.5589e-05 -3.3418e-06
1.82966e-06 -3.3418e-06 -2.29334e-05
0.00214343 4.61775e-05 8.58275e-07
4.61775e-05 0.000723593 6.92083e-08
8.58275e-07 6.92083e-08 0.000740222
0.00212179 4.01584e-05 2.03551e-05
4.01584e-05 0.000705624 -3.52859e-06
2.03551e-05 -3.52859e-06 0.000723829
0.000846808 -8.97466e-06 6.5794e-09
-8.97466e-06 2.79904e-05 -1.22186e-06
6.5794e-09 -1.22186e-06 -4.26957e-05
0.000868248 3.69288e-06 -4.39009e-07
3.69288e-06 3.50628e-05 -1.34521e-06
-4.39009e-07 -1.34521e-06 -2.44779e-05
0.000902553 -1.01039e-05 3.59366e-10
-1.01039e-05 5.54249e-05 -2.31083e-08
3.59366e-10 -2.31083e-08 -1.19793e-05
0.000796685 -3.69255e-05 -5.17674e-07
-3.69255e-05 -3.14501e-06 -1.9018e-06
-5.17674e-07 -1.9018e-06 -4.05052e-05
0.0008802 -1.98343e-06 4.86113e-07
-1.98343e-06 4.01277e-05 -9.11546e-08
4.86113e-07 -9.11546e-08 -1.60909e-05
0.000758291 -2.85494e-05 -1.30924e-06
-2.85494e-05 -2.75772e-05 -3.38172e-06
-1.30924e-06 -3.38172e-06 -3.53294e-05
0.000812025 -2.16149e-05 -1.96295e-07
-2.16149e-05 3.27872e-07 1.37078e-08
-1.96295e-07 1.37078e-08 -3.44344e-05
0.000887477 3.10362e-05 9.65855e-07
3.10362e-05 4.66256e-05 6.8257e-07
9.65855e-07 6.8257e-07 -9.61546e-06
0.0021987 -3.43286e-05 -1.83882e-05
-3.43286e-05 0.000741108 -3.84256e-06
-1.83882e-05 -3.84256e-06 0.000759788
0.000758287 -2.44576e-05 -2.47074e-07
-2.44576e-05 -3.34133e-05 -5.19114e-09
-2.47074e-07 -5.19114e-09 -3.89336e-05
0.000830895 -1.96944e-05 3.21906e-07
-1.96944e-05 8.08129e-06 1.42346e-06
3.21906e-07 1.42346e-06 -2.46871e-05
0.00213047 -2.75749e-05 -1.59688e-06
-2.75749e-05 0.000698577 5.96819e-08
-1.59688e-06 5.96819e-08 0.000719067
0.000754108 -1.99454e-05 5.09948e-07
-1.99454e-05 -4.14567e-05 3.15162e-06
5.09948e-07 3.15162e-06 -4.44768e-05
0.0020664 -2.02571e-05 1.01532e-05
-2.02571e-05 0.000659198 3.901e-06
1.01532e-05 3.901e-06 0.000681356
0.00149774 -5.96291e-06 2.18406e-05
-5.96291e-06 0.000161893 6.38627e-06
2.18406e-05 6.38627e-06 6.50086e-05
0.000964053 -6.08622e-07 9.94191e-07
-6.08622e-07 7.33654e-05 -2.61378e-07
9.94191e-07 -2.61378e-07 1.08399e-05
0.000715234 8.37094e-07 3.99211e-06
8.37094e-07 2.94848e-05 5.05679e-06
3.99211e-06 5.05679e-06 -5.37644e-05
0.000948808 3.46272e-05 -6.55844e-07
3.46272e-05 9.68046e-05 -2.34229e-08
-6.55844e-07 -2.34229e-08 1.45535e-05
0.0009435 -6.20872e-06 1.07326e-07
-6.20872e-06 7.81165e-05 2.99534e-07
1.07326e-07 2.99534e-07 1.12076e-05
0.000917752 -1.90268e-05 6.36329e-08
-1.90268e-05 6.5207e-05 4.22888e-07
6.36329e-08 4.22888e-07 -6.85432e-06
0.000930364 -2.39859e-05 1.17127e-07
-2.39859e-05 7.2969e-05 -1.72811e-07
1.17127e-07 -1.72811e-07 2.46264e-06
0.000939899 4.36688e-06 1.34726e-07
4.36688e-06 8.20138e-05 -3.7791e-07
1.34726e-07 -3.7791e-07 5.2126e-06
0.00095597 1.81957e-05 -6.48519e-08
1.81957e-05 9.19777e-05 4.8693e-07
-6.48519e-08 4.8693e-07 1.37984e-05
0.000966673 2.58968e-05 -2.41904e-07
2.58968e-05 0.000100217 -1.15135e-06
-2.41904e-07 -1.15135e-06 1.77527e-05
0.000813671 -2.99936e-06 2.9244e-07
-2.99936e-06 1.79911e-05 5.32574e-08
2.9244e-07 5.32574e-08 -5.77552e-05
0.000889501 3.67771e-05 3.46208e-07
3.67771e-05 5.84289e-05 -2.77792e-07
3.46208e-07 -2.77792e-07 -1.43947e-05
0.000933528 -3.6749e-05 3.22032e-07
-3.6749e-05 6.88156e-05 -4.93056e-07
3.22032e-07 -4.93056e-07 -4.35963e-06
0.000955817 8.69791e-06 -7.91722e-08
8.69791e-06 9.36549e-05 1.06787e-07
-7.91722e-08 1.06787e-07 1.88391e-05
0.0014223 1.18628e-05 2.65249e-06
1.18628e-05 0.000345299 7.78047e-07
2.65249e-06 7.78047e-07 0.000269147
0.00141304 -0.000265754 3.88638e-05
-0.000265754 0.000437546 2.74394e-05
3.88638e-05 2.74394e-05 0.000696446
0.00186366 -2.65079e-05 3.13934e-06
-2.65079e-05 0.000176918 9.55094e-06
3.13934e-06 9.55094e-06 2.88809e-05
0.00173605 -1.71015e-06 8.01914e-07
-1.71015e-06 0.000180975 -3.91434e-06
8.01914e-07 -3.91434e-06 0.000121559
0.00328066 -0.000301478 -3.72327e-05
-0.000301478 -2.26039e-05 -3.04049e-05
-3.72327e-05 -3.04049e-05 0.000915245
0.00427021 -0.00029279 -4.65557e-07
-0.00029279 0.000443307 -5.49811e-05
-4.65557e-07 -5.49811e-05 0.000284601
0.00293993 -1.72193e-05 -9.92863e-05
-1.72193e-05 -0.000306953 8.65797e-05
-9.92863e-05 8.65797e-05 -0.00112172
0.00219011 -0.000294925 -5.73977e-05
-0.000294925 0.000156695 8.85324e-05
-5.73977e-05 8.85324e-05 -0.000212544
0.00264947 -0.000155783 -6.287e-06
-0.000155783 0.000602216 1.78825e-05
-6.287e-06 1.78825e-05 0.000322299
0.000378251 -0.000439515 -1.36937e-05
-0.000439515 -0.000963539 -2.57963e-06
-1.36937e-05 -2.57963e-06 0.000125142
0.00482263 -0.000127216 1.21248e-05
-0.000127216 0.00109433 4.42075e-05
1.21248e-05 4.42075e-05 -0.000271036
0.000137916 -0.000323617 -3.0472e-06
-0.000323617 -0.00114022 -1.46195e-07
-3.0472e-06 -1.46195e-07 -0.00085761
0.00301521 0.000146204 -6.83336e-05
0.000146204 0.000569437 -4.11122e-05
-6.83336e-05 -4.11122e-05 0.000385521
0.00883183 -0.000424715 2.39602e-07
-0.000424715 0.00302553 3.89474e-05
2.39602e-07 3.89474e-05 0.00186457
-4.28519e-05 -0.00040251 8.18375e-06
-0.00040251 -0.000215264 -1.15939e-05
8.18375e-06 -1.15939e-05 0.000104156
0.000664901 0.000104124 -1.06112e-06
0.000104124 -3.35475e-05 -4.96724e-07
-1.06112e-06 -4.96724e-07 -9.77091e-05
0.00105847 1.69303e-05 2.38018e-06
1.69303e-05 0.000154725 8.11099e-08
2.38018e-06 8.11099e-08 9.0584e-05
0.000937425 -1.21962e-05 -6.11305e-07
-1.21962e-05 7.7977e-05 -8.31331e-07
-6.11305e-07 -8.31331e-07 3.60444e-06
-0.000817745 -2.72798e-05 -2.00921e-05
-2.72798e-05 -0.000133146 -2.08715e-05
-2.00921e-05 -2.08715e-05 -0.000703668
-5.55052e-05 -1.46082e-05 -5.67509e-07
-1.46082e-05 -0.000254334 -5.46027e-06
-5.67509e-07 -5.46027e-06 -0.000338283
0.000743723 8.17035e-06 7.57071e-07
8.17035e-06 -1.45081e-05 3.9869e-07
7.57071e-07 3.9869e-07 -8.40881e-05
0.000761438 4.5972e-05 1.70498e-06
4.5972e-05 0.000119954 7.26664e-07
1.70498e-06 7.26664e-07 1.94339e-05
0.00063702 8.04074e-05 2.2848e-06
8.04074e-05 0.000164903 -1.34404e-05
2.2848e-06 -1.34404e-05 -7.83458e-05
-0.000651531 8.77226e-05 1.18252e-05
8.77226e-05 -0.000632281 1.09573e-05
1.18252e-05 1.09573e-05 -0.0007702
0.00117463 -1.07391e-05 4.95066e-05
-1.07391e-05 0.000815807 -2.24482e-06
4.95066e-05 -2.24482e-06 0.000669168
0.00119641 -2.57515e-06 -2.44346e-06
-2.57515e-06 1.61118e-06 -2.94188e-07
-2.44346e-06 -2.94188e-07 -0.000105577
0.000461711 1.76567e-06 6.61823e-06
1.76567e-06 -0.000163501 -2.37857e-06
6.61823e-06 -2.37857e-06 -0.000241128
3.97933e-05 -3.42186e-05 3.45406e-06
-3.42186e-05 1.65418e-05 4.40026e-06
3.45406e-06 4.40026e-06 -9.11989e-05
0.00163647 -0.000245341 2.2722e-05
-0.000245341 -0.000230699 -3.45188e-05
2.2722e-05 -3.45188e-05 -0.000409773
0.00125326 -1.88226e-06 -2.28766e-05
-1.88226e-06 -5.63704e-05 -2.21081e-06
-2.28766e-05 -2.21081e-06 -0.000184771
0.00189591 0.000135971 2.79357e-06
0.000135971 -0.000181884 1.11166e-05
2.79357e-06 1.11166e-05 -0.00151336
-0.00236215 0.000426643 -4.42078e-05
0.000426643 -0.00188015 7.12432e-06
-4.42078e-05 7.12432e-06 -0.00145631
0.00122969 0.000318366 -5.03036e-05
0.000318366 0.000417865 2.52113e-05
-5.03036e-05 2.52113e-05 0.000833015
0.00166076 -0.000161886 -4.17293e-06
-0.000161886 0.000241998 4.48515e-06
-4.17293e-06 4.48515e-06 0.000397632
0.00114873 0.000128336 -1.94519e-06
0.000128336 0.000754842 3.16748e-06
-1.94519e-06 3.16748e-06 0.000774386
-0.00361188 0.000244282 1.0614e-05
0.000244282 -0.00135071 -2.35396e-08
1.0614e-05 -2.35396e-08 -0.00144055
0.00314175 -0.000390067 -7.73823e-06
-0.000390067 0.000543797 1.35849e-05
-7.73823e-06 1.35849e-05 -0.000289151
0.00680854 0.000410805 -1.57584e-05
0.000410805 0.00206084 1.36604e-06
-1.57584e-05 1.36604e-06 0.000864365
0.000221666 -0.000162633 -2.85268e-06
-0.000162633 -0.000459242 6.41176e-06
-2.85268e-06 6.41176e-06 -0.000407442
-0.00486859 0.000120265 9.09043e-06
0.000120265 -0.00238086 -9.65249e-06
9.09043e-06 -9.65249e-06 -0.00231308
0.00668277 0.000378332 -4.53374e-06
0.000378332 0.00223479 4.45072e-06
-4.53374e-06 4.45072e-06 0.00118347
0.00328415 -0.000197103 -1.96265e-05
-0.000197103 -2.10999e-05 2.74248e-05
-1.96265e-05 2.74248e-05 -0.00063703
-0.000180177 -8.52449e-05 -9.0738e-06
-8.52449e-05 -0.000296024 -5.10427e-07
-9.0738e-06 -5.10427e-07 -0.000496067
0.00123598 -0.000138994 -7.74056e-07
-0.000138994 6.34521e-05 -3.46535e-08
-7.74056e-07 -3.46535e-08 2.7775e-05
0.00173097 -0.000162435 4.90151e-06
-0.000162435 6.58455e-05 -3.59935e-06
4.90151e-06 -3.59935e-06 6.47595e-05
0.000279061 -8.19812e-05 -1.3662e-06
-8.19812e-05 -0.000174396 -4.03762e-06
-1.3662e-06 -4.03762e-06 -0.00037005
0.00126482 -0.000165614 -1.32962e-06
-0.000165614 6.71293e-05 -1.85307e-06
-1.32962e-06 -1.85307e-06 -8.79325e-05
0.00155663 -0.000182688 -3.31147e-06
-0.000182688 2.03139e-05 -3.11564e-06
-3.31147e-06 -3.11564e-06 -8.64459e-05
0.0011541 -0.000138891 -1.86443e-07
-0.000138891 0.000120119 -2.60228e-06
-1.86443e-07 -2.60228e-06 -5.92651e-05
0.00139646 -0.000157157 8.21592e-07
-0.000157157 0.000116758 -8.32573e-07
8.21592e-07 -8.32573e-07 -2.78304e-05
0.00174866 -0.000153983 -2.19079e-06
-0.000153983 0.000169479 -4.03696e-06
-2.19079e-06 -4.03696e-06 6.30798e-05
0.00130713 -0.000136821 8.66401e-07
-0.000136821 0.000167355 -5.93339e-07
8.66401e-07 -5.93339e-07 7.21277e-06
0.00137482 -0.00013804 -3.44256e-07
-0.00013804 9.58107e-05 -7.38717e-07
-3.44256e-07 -7.38717e-07 -3.88446e-05
0.00167353 -0.000131867 -2.1094e-06
-0.000131867 0.000159072 -3.86292e-06
-2.1094e-06 -3.86292e-06 5.70168e-05
0.00162724 -0.000122047 -2.08907e-06
-0.000122047 0.000176055 -3.13737e-06
-2.08907e-06 -3.13737e-06 7.56681e-05
0.00136475 -0.000126605 -2.88887e-06
-0.000126605 0.000126033 -1.46186e-06
-2.88887e-06 -1.46186e-06 1.1204e-06
0.00143701 -0.000127832 8.18328e-07
-0.000127832 0.000126194 1.81626e-07
8.18328e-07 1.81626e-07 2.77293e-06
0.00071821 -9.7665e-05 -2.63355e-06
-9.7665e-05 -0.000121131 1.3285e-06
-2.63355e-06 1.3285e-06 -0.000244226
0.00132699 -0.000128473 1.21664e-06
-0.000128473 0.000170302 -1.10023e-06
1.21664e-06 -1.10023e-06 3.5169e-05
0.00113882 -0.000125492 2.8505e-06
-0.000125492 4.11247e-05 -2.05093e-07
2.8505e-06 -2.05093e-07 -0.000101908
0.00102137 -0.000102223 -8.42177e-07
-0.000102223 9.5932e-05 1.13217e-06
-8.42177e-07 1.13217e-06 -8.52173e-06
0.00101065 -0.000106202 4.77821e-07
-0.000106202 7.45906e-05 -2.16832e-07
4.77821e-07 -2.16832e-07 -4.33391e-05
0.00097675 -0.000112539 2.4141e-06
-0.000112539 3.94247e-05 -2.11778e-06
2.4141e-06 -2.11778e-06 -9.81019e-05
0.000975216 -8.06946e-05 -1.80602e-06
-8.06946e-05 8.82023e-05 4.62331e-07
-1.80602e-06 4.62331e-07 7.08378e-07
0.00104342 -9.86012e-05 -2.26141e-07
-9.86012e-05 0.000122646 -4.69811e-07
-2.26141e-07 -4.69811e-07 2.37088e-05
0.000877228 -9.37528e-05 5.0783e-07
-9.37528e-05 4.12422e-05 -1.83195e-06
5.0783e-07 -1.83195e-06 -6.1628e-05
0.000867168 1.67706e-05 -5.32803e-07
1.67706e-05 5.1458e-05 2.92656e-06
-5.32803e-07 2.92656e-06 -1.12358e-05
0.000950094 -3.98867e-05 7.37608e-07
-3.98867e-05 8.72657e-05 3.75681e-07
7.37608e-07 3.75681e-07 2.96306e-06
0.000980646 -7.62972e-05 1.0032e-06
-7.62972e-05 0.000109402 4.91669e-07
1.0032e-06 4.91669e-07 1.24846e-05
0.000677495 4.5318e-05 -2.7807e-06
4.5318e-05 -4.18029e-05 3.89741e-06
-2.7807e-06 3.89741e-06 -5.99409e-05
0.000781684 3.02042e-05 -2.58363e-07
3.02042e-05 3.04655e-06 -2.33882e-07
-2.58363e-07 -2.33882e-07 -4.91967e-05
0.000908604 -1.02631e-05 2.81512e-07
-1.02631e-05 7.13303e-05 -1.63405e-06
2.81512e-07 -1.63405e-06 -6.47125e-06
0.00222989 6.44142e-05 -9.56141e-06
6.44142e-05 0.000786681 1.36791e-06
-9.56141e-06 1.36791e-06 0.000797876
0.000726554 4.13162e-05 1.40478e-07
4.13162e-05 -2.35915e-05 -1.39515e-08
1.40478e-07 -1.39515e-08 -3.74186e-05
0.000771634 4.319e-05 8.16917e-07
4.319e-05 -5.61773e-06 -2.30511e-06
8.16917e-07 -2.30511e-06 -4.9288e-05
0.00218409 5.19072e-05 8.83257e-07
5.19072e-05 0.00075264 6.40691e-08
8.83257e-07 6.40691e-08 0.000767425
0.000767985 3.82918e-05 2.15471e-06
3.82918e-05 -9.96347e-06 -3.47642e-06
2.15471e-06 -3.47642e-06 -2.02197e-05
0.00215495 4.62757e-05 2.33007e-05
4.62757e-05 0.000730773 -3.42188e-06
2.33007e-05 -3.42188e-06 0.000747181
0.000971674 3.07031e-05 -3.82609e-07
3.07031e-05 0.000103189 -1.60785e-07
-3.82609e-07 -1.60785e-07 2.71992e-05
0.000872147 -1.04808e-06 6.72738e-08
-1.04808e-06 4.1742e-05 -3.09748e-07
6.72738e-08 -3.09748e-07 -2.96302e-05
0.000865578 -6.91204e-06 -3.95656e-07
-6.91204e-06 3.79819e-05 -1.54403e-06
-3.95656e-07 -1.54403e-06 -2.6494e-05
0.000786991 -4.26954e-05 -6.63009e-07
-4.26954e-05 -3.77461e-06 -2.18846e-06
-6.63009e-07 -2.18846e-06 -4.35362e-05
0.000853528 -1.20348e-05 5.40964e-07
-1.20348e-05 2.80315e-05 -5.98839e-08
5.40964e-07 -5.98839e-08 -3.1683e-05
0.000858482 3.02797e-06 4.79817e-07
3.02797e-06 3.48134e-05 7.31887e-07
4.79817e-07 7.31887e-07 -3.46164e-05
0.000753571 -3.1961e-05 -1.94174e-06
-3.1961e-05 -2.40608e-05 -3.50232e-06
-1.94174e-06 -3.50232e-06 -3.37161e-05
0.000802532 -2.9295e-05 -2.18188e-07
-2.9295e-05 -8.57739e-07 1.17422e-08
-2.18188e-07 1.17422e-08 -3.76745e-05
0.000863125 -9.32447e-06 9.69885e-07
-9.32447e-06 3.1133e-05 9.44861e-07
9.69885e-07 9.44861e-07 -2.50347e-05
0.00223864 -4.05407e-05 -2.17218e-05
-4.05407e-05 0.000768549 -3.74998e-06
-2.17218e-05 -3.74998e-06 0.000785637
0.00074466 -2.80423e-05 -1.62308e-07
-2.80423e-05 -3.4546e-05 3.77745e-09
-1.62308e-07 3.77745e-09 -4.2253e-05
0.000820705 -2.03567e-05 8.09035e-07
-2.03567e-05 5.14983e-06 1.53998e-06
8.09035e-07 1.53998e-06 -2.95722e-05
0.00218691 -3.41924e-05 -1.67313e-06
-3.41924e-05 0.000734203 7.4218e-08
-1.67313e-06 7.4218e-08 0.000753068
0.000741886 -2.40707e-05 6.58356e-07
-2.40707e-05 -4.19712e-05 3.28115e-06
6.58356e-07 3.28115e-06 -4.74072e-05
0.00211848 -2.72117e-05 1.32794e-05
-2.72117e-05 0.000691554 3.87139e-06
1.32794e-05 3.87139e-06 0.000712269
-0.000958902 -0.000107373 3.31626e-05
-0.000107373 -0.000400216 8.5603e-06
3.31626e-05 8.5603e-06 -0.000610045
0.00150551 -1.03829e-05 2.03552e-06
-1.03829e-05 0.00015002 3.14536e-06
2.03552e-06 3.14536e-06 5.51652e-05
0.000939544 5.23972e-08 5.54367e-06
5.23972e-08 5.63607e-05 3.35333e-06
5.54367e-06 3.35333e-06 -5.27233e-06
0.0009321 1.70879e-05 -5.66143e-07
1.70879e-05 8.62806e-05 5.82527e-07
-5.66143e-07 5.82527e-07 5.05687e-06
0.00106801 8.50604e-05 -3.36453e-08
8.50604e-05 0.000169058 1.02941e-06
-3.36453e-08 1.02941e-06 7.78283e-05
0.000962165 3.62646e-05 -2.72646e-07
3.62646e-05 0.000105122 3.23785e-07
-2.72646e-07 3.23785e-07 1.89196e-05
0.00101665 -2.86987e-05 1.38358e-07
-2.86987e-05 0.000118204 -4.28419e-07
1.38358e-07 -4.28419e-07 4.80578e-05
0.000962134 1.57663e-05 3.67209e-07
1.57663e-05 9.19264e-05 4.82284e-07
3.67209e-07 4.82284e-07 1.66783e-05
0.000837364 -1.34264e-05 -6.93101e-07
-1.34264e-05 2.62799e-05 1.16316e-06
-6.93101e-07 1.16316e-06 -4.9901e-05
0.000841065 9.82959e-06 -4.36648e-07
9.82959e-06 3.49068e-05 -2.8836e-08
-4.36648e-07 -2.8836e-08 -4.349e-05
0.000908679 1.37419e-05 2.19455e-07
1.37419e-05 6.90221e-05 -1.65769e-08
2.19455e-07 -1.65769e-08 -1.2633e-05
0.00100687 4.67812e-05 8.56841e-07
4.67812e-05 0.000137556 -8.30325e-07
8.56841e-07 -8.30325e-07 4.70974e-05
0.000822644 4.59397e-05 2.13758e-06
4.59397e-05 1.76392e-05 -1.80826e-06
2.13758e-06 -1.80826e-06 -6.18062e-05
0.000925859 3.19942e-05 -1.72937e-07
3.19942e-05 8.02814e-05 -6.72622e-07
-1.72937e-07 -6.72622e-07 3.83741e-06
0.00108735 2.88258e-05 5.24521e-07
2.88258e-05 0.000172127 3.20955e-07
5.24521e-07 3.20955e-07 9.58448e-05
-0.00187149 -0.000281247 1.42828e-05
-0.000281247 -0.00096412 2.47578e-05
1.42828e-05 2.47578e-05 -0.000941172
0.00017005 -0.000263987 1.02299e-05
-0.000263987 -0.000164398 3.08961e-06
1.02299e-05 3.08961e-06 3.44285e-06
0.001982 -2.49141e-05 -2.51381e-05
-2.49141e-05 0.000231053 -1.48089e-05
-2.51381e-05 -1.48089e-05 8.41198e-05
-0.00171366 -0.000461667 -1.00409e-05
-0.000461667 -0.00209563 1.36046e-05
-1.00409e-05 1.36046e-05 -0.000906287
0.00433388 -0.000496749 -2.56653e-05
-0.000496749 0.00115041 -4.07269e-05
-2.56653e-05 -4.07269e-05 0.00125893
0.00393607 2.56496e-05 4.30649e-05
2.56496e-05 0.000709276 2.09058e-05
4.30649e-05 2.09058e-05 -0.000577204
0.00205216 -0.000147254 -8.09832e-05
-0.000147254 0.00028848 7.86212e-05
-8.09832e-05 7.86212e-05 -0.000346782
0.00292884 0.000111809 -3.87255e-05
0.000111809 0.000401029 -1.26124e-05
-3.87255e-05 -1.26124e-05 8.40805e-05
0.00304563 -0.000536854 -8.04225e-06
-0.000536854 0.00100668 9.88204e-06
-8.04225e-06 9.88204e-06 0.00116782
0.00225061 -7.41993e-05 1.74375e-05
-7.41993e-05 5.69682e-06 3.34054e-05
1.74375e-05 3.34054e-05 -0.0012564
0.00146417 0.000226051 -9.08285e-05
0.000226051 -9.27092e-05 -8.84811e-05
-9.08285e-05 -8.84811e-05 -0.000687447
0.00294403 0.000132937 -9.87169e-05
0.000132937 0.00053979 -3.51705e-05
-9.87169e-05 -3.51705e-05 -0.000749371
0.00236854 0.000244916 1.15753e-05
0.000244916 0.000695235 -6.70788e-06
1.15753e-05 -6.70788e-06 0.000567206
0.000874494 0.000104276 -1.1015e-06
0.000104276 6.59319e-05 -4.08703e-08
-1.1015e-06 -4.08703e-08 3.6123e-06
0.0012476 2.24236e-05 -3.42625e-07
2.24236e-05 0.000250615 -2.23865e-06
-3.42625e-07 -2.23865e-06 0.000186173
-0.000198078 4.53479e-05 -2.60272e-05
4.53479e-05 -0.00030606 -1.46095e-05
-2.60272e-05 -1.46095e-05 -0.000487143
0.00152522 8.59578e-05 -2.41378e-06
8.59578e-05 0.000477808 -5.14373e-06
-2.41378e-06 -5.14373e-06 0.000375563
0.00101375 0.000165555 1.258e-05
0.000165555 0.000131903 1.75721e-07
1.258e-05 1.75721e-07 1.41086e-05
0.000764623 0.000199986 3.7824e-05
0.000199986 -0.0003138 2.49654e-05
3.7824e-05 2.49654e-05 -0.000370467
-0.0029983 -1.45867e-05 -6.25233e-06
-1.45867e-05 -0.00155107 -8.51965e-06
-6.25233e-06 -8.51965e-06 -0.00125597
7.65691e-06 -2.73585e-07 6.47396e-06
-2.73585e-07 0.000228141 1.05184e-06
6.47396e-06 1.05184e-06 4.82043e-05
0.000917534 -3.4181e-06 -1.64273e-05
-3.4181e-06 -9.71649e-05 -3.75645e-07
-1.64273e-05 -3.75645e-07 -0.000183113
0.000685516 -0.000143833 -3.32525e-05
-0.000143833 -0.000243316 -8.81429e-06
-3.32525e-05 -8.81429e-06 -0.000100028
0.00365363 -0.000445941 -5.37501e-05
-0.000445941 0.000730348 -3.19436e-06
-5.37501e-05 -3.19436e-06 0.000100368
0.00102404 0.000103377 -3.63674e-05
0.000103377 0.000744958 8.54958e-06
-3.63674e-05 8.54958e-06 0.000728438
0.00110786 0.000268287 2.62045e-05
0.000268287 -0.00023567 -4.20324e-05
2.62045e-05 -4.20324e-05 -0.00164997
0.00664529 0.000465692 -9.13152e-05
0.000465692 0.00331365 1.49274e-05
-9.13152e-05 1.49274e-05 0.00336352
0.00123675 -0.000229588 9.538e-06
-0.000229588 -2.01162e-05 6.53922e-07
9.538e-06 6.53922e-07 -1.37875e-05
-0.000980397 0.000215587 -1.54556e-05
0.000215587 -0.000341314 -2.3665e-06
-1.54556e-05 -2.3665e-06 -0.000356606
0.0023797 0.000247485 -8.32671e-06
0.000247485 0.000162093 1.39538e-05
-8.32671e-06 1.39538e-05 -0.0010854
0.00383333 -0.000157916 2.54635e-06
-0.000157916 0.000662123 6.15983e-06
2.54635e-06 6.15983e-06 0.000150529
0.000185998 -0.000124585 -3.41686e-06
-0.000124585 -0.000420833 -7.81352e-06
-3.41686e-06 -7.81352e-06 -0.000515257
0.00659959 7.30352e-05 3.19471e-05
7.30352e-05 0.00215942 3.9473e-06
3.19471e-05 3.9473e-06 0.00129854
0.00145297 5.27172e-05 1.82188e-06
5.27172e-05 -0.000519942 -5.70306e-06
1.82188e-06 -5.70306e-06 -0.000799306
0.000482647 -0.000113772 -6.71268e-06
-0.000113772 -0.000281409 1.53815e-07
-6.71268e-06 1.53815e-07 -0.0003012
0.00135459 -0.000158068 -5.63694e-07
-0.000158068 -0.000104887 -4.55167e-07
-5.63694e-07 -4.55167e-07 -0.000115672
0.00198887 -0.000194477 -2.91818e-06
-0.000194477 5.10946e-05 -8.63544e-07
-2.91818e-06 -8.63544e-07 3.79054e-05
0.00143619 -0.000170199 -3.00093e-06
-0.000170199 0.000147274 -3.0445e-06
-3.00093e-06 -3.0445e-06 -6.44587e-06
0.00163557 -0.000182521 -2.68177e-06
-0.000182521 5.64443e-05 1.06318e-06
-2.68177e-06 1.06318e-06 -4.94142e-05
0.00173088 -0.000156651 -5.76261e-06
-0.000156651 8.71642e-06 1.04246e-06
-5.76261e-06 1.04246e-06 -5.87443e-05
0.00100548 -0.000139345 2.61747e-06
-0.000139345 -7.89988e-05 9.35932e-07
2.61747e-06 9.35932e-07 -0.000223957
0.00153218 -0.000143972 -8.20117e-07
-0.000143972 5.71341e-05 2.03806e-07
-8.20117e-07 2.03806e-07 -4.82678e-05
0.00153973 -0.000123382 -1.34749e-06
-0.000123382 -3.82059e-05 -3.02707e-08
-1.34749e-06 -3.02707e-08 -0.000113176
0.00125813 -0.000132267 2.06506e-06
-0.000132267 3.23235e-05 1.9026e-06
2.06506e-06 1.9026e-06 -0.000100753
0.00148335 -0.00012505 -4.13829e-07
-0.00012505 6.15443e-05 8.13453e-07
-4.13829e-07 8.13453e-07 -4.02144e-05
0.00162088 -0.000114699 -1.90849e-06
-0.000114699 8.48838e-05 -4.65362e-07
-1.90849e-06 -4.65362e-07 6.83962e-06
0.00190271 -0.000114988 -3.87146e-07
-0.000114988 0.000289279 -1.72896e-06
-3.87146e-07 -1.72896e-06 0.000203673
0.00156449 -0.000117839 -1.21941e-06
-0.000117839 0.000143271 1.55621e-06
-1.21941e-06 1.55621e-06 4.55016e-05
0.00144893 -0.000116432 -1.01551e-06
-0.000116432 0.000122379 -3.61367e-06
-1.01551e-06 -3.61367e-06 1.66505e-05
0.00134821 -0.000120604 -2.87028e-06
-0.000120604 0.000144352 -3.01803e-07
-2.87028e-06 -3.01803e-07 2.54422e-05
0.00147418 -0.000129495 1.0418e-06
-0.000129495 0.000183798 -3.45358e-07
1.0418e-06 -3.45358e-07 5.88937e-05
0.00142557 -0.000124854 2.99014e-06
-0.000124854 0.000120834 2.84711e-06
2.99014e-06 2.84711e-06 -3.20327e-07
0.000793845 -9.56745e-05 -2.79525e-06
-9.56745e-05 -6.01963e-05 2.16878e-06
-2.79525e-06 2.16878e-06 -0.00017225
0.00104774 -0.000110544 1.69028e-07
-0.000110544 5.08705e-05 -5.83851e-08
1.69028e-07 -5.83851e-08 -7.12699e-05
0.00149985 -0.000134587 4.37951e-06
-0.000134587 0.000259755 -2.23809e-06
4.37951e-06 -2.23809e-06 0.00012603
0.000949964 -8.64323e-05 -1.62807e-06
-8.64323e-05 6.43395e-05 6.78183e-07
-1.62807e-06 6.78183e-07 -2.71965e-05
0.00107789 -0.000104112 1.54353e-07
-0.000104112 0.000123534 -1.97044e-07
1.54353e-07 -1.97044e-07 1.89055e-05
0.000730848 -9.30356e-05 1.36167e-06
-9.30356e-05 -6.68527e-05 -2.9248e-06
1.36167e-06 -2.9248e-06 -0.000183991
0.000820768 -1.74512e-05 -2.48689e-06
-1.74512e-05 2.38284e-05 2.55049e-06
-2.48689e-06 2.55049e-06 -4.57462e-05
0.00101857 -8.32255e-05 -8.71346e-09
-8.32255e-05 0.000109663 -5.0759e-08
-8.71346e-09 -5.0759e-08 2.21156e-05
0.00111971 -0.000101667 1.10422e-06
-0.000101667 0.000160967 -7.01045e-07
1.10422e-06 -7.01045e-07 6.18282e-05
0.000618036 5.42369e-05 -1.88057e-06
5.42369e-05 -6.55219e-05 4.60761e-06
-1.88057e-06 4.60761e-06 -9.06305e-05
0.000811168 4.68983e-06 -3.26309e-08
4.68983e-06 2.17039e-05 4.14249e-08
-3.26309e-08 4.14249e-08 -4.16903e-05
0.00099426 -4.49964e-05 1.5846e-06
-4.49964e-05 0.000110442 -5.68661e-07
1.5846e-06 -5.68661e-07 2.57104e-05
0.00238844 6.53992e-05 -3.13254e-05
6.53992e-05 0.000875858 3.06253e-06
-3.13254e-05 3.06253e-06 0.000885864
0.000701062 4.84096e-05 -1.28478e-07
4.84096e-05 -2.84e-05 -1.21032e-07
-1.28478e-07 -1.21032e-07 -4.72908e-05
0.000754794 1.01838e-05 2.22847e-06
1.01838e-05 -1.185e-05 -2.70414e-06
2.22847e-06 -2.70414e-06 -6.39858e-05
0.00161178 5.04816e-05 1.21273e-05
5.04816e-05 0.000454962 -7.41283e-07
1.21273e-05 -7.41283e-07 0.000463718
0.000756563 4.33344e-05 2.41312e-06
4.33344e-05 -7.93056e-06 -3.76189e-06
2.41312e-06 -3.76189e-06 -2.20013e-05
0.00222077 5.23265e-05 2.68278e-05
5.23265e-05 0.0007736 -3.32413e-06
2.68278e-05 -3.32413e-06 0.0007879
0.000958409 4.70644e-05 1.82429e-07
4.70644e-05 9.86572e-05 7.99987e-07
1.82429e-07 7.99987e-07 1.63296e-05
0.000939732 6.94073e-06 -1.45397e-07
6.94073e-06 8.34978e-05 5.20318e-07
-1.45397e-07 5.20318e-07 9.04519e-06
0.000880468 -2.4226e-05 -3.22972e-07
-2.4226e-05 5.18423e-05 -1.28458e-06
-3.22972e-07 -1.28458e-06 -1.68624e-05
0.000920237 1.0576e-05 2.35805e-07
1.0576e-05 6.77823e-05 5.9397e-07
2.35805e-07 5.9397e-07 -4.58823e-06
0.000863305 -2.81098e-05 1.86023e-07
-2.81098e-05 3.45202e-05 -4.69534e-08
1.86023e-07 -4.69534e-08 -2.83332e-05
0.000765619 -4.14795e-05 -1.01056e-06
-4.14795e-05 -9.50313e-06 -2.33665e-06
-1.01056e-06 -2.33665e-06 -5.25204e-05
0.000748407 -3.58126e-05 -2.43153e-06
-3.58126e-05 -2.08024e-05 -3.58814e-06
-2.43153e-06 -3.58814e-06 -3.22099e-05
0.000789608 -3.8406e-05 -1.40981e-07
-3.8406e-05 -3.08669e-06 -1.5269e-08
-1.40981e-07 -1.5269e-08 -4.2372e-05
0.000861248 -4.34275e-05 -1.06857e-07
-4.34275e-05 3.03165e-05 1.34928e-06
-1.06857e-07 1.34928e-06 -2.78007e-05
0.00226149 -4.64261e-05 -2.4846e-05
-4.64261e-05 0.00078745 -3.59835e-06
-2.4846e-05 -3.59835e-06 0.000802983
0.000734363 -3.1336e-05 -2.17875e-07
-3.1336e-05 -3.39687e-05 2.0963e-08
-2.17875e-07 2.0963e-08 -4.3561e-05
0.000808935 -2.09664e-05 1.47993e-06
-2.09664e-05 1.80209e-06 1.78601e-06
1.47993e-06 1.78601e-06 -3.45056e-05
0.00223571 -4.05152e-05 -1.31741e-06
-4.05152e-05 0.00076632 8.43486e-08
-1.31741e-06 8.43486e-08 0.000783533
0.000730361 -2.75741e-05 1.1357e-06
-2.75741e-05 -4.18155e-05 3.41333e-06
1.1357e-06 3.41333e-06 -4.94886e-05
0.00217148 -3.39984e-05 1.63613e-05
-3.39984e-05 0.000725327 3.82186e-06
1.63613e-05 3.82186e-06 0.0007444
0.00134813 8.77381e-05 9.81235e-05
8.77381e-05 0.000737121 2.69934e-05
9.81235e-05 2.69934e-05 0.000466158
0.000242687 -0.000120144 5.39763e-06
-0.000120144 0.000181918 3.64722e-06
5.39763e-06 3.64722e-06 4.87252e-05
0.00148681 -1.35674e-05 -1.7365e-05
-1.35674e-05 0.000121663 -2.75901e-07
-1.7365e-05 -2.75901e-07 2.86014e-05
0.000927497 4.02712e-06 2.73512e-07
4.02712e-06 8.28813e-05 5.83338e-07
2.73512e-07 5.83338e-07 2.21225e-06
0.000932835 1.75644e-05 3.18822e-08
1.75644e-05 8.8721e-05 4.6623e-07
3.18822e-08 4.6623e-07 2.81216e-06
0.00096227 8.19249e-05 -1.00151e-07
8.19249e-05 0.000116802 5.21405e-08
-1.00151e-07 5.21405e-08 2.60871e-05
0.0010883 0.0001018 8.09898e-07
0.0001018 0.000174818 1.00924e-06
8.09898e-07 1.00924e-06 7.9054e-05
0.000991852 7.03553e-05 -6.78491e-07
7.03553e-05 0.000133787 6.11433e-07
-6.78491e-07 6.11433e-07 3.92017e-05
0.000871226 2.02132e-05 1.05322e-07
2.02132e-05 5.03633e-05 7.29383e-07
1.05322e-07 7.29383e-07 -2.87036e-05
0.000885838 1.25704e-05 2.1179e-08
1.25704e-05 5.66033e-05 7.78567e-07
2.1179e-08 7.78567e-07 -2.48969e-05
0.000825935 4.94023e-05 -5.2329e-07
4.94023e-05 4.28179e-05 -6.0952e-07
-5.2329e-07 -6.0952e-07 -4.61563e-05
0.000247052 6.01486e-05 -2.54434e-07
6.01486e-05 -0.000252956 1.40116e-06
-2.54434e-07 1.40116e-06 -0.000347673
0.000842211 8.45203e-05 1.84833e-07
8.45203e-05 2.72647e-05 -1.46493e-06
1.84833e-07 -1.46493e-06 -6.33003e-05
0.00193591 0.000178489 3.5501e-06
0.000178489 0.000471096 -4.64859e-06
3.5501e-06 -4.64859e-06 0.000359197
0.000906494 5.29712e-05 -1.67006e-06
5.29712e-05 7.7433e-05 -2.74012e-07
-1.67006e-06 -2.74012e-07 -3.76347e-06
0.000856945 9.15035e-06 -3.2186e-07
9.15035e-06 4.79854e-05 -4.36821e-07
-3.2186e-07 -4.36821e-07 -2.57049e-05
0.00901235 -0.00012694 -3.31658e-05
-0.00012694 0.00275182 -1.47243e-05
-3.31658e-05 -1.47243e-05 0.00177706
-0.00184779 -0.000279031 -1.95402e-05
-0.000279031 -0.000801413 1.0553e-06
-1.95402e-05 1.0553e-06 -0.000985111
0.00149389 -0.000269979 -3.58038e-05
-0.000269979 0.000562621 -2.1491e-05
-3.58038e-05 -2.1491e-05 0.000713406
-0.00235324 -0.000331396 -2.47959e-05
-0.000331396 -0.00152749 -6.45728e-06
-2.47959e-05 -6.45728e-06 -0.00128231
0.00910573 -0.000370322 5.36586e-05
-0.000370322 0.00316948 2.37556e-05
5.36586e-05 2.37556e-05 0.00158114
0.00208516 6.49716e-05 1.01914e-05
6.49716e-05 0.000129075 1.55901e-05
1.01914e-05 1.55901e-05 -1.824e-05
0.00187696 0.000246014 -3.48479e-05
0.000246014 1.06709e-05 -2.29237e-05
-3.48479e-05 -2.29237e-05 -0.000465128
0.00641193 -0.000297392 4.18474e-05
-0.000297392 0.00176118 1.75021e-05
4.18474e-05 1.75021e-05 0.000700599
0.00230543 0.000186892 -5.76234e-06
0.000186892 -4.92959e-05 -4.28699e-05
-5.76234e-06 -4.28699e-05 -0.000474724
0.00219985 0.000277087 1.57618e-05
0.000277087 0.000395737 1.13128e-05
1.57618e-05 1.13128e-05 0.00025126
0.000895614 0.000161237 4.78377e-07
0.000161237 2.22461e-05 -4.71118e-06
4.78377e-07 -4.71118e-06 -0.000118636
0.000953204 8.61556e-05 -3.21951e-06
8.61556e-05 0.000100406 1.98393e-06
-3.21951e-06 1.98393e-06 4.24554e-05
0.00199575 0.000216971 -3.69855e-05
0.000216971 0.000590562 -1.85047e-05
-3.69855e-05 -1.85047e-05 0.000482177
0.000481932 0.000199897 -1.28474e-05
0.000199897 -0.000431898 1.35985e-05
-1.28474e-05 1.35985e-05 -0.00050127
0.000375244 -3.51547e-05 1.06802e-06
-3.51547e-05 -0.00103435 -4.00505e-06
1.06802e-06 -4.00505e-06 -0.00148219
0.00158495 1.42827e-05 -6.04316e-06
1.42827e-05 0.000738563 -3.84533e-07
-6.04316e-06 -3.84533e-07 0.000753888
-0.00116362 8.44029e-06 -1.48422e-05
8.44029e-06 -0.000350588 1.04936e-06
-1.48422e-05 1.04936e-06 -0.000579844
0.00210893 -0.00027521 -3.78194e-05
-0.00027521 0.000350109 9.50429e-06
-3.78194e-05 9.50429e-06 0.000337537
0.0038407 -0.000191043 1.75559e-06
-0.000191043 0.000511664 -1.94401e-05
1.75559e-06 -1.94401e-05 -0.00024973
0.000120793 -1.07171e-05 -6.93102e-05
-1.07171e-05 0.000217538 2.20754e-05
-6.93102e-05 2.20754e-05 2.31226e-05
0.007872 0.000451977 -2.791e-05
0.000451977 0.00288726 1.75305e-05
-2.791e-05 1.75305e-05 0.00172653
0.000800445 -0.000137846 5.52097e-07
-0.000137846 -0.000146396 -1.62963e-06
5.52097e-07 -1.62963e-06 -0.000201806
0.00521597 0.000203457 2.04697e-05
0.000203457 0.00140506 9.74964e-06
2.04697e-05 9.74964e-06 0.00067006
0.00317988 4.59354e-05 3.99009e-05
4.59354e-05 0.000133727 -2.20278e-06
3.99009e-05 -2.20278e-06 -0.000330626
0.00285974 -0.000148254 -4.77415e-06
-0.000148254 0.000835644 7.05917e-07
-4.77415e-06 7.05917e-07 0.000733509
0.00161461 2.54551e-05 -5.74826e-05
2.54551e-05 0.000148944 3.69803e-07
-5.74826e-05 3.69803e-07 -0.000127358
0.00110619 -0.000152171 2.93454e-06
-0.000152171 -0.000222351 -1.53291e-06
2.93454e-06 -1.53291e-06 -0.000233683
0.00178971 -0.000190531 -1.12054e-06
-0.000190531 -2.10222e-05 2.37243e-06
-1.12054e-06 2.37243e-06 -4.74432e-05
0.002339 -0.000138654 -7.09834e-06
-0.000138654 0.000191085 -4.21862e-07
-7.09834e-06 -4.21862e-07 0.000155376
0.00176484 -0.000184038 4.17164e-06
-0.000184038 0.000118155 2.30337e-06
4.17164e-06 2.30337e-06 1.36917e-05
0.00182018 -0.00015433 2.19274e-07
-0.00015433 6.78907e-05 1.26016e-06
2.19274e-07 1.26016e-06 1.52131e-07
0.00187267 -0.000103987 -8.57505e-07
-0.000103987 5.70317e-05 1.75927e-06
-8.57505e-07 1.75927e-06 -2.24558e-06
0.00133103 -0.000134675 2.48328e-06
-0.000134675 -4.84458e-05 3.37251e-06
2.48328e-06 3.37251e-06 -0.000152767
0.00169748 -0.000126646 4.26617e-09
-0.000126646 4.75808e-05 1.50682e-06
4.26617e-09 1.50682e-06 -2.93977e-05
0.00168125 -0.000102102 2.97469e-07
-0.000102102 2.61697e-05 2.69834e-06
2.97469e-07 2.69834e-06 -4.84419e-05
0.00131646 -0.00011896 3.37955e-06
-0.00011896 -2.42832e-05 3.76556e-06
3.37955e-06 3.76556e-06 -0.000125781
0.00155514 -0.000113884 -2.97116e-07
-0.000113884 5.65987e-05 1.4827e-06
-2.97116e-07 1.4827e-06 -2.30969e-05
0.00173134 -0.000103289 7.35496e-07
-0.000103289 0.00014018 3.24234e-07
7.35496e-07 3.24234e-07 6.19923e-05
0.00161088 -0.000108331 -2.39656e-06
-0.000108331 0.000140899 1.14304e-06
-2.39656e-06 1.14304e-06 5.82228e-05
0.00175733 -0.000110863 2.0083e-06
-0.000110863 0.000238994 -2.37758e-06
2.0083e-06 -2.37758e-06 0.000144108
0.00152094 -0.000114307 1.82189e-06
-0.000114307 0.000120591 4.87156e-06
1.82189e-06 4.87156e-06 2.53531e-05
0.0014473 -0.000115276 2.63448e-07
-0.000115276 0.000121007 -5.84643e-07
2.63448e-07 -5.84643e-07 1.49261e-05
0.00142336 -0.000112487 -1.27228e-06
-0.000112487 0.000133826 -1.50291e-06
-1.27228e-06 -1.50291e-06 2.51761e-05
0.000938267 -0.000100152 -3.25269e-06
-0.000100152 -3.82157e-05 9.85163e-07
-3.25269e-06 9.85163e-07 -0.000150649
0.00133486 -0.000119076 9.02999e-08
-0.000119076 0.000137876 -2.46047e-07
9.02999e-08 -2.46047e-07 1.86191e-05
0.00159129 -0.000132766 3.74199e-06
-0.000132766 0.000245622 5.97099e-07
3.74199e-06 5.97099e-07 0.000120678
0.00100289 -9.44115e-05 -2.33483e-06
-9.44115e-05 7.11149e-05 1.24676e-06
-2.33483e-06 1.24676e-06 -2.65514e-05
0.00089456 -9.93385e-05 -6.79383e-07
-9.93385e-05 -5.95055e-06 7.64274e-07
-6.79383e-07 7.64274e-07 -0.000117125
0.00133953 -0.000121654 3.16259e-06
-0.000121654 0.000203695 -1.72638e-06
3.16259e-06 -1.72638e-06 8.2612e-05
0.000749242 -3.23753e-05 -2.54738e-06
-3.23753e-05 -1.92956e-05 1.82661e-06
-2.54738e-06 1.82661e-06 -9.14738e-05
0.00103658 -9.09039e-05 7.81958e-08
-9.09039e-05 0.000107791 -2.03005e-07
7.81958e-08 -2.03005e-07 1.58064e-05
0.00114239 -0.000106434 1.55764e-06
-0.000106434 0.000155365 -1.5864e-06
1.55764e-06 -1.5864e-06 5.05105e-05
0.000589263 5.9493e-05 -9.90396e-07
5.9493e-05 -7.67558e-05 5.15846e-06
-9.90396e-07 5.15846e-06 -0.00010921
0.000837038 -2.12801e-05 -2.40714e-09
-2.12801e-05 3.09477e-05 2.50199e-07
-2.40714e-09 2.50199e-07 -3.83106e-05
0.00106498 -7.65654e-05 1.81573e-06
-7.65654e-05 0.000132057 -5.19912e-07
1.81573e-06 -5.19912e-07 4.51113e-05
0.00260006 7.43903e-05 -3.49372e-05
7.43903e-05 0.000992944 3.01332e-06
-3.49372e-05 3.01332e-06 0.00100002
0.000658813 5.70457e-05 6.20873e-08
5.70457e-05 -4.25049e-05 -1.44959e-07
6.20873e-08 -1.44959e-07 -6.84991e-05
0.000778605 -1.94104e-05 2.34968e-06
-1.94104e-05 1.56403e-06 -2.50152e-06
2.34968e-06 -2.50152e-06 -6.06385e-05
0.00244274 6.59659e-05 5.13468e-07
6.59659e-05 0.000904698 9.03883e-08
5.13468e-07 9.03883e-08 0.000914343
0.000730745 5.12272e-05 1.33161e-06
5.12272e-05 -1.17556e-05 -4.33049e-06
1.33161e-06 -4.33049e-06 -3.14059e-05
0.00232738 5.87185e-05 3.0827e-05
5.87185e-05 0.00083757 -3.20702e-06
3.0827e-05 -3.20702e-06 0.000849552
0.00101183 9.08725e-05 2.1157e-07
9.08725e-05 0.000125717 4.53436e-07
2.1157e-07 4.53436e-07 3.37134e-05
0.000910811 6.24354e-05 3.52368e-07
6.24354e-05 7.5907e-05 1.31355e-07
3.52368e-07 1.31355e-07 -7.68822e-06
0.000812651 -1.5355e-05 -7.83125e-07
-1.5355e-05 1.95111e-05 -6.00166e-07
-7.83125e-07 -6.00166e-07 -5.70075e-05
0.000894298 -7.45693e-06 5.47352e-08
-7.45693e-06 5.88385e-05 9.25511e-07
5.47352e-08 9.25511e-07 -1.57143e-05
0.000851971 -3.34903e-05 3.24757e-08
-3.34903e-05 3.63745e-05 1.07061e-07
3.24757e-08 1.07061e-07 -3.27043e-05
0.000756348 -3.7505e-05 -1.18291e-06
-3.7505e-05 -9.55778e-06 -2.28966e-06
-1.18291e-06 -2.28966e-06 -5.84805e-05
0.000845604 -4.08005e-05 9.6424e-08
-4.08005e-05 2.49851e-05 1.52761e-06
9.6424e-08 1.52761e-06 -3.76081e-05
0.000779226 -4.12927e-05 -1.55141e-08
-4.12927e-05 -3.23155e-06 -1.09317e-07
-1.55141e-08 -1.09317e-07 -4.59877e-05
0.000741007 -4.19013e-05 -2.45444e-06
-4.19013e-05 -1.65982e-05 -3.72567e-06
-2.45444e-06 -3.72567e-06 -3.06677e-05
0.00226864 -5.21583e-05 -2.73362e-05
-5.21583e-05 0.000798622 -3.3853e-06
-2.73362e-05 -3.3853e-06 0.000812567
0.000731422 -3.49366e-05 -6.68522e-08
-3.49366e-05 -2.94603e-05 2.26041e-08
-6.68522e-08 2.26041e-08 -4.07859e-05
0.000789639 -3.39609e-05 1.47566e-06
-3.39609e-05 -3.77557e-06 1.99486e-06
1.47566e-06 1.99486e-06 -4.25832e-05
0.0022637 -4.64257e-05 -1.1738e-06
-4.64257e-05 0.000787807 9.15111e-08
-1.1738e-06 9.15111e-08 0.000803443
0.000718757 -3.07415e-05 1.5741e-06
-3.07415e-05 -4.2013e-05 3.55183e-06
1.5741e-06 3.55183e-06 -5.15452e-05
0.00222609 -4.03565e-05 2.0022e-05
-4.03565e-05 0.000760571 3.74977e-06
2.0022e-05 3.74977e-06 0.000777941
0.0072431 3.87146e-05 5.00876e-05
3.87146e-05 0.00216982 7.71521e-06
5.00876e-05 7.71521e-06 0.00141119
-0.0022126 -8.65782e-05 -9.0355e-07
-8.65782e-05 -0.00110285 1.35356e-06
-9.0355e-07 1.35356e-06 -0.000992438
-0.000963094 -7.951e-05 -3.16266e-05
-7.951e-05 -0.000463004 -1.8285e-06
-3.16266e-05 -1.8285e-06 -0.000686812
0.000899335 -7.58985e-07 1.71851e-07
-7.58985e-07 7.07092e-05 7.52967e-07
1.71851e-07 7.52967e-07 -1.50611e-05
0.000853315 7.90851e-05 -2.26487e-07
7.90851e-05 6.16742e-05 -3.51728e-07
-2.26487e-07 -3.51728e-07 -2.77635e-05
0.00105405 7.48062e-05 4.65577e-07
7.48062e-05 0.000167077 6.91516e-09
4.65577e-07 6.91516e-09 7.25289e-05
0.00101711 9.84657e-05 -8.06887e-07
9.84657e-05 0.000138472 -2.10982e-07
-8.06887e-07 -2.10982e-07 4.29624e-05
0.00114142 0.000107319 5.85012e-06
0.000107319 0.00019287 1.97227e-06
5.85012e-06 1.97227e-06 9.11323e-05
0.000653945 8.06619e-05 -8.09903e-07
8.06619e-05 -4.1918e-05 1.612e-06
-8.09903e-07 1.612e-06 -0.000136973
0.000624704 5.03116e-05 -3.1091e-07
5.03116e-05 -6.08713e-05 -2.02139e-07
-3.1091e-07 -2.02139e-07 -0.00014953
0.000617166 7.8917e-05 5.08627e-07
7.8917e-05 -6.44091e-05 -9.73677e-08
5.08627e-07 -9.73677e-08 -0.000162968
0.000797635 7.34706e-05 2.53933e-07
7.34706e-05 1.20158e-05 2.19801e-08
2.53933e-07 2.19801e-08 -8.03303e-05
0.000285893 8.05545e-05 1.4761e-06
8.05545e-05 -0.000287314 6.85047e-07
1.4761e-06 6.85047e-07 -0.000383104
0.00294364 0.000211528 1.40088e-06
0.000211528 0.000979593 -5.00304e-07
1.40088e-06 -5.00304e-07 0.000872161
0.0017036 0.000186238 3.46388e-06
0.000186238 0.000181673 -1.07349e-06
3.46388e-06 -1.07349e-06 5.75977e-05
0.00135033 0.000152781 1.2361e-06
0.000152781 0.000185378 -7.67577e-07
1.2361e-06 -7.67577e-07 7.80242e-05
0.000998461 5.51071e-05 -3.35564e-06
5.51071e-05 0.000137835 1.20052e-06
-3.35564e-06 1.20052e-06 5.61075e-05
0.00232747 -5.7663e-05 -2.33066e-05
-5.7663e-05 -0.000154737 -1.16434e-05
-2.33066e-05 -1.16434e-05 -0.000386339
0.00454794 -0.000129707 5.79533e-06
-0.000129707 0.000949649 4.87591e-07
5.79533e-06 4.87591e-07 1.34659e-05
0.00444634 -0.000456076 -3.68645e-05
-0.000456076 0.00205672 -2.77082e-05
-3.68645e-05 -2.77082e-05 0.00210493
0.00689515 -0.000144813 0.000177618
-0.000144813 0.00205169 5.64518e-05
0.000177618 5.64518e-05 0.000808958
0.00350198 0.000281776 4.71052e-05
0.000281776 0.000820395 4.92355e-05
4.71052e-05 4.92355e-05 0.000628543
0.00199082 0.000133013 -4.3759e-05
0.000133013 3.97523e-05 -1.43138e-05
-4.3759e-05 -1.43138e-05 -0.000209611
0.00179607 0.000196733 2.95052e-05
0.000196733 5.8654e-05 1.65194e-05
2.95052e-05 1.65194e-05 4.19296e-05
0.00196075 0.000266499 -1.87358e-06
0.000266499 0.00027893 5.17312e-06
-1.87358e-06 5.17312e-06 0.000153334
0.000239978 0.000120525 -2.94153e-06
0.000120525 -0.000292635 3.1821e-06
-2.94153e-06 3.1821e-06 -0.000429579
0.0019471 0.000277468 -6.84778e-05
0.000277468 0.000262296 -4.79499e-05
-6.84778e-05 -4.79499e-05 0.000201371
0.00327515 -8.09622e-05 -0.000141612
-8.09622e-05 0.000855793 -6.7873e-07
-0.000141612 -6.7873e-07 0.000467783
0.00690735 4.2915e-05 1.31216e-05
4.2915e-05 0.00231701 -2.7915e-06
1.31216e-05 -2.7915e-06 0.00168924
-0.00491965 -5.6396e-05 9.7749e-06
-5.6396e-05 -0.0026565 4.5704e-06
9.7749e-06 4.5704e-06 -0.00244932
0.00115411 -0.000150728 -6.60533e-07
-0.000150728 1.47937e-05 1.04909e-05
-6.60533e-07 1.04909e-05 -2.64856e-05
0.00477996 2.586e-05 6.47835e-05
2.586e-05 0.000954592 -6.03963e-07
6.47835e-05 -6.03963e-07 0.00055044
0.000962895 -0.000129231 5.42678e-05
-0.000129231 -0.000476804 1.13825e-05
5.42678e-05 1.13825e-05 -0.00113484
0.00147371 -0.00010837 4.23131e-06
-0.00010837 0.00014754 5.43156e-07
4.23131e-06 5.43156e-07 7.98062e-05
0.00152485 8.55218e-05 -1.50127e-06
8.55218e-05 -9.28985e-06 -2.43253e-06
-1.50127e-06 -2.43253e-06 -0.000260582
0.0034745 -5.91331e-05 3.74529e-06
-5.91331e-05 0.000951066 -9.2707e-06
3.74529e-06 -9.2707e-06 0.000894705
0.00129227 5.33207e-05 1.91805e-05
5.33207e-05 -0.000125411 -2.15342e-06
1.91805e-05 -2.15342e-06 -0.00023012
0.00146712 -0.000186258 2.75095e-06
-0.000186258 -0.000150216 6.45369e-07
2.75095e-06 6.45369e-07 -0.000195283
0.00203672 -0.000132511 -2.1858e-07
-0.000132511 4.7242e-05 -1.55667e-06
-2.1858e-07 -1.55667e-06 7.97946e-06
0.00230247 -3.60785e-05 2.21181e-06
-3.60785e-05 0.000255757 -2.26554e-06
2.21181e-06 -2.26554e-06 0.00020179
0.00174511 -0.000150526 8.20196e-06
-0.000150526 4.30809e-05 9.08226e-07
8.20196e-06 9.08226e-07 -2.54633e-05
0.00187291 -0.000102392 2.50343e-06
-0.000102392 6.98053e-05 -4.54353e-07
2.50343e-06 -4.54353e-07 8.73528e-06
0.00192836 -5.77646e-05 1.21235e-06
-5.77646e-05 0.000138275 6.93017e-07
1.21235e-06 6.93017e-07 5.70663e-05
0.00187089 -0.00012973 3.74243e-06
-0.00012973 0.000141073 2.71293e-06
3.74243e-06 2.71293e-06 6.20161e-05
0.00183362 -0.000105148 7.2471e-07
-0.000105148 0.000111656 3.12593e-07
7.2471e-07 3.12593e-07 3.48126e-05
0.00189258 -8.31478e-05 -3.87052e-07
-8.31478e-05 0.000167646 2.27646e-06
-3.87052e-07 2.27646e-06 7.79107e-05
0.00148069 -0.000112653 2.62923e-06
-0.000112653 2.38072e-05 2.14546e-06
2.62923e-06 2.14546e-06 -5.75119e-05
0.00155775 -0.000101963 6.4643e-07
-0.000101963 6.18704e-05 -1.02345e-06
6.4643e-07 -1.02345e-06 -1.58503e-05
0.00149485 -9.45233e-05 2.91954e-06
-9.45233e-05 5.88025e-05 4.85049e-07
2.91954e-06 4.85049e-07 -3.48872e-05
0.00131864 -0.000101556 -1.10732e-06
-0.000101556 -7.92306e-06 3.88803e-06
-1.10732e-06 3.88803e-06 -8.7646e-05
0.00159008 -0.000105713 -1.27926e-06
-0.000105713 0.000151799 -1.13889e-06
-1.27926e-06 -1.13889e-06 5.87741e-05
0.00173273 -0.00010918 2.25931e-07
-0.00010918 0.000251161 -1.13129e-06
2.25931e-07 -1.13129e-06 0.000147889
0.00144463 -0.000114091 1.37554e-06
-0.000114091 0.00011896 2.13599e-06
1.37554e-06 2.13599e-06 1.25499e-05
0.00142229 -0.000111469 3.41494e-07
-0.000111469 0.000133334 -4.19646e-07
3.41494e-07 -4.19646e-07 2.43583e-05
0.00147249 -0.000110972 -1.94784e-06
-0.000110972 0.000188251 -3.31425e-07
-1.94784e-06 -3.31425e-07 8.11276e-05
0.000757238 -8.53815e-05 -3.89769e-06
-8.53815e-05 -9.77753e-05 1.54316e-06
-3.89769e-06 1.54316e-06 -0.000198825
0.00103279 -0.000102784 -5.36493e-07
-0.000102784 1.3922e-05 4.73061e-07
-5.36493e-07 4.73061e-07 -9.77197e-05
0.00132196 -0.000117582 2.75449e-06
-0.000117582 0.000131625 -3.36747e-07
2.75449e-06 -3.36747e-07 1.20209e-05
0.000826613 -5.78729e-05 -3.32181e-06
-5.78729e-05 1.0538e-05 1.86381e-06
-3.32181e-06 1.86381e-06 -6.6126e-05
0.00105217 -9.6126e-05 1.30437e-07
-9.6126e-05 9.52818e-05 4.13721e-08
1.30437e-07 4.13721e-08 -2.3943e-06
0.00100708 -0.000103489 1.1985e-06
-0.000103489 5.42034e-05 -5.98884e-07
1.1985e-06 -5.98884e-07 -5.61078e-05
0.000628982 4.46456e-05 -3.39603e-06
4.46456e-05 -5.35954e-05 4.89632e-06
-3.39603e-06 4.89632e-06 -9.13043e-05
0.000856901 -3.54025e-05 1.55031e-07
-3.54025e-05 3.75358e-05 3.41547e-08
1.55031e-07 3.41547e-08 -3.56247e-05
0.00111428 -9.47974e-05 2.23214e-06
-9.47974e-05 0.000146663 -1.24469e-06
2.23214e-06 -1.24469e-06 5.42746e-05
0.00284221 8.38252e-05 -4.00966e-05
8.38252e-05 0.00112434 3.02537e-06
-4.00966e-05 3.02537e-06 0.00112827
0.000650889 4.65422e-05 6.71714e-07
4.65422e-05 -4.68613e-05 -3.45503e-08
6.71714e-07 -3.45503e-08 -7.78857e-05
0.000850361 -2.38514e-05 2.90838e-06
-2.38514e-05 3.65696e-05 -2.14227e-06
2.90838e-06 -2.14227e-06 -3.25156e-05
0.0026494 7.42139e-05 6.23262e-07
7.42139e-05 0.0010186 1.12503e-07
6.23262e-07 1.12503e-07 0.00102539
0.000695543 5.41181e-05 1.43359e-06
5.41181e-05 -2.32165e-05 -4.74889e-06
1.43359e-06 -4.74889e-06 -4.9159e-05
0.0024928 6.59157e-05 3.52945e-05
6.59157e-05 0.000931169 -3.19306e-06
3.52945e-05 -3.19306e-06 0.000940568
0.0010843 0.000100275 -3.76821e-07
0.000100275 0.000155483 -6.8739e-07
-3.76821e-07 -6.8739e-07 5.72861e-05
0.00105832 9.33536e-05 2.39513e-07
9.33536e-05 0.000150063 1.38157e-07
2.39513e-07 1.38157e-07 5.83294e-05
0.000949269 4.39623e-05 -1.21631e-06
4.39623e-05 8.84916e-05 -2.73418e-07
-1.21631e-06 -2.73418e-07 5.51823e-06
0.000877866 7.9541e-05 2.22571e-07
7.9541e-05 6.20399e-05 -1.30037e-07
2.22571e-07 -1.30037e-07 -2.36195e-05
0.000815692 -2.28803e-06 -4.18592e-07
-2.28803e-06 2.19793e-05 -7.67201e-08
-4.18592e-07 -7.67201e-08 -5.57868e-05
0.000755146 -8.3923e-06 -2.21101e-06
-8.3923e-06 -6.82246e-06 -1.78665e-06
-2.21101e-06 -1.78665e-06 -6.48712e-05
0.000828617 -4.12741e-05 1.67784e-07
-4.12741e-05 2.4766e-05 1.23094e-06
1.67784e-07 1.23094e-06 -4.5611e-05
0.000771247 -3.90656e-05 1.17282e-07
-3.90656e-05 -1.65845e-06 -2.38783e-07
1.17282e-07 -2.38783e-07 -5.06419e-05
0.000725346 -5.05292e-05 -1.81589e-06
-5.05292e-05 -1.50008e-05 -4.01078e-06
-1.81589e-06 -4.01078e-06 -3.36181e-05
0.000793784 -4.16916e-05 1.0757e-06
-4.16916e-05 3.65991e-06 2.21231e-06
1.0757e-06 2.21231e-06 -3.88993e-05
0.000720438 -4.00264e-05 7.57129e-08
-4.00264e-05 -2.77187e-05 -2.76435e-08
7.57129e-08 -2.76435e-08 -4.14613e-05
0.00231712 -5.8279e-05 -3.01583e-05
-5.8279e-05 0.000832114 -3.17878e-06
-3.01583e-05 -3.17878e-06 0.000844104
0.00227875 -5.22186e-05 -6.82266e-07
-5.22186e-05 0.000802954 8.79391e-08
-6.82266e-07 8.79391e-08 0.000816996
0.000714598 -3.40904e-05 2.29222e-06
-3.40904e-05 -3.81059e-05 3.60115e-06
2.29222e-06 3.60115e-06 -4.93442e-05
0.00226747 -4.65075e-05 2.32232e-05
-4.65075e-05 0.000789106 3.63896e-06
2.32232e-05 3.63896e-06 0.000804816
0.00116487 -7.21215e-05 -5.79192e-05
-7.21215e-05 -0.00036097 -1.17757e-06
-5.79192e-05 -1.17757e-06 -0.00060704
0.00168349 -0.000136706 4.2677e-06
-0.000136706 -0.000462225 -5.56437e-07
4.2677e-06 -5.56437e-07 -0.00111238
0.00248667 -0.000299293 -4.36938e-05
-0.000299293 0.00101547 -1.01997e-05
-4.36938e-05 -1.01997e-05 0.00115865
0.00120219 0.000114439 6.21194e-06
0.000114439 0.000179801 1.7624e-06
6.21194e-06 1.7624e-06 7.32948e-05
0.00112957 7.77362e-05 2.72557e-07
7.77362e-05 0.000207246 -7.29144e-07
2.72557e-07 -7.29144e-07 0.000112785
0.000937934 9.46549e-05 -6.83013e-07
9.46549e-05 9.81798e-05 -6.28465e-07
-6.83013e-07 -6.28465e-07 2.95227e-06
0.000906779 9.32615e-05 2.39192e-07
9.32615e-05 9.05468e-05 2.49023e-07
2.39192e-07 2.49023e-07 -5.91771e-06
0.00102851 0.000102397 -1.61849e-07
0.000102397 0.000138012 -6.28969e-07
-1.61849e-07 -6.28969e-07 3.56514e-05
0.000625141 8.89455e-05 -1.24894e-07
8.89455e-05 -9.47912e-05 1.95374e-06
-1.24894e-07 1.95374e-06 -0.000181893
0.00105244 0.000101518 1.28197e-07
0.000101518 0.000159073 -1.82702e-06
1.28197e-07 -1.82702e-06 5.61126e-05
0.00097369 7.09473e-05 -1.45783e-06
7.09473e-05 0.000107877 1.39149e-06
-1.45783e-06 1.39149e-06 1.30975e-05
0.0009573 0.000111611 1.62222e-07
0.000111611 5.53563e-05 -1.80098e-07
1.62222e-07 -1.80098e-07 -4.10735e-05
0.00216432 0.0001789 7.50349e-07
0.0001789 0.000595007 2.18854e-06
7.50349e-07 2.18854e-06 0.000489825
0.00160467 0.000166405 1.61127e-06
0.000166405 0.000176681 -1.59283e-06
1.61127e-06 -1.59283e-06 6.21237e-05
0.00185523 0.000153025 8.51019e-06
0.000153025 8.74633e-05 6.64917e-06
8.51019e-06 6.64917e-06 -3.68636e-05
0.00129372 0.000169336 3.6897e-07
0.000169336 -2.38651e-05 2.4116e-07
3.6897e-07 2.4116e-07 -0.000147491
0.000834076 0.000127607 -1.5178e-06
0.000127607 -7.18968e-05 3.52046e-06
-1.5178e-06 3.52046e-06 -0.000174392
0.000395485 4.56538e-05 -7.10813e-06
4.56538e-05 -0.000427989 2.10388e-06
-7.10813e-06 2.10388e-06 -0.000435364
0.00380327 -4.57789e-05 -1.08285e-05
-4.57789e-05 0.000392127 1.42603e-06
-1.08285e-05 1.42603e-06 9.35177e-05
0.00148367 -0.000172316 8.04128e-06
-0.000172316 -0.000496436 5.88575e-06
8.04128e-06 5.88575e-06 -0.00134367
0.00285269 0.000214912 4.67581e-05
0.000214912 0.000237199 2.39337e-05
4.67581e-05 2.39337e-05 -0.000146797
0.00126419 0.000165232 -8.02125e-06
0.000165232 -0.000122484 3.12006e-07
-8.02125e-06 3.12006e-07 -0.000152496
0.000430954 0.000190644 -1.79713e-05
0.000190644 -0.00041366 -1.25119e-05
-1.79713e-05 -1.25119e-05 -0.000546927
0.00252225 -8.32147e-05 1.30617e-05
-8.32147e-05 0.000476695 -4.71523e-06
1.30617e-05 -4.71523e-06 0.00037603
0.00122293 -1.11086e-05 -2.19888e-05
-1.11086e-05 -2.79724e-06 2.92577e-06
-2.19888e-05 2.92577e-06 -0.000349982
0.000759642 0.000208336 4.71392e-05
0.000208336 -0.000877691 -1.00375e-05
4.71392e-05 -1.00375e-05 -0.00145916
0.000260218 -6.42941e-05 -6.4401e-06
-6.42941e-05 -0.000478323 1.27866e-05
-6.4401e-06 1.27866e-05 -0.000495329
0.00355965 0.000146871 3.63559e-05
0.000146871 0.000859269 -4.29643e-06
3.63559e-05 -4.29643e-06 0.000561669
0.00171306 -3.43401e-05 4.84073e-06
-3.43401e-05 3.74093e-05 -1.81593e-06
4.84073e-06 -1.81593e-06 -3.04606e-07
0.00208052 6.95776e-05 1.29753e-06
6.95776e-05 0.000286815 -2.74986e-06
1.29753e-06 -2.74986e-06 0.000192801
0.00115768 2.8787e-05 4.30304e-06
2.8787e-05 -0.000328289 -3.07537e-06
4.30304e-06 -3.07537e-06 -0.000404915
0.00237527 3.89518e-05 -1.67585e-06
3.89518e-05 0.000363237 -3.37144e-06
-1.67585e-06 -3.37144e-06 0.000271221
0.00169401 -0.000123649 1.01323e-06
-0.000123649 -0.000113567 -7.40518e-07
1.01323e-06 -7.40518e-07 -0.000154843
0.00195836 -3.60088e-05 3.63643e-06
-3.60088e-05 7.22341e-05 3.8803e-07
3.63643e-06 3.8803e-07 1.39214e-05
0.00207996 -1.14631e-05 3.68886e-07
-1.14631e-05 0.000239584 -2.00696e-06
3.68886e-07 -2.00696e-06 0.000158599
0.00194826 -0.000102749 1.16075e-06
-0.000102749 0.000118665 4.35508e-07
1.16075e-06 4.35508e-07 5.51545e-05
0.00186825 -6.07912e-05 2.30243e-08
-6.07912e-05 0.000105108 -4.67608e-07
2.30243e-08 -4.67608e-07 2.2997e-05
0.00181368 -4.52344e-05 -4.63217e-07
-4.52344e-05 0.000124901 -3.64795e-07
-4.63217e-07 -3.64795e-07 2.60533e-05
0.00194739 -0.000107622 -7.57977e-07
-0.000107622 0.000178138 -2.52329e-07
-7.57977e-07 -2.52329e-07 9.91424e-05
0.0018297 -8.51643e-05 -4.73567e-08
-8.51643e-05 0.000145129 -8.37295e-07
-4.73567e-08 -8.37295e-07 5.68542e-05
0.00152252 -7.2446e-05 6.71781e-07
-7.2446e-05 2.88611e-05 2.05011e-06
6.71781e-07 2.05011e-06 -7.00351e-05
0.00137384 -0.00010039 -5.26056e-07
-0.00010039 -2.16325e-05 -2.5594e-06
-5.26056e-07 -2.5594e-06 -9.88782e-05
0.00152333 -9.47979e-05 5.98151e-07
-9.47979e-05 7.26555e-05 -7.59664e-07
5.98151e-07 -7.59664e-07 -2.11405e-05
0.00149622 -9.52574e-05 5.20439e-07
-9.52574e-05 8.50863e-05 2.77471e-07
5.20439e-07 2.77471e-07 -1.81674e-05
0.00142097 -0.000100575 -3.20106e-06
-0.000100575 6.37078e-05 1.55562e-06
-3.20106e-06 1.55562e-06 -2.74731e-05
0.00155196 -0.000103062 -2.56176e-07
-0.000103062 0.000156348 -7.1367e-07
-2.56176e-07 -7.1367e-07 5.403e-05
0.00144355 -9.89508e-05 -1.73448e-06
-9.89508e-05 0.000130663 -1.1462e-07
-1.73448e-06 -1.1462e-07 2.53507e-05
0.00142208 -0.000110477 1.91507e-06
-0.000110477 0.000133249 6.61844e-07
1.91507e-06 6.61844e-07 2.39513e-05
0.00127979 -0.000103999 4.28572e-07
-0.000103999 8.88962e-05 -2.53911e-07
4.28572e-07 -2.53911e-07 -1.86077e-05
0.00128142 -9.84816e-05 -3.70981e-06
-9.84816e-05 0.000128252 8.12723e-07
-3.70981e-06 8.12723e-07 2.79688e-05
0.000904717 -7.01125e-05 -4.18635e-06
-7.01125e-05 2.45074e-05 1.96698e-06
-4.18635e-06 1.96698e-06 -5.616e-05
0.000884954 -8.9937e-05 -8.58241e-07
-8.9937e-05 -2.93153e-05 5.83366e-07
-8.58241e-07 5.83366e-07 -0.000129539
0.00111309 -0.000104768 1.96356e-06
-0.000104768 5.87823e-05 -1.5716e-07
1.96356e-06 -1.5716e-07 -5.20208e-05
0.00063594 -1.24673e-05 -6.05196e-06
-1.24673e-05 -4.89713e-05 5.05413e-06
-6.05196e-06 5.05413e-06 -9.14373e-05
0.000882017 -6.02107e-05 1.72754e-07
-6.02107e-05 3.94827e-05 -1.02514e-08
1.72754e-07 -1.02514e-08 -3.77481e-05
0.00110249 -9.80526e-05 2.6958e-06
-9.80526e-05 0.000119802 -1.21027e-06
2.6958e-06 -1.21027e-06 2.21161e-05
0.00298858 9.22091e-05 -4.47935e-05
9.22091e-05 0.00121008 2.99931e-06
-4.47935e-05 2.99931e-06 0.00121028
0.000672172 1.51143e-05 -2.25922e-07
1.51143e-05 -3.612e-05 -1.44787e-07
-2.25922e-07 -1.44787e-07 -7.23256e-05
0.00092085 -4.17743e-05 3.53289e-06
-4.17743e-05 7.0413e-05 -2.14253e-06
3.53289e-06 -2.14253e-06 -2.95066e-06
0.00283411 8.2107e-05 9.40521e-07
8.2107e-05 0.00112094 1.49323e-07
9.40521e-07 1.49323e-07 0.00112462
0.000693862 3.63843e-05 4.50316e-06
3.63843e-05 -2.42709e-05 -4.64608e-06
4.50316e-06 -4.64608e-06 -5.54317e-05
0.00268957 7.33909e-05 4.02837e-05
7.33909e-05 0.00103951 -3.31822e-06
4.02837e-05 -3.31822e-06 0.00104607
0.000876043 9.68611e-05 -3.00015e-07
9.68611e-05 2.01514e-05 -7.16836e-07
-3.00015e-07 -7.16836e-07 -8.37226e-05
0.00100447 9.60607e-05 -5.32586e-08
9.60607e-05 0.000113793 -5.08984e-07
-5.32586e-08 -5.08984e-07 1.61979e-05
0.00108321 8.61554e-05 -9.40308e-07
8.61554e-05 0.000148665 -1.62306e-07
-9.40308e-07 -1.62306e-07 6.06369e-05
0.0011001 9.57241e-05 -1.43911e-07
9.57241e-05 0.000171806 -6.10219e-07
-1.43911e-07 -6.10219e-07 8.03634e-05
0.000929957 4.61945e-05 -7.18601e-07
4.61945e-05 7.85706e-05 -3.1797e-07
-7.18601e-07 -3.1797e-07 -3.75282e-06
0.000800121 1.04019e-05 -2.21992e-06
1.04019e-05 1.74021e-05 -1.46814e-06
-2.21992e-06 -1.46814e-06 -4.85055e-05
0.000817093 1.20063e-05 1.62811e-07
1.20063e-05 2.27815e-05 4.51711e-08
1.62811e-07 4.51711e-08 -5.56468e-05
0.000777662 -3.05157e-05 -1.76668e-07
-3.05157e-05 5.45668e-06 -1.02106e-08
-1.76668e-07 -1.02106e-08 -5.21285e-05
0.000694171 -5.88594e-05 -1.19207e-06
-5.88594e-05 -2.15849e-05 -4.2447e-06
-1.19207e-06 -4.2447e-06 -4.64248e-05
0.000784336 -4.17573e-05 1.13374e-06
-4.17573e-05 5.55943e-06 2.33563e-06
1.13374e-06 2.33563e-06 -4.35711e-05
0.000700628 -4.76486e-05 6.43688e-08
-4.76486e-05 -2.90232e-05 -7.35911e-08
6.43688e-08 -7.35911e-08 -4.69302e-05
0.00242422 -6.5035e-05 -3.37301e-05
-6.5035e-05 0.000895845 -2.99983e-06
-3.37301e-05 -2.99983e-06 0.000905506
0.000707509 -3.85895e-05 2.79236e-06
-3.85895e-05 -3.48062e-05 3.60726e-06
2.79236e-06 3.60726e-06 -4.82733e-05
0.00230623 -5.82572e-05 -4.03111e-07
-5.82572e-05 0.000825298 7.7766e-08
-4.03111e-07 7.7766e-08 0.000837491
0.00228601 -5.21685e-05 2.6395e-05
-5.21685e-05 0.000805926 3.47562e-06
2.6395e-05 3.47562e-06 0.000820065
0.000530863 -3.01153e-05 -1.14843e-07
-3.01153e-05 -0.00040338 -1.37335e-07
-1.14843e-07 -1.37335e-07 -0.000438651
0.00318011 -5.67839e-05 1.94897e-06
-5.67839e-05 0.000367998 1.0706e-05
1.94897e-06 1.0706e-05 4.03278e-05
0.00587373 0.000130286 -7.39426e-05
0.000130286 0.0017746 -9.74173e-06
-7.39426e-05 -9.74173e-06 0.00103313
0.000846588 9.50466e-05 3.29095e-06
9.50466e-05 -2.66014e-05 1.35244e-06
3.29095e-06 1.35244e-06 -0.00012127
0.0014339 0.000128813 4.17445e-06
0.000128813 0.000197967 -1.37721e-06
4.17445e-06 -1.37721e-06 8.52784e-05
0.000800048 9.75906e-05 3.47177e-08
9.75906e-05 -1.8967e-05 -7.29017e-07
3.47177e-08 -7.29017e-07 -0.000123698
0.00113246 0.000104507 -1.12852e-06
0.000104507 0.000207868 -2.159e-06
-1.12852e-06 -2.159e-06 0.000110273
0.000948288 9.89838e-05 -9.63097e-07
9.89838e-05 9.96269e-05 -1.13459e-06
-9.63097e-07 -1.13459e-06 -3.45866e-06
0.00101006 0.000108025 2.26601e-06
0.000108025 9.42384e-05 1.31066e-06
2.26601e-06 1.31066e-06 4.71963e-06
0.00167597 0.000156761 -2.18855e-06
0.000156761 0.000219069 -3.39387e-06
-2.18855e-06 -3.39387e-06 0.000112338
0.00150636 0.000136801 9.30018e-07
0.000136801 0.000337281 -4.73277e-07
9.30018e-07 -4.73277e-07 0.000240449
0.000962335 0.000127873 -1.62495e-06
0.000127873 -6.23656e-08 5.41174e-06
-1.62495e-06 5.41174e-06 -0.000102187
0.00161558 0.000166507 -1.13798e-06
0.000166507 0.000184742 3.00596e-08
-1.13798e-06 3.00596e-08 7.07274e-05
0.00155904 0.000138752 -9.59681e-07
0.000138752 -3.43561e-06 -8.55584e-07
-9.59681e-07 -8.55584e-07 -0.00013239
0.00153205 4.26605e-05 9.86277e-06
4.26605e-05 -0.000120932 4.24901e-06
9.86277e-06 4.24901e-06 -0.000212963
0.00203579 0.000154867 4.4397e-06
0.000154867 0.000185289 2.16309e-06
4.4397e-06 2.16309e-06 6.18064e-05
0.00125972 0.000165263 -4.69389e-06
0.000165263 -4.0982e-05 1.81472e-06
-4.69389e-06 1.81472e-06 -0.000163889
0.0010577 3.84528e-05 -6.99246e-08
3.84528e-05 -0.000101511 -5.13717e-07
-6.99246e-08 -5.13717e-07 -0.000113999
0.00471494 -0.000138176 4.82467e-05
-0.000138176 0.000725875 2.14575e-05
4.82467e-05 2.14575e-05 0.000396984
0.00165938 0.000157079 2.84931e-07
0.000157079 0.000143334 -7.59375e-06
2.84931e-07 -7.59375e-06 0.000104236
0.00166338 -1.47203e-05 6.74229e-06
-1.47203e-05 6.82334e-05 -1.53952e-06
6.74229e-06 -1.53952e-06 -7.49627e-06
0.00188845 -5.06568e-05 -1.27875e-06
-5.06568e-05 0.000199451 6.30332e-07
-1.27875e-06 6.30332e-07 7.94103e-05
0.000681823 5.98135e-05 5.34051e-05
5.98135e-05 -0.000466349 8.57775e-08
5.34051e-05 8.57775e-08 -0.000888654
0.000125696 -2.10528e-05 -8.34226e-06
-2.10528e-05 -0.000773001 4.30906e-06
-8.34226e-06 4.30906e-06 -0.000798104
0.00254051 7.17832e-05 -3.02295e-05
7.17832e-05 0.000538312 3.86901e-06
-3.02295e-05 3.86901e-06 0.000457833
0.001264 2.17803e-05 2.97797e-07
2.17803e-05 -0.000281246 4.15382e-06
2.97797e-07 4.15382e-06 -0.000350758
0.00215014 3.04729e-05 1.30426e-06
3.04729e-05 0.000220957 8.72975e-07
1.30426e-06 8.72975e-07 0.000130826
0.00196752 8.61117e-07 3.97597e-07
8.61117e-07 0.000142301 -2.56429e-08
3.97597e-07 -2.56429e-08 5.84964e-05
0.00150274 6.15375e-06 2.01753e-06
6.15375e-06 -0.000106776 -1.45216e-06
2.01753e-06 -1.45216e-06 -0.000191489
0.00158202 -3.70513e-05 5.1988e-06
-3.70513e-05 -0.000131852 1.82231e-06
5.1988e-06 1.82231e-06 -0.000194137
0.00176337 -1.23202e-05 -1.82695e-06
-1.23202e-05 7.2984e-05 -2.58636e-08
-1.82695e-06 -2.58636e-08 -7.2194e-06
0.0017166 -1.05174e-05 5.13695e-07
-1.05174e-05 7.55498e-05 -9.73798e-07
5.13695e-07 -9.73798e-07 -1.61153e-05
0.00191862 -6.44282e-05 -3.2197e-06
-6.44282e-05 0.000129721 -4.86716e-07
-3.2197e-06 -4.86716e-07 4.71479e-05
0.00180515 -4.53837e-05 -5.86072e-07
-4.53837e-05 0.000123372 -2.36991e-07
-5.86072e-07 -2.36991e-07 2.55304e-05
0.00157603 -3.60746e-05 -7.48253e-07
-3.60746e-05 3.21862e-05 -1.91379e-07
-7.48253e-07 -1.91379e-07 -6.997e-05
0.00177645 -8.72263e-05 -2.50045e-06
-8.72263e-05 0.000127495 -3.15285e-06
-2.50045e-06 -3.15285e-06 4.06566e-05
0.00162232 -7.3573e-05 4.65257e-07
-7.3573e-05 7.72346e-05 6.72294e-07
4.65257e-07 6.72294e-07 -2.18662e-05
0.00156216 -7.59625e-05 -2.67776e-07
-7.59625e-05 7.13879e-05 6.49981e-07
-2.67776e-07 6.49981e-07 -3.20751e-05
0.00155787 -9.51917e-05 -1.18306e-06
-9.51917e-05 8.9552e-05 -1.96935e-06
-1.18306e-06 -1.96935e-06 -4.34362e-06
0.00150302 -9.45072e-05 2.15513e-07
-9.45072e-05 8.78698e-05 -2.57898e-07
2.15513e-07 -2.57898e-07 -1.53162e-05
0.00143734 -9.29548e-05 -1.44252e-06
-9.29548e-05 8.70249e-05 5.22485e-07
-1.44252e-06 5.22485e-07 -1.93359e-05
0.00137139 -9.70068e-05 -2.57068e-07
-9.70068e-05 6.16437e-05 2.5574e-07
-2.57068e-07 2.5574e-07 -3.97297e-05
0.00129301 -9.42754e-05 -1.7424e-07
-9.42754e-05 5.36787e-05 -2.75356e-07
-1.7424e-07 -2.75356e-07 -5.13203e-05
0.00124502 -8.96727e-05 -3.78634e-06
-8.96727e-05 7.25323e-05 8.34062e-07
-3.78634e-06 8.34062e-07 -2.73883e-05
0.00108192 -9.68997e-05 2.6388e-06
-9.68997e-05 -1.30053e-05 -1.54464e-07
2.6388e-06 -1.54464e-07 -0.000120905
0.00107037 -9.04735e-05 2.15892e-07
-9.04735e-05 1.95227e-05 7.91279e-11
2.15892e-07 7.91279e-11 -8.06713e-05
0.000968075 -7.2908e-05 -5.28012e-06
-7.2908e-05 2.22704e-05 2.10011e-06
-5.28012e-06 2.10011e-06 -5.95768e-05
0.000565722 -3.51189e-05 -7.42038e-06
-3.51189e-05 -8.89632e-05 5.41017e-06
-7.42038e-06 5.41017e-06 -0.00013645
0.000931083 -7.24763e-05 1.90697e-07
-7.24763e-05 3.83693e-05 3.1269e-08
1.90697e-07 3.1269e-08 -4.26153e-05
0.0010177 -9.47758e-05 1.91792e-06
-9.47758e-05 4.17478e-05 -2.84541e-07
1.91792e-06 -2.84541e-07 -5.76817e-05
0.0031282 0.000102813 -4.69118e-05
0.000102813 0.00129974 2.92514e-06
-4.69118e-05 2.92514e-06 0.00129478
0.000697539 -5.09351e-06 -3.16314e-07
-5.09351e-06 -1.99251e-05 -4.51365e-08
-3.16314e-07 -4.51365e-08 -6.33397e-05
0.000959906 -6.02069e-05 3.87766e-06
-6.02069e-05 8.07796e-05 -1.9342e-06
3.87766e-06 -1.9342e-06 2.5076e-06
0.00300357 9.16689e-05 1.01451e-06
9.16689e-05 0.00122071 1.838e-07
1.01451e-06 1.838e-07 0.00122019
0.000737047 1.25541e-05 6.10677e-06
1.25541e-05 -4.51457e-06 -4.62947e-06
6.10677e-06 -4.62947e-06 -4.06543e-05
0.00286241 8.13608e-05 4.48228e-05
8.13608e-05 0.00113665 -3.28914e-06
4.48228e-05 -3.28914e-06 0.00113992
0.000617147 9.19238e-05 -1.19517e-07
9.19238e-05 -0.000167084 -6.81174e-07
-1.19517e-07 -6.81174e-07 -0.000279123
0.000709143 8.95045e-05 4.25492e-08
8.95045e-05 -6.86783e-05 -1.6613e-07
4.25492e-08 -1.6613e-07 -0.000173095
0.00112857 9.62989e-05 -1.51089e-06
9.62989e-05 0.000147722 -3.13138e-07
-1.51089e-06 -3.13138e-07 5.38253e-05
0.000925386 9.18613e-05 -2.81259e-07
9.18613e-05 7.24143e-05 -5.75408e-07
-2.81259e-07 -5.75408e-07 -2.45619e-05
0.00098983 8.11007e-05 -2.09371e-07
8.11007e-05 0.000100671 -1.68232e-07
-2.09371e-07 -1.68232e-07 1.32322e-05
0.000888917 2.97301e-05 -2.74189e-06
2.97301e-05 6.3374e-05 -1.22635e-06
-2.74189e-06 -1.22635e-06 -8.78732e-06
0.000912663 4.79199e-05 2.33222e-07
4.79199e-05 6.98507e-05 -5.56535e-07
2.33222e-07 -5.56535e-07 -1.18963e-05
0.000801622 1.62037e-06 3.18825e-08
1.62037e-06 2.13772e-05 9.7548e-08
3.18825e-08 9.7548e-08 -4.53786e-05
0.000675768 -5.16818e-05 -2.69352e-06
-5.16818e-05 -2.76756e-05 -4.20998e-06
-2.69352e-06 -4.20998e-06 -5.78103e-05
0.000797819 -4.26563e-05 1.23831e-06
-4.26563e-05 1.76715e-05 2.27554e-06
1.23831e-06 2.27554e-06 -4.02991e-05
0.000664437 -5.67823e-05 -2.00235e-08
-5.67823e-05 -3.85535e-05 -1.10427e-07
-2.00235e-08 -1.10427e-07 -6.26662e-05
0.00257777 -7.26031e-05 -3.78795e-05
-7.26031e-05 0.000982724 -2.93516e-06
-3.78795e-05 -2.93516e-06 0.000989703
0.000676635 -4.4754e-05 2.91615e-06
-4.4754e-05 -4.26733e-05 3.69575e-06
2.91615e-06 3.69575e-06 -5.98851e-05
0.00239416 -6.49916e-05 -4.26261e-07
-6.49916e-05 0.000879328 8.05252e-08
-4.26261e-07 8.05252e-08 0.000889242
0.00230585 -5.81248e-05 2.86827e-05
-5.81248e-05 0.000824077 3.2503e-06
2.86827e-05 3.2503e-06 0.000836463
0.00149181 -1.8095e-05 1.09728e-05
-1.8095e-05 -0.000118899 8.84663e-07
1.09728e-05 8.84663e-07 -0.00019557
0.00107169 -5.439e-05 2.95599e-07
-5.439e-05 -0.000193393 1.70515e-06
2.95599e-07 1.70515e-06 -0.00024115
0.0023056 -0.000106731 7.07596e-05
-0.000106731 1.21482e-06 1.5553e-05
7.07596e-05 1.5553e-05 -0.000257691
0.00215657 0.000152062 2.32367e-06
0.000152062 0.00048531 -2.83147e-06
2.32367e-06 -2.83147e-06 0.000378941
0.000830774 9.75582e-05 -1.59491e-06
9.75582e-05 -2.16209e-05 5.21028e-07
-1.59491e-06 5.21028e-07 -0.000110878
0.00070708 0.000103495 -2.83825e-06
0.000103495 -0.000278611 1.26529e-06
-2.83825e-06 1.26529e-06 -0.000394141
0.00144663 0.000129654 4.63096e-07
0.000129654 0.000203227 1.70488e-07
4.63096e-07 1.70488e-07 8.96417e-05
0.000404323 8.07933e-05 -3.01745e-06
8.07933e-05 -0.000213613 6.02553e-07
-3.01745e-06 6.02553e-07 -0.000316664
0.00181251 0.000130026 -1.96493e-06
0.000130026 0.000145453 -4.70917e-06
-1.96493e-06 -4.70917e-06 2.38354e-05
0.00138058 0.000126264 -1.52458e-06
0.000126264 0.000276295 -8.92283e-07
-1.52458e-06 -8.92283e-07 0.000184473
0.00166587 0.000154009 -3.43572e-07
0.000154009 0.000209233 7.2631e-07
-3.43572e-07 7.2631e-07 0.000102512
0.00174267 6.74029e-05 4.37032e-06
6.74029e-05 5.76892e-05 2.20887e-06
4.37032e-06 2.20887e-06 -5.78287e-05
0.00164677 0.000168028 1.35879e-06
0.000168028 0.000201967 3.1582e-06
1.35879e-06 3.1582e-06 8.85314e-05
0.00181127 0.00014797 -1.13904e-06
0.00014797 0.00011131 -1.14923e-06
-1.13904e-06 -1.14923e-06 -2.00003e-05
0.00165857 5.09963e-05 -2.72549e-07
5.09963e-05 -4.23486e-05 -5.46331e-07
-2.72549e-07 -5.46331e-07 -0.000136327
0.00182304 0.000141846 -2.05204e-06
0.000141846 9.64649e-05 -1.03236e-06
-2.05204e-06 -1.03236e-06 -2.64362e-05
0.00113614 3.61181e-05 -4.53586e-06
3.61181e-05 -6.5196e-05 -6.83807e-06
-4.53586e-06 -6.83807e-06 -8.00466e-05
0.00162421 -7.44193e-06 5.57861e-06
-7.44193e-06 -7.43552e-06 -2.54329e-07
5.57861e-06 -2.54329e-07 -9.48375e-05
0.00178021 -4.75488e-06 -8.63611e-07
-4.75488e-06 0.000126974 1.63297e-07
-8.63611e-07 1.63297e-07 5.04388e-05
0.000970094 -8.68462e-06 -1.04382e-05
-8.68462e-06 -0.000223678 2.57526e-06
-1.04382e-05 2.57526e-06 -0.00036184
0.00130174 1.55871e-05 -2.87675e-06
1.55871e-05 -0.00027597 3.22637e-06
-2.87675e-06 3.22637e-06 -0.000338346
0.00207678 2.38093e-05 7.87806e-06
2.38093e-05 0.000157003 2.85437e-06
7.87806e-06 2.85437e-06 6.85562e-05
0.0018695 1.79407e-06 -3.00037e-06
1.79407e-06 9.08369e-05 -3.3488e-07
-3.00037e-06 -3.3488e-07 7.77823e-06
0.00172641 3.48225e-06 5.07448e-07
3.48225e-06 1.49909e-05 6.24762e-07
5.07448e-07 6.24762e-07 -6.85467e-05
0.00178159 -7.44703e-07 1.65593e-06
-7.44703e-07 7.57639e-05 -4.46729e-07
1.65593e-06 -4.46729e-07 -1.69177e-05
0.00148912 -1.27997e-05 -3.06996e-06
-1.27997e-05 -7.04416e-05 4.3832e-07
-3.06996e-06 4.3832e-07 -0.000150162
0.00174842 -9.26201e-06 -8.94304e-08
-9.26201e-06 9.42405e-05 1.60827e-07
-8.94304e-08 1.60827e-07 2.12292e-06
0.00167833 -4.01804e-06 -3.38001e-07
-4.01804e-06 7.17573e-05 -5.71805e-07
-3.38001e-07 -5.71805e-07 -2.83112e-05
0.00181644 -4.59324e-05 -1.83109e-06
-4.59324e-05 0.00013196 -6.82409e-09
-1.83109e-06 -6.82409e-09 3.51012e-05
0.00164784 -3.71023e-05 -1.37105e-07
-3.71023e-05 6.91735e-05 6.17099e-07
-1.37105e-07 6.17099e-07 -3.31344e-05
0.00163301 -3.85824e-05 -1.17678e-06
-3.85824e-05 8.31234e-05 -4.89033e-07
-1.17678e-06 -4.89033e-07 -2.0445e-05
0.0017252 -7.46622e-05 6.89099e-07
-7.46622e-05 0.000127154 -6.40161e-07
6.89099e-07 -6.40161e-07 2.78569e-05
0.00159716 -7.55877e-05 2.17324e-07
-7.55877e-05 8.82544e-05 5.29978e-07
2.17324e-07 5.29978e-07 -1.52696e-05
0.00151766 -7.78897e-05 -1.7641e-06
-7.78897e-05 8.31466e-05 3.53599e-07
-1.7641e-06 3.53599e-07 -2.26289e-05
0.00151267 -9.38798e-05 2.16288e-07
-9.38798e-05 9.2087e-05 -8.44944e-07
2.16288e-07 -8.44944e-07 -1.1034e-05
0.00143927 -9.23262e-05 1.20022e-07
-9.23262e-05 8.75765e-05 -4.0061e-08
1.20022e-07 -4.0061e-08 -1.86855e-05
0.00131641 -8.53242e-05 -3.63008e-06
-8.53242e-05 6.88678e-05 1.10898e-06
-3.63008e-06 1.10898e-06 -3.31501e-05
0.00114963 -8.97821e-05 1.48868e-06
-8.97821e-05 -1.97266e-05 -3.02169e-07
1.48868e-06 -3.02169e-07 -0.000124401
0.00123655 -8.87415e-05 2.64549e-08
-8.87415e-05 6.81062e-05 -1.07188e-07
2.64549e-08 -1.07188e-07 -3.16547e-05
0.00102515 -7.0443e-05 -6.32909e-06
-7.0443e-05 1.77858e-05 2.41103e-06
-6.32909e-06 2.41103e-06 -6.51336e-05
0.000860937 -8.24587e-05 3.24105e-06
-8.24587e-05 -8.83861e-05 -6.05974e-07
3.24105e-06 -6.05974e-07 -0.000188481
0.000981557 -7.37392e-05 2.30664e-07
-7.37392e-05 2.92431e-05 -2.36659e-08
2.30664e-07 -2.36659e-08 -5.27798e-05
0.00171803 -9.37278e-06 -7.90616e-06
-9.37278e-06 0.00052106 3.68749e-06
-7.90616e-06 3.68749e-06 0.000475315
0.00107188 3.58284e-05 -5.18601e-05
3.58284e-05 0.000212165 6.95077e-06
-5.18601e-05 6.95077e-06 0.000193173
0.0012514 -1.9474e-05 -1.24185e-06
-1.9474e-05 0.000271693 -7.97925e-08
-1.24185e-06 -7.97925e-08 0.000226296
0.000973941 -7.51956e-05 4.50121e-06
-7.51956e-05 6.09541e-05 -1.73766e-06
4.50121e-06 -1.73766e-06 -2.0402e-05
0.00320322 0.000100074 2.55106e-06
0.000100074 0.00134206 2.59213e-07
2.55106e-06 2.59213e-07 0.00133667
0.000767274 -2.08987e-05 7.41441e-06
-2.08987e-05 1.01287e-05 -4.89649e-06
7.41441e-06 -4.89649e-06 -3.21995e-05
0.00301021 8.78337e-05 5.0627e-05
8.78337e-05 0.0012262 -3.15259e-06
5.0627e-05 -3.15259e-06 0.00122554
0.00127536 0.000109635 -1.91315e-07
0.000109635 -2.99805e-05 2.16104e-07
-1.91315e-07 2.16104e-07 -0.000135629
0.000788716 0.000101284 2.54628e-06
0.000101284 -0.000141275 1.29376e-06
2.54628e-06 1.29376e-06 -0.000255866
0.000806842 0.000100781 -2.01231e-07
0.000100781 -7.56908e-05 -1.10528e-07
-2.01231e-07 -1.10528e-07 -0.000189257
0.00114642 0.000101767 -1.83472e-06
0.000101767 0.000124815 -5.56826e-07
-1.83472e-06 -5.56826e-07 2.59405e-05
0.000538215 8.1989e-05 -1.27137e-07
8.1989e-05 -0.000159571 5.16036e-07
-1.27137e-07 5.16036e-07 -0.000264526
0.00102798 9.05718e-05 -3.00774e-07
9.05718e-05 9.72679e-05 -9.33175e-08
-3.00774e-07 -9.33175e-08 4.00638e-06
0.000951475 4.96868e-05 -3.20545e-06
4.96868e-05 8.61208e-05 -9.82476e-07
-3.20545e-06 -9.82476e-07 1.05868e-05
0.000904383 7.63335e-05 8.99493e-07
7.63335e-05 5.68779e-05 3.88153e-08
8.99493e-07 3.88153e-08 -3.00068e-05
0.000827314 2.44547e-05 -9.11173e-08
2.44547e-05 3.23106e-05 1.97151e-07
-9.11173e-08 1.97151e-07 -3.97303e-05
0.000710038 -3.0811e-05 -4.89455e-06
-3.0811e-05 -9.80091e-06 -4.12735e-06
-4.89455e-06 -4.12735e-06 -4.60768e-05
0.000818103 -1.60545e-05 1.35093e-06
-1.60545e-05 3.19985e-05 1.64888e-06
1.35093e-06 1.64888e-06 -3.4742e-05
0.000634673 -6.27575e-05 -6.25597e-08
-6.27575e-05 -4.72778e-05 -1.39282e-07
-6.25597e-08 -1.39282e-07 -7.86375e-05
0.00274309 -8.08573e-05 -4.20693e-05
-8.08573e-05 0.00107634 -2.96035e-06
-4.20693e-05 -2.96035e-06 0.00108002
0.000634672 -5.37979e-05 2.48072e-06
-5.37979e-05 -5.57154e-05 3.97814e-06
2.48072e-06 3.97814e-06 -7.89485e-05
0.00254425 -7.2861e-05 -4.79609e-07
-7.2861e-05 0.000964926 9.56256e-08
-4.79609e-07 9.56256e-08 0.000972147
0.00236873 -6.47728e-05 3.09574e-05
-6.47728e-05 0.000865112 3.01049e-06
3.09574e-05 3.01049e-06 0.000875322
0.00168296 1.31131e-05 6.6083e-06
1.31131e-05 2.39606e-05 1.34763e-06
6.6083e-06 1.34763e-06 -7.44484e-05
0.00207695 -2.11909e-05 -1.74069e-06
-2.11909e-05 0.000212257 -7.97986e-07
-1.74069e-06 -7.97986e-07 0.0001385
0.0021881 -9.42895e-05 -1.4039e-06
-9.42895e-05 0.000305529 -2.41268e-08
-1.4039e-06 -2.41268e-08 0.000241781
0.00164761 0.000118754 -5.62121e-06
0.000118754 8.30076e-05 -3.0476e-06
-5.62121e-06 -3.0476e-06 -3.25388e-05
0.00174146 0.000137241 -3.1306e-07
0.000137241 0.000296838 6.14299e-07
-3.1306e-07 6.14299e-07 0.00019456
0.000743983 9.765e-05 -8.33001e-06
9.765e-05 -5.39341e-05 4.11632e-07
-8.33001e-06 4.11632e-07 -0.000137564
0.00145813 0.000128643 2.19831e-06
0.000128643 0.000101016 1.65987e-06
2.19831e-06 1.65987e-06 -1.27603e-05
0.00147881 0.000131254 -3.20907e-06
0.000131254 0.000218544 7.44261e-07
-3.20907e-06 7.44261e-07 0.000104011
0.00205196 6.84565e-05 -7.68496e-07
6.84565e-05 0.00021877 1.3451e-06
-7.68496e-07 1.3451e-06 9.86995e-05
0.00165386 0.000126816 -2.5043e-06
0.000126816 6.49925e-05 -2.00666e-06
-2.5043e-06 -2.00666e-06 -5.97374e-05
0.00165129 0.000151628 1.47042e-06
0.000151628 0.000197509 5.97778e-06
1.47042e-06 5.97778e-06 9.05486e-05
0.00176005 6.88095e-05 -4.3437e-07
6.88095e-05 6.50936e-05 -4.84405e-08
-4.3437e-07 -4.84405e-08 -5.0772e-05
0.00214976 0.000159582 7.31808e-07
0.000159582 0.000268237 -4.64445e-07
7.31808e-07 -4.64445e-07 0.000134662
0.00181055 5.73998e-05 -1.14568e-05
5.73998e-05 4.08741e-05 -5.27352e-06
-1.14568e-05 -5.27352e-06 -5.43114e-05
0.00189746 -4.54027e-06 3.0444e-06
-4.54027e-06 0.000132657 9.01045e-08
3.0444e-06 9.01045e-08 3.63623e-05
0.00177136 -4.83413e-06 -6.11049e-07
-4.83413e-06 6.3062e-05 -5.59297e-07
-6.11049e-07 -5.59297e-07 -2.35086e-05
0.00205517 6.6325e-06 -7.04229e-06
6.6325e-06 0.000261487 2.60721e-06
-7.04229e-06 2.60721e-06 0.000184602
0.00182675 2.42067e-06 -3.16119e-06
2.42067e-06 6.92025e-05 1.19413e-06
-3.16119e-06 1.19413e-06 -1.30297e-05
0.00188608 5.25151e-07 1.89476e-06
5.25151e-07 0.000104813 2.18875e-06
1.89476e-06 2.18875e-06 2.25536e-05
0.00179565 8.59396e-08 -5.0024e-07
8.59396e-08 8.31195e-05 -2.35556e-07
-5.0024e-07 -2.35556e-07 -8.16073e-06
0.00177459 5.35073e-06 9.91889e-07
5.35073e-06 9.66801e-05 -3.60455e-07
9.91889e-07 -3.60455e-07 -8.00595e-06
0.00176808 -8.26416e-06 3.47091e-07
-8.26416e-06 0.000106352 1.13747e-06
3.47091e-07 1.13747e-06 1.38176e-05
0.00163718 -5.96043e-06 -5.56131e-07
-5.96043e-06 5.52714e-05 6.80457e-08
-5.56131e-07 6.80457e-08 -4.50676e-05
0.00162109 -9.81336e-06 -1.38114e-06
-9.81336e-06 6.78998e-05 1.02839e-06
-1.38114e-06 1.02839e-06 -4.04102e-05
0.00171715 -3.81972e-05 8.21237e-07
-3.81972e-05 0.000104727 9.76297e-07
8.21237e-07 9.76297e-07 2.28818e-06
0.0016383 -3.87698e-05 -6.75726e-08
-3.87698e-05 8.59588e-05 -1.84588e-07
-6.75726e-08 -1.84588e-07 -1.7571e-05
0.00155817 -4.66774e-05 -2.13836e-06
-4.66774e-05 7.88874e-05 -4.91082e-07
-2.13836e-06 -4.91082e-07 -2.55984e-05
0.00162692 -7.50207e-05 1.34456e-06
-7.50207e-05 0.000102485 3.4607e-07
1.34456e-06 3.4607e-07 -1.09749e-06
0.00152417 -7.73847e-05 9.64745e-08
-7.73847e-05 8.60668e-05 4.39464e-07
9.64745e-08 4.39464e-07 -1.9666e-05
0.00139639 -7.40775e-05 -3.85339e-06
-7.40775e-05 7.0319e-05 8.12061e-07
-3.85339e-06 8.12061e-07 -3.19665e-05
0.00144126 -9.1744e-05 1.75592e-06
-9.1744e-05 8.81687e-05 -6.06158e-07
1.75592e-06 -6.06158e-07 -1.80002e-05
0.00131549 -8.46254e-05 1.03327e-07
-8.46254e-05 6.80026e-05 4.10031e-08
1.03327e-07 4.10031e-08 -3.39025e-05
0.00108551 -6.73329e-05 -7.0817e-06
-6.73329e-05 1.62912e-05 2.66136e-06
-7.0817e-06 2.66136e-06 -6.92511e-05
0.00122791 -8.78134e-05 3.40134e-06
-8.78134e-05 6.36249e-05 -9.41996e-07
3.40134e-06 -9.41996e-07 -3.59829e-05
0.00103479 -7.05359e-05 2.91092e-07
-7.05359e-05 2.21669e-05 -1.01873e-07
2.91092e-07 -1.01873e-07 -6.08444e-05
0.00183024 -1.04092e-05 -7.71763e-06
-1.04092e-05 0.000567389 3.84653e-06
-7.71763e-06 3.84653e-06 0.000520936
0.000996415 -7.47516e-05 5.35203e-06
-7.47516e-05 3.72073e-05 -1.96597e-06
5.35203e-06 -1.96597e-06 -4.50486e-05
0.00191233 -2.72921e-05 1.60849e-05
-2.72921e-05 0.000615949 -1.06594e-06
1.60849e-05 -1.06594e-06 0.000571741
0.00121934 -7.43198e-07 -6.95344e-05
-7.43198e-07 0.000300562 7.8923e-06
-6.95344e-05 7.8923e-06 0.000280636
0.00224245 5.31161e-05 -5.23681e-05
5.31161e-05 0.000841438 1.33586e-06
-5.23681e-05 1.33586e-06 0.000828603
0.00196467 -2.98573e-05 3.52898e-05
-2.98573e-05 0.000643749 -4.19336e-06
3.52898e-05 -4.19336e-06 0.00060411
0.00325284 8.31387e-05 6.2434e-05
8.31387e-05 0.00136958 -3.40545e-06
6.2434e-05 -3.40545e-06 0.00136532
0.00164877 0.00010598 -4.0355e-06
0.00010598 8.38049e-05 -3.7824e-06
-4.0355e-06 -3.7824e-06 -2.61348e-05
0.00157066 0.000121026 4.42958e-06
0.000121026 0.000197835 3.36536e-07
4.42958e-06 3.36536e-07 8.90657e-05
0.00128402 0.000111404 1.48129e-06
0.000111404 -1.50305e-05 1.05202e-06
1.48129e-06 1.05202e-06 -0.000112134
0.00116195 0.000106228 -2.03587e-06
0.000106228 9.09067e-05 -1.09474e-06
-2.03587e-06 -1.09474e-06 -1.36235e-05
0.00115528 0.000117237 -5.278e-07
0.000117237 4.44546e-05 2.18357e-07
-5.278e-07 2.18357e-07 -7.14049e-05
0.000992226 0.000109791 2.03679e-07
0.000109791 1.33619e-05 5.66576e-07
2.03679e-07 5.66576e-07 -0.000101739
0.00109198 9.9432e-05 -1.93366e-07
9.9432e-05 9.94788e-05 -1.38818e-07
-1.93366e-07 -1.38818e-07 4.84242e-07
0.000985122 7.07585e-05 -3.45687e-06
7.07585e-05 8.33016e-05 -1.29971e-06
-3.45687e-06 -1.29971e-06 4.41109e-06
0.000924071 8.47598e-05 8.83337e-07
8.47598e-05 4.49605e-05 7.9636e-08
8.83337e-07 7.9636e-08 -4.76451e-05
0.000856986 4.65283e-05 -2.59741e-07
4.65283e-05 3.6415e-05 2.5633e-08
-2.59741e-07 2.5633e-08 -3.81367e-05
0.000747834 5.75521e-07 -6.20211e-06
5.75521e-07 6.84951e-06 -4.13039e-06
-6.20211e-06 -4.13039e-06 -3.39772e-05
0.000741829 1.90748e-05 1.73898e-06
1.90748e-05 -1.15732e-05 1.20675e-06
1.73898e-06 1.20675e-06 -8.3272e-05
0.000643635 -3.98685e-05 -1.05627e-07
-3.98685e-05 -4.37892e-05 -1.03351e-07
-1.05627e-07 -1.03351e-07 -7.94481e-05
0.00290417 -8.92271e-05 -4.70971e-05
-8.92271e-05 0.00117233 -2.85609e-06
-4.70971e-05 -2.85609e-06 0.00117185
0.000577867 -6.1626e-05 1.45033e-06
-6.1626e-05 -7.76688e-05 4.4627e-06
1.45033e-06 4.4627e-06 -0.000108573
0.00271969 -8.16134e-05 -6.98191e-07
-8.16134e-05 0.00106346 1.28892e-07
-6.98191e-07 1.28892e-07 0.00106749
0.00250733 -7.26419e-05 3.40822e-05
-7.26419e-05 0.000945111 2.81414e-06
3.40822e-05 2.81414e-06 0.000952678
0.00183757 1.68224e-05 -1.55216e-07
1.68224e-05 9.60358e-05 9.42455e-07
-1.55216e-07 9.42455e-07 -9.44942e-06
0.00170253 1.22936e-05 5.24859e-07
1.22936e-05 3.32254e-05 -3.05487e-09
5.24859e-07 -3.05487e-09 -6.51263e-05
0.00243015 -2.33144e-05 -2.05369e-05
-2.33144e-05 0.000429005 -2.33073e-06
-2.05369e-05 -2.33073e-06 0.000358075
0.00179796 6.51008e-05 -7.86967e-07
6.51008e-05 0.000108037 5.5863e-07
-7.86967e-07 5.5863e-07 -8.16352e-06
0.00175836 0.000121301 1.49381e-07
0.000121301 0.000145658 -1.24821e-06
1.49381e-07 -1.24821e-06 3.01907e-05
0.00141213 0.000125454 -3.84137e-06
0.000125454 0.000151083 2.34533e-06
-3.84137e-06 2.34533e-06 5.28719e-05
0.00215644 0.000151812 1.7948e-06
0.000151812 0.000453466 4.37185e-07
1.7948e-06 4.37185e-07 0.000341583
0.00196548 6.82876e-05 -5.0834e-07
6.82876e-05 0.000172808 -9.93441e-08
-5.0834e-07 -9.93441e-08 5.28596e-05
0.00151935 0.000124179 9.06552e-07
0.000124179 -3.58653e-06 6.74831e-07
9.06552e-07 6.74831e-07 -0.000131397
0.00174268 7.02767e-05 -3.52358e-06
7.02767e-05 5.64541e-05 -2.35164e-06
-3.52358e-06 -2.35164e-06 -5.99225e-05
0.00182374 3.54035e-06 2.1247e-06
3.54035e-06 9.54231e-05 -8.13954e-08
2.1247e-06 -8.13954e-08 -8.34287e-06
0.00183385 -2.97305e-06 -6.05258e-07
-2.97305e-06 9.89835e-05 -1.1884e-07
-6.05258e-07 -1.1884e-07 1.91378e-06
0.00187747 -1.36837e-06 -5.79057e-06
-1.36837e-06 0.000114216 5.03227e-07
-5.79057e-06 5.03227e-07 2.83899e-05
0.0018502 1.27486e-05 2.29867e-07
1.27486e-05 0.000126098 -3.04184e-07
2.29867e-07 -3.04184e-07 1.76393e-05
0.00182425 1.69662e-06 -2.27219e-06
1.69662e-06 9.74021e-05 7.20355e-07
-2.27219e-06 7.20355e-07 7.46438e-06
0.00175944 6.03778e-06 -1.59966e-07
6.03778e-06 8.92753e-05 -6.87553e-08
-1.59966e-07 -6.87553e-08 -1.4882e-05
0.00169026 4.92039e-06 3.35175e-07
4.92039e-06 8.41195e-05 -4.8049e-07
3.35175e-07 -4.8049e-07 -2.76879e-05
0.00161737 -7.63377e-06 7.88915e-08
-7.63377e-06 4.96781e-05 1.08612e-06
7.88915e-08 1.08612e-06 -5.0929e-05
0.00166872 -9.15305e-06 -2.93734e-07
-9.15305e-06 9.26478e-05 6.10256e-07
-2.93734e-07 6.10256e-07 -1.54958e-05
0.00159302 -1.46795e-05 -2.85625e-06
-1.46795e-05 8.68389e-05 1.5154e-06
-2.85625e-06 1.5154e-06 -2.21182e-05
0.00164624 -3.8473e-05 1.26354e-06
-3.8473e-05 9.01798e-05 1.44007e-07
1.26354e-06 1.44007e-07 -1.33032e-05
0.00157161 -4.50069e-05 -6.79864e-08
-4.50069e-05 8.55383e-05 -2.79989e-07
-6.79864e-08 -2.79989e-07 -1.89366e-05
0.00143845 -5.22839e-05 -4.06311e-06
-5.22839e-05 6.84204e-05 3.75666e-08
-4.06311e-06 3.75666e-08 -3.24942e-05
0.0015315 -7.68286e-05 2.3016e-06
-7.68286e-05 8.94003e-05 4.86876e-07
2.3016e-06 4.86876e-07 -1.62832e-05
0.00139246 -7.33406e-05 6.7149e-08
-7.33406e-05 6.80945e-05 3.76077e-07
6.7149e-08 3.76077e-07 -3.40939e-05
0.00114983 -6.0112e-05 -7.73831e-06
-6.0112e-05 1.95516e-05 2.26604e-06
-7.73831e-06 2.26604e-06 -6.75664e-05
0.00131424 -8.38738e-05 3.78959e-06
-8.38738e-05 6.69749e-05 -1.01344e-06
3.78959e-06 -1.01344e-06 -3.48141e-05
0.00109338 -6.65672e-05 3.73001e-07
-6.65672e-05 1.8905e-05 4.11494e-08
3.73001e-07 4.11494e-08 -6.65522e-05
0.00196321 -2.06072e-05 -1.102e-05
-2.06072e-05 0.000616733 3.35427e-06
-1.102e-05 3.35427e-06 0.00057238
0.00103866 -7.04363e-05 6.24254e-06
-7.04363e-05 2.36967e-05 -2.47693e-06
6.24254e-06 -2.47693e-06 -5.94129e-05
0.00201963 -3.41097e-05 1.71824e-05
-3.41097e-05 0.000659302 -1.16966e-06
1.71824e-05 -1.16966e-06 0.000615106
0.00129634 -8.49522e-06 -7.38523e-05
-8.49522e-06 0.00034372 7.64973e-06
-7.38523e-05 7.64973e-06 0.000322418
0.00208833 -4.8789e-05 4.20153e-05
-4.8789e-05 0.000699878 -6.40013e-06
4.20153e-05 -6.40013e-06 0.000657833
0.00123275 3.5746e-05 -3.2532e-05
3.5746e-05 0.000316671 2.47533e-06
-3.2532e-05 2.47533e-06 0.000291526
0.00332971 0.000138215 1.16688e-05
0.000138215 0.00143472 -1.61319e-06
1.16688e-05 -1.61319e-06 0.0014186
0.0019417 7.5789e-05 -2.09313e-06
7.5789e-05 0.000217956 -1.45768e-06
-2.09313e-06 -1.45768e-06 0.000102905
0.00156007 0.000101438 -5.68542e-07
0.000101438 9.24147e-05 -3.38183e-06
-5.68542e-07 -3.38183e-06 -1.61553e-05
0.00170574 0.000108953 -3.08988e-06
0.000108953 0.000125776 1.45701e-06
-3.08988e-06 1.45701e-06 1.69689e-05
0.00161068 0.000117291 -1.46232e-06
0.000117291 0.000267841 -4.01551e-07
-1.46232e-06 -4.01551e-07 0.000163138
0.00139157 0.000117542 5.70488e-07
0.000117542 0.000101964 -1.63393e-06
5.70488e-07 -1.63393e-06 -5.89561e-06
0.00134264 0.000114609 2.54745e-06
0.000114609 2.4917e-05 1.92827e-06
2.54745e-06 1.92827e-06 -6.37213e-05
0.00101338 8.18454e-05 -4.4747e-06
8.18454e-05 6.35685e-05 -2.27676e-06
-4.4747e-06 -2.27676e-06 -2.13527e-05
0.00116592 0.00010687 -1.31815e-07
0.00010687 9.37945e-05 -1.13224e-07
-1.31815e-07 -1.13224e-07 -1.10631e-05
0.00152482 0.000133061 1.82061e-06
0.000133061 0.000231894 8.0342e-07
1.82061e-06 8.0342e-07 0.000114746
0.00102713 9.66285e-05 1.35824e-06
9.66285e-05 6.87796e-05 2.35105e-07
1.35824e-06 2.35105e-07 -3.02953e-05
0.000913442 6.72091e-05 -2.26343e-07
6.72091e-05 4.66292e-05 -1.94735e-07
-2.26343e-07 -1.94735e-07 -3.18585e-05
0.000784804 3.63098e-05 -7.81247e-06
3.63098e-05 2.5441e-05 -4.7697e-06
-7.81247e-06 -4.7697e-06 -2.11342e-05
0.00076586 4.38206e-05 2.29181e-06
4.38206e-05 -1.1655e-05 7.80527e-07
2.29181e-06 7.80527e-07 -8.53056e-05
0.000685403 -4.08184e-06 1.02806e-07
-4.08184e-06 -2.05424e-05 -3.5848e-08
1.02806e-07 -3.5848e-08 -6.22467e-05
0.00309645 -8.828e-05 -5.74602e-05
-8.828e-05 0.0012901 -2.82935e-06
-5.74602e-05 -2.82935e-06 0.00128584
0.000586977 -6.13795e-05 1.20193e-06
-6.13795e-05 -6.75756e-05 4.67683e-06
1.20193e-06 4.67683e-06 -0.000105905
0.00288896 -9.13129e-05 -1.03317e-06
-9.13129e-05 0.00116238 1.80262e-07
-1.03317e-06 1.80262e-07 0.00116226
0.00270418 -8.21611e-05 3.77058e-05
-8.21611e-05 0.00105462 2.70912e-06
3.77058e-05 2.70912e-06 0.00105904
0.00178692 2.08883e-05 -2.93926e-07
2.08883e-05 8.14853e-05 4.99841e-07
-2.93926e-07 4.99841e-07 -2.46445e-05
0.00177971 1.88748e-05 -8.777e-07
1.88748e-05 6.31988e-05 2.23075e-07
-8.777e-07 2.23075e-07 -4.30037e-05
0.00182291 1.09322e-05 -5.87375e-06
1.09322e-05 9.13599e-05 -1.41945e-06
-5.87375e-06 -1.41945e-06 -6.78484e-06
0.00181177 6.55995e-05 1.02067e-06
6.55995e-05 0.000112418 -1.4837e-07
1.02067e-06 -1.4837e-07 -1.63557e-06
0.00185447 0.000123714 1.02135e-06
0.000123714 0.000201358 8.92599e-08
1.02135e-06 8.92599e-08 8.58905e-05
0.00186067 6.75343e-05 9.54732e-07
6.75343e-05 0.000118318 -1.52531e-06
9.54732e-07 -1.52531e-06 -1.42942e-06
0.00181288 8.6335e-06 -1.56229e-09
8.6335e-06 9.45356e-05 -5.52213e-09
-1.56229e-09 -5.52213e-09 -1.32516e-05
0.00185611 5.88265e-06 2.67896e-07
5.88265e-06 0.00011084 -1.41879e-07
2.67896e-07 -1.41879e-07 6.66901e-06
0.00175742 -6.27892e-07 -2.12755e-06
-6.27892e-07 5.88922e-05 -2.10356e-07
-2.12755e-06 -2.10356e-07 -3.89485e-05
0.00180606 3.62747e-06 -6.58743e-07
3.62747e-06 0.000104409 5.20268e-08
-6.58743e-07 5.20268e-08 -3.40584e-06
0.00187529 7.58542e-06 4.4868e-07
7.58542e-06 0.000158544 -4.43523e-07
4.4868e-07 -4.43523e-07 4.64281e-05
0.00172353 6.58848e-06 -1.00035e-06
6.58848e-06 7.15074e-05 1.97633e-07
-1.00035e-06 1.97633e-07 -3.21323e-05
0.00176683 5.83933e-06 3.23984e-07
5.83933e-06 0.000123391 -4.2033e-07
3.23984e-07 -4.2033e-07 1.12832e-05
0.00157013 6.01033e-07 -6.70108e-07
6.01033e-07 5.23804e-05 -1.91776e-07
-6.70108e-07 -1.91776e-07 -6.1973e-05
0.00171214 -9.08481e-06 5.95938e-07
-9.08481e-06 0.000115299 2.51088e-07
5.95938e-07 2.51088e-07 7.30675e-06
0.00160201 -1.53876e-05 -8.48356e-07
-1.53876e-05 9.17036e-05 8.21414e-07
-8.48356e-07 8.21414e-07 -1.73535e-05
0.00145714 -2.23996e-05 -4.85596e-06
-2.23996e-05 6.59393e-05 1.34308e-06
-4.85596e-06 1.34308e-06 -3.80923e-05
0.00158685 -4.48596e-05 1.97486e-06
-4.48596e-05 9.30305e-05 -7.35076e-08
1.97486e-06 -7.35076e-08 -1.14573e-05
0.00144288 -5.1246e-05 1.12389e-08
-5.1246e-05 7.03307e-05 -1.51542e-07
1.12389e-08 -1.51542e-07 -3.05592e-05
0.00116354 -4.41422e-05 -8.00158e-06
-4.41422e-05 8.0986e-06 1.33209e-06
-8.00158e-06 1.33209e-06 -7.82693e-05
0.00138664 -7.2504e-05 4.09875e-06
-7.2504e-05 6.4889e-05 -7.49042e-08
4.09875e-06 -7.49042e-08 -3.71996e-05
0.00114719 -5.84437e-05 2.54485e-07
-5.84437e-05 1.68751e-05 3.23787e-07
2.54485e-07 3.23787e-07 -6.99892e-05
0.0021139 -2.88739e-05 -1.48805e-05
-2.88739e-05 0.000673734 2.49531e-06
-1.48805e-05 2.49531e-06 0.000631132
0.00109634 -6.58217e-05 7.19923e-06
-6.58217e-05 1.89883e-05 -2.53712e-06
7.19923e-06 -2.53712e-06 -6.63889e-05
0.00212563 -4.41696e-05 1.63132e-05
-4.41696e-05 0.000695591 -1.19587e-06
1.63132e-05 -1.19587e-06 0.000653062
0.00140921 -9.71404e-06 -7.76639e-05
-9.71404e-06 0.000395683 6.83175e-06
-7.76639e-05 6.83175e-06 0.000373994
0.00219784 -5.70067e-05 4.58183e-05
-5.70067e-05 0.000745069 -6.22927e-06
4.58183e-05 -6.22927e-06 0.000703055
0.00130378 3.25196e-05 -3.6455e-05
3.25196e-05 0.000356342 2.2574e-06
-3.6455e-05 2.2574e-06 0.000329914
0.00128496 7.93103e-05 3.8791e-06
7.93103e-05 0.000355233 -3.04163e-06
3.8791e-06 -3.04163e-06 0.000323728
0.00167761 2.7148e-05 -1.34484e-06
2.7148e-05 5.772e-05 3.88778e-07
-1.34484e-06 3.88778e-07 -5.26811e-05
0.00163674 7.5359e-05 -3.17896e-06
7.5359e-05 9.58733e-05 -1.17284e-06
-3.17896e-06 -1.17284e-06 -1.49487e-05
0.00177908 7.32777e-05 -1.91893e-06
7.32777e-05 0.000133101 -9.19111e-07
-1.91893e-06 -9.19111e-07 1.75438e-05
0.00156759 0.000102554 -3.00212e-06
0.000102554 0.000166741 -1.17911e-06
-3.00212e-06 -1.17911e-06 6.14744e-05
0.00171772 0.000106203 1.36493e-06
0.000106203 0.000177193 6.46205e-07
1.36493e-06 6.46205e-07 6.84867e-05
0.00172684 0.000110855 4.48915e-06
0.000110855 0.00015015 3.13514e-06
4.48915e-06 3.13514e-06 4.24939e-05
0.000984095 8.21854e-05 -5.74747e-06
8.21854e-05 -4.46675e-07 -2.50195e-06
-5.74747e-06 -2.50195e-06 -8.86916e-05
0.0012525 0.00010676 1.71697e-06
0.00010676 7.82243e-05 9.31806e-07
1.71697e-06 9.31806e-07 -2.76861e-05
0.00120925 0.000113996 6.32297e-07
0.000113996 4.19834e-06 1.51724e-06
6.32297e-07 1.51724e-06 -0.000102709
0.000787063 6.39189e-05 -1.06654e-05
6.39189e-05 1.98923e-05 -5.68324e-06
-1.06654e-05 -5.68324e-06 -3.16052e-05
0.000972723 7.90536e-05 -3.8139e-07
7.90536e-05 4.28588e-05 -2.2684e-07
-3.8139e-07 -2.2684e-07 -4.16329e-05
0.00117376 0.000107674 2.28067e-06
0.000107674 9.87431e-05 1.03348e-06
2.28067e-06 1.03348e-06 -6.46289e-06
0.000857167 6.37141e-05 3.03598e-06
6.37141e-05 1.81055e-05 1.02173e-06
3.03598e-06 1.02173e-06 -6.00098e-05
0.000696498 3.10449e-05 9.80725e-09
3.10449e-05 -1.46984e-05 -4.00018e-10
9.80725e-09 -4.00018e-10 -6.14581e-05
0.00340243 -7.13544e-05 -6.82865e-05
-7.13544e-05 0.00146762 -3.9922e-06
-6.82865e-05 -3.9922e-06 0.00145978
0.000638948 -1.04793e-05 4.13875e-06
-1.04793e-05 -4.14209e-05 4.46019e-06
4.13875e-06 4.46019e-06 -8.26018e-05
0.00306736 -0.000101576 -2.05921e-06
-0.000101576 0.00127266 2.665e-07
-2.05921e-06 2.665e-07 0.00126747
0.0028882 -9.22648e-05 4.16956e-05
-9.22648e-05 0.00115958 2.67013e-06
4.16956e-05 2.67013e-06 0.00116007
0.00184084 1.00495e-05 -2.52118e-07
1.00495e-05 0.000121438 -4.46883e-07
-2.52118e-07 -4.46883e-07 1.3898e-05
0.00180579 2.04861e-05 -2.62701e-07
2.04861e-05 9.1527e-05 1.12878e-07
-2.62701e-07 1.12878e-07 -1.4803e-05
0.00173448 2.0447e-05 4.64664e-07
2.0447e-05 3.68737e-05 -9.62608e-07
4.64664e-07 -9.62608e-07 -7.00678e-05
0.00184106 6.60165e-05 1.89904e-06
6.60165e-05 0.000124279 -3.05221e-07
1.89904e-06 -3.05221e-07 1.24078e-05
0.00182637 -1.72974e-07 -3.7009e-07
-1.72974e-07 0.000120993 -4.54871e-07
-3.7009e-07 -4.54871e-07 9.41073e-06
0.00184716 6.5704e-06 -1.35066e-07
6.5704e-06 0.000111816 -3.95522e-08
-1.35066e-07 -3.95522e-08 3.97407e-06
0.0018903 7.79457e-06 -1.38327e-06
7.79457e-06 0.000127133 1.2576e-07
-1.38327e-06 1.2576e-07 2.25186e-05
0.00177558 -1.6026e-06 -1.61476e-06
-1.6026e-06 9.0211e-05 1.67912e-07
-1.61476e-06 1.67912e-07 -1.707e-05
0.00181145 1.25378e-05 -5.22489e-08
1.25378e-05 0.000123851 -1.43473e-07
-5.22489e-08 -1.43473e-07 1.19651e-05
0.00187422 9.95215e-06 -9.70831e-07
9.95215e-06 0.00018521 -6.04618e-08
-9.70831e-07 -6.04618e-08 7.08271e-05
0.00184506 6.76092e-06 5.18642e-07
6.76092e-06 0.000163403 -4.93945e-07
5.18642e-07 -4.93945e-07 5.10013e-05
0.00171462 1.93405e-06 6.42008e-07
1.93405e-06 0.00012964 -5.05246e-07
6.42008e-07 -5.05246e-07 1.57341e-05
0.00127997 -1.37448e-06 -3.78402e-06
-1.37448e-06 -4.89264e-05 1.06726e-06
-3.78402e-06 1.06726e-06 -0.000159509
0.00160564 -1.45604e-05 9.33699e-07
-1.45604e-05 9.39725e-05 1.34654e-07
9.33699e-07 1.34654e-07 -1.51699e-05
0.00146616 -1.99987e-05 -5.85782e-07
-1.99987e-05 7.02475e-05 2.70634e-07
-5.85782e-07 2.70634e-07 -3.37605e-05
0.00117194 -2.2303e-05 -7.87577e-06
-2.2303e-05 6.65361e-07 1.33883e-06
-7.87577e-06 1.33883e-06 -8.71574e-05
0.00144273 -4.80635e-05 3.96355e-06
-4.80635e-05 6.9961e-05 -3.33082e-07
3.96355e-06 -3.33082e-07 -3.08237e-05
0.00117919 -4.42723e-05 -5.65731e-09
-4.42723e-05 1.52483e-05 9.05133e-08
-5.65731e-09 9.05133e-08 -7.10012e-05
0.000686933 -2.5907e-05 -1.20489e-05
-2.5907e-05 -9.61598e-05 2.62378e-06
-1.20489e-05 2.62378e-06 -0.000145604
0.0011448 -5.69693e-05 7.85766e-06
-5.69693e-05 1.42483e-05 -1.67363e-06
7.85766e-06 -1.67363e-06 -7.23657e-05
0.00144916 -4.41179e-05 1.99747e-05
-4.41179e-05 0.000317547 -7.51019e-07
1.99747e-05 -7.51019e-07 0.000272355
0.00450639 8.36492e-06 -9.20423e-05
8.36492e-06 0.00202893 3.28065e-06
-9.20423e-05 3.28065e-06 0.0020229
0.00228576 -5.3715e-05 4.87576e-05
-5.3715e-05 0.000774765 -5.54963e-06
4.87576e-05 -5.54963e-06 0.000733011
0.00137512 2.16072e-05 -3.61554e-05
2.16072e-05 0.000384362 2.27449e-06
-3.61554e-05 2.27449e-06 0.000359299
0.00134071 7.13009e-05 3.9725e-06
7.13009e-05 0.000384725 -2.92234e-06
3.9725e-06 -2.92234e-06 0.000353328
0.00175185 1.37868e-05 -2.0027e-07
1.37868e-05 9.96825e-05 -3.57374e-07
-2.0027e-07 -3.57374e-07 -8.53704e-06
0.00145973 3.77928e-05 -2.13412e-06
3.77928e-05 -9.94115e-06 2.73647e-07
-2.13412e-06 2.73647e-07 -0.000119518
0.00177741 2.73811e-05 -4.45629e-07
2.73811e-05 0.000112804 -2.99608e-07
-4.45629e-07 -2.99608e-07 2.92954e-06
0.00117014 7.18263e-05 -4.4707e-06
7.18263e-05 -8.76074e-05 -1.76523e-06
-4.4707e-06 -1.76523e-06 -0.000193672
0.00167155 7.62594e-05 2.07228e-07
7.62594e-05 0.000115597 4.04851e-09
2.07228e-07 4.04851e-09 4.75294e-06
0.00161827 7.11046e-05 3.37908e-07
7.11046e-05 4.93694e-05 -1.24324e-07
3.37908e-07 -1.24324e-07 -6.67502e-05
0.000653829 6.46968e-05 -8.50664e-06
6.46968e-05 -0.0002322 -3.00554e-06
-8.50664e-06 -3.00554e-06 -0.000323306
0.00159521 0.00010489 9.10803e-07
0.00010489 0.000180291 1.17787e-07
9.10803e-07 1.17787e-07 7.48429e-05
0.00188692 0.000111393 3.1323e-06
0.000111393 0.000267987 1.80006e-06
3.1323e-06 1.80006e-06 0.000159115
0.000739913 7.53381e-05 -1.21731e-05
7.53381e-05 -2.39964e-05 -5.74873e-06
-1.21731e-05 -5.74873e-06 -7.80459e-05
0.000776306 7.51687e-05 -1.00853e-07
7.51687e-05 -0.000112023 1.29665e-07
-1.00853e-07 1.29665e-07 -0.000201386
0.000892488 9.62192e-05 4.1211e-06
9.62192e-05 -0.000112391 2.3669e-06
4.1211e-06 2.3669e-06 -0.000219503
0.00388242 -6.7682e-05 -7.54367e-05
-6.7682e-05 0.00172893 -5.04746e-06
-7.54367e-05 -5.04746e-06 0.0017165
0.000675393 5.53314e-05 2.0992e-09
5.53314e-05 -3.3242e-05 2.52206e-08
2.0992e-09 2.52206e-08 -8.46557e-05
0.000934083 7.63738e-05 4.10195e-06
7.63738e-05 2.36044e-05 2.04964e-06
4.10195e-06 2.04964e-06 -6.05242e-05
0.000608654 2.58728e-05 6.35522e-06
2.58728e-05 -5.51216e-05 4.7178e-06
6.35522e-06 4.7178e-06 -0.00010201
0.00329944 -9.94579e-05 -4.23063e-06
-9.94579e-05 0.00141275 1.79525e-07
-4.23063e-06 1.79525e-07 0.00140366
0.00301917 -0.000102592 4.48419e-05
-0.000102592 0.00124367 2.61135e-06
4.48419e-05 2.61135e-06 0.00123916
0.0017666 -6.41093e-07 -1.10264e-06
-6.41093e-07 9.49125e-05 -5.65822e-07
-1.10264e-06 -5.65822e-07 -1.5068e-05
0.00184004 9.77777e-06 -4.27109e-07
9.77777e-06 0.000118025 1.62639e-08
-4.27109e-07 1.62639e-08 1.06257e-05
0.00182615 2.03994e-05 4.55628e-07
2.03994e-05 0.000102793 -3.2438e-07
4.55628e-07 -3.2438e-07 -3.73343e-06
0.00185843 1.08764e-05 -9.61098e-07
1.08764e-05 0.000166952 -2.78422e-07
-9.61098e-07 -2.78422e-07 5.31461e-05
0.00181293 3.84678e-06 -4.48263e-07
3.84678e-06 0.000114261 -1.00787e-07
-4.48263e-07 -1.00787e-07 2.73825e-06
0.00187338 1.2869e-06 -1.16401e-06
1.2869e-06 0.000124712 2.32741e-07
-1.16401e-06 2.32741e-07 1.6901e-05
0.00174461 1.58098e-05 -8.74341e-08
1.58098e-05 8.7347e-05 3.05703e-07
-8.74341e-08 3.05703e-07 -2.42186e-05
0.00180928 1.20688e-05 6.34388e-07
1.20688e-05 0.000150701 -2.35005e-07
6.34388e-07 -2.35005e-07 3.63065e-05
0.00182842 6.19205e-06 -2.99852e-06
6.19205e-06 0.000201952 3.7734e-07
-2.99852e-06 3.7734e-07 9.08491e-05
0.00186919 3.32418e-06 2.35631e-06
3.32418e-06 0.000212081 -1.16605e-06
2.35631e-06 -1.16605e-06 9.8621e-05
0.00159893 1.47454e-06 2.80141e-08
1.47454e-06 0.000119926 2.79219e-08
2.80141e-08 2.79219e-08 1.13341e-05
0.000822068 -3.91274e-06 -9.41994e-06
-3.91274e-06 -0.000209073 2.3794e-06
-9.41994e-06 2.3794e-06 -0.000305609
0.00147641 -1.99671e-05 3.20885e-06
-1.99671e-05 7.51842e-05 -7.70339e-07
3.20885e-06 -7.70339e-07 -2.88999e-05
0.00119264 -1.99954e-05 -5.97845e-08
-1.99954e-05 1.03917e-05 -2.3968e-07
-5.97845e-08 -2.3968e-07 -7.73435e-05
0.00070325 -1.50575e-05 -1.20531e-05
-1.50575e-05 -9.48549e-05 1.82155e-06
-1.20531e-05 1.82155e-06 -0.000145801
0.00118829 -4.28658e-05 8.16998e-06
-4.28658e-05 1.89946e-05 -1.28916e-06
8.16998e-06 -1.28916e-06 -6.70534e-05
0.000688803 -2.26131e-05 -6.0666e-08
-2.26131e-05 -9.53258e-05 1.28142e-07
-6.0666e-08 1.28142e-07 -0.000144685
0.0045189 2.58121e-06 -9.37027e-05
2.58121e-06 0.00203128 2.4346e-06
-9.37027e-05 2.4346e-06 0.00202599
0.000761545 -4.28796e-05 1.39092e-05
-4.28796e-05 -4.90931e-05 -4.512e-06
1.39092e-05 -4.512e-06 -9.95316e-05
0.00299174 1.74831e-05 3.58497e-05
1.74831e-05 0.00122692 6.33458e-07
3.58497e-05 6.33458e-07 0.00121105
0.00135287 2.54027e-05 1.1895e-05
2.54027e-05 0.000376069 -2.22666e-06
1.1895e-05 -2.22666e-06 0.000349801
0.00176142 3.46527e-06 -3.41595e-07
3.46527e-06 0.000116004 -3.60514e-07
-3.41595e-07 -3.60514e-07 7.44064e-06
0.00166854 1.95705e-05 -1.07377e-06
1.95705e-05 9.27525e-05 -6.23751e-07
-1.07377e-06 -6.23751e-07 -1.35352e-05
0.00174068 1.27727e-05 1.81051e-07
1.27727e-05 9.38624e-05 3.34947e-08
1.81051e-07 3.34947e-08 -1.41759e-05
0.00145307 4.75975e-05 -3.56361e-06
4.75975e-05 4.42948e-05 -6.3273e-07
-3.56361e-06 -6.3273e-07 -5.94388e-05
0.00154015 3.78827e-05 3.65196e-07
3.78827e-05 2.99561e-05 2.18239e-07
3.65196e-07 2.18239e-07 -7.9029e-05
0.00187503 2.75227e-05 3.13813e-07
2.75227e-05 0.000166636 -5.14817e-07
3.13813e-07 -5.14817e-07 5.73102e-05
0.000749436 5.44433e-05 -9.25586e-06
5.44433e-05 -0.000219805 -2.80866e-06
-9.25586e-06 -2.80866e-06 -0.000310483
0.00154355 8.1299e-05 -1.28328e-06
8.1299e-05 0.000110109 -4.54214e-07
-1.28328e-06 -4.54214e-07 5.57647e-06
0.00169821 7.69062e-05 3.36105e-06
7.69062e-05 0.000131084 5.31335e-07
3.36105e-06 5.31335e-07 2.02332e-05
0.000700655 6.923e-05 -1.2964e-05
6.923e-05 -7.03939e-05 -4.91187e-06
-1.2964e-05 -4.91187e-06 -0.000123331
0.000698305 6.66628e-05 -2.26055e-06
6.66628e-05 -0.000211633 -6.16891e-07
-2.26055e-06 -6.16891e-07 -0.000303372
0.00162273 0.000107231 4.85751e-06
0.000107231 0.000193761 1.45459e-06
4.85751e-06 1.45459e-06 8.81369e-05
0.00434443 -7.74756e-05 -7.87743e-05
-7.74756e-05 0.00196996 -5.39971e-06
-7.87743e-05 -5.39971e-06 0.0019543
0.000669293 6.91175e-05 5.97566e-07
6.91175e-05 -5.86002e-05 1.86308e-07
5.97566e-07 1.86308e-07 -0.000112172
0.000562303 6.78418e-05 5.56916e-06
6.78418e-05 -0.000226673 2.92705e-06
5.56916e-06 2.92705e-06 -0.000317156
0.00365929 -8.71909e-05 -4.56249e-06
-8.71909e-05 0.00161323 3.11202e-07
-4.56249e-06 3.11202e-07 0.00160068
0.000569397 4.79417e-05 7.97488e-06
4.79417e-05 -8.44315e-05 5.38842e-06
7.97488e-06 5.38842e-06 -0.000135605
0.00316774 -0.000113239 4.77855e-05
-0.000113239 0.00134212 2.54533e-06
4.77855e-05 2.54533e-06 0.00133214
0.00182604 7.55926e-06 -9.55458e-07
7.55926e-06 0.00015297 -6.62095e-07
-9.55458e-07 -6.62095e-07 4.07593e-05
0.00180237 3.29821e-07 1.21651e-07
3.29821e-07 0.000115869 2.10412e-07
1.21651e-07 2.10412e-07 5.88554e-06
0.00183858 9.71917e-06 -1.94193e-07
9.71917e-06 0.000114178 2.08344e-07
-1.94193e-07 2.08344e-07 6.91739e-06
0.00179378 -1.97473e-06 -3.54779e-06
-1.97473e-06 0.000177225 -2.82337e-07
-3.54779e-06 -2.82337e-07 6.77094e-05
0.00184904 1.07125e-05 6.41689e-07
1.07125e-05 0.000162989 3.13677e-08
6.41689e-07 3.13677e-08 4.94729e-05
0.00180788 1.05245e-05 9.54758e-07
1.05245e-05 0.000111956 1.7477e-07
9.54758e-07 1.7477e-07 3.7579e-07
0.00174216 1.28812e-05 1.77816e-06
1.28812e-05 0.000115048 1.23084e-07
1.77816e-06 1.23084e-07 6.61713e-07
0.0018025 6.19e-06 1.10721e-06
6.19e-06 0.000188935 -2.39013e-07
1.10721e-06 -2.39013e-07 7.76795e-05
0.00090834 1.77655e-07 -9.49267e-06
1.77655e-07 -0.000198365 1.30806e-06
-9.49267e-06 1.30806e-06 -0.000299532
0.0019268 4.19543e-06 4.60912e-06
4.19543e-06 0.000293353 -1.39871e-06
4.60912e-06 -1.39871e-06 0.000186765
0.0010286 -1.61081e-06 -1.85166e-06
-1.61081e-06 -9.77667e-05 6.15995e-07
-1.85166e-06 6.15995e-07 -0.000192217
0.000706217 -5.92083e-06 -1.24506e-05
-5.92083e-06 -0.000108741 1.73404e-06
-1.24506e-05 1.73404e-06 -0.00016447
0.00122372 -1.93955e-05 7.90819e-06
-1.93955e-05 2.52601e-05 -1.9309e-06
7.90819e-06 -1.9309e-06 -6.24283e-05
0.000713855 -5.82949e-06 1.91437e-07
-5.82949e-06 -9.00002e-05 -1.67001e-07
1.91437e-07 -1.67001e-07 -0.000141117
0.0045853 4.35802e-06 -9.48199e-05
4.35802e-06 0.00206286 1.54991e-06
-9.48199e-05 1.54991e-06 0.0020578
0.000678879 -1.72851e-05 1.15349e-05
-1.72851e-05 -0.000100528 -2.28332e-06
1.15349e-05 -2.28332e-06 -0.000149596
0.00454278 1.10883e-05 1.04815e-06
1.10883e-05 0.00204304 3.75402e-07
1.04815e-06 3.75402e-07 0.00203788
0.0015327 -9.24794e-06 8.26548e-05
-9.24794e-06 0.000451314 -3.3596e-06
8.26548e-05 -3.3596e-06 0.000430632
0.00192849 8.42498e-06 -7.4403e-07
8.42498e-06 0.000226399 -7.89656e-07
-7.4403e-07 -7.89656e-07 0.000119362
0.00172146 2.83074e-06 6.48533e-07
2.83074e-06 9.38551e-05 6.05803e-07
6.48533e-07 6.05803e-07 -1.42281e-05
0.00148628 1.9266e-05 -3.20672e-06
1.9266e-05 4.8576e-05 -9.20986e-07
-3.20672e-06 -9.20986e-07 -5.47976e-05
0.00166644 1.89619e-05 3.96825e-07
1.89619e-05 9.04136e-05 -3.84837e-07
3.96825e-07 -3.84837e-07 -1.58595e-05
0.00172673 1.17184e-05 1.5599e-06
1.17184e-05 8.65816e-05 1.06559e-07
1.5599e-06 1.06559e-07 -2.1275e-05
0.00121472 4.22245e-05 -8.07103e-06
4.22245e-05 8.2748e-06 -2.01902e-06
-8.07103e-06 -2.01902e-06 -8.02103e-05
0.00148678 4.8094e-05 -1.11477e-07
4.8094e-05 6.06092e-05 2.57831e-07
-1.11477e-07 2.57831e-07 -4.31432e-05
0.0016191 3.79651e-05 1.86175e-06
3.79651e-05 6.91416e-05 3.79256e-07
1.86175e-06 3.79256e-07 -3.92624e-05
0.00069433 4.99343e-05 -1.29829e-05
4.99343e-05 -9.36541e-05 -4.01959e-06
-1.29829e-05 -4.01959e-06 -0.000145236
0.0009753 6.05998e-05 -2.47982e-06
6.05998e-05 -9.97533e-05 -5.4009e-07
-2.47982e-06 -5.4009e-07 -0.000189706
0.0019215 9.08018e-05 3.80957e-06
9.08018e-05 0.000310254 9.49847e-07
3.80957e-06 9.49847e-07 0.000207243
0.00461178 -2.83787e-05 -9.21542e-05
-2.83787e-05 0.00208956 -4.30633e-06
-9.21542e-05 -4.30633e-06 0.00208121
0.000662647 6.32541e-05 1.68859e-07
6.32541e-05 -8.86404e-05 2.31604e-07
1.68859e-07 2.31604e-07 -0.000141903
0.000743431 6.88367e-05 5.06913e-06
6.88367e-05 -0.000190742 2.03283e-06
5.06913e-06 2.03283e-06 -0.000283138
0.00411131 -5.40504e-05 1.99819e-06
-5.40504e-05 0.00184405 8.5692e-08
1.99819e-06 8.5692e-08 0.00183265
0.000569997 6.14687e-05 1.02709e-05
6.14687e-05 -0.000107296 5.73692e-06
1.02709e-05 5.73692e-06 -0.000160714
0.00344719 -0.000109246 5.58475e-05
-0.000109246 0.00150364 3.25651e-06
5.58475e-05 3.25651e-06 0.00149036
0.00179334 1.15656e-05 -2.93493e-06
1.15656e-05 0.000182676 -8.37929e-07
-2.93493e-06 -8.37929e-07 7.48597e-05
0.00184357 5.48538e-06 4.53863e-07
5.48538e-06 0.000163931 5.55379e-08
4.53863e-07 5.55379e-08 5.16572e-05
0.00183446 8.94132e-07 1.45745e-06
8.94132e-07 0.000135142 9.67125e-07
1.45745e-06 9.67125e-07 2.51559e-05
0.000940946 -1.25757e-05 -9.88537e-06
-1.25757e-05 -0.000186921 -2.64978e-07
-9.88537e-06 -2.64978e-07 -0.000287033
0.00180286 5.38645e-06 1.01247e-06
5.38645e-06 0.000182013 3.79877e-08
1.01247e-06 3.79877e-08 7.24953e-05
0.00183288 1.07853e-05 2.41271e-06
1.07853e-05 0.000155633 4.59697e-08
2.41271e-06 4.59697e-08 4.2423e-05
0.00177828 5.89367e-06 5.03366e-06
5.89367e-06 0.000176841 -3.34897e-07
5.03366e-06 -3.34897e-07 6.54224e-05
0.000911159 -5.01006e-07 -1.42456e-06
-5.01006e-07 -0.000194409 4.94767e-07
-1.42456e-06 4.94767e-07 -0.000295303
0.000766078 3.02644e-06 -1.32703e-05
3.02644e-06 -9.80505e-05 9.48268e-07
-1.32703e-05 9.48268e-07 -0.000157706
0.00122895 1.53173e-06 6.2391e-06
1.53173e-06 1.02784e-05 -1.40622e-06
6.2391e-06 -1.40622e-06 -8.2074e-05
0.000748527 3.5559e-06 2.96399e-07
3.5559e-06 -8.85495e-05 -5.60777e-09
2.96399e-07 -5.60777e-09 -0.000144343
0.0048021 5.34883e-06 -9.80332e-05
5.34883e-06 0.00217017 7.04522e-07
-9.80332e-05 7.04522e-07 0.00216466
0.000736143 3.53054e-06 1.17989e-05
3.53054e-06 -7.94578e-05 -1.86778e-06
1.17989e-05 -1.86778e-06 -0.000130494
0.00464563 4.06377e-05 4.44842e-06
4.06377e-05 0.00209469 1.86562e-07
4.44842e-06 1.86562e-07 0.00208832
0.0045774 1.6309e-05 9.86092e-05
1.6309e-05 0.00205988 -1.6467e-06
9.86092e-05 -1.6467e-06 0.00205503
0.00156448 9.2106e-06 -3.42235e-06
9.2106e-06 7.90007e-05 -1.41032e-06
-3.42235e-06 -1.41032e-06 -2.61912e-05
0.00174827 7.09494e-06 4.65947e-07
7.09494e-06 0.00013097 3.74393e-07
4.65947e-07 3.74393e-07 2.36427e-05
0.00168007 2.31783e-06 1.13453e-06
2.31783e-06 7.10672e-05 1.18891e-06
1.13453e-06 1.18891e-06 -3.65406e-05
0.00123277 1.63148e-05 -7.81735e-06
1.63148e-05 3.92661e-06 -1.90192e-06
-7.81735e-06 -1.90192e-06 -8.5684e-05
0.00152156 1.9529e-05 1.95108e-07
1.9529e-05 6.6083e-05 -1.37302e-07
1.95108e-07 -1.37302e-07 -3.73525e-05
0.00166219 1.83445e-05 1.52e-06
1.83445e-05 8.70369e-05 -1.47406e-07
1.52e-06 -1.47406e-07 -1.92294e-05
0.000715863 2.99041e-05 -1.26947e-05
2.99041e-05 -9.70637e-05 -3.22921e-06
-1.26947e-05 -3.22921e-06 -0.000148644
0.00121626 4.31178e-05 -4.65113e-08
4.31178e-05 9.69223e-06 1.81748e-07
-4.65113e-08 1.81748e-07 -7.90054e-05
0.00152077 4.855e-05 3.87041e-06
4.855e-05 7.70203e-05 1.25264e-06
3.87041e-06 1.25264e-06 -2.67486e-05
0.00472734 2.72149e-06 -0.000102994
2.72149e-06 0.00213676 -3.47946e-06
-0.000102994 -3.47946e-06 0.00213165
0.000681151 4.86463e-05 2.28955e-08
4.86463e-05 -0.000100191 9.96876e-08
2.28955e-08 9.96876e-08 -0.000151852
0.00119265 6.67818e-05 5.88812e-06
6.67818e-05 1.58546e-05 1.9224e-06
5.88812e-06 1.9224e-06 -7.33692e-05
0.00446323 -2.06103e-05 4.69528e-06
-2.06103e-05 0.00201488 2.86114e-07
4.69528e-06 2.86114e-07 0.00200617
0.000623838 5.78652e-05 1.13713e-05
5.78652e-05 -0.000107779 5.10993e-06
1.13713e-05 5.10993e-06 -0.000161043
0.00389101 -6.84951e-05 6.87914e-05
-6.84951e-05 0.00173127 4.08115e-06
6.87914e-05 4.08115e-06 0.00172021
0.00131322 4.12039e-06 -8.53861e-06
4.12039e-06 1.51872e-05 -7.56848e-07
-8.53861e-06 -7.56848e-07 -8.10651e-05
0.0016169 6.28923e-06 1.11063e-06
6.28923e-06 8.75493e-05 1.08471e-08
1.11063e-06 1.08471e-08 -2.20069e-05
0.00186228 2.29719e-06 2.07689e-06
2.29719e-06 0.000175301 9.34856e-07
2.07689e-06 9.34856e-07 6.29588e-05
0.000768204 1.43824e-05 -1.38962e-05
1.43824e-05 -0.000107545 -6.03795e-07
-1.38962e-05 -6.03795e-07 -0.000166487
0.000926089 -5.43825e-06 -1.65859e-06
-5.43825e-06 -0.000195318 3.39463e-09
-1.65859e-06 3.39463e-09 -0.000295449
0.0018104 1.23771e-05 5.48778e-06
1.23771e-05 0.00018597 2.13073e-07
5.48778e-06 2.13073e-07 7.64503e-05
0.000905648 -6.70136e-07 6.30588e-06
-6.70136e-07 -0.000194747 -2.02603e-07
6.30588e-06 -2.02603e-07 -0.000295369
0.000758387 6.61342e-06 1.24084e-07
6.61342e-06 -0.000102762 4.98554e-07
1.24084e-07 4.98554e-07 -0.000162446
0.00513435 1.73209e-05 -0.000103133
1.73209e-05 0.00233459 -3.3734e-07
-0.000103133 -3.3734e-07 0.0023286
0.000777013 1.25457e-05 1.2506e-05
1.25457e-05 -7.50805e-05 -1.44795e-06
1.2506e-05 -1.44795e-06 -0.00013112
0.0049102 1.02309e-05 1.72952e-06
1.02309e-05 0.00222331 3.91467e-07
1.72952e-06 3.91467e-07 0.0022179
0.00469464 1.63333e-05 0.000103845
1.63333e-05 0.00211618 -8.62026e-07
0.000103845 -8.62026e-07 0.00211147
0.00127998 5.88159e-06 -8.27701e-06
5.88159e-06 1.24144e-05 -1.89186e-06
-8.27701e-06 -1.89186e-06 -8.04663e-05
0.00147602 7.64863e-06 -5.32263e-08
7.64863e-06 3.03686e-05 -1.13929e-07
-5.32263e-08 -1.13929e-07 -7.5579e-05
0.00157019 5.71658e-06 1.67709e-06
5.71658e-06 3.66084e-05 1.48098e-06
1.67709e-06 1.48098e-06 -7.10058e-05
0.00246114 8.31891e-06 -5.74489e-05
8.31891e-06 0.000815379 -1.98433e-06
-5.74489e-05 -1.98433e-06 0.000773065
0.00123959 1.74796e-05 1.32238e-07
1.74796e-05 7.54224e-06 2.71423e-08
1.32238e-07 2.71423e-08 -8.2281e-05
0.00155869 1.96362e-05 3.61847e-06
1.96362e-05 8.45376e-05 6.57786e-07
3.61847e-06 6.57786e-07 -1.89612e-05
0.00481335 8.78541e-06 -0.000110053
8.78541e-06 0.00217385 -2.55003e-06
-0.000110053 -2.55003e-06 0.00216947
0.000716765 3.14473e-05 2.10117e-09
3.14473e-05 -9.6071e-05 5.41468e-08
2.10117e-09 5.41468e-08 -0.000147726
0.00121513 4.38446e-05 8.16634e-06
4.38446e-05 9.72499e-06 2.3153e-06
8.16634e-06 2.3153e-06 -7.91878e-05
0.00464909 9.18915e-06 1.89843e-06
9.18915e-06 0.00209896 4.63699e-07
1.89843e-06 4.63699e-07 0.00209326
0.000672653 4.79857e-05 1.22413e-05
4.79857e-05 -0.000104157 4.14018e-06
1.22413e-05 4.14018e-06 -0.000155875
0.00431898 -9.84269e-06 8.6892e-05
-9.84269e-06 0.00193951 4.22488e-06
8.6892e-05 4.22488e-06 0.00193235
0.000793473 6.87711e-06 -1.5162e-05
6.87711e-06 -9.1642e-05 -1.82547e-06
-1.5162e-05 -1.82547e-06 -0.000151686
0.00111853 1.0614e-06 3.31799e-07
1.0614e-06 -8.80051e-05 4.80492e-07
3.31799e-07 4.80492e-07 -0.000185391
0.00143432 1.00346e-06 4.87407e-06
1.00346e-06 -1.0901e-05 8.1268e-07
4.87407e-06 8.1268e-07 -0.000122142
0.00529858 -3.77609e-05 -0.000105044
-3.77609e-05 0.00242071 -1.71555e-06
-0.000105044 -1.71555e-06 0.00241147
0.000771854 9.99737e-06 -5.97306e-08
9.99737e-06 -0.000104104 1.87118e-07
-5.97306e-08 1.87118e-07 -0.00016404
0.000920306 1.3642e-06 6.49036e-06
1.3642e-06 -0.000199055 3.44245e-07
6.49036e-06 3.44245e-07 -0.000299208
0.000765245 1.42973e-05 1.30913e-05
1.42973e-05 -9.98485e-05 1.92494e-07
1.30913e-05 1.92494e-07 -0.000159758
0.00521201 5.18819e-05 4.18971e-06
5.18819e-05 0.00237493 4.89964e-07
4.18971e-06 4.89964e-07 0.00236766
0.0050358 7.78399e-05 0.00010777
7.78399e-05 0.00228895 2.2259e-07
0.00010777 2.2259e-07 0.00228092
0.00257149 -1.24626e-05 -6.16013e-05
-1.24626e-05 0.000859187 -2.04669e-06
-6.16013e-05 -2.04669e-06 0.000813547
0.00128107 7.6904e-06 -8.86637e-08
7.6904e-06 1.28934e-05 1.81227e-08
-8.86637e-08 1.81227e-08 -7.9968e-05
0.001389 6.2394e-06 3.29246e-06
6.2394e-06 -1.75211e-05 1.15633e-06
3.29246e-06 1.15633e-06 -0.000124223
0.00468187 3.64613e-05 -3.0995e-05
3.64613e-05 0.00211003 -1.28836e-06
-3.0995e-05 -1.28836e-06 0.00209975
0.000766268 1.157e-05 -1.34255e-07
1.157e-05 -8.04513e-05 1.20729e-07
-1.34255e-07 1.20729e-07 -0.000134343
0.00125734 1.95134e-05 8.04678e-06
1.95134e-05 1.64418e-05 1.9589e-06
8.04678e-06 1.9589e-06 -7.35348e-05
0.00476332 1.63046e-05 -1.15701e-06
1.63046e-05 0.00215058 4.53694e-07
-1.15701e-06 4.53694e-07 0.00214583
0.000713012 3.33802e-05 1.2891e-05
3.33802e-05 -9.70913e-05 3.46584e-06
1.2891e-05 3.46584e-06 -0.00014887
0.00457742 1.87544e-05 9.79659e-05
1.87544e-05 0.00206343 4.08316e-06
9.79659e-05 4.08316e-06 0.00205761
0.00177944 -1.50366e-05 -0.00010566
-1.50366e-05 0.000546351 -9.03706e-08
-0.00010566 -9.03706e-08 0.000521028
0.00169782 7.40939e-06 -2.49619e-05
7.40939e-06 0.00038888 5.31333e-07
-2.49619e-05 5.31333e-07 0.000336484
0.000927959 1.38015e-06 8.35146e-06
1.38015e-06 -0.000188975 1.54441e-06
8.35146e-06 1.54441e-06 -0.0002875
0.0052897 -5.06965e-05 4.23052e-06
-5.06965e-05 0.00241733 -1.01787e-06
4.23052e-06 -1.01787e-06 0.00240744
0.000762453 7.58911e-06 1.38225e-05
7.58911e-06 -0.000107946 1.00328e-06
1.38225e-05 1.00328e-06 -0.000168336
0.00526734 1.30703e-05 0.000113918
1.30703e-05 0.0024 1.04076e-06
0.000113918 1.04076e-06 0.00239413
0.00148957 -6.60609e-05 -8.68461e-06
-6.60609e-05 0.000412342 -8.2644e-07
-8.68461e-06 -8.2644e-07 0.000379932
0.0016877 5.15215e-06 -2.39706e-05
5.15215e-06 0.000394449 1.70709e-07
-2.39706e-05 1.70709e-07 0.000343267
0.00128185 7.31667e-06 7.93014e-06
7.31667e-06 1.33672e-05 1.97347e-06
7.93014e-06 1.97347e-06 -7.95101e-05
0.00316485 5.63068e-06 4.26021e-05
5.63068e-06 0.00129932 4.47318e-07
4.26021e-05 4.47318e-07 0.0012829
0.000768996 1.87978e-05 1.32504e-05
1.87978e-05 -7.88795e-05 3.02816e-06
1.32504e-05 3.02816e-06 -0.000133077
0.00472436 2.64261e-05 0.000103658
2.64261e-05 0.0021326 3.49239e-06
0.000103658 3.49239e-06 0.00212747
0.00525871 -4.46811e-05 -4.87778e-06
-4.46811e-05 0.00239756 4.54271e-07
-4.87778e-06 4.54271e-07 0.00239036
0.000767481 1.4638e-05 1.38739e-05
1.4638e-05 -0.000103121 1.96892e-06
1.38739e-05 1.96892e-06 -0.000161625
0.00528641 3.87495e-05 0.000108699
3.87495e-05 0.00241366 -1.11468e-06
0.000108699 -1.11468e-06 0.00240501
0.00330279 2.17143e-06 4.74645e-05
2.17143e-06 0.00136519 1.5038e-07
4.74645e-05 1.5038e-07 0.00134741
0.000772511 9.64904e-06 1.32972e-05
9.64904e-06 -8.861e-05 2.63953e-06
1.32972e-05 2.63953e-06 -0.000146034
0.00486145 2.19826e-05 0.000104835
2.19826e-05 0.00219859 2.48647e-06
0.000104835 2.48647e-06 0.00219344
0.00519856 -0.00012666 0.000101512
-0.00012666 0.00237754 -6.36977e-08
0.000101512 -6.36977e-08 0.00236344
0.00503966 -7.242e-05 0.000101362
-7.242e-05 0.00229027 9.0027e-07
0.000101362 9.0027e-07 0.00228205
