# vtk DataFile Version 2.0
Wound Healing Simulation
ASCII
DATASET UNSTRUCTURED_GRID
POINTS 3012 float
69.9759 18.75 4
67.2507 60.3285 4
69.976 18.75 2
73.0099 25.446 4
71.1327 20.9142 4
68.6801 16.6661 4
67.8274 19.9206 3.98969
67.2507 60.3286 2
71.1327 54.0858 4
68.6801 58.3339 4
65.6939 62.2254 4
65.3138 59.0069 3.99123
74.6784 42.3946 4
73.7221 47.2057 4
69.9759 18.75 0
73.0099 25.446 2
68.6801 16.6661 2
71.1327 20.9142 2
67.8275 19.9208 2
74.6792 32.6053 4
73.7222 27.7943 4
72.1454 23.1494 4
70.6168 26.2204 3.98843
68.888 21.9542 3.98918
67.2507 14.6715 4
66.6387 17.9656 3.99049
65.8046 21.0159 3.98569
67.2507 60.3285 0
71.1327 54.0858 2
68.6801 58.3339 2
65.694 62.2255 2
65.3138 59.007 2
72.1454 51.8506 4
69.9759 56.25 4
68.839 53.1166 3.98923
64.0165 64.0165 4
66.6124 57.1395 3.99067
63.8871 60.7709 3.99193
63.5057 57.7837 3.98657
60.3285 67.2507 4
74.6792 42.3947 2
73.7222 47.2057 2
74.9194 39.9526 4
74.2788 44.8158 4
72.1704 42.0854 3.98806
73.0099 49.554 4
71.252 46.5979 3.98859
73.0099 25.446 0
71.1327 20.9142 0
68.6801 16.6661 0
67.8274 19.9206 0.0103075
74.6792 32.6053 2
73.7222 27.7943 2
67.2508 14.6715 2
72.1455 23.1494 2
70.6169 26.2212 2
66.6388 17.9657 2
68.8881 21.9546 2
65.8046 21.0159 2
74.9197 35.0474 4
74.2794 30.1841 4
72.187 32.9434 3.98842
71.2807 28.4314 3.98839
69.8181 24.0576 3.98878
68.3548 26.9479 3.98357
66.7706 22.926 3.98521
65.694 12.7746 4
65.3251 16.0974 3.99136
64.7203 19.1833 3.98626
63.8999 22.0209 3.98366
71.1327 54.0858 0
65.6939 62.2254 0
68.6801 58.3339 0
65.3138 59.0069 0.00876823
72.1455 51.8506 2
69.9759 56.25 2
68.8391 53.1163 2
64.0165 64.0165 2
66.6125 57.1395 2
63.8872 60.7709 2
63.5058 57.7838 2
62.2254 65.694 4
58.8939 65.4173 3.99263
69.7718 50.9907 3.98876
67.7859 55.1724 3.99
66.6582 52.2163 3.98537
62.3371 62.4315 3.99235
64.6676 56.0424 3.98672
62.2065 59.4166 3.98687
61.8325 56.6983 3.98484
58.3339 68.6801 4
60.3285 67.2508 2
73.7221 47.2057 0
74.6784 42.3946 0
74.9197 39.9526 2
74.2794 44.8159 2
72.1703 42.0848 2
73.0099 49.554 2
71.252 46.5971 2
75 37.5 4
72.4074 39.8021 3.98772
71.785 44.3526 3.98843
69.8112 41.7904 3.98251
70.578 48.814 3.98862
68.9205 46.0172 3.98319
74.6792 32.6053 0
73.7222 27.7943 0
67.2507 14.6715 0
72.1454 23.1494 0
70.6168 26.2204 0.0115723
68.888 21.9542 0.0108183
66.6387 17.9656 0.00951403
65.8046 21.0159 0.0143126
74.9197 35.0474 2
74.2794 30.1841 2
72.1869 32.9441 2
71.2807 28.4324 2
65.694 12.7745 2
65.3252 16.0974 2
69.8183 24.0582 2
68.3547 26.948 2
64.7203 19.1833 2
66.7706 22.926 2
63.8998 22.021 2
72.4153 35.2242 3.98797
71.8063 30.6765 3.98858
69.8472 33.2677 3.98285
68.9739 29.036 3.98298
67.6195 24.9067 3.9845
66.208 27.6275 3.98158
64.0165 10.9835 4
64.7703 23.818 3.98329
63.8912 14.3221 3.99194
63.5181 17.434 3.98683
62.9183 20.3037 3.98407
62.1107 22.9244 3.98271
60.6844 11.094 3.99236
57.6127 11.4383 3.98757
72.1454 51.8506 0
69.9759 56.25 0
68.839 53.1166 0.0107738
64.0165 64.0165 0
63.8871 60.7709 0.00806984
66.6124 57.1395 0.00933052
63.5057 57.7837 0.0134252
62.2255 65.694 2
58.8941 65.4173 2
69.7719 50.9901 2
67.786 55.1723 2
66.6584 52.2162 2
62.3372 62.4315 2
64.6678 56.0424 2
62.2066 59.4168 2
61.8326 56.6983 2
60.669 63.9806 3.99248
57.0243 66.7376 3.99285
57.5579 63.6989 3.98776
67.5163 50.182 3.98452
65.7101 54.1824 3.98627
64.5526 51.3974 3.98306
60.7753 60.9489 3.98739
62.8319 55.0841 3.98512
60.6652 58.1762 3.98479
60.3406 55.8068 3.98407
56.25 69.9759 4
58.3339 68.6801 2
60.3285 67.2507 0
58.9212 9.65254 3.99259
62.2254 9.30607 4
73.0099 49.554 0
74.2788 44.8158 0
71.252 46.5979 0.0114118
72.1704 42.0854 0.0119415
74.9194 39.9526 0
75 37.5 2
72.4072 39.8018 2
71.7849 44.3518 2
69.8109 41.7902 2
70.5781 48.8132 2
68.9203 46.0168 2
72.4907 37.512 3.98769
70.0476 39.6577 3.98181
69.4381 43.9089 3.98293
67.6097 41.5003 3.98017
68.2745 48.1108 3.98377
66.7237 45.4455 3.98126
74.9197 35.0474 0
74.2794 30.1841 0
72.187 32.9434 0.011581
71.2807 28.4314 0.0116104
65.694 12.7746 0
65.3251 16.0974 0.00864264
69.8181 24.0576 0.0112209
68.3548 26.9479 0.0164254
66.7706 22.926 0.0147888
64.7203 19.1833 0.0137358
63.8999 22.0209 0.0163375
72.4151 35.2247 2
71.8062 30.6773 2
69.847 33.2679 2
68.9737 29.0361 2
64.0165 10.9835 2
63.8912 14.3221 2
63.5182 17.4339 2
67.6195 24.9067 2
66.2078 27.6275 2
62.9183 20.3038 2
64.7702 23.8181 2
62.1105 22.9247 2
60.6845 11.094 2
57.6127 11.438 2
70.0646 35.3917 3.98247
69.4747 31.1482 3.98297
67.668 33.5884 3.98048
66.7854 29.6175 3.98089
65.5379 25.6898 3.98252
64.1652 28.2448 3.98092
62.3424 12.6509 3.99222
62.876 24.6208 3.98253
62.202 15.7722 3.98713
61.8224 18.6672 3.98481
61.2332 21.321 3.98269
60.4481 23.7052 3.98255
59.2473 12.7687 3.98731
55.8742 10.2255 3.98824
56.4067 13.1007 3.9848
69.7718 50.9907 0.0112408
62.2254 65.694 0
58.8939 65.4173 0.00736856
67.7859 55.1724 0.00999706
66.6582 52.2163 0.0146328
62.3371 62.4315 0.00764948
62.2065 59.4166 0.0131301
64.6676 56.0424 0.0132838
61.8325 56.6983 0.0151647
60.6691 63.9806 2
57.0245 66.7377 2
57.5579 63.6992 2
67.5164 50.1818 2
65.7103 54.1824 2
64.5527 51.3974 2
60.7753 60.9492 2
62.8321 55.0841 2
60.6654 58.1764 2
60.3407 55.8067 2
55.0698 67.9342 3.99307
59.2204 62.3754 3.98753
55.8037 64.9154 3.98816
56.3283 62.0997 3.98514
65.3468 49.418 3.98229
63.72 53.3069 3.9843
62.4626 50.6685 3.98186
59.3377 59.5718 3.98526
61.0928 54.3294 3.98437
59.2986 57.033 3.98342
59.2569 55.2063 3.98421
48.1019 68.5816 3.98982
50.9478 69.9333 3.9936
54.0858 71.1327 4
56.25 69.976 2
58.3339 68.6801 0
57.0583 8.33266 3.99296
60.3285 7.74928 4
58.9214 9.6525 2
62.2255 9.30602 2
70.578 48.814 0.0113825
71.785 44.3526 0.0115702
68.9205 46.0172 0.016809
69.8112 41.7904 0.017487
72.4074 39.8021 0.0122782
75 37.5 0
72.4905 37.5122 2
70.0472 39.6575 2
69.4379 43.9086 2
67.6093 41.5002 2
68.2745 48.1106 2
66.7235 45.4455 2
70.1356 37.5216 3.98181
67.8459 39.5137 3.97949
67.2368 43.474 3.98075
65.5735 41.2143 3.97945
66.0833 47.4255 3.98176
64.6717 44.857 3.98056
72.4153 35.2242 0.0120324
71.8063 30.6765 0.0114177
69.8472 33.2677 0.0171452
68.9739 29.036 0.0170188
64.0165 10.9835 0
63.8912 14.3221 0.00805693
63.5181 17.434 0.0131661
67.6195 24.9067 0.015498
66.208 27.6275 0.0184156
64.7703 23.818 0.0167143
62.9183 20.3037 0.0159286
62.1107 22.9244 0.0172896
60.6844 11.094 0.00764046
57.6127 11.4383 0.0124303
70.0643 35.3918 2
69.4744 31.1484 2
67.6676 33.5883 2
66.7851 29.6174 2
62.3425 12.6508 2
62.2021 15.772 2
61.8225 18.6672 2
65.5378 25.6897 2
64.1648 28.2448 2
61.2332 21.3212 2
62.8758 24.621 2
60.4478 23.7056 2
59.2473 12.7684 2
56.4067 13.1005 2
55.8743 10.2252 2
67.8826 35.5464 3.98022
67.2784 31.6185 3.98081
65.7155 33.9234 3.97963
64.6814 30.1839 3.97985
63.5575 26.4006 3.98178
62.2813 28.7639 3.98126
60.777 14.2121 3.98723
61.0692 25.3178 3.98244
60.6183 17.1113 3.98528
60.2344 19.7953 3.9835
59.6805 22.2348 3.98176
59.0044 24.2957 3.9829
54.0372 9.12916 3.989
57.9125 14.3182 3.98504
54.7874 12.001 3.98497
55.3149 14.6316 3.98366
67.5163 50.182 0.0154761
57.0243 66.7376 0.00715447
60.669 63.9806 0.0075249
57.5579 63.6989 0.0122426
65.7101 54.1824 0.0137308
64.5526 51.3974 0.0169391
60.7753 60.9489 0.0126085
60.6652 58.1762 0.0152146
62.8319 55.0841 0.0148812
60.3406 55.8068 0.0159331
55.07 67.9343 2
59.2204 62.3758 2
55.8037 64.9157 2
56.3283 62.1 2
65.3468 49.418 2
63.7201 53.3069 2
62.4626 50.6684 2
59.3378 59.5721 2
61.093 54.3293 2
59.2988 57.0331 2
59.2571 55.2062 2
53.0418 69.0017 3.99334
53.9656 66.017 3.98861
57.8834 60.8824 3.98524
54.6838 63.2142 3.98533
55.214 60.6272 3.98395
63.2154 48.675 3.98131
61.7607 52.594 3.98329
60.3002 50.0394 3.98121
58.0243 58.2786 3.98403
59.3454 53.9705 3.9836
58.1387 55.8362 3.98214
50.1082 67.8598 3.98951
47.462 66.5854 3.98718
46.0558 69.161 3.99005
48.102 68.582 2
48.8022 70.7244 3.99378
50.948 69.9334 2
51.8506 72.1454 4
54.0858 71.1327 2
56.25 69.9759 0
55.1026 7.13741 3.99328
58.3339 6.31992 4
57.0584 8.33257 2
60.3286 7.74926 2
58.9212 9.65254 0.00740849
62.2254 9.30607 0
68.2745 48.1108 0.0162327
69.4381 43.9089 0.0170696
66.7237 45.4455 0.018744
67.6097 41.5003 0.0198346
70.0476 39.6577 0.0181949
72.4907 37.512 0.0123146
70.1352 37.5215 2
67.8454 39.5136 2
67.2365 43.474 2
65.573 41.2143 2
66.0832 47.4255 2
64.6713 44.857 2
67.9421 37.5221 3.97934
65.8042 39.3726 3.97894
65.1945 43.0319 3.97989
63.7782 40.9356 3.97959
63.986 46.7278 3.98091
62.8319 44.2274 3.981
70.0646 35.3917 0.0175317
69.4747 31.1482 0.017033
67.668 33.5884 0.01952
66.7854 29.6175 0.0191098
62.3424 12.6509 0.00778186
62.202 15.7722 0.0128655
61.8224 18.6672 0.0151939
65.5379 25.6898 0.0174842
64.1652 28.2448 0.0190843
62.876 24.6208 0.0174669
61.2332 21.321 0.0173095
60.4481 23.7052 0.0174513
59.2473 12.7687 0.0126924
56.4067 13.1007 0.0152001
55.8742 10.2255 0.0117636
67.8821 35.5463 2
67.278 31.6184 2
65.7149 33.9232 2
64.6809 30.1838 2
60.777 14.2119 2
60.6184 17.1112 2
60.2345 19.7955 2
63.5572 26.4006 2
62.2807 28.7639 2
59.6804 22.2352 2
61.0688 25.3181 2
59.004 24.2963 2
57.9125 14.318 2
55.3149 14.6315 2
54.0372 9.12881 2
54.7874 12.0007 2
65.8937 35.665 3.97935
65.2046 32.1481 3.97966
64.3059 34.2455 3.979
62.6189 30.6246 3.97989
61.6759 27.0552 3.98162
60.8784 29.1244 3.98278
59.3139 15.654 3.98525
59.3597 25.7739 3.98347
59.1311 18.3361 3.98436
58.7549 20.8305 3.98219
58.3076 23.0667 3.98101
57.9964 24.6392 3.98383
52.1119 8.14791 3.98957
53.058 11.0076 3.98577
56.6795 15.7265 3.9843
53.811 13.6681 3.98324
54.3792 15.9829 3.9835
55.0698 67.9342 0.00692643
65.3468 49.418 0.0177104
55.8037 64.9154 0.0118434
59.2204 62.3754 0.0124671
56.3283 62.0997 0.0148618
63.72 53.3069 0.015698
62.4626 50.6685 0.0181403
59.3377 59.5718 0.0147377
59.2986 57.033 0.0165803
61.0928 54.3294 0.0156258
59.2569 55.2063 0.0157926
53.0419 69.0018 2
53.9657 66.0173 2
57.8835 60.8827 2
54.6838 63.2145 2
55.214 60.6275 2
63.2152 48.6749 2
61.7609 52.5939 2
60.3 50.0391 2
58.0245 58.2788 2
59.3456 53.9704 2
58.1389 55.8362 2
52.0691 67.0031 3.98909
52.9525 64.2237 3.98562
56.6523 59.5031 3.98433
53.6822 61.6303 3.98405
54.2635 59.3338 3.98335
61.0211 47.8981 3.98066
59.7334 52.1275 3.98296
58.0573 49.6402 3.98166
56.7849 57.0083 3.9824
57.1387 54.1481 3.98172
50.1084 67.8601 2
49.3356 65.9256 3.98661
47.462 66.5859 2
46.8913 64.7415 3.9852
45.5572 67.1029 3.98751
43.9731 69.5936 3.99023
46.056 69.1614 2
46.609 71.3688 3.99396
48.1019 68.5816 0.0101787
48.8023 70.7246 2
49.554 73.0099 4
50.9478 69.9333 0.00640475
51.8506 72.1455 2
54.0858 71.1327 0
53.0637 6.06904 3.99359
55.1027 7.13728 2
56.25 5.02411 4
58.3339 6.3199 2
57.0583 8.33266 0.00703833
60.3285 7.74928 0
66.0833 47.4255 0.0182428
67.2368 43.474 0.0192522
64.6717 44.857 0.0194384
65.5735 41.2143 0.0205489
67.8459 39.5137 0.0205136
70.1356 37.5216 0.0181911
67.9416 37.522 2
65.8036 39.3726 2
65.194 43.0319 2
63.7776 40.9356 2
63.9857 46.7278 2
62.8313 44.2273 2
65.9069 37.5021 3.97857
63.9218 39.2702 3.97895
63.3526 42.5586 3.97985
62.4582 40.705 3.97916
61.9938 45.9332 3.98092
61.4808 43.6961 3.98286
67.8826 35.5464 0.0197789
67.2784 31.6185 0.0191877
65.7155 33.9234 0.0203716
64.6814 30.1839 0.0201534
60.777 14.2121 0.0127726
60.6183 17.1113 0.014722
60.2344 19.7953 0.016504
63.5575 26.4006 0.0182202
62.2813 28.7639 0.0187419
61.0692 25.3178 0.0175623
59.6805 22.2348 0.0182436
59.0044 24.2957 0.0171006
57.9125 14.3182 0.0149567
55.3149 14.6316 0.0163394
54.0372 9.12916 0.0109961
54.7874 12.001 0.015028
65.8931 35.6648 2
65.2041 32.148 2
64.3052 34.2453 2
62.6182 30.6246 2
59.314 15.6538 2
59.1312 18.3361 2
58.755 20.8308 2
61.6754 27.0553 2
60.8777 29.1245 2
58.3073 23.0673 2
59.3592 25.7743 2
57.9959 24.6399 2
56.6796 15.7265 2
54.3792 15.9828 2
53.8111 13.6679 2
52.1119 8.14755 2
53.058 11.0072 2
64.1131 35.6302 3.97876
62.9555 33.0388 3.97875
60.6446 30.5977 3.98047
59.6034 27.8905 3.98249
57.9437 16.966 3.98454
57.7716 25.701 3.98475
57.7243 19.4546 3.98341
57.3886 21.8152 3.98056
57.2122 23.9209 3.98102
50.1121 7.28029 3.98993
51.2323 10.1162 3.98639
52.1729 12.7856 3.98386
55.541 16.9551 3.98407
52.9798 15.2497 3.98224
53.7614 16.9644 3.98367
53.0418 69.0017 0.00665584
53.9656 66.017 0.0113914
63.2154 48.675 0.0186917
54.6838 63.2142 0.0146672
57.8834 60.8824 0.0147586
55.214 60.6272 0.0160521
61.7607 52.594 0.0167102
60.3002 50.0394 0.0187909
58.0243 58.2786 0.0159692
58.1387 55.8362 0.0178585
59.3454 53.9705 0.016398
52.0692 67.0034 2
52.9525 64.224 2
56.6525 59.5034 2
53.6822 61.6306 2
54.2636 59.3341 2
61.0208 47.8979 2
59.7336 52.1273 2
58.0571 49.6397 2
56.7852 57.0085 2
57.1389 54.1479 2
51.1666 65.1324 3.98602
52.0461 62.5444 3.98399
55.4855 58.2657 3.98379
52.8366 60.1446 3.98346
53.6441 58.4846 3.98336
58.3426 46.8685 3.98272
57.5871 51.8117 3.98157
56.2823 49.5786 3.98273
55.4824 55.8165 3.98096
55.3776 53.4087 3.97913
50.1082 67.8598 0.010486
49.3357 65.926 2
48.6171 64.1275 3.98472
47.462 66.5854 0.0128178
45.5573 67.1034 2
46.8913 64.742 2
46.381 63.0591 3.98376
45.1315 65.2034 3.98556
43.6306 67.474 3.98769
41.8605 69.8813 3.99034
43.9732 69.594 2
44.3765 71.8637 3.9941
46.0558 69.161 0.00994884
46.6091 71.369 2
47.2057 73.7222 4
48.8022 70.7244 0.00621958
49.554 73.0099 2
51.8506 72.1454 0
50.9534 5.1296 3.99376
53.0638 6.06887 2
54.0858 3.86728 4
55.1026 7.13741 0.00672123
56.25 5.02406 2
58.3339 6.31992 0
63.986 46.7278 0.0190864
65.1945 43.0319 0.0201104
62.8319 44.2274 0.0190048
63.7782 40.9356 0.0204149
65.8042 39.3726 0.0210619
67.9421 37.5221 0.0206623
65.9063 37.502 2
63.9211 39.2702 2
63.352 42.5585 2
62.4575 40.7049 2
61.9934 45.933 2
61.4802 43.6959 2
63.982 37.4576 3.97877
62.1867 39.3597 3.9789
61.2493 41.9693 3.98026
60.2829 44.7854 3.98309
65.8937 35.665 0.0206464
65.2046 32.1481 0.0203435
64.3059 34.2455 0.0210004
62.6189 30.6246 0.0201111
59.3139 15.654 0.0147539
59.1311 18.3361 0.0156351
58.7549 20.8305 0.0178134
61.6759 27.0552 0.018378
60.8784 29.1244 0.0172212
59.3597 25.7739 0.0165299
58.3076 23.0667 0.0189948
57.9964 24.6392 0.0161734
56.6795 15.7265 0.0157022
54.3792 15.9829 0.0164966
53.811 13.6681 0.0167584
52.1119 8.14791 0.0104336
53.058 11.0076 0.0142342
64.1124 35.63 2
62.9547 33.0387 2
60.6437 30.5977 2
57.9438 16.9659 2
57.7245 19.4547 2
57.3885 21.8157 2
59.6026 27.8908 2
57.2118 23.9217 2
57.7709 25.7016 2
50.1121 7.27996 2
55.5411 16.9551 2
53.7615 16.9644 2
52.9798 15.2496 2
52.1729 12.7853 2
51.2322 10.1158 2
62.2193 35.3558 3.97847
60.3248 32.7353 3.97822
58.659 30.0572 3.98136
57.3296 27.3571 3.98408
56.6413 18.1373 3.9841
56.3243 25.0762 3.98247
56.3689 20.4992 3.98179
56.1304 22.8434 3.97852
48.0559 6.52374 3.99012
49.3241 9.32442 3.98715
50.4334 11.9841 3.98434
51.3794 14.4859 3.9821
54.419 17.9038 3.98363
52.364 17.0217 3.9823
52.0691 67.0031 0.0109142
52.9525 64.2237 0.0143814
61.0211 47.8981 0.019337
53.6822 61.6303 0.0159495
56.6523 59.5031 0.0156744
54.2635 59.3338 0.016654
59.7334 52.1275 0.0170359
58.0573 49.6402 0.0183441
56.7849 57.0083 0.0175966
57.1387 54.1481 0.0182756
51.1666 65.1328 2
52.0461 62.5447 2
55.4857 58.266 2
52.8366 60.1448 2
53.6442 58.4849 2
58.342 46.8679 2
57.5872 51.8113 2
56.2821 49.5779 2
55.4827 55.8166 2
55.3778 53.4085 2
50.3456 63.3855 3.98423
51.245 60.9416 3.98277
54.2251 57.2809 3.98279
52.3157 58.6452 3.98274
56.7658 44.2022 3.98405
55.5354 47.9181 3.98182
55.099 51.4151 3.97913
54.0185 54.5691 3.97867
49.3356 65.9256 0.0133896
48.6171 64.1279 2
47.9615 62.4796 3.98344
45.5572 67.1029 0.0124924
46.8913 64.7415 0.0148013
43.6307 67.4745 2
46.3809 63.0595 2
45.1315 65.2038 2
45.9868 61.5915 3.98262
44.7661 63.4606 3.9841
43.3554 65.5133 3.98571
41.663 67.6934 3.98785
39.7024 70.0286 3.99034
41.8606 69.8817 2
42.111 72.2086 3.99413
43.9731 69.5936 0.00976819
44.3766 71.864 2
44.8159 74.2794 4
46.609 71.3688 0.00604362
47.2057 73.7222 2
49.554 73.0099 0
48.784 4.32077 3.99393
50.9536 5.12942 2
51.8506 2.85458 4
53.0637 6.06904 0.00640651
54.0858 3.86728 2
56.25 5.02411 0
61.9938 45.9332 0.0190779
63.3526 42.5586 0.0201501
61.4808 43.6961 0.0171386
62.4582 40.705 0.0208353
63.9218 39.2702 0.0210498
65.9069 37.5021 0.0214307
63.9813 37.4575 2
62.1859 39.3597 2
61.2484 41.9693 2
60.2822 44.7851 2
62.026 37.4453 3.97926
60.2866 39.8549 3.97889
59.0352 42.9334 3.98228
64.1131 35.6302 0.0212436
62.9555 33.0388 0.0212545
60.6446 30.5977 0.0195342
57.9437 16.966 0.0154594
57.7243 19.4546 0.0165937
57.3886 21.8152 0.0194404
59.6034 27.8905 0.0175066
57.7716 25.701 0.0152475
57.2122 23.9209 0.0189813
55.541 16.9551 0.0159298
53.7614 16.9644 0.0163315
52.9798 15.2497 0.0177553
50.1121 7.28029 0.0100748
52.1729 12.7856 0.0161356
51.2323 10.1162 0.0136108
62.2186 35.3557 2
60.3237 32.7351 2
58.6579 30.0574 2
56.6415 18.1373 2
56.3691 20.4995 2
56.1302 22.8442 2
57.3286 27.3576 2
56.3236 25.0772 2
48.056 6.5234 2
49.3241 9.32408 2
54.4191 17.9038 2
52.3641 17.0216 2
51.3794 14.4855 2
50.4334 11.9837 2
59.9344 35.1148 3.97857
58.038 32.255 3.97886
56.5904 29.3165 3.98255
55.4883 26.5737 3.98526
55.3484 19.1712 3.98325
54.9576 24.0307 3.97805
55.0163 21.5398 3.98015
45.962 5.87901 3.99036
43.3734 7.46822 3.98828
47.3546 8.61861 3.98756
48.6 11.2857 3.98496
49.715 13.733 3.98303
50.6357 16.1205 3.98086
53.1293 18.6443 3.98276
51.3063 18.0357 3.9826
51.1666 65.1324 0.0139758
52.0461 62.5444 0.0160091
58.3426 46.8685 0.0172758
52.8366 60.1446 0.0165407
55.4855 58.2657 0.0162129
53.6441 58.4846 0.0166362
57.5871 51.8117 0.018434
56.2823 49.5786 0.0172655
55.4824 55.8165 0.0190376
55.3776 53.4087 0.0208697
50.3455 63.3858 2
51.245 60.9418 2
54.2254 57.2812 2
52.3158 58.6455 2
56.7647 44.2017 2
55.5349 47.9171 2
55.0991 51.4146 2
54.0188 54.5692 2
49.5918 61.7491 3.983
55.7018 41.7233 3.97983
50.5687 59.3352 3.98169
52.1912 56.504 3.98129
54.243 45.5824 3.98347
53.3845 49.353 3.97998
52.6901 52.8765 3.97678
48.6171 64.1275 0.0152835
47.9614 62.48 2
47.3292 61.014 3.98251
43.6306 67.474 0.0123112
45.1315 65.2034 0.0144431
46.381 63.0591 0.016238
41.663 67.6939 2
43.3555 65.5138 2
45.9868 61.5918 2
44.7661 63.461 2
45.7659 60.6354 3.98179
44.4824 61.8413 3.98286
43.1453 63.7335 3.98434
41.5451 65.6517 3.98587
39.6323 67.7735 3.98797
37.526 70.054 3.99033
39.7024 70.029 2
39.8179 72.4057 3.99405
41.8605 69.8813 0.00965781
42.1111 72.2088 2
42.3947 74.6792 4
44.3765 71.8637 0.00589941
44.8159 74.2794 2
47.2057 73.7222 0
43.8515 5.35611 3.99057
46.5701 3.64545 3.99411
48.7841 4.32058 2
49.554 1.99015 4
50.9534 5.1296 0.00624156
51.8506 2.85453 2
54.0858 3.86728 0
60.2829 44.7854 0.0169115
61.2493 41.9693 0.0197385
62.1867 39.3597 0.0211013
63.982 37.4576 0.0212271
62.0252 37.4452 2
60.2856 39.8548 2
59.0343 42.9332 2
59.8078 37.568 3.98026
58.0525 40.6695 3.97911
55.1877 39.73 3.98066
62.2193 35.3558 0.0215287
60.3248 32.7353 0.02178
58.659 30.0572 0.0186364
56.6413 18.1373 0.0159024
56.3689 20.4992 0.018214
56.1304 22.8434 0.0214757
57.3296 27.3571 0.0159184
56.3243 25.0762 0.0175346
54.419 17.9038 0.0163728
52.364 17.0217 0.0176993
51.3794 14.4859 0.0178986
48.0559 6.52374 0.00988195
49.3241 9.32442 0.0128498
50.4334 11.9841 0.0156556
59.9335 35.1147 2
45.962 5.87867 2
43.3735 7.46791 2
58.0367 32.2549 2
56.5891 29.3168 2
55.3486 19.1712 2
55.0164 21.5403 2
54.9571 24.032 2
55.4873 26.5749 2
47.3546 8.61823 2
48.5999 11.2854 2
53.1295 18.6443 2
51.3063 18.0357 2
50.6357 16.1202 2
49.7149 13.7327 2
57.453 34.7526 3.97927
55.782 31.4978 3.9798
54.565 28.3778 3.98684
53.8087 25.4717 3.98056
53.9762 20.1191 3.98276
53.6003 22.6852 3.9761
41.3986 7.07347 3.98843
45.3594 7.99013 3.98796
42.8652 9.40921 3.98643
46.6662 10.6467 3.98556
47.7456 13.0934 3.98317
48.933 15.3907 3.98197
50.0086 17.6897 3.97942
51.6578 19.3139 3.98371
50.3456 63.3855 0.0157745
51.245 60.9416 0.0172291
56.7658 44.2022 0.0159469
55.5354 47.9181 0.018177
52.3157 58.6452 0.0172596
54.2251 57.2809 0.0172142
55.099 51.4151 0.0208688
54.0185 54.5691 0.0213283
49.5917 61.7495 2
55.7003 41.7227 2
50.5687 59.3354 2
52.1916 56.5043 2
54.2418 45.5814 2
53.3843 49.3518 2
52.6905 52.8756 2
48.8496 60.2064 3.98226
52.6132 42.6577 3.98202
49.7924 57.6352 3.98159
50.6081 54.4381 3.97819
51.8835 47.2902 3.97992
51.2505 50.9691 3.97542
48.3136 43.7357 3.97761
47.9615 62.4796 0.0165591
47.3291 61.0143 2
46.6189 59.8002 3.98179
41.663 67.6934 0.0121463
43.3554 65.5133 0.0142928
44.7661 63.4606 0.0158965
45.9868 61.5915 0.0173833
39.6324 67.774 2
41.5451 65.6521 2
45.7659 60.6356 2
43.1452 63.7338 2
44.4824 61.8417 2
44.623 60.2978 3.98168
42.9496 62.0905 3.98305
41.5987 63.8273 3.98428
39.6469 65.6206 3.98609
37.5632 67.7562 3.98778
31.6978 65.139 3.98583
33.3925 67.4937 3.98772
35.3334 69.9641 3.99029
37.526 70.0544 2
37.5096 72.4603 3.99404
39.7024 70.0286 0.00965883
39.8179 72.406 2
39.9526 74.9197 4
42.111 72.2086 0.00587318
42.3947 74.6792 2
44.8159 74.2794 0
41.7362 4.96523 3.99076
43.8515 5.35578 2
44.3255 3.10878 3.99425
46.5702 3.64524 2
47.2057 1.27793 4
48.784 4.32077 0.00606671
49.554 1.99013 2
51.8506 2.85458 0
59.0352 42.9334 0.017723
60.2866 39.8549 0.0211143
62.026 37.4453 0.020742
59.8069 37.5679 2
58.0513 40.6694 2
55.1861 39.7296 2
56.895 37.8992 3.98111
49.7741 41.3032 3.97676
53.2342 39.3142 3.98407
39.442 6.79706 3.98866
59.9344 35.1148 0.0214305
58.038 32.255 0.0211375
56.5904 29.3165 0.0174526
55.3484 19.1712 0.0167456
55.0163 21.5398 0.0198516
54.9576 24.0307 0.0219465
55.4883 26.5737 0.0147392
53.1293 18.6443 0.0172396
51.3063 18.0357 0.0174049
50.6357 16.1205 0.0191432
45.962 5.87901 0.00964171
49.715 13.733 0.0169733
47.3546 8.61861 0.0124363
48.6 11.2857 0.0150393
43.3734 7.46822 0.0117181
57.4518 34.7526 2
41.3986 7.07312 2
45.3594 7.98982 2
42.8652 9.40894 2
55.7803 31.4976 2
54.5633 28.3787 2
53.9766 20.1192 2
53.6004 22.686 2
53.8078 25.4735 2
46.6662 10.6464 2
47.7456 13.0931 2
51.6579 19.3139 2
50.0087 17.6896 2
48.933 15.3905 2
54.9615 33.9571 3.97965
53.5625 30.4588 3.98405
52.6417 27.1737 3.98422
52.1724 24.062 3.97758
52.402 21.0544 3.98086
41.0133 9.04247 3.98665
44.7234 9.98937 3.98604
42.4679 10.8954 3.98492
46.0051 12.7212 3.98382
47.6824 14.5752 3.98251
48.1153 16.978 3.98046
49.8214 19.5876 3.97815
49.5918 61.7491 0.0170041
50.5687 59.3352 0.0183124
55.7018 41.7233 0.0201664
54.243 45.5824 0.0165261
53.3845 49.353 0.0200161
52.1912 56.504 0.018712
52.6901 52.8765 0.0232168
48.8495 60.2067 2
52.6115 42.6569 2
49.7925 57.6355 2
50.6085 54.4389 2
51.8826 47.2888 2
51.2506 50.9672 2
48.3069 43.7373 2
47.988 58.7483 3.98154
50.2048 45.2837 3.97679
48.6045 55.9263 3.9813
49.1523 52.6151 3.97827
49.725 49.0677 3.97534
46.1836 39.9089 3.91591
46.5654 42.7662 3.98229
46.6189 45.7315 3.983
44.0324 41.2442 3.96773
42.105 41.9916 3.96735
47.3292 61.014 0.0174944
46.6188 59.8003 2
45.4684 58.7962 3.98052
39.6323 67.7735 0.0120274
41.5451 65.6517 0.0141271
43.1453 63.7335 0.0156614
44.4824 61.8413 0.0171383
45.7659 60.6354 0.0182053
41.5986 63.8276 2
37.5632 67.7566 2
39.6469 65.621 2
44.623 60.298 2
42.9495 62.0908 2
41.7524 62.5017 3.98317
42.4803 59.9896 3.98153
39.8923 63.5628 3.98389
37.6419 65.5197 3.98591
35.4635 67.6656 3.98781
33.5758 65.3527 3.98585
31.96 63.3112 3.98423
29.884 64.7295 3.98552
31.6978 65.1394 2
31.3773 67.2031 3.98773
33.3925 67.4941 2
33.1564 69.7573 3.99023
35.3334 69.9645 2
35.1951 72.3747 3.994
37.526 70.054 0.00967437
37.5096 72.4606 2
37.5 75 4
39.8179 72.4057 0.00595459
39.9526 74.9197 2
42.3947 74.6792 0
39.6238 4.71248 3.99083
41.7362 4.96489 2
42.062 2.71642 3.99442
43.8515 5.35611 0.00942627
44.3256 3.10856 2
44.8158 0.721173 4
46.5701 3.64545 0.0058901
47.2057 1.27779 2
49.554 1.99015 0
58.0525 40.6695 0.0208854
59.8078 37.568 0.0197426
55.1877 39.73 0.0193445
49.7725 41.3045 2
56.8938 37.8992 2
53.2323 39.3132 2
54.0887 36.623 3.98029
47.6965 40.4556 3.98992
50.7271 38.4844 3.98193
37.5159 6.66823 3.98867
39.442 6.79669 2
39.211 8.68498 3.98687
35.9414 8.48487 3.98693
57.453 34.7526 0.0207252
55.782 31.4978 0.0202012
54.565 28.3778 0.0131563
53.9762 20.1191 0.017236
53.6003 22.6852 0.0238954
53.8087 25.4717 0.0194372
51.6578 19.3139 0.0162854
50.0086 17.6897 0.0205775
48.933 15.3907 0.0180274
45.3594 7.99013 0.0120407
47.7456 13.0934 0.0168325
46.6662 10.6467 0.0144386
41.3986 7.07347 0.0115714
42.8652 9.40921 0.013571
54.96 33.9568 2
41.0133 9.0421 2
44.7233 9.98915 2
42.4679 10.8952 2
53.5602 30.4577 2
52.6402 27.1764 2
52.4024 21.054 2
52.1722 24.0639 2
46.005 12.721 2
47.6824 14.575 2
49.8215 19.588 2
48.1153 16.9779 2
52.5108 32.8508 3.98169
51.4151 29.132 3.98737
50.8349 25.7006 3.97489
49.9516 22.1658 3.97911
40.5688 11.599 3.98426
43.8577 11.9104 3.98418
45.8033 15.4107 3.982
47.507 19.2115 3.97929
46.5142 37.505 3.91476
48.8496 60.2064 0.0177359
49.7924 57.6352 0.0184069
52.6132 42.6577 0.0179755
51.8835 47.2902 0.0200776
51.2505 50.9691 0.0245796
50.6081 54.4381 0.0218135
48.3136 43.7357 0.0223862
47.9879 58.7486 2
50.2027 45.2829 2
48.6046 55.9265 2
49.1526 52.6158 2
49.7244 49.0653 2
46.188 39.9115 2
46.5716 42.7696 2
46.6143 45.7282 2
44.0387 41.2416 2
42.1145 41.9949 2
46.8404 57.3507 3.98227
44.7971 39.5045 3.96394
42.4739 40.8664 3.97769
48.1734 47.2629 3.98158
47.1802 54.2592 3.9816
47.6244 50.7766 3.97802
44.8911 47.3419 3.98274
45.2493 42.0256 3.9224
45.0301 44.6591 3.97359
42.826 42.7423 3.96029
40.9592 42.3615 3.96655
46.6189 59.8002 0.0182142
45.4683 58.7962 2
43.8759 57.7197 3.98021
37.5632 67.7562 0.0122238
39.6469 65.6206 0.0139085
41.5987 63.8273 0.0157183
42.9496 62.0905 0.0169491
44.623 60.2978 0.0183177
35.4635 67.666 2
41.7524 62.502 2
39.8923 63.5632 2
37.6419 65.5202 2
42.4803 59.9899 2
40.6221 61.6598 3.98294
40.4437 58.2187 3.97935
37.836 63.2244 3.9843
35.573 65.442 3.98587
33.5758 65.3531 2
31.96 63.3116 2
33.6293 63.3513 3.98436
30.3789 62.8692 3.98392
32.1232 62.017 3.98295
26.8678 61.5114 3.98272
28.0628 64.1569 3.9851
29.8841 64.7299 2
29.4071 66.7665 3.98751
31.6978 65.139 0.014168
31.3773 67.2036 2
31.0137 69.4221 3.99007
33.3925 67.4937 0.0122794
33.1563 69.7577 2
32.8922 72.149 3.994
35.3334 69.9641 0.00971422
35.195 72.375 2
35.0474 74.9194 4
37.5096 72.4603 0.00595841
37.5 75 2
39.9526 74.9197 0
35.6205 6.71927 3.98866
37.523 4.61201 3.99087
39.6238 4.71216 2
39.7885 2.47293 3.99447
41.7362 4.96523 0.00923624
42.062 2.71619 2
42.3946 0.32156 4
44.3255 3.10878 0.00574614
44.8159 0.72056 2
47.2057 1.27793 0
49.7741 41.3032 0.0232359
56.895 37.8992 0.0188868
53.2342 39.3142 0.015929
47.6954 40.4521 2
50.7243 38.4844 2
54.0873 36.6229 2
51.5115 35.5655 3.97009
48.3591 37.7607 3.99464
46.1819 35.1019 3.91673
44.0233 33.7679 3.96885
42.0911 33.0297 3.9728
37.4577 8.52673 3.98694
37.5159 6.66779 2
39.442 6.79706 0.0113353
39.2109 8.68458 2
38.9759 10.1173 3.98597
35.8979 9.76418 3.98597
34.1498 8.81429 3.98668
35.9414 8.48443 2
54.9615 33.9571 0.020347
53.5625 30.4588 0.0159515
52.6417 27.1737 0.0157775
52.402 21.0544 0.0191358
52.1724 24.062 0.0224173
49.8214 19.5876 0.0218542
48.1153 16.978 0.0195399
47.6824 14.5752 0.0174929
44.7234 9.98937 0.0139607
46.0051 12.7212 0.0161809
41.0133 9.04247 0.0133478
42.4679 10.8954 0.0150751
52.5091 32.85 2
40.5687 11.5987 2
43.8576 11.9103 2
51.4126 29.1345 2
50.8341 25.7027 2
49.9518 22.1663 2
45.8032 15.4106 2
47.507 19.2113 2
50.1236 31.3837 3.97356
49.3541 27.4591 3.97527
49.4353 24.3801 3.97881
47.194 21.9139 3.97769
38.3014 12.7241 3.98331
42.1009 14.295 3.98215
44.8024 18.4479 3.97985
45.0715 37.5053 3.95683
46.5238 37.5065 2
47.988 58.7483 0.018463
48.6045 55.9263 0.0186992
50.2048 45.2837 0.0232061
49.725 49.0677 0.0246584
49.1523 52.6151 0.0217311
46.1836 39.9089 0.0840886
46.5654 42.7662 0.0177061
46.6189 45.7315 0.0170017
44.0324 41.2442 0.0322736
42.105 41.9916 0.032648
46.8404 57.3509 2
44.804 39.502 2
42.4763 40.8668 2
48.1718 47.2594 2
47.1803 54.2591 2
47.6245 50.7758 2
44.8896 47.3335 2
45.2528 42.0282 2
45.0402 44.6652 2
42.8379 42.7388 2
40.9686 42.3601 2
45.4009 55.9365 3.97969
42.8045 39.2606 3.98369
40.9066 40.8144 3.96125
46.1515 48.9396 3.97927
45.5663 52.5593 3.98426
43.5236 48.4792 3.9513
43.4144 46.2098 3.99274
43.791 43.829 3.91849
41.2933 43.9022 3.97673
39.3231 42.6663 3.95966
45.4684 58.7962 0.0194765
43.8758 57.7195 2
42.1064 56.3421 3.98012
35.4635 67.6656 0.0121884
37.6419 65.5197 0.0140897
39.8923 63.5628 0.0161081
41.7524 62.5017 0.0168298
42.4803 59.9896 0.0184694
35.5731 65.4425 2
40.6221 61.6601 2
37.836 63.2248 2
40.4438 58.2189 2
38.9249 56.5068 3.97993
38.2498 60.3433 3.98233
35.6067 63.218 3.98419
33.5758 65.3527 0.0141501
31.96 63.3112 0.0157737
33.6293 63.3517 2
30.379 62.8696 2
32.1232 62.0174 2
28.6811 62.2139 3.98355
33.3458 61.5296 3.98272
31.0659 61.2334 3.98244
27.5654 59.6079 3.98188
23.7869 59.0988 3.98462
25.0323 60.8843 3.98278
26.8679 61.5117 2
26.2291 63.4886 3.98459
28.0629 64.1573 2
27.4638 66.1899 3.98718
29.884 64.7295 0.0144781
29.407 66.7669 2
28.9062 68.9474 3.98996
31.3773 67.2031 0.0122731
31.0137 69.4225 2
30.6146 71.78 3.99393
33.1564 69.7573 0.00977147
32.8921 72.1492 2
32.6054 74.6784 4
35.1951 72.3747 0.00600111
35.0474 74.9197 2
37.5 75 0
33.7232 6.9738 3.98834
35.4344 4.68243 3.99078
35.6204 6.71885 2
37.5141 2.38558 3.99452
37.523 4.61165 2
39.6238 4.71248 0.00917082
39.7885 2.4727 2
39.9526 0.0806499 4
42.062 2.71642 0.00558146
42.3947 0.320817 2
44.8158 0.721173 0
44.8021 35.5044 3.9626
42.4662 34.1507 3.97765
47.6965 40.4556 0.0100797
50.7271 38.4844 0.0180656
54.0887 36.623 0.0197082
48.3565 37.7598 2
51.5098 35.5655 2
46.1819 35.1007 2
44.0334 33.7667 2
42.0978 33.0289 2
48.5287 34.2472 4.00524
45.2334 32.9872 3.91986
42.8141 32.273 3.96379
40.9442 32.6673 3.96917
37.3099 10.6204 3.98521
37.4577 8.5262 2
37.5159 6.66823 0.0113318
39.211 8.68498 0.0131309
38.9758 10.1168 2
34.753 10.3698 3.9852
35.8978 9.76378 2
32.3765 9.36091 3.98608
34.1497 8.8139 2
35.9414 8.48487 0.0130738
52.5108 32.8508 0.0183086
51.4151 29.132 0.0126291
50.8349 25.7006 0.0251149
49.9516 22.1658 0.0208878
47.507 19.2115 0.0207147
45.8033 15.4107 0.0179988
43.8577 11.9104 0.015818
40.5688 11.599 0.015737
50.1208 31.3842 2
38.3012 12.7235 2
42.1007 14.2951 2
49.3523 27.4611 2
49.4352 24.3809 2
47.194 21.9156 2
44.8023 18.4477 2
47.9043 29.591 3.97057
47.1381 25.1069 3.97798
44.2932 21.303 3.97809
36.581 12.9204 3.98342
38.6803 14.7948 3.98202
41.7506 17.8252 3.98025
42.9319 37.4976 3.98824
45.0831 37.5054 2
46.5142 37.505 0.0852375
46.8404 57.3507 0.0177289
47.1802 54.2592 0.0184
48.1734 47.2629 0.018417
47.6244 50.7766 0.0219764
44.7971 39.5045 0.0360597
45.2493 42.0256 0.0775998
45.0301 44.6591 0.0264113
44.8911 47.3419 0.0172629
42.826 42.7423 0.0397111
42.4739 40.8664 0.0223143
40.9592 42.3615 0.033451
45.4011 55.9365 2
42.8063 39.2596 2
40.9073 40.8147 2
46.1516 48.9358 2
45.5668 52.5581 2
43.5222 48.4787 2
43.4447 46.2202 2
43.7963 43.8324 2
41.2986 43.8952 2
39.328 42.6705 2
43.7409 54.4455 3.98468
40.9782 39.1843 3.94747
39.2372 40.8742 3.92832
43.7481 50.5344 3.98986
42.0243 47.7354 4.0247
41.9362 45.2175 3.91866
39.5075 44.6609 3.97679
37.5021 42.7778 3.96375
43.8759 57.7197 0.0197882
42.1063 56.3416 2
40.4202 54.9419 3.97795
35.573 65.442 0.0141329
37.836 63.2244 0.0156984
40.6221 61.6598 0.0170559
40.4437 58.2187 0.0206478
35.6067 63.2184 2
38.2497 60.3435 2
38.9247 56.508 2
37.9994 55.2598 3.97841
36.9342 57.6427 3.97945
35.3632 60.9284 3.98283
33.6293 63.3513 0.0156381
30.3789 62.8692 0.0160807
32.1232 62.017 0.0170531
33.3458 61.5299 2
28.6812 62.2142 2
31.0659 61.2336 2
29.4012 60.3021 3.98183
32.355 59.7601 3.98195
28.017 58.3868 3.98309
27.5654 59.6081 2
25.3739 58.6091 3.98235
22.7491 58.2593 3.98157
23.397 60.3648 3.98331
23.7869 59.0991 2
25.0323 60.8846 2
24.4311 62.7808 3.98422
26.8678 61.5114 0.0172816
26.2291 63.489 2
25.5478 65.4997 3.98668
28.0628 64.1569 0.0149049
27.4638 66.1903 2
26.8361 68.3356 3.98978
29.4071 66.7665 0.0124929
28.9061 68.9478 2
28.3698 71.2651 3.99385
31.0137 69.4221 0.00992673
30.6145 71.7802 2
30.1842 74.2788 4
32.8922 72.149 0.00599669
32.6053 74.6792 2
35.0474 74.9194 0
31.7876 7.41341 3.98794
33.3464 4.92154 3.99063
33.723 6.97339 2
35.2444 2.46174 3.99444
35.4344 4.68205 2
35.6205 6.71927 0.011339
37.5 0 4
37.5141 2.38533 2
37.523 4.61201 0.00912684
39.7885 2.47293 0.00553425
39.9526 0.0802889 2
42.3946 0.32156 0
42.8078 35.7426 3.98505
44.8048 35.5066 2
40.8993 34.2125 3.96321
42.4693 34.1498 2
48.3591 37.7607 0.00535864
51.5115 35.5655 0.0299086
46.1819 35.1019 0.0832675
44.0233 33.7679 0.0311463
42.0911 33.0297 0.0272043
48.527 34.2486 2
45.238 32.9811 2
42.8237 32.2738 2
40.9507 32.666 2
46.4432 31.4903 3.99212
43.7727 31.1832 3.9207
41.2842 31.1263 3.97348
39.3052 32.369 3.96094
35.6913 11.765 3.98381
37.3097 10.6198 2
37.4577 8.52673 0.0130612
38.9759 10.1173 0.014033
33.0969 11.2064 3.98435
34.7529 10.3695 2
35.8979 9.76418 0.0140299
30.4812 10.0089 3.98565
32.3764 9.36064 2
34.1498 8.81429 0.0133222
50.1236 31.3837 0.02644
49.3541 27.4591 0.0247316
49.4353 24.3801 0.0211898
47.194 21.9139 0.0223075
44.8024 18.4479 0.0201468
42.1009 14.295 0.017853
38.3014 12.7241 0.0166906
36.5809 12.9203 2
47.9002 29.5929 2
38.6801 14.7942 2
41.7503 17.8253 2
47.1377 25.108 2
44.2931 21.3028 2
45.6476 27.8092 3.97359
43.8235 24.0374 3.98041
41.3445 20.7032 3.97985
35.7705 14.7455 3.98235
38.6811 17.582 3.98053
41.0228 37.4949 3.94296
42.9363 37.4979 2
45.0715 37.5053 0.0431679
45.4009 55.9365 0.0203109
45.5663 52.5593 0.0157375
46.1515 48.9396 0.020731
42.8045 39.2606 0.0163137
43.791 43.829 0.0815123
43.4144 46.2098 0.00725848
43.5236 48.4792 0.0487021
41.2933 43.9022 0.0232699
40.9066 40.8144 0.038748
39.3231 42.6663 0.040341
43.7415 54.4455 2
40.9782 39.1842 2
39.2372 40.8783 2
43.7478 50.5355 2
42.024 47.7374 2
41.9462 45.2176 2
37.5031 42.7828 2
39.5157 44.6644 2
41.8904 53.0102 3.98465
39.2315 39.1735 3.93534
37.5049 40.9268 3.93106
35.6848 42.6865 3.96195
40.9886 49.7542 3.99582
39.8218 46.096 3.92105
37.4984 44.9279 3.96836
42.1064 56.3421 0.0198844
40.42 54.9416 2
38.7294 53.8681 3.98324
35.6067 63.218 0.0158136
38.2498 60.3433 0.0176732
38.9249 56.5068 0.0200672
35.3632 60.9286 2
36.934 57.6427 2
37.999 55.2597 2
36.3182 55.3977 3.97893
34.4866 58.5376 3.98138
33.3458 61.5296 0.0172757
28.6811 62.2139 0.0164466
31.0659 61.2334 0.0175619
32.3551 59.7602 2
29.4013 60.3022 2
30.293 57.8308 3.98184
28.0171 58.387 2
26.935 56.8377 3.98084
27.5654 59.6079 0.0181203
25.3738 58.6094 2
23.8277 56.8245 3.98005
21.3236 57.4213 3.98276
21.9882 59.6393 3.98394
22.7489 58.2596 2
22.7341 62.0324 3.98401
23.397 60.3651 2
23.7869 59.0988 0.0153804
25.0323 60.8843 0.0172185
24.4311 62.7811 2
23.6815 64.7178 3.98605
26.2291 63.4886 0.0154052
25.5478 65.5001 2
24.8086 67.5968 3.98957
27.4638 66.1899 0.0128198
26.836 68.336 2
26.1652 70.6059 3.99373
28.9062 68.9474 0.0100437
28.3697 71.2653 2
27.7943 73.7221 4
30.6146 71.78 0.00606859
30.1841 74.2794 2
32.6054 74.6784 0
29.8101 7.98656 3.98748
31.2516 5.32855 3.99035
31.7875 7.41308 2
32.9802 2.69982 3.99433
33.3463 4.92113 2
33.7232 6.9738 0.0116644
35.0474 0.080333 4
35.2444 2.46149 2
35.4344 4.68243 0.00921542
37.5 0 2
37.5141 2.38558 0.00547618
39.9526 0.0806499 0
40.9836 35.8176 3.94816
42.808 35.7434 2
44.8021 35.5044 0.0374011
28.5421 10.6841 3.98516
39.2283 34.1586 3.93173
40.8999 34.2112 2
42.4662 34.1507 0.022345
48.5287 34.2472 -0.00523775
45.2334 32.9872 0.0801384
42.8141 32.273 0.0362105
40.9442 32.6673 0.0308251
46.452 31.4869 2
43.7738 31.1782 2
41.2926 31.1249 2
39.3104 32.3626 2
44.4564 29.6667 3.9891
41.9217 29.8105 3.9261
39.4945 30.3952 3.97157
37.4802 32.2705 3.96738
34.091 12.9229 3.98312
35.6913 11.7648 2
37.3099 10.6204 0.0147874
31.1849 11.9747 3.98413
33.0969 11.2063 2
34.753 10.3698 0.014803
30.4811 10.0086 2
32.3765 9.36091 0.0139193
47.9043 29.591 0.0294318
47.1381 25.1069 0.0220177
36.581 12.9204 0.0165846
44.2932 21.303 0.0219096
41.7506 17.8252 0.0197523
38.6803 14.7948 0.0179806
35.7703 14.7459 2
45.6447 27.814 2
38.6808 17.5818 2
41.3439 20.7031 2
43.8231 24.0423 2
33.6058 15.8629 3.98242
43.1204 26.5322 3.98248
40.9273 23.2757 3.981
38.4223 20.3109 3.98077
35.8468 17.495 3.98099
39.2402 37.4974 3.93442
41.0241 37.4944 2
42.9319 37.4976 0.0117567
43.7409 54.4455 0.0153244
43.7481 50.5344 0.0101368
40.9782 39.1843 0.0525312
41.9362 45.2175 0.0813386
42.0243 47.7354 -0.0247028
39.5075 44.6609 0.0232128
39.2372 40.8742 0.0716796
37.5021 42.7778 0.0362526
41.8907 53.011 2
39.2314 39.1754 2
37.5051 40.9323 2
40.9874 49.7538 2
35.6806 42.6896 2
39.832 46.1012 2
37.502 44.9162 2
39.8291 51.9276 3.98826
37.5015 39.1933 3.92931
35.7753 40.8953 3.92489
34.0495 42.3799 3.9676
35.4827 44.666 3.97029
38.7752 48.807 4.03508
37.5061 46.4092 3.91416
40.4202 54.9419 0.0220497
38.7292 53.8669 2
36.7176 53.2204 3.98318
35.3632 60.9284 0.0171726
36.9342 57.6427 0.0205512
37.9994 55.2598 0.0215942
34.4865 58.5375 2
36.318 55.397 2
33.2213 55.5181 3.98147
32.355 59.7601 0.0180537
29.4012 60.3021 0.0181682
30.2931 57.8309 2
28.6737 55.3228 3.97891
28.017 58.3868 0.0169089
26.9348 56.8381 2
25.2919 55.1617 3.97899
21.7903 55.3715 3.98017
25.3739 58.6091 0.0176526
23.8274 56.8248 2
20.2067 57.0531 3.98413
20.6379 58.7993 3.98407
21.3234 57.4216 2
21.163 61.184 3.98474
21.9881 59.6396 2
22.7491 58.2593 0.0184339
21.8944 63.8458 3.98564
22.7341 62.0327 2
23.397 60.3648 0.0166891
24.4311 62.7808 0.0157773
23.6815 64.7182 2
22.837 66.7406 3.98924
25.5478 65.4997 0.0133222
24.8085 67.5971 2
24.0096 69.8071 3.99361
26.8361 68.3356 0.0102166
26.165 70.6061 2
25.446 73.0099 4
28.3698 71.2651 0.00614549
27.7943 73.7222 2
30.1842 74.2788 0
27.8201 8.64595 3.98721
29.1536 5.87416 3.99
29.81 7.98618 2
30.7255 3.09689 3.99413
31.2515 5.32819 2
31.7876 7.41341 0.0120563
32.6053 0.320823 4
32.9801 2.69957 2
33.3464 4.92154 0.00936834
35.0474 0.0802903 2
35.2444 2.46174 0.00555691
37.5 0 0
39.2369 35.8339 3.93545
40.9827 35.8167 2
42.8078 35.7426 0.0149483
28.5421 10.6839 2
26.6211 11.3796 3.98491
29.2238 12.6315 3.98381
37.4941 34.1135 3.94154
39.2282 34.1538 2
40.8993 34.2125 0.0367914
46.4432 31.4903 0.00788207
43.7727 31.1832 0.0792991
41.2842 31.1263 0.0265187
39.3052 32.369 0.0390633
44.4671 29.6589 2
41.9338 29.8055 2
39.5012 30.392 2
37.4831 32.2651 2
42.3645 28.3559 3.99216
39.8174 28.9469 3.92119
37.477 30.1356 3.96552
35.6604 32.3624 3.9633
31.9124 14.4689 3.98265
34.091 12.9229 2
35.6913 11.765 0.0161897
31.185 11.9745 2
33.0969 11.2064 0.0156534
30.4812 10.0089 0.0143523
45.6476 27.8092 0.0264149
43.8235 24.0374 0.0195889
35.7705 14.7455 0.0176478
41.3445 20.7032 0.0201495
38.6811 17.582 0.0194727
33.6057 15.8634 2
35.8465 17.4956 2
43.1185 26.5378 2
38.422 20.3118 2
40.9272 23.2759 2
33.5477 17.3718 3.98229
40.4887 25.6218 3.99181
38.0839 22.8407 3.98782
35.5823 20.0633 3.98191
37.5026 37.5074 3.93112
39.2411 37.4971 2
41.0228 37.4949 0.0570402
41.8904 53.0102 0.0153514
40.9886 49.7542 0.0041801
39.2315 39.1735 0.0646596
39.8218 46.096 0.0789475
37.4984 44.9279 0.0316354
37.5049 40.9268 0.0689385
35.6848 42.6865 0.0380484
39.83 51.927 2
37.5021 39.1963 2
35.7757 40.8992 2
38.7698 48.8139 2
34.0416 42.3804 2
35.4818 44.6645 2
37.5022 46.4216 2
37.6678 51.0009 3.97655
35.7762 39.1973 3.93132
34.1122 40.8377 3.96084
32.903 42.0146 3.97233
33.6966 43.9254 3.97141
35.1799 46.1087 3.92188
36.9025 48.4251 4.0238
38.7294 53.8681 0.0167637
36.7174 53.219 2
34.3485 52.4879 3.98247
34.4866 58.5376 0.0186219
36.3182 55.3977 0.0210701
33.2214 55.5175 2
30.4987 53.4178 3.98025
30.293 57.8308 0.0181598
28.6733 55.3229 2
26.8544 53.4629 3.97763
26.935 56.8377 0.0191595
25.2915 55.162 2
23.5436 53.5081 3.97729
20.4377 53.2572 3.97901
19.9159 55.8582 3.98322
21.7898 55.3716 2
23.8277 56.8245 0.0199481
19.4287 57.9136 3.98387
20.2064 57.0532 2
19.7014 60.2195 3.98448
20.6378 58.7995 2
21.3236 57.4213 0.0172437
20.2058 62.8681 3.98582
21.163 61.1842 2
21.9882 59.6393 0.0160594
20.9384 65.7699 3.98879
21.8944 63.8461 2
22.7341 62.0324 0.015988
23.6815 64.7178 0.0139516
22.8369 66.7409 2
21.9122 68.8743 3.99344
24.8086 67.5968 0.010425
24.0094 69.8073 2
23.1494 72.1454 4
26.1652 70.6059 0.00627225
25.446 73.0099 2
27.7943 73.7221 0
25.8594 9.37408 3.98667
27.0685 6.53803 3.98973
27.82 8.64566 2
28.4878 3.64272 3.99393
29.1535 5.8738 2
29.8101 7.98656 0.0125226
30.1841 0.720592 4
30.7254 3.09667 2
31.2516 5.32855 0.00965103
32.6053 0.320817 2
32.9802 2.69982 0.0056698
35.0474 0.080333 0
37.5036 35.8285 3.93177
39.2359 35.8314 2
40.9836 35.8176 0.0518364
24.7758 12.0626 3.98457
23.7492 14.3474 3.98331
28.5421 10.6841 0.0148357
26.6211 11.3794 2
29.2239 12.6314 2
27.2898 13.3646 3.98371
29.7784 14.1909 3.98311
35.7652 34.1482 3.93177
37.4943 34.1086 2
39.2283 34.1586 0.0682686
37.4802 32.2705 0.0326237
44.4564 29.6667 0.0109027
41.9217 29.8105 0.0739046
39.4945 30.3952 0.0284263
42.372 28.3452 2
39.8285 28.9412 2
37.4787 30.1354 2
35.6607 32.3575 2
40.0463 27.5382 4.00136
37.4874 28.646 3.91698
35.4567 30.3936 3.96671
34.0305 32.6634 3.96755
30.9234 16.8265 3.98219
31.9125 14.4689 2
34.091 12.9229 0.0168775
31.1849 11.9747 0.015874
43.1204 26.5322 0.0175176
40.9273 23.2757 0.0190023
33.6058 15.8629 0.0175788
35.8468 17.495 0.019009
38.4223 20.3109 0.0192333
33.5474 17.3726 2
35.5821 20.0639 2
40.4859 25.6296 2
38.084 22.8437 2
32.8595 19.7798 3.98029
37.7878 25.1364 4.0053
35.2037 22.6228 3.9776
35.768 37.517 3.9312
37.504 37.5075 2
39.2402 37.4974 0.0655802
39.8291 51.9276 0.0117417
38.7752 48.807 -0.0350837
37.5015 39.1933 0.0706925
37.5061 46.4092 0.0858435
35.4827 44.666 0.0297079
35.7753 40.8953 0.0751109
34.0495 42.3799 0.0323991
37.6688 51.009 2
35.7774 39.1992 2
34.1117 40.8385 2
36.8986 48.4306 2
32.8961 42.0159 2
33.6933 43.9228 2
35.1691 46.1119 2
35.4181 50.1556 3.98096
34.0372 39.2129 3.94377
32.5362 40.8904 3.97754
32.1725 42.7668 3.96211
33.0752 45.2399 3.9222
34.2818 47.5286 4.00055
36.7176 53.2204 0.0168245
34.3483 52.4884 2
31.9644 51.2124 3.97931
33.2213 55.5181 0.018532
30.4984 53.4198 2
28.3892 51.6442 3.97856
28.6737 55.3228 0.0210926
26.854 53.4642 2
25.0371 51.7991 3.975
25.2919 55.1617 0.0210148
23.543 53.5082 2
21.9238 51.8448 3.97747
19.1639 51.6691 3.97914
18.8986 54.3371 3.98101
20.4374 53.2568 2
18.4344 56.7473 3.98436
19.9155 55.8582 2
21.7903 55.3715 0.019828
18.3619 59.129 3.98408
19.4285 57.9138 2
20.2067 57.0531 0.0158696
18.6157 61.7772 3.98562
19.7013 60.2196 2
20.6379 58.7993 0.0159305
19.1269 64.6813 3.98852
20.2058 62.8684 2
21.163 61.184 0.01526
19.8863 67.8112 3.99318
20.9384 65.7702 2
21.8944 63.8458 0.0143587
22.837 66.7406 0.0107644
21.912 68.8745 2
20.9142 71.1327 4
24.0096 69.8071 0.00639266
23.1494 72.1455 2
25.446 73.0099 0
23.095 12.7774 3.98423
23.9721 10.1606 3.98623
25.0225 7.30797 3.98943
25.8594 9.3738 2
26.2796 4.32682 3.99368
27.0684 6.53773 2
27.8201 8.64595 0.0127852
27.7943 1.27781 4
28.4876 3.64251 2
29.1536 5.87416 0.00999842
30.1841 0.720551 2
30.7255 3.09689 0.00586745
32.6053 0.320823 0
35.773 35.8393 3.93292
37.5033 35.8259 2
39.2369 35.8339 0.0645542
24.7759 12.0626 2
23.7494 14.3475 2
22.4773 15.0239 3.98331
25.3558 13.8967 3.98349
24.0216 15.6094 3.98294
26.6211 11.3796 0.0150937
29.2238 12.6315 0.0161865
27.2899 13.3645 2
29.7785 14.1908 2
28.354 15.9655 3.98261
34.1062 34.2097 3.96084
35.7656 34.1446 2
37.4941 34.1135 0.0584643
35.6604 32.3624 0.0367008
37.477 30.1356 0.0344757
42.3645 28.3559 0.00783882
39.8174 28.9469 0.0788147
40.0476 27.5381 2
37.4866 28.634 2
35.4545 30.3905 2
34.0305 32.6607 2
37.6152 27.2383 4.00306
35.139 28.9416 3.92141
33.6698 31.1263 3.9737
32.8902 33.0357 3.9758
30.2028 19.3299 3.98322
30.9233 16.8269 2
31.9124 14.4689 0.0173497
40.4887 25.6218 0.00818764
38.0839 22.8407 0.0121804
33.5477 17.3718 0.0177127
35.5823 20.0633 0.0180898
32.8592 19.7812 2
35.2044 22.6233 2
37.7877 25.1439 2
32.3044 22.3961 3.98037
34.9357 25.1542 3.98458
33.9918 37.5229 3.94125
35.7699 37.5168 2
37.5026 37.5074 0.0688824
37.6678 51.0009 0.0234489
36.9025 48.4251 -0.0238007
35.7762 39.1973 0.0686819
35.1799 46.1087 0.078123
33.6966 43.9254 0.0285921
34.1122 40.8377 0.039165
32.903 42.0146 0.0276702
35.4184 50.1619 2
34.0383 39.2132 2
32.5334 40.8905 2
34.2743 47.5389 2
32.1634 42.7619 2
33.0631 45.2437 2
33.1727 49.1358 3.98191
32.2011 39.2901 3.98442
30.9691 41.2663 3.96875
31.2151 43.8522 3.92039
32.2177 46.4699 3.98354
34.3485 52.4879 0.0175264
31.9642 51.2163 2
29.7903 49.7378 3.97734
30.4987 53.4178 0.0197495
28.3887 51.6427 2
26.4447 50.0356 3.97404
26.8544 53.4629 0.0223721
25.0365 51.7974 2
23.2846 50.2398 3.97912
23.5436 53.5081 0.0227106
21.9235 51.8439 2
20.4178 50.3531 3.97947
17.9494 50.3615 3.9811
17.8052 52.8214 3.98045
19.164 51.6682 2
17.4199 55.3652 3.98283
18.8983 54.3369 2
20.4377 53.2572 0.0209949
17.126 57.8929 3.9848
18.4341 56.7474 2
19.9159 55.8582 0.0167825
17.132 60.5623 3.98517
18.3618 59.1292 2
19.4287 57.9136 0.0161312
17.4066 63.475 3.98825
18.6157 61.7774 2
19.7014 60.2195 0.0155186
17.9424 66.6199 3.99301
19.1269 64.6816 2
20.2058 62.8681 0.0141802
18.75 69.9759 4
19.8862 67.8113 2
20.9384 65.7699 0.0112092
21.9122 68.8743 0.00655515
20.9142 71.1327 2
23.1494 72.1454 0
21.5854 13.5976 3.98399
22.1901 11.0198 3.98569
23.0951 12.7774 2
23.0407 8.17317 3.9892
23.9721 10.1604 2
24.1172 5.14141 3.99351
25.0224 7.3077 2
25.8594 9.37408 0.0133281
25.446 1.99014 4
26.2794 4.32667 2
27.0685 6.53803 0.0102733
27.7943 1.27778 2
28.4878 3.64272 0.00607446
30.1841 0.720592 0
34.0323 35.8333 3.9454
35.773 35.8371 2
37.5036 35.8285 0.0682297
21.3016 15.819 3.9834
24.7758 12.0626 0.0154306
23.7492 14.3474 0.0166926
25.3559 13.8968 2
22.4775 15.0241 2
24.0219 15.6097 2
23.2602 16.2407 3.98278
25.377 16.0774 3.98294
27.2898 13.3646 0.0162897
29.7784 14.1909 0.0168886
28.3541 15.9656 2
27.4342 18.7879 3.98285
32.5397 34.1625 3.97918
34.1054 34.2081 2
35.7652 34.1482 0.0682321
34.0305 32.6634 0.0324483
35.4567 30.3936 0.0332939
37.4874 28.646 0.0830216
40.0463 27.5382 -0.00135695
37.6131 27.211 2
32.8899 33.037 2
35.1262 28.9337 2
33.6648 31.1237 2
35.0411 27.3437 4.00541
33.0247 29.8137 3.92594
32.1535 32.2793 3.96914
29.5646 21.9253 3.98697
30.203 19.3313 2
30.9234 16.8265 0.017814
37.7878 25.1364 -0.00529725
35.2037 22.6228 0.0223967
32.8595 19.7798 0.0197079
32.305 22.3985 2
34.9382 25.1646 2
31.6253 25.6127 3.98333
32.077 37.527 3.98688
33.9936 37.5223 2
35.768 37.517 0.0688039
35.4181 50.1556 0.0190413
34.2818 47.5286 -0.000552572
34.0372 39.2129 0.0562269
33.0752 45.2399 0.0777976
32.1725 42.7668 0.0378882
32.5362 40.8904 0.0224607
33.1732 49.1236 2
32.2004 39.2899 2
30.9597 41.2649 2
32.2008 46.4804 2
31.2091 43.8548 2
31.0399 47.8908 3.98163
30.1983 39.5241 3.9623
29.7572 42.0427 3.9205
30.3214 45.0551 3.98349
31.9644 51.2124 0.0206934
29.7904 49.7355 2
27.7793 48.2214 3.97601
28.3892 51.6442 0.0214399
26.4446 50.0331 2
24.5707 48.5177 3.98039
25.0371 51.7991 0.0249952
23.2845 50.2384 2
21.5882 48.8326 3.98173
21.9238 51.8448 0.0225295
20.418 50.3517 2
18.9848 49.1263 3.98301
16.8566 49.3594 3.98339
16.7433 51.4351 3.98117
17.9498 50.3607 2
16.3686 53.8956 3.98191
17.8052 52.8209 2
19.1639 51.6691 0.0208562
15.9652 56.4959 3.98421
17.4196 55.3652 2
18.8986 54.3371 0.0189867
15.7443 59.2246 3.98536
17.1257 57.8931 2
18.4344 56.7473 0.0156353
15.7864 62.1467 3.98778
17.132 60.5626 2
18.3619 59.129 0.0159198
16.0888 65.3028 3.99292
17.4066 63.4753 2
18.6157 61.7772 0.0143842
16.6661 68.6801 4
17.9423 66.62 2
19.1269 64.6813 0.0114829
18.75 69.9759 2
19.8863 67.8112 0.00682395
20.9142 71.1327 0
20.2166 14.5859 3.98383
21.5855 13.5977 2
20.5291 11.9897 3.98526
21.1439 9.1427 3.98888
22.1901 11.0197 2
23.095 12.7774 0.0157669
22.0164 6.08031 3.99333
23.0406 8.17294 2
23.9721 10.1606 0.0137683
23.1494 2.85457 4
24.117 5.14129 2
25.0225 7.30797 0.0105666
25.446 1.99012 2
26.2796 4.32682 0.00631649
27.7943 1.27781 0
32.2054 35.7625 3.98346
34.0321 35.8322 2
35.773 35.8393 0.0670759
21.3019 15.8192 2
20.2975 16.9512 3.98433
22.0928 16.6245 3.98313
25.3558 13.8967 0.0165102
22.4773 15.0239 0.0166873
24.0216 15.6094 0.0170621
25.3772 16.0778 2
23.2606 16.2412 2
24.1983 18.4397 3.98187
27.0002 21.4478 3.98082
28.354 15.9655 0.0173925
27.4347 18.7886 2
30.9755 33.7858 3.96458
32.5355 34.1633 2
34.1062 34.2097 0.0391617
32.8902 33.0357 0.0241952
33.6698 31.1263 0.0263023
35.139 28.9416 0.0785904
37.6152 27.2383 -0.00306175
35.0317 27.3339 2
32.1551 32.2837 2
33.025 29.809 2
32.4575 28.0621 4.00936
31.1792 31.2023 3.92644
28.7464 24.3893 3.98689
29.565 21.9286 2
30.2028 19.3299 0.0167766
34.9357 25.1542 0.0154229
32.3044 22.3961 0.019629
31.627 25.6031 2
29.5501 27.2914 3.98076
29.9293 37.5266 3.95846
32.0772 37.5272 2
33.9918 37.5229 0.0587522
33.1727 49.1358 0.0180943
32.2177 46.4699 0.0164621
32.2011 39.2901 0.0155808
31.2151 43.8522 0.0796073
30.9691 41.2663 0.0312532
31.0429 47.8826 2
30.1936 39.5237 2
29.7526 42.0467 2
30.3065 45.063 2
29.0456 46.4571 3.9733
28.8148 39.9227 3.91468
28.5087 43.2695 3.99027
29.7903 49.7378 0.0226593
27.78 48.2178 2
25.8327 46.7007 3.98069
26.4447 50.0356 0.0259646
24.5712 48.5158 2
22.7174 47.1282 3.98779
23.2846 50.2398 0.0208843
21.589 48.8306 2
19.9247 47.6553 3.98598
20.4178 50.3531 0.0205292
18.9854 49.1252 2
17.6279 48.2075 3.98476
16.1081 48.7087 3.98484
16.857 49.3589 2
15.8201 50.1956 3.98258
15.3559 52.4394 3.98185
16.7435 51.4346 2
17.9494 50.3615 0.0189011
14.8546 54.9975 3.9832
16.3684 53.8954 2
17.8052 52.8214 0.0195452
14.4524 57.7544 3.98524
15.9649 56.496 2
17.4199 55.3652 0.017173
14.2639 60.702 3.98734
15.7442 59.2249 2
17.126 57.8929 0.0151961
14.3328 63.8623 3.99276
15.7864 62.1471 2
17.132 60.5623 0.0148281
14.6715 67.2507 4
16.0887 65.3029 2
17.4066 63.475 0.0117511
16.6661 68.6801 2
17.9424 66.6199 0.00699198
18.75 69.9759 0
18.9292 15.7713 3.98423
20.2168 14.5859 2
18.9783 13.1001 3.98501
21.5854 13.5976 0.0160069
20.5293 11.9897 2
19.3433 10.2304 3.98831
19.991 7.14486 3.9932
21.1438 9.14252 2
22.1901 11.0198 0.0143137
20.9142 3.86727 4
22.0161 6.08024 2
23.0407 8.17317 0.0107974
23.1494 2.85451 2
24.1172 5.14141 0.00649373
25.446 1.99014 0
30.211 35.532 3.96535
32.2033 35.7624 2
34.0323 35.8333 0.0546012
21.3016 15.819 0.0165974
22.0932 16.6246 2
20.2978 16.9513 2
19.235 18.3963 3.9841
21.7759 17.8391 3.98344
25.377 16.0774 0.0170555
23.2602 16.2407 0.0172217
24.1989 18.4406 2
22.2667 19.8791 3.9828
24.5759 21.3097 3.9827
26.3753 23.7133 3.98317
27.0017 21.4495 2
27.4342 18.7879 0.0171451
29.7532 33.0072 3.92341
30.9661 33.7858 2
32.5397 34.1625 0.0208225
32.1535 32.2793 0.0308586
33.0247 29.8137 0.0740586
35.0411 27.3437 -0.00541456
32.4433 28.0581 2
31.1882 31.2076 2
29.9907 29.4991 4.00199
27.7955 26.5403 3.96974
28.7472 24.397 2
29.5646 21.9253 0.0130283
31.6253 25.6127 0.0166659
29.5442 27.2389 2
28.4849 37.5224 3.91913
29.9247 37.5278 2
32.077 37.527 0.0131185
31.0399 47.8908 0.0183714
30.3214 45.0551 0.0165058
30.1983 39.5241 0.0376981
29.7572 42.0427 0.0795005
29.0493 46.4545 2
28.8113 39.923 2
28.499 43.2727 2
27.1143 44.82 3.9695
26.5945 40.6636 4.00728
27.7793 48.2214 0.0239946
25.8345 46.6983 2
23.8605 45.2589 3.98431
24.5707 48.5177 0.0196059
22.7187 47.1254 2
20.8482 45.9377 3.98762
21.5882 48.8326 0.0182669
19.9257 47.654 2
18.2692 46.7677 3.9862
18.9848 49.1263 0.016991
17.6285 48.2069 2
16.2963 47.7384 3.9846
16.1086 48.7083 2
15.166 49.0385 3.98366
16.8566 49.3594 0.0166113
15.8204 50.1951 2
14.4687 51.0063 3.98236
13.8149 53.4531 3.98272
15.356 52.439 2
16.7433 51.4351 0.0188349
13.246 56.1825 3.98458
14.8544 54.9974 2
16.3686 53.8956 0.0180854
12.8457 59.136 3.9871
14.4522 57.7546 2
15.9652 56.4959 0.0157914
12.6779 62.3051 3.99237
14.2639 60.7023 2
15.7443 59.2246 0.014637
12.7746 65.6939 4
14.3326 63.8624 2
15.7864 62.1467 0.0122195
14.6714 67.2507 2
16.0888 65.3028 0.00708037
16.6661 68.6801 0
17.6623 17.1453 3.98424
18.9294 15.7713 2
17.5089 14.363 3.98507
20.2166 14.5859 0.016165
18.9785 13.1 2
17.6386 11.449 3.98774
20.5291 11.9897 0.0147446
19.3433 10.2303 2
18.0513 8.33762 3.99293
18.75 5.0241 4
19.9908 7.14484 2
21.1439 9.1427 0.011124
20.9142 3.86727 2
22.0164 6.08031 0.0066678
23.1494 2.85457 0
28.8199 35.1253 3.92153
30.2063 35.5354 2
32.2054 35.7625 0.0165404
22.0928 16.6245 0.0168697
20.2975 16.9512 0.015672
21.7764 17.8391 2
19.2353 18.3963 2
17.9681 19.9264 3.98407
20.8663 19.3647 3.98389
24.1983 18.4397 0.0181297
22.2676 19.879 2
24.5774 21.311 2
22.3385 21.7027 3.98364
24.6615 23.155 3.98295
25.3884 25.9416 3.9748
26.377 23.714 2
27.0002 21.4478 0.0191846
28.1455 32.274 3.98833
29.7491 33.0073 2
30.9755 33.7858 0.0354227
31.1792 31.2023 0.0735609
32.4575 28.0621 -0.00936361
29.963 29.5013 2
26.8898 29.1395 3.97388
27.7903 26.5403 2
28.7464 24.3893 0.0131118
29.5501 27.2914 0.0192358
26.7143 37.3706 3.99185
28.4822 37.5208 2
29.9293 37.5266 0.041541
29.0456 46.4571 0.0267015
28.5087 43.2695 0.00972707
28.8148 39.9227 0.0853245
27.119 44.8188 2
26.596 40.6645 2
25.0819 43.214 3.97313
23.8417 39.4438 3.96848
25.8327 46.7007 0.019308
23.8627 45.2582 2
21.8176 43.9903 3.98542
22.7174 47.1282 0.0122068
20.8499 45.9365 2
18.9246 45.0004 3.98389
19.9247 47.6553 0.0140199
18.2701 46.7673 2
16.5837 46.2367 3.98326
17.6279 48.2075 0.0152414
16.2969 47.7381 2
14.8942 47.6916 3.98337
16.1081 48.7087 0.015165
15.1664 49.0382 2
13.7658 49.5654 3.98282
15.8201 50.1956 0.0174196
14.4688 51.006 2
12.8808 51.8907 3.98265
12.1325 54.5405 3.98401
13.8149 53.4529 2
15.3559 52.4394 0.0181527
11.5295 57.4682 3.9866
13.2459 56.1825 2
14.8546 54.9975 0.0168029
11.1324 60.6316 3.99203
12.8456 59.1363 2
14.4524 57.7544 0.0147609
10.9835 64.0165 4
12.6778 62.3052 2
14.2639 60.702 0.0126608
12.7745 65.694 2
14.3328 63.8623 0.00724348
14.6715 67.2507 0
16.3931 18.6375 3.98443
17.6625 17.1452 2
16.099 15.7709 3.9851
18.9292 15.7713 0.0157699
17.509 14.3628 2
16.0198 12.8017 3.98735
18.9783 13.1001 0.0149917
17.6387 11.4488 2
16.2024 9.66052 3.99266
19.3433 10.2304 0.0116883
18.0511 8.33763 2
16.6661 6.31991 4
18.75 5.02404 2
19.991 7.14486 0.00679836
20.9142 3.86727 0
27.2199 34.7437 3.98511
28.8153 35.1244 2
30.211 35.532 0.0346499
16.6651 21.3598 3.98271
21.7759 17.8391 0.0165605
19.235 18.3963 0.0158973
20.8668 19.3645 2
17.9685 19.9265 2
19.7063 21.5552 3.98548
22.2667 19.8791 0.0171961
24.5759 21.3097 0.0173011
22.3397 21.7017 2
24.6621 23.1556 2
22.8003 24.5868 3.97881
24.4417 28.5181 3.9741
25.3851 25.9399 2
26.3753 23.7133 0.0168257
25.9828 31.7144 3.9781
28.1366 32.2728 2
29.7532 33.0072 0.0765853
29.9907 29.4991 -0.00199262
26.8961 29.1407 2
27.7955 26.5403 0.0302629
24.5282 36.8774 3.97904
26.7156 37.3742 2
28.4849 37.5224 0.0808741
27.1143 44.82 0.0305
26.5945 40.6636 -0.00728021
25.084 43.2151 2
23.8431 39.4447 2
22.862 41.8294 3.98031
21.5993 38.5087 3.97905
23.8605 45.2589 0.0156882
21.8195 43.9914 2
19.6706 42.9144 3.98047
20.8482 45.9377 0.0123844
18.926 45.0004 2
16.9095 44.402 3.98106
18.2692 46.7677 0.0137972
16.5845 46.2365 2
14.8132 46.1102 3.98172
16.2963 47.7384 0.0154022
14.8946 47.6914 2
13.2719 48.0261 3.98237
15.166 49.0385 0.0163352
13.7661 49.5652 2
12.0993 50.2675 3.98266
14.4687 51.0063 0.0176398
12.8809 51.8905 2
11.1274 52.8483 3.98361
10.3194 55.7195 3.98608
12.1324 54.5405 2
13.8149 53.4531 0.0172823
9.69903 58.8546 3.99135
11.5294 57.4683 2
13.246 56.1825 0.0154182
9.30605 62.2254 4
11.1324 60.6317 2
12.8457 59.136 0.0129032
10.9835 64.0165 2
12.6779 62.3051 0.00763352
12.7746 65.6939 0
15.1358 20.1703 3.98365
16.3934 18.6374 2
14.7436 17.2926 3.98486
17.6623 17.1453 0.0157566
16.0991 15.7707 2
14.4816 14.2826 3.98707
17.5089 14.363 0.0149257
16.0198 12.8014 2
14.4449 11.1114 3.99243
17.6386 11.449 0.0122638
16.2022 9.66052 2
14.6715 7.74927 4
18.0513 8.33762 0.00706612
16.6661 6.31988 2
18.75 5.0241 0
25.1654 34.2842 3.98493
27.2198 34.7466 2
28.8199 35.1253 0.0784692
17.8344 22.3046 3.98606
15.5071 22.9024 3.98144
16.6653 21.3596 2
20.8663 19.3647 0.0161133
17.9681 19.9264 0.0159256
19.7071 21.5548 2
19.6267 24.3605 3.98187
22.3385 21.7027 0.0163643
24.6615 23.155 0.0170549
22.7983 24.5851 2
21.8306 27.8075 3.9755
23.6066 31.1794 3.9745
24.445 28.5215 2
25.3884 25.9416 0.0251991
25.9851 31.7122 2
28.1455 32.274 0.0116681
26.8898 29.1395 0.0261165
22.3093 36.2726 3.9842
24.5301 36.8779 2
26.7143 37.3706 0.00814834
25.0819 43.214 0.0268735
23.8417 39.4438 0.031521
22.8632 41.8301 2
21.6005 38.5089 2
20.5867 40.6475 3.97888
19.965 37.7863 3.9818
21.8176 43.9903 0.014576
19.672 42.9145 2
17.3009 42.1183 3.97918
18.9246 45.0004 0.0161147
16.9106 44.4021 2
14.8127 44.2177 3.97957
16.5837 46.2367 0.0167426
14.8138 46.11 2
12.9431 46.3111 3.98086
14.8942 47.6916 0.0166322
13.2722 48.026 2
11.4701 48.5629 3.98215
13.7658 49.5654 0.0171837
12.0994 50.2674 2
10.2528 51.0904 3.98329
12.8808 51.8907 0.0173527
11.1274 52.8482 2
9.22787 53.8966 3.98567
8.38257 56.9875 3.99044
10.3193 55.7196 2
12.1325 54.5405 0.0159948
7.74927 60.3285 4
9.69895 58.8547 2
11.5295 57.4682 0.0133961
9.306 62.2255 2
11.1324 60.6316 0.00797419
10.9835 64.0165 0
13.946 21.7362 3.98283
15.136 20.1701 2
13.4431 18.8886 3.98456
16.3931 18.6375 0.0155662
14.7438 17.2924 2
13.0265 15.8746 3.98674
16.099 15.7709 0.0148954
14.4817 14.2823 2
12.782 12.6844 3.99216
16.0198 12.8017 0.0126541
14.4448 11.1114 2
12.7746 9.30605 4
16.2024 9.66052 0.00734153
14.6715 7.74924 2
16.6661 6.31991 0
22.9022 33.7942 3.9837
25.1654 34.284 2
27.2199 34.7437 0.0148893
17.597 24.0233 3.98268
17.8345 22.3042 2
14.2876 24.4346 3.98017
15.5066 22.9017 2
16.6651 21.3598 0.017295
18.9744 27.1832 3.97534
19.7063 21.5552 0.0145246
19.6253 24.3608 2
21.0607 30.649 3.97659
22.8003 24.5868 0.0211937
21.833 27.8089 2
23.6083 31.1802 2
24.4417 28.5181 0.025904
25.9828 31.7144 0.0219012
20.0793 35.9189 3.98358
22.3106 36.2734 2
24.5282 36.8774 0.0209574
22.862 41.8294 0.0196942
21.5993 38.5087 0.0209485
20.5878 40.6476 2
19.9659 37.7867 2
17.9664 39.0094 3.98011
19.6706 42.9144 0.0195316
17.302 42.1186 2
14.7575 41.9313 3.97866
16.9095 44.402 0.0189352
14.8136 44.2177 2
12.6821 44.405 3.97935
14.8132 46.1102 0.0182785
12.9436 46.311 2
10.9715 46.7449 3.98091
13.2719 48.0261 0.0176302
11.4703 48.5628 2
9.5158 49.2487 3.98273
12.0993 50.2675 0.0173434
10.2528 51.0904 2
8.2606 52.0083 3.98525
11.1274 52.8483 0.0163882
9.22777 53.8966 2
7.19145 55.0373 3.98967
6.31991 58.3339 4
8.38248 56.9876 2
10.3194 55.7195 0.0139161
7.74924 60.3285 2
9.69903 58.8546 0.00864503
9.30605 62.2254 0
13.2083 25.3494 3.98371
12.8116 23.2658 3.98192
13.9457 21.7356 2
12.2272 20.5374 3.98423
15.1358 20.1703 0.0163451
13.4433 18.8884 2
11.6556 17.5551 3.98656
14.7436 17.2926 0.0151435
13.0266 15.8743 2
11.2192 14.3689 3.99177
14.4816 14.2826 0.0129329
12.7819 12.6844 2
10.9835 10.9835 4
14.4449 11.1114 0.00757126
12.7745 9.306 2
14.6715 7.74927 0
20.4683 33.384 3.98122
22.9024 33.7943 2
25.1654 34.2842 0.015072
15.8658 26.3847 3.97821
17.5961 24.0228 2
17.8344 22.3046 0.0139423
14.2876 24.435 2
15.5071 22.9024 0.0185617
18.3092 30.1576 3.97606
18.9761 27.1842 2
19.6267 24.3605 0.0181285
21.062 30.6491 2
21.8306 27.8075 0.0245048
23.6066 31.1794 0.0255033
17.5881 35.962 3.98274
20.0803 35.9192 2
22.3093 36.2726 0.0157954
20.5867 40.6475 0.0211173
19.965 37.7863 0.0182029
17.9671 39.0097 2
14.2603 39.1833 3.98034
17.3009 42.1183 0.0208209
14.7583 41.9315 2
12.368 42.2871 3.97921
14.8127 44.2177 0.0204304
12.6828 44.4051 2
10.5481 44.812 3.97994
12.9431 46.3111 0.0191364
10.9718 46.745 2
8.89824 47.3264 3.98172
11.4701 48.5629 0.0178475
9.51585 49.2488 2
7.42747 50.0403 3.98461
10.2528 51.0904 0.0167146
8.26052 52.0083 2
6.13185 53.011 3.98914
9.22787 53.8966 0.0143349
7.19134 55.0372 2
5.0241 56.25 4
6.31988 58.3339 2
8.38257 56.9875 0.00955649
7.74927 60.3285 0
13.4427 26.8019 3.97946
11.9246 24.7763 3.98125
13.2086 25.3495 2
11.1292 22.2228 3.98342
12.8116 23.2658 2
13.946 21.7362 0.0171709
12.2271 20.5369 2
10.385 19.3101 3.98643
13.4431 18.8886 0.0154417
11.6557 17.5549 2
9.75997 16.1518 3.99126
13.0265 15.8746 0.013259
11.2192 14.3689 2
9.30607 12.7746 4
12.782 12.6844 0.00783719
10.9835 10.9835 2
12.7746 9.30605 0
17.7718 33.1018 3.97933
20.4686 33.384 2
22.9022 33.7942 0.0162963
15.4498 29.6247 3.97759
15.8668 26.3855 2
17.597 24.0233 0.0173246
14.2876 24.4346 0.0198266
18.3101 30.1577 2
18.9744 27.1832 0.0246562
21.0607 30.649 0.0234142
14.8508 36.0178 3.98119
17.589 35.9623 2
20.0793 35.9189 0.0164177
12.5607 37.8328 3.97994
17.9664 39.0094 0.0198893
14.2608 39.1836 2
11.88 40.1485 3.98036
14.7575 41.9313 0.0213436
12.3685 42.2873 2
10.1467 42.7857 3.97948
12.6821 44.405 0.0206465
10.5485 44.8121 2
8.37605 45.3271 3.981
10.9715 46.7449 0.019086
8.89837 47.3265 2
6.71888 48.0043 3.98369
9.5158 49.2487 0.0172726
7.42742 50.0403 2
5.20845 50.9128 3.98878
8.2606 52.0083 0.014748
6.13173 53.0108 2
3.86727 54.0858 4
7.19145 55.0373 0.0103264
5.02404 56.25 2
6.31991 58.3339 0
12.8966 29.0236 3.97705
11.3538 26.4781 3.98045
13.4433 26.8017 2
10.1882 23.9586 3.98216
11.9247 24.7763 2
13.2083 25.3494 0.0162886
9.23664 21.13 3.98573
11.1291 22.2226 2
12.8116 23.2658 0.0180829
12.2272 20.5374 0.0157731
10.385 19.3096 2
8.41572 18.0226 3.99061
11.6556 17.5551 0.0134379
9.76 16.1516 2
7.74928 14.6715 4
11.2192 14.3689 0.00822635
9.30602 12.7745 2
10.9835 10.9835 0
14.44 32.8553 3.97912
17.7722 33.1019 2
20.4683 33.384 0.0187795
15.4503 29.6247 2
15.8658 26.3847 0.0217913
18.3092 30.1576 0.0239449
12.8481 36.2092 3.9797
14.8515 36.018 2
17.5881 35.962 0.0172578
12.5613 37.8329 2
11.2384 38.3144 3.97944
14.2603 39.1833 0.0196646
11.8805 40.1488 2
9.73175 40.7604 3.98018
12.368 42.2871 0.0207949
10.1471 42.7859 2
7.92508 43.2749 3.98056
10.5481 44.812 0.0200579
8.37632 45.3272 2
6.12514 45.9085 3.98306
8.89824 47.3264 0.0182817
6.71888 48.0043 2
4.41997 48.7524 3.98856
7.42747 50.0403 0.0153882
5.20833 50.9124 2
2.85457 51.8506 4
6.13185 53.011 0.0108565
3.86727 54.0858 2
5.0241 56.25 0
12.037 31.2496 3.97939
10.7659 28.4078 3.97893
12.897 29.0233 2
9.40289 25.791 3.98143
11.3541 26.478 2
13.4427 26.8019 0.0205444
8.22372 23.017 3.98444
10.1882 23.9584 2
11.9246 24.7763 0.018752
7.19766 19.9731 3.98975
9.23656 21.1297 2
11.1292 22.2228 0.016576
10.385 19.3101 0.0135671
8.41566 18.0224 2
6.31992 16.6661 4
9.75997 16.1518 0.00873926
7.74926 14.6714 2
9.30607 12.7746 0
12.0535 34.2917 3.9789
14.4403 32.8553 2
17.7718 33.1018 0.0206692
15.4498 29.6247 0.0224136
10.8033 36.6123 3.97886
12.8488 36.2093 2
14.8508 36.0178 0.0188061
12.5607 37.8328 0.0200622
11.2389 38.3145 2
9.32716 38.8277 3.97997
11.88 40.1485 0.0196396
9.7321 40.7607 2
7.53643 41.2152 3.98065
10.1467 42.7857 0.0205177
7.92533 43.2751 2
5.63713 43.7706 3.98299
8.37605 45.3271 0.0190037
6.12526 45.9083 2
3.76568 46.5377 3.98848
6.71888 48.0043 0.016306
4.41987 48.7518 2
1.99014 49.554 4
5.20845 50.9128 0.0112196
2.85451 51.8506 2
3.86727 54.0858 0
10.901 32.9149 3.97975
10.0788 30.3767 3.9795
12.0373 31.2493 2
8.71094 27.7268 3.98055
10.7661 28.4075 2
12.8966 29.0236 0.0229478
7.34918 24.978 3.98367
9.40307 25.7909 2
11.3538 26.4781 0.0195489
6.11447 21.9982 3.98873
8.22362 23.0168 2
10.1882 23.9586 0.0178425
5.02411 18.75 4
7.19754 19.9731 2
9.23664 21.13 0.0142711
8.41572 18.0226 0.00938574
6.3199 16.6661 2
7.74928 14.6715 0
10.4157 34.999 3.97954
12.0539 34.2918 2
14.44 32.8553 0.0208826
9.00111 36.9867 3.97872
10.8039 36.6123 2
12.8481 36.2092 0.020302
11.2384 38.3144 0.0205579
9.32755 38.8279 2
7.21751 39.1847 3.98063
9.73175 40.7604 0.0198232
7.53668 41.2154 2
5.25267 41.6158 3.98283
7.92508 43.2749 0.0194418
5.63724 43.7706 2
3.24348 44.2825 3.98847
6.12514 45.9085 0.0169375
3.76565 46.537 2
1.27781 47.2057 4
4.41997 48.7524 0.0114425
1.99012 49.554 2
2.85457 51.8506 0
10.0693 33.8791 3.97965
9.37246 32.1508 3.98
10.9013 32.9147 2
8.06035 29.6919 3.98042
10.079 30.3765 2
12.037 31.2496 0.0206058
6.59292 27.0055 3.983
8.71107 27.7265 2
10.7659 28.4078 0.0210671
5.16956 24.0928 3.98821
7.34921 24.9778 2
9.40289 25.791 0.0185742
3.86728 20.9142 4
6.11429 21.9985 2
8.22372 23.017 0.015561
5.02406 18.75 2
7.19766 19.9731 0.0102502
6.31992 16.6661 0
8.82785 35.2792 3.97947
10.4161 34.999 2
12.0535 34.2917 0.0210985
7.00267 37.2072 3.97966
9.00163 36.9868 2
10.8033 36.6123 0.0211412
9.32716 38.8277 0.0200296
7.21785 39.1849 2
4.98087 39.4686 3.98254
7.53643 41.2152 0.019346
5.25281 41.6158 2
2.85413 42.0028 3.98824
5.63713 43.7706 0.0170082
3.24346 44.2818 2
0.720592 44.8159 4
3.76568 46.5377 0.0115189
1.27778 47.2057 2
1.99014 49.554 0
8.86958 33.6958 3.97991
10.0697 33.879 2
7.49815 31.6068 3.98065
9.37272 32.1506 2
10.901 32.9149 0.020247
5.93827 29.0678 3.98266
8.06049 29.6917 2
10.0788 30.3767 0.0205031
4.35711 26.2469 3.98811
6.59296 27.0054 2
8.71094 27.7268 0.019449
2.85458 23.1494 4
5.16942 24.0935 2
7.34918 24.978 0.0163334
3.86728 20.9142 2
6.11447 21.9982 0.0112686
5.02411 18.75 0
6.95321 35.3062 3.97985
8.82827 35.2792 2
10.4157 34.999 0.0204648
4.83169 37.3406 3.98206
7.00313 37.2073 2
9.00111 36.9867 0.0212815
7.21751 39.1847 0.0193706
4.98111 39.4687 2
2.60239 39.7144 3.98787
5.25267 41.6158 0.0171682
2.85415 42.0022 2
0.320823 42.3947 4
3.24348 44.2825 0.0115314
0.720551 44.8159 2
1.27781 47.2057 0
7.11265 33.4598 3.98043
8.86991 33.6957 2
10.0693 33.8791 0.0203537
5.40933 31.1326 3.9827
7.49834 31.6067 2
9.37246 32.1508 0.0199957
3.67891 28.4436 3.98824
5.93834 29.0678 2
8.06035 29.6919 0.0195765
1.99015 25.446 4
4.35698 26.2477 2
6.59292 27.0055 0.0170004
2.85453 23.1494 2
5.16956 24.0928 0.0117944
3.86728 20.9142 0
4.84617 35.2519 3.98208
6.9536 35.3062 2
8.82785 35.2792 0.0205344
2.49399 37.4289 3.98787
4.83206 37.3407 2
7.00267 37.2072 0.0203383
4.98087 39.4686 0.0174575
2.60249 39.7139 2
0.080333 39.9526 4
2.85413 42.0028 0.0117603
0.320817 42.3947 2
0.720592 44.8159 0
5.0392 33.19 3.98255
7.11294 33.4598 2
8.86958 33.6958 0.0200851
3.14338 30.6665 3.98834
5.40945 31.1328 2
7.49815 31.6068 0.0193453
1.27793 27.7943 4
3.67885 28.4446 2
5.93827 29.0678 0.0173379
1.99013 25.446 2
4.35711 26.2469 0.0118914
2.85458 23.1494 0
2.54619 35.1593 3.98792
4.8465 35.2521 2
6.95321 35.3062 0.0201536
0 37.5 4
2.49417 37.4287 2
4.83169 37.3406 0.0179423
2.60239 39.7144 0.0121326
0.0802903 39.9526 2
0.320823 42.3947 0
2.76364 32.9061 3.98815
5.03942 33.1903 2
7.11265 33.4598 0.0195706
0.721173 30.1842 4
3.14338 30.6674 2
5.40933 31.1326 0.0172955
1.27779 27.7943 2
3.67891 28.4436 0.011763
1.99015 25.446 0
0.0806499 35.0474 4
2.54634 35.1597 2
4.84617 35.2519 0.017915
0 37.5 2
2.49399 37.4289 0.0121264
0.080333 39.9526 0
0.32156 32.6054 4
2.76372 32.9068 2
5.0392 33.19 0.0174495
0.72056 30.1841 2
3.14338 30.6665 0.011663
1.27793 27.7943 0
0.0802889 35.0474 2
2.54619 35.1593 0.0120757
0 37.5 0
0.320817 32.6053 2
2.76364 32.9061 0.0118531
0.721173 30.1842 0
0.0806499 35.0474 0
0.32156 32.6054 0
CELLS 1910 17190
8 18 6 25 56 2 0 5 16
8 57 23 6 18 17 4 0 2
8 78 36 9 29 31 11 1 7
8 31 11 1 7 79 37 10 30
8 110 57 18 50 48 17 2 14
8 50 18 56 111 14 2 16 49
8 116 62 22 55 52 20 3 15
8 56 25 67 118 16 5 24 53
8 119 63 23 57 54 21 4 17
8 55 22 63 119 15 3 21 54
8 58 26 68 121 18 6 25 56
8 122 65 26 58 57 23 6 18
8 73 31 7 27 142 79 30 71
8 143 78 29 72 73 31 7 27
8 83 147 76 34 32 74 28 8
8 84 148 78 36 33 75 29 9
8 76 34 8 28 148 84 33 75
8 37 79 150 86 10 30 77 35
8 151 87 36 78 80 38 11 31
8 80 38 11 31 152 88 37 79
8 175 100 42 94 96 44 12 40
8 44 96 176 101 12 40 95 43
8 101 176 98 46 43 95 41 13
8 46 98 178 103 13 41 97 45
8 178 103 45 97 147 83 32 74
8 189 116 55 109 106 52 15 47
8 111 56 118 191 49 16 53 107
8 192 119 57 110 108 54 17 48
8 109 55 119 192 47 15 54 108
8 194 122 58 112 110 57 18 50
8 112 58 121 195 50 18 56 111
8 115 61 19 51 197 124 59 113
8 115 61 125 198 51 19 60 114
8 198 125 62 116 114 60 20 52
8 200 127 64 120 116 62 22 55
8 118 67 132 202 53 24 66 117
8 121 68 133 203 56 25 67 118
8 120 64 128 204 55 22 63 119
8 204 128 65 122 119 63 23 57
8 206 134 68 121 123 69 26 58
8 123 69 26 58 207 131 65 122
8 226 147 74 138 140 76 28 70
8 229 148 75 139 143 78 29 72
8 140 76 28 70 229 148 75 139
8 142 79 30 71 231 150 77 141
8 144 80 31 73 232 152 79 142
8 233 151 78 143 144 80 31 73
8 150 86 35 77 235 154 81 145
8 235 154 81 145 146 82 39 91
8 146 82 39 91 236 155 90 165
8 238 157 83 147 149 85 34 76
8 239 158 84 148 151 87 36 78
8 149 85 34 76 239 158 84 148
8 152 88 37 79 241 160 86 150
8 242 161 87 151 153 89 38 80
8 153 89 38 80 243 162 88 152
8 171 98 41 92 265 178 97 169
8 265 178 97 169 226 147 74 138
8 172 96 40 93 266 176 95 170
8 266 176 95 170 171 98 41 92
8 269 175 94 173 172 96 40 93
8 271 180 99 174 175 100 42 94
8 197 124 59 113 271 180 99 174
8 272 181 100 175 177 102 44 96
8 273 182 101 176 179 104 46 98
8 177 102 44 96 273 182 101 176
8 179 104 46 98 275 184 103 178
8 275 184 103 178 238 157 83 147
8 188 115 51 105 283 197 113 186
8 188 115 198 284 105 51 114 187
8 284 198 116 189 187 114 52 106
8 286 200 120 193 189 116 55 109
8 191 118 202 288 107 53 117 190
8 195 121 203 289 111 56 118 191
8 193 120 204 290 109 55 119 192
8 290 204 122 194 192 119 57 110
8 196 123 58 112 292 207 122 194
8 293 206 121 195 196 123 58 112
8 199 126 61 115 297 211 124 197
8 298 212 127 200 198 125 62 116
8 199 126 212 298 115 61 125 198
8 205 129 64 120 300 214 127 200
8 301 217 130 201 202 132 66 117
8 209 136 168 264 301 217 130 201
8 302 219 132 202 203 133 67 118
8 303 220 133 203 206 134 68 121
8 205 129 215 304 120 64 128 204
8 304 215 131 207 204 128 65 122
8 306 221 134 206 208 135 69 123
8 208 135 69 123 307 218 131 207
8 210 137 167 263 309 223 136 209
8 328 238 147 226 230 149 76 140
8 228 146 91 166 329 236 165 260
8 231 150 77 141 330 235 145 227
8 330 235 145 227 228 146 91 166
8 332 239 148 229 233 151 78 143
8 230 149 76 140 332 239 148 229
8 232 152 79 142 334 241 150 231
8 234 153 80 144 335 243 152 232
8 336 242 151 233 234 153 80 144
8 236 155 90 165 338 245 164 259
8 241 160 86 150 339 246 154 235
8 339 246 154 235 237 156 82 146
8 237 156 82 146 340 247 155 236
8 342 249 157 238 240 159 85 149
8 343 250 158 239 242 161 87 151
8 240 159 85 149 343 250 158 239
8 243 162 88 152 345 252 160 241
8 244 163 253 346 153 89 161 242
8 244 163 89 153 347 254 162 243
8 311 224 261 371 210 137 167 263
8 263 167 262 372 209 136 168 264
8 267 179 98 171 375 275 178 265
8 375 275 178 265 328 238 147 226
8 376 273 176 266 267 179 98 171
8 268 177 96 172 376 273 176 266
8 379 272 175 269 268 177 96 172
8 380 271 174 270 269 175 94 173
8 283 197 113 186 380 271 174 270
8 381 277 180 271 272 181 100 175
8 297 211 124 197 381 277 180 271
8 382 278 181 272 274 183 102 177
8 274 183 102 177 383 279 182 273
8 383 279 182 273 276 185 104 179
8 385 281 184 275 342 249 157 238
8 276 185 104 179 385 281 184 275
8 285 199 115 188 393 297 197 283
8 394 298 200 286 284 198 116 189
8 285 199 298 394 188 115 198 284
8 291 205 120 193 396 300 200 286
8 397 301 201 287 288 202 117 190
8 295 209 264 374 397 301 201 287
8 398 302 202 288 289 203 118 191
8 399 303 203 289 293 206 121 195
8 291 205 304 400 193 120 204 290
8 400 304 207 292 290 204 122 194
8 294 208 123 196 402 307 207 292
8 403 306 206 293 294 208 123 196
8 296 210 263 373 405 309 209 295
8 408 312 213 299 297 211 126 199
8 299 213 313 409 199 126 212 298
8 409 313 214 300 298 212 127 200
8 305 216 129 205 411 315 214 300
8 412 318 217 301 302 219 132 202
8 309 223 136 209 412 318 217 301
8 413 320 219 302 303 220 133 203
8 306 221 321 414 206 134 220 303
8 307 218 131 207 415 316 215 304
8 305 216 316 415 205 129 215 304
8 417 322 221 306 308 222 135 208
8 308 222 135 208 418 319 218 307
8 310 225 137 210 420 325 223 309
8 423 326 224 311 310 225 137 210
8 329 236 165 260 441 338 259 368
8 442 342 238 328 333 240 149 230
8 331 237 146 228 443 340 236 329
8 334 241 150 231 444 339 235 330
8 444 339 235 330 331 237 146 228
8 446 343 239 332 336 242 151 233
8 333 240 149 230 446 343 239 332
8 335 243 152 232 448 345 241 334
8 337 244 153 234 449 347 243 335
8 337 244 346 450 234 153 242 336
8 338 245 164 259 452 349 258 367
8 340 247 155 236 453 350 245 338
8 345 252 160 241 454 351 246 339
8 454 351 246 339 341 248 156 237
8 341 248 156 237 455 352 247 340
8 240 159 251 344 342 249 354 457
8 242 161 253 346 343 250 355 458
8 343 250 355 458 240 159 251 344
8 347 254 162 243 460 357 252 345
8 348 255 358 461 244 163 253 346
8 348 255 163 244 462 359 254 347
8 473 360 257 365 363 256 364 482
8 452 349 258 367 365 257 366 485
8 422 324 369 488 311 224 261 371
8 371 261 370 490 263 167 262 372
8 407 311 371 491 296 210 263 373
8 373 263 372 492 295 209 264 374
8 493 385 275 375 442 342 238 328
8 377 276 179 267 493 385 275 375
8 378 274 177 268 494 383 273 376
8 494 383 273 376 377 276 179 267
8 497 382 272 379 378 274 177 268
8 498 381 271 380 379 272 175 269
8 393 297 197 283 498 381 271 380
8 499 387 277 381 382 278 181 272
8 408 312 211 297 499 387 277 381
8 500 388 278 382 384 280 183 274
8 501 389 279 383 386 282 185 276
8 384 280 183 274 501 389 279 383
8 386 282 185 276 503 391 281 385
8 503 391 281 385 457 354 249 342
8 511 408 299 395 393 297 199 285
8 395 299 409 512 285 199 298 394
8 512 409 300 396 394 298 200 286
8 401 305 205 291 514 411 300 396
8 515 412 301 397 398 302 202 288
8 405 309 209 295 515 412 301 397
8 516 413 302 398 399 303 203 289
8 403 306 414 517 293 206 303 399
8 402 307 207 292 518 415 304 400
8 401 305 415 518 291 205 304 400
8 404 308 208 294 520 418 307 402
8 521 417 306 403 404 308 208 294
8 406 310 210 296 523 420 309 405
8 526 423 311 407 406 310 210 296
8 410 314 213 299 527 424 312 408
8 528 425 315 411 409 313 214 300
8 410 314 425 528 299 213 313 409
8 416 317 216 305 530 427 315 411
8 531 430 318 412 413 320 219 302
8 420 325 223 309 531 430 318 412
8 532 432 320 413 414 321 220 303
8 417 322 433 533 306 221 321 414
8 418 319 218 307 534 428 316 415
8 416 317 428 534 305 216 316 415
8 419 323 434 536 308 222 322 417
8 419 323 222 308 537 431 319 418
8 421 327 225 310 539 438 325 420
8 421 327 439 541 310 225 326 423
8 543 437 324 422 423 326 224 311
8 441 338 259 368 559 452 367 486
8 443 340 236 329 560 453 338 441
8 333 240 344 447 442 342 457 561
8 445 341 237 331 562 455 340 443
8 448 345 241 334 563 454 339 444
8 563 454 339 444 445 341 237 331
8 336 242 346 450 446 343 458 565
8 446 343 458 565 333 240 344 447
8 449 347 243 335 567 460 345 448
8 451 348 244 337 568 462 347 449
8 451 348 461 569 337 244 346 450
8 570 463 349 452 473 360 257 365
8 453 350 245 338 570 463 349 452
8 455 352 247 340 571 464 350 453
8 460 357 252 345 572 465 351 454
8 572 465 351 454 456 353 248 341
8 456 353 248 341 573 466 352 455
8 344 251 356 459 457 354 468 575
8 458 355 469 576 344 251 356 459
8 346 253 358 461 458 355 469 576
8 462 359 254 347 578 471 357 460
8 348 255 359 462 461 358 472 579
8 591 474 360 473 475 361 256 363
8 475 361 256 363 594 477 362 479
8 363 256 364 482 479 362 480 603
8 590 473 365 484 481 363 482 605
8 482 364 257 365 606 483 366 485
8 559 452 367 486 484 365 485 607
8 542 436 487 609 422 324 369 488
8 525 422 488 611 407 311 371 491
8 488 369 489 612 371 261 370 490
8 491 371 490 613 373 263 372 492
8 495 386 276 377 614 503 385 493
8 614 503 385 493 561 457 342 442
8 615 501 383 494 495 386 276 377
8 496 384 274 378 615 501 383 494
8 618 500 382 497 496 384 274 378
8 619 499 381 498 497 382 272 379
8 511 408 297 393 619 499 381 498
8 620 505 387 499 500 388 278 382
8 527 424 312 408 620 505 387 499
8 502 390 506 621 384 280 388 500
8 622 507 389 501 504 392 282 386
8 502 390 280 384 622 507 389 501
8 504 392 282 386 624 509 391 503
8 624 509 391 503 575 468 354 457
8 513 410 299 395 630 527 408 511
8 631 528 411 514 512 409 300 396
8 513 410 528 631 395 299 409 512
8 519 416 305 401 633 530 411 514
8 634 531 412 515 516 413 302 398
8 523 420 309 405 634 531 412 515
8 635 532 413 516 517 414 303 399
8 521 417 533 636 403 306 414 517
8 520 418 307 402 637 534 415 518
8 519 416 534 637 401 305 415 518
8 522 419 308 404 639 537 418 520
8 522 419 536 640 404 308 417 521
8 524 421 310 406 642 539 420 523
8 524 421 541 644 406 310 423 526
8 646 543 422 525 526 423 311 407
8 529 426 314 410 647 544 424 527
8 528 425 545 648 411 315 427 530
8 529 426 545 648 410 314 425 528
8 535 429 317 416 649 546 427 530
8 650 548 430 531 532 432 320 413
8 539 438 325 420 650 548 430 531
8 533 433 550 651 414 321 432 532
8 536 434 551 652 417 322 433 533
8 537 431 319 418 653 547 428 534
8 535 429 547 653 416 317 428 534
8 538 435 552 654 419 323 434 536
8 538 435 323 419 655 549 431 537
8 540 440 327 421 657 556 438 539
8 540 440 557 659 421 327 439 541
8 541 439 555 660 423 326 437 543
8 661 554 436 542 543 437 324 422
8 676 570 452 559 590 473 365 484
8 560 453 338 441 676 570 452 559
8 562 455 340 443 677 571 453 560
8 447 344 459 566 561 457 575 678
8 564 456 341 445 679 573 455 562
8 567 460 345 448 680 572 454 563
8 680 572 454 563 564 456 341 445
8 565 458 576 682 447 344 459 566
8 450 346 461 569 565 458 576 682
8 568 462 347 449 684 578 460 567
8 451 348 462 568 569 461 579 685
8 686 580 463 570 591 474 360 473
8 571 464 350 453 686 580 463 570
8 573 466 352 455 687 581 464 571
8 572 465 582 688 460 357 471 578
8 574 467 582 688 456 353 465 572
8 574 467 353 456 689 583 466 573
8 459 356 470 577 575 468 585 691
8 576 469 586 692 459 356 470 577
8 461 358 472 579 576 469 586 692
8 462 359 471 578 579 472 588 694
8 704 591 473 590 593 475 363 481
8 595 476 592 705 475 361 474 591
8 593 475 363 481 707 594 479 602
8 594 477 362 479 709 598 478 600
8 595 476 361 475 711 597 477 594
8 479 362 480 603 600 478 601 720
8 481 363 482 605 602 479 603 722
8 603 480 364 482 723 604 483 606
8 605 482 365 484 724 606 485 607
8 656 553 608 726 542 436 487 609
8 645 542 609 728 525 422 488 611
8 609 487 610 729 488 369 489 612
8 611 488 612 730 491 371 490 613
8 616 504 386 495 731 624 503 614
8 731 624 503 614 678 575 457 561
8 732 622 501 615 616 504 386 495
8 617 502 384 496 732 622 501 615
8 617 502 621 735 496 384 500 618
8 736 620 499 619 618 500 382 497
8 630 527 408 511 736 620 499 619
8 621 506 626 737 500 388 505 620
8 647 544 424 527 737 626 505 620
8 623 508 627 738 502 390 506 621
8 623 508 390 502 739 628 507 622
8 625 510 628 739 504 392 507 622
8 740 629 509 624 691 585 468 575
8 625 510 392 504 740 629 509 624
8 632 529 410 513 744 647 527 630
8 631 528 648 745 514 411 530 633
8 632 529 648 745 513 410 528 631
8 638 535 416 519 746 649 530 633
8 747 650 531 634 635 532 413 516
8 642 539 420 523 747 650 531 634
8 636 533 651 748 517 414 532 635
8 640 536 652 749 521 417 533 636
8 639 537 418 520 750 653 534 637
8 638 535 653 750 519 416 534 637
8 641 538 419 522 751 655 537 639
8 641 538 654 752 522 419 536 640
8 643 540 421 524 753 657 539 642
8 643 540 659 755 524 421 541 644
8 644 541 660 757 526 423 543 646
8 758 661 542 645 646 543 422 525
8 529 426 544 647 648 545 662 759
8 530 427 545 648 649 546 663 760
8 535 429 546 649 653 547 664 761
8 762 666 548 650 651 550 432 532
8 657 556 438 539 762 666 548 650
8 652 551 668 763 533 433 550 651
8 654 552 669 764 536 434 551 652
8 655 549 431 537 765 665 547 653
8 538 435 549 655 654 552 667 766
8 661 554 671 768 542 436 553 656
8 658 558 440 540 769 674 556 657
8 658 558 675 770 540 440 557 659
8 659 557 673 771 541 439 555 660
8 660 555 672 772 543 437 554 661
8 788 686 570 676 704 591 473 590
8 677 571 453 560 788 686 570 676
8 679 573 455 562 789 687 571 677
8 566 459 577 683 678 575 691 790
8 681 574 456 564 791 689 573 679
8 680 572 688 792 567 460 578 684
8 681 574 688 792 564 456 572 680
8 682 576 692 794 566 459 577 683
8 569 461 579 685 682 576 692 794
8 568 462 578 684 685 579 694 796
8 687 581 464 571 798 696 580 686
8 798 696 580 686 705 592 474 591
8 689 583 466 573 799 697 581 687
8 688 582 698 800 578 471 588 694
8 690 584 698 800 574 467 582 688
8 690 584 467 574 801 699 583 689
8 693 587 701 803 577 470 585 691
8 693 587 470 577 804 702 586 692
8 695 589 702 804 579 472 586 692
8 695 589 472 579 805 703 588 694
8 708 595 705 813 593 475 591 704
8 710 596 706 814 595 476 592 705
8 707 594 479 602 816 709 600 719
8 708 595 475 593 817 711 594 707
8 709 598 478 600 819 715 599 717
8 711 597 477 594 820 714 598 709
8 710 596 476 595 822 713 597 711
8 600 478 601 720 717 599 718 832
8 602 479 603 722 719 600 720 834
8 720 601 480 603 835 721 604 723
8 722 603 482 605 836 723 606 724
8 767 670 725 839 656 553 608 726
8 756 656 726 841 645 542 609 728
8 726 608 727 842 609 487 610 729
8 728 609 729 843 611 488 612 730
8 844 740 624 731 790 691 575 678
8 733 625 504 616 844 740 624 731
8 734 623 502 617 845 739 622 732
8 733 625 739 845 616 504 622 732
8 734 623 738 846 617 502 621 735
8 735 621 737 847 618 500 620 736
8 744 647 527 630 847 737 620 736
8 621 506 627 738 737 626 741 848
8 647 544 626 737 759 662 741 848
8 623 508 628 739 738 627 742 849
8 740 629 585 691 850 743 700 802
8 625 510 629 740 739 628 743 850
8 632 529 647 744 745 648 759 854
8 633 530 648 745 746 649 760 855
8 638 535 649 746 750 653 761 856
8 857 762 650 747 748 651 532 635
8 753 657 539 642 857 762 650 747
8 749 652 763 858 636 533 651 748
8 752 654 764 859 640 536 652 749
8 751 655 537 639 860 765 653 750
8 641 538 655 751 752 654 766 861
8 754 658 540 643 862 769 657 753
8 754 658 770 863 643 540 659 755
8 755 659 771 864 644 541 660 757
8 758 661 768 866 645 542 656 756
8 757 660 772 867 646 543 661 758
8 759 662 773 868 648 545 663 760
8 649 546 663 760 761 664 774 871
8 765 665 547 653 872 775 664 761
8 873 777 666 762 763 668 550 651
8 769 674 556 657 873 777 666 762
8 764 669 779 874 652 551 668 763
8 654 552 667 766 764 669 778 875
8 655 549 665 765 766 667 776 876
8 768 671 782 877 656 553 670 767
8 772 672 783 878 661 554 671 768
8 658 558 674 769 770 675 786 879
8 659 557 675 770 771 673 785 881
8 882 784 672 772 771 673 555 660
8 789 687 571 677 897 798 686 788
8 897 798 686 788 813 705 591 704
8 791 689 573 679 898 799 687 789
8 795 693 803 900 683 577 691 790
8 793 690 574 681 901 801 689 791
8 792 688 800 902 684 578 694 796
8 793 690 800 902 681 574 688 792
8 795 693 577 683 903 804 692 794
8 797 695 804 903 685 579 692 794
8 797 695 579 685 904 805 694 796
8 905 806 697 799 798 696 581 687
8 814 706 806 905 705 592 696 798
8 689 583 697 799 801 699 808 907
8 800 698 809 908 694 588 703 805
8 690 584 699 801 800 698 809 908
8 803 701 810 909 691 585 700 802
8 693 587 702 804 803 701 811 910
8 695 589 703 805 804 702 812 911
8 818 710 814 919 708 595 705 813
8 821 712 815 920 710 596 706 814
8 816 709 600 719 922 819 717 831
8 817 711 594 707 923 820 709 816
8 818 710 595 708 924 822 711 817
8 819 715 599 717 926 827 716 829
8 820 714 598 709 927 826 715 819
8 929 825 713 822 820 714 597 711
8 821 712 596 710 930 824 713 822
8 717 599 718 832 829 716 830 942
8 719 600 720 834 831 717 832 944
8 832 718 601 720 945 833 721 835
8 834 720 603 722 946 835 723 836
8 869 780 838 950 767 670 725 839
8 865 767 839 952 756 656 726 841
8 839 725 840 953 726 608 727 842
8 841 726 842 954 728 609 729 843
8 844 740 691 790 955 850 802 899
8 733 625 740 844 845 739 850 955
8 734 623 739 845 846 738 849 956
8 735 621 738 846 847 737 848 957
8 744 647 737 847 854 759 848 957
8 738 627 742 849 848 741 851 958
8 848 741 851 958 759 662 773 868
8 850 743 700 802 959 852 807 906
8 849 742 628 739 959 852 743 850
8 854 759 868 965 745 648 760 855
8 746 649 760 855 856 761 871 966
8 860 765 653 750 967 872 761 856
8 968 873 762 857 858 763 651 748
8 862 769 657 753 968 873 762 857
8 859 764 874 969 749 652 763 858
8 752 654 766 861 859 764 875 970
8 751 655 765 860 861 766 876 971
8 754 658 769 862 863 770 879 972
8 755 659 770 863 864 771 881 974
8 976 882 772 867 864 771 660 757
8 866 768 877 977 756 656 767 865
8 867 772 878 978 758 661 768 866
8 760 663 773 868 871 774 883 980
8 870 781 837 948 982 890 780 869
8 982 890 780 869 877 782 670 767
8 761 664 774 871 872 775 884 984
8 876 776 665 765 985 885 775 872
8 873 777 668 763 986 887 779 874
8 769 674 777 873 879 786 887 986
8 764 669 778 875 874 779 888 987
8 766 667 776 876 875 778 886 988
8 878 783 892 989 768 671 782 877
8 878 783 672 772 990 893 784 882
8 880 787 675 770 991 896 786 879
8 880 787 895 992 770 675 785 881
8 881 785 894 993 771 673 784 882
8 1006 905 799 898 897 798 687 789
8 919 814 905 1006 813 705 798 897
8 791 689 799 898 901 801 907 1007
8 900 803 909 1009 790 691 802 899
8 795 693 804 903 900 803 910 1010
8 902 800 908 1011 796 694 805 904
8 793 690 801 901 902 800 908 1011
8 797 695 805 904 903 804 911 1012
8 799 697 806 905 907 808 912 1013
8 920 815 912 1013 814 706 806 905
8 802 700 810 909 906 807 913 1014
8 801 699 808 907 908 809 914 1015
8 805 703 809 908 911 812 915 1016
8 803 701 811 910 909 810 916 1017
8 911 812 917 1018 804 702 811 910
8 925 821 920 1030 818 710 814 919
8 928 823 921 1031 821 712 815 920
8 922 819 717 831 1033 926 829 941
8 923 820 709 816 1034 927 819 922
8 1035 929 822 924 923 820 711 817
8 925 821 710 818 1036 930 822 924
8 1038 933 825 929 927 826 714 820
8 926 827 716 829 1039 935 828 939
8 927 826 715 819 1040 934 827 926
8 928 823 712 821 1041 931 824 930
8 1042 932 824 930 929 825 713 822
8 829 716 830 942 939 828 940 1058
8 831 717 832 944 941 829 942 1060
8 942 830 718 832 1061 943 833 945
8 944 832 720 834 1062 945 835 946
8 981 889 947 1064 870 781 837 948
8 948 837 949 1067 869 780 838 950
8 975 869 950 1069 865 767 839 952
8 950 838 951 1070 839 725 840 953
8 952 839 953 1071 841 726 842 954
8 955 850 802 899 1072 959 906 1008
8 956 849 739 845 1072 959 850 955
8 846 738 849 956 957 848 958 1073
8 957 848 958 1073 854 759 868 965
8 849 742 852 959 958 851 961 1076
8 960 853 961 1076 906 807 852 959
8 958 851 961 1076 868 773 883 980
8 960 853 807 906 1077 963 913 1014
8 855 760 868 965 966 871 980 1085
8 856 761 871 966 967 872 984 1086
8 971 876 765 860 1087 985 872 967
8 968 873 763 858 1088 986 874 969
8 862 769 873 968 972 879 986 1088
8 859 764 875 970 969 874 987 1089
8 861 766 876 971 970 875 988 1090
8 973 880 770 863 1091 991 879 972
8 973 880 992 1092 863 770 881 974
8 974 881 993 1093 864 771 882 976
8 979 870 948 1066 1094 982 869 975
8 1094 982 869 975 977 877 767 865
8 978 878 772 867 1095 990 882 976
8 978 878 989 1096 866 768 877 977
8 871 774 883 980 984 884 994 1099
8 983 891 999 1100 870 781 889 981
8 1101 1000 890 982 989 892 782 877
8 983 891 781 870 1101 1000 890 982
8 872 775 884 984 985 885 995 1103
8 876 776 885 985 988 886 996 1104
8 986 887 779 874 1105 998 888 987
8 879 786 887 986 991 896 998 1105
8 875 778 886 988 987 888 997 1106
8 990 893 1002 1107 878 783 892 989
8 1108 1003 893 990 993 894 784 882
8 880 787 896 991 992 895 1005 1109
8 993 894 785 881 1110 1004 895 992
8 898 799 905 1006 1007 907 1013 1120
8 1030 920 1013 1120 919 814 905 1006
8 901 801 907 1007 1011 908 1015 1121
8 899 802 909 1009 1008 906 1014 1122
8 900 803 910 1010 1009 909 1017 1123
8 1012 911 1018 1124 903 804 910 1010
8 904 805 908 1011 1012 911 1016 1125
8 1013 912 1020 1127 907 808 914 1015
8 1031 921 1020 1127 920 815 912 1013
8 1019 918 962 1075 1128 1021 913 1014
8 1128 1021 913 1014 1017 916 810 909
8 1015 914 1022 1129 908 809 915 1016
8 1016 915 1023 1130 911 812 917 1018
8 1018 917 1024 1131 910 811 916 1017
8 1037 928 1031 1148 925 821 920 1030
8 928 823 931 1041 1031 921 1032 1149
8 1033 926 829 941 1151 1039 939 1057
8 1034 927 819 922 1152 1040 926 1033
8 1153 1038 929 1035 1034 927 820 923
8 1154 1042 930 1036 1035 929 822 924
8 1037 928 821 925 1155 1041 930 1036
8 1039 935 828 939 1156 1047 938 1055
8 1157 1043 932 1042 1038 933 825 929
8 1038 933 826 927 1158 1045 934 1040
8 1040 934 827 926 1159 1046 935 1039
8 930 824 932 1042 1041 931 1044 1160
8 1051 936 1048 1165 1175 1052 937 1053
8 1156 1047 938 1055 1053 937 1054 1178
8 939 828 940 1058 1055 938 1056 1181
8 941 829 942 1060 1057 939 1058 1183
8 942 830 943 1061 1058 940 1059 1184
8 1060 942 832 944 1185 1061 945 1062
8 1082 964 1063 1188 981 889 947 1064
8 1097 981 1064 1190 979 870 948 1066
8 1064 947 1065 1191 948 837 949 1067
8 1066 948 1067 1193 975 869 950 1069
8 1067 949 1068 1194 950 838 951 1070
8 1069 950 1070 1195 952 839 953 1071
8 956 849 959 1072 1073 958 1076 1197
8 1074 960 1076 1197 1008 906 959 1072
8 1073 958 1076 1197 965 868 980 1085
8 1074 960 906 1008 1198 1077 1014 1122
8 1133 1026 1079 1199 1019 918 962 1075
8 1077 963 913 1014 1200 1080 962 1075
8 960 853 963 1077 1076 961 1078 1201
8 980 883 961 1076 1099 994 1078 1201
8 1210 1083 964 1082 1100 999 889 981
8 966 871 980 1085 1086 984 1099 1215
8 967 872 984 1086 1087 985 1103 1216
8 971 876 985 1087 1090 988 1104 1217
8 1088 986 874 969 1218 1105 987 1089
8 972 879 986 1088 1091 991 1105 1218
8 970 875 988 1090 1089 987 1106 1219
8 973 880 991 1091 1092 992 1109 1220
8 1093 993 881 974 1221 1110 992 1092
8 1222 1108 990 1095 1093 993 882 976
8 1223 1101 982 1094 1096 989 877 977
8 1098 983 870 979 1223 1101 982 1094
8 1095 990 1107 1224 978 878 989 1096
8 1098 983 1100 1225 979 870 981 1097
8 984 884 994 1099 1103 995 1111 1227
8 1102 1001 1115 1228 983 891 999 1100
8 1101 1000 892 989 1229 1116 1002 1107
8 1102 1001 891 983 1229 1116 1000 1101
8 985 885 995 1103 1104 996 1112 1230
8 988 886 996 1104 1106 997 1113 1231
8 1105 998 888 987 1232 1114 997 1106
8 991 896 998 1105 1109 1005 1114 1232
8 1108 1003 1117 1233 990 893 1002 1107
8 1108 1003 894 993 1233 1117 1004 1110
8 992 895 1005 1109 1110 1004 1118 1234
8 1120 1013 1127 1244 1007 907 1015 1121
8 1148 1031 1127 1244 1030 920 1013 1120
8 1121 1015 1129 1245 1011 908 1016 1125
8 1126 1019 1075 1196 1246 1128 1014 1122
8 1246 1128 1014 1122 1123 1017 909 1009
8 1124 1018 1131 1247 1010 910 1017 1123
8 1125 1016 1130 1248 1012 911 1018 1124
8 1127 1020 1137 1254 1015 914 1022 1129
8 1031 921 1032 1149 1127 1020 1137 1254
8 1134 1027 918 1019 1257 1140 1021 1128
8 1257 1140 1021 1128 1131 1024 916 1017
8 1129 1022 1141 1258 1016 915 1023 1130
8 1130 1023 1142 1259 1018 917 1024 1131
8 1261 1144 1025 1132 1133 1026 1079 1199
8 1255 1138 1025 1132 1135 1028 1144 1261
8 1133 1026 918 1019 1262 1145 1027 1134
8 1136 1029 1139 1256 1263 1146 1028 1135
8 1037 928 1041 1155 1148 1031 1149 1275
8 1041 931 1044 1160 1149 1032 1150 1276
8 1151 1039 939 1057 1278 1156 1055 1180
8 1152 1040 926 1033 1279 1159 1039 1151
8 1153 1038 927 1034 1280 1158 1040 1152
8 1281 1157 1042 1154 1153 1038 929 1035
8 1036 930 1042 1154 1155 1041 1160 1282
8 1283 1164 1046 1159 1156 1047 935 1039
8 1165 1048 1164 1283 1053 937 1047 1156
8 1157 1043 933 1038 1284 1161 1045 1158
8 1157 1043 1161 1284 1042 932 1044 1160
8 1040 934 1046 1159 1158 1045 1163 1285
8 1166 1049 1167 1292 1051 936 1048 1165
8 1166 1049 936 1051 1293 1168 1050 1172
8 1051 936 1052 1175 1172 1050 1173 1306
8 1174 1051 1165 1290 1308 1175 1053 1177
8 1053 937 1054 1178 1175 1052 1176 1309
8 1278 1156 1055 1180 1177 1053 1178 1311
8 1055 938 1056 1181 1178 1054 1179 1312
8 1057 939 1058 1183 1180 1055 1181 1314
8 1058 940 1059 1184 1181 1056 1182 1315
8 1060 942 1061 1185 1183 1058 1184 1316
8 1208 1081 1187 1321 1082 964 1063 1188
8 1209 1082 1188 1322 1097 981 1064 1190
8 1188 1063 1189 1323 1064 947 1065 1191
8 1190 1064 1191 1325 1066 948 1067 1193
8 1191 1065 1192 1326 1067 949 1068 1194
8 1067 1193 1069 950 1194 1327 1195 1070
8 1250 1133 1199 1330 1126 1019 1075 1196
8 1198 1077 1014 1122 1331 1200 1075 1196
8 1074 960 1077 1198 1197 1076 1201 1332
8 1085 980 1076 1197 1215 1099 1201 1332
8 1199 1079 1203 1333 1075 962 1080 1200
8 1132 1025 1119 1243 1199 1079 1203 1333
8 1201 1078 963 1077 1334 1202 1080 1200
8 1099 994 1078 1201 1227 1111 1202 1334
8 1343 1207 1081 1208 1210 1083 964 1082
8 1214 1084 1186 1319 1343 1207 1081 1208
8 1345 1210 1082 1209 1225 1100 981 1097
8 1346 1211 1083 1210 1228 1115 999 1100
8 1086 984 1099 1215 1216 1103 1227 1352
8 1087 985 1103 1216 1217 1104 1230 1353
8 1090 988 1104 1217 1219 1106 1231 1354
8 1218 1105 987 1089 1355 1232 1106 1219
8 1091 991 1105 1218 1220 1109 1232 1355
8 1092 992 1109 1220 1221 1110 1234 1356
8 1222 1108 1233 1357 1095 990 1107 1224
8 1222 1108 993 1093 1357 1233 1110 1221
8 1223 1101 989 1096 1358 1229 1107 1224
8 1226 1102 983 1098 1358 1229 1101 1223
8 1226 1102 1228 1359 1098 983 1100 1225
8 1103 995 1111 1227 1230 1112 1235 1360
8 1107 1002 1117 1233 1229 1116 1240 1362
8 1102 1001 1116 1229 1228 1115 1240 1362
8 1104 996 1112 1230 1231 1113 1236 1363
8 1364 1237 1114 1232 1231 1113 997 1106
8 1109 1005 1114 1232 1234 1118 1238 1365
8 1110 1004 1118 1234 1233 1117 1241 1366
8 1242 1374 1255 1138 1119 1243 1132 1025
8 1244 1127 1254 1376 1121 1015 1129 1245
8 1148 1031 1149 1275 1244 1127 1254 1376
8 1245 1129 1258 1377 1125 1016 1130 1248
8 1251 1134 1019 1126 1378 1257 1128 1246
8 1378 1257 1128 1246 1247 1131 1017 1123
8 1248 1130 1259 1379 1124 1018 1131 1247
8 1261 1381 1250 1133 1132 1249 1330 1199
8 1255 1380 1252 1135 1132 1249 1381 1261
8 1250 1133 1019 1126 1382 1262 1134 1251
8 1253 1136 1256 1385 1384 1263 1135 1252
8 1254 1137 1265 1387 1129 1022 1141 1258
8 1149 1032 1150 1276 1254 1137 1265 1387
8 1028 1135 1255 1138 1139 1256 1388 1266
8 1136 1029 1147 1264 1256 1139 1267 1389
8 1390 1268 1140 1257 1259 1142 1024 1131
8 1260 1143 1027 1134 1390 1268 1140 1257
8 1258 1141 1269 1391 1130 1023 1142 1259
8 1262 1145 1027 1134 1393 1271 1143 1260
8 1261 1144 1026 1133 1394 1272 1145 1262
8 1135 1028 1144 1261 1263 1146 1272 1394
8 1136 1029 1146 1263 1264 1147 1273 1395
8 1155 1041 1160 1282 1275 1149 1276 1405
8 1276 1150 1044 1160 1406 1277 1162 1286
8 1408 1283 1159 1279 1278 1156 1039 1151
8 1290 1165 1283 1408 1177 1053 1156 1278
8 1152 1040 1159 1279 1280 1158 1285 1409
8 1281 1157 1038 1153 1410 1284 1158 1280
8 1281 1157 1284 1410 1154 1042 1160 1282
8 1159 1046 1164 1283 1285 1163 1289 1412
8 1292 1167 1289 1412 1165 1048 1164 1283
8 1158 1045 1163 1285 1284 1161 1288 1413
8 1284 1161 1288 1413 1160 1044 1162 1286
8 1291 1166 1292 1418 1174 1051 1165 1290
8 1291 1166 1051 1174 1419 1293 1172 1305
8 1294 1169 1296 1421 1166 1049 1167 1292
8 1293 1168 1050 1172 1422 1295 1171 1303
8 1294 1169 1049 1166 1423 1297 1168 1293
8 1422 1295 1171 1303 1301 1170 1302 1435
8 1172 1050 1173 1306 1303 1171 1304 1438
8 1174 1051 1175 1308 1305 1172 1306 1440
8 1175 1052 1176 1309 1306 1173 1307 1441
8 1177 1053 1178 1311 1308 1175 1309 1443
8 1178 1054 1179 1312 1309 1176 1310 1444
8 1180 1055 1181 1314 1311 1178 1312 1446
8 1056 1181 1312 1179 1182 1315 1447 1313
8 1183 1058 1184 1316 1314 1181 1315 1448
8 1319 1186 1084 1214 1451 1317 1213 1350
8 1319 1186 1318 1453 1208 1081 1187 1321
8 1321 1187 1320 1456 1188 1063 1189 1323
8 1344 1208 1321 1457 1209 1082 1188 1322
8 1322 1188 1323 1458 1190 1064 1191 1325
8 1323 1189 1324 1459 1191 1065 1192 1326
8 1191 1325 1193 1067 1326 1460 1327 1194
8 1242 1374 1243 1119 1328 1462 1335 1204
8 1330 1199 1333 1465 1196 1075 1200 1331
8 1132 1249 1330 1199 1243 1375 1465 1333
8 1332 1201 1077 1198 1466 1334 1200 1331
8 1215 1099 1201 1332 1352 1227 1334 1466
8 1119 1243 1333 1203 1204 1335 1470 1338
8 1333 1203 1338 1470 1200 1080 1202 1334
8 1227 1111 1202 1334 1360 1235 1338 1470
8 1328 1462 1335 1204 1205 1336 1471 1339
8 1337 1206 1340 1472 1464 1329 1205 1336
8 1346 1211 1342 1479 1210 1083 1207 1343
8 1346 1211 1115 1228 1479 1342 1239 1361
8 1348 1212 1084 1214 1479 1342 1207 1343
8 1480 1343 1208 1344 1345 1210 1082 1209
8 1351 1214 1319 1454 1480 1343 1208 1344
8 1481 1346 1210 1345 1359 1228 1100 1225
8 1348 1212 1347 1483 1214 1084 1213 1350
8 1216 1103 1227 1352 1353 1230 1360 1488
8 1217 1104 1230 1353 1354 1231 1363 1489
8 1490 1364 1232 1355 1354 1231 1106 1219
8 1220 1109 1232 1355 1356 1234 1365 1491
8 1221 1110 1234 1356 1357 1233 1366 1492
8 1224 1107 1233 1357 1358 1229 1362 1493
8 1226 1102 1229 1358 1359 1228 1362 1493
8 1230 1112 1235 1360 1363 1236 1367 1496
8 1361 1239 1115 1228 1497 1371 1240 1362
8 1366 1241 1372 1498 1233 1117 1240 1362
8 1364 1237 1113 1231 1499 1368 1236 1363
8 1364 1237 1368 1499 1232 1114 1238 1365
8 1234 1118 1238 1365 1366 1241 1369 1500
8 1507 1373 1242 1374 1388 1266 1138 1255
8 1508 1374 1243 1375 1380 1255 1132 1249
8 1376 1254 1387 1509 1245 1129 1258 1377
8 1275 1149 1276 1405 1376 1254 1387 1509
8 1377 1258 1391 1510 1248 1130 1259 1379
8 1511 1390 1257 1378 1379 1259 1131 1247
8 1383 1260 1134 1251 1511 1390 1257 1378
8 1252 1135 1256 1385 1380 1255 1388 1512
8 1261 1381 1513 1394 1133 1250 1382 1262
8 1135 1252 1384 1263 1261 1381 1513 1394
8 1382 1262 1134 1251 1514 1393 1260 1383
8 1253 1136 1263 1384 1386 1264 1395 1516
8 1253 1136 1264 1386 1385 1256 1389 1517
8 1387 1265 1397 1519 1258 1141 1269 1391
8 1276 1150 1277 1406 1387 1265 1397 1519
8 1256 1139 1267 1389 1388 1266 1398 1520
8 1264 1147 1274 1396 1389 1267 1399 1521
8 1392 1270 1143 1260 1522 1400 1268 1390
8 1390 1268 1142 1259 1522 1400 1269 1391
8 1392 1270 1401 1523 1260 1143 1271 1393
8 1272 1394 1524 1402 1145 1262 1393 1271
8 1395 1273 1146 1263 1524 1402 1272 1394
8 1273 1395 1264 1147 1403 1526 1396 1274
8 1405 1276 1160 1282 1534 1406 1286 1411
8 1414 1287 1407 1535 1286 1162 1277 1406
8 1279 1159 1283 1408 1409 1285 1412 1537
8 1418 1292 1412 1537 1290 1165 1283 1408
8 1280 1158 1285 1409 1410 1284 1413 1538
8 1410 1284 1413 1538 1282 1160 1286 1411
8 1285 1163 1289 1412 1413 1288 1417 1540
8 1421 1296 1417 1540 1292 1167 1289 1412
8 1414 1287 1162 1286 1541 1416 1288 1413
8 1420 1294 1421 1545 1291 1166 1292 1418
8 1419 1293 1172 1305 1546 1422 1303 1437
8 1420 1294 1166 1291 1547 1423 1293 1419
8 1294 1169 1297 1423 1421 1296 1425 1548
8 1423 1297 1168 1293 1549 1424 1295 1422
8 1301 1170 1298 1427 1422 1295 1424 1549
8 1432 1300 1428 1554 1301 1170 1298 1427
8 1431 1299 1428 1554 1560 1430 1300 1432
8 1563 1433 1300 1432 1435 1302 1170 1301
8 1546 1422 1303 1437 1434 1301 1435 1565
8 1303 1171 1304 1438 1435 1302 1436 1566
8 1305 1172 1306 1440 1437 1303 1438 1568
8 1306 1173 1307 1441 1438 1304 1439 1569
8 1308 1175 1309 1443 1440 1306 1441 1571
8 1309 1176 1310 1444 1441 1307 1442 1572
8 1311 1178 1312 1446 1443 1309 1444 1574
8 1179 1312 1444 1310 1313 1447 1575 1445
8 1314 1181 1315 1448 1446 1312 1447 1576
8 1350 1213 1349 1486 1451 1317 1449 1579
8 1451 1317 1450 1581 1319 1186 1318 1453
8 1454 1319 1214 1351 1582 1451 1350 1487
8 1453 1318 1452 1584 1321 1187 1320 1456
8 1454 1319 1453 1585 1344 1208 1321 1457
8 1456 1320 1455 1586 1323 1189 1324 1459
8 1457 1321 1456 1587 1322 1188 1323 1458
8 1458 1323 1459 1588 1325 1191 1326 1460
8 1205 1336 1464 1329 1328 1462 1590 1461
8 1507 1373 1461 1590 1374 1242 1328 1462
8 1508 1374 1462 1591 1375 1243 1335 1467
8 1337 1206 1329 1464 1473 1341 1463 1594
8 1375 1243 1335 1467 1465 1333 1470 1596
8 1465 1333 1470 1596 1331 1200 1334 1466
8 1352 1227 1334 1466 1488 1360 1470 1596
8 1591 1462 1336 1468 1467 1335 1471 1597
8 1469 1337 1472 1598 1595 1464 1336 1468
8 1471 1339 1474 1600 1335 1204 1338 1470
8 1600 1474 1367 1496 1470 1338 1235 1360
8 1336 1205 1340 1472 1471 1339 1475 1601
8 1337 1206 1341 1473 1472 1340 1476 1602
8 1495 1370 1478 1609 1361 1239 1342 1479
8 1348 1212 1342 1479 1483 1347 1478 1609
8 1481 1346 1479 1610 1345 1210 1343 1480
8 1481 1346 1228 1359 1610 1479 1361 1494
8 1484 1348 1214 1351 1610 1479 1343 1480
8 1483 1347 1482 1612 1350 1213 1349 1486
8 1484 1348 1483 1613 1351 1214 1350 1487
8 1353 1230 1360 1488 1489 1363 1496 1616
8 1490 1364 1231 1354 1617 1499 1363 1489
8 1490 1364 1499 1617 1355 1232 1365 1491
8 1356 1234 1365 1491 1492 1366 1500 1619
8 1492 1366 1498 1620 1357 1233 1362 1493
8 1494 1361 1228 1359 1621 1497 1362 1493
8 1495 1370 1239 1361 1622 1504 1371 1497
8 1363 1236 1367 1496 1499 1368 1501 1623
8 1497 1371 1240 1362 1624 1505 1372 1498
8 1625 1503 1372 1498 1500 1369 1241 1366
8 1365 1238 1368 1499 1500 1369 1502 1626
8 1520 1398 1506 1633 1388 1266 1373 1507
8 1634 1507 1374 1508 1512 1388 1255 1380
8 1509 1387 1519 1635 1377 1258 1391 1510
8 1405 1276 1406 1534 1509 1387 1519 1635
8 1515 1392 1260 1383 1636 1522 1390 1511
8 1511 1390 1259 1379 1636 1522 1391 1510
8 1385 1256 1389 1517 1512 1388 1520 1637
8 1513 1394 1262 1382 1638 1524 1393 1514
8 1395 1516 1638 1524 1263 1384 1513 1394
8 1515 1392 1523 1639 1383 1260 1393 1514
8 1516 1395 1526 1640 1386 1264 1396 1518
8 1386 1264 1396 1518 1517 1389 1521 1641
8 1519 1397 1527 1643 1391 1269 1400 1522
8 1535 1407 1527 1643 1406 1277 1397 1519
8 1389 1267 1399 1521 1520 1398 1528 1644
8 1645 1529 1399 1521 1525 1404 1274 1396
8 1392 1270 1400 1522 1523 1401 1531 1646
8 1524 1402 1271 1393 1648 1532 1401 1523
8 1403 1526 1648 1532 1273 1395 1524 1402
8 1525 1404 1274 1396 1649 1533 1403 1526
8 1539 1414 1535 1657 1411 1286 1406 1534
8 1542 1415 1536 1658 1414 1287 1407 1535
8 1409 1285 1412 1537 1538 1413 1540 1660
8 1545 1421 1540 1660 1418 1292 1412 1537
8 1539 1414 1286 1411 1661 1541 1413 1538
8 1540 1417 1544 1663 1413 1288 1416 1541
8 1421 1296 1425 1548 1540 1417 1544 1663
8 1542 1415 1287 1414 1664 1543 1416 1541
8 1420 1294 1423 1547 1545 1421 1548 1666
8 1547 1423 1293 1419 1667 1549 1422 1546
8 1434 1301 1427 1553 1546 1422 1549 1667
8 1423 1297 1424 1549 1548 1425 1550 1668
8 1551 1426 1550 1668 1427 1298 1424 1549
8 1551 1426 1298 1427 1671 1552 1428 1554
8 1562 1432 1554 1674 1434 1301 1427 1553
8 1431 1299 1429 1558 1554 1428 1555 1675
8 1431 1299 1430 1560 1558 1429 1557 1680
8 1560 1430 1300 1432 1683 1559 1433 1563
8 1561 1431 1554 1674 1684 1560 1432 1562
8 1685 1563 1432 1562 1565 1435 1301 1434
8 1435 1302 1436 1566 1563 1433 1564 1686
8 1437 1303 1438 1568 1565 1435 1566 1688
8 1438 1304 1439 1569 1566 1436 1567 1689
8 1440 1306 1441 1571 1568 1438 1569 1691
8 1441 1307 1442 1572 1569 1439 1570 1692
8 1443 1309 1444 1574 1571 1441 1572 1694
8 1310 1444 1572 1442 1445 1575 1695 1573
8 1446 1312 1447 1576 1574 1444 1575 1696
8 1486 1349 1485 1614 1579 1449 1577 1699
8 1451 1317 1449 1579 1581 1450 1578 1701
8 1487 1350 1486 1615 1582 1451 1579 1702
8 1581 1450 1580 1704 1453 1318 1452 1584
8 1582 1451 1581 1705 1454 1319 1453 1585
8 1584 1452 1583 1706 1456 1320 1455 1586
8 1585 1453 1584 1707 1457 1321 1456 1587
8 1587 1456 1586 1708 1458 1323 1459 1588
8 1633 1506 1589 1710 1507 1373 1461 1590
8 1464 1329 1461 1590 1594 1463 1589 1710
8 1468 1336 1462 1591 1595 1464 1590 1711
8 1634 1507 1590 1711 1508 1374 1462 1591
8 1473 1341 1463 1594 1603 1477 1593 1716
8 1469 1337 1464 1595 1599 1473 1594 1717
8 1471 1597 1467 1335 1600 1718 1596 1470
8 1718 1600 1496 1616 1596 1470 1360 1488
8 1336 1468 1597 1471 1472 1598 1719 1601
8 1469 1337 1473 1599 1598 1472 1602 1720
8 1722 1604 1501 1623 1600 1474 1367 1496
8 1475 1601 1471 1339 1604 1722 1600 1474
8 1602 1476 1605 1723 1472 1340 1475 1601
8 1476 1602 1724 1606 1341 1473 1603 1477
8 1483 1347 1478 1609 1612 1482 1608 1731
8 1495 1370 1504 1622 1609 1478 1608 1731
8 1618 1495 1609 1732 1494 1361 1479 1610
8 1484 1348 1479 1610 1613 1483 1609 1732
8 1486 1349 1482 1612 1614 1485 1611 1733
8 1613 1483 1612 1734 1487 1350 1486 1615
8 1489 1363 1496 1616 1617 1499 1623 1736
8 1491 1365 1499 1617 1619 1500 1626 1737
8 1618 1495 1361 1494 1738 1622 1497 1621
8 1739 1625 1498 1620 1619 1500 1366 1492
8 1621 1497 1362 1493 1740 1624 1498 1620
8 1742 1631 1504 1622 1624 1505 1371 1497
8 1743 1628 1502 1626 1623 1501 1368 1499
8 1744 1630 1505 1624 1625 1503 1372 1498
8 1745 1629 1503 1625 1626 1502 1369 1500
8 1520 1398 1528 1644 1633 1506 1632 1751
8 1637 1520 1633 1752 1512 1388 1507 1634
8 1635 1519 1643 1753 1510 1391 1522 1636
8 1657 1535 1643 1753 1534 1406 1519 1635
8 1515 1392 1522 1636 1639 1523 1646 1754
8 1517 1389 1521 1641 1637 1520 1644 1755
8 1524 1638 1756 1648 1393 1514 1639 1523
8 1640 1526 1395 1516 1756 1648 1524 1638
8 1642 1525 1396 1518 1757 1649 1526 1640
8 1758 1645 1521 1641 1642 1525 1396 1518
8 1646 1531 1400 1522 1760 1650 1527 1643
8 1535 1407 1536 1658 1643 1527 1650 1760
8 1521 1399 1529 1645 1644 1528 1651 1761
8 1647 1530 1652 1762 1525 1404 1529 1645
8 1401 1523 1648 1532 1531 1646 1763 1655
8 1525 1404 1533 1649 1647 1530 1654 1765
8 1533 1649 1766 1656 1403 1526 1648 1532
8 1662 1542 1658 1774 1539 1414 1535 1657
8 1542 1415 1543 1664 1658 1536 1659 1775
8 1660 1540 1663 1777 1538 1413 1541 1661
8 1545 1421 1548 1666 1660 1540 1663 1777
8 1662 1542 1414 1539 1778 1664 1541 1661
8 1664 1543 1416 1541 1779 1665 1544 1663
8 1548 1425 1550 1668 1663 1544 1665 1779
8 1547 1423 1549 1667 1666 1548 1668 1781
8 1670 1551 1668 1781 1553 1427 1549 1667
8 1551 1426 1552 1671 1668 1550 1669 1782
8 1670 1551 1427 1553 1784 1671 1554 1674
8 1675 1555 1672 1785 1554 1428 1552 1671
8 1678 1556 1673 1789 1558 1429 1555 1675
8 1561 1431 1558 1681 1674 1554 1675 1790
8 1794 1677 1556 1678 1680 1557 1429 1558
8 1560 1430 1559 1683 1680 1557 1679 1797
8 1561 1431 1560 1684 1681 1558 1680 1798
8 1563 1433 1564 1686 1683 1559 1682 1800
8 1684 1560 1432 1562 1801 1683 1563 1685
8 1565 1435 1566 1688 1685 1563 1686 1802
8 1566 1436 1567 1689 1686 1564 1687 1803
8 1568 1438 1569 1691 1688 1566 1689 1805
8 1569 1439 1570 1692 1689 1567 1690 1806
8 1571 1441 1572 1694 1691 1569 1692 1808
8 1442 1572 1692 1570 1573 1695 1809 1693
8 1574 1444 1575 1696 1694 1572 1695 1810
8 1614 1485 1592 1712 1699 1577 1697 1813
8 1579 1449 1577 1699 1701 1578 1698 1815
8 1615 1486 1614 1735 1702 1579 1699 1816
8 1701 1578 1700 1818 1581 1450 1580 1704
8 1582 1451 1579 1702 1705 1581 1701 1819
8 1704 1580 1703 1820 1584 1452 1583 1706
8 1705 1581 1704 1821 1585 1453 1584 1707
8 1707 1584 1706 1822 1587 1456 1586 1708
8 1710 1589 1506 1633 1824 1709 1632 1751
8 1594 1463 1589 1710 1716 1593 1709 1824
8 1752 1633 1710 1825 1634 1507 1590 1711
8 1595 1464 1590 1711 1717 1594 1710 1825
8 1830 1714 1592 1712 1733 1611 1485 1614
8 1603 1477 1593 1716 1725 1607 1715 1834
8 1599 1473 1594 1717 1721 1603 1716 1835
8 1837 1722 1623 1736 1718 1600 1496 1616
8 1719 1601 1722 1837 1597 1471 1600 1718
8 1602 1720 1598 1472 1723 1838 1719 1601
8 1720 1602 1473 1599 1839 1724 1603 1721
8 1723 1605 1726 1840 1601 1475 1604 1722
8 1840 1726 1628 1743 1722 1604 1501 1623
8 1724 1606 1727 1841 1602 1476 1605 1723
8 1725 1607 1728 1842 1603 1477 1606 1724
8 1612 1482 1608 1731 1733 1611 1730 1849
8 1741 1627 1730 1849 1622 1504 1608 1731
8 1613 1483 1609 1732 1734 1612 1731 1850
8 1618 1495 1622 1738 1732 1609 1731 1850
8 1615 1486 1612 1734 1735 1614 1733 1851
8 1852 1743 1626 1737 1736 1623 1499 1617
8 1853 1745 1625 1739 1737 1626 1500 1619
8 1855 1742 1622 1738 1740 1624 1497 1621
8 1856 1744 1624 1740 1739 1625 1498 1620
8 1741 1627 1504 1622 1857 1746 1631 1742
8 1742 1631 1505 1624 1858 1749 1630 1744
8 1859 1747 1629 1745 1743 1628 1502 1626
8 1860 1748 1630 1744 1745 1629 1503 1625
8 1644 1528 1651 1761 1751 1632 1750 1865
8 1637 1520 1644 1755 1752 1633 1751 1866
8 1754 1646 1522 1636 1867 1760 1643 1753
8 1657 1535 1658 1774 1753 1643 1760 1867
8 1639 1523 1646 1754 1756 1648 1763 1868
8 1641 1521 1645 1758 1755 1644 1761 1869
8 1757 1649 1526 1640 1870 1766 1648 1756
8 1642 1525 1649 1757 1759 1647 1765 1871
8 1759 1647 1762 1872 1642 1525 1645 1758
8 1760 1650 1767 1874 1646 1531 1655 1763
8 1658 1536 1659 1775 1760 1650 1767 1874
8 1762 1652 1768 1875 1645 1529 1651 1761
8 1764 1653 1769 1876 1647 1530 1652 1762
8 1656 1766 1877 1773 1532 1648 1763 1655
8 1771 1879 1765 1654 1653 1764 1647 1530
8 1533 1649 1765 1654 1656 1766 1880 1772
8 1662 1542 1664 1778 1774 1658 1775 1887
8 1664 1543 1665 1779 1775 1659 1776 1888
8 1778 1664 1541 1661 1890 1779 1663 1777
8 1666 1548 1668 1781 1777 1663 1779 1890
8 1782 1669 1780 1891 1668 1550 1665 1779
8 1670 1551 1671 1784 1781 1668 1782 1893
8 1671 1552 1672 1785 1782 1669 1783 1894
8 1790 1675 1785 1896 1674 1554 1671 1784
8 1675 1555 1673 1789 1785 1672 1786 1897
8 1792 1676 1788 1903 1678 1556 1673 1789
8 1795 1678 1789 1904 1681 1558 1675 1790
8 1792 1676 1556 1678 1906 1791 1677 1794
8 1680 1557 1679 1797 1794 1677 1793 1909
8 1910 1794 1678 1795 1798 1680 1558 1681
8 1683 1559 1682 1800 1797 1679 1796 1912
8 1684 1560 1683 1801 1798 1680 1797 1913
8 1686 1564 1687 1803 1800 1682 1799 1915
8 1685 1563 1686 1802 1801 1683 1800 1916
8 1688 1566 1689 1805 1802 1686 1803 1917
8 1689 1567 1690 1806 1803 1687 1804 1918
8 1691 1569 1692 1808 1805 1689 1806 1920
8 1692 1570 1693 1809 1806 1690 1807 1921
8 1694 1572 1695 1810 1808 1692 1809 1922
8 1829 1713 1811 1926 1712 1592 1697 1813
8 1813 1697 1812 1928 1699 1577 1698 1815
8 1735 1614 1712 1828 1816 1699 1813 1929
8 1815 1698 1814 1931 1701 1578 1700 1818
8 1702 1579 1699 1816 1819 1701 1815 1932
8 1818 1700 1817 1933 1704 1580 1703 1820
8 1819 1701 1818 1934 1705 1581 1704 1821
8 1821 1704 1820 1935 1707 1584 1706 1822
8 1824 1709 1632 1751 1937 1823 1750 1865
8 1716 1593 1709 1824 1834 1715 1823 1937
8 1825 1710 1633 1752 1938 1824 1751 1866
8 1717 1594 1710 1825 1835 1716 1824 1938
8 1945 1830 1712 1828 1851 1733 1614 1735
8 1830 1714 1831 1946 1712 1592 1713 1829
8 1947 1832 1714 1830 1849 1730 1611 1733
8 1843 1729 1607 1725 1950 1833 1715 1834
8 1721 1603 1716 1835 1836 1725 1834 1951
8 1836 1725 1842 1953 1721 1603 1724 1839
8 1723 1838 1719 1601 1840 1954 1837 1722
8 1954 1840 1743 1852 1837 1722 1623 1736
8 1724 1839 1720 1602 1841 1955 1838 1723
8 1841 1727 1844 1956 1723 1605 1726 1840
8 1956 1844 1747 1859 1840 1726 1628 1743
8 1728 1842 1724 1606 1845 1957 1841 1727
8 1725 1607 1729 1843 1842 1728 1846 1958
8 1741 1627 1746 1857 1849 1730 1848 1965
8 1734 1612 1731 1850 1851 1733 1849 1966
8 1854 1741 1849 1966 1738 1622 1731 1850
8 1967 1859 1745 1853 1852 1743 1626 1737
8 1968 1860 1744 1856 1853 1745 1625 1739
8 1854 1741 1622 1738 1969 1857 1742 1855
8 1855 1742 1624 1740 1970 1858 1744 1856
8 1857 1746 1631 1742 1971 1861 1749 1858
8 1858 1749 1630 1744 1972 1863 1748 1860
8 1859 1747 1862 1973 1745 1629 1748 1860
8 1875 1768 1864 1977 1761 1651 1750 1865
8 1755 1644 1761 1869 1866 1751 1865 1978
8 1867 1760 1874 1979 1754 1646 1763 1868
8 1774 1658 1775 1887 1867 1760 1874 1979
8 1870 1766 1648 1756 1980 1877 1763 1868
8 1872 1762 1875 1981 1758 1645 1761 1869
8 1757 1649 1766 1870 1871 1765 1880 1982
8 1983 1879 1764 1873 1871 1765 1647 1759
8 1873 1764 1876 1984 1759 1647 1762 1872
8 1877 1773 1655 1763 1986 1881 1767 1874
8 1775 1659 1776 1888 1874 1767 1881 1986
8 1876 1769 1882 1987 1762 1652 1768 1875
8 1878 1770 1883 1988 1764 1653 1769 1876
8 1880 1772 1656 1766 1989 1886 1773 1877
8 1878 1770 1653 1764 1990 1884 1771 1879
8 1765 1654 1772 1880 1879 1771 1885 1991
8 1778 1664 1779 1890 1887 1775 1888 1997
8 1998 1889 1776 1888 1891 1780 1665 1779
8 1893 1782 1891 2000 1781 1668 1779 1890
8 1894 1783 1892 2001 1782 1669 1780 1891
8 1784 1671 1785 1896 1893 1782 1894 2003
8 1897 1786 1895 2004 1785 1672 1783 1894
8 1790 1675 1789 1904 1896 1785 1897 2006
8 1901 1787 1898 2007 1789 1673 1786 1897
8 1903 1788 1900 2013 1789 1673 1787 1901
8 1792 1676 1791 1906 1903 1788 1902 2016
8 1907 1792 1903 2017 1795 1678 1789 1904
8 1906 1791 1677 1794 2019 1905 1793 1909
8 1907 1792 1678 1795 2020 1906 1794 1910
8 1797 1679 1796 1912 1909 1793 1908 2022
8 1798 1680 1797 1913 1910 1794 1909 2023
8 1800 1682 1799 1915 1912 1796 1911 2025
8 1801 1683 1800 1916 1913 1797 1912 2026
8 1803 1687 1804 1918 1915 1799 1914 2028
8 1802 1686 1803 1917 1916 1800 1915 2029
8 1805 1689 1806 1920 1917 1803 1918 2030
8 1806 1690 1807 1921 1918 1804 1919 2031
8 1808 1692 1809 1922 1920 1806 1921 2032
8 1939 1826 1924 2037 1829 1713 1811 1926
8 1926 1811 1925 2039 1813 1697 1812 1928
8 1944 1829 1926 2040 1828 1712 1813 1929
8 1928 1812 1927 2042 1815 1698 1814 1931
8 1929 1813 1928 2043 1816 1699 1815 1932
8 1931 1814 1930 2044 1818 1700 1817 1933
8 1932 1815 1931 2045 1819 1701 1818 1934
8 1934 1818 1933 2046 1821 1704 1820 1935
8 2048 1936 1823 1937 1977 1864 1750 1865
8 1950 1833 1715 1834 2048 1936 1823 1937
8 1938 1824 1751 1866 2049 1937 1865 1978
8 1835 1716 1824 1938 1951 1834 1937 2049
8 1939 1826 1713 1829 2053 1942 1831 1946
8 1940 1827 1923 2035 2053 1942 1826 1939
8 1945 1830 1946 2058 1828 1712 1829 1944
8 2059 1947 1830 1945 1966 1849 1733 1851
8 1947 1832 1730 1849 2060 1948 1848 1965
8 1947 1832 1948 2060 1830 1714 1831 1946
8 1959 1847 1729 1843 2063 1949 1833 1950
8 1952 1843 1725 1836 2064 1950 1834 1951
8 1836 1725 1843 1952 1953 1842 1958 2066
8 1953 1842 1957 2067 1839 1724 1841 1955
8 1841 1955 1838 1723 1956 2068 1954 1840
8 2068 1956 1859 1967 1954 1840 1743 1852
8 1956 1844 1960 2069 1859 1747 1862 1973
8 1845 1957 1841 1727 1960 2069 1956 1844
8 1728 1842 1957 1845 1846 1958 2071 1961
8 1962 2072 1959 1847 1846 1958 1843 1729
8 1971 1861 1964 2077 1857 1746 1848 1965
8 1854 1741 1857 1969 1966 1849 1965 2078
8 1967 1859 1973 2079 1853 1745 1860 1968
8 1970 1858 1744 1856 2080 1972 1860 1968
8 1969 1857 1742 1855 2081 1971 1858 1970
8 1971 1861 1749 1858 2082 1974 1863 1972
8 1973 1862 1975 2083 1860 1748 1863 1972
8 1987 1882 1976 2086 1875 1768 1864 1977
8 1981 1875 1977 2087 1869 1761 1865 1978
8 1980 1877 1763 1868 2088 1986 1874 1979
8 1887 1775 1888 1997 1979 1874 1986 2088
8 1880 1982 2089 1989 1766 1870 1980 1877
8 1984 1876 1987 2090 1872 1762 1875 1981
8 1765 1871 1983 1879 1880 1982 2091 1991
8 1985 1878 1764 1873 2092 1990 1879 1983
8 1985 1878 1988 2093 1873 1764 1876 1984
8 2094 1992 1881 1986 1998 1889 1776 1888
8 1986 1881 1992 2094 1877 1773 1886 1989
8 1988 1883 1993 2095 1876 1769 1882 1987
8 1878 1770 1884 1990 1988 1883 1994 2096
8 1991 1885 1772 1880 2097 1996 1886 1989
8 1879 1771 1885 1991 1990 1884 1995 2098
8 2103 1998 1888 1997 2000 1891 1779 1890
8 2104 1999 1889 1998 2001 1892 1780 1891
8 2003 1894 2001 2106 1893 1782 1891 2000
8 2004 1895 2002 2107 1894 1783 1892 2001
8 2006 1897 2004 2109 1896 1785 1894 2003
8 2007 1898 2005 2110 1897 1786 1895 2004
8 2014 1901 2007 2112 1904 1789 1897 2006
8 2011 1899 2008 2113 1901 1787 1898 2007
8 2119 2010 1899 2011 2013 1900 1787 1901
8 2016 1902 2012 2122 1903 1788 1900 2013
8 2017 1903 2013 2123 1904 1789 1901 2014
8 1906 1791 1905 2019 2016 1902 2015 2125
8 1907 1792 1906 2020 2017 1903 2016 2126
8 1909 1793 1908 2022 2019 1905 2018 2128
8 2020 1906 1794 1910 2129 2019 1909 2023
8 1912 1796 1911 2025 2022 1908 2021 2131
8 1913 1797 1912 2026 2023 1909 2022 2132
8 1915 1799 1914 2028 2025 1911 2024 2134
8 1916 1800 1915 2029 2026 1912 2025 2135
8 1918 1804 1919 2031 2028 1914 2027 2136
8 1917 1803 1918 2030 2029 1915 2028 2137
8 1920 1806 1921 2032 2030 1918 2031 2138
8 1940 1827 1941 2054 2035 1923 2033 2140
8 2035 1923 2034 2143 1939 1826 1924 2037
8 2037 1924 2036 2146 1926 1811 1925 2039
8 2051 1939 2037 2147 1944 1829 1926 2040
8 2039 1925 2038 2149 1928 1812 1927 2042
8 2040 1926 2039 2150 1929 1813 1928 2043
8 2042 1927 2041 2151 1931 1814 1930 2044
8 2043 1928 2042 2152 1932 1815 1931 2045
8 2045 1931 2044 2153 1934 1818 1933 2046
8 2155 2047 1936 2048 2086 1976 1864 1977
8 2063 1949 1833 1950 2155 2047 1936 2048
8 2156 2048 1937 2049 2087 1977 1865 1978
8 2064 1950 1834 1951 2156 2048 1937 2049
8 2051 1939 1829 1944 2160 2053 1946 2058
8 2052 1940 2035 2144 2160 2053 1939 2051
8 2053 1942 1831 1946 2163 2057 1948 2060
8 2055 1943 1827 1940 2163 2057 1942 2053
8 2055 1943 2056 2164 1940 1827 1941 2054
8 2059 1947 1849 1966 2167 2060 1965 2078
8 2059 1947 2060 2167 1945 1830 1946 2058
8 2077 1964 2061 2168 1965 1848 1948 2060
8 2070 1963 1847 1959 2170 2062 1949 2063
8 2065 1959 1843 1952 2171 2063 1950 2064
8 2173 2072 1958 2066 2065 1959 1843 1952
8 1953 1842 1958 2066 2067 1957 2071 2174
8 2068 1956 2069 2175 1967 1859 1973 2079
8 2067 1957 2069 2175 1955 1841 1956 2068
8 1845 1957 2069 1960 1961 2071 2176 2073
8 2069 1960 2073 2176 1973 1862 1975 2083
8 2070 1963 2075 2177 1959 1847 1962 2072
8 1846 1958 2071 1961 1962 2072 2178 2074
8 2077 1964 1861 1971 2182 2076 1974 2082
8 2081 1971 2077 2183 1969 1857 1965 2078
8 2079 1973 2083 2184 1968 1860 1972 2080
8 2081 1971 1858 1970 2185 2082 1972 2080
8 2083 1975 2084 2186 1972 1863 1974 2082
8 2086 1976 1882 1987 2189 2085 1993 2095
8 2090 1987 2086 2190 1981 1875 1977 2087
8 2191 2094 1986 2088 2103 1998 1888 1997
8 2088 1986 2094 2191 1980 1877 1989 2089
8 1991 2091 2192 2097 1880 1982 2089 1989
8 2093 1988 2095 2193 1984 1876 1987 2090
8 1879 1983 2092 1990 1991 2091 2194 2098
8 1985 1878 1990 2092 2093 1988 2096 2195
8 2097 1996 1886 1989 2196 2099 1992 2094
8 2196 2099 1992 2094 2104 1999 1889 1998
8 1994 2096 1988 1883 2100 2197 2095 1993
8 2096 1994 1884 1990 2198 2101 1995 2098
8 1995 2098 2199 2102 1885 1991 2097 1996
8 2203 2104 1998 2103 2106 2001 1891 2000
8 2107 2002 2105 2204 2001 1892 1999 2104
8 2109 2004 2107 2206 2003 1894 2001 2106
8 2110 2005 2108 2207 2004 1895 2002 2107
8 2112 2007 2110 2209 2006 1897 2004 2109
8 2113 2008 2111 2210 2007 1898 2005 2110
8 2120 2011 2113 2212 2014 1901 2007 2112
8 2117 2009 2114 2213 2011 1899 2008 2113
8 2219 2116 2009 2117 2119 2010 1899 2011
8 2222 2118 2010 2119 2122 2012 1900 2013
8 2223 2119 2011 2120 2123 2013 1901 2014
8 2016 1902 2015 2125 2122 2012 2121 2225
8 2126 2016 2122 2226 2017 1903 2013 2123
8 2019 1905 2018 2128 2125 2015 2124 2228
8 2020 1906 2019 2129 2126 2016 2125 2229
8 2022 1908 2021 2131 2128 2018 2127 2231
8 2023 1909 2022 2132 2129 2019 2128 2232
8 2025 1911 2024 2134 2131 2021 2130 2234
8 2026 1912 2025 2135 2132 2022 2131 2235
8 1914 2028 2134 2024 2027 2136 2236 2133
8 2029 1915 2028 2137 2135 2025 2134 2237
8 2030 1918 2031 2138 2137 2028 2136 2238
8 2157 2050 2139 2240 2054 1941 2033 2140
8 2052 1940 2054 2161 2144 2035 2140 2242
8 2140 2033 2141 2243 2035 1923 2034 2143
8 2143 2034 2142 2246 2037 1924 2036 2146
8 2144 2035 2143 2247 2051 1939 2037 2147
8 2146 2036 2145 2249 2039 1925 2038 2149
8 2147 2037 2146 2250 2040 1926 2039 2150
8 2149 2038 2148 2251 2042 1927 2041 2151
8 2150 2039 2149 2252 2043 1928 2042 2152
8 2152 2042 2151 2253 2045 1931 2044 2153
8 2255 2154 2047 2155 2189 2085 1976 2086
8 2170 2062 1949 2063 2255 2154 2047 2155
8 2256 2155 2048 2156 2190 2086 1977 2087
8 2171 2063 1950 2064 2256 2155 2048 2156
8 2258 2159 2050 2157 2164 2056 1941 2054
8 2160 2053 1946 2058 2262 2163 2060 2167
8 2162 2055 1940 2052 2262 2163 2053 2160
8 2162 2055 2164 2263 2052 1940 2054 2161
8 2163 2057 1948 2060 2264 2165 2061 2168
8 2055 1943 2057 2163 2164 2056 2165 2264
8 2182 2076 2166 2268 2077 1964 2061 2168
8 2183 2077 2168 2269 2078 1965 2060 2167
8 2070 1963 2062 2170 2177 2075 2169 2271
8 2172 2070 1959 2065 2272 2170 2063 2171
8 2172 2070 2177 2273 2065 1959 2072 2173
8 2066 1958 2072 2173 2174 2071 2178 2274
8 2067 1957 2071 2174 2175 2069 2176 2275
8 2175 2069 2176 2275 2079 1973 2083 2184
8 2071 1961 2074 2178 2176 2073 2179 2276
8 2176 2073 2179 2276 2083 1975 2084 2186
8 2072 1962 2075 2177 2178 2074 2180 2277
8 2182 2076 1974 2082 2280 2181 2084 2186
8 2183 2077 1971 2081 2281 2182 2082 2185
8 2184 2083 2186 2282 2080 1972 2082 2185
8 2189 2085 1993 2095 2285 2188 2100 2197
8 2190 2086 1987 2090 2286 2189 2095 2193
8 2192 2097 1989 2089 2287 2196 2094 2191
8 2287 2196 2094 2191 2203 2104 1998 2103
8 2194 2098 1991 2091 2288 2199 2097 2192
8 2195 2096 2197 2289 2093 1988 2095 2193
8 2096 2195 2290 2198 1990 2092 2194 2098
8 2097 1996 2099 2196 2199 2102 2200 2291
8 2196 2099 1999 2104 2291 2200 2105 2204
8 2100 2197 2292 2201 1994 2096 2198 2101
8 1995 2098 2198 2101 2102 2199 2293 2202
8 2206 2107 2204 2296 2106 2001 2104 2203
8 2207 2108 2205 2297 2107 2002 2105 2204
8 2209 2110 2207 2299 2109 2004 2107 2206
8 2210 2111 2208 2300 2110 2005 2108 2207
8 2212 2113 2210 2302 2112 2007 2110 2209
8 2213 2114 2211 2303 2113 2008 2111 2210
8 2220 2117 2213 2305 2120 2011 2113 2212
8 2216 2115 2214 2306 2117 2009 2114 2213
8 2216 2115 2009 2117 2311 2217 2116 2219
8 2219 2116 2010 2119 2314 2218 2118 2222
8 2315 2219 2117 2220 2223 2119 2011 2120
8 2122 2012 2121 2225 2222 2118 2221 2317
8 2318 2222 2119 2223 2226 2122 2013 2123
8 2125 2015 2124 2228 2225 2121 2224 2320
8 2126 2016 2125 2229 2226 2122 2225 2321
8 2128 2018 2127 2231 2228 2124 2227 2323
8 2129 2019 2128 2232 2229 2125 2228 2324
8 2131 2021 2130 2234 2231 2127 2230 2326
8 2132 2022 2131 2235 2232 2128 2231 2327
8 2134 2024 2133 2236 2234 2130 2233 2328
8 2135 2025 2134 2237 2235 2131 2234 2329
8 2137 2028 2136 2238 2237 2134 2236 2330
8 2157 2050 2158 2259 2240 2139 2239 2332
8 2257 2157 2240 2334 2161 2054 2140 2242
8 2240 2139 2241 2335 2140 2033 2141 2243
8 2242 2140 2243 2337 2144 2035 2143 2247
8 2243 2141 2244 2338 2143 2034 2142 2246
8 2246 2142 2245 2341 2146 2036 2145 2249
8 2247 2143 2246 2342 2147 2037 2146 2250
8 2249 2145 2248 2343 2149 2038 2148 2251
8 2250 2146 2249 2344 2150 2039 2149 2252
8 2252 2149 2251 2345 2152 2042 2151 2253
8 2169 2271 2347 2254 2062 2170 2255 2154
8 2189 2085 2188 2285 2255 2154 2254 2347
8 2348 2255 2155 2256 2286 2189 2086 2190
8 2272 2170 2063 2171 2348 2255 2155 2256
8 2349 2258 2157 2257 2263 2164 2054 2161
8 2258 2159 2261 2351 2157 2050 2158 2259
8 2258 2159 2056 2164 2351 2261 2165 2264
8 2262 2163 2060 2167 2355 2264 2168 2269
8 2162 2055 2163 2262 2263 2164 2264 2355
8 2357 2266 2165 2264 2268 2166 2061 2168
8 2268 2166 2076 2182 2361 2267 2181 2280
8 2281 2182 2268 2362 2183 2077 2168 2269
8 2271 2169 2270 2364 2177 2075 2180 2277
8 2172 2070 2170 2272 2273 2177 2271 2365
8 2072 2173 2274 2178 2177 2273 2366 2277
8 2071 2174 2275 2176 2178 2274 2367 2276
8 2275 2176 2276 2367 2184 2083 2186 2282
8 2283 2187 2084 2186 2368 2278 2179 2276
8 2178 2074 2180 2277 2276 2179 2278 2368
8 2283 2187 2279 2370 2186 2084 2181 2280
8 2281 2182 2082 2185 2371 2280 2186 2282
8 2188 2285 2374 2284 2100 2197 2292 2201
8 2286 2189 2095 2193 2375 2285 2197 2289
8 2192 2097 2196 2287 2288 2199 2291 2376
8 2287 2196 2104 2203 2376 2291 2204 2296
8 2194 2098 2199 2288 2290 2198 2293 2377
8 2289 2197 2096 2195 2378 2292 2198 2290
8 2291 2200 2105 2204 2379 2294 2205 2297
8 2199 2102 2200 2291 2293 2202 2294 2379
8 2198 2101 2202 2293 2292 2201 2295 2380
8 2299 2207 2297 2383 2206 2107 2204 2296
8 2300 2208 2298 2384 2207 2108 2205 2297
8 2302 2210 2300 2386 2209 2110 2207 2299
8 2303 2211 2301 2387 2210 2111 2208 2300
8 2305 2213 2303 2389 2212 2113 2210 2302
8 2306 2214 2304 2390 2213 2114 2211 2303
8 2310 2216 2306 2392 2220 2117 2213 2305
8 2308 2215 2307 2393 2216 2115 2214 2306
8 2308 2215 2115 2216 2396 2309 2217 2311
8 2310 2216 2117 2220 2398 2311 2219 2315
8 2311 2217 2116 2219 2399 2312 2218 2314
8 2314 2218 2118 2222 2402 2313 2221 2317
8 2315 2219 2119 2223 2403 2314 2222 2318
8 2225 2121 2224 2320 2317 2221 2316 2405
8 2226 2122 2225 2321 2318 2222 2317 2406
8 2228 2124 2227 2323 2320 2224 2319 2408
8 2229 2125 2228 2324 2321 2225 2320 2409
8 2231 2127 2230 2326 2323 2227 2322 2411
8 2232 2128 2231 2327 2324 2228 2323 2412
8 2234 2130 2233 2328 2326 2230 2325 2413
8 2235 2131 2234 2329 2327 2231 2326 2414
8 2237 2134 2236 2330 2329 2234 2328 2415
8 2259 2158 2260 2352 2332 2239 2331 2417
8 2257 2157 2259 2350 2334 2240 2332 2419
8 2240 2139 2239 2332 2335 2241 2333 2420
8 2334 2240 2335 2422 2242 2140 2243 2337
8 2335 2241 2336 2423 2243 2141 2244 2338
8 2337 2243 2338 2425 2247 2143 2246 2342
8 2338 2244 2339 2426 2246 2142 2245 2341
8 2341 2245 2340 2428 2249 2145 2248 2343
8 2342 2246 2341 2429 2250 2146 2249 2344
8 2344 2249 2343 2430 2252 2149 2251 2345
8 2188 2285 2347 2254 2284 2374 2432 2346
8 2347 2254 2346 2432 2271 2169 2270 2364
8 2365 2271 2170 2272 2433 2347 2255 2348
8 2286 2189 2285 2375 2348 2255 2347 2433
8 2349 2258 2351 2435 2257 2157 2259 2350
8 2349 2258 2164 2263 2435 2351 2264 2355
8 2259 2158 2261 2351 2352 2260 2354 2437
8 2356 2265 2354 2437 2264 2165 2261 2351
8 2441 2357 2264 2355 2362 2268 2168 2269
8 2356 2265 2165 2264 2442 2358 2266 2357
8 2443 2359 2266 2357 2361 2267 2166 2268
8 2370 2279 2360 2446 2280 2181 2267 2361
8 2362 2268 2182 2281 2447 2361 2280 2371
8 2180 2277 2368 2278 2270 2364 2449 2363
8 2271 2365 2273 2177 2364 2450 2366 2277
8 2372 2283 2186 2282 2451 2368 2276 2367
8 2178 2274 2367 2276 2277 2366 2451 2368
8 2283 2187 2278 2368 2370 2279 2369 2452
8 2372 2283 2370 2453 2282 2186 2280 2371
8 2284 2374 2455 2373 2201 2292 2380 2295
8 2375 2285 2197 2289 2456 2374 2292 2378
8 2376 2291 2204 2296 2457 2379 2297 2383
8 2288 2199 2291 2376 2377 2293 2379 2457
8 2198 2290 2378 2292 2293 2377 2458 2380
8 2293 2202 2294 2379 2380 2295 2381 2459
8 2384 2298 2381 2459 2297 2205 2294 2379
8 2386 2300 2384 2463 2299 2207 2297 2383
8 2387 2301 2385 2464 2300 2208 2298 2384
8 2389 2303 2387 2466 2302 2210 2300 2386
8 2390 2304 2388 2467 2303 2211 2301 2387
8 2392 2306 2390 2469 2305 2213 2303 2389
8 2393 2307 2391 2470 2306 2214 2304 2390
8 2395 2308 2393 2472 2310 2216 2306 2392
8 2308 2215 2309 2396 2393 2307 2394 2473
8 2395 2308 2216 2310 2475 2396 2311 2398
8 2396 2309 2217 2311 2476 2397 2312 2399
8 2398 2311 2219 2315 2478 2399 2314 2403
8 2399 2312 2218 2314 2479 2400 2313 2402
8 2317 2221 2316 2405 2402 2313 2401 2482
8 2403 2314 2222 2318 2483 2402 2317 2406
8 2320 2224 2319 2408 2405 2316 2404 2485
8 2321 2225 2320 2409 2406 2317 2405 2486
8 2323 2227 2322 2411 2408 2319 2407 2488
8 2324 2228 2323 2412 2409 2320 2408 2489
8 2326 2230 2325 2413 2411 2322 2410 2490
8 2327 2231 2326 2414 2412 2323 2411 2491
8 2329 2234 2328 2415 2414 2326 2413 2492
8 2417 2331 2260 2352 2494 2416 2353 2438
8 2350 2259 2352 2436 2419 2332 2417 2496
8 2332 2239 2331 2417 2420 2333 2418 2497
8 2334 2240 2332 2419 2422 2335 2420 2499
8 2420 2333 2421 2500 2335 2241 2336 2423
8 2422 2335 2423 2502 2337 2243 2338 2425
8 2423 2336 2424 2503 2338 2244 2339 2426
8 2425 2338 2426 2505 2342 2246 2341 2429
8 2426 2339 2427 2506 2341 2245 2340 2428
8 2429 2341 2428 2507 2344 2249 2343 2430
8 2432 2346 2284 2374 2509 2431 2373 2455
8 2432 2346 2431 2509 2364 2270 2363 2449
8 2375 2285 2374 2456 2433 2347 2432 2510
8 2347 2433 2365 2271 2432 2510 2450 2364
8 2350 2259 2351 2435 2436 2352 2437 2514
8 2440 2356 2437 2514 2355 2264 2351 2435
8 2352 2260 2354 2437 2438 2353 2439 2516
8 2356 2265 2358 2442 2437 2354 2439 2516
8 2440 2356 2264 2355 2518 2442 2357 2441
8 2519 2443 2357 2441 2447 2361 2268 2362
8 2443 2359 2444 2520 2357 2266 2358 2442
8 2443 2359 2267 2361 2520 2444 2360 2446
8 2446 2360 2279 2370 2523 2445 2369 2452
8 2453 2370 2446 2524 2371 2280 2361 2447
8 2449 2363 2448 2525 2368 2278 2369 2452
8 2366 2277 2364 2450 2451 2368 2449 2526
8 2372 2283 2368 2451 2453 2370 2452 2527
8 2455 2373 2295 2380 2529 2454 2382 2460
8 2456 2374 2292 2378 2530 2455 2380 2458
8 2377 2293 2379 2457 2458 2380 2459 2531
8 2463 2384 2459 2531 2383 2297 2379 2457
8 2533 2461 2382 2460 2459 2381 2295 2380
8 2464 2385 2461 2533 2384 2298 2381 2459
8 2466 2387 2464 2537 2386 2300 2384 2463
8 2467 2388 2465 2538 2387 2301 2385 2464
8 2469 2390 2467 2540 2389 2303 2387 2466
8 2470 2391 2468 2541 2390 2304 2388 2467
8 2472 2393 2470 2543 2392 2306 2390 2469
8 2393 2307 2394 2473 2470 2391 2471 2544
8 2395 2308 2396 2475 2472 2393 2473 2546
8 2396 2309 2397 2476 2473 2394 2474 2547
8 2475 2396 2311 2398 2549 2476 2399 2478
8 2476 2397 2312 2399 2550 2477 2400 2479
8 2478 2399 2314 2403 2552 2479 2402 2483
8 2479 2400 2313 2402 2553 2480 2401 2482
8 2405 2316 2404 2485 2482 2401 2481 2556
8 2406 2317 2405 2486 2483 2402 2482 2557
8 2408 2319 2407 2488 2485 2404 2484 2559
8 2409 2320 2408 2489 2486 2405 2485 2560
8 2411 2322 2410 2490 2488 2407 2487 2561
8 2412 2323 2411 2491 2489 2408 2488 2562
8 2414 2326 2413 2492 2491 2411 2490 2563
8 2513 2434 2493 2565 2438 2353 2416 2494
8 2496 2417 2352 2436 2567 2494 2438 2515
8 2494 2416 2495 2568 2417 2331 2418 2497
8 2419 2332 2417 2496 2499 2420 2497 2570
8 2497 2418 2498 2571 2420 2333 2421 2500
8 2499 2420 2500 2573 2422 2335 2423 2502
8 2500 2421 2501 2574 2423 2336 2424 2503
8 2502 2423 2503 2576 2425 2338 2426 2505
8 2503 2424 2504 2577 2426 2339 2427 2506
8 2505 2426 2506 2578 2429 2341 2428 2507
8 2509 2431 2373 2455 2580 2508 2454 2529
8 2509 2431 2508 2580 2449 2363 2448 2525
8 2432 2510 2581 2509 2374 2456 2530 2455
8 2432 2510 2450 2364 2509 2581 2526 2449
8 2583 2511 2434 2513 2516 2439 2353 2438
8 2436 2352 2437 2514 2515 2438 2516 2588
8 2440 2356 2442 2518 2514 2437 2516 2588
8 2442 2358 2444 2520 2516 2439 2517 2589
8 2519 2443 2520 2591 2441 2357 2442 2518
8 2519 2443 2361 2447 2591 2520 2446 2524
8 2446 2360 2445 2523 2520 2444 2521 2592
8 2525 2448 2522 2593 2452 2369 2445 2523
8 2524 2446 2370 2453 2594 2523 2452 2527
8 2526 2449 2525 2595 2451 2368 2452 2527
8 2534 2462 2528 2597 2460 2382 2454 2529
8 2530 2455 2380 2458 2598 2529 2460 2532
8 2599 2533 2460 2532 2531 2459 2380 2458
8 2537 2464 2533 2599 2463 2384 2459 2531
8 2534 2462 2382 2460 2601 2535 2461 2533
8 2538 2465 2535 2601 2464 2385 2461 2533
8 2540 2467 2538 2604 2466 2387 2464 2537
8 2541 2468 2539 2605 2467 2388 2465 2538
8 2543 2470 2541 2607 2469 2390 2467 2540
8 2470 2391 2471 2544 2541 2468 2542 2608
8 2472 2393 2473 2546 2543 2470 2544 2610
8 2473 2394 2474 2547 2544 2471 2545 2611
8 2475 2396 2476 2549 2546 2473 2547 2613
8 2476 2397 2477 2550 2547 2474 2548 2614
8 2549 2476 2399 2478 2616 2550 2479 2552
8 2479 2400 2480 2553 2550 2477 2551 2617
8 2552 2479 2402 2483 2619 2553 2482 2557
8 2482 2401 2481 2556 2553 2480 2554 2620
8 2485 2404 2484 2559 2556 2481 2555 2623
8 2486 2405 2485 2560 2557 2482 2556 2624
8 2488 2407 2487 2561 2559 2484 2558 2625
8 2489 2408 2488 2562 2560 2485 2559 2626
8 2491 2411 2490 2563 2562 2488 2561 2627
8 2513 2434 2512 2585 2565 2493 2564 2630
8 2586 2513 2565 2632 2515 2438 2494 2567
8 2565 2493 2566 2633 2494 2416 2495 2568
8 2567 2494 2568 2635 2496 2417 2497 2570
8 2568 2495 2569 2636 2497 2418 2498 2571
8 2570 2497 2571 2638 2499 2420 2500 2573
8 2571 2498 2572 2639 2500 2421 2501 2574
8 2573 2500 2574 2641 2502 2423 2503 2576
8 2574 2501 2575 2642 2503 2424 2504 2577
8 2576 2503 2577 2643 2505 2426 2506 2578
8 2597 2528 2579 2645 2529 2454 2508 2580
8 2580 2508 2579 2645 2525 2448 2522 2593
8 2581 2509 2455 2530 2646 2580 2529 2598
8 2581 2509 2580 2646 2526 2449 2525 2595
8 2583 2511 2582 2648 2513 2434 2512 2585
8 2583 2511 2439 2516 2648 2582 2517 2589
8 2649 2583 2513 2586 2588 2516 2438 2515
8 2589 2517 2444 2520 2653 2587 2521 2592
8 2518 2442 2520 2591 2588 2516 2589 2654
8 2593 2522 2590 2655 2523 2445 2521 2592
8 2524 2446 2523 2594 2591 2520 2592 2656
8 2595 2525 2593 2657 2527 2452 2523 2594
8 2602 2536 2596 2659 2534 2462 2528 2597
8 2600 2534 2597 2660 2532 2460 2529 2598
8 2600 2534 2460 2532 2661 2601 2533 2599
8 2604 2538 2601 2661 2537 2464 2533 2599
8 2602 2536 2462 2534 2663 2603 2535 2601
8 2601 2535 2465 2538 2663 2603 2539 2605
8 2607 2541 2605 2665 2540 2467 2538 2604
8 2608 2542 2606 2666 2541 2468 2539 2605
8 2543 2470 2544 2610 2607 2541 2608 2668
8 2544 2471 2545 2611 2608 2542 2609 2669
8 2546 2473 2547 2613 2610 2544 2611 2671
8 2547 2474 2548 2614 2611 2545 2612 2672
8 2549 2476 2550 2616 2613 2547 2614 2674
8 2550 2477 2551 2617 2614 2548 2615 2675
8 2552 2479 2553 2619 2616 2550 2617 2677
8 2553 2480 2554 2620 2617 2551 2618 2678
8 2557 2482 2556 2624 2619 2553 2620 2680
8 2556 2481 2555 2623 2620 2554 2621 2681
8 2559 2484 2558 2625 2623 2555 2622 2683
8 2560 2485 2559 2626 2624 2556 2623 2684
8 2562 2488 2561 2627 2626 2559 2625 2685
8 2690 2629 2564 2630 2650 2584 2512 2585
8 2586 2513 2585 2651 2632 2565 2630 2691
8 2630 2564 2631 2692 2565 2493 2566 2633
8 2632 2565 2633 2694 2567 2494 2568 2635
8 2633 2566 2634 2695 2568 2495 2569 2636
8 2635 2568 2636 2697 2570 2497 2571 2638
8 2636 2569 2637 2698 2571 2498 2572 2639
8 2638 2571 2639 2700 2573 2500 2574 2641
8 2639 2572 2640 2701 2574 2501 2575 2642
8 2641 2574 2642 2702 2576 2503 2577 2643
8 2597 2528 2596 2659 2645 2579 2644 2704
8 2645 2579 2644 2704 2593 2522 2590 2655
8 2660 2597 2645 2705 2598 2529 2580 2646
8 2646 2580 2645 2705 2595 2525 2593 2657
8 2650 2584 2512 2585 2707 2647 2582 2648
8 2648 2582 2517 2589 2707 2647 2587 2653
8 2649 2583 2648 2708 2586 2513 2585 2651
8 2649 2583 2516 2588 2708 2648 2589 2654
8 2655 2590 2652 2710 2592 2521 2587 2653
8 2654 2589 2520 2591 2711 2653 2592 2656
8 2657 2593 2655 2712 2594 2523 2592 2656
8 2602 2536 2603 2663 2659 2596 2658 2714
8 2662 2602 2659 2715 2600 2534 2597 2660
8 2662 2602 2534 2600 2717 2663 2601 2661
8 2661 2601 2538 2604 2717 2663 2605 2665
8 2666 2606 2664 2718 2605 2539 2603 2663
8 2668 2608 2666 2720 2607 2541 2605 2665
8 2608 2542 2609 2669 2666 2606 2667 2721
8 2610 2544 2611 2671 2668 2608 2669 2723
8 2611 2545 2612 2672 2669 2609 2670 2724
8 2613 2547 2614 2674 2671 2611 2672 2726
8 2614 2548 2615 2675 2672 2612 2673 2727
8 2616 2550 2617 2677 2674 2614 2675 2729
8 2617 2551 2618 2678 2675 2615 2676 2730
8 2619 2553 2620 2680 2677 2617 2678 2732
8 2620 2554 2621 2681 2678 2618 2679 2733
8 2624 2556 2623 2684 2680 2620 2681 2735
8 2681 2621 2555 2623 2736 2682 2622 2683
8 2626 2559 2625 2685 2684 2623 2683 2737
8 2688 2628 2584 2650 2740 2686 2647 2707
8 2688 2628 2687 2742 2650 2584 2629 2690
8 2690 2629 2689 2745 2630 2564 2631 2692
8 2746 2690 2630 2691 2709 2650 2585 2651
8 2691 2630 2692 2747 2632 2565 2633 2694
8 2692 2631 2693 2748 2633 2566 2634 2695
8 2694 2633 2695 2750 2635 2568 2636 2697
8 2695 2634 2696 2751 2636 2569 2637 2698
8 2697 2636 2698 2753 2638 2571 2639 2700
8 2698 2637 2699 2754 2639 2572 2640 2701
8 2700 2639 2701 2755 2641 2574 2642 2702
8 2659 2596 2658 2714 2704 2644 2703 2757
8 2704 2644 2703 2757 2655 2590 2652 2710
8 2660 2597 2659 2715 2705 2645 2704 2758
8 2705 2645 2704 2758 2657 2593 2655 2712
8 2759 2706 2647 2707 2710 2652 2587 2653
8 2709 2650 2585 2651 2760 2707 2648 2708
8 2708 2648 2589 2654 2760 2707 2653 2711
8 2712 2655 2710 2761 2656 2592 2653 2711
8 2763 2713 2658 2714 2718 2664 2603 2663
8 2662 2602 2663 2717 2715 2659 2714 2764
8 2720 2666 2718 2767 2665 2605 2663 2717
8 2768 2719 2664 2718 2721 2667 2606 2666
8 2668 2608 2669 2723 2720 2666 2721 2770
8 2669 2609 2670 2724 2721 2667 2722 2771
8 2671 2611 2672 2726 2723 2669 2724 2773
8 2672 2612 2673 2727 2724 2670 2725 2774
8 2674 2614 2675 2729 2726 2672 2727 2776
8 2675 2615 2676 2730 2727 2673 2728 2777
8 2677 2617 2678 2732 2729 2675 2730 2779
8 2678 2618 2679 2733 2730 2676 2731 2780
8 2680 2620 2681 2735 2732 2678 2733 2782
8 2733 2679 2621 2681 2783 2734 2682 2736
8 2735 2681 2623 2684 2784 2736 2683 2737
8 2740 2686 2647 2707 2787 2738 2706 2759
8 2688 2628 2686 2740 2742 2687 2739 2789
8 2743 2688 2650 2709 2790 2740 2707 2760
8 2742 2687 2741 2792 2690 2629 2689 2745
8 2743 2688 2742 2793 2709 2650 2690 2746
8 2745 2689 2744 2795 2692 2631 2693 2748
8 2746 2690 2745 2796 2691 2630 2692 2747
8 2747 2692 2748 2797 2694 2633 2695 2750
8 2748 2693 2749 2798 2695 2634 2696 2751
8 2750 2695 2751 2800 2697 2636 2698 2753
8 2751 2696 2752 2801 2698 2637 2699 2754
8 2753 2698 2754 2802 2700 2639 2701 2755
8 2763 2713 2756 2804 2714 2658 2703 2757
8 2759 2706 2652 2710 2804 2756 2703 2757
8 2715 2659 2714 2764 2758 2704 2757 2805
8 2758 2704 2757 2805 2712 2655 2710 2761
8 2806 2759 2707 2760 2761 2710 2653 2711
8 2765 2716 2762 2808 2718 2664 2713 2763
8 2809 2763 2714 2764 2767 2718 2663 2717
8 2765 2716 2664 2718 2811 2766 2719 2768
8 2813 2768 2718 2767 2770 2721 2666 2720
8 2814 2769 2719 2768 2771 2722 2667 2721
8 2723 2669 2724 2773 2770 2721 2771 2816
8 2724 2670 2725 2774 2771 2722 2772 2817
8 2726 2672 2727 2776 2773 2724 2774 2819
8 2727 2673 2728 2777 2774 2725 2775 2820
8 2729 2675 2730 2779 2776 2727 2777 2822
8 2730 2676 2731 2780 2777 2728 2778 2823
8 2732 2678 2733 2782 2779 2730 2780 2825
8 2780 2731 2679 2733 2826 2781 2734 2783
8 2782 2733 2681 2735 2827 2783 2736 2784
8 2830 2785 2738 2787 2804 2756 2706 2759
8 2789 2739 2686 2740 2832 2786 2738 2787
8 2790 2740 2707 2760 2833 2787 2759 2806
8 2742 2687 2739 2789 2792 2741 2788 2835
8 2743 2688 2740 2790 2793 2742 2789 2836
8 2792 2741 2791 2838 2745 2689 2744 2795
8 2793 2742 2792 2839 2746 2690 2745 2796
8 2795 2744 2794 2841 2748 2693 2749 2798
8 2796 2745 2795 2842 2747 2692 2748 2797
8 2797 2748 2798 2843 2750 2695 2751 2800
8 2798 2749 2799 2844 2751 2696 2752 2801
8 2800 2751 2801 2845 2753 2698 2754 2802
8 2808 2762 2803 2847 2763 2713 2756 2804
8 2809 2763 2804 2848 2764 2714 2757 2805
8 2806 2759 2710 2761 2848 2804 2757 2805
8 2765 2716 2766 2811 2808 2762 2807 2850
8 2810 2765 2808 2851 2767 2718 2763 2809
8 2810 2765 2718 2767 2852 2811 2768 2813
8 2811 2766 2719 2768 2853 2812 2769 2814
8 2855 2814 2768 2813 2816 2771 2721 2770
8 2856 2815 2769 2814 2817 2772 2722 2771
8 2773 2724 2774 2819 2816 2771 2817 2858
8 2774 2725 2775 2820 2817 2772 2818 2859
8 2776 2727 2777 2822 2819 2774 2820 2861
8 2777 2728 2778 2823 2820 2775 2821 2862
8 2779 2730 2780 2825 2822 2777 2823 2864
8 2823 2778 2731 2780 2865 2824 2781 2826
8 2825 2780 2733 2782 2866 2826 2783 2827
8 2869 2828 2785 2830 2847 2803 2756 2804
8 2871 2829 2786 2832 2830 2785 2738 2787
8 2872 2830 2787 2833 2848 2804 2759 2806
8 2789 2739 2786 2832 2835 2788 2831 2874
8 2836 2789 2740 2790 2875 2832 2787 2833
8 2792 2741 2788 2835 2838 2791 2834 2877
8 2793 2742 2789 2836 2839 2792 2835 2878
8 2838 2791 2837 2880 2795 2744 2794 2841
8 2839 2792 2838 2881 2796 2745 2795 2842
8 2841 2794 2840 2882 2798 2749 2799 2844
8 2842 2795 2841 2883 2797 2748 2798 2843
8 2843 2798 2844 2884 2800 2751 2801 2845
8 2886 2846 2803 2847 2850 2807 2762 2808
8 2851 2808 2847 2887 2809 2763 2804 2848
8 2850 2807 2766 2811 2889 2849 2812 2853
8 2810 2765 2811 2852 2851 2808 2850 2890
8 2852 2811 2768 2813 2891 2853 2814 2855
8 2853 2812 2769 2814 2892 2854 2815 2856
8 2894 2856 2814 2855 2858 2817 2771 2816
8 2817 2772 2818 2859 2856 2815 2857 2895
8 2819 2774 2820 2861 2858 2817 2859 2897
8 2820 2775 2821 2862 2859 2818 2860 2898
8 2822 2777 2823 2864 2861 2820 2862 2900
8 2823 2778 2824 2865 2862 2821 2863 2901
8 2864 2823 2780 2825 2902 2865 2826 2866
8 2904 2867 2828 2869 2886 2846 2803 2847
8 2869 2828 2868 2906 2830 2785 2829 2871
8 2907 2869 2830 2872 2887 2847 2804 2848
8 2871 2829 2870 2909 2832 2786 2831 2874
8 2910 2871 2832 2875 2872 2830 2787 2833
8 2835 2788 2831 2874 2877 2834 2873 2912
8 2836 2789 2832 2875 2878 2835 2874 2913
8 2877 2834 2876 2915 2838 2791 2837 2880
8 2839 2792 2835 2878 2881 2838 2877 2916
8 2880 2837 2879 2917 2841 2794 2840 2882
8 2881 2838 2880 2918 2842 2795 2841 2883
8 2883 2841 2882 2919 2843 2798 2844 2884
8 2921 2885 2846 2886 2889 2849 2807 2850
8 2922 2886 2847 2887 2890 2850 2808 2851
8 2889 2849 2812 2853 2924 2888 2854 2892
8 2890 2850 2811 2852 2925 2889 2853 2891
8 2891 2853 2814 2855 2926 2892 2856 2894
8 2892 2854 2815 2856 2927 2893 2857 2895
8 2858 2817 2859 2897 2894 2856 2895 2929
8 2859 2818 2860 2898 2895 2857 2896 2930
8 2861 2820 2862 2900 2897 2859 2898 2932
8 2862 2821 2863 2901 2898 2860 2899 2933
8 2864 2823 2865 2902 2900 2862 2901 2934
8 2904 2867 2846 2886 2936 2903 2885 2921
8 2904 2867 2903 2936 2869 2828 2868 2906
8 2937 2904 2869 2907 2922 2886 2847 2887
8 2906 2868 2905 2939 2871 2829 2870 2909
8 2907 2869 2906 2940 2872 2830 2871 2910
8 2909 2870 2908 2942 2874 2831 2873 2912
8 2910 2871 2909 2943 2875 2832 2874 2913
8 2912 2873 2911 2945 2877 2834 2876 2915
8 2878 2835 2874 2913 2916 2877 2912 2946
8 2915 2876 2914 2947 2880 2837 2879 2917
8 2916 2877 2915 2948 2881 2838 2880 2918
8 2918 2880 2917 2949 2883 2841 2882 2919
8 2921 2885 2849 2889 2951 2920 2888 2924
8 2952 2921 2886 2922 2925 2889 2850 2890
8 2924 2888 2854 2892 2954 2923 2893 2927
8 2925 2889 2853 2891 2955 2924 2892 2926
8 2926 2892 2856 2894 2956 2927 2895 2929
8 2895 2857 2896 2930 2927 2893 2928 2957
8 2897 2859 2898 2932 2929 2895 2930 2959
8 2898 2860 2899 2933 2930 2896 2931 2960
8 2900 2862 2901 2934 2932 2898 2933 2961
8 2936 2903 2885 2921 2963 2935 2920 2951
8 2936 2903 2935 2963 2906 2868 2905 2939
8 2937 2904 2886 2922 2964 2936 2921 2952
8 2937 2904 2936 2964 2907 2869 2906 2940
8 2939 2905 2938 2966 2909 2870 2908 2942
8 2940 2906 2939 2967 2910 2871 2909 2943
8 2942 2908 2941 2969 2912 2873 2911 2945
8 2943 2909 2942 2970 2913 2874 2912 2946
8 2945 2911 2944 2971 2915 2876 2914 2947
8 2946 2912 2945 2972 2916 2877 2915 2948
8 2948 2915 2947 2973 2918 2880 2917 2949
8 2951 2920 2888 2924 2975 2950 2923 2954
8 2952 2921 2889 2925 2976 2951 2924 2955
8 2927 2893 2928 2957 2954 2923 2953 2978
8 2955 2924 2892 2926 2979 2954 2927 2956
8 2929 2895 2930 2959 2956 2927 2957 2980
8 2930 2896 2931 2960 2957 2928 2958 2981
8 2932 2898 2933 2961 2959 2930 2960 2982
8 2951 2920 2950 2975 2963 2935 2962 2984
8 2963 2935 2962 2984 2939 2905 2938 2966
8 2964 2936 2921 2952 2985 2963 2951 2976
8 2964 2936 2963 2985 2940 2906 2939 2967
8 2966 2938 2965 2987 2942 2908 2941 2969
8 2967 2939 2966 2988 2943 2909 2942 2970
8 2969 2941 2968 2989 2945 2911 2944 2971
8 2970 2942 2969 2990 2946 2912 2945 2972
8 2972 2945 2971 2991 2948 2915 2947 2973
8 2954 2923 2953 2978 2975 2950 2974 2993
8 2976 2951 2924 2955 2994 2975 2954 2979
8 2957 2928 2958 2981 2978 2953 2977 2995
8 2956 2927 2957 2980 2979 2954 2978 2996
8 2959 2930 2960 2982 2980 2957 2981 2997
8 2984 2962 2983 2999 2966 2938 2965 2987
8 2975 2950 2974 2993 2984 2962 2983 2999
8 2976 2951 2975 2994 2985 2963 2984 3000
8 2985 2963 2984 3000 2967 2939 2966 2988
8 2987 2965 2986 3001 2969 2941 2968 2989
8 2988 2966 2987 3002 2970 2942 2969 2990
8 2990 2969 2989 3003 2972 2945 2971 2991
8 2978 2953 2977 2995 2993 2974 2992 3004
8 2979 2954 2978 2996 2994 2975 2993 3005
8 2980 2957 2981 2997 2996 2978 2995 3006
8 2974 2993 2999 2983 2992 3004 3007 2998
8 2983 2999 2987 2965 2998 3007 3001 2986
8 3000 2984 2999 3008 2988 2966 2987 3002
8 2994 2975 2993 3005 3000 2984 2999 3008
8 3002 2987 3001 3009 2990 2969 2989 3003
8 2996 2978 2995 3006 3005 2993 3004 3010
8 3005 2993 3004 3010 3008 2999 3007 3011
8 3008 2999 3007 3011 3002 2987 3001 3009

CELL_TYPES 1910
12
12
12
12
12
12
12
12
12
12
12
12
12
12
12
12
12
12
12
12
12
12
12
12
12
12
12
12
12
12
12
12
12
12
12
12
12
12
12
12
12
12
12
12
12
12
12
12
12
12
12
12
12
12
12
12
12
12
12
12
12
12
12
12
12
12
12
12
12
12
12
12
12
12
12
12
12
12
12
12
12
12
12
12
12
12
12
12
12
12
12
12
12
12
12
12
12
12
12
12
12
12
12
12
12
12
12
12
12
12
12
12
12
12
12
12
12
12
12
12
12
12
12
12
12
12
12
12
12
12
12
12
12
12
12
12
12
12
12
12
12
12
12
12
12
12
12
12
12
12
12
12
12
12
12
12
12
12
12
12
12
12
12
12
12
12
12
12
12
12
12
12
12
12
12
12
12
12
12
12
12
12
12
12
12
12
12
12
12
12
12
12
12
12
12
12
12
12
12
12
12
12
12
12
12
12
12
12
12
12
12
12
12
12
12
12
12
12
12
12
12
12
12
12
12
12
12
12
12
12
12
12
12
12
12
12
12
12
12
12
12
12
12
12
12
12
12
12
12
12
12
12
12
12
12
12
12
12
12
12
12
12
12
12
12
12
12
12
12
12
12
12
12
12
12
12
12
12
12
12
12
12
12
12
12
12
12
12
12
12
12
12
12
12
12
12
12
12
12
12
12
12
12
12
12
12
12
12
12
12
12
12
12
12
12
12
12
12
12
12
12
12
12
12
12
12
12
12
12
12
12
12
12
12
12
12
12
12
12
12
12
12
12
12
12
12
12
12
12
12
12
12
12
12
12
12
12
12
12
12
12
12
12
12
12
12
12
12
12
12
12
12
12
12
12
12
12
12
12
12
12
12
12
12
12
12
12
12
12
12
12
12
12
12
12
12
12
12
12
12
12
12
12
12
12
12
12
12
12
12
12
12
12
12
12
12
12
12
12
12
12
12
12
12
12
12
12
12
12
12
12
12
12
12
12
12
12
12
12
12
12
12
12
12
12
12
12
12
12
12
12
12
12
12
12
12
12
12
12
12
12
12
12
12
12
12
12
12
12
12
12
12
12
12
12
12
12
12
12
12
12
12
12
12
12
12
12
12
12
12
12
12
12
12
12
12
12
12
12
12
12
12
12
12
12
12
12
12
12
12
12
12
12
12
12
12
12
12
12
12
12
12
12
12
12
12
12
12
12
12
12
12
12
12
12
12
12
12
12
12
12
12
12
12
12
12
12
12
12
12
12
12
12
12
12
12
12
12
12
12
12
12
12
12
12
12
12
12
12
12
12
12
12
12
12
12
12
12
12
12
12
12
12
12
12
12
12
12
12
12
12
12
12
12
12
12
12
12
12
12
12
12
12
12
12
12
12
12
12
12
12
12
12
12
12
12
12
12
12
12
12
12
12
12
12
12
12
12
12
12
12
12
12
12
12
12
12
12
12
12
12
12
12
12
12
12
12
12
12
12
12
12
12
12
12
12
12
12
12
12
12
12
12
12
12
12
12
12
12
12
12
12
12
12
12
12
12
12
12
12
12
12
12
12
12
12
12
12
12
12
12
12
12
12
12
12
12
12
12
12
12
12
12
12
12
12
12
12
12
12
12
12
12
12
12
12
12
12
12
12
12
12
12
12
12
12
12
12
12
12
12
12
12
12
12
12
12
12
12
12
12
12
12
12
12
12
12
12
12
12
12
12
12
12
12
12
12
12
12
12
12
12
12
12
12
12
12
12
12
12
12
12
12
12
12
12
12
12
12
12
12
12
12
12
12
12
12
12
12
12
12
12
12
12
12
12
12
12
12
12
12
12
12
12
12
12
12
12
12
12
12
12
12
12
12
12
12
12
12
12
12
12
12
12
12
12
12
12
12
12
12
12
12
12
12
12
12
12
12
12
12
12
12
12
12
12
12
12
12
12
12
12
12
12
12
12
12
12
12
12
12
12
12
12
12
12
12
12
12
12
12
12
12
12
12
12
12
12
12
12
12
12
12
12
12
12
12
12
12
12
12
12
12
12
12
12
12
12
12
12
12
12
12
12
12
12
12
12
12
12
12
12
12
12
12
12
12
12
12
12
12
12
12
12
12
12
12
12
12
12
12
12
12
12
12
12
12
12
12
12
12
12
12
12
12
12
12
12
12
12
12
12
12
12
12
12
12
12
12
12
12
12
12
12
12
12
12
12
12
12
12
12
12
12
12
12
12
12
12
12
12
12
12
12
12
12
12
12
12
12
12
12
12
12
12
12
12
12
12
12
12
12
12
12
12
12
12
12
12
12
12
12
12
12
12
12
12
12
12
12
12
12
12
12
12
12
12
12
12
12
12
12
12
12
12
12
12
12
12
12
12
12
12
12
12
12
12
12
12
12
12
12
12
12
12
12
12
12
12
12
12
12
12
12
12
12
12
12
12
12
12
12
12
12
12
12
12
12
12
12
12
12
12
12
12
12
12
12
12
12
12
12
12
12
12
12
12
12
12
12
12
12
12
12
12
12
12
12
12
12
12
12
12
12
12
12
12
12
12
12
12
12
12
12
12
12
12
12
12
12
12
12
12
12
12
12
12
12
12
12
12
12
12
12
12
12
12
12
12
12
12
12
12
12
12
12
12
12
12
12
12
12
12
12
12
12
12
12
12
12
12
12
12
12
12
12
12
12
12
12
12
12
12
12
12
12
12
12
12
12
12
12
12
12
12
12
12
12
12
12
12
12
12
12
12
12
12
12
12
12
12
12
12
12
12
12
12
12
12
12
12
12
12
12
12
12
12
12
12
12
12
12
12
12
12
12
12
12
12
12
12
12
12
12
12
12
12
12
12
12
12
12
12
12
12
12
12
12
12
12
12
12
12
12
12
12
12
12
12
12
12
12
12
12
12
12
12
12
12
12
12
12
12
12
12
12
12
12
12
12
12
12
12
12
12
12
12
12
12
12
12
12
12
12
12
12
12
12
12
12
12
12
12
12
12
12
12
12
12
12
12
12
12
12
12
12
12
12
12
12
12
12
12
12
12
12
12
12
12
12
12
12
12
12
12
12
12
12
12
12
12
12
12
12
12
12
12
12
12
12
12
12
12
12
12
12
12
12
12
12
12
12
12
12
12
12
12
12
12
12
12
12
12
12
12
12
12
12
12
12
12
12
12
12
12
12
12
12
12
12
12
12
12
12
12
12
12
12
12
12
12
12
12
12
12
12
12
12
12
12
12
12
12
12
12
12
12
12
12
12
12
12
12
12
12
12
12
12
12
12
12
12
12
12
12
12
12
12
12
12
12
12
12
12
12
12
12
12
12
12
12
12
12
12
12
12
12
12
12
12
12
12
12
12
12
12
12
12
12
12
12
12
12
12
12
12
12
12
12
12
12
12
12
12
12
12
12
12
12
12
12
12
12
12
12
12
12
12
12
12
12
12
12
12
12
12
12
12
12
12
12
12
12
12
12
12
12
12
12
12
12
12
12
12
12
12
12
12
12
12
12
12
12
12
12
12
12
12
12
12
12
12
12
12
12
12
12
12
12
12
12
12
12
12
12
12
12
12
12
12
12
12
12
12
12
12
12
12
12
12
12
12
12
12
12
12
12
12
12
12
12
12
12
12
12
12
12
12
12
12
12
12
12
12
12
12
12
12
12
12
12
12
12
12
12
12
12
12
12
12
12
12
12
12
12
12
12
12
12
12
12
12
12
12
12
12
12
12
12
12
12
12
12
12
12
12
12
12
12
12
12
12
12
12
12
12
12
12
12
12
12
12
12
12
12
12
12
12
12
12
12
12
12
12
12
12
12
12
12
12
12
12
12
12
12
12
12
12
12
12
12
12
12
12
12
12
12
12
12
12
12
12
12
12
12
12
12
12
12
12
12
12
12
12
12
12
12
12
12
12
12
12
12
12
12
12
12
12
12
12
12
12
12
12
12
12
12
12
12
12
12
12
12
12
12
12
12
12
12
12
12
12
12
12
12
12
12
12
12
12
12
12
12
12
12
12
12
12
12
12
12
12
12
12
12
12
12
12
12
12
12
12
12
12
12
12
12
12
12
12
12
12
12
12
12
12
12
12
12
12
12
12
12
12
12
12
12
12
12
12
12
12
12
12
12
12
12
12
12
12
12
12
12
12
12
12
12
12
12
12
12
12
12
12
12
12
12
12
12
12
12
12
12
12
12
12
12
12
12
12
12
12
12
12
12
12
12
12
12
12
12
12
12
12
12
12
12
12
12
12
12
12
12
12
12
12
12
12
12
12
12
12
12
12
12
12
12
12
12
12
12
12
12
12
12
12
12
12
12
12
12
12
12
12
12
12
12
12
12
12

POINT_DATA 3012
SCALARS Jp_lamdaP float 4
LOOKUP_TABLE default
1 1 1 1
1 1 1 1
1 1 1 1
1 1 1 1
1 1 1 1
1 1 1 1
0.999981 1 1 0.999981
1 1 1 1
1 1 1 1
1 1 1 1
1 1 1 1
1 1 1 1
1 1 1 1
1 1 1 1
1 1 1 1
1 1 1 1
1 1 1 1
1 1 1 1
0.999982 1 1 0.999982
1 1 1 1
1 1 1 1
1 1 1 1
0.999959 1 1 0.999959
0.999975 1 1 0.999975
1 1 1 1
0.999987 1 1 0.999987
0.999927 1 1 0.999927
1 1 1 1
1 1 1 1
1 1 1 1
1 1 1 1
1 1 1 1
1 1 1 1
1 1 1 1
0.999992 1 1 0.999992
1 1 1 1
0.999999 1 1 0.999999
1 1 1 1
0.999943 1 1 0.999943
1 1 1 1
1 1 1 1
1 1 1 1
1 1 1 1
1 1 1 1
0.999972 1 1 0.999972
1 1 1 1
0.999981 1 1 0.999981
1 1 1 1
1 1 1 1
1 1 1 1
0.999982 1 1 0.999982
1 1 1 1
1 1 1 1
1 1 1 1
1 1 1 1
0.999959 1 1 0.999959
0.999987 1 1 0.999987
0.999976 1 1 0.999976
0.999925 1 1 0.999925
1 1 1 1
1 1 1 1
0.999973 1 1 0.999973
0.999952 1 1 0.999952
0.999968 1 1 0.999968
0.999872 1 1 0.999872
0.999903 1 1 0.999903
1 1 1 1
0.999991 1 1 0.999991
0.999942 1 1 0.999942
0.999832 1 1 0.999832
1 1 1 1
1 1 1 1
1 1 1 1
1 1 1 1
1 1 1 1
1 1 1 1
0.999993 1 1 0.999993
1 1 1 1
1 1 1 1
1 1 1 1
0.999943 1 1 0.999943
1 1 1 1
1 1 1 1
0.999987 1 1 0.999987
0.999996 1 1 0.999996
0.999896 1 1 0.999896
1 1 1 1
0.999934 1 1 0.999934
0.999953 1 1 0.999953
0.999869 1 1 0.999869
1 1 1 1
1 1 1 1
1 1 1 1
1 1 1 1
1 1 1 1
1 1 1 1
0.999973 1 1 0.999973
1 1 1 1
0.999981 1 1 0.999981
1 1 1 1
0.999968 1 1 0.999968
0.999976 1 1 0.999976
0.99983 1 1 0.99983
0.999983 1 1 0.999983
0.99985 1 1 0.99985
1 1 1 1
1 1 1 1
1 1 1 1
1 1 1 1
0.99996 1 1 0.99996
0.999976 1 1 0.999976
0.999988 1 1 0.999988
0.999923 1 1 0.999923
1 1 1 1
1 1 1 1
0.99996 1 1 0.99996
0.999952 1 1 0.999952
1 1 1 1
0.999995 1 1 0.999995
0.999968 1 1 0.999968
0.999866 1 1 0.999866
0.99994 1 1 0.99994
0.999907 1 1 0.999907
0.999833 1 1 0.999833
0.999971 1 1 0.999971
0.999951 1 1 0.999951
0.999839 1 1 0.999839
0.999849 1 1 0.999849
0.999884 1 1 0.999884
0.999784 1 1 0.999784
1 1 1 1
0.999822 1 1 0.999822
1 1 1 1
0.999946 1 1 0.999946
0.999843 1 1 0.999843
0.999795 1 1 0.999795
1 1 1 1
0.999962 1 1 0.999962
1 1 1 1
1 1 1 1
0.999995 1 1 0.999995
1 1 1 1
1 1 1 1
1 1 1 1
0.999943 1 1 0.999943
1 1 1 1
1 1 1 1
0.999988 1 1 0.999988
0.999997 1 1 0.999997
0.999896 1 1 0.999896
1 1 1 1
0.999934 1 1 0.999934
0.999953 1 1 0.999953
0.999866 1 1 0.999866
1 1 1 1
1 1 1 1
0.999968 1 1 0.999968
0.999876 1 1 0.999876
0.999918 1 1 0.999918
0.999815 1 1 0.999815
0.999962 1 1 0.999962
0.999857 1 1 0.999857
0.999874 1 1 0.999874
0.999834 1 1 0.999834
1 1 1 1
1 1 1 1
1 1 1 1
1 1 1 1
1 1 1 1
1 1 1 1
1 1 1 1
0.999982 1 1 0.999982
0.999974 1 1 0.999974
1 1 1 1
1 1 1 1
0.999969 1 1 0.999969
0.999978 1 1 0.999978
0.99983 1 1 0.99983
0.999984 1 1 0.999984
0.99985 1 1 0.99985
0.999968 1 1 0.999968
0.999823 1 1 0.999823
0.99984 1 1 0.99984
0.99976 1 1 0.99976
0.999862 1 1 0.999862
0.999779 1 1 0.999779
1 1 1 1
1 1 1 1
0.999948 1 1 0.999948
0.999953 1 1 0.999953
1 1 1 1
1 1 1 1
0.999969 1 1 0.999969
0.99986 1 1 0.99986
0.999912 1 1 0.999912
0.999938 1 1 0.999938
0.999833 1 1 0.999833
0.99997 1 1 0.99997
0.999951 1 1 0.999951
0.999827 1 1 0.999827
0.999853 1 1 0.999853
1 1 1 1
1 1 1 1
0.999949 1 1 0.999949
0.999884 1 1 0.999884
0.999777 1 1 0.999777
0.999842 1 1 0.999842
0.999826 1 1 0.999826
0.999796 1 1 0.999796
1 1 1 1
0.999962 1 1 0.999962
0.999823 1 1 0.999823
0.999841 1 1 0.999841
0.999759 1 1 0.999759
0.999754 1 1 0.999754
0.999811 1 1 0.999811
0.999748 1 1 0.999748
1 1 1 1
0.999789 1 1 0.999789
0.999955 1 1 0.999955
0.999857 1 1 0.999857
0.999805 1 1 0.999805
0.999785 1 1 0.999785
0.99996 1 1 0.99996
0.999968 1 1 0.999968
0.999872 1 1 0.999872
0.999989 1 1 0.999989
1 1 1 1
1 1 1 1
0.999998 1 1 0.999998
0.999896 1 1 0.999896
1 1 1 1
0.999954 1 1 0.999954
0.999935 1 1 0.999935
0.999863 1 1 0.999863
1 1 1 1
1 1 1 1
0.999968 1 1 0.999968
0.999876 1 1 0.999876
0.999918 1 1 0.999918
0.999815 1 1 0.999815
0.999963 1 1 0.999963
0.99986 1 1 0.99986
0.999874 1 1 0.999874
0.999831 1 1 0.999831
1 1 1 1
0.999967 1 1 0.999967
0.999971 1 1 0.999971
0.999885 1 1 0.999885
0.999799 1 1 0.999799
0.999841 1 1 0.999841
0.999776 1 1 0.999776
0.999882 1 1 0.999882
0.999823 1 1 0.999823
0.999824 1 1 0.999824
0.999806 1 1 0.999806
0.999986 1 1 0.999986
1 1 1 1
1 1 1 1
1 1 1 1
1 1 1 1
1 1 1 1
1 1 1 1
1 1 1 1
1 1 1 1
0.999985 1 1 0.999985
0.999979 1 1 0.999979
0.99985 1 1 0.99985
0.99983 1 1 0.99983
0.99997 1 1 0.99997
1 1 1 1
0.999968 1 1 0.999968
0.999823 1 1 0.999823
0.99984 1 1 0.99984
0.999759 1 1 0.999759
0.999862 1 1 0.999862
0.999779 1 1 0.999779
0.999821 1 1 0.999821
0.999754 1 1 0.999754
0.999768 1 1 0.999768
0.999736 1 1 0.999736
0.999789 1 1 0.999789
0.999753 1 1 0.999753
0.999969 1 1 0.999969
0.999951 1 1 0.999951
0.999815 1 1 0.999815
0.999856 1 1 0.999856
1 1 1 1
1 1 1 1
0.999952 1 1 0.999952
0.999885 1 1 0.999885
0.99977 1 1 0.99977
0.99983 1 1 0.99983
0.99984 1 1 0.99984
0.999796 1 1 0.999796
1 1 1 1
0.999962 1 1 0.999962
0.999818 1 1 0.999818
0.999841 1 1 0.999841
0.999758 1 1 0.999758
0.999761 1 1 0.999761
1 1 1 1
0.999954 1 1 0.999954
0.999862 1 1 0.999862
0.999811 1 1 0.999811
0.999746 1 1 0.999746
0.9998 1 1 0.9998
0.999789 1 1 0.999789
0.999785 1 1 0.999785
0.99996 1 1 0.99996
0.999869 1 1 0.999869
0.999967 1 1 0.999967
0.999761 1 1 0.999761
0.999755 1 1 0.999755
0.999723 1 1 0.999723
0.999725 1 1 0.999725
0.999776 1 1 0.999776
0.999748 1 1 0.999748
0.999959 1 1 0.999959
0.999783 1 1 0.999783
0.999877 1 1 0.999877
0.99981 1 1 0.99981
0.999775 1 1 0.999775
0.999796 1 1 0.999796
0.999977 1 1 0.999977
0.999877 1 1 0.999877
0.999861 1 1 0.999861
0.99983 1 1 0.99983
0.999876 1 1 0.999876
1 1 1 1
1 1 1 1
0.999968 1 1 0.999968
0.999919 1 1 0.999919
0.999815 1 1 0.999815
0.999963 1 1 0.999963
0.999873 1 1 0.999873
0.999862 1 1 0.999862
0.999827 1 1 0.999827
1 1 1 1
0.999967 1 1 0.999967
0.999971 1 1 0.999971
0.999885 1 1 0.999885
0.999798 1 1 0.999798
0.999841 1 1 0.999841
0.999776 1 1 0.999776
0.999882 1 1 0.999882
0.999826 1 1 0.999826
0.999823 1 1 0.999823
0.999813 1 1 0.999813
1 1 1 1
0.999976 1 1 0.999976
0.999886 1 1 0.999886
0.999886 1 1 0.999886
0.99983 1 1 0.99983
0.999767 1 1 0.999767
0.999802 1 1 0.999802
0.999762 1 1 0.999762
0.999827 1 1 0.999827
0.999802 1 1 0.999802
0.999776 1 1 0.999776
0.999983 1 1 0.999983
0.999907 1 1 0.999907
0.999989 1 1 0.999989
0.999987 1 1 0.999987
1 1 1 1
1 1 1 1
1 1 1 1
1 1 1 1
1 1 1 1
1 1 1 1
1 1 1 1
1 1 1 1
1 1 1 1
1 1 1 1
1 1 1 1
0.999862 1 1 0.999862
0.99984 1 1 0.99984
0.999779 1 1 0.999779
0.999759 1 1 0.999759
0.999823 1 1 0.999823
0.999968 1 1 0.999968
0.999821 1 1 0.999821
0.999754 1 1 0.999754
0.999768 1 1 0.999768
0.999736 1 1 0.999736
0.999789 1 1 0.999789
0.999754 1 1 0.999754
0.999752 1 1 0.999752
0.999736 1 1 0.999736
0.999741 1 1 0.999741
0.99973 1 1 0.99973
0.999763 1 1 0.999763
0.999761 1 1 0.999761
0.999814 1 1 0.999814
0.999841 1 1 0.999841
0.999756 1 1 0.999756
0.999769 1 1 0.999769
1 1 1 1
0.999954 1 1 0.999954
0.999866 1 1 0.999866
0.999812 1 1 0.999812
0.999745 1 1 0.999745
0.999789 1 1 0.999789
0.999794 1 1 0.999794
0.999784 1 1 0.999784
0.99996 1 1 0.99996
0.999865 1 1 0.999865
0.999967 1 1 0.999967
0.999756 1 1 0.999756
0.999755 1 1 0.999755
0.999719 1 1 0.999719
0.999726 1 1 0.999726
0.999959 1 1 0.999959
0.999877 1 1 0.999877
0.999815 1 1 0.999815
0.999778 1 1 0.999778
0.99975 1 1 0.99975
0.999771 1 1 0.999771
0.999783 1 1 0.999783
0.999798 1 1 0.999798
0.999877 1 1 0.999877
0.999825 1 1 0.999825
0.999976 1 1 0.999976
0.999862 1 1 0.999862
0.999723 1 1 0.999723
0.999714 1 1 0.999714
0.9997 1 1 0.9997
0.999722 1 1 0.999722
0.999776 1 1 0.999776
0.999762 1 1 0.999762
0.999881 1 1 0.999881
0.999803 1 1 0.999803
0.999829 1 1 0.999829
0.999776 1 1 0.999776
0.999758 1 1 0.999758
0.999802 1 1 0.999802
0.999983 1 1 0.999983
0.999867 1 1 0.999867
0.999834 1 1 0.999834
0.999811 1 1 0.999811
0.999806 1 1 0.999806
1 1 1 1
0.999798 1 1 0.999798
0.999971 1 1 0.999971
0.999967 1 1 0.999967
0.999884 1 1 0.999884
0.999841 1 1 0.999841
0.999776 1 1 0.999776
0.999882 1 1 0.999882
0.999822 1 1 0.999822
0.99983 1 1 0.99983
0.999819 1 1 0.999819
1 1 1 1
0.999976 1 1 0.999976
0.999885 1 1 0.999885
0.999886 1 1 0.999886
0.999828 1 1 0.999828
0.999766 1 1 0.999766
0.999802 1 1 0.999802
0.999761 1 1 0.999761
0.999828 1 1 0.999828
0.999804 1 1 0.999804
0.999779 1 1 0.999779
0.99998 1 1 0.99998
0.999888 1 1 0.999888
0.999829 1 1 0.999829
0.999827 1 1 0.999827
0.999805 1 1 0.999805
0.999761 1 1 0.999761
0.999782 1 1 0.999782
0.999776 1 1 0.999776
0.999782 1 1 0.999782
0.999753 1 1 0.999753
0.999984 1 1 0.999984
0.999888 1 1 0.999888
0.999902 1 1 0.999902
0.999848 1 1 0.999848
0.999913 1 1 0.999913
0.999991 1 1 0.999991
0.99999 1 1 0.99999
1 1 1 1
0.999988 1 1 0.999988
1 1 1 1
1 1 1 1
1 1 1 1
1 1 1 1
1 1 1 1
1 1 1 1
1 1 1 1
1 1 1 1
1 1 1 1
1 1 1 1
1 1 1 1
0.999789 1 1 0.999789
0.999768 1 1 0.999768
0.999754 1 1 0.999754
0.999736 1 1 0.999736
0.999754 1 1 0.999754
0.999821 1 1 0.999821
0.999752 1 1 0.999752
0.999735 1 1 0.999735
0.999741 1 1 0.999741
0.999728 1 1 0.999728
0.999763 1 1 0.999763
0.999761 1 1 0.999761
0.999732 1 1 0.999732
0.999733 1 1 0.999733
0.999737 1 1 0.999737
0.999722 1 1 0.999722
0.999767 1 1 0.999767
0.999773 1 1 0.999773
0.999752 1 1 0.999752
0.999754 1 1 0.999754
0.999715 1 1 0.999715
0.999728 1 1 0.999728
0.999959 1 1 0.999959
0.999877 1 1 0.999877
0.999819 1 1 0.999819
0.99978 1 1 0.99978
0.999753 1 1 0.999753
0.999783 1 1 0.999783
0.999766 1 1 0.999766
0.999801 1 1 0.999801
0.999878 1 1 0.999878
0.99982 1 1 0.99982
0.999975 1 1 0.999975
0.999862 1 1 0.999862
0.999724 1 1 0.999724
0.999715 1 1 0.999715
0.999697 1 1 0.999697
0.999723 1 1 0.999723
0.999881 1 1 0.999881
0.999832 1 1 0.999832
0.999775 1 1 0.999775
0.999775 1 1 0.999775
0.999769 1 1 0.999769
0.999756 1 1 0.999756
0.999803 1 1 0.999803
0.999809 1 1 0.999809
0.999834 1 1 0.999834
0.999803 1 1 0.999803
0.99981 1 1 0.99981
0.999975 1 1 0.999975
0.999868 1 1 0.999868
0.999709 1 1 0.999709
0.999688 1 1 0.999688
0.999738 1 1 0.999738
0.999792 1 1 0.999792
0.99984 1 1 0.99984
0.999828 1 1 0.999828
0.999798 1 1 0.999798
0.999736 1 1 0.999736
0.999746 1 1 0.999746
0.999975 1 1 0.999975
0.999892 1 1 0.999892
0.99981 1 1 0.99981
0.999814 1 1 0.999814
0.999771 1 1 0.999771
0.999785 1 1 0.999785
1 1 1 1
0.999976 1 1 0.999976
0.999765 1 1 0.999765
0.999885 1 1 0.999885
0.999885 1 1 0.999885
0.999827 1 1 0.999827
0.999802 1 1 0.999802
0.999759 1 1 0.999759
0.999828 1 1 0.999828
0.999783 1 1 0.999783
0.999807 1 1 0.999807
0.99998 1 1 0.99998
0.999888 1 1 0.999888
0.999832 1 1 0.999832
0.999827 1 1 0.999827
0.999802 1 1 0.999802
0.99976 1 1 0.99976
0.999781 1 1 0.999781
0.999778 1 1 0.999778
0.99978 1 1 0.99978
0.999748 1 1 0.999748
0.999892 1 1 0.999892
0.999817 1 1 0.999817
0.999794 1 1 0.999794
0.999789 1 1 0.999789
0.999782 1 1 0.999782
0.999807 1 1 0.999807
0.99975 1 1 0.99975
0.999767 1 1 0.999767
0.999749 1 1 0.999749
0.999698 1 1 0.999698
0.999985 1 1 0.999985
0.999893 1 1 0.999893
0.999823 1 1 0.999823
0.999896 1 1 0.999896
0.999913 1 1 0.999913
0.999839 1 1 0.999839
0.999796 1 1 0.999796
0.999836 1 1 0.999836
0.999918 1 1 0.999918
0.999992 1 1 0.999992
0.999992 1 1 0.999992
1 1 1 1
0.99999 1 1 0.99999
1 1 1 1
1 1 1 1
1 1 1 1
1 1 1 1
1 1 1 1
1 1 1 1
1 1 1 1
1 1 1 1
1 1 1 1
1 1 1 1
1 1 1 1
0.999763 1 1 0.999763
0.999741 1 1 0.999741
0.999761 1 1 0.999761
0.999726 1 1 0.999726
0.999735 1 1 0.999735
0.999752 1 1 0.999752
0.999731 1 1 0.999731
0.999733 1 1 0.999733
0.999735 1 1 0.999735
0.999716 1 1 0.999716
0.999767 1 1 0.999767
0.999778 1 1 0.999778
0.999737 1 1 0.999737
0.99973 1 1 0.99973
0.999735 1 1 0.999735
0.99981 1 1 0.99981
0.999724 1 1 0.999724
0.999716 1 1 0.999716
0.999694 1 1 0.999694
0.999724 1 1 0.999724
0.999881 1 1 0.999881
0.999836 1 1 0.999836
0.999775 1 1 0.999775
0.999773 1 1 0.999773
0.999776 1 1 0.999776
0.999803 1 1 0.999803
0.999754 1 1 0.999754
0.999816 1 1 0.999816
0.999834 1 1 0.999834
0.999801 1 1 0.999801
0.999809 1 1 0.999809
0.999968 1 1 0.999968
0.99987 1 1 0.99987
0.999705 1 1 0.999705
0.999692 1 1 0.999692
0.999741 1 1 0.999741
0.99984 1 1 0.99984
0.999803 1 1 0.999803
0.999735 1 1 0.999735
0.999789 1 1 0.999789
0.999756 1 1 0.999756
0.999827 1 1 0.999827
0.999975 1 1 0.999975
0.999813 1 1 0.999813
0.999788 1 1 0.999788
0.999774 1 1 0.999774
0.999812 1 1 0.999812
0.999886 1 1 0.999886
0.9997 1 1 0.9997
0.999689 1 1 0.999689
0.999768 1 1 0.999768
0.999826 1 1 0.999826
0.999814 1 1 0.999814
0.999784 1 1 0.999784
0.999752 1 1 0.999752
0.999706 1 1 0.999706
0.999981 1 1 0.999981
0.999904 1 1 0.999904
0.999826 1 1 0.999826
0.999753 1 1 0.999753
0.999789 1 1 0.999789
0.999756 1 1 0.999756
0.999981 1 1 0.999981
0.999888 1 1 0.999888
0.99976 1 1 0.99976
0.999826 1 1 0.999826
0.999836 1 1 0.999836
0.999799 1 1 0.999799
0.999779 1 1 0.999779
0.99978 1 1 0.99978
0.999777 1 1 0.999777
0.999742 1 1 0.999742
0.999892 1 1 0.999892
0.99982 1 1 0.99982
0.999799 1 1 0.999799
0.999793 1 1 0.999793
0.999784 1 1 0.999784
0.999811 1 1 0.999811
0.999752 1 1 0.999752
0.999781 1 1 0.999781
0.999745 1 1 0.999745
0.999693 1 1 0.999693
0.999817 1 1 0.999817
0.999771 1 1 0.999771
0.999762 1 1 0.999762
0.999762 1 1 0.999762
0.999818 1 1 0.999818
0.999809 1 1 0.999809
0.999697 1 1 0.999697
0.999758 1 1.00008 0.999674
0.999897 1 1 0.999897
0.999828 1 1 0.999828
0.999787 1 1 0.999787
0.999913 1 1 0.999913
0.999831 1 1 0.999831
0.999918 1 1 0.999918
0.999791 1 1 0.999791
0.999839 1 1 0.999839
0.999759 1 1 0.999759
0.999786 1 1 0.999786
0.999839 1 1 0.999839
0.99992 1 1 0.99992
0.999993 1 1 0.999993
0.999993 1 1 0.999993
1 1 1 1
0.999992 1 1 0.999992
1 1 1 1
1 1 1 1
1 1 1 1
1 1 1 1
1 1 1 1
1 1 1 1
1 1 1 1
1 1 1 1
1 1 1 1
1 1 1 1
1 1 1 1
0.999768 1 1 0.999768
0.999733 1 1 0.999733
0.999782 1 1 0.999782
0.99971 1 1 0.99971
0.999733 1 1 0.999733
0.999731 1 1 0.999731
0.999734 1 1 0.999734
0.999729 1 1 0.999729
0.999739 1 1 0.999739
0.999807 1 1 0.999807
0.999734 1 1 0.999734
0.999736 1 1 0.999736
0.999778 1 1 0.999778
0.999702 1 1 0.999702
0.999696 1 1 0.999696
0.999743 1 1 0.999743
0.99984 1 1 0.99984
0.999808 1 1 0.999808
0.999734 1 1 0.999734
0.999786 1 1 0.999786
0.999825 1 1 0.999825
0.999765 1 1 0.999765
0.999813 1 1 0.999813
0.999791 1 1 0.999791
0.999776 1 1 0.999776
0.999975 1 1 0.999975
0.999815 1 1 0.999815
0.999879 1 1 0.999879
0.999706 1 1 0.999706
0.999687 1 1 0.999687
0.999763 1 1 0.999763
0.999814 1 1 0.999814
0.999757 1 1 0.999757
0.99971 1 1 0.99971
0.999831 1 1 0.999831
0.999783 1 1 0.999783
0.999987 1 1 0.999987
0.999904 1 1 0.999904
0.999789 1 1 0.999789
0.999757 1 1 0.999757
0.999757 1 1 0.999757
0.999821 1 1 0.999821
0.999718 1 1 0.999718
0.9997 1 1 0.9997
0.999832 1 1 0.999832
0.999839 1 1 0.999839
0.999779 1 1 0.999779
0.999703 1 1 0.999703
0.999716 1 1 0.999716
0.999997 1 1 0.999997
0.999936 1 1 0.999936
0.999907 1 1 0.999907
0.999825 1 1 0.999825
0.999763 1 1 0.999763
0.999723 1 1 0.999723
0.999768 1 1 0.999768
0.999731 1 1 0.999731
0.999891 1 1 0.999891
0.999823 1 1 0.999823
0.999814 1 1 0.999814
0.999796 1 1 0.999796
0.999804 1 1 0.999804
0.999787 1 1 0.999787
0.999754 1 1 0.999754
0.999794 1 1 0.999794
0.999742 1 1 0.999742
0.999688 1 1 0.999688
0.999817 1 1 0.999817
0.999776 1 1 0.999776
0.999767 1 1 0.999767
0.999765 1 1 0.999765
0.99982 1 1 0.99982
0.999805 1 1 0.999805
0.999703 1 1 0.999703
0.999677 1 1 0.999673
0.999779 1 1 0.999779
0.999786 1 1 0.999786
0.999744 1 1 0.999744
0.999725 1 1 0.999725
0.999836 1 1 0.999836
0.999684 1 1 0.999684
0.999831 1 1.00019 0.999642
0.999832 1 1 0.999832
0.999787 1 1 0.999787
0.999755 1 1 0.999755
0.999918 1 1 0.999918
0.999842 1 1 0.999842
0.999785 1 1 0.999785
0.99992 1 1 0.99992
0.999839 1 1 0.999839
0.999755 1 1 0.999755
0.999793 1 1 0.999793
0.999733 1 1 0.999733
0.999748 1 1 0.999748
0.999795 1 1 0.999795
0.999845 1 1 0.999845
0.999919 1 1 0.999919
0.999992 1 1 0.999992
0.999993 1 1 0.999993
1 1 1 1
0.999993 1 1 0.999993
1 1 1 1
1 1 1 1
1 1 1 1
1 1 1 1
1 1 1 1
0.999999 1 1 0.999999
1 1 1 1
1 1 1 1
1 1 1 1
1 1 1 1
1 1 1 1
1 1 1 1
0.999804 1 1 0.999804
0.999743 1 1 0.999743
0.999729 1 1 0.999729
0.99973 1 1 0.99973
0.999739 1 1 0.999739
0.999732 1 1 0.999732
0.999788 1 1 0.999788
0.999743 1 1 0.999743
0.999749 1 1 0.999749
0.99982 1 1 0.99982
0.999712 1 1 0.999712
0.999685 1 1 0.999685
0.999758 1 1 0.999758
0.999813 1 1 0.999813
0.999763 1 1 0.999763
0.999714 1 1 0.999714
0.999835 1 1 0.999835
0.999783 1 1 0.999783
0.999788 1 1 0.999788
0.999758 1 1 0.999758
0.999761 1 1 0.999761
0.999993 1 1 0.999993
0.999904 1 1 0.999904
0.999817 1 1 0.999817
0.999714 1 1 0.999714
0.999996 1 1 0.999996
0.999931 1 1 0.999931
0.999702 1 1 0.999702
0.99982 1 1 0.99982
0.999782 1 1 0.999782
0.999711 1 1 0.999711
0.999705 1 1 0.999705
0.999837 1 1 0.999837
0.999919 1 1 0.999919
0.999824 1 1 0.999824
0.99977 1 1 0.99977
0.999737 1 1 0.999737
0.999717 1 1 0.999717
0.999765 1 1 0.999765
0.999698 1 1 0.999698
0.999765 1 1 0.999765
0.99986 1 0.999965 0.999895
0.999755 1 1 0.999755
0.999753 1 1 0.999753
0.999972 1 1.0003 0.999671
0.999934 1 1 0.999934
0.999929 1 1 0.999929
0.999874 1 1 0.999874
0.999827 1 1 0.999827
0.999774 1 1 0.999774
0.999711 1 1 0.999711
0.999686 1 1 0.999686
0.999736 1 1 0.999736
0.999816 1 1 0.999816
0.999781 1 1 0.999781
0.999821 1 1 0.999821
0.999802 1 1 0.999802
0.999768 1 1 0.999768
0.999771 1 1 0.999771
0.999709 1 1 0.999709
0.999671 1 1 0.999671
0.999779 1 1 0.999779
0.999803 1 1 0.999803
0.999744 1 1 0.999744
0.999718 1 1 0.999718
0.999833 1 1 0.999833
0.999685 1 1 0.999685
0.999834 1 1.0002 0.999639
0.999745 1 1 0.999745
0.999492 1 0.999671 0.999821
0.999721 1 1 0.999721
0.999945 1 1.00028 0.999662
0.999685 1 1 0.999685
1.00044 1 1.00083 0.99961
0.984793 1.00338 0.981837 0.999627
0.999787 1 1 0.999787
0.999755 1 1 0.999755
0.999732 1 1 0.999732
0.99992 1 1 0.99992
0.999839 1 1 0.999839
0.999799 1 1 0.999799
0.99975 1 1 0.99975
0.999919 1 1 0.999919
0.999841 1 1 0.999841
0.999731 1 1 0.999731
0.999795 1 1 0.999795
0.999753 1 1 0.999753
0.999715 1 1 0.999715
0.999756 1 1 0.999756
0.999797 1 1 0.999797
0.999833 1 1 0.999833
0.999907 1 1 0.999907
0.999852 1 1 0.999852
0.999906 1 1 0.999906
0.999992 1 1 0.999992
0.999992 1 1 0.999992
1 1 1 1
0.999993 1 1 0.999993
1 1 1 1
1 1 1 1
1 1 1 1
1 1 1 1
1 1 1 1
1 1 1 1
0.999999 1 1 0.999999
1 1 1 1
1 1 1 1
1 1 1 1
1 1 1 1
1 1 1 1
1 1 1 1
0.999797 1 1 0.999797
0.999728 1 1 0.999728
0.999744 1 1 0.999744
0.999744 1 1 0.999744
0.999752 1 1 0.999752
0.999829 1 1 0.999829
0.99976 1 1 0.99976
0.995684 1.00039 0.995415 0.999883
0.999614 1 0.999705 0.999909
0.999951 1 1 0.999951
0.999711 1 1 0.999711
0.999704 1 1 0.999704
0.999809 1 1 0.999809
0.999784 1 1 0.999784
0.999705 1 1 0.999705
0.999708 1 1 0.999708
0.999835 1 1 0.999835
0.999772 1 1 0.999772
0.999743 1 1 0.999743
0.99971 1 1 0.99971
0.999995 1 1 0.999995
0.999766 1 1 0.999766
0.999931 1 1 0.999931
0.999824 1 1 0.999824
0.999927 1 1 0.999927
0.99969 1 1 0.99969
0.99994 1 1 0.99994
0.999928 1 1 0.999928
0.999865 1 1 0.999865
0.999767 1 1 0.999767
0.999699 1 0.99982 0.999879
0.999755 1 1 0.999755
0.999829 1 1.00016 0.999669
0.999757 1 1 0.999757
0.999833 1 1 0.999833
0.999772 1 1 0.999772
0.999735 1 1 0.999735
0.999712 1 1.00002 0.999693
0.999716 1 1 0.999716
0.999722 1 1.00004 0.999677
0.997566 1 0.997695 0.999871
0.999809 1 1 0.999809
0.999876 1 1.0002 0.999679
0.999985 1 1.00027 0.999718
0.999865 1 1 0.999865
0.999842 1 1 0.999842
0.999814 1 1 0.999814
0.999772 1 1 0.999772
0.999731 1 1 0.999731
0.999679 1 1 0.999679
1.00124 1 1.00156 0.999676
0.999779 1 1 0.999779
0.999743 1 1 0.999743
0.999819 1 1 0.999819
0.999829 1 1 0.999829
0.999687 1 1 0.999687
0.999711 1 1 0.999711
0.999734 1 1.0001 0.999636
0.999747 1 1 0.999747
0.999623 1.00003 0.999761 0.99983
0.99972 1 1 0.99972
0.999801 1 1.00014 0.999661
0.999698 1 1 0.999698
1.00097 1 1.00136 0.999608
0.989184 1.00602 0.983598 0.999658
0.999722 1 1 0.999722
0.999905 1.00025 1 0.999655
0.999695 1 1 0.999695
1.00216 1 1.00255 0.999618
1.00043 1 1.00084 0.999591
0.962584 0.963853 1.00004 0.998643
0.987486 1.00124 0.986562 0.999701
0.984715 1.00805 0.977252 0.999587
0.964965 0.971796 0.993158 0.999812
0.970489 0.99405 0.976358 0.999939
0.999755 1 1 0.999755
0.999732 1 1 0.999732
0.999707 1 1 0.999707
0.999919 1 1 0.999919
0.999837 1 1 0.999837
0.999795 1 1 0.999795
0.999759 1 1 0.999759
0.99973 1 1 0.99973
0.99979 1 1 0.99979
0.999912 1 1 0.999912
0.999838 1 1 0.999838
0.999718 1 1 0.999718
0.999754 1 1 0.999754
0.999759 1 1 0.999759
0.999716 1 1 0.999716
0.999776 1 1 0.999776
0.999831 1 1 0.999831
0.999906 1 1 0.999906
0.999846 1 1 0.999846
0.999794 1 1 0.999794
0.999835 1 1 0.999835
0.999842 1 1 0.999842
0.999914 1 1 0.999914
0.999906 1 1 0.999906
0.999991 1 1 0.999991
0.999992 1 1 0.999992
1 1 1 1
0.999992 1 1 0.999992
1 1 1 1
1 1 1 1
1 1 1 1
1 1 1 1
1 1 1 1
1 1 1 1
1 1 1 1
1 1 1 1
0.999998 1 1 0.999998
1 1 1 1
1 1 1 1
1 1 1 1
1 1 1 1
1 1 1 1
0.999755 1 1 0.999755
0.999745 1 1 0.999745
0.999839 1 1 0.999839
0.995292 1 0.995408 0.99988
0.999758 1 1 0.999758
0.999744 1 0.999863 0.99988
0.999759 1 1.00004 0.999721
0.981349 0.984914 0.99692 0.999459
0.99966 1 0.999727 0.999933
0.999954 1 1 0.999954
0.99995 1 1 0.99995
0.999883 1 1 0.999883
0.999894 1 1 0.999894
0.999683 1 1 0.999683
0.999768 1 1 0.999768
0.999652 1 0.999788 0.999863
0.999757 1 1 0.999757
0.999689 1 1.00002 0.999667
0.99976 1 1 0.99976
0.999735 1 1 0.999735
0.99971 1 1.00001 0.9997
0.99972 1 1 0.99972
0.999928 1 1 0.999928
0.999769 1 1 0.999769
0.99984 1 1 0.99984
0.999945 1 1 0.999945
0.999855 1 1 0.999855
0.999721 1 1.00003 0.999686
0.999875 1 1 0.999875
0.999849 1 1 0.999849
0.999815 1 1 0.999815
0.998495 1 0.998624 0.99987
0.999686 1 0.999877 0.99981
1.00002 1 1.00031 0.999717
0.999844 1 1.00016 0.999683
0.999774 1 1 0.999774
0.999734 1 1 0.999734
1.00063 1 1.00095 0.999677
0.999683 1 1.00001 0.999678
0.999775 1 1.00003 0.999745
0.997866 1 0.998007 0.999859
0.999668 1 1 0.999668
1.00015 1 1.00047 0.999678
0.999797 1 1 0.999797
0.999784 1 1 0.999784
0.999703 1 1 0.999703
1.00165 1 1.00202 0.999631
0.960603 0.963792 0.998058 0.99863
0.99975 1 1 0.99975
0.999719 1 1 0.999719
0.999701 1 0.999862 0.999839
0.999711 1 1 0.999711
1.00159 1 1.00198 0.999606
0.999684 1 1.00002 0.999661
0.993869 1.00857 0.985726 0.999689
0.999724 1 1 0.999724
1.00008 1.00052 0.999909 0.999655
0.999696 1 1 0.999696
1.0018 1 1.00218 0.99962
1.00016 1 1.00056 0.999601
0.964149 0.96432 1.00105 0.998778
0.983912 0.998196 0.986318 0.999364
0.98732 1.00998 0.977968 0.99959
0.967885 0.974116 0.993965 0.999636
0.969928 0.99154 0.978259 0.999943
0.999713 1 1 0.999713
0.972244 0.975009 0.997714 0.999448
0.987157 0.996737 0.99043 0.999958
0.999589 1 1 0.999589
1.00124 1 1.00156 0.999678
1.00729 1 1.00768 0.999608
1.00133 1.01017 0.991723 0.999521
0.976062 0.972705 1.00491 0.998546
0.986246 1.00669 0.980333 0.999343
0.961088 0.974666 0.986283 0.999783
0.991019 1.00553 0.985614 0.999958
0.999732 1 1 0.999732
0.999708 1 1 0.999708
0.999685 1 1 0.999685
0.999917 1 1 0.999917
0.999842 1 1 0.999842
0.999783 1 1 0.999783
0.999752 1 1 0.999752
0.999722 1 1 0.999722
0.999906 1 1 0.999906
0.999757 1 1 0.999757
0.999784 1 1 0.999784
0.999837 1 1 0.999837
0.999711 1 1 0.999711
0.999736 1 1 0.999736
0.99988 1 1.0002 0.999683
0.999777 1 1 0.999777
0.999843 1 1 0.999843
0.999846 1 1 0.999846
0.999787 1 1 0.999787
0.999787 1 1 0.999787
0.99978 1 1 0.99978
0.999752 1 1 0.999752
0.999765 1 1 0.999765
0.999825 1 1 0.999825
0.999835 1 1 0.999835
0.999909 1 1 0.999909
0.999833 1 1 0.999833
0.999909 1 1 0.999909
0.999991 1 1 0.999991
0.999906 1 1 0.999906
0.999991 1 1 0.999991
1 1 1 1
0.999992 1 1 0.999992
1 1 1 1
1 1 1 1
1 1 1 1
1 1 1 1
1 1 1 1
0.999953 1 1 0.999953
1 1 1 1
1 1 1 1
1 1 1 1
1 1 1 1
1 1 1 1
1 1 1 1
1 1 1 1
1 1 1 1
1 1 1 1
0.994969 1 0.995093 0.999876
0.999757 1 1 0.999757
0.999852 1 1 0.999852
0.982224 0.984503 0.998027 0.999657
0.999814 1 0.999883 0.999931
0.99974 1 1.00003 0.999707
1.00131 1 1.00159 0.999714
0.987653 0.986529 1.00163 0.999513
0.965601 0.967138 1.00011 0.998297
0.963287 0.971345 0.992276 0.999425
0.974757 0.990387 0.984269 0.999949
0.999882 1 1 0.999882
0.999954 1 1 0.999954
0.99995 1 1 0.99995
0.999881 1 1 0.999881
0.999837 1 1 0.999837
0.999851 1 1 0.999851
0.999886 1 1 0.999886
0.99989 1 1 0.99989
0.999721 1 1.00003 0.999695
0.999319 1 0.999449 0.99987
0.99945 1 0.999639 0.999811
1.00006 1 1.00034 0.999716
0.999809 1 1.00012 0.999686
1.0001 1 1.00042 0.999677
0.999715 1 1.00004 0.999677
0.999737 1 1 0.999737
0.999855 1 1 0.999855
0.999775 1 1 0.999775
0.999884 1 1 0.999884
0.999817 1 1 0.999817
0.999215 1 0.999476 0.999738
0.9998 1 1 0.9998
0.999786 1 1 0.999786
0.997463 1 0.997605 0.999858
0.999676 1 1 0.999676
1.00062 1 1.00095 0.999667
0.999703 1 1 0.999703
1.00169 1 1.00205 0.999634
0.990301 1.00436 0.986234 0.999761
1.00176 1 1.00206 0.999696
0.999631 1 1 0.999631
1.00467 1 1.00506 0.999611
0.999757 1 1 0.999757
0.999727 1 1 0.999727
1.00019 1 1.00054 0.999645
0.970847 0.977062 0.993909 0.999729
0.964234 0.965623 0.99988 0.998681
0.999726 1 1 0.999726
0.999697 1 1 0.999697
1.00033 1.00088 0.999803 0.999655
0.999875 1 1.00026 0.999611
1.00133 1 1.00171 0.999623
0.963247 0.965066 0.999863 0.998252
0.987406 0.998141 0.989468 0.999776
0.990447 1.01227 0.978839 0.999592
0.964314 0.973293 0.991324 0.999446
0.969138 0.988906 0.980062 0.999948
0.999712 1 1 0.999712
0.970694 0.976094 0.994711 0.999756
0.987278 0.995832 0.991446 0.999965
0.999591 1 1 0.999588
1.00044 1 1.00076 0.99968
1.00658 1 1.00696 0.999619
0.999153 1.0076 0.992104 0.999506
0.974865 0.973459 1.00309 0.998358
0.980305 1.00234 0.978272 0.999736
0.961003 0.974493 0.986729 0.999419
0.986678 1.00546 0.981365 0.999958
0.999692 1 1 0.999692
0.999733 1.00122 0.998533 0.999977
1.00602 1.00782 0.998236 0.999975
1.00954 1 1.00995 0.999591
1.00534 1 1.00563 0.999716
1.00437 1.00361 1.00103 0.999734
0.990762 1.00121 0.989656 0.999906
0.979054 0.976669 1.00398 0.998463
0.971701 0.987641 0.984457 0.999394
1.00086 1.0101 0.990888 0.999965
0.999708 1 1 0.999708
0.999683 1 1 0.999683
1.00009 1 1.00042 0.999671
0.999906 1 1 0.999906
0.999842 1 1 0.999842
0.999791 1 1 0.999791
0.999755 1 1 0.999755
0.999705 1 1 0.999705
0.999843 1 1 0.999843
0.99974 1 1 0.99974
0.999777 1 1 0.999777
0.999924 1 1.00024 0.999679
1.00021 1 1.00055 0.999655
0.999803 1 1.00009 0.999716
0.999782 1 1 0.999782
0.999846 1 1 0.999846
0.99978 1 1 0.99978
0.999787 1 1 0.999787
0.999779 1 1 0.999779
0.999751 1 1 0.999751
0.999768 1 1 0.999768
0.999744 1 1 0.999744
0.999731 1 1 0.999731
0.999746 1 1 0.999746
0.999779 1 1 0.999779
0.999775 1 1 0.999775
0.999765 1 1 0.999765
0.999818 1 1 0.999818
0.999825 1 1 0.999825
0.999901 1 1 0.999901
0.999835 1 1 0.999835
0.999909 1 1 0.999909
0.999989 1 1 0.999989
0.999904 1 1 0.999904
0.99999 1 1 0.99999
1 1 1 1
0.999991 1 1 0.999991
1 1 1 1
1 1 1 1
1 1 1 1
1 1 1 1
1 1 1 1
0.999957 1 1 0.999957
1 1 1 1
0.999953 1 1 0.999953
1 1 1 1
1 1 1 1
1 1 1 1
1 1 1 1
1 1 1 1
1 1 1 1
1 1 1 1
1 1 1 1
0.968907 0.974179 0.994799 0.999789
0.991036 0.997627 0.993417 0.999976
0.984306 0.98515 0.999319 0.999825
0.999912 1 0.999984 0.999929
0.999721 1 1.00003 0.999692
0.986889 0.985057 1.00196 0.999905
1.00052 1 1.0008 0.999723
0.969339 0.969328 1.00136 0.998657
0.965773 0.972164 0.993616 0.999809
0.973554 0.989949 0.983484 0.999954
0.999889 0.995413 1.00465 0.999846
0.974201 0.97293 1.00269 0.998619
0.961432 0.973 0.988315 0.999794
0.985759 1.00511 0.98079 0.999955
0.999822 1 1 0.999822
0.999886 1 1 0.999886
0.999954 1 1 0.999954
0.999878 1 1 0.999878
0.999842 1 1 0.999842
0.999834 1 1 0.999834
0.999853 1 1 0.999853
0.999865 1 1 0.999865
0.999881 1 1 0.999881
0.999886 1 1 0.999886
0.998758 1 0.999025 0.999732
0.997256 1 0.997399 0.999856
0.999684 1 1 0.999684
1.00105 1 1.00139 0.999656
1.00159 1 1.00195 0.999636
0.999703 1 1 0.999703
0.999788 1 1 0.999788
0.999803 1 1 0.999803
0.992335 1.00288 0.989734 0.999744
0.999754 1 1 0.999754
0.999721 1 1 0.999721
1.00018 1 1.00048 0.999699
0.999936 1 1.00031 0.999626
1.00372 1 1.00411 0.999603
1.00076 1 1.00112 0.999639
0.984792 1.01196 0.973502 0.999644
1.00823 1 1.00862 0.999614
1.00434 1 1.00476 0.999589
0.999753 1 1 0.999753
0.999715 1 1 0.999715
0.999669 1 1 0.999669
0.997633 1.0003 0.997386 0.999949
0.971476 0.976388 0.995542 0.999424
0.96224 0.965399 0.998115 0.99861
0.999711 1 1 0.999711
0.999683 1 1 0.999683
0.999586 1 1 0.999586
1.00597 1 1.00634 0.999629
0.968007 0.974944 0.993463 0.999418
0.972034 0.972179 1.00092 0.998936
0.980486 1.0034 0.977761 0.999393
0.997712 1.00518 0.993072 0.999495
0.961385 0.973564 0.98768 0.999807
0.988395 0.997107 0.991307 0.999956
0.986222 1.00469 0.98166 0.999953
0.999691 1 1 0.999691
0.997593 1.00007 0.997554 0.999966
1.00711 1.00904 0.998114 0.999974
1.00979 1 1.0102 0.999593
1.0055 1 1.00579 0.999716
1.00733 1.00315 1.00469 0.999473
0.987352 1.00126 0.986686 0.999415
0.978713 0.977857 1.00243 0.998453
0.97622 0.987646 0.988605 0.999825
0.9974 1.0087 0.988841 0.999956
0.999729 1 1 0.999729
1.00568 1.00591 0.999791 0.999987
1.00302 1.00444 0.998596 0.999992
1.00685 1 1.00703 0.999827
0.997897 0.995265 1.00269 0.999952
0.988178 0.984636 1.00501 0.99859
0.986587 1.00059 0.986213 0.99979
0.998486 1.00977 0.98888 0.999945
0.999682 1 1 0.999682
1.00003 1 1.00036 0.999676
1.00098 1 1.0013 0.999675
0.999843 1 1 0.999843
0.999778 1 1 0.999778
0.999744 1 1 0.999744
0.999956 1 1.00028 0.999675
0.999782 1 1 0.999782
0.999748 1 1.00003 0.999717
1.00059 1 1.00093 0.999653
1.00052 1 1.00086 0.999665
0.999875 1 1.00021 0.999663
0.999734 1 1 0.999734
0.999786 1 1 0.999786
0.999779 1 1 0.999779
0.999751 1 1 0.999751
0.999745 1 1 0.999745
0.999768 1 1 0.999768
0.999733 1 1 0.999733
0.999726 1 1 0.999726
0.999713 1 1 0.999713
0.999727 1 1 0.999727
0.999745 1 1 0.999745
0.999756 1 1 0.999756
0.999767 1 1 0.999767
0.999812 1 1 0.999812
0.99979 1 1 0.99979
0.999779 1 1 0.999779
0.999816 1 1 0.999816
0.999766 1 1 0.999766
0.999819 1 1 0.999819
0.999892 1 1 0.999892
0.999825 1 1 0.999825
0.9999 1 1 0.9999
0.999987 1 1 0.999987
0.999908 1 1 0.999908
0.999988 1 1 0.999988
1 1 1 1
0.99999 1 1 0.99999
1 1 1 1
1 1 1 1
1 1 1 1
1 1 1 1
1 1 1 1
0.999937 1 1 0.999937
1 1 1 1
0.999948 1 1 0.999948
1 1 1 1
1 1 1 1
0.999953 1 1 0.999953
1 1 1 1
1 1 1 1
1 1 1 1
1 1 1 1
1 1 1 1
1 1 1 1
0.998819 1.00036 0.998483 0.999981
0.969484 0.974564 0.995176 0.99961
1.0051 1.00775 0.99739 0.999981
0.988683 0.995003 0.993675 0.999973
0.983786 0.98374 1.00054 0.999509
0.999776 1 1.00004 0.999733
0.969921 0.969128 1.00178 0.999037
0.96475 0.972286 0.992803 0.999442
0.972795 0.98981 0.982851 0.999958
0.997077 0.996999 1.00037 0.999713
0.973516 0.970906 1.00414 0.998553
0.963704 0.975224 0.988761 0.999421
0.983373 1.00412 0.979375 0.999958
0.996409 1.0042 0.992388 0.999857
0.975684 0.972708 1.00461 0.998457
0.97386 0.988989 0.984886 0.999814
0.994846 1.01164 0.983432 0.999968
0.999789 1 1 0.999789
0.999828 1 1 0.999828
0.999891 1 1 0.999891
0.999846 1 1 0.999846
0.999803 1 1 0.999803
0.999838 1 1 0.999838
0.999855 1 1 0.999855
0.999858 1 1 0.999858
0.999871 1 1 0.999871
0.999876 1 1 0.999876
0.994501 1.00157 0.993213 0.999726
0.998611 1 0.998908 0.999703
1.00013 1 1.00051 0.999621
1.00303 1 1.00344 0.999595
1.00139 1 1.00176 0.999632
0.999715 1 1 0.999715
0.999752 1 1 0.999752
0.999754 1 1 0.999754
0.986671 1.00912 0.978101 0.999641
0.999718 1 1 0.999718
0.999756 1 1.00009 0.999666
1.00751 1 1.0079 0.99961
1.00419 1 1.0046 0.999589
0.987566 1.01062 0.977574 0.999607
1.01753 1 1.01791 0.999626
1.0004 1 1.00078 0.999621
0.999723 1 1 0.999723
0.999675 1 1 0.999675
1.00374 1.00398 0.999768 0.999993
0.998331 1.0003 0.998067 0.999966
0.971749 0.977165 0.994692 0.999764
0.999689 1 1 0.999689
1.00553 1 1.00581 0.999716
1.00988 1 1.01029 0.999594
0.999388 1.00084 0.998573 0.999977
0.978468 0.976264 1.00385 0.998409
0.983518 1.00004 0.983587 0.999888
1.00836 1.002 1.00715 0.999201
0.969882 0.985209 0.985024 0.99941
1.00847 1.01053 0.997988 0.999973
0.999119 1.00855 0.990695 0.999952
0.999735 1 1 0.999735
1.00595 1.00605 0.999921 0.999987
1.00348 1.005 0.998494 0.999992
1.00717 0.999985 1.00744 0.99975
0.996863 0.996534 1.00054 0.999794
0.990505 0.986973 1.00511 0.998481
1.00227 1.01047 0.991932 0.999956
0.986542 0.997315 0.98956 0.999635
0.999774 1 1 0.999774
0.999767 0.999665 1.0001 1
1.00052 1.00197 0.998554 0.999998
0.99812 1.01095 0.987342 0.999965
1.00365 0.996995 1.00676 0.999918
0.98429 0.983098 1.0025 0.99872
0.986397 0.99875 0.987928 0.999699
0.999949 1 1.00027 0.999681
1.00076 1 1.00109 0.999667
1.00323 1 1.00353 0.999699
0.999781 1 1 0.999781
0.999718 1 1 0.999718
1.00103 1 1.00138 0.999652
0.999736 1 1 0.999736
0.999988 1 1.00033 0.999662
1.00092 1 1.00126 0.999657
1.00003 1 1.00035 0.999675
0.999687 1 1 0.999687
0.999747 1 1 0.999747
0.999769 1 1 0.999769
0.999735 1 1 0.999735
0.999714 1 1 0.999714
0.999725 1 1 0.999725
0.999706 1 1 0.999706
0.999742 1 1 0.999742
0.999841 1 1.00015 0.999695
0.999745 1 1 0.999745
0.999756 1 1 0.999756
0.999723 1 1 0.999723
0.999778 1 1 0.999778
0.999816 1 1 0.999816
0.999767 1 1 0.999767
0.999835 1 1 0.999835
0.999809 1 1 0.999809
0.999802 1 1 0.999802
0.999783 1 1 0.999783
0.999819 1 1 0.999819
0.999889 1 1 0.999889
0.999819 1 1 0.999819
0.999893 1 1 0.999893
0.999984 1 1 0.999984
0.9999 1 1 0.9999
0.999986 1 1 0.999986
1 1 1 1
0.999988 1 1 0.999988
1 1 1 1
1 1 1 1
1 1 1 1
1 1 1 1
1 1 1 1
0.999913 1 1 0.999913
0.999987 1 1 0.999987
0.999937 1 1 0.999937
1 1 1 1
0.999995 1 1 0.999995
0.999939 1 1 0.999939
1 1 1 1
1 1 1 1
1 1 1 1
1 1 1 1
1 1 1 1
1 1 1 1
1.00482 1.00497 0.999856 0.99999
0.996165 0.999286 0.996922 0.999954
0.971624 0.97488 0.997204 0.999454
0.999835 1 1 0.999835
1.00325 1.00375 0.999506 0.999993
1.00605 1.00809 0.997993 0.99998
0.986902 0.994447 0.992459 0.999954
0.994434 0.998174 0.99669 0.999562
0.976169 0.971527 1.00621 0.998573
0.966668 0.976489 0.990133 0.999808
0.983919 1.00314 0.98089 0.999953
0.995027 1.00773 0.987928 0.999456
0.977309 0.974221 1.00467 0.998505
0.971279 0.987966 0.983487 0.999617
0.996159 1.0124 0.983996 0.999958
0.978381 1.00047 0.978478 0.99943
0.981975 0.979322 1.00459 0.998123
0.982482 0.995068 0.987928 0.999416
0.995236 1.01057 0.984885 0.999937
0.999754 1 1 0.999754
0.999785 1 1 0.999785
0.999834 1 1 0.999834
0.999793 1 1 0.999793
0.99981 1 1 0.99981
0.999842 1 1 0.999842
0.999861 1 1 0.999861
0.999876 1 1 0.999876
0.988496 1.00619 0.982768 0.999638
1.00669 1 1.00709 0.999607
0.999755 1 1 0.999755
1.00394 1 1.00435 0.999589
0.999829 1 1.00017 0.999663
0.999721 1 1 0.999721
0.999723 1 1 0.999723
0.988663 1.00979 0.97947 0.999604
0.999674 1 1 0.999674
1.00122 1 1.0016 0.999619
1.01767 1 1.01806 0.999624
0.999717 1 1 0.999717
1.00376 1.00289 1.00118 0.999696
1.01329 1 1.01363 0.99966
0.999656 1 1 0.999656
0.999683 1 1 0.999683
0.999453 0.999392 1.00006 1
1.00368 1.00387 0.999813 0.999993
0.998849 1.00031 0.998555 0.999982
0.99974 1 1 0.99974
1.00766 0.999979 1.00801 0.999673
1.00619 1.00621 0.999995 0.999987
0.9871 0.981404 1.00733 0.99849
1.00106 1.00061 1.00101 0.999436
0.980797 0.993986 0.987241 0.999483
1.00364 1.00519 0.998457 0.999993
1.00586 1.01083 0.995116 0.999967
0.999769 1 1 0.999769
0.999472 0.999289 1.00018 1
0.999872 1.00062 0.999248 0.999999
1.00113 0.996138 1.00507 0.999943
0.999049 1.01175 0.987491 0.999957
0.984724 0.986581 0.999275 0.998842
0.982365 0.995191 0.987703 0.999401
1.00329 0.998784 1.0047 0.999811
0.998842 0.998361 1.00048 1
1.00379 1.00379 1.00001 0.999992
0.987409 1.00468 0.982858 0.999953
0.983147 0.992711 0.990932 0.999428
0.994351 0.992998 1.00124 1.00013
0.978341 0.982053 0.997467 0.99875
1.00055 1 1.00089 0.999659
1.00235 1 1.00266 0.999693
1.01213 1 1.01246 0.999671
0.999738 1 1 0.999738
1.00003 1 1.00037 0.999662
1.00119 1 1.00154 0.999648
0.999687 1 1 0.999687
1.00011 1 1.00043 0.999673
1.00302 1 1.00334 0.999675
0.999714 1 1 0.999714
0.999725 1 1 0.999725
0.999882 1 1.00018 0.999704
1.00132 1 1.00165 0.999667
0.999756 1 1 0.999756
0.999794 1 1.00009 0.999702
0.999807 1 1.00014 0.999669
0.999723 1 1 0.999723
0.999756 1 1 0.999756
0.999719 1 1 0.999719
0.9998 1 1 0.9998
0.999816 1 1 0.999816
0.999783 1 1 0.999783
0.999846 1 1 0.999846
0.999816 1 1 0.999816
0.999768 1 1 0.999768
0.999892 1 1 0.999892
0.999832 1 1 0.999832
0.999806 1 1 0.999806
0.999822 1 1 0.999822
0.999889 1 1 0.999889
0.99998 1 1 0.99998
0.999893 1 1 0.999893
0.999983 1 1 0.999983
1 1 1 1
0.999985 1 1 0.999985
1 1 1 1
1 1 1 1
1 1 1 1
1 1 1 1
1 1 1 1
0.9999 1 1 0.9999
0.999981 1 1 0.999981
0.999918 1 1 0.999918
1 1 1 1
0.999987 1 1 0.999987
0.999936 1 1 0.999936
1 1 1 1
1 1 1 1
0.99999 1 1 0.99999
1 1 1 1
1 1 1 1
1 1 1 1
1.00043 1.00029 1.00014 0.999999
1.00468 1.00487 0.999826 0.99999
0.997462 1.00003 0.997484 0.999952
0.999837 1 1 0.999837
0.999822 1 1 0.999822
0.999793 1 1 0.999793
0.999527 1.00185 0.99768 0.999999
1.0031 1.00373 0.999376 0.999994
1.00721 1.00848 0.99876 0.99998
0.99829 1.01157 0.987022 0.999845
0.976444 0.972904 1.00516 0.998484
0.970717 0.987526 0.983552 0.999417
1.00011 1.01331 0.987007 0.999962
0.976346 0.998314 0.978172 0.999819
0.985669 0.98116 1.00605 0.998552
0.986236 1.00106 0.985443 0.999741
0.999074 1.01108 0.988175 0.999952
0.975925 0.994251 0.981652 0.999915
0.983494 0.982975 1.0019 0.998629
0.987998 1.00157 0.986814 0.999633
0.994826 1.00951 0.985486 0.999969
0.999743 1 1 0.999743
0.999754 1 1 0.999754
0.999781 1 1 0.999781
0.999792 1 1 0.999792
0.999816 1 1 0.999816
0.999863 1 1 0.999863
0.989613 1.00883 0.981345 0.999601
1.01755 1 1.01794 0.999622
0.999724 1 1 0.999724
1.00193 1 1.00231 0.999617
0.999674 1 1 0.999674
0.999716 1 1 0.999716
0.999679 1 1 0.999679
1.00064 1.0039 0.997063 0.999686
0.999659 1 1 0.999659
1.01378 1 1.01412 0.999668
0.99968 1 1 0.99968
1.02124 0.999993 1.02147 0.999779
1.00016 1 1.00044 0.999721
0.999651 1 1 0.999651
0.999205 0.999141 1.00006 1
0.999366 0.999313 1.00005 1
1.00367 1.00377 0.9999 0.999993
0.999764 1 1 0.999764
1.00083 0.995452 1.00541 0.999986
0.999157 0.998908 1.00025 1
0.98938 0.989837 1.00021 0.999331
0.988102 1.00166 0.986736 0.999729
0.999296 0.999381 0.999914 1
1.00254 1.01276 0.989945 0.99996
1.00286 0.99937 1.00368 0.99982
0.998971 0.998616 1.00035 1
1.00366 1.00378 0.999887 0.999993
0.994429 0.99308 1.00155 0.999808
0.985534 1.00393 0.981723 0.999956
0.986186 0.998614 0.987794 0.999757
0.97855 0.981545 0.998195 0.998752
1.01234 1 1.01244 0.999895
1.0003 1.00022 1.00009 0.999999
1.0059 1.00808 0.997866 0.999979
0.974769 0.990575 0.984099 0.999944
0.975491 0.987335 0.98819 0.999812
0.991275 0.98625 1.00644 0.998661
0.979314 0.991647 0.987858 0.999702
1.00136 1 1.00167 0.999688
1.01323 1 1.01356 0.999673
1.01924 1 1.01957 0.999674
0.999688 1 1 0.999688
1.00022 1 1.00055 0.999671
1.00245 1 1.00278 0.999675
1.01001 1 1.01039 0.999626
1.00002 1 1.00032 0.999701
1.00164 1 1.00198 0.99966
1.00323 1 1.00362 0.999614
0.999708 1 1 0.999708
1.00006 1 1.00039 0.999667
0.999724 1 1.00007 0.999655
0.999705 1 1 0.999705
0.999773 1 1 0.999773
0.999717 1 1 0.999717
0.999715 1 1 0.999715
0.999825 1 1 0.999825
0.999804 1 1 0.999804
0.999845 1 1 0.999845
0.999821 1 1 0.999821
0.999789 1 1 0.999789
0.999898 1 1 0.999898
0.999846 1 1 0.999846
0.999815 1 1 0.999815
0.999978 1 1 0.999978
0.999892 1 1 0.999892
0.99983 1 1 0.99983
0.999889 1 1 0.999889
0.99998 1 1 0.99998
1 1 1 1
0.999982 1 1 0.999982
1 1 1 1
1 1 1 1
1 1 1 1
1 1 1 1
1 1 1 1
0.9999 1 1 0.9999
0.999989 1 1 0.999989
0.999905 1 1 0.999905
1 1 1 1
0.999988 1 1 0.999988
0.999923 1 1 0.999923
1 1 1 1
1 1 1 1
0.999987 1 1 0.999987
1 1 1 1
1 1 1 1
1 1 1 1
0.999012 0.998414 1.0006 1
1.0002 1.00002 1.00017 1
1.00443 1.00472 0.999718 0.99999
0.999821 1 1 0.999821
0.9998 1 1 0.9998
0.99984 1 1 0.99984
0.999821 1 1 0.999821
0.999787 1 1 0.999787
0.999783 1 1 0.999783
0.999758 1 1 0.999758
1.00212 1.00386 0.998268 0.999993
0.999333 1.00067 0.998663 1
1.00294 1.0037 0.999248 0.999994
1.00277 1.01153 0.991371 0.999968
0.981073 1.00373 0.978012 0.999405
0.986633 0.980888 1.00693 0.998937
0.979881 0.998734 0.981746 0.999366
0.979972 0.993777 0.986433 0.999671
0.988494 0.987234 1.00266 0.998616
0.985158 0.998704 0.987079 0.999349
0.99247 1.00896 0.983703 0.999951
0.989957 0.991233 0.998762 0.999951
0.981772 0.987214 0.99588 0.998602
0.98646 1.00409 0.982699 0.999739
0.988868 1.00451 0.984466 0.999962
0.999726 1 1 0.999726
0.999742 1 1 0.999742
0.999754 1 1 0.999754
0.999792 1 1 0.999792
0.996714 1.00489 0.992182 0.999677
1.01465 1 1.01497 0.999676
0.999715 1 1 0.999715
0.999676 1 1 0.999676
0.999663 1 1 0.999663
0.999685 1 1 0.999685
0.999648 1 1 0.999648
1.0122 0.998194 1.01424 0.999789
1.00018 1 1.00044 0.999737
0.999646 1 1 0.999646
1.02508 0.994905 1.03044 0.999897
1.00356 1 1.00395 0.999612
0.999377 0.99936 1.00002 1
0.999431 0.999409 1.00002 1
0.999263 0.999229 1.00003 1
1.00272 1 1.00289 0.999828
0.994551 0.99233 1.00214 1.00009
0.999117 0.998878 1.00024 1
0.978953 0.981844 0.998342 0.998712
0.980389 0.996503 0.984435 0.999385
1.00348 1.00375 0.99974 0.999994
0.98674 1.00288 0.983957 0.999951
1.01298 0.999666 1.01343 0.999882
1.00006 0.999945 1.00012 1
1.00695 1.00839 0.998592 0.999978
0.983426 0.994184 0.989094 1.00009
0.973608 0.989814 0.983677 0.99995
0.971733 0.985549 0.986364 0.999613
0.992948 0.985347 1.00894 0.998789
1.00355 1 1.00368 0.99988
1.00515 1.0051 1.00006 0.999989
0.99195 0.997976 0.993988 0.999973
0.961138 0.972137 0.988901 0.999783
0.984275 0.978907 1.00698 0.998516
0.976118 0.997232 0.97929 0.999527
1.01452 1 1.01485 0.999676
1.01974 1 1.02008 0.999672
1.01997 1 1.02035 0.999626
1.00195 1 1.00228 0.999675
1.01039 1 1.01076 0.999633
1.0076 1 1.00803 0.999572
1.00215 1 1.00249 0.999653
1.00346 1 1.00385 0.999606
1.00197 1 1.00237 0.999599
1.00042 1 1.00075 0.999664
0.999905 1 1.00026 0.999648
0.999825 1 1.00016 0.999667
0.999716 1 1 0.999716
0.999747 1 1 0.999747
0.999701 1 1 0.999701
0.99981 1 1 0.99981
0.999777 1 1 0.999777
0.999712 1 1 0.999712
0.999843 1 1 0.999843
0.999823 1 1 0.999823
0.999809 1 1 0.999809
0.999897 1 1 0.999897
0.999847 1 1 0.999847
0.999825 1 1 0.999825
0.999978 1 1 0.999978
0.999898 1 1 0.999898
0.999846 1 1 0.999846
1 1 1 1
0.999978 1 1 0.999978
0.999893 1 1 0.999893
0.99998 1 1 0.99998
1 1 1 1
1 1 1 1
1 1 1 1
1 1 1 1
1 1 1 1
0.999826 1 1 0.999826
0.999892 1 1 0.999892
0.999985 1 1 0.999985
0.9999 1 1 0.9999
1 1 1 1
0.99999 1 1 0.99999
0.999909 1 1 0.999909
1 1 1 1
1 1 1 1
0.999994 1 1 0.999994
1 1 1 1
1 1 1 1
1 1 1 1
0.999705 0.999618 1.00009 1
0.999119 0.99865 1.00047 1
0.999965 0.999754 1.00021 1
0.999824 1 1 0.999824
0.999797 1 1 0.999797
0.999799 1 1 0.999799
0.999788 1 1 0.999788
0.999782 1 1 0.999782
0.999821 1 1 0.999821
0.999781 1 1 0.999781
0.999783 1 1 0.999783
0.999758 1 1 0.999758
0.999758 1 1 0.999758
1.00561 1.0063 0.999334 0.999977
1.00244 1.00437 0.998079 0.999994
0.999004 0.999425 0.999578 1
0.992864 1.0084 0.984647 0.999947
0.989954 1.00427 0.986065 0.99968
0.984919 0.993835 0.991553 0.999471
0.982394 0.984082 0.999594 0.998689
0.994124 0.990436 1.00416 0.999565
0.980524 0.984004 0.997819 0.998642
0.985184 1.00006 0.985539 0.999578
0.987227 1.00435 0.982989 0.999962
1.0149 0.987654 1.028 0.999603
0.986751 0.985709 1.00238 0.998676
0.970842 0.987636 0.983574 0.999412
0.975085 0.993232 0.981775 0.999953
0.999751 1 1 0.999751
0.999729 1 1 0.999729
0.999741 1 1 0.999741
1.00419 0.996578 1.00784 0.9998
1.00016 1 1.00041 0.999754
0.99969 1 1 0.99969
0.999646 1 1 0.999646
0.999683 1 1.00003 0.999649
1.00405 1 1.00444 0.999608
1.02495 0.99634 1.02882 0.999897
1.00398 1 1.00435 0.99963
1.01279 0.999006 1.01406 0.99975
1.00377 1.00377 1 0.999992
0.999308 0.999294 1.00001 1
0.999675 0.999676 0.999999 1
1.01341 0.999287 1.01427 0.999869
0.986187 0.993303 0.993131 0.999703
0.999819 0.999668 1.00015 1
0.984022 0.982427 1.00333 0.998296
0.972416 0.98605 0.986755 0.99941
1.00806 1.00875 0.999335 0.999978
0.973348 0.989636 0.983585 0.999955
1.00453 1 1.00465 0.999885
1.00505 1.005 1.00006 0.999989
0.989597 0.995447 0.994153 0.999971
0.972196 0.994373 0.977938 0.999753
0.963758 0.974803 0.989249 0.999414
0.987392 0.981054 1.00821 0.998262
0.985037 1.00028 0.984974 0.999782
0.999469 1.00071 0.998783 0.999978
0.964085 0.971925 0.992511 0.999419
0.976808 0.973959 1.0045 0.998435
0.972316 1.00044 0.972095 0.999789
1.0198 1 1.02013 0.999671
1.02127 1 1.02165 0.999626
1.01173 1 1.01215 0.999581
1.01054 1 1.0109 0.99964
1.00717 1 1.0076 0.999576
1.00182 1 1.00222 0.999593
1.00343 1 1.00383 0.999597
1.00137 1 1.00177 0.999602
0.999685 1 1 0.999685
0.999912 1 1.00027 0.999641
0.999701 1 1.00003 0.999671
0.999737 1 1 0.999737
0.999758 1 1 0.999758
0.999736 1 1 0.999736
0.999718 1 1 0.999718
0.999786 1 1 0.999786
0.99974 1 1 0.99974
0.999697 1 1 0.999697
0.999844 1 1 0.999844
0.999814 1 1 0.999814
0.999782 1 1 0.999782
0.99989 1 1 0.99989
0.999843 1 1 0.999843
0.99982 1 1 0.99982
0.999977 1 1 0.999977
0.999897 1 1 0.999897
0.99985 1 1 0.99985
1 1 1 1
0.999978 1 1 0.999978
0.999898 1 1 0.999898
1 1 1 1
1 1 1 1
0.999979 1 1 0.999979
1 1 1 1
1 1 1 1
1 1 1 1
0.999824 1 1 0.999824
0.999885 1 1 0.999885
0.999824 1 1 0.999824
0.999981 1 1 0.999981
0.999891 1 1 0.999891
1 1 1 1
0.999986 1 1 0.999986
0.9999 1 1 0.9999
1 1 1 1
1 1 1 1
0.999991 1 1 0.999991
1 1 1 1
1 1 1 1
1 1 1 1
1.00396 1.00398 1 0.999987
0.999425 0.999286 1.00014 1
0.999242 0.998889 1.00035 1
0.999808 1 1 0.999808
0.999826 1 1 0.999826
0.999793 1 1 0.999793
0.999792 1 1 0.999792
0.999802 1 1 0.999802
0.999783 1 1 0.999783
0.99978 1 1 0.99978
0.99977 1 1 0.99977
0.999784 1 1 0.999784
0.999758 1 1 0.999758
0.999758 1 1 0.999758
0.999753 1 1 0.999753
0.988256 0.995578 0.992684 0.999961
1.00648 1.00728 0.999236 0.999975
1.00285 1.00495 0.997921 0.999994
0.988767 1.00434 0.98454 0.999952
0.981308 0.997549 0.9843 0.999409
0.980382 0.986028 0.995662 0.998605
0.996578 0.987429 1.00928 0.999989
1.0164 0.987888 1.02887 1
0.974562 0.990654 0.983796 0.999959
0.988728 0.987974 1.00233 0.998438
0.970064 0.985179 0.984842 0.999813
1.0061 0.994569 1.01165 0.999941
0.9858 0.98129 1.00599 0.998615
0.961174 0.971126 0.989925 0.999825
1.0002 1 1.00041 0.99979
0.999752 1 1 0.999752
0.999732 1 1 0.999732
1.02487 0.99792 1.02711 0.999897
1.00467 1 1.00506 0.999604
0.999703 1 1.00005 0.999652
1.00428 1 1.00465 0.999634
1.01184 0.999584 1.01251 0.999752
1.00828 1 1.00852 0.999764
0.997782 1.00042 0.997409 0.999951
1.00315 1.00316 1 0.999992
0.99923 0.999225 1 1
1.00545 1 1.00556 0.999892
0.972423 0.996044 0.976373 0.999911
1.00484 1.00484 1.00001 0.999989
0.991462 0.982337 1.01036 0.99894
0.966637 0.975995 0.99061 0.9998
0.987301 0.994705 0.992605 0.999951
0.983458 1.00103 0.982657 0.999783
0.996708 0.999659 0.997096 0.999952
0.966141 0.972303 0.993855 0.999806
0.972998 1.00108 0.972533 0.999396
0.979593 0.976456 1.00474 0.99848
0.977409 1.00817 0.969851 0.999624
0.969617 0.97503 0.994656 0.99979
0.974389 0.973232 1.00259 0.998602
0.976864 1.00494 0.97265 0.999397
1.02314 1 1.02353 0.999626
1.01126 1 1.01169 0.999578
1.00269 1 1.00305 0.999635
1.00697 1 1.0074 0.99958
1.00172 1 1.00213 0.999596
0.999754 1 1 0.999754
1.00089 1 1.00129 0.999605
0.999691 1 1 0.999691
0.999812 1 1 0.999812
0.999675 1 1 0.999675
0.999739 1 1 0.999739
0.999812 1 1 0.999812
0.999808 1 1 0.999808
0.99976 1 1 0.99976
0.999762 1 1 0.999762
0.999768 1 1 0.999768
0.999741 1 1 0.999741
0.99972 1 1 0.99972
0.999831 1 1 0.999831
0.999785 1 1 0.999785
0.999733 1 1 0.999733
0.999886 1 1 0.999886
0.999843 1 1 0.999843
0.999819 1 1 0.999819
0.999972 1 1 0.999972
0.999891 1 1 0.999891
0.999842 1 1 0.999842
1 1 1 1
0.999977 1 1 0.999977
0.999897 1 1 0.999897
1 1 1 1
1 1 1 1
0.999978 1 1 0.999978
1 1 1 1
1 1 1 1
1 1 1 1
0.999834 1 1 0.999834
0.999825 1 1 0.999825
0.999881 1 1 0.999881
0.999975 1 1 0.999975
0.999885 1 1 0.999885
0.999822 1 1 0.999822
1 1 1 1
0.999981 1 1 0.999981
0.999891 1 1 0.999891
1 1 1 1
1 1 1 1
0.999987 1 1 0.999987
1 1 1 1
1 1 1 1
1 1 1 1
0.997918 0.999671 0.998265 0.999982
1.00462 1.00463 1 0.999987
0.999122 0.998946 1.00017 1
0.999805 1 1 0.999805
0.999816 1 1 0.999816
0.999792 1 1 0.999792
0.999796 1 1 0.999796
0.999805 1 1 0.999805
0.999784 1 1 0.999784
0.999772 1 1 0.999772
0.999782 1 1 0.999782
0.999765 1 1 0.999765
0.999765 1 1 0.999765
0.999758 1 1 0.999758
0.999754 1 1 0.999754
0.966673 0.971891 0.994809 0.999821
0.987894 0.994676 0.99321 0.999972
1.00754 1.00841 0.999163 0.999974
0.974639 0.988519 0.985994 0.999965
0.966369 0.984407 0.982234 0.999432
0.992114 0.990406 1.00273 0.998998
1.02165 0.988199 1.03427 0.999595
1.00658 0.994588 1.01252 0.999538
0.961234 0.972549 0.988894 0.999466
0.989499 0.984847 1.00592 0.99881
0.999842 0.994401 1.00598 0.999498
0.979793 0.977114 1.00413 0.99862
1.00731 1 1.00757 0.999744
1.00006 1 1.00027 0.999791
0.999753 1 1 0.999753
1.01065 1 1.0109 0.999754
1.00458 1 1.00494 0.999638
1.00749 1 1.00772 0.999769
1.00115 1.00027 1.00115 0.999732
0.970529 0.977608 0.993015 0.999742
0.998525 1.00032 0.998242 0.999966
1.00257 1.00258 1 0.999992
0.981192 1.00122 0.980207 0.999785
0.972276 0.999782 0.972638 0.999846
0.997699 1.00033 0.99742 0.999949
0.978365 0.974768 1.00523 0.998466
0.964951 0.972434 0.992868 0.999433
0.977139 1.00739 0.970316 0.999645
0.969942 0.975166 0.995037 0.999604
0.975016 0.972155 1.00441 0.998538
0.974837 1.00375 0.971388 0.999798
0.977503 1.01242 0.96592 0.999578
0.965801 0.967205 1.00026 0.998291
0.990509 1.00175 0.988919 0.999853
1.01085 1 1.01129 0.999574
1.00242 1 1.00279 0.999631
0.999069 1 0.99928 0.999789
1.00157 1 1.00197 0.999599
0.999664 1 0.999908 0.999756
0.999418 1 0.999497 0.99992
0.999697 1 1 0.999697
0.999813 1 1 0.999813
0.999888 1 1 0.999888
0.999742 1 1 0.999742
0.999811 1 1 0.999811
0.999848 1 1 0.999848
0.999829 1 1 0.999829
0.999813 1 1 0.999813
0.9998 1 1 0.9998
0.999777 1 1 0.999777
0.999761 1 1 0.999761
0.999766 1 1 0.999766
0.999807 1 1 0.999807
0.999774 1 1 0.999774
0.999746 1 1 0.999746
0.999878 1 1 0.999878
0.999831 1 1 0.999831
0.999784 1 1 0.999784
0.999965 1 1 0.999965
0.999886 1 1 0.999886
0.999843 1 1 0.999843
1 1 1 1
0.999972 1 1 0.999972
0.999891 1 1 0.999891
1 1 1 1
1 1 1 1
0.999976 1 1 0.999976
1 1 1 1
1 1 1 1
1 1 1 1
0.999837 1 1 0.999837
0.99983 1 1 0.99983
0.999879 1 1 0.999879
0.999827 1 1 0.999827
0.999881 1 1 0.999881
0.99997 1 1 0.99997
1 1 1 1
0.999976 1 1 0.999976
0.999885 1 1 0.999885
1 1 1 1
1 1 1 1
0.999982 1 1 0.999982
1 1 1 1
1 1 1 1
1 1 1 1
0.972824 0.975993 0.997277 0.999474
0.996687 0.999196 0.997518 0.999971
1.00519 1.00521 1 0.999987
0.999803 1 1 0.999803
0.999792 1 1 0.999792
0.999818 1 1 0.999818
0.999819 1 1 0.999819
0.999797 1 1 0.999797
0.999773 1 1 0.999773
0.999783 1 1 0.999783
0.999765 1 1 0.999765
0.999787 1 1 0.999787
0.999758 1 1 0.999758
1.00001 1 1.00026 0.999749
0.99976 1 1 0.99976
0.999754 1 1 0.999754
0.976034 0.976863 1.00086 0.998289
0.968887 0.973946 0.995158 0.999647
0.987973 0.995147 0.99283 0.999961
0.960972 0.972798 0.988005 0.999837
0.985382 0.980959 1.00634 0.998181
1.00937 0.995342 1.01415 0.999949
1.00048 0.995217 1.00558 0.999708
0.980263 0.977854 1.00381 0.99866
0.995035 0.998803 0.996643 0.999584
1.00493 1.00091 1.00445 0.999576
1.00571 1 1.00597 0.999738
0.999792 1 1 0.999792
1.00503 1 1.00526 0.999775
1.00059 1.00061 1.00018 0.999804
0.961963 0.965287 0.997893 0.99866
0.971626 0.976999 0.995047 0.99945
0.999056 1.00017 0.998909 0.999981
0.976899 1.00691 0.970524 0.999665
0.978405 1.00863 0.970625 0.999387
0.972105 0.975564 0.997005 0.999447
0.976702 0.971796 1.00649 0.998566
0.977322 1.01103 0.967073 0.999573
0.969039 0.968898 1.00149 0.998653
0.987374 1.0042 0.983784 0.999452
0.97527 1.00955 0.966381 0.999647
0.998376 0.993021 1.00554 0.999852
1.00192 1 1.00229 0.999627
0.997977 1 0.998188 0.999787
0.996666 1 0.996753 0.999908
0.999504 1 0.999746 0.999758
0.999158 1 0.999239 0.999919
0.999183 1 0.99924 0.999943
0.999813 1 1 0.999813
0.999884 1 1 0.999884
0.999878 1 1 0.999878
0.999811 1 1 0.999811
0.999845 1 1 0.999845
0.999836 1 1 0.999836
0.999834 1 1 0.999834
0.999812 1 1 0.999812
0.999818 1 1 0.999818
0.999799 1 1 0.999799
0.999793 1 1 0.999793
0.999797 1 1 0.999797
0.999776 1 1 0.999776
0.999762 1 1 0.999762
0.999861 1 1 0.999861
0.99981 1 1 0.99981
0.999779 1 1 0.999779
0.999956 1 1 0.999956
0.999877 1 1 0.999877
0.99983 1 1 0.99983
1 1 1 1
0.999965 1 1 0.999965
0.999887 1 1 0.999887
1 1 1 1
1 1 1 1
0.999971 1 1 0.999971
1 1 1 1
1 1 1 1
1 1 1 1
0.999832 1 1 0.999832
0.999837 1 1 0.999837
0.999871 1 1 0.999871
0.999825 1 1 0.999825
0.999875 1 1 0.999875
0.999964 1 1 0.999964
0.999881 1 1 0.999881
0.99997 1 1 0.99997
1 1 1 1
1 1 1 1
1 1 1 1
0.999976 1 1 0.999976
1 1 1 1
1 1 1 1
1 1 1 1
0.96971 0.970669 1.00031 0.998704
0.972077 0.977497 0.994677 0.999776
0.998428 1.00031 0.998138 0.999981
0.999792 1 1 0.999792
0.999819 1 1 0.999819
0.999798 1 1 0.999798
0.99982 1 1 0.99982
0.999815 1 1 0.999815
0.999805 1 1 0.999805
0.999766 1 1 0.999766
0.999786 1 1 0.999786
0.999759 1 1 0.999759
0.999783 1 1 0.999783
0.999756 1 1 0.999756
0.999728 1 1.00011 0.999613
0.999804 1 1.00006 0.999747
0.999755 1 1 0.999755
0.991067 0.993749 0.997424 0.999877
0.972717 0.973865 1.00018 0.998646
0.966217 0.972681 0.993896 0.999455
0.977736 0.975508 1.00371 0.998579
1.00079 0.995401 1.00548 0.999933
0.994604 0.996863 0.997848 0.999886
0.997909 1.00391 0.99445 0.999571
1.00332 1.0002 1.00352 0.999597
1.005 1 1.00527 0.999731
0.997874 1.00027 0.99773 0.999875
0.988309 0.986386 1.00245 0.999504
0.965987 0.966883 1.00035 0.998723
0.971675 0.977494 0.994268 0.999778
0.97715 1.00946 0.968412 0.999567
0.989914 1.00775 0.982456 0.999838
0.970155 0.96849 1.00269 0.999031
0.977716 1.007 0.971263 0.999646
0.993904 0.993983 1.00021 0.999711
0.983896 1.00254 0.981634 0.999769
1.00214 1 1.00249 0.999659
0.996851 1 0.997066 0.999785
0.996252 1 0.996342 0.999909
0.997225 1 0.997335 0.99989
0.998992 1 0.999074 0.999917
0.999226 1 0.999287 0.999939
0.999678 1 0.999817 0.999861
0.99988 1 1 0.99988
0.999874 1 1 0.999874
0.999817 1 1 0.999817
0.999843 1 1 0.999843
0.999838 1 1 0.999838
0.999801 1 1 0.999801
0.99984 1 1 0.99984
0.999815 1 1 0.999815
0.999796 1 1 0.999796
0.999798 1 1 0.999798
0.999792 1 1 0.999792
0.999804 1 1 0.999804
0.99984 1 1 0.99984
0.999801 1 1 0.999801
0.999775 1 1 0.999775
0.999943 1 1 0.999943
0.999862 1 1 0.999862
0.999813 1 1 0.999813
1 1 1 1
0.999956 1 1 0.999956
0.999877 1 1 0.999877
1 1 1 1
1 1 1 1
0.999965 1 1 0.999965
1 1 1 1
1 1 1 1
1 1 1 1
0.99983 1 1 0.99983
0.999836 1 1 0.999836
0.999868 1 1 0.999868
0.999838 1 1 0.999838
0.999871 1 1 0.999871
0.99996 1 1 0.99996
0.999871 1 1 0.999871
0.999964 1 1 0.999964
1 1 1 1
0.99997 1 1 0.99997
1 1 1 1
1 1 1 1
1 1 1 1
1 1 1 1
1 1 1 1
0.98473 0.986272 0.998582 0.999855
0.965493 0.967849 0.998896 0.998669
0.969574 0.976248 0.99371 0.99945
0.999804 1 1 0.999804
0.999799 1 1 0.999799
0.99982 1 1 0.99982
0.999805 1 1 0.999805
0.999814 1 1 0.999814
0.999819 1 1 0.999819
0.999785 1 1 0.999785
0.999761 1 1 0.999761
0.999787 1 1 0.999787
0.999769 1 1 0.999769
0.999691 1 1 0.999691
0.999501 1 1 0.999501
0.99975 1 1.00013 0.999621
0.999745 1 1 0.999745
0.99718 1.00023 0.99736 0.999586
0.991909 0.995315 0.996885 0.999692
0.974549 0.974818 1.00072 0.999008
0.997793 0.998465 0.999814 0.999514
1.00164 1.00393 0.998223 0.999493
1.00433 1 1.00472 0.999617
0.999874 1 1.00002 0.999854
0.989135 0.985351 1.00397 0.999866
0.963401 0.966694 0.997922 0.998669
0.980183 1.00443 0.97621 0.999644
0.990378 0.994557 0.996243 0.999554
0.987426 1.00151 0.986185 0.999754
1.00111 1 1.00141 0.999704
0.999299 1 0.999591 0.999707
0.999671 1 1 0.999671
0.995899 1 0.99599 0.999909
0.998074 1 0.998184 0.99989
0.99979 1 1 0.99979
0.999375 1 0.99944 0.999935
0.999832 1 0.999974 0.999859
0.999779 1 1 0.999779
0.999871 1 1 0.999871
0.999822 1 1 0.999822
0.999766 1 1 0.999766
0.999839 1 1 0.999839
0.999801 1 1 0.999801
0.99978 1 1 0.99978
0.999819 1 1 0.999819
0.999797 1 1 0.999797
0.999797 1 1 0.999797
0.999791 1 1 0.999791
0.999801 1 1 0.999801
0.999835 1 1 0.999835
0.999927 1 1 0.999927
0.999844 1 1 0.999844
0.999804 1 1 0.999804
1 1 1 1
0.999942 1 1 0.999942
0.999862 1 1 0.999862
1 1 1 1
1 1 1 1
0.999955 1 1 0.999955
1 1 1 1
1 1 1 1
1 1 1 1
0.999819 1 1 0.999819
0.99983 1 1 0.99983
0.999867 1 1 0.999867
0.999839 1 1 0.999839
0.999871 1 1 0.999871
0.999954 1 1 0.999954
0.999871 1 1 0.999871
0.99996 1 1 0.99996
1 1 1 1
0.999965 1 1 0.999965
1 1 1 1
1 1 1 1
1 1 1 1
1 1 1 1
1 1 1 1
0.998025 1 0.998211 0.999813
0.985126 0.987581 0.998008 0.999505
0.966548 0.968114 0.999659 0.998722
0.999808 1 1 0.999808
0.999771 1 1 0.999771
0.999805 1 1 0.999805
0.999804 1 1 0.999804
0.999813 1 1 0.999813
0.999816 1 1 0.999816
0.999719 1 1 0.999719
0.999791 1 1 0.999791
0.999782 1 1 0.999782
0.999691 1 1 0.999691
0.999569 1 1 0.999569
0.999649 1 1 0.999649
0.999512 1 1 0.999512
0.999629 1 1 0.999629
0.998881 1.00165 0.997638 0.999597
0.990819 0.99486 0.996435 0.999501
1.00234 1.0034 0.999531 0.999416
0.999853 1 1 0.999853
1.00102 1 1.00116 0.999858
0.987575 0.985137 1.00298 0.999496
0.991192 1.00069 0.990768 0.999739
1.00009 1 1.00034 0.99975
0.998907 1 0.999187 0.999717
0.999692 1 1 0.999692
0.999704 1 1 0.999704
0.999802 1 1 0.999802
0.998895 1 0.999004 0.99989
0.999794 1 1 0.999794
0.999721 1 1 0.999721
0.999857 1 1 0.999857
0.999779 1 1 0.999779
0.999731 1 1 0.999731
0.999827 1 1 0.999827
0.999766 1 1 0.999766
0.999749 1 1 0.999749
0.999801 1 1 0.999801
0.99978 1 1 0.99978
0.999782 1 1 0.999782
0.999798 1 1 0.999798
0.999797 1 1 0.999797
0.999825 1 1 0.999825
0.999799 1 1 0.999799
0.999833 1 1 0.999833
0.999913 1 1 0.999913
1 1 1 1
0.999927 1 1 0.999927
0.999848 1 1 0.999848
1 1 1 1
1 1 1 1
0.999941 1 1 0.999941
1 1 1 1
1 1 1 1
1 1 1 1
0.999792 1 1 0.999792
0.999816 1 1 0.999816
0.999857 1 1 0.999857
0.999831 1 1 0.999831
0.999867 1 1 0.999867
0.999946 1 1 0.999946
0.999873 1 1 0.999873
0.999954 1 1 0.999954
1 1 1 1
0.99996 1 1 0.99996
1 1 1 1
1 1 1 1
1 1 1 1
1 1 1 1
1 1 1 1
0.999831 1 1 0.999831
0.998105 1 0.99828 0.999824
0.984436 0.986214 0.998319 0.999877
0.999749 1 1 0.999749
0.999822 1 1 0.999822
0.999715 1 1 0.999715
0.999768 1 1 0.999768
0.999807 1 1 0.999807
0.999627 1 1 0.999627
0.999813 1 1 0.999813
0.99972 1 1 0.99972
0.999633 1 1 0.999633
0.99969 1 1 0.99969
0.999556 1 1 0.999556
0.999644 1 1 0.999644
0.999523 1 1 0.999523
1.00075 1.00318 0.997965 0.999608
0.999871 1 1 0.999871
0.99985 1 1 0.99985
1.0021 1 1.00224 0.999861
0.998639 1 0.998911 0.999727
0.999714 1 1 0.999714
0.9997 1 1 0.9997
0.999805 1 1 0.999805
0.999776 1 1 0.999776
0.999798 1 1 0.999798
0.999725 1 1 0.999725
0.999716 1 1 0.999716
0.99978 1 1 0.99978
0.999729 1 1 0.999729
0.999721 1 1 0.999721
0.999766 1 1 0.999766
0.999748 1 1 0.999748
0.999756 1 1 0.999756
0.99978 1 1 0.99978
0.999781 1 1 0.999781
0.999809 1 1 0.999809
0.999797 1 1 0.999797
0.999825 1 1 0.999825
0.999899 1 1 0.999899
0.999831 1 1 0.999831
0.999913 1 1 0.999913
0.999998 1 1 0.999998
1 1 1 1
0.999999 1 1 0.999999
0.999926 1 1 0.999926
1 1 1 1
1 1 1 1
1 1 1 1
0.999725 1 1 0.999725
0.999765 1 1 0.999765
0.999788 1 1 0.999788
0.999844 1 1 0.999844
0.999812 1 1 0.999812
0.999858 1 1 0.999858
0.999938 1 1 0.999938
0.999867 1 1 0.999867
0.999946 1 1 0.999946
1 1 1 1
0.999954 1 1 0.999954
1 1 1 1
1 1 1 1
1 1 1 1
1 1 1 1
1 1 1 1
0.999786 1 1 0.999786
0.999825 1 1 0.999825
0.998514 1.00038 0.998303 0.999835
0.999665 1 1 0.999665
0.999763 1 1 0.999763
0.999835 1 1 0.999835
0.999722 1 1 0.999722
0.999766 1 1 0.999766
0.999621 1 1 0.999621
0.99962 1 1 0.99962
0.999721 1 1 0.999721
0.999629 1 1 0.999629
0.999544 1 1 0.999544
0.999639 1 1 0.999639
0.999849 1 1 0.999849
0.999868 1 1 0.999868
0.999848 1 1 0.999848
0.999695 1 1 0.999695
0.999808 1 1 0.999808
0.999776 1 1 0.999776
0.999771 1 1 0.999771
0.999729 1 1 0.999729
0.999713 1 1 0.999713
0.999728 1 1 0.999728
0.999727 1 1 0.999727
0.99972 1 1 0.99972
0.999731 1 1 0.999731
0.999748 1 1 0.999748
0.999755 1 1 0.999755
0.999786 1 1 0.999786
0.999781 1 1 0.999781
0.999809 1 1 0.999809
0.999882 1 1 0.999882
0.999826 1 1 0.999826
0.999899 1 1 0.999899
0.999994 1 1 0.999994
0.999913 1 1 0.999913
0.999997 1 1 0.999997
1 1 1 1
1 1 1 1
0.999999 1 1 0.999999
1 1 1 1
0.999678 1 1 0.999678
0.99976 1 1 0.99976
0.999746 1 1 0.999746
0.999821 1 1 0.999821
0.999765 1 1 0.999765
0.999785 1 1 0.999785
0.999844 1 1 0.999844
0.999927 1 1 0.999927
0.999858 1 1 0.999858
0.999938 1 1 0.999938
1 1 1 1
0.999947 1 1 0.999947
1 1 1 1
1 1 1 1
1 1 1 1
1 1 1 1
1 1 1 1
0.999743 1 1 0.999743
0.999787 1 1 0.999787
0.999818 1 1 0.999818
0.999643 1 1 0.999643
0.999665 1 1 0.999665
0.999777 1 1 0.999777
0.999728 1 1 0.999728
0.999621 1 1 0.999621
0.999613 1 1 0.999613
0.999624 1 1 0.999624
0.999813 1 1 0.999813
0.999836 1 1 0.999836
0.999865 1 1 0.999865
0.999771 1 1 0.999771
0.999775 1 1 0.999775
0.999769 1 1 0.999769
0.999758 1 1 0.999758
0.999709 1 1 0.999709
0.999728 1 1 0.999728
0.999731 1 1 0.999731
0.999719 1 1 0.999719
0.999732 1 1 0.999732
0.999766 1 1 0.999766
0.999755 1 1 0.999755
0.999786 1 1 0.999786
0.999862 1 1 0.999862
0.999809 1 1 0.999809
0.999882 1 1 0.999882
0.999991 1 1 0.999991
0.9999 1 1 0.9999
0.999993 1 1 0.999993
1 1 1 1
0.999996 1 1 0.999996
1 1 1 1
1 1 1 1
0.999655 1 1 0.999655
0.99971 1 1 0.99971
0.999687 1 1 0.999687
0.999804 1 1 0.999804
0.999758 1 1 0.999758
0.999767 1 1 0.999767
0.999906 1 1 0.999906
0.999821 1 1 0.999821
0.999765 1 1 0.999765
0.999845 1 1 0.999845
0.999928 1 1 0.999928
0.999999 1 1 0.999999
0.999939 1 1 0.999939
1 1 1 1
1 1 1 1
1 1 1 1
1 1 1 1
1 1 1 1
0.999726 1 1 0.999726
0.999734 1 1 0.999734
0.999787 1 1 0.999787
0.999636 1 1 0.999636
0.999666 1 1 0.999666
0.999621 1 1 0.999621
0.999773 1 1 0.999773
0.999817 1 1 0.999817
0.999822 1 1 0.999822
0.999767 1 1 0.999767
0.999755 1 1 0.999755
0.999768 1 1 0.999768
0.999758 1 1 0.999758
0.999754 1 1 0.999754
0.999729 1 1 0.999729
0.999732 1 1 0.999732
0.999758 1 1 0.999758
0.999732 1 1 0.999732
0.999766 1 1 0.999766
0.999844 1 1 0.999844
0.999786 1 1 0.999786
0.999861 1 1 0.999861
0.999986 1 1 0.999986
0.999882 1 1 0.999882
0.999989 1 1 0.999989
1 1 1 1
0.999992 1 1 0.999992
1 1 1 1
1 1 1 1
0.999721 1 1 0.999721
0.999677 1 1 0.999677
0.999652 1 1 0.999652
0.999763 1 1 0.999763
0.999715 1 1 0.999715
0.999695 1 1 0.999695
0.999879 1 1 0.999879
0.999795 1 1 0.999795
0.999756 1 1 0.999756
0.999994 1 1 0.999994
0.999906 1 1 0.999906
0.999821 1 1 0.999821
0.999928 1 1 0.999928
0.999999 1 1 0.999999
1 1 1 1
1 1 1 1
1 1 1 1
1 1 1 1
0.999719 1 1 0.999719
0.999722 1 1 0.999722
0.999724 1 1 0.999724
0.999629 1 1 0.999629
0.999746 1 1 0.999746
0.999777 1 1 0.999777
0.99982 1 1 0.99982
0.999763 1 1 0.999763
0.999757 1 1 0.999757
0.999764 1 1 0.999764
0.999758 1 1 0.999758
0.999754 1 1 0.999754
0.999766 1 1 0.999766
0.999733 1 1 0.999733
0.999759 1 1 0.999759
0.999834 1 1 0.999834
0.999765 1 1 0.999765
0.999844 1 1 0.999844
0.999982 1 1 0.999982
0.999861 1 1 0.999861
0.999985 1 1 0.999985
1 1 1 1
0.999988 1 1 0.999988
1 1 1 1
1 1 1 1
0.999724 1 1 0.999724
0.999714 1 1 0.999714
0.99972 1 1 0.99972
0.999723 1 1 0.999723
0.999685 1 1 0.999685
0.999649 1 1 0.999649
0.999837 1 1 0.999837
0.999763 1 1 0.999763
0.999719 1 1 0.999719
0.999985 1 1 0.999985
0.999871 1 1 0.999871
0.999786 1 1 0.999786
1 1 1 1
0.999995 1 1 0.999995
0.999907 1 1 0.999907
1 1 1 1
1 1 1 1
1 1 1 1
0.999729 1 1 0.999729
0.999727 1 1 0.999727
0.999718 1 1 0.999718
0.999753 1 1 0.999753
0.999745 1 1 0.999745
0.999781 1 1 0.999781
0.999758 1 1 0.999758
0.999765 1 1 0.999765
0.999788 1 1 0.999788
0.999754 1 1 0.999754
0.999771 1 1 0.999771
0.999827 1 1 0.999827
0.99976 1 1 0.99976
0.999835 1 1 0.999835
0.999979 1 1 0.999979
0.999844 1 1 0.999844
0.999981 1 1 0.999981
1 1 1 1
0.999984 1 1 0.999984
1 1 1 1
1 1 1 1
0.999726 1 1 0.999726
0.999735 1 1 0.999735
0.999723 1 1 0.999723
0.999739 1 1 0.999739
0.999717 1 1 0.999717
0.999719 1 1 0.999719
0.999809 1 1 0.999809
0.999732 1 1 0.999732
0.999693 1 1 0.999693
0.999978 1 1 0.999978
0.999833 1 1 0.999833
0.999762 1 1 0.999762
1 1 1 1
0.999988 1 1 0.999988
0.999863 1 1 0.999863
1 1 1 1
0.999997 1 1 0.999997
1 1 1 1
0.999742 1 1 0.999742
0.999729 1 1 0.999729
0.999735 1 1 0.999735
0.999777 1 1 0.999777
0.999752 1 1 0.999752
0.999745 1 1 0.999745
0.999765 1 1 0.999765
0.999789 1 1 0.999789
0.999833 1 1 0.999833
0.999777 1 1 0.999777
0.999831 1 1 0.999831
0.999975 1 1 0.999975
0.999835 1 1 0.999835
0.999978 1 1 0.999978
1 1 1 1
0.99998 1 1 0.99998
1 1 1 1
1 1 1 1
0.999742 1 1 0.999742
0.999721 1 1 0.999721
0.999756 1 1 0.999756
0.999736 1 1 0.999736
0.999722 1 1 0.999722
0.999817 1 1 0.999817
0.999738 1 1 0.999738
0.999719 1 1 0.999719
0.999972 1 1 0.999972
0.999813 1 1 0.999813
0.999741 1 1 0.999741
1 1 1 1
0.99998 1 1 0.99998
0.999829 1 1 0.999829
1 1 1 1
0.99999 1 1 0.99999
1 1 1 1
0.999771 1 1 0.999771
0.999743 1 1 0.999743
0.99973 1 1 0.99973
0.999827 1 1 0.999827
0.999777 1 1 0.999777
0.999751 1 1 0.999751
0.999789 1 1 0.999789
0.999833 1 1 0.999833
0.999973 1 1 0.999973
0.999835 1 1 0.999835
0.999975 1 1 0.999975
1 1 1 1
0.999977 1 1 0.999977
1 1 1 1
1 1 1 1
0.999763 1 1 0.999763
0.999739 1 1 0.999739
0.999717 1 1 0.999717
0.999825 1 1 0.999825
0.999756 1 1 0.999756
0.999737 1 1 0.999737
0.999972 1 1 0.999972
0.999816 1 1 0.999816
0.999737 1 1 0.999737
1 1 1 1
0.999974 1 1 0.999974
0.999818 1 1 0.999818
1 1 1 1
0.999982 1 1 0.999982
1 1 1 1
0.999832 1 1 0.999832
0.999766 1 1 0.999766
0.999743 1 1 0.999743
0.999972 1 1 0.999972
0.999828 1 1 0.999828
0.999778 1 1 0.999778
0.999833 1 1 0.999833
0.999973 1 1 0.999973
1 1 1 1
0.999974 1 1 0.999974
1 1 1 1
1 1 1 1
0.999831 1 1 0.999831
0.999762 1 1 0.999762
0.999736 1 1 0.999736
0.999973 1 1 0.999973
0.999825 1 1 0.999825
0.999756 1 1 0.999756
1 1 1 1
0.999972 1 1 0.999972
0.999816 1 1 0.999816
1 1 1 1
0.999975 1 1 0.999975
1 1 1 1
0.999971 1 1 0.999971
0.999828 1 1 0.999828
0.999762 1 1 0.999762
1 1 1 1
0.999971 1 1 0.999971
0.999829 1 1 0.999829
0.999972 1 1 0.999972
1 1 1 1
1 1 1 1
0.999972 1 1 0.999972
0.999831 1 1 0.999831
0.999761 1 1 0.999761
1 1 1 1
0.999973 1 1 0.999973
0.999824 1 1 0.999824
1 1 1 1
0.999972 1 1 0.999972
1 1 1 1
1 1 1 1
0.999971 1 1 0.999971
0.999823 1 1 0.999823
1 1 1 1
0.999971 1 1 0.999971
1 1 1 1
1 1 1 1
0.999973 1 1 0.999973
0.99983 1 1 0.99983
1 1 1 1
0.999973 1 1 0.999973
1 1 1 1
1 1 1 1
0.999971 1 1 0.999971
1 1 1 1
1 1 1 1
0.999973 1 1 0.999973
1 1 1 1
1 1 1 1
1 1 1 1

VECTORS lamdaE float
0.999085 0.999215 0.997377
0.999261 0.998279 0.999035
0.999062 0.999227 0.997412
0.998889 1.00001 0.997062
0.998974 0.999599 0.997246
0.999202 0.998759 0.99757
0.999481 1.00007 0.995651
0.999285 0.99822 0.999056
0.998873 0.999512 0.998862
0.99913 0.998611 0.99901
0.999392 0.997946 0.997951
0.999493 0.99962 0.995846
0.999016 1.00004 0.996958
0.998808 1.00014 0.997145
0.999039 0.999234 0.997448
0.998856 1.00007 0.99709
0.999184 0.998746 0.997608
0.998948 0.99963 0.997277
0.999494 1.00007 0.995651
0.998946 1.00001 0.998722
0.998902 1.00003 0.997054
0.998901 0.999876 0.997142
0.999713 1.00024 0.995093
0.999532 1.00019 0.995459
0.999322 0.998286 0.997785
0.99943 0.999888 0.995909
1.00026 1.00093 0.993358
0.999312 0.998158 0.999077
0.9989 0.99959 0.998069
0.999152 0.998701 0.998315
0.999385 0.997881 0.999115
0.999472 0.999627 0.995848
0.998868 1.00004 0.997165
0.999019 0.99931 0.997467
0.999578 1.0002 0.995773
0.999475 0.997556 0.999186
0.999481 0.999814 0.99627
0.999525 0.999336 0.996063
0.999914 1.0011 0.993557
0.999651 0.997162 0.999203
0.999009 1.00002 0.99868
0.998844 1.00007 0.997942
0.999087 0.999991 0.998645
0.99886 1.00009 0.997108
1 1.00002 0.994357
0.998794 1.00001 0.998796
0.999825 1.00015 0.995415
0.99882 1.00014 0.997119
0.998921 0.999659 0.99731
0.999166 0.998727 0.997647
0.999508 1.00008 0.995651
0.99894 1.00002 0.997901
0.99887 1.00008 0.997077
0.999309 0.998257 0.997818
0.998871 0.999925 0.997173
0.999736 1.00023 0.995093
0.999442 0.999892 0.995911
0.999552 1.00017 0.99546
1.00029 1.00093 0.993321
0.999004 0.99999 0.998691
0.998903 1.00002 0.997082
0.999927 1 0.995346
0.999806 1.00015 0.995023
0.999602 1.00026 0.995272
1.00103 1.00039 0.992423
1.00047 1.00069 0.992978
0.999466 0.99786 0.997951
0.999422 0.99957 0.996222
1 1.00111 0.993652
1.0008 1.00088 0.992049
0.998926 0.999409 0.998861
0.999415 0.997822 0.99914
0.999184 0.998556 0.999008
0.999448 0.999639 0.99585
0.99886 0.999837 0.998777
0.999001 0.999123 0.998904
0.999524 1.00033 0.995025
0.999493 0.997587 0.998617
0.999457 0.999901 0.995615
0.999518 0.999285 0.99638
0.999904 1.00113 0.993545
0.999569 0.997361 0.999186
0.999798 0.998401 0.996448
0.999662 1.00034 0.994748
0.9995 1.00016 0.995262
1.00044 1.00072 0.992879
0.999603 0.998947 0.996828
1.00001 1.00099 0.993479
0.999869 1.00108 0.99367
1.00025 1.00137 0.992611
0.999717 0.996981 0.999226
0.999664 0.997148 0.99921
0.998849 1.00001 0.998753
0.998965 1.00002 0.998701
0.99907 0.999989 0.998651
0.998899 1.00005 0.997905
0.999994 1 0.994804
0.998819 1.00002 0.997958
0.999793 1.00015 0.995022
0.999079 0.999972 0.998654
1.00009 0.999917 0.994258
0.999908 1.00008 0.995334
1.00148 0.999958 0.991558
0.99974 1.00023 0.995474
1.00117 1.00021 0.991949
0.998971 1.00002 0.997038
0.998835 1.00015 0.997099
0.999294 0.998224 0.997852
0.99884 0.999975 0.997205
0.999759 1.0002 0.995093
0.999573 1.00016 0.995459
0.999454 0.999903 0.995912
1.00032 1.00094 0.993284
0.99903 0.999993 0.998676
0.998878 1.00004 0.997108
0.999938 1 0.994724
0.999827 1.00014 0.995016
0.999431 0.997839 0.998542
0.999443 0.999564 0.996365
0.999626 1.00024 0.995275
1.00103 1.00037 0.992343
1.00004 1.00112 0.993608
1.0005 1.00071 0.993029
1.00079 1.00088 0.992055
1.00002 0.999934 0.994373
0.999839 1.00006 0.99505
1.00141 0.999954 0.991946
1.0012 1.00016 0.992118
1.00074 1.00053 0.992638
1.00166 1.00024 0.991182
0.999532 0.997553 0.999165
1.00102 1.00059 0.991884
0.999537 0.999201 0.996143
0.999833 1.00115 0.993612
1.00055 1.00127 0.99222
1.00111 1.00078 0.991558
0.999733 0.998616 0.996328
1.00006 1.0004 0.993984
0.998861 0.999734 0.998797
0.999038 0.998992 0.998938
0.999472 1.00041 0.995024
0.999512 0.99755 0.999176
0.999507 0.999263 0.996103
0.999408 0.999968 0.995598
0.999894 1.00115 0.993533
0.999586 0.997345 0.999191
0.999804 0.998374 0.996453
0.999627 1.00031 0.995183
0.999457 1.00015 0.995663
1.00045 1.00071 0.992884
0.999615 0.99892 0.996292
1 1.001 0.993473
0.999848 1.00112 0.993664
1.00026 1.00135 0.992588
0.999712 0.998652 0.996372
0.999862 0.998176 0.996546
1.00006 1.0003 0.994053
1.00074 1.00051 0.9925
1.00017 1.0009 0.993252
1.00099 1.00073 0.991829
0.999924 1.00081 0.993835
1.00043 1.00105 0.992554
1.00012 1.00167 0.992633
1.00036 1.0016 0.992236
0.99977 0.996815 0.999252
0.999726 0.996968 0.999233
0.999677 0.997134 0.999217
0.999798 0.998379 0.996446
0.999609 0.997356 0.999187
0.998837 0.999929 0.998765
0.998892 1.00003 0.998735
0.999779 1.00018 0.994623
0.999977 0.999996 0.994396
0.999052 0.999986 0.998662
0.999086 0.999976 0.998647
1.00009 0.999908 0.994262
0.999876 1.00008 0.994945
1.00148 0.99996 0.991562
0.999703 1.00028 0.994678
1.00117 1.00021 0.991955
1.0001 0.999876 0.994256
1.00162 0.999888 0.991344
1.00133 1.00006 0.991774
1.00213 0.999875 0.990394
1.00098 1.00035 0.992183
1.0018 1.00004 0.99091
0.999057 0.999996 0.998661
0.998852 1.00007 0.997134
0.999933 1.00001 0.994121
0.999849 1.00012 0.995009
0.999392 0.997813 0.999143
0.999465 0.999564 0.996507
0.999651 1.00021 0.995277
1.00103 1.00035 0.992262
1.00052 1.00072 0.99308
1.00008 1.00114 0.993564
1.00079 1.00088 0.992062
1.00002 0.999941 0.994367
0.999862 1.00005 0.995039
1.00139 0.999957 0.991771
1.00121 1.00018 0.992173
0.999511 0.997571 0.999158
0.999536 0.999218 0.996418
0.999875 1.00114 0.993749
1.00074 1.00053 0.992644
1.00165 1.0002 0.991088
1.00051 1.00127 0.992202
1.00105 1.0006 0.991925
1.0011 1.00078 0.991568
0.999723 0.998653 0.996325
1.00006 1.00038 0.993988
1.00153 0.999893 0.991524
1.0013 1.00002 0.992059
1.00206 0.999903 0.990727
1.00185 0.999966 0.990757
1.00127 1.00041 0.991649
1.00199 0.999972 0.990726
0.999632 0.99889 0.996241
1.00136 1.00038 0.991438
0.99984 1.00105 0.993734
1.00021 1.00148 0.992465
1.00084 1.00139 0.991699
1.00129 1.00058 0.991459
1.00001 1.00061 0.993853
1.00007 1.0001 0.994247
1.00019 1.00149 0.992644
0.999583 1.00041 0.994801
0.999603 0.997328 0.999196
0.99981 0.998346 0.996458
0.999401 1.00025 0.995322
1.00045 1.00069 0.99289
0.999609 0.998894 0.996285
0.999827 1.00116 0.993658
0.999996 1.00101 0.993468
1.00026 1.00134 0.992565
0.999717 0.998622 0.996375
0.999866 0.998154 0.996553
1.00006 1.00032 0.994051
1.00074 1.0005 0.992506
1.00017 1.00089 0.993257
1.00098 1.00073 0.991831
0.999902 1.00085 0.993834
1.00044 1.00105 0.992592
1.00012 1.00168 0.992627
1.00036 1.00159 0.992194
0.999905 0.997978 0.996663
1.00001 1.00052 0.993949
1.00009 1.00009 0.994211
1.00019 1.00135 0.992803
1.00131 1.00045 0.991442
1.00065 1.00094 0.992298
1.00127 1.00072 0.991287
1.00011 1.00159 0.992735
1.0006 1.00117 0.992184
1.00017 1.00214 0.992068
1.00046 1.00164 0.991897
1.00012 0.999274 0.994979
0.999963 0.997631 0.996895
0.999815 0.996658 0.99928
0.999776 0.996802 0.99926
0.999735 0.996957 0.999241
0.999839 0.998143 0.996609
0.999662 0.997167 0.999218
0.99979 0.998412 0.996438
0.999595 0.997367 0.99918
0.999687 1.0003 0.994687
0.999869 1.00008 0.994534
1.00116 1.00021 0.991961
1.00148 0.999962 0.991567
1.00009 0.9999 0.994267
0.999095 0.999977 0.998643
1.00011 0.999879 0.99425
1.00162 0.999886 0.991348
1.00132 1.00007 0.991778
1.00214 0.99988 0.990393
1.00098 1.00035 0.992189
1.0018 1.00004 0.990912
1.00164 0.999863 0.991346
1.00227 0.999848 0.990142
1.00198 0.999917 0.990664
1.00243 0.999667 0.99006
1.00158 1.00022 0.991159
1.00212 0.999772 0.990536
1.00003 0.999948 0.994359
0.999887 1.00004 0.995028
1.00138 0.999951 0.991597
1.00122 1.0002 0.992228
0.999491 0.997589 0.999151
0.999536 0.999237 0.996688
0.999916 1.00112 0.993886
1.00074 1.00053 0.99265
1.00163 1.00017 0.990995
1.00107 1.00061 0.991966
1.00046 1.00128 0.992184
1.00109 1.00078 0.991579
0.999714 0.99869 0.996322
1.00006 1.00036 0.993993
1.00152 0.999894 0.991456
1.0013 1.00002 0.992061
1.00205 0.999882 0.990686
1.00186 1 0.99086
0.99963 0.998923 0.99624
0.999864 1.00101 0.993737
1.00021 1.00148 0.992529
1.0013 1.00042 0.991647
1.00198 0.999921 0.990706
1.0008 1.00139 0.991627
1.00136 1.00038 0.991439
1.00127 1.00056 0.991447
1.00002 1.00059 0.993859
1.00021 1.00146 0.992618
1.00007 1.00011 0.994245
1.00217 0.999887 0.990513
1.00199 0.999895 0.990767
1.00236 0.999802 0.990134
1.00222 0.999744 0.990376
1.00157 1.00012 0.991191
1.00217 0.999536 0.990772
0.999915 1.00084 0.993803
1.00152 1.0001 0.991393
1.00014 1.00148 0.992754
1.00038 1.00178 0.991853
1.00098 1.00144 0.991256
1.00139 1.00034 0.991634
1.00007 0.999784 0.994563
1.00019 1.00144 0.992708
1.00017 1.00146 0.992601
1.00022 1.002 0.992189
1.00074 1.0005 0.992511
0.99987 0.998131 0.99656
0.999723 0.998591 0.996378
1.00005 1.00033 0.994049
1.00016 1.00088 0.993261
1.00098 1.00073 0.991833
0.999879 1.00089 0.993833
1.00011 1.00168 0.992621
1.00044 1.00105 0.992631
1.00035 1.00159 0.992153
0.999906 0.99796 0.99667
0.999998 1.00054 0.993946
1.00009 1.00009 0.994211
1.00018 1.00137 0.992797
1.00132 1.00045 0.991437
1.00064 1.00094 0.992307
1.00126 1.00073 0.991289
1.0001 1.00161 0.992737
1.0006 1.00118 0.992227
1.00018 1.00215 0.992052
1.00043 1.0016 0.992
0.999936 0.997796 0.996788
1.0001 0.999872 0.994409
1.00017 1.0014 0.992794
1.00019 1.00127 0.992875
1.00019 1.00192 0.992207
1.00161 1.00035 0.99094
1.00085 1.00103 0.991821
1.00136 1.00078 0.991066
1.00014 1.00216 0.992134
1.00067 1.00132 0.991892
1.00026 1.0024 0.991427
1.00011 0.999448 0.994817
1.00014 1.00052 0.993729
1.00012 0.999153 0.9951
1.00012 0.999277 0.994982
0.999983 0.997463 0.997445
0.999958 0.997614 0.997136
0.999876 0.99653 0.998389
0.999819 0.996641 0.999289
0.999782 0.996789 0.999269
0.99987 0.997923 0.996775
0.999706 0.996972 0.999256
0.999837 0.998168 0.996597
0.999656 0.997182 0.999208
0.999783 0.998444 0.996431
0.999581 0.997381 0.999174
1.00098 1.00036 0.992196
1.00132 1.00007 0.991783
1.0018 1.00004 0.990913
1.00215 0.999885 0.990392
1.00163 0.999885 0.991351
1.00011 0.999886 0.994246
1.00164 0.999861 0.991343
1.00228 0.999851 0.990143
1.00198 0.999923 0.990667
1.00244 0.999656 0.990042
1.00158 1.00023 0.991155
1.00212 0.999782 0.990537
1.00228 0.999852 0.990128
1.00251 0.999696 0.989814
1.00231 0.999647 0.990275
1.00262 0.999363 0.990034
1.00189 1.00002 0.990749
1.0023 0.999236 0.990745
1.00151 0.999898 0.991389
1.00131 1.00001 0.992063
1.00204 0.999865 0.990646
1.00188 1.00004 0.990963
0.999627 0.998955 0.996239
0.999887 1.00098 0.993741
1.00021 1.00148 0.992593
1.00133 1.00044 0.991645
1.00196 0.999869 0.990687
1.00136 1.00038 0.991441
1.00076 1.00139 0.991555
1.00125 1.00055 0.991435
1.00003 1.00056 0.993865
1.00022 1.00144 0.992592
1.00006 1.00011 0.994243
1.00216 0.999886 0.990424
1.00199 0.999875 0.990768
1.00236 0.999785 0.99008
1.00224 0.999752 0.990394
0.999936 1.0008 0.993808
1.00016 1.00147 0.992749
1.00037 1.0018 0.991925
1.00159 1.00016 0.991217
1.00215 0.999449 0.990819
1.00094 1.00149 0.991186
1.00152 1.0001 0.991396
1.00136 1.00026 0.99167
1.0002 1.00141 0.992717
1.00023 1.00198 0.992139
1.00006 0.999796 0.994558
1.00018 1.00144 0.992633
1.00242 0.999839 0.989903
1.00239 0.999706 0.990185
1.00252 0.999726 0.989825
1.00241 0.999382 0.990333
1.00175 0.999736 0.991247
1.00235 0.998958 0.991015
1.00015 1.00144 0.992784
1.00158 0.999611 0.991752
1.0002 1.0018 0.992205
1.00051 1.00219 0.991326
1.00106 1.00152 0.990935
1.00149 1.00013 0.991672
1.00007 0.999544 0.9948
1.00016 1.00119 0.992885
1.00024 1.00177 0.992293
1.00016 1.00226 0.991968
1.00028 1.00208 0.991992
0.999907 0.997943 0.996677
1.00133 1.00046 0.991433
1.00009 1.00009 0.994212
0.999984 1.00057 0.993943
1.00017 1.00138 0.99279
1.00063 1.00095 0.992315
1.00126 1.00073 0.991292
1.00008 1.00162 0.992739
1.00019 1.00216 0.992036
1.00061 1.00118 0.99227
1.00041 1.00157 0.992103
0.999935 0.997782 0.996795
1.0001 0.999865 0.994411
1.00016 1.00142 0.992791
1.00019 1.00128 0.992869
1.00019 1.00192 0.992199
1.00163 1.00034 0.990933
1.00084 1.00103 0.991823
1.00135 1.00078 0.991043
1.00012 1.00216 0.992142
1.00068 1.00132 0.991924
1.00031 1.00237 0.991482
1.0001 0.999658 0.99462
1.0002 1.00111 0.993014
1.0002 1.00191 0.992213
1.00019 1.00195 0.992216
1.00021 1.00218 0.991969
1.00174 1.00021 0.990801
1.00093 1.00113 0.991549
1.00126 1.00076 0.991127
1.00015 1.00267 0.99157
1.00062 1.00224 0.991087
1.00011 0.999443 0.994822
1.00017 1.00074 0.993326
1.00014 1.00054 0.993645
1.00012 1.00148 0.99294
1.00011 1.00044 0.993853
1.00012 0.99907 0.995185
1.00012 0.999162 0.9951
1.00001 0.997327 0.997515
1.00011 0.999281 0.994985
0.999985 0.99746 0.997456
0.999919 0.996381 0.998446
0.999955 0.997601 0.997375
0.999865 0.996499 0.998854
0.999823 0.996626 0.999298
0.999902 0.997727 0.996911
0.999872 0.997938 0.996764
0.999752 0.996775 0.999292
0.999703 0.996992 0.999244
0.999834 0.998194 0.996586
0.999648 0.997199 0.999198
1.00159 1.00023 0.991151
1.00198 0.999924 0.990671
1.00212 0.999789 0.990537
1.00245 0.999643 0.990024
1.00228 0.999854 0.990145
1.00164 0.999858 0.991339
1.00228 0.999852 0.99013
1.00253 0.999713 0.989783
1.00232 0.999656 0.990278
1.00263 0.999348 0.990032
1.00189 1.00003 0.990739
1.00231 0.999196 0.990763
1.00252 0.99979 0.989736
1.00259 0.999629 0.989742
1.00251 0.999085 0.990351
1.00275 0.999267 0.990002
1.00206 0.999591 0.990787
1.00252 0.998636 0.991031
1.00216 0.999882 0.990336
1.002 0.99986 0.990769
1.00236 0.99977 0.990026
1.00226 0.999758 0.990411
0.999955 1.00077 0.993813
1.00018 1.00146 0.992745
1.00035 1.00182 0.991996
1.00162 1.00021 0.991242
1.00213 0.999362 0.990865
1.00152 1.0001 0.9914
1.0009 1.00154 0.991115
1.00133 1.00018 0.991706
1.00021 1.00139 0.992725
1.00023 1.00197 0.992088
1.00006 0.999807 0.994553
1.00019 1.00141 0.992665
1.00242 0.999837 0.989909
1.00238 0.999703 0.9902
1.0025 0.999741 0.989819
1.00242 0.999388 0.990344
1.00016 1.00142 0.992786
1.0002 1.00179 0.992261
1.0005 1.00222 0.99132
1.00178 0.999798 0.991212
1.00224 0.9989 0.991178
1.00105 1.00158 0.990899
1.00157 0.999626 0.991761
1.00144 0.99994 0.991789
1.00025 1.00176 0.992294
1.00028 1.00205 0.991982
1.00015 1.00229 0.991951
1.00007 0.999546 0.994705
1.00017 1.00115 0.992932
1.00257 0.99981 0.989677
1.00264 0.999549 0.989747
1.00256 0.998871 0.990566
1.00199 0.998971 0.991529
1.00021 1.00171 0.992397
1.00179 0.999002 0.992125
1.00017 1.00217 0.991789
1.00065 1.00265 0.990618
1.00125 1.00146 0.990667
1.00009 0.999341 0.994806
1.00016 1.00086 0.993401
1.00011 1.00211 0.992192
1.00027 1.00184 0.992156
1.00019 1.0027 0.991516
1.00032 1.00208 0.991819
0.999934 0.997768 0.996802
1.00011 0.999858 0.994412
1.00165 1.00034 0.990926
1.00018 1.00129 0.992863
1.00015 1.00143 0.992788
1.00019 1.00191 0.99219
1.00084 1.00103 0.991826
1.00135 1.00079 0.991021
1.00011 1.00216 0.992151
1.00035 1.00233 0.991536
1.00068 1.00131 0.991956
1.00011 0.99965 0.994623
1.00019 1.00113 0.993009
1.0002 1.0019 0.992252
1.00019 1.00196 0.992208
1.0002 1.00219 0.991938
1.00175 1.00025 0.990784
1.00094 1.00112 0.991531
1.0013 1.00074 0.991135
1.00013 1.00267 0.991528
1.00062 1.00233 0.990996
1.00019 1.00094 0.993208
1.00019 1.00192 0.992161
1.00022 1.00232 0.991823
1.00021 1.00226 0.991801
1.00027 1.00227 0.991719
1.00199 0.999088 0.991392
1.00099 1.00174 0.990901
1.00134 1.00054 0.990868
1.00034 1.00298 0.991079
1.0006 1.00278 0.990155
1.00011 0.999437 0.994827
1.00017 1.00075 0.993373
1.00015 1.00169 0.99247
1.00015 1.00055 0.993562
1.00011 1.00044 0.993854
1.00012 1.00149 0.992827
1.00012 1.00216 0.992225
1.00011 1.00139 0.99284
1.00008 1.00039 0.993953
1.00012 0.999024 0.995231
1.00012 0.999075 0.995186
1.00004 0.997206 0.997569
1.00011 0.99917 0.995101
1.00001 0.997326 0.997524
0.999956 0.996253 0.99849
0.999987 0.997456 0.997467
0.999914 0.996354 0.998443
0.999851 0.996464 0.999322
0.999938 0.997558 0.997009
0.999906 0.997735 0.996904
0.999801 0.996591 0.999321
0.999874 0.997953 0.996754
0.999748 0.996798 0.999281
0.999699 0.997012 0.999233
1.0019 1.00004 0.990729
1.00232 0.999667 0.99028
1.00232 0.999151 0.99078
1.00263 0.999331 0.99003
1.00254 0.99973 0.989753
1.00229 0.999852 0.990131
1.00252 0.999799 0.989725
1.00259 0.999633 0.989749
1.00255 0.999109 0.990294
1.0027 0.99926 0.989971
1.00205 0.999644 0.99078
1.00246 0.998474 0.9912
1.00257 0.999762 0.989668
1.00259 0.999607 0.989804
1.00269 0.998736 0.990453
1.00233 0.998413 0.991498
1.00241 0.999834 0.989916
1.00237 0.9997 0.990214
1.00248 0.999755 0.989813
1.00243 0.999394 0.990355
1.00018 1.0014 0.992788
1.0002 1.00178 0.992317
1.00049 1.00226 0.991314
1.0018 0.999861 0.991177
1.00214 0.998845 0.991341
1.00156 0.99964 0.991769
1.00104 1.00164 0.990863
1.00139 0.999765 0.991905
1.00025 1.00176 0.992295
1.00028 1.00202 0.991972
1.00015 1.00233 0.991934
1.00007 0.999549 0.99461
1.00019 1.0011 0.992979
1.00254 0.99979 0.989689
1.00262 0.999562 0.98979
1.00253 0.998922 0.990621
1.00023 1.00171 0.99239
1.00021 1.00217 0.99187
1.00061 1.00271 0.9906
1.00202 0.999022 0.99147
1.00122 1.00131 0.990837
1.00172 0.999016 0.992092
1.00008 0.999321 0.994828
1.00028 1.00186 0.992146
1.00031 1.00202 0.991879
1.00019 1.00269 0.991513
1.00012 1.00212 0.992225
1.00016 1.00085 0.993315
1.00262 0.999753 0.989636
1.0028 0.999297 0.989693
1.00253 0.998403 0.990985
1.0023 0.997964 0.992043
1.00024 1.00193 0.992135
1.00164 1.00004 0.991248
1.00027 1.00283 0.991026
1.00077 1.00311 0.990034
1.00009 0.99918 0.994965
1.00015 1.00056 0.993727
1.00013 1.00184 0.992535
1.00013 1.0029 0.991381
1.00028 1.00206 0.991904
1.00027 1.00257 0.991417
1.00011 0.99964 0.994626
1.00019 1.00114 0.993003
1.00175 1.00029 0.990767
1.00018 1.00198 0.9922
1.00019 1.00189 0.992291
1.00019 1.00221 0.991907
1.00096 1.0011 0.991514
1.00135 1.00073 0.991142
1.00012 1.00267 0.991486
1.00063 1.00244 0.990904
1.00018 1.00094 0.993207
1.00019 1.00194 0.992186
1.00021 1.0023 0.991879
1.0002 1.00227 0.99184
1.00024 1.00228 0.991767
1.00204 0.999127 0.991435
1.00102 1.00167 0.990938
1.00134 1.00059 0.991049
1.00031 1.00299 0.991023
1.00066 1.00295 0.990081
1.00017 1.00184 0.992284
1.0002 1.00247 0.991596
1.00027 1.00266 0.99139
1.00024 1.00246 0.991471
1.00301 0.997334 0.991448
1.00204 0.998953 0.991308
1.0011 1.00231 0.990033
1.00031 1.00387 0.989865
1.00016 1.00076 0.99342
1.00014 1.00171 0.992518
1.00013 1.00233 0.991965
1.00011 1.00044 0.993855
1.00013 1.00149 0.992714
1.00009 1.00039 0.993954
1.00012 1.00217 0.99214
1.0001 1.00139 0.992883
1.00016 1.00262 0.991668
1.00011 1.00207 0.992156
1.00009 1.00132 0.992954
1.00007 1.00035 0.994026
1.00012 0.999015 0.995244
1.00012 0.99902 0.995234
1.00006 0.997133 0.99759
1.00012 0.999079 0.995187
1.00004 0.997212 0.997575
0.999992 0.996138 0.998523
1.00001 0.997325 0.997533
0.999953 0.996223 0.998487
0.999908 0.996327 0.998439
0.999974 0.997407 0.997089
0.999943 0.997564 0.997005
0.999852 0.996428 0.999342
0.999911 0.997744 0.996897
0.999796 0.996613 0.999313
0.999744 0.996821 0.999271
1.00205 0.999696 0.990773
1.00259 0.999135 0.990238
1.0024 0.998319 0.991369
1.00266 0.999256 0.98994
1.00259 0.999638 0.989756
1.00252 0.999807 0.989715
1.00256 0.999767 0.989685
1.00258 0.999595 0.989815
1.00268 0.99873 0.99048
1.00235 0.998365 0.991477
1.00252 0.999784 0.989744
1.00264 0.99928 0.990098
1.00275 0.998049 0.990947
1.00252 0.99977 0.989702
1.00261 0.999578 0.989833
1.0025 0.998969 0.990675
1.00024 1.00171 0.992383
1.00026 1.00216 0.99195
1.00058 1.00278 0.990582
1.00205 0.999069 0.991411
1.00166 0.999033 0.992059
1.00119 1.00117 0.991007
1.00028 1.00187 0.992137
1.0003 1.00196 0.991939
1.0002 1.00269 0.991511
1.00008 0.999301 0.994851
1.00013 1.00212 0.992257
1.00017 1.00084 0.99323
1.0026 0.999747 0.989655
1.00281 0.99927 0.989678
1.00256 0.998485 0.990899
1.00025 1.00193 0.992121
1.00025 1.00279 0.991138
1.00077 1.00305 0.99009
1.00225 0.998026 0.992102
1.00165 0.999979 0.991236
1.00009 0.999168 0.995058
1.00014 1.00056 0.993732
1.00026 1.00206 0.991904
1.00027 1.00256 0.991432
1.00012 1.00287 0.991436
1.00013 1.00186 0.992466
1.00262 0.999578 0.989774
1.00291 0.998877 0.989903
1.00271 0.997155 0.991895
1.00235 0.997977 0.992158
1.00019 1.00243 0.991653
1.00104 1.00287 0.989747
1.00043 1.00348 0.990409
1.00011 0.999032 0.995253
1.0001 1.00011 0.994198
1.00012 1.00037 0.993785
1.00012 1.00162 0.992708
1.0001 1.00259 0.991707
1.00014 1.00335 0.990923
1.00025 1.00216 0.991715
1.00022 1.00336 0.991136
1.00018 1.00095 0.993206
1.00019 1.00196 0.99221
1.0021 0.999166 0.991477
1.0002 1.00229 0.99188
1.0002 1.00227 0.991934
1.0002 1.00229 0.991814
1.00105 1.00159 0.990975
1.00134 1.00062 0.991231
1.00027 1.00301 0.990967
1.00071 1.00309 0.990006
1.00017 1.00187 0.992257
1.00021 1.00244 0.991655
1.00025 1.00264 0.991451
1.00027 1.00247 0.99151
1.00299 0.997245 0.991489
1.00198 0.999217 0.991271
1.00113 1.00228 0.990125
1.00038 1.0038 0.98982
1.00014 1.0025 0.991784
1.00301 0.997747 0.990753
1.00023 1.00287 0.991293
1.00025 1.00317 0.990897
1.00316 0.996821 0.991433
1.00169 1.00129 0.989814
1.00066 1.00422 0.989299
1.00013 1.00173 0.992566
1.00012 1.00234 0.991969
1.00013 1.00278 0.991511
1.00009 1.00039 0.993954
1.0001 1.0014 0.992926
1.00013 1.00217 0.992054
1.00008 1.00034 0.994028
1.00009 1.00133 0.992944
1.00017 1.00261 0.9916
1.00011 1.00208 0.992245
1.00026 1.00283 0.991254
1.00019 1.00254 0.991579
1.00011 1.00196 0.992374
1.00006 1.00128 0.993125
1.00008 1.00032 0.994056
1.00011 0.999037 0.995233
1.00012 0.999016 0.995244
1.00008 0.997112 0.997578
1.00012 0.999017 0.995236
1.00006 0.997148 0.997589
1.00002 0.99607 0.998527
1.00004 0.997218 0.99758
0.99999 0.996108 0.998522
0.99995 0.996194 0.998483
1.00012 0.998901 0.995358
1.00001 0.997257 0.997168
0.999978 0.997415 0.997086
0.999899 0.996279 0.999362
0.999947 0.997571 0.997
0.999846 0.996447 0.999336
0.999792 0.996634 0.999305
1.00236 0.998314 0.991457
1.00266 0.998723 0.990507
1.00257 0.999581 0.989827
1.00255 0.999773 0.989702
1.00251 0.999793 0.989774
1.00264 0.99932 0.990027
1.00271 0.998011 0.991089
1.00246 0.999671 0.990012
1.00277 0.998854 0.990216
1.0027 0.998208 0.99083
1.00258 0.999741 0.989674
1.00283 0.999248 0.989663
1.00259 0.998567 0.990812
1.00027 1.00194 0.992107
1.00024 1.00273 0.99125
1.00076 1.00296 0.990147
1.00218 0.998083 0.992162
1.00165 0.999916 0.991223
1.00024 1.00206 0.991905
1.00028 1.00255 0.991446
1.00012 1.00284 0.991492
1.00009 0.999153 0.995151
1.00014 1.00056 0.993737
1.00014 1.00189 0.992396
1.00261 0.999554 0.989802
1.00011 0.999028 0.995251
1.0001 1.00011 0.99414
1.00294 0.998845 0.989908
1.00266 0.997377 0.991731
1.00017 1.00238 0.991714
1.00042 1.00358 0.990265
1.00105 1.0026 0.989796
1.00227 0.997966 0.992129
1.00012 1.00037 0.993938
1.00012 1.00162 0.992706
1.00029 1.00221 0.991716
1.00019 1.00303 0.991256
1.00011 1.00343 0.99083
1.00012 1.00257 0.991715
1.00265 0.99918 0.99008
1.00297 0.99811 0.990636
1.00295 0.995837 0.99287
1.00169 1.00056 0.990656
1.00021 1.00284 0.991298
1.00058 1.00434 0.989325
1.00009 1.00002 0.994188
1.0001 1.00023 0.99407
1.00006 1.00111 0.993448
1.0001 1.00142 0.992833
1.00013 1.00235 0.992011
1.00008 1.00317 0.991115
1.00004 1.00411 0.990438
1.00005 1.00313 0.991276
1.00017 1.0019 0.99223
1.00021 1.00242 0.991715
1.00296 0.997157 0.991529
1.00193 0.999483 0.991235
1.0003 1.00249 0.991548
1.00023 1.00261 0.991512
1.00118 1.00229 0.990217
1.00045 1.0037 0.989776
1.00014 1.00249 0.991784
1.003 0.997617 0.990851
1.00022 1.00282 0.991296
1.00027 1.00314 0.990774
1.00309 0.996897 0.991406
1.00177 1.00123 0.989824
1.00061 1.00427 0.989286
1.00013 1.00299 0.991348
1.00389 0.996176 0.990601
1.00034 1.00303 0.991013
1.0004 1.0041 0.989921
1.0028 0.998858 0.989672
1.00091 1.00355 0.989047
1.00367 0.998457 0.989653
1.00011 1.00235 0.991974
1.00012 1.00279 0.991515
1.00024 1.00295 0.9912
1.00008 1.00033 0.99403
1.00008 1.00134 0.992934
1.0001 1.00209 0.992335
1.00017 1.00261 0.991532
1.00008 1.00031 0.994056
1.00006 1.0013 0.993064
1.00026 1.00281 0.991231
1.00011 1.00196 0.992374
1.00017 1.00254 0.99166
1.00035 1.0028 0.991042
1.00017 1.00244 0.991852
1.00011 1.00195 0.992445
1.00006 1.00127 0.993011
1.00008 1.00033 0.993907
1.00006 1.00135 0.99318
1.00008 1.00038 0.993854
1.00011 0.999063 0.995214
1.00011 0.99904 0.995232
1.00009 0.997132 0.997136
1.00012 0.999017 0.995244
1.00008 0.997132 0.997361
1.00001 0.996012 0.999371
1.00006 0.997163 0.997589
1.00002 0.996038 0.998529
0.999988 0.996078 0.998519
1.00013 0.998796 0.99544
1.00012 0.998895 0.995357
1.00004 0.997125 0.997241
1.00001 0.997265 0.997376
0.99994 0.996146 0.99938
0.999982 0.997422 0.997083
0.999893 0.996298 0.999356
0.99984 0.996466 0.99933
1.00267 0.997972 0.991231
1.00264 0.999359 0.989955
1.0025 0.999802 0.989805
1.00246 0.999669 0.990007
1.00269 0.99885 0.990318
1.00265 0.998509 0.990742
1.00252 0.999105 0.990467
1.0043 0.996723 0.990834
1.00287 0.9974 0.99129
1.00009 0.999958 0.994377
1.0026 0.999529 0.989831
1.00296 0.998809 0.989914
1.00262 0.997556 0.991568
1.00016 1.00233 0.991775
1.00041 1.00365 0.990121
1.00107 1.00234 0.989845
1.00221 0.997984 0.9921
1.00033 1.00224 0.991716
1.00018 1.00273 0.991377
1.00009 1.00352 0.990737
1.00011 0.999028 0.995248
1.00014 1.00255 0.991724
1.00011 1.00038 0.994092
1.00011 1.00162 0.992704
1.00009 1.00011 0.994083
1.00269 0.999137 0.99006
1.00009 1.00002 0.994252
1.0001 1.00024 0.994068
1.00006 1.0011 0.993326
1.003 0.997982 0.990658
1.00288 0.996113 0.992637
1.00024 1.00269 0.99134
1.00047 1.00437 0.989261
1.00166 1.00048 0.990696
1.00009 1.0014 0.992917
1.00013 1.00236 0.99197
1.00006 1.00313 0.991217
1.00003 1.00403 0.990512
1.00009 1.00315 0.991173
1.00285 0.998559 0.990148
1.00324 0.996438 0.991799
1.00267 0.997944 0.991423
1.00091 1.00351 0.989476
1.00004 1.00377 0.990628
1.00004 1.00099 0.99332
1.00008 1.00125 0.993045
1.00006 1.00185 0.99266
1.0001 1.00222 0.99216
1.00012 1.00283 0.991472
1 1.00379 0.99077
0.999887 1.00452 0.990225
1.00013 1.00248 0.991783
1.0002 1.00278 0.991299
1.00301 0.997467 0.990949
1.00301 0.996967 0.991379
1.00185 1.00117 0.989834
1.00029 1.00311 0.990651
1.00055 1.00433 0.989272
1.00012 1.00296 0.991387
1.00383 0.996056 0.990639
1.0003 1.00297 0.991036
1.00026 1.00418 0.989904
1.00297 0.99861 0.989777
1.00091 1.00365 0.989042
1.00363 0.998334 0.989891
1.0002 1.00309 0.991105
1.00408 0.996316 0.989651
1.00024 1.0035 0.99069
1.00006 1.00482 0.989579
1.00137 1.00197 0.989285
0.996984 1.00183 0.971301
0.998915 1.00126 0.986865
1.00294 0.999145 0.990951
0.994587 0.998564 0.981724
0.996637 0.996499 0.984119
1.00011 1.00279 0.991519
1.00022 1.00295 0.991204
1.0004 1.00288 0.990884
1.00008 1.00031 0.994056
1.00007 1.00131 0.993002
1.0001 1.00197 0.992374
1.00016 1.00254 0.991742
1.00026 1.00279 0.991207
1.00012 1.00196 0.992351
1.00008 1.00033 0.993967
1.00006 1.00127 0.993084
1.00032 1.0028 0.991095
1.00017 1.00242 0.991815
1.00016 1.00239 0.991917
1.00024 1.00292 0.991189
1.00012 1.00199 0.992204
1.00006 1.00127 0.993023
1.00007 1.00036 0.993877
1.00007 1.00129 0.993124
1.0001 1.00202 0.992414
1.00007 1.00145 0.992932
1.00007 1.00135 0.993063
1.00008 1.0004 0.993948
1.00008 1.00038 0.993857
1.00011 0.999093 0.99518
1.00011 0.999062 0.995214
1.00009 0.997165 0.997125
1.00011 0.999044 0.995232
1.00009 0.997135 0.997135
1.00002 0.995999 0.99937
1.00009 0.997152 0.997144
1.00003 0.996009 0.998943
1.00002 0.996007 0.99853
1.00014 0.998733 0.995488
1.00013 0.998791 0.995439
1.00007 0.997022 0.9973
1.00012 0.99889 0.995356
1.00004 0.997121 0.997448
0.999974 0.996032 0.999397
1.00001 0.997283 0.997152
0.999934 0.996184 0.999372
0.999887 0.996318 0.99935
1.0026 0.998848 0.99042
1.00247 0.999667 0.990002
1.00258 0.998822 0.990653
1.00418 0.996527 0.990878
1.00252 0.999108 0.990416
1.00277 0.997592 0.991061
1.00292 0.998552 0.98981
0.999588 0.999784 0.984369
1.00312 0.997785 0.992289
1.00009 0.999941 0.994402
1.00009 0.999959 0.994376
1.00004 1.00088 0.993561
1.00006 1.00082 0.993591
1.00272 0.999106 0.990041
1.00302 0.997914 0.99068
1.00281 0.996346 0.992403
1.00026 1.00259 0.991382
1.00035 1.0044 0.989197
1.00163 1.00035 0.990736
1.00007 1.00314 0.991158
1.00003 1.00393 0.990587
1.0001 1.00312 0.991232
1.0001 1.00025 0.994065
1.00014 1.00237 0.991928
1.00009 1.00138 0.993
1.0001 1.00002 0.994316
1.00006 1.00109 0.993205
1.00285 0.998601 0.990262
1.00004 1.001 0.993444
1.00007 1.00123 0.993119
1.00006 1.00177 0.992655
1.00321 0.996375 0.991858
1.00262 0.997774 0.991429
1.00007 1.00379 0.990613
1.00084 1.00349 0.989485
1.00009 1.00222 0.992203
1.00013 1.00278 0.991482
0.999892 1.0045 0.990232
1.00002 1.00389 0.990692
1.00347 0.996893 0.990327
1.00368 0.996052 0.991392
1.00169 1.00222 0.989171
1.00003 1.00456 0.989924
1.00004 1.00199 0.992404
1.00006 1.00206 0.992323
1.00009 1.00309 0.991249
0.99999 1.00466 0.989933
0.99666 1.00185 0.968507
1.00012 1.00292 0.991425
1.00026 1.00291 0.991058
1.0038 0.995911 0.990676
1.00317 0.998395 0.989882
1.00091 1.00374 0.989037
1.00013 1.0043 0.989886
1.00343 0.998186 0.990132
1.00019 1.0031 0.991126
1.00429 0.996282 0.989541
1.00018 1.0035 0.990698
1.00004 1.00482 0.98961
1.00137 1.00201 0.989308
0.996736 1.00116 0.971863
0.99879 1.00136 0.983239
1.00279 0.998986 0.991155
0.994599 0.999107 0.980648
0.996155 0.996786 0.984009
1.00017 1.0032 0.991025
0.995131 0.998439 0.978637
0.99868 0.995527 0.986463
1.00277 0.998641 0.990483
1.0001 1.00357 0.990602
0.999942 1.00492 0.990107
1.0027 0.999767 0.990531
0.996259 1.00193 0.971313
0.998546 1.0019 0.983418
0.994555 1.00163 0.979586
1.00278 0.996211 0.981971
1.0002 1.00295 0.991207
1.00038 1.00291 0.990896
1.00052 1.00298 0.990594
1.00008 1.00034 0.994028
1.00005 1.00128 0.993157
1.00013 1.00197 0.992258
1.00018 1.0024 0.991778
1.00029 1.00281 0.991148
1.00007 1.00035 0.993879
1.00016 1.00234 0.991895
1.00012 1.002 0.992311
1.00007 1.00125 0.993088
1.00026 1.00291 0.991082
1.00018 1.00262 0.991568
1.00012 1.0038 0.990594
1.00011 1.00199 0.99233
1.00008 1.00128 0.993126
1.00007 1.0013 0.993123
1.00011 1.00202 0.992313
1.00012 1.00194 0.992371
1.0001 1.00216 0.992179
1.00017 1.00244 0.991819
1.00007 1.00265 0.991733
1.00008 1.00163 0.992737
1.00007 1.00146 0.992931
1.0001 1.00046 0.993859
1.00007 1.00135 0.992946
1.00008 1.00041 0.993884
1.00011 0.999144 0.995127
1.00007 1.00039 0.993861
1.00011 0.999089 0.99518
1.00006 0.997201 0.997549
1.00011 0.999061 0.995214
1.00008 0.99716 0.997341
1.00005 0.996008 0.998502
1.00009 0.997138 0.997135
1.00002 0.995998 0.999369
1.00004 0.996007 0.998515
1.00009 0.999973 0.994363
1.00014 0.998718 0.995498
1.00014 0.998729 0.995487
1.00008 0.996961 0.997335
1.00014 0.998785 0.995438
1.00007 0.997016 0.997303
0.999999 0.995949 0.99941
1.00003 0.997135 0.997642
0.999981 0.99607 0.998973
0.999956 0.996209 0.998523
1.00388 0.996373 0.990923
1.00252 0.999116 0.990365
1.00266 0.997787 0.990832
0.99951 0.999398 0.986828
1.00305 0.997805 0.992432
1.00297 0.998437 0.989729
1.00342 0.99868 0.991198
0.99912 0.999976 0.986483
0.996367 1.00211 0.966894
0.99509 0.997868 0.978173
0.996067 0.996144 0.985233
1.00004 1.00083 0.993487
1.00009 0.999944 0.994401
1.0001 0.999963 0.994375
1.00004 1.00089 0.993515
1.00004 1.00158 0.992945
1.00006 1.00141 0.993056
1.00006 1.00094 0.993489
1.00006 1.00084 0.993541
1.00286 0.99863 0.990377
1.00319 0.996231 0.991919
1.00256 0.99772 0.991436
1.0001 1.00377 0.990598
1.00078 1.00352 0.989493
0.9999 1.00448 0.99024
1.00003 1.00398 0.990614
1.00014 1.00273 0.991492
1.00007 1.00121 0.993193
1.00008 1.00222 0.992246
1.00004 1.00101 0.993567
1.00006 1.0017 0.992651
1.00353 0.997183 0.990199
1.00004 1.00198 0.99245
1.00006 1.00208 0.992336
1.00351 0.996052 0.991385
1.00152 1.00189 0.989361
1.00009 1.00456 0.989803
1.00011 1.0031 0.991222
1.00001 1.0046 0.989958
1.00448 0.996269 0.989313
1.00263 1.0005 0.989408
1.00032 1.00435 0.989112
1.00006 1.00492 0.989557
1.00002 1.00249 0.991931
1.00009 1.00284 0.991507
1.0001 1.004 0.990436
0.996224 0.997668 0.978448
0.99712 1.0023 0.97091
1.00018 1.0031 0.991147
1.00013 1.0035 0.990706
1.00451 0.996299 0.98943
1.00142 1.00205 0.989331
1.00002 1.00484 0.989642
0.997028 1.00196 0.966083
0.998775 1.0009 0.987779
1.00276 0.998696 0.991343
0.994539 0.999327 0.978756
0.995642 0.99714 0.983901
1.00021 1.00312 0.991014
0.995754 0.997076 0.980369
0.998162 0.995807 0.986667
1.00277 0.99865 0.990431
1.00004 1.00388 0.990619
0.999848 1.00487 0.990138
1.00273 1.00017 0.990288
0.995743 1.00231 0.969199
0.998601 1.00287 0.98639
0.99435 1.0006 0.978235
1.00194 0.997162 0.982579
1.00054 1.00268 0.990713
0.99914 0.995741 0.988872
1.0098 0.99737 0.979083
1.00068 1.00222 0.990675
0.999801 1.0038 0.991684
1.00193 1.00108 0.994965
0.999317 0.998846 0.993504
0.995242 1.0031 0.969844
0.994753 0.998925 0.979827
1.01023 0.995029 0.977445
1.00037 1.00295 0.990907
1.0005 1.003 0.990547
1.00023 1.00351 0.990371
1.00008 1.00035 0.993882
1.00007 1.00124 0.993154
1.00011 1.00202 0.992417
1.00017 1.0023 0.991873
1.00027 1.00289 0.990976
1.00007 1.00128 0.993125
1.00017 1.00257 0.991637
1.00011 1.00198 0.992329
1.0001 1.00382 0.990521
1.00002 1.00441 0.990162
1.00011 1.00306 0.991322
1.00011 1.00198 0.992354
1.00007 1.0013 0.993122
1.00012 1.00202 0.992213
1.00011 1.00195 0.99237
1.00009 1.00217 0.992176
1.00018 1.00239 0.99179
1.00007 1.0024 0.991956
1.00019 1.00242 0.991784
1.00018 1.00263 0.99147
1.00015 1.00292 0.991331
0.999968 1.00286 0.991595
1.00005 1.00269 0.991682
1.00007 1.00264 0.991743
1.00009 1.00185 0.992509
1.00008 1.00164 0.992734
1.00012 1.00058 0.993702
1.00006 1.00147 0.99293
1.00009 1.00047 0.993856
1.00011 0.999218 0.995061
1.00008 1.00041 0.993821
1.00012 0.999136 0.995127
1.00004 0.99727 0.997525
1.00011 0.999086 0.995181
1.00007 0.997202 0.997327
1.00003 0.996022 0.998498
1.00009 0.997153 0.997124
1.00002 0.996009 0.999367
1.00002 0.995997 0.999369
1.00011 1.00005 0.994427
1.00014 0.998751 0.995461
1.00009 0.999973 0.994363
1.00009 0.996948 0.997343
1.00014 0.998718 0.995498
1.00014 0.998723 0.995486
1.00008 0.996963 0.997334
1.00001 0.995903 0.999417
1.00006 0.997018 0.997701
1.00001 0.99596 0.999002
0.999997 0.996076 0.998567
0.995906 0.996204 0.98182
0.998641 0.995253 0.986554
0.999633 0.998779 0.989095
1.00299 0.997934 0.992574
1.00302 0.998333 0.989648
0.999147 0.999971 0.991178
1.00352 0.998447 0.991075
0.997114 1.00131 0.971159
0.994388 0.998479 0.982085
0.995648 0.996049 0.985575
1.0005 0.998863 0.993463
0.995739 1.00217 0.972619
0.994265 1.0005 0.980959
0.999589 0.996705 0.983656
1.00002 1.00171 0.992721
1.00005 1.00083 0.993535
1.00009 0.999945 0.9944
1.00003 1.0009 0.99347
1.00002 1.00152 0.992993
1.00004 1.00168 0.992819
1.00005 1.00135 0.993075
1.00007 1.00122 0.993176
1.00006 1.00097 0.993417
1.00005 1.00085 0.993491
1.00356 0.997426 0.990073
1.00338 0.99602 0.991371
1.00132 1.00154 0.989551
1.00014 1.00457 0.989682
1.00002 1.00454 0.989983
1.00013 1.00311 0.991195
1.00006 1.00209 0.99235
1.00003 1.00196 0.992496
1.00456 0.996139 0.989097
1.00002 1.00252 0.991901
1.00011 1.00287 0.991416
1.00242 1.00039 0.989259
1.00032 1.0043 0.989301
1.00009 1.00491 0.989513
1.00013 1.00399 0.990351
1.00397 0.999247 0.987879
1.00034 1.0046 0.989434
1.00006 1.00455 0.989791
1.00004 1.00256 0.991869
1.00013 1.00296 0.99131
1.00025 1.00338 0.990681
1.00076 0.996274 0.984511
0.995823 0.998294 0.977244
0.996707 1.00199 0.968368
1.00026 1.00303 0.991003
0.999995 1.00415 0.990637
1.00274 0.998723 0.990379
0.99973 1.00484 0.990167
0.99629 0.997889 0.977185
0.995676 1.00184 0.974492
0.998542 1.0023 0.983462
1.00271 1.0005 0.990145
0.994213 1.00045 0.981058
0.99802 0.99598 0.986302
0.999582 0.998018 0.983639
1.00048 1.00294 0.990689
0.999657 0.995785 0.986742
1.00956 0.9974 0.979394
1.00076 1.00225 0.990721
0.999602 1.00365 0.991715
1.00279 1.00281 0.990014
0.999226 0.999934 0.987801
0.995621 1.00284 0.970724
0.99583 0.998649 0.98331
1.00773 0.995389 0.978946
1.00005 1.00272 0.991909
1.01293 0.996785 0.978528
1.02056 0.993774 0.970016
0.998646 1.00393 0.993118
0.999004 0.998305 0.999311
0.995572 0.999315 0.973427
0.997497 0.99853 0.9829
1.00937 0.992952 0.980662
1.00048 1.00302 0.9905
1.00031 1.00341 0.990507
1.00035 1.00318 0.990934
1.00008 1.00127 0.993125
1.00011 1.00198 0.992328
1.00015 1.00251 0.991706
1.00009 1.00386 0.990448
1.00011 1.00198 0.99235
1.00012 1.00301 0.991335
0.999995 1.00439 0.990142
0.999837 1.00457 0.990448
1.00013 1.00388 0.990418
1.00019 1.00256 0.991691
1.00011 1.00196 0.992369
1.00009 1.00218 0.992174
1.00021 1.00234 0.991762
1.00019 1.00241 0.991794
1.00007 1.00243 0.991958
1.0002 1.00259 0.991503
1.00017 1.00286 0.99132
1.00026 1.00272 0.991283
1.00016 1.00309 0.99112
1.00015 1.00292 0.991353
0.999964 1.00311 0.99136
1.00019 1.00286 0.991317
1.00011 1.00235 0.992037
0.999933 1.00273 0.99184
1.00006 1.00267 0.991733
1.00009 1.00204 0.992234
1.00008 1.00264 0.991752
1.00009 1.00185 0.992511
1.00013 1.00077 0.993479
1.00008 1.00164 0.992732
1.00011 1.00059 0.993698
1.0001 0.99932 0.994974
1.00009 1.00048 0.993853
1.00011 0.999211 0.995059
1.00001 0.997366 0.997491
1.00012 0.999128 0.995127
1.00005 0.997277 0.9973
0.999999 0.996102 0.99848
1.00008 0.997195 0.997109
1.00002 0.996033 0.998932
1.00001 0.996015 0.999367
1.00012 1.00022 0.994105
1.00014 0.998829 0.995394
1.0001 1.00005 0.994292
1.00008 0.996984 0.997316
1.00014 0.998754 0.995462
1.00009 0.999979 0.994363
1.00002 0.995893 0.999417
1.00009 0.996946 0.997343
1.00014 0.998715 0.995498
1.00008 0.996966 0.997333
1.00001 0.995907 0.999415
0.999997 0.995953 0.999408
1.00024 0.995802 0.9865
0.995612 0.997199 0.979727
1.01117 0.995054 0.979435
0.99848 0.995204 0.986309
0.999194 1.00065 0.985693
1.00365 0.998219 0.990929
0.996598 1.00021 0.975715
0.995024 0.999078 0.978534
0.995303 0.995981 0.985917
1.00057 0.999126 0.99098
0.995794 1.0018 0.970913
0.994166 1.00044 0.978986
1.00095 0.996277 0.983986
0.999847 0.999029 0.992461
0.995156 1.00127 0.971621
0.994483 0.998925 0.98291
1.00848 0.994176 0.98086
1.00005 1.00218 0.992281
1.00003 1.00169 0.992795
1.00006 1.00083 0.993582
1 1.00146 0.993042
1.00007 1.00196 0.992404
1.00005 1.00163 0.992872
1.00005 1.00131 0.993094
1.0001 1.00132 0.993082
1.00007 1.00121 0.993244
1.00006 1.00099 0.993346
1.00473 0.996082 0.988882
1.00216 1.00027 0.989116
1.00036 1.00432 0.98949
1.00013 1.00491 0.989469
1.00016 1.00399 0.990265
1.00012 1.00289 0.991325
1.00002 1.00255 0.991871
1.00005 1.00254 0.991889
1.0041 0.998937 0.98794
1.00011 1.00298 0.991359
1.00025 1.00347 0.990649
1.00033 1.00466 0.989316
1.00014 1.00458 0.989775
1.00249 1.00103 0.98884
0.999707 1.00466 0.990528
1.00031 1.00345 0.990431
1.00016 1.00275 0.991462
1.00033 1.00318 0.990689
1.01465 0.997171 0.976941
1.00063 0.996095 0.985622
0.995937 0.997365 0.980879
1.00042 1.00323 0.990665
0.999398 1.00355 0.991746
1.00086 1.00213 0.990757
1 0.996384 0.986148
0.99541 1.00223 0.969685
0.999118 0.9997 0.991243
1.0037 1.0046 0.984912
0.995028 0.999092 0.979567
1.00925 0.997438 0.979705
1.00762 0.995515 0.97892
1.00001 1.00249 0.992021
1.01348 0.997143 0.977279
1.02057 0.993668 0.970133
0.998885 1.00361 0.992581
0.999185 0.999197 0.995951
0.995488 1.0011 0.971839
1.01104 0.992222 0.979157
0.996485 0.997971 0.982014
0.999704 1.00197 0.993078
1.02449 0.992446 0.967519
1.02469 0.991445 0.96877
1.00815 0.995364 0.980232
0.996647 1.00188 0.997342
0.995385 0.998298 0.976424
0.996704 0.999261 0.981861
1.00041 1.00328 0.990642
1.00042 1.00332 0.990569
0.999868 1.00343 0.991815
1.00011 1.00198 0.992347
1.00012 1.00297 0.991348
0.999975 1.00433 0.990122
1.00019 1.00253 0.991717
1.00015 1.00383 0.990415
0.999922 1.00446 0.990211
0.999858 1.00429 0.990564
1.00032 1.00301 0.990891
1.0002 1.00239 0.991803
1.00006 1.00245 0.991961
1.00022 1.00255 0.991536
1.00027 1.0027 0.991284
1.00018 1.00282 0.991333
1.00003 1.00331 0.991141
1.00009 1.00302 0.9913
1.00005 1.00402 0.990438
1.00016 1.00294 0.991375
1.00004 1.00314 0.991345
1.00018 1.00331 0.990649
1.00016 1.00271 0.991483
1.0001 1.00228 0.99208
1.00014 1.00288 0.991338
1.00013 1.00198 0.992306
1.00011 1.00237 0.992014
0.999898 1.0026 0.992085
1.00008 1.00265 0.991785
1.00009 1.00202 0.992292
1.00014 1.00101 0.993228
1.00009 1.00185 0.992514
1.00013 1.00077 0.993476
1.00009 0.999459 0.994855
1.00011 1.0006 0.993694
1.0001 0.999318 0.994971
0.999974 0.997484 0.997439
1.00012 0.999204 0.995056
1.00002 0.997377 0.99726
0.99996 0.996204 0.998459
1.00006 0.99727 0.99708
0.99999 0.996108 0.998922
0.999997 0.996063 0.999363
1.00014 1.00039 0.993738
1.00012 0.998972 0.995104
1.00012 1.00023 0.994102
1.00007 0.997068 0.997256
1.00013 0.998841 0.995308
1.0001 1.00006 0.994156
1.00001 0.995923 0.999409
1.00008 0.996978 0.997318
1.00014 0.998757 0.995463
1.00002 0.995892 0.999418
1.00009 0.996945 0.997343
1.00001 0.995911 0.999414
1.01414 0.996001 0.977192
1.00042 0.995825 0.98501
0.995799 0.997196 0.978566
1.00016 1.00142 0.992792
1.02137 0.991856 0.971885
1.01101 0.995458 0.979723
0.998593 0.995211 0.985562
1.00055 0.99875 0.98857
0.99574 1.00224 0.973078
0.994301 1.00093 0.981735
1.00087 0.995662 0.984235
0.999586 0.999086 0.987312
0.994958 1.00169 0.973045
0.995628 0.998998 0.981637
1.00692 0.99464 0.981807
0.999384 0.998747 0.986237
0.994984 0.999747 0.969726
0.997999 0.998128 0.978728
1.01045 0.991556 0.981456
1.00015 1.00236 0.991825
1.00005 1.00221 0.992235
1.00003 1.00167 0.992868
1.00013 1.00197 0.99228
1.00008 1.00192 0.992488
1.00005 1.00158 0.992924
1.00011 1.00131 0.993109
1.00007 1.00119 0.993312
1.00417 0.998581 0.987997
1.00032 1.00471 0.989199
1.00005 1.00251 0.991908
1.00022 1.00463 0.98976
1.00025 1.00354 0.990618
1.00009 1.00301 0.991407
1.00016 1.00276 0.99147
1.00271 1.00116 0.988884
1.00031 1.00314 0.990761
1.00031 1.00359 0.990382
0.999692 1.00464 0.990408
1.00025 1.00263 0.991468
1.00126 1.00113 0.992103
0.999522 1.00399 0.991565
1.0004 1.00277 0.990916
1.0003 1.00299 0.991052
1.02322 0.994458 0.968416
1.01461 0.996794 0.97673
1.00045 0.996003 0.986736
0.999975 1.00223 0.992134
0.999137 1.00333 0.992044
1.01401 0.997467 0.976031
0.995511 0.999517 0.973379
0.999482 0.999537 0.989082
0.997481 0.998223 0.979611
1.02049 0.993494 0.970249
1.01288 0.991789 0.977653
0.999776 1.00228 0.99281
1.02452 0.992353 0.967379
1.02557 0.989822 0.967632
0.996743 1.00367 0.997751
1.00657 0.995801 0.981049
0.995126 0.998137 0.975967
0.997736 0.998813 0.978455
0.998762 1.00271 0.994901
1.02677 0.992196 0.965159
1.02174 0.993749 0.969059
0.999589 0.997704 0.982964
0.99803 0.998142 0.978559
0.99629 0.999752 1.00334
0.994869 0.99988 0.97188
1.00046 1.00351 0.990205
0.999968 1.00316 0.991612
0.999095 1.00479 0.9907
1.00019 1.00249 0.991743
1.00016 1.0038 0.990413
1.00001 1.00442 0.989973
1.0003 1.00302 0.990909
0.999875 1.00423 0.990497
0.999719 1.00414 0.99092
1.00027 1.00269 0.991286
1.00019 1.00279 0.991346
1.00011 1.00331 0.991087
0.999831 1.0045 0.990339
1.00002 1.00296 0.991479
0.999974 1.00391 0.990563
1.00011 1.00453 0.989817
1.00049 1.00302 0.990574
1.00011 1.00317 0.991331
1.00022 1.00343 0.990553
1.00022 1.00238 0.991876
0.999975 1.00243 0.99206
1.00017 1.00261 0.991575
1.00011 1.00192 0.992423
1.00011 1.00229 0.992064
1.00009 1.00289 0.991359
1.00016 1.00115 0.993072
1.00014 1.00196 0.99229
1.00011 1.0024 0.991991
1.00009 1.002 0.99235
1.00015 1.001 0.993229
1.00007 0.999668 0.994687
1.00013 1.00078 0.993473
1.00009 0.999467 0.994849
0.999946 0.997625 0.996926
1.0001 0.999317 0.994967
0.999986 0.997496 0.996983
0.999893 0.996322 0.999337
1.00003 0.997373 0.997038
0.999954 0.996206 0.998908
0.99997 0.996141 0.999355
1.00016 1.0005 0.99356
1.00012 0.999156 0.99492
1.00014 1.00039 0.993812
1.00005 0.997195 0.99717
1.00012 0.998996 0.995082
1.00012 1.00023 0.994099
0.999997 0.995988 0.999393
1.00007 0.99706 0.997259
1.00012 0.998856 0.995221
1.00001 0.995916 0.999412
1.00008 0.996972 0.99732
1.00002 0.99589 0.999418
1.02301 0.993482 0.969054
1.01421 0.995624 0.977254
1.0003 0.995796 0.985239
1.00016 1.00141 0.992819
1.0002 1.00148 0.992591
1.00016 1.00203 0.992272
1.02402 0.98933 0.972069
1.02149 0.991249 0.971996
1.01081 0.995833 0.980012
0.999356 0.99931 0.991424
0.995102 1.00203 0.971168
0.994528 0.998411 0.980669
1.00729 0.994351 0.981572
0.998973 0.998798 0.990669
0.994984 0.999618 0.97387
0.996318 0.998814 0.98262
1.01156 0.990344 0.980371
0.998486 0.997159 0.992369
0.994927 0.999805 0.974767
0.99755 0.999076 0.980952
1.00965 0.994088 0.978604
1.0002 1.00247 0.991671
1.00014 1.00241 0.991821
1.00005 1.00225 0.99219
1.00013 1.002 0.992274
1.00008 1.00188 0.992572
1.00012 1.0013 0.993136
1.00292 1.00129 0.988928
0.99969 1.00457 0.990288
1.00016 1.00278 0.991478
1.00032 1.0037 0.990332
1.00029 1.00315 0.990833
1.00024 1.00258 0.991478
1.00031 1.00295 0.991014
1.00135 1.00076 0.992045
1.00043 1.00272 0.991044
0.999415 1.00389 0.992141
1.00027 1.00268 0.991231
0.998807 1.00259 0.994793
0.999632 1.00091 0.994257
1.00029 1.00305 0.990827
1.02539 0.993624 0.965963
1.02335 0.994195 0.967906
1.01456 0.996321 0.976518
0.999837 1.00258 0.992542
0.996716 1.00078 0.998705
1.02457 0.992274 0.967239
0.995116 0.998589 0.985555
0.998345 0.998906 0.981387
1.02656 0.988211 0.966494
1.00691 0.995581 0.980984
0.998835 1.00235 0.994579
1.02636 0.992411 0.965255
1.02187 0.993478 0.969139
0.996265 1.00107 0.995576
1.0008 0.99732 0.983345
0.99643 0.998643 0.982316
0.994931 0.999955 0.975561
0.998203 1.00488 0.996434
1.0231 0.995156 0.967181
1.01117 0.996289 0.978031
0.996 0.997265 0.984698
0.994671 0.999161 0.982039
0.995211 0.999314 0.974852
0.997549 0.99815 0.993513
1.00006 1.00287 0.991411
0.999187 1.00481 0.990776
0.999123 1.00488 0.991116
1.00028 1.00301 0.990928
0.999887 1.00416 0.99043
0.999663 1.0042 0.990916
0.999629 1.005 0.990183
1.00018 1.00331 0.991033
0.99997 1.00452 0.990205
1.00011 1.00505 0.989276
0.999896 1.0038 0.990689
1.00013 1.00446 0.989821
1.00055 1.00436 0.989436
1.0007 1.00317 0.990117
1.00028 1.00234 0.991472
1.00047 1.00312 0.990476
1.00026 1.00355 0.990457
1.00019 1.00207 0.992213
1.00018 1.00225 0.99198
0.999988 1.00211 0.99238
0.999998 1.0024 0.992115
1.00017 1.00251 0.991668
1.00013 1.00122 0.993038
1.00012 1.00189 0.992428
1.00012 1.0023 0.992047
1.00006 0.99987 0.994507
1.00016 1.00112 0.99308
1.00015 1.00194 0.992274
1.00015 1.00099 0.99323
1.00006 0.999674 0.994682
0.999904 0.997792 0.99684
1.00008 0.999473 0.994843
0.999949 0.997632 0.996922
0.999858 0.996464 0.999324
0.999991 0.997497 0.996984
0.999908 0.996336 0.998885
0.999935 0.996241 0.999344
1.00019 1.00064 0.993497
1.00012 0.999308 0.994943
1.00016 1.00051 0.993618
1.00003 0.997347 0.997069
1.00012 0.99917 0.994993
1.00015 1.0004 0.993887
0.999973 0.996088 0.999372
1.00005 0.997183 0.997174
1.00012 0.999018 0.995059
0.999999 0.995979 0.999398
1.00007 0.997052 0.997262
1.00001 0.995909 0.999415
1.02641 0.991077 0.967075
1.02334 0.993063 0.968979
1.01433 0.995296 0.977312
1.00022 1.00162 0.992417
1.00023 1.00218 0.991968
1.00016 1.00141 0.992846
1.0002 1.0015 0.992569
1.00017 1.00203 0.992194
1.00019 1.00207 0.992086
1.00018 1.00241 0.991786
1.01976 0.993901 0.971161
1.02501 0.987394 0.9709
1.02162 0.990638 0.972107
1.01289 0.989334 0.979286
0.998491 0.999005 0.986388
0.995015 0.998973 0.977942
0.995711 0.999806 0.97934
0.998045 0.997145 0.990116
0.994943 0.999097 0.972396
0.998142 0.998498 0.978157
1.00815 0.99494 0.979168
0.996388 0.99784 0.994504
0.994817 1.00017 0.971115
0.997916 0.99926 0.981503
1.00214 0.996269 0.982614
1.00028 1.00249 0.991514
1.0002 1.00247 0.991661
1.00012 1.00244 0.991817
1.00013 1.00202 0.992268
1.00145 1.00098 0.991986
0.999215 1.00389 0.992719
1.00024 1.00253 0.991488
1.0003 1.00292 0.990977
1.00046 1.00267 0.991173
1.00027 1.00271 0.99124
1.00032 1.00304 0.99076
0.998569 1.00289 0.995412
0.999609 1.00081 0.994581
1.00026 1.00325 0.990846
0.997203 1.00193 0.999107
1.00001 1.00369 0.991321
1.02303 0.996138 0.967156
1.02489 0.99412 0.965837
1.02348 0.994015 0.967395
0.998973 1.00195 0.994278
0.9963 0.999941 1.00282
1.02591 0.992608 0.96535
0.994862 0.999819 0.971936
0.995922 0.999405 0.979135
1.02201 0.993131 0.96922
1.00061 0.996484 0.983737
0.998198 1.00512 0.996254
1.02343 0.994841 0.967031
1.011 0.996776 0.978357
0.997499 0.998053 1.00014
0.995607 0.996769 0.985125
0.995783 0.999489 0.980761
0.995211 0.99939 0.974471
0.999523 1.00318 0.995552
1.01421 0.997528 0.975634
0.998516 0.996061 0.986109
0.994444 1.0009 0.980291
0.995286 1.00065 0.972932
0.998064 0.997458 0.988533
0.999327 1.00482 0.990851
0.999089 1.0049 0.991087
0.999987 1.00436 0.990506
0.999605 1.00427 0.990912
0.999454 1.00503 0.990308
1.00022 1.00501 0.98917
1.00011 1.00454 0.990071
1.00019 1.00505 0.98916
1.00067 1.00446 0.988775
1.00016 1.00438 0.989824
1.00056 1.0043 0.989324
1.0008 1.00369 0.989351
1.00104 1.00239 0.990115
1.00065 1.00256 0.990901
1.0007 1.00322 0.990028
1.00021 1.00192 0.992031
1.00029 1.00235 0.991541
1.00045 1.00322 0.990379
1.00013 1.002 0.992341
1.00016 1.00209 0.992191
1.00013 1.00212 0.992084
1.00007 1.00139 0.992961
1.00001 1.00207 0.992409
1.00002 1.00236 0.99217
1.00003 1.00003 0.99437
1.00014 1.00119 0.993046
1.00014 1.00187 0.992434
0.999877 0.997965 0.996742
1.00005 0.999873 0.994508
1.00017 1.00109 0.993089
1.00006 0.999681 0.994678
0.999906 0.997803 0.996834
0.999808 0.996617 0.999306
0.999952 0.99764 0.996918
0.999853 0.996481 0.999319
0.999894 0.996361 0.99933
1.00022 1.00175 0.99235
1.00022 1.0008 0.99328
1.00011 0.999462 0.994804
1.00019 1.00064 0.993498
0.999994 0.997507 0.996968
1.00012 0.999311 0.994945
1.00016 1.00052 0.993676
0.999942 0.996214 0.999348
1.00002 0.997336 0.997074
1.00012 0.999184 0.995065
0.999977 0.996073 0.999378
1.00005 0.997172 0.997179
1 0.995967 0.999403
1.02378 0.993917 0.967115
1.02608 0.991206 0.966874
1.02366 0.99267 0.968904
1.00022 1.00163 0.992438
1.00023 1.00217 0.991922
1.0002 1.00226 0.991845
1.00022 1.00211 0.991925
1.00021 1.00247 0.991705
1.00019 1.00153 0.992547
1.00018 1.00204 0.992117
1.00019 1.00207 0.992089
1.00019 1.00236 0.991786
1.00018 1.0025 0.991693
1.00936 0.998012 0.979168
1.0197 0.994023 0.971263
1.02595 0.985483 0.969731
1.00783 0.995036 0.979083
0.998326 0.998483 0.981208
0.997695 0.996791 0.988294
0.994976 0.999199 0.974115
0.996133 0.997815 0.989498
0.994916 1.00007 0.973672
0.997352 0.998605 0.980004
1.00155 0.99693 0.983429
0.995279 0.998975 0.991264
0.994926 0.998953 0.975043
0.994668 0.999495 0.980126
0.996454 0.994866 0.985881
1.00007 1.00241 0.991948
1.00024 1.00257 0.99151
1.0002 1.00246 0.991651
0.998429 1.00261 0.996027
0.999591 1.00067 0.994907
1.00027 1.00273 0.991249
1.00034 1.00305 0.990692
1.00022 1.00321 0.990905
0.999781 1.00382 0.991165
0.997206 1.0013 0.999154
0.999402 1.00421 0.99113
0.998546 1.00415 0.994843
1.01425 0.998566 0.976168
1.02313 0.995805 0.966731
1.0244 0.994653 0.96571
0.998171 1.00528 0.996079
0.997496 0.997922 0.991659
1.02376 0.994549 0.966881
0.995242 0.999112 0.968936
0.994849 0.999046 0.979596
1.0108 0.997274 0.978685
0.995309 0.996246 0.985554
0.999498 1.00319 0.995759
1.0143 0.997086 0.97566
0.998376 0.995812 0.985894
0.998353 0.997347 0.99156
0.99427 1.0009 0.978487
0.995191 1.00093 0.970188
1.0008 1.00175 0.992893
1.00024 0.996604 0.985816
0.99511 0.997904 0.97798
0.995291 1.00212 0.970761
0.998447 1.0005 0.988736
0.999071 1.00491 0.991058
0.999869 1.0043 0.990478
1.00102 1.00357 0.989281
0.999296 1.00504 0.990433
1.00011 1.00502 0.989192
1.00111 1.00356 0.988803
1.00028 1.00505 0.989044
1.00066 1.00439 0.988798
1.00125 1.00256 0.989653
1.00057 1.00431 0.989213
1.00081 1.00355 0.989406
1.00135 1.00165 0.990259
1.00146 1.0009 0.990737
1.00087 1.00219 0.990594
1.00105 1.00229 0.990154
1.00048 1.00211 0.991569
1.0006 1.00262 0.990775
1.00069 1.00326 0.98994
1.00019 1.00173 0.992411
1.00021 1.0019 0.992108
1.0003 1.00235 0.99161
1.00005 1.00156 0.992843
1.0001 1.00199 0.992349
1.00014 1.00211 0.99217
0.999985 1.00026 0.994234
1.00008 1.00139 0.992961
1.00002 1.00203 0.992437
0.999825 0.998121 0.997145
1.00003 1.00004 0.994371
1.00015 1.00117 0.993053
0.999774 0.996796 0.998291
0.999867 0.997983 0.996973
1.00005 0.999877 0.994509
0.999909 0.997814 0.996827
0.999803 0.996638 0.999298
0.999847 0.996498 0.999314
1.0002 1.00193 0.992167
1.00022 1.00102 0.993061
1.00022 1.00178 0.992308
1.00009 0.999622 0.994666
1.00021 1.0008 0.993281
0.999962 0.997658 0.996877
1.00011 0.999462 0.994808
1.00019 1.00065 0.993498
0.999904 0.996355 0.999324
0.999992 0.997497 0.996972
1.00011 0.999316 0.994947
0.999946 0.996198 0.999355
1.00002 0.997326 0.997078
0.99998 0.996059 0.999385
1.01352 0.998895 0.975064
1.02387 0.99382 0.967045
1.02574 0.991303 0.966673
1.00022 1.00214 0.991959
1.00021 1.00165 0.99246
1.00023 1.00217 0.991877
1.00021 1.00213 0.991982
1.0002 1.00226 0.991882
1.00021 1.00242 0.9917
1.00022 1.00248 0.991624
1.00018 1.00251 0.991611
1.00019 1.00207 0.992091
1.0002 1.00232 0.991786
1.00017 1.00251 0.991695
1.00028 1.00279 0.991486
0.998646 0.995271 0.986807
1.00902 0.998236 0.979459
1.01977 0.994111 0.971365
0.999704 0.997319 0.984307
0.998176 0.998915 0.978074
0.994887 1.00014 0.971092
0.995725 0.99792 0.995518
0.995079 0.998976 0.996846
0.995674 0.995225 0.986481
0.994872 0.999695 0.97065
0.995503 0.998753 0.983214
0.996169 0.999349 0.995758
0.994953 0.998359 0.976887
0.994094 0.998941 0.982774
0.99967 1.00235 0.99276
1.00018 1.00231 0.991947
1.00019 1.00267 0.991506
0.997192 1.00063 0.99921
0.999675 1.00387 0.991005
1.00016 1.00319 0.990964
0.999554 1.00425 0.991134
0.998339 1.0042 0.994943
0.999176 1.00207 0.994144
0.999672 0.996307 0.987377
1.01481 0.998613 0.974216
1.02324 0.995506 0.966305
0.999404 1.00323 0.996
0.99835 0.997727 0.993313
1.01444 0.996746 0.97568
0.99518 0.999682 0.976122
0.994446 1.00092 0.981241
0.998509 0.995757 0.985151
1.00076 1.00169 0.993183
1.00042 0.996495 0.984369
0.99438 0.998576 0.981916
0.998318 1.00043 0.985251
0.995085 1.00243 0.971995
1.00172 1.00191 0.990039
0.995906 0.996247 0.981856
0.995756 1.00241 0.972292
0.998545 1.00133 0.984369
0.999765 1.00428 0.99045
1.00078 1.00343 0.989356
1.00165 1.00196 0.989021
0.999962 1.00503 0.989214
1.00115 1.00341 0.988815
1.00221 1.00003 0.990446
1.00065 1.00434 0.988821
1.00119 1.0024 0.989735
1.0019 0.999531 0.991322
1.00083 1.00335 0.989461
1.00137 1.00147 0.990293
1.00185 0.999344 0.99152
1.00168 0.999553 0.991665
1.00127 1.00114 0.990887
1.00145 1.0008 0.990828
1.00067 1.00183 0.99119
1.00088 1.00215 0.990679
1.00105 1.00218 0.990192
1.00028 1.00174 0.992226
1.00041 1.00212 0.991561
1.00054 1.00269 0.990649
1.00009 1.00153 0.992817
1.0002 1.00174 0.992403
1.00021 1.00188 0.992186
0.999914 1.00061 0.994049
1.00006 1.00154 0.992852
1.00008 1.00198 0.992357
0.999773 0.998302 0.99658
0.99999 1.00027 0.994231
1.00009 1.0014 0.992962
0.99969 0.996951 0.999261
0.999826 0.998144 0.996637
1.00003 1.00004 0.994372
0.999758 0.996798 0.999276
0.999868 0.997995 0.996722
0.999798 0.996658 0.999291
1.00021 1.00192 0.992243
1.0002 1.00195 0.992179
1.00019 1.00127 0.992865
1.00007 0.999837 0.994494
1.00021 1.00104 0.993058
1.00022 1.00181 0.992265
0.99993 0.997798 0.996798
1.0001 0.999611 0.994671
1.00021 1.00081 0.993282
0.999862 0.996494 0.999303
0.999959 0.997649 0.996882
1.00011 0.999459 0.994811
0.999908 0.996337 0.999331
0.999989 0.997487 0.996977
0.99995 0.99618 0.999362
0.999164 0.995969 0.988889
1.01353 0.998937 0.975127
1.02395 0.99374 0.966975
1.00022 1.00216 0.991931
1.00018 1.00211 0.992181
1.00026 1.00222 0.9918
1.00021 1.00214 0.99204
1.00021 1.00227 0.99192
1.00022 1.00236 0.991694
1.00019 1.00251 0.991629
1.00022 1.00247 0.99164
1.00011 1.00289 0.991439
1.00015 1.0027 0.991462
1.00017 1.00252 0.991697
1.00019 1.00276 0.991513
0.994423 0.997957 0.982446
0.998092 0.995168 0.987386
1.00871 0.998434 0.97975
0.995071 0.995343 0.987084
0.994502 0.998934 0.980432
0.995071 0.999744 0.978283
0.994905 0.999032 0.991071
0.996073 0.999351 0.990365
0.994005 0.998564 0.980375
0.994944 0.998734 0.976783
0.998024 0.996059 0.990863
0.995155 1.00012 0.973422
0.999999 1.00359 0.991464
0.999834 1.00206 0.992738
1.00029 1.00219 0.991948
0.997939 1.00431 0.995066
0.999681 1.00428 0.991138
0.9999 1.00216 0.993944
1.00198 0.999526 0.992826
0.996292 0.99692 0.979155
0.999986 0.996483 0.98671
1.01531 0.998538 0.972267
1.00094 1.00154 0.993422
0.998293 1.0006 0.989173
1.0003 0.99652 0.984592
0.995094 1.00246 0.970591
0.995097 0.999381 0.978337
1.00177 1.002 0.990341
0.995727 0.997154 0.979552
0.995975 1.00173 0.970758
0.998212 1.00141 0.988528
1.00199 1.0029 0.988331
0.996486 1.00176 0.966964
0.999471 0.999231 0.99195
1.00051 1.00319 0.989431
1.00149 1.00233 0.988917
1.00317 0.997729 0.99005
1.00121 1.00325 0.988826
1.00216 0.99977 0.990454
1.00278 0.996514 0.992729
1.00113 1.00223 0.989817
1.00191 0.999335 0.991334
1.00245 0.997036 0.992633
1.00139 1.00129 0.990327
1.00185 0.999269 0.991523
1.00203 0.998084 0.992342
1.00181 0.998897 0.992165
1.00168 0.999446 0.991769
1.0015 1 0.991563
1.00113 1.0011 0.991218
1.00127 1.00116 0.990904
1.00145 1.0007 0.99092
1.00052 1.00157 0.991772
1.00069 1.00185 0.991278
1.00088 1.00211 0.990764
1.00015 1.00148 0.99273
1.0003 1.00175 0.992214
1.00035 1.00213 0.991553
0.999873 1.00087 0.993875
1.0001 1.00151 0.992823
1.00022 1.00174 0.992395
0.999688 0.998562 0.99648
0.99993 1.00058 0.994051
1.00008 1.00152 0.992861
0.99965 0.997112 0.999243
0.999769 0.998326 0.996575
0.999996 1.00027 0.994228
0.999702 0.996959 0.998756
0.999827 0.998157 0.996638
0.999749 0.996823 0.999266
1.00017 1.00188 0.992364
1.00021 1.00192 0.992194
1.00018 1.0014 0.992747
1.00019 1.00197 0.992191
1.00019 1.00128 0.99286
1.00005 1.00011 0.994269
0.999892 0.997963 0.996707
1.00008 0.999823 0.994498
1.0002 1.00105 0.993056
0.999815 0.996634 0.999285
0.999927 0.997791 0.996802
1.0001 0.999603 0.994675
0.999867 0.996482 0.999309
0.999956 0.997642 0.996886
0.999913 0.996321 0.999338
0.995077 0.998084 0.979179
0.999165 0.996018 0.988122
1.01358 0.998982 0.97519
1.00022 1.00216 0.991904
1.00023 1.00226 0.991792
1.00014 1.00208 0.992212
1.0001 1.00215 0.992265
1.00015 1.00235 0.991935
1.0002 1.0025 0.991647
1.00022 1.00245 0.991657
1.00009 1.00285 0.99147
0.999995 1.00245 0.991811
1.00003 1.00293 0.991357
1.00046 1.00338 0.990716
1.0001 1.00295 0.991423
1.00013 1.00276 0.99154
0.996216 1.00065 0.96923
0.994525 0.99892 0.980992
0.997689 0.995347 0.987133
0.993927 0.998379 0.983526
0.994902 0.998961 0.971208
0.996061 0.999306 0.996238
0.99818 0.996366 0.993581
0.995312 0.999101 0.975733
1.00085 0.995967 0.990595
1.00199 1.00261 0.988295
0.999725 1.0035 0.991425
0.999983 1.00173 0.992716
1.0004 1.00224 0.993724
1.00217 0.998896 0.992145
0.996903 1.00055 0.969278
0.996004 0.997379 0.977905
1.00029 0.996832 0.986039
1.00186 1.00209 0.990664
0.997837 1.00174 0.98462
0.995916 0.99724 0.978356
0.995726 1.00194 0.972884
1.00228 1.00276 0.988361
0.997294 1.00087 0.971153
0.999191 0.99974 0.986706
1.00369 1.00042 0.987506
1.00055 0.998533 0.993448
1.00132 1.00276 0.98881
1.00311 0.998055 0.989949
1.00394 0.995171 0.991509
1.00209 0.999494 0.990464
1.00264 0.996501 0.992714
1.003 0.995214 0.993242
1.00194 0.999116 0.991346
1.00244 0.99704 0.992567
1.00249 0.996771 0.99276
1.00187 0.999196 0.991525
1.00204 0.998158 0.992295
1.00206 0.998148 0.992304
1.00176 0.998772 0.992277
1.00172 0.999355 0.991889
1.00167 0.99935 0.991873
1.00151 1.00001 0.991543
1.00141 1.0003 0.991463
1.00089 1.00109 0.991549
1.00112 1.00114 0.991199
1.00126 1.00119 0.990921
1.00033 1.00138 0.99248
1.00051 1.0016 0.991828
1.0007 1.00186 0.991366
0.999856 1.00104 0.993716
1.00017 1.00147 0.992723
1.00031 1.00175 0.992201
0.999607 0.998857 0.996331
0.999894 1.00082 0.993881
1.00012 1.00148 0.992829
0.999576 0.9973 0.999225
0.999686 0.998593 0.996473
0.999943 1.00055 0.994054
0.999638 0.997123 0.999238
0.999765 0.998353 0.996569
0.999693 0.996972 0.999249
1.0001 1.00201 0.992337
1.00015 1.00189 0.992368
1.00014 1.00151 0.992674
1.00021 1.00192 0.992144
1.00018 1.00143 0.992706
1.00004 1.00035 0.994044
1.00018 1.00129 0.992854
1.00006 1.0001 0.99427
0.999845 0.998174 0.996584
0.999764 0.996791 0.999263
0.99989 0.99795 0.996713
1.00009 0.999806 0.994503
0.999821 0.996625 0.99929
0.999923 0.997784 0.996807
0.999872 0.996468 0.999315
0.996552 1.00134 0.972531
0.995354 0.997605 0.980986
0.998891 0.995896 0.988843
1.00021 1.00233 0.991785
1.00011 1.00206 0.992243
1.00016 1.00234 0.99195
1.00009 1.00214 0.99226
1.00005 1.00231 0.992176
1 1.0023 0.992117
1.00008 1.00278 0.9915
1.00003 1.00259 0.991753
0.999965 1.00312 0.991349
1.00009 1.00233 0.991693
1.00082 1.00287 0.990987
1.00141 1.00296 0.988982
1.00034 1.00318 0.990758
1.00004 1.00322 0.991385
1.00013 0.997966 0.991032
0.995589 1.00128 0.972472
0.994911 0.998188 0.978645
0.995193 0.999983 0.973566
0.998497 0.996467 0.996288
1.00088 0.995954 0.993965
1.00404 0.99741 0.990185
1.00192 1.00201 0.988883
0.999572 1.00348 0.991382
1.00323 0.99832 0.99147
0.999014 1.00087 0.98624
0.997232 1.00104 0.971774
0.996007 0.996613 0.981414
1.0026 1.00274 0.988397
0.998935 1.00001 0.990441
0.996874 0.999725 0.975521
1.00396 0.999754 0.987636
1.00051 0.999005 0.99088
1.00461 0.996699 0.988965
1.00362 0.998695 0.990239
1.00299 0.998459 0.98985
1.00378 0.995276 0.991533
1.00333 0.996162 0.991834
1.00249 0.996508 0.992697
1.00294 0.995486 0.993182
1.00294 0.996539 0.992146
1.00242 0.997063 0.992501
1.00245 0.996938 0.992702
1.00247 0.997786 0.991878
1.00204 0.998239 0.992249
1.00199 0.998222 0.992329
1.00191 0.999015 0.991729
1.00172 0.998655 0.992389
1.00169 0.999255 0.991952
1.00163 0.999845 0.991561
1.00152 1.00002 0.991523
1.00141 1.00032 0.991445
1.00124 1.00053 0.991613
1.0006 1.00105 0.992136
1.00088 1.00113 0.9916
1.00111 1.00117 0.99118
0.999914 1.00114 0.993496
1.00034 1.00139 0.992476
1.0005 1.00163 0.991884
0.999529 0.999185 0.99614
0.999885 1.001 0.993718
1.00019 1.00146 0.992717
0.999503 0.997529 0.999192
0.999606 0.998891 0.996326
0.999914 1.00078 0.993888
0.999564 0.997322 0.999216
0.999685 0.998622 0.996467
0.999626 0.997135 0.999234
1.00009 1.00211 0.992268
1.00011 1.002 0.992366
1.00007 1.0017 0.99266
1.00014 1.00189 0.992373
1.00013 1.00154 0.992674
0.999998 1.00061 0.993876
1.00017 1.00145 0.992666
1.00004 1.00036 0.994042
0.999789 0.998411 0.996454
1.00006 1.00009 0.994271
0.999847 0.998151 0.996593
0.999709 0.996971 0.999234
0.999772 0.996778 0.99927
0.999889 0.997937 0.99672
0.999827 0.996615 0.999296
0.999326 0.999682 0.989315
0.996327 1.00093 0.970695
0.995832 0.997992 0.977847
1.00028 1.00213 0.991921
1.00015 1.00235 0.991966
1.00009 1.00213 0.992255
1.00003 1.00236 0.992109
1.00003 1.00234 0.992156
0.999984 1.00198 0.992414
1.00006 1.00279 0.991694
0.999977 1.00333 0.991342
1.0002 1.00234 0.991779
1.00054 1.0028 0.991187
1.00144 1.00187 0.989897
1.00302 1.00068 0.98776
1.00148 1.00256 0.988938
1.00031 1.00286 0.990801
1.00447 0.996042 0.990118
0.999947 0.998238 0.989041
0.995498 1.00116 0.97604
1.00078 0.995824 0.98883
1.00408 0.99738 0.989638
1.00131 1.00142 0.989483
1.00287 0.99968 0.991599
0.999058 1.00042 0.990488
0.996899 1.00056 0.969661
1.00417 0.9991 0.987755
1.00047 0.998756 0.988412
1.00471 0.996372 0.988776
1.0036 0.998438 0.990733
1.0038 0.99696 0.989323
1.00289 0.998616 0.98926
1.00368 0.995324 0.991556
1.0033 0.996098 0.991907
1.003 0.997829 0.990899
1.0029 0.995715 0.993123
1.00292 0.996634 0.992121
1.00277 0.998086 0.991016
1.0024 0.997108 0.992644
1.00237 0.997864 0.991982
1.00227 0.998923 0.991071
1.00193 0.998293 0.992354
1.00189 0.999027 0.991732
1.00181 0.999628 0.991313
1.00167 0.999152 0.992016
1.00162 0.999767 0.99159
1.00145 1.00016 0.991507
1.00141 1.00034 0.991426
1.00122 1.00053 0.991573
1.00093 1.0007 0.992006
1.0001 1.00103 0.993244
1.00059 1.00108 0.992191
1.00085 1.00117 0.991651
0.999473 0.999573 0.995864
0.999935 1.00111 0.993499
1.00034 1.00139 0.992473
0.999422 0.997788 0.999148
0.999541 0.999209 0.996135
0.999914 1.00096 0.993721
0.999489 0.997555 0.99918
0.999607 0.998924 0.99632
0.999552 0.997342 0.999206
1.00018 1.00205 0.992052
1.00009 1.00209 0.992275
1.00008 1.00179 0.992621
1.00013 1.002 0.992395
1.00006 1.00171 0.992683
0.999919 1.00091 0.993738
1.00011 1.00157 0.992674
0.999986 1.00064 0.993871
0.999709 0.998688 0.996336
1.00003 1.00037 0.994039
0.999795 0.998382 0.996462
0.999644 0.997164 0.999205
0.99985 0.998127 0.996602
0.999718 0.996953 0.999243
0.999778 0.996768 0.999277
1.00356 0.99651 0.991549
0.999323 1.00009 0.985431
0.996636 1.00108 0.972138
1.00033 1.00169 0.992106
1.00084 1.00164 0.991306
1.00016 1.00215 0.991976
1.00007 1.00237 0.992101
1.00003 1.00237 0.992136
1.00011 1.00196 0.992343
1.00131 1.00135 0.990607
1.00025 1.00237 0.991866
1.00009 1.00274 0.991386
1.00137 1.00181 0.990017
1.00273 1.00026 0.988537
1.00378 0.997839 0.988885
1.0031 1.00052 0.987785
1.00164 1.00212 0.988894
1.00429 0.996154 0.990304
0.999827 0.998904 0.986272
1.00419 0.997594 0.989072
1.00252 0.998301 0.991324
1.00281 0.99905 0.991808
0.999155 1.00048 0.985353
1.00489 0.996081 0.988588
1.00362 0.998218 0.991201
1.00387 0.997023 0.989425
1.00299 0.998669 0.989547
1.00291 0.998742 0.989999
1.00257 0.998557 0.990812
1.00327 0.995904 0.99198
1.003 0.997659 0.990944
1.00289 0.998782 0.99005
1.00291 0.996761 0.992096
1.00272 0.998099 0.99106
1.00261 0.998906 0.990374
1.00227 0.997937 0.992087
1.00227 0.998934 0.991067
1.00215 0.999522 0.990737
1.00188 0.999039 0.991734
1.00181 0.999626 0.991312
1.00164 1.00003 0.991245
1.0016 0.999689 0.991618
1.00143 1.00014 0.991512
1.00113 1.00044 0.99185
1.0012 1.00053 0.991533
1.0009 1.00069 0.991988
1.00034 1.00078 0.993022
0.99949 0.999872 0.995559
1.0001 1.00103 0.993249
1.00058 1.00111 0.992246
0.999328 0.998104 0.999087
0.999501 0.999565 0.995856
0.999956 1.00109 0.993502
0.999405 0.997824 0.999132
0.999551 0.99923 0.996129
0.999475 0.997583 0.999168
1.00043 1.00189 0.991574
1.00019 1.00202 0.992
1.0002 1.0017 0.992466
1.00009 1.00206 0.992281
1.00006 1.00179 0.992622
0.99986 1.00117 0.993605
1.00006 1.00172 0.992707
0.9999 1.00095 0.993735
0.99961 0.999021 0.996206
0.999974 1.00067 0.993866
0.999715 0.998656 0.996341
0.999564 0.997381 0.999177
0.999801 0.998353 0.996469
0.999658 0.997146 0.999214
0.999727 0.996937 0.999252
1.00322 0.996934 0.990911
1.00348 0.996821 0.991733
0.999478 1.00019 0.989411
1.0014 1.00106 0.991023
1.00019 1.00167 0.992406
1.00135 1.00102 0.990498
1.00085 1.00165 0.991262
1.00002 1.00221 0.992032
1.00255 1.00028 0.989231
1.00024 1.00193 0.992272
1.00139 1.00122 0.99057
1.00341 0.998646 0.98906
1.00134 1.00177 0.990136
1.00282 1.00034 0.988478
1.00374 0.998043 0.98885
1.00307 1.00048 0.98781
1.00415 0.996221 0.990485
1.00243 0.998418 0.991483
1.00246 0.998069 0.991263
1.00275 0.998419 0.992024
1.00391 0.997042 0.989526
1.0031 0.998772 0.989831
1.00302 0.998676 0.989952
1.00256 0.998636 0.990878
1.00252 0.999031 0.990501
1.003 0.997578 0.990988
1.00291 0.998701 0.99009
1.00277 0.999112 0.989936
1.00267 0.998122 0.991104
1.00262 0.998955 0.990352
1.00249 0.999418 0.990166
1.00227 0.998945 0.991064
1.00216 0.999522 0.990726
1.00195 0.999888 0.990779
1.00181 0.999623 0.991311
1.00165 1.00002 0.991242
1.00134 1.00029 0.991566
1.00141 1.00012 0.991517
1.00112 1.00043 0.991854
1.00057 1.00055 0.992803
1.00087 1.00068 0.99197
1.00033 1.00079 0.993026
0.99952 1.00003 0.995965
0.999262 0.998619 0.997591
0.99952 0.99982 0.995881
1.00011 1.00102 0.993255
0.999311 0.998162 0.999061
0.999528 0.999561 0.995848
0.999388 0.99786 0.999115
1.00172 1.0003 0.990695
1.00077 1.00162 0.991173
1.0005 1.00187 0.991513
1.00039 1.00154 0.992249
1.0002 1.00198 0.991948
1.00019 1.00169 0.992475
0.999857 1.0013 0.993491
1.00005 1.00179 0.992622
0.999838 1.0012 0.993602
0.99952 0.999373 0.996039
0.99988 1.00098 0.993731
0.999612 0.998986 0.996211
0.999466 0.997641 0.999143
0.999722 0.998622 0.996346
0.999582 0.997358 0.999186
0.999671 0.997128 0.999222
1.00298 0.998093 0.990539
1.0032 0.99712 0.990929
1.00345 0.997179 0.991914
1.00235 1.00009 0.989757
1.00118 1.00108 0.991269
1.00003 1.00162 0.992704
1.00148 1.00098 0.990605
1.00087 1.00166 0.991218
1.00324 0.99917 0.988907
1.00257 1.00034 0.989107
1.00144 1.00115 0.990533
1.00344 0.998683 0.989021
1.00297 1.00036 0.98842
1.00365 0.998223 0.988814
1.00225 0.998937 0.991015
1.00239 0.998388 0.991434
1.00238 0.997778 0.991202
1.00314 0.998601 0.989908
1.00254 0.998691 0.990943
1.00255 0.999009 0.990524
1.00243 0.999385 0.990341
1.00293 0.998614 0.99013
1.00279 0.999071 0.989923
1.00259 0.99932 0.990031
1.00262 0.999003 0.990329
1.0025 0.99942 0.990154
1.00225 0.999723 0.990337
1.00217 0.999521 0.990714
1.00195 0.999886 0.990769
1.00161 1.00015 0.991173
1.00165 1.00002 0.99124
1.00135 1.00029 0.991565
1.00078 1.00042 0.992518
1.00112 1.00043 0.991858
1.00056 1.00056 0.992803
0.999571 1.00016 0.995761
1.00033 1.0008 0.993031
0.999564 1.00001 0.995925
0.999141 0.999121 0.997372
0.999234 0.998589 0.998282
0.999555 0.999776 0.996195
0.999295 0.998218 0.999035
1.00238 0.999832 0.989966
1.0013 1.00092 0.991118
1.0016 1.00019 0.991066
1.00059 1.00148 0.991885
1.00087 1.0016 0.991164
1.00058 1.00185 0.991452
1.00036 1.00158 0.992255
0.999934 1.00131 0.99333
1.00017 1.00168 0.992485
0.999842 1.00131 0.993487
0.999458 0.999718 0.995825
0.999817 1.00123 0.993599
0.999513 0.999349 0.996042
0.99935 0.997954 0.999095
0.999615 0.998951 0.996215
0.999489 0.997608 0.999154
0.9996 0.997336 0.999194
1.00287 0.998798 0.989989
1.00297 0.998148 0.990515
1.00319 0.997341 0.990947
1.00297 0.999268 0.989219
1.00234 1.00014 0.989762
1.001 1.0011 0.991515
1.00161 1.00091 0.990712
1.00325 0.999178 0.98892
1.0026 1.00037 0.988984
1.00346 0.998715 0.988983
1.00235 0.999308 0.990537
1.00233 0.998982 0.990874
1.00236 0.998378 0.991385
1.00236 0.999709 0.990175
1.00257 0.998986 0.990548
1.00243 0.999402 0.99031
1.00245 0.999482 0.990221
1.00282 0.999036 0.98991
1.00261 0.999313 0.990035
1.00236 0.999653 0.990177
1.0025 0.999422 0.990142
1.00225 0.999729 0.990334
1.00187 0.99998 0.990831
1.00196 0.999885 0.99076
1.00161 1.00015 0.991168
1.001 1.00033 0.992181
1.00135 1.00028 0.991563
1.00078 1.00043 0.992511
0.999631 1.00021 0.995609
1.00055 1.00057 0.992803
0.999617 1.00013 0.995727
0.999032 0.9995 0.99724
0.999607 0.999991 0.995884
0.99912 0.999119 0.997407
0.999194 0.998547 0.998989
1.00274 0.999706 0.989485
1.00203 1.00012 0.990429
1.00229 0.999916 0.990096
1.00101 1.00108 0.991626
1.00129 1.00086 0.991113
1.00148 1.0001 0.991435
1.00011 1.0013 0.992981
1.00059 1.00147 0.991882
1.00095 1.00159 0.991156
1.00032 1.00162 0.992262
0.999913 1.00134 0.993327
0.999441 1.00004 0.995544
0.999828 1.00131 0.993483
0.999436 0.99972 0.995828
0.999217 0.998342 0.999034
0.999505 0.999325 0.996046
0.999377 0.997906 0.999111
0.999511 0.997575 0.999165
1.00285 0.999028 0.989851
1.00297 0.998785 0.989877
1.00295 0.998198 0.990492
1.00305 0.999215 0.989201
1.00233 1.00021 0.989766
1.00328 0.99919 0.988933
1.00242 0.999603 0.990129
1.00233 0.999353 0.990534
1.00241 0.999026 0.990734
1.00235 0.999709 0.990182
1.00233 0.999905 0.990054
1.00244 0.999418 0.990279
1.00244 0.999494 0.990224
1.00233 0.999701 0.990263
1.00262 0.999306 0.990039
1.00237 0.999638 0.990187
1.00199 0.999908 0.990653
1.00225 0.999733 0.99033
1.00187 0.999985 0.990826
1.00119 1.00019 0.99193
1.00162 1.00015 0.991164
1.001 1.00032 0.99217
0.999719 1.00019 0.99549
1.00078 1.00043 0.992504
0.999677 1.00019 0.995576
0.998952 0.999777 0.997149
0.999663 1.0001 0.995692
0.999009 0.999515 0.99727
0.999098 0.999113 0.997442
1.00277 0.99914 0.989864
1.00242 0.999848 0.989889
1.00276 0.999648 0.989439
1.00153 1.00046 0.991101
1.002 1.00017 0.99049
1.0022 0.999987 0.990228
1.00044 1.00102 0.992561
1.00099 1.00104 0.991514
1.00128 1.00079 0.991107
0.999482 1.00033 0.995168
1.00011 1.00129 0.992982
1.0006 1.00147 0.991879
0.999889 1.00136 0.993323
0.999394 1.00009 0.99555
0.999079 0.998799 0.998954
0.999414 0.999725 0.995831
0.999244 0.998271 0.999054
0.999405 0.997859 0.999126
1.00267 0.999335 0.989903
1.00287 0.999026 0.98982
1.00303 0.998771 0.989766
1.00313 0.999153 0.989182
1.00246 0.99979 0.989865
1.00242 0.99959 0.990156
1.00231 0.999393 0.990531
1.00233 0.999707 0.990189
1.00233 0.999886 0.990048
1.00223 0.999942 0.990195
1.00242 0.999506 0.990227
1.00231 0.999712 0.990288
1.00202 0.999895 0.990584
1.00237 0.999624 0.990196
1.00199 0.999902 0.990656
1.0013 1.00007 0.991816
1.00187 0.999993 0.99082
1.0012 1.00019 0.991922
0.999811 1.00014 0.994594
1.00101 1.00032 0.992159
0.999755 1.0002 0.995052
0.998903 0.999863 0.998755
0.999724 1.00017 0.995543
0.998926 0.999812 0.997176
0.998985 0.999529 0.997301
1.00265 0.999308 0.990019
1.00247 0.999522 0.990033
1.00275 0.999179 0.989886
1.00189 1.00004 0.990533
1.0024 0.999843 0.989958
1.00278 0.999596 0.989394
1.00083 1.00056 0.992011
1.00154 1.00046 0.991094
1.00196 1.00023 0.990551
0.999606 1.00044 0.994783
1.00045 1.00099 0.992463
1.00097 1.001 0.991403
0.998979 0.999294 0.998851
0.999423 1.00039 0.995181
1.0001 1.00128 0.992983
0.999343 1.00015 0.995556
0.999103 0.998718 0.99898
0.999278 0.998202 0.999073
1.00255 0.99953 0.989957
1.00266 0.999339 0.989931
1.0029 0.999027 0.989788
1.00244 0.999906 0.989821
1.00247 0.999802 0.989836
1.00243 0.999583 0.990182
1.00232 0.999866 0.990042
1.00224 0.999922 0.990199
1.00202 0.999968 0.990634
1.00229 0.999722 0.990313
1.002 0.999911 0.99068
1.00136 1.00002 0.991582
1.00199 0.999894 0.990659
1.0013 1.00007 0.991815
0.999858 1.00009 0.994549
1.0012 1.00019 0.991914
0.999818 1.00014 0.994589
0.998899 0.999923 0.998747
0.999785 1.0002 0.994626
0.998899 0.999938 0.997944
0.998898 0.999849 0.997205
1.00252 0.999528 0.990108
1.00242 0.999504 0.990216
1.00263 0.999268 0.990031
1.00204 0.999843 0.990589
1.00246 0.999539 0.990062
1.00273 0.999219 0.989907
1.00118 1.00021 0.991691
1.00193 1.00007 0.990657
1.00238 0.999834 0.990025
0.999743 1.00038 0.994535
1.00089 1.00054 0.991968
1.00155 1.00045 0.991087
0.998932 0.999697 0.998758
0.999548 1.00051 0.994797
1.00046 1.00096 0.992364
0.998984 0.999196 0.998886
0.999362 1.00046 0.995195
0.999126 0.998626 0.999005
1.00245 0.999743 0.989982
1.00255 0.999539 0.989954
1.00264 0.999335 0.989959
1.0022 0.999932 0.990296
1.00242 0.999928 0.989846
1.00249 0.999813 0.989806
1.00225 0.999905 0.990202
1.00202 0.999954 0.990639
1.00144 1 0.991431
1.00199 0.999929 0.990777
1.00136 1.00003 0.991668
0.99991 1.00008 0.994462
1.0013 1.00007 0.991813
0.999862 1.00009 0.994548
0.998905 0.999975 0.998737
0.999824 1.00013 0.994585
0.998905 0.999942 0.998743
0.998911 1.00003 0.997106
1.00238 0.99967 0.990252
1.00251 0.99948 0.990111
1.00208 0.999787 0.990591
1.00242 0.999503 0.990214
1.00261 0.99923 0.990044
1.00136 1.00004 0.991728
1.00206 0.999844 0.990579
1.00245 0.999552 0.990091
0.999846 1.00023 0.994452
1.0012 1.00022 0.991756
1.00196 1.00011 0.990782
0.998921 0.999943 0.99871
0.999706 1.00043 0.994545
1.00094 1.00051 0.991925
0.998926 0.999613 0.998787
0.999492 1.00058 0.994811
0.998992 0.999098 0.998918
1.00216 0.999875 0.99044
1.00243 0.999759 0.990004
1.00255 0.999552 0.989952
1.00155 0.999971 0.991239
1.0022 0.999952 0.990296
1.0024 0.999948 0.989871
1.00202 0.999942 0.990644
1.00143 1 0.991457
0.999986 1.00002 0.994356
1.00135 1.00003 0.991755
0.999911 1.00008 0.994459
0.99893 1 0.998717
0.999865 1.00008 0.994548
0.998917 0.999985 0.998731
0.998915 0.999963 0.998739
1.00209 0.999858 0.99053
1.00238 0.999628 0.99023
1.00249 0.999424 0.990114
1.00141 0.999968 0.991685
1.00208 0.999789 0.990587
1.00243 0.999502 0.990211
0.999901 1.00009 0.994466
1.00136 1.00005 0.991729
1.00207 0.999844 0.99057
0.998925 1.00004 0.998702
0.999826 1.00026 0.994459
1.00123 1.00024 0.991822
0.998909 0.999885 0.998723
0.999673 1.00047 0.994554
0.998914 0.999528 0.998817
1.00154 0.999962 0.991449
1.00217 0.999891 0.990339
1.00241 0.999771 0.990027
1.00004 0.999943 0.994311
1.00155 0.999969 0.991254
1.00219 0.999974 0.990296
1.00143 0.999994 0.991484
0.999985 1.00003 0.994351
0.99899 1 0.998683
0.999913 1.00008 0.994456
0.998951 1.00001 0.998704
0.998928 0.999995 0.998724
1.00147 0.999967 0.991586
1.0021 0.999842 0.990493
1.00237 0.999589 0.990207
0.999955 1.00001 0.9953
1.00142 0.999974 0.991684
1.00209 0.999792 0.990583
0.998939 1.00005 0.99871
0.999899 1.0001 0.994469
1.00136 1.00006 0.991731
0.998915 1.00001 0.998703
0.999807 1.00028 0.994466
0.998898 0.999831 0.998737
1.00004 0.999957 0.994321
1.00154 0.999956 0.991373
1.00217 0.9999 0.990238
0.999045 0.999984 0.998665
1.00004 0.99995 0.994306
1.00155 0.999965 0.991268
0.999985 1.00004 0.994345
0.999009 1.00001 0.998673
0.998971 1.00002 0.99869
1.00002 0.999979 0.995235
1.00147 0.999965 0.991589
1.00211 0.999828 0.990456
0.998898 1.00004 0.998762
0.999935 1 0.994481
1.00142 0.999981 0.991684
0.998929 1.00003 0.998708
0.999896 1.0001 0.994472
0.9989 0.999983 0.998706
0.999046 0.999958 0.996931
1.00005 0.999941 0.994759
1.00154 0.999956 0.991297
0.999046 0.99999 0.998662
1.00004 0.999959 0.994305
0.999025 1.00002 0.998666
0.998948 0.999991 0.99704
0.999998 0.999967 0.994837
1.00147 0.999963 0.991593
0.998926 1.00002 0.99789
0.999945 0.999996 0.994477
0.998918 1.00002 0.998706
0.99905 0.999984 0.998667
1.00004 0.99992 0.994342
0.999053 0.999991 0.998662
0.998984 0.999985 0.997858
0.999991 0.999956 0.994422
0.998942 1.00001 0.998712
0.999033 0.999981 0.998679
0.998984 0.999997 0.998702

TENSORS stress float
0.00117286 3.09139e-05 2.74407e-05
3.09139e-05 0.000209348 -5.75664e-06
2.74407e-05 -5.75664e-06 0.000195561
0.00276679 -5.18578e-05 2.53113e-05
-5.18578e-05 0.000993058 3.38184e-06
2.53113e-05 3.38184e-06 0.000997116
0.00117222 3.48412e-05 1.0761e-05
3.48412e-05 0.000211129 -2.05681e-06
1.0761e-05 -2.05681e-06 0.000197071
0.00127887 2.09778e-05 3.7048e-05
2.09778e-05 0.000284431 -4.25293e-06
3.7048e-05 -4.25293e-06 0.000263909
0.00120301 2.92269e-05 3.0088e-05
2.92269e-05 0.000236573 -5.33605e-06
3.0088e-05 -5.33605e-06 0.000219416
0.00114429 3.17235e-05 2.49292e-05
3.17235e-05 0.000181882 -6.04293e-06
2.49292e-05 -6.04293e-06 0.000172531
0.00113617 1.29809e-05 6.83444e-06
1.29809e-05 0.000161986 -2.47178e-06
6.83444e-06 -2.47178e-06 0.000129156
0.00278708 -5.25294e-05 3.19251e-07
-5.25294e-05 0.00100081 -1.22818e-07
3.19251e-07 -1.22818e-07 0.00100535
0.00313347 -7.07442e-05 1.08461e-05
-7.07442e-05 0.00121943 1.16665e-06
1.08461e-05 1.16665e-06 0.00121269
0.00281673 -6.07346e-05 1.03802e-05
-6.07346e-05 0.00103178 1.30292e-06
1.03802e-05 1.30292e-06 0.00103248
0.00110016 -3.0411e-05 2.03818e-05
-3.0411e-05 0.0001376 3.76859e-06
2.03818e-05 3.76859e-06 0.000136861
0.000799668 -2.33074e-05 5.25741e-06
-2.33074e-05 -1.23557e-05 3.16563e-06
5.25741e-06 3.16563e-06 -3.96651e-05
0.00155331 -1.14881e-05 4.56216e-05
-1.14881e-05 0.000413358 1.01997e-06
4.56216e-05 1.01997e-06 0.00039303
0.00134348 -4.53234e-05 6.19108e-06
-4.53234e-05 0.000326455 1.445e-06
6.19108e-06 1.445e-06 0.000303326
0.00116502 3.93333e-05 -6.77088e-06
3.93333e-05 0.000209715 1.64566e-06
-6.77088e-06 1.64566e-06 0.000195334
0.00130684 3.16364e-05 1.54619e-05
3.16364e-05 0.000302366 -1.31148e-06
1.54619e-05 -1.31148e-06 0.00028062
0.00112967 3.47816e-05 9.64977e-06
3.47816e-05 0.000175948 -2.18914e-06
9.64977e-06 -2.18914e-06 0.000166598
0.00121406 3.43575e-05 1.20023e-05
3.43575e-05 0.000244742 -1.80127e-06
1.20023e-05 -1.80127e-06 0.000227046
0.00117651 1.28563e-05 -3.92863e-06
1.28563e-05 0.0001811 4.57775e-07
-3.92863e-06 4.57775e-07 0.000148524
0.00388876 6.26153e-05 4.38495e-05
6.26153e-05 0.00159836 -6.04124e-07
4.38495e-05 -6.04124e-07 0.00158951
0.00133478 1.80109e-05 3.99208e-05
1.80109e-05 0.000311553 -3.41915e-06
3.99208e-05 -3.41915e-06 0.000291166
0.00123072 2.58373e-05 3.33287e-05
2.58373e-05 0.000258542 -4.88114e-06
3.33287e-05 -4.88114e-06 0.000239089
0.001283 7.4471e-06 8.03765e-06
7.4471e-06 0.000218343 -2.5142e-06
8.03765e-06 -2.5142e-06 0.000179293
0.00118308 9.72345e-06 7.16239e-06
9.72345e-06 0.000182507 -2.43227e-06
7.16239e-06 -2.43227e-06 0.000147166
0.00113645 3.15955e-05 2.31144e-05
3.15955e-05 0.000164354 -6.10969e-06
2.31144e-05 -6.10969e-06 0.00015987
0.00108519 1.97493e-05 6.09713e-06
1.97493e-05 0.000139129 -2.62564e-06
6.09713e-06 -2.62564e-06 0.000109733
0.00142715 -2.79187e-05 2.32682e-06
-2.79187e-05 0.000248533 -1.18e-06
2.32682e-06 -1.18e-06 0.000192061
0.00280936 -5.32503e-05 -2.42258e-05
-5.32503e-05 0.00100938 -3.36652e-06
-2.42258e-05 -3.36652e-06 0.00101442
0.0021679 -5.01876e-05 -1.13941e-05
-5.01876e-05 0.000730212 -6.17867e-07
-1.13941e-05 -6.17867e-07 0.000718102
0.00200014 -4.63561e-05 -9.59304e-06
-4.63561e-05 0.000617983 -8.93085e-07
-9.59304e-06 -8.93085e-07 0.000613732
0.00268224 -4.89697e-05 2.23584e-07
-4.89697e-05 0.000937231 -8.13675e-08
2.23584e-07 -8.13675e-08 0.00094463
0.000743566 -2.20054e-05 1.85236e-07
-2.20054e-05 -3.88522e-05 -4.16201e-08
1.85236e-07 -4.16201e-08 -6.60838e-05
0.00141133 -2.54557e-05 3.20812e-05
-2.54557e-05 0.000353543 2.72011e-06
3.20812e-05 2.72011e-06 0.000333407
0.00124139 -3.1913e-05 2.52891e-05
-3.1913e-05 0.000250211 3.17061e-06
2.52891e-05 3.17061e-06 0.000236566
0.00180727 -4.38397e-07 1.61735e-05
-4.38397e-07 0.000493492 2.57744e-06
1.61735e-05 2.57744e-06 0.000461529
0.00258676 -4.9341e-05 9.06663e-06
-4.9341e-05 0.000879298 1.50746e-06
9.06663e-06 1.50746e-06 0.000889045
0.0016661 -1.95067e-05 1.35926e-05
-1.95067e-05 0.00042703 2.57959e-06
1.35926e-05 2.57959e-06 0.000401785
0.000796327 -2.81195e-05 6.09098e-06
-2.81195e-05 -1.86238e-05 4.83879e-06
6.09098e-06 4.83879e-06 -4.24056e-05
0.000911376 1.57426e-05 2.7581e-06
1.57426e-05 1.93661e-05 1.39365e-06
2.7581e-06 1.39365e-06 -3.67914e-05
0.00257503 -3.79551e-05 2.1471e-05
-3.79551e-05 0.000855529 3.98886e-06
2.1471e-05 3.98886e-06 0.000869058
0.00404128 -6.33534e-05 1.04063e-06
-6.33534e-05 0.00167061 -1.69808e-07
1.04063e-06 -1.69808e-07 0.00166144
0.0025161 -5.65877e-05 -1.55874e-05
-5.65877e-05 0.000914753 -7.75345e-08
-1.55874e-05 -7.75345e-08 0.000898456
0.0041811 -4.94734e-05 4.85769e-05
-4.94734e-05 0.00173495 1.55635e-07
4.85769e-05 1.55635e-07 0.00172635
0.00137677 -4.21573e-05 6.56931e-06
-4.21573e-05 0.00033833 1.2312e-06
6.56931e-06 1.2312e-06 0.000315545
0.000766937 -1.34479e-05 1.04323e-05
-1.34479e-05 -6.94172e-05 2.30089e-06
1.04323e-05 2.30089e-06 -0.000111283
0.00352035 -8.54212e-05 1.01588e-05
-8.54212e-05 0.00142567 9.40674e-07
1.01588e-05 9.40674e-07 0.00141452
0.00197228 -2.16989e-05 2.2751e-05
-2.16989e-05 0.000555164 2.85934e-06
2.2751e-05 2.85934e-06 0.000521196
0.00134391 4.37446e-05 -6.82334e-06
4.37446e-05 0.000325237 1.6757e-06
-6.82334e-06 1.6757e-06 0.000302064
0.00122198 4.04923e-05 -6.95958e-06
4.04923e-05 0.000251465 1.65084e-06
-6.95958e-06 1.65084e-06 0.000233128
0.00110312 3.80872e-05 -6.33331e-06
3.80872e-05 0.000164122 1.61945e-06
-6.33331e-06 1.61945e-06 0.000154766
0.00122394 1.21953e-05 -1.50731e-05
1.21953e-05 0.000203733 3.4018e-06
-1.50731e-05 3.4018e-06 0.000171422
0.00267507 5.45372e-05 -1.61766e-05
5.45372e-05 0.000986628 -7.67359e-07
-1.61766e-05 -7.67359e-07 0.000970879
0.00134388 3.14553e-05 1.68606e-05
3.14553e-05 0.000320056 -9.80484e-07
1.68606e-05 -9.80484e-07 0.000298215
0.00110332 3.40861e-05 8.80027e-06
3.40861e-05 0.000148601 -2.19333e-06
8.80027e-06 -2.19333e-06 0.00014424
0.0012572 3.30045e-05 1.36621e-05
3.30045e-05 0.00027501 -1.55066e-06
1.36621e-05 -1.55066e-06 0.000254724
0.00132918 4.80632e-06 -5.93433e-06
4.80632e-06 0.000239329 1.75475e-07
-5.93433e-06 1.75475e-07 0.000200893
0.00112907 2.013e-05 -3.51367e-06
2.013e-05 0.000160261 4.46181e-07
-3.51367e-06 4.46181e-07 0.000131046
0.00122315 9.12366e-06 -4.49434e-06
9.12366e-06 0.000200712 4.21731e-07
-4.49434e-06 4.21731e-07 0.000165772
0.00147529 -3.03668e-05 -1.23195e-06
-3.03668e-05 0.000270451 5.3939e-07
-1.23195e-06 5.3939e-07 0.00021358
0.00399459 6.43787e-05 4.40922e-05
6.43787e-05 0.00164714 -7.03457e-08
4.40922e-05 -7.03457e-08 0.00163827
0.00135826 1.80885e-05 4.16571e-05
1.80885e-05 0.000323494 -2.64585e-06
4.16571e-05 -2.64585e-06 0.000303506
0.00196406 3.51026e-05 7.40124e-06
3.51026e-05 0.000541908 -1.34211e-06
7.40124e-06 -1.34211e-06 0.000507102
0.00133064 1.12684e-05 8.60775e-06
1.12684e-05 0.000233896 -2.17354e-06
8.60775e-06 -2.17354e-06 0.000194821
0.0012263 7.79888e-06 7.46267e-06
7.79888e-06 0.00019913 -2.54484e-06
7.46267e-06 -2.54484e-06 0.000161628
0.00166542 -3.4166e-05 2.81587e-06
-3.4166e-05 0.000299328 -1.42856e-06
2.81587e-06 -1.42856e-06 0.000237859
0.00120389 -2.74492e-05 2.94707e-06
-2.74492e-05 0.000115735 -1.54204e-06
2.94707e-06 -1.54204e-06 5.71293e-05
0.00119889 3.07196e-05 2.26584e-05
3.07196e-05 0.000180504 -6.07671e-06
2.26584e-05 -6.07671e-06 0.000180309
0.00105163 3.35593e-05 4.92592e-06
3.35593e-05 0.000121469 -2.79082e-06
4.92592e-06 -2.79082e-06 9.61695e-05
0.00133026 -1.75118e-05 2.02831e-06
-1.75118e-05 0.000222361 -1.21253e-06
2.02831e-06 -1.21253e-06 0.000167377
0.00112835 -4.60547e-05 1.97575e-06
-4.60547e-05 5.1634e-05 -1.23434e-06
1.97575e-06 -1.23434e-06 -1.78134e-05
0.00314195 -6.3806e-05 -2.78856e-05
-6.3806e-05 0.00121831 -2.70966e-06
-2.78856e-05 -2.70966e-06 0.00121316
0.00272345 -4.95412e-05 -2.31852e-05
-4.95412e-05 0.000955103 -3.49488e-06
-2.31852e-05 -3.49488e-06 0.000963035
0.00289677 -5.65365e-05 -2.55574e-05
-5.65365e-05 0.00106699 -3.18187e-06
-2.55574e-05 -3.18187e-06 0.00106874
0.000692494 -2.79108e-05 -4.23555e-06
-2.79108e-05 -6.20249e-05 -3.5721e-06
-4.23555e-06 -3.5721e-06 -8.9635e-05
0.00344695 -6.59502e-05 6.0763e-07
-6.59502e-05 0.00138076 -1.56337e-07
6.0763e-07 -1.56337e-07 0.00137251
0.00301458 -5.94707e-05 3.14e-07
-5.94707e-05 0.00114579 -1.28845e-07
3.14e-07 -1.28845e-07 0.001143
0.000728052 9.61516e-06 -1.85887e-08
9.61516e-06 -4.5884e-05 -1.36485e-07
-1.85887e-08 -1.36485e-07 -8.41906e-05
0.00185704 -3.87818e-05 -8.46268e-06
-3.87818e-05 0.000509053 -1.03594e-06
-8.46268e-06 -1.03594e-06 0.000515082
0.000760066 -1.25117e-05 -2.39148e-08
-1.25117e-05 -2.76971e-05 -4.1452e-08
-2.39148e-08 -4.1452e-08 -5.83209e-05
0.00116227 -3.68663e-05 4.32472e-06
-3.68663e-05 0.000167069 5.20555e-07
4.32472e-06 5.20555e-07 0.000145541
0.00090302 1.30929e-05 4.65986e-08
1.30929e-05 1.60138e-05 -2.25732e-07
4.65986e-08 -2.25732e-07 -4.03524e-05
0.0025875 -4.16323e-05 2.21231e-05
-4.16323e-05 0.000870222 3.79565e-06
2.21231e-05 3.79565e-06 0.000882073
0.000832172 -2.52556e-05 4.23889e-06
-2.52556e-05 -3.08657e-05 3.72847e-06
4.23889e-06 3.72847e-06 -4.52242e-05
0.000759452 1.85959e-05 8.63932e-06
1.85959e-05 -4.12362e-05 4.19788e-06
8.63932e-06 4.19788e-06 -8.19625e-05
0.000760006 1.79334e-06 7.70006e-06
1.79334e-06 -2.92245e-05 4.32385e-06
7.70006e-06 4.32385e-06 -6.44141e-05
0.0010041 3.16856e-05 2.98993e-06
3.16856e-05 1.85237e-05 1.78606e-06
2.98993e-06 1.78606e-06 -4.14514e-05
0.00158659 -3.84884e-05 1.12899e-05
-3.84884e-05 0.000371462 3.26949e-06
1.12899e-05 3.26949e-06 0.000355626
0.000937175 2.31396e-05 2.68167e-06
2.31396e-05 2.37232e-05 1.46744e-06
2.68167e-06 1.46744e-06 -3.25859e-05
0.000916062 8.13981e-06 2.61037e-06
8.13981e-06 2.50244e-05 1.84495e-06
2.61037e-06 1.84495e-06 -2.98717e-05
0.000963932 4.08189e-05 1.42087e-06
4.08189e-05 1.92392e-05 3.79085e-07
1.42087e-06 3.79085e-07 -4.79269e-05
0.00254626 -3.42252e-05 2.04641e-05
-3.42252e-05 0.000834119 4.12002e-06
2.04641e-05 4.12002e-06 0.000849215
0.00260421 -3.80981e-05 3.14305e-07
-3.80981e-05 0.000869072 -8.21174e-08
3.14305e-07 -8.21174e-08 0.00088272
0.00363671 -7.12518e-05 -3.58622e-05
-7.12518e-05 0.00147926 -1.57378e-06
-3.58622e-05 -1.57378e-06 0.00146951
0.00392861 -6.26624e-05 -4.19405e-05
-6.26624e-05 0.00161677 -6.54905e-07
-4.19405e-05 -6.54905e-07 0.0016077
0.00413604 -4.06057e-05 1.64898e-06
-4.06057e-05 0.00171232 -2.05945e-07
1.64898e-06 -2.05945e-07 0.00170441
0.00260948 -5.53368e-05 -1.73515e-05
-5.53368e-05 0.000957219 3.55346e-08
-1.73515e-05 3.55346e-08 0.000940962
0.001376 -6.16514e-06 9.84589e-06
-6.16514e-06 0.000238349 -1.40494e-07
9.84589e-06 -1.40494e-07 0.000200595
0.00238672 -5.298e-05 -1.42783e-05
-5.298e-05 0.000850637 -2.35884e-07
-1.42783e-05 -2.35884e-07 0.000834946
0.00128739 -1.17646e-06 7.96417e-06
-1.17646e-06 0.000212595 -4.11469e-08
7.96417e-06 -4.11469e-08 0.000175351
0.004145 1.70402e-05 4.50084e-05
1.70402e-05 0.00171539 4.87802e-07
4.50084e-05 4.87802e-07 0.00170787
0.000737647 -2.35364e-06 8.55817e-06
-2.35364e-06 -9.28813e-05 7.76286e-07
8.55817e-06 7.76286e-07 -0.000134479
0.00200769 -3.70184e-05 2.46462e-05
-3.70184e-05 0.0005663 2.37501e-06
2.46462e-05 2.37501e-06 0.000531583
0.00115332 -1.33183e-07 5.07896e-06
-1.33183e-07 -2.69882e-06 1.44746e-06
5.07896e-06 1.44746e-06 -6.88997e-05
0.00190632 5.05279e-06 1.96487e-05
5.05279e-06 0.000530147 2.42253e-06
1.96487e-05 2.42253e-06 0.000495908
0.00112755 1.98603e-05 4.22076e-06
1.98603e-05 1.40177e-05 1.64352e-06
4.22076e-06 1.64352e-06 -5.04028e-05
0.00149898 1.83635e-05 -4.30609e-05
1.83635e-05 0.00038969 9.09568e-07
-4.30609e-05 9.09568e-07 0.000369763
0.00136791 4.53751e-05 -6.71536e-06
4.53751e-05 0.000336445 1.52911e-06
-6.71536e-06 1.52911e-06 0.000312955
0.00106028 3.6629e-05 -5.92033e-06
3.6629e-05 0.000128044 1.58681e-06
-5.92033e-06 1.58681e-06 0.000123804
0.00128497 4.19747e-05 -6.92669e-06
4.19747e-05 0.000292399 1.67871e-06
-6.92669e-06 1.67871e-06 0.000271098
0.00136275 1.91303e-06 -2.01438e-05
1.91303e-06 0.000253731 2.91459e-06
-2.01438e-05 2.91459e-06 0.000216054
0.00126501 7.86857e-06 -1.64799e-05
7.86857e-06 0.000219773 3.20937e-06
-1.64799e-05 3.20937e-06 0.000185278
0.00118692 2.01405e-05 -1.3633e-05
2.01405e-05 0.000188295 3.50692e-06
-1.3633e-05 3.50692e-06 0.000159268
0.00152301 -3.26756e-05 -4.80011e-06
-3.26756e-05 0.0002921 2.24254e-06
-4.80011e-06 2.24254e-06 0.000234836
0.0040566 6.78663e-05 -1.75376e-06
6.78663e-05 0.00167702 -2.16384e-07
-1.75376e-06 -2.16384e-07 0.00166794
0.0013541 3.22772e-05 1.77981e-05
3.22772e-05 0.000324542 -6.37158e-07
1.77981e-05 -6.37158e-07 0.000303197
0.0010824 1.67573e-05 -1.06327e-05
1.67573e-05 9.54977e-05 1.28832e-07
-1.06327e-05 1.28832e-07 5.65628e-05
0.00137218 7.96006e-06 -6.45967e-06
7.96006e-06 0.000252566 1.08901e-07
-6.45967e-06 1.08901e-07 0.000214117
0.00192588 3.98524e-05 1.5412e-05
3.98524e-05 0.000550695 -1.91071e-06
1.5412e-05 -1.91071e-06 0.000554541
0.00131889 3.34726e-05 -3.30068e-06
3.34726e-05 0.000254145 4.1389e-07
-3.30068e-06 4.1389e-07 0.000230466
0.00127115 6.32018e-06 -5.20148e-06
6.32018e-06 0.000219326 3.05433e-07
-5.20148e-06 3.05433e-07 0.000182371
0.00150808 -3.15177e-05 -1.74611e-06
-3.15177e-05 0.000219786 4.03394e-07
-1.74611e-06 4.03394e-07 0.000157633
0.00141827 -2.17586e-05 -1.0233e-06
-2.17586e-05 0.000263455 6.24428e-07
-1.0233e-06 6.24428e-07 0.000207985
0.00136954 -3.09166e-05 -5.47599e-07
-3.09166e-05 0.000197538 1.77008e-07
-5.47599e-07 1.77008e-07 0.000139388
0.00112059 -4.55656e-05 1.31994e-08
-4.55656e-05 4.82442e-05 -3.85647e-08
1.31994e-08 -3.85647e-08 -2.11247e-05
0.000720252 5.58226e-06 8.24512e-06
5.58226e-06 -9.53894e-05 -1.52508e-06
8.24512e-06 -1.52508e-06 -0.000136165
0.00134584 2.03915e-05 8.59986e-06
2.03915e-05 0.000238093 -1.81409e-06
8.59986e-06 -1.81409e-06 0.000199806
0.00148537 1.3801e-05 4.51425e-06
1.3801e-05 0.000171914 -9.57013e-07
4.51425e-06 -9.57013e-07 0.000109
0.00139853 -2.29038e-05 3.90099e-06
-2.29038e-05 0.000148032 -1.34932e-06
3.90099e-06 -1.34932e-06 8.52418e-05
0.00129299 -3.05235e-05 3.12773e-06
-3.05235e-05 0.000136759 -1.70062e-06
3.12773e-06 -1.70062e-06 7.60742e-05
0.00159056 -4.2761e-05 1.50508e-06
-4.2761e-05 0.000205156 -7.01418e-07
1.50508e-06 -7.01418e-07 0.000132494
0.00272652 4.58356e-05 2.29341e-05
4.58356e-05 0.000944765 -3.64236e-06
2.29341e-05 -3.64236e-06 0.000954926
0.00114434 -4.34554e-05 1.83744e-06
-4.34554e-05 3.86426e-05 -1.05656e-06
1.83744e-06 -1.05656e-06 -3.03112e-05
0.000751699 3.33779e-05 4.25792e-06
3.33779e-05 -4.2594e-05 -3.47109e-06
4.25792e-06 -3.47109e-06 -6.52614e-05
0.00081837 -8.77599e-06 2.25882e-06
-8.77599e-06 -2.08773e-05 -1.82695e-06
2.25882e-06 -1.82695e-06 -7.67265e-05
0.0011688 -4.86263e-05 1.90153e-06
-4.86263e-05 9.64374e-05 -1.60243e-06
1.90153e-06 -1.60243e-06 2.60264e-05
0.00121222 -5.34759e-05 1.5057e-06
-5.34759e-05 6.6141e-05 -8.27414e-07
1.5057e-06 -8.27414e-07 -7.78861e-06
0.00076882 2.63113e-05 4.45933e-06
2.63113e-05 -5.5354e-05 -3.79744e-06
4.45933e-06 -3.79744e-06 -7.22026e-05
0.000943012 -5.19076e-06 2.71509e-06
-5.19076e-06 1.79674e-05 -2.5756e-06
2.71509e-06 -2.5756e-06 -2.95135e-05
0.00332956 -6.72859e-05 -3.0647e-05
-6.72859e-05 0.00132072 -2.38226e-06
-3.0647e-05 -2.38226e-06 0.00131301
0.00298655 -5.99299e-05 -2.63302e-05
-5.99299e-05 0.00112756 -2.95476e-06
-2.63302e-05 -2.95476e-06 0.00112579
0.000690177 7.0187e-06 -5.72935e-06
7.0187e-06 -6.03014e-05 -3.32989e-06
-5.72935e-06 -3.32989e-06 -9.90198e-05
0.00267963 -4.57001e-05 -2.28101e-05
-4.57001e-05 0.000922828 -3.65827e-06
-2.28101e-05 -3.65827e-06 0.000933082
0.000691806 -3.22985e-05 -4.24198e-06
-3.22985e-05 -6.97551e-05 -3.64989e-06
-4.24198e-06 -3.64989e-06 -9.31332e-05
0.000683764 -1.2996e-05 -5.41854e-06
-1.2996e-05 -6.1532e-05 -3.23098e-06
-5.41854e-06 -3.23098e-06 -9.27005e-05
0.000887277 1.07371e-05 -2.44479e-06
1.07371e-05 8.89462e-06 -1.73574e-06
-2.44479e-06 -1.73574e-06 -4.76303e-05
0.002625 -4.18024e-05 2.77211e-07
-4.18024e-05 0.00088757 -8.99563e-08
2.77211e-07 -8.99563e-08 0.000899551
0.000817132 -2.46025e-05 1.29988e-07
-2.46025e-05 -3.91343e-05 -2.03258e-08
1.29988e-07 -2.03258e-08 -5.32589e-05
0.00125655 1.10032e-05 6.53837e-06
1.10032e-05 0.000212381 6.67843e-08
6.53837e-06 6.67843e-08 0.000175193
0.00119748 -6.46341e-06 5.08028e-06
-6.46341e-06 0.000194993 3.78921e-07
5.08028e-06 3.78921e-07 0.000162928
0.000990036 3.20375e-05 8.69297e-08
3.20375e-05 1.12649e-05 -2.41847e-08
8.69297e-08 -2.41847e-08 -4.85766e-05
0.000798769 -3.11071e-05 -5.02639e-08
-3.11071e-05 -2.78354e-05 -1.56848e-08
-5.02639e-08 -1.56848e-08 -4.72671e-05
0.000917564 2.22942e-05 -9.57718e-08
2.22942e-05 1.42789e-05 2.03957e-08
-9.57718e-08 2.03957e-08 -4.20029e-05
0.00089748 5.17222e-06 -5.79021e-08
5.17222e-06 1.75768e-05 -1.20447e-07
-5.79021e-08 -1.20447e-07 -3.75354e-05
0.000930985 4.02438e-05 -3.98211e-08
4.02438e-05 1.96009e-06 -1.25216e-07
-3.98211e-08 -1.25216e-07 -6.53521e-05
0.000822476 -2.84392e-05 4.4798e-06
-2.84392e-05 -2.633e-05 3.58886e-06
4.4798e-06 3.58886e-06 -4.31475e-05
0.000843494 -2.22053e-05 3.83053e-06
-2.22053e-05 -3.24468e-05 3.79325e-06
3.83053e-06 3.79325e-06 -4.43725e-05
0.000929979 3.43374e-06 2.80503e-06
3.43374e-06 9.87937e-06 2.06794e-06
2.80503e-06 2.06794e-06 -3.62899e-05
0.00104107 2.96052e-05 3.24953e-06
2.96052e-05 1.06869e-05 1.77692e-06
3.24953e-06 1.77692e-06 -5.11678e-05
0.0009734 2.98171e-05 2.76922e-06
2.98171e-05 2.73351e-05 1.74674e-06
2.76922e-06 1.74674e-06 -3.04516e-05
0.00116632 4.68929e-05 1.76249e-06
4.68929e-05 5.34519e-05 1.48161e-06
1.76249e-06 1.48161e-06 -1.71258e-05
0.000925976 3.86763e-06 2.63636e-06
3.86763e-06 2.33371e-05 1.95346e-06
2.63636e-06 1.95346e-06 -2.8135e-05
0.000965554 4.34999e-05 1.20703e-06
4.34999e-05 3.00012e-06 7.2747e-07
1.20703e-06 7.2747e-07 -6.29956e-05
0.00104354 3.79475e-05 1.45388e-06
3.79475e-05 7.21927e-05 6.73689e-07
1.45388e-06 6.73689e-07 3.62744e-06
0.00110872 5.31601e-05 1.96779e-08
5.31601e-05 8.40934e-05 -6.68953e-08
1.96779e-08 -6.68953e-08 1.11936e-05
0.00250525 -3.05524e-05 1.91324e-05
-3.05524e-05 0.000807767 4.1871e-06
1.91324e-05 4.1871e-06 0.000824327
0.00256773 -3.43732e-05 3.56641e-07
-3.43732e-05 0.000844129 -7.30835e-08
3.56641e-07 -7.30835e-08 0.000859333
0.00263408 -3.82833e-05 -2.12408e-05
-3.82833e-05 0.000882969 -3.97939e-06
-2.12408e-05 -3.97939e-06 0.000896729
0.00079598 2.35162e-05 3.90523e-06
2.35162e-05 -4.91613e-05 -3.87412e-06
3.90523e-06 -3.87412e-06 -6.33527e-05
0.00270844 4.20619e-05 2.23204e-05
4.20619e-05 0.000927713 -3.82245e-06
2.23204e-05 -3.82245e-06 0.000939569
0.00349352 -6.92989e-05 -3.35428e-05
-6.92989e-05 0.00140708 -1.99128e-06
-3.35428e-05 -1.99128e-06 0.00139796
0.00377268 -6.83663e-05 -3.86117e-05
-6.83663e-05 0.00154439 -1.12445e-06
-3.86117e-05 -1.12445e-06 0.00153482
0.000702816 1.13816e-05 -6.99461e-06
1.13816e-05 -8.14945e-05 -2.96729e-06
-6.99461e-06 -2.96729e-06 -0.000121836
0.000717292 7.82178e-06 -7.89914e-06
7.82178e-06 -9.29735e-05 -2.10473e-06
-7.89914e-06 -2.10473e-06 -0.000133908
0.00409456 -4.50086e-05 -4.48175e-05
-4.50086e-05 0.0016923 -1.74227e-07
-4.48175e-05 -1.74227e-07 0.00168439
0.0041615 1.61201e-05 -9.97009e-07
1.61201e-05 0.00172441 2.26112e-07
-9.97009e-07 2.26112e-07 0.00171633
0.000730769 -1.15905e-06 3.86912e-08
-1.15905e-06 -9.64094e-05 -1.925e-07
3.86912e-08 -1.925e-07 -0.000137896
0.00132727 -1.14833e-05 8.87645e-06
-1.14833e-05 0.000224824 -4.65203e-08
8.87645e-06 -4.65203e-08 0.000187518
0.00116384 2.71353e-06 1.27082e-07
2.71353e-06 2.56338e-06 -5.76761e-09
1.27082e-07 -5.76761e-09 -6.35728e-05
0.000699916 1.3531e-05 3.71498e-08
1.3531e-05 -7.5276e-05 -1.26462e-07
3.71498e-08 -1.26462e-07 -0.000116015
0.00113372 2.03418e-05 7.23322e-08
2.03418e-05 1.74447e-05 -8.38249e-08
7.23322e-08 -8.38249e-08 -4.69745e-05
0.000708419 -1.46759e-06 8.55603e-06
-1.46759e-06 -0.000108811 -4.94841e-07
8.55603e-06 -4.94841e-07 -0.000150198
0.00117881 -1.60216e-06 5.3692e-06
-1.60216e-06 -2.97178e-06 6.57924e-07
5.3692e-06 6.57924e-07 -7.07181e-05
0.00114303 1.02389e-05 4.65559e-06
1.02389e-05 6.83047e-06 1.55213e-06
4.65559e-06 1.55213e-06 -5.811e-05
0.00134588 -1.30952e-07 2.95085e-06
-1.30952e-07 3.68666e-05 9.15515e-07
2.95085e-06 9.15515e-07 -3.99224e-05
0.00108813 2.53355e-05 3.66297e-06
2.53355e-05 1.19935e-05 1.77183e-06
3.66297e-06 1.77183e-06 -5.14217e-05
0.00130322 2.26224e-05 2.27677e-06
2.26224e-05 4.67142e-05 8.6857e-07
2.27677e-06 8.6857e-07 -2.66045e-05
0.00412019 6.43799e-05 -4.97e-05
6.43799e-05 0.00170706 -3.03717e-07
-4.97e-05 -3.03717e-07 0.00169824
0.00135488 4.30652e-05 -6.9682e-06
4.30652e-05 0.000327961 1.24912e-06
-6.9682e-06 1.24912e-06 0.000305417
0.000191584 5.37221e-06 -9.93551e-06
5.37221e-06 -0.00035399 2.26712e-06
-9.93551e-06 2.26712e-06 -0.000398069
0.0013983 4.27908e-06 -2.16316e-05
4.27908e-06 0.000263264 2.4937e-06
-2.16316e-05 2.4937e-06 0.000225553
0.00264711 5.32082e-05 -9.26841e-06
5.32082e-05 0.000918495 1.42608e-06
-9.26841e-06 1.42608e-06 0.000925948
0.00159408 4.076e-05 -1.24324e-05
4.076e-05 0.000391395 3.50574e-06
-1.24324e-05 3.50574e-06 0.0003689
0.0013113 3.68897e-06 -1.82373e-05
3.68897e-06 0.000237024 3.0844e-06
-1.82373e-05 3.0844e-06 0.000200709
0.00135408 -2.93929e-05 -6.15606e-06
-2.93929e-05 0.000141973 2.26687e-06
-6.15606e-06 2.26687e-06 7.91072e-05
0.00154254 -3.43066e-05 -4.13494e-06
-3.43066e-05 0.000282917 1.80883e-06
-4.13494e-06 1.80883e-06 0.000225221
0.00150006 -2.5747e-05 -4.45683e-06
-2.5747e-05 0.000301494 2.51565e-06
-4.45683e-06 2.51565e-06 0.000245529
0.00111325 -4.51369e-05 -1.73228e-06
-4.51369e-05 4.5033e-05 1.09266e-06
-1.73228e-06 1.09266e-06 -2.42586e-05
0.000732845 6.1865e-06 -1.39213e-07
6.1865e-06 -8.93482e-05 -1.36707e-07
-1.39213e-07 -1.36707e-07 -0.000130241
0.00138636 1.63139e-05 -6.77582e-06
1.63139e-05 0.000255918 8.4508e-08
-6.77582e-06 8.4508e-08 0.000218354
0.00118947 1.1764e-05 -1.07558e-06
1.1764e-05 2.36359e-05 1.00381e-07
-1.07558e-06 1.00381e-07 -4.09499e-05
0.00154296 -2.39511e-05 -1.01177e-06
-2.39511e-05 0.00021987 7.06804e-08
-1.01177e-06 7.06804e-08 0.000157645
0.00268091 4.56149e-05 -2.22089e-07
4.56149e-05 0.000923608 -8.94452e-08
-2.22089e-07 -8.94452e-08 0.000933603
0.00117696 3.90091e-05 9.11142e-07
3.90091e-05 0.000172506 4.57136e-08
9.11142e-07 4.57136e-08 0.000151523
0.00112872 -8.52957e-06 1.02224e-07
-8.52957e-06 0.000132073 -2.69729e-08
1.02224e-07 -2.69729e-08 7.74562e-05
0.00129886 -3.09946e-05 -7.29962e-07
-3.09946e-05 0.000139665 1.11881e-07
-7.29962e-07 1.11881e-07 7.90727e-05
0.00134518 -3.95901e-05 -7.60716e-07
-3.95901e-05 8.25663e-05 3.47562e-07
-7.60716e-07 3.47562e-07 9.06417e-06
0.00102339 -4.52237e-05 -1.49865e-07
-4.52237e-05 2.64755e-05 -1.20504e-07
-1.49865e-07 -1.20504e-07 -4.41326e-05
0.00129684 -4.53125e-05 4.9698e-08
-4.53125e-05 0.00011345 9.42876e-08
4.9698e-08 9.42876e-08 4.49339e-05
0.0012017 -5.31416e-05 1.15413e-07
-5.31416e-05 6.15105e-05 1.60935e-08
1.15413e-07 1.60935e-08 -1.23045e-05
0.000790227 2.73728e-05 -1.01175e-07
2.73728e-05 -4.34621e-05 -4.43443e-08
-1.01175e-07 -4.43443e-08 -6.06159e-05
0.000931508 -4.67811e-06 -1.63454e-07
-4.67811e-06 1.16376e-05 -5.49917e-08
-1.63454e-07 -5.49917e-08 -3.56607e-05
0.00117522 6.33533e-06 5.21726e-06
6.33533e-06 3.20489e-06 -8.1027e-07
5.21726e-06 -8.1027e-07 -6.29725e-05
0.00142676 -3.5523e-07 4.19495e-06
-3.5523e-07 0.000151867 -1.15574e-06
4.19495e-06 -1.15574e-06 8.97027e-05
0.00165704 8.70649e-06 2.33122e-06
8.70649e-06 0.000200439 -2.00036e-07
2.33122e-06 -2.00036e-07 0.00012671
0.00114283 -2.66045e-05 3.02472e-06
-2.66045e-05 -3.97047e-05 -8.81724e-07
3.02472e-06 -8.81724e-07 -0.000114572
0.00130089 -4.36224e-05 1.51357e-06
-4.36224e-05 9.48231e-05 -1.09323e-06
1.51357e-06 -1.09323e-06 2.50142e-05
0.00155921 -4.2946e-05 9.31108e-07
-4.2946e-05 0.000157492 -5.20802e-07
9.31108e-07 -5.20802e-07 8.20368e-05
0.000733237 2.97572e-05 4.51865e-06
2.97572e-05 -6.24245e-05 -3.60705e-06
4.51865e-06 -3.60705e-06 -8.20147e-05
0.00124525 -4.97396e-05 1.14451e-06
-4.97396e-05 5.74685e-05 -7.88457e-07
1.14451e-06 -7.88457e-07 -1.4691e-05
0.000867555 -2.88092e-06 2.5096e-06
-2.88092e-06 2.64517e-06 -1.75373e-06
2.5096e-06 -1.75373e-06 -5.13935e-05
0.000789317 -3.78583e-05 1.74737e-06
-3.78583e-05 -6.49666e-05 -1.75287e-06
1.74737e-06 -1.75287e-06 -0.000134293
0.00150704 -6.40906e-05 1.07893e-06
-6.40906e-05 0.000241834 -1.13408e-06
1.07893e-06 -1.13408e-06 0.000165125
0.00133823 -5.80332e-05 9.79608e-07
-5.80332e-05 0.00011103 -4.78679e-08
9.79608e-07 -4.78679e-08 3.73253e-05
0.000921969 -5.43478e-06 3.1112e-06
-5.43478e-06 1.30323e-05 -2.21005e-06
3.1112e-06 -2.21005e-06 -3.71029e-05
0.000935924 2.25857e-06 1.89144e-06
2.25857e-06 1.10453e-05 -2.60181e-06
1.89144e-06 -2.60181e-06 -3.20262e-05
0.00102128 -2.77667e-05 1.52204e-06
-2.77667e-05 5.3446e-05 -1.17154e-06
1.52204e-06 -1.17154e-06 -1.35768e-05
0.000702627 1.53302e-05 -6.22622e-06
1.53302e-05 -6.29313e-05 -3.30936e-06
-6.22622e-06 -3.30936e-06 -0.000103629
0.00266213 -4.19996e-05 -2.22374e-05
-4.19996e-05 0.000904732 -3.84228e-06
-2.22374e-05 -3.84228e-06 0.000916841
0.000803492 -2.39964e-05 -4.1144e-06
-2.39964e-05 -4.67638e-05 -3.80708e-06
-4.1144e-06 -3.80708e-06 -6.06512e-05
0.000674926 -3.81276e-06 -5.44446e-06
-3.81276e-06 -6.33851e-05 -3.1919e-06
-5.44446e-06 -3.1919e-06 -9.85557e-05
0.000978217 3.25202e-05 -2.87122e-06
3.25202e-05 5.11282e-06 -1.91215e-06
-2.87122e-06 -1.91215e-06 -5.46039e-05
0.000731503 -2.96382e-05 -4.61573e-06
-2.96382e-05 -6.14082e-05 -3.60622e-06
-4.61573e-06 -3.60622e-06 -8.0699e-05
0.000881909 2.25786e-06 -2.37769e-06
2.25786e-06 1.16343e-05 -2.05689e-06
-2.37769e-06 -2.05689e-06 -4.37034e-05
0.00089846 2.11033e-05 -2.57676e-06
2.11033e-05 5.06074e-06 -1.28491e-06
-2.57676e-06 -1.28491e-06 -5.11998e-05
0.00089798 3.96693e-05 -1.57488e-06
3.96693e-05 -1.53408e-05 -6.78012e-07
-1.57488e-06 -6.78012e-07 -8.28016e-05
0.000799137 -2.76321e-05 8.69091e-08
-2.76321e-05 -3.87671e-05 -3.8506e-08
8.69091e-08 -3.8506e-08 -5.53448e-05
0.000831569 -2.1738e-05 1.31495e-07
-2.1738e-05 -3.89266e-05 2.87341e-09
1.31495e-07 2.87341e-09 -5.06444e-05
0.000930342 2.75121e-06 7.44499e-08
2.75121e-06 1.07058e-05 -2.83727e-08
7.44499e-08 -2.83727e-08 -3.5585e-05
0.00104464 3.03133e-05 1.32639e-07
3.03133e-05 1.22153e-05 -3.35099e-09
1.32639e-07 -3.35099e-09 -4.95628e-05
0.000945273 2.91581e-05 -1.14863e-09
2.91581e-05 1.36092e-05 5.39241e-08
-1.14863e-09 5.39241e-08 -4.40487e-05
0.0011545 4.69792e-05 9.48656e-08
4.69792e-05 4.81014e-05 3.96077e-08
9.48656e-08 3.96077e-08 -2.25128e-05
0.000911274 2.3334e-06 -1.69184e-07
2.3334e-06 1.80185e-05 3.06114e-08
-1.69184e-07 3.06114e-08 -3.36748e-05
0.00104157 4.54789e-05 -2.84418e-08
4.54789e-05 4.11324e-05 -5.00751e-08
-2.84418e-08 -5.00751e-08 -2.45614e-05
0.00102984 3.79233e-05 8.84391e-08
3.79233e-05 6.56261e-05 -1.80872e-07
8.84391e-08 -1.80872e-07 -2.99956e-06
0.00102197 5.14201e-05 -5.2067e-07
5.14201e-05 4.06665e-05 1.98399e-07
-5.2067e-07 1.98399e-07 -3.25988e-05
0.00085542 -1.9507e-05 3.35753e-06
-1.9507e-05 -3.17077e-05 3.76474e-06
3.35753e-06 3.76474e-06 -4.1277e-05
0.000928189 3.47994e-06 2.87857e-06
3.47994e-06 1.50493e-05 1.8474e-06
2.87857e-06 1.8474e-06 -3.34549e-05
0.000931037 1.40817e-06 2.53915e-06
1.40817e-06 6.53789e-06 2.30367e-06
2.53915e-06 2.30367e-06 -3.68034e-05
0.0010306 1.90874e-05 1.50147e-06
1.90874e-05 5.7388e-05 7.75736e-07
1.50147e-06 7.75736e-07 -6.87491e-06
0.00119083 3.94354e-05 2.19171e-06
3.94354e-05 3.58133e-05 1.32023e-06
2.19171e-06 1.32023e-06 -3.60629e-05
0.00112568 4.88291e-05 1.45357e-06
4.88291e-05 6.38994e-05 1.43975e-06
1.45357e-06 1.43975e-06 -3.9364e-06
0.00123445 5.23452e-05 1.01943e-06
5.23452e-05 6.24694e-05 1.61324e-06
1.01943e-06 1.61324e-06 -1.35522e-05
0.00105406 3.15072e-05 1.38498e-06
3.15072e-05 7.73456e-05 9.60159e-07
1.38498e-06 9.60159e-07 1.05305e-05
0.00112699 5.36153e-05 3.34979e-07
5.36153e-05 7.03622e-05 6.93705e-07
3.34979e-07 6.93705e-07 -4.76257e-07
0.00106804 5.18248e-05 7.93633e-07
5.18248e-05 8.28745e-05 -1.79063e-08
7.93633e-07 -1.79063e-08 5.23836e-06
0.000967472 5.19703e-05 3.44624e-07
5.19703e-05 3.83014e-06 1.08545e-07
3.44624e-07 1.08545e-07 -7.27137e-05
0.000937493 -4.657e-06 8.82144e-07
-4.657e-06 1.8941e-06 2.0921e-06
8.82144e-07 2.0921e-06 -2.94949e-05
0.000868351 -1.49779e-05 2.35995e-06
-1.49779e-05 -3.30388e-05 3.58089e-06
2.35995e-06 3.58089e-06 -3.82845e-05
0.00245266 -2.69595e-05 1.74692e-05
-2.69595e-05 0.000776345 4.20816e-06
1.74692e-05 4.20816e-06 0.000794319
0.00251713 -3.06946e-05 4.3224e-07
-3.06946e-05 0.000813197 -6.45772e-08
4.3224e-07 -6.45772e-08 0.000829874
0.00258875 -3.45396e-05 -1.99285e-05
-3.45396e-05 0.000853937 -4.06012e-06
-1.99285e-05 -4.06012e-06 0.000869245
0.000816218 2.14788e-05 3.29359e-06
2.14788e-05 -4.43839e-05 -3.71899e-06
3.29359e-06 -3.71899e-06 -5.56373e-05
0.00264053 3.83165e-05 2.08617e-05
3.83165e-05 0.000887678 -3.89801e-06
2.08617e-05 -3.89801e-06 0.000901206
0.000809486 2.42507e-05 -2.16623e-07
2.42507e-05 -4.14266e-05 -1.74224e-08
-2.16623e-07 -1.74224e-08 -5.5912e-05
0.00267147 4.18623e-05 -2.54205e-07
4.18623e-05 0.000910337 -8.88586e-08
-2.54205e-07 -8.88586e-08 0.000922089
0.000698445 1.74258e-05 -6.61e-06
1.74258e-05 -7.45082e-05 -3.18479e-06
-6.61e-06 -3.18479e-06 -0.000115403
0.000711077 1.28211e-05 -7.41798e-06
1.28211e-05 -8.59234e-05 -2.63472e-06
-7.41798e-06 -2.63472e-06 -0.000126321
0.00113174 1.94423e-05 -4.12705e-06
1.94423e-05 1.6927e-05 -1.83351e-06
-4.12705e-06 -1.83351e-06 -4.74887e-05
0.00117586 3.73266e-06 -4.93072e-06
3.73266e-06 8.61528e-06 -1.4041e-06
-4.93072e-06 -1.4041e-06 -5.74687e-05
0.000720596 2.56468e-06 -8.43127e-06
2.56468e-06 -0.000101376 -1.19117e-06
-8.43127e-06 -1.19117e-06 -0.000142833
0.00418398 3.04344e-05 -4.81783e-05
3.04344e-05 0.00173621 3.20015e-07
-4.81783e-05 3.20015e-07 0.00172726
0.00072796 2.9928e-07 -1.90295e-08
2.9928e-07 -9.95947e-05 -2.03439e-07
-1.90295e-08 -2.03439e-07 -0.000141042
0.00119011 1.49047e-06 3.25696e-08
1.49047e-06 2.47817e-06 -2.50683e-07
3.25696e-08 -2.50683e-07 -6.51837e-05
0.00114645 9.11037e-06 2.6882e-08
9.11037e-06 8.91732e-06 -2.32446e-08
2.6882e-08 -2.32446e-08 -5.60287e-05
0.00137482 -1.07433e-06 7.28349e-08
-1.07433e-06 5.08558e-05 5.75256e-09
7.28349e-08 5.75256e-09 -2.59456e-05
0.0010952 2.63057e-05 1.42473e-07
2.63057e-05 1.58907e-05 -2.08243e-08
1.42473e-07 -2.08243e-08 -4.75302e-05
0.00131466 2.45254e-05 1.84562e-08
2.45254e-05 5.22229e-05 -2.07265e-09
1.84562e-08 -2.07265e-09 -2.11334e-05
0.00118731 6.55603e-07 5.42009e-06
6.55603e-07 -6.28496e-08 -4.1377e-07
5.42009e-06 -4.1377e-07 -6.75912e-05
0.0013813 2.84611e-06 3.11083e-06
2.84611e-06 4.18966e-05 4.85254e-07
3.11083e-06 4.85254e-07 -3.71659e-05
0.00133663 1.1777e-05 2.68038e-06
1.1777e-05 4.61094e-05 8.87032e-07
2.68038e-06 8.87032e-07 -2.8514e-05
0.00147501 -6.06098e-06 1.91314e-06
-6.06098e-06 7.41069e-05 5.8183e-07
1.91314e-06 5.8183e-07 -4.58458e-06
0.0012582 3.26967e-05 1.95321e-06
3.26967e-05 4.48687e-05 8.9438e-07
1.95321e-06 8.9438e-07 -2.769e-05
0.00138819 2.58567e-05 1.30677e-06
2.58567e-05 5.80228e-05 7.39708e-07
1.30677e-06 7.39708e-07 -1.72344e-05
0.000746617 9.56691e-06 -8.33794e-06
9.56691e-06 -8.24816e-05 1.22323e-06
-8.33794e-06 1.22323e-06 -0.000123677
0.00142367 1.45527e-05 -2.2603e-05
1.45527e-05 0.000272321 1.94051e-06
-2.2603e-05 1.94051e-06 0.000235348
0.000885597 1.0775e-05 -5.59714e-06
1.0775e-05 -0.000128784 1.07133e-06
-5.59714e-06 1.07133e-06 -0.000195063
0.00169814 -2.47412e-05 -6.05661e-06
-2.47412e-05 0.000297157 1.72268e-06
-6.05661e-06 1.72268e-06 0.000235479
0.00263481 4.53288e-05 -2.24938e-05
4.53288e-05 0.000902173 3.58779e-06
-2.24938e-05 3.58779e-06 0.000912012
0.00160075 3.84163e-05 -1.13976e-05
3.84163e-05 0.000386239 3.00048e-06
-1.13976e-05 3.00048e-06 0.000367433
0.00143167 -1.15806e-05 -3.06406e-06
-1.15806e-05 0.000281141 1.91594e-06
-3.06406e-06 1.91594e-06 0.000227928
0.00130944 -3.12508e-05 -4.49141e-06
-3.12508e-05 0.000144961 1.93377e-06
-4.49141e-06 1.93377e-06 8.44512e-05
0.00110191 -3.64311e-05 -3.04057e-06
-3.64311e-05 -3.89552e-05 1.38057e-06
-3.04057e-06 1.38057e-06 -0.000113305
0.00144256 -4.71513e-05 -1.89284e-06
-4.71513e-05 0.000184941 1.13821e-06
-1.89284e-06 1.13821e-06 0.000116867
0.000865368 -4.1454e-05 -1.73996e-06
-4.1454e-05 -4.95318e-05 1.35852e-06
-1.73996e-06 1.35852e-06 -0.000120328
0.00118936 -5.27642e-05 -1.10715e-06
-5.27642e-05 5.6008e-05 8.11817e-07
-1.10715e-06 8.11817e-07 -1.76915e-05
0.000812438 2.83415e-05 -4.28668e-06
2.83415e-05 -3.12333e-05 3.63615e-06
-4.28668e-06 3.63615e-06 -4.86798e-05
0.000922607 -3.96571e-06 -2.85521e-06
-3.96571e-06 6.60764e-06 2.20398e-06
-2.85521e-06 2.20398e-06 -4.04906e-05
0.00104712 1.00797e-05 -1.20269e-07
1.00797e-05 -6.05441e-05 2.41764e-08
-1.20269e-07 2.41764e-08 -0.000127542
0.00143314 -3.48904e-06 -1.05781e-06
-3.48904e-06 0.000154805 1.14496e-07
-1.05781e-06 1.14496e-07 9.2678e-05
0.00154209 1.04882e-05 -8.81619e-07
1.04882e-05 0.000142966 1.57308e-07
-8.81619e-07 1.57308e-07 6.88681e-05
0.00138916 -2.90386e-05 4.01702e-07
-2.90386e-05 8.36864e-05 -3.029e-07
4.01702e-07 -3.029e-07 9.80652e-06
0.000772117 3.08492e-05 7.87016e-09
3.08492e-05 -4.23946e-05 -2.27576e-08
7.87016e-09 -2.27576e-08 -6.22383e-05
0.000898136 -5.5235e-06 1.61594e-07
-5.5235e-06 1.59426e-05 -4.07357e-08
1.61594e-07 -4.07357e-08 -3.78967e-05
0.000883177 -3.98878e-05 4.63545e-07
-3.98878e-05 -1.74547e-05 -2.94045e-07
4.63545e-07 -2.94045e-07 -8.61876e-05
0.00140804 -4.48787e-05 -4.3855e-07
-4.48787e-05 0.000146492 1.1101e-07
-4.3855e-07 1.1101e-07 7.66792e-05
0.00139882 -3.98478e-05 -2.31997e-07
-3.98478e-05 7.76767e-05 4.08242e-07
-2.31997e-07 4.08242e-07 2.29091e-06
0.00127173 -5.88053e-05 -5.16751e-07
-5.88053e-05 0.000126658 1.26625e-07
-5.16751e-07 1.26625e-07 4.92431e-05
0.00124711 -4.96367e-05 7.78676e-08
-4.96367e-05 5.83568e-05 1.37928e-07
7.78676e-08 1.37928e-07 -1.37691e-05
0.00124039 -5.59005e-05 3.36665e-07
-5.59005e-05 6.31754e-05 3.35462e-07
3.36665e-07 3.35462e-07 -1.05695e-05
0.000925689 -5.40324e-06 2.67532e-09
-5.40324e-06 1.36984e-05 -7.08443e-08
2.67532e-09 -7.08443e-08 -3.61794e-05
0.000977073 -2.64653e-05 -7.13037e-08
-2.64653e-05 2.99873e-05 -1.66336e-07
-7.13037e-08 -1.66336e-07 -3.7104e-05
0.000927985 9.73496e-07 -2.14889e-07
9.73496e-07 7.26737e-06 4.00734e-08
-2.14889e-07 4.00734e-08 -3.58891e-05
0.00165581 1.55252e-05 2.5185e-06
1.55252e-05 0.000190125 -2.31331e-07
2.5185e-06 -2.31331e-07 0.000114494
0.00147601 -6.78261e-06 2.88012e-06
-6.78261e-06 0.000115508 -3.1157e-07
2.88012e-06 -3.1157e-07 4.19273e-05
0.00159166 1.32511e-05 2.36764e-06
1.32511e-05 0.000139352 1.33082e-07
2.36764e-06 1.33082e-07 6.03696e-05
0.00140453 -2.3648e-05 1.68529e-06
-2.3648e-05 5.76165e-05 -8.88123e-07
1.68529e-06 -8.88123e-07 -1.92671e-05
0.00112692 -4.48227e-05 1.21209e-06
-4.48227e-05 -2.19711e-05 -1.17298e-06
1.21209e-06 -1.17298e-06 -9.46195e-05
0.00153326 -3.94774e-05 1.61115e-07
-3.94774e-05 0.000124593 -1.93205e-07
1.61115e-07 -1.93205e-07 5.25646e-05
0.000892184 -2.82317e-06 2.88593e-06
-2.82317e-06 7.36208e-06 -1.88607e-06
2.88593e-06 -1.88607e-06 -4.46629e-05
0.00125922 -5.17457e-05 5.70336e-07
-5.17457e-05 4.76261e-05 -6.73655e-07
5.70336e-07 -6.73655e-07 -2.33162e-05
0.00100204 -3.81912e-05 1.24058e-06
-3.81912e-05 4.87154e-05 -7.61131e-07
1.24058e-06 -7.61131e-07 -1.76803e-05
0.000866705 -5.03439e-05 1.57168e-06
-5.03439e-05 -3.82551e-05 -2.10334e-06
1.57168e-06 -2.10334e-06 -0.000116126
0.00136678 -6.41526e-05 1.82497e-06
-6.41526e-05 0.000157687 -5.42927e-07
1.82497e-06 -5.42927e-07 7.62417e-05
0.00157384 -6.36976e-05 1.11896e-07
-6.36976e-05 0.00021744 7.44911e-07
1.11896e-07 7.44911e-07 0.000146936
0.000932545 8.74511e-06 1.32615e-06
8.74511e-06 7.12769e-06 -2.36989e-06
1.32615e-06 -2.36989e-06 -3.1149e-05
0.00101975 -3.30675e-05 1.74544e-06
-3.30675e-05 5.28664e-05 -7.31584e-07
1.74544e-06 -7.31584e-07 -1.3315e-05
0.000852095 -1.78492e-05 1.62417e-06
-1.78492e-05 -3.06621e-05 -2.06283e-06
1.62417e-06 -2.06283e-06 -9.79717e-05
0.00120663 -5.23835e-05 5.06505e-07
-5.23835e-05 0.000148332 1.26914e-07
5.06505e-07 1.26914e-07 7.28203e-05
0.00105114 3.12607e-05 -3.37847e-06
3.12607e-05 1.52214e-05 -1.95601e-06
-3.37847e-06 -1.95601e-06 -4.64987e-05
0.000820987 -2.131e-05 -3.61917e-06
-2.131e-05 -4.47759e-05 -3.80774e-06
-3.61917e-06 -3.80774e-06 -5.6285e-05
0.00077543 -2.67879e-05 -4.51759e-06
-2.67879e-05 -5.14451e-05 -3.71033e-06
-4.51759e-06 -3.71033e-06 -6.77728e-05
0.000930954 2.25687e-06 -2.64833e-06
2.25687e-06 1.16505e-05 -2.28981e-06
-2.64833e-06 -2.28981e-06 -3.47148e-05
0.000918121 2.85205e-05 -2.44703e-06
2.85205e-05 3.35733e-07 -1.57791e-06
-2.44703e-06 -1.57791e-06 -5.71931e-05
0.00113711 4.68495e-05 -1.7197e-06
4.68495e-05 4.00523e-05 -1.45388e-06
-1.7197e-06 -1.45388e-06 -3.05882e-05
0.000894836 5.03273e-07 -2.78006e-06
5.03273e-07 1.19195e-05 -1.92786e-06
-2.78006e-06 -1.92786e-06 -4.00044e-05
0.00101957 3.78576e-05 -1.37199e-06
3.78576e-05 6.07379e-05 -1.04657e-06
-1.37199e-06 -1.04657e-06 -7.95653e-06
0.00112433 4.75969e-05 -1.26094e-06
4.75969e-05 8.24535e-05 -8.07053e-07
-1.26094e-06 -8.07053e-07 1.70675e-05
0.000934579 4.96611e-05 -1.55137e-06
4.96611e-05 -3.01319e-06 -1.9668e-07
-1.55137e-06 -1.9668e-07 -7.66514e-05
0.000843272 -1.91719e-05 1.41595e-07
-1.91719e-05 -3.80554e-05 1.60148e-08
1.41595e-07 1.60148e-08 -4.74482e-05
0.000924787 3.00494e-06 7.95687e-09
3.00494e-06 1.4681e-05 -3.75588e-08
7.95687e-09 -3.75588e-08 -3.40352e-05
0.000929963 1.09422e-07 5.67731e-08
1.09422e-07 6.0525e-06 1.36186e-08
5.67731e-08 1.36186e-08 -3.72448e-05
0.00101412 1.83023e-05 1.19543e-07
1.83023e-05 4.97836e-05 -1.19559e-07
1.19543e-07 -1.19559e-07 -1.45899e-05
0.00121683 4.01888e-05 3.67998e-07
4.01888e-05 4.8099e-05 2.15013e-07
3.67998e-07 2.15013e-07 -2.38409e-05
0.00109357 4.8487e-05 4.68598e-08
4.8487e-05 4.90793e-05 1.49699e-08
4.68598e-08 1.49699e-08 -1.87259e-05
0.00122382 5.21638e-05 -8.74486e-09
5.21638e-05 5.76852e-05 2.16965e-07
-8.74486e-09 2.16965e-07 -1.83472e-05
0.00102912 3.29097e-05 -8.91056e-08
3.29097e-05 6.61409e-05 5.15836e-08
-8.91056e-08 5.15836e-08 -7.12299e-07
0.00122695 5.58392e-05 -3.07197e-07
5.58392e-05 0.000120179 -3.78798e-07
-3.07197e-07 -3.78798e-07 4.97047e-05
0.00108441 5.25795e-05 1.80305e-07
5.25795e-05 9.05437e-05 -3.49426e-07
1.80305e-07 -3.49426e-07 1.26594e-05
0.000995629 5.24779e-05 -1.15409e-06
5.24779e-05 1.99339e-05 2.25204e-08
-1.15409e-06 2.25204e-08 -5.54128e-05
0.000868516 -1.71776e-05 2.84577e-06
-1.71776e-05 -2.9235e-05 3.68666e-06
2.84577e-06 3.68666e-06 -3.65114e-05
0.000928712 -1.58108e-06 2.09792e-06
-1.58108e-06 3.0423e-06 2.39936e-06
2.09792e-06 2.39936e-06 -3.71054e-05
0.00104297 2.70131e-05 1.57283e-06
2.70131e-05 6.54624e-05 6.6804e-07
1.57283e-06 6.6804e-07 5.76318e-07
0.00102267 1.41549e-05 1.25964e-06
1.41549e-05 5.22852e-05 1.14632e-06
1.25964e-06 1.14632e-06 -1.07298e-05
0.0010155 4.07691e-05 9.08627e-07
4.07691e-05 5.31053e-05 8.34369e-08
9.08627e-07 8.34369e-08 -2.11594e-05
0.00124636 4.10872e-05 1.57788e-06
4.10872e-05 3.5384e-05 1.194e-06
1.57788e-06 1.194e-06 -4.06711e-05
0.00116434 5.50502e-05 6.81972e-07
5.50502e-05 6.58142e-05 1.45371e-06
6.81972e-07 1.45371e-06 -7.51372e-06
0.00127999 5.57373e-05 3.24628e-07
5.57373e-05 7.56792e-05 1.67881e-06
3.24628e-07 1.67881e-06 -2.92861e-06
0.0010852 4.92961e-05 1.42201e-06
4.92961e-05 9.47129e-05 1.42024e-06
1.42201e-06 1.42024e-06 1.78093e-05
0.00116927 5.74411e-05 1.219e-06
5.74411e-05 8.38258e-05 8.17982e-07
1.219e-06 8.17982e-07 9.15141e-06
0.00080166 4.9187e-05 1.10736e-06
4.9187e-05 -5.88416e-05 -1.80875e-07
1.10736e-06 -1.80875e-07 -0.000144477
0.000932233 -4.92279e-06 1.21001e-06
-4.92279e-06 1.12597e-06 2.3026e-06
1.21001e-06 2.3026e-06 -3.27583e-05
0.0010087 1.24332e-05 4.14665e-07
1.24332e-05 4.52194e-05 1.30444e-06
4.14665e-07 1.30444e-06 -5.62599e-06
0.000940213 -9.61585e-07 7.73146e-07
-9.61585e-07 2.33969e-06 1.94235e-06
7.73146e-07 1.94235e-06 -2.72525e-05
0.000942241 -2.36313e-06 1.22407e-07
-2.36313e-06 4.4923e-06 2.22839e-08
1.22407e-07 2.22839e-08 -2.69051e-05
0.00148442 -1.62223e-05 2.26843e-06
-1.62223e-05 0.000275669 2.13057e-06
2.26843e-06 2.13057e-06 0.00027536
0.00117976 -1.65592e-05 6.37165e-07
-1.65592e-05 0.000124846 5.12191e-09
6.37165e-07 5.12191e-09 0.000121301
0.00115472 -1.65955e-05 1.4764e-05
-1.65955e-05 0.000113607 6.86998e-06
1.4764e-05 6.86998e-06 0.000126717
0.00245452 -2.70966e-05 5.30853e-07
-2.70966e-05 0.00077683 -5.52318e-08
5.30853e-07 -5.52318e-08 0.000794946
0.00252715 -3.0853e-05 -1.82572e-05
-3.0853e-05 0.000817708 -4.08942e-06
-1.82572e-05 -4.08942e-06 0.000834505
0.000831239 1.99327e-05 2.70944e-06
1.99327e-05 -4.12183e-05 -3.5291e-06
2.70944e-06 -3.5291e-06 -4.96315e-05
0.00254477 3.46265e-05 1.90675e-05
3.46265e-05 0.000834287 -3.89989e-06
1.90675e-05 -3.89989e-06 0.000849564
0.000828493 2.18923e-05 -1.67109e-07
2.18923e-05 -3.77772e-05 3.06273e-08
-1.67109e-07 3.06273e-08 -4.92839e-05
0.00262744 3.80972e-05 -3.26319e-07
3.80972e-05 0.000881722 -8.27154e-08
-3.26319e-07 -8.27154e-08 0.000895107
0.000824495 2.5061e-05 -4.05664e-06
2.5061e-05 -3.30176e-05 3.78997e-06
-4.05664e-06 3.78997e-06 -4.77936e-05
0.0026382 4.17564e-05 -2.21681e-05
4.17564e-05 0.000894831 3.78274e-06
-2.21681e-05 3.78274e-06 0.000906458
0.00110848 2.72771e-05 -3.77517e-06
2.72771e-05 2.28129e-05 -1.95702e-06
-3.77517e-06 -1.95702e-06 -4.06144e-05
0.00115386 1.0988e-05 -4.46579e-06
1.0988e-05 1.28336e-05 -1.54708e-06
-4.46579e-06 -1.54708e-06 -5.20959e-05
0.00132146 2.23562e-05 -2.26604e-06
2.23562e-05 5.56655e-05 -9.00619e-07
-2.26604e-06 -9.00619e-07 -1.76921e-05
0.00140388 -1.6521e-06 -3.01447e-06
-1.6521e-06 6.48882e-05 -8.97338e-07
-3.01447e-06 -8.97338e-07 -1.19204e-05
0.00119638 3.94197e-06 -5.40881e-06
3.94197e-06 5.56574e-06 -1.08243e-06
-5.40881e-06 -1.08243e-06 -6.20545e-05
0.000741142 5.84532e-07 -8.63033e-06
5.84532e-07 -9.31964e-05 6.96401e-08
-8.63033e-06 6.96401e-08 -0.000134703
0.00119149 2.6139e-06 -2.79975e-08
2.6139e-06 1.70628e-06 -2.63684e-07
-2.79975e-08 -2.63684e-07 -6.58871e-05
0.0013988 4.0927e-06 -5.37018e-09
4.0927e-06 5.04552e-05 -1.7281e-07
-5.37018e-09 -1.7281e-07 -2.85996e-05
0.0013467 8.06941e-06 9.55872e-08
8.06941e-06 5.1253e-05 1.04776e-09
9.55872e-08 1.04776e-09 -2.33247e-05
0.00147529 -6.8534e-06 -1.37565e-09
-6.8534e-06 7.28783e-05 5.66277e-08
-1.37565e-09 5.66277e-08 -5.92141e-06
0.00126736 3.28349e-05 -4.18303e-08
3.28349e-05 4.92033e-05 -2.26556e-08
-4.18303e-08 -2.26556e-08 -2.34119e-05
0.00139938 2.52591e-05 -1.10978e-08
2.52591e-05 6.3779e-05 1.21106e-07
-1.10978e-08 1.21106e-07 -1.15105e-05
0.00139788 7.01112e-06 3.46235e-06
7.01112e-06 4.94024e-05 -4.69887e-07
3.46235e-06 -4.69887e-07 -2.98105e-05
0.00141948 -9.58795e-07 1.94896e-06
-9.58795e-07 3.8959e-05 6.89311e-07
1.94896e-06 6.89311e-07 -4.23888e-05
0.00141188 1.0911e-05 1.7231e-06
1.0911e-05 5.22136e-05 5.72708e-07
1.7231e-06 5.72708e-07 -2.45116e-05
0.00160908 -1.27792e-05 2.28086e-06
-1.27792e-05 0.000121572 4.69463e-07
2.28086e-06 4.69463e-07 4.46002e-05
0.00133741 3.16709e-05 9.95885e-07
3.16709e-05 5.48287e-05 5.08128e-07
9.95885e-07 5.08128e-07 -2.02744e-05
0.00145489 1.68515e-05 -6.27266e-07
1.68515e-05 7.08435e-05 9.7419e-07
-6.27266e-07 9.7419e-07 1.39007e-06
0.000921966 1.16455e-05 -5.24692e-06
1.16455e-05 -0.000122732 8.04106e-07
-5.24692e-06 8.04106e-07 -0.000190573
0.00143713 -8.60858e-06 -6.3451e-06
-8.60858e-06 0.000156318 1.36649e-06
-6.3451e-06 1.36649e-06 9.43167e-05
0.00143196 1.58716e-05 -4.13558e-06
1.58716e-05 8.80404e-05 4.87746e-07
-4.13558e-06 4.87746e-07 1.35184e-05
0.00163409 -3.1515e-05 -2.45535e-06
-3.1515e-05 0.000206386 3.73507e-07
-2.45535e-06 3.73507e-07 0.000133494
0.000810873 3.18523e-05 -4.18003e-06
3.18523e-05 -2.24556e-05 3.45731e-06
-4.18003e-06 3.45731e-06 -4.25431e-05
0.000929478 -7.96379e-06 -2.59161e-06
-7.96379e-06 2.96468e-05 1.78444e-06
-2.59161e-06 1.78444e-06 -2.39994e-05
0.000993275 -4.23641e-05 -9.5148e-07
-4.23641e-05 3.78319e-05 1.04641e-06
-9.5148e-07 1.04641e-06 -3.0319e-05
0.00151931 -4.61585e-05 -2.36927e-06
-4.61585e-05 0.000200157 1.26478e-06
-2.36927e-06 1.26478e-06 0.00013034
0.00123834 -3.67809e-05 -1.59957e-06
-3.67809e-05 -2.19785e-06 1.26083e-06
-1.59957e-06 1.26083e-06 -7.75155e-05
0.0012483 -4.9525e-05 -1.03599e-06
-4.9525e-05 5.89251e-05 1.07728e-06
-1.03599e-06 1.07728e-06 -1.3167e-05
0.00103761 -5.35727e-05 -1.74796e-06
-5.35727e-05 1.20426e-05 1.43972e-06
-1.74796e-06 1.43972e-06 -6.60805e-05
0.00113232 -5.35688e-05 -4.63258e-07
-5.35688e-05 1.03808e-05 4.35244e-07
-4.63258e-07 4.35244e-07 -6.33979e-05
0.000928081 -5.44018e-06 -2.9492e-06
-5.44018e-06 1.37334e-05 1.91963e-06
-2.9492e-06 1.91963e-06 -3.58908e-05
0.000933065 -2.51818e-05 -1.78511e-06
-2.51818e-05 6.57555e-06 8.70049e-07
-1.78511e-06 8.70049e-07 -6.05749e-05
0.000921112 -8.90558e-08 -2.36948e-06
-8.90558e-08 4.00647e-06 2.4535e-06
-2.36948e-06 2.4535e-06 -3.92329e-05
0.00151396 1.58646e-05 -9.01693e-07
1.58646e-05 0.000118886 3.05354e-07
-9.01693e-07 3.05354e-07 4.22498e-05
0.00146845 -1.22132e-05 -3.7119e-07
-1.22132e-05 0.00011091 1.69479e-08
-3.7119e-07 1.69479e-08 3.74993e-05
0.00147296 1.54896e-05 -4.13897e-07
1.54896e-05 7.98105e-05 1.30674e-07
-4.13897e-07 1.30674e-07 2.50262e-07
0.0015031 -2.25283e-05 2.97734e-09
-2.25283e-05 0.000105616 -3.19367e-07
2.97734e-09 -3.19367e-07 2.89807e-05
0.00091177 -4.05276e-06 1.02215e-07
-4.05276e-06 1.52539e-05 -6.49874e-08
1.02215e-07 -6.49874e-08 -3.64978e-05
0.00103522 -3.91611e-05 4.25987e-08
-3.91611e-05 6.39356e-05 8.2725e-08
4.25987e-08 8.2725e-08 -2.47284e-06
0.000961843 -5.22103e-05 2.92836e-07
-5.22103e-05 1.07612e-05 -3.96736e-07
2.92836e-07 -3.96736e-07 -6.65023e-05
0.00130815 -4.74329e-05 -4.62778e-08
-4.74329e-05 6.76641e-05 -1.98407e-07
-4.62778e-08 -1.98407e-07 -4.91517e-06
0.00141485 -3.81163e-05 3.26118e-07
-3.81163e-05 6.58808e-05 7.33984e-07
3.26118e-07 7.33984e-07 -5.21794e-06
0.00120551 -6.09075e-05 5.92002e-08
-6.09075e-05 8.01817e-05 1.18127e-07
5.92002e-08 1.18127e-07 -2.29442e-06
0.0012695 -5.13401e-05 3.87489e-08
-5.13401e-05 5.25171e-05 2.33492e-07
3.87489e-08 2.33492e-07 -1.83233e-05
0.00141984 -6.03635e-05 5.65246e-07
-6.03635e-05 0.000141746 3.93524e-07
5.65246e-07 3.93524e-07 7.20758e-05
0.00103546 -3.33701e-05 8.29588e-08
-3.33701e-05 5.98124e-05 -9.17058e-08
8.29588e-08 -9.17058e-08 -6.18177e-06
0.00111945 -5.01621e-05 -3.49851e-07
-5.01621e-05 0.000103746 2.06536e-07
-3.49851e-07 2.06536e-07 2.78824e-05
0.000922494 7.4707e-06 -1.37513e-07
7.4707e-06 2.59568e-06 8.40276e-08
-1.37513e-07 8.40276e-08 -3.58112e-05
0.000882266 -1.63771e-05 2.74282e-07
-1.63771e-05 -1.62459e-05 -5.19551e-07
2.74282e-07 -5.19551e-07 -8.30124e-05
0.00149211 1.61907e-05 2.82171e-06
1.61907e-05 8.42718e-05 -1.17684e-07
2.82171e-06 -1.17684e-07 2.73151e-06
0.00160134 -4.84464e-06 2.20855e-06
-4.84464e-06 0.000141043 3.31906e-08
2.20855e-06 3.31906e-08 6.31472e-05
0.00151605 1.80213e-05 2.12262e-06
1.80213e-05 8.66298e-05 2.97165e-07
2.12262e-06 2.97165e-07 4.8541e-06
0.00139819 -1.79098e-05 8.79902e-07
-1.79098e-05 3.41647e-05 -1.5101e-06
8.79902e-07 -1.5101e-06 -4.06588e-05
0.0012247 -4.64205e-05 2.02829e-07
-4.64205e-05 7.12473e-06 -6.57503e-07
2.02829e-07 -6.57503e-07 -6.24605e-05
0.00160408 -3.74226e-05 1.6835e-06
-3.74226e-05 0.000138673 -6.49696e-07
1.6835e-06 -6.49696e-07 7.30414e-05
0.00100783 -3.48113e-05 1.42168e-06
-3.48113e-05 5.06645e-05 -5.5826e-07
1.42168e-06 -5.5826e-07 -1.49589e-05
0.00125984 -5.15001e-05 -4.00653e-07
-5.15001e-05 3.72268e-05 -2.31879e-07
-4.00653e-07 -2.31879e-07 -2.70167e-05
0.000849344 -4.76708e-05 7.80533e-07
-4.76708e-05 -3.1265e-05 -1.35914e-06
7.80533e-07 -1.35914e-06 -0.000105764
0.0011218 -5.97498e-05 1.79864e-06
-5.97498e-05 7.97309e-05 -2.01324e-06
1.79864e-06 -2.01324e-06 -5.84338e-06
0.00125793 -6.50696e-05 2.21294e-06
-6.50696e-05 9.45238e-05 7.28395e-07
2.21294e-06 7.28395e-07 9.37646e-06
0.00164474 -6.52631e-05 1.1659e-06
-6.52631e-05 0.00024046 -4.00135e-08
1.1659e-06 -4.00135e-08 0.000171739
0.000924823 1.12049e-05 1.00762e-06
1.12049e-05 1.69432e-06 -2.18497e-06
1.00762e-06 -2.18497e-06 -3.30652e-05
0.000814255 -9.72097e-06 1.12651e-06
-9.72097e-06 -4.98455e-05 -2.19899e-06
1.12651e-06 -2.19899e-06 -0.000112908
0.00104902 -4.89257e-05 8.40495e-07
-4.89257e-05 6.63384e-05 9.63905e-08
8.40495e-07 9.63905e-08 -6.83679e-06
0.00105737 -4.77318e-05 1.0912e-06
-4.77318e-05 7.97389e-05 -4.92992e-07
1.0912e-06 -4.92992e-07 6.85008e-07
0.00120232 -5.47871e-05 5.22298e-07
-5.47871e-05 0.000141701 5.40782e-07
5.22298e-07 5.40782e-07 6.35505e-05
0.000832452 -1.88582e-05 -3.08837e-06
-1.88582e-05 -4.37416e-05 -3.76036e-06
-3.08837e-06 -3.76036e-06 -5.29621e-05
0.00123449 4.08172e-05 -1.52552e-06
4.08172e-05 5.64264e-05 -9.2987e-07
-1.52552e-06 -9.2987e-07 -1.55862e-05
0.000928253 -2.93129e-06 -2.19302e-06
-2.93129e-06 5.1909e-06 -2.43309e-06
-2.19302e-06 -2.43309e-06 -3.80186e-05
0.000921394 3.39747e-06 -2.95697e-06
3.39747e-06 1.44466e-05 -2.04594e-06
-2.95697e-06 -2.04594e-06 -3.45311e-05
0.000997667 1.75139e-05 -1.29636e-06
1.75139e-05 4.21445e-05 -9.91361e-07
-1.29636e-06 -9.91361e-07 -2.23325e-05
0.00106762 4.82772e-05 -1.43568e-06
4.82772e-05 3.71761e-05 -1.44618e-06
-1.43568e-06 -1.44618e-06 -3.05947e-05
0.00121226 5.19478e-05 -9.34431e-07
5.19478e-05 5.24702e-05 -1.15735e-06
-9.34431e-07 -1.15735e-06 -2.35745e-05
0.00100557 3.19891e-05 -1.32813e-06
3.19891e-05 5.55941e-05 -7.08508e-07
-1.32813e-06 -7.08508e-07 -1.12592e-05
0.00110518 5.34228e-05 -1.15492e-06
5.34228e-05 0.000100357 -1.05992e-06
-1.15492e-06 -1.05992e-06 2.22207e-05
0.00132476 5.80245e-05 -1.25733e-06
5.80245e-05 0.000168916 -1.18196e-06
-1.25733e-06 -1.18196e-06 9.88102e-05
0.00102845 5.30669e-05 -2.44091e-06
5.30669e-05 3.81644e-05 3.1364e-07
-2.44091e-06 3.1364e-07 -3.59703e-05
0.000855103 -1.69383e-05 1.39609e-07
-1.69383e-05 -3.60398e-05 3.00474e-08
1.39609e-07 3.00474e-08 -4.3168e-05
0.000929172 -2.66363e-06 5.51645e-08
-2.66363e-06 2.9654e-06 2.60652e-08
5.51645e-08 2.60652e-08 -3.70733e-05
0.00102651 2.53508e-05 -9.54871e-09
2.53508e-05 5.81159e-05 -4.22024e-08
-9.54871e-09 -4.22024e-08 -6.81233e-06
0.00100906 1.39375e-05 5.13489e-08
1.39375e-05 4.61108e-05 -5.92042e-08
5.13489e-08 -5.92042e-08 -1.70424e-05
0.000990699 3.96716e-05 7.30323e-08
3.96716e-05 4.06476e-05 -1.56977e-07
7.30323e-08 -1.56977e-07 -3.36374e-05
0.00128674 4.21531e-05 4.96596e-07
4.21531e-05 5.41398e-05 3.7431e-07
4.96596e-07 3.7431e-07 -2.19625e-05
0.0011536 5.50809e-05 1.14931e-07
5.50809e-05 6.09499e-05 -6.88118e-08
1.14931e-07 -6.88118e-08 -1.23996e-05
0.00124103 5.59865e-05 5.77177e-07
5.59865e-05 5.65328e-05 3.87429e-07
5.77177e-07 3.87429e-07 -2.24241e-05
0.00106712 4.94406e-05 4.62587e-07
4.94406e-05 8.67057e-05 4.43477e-07
4.62587e-07 4.43477e-07 9.81066e-06
0.00122759 5.83471e-05 7.61939e-08
5.83471e-05 0.000112958 -3.3517e-07
7.61939e-08 -3.3517e-07 3.86355e-05
0.000976207 5.33938e-05 -7.82826e-07
5.33938e-05 2.51014e-05 -4.34864e-07
-7.82826e-07 -4.34864e-07 -5.98097e-05
0.000927823 -3.14085e-06 1.66787e-06
-3.14085e-06 9.84656e-07 2.41729e-06
1.66787e-06 2.41729e-06 -3.59472e-05
0.0010123 1.37504e-05 1.12996e-06
1.37504e-05 4.58799e-05 1.33771e-06
1.12996e-06 1.33771e-06 -1.501e-05
0.00103715 4.53891e-05 6.448e-07
4.53891e-05 6.37243e-05 1.47478e-07
6.448e-07 1.47478e-07 -1.08061e-05
0.001053 3.81638e-05 7.26282e-07
3.81638e-05 7.22116e-05 3.98922e-07
7.26282e-07 3.98922e-07 -1.86556e-06
0.00109016 4.91023e-05 1.2891e-08
4.91023e-05 9.11203e-05 -3.74669e-07
1.2891e-08 -3.74669e-07 1.2477e-05
0.00125316 4.08321e-05 -4.45817e-07
4.08321e-05 2.48493e-05 2.8764e-07
-4.45817e-07 2.8764e-07 -5.15939e-05
0.00118279 6.00072e-05 1.11627e-06
6.00072e-05 6.61872e-05 1.39794e-06
1.11627e-06 1.39794e-06 -1.06843e-05
0.00105816 5.87358e-05 1.42067e-07
5.87358e-05 -3.06254e-05 7.78609e-07
1.42067e-07 7.78609e-07 -0.00010893
0.00104972 5.42359e-05 7.17019e-07
5.42359e-05 7.80227e-05 1.76279e-06
7.17019e-07 1.76279e-06 -7.73621e-06
0.00118255 6.11212e-05 2.2755e-06
6.11212e-05 9.98829e-05 4.63316e-07
2.2755e-06 4.63316e-07 1.18115e-05
0.000935749 -4.4138e-06 1.39107e-07
-4.4138e-06 2.77967e-06 3.31131e-08
1.39107e-07 3.31131e-08 -3.10284e-05
0.00084078 6.74404e-06 8.43356e-07
6.74404e-06 -4.09977e-05 2.02916e-06
8.43356e-07 2.02916e-06 -9.68116e-05
0.000919647 6.88679e-06 -2.07277e-07
6.88679e-06 -5.18611e-08 6.72616e-08
-2.07277e-07 6.72616e-08 -5.16821e-05
0.00120515 2.52674e-05 2.82567e-07
2.52674e-05 0.000151516 3.57479e-07
2.82567e-07 3.57479e-07 8.73561e-05
0.000977289 8.47537e-06 5.65272e-07
8.47537e-06 3.15414e-05 1.21183e-06
5.65272e-07 1.21183e-06 -1.76786e-05
0.000951673 2.88012e-06 6.75606e-07
2.88012e-06 7.30098e-06 1.8772e-06
6.75606e-07 1.8772e-06 -2.10576e-05
0.000949578 -1.35076e-06 1.08144e-07
-1.35076e-06 7.28433e-06 1.57337e-08
1.08144e-07 1.57337e-08 -2.23672e-05
0.00147428 -1.35006e-05 1.7786e-06
-1.35006e-05 0.000267009 2.05911e-06
1.7786e-06 2.05911e-06 0.000268244
0.000948654 -6.51826e-07 -1.02201e-06
-6.51826e-07 7.92293e-06 -2.01243e-06
-1.02201e-06 -2.01243e-06 -2.34895e-05
0.00150214 -1.53177e-05 -2.50226e-06
-1.53177e-05 0.000284493 -1.27347e-06
-2.50226e-06 -1.27347e-06 0.000284323
0.00115184 -1.437e-05 1.26102e-05
-1.437e-05 0.000107364 6.67665e-06
1.26102e-05 6.67665e-06 0.000121987
0.00149737 -1.6953e-05 -6.92215e-06
-1.6953e-05 0.000285855 -3.39838e-06
-6.92215e-06 -3.39838e-06 0.000284075
0.00175362 -2.0215e-05 1.06067e-05
-2.0215e-05 0.000417368 2.40015e-06
1.06067e-05 2.40015e-06 0.000433719
0.00245769 -2.72412e-05 -1.63001e-05
-2.72412e-05 0.000777992 -4.08053e-06
-1.63001e-05 -4.08053e-06 0.000796245
0.000843043 1.8499e-05 2.25619e-06
1.8499e-05 -3.96325e-05 -3.34783e-06
2.25619e-06 -3.34783e-06 -4.55938e-05
0.000845464 2.01196e-05 -1.70027e-07
2.01196e-05 -3.41256e-05 3.70364e-08
-1.70027e-07 3.70364e-08 -4.27091e-05
0.00244767 3.11072e-05 1.69739e-05
3.11072e-05 0.000780089 -3.86808e-06
1.69739e-05 -3.86808e-06 0.000797107
0.00254582 3.44369e-05 -3.74906e-07
3.44369e-05 0.00083524 -6.82932e-08
-3.74906e-07 -6.82932e-08 0.000850334
0.000842086 2.23864e-05 -3.54827e-06
2.23864e-05 -3.05256e-05 3.79474e-06
-3.54827e-06 3.79474e-06 -4.22901e-05
0.00261234 3.79899e-05 -2.15165e-05
3.79899e-05 0.000874845 3.96864e-06
-2.15165e-05 3.96864e-06 0.000888072
0.0012789 3.31148e-05 -2.04945e-06
3.31148e-05 5.46894e-05 -9.75954e-07
-2.04945e-06 -9.75954e-07 -1.7988e-05
0.00135927 8.00189e-06 -2.60748e-06
8.00189e-06 5.74899e-05 -8.90441e-07
-2.60748e-06 -8.90441e-07 -1.70861e-05
0.00141008 2.56598e-05 -1.28335e-06
2.56598e-05 6.92555e-05 -5.22779e-07
-1.28335e-06 -5.22779e-07 -6.07225e-06
0.00146943 -7.74854e-06 -1.99146e-06
-7.74854e-06 6.86908e-05 -5.65099e-07
-1.99146e-06 -5.65099e-07 -1.0219e-05
0.00142037 7.33385e-06 -3.17644e-06
7.33385e-06 6.09863e-05 -8.05776e-07
-3.17644e-06 -8.05776e-07 -1.809e-05
0.00119457 7.15655e-06 -5.40084e-06
7.15655e-06 2.86324e-06 -3.3327e-08
-5.40084e-06 -3.3327e-08 -6.47418e-05
0.00140724 1.14114e-05 4.40826e-08
1.14114e-05 5.40158e-05 -3.31419e-07
4.40826e-08 -3.31419e-07 -2.5237e-05
0.00144776 -8.43096e-06 4.52563e-08
-8.43096e-06 5.19601e-05 7.72714e-08
4.52563e-08 7.72714e-08 -2.97735e-05
0.00143345 9.66777e-06 6.3995e-08
9.66777e-06 6.29352e-05 -7.57537e-08
6.3995e-08 -7.57537e-08 -1.37566e-05
0.00159289 -1.37604e-05 1.26201e-07
-1.37604e-05 0.000112966 -1.81388e-07
1.26201e-07 -1.81388e-07 3.60279e-05
0.00134672 3.25336e-05 -3.6694e-08
3.25336e-05 5.92123e-05 -7.38251e-09
-3.6694e-08 -7.38251e-09 -1.60569e-05
0.00145298 1.68936e-05 -1.0721e-07
1.68936e-05 6.85449e-05 8.35058e-07
-1.0721e-07 8.35058e-07 -4.63147e-07
0.00147575 1.29475e-06 2.63109e-06
1.29475e-06 6.7122e-05 -2.62752e-07
2.63109e-06 -2.62752e-07 -1.56236e-05
0.00147529 -1.84597e-06 2.05677e-06
-1.84597e-06 5.92646e-05 3.84731e-07
2.05677e-06 3.84731e-07 -2.24609e-05
0.00130312 2.30562e-06 1.14028e-06
2.30562e-06 -2.49158e-05 1.69317e-06
1.14028e-06 1.69317e-06 -9.72679e-05
0.00181413 -2.0163e-05 2.24183e-06
-2.0163e-05 0.000212736 3.8646e-07
2.24183e-06 3.8646e-07 0.000136104
0.00130557 2.79997e-05 -4.16742e-07
2.79997e-05 1.85884e-05 -2.24567e-07
-4.16742e-07 -2.24567e-07 -5.32057e-05
0.00169417 1.06815e-05 7.96648e-07
1.06815e-05 0.000165523 6.76607e-07
7.96648e-07 6.76607e-07 0.00010321
0.00136131 1.53289e-05 -4.15206e-06
1.53289e-05 4.23253e-05 7.26132e-07
-4.15206e-06 7.26132e-07 -3.52944e-05
0.00146092 -1.43004e-05 -3.61764e-06
-1.43004e-05 0.000106589 4.15474e-07
-3.61764e-06 4.15474e-07 3.32888e-05
0.00136158 1.56606e-05 -3.05258e-06
1.56606e-05 2.37765e-05 5.98883e-08
-3.05258e-06 5.98883e-08 -5.63504e-05
0.00159748 -2.17556e-05 -1.96762e-06
-2.17556e-05 0.000151498 2.27719e-07
-1.96762e-06 2.27719e-07 7.51318e-05
0.000928813 -5.27559e-06 -2.77025e-06
-5.27559e-06 2.19589e-05 1.73726e-06
-2.77025e-06 1.73726e-06 -2.95292e-05
0.001068 -4.03056e-05 -1.39507e-06
-4.03056e-05 7.90013e-05 1.04382e-06
-1.39507e-06 1.04382e-06 1.2562e-05
0.00104597 -5.37606e-05 -7.88143e-07
-5.37606e-05 5.45899e-05 1.22968e-06
-7.88143e-07 1.22968e-06 -2.20696e-05
0.0014896 -4.99889e-05 -1.11144e-06
-4.99889e-05 0.000157407 8.07709e-07
-1.11144e-06 8.07709e-07 8.48998e-05
0.00129568 -3.67012e-05 -5.69486e-07
-3.67012e-05 6.76218e-06 1.20738e-06
-5.69486e-07 1.20738e-06 -6.33979e-05
0.00128058 -5.0981e-05 -3.05284e-07
-5.0981e-05 5.78023e-05 1.08263e-06
-3.05284e-07 1.08263e-06 -1.29398e-05
0.00105353 -5.78516e-05 -1.71414e-06
-5.78516e-05 7.11989e-06 1.10181e-06
-1.71414e-06 1.10181e-06 -7.63897e-05
0.00126462 -5.70077e-05 1.55695e-07
-5.70077e-05 6.53272e-05 -1.04694e-06
1.55695e-07 -1.04694e-06 -3.49136e-06
0.00105168 -3.3747e-05 -1.62061e-06
-3.3747e-05 6.70309e-05 6.00003e-07
-1.62061e-06 6.00003e-07 1.21944e-06
0.00103346 -4.79981e-05 -1.58977e-06
-4.79981e-05 5.97003e-05 2.2089e-07
-1.58977e-06 2.2089e-07 -1.65138e-05
0.000910746 6.60908e-06 -1.72884e-06
6.60908e-06 -2.76272e-06 2.4218e-06
-1.72884e-06 2.4218e-06 -4.13269e-05
0.000912526 -1.41617e-05 -9.16653e-07
-1.41617e-05 -1.79867e-06 1.06127e-06
-9.16653e-07 1.06127e-06 -6.80153e-05
0.00148282 1.65223e-05 -8.10997e-08
1.65223e-05 8.00121e-05 1.10673e-07
-8.10997e-08 1.10673e-07 -1.46536e-06
0.00158877 -2.52044e-06 -2.7482e-07
-2.52044e-06 0.000135546 1.1341e-07
-2.7482e-07 1.1341e-07 5.7811e-05
0.00147497 1.79537e-05 -6.38078e-07
1.79537e-05 6.75638e-05 1.34488e-07
-6.38078e-07 1.34488e-07 -1.44299e-05
0.00145464 -1.87109e-05 -2.24573e-07
-1.87109e-05 6.1864e-05 -2.37097e-07
-2.24573e-07 -2.37097e-07 -1.28373e-05
0.00103494 -3.62402e-05 8.18266e-08
-3.62402e-05 6.29259e-05 -2.70769e-08
8.18266e-08 -2.70769e-08 -2.63986e-06
0.000918987 -4.86655e-05 2.96367e-07
-4.86655e-05 3.84981e-06 -1.6643e-07
2.96367e-07 -1.6643e-07 -7.00133e-05
0.00112926 -5.98063e-05 3.74715e-08
-5.98063e-05 8.45912e-05 -1.30466e-07
3.74715e-08 -1.30466e-07 -1.22705e-06
0.00134809 -4.78809e-05 -4.98958e-07
-4.78809e-05 6.75637e-05 -1.24873e-07
-4.98958e-07 -1.24873e-07 -2.67055e-06
0.00143558 -3.67237e-05 3.90591e-07
-3.67237e-05 6.25405e-05 6.25161e-07
3.90591e-07 6.25161e-07 -1.31079e-06
0.00126967 -6.50398e-05 -6.72998e-08
-6.50398e-05 0.000101537 4.7515e-07
-6.72998e-08 4.7515e-07 1.56603e-05
0.00127786 -5.1383e-05 1.82065e-08
-5.1383e-05 4.68439e-05 4.74999e-07
1.82065e-08 4.74999e-07 -1.73922e-05
0.0013784 -6.01086e-05 6.48438e-07
-6.01086e-05 0.000109755 -1.639e-06
6.48438e-07 -1.639e-06 4.33181e-05
0.00107137 -4.93646e-05 1.2823e-07
-4.93646e-05 7.69872e-05 1.11597e-08
1.2823e-07 1.11597e-08 3.83609e-06
0.0011414 -5.32048e-05 -4.75337e-08
-5.32048e-05 0.000110603 6.72038e-08
-4.75337e-08 6.72038e-08 3.25556e-05
0.00107306 -4.68772e-05 -1.59679e-07
-4.68772e-05 8.77919e-05 2.04598e-07
-1.59679e-07 2.04598e-07 8.49632e-06
0.000783615 1.45259e-05 -3.15801e-07
1.45259e-05 -6.92722e-05 3.03334e-08
-3.15801e-07 3.03334e-08 -0.000105119
0.000856126 -7.06365e-06 3.0509e-07
-7.06365e-06 -3.03573e-05 -4.87521e-07
3.0509e-07 -4.87521e-07 -9.26149e-05
0.00156295 2.28695e-05 2.39351e-06
2.28695e-05 0.000106971 2.44658e-07
2.39351e-06 2.44658e-07 2.32404e-05
0.0015205 1.17462e-05 2.55525e-06
1.17462e-05 7.6248e-05 8.38207e-08
2.55525e-06 8.38207e-08 -5.12311e-06
0.00148215 -2.14782e-05 1.99986e-06
-2.14782e-05 5.73841e-05 -2.354e-06
1.99986e-06 -2.354e-06 -1.15875e-05
0.00127635 -4.1966e-05 1.05348e-06
-4.1966e-05 4.106e-06 -1.4405e-06
1.05348e-06 -1.4405e-06 -5.72835e-05
0.001046 -5.00807e-05 5.34591e-07
-5.00807e-05 6.67679e-05 -1.87783e-07
5.34591e-07 -1.87783e-07 -5.26031e-06
0.00157867 -5.79067e-05 9.83259e-07
-5.79067e-05 0.000171459 -3.5509e-07
9.83259e-07 -3.5509e-07 0.000114916
0.000699047 -4.65602e-05 9.09699e-07
-4.65602e-05 -0.00010307 -2.25769e-06
9.09699e-07 -2.25769e-06 -0.000183991
0.00119528 -6.52254e-05 2.7879e-06
-6.52254e-05 0.000105771 -2.01226e-06
2.7879e-06 -2.01226e-06 1.04525e-05
0.00137885 -6.90735e-05 2.54465e-06
-6.90735e-05 0.000136193 8.35863e-07
2.54465e-06 8.35863e-07 4.88938e-05
0.000684416 1.27919e-05 8.87487e-07
1.27919e-05 -0.0001222 -2.69445e-06
8.87487e-07 -2.69445e-06 -0.000155977
0.00107575 -3.19549e-06 9.01485e-07
-3.19549e-06 8.01438e-05 -1.39618e-06
9.01485e-07 -1.39618e-06 2.38804e-05
0.00102862 -4.16761e-05 8.05179e-07
-4.16761e-05 6.74204e-05 -9.04097e-07
8.05179e-07 -9.04097e-07 -8.40145e-06
0.00107734 -5.17039e-05 4.30515e-07
-5.17039e-05 7.74437e-05 2.18714e-07
4.30515e-07 2.18714e-07 2.23801e-06
0.00114352 -5.32733e-05 9.04889e-07
-5.32733e-05 0.000122172 3.81913e-07
9.04889e-07 3.81913e-07 3.59742e-05
0.00109375 -5.29412e-05 3.1333e-07
-5.29412e-05 8.24004e-05 7.91192e-08
3.1333e-07 7.91192e-08 2.47633e-06
0.000842733 -1.67179e-05 -2.56606e-06
-1.67179e-05 -4.22972e-05 -3.66291e-06
-2.56606e-06 -3.66291e-06 -4.92836e-05
0.000931846 -3.14838e-06 -1.91933e-06
-3.14838e-06 4.05935e-06 -2.48802e-06
-1.91933e-06 -2.48802e-06 -3.59349e-05
0.00132828 4.33215e-05 -7.49784e-07
4.33215e-05 7.34085e-05 -4.90706e-07
-7.49784e-07 -4.90706e-07 -2.73954e-06
0.000993735 1.34595e-05 -1.22357e-06
1.34595e-05 3.90808e-05 -1.2904e-06
-1.22357e-06 -1.2904e-06 -2.42044e-05
0.00100588 2.63166e-05 -1.46081e-06
2.63166e-05 4.87893e-05 -6.51551e-07
-1.46081e-06 -6.51551e-07 -1.62115e-05
0.000964712 3.84415e-05 -5.84895e-07
3.84415e-05 2.75538e-05 -2.44155e-07
-5.84895e-07 -2.44155e-07 -4.6732e-05
0.00114337 5.50764e-05 -7.10958e-07
5.50764e-05 5.63394e-05 -1.65906e-06
-7.10958e-07 -1.65906e-06 -1.70279e-05
0.0012028 5.61346e-05 -2.45247e-07
5.61346e-05 3.77379e-05 -1.10088e-06
-2.45247e-07 -1.10088e-06 -4.15581e-05
0.00104078 4.93581e-05 -3.43546e-07
4.93581e-05 7.45429e-05 -4.52373e-07
-3.43546e-07 -4.52373e-07 -2.31598e-06
0.00114027 5.73084e-05 -1.39212e-06
5.73084e-05 0.000103972 -5.22331e-07
-1.39212e-06 -5.22331e-07 1.97942e-05
0.0012815 5.91766e-05 -1.76636e-06
5.91766e-05 0.000140084 -1.03882e-06
-1.76636e-06 -1.03882e-06 6.61008e-05
0.000932184 -3.54434e-06 1.8049e-07
-3.54434e-06 2.8482e-06 3.12643e-08
1.8049e-07 3.12643e-08 -3.3993e-05
0.00100875 1.39341e-05 1.18327e-08
1.39341e-05 4.45828e-05 -5.01781e-08
1.18327e-08 -5.01781e-08 -1.64676e-05
0.00105301 4.60198e-05 -1.70074e-07
4.60198e-05 7.22064e-05 -1.58368e-07
-1.70074e-07 -1.58368e-07 -1.88487e-06
0.00105302 3.90371e-05 -8.03816e-08
3.90371e-05 7.26314e-05 -2.73418e-08
-8.03816e-08 -2.73418e-08 -1.68145e-06
0.00103567 4.80125e-05 -2.90688e-07
4.80125e-05 6.46352e-05 -4.29839e-08
-2.90688e-07 -4.29839e-08 -1.44165e-05
0.00130374 4.3098e-05 -3.75074e-07
4.3098e-05 5.00859e-05 -5.20852e-08
-3.75074e-07 -5.20852e-08 -2.68448e-05
0.00118743 5.97908e-05 5.17769e-07
5.97908e-05 6.72156e-05 -1.4182e-07
5.17769e-07 -1.4182e-07 -9.72278e-06
0.00117187 5.98114e-05 2.68974e-07
5.98114e-05 2.27915e-05 4.53778e-07
2.68974e-07 4.53778e-07 -5.51921e-05
0.000946728 5.1807e-05 3.8707e-07
5.1807e-05 2.72945e-05 6.60155e-07
3.8707e-07 6.60155e-07 -5.89049e-05
0.00120373 6.18236e-05 -5.8154e-08
6.18236e-05 0.00011073 -2.27988e-07
-5.8154e-08 -2.27988e-07 2.11821e-05
0.00100415 1.49509e-05 1.0417e-06
1.49509e-05 4.17598e-05 1.50574e-06
1.0417e-06 1.50574e-06 -1.64434e-05
0.000939785 3.70227e-05 1.27902e-06
3.70227e-05 1.46238e-05 9.13174e-07
1.27902e-06 9.13174e-07 -5.99781e-05
0.00111952 5.48909e-05 -1.15103e-08
5.48909e-05 0.000106192 2.56901e-07
-1.15103e-08 2.56901e-07 2.48672e-05
0.000959612 4.58661e-05 3.55066e-07
4.58661e-05 2.56046e-05 -4.72125e-08
3.55066e-07 -4.72125e-08 -5.51218e-05
0.00107206 5.1476e-05 -1.85138e-07
5.1476e-05 7.68533e-05 -2.97367e-07
-1.85138e-07 -2.97367e-07 -4.99721e-06
0.00126718 4.41295e-05 5.44733e-07
4.41295e-05 -2.28047e-06 3.09019e-07
5.44733e-07 3.09019e-07 -6.5528e-05
0.00134257 6.82868e-05 1.44389e-06
6.82868e-05 0.000142604 6.5652e-07
1.44389e-06 6.5652e-07 5.55768e-05
0.000610391 5.3391e-05 1.05236e-06
5.3391e-05 -0.000266159 9.64804e-07
1.05236e-06 9.64804e-07 -0.000345932
0.00140351 6.48229e-05 2.21392e-06
6.48229e-05 0.000240082 2.69022e-06
2.21392e-06 2.69022e-06 0.000147736
0.000562607 5.06536e-05 6.14303e-07
5.06536e-05 -0.00020852 7.4437e-07
6.14303e-07 7.4437e-07 -0.000309438
0.000939637 -2.86928e-06 -1.18028e-06
-2.86928e-06 4.61552e-06 -2.20945e-06
-1.18028e-06 -2.20945e-06 -2.91259e-05
0.000907962 9.89805e-06 4.30806e-07
9.89805e-06 -6.33866e-06 6.08774e-07
4.30806e-07 6.08774e-07 -6.19149e-05
0.000916827 2.4487e-05 7.49828e-07
2.4487e-05 4.84341e-06 1.36115e-06
7.49828e-07 1.36115e-06 -6.50448e-05
0.0008345 2.83042e-07 -4.08392e-07
2.83042e-07 -4.34154e-05 -1.30601e-06
-4.08392e-07 -1.30601e-06 -9.5831e-05
0.00098271 1.14788e-05 8.34974e-08
1.14788e-05 3.42707e-05 2.6244e-08
8.34974e-08 2.6244e-08 -1.50208e-05
0.00106551 1.93958e-05 -1.60679e-07
1.93958e-05 8.01115e-05 -5.43847e-07
-1.60679e-07 -5.43847e-07 1.51122e-05
0.00116711 3.60559e-05 2.58166e-07
3.60559e-05 0.000136056 2.71258e-07
2.58166e-07 2.71258e-07 6.06828e-05
0.000892457 3.74187e-06 1.82773e-07
3.74187e-06 -6.69072e-06 1.30684e-06
1.82773e-07 1.30684e-06 -7.08783e-05
0.000971001 -7.08284e-06 1.70814e-07
-7.08284e-06 2.97087e-05 1.15654e-06
1.70814e-07 1.15654e-06 -1.79948e-05
0.000961299 5.93808e-06 6.17512e-07
5.93808e-06 1.16227e-05 1.80961e-06
6.17512e-07 1.80961e-06 -1.60709e-05
0.000954936 -2.03918e-06 -8.57987e-08
-2.03918e-06 9.14513e-06 2.09491e-08
-8.57987e-08 2.09491e-08 -1.92479e-05
0.00146376 -1.04791e-05 1.32864e-06
-1.04791e-05 0.000258304 2.0081e-06
1.32864e-06 2.0081e-06 0.000260857
0.000957607 -1.39839e-06 -5.8859e-07
-1.39839e-06 1.15277e-05 -1.91828e-06
-5.8859e-07 -1.91828e-06 -1.81573e-05
0.00148861 -1.2727e-05 -2.04772e-06
-1.2727e-05 0.000274254 -1.24943e-06
-2.04772e-06 -1.24943e-06 0.000275586
0.00114404 -1.20799e-05 1.02461e-05
-1.20799e-05 9.92249e-05 6.56301e-06
1.02461e-05 6.56301e-06 0.000115132
0.00151794 -1.46523e-05 -6.26923e-06
-1.46523e-05 0.000292337 -4.60836e-06
-6.26923e-06 -4.60836e-06 0.000292291
0.00109271 -1.52045e-05 4.12888e-06
-1.52045e-05 7.76059e-05 2.5347e-06
4.12888e-06 2.5347e-06 9.22879e-05
0.00234066 -2.61625e-05 -5.15153e-06
-2.61625e-05 0.000715184 -1.70164e-06
-5.15153e-06 -1.70164e-06 0.000734642
0.00085215 1.66913e-05 1.89551e-06
1.66913e-05 -3.96253e-05 -3.28384e-06
1.89551e-06 -3.28384e-06 -4.35989e-05
0.000858591 1.85512e-05 -1.21266e-07
1.85512e-05 -3.21068e-05 4.07184e-08
-1.21266e-07 4.07184e-08 -3.81643e-05
0.00237073 2.7572e-05 1.49598e-05
2.7572e-05 0.000735752 -3.86359e-06
1.49598e-05 -3.86359e-06 0.000754381
0.000858496 2.03122e-05 -3.0661e-06
2.03122e-05 -2.76349e-05 3.61675e-06
-3.0661e-06 3.61675e-06 -3.63843e-05
0.00245494 3.09015e-05 -5.02447e-07
3.09015e-05 0.000784199 -5.99881e-08
-5.02447e-07 -5.99881e-08 0.00080102
0.00254534 3.42582e-05 -2.02173e-05
3.42582e-05 0.000835461 4.046e-06
-2.02173e-05 4.046e-06 0.000850371
0.00135518 3.33329e-05 -1.38887e-06
3.33329e-05 6.31992e-05 -6.28965e-07
-1.38887e-06 -6.28965e-07 -1.22372e-05
0.00146001 7.60066e-06 -1.47762e-06
7.60066e-06 7.61124e-05 -7.12575e-07
-1.47762e-06 -7.12575e-07 -5.39568e-07
0.00144619 1.69388e-05 4.42645e-07
1.69388e-05 6.37283e-05 -1.7719e-07
4.42645e-07 -1.7719e-07 -4.81023e-06
0.00157309 -1.47993e-05 -1.87081e-06
-1.47993e-05 0.000102645 -6.52003e-07
-1.87081e-06 -6.52003e-07 2.57377e-05
0.00147828 -1.31095e-05 -2.07086e-06
-1.31095e-05 6.60776e-05 -4.6208e-07
-2.07086e-06 -4.6208e-07 -1.60537e-05
0.00141273 1.46816e-05 -3.20185e-06
1.46816e-05 5.67604e-05 -1.493e-07
-3.20185e-06 -1.493e-07 -2.2518e-05
0.00147618 4.84826e-06 5.25822e-08
4.84826e-06 6.72969e-05 -2.11634e-07
5.25822e-08 -2.11634e-07 -1.55767e-05
0.00148447 -5.84081e-06 2.28273e-07
-5.84081e-06 6.41615e-05 -6.80982e-08
2.28273e-07 -6.80982e-08 -1.74806e-05
0.00138688 6.89911e-07 -1.81319e-07
6.89911e-07 1.37524e-05 9.34917e-08
-1.81319e-07 9.34917e-08 -5.92174e-05
0.00160785 -1.93129e-05 -2.16814e-07
-1.93129e-05 0.000112996 -4.37763e-07
-2.16814e-07 -4.37763e-07 3.58605e-05
0.00135034 2.88386e-05 -2.81439e-07
2.88386e-05 4.21669e-05 -6.45096e-09
-2.81439e-07 -6.45096e-09 -3.00052e-05
0.00150419 1.10262e-05 1.56948e-06
1.10262e-05 7.42832e-05 -4.08403e-07
1.56948e-06 -4.08403e-07 1.45136e-05
0.00148394 1.18308e-05 1.7081e-06
1.18308e-05 6.68253e-05 2.22773e-07
1.7081e-06 2.22773e-07 -1.65108e-05
0.00151591 -1.37583e-05 2.29608e-06
-1.37583e-05 7.99465e-05 2.89495e-07
2.29608e-06 2.89495e-07 -1.05631e-06
0.00151305 -7.48489e-06 1.40776e-06
-7.48489e-06 6.09276e-05 1.80594e-06
1.40776e-06 1.80594e-06 -7.89964e-06
0.00147483 2.54647e-05 2.69838e-07
2.54647e-05 6.84099e-05 2.01788e-07
2.69838e-07 2.01788e-07 1.17326e-05
0.00147338 1.67972e-05 -2.43067e-06
1.67972e-05 7.56794e-05 3.49511e-07
-2.43067e-06 3.49511e-07 -5.73288e-06
0.00157946 -1.88111e-06 -3.05137e-06
-1.88111e-06 0.000131554 2.88046e-07
-3.05137e-06 2.88046e-07 5.39874e-05
0.00141279 1.77033e-05 -3.43432e-06
1.77033e-05 3.83892e-05 2.03478e-08
-3.43432e-06 2.03478e-08 -4.38357e-05
0.001511 -1.91834e-05 -1.4379e-06
-1.91834e-05 8.94716e-05 7.2941e-07
-1.4379e-06 7.2941e-07 1.48931e-05
0.00105879 -3.733e-05 -1.41052e-06
-3.733e-05 7.35622e-05 6.13175e-07
-1.41052e-06 6.13175e-07 8.08464e-06
0.00100564 -5.00897e-05 -2.48903e-07
-5.00897e-05 4.70674e-05 7.75101e-07
-2.48903e-07 7.75101e-07 -2.61607e-05
0.00113311 -5.97835e-05 -1.38139e-06
-5.97835e-05 8.77556e-05 2.1704e-06
-1.38139e-06 2.1704e-06 1.69025e-06
0.00147165 -4.93076e-05 -8.61083e-07
-4.93076e-05 0.000128083 7.56494e-07
-8.61083e-07 7.56494e-07 5.72027e-05
0.0012773 -3.6117e-05 -7.17562e-07
-3.6117e-05 -8.57199e-06 2.0494e-06
-7.17562e-07 2.0494e-06 -7.06601e-05
0.00128608 -5.11358e-05 1.49375e-07
-5.11358e-05 5.18096e-05 1.23641e-06
1.49375e-07 1.23641e-06 -1.24221e-05
0.00127834 -6.49342e-05 -2.1043e-06
-6.49342e-05 0.000107055 5.13652e-07
-2.1043e-06 5.13652e-07 2.04516e-05
0.00114267 -5.54606e-05 -1.74183e-06
-5.54606e-05 -5.89311e-06 -3.72594e-06
-1.74183e-06 -3.72594e-06 -7.01056e-05
0.00109382 -4.99122e-05 -7.53177e-07
-4.99122e-05 8.76727e-05 7.38742e-08
-7.53177e-07 7.38742e-08 1.45394e-05
0.00107699 -5.15287e-05 -1.27804e-06
-5.15287e-05 7.7753e-05 -4.61326e-07
-1.27804e-06 -4.61326e-07 -1.80521e-07
0.00108797 -4.61173e-05 -1.10697e-06
-4.61173e-05 9.55054e-05 9.98247e-07
-1.10697e-06 9.98247e-07 1.59817e-05
0.000645028 1.38485e-05 -1.17634e-06
1.38485e-05 -0.000139072 2.23798e-06
-1.17634e-06 2.23798e-06 -0.000175922
0.000901646 -3.58343e-06 -3.92757e-07
-3.58343e-06 -9.21443e-06 1.09262e-06
-3.92757e-07 1.09262e-06 -7.05602e-05
0.0014826 2.1471e-05 2.03292e-08
2.1471e-05 6.82317e-05 -7.08273e-08
2.03292e-08 -7.08273e-08 -1.53374e-05
0.00155106 1.09879e-05 -2.06448e-07
1.09879e-05 9.32592e-05 1.9577e-07
-2.06448e-07 1.9577e-07 1.22715e-05
0.00153448 -2.16297e-05 -7.13003e-07
-2.16297e-05 8.71361e-05 2.04308e-07
-7.13003e-07 2.04308e-07 1.83609e-05
0.00107781 -5.03807e-05 3.79966e-08
-5.03807e-05 8.13812e-05 9.39304e-08
3.79966e-08 9.39304e-08 9.36704e-06
0.000953788 -5.24968e-05 5.36037e-07
-5.24968e-05 2.1282e-05 -4.06904e-07
5.36037e-07 -4.06904e-07 -5.87942e-05
0.00116008 -6.42389e-05 -9.08277e-08
-6.42389e-05 9.10637e-05 -1.26898e-07
-9.08277e-08 -1.26898e-07 -4.7731e-06
0.00134998 -4.25835e-05 2.52342e-07
-4.25835e-05 3.91811e-05 -3.57906e-07
2.52342e-07 -3.57906e-07 -2.30591e-05
0.00132321 -6.62561e-05 -1.08263e-07
-6.62561e-05 0.000110085 -5.41314e-07
-1.08263e-07 -5.41314e-07 2.53936e-05
0.00134251 -5.6252e-05 -5.11865e-07
-5.6252e-05 5.86741e-05 -5.61562e-07
-5.11865e-07 -5.61562e-07 1.55005e-06
0.00068014 1.73193e-05 -3.15385e-08
1.73193e-05 -0.000124169 -6.33166e-07
-3.15385e-08 -6.33166e-07 -0.000157686
0.00108985 -5.2013e-05 7.2933e-08
-5.2013e-05 8.36877e-05 1.36156e-07
7.2933e-08 1.36156e-07 8.30601e-06
0.00105441 -5.182e-05 -8.46354e-07
-5.182e-05 6.32063e-05 -6.39708e-08
-8.46354e-07 -6.39708e-08 -1.57811e-05
0.00114297 -5.29135e-05 -3.91943e-07
-5.29135e-05 0.00012168 4.09206e-07
-3.91943e-07 4.09206e-07 3.55285e-05
0.00111447 -4.23749e-05 -5.32451e-08
-4.23749e-05 0.000109837 3.1303e-08
-5.32451e-08 3.1303e-08 3.43729e-05
0.000961858 -4.50444e-06 1.51478e-07
-4.50444e-06 2.18955e-05 1.99723e-07
1.51478e-07 1.99723e-07 -3.50475e-05
0.00160582 2.51371e-05 2.52963e-06
2.51371e-05 0.000122561 8.12358e-07
2.52963e-06 8.12358e-07 3.87097e-05
0.00156507 1.14718e-05 2.87409e-06
1.14718e-05 8.2051e-05 -3.62295e-07
2.87409e-06 -3.62295e-07 1.79182e-06
0.00131806 -2.67713e-05 2.4356e-06
-2.67713e-05 -2.79012e-05 -3.06494e-06
2.4356e-06 -3.06494e-06 -8.98423e-05
0.00154565 -5.04754e-05 1.70909e-06
-5.04754e-05 0.000100054 -1.80168e-06
1.70909e-06 -1.80168e-06 5.04942e-05
0.00106855 -5.28459e-05 4.09757e-07
-5.28459e-05 7.62153e-05 -5.73975e-07
4.09757e-07 -5.73975e-07 2.12471e-07
0.00139174 -6.64276e-05 3.22307e-06
-6.64276e-05 9.56393e-05 1.2354e-06
3.22307e-06 1.2354e-06 2.32385e-05
0.000876619 -5.43809e-05 9.04122e-07
-5.43809e-05 -1.99423e-05 -2.92037e-06
9.04122e-07 -2.92037e-06 -0.000112246
0.00141408 -7.31322e-05 2.33561e-06
-7.31322e-05 0.000205779 -9.03133e-07
2.33561e-06 -9.03133e-07 0.000102104
0.000691103 1.28886e-05 6.7302e-07
1.28886e-05 -0.000120535 -2.4835e-06
6.7302e-07 -2.4835e-06 -0.000151803
0.00109409 -3.25606e-07 8.31314e-07
-3.25606e-07 8.82197e-05 -1.40882e-06
8.31314e-07 -1.40882e-06 3.68265e-05
0.00119819 -3.51975e-05 3.16525e-08
-3.51975e-05 0.000148815 -5.06311e-08
3.16525e-08 -5.06311e-08 7.83632e-05
0.00105625 -4.48738e-05 7.10827e-07
-4.48738e-05 8.34419e-05 -1.164e-06
7.10827e-07 -1.164e-06 -4.72706e-06
0.00105001 -5.25014e-05 3.14915e-07
-5.25014e-05 6.37882e-05 -3.32202e-07
3.14915e-07 -3.32202e-07 -1.52786e-05
0.00107337 -5.27463e-05 1.09144e-06
-5.27463e-05 7.85592e-05 4.74112e-07
1.09144e-06 4.74112e-07 -8.04477e-06
0.000934645 -4.14105e-06 -1.41832e-06
-4.14105e-06 3.69571e-06 -2.41955e-06
-1.41832e-06 -2.41955e-06 -3.304e-05
0.00100619 1.41487e-05 -1.16761e-06
1.41487e-05 4.38058e-05 -1.5098e-06
-1.16761e-06 -1.5098e-06 -1.74102e-05
0.00135399 4.54726e-05 -5.66065e-07
4.54726e-05 7.52278e-05 -4.94999e-07
-5.66065e-07 -4.94999e-07 -2.20603e-06
0.00105456 3.93007e-05 -9.81978e-07
3.93007e-05 7.37246e-05 -5.10517e-07
-9.81978e-07 -5.10517e-07 -7.72442e-07
0.00107414 4.68289e-05 -5.72808e-07
4.68289e-05 8.33944e-05 -2.43005e-07
-5.72808e-07 -2.43005e-07 9.71692e-06
0.000983051 4.70369e-05 -5.76129e-07
4.70369e-05 3.91223e-05 -1.37029e-07
-5.76129e-07 -1.37029e-07 -4.03542e-05
0.00119428 5.96366e-05 -9.21134e-07
5.96366e-05 6.93018e-05 -1.79726e-06
-9.21134e-07 -1.79726e-06 -7.70551e-06
0.0013049 6.13509e-05 -3.21358e-07
6.13509e-05 8.55853e-05 -7.26866e-07
-3.21358e-07 -7.26866e-07 7.89007e-06
0.000848215 4.95274e-05 -3.21832e-07
4.95274e-05 -2.11707e-05 -5.35305e-07
-3.21832e-07 -5.35305e-07 -0.000107829
0.00123805 6.28524e-05 -1.52752e-06
6.28524e-05 0.000128195 -8.25559e-07
-1.52752e-06 -8.25559e-07 3.7133e-05
0.0010052 1.43297e-05 7.60311e-08
1.43297e-05 4.25513e-05 -1.52904e-08
7.60311e-08 -1.52904e-08 -1.57132e-05
0.00100884 3.94442e-05 4.12226e-07
3.94442e-05 4.97924e-05 2.5875e-07
4.12226e-07 2.5875e-07 -2.47917e-05
0.0011417 5.53671e-05 -1.57909e-07
5.53671e-05 0.000118034 -4.64694e-07
-1.57909e-07 -4.64694e-07 3.73611e-05
0.00102857 4.69298e-05 -2.87324e-07
4.69298e-05 6.07583e-05 9.00777e-09
-2.87324e-07 9.00777e-09 -1.9608e-05
0.00104557 5.08262e-05 -7.56045e-07
5.08262e-05 6.66982e-05 -3.65766e-07
-7.56045e-07 -3.65766e-07 -1.47824e-05
0.00154775 4.65384e-05 -4.49829e-07
4.65384e-05 0.0001344 -4.78462e-07
-4.49829e-07 -4.78462e-07 7.1477e-05
0.00139438 6.91763e-05 7.72588e-07
6.91763e-05 0.00016523 4.25785e-08
7.72588e-07 4.25785e-08 7.90276e-05
0.00095389 5.91761e-05 -5.31146e-07
5.91761e-05 -9.29003e-05 5.37528e-07
-5.31146e-07 5.37528e-07 -0.000171001
0.00123096 6.07837e-05 9.50836e-07
6.07837e-05 0.000156522 9.14295e-07
9.50836e-07 9.14295e-07 6.34772e-05
0.000888876 5.82284e-05 -1.39421e-06
5.82284e-05 -4.85589e-05 -3.99965e-07
-1.39421e-06 -3.99965e-07 -0.000151037
0.000949643 3.49253e-05 1.16132e-06
3.49253e-05 2.07327e-05 1.26676e-06
1.16132e-06 1.26676e-06 -5.22578e-05
0.000967519 4.92921e-05 7.39476e-07
4.92921e-05 3.13557e-05 1.71779e-07
7.39476e-07 1.71779e-07 -5.29082e-05
0.00114872 5.67096e-05 2.33701e-07
5.67096e-05 0.000117734 6.54778e-07
2.33701e-07 6.54778e-07 3.02065e-05
0.00087957 4.78914e-05 8.3122e-07
4.78914e-05 -1.68618e-05 7.2649e-08
8.3122e-07 7.2649e-08 -0.000102297
0.00194331 3.64296e-05 2.38929e-06
3.64296e-05 0.000231234 1.28471e-06
2.38929e-06 1.28471e-06 0.000181812
0.00110398 5.72589e-05 3.00824e-06
5.72589e-05 -9.30003e-05 1.3081e-06
3.00824e-06 1.3081e-06 -0.000156939
0.00125315 7.11347e-05 1.79276e-06
7.11347e-05 8.99511e-05 -8.52505e-08
1.79276e-06 -8.52505e-08 -9.32225e-06
0.000863747 5.58327e-05 9.36917e-07
5.58327e-05 -2.58298e-05 2.06194e-06
9.36917e-07 2.06194e-06 -0.000136178
0.000975895 1.31444e-05 -1.47904e-07
1.31444e-05 2.86638e-05 -9.96112e-07
-1.47904e-07 -9.96112e-07 -2.66562e-05
0.000995158 2.90222e-05 2.50375e-07
2.90222e-05 4.51074e-05 3.99657e-07
2.50375e-07 3.99657e-07 -2.45037e-05
0.00107485 4.13515e-05 4.58539e-07
4.13515e-05 8.97151e-05 5.85153e-07
4.58539e-07 5.85153e-07 1.05543e-05
0.000987038 1.2771e-05 -5.27139e-07
1.2771e-05 3.64587e-05 -1.19325e-06
-5.27139e-07 -1.19325e-06 -1.29159e-05
0.00092532 1.39192e-05 -3.55256e-07
1.39192e-05 8.52963e-06 -1.47333e-06
-3.55256e-07 -1.47333e-06 -5.73698e-05
0.00097785 2.11723e-07 3.81022e-07
2.11723e-07 3.3194e-05 2.615e-08
3.81022e-07 2.615e-08 -1.46592e-05
0.00107353 3.22687e-05 -8.1288e-08
3.22687e-05 8.80968e-05 -4.48199e-07
-8.1288e-08 -4.48199e-07 1.19075e-05
0.000948148 9.60178e-06 2.1537e-07
9.60178e-06 2.21512e-05 4.41638e-07
2.1537e-07 4.41638e-07 -4.19092e-05
0.00115653 4.34448e-05 4.42732e-07
4.34448e-05 0.000129499 3.88997e-07
4.42732e-07 3.88997e-07 4.58666e-05
0.00090942 3.56807e-06 1.63046e-07
3.56807e-06 4.61757e-06 1.14725e-06
1.63046e-07 1.14725e-06 -7.01356e-05
0.00089344 2.64053e-05 4.93097e-07
2.64053e-05 -3.6627e-06 1.26395e-06
4.93097e-07 1.26395e-06 -6.70906e-05
0.000984401 -1.83388e-05 -3.00411e-07
-1.83388e-05 3.73492e-05 1.13047e-06
-3.00411e-07 1.13047e-06 -9.67874e-06
0.000950862 7.90231e-06 4.73358e-07
7.90231e-06 6.73047e-06 1.71551e-06
4.73358e-07 1.71551e-06 -2.08262e-05
0.000955698 -2.12412e-06 -2.61906e-07
-2.12412e-06 8.89966e-06 3.06278e-08
-2.61906e-07 3.06278e-08 -1.87637e-05
0.0014566 -7.12072e-06 9.59797e-07
-7.12072e-06 0.000252103 1.95921e-06
9.59797e-07 1.95921e-06 0.000255378
0.000957616 -7.9006e-06 -5.47499e-08
-7.9006e-06 1.0667e-05 -1.85164e-06
-5.47499e-08 -1.85164e-06 -1.77447e-05
0.00147841 -9.84179e-06 -1.58044e-06
-9.84179e-06 0.000265871 -1.22529e-06
-1.58044e-06 -1.22529e-06 0.00026843
0.00113391 -9.54342e-06 7.77048e-06
-9.54342e-06 9.01625e-05 6.44017e-06
7.77048e-06 6.44017e-06 0.00010717
0.0015023 -1.22146e-05 -4.72133e-06
-1.22146e-05 0.000281201 -4.52067e-06
-4.72133e-06 -4.52067e-06 0.000282606
0.00108654 -1.27027e-05 3.05043e-06
-1.27027e-05 7.01269e-05 2.49813e-06
3.05043e-06 2.49813e-06 8.61447e-05
0.00103245 -1.55486e-05 -2.25094e-06
-1.55486e-05 4.73148e-05 -1.65808e-06
-2.25094e-06 -1.65808e-06 6.2102e-05
0.000859416 1.458e-05 1.53954e-06
1.458e-05 -4.03596e-05 -3.25331e-06
1.53954e-06 -3.25331e-06 -4.25931e-05
0.000868309 1.67167e-05 -9.98713e-08
1.67167e-05 -3.18152e-05 1.74875e-08
-9.98713e-08 1.74875e-08 -3.58476e-05
0.00231919 2.39053e-05 1.30512e-05
2.39053e-05 0.000704217 -3.87891e-06
1.30512e-05 -3.87891e-06 0.000724254
0.000874572 1.86154e-05 -2.53909e-06
1.86154e-05 -2.43693e-05 3.41531e-06
-2.53909e-06 3.41531e-06 -3.05244e-05
0.00237666 2.74527e-05 -5.7383e-07
2.74527e-05 0.000739294 -4.80283e-08
-5.7383e-07 -4.80283e-08 0.00075774
0.00246074 3.07092e-05 -1.84305e-05
3.07092e-05 0.000787581 4.0212e-06
-1.84305e-05 4.0212e-06 0.000804208
0.00139487 2.97283e-05 -2.18295e-08
2.97283e-05 6.55984e-05 1.41196e-07
-2.18295e-08 1.41196e-07 -6.94896e-06
0.00147608 -1.02635e-06 -1.34968e-06
-1.02635e-06 5.51053e-05 -7.67994e-07
-1.34968e-06 -7.67994e-07 -1.84922e-05
0.00133969 1.12664e-05 1.62602e-06
1.12664e-05 -4.47647e-06 -2.17896e-06
1.62602e-06 -2.17896e-06 -6.17327e-05
0.0014139 -1.84966e-05 -2.52378e-06
-1.84966e-05 1.92684e-05 -1.43165e-06
-2.52378e-06 -1.43165e-06 -5.83797e-05
0.00149016 -8.36902e-06 -1.8132e-06
-8.36902e-06 6.74817e-05 -4.93769e-07
-1.8132e-06 -4.93769e-07 -1.41309e-05
0.00147566 4.24015e-06 -2.08842e-06
4.24015e-06 6.69967e-05 -2.37032e-07
-2.08842e-06 -2.37032e-07 -1.60021e-05
0.00149338 1.41976e-05 2.05513e-07
1.41976e-05 7.22669e-05 -4.4827e-08
2.05513e-07 -4.4827e-08 -1.09363e-05
0.00148437 -1.73998e-05 -2.07743e-07
-1.73998e-05 6.49188e-05 1.87997e-07
-2.07743e-07 1.87997e-07 -1.5958e-05
0.00150023 -6.8873e-06 6.62315e-07
-6.8873e-06 5.56799e-05 -2.79001e-07
6.62315e-07 -2.79001e-07 -1.28743e-05
0.00141618 2.26152e-05 8.31277e-08
2.26152e-05 3.75207e-05 -4.16556e-07
8.31277e-08 -4.16556e-07 -1.90453e-05
0.00148586 8.13589e-06 1.84093e-06
8.13589e-06 7.19432e-05 3.57307e-08
1.84093e-06 3.57307e-08 -1.0949e-05
0.00166103 -2.65413e-05 2.5665e-06
-2.65413e-05 0.000143878 6.45825e-07
2.5665e-06 6.45825e-07 6.7787e-05
0.00144984 8.45818e-06 1.5019e-06
8.45818e-06 1.54577e-05 2.28382e-06
1.5019e-06 2.28382e-06 -4.38413e-05
0.00141239 2.02844e-05 -2.82293e-06
2.02844e-05 3.43543e-05 -3.07718e-07
-2.82293e-06 -3.07718e-07 -4.90517e-05
0.00158096 1.03935e-05 -2.62328e-06
1.03935e-05 0.00011006 6.26424e-07
-2.62328e-06 6.26424e-07 2.94452e-05
0.00158107 -2.18431e-05 -1.81226e-06
-2.18431e-05 0.00011395 1.89236e-06
-1.81226e-06 1.89236e-06 4.53974e-05
0.00110474 -5.04677e-05 -6.48936e-07
-5.04677e-05 9.36435e-05 4.98336e-07
-6.48936e-07 4.98336e-07 2.16529e-05
0.00121832 -5.8665e-05 -4.387e-07
-5.8665e-05 0.000150354 1.22401e-06
-4.387e-07 1.22401e-06 7.11168e-05
0.00113323 -6.34256e-05 -2.06626e-06
-6.34256e-05 8.05728e-05 2.63247e-06
-2.06626e-06 2.63247e-06 -1.58058e-05
0.00141815 -4.32082e-05 -1.11923e-06
-4.32082e-05 7.15249e-05 1.19063e-06
-1.11923e-06 1.19063e-06 8.45025e-06
0.00111924 -5.4631e-05 -2.13565e-06
-5.4631e-05 -4.78154e-05 1.99275e-08
-2.13565e-06 1.99275e-08 -0.000105542
0.00127915 -6.38241e-05 -3.06353e-06
-6.38241e-05 8.96511e-05 -1.86213e-06
-3.06353e-06 -1.86213e-06 7.5561e-06
0.00110452 -5.23765e-05 -5.5143e-07
-5.23765e-05 9.10054e-05 2.32911e-07
-5.5143e-07 2.32911e-07 1.54422e-05
0.00100921 -5.0569e-05 -2.12603e-06
-5.0569e-05 4.12182e-05 -2.01248e-07
-2.12603e-06 -2.01248e-07 -3.68323e-05
0.00114035 -5.29421e-05 -1.21245e-06
-5.29421e-05 0.000120198 2.79889e-07
-1.21245e-06 2.79889e-07 3.40588e-05
0.000670758 1.96248e-05 -6.639e-07
1.96248e-05 -0.000128555 1.34625e-06
-6.639e-07 1.34625e-06 -0.000161851
0.00119015 -4.46746e-05 -8.16705e-07
-4.46746e-05 0.000147412 1.15724e-06
-8.16705e-07 1.15724e-06 7.21919e-05
0.000843488 -3.72165e-06 -9.20413e-08
-3.72165e-06 -3.8256e-05 1.83822e-06
-9.20413e-08 1.83822e-06 -9.60612e-05
0.00154707 2.49237e-05 -2.31763e-08
2.49237e-05 9.51529e-05 9.88202e-08
-2.31763e-08 9.88202e-08 1.14939e-05
0.00155557 1.00215e-05 4.57972e-07
1.00215e-05 7.54312e-05 2.1376e-08
4.57972e-07 2.1376e-08 -4.80629e-06
0.00140526 -2.70962e-05 -2.16566e-07
-2.70962e-05 1.41819e-05 -2.63296e-07
-2.16566e-07 -2.63296e-07 -4.90822e-05
0.0010994 -5.3598e-05 5.99505e-09
-5.3598e-05 9.05038e-05 2.3387e-07
5.99505e-09 2.3387e-07 1.43513e-05
0.00092855 -5.54435e-05 -1.00579e-07
-5.54435e-05 7.20283e-06 1.30047e-07
-1.00579e-07 1.30047e-07 -8.37426e-05
0.0014055 -7.22646e-05 -1.18249e-06
-7.22646e-05 0.000201047 1.17434e-06
-1.18249e-06 1.17434e-06 9.83632e-05
0.00155542 -5.1697e-05 5.31869e-08
-5.1697e-05 0.000110041 2.95178e-07
5.31869e-08 2.95178e-07 6.05095e-05
0.00129728 -6.44423e-05 9.68542e-08
-6.44423e-05 4.73745e-05 -8.10385e-07
9.68542e-08 -8.10385e-07 -2.47685e-05
0.000813734 1.34257e-05 6.93294e-08
1.34257e-05 -5.8805e-05 -5.88115e-07
6.93294e-08 -5.88115e-07 -8.91146e-05
0.00107685 5.23276e-06 -1.49457e-07
5.23276e-06 8.00464e-05 9.46021e-08
-1.49457e-07 9.46021e-08 2.87266e-05
0.000982278 -5.09132e-05 -5.29411e-07
-5.09132e-05 3.12658e-05 3.38915e-07
-5.29411e-07 3.38915e-07 -4.77693e-05
0.00109046 -5.30887e-05 2.4211e-07
-5.30887e-05 8.67291e-05 1.64149e-08
2.4211e-07 1.64149e-08 3.20648e-07
0.0010692 -4.42965e-05 -9.65075e-08
-4.42965e-05 9.03596e-05 -2.68964e-07
-9.65075e-08 -2.68964e-07 2.91289e-06
0.00112742 -3.85525e-05 -6.07681e-07
-3.85525e-05 0.000113724 9.71671e-07
-6.07681e-07 9.71671e-07 4.2121e-05
0.00154151 2.92167e-05 2.50016e-06
2.92167e-05 8.87238e-05 1.26487e-06
2.50016e-06 1.26487e-06 7.20976e-06
0.00161551 2.69739e-06 3.02052e-06
2.69739e-06 9.27358e-05 -8.18905e-07
3.02052e-06 -8.18905e-07 1.74676e-05
0.00142911 -3.76448e-05 1.80355e-06
-3.76448e-05 -2.73498e-06 -3.39765e-06
1.80355e-06 -3.39765e-06 -4.71571e-05
0.00192274 -6.87649e-05 2.55344e-06
-6.87649e-05 0.000279803 -1.3352e-06
2.55344e-06 -1.3352e-06 0.000230512
0.000938122 -5.2305e-05 3.02667e-08
-5.2305e-05 1.67728e-05 -1.07228e-06
3.02667e-08 -1.07228e-06 -6.69571e-05
0.00147507 -7.5878e-05 2.85657e-06
-7.5878e-05 0.000208798 1.66683e-06
2.85657e-06 1.66683e-06 0.000104095
0.00145453 -7.16333e-05 2.08142e-06
-7.16333e-05 0.000258499 -3.73256e-06
2.08142e-06 -3.73256e-06 0.000156446
0.000948368 1.04134e-05 6.10861e-07
1.04134e-05 6.5171e-06 -1.83332e-06
6.10861e-07 -1.83332e-06 -2.10834e-05
0.000983056 -2.12375e-05 6.83023e-07
-2.12375e-05 3.38025e-05 -1.25884e-06
6.83023e-07 -1.25884e-06 -1.0841e-05
0.00081446 8.70462e-06 2.12097e-07
8.70462e-06 -5.14236e-05 -1.84986e-06
2.12097e-07 -1.84986e-06 -0.000101433
0.00109205 -2.46358e-05 2.39655e-07
-2.46358e-05 9.39867e-05 -7.04126e-07
2.39655e-07 -7.04126e-07 2.69345e-05
0.000987422 -3.64031e-05 2.61113e-07
-3.64031e-05 4.91492e-05 -1.15727e-06
2.61113e-07 -1.15727e-06 -3.38841e-05
0.00109668 -5.28954e-05 1.85453e-06
-5.28954e-05 0.000104878 2.65677e-07
1.85453e-06 2.65677e-07 9.17033e-06
0.000838502 -4.90214e-05 6.21224e-07
-4.90214e-05 -4.08904e-05 -3.47185e-07
6.21224e-07 -3.47185e-07 -0.000122522
0.00167643 -6.92021e-05 5.9488e-07
-6.92021e-05 0.000389943 3.82246e-07
5.9488e-07 3.82246e-07 0.000296152
0.00100376 1.3937e-05 -8.13609e-07
1.3937e-05 4.21269e-05 -1.62008e-06
-8.13609e-07 -1.62008e-06 -1.62068e-05
0.00107602 4.24791e-05 -6.13499e-07
4.24791e-05 8.40694e-05 -4.65836e-07
-6.13499e-07 -4.65836e-07 9.45422e-06
0.00183536 4.89999e-05 -7.1545e-07
4.89999e-05 0.000274403 -8.04737e-07
-7.1545e-07 -8.04737e-07 0.000211809
0.00110668 4.91852e-05 -9.19812e-07
4.91852e-05 0.000100413 -2.52531e-08
-9.19812e-07 -2.52531e-08 2.03131e-05
0.00116676 5.59187e-05 -7.31822e-07
5.59187e-05 0.000131129 -1.20718e-06
-7.31822e-07 -1.20718e-06 5.11246e-05
0.0010061 4.96767e-05 -8.79515e-07
4.96767e-05 5.02607e-05 -3.61245e-07
-8.79515e-07 -3.61245e-07 -3.08226e-05
0.001419 6.94712e-05 -4.93233e-07
6.94712e-05 0.000174519 -9.01e-07
-4.93233e-07 -9.01e-07 8.91834e-05
0.00126856 6.44183e-05 -1.19005e-06
6.44183e-05 6.60986e-05 3.90634e-07
-1.19005e-06 3.90634e-07 -1.02636e-05
0.00105847 5.67079e-05 5.22214e-08
5.67079e-05 7.30381e-05 -4.64004e-07
5.22214e-08 -4.64004e-07 -2.07096e-05
0.00115943 6.45305e-05 -3.37109e-06
6.45305e-05 8.39126e-05 -1.22423e-06
-3.37109e-06 -1.22423e-06 -2.00397e-05
0.000940421 3.53655e-05 3.82356e-07
3.53655e-05 1.6584e-05 3.53661e-07
3.82356e-07 3.53661e-07 -5.68671e-05
0.00103072 5.07772e-05 -3.74377e-07
5.07772e-05 6.2553e-05 -4.25125e-07
-3.74377e-07 -4.25125e-07 -2.09664e-05
0.00114356 5.64981e-05 -2.34822e-07
5.64981e-05 0.000116546 -6.75972e-07
-2.34822e-07 -6.75972e-07 2.97549e-05
0.00104734 5.16172e-05 -4.42368e-08
5.16172e-05 6.56217e-05 -2.89072e-07
-4.42368e-08 -2.89072e-07 -1.95081e-05
0.00180644 3.37638e-05 -2.71978e-07
3.37638e-05 0.000163981 -1.11811e-06
-2.71978e-07 -1.11811e-06 0.000115517
0.0012715 5.89365e-05 1.26121e-07
5.89365e-05 -1.58001e-06 1.13315e-07
1.26121e-07 1.13315e-07 -6.76195e-05
0.00146725 7.5499e-05 -4.70917e-07
7.5499e-05 0.000193649 -6.38947e-08
-4.70917e-07 -6.38947e-08 9.55646e-05
0.000902033 5.76776e-05 2.51419e-07
5.76776e-05 -1.29658e-05 3.53893e-07
2.51419e-07 3.53893e-07 -0.000122806
0.00109957 4.95562e-05 2.35964e-07
4.95562e-05 0.000102686 1.49088e-07
2.35964e-07 1.49088e-07 2.03295e-05
0.00147879 7.0192e-06 3.31534e-06
7.0192e-06 5.22007e-06 3.16297e-06
3.31534e-06 3.16297e-06 -5.34743e-05
0.00119208 5.61158e-05 8.59021e-07
5.61158e-05 0.000143628 4.66582e-07
8.59021e-07 4.66582e-07 5.40692e-05
0.00111925 5.74256e-05 5.67158e-07
5.74256e-05 0.000105742 1.20713e-06
5.67158e-07 1.20713e-06 1.04824e-05
0.00172598 6.00177e-05 6.14053e-06
6.00177e-05 9.47693e-05 8.35482e-07
6.14053e-06 8.35482e-07 4.81588e-05
0.00131706 7.54878e-05 4.0156e-06
7.54878e-05 5.75316e-05 2.83543e-07
4.0156e-06 2.83543e-07 -3.79916e-05
0.00165963 8.00598e-05 9.15071e-07
8.00598e-05 0.000344004 2.46033e-06
9.15071e-07 2.46033e-06 0.000225423
0.00107243 3.30263e-05 -4.97485e-07
3.30263e-05 8.47824e-05 -5.784e-07
-4.97485e-07 -5.784e-07 1.54725e-05
0.00106542 4.11647e-05 -2.03102e-08
4.11647e-05 8.57197e-05 -8.79765e-08
-2.03102e-08 -8.79765e-08 6.59759e-06
0.00108216 4.87264e-05 7.01577e-07
4.87264e-05 9.58407e-05 4.86649e-07
7.01577e-07 4.86649e-07 9.25534e-06
0.000983453 1.00255e-05 -6.65402e-08
1.00255e-05 3.6072e-05 -1.14585e-06
-6.65402e-08 -1.14585e-06 -1.19365e-05
0.00100554 1.56478e-05 8.04137e-08
1.56478e-05 5.16703e-05 -4.05079e-07
8.04137e-08 -4.05079e-07 -1.21485e-05
0.000976813 2.74093e-05 -4.20462e-07
2.74093e-05 3.8527e-05 -1.21017e-06
-4.20462e-07 -1.21017e-06 -3.84181e-05
0.000976952 -1.39676e-05 2.24452e-07
-1.39676e-05 3.35685e-05 3.26592e-08
2.24452e-07 3.26592e-08 -1.3478e-05
0.000885571 8.89838e-06 -2.03351e-07
8.89838e-06 -8.27652e-06 4.089e-07
-2.03351e-07 4.089e-07 -7.13407e-05
0.00107536 3.6822e-05 9.63487e-09
3.6822e-05 8.77581e-05 -4.36714e-07
9.63487e-09 -4.36714e-07 3.59082e-06
0.00103885 1.87264e-05 1.66768e-07
1.87264e-05 7.10689e-05 4.00887e-07
1.66768e-07 4.00887e-07 -3.28346e-06
0.00119361 5.51067e-05 2.50167e-07
5.51067e-05 0.000141348 1.73272e-07
2.50167e-07 1.73272e-07 5.16462e-05
0.00100556 1.65034e-05 2.56983e-07
1.65034e-05 4.85229e-05 9.04019e-07
2.56983e-07 9.04019e-07 -3.44267e-05
0.00106603 2.50559e-05 3.1798e-07
2.50559e-05 8.3607e-05 7.18447e-07
3.1798e-07 7.18447e-07 1.13458e-05
0.000998355 2.01175e-05 5.48388e-07
2.01175e-05 5.24071e-05 9.55775e-07
5.48388e-07 9.55775e-07 -9.93896e-06
0.000988481 -9.31447e-06 -3.76645e-07
-9.31447e-06 3.89064e-05 1.04158e-06
-3.76645e-07 1.04158e-06 -7.59081e-06
0.000943445 1.03628e-05 3.72393e-07
1.03628e-05 3.93316e-06 1.66137e-06
3.72393e-07 1.66137e-06 -2.39079e-05
0.000950666 -3.77951e-07 -2.53439e-07
-3.77951e-07 6.70178e-06 1.59303e-08
-2.53439e-07 1.59303e-08 -2.08525e-05
0.00145415 -3.66305e-06 5.95423e-07
-3.66305e-06 0.000249418 1.91548e-06
5.95423e-07 1.91548e-06 0.000252785
0.000951416 -1.00094e-05 6.55793e-08
-1.00094e-05 6.83756e-06 -1.74214e-06
6.55793e-08 -1.74214e-06 -2.07927e-05
0.00147499 -6.60053e-06 -1.11792e-06
-6.60053e-06 0.000261681 -1.21795e-06
-1.11792e-06 -1.21795e-06 0.000264842
0.00113032 -6.74972e-06 5.4114e-06
-6.74972e-06 8.52706e-05 6.40357e-06
5.4114e-06 6.40357e-06 0.000102831
0.00149298 -9.45709e-06 -3.27011e-06
-9.45709e-06 0.000273414 -4.41503e-06
-3.27011e-06 -4.41503e-06 0.000275962
0.00108233 -9.94671e-06 2.00058e-06
-9.94671e-06 6.39089e-05 2.45759e-06
2.00058e-06 2.45759e-06 8.10804e-05
0.00103015 -1.28045e-05 -1.71573e-06
-1.28045e-05 4.1535e-05 -1.60975e-06
-1.71573e-06 -1.60975e-06 5.77098e-05
0.000953917 7.88583e-06 4.51111e-07
7.88583e-06 6.96434e-06 -1.8471e-06
4.51111e-07 -1.8471e-06 -1.88608e-05
0.00086906 1.21786e-05 1.19009e-06
1.21786e-05 -3.99449e-05 -3.21503e-06
1.19009e-06 -3.21503e-06 -4.04686e-05
0.00087746 1.46307e-05 -1.04105e-07
1.46307e-05 -3.15237e-05 1.67696e-08
-1.04105e-07 1.67696e-08 -3.38235e-05
0.00227351 2.00691e-05 1.11028e-05
2.00691e-05 0.000676063 -3.8881e-06
1.11028e-05 -3.8881e-06 0.000697401
0.000885725 1.67624e-05 -2.14269e-06
1.67624e-05 -2.33319e-05 3.2858e-06
-2.14269e-06 3.2858e-06 -2.74334e-05
0.00232032 2.38779e-05 -6.27353e-07
2.38779e-05 0.000705416 -4.29478e-08
-6.27353e-07 -4.29478e-08 0.0007253
0.00238076 2.72651e-05 -1.63602e-05
2.72651e-05 0.000741889 3.98128e-06
-1.63602e-05 3.98128e-06 0.000760169
0.00134974 1.98374e-05 -8.78664e-09
1.98374e-05 2.72826e-06 -5.73538e-07
-8.78664e-09 -5.73538e-07 -5.37042e-05
0.00147031 -6.20259e-06 -1.54113e-06
-6.20259e-06 4.22634e-05 -2.143e-06
-1.54113e-06 -2.143e-06 -2.60251e-05
0.00144875 -1.70867e-05 -2.18823e-06
-1.70867e-05 4.76952e-05 -1.23509e-07
-2.18823e-06 -1.23509e-07 -3.29373e-05
0.001508 1.64476e-05 -1.83762e-06
1.64476e-05 8.01226e-05 -5.64105e-07
-1.83762e-06 -5.64105e-07 -2.88369e-06
0.00150961 8.41249e-06 3.75667e-08
8.41249e-06 8.48551e-05 -1.5274e-07
3.75667e-08 -1.5274e-07 2.32478e-06
0.00159827 -2.49966e-05 -4.23638e-08
-2.49966e-05 0.000113214 6.82499e-08
-4.23638e-08 6.82499e-08 3.61444e-05
0.00145506 8.67413e-06 -6.25724e-07
8.67413e-06 2.20806e-05 3.34587e-07
-6.25724e-07 3.34587e-07 -3.55461e-05
0.00151355 1.63463e-06 2.70419e-06
1.63463e-06 9.02789e-05 -3.98425e-07
2.70419e-06 -3.98425e-07 1.0427e-05
0.00163098 -1.71917e-05 2.74021e-06
-1.71917e-05 0.000111794 1.70062e-06
2.74021e-06 1.70062e-06 3.99044e-05
0.00136104 -1.6704e-05 3.10559e-06
-1.6704e-05 -2.38407e-05 6.57306e-07
3.10559e-06 6.57306e-07 -8.50174e-05
0.00149061 2.47355e-05 -2.0611e-06
2.47355e-05 6.88e-05 -3.39357e-07
-2.0611e-06 -3.39357e-07 -1.46629e-05
0.00155876 8.3433e-06 -2.68497e-06
8.3433e-06 7.50994e-05 7.59083e-07
-2.68497e-06 7.59083e-07 -5.13617e-06
0.00150285 -2.7478e-05 -2.53241e-06
-2.7478e-05 6.11426e-05 1.73821e-06
-2.53241e-06 1.73821e-06 -3.43383e-06
0.00112379 -5.41955e-05 -6.2304e-07
-5.41955e-05 0.00010165 1.13759e-06
-6.2304e-07 1.13759e-06 2.53536e-05
0.000968317 -5.62128e-05 -8.01074e-07
-5.62128e-05 2.81247e-05 2.90096e-06
-8.01074e-07 2.90096e-06 -6.14162e-05
0.00133691 -6.99583e-05 -2.71981e-06
-6.99583e-05 0.000167054 2.90803e-06
-2.71981e-06 2.90803e-06 6.54281e-05
0.00150473 -5.23826e-05 8.13223e-07
-5.23826e-05 9.11536e-05 2.04742e-06
8.13223e-07 2.04742e-06 4.16672e-05
0.00120149 -6.24519e-05 -4.18899e-06
-6.24519e-05 -1.60825e-06 -1.77264e-06
-4.18899e-06 -1.77264e-06 -7.34803e-05
0.000921506 -4.94567e-05 -1.00922e-06
-4.94567e-05 2.27575e-06 7.05923e-07
-1.00922e-06 7.05923e-07 -7.67506e-05
0.00109883 -5.32197e-05 -1.05961e-06
-5.32197e-05 9.07145e-05 -6.41825e-07
-1.05961e-06 -6.41825e-07 4.50176e-06
0.00109079 -3.877e-05 -2.89625e-07
-3.877e-05 0.000100962 4.69559e-07
-2.89625e-07 4.69559e-07 1.46394e-05
0.00093743 1.35286e-05 -6.84673e-07
1.35286e-05 3.27279e-06 1.28015e-06
-6.84673e-07 1.28015e-06 -2.60493e-05
0.00106501 1.4885e-05 -1.16761e-07
1.4885e-05 7.45793e-05 1.60344e-06
-1.16761e-07 1.60344e-06 2.32342e-05
0.001065 -3.38528e-05 -1.26217e-06
-3.38528e-05 8.18416e-05 2.10403e-06
-1.26217e-06 2.10403e-06 9.68618e-06
0.00152544 2.91399e-05 2.15996e-07
2.91399e-05 8.11792e-05 3.06252e-07
2.15996e-07 3.06252e-07 3.65917e-08
0.000945696 1.01453e-05 -2.45697e-08
1.01453e-05 4.99601e-06 6.4818e-09
-2.45697e-08 6.4818e-09 -2.25928e-05
0.000880502 -2.32221e-06 -4.43022e-07
-2.32221e-06 -1.79519e-05 5.19236e-09
-4.43022e-07 5.19236e-09 -6.28776e-05
0.00165675 2.39195e-06 1.35771e-07
2.39195e-06 0.000110791 5.85918e-08
1.35771e-07 5.85918e-08 3.58376e-05
0.00135916 -3.83664e-05 -4.70778e-07
-3.83664e-05 -3.1282e-05 -3.05979e-07
-4.70778e-07 -3.05979e-07 -7.90591e-05
0.000921679 -5.16306e-05 -1.71157e-07
-5.16306e-05 9.14941e-06 7.74347e-07
-1.71157e-07 7.74347e-07 -7.3703e-05
0.00134204 -6.91736e-05 -4.88777e-07
-6.91736e-05 0.000203494 3.38166e-07
-4.88777e-07 3.38166e-07 9.9489e-05
0.00118405 -6.83399e-05 6.51061e-07
-6.83399e-05 6.03778e-05 7.29959e-07
6.51061e-07 7.29959e-07 -4.24464e-05
0.00162262 -6.60398e-05 9.80174e-08
-6.60398e-05 0.000136331 -1.03756e-06
9.80174e-08 -1.03756e-06 8.6829e-05
0.00102993 8.73967e-07 5.59208e-07
8.73967e-07 5.74517e-05 -4.84557e-07
5.59208e-07 -4.84557e-07 9.06903e-06
0.00107013 -1.69151e-05 -5.16707e-07
-1.69151e-05 8.38882e-05 5.16043e-07
-5.16707e-07 5.16043e-07 1.64404e-05
0.00102736 -5.3305e-05 4.15706e-07
-5.3305e-05 5.14464e-05 3.24821e-07
4.15706e-07 3.24821e-07 -3.04248e-05
0.00128137 -5.95275e-05 -1.04412e-06
-5.95275e-05 0.00019149 -2.60788e-07
-1.04412e-06 -2.60788e-07 0.000100587
0.0010015 -4.42189e-05 4.08393e-07
-4.42189e-05 5.9107e-05 3.32458e-07
4.08393e-07 3.32458e-07 -3.75132e-05
0.00103073 -3.07753e-05 2.40363e-07
-3.07753e-05 6.8433e-05 -2.77086e-07
2.40363e-07 -2.77086e-07 -1.38729e-05
0.00151645 3.10725e-05 3.23817e-06
3.10725e-05 6.92421e-05 8.63302e-07
3.23817e-06 8.63302e-07 -7.09372e-06
0.00177414 -9.00866e-06 3.1793e-06
-9.00866e-06 0.000157958 -9.36663e-07
3.1793e-06 -9.36663e-07 9.54589e-05
0.00169479 -6.00947e-05 3.47117e-07
-6.00947e-05 9.18692e-05 -3.56688e-06
3.47117e-07 -3.56688e-06 6.59023e-05
0.0014696 -7.7384e-05 3.9401e-06
-7.7384e-05 0.000128644 1.05485e-06
3.9401e-06 1.05485e-06 4.68222e-05
0.00111237 -5.74201e-05 -9.19306e-08
-5.74201e-05 0.000103252 -1.98258e-06
-9.19306e-08 -1.98258e-06 1.37231e-05
0.00160539 -8.16314e-05 1.78891e-06
-8.16314e-05 0.000325176 -2.69181e-06
1.78891e-06 -2.69181e-06 0.000205235
0.000777551 1.38368e-05 -3.03993e-07
1.38368e-05 -6.99805e-05 -1.6834e-06
-3.03993e-07 -1.6834e-06 -0.000113649
0.00097312 -9.84064e-06 7.71609e-07
-9.84064e-06 2.88878e-05 -1.29103e-06
7.71609e-07 -1.29103e-06 -1.72344e-05
0.00122395 -1.3973e-05 1.14386e-07
-1.3973e-05 0.000165102 -7.35789e-07
1.14386e-07 -7.35789e-07 0.000107135
0.000888581 8.85499e-06 -3.78613e-07
8.85499e-06 -5.54975e-06 -1.18255e-06
-3.78613e-07 -1.18255e-06 -7.15641e-05
0.00116539 -2.9481e-05 4.63344e-08
-2.9481e-05 0.000134204 -7.90216e-07
4.63344e-08 -7.90216e-07 5.6135e-05
0.000914605 -3.19904e-05 9.25394e-08
-3.19904e-05 1.62986e-05 -6.06779e-07
9.25394e-08 -6.06779e-07 -7.56719e-05
0.00120067 -4.7343e-05 2.31681e-06
-4.7343e-05 0.000167799 -7.9282e-07
2.31681e-06 -7.9282e-07 6.38343e-05
0.00100417 -5.76222e-05 3.15416e-07
-5.76222e-05 6.37041e-05 -2.93429e-07
3.15416e-07 -2.93429e-07 -2.79963e-05
0.000934448 3.64153e-05 -3.92441e-07
3.64153e-05 1.42039e-05 -5.72226e-07
-3.92441e-07 -5.72226e-07 -5.97698e-05
0.00109101 5.12605e-05 -1.46835e-06
5.12605e-05 9.22763e-05 -7.56703e-07
-1.46835e-06 -7.56703e-07 9.58574e-06
0.00165101 3.09084e-05 -4.10922e-06
3.09084e-05 8.79258e-05 -3.18957e-06
-4.10922e-06 -3.18957e-06 4.03992e-05
0.00143667 6.06133e-05 -2.0076e-06
6.06133e-05 8.8851e-05 -1.63946e-07
-2.0076e-06 -1.63946e-07 2.07078e-05
0.00122663 5.58174e-05 -1.0616e-06
5.58174e-05 0.000153615 -3.52534e-07
-1.0616e-06 -3.52534e-07 6.87726e-05
0.00114698 5.64178e-05 -9.49366e-07
5.64178e-05 0.000119484 -1.80347e-06
-9.49366e-07 -1.80347e-06 3.34325e-05
0.00174312 8.12283e-05 -1.44726e-06
8.12283e-05 0.000327857 -6.83379e-07
-1.44726e-06 -6.83379e-07 0.000230863
0.000910041 5.86443e-05 -1.01089e-06
5.86443e-05 -1.54959e-05 -1.84886e-06
-1.01089e-06 -1.84886e-06 -0.000125291
0.00106737 5.02786e-05 -3.42843e-07
5.02786e-05 8.7143e-05 -3.67799e-07
-3.42843e-07 -3.67799e-07 4.67775e-06
0.00142354 6.20448e-06 8.9407e-07
6.20448e-06 -2.3766e-05 7.15908e-07
8.9407e-07 7.15908e-07 -8.05561e-05
0.0011029 5.38823e-05 3.05775e-07
5.38823e-05 9.93113e-05 3.58349e-07
3.05775e-07 3.58349e-07 1.00027e-05
0.000975702 5.37805e-05 2.57006e-07
5.37805e-05 3.163e-05 -2.49484e-07
2.57006e-07 -2.49484e-07 -6.47676e-05
0.001596 5.54e-05 3.65149e-07
5.54e-05 3.64311e-05 -2.81053e-07
3.65149e-07 -2.81053e-07 -1.10299e-05
0.00150063 8.09697e-05 8.00238e-07
8.09697e-05 0.000141254 -5.31132e-07
8.00238e-07 -5.31132e-07 4.63161e-05
0.00154932 7.76531e-05 2.17198e-07
7.76531e-05 0.000293213 5.72018e-07
2.17198e-07 5.72018e-07 0.000174072
0.00113862 5.31024e-05 3.82298e-07
5.31024e-05 0.000125866 3.09972e-07
3.82298e-07 3.09972e-07 3.62887e-05
0.00182191 3.90678e-05 6.45582e-06
3.90678e-05 7.05025e-05 1.14265e-06
6.45582e-06 1.14265e-06 2.46523e-05
0.00137621 6.18432e-05 3.2674e-07
6.18432e-05 0.000226736 2.35571e-08
3.2674e-07 2.35571e-08 0.00013346
0.00154944 7.17123e-05 -1.17732e-06
7.17123e-05 0.000313345 2.08966e-06
-1.17732e-06 2.08966e-06 0.000201285
0.00112672 8.23171e-05 6.18011e-06
8.23171e-05 -0.000166351 2.70658e-06
6.18011e-06 2.70658e-06 -0.00024733
0.00109253 7.42188e-05 4.14906e-08
7.42188e-05 3.21855e-05 2.72987e-06
4.14906e-08 2.72987e-06 -9.08861e-05
0.00202617 -2.36736e-05 6.60654e-06
-2.36736e-05 0.00011501 -2.63075e-06
6.60654e-06 -2.63075e-06 0.000142161
0.00105703 4.1727e-05 -4.57916e-07
4.1727e-05 8.22888e-05 -7.50722e-07
-4.57916e-07 -7.50722e-07 3.1386e-06
0.00105809 4.82462e-05 3.21702e-08
4.82462e-05 8.48788e-05 -4.93372e-08
3.21702e-08 -4.93372e-08 -1.72633e-06
0.00122144 5.58431e-05 5.74092e-07
5.58431e-05 0.000157775 2.56362e-07
5.74092e-07 2.56362e-07 6.6895e-05
0.000971973 -1.10382e-05 3.64448e-07
-1.10382e-05 3.1059e-05 -1.08273e-06
3.64448e-07 -1.08273e-06 -1.6025e-05
0.000879278 -5.77317e-06 -7.81832e-08
-5.77317e-06 -1.17913e-05 -4.22028e-07
-7.81832e-08 -4.22028e-07 -7.46935e-05
0.00116704 3.36283e-05 -3.13865e-07
3.36283e-05 0.000137034 -2.83959e-07
-3.13865e-07 -2.83959e-07 6.30091e-05
0.000988226 3.18604e-05 -5.40164e-07
3.18604e-05 4.33257e-05 -1.24323e-06
-5.40164e-07 -1.24323e-06 -4.14954e-05
0.000981372 -1.55305e-05 -2.23866e-07
-1.55305e-05 3.60413e-05 1.38285e-08
-2.23866e-07 1.38285e-08 -1.09299e-05
0.000942424 1.32668e-05 2.29208e-07
1.32668e-05 2.2848e-05 3.10938e-08
2.29208e-07 3.10938e-08 -3.94627e-05
0.00111028 5.11745e-05 -6.25183e-07
5.11745e-05 9.94768e-05 -7.88807e-07
-6.25183e-07 -7.88807e-07 9.84598e-06
0.00105866 1.63674e-05 -7.5769e-08
1.63674e-05 8.0081e-05 9.95513e-10
-7.5769e-08 9.95513e-10 7.88607e-06
0.00107774 2.04693e-05 7.21321e-08
2.04693e-05 8.65589e-05 -2.12432e-08
7.21321e-08 -2.12432e-08 4.20602e-06
0.00110162 4.16943e-05 2.51291e-07
4.16943e-05 8.61355e-05 1.08744e-06
2.51291e-07 1.08744e-06 -4.68696e-06
0.00117999 3.66733e-05 1.95631e-07
3.66733e-05 0.000139291 3.15122e-07
1.95631e-07 3.15122e-07 5.86048e-05
0.00114474 3.51031e-05 3.23982e-07
3.51031e-05 0.000124292 4.75531e-07
3.23982e-07 4.75531e-07 5.21933e-05
0.000822753 7.67166e-06 -1.99222e-07
7.67166e-06 -3.74493e-05 9.31761e-07
-1.99222e-07 9.31761e-07 -0.000100374
0.000793439 6.76925e-06 3.91045e-07
6.76925e-06 -5.90481e-05 1.41954e-06
3.91045e-07 1.41954e-06 -0.00010736
0.00119052 -2.56572e-06 2.33928e-07
-2.56572e-06 0.000149746 3.13678e-07
2.33928e-07 3.13678e-07 8.72365e-05
0.00079601 -2.97537e-06 -3.26654e-07
-2.97537e-06 -5.80026e-05 1.43007e-06
-3.26654e-07 1.43007e-06 -0.000106744
0.000946879 1.10456e-05 2.58474e-07
1.10456e-05 6.05605e-06 1.68014e-06
2.58474e-07 1.68014e-06 -2.21136e-05
0.000945046 1.15868e-06 -2.77364e-07
1.15868e-06 4.77703e-06 2.80496e-09
-2.77364e-07 2.80496e-09 -2.30628e-05
0.000895575 7.62056e-08 1.40822e-07
7.62056e-08 -3.47988e-05 3.10089e-06
1.40822e-07 3.10089e-06 -3.44775e-05
0.000949761 -8.91051e-06 2.27245e-07
-8.91051e-06 6.32854e-06 -1.7045e-06
2.27245e-07 -1.7045e-06 -2.12265e-05
0.00118667 -3.08367e-06 -6.47165e-07
-3.08367e-06 0.000113658 -1.24582e-06
-6.47165e-07 -1.24582e-06 0.000115456
0.00224879 -4.64068e-06 3.02967e-06
-4.64068e-06 0.000651752 4.00755e-06
3.02967e-06 4.00755e-06 0.000675288
0.00149278 -6.3192e-06 -1.93814e-06
-6.3192e-06 0.000270966 -4.34168e-06
-1.93814e-06 -4.34168e-06 0.000274002
0.00108578 -6.93499e-06 1.02177e-06
-6.93499e-06 6.24131e-05 2.44117e-06
1.02177e-06 2.44117e-06 8.01992e-05
0.0010314 -9.84887e-06 -1.20932e-06
-9.84887e-06 3.79444e-05 -1.56532e-06
-1.20932e-06 -1.56532e-06 5.53158e-05
0.000958931 5.27814e-06 3.459e-07
5.27814e-06 7.53496e-06 -1.83154e-06
3.459e-07 -1.83154e-06 -1.68853e-05
0.000952455 7.5811e-06 -2.91547e-08
7.5811e-06 5.96873e-06 -2.55684e-09
-2.91547e-08 -2.55684e-09 -1.98179e-05
0.000879698 9.47846e-06 8.28348e-07
9.47846e-06 -3.84335e-05 -3.19626e-06
8.28348e-07 -3.19626e-06 -3.74095e-05
0.00117108 1.3216e-05 -4.04503e-07
1.3216e-05 0.000113326 2.6887e-08
-4.04503e-07 2.6887e-08 0.000114112
0.00223288 1.61175e-05 9.04152e-06
1.61175e-05 0.000651021 -3.89875e-06
9.04152e-06 -3.89875e-06 0.000673531
0.000894168 1.46725e-05 -1.76652e-06
1.46725e-05 -2.33514e-05 3.22822e-06
-1.76652e-06 3.22822e-06 -2.57134e-05
0.00227559 2.01291e-05 -7.1353e-07
2.01291e-05 0.000677729 -3.68899e-08
-7.1353e-07 -3.68899e-08 0.000698906
0.00232186 2.37971e-05 -1.42181e-05
2.37971e-05 0.000706797 3.94339e-06
-1.42181e-05 3.94339e-06 0.000726535
0.00147764 8.68453e-06 -2.39682e-06
8.68453e-06 3.6861e-05 -2.09115e-06
-2.39682e-06 -2.09115e-06 -1.90716e-05
0.00153778 -2.29141e-05 -2.12269e-06
-2.29141e-05 8.35431e-05 -8.41413e-08
-2.12269e-06 -8.41413e-08 5.51934e-06
0.00153669 4.75599e-06 -1.99365e-06
4.75599e-06 9.94887e-05 -4.53153e-07
-1.99365e-06 -4.53153e-07 1.72194e-05
0.00151919 1.84521e-06 -1.7167e-07
1.84521e-06 9.27107e-05 -6.352e-07
-1.7167e-07 -6.352e-07 1.28746e-05
0.00151499 -1.66646e-05 -2.22679e-07
-1.66646e-05 6.09669e-05 6.63862e-07
-2.22679e-07 6.63862e-07 -1.00476e-05
0.0014123 -1.88472e-05 1.30484e-06
-1.88472e-05 1.43904e-05 2.98404e-07
1.30484e-06 2.98404e-07 -4.95595e-05
0.00155717 3.33047e-06 2.31199e-06
3.33047e-06 0.000101713 -5.5237e-08
2.31199e-06 -5.5237e-08 3.00775e-05
0.00237525 -5.13245e-05 -1.32581e-06
-5.13245e-05 0.000376059 -5.97979e-06
-1.32581e-06 -5.97979e-06 0.000345127
0.00168411 8.30594e-06 3.86698e-06
8.30594e-06 9.74197e-05 8.35115e-07
3.86698e-06 8.35115e-07 4.90471e-05
0.000981009 -4.57214e-06 4.16241e-07
-4.57214e-06 3.16115e-05 -1.1068e-06
4.16241e-07 -1.1068e-06 -9.66619e-06
0.00150124 2.89736e-05 -2.76714e-06
2.89736e-05 6.97462e-05 -6.60243e-07
-2.76714e-06 -6.60243e-07 -1.10254e-05
0.00168521 1.82589e-06 -2.82698e-06
1.82589e-06 0.000122592 9.84544e-07
-2.82698e-06 9.84544e-07 4.79717e-05
0.00125952 -3.89318e-05 -1.30321e-06
-3.89318e-05 -7.6077e-05 2.73439e-06
-1.30321e-06 2.73439e-06 -0.000126863
0.000906831 -5.10276e-05 -3.20294e-07
-5.10276e-05 2.39832e-06 1.87463e-06
-3.20294e-07 1.87463e-06 -7.95908e-05
0.00121549 -6.64815e-05 -1.51828e-06
-6.64815e-05 0.000141027 4.52818e-06
-1.51828e-06 4.52818e-06 3.51228e-05
0.000950097 -6.22943e-05 -2.78137e-06
-6.22943e-05 -6.04559e-05 6.81697e-07
-2.78137e-06 6.81697e-07 -0.000161411
0.00140658 -6.40231e-05 -2.76744e-06
-6.40231e-05 3.39316e-05 -1.26874e-06
-2.76744e-06 -1.26874e-06 -1.59863e-05
0.00119253 -5.70789e-05 2.77507e-07
-5.70789e-05 0.000131516 2.02254e-07
2.77507e-07 2.02254e-07 4.95233e-05
0.000953281 -5.15017e-05 -4.14428e-06
-5.15017e-05 2.63496e-05 -1.9922e-06
-4.14428e-06 -1.9922e-06 -6.18045e-05
0.000913685 -4.14511e-05 -1.38776e-07
-4.14511e-05 1.75482e-05 9.96681e-07
-1.38776e-07 9.96681e-07 -8.04325e-05
0.000947216 1.00188e-05 -6.94298e-07
1.00188e-05 5.66241e-06 1.86431e-06
-6.94298e-07 1.86431e-06 -2.19406e-05
0.00107147 -3.03435e-05 3.9966e-08
-3.03435e-05 8.70358e-05 4.68845e-07
3.9966e-08 4.68845e-07 5.06866e-06
0.00124095 -1.40603e-05 -2.41053e-07
-1.40603e-05 0.000164721 7.62895e-07
-2.41053e-07 7.62895e-07 0.000117674
0.00104983 -8.67786e-06 -3.29918e-07
-8.67786e-06 7.44022e-05 1.85816e-06
-3.29918e-07 1.85816e-06 6.67619e-06
0.000775701 5.11531e-06 -2.26997e-07
5.11531e-06 -7.15222e-05 1.25126e-06
-2.26997e-07 1.25126e-06 -0.000116289
0.00153542 2.98694e-05 6.5994e-08
2.98694e-05 7.51539e-05 9.07516e-08
6.5994e-08 9.07516e-08 -1.05631e-06
0.000890638 7.78333e-07 3.02104e-07
7.78333e-07 -1.34212e-05 -4.66439e-07
3.02104e-07 -4.66439e-07 -5.64863e-05
0.000974388 -1.17801e-05 -1.51307e-07
-1.17801e-05 2.99063e-05 3.43323e-08
-1.51307e-07 3.43323e-08 -1.63832e-05
0.00103122 -4.59851e-06 -5.17191e-07
-4.59851e-06 6.7815e-05 4.77137e-07
-5.17191e-07 4.77137e-07 8.67167e-06
0.00169663 -9.08186e-06 8.31549e-07
-9.08186e-06 0.000115451 5.15878e-07
8.31549e-07 5.15878e-07 5.40173e-05
0.00155302 -6.00014e-05 -8.91884e-07
-6.00014e-05 2.78744e-05 -1.1861e-06
-8.91884e-07 -1.1861e-06 -1.15395e-06
0.00103202 -5.60283e-05 -1.44059e-07
-5.60283e-05 5.99598e-05 5.49969e-07
-1.44059e-07 5.49969e-07 -2.84099e-05
0.00121895 -7.25044e-05 1.01958e-06
-7.25044e-05 0.000139644 -4.31046e-07
1.01958e-06 -4.31046e-07 1.96971e-05
0.00132286 -7.44712e-05 -1.76439e-07
-7.44712e-05 5.68424e-05 6.78023e-07
-1.76439e-07 6.78023e-07 -2.39397e-05
0.000969725 5.72046e-06 -1.50987e-07
5.72046e-06 3.50935e-05 1.86999e-08
-1.50987e-07 1.86999e-08 -2.96168e-05
0.00113878 -2.99684e-05 2.35446e-08
-2.99684e-05 0.000120707 -1.94052e-08
2.35446e-08 -1.94052e-08 4.18615e-05
0.0009665 -5.63332e-05 -1.48809e-06
-5.63332e-05 4.34344e-05 8.77517e-08
-1.48809e-06 8.77517e-08 -4.87972e-05
0.00117543 -4.41452e-05 1.80529e-07
-4.41452e-05 0.000155183 -1.87502e-07
1.80529e-07 -1.87502e-07 5.24549e-05
0.000993638 -3.75713e-05 -7.2086e-08
-3.75713e-05 5.52873e-05 6.07126e-07
-7.2086e-08 6.07126e-07 -3.61035e-05
0.00139042 2.5843e-05 3.69104e-06
2.5843e-05 -2.10258e-05 2.78216e-07
3.69104e-06 2.78216e-07 -9.30941e-05
0.00200165 -3.44431e-05 3.22239e-06
-3.44431e-05 0.000204859 -3.53684e-06
3.22239e-06 -3.53684e-06 0.000183308
0.00179638 -8.6344e-05 5.08784e-06
-8.6344e-05 0.000180059 -8.20115e-07
5.08784e-06 -8.20115e-07 0.000123904
0.00164968 -8.86832e-05 1.87408e-06
-8.86832e-05 0.000307994 -1.96198e-06
1.87408e-06 -1.96198e-06 0.000194661
0.000988527 -6.29911e-05 6.76383e-07
-6.29911e-05 6.05419e-05 -3.03596e-06
6.76383e-07 -3.03596e-06 -4.38084e-05
0.000788249 1.55745e-05 6.55134e-08
1.55745e-05 -5.38539e-05 -1.40936e-06
6.55134e-08 -1.40936e-06 -0.000112204
0.000890754 1.10682e-05 3.87032e-07
1.10682e-05 -3.4521e-06 -1.29611e-06
3.87032e-07 -1.29611e-06 -6.65288e-05
0.00115513 1.4198e-05 2.81179e-07
1.4198e-05 0.000133977 -3.03832e-07
2.81179e-07 -3.03832e-07 6.39565e-05
0.00110178 -3.68424e-05 6.37021e-07
-3.68424e-05 0.000105565 -1.025e-06
6.37021e-07 -1.025e-06 2.82967e-05
0.00107313 -3.75418e-05 -3.22399e-08
-3.75418e-05 9.11048e-05 -1.20648e-07
-3.22399e-08 -1.20648e-07 4.35086e-06
0.00110657 -3.74384e-05 1.71555e-08
-3.74384e-05 0.000121358 -1.69217e-06
1.71555e-08 -1.69217e-06 2.26583e-05
0.00103296 -4.94365e-05 3.88277e-06
-4.94365e-05 0.000108564 -7.09297e-07
3.88277e-06 -7.09297e-07 -1.24783e-05
0.00103326 5.01732e-05 -7.87687e-07
5.01732e-05 7.05758e-05 -9.52932e-07
-7.87687e-07 -9.52932e-07 -1.19242e-05
0.00100726 5.15179e-05 -1.81825e-07
5.15179e-05 5.19746e-05 7.11027e-08
-1.81825e-07 7.11027e-08 -3.70945e-05
0.00137446 4.82095e-06 -2.66775e-06
4.82095e-06 -5.05406e-05 -1.05835e-06
-2.66775e-06 -1.05835e-06 -0.000105263
0.00140015 5.05734e-05 -2.43199e-06
5.05734e-05 -5.27283e-05 -1.82975e-06
-2.43199e-06 -1.82975e-06 -0.000101025
0.00167466 8.63074e-05 -2.7084e-06
8.63074e-05 0.000219882 -1.51443e-06
-2.7084e-06 -1.51443e-06 0.000125563
0.000795262 4.93605e-05 -1.32879e-07
4.93605e-05 -6.06119e-05 -1.40367e-06
-1.32879e-07 -1.40367e-06 -0.000158111
0.00143802 7.53364e-05 -3.9921e-07
7.53364e-05 0.000242368 -7.79678e-07
-3.9921e-07 -7.79678e-07 0.000123312
0.0011388 5.3041e-05 7.31297e-08
5.3041e-05 0.000126107 8.93191e-08
7.31297e-08 8.93191e-08 3.7079e-05
0.0015052 3.63173e-05 -2.21114e-06
3.63173e-05 -8.29952e-05 1.58977e-07
-2.21114e-06 1.58977e-07 -0.000128682
0.0011966 5.72363e-05 -2.20244e-07
5.72363e-05 0.000139634 -3.20219e-07
-2.20244e-07 -3.20219e-07 4.68546e-05
0.00123321 6.30377e-05 -1.83311e-07
6.30377e-05 0.000165847 4.8228e-07
-1.83311e-07 4.8228e-07 5.4051e-05
0.00145026 8.4976e-05 2.64957e-06
8.4976e-05 -2.28112e-05 -9.41545e-07
2.64957e-06 -9.41545e-07 -0.00010068
0.00125217 7.86751e-05 -1.04122e-06
7.86751e-05 0.000115567 9.07034e-07
-1.04122e-06 9.07034e-07 -1.24259e-05
0.00189673 -1.66862e-05 -2.2365e-06
-1.66862e-05 6.15994e-05 -8.1065e-07
-2.2365e-06 -8.1065e-07 7.9802e-05
0.00117853 5.5129e-05 -1.73509e-07
5.5129e-05 0.00013959 -4.48558e-07
-1.73509e-07 -4.48558e-07 4.69428e-05
0.00117569 9.41359e-05 9.21558e-06
9.41359e-05 -0.00027476 2.14087e-06
9.21558e-06 2.14087e-06 -0.000338297
0.00128555 6.07703e-05 -1.10092e-06
6.07703e-05 0.000190905 -1.68356e-07
-1.10092e-06 -1.68356e-07 9.17953e-05
0.00111857 6.60848e-05 -1.80973e-06
6.60848e-05 0.000138052 1.82205e-06
-1.80973e-06 1.82205e-06 1.96478e-06
0.000655754 9.0395e-05 5.70156e-08
9.0395e-05 -0.000249118 1.48549e-06
5.70156e-08 1.48549e-06 -0.000364914
0.00524284 -8.4115e-05 -1.83776e-05
-8.4115e-05 0.00184147 1.67476e-06
-1.83776e-05 1.67476e-06 0.00132747
0.00146122 -0.000112392 4.57317e-05
-0.000112392 -4.7236e-05 1.61214e-05
4.57317e-05 1.61214e-05 -0.000246032
0.00237765 5.96758e-05 3.19155e-06
5.96758e-05 0.000364309 4.8682e-06
3.19155e-06 4.8682e-06 0.000407585
-0.00241543 -0.000103959 -5.29013e-05
-0.000103959 -0.00140618 -2.06872e-05
-5.29013e-05 -2.06872e-05 -0.00141771
0.00124693 -0.000157723 -9.72998e-06
-0.000157723 -0.000169971 1.58099e-07
-9.72998e-06 1.58099e-07 0.000305318
0.00104153 4.75568e-05 -5.47443e-07
4.75568e-05 7.74106e-05 -6.15091e-07
-5.47443e-07 -6.15091e-07 -9.17459e-06
0.00117366 5.4494e-05 -1.20248e-07
5.4494e-05 0.000135246 -5.68945e-08
-1.20248e-07 -5.68945e-08 4.43943e-05
0.0011384 5.23457e-05 6.43003e-07
5.23457e-05 0.000101678 8.05054e-07
6.43003e-07 8.05054e-07 8.24188e-06
0.000973714 -2.01335e-05 1.43638e-07
-2.01335e-05 3.27779e-05 -9.80058e-07
1.43638e-07 -9.80058e-07 -1.4584e-05
0.000882604 1.91003e-05 -2.10828e-08
1.91003e-05 -7.68657e-06 -1.05386e-06
-2.10828e-08 -1.05386e-06 -7.05857e-05
0.00104952 5.36491e-06 8.91964e-09
5.36491e-06 7.52245e-05 -7.22015e-07
8.91964e-09 -7.22015e-07 3.42062e-06
0.00114703 2.77208e-05 -2.81636e-07
2.77208e-05 0.000123448 -7.86241e-07
-2.81636e-07 -7.86241e-07 4.15783e-05
0.00104983 4.56063e-05 -1.13779e-06
4.56063e-05 6.83327e-05 -1.45407e-06
-1.13779e-06 -1.45407e-06 -2.10483e-05
0.00104947 3.59495e-05 -2.72536e-07
3.59495e-05 7.58949e-05 -4.97493e-07
-2.72536e-07 -4.97493e-07 2.52917e-06
0.000886569 4.67872e-06 1.62234e-07
4.67872e-06 -1.17912e-05 4.43786e-07
1.62234e-07 4.43786e-07 -5.96829e-05
0.000923163 4.18647e-06 -2.45452e-08
4.18647e-06 1.37583e-05 5.76283e-08
-2.45452e-08 5.76283e-08 -4.85496e-05
0.00110437 4.31884e-05 4.58886e-08
4.31884e-05 8.99225e-05 7.19899e-08
4.58886e-08 7.19899e-08 -4.12256e-07
0.00111552 3.5396e-05 -1.75036e-07
3.5396e-05 0.00010634 -4.73645e-07
-1.75036e-07 -4.73645e-07 2.5365e-05
0.0011936 5.49449e-05 -6.88211e-08
5.49449e-05 0.00014816 -4.95443e-08
-6.88211e-08 -4.95443e-08 6.71055e-05
0.00117003 4.99615e-05 2.94226e-07
4.99615e-05 0.000130807 1.1721e-06
2.94226e-07 1.1721e-06 4.02029e-05
0.000902681 2.40861e-05 2.26175e-07
2.40861e-05 9.95435e-08 1.49005e-06
2.26175e-07 1.49005e-06 -7.41783e-05
0.000851737 -2.15306e-07 2.83031e-07
-2.15306e-07 -2.25768e-05 2.831e-07
2.83031e-07 2.831e-07 -8.57238e-05
0.000770171 -2.57566e-05 -9.51041e-07
-2.57566e-05 -6.95983e-05 1.43404e-06
-9.51041e-07 1.43404e-06 -0.000118756
0.00106507 7.19776e-06 -1.10803e-08
7.19776e-06 8.43767e-05 6.67812e-07
-1.10803e-08 6.67812e-07 2.22326e-05
0.00118908 2.75977e-05 1.99489e-07
2.75977e-05 0.000147512 4.89311e-07
1.99489e-07 4.89311e-07 7.46225e-05
0.00100125 -1.09354e-05 -1.96417e-07
-1.09354e-05 5.34477e-05 9.33228e-07
-1.96417e-07 9.33228e-07 -1.14351e-05
0.00102715 -1.39991e-06 3.39024e-07
-1.39991e-06 6.61368e-05 -4.9703e-07
3.39024e-07 -4.9703e-07 3.17669e-06
0.000970536 -2.25197e-05 -7.87349e-07
-2.25197e-05 3.10699e-05 9.59677e-07
-7.87349e-07 9.59677e-07 -1.7628e-05
0.000795098 3.19024e-06 1.59496e-07
3.19024e-06 -5.75923e-05 4.78264e-07
1.59496e-07 4.78264e-07 -0.000106763
0.000951421 9.13024e-06 9.71248e-09
9.13024e-06 8.18289e-06 1.6915e-06
9.71248e-09 1.6915e-06 -2.03811e-05
0.000945145 1.67758e-06 -2.33306e-07
1.67758e-06 5.09968e-06 -4.19162e-09
-2.33306e-07 -4.19162e-09 -2.30212e-05
0.000914887 2.82132e-06 -3.68034e-07
2.82132e-06 -2.43692e-05 4.35525e-06
-3.68034e-07 4.35525e-06 -2.43773e-05
0.00094673 -8.35132e-06 3.93605e-07
-8.35132e-06 5.67084e-06 -1.67011e-06
3.93605e-07 -1.67011e-06 -2.217e-05
0.000899511 1.46183e-08 9.25328e-08
1.46183e-08 -3.27925e-05 2.13914e-09
9.25328e-08 2.13914e-09 -3.24956e-05
0.00224926 -9.07035e-07 -8.69759e-09
-9.07035e-07 0.000651285 4.01795e-06
-8.69759e-09 4.01795e-06 0.000674909
0.000916383 -2.75761e-06 -4.49234e-07
-2.75761e-06 -2.34911e-05 -4.37197e-06
-4.49234e-07 -4.37197e-06 -2.32738e-05
0.00166426 -4.05863e-06 -1.15388e-07
-4.05863e-06 0.000354537 2.87122e-08
-1.15388e-07 2.87122e-08 0.000375276
0.00104189 -6.64378e-06 -7.3836e-07
-6.64378e-06 3.98545e-05 -1.54357e-06
-7.3836e-07 -1.54357e-06 5.78896e-05
0.00096117 2.7492e-06 1.62114e-07
2.7492e-06 7.36653e-06 -1.83775e-06
1.62114e-07 -1.83775e-06 -1.62163e-05
0.000956527 4.92347e-06 -5.37958e-09
4.92347e-06 6.05851e-06 -8.19414e-09
-5.37958e-09 -8.19414e-09 -1.83256e-05
0.000889222 6.5067e-06 5.52031e-07
6.5067e-06 -3.65508e-05 -3.17947e-06
5.52031e-07 -3.17947e-06 -3.43071e-05
0.000950673 7.31535e-06 -5.63468e-07
7.31535e-06 4.82227e-06 1.83897e-06
-5.63468e-07 1.83897e-06 -2.09259e-05
0.00116468 1.02071e-05 -1.35612e-07
1.02071e-05 0.000106126 -6.03533e-07
-1.35612e-07 -6.03533e-07 0.000108538
0.00219573 1.2096e-05 6.83312e-06
1.2096e-05 0.000628532 -3.89519e-06
6.83312e-06 -3.89519e-06 0.000652054
0.00089303 1.23218e-05 -1.39325e-06
1.23218e-05 -2.78675e-05 3.21082e-06
-1.39325e-06 3.21082e-06 -2.86711e-05
0.00225598 1.57513e-05 -3.4847e-06
1.57513e-05 0.000663646 1.13532e-06
-3.4847e-06 1.13532e-06 0.000685862
0.00227879 2.01503e-05 -1.21852e-05
2.01503e-05 0.000679959 3.95457e-06
-1.21852e-05 3.95457e-06 0.000700972
0.00136481 -1.55699e-05 -2.72127e-06
-1.55699e-05 -5.98844e-06 -1.5578e-07
-2.72127e-06 -1.5578e-07 -7.61619e-05
0.0015236 1.50442e-06 -2.69659e-06
1.50442e-06 9.45057e-05 -9.59388e-07
-2.69659e-06 -9.59388e-07 1.46759e-05
0.00143488 -1.96186e-05 1.71069e-06
-1.96186e-05 3.90687e-05 4.27695e-07
1.71069e-06 4.27695e-07 -2.77607e-05
0.00173702 -4.5248e-05 -1.2399e-06
-4.5248e-05 7.01417e-05 -2.07306e-06
-1.2399e-06 -2.07306e-06 4.03612e-05
0.00144557 1.50909e-06 -7.20558e-07
1.50909e-06 4.70517e-05 -3.62192e-07
-7.20558e-07 -3.62192e-07 -2.51544e-05
0.0013188 7.7333e-06 -1.00476e-06
7.7333e-06 -7.46081e-05 -4.14098e-07
-1.00476e-06 -4.14098e-07 -0.000128183
0.00168615 3.07079e-05 2.40196e-06
3.07079e-05 9.13701e-05 2.41394e-06
2.40196e-06 2.41394e-06 1.49548e-05
0.00227893 -0.000114163 0.00012653
-0.000114163 0.000448401 3.658e-05
0.00012653 3.658e-05 0.000214273
0.00130048 -5.39852e-06 -3.49827e-06
-5.39852e-06 4.63237e-05 3.25407e-07
-3.49827e-06 3.25407e-07 4.14077e-06
0.000980493 -5.18948e-07 -2.52132e-07
-5.18948e-07 3.20154e-05 -1.08429e-06
-2.52132e-07 -1.08429e-06 -9.24101e-06
0.000985645 -1.36515e-05 2.64465e-07
-1.36515e-05 3.42933e-05 -1.12296e-09
2.64465e-07 -1.12296e-09 -7.32879e-06
0.000998878 7.59291e-06 -2.35664e-07
7.59291e-06 5.06135e-05 -7.5147e-07
-2.35664e-07 -7.5147e-07 -4.10921e-06
0.00100976 -1.27427e-05 -2.40004e-07
-1.27427e-05 5.57517e-05 -2.81245e-07
-2.40004e-07 -2.81245e-07 7.21605e-07
0.00157627 2.89979e-05 -3.10624e-06
2.89979e-05 9.20415e-05 -7.16011e-07
-3.10624e-06 -7.16011e-07 1.58839e-05
0.00170712 -9.40453e-06 -7.61749e-07
-9.40453e-06 0.000117597 1.6518e-06
-7.61749e-07 1.6518e-06 5.68145e-05
0.00133093 -5.93387e-05 -3.83662e-06
-5.93387e-05 -7.5316e-05 1.16564e-06
-3.83662e-06 1.16564e-06 -0.00010806
0.00102448 -5.62677e-05 -4.07119e-07
-5.62677e-05 5.32191e-05 2.91325e-06
-4.07119e-07 2.91325e-06 -3.41895e-05
0.000813027 -6.2765e-05 -3.50624e-07
-6.2765e-05 -5.48354e-05 2.61551e-06
-3.50624e-07 2.61551e-06 -0.000174723
0.00108288 -6.99098e-05 -3.2386e-06
-6.99098e-05 -6.15598e-05 -3.90197e-07
-3.2386e-06 -3.90197e-07 -0.000140993
0.000918887 -5.47972e-05 -3.81787e-06
-5.47972e-05 1.86814e-05 1.42482e-06
-3.81787e-06 1.42482e-06 -7.4134e-05
0.00111944 -3.91934e-05 -1.03601e-06
-3.91934e-05 0.000126884 5.64785e-07
-1.03601e-06 5.64785e-07 2.57373e-05
0.00106886 -4.36153e-05 -4.39137e-07
-4.36153e-05 9.24939e-05 1.70324e-06
-4.39137e-07 1.70324e-06 1.62935e-06
0.000976948 -1.86813e-06 -6.39167e-07
-1.86813e-06 3.11914e-05 1.28989e-06
-6.39167e-07 1.28989e-06 -1.50344e-05
0.00111149 -3.29402e-05 -1.1214e-07
-3.29402e-05 0.000106807 9.34935e-07
-1.1214e-07 9.34935e-07 2.72058e-05
0.00105454 3.25943e-06 -5.16825e-07
3.25943e-06 7.7462e-05 1.13116e-06
-5.16825e-07 1.13116e-06 1.40973e-05
0.00100363 -6.01641e-06 -1.09299e-07
-6.01641e-06 4.31328e-05 6.88585e-07
-1.09299e-07 6.88585e-07 6.3078e-07
0.000831391 1.20222e-05 -1.37354e-07
1.20222e-05 -3.23237e-05 1.76926e-06
-1.37354e-07 1.76926e-06 -9.30116e-05
0.00156673 2.62083e-05 1.79228e-08
2.62083e-05 7.02794e-05 1.35391e-06
1.79228e-08 1.35391e-06 -6.38931e-07
0.000984838 1.32501e-05 7.09748e-08
1.32501e-05 4.45524e-05 -4.91804e-07
7.09748e-08 -4.91804e-07 -1.21082e-05
0.000953247 -1.17294e-06 3.63811e-07
-1.17294e-06 2.84972e-05 -8.04353e-09
3.63811e-07 -8.04353e-09 -3.38076e-05
0.00103515 2.16516e-05 -7.6628e-08
2.16516e-05 7.26165e-05 9.64404e-07
-7.6628e-08 9.64404e-07 3.34448e-06
0.00185732 -3.60312e-05 -2.47564e-06
-3.60312e-05 0.000143072 1.06432e-06
-2.47564e-06 1.06432e-06 0.000115759
0.00137046 -7.87651e-05 -1.10087e-06
-7.87651e-05 -2.88672e-05 -1.24308e-06
-1.10087e-06 -1.24308e-06 -8.28556e-05
0.00108193 -6.49194e-05 8.29853e-08
-6.49194e-05 0.000104971 -3.00521e-07
8.29853e-08 -3.00521e-07 4.99645e-07
0.00141933 -8.38848e-05 1.83088e-07
-8.38848e-05 0.000197961 3.53022e-07
1.83088e-07 3.53022e-07 8.49897e-05
0.00113723 -2.691e-05 -1.7151e-07
-2.691e-05 0.00012309 8.69781e-08
-1.7151e-07 8.69781e-08 4.6921e-05
0.00103552 -3.6661e-05 -2.73963e-07
-3.6661e-05 7.0961e-05 7.29539e-07
-2.73963e-07 7.29539e-07 -1.52948e-05
0.00103807 -4.96574e-05 1.55968e-06
-4.96574e-05 0.000106 -2.9533e-07
1.55968e-06 -2.9533e-07 -1.01337e-05
0.00117511 -4.17203e-05 7.61733e-08
-4.17203e-05 0.00015556 -5.28832e-07
7.61733e-08 -5.28832e-07 5.541e-05
0.000995372 1.78496e-05 4.41497e-06
1.78496e-05 -0.000284671 -9.35883e-07
4.41497e-06 -9.35883e-07 -0.000342465
0.00242433 -9.34087e-05 1.0535e-05
-9.34087e-05 0.000345982 -6.19535e-06
1.0535e-05 -6.19535e-06 0.000319301
0.00169041 -9.74547e-05 6.08964e-06
-9.74547e-05 0.000245076 -9.7837e-07
6.08964e-06 -9.7837e-07 0.000137669
0.00112121 -7.71698e-05 1.0161e-06
-7.71698e-05 0.000127945 -2.41563e-06
1.0161e-06 -2.41563e-06 1.00557e-05
0.000955047 1.52933e-05 -3.92759e-07
1.52933e-05 3.47051e-05 -8.94798e-07
-3.92759e-07 -8.94798e-07 -3.85909e-05
0.000971777 -3.1899e-05 7.91573e-07
-3.1899e-05 4.27769e-05 -1.76578e-06
7.91573e-07 -1.76578e-06 -3.21316e-05
0.00104252 -5.0053e-05 5.83822e-07
-5.0053e-05 8.00145e-05 -1.19647e-06
5.83822e-07 -1.19647e-06 -1.12921e-05
0.00113716 -3.07849e-05 -4.12835e-07
-3.07849e-05 0.000154163 -1.0902e-06
-4.12835e-07 -1.0902e-06 2.72696e-05
0.00073763 -8.01463e-06 -6.73504e-06
-8.01463e-06 -0.000255254 -1.73064e-06
-6.73504e-06 -1.73064e-06 -0.000744587
0.00112936 5.3076e-05 -2.69321e-07
5.3076e-05 0.000121721 -3.26022e-07
-2.69321e-07 -3.26022e-07 3.32187e-05
0.000998263 5.2125e-05 3.08562e-07
5.2125e-05 4.29722e-05 3.51878e-08
3.08562e-07 3.51878e-08 -4.92361e-05
0.00133457 3.51476e-05 -7.58157e-06
3.51476e-05 -0.000170248 -1.20252e-07
-7.58157e-06 -1.20252e-07 -0.000215415
0.00187071 8.81069e-05 -5.11428e-06
8.81069e-05 0.000167738 -2.31311e-06
-5.11428e-06 -2.31311e-06 9.27576e-05
0.00136512 8.21432e-05 -1.84976e-06
8.21432e-05 0.000177343 -8.25646e-07
-1.84976e-06 -8.25646e-07 4.36063e-05
0.000953475 5.51858e-05 1.1009e-06
5.51858e-05 3.68854e-05 -2.59483e-07
1.1009e-06 -2.59483e-07 -7.48876e-05
0.00145417 -7.92521e-06 -5.69976e-06
-7.92521e-06 -0.000149348 -1.6209e-06
-5.69976e-06 -1.6209e-06 -0.000132448
0.00116753 5.48153e-05 4.92532e-11
5.48153e-05 0.00013545 -1.02669e-07
4.92532e-11 -1.02669e-07 4.29823e-05
0.00167305 9.97356e-05 3.00693e-07
9.97356e-05 -5.29022e-05 -1.7884e-07
3.00693e-07 -1.7884e-07 -0.00011606
0.0011194 5.6297e-05 5.92081e-07
5.6297e-05 0.000112373 -5.10359e-09
5.92081e-07 -5.10359e-09 1.33104e-05
0.00108453 6.53049e-05 -3.32743e-07
6.53049e-05 0.000121838 -8.47701e-08
-3.32743e-07 -8.47701e-08 -1.21417e-05
0.000775402 9.09769e-05 -2.04707e-06
9.09769e-05 -0.000193153 1.50995e-07
-2.04707e-06 1.50995e-07 -0.000305706
0.00159961 -7.76178e-05 -1.27354e-05
-7.76178e-05 0.000261374 -4.87874e-06
-1.27354e-05 -4.87874e-06 -0.000266499
0.00228965 -0.000109624 3.14975e-06
-0.000109624 0.000191196 -4.37763e-06
3.14975e-06 -4.37763e-06 -8.90188e-05
0.00184411 6.40266e-05 -8.0641e-07
6.40266e-05 0.000106133 3.07925e-07
-8.0641e-07 3.07925e-07 0.000156638
-0.00021692 -0.000120104 -9.32375e-06
-0.000120104 -0.00046425 -5.36009e-06
-9.32375e-06 -5.36009e-06 -0.000537765
0.000493256 -0.000158617 -2.1253e-06
-0.000158617 -0.000512126 -1.10107e-06
-2.1253e-06 -1.10107e-06 -9.74421e-05
0.00110644 5.39388e-05 1.31329e-06
5.39388e-05 0.000106439 -1.49969e-07
1.31329e-06 -1.49969e-07 1.2353e-05
7.02691e-06 3.0784e-05 -0.000103277
3.0784e-05 -0.000341916 -9.66088e-06
-0.000103277 -9.66088e-06 -0.000547348
0.00241723 -7.42768e-05 -1.12588e-06
-7.42768e-05 0.000925339 -2.44299e-06
-1.12588e-06 -2.44299e-06 0.0010774
0.00169018 0.000128109 5.94286e-06
0.000128109 0.000111142 5.66097e-06
5.94286e-06 5.66097e-06 3.67186e-05
0.000835215 3.65677e-05 -2.02043e-07
3.65677e-05 -1.70732e-05 -5.64515e-07
-2.02043e-07 -5.64515e-07 -0.00012764
0.00157812 5.98302e-05 -3.98567e-06
5.98302e-05 0.000409603 2.6789e-06
-3.98567e-06 2.6789e-06 0.000239945
0.00152989 5.05878e-05 -4.42167e-06
5.05878e-05 6.90173e-05 -4.87938e-06
-4.42167e-06 -4.87938e-06 1.53766e-05
0.00509346 -0.000171448 -7.15771e-05
-0.000171448 0.00153983 -1.71369e-05
-7.15771e-05 -1.71369e-05 0.000822317
0.00195583 -3.70912e-05 2.58657e-05
-3.70912e-05 4.65319e-05 2.59394e-05
2.58657e-05 2.59394e-05 -0.000293696
0.000374725 -0.000198917 -5.74482e-05
-0.000198917 -0.000112693 -2.78837e-05
-5.74482e-05 -2.78837e-05 -1.38499e-05
-0.000756442 -7.67148e-05 -2.82914e-06
-7.67148e-05 -0.00122133 6.67991e-06
-2.82914e-06 6.67991e-06 -0.0010044
0.00109375 5.20747e-05 -1.05931e-06
5.20747e-05 9.7247e-05 -7.35932e-07
-1.05931e-06 -7.35932e-07 6.45992e-06
0.00116263 5.33959e-05 -4.9144e-07
5.33959e-05 0.000115272 2.88807e-07
-4.9144e-07 2.88807e-07 2.17182e-05
0.00124711 5.59417e-05 -2.01105e-07
5.59417e-05 0.000146337 3.37629e-07
-2.01105e-07 3.37629e-07 4.94224e-05
0.000978511 2.61857e-06 4.57902e-09
2.61857e-06 3.51757e-05 -5.03596e-07
4.57902e-09 -5.03596e-07 -1.25173e-05
0.00102177 -4.42322e-06 1.39603e-07
-4.42322e-06 6.38309e-05 -9.90345e-07
1.39603e-07 -9.90345e-07 2.29221e-06
0.000954519 2.65291e-05 -6.8737e-07
2.65291e-05 2.63512e-05 -1.26441e-06
-6.8737e-07 -1.26441e-06 -4.74412e-05
0.00105295 3.5026e-05 -3.6182e-07
3.5026e-05 7.42962e-05 -1.19113e-06
-3.6182e-07 -1.19113e-06 -7.06901e-06
0.00110303 4.11716e-05 -5.46205e-07
4.11716e-05 9.16201e-05 -1.08574e-06
-5.46205e-07 -1.08574e-06 1.87411e-06
0.000780895 -6.205e-06 2.74906e-07
-6.205e-06 -6.46446e-05 4.63896e-07
2.74906e-07 4.63896e-07 -0.000113629
0.00109957 4.47183e-05 -4.23996e-07
4.47183e-05 9.94651e-05 -7.12471e-07
-4.23996e-07 -7.12471e-07 1.8996e-05
0.00106001 1.00837e-05 -9.00409e-09
1.00837e-05 8.03589e-05 4.7231e-07
-9.00409e-09 4.7231e-07 6.92268e-06
0.00093995 8.46539e-06 1.85623e-07
8.46539e-06 2.16534e-05 -3.83803e-07
1.85623e-07 -3.83803e-07 -4.09206e-05
0.00104052 4.71315e-05 1.21621e-08
4.71315e-05 6.40548e-05 2.62083e-07
1.21621e-08 2.62083e-07 -2.75005e-05
0.00108684 4.05448e-05 2.89665e-08
4.05448e-05 9.1796e-05 5.95534e-07
2.89665e-08 5.95534e-07 7.08879e-06
0.0012221 5.08279e-05 2.85702e-07
5.08279e-05 0.000172248 8.84119e-07
2.85702e-07 8.84119e-07 6.97404e-05
0.00103122 -3.05946e-05 -3.76039e-07
-3.05946e-05 6.6523e-05 7.02456e-07
-3.76039e-07 7.02456e-07 -6.81906e-06
0.00104978 -2.29712e-05 -2.46062e-07
-2.29712e-05 7.64815e-05 2.14291e-07
-2.46062e-07 2.14291e-07 1.43686e-05
0.00106165 -5.31066e-06 -2.07905e-07
-5.31066e-06 8.26031e-05 -5.43606e-08
-2.07905e-07 -5.43606e-08 2.06386e-05
0.00106261 1.13981e-05 -1.35532e-07
1.13981e-05 8.2233e-05 -4.26977e-07
-1.35532e-07 -4.26977e-07 8.91103e-06
0.00105478 9.78701e-06 1.02839e-07
9.78701e-06 7.94205e-05 8.72561e-07
1.02839e-07 8.72561e-07 5.58242e-06
0.00104184 -5.44058e-07 -4.25428e-08
-5.44058e-07 7.26851e-05 9.91939e-07
-4.25428e-08 9.91939e-07 -2.30562e-06
0.0011387 8.47558e-06 -1.50571e-08
8.47558e-06 0.000116784 3.39185e-08
-1.50571e-08 3.39185e-08 3.67444e-05
0.00101689 -3.26024e-05 -5.33543e-07
-3.26024e-05 6.63578e-05 1.02376e-06
-5.33543e-07 1.02376e-06 -1.63453e-05
0.00100965 -1.5175e-05 -2.19781e-07
-1.5175e-05 5.62214e-05 9.95853e-07
-2.19781e-07 9.95853e-07 -1.06494e-05
0.0010025 -1.32528e-05 3.70351e-08
-1.32528e-05 5.39486e-05 -2.0521e-08
3.70351e-08 -2.0521e-08 -1.07705e-05
0.000977959 -1.07304e-05 -5.54991e-07
-1.07304e-05 3.35642e-05 1.07626e-06
-5.54991e-07 1.07626e-06 -1.60953e-05
0.000866876 -3.09173e-06 3.07676e-07
-3.09173e-06 -1.60743e-05 -1.29233e-06
3.07676e-07 -1.29233e-06 -7.94072e-05
0.000884085 -1.10809e-05 1.35987e-07
-1.10809e-05 -1.32368e-05 -3.6479e-09
1.35987e-07 -3.6479e-09 -6.21478e-05
0.000957017 6.23681e-06 -3.01709e-07
6.23681e-06 1.10584e-05 1.72283e-06
-3.01709e-07 1.72283e-06 -1.8234e-05
0.000796972 2.43109e-06 1.24142e-07
2.43109e-06 -5.65633e-05 -5.06026e-07
1.24142e-07 -5.06026e-07 -0.000105671
0.000949375 1.15352e-06 -1.6757e-07
1.15352e-06 7.03999e-06 -1.54389e-08
-1.6757e-07 -1.54389e-08 -2.15031e-05
0.00149666 6.10238e-06 -2.26095e-06
6.10238e-06 0.000272999 4.31762e-06
-2.26095e-06 4.31762e-06 0.000275484
0.000943389 -7.64074e-06 5.45697e-07
-7.64074e-06 4.19136e-06 -1.67178e-06
5.45697e-07 -1.67178e-06 -2.39201e-05
0.00120025 3.03942e-06 -8.05207e-07
3.03942e-06 0.000120711 6.13262e-07
-8.05207e-07 6.13262e-07 0.000122164
0.00109165 1.86495e-06 -1.84513e-06
1.86495e-06 6.27141e-05 3.91208e-06
-1.84513e-06 3.91208e-06 8.05649e-05
0.000903533 -4.89159e-08 4.60763e-08
-4.89159e-08 -3.0736e-05 -3.08956e-06
4.60763e-08 -3.08956e-06 -3.04655e-05
0.00224728 -7.05213e-07 1.09855e-06
-7.05213e-07 0.00065028 1.36976e-11
1.09855e-06 1.36976e-11 0.000673907
0.00108778 -2.87885e-06 -8.89005e-07
-2.87885e-06 6.13473e-05 -3.91535e-06
-8.89005e-07 -3.91535e-06 7.92972e-05
0.000987735 1.93088e-05 2.02412e-07
1.93088e-05 3.55338e-05 -5.71163e-07
2.02412e-07 -5.71163e-07 -6.35366e-06
0.000961253 5.74298e-07 5.02966e-08
5.74298e-07 7.034e-06 -1.81281e-06
5.02966e-08 -1.81281e-06 -1.63608e-05
0.000959725 2.38418e-06 -4.52785e-08
2.38418e-06 6.45138e-06 -1.32934e-08
-4.52785e-08 -1.32934e-08 -1.71103e-05
0.000896606 3.35109e-06 2.44701e-07
3.35109e-06 -3.45889e-05 -3.19051e-06
2.44701e-07 -3.19051e-06 -3.16203e-05
0.000954227 4.58447e-06 -4.0657e-07
4.58447e-06 4.64792e-06 1.84537e-06
-4.0657e-07 1.84537e-06 -1.97027e-05
0.000892988 6.55431e-06 5.47016e-08
6.55431e-06 -3.4915e-05 -6.18805e-07
5.47016e-08 -6.18805e-07 -3.26028e-05
0.0021683 8.05404e-06 4.48175e-06
8.05404e-06 0.000611989 -3.91883e-06
4.48175e-06 -3.91883e-06 0.00063625
0.00144189 1.15231e-05 -1.26327e-06
1.15231e-05 0.000247287 1.9699e-06
-1.26327e-06 1.9699e-06 0.000250861
0.00165479 1.07349e-05 1.96555e-07
1.07349e-05 0.000354374 1.2065e-06
1.96555e-07 1.2065e-06 0.000374828
0.00112913 1.24111e-05 -9.64512e-06
1.24111e-05 9.12943e-05 6.41132e-06
-9.64512e-06 6.41132e-06 0.000107763
0.000599404 -3.51794e-05 -4.89364e-06
-3.51794e-05 -0.000471326 1.17054e-06
-4.89364e-06 1.17054e-06 -0.000494791
0.00136466 -1.34305e-06 -2.73323e-06
-1.34305e-06 7.44488e-06 -3.84868e-07
-2.73323e-06 -3.84868e-07 -6.53702e-05
0.000914526 6.33995e-06 -7.13932e-06
6.33995e-06 -0.00026455 -4.06924e-06
-7.13932e-06 -4.06924e-06 -0.000323363
0.00106832 -9.07775e-05 3.60489e-05
-9.07775e-05 6.50723e-05 6.03887e-06
3.60489e-05 6.03887e-06 -0.000159136
0.00119834 -1.19923e-05 -1.86527e-06
-1.19923e-05 2.04102e-06 -6.74483e-07
-1.86527e-06 -6.74483e-07 -3.5607e-05
0.00147763 3.21069e-05 -1.84257e-06
3.21069e-05 -1.52772e-05 -1.44689e-06
-1.84257e-06 -1.44689e-06 -9.18073e-05
0.00124569 4.67887e-05 2.89742e-06
4.67887e-05 2.7945e-05 1.4081e-06
2.89742e-06 1.4081e-06 -2.81869e-05
0.000956253 -3.32242e-05 0.000104944
-3.32242e-05 6.18705e-06 7.28494e-06
0.000104944 7.28494e-06 -0.000236415
0.00460265 7.8595e-05 -2.1864e-05
7.8595e-05 0.00133856 -4.19893e-06
-2.1864e-05 -4.19893e-06 0.000702183
0.00254012 0.000194959 -4.02767e-05
0.000194959 0.000911824 1.942e-05
-4.02767e-05 1.942e-05 0.00084244
0.00106531 0.000123888 -9.99155e-06
0.000123888 -3.84519e-05 2.12193e-06
-9.99155e-06 2.12193e-06 0.000266845
0.000798293 -3.42369e-06 6.79644e-07
-3.42369e-06 -4.94039e-05 -1.12108e-06
6.79644e-07 -1.12108e-06 -0.000105388
0.00098464 -6.97525e-06 -8.74848e-08
-6.97525e-06 3.3937e-05 1.12849e-09
-8.74848e-08 1.12849e-09 -7.22443e-06
0.000994373 -2.20471e-05 -6.028e-07
-2.20471e-05 3.90313e-05 1.1108e-06
-6.028e-07 1.1108e-06 -2.92167e-06
0.000925988 1.17927e-05 -1.7989e-07
1.17927e-05 1.46238e-05 1.34475e-08
-1.7989e-07 1.34475e-08 -4.07224e-05
0.00111018 3.63439e-05 1.55271e-07
3.63439e-05 0.000112052 1.42278e-07
1.55271e-07 1.42278e-07 4.63562e-05
0.00107038 4.50209e-05 2.12764e-07
4.50209e-05 9.04743e-05 7.36892e-08
2.12764e-07 7.36892e-08 2.65356e-05
0.00103295 3.55104e-06 4.39606e-07
3.55104e-06 6.88081e-05 -1.62247e-06
4.39606e-07 -1.62247e-06 1.18009e-05
0.000943008 -1.7347e-05 -2.47941e-07
-1.7347e-05 2.2273e-05 4.8582e-07
-2.47941e-07 4.8582e-07 -3.30672e-05
0.00173188 2.65037e-05 -3.29897e-06
2.65037e-05 0.00015587 3.89095e-07
-3.29897e-06 3.89095e-07 8.61663e-05
0.00161599 -3.67915e-05 -2.30403e-06
-3.67915e-05 3.10491e-05 1.91825e-06
-2.30403e-06 1.91825e-06 -8.41259e-07
0.00110922 -7.31912e-05 -8.94722e-06
-7.31912e-05 -0.000155355 -3.08467e-07
-8.94722e-06 -3.08467e-07 -0.000207014
0.00111852 -6.55561e-05 -4.0967e-07
-6.55561e-05 0.000120553 2.25737e-06
-4.0967e-07 2.25737e-06 1.60322e-05
0.0013 -8.14399e-05 -1.51615e-06
-8.14399e-05 0.000142729 2.79841e-06
-1.51615e-06 2.79841e-06 2.98158e-05
0.00104537 -5.01087e-05 -4.77024e-07
-5.01087e-05 0.000104975 9.30344e-07
-4.77024e-07 9.30344e-07 -6.87918e-06
0.00124014 -4.64645e-05 1.61527e-07
-4.64645e-05 0.000188195 7.20834e-07
1.61527e-07 7.20834e-07 8.63641e-05
0.000998191 -3.62185e-05 -5.97908e-07
-3.62185e-05 5.11209e-05 1.34229e-06
-5.97908e-07 1.34229e-06 -3.46741e-05
0.00101237 -1.12168e-05 -3.25916e-07
-1.12168e-05 5.89567e-05 1.27882e-06
-3.25916e-07 1.27882e-06 -2.69867e-06
0.00117318 -1.86926e-05 -3.53062e-07
-1.86926e-05 0.000141114 9.66465e-07
-3.53062e-07 9.66465e-07 6.58845e-05
0.00119366 5.48665e-06 -2.50942e-07
5.48665e-06 0.000149185 5.14104e-07
-2.50942e-07 5.14104e-07 9.41156e-05
0.000935477 2.85297e-05 4.19669e-07
2.85297e-05 2.12427e-05 2.25707e-06
4.19669e-07 2.25707e-06 -4.7306e-05
0.0016903 2.81083e-05 8.76608e-07
2.81083e-05 4.21656e-05 -2.99408e-06
8.76608e-07 -2.99408e-06 -1.39298e-05
0.000983934 1.60888e-05 -2.27328e-07
1.60888e-05 4.96117e-05 2.94294e-07
-2.27328e-07 2.94294e-07 -2.30539e-05
0.00102068 -3.23933e-05 1.35713e-07
-3.23933e-05 6.76855e-05 -4.39043e-07
1.35713e-07 -4.39043e-07 -7.22972e-06
0.00183196 -8.55124e-05 -5.0041e-06
-8.55124e-05 6.73598e-05 -1.27542e-06
-5.0041e-06 -1.27542e-06 4.6566e-05
0.000955351 -8.3704e-05 1.75082e-06
-8.3704e-05 -0.000109122 1.64733e-06
1.75082e-06 1.64733e-06 -0.000213238
0.00112854 -7.84457e-05 3.5751e-07
-7.84457e-05 0.000130836 -6.41761e-07
3.5751e-07 -6.41761e-07 7.37302e-06
0.00107567 -4.33825e-05 -1.6371e-08
-4.33825e-05 9.45731e-05 -1.61048e-07
-1.6371e-08 -1.61048e-07 3.34463e-06
0.00113603 -3.41546e-05 -1.54638e-07
-3.41546e-05 0.000152295 2.28616e-07
-1.54638e-07 2.28616e-07 2.5678e-05
0.00187568 -4.14024e-05 7.75263e-07
-4.14024e-05 -6.20521e-05 9.42867e-06
7.75263e-07 9.42867e-06 -3.59887e-05
0.00271916 -0.000151155 1.29138e-05
-0.000151155 0.000631797 -2.45144e-06
1.29138e-05 -2.45144e-06 0.000524603
0.000558243 -8.18646e-05 9.43921e-07
-8.18646e-05 -0.000191621 -3.17041e-06
9.43921e-07 -3.17041e-06 -0.000314204
0.00118471 -5.62792e-05 6.7005e-07
-5.62792e-05 0.000191731 -1.59152e-06
6.7005e-07 -1.59152e-06 3.30749e-05
0.000927018 -2.91952e-05 2.40139e-07
-2.91952e-05 2.39993e-05 -7.05577e-07
2.40139e-07 -7.05577e-07 -5.63671e-05
0.0010417 -2.94137e-05 7.79369e-07
-2.94137e-05 7.69183e-05 -1.54645e-06
7.79369e-07 -1.54645e-06 -9.39298e-06
0.00123766 -1.97517e-05 -1.41379e-09
-1.97517e-05 0.000181978 -1.0336e-06
-1.41379e-09 -1.0336e-06 7.50517e-05
-0.000637769 -1.28363e-05 -9.53735e-05
-1.28363e-05 -0.000574337 -1.41438e-07
-9.53735e-05 -1.41438e-07 -0.000588499
0.00499442 -2.38289e-05 -2.08678e-05
-2.38289e-05 0.00168474 -3.01456e-06
-2.08678e-05 -3.01456e-06 0.00117942
0.00118398 5.52809e-05 -1.42208e-07
5.52809e-05 0.000144537 6.7086e-08
-1.42208e-07 6.7086e-08 5.22281e-05
0.000964491 5.20566e-05 9.87605e-07
5.20566e-05 3.92224e-05 -1.18613e-06
9.87605e-07 -1.18613e-06 -5.97861e-05
0.00224798 0.000106014 -1.16705e-05
0.000106014 0.000207656 -1.15901e-06
-1.16705e-05 -1.15901e-06 0.000144553
0.00101029 9.43026e-05 -2.32774e-06
9.43026e-05 -8.37287e-05 -3.20589e-06
-2.32774e-06 -3.20589e-06 -0.000192543
0.00109112 6.52858e-05 1.49067e-06
6.52858e-05 0.000125653 -1.83831e-06
1.49067e-06 -1.83831e-06 -5.49978e-06
0.00471975 -3.17471e-05 2.25589e-05
-3.17471e-05 0.00144444 -1.09453e-05
2.25589e-05 -1.09453e-05 0.000809959
0.00102268 -0.000114845 -4.39707e-05
-0.000114845 -0.000140644 -1.59953e-05
-4.39707e-05 -1.59953e-05 -0.000365502
0.00148133 6.81834e-05 4.81555e-06
6.81834e-05 -6.76285e-05 -4.8891e-06
4.81555e-06 -4.8891e-06 -2.09846e-05
0.00263016 -0.000165396 3.48049e-05
-0.000165396 0.0010278 1.18612e-05
3.48049e-05 1.18612e-05 0.000964237
-0.000252139 -0.000161934 1.39297e-05
-0.000161934 -0.000856712 1.32536e-05
1.39297e-05 1.32536e-05 -0.000497096
0.00111147 5.4248e-05 2.78416e-07
5.4248e-05 0.00010479 -2.75099e-07
2.78416e-07 -2.75099e-07 1.10141e-05
-0.000710828 -2.47316e-05 -1.70988e-05
-2.47316e-05 -0.000476586 -6.05142e-07
-1.70988e-05 -6.05142e-07 -0.000504467
0.00133887 -7.1836e-05 -1.93147e-06
-7.1836e-05 0.00031344 1.55685e-06
-1.93147e-06 1.55685e-06 0.000439586
0.00160384 0.000128414 3.6902e-07
0.000128414 6.7589e-05 9.41095e-07
3.6902e-07 9.41095e-07 -6.79666e-06
0.00114983 4.73441e-05 -1.51315e-07
4.73441e-05 0.000143747 -1.18521e-06
-1.51315e-07 -1.18521e-06 3.70116e-05
0.00131981 6.37696e-05 6.1209e-07
6.37696e-05 0.000280719 -2.82204e-08
6.1209e-07 -2.82204e-08 0.000112761
0.00164163 4.35304e-05 -1.92986e-05
4.35304e-05 0.000148961 -1.13278e-05
-1.92986e-05 -1.13278e-05 9.1497e-05
0.00417584 -8.51299e-05 7.48562e-06
-8.51299e-05 0.0010168 6.64457e-06
7.48562e-06 6.64457e-06 0.000260638
0.00124643 -3.96752e-05 -5.45014e-06
-3.96752e-05 -7.03431e-05 -1.46215e-05
-5.45014e-06 -1.46215e-05 -0.000197457
0.002714 -0.000273886 7.35489e-06
-0.000273886 0.00066965 -1.15884e-06
7.35489e-06 -1.15884e-06 0.000683375
0.000233309 -8.80981e-05 -3.15273e-06
-8.80981e-05 -0.000669852 -1.20096e-06
-3.15273e-06 -1.20096e-06 -0.000404574
0.00104699 3.34601e-05 -1.08713e-06
3.34601e-05 4.05869e-05 -8.05987e-07
-1.08713e-06 -8.05987e-07 -5.28335e-05
0.000423207 -1.52412e-05 5.59121e-06
-1.52412e-05 -0.000109943 -5.61903e-08
5.59121e-06 -5.61903e-08 -0.000111187
0.000772442 -3.35622e-06 7.61381e-06
-3.35622e-06 3.59564e-05 3.96807e-06
7.61381e-06 3.96807e-06 -2.26317e-05
0.000743213 6.3164e-05 1.0966e-05
6.3164e-05 -7.12352e-05 2.24513e-06
1.0966e-05 2.24513e-06 -0.000251427
0.00178054 3.9909e-05 -6.17565e-06
3.9909e-05 0.000514305 1.02964e-07
-6.17565e-06 1.02964e-07 0.000384085
0.00259962 -3.62476e-05 -7.63081e-06
-3.62476e-05 0.000965998 -2.67527e-06
-7.63081e-06 -2.67527e-06 0.000942327
0.000616832 0.000111919 -5.41532e-05
0.000111919 -7.73898e-05 2.57791e-06
-5.41532e-05 2.57791e-06 -0.000293478
0.00253096 -0.000199139 1.20855e-05
-0.000199139 0.000180332 2.41081e-05
1.20855e-05 2.41081e-05 -0.000611662
0.0035907 -0.000306637 -3.8794e-05
-0.000306637 0.000779061 -1.66926e-05
-3.8794e-05 -1.66926e-05 0.000848671
0.000242282 -1.77695e-05 -3.4508e-06
-1.77695e-05 -0.000503467 7.28335e-06
-3.4508e-06 7.28335e-06 -0.00047377
0.00120045 5.51236e-05 -6.86498e-07
5.51236e-05 0.000135647 4.87604e-07
-6.86498e-07 4.87604e-07 4.19133e-05
0.0011462 5.28032e-05 4.6815e-07
5.28032e-05 9.70153e-05 5.84566e-07
4.6815e-07 5.84566e-07 -4.10678e-07
0.000802195 4.82347e-05 1.82418e-06
4.82347e-05 -4.76737e-05 1.08864e-07
1.82418e-06 1.08864e-07 -0.000153762
0.000791558 1.22716e-05 7.44314e-08
1.22716e-05 -5.95796e-05 -4.88885e-07
7.44314e-08 -4.88885e-07 -0.000108478
0.00102602 1.50012e-05 -1.57945e-08
1.50012e-05 6.4788e-05 -1.07738e-06
-1.57945e-08 -1.07738e-06 2.85477e-06
0.00122229 -4.42396e-06 1.43542e-07
-4.42396e-06 0.000163303 -1.84376e-07
1.43542e-07 -1.84376e-07 9.05301e-05
0.00100773 3.68324e-05 -3.96618e-07
3.68324e-05 5.23343e-05 -1.42676e-06
-3.96618e-07 -1.42676e-06 -2.77766e-05
0.000902211 4.48085e-05 -3.69216e-07
4.48085e-05 -7.02626e-06 -5.87027e-07
-3.69216e-07 -5.87027e-07 -9.95762e-05
0.00103984 5.7263e-06 3.18731e-07
5.7263e-06 7.1873e-05 -4.66438e-07
3.18731e-07 -4.66438e-07 9.53103e-06
0.00106402 3.54166e-05 -1.4439e-07
3.54166e-05 8.14339e-05 -1.29107e-07
-1.4439e-07 -1.29107e-07 -2.35433e-06
0.001026 -1.32562e-05 2.23668e-08
-1.32562e-05 6.40525e-05 5.43507e-08
2.23668e-08 5.43507e-08 -9.35427e-06
0.00109789 4.31938e-05 2.76609e-07
4.31938e-05 0.000111146 3.9784e-07
2.76609e-07 3.9784e-07 7.58948e-06
0.00120302 6.96068e-06 2.51481e-07
6.96068e-06 0.000173068 -4.45492e-07
2.51481e-07 -4.45492e-07 6.1953e-05
0.0011663 1.93049e-05 -4.48655e-07
1.93049e-05 0.000139744 1.31326e-06
-4.48655e-07 1.31326e-06 4.97598e-05
0.00107256 8.79365e-06 2.08379e-07
8.79365e-06 8.81937e-05 5.59887e-07
2.08379e-07 5.59887e-07 1.44128e-05
0.00105122 -1.38071e-05 5.36237e-09
-1.38071e-05 7.82234e-05 -7.85553e-07
5.36237e-09 -7.85553e-07 1.59213e-05
0.000936389 -1.19708e-05 8.01502e-08
-1.19708e-05 1.74897e-05 -1.38723e-06
8.01502e-08 -1.38723e-06 -5.64871e-05
0.00105385 -7.53998e-07 1.76984e-07
-7.53998e-07 7.8604e-05 4.22761e-08
1.76984e-07 4.22761e-08 5.12575e-06
0.00103526 -2.47883e-06 9.44578e-09
-2.47883e-06 6.97816e-05 3.11267e-08
9.44578e-09 3.11267e-08 -5.26856e-06
0.0010824 -3.54157e-06 -1.21798e-07
-3.54157e-06 8.66263e-05 -7.93863e-07
-1.21798e-07 -7.93863e-07 6.55156e-06
0.000994039 -1.43034e-05 -3.09033e-07
-1.43034e-05 5.13736e-05 1.38806e-06
-3.09033e-07 1.38806e-06 -2.69319e-05
0.00113435 9.43373e-06 7.44356e-08
9.43373e-06 0.000113671 2.30578e-07
7.44356e-08 2.30578e-07 3.24197e-05
0.000956338 -1.98648e-05 -1.30364e-07
-1.98648e-05 2.44278e-05 5.42165e-07
-1.30364e-07 5.42165e-07 -6.02998e-05
0.00106428 -3.90925e-05 2.312e-07
-3.90925e-05 8.51748e-05 -7.7061e-07
2.312e-07 -7.7061e-07 -3.24719e-06
0.000822269 -4.60907e-05 1.94356e-07
-4.60907e-05 -2.05635e-05 1.61043e-07
1.94356e-07 1.61043e-07 -0.000107015
0.000944101 -4.31887e-05 -9.80382e-07
-4.31887e-05 3.28784e-05 -4.11386e-07
-9.80382e-07 -4.11386e-07 -5.12839e-05
0.00104199 -3.28275e-05 -1.94563e-07
-3.28275e-05 7.83919e-05 2.52886e-07
-1.94563e-07 2.52886e-07 -4.17466e-06
0.00102542 -2.70035e-05 -7.53458e-07
-2.70035e-05 6.51907e-05 1.46262e-06
-7.53458e-07 1.46262e-06 -5.26369e-06
0.00101738 -2.01175e-05 -2.26819e-08
-2.01175e-05 6.05894e-05 -1.5545e-08
-2.26819e-08 -1.5545e-08 -6.60804e-06
0.000984249 -2.14329e-06 -3.0015e-07
-2.14329e-06 3.51824e-05 1.23207e-06
-3.0015e-07 1.23207e-06 -1.62679e-05
0.00100491 -1.30821e-05 3.83717e-07
-1.30821e-05 5.49974e-05 -8.69145e-07
3.83717e-07 -8.69145e-07 -9.5441e-06
0.000978372 -7.7029e-06 7.32245e-08
-7.7029e-06 3.38158e-05 -3.16462e-08
7.32245e-08 -3.16462e-08 -1.58081e-05
0.000953348 7.06155e-06 -5.88853e-07
7.06155e-06 1.01705e-05 1.74334e-06
-5.88853e-07 1.74334e-06 -2.01833e-05
0.000793707 3.28636e-06 1.28654e-07
3.28636e-06 -5.94502e-05 -9.86194e-07
1.28654e-07 -9.86194e-07 -0.000108557
0.000951915 1.18899e-06 -9.3821e-08
1.18899e-06 8.29678e-06 -8.26467e-09
-9.3821e-08 -8.26467e-09 -2.09885e-05
0.00149858 9.19119e-06 -3.55796e-06
9.19119e-06 0.000276334 4.35528e-06
-3.55796e-06 4.35528e-06 0.000278125
0.000947059 -5.54653e-06 6.32985e-07
-5.54653e-06 5.76017e-06 -1.67348e-06
6.32985e-07 -1.67348e-06 -2.27669e-05
0.00119832 6.08264e-06 -1.27504e-06
6.08264e-06 0.000121278 6.00983e-07
-1.27504e-06 6.00983e-07 0.000122306
0.00104624 5.99303e-06 -7.53514e-07
5.99303e-06 4.13355e-05 1.54928e-06
-7.53514e-07 1.54928e-06 5.90316e-05
0.000901647 2.7951e-06 3.9391e-07
2.7951e-06 -3.13616e-05 -3.10238e-06
3.9391e-07 -3.10238e-06 -3.12782e-05
0.00225151 3.36421e-06 1.0384e-06
3.36421e-06 0.000652709 7.09694e-09
1.0384e-06 7.09694e-09 0.00067624
0.00224471 -5.02681e-07 1.06558e-06
-5.02681e-07 0.000648966 -4.00724e-06
1.06558e-06 -4.00724e-06 0.000672599
0.00123375 2.07228e-05 -6.70431e-07
2.07228e-05 0.000159212 -1.02346e-06
-6.70431e-07 -1.02346e-06 0.000117343
0.00095882 -1.16451e-06 -1.38361e-07
-1.16451e-06 6.02271e-06 -1.81378e-06
-1.38361e-07 -1.81378e-06 -1.78867e-05
0.000978736 5.21872e-06 3.82931e-07
5.21872e-06 3.09194e-05 4.95047e-07
3.82931e-07 4.95047e-07 -1.07383e-05
0.000901746 2.10674e-07 -3.04744e-08
2.10674e-07 -3.24822e-05 -3.18392e-06
-3.04744e-08 -3.18392e-06 -2.93469e-05
0.000961797 1.69865e-07 -1.73287e-08
1.69865e-07 7.28071e-06 -7.53539e-09
-1.73287e-08 -7.53539e-09 -1.61127e-05
0.000956624 2.02839e-06 -3.03708e-07
2.02839e-06 4.68344e-06 1.84926e-06
-3.03708e-07 1.84926e-06 -1.88479e-05
0.00090045 3.44566e-06 -9.90444e-08
3.44566e-06 -3.26862e-05 -2.11655e-09
-9.90444e-08 -2.11655e-09 -2.97374e-05
0.00215467 4.03451e-06 1.97476e-06
4.03451e-06 0.000603562 -3.93383e-06
1.97476e-06 -3.93383e-06 0.000628234
0.00143301 7.91252e-06 -8.74566e-07
7.91252e-06 0.000239717 1.96228e-06
-8.74566e-07 1.96228e-06 0.000244614
0.00162182 7.40075e-06 1.28969e-06
7.40075e-06 0.000334397 3.35013e-08
1.28969e-06 3.35013e-08 0.000355904
0.00112579 9.32925e-06 -7.83507e-06
9.32925e-06 8.50876e-05 6.33986e-06
-7.83507e-06 6.33986e-06 0.000102889
-0.00265115 4.47554e-05 -5.99781e-05
4.47554e-05 -0.00163573 1.29723e-05
-5.99781e-05 1.29723e-05 -0.00165241
-0.00116743 5.50031e-05 -7.95099e-06
5.50031e-05 -0.00116532 5.74871e-06
-7.95099e-06 5.74871e-06 -0.00108195
0.000621191 -7.85477e-05 -5.01302e-05
-7.85477e-05 -7.71443e-05 -1.48731e-05
-5.01302e-05 -1.48731e-05 -0.000306961
0.00131657 -1.9321e-05 -3.33107e-06
-1.9321e-05 6.73031e-05 -2.47645e-07
-3.33107e-06 -2.47645e-07 3.31328e-05
0.00127776 3.49917e-05 -1.24289e-05
3.49917e-05 -0.000117297 -1.24047e-06
-1.24289e-05 -1.24047e-06 -0.000193918
0.000773827 -3.20971e-05 2.02208e-05
-3.20971e-05 0.000103882 -7.03684e-07
2.02208e-05 -7.03684e-07 -2.9368e-05
0.00154909 5.273e-05 2.30924e-06
5.273e-05 0.000149203 1.70306e-06
2.30924e-06 1.70306e-06 8.86712e-05
0.00464752 0.000111854 -3.04734e-05
0.000111854 0.00138899 -1.3574e-07
-3.04734e-05 -1.3574e-07 0.000823162
-0.00162429 0.000107514 7.5165e-06
0.000107514 -0.0008802 -4.12801e-06
7.5165e-06 -4.12801e-06 -0.000890731
0.000452218 0.000135963 2.27608e-06
0.000135963 -0.000394078 -9.79473e-07
2.27608e-06 -9.79473e-07 -8.45355e-05
0.000726935 4.35939e-05 2.71331e-05
4.35939e-05 0.000148423 -1.35155e-05
2.71331e-05 -1.35155e-05 -3.4782e-05
0.00440396 0.000232199 -2.0275e-05
0.000232199 0.00123384 1.3189e-05
-2.0275e-05 1.3189e-05 0.000629565
0.000224608 0.000180103 -5.74703e-05
0.000180103 -9.98616e-05 3.25153e-05
-5.74703e-05 3.25153e-05 -9.07576e-06
0.00052731 9.0218e-05 -3.72223e-06
9.0218e-05 -0.000628098 -3.45391e-07
-3.72223e-06 -3.45391e-07 -0.000278581
0.000933335 2.38315e-05 -2.73071e-07
2.38315e-05 2.52713e-05 -8.7965e-07
-2.73071e-07 -8.7965e-07 -4.38446e-05
0.000898557 9.47306e-06 2.12762e-08
9.47306e-06 2.43981e-07 -4.24828e-07
2.12762e-08 -4.24828e-07 -5.51528e-05
0.000983988 -1.78858e-05 -5.62706e-07
-1.78858e-05 3.37313e-05 1.06806e-06
-5.62706e-07 1.06806e-06 -7.52572e-06
0.000848355 1.47717e-05 -3.01852e-08
1.47717e-05 -2.42591e-05 8.44389e-07
-3.01852e-08 8.44389e-07 -8.00404e-05
0.00104858 3.69638e-05 5.10998e-07
3.69638e-05 8.20883e-05 9.35087e-07
5.10998e-07 9.35087e-07 1.71351e-05
0.00108144 2.81805e-05 -2.17415e-07
2.81805e-05 9.92661e-05 -8.2069e-07
-2.17415e-07 -8.2069e-07 3.10976e-05
0.00101186 2.18216e-05 6.6667e-07
2.18216e-05 6.05027e-05 9.64472e-07
6.6667e-07 9.64472e-07 -2.68355e-06
0.00101509 7.16547e-06 3.9863e-07
7.16547e-06 6.01225e-05 -7.00004e-07
3.9863e-07 -7.00004e-07 -1.35574e-06
0.00096134 -2.75097e-06 2.20812e-07
-2.75097e-06 3.29102e-05 -5.1529e-07
2.20812e-07 -5.1529e-07 -2.49513e-05
0.000864516 -1.70862e-05 -3.18126e-07
-1.70862e-05 -1.70421e-05 1.30462e-06
-3.18126e-07 1.30462e-06 -7.25888e-05
0.00224715 3.69859e-05 -7.56902e-06
3.69859e-05 0.000301084 2.96791e-06
-7.56902e-06 2.96791e-06 0.000246398
0.00133247 -7.99186e-05 -1.42537e-05
-7.99186e-05 -0.000170371 2.10753e-06
-1.42537e-05 2.10753e-06 -0.00018625
0.000143425 -6.83518e-05 -3.01997e-06
-6.83518e-05 -0.000499875 3.43258e-06
-3.01997e-06 3.43258e-06 -0.000600594
0.00109922 -7.87856e-05 -1.07061e-06
-7.87856e-05 0.000116098 2.74191e-06
-1.07061e-06 2.74191e-06 -1.25236e-05
0.0011358 -3.73736e-05 1.26609e-07
-3.73736e-05 0.000150138 1.1308e-06
1.26609e-07 1.1308e-06 2.46821e-05
0.0011088 -3.83819e-05 -2.03977e-07
-3.83819e-05 0.000108882 8.60964e-07
-2.03977e-07 8.60964e-07 1.78045e-05
0.00106073 -3.47412e-05 -4.11461e-07
-3.47412e-05 8.79705e-05 7.87989e-07
-4.11461e-07 7.87989e-07 1.32039e-05
0.00101028 1.67339e-05 -3.10461e-08
1.67339e-05 6.31613e-05 1.16149e-06
-3.10461e-08 1.16149e-06 -8.85363e-06
0.00192006 -4.00713e-05 -3.74833e-06
-4.00713e-05 -4.08561e-05 1.12349e-06
-3.74833e-06 1.12349e-06 -3.68935e-05
0.000929967 -1.34106e-05 -1.4879e-07
-1.34106e-05 2.55047e-05 -5.75453e-08
-1.4879e-07 -5.75453e-08 -5.52736e-05
0.00100283 -3.28988e-05 3.58372e-07
-3.28988e-05 5.62867e-05 -5.77003e-07
3.58372e-07 -5.77003e-07 -3.13033e-05
0.00178177 -0.000129052 2.6165e-06
-0.000129052 0.00017155 4.46152e-07
2.6165e-06 4.46152e-07 7.64067e-05
0.000709405 -8.47356e-05 -2.01851e-07
-8.47356e-05 -0.000111693 1.36063e-06
-2.01851e-07 1.36063e-06 -0.000234061
0.00119292 -5.49328e-05 5.53494e-07
-5.49328e-05 0.0001885 -2.29148e-07
5.53494e-07 -2.29148e-07 3.65899e-05
0.00120212 -2.13759e-05 -1.13245e-07
-2.13759e-05 0.000164778 -3.66479e-07
-1.13245e-07 -3.66479e-07 5.29155e-05
0.00246592 -0.000120367 1.57916e-06
-0.000120367 0.00020808 3.66004e-07
1.57916e-06 3.66004e-07 0.000255647
0.00167416 -0.000125627 1.97474e-06
-0.000125627 0.000386049 -5.57003e-06
1.97474e-06 -5.57003e-06 0.000209568
0.000895545 -1.78227e-06 -8.97979e-07
-1.78227e-06 5.07554e-05 -1.06237e-06
-8.97979e-07 -1.06237e-06 -9.99052e-05
0.000991793 2.89184e-05 1.91241e-07
2.89184e-05 5.59949e-05 -1.66458e-07
1.91241e-07 -1.66458e-07 -2.54217e-05
0.00105098 -4.05558e-05 5.09654e-07
-4.05558e-05 7.92432e-05 -9.56713e-07
5.09654e-07 -9.56713e-07 -1.00228e-05
0.00112244 1.11643e-06 2.04172e-07
1.11643e-06 0.000103585 -5.82378e-07
2.04172e-07 -5.82378e-07 7.70852e-06
0.00103456 -1.04843e-05 8.95351e-06
-1.04843e-05 0.000172943 6.5378e-07
8.95351e-06 6.5378e-07 0.000173211
0.00141566 -7.04053e-06 6.08179e-06
-7.04053e-06 0.000304661 -2.77921e-06
6.08179e-06 -2.77921e-06 0.00016139
0.000738984 7.28865e-05 -4.44056e-05
7.28865e-05 -0.000351753 4.85348e-06
-4.44056e-05 4.85348e-06 -0.000852265
0.00112241 5.47069e-05 -4.33762e-07
5.47069e-05 0.000105727 -3.31111e-07
-4.33762e-07 -3.31111e-07 1.22904e-05
0.00144295 5.70267e-05 2.3403e-06
5.70267e-05 0.000292147 -2.40115e-07
2.3403e-06 -2.40115e-07 0.000189559
0.00153671 0.000128575 -2.14921e-06
0.000128575 3.61154e-05 -4.26955e-06
-2.14921e-06 -4.26955e-06 -3.88893e-05
0.00101927 6.74141e-05 2.83379e-06
6.74141e-05 0.000134109 -3.77493e-06
2.83379e-06 -3.77493e-06 -3.34087e-05
0.00368669 -0.000116543 4.37314e-05
-0.000116543 0.00141767 4.37569e-06
4.37314e-05 4.37569e-06 0.00132881
0.000805976 -0.000166911 4.88087e-05
-0.000166911 -0.000331585 3.14127e-05
4.88087e-05 3.14127e-05 -0.000800872
0.00303034 -4.02848e-05 -5.36489e-05
-4.02848e-05 0.000455142 -6.32269e-05
-5.36489e-05 -6.32269e-05 0.000238192
0.00160522 2.84082e-05 7.20234e-06
2.84082e-05 0.000163713 -1.93016e-07
7.20234e-06 -1.93016e-07 0.000103182
-0.00187266 -0.000179762 5.98053e-05
-0.000179762 -0.00136822 2.24966e-05
5.98053e-05 2.24966e-05 -0.00128287
0.00242751 -7.42557e-05 6.88842e-06
-7.42557e-05 0.000891434 6.82128e-06
6.88842e-06 6.82128e-06 0.00102044
0.0015942 -0.000107505 8.17901e-07
-0.000107505 8.42847e-05 -4.66445e-06
8.17901e-07 -4.66445e-06 0.000387767
0.00121109 4.38705e-05 -8.12327e-08
4.38705e-05 0.000129437 3.56214e-07
-8.12327e-08 3.56214e-07 3.42931e-05
0.000723998 -2.5216e-05 1.31587e-06
-2.5216e-05 2.47223e-05 3.34703e-07
1.31587e-06 3.34703e-07 3.8074e-05
0.00071971 1.96443e-06 1.67252e-08
1.96443e-06 1.82248e-06 -5.95677e-07
1.67252e-08 -5.95677e-07 -5.51133e-05
0.00117457 7.3424e-05 3.54596e-07
7.3424e-05 0.000136616 1.62717e-06
3.54596e-07 1.62717e-06 -4.94444e-05
0.000969229 2.61959e-05 -1.32628e-07
2.61959e-05 0.000129351 -5.331e-07
-1.32628e-07 -5.331e-07 -5.03905e-06
0.00210973 -1.52923e-05 8.56724e-06
-1.52923e-05 0.000618222 6.44429e-06
8.56724e-06 6.44429e-06 0.000498083
0.0033194 0.000161515 -2.16176e-05
0.000161515 0.000849029 -2.47619e-05
-2.16176e-05 -2.47619e-05 0.000479915
0.00554959 -0.000226018 5.22987e-07
-0.000226018 0.0013858 4.96355e-06
5.22987e-07 4.96355e-06 0.000698402
0.000331297 -0.00022586 8.31914e-06
-0.00022586 -0.000441411 1.7762e-05
8.31914e-06 1.7762e-05 -0.000408205
0.00156402 -3.03134e-05 -9.90036e-07
-3.03134e-05 0.000225829 -2.58231e-07
-9.90036e-07 -2.58231e-07 0.000315421
0.00131487 5.37323e-05 1.16808e-07
5.37323e-05 0.000217257 -2.57672e-06
1.16808e-07 -2.57672e-06 0.000134467
0.00185934 2.93697e-06 1.01509e-05
2.93697e-06 0.000742552 5.37834e-06
1.01509e-05 5.37834e-06 0.0006726
0.000949867 1.56669e-05 4.44071e-06
1.56669e-05 7.43154e-05 3.75621e-06
4.44071e-06 3.75621e-06 -2.16188e-05
0.000524578 -1.69556e-05 -3.33298e-06
-1.69556e-05 -3.07905e-06 7.41408e-06
-3.33298e-06 7.41408e-06 -0.00013605
0.000834233 0.000104278 -7.99111e-06
0.000104278 0.000372156 3.51473e-05
-7.99111e-06 3.51473e-05 0.000199499
0.00507512 -0.000179801 -3.72399e-05
-0.000179801 0.000842974 -1.12847e-05
-3.72399e-05 -1.12847e-05 7.10898e-05
-0.0006651 -0.000126152 -3.35896e-05
-0.000126152 -0.00137409 -4.64548e-05
-3.35896e-05 -4.64548e-05 -0.00121098
0.00219574 1.98223e-06 -5.31654e-07
1.98223e-06 0.00067107 1.39035e-05
-5.31654e-07 1.39035e-05 0.000731175
0.00103441 5.02386e-05 -5.93442e-07
5.02386e-05 4.26484e-05 -7.19575e-07
-5.93442e-07 -7.19575e-07 -5.53732e-05
0.00111563 5.28275e-05 5.18131e-07
5.28275e-05 0.000101353 -2.72227e-08
5.18131e-07 -2.72227e-08 -1.75985e-06
0.00150733 5.57679e-05 -5.87494e-07
5.57679e-05 0.000299298 -2.21159e-06
-5.87494e-07 -2.21159e-06 0.000195557
0.00103995 3.26566e-05 -5.06513e-07
3.26566e-05 7.15058e-05 -1.14606e-06
-5.06513e-07 -1.14606e-06 9.32228e-06
0.00102689 -2.53732e-06 1.21223e-07
-2.53732e-06 6.45161e-05 -5.93645e-07
1.21223e-07 -5.93645e-07 -8.9675e-06
0.00103622 3.05692e-05 -8.49494e-08
3.05692e-05 6.85227e-05 -8.57273e-07
-8.49494e-08 -8.57273e-07 -1.42832e-05
0.000990248 3.47672e-05 1.72196e-07
3.47672e-05 5.82652e-05 -5.31804e-07
1.72196e-07 -5.31804e-07 -4.61785e-05
0.00106938 1.56382e-05 1.7307e-07
1.56382e-05 8.58034e-05 1.03185e-08
1.7307e-07 1.03185e-08 1.24651e-05
0.00113453 1.96173e-05 -7.27326e-08
1.96173e-05 0.000122293 4.6257e-07
-7.27326e-08 4.6257e-07 3.34218e-05
0.00104867 1.12451e-05 4.26892e-07
1.12451e-05 0.000101298 -8.2633e-07
4.26892e-07 -8.2633e-07 -1.36457e-05
0.00125741 -1.22015e-06 2.76422e-07
-1.22015e-06 0.000219419 -7.91272e-08
2.76422e-07 -7.91272e-08 0.000107732
0.00112522 -2.5502e-05 9.50327e-08
-2.5502e-05 0.00011972 1.21517e-06
9.50327e-08 1.21517e-06 1.63429e-05
0.0011858 2.81384e-05 4.71032e-07
2.81384e-05 0.000141038 6.50469e-07
4.71032e-07 6.50469e-07 5.78019e-05
0.00105613 -1.03623e-05 4.47523e-07
-1.03623e-05 7.93688e-05 -7.5293e-07
4.47523e-07 -7.5293e-07 6.23216e-06
0.00102738 -2.53131e-06 1.669e-07
-2.53131e-06 6.61843e-05 -9.27504e-07
1.669e-07 -9.27504e-07 -8.94046e-06
0.00102942 -9.23521e-06 1.41864e-08
-9.23521e-06 5.74543e-05 -1.75904e-06
1.41864e-08 -1.75904e-06 -2.22726e-05
0.00113956 5.32566e-06 -1.84308e-07
5.32566e-06 0.000115508 -4.81426e-07
-1.84308e-07 -4.81426e-07 3.47486e-05
0.00102364 -1.12612e-05 2.48872e-08
-1.12612e-05 6.70333e-05 3.21041e-07
2.48872e-08 3.21041e-07 -1.15374e-05
0.00100495 -9.33693e-06 7.07198e-08
-9.33693e-06 4.63958e-05 -1.60219e-07
7.07198e-08 -1.60219e-07 -3.7225e-05
0.00104012 -3.00109e-05 -3.73984e-07
-3.00109e-05 6.97208e-05 4.73465e-07
-3.73984e-07 4.73465e-07 -1.8158e-05
0.0010745 -2.52286e-05 1.21448e-08
-2.52286e-05 7.71854e-05 3.84008e-07
1.21448e-08 3.84008e-07 -9.86153e-06
0.00105703 -4.97569e-05 2.52147e-07
-4.97569e-05 8.18388e-05 1.43657e-08
2.52147e-07 1.43657e-08 -1.04281e-05
0.00112511 -4.20232e-05 -3.42753e-07
-4.20232e-05 0.00011564 -9.02648e-08
-3.42753e-07 -9.02648e-08 2.72387e-05
0.000832621 -4.57294e-05 -2.93915e-07
-4.57294e-05 -1.41783e-05 9.88425e-07
-2.93915e-07 9.88425e-07 -0.000104267
0.00110523 -5.59396e-05 -1.14178e-06
-5.59396e-05 0.000102477 1.86113e-06
-1.14178e-06 1.86113e-06 1.32224e-05
0.00115088 -5.17865e-05 4.64211e-08
-5.17865e-05 0.000130813 -1.04251e-06
4.64211e-08 -1.04251e-06 5.17577e-05
0.000878748 -4.72304e-05 3.85449e-07
-4.72304e-05 1.0231e-05 -1.11908e-06
3.85449e-07 -1.11908e-06 -7.31806e-05
0.00103442 -4.60525e-05 3.09858e-07
-4.60525e-05 7.72464e-05 -4.32337e-07
3.09858e-07 -4.32337e-07 -6.36921e-06
0.000917302 -3.26215e-05 -7.65526e-07
-3.26215e-05 1.20856e-05 7.62691e-07
-7.65526e-07 7.62691e-07 -6.23578e-05
0.00106509 -3.35624e-05 2.06863e-09
-3.35624e-05 8.95711e-05 -2.04694e-07
2.06863e-09 -2.04694e-07 7.099e-06
0.00102822 -2.85486e-05 -2.26543e-07
-2.85486e-05 6.67684e-05 4.68137e-07
-2.26543e-07 4.68137e-07 -3.81381e-06
0.000985298 -4.0473e-06 -4.07964e-07
-4.0473e-06 3.51032e-05 1.40714e-06
-4.07964e-07 1.40714e-06 -1.93778e-05
0.00102159 -2.61042e-05 4.59649e-07
-2.61042e-05 6.34182e-05 -1.04547e-06
4.59649e-07 -1.04547e-06 -4.24742e-06
0.000980426 -9.29774e-06 -1.21233e-07
-9.29774e-06 3.40597e-05 -5.15588e-08
-1.21233e-07 -5.15588e-08 -1.78016e-05
0.000944785 8.01572e-06 -7.56322e-07
8.01572e-06 7.50827e-06 1.85421e-06
-7.56322e-07 1.85421e-06 -2.42585e-05
0.000979288 -6.31471e-06 5.64362e-07
-6.31471e-06 3.44403e-05 -1.12171e-06
5.64362e-07 -1.12171e-06 -1.52385e-05
0.000947995 2.21608e-06 -1.57078e-07
2.21608e-06 7.21778e-06 -1.5944e-09
-1.57078e-07 -1.5944e-09 -2.31307e-05
0.00150253 1.21307e-05 -4.87557e-06
1.21307e-05 0.000281523 4.40086e-06
-4.87557e-06 4.40086e-06 0.00028234
0.000946121 -4.781e-06 9.0715e-07
-4.781e-06 5.17896e-06 -1.71215e-06
9.0715e-07 -1.71215e-06 -2.40926e-05
0.00119771 9.00263e-06 -1.69972e-06
9.00263e-06 0.000123533 5.99038e-07
-1.69972e-06 5.99038e-07 0.000123789
0.0010435 9.24768e-06 -1.23203e-06
9.24768e-06 4.31899e-05 1.56051e-06
-1.23203e-06 1.56051e-06 6.01161e-05
0.000898746 5.65284e-06 6.9785e-07
5.65284e-06 -3.12788e-05 -3.13396e-06
6.9785e-07 -3.13396e-06 -3.16377e-05
0.00165741 7.07483e-06 2.58965e-06
7.07483e-06 0.000351916 -1.20837e-06
2.58965e-06 -1.20837e-06 0.000372401
0.00225047 3.71371e-06 3.52077e-06
3.71371e-06 0.00065246 -3.99043e-06
3.52077e-06 -3.99043e-06 0.00067595
0.00104979 -6.33933e-07 -3.35329e-08
-6.33933e-07 6.66774e-05 -1.19885e-06
-3.35329e-08 -1.19885e-06 2.07648e-05
0.000961214 -2.97182e-06 -2.79816e-07
-2.97182e-06 8.25408e-06 -1.81541e-06
-2.79816e-07 -1.81541e-06 -1.67227e-05
0.00102663 6.7273e-06 1.37964e-07
6.7273e-06 5.48954e-05 5.21562e-08
1.37964e-07 5.21562e-08 1.19443e-05
0.000905978 -2.8272e-06 -3.81668e-07
-2.8272e-06 -2.97824e-05 -3.18658e-06
-3.81668e-07 -3.18658e-06 -2.71057e-05
0.000960447 -1.51625e-06 -5.6102e-08
-1.51625e-06 6.9677e-06 4.40982e-10
-5.6102e-08 4.40982e-10 -1.69554e-05
0.000977248 1.01907e-06 -1.76079e-07
1.01907e-06 3.00065e-05 1.55909e-06
-1.76079e-07 1.55909e-06 -1.13688e-05
0.00215188 8.46594e-08 -7.38122e-07
8.46594e-08 0.000601737 -3.96412e-06
-7.38122e-07 -3.96412e-06 0.0006265
0.000901524 2.97061e-07 -8.83231e-08
2.97061e-07 -3.26498e-05 -6.77402e-09
-8.83231e-08 -6.77402e-09 -2.95006e-05
0.000959059 -2.55605e-07 -1.31754e-07
-2.55605e-07 5.83996e-06 1.80991e-06
-1.31754e-07 1.80991e-06 -1.75373e-05
0.000905073 3.53849e-06 -4.1644e-07
3.53849e-06 -3.03858e-05 3.16611e-06
-4.1644e-07 3.16611e-06 -2.74605e-05
0.00215297 4.17371e-06 -1.07291e-06
4.17371e-06 0.000602842 -8.29747e-09
-1.07291e-06 -8.29747e-09 0.000627485
0.00216623 7.98052e-06 -5.93003e-06
7.98052e-06 0.00061111 3.89936e-06
-5.93003e-06 3.89936e-06 0.000635356
-0.000954893 8.95995e-06 6.61663e-06
8.95995e-06 -0.000955594 -7.40395e-07
6.61663e-06 -7.40395e-07 -0.000965151
-0.000127147 7.5268e-05 2.62112e-05
7.5268e-05 -0.000298002 -3.33034e-06
2.62112e-05 -3.33034e-06 -0.000375068
0.00106559 7.16068e-06 1.03012e-05
7.16068e-06 0.000171822 -1.65031e-06
1.03012e-05 -1.65031e-06 0.000127998
-0.00109581 6.2024e-05 -5.57298e-06
6.2024e-05 -0.00107758 3.49126e-06
-5.57298e-06 3.49126e-06 -0.000986512
0.00165093 1.35036e-05 -6.5521e-05
1.35036e-05 0.000375554 -3.5573e-06
-6.5521e-05 -3.5573e-06 0.000158154
0.00163664 5.53854e-05 3.07137e-06
5.53854e-05 0.000173782 -1.61894e-06
3.07137e-06 -1.61894e-06 0.000109385
0.000404875 1.31791e-06 -2.04325e-05
1.31791e-06 -0.000414867 2.82393e-06
-2.04325e-05 2.82393e-06 -0.000865249
0.00373027 0.000145167 9.35208e-05
0.000145167 0.00161117 -2.86335e-05
9.35208e-05 -2.86335e-05 0.00152222
-6.47258e-05 0.000148214 1.11123e-05
0.000148214 -0.000698436 -1.03322e-05
1.11123e-05 -1.03322e-05 -0.000388861
0.00134338 4.33532e-05 -3.81159e-06
4.33532e-05 0.0002736 4.02311e-06
-3.81159e-06 4.02311e-06 8.9654e-05
0.00280282 0.000146419 7.40941e-06
0.000146419 0.000576151 -5.95051e-06
7.40941e-06 -5.95051e-06 -0.000184542
0.00291438 0.000259371 1.19934e-06
0.000259371 0.000902142 4.4799e-08
1.19934e-06 4.4799e-08 0.000892231
0.00126746 8.03966e-05 -2.53534e-06
8.03966e-05 -8.69146e-05 2.82505e-06
-2.53534e-06 2.82505e-06 0.000219175
0.00101563 5.31549e-05 2.20236e-06
5.31549e-05 0.000273837 -1.00958e-07
2.20236e-06 -1.00958e-07 3.80808e-06
0.00282994 0.00019684 3.08452e-05
0.00019684 0.000506882 -2.22565e-05
3.08452e-05 -2.22565e-05 -0.000290298
-0.00255761 0.000193335 -4.09905e-05
0.000193335 -0.00213137 4.35506e-05
-4.09905e-05 4.35506e-05 -0.00196371
0.000562084 1.49559e-05 -1.3295e-06
1.49559e-05 -0.000367948 -3.70141e-06
-1.3295e-06 -3.70141e-06 -0.0002407
0.00108267 -2.861e-06 6.08037e-07
-2.861e-06 0.000100214 -9.62905e-07
6.08037e-07 -9.62905e-07 2.40971e-05
0.00102288 2.716e-05 -6.44184e-07
2.716e-05 6.97452e-05 -2.65976e-07
-6.44184e-07 -2.65976e-07 1.78103e-06
0.000995458 1.16628e-05 2.04775e-07
1.16628e-05 4.77103e-05 2.8063e-07
2.04775e-07 2.8063e-07 -6.6595e-06
0.000974233 3.71662e-05 8.97079e-07
3.71662e-05 4.60441e-05 1.67084e-06
8.97079e-07 1.67084e-06 -1.81683e-05
0.000980433 8.69172e-06 -2.52384e-07
8.69172e-06 4.60794e-05 -7.36964e-07
-2.52384e-07 -7.36964e-07 -2.72795e-05
0.00110914 2.57617e-05 7.87291e-08
2.57617e-05 0.000112119 4.91773e-07
7.87291e-08 4.91773e-07 4.49029e-05
0.000973662 8.41114e-06 -1.45774e-07
8.41114e-06 4.07317e-05 1.82904e-06
-1.45774e-07 1.82904e-06 -2.18793e-05
0.00113193 3.08115e-05 -6.6534e-07
3.08115e-05 0.00011758 -8.78919e-07
-6.6534e-07 -8.78919e-07 5.40835e-05
0.00109767 1.78798e-05 2.19919e-08
1.78798e-05 0.000102308 4.61353e-07
2.19919e-08 4.61353e-07 4.11506e-05
0.000896357 -1.13941e-05 -4.99509e-07
-1.13941e-05 1.06422e-07 5.74821e-07
-4.99509e-07 5.74821e-07 -5.85209e-05
0.00232545 -4.29451e-05 -9.2909e-06
-4.29451e-05 0.000157522 1.43187e-06
-9.2909e-06 1.43187e-06 0.000135857
0.000683295 -0.000103725 -7.99724e-06
-0.000103725 -0.000362961 5.27359e-06
-7.99724e-06 5.27359e-06 -0.000446136
0.0010484 -9.17971e-05 3.7573e-07
-9.17971e-05 5.92498e-05 4.44709e-06
3.7573e-07 4.44709e-06 -6.23811e-05
0.0012118 -5.39327e-05 -9.5063e-08
-5.39327e-05 0.000191913 2.21697e-06
-9.5063e-08 2.21697e-06 4.49578e-05
0.0011623 -1.83345e-05 -7.15783e-08
-1.83345e-05 0.000146118 7.07329e-07
-7.15783e-08 7.07329e-07 2.88594e-05
0.000959101 -3.63514e-05 -1.68811e-07
-3.63514e-05 3.37775e-05 7.33705e-07
-1.68811e-07 7.33705e-07 -5.53494e-05
0.000935449 1.58608e-05 1.53788e-08
1.58608e-05 2.80313e-05 4.08331e-07
1.53788e-08 4.08331e-07 -5.29381e-05
0.00102912 -3.96567e-06 2.3123e-07
-3.96567e-06 7.38493e-05 6.61701e-07
2.3123e-07 6.61701e-07 -7.39644e-06
0.00232075 -0.00012457 3.21852e-07
-0.00012457 0.000165926 -1.98951e-07
3.21852e-07 -1.98951e-07 0.000187063
0.00109575 -6.51788e-06 -1.02382e-07
-6.51788e-06 0.000103116 -1.79039e-07
-1.02382e-07 -1.79039e-07 1.46588e-05
0.00122731 -8.09074e-06 -2.28201e-08
-8.09074e-06 0.000157936 2.25397e-08
-2.28201e-08 2.25397e-08 6.00883e-05
0.00152981 -0.000118442 1.27934e-07
-0.000118442 0.000322066 -1.27414e-06
1.27934e-07 -1.27414e-06 0.000142888
0.0011682 -9.62224e-06 -4.04767e-07
-9.62224e-06 0.000178204 -3.41394e-08
-4.04767e-07 -3.41394e-08 3.04294e-05
0.00112003 -0.00014149 -8.73441e-06
-0.00014149 -0.000239621 -4.22611e-06
-8.73441e-06 -4.22611e-06 -0.000244055
0.00136725 -3.06737e-05 -1.24179e-06
-3.06737e-05 0.000370319 -2.36345e-06
-1.24179e-06 -2.36345e-06 0.000133604
0.000979461 1.91031e-05 -6.8821e-07
1.91031e-05 3.60365e-05 8.97647e-07
-6.8821e-07 8.97647e-07 -6.94702e-05
0.00105175 3.14671e-05 -1.4158e-07
3.14671e-05 7.63824e-05 -1.27458e-06
-1.4158e-07 -1.27458e-06 -9.91613e-06
0.00110665 2.43489e-05 -1.22121e-07
2.43489e-05 8.94284e-05 -6.54548e-07
-1.22121e-07 -6.54548e-07 -6.61779e-06
0.00211527 -4.94443e-06 5.55635e-06
-4.94443e-06 0.000915862 1.06077e-06
5.55635e-06 1.06077e-06 0.00083829
-1.30496e-06 -8.2751e-06 1.25222e-05
-8.2751e-06 -0.000404877 -1.92019e-07
1.25222e-05 -1.92019e-07 -0.000412979
-0.00254805 -1.16288e-05 8.98471e-05
-1.16288e-05 -0.00164906 -1.17973e-06
8.98471e-05 -1.17973e-06 -0.00166971
0.00143031 5.5852e-05 1.04647e-06
5.5852e-05 0.000246274 1.391e-06
1.04647e-06 1.391e-06 0.00014915
0.000215366 1.60329e-05 2.38481e-06
1.60329e-05 -0.000226799 -1.69826e-06
2.38481e-06 -1.69826e-06 -0.000364743
0.00142885 8.01488e-05 1.12102e-06
8.01488e-05 0.000252581 -8.11924e-06
1.12102e-06 -8.11924e-06 6.39541e-05
-0.000767867 -1.58243e-05 2.05485e-06
-1.58243e-05 -0.000851881 1.60717e-07
2.05485e-06 1.60717e-07 -0.000867396
0.00253245 -0.000224971 2.69409e-05
-0.000224971 0.000122272 1.31022e-05
2.69409e-05 1.31022e-05 -0.000688636
0.00153216 0.000109247 2.77287e-05
0.000109247 0.000204729 -3.96564e-05
2.77287e-05 -3.96564e-05 2.5289e-05
0.00190929 4.12929e-08 6.13657e-05
4.12929e-08 0.00036933 1.42245e-05
6.13657e-05 1.42245e-05 0.000163021
0.00395166 -0.000325297 4.50117e-05
-0.000325297 0.00101906 5.20646e-05
4.50117e-05 5.20646e-05 0.00104404
0.000612972 6.62332e-06 -1.25205e-05
6.62332e-06 -6.8755e-05 -5.89515e-06
-1.25205e-05 -5.89515e-06 -0.00012405
0.00122254 -1.93889e-05 -4.86215e-06
-1.93889e-05 7.85145e-05 -9.13551e-06
-4.86215e-06 -9.13551e-06 0.000134528
0.00103838 5.12186e-05 1.19428e-06
5.12186e-05 8.0378e-05 -1.00135e-07
1.19428e-06 -1.00135e-07 -3.60171e-07
0.00131492 4.7738e-06 2.45298e-06
4.7738e-06 0.00041883 1.70797e-06
2.45298e-06 1.70797e-06 0.000341183
0.00089559 1.64134e-05 -5.95394e-08
1.64134e-05 4.80444e-05 1.04475e-08
-5.95394e-08 1.04475e-08 -4.93885e-05
-0.000254837 -1.62462e-06 1.07243e-05
-1.62462e-06 -0.000391779 2.02316e-07
1.07243e-05 2.02316e-07 -0.00054664
0.00216721 0.000151532 -3.45802e-05
0.000151532 0.000715797 -1.59031e-05
-3.45802e-05 -1.59031e-05 0.000532471
0.00577649 -3.12006e-05 1.4734e-05
-3.12006e-05 0.00102871 7.5892e-06
1.4734e-05 7.5892e-06 0.000237847
0.000960234 -5.64076e-06 -8.89864e-07
-5.64076e-06 -6.19183e-05 3.63227e-06
-8.89864e-07 3.63227e-06 -4.03059e-05
0.00130046 -0.000199818 1.32007e-06
-0.000199818 -0.000489366 2.50328e-05
1.32007e-06 2.50328e-05 -0.000409297
0.000981642 3.26131e-05 -1.00429e-06
3.26131e-05 6.77387e-05 -6.15098e-06
-1.00429e-06 -6.15098e-06 4.94047e-07
0.0010047 8.97737e-06 8.78692e-06
8.97737e-06 0.000123536 -3.89917e-06
8.78692e-06 -3.89917e-06 1.32883e-05
0.00227028 -4.53067e-06 1.60986e-06
-4.53067e-06 0.000862982 5.60189e-06
1.60986e-06 5.60189e-06 0.000765737
0.000555143 4.33013e-06 -1.26807e-06
4.33013e-06 -0.000315705 7.87292e-06
-1.26807e-06 7.87292e-06 -0.000236773
-0.00126809 4.5816e-05 -6.21714e-06
4.5816e-05 -0.000750517 1.54339e-06
-6.21714e-06 1.54339e-06 -0.000868408
0.00628492 -6.66835e-05 1.4289e-05
-6.66835e-05 0.001322 1.33751e-05
1.4289e-05 1.33751e-05 0.000808583
9.72267e-05 4.96317e-06 -5.48742e-07
4.96317e-06 -0.000933706 -6.67639e-05
-5.48742e-07 -6.67639e-05 -0.000759366
0.00141051 5.90362e-05 4.21424e-07
5.90362e-05 0.00024022 1.49348e-06
4.21424e-07 1.49348e-06 0.000140213
0.00140104 5.39621e-05 -7.8942e-07
5.39621e-05 0.000238861 6.65768e-07
-7.8942e-07 6.65768e-07 0.000132283
0.00175912 5.30305e-05 1.41924e-06
5.30305e-05 0.000467313 -2.02057e-06
1.41924e-06 -2.02057e-06 0.000358473
0.00105598 3.25156e-05 -1.29039e-07
3.25156e-05 7.90954e-05 -5.66842e-07
-1.29039e-07 -5.66842e-07 5.79485e-06
0.00110724 2.68553e-05 -6.3983e-09
2.68553e-05 0.00010736 -7.46968e-07
-6.3983e-09 -7.46968e-07 1.93884e-05
0.000873959 3.97712e-06 -4.26101e-07
3.97712e-06 1.85112e-05 3.96739e-07
-4.26101e-07 3.96739e-07 -0.000100349
0.00118898 2.31904e-05 -5.88929e-08
2.31904e-05 0.000141484 -1.99321e-07
-5.88929e-08 -1.99321e-07 5.9237e-05
0.00110594 -2.54951e-05 3.8147e-08
-2.54951e-05 0.000109535 2.40205e-07
3.8147e-08 2.40205e-07 5.27608e-06
0.00101595 -1.5288e-05 1.08119e-07
-1.5288e-05 9.32168e-05 4.47066e-07
1.08119e-07 4.47066e-07 -2.36572e-05
0.00104674 -1.02831e-05 -2.27847e-07
-1.02831e-05 0.000108593 7.68688e-07
-2.27847e-07 7.68688e-07 3.45791e-06
0.00111711 -3.36498e-05 -7.85716e-07
-3.36498e-05 9.49881e-05 8.4207e-07
-7.85716e-07 8.4207e-07 2.13868e-06
0.00114848 1.94448e-06 -5.0133e-07
1.94448e-06 0.000118999 -1.09073e-06
-5.0133e-07 -1.09073e-06 3.88078e-05
0.00105067 -8.04018e-06 6.06063e-08
-8.04018e-06 8.13563e-05 -4.92789e-07
6.06063e-08 -4.92789e-07 2.55927e-06
0.00104855 -5.72813e-06 -6.44758e-08
-5.72813e-06 6.66804e-05 -8.91077e-07
-6.44758e-08 -8.91077e-07 -1.63079e-05
0.00106348 -3.02266e-05 1.69687e-07
-3.02266e-05 7.16828e-05 4.67215e-08
1.69687e-07 4.67215e-08 -1.56326e-05
0.00104089 -2.72184e-05 -1.23235e-07
-2.72184e-05 6.86953e-05 3.69545e-07
-1.23235e-07 3.69545e-07 -1.87769e-05
0.00104344 -5.01685e-05 -1.44073e-07
-5.01685e-05 8.56302e-05 1.0887e-06
-1.44073e-07 1.0887e-06 -7.84993e-06
0.00101635 -4.91009e-05 1.59746e-07
-4.91009e-05 6.67882e-05 -6.38868e-07
1.59746e-07 -6.38868e-07 -2.33696e-05
0.0011223 -5.49279e-05 4.98562e-07
-5.49279e-05 0.000128191 1.13006e-06
4.98562e-07 1.13006e-06 2.28201e-05
0.00121119 -4.55244e-05 3.6082e-07
-4.55244e-05 0.000158401 -2.81938e-07
3.6082e-07 -2.81938e-07 6.99873e-05
0.00109853 -5.26251e-05 -8.57918e-09
-5.26251e-05 0.000113369 1.0369e-06
-8.57918e-09 1.0369e-06 2.29667e-05
0.000758473 -5.04723e-05 -2.65062e-07
-5.04723e-05 -6.9602e-05 2.02146e-06
-2.65062e-07 2.02146e-06 -0.000168287
0.00104145 -5.44155e-05 -1.65577e-06
-5.44155e-05 7.21478e-05 5.32399e-07
-1.65577e-06 5.32399e-07 -1.46838e-05
0.00107113 -5.06144e-05 -1.25111e-06
-5.06144e-05 9.15907e-05 2.49958e-07
-1.25111e-06 2.49958e-07 1.32455e-05
0.00100047 -5.30424e-05 -3.82306e-07
-5.30424e-05 5.39745e-05 -1.01084e-07
-3.82306e-07 -1.01084e-07 -3.51494e-05
0.00105627 -4.2831e-05 -7.54819e-07
-4.2831e-05 7.9357e-05 4.58332e-07
-7.54819e-07 4.58332e-07 5.59599e-06
0.00114565 -5.14471e-05 -2.96698e-07
-5.14471e-05 0.000128431 -2.62836e-07
-2.96698e-07 -2.62836e-07 4.90156e-05
0.000935944 -4.83058e-05 2.10601e-07
-4.83058e-05 4.13858e-05 -1.5037e-06
2.10601e-07 -1.5037e-06 -3.89864e-05
0.00113396 -4.90598e-05 9.15631e-07
-4.90598e-05 0.000126076 -5.85669e-07
9.15631e-07 -5.85669e-07 4.30053e-05
0.000973377 -3.3898e-05 8.17213e-08
-3.3898e-05 4.01945e-05 -2.58643e-08
8.17213e-08 -2.58643e-08 -3.35694e-05
0.000998876 -1.02054e-05 -6.52205e-07
-1.02054e-05 4.29513e-05 1.49992e-06
-6.52205e-07 1.49992e-06 -1.53062e-05
0.00103137 -2.87225e-05 3.48467e-07
-2.87225e-05 6.84939e-05 -5.54822e-07
3.48467e-07 -5.54822e-07 -2.20454e-06
0.000988774 -7.26418e-06 -4.43631e-08
-7.26418e-06 3.71875e-05 -7.23131e-08
-4.43631e-08 -7.23131e-08 -1.75008e-05
0.000936268 9.5581e-06 -9.45784e-07
9.5581e-06 5.25505e-06 1.99482e-06
-9.45784e-07 1.99482e-06 -2.8448e-05
0.000978767 -1.50134e-05 5.8161e-07
-1.50134e-05 3.39665e-05 -1.27101e-06
5.8161e-07 -1.27101e-06 -1.82813e-05
0.000939163 7.00671e-06 -6.29254e-08
7.00671e-06 4.57576e-06 -8.86328e-09
-6.29254e-08 -8.86328e-09 -2.722e-05
0.00147949 1.49377e-05 -5.46743e-06
1.49377e-05 0.000274171 3.19496e-06
-5.46743e-06 3.19496e-06 0.000273726
0.000943055 -1.84123e-06 9.36349e-07
-1.84123e-06 4.45836e-06 -1.79605e-06
9.36349e-07 -1.79605e-06 -2.58761e-05
0.00119564 1.17524e-05 -2.1269e-06
1.17524e-05 0.000125855 5.90055e-07
-2.1269e-06 5.90055e-07 0.000125062
0.0010408 1.2348e-05 -1.71326e-06
1.2348e-05 4.60141e-05 1.58939e-06
-1.71326e-06 1.58939e-06 6.1956e-05
0.00089562 8.39312e-06 1.06561e-06
8.39312e-06 -3.02691e-05 -3.16839e-06
1.06561e-06 -3.16839e-06 -3.14073e-05
0.00166723 1.07866e-05 3.49811e-06
1.07866e-05 0.000359792 -1.19684e-06
3.49811e-06 -1.19684e-06 0.000379615
0.0022629 7.86887e-06 5.9228e-06
7.86887e-06 0.00066058 -3.98621e-06
5.9228e-06 -3.98621e-06 0.000683674
0.000807379 -1.77302e-07 -3.66676e-07
-1.77302e-07 -5.58305e-05 -1.68877e-06
-3.66676e-07 -1.68877e-06 -0.000106359
0.000696866 -5.30651e-06 -4.002e-07
-5.30651e-06 -0.000122591 -2.48754e-06
-4.002e-07 -2.48754e-06 -0.000151093
0.00106105 5.23631e-07 -1.55694e-09
5.23631e-07 7.2111e-05 8.85587e-08
-1.55694e-09 8.85587e-08 2.61811e-05
0.000907658 -5.74719e-06 -6.75931e-07
-5.74719e-06 -2.73259e-05 -3.21152e-06
-6.75931e-07 -3.21152e-06 -2.5713e-05
0.000833113 -3.37456e-06 2.49692e-08
-3.37456e-06 -5.57766e-05 -1.67872e-08
2.49692e-08 -1.67872e-08 -8.16337e-05
0.000817696 -1.10794e-05 -1.33213e-07
-1.10794e-05 -5.03676e-05 1.23926e-06
-1.33213e-07 1.23926e-06 -9.44501e-05
0.00216771 -3.8336e-06 -3.50338e-06
-3.8336e-06 0.000610395 -3.98954e-06
-3.50338e-06 -3.98954e-06 0.000634873
0.000900072 -2.74377e-06 -1.27838e-07
-2.74377e-06 -3.28093e-05 -1.38265e-08
-1.27838e-07 -1.38265e-08 -3.00795e-05
0.0009621 -1.8996e-06 -3.16549e-08
-1.8996e-06 7.93675e-06 1.79565e-06
-3.16549e-08 1.79565e-06 -1.60012e-05
0.0021519 1.93406e-07 -1.15696e-06
1.93406e-07 0.00060174 -1.39393e-10
-1.15696e-06 -1.39393e-10 0.000626509
0.000901227 3.80326e-07 -1.10055e-07
3.80326e-07 -3.28478e-05 3.17422e-06
-1.10055e-07 3.17422e-06 -2.96868e-05
0.00215334 4.3139e-06 -3.14959e-06
4.3139e-06 0.000603177 3.93114e-06
-3.14959e-06 3.93114e-06 0.000627778
0.00133704 -6.06363e-06 1.08475e-05
-6.06363e-06 0.000416265 -8.00826e-07
1.08475e-05 -8.00826e-07 0.000340249
0.001185 2.14926e-05 2.13711e-06
2.14926e-05 0.000271615 -1.98144e-07
2.13711e-06 -1.98144e-07 0.000288715
0.000352713 3.68039e-06 0.000113715
3.68039e-06 -0.000203489 -1.85864e-05
0.000113715 -1.85864e-05 -0.000388614
0.00102272 1.84513e-05 -4.64851e-07
1.84513e-05 5.71288e-05 -1.04748e-06
-4.64851e-07 -1.04748e-06 -9.17439e-06
0.00141511 -7.78194e-06 1.15014e-05
-7.78194e-06 0.000366885 -6.15483e-07
1.15014e-05 -6.15483e-07 0.000283804
0.00130319 3.67846e-06 -1.81051e-06
3.67846e-06 0.000337847 -1.31991e-07
-1.81051e-06 -1.31991e-07 0.000287784
0.0011919 7.66442e-05 8.74785e-08
7.66442e-05 0.000232969 -6.24403e-07
8.74785e-08 -6.24403e-07 0.000362478
0.00133638 6.70805e-05 -4.2285e-05
6.70805e-05 5.49828e-05 1.77376e-05
-4.2285e-05 1.77376e-05 -0.000166944
0.00551388 0.000243433 1.27809e-05
0.000243433 0.00193119 -1.12633e-05
1.27809e-05 -1.12633e-05 0.00119652
-0.000714396 0.000176867 5.473e-05
0.000176867 -0.000625837 -3.43605e-05
5.473e-05 -3.43605e-05 -0.000603487
0.00214865 7.73903e-05 2.96776e-06
7.73903e-05 0.000453349 2.84056e-06
2.96776e-06 2.84056e-06 0.000747733
0.00149124 4.82723e-05 -2.34054e-05
4.82723e-05 0.000147697 9.30766e-06
-2.34054e-05 9.30766e-06 -0.000204618
0.00450177 0.000195928 2.01847e-05
0.000195928 0.00121358 -2.06719e-05
2.01847e-05 -2.06719e-05 0.000484167
0.000965037 0.000219149 -5.44545e-06
0.000219149 -0.000524764 1.10416e-05
-5.44545e-06 1.10416e-05 -0.00038071
0.0016567 1.78286e-05 1.14596e-06
1.78286e-05 0.000242182 1.25206e-06
1.14596e-06 1.25206e-06 0.000393244
0.00259487 -7.23377e-05 2.20375e-05
-7.23377e-05 0.000579709 -3.07931e-05
2.20375e-05 -3.07931e-05 0.000197583
0.00667325 0.000177253 2.43917e-05
0.000177253 0.00169542 -5.7852e-06
2.43917e-05 -5.7852e-06 0.000820668
0.00233972 0.000206481 5.02807e-06
0.000206481 -6.58919e-05 6.70319e-05
5.02807e-06 6.70319e-05 -5.73861e-05
0.00296698 2.02331e-05 -4.30455e-06
2.02331e-05 0.00109368 -2.7403e-06
-4.30455e-06 -2.7403e-06 0.00119564
0.000976268 -2.93077e-06 8.7922e-08
-2.93077e-06 3.83647e-05 -1.37379e-06
8.7922e-08 -1.37379e-06 -4.27249e-05
0.00104861 -1.30969e-05 2.36812e-07
-1.30969e-05 8.3326e-05 -5.25172e-08
2.36812e-07 -5.25172e-08 6.52211e-06
0.00111531 3.20932e-05 -2.96352e-07
3.20932e-05 0.000116579 7.1927e-07
-2.96352e-07 7.1927e-07 4.89871e-05
0.00099413 1.19636e-05 -3.90973e-07
1.19636e-05 4.64516e-05 -1.56579e-06
-3.90973e-07 -1.56579e-06 -2.69478e-05
0.00106658 2.69199e-05 -2.42419e-07
2.69199e-05 8.87161e-05 4.18711e-07
-2.42419e-07 4.18711e-07 1.65062e-05
0.00112574 1.50894e-05 3.03168e-07
1.50894e-05 0.000119117 1.68997e-06
3.03168e-07 1.68997e-06 5.30537e-05
0.00117889 3.08488e-05 -2.75593e-07
3.08488e-05 0.000140556 3.47901e-08
-2.75593e-07 3.47901e-08 7.73895e-05
0.00118492 3.13041e-05 5.83666e-07
3.13041e-05 0.000146253 1.66436e-06
5.83666e-07 1.66436e-06 8.57098e-05
0.00191933 -0.000123332 1.89778e-06
-0.000123332 -1.82151e-06 -2.81677e-06
1.89778e-06 -2.81677e-06 -4.66809e-06
0.00136869 -0.00011051 -1.98164e-06
-0.00011051 0.000249535 4.29398e-06
-1.98164e-06 4.29398e-06 6.81154e-05
0.00101363 -5.07252e-05 -8.8683e-07
-5.07252e-05 6.68823e-05 1.375e-06
-8.8683e-07 1.375e-06 -1.49494e-05
0.00147473 -1.75572e-05 -9.67354e-08
-1.75572e-05 0.000321544 1.02344e-06
-9.67354e-08 1.02344e-06 0.000177608
0.0012869 -1.92406e-05 -4.18253e-07
-1.92406e-05 0.000188481 9.38996e-07
-4.18253e-07 9.38996e-07 8.9357e-05
0.00114803 6.19851e-06 -3.4565e-07
6.19851e-06 0.000131189 -1.29556e-08
-3.4565e-07 -1.29556e-08 4.32244e-05
0.00107799 2.55714e-05 8.35495e-08
2.55714e-05 9.0163e-05 2.98369e-07
8.35495e-08 2.98369e-07 3.4354e-06
0.00188087 -0.000157975 2.17304e-07
-0.000157975 0.00012362 -7.16794e-07
2.17304e-07 -7.16794e-07 0.00011919
0.00107771 1.17241e-05 6.6791e-08
1.17241e-05 7.7672e-05 -5.55884e-07
6.6791e-08 -5.55884e-07 -1.75969e-05
0.00112846 7.23138e-06 -1.06757e-07
7.23138e-06 0.000116604 1.45039e-07
-1.06757e-07 1.45039e-07 4.58362e-06
0.0011189 -2.4993e-05 -4.60585e-07
-2.4993e-05 0.000258311 4.28352e-07
-4.60585e-07 4.28352e-07 1.16988e-05
0.00119173 2.92008e-05 9.91045e-08
2.92008e-05 0.000136762 -9.2273e-07
9.91045e-08 -9.2273e-07 5.1706e-05
0.00167534 -0.000143724 -3.02283e-05
-0.000143724 0.000377418 -3.70195e-06
-3.02283e-05 -3.70195e-06 0.000230259
0.00134421 4.62082e-05 -4.741e-06
4.62082e-05 0.000360092 4.4711e-07
-4.741e-06 4.4711e-07 0.000163622
0.00099069 2.07576e-05 -3.57518e-07
2.07576e-05 2.44933e-05 -3.18644e-07
-3.57518e-07 -3.18644e-07 -6.66466e-05
0.00122896 4.28494e-05 -2.77978e-07
4.28494e-05 0.000155161 -1.15525e-06
-2.77978e-07 -1.15525e-06 6.34255e-05
0.00142382 -7.48513e-07 5.10106e-06
-7.48513e-07 0.000423704 -5.5834e-07
5.10106e-06 -5.5834e-07 0.000314127
0.00164761 -4.48207e-06 -6.06311e-06
-4.48207e-06 0.000624197 1.82739e-07
-6.06311e-06 1.82739e-07 0.000544928
-0.00105534 -6.56668e-06 1.16552e-05
-6.56668e-06 -0.000997356 5.49218e-07
1.16552e-05 5.49218e-07 -0.00101026
0.000680657 4.39615e-05 1.78168e-06
4.39615e-05 -9.72519e-05 1.42214e-06
1.78168e-06 1.42214e-06 -0.000175383
-0.000934914 6.26415e-06 -7.99832e-06
6.26415e-06 -0.00072158 2.83225e-06
-7.99832e-06 2.83225e-06 -0.000901545
0.000736036 6.35583e-06 -1.36527e-05
6.35583e-06 7.40807e-05 -3.08182e-06
-1.36527e-05 -3.08182e-06 -1.07939e-05
0.00430825 -0.000274944 3.89154e-05
-0.000274944 0.000816534 8.51828e-06
3.89154e-05 8.51828e-06 -4.82234e-05
0.00280219 0.000164889 -2.79499e-05
0.000164889 0.000576389 -6.8605e-05
-2.79499e-05 -6.8605e-05 0.000184451
0.00268445 -0.000244158 1.07818e-05
-0.000244158 1.54703e-05 0.00010164
1.07818e-05 0.00010164 0.000152874
0.000704926 1.72696e-05 -4.25025e-06
1.72696e-05 -6.3e-05 -2.6423e-06
-4.25025e-06 -2.6423e-06 -0.000160829
4.92971e-05 -1.18446e-05 5.60359e-07
-1.18446e-05 -0.000588337 -3.55028e-06
5.60359e-07 -3.55028e-06 -0.000604865
0.00123551 4.20873e-05 -1.67686e-06
4.20873e-05 0.000192588 -7.07292e-07
-1.67686e-06 -7.07292e-07 0.000120932
0.000860672 6.71119e-06 -4.57135e-07
6.71119e-06 3.39158e-05 -1.06485e-06
-4.57135e-07 -1.06485e-06 -7.70614e-05
0.00117581 -6.30778e-06 1.24862e-06
-6.30778e-06 0.000166051 2.40377e-07
1.24862e-06 2.40377e-07 6.63621e-05
0.000214202 5.45333e-05 8.0787e-06
5.45333e-05 2.79244e-05 -4.00749e-06
8.0787e-06 -4.00749e-06 -5.19753e-05
0.00152575 8.5513e-06 -1.67384e-06
8.5513e-06 0.000213604 -8.88077e-07
-1.67384e-06 -8.88077e-07 0.000318158
0.00483665 5.50782e-05 2.15674e-05
5.50782e-05 0.000463948 -2.91316e-06
2.15674e-05 -2.91316e-06 9.08039e-05
0.00338535 9.93679e-06 -2.06363e-05
9.93679e-06 0.000426699 -3.38443e-06
-2.06363e-05 -3.38443e-06 0.000568307
0.00106246 5.70417e-05 2.74307e-06
5.70417e-05 0.00025359 -6.26938e-06
2.74307e-06 -6.26938e-06 0.000169089
0.00143788 -4.87647e-06 -1.05149e-06
-4.87647e-06 0.000358509 -4.98953e-06
-1.05149e-06 -4.98953e-06 0.000237811
0.00126643 -2.01895e-05 -1.41204e-05
-2.01895e-05 0.000270268 1.16525e-06
-1.41204e-05 1.16525e-06 0.000162474
0.000701985 8.40346e-05 2.02289e-06
8.40346e-05 -0.000461973 3.12442e-06
2.02289e-06 3.12442e-06 -0.000160271
0.00227694 0.00024179 -5.94872e-06
0.00024179 -1.15435e-05 -5.82848e-05
-5.94872e-06 -5.82848e-05 -4.17898e-05
0.000605471 0.000106512 8.1255e-06
0.000106512 0.000361655 -6.70464e-06
8.1255e-06 -6.70464e-06 0.000327416
0.00310694 -0.00011466 4.39974e-05
-0.00011466 -0.000116152 2.14305e-05
4.39974e-05 2.14305e-05 -0.000535929
0.0012909 5.08521e-05 -1.17424e-06
5.08521e-05 0.000178956 3.36171e-06
-1.17424e-06 3.36171e-06 6.92592e-05
0.00131443 3.67014e-05 -1.25958e-06
3.67014e-05 0.000234767 5.64995e-07
-1.25958e-06 5.64995e-07 0.000130007
9.55543e-05 -2.90158e-05 -6.0764e-07
-2.90158e-05 -0.000198587 -4.12664e-06
-6.0764e-07 -4.12664e-06 -0.000440163
0.00118483 1.15421e-05 -1.84737e-07
1.15421e-05 0.000138051 -7.10372e-07
-1.84737e-07 -7.10372e-07 5.69338e-05
0.00109095 -2.39989e-05 4.22674e-07
-2.39989e-05 0.000101146 -1.12099e-07
4.22674e-07 -1.12099e-07 -3.35744e-06
0.000879076 -1.5122e-05 -1.90778e-06
-1.5122e-05 1.92161e-05 3.09316e-06
-1.90778e-06 3.09316e-06 -0.000102346
0.00108027 -3.87096e-05 -2.006e-07
-3.87096e-05 7.89492e-05 5.55806e-08
-2.006e-07 5.55806e-08 -1.41889e-05
0.000911766 -2.00108e-05 2.76535e-07
-2.00108e-05 3.99589e-05 1.13549e-06
2.76535e-07 1.13549e-06 -6.6506e-05
0.000943042 -3.45046e-05 3.49575e-07
-3.45046e-05 9.29288e-05 -1.35887e-07
3.49575e-07 -1.35887e-07 -3.5921e-05
0.00105604 -3.01536e-05 1.54498e-07
-3.01536e-05 6.76278e-05 -4.29934e-07
1.54498e-07 -4.29934e-07 -1.95986e-05
0.0010451 -1.76436e-05 3.97933e-08
-1.76436e-05 6.86972e-05 -1.8658e-08
3.97933e-08 -1.8658e-08 -1.79009e-05
0.00118318 -5.11255e-05 1.11183e-07
-5.11255e-05 0.000150724 4.21987e-07
1.11183e-07 4.21987e-07 5.56624e-05
0.0010106 -5.38497e-05 1.97376e-07
-5.38497e-05 0.000103613 1.29327e-06
1.97376e-07 1.29327e-06 -1.82508e-05
0.000957485 -4.7932e-05 -3.91698e-07
-4.7932e-05 4.31901e-05 -3.35452e-07
-3.91698e-07 -3.35452e-07 -4.48663e-05
0.000889728 -4.86925e-05 7.24918e-07
-4.86925e-05 1.69836e-05 -3.51422e-07
7.24918e-07 -3.51422e-07 -8.61282e-05
0.001136 -6.24223e-05 5.35728e-07
-6.24223e-05 0.000131796 1.0418e-06
5.35728e-07 1.0418e-06 1.72946e-05
0.00119923 -6.44049e-05 -2.15789e-06
-6.44049e-05 0.000122801 2.09358e-06
-2.15789e-06 2.09358e-06 2.49641e-05
0.00133997 -5.89179e-05 3.76322e-07
-5.89179e-05 0.000228948 -2.27755e-07
3.76322e-07 -2.27755e-07 0.00013827
0.000923605 -5.47486e-05 -2.93136e-07
-5.47486e-05 1.0313e-05 -4.2258e-08
-2.93136e-07 -4.2258e-08 -8.98757e-05
0.0012969 -6.0617e-05 5.12495e-08
-6.0617e-05 0.000195215 1.55261e-07
5.12495e-08 1.55261e-07 0.000113941
0.000882896 -4.53251e-05 -9.79414e-07
-4.53251e-05 7.60659e-06 1.7837e-07
-9.79414e-07 1.7837e-07 -7.17189e-05
0.00104218 -5.42251e-05 4.60152e-07
-5.42251e-05 7.17736e-05 4.67204e-08
4.60152e-07 4.67204e-08 -1.36184e-05
0.00105784 -4.24374e-05 -1.17619e-06
-4.24374e-05 8.23161e-05 1.32935e-07
-1.17619e-06 1.32935e-07 1.00261e-05
0.00109756 -5.12957e-05 -9.20336e-07
-5.12957e-05 0.00010379 5.59481e-07
-9.20336e-07 5.59481e-07 2.52479e-05
0.000892877 -5.01066e-05 -2.49883e-08
-5.01066e-05 4.18242e-06 -9.19871e-07
-2.49883e-08 -9.19871e-07 -8.4818e-05
0.00102343 -1.46983e-05 -1.14781e-06
-1.46983e-05 5.54126e-05 1.35144e-06
-1.14781e-06 1.35144e-06 -5.39916e-06
0.00102735 -4.17441e-05 1.46192e-07
-4.17441e-05 6.40865e-05 1.68902e-07
1.46192e-07 1.68902e-07 -9.70772e-06
0.00113507 -5.1278e-05 1.67946e-06
-5.1278e-05 0.000123489 -3.63686e-07
1.67946e-06 -3.63686e-07 4.36913e-05
0.00102457 -3.5246e-05 7.37994e-07
-3.5246e-05 6.59992e-05 -8.23837e-07
7.37994e-07 -8.23837e-07 -7.10312e-06
0.000998072 -9.96765e-06 1.53037e-07
-9.96765e-06 4.21096e-05 -1.85042e-08
1.53037e-07 -1.85042e-08 -1.6037e-05
0.000937419 8.44833e-06 -1.20487e-06
8.44833e-06 8.834e-06 2.19096e-06
-1.20487e-06 2.19096e-06 -2.76154e-05
0.000989944 -1.08191e-05 5.20944e-07
-1.08191e-05 3.8074e-05 -1.35996e-06
5.20944e-07 -1.35996e-06 -1.67982e-05
0.000931746 9.98134e-06 9.53371e-08
9.98134e-06 3.18016e-06 -3.15675e-08
9.53371e-08 -3.15675e-08 -3.06277e-05
0.000852095 1.5453e-05 -1.98621e-06
1.5453e-05 -3.98587e-05 3.34657e-06
-1.98621e-06 3.34657e-06 -4.486e-05
0.000934717 5.23807e-06 8.32376e-07
5.23807e-06 2.21203e-06 -1.93996e-06
8.32376e-07 -1.93996e-06 -2.95991e-05
0.000870393 1.33102e-05 1.3059e-07
1.33102e-05 -3.51588e-05 7.23419e-09
1.3059e-07 7.23419e-09 -3.87468e-05
0.00228444 2.15915e-05 -4.14888e-06
2.15915e-05 0.000682074 1.63575e-06
-4.14888e-06 1.63575e-06 0.000702806
0.000892064 1.09808e-05 1.42626e-06
1.09808e-05 -2.86326e-05 -3.21796e-06
1.42626e-06 -3.21796e-06 -3.08701e-05
0.00167969 1.4356e-05 4.33178e-06
1.4356e-05 0.000369924 -1.179e-06
4.33178e-06 -1.179e-06 0.000388858
0.0022815 1.18994e-05 8.29082e-06
1.18994e-05 0.000672862 -3.98482e-06
8.29082e-06 -3.98482e-06 0.000695307
0.000794365 -2.2892e-06 -3.14314e-07
-2.2892e-06 -6.39551e-05 -1.86844e-06
-3.14314e-07 -1.86844e-06 -0.00011682
0.000681241 -6.87036e-06 -6.68517e-07
-6.87036e-06 -0.000128458 -2.52883e-06
-6.68517e-07 -2.52883e-06 -0.000159751
0.00094981 -1.18003e-06 -1.16798e-07
-1.18003e-06 1.5378e-05 -4.91712e-07
-1.16798e-07 -4.91712e-07 -3.4434e-05
0.000906813 -8.66965e-06 -9.60823e-07
-8.66965e-06 -2.50378e-05 -3.27179e-06
-9.60823e-07 -3.27179e-06 -2.49959e-05
0.000696603 -5.46696e-06 -9.76836e-08
-5.46696e-06 -0.000122483 -6.09751e-07
-9.76836e-08 -6.09751e-07 -0.000151338
0.00107054 1.96525e-07 1.10138e-07
1.96525e-07 7.70271e-05 1.36412e-06
1.10138e-07 1.36412e-06 3.08619e-05
0.00219479 -7.80172e-06 -6.00399e-06
-7.80172e-06 0.00062577 -4.02156e-06
-6.00399e-06 -4.02156e-06 0.000649651
0.000896933 -5.68775e-06 -9.82644e-08
-5.68775e-06 -3.26963e-05 -1.63335e-08
-9.82644e-08 -1.63335e-08 -3.10052e-05
0.000704797 -3.69572e-06 1.20041e-07
-3.69572e-06 -0.000119769 1.79622e-06
1.20041e-07 1.79622e-06 -0.000146527
0.00216559 -3.73724e-06 -1.17263e-06
-3.73724e-06 0.000609169 9.04536e-09
-1.17263e-06 9.04536e-09 0.000633717
0.000894258 -2.66007e-06 1.64369e-07
-2.66007e-06 -3.57777e-05 3.19448e-06
1.64369e-07 3.19448e-06 -3.29967e-05
0.00215026 3.08226e-07 -6.1222e-07
3.08226e-07 0.000600882 3.94636e-06
-6.1222e-07 3.94636e-06 0.000625668
0.00116213 -6.59305e-06 7.11324e-06
-6.59305e-06 0.000253318 -9.33889e-07
7.11324e-06 -9.33889e-07 0.000148617
0.00118042 -6.74521e-06 -2.73714e-06
-6.74521e-06 0.000315348 4.69991e-07
-2.73714e-06 4.69991e-07 0.000240456
0.00113913 6.56822e-06 1.22569e-06
6.56822e-06 0.000248991 3.60513e-06
1.22569e-06 3.60513e-06 0.000251285
0.00106173 2.47703e-05 -8.7936e-08
2.47703e-05 7.62334e-05 8.09346e-08
-8.7936e-08 8.09346e-08 1.05537e-05
0.000956331 1.7481e-05 -3.33876e-07
1.7481e-05 1.84945e-05 -1.00547e-06
-3.33876e-07 -1.00547e-06 -4.8888e-05
0.00117008 3.30069e-05 -2.39971e-07
3.30069e-05 0.000133268 -3.54263e-07
-2.39971e-07 -3.54263e-07 5.90103e-05
0.00225246 1.4334e-05 -3.01126e-06
1.4334e-05 0.000854804 -9.87673e-06
-3.01126e-06 -9.87673e-06 0.000786234
0.00116478 -7.74079e-06 6.00707e-06
-7.74079e-06 0.000212907 -2.14899e-07
6.00707e-06 -2.14899e-07 0.000133054
0.00148142 1.03568e-08 -1.36133e-05
1.03568e-08 0.00046618 6.52377e-06
-1.36133e-05 6.52377e-06 0.000409424
0.000194843 5.12202e-05 -3.03337e-05
5.12202e-05 -0.000318399 1.14093e-05
-3.03337e-05 1.14093e-05 -0.000531797
0.00223948 0.000168581 1.35799e-05
0.000168581 0.000329624 -1.27604e-05
1.35799e-05 -1.27604e-05 -0.000502538
0.00313692 0.000279359 3.34163e-05
0.000279359 0.000577413 -2.35325e-05
3.34163e-05 -2.35325e-05 0.000698654
0.000485694 5.25005e-06 4.71382e-06
5.25005e-06 -0.000415932 2.445e-06
4.71382e-06 2.445e-06 -0.000308255
0.000579807 -3.3681e-05 -1.21801e-05
-3.3681e-05 -0.000124428 1.10401e-05
-1.21801e-05 1.10401e-05 -0.000280582
0.0050174 8.83062e-05 3.64257e-05
8.83062e-05 0.00104594 -4.2709e-05
3.64257e-05 -4.2709e-05 0.000236327
0.000688926 0.000102446 -6.27883e-07
0.000102446 -0.000712455 1.23049e-05
-6.27883e-07 1.23049e-05 -0.000534802
0.00111261 1.44684e-05 1.79968e-07
1.44684e-05 -3.33085e-05 9.49775e-07
1.79968e-07 9.49775e-07 4.35531e-05
0.00199418 -0.00019826 2.49995e-05
-0.00019826 0.000270403 -5.05977e-05
2.49995e-05 -5.05977e-05 0.000125837
0.00803228 0.000106187 2.38347e-05
0.000106187 0.00212776 -3.3582e-05
2.38347e-05 -3.3582e-05 0.00156789
2.73305e-05 -4.53303e-06 -2.21545e-07
-4.53303e-06 -0.000987139 7.83698e-05
-2.21545e-07 7.83698e-05 -0.0008393
-0.000142934 8.89755e-06 -6.36664e-07
8.89755e-06 -0.000822567 1.00917e-06
-6.36664e-07 1.00917e-06 -0.000698428
0.00108353 8.68776e-06 -3.73999e-08
8.68776e-06 8.64986e-05 -9.4196e-07
-3.73999e-08 -9.4196e-07 4.55351e-06
0.000997387 -1.64008e-06 -7.67777e-08
-1.64008e-06 5.06134e-05 -2.34128e-07
-7.67777e-08 -2.34128e-07 -3.09195e-05
0.00104842 -1.83063e-05 -1.17571e-07
-1.83063e-05 8.29313e-05 1.11287e-06
-1.17571e-07 1.11287e-06 5.75065e-06
0.00102031 2.04078e-05 -3.83351e-07
2.04078e-05 6.00195e-05 -6.98027e-07
-3.83351e-07 -6.98027e-07 -1.37494e-05
0.00114704 4.93562e-05 1.05166e-06
4.93562e-05 0.000129357 1.49165e-06
1.05166e-06 1.49165e-06 5.78779e-05
0.00122686 3.11819e-05 1.08465e-07
3.11819e-05 0.000164112 1.06496e-06
1.08465e-07 1.06496e-06 0.00010126
0.00260206 -0.000172889 6.81913e-06
-0.000172889 0.000466027 -2.52964e-09
6.81913e-06 -2.52964e-09 0.000465333
0.000862074 -1.22686e-05 2.11618e-08
-1.22686e-05 0.000136861 5.79294e-06
2.11618e-08 5.79294e-06 -0.000116117
0.00111561 2.81166e-05 4.17929e-07
2.81166e-05 0.000108897 1.20676e-06
4.17929e-07 1.20676e-06 2.21915e-05
0.0012242 -1.12914e-05 6.54008e-07
-1.12914e-05 0.000170024 2.38544e-07
6.54008e-07 2.38544e-07 5.18365e-05
0.0011245 3.04242e-06 -3.99756e-10
3.04242e-06 0.000103402 5.58878e-07
-3.99756e-10 5.58878e-07 9.00504e-06
0.00109791 2.35841e-05 3.78757e-07
2.35841e-05 9.01044e-05 2.08663e-07
3.78757e-07 2.08663e-07 5.45751e-06
0.00113993 2.92459e-05 1.98907e-07
2.92459e-05 0.000108995 -2.00241e-07
1.98907e-07 -2.00241e-07 1.73364e-05
0.00123844 -0.000134213 -6.63708e-07
-0.000134213 0.000105458 2.00273e-06
-6.63708e-07 2.00273e-06 8.37938e-08
0.00125091 8.57443e-07 5.11084e-07
8.57443e-07 0.000149626 -1.34429e-06
5.11084e-07 -1.34429e-06 6.022e-05
0.00149014 5.05565e-05 -1.64886e-06
5.05565e-05 0.000448239 -7.0376e-07
-1.64886e-06 -7.0376e-07 0.000259654
0.000947623 4.28878e-06 2.80575e-07
4.28878e-06 1.1643e-05 -2.2234e-06
2.80575e-07 -2.2234e-06 -7.55826e-05
0.000173066 -2.18583e-05 3.12393e-06
-2.18583e-05 1.42029e-05 -4.73318e-06
3.12393e-06 -4.73318e-06 -0.000252472
0.000541628 2.64544e-05 -2.29955e-06
2.64544e-05 -0.000140974 5.42319e-06
-2.29955e-06 5.42319e-06 -0.000197412
0.00106208 -3.29537e-06 9.91582e-08
-3.29537e-06 6.43377e-05 -1.50661e-06
9.91582e-08 -1.50661e-06 -2.88533e-05
0.00130722 -5.32292e-06 9.36808e-07
-5.32292e-06 0.000316383 -8.01587e-07
9.36808e-07 -8.01587e-07 0.000195369
0.000990725 -2.13825e-06 1.7814e-06
-2.13825e-06 0.000152482 1.43908e-07
1.7814e-06 1.43908e-07 3.97288e-05
0.00110946 -4.06359e-06 -1.89237e-05
-4.06359e-06 0.000288582 1.1526e-06
-1.89237e-05 1.1526e-06 0.000207569
0.00143373 5.90574e-05 2.77665e-06
5.90574e-05 0.000290801 4.06388e-06
2.77665e-06 4.06388e-06 0.000214141
-0.000599689 5.65424e-05 7.08706e-06
5.65424e-05 -0.000437733 -1.14245e-05
7.08706e-06 -1.14245e-05 -0.000517815
0.00074266 4.49708e-06 -4.19784e-06
4.49708e-06 -4.0411e-05 2.12996e-06
-4.19784e-06 2.12996e-06 -0.00015213
0.00354002 -3.0295e-05 -1.60232e-05
-3.0295e-05 0.000329891 -1.06695e-05
-1.60232e-05 -1.06695e-05 9.95243e-05
-0.00117001 2.08952e-05 1.65768e-06
2.08952e-05 -0.0017104 7.0439e-05
1.65768e-06 7.0439e-05 -0.0015224
0.000195586 -7.6231e-06 -7.51545e-07
-7.6231e-06 -0.000458711 -5.22892e-06
-7.51545e-07 -5.22892e-06 -0.000561903
0.000470328 -3.92858e-06 -2.03195e-06
-3.92858e-06 -0.000376808 -7.13214e-06
-2.03195e-06 -7.13214e-06 -0.000310258
0.00065075 3.90618e-05 1.81877e-06
3.90618e-05 2.11871e-05 8.72112e-07
1.81877e-06 8.72112e-07 -6.3342e-05
0.00118368 -4.58138e-06 -2.22344e-07
-4.58138e-06 0.000210305 6.27659e-07
-2.22344e-07 6.27659e-07 8.85947e-05
0.00120933 -2.16731e-05 -6.20336e-06
-2.16731e-05 0.000240115 1.13509e-06
-6.20336e-06 1.13509e-06 0.000134175
0.001338 0.000154537 2.56812e-05
0.000154537 0.000333601 9.96469e-07
2.56812e-05 9.96469e-07 0.000194057
0.00135723 7.35433e-05 1.81828e-06
7.35433e-05 1.89691e-05 -3.08434e-06
1.81828e-06 -3.08434e-06 0.000278833
0.000544993 0.000134324 2.02338e-06
0.000134324 -0.00072281 -1.32563e-05
2.02338e-06 -1.32563e-05 -0.000582129
0.00700654 -7.57065e-06 7.4431e-06
-7.57065e-06 0.00179207 -1.98641e-05
7.4431e-06 -1.98641e-05 0.00143774
-0.00100018 4.92765e-06 -2.01358e-05
4.92765e-06 -0.00027556 -1.22867e-05
-2.01358e-05 -1.22867e-05 -0.00052876
0.00114553 -1.35627e-05 -7.7599e-06
-1.35627e-05 0.000245948 7.88681e-07
-7.7599e-06 7.88681e-07 0.000125408
0.000977417 -1.57055e-06 -1.20329e-05
-1.57055e-06 0.000119772 2.73434e-06
-1.20329e-05 2.73434e-06 6.09932e-05
0.00135467 0.000122102 9.52526e-06
0.000122102 0.000144315 -2.16558e-07
9.52526e-06 -2.16558e-07 0.0004368
-0.00299166 0.000218374 3.90775e-05
0.000218374 -0.00221289 -3.88888e-05
3.90775e-05 -3.88888e-05 -0.00214788
0.00775688 0.000153462 -1.84176e-06
0.000153462 0.00208427 -8.40024e-06
-1.84176e-06 -8.40024e-06 0.00130862
0.00138165 -1.97705e-05 -2.09493e-05
-1.97705e-05 0.000334636 9.19867e-05
-2.09493e-05 9.19867e-05 4.9565e-05
0.000847267 2.04767e-05 8.80087e-07
2.04767e-05 -7.00416e-06 3.22138e-06
8.80087e-07 3.22138e-06 -0.000107913
0.000523421 -1.32966e-05 1.25765e-06
-1.32966e-05 4.64007e-06 -1.48721e-06
1.25765e-06 -1.48721e-06 -0.00023351
0.000732335 -3.46351e-05 -7.80578e-08
-3.46351e-05 0.0001605 -2.08277e-06
-7.80578e-08 -2.08277e-06 -0.000113704
0.00103208 -4.37839e-05 4.38441e-07
-4.37839e-05 5.68527e-05 -9.7564e-07
4.38441e-07 -9.7564e-07 -3.65247e-05
0.000741401 -2.61924e-05 9.06227e-08
-2.61924e-05 -4.58901e-05 1.08615e-06
9.06227e-08 1.08615e-06 -0.000153907
0.00084328 -2.45872e-05 -1.52142e-07
-2.45872e-05 4.21661e-05 7.15505e-07
-1.52142e-07 7.15505e-07 -8.09204e-05
0.000893834 -6.45722e-05 2.0574e-06
-6.45722e-05 0.000130485 -1.39751e-06
2.0574e-06 -1.39751e-06 -6.88062e-05
0.00132157 -5.60412e-05 -5.45537e-08
-5.60412e-05 0.000215055 -7.38505e-08
-5.45537e-08 -7.38505e-08 0.00011849
0.00128336 -6.35862e-05 -8.20628e-08
-6.35862e-05 0.00022893 3.81854e-07
-8.20628e-08 3.81854e-07 0.00010432
0.00113564 -7.04669e-05 1.34476e-06
-7.04669e-05 0.00015587 1.95708e-06
1.34476e-06 1.95708e-06 4.16586e-06
0.000673527 -4.30178e-05 2.53645e-08
-4.30178e-05 -8.64847e-05 -1.42817e-06
2.53645e-08 -1.42817e-06 -0.000187049
0.00111741 -6.15467e-05 -3.1401e-07
-6.15467e-05 0.000121104 -2.53801e-08
-3.1401e-07 -2.53801e-08 4.99316e-06
0.00173092 -8.39377e-05 -1.36662e-06
-8.39377e-05 0.000388913 1.62174e-06
-1.36662e-06 1.62174e-06 0.000271691
0.0013976 -7.3053e-05 -1.9034e-06
-7.3053e-05 0.000204755 2.49751e-06
-1.9034e-06 2.49751e-06 0.000101382
0.000848414 -5.256e-05 -5.38166e-07
-5.256e-05 -3.73283e-05 1.88011e-06
-5.38166e-07 1.88011e-06 -0.000122514
0.00112937 -6.31035e-05 -4.81933e-07
-6.31035e-05 9.02273e-05 4.2518e-07
-4.81933e-07 4.2518e-07 -9.21268e-06
0.00109551 -5.91783e-05 -5.51508e-08
-5.91783e-05 9.34515e-05 -1.01125e-06
-5.51508e-08 -1.01125e-06 -8.24125e-06
0.00123516 -5.67908e-05 3.18046e-07
-5.67908e-05 0.000165552 -2.55132e-07
3.18046e-07 -2.55132e-07 8.94863e-05
0.00112249 -5.6059e-05 1.14581e-06
-5.6059e-05 0.000110427 -6.35059e-07
1.14581e-06 -6.35059e-07 3.08861e-05
0.000913548 -3.66296e-05 -5.29735e-07
-3.66296e-05 1.99168e-05 6.2631e-07
-5.29735e-07 6.2631e-07 -5.36458e-05
0.000983822 -4.76838e-05 2.22514e-07
-4.76838e-05 5.64871e-05 -1.10755e-07
2.22514e-07 -1.10755e-07 -2.21125e-05
0.00104995 -5.41864e-05 2.92005e-06
-5.41864e-05 7.47905e-05 -1.50932e-06
2.92005e-06 -1.50932e-06 -9.16756e-06
0.000997958 -8.68666e-06 -1.51085e-06
-8.68666e-06 4.565e-05 1.02914e-06
-1.51085e-06 1.02914e-06 -1.60949e-05
0.00107595 -4.31906e-05 -2.9549e-07
-4.31906e-05 9.0018e-05 -5.30487e-08
-2.9549e-07 -5.30487e-08 1.79046e-05
0.00112046 -5.18928e-05 4.47611e-07
-5.18928e-05 0.000114343 -9.99561e-08
4.47611e-07 -9.99561e-08 3.5598e-05
0.000931936 4.66059e-06 -1.77936e-06
4.66059e-06 8.43877e-06 2.31418e-06
-1.77936e-06 2.31418e-06 -3.08254e-05
0.00101233 -1.5855e-05 1.59154e-07
-1.5855e-05 4.90825e-05 1.23648e-07
1.59154e-07 1.23648e-07 -1.13632e-05
0.00100799 -4.08212e-05 1.38387e-06
-4.08212e-05 5.34291e-05 -2.01938e-07
1.38387e-06 -2.01938e-07 -2.03954e-05
0.00100018 -1.03518e-05 9.69584e-07
-1.03518e-05 4.27281e-05 -1.37521e-06
9.69584e-07 -1.37521e-06 -1.53017e-05
0.000927754 1.00207e-05 2.22548e-07
1.00207e-05 4.33824e-06 -3.60205e-08
2.22548e-07 -3.60205e-08 -3.22157e-05
0.000839493 1.75325e-05 -2.37178e-06
1.75325e-05 -4.12081e-05 3.4352e-06
-2.37178e-06 3.4352e-06 -4.81044e-05
0.000926054 1.06652e-05 9.62161e-07
1.06652e-05 4.9521e-07 -2.12426e-06
9.62161e-07 -2.12426e-06 -3.34036e-05
0.000865997 1.55923e-05 9.94722e-08
1.55923e-05 -3.30473e-05 -1.42413e-08
9.94722e-08 -1.42413e-08 -3.81228e-05
0.00236533 2.33049e-05 -1.35131e-05
2.33049e-05 0.000727128 3.92092e-06
-1.35131e-05 3.92092e-06 0.0007468
0.000887851 1.33875e-05 1.83257e-06
1.33875e-05 -2.67485e-05 -3.28277e-06
1.83257e-06 -3.28277e-06 -3.03295e-05
0.00169304 1.78684e-05 5.12534e-06
1.78684e-05 0.000381632 -1.15057e-06
5.12534e-06 -1.15057e-06 0.000399378
0.00230477 1.58146e-05 1.05276e-05
1.58146e-05 0.00068835 -3.99129e-06
1.05276e-05 -3.99129e-06 0.000709942
0.000976633 1.47432e-05 -5.78441e-07
1.47432e-05 2.7103e-05 -1.45796e-06
-5.78441e-07 -1.45796e-06 -2.72294e-05
0.000930543 -9.66125e-06 -7.02111e-07
-9.66125e-06 -1.1365e-06 -2.02452e-06
-7.02111e-07 -2.02452e-06 -3.30856e-05
0.00088749 7.52511e-06 -4.73946e-07
7.52511e-06 -1.63837e-05 -5.51953e-07
-4.73946e-07 -5.51953e-07 -6.88999e-05
0.000899509 -1.14018e-05 -1.23716e-06
-1.14018e-05 -2.51525e-05 -3.33282e-06
-1.23716e-06 -3.33282e-06 -2.69852e-05
0.000815646 -7.09866e-06 -2.44217e-07
-7.09866e-06 -6.07303e-05 -5.90837e-07
-2.44217e-07 -5.90837e-07 -9.14112e-05
0.00109273 -2.17322e-06 1.67506e-07
-2.17322e-06 8.68669e-05 7.50637e-07
1.67506e-07 7.50637e-07 3.77694e-05
0.00223836 -1.18241e-05 -8.27211e-06
-1.18241e-05 0.000650518 -4.0462e-06
-8.27211e-06 -4.0462e-06 0.000673479
0.000891364 -8.58396e-06 -9.67729e-08
-8.58396e-06 -3.2771e-05 -1.71564e-08
-9.67729e-08 -1.71564e-08 -3.26196e-05
0.000694811 -5.57264e-06 1.49996e-07
-5.57264e-06 -0.000123206 1.32438e-06
1.49996e-07 1.32438e-06 -0.000152398
0.00219618 -7.69947e-06 -1.04021e-06
-7.69947e-06 0.000626214 1.87282e-08
-1.04021e-06 1.87282e-08 0.000650183
0.000885663 -5.62443e-06 5.08308e-07
-5.62443e-06 -3.83316e-05 3.21943e-06
5.08308e-07 3.21943e-06 -3.65634e-05
0.00216452 -3.63833e-06 2.11979e-06
-3.63833e-06 0.000608462 3.9445e-06
2.11979e-06 3.9445e-06 0.000633073
0.0015242 2.6273e-06 2.8785e-06
2.6273e-06 0.000417339 1.22838e-06
2.8785e-06 1.22838e-06 0.000312065
0.00116028 -5.78019e-06 2.06332e-06
-5.78019e-06 0.000245408 -3.19568e-07
2.06332e-06 -3.19568e-07 0.000141978
0.00110597 -7.47221e-06 -1.62551e-05
-7.47221e-06 0.000264865 1.02505e-06
-1.62551e-05 1.02505e-06 0.000191788
0.000956987 1.40586e-05 -3.47418e-07
1.40586e-05 1.77463e-05 -1.21505e-06
-3.47418e-07 -1.21505e-06 -5.15245e-05
0.0011457 3.69854e-05 -3.61668e-07
3.69854e-05 0.000116598 -7.27971e-07
-3.61668e-07 -7.27971e-07 3.89563e-05
0.0010987 2.93535e-05 9.69854e-07
2.93535e-05 9.45401e-05 1.09042e-06
9.69854e-07 1.09042e-06 2.93772e-05
0.000937636 1.65385e-05 -5.68041e-08
1.65385e-05 9.64044e-06 1.89504e-09
-5.68041e-08 1.89504e-09 -5.79808e-05
0.0010942 2.25078e-05 1.91381e-07
2.25078e-05 9.32476e-05 3.52745e-07
1.91381e-07 3.52745e-07 1.87838e-05
0.00106158 3.03449e-05 -3.70896e-07
3.03449e-05 7.55174e-05 -8.03685e-07
-3.70896e-07 -8.03685e-07 -4.94672e-07
0.00107463 4.51841e-05 -1.30281e-07
4.51841e-05 8.61892e-05 -3.28108e-07
-1.30281e-07 -3.28108e-07 4.42482e-06
0.000872829 2.89766e-05 -2.93644e-06
2.89766e-05 4.50248e-05 -9.78577e-06
-2.93644e-06 -9.78577e-06 -4.40571e-05
0.00106607 1.28633e-05 -1.14553e-06
1.28633e-05 0.000100377 -4.39201e-06
-1.14553e-06 -4.39201e-06 2.94358e-05
0.000921029 -7.81796e-06 1.05466e-06
-7.81796e-06 6.39475e-05 4.5719e-06
1.05466e-06 4.5719e-06 -1.26876e-05
-0.000400309 8.51352e-06 1.00287e-06
8.51352e-06 -0.000938375 3.22698e-06
1.00287e-06 3.22698e-06 -0.000891146
0.000871108 -4.42946e-05 -6.14965e-05
-4.42946e-05 -0.000355174 6.09578e-05
-6.14965e-05 6.09578e-05 -0.000615776
0.002077 7.26383e-05 5.20191e-05
7.26383e-05 6.77667e-06 -6.01935e-05
5.20191e-05 -6.01935e-05 -0.000694894
0.00459062 0.000174423 1.62831e-05
0.000174423 0.000868434 -2.96194e-05
1.62831e-05 -2.96194e-05 0.00105511
0.00115849 -0.000170743 -2.31775e-05
-0.000170743 -0.000208673 2.23106e-05
-2.31775e-05 2.23106e-05 -0.000462801
0.00307138 -7.16182e-05 1.76499e-05
-7.16182e-05 -0.000203755 -5.00085e-05
1.76499e-05 -5.00085e-05 -0.000913841
0.00334212 -2.35195e-05 -1.96165e-06
-2.35195e-05 0.000326268 -2.90396e-07
-1.96165e-06 -2.90396e-07 0.000408152
0.00193453 8.53486e-07 -5.69221e-07
8.53486e-07 0.000369419 4.82266e-06
-5.69221e-07 4.82266e-06 0.000539327
0.000900138 -0.00013531 3.42955e-05
-0.00013531 -4.82415e-05 -2.39228e-05
3.42955e-05 -2.39228e-05 -0.00020924
0.00313188 -0.000218439 -2.04682e-05
-0.000218439 -0.000531122 -0.000105935
-2.04682e-05 -0.000105935 -0.000867818
-0.000428153 -7.60314e-05 1.80543e-05
-7.60314e-05 -0.00136257 4.97176e-05
1.80543e-05 4.97176e-05 -0.00119068
-0.000978622 -5.42625e-05 -5.99995e-06
-5.42625e-05 -0.00136084 4.57939e-07
-5.99995e-06 4.57939e-07 -0.00111601
0.00114134 1.30143e-05 -7.33801e-07
1.30143e-05 0.000106929 -1.28203e-06
-7.33801e-07 -1.28203e-06 2.3926e-05
0.00105904 1.07131e-05 7.089e-08
1.07131e-05 7.47133e-05 -2.01838e-07
7.089e-08 -2.01838e-07 -7.71503e-06
0.00100388 -7.50049e-08 -2.71098e-08
-7.50049e-08 5.53679e-05 7.48637e-07
-2.71098e-08 7.48637e-07 -2.65516e-05
0.00104833 2.16755e-05 1.00372e-07
2.16755e-05 7.38306e-05 1.80799e-07
1.00372e-07 1.80799e-07 7.38515e-08
0.00167647 -0.000136806 1.1547e-05
-0.000136806 0.000269937 2.75683e-06
1.1547e-05 2.75683e-06 0.00020427
0.00144044 4.80164e-05 2.73958e-06
4.80164e-05 0.000458259 3.47847e-06
2.73958e-06 3.47847e-06 0.000270378
0.00101549 2.3083e-05 2.25647e-07
2.3083e-05 4.89353e-05 1.34658e-06
2.25647e-07 1.34658e-06 -3.55217e-05
0.00103799 1.75364e-05 -2.10584e-07
1.75364e-05 5.70148e-05 1.22337e-06
-2.10584e-07 1.22337e-06 -3.46421e-05
0.00152413 3.80542e-07 -7.96634e-07
3.80542e-07 0.000281969 -5.29688e-07
-7.96634e-07 -5.29688e-07 0.00019398
0.00102066 1.96904e-05 -8.51609e-07
1.96904e-05 4.88361e-05 -9.86185e-08
-8.51609e-07 -9.86185e-08 -3.88167e-05
0.0010194 -5.10578e-07 -1.10995e-06
-5.10578e-07 4.21006e-05 5.46552e-07
-1.10995e-06 5.46552e-07 -5.22838e-05
0.000694696 -2.90536e-05 1.26235e-05
-2.90536e-05 0.000251815 -5.75727e-07
1.26235e-05 -5.75727e-07 4.5432e-05
0.000874947 1.20172e-05 2.5595e-06
1.20172e-05 2.83521e-05 3.48822e-06
2.5595e-06 3.48822e-06 -2.4012e-05
0.00121917 1.60002e-06 4.72395e-08
1.60002e-06 0.000152078 -3.03964e-06
4.72395e-08 -3.03964e-06 5.69996e-05
0.000746513 1.55803e-05 5.35226e-06
1.55803e-05 0.000449472 3.96427e-06
5.35226e-06 3.96427e-06 0.000235107
0.00168865 -3.24892e-05 6.60389e-06
-3.24892e-05 0.000436116 -1.78225e-06
6.60389e-06 -1.78225e-06 0.000314338
0.00148837 -4.89725e-06 -6.39862e-06
-4.89725e-06 0.00047338 5.49385e-08
-6.39862e-06 5.49385e-08 0.00035206
0.00103328 -4.87064e-06 3.10913e-07
-4.87064e-06 0.000156423 -4.70895e-07
3.10913e-07 -4.70895e-07 3.23441e-05
0.000611612 -3.31034e-06 -1.60515e-06
-3.31034e-06 -8.48095e-05 2.61474e-07
-1.60515e-06 2.61474e-07 -0.000200895
0.000442531 2.29556e-05 -3.52652e-06
2.29556e-05 -0.000117729 5.77476e-06
-3.52652e-06 5.77476e-06 -0.00020242
0.00141122 7.54359e-05 -3.79395e-05
7.54359e-05 0.00065647 1.05224e-05
-3.79395e-05 1.05224e-05 0.000665407
0.00087653 -4.26446e-06 -1.90553e-07
-4.26446e-06 3.00103e-05 2.85988e-06
-1.90553e-07 2.85988e-06 -9.29443e-05
0.00311154 0.000171772 1.72319e-05
0.000171772 -8.50915e-05 -9.01989e-05
1.72319e-05 -9.01989e-05 -0.000564483
0.00458084 0.000204734 -1.2513e-05
0.000204734 0.000947129 1.89682e-05
-1.2513e-05 1.89682e-05 0.00107711
0.00111423 -2.3457e-05 1.47647e-06
-2.3457e-05 0.000186531 -6.37654e-06
1.47647e-06 -6.37654e-06 8.26751e-05
0.0020825 7.00863e-05 -2.53002e-06
7.00863e-05 0.000475787 -5.16115e-06
-2.53002e-06 -5.16115e-06 0.000711928
6.26397e-05 -9.18286e-06 1.6083e-05
-9.18286e-06 0.000153367 -1.30623e-07
1.6083e-05 -1.30623e-07 -5.51337e-05
0.00116601 -1.29826e-05 -2.39245e-06
-1.29826e-05 0.000252357 3.25474e-07
-2.39245e-06 3.25474e-07 0.000132322
0.00127363 -4.92031e-06 2.14825e-06
-4.92031e-06 0.00032449 5.3656e-07
2.14825e-06 5.3656e-07 0.000259112
0.00192602 -2.75723e-05 -1.12645e-05
-2.75723e-05 0.000693616 1.71337e-05
-1.12645e-05 1.71337e-05 0.000626176
0.000579754 0.000132062 -1.87523e-06
0.000132062 -0.000302866 4.34165e-07
-1.87523e-06 4.34165e-07 -4.71908e-06
0.000962476 0.000252697 3.82795e-06
0.000252697 -0.000414451 -9.79128e-06
3.82795e-06 -9.79128e-06 -0.000354563
0.00297794 1.91129e-05 2.15731e-05
1.91129e-05 0.000257975 -1.06197e-05
2.15731e-05 -1.06197e-05 -0.000698331
0.000541114 -5.83244e-05 4.08028e-06
-5.83244e-05 0.000311297 -1.91402e-05
4.08028e-06 -1.91402e-05 5.70832e-05
0.00138138 -1.02194e-05 -1.20817e-05
-1.02194e-05 0.000448368 1.30751e-06
-1.20817e-05 1.30751e-06 0.000358664
-0.00109125 5.07921e-05 7.61719e-06
5.07921e-05 -0.00110657 -5.21385e-06
7.61719e-06 -5.21385e-06 -0.00103828
0.000174933 0.000192386 5.67968e-05
0.000192386 -6.98531e-05 -2.65109e-05
5.67968e-05 -2.65109e-05 -1.36158e-05
0.00597122 0.000325559 3.52046e-05
0.000325559 0.00162809 -4.48982e-05
3.52046e-05 -4.48982e-05 0.000816226
0.00201753 -0.000157695 -4.71166e-05
-0.000157695 0.000117834 0.000105123
-4.71166e-05 0.000105123 -0.000386012
0.00107779 -7.76169e-06 -1.80951e-06
-7.76169e-06 0.000262206 -1.44232e-06
-1.80951e-06 -1.44232e-06 3.15381e-05
0.000619919 -2.43226e-05 3.72073e-09
-2.43226e-05 0.000112197 -9.25831e-07
3.72073e-09 -9.25831e-07 -0.000167558
0.00141335 -9.21849e-05 1.00933e-06
-9.21849e-05 0.000412031 1.11161e-06
1.00933e-06 1.11161e-06 0.000157338
0.000751234 -1.92704e-05 -4.77114e-08
-1.92704e-05 -2.95419e-06 -6.70984e-08
-4.77114e-08 -6.70984e-08 -0.000121267
0.000559057 -4.44445e-05 1.5047e-07
-4.44445e-05 -1.61278e-05 2.5991e-07
1.5047e-07 2.5991e-07 -0.000220214
0.00119746 -8.93756e-05 2.34746e-06
-8.93756e-05 0.000203395 4.57381e-06
2.34746e-06 4.57381e-06 1.73505e-05
0.00156003 -7.38178e-05 -1.24169e-06
-7.38178e-05 0.000356907 -6.75316e-08
-1.24169e-06 -6.75316e-08 0.000228153
0.00123409 -7.2727e-05 -2.03175e-07
-7.2727e-05 0.000197471 7.02031e-07
-2.03175e-07 7.02031e-07 4.40303e-05
0.00129992 -8.62172e-05 -1.16523e-06
-8.62172e-05 0.000171288 4.53357e-07
-1.16523e-06 4.53357e-07 2.73192e-05
0.00111084 -6.11095e-05 -4.43589e-07
-6.11095e-05 0.000116602 -9.83601e-07
-4.43589e-07 -9.83601e-07 -1.88993e-06
0.00150987 -7.94826e-05 -1.92799e-07
-7.94826e-05 0.000277858 1.47909e-07
-1.92799e-07 1.47909e-07 0.000158306
0.00136868 -7.78002e-05 -4.53861e-07
-7.78002e-05 0.000182139 3.70294e-07
-4.53861e-07 3.70294e-07 6.68962e-05
0.00130637 -6.965e-05 -1.59059e-06
-6.965e-05 0.000124468 2.48592e-07
-1.59059e-06 2.48592e-07 2.58373e-05
0.0014866 -7.07665e-05 -1.93096e-06
-7.07665e-05 0.00025214 2.87216e-06
-1.93096e-06 2.87216e-06 0.000160219
0.00133648 -7.19799e-05 -2.84392e-07
-7.19799e-05 0.000174239 2.51678e-07
-2.84392e-07 2.51678e-07 6.96929e-05
0.000820163 -4.93172e-05 -6.27164e-10
-4.93172e-05 -4.68982e-05 2.07458e-07
-6.27164e-10 2.07458e-07 -0.000124067
0.000984072 -5.55931e-05 8.54895e-07
-5.55931e-05 3.01549e-05 -2.61163e-07
8.54895e-07 -2.61163e-07 -5.43507e-05
0.00107851 -6.23135e-05 7.48115e-07
-6.23135e-05 6.67956e-05 -1.56126e-06
7.48115e-07 -1.56126e-06 -3.4255e-05
0.00111443 -4.72368e-05 -1.94391e-07
-4.72368e-05 0.000109635 2.50671e-07
-1.94391e-07 2.50671e-07 3.58561e-05
0.00115831 -5.4796e-05 4.08809e-11
-5.4796e-05 0.000128964 -1.68738e-07
4.08809e-11 -1.68738e-07 5.25694e-05
0.000937364 -5.12692e-05 1.9353e-06
-5.12692e-05 2.04608e-05 -7.37945e-07
1.9353e-06 -7.37945e-07 -5.73395e-05
0.000938645 -6.13142e-07 -7.66963e-07
-6.13142e-07 2.23044e-05 1.031e-06
-7.66963e-07 1.031e-06 -4.13342e-05
0.000948043 -3.67647e-05 -1.27193e-07
-3.67647e-05 3.56393e-05 1.40439e-07
-1.27193e-07 1.40439e-07 -3.73851e-05
0.00108927 -5.01409e-05 8.4454e-07
-5.01409e-05 0.000107565 -5.33868e-07
8.4454e-07 -5.33868e-07 2.96871e-05
0.000909127 9.04073e-06 -2.41404e-06
9.04073e-06 3.17966e-08 2.21856e-06
-2.41404e-06 2.21856e-06 -4.16119e-05
0.0010058 -9.78024e-06 -3.07553e-07
-9.78024e-06 4.8549e-05 1.2022e-08
-3.07553e-07 1.2022e-08 -1.29695e-05
0.00109027 -4.40482e-05 5.94279e-07
-4.40482e-05 9.58589e-05 -2.6947e-07
5.94279e-07 -2.6947e-07 2.39228e-05
0.000867214 1.95178e-05 -3.95841e-06
1.95178e-05 -2.35531e-05 4.82327e-06
-3.95841e-06 4.82327e-06 -3.24498e-05
0.00092342 9.03609e-06 3.51136e-07
9.03609e-06 4.6701e-06 3.92878e-09
3.51136e-07 3.92878e-09 -3.46811e-05
0.00100061 -1.65344e-05 1.50459e-06
-1.65344e-05 4.2463e-05 -1.03512e-06
1.50459e-06 -1.03512e-06 -1.76472e-05
0.000918798 1.17789e-05 1.32904e-06
1.17789e-05 1.58157e-07 -2.24557e-06
1.32904e-06 -2.24557e-06 -3.64855e-05
0.000854383 1.77549e-05 1.36379e-07
1.77549e-05 -3.38386e-05 -2.94892e-08
1.36379e-07 -2.94892e-08 -4.08468e-05
0.00241014 2.69986e-05 -1.52911e-05
2.69986e-05 0.00075509 3.89652e-06
-1.52911e-05 3.89652e-06 0.000773449
0.000880146 1.5742e-05 2.19465e-06
1.5742e-05 -2.61125e-05 -3.36745e-06
2.19465e-06 -3.36745e-06 -3.12627e-05
0.00236506 2.33091e-05 5.68261e-07
2.33091e-05 0.00072758 4.14818e-08
5.68261e-07 4.14818e-08 0.000747121
0.00233179 1.96006e-05 1.26152e-05
1.96006e-05 0.000706416 -3.98463e-06
1.26152e-05 -3.98463e-06 0.000726991
0.00105318 3.02537e-05 -6.88161e-07
3.02537e-05 6.85442e-05 -1.19208e-06
-6.88161e-07 -1.19208e-06 -2.91302e-06
0.00099557 1.05819e-05 -6.02938e-07
1.05819e-05 3.50283e-05 -1.65799e-06
-6.02938e-07 -1.65799e-06 -2.23075e-05
0.00092102 -1.39409e-05 -8.96156e-07
-1.39409e-05 -3.79426e-06 -2.17341e-06
-8.96156e-07 -2.17341e-06 -3.80183e-05
0.000986928 1.15126e-05 1.06644e-07
1.15126e-05 3.20776e-05 -4.38305e-08
1.06644e-07 -4.38305e-08 -2.2126e-05
0.000890078 -1.38183e-05 -1.64874e-06
-1.38183e-05 -2.58867e-05 -3.40714e-06
-1.64874e-06 -3.40714e-06 -2.96606e-05
0.000937 -1.10466e-05 -1.71703e-09
-1.10466e-05 2.2414e-06 -5.28267e-09
-1.71703e-09 -5.28267e-09 -2.97505e-05
0.00097963 1.51758e-05 1.63974e-07
1.51758e-05 2.99929e-05 8.7201e-07
1.63974e-07 8.7201e-07 -2.17394e-05
0.0022904 -1.58051e-05 -1.03979e-05
-1.58051e-05 0.000680408 -4.07613e-06
-1.03979e-05 -4.07613e-06 0.000702228
0.000883135 -1.13409e-05 -9.3512e-08
-1.13409e-05 -3.32645e-05 -2.03453e-08
-9.3512e-08 -2.03453e-08 -3.49998e-05
0.00095265 -7.39544e-06 2.97648e-07
-7.39544e-06 8.25122e-06 1.35728e-06
2.97648e-07 1.35728e-06 -2.18232e-05
0.00223605 -1.1724e-05 -9.13266e-07
-1.1724e-05 0.000648958 2.78919e-08
-9.13266e-07 2.78919e-08 0.000672063
0.000876805 -8.49543e-06 7.79332e-07
-8.49543e-06 -4.0047e-05 3.27481e-06
7.79332e-07 3.27481e-06 -3.97897e-05
0.00219401 -7.58364e-06 4.85107e-06
-7.58364e-06 0.000624831 3.96446e-06
4.85107e-06 3.96446e-06 0.000648908
0.000918632 8.47957e-06 -7.3147e-06
8.47957e-06 9.00356e-05 1.00622e-06
-7.3147e-06 1.00622e-06 -2.7139e-05
0.00112407 1.72992e-06 3.06333e-07
1.72992e-06 0.00017542 -2.03889e-06
3.06333e-07 -2.03889e-06 6.71032e-05
0.00117473 -4.98657e-06 -3.31189e-06
-4.98657e-06 0.000247773 -6.29447e-08
-3.31189e-06 -6.29447e-08 0.000145586
0.000996984 2.1113e-05 -5.29328e-08
2.1113e-05 3.90516e-05 1.27392e-08
-5.29328e-08 1.27392e-08 -3.05896e-05
0.00108613 3.41994e-05 8.04115e-08
3.41994e-05 8.6027e-05 2.43968e-07
8.04115e-08 2.43968e-07 8.06856e-06
0.00101708 3.9075e-05 -1.12939e-06
3.9075e-05 5.46705e-05 -1.13133e-06
-1.12939e-06 -1.13133e-06 -2.49088e-05
0.000965735 2.76201e-05 -3.71383e-07
2.76201e-05 2.53812e-05 -1.37854e-06
-3.71383e-07 -1.37854e-06 -5.20913e-05
0.00115509 4.66599e-05 -4.39938e-07
4.66599e-05 0.00012487 -8.54503e-07
-4.39938e-07 -8.54503e-07 4.23136e-05
0.000919409 1.89753e-05 2.89718e-07
1.89753e-05 1.46307e-06 1.06298e-06
2.89718e-07 1.06298e-06 -6.66964e-05
0.00101667 1.36167e-05 3.30759e-07
1.36167e-05 5.24063e-05 1.19473e-06
3.30759e-07 1.19473e-06 -2.22755e-05
0.00105119 3.60937e-05 -8.21192e-08
3.60937e-05 7.12444e-05 -1.34156e-08
-8.21192e-08 -1.34156e-08 -5.11162e-06
0.00105824 2.64794e-05 3.00019e-07
2.64794e-05 7.46197e-05 4.70169e-07
3.00019e-07 4.70169e-07 -5.71875e-06
0.00110243 3.1979e-05 -2.80655e-07
3.1979e-05 9.86267e-05 -8.40497e-07
-2.80655e-07 -8.40497e-07 1.64634e-05
0.000702603 1.87342e-06 -1.13137e-05
1.87342e-06 2.69527e-05 -4.00922e-06
-1.13137e-05 -4.00922e-06 -4.28727e-05
0.000874053 2.95642e-05 5.30591e-08
2.95642e-05 5.49748e-05 -4.20436e-06
5.30591e-08 -4.20436e-06 -3.60779e-05
-0.000160207 1.13299e-05 5.57375e-07
1.13299e-05 -0.000680726 5.82771e-07
5.57375e-07 5.82771e-07 -0.000752927
0.00134017 6.35897e-06 6.77805e-06
6.35897e-06 4.03461e-05 8.86887e-06
6.77805e-06 8.86887e-06 0.000199298
-0.00184858 1.05468e-05 -8.37473e-07
1.05468e-05 -0.00212674 -7.76582e-05
-8.37473e-07 -7.76582e-05 -0.00196586
0.00134595 -0.000212611 -6.40285e-05
-0.000212611 -0.00026509 8.9805e-05
-6.40285e-05 8.9805e-05 -0.000622949
0.00700495 0.000104461 -1.27811e-05
0.000104461 0.00152813 -4.64261e-05
-1.27811e-05 -4.64261e-05 0.00111329
0.000641183 -0.000183261 -3.70425e-05
-0.000183261 -0.000390851 2.7988e-05
-3.70425e-05 2.7988e-05 -0.000787917
0.00748815 -0.000120604 1.59372e-05
-0.000120604 0.00173122 2.58065e-06
1.59372e-05 2.58065e-06 0.00133995
0.00103298 -0.000153281 4.28318e-06
-0.000153281 -0.000658811 -1.83954e-05
4.28318e-06 -1.83954e-05 -0.000568121
0.000176673 -5.58269e-05 3.0072e-06
-5.58269e-05 -0.000647381 2.10574e-06
3.0072e-06 2.10574e-06 -0.000408535
0.0018618 -7.68937e-05 -1.8838e-05
-7.68937e-05 0.00039983 -5.53139e-05
-1.8838e-05 -5.53139e-05 -8.3886e-06
0.00673742 -0.000238782 -1.57516e-05
-0.000238782 0.00151134 5.05174e-05
-1.57516e-05 5.05174e-05 0.000966055
0.0048446 -0.000273125 1.04255e-05
-0.000273125 0.00136916 2.33754e-05
1.04255e-05 2.33754e-05 0.0014968
0.00106328 -0.000122708 7.52926e-07
-0.000122708 -0.000135932 -5.12534e-07
7.52926e-07 -5.12534e-07 0.000229559
0.000983251 2.77485e-05 -6.22612e-07
2.77485e-05 4.64566e-05 -1.89742e-06
-6.22612e-07 -1.89742e-06 -3.30433e-05
0.00111492 1.06854e-05 -9.35927e-08
1.06854e-05 9.80063e-05 3.69666e-08
-9.35927e-08 3.69666e-08 1.45979e-05
0.00104333 8.30648e-06 1.63614e-07
8.30648e-06 6.67195e-05 7.85731e-07
1.63614e-07 7.85731e-07 -1.58785e-05
0.00104291 -2.69658e-05 1.92958e-05
-2.69658e-05 0.000379709 -2.75384e-06
1.92958e-05 -2.75384e-06 0.000233937
0.00116262 -6.08362e-06 9.90449e-07
-6.08362e-06 0.000172707 2.12405e-06
9.90449e-07 2.12405e-06 0.000124426
0.00105129 1.71346e-05 -4.36065e-08
1.71346e-05 6.43775e-05 2.15208e-06
-4.36065e-08 2.15208e-06 -2.29277e-05
0.000992413 -6.01399e-06 -3.60428e-07
-6.01399e-06 2.73801e-05 2.79847e-06
-3.60428e-07 2.79847e-06 -6.76788e-05
0.0011003 -7.75234e-07 2.87327e-07
-7.75234e-07 9.63893e-05 -9.82285e-09
2.87327e-07 -9.82285e-09 1.84188e-06
0.000959232 -3.08217e-05 1.00412e-06
-3.08217e-05 0.000100357 1.42778e-06
1.00412e-06 1.42778e-06 -3.16827e-05
-2.34745e-05 1.74756e-05 3.20906e-07
1.74756e-05 6.38734e-05 -3.18109e-06
3.20906e-07 -3.18109e-06 -0.000164448
0.000550215 1.69129e-05 -3.15024e-06
1.69129e-05 -7.30422e-05 3.90234e-07
-3.15024e-06 3.90234e-07 -0.000215283
0.00119769 3.63282e-05 -1.05901e-06
3.63282e-05 0.000463465 8.94552e-06
-1.05901e-06 8.94552e-06 0.000300772
0.00213442 -8.54243e-06 -1.4271e-05
-8.54243e-06 0.000937666 -1.19279e-06
-1.4271e-05 -1.19279e-06 0.000851388
0.00104053 -5.27199e-06 -1.93429e-06
-5.27199e-06 0.000193301 -3.86911e-07
-1.93429e-06 -3.86911e-07 6.92319e-05
0.000789474 -4.31458e-06 8.4655e-07
-4.31458e-06 1.55387e-05 3.16101e-07
8.4655e-07 3.16101e-07 -0.000111661
0.000339158 6.94592e-06 -4.29399e-06
6.94592e-06 0.000248354 1.66846e-05
-4.29399e-06 1.66846e-05 7.85158e-05
9.16299e-05 2.57551e-05 3.71616e-05
2.57551e-05 -0.000400528 -4.87852e-05
3.71616e-05 -4.87852e-05 -0.000739486
0.00120341 -1.23592e-05 3.31432e-06
-1.23592e-05 0.00026937 2.12847e-06
3.31432e-06 2.12847e-06 0.000149845
0.00755111 0.00017412 3.09777e-05
0.00017412 0.00179788 -1.36551e-05
3.09777e-05 -1.36551e-05 0.000953288
0.0032802 0.000323863 -2.91692e-05
0.000323863 0.000758945 1.79827e-05
-2.91692e-05 1.79827e-05 0.000755995
0.00154624 -8.66082e-06 1.57087e-05
-8.66082e-06 0.000512708 -8.98725e-06
1.57087e-05 -8.98725e-06 0.000441446
-0.000113072 0.000142151 -1.08061e-05
0.000142151 -0.000707682 1.10631e-05
-1.08061e-05 1.10631e-05 -0.000413225
-6.10303e-05 -2.23733e-05 -7.86765e-06
-2.23733e-05 6.62987e-05 1.01541e-07
-7.86765e-06 1.01541e-07 -0.000185446
0.00117642 -1.07958e-05 2.77737e-06
-1.07958e-05 0.000316136 -1.50418e-07
2.77737e-06 -1.50418e-07 0.000227268
-0.00109539 5.87458e-05 6.20889e-06
5.87458e-05 -0.00107057 -3.84438e-06
6.20889e-06 -3.84438e-06 -0.000992223
0.00190937 -0.000106468 8.07052e-06
-0.000106468 0.000409857 3.38378e-05
8.07052e-06 3.38378e-05 9.97152e-06
0.00303776 0.000278933 -1.4265e-06
0.000278933 0.000982481 -6.09259e-07
-1.4265e-06 -6.09259e-07 0.000938273
0.00583401 0.000116563 1.78727e-05
0.000116563 0.00143108 -1.18331e-05
1.78727e-05 -1.18331e-05 0.000363602
0.00151539 -5.61177e-05 9.29683e-06
-5.61177e-05 0.000316251 -1.43169e-06
9.29683e-06 -1.43169e-06 0.000274472
-0.000921147 8.99659e-06 -7.53813e-06
8.99659e-06 -0.000930419 1.73926e-07
-7.53813e-06 1.73926e-07 -0.000950122
0.00235703 0.000191574 4.26498e-05
0.000191574 0.000803448 -1.66147e-05
4.26498e-05 -1.66147e-05 0.000727169
0.00343463 0.000265781 -2.55094e-05
0.000265781 0.000654462 2.3817e-05
-2.55094e-05 2.3817e-05 -0.000162893
0.00141687 -7.03229e-05 7.3444e-06
-7.03229e-05 7.87807e-05 4.25492e-05
7.3444e-06 4.25492e-05 -0.000174998
0.000634567 -1.39633e-05 6.95148e-07
-1.39633e-05 0.0001174 2.86738e-06
6.95148e-07 2.86738e-06 -0.000163322
0.00093234 -8.34577e-05 2.46516e-07
-8.34577e-05 0.000201803 -1.07883e-06
2.46516e-07 -1.07883e-06 -7.81044e-05
0.0020981 -0.000146189 3.65174e-07
-0.000146189 0.000557035 4.09238e-06
3.65174e-07 4.09238e-06 0.000350872
0.0002709 -2.47419e-05 -1.06747e-06
-2.47419e-05 -0.000144185 1.97107e-06
-1.06747e-06 1.97107e-06 -0.000349805
0.000946323 -8.2519e-05 7.88131e-07
-8.2519e-05 8.53793e-05 1.33846e-07
7.88131e-07 1.33846e-07 -0.00010139
0.00131666 -0.000107702 -2.16081e-06
-0.000107702 0.000126171 1.52346e-06
-2.16081e-06 1.52346e-06 -1.25327e-05
0.00134692 -7.47302e-05 -1.37951e-06
-7.47302e-05 0.000243936 -2.37145e-07
-1.37951e-06 -2.37145e-07 9.09796e-05
0.00121422 -8.29348e-05 -9.69805e-07
-8.29348e-05 0.000124126 -1.02393e-06
-9.69805e-07 -1.02393e-06 -1.41193e-05
0.00159489 -9.03122e-05 -1.14662e-06
-9.03122e-05 0.000240018 1.07143e-07
-1.14662e-06 1.07143e-07 0.000135129
0.00136381 -7.62501e-05 -8.99774e-08
-7.62501e-05 0.000203985 -1.4717e-06
-8.99774e-08 -1.4717e-06 8.31221e-05
0.00127962 -7.46949e-05 4.45086e-07
-7.46949e-05 0.000135079 -6.98762e-07
4.45086e-07 -6.98762e-07 2.21302e-05
0.00138851 -7.14397e-05 -1.48018e-06
-7.14397e-05 0.000131308 -1.05654e-06
-1.48018e-06 -1.05654e-06 3.89481e-05
0.0013095 -6.40079e-05 -1.29686e-06
-6.40079e-05 7.9803e-05 -4.2951e-07
-1.29686e-06 -4.2951e-07 -3.06284e-06
0.00115684 -6.35999e-05 -1.31204e-06
-6.35999e-05 6.47348e-05 1.11679e-06
-1.31204e-06 1.11679e-06 -2.79585e-05
0.00123265 -6.74264e-05 2.47189e-07
-6.74264e-05 8.62412e-05 -7.32916e-07
2.47189e-07 -7.32916e-07 -1.13906e-05
0.00124044 -6.14062e-05 -8.74127e-07
-6.14062e-05 0.000142366 2.00258e-06
-8.74127e-07 2.00258e-06 5.96857e-05
0.00123142 -6.52266e-05 -2.70049e-07
-6.52266e-05 0.00012851 4.19232e-07
-2.70049e-07 4.19232e-07 3.49051e-05
0.0012587 -7.04265e-05 8.09534e-07
-7.04265e-05 0.000135684 -1.7914e-06
8.09534e-07 -1.7914e-06 2.99769e-05
0.0010269 -4.99672e-05 -4.25409e-07
-4.99672e-05 5.89119e-05 -2.0459e-07
-4.25409e-07 -2.0459e-07 -1.31117e-05
0.000903654 -5.10536e-05 -1.69175e-07
-5.10536e-05 -5.0922e-06 -6.60005e-07
-1.69175e-07 -6.60005e-07 -8.13656e-05
0.00113136 -5.89048e-05 2.05061e-06
-5.89048e-05 0.000103313 -2.24262e-06
2.05061e-06 -2.24262e-06 1.94726e-05
0.00097062 -1.47147e-05 -6.71278e-07
-1.47147e-05 4.06388e-05 9.09996e-07
-6.71278e-07 9.09996e-07 -2.4971e-05
0.00104074 -4.46455e-05 1.68859e-07
-4.46455e-05 7.43889e-05 2.74945e-07
1.68859e-07 2.74945e-07 7.8235e-07
0.00107959 -5.27828e-05 5.60534e-07
-5.27828e-05 9.14022e-05 1.21625e-07
5.60534e-07 1.21625e-07 1.46885e-05
0.00088814 2.39141e-05 -2.10153e-06
2.39141e-05 -4.21765e-06 2.07796e-06
-2.10153e-06 2.07796e-06 -4.89181e-05
0.000991679 -2.83893e-06 -8.4968e-08
-2.83893e-06 4.79938e-05 -5.99092e-09
-8.4968e-08 -5.99092e-09 -1.57127e-05
0.000981481 -3.69357e-05 1.41626e-07
-3.69357e-05 5.0882e-05 -2.74508e-07
1.41626e-07 -2.74508e-07 -2.1611e-05
0.00152215 2.52695e-05 -9.67972e-06
2.52695e-05 0.000313497 3.34068e-06
-9.67972e-06 3.34068e-06 0.000306169
0.00091659 8.21067e-06 6.26757e-08
8.21067e-06 3.64313e-06 -7.38e-09
6.26757e-08 -7.38e-09 -3.7883e-05
0.00101665 -1.11237e-05 9.89793e-07
-1.11237e-05 5.29016e-05 -1.00694e-06
9.89793e-07 -1.00694e-06 -8.34347e-06
0.00108721 1.98533e-05 -1.4287e-05
1.98533e-05 9.01596e-05 3.95143e-06
-1.4287e-05 3.95143e-06 0.000100447
0.0012001 2.15884e-05 -3.4131e-06
2.15884e-05 0.0001458 5.4534e-07
-3.4131e-06 5.4534e-07 0.000138376
0.000915355 1.35034e-05 1.72689e-06
1.35034e-05 9.58869e-07 -2.13784e-06
1.72689e-06 -2.13784e-06 -3.83792e-05
0.000868795 1.79901e-05 2.63192e-06
1.79901e-05 -2.67069e-05 -3.47618e-06
2.63192e-06 -3.47618e-06 -3.38264e-05
0.0024146 2.6955e-05 5.01107e-07
2.6955e-05 0.000757905 4.72106e-08
5.01107e-07 4.72106e-08 0.00077609
0.00236599 2.32781e-05 1.45165e-05
2.32781e-05 0.000728651 -3.97502e-06
1.45165e-05 -3.97502e-06 0.000748057
0.001008 3.00676e-05 -1.05463e-06
3.00676e-05 4.78002e-05 -1.23232e-06
-1.05463e-06 -1.23232e-06 -2.62762e-05
0.00100509 4.4463e-06 -7.66141e-07
4.4463e-06 4.09557e-05 -1.74281e-06
-7.66141e-07 -1.74281e-06 -1.95746e-05
0.00103607 2.60517e-05 -1.13959e-07
2.60517e-05 5.96242e-05 4.16453e-08
-1.13959e-07 4.16453e-08 -1.21816e-05
0.000913412 -1.62858e-05 -1.13666e-06
-1.62858e-05 -5.34965e-06 -2.36322e-06
-1.13666e-06 -2.36322e-06 -4.18503e-05
0.000998059 6.36685e-06 1.3594e-07
6.36685e-06 3.61819e-05 -5.89941e-08
1.3594e-07 -5.89941e-08 -2.09586e-05
0.000879424 -1.58523e-05 -2.09758e-06
-1.58523e-05 -2.72213e-05 -3.47452e-06
-2.09758e-06 -3.47452e-06 -3.27944e-05
0.000929014 -1.16831e-05 -2.35969e-07
-1.16831e-05 1.9462e-07 -3.23682e-09
-2.35969e-07 -3.23682e-09 -3.39806e-05
0.000998674 1.27576e-05 5.99289e-07
1.27576e-05 3.83824e-05 1.54993e-06
5.99289e-07 1.54993e-06 -1.60829e-05
0.00234577 -1.96532e-05 -1.25602e-05
-1.96532e-05 0.000712584 -4.0785e-06
-1.25602e-05 -4.0785e-06 0.00073316
0.000873107 -1.37351e-05 -1.3491e-07
-1.37351e-05 -3.42852e-05 -1.25776e-08
-1.3491e-07 -1.25776e-08 -3.79682e-05
0.000945104 -1.02208e-05 6.85085e-07
-1.02208e-05 6.3655e-06 1.98934e-06
6.85085e-07 1.98934e-06 -2.56127e-05
0.00228972 -1.57619e-05 -7.901e-07
-1.57619e-05 0.000679602 3.50983e-08
-7.901e-07 3.50983e-08 0.000701574
0.000866593 -1.12762e-05 1.06135e-06
-1.12762e-05 -4.14594e-05 3.34625e-06
1.06135e-06 3.34625e-06 -4.30983e-05
0.00223583 -1.16063e-05 7.25714e-06
-1.16063e-05 0.000648455 3.97649e-06
7.25714e-06 3.97649e-06 0.000671693
0.000528751 -1.46102e-07 -1.15555e-05
-1.46102e-07 -4.14779e-05 -5.64912e-06
-1.15555e-05 -5.64912e-06 -0.000135344
0.000878582 6.59415e-06 7.60926e-07
6.59415e-06 6.43017e-05 7.4389e-08
7.60926e-07 7.4389e-08 -5.29148e-05
0.00069324 8.79054e-07 -2.05864e-07
8.79054e-07 -8.53582e-05 -1.13592e-06
-2.05864e-07 -1.13592e-06 -0.000196807
0.00104427 4.58371e-05 -9.60454e-07
4.58371e-05 6.743e-05 -1.77227e-07
-9.60454e-07 -1.77227e-07 -1.08742e-05
0.00104053 2.08624e-05 3.28384e-07
2.08624e-05 6.13435e-05 1.22689e-06
3.28384e-07 1.22689e-06 -8.1488e-06
0.00101852 3.16432e-05 5.61387e-07
3.16432e-05 5.17822e-05 1.3449e-06
5.61387e-07 1.3449e-06 -2.65609e-05
0.00106226 2.64509e-05 1.40851e-08
2.64509e-05 7.41479e-05 -2.4575e-07
1.40851e-08 -2.4575e-07 -2.59738e-06
0.00107848 4.36091e-05 -2.07902e-07
4.36091e-05 8.59604e-05 -7.0997e-08
-2.07902e-07 -7.0997e-08 6.48439e-06
0.00106652 4.29692e-05 2.05569e-07
4.29692e-05 7.9562e-05 3.45349e-07
2.05569e-07 3.45349e-07 -2.56546e-06
0.00106694 4.90249e-05 -1.27054e-06
4.90249e-05 8.03621e-05 -1.29756e-06
-1.27054e-06 -1.29756e-06 -3.33473e-06
0.000967117 4.08216e-05 -5.66059e-07
4.08216e-05 3.25097e-05 -1.32831e-06
-5.66059e-07 -1.32831e-06 -5.10721e-05
0.00104518 4.36624e-05 5.83807e-07
4.36624e-05 6.93148e-05 8.11191e-07
5.83807e-07 8.11191e-07 -7.53569e-06
0.00103081 1.08408e-05 3.94726e-07
1.08408e-05 5.84776e-05 1.13057e-06
3.94726e-07 1.13057e-06 -2.08067e-05
0.00108966 3.48249e-05 -1.01995e-07
3.48249e-05 9.35787e-05 -1.10429e-08
-1.01995e-07 -1.10429e-08 1.10751e-05
0.00150227 4.07075e-05 7.85503e-07
4.07075e-05 0.000293779 -1.64357e-06
7.85503e-07 -1.64357e-06 0.000208323
0.00235036 -5.99226e-05 1.23652e-06
-5.99226e-05 0.000942193 -1.28752e-07
1.23652e-06 -1.28752e-07 0.00104671
0.000661317 6.14978e-06 3.56344e-07
6.14978e-06 3.01998e-06 7.39228e-07
3.56344e-07 7.39228e-07 -6.57517e-05
0.000984273 2.99787e-05 3.96211e-06
2.99787e-05 0.000134389 4.87904e-07
3.96211e-06 4.87904e-07 4.09977e-05
0.00168951 -6.6171e-05 6.7944e-06
-6.6171e-05 0.0002037 2.0536e-06
6.7944e-06 2.0536e-06 0.000458144
0.00314911 -0.000199414 2.89222e-06
-0.000199414 0.000153351 -9.18143e-05
2.89222e-06 -9.18143e-05 0.00022897
0.00316749 5.01712e-05 -1.60119e-05
5.01712e-05 -0.000469162 0.00010385
-1.60119e-05 0.00010385 -0.000790325
0.000641242 -0.000174031 -5.83635e-05
-0.000174031 -7.35668e-05 6.16493e-05
-5.83635e-05 6.16493e-05 -0.000307714
0.00183719 -4.70252e-05 -1.05764e-05
-4.70252e-05 0.000636499 4.84334e-07
-1.05764e-05 4.84334e-07 0.000393676
0.000471331 -0.000120493 1.38854e-06
-0.000120493 -0.000375692 2.04394e-07
1.38854e-06 2.04394e-07 -6.71646e-05
0.00535557 -8.93208e-05 1.09643e-05
-8.93208e-05 0.000697844 5.36196e-05
1.09643e-05 5.36196e-05 -3.42147e-05
-0.000512049 -0.000174749 -6.18315e-06
-0.000174749 -0.000799336 -1.33668e-05
-6.18315e-06 -1.33668e-05 -0.000658281
0.00207319 0.00011422 -5.61614e-05
0.00011422 0.000584565 -4.8445e-05
-5.61614e-05 -4.8445e-05 0.000357437
0.00642799 -0.00021771 5.35501e-06
-0.00021771 0.00176642 3.46203e-05
5.35501e-06 3.46203e-05 0.0010726
6.02115e-05 -0.000151189 3.7649e-05
-0.000151189 -6.8189e-05 2.00753e-05
3.7649e-05 2.00753e-05 1.28804e-05
0.000899485 6.3849e-05 -3.24307e-06
6.3849e-05 2.84159e-05 -4.58142e-06
-3.24307e-06 -4.58142e-06 -4.76472e-05
0.00117833 3.20675e-05 2.07066e-06
3.20675e-05 0.000135306 2.24419e-07
2.07066e-06 2.24419e-07 5.64807e-05
0.00111378 2.13811e-05 -2.71625e-07
2.13811e-05 0.00010275 1.09214e-06
-2.71625e-07 1.09214e-06 1.81504e-05
-0.000880065 9.12484e-06 -1.90039e-06
9.12484e-06 -0.000372265 -1.08708e-05
-1.90039e-06 -1.08708e-05 -0.000608658
0.000505604 -2.02612e-05 -5.55653e-08
-2.02612e-05 -0.000108054 3.47154e-06
-5.55653e-08 3.47154e-06 -0.00025085
0.000964013 9.94864e-06 2.47968e-06
9.94864e-06 3.39207e-05 3.68453e-06
2.47968e-06 3.68453e-06 -6.06111e-05
0.00108946 3.44414e-05 -3.89304e-08
3.44414e-05 0.000177731 1.69928e-07
-3.89304e-08 1.69928e-07 3.88329e-05
0.000756447 1.83721e-05 2.28518e-06
1.83721e-05 0.000255274 1.26139e-06
2.28518e-06 1.26139e-06 9.72493e-05
-0.00118702 5.41968e-05 -4.9075e-06
5.41968e-05 -0.000778557 1.82893e-05
-4.9075e-06 1.82893e-05 -0.000942628
0.00268306 -1.48255e-05 -1.14202e-05
-1.48255e-05 0.00119483 -1.76755e-07
-1.14202e-05 -1.76755e-07 0.00121298
0.000921541 -6.59161e-06 -1.10546e-06
-6.59161e-06 0.000193031 -8.82377e-07
-1.10546e-06 -8.82377e-07 9.53143e-05
0.000614909 -5.5352e-06 2.8466e-06
-5.5352e-06 -7.2919e-05 1.38643e-07
2.8466e-06 1.38643e-07 -0.000199799
6.25428e-06 -2.93589e-05 1.08774e-05
-2.93589e-05 9.96331e-05 1.71693e-05
1.08774e-05 1.71693e-05 -0.000151583
0.0013092 -9.2488e-05 -2.77724e-06
-9.2488e-05 0.000192576 -4.4317e-05
-2.77724e-06 -4.4317e-05 -0.000104752
0.00109153 -1.14069e-05 1.7697e-05
-1.14069e-05 0.000258852 -5.72949e-07
1.7697e-05 -5.72949e-07 0.000171281
0.0012571 0.000145177 -3.79464e-05
0.000145177 -0.000328864 3.22225e-05
-3.79464e-05 3.22225e-05 -0.0012756
-0.000939115 0.000187871 -5.30498e-05
0.000187871 -0.00071965 2.90347e-05
-5.30498e-05 2.90347e-05 -0.000722347
0.00118005 7.4703e-05 9.98855e-07
7.4703e-05 0.000225685 -6.84164e-07
9.98855e-07 -6.84164e-07 0.000351825
0.00157301 -6.78881e-05 2.64515e-06
-6.78881e-05 0.000384272 1.81532e-06
2.64515e-06 1.81532e-06 0.000311107
0.0011768 1.74535e-05 -2.35847e-06
1.74535e-05 0.0002645 2.3316e-07
-2.35847e-06 2.3316e-07 0.000276948
-0.00175156 0.00010428 -7.50527e-06
0.00010428 -0.000942815 3.34937e-06
-7.50527e-06 3.34937e-06 -0.00096047
0.00318382 -0.000133189 -1.35835e-05
-0.000133189 0.000699368 2.29308e-05
-1.35835e-05 2.29308e-05 0.000233515
0.00486059 0.000239779 -6.9664e-06
0.000239779 0.00126534 4.12862e-06
-6.9664e-06 4.12862e-06 0.000496273
0.00112201 -9.04572e-05 7.4842e-06
-9.04572e-05 -0.000163597 5.94369e-06
7.4842e-06 5.94369e-06 -0.000101607
-0.00256974 4.42415e-05 5.78385e-05
4.42415e-05 -0.00163817 -1.40865e-05
5.78385e-05 -1.40865e-05 -0.00164667
0.00472663 0.000229013 1.42474e-05
0.000229013 0.00137456 -7.12727e-06
1.42474e-05 -7.12727e-06 0.000757912
0.00246426 1.39114e-05 -7.25427e-06
1.39114e-05 0.000382776 2.94293e-05
-7.25427e-06 2.94293e-05 2.04148e-05
0.000555022 -7.42363e-05 -1.45197e-06
-7.42363e-05 4.70075e-05 -1.5613e-06
-1.45197e-06 -1.5613e-06 -0.00026359
0.0010888 -0.000122226 7.4105e-08
-0.000122226 9.48943e-05 9.3797e-07
7.4105e-08 9.3797e-07 -0.000117966
0.00156913 -0.000153565 -4.62241e-06
-0.000153565 0.000140923 4.77628e-06
-4.62241e-06 4.77628e-06 8.28398e-06
0.000611108 -7.37599e-05 -1.39288e-06
-7.37599e-05 -6.94482e-05 -2.09781e-06
-1.39288e-06 -2.09781e-06 -0.000260157
0.0012461 -0.000105807 -1.70787e-06
-0.000105807 8.63656e-05 -1.56854e-06
-1.70787e-06 -1.56854e-06 -5.09122e-05
0.00200334 -0.000108597 -5.37717e-06
-0.000108597 0.000330576 -1.60617e-07
-5.37717e-06 -1.60617e-07 0.000249456
0.00112628 -7.99049e-05 -2.38125e-07
-7.99049e-05 7.82547e-05 -2.87241e-06
-2.38125e-07 -2.87241e-06 -5.5584e-05
0.00131067 -8.29666e-05 1.08062e-06
-8.29666e-05 0.000102409 -6.64209e-07
1.08062e-06 -6.64209e-07 -8.03598e-07
0.0016028 -7.4488e-05 -1.66906e-06
-7.4488e-05 0.00016895 -1.55141e-06
-1.66906e-06 -1.55141e-06 0.000100991
0.00111165 -6.99496e-05 7.5615e-07
-6.99496e-05 4.87244e-05 -1.35229e-06
7.5615e-07 -1.35229e-06 -6.24558e-05
0.00125053 -6.77552e-05 -2.31478e-07
-6.77552e-05 5.89318e-05 -5.41745e-07
-2.31478e-07 -5.41745e-07 -3.20384e-05
0.00139426 -6.12148e-05 -1.15057e-06
-6.12148e-05 7.43839e-05 -1.25936e-06
-1.15057e-06 -1.25936e-06 9.69774e-06
0.00137907 -5.73971e-05 -1.27016e-06
-5.73971e-05 8.63446e-05 -7.02385e-07
-1.27016e-06 -7.02385e-07 2.16254e-05
0.00130929 -6.35098e-05 -1.60902e-06
-6.35098e-05 9.92858e-05 7.79943e-08
-1.60902e-06 7.79943e-08 1.62562e-05
0.00128829 -6.20956e-05 4.90508e-07
-6.20956e-05 6.91835e-05 2.82463e-07
4.90508e-07 2.82463e-07 -1.21417e-05
0.00088734 -5.42848e-05 -1.29327e-06
-5.42848e-05 -5.48726e-05 1.49062e-06
-1.29327e-06 1.49062e-06 -0.000139545
0.00125384 -6.52265e-05 6.9289e-07
-6.52265e-05 0.000112774 -5.9245e-07
6.9289e-07 -5.9245e-07 2.11783e-05
0.00114318 -6.47994e-05 1.48105e-06
-6.47994e-05 4.02811e-05 -1.38192e-06
1.48105e-06 -1.38192e-06 -5.63194e-05
0.00106151 -5.37128e-05 -3.52193e-07
-5.37128e-05 6.81446e-05 9.7947e-07
-3.52193e-07 9.7947e-07 -5.90549e-06
0.00104188 -5.67551e-05 2.39163e-07
-5.67551e-05 4.78702e-05 -1.4061e-07
2.39163e-07 -1.4061e-07 -3.49765e-05
0.000972574 -5.96016e-05 8.78059e-07
-5.96016e-05 3.0515e-06 -1.96448e-06
8.78059e-07 -1.96448e-06 -9.22311e-05
0.00100402 -3.21895e-05 -1.20828e-06
-3.21895e-05 5.39997e-05 3.73874e-07
-1.20828e-06 3.73874e-07 -1.16743e-05
0.00106477 -5.04212e-05 -1.79976e-07
-5.04212e-05 7.66396e-05 -2.58983e-07
-1.79976e-07 -2.58983e-07 4.57727e-06
0.000997085 -5.30426e-05 8.55562e-08
-5.30426e-05 4.17381e-05 -1.33317e-06
8.55562e-08 -1.33317e-06 -3.36753e-05
0.000914641 6.05439e-06 -2.30856e-06
6.05439e-06 1.66341e-05 2.01208e-06
-2.30856e-06 2.01208e-06 -3.13902e-05
0.00100005 -1.62074e-05 3.0036e-07
-1.62074e-05 5.42198e-05 2.00525e-07
3.0036e-07 2.00525e-07 -1.12504e-05
0.000967057 -4.185e-05 6.98346e-07
-4.185e-05 3.9047e-05 1.55024e-07
6.98346e-07 1.55024e-07 -3.43682e-05
0.000804664 2.41065e-05 -4.01362e-06
2.41065e-05 -4.35009e-05 3.46436e-06
-4.01362e-06 3.46436e-06 -5.61739e-05
0.00091253 7.65487e-06 -1.62109e-07
7.65487e-06 6.89001e-06 -3.57381e-08
-1.62109e-07 -3.57381e-08 -3.73759e-05
0.00103323 -4.97207e-06 7.5932e-07
-4.97207e-06 6.79976e-05 -1.09093e-06
7.5932e-07 -1.09093e-06 4.25314e-06
0.00246977 3.74613e-05 -7.25501e-06
3.74613e-05 0.000797599 1.60288e-06
-7.25501e-06 1.60288e-06 0.000812702
0.000819825 2.17257e-05 1.4122e-07
2.17257e-05 -4.17019e-05 4.21852e-08
1.4122e-07 4.21852e-08 -5.27245e-05
0.000923421 9.01989e-06 2.39378e-06
9.01989e-06 7.22784e-06 -2.07865e-06
2.39378e-06 -2.07865e-06 -3.44179e-05
0.00247861 3.05514e-05 4.05895e-07
3.05514e-05 0.000795177 5.04405e-08
4.05895e-07 5.04405e-08 0.00081197
0.000852913 2.00204e-05 3.23567e-06
2.00204e-05 -2.97581e-05 -3.52116e-06
3.23567e-06 -3.52116e-06 -3.90133e-05
0.00241731 2.68982e-05 1.64115e-05
2.68982e-05 0.000759839 -3.99415e-06
1.64115e-05 -3.99415e-06 0.000777859
0.00110525 3.96168e-05 -7.50573e-07
3.96168e-05 9.73392e-05 -2.27979e-07
-7.50573e-07 -2.27979e-07 2.36279e-05
0.00103455 3.14389e-05 -1.91347e-07
3.14389e-05 6.18197e-05 -1.71655e-07
-1.91347e-07 -1.71655e-07 -1.22644e-05
0.00101049 2.47391e-06 -1.03434e-06
2.47391e-06 4.73874e-05 -1.57306e-06
-1.03434e-06 -1.57306e-06 -1.64698e-05
0.000911409 -1.24334e-05 -1.65587e-06
-1.24334e-05 -3.36207e-06 -2.53303e-06
-1.65587e-06 -2.53303e-06 -4.26222e-05
0.00100217 3.0904e-06 -1.10715e-10
3.0904e-06 3.99696e-05 4.62402e-09
-1.10715e-10 4.62402e-09 -2.05829e-05
0.00101542 2.72918e-05 6.37257e-07
2.72918e-05 4.9574e-05 1.30997e-06
6.37257e-07 1.30997e-06 -2.29365e-05
0.00086811 -1.7769e-05 -2.62335e-06
-1.7769e-05 -2.89724e-05 -3.56185e-06
-2.62335e-06 -3.56185e-06 -3.61943e-05
0.000920519 -1.26561e-05 -1.12162e-07
-1.26561e-05 -2.38948e-06 -2.37929e-08
-1.12162e-07 -2.37929e-08 -3.86717e-05
0.000996154 3.16834e-06 5.45696e-07
3.16834e-06 3.51584e-05 1.67888e-06
5.45696e-07 1.67888e-06 -2.17933e-05
0.00238994 -2.33276e-05 -1.45949e-05
-2.33276e-05 0.000739472 -4.06471e-06
-1.45949e-05 -4.06471e-06 0.000758832
0.000863169 -1.57463e-05 -1.2659e-07
-1.57463e-05 -3.52204e-05 -1.02978e-08
-1.2659e-07 -1.02978e-08 -4.07124e-05
0.00093375 -1.13733e-05 8.31139e-07
-1.13733e-05 2.40146e-06 2.09426e-06
8.31139e-07 2.09426e-06 -3.16645e-05
0.00234453 -1.96645e-05 -7.56055e-07
-1.96645e-05 0.000711444 4.34067e-08
-7.56055e-07 4.34067e-08 0.000732172
0.000855286 -1.36463e-05 1.37407e-06
-1.36463e-05 -4.31063e-05 3.43189e-06
1.37407e-06 3.43189e-06 -4.66944e-05
0.00228578 -1.56659e-05 9.40038e-06
-1.56659e-05 0.000677141 3.99467e-06
9.40038e-06 3.99467e-06 0.000699283
0.000419385 -1.90192e-05 -1.70854e-06
-1.90192e-05 -8.78925e-05 -1.85646e-07
-1.70854e-06 -1.85646e-07 -8.45503e-05
0.000554628 2.51143e-06 -1.58244e-06
2.51143e-06 -2.22287e-05 -1.6192e-06
-1.58244e-06 -1.6192e-06 -0.000116076
0.000830807 4.68415e-06 3.88958e-06
4.68415e-06 3.35644e-05 -1.03781e-06
3.88958e-06 -1.03781e-06 -8.37967e-05
0.00103789 4.51684e-05 9.03962e-08
4.51684e-05 6.40924e-05 1.3531e-07
9.03962e-08 1.3531e-07 -1.45461e-05
0.00119903 5.22483e-05 -9.68022e-07
5.22483e-05 0.00014906 1.01833e-07
-9.68022e-07 1.01833e-07 7.27351e-05
0.00106702 5.15559e-05 -9.92104e-07
5.15559e-05 7.61508e-05 -3.93329e-07
-9.92104e-07 -3.93329e-07 -4.6256e-06
0.00114704 2.53072e-05 7.71508e-08
2.53072e-05 0.000117172 6.63536e-07
7.71508e-08 6.63536e-07 4.11383e-05
0.00115246 4.73009e-05 6.91566e-07
4.73009e-05 0.000123415 8.5635e-07
6.91566e-07 8.5635e-07 4.40968e-05
0.00100746 3.83691e-05 6.44495e-07
3.83691e-05 4.80182e-05 1.47029e-06
6.44495e-07 1.47029e-06 -3.35162e-05
0.00102549 3.87638e-05 -8.43207e-08
3.87638e-05 6.05992e-05 3.68711e-08
-8.43207e-08 3.68711e-08 -2.25323e-05
0.00109177 4.85982e-05 1.11397e-07
4.85982e-05 9.22171e-05 9.50512e-08
1.11397e-07 9.50512e-08 8.83989e-06
0.00108707 4.81165e-05 -1.60374e-06
4.81165e-05 0.000100435 -1.56001e-06
-1.60374e-06 -1.56001e-06 1.27299e-05
0.000921503 4.05658e-05 -2.04178e-06
4.05658e-05 1.26582e-05 -2.95885e-06
-2.04178e-06 -2.95885e-06 -7.36117e-05
0.00108999 3.96477e-05 2.53349e-07
3.96477e-05 9.4622e-05 6.80692e-07
2.53349e-07 6.80692e-07 1.17491e-05
0.00124973 4.129e-05 2.11355e-07
4.129e-05 0.000174106 -1.18508e-07
2.11355e-07 -1.18508e-07 8.84862e-05
-0.00265557 -8.70323e-05 4.7544e-05
-8.70323e-05 -0.00148352 1.91076e-05
4.7544e-05 1.91076e-05 -0.00152007
0.00122318 -5.96077e-05 -9.21171e-07
-5.96077e-05 0.000298424 -1.55973e-06
-9.21171e-07 -1.55973e-06 0.000392417
0.000639654 1.08324e-05 1.42507e-05
1.08324e-05 -1.15962e-05 5.65151e-06
1.42507e-05 5.65151e-06 -7.98131e-05
-8.50348e-05 -0.000116997 1.02902e-06
-0.000116997 -0.000600003 -4.99793e-06
1.02902e-06 -4.99793e-06 -0.000349187
0.00355431 -0.000265916 -1.18431e-05
-0.000265916 0.000845329 -5.54192e-05
-1.18431e-05 -5.54192e-05 0.000991446
0.00459995 -7.32517e-05 3.55432e-05
-7.32517e-05 0.000635737 3.05277e-05
3.55432e-05 3.05277e-05 0.000125671
0.000221892 -2.92388e-05 -2.12747e-05
-2.92388e-05 -0.000210331 6.30424e-05
-2.12747e-05 6.30424e-05 -0.00074977
0.0017135 0.000110975 -3.25406e-05
0.000110975 0.000208769 -3.1606e-05
-3.25406e-05 -3.1606e-05 -0.000218111
0.00226992 -0.000225783 -8.61332e-07
-0.000225783 0.00057595 -3.17192e-06
-8.61332e-07 -3.17192e-06 0.000601796
0.00339151 -9.65407e-05 3.34408e-05
-9.65407e-05 0.000267736 4.51911e-05
3.34408e-05 4.51911e-05 -0.000442883
0.00134401 0.000123028 -6.77437e-05
0.000123028 -0.000107743 -8.28139e-05
-6.77437e-05 -8.28139e-05 -0.000499341
0.00286517 -2.27865e-05 -2.35656e-05
-2.27865e-05 0.000337734 -1.00796e-05
-2.35656e-05 -1.00796e-05 -0.000372178
0.00199368 0.00012363 5.76249e-06
0.00012363 0.000571139 -8.05859e-06
5.76249e-06 -8.05859e-06 0.000427228
0.00092083 6.20166e-05 -2.98361e-07
6.20166e-05 2.68627e-05 -5.88042e-07
-2.98361e-07 -5.88042e-07 -4.65448e-05
0.00132899 3.72739e-05 1.58505e-06
3.72739e-05 0.000202881 1.69683e-06
1.58505e-06 1.69683e-06 0.00012436
-0.000195817 -1.05464e-05 -9.46996e-06
-1.05464e-05 -0.00017798 -3.4815e-06
-9.46996e-06 -3.4815e-06 -0.000337276
0.00158757 5.00184e-05 3.23169e-06
5.00184e-05 0.000408269 -2.66123e-07
3.23169e-06 -2.66123e-07 0.000271619
0.000990368 0.000101251 5.55662e-06
0.000101251 0.000195911 2.21489e-06
5.55662e-06 2.21489e-06 6.29719e-05
0.00020444 0.00010272 1.97273e-05
0.00010272 -0.000309168 2.13642e-05
1.97273e-05 2.13642e-05 -0.00042658
-0.000604977 -1.43836e-05 7.67956e-05
-1.43836e-05 -0.00061102 -4.61878e-06
7.67956e-05 -4.61878e-06 -0.000581448
0.000762654 -1.07426e-05 -1.19112e-05
-1.07426e-05 7.17543e-05 1.29376e-07
-1.19112e-05 1.29376e-07 6.73178e-05
-0.000411185 -4.82177e-06 1.63591e-05
-4.82177e-06 -0.000626325 -8.34383e-07
1.63591e-05 -8.34383e-07 -0.00073548
0.00163236 -6.40596e-05 -2.35258e-05
-6.40596e-05 0.000489766 2.5608e-06
-2.35258e-05 2.5608e-06 0.000346889
0.0010902 -9.40537e-05 -4.0386e-05
-9.40537e-05 -2.4218e-05 -3.02989e-06
-4.0386e-05 -3.02989e-06 -0.000309983
0.00115257 7.90012e-06 3.49352e-07
7.90012e-06 0.000250604 -3.14904e-06
3.49352e-07 -3.14904e-06 0.000253953
0.00221161 0.000210908 1.39231e-05
0.000210908 0.000168256 -3.06299e-05
1.39231e-05 -3.06299e-05 -0.000674653
0.00400071 0.000153474 -9.43658e-05
0.000153474 0.00172656 2.16226e-05
-9.43658e-05 2.16226e-05 0.00163063
0.00146575 -0.000100816 8.75568e-06
-0.000100816 7.66859e-05 -1.78636e-06
8.75568e-06 -1.78636e-06 8.40593e-05
-0.000112019 7.18854e-05 -3.09053e-05
7.18854e-05 -0.000343029 3.76556e-06
-3.09053e-05 3.76556e-06 -0.000416048
0.00312278 0.000141208 -8.72747e-06
0.000141208 0.000649273 5.43757e-06
-8.72747e-06 5.43757e-06 -0.000130247
0.000824707 3.14848e-05 -1.01556e-06
3.14848e-05 -0.000192313 3.78912e-06
-1.01556e-06 3.78912e-06 -0.000325544
0.000762894 -7.22984e-05 4.57889e-06
-7.22984e-05 -0.000392787 5.90768e-06
4.57889e-06 5.90768e-06 -0.000328907
0.00454339 9.56893e-05 1.79974e-05
9.56893e-05 0.00129666 9.37723e-06
1.79974e-05 9.37723e-06 0.000654989
0.00114449 7.04664e-05 -2.14251e-06
7.04664e-05 0.000240659 -1.16775e-06
-2.14251e-06 -1.16775e-06 -2.9997e-05
-0.00017105 -9.50116e-05 9.37023e-07
-9.50116e-05 -0.000483421 -8.24014e-06
9.37023e-07 -8.24014e-06 -0.000707578
0.00145268 -0.000148182 3.80918e-08
-0.000148182 0.00010274 -3.7603e-07
3.80918e-08 -3.7603e-07 -3.36394e-05
0.00154208 -0.000135319 -1.84687e-05
-0.000135319 -5.36422e-05 7.60974e-06
-1.84687e-05 7.60974e-06 -0.0001169
0.00120791 -0.000104431 -8.9784e-07
-0.000104431 6.09974e-05 -4.24865e-06
-8.9784e-07 -4.24865e-06 -7.41578e-05
0.00144372 -9.84062e-05 -7.06798e-07
-9.84062e-05 5.6246e-05 4.22359e-07
-7.06798e-07 4.22359e-07 -2.21322e-05
0.00193838 -7.95986e-05 -4.85435e-06
-7.95986e-05 0.000225312 2.98943e-06
-4.85435e-06 2.98943e-06 0.000196257
0.000981462 -7.45092e-05 2.53086e-06
-7.45092e-05 -5.72938e-05 -7.50972e-07
2.53086e-06 -7.50972e-07 -0.0001588
0.00136327 -6.99932e-05 -3.31074e-07
-6.99932e-05 4.64183e-05 -2.43698e-07
-3.31074e-07 -2.43698e-07 -2.00976e-05
0.00153509 -5.93054e-05 -9.84063e-07
-5.93054e-05 6.90838e-05 3.63096e-07
-9.84063e-07 3.63096e-07 3.15403e-05
0.00109456 -6.38424e-05 1.59563e-06
-6.38424e-05 -2.19629e-05 -3.76014e-07
1.59563e-06 -3.76014e-07 -0.000111539
0.00130903 -5.95854e-05 1.97274e-07
-5.95854e-05 3.04679e-05 2.87571e-07
1.97274e-07 2.87571e-07 -3.37051e-05
0.00131908 -5.245e-05 -6.11002e-07
-5.245e-05 1.15527e-05 2.36679e-07
-6.11002e-07 2.36679e-07 -3.6426e-05
0.00154997 -5.26415e-05 -6.90533e-07
-5.26415e-05 0.000156744 1.91356e-07
-6.90533e-07 1.91356e-07 0.000101544
0.00135933 -5.58594e-05 -5.86472e-07
-5.58594e-05 7.61827e-05 1.18203e-06
-5.86472e-07 1.18203e-06 1.31983e-05
0.00132354 -5.65022e-05 -7.77926e-07
-5.65022e-05 7.9412e-05 -1.41158e-06
-7.77926e-07 -1.41158e-06 1.06583e-05
0.00127816 -5.99296e-05 -1.48505e-06
-5.99296e-05 9.80963e-05 5.49145e-07
-1.48505e-06 5.49145e-07 1.85853e-05
0.00135028 -6.38335e-05 6.01838e-07
-6.38335e-05 0.000120736 -1.72329e-07
6.01838e-07 -1.72329e-07 3.77507e-05
0.00124927 -5.99763e-05 2.03742e-06
-5.99763e-05 4.96195e-05 1.0065e-06
2.03742e-06 1.0065e-06 -3.01102e-05
0.000895634 -5.13825e-05 -1.44266e-06
-5.13825e-05 -3.7659e-05 1.84124e-06
-1.44266e-06 1.84124e-06 -0.000115029
0.00110238 -5.865e-05 9.9544e-08
-5.865e-05 5.21103e-05 -7.1729e-08
9.9544e-08 -7.1729e-08 -3.17581e-05
0.00134057 -6.66061e-05 2.16212e-06
-6.66061e-05 0.0001557 -2.10054e-06
2.16212e-06 -2.10054e-06 6.52292e-05
0.00100701 -3.8934e-05 -9.26125e-07
-3.8934e-05 5.00213e-05 6.20337e-07
-9.26125e-07 6.20337e-07 -1.661e-05
0.00108928 -5.39164e-05 7.02841e-08
-5.39164e-05 8.09213e-05 -1.27405e-07
7.02841e-08 -1.27405e-07 6.79119e-06
0.000863439 -5.25975e-05 5.4612e-07
-5.25975e-05 -3.71606e-05 -2.1987e-06
5.4612e-07 -2.1987e-06 -0.000120159
0.000907862 2.75561e-07 -2.53766e-06
2.75561e-07 1.87145e-05 1.80751e-06
-2.53766e-06 1.80751e-06 -3.26403e-05
0.00102657 -3.34012e-05 -7.48174e-08
-3.34012e-05 6.40231e-05 1.38916e-08
-7.48174e-08 1.38916e-08 -1.54484e-06
0.00109859 -5.07271e-05 5.01754e-07
-5.07271e-05 9.24192e-05 -5.60351e-07
5.01754e-07 -5.60351e-07 2.03239e-05
0.000775909 2.71529e-05 -4.14655e-06
2.71529e-05 -4.85403e-05 3.43716e-06
-4.14655e-06 3.43716e-06 -6.39324e-05
0.000914995 9.35046e-06 -1.20148e-09
9.35046e-06 1.57319e-05 1.67852e-08
-1.20148e-09 1.67852e-08 -3.2374e-05
0.00103281 -1.80975e-05 1.26319e-06
-1.80975e-05 6.94412e-05 -5.18212e-07
1.26319e-06 -5.18212e-07 4.09695e-06
0.00255901 3.81056e-05 -1.97908e-05
3.81056e-05 0.000847152 3.72655e-06
-1.97908e-05 3.72655e-06 0.000861211
0.000819307 2.46243e-05 -3.21574e-09
2.46243e-05 -3.55907e-05 1.32744e-08
-3.21574e-09 1.32744e-08 -4.84812e-05
0.000935063 1.69462e-06 2.47324e-06
1.69462e-06 1.77082e-05 -2.06305e-06
2.47324e-06 -2.06305e-06 -2.65727e-05
0.00178285 3.02829e-05 7.46896e-06
3.02829e-05 0.000449207 -1.0472e-06
7.46896e-06 -1.0472e-06 0.000461114
0.000840556 2.21846e-05 3.81249e-06
2.21846e-05 -3.12e-05 -3.4972e-06
3.81249e-06 -3.4972e-06 -4.23113e-05
0.00247016 3.05765e-05 1.79964e-05
3.05765e-05 0.000791894 -3.9586e-06
1.79964e-05 -3.9586e-06 0.000808466
0.00110191 3.92975e-05 -6.5714e-07
3.92975e-05 9.87124e-05 2.50346e-07
-6.5714e-07 2.50346e-07 2.6384e-05
0.00103865 3.63253e-05 2.07978e-07
3.63253e-05 6.33956e-05 3.73212e-07
2.07978e-07 3.73212e-07 -1.06433e-05
0.000998263 -2.8043e-08 -1.27367e-06
-2.8043e-08 4.26266e-05 -1.1127e-06
-1.27367e-06 -1.1127e-06 -2.30712e-05
0.00106188 3.39901e-05 6.42143e-07
3.39901e-05 7.63001e-05 9.10684e-07
6.42143e-07 9.10684e-07 2.07487e-06
0.00100441 1.68883e-06 -3.2469e-08
1.68883e-06 4.46565e-05 8.84701e-08
-3.2469e-08 8.84701e-08 -1.92705e-05
0.000915521 -5.79787e-06 -2.2797e-06
-5.79787e-06 2.03025e-06 -2.49717e-06
-2.2797e-06 -2.49717e-06 -4.0839e-05
0.000856996 -1.98853e-05 -3.10178e-06
-1.98853e-05 -2.99197e-05 -3.70414e-06
-3.10178e-06 -3.70414e-06 -3.9063e-05
0.000919411 -1.08942e-05 -1.8647e-07
-1.08942e-05 -4.02674e-08 -5.63156e-08
-1.8647e-07 -5.63156e-08 -3.91249e-05
0.00100017 1.19374e-07 5.69579e-07
1.19374e-07 3.93599e-05 1.84491e-06
5.69579e-07 1.84491e-06 -2.11446e-05
0.00242545 -2.68956e-05 -1.63899e-05
-2.68956e-05 0.000762358 -4.02165e-06
-1.63899e-05 -4.02165e-06 0.000780507
0.000853615 -1.76142e-05 -1.3885e-07
-1.76142e-05 -3.60354e-05 -6.57446e-10
-1.3885e-07 -6.57446e-10 -4.31824e-05
0.000933529 -8.77149e-06 1.38745e-06
-8.77149e-06 3.64278e-06 2.26346e-06
1.38745e-06 2.26346e-06 -3.25089e-05
0.00239621 -2.34117e-05 -6.41465e-07
-2.34117e-05 0.00074213 4.86339e-08
-6.41465e-07 4.86339e-08 0.000761592
0.000846897 -1.5655e-05 1.81254e-06
-1.5655e-05 -4.31744e-05 3.48699e-06
1.81254e-06 3.48699e-06 -4.85934e-05
0.00234588 -1.96684e-05 1.14071e-05
-1.96684e-05 0.00071162 4.00496e-06
1.14071e-05 4.00496e-06 0.000732488
0.000183515 3.72824e-05 9.83996e-05
3.72824e-05 -0.000331753 7.95013e-06
9.83996e-05 7.95013e-06 -0.000510899
0.00161267 -2.7027e-05 3.83448e-06
-2.7027e-05 0.00059091 -1.66689e-07
3.83448e-06 -1.66689e-07 0.000606057
0.000615212 5.2769e-06 1.53074e-05
5.2769e-06 2.00809e-05 2.39596e-06
1.53074e-05 2.39596e-06 -7.3565e-05
0.00101666 4.44319e-05 1.44909e-06
4.44319e-05 5.29998e-05 4.55041e-07
1.44909e-06 4.55041e-07 -2.58813e-05
0.00102777 4.91327e-05 7.24431e-07
4.91327e-05 5.87595e-05 1.92365e-08
7.24431e-07 1.92365e-08 -2.21749e-05
0.00111121 5.04886e-05 -1.6697e-08
5.04886e-05 0.00010726 -6.21758e-08
-1.6697e-08 -6.21758e-08 3.134e-05
0.00114786 5.41641e-05 -5.75884e-07
5.41641e-05 0.000129967 -7.05003e-08
-5.75884e-07 -7.05003e-08 5.38641e-05
0.00111045 5.31124e-05 -2.01658e-06
5.31124e-05 0.000107938 -9.68627e-08
-2.01658e-06 -9.68627e-08 2.76049e-05
0.00107039 4.1141e-05 6.32466e-07
4.1141e-05 8.29123e-05 1.37869e-06
6.32466e-07 1.37869e-06 -1.53808e-07
0.00108448 4.84889e-05 1.42474e-06
4.84889e-05 8.86323e-05 1.10292e-06
1.42474e-06 1.10292e-06 5.49599e-06
0.000999552 4.94315e-05 -4.17424e-07
4.94315e-05 5.85177e-05 -2.70209e-07
-4.17424e-07 -2.70209e-07 -2.89895e-05
0.000611131 4.35176e-05 -1.88295e-06
4.35176e-05 -0.000131115 2.5285e-07
-1.88295e-06 2.5285e-07 -0.000213484
0.000801685 4.90788e-05 -2.44868e-06
4.90788e-05 -3.97466e-05 -1.9544e-06
-2.44868e-06 -1.9544e-06 -0.000129251
0.00182303 8.81677e-05 5.07559e-07
8.81677e-05 0.000436963 -3.65177e-06
5.07559e-07 -3.65177e-06 0.000336962
0.00110939 4.35669e-05 -1.42383e-06
4.35669e-05 0.000111545 1.55521e-07
-1.42383e-06 1.55521e-07 2.366e-05
0.00108614 3.82075e-05 7.6284e-07
3.82075e-05 9.72064e-05 1.44267e-06
7.6284e-07 1.44267e-06 1.16462e-05
0.00693798 -7.59262e-05 -1.02993e-05
-7.59262e-05 0.00187386 -1.54125e-05
-1.02993e-05 -1.54125e-05 0.00125182
-9.02113e-05 -0.000110032 7.12682e-06
-0.000110032 -0.000395805 5.10049e-06
7.12682e-06 5.10049e-06 -0.000488855
0.00210257 -6.6576e-05 -6.80337e-06
-6.6576e-05 0.000773373 -2.65003e-06
-6.80337e-06 -2.65003e-06 0.000872907
-0.00205484 -0.000140412 -3.26313e-05
-0.000140412 -0.00138722 -2.46599e-05
-3.26313e-05 -2.46599e-05 -0.00125632
0.0071986 -0.000217137 6.46079e-05
-0.000217137 0.00188185 5.15323e-05
6.46079e-05 5.15323e-05 0.000952207
0.00153742 8.8038e-05 3.11138e-05
8.8038e-05 0.000410927 6.52532e-06
3.11138e-05 6.52532e-06 0.000169492
0.00139563 0.000113888 -2.77742e-05
0.000113888 5.11332e-05 -2.5227e-05
-2.77742e-05 -2.5227e-05 -0.000240227
0.00491272 -0.000169437 2.16434e-05
-0.000169437 0.00121044 1.57704e-05
2.16434e-05 1.57704e-05 0.000615962
0.00117846 4.47319e-05 -3.75748e-05
4.47319e-05 -4.47632e-05 -5.0115e-05
-3.75748e-05 -5.0115e-05 -0.000327441
0.00228224 0.000151079 1.76208e-05
0.000151079 0.000502516 8.33336e-06
1.76208e-05 8.33336e-06 0.000350041
0.000922826 8.72376e-05 -3.9095e-07
8.72376e-05 7.74231e-05 -5.34302e-06
-3.9095e-07 -5.34302e-06 -6.95817e-05
0.000837451 4.74616e-05 8.70412e-07
4.74616e-05 -2.6898e-05 4.78772e-06
8.70412e-07 4.78772e-06 -9.58023e-05
0.00201871 0.000128285 -1.67958e-05
0.000128285 0.000663157 -2.34651e-05
-1.67958e-05 -2.34651e-05 0.000547345
-8.82876e-05 0.000116623 -5.34563e-06
0.000116623 -0.000549928 2.17838e-05
-5.34563e-06 2.17838e-05 -0.000662896
0.000801185 4.50689e-05 -4.34598e-06
4.50689e-05 -0.000359556 -4.97122e-06
-4.34598e-06 -4.97122e-06 -0.000815044
0.00152403 8.7241e-06 9.00498e-07
8.7241e-06 0.000278989 3.53058e-06
9.00498e-07 3.53058e-06 0.000173558
-0.00108001 -8.02155e-06 -6.96759e-06
-8.02155e-06 -0.00100518 -1.13871e-07
-6.96759e-06 -1.13871e-07 -0.00102903
0.00214211 -0.000114354 -3.16676e-05
-0.000114354 0.000477347 -1.91848e-06
-3.16676e-05 -1.91848e-06 0.000428976
0.00155331 2.36536e-05 2.70616e-05
2.36536e-05 -0.000219533 -2.35924e-05
2.70616e-05 -2.35924e-05 -0.000454785
0.000332937 1.59713e-06 -0.000119094
1.59713e-06 -0.000256246 2.27304e-05
-0.000119094 2.27304e-05 -0.000438583
0.0050685 0.000239383 -1.93825e-05
0.000239383 0.00169712 5.52385e-06
-1.93825e-05 5.52385e-06 0.000944945
0.00144215 -8.29896e-05 1.2512e-06
-8.29896e-05 -6.99225e-05 -8.36581e-07
1.2512e-06 -8.36581e-07 -1.36771e-05
0.00466049 0.000148584 2.87628e-05
0.000148584 0.0013814 3.00479e-06
2.87628e-05 3.00479e-06 0.000813962
0.00180344 7.56277e-05 2.48612e-05
7.56277e-05 0.000192974 -9.56885e-06
2.48612e-05 -9.56885e-06 -0.000141754
0.00217602 -5.99826e-05 -6.16086e-06
-5.99826e-05 0.000118859 9.96558e-07
-6.16086e-06 9.96558e-07 0.000185974
0.00091664 6.87287e-05 -2.55523e-05
6.87287e-05 0.000263542 1.20565e-05
-2.55523e-05 1.20565e-05 4.44268e-05
0.00141909 -0.000143875 9.2513e-06
-0.000143875 0.000103865 -7.91997e-06
9.2513e-06 -7.91997e-06 -3.51457e-05
0.0017508 -0.000135524 -3.66259e-06
-0.000135524 4.50711e-05 1.73343e-06
-3.66259e-06 1.73343e-06 -9.96332e-06
0.00215496 -7.96018e-05 -1.21886e-05
-7.96018e-05 0.000170678 5.40772e-06
-1.21886e-05 5.40772e-06 0.000164057
0.000807463 -8.69939e-05 6.1148e-06
-8.69939e-05 -0.000254628 -1.34455e-06
6.1148e-06 -1.34455e-06 -0.000329415
0.00144413 -7.31327e-05 1.71828e-06
-7.31327e-05 -9.11938e-06 9.81695e-07
1.71828e-06 9.81695e-07 -3.55458e-05
0.0014892 -4.80043e-05 -1.32345e-06
-4.80043e-05 -2.55955e-05 4.63203e-06
-1.32345e-06 4.63203e-06 -3.72969e-05
0.00113128 -6.59763e-05 1.78764e-06
-6.59763e-05 -7.37574e-05 8.05434e-07
1.78764e-06 8.05434e-07 -0.000138617
0.00141983 -5.86083e-05 8.22571e-08
-5.86083e-05 1.23396e-05 1.48244e-06
8.22571e-08 1.48244e-06 -2.58142e-05
0.00145482 -4.68464e-05 5.58185e-07
-4.68464e-05 2.60669e-05 2.76218e-06
5.58185e-07 2.76218e-06 -7.95608e-06
0.00123773 -5.82716e-05 2.2565e-06
-5.82716e-05 -6.82272e-06 1.50467e-06
2.2565e-06 1.50467e-06 -7.04809e-05
0.00136657 -5.36379e-05 7.09601e-08
-5.36379e-05 3.58703e-05 8.92999e-07
7.09601e-08 8.92999e-07 -1.30639e-05
0.00141047 -4.6938e-05 -2.46762e-07
-4.6938e-05 5.83355e-05 1.08172e-06
-2.46762e-07 1.08172e-06 9.8417e-06
0.00137289 -5.07018e-05 -1.05387e-06
-5.07018e-05 7.11073e-05 8.89505e-07
-1.05387e-06 8.89505e-07 1.7683e-05
0.00151243 -5.20757e-05 5.55055e-07
-5.20757e-05 0.000151572 -5.69154e-07
5.55055e-07 -5.69154e-07 9.06352e-05
0.00135576 -5.46234e-05 1.47616e-06
-5.46234e-05 7.4208e-05 2.2688e-06
1.47616e-06 2.2688e-06 1.28995e-05
0.00133484 -5.6296e-05 7.36219e-08
-5.6296e-05 8.43684e-05 -3.95131e-07
7.36219e-08 -3.95131e-07 1.53743e-05
0.00131879 -5.46681e-05 -6.7164e-07
-5.46681e-05 8.89998e-05 -2.47758e-07
-6.7164e-07 -2.47758e-07 1.74302e-05
0.000992592 -5.15664e-05 -1.6547e-06
-5.15664e-05 -2.38602e-05 1.25764e-06
-1.6547e-06 1.25764e-06 -0.000100052
0.00127218 -5.95838e-05 3.55053e-08
-5.95838e-05 9.60542e-05 -1.56651e-07
3.55053e-08 -1.56651e-07 1.61443e-05
0.00139757 -6.4287e-05 1.95034e-06
-6.4287e-05 0.000145452 -4.38355e-07
1.95034e-06 -4.38355e-07 6.24779e-05
0.00104663 -4.52964e-05 -1.23819e-06
-4.52964e-05 5.45934e-05 1.21631e-06
-1.23819e-06 1.21631e-06 -1.41198e-05
0.000974475 -5.294e-05 -3.46562e-07
-5.294e-05 3.5246e-06 3.78947e-07
-3.46562e-07 3.78947e-07 -7.34585e-05
0.00129204 -6.2382e-05 1.32791e-06
-6.2382e-05 0.00014695 -1.64402e-06
1.32791e-06 -1.64402e-06 6.38912e-05
0.000879789 -2.49265e-06 -2.35601e-06
-2.49265e-06 7.44658e-06 1.62468e-06
-2.35601e-06 1.62468e-06 -4.66045e-05
0.00104051 -4.00623e-05 -3.60994e-08
-4.00623e-05 6.52606e-05 -8.49819e-08
-3.60994e-08 -8.49819e-08 -1.40334e-06
0.00112034 -5.42044e-05 6.01562e-07
-5.42044e-05 9.5349e-05 -1.25469e-06
6.01562e-07 -1.25469e-06 2.11295e-05
0.000737812 2.96697e-05 -4.21087e-06
2.96697e-05 -5.83387e-05 3.45327e-06
-4.21087e-06 3.45327e-06 -7.70393e-05
0.000918777 -1.18929e-06 1.38417e-08
-1.18929e-06 2.21243e-05 7.38088e-08
1.38417e-08 7.38088e-08 -2.89127e-05
0.00104883 -3.42176e-05 1.20067e-06
-3.42176e-05 7.39542e-05 -4.5263e-07
1.20067e-06 -4.5263e-07 8.4969e-06
0.0025792 4.20438e-05 -2.02301e-05
4.20438e-05 0.000864988 3.56718e-06
-2.02301e-05 3.56718e-06 0.000877425
0.000804115 2.7925e-05 -1.0038e-08
2.7925e-05 -3.38659e-05 -1.65596e-08
-1.0038e-08 -1.65596e-08 -4.95301e-05
0.000921453 6.23313e-07 2.50183e-06
6.23313e-07 1.72209e-05 -1.79711e-06
2.50183e-06 -1.79711e-06 -3.04261e-05
0.00252827 3.80893e-05 2.04239e-07
3.80893e-05 0.000832796 6.82121e-08
2.04239e-07 6.82121e-08 0.00084676
0.000838772 2.52205e-05 4.04274e-06
2.52205e-05 -2.5246e-05 -3.45844e-06
4.04274e-06 -3.45844e-06 -3.83717e-05
0.00249195 3.42909e-05 1.90043e-05
3.42909e-05 0.000808702 -3.83676e-06
1.90043e-05 -3.83676e-06 0.000823969
0.00105835 4.32744e-05 -7.92958e-07
4.32744e-05 8.31933e-05 -2.11053e-07
-7.92958e-07 -2.11053e-07 9.39766e-06
0.00106512 3.91971e-05 2.54476e-07
3.91971e-05 8.15161e-05 1.46429e-07
2.54476e-07 1.46429e-07 9.15038e-06
0.000916564 1.51e-06 -1.63977e-06
1.51e-06 5.23434e-06 -8.10688e-07
-1.63977e-06 -8.10688e-07 -6.15644e-05
0.000969329 3.34049e-05 1.45114e-06
3.34049e-05 2.81144e-05 9.48612e-07
1.45114e-06 9.48612e-07 -4.62645e-05
0.000959521 3.55251e-07 -9.42307e-08
3.55251e-07 2.34278e-05 1.87593e-07
-9.42307e-08 1.87593e-07 -4.26725e-05
0.000918611 -5.00925e-07 -2.6388e-06
-5.00925e-07 6.18081e-06 -2.19197e-06
-2.6388e-06 -2.19197e-06 -4.03015e-05
0.000997764 5.96333e-07 9.34253e-07
5.96333e-07 4.16265e-05 1.71518e-06
9.34253e-07 1.71518e-06 -2.23463e-05
0.000918757 -5.45403e-06 -1.55356e-07
-5.45403e-06 3.18228e-06 -3.03844e-08
-1.55356e-07 -3.03844e-08 -3.96008e-05
0.000844367 -2.23592e-05 -3.6184e-06
-2.23592e-05 -3.06146e-05 -3.77286e-06
-3.6184e-06 -3.77286e-06 -4.22447e-05
0.00246599 -3.05008e-05 -1.79426e-05
-3.05008e-05 0.000788251 -3.99665e-06
-1.79426e-05 -3.99665e-06 0.000805038
0.000843467 -1.95719e-05 -1.03166e-07
-1.95719e-05 -3.66842e-05 -1.88973e-08
-1.03166e-07 -1.88973e-08 -4.56901e-05
0.000924399 -9.96057e-06 1.46705e-06
-9.96057e-06 1.80976e-06 2.49309e-06
1.46705e-06 2.49309e-06 -3.7117e-05
0.00243904 -2.7017e-05 -5.43309e-07
-2.7017e-05 0.000768642 5.79889e-08
-5.43309e-07 5.79889e-08 0.000786863
0.000840449 -1.74683e-05 2.29481e-06
-1.74683e-05 -4.24558e-05 3.56671e-06
2.29481e-06 3.56671e-06 -4.95295e-05
0.00240014 -2.34648e-05 1.35159e-05
-2.34648e-05 0.000743596 4.00498e-06
1.35159e-05 4.00498e-06 0.000763172
0.00529172 1.2515e-05 2.12484e-05
1.2515e-05 0.00156829 -3.3662e-06
2.12484e-05 -3.3662e-06 0.00108244
-0.000515881 -1.66122e-05 1.59774e-05
-1.66122e-05 -0.000399929 8.1521e-07
1.59774e-05 8.1521e-07 -0.000422698
0.00044572 -1.9211e-05 4.39546e-06
-1.9211e-05 -0.000100846 -1.33979e-07
4.39546e-06 -1.33979e-07 -9.76828e-05
0.00103676 4.61251e-05 1.94581e-06
4.61251e-05 6.53422e-05 2.94603e-07
1.94581e-06 2.94603e-07 -1.57291e-05
0.00103303 4.89098e-05 9.39679e-07
4.89098e-05 7.03277e-05 1.31017e-07
9.39679e-07 1.31017e-07 -5.2187e-06
0.00114924 5.35081e-05 8.85761e-08
5.35081e-05 0.000126845 -6.22536e-08
8.85761e-08 -6.22536e-08 4.67236e-05
0.00110717 5.34418e-05 -2.33923e-07
5.34418e-05 0.000109989 -1.77113e-07
-2.33923e-07 -1.77113e-07 3.38746e-05
0.00111683 5.48612e-05 1.31405e-06
5.48612e-05 0.000118487 4.8527e-07
1.31405e-06 4.8527e-07 4.05157e-05
0.000865579 4.87262e-05 -1.98868e-06
4.87262e-05 -3.94312e-06 5.41927e-07
-1.98868e-06 5.41927e-07 -8.24763e-05
0.000891968 4.61151e-05 1.5613e-06
4.61151e-05 5.38906e-06 1.28838e-06
1.5613e-06 1.28838e-06 -8.14164e-05
0.000829783 4.82243e-05 6.84553e-07
4.82243e-05 -2.26978e-05 -1.20806e-07
6.84553e-07 -1.20806e-07 -0.00010634
0.000857142 4.96609e-05 8.72227e-07
4.96609e-05 -4.86409e-06 2.08564e-07
8.72227e-07 2.08564e-07 -9.53683e-05
0.000563085 5.0755e-05 -5.82335e-07
5.0755e-05 -0.000166573 2.37256e-07
-5.82335e-07 2.37256e-07 -0.000250023
0.00259845 0.000106365 1.11274e-07
0.000106365 0.000791121 -7.79426e-07
1.11274e-07 -7.79426e-07 0.000697976
0.0017776 0.000106039 2.76828e-07
0.000106039 0.00031133 -3.77588e-06
2.76828e-07 -3.77588e-06 0.000195554
0.00121086 7.57689e-05 7.93427e-07
7.57689e-05 0.00014032 2.01039e-07
7.93427e-07 2.01039e-07 4.23268e-05
0.00128553 4.85867e-05 -3.53358e-07
4.85867e-05 0.000206003 1.65591e-06
-3.53358e-07 1.65591e-06 0.000116231
0.000600614 -3.75514e-05 -1.81432e-05
-3.75514e-05 -0.000236959 -2.21092e-05
-1.81432e-05 -2.21092e-05 -0.000341682
0.00350543 -7.73709e-05 -1.44783e-05
-7.73709e-05 0.000638118 -2.522e-06
-1.44783e-05 -2.522e-06 0.000137391
0.00271211 -0.000151891 -3.6057e-05
-0.000151891 0.00105757 -1.03727e-05
-3.6057e-05 -1.03727e-05 0.000956921
0.00395912 -0.000103454 8.21186e-05
-0.000103454 0.000795304 3.59322e-05
8.21186e-05 3.59322e-05 0.000110403
0.00284997 0.000141286 1.8904e-05
0.000141286 0.000858708 4.12545e-05
1.8904e-05 4.12545e-05 0.000676548
0.000973899 3.33801e-05 -1.33362e-05
3.33801e-05 -1.97767e-05 -1.36166e-06
-1.33362e-05 -1.36166e-06 -0.00014411
0.00100282 5.71221e-05 2.06314e-05
5.71221e-05 -0.000225624 1.20839e-05
2.06314e-05 1.20839e-05 -0.000293623
0.00182841 0.000150488 6.11186e-07
0.000150488 0.000284158 9.84842e-06
6.11186e-07 9.84842e-06 0.000142042
0.00034749 6.86316e-05 -1.32746e-06
6.86316e-05 -0.00019505 7.3202e-06
-1.32746e-06 7.3202e-06 -0.000338872
0.00262426 0.000194028 -5.36666e-05
0.000194028 0.000548469 -8.49092e-05
-5.36666e-05 -8.49092e-05 0.000486319
0.00188178 1.19383e-05 -0.000110321
1.19383e-05 0.000470682 -7.4988e-06
-0.000110321 -7.4988e-06 0.000206423
0.00490946 4.7673e-05 1.28046e-05
4.7673e-05 0.00156638 3.2318e-08
1.28046e-05 3.2318e-08 0.00108223
-0.00264365 -1.45747e-05 -7.40131e-05
-1.45747e-05 -0.00175097 5.30296e-06
-7.40131e-05 5.30296e-06 -0.00173911
0.00234852 -9.12035e-05 -2.31994e-06
-9.12035e-05 0.000376503 -1.05483e-06
-2.31994e-06 -1.05483e-06 0.000415599
0.000631588 8.40238e-05 2.89852e-05
8.40238e-05 -0.000233786 -1.06613e-05
2.89852e-05 -1.06613e-05 -0.000432088
0.000363236 1.2425e-05 2.05739e-05
1.2425e-05 -0.000405904 -3.47121e-06
2.05739e-05 -3.47121e-06 -0.000885929
0.00198579 -6.64509e-05 -1.16904e-06
-6.64509e-05 3.91639e-05 2.37288e-06
-1.16904e-06 2.37288e-06 8.36266e-05
0.00130937 8.9666e-05 3.24271e-06
8.9666e-05 0.000273349 -4.91752e-06
3.24271e-06 -4.91752e-06 7.48885e-05
0.00214904 -6.76946e-06 -3.93223e-07
-6.76946e-06 7.56067e-05 -1.27596e-05
-3.93223e-07 -1.27596e-05 0.000110086
0.000826873 5.86264e-05 1.5583e-06
5.86264e-05 -0.000228302 -1.98972e-06
1.5583e-06 -1.98972e-06 -0.000291002
0.00189908 -0.000134032 9.76302e-06
-0.000134032 0.000121357 -3.82243e-06
9.76302e-06 -3.82243e-06 7.34476e-05
0.0018342 -7.54783e-05 3.42082e-06
-7.54783e-05 2.39659e-05 -3.66159e-07
3.42082e-06 -3.66159e-07 2.21755e-05
0.00192124 -1.10192e-05 -2.85369e-06
-1.10192e-05 0.000151754 3.65246e-06
-2.85369e-06 3.65246e-06 0.000137144
0.000963538 -6.74186e-05 7.36024e-06
-6.74186e-05 -0.000236665 -1.23746e-06
7.36024e-06 -1.23746e-06 -0.000261186
0.0016118 -4.94643e-05 1.82388e-06
-4.94643e-05 4.33309e-05 4.48473e-07
1.82388e-06 4.48473e-07 2.9249e-05
0.00161147 -2.66576e-05 -7.38081e-07
-2.66576e-05 6.15555e-05 3.49729e-06
-7.38081e-07 3.49729e-06 2.61332e-05
0.00130581 -5.79222e-05 3.10122e-06
-5.79222e-05 -4.28885e-05 9.80738e-07
3.10122e-06 9.80738e-07 -8.18033e-05
0.00146102 -4.7269e-05 6.00624e-07
-4.7269e-05 3.52794e-05 7.4084e-07
6.00624e-07 7.4084e-07 -5.31492e-07
0.00156174 -3.72782e-05 -7.03174e-07
-3.72782e-05 9.38516e-05 1.94693e-06
-7.03174e-07 1.94693e-06 4.45991e-05
0.0014208 -5.48234e-05 1.09009e-06
-5.48234e-05 6.36782e-05 1.11477e-06
1.09009e-06 1.11477e-06 1.37409e-05
0.00135646 -4.79082e-05 -1.15768e-07
-4.79082e-05 3.7463e-05 -4.25937e-09
-1.15768e-07 -4.25937e-09 -1.14557e-05
0.00135833 -4.57118e-05 9.5976e-07
-4.57118e-05 5.48391e-05 9.81497e-07
9.5976e-07 9.81497e-07 -5.14808e-06
0.00121818 -4.89972e-05 -5.85103e-08
-4.89972e-05 -3.55899e-06 1.31233e-06
-5.85103e-08 1.31233e-06 -5.52481e-05
0.00138271 -4.97748e-05 -7.45181e-07
-4.97748e-05 8.74508e-05 -5.07302e-07
-7.45181e-07 -5.07302e-07 2.77485e-05
0.0014826 -5.10912e-05 2.37501e-08
-5.10912e-05 0.000149334 3.53822e-09
2.37501e-08 3.53822e-09 8.20943e-05
0.00134355 -5.60537e-05 9.36156e-07
-5.60537e-05 8.79818e-05 5.11713e-07
9.36156e-07 5.11713e-07 1.87608e-05
0.00131852 -5.43754e-05 1.41762e-07
-5.43754e-05 8.90701e-05 -2.95521e-07
1.41762e-07 -2.95521e-07 1.71968e-05
0.00133562 -5.2787e-05 -8.80596e-07
-5.2787e-05 0.000115456 4.06321e-07
-8.80596e-07 4.06321e-07 4.39869e-05
0.000874282 -4.28692e-05 -2.13799e-06
-4.28692e-05 -5.72541e-05 1.54957e-06
-2.13799e-06 1.54957e-06 -0.000127184
0.00107622 -5.31021e-05 -2.86515e-07
-5.31021e-05 2.01106e-05 1.9858e-07
-2.86515e-07 1.9858e-07 -5.58398e-05
0.00126594 -5.92326e-05 1.37207e-06
-5.92326e-05 9.39122e-05 -1.02318e-06
1.37207e-06 -1.02318e-06 1.36004e-05
0.000883811 -1.09467e-05 -2.13696e-06
-1.09467e-05 5.26533e-06 1.76467e-06
-2.13696e-06 1.76467e-06 -5.14674e-05
0.00106069 -4.50839e-05 6.55127e-08
-4.50839e-05 6.11193e-05 2.3916e-08
6.55127e-08 2.3916e-08 -7.58958e-06
0.00107003 -5.48873e-05 5.38796e-07
-5.48873e-05 5.26931e-05 -9.62675e-07
5.38796e-07 -9.62675e-07 -2.39048e-05
0.000700344 3.19234e-05 -4.24943e-06
3.19234e-05 -6.79017e-05 3.33282e-06
-4.24943e-06 3.33282e-06 -9.04419e-05
0.00091 -5.56328e-06 -1.50362e-07
-5.56328e-06 2.00433e-05 1.82134e-08
-1.50362e-07 1.82134e-08 -3.37787e-05
0.00107413 -4.10989e-05 1.1792e-06
-4.10989e-05 8.05862e-05 -9.4029e-07
1.1792e-06 -9.4029e-07 1.38859e-05
0.00264296 4.60605e-05 -2.09863e-05
4.60605e-05 0.000904939 3.43225e-06
-2.09863e-05 3.43225e-06 0.000915371
0.000780384 3.07234e-05 1.03315e-07
3.07234e-05 -3.65999e-05 2.51236e-08
1.03315e-07 2.51236e-08 -5.55875e-05
0.000923707 -2.65435e-06 2.56893e-06
-2.65435e-06 2.26621e-05 -1.54942e-06
2.56893e-06 -1.54942e-06 -2.80584e-05
0.00256262 4.19944e-05 2.00763e-07
4.19944e-05 0.000857748 7.20576e-08
2.00763e-07 7.20576e-08 0.000869984
0.000832823 2.869e-05 3.99763e-06
2.869e-05 -1.90939e-05 -3.42382e-06
3.99763e-06 -3.42382e-06 -3.50131e-05
0.00250185 3.80279e-05 1.9675e-05
3.80279e-05 0.000820571 -3.68489e-06
1.9675e-05 -3.68489e-06 0.000834435
0.00106947 4.82322e-05 -1.0075e-06
4.82322e-05 9.03659e-05 -6.89483e-07
-1.0075e-06 -6.89483e-07 1.4982e-05
0.00112603 4.5136e-05 1.28025e-07
4.5136e-05 0.000116316 9.12649e-08
1.28025e-07 9.12649e-08 4.28349e-05
0.000950342 1.69396e-05 -1.54946e-06
1.69396e-05 2.88947e-05 -7.01944e-07
-1.54946e-06 -7.01944e-07 -3.8953e-05
0.00103057 3.91528e-05 1.00022e-06
3.91528e-05 6.54033e-05 3.15617e-07
1.00022e-06 3.15617e-07 -7.00131e-06
0.000927723 4.10172e-06 -3.75823e-07
4.10172e-06 1.18296e-05 -5.96047e-08
-3.75823e-07 -5.96047e-08 -5.50836e-05
0.000917084 -1.90574e-07 -2.67048e-06
-1.90574e-07 1.07322e-05 -1.86026e-06
-2.67048e-06 -1.86026e-06 -3.89508e-05
0.00092077 -2.70919e-06 1.1692e-06
-2.70919e-06 4.49673e-06 1.3335e-06
1.1692e-06 1.3335e-06 -6.22433e-05
0.000919036 -2.08645e-06 -6.02942e-08
-2.08645e-06 6.69625e-06 2.44828e-08
-6.02942e-08 2.44828e-08 -3.98274e-05
0.000828111 -2.55538e-05 -3.95163e-06
-2.55538e-05 -3.20933e-05 -3.68721e-06
-3.95163e-06 -3.68721e-06 -4.64921e-05
0.000923019 -5.64804e-06 2.04076e-06
-5.64804e-06 4.87496e-06 2.64442e-06
2.04076e-06 2.64442e-06 -3.78253e-05
0.000829887 -2.18611e-05 -1.2537e-07
-2.18611e-05 -3.82623e-05 -7.22888e-09
-1.2537e-07 -7.22888e-09 -4.96621e-05
0.0025186 -3.43009e-05 -1.9225e-05
-3.43009e-05 0.000820751 -3.93586e-06
-1.9225e-05 -3.93586e-06 0.000835933
0.00248158 -3.06174e-05 -4.05589e-07
-3.06174e-05 0.000795409 6.03459e-08
-4.05589e-07 6.03459e-08 0.000812301
0.000830756 -1.92761e-05 2.84437e-06
-1.92761e-05 -4.30991e-05 3.64595e-06
2.84437e-06 3.64595e-06 -5.1961e-05
0.00244959 -2.71413e-05 1.5458e-05
-2.71413e-05 0.000773453 3.97514e-06
1.5458e-05 3.97514e-06 0.000791748
0.000553247 -2.55557e-05 -5.04939e-05
-2.55557e-05 -0.000170299 -1.11888e-05
-5.04939e-05 -1.11888e-05 -0.000296737
0.00169241 -2.783e-05 -1.10122e-05
-2.783e-05 7.21151e-06 -5.58337e-06
-1.10122e-05 -5.58337e-06 -0.000460137
0.00329789 -0.000116019 -3.71532e-05
-0.000116019 0.00120908 -2.70041e-06
-3.71532e-05 -2.70041e-06 0.00112802
0.00119319 5.93365e-05 2.08541e-06
5.93365e-05 0.000135569 3.61871e-07
2.08541e-06 3.61871e-07 5.60927e-05
0.00116661 5.48474e-05 1.59373e-06
5.48474e-05 0.000136191 -3.66426e-08
1.59373e-06 -3.66426e-08 5.60872e-05
0.00105521 5.23427e-05 7.61855e-07
5.23427e-05 8.44073e-05 6.03492e-08
7.61855e-07 6.03492e-08 8.32093e-06
0.00102809 5.28083e-05 -1.64346e-08
5.28083e-05 7.5844e-05 8.25181e-08
-1.64346e-08 8.25181e-08 -3.11685e-06
0.0010695 5.41109e-05 -1.30119e-07
5.41109e-05 9.64791e-05 -2.36454e-07
-1.30119e-07 -2.36454e-07 1.81183e-05
0.000769289 5.13169e-05 -1.75976e-06
5.13169e-05 -5.44898e-05 7.16749e-07
-1.75976e-06 7.16749e-07 -0.000128723
0.00115662 5.59614e-05 2.98447e-06
5.59614e-05 0.000140122 -8.65681e-07
2.98447e-06 -8.65681e-07 5.48352e-05
0.00119599 5.54746e-05 2.04043e-06
5.54746e-05 0.000165219 1.11649e-06
2.04043e-06 1.11649e-06 7.37644e-05
0.0010658 6.30118e-05 -2.24704e-07
6.30118e-05 7.63524e-05 -1.30098e-07
-2.24704e-07 -1.30098e-07 -6.30557e-06
0.0019376 9.12724e-05 1.65633e-07
9.12724e-05 0.000482729 6.27262e-07
1.65633e-07 6.27262e-07 0.000391678
0.00153371 8.90993e-05 1.03855e-06
8.90993e-05 0.000190571 -1.1613e-06
1.03855e-06 -1.1613e-06 9.16913e-05
0.00177652 9.10916e-05 -8.06664e-06
9.10916e-05 0.000149914 -3.31717e-06
-8.06664e-06 -3.31717e-06 3.62194e-05
0.00129307 9.37546e-05 3.30613e-06
9.37546e-05 6.48402e-05 1.15379e-06
3.30613e-06 1.15379e-06 -4.95995e-05
0.000713383 6.36165e-05 -7.00999e-07
6.36165e-05 -0.000108194 4.35004e-06
-7.00999e-07 4.35004e-06 -0.000204009
0.00187135 -2.55653e-05 -1.03077e-06
-2.55653e-05 6.74665e-05 5.85991e-06
-1.03077e-06 5.85991e-06 2.55464e-05
0.00154121 -2.63487e-05 1.07027e-06
-2.63487e-05 4.63952e-06 8.47062e-07
1.07027e-06 8.47062e-07 -0.000146499
0.000829823 -8.432e-05 -2.65904e-05
-8.432e-05 -0.000423829 -3.99399e-06
-2.65904e-05 -3.99399e-06 -0.000844992
0.00218413 9.37129e-05 1.75028e-05
9.37129e-05 8.56671e-05 1.93546e-05
1.75028e-05 1.93546e-05 -0.000130157
0.00139132 6.19883e-05 2.35155e-06
6.19883e-05 -0.000106543 1.9518e-06
2.35155e-06 1.9518e-06 -0.000176093
-0.000298558 0.00010294 -4.94617e-06
0.00010294 -0.000683821 -9.51825e-06
-4.94617e-06 -9.51825e-06 -0.000835331
0.00222974 3.59521e-06 7.12562e-06
3.59521e-06 0.000553974 -5.17765e-06
7.12562e-06 -5.17765e-06 0.000491356
0.000620946 3.17376e-06 -2.18124e-05
3.17376e-06 4.98227e-05 1.05001e-06
-2.18124e-05 1.05001e-06 -0.000126954
0.00127201 0.000121275 5.78559e-05
0.000121275 -0.000238205 1.3546e-07
5.78559e-05 1.3546e-07 -0.000687541
0.00164215 -7.53825e-05 -2.03512e-06
-7.53825e-05 -0.000123204 6.57889e-06
-2.03512e-06 6.57889e-06 -9.61343e-05
0.00137895 9.98457e-05 4.24889e-05
9.98457e-05 0.000102917 -1.87909e-05
4.24889e-05 -1.87909e-05 -0.000141161
0.00197723 -1.11869e-05 4.77259e-06
-1.11869e-05 -1.69612e-05 -1.51039e-06
4.77259e-06 -1.51039e-06 -2.86137e-06
0.00125328 6.72972e-05 5.35479e-07
6.72972e-05 -1.2019e-05 -3.58621e-06
5.35479e-07 -3.58621e-06 -7.56484e-05
0.00105606 4.5413e-05 -7.36226e-06
4.5413e-05 -0.000308696 -6.18085e-08
-7.36226e-06 -6.18085e-08 -0.000374954
0.000709011 4.15578e-05 -5.69274e-06
4.15578e-05 -0.000389428 -3.65512e-06
-5.69274e-06 -3.65512e-06 -0.000472972
0.00161461 -7.27523e-05 1.26799e-05
-7.27523e-05 -7.80565e-05 -3.94417e-06
1.26799e-05 -3.94417e-06 -7.46648e-05
0.00179867 -1.35826e-05 3.01072e-06
-1.35826e-05 0.000100804 -2.5197e-07
3.01072e-06 -2.5197e-07 8.01309e-05
0.00183921 1.3837e-05 -2.52679e-06
1.3837e-05 0.000185957 1.14257e-06
-2.52679e-06 1.14257e-06 0.000127933
0.00172683 -5.14715e-05 1.70735e-06
-5.14715e-05 0.000107834 -1.66903e-06
1.70735e-06 -1.66903e-06 9.046e-05
0.00165479 -2.76349e-05 -1.84288e-07
-2.76349e-05 8.7184e-05 -1.48286e-07
-1.84288e-07 -1.48286e-07 4.94361e-05
0.00166229 -1.54359e-05 -1.06693e-06
-1.54359e-05 0.000121027 2.17198e-06
-1.06693e-06 2.17198e-06 6.2221e-05
0.00148193 -4.77606e-05 2.8498e-07
-4.77606e-05 5.1604e-05 -8.54676e-07
2.8498e-07 -8.54676e-07 1.39763e-05
0.00150916 -3.87667e-05 -8.45006e-07
-3.87667e-05 7.72651e-05 -8.13858e-07
-8.45006e-07 -8.13858e-07 2.82913e-05
0.0013905 -3.63975e-05 -2.50157e-07
-3.63975e-05 3.81688e-05 2.20528e-06
-2.50157e-07 2.20528e-06 -2.695e-05
0.001299 -4.87743e-05 -5.60524e-07
-4.87743e-05 1.477e-05 -1.47784e-06
-5.60524e-07 -1.47784e-06 -3.45409e-05
0.00134125 -4.52778e-05 1.35309e-07
-4.52778e-05 4.74344e-05 -5.04204e-07
1.35309e-07 -5.04204e-07 -1.2602e-05
0.00134229 -4.61056e-05 7.93613e-08
-4.61056e-05 6.16895e-05 8.21183e-07
7.93613e-08 8.21183e-07 -6.3905e-06
0.00125066 -4.75136e-05 -1.11006e-06
-4.75136e-05 2.21356e-05 2.81051e-07
-1.11006e-06 2.81051e-07 -3.63236e-05
0.00135914 -4.84467e-05 -2.25475e-07
-4.84467e-05 8.78161e-05 -3.23042e-07
-2.25475e-07 -3.23042e-07 2.13452e-05
0.00129425 -4.66038e-05 -7.76369e-07
-4.66038e-05 7.38481e-05 4.23124e-07
-7.76369e-07 4.23124e-07 4.05329e-06
0.00131777 -5.40771e-05 9.75948e-07
-5.40771e-05 8.886e-05 -3.09215e-07
9.75948e-07 -3.09215e-07 1.66891e-05
0.0012117 -5.05153e-05 2.0442e-07
-5.05153e-05 5.47619e-05 -1.69096e-07
2.0442e-07 -1.69096e-07 -1.71522e-05
0.00119539 -4.5831e-05 -1.78727e-06
-4.5831e-05 7.3799e-05 1.10023e-06
-1.78727e-06 1.10023e-06 5.23453e-06
0.000928208 -2.25163e-05 -2.55916e-06
-2.25163e-05 1.14254e-05 1.74372e-06
-2.55916e-06 1.74372e-06 -4.69531e-05
0.000964184 -4.43873e-05 -4.64987e-07
-4.43873e-05 -1.08605e-05 3.02565e-07
-4.64987e-07 3.02565e-07 -8.03965e-05
0.00114574 -5.42872e-05 9.44189e-07
-5.42872e-05 5.73445e-05 -8.81986e-07
9.44189e-07 -8.81986e-07 -1.83628e-05
0.000691832 2.95702e-05 -3.99881e-06
2.95702e-05 -6.4789e-05 3.37503e-06
-3.99881e-06 3.37503e-06 -9.19287e-05
0.000916624 -1.41843e-05 1.34386e-08
-1.41843e-05 2.01072e-05 7.86981e-08
1.34386e-08 7.86981e-08 -3.65884e-05
0.00107734 -4.50221e-05 1.42048e-06
-4.50221e-05 6.89027e-05 -1.18774e-06
1.42048e-06 -1.18774e-06 1.89619e-07
0.00271098 4.98212e-05 -2.20615e-05
4.98212e-05 0.000947864 3.30216e-06
-2.20615e-05 3.30216e-06 0.000956036
0.000762986 3.32652e-05 -3.8161e-08
3.32652e-05 -3.71469e-05 -4.37877e-08
-3.8161e-08 -4.37877e-08 -5.99061e-05
0.0009403 -8.63596e-06 2.48533e-06
-8.63596e-06 3.27204e-05 -1.6833e-06
2.48533e-06 -1.6833e-06 -2.08907e-05
0.00261831 4.57343e-05 2.73132e-07
4.57343e-05 0.000893896 9.08635e-08
2.73132e-07 9.08635e-08 0.000904099
0.000820677 3.1683e-05 4.10988e-06
3.1683e-05 -1.60576e-05 -3.29053e-06
4.10988e-06 -3.29053e-06 -3.53112e-05
0.0025391 4.17656e-05 2.05644e-05
4.17656e-05 0.000847055 -3.58987e-06
2.05644e-05 -3.58987e-06 0.000859119
0.000953146 5.04464e-05 -8.75667e-07
5.04464e-05 2.2954e-05 -7.75223e-07
-8.75667e-07 -7.75223e-07 -5.44644e-05
0.00104682 4.76333e-05 -5.89217e-08
4.76333e-05 7.87622e-05 -2.1016e-07
-5.89217e-08 -2.1016e-07 3.57733e-06
0.00106164 3.33195e-05 -1.36998e-06
3.33195e-05 8.47281e-05 -5.80923e-07
-1.36998e-06 -5.80923e-07 1.57323e-05
0.00119868 4.72503e-05 8.09725e-07
4.72503e-05 0.000151909 9.9815e-08
8.09725e-07 9.9815e-08 7.87182e-05
0.000992067 2.06849e-05 -3.23752e-07
2.06849e-05 5.01391e-05 -1.18137e-07
-3.23752e-07 -1.18137e-07 -1.74575e-05
0.000918815 1.93865e-07 -2.59166e-06
1.93865e-07 2.03826e-05 -1.69727e-06
-2.59166e-06 -1.69727e-06 -3.25374e-05
0.000936066 1.07502e-05 1.01485e-06
1.07502e-05 1.67299e-05 5.71021e-07
1.01485e-06 5.71021e-07 -5.00494e-05
0.000914709 -1.12701e-06 1.6701e-08
-1.12701e-06 1.07847e-05 4.44714e-08
1.6701e-08 4.44714e-08 -3.9102e-05
0.00081373 -2.94061e-05 -4.01247e-06
-2.94061e-05 -3.01757e-05 -3.52581e-06
-4.01247e-06 -3.52581e-06 -4.75817e-05
0.000917492 -2.95199e-06 2.53325e-06
-2.95199e-06 6.30931e-06 2.4818e-06
2.53325e-06 2.4818e-06 -4.02722e-05
0.000813839 -2.4829e-05 -7.85883e-08
-2.4829e-05 -3.99817e-05 1.81623e-08
-7.85883e-08 1.81623e-08 -5.4109e-05
0.00256102 -3.82319e-05 -2.01228e-05
-3.82319e-05 0.000848976 -3.80024e-06
-2.01228e-05 -3.80024e-06 0.000862449
0.000817059 -2.14101e-05 3.37252e-06
-2.14101e-05 -4.5138e-05 3.75798e-06
3.37252e-06 3.75798e-06 -5.63045e-05
0.00253426 -3.4362e-05 -3.29854e-07
-3.4362e-05 0.000827754 6.83913e-08
-3.29854e-07 6.83913e-08 0.000843104
0.00249748 -3.07378e-05 1.72475e-05
-3.07378e-05 0.0008028 3.9308e-06
1.72475e-05 3.9308e-06 0.000819783
0.00145993 -4.71821e-05 1.59123e-07
-4.71821e-05 -2.80266e-05 4.16884e-07
1.59123e-07 4.16884e-07 -6.28559e-05
0.00178098 -1.09354e-06 -4.36033e-06
-1.09354e-06 0.000235114 6.24562e-06
-4.36033e-06 6.24562e-06 1.86988e-05
0.00419558 3.71961e-05 -6.19483e-05
3.71961e-05 0.00121487 -9.48531e-06
-6.19483e-05 -9.48531e-06 0.000744099
0.000955349 5.41045e-05 1.0711e-06
5.41045e-05 8.48701e-06 3.80599e-07
1.0711e-06 3.80599e-07 -6.67389e-05
0.00131009 6.53958e-05 1.9392e-06
6.53958e-05 0.000141745 -9.73926e-07
1.9392e-06 -9.73926e-07 5.91826e-05
0.000911506 5.34178e-05 3.09537e-07
5.34178e-05 4.4753e-06 -3.30574e-07
3.09537e-07 -3.30574e-07 -7.46888e-05
0.00114961 5.58948e-05 1.47234e-06
5.58948e-05 0.000133994 -7.75927e-07
1.47234e-06 -7.75927e-07 5.48627e-05
0.001064 5.45051e-05 3.55094e-07
5.45051e-05 9.45641e-05 4.94856e-08
3.55094e-07 4.94856e-08 1.57778e-05
0.00102785 5.82025e-05 7.67879e-07
5.82025e-05 6.49955e-05 6.37414e-07
7.67879e-07 6.37414e-07 -9.89991e-06
0.0013685 7.80703e-05 -1.74058e-06
7.80703e-05 0.000120483 -2.85619e-06
-1.74058e-06 -2.85619e-06 3.18857e-05
0.00139577 7.11287e-05 2.5217e-06
7.11287e-05 0.000238122 4.5697e-08
2.5217e-06 4.5697e-08 0.000156101
0.000753786 6.46223e-05 -1.05364e-06
6.46223e-05 -7.29592e-05 3.27347e-06
-1.05364e-06 3.27347e-06 -0.000162162
0.00139227 8.59311e-05 -1.15057e-06
8.59311e-05 0.000126619 -4.90967e-07
-1.15057e-06 -4.90967e-07 2.89619e-05
0.00115858 7.22496e-05 -4.65371e-06
7.22496e-05 -0.000119945 -2.76963e-06
-4.65371e-06 -2.76963e-06 -0.000222509
0.0016743 3.07557e-05 -7.55038e-06
3.07557e-05 1.12452e-05 3.28555e-06
-7.55038e-06 3.28555e-06 -6.87426e-05
0.0018394 9.17302e-05 2.49977e-07
9.17302e-05 0.000172566 8.80939e-07
2.49977e-07 8.80939e-07 6.04148e-05
0.00103674 8.50307e-05 -4.95726e-07
8.50307e-05 -7.704e-05 3.88302e-06
-4.95726e-07 3.88302e-06 -0.000188692
0.00164017 -1.9918e-05 1.0065e-06
-1.9918e-05 -3.26523e-05 9.18549e-07
1.0065e-06 9.18549e-07 -7.34196e-05
0.00230692 -2.67731e-05 5.3706e-05
-2.67731e-05 0.000257173 2.91809e-05
5.3706e-05 2.91809e-05 4.20677e-05
0.00218933 7.72866e-05 -3.90143e-06
7.72866e-05 0.000235958 -2.6218e-06
-3.90143e-06 -2.6218e-06 0.000159969
0.00183521 2.59489e-05 -4.75316e-06
2.59489e-05 0.000219237 -2.90224e-06
-4.75316e-06 -2.90224e-06 0.00016136
0.00138203 -3.28577e-06 1.23894e-06
-3.28577e-06 0.000128684 -5.21875e-07
1.23894e-06 -5.21875e-07 7.24623e-05
0.000939602 4.87493e-05 5.4324e-05
4.87493e-05 -2.64974e-05 3.84099e-06
5.4324e-05 3.84099e-06 -0.000258408
0.00206452 -1.84506e-05 8.71511e-06
-1.84506e-05 1.87053e-05 -7.02239e-07
8.71511e-06 -7.02239e-07 9.83724e-06
0.00148287 7.35809e-05 -3.03543e-06
7.35809e-05 0.000118185 1.47419e-06
-3.03543e-06 1.47419e-06 5.52218e-05
0.00160891 5.23826e-05 -1.53999e-06
5.23826e-05 -4.73027e-05 4.52233e-06
-1.53999e-06 4.52233e-06 -0.00010895
0.00142189 5.30126e-05 1.66351e-07
5.30126e-05 -3.50472e-05 1.29284e-06
1.66351e-07 1.29284e-06 -0.000115183
0.0015585 4.34196e-05 -5.0954e-06
4.34196e-05 6.16546e-05 -4.17578e-07
-5.0954e-06 -4.17578e-07 -1.29573e-05
0.00134582 3.93776e-05 -3.53057e-06
3.93776e-05 -1.1514e-05 -1.81344e-06
-3.53057e-06 -1.81344e-06 -7.64874e-05
0.00150095 -1.55456e-05 6.16578e-06
-1.55456e-05 -3.98736e-05 -2.64696e-06
6.16578e-06 -2.64696e-06 -6.5113e-05
0.00166568 1.20911e-05 -1.11652e-06
1.20911e-05 9.66597e-05 -1.0244e-06
-1.11652e-06 -1.0244e-06 4.02375e-05
0.00162283 2.19656e-05 -2.04675e-06
2.19656e-05 9.72945e-05 2.98856e-07
-2.04675e-06 2.98856e-07 2.39099e-05
0.00174289 -2.83122e-05 -1.19875e-06
-2.83122e-05 0.000134539 -2.83976e-06
-1.19875e-06 -2.83976e-06 9.52917e-05
0.00159167 -1.53542e-05 -1.43767e-07
-1.53542e-05 9.00938e-05 -4.06709e-07
-1.43767e-07 -4.06709e-07 3.15208e-05
0.00140572 -1.13523e-05 -1.23625e-06
-1.13523e-05 1.53519e-05 1.88555e-06
-1.23625e-06 1.88555e-06 -5.5762e-05
0.00145197 -4.00361e-05 -2.13093e-06
-4.00361e-05 5.81976e-05 -2.84501e-06
-2.13093e-06 -2.84501e-06 9.55093e-06
0.00140928 -3.5931e-05 2.24967e-07
-3.5931e-05 4.74758e-05 -1.01349e-07
2.24967e-07 -1.01349e-07 -1.77044e-05
0.00139124 -3.81043e-05 -5.38286e-07
-3.81043e-05 5.56848e-05 1.61129e-06
-5.38286e-07 1.61129e-06 -1.67452e-05
0.00132447 -4.48292e-05 -5.68023e-07
-4.48292e-05 4.01625e-05 -2.00417e-06
-5.68023e-07 -2.00417e-06 -1.99207e-05
0.00133998 -4.54678e-05 3.73374e-08
-4.54678e-05 6.04102e-05 -3.6158e-07
3.73374e-08 -3.6158e-07 -7.62915e-06
0.00130841 -4.49994e-05 -7.1386e-07
-4.49994e-05 6.31462e-05 8.07006e-07
-7.1386e-07 8.07006e-07 -8.12875e-06
0.00123456 -4.58562e-05 -9.34374e-08
-4.58562e-05 2.57443e-05 -3.47866e-07
-9.34374e-08 -3.47866e-07 -3.99598e-05
0.00121545 -4.52558e-05 -1.60197e-07
-4.52558e-05 3.5341e-05 -1.48627e-07
-1.60197e-07 -1.48627e-07 -3.42858e-05
0.00119363 -4.19535e-05 -1.76552e-06
-4.19535e-05 5.36853e-05 9.25344e-07
-1.76552e-06 9.25344e-07 -1.43839e-05
0.00109353 -4.83592e-05 1.33713e-06
-4.83592e-05 -3.177e-06 -7.91423e-07
1.33713e-06 -7.91423e-07 -7.55376e-05
0.00106236 -4.30415e-05 4.30032e-08
-4.30415e-05 9.08296e-06 2.95935e-08
4.30032e-08 2.95935e-08 -5.96147e-05
0.000974892 -2.7091e-05 -2.84884e-06
-2.7091e-05 1.29135e-05 1.58608e-06
-2.84884e-06 1.58608e-06 -4.58845e-05
0.000736652 1.5637e-05 -4.91976e-06
1.5637e-05 -4.23844e-05 3.33397e-06
-4.91976e-06 3.33397e-06 -7.32771e-05
0.000938929 -2.35818e-05 2.98244e-08
-2.35818e-05 1.66078e-05 1.06589e-07
2.98244e-08 1.06589e-07 -4.17936e-05
0.00106441 -4.61749e-05 1.10035e-06
-4.61749e-05 4.04375e-05 -9.05816e-07
1.10035e-06 -9.05816e-07 -2.8704e-05
0.00279398 5.37045e-05 -2.28473e-05
5.37045e-05 0.000999866 3.18233e-06
-2.28473e-05 3.18233e-06 0.00100527
0.00075616 2.43836e-05 1.14787e-07
2.43836e-05 -3.53296e-05 -5.76196e-08
1.14787e-07 -5.76196e-08 -6.21715e-05
0.000944922 -1.73398e-05 2.60655e-06
-1.73398e-05 3.26234e-05 -1.76498e-06
2.60655e-06 -1.76498e-06 -2.39814e-05
0.0026843 4.94718e-05 2.25911e-07
4.94718e-05 0.000936153 8.41492e-08
2.25911e-07 8.41492e-08 0.000943998
0.000818692 3.02771e-05 4.28629e-06
3.02771e-05 -1.01876e-05 -3.24502e-06
4.28629e-06 -3.24502e-06 -3.28812e-05
0.00259802 4.55025e-05 2.15277e-05
4.55025e-05 0.000885023 -3.44932e-06
2.15277e-05 -3.44932e-06 0.000894978
0.0007821 5.06923e-05 -3.84264e-07
5.06923e-05 -8.61108e-05 -6.63626e-07
-3.84264e-07 -6.63626e-07 -0.00016743
0.000855613 4.84238e-05 1.11753e-10
4.84238e-05 -2.70132e-05 -9.07806e-08
1.11753e-10 -9.07806e-08 -0.000104784
0.00109562 4.16423e-05 -1.47367e-06
4.16423e-05 9.11446e-05 -5.46839e-07
-1.47367e-06 -5.46839e-07 2.07349e-05
0.00102213 4.69917e-05 6.40561e-07
4.69917e-05 6.61061e-05 1.40028e-07
6.40561e-07 1.40028e-07 -8.86941e-06
0.001016 3.14488e-05 -3.46319e-08
3.14488e-05 6.28886e-05 -2.46151e-08
-3.46319e-08 -2.46151e-08 -6.02044e-06
0.000927342 3.47645e-06 -2.64893e-06
3.47645e-06 3.14984e-05 -1.52988e-06
-2.64893e-06 -1.52988e-06 -2.43653e-05
0.00103744 2.37397e-05 1.12037e-06
2.37397e-05 7.32257e-05 3.87367e-07
1.12037e-06 3.87367e-07 5.86738e-06
0.000908044 -1.01076e-06 7.71217e-08
-1.01076e-06 1.6826e-05 3.5159e-08
7.71217e-08 3.5159e-08 -3.63448e-05
0.000806509 -3.31549e-05 -3.92843e-06
-3.31549e-05 -2.27023e-05 -3.37859e-06
-3.92843e-06 -3.37859e-06 -4.35803e-05
0.000914823 -2.41896e-06 2.74107e-06
-2.41896e-06 1.20735e-05 2.11645e-06
2.74107e-06 2.11645e-06 -3.80153e-05
0.00079361 -2.85672e-05 -2.04662e-08
-2.85672e-05 -4.11058e-05 2.11273e-08
-2.04662e-08 2.11273e-08 -5.82317e-05
0.00259069 -4.21479e-05 -2.08195e-05
-4.21479e-05 0.000872319 -3.62937e-06
-2.08195e-05 -3.62937e-06 0.000883908
0.000799926 -2.41482e-05 3.91716e-06
-2.41482e-05 -4.77176e-05 3.7484e-06
3.91716e-06 3.7484e-06 -6.1573e-05
0.00258757 -3.83227e-05 -2.62125e-07
-3.83227e-05 0.000861137 7.61412e-08
-2.62125e-07 7.61412e-08 0.000874777
0.00255311 -3.44792e-05 1.87192e-05
-3.44792e-05 0.000836401 3.87145e-06
1.87192e-05 3.87145e-06 0.000851898
0.00160306 -1.37212e-05 -1.08529e-06
-1.37212e-05 1.70031e-05 1.17751e-06
-1.08529e-06 1.17751e-06 -3.46739e-05
0.00113362 -4.31515e-05 -1.11984e-07
-4.31515e-05 -0.000138886 -1.52892e-06
-1.11984e-07 -1.52892e-06 -0.000172986
0.000201616 -2.56405e-05 4.28355e-05
-2.56405e-05 -0.000256703 1.93426e-05
4.28355e-05 1.93426e-05 -0.000388822
0.00176679 7.48249e-05 7.50166e-07
7.48249e-05 0.000318002 -2.16899e-06
7.50166e-07 -2.16899e-06 0.000236382
0.00094159 5.47066e-05 -6.50626e-07
5.47066e-05 1.29941e-05 3.24654e-07
-6.50626e-07 3.24654e-07 -5.9444e-05
0.000790681 5.67201e-05 -2.47625e-06
5.67201e-05 -0.000169855 -7.06633e-07
-2.47625e-06 -7.06633e-07 -0.000256769
0.00129118 6.49966e-05 1.31806e-07
6.49966e-05 0.00013158 5.88512e-08
1.31806e-07 5.88512e-08 4.85318e-05
0.000643646 4.75295e-05 -7.74997e-07
4.75295e-05 -0.000118537 8.13672e-07
-7.74997e-07 8.13672e-07 -0.000197563
0.001625 7.18172e-05 -3.68668e-06
7.18172e-05 0.0001338 -4.29679e-06
-3.68668e-06 -4.29679e-06 3.93209e-05
0.00127962 6.47105e-05 4.70759e-07
6.47105e-05 0.000180827 -1.12485e-07
4.70759e-07 -1.12485e-07 0.000105366
0.00136195 7.64108e-05 1.02177e-07
7.64108e-05 0.000110788 2.05361e-07
1.02177e-07 2.05361e-07 2.27235e-05
0.00158877 3.03786e-05 -3.33302e-06
3.03786e-05 2.93306e-05 2.13369e-06
-3.33302e-06 2.13369e-06 -5.42447e-05
0.00137253 8.53211e-05 1.40207e-06
8.53211e-05 0.000121149 2.6364e-06
1.40207e-06 2.6364e-06 2.46394e-05
0.00146427 7.88606e-05 -1.05381e-06
7.88606e-05 2.52813e-05 -7.3123e-07
-1.05381e-06 -7.3123e-07 -7.81495e-05
0.00183228 2.97393e-05 -6.00012e-07
2.97393e-05 9.37759e-05 1.77585e-06
-6.00012e-07 1.77585e-06 1.21901e-05
0.00170765 8.74519e-05 4.7912e-06
8.74519e-05 0.000109948 2.96355e-06
4.7912e-06 2.96355e-06 -1.50517e-06
0.00148564 -8.94625e-06 -1.00827e-05
-8.94625e-06 -9.9871e-05 -6.54758e-06
-1.00827e-05 -6.54758e-06 -0.000139316
0.00167563 3.31396e-06 -2.4946e-06
3.31396e-06 0.000164941 -1.22591e-06
-2.4946e-06 -1.22591e-06 0.000108272
0.00136908 1.98933e-05 1.53745e-06
1.98933e-05 -1.83093e-05 6.15242e-07
1.53745e-06 6.15242e-07 -7.56383e-05
0.000506257 -8.06299e-06 1.60069e-06
-8.06299e-06 -0.000306614 2.61586e-06
1.60069e-06 2.61586e-06 -0.000357782
0.00205362 5.74606e-05 6.06318e-06
5.74606e-05 0.000160707 -2.5886e-06
6.06318e-06 -2.5886e-06 0.000103038
0.00217646 6.44736e-05 1.50306e-05
6.44736e-05 0.00034213 4.76568e-06
1.50306e-05 4.76568e-06 0.000265188
0.00178064 4.68734e-05 -2.94412e-06
4.68734e-05 0.000160012 -6.49639e-07
-2.94412e-06 -6.49639e-07 8.54258e-05
0.00148761 3.9431e-05 8.3374e-07
3.9431e-05 6.36178e-05 1.63182e-06
8.3374e-07 1.63182e-06 -1.03273e-06
0.00152161 3.81712e-05 -3.69077e-06
3.81712e-05 8.11372e-05 -2.26798e-06
-3.69077e-06 -2.26798e-06 1.01276e-05
0.00159401 1.01265e-05 -5.63242e-07
1.01265e-05 5.99331e-05 -2.37306e-06
-5.63242e-07 -2.37306e-06 4.45441e-06
0.00163953 2.12131e-05 1.14095e-08
2.12131e-05 0.000102649 -2.66023e-07
1.14095e-08 -2.66023e-07 3.02378e-05
0.00157205 2.44428e-05 -2.95104e-06
2.44428e-05 8.60913e-05 -5.80541e-07
-2.95104e-06 -5.80541e-07 9.27719e-06
0.00153047 -1.54457e-05 6.18012e-08
-1.54457e-05 6.4204e-05 -2.53724e-06
6.18012e-08 -2.53724e-06 5.78042e-06
0.00146538 -1.13534e-05 2.9163e-07
-1.13534e-05 4.53086e-05 2.95342e-07
2.9163e-07 2.95342e-07 -2.62859e-05
0.00146787 -1.18933e-05 -1.49529e-06
-1.18933e-05 6.27923e-05 1.11157e-06
-1.49529e-06 1.11157e-06 -1.37356e-05
0.00142302 -3.5383e-05 3.13288e-07
-3.5383e-05 5.43948e-05 -2.35183e-06
3.13288e-07 -2.35183e-06 -1.08492e-05
0.00140184 -3.72678e-05 1.62507e-07
-3.72678e-05 6.02017e-05 -4.21673e-09
1.62507e-07 -4.21673e-09 -1.22866e-05
0.00135694 -3.90364e-05 -1.13823e-06
-3.90364e-05 5.99011e-05 1.19994e-06
-1.13823e-06 1.19994e-06 -1.45552e-05
0.00133748 -4.48871e-05 1.92171e-08
-4.48871e-05 5.90437e-05 -1.537e-06
1.92171e-08 -1.537e-06 -8.95849e-06
0.00130695 -4.46227e-05 -2.31447e-09
-4.46227e-05 6.21445e-05 -2.1498e-07
-2.31447e-09 -2.1498e-07 -9.10974e-06
0.00122245 -4.01574e-05 -1.66109e-06
-4.01574e-05 4.85431e-05 9.74078e-07
-1.66109e-06 9.74078e-07 -2.10961e-05
0.0011308 -4.37735e-05 6.89899e-07
-4.37735e-05 -5.99187e-06 -7.12117e-07
6.89899e-07 -7.12117e-07 -7.54463e-05
0.00118095 -4.13259e-05 -2.72719e-08
-4.13259e-05 4.76644e-05 -3.96204e-08
-2.72719e-08 -3.96204e-08 -2.03264e-05
0.00101631 -2.76596e-05 -3.0117e-06
-2.76596e-05 1.29694e-05 1.49645e-06
-3.0117e-06 1.49645e-06 -4.62606e-05
0.000920459 -4.00259e-05 1.62736e-06
-4.00259e-05 -5.9896e-05 -9.79622e-07
1.62736e-06 -9.79622e-07 -0.000128721
0.000972089 -2.72472e-05 1.10341e-08
-2.72472e-05 1.22258e-05 6.35053e-08
1.10341e-08 6.35053e-08 -4.66214e-05
0.00165945 1.74595e-05 -5.93914e-06
1.74595e-05 0.0004221 1.79953e-06
-5.93914e-06 1.79953e-06 0.000392662
0.0011575 3.26283e-05 -2.39604e-05
3.26283e-05 0.000182369 5.73942e-06
-2.39604e-05 5.73942e-06 0.000174024
0.00122555 1.95923e-05 -9.26314e-07
1.95923e-05 0.000201533 -5.80156e-09
-9.26314e-07 -5.80156e-09 0.000173131
0.00095189 -2.44771e-05 2.79796e-06
-2.44771e-05 2.28287e-05 -1.6373e-06
2.79796e-06 -1.6373e-06 -3.56045e-05
0.00278822 5.32568e-05 2.52266e-07
5.32568e-05 0.000998811 9.87872e-08
2.52266e-07 9.87872e-08 0.0010037
0.000822623 2.45724e-05 4.86794e-06
2.45724e-05 -4.07607e-06 -3.21813e-06
4.86794e-06 -3.21813e-06 -3.10283e-05
0.0026623 4.90094e-05 2.26248e-05
4.90094e-05 0.000926697 -3.36371e-06
2.26248e-05 -3.36371e-06 0.00093422
0.00118094 5.98889e-05 -1.11563e-06
5.98889e-05 -1.02972e-05 -5.96304e-07
-1.11563e-06 -5.96304e-07 -9.02096e-05
0.00084685 5.41982e-05 4.70922e-07
5.41982e-05 -8.49977e-05 -1.59615e-07
4.70922e-07 -1.59615e-07 -0.00016869
0.000870538 5.30164e-05 -7.82695e-08
5.30164e-05 -4.73074e-05 -8.34817e-08
-7.82695e-08 -8.34817e-08 -0.000129111
0.00111536 4.72121e-05 -1.37927e-06
4.72121e-05 8.41896e-05 -7.76364e-07
-1.37927e-06 -7.76364e-07 1.24088e-05
0.000739741 4.59141e-05 4.87578e-07
4.59141e-05 -8.61651e-05 5.76222e-07
4.87578e-07 5.76222e-07 -0.000164228
0.00104113 3.92686e-05 -1.07595e-07
3.92686e-05 6.48902e-05 -3.28721e-08
-1.07595e-07 -3.28721e-08 -5.26738e-06
0.000939811 9.5987e-06 -2.64433e-06
9.5987e-06 3.89384e-05 -1.25225e-06
-2.64433e-06 -1.25225e-06 -1.88143e-05
0.000975361 2.97282e-05 1.34052e-06
2.97282e-05 4.34557e-05 5.50412e-07
1.34052e-06 5.50412e-07 -2.53702e-05
0.000895874 1.17324e-06 5.34926e-08
1.17324e-06 1.7694e-05 8.38487e-08
5.34926e-08 8.38487e-08 -3.8367e-05
0.00080246 -3.6027e-05 -3.92536e-06
-3.6027e-05 -1.43698e-05 -3.19041e-06
-3.92536e-06 -3.19041e-06 -3.91009e-05
0.000894377 -2.20327e-06 2.67285e-06
-2.20327e-06 1.18847e-05 1.81139e-06
2.67285e-06 1.81139e-06 -4.15421e-05
0.000769291 -3.2176e-05 1.58507e-08
-3.2176e-05 -4.18845e-05 1.4915e-09
1.58507e-08 1.4915e-09 -6.24819e-05
0.00261986 -4.5918e-05 -2.15694e-05
-4.5918e-05 0.000897212 -3.47043e-06
-2.15694e-05 -3.47043e-06 0.000906578
0.000772016 -2.76314e-05 4.22305e-06
-2.76314e-05 -5.28047e-05 3.63074e-06
4.22305e-06 3.63074e-06 -6.96389e-05
0.00262636 -4.23495e-05 -2.31948e-07
-4.23495e-05 0.00088863 8.11443e-08
-2.31948e-07 8.11443e-08 0.00090041
0.00261415 -3.84197e-05 1.99791e-05
-3.84197e-05 0.000873324 3.79628e-06
1.99791e-05 3.79628e-06 0.00088713
0.00158444 -2.03835e-05 -7.07095e-07
-2.03835e-05 6.18997e-05 1.95111e-06
-7.07095e-07 1.95111e-06 -1.6633e-06
0.00175125 -1.32374e-05 1.5547e-06
-1.32374e-05 9.94461e-05 -1.75193e-06
1.5547e-06 -1.75193e-06 4.67279e-05
0.00121659 -4.38734e-05 -3.36962e-06
-4.38734e-05 -6.27781e-05 -4.59022e-06
-3.36962e-06 -4.59022e-06 -9.61489e-05
0.00146212 6.42429e-05 -4.24122e-06
6.42429e-05 7.23983e-05 -3.15481e-06
-4.24122e-06 -3.15481e-06 -1.52071e-05
0.00148089 6.8866e-05 -1.00648e-07
6.8866e-05 0.000193923 4.12295e-07
-1.00648e-07 4.12295e-07 0.000114381
0.000815444 5.33365e-05 -3.19401e-06
5.33365e-05 -3.75033e-05 3.85268e-07
-3.19401e-06 3.85268e-07 -0.000107014
0.00130448 6.59864e-05 8.39927e-07
6.59864e-05 7.68875e-05 9.30466e-07
8.39927e-07 9.30466e-07 -8.39159e-06
0.00130094 6.51435e-05 -1.42141e-06
6.51435e-05 0.00013523 7.3931e-07
-1.42141e-06 7.3931e-07 5.16879e-05
0.0016731 2.69066e-05 -2.7421e-06
2.69066e-05 9.03627e-05 8.82045e-07
-2.7421e-06 8.82045e-07 1.75147e-06
0.00158852 7.2756e-05 -1.46857e-06
7.2756e-05 0.000113677 -1.34334e-06
-1.46857e-06 -1.34334e-06 1.74302e-05
0.00135794 7.51698e-05 1.38243e-06
7.51698e-05 0.000104202 4.34554e-06
1.38243e-06 4.34554e-06 1.6378e-05
0.00167212 2.87111e-05 -3.70546e-07
2.87111e-05 6.8784e-05 8.18624e-07
-3.70546e-07 8.18624e-07 -1.53274e-05
0.00187214 8.72499e-05 4.29853e-06
8.72499e-05 0.000216151 2.22551e-06
4.29853e-06 2.22551e-06 0.000112266
0.00180236 2.63364e-05 6.35729e-06
2.63364e-05 8.60172e-05 1.93102e-07
6.35729e-06 1.93102e-07 2.81958e-06
0.00130263 2.80581e-06 -2.11761e-06
2.80581e-06 -6.36722e-06 -2.6479e-07
-2.11761e-06 -2.6479e-07 -7.13075e-05
0.00148793 4.66859e-06 -2.47919e-07
4.66859e-06 7.14519e-05 -5.56262e-07
-2.47919e-07 -5.56262e-07 1.43295e-05
0.000753111 1.32884e-05 7.24015e-06
1.32884e-05 -0.000329864 5.37868e-06
7.24015e-06 5.37868e-06 -0.000386324
0.00202339 5.08144e-05 5.25667e-06
5.08144e-05 0.000268057 -8.84928e-07
5.25667e-06 -8.84928e-07 0.000193578
0.0016 3.95753e-05 7.16774e-06
3.95753e-05 0.00012343 4.81657e-06
7.16774e-06 4.81657e-06 5.92291e-05
0.00159505 3.89419e-05 -1.08715e-06
3.89419e-05 0.000116152 -3.53797e-07
-1.08715e-06 -3.53797e-07 4.55529e-05
0.00148619 3.24554e-05 -1.68712e-06
3.24554e-05 7.69925e-05 -9.48934e-07
-1.68712e-06 -9.48934e-07 2.36409e-06
0.00164605 2.03079e-05 2.25259e-06
2.03079e-05 0.000102883 -8.0829e-07
2.25259e-06 -8.0829e-07 3.1494e-05
0.00156524 2.2404e-05 -4.49757e-07
2.2404e-05 8.02208e-05 -7.59156e-08
-4.49757e-07 -7.59156e-08 3.5863e-06
0.00145425 1.56488e-05 -2.76921e-06
1.56488e-05 4.53126e-05 -9.73914e-07
-2.76921e-06 -9.73914e-07 -3.17003e-05
0.00152099 -1.1518e-05 1.16996e-06
-1.1518e-05 7.32378e-05 -1.06678e-06
1.16996e-06 -1.06678e-06 1.16821e-06
0.0014681 -1.23788e-05 5.84919e-08
-1.23788e-05 6.24949e-05 3.7131e-07
5.84919e-08 3.7131e-07 -1.41536e-05
0.00142112 -1.90468e-05 -1.8518e-06
-1.90468e-05 6.3369e-05 7.43108e-07
-1.8518e-06 7.43108e-07 -1.35276e-05
0.00141206 -3.63733e-05 9.88048e-07
-3.63733e-05 6.45432e-05 -1.6011e-06
9.88048e-07 -1.6011e-06 -8.00152e-06
0.00136305 -3.87209e-05 8.70493e-08
-3.87209e-05 6.23262e-05 6.46506e-08
8.70493e-08 6.46506e-08 -1.21862e-05
0.00127187 -3.621e-05 -1.91858e-06
-3.621e-05 4.89332e-05 1.12262e-06
-1.91858e-06 1.12262e-06 -2.3267e-05
0.00130511 -4.42844e-05 7.78212e-07
-4.42844e-05 6.09665e-05 -1.23507e-06
7.78212e-07 -1.23507e-06 -1.02704e-05
0.0012242 -3.9831e-05 -1.63282e-08
-3.9831e-05 4.91785e-05 -1.06752e-07
-1.63282e-08 -1.06752e-07 -2.04327e-05
0.00105592 -2.79489e-05 -3.17411e-06
-2.79489e-05 1.41644e-05 1.59209e-06
-3.17411e-06 1.59209e-06 -4.67908e-05
0.00116735 -4.07007e-05 1.57022e-06
-4.07007e-05 4.11957e-05 -9.55274e-07
1.57022e-06 -9.55274e-07 -2.67168e-05
0.00100842 -2.73375e-05 3.39707e-08
-2.73375e-05 9.76189e-06 -1.97369e-08
3.39707e-08 -1.97369e-08 -4.95435e-05
0.00170041 1.09893e-05 -6.24951e-06
1.09893e-05 0.000439647 1.72643e-06
-6.24951e-06 1.72643e-06 0.000407614
0.000970947 -2.75932e-05 2.91816e-06
-2.75932e-05 1.2308e-05 -1.46877e-06
2.91816e-06 -1.46877e-06 -4.65902e-05
0.00170243 1.41317e-05 5.03481e-06
1.41317e-05 0.000439969 -9.42023e-07
5.03481e-06 -9.42023e-07 0.000410508
0.00120006 3.18473e-05 -2.70761e-05
3.18473e-05 0.000217573 5.58323e-06
-2.70761e-05 5.58323e-06 0.000204327
0.00203768 4.43418e-05 -1.73143e-05
4.43418e-05 0.000629098 1.75587e-06
-1.73143e-05 1.75587e-06 0.000625691
0.00172849 1.99037e-05 1.36485e-05
1.99037e-05 0.000452027 -2.66152e-06
1.36485e-05 -2.66152e-06 0.000426428
0.00278225 5.25247e-05 2.44458e-05
5.25247e-05 0.000997511 -3.31702e-06
2.44458e-05 -3.31702e-06 0.00100192
0.00146555 5.8988e-05 -3.29408e-06
5.8988e-05 7.18201e-05 -2.27215e-06
-3.29408e-06 -2.27215e-06 -1.16235e-05
0.00139452 6.3088e-05 1.33515e-06
6.3088e-05 0.000140321 -4.38471e-07
1.33515e-06 -4.38471e-07 6.08149e-05
0.00116748 5.94927e-05 9.69454e-07
5.94927e-05 -7.03025e-06 5.71764e-07
9.69454e-07 5.71764e-07 -8.25909e-05
0.00112452 5.18353e-05 -1.35556e-06
5.18353e-05 7.08867e-05 -1.21293e-06
-1.35556e-06 -1.21293e-06 -4.2896e-06
0.00111834 6.07343e-05 -3.27279e-07
6.07343e-05 4.29867e-05 1.55424e-07
-3.27279e-07 1.55424e-07 -4.06418e-05
0.00100517 5.65604e-05 3.65071e-07
5.65604e-05 1.34865e-05 7.2034e-07
3.65071e-07 7.2034e-07 -6.88019e-05
0.00108612 4.63939e-05 -5.60438e-08
4.63939e-05 7.26154e-05 -1.05189e-07
-5.60438e-08 -1.05189e-07 6.35131e-07
0.000957772 1.84164e-05 -2.51522e-06
1.84164e-05 4.16016e-05 -1.26007e-06
-2.51522e-06 -1.26007e-06 -1.77954e-05
0.000989462 3.7074e-05 1.12815e-06
3.7074e-05 4.00422e-05 4.16833e-07
1.12815e-06 4.16833e-07 -2.98778e-05
0.000900466 6.84173e-06 -1.96763e-08
6.84173e-06 2.03466e-05 9.10659e-08
-1.96763e-08 9.10659e-08 -3.74737e-05
0.000802935 -2.77165e-05 -4.74713e-06
-2.77165e-05 -6.9993e-06 -2.91502e-06
-4.74713e-06 -2.91502e-06 -3.52689e-05
0.000870811 -9.3951e-07 2.50565e-06
-9.3951e-07 7.01556e-06 1.6212e-06
2.50565e-06 1.6212e-06 -4.92514e-05
0.000748961 -3.488e-05 -9.29477e-09
-3.488e-05 -4.08143e-05 -1.15999e-08
-9.29477e-09 -1.15999e-08 -6.53489e-05
0.00265329 -4.9395e-05 -2.25326e-05
-4.9395e-05 0.000926158 -3.32619e-06
-2.25326e-05 -3.32619e-06 0.000932875
0.000731395 -3.11108e-05 4.23112e-06
-3.11108e-05 -6.14364e-05 3.49103e-06
4.23112e-06 3.49103e-06 -8.17408e-05
0.00265739 -4.62692e-05 -2.10546e-07
-4.62692e-05 0.000913989 8.3806e-08
-2.10546e-07 8.3806e-08 0.000923629
0.00266036 -4.24978e-05 2.08278e-05
-4.24978e-05 0.000904132 3.65892e-06
2.08278e-05 3.65892e-06 0.000916108
0.00153033 -1.75708e-05 -2.31776e-06
-1.75708e-05 5.03201e-05 2.26304e-06
-2.31776e-06 2.26304e-06 -2.35785e-05
0.00159661 -1.90834e-05 3.6461e-07
-1.90834e-05 6.94045e-05 -5.5087e-07
3.6461e-07 -5.5087e-07 5.28937e-06
0.00202036 -1.33902e-05 3.79641e-06
-1.33902e-05 0.000240372 -3.76913e-06
3.79641e-06 -3.76913e-06 0.000186372
0.00139674 2.90225e-05 -2.58196e-06
2.90225e-05 -2.11045e-05 2.17835e-07
-2.58196e-06 2.17835e-07 -0.00010723
0.00151725 6.53815e-05 1.99833e-07
6.53815e-05 0.000101477 -5.15711e-07
1.99833e-07 -5.15711e-07 1.35614e-05
0.00131374 6.52016e-05 -1.24174e-06
6.52016e-05 0.000125985 1.8219e-06
-1.24174e-06 1.8219e-06 4.86233e-05
0.00174402 7.39662e-05 1.69911e-06
7.39662e-05 0.000286988 1.30541e-06
1.69911e-06 1.30541e-06 0.000203459
0.00173786 2.8616e-05 -1.72972e-07
2.8616e-05 0.000121972 -1.77361e-07
-1.72972e-07 -1.77361e-07 3.35065e-05
0.00156892 7.37131e-05 2.62342e-06
7.37131e-05 0.000100809 2.14984e-06
2.62342e-06 2.14984e-06 2.95889e-06
0.00172564 2.63185e-05 3.68833e-06
2.63185e-05 9.39826e-05 -9.71037e-08
3.68833e-06 -9.71037e-08 9.32789e-06
0.0014344 1.99185e-06 -3.82924e-07
1.99185e-06 5.59023e-05 2.99112e-07
-3.82924e-07 2.99112e-07 -1.59389e-05
0.00138054 4.25126e-06 5.5427e-08
4.25126e-06 2.71758e-05 -1.74176e-07
5.5427e-08 -1.74176e-07 -3.93688e-05
0.00133889 6.65031e-06 1.91936e-06
6.65031e-06 -2.56864e-06 9.18556e-07
1.91936e-06 9.18556e-07 -6.02662e-05
0.00151408 3.22979e-05 -1.06974e-06
3.22979e-05 0.000100366 -2.2628e-07
-1.06974e-06 -2.2628e-07 2.21046e-05
0.00166243 3.95835e-05 3.55419e-06
3.95835e-05 0.000148273 1.50999e-06
3.55419e-06 1.50999e-06 7.80951e-05
0.00148422 3.26878e-05 2.70526e-07
3.26878e-05 7.54774e-05 2.0111e-07
2.70526e-07 2.0111e-07 4.14294e-07
0.0015234 2.93116e-05 -1.30747e-06
2.93116e-05 9.44196e-05 -4.54824e-07
-1.30747e-06 -4.54824e-07 1.80975e-05
0.00158278 2.06802e-05 2.13907e-06
2.06802e-05 8.6172e-05 2.58461e-07
2.13907e-06 2.58461e-07 9.70165e-06
0.00149023 1.55966e-05 -6.4888e-07
1.55966e-05 6.2288e-05 -1.94012e-07
-6.4888e-07 -1.94012e-07 -1.46011e-05
0.00142983 1.01336e-05 -2.80217e-06
1.01336e-05 5.68899e-05 -4.44284e-07
-2.80217e-06 -4.44284e-07 -2.08239e-05
0.00147122 -1.22206e-05 2.20651e-06
-1.22206e-05 6.35825e-05 -3.90139e-07
2.20651e-06 -3.90139e-07 -1.31851e-05
0.00141474 -1.77801e-05 4.80303e-08
-1.77801e-05 6.0464e-05 1.6264e-07
4.80303e-08 1.6264e-07 -1.65336e-05
0.00133048 -2.45843e-05 -2.44899e-06
-2.45843e-05 5.38373e-05 7.4978e-07
-2.44899e-06 7.4978e-07 -1.99988e-05
0.00137032 -3.83644e-05 1.51359e-06
-3.83644e-05 6.53062e-05 -1.07815e-06
1.51359e-06 -1.07815e-06 -9.25862e-06
0.00127557 -3.59404e-05 3.39309e-08
-3.59404e-05 5.04771e-05 8.16116e-08
3.39309e-08 8.16116e-08 -2.1749e-05
0.00110579 -2.6426e-05 -3.60397e-06
-2.6426e-05 1.9578e-05 1.72223e-06
-3.60397e-06 1.72223e-06 -4.3779e-05
0.00122536 -3.94371e-05 1.69078e-06
-3.94371e-05 4.95354e-05 -1.17756e-06
1.69078e-06 -1.17756e-06 -2.00451e-05
0.00105233 -2.73032e-05 1.23964e-07
-2.73032e-05 1.22891e-05 -7.17004e-08
1.23964e-07 -7.17004e-08 -4.87359e-05
0.00173455 6.45937e-06 -6.29657e-06
6.45937e-06 0.000452602 1.73634e-06
-6.29657e-06 1.73634e-06 0.000418822
0.00100175 -2.70524e-05 2.97384e-06
-2.70524e-05 7.15515e-06 -1.45178e-06
2.97384e-06 -1.45178e-06 -5.22269e-05
0.00175077 8.0089e-06 5.50197e-06
8.0089e-06 0.000461035 -8.31827e-07
5.50197e-06 -8.31827e-07 0.000429079
0.00122876 3.08967e-05 -2.93421e-05
3.08967e-05 0.000243843 5.10279e-06
-2.93421e-05 5.10279e-06 0.000227176
0.00174874 1.07958e-05 1.66112e-05
1.07958e-05 0.000459479 -3.78886e-06
1.66112e-05 -3.78886e-06 0.000430029
0.00118405 3.5369e-05 -1.04643e-05
3.5369e-05 0.000211363 2.0407e-06
-1.04643e-05 2.0407e-06 0.00019796
0.00288809 6.16374e-05 1.02629e-05
6.16374e-05 0.00106181 -1.29879e-06
1.02629e-05 -1.29879e-06 0.00106279
0.00168875 3.72281e-05 -2.62465e-06
3.72281e-05 0.000151351 -7.46978e-07
-2.62465e-06 -7.46978e-07 6.5343e-05
0.00147643 5.75772e-05 -1.299e-06
5.75772e-05 0.000112089 -2.02405e-06
-1.299e-06 -2.02405e-06 3.14725e-05
0.0015151 6.06091e-05 -1.24936e-06
6.06091e-05 0.000104989 9.7966e-07
-1.24936e-06 9.7966e-07 2.22325e-05
0.0014447 5.8413e-05 -9.34264e-07
5.8413e-05 0.00019376 -5.83497e-07
-9.34264e-07 -5.83497e-07 0.000118665
0.00125896 6.1194e-05 4.14587e-07
6.1194e-05 7.26907e-05 -8.34857e-07
4.14587e-07 -8.34857e-07 -6.62472e-06
0.00122436 6.02067e-05 2.70795e-06
6.02067e-05 3.092e-05 1.67107e-06
2.70795e-06 1.67107e-06 -4.04426e-05
0.000989905 3.09316e-05 -2.61105e-06
3.09316e-05 4.23968e-05 -1.6189e-06
-2.61105e-06 -1.6189e-06 -2.02851e-05
0.00111866 5.19466e-05 -5.4197e-08
5.19466e-05 6.76986e-05 -7.96294e-08
-5.4197e-08 -7.96294e-08 -7.49755e-06
0.00135465 6.639e-05 1.38227e-06
6.639e-05 0.000154959 1.34044e-06
1.38227e-06 1.34044e-06 7.12947e-05
0.00103494 4.4901e-05 1.12597e-06
4.4901e-05 5.03596e-05 4.82013e-07
1.12597e-06 4.82013e-07 -2.17847e-05
0.000924844 1.73543e-05 -3.10403e-08
1.73543e-05 2.66541e-05 -3.62237e-08
-3.10403e-08 -3.62237e-08 -3.27635e-05
0.000806356 -1.47901e-05 -5.22243e-06
-1.47901e-05 -2.20035e-06 -2.87598e-06
-5.22243e-06 -2.87598e-06 -3.43708e-05
0.000858423 4.26405e-06 2.38882e-06
4.26405e-06 2.96248e-07 1.28594e-06
2.38882e-06 1.28594e-06 -5.75557e-05
0.000741747 -3.07432e-05 -2.12434e-07
-3.07432e-05 -3.56677e-05 -2.25882e-08
-2.12434e-07 -2.25882e-08 -6.40971e-05
0.00272386 -5.27339e-05 -2.40268e-05
-5.27339e-05 0.000975756 -3.17093e-06
-2.40268e-05 -3.17093e-06 0.000979277
0.000694584 -3.37371e-05 4.10646e-06
-3.37371e-05 -6.76964e-05 3.35305e-06
4.10646e-06 3.35305e-06 -9.20288e-05
0.00268866 -4.99187e-05 -2.27197e-07
-4.99187e-05 0.00094134 8.75102e-08
-2.27197e-07 8.75102e-08 0.000948449
0.00269456 -4.65325e-05 2.14408e-05
-4.65325e-05 0.000930624 3.48111e-06
2.14408e-05 3.48111e-06 0.00094054
0.00156067 -8.26446e-06 -1.23572e-06
-8.26446e-06 7.23847e-05 1.04682e-06
-1.23572e-06 1.04682e-06 -4.16153e-06
0.00164753 -1.69672e-05 -1.0184e-07
-1.69672e-05 0.000100323 6.02853e-07
-1.0184e-07 6.02853e-07 2.55334e-05
0.00157289 -1.77447e-05 2.13459e-06
-1.77447e-05 5.97454e-05 -2.93055e-06
2.13459e-06 -2.93055e-06 -4.92043e-06
0.00154028 2.99649e-05 2.90372e-07
2.99649e-05 4.34535e-05 -1.18285e-07
2.90372e-07 -1.18285e-07 -4.23688e-05
0.00158891 6.68598e-05 2.13355e-06
6.68598e-05 0.000139273 1.44252e-06
2.13355e-06 1.44252e-06 5.09336e-05
0.00184697 2.98453e-05 2.94371e-06
2.98453e-05 0.00017478 -5.29514e-07
2.94371e-06 -5.29514e-07 8.65082e-05
0.00146495 2.1041e-06 -1.15938e-06
2.1041e-06 6.85058e-05 3.37962e-07
-1.15938e-06 3.37962e-07 -9.27079e-06
0.00141758 4.20217e-06 5.49946e-07
4.20217e-06 5.02857e-05 -2.07193e-07
5.49946e-07 -2.07193e-07 -2.18581e-05
0.00147974 5.53886e-06 1.99221e-06
5.53886e-06 7.07942e-05 8.96143e-08
1.99221e-06 8.96143e-08 2.65441e-06
0.00147211 2.39787e-05 -6.02484e-07
2.39787e-05 8.03516e-05 -1.338e-07
-6.02484e-07 -1.338e-07 2.3334e-06
0.00151169 2.20951e-05 -6.68343e-07
2.20951e-05 0.000103305 5.32111e-08
-6.68343e-07 5.32111e-08 2.27651e-05
0.00147039 3.28949e-05 2.13583e-06
3.28949e-05 6.83098e-05 8.34323e-07
2.13583e-06 8.34323e-07 -7.19794e-06
0.00149592 2.88743e-05 4.00931e-07
2.88743e-05 8.21958e-05 2.76021e-07
4.00931e-07 2.76021e-07 5.80311e-06
0.00152288 2.54432e-05 -1.1023e-06
2.54432e-05 0.000107123 -3.01134e-07
-1.1023e-06 -3.01134e-07 2.98867e-05
0.00152422 1.48899e-05 1.98506e-06
1.48899e-05 7.8336e-05 5.43441e-07
1.98506e-06 5.43441e-07 1.56922e-06
0.00143992 8.93116e-06 -5.76058e-07
8.93116e-06 6.13517e-05 -1.85555e-08
-5.76058e-07 -1.85555e-08 -1.61842e-05
0.00134883 1.90429e-06 -3.34411e-06
1.90429e-06 5.12698e-05 2.46268e-07
-3.34411e-06 2.46268e-07 -2.35551e-05
0.00141013 -1.802e-05 1.91544e-06
-1.802e-05 5.83138e-05 -4.02668e-07
1.91544e-06 -4.02668e-07 -1.87667e-05
0.00132497 -2.38817e-05 7.2479e-08
-2.38817e-05 5.12029e-05 8.67516e-08
7.2479e-08 8.67516e-08 -2.2707e-05
0.00113533 -1.81202e-05 -4.12819e-06
-1.81202e-05 1.61462e-05 1.43612e-06
-4.12819e-06 1.43612e-06 -4.83578e-05
0.00128009 -3.56253e-05 2.1406e-06
-3.56253e-05 5.24076e-05 -9.52387e-07
2.1406e-06 -9.52387e-07 -1.98425e-05
0.00110099 -2.57028e-05 1.69148e-07
-2.57028e-05 1.65529e-05 5.58012e-08
1.69148e-07 5.58012e-08 -4.68425e-05
0.00180725 6.015e-06 -6.50621e-06
6.015e-06 0.000481929 1.78807e-06
-6.50621e-06 1.78807e-06 0.000447171
0.00104948 -2.67193e-05 3.213e-06
-2.67193e-05 1.08167e-05 -1.60147e-06
3.213e-06 -1.60147e-06 -5.02859e-05
0.00180378 3.22947e-06 6.10745e-06
3.22947e-06 0.00048346 -6.95885e-07
6.10745e-06 -6.95885e-07 0.000449762
0.00125387 2.90153e-05 -3.1863e-05
2.90153e-05 0.00026519 4.51512e-06
-3.1863e-05 4.51512e-06 0.000246213
0.00180401 4.61027e-06 1.78115e-05
4.61027e-06 0.000483769 -3.56037e-06
1.78115e-05 -3.56037e-06 0.000451931
0.00122503 3.53871e-05 -1.14562e-05
3.53871e-05 0.000244191 1.8006e-06
-1.14562e-05 1.8006e-06 0.000227124
0.00116246 3.92832e-05 6.85206e-06
3.92832e-05 0.000202443 -1.51488e-06
6.85206e-06 -1.51488e-06 0.000188843
0.00151675 2.6467e-06 -1.45873e-06
2.6467e-06 5.72815e-05 1.17346e-06
-1.45873e-06 1.17346e-06 -1.98892e-05
0.00148364 3.9525e-05 -2.63499e-06
3.9525e-05 7.90027e-05 -4.63868e-07
-2.63499e-06 -4.63868e-07 -4.13323e-06
0.0016174 3.66829e-05 -9.71814e-07
3.66829e-05 0.000112506 -7.54907e-07
-9.71814e-07 -7.54907e-07 2.62862e-05
0.00140328 5.3834e-05 -1.98415e-06
5.3834e-05 0.000122894 -9.70383e-07
-1.98415e-06 -9.70383e-07 4.68202e-05
0.00153067 5.84847e-05 7.1358e-07
5.84847e-05 0.000142771 4.86593e-07
7.1358e-07 4.86593e-07 6.25139e-05
0.00151146 6.12528e-05 3.61153e-06
6.12528e-05 0.000112448 2.53912e-06
3.61153e-06 2.53912e-06 3.04351e-05
0.000971315 3.63648e-05 -3.02243e-06
3.63648e-05 3.21129e-06 -1.46182e-06
-3.02243e-06 -1.46182e-06 -6.177e-05
0.00116555 5.37472e-05 8.17892e-07
5.37472e-05 5.4319e-05 5.24268e-07
8.17892e-07 5.24268e-07 -2.17631e-05
0.00110769 5.90326e-05 1.32314e-06
5.90326e-05 -3.38764e-06 1.53379e-06
1.32314e-06 1.53379e-06 -8.23868e-05
0.000816374 1.89248e-06 -5.84948e-06
1.89248e-06 1.44138e-06 -3.1903e-06
-5.84948e-06 -3.1903e-06 -3.55725e-05
0.00095591 2.93592e-05 -9.76659e-08
2.93592e-05 2.54491e-05 -9.91288e-08
-9.76659e-08 -9.91288e-08 -3.70451e-05
0.0011218 5.22962e-05 1.36505e-06
5.22962e-05 6.88961e-05 1.06778e-06
1.36505e-06 1.06778e-06 -6.3326e-06
0.000875835 1.57599e-05 2.3029e-06
1.57599e-05 3.81943e-06 1.06317e-06
2.3029e-06 1.06317e-06 -5.55979e-05
0.000746959 -1.78201e-05 -4.64072e-08
-1.78201e-05 -2.75462e-05 -6.28341e-08
-4.64072e-08 -6.28341e-08 -6.0151e-05
0.00285308 -5.57554e-05 -2.64763e-05
-5.57554e-05 0.00105585 -3.05603e-06
-2.64763e-05 -3.05603e-06 0.0010557
0.000683809 -3.5599e-05 4.05028e-06
-3.5599e-05 -6.22842e-05 3.15743e-06
4.05028e-06 3.15743e-06 -9.11261e-05
0.00273158 -5.33046e-05 -2.82141e-07
-5.33046e-05 0.000976885 9.40069e-08
-2.82141e-07 9.40069e-08 0.000980948
0.00272793 -5.03905e-05 2.20842e-05
-5.03905e-05 0.000958444 3.30299e-06
2.20842e-05 3.30299e-06 0.000965941
0.00154564 -1.46261e-05 -9.64589e-07
-1.46261e-05 8.3437e-05 -4.0958e-07
-9.64589e-07 -4.0958e-07 5.20609e-06
0.0015982 -8.68313e-06 -3.53005e-07
-8.68313e-06 8.84985e-05 2.28534e-07
-3.53005e-07 2.28534e-07 1.16443e-05
0.00167299 -1.60755e-05 1.31528e-06
-1.60755e-05 0.000106801 -1.48455e-06
1.31528e-06 -1.48455e-06 3.10157e-05
0.00165372 3.05351e-05 3.01028e-06
3.05351e-05 9.32587e-05 -7.46542e-08
3.01028e-06 -7.46542e-08 7.77301e-06
0.00146976 -1.09872e-06 -1.16675e-06
-1.09872e-06 6.89695e-05 -4.11017e-07
-1.16675e-06 -4.11017e-07 -1.2411e-05
0.00150137 2.20896e-06 -2.56174e-07
2.20896e-06 8.63116e-05 -1.44427e-07
-2.56174e-07 -1.44427e-07 8.94934e-06
0.00139418 6.34044e-06 1.10977e-06
6.34044e-06 4.12926e-05 -3.29187e-08
1.10977e-06 -3.29187e-08 -3.11265e-05
0.0014325 1.9122e-05 -4.5707e-08
1.9122e-05 6.15968e-05 -7.80682e-08
-4.5707e-08 -7.80682e-08 -1.63176e-05
0.00146583 2.65019e-05 6.78144e-08
2.65019e-05 8.05019e-05 -1.91719e-07
6.78144e-08 -1.91719e-07 -1.30024e-07
0.00147906 2.35267e-05 -1.70672e-06
2.35267e-05 9.54248e-05 2.90698e-07
-1.70672e-06 2.90698e-07 1.60685e-05
0.00147303 2.84929e-05 2.1356e-06
2.84929e-05 7.21533e-05 1.0704e-06
2.1356e-06 1.0704e-06 -4.30701e-06
0.00150531 2.56447e-05 4.53756e-07
2.56447e-05 0.000100365 1.58593e-07
4.53756e-07 1.58593e-07 2.32684e-05
0.0013022 2.24506e-05 -2.6284e-06
2.24506e-05 2.55097e-05 -1.44744e-07
-2.6284e-06 -1.44744e-07 -5.00116e-05
0.00144298 9.22003e-06 1.52794e-06
9.22003e-06 6.25416e-05 4.27918e-07
1.52794e-06 4.27918e-07 -1.48382e-05
0.00134551 3.50512e-06 -2.93962e-07
3.50512e-06 4.94483e-05 1.24015e-07
-2.93962e-07 1.24015e-07 -2.52772e-05
0.00114494 -4.95011e-08 -4.43644e-06
-4.95011e-08 1.02685e-05 9.68098e-07
-4.43644e-06 9.68098e-07 -5.44915e-05
0.00131922 -2.1032e-05 2.50829e-06
-2.1032e-05 4.85003e-05 -5.34976e-07
2.50829e-06 -5.34976e-07 -2.54583e-05
0.00113538 -1.95029e-05 9.00056e-08
-1.95029e-05 1.57806e-05 1.36834e-07
9.00056e-08 1.36834e-07 -4.8801e-05
0.000705153 -5.15452e-06 -6.85515e-06
-5.15452e-06 -8.3038e-05 2.67336e-06
-6.85515e-06 2.67336e-06 -0.000123416
0.00109884 -2.50816e-05 3.7314e-06
-2.50816e-05 1.48394e-05 -1.4962e-06
3.7314e-06 -1.4962e-06 -4.86029e-05
0.00129482 -6.51086e-06 7.99604e-06
-6.51086e-06 0.000219978 -3.98314e-07
7.99604e-06 -3.98314e-07 0.000182625
0.00358705 7.04716e-05 -3.51658e-05
7.04716e-05 0.00144801 1.887e-06
-3.51658e-05 1.887e-06 0.00143926
0.0018715 -4.0873e-07 1.94086e-05
-4.0873e-07 0.000513449 -3.35263e-06
1.94086e-05 -3.35263e-06 0.000479913
0.00126696 3.4927e-05 -1.27281e-05
3.4927e-05 0.000274488 1.51691e-06
-1.27281e-05 1.51691e-06 0.000254827
0.00121792 4.05118e-05 7.14995e-06
4.05118e-05 0.000242947 -1.4804e-06
7.14995e-06 -1.4804e-06 0.00022541
0.00158611 -7.80219e-06 -6.13664e-07
-7.80219e-06 0.000105965 -1.51061e-08
-6.13664e-07 -1.51061e-08 2.92034e-05
0.00136505 1.06482e-05 -1.77526e-06
1.06482e-05 1.19432e-05 8.04449e-07
-1.77526e-06 8.04449e-07 -6.64888e-05
0.00152755 2.59255e-06 8.838e-08
2.59255e-06 6.5487e-05 -6.56477e-08
8.838e-08 -6.56477e-08 -1.1737e-05
0.00106754 3.80742e-05 -2.95499e-06
3.80742e-05 -8.16777e-05 -8.3129e-07
-2.95499e-06 -8.3129e-07 -0.00016008
0.00150461 3.96844e-05 1.29374e-07
3.96844e-05 9.16072e-05 -3.15026e-08
1.29374e-07 -3.15026e-08 9.21519e-06
0.00154201 3.62639e-05 1.94593e-06
3.62639e-05 7.19895e-05 -4.48055e-07
1.94593e-06 -4.48055e-07 -1.44825e-05
0.000702713 3.17001e-05 -4.5108e-06
3.17001e-05 -0.000168922 -1.83768e-06
-4.5108e-06 -1.83768e-06 -0.000236336
0.00140498 5.43991e-05 4.73779e-07
5.43991e-05 0.000123037 5.66996e-09
4.73779e-07 5.66996e-09 4.69204e-05
0.0015838 5.94684e-05 2.48035e-06
5.94684e-05 0.000173622 1.78126e-06
2.48035e-06 1.78126e-06 9.36201e-05
0.000797287 1.56189e-05 -6.65987e-06
1.56189e-05 -1.71804e-05 -3.31884e-06
-6.65987e-06 -3.31884e-06 -5.82563e-05
0.000817164 3.33149e-05 -1.14566e-07
3.33149e-05 -7.56587e-05 8.67619e-08
-1.14566e-07 8.67619e-08 -0.000141442
0.000890076 4.91482e-05 2.51528e-06
4.91482e-05 -8.3375e-05 1.83719e-06
2.51528e-06 1.83719e-06 -0.000160442
0.00312098 -5.76682e-05 -3.14123e-05
-5.76682e-05 0.00120277 -2.96739e-06
-3.14123e-05 -2.96739e-06 0.00119882
0.000744015 -8.84825e-07 -1.3646e-07
-8.84825e-07 -2.96095e-05 -5.25189e-08
-1.3646e-07 -5.25189e-08 -6.688e-05
0.0009288 2.77954e-05 2.34061e-06
2.77954e-05 1.18909e-05 1.43518e-06
2.34061e-06 1.43518e-06 -5.0427e-05
0.000684152 -1.99269e-05 4.55647e-06
-1.99269e-05 -5.45328e-05 3.01625e-06
4.55647e-06 3.01625e-06 -8.74317e-05
0.00284595 -5.69814e-05 -3.13718e-07
-5.69814e-05 0.00104967 1.14164e-07
-3.13718e-07 1.14164e-07 0.00105009
0.00276286 -5.39137e-05 2.29164e-05
-5.39137e-05 0.000989288 3.13673e-06
2.29164e-05 3.13673e-06 0.000993901
0.00150784 -1.46952e-05 -1.59165e-06
-1.46952e-05 7.75925e-05 -2.78668e-07
-1.59165e-06 -2.78668e-07 -1.35093e-06
0.00154062 -1.45341e-05 -3.26574e-07
-1.45341e-05 8.23312e-05 -2.48099e-07
-3.26574e-07 -2.48099e-07 4.40068e-06
0.00165206 -9.02775e-06 1.20997e-06
-9.02775e-06 0.000112596 -9.72741e-07
1.20997e-06 -9.72741e-07 3.54277e-05
0.00153411 1.30583e-05 -1.56094e-06
1.30583e-05 0.000103767 -9.38862e-09
-1.56094e-06 -9.38862e-09 2.13579e-05
0.0014947 2.38458e-06 -3.12208e-07
2.38458e-06 8.01834e-05 -2.59111e-07
-3.12208e-07 -2.59111e-07 -1.56607e-06
0.00155459 -6.42794e-07 2.05838e-07
-6.42794e-07 0.000112219 1.07363e-08
2.05838e-07 1.07363e-08 3.53597e-05
0.00141298 2.93414e-05 9.73876e-07
2.93414e-05 5.42187e-05 -6.9241e-07
9.73876e-07 -6.9241e-07 -2.64176e-05
0.00147222 2.56175e-05 2.88531e-07
2.56175e-05 9.14344e-05 1.21626e-07
2.88531e-07 1.21626e-07 1.21662e-05
0.00148798 1.97617e-05 -2.18666e-06
1.97617e-05 0.00011934 4.45838e-07
-2.18666e-06 4.45838e-07 4.41543e-05
0.00149256 2.58692e-05 2.28595e-06
2.58692e-05 9.58799e-05 8.48037e-07
2.28595e-06 8.48037e-07 1.89299e-05
0.00142815 2.45283e-05 9.29457e-08
2.45283e-05 9.03537e-05 6.14679e-08
9.29457e-08 6.14679e-08 1.57328e-05
0.000914148 1.72519e-05 -5.34178e-06
1.72519e-05 -0.0001119 7.82675e-07
-5.34178e-06 7.82675e-07 -0.000178847
0.0013344 2.78058e-06 2.40416e-06
2.78058e-06 4.38972e-05 5.21257e-08
2.40416e-06 5.21257e-08 -3.07706e-05
0.0011389 1.35373e-06 -2.84523e-08
1.35373e-06 7.11868e-06 3.80905e-08
-2.84523e-08 3.80905e-08 -5.76094e-05
0.000714191 2.03257e-06 -6.98272e-06
2.03257e-06 -8.33007e-05 2.33164e-06
-6.98272e-06 2.33164e-06 -0.000123565
0.00113274 -1.90374e-05 4.3192e-06
-1.90374e-05 1.40746e-05 -1.12805e-06
4.3192e-06 -1.12805e-06 -5.05544e-05
0.000713617 -2.56208e-06 -6.8873e-08
-2.56208e-06 -7.92368e-05 1.35145e-07
-6.8873e-08 1.35145e-07 -0.000119685
0.00365011 7.44532e-05 -3.59304e-05
7.44532e-05 0.00148097 1.40286e-06
-3.59304e-05 1.40286e-06 0.00147157
0.000765335 -1.586e-05 9.00922e-06
-1.586e-05 -4.97064e-05 -3.62712e-06
9.00922e-06 -3.62712e-06 -9.03959e-05
0.00249572 5.78009e-05 1.20453e-05
5.78009e-05 0.000898142 7.3791e-07
1.20453e-05 7.3791e-07 0.000882693
0.00127957 4.19488e-05 7.31542e-06
4.19488e-05 0.00028373 -1.43771e-06
7.31542e-06 -1.43771e-06 0.000263258
0.00165667 -1.56722e-05 -1.02556e-06
-1.56722e-05 0.000154714 -1.67936e-08
-1.02556e-06 -1.67936e-08 7.73634e-05
0.00145049 -3.09304e-06 -1.3198e-06
-3.09304e-06 5.97595e-05 1.24323e-07
-1.3198e-06 1.24323e-07 -1.64131e-05
0.00149036 -7.77736e-06 -7.96644e-08
-7.77736e-06 5.90133e-05 7.47464e-08
-7.96644e-08 7.47464e-08 -1.74784e-05
0.00130869 1.83875e-05 -2.48169e-06
1.83875e-05 2.53862e-05 1.43552e-07
-2.48169e-06 1.43552e-07 -4.99746e-05
0.00139147 1.02474e-05 4.13079e-07
1.02474e-05 2.65949e-05 -1.51178e-07
4.13079e-07 -1.51178e-07 -5.15929e-05
0.0015482 2.42414e-06 1.52559e-06
2.42414e-06 7.837e-05 -8.91086e-07
1.52559e-06 -8.91086e-07 1.10104e-06
0.000781484 2.78408e-05 -5.11688e-06
2.78408e-05 -0.000161566 -1.65632e-06
-5.11688e-06 -1.65632e-06 -0.000229477
0.00139821 4.30633e-05 -6.55801e-07
4.30633e-05 8.26752e-05 -1.63004e-07
-6.55801e-07 -1.63004e-07 5.49068e-06
0.0015352 3.99987e-05 2.80746e-06
3.99987e-05 0.000108644 -1.6154e-07
2.80746e-06 -1.6154e-07 2.7023e-05
0.000764794 2.31396e-05 -7.53146e-06
2.31396e-05 -4.49994e-05 -3.32264e-06
-7.53146e-06 -3.32264e-06 -8.78229e-05
0.000769107 3.32571e-05 -1.15344e-06
3.32571e-05 -0.00014013 -4.41156e-07
-1.15344e-06 -4.41156e-07 -0.00020781
0.00141205 5.50833e-05 2.85945e-06
5.50833e-05 0.000125848 1.13876e-06
2.85945e-06 1.13876e-06 4.96766e-05
0.0034346 -5.7755e-05 -3.66328e-05
-5.7755e-05 0.00136735 -2.7619e-06
-3.66328e-05 -2.7619e-06 0.00136045
0.000737148 1.30614e-05 -1.8264e-07
1.30614e-05 -4.23685e-05 1.1481e-07
-1.8264e-07 1.1481e-07 -8.36613e-05
0.000667234 3.0363e-05 2.83952e-06
3.0363e-05 -0.000152632 1.84178e-06
2.83952e-06 1.84178e-06 -0.000219204
0.00304424 -6.06492e-05 -5.28299e-07
-6.06492e-05 0.00116305 1.45425e-07
-5.28299e-07 1.45425e-07 0.00115962
0.000672304 -3.02211e-06 5.09296e-06
-3.02211e-06 -6.03122e-05 3.23165e-06
5.09296e-06 3.23165e-06 -9.78143e-05
0.00281737 -5.72116e-05 2.38674e-05
-5.72116e-05 0.00103264 2.9859e-06
2.38674e-05 2.9859e-06 0.00103378
0.00153849 -9.43202e-07 -1.4878e-06
-9.43202e-07 0.000104506 -3.52741e-07
-1.4878e-06 -3.52741e-07 2.45412e-05
0.00151877 -1.37461e-05 2.62632e-07
-1.37461e-05 8.3205e-05 2.05897e-07
2.62632e-07 2.05897e-07 4.20358e-06
0.00152054 -1.41568e-05 5.76191e-07
-1.41568e-05 7.3714e-05 -4.40563e-07
5.76191e-07 -4.40563e-07 -3.87918e-06
0.00151417 1.73896e-06 -2.72115e-06
1.73896e-06 0.000115489 3.97017e-08
-2.72115e-06 3.97017e-08 3.75115e-05
0.00153989 1.29622e-05 2.7919e-07
1.29622e-05 0.000108717 -5.78488e-08
2.7919e-07 -5.78488e-08 2.63919e-05
0.00152065 8.354e-06 1.50546e-06
8.354e-06 9.20788e-05 -8.96189e-08
1.50546e-06 -8.96189e-08 9.82624e-06
0.00147122 2.65453e-05 1.82901e-06
2.65453e-05 9.03129e-05 -3.7387e-07
1.82901e-06 -3.7387e-07 1.11616e-05
0.00148202 2.02395e-05 5.02567e-07
2.02395e-05 0.000115963 -4.73087e-08
5.02567e-07 -4.73087e-08 4.09352e-05
0.00092199 1.27558e-05 -5.36468e-06
1.27558e-05 -0.000115767 8.62031e-07
-5.36468e-06 8.62031e-07 -0.000183877
0.00156542 2.66137e-05 2.80756e-06
2.66137e-05 0.000160705 1.4224e-07
2.80756e-06 1.4224e-07 8.69874e-05
0.00103102 1.89225e-05 -8.13147e-07
1.89225e-05 -5.24698e-05 1.79446e-07
-8.13147e-07 1.79446e-07 -0.000118533
0.000724055 6.40102e-06 -7.4681e-06
6.40102e-06 -8.27847e-05 2.0686e-06
-7.4681e-06 2.0686e-06 -0.000123898
0.00113505 5.56562e-07 4.34749e-06
5.56562e-07 4.98724e-06 -8.89209e-07
4.34749e-06 -8.89209e-07 -5.97177e-05
0.00071586 9.11266e-06 1.62016e-07
9.11266e-06 -8.22912e-05 4.16879e-08
1.62016e-07 4.16879e-08 -0.000122851
0.00373254 7.75101e-05 -3.81279e-05
7.75101e-05 0.00152306 9.08924e-07
-3.81279e-05 9.08924e-07 0.00151316
0.000718639 2.06654e-06 6.73468e-06
2.06654e-06 -7.73152e-05 -2.43621e-06
6.73468e-06 -2.43621e-06 -0.000117673
0.00369096 7.29427e-05 2.61853e-07
7.29427e-05 0.00150128 1.48562e-07
2.61853e-07 1.48562e-07 0.00149194
0.00143811 2.77557e-05 3.30799e-05
2.77557e-05 0.00036338 -2.1492e-06
3.30799e-05 -2.1492e-06 0.000342816
0.00161345 -1.03794e-05 -1.36967e-06
-1.03794e-05 0.000147646 -1.59188e-07
-1.36967e-06 -1.59188e-07 7.09209e-05
0.00153986 -1.57283e-05 3.95211e-07
-1.57283e-05 9.69392e-05 1.94669e-07
3.95211e-07 1.94669e-07 1.97623e-05
0.00133607 -2.7383e-06 -2.28726e-06
-2.7383e-06 3.57137e-05 -1.79013e-07
-2.28726e-06 -1.79013e-07 -3.86986e-05
0.00145817 -3.67426e-06 2.25749e-07
-3.67426e-06 6.32261e-05 -1.3983e-07
2.25749e-07 -1.3983e-07 -1.29478e-05
0.00139082 -7.78036e-06 1.61947e-06
-7.78036e-06 1.03234e-05 7.02569e-08
1.61947e-06 7.02569e-08 -6.59096e-05
0.00113634 1.62838e-05 -4.62793e-06
1.62838e-05 7.52107e-07 -1.03841e-06
-4.62793e-06 -1.03841e-06 -6.48622e-05
0.00134688 1.84951e-05 -4.45468e-08
1.84951e-05 4.31648e-05 1.07941e-07
-4.45468e-08 1.07941e-07 -3.22557e-05
0.00142135 9.88238e-06 1.62326e-06
9.88238e-06 4.27639e-05 -7.77985e-07
1.62326e-06 -7.77985e-07 -3.51621e-05
0.000740409 2.27033e-05 -8.13294e-06
2.27033e-05 -6.71004e-05 -3.20072e-06
-8.13294e-06 -3.20072e-06 -0.000109478
0.000976377 3.08173e-05 -1.34934e-06
3.08173e-05 -6.53649e-05 -3.31082e-07
-1.34934e-06 -3.31082e-07 -0.000132612
0.00172376 4.78528e-05 2.38268e-06
4.78528e-05 0.000244433 4.02973e-07
2.38268e-06 4.02973e-07 0.000168491
0.00369537 -5.94838e-05 -3.9895e-05
-5.94838e-05 0.00150133 -2.41029e-06
-3.9895e-05 -2.41029e-06 0.00149262
0.000731171 2.12751e-05 -7.56901e-08
2.12751e-05 -5.87143e-05 1.56273e-07
-7.56901e-08 1.56273e-07 -0.000101711
0.000827505 3.47592e-05 2.72406e-06
3.47592e-05 -0.000115226 1.19409e-06
2.72406e-06 1.19409e-06 -0.000183165
0.00333491 -6.26274e-05 -8.69081e-07
-6.26274e-05 0.00131731 1.79474e-07
-8.69081e-07 1.79474e-07 0.0013107
0.000681281 1.03819e-05 5.79023e-06
1.03819e-05 -6.55973e-05 3.58454e-06
5.79023e-06 3.58454e-06 -0.000107101
0.0029706 -6.11489e-05 2.54334e-05
-6.11489e-05 0.00112458 2.88202e-06
2.54334e-05 2.88202e-06 0.00112186
0.00151959 3.4871e-06 -2.19596e-06
3.4871e-06 0.000121325 -5.80467e-07
-2.19596e-06 -5.80467e-07 4.50801e-05
0.00152856 -3.40758e-06 1.9353e-07
-3.40758e-06 0.000101442 1.61959e-07
1.9353e-07 1.61959e-07 2.16608e-05
0.00153665 -1.33889e-05 2.01515e-06
-1.33889e-05 9.23527e-05 6.82824e-07
2.01515e-06 6.82824e-07 1.32629e-05
0.000926318 -1.01988e-05 -5.97177e-06
-1.01988e-05 -0.000123306 2.38205e-07
-5.97177e-06 2.38205e-07 -0.000193059
0.0015295 8.59602e-06 5.21102e-07
8.59602e-06 0.000123767 1.09517e-07
5.21102e-07 1.09517e-07 4.56777e-05
0.00153234 1.30664e-05 2.20964e-06
1.30664e-05 0.000107202 -2.57915e-07
2.20964e-06 -2.57915e-07 2.49726e-05
0.00147854 2.04017e-05 3.07514e-06
2.04017e-05 0.000113847 -2.21445e-07
3.07514e-06 -2.21445e-07 3.8969e-05
0.000925189 1.28567e-05 -6.03302e-07
1.28567e-05 -0.00011336 1.58338e-07
-6.03302e-07 1.58338e-07 -0.000181187
0.000717863 1.08388e-05 -7.80182e-06
1.08388e-05 -9.32795e-05 1.4876e-06
-7.80182e-06 1.4876e-06 -0.000134834
0.00114425 2.15255e-05 3.65111e-06
2.15255e-05 5.13717e-06 -6.29052e-07
3.65111e-06 -6.29052e-07 -6.00636e-05
0.000726997 1.533e-05 2.09333e-07
1.533e-05 -8.10771e-05 5.84626e-08
2.09333e-07 5.84626e-08 -0.000122447
0.00382099 8.19093e-05 -4.01294e-05
8.19093e-05 0.00156686 4.28155e-07
-4.01294e-05 4.28155e-07 0.00155645
0.000719585 1.71396e-05 6.92724e-06
1.71396e-05 -8.05452e-05 -2.18871e-06
6.92724e-06 -2.18871e-06 -0.000121211
0.0037748 7.66266e-05 4.24731e-07
7.66266e-05 0.00154366 1.431e-07
4.24731e-07 1.431e-07 0.00153384
0.00374801 7.20218e-05 3.96251e-05
7.20218e-05 0.00152946 -1.10153e-06
3.96251e-05 -1.10153e-06 0.00152015
0.00139319 -7.57946e-06 -2.5298e-06
-7.57946e-06 6.40273e-05 -5.86442e-07
-2.5298e-06 -5.86442e-07 -1.13128e-05
0.00151346 -1.13665e-05 2.01421e-07
-1.13665e-05 9.70149e-05 1.66611e-07
2.01421e-07 1.66611e-07 2.01984e-05
0.0014104 -1.55332e-05 1.3824e-06
-1.55332e-05 3.28015e-05 3.52751e-07
1.3824e-06 3.52751e-07 -4.41644e-05
0.00113875 -3.98353e-06 -4.64501e-06
-3.98353e-06 -3.60759e-06 -1.16365e-06
-4.64501e-06 -1.16365e-06 -6.88233e-05
0.00135784 -3.05223e-06 1.29099e-07
-3.05223e-06 4.59947e-05 -9.81858e-08
1.29099e-07 -9.81858e-08 -2.84548e-05
0.00146424 -4.22856e-06 1.30426e-06
-4.22856e-06 6.59606e-05 -4.81704e-07
1.30426e-06 -4.81704e-07 -1.02216e-05
0.000720209 1.32855e-05 -8.16807e-06
1.32855e-05 -8.33839e-05 -2.93481e-06
-8.16807e-06 -2.93481e-06 -0.000124418
0.00115517 1.58973e-05 -1.01025e-07
1.58973e-05 1.02226e-05 1.23405e-07
-1.01025e-07 1.23405e-07 -5.5467e-05
0.0013839 1.85412e-05 2.66979e-06
1.85412e-05 6.04013e-05 1.48708e-07
2.66979e-06 1.48708e-07 -1.50852e-05
0.00383873 -6.26806e-05 -4.15468e-05
-6.26806e-05 0.00157414 -1.958e-06
-4.15468e-05 -1.958e-06 0.00156469
0.000726066 2.17132e-05 3.17104e-09
2.17132e-05 -7.25113e-05 1.62908e-07
3.17104e-09 1.62908e-07 -0.000115017
0.00118505 3.41326e-05 3.31415e-06
3.41326e-05 3.78417e-05 1.15356e-06
3.31415e-06 1.15356e-06 -2.88032e-05
0.00359047 -6.27506e-05 -6.80748e-07
-6.27506e-05 0.00144927 1.85175e-07
-6.80748e-07 1.85175e-07 0.00144072
0.000702369 1.94511e-05 6.75172e-06
1.94511e-05 -7.03269e-05 3.56044e-06
6.75172e-06 3.56044e-06 -0.00011346
0.00321684 -6.52509e-05 2.85894e-05
-6.52509e-05 0.00125831 2.76926e-06
2.85894e-05 2.76926e-06 0.00125208
0.00118024 -3.21356e-06 -5.16256e-06
-3.21356e-06 5.85041e-06 -6.88417e-07
-5.16256e-06 -6.88417e-07 -6.15449e-05
0.00141237 -1.25809e-06 5.18868e-07
-1.25809e-06 6.68009e-05 -8.21814e-08
5.18868e-07 -8.21814e-08 -1.06031e-05
0.00152407 -6.83091e-06 2.0813e-06
-6.83091e-06 0.00010082 9.30716e-07
2.0813e-06 9.30716e-07 2.12332e-05
0.000709688 8.55178e-06 -8.15922e-06
8.55178e-06 -0.00010314 3.77982e-07
-8.15922e-06 3.77982e-07 -0.000144368
0.000944487 -2.61099e-06 -7.55386e-07
-2.61099e-06 -0.000114329 2.96739e-07
-7.55386e-07 2.96739e-07 -0.00018381
0.00154779 1.48163e-05 3.68264e-06
1.48163e-05 0.000133581 -2.58664e-07
3.68264e-06 -2.58664e-07 5.53614e-05
0.000928545 1.32008e-05 3.75049e-06
1.32008e-05 -0.000111011 -4.18296e-07
3.75049e-06 -4.18296e-07 -0.000178528
0.000727281 1.29465e-05 1.39595e-07
1.29465e-05 -8.82442e-05 1.64566e-07
1.39595e-07 1.64566e-07 -0.000130019
0.0039535 8.28226e-05 -4.2344e-05
8.28226e-05 0.00162956 -6.12328e-08
-4.2344e-05 -6.12328e-08 0.00161912
0.000730447 2.27228e-05 7.3994e-06
2.27228e-05 -7.90889e-05 -1.87964e-06
7.3994e-06 -1.87964e-06 -0.000120795
0.00387795 8.03656e-05 8.91287e-07
8.03656e-05 0.00159409 1.65623e-07
8.91287e-07 1.65623e-07 0.00158382
0.00381166 7.4858e-05 4.2195e-05
7.4858e-05 0.00156158 -6.33787e-07
4.2195e-05 -6.33787e-07 0.00155191
0.00116207 -8.65094e-06 -5.02178e-06
-8.65094e-06 3.1661e-06 -1.2781e-06
-5.02178e-06 -1.2781e-06 -6.29249e-05
0.0013438 -8.91416e-06 -6.43148e-08
-8.91416e-06 3.82418e-05 -6.5936e-08
-6.43148e-08 -6.5936e-08 -3.74353e-05
0.00142037 -1.2429e-05 1.62989e-06
-1.2429e-05 4.9847e-05 2.98511e-07
1.62989e-06 2.98511e-07 -2.708e-05
0.00199598 -9.57161e-06 -2.37985e-05
-9.57161e-06 0.000554792 -1.92722e-06
-2.37985e-05 -1.92722e-06 0.000521152
0.00116099 -4.68312e-06 1.00917e-07
-4.68312e-06 7.37072e-06 1.95548e-08
1.00917e-07 1.95548e-08 -5.7963e-05
0.00138381 -3.57395e-06 2.54768e-06
-3.57395e-06 5.83415e-05 1.52617e-08
2.54768e-06 1.52617e-08 -1.61534e-05
0.00390196 -6.71486e-05 -4.25226e-05
-6.71486e-05 0.00160556 -1.44093e-06
-4.25226e-05 -1.44093e-06 0.00159594
0.000723568 1.40448e-05 1.2967e-08
1.40448e-05 -8.15203e-05 1.38224e-07
1.2967e-08 1.38224e-07 -0.000122593
0.00117426 1.47758e-05 4.78366e-06
1.47758e-05 1.99039e-05 1.33639e-06
4.78366e-06 1.33639e-06 -4.59093e-05
0.00376481 -6.40195e-05 -4.86202e-07
-6.40195e-05 0.0015376 1.82713e-07
-4.86202e-07 1.82713e-07 0.00152817
0.000711974 2.10109e-05 7.5368e-06
2.10109e-05 -7.79547e-05 3.4015e-06
7.5368e-06 3.4015e-06 -0.000120574
0.00349557 -6.68684e-05 3.37814e-05
-6.68684e-05 0.00140226 2.53017e-06
3.37814e-05 2.53017e-06 0.00139376
0.000754889 4.06496e-06 -1.09388e-05
4.06496e-06 -8.04396e-05 -1.06738e-06
-1.09388e-05 -1.06738e-06 -0.000121767
0.0010604 -5.79109e-06 9.8937e-08
-5.79109e-06 -5.47717e-05 2.47088e-07
9.8937e-08 2.47088e-07 -0.000122905
0.00129431 -5.74702e-06 3.43051e-06
-5.74702e-06 6.70471e-06 5.96144e-07
3.43051e-06 5.96144e-07 -7.17799e-05
0.00407331 1.63347e-06 -4.28072e-05
1.63347e-06 0.00168327 -5.69774e-07
-4.28072e-05 -5.69774e-07 0.00167487
0.000724813 6.80961e-06 6.45926e-08
6.80961e-06 -9.55978e-05 1.53114e-07
6.45926e-08 1.53114e-07 -0.000137029
0.000951701 4.66291e-06 4.21197e-06
4.66291e-06 -0.000110621 1.9126e-08
4.21197e-06 1.9126e-08 -0.00017985
0.000735491 1.92835e-05 7.94988e-06
1.92835e-05 -8.35351e-05 -1.13017e-06
7.94988e-06 -1.13017e-06 -0.000125763
0.0040091 8.40264e-05 1.67555e-06
8.40264e-05 0.00165669 2.30722e-07
1.67555e-06 2.30722e-07 0.00164615
0.00393035 7.82935e-05 4.56861e-05
7.82935e-05 0.00161917 -1.47355e-07
4.56861e-05 -1.47355e-07 0.00160906
0.00205968 -2.2373e-05 -2.74793e-05
-2.2373e-05 0.000581264 -1.75535e-06
-2.74793e-05 -1.75535e-06 0.000547022
0.00117234 -7.37929e-06 -6.1645e-08
-7.37929e-06 8.06601e-06 1.70069e-08
-6.1645e-08 1.70069e-08 -5.7945e-05
0.00129408 -1.0109e-05 2.5035e-06
-1.0109e-05 1.23003e-05 4.64941e-07
2.5035e-06 4.64941e-07 -6.37099e-05
0.00384318 -9.26192e-05 -1.04295e-05
-9.26192e-05 0.00158086 -6.30419e-07
-1.04295e-05 -6.30419e-07 0.001569
0.000721314 9.27605e-07 1.56204e-09
9.27605e-07 -8.66629e-05 5.17581e-08
1.56204e-09 5.17581e-08 -0.00012702
0.00118477 -4.04404e-06 4.8359e-06
-4.04404e-06 1.89904e-05 1.15367e-06
4.8359e-06 1.15367e-06 -4.6397e-05
0.00384828 -6.60484e-05 -1.71647e-07
-6.60484e-05 0.00157899 1.70703e-07
-1.71647e-07 1.70703e-07 0.00156941
0.000720305 1.50418e-05 8.17901e-06
1.50418e-05 -8.29147e-05 3.12763e-06
8.17901e-06 3.12763e-06 -0.000124018
0.00368195 -6.67129e-05 3.74543e-05
-6.67129e-05 0.00149705 2.19296e-06
3.74543e-05 2.19296e-06 0.00148754
0.00148871 -8.46156e-06 -4.48252e-05
-8.46156e-06 0.000377998 -3.10889e-07
-4.48252e-05 -3.10889e-07 0.000358006
0.00139617 -3.45594e-06 -1.01053e-05
-3.45594e-06 0.000242848 2.97378e-07
-1.01053e-05 2.97378e-07 0.000205316
0.000951217 -4.49121e-06 5.22299e-06
-4.49121e-06 -0.000110131 9.56508e-07
5.22299e-06 9.56508e-07 -0.000178961
0.00407768 8.94412e-06 1.57958e-06
8.94412e-06 0.00168762 -3.39386e-07
1.57958e-06 -3.39386e-07 0.00167806
0.0007324 4.86006e-06 8.42196e-06
4.86006e-06 -9.15762e-05 -6.95634e-08
8.42196e-06 -6.95634e-08 -0.000133088
0.00405833 8.05693e-05 4.65198e-05
8.05693e-05 0.0016805 3.68758e-07
4.65198e-05 3.68758e-07 0.00167012
0.00139832 -4.00454e-05 -7.13886e-06
-4.00454e-05 0.000341127 -1.00967e-06
-7.13886e-06 -1.00967e-06 0.000318662
0.0013869 -5.14056e-06 -9.5139e-06
-5.14056e-06 0.000243008 1.64071e-07
-9.5139e-06 1.64071e-07 0.000205926
0.0011812 -8.63814e-06 4.81884e-06
-8.63814e-06 1.23886e-05 1.22249e-06
4.81884e-06 1.22249e-06 -5.36166e-05
0.00261681 -5.41022e-05 1.79304e-05
-5.41022e-05 0.000958072 -6.06674e-08
1.79304e-05 -6.06674e-08 0.00094207
0.00073469 5.96389e-06 8.42605e-06
5.96389e-06 -8.10208e-05 2.72706e-06
8.42605e-06 2.72706e-06 -0.000121242
0.00379877 -6.68584e-05 3.99231e-05
-6.68584e-05 0.00155476 1.74994e-06
3.99231e-05 1.74994e-06 0.0015451
0.00409056 -6.03164e-05 -1.16498e-06
-6.03164e-05 0.00169211 2.08962e-07
-1.16498e-06 2.08962e-07 0.00168346
0.000725362 8.07698e-07 8.5533e-06
8.07698e-07 -9.52252e-05 1.20889e-06
8.5533e-06 1.20889e-06 -0.000136102
0.00410291 3.59089e-05 4.61578e-05
3.59089e-05 0.00170066 -4.70852e-07
4.61578e-05 -4.70852e-07 0.00169036
0.0027006 -5.61679e-05 1.83139e-05
-5.61679e-05 0.000995925 -1.20323e-07
1.83139e-05 -1.20323e-07 0.00097987
0.000739269 1.0715e-06 8.37858e-06
1.0715e-06 -8.33568e-05 2.1781e-06
8.37858e-06 2.1781e-06 -0.000123738
0.00386883 -6.51162e-05 4.18415e-05
-6.51162e-05 0.00158802 1.23241e-06
4.18415e-05 1.23241e-06 0.00157874
0.00404903 -7.09373e-05 4.37268e-05
-7.09373e-05 0.00167294 7.93758e-08
4.37268e-05 7.93758e-08 0.00166361
0.00395784 -6.67469e-05 4.30554e-05
-6.67469e-05 0.00162995 6.71401e-07
4.30554e-05 6.71401e-07 0.00162078
