# vtk DataFile Version 2.0
Wound Healing Simulation
ASCII
DATASET UNSTRUCTURED_GRID
POINTS 3012 float
69.9759 18.75 4
67.2507 60.3285 4
69.976 18.75 2
73.0099 25.446 4
71.1327 20.9142 4
68.6801 16.6661 4
67.8275 19.9216 3.98924
67.2507 60.3286 2
71.1327 54.0858 4
68.6801 58.3339 4
65.6939 62.2254 4
65.3139 59.0063 3.99078
74.6784 42.3946 4
73.7221 47.2057 4
69.9759 18.75 0
73.0099 25.446 2
68.6801 16.6661 2
71.1327 20.9142 2
67.8277 19.9219 2
74.6792 32.6053 4
73.7222 27.7943 4
72.1454 23.1494 4
70.6167 26.2212 3.98812
68.8881 21.9552 3.9888
67.2507 14.6715 4
66.6388 17.9664 3.99002
65.8044 21.0171 3.9852
67.2507 60.3285 0
71.1327 54.0858 2
68.6801 58.3339 2
65.694 62.2255 2
65.314 59.0063 2
72.1454 51.8506 4
69.9759 56.25 4
68.8391 53.1155 3.98885
64.0165 64.0165 4
66.6126 57.1386 3.99023
63.8872 60.7705 3.9916
63.5059 57.7826 3.9862
60.3285 67.2507 4
74.6792 42.3947 2
73.7222 47.2057 2
74.9194 39.9526 4
74.2788 44.8158 4
72.1701 42.0853 3.98741
73.0099 49.554 4
71.2518 46.5973 3.9882
73.0099 25.446 0
71.1327 20.9142 0
68.6801 16.6661 0
67.8275 19.9216 0.0107598
74.6792 32.6053 2
73.7222 27.7943 2
67.2508 14.6715 2
72.1455 23.1494 2
70.6168 26.2222 2
66.639 17.9665 2
68.8883 21.9558 2
65.8046 21.017 2
74.9197 35.0474 4
74.2794 30.1841 4
72.1867 32.9435 3.98785
71.2805 28.432 3.98808
69.8181 24.0585 3.98845
68.3542 26.9489 3.98277
66.7703 22.9273 3.98464
65.694 12.7746 4
65.3252 16.0979 3.99096
64.7203 19.1844 3.98587
63.8994 22.0224 3.98304
71.1327 54.0858 0
65.6939 62.2254 0
68.6801 58.3339 0
65.3139 59.0063 0.00921799
72.1455 51.8506 2
69.9759 56.25 2
68.8393 53.115 2
64.0165 64.0165 2
66.6127 57.1386 2
63.8873 60.7705 2
63.506 57.7828 2
62.2254 65.694 4
58.894 65.417 3.99254
69.7718 50.9896 3.98842
67.7861 55.1713 3.9896
66.658 52.2148 3.98478
62.3371 62.4312 3.99215
64.6677 56.0411 3.98634
62.2067 59.4156 3.98645
61.8325 56.6968 3.98436
58.3339 68.6801 4
60.3285 67.2508 2
73.7221 47.2057 0
74.6784 42.3946 0
74.9197 39.9526 2
74.2794 44.8159 2
72.17 42.0849 2
73.0099 49.554 2
71.2518 46.5965 2
75 37.5 4
72.407 39.8021 3.9869
71.7847 44.3523 3.98794
69.8102 41.7898 3.98145
70.5779 48.8131 3.98828
68.9197 46.016 3.98221
74.6792 32.6053 0
73.7222 27.7943 0
67.2507 14.6715 0
72.1454 23.1494 0
70.6167 26.2212 0.0118756
68.8881 21.9552 0.0112036
66.6388 17.9664 0.00998499
65.8044 21.0171 0.0148037
74.9197 35.0474 2
74.2794 30.1841 2
72.1867 32.944 2
71.2806 28.4329 2
65.694 12.7745 2
65.3253 16.0979 2
69.8183 24.0594 2
68.3541 26.949 2
64.7204 19.1843 2
66.7704 22.9271 2
63.8995 22.0224 2
72.415 35.2242 3.98715
71.8061 30.6767 3.98819
69.8464 33.2682 3.9819
68.9732 29.0368 3.98214
67.6191 24.9079 3.98382
66.2068 27.6289 3.98062
64.0165 10.9835 4
64.7696 23.8196 3.98259
63.8912 14.3225 3.99165
63.5182 17.435 3.98652
62.9181 20.3052 3.98354
62.1098 22.9262 3.98202
60.6845 11.0943 3.99224
57.6128 11.4386 3.98741
72.1454 51.8506 0
69.9759 56.25 0
68.8391 53.1155 0.0111454
64.0165 64.0165 0
63.8872 60.7705 0.00840158
66.6126 57.1386 0.00977058
63.5059 57.7826 0.0138017
62.2255 65.694 2
58.8942 65.4171 2
69.772 50.9889 2
67.7863 55.1711 2
66.6582 52.215 2
62.3373 62.4312 2
64.6679 56.0414 2
62.2068 59.4159 2
61.8327 56.697 2
60.6691 63.9803 3.99234
57.0244 66.7374 3.99281
57.558 63.6985 3.98754
67.5159 50.1805 3.9838
65.7101 54.181 3.98581
64.552 51.3955 3.98232
60.7754 60.9481 3.98701
62.8319 55.0825 3.98467
60.6653 58.175 3.98431
60.3406 55.805 3.98358
56.25 69.9759 4
58.3339 68.6801 2
60.3285 67.2507 0
58.9213 9.65272 3.99255
62.2254 9.30607 4
73.0099 49.554 0
74.2788 44.8158 0
71.2518 46.5973 0.0117998
72.1701 42.0853 0.012595
74.9194 39.9526 0
75 37.5 2
72.4069 39.8019 2
71.7847 44.3516 2
69.8101 41.7896 2
70.578 48.8122 2
68.9196 46.0158 2
72.4903 37.5121 3.98676
70.0466 39.6574 3.98069
69.4372 43.908 3.9819
67.6079 41.4994 3.97896
68.2739 48.1095 3.9829
66.7222 45.4439 3.98012
74.9197 35.0474 0
74.2794 30.1841 0
72.1867 32.9435 0.0121533
71.2805 28.432 0.0119182
65.694 12.7746 0
65.3252 16.0979 0.00904164
69.8181 24.0585 0.0115455
68.3542 26.9489 0.0172324
66.7703 22.9273 0.0153565
64.7203 19.1844 0.0141333
63.8994 22.0224 0.0169555
72.4149 35.2245 2
71.806 30.6775 2
69.8462 33.2683 2
68.973 29.0369 2
64.0165 10.9835 2
63.8913 14.3225 2
63.5183 17.4349 2
67.6191 24.9078 2
66.2067 27.6287 2
62.9182 20.3051 2
64.7696 23.8194 2
62.1098 22.9263 2
60.6846 11.0942 2
57.6128 11.4382 2
70.0637 35.3919 3.98137
69.474 31.1488 3.9821
67.6665 33.589 3.97939
66.784 29.6186 3.97988
65.537 25.6912 3.98167
64.1633 28.2463 3.97992
62.3425 12.6512 3.99202
62.8748 24.6226 3.98178
62.2021 15.7731 3.98679
61.8224 18.6684 3.98438
61.2327 21.3227 3.98204
60.4468 23.7072 3.98185
59.2474 12.7692 3.98699
55.8744 10.2256 3.9883
56.4067 13.101 3.98458
69.7718 50.9896 0.0115756
62.2254 65.694 0
58.894 65.417 0.00745682
67.7861 55.1713 0.0104008
66.658 52.2148 0.015219
62.3371 62.4312 0.00784802
62.2067 59.4156 0.0135466
64.6677 56.0411 0.0136572
61.8325 56.6968 0.0156409
60.6692 63.9804 2
57.0246 66.7375 2
57.558 63.6989 2
67.516 50.1806 2
65.7103 54.1812 2
64.5521 51.3958 2
60.7755 60.9486 2
62.8321 55.0827 2
60.6655 58.1753 2
60.3408 55.8052 2
55.0699 67.9341 3.99311
59.2205 62.3748 3.98719
55.8038 64.9151 3.98812
56.3283 62.0992 3.98484
65.3459 49.4161 3.98138
63.7197 53.3051 3.98372
62.4615 50.6663 3.98103
59.3378 59.5708 3.98491
61.0926 54.3275 3.98391
59.2986 57.0315 3.98289
59.2568 55.2044 3.98375
48.102 68.5817 3.98993
50.9478 69.9333 3.99366
54.0858 71.1327 4
56.25 69.976 2
58.3339 68.6801 0
57.0584 8.33277 3.99297
60.3285 7.74928 4
58.9215 9.65267 2
62.2255 9.30602 2
70.5779 48.8131 0.0117172
71.7847 44.3523 0.0120591
68.9197 46.016 0.017786
69.8102 41.7898 0.0185544
72.407 39.8021 0.0131022
75 37.5 0
72.4902 37.5122 2
70.0464 39.6572 2
69.4371 43.9077 2
67.6077 41.4993 2
68.274 48.1094 2
66.722 45.444 2
70.1346 37.5216 3.98064
67.844 39.5132 3.97823
67.2352 43.4728 3.97957
65.5709 41.2133 3.97823
66.0821 47.4237 3.9807
64.6693 44.8552 3.97938
72.415 35.2242 0.0128508
71.8061 30.6767 0.0118055
69.8464 33.2682 0.0180964
68.9732 29.0368 0.0178596
64.0165 10.9835 0
63.8912 14.3225 0.00834624
63.5182 17.435 0.0134788
67.6191 24.9079 0.0161844
66.2068 27.6289 0.0193802
64.7696 23.8196 0.0174123
62.9181 20.3052 0.0164632
62.1098 22.9262 0.0179824
60.6845 11.0943 0.00776079
57.6128 11.4386 0.0125948
70.0634 35.392 2
69.4737 31.149 2
67.6662 33.5888 2
66.7837 29.6185 2
62.3426 12.6511 2
62.2022 15.7729 2
61.8225 18.6683 2
65.5369 25.6911 2
64.1629 28.2462 2
61.2327 21.3227 2
62.8747 24.6226 2
60.4466 23.7074 2
59.2474 12.7689 2
56.4067 13.1007 2
55.8744 10.2252 2
67.8808 35.5466 3.979
67.277 31.6193 3.97982
65.7131 33.9239 3.97846
64.6793 30.185 3.97882
63.5559 26.4023 3.98087
62.2787 28.7654 3.98031
60.7771 14.2129 3.98685
61.0675 25.3197 3.98168
60.6183 17.1123 3.98494
60.2342 19.7967 3.98301
59.6796 22.2366 3.98102
59.0026 24.2978 3.98224
54.0373 9.12921 3.98909
57.9126 14.3187 3.98479
54.7874 12.0009 3.98498
55.3149 14.6318 3.98344
67.5159 50.1805 0.0161998
57.0244 66.7374 0.00719298
60.6691 63.9803 0.00765685
57.558 63.6985 0.0124627
65.7101 54.181 0.0141911
64.552 51.3955 0.017682
60.7754 60.9481 0.0129865
60.6653 58.175 0.0156878
62.8319 55.0825 0.0153286
60.3406 55.805 0.0164193
55.0701 67.9342 2
59.2205 62.3753 2
55.8038 64.9155 2
56.3283 62.0996 2
65.346 49.4163 2
63.7199 53.3053 2
62.4616 50.6664 2
59.3379 59.5713 2
61.0929 54.3276 2
59.2988 57.0317 2
59.257 55.2045 2
53.0419 69.0017 3.99343
53.9658 66.0169 3.98873
57.8835 60.8817 3.98493
54.6839 63.2141 3.98518
55.214 60.6268 3.98362
63.2138 48.6727 3.9803
61.7601 52.5919 3.98266
60.2985 50.0369 3.98038
58.0245 58.2775 3.98362
59.3451 53.9684 3.98311
58.1387 55.8344 3.98154
50.1084 67.8599 3.98965
47.4621 66.5858 3.98741
46.0559 69.1611 3.99016
48.1021 68.5822 2
48.8022 70.7244 3.99386
50.948 69.9335 2
51.8506 72.1454 4
54.0858 71.1327 2
56.25 69.9759 0
55.1027 7.13747 3.99331
58.3339 6.31992 4
57.0585 8.33268 2
60.3286 7.74926 2
58.9213 9.65272 0.00744547
62.2254 9.30607 0
68.2739 48.1095 0.0170975
69.4372 43.908 0.0181011
66.7222 45.4439 0.019883
67.6079 41.4994 0.0210353
70.0466 39.6574 0.0193063
72.4903 37.5121 0.0132421
70.1343 37.5214 2
67.8437 39.5131 2
67.235 43.4728 2
65.5706 41.2133 2
66.082 47.4239 2
64.6691 44.8553 2
67.9402 37.522 3.978
65.8014 39.3721 3.97763
65.192 43.0305 3.97867
63.7747 40.9346 3.97835
63.9839 46.7257 3.97978
62.8286 44.2254 3.97988
70.0637 35.3919 0.0186282
69.474 31.1488 0.0178979
67.6665 33.589 0.0206096
66.784 29.6186 0.0201163
62.3425 12.6512 0.00797586
62.2021 15.7731 0.0132071
61.8224 18.6684 0.0156165
65.537 25.6912 0.0183268
64.1633 28.2463 0.0200817
62.8748 24.6226 0.0182204
61.2327 21.3227 0.017955
60.4468 23.7072 0.0181536
59.2474 12.7692 0.0130133
56.4067 13.101 0.0154236
55.8744 10.2256 0.0116982
67.8805 35.5465 2
67.2766 31.6192 2
65.7127 33.9237 2
64.6789 30.1849 2
60.7771 14.2126 2
60.6185 17.1121 2
60.2344 19.7968 2
63.5557 26.4022 2
62.2782 28.7654 2
59.6796 22.2368 2
61.0673 25.3198 2
59.0024 24.2981 2
57.9126 14.3185 2
55.3149 14.6316 2
54.0373 9.12881 2
54.7874 12.0005 2
65.8911 35.6653 3.97809
65.2024 32.149 3.97864
64.3029 34.246 3.97793
62.616 30.6258 3.97882
61.6737 27.057 3.98068
60.8753 29.1259 3.98197
59.314 15.6548 3.98494
59.3575 25.7758 3.98286
59.131 18.3373 3.98402
58.7544 20.832 3.98161
58.3062 23.0686 3.98017
57.9944 24.6413 3.98318
52.112 8.14798 3.98963
53.0581 11.0074 3.98586
56.6796 15.727 3.98404
53.8111 13.6678 3.9832
54.3792 15.9829 3.98333
55.0699 67.9341 0.00689054
65.3459 49.4161 0.0186214
55.8038 64.9151 0.0118829
59.2205 62.3748 0.0128055
56.3283 62.0992 0.0151593
63.7197 53.3051 0.0162819
62.4615 50.6663 0.0189654
59.3378 59.5708 0.0150856
59.2986 57.0315 0.0171085
61.0926 54.3275 0.0160856
59.2568 55.2044 0.0162456
53.042 69.0018 2
53.9658 66.0173 2
57.8835 60.8821 2
54.6839 63.2144 2
55.214 60.6271 2
63.2138 48.6728 2
61.7604 52.5921 2
60.2985 50.037 2
58.0247 58.2779 2
59.3454 53.9685 2
58.1389 55.8346 2
52.0693 67.0032 3.98926
52.9526 64.2239 3.9857
56.6525 59.5023 3.984
53.6822 61.6303 3.98385
54.2636 59.3334 3.98301
61.0186 47.8957 3.97957
59.7326 52.1252 3.98234
58.0551 49.6376 3.98076
56.785 57.007 3.98186
57.1383 54.146 3.98112
50.1085 67.8603 2
49.3358 65.926 3.98692
47.4621 66.5863 2
46.8913 64.7423 3.98553
45.5573 67.1033 3.98765
43.9731 69.5938 3.99039
46.056 69.1616 2
46.609 71.3688 3.99405
48.102 68.5817 0.0100651
48.8023 70.7246 2
49.554 73.0099 4
50.9478 69.9333 0.00633857
51.8506 72.1455 2
54.0858 71.1327 0
53.0637 6.0691 3.9936
55.1028 7.13734 2
56.25 5.02411 4
58.3339 6.3199 2
57.0584 8.33277 0.00702766
60.3285 7.74928 0
66.0821 47.4237 0.0192951
67.2352 43.4728 0.0204337
64.6693 44.8552 0.0206248
65.5709 41.2133 0.0217731
67.844 39.5132 0.0217651
70.1346 37.5216 0.0193607
67.9398 37.5219 2
65.8011 39.372 2
65.1917 43.0305 2
63.7744 40.9345 2
63.9838 46.7258 2
62.8284 44.2254 2
65.9041 37.502 3.97712
63.9181 39.2696 3.97761
63.3492 42.557 3.97863
62.4541 40.7039 3.97789
61.9909 45.9309 3.97974
61.4769 43.6942 3.9818
67.8808 35.5466 0.0210049
67.277 31.6193 0.0201843
65.7131 33.9239 0.021536
64.6793 30.185 0.0211815
60.7771 14.2129 0.0131468
60.6183 17.1123 0.0150613
60.2342 19.7967 0.016989
63.5559 26.4023 0.0191348
62.2787 28.7654 0.0196874
61.0675 25.3197 0.018317
59.6796 22.2366 0.018976
59.0026 24.2978 0.0177596
57.9126 14.3187 0.0152092
55.3149 14.6318 0.0165592
54.0373 9.12921 0.0109069
54.7874 12.0009 0.0150198
65.8907 35.665 2
65.202 32.1487 2
64.3025 34.2457 2
62.6154 30.6257 2
59.314 15.6546 2
59.1312 18.3371 2
58.7546 20.8321 2
61.6733 27.057 2
60.8747 29.1258 2
58.3061 23.069 2
59.3571 25.7761 2
57.9941 24.6418 2
56.6796 15.7269 2
54.3792 15.9828 2
53.8111 13.6675 2
52.112 8.14757 2
53.0581 11.007 2
64.1097 35.6303 3.97752
62.9524 33.0396 3.9777
60.641 30.5988 3.97931
59.6003 27.8922 3.98164
57.9437 16.9669 3.98426
57.7691 25.703 3.98424
57.7241 19.4558 3.983
57.3877 21.8168 3.97985
57.2104 23.923 3.98016
50.1122 7.28035 3.98994
51.2323 10.1161 3.98656
52.1729 12.7852 3.98401
55.541 16.9555 3.98386
52.9798 15.2494 3.98208
53.7615 16.9644 3.98352
53.0419 69.0017 0.00657383
53.9658 66.0169 0.0112741
63.2138 48.6727 0.0196992
54.6839 63.2141 0.0148158
57.8835 60.8817 0.0150675
55.214 60.6268 0.016384
61.7601 52.5919 0.0173413
60.2985 50.0369 0.0196188
58.0245 58.2775 0.0163822
58.1387 55.8344 0.0184575
59.3451 53.9684 0.0168898
52.0694 67.0035 2
52.9525 64.2243 2
56.6526 59.5027 2
53.6822 61.6307 2
54.2637 59.3338 2
61.0186 47.8957 2
59.7328 52.1252 2
58.0551 49.6374 2
56.7853 57.0074 2
57.1386 54.146 2
51.1668 65.1329 3.98629
52.0461 62.5449 3.98402
55.4857 58.2648 3.98352
52.8366 60.1446 3.98315
53.6442 58.4841 3.98308
58.339 46.8657 3.98176
57.5859 51.8093 3.98088
56.2798 49.576 3.98219
55.4824 55.815 3.98031
55.3769 53.4066 3.97843
50.1084 67.8599 0.0103499
49.3358 65.9264 2
48.6172 64.1283 3.98507
47.4621 66.5858 0.0125912
45.5574 67.1038 2
46.8913 64.7427 2
46.3809 63.0601 3.98409
45.1315 65.204 3.98584
43.6307 67.4745 3.98785
41.8605 69.8815 3.99048
43.9732 69.5943 2
44.3765 71.8638 3.99421
46.0559 69.1611 0.00983518
46.6091 71.3691 2
47.2057 73.7222 4
48.8022 70.7244 0.00614114
49.554 73.0099 2
51.8506 72.1454 0
50.9535 5.12965 3.99377
53.0639 6.06893 2
54.0858 3.86728 4
55.1027 7.13747 0.00669186
56.25 5.02406 2
58.3339 6.31992 0
63.9839 46.7257 0.0202204
65.192 43.0305 0.0213252
62.8286 44.2254 0.02012
63.7747 40.9346 0.0216522
65.8014 39.3721 0.022366
67.9402 37.522 0.021996
65.9037 37.5018 2
63.9178 39.2695 2
63.3489 42.557 2
62.4538 40.7038 2
61.9907 45.9309 2
61.4766 43.6941 2
63.9782 37.4574 3.97721
62.1823 39.3589 3.97762
61.2448 41.9678 3.97897
60.2789 44.783 3.98215
65.8911 35.6653 0.0219117
65.2024 32.149 0.0213628
64.3029 34.246 0.022069
62.616 30.6258 0.021175
59.314 15.6548 0.0150644
59.131 18.3373 0.0159838
58.7544 20.832 0.0183909
61.6737 27.057 0.0193242
60.8753 29.1259 0.0180283
59.3575 25.7758 0.0171382
58.3062 23.0686 0.0198296
57.9944 24.6413 0.0168235
56.6796 15.727 0.0159572
54.3792 15.9829 0.0166701
53.8111 13.6678 0.0168038
52.112 8.14798 0.0103708
53.0581 11.0074 0.0141423
64.1093 35.6301 2
62.9518 33.0393 2
60.6402 30.5987 2
57.9439 16.9666 2
57.7244 19.4557 2
57.3878 21.8172 2
59.5997 27.8923 2
57.2101 23.9236 2
57.7687 25.7034 2
50.1122 7.27997 2
55.5411 16.9553 2
53.7615 16.9642 2
52.9798 15.2491 2
52.1729 12.7848 2
51.2323 10.1156 2
62.2152 35.356 3.97719
60.3207 32.736 3.97715
58.6547 30.0584 3.98016
57.3261 27.3586 3.98366
56.6412 18.1381 3.98389
56.3218 25.0784 3.98154
56.3684 20.5004 3.98127
56.129 22.845 3.9774
48.056 6.52371 3.99015
49.3241 9.32437 3.98728
50.4334 11.9837 3.98448
51.3794 14.4852 3.98228
54.419 17.904 3.98349
52.3641 17.0212 3.98219
52.0693 67.0032 0.0107353
52.9526 64.2239 0.014304
61.0186 47.8957 0.0204252
53.6822 61.6303 0.0161456
56.6525 59.5023 0.0159998
54.2636 59.3334 0.0169887
59.7326 52.1252 0.0176584
58.0551 49.6376 0.0192373
56.785 57.007 0.0181406
57.1383 54.146 0.0188788
51.1667 65.1332 2
52.0461 62.5453 2
55.4859 58.2653 2
52.8366 60.145 2
53.6444 58.4846 2
58.3388 46.8655 2
57.5861 51.8092 2
56.2798 49.5758 2
55.4827 55.8153 2
55.3772 53.4066 2
50.3456 63.3863 3.98447
51.245 60.9423 3.98268
54.2254 57.2801 3.98255
52.3159 58.6452 3.98238
56.7599 44.2004 3.98274
55.5318 47.9157 3.98117
55.0974 51.4125 3.97837
54.0182 54.5675 3.97781
49.3358 65.926 0.0130833
48.6171 64.1288 2
47.9614 62.4808 3.9837
45.5573 67.1033 0.0123488
46.8913 64.7423 0.014472
43.6307 67.475 2
46.3808 63.0606 2
45.1315 65.2045 2
45.9867 61.5928 3.98291
44.766 63.4616 3.9845
43.3555 65.514 3.98592
41.663 67.6939 3.98801
39.7023 70.0287 3.99045
41.8606 69.8819 2
42.111 72.2086 3.99421
43.9731 69.5938 0.0096067
44.3766 71.864 2
44.8159 74.2794 4
46.609 71.3688 0.00595162
47.2057 73.7222 2
49.554 73.0099 0
48.784 4.32079 3.99397
50.9536 5.12946 2
51.8506 2.85458 4
53.0637 6.0691 0.00640151
54.0858 3.86728 2
56.25 5.02411 0
61.9909 45.9309 0.0202603
63.3492 42.557 0.0213741
61.4769 43.6942 0.0182023
62.4541 40.7039 0.0221148
63.9181 39.2696 0.0223937
65.9041 37.502 0.0228797
63.9777 37.4572 2
62.1819 39.3588 2
61.2444 41.9677 2
60.2786 44.7829 2
62.0212 37.445 3.97765
60.2814 39.8538 3.97771
59.0299 42.9315 3.98077
64.1097 35.6303 0.0224807
62.9524 33.0396 0.0223027
60.641 30.5988 0.0206869
57.9437 16.9669 0.0157386
57.7241 19.4558 0.0170018
57.3877 21.8168 0.0201547
59.6003 27.8922 0.0183642
57.7691 25.703 0.0157639
57.2104 23.923 0.0198424
55.541 16.9555 0.016145
53.7615 16.9644 0.0164771
52.9798 15.2494 0.0179174
50.1122 7.28035 0.0100649
52.1729 12.7852 0.0159933
51.2323 10.1161 0.0134367
62.2147 35.3558 2
60.3199 32.7358 2
58.6538 30.0584 2
56.6415 18.1379 2
56.3687 20.5004 2
56.1289 22.8457 2
57.3254 27.359 2
56.3214 25.0791 2
48.056 6.52336 2
49.3241 9.32395 2
54.4192 17.9039 2
52.3641 17.021 2
51.3794 14.4847 2
50.4334 11.9832 2
59.9294 35.115 3.97731
58.0333 32.2559 3.97771
56.5855 29.3174 3.98119
55.4848 26.576 3.98463
55.3483 19.1718 3.98316
54.9554 24.0326 3.97659
55.0155 21.5408 3.97977
45.962 5.87897 3.9904
43.3734 7.46799 3.98842
47.3546 8.61846 3.98764
48.5999 11.2853 3.98515
49.7149 13.7324 3.98317
50.6357 16.1196 3.98092
53.1293 18.6441 3.98249
51.3062 18.035 3.98302
51.1668 65.1329 0.013711
52.0461 62.5449 0.0159845
58.339 46.8657 0.0182378
52.8366 60.1446 0.0168546
55.4857 58.2648 0.0164838
53.6442 58.4841 0.0169169
57.5859 51.8093 0.0191178
56.2798 49.576 0.017807
55.4824 55.815 0.0196916
55.3769 53.4066 0.0215682
50.3455 63.3867 2
51.245 60.9427 2
54.2257 57.2805 2
52.316 58.6457 2
56.7595 44.2 2
55.5317 47.9155 2
55.0976 51.4125 2
54.0186 54.5677 2
49.5917 61.7503 3.98314
55.6949 41.7219 3.97809
50.5689 59.3361 3.98148
52.1915 56.5035 3.98093
54.2369 45.581 3.9823
53.3814 49.3503 3.97902
52.6893 52.8745 3.97662
48.6172 64.1283 0.0149332
47.9613 62.4812 2
47.3291 61.0154 3.98262
43.6307 67.4745 0.0121548
45.1315 65.204 0.0141599
46.3809 63.0601 0.0159059
41.663 67.6943 2
43.3555 65.5145 2
45.9866 61.5932 2
44.766 63.4621 2
45.7659 60.6369 3.98201
44.4823 61.8427 3.98323
43.1452 63.7345 3.98462
41.5451 65.6524 3.98617
39.6323 67.7739 3.98812
37.5259 70.0541 3.99048
39.7023 70.0291 2
39.8179 72.4057 3.99411
41.8605 69.8815 0.00951555
42.1111 72.2089 2
42.3947 74.6792 4
44.3765 71.8638 0.00579018
44.8159 74.2794 2
47.2057 73.7222 0
43.8515 5.35603 3.99066
46.5701 3.64546 3.99414
48.7842 4.32061 2
49.554 1.99015 4
50.9535 5.12965 0.00623424
51.8506 2.85453 2
54.0858 3.86728 0
60.2789 44.783 0.017852
61.2448 41.9678 0.0210307
62.1823 39.3589 0.0223753
63.9782 37.4574 0.0227902
62.0207 37.4448 2
60.2809 39.8536 2
59.0295 42.9313 2
59.8019 37.5677 3.97863
58.0465 40.6677 3.97768
55.1798 39.7291 3.97889
62.2152 35.356 0.022815
60.3207 32.736 0.0228492
58.6547 30.0584 0.0198379
56.6412 18.1381 0.0161125
56.3684 20.5004 0.0187333
56.129 22.845 0.0225976
57.3261 27.3586 0.0163431
56.3218 25.0784 0.0184572
54.419 17.904 0.0165116
52.3641 17.0212 0.0178113
51.3794 14.4852 0.0177165
48.056 6.52371 0.00984502
49.3241 9.32437 0.0127244
50.4334 11.9837 0.0155223
59.9287 35.1147 2
45.962 5.87861 2
43.3735 7.46767 2
58.0322 32.2557 2
56.5845 29.3175 2
55.3486 19.1716 2
55.0158 21.541 2
54.9551 24.0337 2
55.484 26.5768 2
47.3546 8.61809 2
48.5999 11.2849 2
53.1295 18.644 2
51.3063 18.0347 2
50.6357 16.1191 2
49.7149 13.732 2
57.447 34.7528 3.97823
55.7765 31.4987 3.97833
54.5597 28.3792 3.98648
53.8056 25.4741 3.97943
53.9761 20.1193 3.98292
53.599 22.6859 3.97535
41.3986 7.07322 3.98856
45.3594 7.98999 3.98805
42.8651 9.40871 3.98667
46.6661 10.6463 3.98563
47.7456 13.0928 3.98337
48.933 15.3899 3.98214
50.0087 17.6888 3.97937
51.6575 19.313 3.98431
50.3456 63.3863 0.0155301
51.245 60.9423 0.0173179
56.7599 44.2004 0.0172563
55.5318 47.9157 0.0188278
52.3159 58.6452 0.0176209
54.2254 57.2801 0.0174456
55.0974 51.4125 0.0216333
54.0182 54.5675 0.0221877
49.5916 61.7508 2
55.6942 41.7211 2
50.5688 59.3365 2
52.192 56.5041 2
54.2368 45.5806 2
53.3813 49.3498 2
52.6897 52.8733 2
48.8496 60.2078 3.98224
52.6041 42.6567 3.97732
49.7927 57.6361 3.98137
50.6079 54.4383 3.97766
51.8782 47.288 3.97946
51.2485 50.968 3.97501
48.2982 43.7413 3.97497
47.9614 62.4808 0.0163009
47.329 61.0158 2
46.619 59.8018 3.98196
41.663 67.6939 0.0119948
43.3555 65.514 0.0140832
44.766 63.4616 0.0154953
45.9867 61.5928 0.0170876
39.6323 67.7743 2
41.5451 65.6528 2
45.7658 60.6372 2
43.1451 63.7349 2
44.4822 61.8431 2
44.623 60.2994 3.98207
42.9494 62.0918 3.98363
41.5986 63.8284 3.98466
39.6468 65.6213 3.98642
37.563 67.7566 3.98796
31.6976 65.1398 3.98617
33.3922 67.4942 3.98793
35.3333 69.9642 3.99044
37.5259 70.0546 2
37.5096 72.4603 3.99413
39.7023 70.0287 0.00954572
39.8179 72.406 2
39.9526 74.9197 4
42.111 72.2086 0.00579406
42.3947 74.6792 2
44.8159 74.2794 0
41.7361 4.96514 3.99088
43.8515 5.35569 2
44.3255 3.10879 3.9943
46.5702 3.64525 2
47.2057 1.27793 4
48.784 4.32079 0.00603206
49.554 1.99013 2
51.8506 2.85458 0
59.0299 42.9315 0.0192324
60.2814 39.8538 0.0222902
62.0212 37.445 0.0223463
59.8012 37.5674 2
58.0458 40.6675 2
55.1786 39.7284 2
56.8874 37.8984 3.97976
49.7622 41.3075 3.97745
53.2255 39.3129 3.98266
39.442 6.7968 3.9888
59.9294 35.115 0.0226908
58.0333 32.2559 0.0222878
56.5855 29.3174 0.0188145
55.3483 19.1718 0.0168433
55.0155 21.5408 0.0202341
54.9554 24.0326 0.0234144
55.4848 26.576 0.0153654
53.1293 18.6441 0.0175071
51.3062 18.035 0.0169805
50.6357 16.1196 0.0190784
45.962 5.87897 0.00959578
49.7149 13.7324 0.0168284
47.3546 8.61846 0.0123594
48.5999 11.2853 0.0148461
43.3734 7.46799 0.0115838
57.4462 34.7527 2
41.3986 7.07282 2
45.3594 7.98967 2
42.8651 9.40842 2
55.7751 31.4984 2
54.5583 28.3799 2
53.9765 20.1191 2
53.5994 22.686 2
53.805 25.4757 2
46.6661 10.646 2
47.7455 13.0925 2
51.6577 19.3127 2
50.0088 17.6884 2
48.933 15.3896 2
54.955 33.9573 3.97921
53.5562 30.4588 3.98215
52.6369 27.1766 3.9833
52.1703 24.0646 3.97656
52.4015 21.053 3.98078
41.0132 9.04197 3.98688
44.7233 9.98898 3.98622
42.4678 10.8947 3.98505
46.005 12.7207 3.98403
47.6824 14.5745 3.98272
48.1154 16.9771 3.9806
49.8214 19.5872 3.97803
49.5917 61.7503 0.016861
50.5689 59.3361 0.0185241
55.6949 41.7219 0.0219056
54.2369 45.581 0.0177039
53.3814 49.3503 0.0209792
52.1915 56.5035 0.0190684
52.6893 52.8745 0.0233833
48.8495 60.2083 2
52.6037 42.6555 2
49.7928 57.6366 2
50.6083 54.4395 2
51.8778 47.2878 2
51.2484 50.9656 2
48.2896 43.7421 2
47.9882 58.7498 3.98153
50.1956 45.2854 3.97754
48.6047 55.9276 3.98137
49.1513 52.6156 3.97823
49.7216 49.0679 3.97551
46.1743 39.9041 3.91421
46.5532 42.7507 3.98002
46.6077 45.7516 3.98221
44.0192 41.2324 3.96312
42.1089 41.9898 3.96098
47.3291 61.0154 0.0173839
46.6188 59.802 2
45.4687 58.798 3.98095
39.6323 67.7739 0.0118835
41.5451 65.6524 0.0138322
43.1452 63.7345 0.015384
44.4823 61.8427 0.016768
45.7659 60.6369 0.0179862
41.5985 63.8288 2
37.563 67.7571 2
39.6468 65.6218 2
44.623 60.2997 2
42.9494 62.0922 2
41.7524 62.5031 3.98378
42.4804 59.9917 3.98228
39.8922 63.5641 3.98442
37.6418 65.5206 3.98615
35.4633 67.666 3.98801
33.5756 65.3535 3.98615
31.9598 63.3125 3.98464
29.8838 64.7303 3.98593
31.6976 65.1403 2
31.377 67.2036 3.98795
33.3922 67.4946 2
33.1562 69.7575 3.99041
35.3333 69.9647 2
35.195 72.3748 3.99409
37.5259 70.0541 0.00951781
37.5096 72.4606 2
37.5 75 4
39.8179 72.4057 0.00589165
39.9526 74.9197 2
42.3947 74.6792 0
39.6237 4.71238 3.99096
41.7362 4.96476 2
42.062 2.71642 3.99447
43.8515 5.35603 0.0093401
44.3256 3.10857 2
44.8158 0.721173 4
46.5701 3.64546 0.00585533
47.2057 1.27779 2
49.554 1.99015 0
58.0465 40.6677 0.0223159
59.8019 37.5677 0.0213668
55.1798 39.7291 0.0211096
49.7612 41.3083 2
56.8865 37.8983 2
53.2238 39.3116 2
54.0802 36.6217 3.97872
47.6874 40.4523 3.98995
50.7175 38.4872 3.981
37.5158 6.66788 3.9888
39.442 6.79637 2
39.2109 8.68449 3.98711
35.9414 8.4844 3.98713
57.447 34.7528 0.0217737
55.7765 31.4987 0.0216707
54.5597 28.3792 0.0135156
53.9761 20.1193 0.0170753
53.599 22.6859 0.0246485
53.8056 25.4741 0.0205727
51.6575 19.313 0.0156924
50.0087 17.6888 0.0206289
48.933 15.3899 0.0178567
45.3594 7.98999 0.0119462
47.7456 13.0928 0.0166321
46.6661 10.6463 0.0143715
41.3986 7.07322 0.0114354
42.8651 9.40871 0.0133315
54.9539 33.9569 2
41.0132 9.04153 2
44.7232 9.98873 2
42.4678 10.8945 2
53.5543 30.4578 2
52.6358 27.1794 2
52.402 21.0524 2
52.1703 24.0664 2
46.0049 12.7204 2
47.6824 14.5742 2
49.8216 19.5872 2
48.1154 16.9769 2
52.5039 32.8519 3.98048
51.4079 29.1334 3.98438
50.8311 25.7026 3.97325
49.9509 22.1657 3.97903
40.5687 11.5981 3.98449
43.8577 11.9097 3.98447
45.8034 15.4099 3.98232
47.5071 19.2103 3.97925
46.504 37.5031 3.91524
48.8496 60.2078 0.0177591
49.7927 57.6361 0.0186308
52.6041 42.6567 0.0226767
51.8782 47.288 0.0205369
51.2485 50.968 0.0249892
50.6079 54.4383 0.0223436
48.2982 43.7413 0.0250258
47.9882 58.7503 2
50.1962 45.2855 2
48.6048 55.9281 2
49.1515 52.6169 2
49.7205 49.0651 2
46.1794 39.9068 2
46.5582 42.7525 2
46.6011 45.7516 2
44.0251 41.2311 2
42.1188 41.9941 2
46.8408 57.3525 3.98258
44.7864 39.499 3.95888
42.4814 40.8654 3.97156
48.1679 47.265 3.98318
47.1801 54.2609 3.98163
47.6223 50.7769 3.97773
44.8839 47.348 3.99063
45.236 42.0164 3.92267
45.02 44.6508 3.96581
42.8147 42.7359 3.95627
40.9622 42.356 3.96048
46.619 59.8018 0.0180371
45.4685 58.7981 2
43.8763 57.7222 3.98088
37.563 67.7566 0.0120447
39.6468 65.6213 0.013577
41.5986 63.8284 0.0153405
42.9494 62.0918 0.0163695
44.623 60.2994 0.0179297
35.4633 67.6665 2
41.7523 62.5035 2
39.8921 63.5645 2
37.6418 65.521 2
42.4803 59.992 2
40.6221 61.6616 3.98344
40.444 58.222 3.98038
37.8359 63.2258 3.98486
35.5729 65.4429 3.98617
33.5756 65.354 2
31.9598 63.3129 2
33.6291 63.3526 3.98475
30.3788 62.8706 3.98439
32.1231 62.0186 3.9835
26.8677 61.513 3.98319
28.0626 64.1579 3.98557
29.8838 64.7308 2
29.4067 66.7669 3.98778
31.6976 65.1398 0.013828
31.377 67.2041 2
31.0136 69.4223 3.99027
33.3922 67.4942 0.0120719
33.1562 69.7579 2
32.8921 72.149 3.99411
35.3333 69.9642 0.00955715
35.195 72.375 2
35.0474 74.9194 4
37.5096 72.4603 0.00587119
37.5 75 2
39.9526 74.9197 0
35.6204 6.71898 3.98881
37.5229 4.61185 3.99103
39.6237 4.71201 2
39.7885 2.47292 3.99453
41.7361 4.96514 0.00912305
42.062 2.71617 2
42.3946 0.32156 4
44.3255 3.10879 0.00570277
44.8159 0.72056 2
47.2057 1.27793 0
49.7622 41.3075 0.0225519
56.8874 37.8984 0.0202438
53.2255 39.3129 0.0173362
47.6872 40.4491 2
50.7149 38.4871 2
54.0792 36.6215 2
51.5019 35.5656 3.96882
48.3493 37.7611 3.99068
46.1714 35.1032 3.91557
44.0117 33.7724 3.96226
42.0975 33.0272 3.96423
37.4576 8.5262 3.98716
37.5158 6.66747 2
39.442 6.7968 0.0112039
39.2109 8.68402 2
38.9758 10.1166 3.98623
35.8978 9.7636 3.98614
34.1497 8.81385 3.98685
35.9413 8.48392 2
54.955 33.9573 0.0207899
53.5562 30.4588 0.0178526
52.6369 27.1766 0.0166992
52.4015 21.053 0.0192226
52.1703 24.0646 0.0234382
49.8214 19.5872 0.0219698
48.1154 16.9771 0.0193955
47.6824 14.5745 0.0172814
44.7233 9.98898 0.0137794
46.005 12.7207 0.0159668
41.0132 9.04197 0.0131166
42.4678 10.8947 0.0149518
52.5026 32.8511 2
40.5686 11.5977 2
43.8575 11.9095 2
51.406 29.1355 2
50.8307 25.7046 2
49.9512 22.1658 2
45.8033 15.4096 2
47.5071 19.21 2
50.1163 31.3869 3.97262
49.3475 27.4603 3.97345
49.433 24.3795 3.97957
47.1935 21.9124 3.97773
38.3013 12.7231 3.98363
42.1009 14.2937 3.9824
44.8025 18.4462 3.98023
45.0603 37.5032 3.95282
46.5151 37.5046 2
47.9882 58.7498 0.0184703
48.6047 55.9276 0.0186323
50.1956 45.2854 0.0224564
49.7216 49.0679 0.0244932
49.1513 52.6156 0.0217699
46.1743 39.9041 0.0857894
46.5532 42.7507 0.0199787
46.6077 45.7516 0.0177873
44.0192 41.2324 0.0368815
42.1089 41.9898 0.0390241
46.8408 57.353 2
44.7943 39.4975 2
42.4834 40.8671 2
48.1657 47.2625 2
47.1802 54.2612 2
47.6221 50.7765 2
44.8815 47.3396 2
45.2387 42.0191 2
45.0277 44.6575 2
42.8253 42.7335 2
40.9719 42.3552 2
45.4013 55.939 3.98009
42.812 39.2592 3.97468
40.9175 40.8104 3.96701
46.1479 48.94 3.9798
45.5653 52.5625 3.98435
43.5189 48.4807 3.95556
43.4096 46.2084 3.98218
43.7809 43.823 3.91632
41.2832 43.8972 3.96718
39.3257 42.6684 3.95649
45.4687 58.798 0.0190481
43.8761 57.7222 2
42.1068 56.3458 3.98105
35.4633 67.666 0.01199
37.6418 65.5206 0.0138514
39.8922 63.5641 0.0155752
41.7524 62.5031 0.0162157
42.4804 59.9917 0.0177225
35.5729 65.4434 2
40.622 61.6619 2
37.8358 63.2262 2
40.444 58.2223 2
38.9253 56.5115 3.98113
38.2497 60.3456 3.98304
35.6066 63.2194 3.98465
33.5756 65.3535 0.0138457
31.9598 63.3125 0.0153591
33.6292 63.353 2
30.3789 62.871 2
32.1231 62.019 2
28.681 62.2154 3.9841
33.3457 61.5314 3.98328
31.0658 61.2351 3.9829
27.5653 59.61 3.98212
23.7869 59.0995 3.98435
25.0323 60.8856 3.98296
26.8678 61.5134 2
26.2289 63.4897 3.98505
28.0626 64.1583 2
27.4634 66.1904 3.98755
29.8838 64.7303 0.0140697
29.4067 66.7674 2
28.906 68.9476 3.99015
31.377 67.2036 0.0120536
31.0135 69.4227 2
30.6146 71.78 3.99406
33.1562 69.7575 0.0095914
32.892 72.1493 2
32.6054 74.6784 4
35.195 72.3748 0.00590743
35.0474 74.9197 2
37.5 75 0
33.723 6.97357 3.9885
35.4343 4.68229 3.99092
35.6203 6.71853 2
37.5141 2.38555 3.9946
37.5229 4.61149 2
39.6237 4.71238 0.00904469
39.7885 2.47267 2
39.9526 0.0806499 4
42.062 2.71642 0.00552861
42.3947 0.320817 2
44.8158 0.721173 0
44.7906 35.5051 3.95717
42.4747 34.1451 3.97095
47.6874 40.4523 0.0100498
50.7175 38.4872 0.0189957
54.0802 36.6217 0.0212797
48.3469 37.7596 2
51.5007 35.5658 2
46.1721 35.1018 2
44.0227 33.7713 2
42.1038 33.0252 2
48.5184 34.2505 4.0047
45.2229 32.99 3.91762
42.8043 32.2759 3.95916
40.9487 32.6672 3.96266
37.3098 10.6197 3.98545
37.4576 8.52571 2
37.5158 6.66788 0.0112041
39.2109 8.68449 0.0128912
38.9758 10.1161 2
34.7529 10.3692 3.98538
35.8977 9.76315 2
32.3764 9.36052 3.98617
34.1497 8.81338 2
35.9414 8.4844 0.0128659
52.5039 32.8519 0.0195174
51.4079 29.1334 0.0156166
50.8311 25.7026 0.0267497
49.9509 22.1657 0.0209696
47.5071 19.2103 0.0207483
45.8034 15.4099 0.0176827
43.8577 11.9097 0.0155349
40.5687 11.5981 0.0155071
50.114 31.3873 2
38.3011 12.7223 2
42.1007 14.2938 2
49.3459 27.4617 2
49.4332 24.3797 2
47.1936 21.914 2
44.8024 18.4459 2
47.8935 29.5914 3.96977
47.1357 25.1058 3.97786
44.2929 21.3004 3.97851
36.5809 12.9194 3.98356
38.6803 14.7934 3.98226
41.7507 17.8233 3.98035
42.9402 37.4945 3.97814
45.0738 37.5038 2
46.504 37.5031 0.0847581
46.8408 57.3525 0.0174166
47.1801 54.2609 0.0183669
48.1679 47.265 0.0168203
47.6223 50.7769 0.0222695
44.7864 39.499 0.0411162
45.236 42.0164 0.077333
45.02 44.6508 0.0341931
44.8839 47.348 0.00937423
42.8147 42.7359 0.0437344
42.4814 40.8654 0.0284414
40.9622 42.356 0.0395187
45.4015 55.9394 2
42.813 39.2591 2
40.918 40.811 2
46.1476 48.9362 2
45.5656 52.5618 2
43.517 48.4804 2
43.4377 46.2189 2
43.7864 43.8267 2
41.2884 43.8907 2
39.3312 42.6726 2
43.7411 54.4494 3.98605
40.9854 39.1806 3.95623
39.2415 40.8698 3.93202
43.7461 50.5368 3.98956
42.0185 47.7358 4.0184
41.9299 45.2146 3.91381
39.4993 44.6584 3.97142
37.5005 42.7871 3.95975
43.8763 57.7222 0.0191163
42.1067 56.3455 2
40.4207 54.9468 3.97851
35.5729 65.4429 0.0138281
37.8359 63.2258 0.0151419
40.6221 61.6616 0.0165601
40.444 58.222 0.0196213
35.6066 63.2199 2
38.2497 60.3459 2
38.9251 56.5129 2
37.9997 55.2655 3.97981
36.9345 57.6462 3.98041
35.3632 60.9304 3.98331
33.6291 63.3526 0.0152478
30.3788 62.8706 0.0156078
32.1231 62.0186 0.0165038
33.3456 61.5317 2
28.6811 62.2158 2
31.0659 61.2354 2
29.4012 60.3042 3.98235
32.3551 59.7622 3.98256
28.017 58.3891 3.98299
27.5654 59.6103 2
25.3738 58.6106 3.98226
22.749 58.2595 3.98125
23.397 60.3657 3.98305
23.7868 59.1 2
25.0323 60.886 2
24.4309 62.7818 3.98453
26.8677 61.513 0.0168072
26.229 63.49 2
25.5475 65.5002 3.9871
28.0626 64.1579 0.0144296
27.4634 66.1909 2
26.8358 68.3358 3.98999
29.4067 66.7669 0.0122213
28.9059 68.948 2
28.3698 71.2652 3.99397
31.0136 69.4223 0.00973098
30.6145 71.7803 2
30.1842 74.2788 4
32.8921 72.149 0.00589258
32.6053 74.6792 2
35.0474 74.9194 0
31.7875 7.41321 3.98809
33.3463 4.92144 3.99075
33.7229 6.97307 2
35.2444 2.46172 3.99452
35.4343 4.6819 2
35.6204 6.71898 0.0111899
37.5 0 4
37.5141 2.3853 2
37.5229 4.61185 0.00897344
39.7885 2.47292 0.00547199
39.9526 0.0802889 2
42.3946 0.32156 0
42.8151 35.7376 3.97547
44.7942 35.5082 2
40.9107 34.2106 3.96855
42.4761 34.144 2
48.3493 37.7611 0.00932052
51.5019 35.5656 0.0311822
46.1714 35.1032 0.084427
44.0117 33.7724 0.0377444
42.0975 33.0272 0.0357711
48.5174 34.2513 2
45.2285 32.9841 2
42.8145 32.2747 2
40.9554 32.6653 2
46.4343 31.4964 3.989
43.7646 31.1856 3.91796
41.2756 31.1264 3.96157
39.3098 32.3598 3.9543
35.6912 11.7642 3.98396
37.3097 10.619 2
37.4576 8.5262 0.012844
38.9758 10.1166 0.0137658
33.0968 11.2059 3.98444
34.7528 10.3688 2
35.8978 9.7636 0.0138629
30.4811 10.0086 3.98575
32.3763 9.36014 2
34.1497 8.81385 0.0131484
50.1163 31.3869 0.0273831
49.3475 27.4603 0.0265545
49.433 24.3795 0.0204296
47.1935 21.9124 0.0222737
44.8025 18.4462 0.0197745
42.1009 14.2937 0.0175952
38.3013 12.7231 0.0163688
36.5808 12.9193 2
47.8893 29.5929 2
38.6801 14.7926 2
41.7503 17.8234 2
47.1357 25.1068 2
44.293 21.3001 2
45.6397 27.8044 3.97402
43.8223 24.0343 3.98089
41.3442 20.7009 3.98007
35.7705 14.7444 3.98253
38.6811 17.5803 3.98062
41.0286 37.4918 3.95011
42.944 37.4954 2
45.0603 37.5032 0.0471806
45.4013 55.939 0.0199097
45.5653 52.5625 0.0156493
46.1479 48.94 0.0201961
42.812 39.2592 0.0253178
43.7809 43.823 0.0836809
43.4096 46.2084 0.0178166
43.5189 48.4807 0.0444361
41.2832 43.8972 0.0328239
40.9175 40.8104 0.0329917
39.3257 42.6684 0.0435083
43.7416 54.4498 2
40.9849 39.181 2
39.2412 40.8737 2
43.7458 50.5377 2
42.0179 47.7386 2
41.9412 45.2148 2
37.5018 42.7962 2
39.5083 44.663 2
41.891 53.0152 3.98613
39.2344 39.1701 3.93022
37.5044 40.9207 3.91836
35.6802 42.6861 3.95681
40.9865 49.7586 3.99646
39.8179 46.0945 3.91662
37.497 44.9248 3.96589
42.1068 56.3458 0.0189479
40.4205 54.9466 2
38.7296 53.8746 3.98415
35.6066 63.2194 0.0153505
38.2497 60.3456 0.0169644
38.9253 56.5115 0.0188705
35.3631 60.9307 2
36.9342 57.6464 2
37.9992 55.2657 2
36.3184 55.4026 3.98052
34.4866 58.5401 3.98187
33.3457 61.5314 0.0167203
28.681 62.2154 0.0159032
31.0658 61.2351 0.0170956
32.3551 59.7624 2
29.4012 60.3044 2
30.2931 57.8338 3.98229
28.017 58.3894 2
26.935 56.8396 3.98069
27.5653 59.61 0.0178759
25.3737 58.611 2
23.8277 56.825 3.97959
21.3237 57.4206 3.98226
21.9882 59.6394 3.98363
22.7489 58.2599 2
22.734 62.0331 3.98404
23.397 60.3661 2
23.7869 59.0995 0.0156482
25.0323 60.8856 0.0170367
24.431 62.7822 2
23.6812 64.7183 3.98642
26.2289 63.4897 0.0149542
25.5475 65.5006 2
24.8083 67.5969 3.98982
27.4634 66.1904 0.0124548
26.8357 68.3362 2
26.1651 70.6059 3.99386
28.906 68.9476 0.00985474
28.3696 71.2654 2
27.7943 73.7221 4
30.6146 71.78 0.00594431
30.1841 74.2794 2
32.6054 74.6784 0
29.81 7.98642 3.98759
31.2515 5.32847 3.99046
31.7874 7.41277 2
32.9802 2.69981 3.9944
33.3463 4.92099 2
33.723 6.97357 0.0114951
35.0474 0.080333 4
35.2443 2.46146 2
35.4343 4.68229 0.0090797
37.5 0 2
37.5141 2.38555 0.00540033
39.9526 0.0806499 0
40.9901 35.8153 3.95687
42.8143 35.7384 2
44.7906 35.5051 0.0428302
28.542 10.6839 3.9853
39.2335 34.1576 3.93393
40.91 34.2092 2
42.4747 34.1451 0.0290523
48.5184 34.2505 -0.00470163
45.2229 32.99 0.0823818
42.8043 32.2759 0.04084
40.9487 32.6672 0.0373438
46.4441 31.4927 2
43.7667 31.1801 2
41.2847 31.1238 2
39.3156 32.3522 2
44.4511 29.6693 3.98213
41.9183 29.8098 3.92198
39.4893 30.3846 3.96944
37.481 32.2458 3.95819
34.0909 12.9222 3.98325
35.6912 11.7639 2
37.3098 10.6197 0.0145529
31.1848 11.9742 3.98432
33.0968 11.2056 2
34.7529 10.3692 0.0146202
30.481 10.0082 2
32.3764 9.36052 0.0138316
47.8935 29.5914 0.0302296
47.1357 25.1058 0.0221413
36.5809 12.9194 0.0164432
44.2929 21.3004 0.0214897
41.7507 17.8233 0.0196491
38.6803 14.7934 0.0177381
35.7703 14.7448 2
45.6368 27.8083 2
38.6807 17.5796 2
41.3438 20.7007 2
43.8222 24.0387 2
33.6057 15.8617 3.98256
43.1148 26.5267 3.98531
40.9266 23.2735 3.98061
38.4222 20.3089 3.98117
35.8467 17.4933 3.98128
39.2425 37.495 3.93026
41.029 37.4916 2
42.9402 37.4945 0.0218575
43.7411 54.4494 0.0139483
43.7461 50.5368 0.0104366
40.9854 39.1806 0.0437688
41.9299 45.2146 0.0861864
42.0185 47.7358 -0.0183981
39.4993 44.6584 0.0285838
39.2415 40.8698 0.0679835
37.5005 42.7871 0.0402454
41.8913 53.0161 2
39.2339 39.1718 2
37.5048 40.9283 2
40.9851 49.7586 2
35.6759 42.6905 2
39.8298 46.1001 2
37.4999 44.9087 2
39.8299 51.9351 3.98986
37.502 39.1877 3.92434
35.7696 40.8885 3.92916
34.0444 42.3726 3.96098
35.4877 44.6646 3.96896
38.7725 48.7936 4.03105
37.5064 46.4067 3.91079
40.4207 54.9468 0.0214891
38.7292 53.874 2
36.7178 53.2278 3.98576
35.3632 60.9304 0.0166937
36.9345 57.6462 0.0195875
37.9997 55.2655 0.0201868
34.4865 58.5402 2
36.3181 55.4022 2
33.2215 55.5213 3.98195
32.3551 59.7622 0.0174364
29.4012 60.3042 0.0176543
30.2932 57.8339 2
28.6741 55.3261 3.97893
28.017 58.3891 0.0170103
26.9347 56.8402 2
25.2922 55.1626 3.97879
21.7906 55.3704 3.97966
25.3738 58.6106 0.0177366
23.8274 56.8254 2
20.2068 57.052 3.98376
20.6379 58.7987 3.98356
21.3234 57.421 2
21.163 61.184 3.98452
21.9881 59.6397 2
22.749 58.2595 0.0187529
21.8941 63.8462 3.98586
22.734 62.0335 2
23.397 60.3657 0.016954
24.4309 62.7818 0.0154669
23.6812 64.7188 2
22.8367 66.7407 3.98951
25.5475 65.5002 0.0129035
24.8082 67.5973 2
24.0094 69.8071 3.99374
26.8358 68.3358 0.0100069
26.1649 70.6061 2
25.446 73.0099 4
28.3698 71.2652 0.00602653
27.7943 73.7222 2
30.1842 74.2788 0
27.82 8.64592 3.98731
29.1535 5.87414 3.99007
29.8099 7.98599 2
30.7255 3.09689 3.9942
31.2514 5.32806 2
31.7875 7.41321 0.0119062
32.6053 0.320823 4
32.9801 2.69954 2
33.3463 4.92144 0.00924861
35.0474 0.0802903 2
35.2444 2.46172 0.00548434
37.5 0 0
39.2392 35.8325 3.93033
40.9887 35.8145 2
42.8151 35.7376 0.0245268
28.542 10.6836 2
26.621 11.3794 3.98504
29.2237 12.631 3.98402
37.4949 34.1088 3.924
39.2324 34.1517 2
40.9107 34.2106 0.0314483
46.4343 31.4964 0.0109967
43.7646 31.1856 0.0820353
41.2756 31.1264 0.0384324
39.3098 32.3598 0.0457015
44.4621 29.661 2
41.9313 29.8035 2
39.4962 30.3803 2
37.4833 32.2385 2
42.3615 28.354 3.985
39.8178 28.9378 3.91907
37.48 30.1225 3.9633
35.6585 32.3522 3.95558
31.9123 14.4681 3.98286
34.091 12.9221 2
35.6912 11.7642 0.016041
31.1848 11.9738 2
33.0968 11.2059 0.0155572
30.4811 10.0086 0.014251
45.6397 27.8044 0.0259787
43.8223 24.0343 0.0191097
35.7705 14.7444 0.0174682
41.3442 20.7009 0.0199262
38.6811 17.5803 0.0193758
33.6056 15.8622 2
35.8464 17.494 2
43.1128 26.5314 2
38.422 20.3092 2
40.9266 23.2733 2
33.5476 17.3703 3.98267
40.4848 25.6194 3.99671
38.0832 22.8381 3.98803
35.5822 20.0611 3.9824
37.5026 37.5042 3.9279
39.2429 37.4945 2
41.0286 37.4918 0.0498852
41.891 53.0152 0.0138714
40.9865 49.7586 0.00354059
39.2344 39.1701 0.0697848
39.8179 46.0945 0.0833783
37.497 44.9248 0.0341108
37.5044 40.9207 0.0816397
35.6802 42.6861 0.0431873
39.8309 51.9352 2
37.5024 39.1916 2
35.771 40.8932 2
38.7676 48.8012 2
34.0366 42.3739 2
35.4862 44.6641 2
37.5022 46.4191 2
37.6687 51.0108 3.98127
35.7743 39.192 3.92692
34.1001 40.832 3.9659
32.8961 42.0083 3.96502
33.705 43.9181 3.96197
35.1813 46.1064 3.91908
36.9005 48.4234 4.0175
38.7296 53.8746 0.0158464
36.7173 53.227 2
34.3495 52.492 3.98225
34.4866 58.5401 0.0181277
36.3184 55.4026 0.0194786
33.2214 55.5208 2
30.4996 53.421 3.98012
30.2931 57.8338 0.0177099
28.6737 55.3263 2
26.8553 53.4647 3.97756
26.935 56.8396 0.0193085
25.2917 55.1629 2
23.5445 53.5078 3.97712
20.4387 53.2553 3.97806
19.9162 55.8568 3.98279
21.79 55.3708 2
23.8277 56.825 0.0204112
19.4288 57.9125 3.9834
20.2065 57.0522 2
19.7014 60.2189 3.98409
20.6378 58.799 2
21.3237 57.4206 0.0177389
20.2057 62.8679 3.98569
21.163 61.1843 2
21.9882 59.6394 0.0163696
20.9381 65.7699 3.98903
21.8942 63.8466 2
22.734 62.0331 0.0159575
23.6812 64.7183 0.0135831
22.8366 66.7411 2
21.9121 68.8743 3.99359
24.8083 67.5969 0.010185
24.0093 69.8073 2
23.1494 72.1454 4
26.1651 70.6059 0.00614153
25.446 73.0099 2
27.7943 73.7221 0
25.8593 9.37408 3.98675
27.0684 6.53811 3.98975
27.8199 8.64557 2
28.4877 3.64274 3.99396
29.1534 5.87376 2
29.81 7.98642 0.0124104
30.1841 0.720592 4
30.7253 3.09666 2
31.2515 5.32847 0.00954231
32.6053 0.320817 2
32.9802 2.69981 0.00560307
35.0474 0.080333 0
37.5038 35.8268 3.9251
39.2379 35.8295 2
40.9901 35.8153 0.0431297
24.7757 12.0624 3.98479
23.7492 14.3469 3.98354
28.542 10.6839 0.0146961
26.621 11.3792 2
29.2238 12.6309 2
27.2897 13.3642 3.98395
29.7783 14.1902 3.98329
35.7613 34.1465 3.93389
37.4947 34.1028 2
39.2335 34.1576 0.0660703
37.481 32.2458 0.0418125
44.4511 29.6693 0.0178708
41.9183 29.8098 0.078024
39.4893 30.3846 0.0305616
42.3694 28.3428 2
39.8299 28.9325 2
37.481 30.1331 2
35.6567 32.3455 2
40.0432 27.5336 3.99569
37.4888 28.6326 3.91452
35.4664 30.3817 3.96498
34.0273 32.6601 3.95936
30.9232 16.8255 3.98236
31.9124 14.4678 2
34.0909 12.9222 0.0167458
31.1848 11.9742 0.0156769
43.1148 26.5267 0.014686
40.9266 23.2735 0.019392
33.6057 15.8617 0.017441
35.8467 17.4933 0.0187158
38.4222 20.3089 0.0188254
33.5473 17.3712 2
35.5821 20.0618 2
40.4818 25.626 2
38.0833 22.8403 2
32.8596 19.7776 3.98098
37.7878 25.1332 4.01206
35.2032 22.6201 3.97799
35.7656 37.5134 3.92739
37.5038 37.5048 2
39.2425 37.495 0.0697358
39.8299 51.9351 0.0101446
38.7725 48.7936 -0.0310536
37.502 39.1877 0.0756599
37.5064 46.4067 0.089215
35.4877 44.6646 0.0310369
35.7696 40.8885 0.0708419
34.0444 42.3726 0.0390203
37.6696 51.0212 2
35.7757 39.194 2
34.101 40.8331 2
36.8968 48.4293 2
32.8898 42.0106 2
33.7012 43.9163 2
35.1683 46.1105 2
35.421 50.16 3.98352
34.031 39.2072 3.95191
32.5272 40.8859 3.97192
32.1821 42.7538 3.95908
33.0782 45.2322 3.91827
34.2813 47.5266 3.99366
36.7178 53.2278 0.0142433
34.3492 52.4924 2
31.9664 51.2141 3.97873
33.2215 55.5213 0.0180498
30.4992 53.4231 2
28.3908 51.6461 3.97877
28.6741 55.3261 0.021065
26.8549 53.4658 2
25.0387 51.7971 3.97428
25.2922 55.1626 0.0212135
23.5438 53.5083 2
21.9256 51.8428 3.97587
19.1656 51.6663 3.97789
18.8992 54.3352 3.98031
20.4383 53.2551 2
18.4345 56.7459 3.98395
19.9157 55.857 2
21.7906 55.3704 0.0203372
18.3619 59.128 3.98357
19.4285 57.9128 2
20.2068 57.052 0.0162351
18.6156 61.7766 3.98533
19.7013 60.2192 2
20.6379 58.7987 0.016437
19.1267 64.681 3.98852
20.2057 62.8683 2
21.163 61.184 0.015481
19.8862 67.8111 3.99329
20.9381 65.7702 2
21.8941 63.8462 0.0141439
22.8367 66.7407 0.01049
21.9119 68.8745 2
20.9142 71.1327 4
24.0094 69.8071 0.00626181
23.1494 72.1455 2
25.446 73.0099 0
23.0948 12.7771 3.98442
23.9719 10.1606 3.98636
25.0223 7.30809 3.98946
25.8593 9.37376 2
26.2795 4.32688 3.9937
27.0682 6.53776 2
27.82 8.64592 0.01269
27.7943 1.27781 4
28.4875 3.64254 2
29.1535 5.87414 0.00992938
30.1841 0.720551 2
30.7255 3.09689 0.00580236
32.6053 0.320823 0
35.771 35.8371 3.92835
37.5036 35.8242 2
39.2392 35.8325 0.0696722
24.7758 12.0623 2
23.7493 14.3469 2
22.4772 15.0233 3.98341
25.3557 13.8962 3.98371
24.0216 15.6088 3.98307
26.621 11.3794 0.0149575
29.2237 12.631 0.0159818
27.2898 13.364 2
29.7784 14.19 2
28.3539 15.9646 3.98291
34.0965 34.2053 3.96575
35.7621 34.1413 2
37.4949 34.1088 0.0759987
35.6585 32.3522 0.0444193
37.48 30.1225 0.0367008
42.3615 28.354 0.0150009
39.8178 28.9378 0.0809273
40.0451 27.5321 2
37.4885 28.62 2
35.4625 30.3779 2
34.0263 32.657 2
37.6203 27.2305 3.99831
35.1427 28.931 3.91849
33.6817 31.1231 3.96455
32.8845 33.0285 3.96488
30.2028 19.329 3.98331
30.9232 16.8254 2
31.9123 14.4681 0.0171389
40.4848 25.6194 0.0032911
38.0832 22.8381 0.0119711
33.5476 17.3703 0.0173275
35.5822 20.0611 0.0176042
32.8593 19.7792 2
35.2037 22.6203 2
37.7871 25.1393 2
32.304 22.3931 3.9806
34.9377 25.1509 3.98896
33.9859 37.5173 3.94723
35.7676 37.513 2
37.5026 37.5042 0.0720966
37.6687 51.0108 0.0187251
36.9005 48.4234 -0.0175044
35.7743 39.192 0.0730766
35.1813 46.1064 0.0809188
33.705 43.9181 0.0380344
34.1001 40.832 0.0340961
32.8961 42.0083 0.0349816
35.421 50.1662 2
34.0325 39.2076 2
32.5263 40.8861 2
34.2743 47.5364 2
32.173 42.7505 2
33.0655 45.2378 2
33.1775 49.1395 3.98508
32.1942 39.2851 3.97516
30.9808 41.2511 3.96213
31.2238 43.839 3.91927
32.2197 46.4614 3.97798
34.3495 52.492 0.0177527
31.9659 51.2177 2
29.793 49.7403 3.97628
30.4996 53.421 0.0198848
28.3903 51.6446 2
26.4478 50.0346 3.97378
26.8553 53.4647 0.0224404
25.038 51.796 2
23.2874 50.2373 3.97772
23.5445 53.5078 0.0228752
21.9252 51.8422 2
20.4203 50.3498 3.97796
17.9517 50.3582 3.97983
17.8063 52.8189 3.97944
19.1657 51.6656 2
17.4202 55.3634 3.98226
18.8988 54.3352 2
20.4387 53.2553 0.0219383
17.126 57.8916 3.98437
18.4342 56.7461 2
19.9162 55.8568 0.0172107
17.132 60.5614 3.98477
18.3618 59.1283 2
19.4288 57.9125 0.0166044
17.4065 63.4745 3.98806
18.6156 61.7769 2
19.7014 60.2189 0.0159111
17.9423 66.6197 3.99301
19.1267 64.6814 2
20.2057 62.8679 0.0143064
18.75 69.9759 4
19.886 67.8112 2
20.9381 65.7699 0.0109656
21.9121 68.8743 0.00640974
20.9142 71.1327 2
23.1494 72.1454 0
21.5852 13.5971 3.98413
22.1899 11.0197 3.98581
23.0949 12.7771 2
23.0405 8.17332 3.98924
23.9719 10.1604 2
24.1172 5.14148 3.99351
25.0222 7.30779 2
25.8593 9.37408 0.0132524
25.446 1.99014 4
26.2793 4.32673 2
27.0684 6.53811 0.0102472
27.7943 1.27778 2
28.4877 3.64274 0.00603895
30.1841 0.720592 0
34.0261 35.8281 3.95355
35.7717 35.8343 2
37.5038 35.8268 0.0748985
21.3016 15.8186 3.98334
24.7757 12.0624 0.0152147
23.7492 14.3469 0.0164604
25.3558 13.8963 2
22.4774 15.0235 2
24.0218 15.609 2
23.2602 16.24 3.98287
25.3769 16.0767 3.98324
27.2897 13.3642 0.0160518
29.7783 14.1902 0.0167127
28.354 15.9647 2
27.4342 18.7867 3.98311
32.533 34.1518 3.97195
34.0964 34.2034 2
35.7613 34.1465 0.0661074
34.0273 32.6601 0.0406392
35.4664 30.3817 0.0350172
37.4888 28.6326 0.0854785
40.0432 27.5336 0.00430723
37.6173 27.2021 2
32.8836 33.0295 2
35.1269 28.924 2
33.674 31.1184 2
35.0465 27.3396 3.99982
33.0346 29.8102 3.92299
32.1651 32.2777 3.96169
29.5642 21.9243 3.98772
30.2031 19.3296 2
30.9232 16.8255 0.0176356
37.7878 25.1332 -0.0120558
35.2032 22.6201 0.0220118
32.8596 19.7776 0.0190154
32.3045 22.3959 2
34.9394 25.1605 2
31.6296 25.6097 3.9854
32.0686 37.5201 3.97701
33.988 37.5169 2
35.7656 37.5134 0.0726131
35.421 50.16 0.0164799
34.2813 47.5266 0.00633938
34.031 39.2072 0.0480894
33.0782 45.2322 0.0817266
32.1821 42.7538 0.0409223
32.5272 40.8859 0.0280835
33.1781 49.1269 2
32.1939 39.2847 2
30.9709 41.2501 2
32.204 46.4724 2
31.2178 43.8421 2
31.0468 47.8958 3.98261
30.2092 39.5127 3.95713
29.7675 42.0295 3.91705
30.3271 45.0377 3.9797
31.9664 51.2141 0.021267
29.7932 49.738 2
27.7836 48.2224 3.97803
28.3908 51.6461 0.0212282
26.4475 50.0329 2
24.5751 48.5142 3.9781
25.0387 51.7971 0.0257226
23.2872 50.2362 2
21.592 48.829 3.98017
21.9256 51.8428 0.0241251
20.4204 50.3486 2
18.9878 49.1226 3.98181
16.8591 49.356 3.98239
16.7449 51.4321 3.98005
17.9519 50.3576 2
16.3692 53.8933 3.98109
17.8062 52.8186 2
19.1656 51.6663 0.0221114
15.9653 56.4942 3.9837
17.4198 55.3635 2
18.8992 54.3352 0.0196942
15.7443 59.2234 3.98492
17.1257 57.8919 2
18.4345 56.7459 0.0160468
15.7863 62.1459 3.98743
17.1319 60.5618 2
18.3619 59.128 0.0164259
16.0887 65.3025 3.99285
17.4065 63.4748 2
18.6156 61.7766 0.0146746
16.6661 68.6801 4
17.9421 66.6198 2
19.1267 64.681 0.0114751
18.75 69.9759 2
19.8862 67.8111 0.00670807
20.9142 71.1327 0
20.2166 14.5857 3.98383
21.5854 13.5973 2
20.5289 11.9895 3.98535
21.1436 9.14277 3.98899
22.19 11.0196 2
23.0948 12.7771 0.015575
22.0163 6.08039 3.99334
23.0404 8.17305 2
23.9719 10.1606 0.0136402
23.1494 2.85457 4
24.1169 5.14137 2
25.0223 7.30809 0.0105416
25.446 1.99012 2
26.2795 4.32688 0.00630448
27.7943 1.27781 0
32.1996 35.7531 3.97382
34.027 35.827 2
35.771 35.8371 0.0716471
21.3018 15.8188 2
20.2976 16.9512 3.98419
22.0928 16.6239 3.98297
25.3557 13.8962 0.0162921
22.4772 15.0233 0.0165894
24.0216 15.6088 0.0169301
25.3771 16.077 2
23.2605 16.2404 2
24.1983 18.4388 3.98187
27.0003 21.4462 3.98159
28.3539 15.9646 0.0170861
27.4346 18.7873 2
30.9872 33.7848 3.95846
32.5298 34.1536 2
34.0965 34.2053 0.0342456
32.8845 33.0285 0.0351171
33.6817 31.1231 0.0354472
35.1427 28.931 0.0815059
37.6203 27.2305 0.00168829
35.0363 27.3289 2
32.1664 32.2812 2
33.0315 29.8029 2
32.4647 28.0588 4.00517
31.1899 31.2002 3.92367
28.7495 24.389 3.98674
29.5647 21.9262 2
30.2028 19.329 0.0166885
34.9377 25.1509 0.0110412
32.304 22.3931 0.0193997
31.6303 25.601 2
29.5572 27.2988 3.98092
29.9402 37.5187 3.95441
32.0693 37.5199 2
33.9859 37.5173 0.0527673
33.1775 49.1395 0.0149184
32.2197 46.4614 0.0220162
32.1942 39.2851 0.0248429
31.2238 43.839 0.0807266
30.9808 41.2511 0.0378694
31.0502 47.8874 2
30.2035 39.513 2
29.7624 42.0335 2
30.3128 45.046 2
29.0535 46.4659 3.9773
28.8246 39.9132 3.9138
28.5173 43.2569 3.98583
29.793 49.7403 0.0237196
27.7841 48.2194 2
25.8402 46.6973 3.97786
26.4478 50.0346 0.0262195
24.5755 48.5128 2
22.7229 47.1241 3.98658
23.2874 50.2373 0.0222788
21.5926 48.8272 2
19.9289 47.6515 3.98499
20.4203 50.3498 0.0220429
18.9883 49.1217 2
17.6311 48.204 3.9839
16.1108 48.7055 3.98403
16.8594 49.3557 2
15.8221 50.1925 3.98156
15.357 52.4367 3.98089
16.745 51.4318 2
17.9517 50.3582 0.0201675
14.8549 54.9955 3.98251
16.369 53.8932 2
17.8063 52.8189 0.0205648
14.4523 57.753 3.98476
15.965 56.4944 2
17.4202 55.3634 0.01774
14.2638 60.701 3.98689
15.7442 59.2238 2
17.126 57.8916 0.0156339
14.3326 63.862 3.99262
15.7863 62.1464 2
17.132 60.5614 0.0152333
14.6715 67.2507 4
16.0886 65.3026 2
17.4065 63.4745 0.0119401
16.6661 68.6801 2
17.9423 66.6197 0.00698659
18.75 69.9759 0
18.9292 15.7715 3.98406
20.2167 14.5857 2
18.9782 13.1002 3.98496
21.5852 13.5971 0.0158707
20.5291 11.9895 2
19.343 10.2305 3.98846
19.9909 7.14492 3.99325
21.1436 9.14257 2
22.1899 11.0197 0.0141945
20.9142 3.86727 4
22.016 6.08033 2
23.0405 8.17332 0.0107554
23.1494 2.85451 2
24.1172 5.14148 0.00648741
25.446 1.99014 0
30.223 35.5284 3.96019
32.1979 35.7532 2
34.0261 35.8281 0.0464544
21.3016 15.8186 0.0166598
22.0931 16.6241 2
20.2978 16.9512 2
19.235 18.3966 3.98393
21.7759 17.8388 3.98328
25.3769 16.0767 0.0167565
23.2602 16.24 0.0171279
24.1988 18.4395 2
22.2669 19.8788 3.9825
24.5761 21.3089 3.98268
26.3776 23.7115 3.98276
27.0015 21.4476 2
27.4342 18.7867 0.0168886
29.7641 33.004 3.92121
30.9766 33.7817 2
32.533 34.1518 0.028048
32.1651 32.2777 0.038308
33.0346 29.8102 0.0770066
35.0465 27.3396 0.000182734
32.4505 28.0557 2
31.1986 31.2046 2
30.0007 29.4992 3.99886
27.801 26.5375 3.96951
28.7501 24.3947 2
29.5642 21.9243 0.0122848
31.6296 25.6097 0.0146027
29.5498 27.2525 2
28.4947 37.5157 3.91849
29.9344 37.5203 2
32.0686 37.5201 0.0229898
31.0468 47.8958 0.017393
30.3271 45.0377 0.0203036
30.2092 39.5127 0.0428699
29.7675 42.0295 0.0829509
29.0575 46.4651 2
28.8204 39.9134 2
28.5075 43.2605 2
27.1258 44.8159 3.96687
26.6044 40.6564 4.0062
27.7836 48.2224 0.0219718
25.842 46.6957 2
23.8683 45.2546 3.97932
24.5751 48.5142 0.0219047
22.7241 47.1217 2
20.8541 45.9341 3.98607
21.592 48.829 0.0198276
19.9297 47.6505 2
18.2735 46.7644 3.98536
18.9878 49.1226 0.0181853
17.6316 48.2036 2
16.2994 47.7353 3.98379
16.1111 48.7052 2
15.1683 49.0355 3.98278
16.8591 49.356 0.0176088
15.8223 50.1922 2
14.4701 51.0035 3.98139
13.8155 53.4508 3.98189
15.357 52.4365 2
16.7449 51.4321 0.0199466
13.2461 56.1808 3.98399
14.8547 54.9955 2
16.3692 53.8933 0.018906
12.8456 59.1349 3.98666
14.4522 57.7533 2
15.9653 56.4942 0.0163004
12.6779 62.3047 3.99213
14.2637 60.7014 2
15.7443 59.2234 0.0150769
12.7746 65.6939 4
14.3325 63.8621 2
15.7863 62.1459 0.0125678
14.6714 67.2507 2
16.0887 65.3025 0.00714876
16.6661 68.6801 0
17.6623 17.1458 3.98403
18.9294 15.7714 2
17.5088 14.3635 3.9849
20.2166 14.5857 0.0161702
18.9784 13.1001 2
17.6384 11.4492 3.98774
20.5289 11.9895 0.0146512
19.3431 10.2303 2
18.0511 8.3377 3.99301
18.75 5.0241 4
19.9907 7.14494 2
21.1436 9.14277 0.0110114
20.9142 3.86727 2
22.0163 6.08039 0.00666274
23.1494 2.85457 0
28.8307 35.1205 3.91976
30.2165 35.5312 2
32.1996 35.7531 0.0261832
22.0928 16.6239 0.0170251
20.2976 16.9512 0.0158073
21.7763 17.8387 2
19.2353 18.3965 2
17.9683 19.9271 3.98378
20.8664 19.3648 3.98372
24.1983 18.4388 0.0181317
22.2676 19.8786 2
24.5774 21.31 2
22.3389 21.7025 3.98346
24.6631 23.1541 3.98281
25.3926 25.94 3.97409
26.379 23.7121 2
27.0003 21.4462 0.0184102
28.155 32.2721 3.98211
29.759 33.0034 2
30.9872 33.7848 0.0415445
31.1899 31.2002 0.0763298
32.4647 28.0588 -0.00517309
29.9748 29.4974 2
26.8979 29.1349 3.97624
27.7962 26.5371 2
28.7495 24.389 0.0132599
29.5572 27.2988 0.0190804
26.7238 37.3659 3.98803
28.491 37.514 2
29.9402 37.5187 0.0455884
29.0535 46.4659 0.022699
28.5173 43.2569 0.014167
28.8246 39.9132 0.0861964
27.1311 44.8152 2
26.6052 40.6581 2
25.0907 43.2074 3.9728
23.851 39.4391 3.96727
25.8402 46.6973 0.0221431
23.8699 45.2543 2
21.8245 43.9866 3.98338
22.7229 47.1241 0.0134232
20.8555 45.9334 2
18.9301 44.9974 3.98243
19.9289 47.6515 0.0150072
18.2742 46.7642 2
16.5877 46.2338 3.98224
17.6311 48.204 0.0161028
16.2998 47.7351 2
14.897 47.6887 3.98247
16.1108 48.7055 0.0159709
15.1686 49.0353 2
13.7676 49.5626 3.9819
15.8221 50.1925 0.0184418
14.4702 51.0033 2
12.8818 51.8883 3.98175
12.1327 54.5387 3.9833
13.8154 53.4508 2
15.357 52.4367 0.0191144
11.5294 57.4669 3.98617
13.2459 56.181 2
14.8549 54.9955 0.017493
11.1323 60.6312 3.99168
12.8455 59.1352 2
14.4523 57.753 0.0152445
10.9835 64.0165 4
12.6778 62.3048 2
14.2638 60.701 0.0131079
12.7745 65.694 2
14.3326 63.862 0.00738173
14.6715 67.2507 0
16.3931 18.6383 3.98418
17.6625 17.1456 2
16.0989 15.7716 3.98493
18.9292 15.7715 0.01594
17.5089 14.3632 2
16.0196 12.8021 3.98715
18.9782 13.1002 0.0150432
17.6386 11.4489 2
16.2022 9.66068 3.99268
19.343 10.2305 0.0115364
18.0509 8.33775 2
16.6661 6.31991 4
18.75 5.02404 2
19.9909 7.14492 0.00674625
20.9142 3.86727 0
27.2296 34.7409 3.97877
28.8249 35.1192 2
30.223 35.5284 0.0398058
16.6656 21.361 3.98217
21.7759 17.8388 0.0167164
19.235 18.3966 0.0160712
20.8668 19.3645 2
17.9686 19.9271 2
19.7068 21.5557 3.98539
22.2669 19.8788 0.0175002
24.5761 21.3089 0.0173162
22.34 21.7016 2
24.6637 23.1547 2
22.8028 24.5866 3.9781
24.4485 28.5164 3.97336
25.3898 25.939 2
26.3776 23.7115 0.0172384
25.9924 31.7083 3.9803
28.1465 32.2684 2
29.7641 33.004 0.07879
30.0007 29.4992 0.00114275
26.9026 29.1375 2
27.801 26.5375 0.0304907
24.5382 36.8707 3.97933
26.7245 37.3699 2
28.4947 37.5157 0.0815134
27.1258 44.8159 0.0331271
26.6044 40.6564 -0.00619547
25.092 43.2083 2
23.852 39.44 2
22.8699 41.8251 3.97833
21.6078 38.506 3.97746
23.8683 45.2546 0.0206829
21.8258 43.9877 2
19.6767 42.9112 3.97891
20.8541 45.9341 0.0139314
18.9312 44.9976 2
16.9143 44.3994 3.97969
18.2735 46.7644 0.0146367
16.5883 46.2338 2
14.8167 46.1074 3.98062
16.2994 47.7353 0.0162115
14.8973 47.6886 2
13.2741 48.0235 3.98141
15.1683 49.0355 0.0172208
13.7678 49.5626 2
12.1005 50.2651 3.98175
14.4701 51.0035 0.0186091
12.8818 51.8882 2
11.1279 52.8463 3.98282
10.3194 55.7181 3.98554
12.1326 54.5387 2
13.8155 53.4508 0.018113
9.6989 58.854 3.99088
11.5293 57.4671 2
13.2461 56.1808 0.01601
9.30605 62.2254 4
11.1323 60.6312 2
12.8456 59.1349 0.0133351
10.9835 64.0165 2
12.6779 62.3047 0.00787452
12.7746 65.6939 0
15.136 20.1715 3.9832
16.3934 18.6382 2
14.7436 17.2934 3.98459
17.6623 17.1458 0.0159711
16.0991 15.7712 2
14.4815 14.2832 3.98678
17.5088 14.3635 0.015097
16.0197 12.8018 2
14.4448 11.1117 3.99239
17.6384 11.4492 0.0122572
16.2021 9.66069 2
14.6715 7.74927 4
18.0511 8.3377 0.00699239
16.6661 6.31988 2
18.75 5.0241 0
25.1752 34.2754 3.98476
27.2287 34.743 2
28.8307 35.1205 0.0802429
17.8352 22.3057 3.98597
15.508 22.904 3.98075
16.6658 21.3608 2
20.8664 19.3648 0.016282
17.9683 19.9271 0.0162221
19.7074 21.5553 2
19.6287 24.3612 3.98123
22.3389 21.7025 0.0165372
24.6631 23.1541 0.017186
22.8013 24.5851 2
21.8362 27.8075 3.97468
23.6151 31.1777 3.97283
24.451 28.5194 2
25.3926 25.94 0.0259105
25.9961 31.7052 2
28.155 32.2721 0.0178931
26.8979 29.1349 0.0237554
22.3184 36.2702 3.98298
24.5397 36.8714 2
26.7238 37.3659 0.0119746
25.0907 43.2074 0.0272018
23.851 39.4391 0.032727
22.8703 41.8257 2
21.6085 38.506 2
20.5939 40.6445 3.9778
19.9727 37.7844 3.98057
21.8245 43.9866 0.0166196
19.6776 42.9113 2
17.3062 42.1159 3.97801
18.9301 44.9974 0.0175654
16.9152 44.3996 2
14.8167 44.2153 3.97833
16.5877 46.2338 0.0177565
14.8171 46.1075 2
12.9459 46.3086 3.97972
14.897 47.6887 0.0175298
13.2743 48.0235 2
11.4717 48.5605 3.98117
13.7676 49.5626 0.0181008
12.1006 50.2651 2
10.2535 51.0884 3.98243
12.8818 51.8883 0.0182503
11.1278 52.8463 2
9.22802 53.8951 3.98502
8.38242 56.9866 3.9899
10.3193 55.7183 2
12.1327 54.5387 0.0166986
7.74927 60.3285 4
9.69879 58.8541 2
11.5294 57.4669 0.0138316
9.306 62.2255 2
11.1323 60.6312 0.00832256
10.9835 64.0165 0
13.9465 21.7376 3.98221
15.1362 20.1712 2
13.4431 18.8897 3.98415
16.3931 18.6383 0.0158247
14.7438 17.2932 2
13.0264 15.8754 3.98642
16.0989 15.7716 0.0150708
14.4816 14.2829 2
12.7819 12.6847 3.99204
16.0196 12.8021 0.0128547
14.4447 11.1117 2
12.7746 9.30605 4
16.2022 9.66068 0.00731694
14.6715 7.74924 2
16.6661 6.31991 0
22.9109 33.7922 3.98316
25.1748 34.2753 2
27.2296 34.7409 0.0212336
17.5986 24.0245 3.98209
17.8353 22.3052 2
14.289 24.4364 3.97939
15.5076 22.9032 2
16.6656 21.361 0.017832
18.9786 27.184 3.97422
19.7068 21.5557 0.0146099
19.6276 24.3612 2
21.0678 30.6486 3.9754
22.8028 24.5866 0.0218958
21.8378 27.8084 2
23.6163 31.1781 2
24.4485 28.5164 0.0266379
25.9924 31.7083 0.0197006
20.0875 35.9175 3.98261
22.3193 36.271 2
24.5382 36.8707 0.0206721
22.8699 41.8251 0.0216689
21.6078 38.506 0.0225445
20.5944 40.6444 2
19.9733 37.7846 2
17.973 39.0077 3.97894
19.6767 42.9112 0.0210949
17.3068 42.1162 2
14.7618 41.9294 3.97755
16.9143 44.3994 0.0203149
14.8173 44.2155 2
12.6852 44.4029 3.97817
14.8167 46.1074 0.0193829
12.9462 46.3087 2
10.9735 46.7427 3.97978
13.2741 48.0235 0.0185946
11.4718 48.5606 2
9.51677 49.2467 3.98179
12.1005 50.2651 0.0182549
10.2535 51.0885 2
8.26088 52.0067 3.98453
11.1279 52.8463 0.0171835
9.22787 53.8952 2
7.19132 55.0362 3.98912
6.31991 58.3339 4
8.38227 56.9866 2
10.3194 55.7181 0.0144638
7.74924 60.3285 2
9.6989 58.854 0.00911564
9.30605 62.2254 0
13.21 25.3511 3.98314
12.8125 23.2675 3.98121
13.9462 21.7369 2
12.2274 20.5386 3.98372
15.136 20.1715 0.016797
13.4433 18.8894 2
11.6555 17.556 3.98625
14.7436 17.2934 0.0154129
13.0265 15.8751 2
11.2191 14.3693 3.99153
14.4815 14.2832 0.0132189
12.7818 12.6847 2
10.9835 10.9835 4
14.4448 11.1117 0.00761267
12.7745 9.306 2
14.6715 7.74927 0
20.4761 33.3831 3.9802
22.9111 33.7921 2
25.1752 34.2754 0.015244
15.8686 26.3864 3.97727
17.598 24.0239 2
17.8352 22.3057 0.014031
14.289 24.4365 2
15.508 22.904 0.0192548
18.3149 30.1581 3.97474
18.9798 27.1845 2
19.6287 24.3612 0.0187689
21.0685 30.6486 2
21.8362 27.8075 0.0253169
23.6151 31.1777 0.027169
17.5952 35.9612 3.98142
20.0883 35.9177 2
22.3184 36.2702 0.0170227
20.5939 40.6445 0.0222029
19.9727 37.7844 0.0194316
17.9732 39.0078 2
14.2651 39.1821 3.97902
17.3062 42.1159 0.021992
14.7623 41.9297 2
12.3712 42.2853 3.97802
14.8167 44.2153 0.0216689
12.6857 44.4031 2
10.5503 44.81 3.97878
12.9459 46.3086 0.020281
10.9737 46.7429 2
8.8995 47.3245 3.98065
11.4717 48.5605 0.0188331
9.51677 49.2469 2
7.4279 50.0388 3.98381
10.2535 51.0884 0.017567
8.26076 52.0068 2
6.13178 53.0097 3.98863
9.22802 53.8951 0.0149794
7.19113 55.036 2
5.0241 56.25 4
6.31988 58.3339 2
8.38242 56.9866 0.0101016
7.74927 60.3285 0
13.445 26.8034 3.97854
11.9259 24.778 3.9805
13.2101 25.351 2
11.1296 22.2242 3.9828
12.8124 23.2672 2
13.9465 21.7376 0.0177866
12.2272 20.538 2
10.385 19.3111 3.98607
13.4431 18.8897 0.0158459
11.6556 17.5557 2
9.75986 16.1523 3.9909
13.0264 15.8754 0.0135766
11.2191 14.3692 2
9.30607 12.7746 4
12.7819 12.6847 0.00796063
10.9835 10.9835 2
12.7746 9.30605 0
17.7784 33.1017 3.97794
20.4764 33.3832 2
22.9109 33.7922 0.0168429
15.4541 29.6257 3.97641
15.8693 26.3867 2
17.5986 24.0245 0.01791
14.289 24.4364 0.0206133
18.3154 30.1581 2
18.9786 27.184 0.0257819
21.0678 30.6486 0.0245985
14.8564 36.0172 3.97973
17.5958 35.9613 2
20.0875 35.9175 0.0173912
12.5651 37.8319 3.97865
17.973 39.0077 0.0210593
14.2653 39.1823 2
11.8836 40.1472 3.979
14.7618 41.9294 0.022453
12.3716 42.2856 2
10.1491 42.7841 3.97835
12.6852 44.4029 0.0218309
10.5507 44.8103 2
8.37749 45.3254 3.97989
10.9735 46.7427 0.0202234
8.89957 47.3247 2
6.71947 48.0028 3.9828
9.51677 49.2467 0.0182094
7.42782 50.0389 2
5.20845 50.9116 3.98832
8.26088 52.0067 0.0154665
6.13157 53.0093 2
3.86727 54.0858 4
7.19132 55.0362 0.0108755
5.02404 56.25 2
6.31991 58.3339 0
12.8997 29.0248 3.97576
11.3554 26.4796 3.97957
13.4454 26.8031 2
10.1889 23.9601 3.98142
11.9259 24.7778 2
13.21 25.3511 0.0168625
9.23676 21.1312 3.98525
11.1295 22.2239 2
12.8125 23.2675 0.0187878
12.2274 20.5386 0.0162761
10.3849 19.3106 2
8.41559 18.0233 3.99019
11.6555 17.556 0.0137452
9.75985 16.1521 2
7.74928 14.6715 4
11.2191 14.3693 0.00847059
9.30602 12.7745 2
10.9835 10.9835 0
14.4449 32.8556 3.97777
17.7787 33.1018 2
20.4761 33.3831 0.0198025
15.4544 29.6256 2
15.8686 26.3864 0.0227341
18.3149 30.1581 0.0252607
12.8528 36.2087 3.97818
14.857 36.0173 2
17.5952 35.9612 0.0185818
12.5654 37.832 2
11.2421 38.3134 3.97812
14.2651 39.1821 0.0209819
11.8838 40.1474 2
9.7343 40.7592 3.97891
12.3712 42.2853 0.0219814
10.1493 42.7844 2
7.92659 43.2735 3.97947
10.5503 44.81 0.0212211
8.37772 45.3256 2
6.12585 45.9071 3.98213
8.8995 47.3245 0.0193507
6.71945 48.0029 2
4.42006 48.7514 3.98811
7.4279 50.0388 0.0161897
5.20825 50.9109 2
2.85457 51.8506 4
6.13178 53.0097 0.0113661
3.86727 54.0858 2
5.0241 56.25 0
12.0403 31.2505 3.97806
10.768 28.4091 3.97782
12.8998 29.0245 2
9.40388 25.7925 3.98059
11.3557 26.4794 2
13.445 26.8034 0.0214564
8.224 23.0183 3.98383
10.1889 23.9597 2
11.9259 24.778 0.0195008
7.19755 19.974 3.98933
9.23665 21.1307 2
11.1296 22.2242 0.0171973
10.385 19.3111 0.0139349
8.41548 18.0231 2
6.31992 16.6661 4
9.75986 16.1523 0.00909607
7.74926 14.6714 2
9.30607 12.7746 0
12.0576 34.2917 3.97759
14.4452 32.8556 2
17.7784 33.1017 0.0220561
15.4541 29.6257 0.0235904
10.807 36.6117 3.9774
12.8533 36.2087 2
14.8564 36.0172 0.020273
12.5651 37.8319 0.021349
11.2423 38.3135 2
9.32991 38.8267 3.97862
11.8836 40.1472 0.0209959
9.7345 40.7594 2
7.53807 41.2141 3.97949
10.1491 42.7841 0.0216474
7.92678 43.2738 2
5.63789 43.7696 3.98208
8.37749 45.3254 0.0201124
6.12597 45.9071 2
3.76583 46.5368 3.98805
6.71947 48.0028 0.0172023
4.4199 48.7505 2
1.99014 49.554 4
5.20845 50.9116 0.0116779
2.85451 51.8506 2
3.86727 54.0858 0
10.9042 32.9154 3.97863
10.0811 30.3777 3.97828
12.0405 31.2503 2
8.71221 27.728 3.97957
10.7681 28.4087 2
12.8997 29.0248 0.0242387
7.34962 24.9791 3.98297
9.404 25.7922 2
11.3554 26.4796 0.0204262
6.11442 21.9991 3.98835
8.2239 23.0179 2
10.1889 23.9601 0.0185804
5.02411 18.75 4
7.19736 19.9741 2
9.23676 21.1312 0.0147547
8.41559 18.0233 0.00981073
6.3199 16.6661 2
7.74928 14.6715 0
10.419 34.9988 3.97825
12.0579 34.2917 2
14.4449 32.8556 0.0222313
9.0039 36.9862 3.9773
10.8074 36.6116 2
12.8528 36.2087 0.0218247
11.2421 38.3134 0.021884
9.33015 38.8269 2
7.21934 39.1839 3.97936
9.7343 40.7592 0.0210875
7.53825 41.2143 2
5.2535 41.615 3.98184
7.92659 43.2735 0.0205288
5.638 43.7695 2
3.24369 44.2819 3.98806
6.12585 45.9071 0.0178698
3.76579 46.5358 2
1.27781 47.2057 4
4.42006 48.7514 0.011887
1.99012 49.554 2
2.85457 51.8506 0
10.0723 33.8793 3.97851
9.37493 32.1514 3.9788
10.9044 32.9152 2
8.06182 29.6928 3.97932
10.0813 30.3775 2
12.0403 31.2505 0.0219402
6.59351 27.0065 3.98219
8.71228 27.7276 2
10.768 28.4091 0.0221778
5.16959 24.0937 3.98788
7.34965 24.9789 2
9.40388 25.7925 0.0194101
3.86728 20.9142 4
6.11418 21.9996 2
8.224 23.0183 0.0161675
5.02406 18.75 2
7.19755 19.974 0.010667
6.31992 16.6661 0
8.83054 35.2791 3.97815
10.4194 34.9988 2
12.0576 34.2917 0.0224109
7.00456 37.2068 3.97834
9.00425 36.9862 2
10.807 36.6117 0.0225955
9.32991 38.8267 0.0213823
7.21957 39.1841 2
4.98183 39.4681 3.98143
7.53807 41.2141 0.0205117
5.25363 41.6149 2
2.85437 42.0025 3.98779
5.63789 43.7696 0.0179238
3.24367 44.281 2
0.720592 44.8159 4
3.76583 46.5368 0.011951
1.27778 47.2057 2
1.99014 49.554 0
8.87209 33.696 3.97872
10.0726 33.8792 2
7.4998 31.6074 3.97949
9.37511 32.1512 2
10.9042 32.9154 0.0213657
5.93899 29.0685 3.98173
8.06195 29.6926 2
10.0811 30.3777 0.0217197
4.35723 26.2475 3.9878
6.59356 27.0064 2
8.71221 27.728 0.0204337
2.85458 23.1494 4
5.16942 24.0946 2
7.34962 24.9791 0.0170302
3.86728 20.9142 2
6.11442 21.9991 0.0116521
5.02411 18.75 0
6.95507 35.3061 3.97856
8.83084 35.279 2
10.419 34.9988 0.0217504
4.83271 37.3403 3.98092
7.00489 37.2068 2
9.0039 36.9862 0.0227007
7.21934 39.1839 0.0206423
4.98202 39.468 2
2.60268 39.7143 3.98723
5.2535 41.615 0.0181552
2.85439 42.0018 2
0.320823 42.3947 4
3.24369 44.2819 0.0119369
0.720551 44.8159 2
1.27781 47.2057 0
7.1144 33.4601 3.97923
8.87233 33.6959 2
10.0723 33.8793 0.021489
5.4102 31.1332 3.98169
7.49994 31.6073 2
9.37493 32.1514 0.0211964
3.6791 28.444 3.98784
5.93908 29.0686 2
8.06182 29.6928 0.0206761
1.99015 25.446 4
4.3571 26.2485 2
6.59351 27.0065 0.0178128
2.85453 23.1494 2
5.16959 24.0937 0.012117
3.86728 20.9142 0
4.84721 35.2519 3.98095
6.95536 35.3061 2
8.83054 35.2791 0.0218493
2.49431 37.4288 3.98707
4.83299 37.3403 2
7.00456 37.2068 0.0216625
4.98183 39.4681 0.0185673
2.60276 39.7138 2
0.080333 39.9526 4
2.85437 42.0025 0.0122094
0.320817 42.3947 2
0.720592 44.8159 0
5.04016 33.1903 3.98148
7.11461 33.46 2
8.87209 33.696 0.0212789
3.14364 30.6667 3.98774
5.41028 31.1334 2
7.4998 31.6074 0.0205052
1.27793 27.7943 4
3.67905 28.4449 2
5.93899 29.0685 0.018266
1.99013 25.446 2
4.35723 26.2475 0.0122025
2.85458 23.1494 0
2.54651 35.1594 3.98703
4.84744 35.2521 2
6.95507 35.3061 0.0214447
0 37.5 4
2.49444 37.4288 2
4.83271 37.3403 0.019085
2.60268 39.7143 0.012771
0.0802903 39.9526 2
0.320823 42.3947 0
2.76393 32.9062 3.98737
5.04031 33.1905 2
7.1144 33.4601 0.0207744
0.721173 30.1842 4
3.14363 30.6675 2
5.4102 31.1332 0.0183068
1.27779 27.7943 2
3.6791 28.444 0.012162
1.99015 25.446 0
0.0806499 35.0474 4
2.54662 35.1597 2
4.84721 35.2519 0.019049
0 37.5 2
2.49431 37.4288 0.0129346
0.080333 39.9526 0
0.32156 32.6054 4
2.76399 32.9068 2
5.04016 33.1903 0.0185187
0.72056 30.1841 2
3.14364 30.6667 0.0122566
1.27793 27.7943 0
0.0802889 35.0474 2
2.54651 35.1594 0.0129669
0 37.5 0
0.320817 32.6053 2
2.76393 32.9062 0.0126303
0.721173 30.1842 0
0.0806499 35.0474 0
0.32156 32.6054 0
CELLS 1910 17190
8 18 6 25 56 2 0 5 16
8 57 23 6 18 17 4 0 2
8 78 36 9 29 31 11 1 7
8 31 11 1 7 79 37 10 30
8 110 57 18 50 48 17 2 14
8 50 18 56 111 14 2 16 49
8 116 62 22 55 52 20 3 15
8 56 25 67 118 16 5 24 53
8 119 63 23 57 54 21 4 17
8 55 22 63 119 15 3 21 54
8 58 26 68 121 18 6 25 56
8 122 65 26 58 57 23 6 18
8 73 31 7 27 142 79 30 71
8 143 78 29 72 73 31 7 27
8 83 147 76 34 32 74 28 8
8 84 148 78 36 33 75 29 9
8 76 34 8 28 148 84 33 75
8 37 79 150 86 10 30 77 35
8 151 87 36 78 80 38 11 31
8 80 38 11 31 152 88 37 79
8 175 100 42 94 96 44 12 40
8 44 96 176 101 12 40 95 43
8 101 176 98 46 43 95 41 13
8 46 98 178 103 13 41 97 45
8 178 103 45 97 147 83 32 74
8 189 116 55 109 106 52 15 47
8 111 56 118 191 49 16 53 107
8 192 119 57 110 108 54 17 48
8 109 55 119 192 47 15 54 108
8 194 122 58 112 110 57 18 50
8 112 58 121 195 50 18 56 111
8 115 61 19 51 197 124 59 113
8 115 61 125 198 51 19 60 114
8 198 125 62 116 114 60 20 52
8 200 127 64 120 116 62 22 55
8 118 67 132 202 53 24 66 117
8 121 68 133 203 56 25 67 118
8 120 64 128 204 55 22 63 119
8 204 128 65 122 119 63 23 57
8 206 134 68 121 123 69 26 58
8 123 69 26 58 207 131 65 122
8 226 147 74 138 140 76 28 70
8 229 148 75 139 143 78 29 72
8 140 76 28 70 229 148 75 139
8 142 79 30 71 231 150 77 141
8 144 80 31 73 232 152 79 142
8 233 151 78 143 144 80 31 73
8 150 86 35 77 235 154 81 145
8 235 154 81 145 146 82 39 91
8 146 82 39 91 236 155 90 165
8 238 157 83 147 149 85 34 76
8 239 158 84 148 151 87 36 78
8 149 85 34 76 239 158 84 148
8 152 88 37 79 241 160 86 150
8 242 161 87 151 153 89 38 80
8 153 89 38 80 243 162 88 152
8 171 98 41 92 265 178 97 169
8 265 178 97 169 226 147 74 138
8 172 96 40 93 266 176 95 170
8 266 176 95 170 171 98 41 92
8 269 175 94 173 172 96 40 93
8 271 180 99 174 175 100 42 94
8 197 124 59 113 271 180 99 174
8 272 181 100 175 177 102 44 96
8 273 182 101 176 179 104 46 98
8 177 102 44 96 273 182 101 176
8 179 104 46 98 275 184 103 178
8 275 184 103 178 238 157 83 147
8 188 115 51 105 283 197 113 186
8 188 115 198 284 105 51 114 187
8 284 198 116 189 187 114 52 106
8 286 200 120 193 189 116 55 109
8 191 118 202 288 107 53 117 190
8 195 121 203 289 111 56 118 191
8 193 120 204 290 109 55 119 192
8 290 204 122 194 192 119 57 110
8 196 123 58 112 292 207 122 194
8 293 206 121 195 196 123 58 112
8 199 126 61 115 297 211 124 197
8 298 212 127 200 198 125 62 116
8 199 126 212 298 115 61 125 198
8 205 129 64 120 300 214 127 200
8 301 217 130 201 202 132 66 117
8 209 136 168 264 301 217 130 201
8 302 219 132 202 203 133 67 118
8 303 220 133 203 206 134 68 121
8 205 129 215 304 120 64 128 204
8 304 215 131 207 204 128 65 122
8 306 221 134 206 208 135 69 123
8 208 135 69 123 307 218 131 207
8 210 137 167 263 309 223 136 209
8 328 238 147 226 230 149 76 140
8 228 146 91 166 329 236 165 260
8 231 150 77 141 330 235 145 227
8 330 235 145 227 228 146 91 166
8 332 239 148 229 233 151 78 143
8 230 149 76 140 332 239 148 229
8 232 152 79 142 334 241 150 231
8 234 153 80 144 335 243 152 232
8 336 242 151 233 234 153 80 144
8 236 155 90 165 338 245 164 259
8 241 160 86 150 339 246 154 235
8 339 246 154 235 237 156 82 146
8 237 156 82 146 340 247 155 236
8 342 249 157 238 240 159 85 149
8 343 250 158 239 242 161 87 151
8 240 159 85 149 343 250 158 239
8 243 162 88 152 345 252 160 241
8 244 163 253 346 153 89 161 242
8 244 163 89 153 347 254 162 243
8 311 224 261 371 210 137 167 263
8 263 167 262 372 209 136 168 264
8 267 179 98 171 375 275 178 265
8 375 275 178 265 328 238 147 226
8 376 273 176 266 267 179 98 171
8 268 177 96 172 376 273 176 266
8 379 272 175 269 268 177 96 172
8 380 271 174 270 269 175 94 173
8 283 197 113 186 380 271 174 270
8 381 277 180 271 272 181 100 175
8 297 211 124 197 381 277 180 271
8 382 278 181 272 274 183 102 177
8 274 183 102 177 383 279 182 273
8 383 279 182 273 276 185 104 179
8 385 281 184 275 342 249 157 238
8 276 185 104 179 385 281 184 275
8 285 199 115 188 393 297 197 283
8 394 298 200 286 284 198 116 189
8 285 199 298 394 188 115 198 284
8 291 205 120 193 396 300 200 286
8 397 301 201 287 288 202 117 190
8 295 209 264 374 397 301 201 287
8 398 302 202 288 289 203 118 191
8 399 303 203 289 293 206 121 195
8 291 205 304 400 193 120 204 290
8 400 304 207 292 290 204 122 194
8 294 208 123 196 402 307 207 292
8 403 306 206 293 294 208 123 196
8 296 210 263 373 405 309 209 295
8 408 312 213 299 297 211 126 199
8 299 213 313 409 199 126 212 298
8 409 313 214 300 298 212 127 200
8 305 216 129 205 411 315 214 300
8 412 318 217 301 302 219 132 202
8 309 223 136 209 412 318 217 301
8 413 320 219 302 303 220 133 203
8 306 221 321 414 206 134 220 303
8 307 218 131 207 415 316 215 304
8 305 216 316 415 205 129 215 304
8 417 322 221 306 308 222 135 208
8 308 222 135 208 418 319 218 307
8 310 225 137 210 420 325 223 309
8 423 326 224 311 310 225 137 210
8 329 236 165 260 441 338 259 368
8 442 342 238 328 333 240 149 230
8 331 237 146 228 443 340 236 329
8 334 241 150 231 444 339 235 330
8 444 339 235 330 331 237 146 228
8 446 343 239 332 336 242 151 233
8 333 240 149 230 446 343 239 332
8 335 243 152 232 448 345 241 334
8 337 244 153 234 449 347 243 335
8 337 244 346 450 234 153 242 336
8 338 245 164 259 452 349 258 367
8 340 247 155 236 453 350 245 338
8 345 252 160 241 454 351 246 339
8 454 351 246 339 341 248 156 237
8 341 248 156 237 455 352 247 340
8 240 159 251 344 342 249 354 457
8 242 161 253 346 343 250 355 458
8 343 250 355 458 240 159 251 344
8 347 254 162 243 460 357 252 345
8 348 255 358 461 244 163 253 346
8 348 255 163 244 462 359 254 347
8 473 360 257 365 363 256 364 482
8 452 349 258 367 365 257 366 485
8 422 324 369 488 311 224 261 371
8 371 261 370 490 263 167 262 372
8 407 311 371 491 296 210 263 373
8 373 263 372 492 295 209 264 374
8 493 385 275 375 442 342 238 328
8 377 276 179 267 493 385 275 375
8 378 274 177 268 494 383 273 376
8 494 383 273 376 377 276 179 267
8 497 382 272 379 378 274 177 268
8 498 381 271 380 379 272 175 269
8 393 297 197 283 498 381 271 380
8 499 387 277 381 382 278 181 272
8 408 312 211 297 499 387 277 381
8 500 388 278 382 384 280 183 274
8 501 389 279 383 386 282 185 276
8 384 280 183 274 501 389 279 383
8 386 282 185 276 503 391 281 385
8 503 391 281 385 457 354 249 342
8 511 408 299 395 393 297 199 285
8 395 299 409 512 285 199 298 394
8 512 409 300 396 394 298 200 286
8 401 305 205 291 514 411 300 396
8 515 412 301 397 398 302 202 288
8 405 309 209 295 515 412 301 397
8 516 413 302 398 399 303 203 289
8 403 306 414 517 293 206 303 399
8 402 307 207 292 518 415 304 400
8 401 305 415 518 291 205 304 400
8 404 308 208 294 520 418 307 402
8 521 417 306 403 404 308 208 294
8 406 310 210 296 523 420 309 405
8 526 423 311 407 406 310 210 296
8 410 314 213 299 527 424 312 408
8 528 425 315 411 409 313 214 300
8 410 314 425 528 299 213 313 409
8 416 317 216 305 530 427 315 411
8 531 430 318 412 413 320 219 302
8 420 325 223 309 531 430 318 412
8 532 432 320 413 414 321 220 303
8 417 322 433 533 306 221 321 414
8 418 319 218 307 534 428 316 415
8 416 317 428 534 305 216 316 415
8 419 323 434 536 308 222 322 417
8 419 323 222 308 537 431 319 418
8 421 327 225 310 539 438 325 420
8 421 327 439 541 310 225 326 423
8 543 437 324 422 423 326 224 311
8 441 338 259 368 559 452 367 486
8 443 340 236 329 560 453 338 441
8 333 240 344 447 442 342 457 561
8 445 341 237 331 562 455 340 443
8 448 345 241 334 563 454 339 444
8 563 454 339 444 445 341 237 331
8 336 242 346 450 446 343 458 565
8 446 343 458 565 333 240 344 447
8 449 347 243 335 567 460 345 448
8 451 348 244 337 568 462 347 449
8 451 348 461 569 337 244 346 450
8 570 463 349 452 473 360 257 365
8 453 350 245 338 570 463 349 452
8 455 352 247 340 571 464 350 453
8 460 357 252 345 572 465 351 454
8 572 465 351 454 456 353 248 341
8 456 353 248 341 573 466 352 455
8 344 251 356 459 457 354 468 575
8 458 355 469 576 344 251 356 459
8 346 253 358 461 458 355 469 576
8 462 359 254 347 578 471 357 460
8 348 255 359 462 461 358 472 579
8 591 474 360 473 475 361 256 363
8 475 361 256 363 594 477 362 479
8 363 256 364 482 479 362 480 603
8 590 473 365 484 481 363 482 605
8 482 364 257 365 606 483 366 485
8 559 452 367 486 484 365 485 607
8 542 436 487 609 422 324 369 488
8 525 422 488 611 407 311 371 491
8 488 369 489 612 371 261 370 490
8 491 371 490 613 373 263 372 492
8 495 386 276 377 614 503 385 493
8 614 503 385 493 561 457 342 442
8 615 501 383 494 495 386 276 377
8 496 384 274 378 615 501 383 494
8 618 500 382 497 496 384 274 378
8 619 499 381 498 497 382 272 379
8 511 408 297 393 619 499 381 498
8 620 505 387 499 500 388 278 382
8 527 424 312 408 620 505 387 499
8 502 390 506 621 384 280 388 500
8 622 507 389 501 504 392 282 386
8 502 390 280 384 622 507 389 501
8 504 392 282 386 624 509 391 503
8 624 509 391 503 575 468 354 457
8 513 410 299 395 630 527 408 511
8 631 528 411 514 512 409 300 396
8 513 410 528 631 395 299 409 512
8 519 416 305 401 633 530 411 514
8 634 531 412 515 516 413 302 398
8 523 420 309 405 634 531 412 515
8 635 532 413 516 517 414 303 399
8 521 417 533 636 403 306 414 517
8 520 418 307 402 637 534 415 518
8 519 416 534 637 401 305 415 518
8 522 419 308 404 639 537 418 520
8 522 419 536 640 404 308 417 521
8 524 421 310 406 642 539 420 523
8 524 421 541 644 406 310 423 526
8 646 543 422 525 526 423 311 407
8 529 426 314 410 647 544 424 527
8 528 425 545 648 411 315 427 530
8 529 426 545 648 410 314 425 528
8 535 429 317 416 649 546 427 530
8 650 548 430 531 532 432 320 413
8 539 438 325 420 650 548 430 531
8 533 433 550 651 414 321 432 532
8 536 434 551 652 417 322 433 533
8 537 431 319 418 653 547 428 534
8 535 429 547 653 416 317 428 534
8 538 435 552 654 419 323 434 536
8 538 435 323 419 655 549 431 537
8 540 440 327 421 657 556 438 539
8 540 440 557 659 421 327 439 541
8 541 439 555 660 423 326 437 543
8 661 554 436 542 543 437 324 422
8 676 570 452 559 590 473 365 484
8 560 453 338 441 676 570 452 559
8 562 455 340 443 677 571 453 560
8 447 344 459 566 561 457 575 678
8 564 456 341 445 679 573 455 562
8 567 460 345 448 680 572 454 563
8 680 572 454 563 564 456 341 445
8 565 458 576 682 447 344 459 566
8 450 346 461 569 565 458 576 682
8 568 462 347 449 684 578 460 567
8 451 348 462 568 569 461 579 685
8 686 580 463 570 591 474 360 473
8 571 464 350 453 686 580 463 570
8 573 466 352 455 687 581 464 571
8 572 465 582 688 460 357 471 578
8 574 467 582 688 456 353 465 572
8 574 467 353 456 689 583 466 573
8 459 356 470 577 575 468 585 691
8 576 469 586 692 459 356 470 577
8 461 358 472 579 576 469 586 692
8 462 359 471 578 579 472 588 694
8 704 591 473 590 593 475 363 481
8 595 476 592 705 475 361 474 591
8 593 475 363 481 707 594 479 602
8 594 477 362 479 709 598 478 600
8 595 476 361 475 711 597 477 594
8 479 362 480 603 600 478 601 720
8 481 363 482 605 602 479 603 722
8 603 480 364 482 723 604 483 606
8 605 482 365 484 724 606 485 607
8 656 553 608 726 542 436 487 609
8 645 542 609 728 525 422 488 611
8 609 487 610 729 488 369 489 612
8 611 488 612 730 491 371 490 613
8 616 504 386 495 731 624 503 614
8 731 624 503 614 678 575 457 561
8 732 622 501 615 616 504 386 495
8 617 502 384 496 732 622 501 615
8 617 502 621 735 496 384 500 618
8 736 620 499 619 618 500 382 497
8 630 527 408 511 736 620 499 619
8 621 506 626 737 500 388 505 620
8 647 544 424 527 737 626 505 620
8 623 508 627 738 502 390 506 621
8 623 508 390 502 739 628 507 622
8 625 510 628 739 504 392 507 622
8 740 629 509 624 691 585 468 575
8 625 510 392 504 740 629 509 624
8 632 529 410 513 744 647 527 630
8 631 528 648 745 514 411 530 633
8 632 529 648 745 513 410 528 631
8 638 535 416 519 746 649 530 633
8 747 650 531 634 635 532 413 516
8 642 539 420 523 747 650 531 634
8 636 533 651 748 517 414 532 635
8 640 536 652 749 521 417 533 636
8 639 537 418 520 750 653 534 637
8 638 535 653 750 519 416 534 637
8 641 538 419 522 751 655 537 639
8 641 538 654 752 522 419 536 640
8 643 540 421 524 753 657 539 642
8 643 540 659 755 524 421 541 644
8 644 541 660 757 526 423 543 646
8 758 661 542 645 646 543 422 525
8 529 426 544 647 648 545 662 759
8 530 427 545 648 649 546 663 760
8 535 429 546 649 653 547 664 761
8 762 666 548 650 651 550 432 532
8 657 556 438 539 762 666 548 650
8 652 551 668 763 533 433 550 651
8 654 552 669 764 536 434 551 652
8 655 549 431 537 765 665 547 653
8 538 435 549 655 654 552 667 766
8 661 554 671 768 542 436 553 656
8 658 558 440 540 769 674 556 657
8 658 558 675 770 540 440 557 659
8 659 557 673 771 541 439 555 660
8 660 555 672 772 543 437 554 661
8 788 686 570 676 704 591 473 590
8 677 571 453 560 788 686 570 676
8 679 573 455 562 789 687 571 677
8 566 459 577 683 678 575 691 790
8 681 574 456 564 791 689 573 679
8 680 572 688 792 567 460 578 684
8 681 574 688 792 564 456 572 680
8 682 576 692 794 566 459 577 683
8 569 461 579 685 682 576 692 794
8 568 462 578 684 685 579 694 796
8 687 581 464 571 798 696 580 686
8 798 696 580 686 705 592 474 591
8 689 583 466 573 799 697 581 687
8 688 582 698 800 578 471 588 694
8 690 584 698 800 574 467 582 688
8 690 584 467 574 801 699 583 689
8 693 587 701 803 577 470 585 691
8 693 587 470 577 804 702 586 692
8 695 589 702 804 579 472 586 692
8 695 589 472 579 805 703 588 694
8 708 595 705 813 593 475 591 704
8 710 596 706 814 595 476 592 705
8 707 594 479 602 816 709 600 719
8 708 595 475 593 817 711 594 707
8 709 598 478 600 819 715 599 717
8 711 597 477 594 820 714 598 709
8 710 596 476 595 822 713 597 711
8 600 478 601 720 717 599 718 832
8 602 479 603 722 719 600 720 834
8 720 601 480 603 835 721 604 723
8 722 603 482 605 836 723 606 724
8 767 670 725 839 656 553 608 726
8 756 656 726 841 645 542 609 728
8 726 608 727 842 609 487 610 729
8 728 609 729 843 611 488 612 730
8 844 740 624 731 790 691 575 678
8 733 625 504 616 844 740 624 731
8 734 623 502 617 845 739 622 732
8 733 625 739 845 616 504 622 732
8 734 623 738 846 617 502 621 735
8 735 621 737 847 618 500 620 736
8 744 647 527 630 847 737 620 736
8 621 506 627 738 737 626 741 848
8 647 544 626 737 759 662 741 848
8 623 508 628 739 738 627 742 849
8 740 629 585 691 850 743 700 802
8 625 510 629 740 739 628 743 850
8 632 529 647 744 745 648 759 854
8 633 530 648 745 746 649 760 855
8 638 535 649 746 750 653 761 856
8 857 762 650 747 748 651 532 635
8 753 657 539 642 857 762 650 747
8 749 652 763 858 636 533 651 748
8 752 654 764 859 640 536 652 749
8 751 655 537 639 860 765 653 750
8 641 538 655 751 752 654 766 861
8 754 658 540 643 862 769 657 753
8 754 658 770 863 643 540 659 755
8 755 659 771 864 644 541 660 757
8 758 661 768 866 645 542 656 756
8 757 660 772 867 646 543 661 758
8 759 662 773 868 648 545 663 760
8 649 546 663 760 761 664 774 871
8 765 665 547 653 872 775 664 761
8 873 777 666 762 763 668 550 651
8 769 674 556 657 873 777 666 762
8 764 669 779 874 652 551 668 763
8 654 552 667 766 764 669 778 875
8 655 549 665 765 766 667 776 876
8 768 671 782 877 656 553 670 767
8 772 672 783 878 661 554 671 768
8 658 558 674 769 770 675 786 879
8 659 557 675 770 771 673 785 881
8 882 784 672 772 771 673 555 660
8 789 687 571 677 897 798 686 788
8 897 798 686 788 813 705 591 704
8 791 689 573 679 898 799 687 789
8 795 693 803 900 683 577 691 790
8 793 690 574 681 901 801 689 791
8 792 688 800 902 684 578 694 796
8 793 690 800 902 681 574 688 792
8 795 693 577 683 903 804 692 794
8 797 695 804 903 685 579 692 794
8 797 695 579 685 904 805 694 796
8 905 806 697 799 798 696 581 687
8 814 706 806 905 705 592 696 798
8 689 583 697 799 801 699 808 907
8 800 698 809 908 694 588 703 805
8 690 584 699 801 800 698 809 908
8 803 701 810 909 691 585 700 802
8 693 587 702 804 803 701 811 910
8 695 589 703 805 804 702 812 911
8 818 710 814 919 708 595 705 813
8 821 712 815 920 710 596 706 814
8 816 709 600 719 922 819 717 831
8 817 711 594 707 923 820 709 816
8 818 710 595 708 924 822 711 817
8 819 715 599 717 926 827 716 829
8 820 714 598 709 927 826 715 819
8 929 825 713 822 820 714 597 711
8 821 712 596 710 930 824 713 822
8 717 599 718 832 829 716 830 942
8 719 600 720 834 831 717 832 944
8 832 718 601 720 945 833 721 835
8 834 720 603 722 946 835 723 836
8 869 780 838 950 767 670 725 839
8 865 767 839 952 756 656 726 841
8 839 725 840 953 726 608 727 842
8 841 726 842 954 728 609 729 843
8 844 740 691 790 955 850 802 899
8 733 625 740 844 845 739 850 955
8 734 623 739 845 846 738 849 956
8 735 621 738 846 847 737 848 957
8 744 647 737 847 854 759 848 957
8 738 627 742 849 848 741 851 958
8 848 741 851 958 759 662 773 868
8 850 743 700 802 959 852 807 906
8 849 742 628 739 959 852 743 850
8 854 759 868 965 745 648 760 855
8 746 649 760 855 856 761 871 966
8 860 765 653 750 967 872 761 856
8 968 873 762 857 858 763 651 748
8 862 769 657 753 968 873 762 857
8 859 764 874 969 749 652 763 858
8 752 654 766 861 859 764 875 970
8 751 655 765 860 861 766 876 971
8 754 658 769 862 863 770 879 972
8 755 659 770 863 864 771 881 974
8 976 882 772 867 864 771 660 757
8 866 768 877 977 756 656 767 865
8 867 772 878 978 758 661 768 866
8 760 663 773 868 871 774 883 980
8 870 781 837 948 982 890 780 869
8 982 890 780 869 877 782 670 767
8 761 664 774 871 872 775 884 984
8 876 776 665 765 985 885 775 872
8 873 777 668 763 986 887 779 874
8 769 674 777 873 879 786 887 986
8 764 669 778 875 874 779 888 987
8 766 667 776 876 875 778 886 988
8 878 783 892 989 768 671 782 877
8 878 783 672 772 990 893 784 882
8 880 787 675 770 991 896 786 879
8 880 787 895 992 770 675 785 881
8 881 785 894 993 771 673 784 882
8 1006 905 799 898 897 798 687 789
8 919 814 905 1006 813 705 798 897
8 791 689 799 898 901 801 907 1007
8 900 803 909 1009 790 691 802 899
8 795 693 804 903 900 803 910 1010
8 902 800 908 1011 796 694 805 904
8 793 690 801 901 902 800 908 1011
8 797 695 805 904 903 804 911 1012
8 799 697 806 905 907 808 912 1013
8 920 815 912 1013 814 706 806 905
8 802 700 810 909 906 807 913 1014
8 801 699 808 907 908 809 914 1015
8 805 703 809 908 911 812 915 1016
8 803 701 811 910 909 810 916 1017
8 911 812 917 1018 804 702 811 910
8 925 821 920 1030 818 710 814 919
8 928 823 921 1031 821 712 815 920
8 922 819 717 831 1033 926 829 941
8 923 820 709 816 1034 927 819 922
8 1035 929 822 924 923 820 711 817
8 925 821 710 818 1036 930 822 924
8 1038 933 825 929 927 826 714 820
8 926 827 716 829 1039 935 828 939
8 927 826 715 819 1040 934 827 926
8 928 823 712 821 1041 931 824 930
8 1042 932 824 930 929 825 713 822
8 829 716 830 942 939 828 940 1058
8 831 717 832 944 941 829 942 1060
8 942 830 718 832 1061 943 833 945
8 944 832 720 834 1062 945 835 946
8 981 889 947 1064 870 781 837 948
8 948 837 949 1067 869 780 838 950
8 975 869 950 1069 865 767 839 952
8 950 838 951 1070 839 725 840 953
8 952 839 953 1071 841 726 842 954
8 955 850 802 899 1072 959 906 1008
8 956 849 739 845 1072 959 850 955
8 846 738 849 956 957 848 958 1073
8 957 848 958 1073 854 759 868 965
8 849 742 852 959 958 851 961 1076
8 960 853 961 1076 906 807 852 959
8 958 851 961 1076 868 773 883 980
8 960 853 807 906 1077 963 913 1014
8 855 760 868 965 966 871 980 1085
8 856 761 871 966 967 872 984 1086
8 971 876 765 860 1087 985 872 967
8 968 873 763 858 1088 986 874 969
8 862 769 873 968 972 879 986 1088
8 859 764 875 970 969 874 987 1089
8 861 766 876 971 970 875 988 1090
8 973 880 770 863 1091 991 879 972
8 973 880 992 1092 863 770 881 974
8 974 881 993 1093 864 771 882 976
8 979 870 948 1066 1094 982 869 975
8 1094 982 869 975 977 877 767 865
8 978 878 772 867 1095 990 882 976
8 978 878 989 1096 866 768 877 977
8 871 774 883 980 984 884 994 1099
8 983 891 999 1100 870 781 889 981
8 1101 1000 890 982 989 892 782 877
8 983 891 781 870 1101 1000 890 982
8 872 775 884 984 985 885 995 1103
8 876 776 885 985 988 886 996 1104
8 986 887 779 874 1105 998 888 987
8 879 786 887 986 991 896 998 1105
8 875 778 886 988 987 888 997 1106
8 990 893 1002 1107 878 783 892 989
8 1108 1003 893 990 993 894 784 882
8 880 787 896 991 992 895 1005 1109
8 993 894 785 881 1110 1004 895 992
8 898 799 905 1006 1007 907 1013 1120
8 1030 920 1013 1120 919 814 905 1006
8 901 801 907 1007 1011 908 1015 1121
8 899 802 909 1009 1008 906 1014 1122
8 900 803 910 1010 1009 909 1017 1123
8 1012 911 1018 1124 903 804 910 1010
8 904 805 908 1011 1012 911 1016 1125
8 1013 912 1020 1127 907 808 914 1015
8 1031 921 1020 1127 920 815 912 1013
8 1019 918 962 1075 1128 1021 913 1014
8 1128 1021 913 1014 1017 916 810 909
8 1015 914 1022 1129 908 809 915 1016
8 1016 915 1023 1130 911 812 917 1018
8 1018 917 1024 1131 910 811 916 1017
8 1037 928 1031 1148 925 821 920 1030
8 928 823 931 1041 1031 921 1032 1149
8 1033 926 829 941 1151 1039 939 1057
8 1034 927 819 922 1152 1040 926 1033
8 1153 1038 929 1035 1034 927 820 923
8 1154 1042 930 1036 1035 929 822 924
8 1037 928 821 925 1155 1041 930 1036
8 1039 935 828 939 1156 1047 938 1055
8 1157 1043 932 1042 1038 933 825 929
8 1038 933 826 927 1158 1045 934 1040
8 1040 934 827 926 1159 1046 935 1039
8 930 824 932 1042 1041 931 1044 1160
8 1051 936 1048 1165 1175 1052 937 1053
8 1156 1047 938 1055 1053 937 1054 1178
8 939 828 940 1058 1055 938 1056 1181
8 941 829 942 1060 1057 939 1058 1183
8 942 830 943 1061 1058 940 1059 1184
8 1060 942 832 944 1185 1061 945 1062
8 1082 964 1063 1188 981 889 947 1064
8 1097 981 1064 1190 979 870 948 1066
8 1064 947 1065 1191 948 837 949 1067
8 1066 948 1067 1193 975 869 950 1069
8 1067 949 1068 1194 950 838 951 1070
8 1069 950 1070 1195 952 839 953 1071
8 956 849 959 1072 1073 958 1076 1197
8 1074 960 1076 1197 1008 906 959 1072
8 1073 958 1076 1197 965 868 980 1085
8 1074 960 906 1008 1198 1077 1014 1122
8 1133 1026 1079 1199 1019 918 962 1075
8 1077 963 913 1014 1200 1080 962 1075
8 960 853 963 1077 1076 961 1078 1201
8 980 883 961 1076 1099 994 1078 1201
8 1210 1083 964 1082 1100 999 889 981
8 966 871 980 1085 1086 984 1099 1215
8 967 872 984 1086 1087 985 1103 1216
8 971 876 985 1087 1090 988 1104 1217
8 1088 986 874 969 1218 1105 987 1089
8 972 879 986 1088 1091 991 1105 1218
8 970 875 988 1090 1089 987 1106 1219
8 973 880 991 1091 1092 992 1109 1220
8 1093 993 881 974 1221 1110 992 1092
8 1222 1108 990 1095 1093 993 882 976
8 1223 1101 982 1094 1096 989 877 977
8 1098 983 870 979 1223 1101 982 1094
8 1095 990 1107 1224 978 878 989 1096
8 1098 983 1100 1225 979 870 981 1097
8 984 884 994 1099 1103 995 1111 1227
8 1102 1001 1115 1228 983 891 999 1100
8 1101 1000 892 989 1229 1116 1002 1107
8 1102 1001 891 983 1229 1116 1000 1101
8 985 885 995 1103 1104 996 1112 1230
8 988 886 996 1104 1106 997 1113 1231
8 1105 998 888 987 1232 1114 997 1106
8 991 896 998 1105 1109 1005 1114 1232
8 1108 1003 1117 1233 990 893 1002 1107
8 1108 1003 894 993 1233 1117 1004 1110
8 992 895 1005 1109 1110 1004 1118 1234
8 1120 1013 1127 1244 1007 907 1015 1121
8 1148 1031 1127 1244 1030 920 1013 1120
8 1121 1015 1129 1245 1011 908 1016 1125
8 1126 1019 1075 1196 1246 1128 1014 1122
8 1246 1128 1014 1122 1123 1017 909 1009
8 1124 1018 1131 1247 1010 910 1017 1123
8 1125 1016 1130 1248 1012 911 1018 1124
8 1127 1020 1137 1254 1015 914 1022 1129
8 1031 921 1032 1149 1127 1020 1137 1254
8 1134 1027 918 1019 1257 1140 1021 1128
8 1257 1140 1021 1128 1131 1024 916 1017
8 1129 1022 1141 1258 1016 915 1023 1130
8 1130 1023 1142 1259 1018 917 1024 1131
8 1261 1144 1025 1132 1133 1026 1079 1199
8 1255 1138 1025 1132 1135 1028 1144 1261
8 1133 1026 918 1019 1262 1145 1027 1134
8 1136 1029 1139 1256 1263 1146 1028 1135
8 1037 928 1041 1155 1148 1031 1149 1275
8 1041 931 1044 1160 1149 1032 1150 1276
8 1151 1039 939 1057 1278 1156 1055 1180
8 1152 1040 926 1033 1279 1159 1039 1151
8 1153 1038 927 1034 1280 1158 1040 1152
8 1281 1157 1042 1154 1153 1038 929 1035
8 1036 930 1042 1154 1155 1041 1160 1282
8 1283 1164 1046 1159 1156 1047 935 1039
8 1165 1048 1164 1283 1053 937 1047 1156
8 1157 1043 933 1038 1284 1161 1045 1158
8 1157 1043 1161 1284 1042 932 1044 1160
8 1040 934 1046 1159 1158 1045 1163 1285
8 1166 1049 1167 1292 1051 936 1048 1165
8 1166 1049 936 1051 1293 1168 1050 1172
8 1051 936 1052 1175 1172 1050 1173 1306
8 1174 1051 1165 1290 1308 1175 1053 1177
8 1053 937 1054 1178 1175 1052 1176 1309
8 1278 1156 1055 1180 1177 1053 1178 1311
8 1055 938 1056 1181 1178 1054 1179 1312
8 1057 939 1058 1183 1180 1055 1181 1314
8 1058 940 1059 1184 1181 1056 1182 1315
8 1060 942 1061 1185 1183 1058 1184 1316
8 1208 1081 1187 1321 1082 964 1063 1188
8 1209 1082 1188 1322 1097 981 1064 1190
8 1188 1063 1189 1323 1064 947 1065 1191
8 1190 1064 1191 1325 1066 948 1067 1193
8 1191 1065 1192 1326 1067 949 1068 1194
8 1067 1193 1069 950 1194 1327 1195 1070
8 1250 1133 1199 1330 1126 1019 1075 1196
8 1198 1077 1014 1122 1331 1200 1075 1196
8 1074 960 1077 1198 1197 1076 1201 1332
8 1085 980 1076 1197 1215 1099 1201 1332
8 1199 1079 1203 1333 1075 962 1080 1200
8 1132 1025 1119 1243 1199 1079 1203 1333
8 1201 1078 963 1077 1334 1202 1080 1200
8 1099 994 1078 1201 1227 1111 1202 1334
8 1343 1207 1081 1208 1210 1083 964 1082
8 1214 1084 1186 1319 1343 1207 1081 1208
8 1345 1210 1082 1209 1225 1100 981 1097
8 1346 1211 1083 1210 1228 1115 999 1100
8 1086 984 1099 1215 1216 1103 1227 1352
8 1087 985 1103 1216 1217 1104 1230 1353
8 1090 988 1104 1217 1219 1106 1231 1354
8 1218 1105 987 1089 1355 1232 1106 1219
8 1091 991 1105 1218 1220 1109 1232 1355
8 1092 992 1109 1220 1221 1110 1234 1356
8 1222 1108 1233 1357 1095 990 1107 1224
8 1222 1108 993 1093 1357 1233 1110 1221
8 1223 1101 989 1096 1358 1229 1107 1224
8 1226 1102 983 1098 1358 1229 1101 1223
8 1226 1102 1228 1359 1098 983 1100 1225
8 1103 995 1111 1227 1230 1112 1235 1360
8 1107 1002 1117 1233 1229 1116 1240 1362
8 1102 1001 1116 1229 1228 1115 1240 1362
8 1104 996 1112 1230 1231 1113 1236 1363
8 1364 1237 1114 1232 1231 1113 997 1106
8 1109 1005 1114 1232 1234 1118 1238 1365
8 1110 1004 1118 1234 1233 1117 1241 1366
8 1242 1374 1255 1138 1119 1243 1132 1025
8 1244 1127 1254 1376 1121 1015 1129 1245
8 1148 1031 1149 1275 1244 1127 1254 1376
8 1245 1129 1258 1377 1125 1016 1130 1248
8 1251 1134 1019 1126 1378 1257 1128 1246
8 1378 1257 1128 1246 1247 1131 1017 1123
8 1248 1130 1259 1379 1124 1018 1131 1247
8 1261 1381 1250 1133 1132 1249 1330 1199
8 1255 1380 1252 1135 1132 1249 1381 1261
8 1250 1133 1019 1126 1382 1262 1134 1251
8 1253 1136 1256 1385 1384 1263 1135 1252
8 1254 1137 1265 1387 1129 1022 1141 1258
8 1149 1032 1150 1276 1254 1137 1265 1387
8 1028 1135 1255 1138 1139 1256 1388 1266
8 1136 1029 1147 1264 1256 1139 1267 1389
8 1390 1268 1140 1257 1259 1142 1024 1131
8 1260 1143 1027 1134 1390 1268 1140 1257
8 1258 1141 1269 1391 1130 1023 1142 1259
8 1262 1145 1027 1134 1393 1271 1143 1260
8 1261 1144 1026 1133 1394 1272 1145 1262
8 1135 1028 1144 1261 1263 1146 1272 1394
8 1136 1029 1146 1263 1264 1147 1273 1395
8 1155 1041 1160 1282 1275 1149 1276 1405
8 1276 1150 1044 1160 1406 1277 1162 1286
8 1408 1283 1159 1279 1278 1156 1039 1151
8 1290 1165 1283 1408 1177 1053 1156 1278
8 1152 1040 1159 1279 1280 1158 1285 1409
8 1281 1157 1038 1153 1410 1284 1158 1280
8 1281 1157 1284 1410 1154 1042 1160 1282
8 1159 1046 1164 1283 1285 1163 1289 1412
8 1292 1167 1289 1412 1165 1048 1164 1283
8 1158 1045 1163 1285 1284 1161 1288 1413
8 1284 1161 1288 1413 1160 1044 1162 1286
8 1291 1166 1292 1418 1174 1051 1165 1290
8 1291 1166 1051 1174 1419 1293 1172 1305
8 1294 1169 1296 1421 1166 1049 1167 1292
8 1293 1168 1050 1172 1422 1295 1171 1303
8 1294 1169 1049 1166 1423 1297 1168 1293
8 1422 1295 1171 1303 1301 1170 1302 1435
8 1172 1050 1173 1306 1303 1171 1304 1438
8 1174 1051 1175 1308 1305 1172 1306 1440
8 1175 1052 1176 1309 1306 1173 1307 1441
8 1177 1053 1178 1311 1308 1175 1309 1443
8 1178 1054 1179 1312 1309 1176 1310 1444
8 1180 1055 1181 1314 1311 1178 1312 1446
8 1056 1181 1312 1179 1182 1315 1447 1313
8 1183 1058 1184 1316 1314 1181 1315 1448
8 1319 1186 1084 1214 1451 1317 1213 1350
8 1319 1186 1318 1453 1208 1081 1187 1321
8 1321 1187 1320 1456 1188 1063 1189 1323
8 1344 1208 1321 1457 1209 1082 1188 1322
8 1322 1188 1323 1458 1190 1064 1191 1325
8 1323 1189 1324 1459 1191 1065 1192 1326
8 1191 1325 1193 1067 1326 1460 1327 1194
8 1242 1374 1243 1119 1328 1462 1335 1204
8 1330 1199 1333 1465 1196 1075 1200 1331
8 1132 1249 1330 1199 1243 1375 1465 1333
8 1332 1201 1077 1198 1466 1334 1200 1331
8 1215 1099 1201 1332 1352 1227 1334 1466
8 1119 1243 1333 1203 1204 1335 1470 1338
8 1333 1203 1338 1470 1200 1080 1202 1334
8 1227 1111 1202 1334 1360 1235 1338 1470
8 1328 1462 1335 1204 1205 1336 1471 1339
8 1337 1206 1340 1472 1464 1329 1205 1336
8 1346 1211 1342 1479 1210 1083 1207 1343
8 1346 1211 1115 1228 1479 1342 1239 1361
8 1348 1212 1084 1214 1479 1342 1207 1343
8 1480 1343 1208 1344 1345 1210 1082 1209
8 1351 1214 1319 1454 1480 1343 1208 1344
8 1481 1346 1210 1345 1359 1228 1100 1225
8 1348 1212 1347 1483 1214 1084 1213 1350
8 1216 1103 1227 1352 1353 1230 1360 1488
8 1217 1104 1230 1353 1354 1231 1363 1489
8 1490 1364 1232 1355 1354 1231 1106 1219
8 1220 1109 1232 1355 1356 1234 1365 1491
8 1221 1110 1234 1356 1357 1233 1366 1492
8 1224 1107 1233 1357 1358 1229 1362 1493
8 1226 1102 1229 1358 1359 1228 1362 1493
8 1230 1112 1235 1360 1363 1236 1367 1496
8 1361 1239 1115 1228 1497 1371 1240 1362
8 1366 1241 1372 1498 1233 1117 1240 1362
8 1364 1237 1113 1231 1499 1368 1236 1363
8 1364 1237 1368 1499 1232 1114 1238 1365
8 1234 1118 1238 1365 1366 1241 1369 1500
8 1507 1373 1242 1374 1388 1266 1138 1255
8 1508 1374 1243 1375 1380 1255 1132 1249
8 1376 1254 1387 1509 1245 1129 1258 1377
8 1275 1149 1276 1405 1376 1254 1387 1509
8 1377 1258 1391 1510 1248 1130 1259 1379
8 1511 1390 1257 1378 1379 1259 1131 1247
8 1383 1260 1134 1251 1511 1390 1257 1378
8 1252 1135 1256 1385 1380 1255 1388 1512
8 1261 1381 1513 1394 1133 1250 1382 1262
8 1135 1252 1384 1263 1261 1381 1513 1394
8 1382 1262 1134 1251 1514 1393 1260 1383
8 1253 1136 1263 1384 1386 1264 1395 1516
8 1253 1136 1264 1386 1385 1256 1389 1517
8 1387 1265 1397 1519 1258 1141 1269 1391
8 1276 1150 1277 1406 1387 1265 1397 1519
8 1256 1139 1267 1389 1388 1266 1398 1520
8 1264 1147 1274 1396 1389 1267 1399 1521
8 1392 1270 1143 1260 1522 1400 1268 1390
8 1390 1268 1142 1259 1522 1400 1269 1391
8 1392 1270 1401 1523 1260 1143 1271 1393
8 1272 1394 1524 1402 1145 1262 1393 1271
8 1395 1273 1146 1263 1524 1402 1272 1394
8 1273 1395 1264 1147 1403 1526 1396 1274
8 1405 1276 1160 1282 1534 1406 1286 1411
8 1414 1287 1407 1535 1286 1162 1277 1406
8 1279 1159 1283 1408 1409 1285 1412 1537
8 1418 1292 1412 1537 1290 1165 1283 1408
8 1280 1158 1285 1409 1410 1284 1413 1538
8 1410 1284 1413 1538 1282 1160 1286 1411
8 1285 1163 1289 1412 1413 1288 1417 1540
8 1421 1296 1417 1540 1292 1167 1289 1412
8 1414 1287 1162 1286 1541 1416 1288 1413
8 1420 1294 1421 1545 1291 1166 1292 1418
8 1419 1293 1172 1305 1546 1422 1303 1437
8 1420 1294 1166 1291 1547 1423 1293 1419
8 1294 1169 1297 1423 1421 1296 1425 1548
8 1423 1297 1168 1293 1549 1424 1295 1422
8 1301 1170 1298 1427 1422 1295 1424 1549
8 1432 1300 1428 1554 1301 1170 1298 1427
8 1431 1299 1428 1554 1560 1430 1300 1432
8 1563 1433 1300 1432 1435 1302 1170 1301
8 1546 1422 1303 1437 1434 1301 1435 1565
8 1303 1171 1304 1438 1435 1302 1436 1566
8 1305 1172 1306 1440 1437 1303 1438 1568
8 1306 1173 1307 1441 1438 1304 1439 1569
8 1308 1175 1309 1443 1440 1306 1441 1571
8 1309 1176 1310 1444 1441 1307 1442 1572
8 1311 1178 1312 1446 1443 1309 1444 1574
8 1179 1312 1444 1310 1313 1447 1575 1445
8 1314 1181 1315 1448 1446 1312 1447 1576
8 1350 1213 1349 1486 1451 1317 1449 1579
8 1451 1317 1450 1581 1319 1186 1318 1453
8 1454 1319 1214 1351 1582 1451 1350 1487
8 1453 1318 1452 1584 1321 1187 1320 1456
8 1454 1319 1453 1585 1344 1208 1321 1457
8 1456 1320 1455 1586 1323 1189 1324 1459
8 1457 1321 1456 1587 1322 1188 1323 1458
8 1458 1323 1459 1588 1325 1191 1326 1460
8 1205 1336 1464 1329 1328 1462 1590 1461
8 1507 1373 1461 1590 1374 1242 1328 1462
8 1508 1374 1462 1591 1375 1243 1335 1467
8 1337 1206 1329 1464 1473 1341 1463 1594
8 1375 1243 1335 1467 1465 1333 1470 1596
8 1465 1333 1470 1596 1331 1200 1334 1466
8 1352 1227 1334 1466 1488 1360 1470 1596
8 1591 1462 1336 1468 1467 1335 1471 1597
8 1469 1337 1472 1598 1595 1464 1336 1468
8 1471 1339 1474 1600 1335 1204 1338 1470
8 1600 1474 1367 1496 1470 1338 1235 1360
8 1336 1205 1340 1472 1471 1339 1475 1601
8 1337 1206 1341 1473 1472 1340 1476 1602
8 1495 1370 1478 1609 1361 1239 1342 1479
8 1348 1212 1342 1479 1483 1347 1478 1609
8 1481 1346 1479 1610 1345 1210 1343 1480
8 1481 1346 1228 1359 1610 1479 1361 1494
8 1484 1348 1214 1351 1610 1479 1343 1480
8 1483 1347 1482 1612 1350 1213 1349 1486
8 1484 1348 1483 1613 1351 1214 1350 1487
8 1353 1230 1360 1488 1489 1363 1496 1616
8 1490 1364 1231 1354 1617 1499 1363 1489
8 1490 1364 1499 1617 1355 1232 1365 1491
8 1356 1234 1365 1491 1492 1366 1500 1619
8 1492 1366 1498 1620 1357 1233 1362 1493
8 1494 1361 1228 1359 1621 1497 1362 1493
8 1495 1370 1239 1361 1622 1504 1371 1497
8 1363 1236 1367 1496 1499 1368 1501 1623
8 1497 1371 1240 1362 1624 1505 1372 1498
8 1625 1503 1372 1498 1500 1369 1241 1366
8 1365 1238 1368 1499 1500 1369 1502 1626
8 1520 1398 1506 1633 1388 1266 1373 1507
8 1634 1507 1374 1508 1512 1388 1255 1380
8 1509 1387 1519 1635 1377 1258 1391 1510
8 1405 1276 1406 1534 1509 1387 1519 1635
8 1515 1392 1260 1383 1636 1522 1390 1511
8 1511 1390 1259 1379 1636 1522 1391 1510
8 1385 1256 1389 1517 1512 1388 1520 1637
8 1513 1394 1262 1382 1638 1524 1393 1514
8 1395 1516 1638 1524 1263 1384 1513 1394
8 1515 1392 1523 1639 1383 1260 1393 1514
8 1516 1395 1526 1640 1386 1264 1396 1518
8 1386 1264 1396 1518 1517 1389 1521 1641
8 1519 1397 1527 1643 1391 1269 1400 1522
8 1535 1407 1527 1643 1406 1277 1397 1519
8 1389 1267 1399 1521 1520 1398 1528 1644
8 1645 1529 1399 1521 1525 1404 1274 1396
8 1392 1270 1400 1522 1523 1401 1531 1646
8 1524 1402 1271 1393 1648 1532 1401 1523
8 1403 1526 1648 1532 1273 1395 1524 1402
8 1525 1404 1274 1396 1649 1533 1403 1526
8 1539 1414 1535 1657 1411 1286 1406 1534
8 1542 1415 1536 1658 1414 1287 1407 1535
8 1409 1285 1412 1537 1538 1413 1540 1660
8 1545 1421 1540 1660 1418 1292 1412 1537
8 1539 1414 1286 1411 1661 1541 1413 1538
8 1540 1417 1544 1663 1413 1288 1416 1541
8 1421 1296 1425 1548 1540 1417 1544 1663
8 1542 1415 1287 1414 1664 1543 1416 1541
8 1420 1294 1423 1547 1545 1421 1548 1666
8 1547 1423 1293 1419 1667 1549 1422 1546
8 1434 1301 1427 1553 1546 1422 1549 1667
8 1423 1297 1424 1549 1548 1425 1550 1668
8 1551 1426 1550 1668 1427 1298 1424 1549
8 1551 1426 1298 1427 1671 1552 1428 1554
8 1562 1432 1554 1674 1434 1301 1427 1553
8 1431 1299 1429 1558 1554 1428 1555 1675
8 1431 1299 1430 1560 1558 1429 1557 1680
8 1560 1430 1300 1432 1683 1559 1433 1563
8 1561 1431 1554 1674 1684 1560 1432 1562
8 1685 1563 1432 1562 1565 1435 1301 1434
8 1435 1302 1436 1566 1563 1433 1564 1686
8 1437 1303 1438 1568 1565 1435 1566 1688
8 1438 1304 1439 1569 1566 1436 1567 1689
8 1440 1306 1441 1571 1568 1438 1569 1691
8 1441 1307 1442 1572 1569 1439 1570 1692
8 1443 1309 1444 1574 1571 1441 1572 1694
8 1310 1444 1572 1442 1445 1575 1695 1573
8 1446 1312 1447 1576 1574 1444 1575 1696
8 1486 1349 1485 1614 1579 1449 1577 1699
8 1451 1317 1449 1579 1581 1450 1578 1701
8 1487 1350 1486 1615 1582 1451 1579 1702
8 1581 1450 1580 1704 1453 1318 1452 1584
8 1582 1451 1581 1705 1454 1319 1453 1585
8 1584 1452 1583 1706 1456 1320 1455 1586
8 1585 1453 1584 1707 1457 1321 1456 1587
8 1587 1456 1586 1708 1458 1323 1459 1588
8 1633 1506 1589 1710 1507 1373 1461 1590
8 1464 1329 1461 1590 1594 1463 1589 1710
8 1468 1336 1462 1591 1595 1464 1590 1711
8 1634 1507 1590 1711 1508 1374 1462 1591
8 1473 1341 1463 1594 1603 1477 1593 1716
8 1469 1337 1464 1595 1599 1473 1594 1717
8 1471 1597 1467 1335 1600 1718 1596 1470
8 1718 1600 1496 1616 1596 1470 1360 1488
8 1336 1468 1597 1471 1472 1598 1719 1601
8 1469 1337 1473 1599 1598 1472 1602 1720
8 1722 1604 1501 1623 1600 1474 1367 1496
8 1475 1601 1471 1339 1604 1722 1600 1474
8 1602 1476 1605 1723 1472 1340 1475 1601
8 1476 1602 1724 1606 1341 1473 1603 1477
8 1483 1347 1478 1609 1612 1482 1608 1731
8 1495 1370 1504 1622 1609 1478 1608 1731
8 1618 1495 1609 1732 1494 1361 1479 1610
8 1484 1348 1479 1610 1613 1483 1609 1732
8 1486 1349 1482 1612 1614 1485 1611 1733
8 1613 1483 1612 1734 1487 1350 1486 1615
8 1489 1363 1496 1616 1617 1499 1623 1736
8 1491 1365 1499 1617 1619 1500 1626 1737
8 1618 1495 1361 1494 1738 1622 1497 1621
8 1739 1625 1498 1620 1619 1500 1366 1492
8 1621 1497 1362 1493 1740 1624 1498 1620
8 1742 1631 1504 1622 1624 1505 1371 1497
8 1743 1628 1502 1626 1623 1501 1368 1499
8 1744 1630 1505 1624 1625 1503 1372 1498
8 1745 1629 1503 1625 1626 1502 1369 1500
8 1520 1398 1528 1644 1633 1506 1632 1751
8 1637 1520 1633 1752 1512 1388 1507 1634
8 1635 1519 1643 1753 1510 1391 1522 1636
8 1657 1535 1643 1753 1534 1406 1519 1635
8 1515 1392 1522 1636 1639 1523 1646 1754
8 1517 1389 1521 1641 1637 1520 1644 1755
8 1524 1638 1756 1648 1393 1514 1639 1523
8 1640 1526 1395 1516 1756 1648 1524 1638
8 1642 1525 1396 1518 1757 1649 1526 1640
8 1758 1645 1521 1641 1642 1525 1396 1518
8 1646 1531 1400 1522 1760 1650 1527 1643
8 1535 1407 1536 1658 1643 1527 1650 1760
8 1521 1399 1529 1645 1644 1528 1651 1761
8 1647 1530 1652 1762 1525 1404 1529 1645
8 1401 1523 1648 1532 1531 1646 1763 1655
8 1525 1404 1533 1649 1647 1530 1654 1765
8 1533 1649 1766 1656 1403 1526 1648 1532
8 1662 1542 1658 1774 1539 1414 1535 1657
8 1542 1415 1543 1664 1658 1536 1659 1775
8 1660 1540 1663 1777 1538 1413 1541 1661
8 1545 1421 1548 1666 1660 1540 1663 1777
8 1662 1542 1414 1539 1778 1664 1541 1661
8 1664 1543 1416 1541 1779 1665 1544 1663
8 1548 1425 1550 1668 1663 1544 1665 1779
8 1547 1423 1549 1667 1666 1548 1668 1781
8 1670 1551 1668 1781 1553 1427 1549 1667
8 1551 1426 1552 1671 1668 1550 1669 1782
8 1670 1551 1427 1553 1784 1671 1554 1674
8 1675 1555 1672 1785 1554 1428 1552 1671
8 1678 1556 1673 1789 1558 1429 1555 1675
8 1561 1431 1558 1681 1674 1554 1675 1790
8 1794 1677 1556 1678 1680 1557 1429 1558
8 1560 1430 1559 1683 1680 1557 1679 1797
8 1561 1431 1560 1684 1681 1558 1680 1798
8 1563 1433 1564 1686 1683 1559 1682 1800
8 1684 1560 1432 1562 1801 1683 1563 1685
8 1565 1435 1566 1688 1685 1563 1686 1802
8 1566 1436 1567 1689 1686 1564 1687 1803
8 1568 1438 1569 1691 1688 1566 1689 1805
8 1569 1439 1570 1692 1689 1567 1690 1806
8 1571 1441 1572 1694 1691 1569 1692 1808
8 1442 1572 1692 1570 1573 1695 1809 1693
8 1574 1444 1575 1696 1694 1572 1695 1810
8 1614 1485 1592 1712 1699 1577 1697 1813
8 1579 1449 1577 1699 1701 1578 1698 1815
8 1615 1486 1614 1735 1702 1579 1699 1816
8 1701 1578 1700 1818 1581 1450 1580 1704
8 1582 1451 1579 1702 1705 1581 1701 1819
8 1704 1580 1703 1820 1584 1452 1583 1706
8 1705 1581 1704 1821 1585 1453 1584 1707
8 1707 1584 1706 1822 1587 1456 1586 1708
8 1710 1589 1506 1633 1824 1709 1632 1751
8 1594 1463 1589 1710 1716 1593 1709 1824
8 1752 1633 1710 1825 1634 1507 1590 1711
8 1595 1464 1590 1711 1717 1594 1710 1825
8 1830 1714 1592 1712 1733 1611 1485 1614
8 1603 1477 1593 1716 1725 1607 1715 1834
8 1599 1473 1594 1717 1721 1603 1716 1835
8 1837 1722 1623 1736 1718 1600 1496 1616
8 1719 1601 1722 1837 1597 1471 1600 1718
8 1602 1720 1598 1472 1723 1838 1719 1601
8 1720 1602 1473 1599 1839 1724 1603 1721
8 1723 1605 1726 1840 1601 1475 1604 1722
8 1840 1726 1628 1743 1722 1604 1501 1623
8 1724 1606 1727 1841 1602 1476 1605 1723
8 1725 1607 1728 1842 1603 1477 1606 1724
8 1612 1482 1608 1731 1733 1611 1730 1849
8 1741 1627 1730 1849 1622 1504 1608 1731
8 1613 1483 1609 1732 1734 1612 1731 1850
8 1618 1495 1622 1738 1732 1609 1731 1850
8 1615 1486 1612 1734 1735 1614 1733 1851
8 1852 1743 1626 1737 1736 1623 1499 1617
8 1853 1745 1625 1739 1737 1626 1500 1619
8 1855 1742 1622 1738 1740 1624 1497 1621
8 1856 1744 1624 1740 1739 1625 1498 1620
8 1741 1627 1504 1622 1857 1746 1631 1742
8 1742 1631 1505 1624 1858 1749 1630 1744
8 1859 1747 1629 1745 1743 1628 1502 1626
8 1860 1748 1630 1744 1745 1629 1503 1625
8 1644 1528 1651 1761 1751 1632 1750 1865
8 1637 1520 1644 1755 1752 1633 1751 1866
8 1754 1646 1522 1636 1867 1760 1643 1753
8 1657 1535 1658 1774 1753 1643 1760 1867
8 1639 1523 1646 1754 1756 1648 1763 1868
8 1641 1521 1645 1758 1755 1644 1761 1869
8 1757 1649 1526 1640 1870 1766 1648 1756
8 1642 1525 1649 1757 1759 1647 1765 1871
8 1759 1647 1762 1872 1642 1525 1645 1758
8 1760 1650 1767 1874 1646 1531 1655 1763
8 1658 1536 1659 1775 1760 1650 1767 1874
8 1762 1652 1768 1875 1645 1529 1651 1761
8 1764 1653 1769 1876 1647 1530 1652 1762
8 1656 1766 1877 1773 1532 1648 1763 1655
8 1771 1879 1765 1654 1653 1764 1647 1530
8 1533 1649 1765 1654 1656 1766 1880 1772
8 1662 1542 1664 1778 1774 1658 1775 1887
8 1664 1543 1665 1779 1775 1659 1776 1888
8 1778 1664 1541 1661 1890 1779 1663 1777
8 1666 1548 1668 1781 1777 1663 1779 1890
8 1782 1669 1780 1891 1668 1550 1665 1779
8 1670 1551 1671 1784 1781 1668 1782 1893
8 1671 1552 1672 1785 1782 1669 1783 1894
8 1790 1675 1785 1896 1674 1554 1671 1784
8 1675 1555 1673 1789 1785 1672 1786 1897
8 1792 1676 1788 1903 1678 1556 1673 1789
8 1795 1678 1789 1904 1681 1558 1675 1790
8 1792 1676 1556 1678 1906 1791 1677 1794
8 1680 1557 1679 1797 1794 1677 1793 1909
8 1910 1794 1678 1795 1798 1680 1558 1681
8 1683 1559 1682 1800 1797 1679 1796 1912
8 1684 1560 1683 1801 1798 1680 1797 1913
8 1686 1564 1687 1803 1800 1682 1799 1915
8 1685 1563 1686 1802 1801 1683 1800 1916
8 1688 1566 1689 1805 1802 1686 1803 1917
8 1689 1567 1690 1806 1803 1687 1804 1918
8 1691 1569 1692 1808 1805 1689 1806 1920
8 1692 1570 1693 1809 1806 1690 1807 1921
8 1694 1572 1695 1810 1808 1692 1809 1922
8 1829 1713 1811 1926 1712 1592 1697 1813
8 1813 1697 1812 1928 1699 1577 1698 1815
8 1735 1614 1712 1828 1816 1699 1813 1929
8 1815 1698 1814 1931 1701 1578 1700 1818
8 1702 1579 1699 1816 1819 1701 1815 1932
8 1818 1700 1817 1933 1704 1580 1703 1820
8 1819 1701 1818 1934 1705 1581 1704 1821
8 1821 1704 1820 1935 1707 1584 1706 1822
8 1824 1709 1632 1751 1937 1823 1750 1865
8 1716 1593 1709 1824 1834 1715 1823 1937
8 1825 1710 1633 1752 1938 1824 1751 1866
8 1717 1594 1710 1825 1835 1716 1824 1938
8 1945 1830 1712 1828 1851 1733 1614 1735
8 1830 1714 1831 1946 1712 1592 1713 1829
8 1947 1832 1714 1830 1849 1730 1611 1733
8 1843 1729 1607 1725 1950 1833 1715 1834
8 1721 1603 1716 1835 1836 1725 1834 1951
8 1836 1725 1842 1953 1721 1603 1724 1839
8 1723 1838 1719 1601 1840 1954 1837 1722
8 1954 1840 1743 1852 1837 1722 1623 1736
8 1724 1839 1720 1602 1841 1955 1838 1723
8 1841 1727 1844 1956 1723 1605 1726 1840
8 1956 1844 1747 1859 1840 1726 1628 1743
8 1728 1842 1724 1606 1845 1957 1841 1727
8 1725 1607 1729 1843 1842 1728 1846 1958
8 1741 1627 1746 1857 1849 1730 1848 1965
8 1734 1612 1731 1850 1851 1733 1849 1966
8 1854 1741 1849 1966 1738 1622 1731 1850
8 1967 1859 1745 1853 1852 1743 1626 1737
8 1968 1860 1744 1856 1853 1745 1625 1739
8 1854 1741 1622 1738 1969 1857 1742 1855
8 1855 1742 1624 1740 1970 1858 1744 1856
8 1857 1746 1631 1742 1971 1861 1749 1858
8 1858 1749 1630 1744 1972 1863 1748 1860
8 1859 1747 1862 1973 1745 1629 1748 1860
8 1875 1768 1864 1977 1761 1651 1750 1865
8 1755 1644 1761 1869 1866 1751 1865 1978
8 1867 1760 1874 1979 1754 1646 1763 1868
8 1774 1658 1775 1887 1867 1760 1874 1979
8 1870 1766 1648 1756 1980 1877 1763 1868
8 1872 1762 1875 1981 1758 1645 1761 1869
8 1757 1649 1766 1870 1871 1765 1880 1982
8 1983 1879 1764 1873 1871 1765 1647 1759
8 1873 1764 1876 1984 1759 1647 1762 1872
8 1877 1773 1655 1763 1986 1881 1767 1874
8 1775 1659 1776 1888 1874 1767 1881 1986
8 1876 1769 1882 1987 1762 1652 1768 1875
8 1878 1770 1883 1988 1764 1653 1769 1876
8 1880 1772 1656 1766 1989 1886 1773 1877
8 1878 1770 1653 1764 1990 1884 1771 1879
8 1765 1654 1772 1880 1879 1771 1885 1991
8 1778 1664 1779 1890 1887 1775 1888 1997
8 1998 1889 1776 1888 1891 1780 1665 1779
8 1893 1782 1891 2000 1781 1668 1779 1890
8 1894 1783 1892 2001 1782 1669 1780 1891
8 1784 1671 1785 1896 1893 1782 1894 2003
8 1897 1786 1895 2004 1785 1672 1783 1894
8 1790 1675 1789 1904 1896 1785 1897 2006
8 1901 1787 1898 2007 1789 1673 1786 1897
8 1903 1788 1900 2013 1789 1673 1787 1901
8 1792 1676 1791 1906 1903 1788 1902 2016
8 1907 1792 1903 2017 1795 1678 1789 1904
8 1906 1791 1677 1794 2019 1905 1793 1909
8 1907 1792 1678 1795 2020 1906 1794 1910
8 1797 1679 1796 1912 1909 1793 1908 2022
8 1798 1680 1797 1913 1910 1794 1909 2023
8 1800 1682 1799 1915 1912 1796 1911 2025
8 1801 1683 1800 1916 1913 1797 1912 2026
8 1803 1687 1804 1918 1915 1799 1914 2028
8 1802 1686 1803 1917 1916 1800 1915 2029
8 1805 1689 1806 1920 1917 1803 1918 2030
8 1806 1690 1807 1921 1918 1804 1919 2031
8 1808 1692 1809 1922 1920 1806 1921 2032
8 1939 1826 1924 2037 1829 1713 1811 1926
8 1926 1811 1925 2039 1813 1697 1812 1928
8 1944 1829 1926 2040 1828 1712 1813 1929
8 1928 1812 1927 2042 1815 1698 1814 1931
8 1929 1813 1928 2043 1816 1699 1815 1932
8 1931 1814 1930 2044 1818 1700 1817 1933
8 1932 1815 1931 2045 1819 1701 1818 1934
8 1934 1818 1933 2046 1821 1704 1820 1935
8 2048 1936 1823 1937 1977 1864 1750 1865
8 1950 1833 1715 1834 2048 1936 1823 1937
8 1938 1824 1751 1866 2049 1937 1865 1978
8 1835 1716 1824 1938 1951 1834 1937 2049
8 1939 1826 1713 1829 2053 1942 1831 1946
8 1940 1827 1923 2035 2053 1942 1826 1939
8 1945 1830 1946 2058 1828 1712 1829 1944
8 2059 1947 1830 1945 1966 1849 1733 1851
8 1947 1832 1730 1849 2060 1948 1848 1965
8 1947 1832 1948 2060 1830 1714 1831 1946
8 1959 1847 1729 1843 2063 1949 1833 1950
8 1952 1843 1725 1836 2064 1950 1834 1951
8 1836 1725 1843 1952 1953 1842 1958 2066
8 1953 1842 1957 2067 1839 1724 1841 1955
8 1841 1955 1838 1723 1956 2068 1954 1840
8 2068 1956 1859 1967 1954 1840 1743 1852
8 1956 1844 1960 2069 1859 1747 1862 1973
8 1845 1957 1841 1727 1960 2069 1956 1844
8 1728 1842 1957 1845 1846 1958 2071 1961
8 1962 2072 1959 1847 1846 1958 1843 1729
8 1971 1861 1964 2077 1857 1746 1848 1965
8 1854 1741 1857 1969 1966 1849 1965 2078
8 1967 1859 1973 2079 1853 1745 1860 1968
8 1970 1858 1744 1856 2080 1972 1860 1968
8 1969 1857 1742 1855 2081 1971 1858 1970
8 1971 1861 1749 1858 2082 1974 1863 1972
8 1973 1862 1975 2083 1860 1748 1863 1972
8 1987 1882 1976 2086 1875 1768 1864 1977
8 1981 1875 1977 2087 1869 1761 1865 1978
8 1980 1877 1763 1868 2088 1986 1874 1979
8 1887 1775 1888 1997 1979 1874 1986 2088
8 1880 1982 2089 1989 1766 1870 1980 1877
8 1984 1876 1987 2090 1872 1762 1875 1981
8 1765 1871 1983 1879 1880 1982 2091 1991
8 1985 1878 1764 1873 2092 1990 1879 1983
8 1985 1878 1988 2093 1873 1764 1876 1984
8 2094 1992 1881 1986 1998 1889 1776 1888
8 1986 1881 1992 2094 1877 1773 1886 1989
8 1988 1883 1993 2095 1876 1769 1882 1987
8 1878 1770 1884 1990 1988 1883 1994 2096
8 1991 1885 1772 1880 2097 1996 1886 1989
8 1879 1771 1885 1991 1990 1884 1995 2098
8 2103 1998 1888 1997 2000 1891 1779 1890
8 2104 1999 1889 1998 2001 1892 1780 1891
8 2003 1894 2001 2106 1893 1782 1891 2000
8 2004 1895 2002 2107 1894 1783 1892 2001
8 2006 1897 2004 2109 1896 1785 1894 2003
8 2007 1898 2005 2110 1897 1786 1895 2004
8 2014 1901 2007 2112 1904 1789 1897 2006
8 2011 1899 2008 2113 1901 1787 1898 2007
8 2119 2010 1899 2011 2013 1900 1787 1901
8 2016 1902 2012 2122 1903 1788 1900 2013
8 2017 1903 2013 2123 1904 1789 1901 2014
8 1906 1791 1905 2019 2016 1902 2015 2125
8 1907 1792 1906 2020 2017 1903 2016 2126
8 1909 1793 1908 2022 2019 1905 2018 2128
8 2020 1906 1794 1910 2129 2019 1909 2023
8 1912 1796 1911 2025 2022 1908 2021 2131
8 1913 1797 1912 2026 2023 1909 2022 2132
8 1915 1799 1914 2028 2025 1911 2024 2134
8 1916 1800 1915 2029 2026 1912 2025 2135
8 1918 1804 1919 2031 2028 1914 2027 2136
8 1917 1803 1918 2030 2029 1915 2028 2137
8 1920 1806 1921 2032 2030 1918 2031 2138
8 1940 1827 1941 2054 2035 1923 2033 2140
8 2035 1923 2034 2143 1939 1826 1924 2037
8 2037 1924 2036 2146 1926 1811 1925 2039
8 2051 1939 2037 2147 1944 1829 1926 2040
8 2039 1925 2038 2149 1928 1812 1927 2042
8 2040 1926 2039 2150 1929 1813 1928 2043
8 2042 1927 2041 2151 1931 1814 1930 2044
8 2043 1928 2042 2152 1932 1815 1931 2045
8 2045 1931 2044 2153 1934 1818 1933 2046
8 2155 2047 1936 2048 2086 1976 1864 1977
8 2063 1949 1833 1950 2155 2047 1936 2048
8 2156 2048 1937 2049 2087 1977 1865 1978
8 2064 1950 1834 1951 2156 2048 1937 2049
8 2051 1939 1829 1944 2160 2053 1946 2058
8 2052 1940 2035 2144 2160 2053 1939 2051
8 2053 1942 1831 1946 2163 2057 1948 2060
8 2055 1943 1827 1940 2163 2057 1942 2053
8 2055 1943 2056 2164 1940 1827 1941 2054
8 2059 1947 1849 1966 2167 2060 1965 2078
8 2059 1947 2060 2167 1945 1830 1946 2058
8 2077 1964 2061 2168 1965 1848 1948 2060
8 2070 1963 1847 1959 2170 2062 1949 2063
8 2065 1959 1843 1952 2171 2063 1950 2064
8 2173 2072 1958 2066 2065 1959 1843 1952
8 1953 1842 1958 2066 2067 1957 2071 2174
8 2068 1956 2069 2175 1967 1859 1973 2079
8 2067 1957 2069 2175 1955 1841 1956 2068
8 1845 1957 2069 1960 1961 2071 2176 2073
8 2069 1960 2073 2176 1973 1862 1975 2083
8 2070 1963 2075 2177 1959 1847 1962 2072
8 1846 1958 2071 1961 1962 2072 2178 2074
8 2077 1964 1861 1971 2182 2076 1974 2082
8 2081 1971 2077 2183 1969 1857 1965 2078
8 2079 1973 2083 2184 1968 1860 1972 2080
8 2081 1971 1858 1970 2185 2082 1972 2080
8 2083 1975 2084 2186 1972 1863 1974 2082
8 2086 1976 1882 1987 2189 2085 1993 2095
8 2090 1987 2086 2190 1981 1875 1977 2087
8 2191 2094 1986 2088 2103 1998 1888 1997
8 2088 1986 2094 2191 1980 1877 1989 2089
8 1991 2091 2192 2097 1880 1982 2089 1989
8 2093 1988 2095 2193 1984 1876 1987 2090
8 1879 1983 2092 1990 1991 2091 2194 2098
8 1985 1878 1990 2092 2093 1988 2096 2195
8 2097 1996 1886 1989 2196 2099 1992 2094
8 2196 2099 1992 2094 2104 1999 1889 1998
8 1994 2096 1988 1883 2100 2197 2095 1993
8 2096 1994 1884 1990 2198 2101 1995 2098
8 1995 2098 2199 2102 1885 1991 2097 1996
8 2203 2104 1998 2103 2106 2001 1891 2000
8 2107 2002 2105 2204 2001 1892 1999 2104
8 2109 2004 2107 2206 2003 1894 2001 2106
8 2110 2005 2108 2207 2004 1895 2002 2107
8 2112 2007 2110 2209 2006 1897 2004 2109
8 2113 2008 2111 2210 2007 1898 2005 2110
8 2120 2011 2113 2212 2014 1901 2007 2112
8 2117 2009 2114 2213 2011 1899 2008 2113
8 2219 2116 2009 2117 2119 2010 1899 2011
8 2222 2118 2010 2119 2122 2012 1900 2013
8 2223 2119 2011 2120 2123 2013 1901 2014
8 2016 1902 2015 2125 2122 2012 2121 2225
8 2126 2016 2122 2226 2017 1903 2013 2123
8 2019 1905 2018 2128 2125 2015 2124 2228
8 2020 1906 2019 2129 2126 2016 2125 2229
8 2022 1908 2021 2131 2128 2018 2127 2231
8 2023 1909 2022 2132 2129 2019 2128 2232
8 2025 1911 2024 2134 2131 2021 2130 2234
8 2026 1912 2025 2135 2132 2022 2131 2235
8 1914 2028 2134 2024 2027 2136 2236 2133
8 2029 1915 2028 2137 2135 2025 2134 2237
8 2030 1918 2031 2138 2137 2028 2136 2238
8 2157 2050 2139 2240 2054 1941 2033 2140
8 2052 1940 2054 2161 2144 2035 2140 2242
8 2140 2033 2141 2243 2035 1923 2034 2143
8 2143 2034 2142 2246 2037 1924 2036 2146
8 2144 2035 2143 2247 2051 1939 2037 2147
8 2146 2036 2145 2249 2039 1925 2038 2149
8 2147 2037 2146 2250 2040 1926 2039 2150
8 2149 2038 2148 2251 2042 1927 2041 2151
8 2150 2039 2149 2252 2043 1928 2042 2152
8 2152 2042 2151 2253 2045 1931 2044 2153
8 2255 2154 2047 2155 2189 2085 1976 2086
8 2170 2062 1949 2063 2255 2154 2047 2155
8 2256 2155 2048 2156 2190 2086 1977 2087
8 2171 2063 1950 2064 2256 2155 2048 2156
8 2258 2159 2050 2157 2164 2056 1941 2054
8 2160 2053 1946 2058 2262 2163 2060 2167
8 2162 2055 1940 2052 2262 2163 2053 2160
8 2162 2055 2164 2263 2052 1940 2054 2161
8 2163 2057 1948 2060 2264 2165 2061 2168
8 2055 1943 2057 2163 2164 2056 2165 2264
8 2182 2076 2166 2268 2077 1964 2061 2168
8 2183 2077 2168 2269 2078 1965 2060 2167
8 2070 1963 2062 2170 2177 2075 2169 2271
8 2172 2070 1959 2065 2272 2170 2063 2171
8 2172 2070 2177 2273 2065 1959 2072 2173
8 2066 1958 2072 2173 2174 2071 2178 2274
8 2067 1957 2071 2174 2175 2069 2176 2275
8 2175 2069 2176 2275 2079 1973 2083 2184
8 2071 1961 2074 2178 2176 2073 2179 2276
8 2176 2073 2179 2276 2083 1975 2084 2186
8 2072 1962 2075 2177 2178 2074 2180 2277
8 2182 2076 1974 2082 2280 2181 2084 2186
8 2183 2077 1971 2081 2281 2182 2082 2185
8 2184 2083 2186 2282 2080 1972 2082 2185
8 2189 2085 1993 2095 2285 2188 2100 2197
8 2190 2086 1987 2090 2286 2189 2095 2193
8 2192 2097 1989 2089 2287 2196 2094 2191
8 2287 2196 2094 2191 2203 2104 1998 2103
8 2194 2098 1991 2091 2288 2199 2097 2192
8 2195 2096 2197 2289 2093 1988 2095 2193
8 2096 2195 2290 2198 1990 2092 2194 2098
8 2097 1996 2099 2196 2199 2102 2200 2291
8 2196 2099 1999 2104 2291 2200 2105 2204
8 2100 2197 2292 2201 1994 2096 2198 2101
8 1995 2098 2198 2101 2102 2199 2293 2202
8 2206 2107 2204 2296 2106 2001 2104 2203
8 2207 2108 2205 2297 2107 2002 2105 2204
8 2209 2110 2207 2299 2109 2004 2107 2206
8 2210 2111 2208 2300 2110 2005 2108 2207
8 2212 2113 2210 2302 2112 2007 2110 2209
8 2213 2114 2211 2303 2113 2008 2111 2210
8 2220 2117 2213 2305 2120 2011 2113 2212
8 2216 2115 2214 2306 2117 2009 2114 2213
8 2216 2115 2009 2117 2311 2217 2116 2219
8 2219 2116 2010 2119 2314 2218 2118 2222
8 2315 2219 2117 2220 2223 2119 2011 2120
8 2122 2012 2121 2225 2222 2118 2221 2317
8 2318 2222 2119 2223 2226 2122 2013 2123
8 2125 2015 2124 2228 2225 2121 2224 2320
8 2126 2016 2125 2229 2226 2122 2225 2321
8 2128 2018 2127 2231 2228 2124 2227 2323
8 2129 2019 2128 2232 2229 2125 2228 2324
8 2131 2021 2130 2234 2231 2127 2230 2326
8 2132 2022 2131 2235 2232 2128 2231 2327
8 2134 2024 2133 2236 2234 2130 2233 2328
8 2135 2025 2134 2237 2235 2131 2234 2329
8 2137 2028 2136 2238 2237 2134 2236 2330
8 2157 2050 2158 2259 2240 2139 2239 2332
8 2257 2157 2240 2334 2161 2054 2140 2242
8 2240 2139 2241 2335 2140 2033 2141 2243
8 2242 2140 2243 2337 2144 2035 2143 2247
8 2243 2141 2244 2338 2143 2034 2142 2246
8 2246 2142 2245 2341 2146 2036 2145 2249
8 2247 2143 2246 2342 2147 2037 2146 2250
8 2249 2145 2248 2343 2149 2038 2148 2251
8 2250 2146 2249 2344 2150 2039 2149 2252
8 2252 2149 2251 2345 2152 2042 2151 2253
8 2169 2271 2347 2254 2062 2170 2255 2154
8 2189 2085 2188 2285 2255 2154 2254 2347
8 2348 2255 2155 2256 2286 2189 2086 2190
8 2272 2170 2063 2171 2348 2255 2155 2256
8 2349 2258 2157 2257 2263 2164 2054 2161
8 2258 2159 2261 2351 2157 2050 2158 2259
8 2258 2159 2056 2164 2351 2261 2165 2264
8 2262 2163 2060 2167 2355 2264 2168 2269
8 2162 2055 2163 2262 2263 2164 2264 2355
8 2357 2266 2165 2264 2268 2166 2061 2168
8 2268 2166 2076 2182 2361 2267 2181 2280
8 2281 2182 2268 2362 2183 2077 2168 2269
8 2271 2169 2270 2364 2177 2075 2180 2277
8 2172 2070 2170 2272 2273 2177 2271 2365
8 2072 2173 2274 2178 2177 2273 2366 2277
8 2071 2174 2275 2176 2178 2274 2367 2276
8 2275 2176 2276 2367 2184 2083 2186 2282
8 2283 2187 2084 2186 2368 2278 2179 2276
8 2178 2074 2180 2277 2276 2179 2278 2368
8 2283 2187 2279 2370 2186 2084 2181 2280
8 2281 2182 2082 2185 2371 2280 2186 2282
8 2188 2285 2374 2284 2100 2197 2292 2201
8 2286 2189 2095 2193 2375 2285 2197 2289
8 2192 2097 2196 2287 2288 2199 2291 2376
8 2287 2196 2104 2203 2376 2291 2204 2296
8 2194 2098 2199 2288 2290 2198 2293 2377
8 2289 2197 2096 2195 2378 2292 2198 2290
8 2291 2200 2105 2204 2379 2294 2205 2297
8 2199 2102 2200 2291 2293 2202 2294 2379
8 2198 2101 2202 2293 2292 2201 2295 2380
8 2299 2207 2297 2383 2206 2107 2204 2296
8 2300 2208 2298 2384 2207 2108 2205 2297
8 2302 2210 2300 2386 2209 2110 2207 2299
8 2303 2211 2301 2387 2210 2111 2208 2300
8 2305 2213 2303 2389 2212 2113 2210 2302
8 2306 2214 2304 2390 2213 2114 2211 2303
8 2310 2216 2306 2392 2220 2117 2213 2305
8 2308 2215 2307 2393 2216 2115 2214 2306
8 2308 2215 2115 2216 2396 2309 2217 2311
8 2310 2216 2117 2220 2398 2311 2219 2315
8 2311 2217 2116 2219 2399 2312 2218 2314
8 2314 2218 2118 2222 2402 2313 2221 2317
8 2315 2219 2119 2223 2403 2314 2222 2318
8 2225 2121 2224 2320 2317 2221 2316 2405
8 2226 2122 2225 2321 2318 2222 2317 2406
8 2228 2124 2227 2323 2320 2224 2319 2408
8 2229 2125 2228 2324 2321 2225 2320 2409
8 2231 2127 2230 2326 2323 2227 2322 2411
8 2232 2128 2231 2327 2324 2228 2323 2412
8 2234 2130 2233 2328 2326 2230 2325 2413
8 2235 2131 2234 2329 2327 2231 2326 2414
8 2237 2134 2236 2330 2329 2234 2328 2415
8 2259 2158 2260 2352 2332 2239 2331 2417
8 2257 2157 2259 2350 2334 2240 2332 2419
8 2240 2139 2239 2332 2335 2241 2333 2420
8 2334 2240 2335 2422 2242 2140 2243 2337
8 2335 2241 2336 2423 2243 2141 2244 2338
8 2337 2243 2338 2425 2247 2143 2246 2342
8 2338 2244 2339 2426 2246 2142 2245 2341
8 2341 2245 2340 2428 2249 2145 2248 2343
8 2342 2246 2341 2429 2250 2146 2249 2344
8 2344 2249 2343 2430 2252 2149 2251 2345
8 2188 2285 2347 2254 2284 2374 2432 2346
8 2347 2254 2346 2432 2271 2169 2270 2364
8 2365 2271 2170 2272 2433 2347 2255 2348
8 2286 2189 2285 2375 2348 2255 2347 2433
8 2349 2258 2351 2435 2257 2157 2259 2350
8 2349 2258 2164 2263 2435 2351 2264 2355
8 2259 2158 2261 2351 2352 2260 2354 2437
8 2356 2265 2354 2437 2264 2165 2261 2351
8 2441 2357 2264 2355 2362 2268 2168 2269
8 2356 2265 2165 2264 2442 2358 2266 2357
8 2443 2359 2266 2357 2361 2267 2166 2268
8 2370 2279 2360 2446 2280 2181 2267 2361
8 2362 2268 2182 2281 2447 2361 2280 2371
8 2180 2277 2368 2278 2270 2364 2449 2363
8 2271 2365 2273 2177 2364 2450 2366 2277
8 2372 2283 2186 2282 2451 2368 2276 2367
8 2178 2274 2367 2276 2277 2366 2451 2368
8 2283 2187 2278 2368 2370 2279 2369 2452
8 2372 2283 2370 2453 2282 2186 2280 2371
8 2284 2374 2455 2373 2201 2292 2380 2295
8 2375 2285 2197 2289 2456 2374 2292 2378
8 2376 2291 2204 2296 2457 2379 2297 2383
8 2288 2199 2291 2376 2377 2293 2379 2457
8 2198 2290 2378 2292 2293 2377 2458 2380
8 2293 2202 2294 2379 2380 2295 2381 2459
8 2384 2298 2381 2459 2297 2205 2294 2379
8 2386 2300 2384 2463 2299 2207 2297 2383
8 2387 2301 2385 2464 2300 2208 2298 2384
8 2389 2303 2387 2466 2302 2210 2300 2386
8 2390 2304 2388 2467 2303 2211 2301 2387
8 2392 2306 2390 2469 2305 2213 2303 2389
8 2393 2307 2391 2470 2306 2214 2304 2390
8 2395 2308 2393 2472 2310 2216 2306 2392
8 2308 2215 2309 2396 2393 2307 2394 2473
8 2395 2308 2216 2310 2475 2396 2311 2398
8 2396 2309 2217 2311 2476 2397 2312 2399
8 2398 2311 2219 2315 2478 2399 2314 2403
8 2399 2312 2218 2314 2479 2400 2313 2402
8 2317 2221 2316 2405 2402 2313 2401 2482
8 2403 2314 2222 2318 2483 2402 2317 2406
8 2320 2224 2319 2408 2405 2316 2404 2485
8 2321 2225 2320 2409 2406 2317 2405 2486
8 2323 2227 2322 2411 2408 2319 2407 2488
8 2324 2228 2323 2412 2409 2320 2408 2489
8 2326 2230 2325 2413 2411 2322 2410 2490
8 2327 2231 2326 2414 2412 2323 2411 2491
8 2329 2234 2328 2415 2414 2326 2413 2492
8 2417 2331 2260 2352 2494 2416 2353 2438
8 2350 2259 2352 2436 2419 2332 2417 2496
8 2332 2239 2331 2417 2420 2333 2418 2497
8 2334 2240 2332 2419 2422 2335 2420 2499
8 2420 2333 2421 2500 2335 2241 2336 2423
8 2422 2335 2423 2502 2337 2243 2338 2425
8 2423 2336 2424 2503 2338 2244 2339 2426
8 2425 2338 2426 2505 2342 2246 2341 2429
8 2426 2339 2427 2506 2341 2245 2340 2428
8 2429 2341 2428 2507 2344 2249 2343 2430
8 2432 2346 2284 2374 2509 2431 2373 2455
8 2432 2346 2431 2509 2364 2270 2363 2449
8 2375 2285 2374 2456 2433 2347 2432 2510
8 2347 2433 2365 2271 2432 2510 2450 2364
8 2350 2259 2351 2435 2436 2352 2437 2514
8 2440 2356 2437 2514 2355 2264 2351 2435
8 2352 2260 2354 2437 2438 2353 2439 2516
8 2356 2265 2358 2442 2437 2354 2439 2516
8 2440 2356 2264 2355 2518 2442 2357 2441
8 2519 2443 2357 2441 2447 2361 2268 2362
8 2443 2359 2444 2520 2357 2266 2358 2442
8 2443 2359 2267 2361 2520 2444 2360 2446
8 2446 2360 2279 2370 2523 2445 2369 2452
8 2453 2370 2446 2524 2371 2280 2361 2447
8 2449 2363 2448 2525 2368 2278 2369 2452
8 2366 2277 2364 2450 2451 2368 2449 2526
8 2372 2283 2368 2451 2453 2370 2452 2527
8 2455 2373 2295 2380 2529 2454 2382 2460
8 2456 2374 2292 2378 2530 2455 2380 2458
8 2377 2293 2379 2457 2458 2380 2459 2531
8 2463 2384 2459 2531 2383 2297 2379 2457
8 2533 2461 2382 2460 2459 2381 2295 2380
8 2464 2385 2461 2533 2384 2298 2381 2459
8 2466 2387 2464 2537 2386 2300 2384 2463
8 2467 2388 2465 2538 2387 2301 2385 2464
8 2469 2390 2467 2540 2389 2303 2387 2466
8 2470 2391 2468 2541 2390 2304 2388 2467
8 2472 2393 2470 2543 2392 2306 2390 2469
8 2393 2307 2394 2473 2470 2391 2471 2544
8 2395 2308 2396 2475 2472 2393 2473 2546
8 2396 2309 2397 2476 2473 2394 2474 2547
8 2475 2396 2311 2398 2549 2476 2399 2478
8 2476 2397 2312 2399 2550 2477 2400 2479
8 2478 2399 2314 2403 2552 2479 2402 2483
8 2479 2400 2313 2402 2553 2480 2401 2482
8 2405 2316 2404 2485 2482 2401 2481 2556
8 2406 2317 2405 2486 2483 2402 2482 2557
8 2408 2319 2407 2488 2485 2404 2484 2559
8 2409 2320 2408 2489 2486 2405 2485 2560
8 2411 2322 2410 2490 2488 2407 2487 2561
8 2412 2323 2411 2491 2489 2408 2488 2562
8 2414 2326 2413 2492 2491 2411 2490 2563
8 2513 2434 2493 2565 2438 2353 2416 2494
8 2496 2417 2352 2436 2567 2494 2438 2515
8 2494 2416 2495 2568 2417 2331 2418 2497
8 2419 2332 2417 2496 2499 2420 2497 2570
8 2497 2418 2498 2571 2420 2333 2421 2500
8 2499 2420 2500 2573 2422 2335 2423 2502
8 2500 2421 2501 2574 2423 2336 2424 2503
8 2502 2423 2503 2576 2425 2338 2426 2505
8 2503 2424 2504 2577 2426 2339 2427 2506
8 2505 2426 2506 2578 2429 2341 2428 2507
8 2509 2431 2373 2455 2580 2508 2454 2529
8 2509 2431 2508 2580 2449 2363 2448 2525
8 2432 2510 2581 2509 2374 2456 2530 2455
8 2432 2510 2450 2364 2509 2581 2526 2449
8 2583 2511 2434 2513 2516 2439 2353 2438
8 2436 2352 2437 2514 2515 2438 2516 2588
8 2440 2356 2442 2518 2514 2437 2516 2588
8 2442 2358 2444 2520 2516 2439 2517 2589
8 2519 2443 2520 2591 2441 2357 2442 2518
8 2519 2443 2361 2447 2591 2520 2446 2524
8 2446 2360 2445 2523 2520 2444 2521 2592
8 2525 2448 2522 2593 2452 2369 2445 2523
8 2524 2446 2370 2453 2594 2523 2452 2527
8 2526 2449 2525 2595 2451 2368 2452 2527
8 2534 2462 2528 2597 2460 2382 2454 2529
8 2530 2455 2380 2458 2598 2529 2460 2532
8 2599 2533 2460 2532 2531 2459 2380 2458
8 2537 2464 2533 2599 2463 2384 2459 2531
8 2534 2462 2382 2460 2601 2535 2461 2533
8 2538 2465 2535 2601 2464 2385 2461 2533
8 2540 2467 2538 2604 2466 2387 2464 2537
8 2541 2468 2539 2605 2467 2388 2465 2538
8 2543 2470 2541 2607 2469 2390 2467 2540
8 2470 2391 2471 2544 2541 2468 2542 2608
8 2472 2393 2473 2546 2543 2470 2544 2610
8 2473 2394 2474 2547 2544 2471 2545 2611
8 2475 2396 2476 2549 2546 2473 2547 2613
8 2476 2397 2477 2550 2547 2474 2548 2614
8 2549 2476 2399 2478 2616 2550 2479 2552
8 2479 2400 2480 2553 2550 2477 2551 2617
8 2552 2479 2402 2483 2619 2553 2482 2557
8 2482 2401 2481 2556 2553 2480 2554 2620
8 2485 2404 2484 2559 2556 2481 2555 2623
8 2486 2405 2485 2560 2557 2482 2556 2624
8 2488 2407 2487 2561 2559 2484 2558 2625
8 2489 2408 2488 2562 2560 2485 2559 2626
8 2491 2411 2490 2563 2562 2488 2561 2627
8 2513 2434 2512 2585 2565 2493 2564 2630
8 2586 2513 2565 2632 2515 2438 2494 2567
8 2565 2493 2566 2633 2494 2416 2495 2568
8 2567 2494 2568 2635 2496 2417 2497 2570
8 2568 2495 2569 2636 2497 2418 2498 2571
8 2570 2497 2571 2638 2499 2420 2500 2573
8 2571 2498 2572 2639 2500 2421 2501 2574
8 2573 2500 2574 2641 2502 2423 2503 2576
8 2574 2501 2575 2642 2503 2424 2504 2577
8 2576 2503 2577 2643 2505 2426 2506 2578
8 2597 2528 2579 2645 2529 2454 2508 2580
8 2580 2508 2579 2645 2525 2448 2522 2593
8 2581 2509 2455 2530 2646 2580 2529 2598
8 2581 2509 2580 2646 2526 2449 2525 2595
8 2583 2511 2582 2648 2513 2434 2512 2585
8 2583 2511 2439 2516 2648 2582 2517 2589
8 2649 2583 2513 2586 2588 2516 2438 2515
8 2589 2517 2444 2520 2653 2587 2521 2592
8 2518 2442 2520 2591 2588 2516 2589 2654
8 2593 2522 2590 2655 2523 2445 2521 2592
8 2524 2446 2523 2594 2591 2520 2592 2656
8 2595 2525 2593 2657 2527 2452 2523 2594
8 2602 2536 2596 2659 2534 2462 2528 2597
8 2600 2534 2597 2660 2532 2460 2529 2598
8 2600 2534 2460 2532 2661 2601 2533 2599
8 2604 2538 2601 2661 2537 2464 2533 2599
8 2602 2536 2462 2534 2663 2603 2535 2601
8 2601 2535 2465 2538 2663 2603 2539 2605
8 2607 2541 2605 2665 2540 2467 2538 2604
8 2608 2542 2606 2666 2541 2468 2539 2605
8 2543 2470 2544 2610 2607 2541 2608 2668
8 2544 2471 2545 2611 2608 2542 2609 2669
8 2546 2473 2547 2613 2610 2544 2611 2671
8 2547 2474 2548 2614 2611 2545 2612 2672
8 2549 2476 2550 2616 2613 2547 2614 2674
8 2550 2477 2551 2617 2614 2548 2615 2675
8 2552 2479 2553 2619 2616 2550 2617 2677
8 2553 2480 2554 2620 2617 2551 2618 2678
8 2557 2482 2556 2624 2619 2553 2620 2680
8 2556 2481 2555 2623 2620 2554 2621 2681
8 2559 2484 2558 2625 2623 2555 2622 2683
8 2560 2485 2559 2626 2624 2556 2623 2684
8 2562 2488 2561 2627 2626 2559 2625 2685
8 2690 2629 2564 2630 2650 2584 2512 2585
8 2586 2513 2585 2651 2632 2565 2630 2691
8 2630 2564 2631 2692 2565 2493 2566 2633
8 2632 2565 2633 2694 2567 2494 2568 2635
8 2633 2566 2634 2695 2568 2495 2569 2636
8 2635 2568 2636 2697 2570 2497 2571 2638
8 2636 2569 2637 2698 2571 2498 2572 2639
8 2638 2571 2639 2700 2573 2500 2574 2641
8 2639 2572 2640 2701 2574 2501 2575 2642
8 2641 2574 2642 2702 2576 2503 2577 2643
8 2597 2528 2596 2659 2645 2579 2644 2704
8 2645 2579 2644 2704 2593 2522 2590 2655
8 2660 2597 2645 2705 2598 2529 2580 2646
8 2646 2580 2645 2705 2595 2525 2593 2657
8 2650 2584 2512 2585 2707 2647 2582 2648
8 2648 2582 2517 2589 2707 2647 2587 2653
8 2649 2583 2648 2708 2586 2513 2585 2651
8 2649 2583 2516 2588 2708 2648 2589 2654
8 2655 2590 2652 2710 2592 2521 2587 2653
8 2654 2589 2520 2591 2711 2653 2592 2656
8 2657 2593 2655 2712 2594 2523 2592 2656
8 2602 2536 2603 2663 2659 2596 2658 2714
8 2662 2602 2659 2715 2600 2534 2597 2660
8 2662 2602 2534 2600 2717 2663 2601 2661
8 2661 2601 2538 2604 2717 2663 2605 2665
8 2666 2606 2664 2718 2605 2539 2603 2663
8 2668 2608 2666 2720 2607 2541 2605 2665
8 2608 2542 2609 2669 2666 2606 2667 2721
8 2610 2544 2611 2671 2668 2608 2669 2723
8 2611 2545 2612 2672 2669 2609 2670 2724
8 2613 2547 2614 2674 2671 2611 2672 2726
8 2614 2548 2615 2675 2672 2612 2673 2727
8 2616 2550 2617 2677 2674 2614 2675 2729
8 2617 2551 2618 2678 2675 2615 2676 2730
8 2619 2553 2620 2680 2677 2617 2678 2732
8 2620 2554 2621 2681 2678 2618 2679 2733
8 2624 2556 2623 2684 2680 2620 2681 2735
8 2681 2621 2555 2623 2736 2682 2622 2683
8 2626 2559 2625 2685 2684 2623 2683 2737
8 2688 2628 2584 2650 2740 2686 2647 2707
8 2688 2628 2687 2742 2650 2584 2629 2690
8 2690 2629 2689 2745 2630 2564 2631 2692
8 2746 2690 2630 2691 2709 2650 2585 2651
8 2691 2630 2692 2747 2632 2565 2633 2694
8 2692 2631 2693 2748 2633 2566 2634 2695
8 2694 2633 2695 2750 2635 2568 2636 2697
8 2695 2634 2696 2751 2636 2569 2637 2698
8 2697 2636 2698 2753 2638 2571 2639 2700
8 2698 2637 2699 2754 2639 2572 2640 2701
8 2700 2639 2701 2755 2641 2574 2642 2702
8 2659 2596 2658 2714 2704 2644 2703 2757
8 2704 2644 2703 2757 2655 2590 2652 2710
8 2660 2597 2659 2715 2705 2645 2704 2758
8 2705 2645 2704 2758 2657 2593 2655 2712
8 2759 2706 2647 2707 2710 2652 2587 2653
8 2709 2650 2585 2651 2760 2707 2648 2708
8 2708 2648 2589 2654 2760 2707 2653 2711
8 2712 2655 2710 2761 2656 2592 2653 2711
8 2763 2713 2658 2714 2718 2664 2603 2663
8 2662 2602 2663 2717 2715 2659 2714 2764
8 2720 2666 2718 2767 2665 2605 2663 2717
8 2768 2719 2664 2718 2721 2667 2606 2666
8 2668 2608 2669 2723 2720 2666 2721 2770
8 2669 2609 2670 2724 2721 2667 2722 2771
8 2671 2611 2672 2726 2723 2669 2724 2773
8 2672 2612 2673 2727 2724 2670 2725 2774
8 2674 2614 2675 2729 2726 2672 2727 2776
8 2675 2615 2676 2730 2727 2673 2728 2777
8 2677 2617 2678 2732 2729 2675 2730 2779
8 2678 2618 2679 2733 2730 2676 2731 2780
8 2680 2620 2681 2735 2732 2678 2733 2782
8 2733 2679 2621 2681 2783 2734 2682 2736
8 2735 2681 2623 2684 2784 2736 2683 2737
8 2740 2686 2647 2707 2787 2738 2706 2759
8 2688 2628 2686 2740 2742 2687 2739 2789
8 2743 2688 2650 2709 2790 2740 2707 2760
8 2742 2687 2741 2792 2690 2629 2689 2745
8 2743 2688 2742 2793 2709 2650 2690 2746
8 2745 2689 2744 2795 2692 2631 2693 2748
8 2746 2690 2745 2796 2691 2630 2692 2747
8 2747 2692 2748 2797 2694 2633 2695 2750
8 2748 2693 2749 2798 2695 2634 2696 2751
8 2750 2695 2751 2800 2697 2636 2698 2753
8 2751 2696 2752 2801 2698 2637 2699 2754
8 2753 2698 2754 2802 2700 2639 2701 2755
8 2763 2713 2756 2804 2714 2658 2703 2757
8 2759 2706 2652 2710 2804 2756 2703 2757
8 2715 2659 2714 2764 2758 2704 2757 2805
8 2758 2704 2757 2805 2712 2655 2710 2761
8 2806 2759 2707 2760 2761 2710 2653 2711
8 2765 2716 2762 2808 2718 2664 2713 2763
8 2809 2763 2714 2764 2767 2718 2663 2717
8 2765 2716 2664 2718 2811 2766 2719 2768
8 2813 2768 2718 2767 2770 2721 2666 2720
8 2814 2769 2719 2768 2771 2722 2667 2721
8 2723 2669 2724 2773 2770 2721 2771 2816
8 2724 2670 2725 2774 2771 2722 2772 2817
8 2726 2672 2727 2776 2773 2724 2774 2819
8 2727 2673 2728 2777 2774 2725 2775 2820
8 2729 2675 2730 2779 2776 2727 2777 2822
8 2730 2676 2731 2780 2777 2728 2778 2823
8 2732 2678 2733 2782 2779 2730 2780 2825
8 2780 2731 2679 2733 2826 2781 2734 2783
8 2782 2733 2681 2735 2827 2783 2736 2784
8 2830 2785 2738 2787 2804 2756 2706 2759
8 2789 2739 2686 2740 2832 2786 2738 2787
8 2790 2740 2707 2760 2833 2787 2759 2806
8 2742 2687 2739 2789 2792 2741 2788 2835
8 2743 2688 2740 2790 2793 2742 2789 2836
8 2792 2741 2791 2838 2745 2689 2744 2795
8 2793 2742 2792 2839 2746 2690 2745 2796
8 2795 2744 2794 2841 2748 2693 2749 2798
8 2796 2745 2795 2842 2747 2692 2748 2797
8 2797 2748 2798 2843 2750 2695 2751 2800
8 2798 2749 2799 2844 2751 2696 2752 2801
8 2800 2751 2801 2845 2753 2698 2754 2802
8 2808 2762 2803 2847 2763 2713 2756 2804
8 2809 2763 2804 2848 2764 2714 2757 2805
8 2806 2759 2710 2761 2848 2804 2757 2805
8 2765 2716 2766 2811 2808 2762 2807 2850
8 2810 2765 2808 2851 2767 2718 2763 2809
8 2810 2765 2718 2767 2852 2811 2768 2813
8 2811 2766 2719 2768 2853 2812 2769 2814
8 2855 2814 2768 2813 2816 2771 2721 2770
8 2856 2815 2769 2814 2817 2772 2722 2771
8 2773 2724 2774 2819 2816 2771 2817 2858
8 2774 2725 2775 2820 2817 2772 2818 2859
8 2776 2727 2777 2822 2819 2774 2820 2861
8 2777 2728 2778 2823 2820 2775 2821 2862
8 2779 2730 2780 2825 2822 2777 2823 2864
8 2823 2778 2731 2780 2865 2824 2781 2826
8 2825 2780 2733 2782 2866 2826 2783 2827
8 2869 2828 2785 2830 2847 2803 2756 2804
8 2871 2829 2786 2832 2830 2785 2738 2787
8 2872 2830 2787 2833 2848 2804 2759 2806
8 2789 2739 2786 2832 2835 2788 2831 2874
8 2836 2789 2740 2790 2875 2832 2787 2833
8 2792 2741 2788 2835 2838 2791 2834 2877
8 2793 2742 2789 2836 2839 2792 2835 2878
8 2838 2791 2837 2880 2795 2744 2794 2841
8 2839 2792 2838 2881 2796 2745 2795 2842
8 2841 2794 2840 2882 2798 2749 2799 2844
8 2842 2795 2841 2883 2797 2748 2798 2843
8 2843 2798 2844 2884 2800 2751 2801 2845
8 2886 2846 2803 2847 2850 2807 2762 2808
8 2851 2808 2847 2887 2809 2763 2804 2848
8 2850 2807 2766 2811 2889 2849 2812 2853
8 2810 2765 2811 2852 2851 2808 2850 2890
8 2852 2811 2768 2813 2891 2853 2814 2855
8 2853 2812 2769 2814 2892 2854 2815 2856
8 2894 2856 2814 2855 2858 2817 2771 2816
8 2817 2772 2818 2859 2856 2815 2857 2895
8 2819 2774 2820 2861 2858 2817 2859 2897
8 2820 2775 2821 2862 2859 2818 2860 2898
8 2822 2777 2823 2864 2861 2820 2862 2900
8 2823 2778 2824 2865 2862 2821 2863 2901
8 2864 2823 2780 2825 2902 2865 2826 2866
8 2904 2867 2828 2869 2886 2846 2803 2847
8 2869 2828 2868 2906 2830 2785 2829 2871
8 2907 2869 2830 2872 2887 2847 2804 2848
8 2871 2829 2870 2909 2832 2786 2831 2874
8 2910 2871 2832 2875 2872 2830 2787 2833
8 2835 2788 2831 2874 2877 2834 2873 2912
8 2836 2789 2832 2875 2878 2835 2874 2913
8 2877 2834 2876 2915 2838 2791 2837 2880
8 2839 2792 2835 2878 2881 2838 2877 2916
8 2880 2837 2879 2917 2841 2794 2840 2882
8 2881 2838 2880 2918 2842 2795 2841 2883
8 2883 2841 2882 2919 2843 2798 2844 2884
8 2921 2885 2846 2886 2889 2849 2807 2850
8 2922 2886 2847 2887 2890 2850 2808 2851
8 2889 2849 2812 2853 2924 2888 2854 2892
8 2890 2850 2811 2852 2925 2889 2853 2891
8 2891 2853 2814 2855 2926 2892 2856 2894
8 2892 2854 2815 2856 2927 2893 2857 2895
8 2858 2817 2859 2897 2894 2856 2895 2929
8 2859 2818 2860 2898 2895 2857 2896 2930
8 2861 2820 2862 2900 2897 2859 2898 2932
8 2862 2821 2863 2901 2898 2860 2899 2933
8 2864 2823 2865 2902 2900 2862 2901 2934
8 2904 2867 2846 2886 2936 2903 2885 2921
8 2904 2867 2903 2936 2869 2828 2868 2906
8 2937 2904 2869 2907 2922 2886 2847 2887
8 2906 2868 2905 2939 2871 2829 2870 2909
8 2907 2869 2906 2940 2872 2830 2871 2910
8 2909 2870 2908 2942 2874 2831 2873 2912
8 2910 2871 2909 2943 2875 2832 2874 2913
8 2912 2873 2911 2945 2877 2834 2876 2915
8 2878 2835 2874 2913 2916 2877 2912 2946
8 2915 2876 2914 2947 2880 2837 2879 2917
8 2916 2877 2915 2948 2881 2838 2880 2918
8 2918 2880 2917 2949 2883 2841 2882 2919
8 2921 2885 2849 2889 2951 2920 2888 2924
8 2952 2921 2886 2922 2925 2889 2850 2890
8 2924 2888 2854 2892 2954 2923 2893 2927
8 2925 2889 2853 2891 2955 2924 2892 2926
8 2926 2892 2856 2894 2956 2927 2895 2929
8 2895 2857 2896 2930 2927 2893 2928 2957
8 2897 2859 2898 2932 2929 2895 2930 2959
8 2898 2860 2899 2933 2930 2896 2931 2960
8 2900 2862 2901 2934 2932 2898 2933 2961
8 2936 2903 2885 2921 2963 2935 2920 2951
8 2936 2903 2935 2963 2906 2868 2905 2939
8 2937 2904 2886 2922 2964 2936 2921 2952
8 2937 2904 2936 2964 2907 2869 2906 2940
8 2939 2905 2938 2966 2909 2870 2908 2942
8 2940 2906 2939 2967 2910 2871 2909 2943
8 2942 2908 2941 2969 2912 2873 2911 2945
8 2943 2909 2942 2970 2913 2874 2912 2946
8 2945 2911 2944 2971 2915 2876 2914 2947
8 2946 2912 2945 2972 2916 2877 2915 2948
8 2948 2915 2947 2973 2918 2880 2917 2949
8 2951 2920 2888 2924 2975 2950 2923 2954
8 2952 2921 2889 2925 2976 2951 2924 2955
8 2927 2893 2928 2957 2954 2923 2953 2978
8 2955 2924 2892 2926 2979 2954 2927 2956
8 2929 2895 2930 2959 2956 2927 2957 2980
8 2930 2896 2931 2960 2957 2928 2958 2981
8 2932 2898 2933 2961 2959 2930 2960 2982
8 2951 2920 2950 2975 2963 2935 2962 2984
8 2963 2935 2962 2984 2939 2905 2938 2966
8 2964 2936 2921 2952 2985 2963 2951 2976
8 2964 2936 2963 2985 2940 2906 2939 2967
8 2966 2938 2965 2987 2942 2908 2941 2969
8 2967 2939 2966 2988 2943 2909 2942 2970
8 2969 2941 2968 2989 2945 2911 2944 2971
8 2970 2942 2969 2990 2946 2912 2945 2972
8 2972 2945 2971 2991 2948 2915 2947 2973
8 2954 2923 2953 2978 2975 2950 2974 2993
8 2976 2951 2924 2955 2994 2975 2954 2979
8 2957 2928 2958 2981 2978 2953 2977 2995
8 2956 2927 2957 2980 2979 2954 2978 2996
8 2959 2930 2960 2982 2980 2957 2981 2997
8 2984 2962 2983 2999 2966 2938 2965 2987
8 2975 2950 2974 2993 2984 2962 2983 2999
8 2976 2951 2975 2994 2985 2963 2984 3000
8 2985 2963 2984 3000 2967 2939 2966 2988
8 2987 2965 2986 3001 2969 2941 2968 2989
8 2988 2966 2987 3002 2970 2942 2969 2990
8 2990 2969 2989 3003 2972 2945 2971 2991
8 2978 2953 2977 2995 2993 2974 2992 3004
8 2979 2954 2978 2996 2994 2975 2993 3005
8 2980 2957 2981 2997 2996 2978 2995 3006
8 2974 2993 2999 2983 2992 3004 3007 2998
8 2983 2999 2987 2965 2998 3007 3001 2986
8 3000 2984 2999 3008 2988 2966 2987 3002
8 2994 2975 2993 3005 3000 2984 2999 3008
8 3002 2987 3001 3009 2990 2969 2989 3003
8 2996 2978 2995 3006 3005 2993 3004 3010
8 3005 2993 3004 3010 3008 2999 3007 3011
8 3008 2999 3007 3011 3002 2987 3001 3009

CELL_TYPES 1910
12
12
12
12
12
12
12
12
12
12
12
12
12
12
12
12
12
12
12
12
12
12
12
12
12
12
12
12
12
12
12
12
12
12
12
12
12
12
12
12
12
12
12
12
12
12
12
12
12
12
12
12
12
12
12
12
12
12
12
12
12
12
12
12
12
12
12
12
12
12
12
12
12
12
12
12
12
12
12
12
12
12
12
12
12
12
12
12
12
12
12
12
12
12
12
12
12
12
12
12
12
12
12
12
12
12
12
12
12
12
12
12
12
12
12
12
12
12
12
12
12
12
12
12
12
12
12
12
12
12
12
12
12
12
12
12
12
12
12
12
12
12
12
12
12
12
12
12
12
12
12
12
12
12
12
12
12
12
12
12
12
12
12
12
12
12
12
12
12
12
12
12
12
12
12
12
12
12
12
12
12
12
12
12
12
12
12
12
12
12
12
12
12
12
12
12
12
12
12
12
12
12
12
12
12
12
12
12
12
12
12
12
12
12
12
12
12
12
12
12
12
12
12
12
12
12
12
12
12
12
12
12
12
12
12
12
12
12
12
12
12
12
12
12
12
12
12
12
12
12
12
12
12
12
12
12
12
12
12
12
12
12
12
12
12
12
12
12
12
12
12
12
12
12
12
12
12
12
12
12
12
12
12
12
12
12
12
12
12
12
12
12
12
12
12
12
12
12
12
12
12
12
12
12
12
12
12
12
12
12
12
12
12
12
12
12
12
12
12
12
12
12
12
12
12
12
12
12
12
12
12
12
12
12
12
12
12
12
12
12
12
12
12
12
12
12
12
12
12
12
12
12
12
12
12
12
12
12
12
12
12
12
12
12
12
12
12
12
12
12
12
12
12
12
12
12
12
12
12
12
12
12
12
12
12
12
12
12
12
12
12
12
12
12
12
12
12
12
12
12
12
12
12
12
12
12
12
12
12
12
12
12
12
12
12
12
12
12
12
12
12
12
12
12
12
12
12
12
12
12
12
12
12
12
12
12
12
12
12
12
12
12
12
12
12
12
12
12
12
12
12
12
12
12
12
12
12
12
12
12
12
12
12
12
12
12
12
12
12
12
12
12
12
12
12
12
12
12
12
12
12
12
12
12
12
12
12
12
12
12
12
12
12
12
12
12
12
12
12
12
12
12
12
12
12
12
12
12
12
12
12
12
12
12
12
12
12
12
12
12
12
12
12
12
12
12
12
12
12
12
12
12
12
12
12
12
12
12
12
12
12
12
12
12
12
12
12
12
12
12
12
12
12
12
12
12
12
12
12
12
12
12
12
12
12
12
12
12
12
12
12
12
12
12
12
12
12
12
12
12
12
12
12
12
12
12
12
12
12
12
12
12
12
12
12
12
12
12
12
12
12
12
12
12
12
12
12
12
12
12
12
12
12
12
12
12
12
12
12
12
12
12
12
12
12
12
12
12
12
12
12
12
12
12
12
12
12
12
12
12
12
12
12
12
12
12
12
12
12
12
12
12
12
12
12
12
12
12
12
12
12
12
12
12
12
12
12
12
12
12
12
12
12
12
12
12
12
12
12
12
12
12
12
12
12
12
12
12
12
12
12
12
12
12
12
12
12
12
12
12
12
12
12
12
12
12
12
12
12
12
12
12
12
12
12
12
12
12
12
12
12
12
12
12
12
12
12
12
12
12
12
12
12
12
12
12
12
12
12
12
12
12
12
12
12
12
12
12
12
12
12
12
12
12
12
12
12
12
12
12
12
12
12
12
12
12
12
12
12
12
12
12
12
12
12
12
12
12
12
12
12
12
12
12
12
12
12
12
12
12
12
12
12
12
12
12
12
12
12
12
12
12
12
12
12
12
12
12
12
12
12
12
12
12
12
12
12
12
12
12
12
12
12
12
12
12
12
12
12
12
12
12
12
12
12
12
12
12
12
12
12
12
12
12
12
12
12
12
12
12
12
12
12
12
12
12
12
12
12
12
12
12
12
12
12
12
12
12
12
12
12
12
12
12
12
12
12
12
12
12
12
12
12
12
12
12
12
12
12
12
12
12
12
12
12
12
12
12
12
12
12
12
12
12
12
12
12
12
12
12
12
12
12
12
12
12
12
12
12
12
12
12
12
12
12
12
12
12
12
12
12
12
12
12
12
12
12
12
12
12
12
12
12
12
12
12
12
12
12
12
12
12
12
12
12
12
12
12
12
12
12
12
12
12
12
12
12
12
12
12
12
12
12
12
12
12
12
12
12
12
12
12
12
12
12
12
12
12
12
12
12
12
12
12
12
12
12
12
12
12
12
12
12
12
12
12
12
12
12
12
12
12
12
12
12
12
12
12
12
12
12
12
12
12
12
12
12
12
12
12
12
12
12
12
12
12
12
12
12
12
12
12
12
12
12
12
12
12
12
12
12
12
12
12
12
12
12
12
12
12
12
12
12
12
12
12
12
12
12
12
12
12
12
12
12
12
12
12
12
12
12
12
12
12
12
12
12
12
12
12
12
12
12
12
12
12
12
12
12
12
12
12
12
12
12
12
12
12
12
12
12
12
12
12
12
12
12
12
12
12
12
12
12
12
12
12
12
12
12
12
12
12
12
12
12
12
12
12
12
12
12
12
12
12
12
12
12
12
12
12
12
12
12
12
12
12
12
12
12
12
12
12
12
12
12
12
12
12
12
12
12
12
12
12
12
12
12
12
12
12
12
12
12
12
12
12
12
12
12
12
12
12
12
12
12
12
12
12
12
12
12
12
12
12
12
12
12
12
12
12
12
12
12
12
12
12
12
12
12
12
12
12
12
12
12
12
12
12
12
12
12
12
12
12
12
12
12
12
12
12
12
12
12
12
12
12
12
12
12
12
12
12
12
12
12
12
12
12
12
12
12
12
12
12
12
12
12
12
12
12
12
12
12
12
12
12
12
12
12
12
12
12
12
12
12
12
12
12
12
12
12
12
12
12
12
12
12
12
12
12
12
12
12
12
12
12
12
12
12
12
12
12
12
12
12
12
12
12
12
12
12
12
12
12
12
12
12
12
12
12
12
12
12
12
12
12
12
12
12
12
12
12
12
12
12
12
12
12
12
12
12
12
12
12
12
12
12
12
12
12
12
12
12
12
12
12
12
12
12
12
12
12
12
12
12
12
12
12
12
12
12
12
12
12
12
12
12
12
12
12
12
12
12
12
12
12
12
12
12
12
12
12
12
12
12
12
12
12
12
12
12
12
12
12
12
12
12
12
12
12
12
12
12
12
12
12
12
12
12
12
12
12
12
12
12
12
12
12
12
12
12
12
12
12
12
12
12
12
12
12
12
12
12
12
12
12
12
12
12
12
12
12
12
12
12
12
12
12
12
12
12
12
12
12
12
12
12
12
12
12
12
12
12
12
12
12
12
12
12
12
12
12
12
12
12
12
12
12
12
12
12
12
12
12
12
12
12
12
12
12
12
12
12
12
12
12
12
12
12
12
12
12
12
12
12
12
12
12
12
12
12
12
12
12
12
12
12
12
12
12
12
12
12
12
12
12
12
12
12
12
12
12
12
12
12
12
12
12
12
12
12
12
12
12
12
12
12
12
12
12
12
12
12
12
12
12
12
12
12
12
12
12
12
12
12
12
12
12
12
12
12
12
12
12
12
12
12
12
12
12
12
12
12
12
12
12
12
12
12
12
12
12
12
12
12
12
12
12
12
12
12
12
12
12
12
12
12
12
12
12
12
12
12
12
12
12
12
12
12
12
12
12
12
12
12
12
12
12
12
12
12
12
12
12
12
12
12
12
12
12
12
12
12
12
12
12
12
12
12
12
12
12
12
12
12
12
12
12
12
12
12
12
12
12
12
12
12
12
12
12
12
12
12
12
12
12
12
12
12
12
12
12
12
12
12
12
12
12
12
12
12
12
12
12
12
12
12
12
12
12
12
12
12
12
12
12
12
12
12
12
12
12
12
12
12
12
12
12
12
12
12
12
12
12
12
12
12
12
12
12
12
12
12
12
12
12
12
12
12
12
12
12
12
12
12
12
12
12
12
12
12
12
12
12
12
12
12
12
12
12
12
12
12
12
12
12
12
12
12
12
12
12
12
12
12
12
12
12
12
12
12
12
12
12
12
12
12
12
12
12
12
12
12
12
12
12
12
12
12
12
12
12
12
12
12
12
12
12
12
12
12
12
12
12
12
12
12
12
12
12
12
12
12
12
12
12
12
12
12
12
12
12
12
12
12
12
12
12
12
12
12
12
12
12
12
12
12
12
12
12
12
12
12
12
12
12
12
12
12
12
12
12
12
12
12
12
12
12
12
12
12
12
12
12
12
12
12
12
12
12
12
12
12
12
12
12
12
12
12
12

POINT_DATA 3012
SCALARS Jp_lamdaP float 4
LOOKUP_TABLE default
1 1 1 1
1 1 1 1
1 1 1 1
1 1 1 1
1 1 1 1
1 1 1 1
0.999974 1 1 0.999974
1 1 1 1
1 1 1 1
1 1 1 1
1 1 1 1
1 1 1 1
1 1 1 1
1 1 1 1
1 1 1 1
1 1 1 1
1 1 1 1
1 1 1 1
0.999974 1 1 0.999974
1 1 1 1
1 1 1 1
1 1 1 1
0.999946 1 1 0.999946
0.999966 1 1 0.999966
1 1 1 1
0.999981 1 1 0.999981
0.999906 1 1 0.999906
1 1 1 1
1 1 1 1
1 1 1 1
1 1 1 1
1 1 1 1
1 1 1 1
1 1 1 1
0.999986 1 1 0.999986
1 1 1 1
0.999998 1 1 0.999998
1 1 1 1
0.999925 1 1 0.999925
1 1 1 1
1 1 1 1
1 1 1 1
1 1 1 1
1 1 1 1
0.999961 1 1 0.999961
1 1 1 1
0.999972 1 1 0.999972
1 1 1 1
1 1 1 1
1 1 1 1
0.999975 1 1 0.999975
1 1 1 1
1 1 1 1
1 1 1 1
1 1 1 1
0.999947 1 1 0.999947
0.999982 1 1 0.999982
0.999967 1 1 0.999967
0.999903 1 1 0.999903
1 1 1 1
1 1 1 1
0.999964 1 1 0.999964
0.999939 1 1 0.999939
0.999957 1 1 0.999957
0.999839 1 1 0.999839
0.999877 1 1 0.999877
1 1 1 1
0.999987 1 1 0.999987
0.999924 1 1 0.999924
0.999795 1 1 0.999795
1 1 1 1
1 1 1 1
1 1 1 1
1 1 1 1
1 1 1 1
1 1 1 1
0.999988 1 1 0.999988
1 1 1 1
0.999998 1 1 0.999998
1 1 1 1
0.999925 1 1 0.999925
1 1 1 1
1 1 1 1
0.99998 1 1 0.99998
0.999993 1 1 0.999993
0.999868 1 1 0.999868
1 1 1 1
0.999914 1 1 0.999914
0.999936 1 1 0.999936
0.999839 1 1 0.999839
1 1 1 1
1 1 1 1
1 1 1 1
1 1 1 1
1 1 1 1
1 1 1 1
0.999963 1 1 0.999963
1 1 1 1
0.999973 1 1 0.999973
1 1 1 1
0.999957 1 1 0.999957
0.999967 1 1 0.999967
0.999786 1 1 0.999786
0.999976 1 1 0.999976
0.999811 1 1 0.999811
1 1 1 1
1 1 1 1
1 1 1 1
1 1 1 1
0.999948 1 1 0.999948
0.999967 1 1 0.999967
0.999983 1 1 0.999983
0.999901 1 1 0.999901
1 1 1 1
1 1 1 1
0.999949 1 1 0.999949
0.999939 1 1 0.999939
1 1 1 1
0.999994 1 1 0.999994
0.999958 1 1 0.999958
0.999832 1 1 0.999832
0.999922 1 1 0.999922
0.999882 1 1 0.999882
0.999795 1 1 0.999795
0.999961 1 1 0.999961
0.999938 1 1 0.999938
0.999799 1 1 0.999799
0.999812 1 1 0.999812
0.999853 1 1 0.999853
0.999735 1 1 0.999735
1 1 1 1
0.999783 1 1 0.999783
1 1 1 1
0.999929 1 1 0.999929
0.999808 1 1 0.999808
0.999752 1 1 0.999752
1 1 1 1
0.999949 1 1 0.999949
1 1 1 1
1 1 1 1
0.99999 1 1 0.99999
1 1 1 1
1 1 1 1
0.999999 1 1 0.999999
0.999925 1 1 0.999925
1 1 1 1
1 1 1 1
0.999981 1 1 0.999981
0.999994 1 1 0.999994
0.999868 1 1 0.999868
1 1 1 1
0.999915 1 1 0.999915
0.999936 1 1 0.999936
0.999836 1 1 0.999836
1 1 1 1
1 1 1 1
0.999956 1 1 0.999956
0.999844 1 1 0.999844
0.999895 1 1 0.999895
0.999775 1 1 0.999775
0.999947 1 1 0.999947
0.999826 1 1 0.999826
0.999844 1 1 0.999844
0.9998 1 1 0.9998
1 1 1 1
1 1 1 1
1 1 1 1
1 1 1 1
1 1 1 1
1 1 1 1
1 1 1 1
0.999974 1 1 0.999974
0.999965 1 1 0.999965
1 1 1 1
1 1 1 1
0.999958 1 1 0.999958
0.999969 1 1 0.999969
0.999786 1 1 0.999786
0.999977 1 1 0.999977
0.999811 1 1 0.999811
0.999957 1 1 0.999957
0.999775 1 1 0.999775
0.999798 1 1 0.999798
0.9997 1 1 0.9997
0.999825 1 1 0.999825
0.999726 1 1 0.999726
1 1 1 1
1 1 1 1
0.999934 1 1 0.999934
0.99994 1 1 0.99994
1 1 1 1
1 1 1 1
0.999958 1 1 0.999958
0.999825 1 1 0.999825
0.999887 1 1 0.999887
0.999919 1 1 0.999919
0.999796 1 1 0.999796
0.999959 1 1 0.999959
0.999938 1 1 0.999938
0.999785 1 1 0.999785
0.999816 1 1 0.999816
1 1 1 1
1 1 1 1
0.999933 1 1 0.999933
0.999854 1 1 0.999854
0.999727 1 1 0.999727
0.999806 1 1 0.999806
0.999787 1 1 0.999787
0.999752 1 1 0.999752
1 1 1 1
0.999949 1 1 0.999949
0.999778 1 1 0.999778
0.999804 1 1 0.999804
0.999705 1 1 0.999705
0.9997 1 1 0.9997
0.999768 1 1 0.999768
0.999694 1 1 0.999694
1 1 1 1
0.999743 1 1 0.999743
0.999938 1 1 0.999938
0.999825 1 1 0.999825
0.999763 1 1 0.999763
0.99974 1 1 0.99974
0.999945 1 1 0.999945
0.999958 1 1 0.999958
0.999843 1 1 0.999843
0.999983 1 1 0.999983
1 1 1 1
1 1 1 1
0.999996 1 1 0.999996
0.999869 1 1 0.999869
1 1 1 1
0.999937 1 1 0.999937
0.999915 1 1 0.999915
0.999832 1 1 0.999832
1 1 1 1
1 1 1 1
0.999956 1 1 0.999956
0.999844 1 1 0.999844
0.999896 1 1 0.999896
0.999775 1 1 0.999775
0.999948 1 1 0.999948
0.999829 1 1 0.999829
0.999844 1 1 0.999844
0.999795 1 1 0.999795
1 1 1 1
0.999953 1 1 0.999953
0.999962 1 1 0.999962
0.999858 1 1 0.999858
0.999753 1 1 0.999753
0.999807 1 1 0.999807
0.999729 1 1 0.999729
0.999854 1 1 0.999854
0.999787 1 1 0.999787
0.999787 1 1 0.999787
0.999767 1 1 0.999767
0.999984 1 1 0.999984
1 1 1 1
1 1 1 1
1 1 1 1
1 1 1 1
1 1 1 1
1 1 1 1
1 1 1 1
1 1 1 1
0.999978 1 1 0.999978
0.99997 1 1 0.99997
0.999811 1 1 0.999811
0.999786 1 1 0.999786
0.999959 1 1 0.999959
1 1 1 1
0.999956 1 1 0.999956
0.999775 1 1 0.999775
0.999798 1 1 0.999798
0.9997 1 1 0.9997
0.999825 1 1 0.999825
0.999726 1 1 0.999726
0.999773 1 1 0.999773
0.999692 1 1 0.999692
0.999712 1 1 0.999712
0.999673 1 1 0.999673
0.99974 1 1 0.99974
0.999696 1 1 0.999696
0.999958 1 1 0.999958
0.999938 1 1 0.999938
0.999771 1 1 0.999771
0.999821 1 1 0.999821
1 1 1 1
1 1 1 1
0.999938 1 1 0.999938
0.999855 1 1 0.999855
0.999719 1 1 0.999719
0.999791 1 1 0.999791
0.999805 1 1 0.999805
0.999753 1 1 0.999753
1 1 1 1
0.999949 1 1 0.999949
0.999773 1 1 0.999773
0.999804 1 1 0.999804
0.999702 1 1 0.999702
0.999708 1 1 0.999708
1 1 1 1
0.999938 1 1 0.999938
0.999831 1 1 0.999831
0.999768 1 1 0.999768
0.999692 1 1 0.999692
0.999757 1 1 0.999757
0.999744 1 1 0.999744
0.99974 1 1 0.99974
0.999945 1 1 0.999945
0.999839 1 1 0.999839
0.999958 1 1 0.999958
0.999703 1 1 0.999703
0.999701 1 1 0.999701
0.999661 1 1 0.999661
0.999666 1 1 0.999666
0.999727 1 1 0.999727
0.999694 1 1 0.999694
0.999943 1 1 0.999943
0.999737 1 1 0.999737
0.999849 1 1 0.999849
0.99977 1 1 0.99977
0.999728 1 1 0.999728
0.999753 1 1 0.999753
0.999972 1 1 0.999972
0.999848 1 1 0.999848
0.999832 1 1 0.999832
0.999796 1 1 0.999796
0.999844 1 1 0.999844
1 1 1 1
1 1 1 1
0.999956 1 1 0.999956
0.999897 1 1 0.999897
0.999775 1 1 0.999775
0.999948 1 1 0.999948
0.999843 1 1 0.999843
0.999832 1 1 0.999832
0.999791 1 1 0.999791
1 1 1 1
0.999953 1 1 0.999953
0.999962 1 1 0.999962
0.999857 1 1 0.999857
0.999753 1 1 0.999753
0.999807 1 1 0.999807
0.999729 1 1 0.999729
0.999854 1 1 0.999854
0.999792 1 1 0.999792
0.999786 1 1 0.999786
0.999775 1 1 0.999775
1 1 1 1
0.999969 1 1 0.999969
0.999858 1 1 0.999858
0.99986 1 1 0.99986
0.999795 1 1 0.999795
0.999715 1 1 0.999715
0.999761 1 1 0.999761
0.999712 1 1 0.999712
0.999792 1 1 0.999792
0.999763 1 1 0.999763
0.999731 1 1 0.999731
0.99998 1 1 0.99998
0.999893 1 1 0.999893
0.999988 1 1 0.999988
0.999985 1 1 0.999985
1 1 1 1
1 1 1 1
1 1 1 1
1 1 1 1
1 1 1 1
1 1 1 1
1 1 1 1
1 1 1 1
1 1 1 1
1 1 1 1
1 1 1 1
0.999825 1 1 0.999825
0.999798 1 1 0.999798
0.999726 1 1 0.999726
0.9997 1 1 0.9997
0.999775 1 1 0.999775
0.999956 1 1 0.999956
0.999773 1 1 0.999773
0.999692 1 1 0.999692
0.999712 1 1 0.999712
0.999672 1 1 0.999672
0.99974 1 1 0.99974
0.999696 1 1 0.999696
0.999689 1 1 0.999689
0.999669 1 1 0.999669
0.999681 1 1 0.999681
0.999666 1 1 0.999666
0.999709 1 1 0.999709
0.999706 1 1 0.999706
0.999767 1 1 0.999767
0.999804 1 1 0.999804
0.9997 1 1 0.9997
0.999717 1 1 0.999717
1 1 1 1
0.999938 1 1 0.999938
0.999836 1 1 0.999836
0.999769 1 1 0.999769
0.99969 1 1 0.99969
0.999744 1 1 0.999744
0.999751 1 1 0.999751
0.999739 1 1 0.999739
0.999946 1 1 0.999946
0.999836 1 1 0.999836
0.999958 1 1 0.999958
0.999698 1 1 0.999698
0.999701 1 1 0.999701
0.999656 1 1 0.999656
0.999668 1 1 0.999668
0.999943 1 1 0.999943
0.999849 1 1 0.999849
0.999776 1 1 0.999776
0.99973 1 1 0.99973
0.999697 1 1 0.999697
0.999722 1 1 0.999722
0.999737 1 1 0.999737
0.999756 1 1 0.999756
0.999849 1 1 0.999849
0.99979 1 1 0.99979
0.999971 1 1 0.999971
0.999833 1 1 0.999833
0.999658 1 1 0.999658
0.999653 1 1 0.999653
0.999634 1 1 0.999634
0.999663 1 1 0.999663
0.999728 1 1 0.999728
0.999712 1 1 0.999712
0.999853 1 1 0.999853
0.999762 1 1 0.999762
0.999794 1 1 0.999794
0.99973 1 1 0.99973
0.999706 1 1 0.999706
0.99976 1 1 0.99976
0.99998 1 1 0.99998
0.999842 1 1 0.999842
0.999801 1 1 0.999801
0.999775 1 1 0.999775
0.999769 1 1 0.999769
1 1 1 1
0.999752 1 1 0.999752
0.999962 1 1 0.999962
0.999953 1 1 0.999953
0.999857 1 1 0.999857
0.999807 1 1 0.999807
0.999729 1 1 0.999729
0.999854 1 1 0.999854
0.999785 1 1 0.999785
0.999796 1 1 0.999796
0.999783 1 1 0.999783
1 1 1 1
0.999969 1 1 0.999969
0.999858 1 1 0.999858
0.999859 1 1 0.999859
0.999794 1 1 0.999794
0.999714 1 1 0.999714
0.999762 1 1 0.999762
0.999711 1 1 0.999711
0.999792 1 1 0.999792
0.999766 1 1 0.999766
0.999735 1 1 0.999735
0.999975 1 1 0.999975
0.999864 1 1 0.999864
0.999795 1 1 0.999795
0.999793 1 1 0.999793
0.999768 1 1 0.999768
0.999708 1 1 0.999708
0.999738 1 1 0.999738
0.999727 1 1 0.999727
0.99974 1 1 0.99974
0.999704 1 1 0.999704
0.999981 1 1 0.999981
0.999869 1 1 0.999869
0.999886 1 1 0.999886
0.999824 1 1 0.999824
0.9999 1 1 0.9999
0.99999 1 1 0.99999
0.999989 1 1 0.999989
1 1 1 1
0.999986 1 1 0.999986
1 1 1 1
1 1 1 1
1 1 1 1
1 1 1 1
1 1 1 1
1 1 1 1
1 1 1 1
1 1 1 1
1 1 1 1
1 1 1 1
1 1 1 1
0.999739 1 1 0.999739
0.999712 1 1 0.999712
0.999697 1 1 0.999697
0.999672 1 1 0.999672
0.999692 1 1 0.999692
0.999773 1 1 0.999773
0.999689 1 1 0.999689
0.999669 1 1 0.999669
0.999681 1 1 0.999681
0.999664 1 1 0.999664
0.999708 1 1 0.999708
0.999707 1 1 0.999707
0.999664 1 1 0.999664
0.999665 1 1 0.999665
0.999678 1 1 0.999678
0.999658 1 1 0.999658
0.999713 1 1 0.999713
0.999722 1 1 0.999722
0.999692 1 1 0.999692
0.9997 1 1 0.9997
0.999652 1 1 0.999652
0.99967 1 1 0.99967
0.999943 1 1 0.999943
0.999848 1 1 0.999848
0.999782 1 1 0.999782
0.999732 1 1 0.999732
0.9997 1 1 0.9997
0.999737 1 1 0.999737
0.999717 1 1 0.999717
0.999759 1 1 0.999759
0.99985 1 1 0.99985
0.999785 1 1 0.999785
0.99997 1 1 0.99997
0.999834 1 1 0.999834
0.999659 1 1 0.999659
0.999655 1 1 0.999655
0.999631 1 1 0.999631
0.999664 1 1 0.999664
0.999853 1 1 0.999853
0.999798 1 1 0.999798
0.999729 1 1 0.999729
0.999726 1 1 0.999726
0.999721 1 1 0.999721
0.999704 1 1 0.999704
0.999762 1 1 0.999762
0.999768 1 1 0.999768
0.999801 1 1 0.999801
0.999767 1 1 0.999767
0.999773 1 1 0.999773
0.999971 1 1 0.999971
0.999844 1 1 0.999844
0.999641 1 1 0.999641
0.999622 1 1 0.999622
0.999682 1 1 0.999682
0.999748 1 1 0.999748
0.999808 1 1 0.999808
0.999792 1 1 0.999792
0.999758 1 1 0.999758
0.999681 1 1 0.999681
0.999692 1 1 0.999692
0.999971 1 1 0.999971
0.999873 1 1 0.999873
0.999777 1 1 0.999777
0.999779 1 1 0.999779
0.999729 1 1 0.999729
0.999746 1 1 0.999746
1 1 1 1
0.999969 1 1 0.999969
0.999713 1 1 0.999713
0.999859 1 1 0.999859
0.999858 1 1 0.999858
0.999792 1 1 0.999792
0.999762 1 1 0.999762
0.999709 1 1 0.999709
0.999793 1 1 0.999793
0.999739 1 1 0.999739
0.999768 1 1 0.999768
0.999976 1 1 0.999976
0.999864 1 1 0.999864
0.999798 1 1 0.999798
0.999793 1 1 0.999793
0.999764 1 1 0.999764
0.999707 1 1 0.999707
0.999737 1 1 0.999737
0.999729 1 1 0.999729
0.999736 1 1 0.999736
0.999698 1 1 0.999698
0.999871 1 1 0.999871
0.999783 1 1 0.999783
0.999755 1 1 0.999755
0.99975 1 1 0.99975
0.999742 1 1 0.999742
0.999761 1 1 0.999761
0.999698 1 1 0.999698
0.999715 1 1 0.999715
0.9997 1 1 0.9997
0.999637 1 1 0.999637
0.999982 1 1 0.999982
0.999874 1 1 0.999874
0.999794 1 1 0.999794
0.99988 1 1 0.99988
0.9999 1 1 0.9999
0.999814 1 1 0.999814
0.999764 1 1 0.999764
0.999811 1 1 0.999811
0.999906 1 1 0.999906
0.999992 1 1 0.999992
0.999991 1 1 0.999991
1 1 1 1
0.999989 1 1 0.999989
1 1 1 1
1 1 1 1
1 1 1 1
1 1 1 1
1 1 1 1
1 1 1 1
1 1 1 1
1 1 1 1
1 1 1 1
1 1 1 1
1 1 1 1
0.999708 1 1 0.999708
0.999681 1 1 0.999681
0.999707 1 1 0.999707
0.999663 1 1 0.999663
0.999668 1 1 0.999668
0.99969 1 1 0.99969
0.999664 1 1 0.999664
0.999666 1 1 0.999666
0.999675 1 1 0.999675
0.999652 1 1 0.999652
0.999713 1 1 0.999713
0.999729 1 1 0.999729
0.999668 1 1 0.999668
0.999663 1 1 0.999663
0.999676 1 1 0.999676
0.999764 1 1 0.999764
0.999659 1 1 0.999659
0.999656 1 1 0.999656
0.999628 1 1 0.999628
0.999665 1 1 0.999665
0.999853 1 1 0.999853
0.999803 1 1 0.999803
0.999729 1 1 0.999729
0.999724 1 1 0.999724
0.99973 1 1 0.99973
0.999763 1 1 0.999763
0.999702 1 1 0.999702
0.999777 1 1 0.999777
0.999801 1 1 0.999801
0.999764 1 1 0.999764
0.999772 1 1 0.999772
0.999962 1 1 0.999962
0.999846 1 1 0.999846
0.999637 1 1 0.999637
0.999626 1 1 0.999626
0.999685 1 1 0.999685
0.999808 1 1 0.999808
0.999764 1 1 0.999764
0.99968 1 1 0.99968
0.999744 1 1 0.999744
0.999703 1 1 0.999703
0.99979 1 1 0.99979
0.999971 1 1 0.999971
0.999778 1 1 0.999778
0.99975 1 1 0.99975
0.999731 1 1 0.999731
0.999779 1 1 0.999779
0.999866 1 1 0.999866
0.999631 1 1 0.999631
0.999621 1 1 0.999621
0.999717 1 1 0.999717
0.999789 1 1 0.999789
0.999779 1 1 0.999779
0.999737 1 1 0.999737
0.999702 1 1 0.999702
0.999643 1 1 0.999643
0.999978 1 1 0.999978
0.999889 1 1 0.999889
0.999797 1 1 0.999797
0.99971 1 1 0.99971
0.999751 1 1 0.999751
0.999712 1 1 0.999712
0.999976 1 1 0.999976
0.999864 1 1 0.999864
0.999706 1 1 0.999706
0.999792 1 1 0.999792
0.999802 1 1 0.999802
0.99976 1 1 0.99976
0.999735 1 1 0.999735
0.999731 1 1 0.999731
0.999733 1 1 0.999733
0.999691 1 1 0.999691
0.999871 1 1 0.999871
0.999786 1 1 0.999786
0.99976 1 1 0.99976
0.999754 1 1 0.999754
0.999745 1 1 0.999745
0.999765 1 1 0.999765
0.999701 1 1 0.999701
0.999731 1 1 0.999731
0.999696 1 1 0.999696
0.999632 1 1 0.999632
0.999785 1 1 0.999785
0.999729 1 1 0.999729
0.999718 1 1 0.999718
0.999719 1 1 0.999719
0.999772 1 1 0.999772
0.999762 1 1 0.999762
0.999635 1 1 0.999635
0.999875 1 1.00026 0.999611
0.999879 1 1 0.999879
0.999799 1 1 0.999799
0.999751 1 1 0.999751
0.9999 1 1 0.9999
0.999805 1 1 0.999805
0.999906 1 1 0.999906
0.999757 1 1 0.999757
0.999814 1 1 0.999814
0.99972 1 1 0.99972
0.999753 1 1 0.999753
0.999815 1 1 0.999815
0.999909 1 1 0.999909
0.999993 1 1 0.999993
0.999992 1 1 0.999992
1 1 1 1
0.999992 1 1 0.999992
1 1 1 1
1 1 1 1
1 1 1 1
1 1 1 1
1 1 1 1
1 1 1 1
1 1 1 1
1 1 1 1
1 1 1 1
1 1 1 1
1 1 1 1
0.999713 1 1 0.999713
0.999672 1 1 0.999672
0.999735 1 1 0.999735
0.999646 1 1 0.999646
0.999666 1 1 0.999666
0.999663 1 1 0.999663
0.999665 1 1 0.999665
0.999663 1 1 0.999663
0.999681 1 1 0.999681
0.999761 1 1 0.999761
0.999666 1 1 0.999666
0.999673 1 1 0.999673
0.999725 1 1 0.999725
0.999634 1 1 0.999634
0.999631 1 1 0.999631
0.999688 1 1 0.999688
0.999807 1 1 0.999807
0.99977 1 1 0.99977
0.999678 1 1 0.999678
0.99974 1 1 0.99974
0.999788 1 1 0.999788
0.999715 1 1 0.999715
0.999778 1 1 0.999778
0.999754 1 1 0.999754
0.999734 1 1 0.999734
0.999971 1 1 0.999971
0.999782 1 1 0.999782
0.999858 1 1 0.999858
0.999637 1 1 0.999637
0.999619 1 1 0.999619
0.99971 1 1 0.99971
0.999778 1 1 0.999778
0.999709 1 1 0.999709
0.999648 1 1 0.999648
0.999794 1 1 0.999794
0.999736 1 1 0.999736
0.999985 1 1 0.999985
0.999889 1 1 0.999889
0.999751 1 1 0.999751
0.999713 1 1 0.999713
0.999714 1 1 0.999714
0.999791 1 1 0.999791
0.999651 1 1 0.999651
0.999635 1 1 0.999635
0.999779 1 0.999988 0.999791
0.999802 1 1 0.999802
0.999739 1 1 0.999739
0.999871 1 1.00023 0.999636
0.999659 1 1 0.999659
0.999997 1 1 0.999997
0.999927 1 1 0.999927
0.999893 1 1 0.999893
0.999798 1 1 0.999798
0.999724 1 1 0.999724
0.999674 1 1 0.999674
0.999729 1 1 0.999729
0.999685 1 1 0.999685
0.999871 1 1 0.999871
0.999789 1 1 0.999789
0.999769 1 1 0.999769
0.999758 1 1 0.999758
0.999766 1 1 0.999766
0.999748 1 1 0.999748
0.999703 1 1 0.999703
0.999747 1 1 0.999747
0.999691 1 1 0.999691
0.999626 1 1 0.999626
0.999784 1 1 0.999784
0.999735 1 1 0.999735
0.999723 1 1 0.999723
0.999722 1 1 0.999722
0.999773 1 1 0.999773
0.999758 1 1 0.999758
0.999643 1 1 0.999643
0.999714 1 1.00011 0.999609
0.999741 1 1 0.999741
0.99973 1 1 0.99973
0.999699 1 1 0.999699
0.999675 1 1 0.999675
0.999789 1 1 0.999789
0.99962 1 1 0.99962
0.999967 1 1.0004 0.999572
0.999804 1 1 0.999804
0.999751 1 1 0.999751
0.999713 1 1 0.999713
0.999906 1 1 0.999906
0.999818 1 1 0.999818
0.99975 1 1 0.99975
0.999908 1 1 0.999908
0.999815 1 1 0.999815
0.999715 1 1 0.999715
0.999761 1 1 0.999761
0.999688 1 1 0.999688
0.999708 1 1 0.999708
0.999765 1 1 0.999765
0.999824 1 1 0.999824
0.999908 1 1 0.999908
0.999992 1 1 0.999992
0.999993 1 1 0.999993
1 1 1 1
0.999993 1 1 0.999993
1 1 1 1
1 1 1 1
1 1 1 1
1 1 1 1
1 1 1 1
0.999999 1 1 0.999999
1 1 1 1
1 1 1 1
1 1 1 1
1 1 1 1
1 1 1 1
1 1 1 1
0.999758 1 1 0.999758
0.999685 1 1 0.999685
0.999662 1 1 0.999662
0.999662 1 1 0.999662
0.999671 1 1 0.999671
0.999668 1 1 0.999668
0.999737 1 1 0.999737
0.999679 1 1 0.999679
0.999687 1 1 0.999687
0.999765 1 1 0.999765
0.999644 1 1 0.999644
0.999617 1 1 0.999617
0.999704 1 1 0.999704
0.999778 1 1 0.999778
0.999716 1 1 0.999716
0.999653 1 1 0.999653
0.999799 1 1 0.999799
0.999734 1 1 0.999734
0.999751 1 1 0.999751
0.999715 1 1 0.999715
0.999719 1 1 0.999719
0.999992 1 1 0.999992
0.999889 1 1 0.999889
0.999786 1 1 0.999786
0.999648 1 1 0.999648
0.999996 1 1 0.999996
0.999922 1 1 0.999922
0.999637 1 1 0.999637
0.999778 1 1 0.999778
0.999742 1 1 0.999742
0.999652 1 1 0.999652
0.999701 1 1.00006 0.999639
0.9998 1 1 0.9998
0.999907 1 1 0.999907
0.999797 1 1 0.999797
0.99973 1 1 0.99973
0.999693 1 1 0.999693
0.999666 1 1 0.999666
0.999726 1 1 0.999726
0.999635 1 1 0.999635
0.999708 1 1 0.999708
0.999551 1 0.999684 0.999867
0.999699 1 1 0.999699
0.999709 1 1 0.999709
1.00034 1 1.00074 0.9996
0.999925 1 1 0.999925
0.999918 1 1 0.999918
0.999856 1 1 0.999856
0.999801 1 1 0.999801
0.999739 1 1 0.999739
0.999665 1 1 0.999665
0.999632 1 1 0.999632
0.999692 1 1 0.999692
0.999783 1 1 0.999783
0.999741 1 1 0.999741
0.999775 1 1 0.999775
0.999754 1 1 0.999754
0.999726 1 1 0.999726
0.999728 1 1 0.999728
0.99965 1 1 0.99965
0.999607 1 1 0.999607
0.999741 1 1 0.999741
0.999747 1 1 0.999747
0.999699 1 1 0.999699
0.999676 1 1.00001 0.999666
0.999785 1 1 0.999785
0.999621 1 1 0.999621
0.999948 1 1.00038 0.999569
0.999701 1 1 0.999701
0.999605 1.00027 0.999571 0.999762
0.999672 1 1 0.999672
0.999981 1 1.00038 0.9996
0.99962 1 1 0.99962
1.00044 1 1.0009 0.999537
0.988101 1.00446 0.984153 0.999559
0.999751 1 1 0.999751
0.999713 1 1 0.999713
0.999686 1 1 0.999686
0.999908 1 1 0.999908
0.999815 1 1 0.999815
0.999768 1 1 0.999768
0.99971 1 1 0.99971
0.999908 1 1 0.999908
0.999819 1 1 0.999819
0.999687 1 1 0.999687
0.999765 1 1 0.999765
0.999714 1 1 0.999714
0.999668 1 1 0.999668
0.999719 1 1 0.999719
0.999767 1 1 0.999767
0.99981 1 1 0.99981
0.999894 1 1 0.999894
0.999831 1 1 0.999831
0.999893 1 1 0.999893
0.999992 1 1 0.999992
0.999992 1 1 0.999992
1 1 1 1
0.999992 1 1 0.999992
1 1 1 1
1 1 1 1
1 1 1 1
1 1 1 1
1 1 1 1
1 1 1 1
0.999999 1 1 0.999999
1 1 1 1
1 1 1 1
1 1 1 1
1 1 1 1
1 1 1 1
1 1 1 1
0.999748 1 1 0.999748
0.999663 1 1 0.999663
0.999677 1 1 0.999677
0.99968 1 1 0.99968
0.999691 1 1 0.999691
0.999773 1 1 0.999773
0.999701 1 1 0.999701
0.995992 1.00086 0.995308 0.999829
0.999565 1 0.999705 0.99986
0.999944 1 1 0.999944
0.999645 1 1 0.999645
0.999639 1 1 0.999639
0.999765 1 1 0.999765
0.999745 1 1 0.999745
0.999645 1 1 0.999645
0.999642 1 1 0.999642
0.999798 1 1 0.999798
0.999732 1 1 0.999732
0.9997 1 1 0.9997
0.999659 1 1 0.999659
0.999995 1 1 0.999995
0.999727 1 1 0.999727
0.99992 1 1 0.99992
0.999797 1 1 0.999797
0.999916 1 1 0.999916
0.999628 1 1 0.999628
0.999931 1 1 0.999931
0.999918 1 1 0.999918
0.999845 1 1 0.999845
0.99971 1 1 0.99971
0.999457 1 0.999609 0.999848
0.999711 1 1 0.999711
1.00021 1 1.00061 0.999597
0.999702 1 1 0.999702
0.999808 1 1 0.999808
0.999736 1 1 0.999736
0.99969 1 1 0.99969
0.999674 1 1.00003 0.999639
0.99967 1 1 0.99967
0.999661 1 1.00004 0.999616
0.997334 1 0.997506 0.999827
0.999573 1 0.999811 0.999762
1.00012 1 1.00051 0.99961
1.00026 1 1.00059 0.999665
0.999846 1 1 0.999846
0.99982 1 1 0.99982
0.999786 1 1 0.999786
0.999738 1 1 0.999738
0.999689 1 1 0.999689
0.999629 1 1 0.999629
1.00122 1 1.0016 0.999619
0.99974 1 1 0.99974
0.999698 1 1 0.999698
0.999764 1 1 0.999764
0.999781 1 1 0.999781
0.999622 1 1 0.999622
0.999658 1 1 0.999658
0.999841 1 1.00027 0.999566
0.999704 1 1 0.999704
0.999711 1.00027 0.999674 0.999771
0.999672 1 1 0.999672
0.999829 1 1.00023 0.999599
0.999685 1.00005 1 0.999635
1.00105 1 1.00151 0.999535
0.992523 1.00704 0.985981 0.999592
0.999675 1 1 0.999675
1.00042 1.00083 1 0.999589
0.999643 1 1 0.999643
1.00235 1 1.0028 0.999553
1.00037 1 1.00085 0.999523
0.962301 0.96385 1.00004 0.998353
0.98951 1.00115 0.988776 0.99959
0.985149 1.00843 0.977366 0.999538
0.958661 0.966461 0.992201 0.999726
0.965117 0.988689 0.976265 0.999891
0.999713 1 1 0.999713
0.999687 1 1 0.999687
0.999659 1 1 0.999659
0.999908 1 1 0.999908
0.999814 1 1 0.999814
0.999765 1 1 0.999765
0.99972 1 1 0.99972
0.999685 1 1 0.999685
0.999759 1 1 0.999759
0.9999 1 1 0.9999
0.999816 1 1 0.999816
0.999673 1 1 0.999673
0.999717 1 1 0.999717
0.999723 1 1 0.999723
0.999672 1 1 0.999672
0.999744 1 1 0.999744
0.999809 1 1 0.999809
0.999893 1 1 0.999893
0.999824 1 1 0.999824
0.999764 1 1 0.999764
0.999811 1 1 0.999811
0.99982 1 1 0.99982
0.999902 1 1 0.999902
0.999893 1 1 0.999893
0.999991 1 1 0.999991
0.999991 1 1 0.999991
1 1 1 1
0.999992 1 1 0.999992
1 1 1 1
1 1 1 1
1 1 1 1
1 1 1 1
1 1 1 1
1 1 1 1
1 1 1 1
1 1 1 1
0.999998 1 1 0.999998
1 1 1 1
1 1 1 1
1 1 1 1
1 1 1 1
1 1 1 1
0.999695 1 1 0.999695
0.99968 1 1 0.99968
0.999781 1 1 0.999781
0.995401 1.00027 0.995305 0.999826
0.999699 1 1 0.999699
0.999692 1 0.999863 0.999828
0.999693 1 1.00004 0.999655
0.981213 0.984914 0.99692 0.999321
0.999622 1 0.999727 0.999896
0.999948 1 1 0.999948
0.999943 1 1 0.999943
0.999867 1 1 0.999867
0.999877 1 1 0.999877
0.99962 1 1 0.99962
0.999712 1 1 0.999712
0.999395 1 0.999566 0.99983
0.999713 1 1 0.999713
0.999932 1 1.00034 0.999594
0.999705 1 1 0.999705
0.999689 1 1 0.999689
0.999698 1 1.00005 0.999647
0.999675 1 1 0.999675
0.999917 1 1 0.999917
0.999733 1 1 0.999733
0.999816 1 1 0.999816
0.999938 1 1 0.999938
0.999834 1 1 0.999834
0.999661 1 1.00003 0.999626
0.999857 1 1 0.999857
0.999826 1 1 0.999826
0.999787 1 1 0.999787
0.998223 1 0.998395 0.999827
0.999388 1 0.999625 0.999763
1.00027 1 1.00061 0.999664
1.00009 1 1.00048 0.999614
0.99974 1 1 0.99974
0.999692 1 1 0.999692
1.0006 1 1.00098 0.999619
0.999652 1 1.00003 0.999627
0.999716 1 1.00003 0.999685
0.997833 1.00023 0.997797 0.99981
0.999678 1 1.00008 0.999594
1.00035 1 1.00073 0.999616
0.999767 1 1 0.999767
0.999752 1 1 0.999752
0.999659 1 1 0.999659
1.00164 1 1.00207 0.99957
0.960237 0.963721 0.998058 0.998323
0.999707 1 1 0.999707
0.999671 1 1 0.999671
0.999733 1.00015 0.999798 0.99978
0.999699 1.00005 1 0.999649
1.00173 1 1.0022 0.999533
0.999735 1 1.00014 0.999598
0.997014 1.0094 0.988099 0.999626
0.999678 1 1 0.999678
1.00085 1.00149 0.999774 0.999588
0.999644 1 1 0.999644
1.00193 1 1.00238 0.999555
1.00013 1 1.00059 0.999534
0.963878 0.96432 1.00103 0.998512
0.985983 0.998032 0.988715 0.999204
0.988388 1.01011 0.97894 0.999544
0.962443 0.968853 0.993856 0.999526
0.964181 0.98585 0.978122 0.999896
0.999666 1 1 0.999666
0.967489 0.970524 0.997569 0.999303
0.980624 0.99154 0.989067 0.999923
0.997608 1.00007 0.997999 0.999538
1.00129 1 1.00166 0.999626
1.00757 1 1.00803 0.999549
1.00119 1.01017 0.991631 0.999475
0.975434 0.972206 1.00508 0.998248
0.988059 1.0062 0.982779 0.999175
0.95663 0.969789 0.986745 0.999682
0.990969 1.00591 0.98522 0.999928
0.999687 1 1 0.999687
0.999659 1 1 0.999659
0.999634 1 1 0.999634
0.999906 1 1 0.999906
0.999821 1 1 0.999821
0.999751 1 1 0.999751
0.999715 1 1 0.999715
0.999677 1 1 0.999677
0.999893 1 1 0.999893
0.999721 1 1 0.999721
0.999753 1 1 0.999753
0.999815 1 1 0.999815
0.999665 1 1 0.999665
0.999696 1 1 0.999696
0.99983 1 1.0002 0.999633
0.999747 1 1 0.999747
0.999822 1 1 0.999822
0.999824 1 1 0.999824
0.999756 1 1 0.999756
0.999757 1 1 0.999757
0.999747 1 1 0.999747
0.999715 1 1 0.999715
0.999726 1 1 0.999726
0.999799 1 1 0.999799
0.999811 1 1 0.999811
0.999896 1 1 0.999896
0.99981 1 1 0.99981
0.999896 1 1 0.999896
0.99999 1 1 0.99999
0.999893 1 1 0.999893
0.999991 1 1 0.999991
1 1 1 1
0.999991 1 1 0.999991
1 1 1 1
1 1 1 1
1 1 1 1
1 1 1 1
1 1 1 1
0.999945 1 1 0.999945
1 1 1 1
1 1 1 1
1 1 1 1
1 1 1 1
1 1 1 1
1 1 1 1
1 1 1 1
1 1 1 1
1 1 1 1
0.994918 1.00011 0.994984 0.999823
0.999697 1 1 0.999697
0.999797 1 1 0.999797
0.982078 0.984461 0.998027 0.999551
0.999777 1 0.999883 0.999894
0.999673 1 1.00003 0.999639
1.00125 1 1.00159 0.999656
0.987538 0.986526 1.00163 0.9994
0.965203 0.967083 1.00011 0.997942
0.95672 0.96588 0.991237 0.999272
0.967968 0.984391 0.98341 0.999905
0.999864 1 1 0.999864
0.999947 1 1 0.999947
0.999943 1 1 0.999943
0.999863 1 1 0.999863
0.999813 1 1 0.999813
0.999828 1 1 0.999828
0.999869 1 1 0.999869
0.999873 1 1 0.999873
0.999663 1 1.00003 0.999637
0.999041 1 0.999213 0.999828
0.999184 1 0.999419 0.999764
1.00031 1 1.00065 0.999663
1.00009 1 1.00048 0.999617
1.00007 1 1.00045 0.99962
0.999693 1 1.00007 0.999624
0.999695 1 1 0.999695
0.999833 1 1 0.999833
0.999743 1 1 0.999743
0.999868 1 1 0.999868
0.999789 1 1 0.999789
0.999154 1 0.999476 0.999677
0.99977 1 1 0.99977
0.999755 1 1 0.999755
0.997273 1.00007 0.997393 0.999808
0.999619 1 1.00001 0.999604
1.00082 1 1.00121 0.999604
0.999658 1 1 0.999658
1.00166 1 1.00208 0.999573
0.990662 1.0048 0.986234 0.999689
1.00186 1.00014 1.00209 0.999625
0.999589 1 1.00003 0.999559
1.00464 1 1.0051 0.999545
0.999721 1 1 0.999721
0.999686 1 1 0.999686
1.00013 1 1.00054 0.999591
0.966546 0.972842 0.993909 0.999617
0.963902 0.965576 0.99988 0.998386
0.99968 1 1 0.99968
0.999645 1 1 0.999645
1.00169 1.00244 0.999671 0.999587
0.999808 1 1.00026 0.999544
1.00141 1 1.00186 0.999558
0.962832 0.964995 0.999863 0.997895
0.98899 0.998108 0.991185 0.999678
0.991916 1.01227 0.980332 0.999549
0.958253 0.967918 0.990706 0.999302
0.963222 0.983111 0.979866 0.999901
0.999665 1 1 0.999665
0.965554 0.971884 0.993828 0.999657
0.981409 0.990514 0.990875 0.999933
0.997889 1.00019 0.998166 0.999535
1.00044 1 1.00081 0.999628
1.00687 1 1.00731 0.99956
0.998464 1.0076 0.991468 0.999458
0.97478 0.97326 1.00353 0.998042
0.982891 1.00184 0.981473 0.999608
0.95647 0.969689 0.98709 0.999269
0.986299 1.00514 0.98133 0.999925
0.999642 1 1 0.999642
0.995742 0.997305 0.998475 0.999957
1.00876 1.01059 0.998236 0.999957
1.00919 1 1.00965 0.999544
1.00556 1 1.00589 0.999678
1.00434 1.00361 1.00103 0.999706
0.990318 1.00063 0.989844 0.999848
0.978839 0.976251 1.0045 0.998155
0.968899 0.984937 0.984457 0.999249
1.00244 1.01288 0.989754 0.99994
0.99966 1 1 0.99966
0.999631 1 1 0.999631
1.00004 1 1.00042 0.999618
0.999893 1 1 0.999893
0.999821 1 1 0.999821
0.999761 1 1 0.999761
0.999719 1 1 0.999719
0.999659 1 1 0.999659
0.999821 1 1 0.999821
0.999701 1 1 0.999701
0.999747 1 1 0.999747
0.999873 1 1.00024 0.999628
1.00015 1 1.00055 0.9996
0.999761 1 1.00009 0.999674
0.999751 1 1 0.999751
0.999824 1 1 0.999824
0.999748 1 1 0.999748
0.999756 1 1 0.999756
0.999747 1 1 0.999747
0.999714 1 1 0.999714
0.999733 1 1 0.999733
0.999707 1 1 0.999707
0.99969 1 1 0.99969
0.999702 1 1 0.999702
0.999737 1 1 0.999737
0.999736 1 1 0.999736
0.999727 1 1 0.999727
0.999789 1 1 0.999789
0.999799 1 1 0.999799
0.999886 1 1 0.999886
0.999811 1 1 0.999811
0.999896 1 1 0.999896
0.999988 1 1 0.999988
0.99989 1 1 0.99989
0.999989 1 1 0.999989
1 1 1 1
0.99999 1 1 0.99999
1 1 1 1
1 1 1 1
1 1 1 1
1 1 1 1
1 1 1 1
0.99995 1 1 0.99995
1 1 1 1
0.999946 1 1 0.999946
1 1 1 1
1 1 1 1
1 1 1 1
1 1 1 1
1 1 1 1
1 1 1 1
1 1 1 1
1 1 1 1
0.963231 0.969567 0.993764 0.999699
0.984928 0.992608 0.992311 0.999952
0.983954 0.985146 0.999042 0.999748
0.999875 1 0.999984 0.999892
0.999652 1 1.00003 0.999623
0.986802 0.985026 1.00196 0.999849
1.00046 1 1.0008 0.999666
0.969041 0.96931 1.00136 0.998368
0.960081 0.966996 0.993126 0.999721
0.966435 0.98384 0.982396 0.999911
0.999947 0.995508 1.00465 0.999809
0.973798 0.972805 1.00269 0.998334
0.956776 0.968304 0.988391 0.999699
0.984449 1.00398 0.980631 0.999918
0.999795 1 1 0.999795
0.999869 1 1 0.999869
0.999947 1 1 0.999947
0.99986 1 1 0.99986
0.999818 1 1 0.999818
0.999808 1 1 0.999808
0.99983 1 1 0.99983
0.999844 1 1 0.999844
0.999862 1 1 0.999862
0.999868 1 1 0.999868
0.998695 1 0.999025 0.99967
0.996957 1 0.99715 0.999806
0.999615 1 1 0.999615
1.00122 1 1.00163 0.999591
1.00155 1 1.00198 0.999576
0.999658 1 1 0.999658
0.999757 1 1 0.999757
0.999773 1 1 0.999773
0.992812 1.00345 0.989724 0.999669
0.999718 1 1 0.999718
0.999679 1 1 0.999679
1.00026 1.00011 1.00052 0.999625
1.00003 1 1.00047 0.999557
1.0037 1 1.00416 0.999537
1.0007 1 1.00112 0.999583
0.985016 1.01228 0.973502 0.999556
1.0082 1 1.00865 0.999546
1.00428 1 1.00476 0.999527
0.999716 1 1 0.999716
0.999671 1 1 0.999671
0.999618 1 1 0.999618
0.994803 0.997493 0.997386 0.999918
0.967104 0.972152 0.995538 0.999266
0.961944 0.965399 0.998115 0.998303
0.999664 1 1 0.999664
0.999631 1 1 0.999631
0.998356 1.0002 0.998623 0.999532
1.00633 1 1.00676 0.999572
0.962317 0.970442 0.99236 0.999262
0.972037 0.972096 1.00124 0.998699
0.983889 1.00302 0.981685 0.999225
0.996629 1.00518 0.992044 0.999445
0.957104 0.968754 0.988253 0.999718
0.983321 0.992162 0.99117 0.999919
0.984235 1.00271 0.98166 0.999917
0.99964 1 1 0.99964
0.993103 0.99623 0.99692 0.999941
1.00981 1.01177 0.998114 0.999956
1.00918 1 1.00963 0.999547
1.00581 1 1.00614 0.999678
1.00739 1.00315 1.00482 0.999404
0.987536 1.00066 0.987589 0.999282
0.978111 0.977453 1.00255 0.998133
0.973934 0.985575 0.988437 0.999748
0.998986 1.01133 0.987865 0.999928
0.999695 1 1 0.999695
1.00849 1.00873 0.999791 0.999975
1.0066 1.00827 0.998363 0.999981
1.0071 1 1.0073 0.999806
0.997642 0.995029 1.00269 0.999934
0.987523 0.984281 1.00501 0.998288
0.985292 0.999447 0.986111 0.999722
0.999625 1.01385 0.986053 0.999918
0.999629 1 1 0.999629
0.99998 1 1.00036 0.999625
1.00093 1 1.0013 0.999629
0.999821 1 1 0.999821
0.999747 1 1 0.999747
0.999706 1 1 0.999706
0.999904 1 1.00028 0.999623
0.999751 1 1 0.999751
0.999706 1 1.00003 0.999675
1.00053 1 1.00093 0.999598
1.00047 1 1.00086 0.999614
0.999823 1 1.00021 0.99961
0.999696 1 1 0.999696
0.999756 1 1 0.999756
0.999746 1 1 0.999746
0.999713 1 1 0.999713
0.999708 1 1 0.999708
0.999733 1 1 0.999733
0.999693 1 1 0.999693
0.999683 1 1 0.999683
0.99967 1 1 0.99967
0.999681 1 1 0.999681
0.999702 1 1 0.999702
0.999712 1 1 0.999712
0.999721 1 1 0.999721
0.999775 1 1 0.999775
0.999751 1 1 0.999751
0.99974 1 1 0.99974
0.999783 1 1 0.999783
0.999728 1 1 0.999728
0.99979 1 1 0.99979
0.999875 1 1 0.999875
0.999799 1 1 0.999799
0.999886 1 1 0.999886
0.999985 1 1 0.999985
0.999895 1 1 0.999895
0.999987 1 1 0.999987
1 1 1 1
0.999989 1 1 0.999989
1 1 1 1
1 1 1 1
1 1 1 1
1 1 1 1
1 1 1 1
0.999927 1 1 0.999927
1 1 1 1
0.99994 1 1 0.99994
1 1 1 1
1 1 1 1
0.999946 1 1 0.999946
1 1 1 1
1 1 1 1
1 1 1 1
1 1 1 1
1 1 1 1
1 1 1 1
0.995278 0.997044 0.998267 0.999962
0.964381 0.970205 0.994509 0.999485
1.00733 1.01039 0.99701 0.999965
0.982145 0.989558 0.992561 0.999947
0.983607 0.983685 1.00054 0.999382
0.99972 1 1.00004 0.999677
0.969704 0.969125 1.00178 0.998816
0.958625 0.967329 0.991705 0.999291
0.965656 0.983819 0.981618 0.999918
0.997053 0.997039 1.00037 0.999649
0.973285 0.970836 1.00427 0.99826
0.959086 0.970989 0.988459 0.999274
0.982417 1.00343 0.979139 0.999923
0.9964 1.00424 0.992388 0.999808
0.97528 0.972449 1.00476 0.998164
0.971851 0.987177 0.984735 0.999735
0.996975 1.01465 0.982634 0.999941
0.999757 1 1 0.999757
0.999802 1 1 0.999802
0.999874 1 1 0.999874
0.999824 1 1 0.999824
0.999773 1 1 0.999773
0.999813 1 1 0.999813
0.999832 1 1 0.999832
0.999836 1 1 0.999836
0.99985 1 1 0.99985
0.999856 1 1 0.999856
0.995171 1.00235 0.993186 0.999649
0.998534 1 0.998908 0.999626
1.00035 1 1.00079 0.999555
1.00302 1 1.00349 0.999528
1.00134 1 1.00176 0.999576
0.999672 1 1 0.999672
0.999715 1 1 0.999715
0.999717 1 1 0.999717
0.987167 1.00973 0.978088 0.999554
0.999675 1 1 0.999675
0.999705 1 1.00009 0.999614
1.00756 1 1.00802 0.999541
1.00414 1 1.00462 0.999527
0.987493 1.01062 0.977574 0.999533
1.0175 1 1.01794 0.999574
1.00035 1 1.00078 0.999567
0.999681 1 1 0.999681
0.999623 1 1 0.999623
1.00717 1.00742 0.999768 0.999983
0.99539 0.997376 0.998067 0.999942
0.967451 0.972954 0.994673 0.999669
0.999638 1 1 0.999638
1.00592 1 1.00624 0.999678
1.00883 1 1.00929 0.999548
0.995951 0.997474 0.998514 0.999958
0.977935 0.975671 1.00424 0.998093
0.984763 0.999633 0.985307 0.999816
1.0085 1.002 1.0074 0.999088
0.967387 0.982741 0.985104 0.999261
1.01113 1.01321 0.997988 0.999955
1.00111 1.01161 0.989695 0.999925
0.999702 1 1 0.999702
1.00948 1.00958 0.999921 0.999975
1.00752 1.00932 0.99823 0.999981
1.00734 0.999985 1.00764 0.999719
0.996798 0.996431 1.00061 0.999755
0.98967 0.986443 1.00511 0.998174
1.00289 1.01443 0.988694 0.999932
0.984155 0.99612 0.988449 0.999533
0.999754 1 1 0.999754
1.00136 1.00152 0.99984 0.999998
1.00443 1.00605 0.998399 0.999991
1.00019 1.01373 0.986705 0.999939
1.00479 0.996668 1.00824 0.999912
0.983112 0.982609 1.00209 0.998429
0.982071 0.997467 0.984938 0.999621
0.999899 1 1.00027 0.999631
1.00071 1 1.00109 0.999616
1.00322 1 1.00355 0.999665
0.999751 1 1 0.999751
0.999676 1 1 0.999676
1.00097 1 1.00138 0.999596
0.999698 1 1 0.999698
0.999935 1 1.00033 0.99961
1.00087 1 1.00126 0.999603
0.999979 1 1.00035 0.999625
0.999639 1 1 0.999639
0.99971 1 1 0.99971
0.999734 1 1 0.999734
0.999695 1 1 0.999695
0.999671 1 1 0.999671
0.999683 1 1 0.999683
0.999661 1 1 0.999661
0.999697 1 1 0.999697
0.999831 1 1.00019 0.99964
0.999702 1 1 0.999702
0.999712 1 1 0.999712
0.99967 1 1 0.99967
0.999735 1 1 0.999735
0.99978 1 1 0.99978
0.999722 1 1 0.999722
0.999802 1 1 0.999802
0.999772 1 1 0.999772
0.999766 1 1 0.999766
0.999745 1 1 0.999745
0.999787 1 1 0.999787
0.999868 1 1 0.999868
0.99979 1 1 0.99979
0.999875 1 1 0.999875
0.999982 1 1 0.999982
0.999886 1 1 0.999886
0.999984 1 1 0.999984
1 1 1 1
0.999986 1 1 0.999986
1 1 1 1
1 1 1 1
1 1 1 1
1 1 1 1
1 1 1 1
0.999898 1 1 0.999898
0.999985 1 1 0.999985
0.999926 1 1 0.999926
1 1 1 1
0.999994 1 1 0.999994
0.999929 1 1 0.999929
1 1 1 1
1 1 1 1
1 1 1 1
1 1 1 1
1 1 1 1
1 1 1 1
1.00751 1.00769 0.999842 0.99998
0.992192 0.995827 0.996425 0.999923
0.966627 0.970468 0.996736 0.999304
0.999808 1 1 0.999808
1.00721 1.00803 0.999196 0.999984
1.00882 1.01105 0.997833 0.999965
0.979993 0.988868 0.991107 0.999917
0.994347 0.998177 0.99669 0.999471
0.976073 0.971501 1.00643 0.998291
0.962335 0.972632 0.98969 0.99972
0.9825 1.00195 0.98067 0.999914
0.994954 1.00777 0.987928 0.999342
0.976674 0.97387 1.00467 0.998215
0.969687 0.98656 0.983377 0.999512
0.997164 1.01499 0.98251 0.99993
0.978042 1.00025 0.978478 0.9993
0.981016 0.978706 1.00459 0.997776
0.980545 0.994918 0.986267 0.999277
0.996036 1.01497 0.981436 0.999908
0.999716 1 1 0.999716
0.999752 1 1 0.999752
0.999809 1 1 0.999809
0.999761 1 1 0.999761
0.99978 1 1 0.99978
0.999817 1 1 0.999817
0.999838 1 1 0.999838
0.999856 1 1 0.999856
0.989189 1.00701 0.982747 0.999552
1.00684 1 1.00731 0.999537
0.999719 1 1 0.999719
1.0039 1 1.00438 0.999527
0.999777 1 1.00017 0.99961
0.999679 1 1 0.999679
0.999681 1 1 0.999681
0.98859 1.00979 0.97947 0.999531
0.999624 1 1 0.999624
1.00117 1 1.0016 0.999564
1.01763 1 1.01807 0.99957
0.999675 1 1 0.999675
1.00373 1.00289 1.00118 0.999661
1.01325 1 1.01363 0.99962
0.999607 1 1 0.999607
0.999636 1 1 0.999636
1.00076 1.00072 1.00004 0.999999
1.00674 1.00695 0.999807 0.999983
0.99575 0.997225 0.998555 0.999966
0.999709 1 1 0.999709
1.00775 0.999979 1.00814 0.999632
1.01042 1.01045 0.999995 0.999975
0.986174 0.980777 1.00733 0.998191
1.0008 1.0003 1.00118 0.999325
0.979125 0.993577 0.986099 0.999346
1.00804 1.00991 0.99816 0.999982
1.00618 1.01452 0.991835 0.999947
0.999746 1 1 0.999746
1.00095 1.00104 0.999915 0.999998
1.00309 1.00428 0.998817 0.999993
1.00275 0.996126 1.00671 0.999941
1.00011 1.01403 0.986344 0.999927
0.982609 0.985799 0.99819 0.998572
0.978942 0.994508 0.985083 0.999254
1.00463 0.998768 1.00608 0.999798
0.998805 0.99839 1.00041 1
1.00802 1.00819 0.999851 0.999983
0.986263 1.00355 0.982858 0.999915
0.981444 0.992595 0.989472 0.999287
0.995816 0.992867 1.00283 1.00014
0.9768 0.980698 0.997578 0.998444
1.00049 1 1.00089 0.999603
1.00233 1 1.00268 0.999657
1.01224 1 1.01262 0.999625
0.9997 1 1 0.9997
0.999975 1 1.00037 0.999609
1.00113 1 1.00154 0.999591
0.99964 1 1 0.99964
1.00006 1 1.00043 0.999622
1.003 1 1.00337 0.999627
0.999671 1 1 0.999671
0.999682 1 1 0.999682
0.999837 1 1.00018 0.999658
1.00142 1 1.00181 0.999612
0.999714 1 1 0.999714
0.999761 1 1.00011 0.999648
0.999865 1 1.00026 0.999606
0.999668 1 1 0.999668
0.999712 1 1 0.999712
0.999665 1 1 0.999665
0.999761 1 1 0.999761
0.99978 1 1 0.99978
0.999741 1 1 0.999741
0.999814 1 1 0.999814
0.999779 1 1 0.999779
0.999723 1 1 0.999723
0.999869 1 1 0.999869
0.9998 1 1 0.9998
0.999769 1 1 0.999769
0.999791 1 1 0.999791
0.999869 1 1 0.999869
0.999977 1 1 0.999977
0.999875 1 1 0.999875
0.999981 1 1 0.999981
1 1 1 1
0.999983 1 1 0.999983
1 1 1 1
1 1 1 1
1 1 1 1
1 1 1 1
1 1 1 1
0.999883 1 1 0.999883
0.999978 1 1 0.999978
0.999904 1 1 0.999904
1 1 1 1
0.999985 1 1 0.999985
0.999926 1 1 0.999926
1 1 1 1
1 1 1 1
0.999988 1 1 0.999988
1 1 1 1
1 1 1 1
1 1 1 1
1.00209 1.00201 1.00009 0.999997
1.00735 1.00761 0.999762 0.99998
0.993791 0.996592 0.997268 0.999921
0.999811 1 1 0.999811
0.999793 1 1 0.999793
0.99976 1 1 0.99976
1.00304 1.00569 0.997371 0.999992
1.00739 1.00848 0.998934 0.999985
1.01044 1.01173 0.99876 0.999964
0.998229 1.01157 0.987022 0.99979
0.976062 0.972618 1.00536 0.99819
0.968229 0.985132 0.983552 0.999279
0.999869 1.01582 0.984362 0.999935
0.976131 0.998165 0.978172 0.999748
0.984505 0.980426 1.0059 0.99827
0.983741 0.999967 0.984101 0.999667
0.998976 1.0152 0.984086 0.999927
0.974919 0.993749 0.981185 0.999864
0.981276 0.981804 1.00111 0.99835
0.983467 1.00014 0.983775 0.999551
0.996092 1.01207 0.984272 0.999944
0.999703 1 1 0.999703
0.999716 1 1 0.999716
0.999748 1 1 0.999748
0.99976 1 1 0.99976
0.999787 1 1 0.999787
0.999841 1 1 0.999841
0.989541 1.00883 0.981345 0.999529
1.0175 1 1.01794 0.999566
0.999682 1 1 0.999682
1.00187 1 1.00231 0.999562
0.999624 1 1 0.999624
0.999674 1 1 0.999674
0.999632 1 1 0.999632
1.0006 1.0039 0.997063 0.999652
0.999612 1 1 0.999612
1.01375 1 1.01412 0.999633
0.999636 1 1 0.999636
1.02078 0.999557 1.02147 0.999766
1.00013 1 1.00044 0.999699
0.999602 1 1 0.999602
0.998781 0.998681 1.0001 1
1.00024 1.00021 1.00003 1
1.00634 1.00648 0.999875 0.999984
0.999737 1 1 0.999737
1.0014 0.995452 1.00599 0.999986
1.00052 1.00054 0.999982 0.999999
0.987455 0.989108 0.99916 0.999168
0.985138 1.00088 0.984614 0.999657
1.00191 1.00268 0.999238 0.999996
1.00263 1.01498 0.987903 0.999933
1.00392 0.99937 1.00474 0.999808
0.998803 0.998448 1.00035 1
1.00828 1.00866 0.999637 0.999983
0.996839 0.992786 1.00433 0.999751
0.984793 1.00326 0.981671 0.999919
0.983885 0.997639 0.986528 0.999682
0.977258 0.980715 0.99801 0.998462
1.01548 1 1.0156 0.999885
1.002 1.00194 1.00007 0.999996
1.00848 1.01076 0.997784 0.999962
0.968147 0.984541 0.983448 0.999899
0.973834 0.985568 0.988361 0.999731
0.990526 0.985891 1.00633 0.998379
0.978472 0.99146 0.987286 0.999609
1.00132 1 1.00167 0.999649
1.0134 1 1.01377 0.999629
1.01935 1 1.01973 0.999629
0.999641 1 1 0.999641
1.00017 1 1.00055 0.999619
1.00243 1 1.00281 0.999628
1.01024 1 1.01067 0.999568
0.999973 1 1.00032 0.999655
1.00172 1 1.00211 0.999603
1.00379 1 1.00425 0.999544
0.999656 1 1 0.999656
1.00018 1 1.00058 0.999604
0.999933 1 1.00035 0.999586
0.999643 1 1 0.999643
0.999729 1 1 0.999729
0.999661 1 1 0.999661
0.999659 1 1 0.999659
0.99979 1 1 0.99979
0.999767 1 1 0.999767
0.999812 1 1 0.999812
0.999785 1 1 0.999785
0.999747 1 1 0.999747
0.999874 1 1 0.999874
0.999815 1 1 0.999815
0.999778 1 1 0.999778
0.999973 1 1 0.999973
0.999869 1 1 0.999869
0.999797 1 1 0.999797
0.999869 1 1 0.999869
0.999976 1 1 0.999976
1 1 1 1
0.99998 1 1 0.99998
1 1 1 1
1 1 1 1
1 1 1 1
1 1 1 1
1 1 1 1
0.999883 1 1 0.999883
0.999986 1 1 0.999986
0.999888 1 1 0.999888
1 1 1 1
0.999985 1 1 0.999985
0.999909 1 1 0.999909
1 1 1 1
1 1 1 1
0.999984 1 1 0.999984
1 1 1 1
1 1 1 1
1 1 1 1
0.998941 0.998412 1.00053 1
1.00181 1.00171 1.00011 0.999997
1.00707 1.0075 0.999594 0.999981
0.999791 1 1 0.999791
0.999764 1 1 0.999764
0.999814 1 1 0.999814
0.999793 1 1 0.999793
0.999754 1 1 0.999754
0.999749 1 1 0.999749
0.99972 1 1 0.99972
1.00555 1.00746 0.998122 0.999983
1.00217 1.00421 0.997972 0.999994
1.0075 1.00892 0.998609 0.999985
1.00199 1.01534 0.98691 0.999947
0.980608 1.00338 0.978012 0.999278
0.985789 0.980265 1.00693 0.998718
0.978774 0.997102 0.982381 0.999224
0.979551 0.993435 0.986433 0.999585
0.986635 0.985958 1.00237 0.998321
0.981372 0.997988 0.984136 0.999202
0.994419 1.01178 0.982925 0.99992
0.987665 0.989864 0.997858 0.999921
0.979547 0.985865 0.995292 0.998291
0.986266 1.00331 0.983342 0.999662
0.988848 1.0048 0.984191 0.999932
0.999684 1 1 0.999684
0.999702 1 1 0.999702
0.999717 1 1 0.999717
0.999759 1 1 0.999759
0.996682 1.00489 0.992182 0.999644
1.01461 1 1.01497 0.999646
0.999673 1 1 0.999673
0.999629 1 1 0.999629
0.999618 1 1 0.999618
0.999641 1 1 0.999641
0.999599 1 1 0.999599
1.01163 0.997643 1.01424 0.999781
1.00016 1 1.00044 0.999719
0.999598 1 1 0.999598
1.0243 0.994144 1.03044 0.999897
1.00352 1 1.00395 0.999572
1.00067 1.00065 1.00002 0.999999
0.99897 0.998919 1.00005 1
0.999721 0.999697 1.00002 1
1.0035 1 1.00369 0.999817
0.997064 0.992126 1.00488 1.0001
0.998803 0.998519 1.00028 1
0.977728 0.9808 0.998459 0.998407
0.978578 0.994981 0.984262 0.999241
1.00843 1.00912 0.999328 0.999984
0.98554 1.00172 0.983937 0.999912
1.01686 0.99963 1.01737 0.99987
1.00171 1.00163 1.00008 0.999997
1.00989 1.01141 0.998537 0.999962
0.982849 0.994019 0.988675 1.00009
0.96685 0.983712 0.982951 0.999907
0.970483 0.984116 0.986637 0.999503
0.992342 0.98489 1.00906 0.998523
1.00429 1 1.00443 0.999858
1.00786 1.00782 1.00006 0.999978
0.986247 0.992973 0.993277 0.999948
0.956591 0.967422 0.989115 0.999686
0.983488 0.978418 1.00698 0.998216
0.975855 0.997184 0.979176 0.999423
1.01475 1 1.01513 0.999633
1.01989 1 1.02027 0.999627
1.0201 1 1.02054 0.999574
1.00192 1 1.0023 0.999628
1.01069 1 1.01112 0.999576
1.00783 1 1.00833 0.999501
1.0022 1 1.0026 0.999594
1.00392 1 1.00439 0.999535
1.0023 1 1.00278 0.999522
1.00058 1 1.00098 0.999601
1.00005 1 1.00048 0.999578
0.999947 1 1.00035 0.999595
0.999654 1 1 0.999654
0.999696 1 1 0.999696
0.999638 1 1 0.999638
0.999773 1 1 0.999773
0.999734 1 1 0.999734
0.999654 1 1 0.999654
0.99981 1 1 0.99981
0.999787 1 1 0.999787
0.999773 1 1 0.999773
0.999872 1 1 0.999872
0.999815 1 1 0.999815
0.99979 1 1 0.99979
0.99997 1 1 0.99997
0.999874 1 1 0.999874
0.999815 1 1 0.999815
1 1 1 1
0.999973 1 1 0.999973
0.99987 1 1 0.99987
0.999976 1 1 0.999976
1 1 1 1
1 1 1 1
1 1 1 1
1 1 1 1
1 1 1 1
0.999795 1 1 0.999795
0.999871 1 1 0.999871
0.999981 1 1 0.999981
0.999882 1 1 0.999882
1 1 1 1
0.999988 1 1 0.999988
0.999894 1 1 0.999894
1 1 1 1
1 1 1 1
0.999992 1 1 0.999992
1 1 1 1
1 1 1 1
1 1 1 1
1.00127 1.00131 0.99997 0.999998
0.998939 0.998465 1.00047 1
1.00155 1.0014 1.00015 0.999998
0.999794 1 1 0.999794
0.99976 1 1 0.99976
0.999761 1 1 0.999761
0.999752 1 1 0.999752
0.999743 1 1 0.999743
0.999792 1 1 0.999792
0.999747 1 1 0.999747
0.999749 1 1 0.999749
0.99972 1 1 0.99972
0.999719 1 1 0.999719
1.00817 1.00888 0.999334 0.999959
1.00623 1.00834 0.997924 0.999983
1.00112 1.00258 0.998552 0.999996
0.995349 1.01151 0.984108 0.999916
0.986753 1.00327 0.983926 0.999605
0.984253 0.993279 0.991553 0.999354
0.980459 0.983544 0.998462 0.998399
0.991878 0.989184 1.00327 0.999458
0.979016 0.983011 0.997586 0.998345
0.98387 0.999578 0.98481 0.999467
0.98661 1.00397 0.982776 0.999931
1.01204 0.986693 1.0262 0.999499
0.984141 0.984887 1.00085 0.998396
0.967419 0.984873 0.982993 0.999273
0.968571 0.987927 0.980496 0.99991
0.999716 1 1 0.999716
0.999687 1 1 0.999687
0.999701 1 1 0.999701
1.00357 0.995969 1.00784 0.999796
1.00015 1 1.00041 0.99974
0.999646 1 1 0.999646
0.999595 1 1 0.999595
0.999635 1 1.00003 0.999601
1.004 1 1.00444 0.999566
1.02432 0.995729 1.02882 0.999897
1.00394 1 1.00435 0.999586
1.01278 0.999006 1.01406 0.999735
1.00693 1.00695 1 0.999981
1.00018 1.00016 1.00002 1
0.999172 0.999156 1.00001 1
1.01795 0.999233 1.01888 0.999856
0.985369 0.993016 0.992689 0.999607
1.00144 1.00131 1.00013 0.999998
0.983542 0.982387 1.00325 0.997929
0.969925 0.983667 0.986755 0.999265
1.01136 1.01208 0.999335 0.999961
0.966621 0.983687 0.982735 0.999914
1.00511 1 1.00524 0.999865
1.00776 1.00774 1.00004 0.999978
0.983245 0.989964 0.993269 0.999944
0.972003 0.994343 0.977843 0.999683
0.959301 0.970487 0.9892 0.999266
0.986547 0.980297 1.00846 0.99793
0.98501 1.00028 0.984974 0.999754
0.996132 0.997458 0.998713 0.999958
0.957377 0.966439 0.99135 0.999266
0.976467 0.973767 1.00465 0.998136
0.974582 1.00011 0.974771 0.999696
1.01996 1 1.02034 0.999625
1.02147 1 1.02191 0.999573
1.01172 1 1.01222 0.999512
1.01094 1 1.01136 0.999585
1.00737 1 1.00787 0.999506
1.00181 1 1.0023 0.999516
1.00381 1 1.00429 0.999525
1.00167 1 1.00214 0.999525
0.999617 1 1 0.999617
1.00005 1 1.00048 0.99957
0.999743 1 1.00014 0.9996
0.999676 1 1 0.999676
0.999703 1 1 0.999703
0.99968 1 1 0.99968
0.999656 1 1 0.999656
0.999743 1 1 0.999743
0.999687 1 1 0.999687
0.999633 1 1 0.999633
0.999811 1 1 0.999811
0.999778 1 1 0.999778
0.99974 1 1 0.99974
0.999863 1 1 0.999863
0.999809 1 1 0.999809
0.999784 1 1 0.999784
0.999967 1 1 0.999967
0.999872 1 1 0.999872
0.999818 1 1 0.999818
1 1 1 1
0.999971 1 1 0.999971
0.999875 1 1 0.999875
1 1 1 1
1 1 1 1
0.999973 1 1 0.999973
1 1 1 1
1 1 1 1
1 1 1 1
0.99979 1 1 0.99979
0.999862 1 1 0.999862
0.999792 1 1 0.999792
0.999976 1 1 0.999976
0.999871 1 1 0.999871
1 1 1 1
0.999983 1 1 0.999983
0.999882 1 1 0.999882
1 1 1 1
1 1 1 1
0.999989 1 1 0.999989
1 1 1 1
1 1 1 1
1 1 1 1
1.00703 1.00705 1 0.999976
1.00091 1.0009 1.00001 0.999998
0.998938 0.998527 1.00041 1
0.999771 1 1 0.999771
0.999796 1 1 0.999796
0.999756 1 1 0.999756
0.999756 1 1 0.999756
0.999765 1 1 0.999765
0.999744 1 1 0.999744
0.999739 1 1 0.999739
0.99973 1 1 0.99973
0.99975 1 1 0.99975
0.99972 1 1 0.99972
0.999719 1 1 0.999719
0.999712 1 1 0.999712
0.982516 0.990944 0.991569 0.999926
1.00899 1.0098 0.999236 0.999957
1.00714 1.00943 0.997744 0.999984
0.987084 1.00279 0.984415 0.999917
0.980149 0.997361 0.983464 0.999266
0.978467 0.984964 0.995101 0.998295
0.993925 0.985865 1.00822 0.99996
1.01328 0.986629 1.02703 0.999976
0.967158 0.984652 0.982312 0.999919
0.986198 0.986634 1.00145 0.998109
0.967791 0.983124 0.984664 0.999736
1.00405 0.994097 1.01009 0.999926
0.983739 0.980115 1.00534 0.998364
0.954842 0.965864 0.988848 0.999738
1.00017 1 1.00041 0.999764
0.999716 1 1 0.999716
0.99969 1 1 0.99969
1.0244 0.997463 1.02711 0.999897
1.00462 1 1.00506 0.99956
0.999656 1 1.00005 0.999605
1.00423 1 1.00465 0.99959
1.01182 0.999584 1.01251 0.999736
1.00908 1 1.00935 0.999741
0.994543 0.997207 0.997409 0.99992
1.00621 1.00623 1 0.999982
0.999678 0.999665 1.00001 1
1.00567 1 1.0058 0.999873
0.972183 0.995955 0.976263 0.999865
1.00755 1.00763 0.999943 0.999979
0.990722 0.981841 1.01036 0.998699
0.962485 0.972098 0.990398 0.999711
0.980429 0.989138 0.99128 0.999914
0.983429 1.00103 0.982657 0.999754
0.992788 0.996256 0.996599 0.99992
0.960325 0.967138 0.993236 0.999718
0.974722 1.00063 0.97484 0.999251
0.979172 0.97607 1.00501 0.998179
0.978425 1.00817 0.970917 0.999565
0.964179 0.97047 0.993815 0.999702
0.974117 0.973214 1.00262 0.998315
0.978887 1.00471 0.975038 0.999246
1.02339 1 1.02383 0.999572
1.01123 1 1.01173 0.99951
1.00261 1 1.00305 0.999562
1.00715 1 1.00765 0.99951
1.00177 1 1.00225 0.999519
0.999694 1 1 0.999694
1.00119 1 1.00166 0.999528
0.999647 1 1.00002 0.999624
0.999763 1 1 0.999763
0.999605 1 1 0.999605
0.999678 1 1 0.999678
0.999766 1 1 0.999766
0.999765 1 1 0.999765
0.999707 1 1 0.999707
0.999708 1 1 0.999708
0.99972 1 1 0.99972
0.999686 1 1 0.999686
0.999659 1 1 0.999659
0.999796 1 1 0.999796
0.999742 1 1 0.999742
0.999679 1 1 0.999679
0.999858 1 1 0.999858
0.999811 1 1 0.999811
0.999784 1 1 0.999784
0.99996 1 1 0.99996
0.999864 1 1 0.999864
0.999809 1 1 0.999809
1 1 1 1
0.999967 1 1 0.999967
0.999871 1 1 0.999871
1 1 1 1
1 1 1 1
0.999971 1 1 0.999971
1 1 1 1
1 1 1 1
1 1 1 1
0.999801 1 1 0.999801
0.999792 1 1 0.999792
0.999856 1 1 0.999856
0.99997 1 1 0.99997
0.999862 1 1 0.999862
0.99979 1 1 0.99979
1 1 1 1
0.999977 1 1 0.999977
0.999871 1 1 0.999871
1 1 1 1
1 1 1 1
0.999984 1 1 0.999984
1 1 1 1
1 1 1 1
1 1 1 1
0.994198 0.996012 0.998216 0.999963
1.0081 1.00813 1 0.999976
1.00052 1.00048 1.00004 0.999999
0.999768 1 1 0.999768
0.999781 1 1 0.999781
0.999753 1 1 0.999753
0.999761 1 1 0.999761
0.999768 1 1 0.999768
0.999744 1 1 0.999744
0.999732 1 1 0.999732
0.999741 1 1 0.999741
0.999722 1 1 0.999722
0.999723 1 1 0.999723
0.999719 1 1 0.999719
0.999713 1 1 0.999713
0.960143 0.966836 0.993339 0.999737
0.98189 0.989855 0.992013 0.99994
1.00991 1.0108 0.999163 0.999956
0.966185 0.981966 0.984001 0.999928
0.963557 0.98168 0.982234 0.999292
0.989887 0.989671 1.00143 0.998789
1.01855 0.986922 1.03258 0.999487
1.00448 0.993978 1.01113 0.999444
0.955015 0.967387 0.987873 0.999328
0.987602 0.983898 1.0052 0.998576
0.998984 0.993785 1.00582 0.999412
0.979143 0.976729 1.00413 0.998351
1.00788 1 1.00818 0.999702
1.00003 1 1.00027 0.999765
0.999717 1 1 0.999717
1.01063 1 1.0109 0.999736
1.00453 1 1.00494 0.999594
1.00862 1 1.00888 0.999744
1.00158 1.00053 1.00136 0.999689
0.966171 0.97341 0.992925 0.999635
0.995288 0.997099 0.998242 0.999941
1.00549 1.00551 1 0.999983
0.981161 1.00122 0.980207 0.999754
0.973654 0.999231 0.974643 0.999754
0.994284 0.997008 0.99735 0.999918
0.978241 0.974576 1.0056 0.998169
0.958776 0.967428 0.99177 0.999282
0.978823 1.00739 0.972043 0.999588
0.964939 0.970918 0.99436 0.999479
0.974885 0.972148 1.00458 0.998245
0.977248 1.00362 0.974013 0.999704
0.980592 1.01242 0.96905 0.999499
0.965442 0.967187 1.00026 0.997938
0.990487 1.00177 0.988936 0.999797
1.01081 1 1.0113 0.999507
1.00235 1 1.00279 0.999556
0.999188 1.00021 0.999258 0.999723
1.00164 1 1.00212 0.999522
0.999603 1 0.999906 0.999696
0.99929 1 0.999403 0.999888
0.999631 1 1 0.999631
0.999764 1 1 0.999764
0.999856 1 1 0.999856
0.999681 1 1 0.999681
0.999766 1 1 0.999766
0.999814 1 1 0.999814
0.999792 1 1 0.999792
0.999771 1 1 0.999771
0.999755 1 1 0.999755
0.999729 1 1 0.999729
0.999708 1 1 0.999708
0.999714 1 1 0.999714
0.999766 1 1 0.999766
0.999727 1 1 0.999727
0.999692 1 1 0.999692
0.999849 1 1 0.999849
0.999796 1 1 0.999796
0.999741 1 1 0.999741
0.999951 1 1 0.999951
0.999859 1 1 0.999859
0.99981 1 1 0.99981
1 1 1 1
0.999959 1 1 0.999959
0.999864 1 1 0.999864
1 1 1 1
1 1 1 1
0.999966 1 1 0.999966
1 1 1 1
1 1 1 1
1 1 1 1
0.999805 1 1 0.999805
0.999796 1 1 0.999796
0.999851 1 1 0.999851
0.999794 1 1 0.999794
0.999855 1 1 0.999855
0.999961 1 1 0.999961
1 1 1 1
0.99997 1 1 0.99997
0.999862 1 1 0.999862
1 1 1 1
1 1 1 1
0.999978 1 1 0.999978
1 1 1 1
1 1 1 1
1 1 1 1
0.968129 0.971645 0.997045 0.999334
0.992832 0.995441 0.997433 0.999945
1.00917 1.00919 1 0.999975
0.999765 1 1 0.999765
0.999753 1 1 0.999753
0.999784 1 1 0.999784
0.999786 1 1 0.999786
0.999759 1 1 0.999759
0.999734 1 1 0.999734
0.999743 1 1 0.999743
0.999723 1 1 0.999723
0.999748 1 1 0.999748
0.999714 1 1 0.999714
0.999954 1 1.00026 0.999697
0.999718 1 1 0.999718
0.999713 1 1 0.999713
0.975686 0.97684 1.00086 0.997957
0.962979 0.969151 0.994093 0.999536
0.982315 0.990522 0.991788 0.999926
0.955059 0.967615 0.987264 0.999758
0.983786 0.979841 1.00619 0.997854
1.00729 0.994747 1.01267 0.999935
0.999686 0.994807 1.00524 0.999661
0.979804 0.977648 1.00381 0.998402
0.993534 0.999114 0.994911 0.999501
1.00599 1.00118 1.00531 0.999496
1.00616 1 1.00647 0.999695
0.999765 1 1 0.999765
1.00668 1 1.00693 0.999747
1.00076 1.00079 1.00021 0.999762
0.961659 0.965271 0.997893 0.998361
0.967164 0.972818 0.994885 0.999299
0.995834 0.996958 0.998909 0.999963
0.979189 1.00691 0.972852 0.999611
0.980732 1.00835 0.973349 0.999239
0.967514 0.971214 0.996893 0.999296
0.976582 0.971796 1.00665 0.998283
0.980078 1.01103 0.969876 0.999494
0.968752 0.96889 1.00149 0.998365
0.987913 1.0042 0.984442 0.99933
0.977645 1.00986 0.968532 0.999553
0.998329 0.993014 1.00554 0.999812
1.00184 1 1.00229 0.999551
0.998071 1.00018 0.998175 0.999719
0.996885 1.00035 0.996675 0.999857
0.999436 1 0.999738 0.999699
0.999037 1 0.999151 0.999886
0.999012 1 0.999095 0.999917
0.999765 1 1 0.999765
0.999852 1 1 0.999852
0.999848 1 1 0.999848
0.999766 1 1 0.999766
0.99981 1 1 0.99981
0.999801 1 1 0.999801
0.999799 1 1 0.999799
0.999772 1 1 0.999772
0.999777 1 1 0.999777
0.999754 1 1 0.999754
0.999748 1 1 0.999748
0.999753 1 1 0.999753
0.999727 1 1 0.999727
0.99971 1 1 0.99971
0.999829 1 1 0.999829
0.99977 1 1 0.99977
0.999733 1 1 0.999733
0.99994 1 1 0.99994
0.999848 1 1 0.999848
0.999795 1 1 0.999795
1 1 1 1
0.99995 1 1 0.99995
0.999859 1 1 0.999859
1 1 1 1
1 1 1 1
0.999959 1 1 0.999959
1 1 1 1
1 1 1 1
1 1 1 1
0.999799 1 1 0.999799
0.999805 1 1 0.999805
0.999843 1 1 0.999843
0.99979 1 1 0.99979
0.999847 1 1 0.999847
0.999953 1 1 0.999953
0.999855 1 1 0.999855
0.999961 1 1 0.999961
1 1 1 1
1 1 1 1
1 1 1 1
0.99997 1 1 0.99997
1 1 1 1
1 1 1 1
1 1 1 1
0.969437 0.970669 1.00031 0.998423
0.967522 0.973399 0.99428 0.999682
0.994563 0.996506 0.998089 0.999961
0.999753 1 1 0.999753
0.999786 1 1 0.999786
0.999761 1 1 0.999761
0.999786 1 1 0.999786
0.99978 1 1 0.99978
0.99977 1 1 0.99977
0.999724 1 1 0.999724
0.999746 1 1 0.999746
0.999716 1 1 0.999716
0.999743 1 1 0.999743
0.999707 1 1 0.999707
0.999654 1 1.00011 0.999539
0.999752 1 1.00006 0.999695
0.999713 1 1 0.999713
0.991223 0.994047 0.997349 0.99981
0.972502 0.973864 1.00024 0.998365
0.960183 0.968049 0.992562 0.999308
0.977292 0.97533 1.00371 0.998308
0.99877 0.994711 1.00416 0.999923
0.993648 0.997075 0.996704 0.999859
0.997064 1.00419 0.993392 0.999511
1.00335 1.00045 1.00339 0.999523
1.00525 1 1.00557 0.999688
0.998357 1.00067 0.99786 0.999832
0.988193 0.986386 1.00245 0.999387
0.965702 0.966874 1.00035 0.998437
0.967224 0.973344 0.994024 0.999687
0.979735 1.00946 0.97105 0.999489
0.991199 1.00773 0.983817 0.999772
0.969939 0.96849 1.00269 0.998809
0.979752 1.00757 0.972823 0.999554
0.993839 0.993984 1.00021 0.999645
0.984206 1.00293 0.981634 0.999692
1.00207 1 1.00249 0.999588
0.996812 1.00003 0.997066 0.999716
0.996266 1.00012 0.99629 0.999858
0.997154 1 0.997308 0.999845
0.998923 1 0.999038 0.999884
0.999127 1 0.999214 0.999913
0.999621 1 0.999799 0.999822
0.999847 1 1 0.999847
0.999844 1 1 0.999844
0.999777 1 1 0.999777
0.999807 1 1 0.999807
0.999803 1 1 0.999803
0.999759 1 1 0.999759
0.999806 1 1 0.999806
0.999776 1 1 0.999776
0.999751 1 1 0.999751
0.999753 1 1 0.999753
0.999747 1 1 0.999747
0.999761 1 1 0.999761
0.999804 1 1 0.999804
0.999757 1 1 0.999757
0.999726 1 1 0.999726
0.999923 1 1 0.999923
0.999829 1 1 0.999829
0.999774 1 1 0.999774
1 1 1 1
0.999939 1 1 0.999939
0.999848 1 1 0.999848
1 1 1 1
1 1 1 1
0.99995 1 1 0.99995
1 1 1 1
1 1 1 1
1 1 1 1
0.999796 1 1 0.999796
0.999803 1 1 0.999803
0.999839 1 1 0.999839
0.999806 1 1 0.999806
0.999842 1 1 0.999842
0.999946 1 1 0.999946
0.999843 1 1 0.999843
0.999953 1 1 0.999953
1 1 1 1
0.999961 1 1 0.999961
1 1 1 1
1 1 1 1
1 1 1 1
1 1 1 1
1 1 1 1
0.984649 0.986272 0.998582 0.999772
0.965217 0.967849 0.998896 0.998384
0.965024 0.97209 0.993427 0.9993
0.999765 1 1 0.999765
0.999762 1 1 0.999762
0.999787 1 1 0.999787
0.999769 1 1 0.999769
0.999779 1 1 0.999779
0.999787 1 1 0.999787
0.999744 1 1 0.999744
0.999717 1 1 0.999717
0.999748 1 1 0.999748
0.999723 1 1 0.999723
0.999628 1 1 0.999628
0.999412 1 1 0.999412
0.999675 1 1.00013 0.999547
0.999693 1 1 0.999693
0.996704 1.00028 0.996891 0.999529
0.991947 0.995444 0.996885 0.9996
0.974331 0.974818 1.00072 0.998784
0.996906 0.998583 0.998894 0.999426
1.00104 1.00431 0.997311 0.999429
1.00286 1 1.00331 0.999552
0.999829 1 1.00002 0.999809
0.989062 0.985341 1.00397 0.999803
0.963118 0.966694 0.997922 0.998377
0.981733 1.0052 0.97709 0.999554
0.990262 0.994544 0.996232 0.99946
0.987903 1.00209 0.986168 0.999674
1.00104 1 1.0014 0.999641
0.999193 1 0.999557 0.999635
0.999598 1 1 0.999598
0.99581 1 0.995951 0.999858
0.997984 1 0.998138 0.999846
0.999736 1 1 0.999736
0.999292 1 0.999384 0.999908
0.999777 1 0.999957 0.99982
0.999727 1 1 0.999727
0.999839 1 1 0.999839
0.999783 1 1 0.999783
0.999715 1 1 0.999715
0.999804 1 1 0.999804
0.999759 1 1 0.999759
0.999733 1 1 0.999733
0.99978 1 1 0.99978
0.999753 1 1 0.999753
0.999752 1 1 0.999752
0.999745 1 1 0.999745
0.999758 1 1 0.999758
0.999796 1 1 0.999796
0.999904 1 1 0.999904
0.999808 1 1 0.999808
0.999761 1 1 0.999761
1 1 1 1
0.999923 1 1 0.999923
0.999829 1 1 0.999829
1 1 1 1
1 1 1 1
0.999939 1 1 0.999939
1 1 1 1
1 1 1 1
1 1 1 1
0.999782 1 1 0.999782
0.999797 1 1 0.999797
0.999838 1 1 0.999838
0.999807 1 1 0.999807
0.999842 1 1 0.999842
0.999938 1 1 0.999938
0.999842 1 1 0.999842
0.999946 1 1 0.999946
1 1 1 1
0.999953 1 1 0.999953
1 1 1 1
1 1 1 1
1 1 1 1
1 1 1 1
1 1 1 1
0.99791 1.00019 0.997952 0.99977
0.984987 0.987573 0.998008 0.999372
0.966257 0.968098 0.999659 0.998439
0.999772 1 1 0.999772
0.999724 1 1 0.999724
0.999768 1 1 0.999768
0.999769 1 1 0.999769
0.999778 1 1 0.999778
0.999783 1 1 0.999783
0.999664 1 1 0.999664
0.999752 1 1 0.999752
0.999738 1 1 0.999738
0.999629 1 1 0.999629
0.999489 1 1 0.999489
0.999573 1 1 0.999573
0.999423 1 1 0.999423
0.999554 1 1 0.999554
0.998618 1.00188 0.997203 0.999543
0.99075 0.994916 0.996435 0.999375
1.00263 1.00398 0.999309 0.999348
0.999806 1 1 0.999806
1.00098 1 1.00116 0.999816
0.987429 0.98512 1.00298 0.999366
0.991949 1.00154 0.990765 0.999657
1.00004 1 1.00034 0.999695
0.998885 1.00005 0.999187 0.999646
0.999623 1 1 0.999623
0.99964 1 1 0.99964
0.999748 1 1 0.999748
0.998794 1 0.998947 0.999847
0.99974 1 1 0.99974
0.999658 1 1 0.999658
0.999818 1 1 0.999818
0.999728 1 1 0.999728
0.999672 1 1 0.999672
0.999789 1 1 0.999789
0.999715 1 1 0.999715
0.999694 1 1 0.999694
0.999759 1 1 0.999759
0.999733 1 1 0.999733
0.999733 1 1 0.999733
0.999755 1 1 0.999755
0.999752 1 1 0.999752
0.999785 1 1 0.999785
0.999754 1 1 0.999754
0.999794 1 1 0.999794
0.999887 1 1 0.999887
0.999998 1 1 0.999998
0.999904 1 1 0.999904
0.999813 1 1 0.999813
1 1 1 1
0.999999 1 1 0.999999
0.999922 1 1 0.999922
1 1 1 1
1 1 1 1
1 1 1 1
0.999749 1 1 0.999749
0.999778 1 1 0.999778
0.999826 1 1 0.999826
0.999797 1 1 0.999797
0.999837 1 1 0.999837
0.999928 1 1 0.999928
0.999845 1 1 0.999845
0.999938 1 1 0.999938
1 1 1 1
0.999946 1 1 0.999946
1 1 1 1
1 1 1 1
1 1 1 1
1 1 1 1
1 1 1 1
0.99978 1 1 0.99978
0.997756 1.00002 0.997949 0.999783
0.984353 0.986214 0.998319 0.999793
0.999699 1 1 0.999699
0.99979 1 1 0.99979
0.999658 1 1 0.999658
0.999721 1 1 0.999721
0.99977 1 1 0.99977
0.999555 1 1 0.999555
0.99978 1 1 0.99978
0.999665 1 1 0.999665
0.999558 1 1 0.999558
0.99963 1 1 0.99963
0.999475 1 1 0.999475
0.999568 1 1 0.999567
0.999434 1 1 0.999434
1.00049 1.00337 0.997579 0.999556
0.999826 1 1 0.999826
0.999803 1 1 0.999803
1.00206 1 1.00224 0.999822
0.998652 1.00008 0.998911 0.999656
0.999648 1 1 0.999648
0.999635 1 1 0.999635
0.999752 1 1 0.999752
0.999719 1 1 0.999719
0.999745 1 1 0.999745
0.999662 1 1 0.999662
0.999652 1 1 0.999652
0.999729 1 1 0.999729
0.99967 1 1 0.99967
0.999659 1 1 0.999659
0.999715 1 1 0.999715
0.999694 1 1 0.999694
0.999702 1 1 0.999702
0.999733 1 1 0.999733
0.999733 1 1 0.999733
0.999764 1 1 0.999764
0.999752 1 1 0.999752
0.999785 1 1 0.999785
0.999871 1 1 0.999871
0.999792 1 1 0.999792
0.999887 1 1 0.999887
0.999994 1 1 0.999994
1 1 1 1
0.999997 1 1 0.999997
0.999904 1 1 0.999904
1 1 1 1
0.999999 1 1 0.999999
1 1 1 1
0.999671 1 1 0.999671
0.999716 1 1 0.999716
0.999744 1 1 0.999744
0.999809 1 1 0.999809
0.999774 1 1 0.999774
0.999826 1 1 0.999826
0.999919 1 1 0.999919
0.999837 1 1 0.999837
0.999929 1 1 0.999929
1 1 1 1
0.999938 1 1 0.999938
1 1 1 1
1 1 1 1
1 1 1 1
1 1 1 1
1 1 1 1
0.99973 1 1 0.99973
0.999828 1.00006 1 0.999773
0.998091 1.00038 0.997921 0.999794
0.999599 1 1 0.999599
0.999716 1 1 0.999716
0.999807 1 1 0.999807
0.999666 1 1 0.999666
0.999718 1 1 0.999718
0.999543 1 1 0.999543
0.999546 1 1 0.999546
0.999665 1 1 0.999665
0.999553 1 1 0.999553
0.999462 1 1 0.999462
0.999672 1.00011 1 0.999562
0.999797 1 1 0.999797
0.999822 1 1 0.999822
0.9998 1 1 0.9998
0.99963 1 1 0.99963
0.999756 1 1 0.999756
0.999718 1 1 0.999718
0.999711 1 1 0.999711
0.999667 1 1 0.999667
0.999648 1 1 0.999648
0.999664 1 1 0.999664
0.999667 1 1 0.999667
0.999658 1 1 0.999658
0.999672 1 1 0.999672
0.999693 1 1 0.999693
0.999701 1 1 0.999701
0.999737 1 1 0.999737
0.999733 1 1 0.999733
0.999764 1 1 0.999764
0.99985 1 1 0.99985
0.999785 1 1 0.999785
0.999871 1 1 0.999871
0.999989 1 1 0.999989
0.999887 1 1 0.999887
0.999992 1 1 0.999992
1 1 1 1
1 1 1 1
0.999996 1 1 0.999996
1 1 1 1
0.999615 1 1 0.999615
0.999711 1 1 0.999711
0.999696 1 1 0.999696
0.999781 1 1 0.999781
0.999717 1 1 0.999717
0.99974 1 1 0.99974
0.99981 1 1 0.99981
0.999906 1 1 0.999906
0.999826 1 1 0.999826
0.999919 1 1 0.999919
0.999999 1 1 0.999999
0.999929 1 1 0.999929
1 1 1 1
1 1 1 1
1 1 1 1
1 1 1 1
1 1 1 1
0.999679 1 1 0.999679
0.99973 1 1 0.99973
0.999767 1 1 0.999767
0.99957 1 1 0.99957
0.999599 1 1 0.999599
0.999734 1 1 0.999734
0.999674 1 1 0.999674
0.999544 1 1 0.999544
0.999537 1 1 0.999537
0.999549 1 1 0.999549
0.999755 1 1 0.999755
0.999782 1 1 0.999782
0.999818 1 1 0.999818
0.999709 1 1 0.999709
0.999718 1 1 0.999718
0.999709 1 1 0.999709
0.999696 1 1 0.999696
0.999645 1 1 0.999645
0.999665 1 1 0.999665
0.999669 1 1 0.999669
0.999657 1 1 0.999657
0.999672 1 1 0.999672
0.999712 1 1 0.999712
0.9997 1 1 0.9997
0.999737 1 1 0.999737
0.999825 1 1 0.999825
0.999764 1 1 0.999764
0.99985 1 1 0.99985
0.999984 1 1 0.999984
0.999871 1 1 0.999871
0.999988 1 1 0.999988
1 1 1 1
0.999991 1 1 0.999991
1 1 1 1
1 1 1 1
0.999585 1 1 0.999585
0.999653 1 1 0.999653
0.999625 1 1 0.999625
0.999762 1 1 0.999762
0.999709 1 1 0.999709
0.999722 1 1 0.999722
0.99988 1 1 0.99988
0.999781 1 1 0.999781
0.999717 1 1 0.999717
0.99981 1 1 0.99981
0.999906 1 1 0.999906
0.999996 1 1 0.999996
0.999919 1 1 0.999919
1 1 1 1
1 1 1 1
1 1 1 1
1 1 1 1
1 1 1 1
0.99966 1 1 0.99966
0.999668 1 1 0.999668
0.99973 1 1 0.99973
0.999563 1 1 0.999563
0.9996 1 1 0.9996
0.999545 1 1 0.999545
0.99971 1 1 0.99971
0.999758 1 1 0.999758
0.999767 1 1 0.999767
0.999705 1 1 0.999705
0.999692 1 1 0.999692
0.999707 1 1 0.999707
0.999696 1 1 0.999696
0.999693 1 1 0.999693
0.999665 1 1 0.999665
0.99967 1 1 0.99967
0.999703 1 1 0.999703
0.999672 1 1 0.999672
0.999712 1 1 0.999712
0.999804 1 1 0.999804
0.999736 1 1 0.999736
0.999825 1 1 0.999825
0.999979 1 1 0.999979
0.99985 1 1 0.99985
0.999982 1 1 0.999982
1 1 1 1
0.999986 1 1 0.999986
1 1 1 1
1 1 1 1
0.999655 1 1 0.999655
0.999612 1 1 0.999612
0.999582 1 1 0.999582
0.999714 1 1 0.999714
0.999658 1 1 0.999658
0.999635 1 1 0.999635
0.999848 1 1 0.999848
0.999751 1 1 0.999751
0.999707 1 1 0.999707
0.999989 1 1 0.999989
0.99988 1 1 0.99988
0.999781 1 1 0.999781
0.999907 1 1 0.999907
0.999998 1 1 0.999998
1 1 1 1
1 1 1 1
1 1 1 1
1 1 1 1
0.999653 1 1 0.999653
0.999656 1 1 0.999656
0.999657 1 1 0.999657
0.999555 1 1 0.999555
0.99968 1 1 0.99968
0.999714 1 1 0.999714
0.999762 1 1 0.999762
0.999701 1 1 0.999701
0.999693 1 1 0.999693
0.999703 1 1 0.999703
0.999696 1 1 0.999696
0.999694 1 1 0.999694
0.99971 1 1 0.99971
0.999672 1 1 0.999672
0.999704 1 1 0.999704
0.999793 1 1 0.999793
0.999712 1 1 0.999712
0.999804 1 1 0.999804
0.999974 1 1 0.999974
0.999824 1 1 0.999824
0.999977 1 1 0.999977
1 1 1 1
0.999981 1 1 0.999981
1 1 1 1
1 1 1 1
0.999661 1 1 0.999661
0.999651 1 1 0.999651
0.999654 1 1 0.999654
0.999666 1 1 0.999666
0.999621 1 1 0.999621
0.999578 1 1 0.999578
0.999799 1 1 0.999799
0.999713 1 1 0.999713
0.999663 1 1 0.999663
0.999978 1 1 0.999978
0.999839 1 1 0.999839
0.999741 1 1 0.999741
1 1 1 1
0.999991 1 1 0.999991
0.999881 1 1 0.999881
0.999999 1 1 0.999999
1 1 1 1
1 1 1 1
0.999664 1 1 0.999664
0.999662 1 1 0.999662
0.999652 1 1 0.999652
0.999687 1 1 0.999687
0.999679 1 1 0.999679
0.999718 1 1 0.999718
0.999695 1 1 0.999695
0.999703 1 1 0.999703
0.999732 1 1 0.999732
0.999694 1 1 0.999694
0.999716 1 1 0.999716
0.999783 1 1 0.999783
0.999704 1 1 0.999704
0.999794 1 1 0.999794
0.99997 1 1 0.99997
0.999804 1 1 0.999804
0.999973 1 1 0.999973
1 1 1 1
0.999976 1 1 0.999976
1 1 1 1
1 1 1 1
0.999664 1 1 0.999664
0.999674 1 1 0.999674
0.99966 1 1 0.99966
0.999683 1 1 0.999683
0.999654 1 1 0.999654
0.999654 1 1 0.999654
0.999767 1 1 0.999767
0.999676 1 1 0.999676
0.99963 1 1 0.99963
0.999969 1 1 0.999969
0.999794 1 1 0.999794
0.999713 1 1 0.999713
1 1 1 1
0.999981 1 1 0.999981
0.99983 1 1 0.99983
1 1 1 1
0.999994 1 1 0.999994
1 1 1 1
0.999678 1 1 0.999678
0.999664 1 1 0.999664
0.999671 1 1 0.999671
0.999717 1 1 0.999717
0.999686 1 1 0.999686
0.999678 1 1 0.999678
0.999704 1 1 0.999704
0.999732 1 1 0.999732
0.999787 1 1 0.999787
0.999722 1 1 0.999722
0.999788 1 1 0.999788
0.999966 1 1 0.999966
0.999794 1 1 0.999794
0.999969 1 1 0.999969
1 1 1 1
0.999972 1 1 0.999972
1 1 1 1
1 1 1 1
0.999681 1 1 0.999681
0.999659 1 1 0.999659
0.999699 1 1 0.999699
0.999675 1 1 0.999675
0.999659 1 1 0.999659
0.999775 1 1 0.999775
0.999682 1 1 0.999682
0.999657 1 1 0.999657
0.999963 1 1 0.999963
0.999772 1 1 0.999772
0.999687 1 1 0.999687
1 1 1 1
0.999971 1 1 0.999971
0.999789 1 1 0.999789
1 1 1 1
0.999984 1 1 0.999984
1 1 1 1
0.999712 1 1 0.999712
0.999678 1 1 0.999678
0.999665 1 1 0.999665
0.999778 1 1 0.999778
0.999717 1 1 0.999717
0.999686 1 1 0.999686
0.999733 1 1 0.999733
0.999788 1 1 0.999788
0.999963 1 1 0.999963
0.999793 1 1 0.999793
0.999965 1 1 0.999965
1 1 1 1
0.999968 1 1 0.999968
1 1 1 1
1 1 1 1
0.999706 1 1 0.999706
0.999678 1 1 0.999678
0.999654 1 1 0.999654
0.999782 1 1 0.999782
0.999699 1 1 0.999699
0.999676 1 1 0.999676
0.999963 1 1 0.999963
0.999774 1 1 0.999774
0.999681 1 1 0.999681
1 1 1 1
0.999965 1 1 0.999965
0.999777 1 1 0.999777
1 1 1 1
0.999974 1 1 0.999974
1 1 1 1
0.999786 1 1 0.999786
0.999707 1 1 0.999707
0.999679 1 1 0.999679
0.999961 1 1 0.999961
0.999779 1 1 0.999779
0.999717 1 1 0.999717
0.999788 1 1 0.999788
0.999963 1 1 0.999963
1 1 1 1
0.999965 1 1 0.999965
1 1 1 1
1 1 1 1
0.999787 1 1 0.999787
0.999704 1 1 0.999704
0.999674 1 1 0.999674
0.999964 1 1 0.999964
0.999782 1 1 0.999782
0.999699 1 1 0.999699
1 1 1 1
0.999963 1 1 0.999963
0.999774 1 1 0.999774
1 1 1 1
0.999966 1 1 0.999966
1 1 1 1
0.99996 1 1 0.99996
0.999781 1 1 0.999781
0.999701 1 1 0.999701
1 1 1 1
0.99996 1 1 0.99996
0.99978 1 1 0.99978
0.999962 1 1 0.999962
1 1 1 1
1 1 1 1
0.999962 1 1 0.999962
0.999786 1 1 0.999786
0.999702 1 1 0.999702
1 1 1 1
0.999963 1 1 0.999963
0.999781 1 1 0.999781
1 1 1 1
0.999962 1 1 0.999962
1 1 1 1
1 1 1 1
0.99996 1 1 0.99996
0.999775 1 1 0.999775
1 1 1 1
0.99996 1 1 0.99996
1 1 1 1
1 1 1 1
0.999963 1 1 0.999963
0.999786 1 1 0.999786
1 1 1 1
0.999963 1 1 0.999963
1 1 1 1
1 1 1 1
0.999961 1 1 0.999961
1 1 1 1
1 1 1 1
0.999963 1 1 0.999963
1 1 1 1
1 1 1 1
1 1 1 1

VECTORS lamdaE float
0.99904 0.999437 0.99726
0.999218 0.99847 0.998983
0.99901 0.999465 0.997296
0.998918 1.00007 0.996976
0.99894 0.999788 0.997143
0.999162 0.998974 0.997448
0.999492 1.00023 0.995484
0.999246 0.998394 0.999007
0.998811 0.999743 0.998822
0.999062 0.998833 0.998963
0.999369 0.998092 0.997864
0.999492 0.999816 0.995661
0.999139 0.999992 0.996781
0.998862 1.00014 0.997049
0.998978 0.999489 0.997335
0.998875 1.00014 0.997009
0.999141 0.998967 0.997489
0.998903 0.999839 0.997176
0.999511 1.00022 0.995484
0.999052 1 0.998649
0.998966 1.00003 0.996961
0.998892 1 0.997052
0.99981 1.00024 0.994927
0.999563 1.0003 0.995298
0.999299 0.998457 0.997679
0.999425 1.00007 0.995747
1.00035 1.00099 0.993137
0.999277 0.998313 0.99903
0.998844 0.99981 0.997999
0.999091 0.998933 0.998235
0.99936 0.998009 0.999074
0.999463 0.999837 0.995663
0.998861 1.0002 0.99707
0.998963 0.999582 0.997357
0.999612 1.00033 0.99562
0.999458 0.997644 0.999164
0.999484 1 0.996108
0.999516 0.999516 0.995904
0.999932 1.00126 0.993378
0.999632 0.99724 0.99919
0.99913 1.00001 0.998595
0.998912 1.00008 0.997864
0.999218 0.999987 0.99854
0.998945 1.00004 0.996988
1.00019 0.999968 0.994038
0.998808 1.00012 0.99876
0.999968 1.00012 0.995233
0.998829 1.00022 0.997043
0.998865 0.99989 0.997211
0.999117 0.998952 0.997532
0.999531 1.00022 0.995483
0.999044 0.999995 0.99779
0.998926 1.00008 0.996992
0.999283 0.998423 0.997717
0.998852 1.00007 0.997086
0.999836 1.00022 0.994926
0.99944 1.00007 0.995749
0.999591 1.00028 0.995298
1.00038 1.001 0.993097
0.999122 0.999992 0.998602
0.998993 0.999998 0.996965
1.00009 0.999974 0.9951
0.999931 1.0001 0.994851
0.999662 1.00032 0.995113
1.00124 1.00033 0.992109
1.0006 1.00071 0.992727
0.999458 0.997973 0.997874
0.999404 0.999749 0.996092
1.00005 1.00121 0.993461
1.00092 1.00094 0.99178
0.99887 0.999628 0.998814
0.999395 0.997933 0.999106
0.999128 0.998759 0.998956
0.999432 0.999868 0.995664
0.998852 1.00001 0.998732
0.998939 0.999368 0.998855
0.999547 1.00045 0.994851
0.999477 0.997683 0.998576
0.99945 1.00011 0.995423
0.999505 0.999464 0.99624
0.999924 1.00128 0.993365
0.999552 0.997447 0.999167
0.999786 0.998482 0.996401
0.99973 1.00039 0.994582
0.99951 1.00034 0.995081
1.00057 1.00077 0.992611
0.999588 0.999082 0.996738
1.00005 1.00112 0.993292
0.999876 1.00126 0.993491
1.00029 1.00151 0.992408
0.999698 0.997045 0.999218
0.999644 0.997221 0.999199
0.99891 1.00006 0.998703
0.99908 1.00001 0.998625
0.999198 0.999988 0.998552
0.998995 1.00004 0.997806
1.00018 0.999962 0.994517
0.998838 1.0001 0.997891
0.999929 1.0001 0.994835
0.999208 0.999977 0.998548
1.00029 0.999901 0.993888
1.00008 1.00003 0.995114
1.00179 0.999858 0.991084
0.999842 1.00024 0.995317
1.00143 1.00015 0.991527
0.999084 0.999973 0.996879
0.998885 1.00014 0.997022
0.999265 0.99838 0.997756
0.998809 1.00014 0.997122
0.999864 1.00019 0.994926
0.999619 1.00025 0.995297
0.999458 1.00007 0.995751
1.00042 1.00101 0.993056
0.999154 0.999993 0.99858
0.99896 1.00001 0.997001
1.00011 0.999965 0.994442
0.999954 1.0001 0.994841
0.99942 0.997944 0.998486
0.999432 0.999738 0.996226
0.999693 1.00029 0.995115
1.00124 1.00031 0.992023
1.0001 1.00123 0.993412
1.00063 1.00072 0.992782
1.00091 1.00094 0.991786
1.0002 0.999936 0.994016
0.999981 1.00001 0.994852
1.00168 0.999866 0.991526
1.00143 1.00007 0.991783
1.00092 1.0005 0.992347
1.00193 1.00018 0.990767
0.99952 0.997632 0.999144
1.00118 1.00061 0.99158
0.999528 0.999352 0.996015
0.999849 1.00127 0.993458
1.00063 1.00137 0.991984
1.00125 1.00082 0.991255
0.999722 0.998703 0.996267
1.00006 1.00046 0.993928
0.998835 0.999913 0.998751
0.998971 0.99922 0.998888
0.999496 1.00054 0.994853
0.999497 0.997639 0.999154
0.999492 0.999448 0.995952
0.999393 1.00019 0.995407
0.999915 1.00129 0.993352
0.999569 0.997428 0.999174
0.999792 0.99845 0.996408
0.999691 1.00037 0.995026
0.999461 1.00033 0.995494
1.00056 1.00076 0.99262
0.999602 0.999052 0.996191
1.00004 1.00112 0.993288
0.999855 1.0013 0.993484
1.00029 1.0015 0.992386
0.999697 0.998759 0.9963
0.99985 0.99823 0.996529
1.00007 1.00038 0.993965
1.00091 1.00052 0.992178
1.00025 1.00099 0.993034
1.00114 1.00079 0.991499
0.999935 1.00097 0.993671
1.00048 1.00117 0.992343
1.00014 1.00185 0.992441
1.0004 1.00174 0.992026
0.999754 0.996852 0.999251
0.999706 0.997023 0.999228
0.999655 0.997201 0.999207
0.999787 0.998434 0.996423
0.999593 0.997423 0.999175
0.998853 1.00004 0.99872
0.998986 1.00004 0.998675
0.999915 1.00011 0.994422
1.00016 0.999952 0.994089
0.999177 0.999987 0.998568
0.999218 0.99998 0.99854
1.00029 0.999898 0.993894
1.00004 1.00002 0.994718
1.00179 0.99986 0.991086
0.999796 1.00027 0.994505
1.00142 1.00015 0.991533
1.0003 0.999887 0.99386
1.00195 0.99978 0.990843
1.00161 0.999978 0.991323
1.00251 0.999714 0.989853
1.0012 1.00032 0.991806
1.00211 0.999957 0.990405
0.999186 0.999993 0.998559
0.998926 1.00001 0.997038
1.0001 0.999968 0.993808
0.999978 1.00007 0.994833
0.999376 0.99791 0.999112
0.999459 0.999738 0.996362
0.999725 1.00025 0.995116
1.00124 1.0003 0.991938
1.00066 1.00074 0.992836
1.00014 1.00125 0.993363
1.00091 1.00094 0.991793
1.00021 0.999936 0.994009
1.00001 0.999997 0.994839
1.00167 0.99987 0.991345
1.00145 1.0001 0.991841
0.9995 0.997655 0.999134
0.999527 0.999367 0.996299
0.999896 1.00127 0.993587
1.00092 1.0005 0.992356
1.00191 1.00014 0.990667
1.00058 1.00138 0.991967
1.00121 1.00062 0.99162
1.00125 1.00082 0.991266
0.99971 0.998747 0.996263
1.00006 1.00044 0.993932
1.00185 0.999796 0.991026
1.00155 0.999931 0.991703
1.00239 0.999774 0.990248
1.00215 0.999851 0.990318
1.00148 1.00039 0.991292
1.00229 0.999864 0.990288
0.999622 0.999008 0.996144
1.00156 1.00037 0.991096
0.999853 1.00118 0.99358
1.00025 1.00159 0.992279
1.00095 1.00149 0.991428
1.00146 1.00058 0.991147
1.00002 1.00073 0.99373
1.00007 1.0001 0.994262
1.0002 1.00156 0.99257
0.999642 1.00046 0.994635
0.999584 0.997408 0.999181
0.9998 0.99842 0.996415
0.999397 1.00044 0.995142
1.00056 1.00074 0.992629
0.999597 0.999023 0.99618
0.999834 1.00133 0.993477
1.00004 1.00112 0.993283
1.0003 1.00148 0.992364
0.999705 0.998723 0.996304
0.999853 0.998205 0.996538
1.00007 1.00039 0.993963
1.00091 1.00052 0.992186
1.00024 1.00098 0.993041
1.00113 1.00079 0.991502
0.99991 1.00101 0.993669
1.00049 1.00118 0.992383
1.00013 1.00185 0.992436
1.00039 1.00174 0.991985
0.999896 0.997997 0.996677
1.00003 1.00063 0.993814
1.00009 1.00013 0.994192
1.00021 1.00144 0.992702
1.00153 1.00047 0.991039
1.00074 1.00105 0.99204
1.00144 1.00077 0.990925
1.00013 1.00175 0.992575
1.00066 1.00128 0.991965
1.00018 1.00235 0.991861
1.0005 1.00177 0.991679
1.00013 0.999192 0.995045
0.999964 0.997606 0.996931
0.999804 0.996667 0.999286
0.99976 0.99683 0.999262
0.999715 0.997002 0.999238
0.99983 0.998169 0.996613
0.999643 0.997215 0.999214
0.999779 0.998471 0.996412
0.99958 0.99744 0.999165
0.999786 1.00028 0.994515
1.00003 1.00001 0.994288
1.00142 1.00016 0.991539
1.00179 0.999863 0.991088
1.00028 0.999895 0.993899
0.999226 0.999981 0.998536
1.00031 0.999889 0.993854
1.00195 0.999777 0.990845
1.00161 0.999987 0.991325
1.00251 0.999718 0.989852
1.00119 1.00033 0.991814
1.00212 0.999953 0.990406
1.00197 0.999756 0.99083
1.00267 0.999671 0.989577
1.00233 0.999786 0.990138
1.00283 0.999459 0.989508
1.00184 1.0002 0.990695
1.00248 0.999641 0.990007
1.00022 0.999938 0.994
1.00003 0.999989 0.994826
1.00165 0.999864 0.991163
1.00146 1.00013 0.991899
0.99948 0.997677 0.999124
0.999529 0.999381 0.996576
0.999943 1.00126 0.993716
1.00091 1.00051 0.992364
1.0019 1.0001 0.990568
1.00124 1.00062 0.99166
1.00054 1.00138 0.99195
1.00124 1.00081 0.991278
0.999699 0.998791 0.996258
1.00007 1.00042 0.993936
1.00184 0.999795 0.99096
1.00155 0.999934 0.991704
1.00239 0.999754 0.9902
1.00216 0.999894 0.990427
0.999618 0.999046 0.996143
0.999877 1.00115 0.993584
1.00025 1.00159 0.992348
1.00151 1.00041 0.991288
1.00228 0.999805 0.990268
1.00091 1.00149 0.991351
1.00156 1.00037 0.991098
1.00144 1.00057 0.991136
1.00003 1.0007 0.993737
1.00021 1.00153 0.992553
1.00007 1.0001 0.994258
1.00254 0.999735 0.989974
1.00229 0.999773 0.99033
1.00273 0.999643 0.98962
1.00255 0.999581 0.989926
1.00181 1.00006 0.9908
1.00249 0.999371 0.99034
0.999927 1.00098 0.993652
1.00173 1.00005 0.991049
1.00017 1.00159 0.992608
1.00042 1.00192 0.991641
1.00111 1.00154 0.990948
1.00158 1.00031 0.99134
1.00008 0.999736 0.994606
1.00021 1.00152 0.992603
1.00018 1.00146 0.992607
1.00022 1.00208 0.992121
1.00091 1.00051 0.992194
0.999856 0.998181 0.996547
0.999713 0.998686 0.996308
1.00006 1.00041 0.993962
1.00023 1.00097 0.993048
1.00112 1.0008 0.991505
0.999885 1.00105 0.993668
1.00013 1.00186 0.99243
1.0005 1.00118 0.992423
1.00039 1.00174 0.991943
0.999895 0.99798 0.996686
1.00001 1.00066 0.99381
1.00009 1.00012 0.994195
1.0002 1.00145 0.992694
1.00153 1.00048 0.991035
1.00073 1.00105 0.992049
1.00144 1.00077 0.990928
1.00011 1.00176 0.992577
1.00067 1.00129 0.992009
1.00019 1.00236 0.991843
1.00048 1.00174 0.991789
0.999932 0.997785 0.996822
1.00009 0.999848 0.994456
1.0002 1.00151 0.992662
1.0002 1.0013 0.992838
1.0002 1.00204 0.992095
1.00186 1.00035 0.990496
1.00096 1.00111 0.991544
1.00154 1.00081 0.990695
1.00013 1.00237 0.991957
1.00075 1.00141 0.991667
1.00028 1.0026 0.991188
1.00012 0.999358 0.994895
1.00016 1.00038 0.993851
1.00013 0.999072 0.995165
1.00013 0.999199 0.995047
0.999984 0.997432 0.997476
0.999959 0.997589 0.997169
0.999874 0.996526 0.998406
0.999809 0.996645 0.999295
0.999766 0.996807 0.999273
0.999866 0.997932 0.996786
0.999691 0.997001 0.999256
0.999829 0.998194 0.996599
0.999638 0.997239 0.999201
0.999771 0.998508 0.996402
0.999568 0.997459 0.999156
1.00119 1.00034 0.991821
1.0016 0.999993 0.991328
1.00212 0.999956 0.990406
1.00252 0.999722 0.989851
1.00195 0.999775 0.990847
1.00031 0.999893 0.99385
1.00197 0.999752 0.990827
1.00267 0.999672 0.989579
1.00233 0.999792 0.990141
1.00285 0.999444 0.989487
1.00185 1.0002 0.99069
1.00248 0.99965 0.990007
1.00269 0.999674 0.98955
1.00294 0.999479 0.989228
1.0027 0.999461 0.989732
1.00304 0.999137 0.989474
1.00219 0.999966 0.990249
1.00267 0.99905 0.99023
1.00183 0.999796 0.990895
1.00155 0.999931 0.991704
1.00239 0.999739 0.990153
1.00217 0.999938 0.990535
0.999615 0.999083 0.996141
0.999902 1.00112 0.993588
1.00025 1.00159 0.992416
1.00154 1.00043 0.991283
1.00226 0.999746 0.990247
1.00156 1.00036 0.991099
1.00086 1.0015 0.991274
1.00141 1.00055 0.991124
1.00004 1.00066 0.993744
1.00022 1.0015 0.992537
1.00006 1.0001 0.994254
1.00255 0.999732 0.989876
1.0023 0.999752 0.990331
1.00273 0.999626 0.989566
1.00257 0.999596 0.989944
0.99995 1.00094 0.993658
1.00019 1.00158 0.992601
1.00041 1.00193 0.991718
1.00183 1.00011 0.990827
1.00247 0.999275 0.99039
1.00106 1.00159 0.990873
1.00174 1.00005 0.991053
1.00155 1.00023 0.991378
1.00022 1.0015 0.992613
1.00023 1.00207 0.992071
1.00007 0.99975 0.994599
1.00019 1.00142 0.99265
1.00283 0.999647 0.98933
1.00272 0.999551 0.989729
1.0029 0.999533 0.989318
1.00276 0.999195 0.989872
1.00202 0.999621 0.990859
1.00269 0.998746 0.990581
1.00017 1.00155 0.992659
1.0018 0.999496 0.99145
1.00022 1.00193 0.992052
1.00057 1.00234 0.991078
1.00119 1.00162 0.990592
1.00169 1.00009 0.991367
1.00008 0.999494 0.994837
1.00018 1.0011 0.992954
1.00024 1.00186 0.992202
1.00016 1.00227 0.991976
1.00027 1.00216 0.991937
0.999894 0.997962 0.996695
1.00153 1.00048 0.991031
1.00009 1.00012 0.994197
0.999998 1.0007 0.993807
1.00019 1.00146 0.992686
1.00071 1.00105 0.992059
1.00143 1.00077 0.990931
1.00009 1.00178 0.99258
1.0002 1.00237 0.991826
1.00069 1.0013 0.992052
1.00046 1.00171 0.991899
0.99993 0.99777 0.996829
1.0001 0.999839 0.99446
1.00018 1.00153 0.992659
1.00019 1.00131 0.992832
1.0002 1.00204 0.992085
1.00187 1.00035 0.990489
1.00095 1.00111 0.991547
1.00154 1.00081 0.990672
1.00012 1.00237 0.991967
1.00076 1.00141 0.991699
1.00033 1.00257 0.991245
1.00011 0.999584 0.994699
1.0002 1.00106 0.993069
1.00021 1.00206 0.992076
1.00019 1.00203 0.992161
1.0002 1.00232 0.991848
1.002 1.0002 0.990341
1.00105 1.00118 0.991268
1.00144 1.00077 0.99077
1.00013 1.00291 0.99137
1.00069 1.00238 0.99083
1.00012 0.999356 0.994899
1.00018 1.00057 0.993482
1.00016 1.00039 0.993774
1.00013 1.00129 0.993112
1.00013 1.00032 0.993955
1.00014 0.998983 0.995255
1.00013 0.999083 0.995165
1.00002 0.997287 0.99755
1.00013 0.999207 0.995049
0.999988 0.997428 0.997487
0.999922 0.996368 0.998465
0.999954 0.997576 0.997406
0.999862 0.996494 0.998866
0.999815 0.996626 0.999305
0.999901 0.997732 0.996918
0.999869 0.997945 0.996776
0.999742 0.996794 0.999293
0.999687 0.997027 0.999243
0.999828 0.998219 0.996586
0.999631 0.997262 0.999189
1.00185 1.0002 0.990685
1.00233 0.999793 0.990143
1.00248 0.999657 0.990006
1.00287 0.999429 0.989465
1.00268 0.999672 0.989582
1.00198 0.999748 0.990823
1.00269 0.999673 0.989552
1.00296 0.999497 0.989189
1.00271 0.999469 0.989735
1.00305 0.999113 0.989471
1.00219 0.999973 0.990238
1.00269 0.999008 0.990245
1.00296 0.99958 0.989113
1.00305 0.999402 0.989125
1.00293 0.998851 0.989803
1.00317 0.999042 0.989432
1.00238 0.999494 0.99028
1.00291 0.998432 0.990512
1.00255 0.999726 0.989778
1.00231 0.999734 0.990332
1.00272 0.999609 0.989513
1.00258 0.999608 0.989962
0.999971 1.0009 0.993663
1.00021 1.00157 0.992594
1.00039 1.00195 0.991796
1.00186 1.00016 0.990855
1.00246 0.999178 0.99044
1.00174 1.00004 0.991057
1.00101 1.00165 0.990799
1.00152 1.00014 0.991415
1.00023 1.00149 0.992623
1.00024 1.00206 0.992021
1.00006 0.999762 0.994593
1.0002 1.00138 0.992693
1.00283 0.999646 0.989335
1.00271 0.999546 0.989744
1.00288 0.999546 0.989323
1.00277 0.999199 0.989883
1.00019 1.00153 0.99266
1.00022 1.00191 0.992114
1.00056 1.00238 0.991072
1.00205 0.999692 0.990821
1.00258 0.99868 0.990764
1.00118 1.00168 0.990552
1.0018 0.999511 0.991462
1.00164 0.999888 0.991489
1.00025 1.00186 0.992203
1.00027 1.00213 0.991929
1.00015 1.0023 0.99196
1.00008 0.999496 0.994745
1.00019 1.00105 0.993005
1.003 0.99959 0.989089
1.003 0.999355 0.989277
1.00293 0.998683 0.990065
1.00229 0.998779 0.991162
1.00022 1.00183 0.992285
1.00203 0.998854 0.99185
1.00017 1.00232 0.991633
1.00073 1.00283 0.990295
1.00142 1.00154 0.990272
1.0001 0.999312 0.994835
1.00018 1.00075 0.993479
1.00013 1.00202 0.992283
1.00027 1.00193 0.992089
1.00018 1.00272 0.991532
1.00032 1.00215 0.99178
0.999928 0.997757 0.996837
1.0001 0.999831 0.994463
1.00188 1.00035 0.990483
1.00019 1.00133 0.992827
1.00017 1.00154 0.992655
1.0002 1.00204 0.992076
1.00095 1.00112 0.99155
1.00154 1.00081 0.990649
1.0001 1.00236 0.991977
1.00038 1.00254 0.991301
1.00077 1.00141 0.991732
1.00011 0.999576 0.994703
1.0002 1.00107 0.993065
1.0002 1.00205 0.992115
1.00018 1.00204 0.992152
1.00018 1.00235 0.991818
1.002 1.00025 0.990322
1.00107 1.00117 0.99125
1.00149 1.00075 0.990782
1.00012 1.00291 0.991325
1.00069 1.00248 0.990733
1.00019 1.0008 0.993336
1.00019 1.0019 0.992196
1.00021 1.00251 0.99169
1.00019 1.0024 0.991708
1.00025 1.00243 0.991607
1.00228 0.998969 0.990977
1.00113 1.00181 0.990596
1.00154 1.00044 0.990545
1.00034 1.00324 0.99086
1.00065 1.0029 0.989867
1.00012 0.999354 0.994903
1.00018 1.00058 0.993529
1.00017 1.00149 0.992656
1.00016 1.00041 0.993697
1.00013 1.00032 0.993955
1.00014 1.00129 0.993004
1.00013 1.00195 0.992425
1.00012 1.00122 0.993009
1.00011 1.00027 0.994046
1.00014 0.998936 0.995299
1.00014 0.998985 0.995256
1.00004 0.997159 0.997609
1.00013 0.999092 0.995165
1.00002 0.997284 0.99756
0.99996 0.996233 0.998513
0.999991 0.997422 0.997499
0.999916 0.99634 0.998462
0.999847 0.996456 0.999329
0.999939 0.997562 0.997016
0.999906 0.99774 0.996912
0.999796 0.996607 0.999321
0.999872 0.997958 0.996765
0.999737 0.996819 0.999282
0.999682 0.997054 0.99923
1.0022 0.999981 0.990226
1.00271 0.99948 0.989738
1.0027 0.998966 0.990261
1.00306 0.99909 0.989468
1.00297 0.999515 0.98915
1.00269 0.999671 0.989553
1.00297 0.999587 0.9891
1.00304 0.999408 0.989139
1.00296 0.998881 0.989745
1.00313 0.999026 0.989399
1.00238 0.999552 0.990272
1.00285 0.998249 0.990691
1.00305 0.999539 0.988986
1.00305 0.999359 0.989191
1.00311 0.998519 0.989874
1.0027 0.998245 0.990989
1.00283 0.999645 0.989339
1.00271 0.99954 0.989759
1.00285 0.999558 0.989328
1.00278 0.999203 0.989894
1.0002 1.00151 0.992661
1.00022 1.0019 0.992175
1.00054 1.00242 0.991066
1.00207 0.999764 0.990783
1.00248 0.998619 0.990948
1.00179 0.999526 0.991474
1.00117 1.00175 0.990512
1.00159 0.999697 0.991611
1.00026 1.00186 0.992205
1.00027 1.0021 0.991921
1.00015 1.00233 0.991943
1.00008 0.9995 0.994654
1.00021 1.001 0.993056
1.00297 0.999571 0.989118
1.00299 0.99937 0.989311
1.0029 0.998726 0.990132
1.00024 1.00182 0.992278
1.00022 1.0023 0.991717
1.00069 1.0029 0.990279
1.00232 0.998837 0.991091
1.00138 1.0014 0.990457
1.00196 0.998858 0.991813
1.00009 0.99929 0.994857
1.00027 1.00194 0.992081
1.0003 1.00209 0.991841
1.00018 1.00273 0.991517
1.00014 1.00202 0.992315
1.00019 1.00074 0.993401
1.00304 0.999532 0.989078
1.00318 0.999094 0.989196
1.00288 0.99826 0.990477
1.00263 0.997648 0.991732
1.00024 1.00204 0.992043
1.00187 1.00005 0.990833
1.00027 1.00302 0.990839
1.00086 1.00332 0.989661
1.0001 0.999152 0.994991
1.00017 1.00047 0.993798
1.00015 1.00172 0.992638
1.00013 1.00281 0.991489
1.00028 1.00212 0.991865
1.00026 1.0026 0.991424
1.00011 0.999565 0.994708
1.00019 1.00109 0.993062
1.002 1.0003 0.990303
1.00018 1.00206 0.992144
1.00019 1.00203 0.992154
1.00017 1.00238 0.991789
1.00109 1.00116 0.991233
1.00154 1.00072 0.990795
1.0001 1.00291 0.991281
1.0007 1.00259 0.990635
1.00019 1.00081 0.993337
1.00019 1.00193 0.992216
1.00019 1.00249 0.991744
1.00019 1.00243 0.99174
1.00021 1.00245 0.991657
1.00234 0.999017 0.991004
1.00117 1.00172 0.99063
1.00154 1.00049 0.990753
1.0003 1.00325 0.990801
1.00072 1.00309 0.989791
1.00019 1.0017 0.992427
1.00019 1.00252 0.991583
1.00023 1.00289 0.991254
1.00021 1.00265 0.991348
1.00346 0.997195 0.990782
1.00232 0.99875 0.990938
1.00124 1.00235 0.98974
1.00031 1.00406 0.989642
1.00018 1.00059 0.993577
1.00016 1.0015 0.992698
1.00015 1.00214 0.992122
1.00013 1.00032 0.993954
1.00015 1.00129 0.992896
1.00011 1.00027 0.994046
1.00014 1.00196 0.992339
1.00011 1.00122 0.993051
1.00016 1.00244 0.991858
1.00012 1.00186 0.992372
1.0001 1.00117 0.993101
1.0001 1.00021 0.994118
1.00013 0.998933 0.995308
1.00014 0.998931 0.995302
1.00007 0.997091 0.997625
1.00013 0.998987 0.995257
1.00004 0.997165 0.997614
0.999996 0.996116 0.998549
1.00002 0.997282 0.997571
0.999957 0.996203 0.99851
0.99991 0.996314 0.998458
0.999977 0.997401 0.997102
0.999943 0.997568 0.997012
0.999848 0.996439 0.999343
0.999911 0.997747 0.996905
0.99979 0.996629 0.999313
0.999733 0.996845 0.999271
1.00237 0.999608 0.990265
1.003 0.998911 0.989687
1.0028 0.998068 0.990869
1.0031 0.999012 0.989367
1.00304 0.999414 0.989152
1.00297 0.999594 0.989087
1.00303 0.999544 0.989024
1.00304 0.99935 0.989201
1.00309 0.998518 0.989906
1.00272 0.998174 0.990967
1.003 0.999544 0.989093
1.00311 0.999024 0.989479
1.00317 0.997884 0.990345
1.00294 0.999553 0.989147
1.00298 0.999387 0.989345
1.00286 0.998767 0.990199
1.00025 1.00182 0.99227
1.00028 1.00229 0.9918
1.00065 1.00297 0.990262
1.00235 0.998893 0.991019
1.00189 0.998862 0.991775
1.00135 1.00126 0.990643
1.00028 1.00196 0.992072
1.00029 1.00204 0.991903
1.00018 1.00274 0.991502
1.00009 0.999268 0.994879
1.00014 1.00201 0.992348
1.00019 1.00073 0.993323
1.00303 0.999525 0.989077
1.00319 0.999072 0.989185
1.00292 0.998331 0.990382
1.00025 1.00205 0.992027
1.00025 1.00297 0.990972
1.00087 1.00327 0.989703
1.00258 0.997719 0.991786
1.00187 0.999972 0.990822
1.0001 0.999139 0.995082
1.00016 1.00047 0.993802
1.00026 1.00212 0.991863
1.00027 1.00258 0.991453
1.00012 1.00278 0.991528
1.00015 1.00174 0.99257
1.00306 0.999352 0.989184
1.00328 0.998691 0.989382
1.00308 0.996892 0.991442
1.00268 0.997769 0.991838
1.00015 1.00255 0.991617
1.00115 1.00312 0.989253
1.00043 1.00367 0.990228
1.00012 0.998994 0.995282
1.00012 1.00003 0.994272
1.00014 1.0003 0.993842
1.00014 1.00149 0.992818
1.00011 1.00247 0.991827
1.00012 1.00331 0.990995
1.00028 1.00208 0.991751
1.00021 1.00332 0.991255
1.00019 1.00081 0.993339
1.00019 1.00195 0.992236
1.00241 0.999062 0.99103
1.00018 1.00245 0.991772
1.00019 1.00246 0.991798
1.00017 1.00247 0.991707
1.0012 1.00163 0.990663
1.00155 1.00052 0.990961
1.00025 1.00327 0.990741
1.00079 1.00328 0.989715
1.00018 1.00173 0.992389
1.00019 1.0025 0.991639
1.00022 1.00286 0.991313
1.00024 1.00267 0.991391
1.00341 0.997121 0.990829
1.00227 0.999003 0.990917
1.00129 1.00228 0.989845
1.00038 1.00403 0.989587
1.00016 1.00239 0.991881
1.00357 0.997625 0.989877
1.0002 1.00299 0.991248
1.00022 1.00338 0.990756
1.00362 0.996738 0.99062
1.00192 1.00116 0.989526
1.00073 1.00426 0.989118
1.00016 1.00152 0.992739
1.00015 1.00215 0.992125
1.00014 1.00265 0.991633
1.00011 1.00026 0.994046
1.00011 1.00122 0.993093
1.00015 1.00197 0.992252
1.00011 1.0002 0.994121
1.0001 1.00118 0.993091
1.00017 1.00244 0.991788
1.00011 1.00187 0.992456
1.00025 1.00268 0.991437
1.00018 1.00234 0.991808
1.00011 1.00177 0.99258
1.00008 1.00109 0.993291
1.00011 1.00017 0.994151
1.00012 0.998951 0.995304
1.00013 0.998934 0.995308
1.00008 0.997079 0.997608
1.00014 0.998927 0.995304
1.00007 0.997109 0.997623
1.00002 0.996057 0.998547
1.00004 0.997171 0.99762
0.999994 0.996086 0.998547
0.999953 0.996174 0.998506
1.00013 0.998853 0.9954
1.00001 0.997245 0.997185
0.99998 0.99741 0.997099
0.999897 0.996285 0.999365
0.999948 0.997575 0.997007
0.999842 0.996461 0.999337
0.999784 0.996651 0.999305
1.00274 0.998101 0.990944
1.00307 0.998518 0.989939
1.00303 0.999338 0.989212
1.00302 0.999549 0.989063
1.00299 0.999552 0.989112
1.00311 0.999052 0.989418
1.00311 0.997865 0.990479
1.00294 0.999391 0.989373
1.00324 0.998656 0.989562
1.00313 0.998162 0.990023
1.00301 0.999517 0.989076
1.0032 0.999054 0.989174
1.00296 0.9984 0.990286
1.00027 1.00205 0.992011
1.00023 1.0029 0.991106
1.00087 1.00319 0.989746
1.00251 0.997787 0.991839
1.00188 0.999898 0.990811
1.00023 1.00212 0.991861
1.00027 1.00255 0.991481
1.00012 1.00275 0.991567
1.0001 0.999124 0.995173
1.00016 1.00046 0.993807
1.00015 1.00176 0.992502
1.00304 0.999327 0.989225
1.00012 0.998991 0.995279
1.00011 1.00002 0.994219
1.00331 0.998672 0.98938
1.00303 0.997121 0.991266
1.00014 1.0025 0.991687
1.00043 1.00381 0.990053
1.00116 1.0029 0.989308
1.0026 0.997731 0.9918
1.00013 1.0003 0.993991
1.00013 1.00149 0.992817
1.00032 1.00214 0.991724
1.00017 1.00296 0.991414
1.0001 1.00339 0.990904
1.00013 1.00246 0.991834
1.00307 0.99889 0.989605
1.00335 0.998086 0.989996
1.00335 0.995475 0.992503
1.00189 1.00056 0.990202
1.0002 1.00288 0.99132
1.00063 1.0046 0.988998
1.0001 0.999925 0.994275
1.00012 1.00016 0.994133
1.00007 1.00099 0.993561
1.00011 1.00132 0.99292
1.00012 1.00224 0.992142
1.00007 1.00307 0.991237
1.00001 1.00412 0.990521
1.00004 1.00296 0.991461
1.00018 1.00176 0.992351
1.00019 1.00248 0.991694
1.00335 0.997048 0.990876
1.00223 0.999275 0.990895
1.00027 1.00269 0.991435
1.0002 1.00283 0.991372
1.00135 1.00223 0.989951
1.00045 1.004 0.989531
1.00015 1.00238 0.99188
1.00352 0.997535 0.98992
1.00018 1.00294 0.991258
1.00024 1.00337 0.990628
1.00355 0.996774 0.990585
1.00202 1.00107 0.98954
1.00068 1.00434 0.989119
1.00013 1.00296 0.991386
1.00445 0.996176 0.98957
1.00034 1.00312 0.990966
1.00041 1.0042 0.989839
1.0031 0.998318 0.989634
1.00103 1.00345 0.988913
1.00301 1.0009 0.988882
1.00014 1.00216 0.992128
1.00013 1.00266 0.991637
1.00024 1.00283 0.991321
1.00011 1.00019 0.994125
1.0001 1.00119 0.993081
1.00011 1.00188 0.99254
1.00018 1.00244 0.991718
1.00011 1.00017 0.99415
1.00008 1.00111 0.993232
1.00025 1.00267 0.991406
1.00011 1.00178 0.992578
1.00016 1.00234 0.991887
1.00034 1.0026 0.991293
1.00014 1.00219 0.992145
1.00011 1.00171 0.992676
1.00008 1.00106 0.993201
1.00011 1.00018 0.994016
1.00008 1.00114 0.993366
1.0001 1.00024 0.993983
1.00012 0.998972 0.995294
1.00012 0.998954 0.995304
1.0001 0.997098 0.997176
1.00013 0.998935 0.995308
1.00009 0.9971 0.997394
1.00001 0.996004 0.999378
1.00007 0.997127 0.997621
1.00002 0.996024 0.998549
0.999992 0.996056 0.998546
1.00014 0.998739 0.995493
1.00013 0.998848 0.995399
1.00005 0.997107 0.997263
1.00001 0.997253 0.997392
0.999939 0.996149 0.999384
0.999983 0.997419 0.997095
0.999891 0.996306 0.999358
0.999836 0.996481 0.99933
1.00306 0.997844 0.990613
1.00311 0.999081 0.989357
1.00299 0.99956 0.98913
1.00295 0.99939 0.989365
1.00315 0.998649 0.989669
1.0031 0.998445 0.989938
1.00299 0.998872 0.989831
1.00417 0.996615 0.990374
1.00335 0.997324 0.990616
1.00011 0.999864 0.994455
1.00303 0.9993 0.989265
1.00334 0.99865 0.989378
1.00299 0.997324 0.991091
1.00012 1.00246 0.991758
1.00042 1.00395 0.989877
1.00117 1.00262 0.989363
1.00252 0.997729 0.991762
1.00037 1.00218 0.991697
1.00013 1.00263 0.991573
1.00007 1.00348 0.990812
1.00012 0.998991 0.995277
1.00014 1.00243 0.99184
1.00013 1.00031 0.99414
1.00013 1.00148 0.992816
1.00011 1.00002 0.994166
1.00309 0.998855 0.989602
1.00011 0.999921 0.994335
1.00011 1.00017 0.99413
1.00007 1.00098 0.993443
1.00338 0.997901 0.990025
1.00324 0.99581 0.992251
1.00023 1.00269 0.991369
1.00049 1.00464 0.98892
1.00187 1.00055 0.990252
1.0001 1.00131 0.993006
1.00013 1.00225 0.992101
1.00005 1.003 0.991373
1 1.00401 0.990603
1.00008 1.00305 0.991299
1.00324 0.998235 0.989749
1.00362 0.99661 0.99093
1.00307 0.997759 0.990913
1.00102 1.00355 0.989155
1.00007 1.00375 0.990637
1.00005 1.00086 0.99345
1.00009 1.00115 0.993158
1.00007 1.0017 0.9928
1.00009 1.00211 0.9923
1.00011 1.00273 0.991622
0.99999 1.00369 0.990901
0.999848 1.0045 0.99032
1.00014 1.00238 0.99188
1.00017 1.0029 0.991269
1.00349 0.997433 0.989962
1.0035 0.99679 0.99055
1.00212 1.00096 0.989554
1.00026 1.00335 0.9905
1.00061 1.0044 0.98912
1.00012 1.00293 0.99143
1.00446 0.996033 0.989556
1.00028 1.00307 0.990997
1.00027 1.0043 0.989815
1.00328 0.998148 0.989688
1.00102 1.00359 0.988908
1.00305 0.999916 0.989193
1.0002 1.00306 0.991145
1.0045 0.996222 0.989439
1.00022 1.00353 0.990727
1.00006 1.00481 0.989581
1.0015 1.00152 0.989497
0.997819 1.00012 0.97082
0.998694 1.00199 0.985497
1.00232 1.00007 0.990819
0.994845 0.99775 0.979513
0.996362 0.995896 0.981598
1.00012 1.00266 0.99164
1.00022 1.00284 0.991332
1.0004 1.00267 0.991125
1.00011 1.00016 0.99415
1.00008 1.00112 0.993173
1.00011 1.00178 0.992577
1.00015 1.00235 0.991965
1.00025 1.00266 0.991375
1.00012 1.00172 0.992594
1.00011 1.00019 0.994072
1.00008 1.00106 0.993269
1.00031 1.00261 0.991339
1.00015 1.00218 0.99211
1.00014 1.00212 0.992208
1.00023 1.00259 0.991565
1.00013 1.00171 0.992479
1.00009 1.00106 0.993205
1.0001 1.0002 0.994
1.00009 1.00109 0.993298
1.0001 1.00178 0.992654
1.00008 1.00123 0.993157
1.00008 1.00115 0.993258
1.0001 1.00025 0.994079
1.0001 1.00024 0.993985
1.00012 0.998998 0.995268
1.00012 0.998971 0.995294
1.00009 0.997127 0.99717
1.00012 0.998958 0.995303
1.0001 0.9971 0.997175
1.00002 0.99599 0.999378
1.00009 0.997121 0.997179
1.00003 0.996001 0.998955
1.00002 0.995992 0.998551
1.00015 0.998667 0.99555
1.00014 0.998733 0.995492
1.00007 0.996999 0.997327
1.00013 0.998844 0.995398
1.00004 0.997103 0.997468
0.999974 0.996032 0.999402
1.00002 0.997272 0.997169
0.999933 0.996189 0.999375
0.999885 0.996328 0.999352
1.00304 0.998645 0.989776
1.00295 0.999387 0.989357
1.00304 0.998737 0.989853
1.00413 0.996628 0.99042
1.00298 0.998866 0.989777
1.00321 0.997562 0.990362
1.00337 0.998458 0.989202
0.999545 0.998721 0.98417
1.00334 0.997748 0.991539
1.0001 0.99985 0.99448
1.00011 0.999862 0.994454
1.00005 1.00076 0.993691
1.00006 1.00072 0.993705
1.00312 0.998832 0.989599
1.00341 0.997763 0.990054
1.00313 0.996136 0.991999
1.00026 1.00252 0.991419
1.00036 1.00476 0.988842
1.00184 1.00043 0.990303
1.00006 1.00304 0.991285
1 1.0039 0.990684
1.00009 1.00303 0.99136
1.00011 1.00018 0.994126
1.00013 1.00225 0.99206
1.0001 1.00129 0.993092
1.00012 0.999917 0.994395
1.00007 1.00097 0.993325
1.00322 0.998313 0.989856
1.00005 1.00087 0.993569
1.00008 1.00112 0.993232
1.00007 1.00163 0.992782
1.00364 0.996431 0.990996
1.00296 0.997631 0.990916
1.0001 1.00371 0.990628
1.00095 1.00363 0.989122
1.00008 1.00211 0.992338
1.00012 1.00268 0.991631
0.999859 1.00448 0.990324
1.00001 1.0038 0.990811
1.00386 0.996656 0.989859
1.00411 0.996003 0.990394
1.00195 1.00238 0.988625
1.00005 1.00453 0.989945
1.00006 1.00183 0.992552
1.00005 1.00193 0.992479
1.00008 1.00294 0.991435
0.999995 1.00456 0.990025
0.997033 1.00056 0.968013
1.00011 1.0029 0.991474
1.00023 1.00301 0.991027
1.00446 0.995884 0.989541
1.00344 0.997978 0.989742
1.00099 1.00372 0.988902
1.00011 1.00442 0.98979
1.00293 0.999009 0.989507
1.00018 1.00308 0.991172
1.0046 0.996153 0.989352
1.00016 1.00352 0.990736
1.00005 1.00482 0.98961
1.00151 1.00149 0.989511
0.997477 0.999088 0.971251
0.998407 1.00147 0.982138
1.00231 0.999539 0.991177
0.99482 0.998135 0.978555
0.996087 0.995662 0.981299
1.00015 1.00309 0.9912
0.995602 0.997104 0.976416
0.997935 0.99527 0.983993
1.0033 0.996866 0.99096
1.00008 1.00349 0.990705
1.00003 1.00478 0.990133
1.0022 0.999833 0.991876
0.996832 1.0004 0.970674
0.997674 1.004 0.981247
0.994667 1.00094 0.977392
1.00173 0.996078 0.980499
1.00019 1.00284 0.991343
1.00038 1.0027 0.991137
1.00052 1.00261 0.99099
1.00011 1.00019 0.994128
1.00008 1.00106 0.993337
1.00013 1.00173 0.992512
1.00016 1.00216 0.992075
1.00027 1.00262 0.991384
1.0001 1.0002 0.994001
1.00014 1.00208 0.9922
1.00013 1.00173 0.992575
1.0001 1.00104 0.99327
1.00024 1.00258 0.991468
1.00018 1.00229 0.991903
1.00013 1.0033 0.991087
1.00012 1.00169 0.992611
1.0001 1.00106 0.993303
1.00009 1.0011 0.993298
1.00011 1.00178 0.992561
1.00013 1.0017 0.992608
1.0001 1.0019 0.992448
1.00016 1.00218 0.992102
1.00005 1.00245 0.991973
1.00009 1.00137 0.992988
1.00007 1.00123 0.993156
1.00011 1.0003 0.994014
1.00008 1.00115 0.993149
1.0001 1.00026 0.994021
1.00012 0.999049 0.995221
1.0001 1.00024 0.993988
1.00012 0.998995 0.995268
1.00006 0.99716 0.997591
1.00012 0.99897 0.995294
1.00009 0.997122 0.997384
1.00005 0.995997 0.998525
1.0001 0.997103 0.997175
1.00002 0.995989 0.999378
1.00005 0.995998 0.998532
1.0001 0.999883 0.994446
1.00015 0.99865 0.995565
1.00015 0.998664 0.995549
1.00009 0.996931 0.997367
1.00015 0.998727 0.995491
1.00007 0.996993 0.997329
0.999999 0.995945 0.999416
1.00003 0.997119 0.99766
0.999981 0.996072 0.998981
0.999957 0.996213 0.998532
1.00393 0.996731 0.990469
1.003 0.998865 0.989724
1.00307 0.997806 0.990108
0.999403 0.998283 0.986524
1.00326 0.997821 0.991653
1.00342 0.998283 0.98911
1.00382 0.998407 0.990629
0.999135 0.999548 0.985826
0.996847 1.00098 0.966411
0.995326 0.997305 0.975797
0.996121 0.994969 0.982212
1.00004 1.00072 0.993611
1.0001 0.999853 0.99448
1.00011 0.999864 0.994454
1.00004 1.00077 0.993646
1.00004 1.00144 0.99309
1.00006 1.00129 0.993177
1.00006 1.00085 0.993593
1.00006 1.00073 0.993655
1.00321 0.998392 0.989963
1.00367 0.996197 0.991063
1.00286 0.997582 0.990918
1.00014 1.00364 0.99062
1.0009 1.0038 0.989088
0.999872 1.00446 0.990329
1.00003 1.0039 0.990722
1.00012 1.00263 0.991641
1.00007 1.00109 0.993305
1.00007 1.00211 0.992377
1.00005 1.00088 0.993688
1.00008 1.00157 0.992763
1.00391 0.997 0.989713
1.00005 1.00182 0.992598
1.00005 1.00194 0.992483
1.00403 0.996084 0.990375
1.00171 1.002 0.988867
1.00012 1.00454 0.989808
1.0001 1.00296 0.991396
1.00001 1.0045 0.990049
1.00468 0.9968 0.988784
1.00303 1.00033 0.988761
1.00027 1.00458 0.988964
1.00005 1.00481 0.989675
1.00003 1.00232 0.992099
1.0001 1.00268 0.991667
1.00011 1.00383 0.990598
0.99653 0.996411 0.976337
0.997503 1.00114 0.970512
1.00016 1.00309 0.991198
1.0001 1.00352 0.990745
1.00471 0.995902 0.989266
1.0016 1.00161 0.989525
1.00004 1.00483 0.989639
0.997811 1.00031 0.965689
0.998328 1.0006 0.986721
1.00235 0.999202 0.991526
0.994665 0.9983 0.977037
0.995671 0.995545 0.981001
1.00019 1.003 0.99119
0.996256 0.995725 0.978017
0.997386 0.995521 0.98407
1.00328 0.997334 0.990829
1.00002 1.00383 0.990729
0.999911 1.00468 0.990201
1.00229 0.999837 0.991731
0.996285 1.00083 0.968828
0.997659 1.00518 0.983586
0.994554 1.00028 0.975857
1.00084 0.996741 0.980862
1.00055 1.00243 0.990973
0.998697 0.995879 0.985594
1.00773 0.997145 0.98013
1.00088 1.00091 0.991654
0.999759 1.00379 0.991867
1.00151 1.00182 0.995235
0.998782 1.00125 0.990025
0.995094 1.00339 0.968595
0.994938 0.998847 0.976909
1.00811 0.997155 0.976147
1.00036 1.00275 0.99115
1.0005 1.00264 0.990928
1.00019 1.00307 0.990869
1.0001 1.0002 0.994002
1.0001 1.00103 0.993334
1.00012 1.00175 0.99267
1.00014 1.00205 0.992191
1.00026 1.00256 0.991371
1.0001 1.00106 0.993304
1.00016 1.00225 0.991971
1.00012 1.00169 0.99261
1.00011 1.00333 0.991027
1.00007 1.00376 0.990756
1.00013 1.00262 0.991727
1.00013 1.00172 0.992599
1.00009 1.0011 0.993298
1.00012 1.00179 0.992469
1.00012 1.00171 0.992607
1.0001 1.00191 0.992444
1.00018 1.00213 0.992081
1.00008 1.00213 0.99224
1.00018 1.00215 0.992073
1.00019 1.00233 0.991767
1.00014 1.00279 0.991466
0.999928 1.00303 0.991524
1.00003 1.00261 0.991805
1.00006 1.00245 0.99198
1.00009 1.00162 0.99275
1.00009 1.00139 0.992984
1.00012 1.0004 0.993891
1.00007 1.00124 0.993155
1.0001 1.00031 0.994012
1.00011 0.999126 0.995159
1.0001 1.00026 0.993962
1.00012 0.999043 0.995221
1.00004 0.997225 0.997573
1.00012 0.998992 0.995268
1.00007 0.99716 0.997375
1.00003 0.996007 0.998525
1.00009 0.997114 0.99717
1.00002 0.995997 0.999377
1.00002 0.995987 0.999378
1.00012 0.999961 0.994509
1.00015 0.998688 0.995527
1.0001 0.999885 0.994446
1.00009 0.996915 0.997378
1.00015 0.998649 0.995565
1.00015 0.998659 0.995548
1.00009 0.996934 0.997366
1.00001 0.995893 0.999424
1.00006 0.996993 0.997724
1.00001 0.995957 0.999011
0.999999 0.996078 0.998578
0.996199 0.995744 0.978976
0.997751 0.99492 0.984458
0.999509 0.997967 0.988762
1.00322 0.997975 0.991765
1.00347 0.99811 0.989017
0.999191 0.999509 0.990075
1.00393 0.99822 0.990523
0.997587 1.0001 0.97051
0.99466 0.997933 0.979219
0.995922 0.994792 0.982207
1.00072 0.99815 0.992786
0.996099 1.0018 0.971528
0.994579 0.999866 0.97826
0.999219 0.997739 0.980402
1.00003 1.00158 0.992857
1.00005 1.00072 0.993657
1.0001 0.999851 0.994479
1.00004 1.00077 0.993601
1.00002 1.00139 0.993141
1.00004 1.00159 0.992924
1.00005 1.00125 0.993192
1.00007 1.00114 0.993256
1.00006 1.00087 0.993521
1.00005 1.00075 0.993604
1.00392 0.997256 0.989569
1.0039 0.996115 0.990348
1.00145 1.00155 0.98911
1.00018 1.00455 0.989671
1.00003 1.00444 0.990073
1.00012 1.00297 0.991358
1.00005 1.00196 0.992487
1.00004 1.00181 0.992645
1.00477 0.996478 0.988585
1.00003 1.00235 0.992066
1.00011 1.0027 0.991575
1.00278 1.00032 0.988538
1.00026 1.00442 0.989316
1.00009 1.0048 0.989632
1.00015 1.00381 0.990522
1.00376 1.00075 0.98742
1.00045 1.00434 0.989518
1.00006 1.0044 0.989974
1.00003 1.00245 0.992007
1.00014 1.00278 0.991461
1.00026 1.00322 0.990825
1.00002 0.996303 0.982505
0.996177 0.997229 0.975169
0.997106 1.0007 0.967832
1.00024 1.0029 0.991181
0.999964 1.00413 0.990753
1.00327 0.997644 0.990699
0.999782 1.00453 0.990267
0.9967 0.996701 0.975297
0.996094 1.00084 0.973623
0.997613 1.00426 0.981011
1.00232 0.999622 0.991679
0.994602 0.999984 0.978384
0.99738 0.995496 0.983563
0.999084 0.997065 0.981677
1.00048 1.00271 0.990953
0.998807 0.996081 0.984351
1.00743 0.99721 0.980436
1.00099 1.00091 0.991706
0.999527 1.00361 0.991901
1.00237 1.00297 0.990879
0.998646 1.00218 0.984911
0.995501 1.00367 0.969152
0.99587 0.998948 0.979889
1.0054 0.997497 0.977553
0.999919 1.00258 0.992377
1.01092 0.996865 0.979642
1.01885 0.995719 0.969551
0.998457 1.00401 0.993396
0.99901 0.999451 0.996693
0.995568 1.00079 0.97064
0.99748 0.998737 0.980382
1.00597 0.997219 0.978484
1.00048 1.00268 0.990866
1.00029 1.00298 0.991003
1.00033 1.00258 0.991478
1.0001 1.00106 0.993305
1.00012 1.00169 0.992609
1.00015 1.00222 0.992039
1.00009 1.00336 0.990966
1.00013 1.00172 0.992598
1.00014 1.00259 0.991732
1.00004 1.00372 0.99075
0.999912 1.00378 0.991142
1.00018 1.00327 0.990935
1.00019 1.00224 0.992001
1.00012 1.00171 0.992606
1.00009 1.00191 0.992441
1.00019 1.00208 0.99206
1.00019 1.00214 0.992083
1.00007 1.00216 0.992241
1.00021 1.00229 0.9918
1.00019 1.00258 0.991576
1.00026 1.00244 0.991596
1.00018 1.00293 0.991231
1.00015 1.00279 0.991488
0.999938 1.00317 0.991376
1.00016 1.00308 0.991178
1.00009 1.00246 0.991986
0.999894 1.0029 0.99176
1.00004 1.00259 0.991868
1.00009 1.00188 0.992394
1.00006 1.00245 0.991986
1.00009 1.00162 0.992749
1.00014 1.00057 0.993687
1.00008 1.00139 0.992981
1.00012 1.00041 0.993887
1.0001 0.999226 0.995084
1.0001 1.00031 0.99401
1.00012 0.999118 0.995158
1.00001 0.997324 0.99754
1.00013 0.999036 0.995221
1.00005 0.997232 0.997352
0.999998 0.996084 0.998511
1.00008 0.997152 0.99716
1.00002 0.996019 0.998951
1.00001 0.996002 0.999377
1.00012 1.00015 0.994177
1.00014 0.998771 0.995455
1.00011 0.999969 0.994377
1.00009 0.996954 0.997351
1.00015 0.998689 0.995528
1.0001 0.999892 0.994446
1.00002 0.995882 0.999425
1.00009 0.996913 0.997379
1.00015 0.998647 0.995565
1.00009 0.996938 0.997365
1.00001 0.9959 0.999422
0.999997 0.99595 0.999414
0.999328 0.996015 0.98429
0.995993 0.996455 0.977109
1.00927 0.995167 0.979742
0.997669 0.994918 0.9842
0.999298 1.00007 0.985107
1.00407 0.998056 0.990389
0.997067 0.999024 0.974769
0.995238 0.998771 0.976129
0.995727 0.994434 0.982203
1.0007 0.998579 0.990364
0.996247 1.00112 0.969582
0.99453 0.999783 0.976154
1.00017 0.99702 0.980723
0.999533 0.999257 0.991222
0.99544 1.00155 0.969794
0.994824 0.999811 0.979132
1.00587 0.99869 0.977578
1.00006 1.00208 0.992397
1.00003 1.00157 0.992929
1.00006 1.00072 0.993704
1 1.00133 0.993193
1.00007 1.00187 0.9925
1.00004 1.00154 0.992979
1.00005 1.00121 0.993207
1.00011 1.00124 0.993164
1.00008 1.00113 0.993322
1.00006 1.0009 0.99345
1.00489 0.996255 0.988388
1.00256 1.00032 0.988322
1.00026 1.00433 0.989669
1.00014 1.00479 0.989589
1.00018 1.00379 0.990445
1.00013 1.00273 0.991483
1.00003 1.00239 0.992033
1.00005 1.00243 0.992018
1.00382 1.00016 0.987548
1.00012 1.00281 0.991515
1.00027 1.00331 0.9908
1.00045 1.00437 0.989364
1.00015 1.0044 0.989961
1.00197 1.00218 0.988814
0.999816 1.00421 0.990816
1.00031 1.00326 0.990619
1.00017 1.00261 0.991596
1.00034 1.00303 0.99082
1.01274 0.997245 0.977887
0.999877 0.99635 0.983384
0.996248 0.996453 0.978301
1.0004 1.00302 0.990932
0.999282 1.00346 0.991936
1.0011 1.00091 0.991743
0.998804 0.996462 0.984215
0.995427 1.0028 0.968071
0.998546 1.00216 0.98759
1.00335 1.00414 0.986368
0.995289 0.999335 0.976442
1.007 0.997285 0.980741
1.0049 0.997515 0.977836
0.999882 1.0023 0.992508
1.01107 0.99709 0.979114
1.01865 0.995621 0.969788
0.998646 1.00377 0.992987
0.999076 1.00014 0.994025
0.99561 1.00227 0.969255
1.00814 0.996328 0.976874
0.99627 0.998342 0.979521
0.999458 1.00194 0.993591
1.02487 0.992146 0.966588
1.02308 0.994724 0.966028
1.00575 0.99845 0.978038
0.99647 1.00218 0.996992
0.995468 0.99889 0.974463
0.995562 0.999421 0.980499
1.0004 1.00285 0.991137
1.00044 1.00274 0.991075
1.00001 1.00242 0.992512
1.00013 1.00171 0.992596
1.00014 1.00256 0.991737
1.00002 1.00364 0.990745
1.00019 1.00222 0.99202
1.0002 1.00322 0.99093
0.999982 1.00366 0.990923
0.999841 1.00352 0.991323
1.00033 1.00264 0.991268
1.00019 1.00213 0.992093
1.00006 1.00218 0.992241
1.00023 1.00226 0.991834
1.00026 1.00242 0.991597
1.0002 1.00253 0.991599
1.00005 1.00306 0.991382
1.00012 1.00289 0.991377
1.00008 1.00398 0.990436
1.00017 1.0028 0.991509
1.00002 1.00319 0.991357
1.00015 1.00348 0.990548
1.00015 1.00293 0.991303
1.00007 1.00249 0.991948
1.00011 1.00309 0.991199
1.00012 1.002 0.992331
1.00009 1.00249 0.991953
0.999862 1.00277 0.991996
1.00006 1.00257 0.99193
1.00009 1.00186 0.992464
1.00014 1.00083 0.993415
1.00009 1.00162 0.992749
1.00013 1.00058 0.993683
1.00008 0.999356 0.99498
1.00011 1.00042 0.993883
1.0001 0.99922 0.995082
0.999967 0.997447 0.997491
1.00012 0.99911 0.995158
1.00001 0.997336 0.997314
0.999957 0.996189 0.998489
1.00006 0.997226 0.997137
0.999989 0.99609 0.998943
0.999996 0.996047 0.999374
1.00014 1.00033 0.993805
1.00013 0.998925 0.995163
1.00013 1.00016 0.994175
1.00008 0.997041 0.997289
1.00014 0.998783 0.99537
1.0001 0.999974 0.994245
1.00001 0.995914 0.999416
1.00009 0.996946 0.997353
1.00015 0.99869 0.995528
1.00002 0.995881 0.999425
1.00009 0.996912 0.997379
1.00001 0.995905 0.99942
1.01267 0.996022 0.97753
0.999464 0.995871 0.983129
0.996148 0.996339 0.9761
1.00017 1.00132 0.992888
1.01975 0.994166 0.970538
1.00884 0.995868 0.980011
0.99797 0.99492 0.983371
1.00062 0.998459 0.987982
0.99619 1.00169 0.971861
0.994652 1.00007 0.978804
1.00028 0.996009 0.980871
0.999172 0.999538 0.986008
0.995109 1.00204 0.971305
0.995651 0.99974 0.978237
1.00454 0.998307 0.97872
0.998727 1.00044 0.984069
0.99514 1.00027 0.968033
0.996892 0.999268 0.976319
1.00681 0.997648 0.977845
1.00016 1.00225 0.991942
1.00005 1.0021 0.992352
1.00003 1.00155 0.993
1.00012 1.00188 0.992396
1.00008 1.00184 0.992585
1.00005 1.00149 0.993034
1.00012 1.00123 0.993189
1.00008 1.00112 0.993388
1.00386 0.999536 0.987674
1.00046 1.00442 0.989209
1.00005 1.00239 0.992029
1.00024 1.00443 0.989949
1.00027 1.00336 0.990775
1.0001 1.00284 0.991569
1.00017 1.00262 0.991606
1.00223 1.0023 0.988904
1.00032 1.003 0.990911
1.00031 1.00342 0.990569
0.999811 1.0041 0.990665
1.00026 1.00249 0.991624
1.00087 1.00093 0.992886
0.999533 1.00373 0.991836
1.0004 1.00256 0.991104
1.00031 1.0028 0.991241
1.02361 0.993921 0.967719
1.01309 0.996821 0.977291
0.999699 0.996443 0.984265
0.999834 1.00198 0.992641
0.998849 1.0036 0.99258
1.01122 0.997286 0.978587
0.995653 1.00051 0.970754
0.999159 1.00068 0.987418
0.996659 0.998557 0.977383
1.01847 0.995454 0.970025
1.01065 0.995634 0.975264
0.999556 1.00224 0.993293
1.02496 0.99206 0.966386
1.02427 0.993647 0.964859
0.996565 1.00399 0.997798
1.00438 0.998188 0.978926
0.995207 0.998592 0.973845
0.996801 0.999 0.977049
0.9987 1.00231 0.995487
1.02848 0.99144 0.962541
1.02015 0.995035 0.968687
0.999186 0.998241 0.980179
0.997087 0.99846 0.976563
0.996127 1.00022 1.00233
0.994943 1.00009 0.970334
1.00051 1.00297 0.990672
1.00008 1.00226 0.992297
0.999029 1.00374 0.991991
1.0002 1.0022 0.992038
1.00021 1.00319 0.990924
1.00006 1.00364 0.990704
1.0003 1.00265 0.991279
0.999882 1.0034 0.991291
0.999703 1.00395 0.991135
1.00027 1.0024 0.991598
1.00021 1.00249 0.991622
1.00013 1.00308 0.991305
0.999863 1.00437 0.990424
1.00006 1.00286 0.991524
0.999992 1.00386 0.990571
1.0001 1.0046 0.989776
1.00051 1.00319 0.990378
1.0001 1.00321 0.991338
1.0002 1.0036 0.990432
1.00024 1.00256 0.991689
0.999956 1.00265 0.991877
1.00015 1.00283 0.991398
1.00009 1.00204 0.99235
1.00009 1.00249 0.991933
1.00006 1.00309 0.991221
1.00015 1.00108 0.993175
1.00012 1.00197 0.992317
1.00009 1.00252 0.99192
1.00009 1.00183 0.992534
1.00014 1.00083 0.993413
1.00006 0.999569 0.994819
1.00013 1.00059 0.993679
1.00008 0.999361 0.994974
0.999936 0.997593 0.996991
1.0001 0.999214 0.995079
0.999981 0.997458 0.997045
0.999884 0.99631 0.999351
1.00002 0.997331 0.997097
0.999951 0.996191 0.998929
0.999967 0.996124 0.999367
1.00017 1.00044 0.993626
1.00012 0.999126 0.994962
1.00015 1.00033 0.993877
1.00005 0.997176 0.997198
1.00013 0.998948 0.995139
1.00013 1.00016 0.994172
0.999996 0.995982 0.9994
1.00007 0.997033 0.997292
1.00013 0.998797 0.995285
1.00001 0.995906 0.999419
1.00009 0.99694 0.997355
1.00002 0.995881 0.999426
1.02318 0.993333 0.968184
1.01274 0.995754 0.977614
0.999374 0.995718 0.98329
1.00017 1.00132 0.992914
1.00021 1.00137 0.9927
1.00015 1.00192 0.992397
1.02232 0.994354 0.967497
1.01942 0.994359 0.970746
1.00838 0.996591 0.98028
0.998889 0.999873 0.98984
0.995356 1.00229 0.969468
0.994823 0.999384 0.976735
1.00516 0.99718 0.978645
0.998279 1.00044 0.988139
0.995171 1.00031 0.971577
0.995315 0.999307 0.980931
1.00851 0.996274 0.976498
0.998089 0.998478 0.989711
0.994948 0.999892 0.973264
0.996369 0.999468 0.979588
1.00761 0.997868 0.975821
1.00021 1.00234 0.991804
1.00014 1.0023 0.991937
1.00005 1.00215 0.992308
1.00013 1.00189 0.99239
1.00008 1.0018 0.99267
1.00012 1.00122 0.993214
1.00249 1.0024 0.988994
0.999812 1.00397 0.990514
1.00017 1.00265 0.991617
1.00032 1.00353 0.99052
1.0003 1.003 0.991001
1.00026 1.00243 0.991621
1.00031 1.00277 0.991214
1.00095 1.00091 0.992814
1.00043 1.00253 0.99123
0.99934 1.00356 0.992609
1.00027 1.00246 0.991475
0.998592 1.00174 0.995909
0.999368 1.00066 0.995126
1.0003 1.00278 0.991082
1.0272 0.992685 0.963661
1.02413 0.99364 0.966771
1.01344 0.996315 0.976694
0.999642 1.00252 0.992994
0.996589 1.00118 0.998514
1.02505 0.991982 0.966184
0.995078 0.999278 0.983262
0.997468 0.99912 0.980013
1.02552 0.992579 0.96369
1.00504 0.997237 0.978959
0.998761 1.00195 0.995207
1.02811 0.991744 0.962712
1.01985 0.995525 0.968889
0.996035 1.00158 0.994698
1.00005 0.997715 0.980476
0.995433 0.99872 0.981028
0.994985 1.00007 0.973832
0.997883 1.00486 0.997222
1.02338 0.99456 0.966644
1.00926 0.996086 0.97863
0.995829 0.99611 0.982129
0.994848 0.99946 0.978975
0.99527 0.999404 0.973206
0.996984 0.999412 0.992128
1.00013 1.00207 0.992084
0.999122 1.00368 0.992051
0.998995 1.00478 0.991593
1.00028 1.00264 0.991289
0.999909 1.00328 0.991257
0.999619 1.004 0.991184
0.999687 1.00488 0.990174
1.00021 1.00309 0.991228
1.00002 1.00439 0.990278
1.00014 1.00501 0.989244
0.999907 1.00375 0.990706
1.00013 1.00451 0.989774
1.00059 1.0045 0.989207
1.00077 1.00343 0.989736
1.0003 1.00252 0.991278
1.00049 1.00329 0.990275
1.00025 1.00372 0.990316
1.0002 1.00226 0.99202
1.00018 1.00243 0.991804
0.999987 1.00229 0.992218
0.999984 1.00261 0.991934
1.00016 1.00273 0.991494
1.00012 1.00127 0.99302
1.0001 1.00202 0.992358
1.0001 1.00249 0.991918
1.00003 0.999828 0.994605
1.00015 1.00106 0.993181
1.00013 1.00195 0.992303
1.00015 1.00083 0.993411
1.00006 0.999575 0.994813
0.999886 0.997772 0.996906
1.00008 0.999365 0.994969
0.999939 0.997599 0.996988
0.999845 0.996457 0.999337
0.999986 0.997458 0.997046
0.999901 0.996325 0.998907
0.99993 0.996227 0.999356
1.00019 1.00057 0.993562
1.00012 0.999286 0.994966
1.00017 1.00045 0.993681
1.00002 0.997345 0.997086
1.00012 0.999141 0.99503
1.00016 1.00034 0.993949
0.999971 0.996089 0.999377
1.00005 0.997165 0.997203
1.00013 0.99897 0.995114
0.999999 0.995972 0.999405
1.00007 0.997024 0.997296
1.00002 0.995897 0.999423
1.02797 0.99122 0.963585
1.02354 0.993077 0.968013
1.01285 0.99551 0.977695
1.00023 1.00149 0.992541
1.00023 1.00205 0.992104
1.00016 1.00133 0.992941
1.0002 1.0014 0.992681
1.00017 1.00192 0.992323
1.00019 1.00194 0.992232
1.00018 1.00227 0.991936
1.0181 0.996699 0.969731
1.0236 0.993098 0.966414
1.01911 0.994576 0.970954
1.01057 0.995281 0.975151
0.997731 1.00045 0.984365
0.995157 0.999994 0.975093
0.995058 1.00011 0.977291
0.997649 0.998192 0.987584
0.99496 0.999216 0.971084
0.997097 0.999136 0.976624
1.0055 0.998347 0.976872
0.996279 0.997869 0.993073
0.994884 0.999887 0.970071
0.997478 1.00011 0.979108
1.00155 0.996571 0.980101
1.00028 1.00236 0.991669
1.00021 1.00233 0.991793
1.00012 1.00234 0.991932
1.00013 1.00191 0.992384
1.00105 1.0015 0.992742
0.999067 1.00349 0.993384
1.00027 1.00234 0.991619
1.0003 1.00274 0.991187
1.00046 1.00251 0.991356
1.00027 1.0025 0.991469
1.00032 1.00278 0.991013
0.998259 1.00232 0.996318
0.999408 1.00051 0.995448
1.00025 1.00299 0.991124
0.996815 1.00078 1.00009
0.999846 1.00341 0.992096
1.02349 0.995472 0.96648
1.02668 0.993198 0.963724
1.02465 0.993417 0.965822
0.998874 1.00159 0.994949
0.996114 1.00032 1.00194
1.02772 0.99206 0.962884
0.99492 0.999839 0.970501
0.995282 0.999602 0.977379
1.01954 0.995962 0.96909
1.00007 0.996468 0.980894
0.997906 1.00479 0.997099
1.02375 0.994319 0.966428
1.00879 0.996972 0.978935
0.996952 0.999476 0.998332
0.995643 0.995362 0.982258
0.995791 0.999672 0.977947
0.995223 0.999581 0.972863
0.998782 1.00435 0.995526
1.01283 0.997479 0.975968
0.997555 0.995588 0.984281
0.99447 1.00009 0.97831
0.995351 1.00091 0.971354
0.99706 0.999594 0.986976
0.999303 1.00362 0.992111
0.998942 1.00482 0.991564
1.00014 1.00396 0.990757
0.999537 1.00406 0.991234
0.999472 1.00493 0.990313
1.00027 1.00493 0.989211
1.00017 1.0044 0.990132
1.00024 1.005 0.989131
1.00072 1.00456 0.98851
1.00018 1.00442 0.989773
1.0006 1.0045 0.989103
1.00088 1.00403 0.988827
1.00116 1.00273 0.989577
1.00072 1.00278 0.990579
1.00077 1.0035 0.989621
1.00023 1.0021 0.991833
1.00031 1.00251 0.991349
1.00048 1.0034 0.990172
1.00014 1.00219 0.992139
1.00017 1.00229 0.992001
1.00013 1.0023 0.991918
1.00008 1.00149 0.992846
1.00001 1.00224 0.992253
1.00001 1.00257 0.99199
1.00002 1.00007 0.994383
1.00013 1.00124 0.993028
1.00012 1.00199 0.992366
0.99985 0.997974 0.996798
1.00003 0.999833 0.994603
1.00015 1.00103 0.993188
1.00005 0.999581 0.994808
0.99989 0.997783 0.9969
0.999789 0.996619 0.999319
0.999943 0.997606 0.996984
0.999839 0.996475 0.999332
0.999884 0.996351 0.999343
1.00023 1.00162 0.992475
1.00023 1.00071 0.993358
1.00011 0.999444 0.994825
1.00019 1.00058 0.993562
0.999991 0.997518 0.996976
1.00012 0.999292 0.994968
1.00016 1.00046 0.993737
0.999937 0.996227 0.999351
1.00002 0.997333 0.997092
1.00013 0.999155 0.995099
0.999974 0.996072 0.999384
1.00005 0.997153 0.997208
1 0.995959 0.99941
1.02415 0.993758 0.966061
1.0277 0.991521 0.963589
1.02391 0.992847 0.967842
1.00022 1.00151 0.992564
1.00024 1.00204 0.992058
1.0002 1.0022 0.991916
1.00022 1.00198 0.992078
1.00021 1.00236 0.991833
1.0002 1.00142 0.992661
1.00018 1.00192 0.99225
1.00018 1.00195 0.992235
1.00019 1.00225 0.991929
1.00017 1.00238 0.991861
1.00772 0.997907 0.979596
1.01787 0.996785 0.969938
1.02482 0.991819 0.965332
1.00481 0.998209 0.97708
0.997365 0.999079 0.979391
0.99729 0.997631 0.985953
0.994957 0.999253 0.972754
0.996036 0.99762 0.988022
0.994936 0.999949 0.972415
0.996259 0.99939 0.97812
1.00083 0.996907 0.980665
0.995137 0.99813 0.990568
0.994981 0.999189 0.973531
0.994823 0.999853 0.977341
0.996497 0.994539 0.982184
1.00006 1.00226 0.992134
1.00024 1.00245 0.991657
1.00021 1.00232 0.991783
0.997987 1.0023 0.996722
0.999456 1.0003 0.995772
1.00027 1.00253 0.991462
1.00033 1.00281 0.990945
1.00021 1.00293 0.991186
0.999629 1.0035 0.991905
0.996932 1.00017 1.00013
0.999278 1.00401 0.991615
0.998362 1.00359 0.995318
1.01236 0.998696 0.976951
1.02395 0.995076 0.965649
1.02617 0.993776 0.963786
0.997895 1.00471 0.996969
0.996986 0.999176 0.990092
1.02412 0.994072 0.966213
0.995305 0.999397 0.967631
0.994947 0.999731 0.97643
1.00831 0.997823 0.979241
0.995506 0.994565 0.982389
0.998819 1.00423 0.995727
1.0129 0.997112 0.976022
0.997439 0.99543 0.984105
0.997353 0.999408 0.989836
0.994479 1 0.976217
0.995449 1.00122 0.968371
0.999968 1.00324 0.992755
0.999401 0.996635 0.983667
0.995375 0.997221 0.975753
0.995553 1.00176 0.969556
0.997362 1.00249 0.987218
0.998904 1.00488 0.991534
1.00002 1.00389 0.990739
1.00149 1.00275 0.989415
0.999274 1.00497 0.990453
1.00013 1.0049 0.989212
1.00113 1.00374 0.98859
1.00034 1.00498 0.989017
1.00072 1.00456 0.988524
1.00137 1.00289 0.989072
1.0006 1.00452 0.988999
1.00089 1.00393 0.98888
1.00151 1.00201 0.989606
1.00164 1.00112 0.990178
1.00096 1.00245 0.990172
1.00116 1.00262 0.989621
1.00053 1.0023 0.991302
1.00066 1.00286 0.990443
1.00078 1.00356 0.989506
1.00021 1.00191 0.992209
1.00023 1.00207 0.991915
1.00032 1.00251 0.99142
1.00007 1.00171 0.992675
1.00011 1.00219 0.992153
1.00015 1.00231 0.991982
0.999983 1.00036 0.994156
1.00009 1.0015 0.992848
1.00003 1.00219 0.992288
0.999795 0.998176 0.997153
1.00001 1.00008 0.994382
1.00014 1.00122 0.993035
0.999745 0.996825 0.998316
0.999843 0.997997 0.997017
1.00002 0.999838 0.994602
0.999893 0.997793 0.996894
0.999782 0.996645 0.999312
0.999832 0.996495 0.999327
1.00021 1.00185 0.992251
1.00024 1.00091 0.993143
1.00023 1.00165 0.992432
1.0001 0.999589 0.994699
1.00023 1.00071 0.993359
0.999957 0.997676 0.996882
1.00011 0.999445 0.994828
1.0002 1.00058 0.993562
0.999898 0.996376 0.999325
0.999988 0.997507 0.996981
1.00012 0.9993 0.994969
0.999941 0.996206 0.999359
1.00002 0.997321 0.997097
0.999978 0.996056 0.999391
1.01125 0.998824 0.977107
1.02427 0.993711 0.96589
1.0274 0.991814 0.963592
1.00019 1.00219 0.991981
1.00022 1.00152 0.992587
1.00024 1.00204 0.992012
1.00021 1.002 0.992132
1.0002 1.0022 0.991955
1.00022 1.0023 0.991822
1.00021 1.00244 0.991698
1.00017 1.00239 0.991758
1.00018 1.00195 0.992239
1.0002 1.00221 0.991923
1.00017 1.00238 0.99186
1.00025 1.00268 0.991682
0.998094 0.99499 0.98366
1.00721 0.998132 0.979874
1.01773 0.996852 0.970146
0.999113 0.996844 0.981473
0.997279 0.999562 0.976251
0.994883 0.999843 0.970102
0.995681 0.997463 0.993431
0.995021 0.998066 0.995937
0.996125 0.994388 0.98228
0.99491 0.999514 0.969479
0.995291 0.999515 0.979693
0.996135 0.999078 0.994402
0.995118 0.99863 0.975252
0.994507 0.999001 0.979221
0.999609 1.00221 0.993002
1.00017 1.00216 0.992138
1.0002 1.00253 0.991645
0.997022 0.999496 1.00018
0.999537 1.00352 0.991709
1.00016 1.00289 0.991247
0.999469 1.00403 0.991587
0.998102 1.00369 0.995426
0.999066 1.00186 0.994305
0.999336 0.996542 0.984054
1.01317 0.998596 0.975201
1.02441 0.994711 0.964818
0.998779 1.00433 0.99597
0.997356 0.999548 0.991452
1.01302 0.996854 0.976072
0.995265 1.00041 0.973871
0.994522 0.999971 0.978874
0.997716 0.99537 0.98323
0.999953 1.00302 0.993033
0.999524 0.996479 0.982555
0.99468 0.997962 0.979216
0.997245 1.00232 0.983648
0.995267 1.00216 0.970856
1.00124 1.00251 0.990424
0.996288 0.99552 0.979073
0.996285 1.00164 0.970967
0.997779 1.00267 0.982875
0.999897 1.00387 0.990722
1.00118 1.00245 0.989563
1.00186 1.00142 0.989167
0.999968 1.00486 0.989213
1.00119 1.00356 0.988598
1.00242 1.00031 0.989771
1.00073 1.00453 0.988538
1.00131 1.00276 0.989156
1.00214 0.999779 0.990665
1.0009 1.00379 0.988934
1.00154 1.00181 0.989645
1.00209 0.99944 0.990971
1.00192 0.99959 0.991191
1.00143 1.00133 0.990401
1.00164 1.00101 0.990286
1.00074 1.00205 0.990835
1.00097 1.00241 0.990259
1.00116 1.00251 0.989666
1.00032 1.00192 0.991993
1.00046 1.00232 0.991293
1.0006 1.00293 0.990306
1.00011 1.00169 0.992623
1.00023 1.00191 0.992201
1.00023 1.00204 0.991997
0.999921 1.00076 0.993901
1.00008 1.00169 0.992685
1.00009 1.00218 0.992166
0.999747 0.998396 0.996547
0.999987 1.00036 0.994152
1.00011 1.0015 0.992849
0.999655 0.997017 0.999262
0.999798 0.998209 0.996641
1.00001 1.00009 0.994381
0.999729 0.996825 0.999287
0.999845 0.998012 0.996768
0.999776 0.99667 0.999304
1.00019 1.00193 0.992275
1.0002 1.00187 0.992262
1.0002 1.00121 0.992927
1.00008 0.999784 0.994549
1.00023 1.00093 0.993142
1.00023 1.00168 0.992389
0.999924 0.997812 0.996808
1.0001 0.99958 0.994704
1.00022 1.00072 0.99336
0.999853 0.996521 0.999303
0.999954 0.997667 0.996886
1.00011 0.999443 0.994831
0.999902 0.996356 0.999332
0.999985 0.997496 0.996985
0.999946 0.996185 0.999367
0.998801 0.996452 0.98528
1.01115 0.998877 0.977195
1.02438 0.993677 0.965718
1.0002 1.00221 0.99195
1.00016 1.00219 0.992139
1.00023 1.0023 0.991811
1.00021 1.00201 0.992186
1.0002 1.00221 0.991995
1.00023 1.00225 0.991812
1.00018 1.00239 0.991768
1.00021 1.00243 0.991708
1.0001 1.00288 0.991503
1.00013 1.00256 0.991645
1.00017 1.00238 0.991859
1.00017 1.00263 0.991701
0.994771 0.997599 0.97936
0.99768 0.99515 0.984001
1.00676 0.998326 0.98015
0.995925 0.994144 0.982377
0.994583 0.99979 0.977183
0.995257 0.999685 0.976758
0.994939 0.998107 0.990366
0.995991 0.999061 0.989377
0.994557 0.998631 0.977072
0.995017 0.998999 0.974838
0.997943 0.996055 0.989732
0.995466 1.00025 0.971694
1.00014 1.00331 0.991587
0.999775 1.00195 0.992965
1.00027 1.00206 0.992144
0.997626 1.00385 0.995557
0.999636 1.00405 0.99156
0.999772 1.002 0.994068
1.00189 0.99946 0.992668
0.996633 0.995578 0.977001
0.999399 0.996849 0.983792
1.01393 0.998369 0.973453
1.0002 1.00269 0.993258
0.997113 1.00262 0.987008
0.999434 0.996217 0.982696
0.995404 1.00205 0.96942
0.995273 0.998809 0.976083
1.0013 1.0027 0.990542
0.996192 0.996275 0.977006
0.996584 1.00099 0.969304
0.997347 1.00225 0.986956
1.00127 1.00391 0.988791
0.997026 1.00065 0.966293
0.999164 0.999575 0.990404
1.00086 1.00208 0.989709
1.00166 1.00187 0.989056
1.0034 0.997872 0.989189
1.00126 1.00338 0.988606
1.00239 1.00005 0.989733
1.00319 0.996627 0.99187
1.00124 1.00266 0.989241
1.00215 0.999562 0.99068
1.00279 0.996933 0.992101
1.00156 1.00162 0.989684
1.0021 0.999355 0.990977
1.00233 0.997958 0.99191
1.00208 0.998827 0.991757
1.00191 0.999476 0.991308
1.00171 1.00007 0.99111
1.00127 1.00128 0.990791
1.00143 1.00136 0.990418
1.00163 1.0009 0.990394
1.00058 1.00177 0.991463
1.00076 1.00206 0.990933
1.00098 1.00237 0.990346
1.00019 1.00164 0.992512
1.00033 1.00193 0.991979
1.00039 1.00233 0.991285
0.999885 1.00104 0.993687
1.00013 1.00167 0.992629
1.00024 1.00191 0.992193
0.999667 0.998682 0.996407
0.999937 1.00072 0.993904
1.0001 1.00167 0.992696
0.999616 0.997197 0.999236
0.999743 0.998423 0.996539
0.999993 1.00037 0.994148
0.999668 0.997029 0.998758
0.9998 0.998222 0.996641
0.999719 0.996866 0.999273
1.00017 1.00194 0.99232
1.00019 1.00193 0.992227
1.00018 1.00141 0.992765
1.0002 1.00188 0.992273
1.0002 1.00122 0.992922
1.00004 1.00008 0.994324
0.999883 0.997967 0.996731
1.00008 0.999772 0.994554
1.00022 1.00094 0.993141
0.999803 0.99666 0.999286
0.99992 0.997807 0.996812
1.00011 0.999573 0.994708
0.999858 0.996507 0.999309
0.99995 0.997659 0.99689
0.999907 0.996337 0.99934
0.995421 0.997511 0.976665
0.998641 0.99643 0.984786
1.01109 0.998939 0.977284
1.0002 1.00221 0.99192
1.0002 1.00234 0.991789
1.00013 1.00217 0.992173
1.0001 1.00224 0.992201
1.00013 1.00245 0.991896
1.00019 1.00239 0.991778
1.00021 1.00242 0.991717
1.00007 1.00283 0.991536
0.999958 1.00255 0.991779
1.00003 1.00288 0.991456
1.00059 1.00327 0.990611
1.00006 1.00285 0.991623
1.00013 1.00259 0.99172
0.99667 1.00023 0.968097
0.994837 0.998542 0.978188
0.997441 0.995363 0.983527
0.994596 0.998348 0.979695
0.99498 0.999377 0.969741
0.995954 0.99902 0.994973
0.99811 0.996306 0.992427
0.995612 0.998991 0.974223
1.00087 0.995938 0.989208
1.00212 1.00226 0.988367
0.999767 1.00327 0.991538
0.999923 1.00168 0.992927
1.00027 1.00217 0.993816
1.00228 0.998838 0.992045
0.997317 0.999445 0.968543
0.996377 0.996415 0.975747
0.9995 0.997327 0.983527
1.00141 1.00284 0.990677
0.996871 1.00273 0.983187
0.996361 0.996072 0.97599
0.996426 1.00097 0.971549
1.00166 1.00368 0.98884
0.997811 0.999713 0.970366
0.998807 1.00009 0.985406
1.00325 1.00239 0.987076
1.00076 0.997984 0.992523
1.00145 1.00231 0.988943
1.00333 0.99842 0.989064
1.00439 0.99562 0.989941
1.00232 0.999808 0.989696
1.003 0.996661 0.991858
1.00343 0.995227 0.99248
1.00216 0.999318 0.990694
1.00277 0.996938 0.992029
1.00287 0.996525 0.992302
1.00211 0.999274 0.990983
1.00233 0.99804 0.991861
1.00236 0.99798 0.991902
1.00202 0.998694 0.99188
1.00197 0.999317 0.991478
1.00191 0.999373 0.991425
1.00172 1.00009 0.991087
1.0016 1.00038 0.991031
1.001 1.00126 0.991172
1.00126 1.00132 0.990771
1.00143 1.0014 0.990436
1.00038 1.00156 0.992219
1.00057 1.0018 0.991527
1.00078 1.00207 0.99103
0.999874 1.00121 0.993515
1.00021 1.00163 0.992504
1.00035 1.00193 0.991965
0.999591 0.999005 0.996214
0.999908 1.00099 0.993695
1.00015 1.00164 0.992636
0.999547 0.997402 0.99921
0.999662 0.99872 0.996398
0.99995 1.00069 0.993907
0.999605 0.997216 0.99923
0.99974 0.998453 0.99653
0.999661 0.997051 0.999246
1.00011 1.00209 0.992264
1.00015 1.00194 0.992325
1.00014 1.00157 0.992632
1.0002 1.00194 0.992178
1.00017 1.00144 0.992721
1.00002 1.00039 0.99405
1.00019 1.00123 0.992917
1.00005 1.00007 0.994326
0.999829 0.998191 0.996611
0.999747 0.996816 0.999268
0.99988 0.997959 0.996737
1.00009 0.999757 0.994559
0.99981 0.996651 0.999291
0.999916 0.997801 0.996816
0.999863 0.996492 0.999316
0.997045 1.00075 0.971208
0.995671 0.996781 0.978491
0.99827 0.996418 0.985373
1.00018 1.00241 0.991768
1.0001 1.00215 0.992207
1.00013 1.00244 0.991915
1.00009 1.00223 0.992195
1.00006 1.00243 0.992063
0.999985 1.0024 0.992068
1.00005 1.00275 0.991568
1.00001 1.00269 0.991699
0.999949 1.00309 0.991438
1.0001 1.00236 0.991602
1.0009 1.00282 0.990896
1.00167 1.00264 0.988818
1.00043 1.00309 0.990692
0.999971 1.00315 0.991602
1.00028 0.997851 0.988924
0.996059 1.00094 0.970922
0.995138 0.99792 0.97612
0.995571 0.999903 0.971774
0.998357 0.996461 0.995006
1.00089 0.995856 0.992791
1.00412 0.997138 0.990346
1.0021 1.00169 0.988999
0.999576 1.00328 0.991484
1.00331 0.998357 0.991421
0.999 1.0006 0.985409
0.997697 1.00008 0.971034
0.996347 0.995738 0.978792
1.00208 1.00363 0.988895
0.998443 1.00044 0.988793
0.997381 0.998559 0.974537
1.00343 1.00143 0.987275
1.00057 0.998599 0.990076
1.00483 0.997553 0.988203
1.00398 0.99855 0.989654
1.00332 0.999067 0.98894
1.00439 0.995689 0.989965
1.00381 0.996394 0.990686
1.00282 0.996675 0.991843
1.00334 0.995479 0.992442
1.00335 0.996479 0.99147
1.00275 0.996972 0.991957
1.00281 0.996712 0.992243
1.00284 0.997589 0.991392
1.00233 0.998127 0.991811
1.00229 0.998059 0.991931
1.0022 0.998906 0.991299
1.00197 0.998568 0.992002
1.00195 0.999211 0.991544
1.00187 0.999841 0.991141
1.00173 1.0001 0.991063
1.0016 1.00041 0.99101
1.00141 1.00062 0.991213
1.00068 1.00122 0.991817
1.00098 1.0013 0.991232
1.00125 1.00136 0.99075
0.999944 1.0013 0.993277
1.00039 1.00156 0.992214
1.00056 1.00182 0.991591
0.999517 0.999375 0.995978
0.999904 1.00117 0.993518
1.00024 1.00162 0.992495
0.999482 0.997638 0.999167
0.999589 0.999045 0.996208
0.999929 1.00094 0.993702
0.999538 0.997428 0.999198
0.999659 0.998756 0.996389
0.999596 0.997234 0.999223
1.00011 1.00222 0.992152
1.00013 1.00207 0.992293
1.00008 1.00177 0.992583
1.00014 1.00194 0.992329
1.00013 1.0016 0.992626
0.999996 1.00068 0.993813
1.00017 1.00147 0.992677
1.00002 1.00039 0.994049
0.99977 0.998457 0.996459
1.00006 1.00005 0.994328
0.999831 0.998168 0.996621
0.999686 0.99701 0.999238
0.999756 0.996804 0.999274
0.999878 0.997949 0.996743
0.999816 0.996642 0.999296
0.999415 0.999814 0.987371
0.996861 1.00011 0.969479
0.99613 0.99704 0.975691
1.00033 1.00224 0.991742
1.00012 1.00245 0.991935
1.00008 1.00221 0.992189
1.00002 1.00245 0.992058
1.00003 1.00247 0.992041
0.999989 1.00203 0.992355
1.00006 1.00288 0.991619
0.999937 1.00331 0.99142
1.00022 1.00238 0.9917
1.00063 1.00271 0.991111
1.00164 1.00175 0.989648
1.00337 1.00019 0.987532
1.00173 1.00227 0.988752
1.00037 1.0028 0.990773
1.00455 0.995727 0.99045
1.00004 0.998225 0.987045
0.995955 1.0008 0.974224
1.0008 0.995795 0.987902
1.00417 0.99695 0.990043
1.00166 1.00095 0.989645
1.00297 0.999715 0.990996
0.999038 1.00013 0.989264
0.997362 0.999488 0.968845
1.0036 1.00045 0.987466
1.00047 0.998552 0.987649
1.00491 0.997002 0.988036
1.00396 0.998324 0.990145
1.00427 0.996818 0.988723
1.00333 0.998477 0.988679
1.00434 0.995692 0.989989
1.00381 0.996245 0.990754
1.0034 0.997801 0.990175
1.00327 0.995699 0.992403
1.00334 0.996534 0.991453
1.00317 0.997976 0.990399
1.00275 0.996894 0.992184
1.00273 0.997665 0.991514
1.00261 0.998771 0.990581
1.00222 0.998132 0.991961
1.00218 0.998917 0.991302
1.00209 0.999564 0.990864
1.00192 0.999105 0.99161
1.00186 0.999761 0.991169
1.00167 1.00019 0.991089
1.0016 1.00043 0.99099
1.00139 1.00063 0.99117
1.00107 1.00082 0.991646
1.00016 1.00118 0.992988
1.00067 1.00124 0.991878
1.00096 1.00134 0.991291
0.999461 0.99981 0.995659
0.999966 1.00129 0.99328
1.0004 1.00156 0.992209
0.999403 0.997911 0.999112
0.999531 0.999394 0.995973
0.999934 1.00113 0.993521
0.999469 0.997668 0.999151
0.999588 0.999082 0.996202
0.999529 0.997452 0.999186
1.00022 1.00216 0.991875
1.00011 1.00219 0.992159
1.0001 1.00187 0.992506
1.00014 1.00206 0.992321
1.00008 1.00178 0.992606
0.999928 1.00101 0.99363
1.00012 1.00163 0.99262
0.999983 1.00072 0.993808
0.999689 0.998764 0.996307
1.00002 1.0004 0.994047
0.999775 0.998425 0.996469
0.999621 0.99722 0.999204
0.999833 0.998145 0.996631
0.999696 0.996986 0.999248
0.999763 0.996794 0.99928
1.00364 0.996633 0.99136
0.999415 1.00008 0.983717
0.997106 1.00052 0.970931
1.00037 1.00175 0.991955
1.00097 1.00168 0.991037
1.00018 1.00227 0.991806
1.00006 1.00248 0.992049
1.00002 1.00251 0.992019
1.00012 1.00202 0.992269
1.0015 1.00126 0.990351
1.00029 1.00241 0.991799
1.00021 1.00262 0.991326
1.00157 1.00169 0.989791
1.00304 1.00004 0.988166
1.00426 0.997266 0.98852
1.00347 1.00008 0.987533
1.00187 1.00192 0.988686
1.00444 0.995828 0.990662
0.99996 0.998905 0.984323
1.00439 0.99682 0.989724
1.00289 0.998109 0.991
1.00289 0.999114 0.991249
0.999187 1.00012 0.984291
1.005 0.99648 0.987868
1.00398 0.998134 0.990605
1.00429 0.996961 0.988753
1.00344 0.99846 0.988959
1.00334 0.998525 0.989401
1.00299 0.998271 0.990247
1.00382 0.996006 0.990822
1.00342 0.997611 0.990224
1.00327 0.998615 0.989487
1.00333 0.99663 0.991435
1.00312 0.997966 0.990463
1.00299 0.998748 0.989835
1.00262 0.997736 0.991636
1.00262 0.99878 0.990575
1.00248 0.999404 0.990239
1.00217 0.998927 0.991305
1.00209 0.99956 0.990862
1.0019 1 0.990794
1.00184 0.999681 0.991197
1.00165 1.00017 0.991095
1.00131 1.00049 0.991463
1.00136 1.00064 0.991126
1.00103 1.00081 0.991628
1.00045 1.00088 0.992727
0.999488 1.00011 0.995325
1.00016 1.00118 0.992992
1.00066 1.00127 0.99194
0.999297 0.998263 0.999038
0.999499 0.999784 0.99565
0.999987 1.00127 0.993283
0.999383 0.997957 0.999091
0.999544 0.999411 0.995967
0.999456 0.9977 0.999136
1.00051 1.00199 0.991319
1.00023 1.00213 0.991816
1.00025 1.00179 0.992298
1.0001 1.00217 0.992167
1.00008 1.00187 0.992509
0.999875 1.00129 0.993474
1.00007 1.00179 0.99263
0.999906 1.00106 0.993626
0.999594 0.999124 0.996138
0.999969 1.00075 0.993803
0.999697 0.998727 0.996314
0.999545 0.99745 0.999168
0.99978 0.998392 0.996479
0.999633 0.997195 0.999214
0.999706 0.996966 0.999258
1.00361 0.996458 0.990557
1.00361 0.996899 0.991366
0.999627 1.00006 0.987019
1.00158 1.00102 0.990746
1.00022 1.00172 0.99229
1.00154 1.00098 0.990164
1.00099 1.00169 0.990989
1.00003 1.00232 0.99187
1.00286 1.00014 0.988806
1.00026 1.00199 0.992184
1.00158 1.00115 0.990296
1.00377 0.998434 0.988594
1.00153 1.00163 0.989933
1.00314 1.0001 0.988104
1.00414 0.997554 0.988503
1.00339 1.00006 0.987534
1.0043 0.995929 0.990865
1.00284 0.99812 0.990995
1.00283 0.997876 0.990911
1.0028 0.99849 0.991507
1.00429 0.997057 0.988783
1.00354 0.998489 0.989235
1.00345 0.998459 0.989332
1.003 0.998349 0.990313
1.00296 0.998778 0.989945
1.00342 0.997495 0.990273
1.00329 0.998556 0.989523
1.00315 0.998927 0.989406
1.00306 0.997965 0.990527
1.003 0.998788 0.989811
1.00286 0.999257 0.989641
1.00263 0.998789 0.990568
1.00249 0.999402 0.990226
1.00225 0.999812 0.990283
1.00209 0.999556 0.990861
1.00191 0.999998 0.990791
1.00157 1.0003 0.99114
1.00163 1.00014 0.991101
1.00131 1.00049 0.991468
1.00071 1.00061 0.992477
1.001 1.0008 0.99161
1.00044 1.0009 0.99273
0.99953 1.00023 0.995761
0.999222 0.998843 0.997452
0.999527 1.00004 0.995665
1.00017 1.00118 0.992997
0.999277 0.998339 0.999008
0.999533 0.999765 0.995642
0.999365 0.998004 0.99907
1.00194 1.00022 0.990358
1.00091 1.00164 0.990874
1.00058 1.00197 0.99125
1.00046 1.00164 0.99203
1.00023 1.0021 0.991757
1.00023 1.00178 0.99231
0.999882 1.00142 0.993343
1.00007 1.00187 0.992511
0.999851 1.00132 0.993471
0.999513 0.999504 0.995926
0.999884 1.0011 0.993621
0.999598 0.999086 0.996144
0.999451 0.99772 0.999123
0.999704 0.998689 0.996321
0.99956 0.997423 0.999179
0.999646 0.99717 0.999225
1.00336 0.99785 0.99006
1.00359 0.996707 0.990597
1.00356 0.997228 0.991372
1.00263 0.999974 0.989367
1.00135 1.00104 0.991016
1.00006 1.00166 0.992624
1.00168 1.00093 0.990275
1.001 1.0017 0.990941
1.00364 0.998994 0.988346
1.00287 1.0002 0.988684
1.00164 1.00108 0.990241
1.00381 0.998465 0.988552
1.00329 1.00013 0.988043
1.00402 0.997792 0.988486
1.00272 0.998664 0.990424
1.0028 0.9981 0.990936
1.00276 0.997592 0.990823
1.00358 0.998383 0.989265
1.003 0.998399 0.990378
1.00298 0.998761 0.989969
1.00285 0.999186 0.989749
1.00331 0.998487 0.989559
1.00317 0.998895 0.989394
1.00298 0.999159 0.989485
1.00301 0.998828 0.989787
1.00286 0.999258 0.989629
1.0026 0.999596 0.989824
1.0025 0.9994 0.990214
1.00226 0.999809 0.990273
1.00188 1.00011 0.990705
1.00191 0.999993 0.990788
1.00157 1.0003 0.991139
1.00096 1.00044 0.99216
1.0013 1.00049 0.991472
1.00071 1.00062 0.992475
0.999603 1.00031 0.995564
1.00043 1.00091 0.992733
0.999586 1.00021 0.995719
0.999093 0.999376 0.997229
0.999187 0.998817 0.998181
0.999572 0.99998 0.995996
0.999259 0.99841 0.998978
1.00267 0.999706 0.989545
1.0015 1.00088 0.990801
1.00182 1.00009 0.990753
1.0007 1.00154 0.991617
1.00101 1.00164 0.990862
1.00067 1.00195 0.991181
1.00043 1.00168 0.992037
0.999977 1.00142 0.993151
1.00021 1.00178 0.992322
0.999867 1.00142 0.993339
0.999462 0.999871 0.995671
0.999828 1.00135 0.993468
0.999505 0.999481 0.995931
0.999332 0.998058 0.999063
0.999601 0.999047 0.996149
0.999472 0.997683 0.999137
0.999576 0.997395 0.99919
1.00331 0.998557 0.989396
1.00337 0.997888 0.990033
1.00362 0.996991 0.990638
1.00336 0.999089 0.988686
1.00262 1.00001 0.989367
1.00115 1.00106 0.991287
1.00182 1.00086 0.990386
1.00365 0.998997 0.98837
1.00289 1.00024 0.988562
1.00385 0.998486 0.98851
1.00283 0.999056 0.989895
1.00278 0.998708 0.990282
1.00277 0.998103 0.990878
1.0028 0.99951 0.989547
1.00299 0.998749 0.989993
1.00286 0.9992 0.989722
1.00284 0.999336 0.989636
1.0032 0.998868 0.989383
1.00298 0.99916 0.989488
1.00273 0.999508 0.989653
1.00287 0.999261 0.989617
1.0026 0.999602 0.98982
1.00218 0.999897 0.990343
1.00227 0.999806 0.990263
1.00189 1.00011 0.9907
1.00122 1.00031 0.991791
1.00158 1.00029 0.991137
1.00096 1.00044 0.992151
0.999689 1.00031 0.995423
1.0007 1.00063 0.992473
0.99966 1.00028 0.995528
0.998995 0.99973 0.997105
0.999642 1.00018 0.995676
0.999064 0.999391 0.997267
0.999136 0.998776 0.998932
1.0031 0.999549 0.988976
1.0023 1.00003 0.990029
1.00259 0.999786 0.989684
1.00117 1.00109 0.991324
1.00148 1.00082 0.990797
1.0017 0.999973 0.991146
1.0002 1.00137 0.992758
1.0007 1.00154 0.991613
1.0011 1.00165 0.99085
1.00039 1.00171 0.992045
0.999959 1.00144 0.993149
0.999451 1.0002 0.995364
0.999852 1.00142 0.993335
0.999433 0.999885 0.995674
0.999188 0.998486 0.99899
0.999495 0.999457 0.995935
0.99936 0.998 0.999082
0.999492 0.997646 0.999151
1.00331 0.998761 0.989249
1.00341 0.99854 0.989282
1.00336 0.99792 0.990007
1.00344 0.999023 0.988672
1.00262 1.00006 0.989367
1.00367 0.999002 0.988394
1.00289 0.999359 0.989475
1.00281 0.999103 0.989883
1.00286 0.998752 0.99014
1.00279 0.999499 0.989567
1.00275 0.999719 0.989446
1.00286 0.999211 0.989695
1.00283 0.999345 0.989639
1.00269 0.999575 0.989699
1.00299 0.999161 0.989492
1.00273 0.999501 0.989662
1.00232 0.999802 0.990158
1.00259 0.999606 0.989816
1.00218 0.999902 0.990338
1.00144 1.00013 0.991526
1.00189 1.00011 0.990694
1.00122 1.0003 0.991779
0.999814 1.00023 0.995309
1.00096 1.00045 0.992141
0.999747 1.00029 0.995388
0.998938 0.999954 0.997025
0.999719 1.00025 0.995492
0.998961 0.999767 0.997138
0.999034 0.999402 0.997305
1.0032 0.998912 0.989281
1.00275 0.999727 0.989403
1.00312 0.999498 0.988928
1.00176 1.00041 0.990742
1.00227 1.00007 0.990097
1.00249 0.999857 0.989825
1.00057 1.00103 0.992302
1.00115 1.00105 0.991208
1.00146 1.00075 0.990794
0.999506 1.00048 0.994983
1.00019 1.00136 0.992761
1.00071 1.00154 0.99161
0.999938 1.00145 0.993147
0.999397 1.00027 0.995371
0.99904 0.99899 0.998904
0.999404 0.999906 0.995677
0.999218 0.998404 0.999013
0.999389 0.997945 0.999101
1.00315 0.999034 0.989323
1.00334 0.99876 0.98922
1.00348 0.998521 0.989167
1.00352 0.998948 0.988657
1.00292 0.999553 0.989241
1.0029 0.99935 0.989502
1.00279 0.999147 0.989871
1.00278 0.999487 0.989587
1.00275 0.999696 0.989436
1.00264 0.999783 0.989593
1.00282 0.999356 0.989643
1.00268 0.999584 0.989729
1.00235 0.999787 0.99006
1.00272 0.999497 0.98967
1.00232 0.9998 0.990161
1.00156 0.999998 0.991405
1.00217 0.999909 0.990333
1.00145 1.00012 0.991518
0.999936 1.00011 0.994385
1.00123 1.0003 0.991767
0.999856 1.00024 0.994851
0.998919 1.00001 0.998698
0.999806 1.00026 0.995352
0.998899 1.00001 0.997056
0.998925 0.999803 0.997173
1.0031 0.999 0.989474
1.00283 0.999377 0.989497
1.00318 0.998956 0.989311
1.00219 0.999941 0.990085
1.00272 0.999724 0.989473
1.00313 0.999453 0.988881
1.00101 1.00053 0.991705
1.00177 1.00041 0.990734
1.00223 1.00013 0.990166
0.999649 1.00054 0.994609
1.00058 1.00101 0.992199
1.00113 1.00101 0.991092
0.998942 0.999502 0.998799
0.999439 1.00055 0.994998
1.00019 1.00135 0.992764
0.99934 1.00034 0.995378
0.999064 0.998894 0.998932
0.999254 0.99832 0.999036
1.00302 0.999244 0.989361
1.00314 0.999029 0.989341
1.00336 0.998764 0.989191
1.00289 0.999701 0.989196
1.00293 0.999565 0.989206
1.00291 0.999344 0.989529
1.00275 0.999672 0.989426
1.00265 0.999765 0.989596
1.0024 0.99983 0.990067
1.00266 0.999592 0.989759
1.00234 0.999806 0.990164
1.00164 0.99994 0.99113
1.00231 0.999795 0.990163
1.00156 0.999993 0.991404
1 1.00002 0.994341
1.00145 1.00012 0.991509
0.999938 1.00011 0.99438
0.99894 1.00002 0.998691
0.999888 1.00023 0.994412
0.998913 1.00008 0.997861
0.998858 1.00007 0.997089
1.00297 0.999233 0.989569
1.00282 0.999292 0.989681
1.00307 0.998967 0.989491
1.00236 0.999726 0.990106
1.00283 0.999383 0.989524
1.00316 0.998997 0.989341
1.0014 1.00014 0.991329
1.00222 0.999984 0.990218
1.0027 0.999718 0.989544
0.999813 1.00041 0.994373
1.00107 1.0005 0.991657
1.00177 1.0004 0.990726
0.998915 0.999883 0.99871
0.999589 1.00061 0.994624
1.0006 1.00098 0.992096
0.998944 0.999394 0.998835
0.999373 1.00062 0.995012
0.999088 0.998786 0.998959
1.00289 0.9995 0.989388
1.00301 0.999255 0.989364
1.00313 0.99902 0.98936
1.00261 0.999755 0.98971
1.00287 0.999723 0.989224
1.00295 0.999577 0.989171
1.00265 0.999749 0.989599
1.0024 0.99982 0.990072
1.00176 0.999899 0.990925
1.00233 0.999827 0.990269
1.00163 0.999946 0.991226
1.00007 0.999997 0.994227
1.00157 0.999985 0.991402
1 1.00002 0.99434
0.998976 1.00002 0.998682
0.999939 1.00012 0.994375
0.998953 1.00003 0.998687
0.998931 1.00016 0.996984
1.0028 0.999427 0.989712
1.00295 0.99918 0.989581
1.00244 0.999628 0.990076
1.00282 0.999292 0.989676
1.00305 0.998935 0.989508
1.00161 0.999963 0.991327
1.00238 0.999721 0.990096
1.00282 0.999389 0.989551
0.999948 1.00021 0.994282
1.00143 1.00016 0.991397
1.00224 1.00002 0.990351
0.998935 1.00007 0.998666
0.999777 1.00045 0.994383
1.00112 1.00048 0.991609
0.9989 0.999798 0.998738
0.999532 1.00067 0.994638
0.998945 0.999286 0.998869
1.00257 0.99968 0.989879
1.00287 0.999519 0.989413
1.00301 0.999269 0.989367
1.00189 0.99984 0.990713
1.00261 0.999777 0.989709
1.00284 0.999743 0.989252
1.0024 0.99981 0.990076
1.00175 0.999897 0.990959
1.00017 0.999962 0.994057
1.00162 0.999949 0.991323
1.00007 1 0.994223
0.999023 1.00001 0.998658
1 1.00003 0.994338
0.998992 1.00002 0.998676
0.99897 1.00005 0.998684
1.00248 0.999669 0.989993
1.0028 0.99938 0.989691
1.00293 0.999124 0.989594
1.0017 0.999869 0.99124
1.00245 0.99963 0.990071
1.00283 0.999291 0.989671
1.00004 1.00004 0.994254
1.00161 0.999972 0.991328
1.0024 0.999716 0.990085
0.998977 1.00011 0.998655
0.99993 1.00022 0.994292
1.00145 1.00019 0.991464
0.998914 1.00002 0.998678
0.999745 1.00048 0.994395
0.99888 0.999712 0.998768
1.00188 0.999832 0.990941
1.00258 0.999692 0.989769
1.00285 0.999535 0.989437
1.00024 0.999918 0.99395
1.00189 0.999838 0.99073
1.0026 0.999801 0.989709
1.00173 0.999893 0.990992
1.00017 0.999971 0.994052
0.999103 0.999996 0.99861
1.00007 1.00001 0.994218
0.99905 1.00001 0.998641
0.999009 1.00003 0.998668
1.00179 0.999848 0.991104
1.00249 0.999649 0.989953
1.0028 0.999335 0.989671
1.00013 0.999964 0.995061
1.00171 0.999878 0.991238
1.00246 0.999632 0.990065
0.999026 1.00006 0.998649
1.00004 1.00003 0.994259
1.00161 0.999982 0.991328
0.998956 1.00009 0.998658
0.999912 1.00024 0.994301
0.998891 0.999975 0.998691
1.00026 0.999939 0.99393
1.00188 0.999822 0.99086
1.00259 0.999698 0.989659
0.999173 0.999982 0.998573
1.00025 0.99992 0.993945
1.00188 0.999836 0.990746
1.00017 0.99998 0.994045
0.999128 1 0.998594
0.999077 1.00002 0.998623
1.00023 0.999951 0.994926
1.00179 0.999846 0.991106
1.0025 0.99963 0.989914
0.998995 1.00003 0.998698
1.00011 0.999953 0.994207
1.00171 0.999885 0.991235
0.999006 1.00006 0.998652
1.00004 1.00003 0.994264
0.998931 1.00007 0.998661
0.999179 0.999963 0.996702
1.00026 0.999928 0.994405
1.00188 0.999818 0.990779
0.999177 0.999986 0.998566
1.00025 0.999924 0.993945
0.99915 1 0.99858
0.999057 0.999972 0.996852
1.0002 0.999946 0.994515
1.00179 0.999843 0.991108
0.999026 1.00001 0.997775
1.00011 0.999947 0.994198
0.998988 1.00006 0.998654
0.999184 0.999985 0.998562
1.00025 0.999909 0.993959
0.999187 0.999985 0.998561
0.999102 0.999985 0.99771
1.00018 0.999937 0.994074
0.999042 1.00002 0.998644
0.999163 0.999983 0.998577
0.999104 0.999999 0.998614

TENSORS stress float
0.00117516 3.14493e-05 3.17532e-05
3.14493e-05 0.000224049 -5.91278e-06
3.17532e-05 -5.91278e-06 0.000208012
0.0028209 -5.75079e-05 2.9322e-05
-5.75079e-05 0.00104017 3.3873e-06
2.9322e-05 3.3873e-06 0.00104241
0.00117645 3.68146e-05 1.29373e-05
3.68146e-05 0.000227616 -2.06687e-06
1.29373e-05 -2.06687e-06 0.000211005
0.00131752 1.53884e-05 4.39815e-05
1.53884e-05 0.000309909 -4.47628e-06
4.39815e-05 -4.47628e-06 0.00028901
0.00121426 2.75625e-05 3.57923e-05
2.75625e-05 0.000254451 -5.50278e-06
3.57923e-05 -5.50278e-06 0.000235625
0.00114327 3.32664e-05 2.83565e-05
3.32664e-05 0.000194528 -6.21735e-06
2.83565e-05 -6.21735e-06 0.000182801
0.00113178 1.04578e-05 7.32084e-06
1.04578e-05 0.000168733 -2.55117e-06
7.32084e-06 -2.55117e-06 0.000133209
0.00283077 -5.83707e-05 4.01704e-07
-5.83707e-05 0.00104233 -1.38352e-07
4.01704e-07 -1.38352e-07 0.00104513
0.00321512 -8.25351e-05 1.09302e-05
-8.25351e-05 0.00128363 1.19539e-06
1.09302e-05 1.19539e-06 0.00127426
0.00284788 -6.85207e-05 1.13829e-05
-6.85207e-05 0.00106958 1.30064e-06
1.13829e-05 1.30064e-06 0.00106794
0.00109458 -3.22232e-05 2.34487e-05
-3.22232e-05 0.000146255 3.84063e-06
2.34487e-05 3.84063e-06 0.000143847
0.000788005 -1.748e-05 5.60681e-06
-1.748e-05 -9.97473e-06 3.21069e-06
5.60681e-06 3.21069e-06 -3.98441e-05
0.00159197 -9.4574e-06 5.41222e-05
-9.4574e-06 0.000432044 9.67269e-07
5.41222e-05 9.67269e-07 0.000411228
0.00135581 -4.01099e-05 6.98553e-06
-4.01099e-05 0.00033573 1.4899e-06
6.98553e-06 1.4899e-06 0.000312317
0.00117171 4.34267e-05 -7.11199e-06
4.34267e-05 0.000228278 1.74541e-06
-7.11199e-06 1.74541e-06 0.000210963
0.00133084 3.17909e-05 1.92849e-05
3.17909e-05 0.000321698 -1.33353e-06
1.92849e-05 -1.33353e-06 0.000298999
0.00112926 3.72453e-05 1.12568e-05
3.72453e-05 0.000189266 -2.24155e-06
1.12568e-05 -2.24155e-06 0.000177375
0.00122399 3.52746e-05 1.49408e-05
3.52746e-05 0.000263155 -1.78984e-06
1.49408e-05 -1.78984e-06 0.000243335
0.00117914 1.00436e-05 -4.79808e-06
1.00436e-05 0.000191007 4.53199e-07
-4.79808e-06 4.53199e-07 0.000155877
0.0040824 5.32543e-05 5.2611e-05
5.32543e-05 0.00170501 -5.65069e-07
5.2611e-05 -5.65069e-07 0.00169685
0.00138906 1.40981e-05 4.69114e-05
1.40981e-05 0.000342065 -3.54423e-06
4.69114e-05 -3.54423e-06 0.000321524
0.00125273 2.08988e-05 4.00177e-05
2.08988e-05 0.000279034 -5.11324e-06
4.00177e-05 -5.11324e-06 0.000258675
0.00130373 6.96712e-06 8.54004e-06
6.96712e-06 0.000230824 -2.80637e-06
8.54004e-06 -2.80637e-06 0.00018993
0.00118549 7.31533e-06 7.64647e-06
7.31533e-06 0.000191131 -2.62673e-06
7.64647e-06 -2.62673e-06 0.000153341
0.00114048 3.37308e-05 2.60481e-05
3.37308e-05 0.000178068 -6.28093e-06
2.60481e-05 -6.28093e-06 0.000171558
0.00107461 1.73498e-05 6.5618e-06
1.73498e-05 0.000143724 -2.62267e-06
6.5618e-06 -2.62267e-06 0.000111678
0.00143606 -3.63312e-05 2.46976e-06
-3.63312e-05 0.000256976 -1.09481e-06
2.46976e-06 -1.09481e-06 0.000197701
0.00284054 -5.91887e-05 -2.76243e-05
-5.91887e-05 0.00104421 -3.38465e-06
-2.76243e-05 -3.38465e-06 0.00104762
0.00220671 -5.48838e-05 -1.39692e-05
-5.48838e-05 0.000768094 -5.41532e-07
-1.39692e-05 -5.41532e-07 0.000753792
0.00201983 -5.10776e-05 -1.12566e-05
-5.10776e-05 0.000646325 -8.68453e-07
-1.12566e-05 -8.68453e-07 0.000639658
0.0027128 -5.42955e-05 2.86698e-07
-5.42955e-05 0.000970295 -8.56909e-08
2.86698e-07 -8.56909e-08 0.000976337
0.000732403 -1.88145e-05 1.07964e-07
-1.88145e-05 -3.54506e-05 -4.97735e-08
1.07964e-07 -4.97735e-08 -6.55504e-05
0.00147779 -1.9644e-05 3.89057e-05
-1.9644e-05 0.000397236 2.91504e-06
3.89057e-05 2.91504e-06 0.000376
0.00129547 -3.11334e-05 3.10149e-05
-3.11334e-05 0.00029256 3.20303e-06
3.10149e-05 3.20303e-06 0.000276592
0.0018544 7.37202e-06 1.96393e-05
7.37202e-06 0.000527147 2.75429e-06
1.96393e-05 2.75429e-06 0.000493062
0.00260669 -5.5053e-05 1.00444e-05
-5.5053e-05 0.000905817 1.49469e-06
1.00444e-05 1.49469e-06 0.000914449
0.00168718 -1.47742e-05 1.56192e-05
-1.47742e-05 0.000449279 2.58644e-06
1.56192e-05 2.58644e-06 0.000421552
0.000776126 -2.76103e-05 6.36264e-06
-2.76103e-05 -1.95221e-05 4.98999e-06
6.36264e-06 4.98999e-06 -4.584e-05
0.000906624 2.11941e-05 2.86314e-06
2.11941e-05 2.52648e-05 1.15496e-06
2.86314e-06 1.15496e-06 -3.39303e-05
0.00258405 -4.17721e-05 2.41791e-05
-4.17721e-05 0.000876785 3.95187e-06
2.41791e-05 3.95187e-06 0.000889579
0.00425845 -5.38594e-05 1.31384e-06
-5.38594e-05 0.00178865 -1.99868e-07
1.31384e-06 -1.99868e-07 0.00178017
0.0026203 -5.39395e-05 -2.00691e-05
-5.39395e-05 0.000974521 -6.40644e-08
-2.00691e-05 -6.40644e-08 0.000957945
0.00440969 -4.13029e-05 5.85165e-05
-4.13029e-05 0.0018588 1.51142e-07
5.85165e-05 1.51142e-07 0.00185072
0.00138085 -3.32831e-05 7.94685e-06
-3.32831e-05 0.000340446 1.18048e-06
7.94685e-06 1.18048e-06 0.000317697
0.000773713 -1.20688e-05 1.12634e-05
-1.20688e-05 -7.43239e-05 2.32957e-06
1.12634e-05 2.32957e-06 -0.00011847
0.00366744 -0.000102579 8.50145e-06
-0.000102579 0.001518 1.03395e-06
8.50145e-06 1.03395e-06 0.00150452
0.00206396 -1.72634e-05 2.72107e-05
-1.72634e-05 0.000601599 2.98478e-06
2.72107e-05 2.98478e-06 0.000566745
0.00136208 5.01957e-05 -5.97019e-06
5.01957e-05 0.000343227 1.87996e-06
-5.97019e-06 1.87996e-06 0.000318372
0.00123513 4.52783e-05 -6.95758e-06
4.52783e-05 0.000272836 1.81056e-06
-6.95758e-06 1.81056e-06 0.000251787
0.00110054 4.17157e-05 -6.81716e-06
4.17157e-05 0.000176675 1.67357e-06
-6.81716e-06 1.67357e-06 0.000164585
0.00123231 8.69912e-06 -1.74716e-05
8.69912e-06 0.000216179 3.46415e-06
-1.74716e-05 3.46415e-06 0.00018149
0.00278611 4.63182e-05 -2.01827e-05
4.63182e-05 0.00104681 -8.10397e-07
-2.01827e-05 -8.10397e-07 0.00103126
0.0013759 3.31116e-05 2.08995e-05
3.31116e-05 0.000340265 -1.00358e-06
2.08995e-05 -1.00358e-06 0.000317782
0.00109985 3.67689e-05 1.00582e-05
3.67689e-05 0.000158535 -2.26377e-06
1.00582e-05 -2.26377e-06 0.000152107
0.00127269 3.29728e-05 1.70976e-05
3.29728e-05 0.000293625 -1.55593e-06
1.70976e-05 -1.55593e-06 0.000271825
0.00135903 2.47336e-06 -7.58498e-06
2.47336e-06 0.000256107 1.30702e-07
-7.58498e-06 1.30702e-07 0.000216113
0.00112327 1.74983e-05 -4.14458e-06
1.74983e-05 0.000167051 4.67695e-07
-4.14458e-06 4.67695e-07 0.000135298
0.0012343 5.90684e-06 -5.75196e-06
5.90684e-06 0.000213247 3.9401e-07
-5.75196e-06 3.9401e-07 0.000176062
0.00149645 -3.91237e-05 -1.35728e-06
-3.91237e-05 0.000285028 5.48102e-07
-1.35728e-06 5.48102e-07 0.000225276
0.00421239 5.56544e-05 5.28847e-05
5.56544e-05 0.00176578 9.47444e-09
5.28847e-05 9.47444e-09 0.00175741
0.00142194 1.5385e-05 4.89016e-05
1.5385e-05 0.000356628 -2.67287e-06
4.89016e-05 -2.67287e-06 0.000336427
0.00202694 2.98923e-05 8.79613e-06
2.98923e-05 0.000571844 -1.21263e-06
8.79613e-06 -1.21263e-06 0.000535545
0.00136125 1.25733e-05 9.0881e-06
1.25733e-05 0.000249076 -2.33992e-06
9.0881e-06 -2.33992e-06 0.000208364
0.00123545 5.9618e-06 7.95088e-06
5.9618e-06 0.00020879 -2.84514e-06
7.95088e-06 -2.84514e-06 0.000169138
0.00171154 -4.03114e-05 3.29411e-06
-4.03114e-05 0.000317773 -1.56168e-06
3.29411e-06 -1.56168e-06 0.000253423
0.00120704 -3.49352e-05 3.17776e-06
-3.49352e-05 0.000117428 -1.55933e-06
3.17776e-06 -1.55933e-06 5.59814e-05
0.001204 3.30117e-05 2.53738e-05
3.30117e-05 0.000193552 -6.20909e-06
2.53738e-05 -6.20909e-06 0.000191938
0.00104378 3.65552e-05 4.88929e-06
3.65552e-05 0.000128642 -2.78545e-06
4.88929e-06 -2.78545e-06 0.000100814
0.00132408 -2.57707e-05 2.14375e-06
-2.57707e-05 0.000225969 -1.09955e-06
2.14375e-06 -1.09955e-06 0.000168322
0.00112895 -5.29632e-05 2.02889e-06
-5.29632e-05 5.35749e-05 -1.04135e-06
2.02889e-06 -1.04135e-06 -1.95246e-05
0.00321225 -7.15788e-05 -3.22164e-05
-7.15788e-05 0.00127605 -2.66741e-06
-3.22164e-05 -2.66741e-06 0.00126882
0.00275097 -5.498e-05 -2.63147e-05
-5.498e-05 0.000986336 -3.4924e-06
-2.63147e-05 -3.4924e-06 0.000993054
0.00293055 -6.28486e-05 -2.92622e-05
-6.28486e-05 0.00110532 -3.18699e-06
-2.92622e-05 -3.18699e-06 0.00110509
0.000683108 -2.49541e-05 -4.27974e-06
-2.49541e-05 -5.73074e-05 -3.67898e-06
-4.27974e-06 -3.67898e-06 -8.78005e-05
0.00359822 -7.07532e-05 7.60099e-07
-7.07532e-05 0.00147617 -1.65866e-07
7.60099e-07 -1.65866e-07 0.00146645
0.00309956 -6.6629e-05 5.84745e-07
-6.6629e-05 0.00121118 -1.43498e-07
5.84745e-07 -1.43498e-07 0.0012062
0.000705522 1.76995e-05 -5.56803e-08
1.76995e-05 -5.0999e-05 -1.47742e-07
-5.56803e-08 -1.47742e-07 -9.17234e-05
0.00186353 -4.2557e-05 -9.72223e-06
-4.2557e-05 0.000525946 -1.02616e-06
-9.72223e-06 -1.02616e-06 0.000530815
0.000741049 -6.20248e-06 -5.18688e-08
-6.20248e-06 -2.84859e-05 -5.33566e-08
-5.18688e-08 -5.33566e-08 -6.19646e-05
0.00115747 -3.84081e-05 5.07583e-06
-3.84081e-05 0.000175645 5.28947e-07
5.07583e-06 5.28947e-07 0.000151743
0.000891911 1.80768e-05 7.49671e-08
1.80768e-05 1.84178e-05 -2.33656e-07
7.49671e-08 -2.33656e-07 -4.09281e-05
0.00260829 -4.59294e-05 2.50484e-05
-4.59294e-05 0.000897239 3.77521e-06
2.50484e-05 3.77521e-06 0.000908234
0.000812253 -2.86125e-05 4.1176e-06
-2.86125e-05 -3.11875e-05 3.77719e-06
4.1176e-06 3.77719e-06 -4.66731e-05
0.000773642 2.65494e-05 9.40744e-06
2.65494e-05 -3.15218e-05 4.5748e-06
9.40744e-06 4.5748e-06 -7.41542e-05
0.000764668 9.00909e-06 8.11972e-06
9.00909e-06 -1.92696e-05 4.56443e-06
8.11972e-06 4.56443e-06 -5.72098e-05
0.00101154 3.85215e-05 3.24789e-06
3.85215e-05 2.24957e-05 1.66983e-06
3.24789e-06 1.66983e-06 -4.0724e-05
0.00158031 -4.4131e-05 1.22048e-05
-4.4131e-05 0.000381402 3.31147e-06
1.22048e-05 3.31147e-06 0.000363631
0.000937416 3.04171e-05 2.79091e-06
3.04171e-05 3.04404e-05 1.24793e-06
2.79091e-06 1.24793e-06 -2.87422e-05
0.000908285 1.14546e-05 2.67042e-06
1.14546e-05 3.04323e-05 1.68444e-06
2.67042e-06 1.68444e-06 -2.76521e-05
0.000945827 4.72703e-05 1.46402e-06
4.72703e-05 1.78062e-05 9.70985e-08
1.46402e-06 9.70985e-08 -5.28619e-05
0.00253688 -3.75796e-05 2.28578e-05
-3.75796e-05 0.000845995 4.07751e-06
2.28578e-05 4.07751e-06 0.000860521
0.00260388 -4.19119e-05 3.50711e-07
-4.19119e-05 0.000885787 -8.48345e-08
3.50711e-07 -8.48345e-08 0.000898738
0.00381843 -6.53231e-05 -4.33871e-05
-6.53231e-05 0.00158303 -1.6009e-06
-4.33871e-05 -1.6009e-06 0.00157347
0.00415003 -5.2874e-05 -5.09423e-05
-5.2874e-05 0.00173704 -6.3387e-07
-5.09423e-05 -6.3387e-07 0.00172862
0.00436751 -3.21593e-05 2.27137e-06
-3.21593e-05 0.00183803 -2.59527e-07
2.27137e-06 -2.59527e-07 0.0018304
0.00272186 -4.66759e-05 -2.11835e-05
-4.66759e-05 0.00101836 -5.14497e-09
-2.11835e-05 -5.14497e-09 0.00100237
0.00143789 -3.95041e-06 1.18932e-05
-3.95041e-06 0.000263976 -1.12987e-07
1.18932e-05 -1.12987e-07 0.00022425
0.00246276 -5.61734e-05 -1.7635e-05
-5.61734e-05 0.000900877 -2.08667e-07
-1.7635e-05 -2.08667e-07 0.000884002
0.0013279 3.67685e-06 9.72278e-06
3.67685e-06 0.000231154 -2.56102e-08
9.72278e-06 -2.56102e-08 0.000192828
0.00437734 2.5383e-05 5.38533e-05
2.5383e-05 0.001842 6.43584e-07
5.38533e-05 6.43584e-07 0.0018344
0.000750053 -2.01048e-06 9.35524e-06
-2.01048e-06 -9.55956e-05 7.82357e-07
9.35524e-06 7.82357e-07 -0.000140186
0.00209794 -3.39899e-05 2.92894e-05
-3.39899e-05 0.000609841 2.39102e-06
2.92894e-05 2.39102e-06 0.000574072
0.00118431 2.21951e-06 5.50811e-06
2.21951e-06 -2.03407e-06 1.53778e-06
5.50811e-06 1.53778e-06 -7.22119e-05
0.00197844 1.25811e-05 2.3869e-05
1.25811e-05 0.00057041 2.66581e-06
2.3869e-05 2.66581e-06 0.000535014
0.0011486 2.41145e-05 4.77681e-06
2.41145e-05 1.39788e-05 1.71762e-06
4.77681e-06 1.71762e-06 -5.42572e-05
0.00153889 1.67104e-05 -5.1333e-05
1.67104e-05 0.000409525 7.5478e-07
-5.1333e-05 7.5478e-07 0.000389237
0.00137891 4.1084e-05 -7.38865e-06
4.1084e-05 0.000345581 1.58493e-06
-7.38865e-06 1.58493e-06 0.000321928
0.00104076 3.98112e-05 -6.43064e-06
3.98112e-05 0.000129876 1.61161e-06
-6.43064e-06 1.61161e-06 0.000123545
0.00130278 4.76395e-05 -6.4467e-06
4.76395e-05 0.000313852 1.89253e-06
-6.4467e-06 1.89253e-06 0.000290308
0.00139252 -2.43758e-06 -2.38426e-05
-2.43758e-06 0.000269929 3.12037e-06
-2.38426e-05 3.12037e-06 0.00023107
0.00127948 3.17561e-06 -1.95657e-05
3.17561e-06 0.000233401 3.3315e-06
-1.95657e-05 3.3315e-06 0.000196939
0.00118739 1.70752e-05 -1.55014e-05
1.70752e-05 0.000198049 3.54289e-06
-1.55014e-05 3.54289e-06 0.000166612
0.00155803 -4.1747e-05 -5.20361e-06
-4.1747e-05 0.000313588 2.19383e-06
-5.20361e-06 2.19383e-06 0.000253367
0.00427885 5.99306e-05 -2.1934e-06
5.99306e-05 0.00179766 -2.64394e-07
-2.1934e-06 -2.64394e-07 0.00178912
0.0013893 2.90132e-05 2.10808e-05
2.90132e-05 0.000343442 -6.82975e-07
2.10808e-05 -6.82975e-07 0.000321957
0.00109892 1.49513e-05 -1.27571e-05
1.49513e-05 9.85022e-05 1.71378e-07
-1.27571e-05 1.71378e-07 5.75862e-05
0.00140565 4.1996e-06 -7.70136e-06
4.1996e-06 0.000268549 8.6081e-08
-7.70136e-06 8.6081e-08 0.000229026
0.00194108 4.3617e-05 1.77719e-05
4.3617e-05 0.000571826 -1.90835e-06
1.77719e-05 -1.90835e-06 0.00057441
0.00131322 3.26274e-05 -3.6306e-06
3.26274e-05 0.000262502 4.41354e-07
-3.6306e-06 4.41354e-07 0.000236557
0.00129136 2.80795e-06 -6.76219e-06
2.80795e-06 0.000234092 2.63685e-07
-6.76219e-06 2.63685e-07 0.000195255
0.00154952 -3.72591e-05 -2.09011e-06
-3.72591e-05 0.000235232 4.49839e-07
-2.09011e-06 4.49839e-07 0.000170131
0.00142755 -3.0556e-05 -1.11942e-06
-3.0556e-05 0.000274921 6.35625e-07
-1.11942e-06 6.35625e-07 0.000216666
0.00138563 -3.89194e-05 -5.94462e-07
-3.89194e-05 0.000206362 1.5632e-07
-5.94462e-07 1.5632e-07 0.000145389
0.00112249 -5.24764e-05 5.70901e-09
-5.24764e-05 5.0746e-05 -3.97391e-08
5.70901e-09 -3.97391e-08 -2.22586e-05
0.000733272 4.62438e-06 9.09776e-06
4.62438e-06 -9.65908e-05 -1.46791e-06
9.09776e-06 -1.46791e-06 -0.000140329
0.00137811 1.66248e-05 9.93034e-06
1.66248e-05 0.000251831 -1.82131e-06
9.93034e-06 -1.82131e-06 0.000212324
0.00151937 1.14064e-05 4.96626e-06
1.14064e-05 0.000178008 -9.42576e-07
4.96626e-06 -9.42576e-07 0.000111666
0.00142847 -2.68662e-05 4.4959e-06
-2.68662e-05 0.000155286 -1.40324e-06
4.4959e-06 -1.40324e-06 8.96797e-05
0.0013148 -3.7871e-05 3.51599e-06
-3.7871e-05 0.000144611 -1.82388e-06
3.51599e-06 -1.82388e-06 8.09407e-05
0.0016353 -4.9082e-05 1.63001e-06
-4.9082e-05 0.000218838 -6.32196e-07
1.63001e-06 -6.32196e-07 0.000142086
0.00274879 5.07488e-05 2.59273e-05
5.07488e-05 0.000972576 -3.60648e-06
2.59273e-05 -3.60648e-06 0.000981868
0.00114469 -5.00088e-05 1.86308e-06
-5.00088e-05 3.7397e-05 -8.62834e-07
1.86308e-06 -8.62834e-07 -3.52277e-05
0.00073426 3.82185e-05 3.93841e-06
3.82185e-05 -4.1949e-05 -3.58932e-06
3.93841e-06 -3.58932e-06 -6.70302e-05
0.000793183 -1.35832e-05 2.25068e-06
-1.35832e-05 -2.616e-05 -1.65498e-06
2.25068e-06 -1.65498e-06 -8.44835e-05
0.00117825 -5.62866e-05 1.98821e-06
-5.62866e-05 0.000106127 -1.45703e-06
1.98821e-06 -1.45703e-06 3.20356e-05
0.0012187 -6.06904e-05 1.44517e-06
-6.06904e-05 6.90169e-05 -5.7393e-07
1.44517e-06 -5.7393e-07 -8.89933e-06
0.000745387 2.99731e-05 4.35674e-06
2.99731e-05 -5.77664e-05 -3.87665e-06
4.35674e-06 -3.87665e-06 -7.59321e-05
0.000927986 -1.21358e-06 2.43726e-06
-1.21358e-06 1.91491e-05 -2.59751e-06
2.43726e-06 -2.59751e-06 -2.92927e-05
0.00343465 -7.36641e-05 -3.60879e-05
-7.36641e-05 0.00139394 -2.37697e-06
-3.60879e-05 -2.37697e-06 0.00138459
0.00302989 -6.69416e-05 -3.01365e-05
-6.69416e-05 0.00117203 -2.93286e-06
-3.01365e-05 -2.93286e-06 0.0011681
0.000672989 1.42851e-05 -6.0752e-06
1.42851e-05 -6.31197e-05 -3.58235e-06
-6.0752e-06 -3.58235e-06 -0.00010419
0.00270161 -5.05667e-05 -2.57864e-05
-5.05667e-05 0.000950701 -3.62714e-06
-2.57864e-05 -3.62714e-06 0.000960012
0.000672228 -3.6947e-05 -3.89738e-06
-3.6947e-05 -6.96819e-05 -3.79275e-06
-3.89738e-06 -3.79275e-06 -9.58689e-05
0.000670041 -6.78676e-06 -5.73276e-06
-6.78676e-06 -5.92835e-05 -3.30935e-06
-5.73276e-06 -3.30935e-06 -9.33812e-05
0.000869643 1.66268e-05 -2.54323e-06
1.66268e-05 7.505e-06 -1.49275e-06
-2.54323e-06 -1.49275e-06 -5.18242e-05
0.00263987 -4.61031e-05 3.09788e-07
-4.61031e-05 0.000911822 -9.41561e-08
3.09788e-07 -9.41561e-08 0.000922975
0.000797026 -2.76468e-05 1.4064e-07
-2.76468e-05 -3.97231e-05 -1.19676e-08
1.4064e-07 -1.19676e-08 -5.49118e-05
0.00127364 1.9139e-05 8.19619e-06
1.9139e-05 0.000225699 3.05565e-08
8.19619e-06 3.05565e-08 0.000186831
0.00119878 -1.67379e-07 6.09504e-06
-1.67379e-07 0.000205313 3.42108e-07
6.09504e-06 3.42108e-07 0.000170696
0.000992926 3.86811e-05 1.32221e-07
3.86811e-05 1.31604e-05 -4.05884e-09
1.32221e-07 -4.05884e-09 -4.99134e-05
0.000780114 -3.56903e-05 -4.30474e-08
-3.56903e-05 -2.73865e-05 -9.99626e-11
-4.30474e-08 -9.99626e-11 -4.88448e-05
0.000912068 2.92236e-05 -8.04911e-08
2.92236e-05 1.79248e-05 5.2814e-08
-8.04911e-08 5.2814e-08 -4.11814e-05
0.000882555 8.61836e-06 -3.55552e-08
8.61836e-06 1.91271e-05 -1.58186e-07
-3.55552e-08 -1.58186e-07 -3.90793e-05
0.000912236 4.65054e-05 -4.71051e-08
4.65054e-05 1.47699e-07 -1.38782e-07
-4.71051e-08 -1.38782e-07 -7.06571e-05
0.000799536 -3.25311e-05 4.24961e-06
-3.25311e-05 -2.78925e-05 3.65805e-06
4.24961e-06 3.65805e-06 -4.62802e-05
0.000828825 -2.48832e-05 3.77821e-06
-2.48832e-05 -3.03217e-05 3.81738e-06
3.77821e-06 3.81738e-06 -4.29065e-05
0.000907014 1.77235e-06 2.84229e-06
1.77235e-06 6.92612e-06 2.0238e-06
2.84229e-06 2.0238e-06 -4.07001e-05
0.00105294 3.58241e-05 3.61149e-06
3.58241e-05 1.29409e-05 1.73961e-06
3.61149e-06 1.73961e-06 -5.23711e-05
0.000976876 3.70013e-05 2.94166e-06
3.70013e-05 3.31444e-05 1.5782e-06
2.94166e-06 1.5782e-06 -2.76965e-05
0.00117277 5.39888e-05 1.81145e-06
5.39888e-05 5.62284e-05 1.24049e-06
1.81145e-06 1.24049e-06 -1.8605e-05
0.000914434 6.56614e-06 2.69474e-06
6.56614e-06 2.64398e-05 1.8482e-06
2.69474e-06 1.8482e-06 -2.78681e-05
0.000956854 5.00215e-05 1.18842e-06
5.00215e-05 4.93939e-06 4.38921e-07
1.18842e-06 4.38921e-07 -6.45294e-05
0.00104355 4.51136e-05 1.51743e-06
4.51136e-05 8.14741e-05 4.46223e-07
1.51743e-06 4.46223e-07 9.3554e-06
0.00108598 5.96548e-05 -7.53055e-08
5.96548e-05 8.08888e-05 -4.10097e-07
-7.53055e-08 -4.10097e-07 4.23263e-06
0.00247228 -3.34614e-05 2.11365e-05
-3.34614e-05 0.000807154 4.13227e-06
2.11365e-05 4.13227e-06 0.000823404
0.00254567 -3.77199e-05 4.01114e-07
-3.77199e-05 0.000849618 -7.50416e-08
4.01114e-07 -7.50416e-08 0.000864325
0.00262205 -4.20889e-05 -2.3635e-05
-4.20889e-05 0.000893944 -3.92609e-06
-2.3635e-05 -3.92609e-06 0.000907054
0.000777841 2.64287e-05 3.83251e-06
2.64287e-05 -4.90375e-05 -3.88809e-06
3.83251e-06 -3.88809e-06 -6.39682e-05
0.00270834 4.64149e-05 2.49426e-05
4.64149e-05 0.000944544 -3.76537e-06
2.49426e-05 -3.76537e-06 0.000955705
0.00363868 -7.47029e-05 -3.91415e-05
-7.47029e-05 0.00149727 -2.05496e-06
-3.91415e-05 -2.05496e-06 0.00148694
0.00397688 -5.80994e-05 -4.72112e-05
-5.80994e-05 0.00165677 -1.11871e-06
-4.72112e-05 -1.11871e-06 0.00164792
0.000693238 1.57867e-05 -7.79179e-06
1.57867e-05 -9.06441e-05 -3.1382e-06
-7.79179e-06 -3.1382e-06 -0.000132221
0.000727612 1.02571e-05 -8.75486e-06
1.02571e-05 -9.55648e-05 -2.11283e-06
-8.75486e-06 -2.11283e-06 -0.00013879
0.00432652 -3.52498e-05 -5.38601e-05
-3.52498e-05 0.00181832 -1.48613e-07
-5.38601e-05 -1.48613e-07 0.0018107
0.00439936 1.685e-05 -1.07172e-06
1.685e-05 0.00185314 2.73101e-07
-1.07172e-06 2.73101e-07 0.00184536
0.000745969 -5.8721e-07 5.79852e-08
-5.8721e-07 -9.75182e-05 -2.139e-07
5.79852e-08 -2.139e-07 -0.000142018
0.0013831 -8.33515e-06 1.07991e-05
-8.33515e-06 0.000248861 -1.18353e-08
1.07991e-05 -1.18353e-08 0.000210227
0.00119168 5.28018e-06 1.06462e-07
5.28018e-06 1.72873e-06 -1.27483e-08
1.06462e-07 -1.27483e-08 -6.84172e-05
0.000685815 2.02073e-05 1.63578e-10
2.02073e-05 -8.28632e-05 -1.12346e-07
1.63578e-10 -1.12346e-07 -0.000124987
0.00115469 2.48324e-05 9.15486e-08
2.48324e-05 1.7553e-05 -1.11081e-07
9.15486e-08 -1.11081e-07 -5.07153e-05
0.00072625 -1.86573e-06 9.40891e-06
-1.86573e-06 -0.000108835 -4.66503e-07
9.40891e-06 -4.66503e-07 -0.000153609
0.00121326 -3.42899e-07 5.7425e-06
-3.42899e-07 -1.94535e-06 7.75956e-07
5.7425e-06 7.75956e-07 -7.39097e-05
0.00117078 1.34708e-05 5.17516e-06
1.34708e-05 7.55511e-06 1.62537e-06
5.17516e-06 1.62537e-06 -6.12511e-05
0.00138865 2.5339e-06 2.91688e-06
2.5339e-06 3.86034e-05 1.04704e-06
2.91688e-06 1.04704e-06 -4.26586e-05
0.00110387 3.06595e-05 4.14464e-06
3.06595e-05 1.26351e-05 1.81735e-06
4.14464e-06 1.81735e-06 -5.44673e-05
0.00133525 2.76751e-05 2.31611e-06
2.76751e-05 4.83168e-05 8.14598e-07
2.31611e-06 8.14598e-07 -2.97068e-05
0.00434569 5.70324e-05 -5.95971e-05
5.70324e-05 0.00182926 -4.3294e-07
-5.95971e-05 -4.3294e-07 0.00182092
0.00135283 3.34811e-05 -8.30553e-06
3.34811e-05 0.000327541 1.17143e-06
-8.30553e-06 1.17143e-06 0.000305349
0.000163084 4.17151e-06 -1.06186e-05
4.17151e-06 -0.000377439 2.26127e-06
-1.06186e-05 2.26127e-06 -0.000423958
0.00143556 1.08184e-06 -2.5468e-05
1.08184e-06 0.000281212 2.58068e-06
-2.5468e-05 2.58068e-06 0.000242489
0.00266893 5.95087e-05 -1.03003e-05
5.95087e-05 0.000946146 1.42166e-06
-1.03003e-05 1.42166e-06 0.00095231
0.0015978 4.10404e-05 -1.39175e-05
4.10404e-05 0.000405098 3.55496e-06
-1.39175e-05 3.55496e-06 0.000380309
0.00133263 -1.6357e-06 -2.1696e-05
-1.6357e-06 0.000251694 3.2915e-06
-2.1696e-05 3.2915e-06 0.000213852
0.00139585 -3.48516e-05 -7.21872e-06
-3.48516e-05 0.00015698 2.46687e-06
-7.21872e-06 2.46687e-06 9.10823e-05
0.00157402 -4.27888e-05 -4.56396e-06
-4.27888e-05 0.000300176 1.81203e-06
-4.56396e-06 1.81203e-06 0.000239668
0.00152507 -3.50191e-05 -4.80914e-06
-3.50191e-05 0.000320983 2.41238e-06
-4.80914e-06 2.41238e-06 0.000262108
0.00111681 -5.20585e-05 -1.74886e-06
-5.20585e-05 4.82816e-05 8.85753e-07
-1.74886e-06 8.85753e-07 -2.46305e-05
0.000747006 5.52582e-06 -1.7351e-07
5.52582e-06 -9.03029e-05 -1.67245e-07
-1.7351e-07 -1.67245e-07 -0.000134137
0.00141976 1.17886e-05 -7.91017e-06
1.17886e-05 0.000270243 6.774e-08
-7.91017e-06 6.774e-08 0.000231608
0.00120921 9.4913e-06 -1.32293e-06
9.4913e-06 2.15469e-05 9.44102e-08
-1.32293e-06 9.44102e-08 -4.6588e-05
0.00158888 -2.82222e-05 -1.20013e-06
-2.82222e-05 0.000235896 8.92744e-08
-1.20013e-06 8.92744e-08 0.00017086
0.00270529 5.04812e-05 -2.53208e-07
5.04812e-05 0.000952325 -9.46956e-08
-2.53208e-07 -9.46956e-08 0.00096141
0.00116749 4.4486e-05 1.03037e-06
4.4486e-05 0.000178754 6.59383e-08
1.03037e-06 6.59383e-08 0.000155427
0.00112245 -1.43593e-05 1.10833e-07
-1.43593e-05 0.000137282 -2.82834e-08
1.10833e-07 -2.82834e-08 8.00705e-05
0.00131761 -3.79606e-05 -8.6552e-07
-3.79606e-05 0.000146239 1.08738e-07
-8.6552e-07 1.08738e-07 8.2682e-05
0.00137806 -4.53813e-05 -8.9426e-07
-4.53813e-05 8.90868e-05 3.87921e-07
-8.9426e-07 3.87921e-07 1.14472e-05
0.00102102 -5.21831e-05 -1.82888e-07
-5.21831e-05 2.98386e-05 -1.35104e-07
-1.82888e-07 -1.35104e-07 -4.44083e-05
0.00131324 -5.241e-05 6.52814e-08
-5.241e-05 0.000120415 1.00647e-07
6.52814e-08 1.00647e-07 4.82438e-05
0.00120809 -6.02817e-05 1.20191e-07
-6.02817e-05 6.42776e-05 1.67621e-08
1.20191e-07 1.67621e-08 -1.35005e-05
0.000767853 3.14249e-05 -1.2239e-07
3.14249e-05 -4.50044e-05 -3.27736e-08
-1.2239e-07 -3.27736e-08 -6.35628e-05
0.000912385 -2.62764e-06 -2.86053e-07
-2.62764e-06 1.09078e-05 -3.31612e-08
-2.86053e-07 -3.31612e-08 -3.74795e-05
0.00120395 5.08138e-06 5.59504e-06
5.08138e-06 2.08286e-06 -8.48927e-07
5.59504e-06 -8.48927e-07 -6.82892e-05
0.00145689 -3.29732e-06 4.72474e-06
-3.29732e-06 0.000158288 -1.15e-06
4.72474e-06 -1.15e-06 9.32792e-05
0.00170619 6.41594e-06 2.37132e-06
6.41594e-06 0.000210366 -2.04314e-07
2.37132e-06 -2.04314e-07 0.000132683
0.00116561 -3.06102e-05 3.2725e-06
-3.06102e-05 -4.18396e-05 -8.18417e-07
3.2725e-06 -8.18417e-07 -0.000120633
0.00131759 -5.03953e-05 1.54923e-06
-5.03953e-05 9.81155e-05 -9.79953e-07
1.54923e-06 -9.79953e-07 2.4432e-05
0.00160182 -4.90829e-05 8.5167e-07
-4.90829e-05 0.000166766 -3.75254e-07
8.5167e-07 -3.75254e-07 8.72225e-05
0.000705247 3.41304e-05 4.2823e-06
3.41304e-05 -6.71571e-05 -3.71508e-06
4.2823e-06 -3.71508e-06 -8.86409e-05
0.00125723 -5.66912e-05 1.01296e-06
-5.66912e-05 5.94035e-05 -5.6244e-07
1.01296e-06 -5.6244e-07 -1.67149e-05
0.000842758 -4.80018e-06 2.4612e-06
-4.80018e-06 -1.57496e-06 -1.58668e-06
2.4612e-06 -1.58668e-06 -5.82576e-05
0.000766497 -4.35408e-05 1.78549e-06
-4.35408e-05 -7.00712e-05 -1.65117e-06
1.78549e-06 -1.65117e-06 -0.000142562
0.00153716 -7.32514e-05 1.04918e-06
-7.32514e-05 0.000261337 -9.33867e-07
1.04918e-06 -9.33867e-07 0.000180403
0.00136491 -6.60735e-05 7.51159e-07
-6.60735e-05 0.000121969 3.18602e-07
7.51159e-07 3.18602e-07 4.43624e-05
0.000915171 -7.30418e-06 3.13818e-06
-7.30418e-06 1.85903e-05 -2.19788e-06
3.13818e-06 -2.19788e-06 -3.37863e-05
0.000915708 8.19505e-06 1.64533e-06
8.19505e-06 9.33802e-06 -2.52468e-06
1.64533e-06 -2.52468e-06 -3.36456e-05
0.000995963 -2.74958e-05 1.36581e-06
-2.74958e-05 5.00273e-05 -1.15436e-06
1.36581e-06 -1.15436e-06 -1.86397e-05
0.000684124 2.25806e-05 -6.72765e-06
2.25806e-05 -6.9588e-05 -3.616e-06
-6.72765e-06 -3.616e-06 -0.000112116
0.00267054 -4.63158e-05 -2.49754e-05
-4.63158e-05 0.000925955 -3.79579e-06
-2.49754e-05 -3.79579e-06 0.000937262
0.000784585 -2.67637e-05 -4.11144e-06
-2.67637e-05 -4.68984e-05 -3.82063e-06
-4.11144e-06 -3.82063e-06 -6.1797e-05
0.000659041 2.8388e-06 -5.7158e-06
2.8388e-06 -6.32728e-05 -3.34476e-06
-5.7158e-06 -3.34476e-06 -0.000101179
0.000978177 3.90142e-05 -3.11339e-06
3.90142e-05 5.76064e-06 -1.79492e-06
-3.11339e-06 -1.79492e-06 -5.71814e-05
0.000704387 -3.38961e-05 -4.41784e-06
-3.38961e-05 -6.55264e-05 -3.70836e-06
-4.41784e-06 -3.70836e-06 -8.68326e-05
0.000856921 4.41475e-06 -2.34118e-06
4.41475e-06 8.03193e-06 -1.90418e-06
-2.34118e-06 -1.90418e-06 -5.04176e-05
0.000888413 2.76661e-05 -2.67264e-06
2.76661e-05 6.22537e-06 -1.03155e-06
-2.67264e-06 -1.03155e-06 -5.28051e-05
0.000877936 4.57293e-05 -1.64288e-06
4.57293e-05 -1.78707e-05 -4.03122e-07
-1.64288e-06 -4.03122e-07 -8.88116e-05
0.000776423 -3.15027e-05 9.3126e-08
-3.15027e-05 -4.05272e-05 -2.71607e-08
9.3126e-08 -2.71607e-08 -5.86128e-05
0.000814355 -2.41943e-05 1.40902e-07
-2.41943e-05 -3.81131e-05 1.36661e-08
1.40902e-07 1.36661e-08 -5.04449e-05
0.000908769 1.96476e-06 9.4921e-08
1.96476e-06 8.4483e-06 -1.53174e-08
9.4921e-08 -1.53174e-08 -3.93245e-05
0.00105393 3.64871e-05 1.84902e-07
3.64871e-05 1.35844e-05 6.34655e-09
1.84902e-07 6.34655e-09 -5.16681e-05
0.000943075 3.60058e-05 3.54133e-08
3.60058e-05 1.65083e-05 8.14906e-08
3.54133e-08 8.14906e-08 -4.41547e-05
0.00116171 5.40863e-05 1.12595e-07
5.40863e-05 5.12472e-05 4.34484e-08
1.12595e-07 4.34484e-08 -2.36204e-05
0.000897118 4.74804e-06 -2.07354e-07
4.74804e-06 1.9947e-05 2.41054e-08
-2.07354e-07 2.41054e-08 -3.45995e-05
0.00103902 5.23527e-05 -3.55457e-08
5.23527e-05 4.64819e-05 -5.86421e-08
-3.55457e-08 -5.86421e-08 -2.2696e-05
0.00102441 4.48157e-05 1.11699e-07
4.48157e-05 7.22362e-05 -1.9546e-07
1.11699e-07 -1.9546e-07 6.92884e-08
0.00100003 5.77058e-05 -5.39944e-07
5.77058e-05 3.763e-05 2.15405e-07
-5.39944e-07 2.15405e-07 -3.94047e-05
0.000844331 -2.17699e-05 3.30512e-06
-2.17699e-05 -2.82268e-05 3.74608e-06
3.30512e-06 3.74608e-06 -3.7933e-05
0.000908741 6.00924e-06 2.94407e-06
6.00924e-06 1.36613e-05 1.73922e-06
2.94407e-06 1.73922e-06 -3.71275e-05
0.00090357 -1.64261e-06 2.46749e-06
-1.64261e-06 2.16824e-06 2.30514e-06
2.46749e-06 2.30514e-06 -4.17136e-05
0.00101769 1.91584e-05 1.47374e-06
1.91584e-05 5.96335e-05 6.77811e-07
1.47374e-06 6.77811e-07 -6.58638e-06
0.00121893 4.63543e-05 2.269e-06
4.63543e-05 4.40601e-05 1.15266e-06
2.269e-06 1.15266e-06 -3.2372e-05
0.00112423 5.59389e-05 1.48016e-06
5.59389e-05 6.72237e-05 1.20618e-06
1.48016e-06 1.20618e-06 -4.45535e-06
0.00124577 5.99181e-05 8.90263e-07
5.99181e-05 6.5674e-05 1.32198e-06
8.90263e-07 1.32198e-06 -1.49688e-05
0.00105517 3.54454e-05 1.43592e-06
3.54454e-05 8.75617e-05 7.97523e-07
1.43592e-06 7.97523e-07 1.77064e-05
0.00112599 6.0704e-05 2.39797e-07
6.0704e-05 7.57239e-05 3.5178e-07
2.39797e-07 3.5178e-07 1.26803e-06
0.00105916 5.85304e-05 7.59763e-07
5.85304e-05 8.89739e-05 -3.20992e-07
7.59763e-07 -3.20992e-07 7.21884e-06
0.000926459 5.74178e-05 2.7486e-07
5.74178e-05 -9.88571e-06 -2.6634e-07
2.7486e-07 -2.6634e-07 -9.01951e-05
0.000922423 -5.92733e-06 9.03759e-07
-5.92733e-06 1.35928e-06 1.95607e-06
9.03759e-07 1.95607e-06 -2.89908e-05
0.000853776 -1.65954e-05 2.33733e-06
-1.65954e-05 -3.24662e-05 3.50877e-06
2.33733e-06 3.50877e-06 -3.73382e-05
0.00240453 -2.94899e-05 1.9091e-05
-2.94899e-05 0.000767225 4.1291e-06
1.9091e-05 4.1291e-06 0.000785134
0.00247614 -3.36304e-05 4.94419e-07
-3.36304e-05 0.000808436 -6.54389e-08
4.94419e-07 -6.54389e-08 0.000824872
0.00255639 -3.78932e-05 -2.19445e-05
-3.78932e-05 0.000854229 -3.99126e-06
-2.19445e-05 -3.99126e-06 0.000869108
0.000800278 2.3912e-05 3.24886e-06
2.3912e-05 -4.35117e-05 -3.68824e-06
3.24886e-06 -3.68824e-06 -5.50593e-05
0.00261636 4.21761e-05 2.30287e-05
4.21761e-05 0.000892146 -3.8258e-06
2.30287e-05 -3.8258e-06 0.000905182
0.000791443 2.75033e-05 -2.35596e-07
2.75033e-05 -4.11071e-05 -2.92174e-09
-2.35596e-07 -2.92174e-09 -5.64011e-05
0.00268169 4.61932e-05 -2.88116e-07
4.61932e-05 0.00093213 -9.27887e-08
-2.88116e-07 -9.27887e-08 0.000943141
0.000680795 2.37438e-05 -7.32551e-06
2.37438e-05 -8.45254e-05 -3.46824e-06
-7.32551e-06 -3.46824e-06 -0.000126734
0.000714695 1.62183e-05 -8.2604e-06
1.62183e-05 -9.0665e-05 -2.68093e-06
-8.2604e-06 -2.68093e-06 -0.000132671
0.00114804 2.41746e-05 -4.67752e-06
2.41746e-05 1.49214e-05 -1.91983e-06
-4.67752e-06 -1.91983e-06 -5.33707e-05
0.00119964 6.44941e-06 -5.35191e-06
6.44941e-06 5.82708e-06 -1.49452e-06
-5.35191e-06 -1.49452e-06 -6.42932e-05
0.000737243 3.31851e-06 -9.30091e-06
3.31851e-06 -0.000101529 -1.24764e-06
-9.30091e-06 -1.24764e-06 -0.000146032
0.00441955 2.26403e-05 -5.74995e-05
2.26403e-05 0.00186367 3.76161e-07
-5.74995e-05 3.76161e-07 0.00185522
0.000745386 -1.85124e-08 -4.91721e-09
-1.85124e-08 -9.97899e-05 -2.56449e-07
-4.91721e-09 -2.56449e-07 -0.00014461
0.00122097 2.89002e-06 1.40941e-08
2.89002e-06 1.73503e-06 -2.50213e-07
1.40941e-08 -2.50213e-07 -7.01497e-05
0.00117019 1.26156e-05 1.74394e-08
1.26156e-05 7.83455e-06 -4.32401e-08
1.74394e-08 -4.32401e-08 -6.1014e-05
0.00141798 1.68847e-06 7.52295e-08
1.68847e-06 5.28314e-05 1.27661e-08
7.52295e-08 1.27661e-08 -2.84276e-05
0.00111033 3.16981e-05 1.84671e-07
3.16981e-05 1.64953e-05 -3.14603e-08
1.84671e-07 -3.14603e-08 -5.06362e-05
0.00134862 2.97058e-05 2.35023e-08
2.97058e-05 5.47419e-05 -1.80253e-08
2.35023e-08 -1.80253e-08 -2.33324e-05
0.00121964 5.20283e-07 5.7746e-06
5.20283e-07 -5.69297e-07 -3.83012e-07
5.7746e-06 -3.83012e-07 -7.24464e-05
0.00142787 4.42476e-06 3.10251e-06
4.42476e-06 4.39105e-05 6.90943e-07
3.10251e-06 6.90943e-07 -3.9812e-05
0.00137565 1.55699e-05 2.68792e-06
1.55699e-05 4.80011e-05 9.16988e-07
2.68792e-06 9.16988e-07 -3.11583e-05
0.00152491 -3.34455e-06 1.58415e-06
-3.34455e-06 7.68787e-05 7.3451e-07
1.58415e-06 7.3451e-07 -6.12407e-06
0.00128263 3.8797e-05 1.98359e-06
3.8797e-05 4.69661e-05 7.4616e-07
1.98359e-06 7.4616e-07 -3.03585e-05
0.00142708 3.13339e-05 1.00116e-06
3.13339e-05 5.98703e-05 6.4013e-07
1.00116e-06 6.4013e-07 -2.01049e-05
0.000761143 9.168e-06 -9.15205e-06
9.168e-06 -8.3546e-05 1.09323e-06
-9.15205e-06 1.09323e-06 -0.000127662
0.00146756 1.22151e-05 -2.65563e-05
1.22151e-05 0.000292318 1.88914e-06
-2.65563e-05 1.88914e-06 0.000254194
0.000886412 8.74978e-06 -6.0823e-06
8.74978e-06 -0.000141396 1.11865e-06
-6.0823e-06 1.11865e-06 -0.000211346
0.00175665 -2.91486e-05 -7.15068e-06
-2.91486e-05 0.000320254 1.84413e-06
-7.15068e-06 1.84413e-06 0.000255792
0.0026619 5.01503e-05 -2.55618e-05
5.01503e-05 0.000932096 3.59146e-06
-2.55618e-05 3.59146e-06 0.000940982
0.00160098 3.91411e-05 -1.29094e-05
3.91411e-05 0.000398351 2.99557e-06
-1.29094e-05 2.99557e-06 0.000377671
0.00144091 -1.89171e-05 -3.40296e-06
-1.89171e-05 0.00029505 1.81603e-06
-3.40296e-06 1.81603e-06 0.000239129
0.00133003 -3.80885e-05 -5.15137e-06
-3.80885e-05 0.000152791 2.05313e-06
-5.15137e-06 2.05313e-06 8.93155e-05
0.00112275 -4.16913e-05 -3.30005e-06
-4.16913e-05 -3.96736e-05 1.3448e-06
-3.30005e-06 1.3448e-06 -0.000118209
0.00147457 -5.47773e-05 -1.98028e-06
-5.47773e-05 0.000199868 9.93087e-07
-1.98028e-06 9.93087e-07 0.000128155
0.000851158 -4.7672e-05 -1.77966e-06
-4.7672e-05 -5.25773e-05 1.19838e-06
-1.77966e-06 1.19838e-06 -0.000126963
0.00119519 -5.98113e-05 -9.90028e-07
-5.98113e-05 5.84237e-05 5.55215e-07
-9.90028e-07 5.55215e-07 -1.92141e-05
0.000791502 3.26334e-05 -4.00344e-06
3.26334e-05 -3.17428e-05 3.72486e-06
-4.00344e-06 3.72486e-06 -5.06686e-05
0.00089952 -2.03818e-06 -2.82726e-06
-2.03818e-06 3.87627e-06 2.19678e-06
-2.82726e-06 2.19678e-06 -4.4334e-05
0.00106708 8.72623e-06 -1.45889e-07
8.72623e-06 -6.6387e-05 5.89939e-09
-1.45889e-07 5.89939e-09 -0.000137576
0.00147303 -6.38807e-06 -1.27755e-06
-6.38807e-06 0.000166207 1.49052e-07
-1.27755e-06 1.49052e-07 0.00010117
0.00159898 8.38568e-06 -1.01788e-06
8.38568e-06 0.000155971 1.93075e-07
-1.01788e-06 1.93075e-07 7.78426e-05
0.00142044 -3.3247e-05 4.71251e-07
-3.3247e-05 8.70982e-05 -3.28485e-07
4.71251e-07 -3.28485e-07 9.33957e-06
0.000748425 3.53871e-05 -3.1327e-09
3.53871e-05 -4.46964e-05 -8.10957e-09
-3.1327e-09 -8.10957e-09 -6.64806e-05
0.000882022 -8.35631e-06 1.86712e-07
-8.35631e-06 1.62118e-05 -6.05181e-08
1.86712e-07 -6.05181e-08 -4.02789e-05
0.000862292 -4.59584e-05 5.04473e-07
-4.59584e-05 -2.12566e-05 -3.24912e-07
5.04473e-07 -3.24912e-07 -9.31042e-05
0.00143725 -5.19646e-05 -4.81141e-07
-5.19646e-05 0.000156241 1.09834e-07
-4.81141e-07 1.09834e-07 8.25235e-05
0.00143703 -4.56659e-05 -2.73833e-07
-4.56659e-05 8.38338e-05 4.4458e-07
-2.73833e-07 4.4458e-07 4.40082e-06
0.00128921 -6.69564e-05 -5.97545e-07
-6.69564e-05 0.000139146 1.47874e-07
-5.97545e-07 1.47874e-07 5.7465e-05
0.00126059 -5.65703e-05 8.21031e-08
-5.65703e-05 6.08758e-05 1.65553e-07
8.21031e-08 1.65553e-07 -1.51869e-05
0.00125355 -6.33702e-05 3.63377e-07
-6.33702e-05 6.71465e-05 3.75523e-07
3.63377e-07 3.75523e-07 -1.04662e-05
0.00091156 -6.5453e-06 1.19842e-08
-6.5453e-06 1.52956e-05 -7.67564e-08
1.19842e-08 -7.67564e-08 -3.67182e-05
0.000963264 -2.61831e-05 -1.08076e-07
-2.61831e-05 3.23578e-05 -1.98086e-07
-1.08076e-07 -1.98086e-07 -3.62826e-05
0.000905951 6.85583e-06 -1.87161e-07
6.85583e-06 4.63338e-06 8.22318e-08
-1.87161e-07 8.22318e-08 -3.84428e-05
0.00171336 1.41265e-05 2.51481e-06
1.41265e-05 0.00020056 -2.29041e-07
2.51481e-06 -2.29041e-07 0.000120527
0.00151546 -9.73872e-06 3.00897e-06
-9.73872e-06 0.000122235 -2.97949e-07
3.00897e-06 -2.97949e-07 4.49814e-05
0.00164529 1.10318e-05 2.20012e-06
1.10318e-05 0.000148325 1.58524e-07
2.20012e-06 1.58524e-07 6.51254e-05
0.00144677 -2.77138e-05 1.67919e-06
-2.77138e-05 6.29383e-05 -7.76382e-07
1.67919e-06 -7.76382e-07 -1.76896e-05
0.00113728 -5.11905e-05 1.09245e-06
-5.11905e-05 -2.57816e-05 -1.05162e-06
1.09245e-06 -1.05162e-06 -0.00010248
0.0015685 -4.50685e-05 -1.40171e-07
-4.50685e-05 0.000127481 5.4843e-09
-1.40171e-07 5.4843e-09 5.1862e-05
0.000877388 -4.57527e-06 2.87587e-06
-4.57527e-06 8.63204e-06 -1.78055e-06
2.87587e-06 -1.78055e-06 -4.60412e-05
0.00127416 -5.89196e-05 2.5558e-07
-5.89196e-05 4.87958e-05 -4.19135e-07
2.5558e-07 -4.19135e-07 -2.58854e-05
0.000989444 -4.4568e-05 1.24576e-06
-4.4568e-05 5.04437e-05 -5.46246e-07
1.24576e-06 -5.46246e-07 -1.86573e-05
0.000846213 -5.63047e-05 1.58644e-06
-5.63047e-05 -4.19689e-05 -2.05826e-06
1.58644e-06 -2.05826e-06 -0.000123617
0.00139131 -7.30576e-05 1.8058e-06
-7.30576e-05 0.000172061 -2.65146e-07
1.8058e-06 -2.65146e-07 8.59889e-05
0.00161506 -7.26692e-05 -2.61451e-07
-7.26692e-05 0.000234799 1.21932e-06
-2.61451e-07 1.21932e-06 0.000160806
0.000913765 1.39579e-05 1.16536e-06
1.39579e-05 5.52292e-06 -2.23292e-06
1.16536e-06 -2.23292e-06 -3.2242e-05
0.00100414 -3.6086e-05 1.68182e-06
-3.6086e-05 5.38398e-05 -5.72335e-07
1.68182e-06 -5.72335e-07 -1.43813e-05
0.000839765 -1.79169e-05 1.52761e-06
-1.79169e-05 -2.85795e-05 -2.04583e-06
1.52761e-06 -2.04583e-06 -9.64503e-05
0.00117109 -5.82416e-05 4.41816e-07
-5.82416e-05 0.000141778 2.59922e-07
4.41816e-07 2.59922e-07 6.42246e-05
0.00105787 3.73635e-05 -3.74965e-06
3.73635e-05 1.57754e-05 -1.91495e-06
-3.74965e-06 -1.91495e-06 -4.94426e-05
0.000801421 -2.35892e-05 -3.5924e-06
-2.35892e-05 -4.51312e-05 -3.79411e-06
-3.5924e-06 -3.79411e-06 -5.72167e-05
0.00075325 -3.03215e-05 -4.47131e-06
-3.03215e-05 -5.33043e-05 -3.76418e-06
-4.47131e-06 -3.76418e-06 -7.10637e-05
0.000916068 -3.85718e-06 -2.46641e-06
-3.85718e-06 1.23421e-05 -2.27999e-06
-2.46641e-06 -2.27999e-06 -3.52805e-05
0.000911798 3.50757e-05 -2.56969e-06
3.50757e-05 1.09521e-06 -1.39287e-06
-2.56969e-06 -1.39287e-06 -5.93919e-05
0.00114113 5.38942e-05 -1.77401e-06
5.38942e-05 4.16522e-05 -1.21433e-06
-1.77401e-06 -1.21433e-06 -3.32412e-05
0.000879173 2.58983e-06 -2.79619e-06
2.58983e-06 1.32036e-05 -1.80252e-06
-2.79619e-06 -1.80252e-06 -4.15909e-05
0.00100856 4.44755e-05 -1.43473e-06
4.44755e-05 6.46482e-05 -8.80903e-07
-1.43473e-06 -8.80903e-07 -7.57611e-06
0.00112928 5.48757e-05 -1.26209e-06
5.48757e-05 9.18745e-05 -5.24762e-07
-1.26209e-06 -5.24762e-07 2.29932e-05
0.000913181 5.57263e-05 -1.55521e-06
5.57263e-05 -5.9973e-06 1.49521e-07
-1.55521e-06 1.49521e-07 -8.34195e-05
0.000828282 -2.13231e-05 1.43538e-07
-2.13231e-05 -3.64313e-05 3.21188e-08
1.43538e-07 3.21188e-08 -4.59488e-05
0.000910688 3.24081e-06 -5.63832e-09
3.24081e-06 1.59185e-05 -4.03977e-08
-5.63832e-09 -4.03977e-08 -3.50242e-05
0.00090709 -5.75373e-06 6.82666e-08
-5.75373e-06 3.64077e-06 3.76748e-08
6.82666e-08 3.76748e-08 -4.00563e-05
0.00100113 1.83497e-05 1.45636e-07
1.83497e-05 5.18019e-05 -1.56436e-07
1.45636e-07 -1.56436e-07 -1.45301e-05
0.00123051 4.69511e-05 4.34004e-07
4.69511e-05 4.97564e-05 2.63382e-07
4.34004e-07 2.63382e-07 -2.67822e-05
0.00109292 5.55407e-05 4.94628e-08
5.55407e-05 5.27513e-05 1.76097e-08
4.94628e-08 1.76097e-08 -1.88938e-05
0.00123531 5.97318e-05 -1.99457e-09
5.97318e-05 6.08872e-05 2.18093e-07
-1.99457e-09 2.18093e-07 -1.97448e-05
0.00102223 3.75198e-05 -4.65296e-08
3.75198e-05 7.23126e-05 7.79373e-08
-4.65296e-08 7.79373e-08 2.47838e-06
0.00123769 6.35235e-05 -3.19396e-07
6.35235e-05 0.000131766 -4.22741e-07
-3.19396e-07 -4.22741e-07 5.76431e-05
0.00107636 5.93445e-05 1.91963e-07
5.93445e-05 9.71284e-05 -3.90231e-07
1.91963e-07 -3.90231e-07 1.50934e-05
0.000975589 5.86148e-05 -1.2387e-06
5.86148e-05 1.7007e-05 3.14993e-08
-1.2387e-06 3.14993e-08 -6.20789e-05
0.000856835 -1.91302e-05 2.79355e-06
-1.91302e-05 -2.67065e-05 3.62527e-06
2.79355e-06 3.62527e-06 -3.3735e-05
0.00090343 -7.22614e-06 1.84445e-06
-7.22614e-06 -5.41532e-07 2.35708e-06
1.84445e-06 2.35708e-06 -4.02167e-05
0.00103995 2.7534e-05 1.55333e-06
2.7534e-05 7.26008e-05 4.95249e-07
1.55333e-06 4.95249e-07 5.33941e-06
0.00100317 1.39775e-05 1.15454e-06
1.39775e-05 5.16776e-05 1.13889e-06
1.15454e-06 1.13889e-06 -1.24451e-05
0.00100219 4.63347e-05 9.35664e-07
4.63347e-05 5.62165e-05 -7.96952e-08
9.35664e-07 -7.96952e-08 -2.05297e-05
0.0012845 4.85669e-05 1.40767e-06
4.85669e-05 4.59893e-05 1.00454e-06
1.40767e-06 1.00454e-06 -3.50077e-05
0.00116321 6.2353e-05 5.83532e-07
6.2353e-05 6.7706e-05 1.18967e-06
5.83532e-07 1.18967e-06 -9.66355e-06
0.00129284 6.3968e-05 6.43719e-08
6.3968e-05 7.83388e-05 1.30683e-06
6.43719e-08 1.30683e-06 -4.97976e-06
0.00108612 5.61572e-05 1.50037e-06
5.61572e-05 0.000106681 1.33441e-06
1.50037e-06 1.33441e-06 2.60011e-05
0.00116472 6.47055e-05 1.20981e-06
6.47055e-05 8.62868e-05 4.51588e-07
1.20981e-06 4.51588e-07 7.95762e-06
0.000750359 5.37846e-05 1.10008e-06
5.37846e-05 -7.58905e-05 -5.60734e-07
1.10008e-06 -5.60734e-07 -0.000165938
0.000916847 -8.13314e-06 1.07679e-06
-8.13314e-06 5.09014e-07 2.14638e-06
1.07679e-06 2.14638e-06 -3.22142e-05
0.000987896 1.14227e-05 3.79794e-07
1.14227e-05 4.19207e-05 1.129e-06
3.79794e-07 1.129e-06 -7.23309e-06
0.000927064 -2.10147e-06 7.76628e-07
-2.10147e-06 2.67624e-06 1.84783e-06
7.76628e-07 1.84783e-06 -2.58725e-05
0.000927544 -3.71298e-06 1.22143e-07
-3.71298e-06 4.26334e-06 1.57275e-08
1.22143e-07 1.57275e-08 -2.61286e-05
0.00145414 -1.79522e-05 2.29629e-06
-1.79522e-05 0.000270525 2.08994e-06
2.29629e-06 2.08994e-06 0.000270606
0.00115762 -1.83481e-05 6.79965e-07
-1.83481e-05 0.000122843 1.43947e-09
6.79965e-07 1.43947e-09 0.000119649
0.00113418 -1.79902e-05 1.59787e-05
-1.79902e-05 0.000112688 6.75733e-06
1.59787e-05 6.75733e-06 0.000125944
0.00240406 -2.96614e-05 5.97712e-07
-2.96614e-05 0.000766388 -5.58163e-08
5.97712e-07 -5.58163e-08 0.000784472
0.00247765 -3.37975e-05 -1.99081e-05
-3.37975e-05 0.000808548 -4.00193e-06
-1.99081e-05 -4.00193e-06 0.000825171
0.000815661 2.20359e-05 2.68686e-06
2.20359e-05 -4.06892e-05 -3.48352e-06
2.68686e-06 -3.48352e-06 -4.91931e-05
0.00250798 3.80598e-05 2.08883e-05
3.80598e-05 0.000831614 -3.82474e-06
2.08883e-05 -3.82474e-06 0.000846585
0.000813714 2.44903e-05 -1.59957e-07
2.44903e-05 -3.63596e-05 4.23829e-08
-1.59957e-07 4.23829e-08 -4.81811e-05
0.00261413 4.19323e-05 -3.71914e-07
4.19323e-05 0.000891623 -8.3716e-08
-3.71914e-07 -8.3716e-08 0.00090446
0.00080744 2.86797e-05 -3.8451e-06
2.86797e-05 -3.20245e-05 3.85982e-06
-3.8451e-06 3.85982e-06 -4.76866e-05
0.00265769 4.61107e-05 -2.50902e-05
4.61107e-05 0.000921079 3.76036e-06
-2.50902e-05 3.76036e-06 0.000931917
0.00112193 3.27791e-05 -4.2713e-06
3.27791e-05 2.29099e-05 -2.0046e-06
-4.2713e-06 -2.0046e-06 -4.42551e-05
0.00117435 1.47981e-05 -4.97419e-06
1.47981e-05 1.0286e-05 -1.62172e-06
-4.97419e-06 -1.62172e-06 -5.85886e-05
0.00135631 2.76375e-05 -2.30745e-06
2.76375e-05 5.85945e-05 -8.71354e-07
-2.30745e-06 -8.71354e-07 -1.94752e-05
0.0014477 1.1848e-06 -2.98376e-06
1.1848e-06 6.72142e-05 -1.00913e-06
-2.98376e-06 -1.00913e-06 -1.40363e-05
0.00122508 5.32451e-06 -5.7639e-06
5.32451e-06 3.71108e-06 -1.22005e-06
-5.7639e-06 -1.22005e-06 -6.81351e-05
0.000760753 4.71214e-07 -9.48039e-06
4.71214e-07 -9.24203e-05 -6.29295e-08
-9.48039e-06 -6.29295e-08 -0.000137279
0.0012231 2.42643e-06 -3.06052e-08
2.42643e-06 7.93144e-07 -2.98281e-07
-3.06052e-08 -2.98281e-07 -7.1141e-05
0.0014451 5.74517e-06 -3.76095e-09
5.74517e-06 5.23377e-05 -1.65692e-07
-3.76095e-09 -1.65692e-07 -3.13537e-05
0.00138628 1.19505e-05 1.01556e-07
1.19505e-05 5.34387e-05 -9.45505e-09
1.01556e-07 -9.45505e-09 -2.5662e-05
0.00152409 -4.13132e-06 -1.24306e-08
-4.13132e-06 7.48517e-05 8.89608e-08
-1.24306e-08 8.89608e-08 -8.27465e-06
0.00129276 3.90145e-05 -3.52796e-08
3.90145e-05 5.18281e-05 -3.87326e-08
-3.52796e-08 -3.87326e-08 -2.55665e-05
0.00144064 3.08104e-05 -1.54147e-08
3.08104e-05 6.67384e-05 1.19903e-07
-1.54147e-08 1.19903e-07 -1.3267e-05
0.00144345 6.86908e-06 3.50488e-06
6.86908e-06 5.04414e-05 -4.29506e-07
3.50488e-06 -4.29506e-07 -3.35459e-05
0.00147751 6.64081e-07 1.65585e-06
6.64081e-07 4.37624e-05 1.02477e-06
1.65585e-06 1.02477e-06 -4.22515e-05
0.0014556 1.484e-05 1.41286e-06
1.484e-05 5.31849e-05 5.82218e-07
1.41286e-06 5.82218e-07 -2.7962e-05
0.00166159 -1.05165e-05 1.85842e-06
-1.05165e-05 0.000124733 6.20001e-07
1.85842e-06 6.20001e-07 4.35375e-05
0.00136763 3.81668e-05 6.87638e-07
3.81668e-05 5.70153e-05 2.60723e-07
6.87638e-07 2.60723e-07 -2.30725e-05
0.00149444 2.19565e-05 -1.37151e-06
2.19565e-05 7.06794e-05 8.83409e-07
-1.37151e-06 8.83409e-07 -2.84485e-06
0.000933356 1.02212e-05 -5.62644e-06
1.02212e-05 -0.000133183 7.87014e-07
-5.62644e-06 7.87014e-07 -0.000205213
0.00148275 -1.14523e-05 -7.34591e-06
-1.14523e-05 0.000170614 1.39325e-06
-7.34591e-06 1.39325e-06 0.000105653
0.00149323 1.40241e-05 -4.37828e-06
1.40241e-05 0.00010252 5.70899e-07
-4.37828e-06 5.70899e-07 2.39002e-05
0.00167567 -3.59518e-05 -2.71873e-06
-3.59518e-05 0.000216255 3.021e-07
-2.71873e-06 3.021e-07 0.000139526
0.000791214 3.65941e-05 -3.86357e-06
3.65941e-05 -2.24698e-05 3.54808e-06
-3.86357e-06 3.54808e-06 -4.45421e-05
0.000920708 -1.12049e-05 -2.63948e-06
-1.12049e-05 3.37716e-05 1.65199e-06
-2.63948e-06 1.65199e-06 -2.25637e-05
0.000974843 -4.8913e-05 -9.58961e-07
-4.8913e-05 3.56493e-05 8.92863e-07
-9.58961e-07 8.92863e-07 -3.55733e-05
0.00156168 -5.35717e-05 -2.55622e-06
-5.35717e-05 0.000216722 1.18704e-06
-2.55622e-06 1.18704e-06 0.000142966
0.00127201 -4.22573e-05 -1.58124e-06
-4.22573e-05 7.75711e-07 1.15571e-06
-1.58124e-06 1.15571e-06 -7.85472e-05
0.00126251 -5.64249e-05 -8.94735e-07
-5.64249e-05 6.16596e-05 9.10915e-07
-8.94735e-07 9.10915e-07 -1.43482e-05
0.00104284 -6.07294e-05 -1.71949e-06
-6.07294e-05 1.77018e-05 1.27444e-06
-1.71949e-06 1.27444e-06 -6.4726e-05
0.00113388 -6.04782e-05 -1.44092e-07
-6.04782e-05 8.28875e-06 9.18283e-08
-1.44092e-07 9.18283e-08 -6.93228e-05
0.000908777 -7.74187e-06 -2.98028e-06
-7.74187e-06 1.26373e-05 1.8551e-06
-2.98028e-06 1.8551e-06 -3.91351e-05
0.000929596 -2.49232e-05 -1.70806e-06
-2.49232e-05 1.41357e-05 7.78618e-07
-1.70806e-06 7.78618e-07 -5.44664e-05
0.000895946 5.78313e-06 -2.07976e-06
5.78313e-06 -2.07017e-07 2.43669e-06
-2.07976e-06 2.43669e-06 -4.33744e-05
0.00157138 1.44782e-05 -1.04669e-06
1.44782e-05 0.000128276 3.44326e-07
-1.04669e-06 3.44326e-07 4.71324e-05
0.00150899 -1.51241e-05 -4.35213e-07
-1.51241e-05 0.000118057 2.88131e-08
-4.35213e-07 2.88131e-08 4.09686e-05
0.0015251 1.33729e-05 -4.6651e-07
1.33729e-05 8.76316e-05 1.91712e-07
-4.6651e-07 1.91712e-07 3.84656e-06
0.00154432 -2.65317e-05 2.08122e-08
-2.65317e-05 0.000111124 -3.38757e-07
2.08122e-08 -3.38757e-07 3.07256e-05
0.000897535 -6.21446e-06 1.24064e-07
-6.21446e-06 1.66993e-05 -8.76931e-08
1.24064e-07 -8.76931e-08 -3.76674e-05
0.00103091 -4.59806e-05 2.43199e-08
-4.59806e-05 6.96491e-05 1.07737e-07
2.43199e-08 1.07737e-07 5.08672e-07
0.00094125 -5.8387e-05 3.27374e-07
-5.8387e-05 7.5061e-06 -4.43241e-07
3.27374e-07 -4.43241e-07 -7.34635e-05
0.00132724 -5.41918e-05 -3.51628e-08
-5.41918e-05 6.91771e-05 -2.46722e-07
-3.51628e-08 -2.46722e-07 -7.47078e-06
0.00145355 -4.35472e-05 3.46371e-07
-4.35472e-05 6.96106e-05 8.18833e-07
3.46371e-07 8.18833e-07 -4.96946e-06
0.00121444 -6.8954e-05 5.40817e-08
-6.8954e-05 8.66065e-05 1.16282e-07
5.40817e-08 1.16282e-07 -5.72361e-07
0.00128542 -5.84518e-05 3.55419e-08
-5.84518e-05 5.40207e-05 2.80324e-07
3.55419e-08 2.80324e-07 -2.05216e-05
0.00145416 -6.88139e-05 6.12137e-07
-6.88139e-05 0.000155043 4.21596e-07
6.12137e-07 4.21596e-07 8.19549e-05
0.00102451 -3.5635e-05 4.735e-08
-3.5635e-05 6.32762e-05 -9.72751e-08
4.735e-08 -9.72751e-08 -4.74993e-06
0.00109829 -5.6074e-05 -3.34927e-07
-5.6074e-05 0.000104095 2.37737e-07
-3.34927e-07 2.37737e-07 2.61802e-05
0.000902499 1.26547e-05 -1.28762e-07
1.26547e-05 3.45422e-07 8.84988e-08
-1.28762e-07 8.84988e-08 -3.75494e-05
0.00087107 -1.47758e-05 2.28103e-07
-1.47758e-05 -1.38143e-05 -5.38948e-07
2.28103e-07 -5.38948e-07 -8.08458e-05
0.00154099 1.44059e-05 2.66672e-06
1.44059e-05 8.66951e-05 -1.44706e-07
2.66672e-06 -1.44706e-07 5.07048e-07
0.00163208 -7.6739e-06 2.1443e-06
-7.6739e-06 0.000141665 1.19173e-07
2.1443e-06 1.19173e-07 6.00158e-05
0.00157107 1.59305e-05 1.91065e-06
1.59305e-05 9.46438e-05 3.54781e-07
1.91065e-06 3.54781e-07 8.88535e-06
0.00145116 -2.14645e-05 6.41353e-07
-2.14645e-05 4.28759e-05 -1.44413e-06
6.41353e-07 -1.44413e-06 -3.55715e-05
0.0012535 -5.3157e-05 -1.89369e-07
-5.3157e-05 9.82744e-06 -4.87316e-07
-1.89369e-07 -4.87316e-07 -6.33712e-05
0.00163638 -4.27775e-05 1.56242e-06
-4.27775e-05 0.00013759 -5.10166e-07
1.56242e-06 -5.10166e-07 6.87732e-05
0.000997709 -4.11375e-05 1.41538e-06
-4.11375e-05 5.42871e-05 -3.5512e-07
1.41538e-06 -3.5512e-07 -1.37757e-05
0.00127454 -5.87365e-05 -9.08984e-07
-5.87365e-05 3.63388e-05 1.08683e-07
-9.08984e-07 1.08683e-07 -3.07264e-05
0.000827799 -5.31107e-05 6.72863e-07
-5.31107e-05 -3.34398e-05 -1.18672e-06
6.72863e-07 -1.18672e-06 -0.000111032
0.00111377 -6.70073e-05 1.82992e-06
-6.70073e-05 8.23161e-05 -1.96281e-06
1.82992e-06 -1.96281e-06 -7.65272e-06
0.00127274 -7.37506e-05 2.1509e-06
-7.37506e-05 0.000102106 1.14216e-06
2.1509e-06 1.14216e-06 1.19289e-05
0.00168502 -7.43841e-05 8.81019e-07
-7.43841e-05 0.000256523 4.12929e-07
8.81019e-07 4.12929e-07 0.000184259
0.000907989 1.37409e-05 1.08007e-06
1.37409e-05 6.97067e-07 -2.02897e-06
1.08007e-06 -2.02897e-06 -3.35391e-05
0.000803183 -7.1942e-06 9.60517e-07
-7.1942e-06 -4.90096e-05 -2.10007e-06
9.60517e-07 -2.10007e-06 -0.00011136
0.00103364 -5.48252e-05 7.94813e-07
-5.48252e-05 6.88714e-05 3.04525e-07
7.94813e-07 3.04525e-07 -6.61119e-06
0.00103699 -5.36319e-05 1.07793e-06
-5.36319e-05 7.94681e-05 -4.26681e-07
1.07793e-06 -4.26681e-07 -5.10275e-07
0.00117224 -6.04146e-05 4.54314e-07
-6.04146e-05 0.000138458 7.88354e-07
4.54314e-07 7.88354e-07 5.83493e-05
0.000812599 -2.09035e-05 -3.03859e-06
-2.09035e-05 -4.44631e-05 -3.71354e-06
-3.03859e-06 -3.71354e-06 -5.37927e-05
0.00124216 4.7556e-05 -1.51504e-06
4.7556e-05 5.55116e-05 -6.70065e-07
-1.51504e-06 -6.70065e-07 -2.11393e-05
0.000905817 -8.76793e-06 -1.94222e-06
-8.76793e-06 2.83031e-06 -2.41083e-06
-1.94222e-06 -2.41083e-06 -4.07704e-05
0.000911071 4.77403e-06 -2.98805e-06
4.77403e-06 1.77803e-05 -1.98084e-06
-2.98805e-06 -1.98084e-06 -3.34969e-05
0.000979285 1.75835e-05 -1.22678e-06
1.75835e-05 4.12618e-05 -9.39346e-07
-1.22678e-06 -9.39346e-07 -2.5165e-05
0.00106211 5.51632e-05 -1.47446e-06
5.51632e-05 3.84919e-05 -1.21464e-06
-1.47446e-06 -1.21464e-06 -3.3116e-05
0.00122419 5.95172e-05 -8.06419e-07
5.95172e-05 5.58054e-05 -8.65752e-07
-8.06419e-07 -8.65752e-07 -2.48181e-05
0.000991893 3.8389e-05 -1.36028e-06
3.8389e-05 5.84798e-05 -5.09371e-07
-1.36028e-06 -5.09371e-07 -1.13993e-05
0.00109849 6.02832e-05 -1.19448e-06
6.02832e-05 0.000107705 -8.7744e-07
-1.19448e-06 -8.7744e-07 2.53846e-05
0.00134703 6.62891e-05 -1.23811e-06
6.62891e-05 0.000186598 -9.33204e-07
-1.23811e-06 -9.33204e-07 0.000112817
0.00102824 5.98806e-05 -2.50144e-06
5.98806e-05 4.5465e-05 7.32872e-07
-2.50144e-06 7.32872e-07 -3.23793e-05
0.000840596 -1.88197e-05 1.25226e-07
-1.88197e-05 -3.49096e-05 3.93438e-08
1.25226e-07 3.93438e-08 -4.17912e-05
0.000906958 -8.31276e-06 4.59044e-08
-8.31276e-06 9.09904e-07 4.77063e-08
4.59044e-08 4.77063e-08 -3.86463e-05
0.00101512 2.72032e-05 2.63864e-08
2.72032e-05 6.10371e-05 -4.5258e-08
2.63864e-08 -4.5258e-08 -6.29828e-06
0.000991572 1.35492e-05 7.63661e-08
1.35492e-05 4.64088e-05 -6.39225e-08
7.63661e-08 -6.39225e-08 -1.78252e-05
0.000979863 4.54335e-05 8.8614e-08
4.54335e-05 4.50426e-05 -1.98291e-07
8.8614e-08 -1.98291e-07 -3.1757e-05
0.00130811 4.94221e-05 5.57587e-07
4.94221e-05 5.70991e-05 4.68262e-07
5.57587e-07 4.68262e-07 -2.39886e-05
0.0011551 6.24676e-05 1.26625e-07
6.24676e-05 6.41547e-05 -6.92512e-08
1.26625e-07 -6.92512e-08 -1.32473e-05
0.00125436 6.41171e-05 6.68782e-07
6.41171e-05 5.90832e-05 3.96883e-07
6.68782e-07 3.96883e-07 -2.45729e-05
0.00105652 5.58542e-05 4.88097e-07
5.58542e-05 9.30056e-05 4.88737e-07
4.88097e-07 4.88737e-07 1.23622e-05
0.00123463 6.60368e-05 8.93331e-08
6.60368e-05 0.000121464 -3.74199e-07
8.93331e-08 -3.74199e-07 4.34673e-05
0.000955802 5.94592e-05 -8.61804e-07
5.94592e-05 2.39623e-05 -4.79776e-07
-8.61804e-07 -4.79776e-07 -6.54174e-05
0.000908606 -8.21335e-06 1.44886e-06
-8.21335e-06 -7.31067e-07 2.30468e-06
1.44886e-06 2.30468e-06 -3.65981e-05
0.000984835 1.1659e-05 9.7216e-07
1.1659e-05 4.08853e-05 1.31549e-06
9.7216e-07 1.31549e-06 -1.96195e-05
0.00104745 5.21468e-05 6.34156e-07
5.21468e-05 7.89402e-05 -6.52719e-08
6.34156e-07 -6.52719e-08 1.41502e-06
0.00104539 4.13268e-05 7.02948e-07
4.13268e-05 7.86811e-05 3.12792e-07
7.02948e-07 3.12792e-07 3.04117e-06
0.00105199 5.40267e-05 -2.13166e-08
5.40267e-05 8.37694e-05 -6.45846e-07
-2.13166e-08 -6.45846e-07 2.28935e-06
0.00129413 4.86615e-05 -1.13817e-06
4.86615e-05 3.52585e-05 -7.40801e-08
-1.13817e-06 -7.40801e-08 -4.62296e-05
0.00118296 6.77691e-05 1.06676e-06
6.77691e-05 6.69508e-05 1.06231e-06
1.06676e-06 1.06231e-06 -1.39548e-05
0.00106787 6.66328e-05 -3.14802e-07
6.66328e-05 -3.09386e-05 1.91764e-07
-3.14802e-07 1.91764e-07 -0.000113791
0.00103544 6.0329e-05 6.82115e-07
6.0329e-05 8.31728e-05 1.70719e-06
6.82115e-07 1.70719e-06 -6.88645e-06
0.00118467 6.89893e-05 2.32432e-06
6.89893e-05 0.000106743 6.93456e-08
2.32432e-06 6.93456e-08 1.42129e-05
0.000919994 -7.16037e-06 1.03444e-07
-7.16037e-06 2.14434e-06 2.60378e-08
1.03444e-07 2.60378e-08 -3.05325e-05
0.000820295 2.61608e-06 7.02014e-07
2.61608e-06 -4.49058e-05 1.85112e-06
7.02014e-07 1.85112e-06 -9.84734e-05
0.000904343 5.42981e-06 -2.97442e-07
5.42981e-06 -8.94459e-07 4.41167e-08
-2.97442e-07 4.41167e-08 -5.0762e-05
0.00118354 1.79434e-05 3.20629e-07
1.79434e-05 0.000147606 2.50696e-07
3.20629e-07 2.50696e-07 8.61048e-05
0.000959985 7.70264e-06 7.08622e-07
7.70264e-06 2.98007e-05 1.0697e-06
7.08622e-07 1.0697e-06 -1.80825e-05
0.000939605 2.10263e-06 6.46244e-07
2.10263e-06 8.08514e-06 1.80509e-06
6.46244e-07 1.80509e-06 -1.91333e-05
0.000935239 -2.54981e-06 1.21864e-07
-2.54981e-06 7.12136e-06 1.52459e-08
1.21864e-07 1.52459e-08 -2.15045e-05
0.00144328 -1.4886e-05 1.78479e-06
-1.4886e-05 0.000261194 2.02501e-06
1.78479e-06 2.02501e-06 0.000262934
0.000934374 -2.07933e-06 -1.03632e-06
-2.07933e-06 8.02673e-06 -1.91301e-06
-1.03632e-06 -1.91301e-06 -2.24133e-05
0.00147274 -1.69326e-05 -2.7317e-06
-1.69326e-05 0.000279767 -1.25273e-06
-2.7317e-06 -1.25273e-06 0.000280016
0.00113342 -1.55667e-05 1.36313e-05
-1.55667e-05 0.000107117 6.56754e-06
1.36313e-05 6.56754e-06 0.000121978
0.0014675 -1.87631e-05 -7.4055e-06
-1.87631e-05 0.000281207 -3.33697e-06
-7.4055e-06 -3.33697e-06 0.000279781
0.0017186 -2.20347e-05 1.16587e-05
-2.20347e-05 0.00041148 2.35254e-06
1.16587e-05 2.35254e-06 0.000427929
0.00240593 -2.98191e-05 -1.7722e-05
-2.98191e-05 0.000766751 -3.99554e-06
-1.7722e-05 -3.99554e-06 0.000784998
0.000826155 2.03145e-05 2.2534e-06
2.03145e-05 -4.00635e-05 -3.31978e-06
2.2534e-06 -3.31978e-06 -4.61006e-05
0.000830527 2.22836e-05 -1.63341e-07
2.22836e-05 -3.32907e-05 4.04034e-08
-1.63341e-07 4.04034e-08 -4.19559e-05
0.00241345 3.4186e-05 1.85653e-05
3.4186e-05 0.000777861 -3.80734e-06
1.85653e-05 -3.80734e-06 0.000794667
0.00251552 3.78548e-05 -4.27647e-07
3.78548e-05 0.000835946 -6.93099e-08
-4.27647e-07 -6.93099e-08 0.000850692
0.000827902 2.51979e-05 -3.43641e-06
2.51979e-05 -2.88405e-05 3.81173e-06
-3.43641e-06 3.81173e-06 -4.0942e-05
0.0026106 4.18146e-05 -2.41347e-05
4.18146e-05 0.000890503 3.92602e-06
-2.41347e-05 3.92602e-06 0.000903127
0.00130511 3.93856e-05 -2.09506e-06
3.93856e-05 5.77893e-05 -8.56844e-07
-2.09506e-06 -8.56844e-07 -1.96838e-05
0.00139982 1.20304e-05 -2.61166e-06
1.20304e-05 6.0165e-05 -9.32284e-07
-2.61166e-06 -9.32284e-07 -1.89387e-05
0.00145496 3.13699e-05 -9.83091e-07
3.13699e-05 7.39399e-05 -4.24725e-07
-9.83091e-07 -4.24725e-07 -6.10837e-06
0.00151911 -5.01317e-06 -1.64977e-06
-5.01317e-06 7.08074e-05 -6.88149e-07
-1.64977e-06 -6.88149e-07 -1.24442e-05
0.00146685 9.01252e-06 -3.13749e-06
9.01252e-06 6.29695e-05 -9.97632e-07
-3.13749e-06 -9.97632e-07 -2.07199e-05
0.00122972 7.01563e-06 -5.75392e-06
7.01563e-06 3.60534e-06 -1.73538e-07
-5.75392e-06 -1.73538e-07 -6.83282e-05
0.00145488 1.13328e-05 4.53747e-08
1.13328e-05 5.59948e-05 -3.95082e-07
4.53747e-08 -3.95082e-07 -2.80244e-05
0.00149401 -7.05051e-06 8.21257e-08
-7.05051e-06 5.09494e-05 1.40728e-07
8.21257e-08 1.40728e-07 -3.55466e-05
0.00148101 1.3762e-05 6.49636e-08
1.3762e-05 6.58179e-05 -8.6588e-08
6.49636e-08 -8.6588e-08 -1.52775e-05
0.00165072 -1.15828e-05 1.05753e-07
-1.15828e-05 0.000118204 -1.9814e-07
1.05753e-07 -1.9814e-07 3.70849e-05
0.00137865 3.91499e-05 -3.47587e-08
3.91499e-05 6.2208e-05 -3.10143e-08
-3.47587e-08 -3.10143e-08 -1.80702e-05
0.00149847 2.21223e-05 -1.4584e-07
2.21223e-05 7.10437e-05 9.24472e-07
-1.4584e-07 9.24472e-07 -2.03496e-06
0.001523 8.52227e-07 2.51183e-06
8.52227e-07 6.58993e-05 -1.77076e-07
2.51183e-06 -1.77076e-07 -2.19362e-05
0.00154052 -3.77421e-07 1.64236e-06
-3.77421e-07 6.59887e-05 6.45783e-07
1.64236e-06 6.45783e-07 -2.0636e-05
0.00135631 5.64465e-06 5.80755e-07
5.64465e-06 -2.25896e-05 1.84465e-06
5.80755e-07 1.84465e-06 -9.89941e-05
0.00184798 -1.79875e-05 1.6833e-06
-1.79875e-05 0.000207248 5.65385e-07
1.6833e-06 5.65385e-07 0.000126298
0.00132934 3.4275e-05 -1.11422e-06
3.4275e-05 1.49959e-05 -6.21392e-07
-1.11422e-06 -6.21392e-07 -6.15389e-05
0.00175462 1.5808e-05 9.47212e-08
1.5808e-05 0.000174737 6.03663e-07
9.47212e-08 6.03663e-07 0.00010863
0.00142045 1.40027e-05 -4.33153e-06
1.40027e-05 5.1517e-05 7.96705e-07
-4.33153e-06 7.96705e-07 -3.07166e-05
0.00150061 -1.71741e-05 -3.88033e-06
-1.71741e-05 0.000113183 3.89124e-07
-3.88033e-06 3.89124e-07 3.62141e-05
0.0014116 1.36032e-05 -2.96892e-06
1.36032e-05 3.01497e-05 1.18847e-07
-2.96892e-06 1.18847e-07 -5.42131e-05
0.00163702 -2.5756e-05 -1.99292e-06
-2.5756e-05 0.00015685 9.18026e-08
-1.99292e-06 9.18026e-08 7.67001e-05
0.000915025 -7.84252e-06 -2.81377e-06
-7.84252e-06 2.35125e-05 1.61515e-06
-2.81377e-06 1.61515e-06 -3.05577e-05
0.00107047 -4.74747e-05 -1.44163e-06
-4.74747e-05 8.79849e-05 8.71689e-07
-1.44163e-06 8.71689e-07 1.87871e-05
0.00102341 -6.00499e-05 -7.55428e-07
-6.00499e-05 5.08932e-05 1.06503e-06
-7.55428e-07 1.06503e-06 -2.94014e-05
0.00151839 -5.71578e-05 -1.02908e-06
-5.71578e-05 0.000164714 6.22198e-07
-1.02908e-06 6.22198e-07 8.81203e-05
0.00133589 -4.19713e-05 -3.46955e-07
-4.19713e-05 1.03745e-05 1.1144e-06
-3.46955e-07 1.1144e-06 -6.31567e-05
0.00129733 -5.80383e-05 5.88178e-08
-5.80383e-05 5.95903e-05 9.15567e-07
5.88178e-08 9.15567e-07 -1.48189e-05
0.00104348 -6.49912e-05 -1.63538e-06
-6.49912e-05 3.95149e-06 8.75253e-07
-1.63538e-06 8.75253e-07 -8.43324e-05
0.00129325 -6.49489e-05 6.27774e-07
-6.49489e-05 7.51754e-05 -1.57971e-06
6.27774e-07 -1.57971e-06 3.0065e-06
0.00104427 -3.64726e-05 -1.6092e-06
-3.64726e-05 7.24817e-05 4.43609e-07
-1.6092e-06 4.43609e-07 4.60068e-06
0.00102816 -5.40175e-05 -1.53792e-06
-5.40175e-05 6.76547e-05 8.42718e-08
-1.53792e-06 8.42718e-08 -1.06202e-05
0.000889679 1.19545e-05 -1.52347e-06
1.19545e-05 -5.57396e-06 2.32643e-06
-1.52347e-06 2.32643e-06 -4.36381e-05
0.000903602 -1.08345e-05 -7.56362e-07
-1.08345e-05 1.58404e-06 9.98506e-07
-7.56362e-07 9.98506e-07 -6.46243e-05
0.00153386 1.4743e-05 -9.29376e-08
1.4743e-05 8.3412e-05 1.35063e-07
-9.29376e-08 1.35063e-07 -2.73573e-06
0.00162869 -5.29649e-06 -3.15071e-07
-5.29649e-06 0.000140425 1.14504e-07
-3.15071e-07 1.14504e-07 5.89803e-05
0.00152674 1.57937e-05 -6.88416e-07
1.57937e-05 7.42221e-05 2.29887e-07
-6.88416e-07 2.29887e-07 -1.16478e-05
0.00149761 -2.22614e-05 -2.16359e-07
-2.22614e-05 6.58581e-05 -2.9469e-07
-2.16359e-07 -2.9469e-07 -1.24612e-05
0.00102866 -4.25334e-05 6.00946e-08
-4.25334e-05 6.85051e-05 -2.30713e-08
6.00946e-08 -2.30713e-08 4.87096e-07
0.000894506 -5.42256e-05 3.15147e-07
-5.42256e-05 3.92563e-07 -1.908e-07
3.15147e-07 -1.908e-07 -7.64759e-05
0.00112194 -6.70568e-05 4.57637e-08
-6.70568e-05 8.75639e-05 -1.47603e-07
4.57637e-08 -1.47603e-07 -2.6458e-06
0.00137637 -5.47671e-05 -5.67338e-07
-5.47671e-05 7.07877e-05 -1.68828e-07
-5.67338e-07 -1.68828e-07 -3.1549e-06
0.00147168 -4.19482e-05 3.52253e-07
-4.19482e-05 6.31676e-05 7.30474e-07
3.52253e-07 7.30474e-07 -3.59106e-06
0.00128114 -7.35512e-05 -6.99205e-08
-7.35512e-05 0.000107757 5.33165e-07
-6.99205e-08 5.33165e-07 1.6761e-05
0.00129306 -5.8558e-05 1.4767e-08
-5.8558e-05 4.64037e-05 5.57914e-07
1.4767e-08 5.57914e-07 -2.06175e-05
0.00141122 -6.846e-05 7.19551e-07
-6.846e-05 0.000120844 -1.76645e-06
7.19551e-07 -1.76645e-06 5.10684e-05
0.00106088 -5.54862e-05 1.25152e-07
-5.54862e-05 8.1967e-05 6.69187e-09
1.25152e-07 6.69187e-09 6.50637e-06
0.00112148 -5.88763e-05 -1.43612e-08
-5.88763e-05 0.000112204 9.11144e-08
-1.43612e-08 9.11144e-08 3.22199e-05
0.00105162 -4.98028e-05 -2.40348e-07
-4.98028e-05 8.6643e-05 1.79281e-07
-2.40348e-07 1.79281e-07 6.68915e-06
0.000770356 1.76839e-05 -2.66363e-07
1.76839e-05 -6.89285e-05 3.04761e-08
-2.66363e-07 3.04761e-08 -0.000104263
0.000848046 -2.46929e-06 2.33486e-07
-2.46929e-06 -2.80581e-05 -4.63642e-07
2.33486e-07 -4.63642e-07 -8.9389e-05
0.00160866 2.0892e-05 2.18016e-06
2.0892e-05 0.000106077 2.2367e-07
2.18016e-06 2.2367e-07 1.7705e-05
0.00155819 9.58046e-06 2.41408e-06
9.58046e-06 7.74278e-05 1.11505e-07
2.41408e-06 1.11505e-07 -7.61945e-06
0.00152481 -2.52281e-05 1.94652e-06
-2.52281e-05 5.93713e-05 -2.30914e-06
1.94652e-06 -2.30914e-06 -1.35388e-05
0.00130188 -4.81924e-05 7.76442e-07
-4.81924e-05 2.10908e-06 -1.41312e-06
7.76442e-07 -1.41312e-06 -6.20052e-05
0.00102789 -5.59796e-05 4.52719e-07
-5.59796e-05 6.80046e-05 7.12135e-08
4.52719e-07 7.12135e-08 -6.63674e-06
0.00164015 -6.65662e-05 5.70719e-07
-6.65662e-05 0.000192966 1.5603e-07
5.70719e-07 1.5603e-07 0.000134149
0.000646163 -5.05123e-05 7.04225e-07
-5.05123e-05 -0.000120627 -2.14095e-06
7.04225e-07 -2.14095e-06 -0.00020478
0.00118507 -7.3021e-05 3.00734e-06
-7.3021e-05 0.000105741 -2.01363e-06
3.00734e-06 -2.01363e-06 4.96057e-06
0.00140385 -7.83929e-05 2.54498e-06
-7.83929e-05 0.000146079 1.29994e-06
2.54498e-06 1.29994e-06 5.32714e-05
0.000678678 1.40429e-05 9.15175e-07
1.40429e-05 -0.000118121 -2.5347e-06
9.15175e-07 -2.5347e-06 -0.00015156
0.00105763 -2.25709e-06 9.56711e-07
-2.25709e-06 7.82058e-05 -1.28669e-06
9.56711e-07 -1.28669e-06 2.28849e-05
0.00102242 -4.13901e-05 6.99646e-07
-4.13901e-05 7.1756e-05 -7.91389e-07
6.99646e-07 -7.91389e-07 -3.10985e-06
0.00106478 -5.74284e-05 3.26649e-07
-5.74284e-05 8.20767e-05 5.16615e-07
3.26649e-07 5.16615e-07 4.80661e-06
0.00113453 -5.94854e-05 8.5228e-07
-5.94854e-05 0.000128867 5.93907e-07
8.5228e-07 5.93907e-07 4.16102e-05
0.00106627 -5.81267e-05 2.96654e-07
-5.81267e-05 7.98484e-05 3.65078e-07
2.96654e-07 3.65078e-07 -1.7654e-06
0.00082539 -1.8535e-05 -2.54311e-06
-1.8535e-05 -4.25737e-05 -3.59301e-06
-2.54311e-06 -3.59301e-06 -4.93132e-05
0.000913114 -8.89263e-06 -1.66731e-06
-8.89263e-06 3.73845e-06 -2.3797e-06
-1.66731e-06 -2.3797e-06 -3.57571e-05
0.00133295 5.03758e-05 -4.86502e-07
5.03758e-05 6.87493e-05 -1.07139e-07
-4.86502e-07 -1.07139e-07 -1.24265e-05
0.000980519 1.30907e-05 -1.08317e-06
1.30907e-05 4.1434e-05 -1.29749e-06
-1.08317e-06 -1.29749e-06 -2.29299e-05
0.000987971 2.83376e-05 -1.43287e-06
2.83376e-05 4.82671e-05 -4.65133e-07
-1.43287e-06 -4.65133e-07 -1.90715e-05
0.000957034 4.42101e-05 -5.81006e-07
4.42101e-05 3.35762e-05 -1.38639e-07
-5.81006e-07 -1.38639e-07 -4.32459e-05
0.00114621 6.25233e-05 -6.53319e-07
6.25233e-05 6.02383e-05 -1.41492e-06
-6.53319e-07 -1.41492e-06 -1.71935e-05
0.00121598 6.4183e-05 1.89201e-08
6.4183e-05 3.98787e-05 -7.4224e-07
1.89201e-08 -7.4224e-07 -4.41048e-05
0.00101994 5.53277e-05 -3.27361e-07
5.53277e-05 7.57657e-05 -2.58729e-07
-3.27361e-07 -2.58729e-07 -4.81146e-06
0.00115316 6.48683e-05 -1.40008e-06
6.48683e-05 0.000119865 -1.92444e-07
-1.40008e-06 -1.92444e-07 3.11645e-05
0.00130127 6.73028e-05 -1.81379e-06
6.73028e-05 0.000155188 -7.50339e-07
-1.81379e-06 -7.50339e-07 7.75105e-05
0.000914 -8.31206e-06 1.55759e-07
-8.31206e-06 1.73104e-06 4.05907e-08
1.55759e-07 4.05907e-08 -3.4043e-05
0.000987428 1.14437e-05 3.89444e-08
1.14437e-05 4.25435e-05 -1.768e-08
3.89444e-08 -1.768e-08 -1.80678e-05
0.00105389 5.25312e-05 -2.04532e-07
5.25312e-05 8.30312e-05 -1.83507e-07
-2.04532e-07 -1.83507e-07 5.93682e-06
0.0010431 4.23371e-05 -2.80116e-08
4.23371e-05 7.79967e-05 -3.87479e-08
-2.80116e-08 -3.87479e-08 2.08987e-06
0.00100622 5.29806e-05 -3.0145e-07
5.29806e-05 6.1711e-05 -6.93865e-08
-3.0145e-07 -6.93865e-08 -2.02154e-05
0.0013277 5.08352e-05 -3.99504e-07
5.08352e-05 5.28332e-05 2.08382e-08
-3.99504e-07 2.08382e-08 -2.92506e-05
0.00119368 6.76978e-05 5.50742e-07
6.76978e-05 7.09728e-05 -1.52747e-07
5.50742e-07 -1.52747e-07 -1.00025e-05
0.00119319 6.81951e-05 2.80461e-07
6.81951e-05 2.8191e-05 4.75889e-07
2.80461e-07 4.75889e-07 -5.42208e-05
0.000917779 5.71552e-05 3.79883e-07
5.71552e-05 2.48086e-05 7.29031e-07
3.79883e-07 7.29031e-07 -6.5688e-05
0.00120604 6.97425e-05 -8.64542e-08
6.97425e-05 0.000117935 -2.42314e-07
-8.64542e-08 -2.42314e-07 2.37998e-05
0.000976386 1.02487e-05 8.65553e-07
1.02487e-05 3.53016e-05 1.41649e-06
8.65553e-07 1.41649e-06 -2.10862e-05
0.000937301 3.51313e-05 1.11901e-06
3.51313e-05 2.18705e-05 9.20946e-07
1.11901e-06 9.20946e-07 -5.2587e-05
0.00113244 6.17039e-05 -6.57954e-08
6.17039e-05 0.000125065 1.23479e-09
-6.57954e-08 1.23479e-09 4.03964e-05
0.000956002 5.09755e-05 3.23231e-07
5.09755e-05 3.55695e-05 -2.6864e-07
3.23231e-07 -2.6864e-07 -4.77092e-05
0.00102058 5.57511e-05 -2.1602e-07
5.57511e-05 6.39857e-05 -5.91584e-07
-2.1602e-07 -5.91584e-07 -2.07328e-05
0.00129979 5.14101e-05 -2.79983e-07
5.14101e-05 2.32394e-07 -2.88529e-07
-2.79983e-07 -2.88529e-07 -6.67652e-05
0.00138124 7.79375e-05 1.31206e-06
7.79375e-05 0.000161801 1.19936e-07
1.31206e-06 1.19936e-07 7.02163e-05
0.000562641 5.90173e-05 7.14068e-07
5.90173e-05 -0.00029985 -4.07395e-08
7.14068e-07 -4.07395e-08 -0.000383137
0.00143685 7.35659e-05 2.34051e-06
7.35659e-05 0.000269698 2.72437e-06
2.34051e-06 2.72437e-06 0.000172581
0.000436397 5.37136e-05 5.13459e-07
5.37136e-05 -0.000268121 3.14129e-07
5.13459e-07 3.14129e-07 -0.000373793
0.000924076 -5.02961e-06 -1.19929e-06
-5.02961e-06 4.24402e-06 -2.05122e-06
-1.19929e-06 -2.05122e-06 -2.83875e-05
0.000887946 6.45664e-06 3.85622e-07
6.45664e-06 -9.86591e-06 6.03809e-07
3.85622e-07 6.03809e-07 -6.32142e-05
0.000904271 1.7657e-05 6.01789e-07
1.7657e-05 3.84282e-06 1.29869e-06
6.01789e-07 1.29869e-06 -6.31268e-05
0.000822949 -2.08593e-06 -4.75605e-07
-2.08593e-06 -4.26959e-05 -1.1126e-06
-4.75605e-07 -1.1126e-06 -9.32474e-05
0.000965835 1.17751e-05 1.36716e-07
1.17751e-05 3.28671e-05 7.15552e-09
1.36716e-07 7.15552e-09 -1.51068e-05
0.0010472 1.17405e-05 -9.86434e-08
1.17405e-05 7.72878e-05 -5.05464e-07
-9.86434e-08 -5.05464e-07 1.50044e-05
0.00114561 2.76286e-05 2.63616e-07
2.76286e-05 0.000131651 1.82015e-07
2.63616e-07 1.82015e-07 5.9494e-05
0.000880581 -3.0932e-06 1.5188e-07
-3.0932e-06 -5.93068e-06 1.08447e-06
1.5188e-07 1.08447e-06 -6.78342e-05
0.000959618 -1.17688e-05 1.07349e-07
-1.17688e-05 3.02861e-05 1.03632e-06
1.07349e-07 1.03632e-06 -1.60326e-05
0.000946092 5.85292e-06 6.43955e-07
5.85292e-06 1.07905e-05 1.7318e-06
6.43955e-07 1.7318e-06 -1.57906e-05
0.000940272 -2.7477e-06 -1.07849e-07
-2.7477e-06 8.61414e-06 2.86669e-08
-1.07849e-07 2.86669e-08 -1.86296e-05
0.0014321 -1.14426e-05 1.33143e-06
-1.14426e-05 0.000251954 1.96729e-06
1.33143e-06 1.96729e-06 0.00025511
0.000941854 -2.69696e-06 -5.59764e-07
-2.69696e-06 1.07477e-05 -1.85707e-06
-5.59764e-07 -1.85707e-06 -1.79302e-05
0.00145929 -1.40165e-05 -2.22454e-06
-1.40165e-05 0.000269277 -1.22815e-06
-2.22454e-06 -1.22815e-06 0.000271139
0.00112502 -1.3069e-05 1.10278e-05
-1.3069e-05 9.8564e-05 6.44039e-06
1.10278e-05 6.44039e-06 0.000114778
0.00149046 -1.61932e-05 -6.63902e-06
-1.61932e-05 0.000288556 -4.54147e-06
-6.63902e-06 -4.54147e-06 0.000288947
0.00107343 -1.6502e-05 4.46644e-06
-1.6502e-05 7.66924e-05 2.49723e-06
4.46644e-06 2.49723e-06 9.15805e-05
0.00229059 -2.86866e-05 -5.44372e-06
-2.86866e-05 0.000703981 -1.66972e-06
-5.44372e-06 -1.66972e-06 0.00072345
0.000835218 1.83127e-05 1.86809e-06
1.83127e-05 -4.01358e-05 -3.2693e-06
1.86809e-06 -3.2693e-06 -4.4159e-05
0.000842268 2.04021e-05 -1.16429e-07
2.04021e-05 -3.22058e-05 3.65431e-08
-1.16429e-07 3.65431e-08 -3.83301e-05
0.0023436 3.02898e-05 1.63886e-05
3.02898e-05 0.000736536 -3.81623e-06
1.63886e-05 -3.81623e-06 0.000754981
0.000844289 2.25478e-05 -3.01968e-06
2.25478e-05 -2.64586e-05 3.57888e-06
-3.01968e-06 3.57888e-06 -3.52805e-05
0.00242076 3.39546e-05 -5.73497e-07
3.39546e-05 0.00078213 -6.12715e-08
-5.73497e-07 -6.12715e-08 0.000798732
0.00252133 3.76264e-05 -2.2396e-05
3.76264e-05 0.00083944 3.98263e-06
-2.2396e-05 3.98263e-06 0.000853963
0.00138867 4.00678e-05 -1.14664e-06
4.00678e-05 6.69314e-05 -4.34929e-07
-1.14664e-06 -4.34929e-07 -1.35381e-05
0.0015113 1.18138e-05 -1.12044e-06
1.18138e-05 8.08676e-05 -7.31615e-07
-1.12044e-06 -7.31615e-07 -1.63225e-07
0.00150332 2.2293e-05 1.23539e-06
2.2293e-05 7.17791e-05 2.00481e-08
1.23539e-06 2.00481e-08 -8.48612e-07
0.00163812 -1.27274e-05 -1.3894e-06
-1.27274e-05 0.000110823 -8.31587e-07
-1.3894e-06 -8.31587e-07 2.978e-05
0.0015144 -1.17639e-05 -1.77616e-06
-1.17639e-05 6.0041e-05 -7.02313e-07
-1.77616e-06 -7.02313e-07 -2.69454e-05
0.00146273 1.47111e-05 -3.22402e-06
1.47111e-05 5.98151e-05 -3.20701e-07
-3.22402e-06 -3.20701e-07 -2.42195e-05
0.00152791 4.51627e-06 1.00289e-07
4.51627e-06 6.80161e-05 -2.72656e-07
1.00289e-07 -2.72656e-07 -1.99619e-05
0.00155099 -4.42402e-06 2.13324e-07
-4.42402e-06 7.1874e-05 -1.36437e-07
2.13324e-07 -1.36437e-07 -1.46073e-05
0.00143635 4.023e-06 -1.63056e-07
4.023e-06 1.48565e-05 1.12644e-07
-1.63056e-07 1.12644e-07 -6.2225e-05
0.00166523 -1.74806e-05 -2.29163e-07
-1.74806e-05 0.000117585 -4.69329e-07
-2.29163e-07 -4.69329e-07 3.61692e-05
0.00138464 3.54603e-05 -3.12366e-07
3.54603e-05 4.39712e-05 -4.96267e-08
-3.12366e-07 -4.96267e-08 -3.29792e-05
0.0015687 1.58953e-05 1.70246e-06
1.58953e-05 8.41479e-05 -4.73042e-07
1.70246e-06 -4.73042e-07 2.08609e-05
0.00155183 1.16883e-05 1.46248e-06
1.16883e-05 7.23931e-05 3.71262e-07
1.46248e-06 3.71262e-07 -1.65186e-05
0.00157686 -1.22346e-05 1.77928e-06
-1.22346e-05 8.38697e-05 5.95999e-07
1.77928e-06 5.95999e-07 -1.82505e-06
0.00156843 -4.39185e-06 8.1107e-07
-4.39185e-06 6.4322e-05 2.01808e-06
8.1107e-07 2.01808e-06 -8.85933e-06
0.00152919 3.14839e-05 -6.85072e-07
3.14839e-05 7.58026e-05 -5.95106e-08
-6.85072e-07 -5.95106e-08 1.51645e-05
0.00152624 1.50337e-05 -2.3313e-06
1.50337e-05 7.98867e-05 4.26053e-07
-2.3313e-06 4.26053e-07 -6.21906e-06
0.00163086 -4.62698e-06 -3.08588e-06
-4.62698e-06 0.000141833 2.25002e-07
-3.08588e-06 2.25002e-07 6.05937e-05
0.00146614 1.55407e-05 -3.27401e-06
1.55407e-05 4.59486e-05 1.30714e-07
-3.27401e-06 1.30714e-07 -4.00445e-05
0.00154697 -2.26856e-05 -1.34604e-06
-2.26856e-05 9.02165e-05 5.83947e-07
-1.34604e-06 5.83947e-07 1.20256e-05
0.00105777 -4.23746e-05 -1.41825e-06
-4.23746e-05 8.1721e-05 3.99148e-07
-1.41825e-06 3.99148e-07 1.38287e-05
0.000980748 -5.59193e-05 -1.50926e-07
-5.59193e-05 4.3603e-05 5.51205e-07
-1.50926e-07 5.51205e-07 -3.25489e-05
0.0011282 -6.70521e-05 -1.36961e-06
-6.70521e-05 9.20126e-05 2.10136e-06
-1.36961e-06 2.10136e-06 1.54913e-06
0.00150042 -5.6356e-05 -6.31529e-07
-5.6356e-05 0.000132323 5.46835e-07
-6.31529e-07 5.46835e-07 5.76389e-05
0.00132117 -4.12798e-05 -5.21334e-07
-4.12798e-05 -4.30498e-06 2.15967e-06
-5.21334e-07 2.15967e-06 -6.90228e-05
0.00130269 -5.82514e-05 7.31621e-07
-5.82514e-05 5.22189e-05 1.05308e-06
7.31621e-07 1.05308e-06 -1.47603e-05
0.00128962 -7.33456e-05 -2.0364e-06
-7.33456e-05 0.000113388 2.04303e-07
-2.0364e-06 2.04303e-07 2.1581e-05
0.00116044 -6.29644e-05 -1.51844e-06
-6.29644e-05 -3.39039e-06 -4.54849e-06
-1.51844e-06 -4.54849e-06 -7.07328e-05
0.00108771 -5.62384e-05 -7.18821e-07
-5.62384e-05 9.48515e-05 -1.38411e-07
-7.18821e-07 -1.38411e-07 1.94065e-05
0.00106836 -5.72615e-05 -1.17796e-06
-5.72615e-05 8.47514e-05 -7.29272e-07
-1.17796e-06 -7.29272e-07 4.90037e-06
0.00106691 -4.54276e-05 -9.72601e-07
-4.54276e-05 9.40951e-05 9.3516e-07
-9.72601e-07 9.3516e-07 1.42491e-05
0.000635552 1.73121e-05 -1.02641e-06
1.73121e-05 -0.000137321 2.10587e-06
-1.02641e-06 2.10587e-06 -0.000173637
0.000897133 3.03144e-06 -2.86907e-07
3.03144e-06 -5.1411e-06 9.76404e-07
-2.86907e-07 9.76404e-07 -6.53582e-05
0.00153408 1.95555e-05 -4.7586e-08
1.95555e-05 7.05658e-05 1.18885e-08
-4.7586e-08 1.18885e-08 -1.74927e-05
0.00159337 8.72662e-06 -1.98537e-07
8.72662e-06 9.6489e-05 1.53998e-07
-1.98537e-07 1.53998e-07 1.17444e-05
0.00158506 -2.55773e-05 -8.38832e-07
-2.55773e-05 9.32304e-05 2.00129e-07
-8.38832e-07 2.00129e-07 2.07061e-05
0.00106731 -5.66209e-05 3.65975e-08
-5.66209e-05 8.6364e-05 1.08085e-07
3.65975e-08 1.08085e-07 1.17253e-05
0.000919813 -5.77763e-05 5.97053e-07
-5.77763e-05 1.37009e-05 -4.80115e-07
5.97053e-07 -4.80115e-07 -6.95983e-05
0.00115484 -7.19452e-05 -1.13865e-07
-7.19452e-05 9.35775e-05 -2.33326e-07
-1.13865e-07 -2.33326e-07 -7.7195e-06
0.00137871 -4.88718e-05 3.1219e-07
-4.88718e-05 3.88613e-05 -3.93273e-07
3.1219e-07 -3.93273e-07 -2.62809e-05
0.00135033 -7.52613e-05 -1.66464e-07
-7.52613e-05 0.000121505 -5.09413e-07
-1.66464e-07 -5.09413e-07 3.15219e-05
0.00137405 -6.41943e-05 -5.53788e-07
-6.41943e-05 6.43898e-05 -6.54047e-07
-5.53788e-07 -6.54047e-07 4.9936e-06
0.000671005 1.82586e-05 -1.55446e-08
1.82586e-05 -0.000121934 -6.18856e-07
-1.55446e-08 -6.18856e-07 -0.000155091
0.00107793 -5.77817e-05 5.46737e-08
-5.77817e-05 8.86355e-05 1.26712e-07
5.46737e-08 1.26712e-07 1.12039e-05
0.00103416 -5.70273e-05 -8.16434e-07
-5.70273e-05 6.4264e-05 -4.79545e-08
-8.16434e-07 -4.79545e-08 -1.64153e-05
0.00113031 -5.72553e-05 -3.89463e-07
-5.72553e-05 0.000126399 4.85626e-07
-3.89463e-07 4.85626e-07 3.91851e-05
0.0011001 -4.10275e-05 -2.56065e-08
-4.10275e-05 0.000110143 3.16251e-08
-2.56065e-08 3.16251e-08 3.57249e-05
0.000948103 -1.53782e-06 9.45631e-08
-1.53782e-06 2.16527e-05 1.82172e-07
9.45631e-08 1.82172e-07 -3.41276e-05
0.0016629 2.32305e-05 2.35718e-06
2.32305e-05 0.000128458 6.41279e-07
2.35718e-06 6.41279e-07 4.02772e-05
0.00160689 9.28625e-06 2.6325e-06
9.28625e-06 8.36743e-05 -2.34767e-07
2.6325e-06 -2.34767e-07 -4.62967e-07
0.00136048 -3.10806e-05 2.38628e-06
-3.10806e-05 -2.51103e-05 -3.13976e-06
2.38628e-06 -3.13976e-06 -9.13165e-05
0.00157117 -5.80341e-05 1.3781e-06
-5.80341e-05 9.43997e-05 -1.55505e-06
1.3781e-06 -1.55505e-06 4.36018e-05
0.00104981 -5.85075e-05 2.75708e-07
-5.85075e-05 7.79726e-05 -2.33391e-07
2.75708e-07 -2.33391e-07 -5.14418e-07
0.00142388 -7.54815e-05 3.23585e-06
-7.54815e-05 0.000103984 2.00992e-06
3.23585e-06 2.00992e-06 2.65941e-05
0.000865675 -6.0099e-05 4.88814e-07
-6.0099e-05 -1.58794e-05 -2.87873e-06
4.88814e-07 -2.87873e-06 -0.000112164
0.00141 -8.16876e-05 2.42799e-06
-8.16876e-05 0.000208492 -6.72993e-07
2.42799e-06 -6.72993e-07 9.85705e-05
0.000679742 1.38439e-05 7.09132e-07
1.38439e-05 -0.000119341 -2.41569e-06
7.09132e-07 -2.41569e-06 -0.000150273
0.00107862 -3.22168e-07 8.69796e-07
-3.22168e-07 8.79725e-05 -1.25447e-06
8.69796e-07 -1.25447e-06 3.74677e-05
0.00117708 -3.49145e-05 5.30853e-08
-3.49145e-05 0.000145989 8.44206e-08
5.30853e-08 8.44206e-08 7.663e-05
0.00104748 -4.49735e-05 6.59982e-07
-4.49735e-05 8.73928e-05 -1.0521e-06
6.59982e-07 -1.0521e-06 1.86228e-07
0.00105284 -5.83115e-05 2.81014e-07
-5.83115e-05 7.51972e-05 6.85968e-08
2.81014e-07 6.85968e-08 -5.51085e-06
0.00105434 -5.82269e-05 8.92924e-07
-5.82269e-05 7.98957e-05 8.93358e-07
8.92924e-07 8.93358e-07 -7.81771e-06
0.000916969 -8.6372e-06 -1.3233e-06
-8.6372e-06 2.91925e-06 -2.24006e-06
-1.3233e-06 -2.24006e-06 -3.27516e-05
0.000990867 1.0992e-05 -9.5077e-07
1.0992e-05 4.46208e-05 -1.46104e-06
-9.5077e-07 -1.46104e-06 -1.60798e-05
0.001361 5.30843e-05 -9.40383e-08
5.30843e-05 7.03415e-05 -1.88642e-08
-9.40383e-08 -1.88642e-08 -1.23532e-05
0.00104141 4.30477e-05 -8.93908e-07
4.30477e-05 7.75598e-05 -4.70585e-07
-8.93908e-07 -4.70585e-07 1.42383e-06
0.00106416 5.30743e-05 -5.40003e-07
5.30743e-05 8.90955e-05 -4.90425e-08
-5.40003e-07 -4.90425e-08 1.24108e-05
0.000963942 5.20681e-05 -5.91467e-07
5.20681e-05 4.14856e-05 9.92448e-08
-5.91467e-07 9.92448e-08 -4.09118e-05
0.00120638 6.76916e-05 -8.71937e-07
6.76916e-05 7.59447e-05 -1.49788e-06
-8.71937e-07 -1.49788e-06 -5.10261e-06
0.00133089 7.00682e-05 1.24536e-07
7.00682e-05 9.3374e-05 -7.51596e-08
1.24536e-07 -7.51596e-08 1.13763e-05
0.000802348 5.40842e-05 -2.84144e-07
5.40842e-05 -3.23369e-05 -3.08031e-07
-2.84144e-07 -3.08031e-07 -0.000123294
0.00123357 7.07195e-05 -1.58868e-06
7.07195e-05 0.000131984 -4.59776e-07
-1.58868e-06 -4.59776e-07 3.62526e-05
0.000981275 9.27075e-06 4.52223e-08
9.27075e-06 3.7818e-05 2.76464e-08
4.52223e-08 2.76464e-08 -1.85834e-05
0.000989724 3.83706e-05 4.19221e-07
3.83706e-05 4.91639e-05 3.27815e-07
4.19221e-07 3.27815e-07 -2.54113e-05
0.00114183 6.18908e-05 -1.5275e-07
6.18908e-05 0.000130775 -5.28886e-07
-1.5275e-07 -5.28886e-07 4.67534e-05
0.0010193 5.21252e-05 -2.48968e-07
5.21252e-05 6.83593e-05 -1.88129e-08
-2.48968e-07 -1.88129e-08 -1.46894e-05
0.00101527 5.55855e-05 -8.28746e-07
5.55855e-05 6.44422e-05 -3.48221e-07
-8.28746e-07 -3.48221e-07 -1.99303e-05
0.00160978 5.44087e-05 -6.3769e-07
5.44087e-05 0.000151615 -4.12428e-07
-6.3769e-07 -4.12428e-07 8.47671e-05
0.00141308 7.84394e-05 8.36807e-07
7.84394e-05 0.000174177 7.6107e-08
8.36807e-07 7.6107e-08 8.3472e-05
0.000940804 6.6427e-05 -5.31555e-07
6.6427e-05 -0.000107731 5.5044e-07
-5.31555e-07 5.5044e-07 -0.000189104
0.00123061 6.80427e-05 1.03223e-06
6.80427e-05 0.000168909 1.05849e-06
1.03223e-06 1.05849e-06 7.11162e-05
0.000828729 6.40015e-05 -1.36889e-06
6.40015e-05 -7.38503e-05 -4.54542e-07
-1.36889e-06 -4.54542e-07 -0.000181331
0.000946075 3.06742e-05 9.98991e-07
3.06742e-05 2.53562e-05 1.26081e-06
9.98991e-07 1.26081e-06 -4.55887e-05
0.000945982 5.22936e-05 6.83596e-07
5.22936e-05 3.07761e-05 1.18448e-08
6.83596e-07 1.18448e-08 -5.45975e-05
0.00114824 6.30915e-05 2.23977e-07
6.30915e-05 0.000131901 4.5733e-07
2.23977e-07 4.5733e-07 4.07369e-05
0.000844034 5.14896e-05 7.74787e-07
5.14896e-05 -2.1567e-05 -2.26751e-07
7.74787e-07 -2.26751e-07 -0.000110125
0.00208181 4.3514e-05 1.38702e-06
4.3514e-05 0.0002745 1.2909e-06
1.38702e-06 1.2909e-06 0.000219438
0.00108334 6.42503e-05 2.25829e-06
6.42503e-05 -0.000118874 2.51448e-07
2.25829e-06 2.51448e-07 -0.000185787
0.00127065 8.04093e-05 1.59899e-06
8.04093e-05 9.75208e-05 -8.18453e-07
1.59899e-06 -8.18453e-07 -6.26684e-06
0.000767529 5.94437e-05 9.28916e-07
5.94437e-05 -6.26063e-05 2.04498e-06
9.28916e-07 2.04498e-06 -0.000179121
0.000957093 1.09939e-05 -1.57574e-07
1.09939e-05 2.59507e-05 -8.14797e-07
-1.57574e-07 -8.14797e-07 -2.72049e-05
0.000979292 2.37702e-05 1.89706e-07
2.37702e-05 4.26207e-05 4.40657e-07
1.89706e-07 4.40657e-07 -2.42134e-05
0.00106065 3.37852e-05 4.0107e-07
3.37852e-05 8.77052e-05 5.92033e-07
4.0107e-07 5.92033e-07 1.12921e-05
0.000971893 1.45875e-05 -6.22766e-07
1.45875e-05 3.61368e-05 -1.07392e-06
-6.22766e-07 -1.07392e-06 -1.20016e-05
0.000911355 6.87925e-06 -2.55673e-07
6.87925e-06 7.40071e-06 -1.26164e-06
-2.55673e-07 -1.26164e-06 -5.57952e-05
0.000964158 -1.62446e-06 4.49767e-07
-1.62446e-06 3.27829e-05 2.58358e-08
4.49767e-07 2.58358e-08 -1.37556e-05
0.00106412 2.69646e-05 -5.12405e-08
2.69646e-05 8.9695e-05 -4.29352e-07
-5.12405e-08 -4.29352e-07 1.64002e-05
0.000930706 4.40458e-06 2.02559e-07
4.40458e-06 2.03496e-05 4.03837e-07
2.02559e-07 4.03837e-07 -4.15224e-05
0.00113085 3.50545e-05 4.10054e-07
3.50545e-05 0.000123999 3.04708e-07
4.10054e-07 3.04708e-07 4.33576e-05
0.00089686 -3.39786e-06 2.37142e-08
-3.39786e-06 5.11196e-06 9.80506e-07
2.37142e-08 9.80506e-07 -6.67818e-05
0.000881243 2.62362e-05 4.64335e-07
2.62362e-05 -2.68307e-06 1.07587e-06
4.64335e-07 1.07587e-06 -6.43617e-05
0.000977458 -2.01456e-05 -3.67963e-07
-2.01456e-05 3.96039e-05 1.02823e-06
-3.67963e-07 1.02823e-06 -5.99571e-06
0.00093282 7.90529e-06 5.03696e-07
7.90529e-06 4.62366e-06 1.63179e-06
5.03696e-07 1.63179e-06 -2.18897e-05
0.000938878 -2.0549e-06 -2.67054e-07
-2.0549e-06 7.21083e-06 3.03886e-08
-2.67054e-07 3.03886e-08 -1.93255e-05
0.00142562 -7.64214e-06 1.00101e-06
-7.64214e-06 0.000246121 1.9066e-06
1.00101e-06 1.9066e-06 0.000249937
0.000939928 -8.5278e-06 -7.70232e-08
-8.5278e-06 8.59706e-06 -1.78097e-06
-7.70232e-08 -1.78097e-06 -1.86559e-05
0.0014488 -1.07243e-05 -1.72855e-06
-1.07243e-05 0.000260593 -1.20028e-06
-1.72855e-06 -1.20028e-06 0.000263758
0.00111426 -1.02782e-05 8.36565e-06
-1.02782e-05 8.91665e-05 6.30286e-06
8.36565e-06 6.30286e-06 0.000106516
0.00147456 -1.34418e-05 -4.95969e-06
-1.34418e-05 0.000277002 -4.44082e-06
-4.95969e-06 -4.44082e-06 0.000278958
0.00106654 -1.37567e-05 3.28072e-06
-1.37567e-05 6.8718e-05 2.45733e-06
3.28072e-06 2.45733e-06 8.50225e-05
0.00101211 -1.68702e-05 -2.32146e-06
-1.68702e-05 4.56152e-05 -1.63277e-06
-2.32146e-06 -1.63277e-06 6.0593e-05
0.000843588 1.59895e-05 1.51065e-06
1.59895e-05 -4.05229e-05 -3.23498e-06
1.51065e-06 -3.23498e-06 -4.26752e-05
0.000851687 1.8352e-05 -1.12927e-07
1.8352e-05 -3.20795e-05 1.91948e-08
-1.12927e-07 1.91948e-08 -3.61616e-05
0.0022902 2.62487e-05 1.42298e-05
2.62487e-05 0.000703745 -3.83237e-06
1.42298e-05 -3.83237e-06 0.00072366
0.000858729 2.05037e-05 -2.52595e-06
2.05037e-05 -2.41907e-05 3.37163e-06
-2.52595e-06 3.37163e-06 -3.04011e-05
0.00234773 3.01626e-05 -6.42135e-07
3.01626e-05 0.000739248 -5.16914e-08
-6.42135e-07 -5.16914e-08 0.000757517
0.00242733 3.37132e-05 -2.02355e-05
3.37132e-05 0.000786034 3.95199e-06
-2.02355e-05 3.95199e-06 0.000802433
0.0014404 3.67284e-05 6.51151e-07
3.67284e-05 7.31182e-05 4.83508e-07
6.51151e-07 4.83508e-07 -4.24414e-06
0.00151522 2.32333e-06 -8.09069e-07
2.32333e-06 5.17314e-05 -8.48078e-07
-8.09069e-07 -8.48078e-07 -2.60261e-05
0.00139151 1.59393e-05 2.54084e-06
1.59393e-05 -2.23222e-06 -2.3583e-06
2.54084e-06 -2.3583e-06 -6.26954e-05
0.00148977 -1.69893e-05 -2.00619e-06
-1.69893e-05 3.15171e-05 -1.63365e-06
-2.00619e-06 -1.63365e-06 -5.03701e-05
0.00156301 -7.06755e-06 -1.39294e-06
-7.06755e-06 7.85772e-05 -9.18017e-07
-1.39294e-06 -9.18017e-07 -7.81203e-06
0.00152763 3.77684e-06 -1.93236e-06
3.77684e-06 6.76352e-05 -4.18103e-07
-1.93236e-06 -4.18103e-07 -2.04863e-05
0.00156328 1.39358e-05 1.7621e-07
1.39358e-05 7.96847e-05 -4.04266e-08
1.7621e-07 -4.04266e-08 -8.87461e-06
0.00154598 -1.60293e-05 -2.03491e-07
-1.60293e-05 6.91037e-05 7.41576e-08
-2.03491e-07 7.41576e-08 -1.64832e-05
0.00155217 -3.79984e-06 7.47856e-07
-3.79984e-06 5.78437e-05 -2.51851e-07
7.47856e-07 -2.51851e-07 -1.50405e-05
0.00145793 2.83726e-05 2.90063e-08
2.83726e-05 3.74986e-05 -5.03416e-07
2.90063e-08 -5.03416e-07 -2.28752e-05
0.00156986 7.78971e-06 1.47384e-06
7.78971e-06 8.56813e-05 3.48267e-07
1.47384e-06 3.48267e-07 -2.31631e-06
0.00173468 -2.45881e-05 1.95407e-06
-2.45881e-05 0.000153254 9.37645e-07
1.95407e-06 9.37645e-07 7.26417e-05
0.00153263 1.24728e-05 8.68659e-07
1.24728e-05 3.27545e-05 2.62101e-06
8.68659e-07 2.62101e-06 -3.13681e-05
0.00146807 1.83936e-05 -2.68712e-06
1.83936e-05 3.91782e-05 -9.08065e-08
-2.68712e-06 -9.08065e-08 -4.85634e-05
0.00162653 7.99892e-06 -2.49372e-06
7.99892e-06 0.000114656 5.33546e-07
-2.49372e-06 5.33546e-07 3.02076e-05
0.00163944 -2.59847e-05 -1.76347e-06
-2.59847e-05 0.000124146 1.81085e-06
-1.76347e-06 1.81085e-06 5.20248e-05
0.00110097 -5.7005e-05 -6.0476e-07
-5.7005e-05 0.000101911 2.8684e-07
-6.0476e-07 2.8684e-07 2.72904e-05
0.00120257 -6.52956e-05 -3.37499e-07
-6.52956e-05 0.000152391 1.0033e-06
-3.37499e-07 1.0033e-06 6.99446e-05
0.00112778 -7.09379e-05 -2.0761e-06
-7.09379e-05 8.31707e-05 2.65648e-06
-2.0761e-06 2.65648e-06 -1.86687e-05
0.00144605 -4.94884e-05 -8.97787e-07
-4.94884e-05 7.09527e-05 1.09094e-06
-8.97787e-07 1.09094e-06 4.79529e-06
0.00111885 -6.18502e-05 -2.02549e-06
-6.18502e-05 -5.89442e-05 -5.65279e-07
-2.02549e-06 -5.65279e-07 -0.000118925
0.00130504 -7.2476e-05 -3.11404e-06
-7.2476e-05 0.000101067 -2.43654e-06
-3.11404e-06 -2.43654e-06 1.38889e-05
0.00109248 -5.81744e-05 -4.94281e-07
-5.81744e-05 9.58763e-05 -9.35608e-08
-4.94281e-07 -9.35608e-08 1.82814e-05
0.000993013 -5.56754e-05 -2.09867e-06
-5.56754e-05 4.43635e-05 -4.97184e-07
-2.09867e-06 -4.97184e-07 -3.53829e-05
0.00112261 -5.60767e-05 -9.69356e-07
-5.60767e-05 0.00012232 2.10748e-07
-9.69356e-07 2.10748e-07 3.50602e-05
0.000659059 2.03202e-05 -7.14122e-07
2.03202e-05 -0.000127751 1.23951e-06
-7.14122e-07 1.23951e-06 -0.000160673
0.00116468 -4.02746e-05 -6.47801e-07
-4.02746e-05 0.000141866 1.00249e-06
-6.47801e-07 1.00249e-06 6.80125e-05
0.00083206 2.04381e-06 2.3852e-08
2.04381e-06 -3.78554e-05 1.66954e-06
2.3852e-08 1.66954e-06 -9.42495e-05
0.00160132 2.30715e-05 -1.49237e-08
2.30715e-05 9.85881e-05 1.29391e-08
-1.49237e-08 1.29391e-08 1.04125e-05
0.00159985 7.73976e-06 4.8491e-07
7.73976e-06 7.85803e-05 -1.20929e-08
4.8491e-07 -1.20929e-08 -5.52988e-06
0.00144785 -3.14796e-05 -1.77067e-07
-3.14796e-05 1.64685e-05 -3.35247e-07
-1.77067e-07 -3.35247e-07 -5.10739e-05
0.00108581 -5.94997e-05 2.16204e-08
-5.94997e-05 9.47348e-05 2.97093e-07
2.16204e-08 2.97093e-07 1.6077e-05
0.000912155 -6.11235e-05 -9.66658e-08
-6.11235e-05 9.15852e-06 1.40015e-07
-9.66658e-08 1.40015e-07 -8.54949e-05
0.00142171 -8.1402e-05 -1.30966e-06
-8.1402e-05 0.00021358 1.36528e-06
-1.30966e-06 1.36528e-06 0.000104456
0.0015819 -5.94941e-05 -1.45615e-07
-5.94941e-05 0.000104907 4.5906e-07
-1.45615e-07 4.5906e-07 5.40084e-05
0.00131698 -7.30225e-05 1.62313e-07
-7.30225e-05 4.89035e-05 -8.90981e-07
1.62313e-07 -8.90981e-07 -2.81043e-05
0.000800575 1.42471e-05 8.98542e-08
1.42471e-05 -5.81454e-05 -5.81309e-07
8.98542e-08 -5.81309e-07 -8.8121e-05
0.00106031 7.29744e-06 -2.06776e-07
7.29744e-06 7.91447e-05 8.61057e-08
-2.06776e-07 8.61057e-08 2.8756e-05
0.000965205 -5.59642e-05 -6.07012e-07
-5.59642e-05 3.28151e-05 2.77118e-07
-6.07012e-07 2.77118e-07 -4.78786e-05
0.00107635 -5.87052e-05 3.9537e-07
-5.87052e-05 9.04773e-05 9.65343e-08
3.9537e-07 9.65343e-08 3.15577e-06
0.00104767 -4.38446e-05 -9.19511e-08
-4.38446e-05 8.76692e-05 -2.75313e-07
-9.19511e-08 -2.75313e-07 1.045e-06
0.00110343 -3.7079e-05 -6.31078e-07
-3.7079e-05 0.000109064 9.81516e-07
-6.31078e-07 9.81516e-07 3.87343e-05
0.00159477 2.76685e-05 2.06545e-06
2.76685e-05 9.08861e-05 1.2251e-06
2.06545e-06 1.2251e-06 4.80141e-06
0.00163609 -4.95097e-08 2.71656e-06
-4.95097e-08 8.40212e-05 -5.17346e-07
2.71656e-06 -5.17346e-07 4.55288e-06
0.00145016 -4.30792e-05 1.85755e-06
-4.30792e-05 -1.44024e-05 -3.71929e-06
1.85755e-06 -3.71929e-06 -6.13971e-05
0.00210014 -8.06971e-05 2.35723e-06
-8.06971e-05 0.000351293 -7.19635e-07
2.35723e-06 -7.19635e-07 0.000299738
0.000912945 -5.7049e-05 -2.11255e-07
-5.7049e-05 1.71262e-05 -6.37516e-07
-2.11255e-07 -6.37516e-07 -6.86289e-05
0.00143076 -8.43735e-05 2.74342e-06
-8.43735e-05 0.000190513 2.40701e-06
2.74342e-06 2.40701e-06 7.63139e-05
0.00144047 -7.89398e-05 1.74445e-06
-7.89398e-05 0.000263409 -3.73524e-06
1.74445e-06 -3.73524e-06 0.000157205
0.00092962 1.12746e-05 5.93437e-07
1.12746e-05 4.77189e-06 -1.79275e-06
5.93437e-07 -1.79275e-06 -2.23754e-05
0.000966256 -2.46239e-05 7.54439e-07
-2.46239e-05 3.31761e-05 -1.17323e-06
7.54439e-07 -1.17323e-06 -1.07387e-05
0.000801112 1.26565e-05 1.0117e-07
1.26565e-05 -5.15056e-05 -1.79351e-06
1.0117e-07 -1.79351e-06 -0.000100733
0.00106851 -2.47961e-05 3.37734e-07
-2.47961e-05 8.9785e-05 -5.60433e-07
3.37734e-07 -5.60433e-07 2.39954e-05
0.000979809 -3.04685e-05 1.72237e-07
-3.04685e-05 5.18513e-05 -9.8874e-07
1.72237e-07 -9.8874e-07 -2.93719e-05
0.00105441 -5.84465e-05 1.94988e-06
-5.84465e-05 9.46501e-05 5.86368e-07
1.94988e-06 5.86368e-07 -1.35405e-06
0.000823601 -5.35386e-05 3.31849e-07
-5.35386e-05 -4.2264e-05 1.86789e-07
3.31849e-07 1.86789e-07 -0.00012401
0.00171139 -7.85325e-05 4.76312e-07
-7.85325e-05 0.00042073 8.7516e-07
4.76312e-07 8.7516e-07 0.000326964
0.000984845 7.87713e-06 -6.19546e-07
7.87713e-06 3.9636e-05 -1.4716e-06
-6.19546e-07 -1.4716e-06 -1.67425e-05
0.00104104 4.23374e-05 -4.93616e-07
4.23374e-05 7.60184e-05 -3.49399e-07
-4.93616e-07 -3.49399e-07 1.24527e-06
0.00190926 5.72068e-05 1.66046e-07
5.72068e-05 0.000297818 -2.60368e-07
1.66046e-07 -2.60368e-07 0.000231143
0.00109265 5.45332e-05 -8.11008e-07
5.45332e-05 0.000106166 9.31704e-08
-8.11008e-07 9.31704e-08 2.32364e-05
0.00115237 6.21219e-05 -6.58298e-07
6.21219e-05 0.000136832 -1.10993e-06
-6.58298e-07 -1.10993e-06 5.34827e-05
0.000990615 5.47241e-05 -9.35296e-07
5.47241e-05 5.53186e-05 8.37409e-09
-9.35296e-07 8.37409e-09 -2.86538e-05
0.00143781 7.87356e-05 -4.00185e-07
7.87356e-05 0.000183044 -4.08629e-07
-4.00185e-07 -4.08629e-07 9.32355e-05
0.00131151 7.36853e-05 -7.01081e-07
7.36853e-05 8.02269e-05 1.46634e-06
-7.01081e-07 1.46634e-06 8.51205e-07
0.00101527 6.21963e-05 1.19397e-07
6.21963e-05 6.37528e-05 -2.55329e-07
1.19397e-07 -2.55329e-07 -3.47107e-05
0.00119161 7.35607e-05 -3.52854e-06
7.35607e-05 0.000105863 -7.19081e-07
-3.52854e-06 -7.19081e-07 -3.3879e-06
0.000927458 3.169e-05 3.5914e-07
3.169e-05 1.64362e-05 4.15675e-07
3.5914e-07 4.15675e-07 -5.51462e-05
0.001001 5.47528e-05 -3.52061e-07
5.47528e-05 5.87356e-05 -4.72455e-07
-3.52061e-07 -4.72455e-07 -2.61026e-05
0.00112943 6.24588e-05 -2.21234e-07
6.24588e-05 0.000123655 -7.76539e-07
-2.21234e-07 -7.76539e-07 3.3269e-05
0.00102703 5.63102e-05 -8.5722e-08
5.63102e-05 6.91162e-05 -2.75788e-07
-8.5722e-08 -2.75788e-07 -1.91459e-05
0.0018756 3.95732e-05 -6.59312e-07
3.95732e-05 0.000174931 -1.00226e-06
-6.59312e-07 -1.00226e-06 0.000120792
0.00126527 6.66971e-05 3.81547e-07
6.66971e-05 -1.99441e-05 -5.39965e-09
3.81547e-07 -5.39965e-09 -8.87785e-05
0.00148307 8.53918e-05 -6.23468e-07
8.53918e-05 0.000199541 5.37601e-08
-6.23468e-07 5.37601e-08 9.73261e-05
0.00085483 6.29852e-05 3.47208e-07
6.29852e-05 -2.59335e-05 5.27151e-07
3.47208e-07 5.27151e-07 -0.000141444
0.00107608 4.78098e-05 2.21239e-07
4.78098e-05 9.80968e-05 6.58801e-08
2.21239e-07 6.58801e-08 1.69679e-05
0.00164436 1.0494e-05 3.0792e-06
1.0494e-05 5.28158e-05 3.61419e-06
3.0792e-06 3.61419e-06 -1.3604e-05
0.001176 6.14426e-05 7.16083e-07
6.14426e-05 0.000149045 3.12777e-07
7.16083e-07 3.12777e-07 5.7372e-05
0.00110739 6.28734e-05 5.18863e-07
6.28734e-05 0.00011331 9.26179e-07
5.18863e-07 9.26179e-07 1.44473e-05
0.00178643 6.78507e-05 4.02608e-06
6.78507e-05 9.50567e-05 1.52687e-06
4.02608e-06 1.52687e-06 4.05907e-05
0.00135495 8.47996e-05 3.78341e-06
8.47996e-05 6.68475e-05 -3.76289e-07
3.78341e-06 -3.76289e-07 -3.20094e-05
0.00162788 8.83547e-05 9.21697e-07
8.83547e-05 0.00033535 2.14503e-06
9.21697e-07 2.14503e-06 0.000211491
0.0010524 2.91747e-05 -6.34395e-07
2.91747e-05 8.03685e-05 -4.44144e-07
-6.34395e-07 -4.44144e-07 1.37011e-05
0.00105606 3.32576e-05 -6.73302e-09
3.32576e-05 8.58806e-05 -6.70037e-08
-6.73302e-09 -6.70037e-08 9.52304e-06
0.00107218 4.08245e-05 6.15102e-07
4.08245e-05 9.69499e-05 3.3146e-07
6.15102e-07 3.3146e-07 1.25542e-05
0.00096591 9.46982e-06 -2.29011e-10
9.46982e-06 3.3864e-05 -1.02755e-06
-2.29011e-10 -1.02755e-06 -1.28796e-05
0.000982696 1.20242e-05 6.68898e-08
1.20242e-05 4.73333e-05 -2.32805e-07
6.68898e-08 -2.32805e-07 -1.4366e-05
0.000978528 2.42229e-05 -3.78563e-07
2.42229e-05 4.55449e-05 -1.11624e-06
-3.78563e-07 -1.11624e-06 -2.87678e-05
0.00096386 -1.72919e-05 1.93751e-07
-1.72919e-05 3.27596e-05 3.63391e-08
1.93751e-07 3.63391e-08 -1.29019e-05
0.000874865 5.51214e-06 -2.6903e-07
5.51214e-06 -6.73663e-06 3.80267e-07
-2.6903e-07 3.80267e-07 -6.79864e-05
0.00106632 2.95149e-05 9.26474e-08
2.95149e-05 9.02246e-05 -4.67421e-07
9.26474e-08 -4.67421e-07 8.88369e-06
0.00101758 1.50631e-05 1.33323e-07
1.50631e-05 6.7831e-05 4.24821e-07
1.33323e-07 4.24821e-07 -3.87811e-06
0.00114588 4.97686e-05 2.36026e-07
4.97686e-05 0.000126696 -3.04644e-08
2.36026e-07 -3.04644e-08 3.95452e-05
0.000985463 8.53966e-06 1.25318e-07
8.53966e-06 4.64856e-05 7.87681e-07
1.25318e-07 7.87681e-07 -3.33864e-05
0.00105694 2.1179e-05 2.43681e-07
2.1179e-05 8.67623e-05 3.60148e-07
2.43681e-07 3.60148e-07 1.72477e-05
0.000981334 2.20355e-05 5.87538e-07
2.20355e-05 5.08268e-05 7.95115e-07
5.87538e-07 7.95115e-07 -9.69101e-06
0.000974697 -7.72001e-06 -4.02275e-07
-7.72001e-06 3.74947e-05 9.09084e-07
-4.02275e-07 9.09084e-07 -7.43096e-06
0.000925626 1.04915e-05 3.42921e-07
1.04915e-05 2.00183e-06 1.57171e-06
3.42921e-07 1.57171e-06 -2.47122e-05
0.000932438 -1.68959e-07 -2.23796e-07
-1.68959e-07 4.48481e-06 1.60542e-08
-2.23796e-07 1.60542e-08 -2.20167e-05
0.00142661 -3.8578e-06 6.43152e-07
-3.8578e-06 0.000245346 1.85913e-06
6.43152e-07 1.85913e-06 0.000249165
0.000933113 -9.77654e-06 1.3413e-08
-9.77654e-06 4.35918e-06 -1.65695e-06
1.3413e-08 -1.65695e-06 -2.21283e-05
0.00144682 -7.04674e-06 -1.23046e-06
-7.04674e-06 0.000257214 -1.20055e-06
-1.23046e-06 -1.20055e-06 0.000260889
0.00111167 -7.21953e-06 5.89952e-06
-7.21953e-06 8.49646e-05 6.29319e-06
5.89952e-06 6.29319e-06 0.000102752
0.00146589 -1.02838e-05 -3.46572e-06
-1.02838e-05 0.000269438 -4.3175e-06
-3.46572e-06 -4.3175e-06 0.000272586
0.00106286 -1.0724e-05 2.16167e-06
-1.0724e-05 6.27619e-05 2.41317e-06
2.16167e-06 2.41317e-06 8.02693e-05
0.00100863 -1.38551e-05 -1.75446e-06
-1.38551e-05 3.912e-05 -1.57777e-06
-1.75446e-06 -1.57777e-06 5.55742e-05
0.000934467 8.62577e-06 4.18593e-07
8.62577e-06 4.86151e-06 -1.78548e-06
4.18593e-07 -1.78548e-06 -2.03272e-05
0.000853179 1.33252e-05 1.15126e-06
1.33252e-05 -4.02209e-05 -3.18667e-06
1.15126e-06 -3.18667e-06 -4.05658e-05
0.000861283 1.60663e-05 -1.03457e-07
1.60663e-05 -3.17193e-05 2.21533e-08
-1.03457e-07 2.21533e-08 -3.39509e-05
0.00224289 2.20197e-05 1.20664e-05
2.20197e-05 0.0006745 -3.84415e-06
1.20664e-05 -3.84415e-06 0.000695777
0.000869067 1.84112e-05 -2.13577e-06
1.84112e-05 -2.35221e-05 3.25304e-06
-2.13577e-06 3.25304e-06 -2.76728e-05
0.00229401 2.62263e-05 -7.27106e-07
2.62263e-05 0.000706347 -4.58207e-08
-7.27106e-07 -4.58207e-08 0.00072609
0.00235047 2.99506e-05 -1.78901e-05
2.99506e-05 0.000741249 3.92028e-06
-1.78901e-05 3.92028e-06 0.000759356
0.00137845 2.52599e-05 6.80025e-07
2.52599e-05 -4.85681e-06 -5.58253e-07
6.80025e-07 -5.58253e-07 -6.49563e-05
0.00152739 -3.185e-06 -9.07301e-07
-3.185e-06 4.73441e-05 -2.26531e-06
-9.07301e-07 -2.26531e-06 -2.5257e-05
0.0015131 -1.58354e-05 -1.68296e-06
-1.58354e-05 5.31137e-05 -6.41663e-07
-1.68296e-06 -6.41663e-07 -3.22487e-05
0.00157442 1.61474e-05 -1.56809e-06
1.61474e-05 8.67711e-05 -6.89043e-07
-1.56809e-06 -6.89043e-07 -1.37681e-06
0.00157904 8.16445e-06 3.71836e-08
8.16445e-06 9.11235e-05 -4.69092e-08
3.71836e-08 -4.69092e-08 3.38267e-06
0.00167042 -2.31634e-05 -5.45077e-08
-2.31634e-05 0.000121553 -6.57148e-09
-5.45077e-08 -6.57148e-09 4.01078e-05
0.00150718 1.26915e-05 -5.85619e-07
1.26915e-05 2.53212e-05 3.89336e-07
-5.85619e-07 3.89336e-07 -3.73209e-05
0.00158289 1.10984e-06 2.24747e-06
1.10984e-06 9.54109e-05 5.25442e-08
2.24747e-06 5.25442e-08 1.0945e-05
0.0017359 -1.5138e-05 2.29128e-06
-1.5138e-05 0.00013738 1.90045e-06
2.29128e-06 1.90045e-06 6.02882e-05
0.00139963 -1.52814e-05 2.53334e-06
-1.52814e-05 -3.18116e-05 8.12888e-07
2.53334e-06 8.12888e-07 -0.000100651
0.00154162 2.29448e-05 -1.8042e-06
2.29448e-05 6.96048e-05 -3.56312e-07
-1.8042e-06 -3.56312e-07 -1.85644e-05
0.00160269 5.95186e-06 -2.43899e-06
5.95186e-06 7.84375e-05 6.08717e-07
-2.43899e-06 6.08717e-07 -5.6627e-06
0.00154721 -3.1986e-05 -2.51536e-06
-3.1986e-05 6.36774e-05 1.50883e-06
-2.51536e-06 1.50883e-06 -5.18676e-06
0.00111523 -6.0312e-05 -5.24223e-07
-6.0312e-05 0.000108293 9.44228e-07
-5.24223e-07 9.44228e-07 2.947e-05
0.000945948 -6.18128e-05 -4.74621e-07
-6.18128e-05 2.76336e-05 2.74331e-06
-4.74621e-07 2.74331e-06 -6.53374e-05
0.00138037 -7.96673e-05 -2.71415e-06
-7.96673e-05 0.000191999 3.31067e-06
-2.71415e-06 3.31067e-06 8.38119e-05
0.00155156 -6.05331e-05 1.43989e-06
-6.05331e-05 9.58103e-05 2.17585e-06
1.43989e-06 2.17585e-06 4.4813e-05
0.00121185 -7.05863e-05 -4.30252e-06
-7.05863e-05 -5.24148e-06 -2.48439e-06
-4.30252e-06 -2.48439e-06 -8.18798e-05
0.000880183 -5.36694e-05 -1.07748e-06
-5.36694e-05 -8.24475e-06 3.74765e-07
-1.07748e-06 3.74765e-07 -8.89313e-05
0.00109257 -5.90282e-05 -6.63476e-07
-5.90282e-05 9.82023e-05 -1.07449e-06
-6.63476e-07 -1.07449e-06 1.12809e-05
0.00105861 -3.6215e-05 -2.096e-07
-3.6215e-05 9.25503e-05 3.04624e-07
-2.096e-07 3.04624e-07 7.00874e-06
0.000921553 1.42384e-05 -7.06881e-07
1.42384e-05 2.9608e-06 1.24954e-06
-7.06881e-07 1.24954e-06 -2.60293e-05
0.00104821 1.88353e-05 -1.85778e-07
1.88353e-05 7.35004e-05 1.41041e-06
-1.85778e-07 1.41041e-06 2.31002e-05
0.0010416 -3.04914e-05 -1.13547e-06
-3.04914e-05 7.71245e-05 1.97594e-06
-1.13547e-06 1.97594e-06 6.38565e-06
0.00158551 2.7726e-05 2.09668e-07
2.7726e-05 8.69708e-05 2.73273e-07
2.09668e-07 2.73273e-07 1.4009e-06
0.000929397 1.0906e-05 -3.02988e-08
1.0906e-05 4.42379e-06 9.42305e-09
-3.02988e-08 9.42305e-09 -2.2713e-05
0.000865761 -2.06539e-06 -4.82171e-07
-2.06539e-06 -1.80262e-05 1.38856e-08
-4.82171e-07 1.38856e-08 -6.20513e-05
0.00169876 -4.8101e-07 1.51811e-07
-4.8101e-07 0.000112696 -8.17386e-08
1.51811e-07 -8.17386e-08 3.34057e-05
0.00137148 -4.38287e-05 -6.03307e-07
-4.38287e-05 -4.7297e-05 -3.42969e-07
-6.03307e-07 -3.42969e-07 -9.79936e-05
0.00090263 -5.64562e-05 -7.94403e-08
-5.64562e-05 1.26836e-05 8.56113e-07
-7.94403e-08 8.56113e-07 -7.20862e-05
0.00136505 -7.71929e-05 -5.34354e-07
-7.71929e-05 0.000226068 3.6651e-07
-5.34354e-07 3.6651e-07 0.000117431
0.00120754 -7.71835e-05 8.58005e-07
-7.71835e-05 7.50558e-05 1.04281e-06
8.58005e-07 1.04281e-06 -3.60267e-05
0.00172729 -7.66443e-05 2.61536e-07
-7.66443e-05 0.000170769 -1.04052e-06
2.61536e-07 -1.04052e-06 0.000119112
0.0010112 5.63966e-07 6.35194e-07
5.63966e-07 5.58977e-05 -4.92874e-07
6.35194e-07 -4.92874e-07 8.02421e-06
0.00104838 -1.54102e-05 -5.19883e-07
-1.54102e-05 8.04647e-05 5.12888e-07
-5.19883e-07 5.12888e-07 1.42413e-05
0.00100795 -5.83035e-05 4.10655e-07
-5.83035e-05 4.80559e-05 3.89795e-07
4.10655e-07 3.89795e-07 -3.42927e-05
0.0012848 -6.66927e-05 -8.73001e-07
-6.66927e-05 0.000205976 -3.9831e-07
-8.73001e-07 -3.9831e-07 0.000115721
0.000965425 -4.66404e-05 3.1959e-07
-4.66404e-05 5.10446e-05 3.27547e-07
3.1959e-07 3.27547e-07 -4.55833e-05
0.0010181 -2.48284e-05 2.24281e-07
-2.48284e-05 6.91159e-05 -2.81794e-07
2.24281e-07 -2.81794e-07 -1.15441e-05
0.0015696 2.99536e-05 2.68308e-06
2.99536e-05 7.28055e-05 8.32726e-07
2.68308e-06 8.32726e-07 -6.45725e-06
0.00186127 -1.21225e-05 2.91879e-06
-1.21225e-05 0.000183919 -5.16893e-07
2.91879e-06 -5.16893e-07 0.000115211
0.0018037 -6.99549e-05 -4.21597e-07
-6.99549e-05 0.000117728 -3.98004e-06
-4.21597e-07 -3.98004e-06 9.28859e-05
0.00139072 -8.56372e-05 3.76914e-06
-8.56372e-05 8.15291e-05 1.81048e-06
3.76914e-06 1.81048e-06 -6.0645e-06
0.00112677 -6.30312e-05 -4.33258e-07
-6.30312e-05 0.000121729 -1.5214e-06
-4.33258e-07 -1.5214e-06 3.1196e-05
0.00161792 -9.20494e-05 1.37914e-06
-9.20494e-05 0.000342871 -2.77989e-06
1.37914e-06 -2.77989e-06 0.000213234
0.000770852 1.64433e-05 -4.1945e-07
1.64433e-05 -6.66032e-05 -1.52021e-06
-4.1945e-07 -1.52021e-06 -0.000109185
0.000952033 -9.39957e-06 7.90319e-07
-9.39957e-06 2.59118e-05 -1.22769e-06
7.90319e-07 -1.22769e-06 -1.94279e-05
0.00119758 -1.81401e-05 1.87229e-07
-1.81401e-05 0.000160698 -7.20346e-07
1.87229e-07 -7.20346e-07 0.00010384
0.000876362 1.17753e-05 -5.09981e-07
1.17753e-05 -3.92456e-06 -1.15633e-06
-5.09981e-07 -1.15633e-06 -6.94018e-05
0.00115013 -2.51631e-05 -1.29869e-08
-2.51631e-05 0.000134945 -6.54702e-07
-1.29869e-08 -6.54702e-07 5.85897e-05
0.000878907 -2.91494e-05 7.95794e-08
-2.91494e-05 6.75993e-06 -4.11706e-07
7.95794e-08 -4.11706e-07 -8.39811e-05
0.0012026 -5.06415e-05 2.71849e-06
-5.06415e-05 0.000180886 -5.23154e-07
2.71849e-06 -5.23154e-07 7.66528e-05
0.000978804 -6.33216e-05 -3.42846e-07
-6.33216e-05 5.93861e-05 2.96662e-07
-3.42846e-07 2.96662e-07 -3.0855e-05
0.00091124 3.35062e-05 -3.20206e-07
3.35062e-05 8.88428e-06 -4.45221e-07
-3.20206e-07 -4.45221e-07 -6.34126e-05
0.00105459 5.60106e-05 -1.38667e-06
5.60106e-05 8.58483e-05 -7.2244e-07
-1.38667e-06 -7.2244e-07 1.66843e-06
0.00166674 3.5816e-05 -3.33553e-06
3.5816e-05 7.40521e-05 -3.47358e-06
-3.33553e-06 -3.47358e-06 2.082e-05
0.00150073 6.97896e-05 -1.367e-06
6.97896e-05 0.000105436 7.10528e-07
-1.367e-06 7.10528e-07 3.45749e-05
0.00122413 6.16988e-05 -1.03587e-06
6.16988e-05 0.000166649 -3.77233e-08
-1.03587e-06 -3.77233e-08 7.86556e-05
0.0011298 6.2299e-05 -9.43601e-07
6.2299e-05 0.000124994 -1.80893e-06
-9.43601e-07 -1.80893e-06 3.53446e-05
0.00175485 9.1863e-05 -1.47485e-06
9.1863e-05 0.000331331 -1.36081e-07
-1.47485e-06 -1.36081e-07 0.000230542
0.0009541 6.65946e-05 -6.80415e-07
6.65946e-05 1.73586e-05 -1.59687e-06
-6.80415e-07 -1.59687e-06 -9.77274e-05
0.0010472 4.99492e-05 -3.10343e-07
4.99492e-05 8.4542e-05 -4.22095e-07
-3.10343e-07 -4.22095e-07 3.15618e-06
0.00146023 9.36568e-06 9.01047e-07
9.36568e-06 -3.83856e-05 8.99765e-07
9.01047e-07 8.99765e-07 -0.000103811
0.00107915 5.8631e-05 2.95412e-07
5.8631e-05 0.0001008 4.1982e-07
2.95412e-07 4.1982e-07 9.49782e-06
0.000964904 5.8724e-05 2.6798e-07
5.8724e-05 3.94709e-05 -3.28616e-07
2.6798e-07 -3.28616e-07 -6.06789e-05
0.0015917 6.29079e-05 5.63405e-07
6.29079e-05 3.44712e-06 -2.56358e-07
5.63405e-07 -2.56358e-07 -5.16355e-05
0.00154523 9.10524e-05 6.78042e-07
9.10524e-05 0.00015274 -5.12157e-07
6.78042e-07 -5.12157e-07 5.46687e-05
0.00156944 8.70232e-05 9.8956e-08
8.70232e-05 0.000311148 4.44988e-07
9.8956e-08 4.44988e-07 0.000186883
0.00111957 5.36592e-05 3.00535e-07
5.36592e-05 0.000125498 1.7558e-07
3.00535e-07 1.7558e-07 3.58738e-05
0.00181012 3.94313e-05 4.69755e-06
3.94313e-05 3.4112e-05 1.06277e-06
4.69755e-06 1.06277e-06 -2.11529e-05
0.00139046 6.8854e-05 2.05819e-08
6.8854e-05 0.000246214 -3.57109e-07
2.05819e-08 -3.57109e-07 0.000150843
0.00159273 8.06095e-05 -1.47695e-06
8.06095e-05 0.000346472 1.84178e-06
-1.47695e-06 1.84178e-06 0.000231051
0.00120375 9.11134e-05 4.04905e-06
9.11134e-05 -0.000150397 1.41654e-06
4.04905e-06 1.41654e-06 -0.000229084
0.00109291 8.15335e-05 4.62816e-08
8.15335e-05 3.10521e-05 2.49055e-06
4.62816e-08 2.49055e-06 -9.49232e-05
0.0022703 4.34978e-06 9.47884e-06
4.34978e-06 0.000313385 -2.25979e-06
9.47884e-06 -2.25979e-06 0.000322258
0.00105344 3.3693e-05 -4.25453e-07
3.3693e-05 8.50741e-05 -6.91906e-07
-4.25453e-07 -6.91906e-07 8.70123e-06
0.0010487 4.13855e-05 1.45173e-08
4.13855e-05 8.62503e-05 -9.409e-08
1.45173e-08 -9.409e-08 1.74014e-06
0.00117836 5.35588e-05 4.43542e-07
5.35588e-05 0.000144729 -6.85533e-08
4.43542e-07 -6.85533e-08 5.535e-05
0.000953782 -1.32113e-05 3.92489e-07
-1.32113e-05 2.76354e-05 -9.53148e-07
3.92489e-07 -9.53148e-07 -1.8044e-05
0.000871349 -1.24493e-05 -5.51483e-08
-1.24493e-05 -8.96115e-06 -2.74776e-07
-5.51483e-08 -2.74776e-07 -7.00244e-05
0.00113716 3.33269e-05 -4.42466e-07
3.33269e-05 0.000130173 -1.13901e-07
-4.42466e-07 -1.13901e-07 5.85483e-05
0.000997804 2.55579e-05 -3.86523e-07
2.55579e-05 5.4675e-05 -1.15083e-06
-3.86523e-07 -1.15083e-06 -2.74542e-05
0.000966736 -1.59389e-05 -2.77569e-07
-1.59389e-05 3.43806e-05 1.8614e-08
-2.77569e-07 1.8614e-08 -1.11731e-05
0.000926765 1.00005e-05 2.00941e-07
1.00005e-05 2.11085e-05 3.97524e-08
2.00941e-07 3.97524e-08 -3.8902e-05
0.00108156 4.40505e-05 -4.47724e-07
4.40505e-05 9.34957e-05 -7.64946e-07
-4.47724e-07 -7.64946e-07 6.4891e-06
0.00104974 1.05483e-05 -1.61994e-07
1.05483e-05 8.31953e-05 -5.85281e-08
-1.61994e-07 -5.85281e-08 1.3693e-05
0.00105257 1.27498e-05 1.35004e-07
1.27498e-05 8.21999e-05 -4.45966e-09
1.35004e-07 -4.45966e-09 2.89522e-06
0.00109484 3.86864e-05 2.55434e-09
3.86864e-05 9.19118e-05 8.10819e-07
2.55434e-09 8.10819e-07 4.25038e-06
0.00112384 3.47353e-05 2.4984e-07
3.47353e-05 0.000121398 7.64409e-08
2.4984e-07 7.64409e-08 4.4188e-05
0.0011148 2.95422e-05 2.546e-07
2.95422e-05 0.000116241 1.93889e-07
2.546e-07 1.93889e-07 4.74953e-05
0.000820677 9.11923e-06 -2.48383e-07
9.11923e-06 -3.27409e-05 7.39943e-07
-2.48383e-07 7.39943e-07 -9.33226e-05
0.000789614 1.07243e-05 4.72632e-07
1.07243e-05 -5.58724e-05 1.28025e-06
4.72632e-07 1.28025e-06 -0.000102553
0.00116383 -1.13196e-06 2.41745e-07
-1.13196e-06 0.000144196 1.84141e-07
2.41745e-07 1.84141e-07 8.38243e-05
0.000789805 4.83279e-07 -2.74749e-07
4.83279e-07 -5.53717e-05 1.30807e-06
-2.74749e-07 1.30807e-06 -0.000102247
0.000929287 1.15696e-05 2.58055e-07
1.15696e-05 4.34506e-06 1.59509e-06
2.58055e-07 1.59509e-06 -2.26022e-05
0.000927236 1.53373e-06 -2.83213e-07
1.53373e-06 2.85831e-06 3.97606e-09
-2.83213e-07 3.97606e-09 -2.38466e-05
0.000878755 2.27093e-07 1.40084e-07
2.27093e-07 -3.55081e-05 3.02079e-06
1.40084e-07 3.02079e-06 -3.46602e-05
0.000931708 -8.48235e-06 2.3332e-07
-8.48235e-06 4.18029e-06 -1.61897e-06
2.3332e-07 -1.61897e-06 -2.23129e-05
0.00116483 -3.19736e-06 -7.13561e-07
-3.19736e-06 0.000111454 -1.23198e-06
-7.13561e-07 -1.23198e-06 0.000113711
0.00221225 -4.96437e-06 3.37698e-06
-4.96437e-06 0.000646843 3.95352e-06
3.37698e-06 3.95352e-06 0.00067048
0.00146783 -6.71401e-06 -2.10765e-06
-6.71401e-06 0.000268209 -4.25248e-06
-2.10765e-06 -4.25248e-06 0.000271729
0.00106808 -7.42394e-06 1.13272e-06
-7.42394e-06 6.23267e-05 2.40572e-06
1.13272e-06 2.40572e-06 8.035e-05
0.00101166 -1.06199e-05 -1.23649e-06
-1.06199e-05 3.64368e-05 -1.52717e-06
-1.23649e-06 -1.52717e-06 5.41467e-05
0.000941099 5.74773e-06 3.31882e-07
5.74773e-06 6.21879e-06 -1.74043e-06
3.31882e-07 -1.74043e-06 -1.74065e-05
0.000934803 8.28141e-06 -2.43524e-08
8.28141e-06 4.76841e-06 3.87887e-09
-2.43524e-08 3.87887e-09 -2.03883e-05
0.000863236 1.03581e-05 7.76457e-07
1.03581e-05 -3.90242e-05 -3.14728e-06
7.76457e-07 -3.14728e-06 -3.77399e-05
0.00115162 1.4521e-05 -4.32165e-07
1.4521e-05 0.000112436 2.70775e-08
-4.32165e-07 2.70775e-08 0.000113384
0.00220102 1.76692e-05 9.8052e-06
1.76692e-05 0.000648632 -3.85654e-06
9.8052e-06 -3.85654e-06 0.00067112
0.000878339 1.61386e-05 -1.73355e-06
1.61386e-05 -2.32282e-05 3.21276e-06
-1.73355e-06 3.21276e-06 -2.55368e-05
0.00224543 2.20937e-05 -8.09785e-07
2.20937e-05 0.000676437 -3.85181e-08
-8.09785e-07 -3.85181e-08 0.000697543
0.00229601 2.61391e-05 -1.55622e-05
2.61391e-05 0.000708 3.90056e-06
-1.55622e-05 3.90056e-06 0.000727589
0.00149522 1.28224e-05 -1.60385e-06
1.28224e-05 2.41992e-05 -2.16831e-06
-1.60385e-06 -2.16831e-06 -3.69345e-05
0.00161289 -2.12009e-05 -1.6441e-06
-2.12009e-05 9.30609e-05 -5.29526e-07
-1.6441e-06 -5.29526e-07 1.07999e-05
0.00158895 4.56264e-06 -1.61844e-06
4.56264e-06 9.70888e-05 -6.04968e-07
-1.61844e-06 -6.04968e-07 9.49981e-06
0.0015869 1.9054e-06 -1.10427e-07
1.9054e-06 9.69681e-05 -4.72149e-07
-1.10427e-07 -4.72149e-07 1.2482e-05
0.00159705 -1.47258e-05 -2.21323e-07
-1.47258e-05 7.53132e-05 6.13122e-07
-2.21323e-07 6.13122e-07 -8.4272e-07
0.00147582 -1.7452e-05 1.32496e-06
-1.7452e-05 1.89437e-05 7.7315e-07
1.32496e-06 7.7315e-07 -5.2453e-05
0.00159944 4.065e-06 1.96193e-06
4.065e-06 9.64233e-05 6.24818e-08
1.96193e-06 6.24818e-08 2.00019e-05
0.00192667 -5.34945e-05 -2.49893e-06
-5.34945e-05 0.000118506 -6.36131e-06
-2.49893e-06 -6.36131e-06 9.35313e-05
0.00186324 3.82755e-06 3.41694e-06
3.82755e-06 0.000165245 6.49757e-07
3.41694e-06 6.49757e-07 0.000110825
0.000967624 -4.25051e-06 4.60332e-07
-4.25051e-06 3.21851e-05 -1.0045e-06
4.60332e-07 -1.0045e-06 -8.06992e-06
0.00156997 2.76885e-05 -2.38603e-06
2.76885e-05 8.0009e-05 -7.43062e-07
-2.38603e-06 -7.43062e-07 -5.04246e-06
0.00175183 -1.13087e-06 -2.63638e-06
-1.13087e-06 0.00013666 6.96393e-07
-2.63638e-06 6.96393e-07 5.756e-05
0.00128171 -4.44922e-05 -8.12982e-07
-4.44922e-05 -8.69718e-05 2.7928e-06
-8.12982e-07 2.7928e-06 -0.000141047
0.000901953 -5.61354e-05 2.54353e-08
-5.61354e-05 1.31446e-05 1.49005e-06
2.54353e-08 1.49005e-06 -7.0673e-05
0.00130114 -7.57749e-05 -1.38647e-06
-7.57749e-05 0.000194679 4.42479e-06
-1.38647e-06 4.42479e-06 8.35444e-05
0.000920433 -6.88022e-05 -2.18189e-06
-6.88022e-05 -7.31003e-05 4.72123e-07
-2.18189e-06 4.72123e-07 -0.00018163
0.00143379 -7.34616e-05 -2.54745e-06
-7.34616e-05 2.95913e-05 -2.27155e-06
-2.54745e-06 -2.27155e-06 -2.24231e-05
0.00117452 -6.26105e-05 6.36534e-07
-6.26105e-05 0.000129169 -3.94111e-07
6.36534e-07 -3.94111e-07 4.63093e-05
0.000910734 -5.63387e-05 -4.10324e-06
-5.63387e-05 1.75942e-05 -2.99467e-06
-4.10324e-06 -2.99467e-06 -6.92876e-05
0.000880616 -4.37772e-05 -8.39007e-08
-4.37772e-05 1.0556e-05 8.37081e-07
-8.39007e-08 8.37081e-07 -8.73975e-05
0.000932358 1.06765e-05 -7.08761e-07
1.06765e-05 5.76206e-06 1.82346e-06
-7.08761e-07 1.82346e-06 -2.13864e-05
0.00105262 -2.62342e-05 3.1912e-08
-2.62342e-05 8.52389e-05 2.79013e-07
3.1912e-08 2.79013e-07 4.65599e-06
0.00121958 -1.77586e-05 -3.02881e-07
-1.77586e-05 0.000162816 7.2741e-07
-3.02881e-07 7.2741e-07 0.000116125
0.00102938 -5.34976e-06 -2.56761e-07
-5.34976e-06 7.15391e-05 1.70944e-06
-2.56761e-07 1.70944e-06 4.99685e-06
0.000764418 6.24268e-06 -9.15443e-08
6.24268e-06 -7.05574e-05 1.15551e-06
-9.15443e-08 1.15551e-06 -0.000114155
0.00159411 2.86284e-05 7.27256e-08
2.86284e-05 8.25092e-05 1.89143e-07
7.27256e-08 1.89143e-07 3.47982e-06
0.000878143 2.63742e-06 2.93597e-07
2.63742e-06 -1.26862e-05 -4.47599e-07
2.93597e-07 -4.47599e-07 -5.46941e-05
0.000955161 -1.10839e-05 -1.59543e-07
-1.10839e-05 2.78217e-05 3.11198e-08
-1.59543e-07 3.11198e-08 -1.77097e-05
0.00100924 -6.7002e-06 -6.06145e-07
-6.7002e-06 6.49176e-05 4.64155e-07
-6.06145e-07 4.64155e-07 6.90178e-06
0.00174883 -1.19012e-05 9.1796e-07
-1.19012e-05 0.000121998 4.52719e-07
9.1796e-07 4.52719e-07 5.48243e-05
0.0015786 -6.88991e-05 -1.26669e-06
-6.88991e-05 1.651e-05 -1.12821e-06
-1.26669e-06 -1.12821e-06 -1.2543e-05
0.00100712 -6.03806e-05 -3.01562e-07
-6.03806e-05 5.75505e-05 6.17155e-07
-3.01562e-07 6.17155e-07 -3.14835e-05
0.00116284 -7.93431e-05 9.2997e-07
-7.93431e-05 0.000123866 -5.85642e-07
9.2997e-07 -5.85642e-07 -6.25765e-06
0.00137552 -8.58061e-05 -1.22864e-07
-8.58061e-05 7.53886e-05 9.12071e-07
-1.22864e-07 9.12071e-07 -1.1271e-05
0.000964095 6.95823e-06 -1.448e-07
6.95823e-06 4.03013e-05 3.94235e-08
-1.448e-07 3.94235e-08 -2.38217e-05
0.00111555 -2.78205e-05 -8.83225e-09
-2.78205e-05 0.000117979 -2.52355e-08
-8.83225e-09 -2.52355e-08 4.05384e-05
0.000930414 -6.15862e-05 -1.83494e-06
-6.15862e-05 3.43781e-05 2.22215e-07
-1.83494e-06 2.22215e-07 -5.68471e-05
0.00116219 -4.54054e-05 1.94389e-07
-4.54054e-05 0.000160108 -2.11693e-07
1.94389e-07 -2.11693e-07 5.73249e-05
0.000975777 -3.59485e-05 -2.58075e-08
-3.59485e-05 5.50873e-05 6.31376e-07
-2.58075e-08 6.31376e-07 -3.51207e-05
0.00143657 2.35771e-05 3.14993e-06
2.35771e-05 -2.05056e-05 2.18345e-07
3.14993e-06 2.18345e-07 -9.44614e-05
0.00209307 -4.04848e-05 3.01358e-06
-4.04848e-05 0.000229934 -3.21785e-06
3.01358e-06 -3.21785e-06 0.000200945
0.00194289 -0.000100474 5.57576e-06
-0.000100474 0.000226892 -9.55674e-07
5.57576e-06 -9.55674e-07 0.000167823
0.0015516 -9.68454e-05 1.0726e-06
-9.68454e-05 0.000262313 -1.73003e-06
1.0726e-06 -1.73003e-06 0.000141309
0.00103629 -7.02398e-05 6.89375e-07
-7.02398e-05 9.37611e-05 -2.74327e-06
6.89375e-07 -2.74327e-06 -1.48031e-05
0.000780107 1.46315e-05 5.39446e-08
1.46315e-05 -5.09369e-05 -1.26062e-06
5.39446e-08 -1.26062e-06 -0.000107897
0.000889402 1.40997e-05 3.47893e-07
1.40997e-05 4.16297e-06 -1.27947e-06
3.47893e-07 -1.27947e-06 -5.81471e-05
0.00114091 1.24452e-05 2.94692e-07
1.24452e-05 0.000134993 -2.13724e-07
2.94692e-07 -2.13724e-07 6.6365e-05
0.00106942 -3.62777e-05 6.07262e-07
-3.62777e-05 9.8939e-05 -9.30149e-07
6.07262e-07 -9.30149e-07 2.29775e-05
0.00107179 -3.22816e-05 -5.85132e-09
-3.22816e-05 9.92992e-05 1.89237e-08
-5.85132e-09 1.89237e-08 1.4425e-05
0.00107134 -3.68218e-05 -9.0161e-08
-3.68218e-05 0.000112915 -1.60959e-06
-9.0161e-08 -1.60959e-06 1.52563e-05
0.000986576 -5.19485e-05 4.38117e-06
-5.19485e-05 9.68639e-05 -2.78542e-07
4.38117e-06 -2.78542e-07 -2.4673e-05
0.00101416 5.16169e-05 -7.66757e-07
5.16169e-05 6.89699e-05 -9.71225e-07
-7.66757e-07 -9.71225e-07 -1.26537e-05
0.000974714 5.56345e-05 -9.10591e-08
5.56345e-05 4.89654e-05 3.52362e-07
-9.10591e-08 3.52362e-07 -4.19741e-05
0.0013121 7.35513e-06 -2.06282e-06
7.35513e-06 -0.000112726 -8.44098e-07
-2.06282e-06 -8.44098e-07 -0.00017704
0.00140983 5.8018e-05 -1.81415e-06
5.8018e-05 -8.27987e-05 -2.00233e-06
-1.81415e-06 -2.00233e-06 -0.000138345
0.00170749 9.69879e-05 -2.40575e-06
9.69879e-05 0.000224377 -6.90224e-07
-2.40575e-06 -6.90224e-07 0.000127136
0.000807273 5.43146e-05 -8.36107e-08
5.43146e-05 -4.20453e-05 -1.13692e-06
-8.36107e-08 -1.13692e-06 -0.000143307
0.00144223 8.40609e-05 -2.83999e-07
8.40609e-05 0.000252213 -8.50433e-07
-2.83999e-07 -8.50433e-07 0.00012836
0.00111445 5.52169e-05 9.90324e-08
5.52169e-05 0.000123662 9.59697e-08
9.90324e-08 9.59697e-08 3.44676e-05
0.00163184 3.9157e-05 -1.73013e-06
3.9157e-05 -5.86063e-05 1.17457e-07
-1.73013e-06 1.17457e-07 -0.000114089
0.00119294 6.29969e-05 -3.36399e-07
6.29969e-05 0.000150305 -3.62781e-07
-3.36399e-07 -3.62781e-07 5.55502e-05
0.00125176 7.00216e-05 -2.64363e-07
7.00216e-05 0.000186268 4.30573e-07
-2.64363e-07 4.30573e-07 7.10203e-05
0.00156734 9.40176e-05 1.93265e-06
9.40176e-05 1.41397e-05 -9.15708e-07
1.93265e-06 -9.15708e-07 -6.25021e-05
0.00124418 8.59294e-05 -9.04912e-07
8.59294e-05 0.000113219 9.5274e-07
-9.04912e-07 9.5274e-07 -1.85898e-05
0.00179681 -3.98589e-06 -3.53796e-06
-3.98589e-06 3.98209e-05 -2.40701e-06
-3.53796e-06 -2.40701e-06 4.42671e-05
0.001154 5.96754e-05 -4.2896e-07
5.96754e-05 0.000137259 -8.46942e-07
-4.2896e-07 -8.46942e-07 4.41769e-05
0.00177654 0.000106824 9.23159e-06
0.000106824 1.52814e-06 3.04444e-06
9.23159e-06 3.04444e-06 -6.37511e-05
0.00129559 6.79213e-05 -1.47379e-06
6.79213e-05 0.000208409 -7.24259e-07
-1.47379e-06 -7.24259e-07 0.000108215
0.00104512 7.02162e-05 -1.63781e-06
7.02162e-05 0.000111959 1.41522e-06
-1.63781e-06 1.41522e-06 -2.74063e-05
0.000721638 9.88613e-05 1.3525e-07
9.88613e-05 -0.000225563 2.938e-07
1.3525e-07 2.938e-07 -0.000338205
0.00603589 -0.000105105 -1.91878e-05
-0.000105105 0.00213081 1.95506e-06
-1.91878e-05 1.95506e-06 0.00160423
0.00270442 -0.000135314 5.29326e-05
-0.000135314 0.000452896 1.70498e-05
5.29326e-05 1.70498e-05 0.000226498
0.00146388 8.88375e-05 6.74725e-06
8.88375e-05 -4.42434e-05 4.23275e-06
6.74725e-06 4.23275e-06 1.64822e-05
-0.00236629 -0.000129164 -4.76115e-05
-0.000129164 -0.00133274 -2.13329e-05
-4.76115e-05 -2.13329e-05 -0.00132611
0.00149211 -0.000195261 -1.09718e-05
-0.000195261 -2.5939e-05 -1.87394e-06
-1.09718e-05 -1.87394e-06 0.000487636
0.00103108 4.14884e-05 -4.83079e-07
4.14884e-05 7.82645e-05 -5.62854e-07
-4.83079e-07 -5.62854e-07 -6.30794e-06
0.0011402 5.19712e-05 -3.65293e-08
5.19712e-05 0.000127127 -4.6934e-08
-3.65293e-08 -4.6934e-08 3.78556e-05
0.00113451 5.37925e-05 4.67572e-07
5.37925e-05 0.000108488 3.75855e-07
4.67572e-07 3.75855e-07 1.78991e-05
0.000957634 -2.35977e-05 1.88638e-07
-2.35977e-05 3.06628e-05 -8.74716e-07
1.88638e-07 -8.74716e-07 -1.54998e-05
0.000865224 1.84742e-05 1.62468e-08
1.84742e-05 -1.01532e-05 -8.48849e-07
1.62468e-08 -8.48849e-07 -7.09426e-05
0.00104165 -2.25153e-06 4.92987e-08
-2.25153e-06 7.86301e-05 -4.9221e-07
4.92987e-08 -4.9221e-07 9.51488e-06
0.00111475 2.01889e-05 -1.74996e-07
2.01889e-05 0.000115688 -5.88038e-07
-1.74996e-07 -5.88038e-07 3.69014e-05
0.001039 3.74928e-05 -8.10911e-07
3.74928e-05 7.07263e-05 -1.29088e-06
-8.10911e-07 -1.29088e-06 -1.60819e-05
0.00103214 3.33238e-05 -3.01769e-07
3.33238e-05 7.44672e-05 -4.72983e-07
-3.01769e-07 -4.72983e-07 4.32112e-06
0.0008769 6.76522e-06 1.65728e-07
6.76522e-06 -1.10076e-05 4.38682e-07
1.65728e-07 4.38682e-07 -5.74452e-05
0.000914667 4.71131e-06 -1.02237e-07
4.71131e-06 1.5392e-05 4.84962e-08
-1.02237e-07 4.84962e-08 -4.46621e-05
0.00107963 3.93436e-05 -1.43258e-08
3.93436e-05 8.69054e-05 1.35962e-07
-1.43258e-08 1.35962e-07 -3.14448e-07
0.00108377 3.22225e-05 -8.92236e-08
3.22225e-05 9.99594e-05 -3.65218e-07
-8.92236e-08 -3.65218e-07 2.26572e-05
0.00110669 5.1644e-05 -4.72251e-09
5.1644e-05 0.000114048 -2.31906e-07
-4.72251e-09 -2.31906e-07 3.6911e-05
0.00113502 5.24547e-05 3.30628e-07
5.24547e-05 0.000122601 8.53169e-07
3.30628e-07 8.53169e-07 3.64623e-05
0.000885841 2.27688e-05 2.68538e-07
2.27688e-05 -2.12699e-06 1.15419e-06
2.68538e-07 1.15419e-06 -7.26887e-05
0.000849447 4.68612e-06 3.6029e-07
4.68612e-06 -1.85721e-05 1.53386e-07
3.6029e-07 1.53386e-07 -7.92415e-05
0.000766363 -2.68775e-05 -1.02697e-06
-2.68775e-05 -6.60813e-05 1.29934e-06
-1.02697e-06 1.29934e-06 -0.00011351
0.00104179 7.55669e-06 -2.67803e-08
7.55669e-06 7.9745e-05 5.39265e-07
-2.67803e-08 5.39265e-07 1.96015e-05
0.00116034 3.48785e-05 1.95421e-07
3.48785e-05 0.000141303 2.87224e-07
1.95421e-07 2.87224e-07 7.12259e-05
0.000983716 -7.45651e-06 -2.7183e-07
-7.45651e-06 5.18697e-05 7.34549e-07
-2.7183e-07 7.34549e-07 -1.02118e-05
0.00101088 2.86267e-06 3.53657e-07
2.86267e-06 6.51139e-05 -4.71586e-07
3.53657e-07 -4.71586e-07 4.58113e-06
0.00095777 -2.27887e-05 -8.04417e-07
-2.27887e-05 3.14366e-05 8.49719e-07
-8.04417e-07 8.49719e-07 -1.5456e-05
0.000787522 3.9264e-06 1.65474e-07
3.9264e-06 -5.53877e-05 4.54546e-07
1.65474e-07 4.54546e-07 -0.000102897
0.000933413 1.00696e-05 -8.39338e-09
1.00696e-05 6.4385e-06 1.61801e-06
-8.39338e-09 1.61801e-06 -2.0823e-05
0.000927406 2.41623e-06 -2.18887e-07
2.41623e-06 3.31457e-06 -3.66343e-09
-2.18887e-07 -3.66343e-09 -2.357e-05
0.000897536 3.24879e-06 -3.48753e-07
3.24879e-06 -2.52126e-05 4.24828e-06
-3.48753e-07 4.24828e-06 -2.46338e-05
0.000928984 -7.72107e-06 3.80708e-07
-7.72107e-06 3.79574e-06 -1.5771e-06
3.80708e-07 -1.5771e-06 -2.29004e-05
0.000882003 1.72732e-07 8.79817e-08
1.72732e-07 -3.38434e-05 5.60114e-09
8.79817e-08 5.60114e-09 -3.30119e-05
0.00220948 -9.06829e-07 1.89901e-10
-9.06829e-07 0.000644804 3.9624e-06
1.89901e-10 3.9624e-06 0.000668548
0.00089923 -2.82396e-06 -4.53992e-07
-2.82396e-06 -2.43429e-05 -4.27986e-06
-4.53992e-07 -4.27986e-06 -2.36589e-05
0.00163653 -4.32136e-06 -1.30297e-07
-4.32136e-06 0.000351803 2.1502e-08
-1.30297e-07 2.1502e-08 0.000372682
0.00102453 -7.10426e-06 -7.66497e-07
-7.10426e-06 3.9704e-05 -1.50813e-06
-7.66497e-07 -1.50813e-06 5.79915e-05
0.000944261 2.97251e-06 1.35278e-07
2.97251e-06 6.43189e-06 -1.76728e-06
1.35278e-07 -1.76728e-06 -1.62295e-05
0.000938969 5.32658e-06 6.84945e-09
5.32658e-06 4.84225e-06 -5.32053e-09
6.84945e-09 -5.32053e-09 -1.87395e-05
0.00087284 7.09595e-06 5.26864e-07
7.09595e-06 -3.71147e-05 -3.10782e-06
5.26864e-07 -3.10782e-06 -3.45285e-05
0.000935083 7.97471e-06 -5.33442e-07
7.97471e-06 4.64955e-06 1.77496e-06
-5.33442e-07 1.77496e-06 -2.04741e-05
0.00114391 1.12005e-05 -1.54024e-07
1.12005e-05 0.000104469 -5.9746e-07
-1.54024e-07 -5.9746e-07 0.000107128
0.00216279 1.32595e-05 7.37176e-06
1.32595e-05 0.00062542 -3.85009e-06
7.37176e-06 -3.85009e-06 0.000648954
0.000876736 1.35155e-05 -1.3612e-06
1.35155e-05 -2.82149e-05 3.19076e-06
-1.3612e-06 3.19076e-06 -2.88605e-05
0.00222606 1.72784e-05 -3.83716e-06
1.72784e-05 0.000662349 1.122e-06
-3.83716e-06 1.122e-06 0.000684539
0.00225123 2.21276e-05 -1.3278e-05
2.21276e-05 0.000680024 3.91572e-06
-1.3278e-05 3.91572e-06 0.00070095
0.00140863 -1.35849e-05 -1.93847e-06
-1.35849e-05 -1.03394e-05 -4.07239e-07
-1.93847e-06 -4.07239e-07 -8.56182e-05
0.00158808 2.14341e-06 -2.222e-06
2.14341e-06 9.71043e-05 -1.05797e-06
-2.222e-06 -1.05797e-06 1.2588e-05
0.0014488 -1.7783e-05 2.28249e-06
-1.7783e-05 2.01741e-05 5.30246e-07
2.28249e-06 5.30246e-07 -5.39317e-05
0.00183604 -4.5951e-05 -1.44322e-06
-4.5951e-05 8.84474e-05 -1.41757e-06
-1.44322e-06 -1.41757e-06 5.65079e-05
0.00149366 2.42978e-06 -8.35806e-07
2.42978e-06 4.33631e-05 -3.2596e-07
-8.35806e-07 -3.2596e-07 -3.36281e-05
0.00138671 4.59619e-06 -6.70522e-07
4.59619e-06 -5.93397e-05 -5.98977e-07
-6.70522e-07 -5.98977e-07 -0.000119501
0.00188338 3.04003e-05 1.82933e-06
3.04003e-05 0.000169433 2.34703e-06
1.82933e-06 2.34703e-06 8.75822e-05
0.00238575 -0.000112315 0.000140732
-0.000112315 0.000420685 4.00796e-05
0.000140732 4.00796e-05 0.000193366
0.00139521 -1.26118e-05 -4.23266e-06
-1.26118e-05 5.25291e-05 1.85988e-06
-4.23266e-06 1.85988e-06 3.66629e-06
0.000964836 7.16327e-07 -3.60762e-07
7.16327e-07 3.15997e-05 -1.04908e-06
-3.60762e-07 -1.04908e-06 -8.61957e-06
0.000969873 -1.50726e-05 3.29779e-07
-1.50726e-05 3.36627e-05 -8.62601e-09
3.29779e-07 -8.62601e-09 -6.95435e-06
0.00097953 1.10116e-06 -1.74215e-07
1.10116e-06 4.87092e-05 -5.77268e-07
-1.74215e-07 -5.77268e-07 -4.28852e-06
0.000991177 -1.55795e-05 -2.7812e-07
-1.55795e-05 5.57213e-05 -2.39874e-07
-2.7812e-07 -2.39874e-07 1.53263e-06
0.00163652 2.75763e-05 -2.38242e-06
2.75763e-05 0.000101312 -9.29358e-07
-2.38242e-06 -9.29358e-07 2.2446e-05
0.00169724 -1.1863e-05 -5.99725e-07
-1.1863e-05 9.14059e-05 1.59794e-06
-5.99725e-07 1.59794e-06 2.54397e-05
0.00133036 -6.77165e-05 -4.10184e-06
-6.77165e-05 -9.58471e-05 1.14721e-06
-4.10184e-06 1.14721e-06 -0.000129431
0.000927891 -5.88256e-05 -1.69361e-07
-5.88256e-05 1.37167e-05 2.80735e-06
-1.69361e-07 2.80735e-06 -7.39361e-05
0.000801658 -6.87464e-05 1.13624e-07
-6.87464e-05 -4.81018e-05 2.31772e-06
1.13624e-07 2.31772e-06 -0.000177736
0.00119047 -8.2263e-05 -2.87664e-06
-8.2263e-05 -1.63038e-05 -8.55841e-07
-2.87664e-06 -8.55841e-07 -0.000101468
0.000882125 -5.98327e-05 -4.20747e-06
-5.98327e-05 9.78264e-06 1.10868e-06
-4.20747e-06 1.10868e-06 -8.24921e-05
0.00109683 -3.85038e-05 -1.03229e-06
-3.85038e-05 0.000126491 2.72408e-07
-1.03229e-06 2.72408e-07 2.54217e-05
0.00106935 -4.30489e-05 -4.8092e-07
-4.30489e-05 0.000101844 1.57352e-06
-4.8092e-07 1.57352e-06 1.21465e-05
0.000958653 -1.30365e-06 -6.88313e-07
-1.30365e-06 2.97068e-05 1.2582e-06
-6.88313e-07 1.2582e-06 -1.59013e-05
0.00108001 -3.2894e-05 -9.60835e-08
-3.2894e-05 0.000100408 7.87234e-07
-9.60835e-08 7.87234e-07 2.19416e-05
0.00105355 6.76621e-06 -5.33093e-07
6.76621e-06 8.51226e-05 1.07298e-06
-5.33093e-07 1.07298e-06 2.24929e-05
0.000984095 -5.6076e-06 -8.57378e-08
-5.6076e-06 4.07592e-05 5.67524e-07
-8.57378e-08 5.67524e-07 -7.87947e-07
0.000807888 1.42541e-05 -2.5028e-08
1.42541e-05 -3.64815e-05 1.65905e-06
-2.5028e-08 1.65905e-06 -9.61052e-05
0.00160751 2.36748e-05 -2.0451e-07
2.36748e-05 7.01161e-05 1.29064e-06
-2.0451e-07 1.29064e-06 -2.98177e-06
0.000968331 1.24094e-05 1.43859e-07
1.24094e-05 4.38945e-05 -4.96782e-07
1.43859e-07 -4.96782e-07 -1.13511e-05
0.000939807 4.87391e-07 4.1514e-07
4.87391e-07 3.02509e-05 1.27356e-08
4.1514e-07 1.27356e-08 -3.12478e-05
0.00102102 2.41077e-05 -1.47286e-07
2.41077e-05 7.30422e-05 9.52897e-07
-1.47286e-07 9.52897e-07 4.99482e-06
0.00193764 -4.25743e-05 -2.69989e-06
-4.25743e-05 0.000156532 8.97142e-07
-2.69989e-06 8.97142e-07 0.000122404
0.00139707 -8.90873e-05 -1.05518e-06
-8.90873e-05 -3.81385e-05 -1.41811e-06
-1.05518e-06 -1.41811e-06 -9.48855e-05
0.00105923 -7.08968e-05 7.31012e-08
-7.08968e-05 0.000101319 -3.01272e-07
7.31012e-08 -3.01272e-07 -6.55406e-06
0.00141928 -9.38596e-05 1.18757e-07
-9.38596e-05 0.0002013 -2.43679e-09
1.18757e-07 -2.43679e-09 7.95823e-05
0.00110749 -2.40729e-05 -2.21416e-07
-2.40729e-05 0.000117626 9.31804e-08
-2.21416e-07 9.31804e-08 4.27777e-05
0.0010249 -3.27323e-05 -2.01911e-07
-3.27323e-05 7.49795e-05 7.32539e-07
-2.01911e-07 7.32539e-07 -9.59153e-06
0.00100677 -5.23937e-05 1.80417e-06
-5.23937e-05 0.000101369 -4.013e-07
1.80417e-06 -4.013e-07 -1.52218e-05
0.00115576 -4.29964e-05 7.42485e-08
-4.29964e-05 0.000155368 -5.4234e-07
7.42485e-08 -5.4234e-07 5.58122e-05
0.00102791 1.41818e-05 4.12185e-06
1.41818e-05 -0.000289949 -4.57666e-07
4.12185e-06 -4.57666e-07 -0.000350745
0.00223997 -0.000102478 1.08946e-05
-0.000102478 0.000219414 -5.62965e-06
1.08946e-05 -5.62965e-06 0.000185027
0.00184534 -0.000110064 5.43549e-06
-0.000110064 0.000313112 -1.37948e-06
5.43549e-06 -1.37948e-06 0.000197279
0.00112944 -8.4226e-05 6.45646e-07
-8.4226e-05 0.000141002 -1.9464e-06
6.45646e-07 -1.9464e-06 1.9381e-05
0.000940515 1.61702e-05 -5.18439e-07
1.61702e-05 3.47742e-05 -7.50094e-07
-5.18439e-07 -7.50094e-07 -3.71925e-05
0.000959759 -3.45228e-05 8.57647e-07
-3.45228e-05 4.58565e-05 -1.64004e-06
8.57647e-07 -1.64004e-06 -2.78421e-05
0.00102945 -5.17033e-05 6.19285e-07
-5.17033e-05 8.24298e-05 -1.1115e-06
6.19285e-07 -1.1115e-06 -7.00487e-06
0.00111052 -2.8715e-05 -5.37784e-07
-2.8715e-05 0.000148802 -8.16177e-07
-5.37784e-07 -8.16177e-07 2.20479e-05
0.00061997 -7.69497e-06 -1.04014e-05
-7.69497e-06 -0.000342716 -1.34175e-06
-1.04014e-05 -1.34175e-06 -0.000846528
0.00110097 5.5696e-05 -2.18395e-07
5.5696e-05 0.000117568 -1.98151e-07
-2.18395e-07 -1.98151e-07 2.8915e-05
0.000973496 5.6503e-05 5.14975e-07
5.6503e-05 4.31771e-05 4.70033e-07
5.14975e-07 4.70033e-07 -5.08771e-05
0.00150386 4.02764e-05 -5.18391e-06
4.02764e-05 -0.000128741 -9.1673e-07
-5.18391e-06 -9.1673e-07 -0.000184557
0.00185185 9.47964e-05 -3.17369e-06
9.47964e-05 0.000141843 -7.61525e-07
-3.17369e-06 -7.61525e-07 6.71467e-05
0.00136132 8.97066e-05 -1.84948e-06
8.97066e-05 0.000180103 -8.35112e-07
-1.84948e-06 -8.35112e-07 4.16884e-05
0.000915087 5.94603e-05 1.23725e-06
5.94603e-05 2.90149e-05 3.51704e-07
1.23725e-06 3.51704e-07 -8.64673e-05
0.00113782 2.36409e-06 -9.68845e-06
2.36409e-06 -0.000330013 -3.19399e-06
-9.68845e-06 -3.19399e-06 -0.000315499
0.00113465 5.93122e-05 5.83193e-08
5.93122e-05 0.000129724 -1.12546e-07
5.83193e-08 -1.12546e-07 3.67974e-05
0.00189508 0.000109131 4.82212e-07
0.000109131 4.26082e-05 1.86702e-07
4.82212e-07 1.86702e-07 -2.15967e-05
0.00109764 6.19143e-05 6.61856e-07
6.19143e-05 0.000113627 1.1752e-08
6.61856e-07 1.1752e-08 1.35865e-05
0.00107686 7.15686e-05 -2.96153e-07
7.15686e-05 0.00012725 -5.00018e-08
-2.96153e-07 -5.00018e-08 -9.68056e-06
0.000721719 9.68785e-05 -2.47511e-06
9.68785e-05 -0.000229062 -2.25491e-07
-2.47511e-06 -2.25491e-07 -0.0003386
0.00144463 -9.94057e-05 -1.37476e-05
-9.94057e-05 0.000113968 -5.54448e-06
-1.37476e-05 -5.54448e-06 -0.000426639
0.00249334 -0.000126606 3.84432e-06
-0.000126606 0.000186744 -2.60651e-06
3.84432e-06 -2.60651e-06 -0.000101278
0.00109215 8.89987e-05 2.57825e-06
8.89987e-05 -0.000245196 -1.31121e-06
2.57825e-06 -1.31121e-06 -0.000173223
-0.000394855 -0.000147373 -8.51352e-06
-0.000147373 -0.000474494 -5.25297e-06
-8.51352e-06 -5.25297e-06 -0.000555512
0.000550065 -0.000199734 -1.47796e-06
-0.000199734 -0.000475892 -7.51068e-08
-1.47796e-06 -7.51068e-08 -1.03902e-05
0.00109988 5.84161e-05 1.04448e-06
5.84161e-05 0.000114158 -6.1084e-07
1.04448e-06 -6.1084e-07 2.13353e-05
-0.000172866 3.74802e-05 -0.000103164
3.74802e-05 -0.000398386 -1.11667e-05
-0.000103164 -1.11667e-05 -0.000613348
0.00235258 -9.98668e-05 -4.3427e-06
-9.98668e-05 0.000886437 -5.75237e-06
-4.3427e-06 -5.75237e-06 0.00108805
0.00117184 0.000126886 5.45334e-06
0.000126886 -0.000201975 6.0261e-06
5.45334e-06 6.0261e-06 -0.000243505
0.000794659 3.40428e-05 -3.69192e-07
3.40428e-05 -2.8389e-05 -1.18538e-06
-3.69192e-07 -1.18538e-06 -0.000138909
0.00165733 6.48118e-05 -3.8539e-06
6.48118e-05 0.000450858 1.82235e-06
-3.8539e-06 1.82235e-06 0.000278383
0.00174121 7.35123e-05 1.95757e-06
7.35123e-05 0.000257168 2.00685e-06
1.95757e-06 2.00685e-06 0.000202238
0.00518382 -0.000209947 -7.22922e-05
-0.000209947 0.00156117 -1.59592e-05
-7.22922e-05 -1.59592e-05 0.000795633
0.00266296 -4.29758e-05 2.99327e-05
-4.29758e-05 0.000269273 2.28246e-05
2.99327e-05 2.28246e-05 -7.1145e-05
0.000282334 -0.000229889 -5.4424e-05
-0.000229889 -0.000104767 -2.90438e-05
-5.4424e-05 -2.90438e-05 -9.6065e-06
-0.000553089 -9.77825e-05 -4.99026e-06
-9.77825e-05 -0.00120168 3.52571e-06
-4.99026e-06 3.52571e-06 -0.000954692
0.00106944 4.88888e-05 -7.96773e-07
4.88888e-05 9.36405e-05 -4.83777e-07
-7.96773e-07 -4.83777e-07 4.56321e-06
0.00114644 5.62132e-05 -5.08631e-07
5.62132e-05 0.00011672 2.5061e-07
-5.08631e-07 2.5061e-07 2.58096e-05
0.00123124 6.21813e-05 -3.53964e-07
6.21813e-05 0.000147693 -1.1011e-07
-3.53964e-07 -1.1011e-07 5.53724e-05
0.000961105 2.84185e-06 1.69994e-08
2.84185e-06 3.26794e-05 -4.24038e-07
1.69994e-08 -4.24038e-07 -1.37604e-05
0.00100788 -6.26068e-06 8.26527e-08
-6.26068e-06 6.27671e-05 -7.771e-07
8.26527e-08 -7.771e-07 3.48237e-06
0.000951848 1.98181e-05 -5.01429e-07
1.98181e-05 3.16924e-05 -1.02138e-06
-5.01429e-07 -1.02138e-06 -3.84493e-05
0.00104602 3.08698e-05 -1.20787e-07
3.08698e-05 7.97111e-05 -8.07141e-07
-1.20787e-07 -8.07141e-07 2.19655e-06
0.00106386 3.63045e-05 -3.78332e-07
3.63045e-05 8.14599e-05 -7.52023e-07
-3.78332e-07 -7.52023e-07 -5.21945e-06
0.000776546 -4.86667e-06 2.99323e-07
-4.86667e-06 -6.14308e-05 4.44159e-07
2.99323e-07 4.44159e-07 -0.000108675
0.00104821 4.19026e-05 -3.72112e-07
4.19026e-05 8.32024e-05 -6.34269e-07
-3.72112e-07 -6.34269e-07 6.64455e-06
0.0010386 5.51344e-06 -6.70097e-08
5.51344e-06 7.61925e-05 4.48332e-07
-6.70097e-08 4.48332e-07 6.32758e-06
0.00093588 1.30326e-05 1.55901e-07
1.30326e-05 2.53755e-05 -3.33737e-07
1.55901e-07 -3.33737e-07 -3.49184e-05
0.00102643 4.97313e-05 3.38844e-08
4.97313e-05 6.59689e-05 2.10193e-07
3.38844e-08 2.10193e-07 -2.09466e-05
0.00103974 3.65264e-05 6.63411e-08
3.65264e-05 7.54097e-05 4.08114e-07
6.63411e-08 4.08114e-07 -4.68752e-06
0.00120982 5.35822e-05 1.89869e-07
5.35822e-05 0.000171862 5.23882e-07
1.89869e-07 5.23882e-07 7.58049e-05
0.00101405 -3.11808e-05 -2.18458e-07
-3.11808e-05 6.37924e-05 4.34656e-07
-2.18458e-07 4.34656e-07 -5.65012e-06
0.00102889 -2.28267e-05 -2.70005e-07
-2.28267e-05 7.21916e-05 6.81179e-08
-2.70005e-07 6.81179e-08 1.23703e-05
0.00104397 -1.86765e-06 -2.40525e-07
-1.86765e-06 8.03255e-05 -5.26908e-08
-2.40525e-07 -5.26908e-08 2.0622e-05
0.00104318 1.85866e-05 -1.82448e-07
1.85866e-05 8.01342e-05 -4.15047e-07
-1.82448e-07 -4.15047e-07 9.91679e-06
0.00103825 1.36926e-05 7.68657e-08
1.36926e-05 7.86244e-05 6.85434e-07
7.68657e-08 6.85434e-07 7.54298e-06
0.00101905 6.75505e-06 -4.2039e-09
6.75505e-06 6.82905e-05 7.65849e-07
-4.2039e-09 7.65849e-07 -3.10936e-06
0.00109969 1.59263e-05 -3.05859e-09
1.59263e-05 0.000105768 -1.1508e-07
-3.05859e-09 -1.1508e-07 2.92649e-05
0.000995623 -2.4842e-05 -2.6218e-07
-2.4842e-05 6.33933e-05 1.07291e-06
-2.6218e-07 1.07291e-06 -1.58766e-05
0.000988447 -7.61622e-06 -1.8798e-07
-7.61622e-06 5.19948e-05 8.21235e-07
-1.8798e-07 8.21235e-07 -1.12281e-05
0.000980007 -8.92365e-06 3.45855e-08
-8.92365e-06 4.95963e-05 -2.0135e-08
3.45855e-08 -2.0135e-08 -1.21643e-05
0.000960629 -9.51722e-06 -6.683e-07
-9.51722e-06 3.22626e-05 9.11341e-07
-6.683e-07 9.11341e-07 -1.53739e-05
0.000862212 3.62548e-06 2.3884e-07
3.62548e-06 -1.21616e-05 -1.08536e-06
2.3884e-07 -1.08536e-06 -7.27058e-05
0.000874091 -1.04141e-05 1.8501e-07
-1.04141e-05 -1.16686e-05 -3.5468e-09
1.8501e-07 -3.5468e-09 -5.87714e-05
0.000938586 7.80696e-06 -2.95238e-07
7.80696e-06 9.39563e-06 1.65981e-06
-2.95238e-07 1.65981e-06 -1.85507e-05
0.000790214 3.51992e-06 1.52412e-07
3.51992e-06 -5.39505e-05 -4.24713e-07
1.52412e-07 -4.24713e-07 -0.000101443
0.000931951 2.29353e-06 -1.74157e-07
2.29353e-06 5.58428e-06 -1.46092e-08
-1.74157e-07 -1.46092e-08 -2.16445e-05
0.00146699 6.88815e-06 -2.35604e-06
6.88815e-06 0.000268194 4.21972e-06
-2.35604e-06 4.21972e-06 0.000271265
0.00092591 -6.69063e-06 5.4702e-07
-6.69063e-06 2.53669e-06 -1.58354e-06
5.4702e-07 -1.58354e-06 -2.43263e-05
0.0011769 3.51195e-06 -8.73391e-07
3.51195e-06 0.000117926 6.07796e-07
-8.73391e-07 6.07796e-07 0.000119953
0.00107444 2.07248e-06 -1.95399e-06
2.07248e-06 6.31582e-05 3.83671e-06
-1.95399e-06 3.83671e-06 8.12611e-05
0.00088554 1.15703e-07 3.30943e-08
1.15703e-07 -3.20216e-05 -3.00657e-06
3.30943e-08 -3.00657e-06 -3.12096e-05
0.00220675 -6.72812e-07 1.21421e-06
-6.72812e-07 0.000643401 1.34679e-11
1.21421e-06 1.34679e-11 0.000667159
0.00107028 -2.99919e-06 -9.92073e-07
-2.99919e-06 6.15255e-05 -3.8459e-06
-9.92073e-07 -3.8459e-06 7.96605e-05
0.000965989 2.29686e-05 1.79499e-07
2.29686e-05 3.27551e-05 -5.02351e-07
1.79499e-07 -5.02351e-07 -8.24879e-06
0.000945604 5.03755e-07 5.37464e-08
5.03755e-07 6.83791e-06 -1.76629e-06
5.37464e-08 -1.76629e-06 -1.55737e-05
0.000942513 2.5332e-06 -5.05144e-08
2.5332e-06 5.4149e-06 -9.12449e-09
-5.05144e-08 -9.12449e-09 -1.72279e-05
0.000880704 3.6554e-06 2.18117e-07
3.6554e-06 -3.50215e-05 -3.11391e-06
2.18117e-07 -3.11391e-06 -3.16149e-05
0.000937126 4.92906e-06 -3.78828e-07
4.92906e-06 3.62222e-06 1.74688e-06
-3.78828e-07 1.74688e-06 -1.99197e-05
0.000876601 7.15945e-06 5.95302e-08
7.15945e-06 -3.55089e-05 -6.13529e-07
5.95302e-08 -6.13529e-07 -3.28477e-05
0.00213187 8.80896e-06 4.86083e-06
8.80896e-06 0.000606952 -3.86763e-06
4.86083e-06 -3.86763e-06 0.000631273
0.00141817 1.27056e-05 -1.26381e-06
1.27056e-05 0.000245241 1.94647e-06
-1.26381e-06 1.94647e-06 0.000249028
0.00163045 1.17202e-05 2.33439e-07
1.17202e-05 0.00035351 1.1965e-06
2.33439e-07 1.1965e-06 0.000373984
0.00111255 1.34692e-05 -1.04116e-05
1.34692e-05 9.23301e-05 6.35239e-06
-1.04116e-05 6.35239e-06 0.000108813
0.00135341 -3.6471e-05 -2.91998e-06
-3.6471e-05 -0.0001277 2.72956e-07
-2.91998e-06 2.72956e-07 -0.000161469
0.00145583 -4.37014e-07 -2.31871e-06
-4.37014e-07 2.32248e-05 -3.24075e-07
-2.31871e-06 -3.24075e-07 -5.43201e-05
0.000911919 4.44485e-06 -6.38421e-06
4.44485e-06 -0.000282367 -3.81605e-06
-6.38421e-06 -3.81605e-06 -0.000348302
0.000951918 -9.27761e-05 3.6522e-05
-9.27761e-05 -4.55719e-05 5.74286e-06
3.6522e-05 5.74286e-06 -0.000276277
0.00127569 -1.83585e-05 -2.18691e-06
-1.83585e-05 3.80526e-06 -9.70505e-07
-2.18691e-06 -9.70505e-07 -4.26898e-05
0.00162487 3.19509e-05 -2.09851e-06
3.19509e-05 3.39613e-05 -1.47599e-06
-2.09851e-06 -1.47599e-06 -4.78017e-05
0.00130362 4.62019e-05 2.56802e-06
4.62019e-05 2.67349e-05 7.53936e-07
2.56802e-06 7.53936e-07 -3.48349e-05
0.00109398 -3.87574e-05 0.00010589
-3.87574e-05 2.45929e-05 6.39161e-06
0.00010589 6.39161e-06 -0.000229671
0.0049148 8.66296e-05 -2.2363e-05
8.66296e-05 0.0014477 -4.87978e-06
-2.2363e-05 -4.87978e-06 0.000785991
0.0024862 0.000224659 -4.0255e-05
0.000224659 0.000954676 1.80142e-05
-4.0255e-05 1.80142e-05 0.000895825
0.00101111 0.000162411 -1.07381e-05
0.000162411 -6.4493e-05 4.95656e-06
-1.07381e-05 4.95656e-06 0.000297207
0.000784861 -6.88783e-06 8.36332e-07
-6.88783e-06 -4.80634e-05 -1.04966e-06
8.36332e-07 -1.04966e-06 -0.000102823
0.000969966 -8.85565e-06 -8.4755e-08
-8.85565e-06 3.41705e-05 2.9573e-09
-8.4755e-08 2.9573e-09 -6.05755e-06
0.000977282 -2.58444e-05 -6.49132e-07
-2.58444e-05 3.79308e-05 1.01066e-06
-6.49132e-07 1.01066e-06 -3.15643e-06
0.000909487 9.06233e-06 -2.21828e-07
9.06233e-06 1.41573e-05 3.36646e-09
-2.21828e-07 3.36646e-09 -3.96895e-05
0.00107157 3.70831e-05 1.39845e-07
3.70831e-05 0.00010149 2.60679e-07
1.39845e-07 2.60679e-07 3.7249e-05
0.00104694 4.4777e-05 2.19288e-07
4.4777e-05 8.70418e-05 1.71962e-07
2.19288e-07 1.71962e-07 2.45577e-05
0.00101774 8.03847e-08 5.31675e-07
8.03847e-08 6.99968e-05 -1.48346e-06
5.31675e-07 -1.48346e-06 1.39151e-05
0.000923478 -2.24792e-05 -3.21994e-07
-2.24792e-05 2.10007e-05 4.81473e-07
-3.21994e-07 4.81473e-07 -3.32429e-05
0.00178609 2.38533e-05 -3.1907e-06
2.38533e-05 0.000164568 1.84475e-07
-3.1907e-06 1.84475e-07 9.23189e-05
0.00174135 -4.41144e-05 -2.3144e-06
-4.41144e-05 6.07283e-05 1.86689e-06
-2.3144e-06 1.86689e-06 2.22248e-05
0.000992191 -8.04147e-05 -9.45775e-06
-8.04147e-05 -0.000232861 5.36809e-08
-9.45775e-06 5.36809e-08 -0.000287537
0.00104326 -7.04462e-05 -2.10849e-07
-7.04462e-05 8.9445e-05 2.01208e-06
-2.10849e-07 2.01208e-06 -1.7969e-05
0.00145826 -9.49893e-05 -1.20382e-06
-9.49893e-05 0.000226322 2.63966e-06
-1.20382e-06 2.63966e-06 0.000103065
0.00102666 -5.30056e-05 -5.18832e-07
-5.30056e-05 0.000106144 5.5041e-07
-5.18832e-07 5.5041e-07 -6.05309e-06
0.00123799 -4.96207e-05 1.34822e-07
-4.96207e-05 0.000196807 5.49111e-07
1.34822e-07 5.49111e-07 9.52027e-05
0.000976768 -3.30828e-05 -5.11579e-07
-3.30828e-05 5.00595e-05 1.17666e-06
-5.11579e-07 1.17666e-06 -3.41772e-05
0.000989346 -9.09767e-06 -1.56037e-07
-9.09767e-06 5.58291e-05 1.20572e-06
-1.56037e-07 1.20572e-06 -4.81497e-06
0.00114849 -1.77417e-05 -4.60427e-07
-1.77417e-05 0.000138213 8.73818e-07
-4.60427e-07 8.73818e-07 6.42273e-05
0.00117288 4.69517e-06 -1.45975e-07
4.69517e-06 0.000146815 3.59822e-07
-1.45975e-07 3.59822e-07 9.32983e-05
0.000928174 3.53657e-05 6.12456e-07
3.53657e-05 2.45124e-05 2.18982e-06
6.12456e-07 2.18982e-06 -4.2991e-05
0.00172528 2.47443e-05 1.23783e-06
2.47443e-05 4.24469e-05 -3.08743e-06
1.23783e-06 -3.08743e-06 -1.7222e-05
0.000964731 1.71295e-05 -2.40491e-07
1.71295e-05 4.7614e-05 3.18816e-07
-2.40491e-07 3.18816e-07 -2.36436e-05
0.000993919 -3.39026e-05 7.98426e-08
-3.39026e-05 6.31946e-05 -4.57822e-07
7.98426e-08 -4.57822e-07 -1.04842e-05
0.00205697 -9.89933e-05 -4.93498e-06
-9.89933e-05 0.00013751 -1.11841e-06
-4.93498e-06 -1.11841e-06 0.000107124
0.000956312 -9.09681e-05 1.7559e-06
-9.09681e-05 -0.000117017 1.832e-06
1.7559e-06 1.832e-06 -0.000228235
0.0011552 -8.62373e-05 6.55891e-07
-8.62373e-05 0.000152529 -7.16082e-07
6.55891e-07 -7.16082e-07 2.52378e-05
0.00105661 -4.4024e-05 9.70893e-09
-4.4024e-05 9.37575e-05 -1.75549e-07
9.70893e-09 -1.75549e-07 4.27593e-06
0.00112709 -3.36525e-05 -1.09951e-07
-3.36525e-05 0.000155492 2.42908e-07
-1.09951e-07 2.42908e-07 2.90746e-05
0.00218015 -4.69851e-05 -3.67779e-07
-4.69851e-05 0.000115468 9.70778e-06
-3.67779e-07 9.70778e-06 0.000119196
0.00278536 -0.000168147 1.24701e-05
-0.000168147 0.000632058 -2.86767e-06
1.24701e-05 -2.86767e-06 0.000517852
0.000550837 -8.72893e-05 2.43994e-07
-8.72893e-05 -0.000186296 -2.96646e-06
2.43994e-07 -2.96646e-06 -0.000313673
0.00115799 -6.03826e-05 4.96921e-07
-6.03826e-05 0.000186282 -1.15954e-06
4.96921e-07 -1.15954e-06 2.7232e-05
0.000893447 -3.2934e-05 3.42777e-07
-3.2934e-05 1.47111e-05 -5.09657e-07
3.42777e-07 -5.09657e-07 -6.39815e-05
0.00102967 -3.31822e-05 9.40625e-07
-3.31822e-05 7.87212e-05 -1.40723e-06
9.40625e-07 -1.40723e-06 -6.09672e-06
0.00121802 -2.00949e-05 -1.27195e-07
-2.00949e-05 0.000179659 -8.94654e-07
-1.27195e-07 -8.94654e-07 7.44249e-05
-0.000817483 -1.3427e-05 -9.15812e-05
-1.3427e-05 -0.000619051 -1.16698e-06
-9.15812e-05 -1.16698e-06 -0.00063777
0.00526329 -2.32073e-05 -2.09894e-05
-2.32073e-05 0.00178891 -1.89521e-06
-2.09894e-05 -1.89521e-06 0.00126744
0.00114459 6.05044e-05 1.53315e-07
6.05044e-05 0.000136504 4.02407e-07
1.53315e-07 4.02407e-07 4.36359e-05
0.000913881 5.62525e-05 1.26603e-06
5.62525e-05 2.56358e-05 -8.07275e-07
1.26603e-06 -8.07275e-07 -7.42382e-05
0.00178221 0.000107031 -9.20254e-06
0.000107031 -3.64868e-05 -9.43184e-07
-9.20254e-06 -9.43184e-07 -9.85163e-05
0.00121303 0.000105011 -2.38224e-06
0.000105011 4.2348e-06 -2.37949e-06
-2.38224e-06 -2.37949e-06 -0.000101762
0.00110667 7.25984e-05 1.32298e-06
7.25984e-05 0.000141173 -1.46939e-06
1.32298e-06 -1.46939e-06 7.44608e-06
0.00507211 -3.85481e-05 2.50355e-05
-3.85481e-05 0.00155107 -1.39507e-05
2.50355e-05 -1.39507e-05 0.000901064
0.00151818 -0.000135366 -5.12644e-05
-0.000135366 -7.61464e-05 -1.39933e-05
-5.12644e-05 -1.39933e-05 -0.000278235
0.00110801 8.14175e-05 -5.44435e-06
8.14175e-05 -0.000238236 -9.95477e-06
-5.44435e-06 -9.95477e-06 -0.000175084
0.00250865 -0.000195484 3.23489e-05
-0.000195484 0.00103552 1.26568e-05
3.23489e-05 1.26568e-05 0.000983116
-0.000459569 -0.000207026 1.54352e-05
-0.000207026 -0.000982584 1.67726e-05
1.54352e-05 1.67726e-05 -0.000560806
0.0010887 5.91977e-05 2.29423e-07
5.91977e-05 0.000104536 -3.07905e-07
2.29423e-07 -3.07905e-07 1.20049e-05
-0.000920178 -3.65954e-05 -1.56173e-05
-3.65954e-05 -0.000565802 -5.64597e-07
-1.56173e-05 -5.64597e-07 -0.000577822
0.00117811 -9.46822e-05 -1.64179e-06
-9.46822e-05 0.000240492 8.50121e-07
-1.64179e-06 8.50121e-07 0.000392338
0.00161125 0.000134467 1.31336e-06
0.000134467 2.10242e-05 1.60646e-06
1.31336e-06 1.60646e-06 -2.6047e-05
0.00112727 4.7929e-05 -2.40393e-07
4.7929e-05 0.000143307 -1.23569e-06
-2.40393e-07 -1.23569e-06 3.67111e-05
0.0013346 7.03344e-05 6.87491e-07
7.03344e-05 0.000290176 4.27835e-08
6.87491e-07 4.27835e-08 0.000118848
0.0015303 5.90987e-05 -1.28541e-05
5.90987e-05 0.000142836 -5.42303e-06
-1.28541e-05 -5.42303e-06 0.000107213
0.00427215 -0.00012675 6.83756e-06
-0.00012675 0.0010327 6.19174e-06
6.83756e-06 6.19174e-06 0.000239867
0.00165662 -3.71767e-05 -5.26875e-06
-3.71767e-05 -2.01115e-05 -1.56104e-05
-5.26875e-06 -1.56104e-05 -0.000145084
0.00282946 -0.000310932 6.36477e-06
-0.000310932 0.000797195 -7.84598e-07
6.36477e-06 -7.84598e-07 0.000796739
0.000133819 -0.000116728 -3.13232e-06
-0.000116728 -0.000858778 7.89104e-07
-3.13232e-06 7.89104e-07 -0.000540052
0.0010492 3.28661e-05 -1.55069e-06
3.28661e-05 4.93792e-05 -1.47343e-06
-1.55069e-06 -1.47343e-06 -4.084e-05
0.000311234 -2.00649e-05 1.26721e-06
-2.00649e-05 -0.000160106 -7.83449e-07
1.26721e-06 -7.83449e-07 -0.000174457
0.000850911 -5.27037e-06 5.85596e-06
-5.27037e-06 3.08591e-05 -2.29743e-06
5.85596e-06 -2.29743e-06 -1.97515e-05
0.000602442 7.9179e-05 9.76964e-06
7.9179e-05 -0.000153197 -2.17391e-06
9.76964e-06 -2.17391e-06 -0.000314362
0.00188336 4.53642e-05 -6.97144e-06
4.53642e-05 0.00058184 -3.28822e-07
-6.97144e-06 -3.28822e-07 0.000450671
0.00301133 -4.03729e-05 -6.06165e-06
-4.03729e-05 0.00121504 -1.11498e-06
-6.06165e-06 -1.11498e-06 0.00119085
0.000906944 0.000133741 -5.89165e-05
0.000133741 -6.28179e-05 7.99003e-06
-5.89165e-05 7.99003e-06 -0.000301907
0.00204731 -0.000217629 1.35721e-05
-0.000217629 2.08692e-05 1.30169e-05
1.35721e-05 1.30169e-05 -0.000857165
0.00373677 -0.000344003 -4.13596e-05
-0.000344003 0.000787248 -1.82821e-05
-4.13596e-05 -1.82821e-05 0.000860793
0.000488963 -3.37075e-05 -1.4374e-06
-3.37075e-05 -0.00044543 4.96331e-06
-1.4374e-06 4.96331e-06 -0.000393233
0.00116936 5.98738e-05 -3.90151e-07
5.98738e-05 0.000130618 8.83405e-07
-3.90151e-07 8.83405e-07 3.92493e-05
0.00112726 5.79531e-05 6.7724e-07
5.79531e-05 9.63017e-05 6.51225e-07
6.7724e-07 6.51225e-07 3.37395e-06
0.000736718 5.10814e-05 1.94643e-06
5.10814e-05 -7.16292e-05 -1.94173e-07
1.94643e-06 -1.94173e-07 -0.000171727
0.000788249 1.28646e-05 1.00271e-07
1.28646e-05 -5.56399e-05 -3.94216e-07
1.00271e-07 -3.94216e-07 -0.000102967
0.00101916 1.8379e-05 -8.93374e-08
1.8379e-05 6.78161e-05 -8.15437e-07
-8.93374e-08 -8.15437e-07 7.90953e-06
0.00119686 -1.21142e-05 1.43503e-07
-1.21142e-05 0.000157421 -5.19249e-08
1.43503e-07 -5.19249e-08 8.80965e-05
0.000990691 3.50076e-05 -4.86206e-07
3.50076e-05 5.33417e-05 -1.04748e-06
-4.86206e-07 -1.04748e-06 -2.2879e-05
0.000907966 4.71405e-05 -3.19907e-07
4.71405e-05 4.42653e-06 -2.87919e-07
-3.19907e-07 -2.87919e-07 -8.32786e-05
0.001019 6.86805e-06 3.45324e-07
6.86805e-06 6.79109e-05 -4.40966e-07
3.45324e-07 -4.40966e-07 7.6774e-06
0.00103934 3.29404e-05 -1.57474e-07
3.29404e-05 7.67202e-05 -1.21411e-07
-1.57474e-07 -1.21411e-07 -2.69752e-06
0.00100416 -1.40398e-05 3.48545e-08
-1.40398e-05 5.93876e-05 8.71943e-09
3.48545e-08 8.71943e-09 -1.03186e-05
0.00109039 4.51494e-05 2.1032e-07
4.51494e-05 0.000113245 4.17329e-07
2.1032e-07 4.17329e-07 1.62669e-05
0.00123404 2.4911e-06 1.23193e-07
2.4911e-06 0.000189889 -7.62689e-07
1.23193e-07 -7.62689e-07 8.70571e-05
0.00113768 1.71628e-05 -3.03466e-07
1.71628e-05 0.000130753 9.7066e-07
-3.03466e-07 9.7066e-07 4.61892e-05
0.00104284 9.44421e-06 2.22075e-07
9.44421e-06 8.05637e-05 4.04271e-07
2.22075e-07 4.04271e-07 9.58717e-06
0.00103323 -1.34851e-05 2.93804e-09
-1.34851e-05 7.60761e-05 -6.61369e-07
2.93804e-09 -6.61369e-07 1.5854e-05
0.000925387 -4.7611e-06 1.19677e-08
-4.7611e-06 1.8941e-05 -1.18063e-06
1.19677e-08 -1.18063e-06 -5.15276e-05
0.00103183 1.28096e-06 2.02587e-07
1.28096e-06 7.50627e-05 2.5437e-08
2.02587e-07 2.5437e-08 4.33111e-06
0.00101126 4.80525e-06 1.86078e-08
4.80525e-06 6.47172e-05 3.32565e-08
1.86078e-08 3.32565e-08 -6.72821e-06
0.00105596 4.03865e-06 -2.02999e-07
4.03865e-06 8.16649e-05 -7.54773e-07
-2.02999e-07 -7.54773e-07 5.37731e-06
0.00097621 -6.88701e-06 -1.99417e-07
-6.88701e-06 4.89994e-05 1.26281e-06
-1.99417e-07 1.26281e-06 -2.53357e-05
0.00110127 1.35938e-05 1.13725e-07
1.35938e-05 0.000106109 9.78958e-08
1.13725e-07 9.78958e-08 2.8149e-05
0.00093622 -1.24809e-05 -1.16705e-08
-1.24809e-05 2.01594e-05 3.85929e-07
-1.16705e-08 3.85929e-07 -6.0263e-05
0.00103197 -3.607e-05 3.99962e-07
-3.607e-05 7.69909e-05 -6.09182e-07
3.99962e-07 -6.09182e-07 -9.82353e-06
0.000799801 -4.87668e-05 3.20316e-07
-4.87668e-05 -1.93784e-05 2.2845e-08
3.20316e-07 2.2845e-08 -0.000108144
0.000916165 -3.79476e-05 -7.54535e-07
-3.79476e-05 2.73814e-05 -4.07261e-07
-7.54535e-07 -4.07261e-07 -5.51838e-05
0.00101716 -2.53828e-05 -1.12752e-07
-2.53828e-05 7.3985e-05 2.79259e-07
-1.12752e-07 2.79259e-07 -5.25081e-06
0.00100378 -1.91252e-05 -5.41145e-07
-1.91252e-05 6.08858e-05 1.37236e-06
-5.41145e-07 1.37236e-06 -5.94838e-06
0.000996785 -1.37563e-05 -4.2006e-08
-1.37563e-05 5.68446e-05 -3.55466e-08
-4.2006e-08 -3.55466e-08 -6.7784e-06
0.000965781 3.49916e-06 -2.79501e-07
3.49916e-06 3.33062e-05 1.0278e-06
-2.79501e-07 1.0278e-06 -1.54524e-05
0.000983354 -5.75518e-06 3.63614e-07
-5.75518e-06 5.06258e-05 -6.60555e-07
3.63614e-07 -6.60555e-07 -1.06437e-05
0.000961991 -4.20924e-06 6.71733e-08
-4.20924e-06 3.25876e-05 -1.20368e-08
6.71733e-08 -1.20368e-08 -1.48108e-05
0.000935593 8.85303e-06 -5.85996e-07
8.85303e-06 9.19618e-06 1.64822e-06
-5.85996e-07 1.64822e-06 -1.98054e-05
0.000785493 7.68991e-06 1.10097e-07
7.68991e-06 -5.74672e-05 -8.60542e-07
1.10097e-07 -8.60542e-07 -0.000104556
0.000935028 2.79172e-06 -9.06456e-08
2.79172e-06 7.43565e-06 -1.03969e-08
-9.06456e-08 -1.03969e-08 -2.0493e-05
0.00146674 1.03583e-05 -3.69451e-06
1.03583e-05 0.000270512 4.25584e-06
-3.69451e-06 4.25584e-06 0.000272949
0.000930438 -4.26318e-06 6.20625e-07
-4.26318e-06 4.69371e-06 -1.60278e-06
6.20625e-07 -1.60278e-06 -2.25071e-05
0.00117438 6.87002e-06 -1.38101e-06
6.87002e-06 0.000118208 5.94652e-07
-1.38101e-06 5.94652e-07 0.000119873
0.00102695 6.56352e-06 -7.50662e-07
6.56352e-06 4.05042e-05 1.51291e-06
-7.50662e-07 1.51291e-06 5.84959e-05
0.000884263 3.23489e-06 3.77121e-07
3.23489e-06 -3.23144e-05 -3.01737e-06
3.77121e-07 -3.01737e-06 -3.16257e-05
0.00220746 3.77788e-06 1.16089e-06
3.77788e-06 0.000644097 8.00232e-09
1.16089e-06 8.00232e-09 0.000667782
0.00220374 -4.37764e-07 1.07452e-06
-4.37764e-07 0.000641847 -3.9399e-06
1.07452e-06 -3.9399e-06 0.000665619
0.00121139 2.0756e-05 -6.93916e-07
2.0756e-05 0.000156819 -9.04542e-07
-6.93916e-07 -9.04542e-07 0.000116055
0.000942873 -1.47255e-06 -1.33232e-07
-1.47255e-06 5.85295e-06 -1.7355e-06
-1.33232e-07 -1.7355e-06 -1.71145e-05
0.000961756 4.66915e-06 4.5813e-07
4.66915e-06 3.03489e-05 4.99657e-07
4.5813e-07 4.99657e-07 -1.03386e-05
0.000886823 1.79587e-07 -2.00289e-08
1.79587e-07 -3.24169e-05 -3.11745e-06
-2.00289e-08 -3.11745e-06 -2.87925e-05
0.000944556 7.2028e-08 -1.71143e-09
7.2028e-08 6.28457e-06 -7.33331e-09
-1.71143e-09 -7.33331e-09 -1.61233e-05
0.000938893 2.11003e-06 -2.97678e-07
2.11003e-06 3.4295e-06 1.76335e-06
-2.97678e-07 1.76335e-06 -1.91861e-05
0.000884796 3.75444e-06 -1.09701e-07
3.75444e-06 -3.29391e-05 2.02459e-09
-1.09701e-07 2.02459e-09 -2.95622e-05
0.00211298 4.40603e-06 2.11704e-06
4.40603e-06 0.00059571 -3.8786e-06
2.11704e-06 -3.8786e-06 0.000620502
0.0014072 8.70008e-06 -8.66073e-07
8.70008e-06 0.000236442 1.91332e-06
-8.66073e-07 1.91332e-06 0.000241662
0.00159469 8.06857e-06 1.4123e-06
8.06857e-06 0.000331918 2.87081e-08
1.4123e-06 2.87081e-08 0.0003535
0.00110942 1.01184e-05 -8.46486e-06
1.01184e-05 8.61807e-05 6.27411e-06
-8.46486e-06 6.27411e-06 0.000104041
-0.00276465 5.36812e-05 -5.74139e-05
5.36812e-05 -0.00167656 1.17217e-05
-5.74139e-05 1.17217e-05 -0.00167711
-0.00128449 6.94671e-05 -7.94696e-06
6.94671e-05 -0.00122059 6.78757e-06
-7.94696e-06 6.78757e-06 -0.00110046
0.0011338 -8.97903e-05 -5.41699e-05
-8.97903e-05 0.00010344 -1.69173e-05
-5.41699e-05 -1.69173e-05 -0.000132428
0.00134969 -2.52966e-05 -2.98498e-06
-2.52966e-05 5.09654e-05 -6.94933e-07
-2.98498e-06 -6.94933e-07 6.28833e-06
0.0013396 3.48495e-05 -1.25044e-05
3.48495e-05 -0.000114151 -1.17528e-06
-1.25044e-05 -1.17528e-06 -0.000195767
0.000820518 -3.15759e-05 2.06791e-05
-3.15759e-05 7.15678e-05 -1.4536e-06
2.06791e-05 -1.4536e-06 -7.92223e-05
0.00163793 5.26666e-05 2.26571e-06
5.26666e-05 0.000167837 1.78094e-06
2.26571e-06 1.78094e-06 0.000102655
0.00481088 0.000130798 -3.13837e-05
0.000130798 0.00141886 -3.05465e-07
-3.13837e-05 -3.05465e-07 0.000828502
-0.00196368 0.000121705 5.18504e-06
0.000121705 -0.000975018 -4.2632e-06
5.18504e-06 -4.2632e-06 -0.000992476
0.000405519 0.000176717 2.39458e-06
0.000176717 -0.000427495 -3.22226e-06
2.39458e-06 -3.22226e-06 -5.30927e-05
0.000783374 4.07099e-05 2.92263e-05
4.07099e-05 0.000113461 -1.34834e-05
2.92263e-05 -1.34834e-05 -8.42075e-05
0.00507212 0.000260063 -1.53887e-05
0.000260063 0.00149497 1.08699e-05
-1.53887e-05 1.08699e-05 0.000848618
0.000155495 0.00021102 -5.54562e-05
0.00021102 -9.53358e-05 3.71654e-05
-5.54562e-05 3.71654e-05 -8.81498e-06
0.00120557 0.000117565 -7.55047e-06
0.000117565 -0.000303444 5.13101e-06
-7.55047e-06 5.13101e-06 6.28541e-05
0.000917977 2.6237e-05 -2.97721e-07
2.6237e-05 2.58787e-05 -7.95086e-07
-2.97721e-07 -7.95086e-07 -4.2141e-05
0.000881156 6.76918e-06 4.69434e-08
6.76918e-06 -2.55077e-07 -4.4662e-07
4.69434e-08 -4.4662e-07 -5.42897e-05
0.00096776 -2.18781e-05 -6.10536e-07
-2.18781e-05 3.32058e-05 1.02255e-06
-6.10536e-07 1.02255e-06 -7.14756e-06
0.000836886 1.38032e-05 -1.63045e-08
1.38032e-05 -2.24475e-05 7.13857e-07
-1.63045e-08 7.13857e-07 -7.67849e-05
0.00102579 3.85708e-05 5.23592e-07
3.85708e-05 7.9442e-05 9.31072e-07
5.23592e-07 9.31072e-07 1.58988e-05
0.00105877 3.1783e-05 -2.51536e-07
3.1783e-05 9.74362e-05 -6.45935e-07
-2.51536e-07 -6.45935e-07 2.97658e-05
0.000992475 2.37557e-05 7.52203e-07
2.37557e-05 5.97627e-05 9.84943e-07
7.52203e-07 9.84943e-07 -2.5614e-06
0.000990405 7.80209e-06 5.10756e-07
7.80209e-06 5.66722e-05 -5.30938e-07
5.10756e-07 -5.30938e-07 -4.42683e-06
0.000943681 -5.35854e-06 2.39624e-07
-5.35854e-06 3.26869e-05 -5.19006e-07
2.39624e-07 -5.19006e-07 -2.43479e-05
0.000847603 -2.06213e-05 -3.9649e-07
-2.06213e-05 -1.72523e-05 1.21059e-06
-3.9649e-07 1.21059e-06 -7.1787e-05
0.0022163 3.35644e-05 -7.13571e-06
3.35644e-05 0.000271898 2.38693e-06
-7.13571e-06 2.38693e-06 0.000213385
0.00164739 -9.33373e-05 -1.41066e-05
-9.33373e-05 -5.54895e-05 1.59874e-06
-1.41066e-05 1.59874e-06 -8.17176e-05
-0.000112561 -6.78071e-05 -2.07407e-06
-6.78071e-05 -0.000635004 3.61063e-06
-2.07407e-06 3.61063e-06 -0.000741587
0.00114424 -8.72679e-05 -7.63795e-07
-8.72679e-05 0.000145645 2.39733e-06
-7.63795e-07 2.39733e-06 1.33518e-05
0.00113557 -3.83966e-05 3.23377e-07
-3.83966e-05 0.00015737 8.49154e-07
3.23377e-07 8.49154e-07 3.21335e-05
0.00108425 -4.0258e-05 -2.41282e-07
-4.0258e-05 0.000105284 7.22336e-07
-2.41282e-07 7.22336e-07 1.57412e-05
0.00101421 -3.68835e-05 -4.79254e-07
-3.68835e-05 7.36003e-05 7.21415e-07
-4.79254e-07 7.21415e-07 -5.89715e-08
0.000987935 1.78764e-05 -7.75311e-08
1.78764e-05 5.98958e-05 1.00777e-06
-7.75311e-08 1.00777e-06 -1.06453e-05
0.00194038 -4.26939e-05 -4.15535e-06
-4.26939e-05 -1.23184e-05 1.24551e-06
-4.15535e-06 1.24551e-06 -2.41138e-05
0.000905967 -1.53189e-05 -1.55518e-07
-1.53189e-05 2.08567e-05 -4.65167e-08
-1.55518e-07 -4.65167e-08 -5.82844e-05
0.000984221 -3.63519e-05 4.08414e-07
-3.63519e-05 5.46364e-05 -5.75259e-07
4.08414e-07 -5.75259e-07 -3.14734e-05
0.00180152 -0.000141788 2.66491e-06
-0.000141788 0.000150798 5.09579e-07
2.66491e-06 5.09579e-07 4.66432e-05
0.000693701 -8.97511e-05 1.21706e-08
-8.97511e-05 -0.000106796 1.99749e-06
1.21706e-08 1.99749e-06 -0.000232585
0.00117732 -5.92907e-05 6.79023e-07
-5.92907e-05 0.000188592 -2.8188e-07
6.79023e-07 -2.8188e-07 3.6471e-05
0.00119074 -2.41092e-05 -1.63732e-07
-2.41092e-05 0.000166049 -3.5466e-07
-1.63732e-07 -3.5466e-07 5.60253e-05
0.0029141 -0.000129018 3.3423e-06
-0.000129018 0.000498413 -3.63811e-07
3.3423e-06 -3.63811e-07 0.000518968
0.00183456 -0.000140606 1.1612e-06
-0.000140606 0.000453042 -5.29061e-06
1.1612e-06 -5.29061e-06 0.000278563
0.000894171 -1.02442e-07 -1.24856e-06
-1.02442e-07 5.80995e-05 -8.74694e-07
-1.24856e-06 -8.74694e-07 -9.10307e-05
0.000974783 3.0892e-05 2.3035e-07
3.0892e-05 5.63122e-05 -2.81747e-09
2.3035e-07 -2.81747e-09 -2.40537e-05
0.00102087 -4.71081e-05 7.00472e-07
-4.71081e-05 7.14638e-05 -6.99783e-07
7.00472e-07 -6.99783e-07 -1.64597e-05
0.00111721 -3.29162e-06 2.63911e-07
-3.29162e-06 0.000108043 -2.63176e-07
2.63911e-07 -2.63176e-07 1.38198e-05
0.00111838 -7.91811e-06 2.65099e-06
-7.91811e-06 0.000254859 2.83674e-07
2.65099e-06 2.83674e-07 0.00024905
0.00143502 -4.76675e-06 7.55359e-06
-4.76675e-06 0.000357122 -2.83326e-06
7.55359e-06 -2.83326e-06 0.000205845
0.000588983 8.48386e-05 -3.82875e-05
8.48386e-05 -0.000460773 6.75366e-06
-3.82875e-05 6.75366e-06 -0.000976431
0.00108568 5.99332e-05 -1.66206e-07
5.99332e-05 9.86247e-05 1.00301e-07
-1.66206e-07 1.00301e-07 6.43554e-06
0.00144982 6.12118e-05 2.43409e-06
6.12118e-05 0.0003085 5.29983e-07
2.43409e-06 5.29983e-07 0.000206068
0.0018413 0.000138196 -3.5399e-06
0.000138196 0.000141077 -1.98963e-06
-3.5399e-06 -1.98963e-06 8.66054e-05
0.0008753 7.22252e-05 2.26467e-06
7.22252e-05 6.36856e-05 -3.30921e-06
2.26467e-06 -3.30921e-06 -0.000107889
0.00387192 -0.000147337 4.56939e-05
-0.000147337 0.00151909 5.25952e-06
4.56939e-05 5.25952e-06 0.00145678
0.00119417 -0.000191885 3.66468e-05
-0.000191885 -0.000198637 2.94082e-05
3.66468e-05 2.94082e-05 -0.000706668
0.00300161 -2.97573e-05 -5.74571e-05
-2.97573e-05 0.000285925 -5.85819e-05
-5.74571e-05 -5.85819e-05 8.41181e-05
0.000935649 4.48428e-05 5.59151e-06
4.48428e-05 -0.000157893 1.35357e-08
5.59151e-06 1.35357e-08 -0.000168947
-0.00176791 -0.000204329 5.66951e-05
-0.000204329 -0.00123363 2.63059e-05
5.66951e-05 2.63059e-05 -0.00116921
0.0022255 -9.60436e-05 9.47801e-06
-9.60436e-05 0.000784104 7.91053e-06
9.47801e-06 7.91053e-06 0.000927461
0.00167782 -0.000143592 5.5843e-06
-0.000143592 2.8729e-05 1.71856e-06
5.5843e-06 1.71856e-06 0.000383804
0.001192 4.43054e-05 -5.47944e-08
4.43054e-05 0.000129438 3.16204e-07
-5.47944e-08 3.16204e-07 3.73326e-05
0.000767429 -3.29725e-05 -1.10981e-06
-3.29725e-05 7.08104e-05 4.78689e-07
-1.10981e-06 4.78689e-07 9.06682e-05
0.000790052 2.70364e-07 -1.3321e-06
2.70364e-07 -1.13271e-05 -2.31903e-06
-1.3321e-06 -2.31903e-06 -6.08982e-05
0.00110594 8.65455e-05 -1.28677e-06
8.65455e-05 8.73169e-05 1.07324e-06
-1.28677e-06 1.07324e-06 -7.9358e-05
0.000925845 2.79833e-05 -1.79969e-07
2.79833e-05 0.000124181 -3.62062e-07
-1.79969e-07 -3.62062e-07 -1.23624e-05
0.00201932 -6.88774e-06 9.23412e-06
-6.88774e-06 0.000634052 3.00447e-06
9.23412e-06 3.00447e-06 0.000526484
0.00382889 0.000200564 -2.07139e-05
0.000200564 0.00099575 -2.12767e-05
-2.07139e-05 -2.12767e-05 0.000609171
0.00581042 -0.000248138 -2.15065e-06
-0.000248138 0.00152658 4.76443e-06
-2.15065e-06 4.76443e-06 0.00076846
0.000262493 -0.000247772 8.85999e-06
-0.000247772 -0.000556525 1.66755e-05
8.85999e-06 1.66755e-05 -0.000526532
0.00166978 -4.83318e-05 -7.12476e-07
-4.83318e-05 0.000187515 3.84069e-07
-7.12476e-07 3.84069e-07 0.000313769
0.00136979 6.15438e-05 -1.51805e-07
6.15438e-05 0.000264831 -3.33229e-06
-1.51805e-07 -3.33229e-06 0.000186098
0.00192686 6.15549e-06 9.63026e-06
6.15549e-06 0.0007561 4.22199e-06
9.63026e-06 4.22199e-06 0.000690301
0.00110141 1.39411e-05 5.24625e-06
1.39411e-05 0.00015531 2.32197e-06
5.24625e-06 2.32197e-06 5.07578e-05
0.000408121 -2.4601e-05 -5.66394e-06
-2.4601e-05 -3.32337e-05 6.14832e-06
-5.66394e-06 6.14832e-06 -0.000167582
0.00103721 0.000121806 -1.43759e-05
0.000121806 0.000397017 4.02554e-05
-1.43759e-05 4.02554e-05 0.000181974
0.00544668 -0.00018528 -3.15451e-05
-0.00018528 0.000983994 -1.18252e-05
-3.15451e-05 -1.18252e-05 0.000107604
-0.000324312 -0.000137525 -3.78145e-05
-0.000137525 -0.00125351 -4.59867e-05
-3.78145e-05 -4.59867e-05 -0.00110304
0.00214289 7.21086e-06 -3.70506e-07
7.21086e-06 0.000516329 1.5059e-05
-3.70506e-07 1.5059e-05 0.000629979
0.0010144 5.47461e-05 -3.54306e-07
5.47461e-05 4.09555e-05 -2.91004e-07
-3.54306e-07 -2.91004e-07 -5.27265e-05
0.00110101 5.80304e-05 5.70227e-07
5.80304e-05 0.000103364 -2.66555e-08
5.70227e-07 -2.66555e-08 6.13626e-06
0.00133637 5.6585e-05 -9.77366e-07
5.6585e-05 0.000221864 -2.67135e-06
-9.77366e-07 -2.67135e-06 0.00012525
0.00102365 3.80705e-05 -5.94965e-07
3.80705e-05 6.97295e-05 -9.48894e-07
-5.94965e-07 -9.48894e-07 9.69854e-06
0.00100517 -6.30223e-06 1.36446e-07
-6.30223e-06 6.01473e-05 -4.07037e-07
1.36446e-07 -4.07037e-07 -9.76154e-06
0.00103272 2.97759e-05 -2.34719e-07
2.97759e-05 7.48769e-05 -5.41701e-07
-2.34719e-07 -5.41701e-07 -3.7965e-06
0.000991511 3.64989e-05 1.9376e-07
3.64989e-05 6.49187e-05 -1.91764e-07
1.9376e-07 -1.91764e-07 -3.28519e-05
0.00104833 1.77441e-05 2.05453e-07
1.77441e-05 8.2233e-05 2.86466e-09
2.05453e-07 2.86466e-09 1.18116e-05
0.00110392 1.75729e-05 -5.56982e-08
1.75729e-05 0.000112378 4.5115e-07
-5.56982e-08 4.5115e-07 2.88288e-05
0.00106604 1.01902e-05 3.95062e-07
1.01902e-05 0.000111374 -7.47141e-07
3.95062e-07 -7.47141e-07 4.79569e-06
0.00131156 -1.60679e-06 1.53719e-07
-1.60679e-06 0.000245317 -7.44546e-07
1.53719e-07 -7.44546e-07 0.000143334
0.00110789 -3.14284e-05 2.86999e-07
-3.14284e-05 0.000112411 6.36153e-07
2.86999e-07 6.36153e-07 1.63392e-05
0.00114023 3.16303e-05 5.96654e-07
3.16303e-05 0.000126382 5.3104e-07
5.96654e-07 5.3104e-07 4.67346e-05
0.00103371 -7.79638e-06 4.58531e-07
-7.79638e-06 7.51843e-05 -6.01281e-07
4.58531e-07 -6.01281e-07 5.05096e-06
0.001002 4.69702e-06 1.62809e-07
4.69702e-06 6.04101e-05 -7.51064e-07
1.62809e-07 -7.51064e-07 -1.11247e-05
0.00101564 -1.71706e-06 -2.45187e-07
-1.71706e-06 5.87422e-05 -1.49584e-06
-2.45187e-07 -1.49584e-06 -1.7047e-05
0.00111035 1.09186e-05 -1.67169e-07
1.09186e-05 0.000109556 -4.41766e-07
-1.67169e-07 -4.41766e-07 3.23034e-05
0.00100034 -3.72693e-06 4.01959e-08
-3.72693e-06 6.22438e-05 3.42282e-07
4.01959e-08 3.42282e-07 -1.24399e-05
0.000992282 -2.03228e-06 4.57119e-08
-2.03228e-06 4.63987e-05 -1.74976e-07
4.57119e-08 -1.74976e-07 -3.3105e-05
0.00101876 -2.20074e-05 -9.70569e-08
-2.20074e-05 6.37897e-05 5.10123e-07
-9.70569e-08 5.10123e-07 -2.00979e-05
0.00105856 -1.71871e-05 1.9145e-07
-1.71871e-05 7.65653e-05 2.16611e-07
1.9145e-07 2.16611e-07 -6.0446e-06
0.00100825 -4.95587e-05 3.75436e-07
-4.95587e-05 6.33632e-05 -1.03595e-07
3.75436e-07 -1.03595e-07 -2.75865e-05
0.00109955 -3.90165e-05 -2.97066e-07
-3.90165e-05 0.000110675 -7.39538e-08
-2.97066e-07 -7.39538e-08 2.39299e-05
0.000825984 -4.92532e-05 -1.22919e-07
-4.92532e-05 -6.71415e-06 1.05469e-06
-1.22919e-07 1.05469e-06 -9.77728e-05
0.00110043 -6.11096e-05 -1.10943e-06
-6.11096e-05 0.000113307 1.82287e-06
-1.10943e-06 1.82287e-06 2.05711e-05
0.00112813 -5.31142e-05 3.23995e-07
-5.31142e-05 0.000131856 -1.10836e-06
3.23995e-07 -1.10836e-06 5.11274e-05
0.000857559 -5.09344e-05 3.03598e-07
-5.09344e-05 1.22243e-05 -1.20566e-06
3.03598e-07 -1.20566e-06 -7.36857e-05
0.00101901 -4.0959e-05 2.08529e-07
-4.0959e-05 7.86967e-05 -4.96751e-07
2.08529e-07 -4.96751e-07 -3.20149e-06
0.00089025 -2.46748e-05 -5.09927e-07
-2.46748e-05 4.95105e-06 7.91118e-07
-5.09927e-07 7.91118e-07 -6.69649e-05
0.00103842 -2.61365e-05 -8.38617e-08
-2.61365e-05 8.45253e-05 -1.88679e-07
-8.38617e-08 -1.88679e-07 5.31575e-06
0.00100593 -2.05602e-05 -1.51833e-07
-2.05602e-05 6.21804e-05 4.59988e-07
-1.51833e-07 4.59988e-07 -4.79861e-06
0.000962327 2.26601e-06 -3.28274e-07
2.26601e-06 3.10199e-05 1.24373e-06
-3.28274e-07 1.24373e-06 -2.05369e-05
0.000995963 -2.23334e-05 3.65443e-07
-2.23334e-05 5.75207e-05 -8.9106e-07
3.65443e-07 -8.9106e-07 -6.78024e-06
0.000958184 -5.17841e-06 -1.97884e-07
-5.17841e-06 3.02651e-05 -3.94992e-08
-1.97884e-07 -3.94992e-08 -1.89153e-05
0.000927504 1.00842e-05 -7.66654e-07
1.00842e-05 7.11125e-06 1.71631e-06
-7.66654e-07 1.71631e-06 -2.32194e-05
0.000961123 -4.08986e-06 6.58795e-07
-4.08986e-06 3.23411e-05 -9.51962e-07
6.58795e-07 -9.51962e-07 -1.52008e-05
0.000930907 4.04744e-06 -1.4902e-07
4.04744e-06 6.51413e-06 -4.40952e-10
-1.4902e-07 -4.40952e-10 -2.24464e-05
0.00146929 1.36511e-05 -5.09073e-06
1.36511e-05 0.000275215 4.29614e-06
-5.09073e-06 4.29614e-06 0.000276658
0.000929407 -3.11827e-06 8.92957e-07
-3.11827e-06 4.41697e-06 -1.63523e-06
8.92957e-07 -1.63523e-06 -2.34801e-05
0.00117279 1.01413e-05 -1.84187e-06
1.01413e-05 0.000120079 5.85013e-07
-1.84187e-06 5.85013e-07 0.000121013
0.00102312 1.01213e-05 -1.23811e-06
1.01213e-05 4.18367e-05 1.52513e-06
-1.23811e-06 1.52513e-06 5.90944e-05
0.000881726 6.39155e-06 6.64442e-07
6.39155e-06 -3.2047e-05 -3.05576e-06
6.64442e-07 -3.05576e-06 -3.17366e-05
0.0016225 7.8017e-06 2.79789e-06
7.8017e-06 0.000345605 -1.18817e-06
2.79789e-06 -1.18817e-06 0.000366323
0.00220531 4.17463e-06 3.72659e-06
4.17463e-06 0.000643267 -3.9168e-06
3.72659e-06 -3.9168e-06 0.000666923
0.00102899 -3.01185e-06 8.74215e-08
-3.01185e-06 6.46387e-05 -1.08202e-06
8.74215e-08 -1.08202e-06 1.96072e-05
0.000944503 -3.48741e-06 -2.59909e-07
-3.48741e-06 7.75962e-06 -1.69907e-06
-2.59909e-07 -1.69907e-06 -1.63491e-05
0.00100867 4.32494e-06 2.23779e-07
4.32494e-06 5.40153e-05 5.4102e-08
2.23779e-07 5.4102e-08 1.21789e-05
0.000890972 -3.17311e-06 -3.59463e-07
-3.17311e-06 -2.96314e-05 -3.11795e-06
-3.59463e-07 -3.11795e-06 -2.64901e-05
0.000943905 -1.89627e-06 -5.66767e-08
-1.89627e-06 6.42167e-06 -5.30375e-09
-5.66767e-08 -5.30375e-09 -1.65519e-05
0.000964814 -3.55723e-06 -3.19108e-07
-3.55723e-06 3.13694e-05 1.45206e-06
-3.19108e-07 1.45206e-06 -8.82837e-06
0.00211004 5.47587e-08 -7.57975e-07
5.47587e-08 0.000593791 -3.90897e-06
-7.57975e-07 -3.90897e-06 0.000618688
0.000885847 2.92805e-07 -7.93828e-08
2.92805e-07 -3.29524e-05 -5.00779e-09
-7.93828e-08 -5.00779e-09 -2.93149e-05
0.000941463 -3.80158e-07 -1.12426e-07
-3.80158e-07 4.66896e-06 1.76536e-06
-1.12426e-07 1.76536e-06 -1.77232e-05
0.000888959 3.85205e-06 -4.02865e-07
3.85205e-06 -3.08136e-05 3.09114e-06
-4.02865e-07 3.09114e-06 -2.74687e-05
0.00211465 4.56848e-06 -1.21675e-06
4.56848e-06 0.000596728 -7.96386e-09
-1.21675e-06 -7.96386e-09 0.000621467
0.00213125 8.74607e-06 -6.40205e-06
8.74607e-06 0.000606786 3.85135e-06
-6.40205e-06 3.85135e-06 0.000631088
-0.00101842 1.37135e-05 2.95566e-06
1.37135e-05 -0.000967324 -1.26676e-06
2.95566e-06 -1.26676e-06 -0.000981777
-0.000214456 9.43335e-05 2.6267e-05
9.43335e-05 -0.000305544 -3.04232e-06
2.6267e-05 -3.04232e-06 -0.000380286
0.00107787 7.99902e-06 5.8707e-06
7.99902e-06 0.000114252 2.36072e-06
5.8707e-06 2.36072e-06 8.25457e-05
-0.0010972 7.89422e-05 -2.72469e-06
7.89422e-05 -0.00103858 2.18844e-06
-2.72469e-06 2.18844e-06 -0.000914333
0.00205759 2.25656e-05 -7.48248e-05
2.25656e-05 0.000523273 -5.78024e-06
-7.48248e-05 -5.78024e-06 0.000293159
0.00176723 5.54544e-05 5.57775e-06
5.54544e-05 0.000217761 -1.63313e-06
5.57775e-06 -1.63313e-06 0.000149394
0.000415483 -8.54239e-06 -2.38097e-05
-8.54239e-06 -0.000469197 3.72903e-06
-2.38097e-05 3.72903e-06 -0.000943036
0.00403903 0.000176743 9.53269e-05
0.000176743 0.00179687 -2.83251e-05
9.53269e-05 -2.83251e-05 0.00172413
-0.000294829 0.000192219 1.18491e-05
0.000192219 -0.000860536 -1.418e-05
1.18491e-05 -1.418e-05 -0.00047463
0.00136951 4.50807e-05 -4.21654e-06
4.50807e-05 0.000224871 4.1936e-06
-4.21654e-06 4.1936e-06 3.4842e-05
0.00278074 0.000170926 7.14384e-06
0.000170926 0.00052527 -6.76779e-06
7.14384e-06 -6.76779e-06 -0.000288858
0.00282224 0.000299973 2.9113e-06
0.000299973 0.000841511 3.5179e-07
2.9113e-06 3.5179e-07 0.000836622
0.00140224 0.000107406 -2.72458e-06
0.000107406 -0.000139099 2.20893e-06
-2.72458e-06 2.20893e-06 0.000214472
0.00131917 5.9264e-05 7.59299e-07
5.9264e-05 0.000291237 4.36252e-07
7.59299e-07 4.36252e-07 2.93732e-05
0.00299303 0.00021761 2.92077e-05
0.00021761 0.000585447 -1.90796e-05
2.92077e-05 -1.90796e-05 -0.000286167
-0.00232921 0.000215755 -4.96578e-05
0.000215755 -0.00202599 4.36722e-05
-4.96578e-05 4.36722e-05 -0.00187751
0.000750937 3.5165e-05 -9.24334e-07
3.5165e-05 -0.000353463 -1.73578e-06
-9.24334e-07 -1.73578e-06 -0.000210902
0.00106675 -3.14336e-06 6.86605e-07
-3.14336e-06 0.000101588 -8.14741e-07
6.86605e-07 -8.14741e-07 2.60506e-05
0.00100443 2.7381e-05 -7.30271e-07
2.7381e-05 6.89866e-05 -2.786e-07
-7.30271e-07 -2.786e-07 2.27877e-06
0.000969178 9.36213e-06 2.5772e-07
9.36213e-06 4.29611e-05 2.38153e-07
2.5772e-07 2.38153e-07 -9.98997e-06
0.000960495 3.9499e-05 1.02524e-06
3.9499e-05 4.78069e-05 1.54649e-06
1.02524e-06 1.54649e-06 -1.50144e-05
0.000955939 8.87098e-06 -2.40799e-07
8.87098e-06 4.26902e-05 -5.00674e-07
-2.40799e-07 -5.00674e-07 -3.02344e-05
0.00108463 2.83522e-05 1.0137e-07
2.83522e-05 0.000109542 5.00909e-07
1.0137e-07 5.00909e-07 4.29239e-05
0.000954324 8.02892e-06 -2.24513e-07
8.02892e-06 3.97505e-05 1.75044e-06
-2.24513e-07 1.75044e-06 -2.19132e-05
0.00110698 3.44837e-05 -7.30516e-07
3.44837e-05 0.00011444 -7.12218e-07
-7.30516e-07 -7.12218e-07 5.12222e-05
0.00107652 1.9027e-05 -3.38733e-08
1.9027e-05 0.000100843 4.6527e-07
-3.38733e-08 4.6527e-07 4.00418e-05
0.000876205 -1.40593e-05 -6.21892e-07
-1.40593e-05 -1.5479e-06 4.25648e-07
-6.21892e-07 4.25648e-07 -5.94489e-05
0.00191154 -4.1077e-05 -8.01632e-06
-4.1077e-05 -3.40024e-05 5.9879e-07
-8.01632e-06 5.9879e-07 -6.16043e-05
0.000946435 -0.000116264 -7.47735e-06
-0.000116264 -0.000266912 4.62413e-06
-7.47735e-06 4.62413e-06 -0.00036174
0.000975396 -9.59299e-05 1.86129e-06
-9.59299e-05 4.03855e-05 4.60009e-06
1.86129e-06 4.60009e-06 -8.32992e-05
0.00120366 -5.83068e-05 3.31727e-07
-5.83068e-05 0.000195951 1.96115e-06
3.31727e-07 1.96115e-06 4.88464e-05
0.0011565 -1.99657e-05 -7.11908e-08
-1.99657e-05 0.000149737 5.05745e-07
-7.11908e-08 5.05745e-07 3.44083e-05
0.000933885 -3.93923e-05 -2.20974e-07
-3.93923e-05 2.87961e-05 6.3898e-07
-2.20974e-07 6.3898e-07 -5.89481e-05
0.000923037 1.91208e-05 -5.942e-09
1.91208e-05 2.91415e-05 2.39916e-07
-5.942e-09 2.39916e-07 -5.0267e-05
0.00101867 -4.98724e-06 2.4965e-07
-4.98724e-06 7.74229e-05 6.4588e-07
2.4965e-07 6.4588e-07 -2.9259e-06
0.00217244 -0.00012828 5.10921e-07
-0.00012828 0.000150559 -1.63893e-07
5.10921e-07 -1.63893e-07 0.000160114
0.00107927 -6.17488e-06 -1.37268e-07
-6.17488e-06 0.000102237 -1.81974e-07
-1.37268e-07 -1.81974e-07 1.52526e-05
0.00121524 -1.19627e-05 -6.24853e-08
-1.19627e-05 0.000159362 -2.69427e-08
-6.24853e-08 -2.69427e-08 6.31053e-05
0.0015848 -0.000130317 -1.86122e-07
-0.000130317 0.000339506 -1.52768e-06
-1.86122e-07 -1.52768e-06 0.000159699
0.00115655 -1.0626e-05 -4.43498e-07
-1.0626e-05 0.000180767 -3.52659e-08
-4.43498e-07 -3.52659e-08 3.44453e-05
0.000821047 -0.000139266 -7.78025e-06
-0.000139266 -0.00033112 -6.85598e-06
-7.78025e-06 -6.85598e-06 -0.000331865
0.00148396 -3.51488e-05 -1.74443e-06
-3.51488e-05 0.000416096 -3.28283e-07
-1.74443e-06 -3.28283e-07 0.000186259
0.000927942 2.48429e-05 -8.84617e-07
2.48429e-05 1.82278e-05 1.30048e-06
-8.84617e-07 1.30048e-06 -8.53236e-05
0.00103192 2.92355e-05 -2.65192e-08
2.92355e-05 7.35675e-05 -1.14741e-06
-2.65192e-08 -1.14741e-06 -1.11741e-05
0.00107994 2.43692e-05 -1.61545e-07
2.43692e-05 8.37639e-05 -9.06476e-08
-1.61545e-07 -9.06476e-08 -1.09299e-05
0.0020019 -4.70766e-06 7.55072e-06
-4.70766e-06 0.000819615 1.03914e-06
7.55072e-06 1.03914e-06 0.00074566
3.92647e-05 -8.0823e-06 1.02718e-05
-8.0823e-06 -0.000347682 -3.98141e-07
1.02718e-05 -3.98141e-07 -0.00036536
-0.00282891 -1.25872e-05 8.48965e-05
-1.25872e-05 -0.00176669 -1.96415e-08
8.48965e-05 -1.96415e-08 -0.00179554
0.00138822 5.68058e-05 1.29431e-06
5.68058e-05 0.000236608 1.91909e-06
1.29431e-06 1.91909e-06 0.000142444
-2.18341e-05 1.41578e-05 2.32851e-06
1.41578e-05 -0.000327357 -1.21665e-06
2.32851e-06 -1.21665e-06 -0.000469001
0.00156687 9.29772e-05 9.01779e-07
9.29772e-05 0.00030358 -6.48972e-06
9.01779e-07 -6.48972e-06 0.000135191
-0.00102207 -1.85132e-05 3.16057e-06
-1.85132e-05 -0.000979046 8.10112e-07
3.16057e-06 8.10112e-07 -0.00100181
0.00256259 -0.000253166 2.52518e-05
-0.000253166 0.000178992 1.90546e-05
2.52518e-05 1.90546e-05 -0.00071682
0.00192552 0.00014105 3.52146e-05
0.00014105 0.000241537 -4.19507e-05
3.52146e-05 -4.19507e-05 4.85435e-05
0.00149098 3.19983e-06 4.87631e-05
3.19983e-06 0.000238246 1.35492e-05
4.87631e-05 1.35492e-05 5.707e-05
0.00420263 -0.000359079 4.50758e-05
-0.000359079 0.0011153 5.09651e-05
4.50758e-05 5.09651e-05 0.00112965
0.00060991 5.14923e-06 -8.8881e-06
5.14923e-06 -0.00013173 -3.13756e-06
-8.8881e-06 -3.13756e-06 -0.000180014
0.00107446 -3.6037e-05 -3.48885e-06
-3.6037e-05 -0.000113659 -6.345e-06
-3.48885e-06 -6.345e-06 -2.22442e-05
0.00101597 5.60292e-05 1.39578e-06
5.60292e-05 8.82828e-05 -3.89459e-07
1.39578e-06 -3.89459e-07 1.21195e-05
0.00126292 8.64585e-06 1.26096e-06
8.64585e-06 0.000363255 1.32226e-06
1.26096e-06 1.32226e-06 0.000292905
0.000927497 1.47365e-05 -1.59402e-06
1.47365e-05 4.7397e-05 -1.43094e-06
-1.59402e-06 -1.43094e-06 -5.66624e-05
-0.000297745 -1.81723e-06 1.09052e-05
-1.81723e-06 -0.000381136 -3.68797e-07
1.09052e-05 -3.68797e-07 -0.000534067
0.00246152 0.00017778 -3.51464e-05
0.00017778 0.000772571 -1.76432e-05
-3.51464e-05 -1.76432e-05 0.000577461
0.00596606 -6.703e-06 1.77533e-05
-6.703e-06 0.00112555 5.69908e-06
1.77533e-05 5.69908e-06 0.00023485
0.00106847 -3.06635e-06 6.06726e-07
-3.06635e-06 -0.000107554 2.20514e-06
6.06726e-07 2.20514e-06 -4.38597e-05
0.00157211 -0.000214967 8.06496e-07
-0.000214967 -0.000408222 2.62989e-05
8.06496e-07 2.62989e-05 -0.000323209
0.000907362 3.39551e-05 -1.77934e-06
3.39551e-05 5.88252e-05 -6.39775e-06
-1.77934e-06 -6.39775e-06 -4.14242e-06
0.001055 1.11564e-05 1.2052e-05
1.11564e-05 0.000129036 -9.62774e-07
1.2052e-05 -9.62774e-07 1.37914e-05
0.0018552 -5.94765e-06 -4.23331e-06
-5.94765e-06 0.000587491 5.36024e-07
-4.23331e-06 5.36024e-07 0.00046641
0.00072569 2.05841e-05 -5.72925e-07
2.05841e-05 -0.000308695 5.10113e-06
-5.72925e-07 5.10113e-06 -0.000213591
-0.00142718 5.05836e-05 -4.44951e-06
5.05836e-05 -0.000812571 1.52266e-06
-4.44951e-06 1.52266e-06 -0.000953291
0.00661112 -6.07433e-05 1.81422e-05
-6.07433e-05 0.00143721 1.65477e-05
1.81422e-05 1.65477e-05 0.000866084
0.000187733 6.27009e-06 -1.98853e-06
6.27009e-06 -0.00101643 -6.40709e-05
-1.98853e-06 -6.40709e-05 -0.000771597
0.00144589 6.65343e-05 7.45632e-07
6.65343e-05 0.000267712 2.11965e-06
7.45632e-07 2.11965e-06 0.000173467
0.00130765 5.70572e-05 -9.25423e-07
5.70572e-05 0.000197843 7.83132e-07
-9.25423e-07 7.83132e-07 9.79106e-05
0.00167449 5.56606e-05 8.70628e-07
5.56606e-05 0.000417772 -3.43372e-06
8.70628e-07 -3.43372e-06 0.000318815
0.00103341 3.9275e-05 -2.6306e-07
3.9275e-05 7.47034e-05 -4.16199e-07
-2.6306e-07 -4.16199e-07 4.38059e-06
0.0010763 2.77469e-05 -1.21604e-07
2.77469e-05 9.7366e-05 -4.87108e-07
-1.21604e-07 -4.87108e-07 1.4618e-05
0.000862538 6.58409e-07 -3.66375e-07
6.58409e-07 1.33964e-05 9.40486e-07
-3.66375e-07 9.40486e-07 -9.67805e-05
0.00115399 2.8832e-05 -4.89278e-08
2.8832e-05 0.000131949 -1.68476e-07
-4.89278e-08 -1.68476e-07 5.3336e-05
0.00107372 -3.20335e-05 8.22477e-09
-3.20335e-05 9.4952e-05 1.79305e-07
8.22477e-09 1.79305e-07 -2.1122e-06
0.00103094 -2.19328e-05 5.20634e-07
-2.19328e-05 9.96134e-05 5.79402e-07
5.20634e-07 5.79402e-07 -7.10943e-06
0.000964494 -1.2494e-05 1.83528e-07
-1.2494e-05 7.11584e-05 4.55863e-08
1.83528e-07 4.55863e-08 -2.39378e-05
0.00110239 -3.25084e-05 -5.92014e-07
-3.25084e-05 9.4233e-05 4.97684e-07
-5.92014e-07 4.97684e-07 6.47614e-06
0.00112277 9.64518e-06 -5.51689e-07
9.64518e-06 0.000114451 -8.93011e-07
-5.51689e-07 -8.93011e-07 3.80053e-05
0.00102143 -3.81933e-07 2.04506e-08
-3.81933e-07 7.38652e-05 -3.64923e-07
2.04506e-08 -3.64923e-07 -1.1257e-06
0.00104242 1.66026e-06 -2.08556e-07
1.66026e-06 7.02713e-05 -6.65867e-07
-2.08556e-07 -6.65867e-07 -8.66546e-06
0.00104254 -2.20599e-05 2.05009e-07
-2.20599e-05 6.82833e-05 1.56303e-08
2.05009e-07 1.56303e-08 -1.4493e-05
0.00102381 -1.92427e-05 -3.62135e-08
-1.92427e-05 6.50351e-05 4.0767e-07
-3.62135e-08 4.0767e-07 -1.83589e-05
0.00103135 -5.06711e-05 8.69854e-08
-5.06711e-05 8.56133e-05 1.00401e-06
8.69854e-08 1.00401e-06 -4.82887e-06
0.000987073 -4.93384e-05 1.07691e-07
-4.93384e-05 5.76656e-05 -7.46176e-07
1.07691e-07 -7.46176e-07 -3.1618e-05
0.0011051 -6.04052e-05 6.54133e-07
-6.04052e-05 0.000127166 9.72113e-07
6.54133e-07 9.72113e-07 2.0432e-05
0.00119104 -4.29662e-05 1.45237e-07
-4.29662e-05 0.000156064 -3.33392e-07
1.45237e-07 -3.33392e-07 6.93236e-05
0.00109008 -5.64491e-05 -9.20558e-08
-5.64491e-05 0.000120513 1.02033e-06
-9.20558e-08 1.02033e-06 2.91106e-05
0.000722305 -5.37976e-05 -2.94023e-07
-5.37976e-05 -7.5851e-05 1.90352e-06
-2.94023e-07 1.90352e-06 -0.000177447
0.00101837 -5.93227e-05 -1.72742e-06
-5.93227e-05 7.25609e-05 3.24457e-07
-1.72742e-06 3.24457e-07 -1.81635e-05
0.00106048 -5.57218e-05 -1.14032e-06
-5.57218e-05 9.94579e-05 2.16409e-07
-1.14032e-06 2.16409e-07 1.78712e-05
0.00098178 -5.74393e-05 -3.08746e-07
-5.74393e-05 5.74769e-05 -1.01377e-07
-3.08746e-07 -1.01377e-07 -3.50655e-05
0.00103212 -4.05183e-05 -5.27323e-07
-4.05183e-05 7.75668e-05 5.60612e-07
-5.27323e-07 5.60612e-07 3.7062e-06
0.00112568 -5.31314e-05 -2.84356e-07
-5.31314e-05 0.000130528 -3.13764e-07
-2.84356e-07 -3.13764e-07 4.93082e-05
0.000916928 -5.24238e-05 -2.37625e-08
-5.24238e-05 4.44412e-05 -1.4306e-06
-2.37625e-08 -1.4306e-06 -3.85328e-05
0.00113102 -4.41609e-05 5.31385e-07
-4.41609e-05 0.000134449 -6.75522e-07
5.31385e-07 -6.75522e-07 5.32211e-05
0.00095553 -2.59391e-05 6.62681e-08
-2.59391e-05 3.79783e-05 -2.6757e-08
6.62681e-08 -2.6757e-08 -3.31015e-05
0.000976903 -3.11129e-06 -4.80749e-07
-3.11129e-06 3.95927e-05 1.3944e-06
-4.80749e-07 1.3944e-06 -1.60461e-05
0.00100845 -2.32562e-05 2.81019e-07
-2.32562e-05 6.40657e-05 -4.8392e-07
2.81019e-07 -4.8392e-07 -3.32296e-06
0.000966506 -1.08512e-06 -8.4665e-08
-1.08512e-06 3.3618e-05 -8.99297e-08
-8.4665e-08 -8.99297e-08 -1.81447e-05
0.000918343 1.24501e-05 -9.47367e-07
1.24501e-05 4.74242e-06 1.84007e-06
-9.47367e-07 1.84007e-06 -2.73704e-05
0.000958039 -9.4535e-06 5.32236e-07
-9.4535e-06 3.05496e-05 -1.09503e-06
5.32236e-07 -1.09503e-06 -1.87968e-05
0.00092219 9.10687e-06 -6.58707e-08
9.10687e-06 4.13175e-06 -4.17326e-09
-6.58707e-08 -4.17326e-09 -2.61838e-05
0.00144443 1.67958e-05 -5.74397e-06
1.67958e-05 0.000267256 3.11037e-06
-5.74397e-06 3.11037e-06 0.000267397
0.000926209 3.32067e-08 9.35187e-07
3.32067e-08 3.82144e-06 -1.66638e-06
9.35187e-07 -1.66638e-06 -2.50928e-05
0.00117101 1.32312e-05 -2.30009e-06
1.32312e-05 0.000122769 5.76241e-07
-2.30009e-06 5.76241e-07 0.000122627
0.00101915 1.34998e-05 -1.73848e-06
1.34998e-05 4.41087e-05 1.5479e-06
-1.73848e-06 1.5479e-06 6.03483e-05
0.000879591 9.46972e-06 1.01364e-06
9.46972e-06 -3.03868e-05 -3.09397e-06
1.01364e-06 -3.09397e-06 -3.08298e-05
0.00162885 1.18516e-05 3.77531e-06
1.18516e-05 0.00035182 -1.17049e-06
3.77531e-06 -1.17049e-06 0.000371908
0.00221234 8.72913e-06 6.27344e-06
8.72913e-06 0.000648725 -3.90207e-06
6.27344e-06 -3.90207e-06 0.000672016
0.000797125 -2.90487e-07 -3.66896e-07
-2.90487e-07 -5.28339e-05 -1.59357e-06
-3.66896e-07 -1.59357e-06 -0.000102904
0.000686448 -6.1394e-06 -3.34787e-07
-6.1394e-06 -0.000120556 -2.34381e-06
-3.34787e-07 -2.34381e-06 -0.000148298
0.0010422 5.65789e-07 -3.19178e-08
5.65789e-07 7.14398e-05 6.13348e-08
-3.19178e-08 6.13348e-08 2.61766e-05
0.000892128 -6.39547e-06 -6.32357e-07
-6.39547e-06 -2.7333e-05 -3.13731e-06
-6.32357e-07 -3.13731e-06 -2.5305e-05
0.000818045 -3.96046e-06 3.21775e-08
-3.96046e-06 -5.58903e-05 -1.44431e-08
3.21775e-08 -1.44431e-08 -8.08661e-05
0.000805219 -1.49653e-05 -1.44039e-07
-1.49653e-05 -4.89947e-05 1.07848e-06
-1.44039e-07 1.07848e-06 -9.20655e-05
0.00212597 -4.24601e-06 -3.73302e-06
-4.24601e-06 0.000602621 -3.93376e-06
-3.73302e-06 -3.93376e-06 0.000627218
0.000884761 -3.07837e-06 -1.34171e-07
-3.07837e-06 -3.28831e-05 -1.64749e-08
-1.34171e-07 -1.64749e-08 -2.96771e-05
0.00094397 -2.36152e-06 -4.62237e-08
-2.36152e-06 6.50251e-06 1.74078e-06
-4.62237e-08 1.74078e-06 -1.64742e-05
0.00210883 1.97651e-07 -1.26466e-06
1.97651e-07 0.000593167 2.62229e-10
-1.26466e-06 2.62229e-10 0.000618073
0.000886177 4.03464e-07 -9.43649e-08
4.03464e-07 -3.2813e-05 3.10672e-06
-9.43649e-08 3.10672e-06 -2.91695e-05
0.00211571 4.72945e-06 -3.38713e-06
4.72945e-06 0.000597428 3.88198e-06
-3.38713e-06 3.88198e-06 0.000622115
0.00130241 -9.45401e-06 9.09229e-06
-9.45401e-06 0.00035634 -4.49441e-07
9.09229e-06 -4.49441e-07 0.000280743
0.00121625 3.01774e-05 1.74159e-06
3.01774e-05 0.000320363 -1.10935e-07
1.74159e-06 -1.10935e-07 0.00034567
0.000338141 4.39732e-06 0.000110836
4.39732e-06 -0.000194879 -1.74226e-05
0.000110836 -1.74226e-05 -0.000382291
0.00100453 1.85485e-05 -4.13686e-07
1.85485e-05 5.68373e-05 -9.00871e-07
-4.13686e-07 -9.00871e-07 -8.8856e-06
0.00131653 -4.5986e-06 1.61056e-05
-4.5986e-06 0.000288671 2.77911e-06
1.61056e-05 2.77911e-06 0.000188856
0.00121907 3.73105e-06 -4.5392e-06
3.73105e-06 0.000228555 6.3672e-07
-4.5392e-06 6.3672e-07 0.000183734
0.0013488 9.77102e-05 5.22186e-06
9.77102e-05 0.000362084 -4.38144e-06
5.22186e-06 -4.38144e-06 0.000531129
0.00161348 7.2151e-05 -4.26862e-05
7.2151e-05 0.000116665 1.74319e-05
-4.26862e-05 1.74319e-05 -0.000104009
0.0059176 0.000276919 1.45391e-05
0.000276919 0.00207968 -1.14687e-05
1.45391e-05 -1.14687e-05 0.00127983
-0.000972311 0.000206931 5.64196e-05
0.000206931 -0.000796775 -3.6253e-05
5.64196e-05 -3.6253e-05 -0.000758198
0.00220872 0.000104477 3.99988e-06
0.000104477 0.000369426 -2.79578e-06
3.99988e-06 -2.79578e-06 0.000703892
0.00152971 5.92379e-05 -2.40273e-05
5.92379e-05 1.46189e-05 8.50885e-06
-2.40273e-05 8.50885e-06 -0.00031646
0.00465544 0.000214215 2.30242e-05
0.000214215 0.0012846 -1.93307e-05
2.30242e-05 -1.93307e-05 0.000485366
0.00133579 0.000251849 -6.75899e-06
0.000251849 -0.000442295 1.25945e-05
-6.75899e-06 1.25945e-05 -0.000296741
0.00179852 3.96463e-05 7.71377e-07
3.96463e-05 0.000198576 1.92184e-06
7.71377e-07 1.92184e-06 0.00038337
0.00307206 -7.84174e-05 1.94487e-05
-7.84174e-05 0.00066778 -3.08247e-05
1.94487e-05 -3.08247e-05 0.000307848
0.00693024 0.000206731 2.39625e-05
0.000206731 0.00183444 -2.88708e-06
2.39625e-05 -2.88708e-06 0.000881205
0.00202131 0.000230013 6.8742e-06
0.000230013 -0.000345014 6.3535e-05
6.8742e-06 6.3535e-05 -0.000307604
0.00291437 2.72378e-05 -2.89316e-06
2.72378e-05 0.000932784 -5.61215e-06
-2.89316e-06 -5.61215e-06 0.0010902
0.00096197 -3.44574e-06 5.92933e-08
-3.44574e-06 3.96721e-05 -1.12665e-06
5.92933e-08 -1.12665e-06 -4.0699e-05
0.00103061 -1.49039e-05 2.71669e-07
-1.49039e-05 8.35111e-05 -4.3151e-08
2.71669e-07 -4.3151e-08 7.29919e-06
0.00109547 3.31103e-05 -4.30859e-07
3.31103e-05 0.000115633 6.36187e-07
-4.30859e-07 6.36187e-07 4.92247e-05
0.000982509 1.02194e-05 -3.54248e-07
1.02194e-05 4.92891e-05 -1.31178e-06
-3.54248e-07 -1.31178e-06 -2.30893e-05
0.00104688 2.88253e-05 -2.89877e-07
2.88253e-05 8.81787e-05 3.92705e-07
-2.89877e-07 3.92705e-07 1.64272e-05
0.00110124 1.5045e-05 2.7986e-07
1.5045e-05 0.000116655 1.56779e-06
2.7986e-07 1.56779e-06 5.1259e-05
0.00115502 3.45414e-05 -3.15521e-07
3.45414e-05 0.000138281 6.03795e-08
-3.15521e-07 6.03795e-08 7.5341e-05
0.00116596 3.52707e-05 6.48643e-07
3.52707e-05 0.000146369 1.5187e-06
6.48643e-07 1.5187e-06 8.60098e-05
0.00134883 -0.000124076 2.49033e-06
-0.000124076 -0.000242302 -3.50107e-06
2.49033e-06 -3.50107e-06 -0.000241355
0.00138836 -0.000120854 -1.47366e-06
-0.000120854 0.000251581 3.86334e-06
-1.47366e-06 3.86334e-06 6.71154e-05
0.000989802 -5.70652e-05 -1.18952e-06
-5.70652e-05 6.37276e-05 1.25969e-06
-1.18952e-06 1.25969e-06 -1.74587e-05
0.00145862 -2.11452e-05 1.29525e-07
-2.11452e-05 0.000322585 7.6937e-07
1.29525e-07 7.6937e-07 0.000179994
0.00128107 -2.37142e-05 -5.80541e-07
-2.37142e-05 0.000193025 7.36664e-07
-5.80541e-07 7.36664e-07 9.55748e-05
0.00113714 7.70375e-06 -4.51345e-07
7.70375e-06 0.000133157 -2.79538e-07
-4.51345e-07 -2.79538e-07 4.68555e-05
0.001061 2.60264e-05 9.68607e-08
2.60264e-05 8.94976e-05 3.07536e-07
9.68607e-08 3.07536e-07 4.05683e-06
0.00171974 -0.000162542 -6.90665e-07
-0.000162542 9.82491e-05 -8.31893e-07
-6.90665e-07 -8.31893e-07 9.85075e-05
0.00106869 1.11911e-05 3.547e-08
1.11911e-05 8.15576e-05 -7.07155e-07
3.547e-08 -7.07155e-07 -1.24628e-05
0.00111495 7.10766e-06 -2.31873e-07
7.10766e-06 0.000118326 1.47656e-07
-2.31873e-07 1.47656e-07 8.23524e-06
0.00110595 -2.85814e-05 -3.51441e-07
-2.85814e-05 0.000241039 4.09717e-07
-3.51441e-07 4.09717e-07 -1.53717e-06
0.00119052 2.63435e-05 7.55247e-08
2.63435e-05 0.000144396 -7.63824e-07
7.55247e-08 -7.63824e-07 6.12196e-05
0.000998884 -0.000148412 -2.75618e-05
-0.000148412 8.54634e-05 -5.38011e-06
-2.75618e-05 -5.38011e-06 -4.46476e-05
0.00139766 4.93409e-05 -5.2592e-06
4.93409e-05 0.000390477 3.01684e-06
-5.2592e-06 3.01684e-06 0.000198125
0.000928556 2.2177e-05 -5.16187e-07
2.2177e-05 1.11032e-06 4.61211e-07
-5.16187e-07 4.61211e-07 -8.78256e-05
0.00119629 4.97223e-05 -3.255e-07
4.97223e-05 0.00014807 -9.03642e-07
-3.255e-07 -9.03642e-07 5.81001e-05
0.00143995 -4.75939e-07 1.10993e-05
-4.75939e-07 0.000410269 -1.05476e-06
1.10993e-05 -1.05476e-06 0.00029703
0.00163559 -4.5707e-06 -3.59541e-06
-4.5707e-06 0.000585436 3.1603e-07
-3.59541e-06 3.1603e-07 0.00050825
-0.00105885 -5.95973e-06 1.09702e-05
-5.95973e-06 -0.000966559 1.03351e-06
1.09702e-05 1.03351e-06 -0.000991818
0.000590366 4.58866e-05 2.31564e-06
4.58866e-05 -0.000124309 1.69553e-06
2.31564e-06 1.69553e-06 -0.000197344
-0.000875679 1.46819e-05 -7.90303e-06
1.46819e-05 -0.000654216 2.13438e-06
-7.90303e-06 2.13438e-06 -0.00082867
0.000584734 1.06695e-05 -1.21649e-05
1.06695e-05 -3.85472e-05 -2.91813e-06
-1.21649e-05 -2.91813e-06 -0.000112865
0.00432535 -0.000304765 4.24114e-05
-0.000304765 0.000808965 9.41133e-06
4.24114e-05 9.41133e-06 -0.000155798
0.00320176 0.000198162 -2.83656e-05
0.000198162 0.000715268 -7.46081e-05
-2.83656e-05 -7.46081e-05 0.000291152
0.00250701 -0.000266979 1.28493e-05
-0.000266979 -0.000208919 0.000103754
1.28493e-05 0.000103754 -5.06609e-05
0.000724155 1.57438e-05 -1.13808e-05
1.57438e-05 -7.644e-05 -4.24411e-06
-1.13808e-05 -4.24411e-06 -0.000179435
0.000435357 -1.03461e-05 -1.41083e-07
-1.03461e-05 -0.00044747 -2.01478e-06
-1.41083e-07 -2.01478e-06 -0.00043986
0.00118878 4.59543e-05 -1.76515e-06
4.59543e-05 0.000195768 -7.71644e-07
-1.76515e-06 -7.71644e-07 0.000127973
0.000943802 8.79154e-06 1.20493e-06
8.79154e-06 5.94437e-05 1.89617e-07
1.20493e-06 1.89617e-07 -5.69377e-05
0.00123399 -6.6047e-06 -2.85313e-06
-6.6047e-06 0.00020029 1.88707e-06
-2.85313e-06 1.88707e-06 7.27678e-05
0.000128916 6.28637e-05 7.92329e-06
6.28637e-05 1.6158e-05 -3.68282e-06
7.92329e-06 -3.68282e-06 -7.84615e-05
0.00166273 2.63549e-05 -1.11902e-06
2.63549e-05 0.000176452 -2.18649e-06
-1.11902e-06 -2.18649e-06 0.000311159
0.0050832 7.69029e-05 2.35896e-05
7.69029e-05 0.000482999 -3.05089e-06
2.35896e-05 -3.05089e-06 0.000103075
0.00340683 1.35996e-05 -2.5562e-05
1.35996e-05 0.000357874 -4.21602e-06
-2.5562e-05 -4.21602e-06 0.000545493
0.000999994 6.41106e-05 2.07045e-06
6.41106e-05 0.000244784 -7.6796e-06
2.07045e-06 -7.6796e-06 0.000157615
0.0013691 -5.03629e-06 1.1528e-06
-5.03629e-06 0.000270282 -6.43247e-06
1.1528e-06 -6.43247e-06 0.000134737
0.00117521 -1.8607e-05 -1.74883e-05
-1.8607e-05 0.000191873 -1.99868e-06
-1.74883e-05 -1.99868e-06 7.51124e-05
0.00131591 0.000111573 4.63522e-06
0.000111573 -0.000170708 -1.66789e-06
4.63522e-06 -1.66789e-06 0.000147469
0.00179855 0.000256281 -5.55089e-06
0.000256281 -0.000357538 -5.9938e-05
-5.55089e-06 -5.9938e-05 -0.000367543
0.000837361 0.000125899 7.99445e-06
0.000125899 0.00039318 -4.52377e-06
7.99445e-06 -4.52377e-06 0.000391479
0.00341794 -0.000138855 4.96896e-05
-0.000138855 4.53376e-05 2.07054e-05
4.96896e-05 2.07054e-05 -0.000423314
0.00128144 5.63898e-05 -1.18531e-06
5.63898e-05 0.000177709 4.067e-06
-1.18531e-06 4.067e-06 7.42283e-05
0.00131169 3.79436e-05 -8.34422e-07
3.79436e-05 0.000227177 9.95571e-07
-8.34422e-07 9.95571e-07 0.000132579
0.000106267 -2.48322e-05 2.54567e-07
-2.48322e-05 -0.000187614 -5.99877e-06
2.54567e-07 -5.99877e-06 -0.000408262
0.00116447 1.60158e-05 -3.77029e-07
1.60158e-05 0.000135562 -5.6774e-07
-3.77029e-07 -5.6774e-07 5.81459e-05
0.00104214 -3.06943e-05 1.49747e-07
-3.06943e-05 7.83207e-05 3.18826e-07
1.49747e-07 3.18826e-07 -1.90178e-05
0.00090512 -2.13169e-05 -1.7007e-06
-2.13169e-05 3.19976e-05 3.71794e-06
-1.7007e-06 3.71794e-06 -7.92343e-05
0.00105585 -3.89033e-05 -1.92684e-07
-3.89033e-05 7.31338e-05 7.81928e-08
-1.92684e-07 7.81928e-08 -1.50504e-05
0.000872211 -2.29052e-05 -1.05157e-07
-2.29052e-05 2.13551e-05 1.19496e-06
-1.05157e-07 1.19496e-06 -7.43437e-05
0.000923115 -4.01789e-05 9.34828e-07
-4.01789e-05 9.10897e-05 -6.53201e-08
9.34828e-07 -6.53201e-08 -3.69016e-05
0.00102971 -2.53173e-05 1.43486e-07
-2.53173e-05 6.18364e-05 -3.19315e-07
1.43486e-07 -3.19315e-07 -2.11421e-05
0.00103201 -9.83788e-06 -5.6313e-08
-9.83788e-06 6.74371e-05 8.99803e-08
-5.6313e-08 8.99803e-08 -1.51185e-05
0.00118848 -5.27777e-05 9.68397e-08
-5.27777e-05 0.000159673 3.95322e-07
9.68397e-08 3.95322e-07 6.72337e-05
0.00101792 -6.01432e-05 4.14316e-07
-6.01432e-05 0.000113771 1.09554e-06
4.14316e-07 1.09554e-06 -9.11272e-06
0.000944401 -4.81997e-05 -5.78691e-07
-4.81997e-05 4.1699e-05 -5.30306e-07
-5.78691e-07 -5.30306e-07 -4.58962e-05
0.000860109 -5.30221e-05 6.9259e-07
-5.30221e-05 8.78688e-06 -2.90382e-07
6.9259e-07 -2.90382e-07 -9.52457e-05
0.001123 -6.81382e-05 6.58209e-07
-6.81382e-05 0.000136032 8.86346e-07
6.58209e-07 8.86346e-07 1.85423e-05
0.0011833 -7.02935e-05 -2.07621e-06
-7.02935e-05 0.00012432 1.99437e-06
-2.07621e-06 1.99437e-06 2.24637e-05
0.00133637 -6.33611e-05 1.18709e-07
-6.33611e-05 0.000239042 -2.37769e-07
1.18709e-07 -2.37769e-07 0.000147302
0.000898736 -5.89186e-05 -3.24706e-07
-5.89186e-05 9.6015e-06 3.29577e-08
-3.24706e-07 3.29577e-08 -9.37702e-05
0.00129762 -6.76432e-05 1.17383e-07
-6.76432e-05 0.000206249 -1.11046e-07
1.17383e-07 -1.11046e-07 0.000121155
0.000852135 -4.9615e-05 -9.47899e-07
-4.9615e-05 3.63349e-06 3.18678e-08
-9.47899e-07 3.18678e-08 -7.94572e-05
0.00101767 -5.90499e-05 4.17534e-07
-5.90499e-05 7.15623e-05 4.45135e-08
4.17534e-07 4.45135e-08 -1.76623e-05
0.00104744 -4.56225e-05 -1.05758e-06
-4.56225e-05 8.86019e-05 2.03972e-07
-1.05758e-06 2.03972e-07 1.43598e-05
0.00109096 -5.66159e-05 -9.7773e-07
-5.66159e-05 0.000113542 5.95193e-07
-9.7773e-07 5.95193e-07 3.17933e-05
0.000859268 -5.36909e-05 -1.03169e-07
-5.36909e-05 -1.10784e-07 -8.44716e-07
-1.03169e-07 -8.44716e-07 -9.247e-05
0.00100623 -9.86303e-06 -9.13308e-07
-9.86303e-06 5.65587e-05 1.33113e-06
-9.13308e-07 1.33113e-06 -3.20373e-06
0.000998917 -3.88821e-05 2.34332e-07
-3.88821e-05 5.98399e-05 1.67601e-07
2.34332e-07 1.67601e-07 -1.39625e-05
0.00111847 -5.30967e-05 1.51316e-06
-5.30967e-05 0.000126939 -4.68956e-07
1.51316e-06 -4.68956e-07 4.52107e-05
0.00101698 -2.7129e-05 5.21235e-07
-2.7129e-05 6.91685e-05 -8.3508e-07
5.21235e-07 -8.3508e-07 -1.07721e-06
0.000975039 -3.00189e-06 1.30058e-07
-3.00189e-06 3.83944e-05 -5.29826e-08
1.30058e-07 -5.29826e-08 -1.71956e-05
0.000918793 1.32333e-05 -1.10565e-06
1.32333e-05 8.50791e-06 2.02745e-06
-1.10565e-06 2.02745e-06 -2.63671e-05
0.000965202 -4.73039e-06 4.00093e-07
-4.73039e-06 3.34187e-05 -1.24954e-06
4.00093e-07 -1.24954e-06 -1.852e-05
0.000914278 1.3327e-05 6.3677e-08
1.3327e-05 2.79238e-06 -2.68708e-08
6.3677e-08 -2.68708e-08 -2.94265e-05
0.000835651 1.73567e-05 -1.93356e-06
1.73567e-05 -3.94378e-05 3.26508e-06
-1.93356e-06 3.26508e-06 -4.38179e-05
0.000918927 7.47601e-06 8.23657e-07
7.47601e-06 2.17659e-06 -1.78137e-06
8.23657e-07 -1.78137e-06 -2.8115e-05
0.000854796 1.49782e-05 1.34738e-07
1.49782e-05 -3.46643e-05 7.51149e-09
1.34738e-07 7.51149e-09 -3.75949e-05
0.00222048 2.37372e-05 -4.31399e-06
2.37372e-05 0.000664004 1.59175e-06
-4.31399e-06 1.59175e-06 0.000684857
0.000875969 1.23729e-05 1.37233e-06
1.23729e-05 -2.85934e-05 -3.134e-06
1.37233e-06 -3.134e-06 -3.01488e-05
0.00163898 1.57543e-05 4.68591e-06
1.57543e-05 0.00036095 -1.15144e-06
4.68591e-06 -1.15144e-06 0.000380125
0.0022274 1.31459e-05 8.81814e-06
1.31459e-05 0.000659393 -3.8951e-06
8.81814e-06 -3.8951e-06 0.000682036
0.000789149 -4.47581e-06 -2.27162e-07
-4.47581e-06 -5.89179e-05 -1.73449e-06
-2.27162e-07 -1.73449e-06 -0.000111172
0.000666829 -7.82882e-06 -6.01538e-07
-7.82882e-06 -0.000128255 -2.42315e-06
-6.01538e-07 -2.42315e-06 -0.000159055
0.000934071 -1.34674e-06 -1.30734e-07
-1.34674e-06 1.61122e-05 -4.97782e-07
-1.30734e-07 -4.97782e-07 -3.32459e-05
0.000891416 -9.63809e-06 -8.80474e-07
-9.63809e-06 -2.47843e-05 -3.21347e-06
-8.80474e-07 -3.21347e-06 -2.44326e-05
0.000683235 -6.32007e-06 -7.87889e-08
-6.32007e-06 -0.000121967 -6.07914e-07
-7.87889e-08 -6.07914e-07 -0.000150075
0.0010522 2.47955e-07 6.79604e-08
2.47955e-07 7.67481e-05 1.19258e-06
6.79604e-08 1.19258e-06 3.11981e-05
0.00215432 -8.60365e-06 -6.41982e-06
-8.60365e-06 0.000618837 -3.96376e-06
-6.41982e-06 -3.96376e-06 0.000642805
0.000881657 -6.32293e-06 -1.01553e-07
-6.32293e-06 -3.26401e-05 -1.80504e-08
-1.01553e-07 -1.80504e-08 -3.05292e-05
0.000690668 -4.33626e-06 1.02038e-07
-4.33626e-06 -0.000119866 1.67721e-06
1.02038e-07 1.67721e-06 -0.000145727
0.00212317 -4.12718e-06 -1.30995e-06
-4.12718e-06 0.000601023 8.68478e-09
-1.30995e-06 8.68478e-09 0.000625696
0.000878906 -2.98498e-06 1.40502e-07
-2.98498e-06 -3.59387e-05 3.1229e-06
1.40502e-07 3.1229e-06 -3.2672e-05
0.00210991 3.46825e-07 -6.14523e-07
3.46825e-07 0.000593705 3.89444e-06
-6.14523e-07 3.89444e-06 0.00061861
0.00115476 -8.8907e-06 1.35885e-05
-8.8907e-06 0.000224299 -3.5176e-07
1.35885e-05 -3.5176e-07 0.000113191
0.00122941 -1.04448e-05 -4.81399e-06
-1.04448e-05 0.000308483 6.25341e-07
-4.81399e-06 6.25341e-07 0.000234259
0.00108031 1.3022e-05 5.23403e-06
1.3022e-05 0.000249487 3.12526e-06
5.23403e-06 3.12526e-06 0.000251768
0.00104175 2.46976e-05 -4.88849e-08
2.46976e-05 7.52253e-05 8.41412e-08
-4.88849e-08 8.41412e-08 1.02122e-05
0.000942029 1.39541e-05 -2.64305e-07
1.39541e-05 1.94411e-05 -8.54283e-07
-2.64305e-07 -8.54283e-07 -4.67998e-05
0.00113996 3.39004e-05 -2.55517e-07
3.39004e-05 0.000127953 -2.12239e-07
-2.55517e-07 -2.12239e-07 5.47375e-05
0.00172138 1.35357e-05 2.9723e-06
1.35357e-05 0.000511019 -5.42839e-06
2.9723e-06 -5.42839e-06 0.000406471
0.00116382 -5.39205e-06 3.82202e-06
-5.39205e-06 0.000208479 -1.04737e-06
3.82202e-06 -1.04737e-06 0.000109047
0.00135296 -7.44103e-07 -1.47359e-05
-7.44103e-07 0.000338239 2.59981e-06
-1.47359e-05 2.59981e-06 0.000279958
0.000550464 5.66882e-05 -3.26854e-05
5.66882e-05 -0.000346949 1.10487e-05
-3.26854e-05 1.10487e-05 -0.000530582
0.00242794 0.000187913 1.28096e-05
0.000187913 0.000427325 -1.67814e-05
1.28096e-05 -1.67814e-05 -0.000477873
0.00344033 0.000320326 3.83299e-05
0.000320326 0.000680469 -2.53028e-05
3.83299e-05 -2.53028e-05 0.000785225
0.000470425 2.41986e-05 3.75821e-06
2.41986e-05 -0.000586135 3.08701e-07
3.75821e-06 3.08701e-07 -0.000428913
0.000789548 -3.89217e-05 -1.11346e-05
-3.89217e-05 -0.000196777 9.69756e-06
-1.11346e-05 9.69756e-06 -0.000313673
0.00510165 0.000100145 3.51087e-05
0.000100145 0.00108499 -4.16836e-05
3.51087e-05 -4.16836e-05 0.000197579
0.000937748 0.000116037 -1.21468e-06
0.000116037 -0.0007109 1.26784e-05
-1.21468e-06 1.26784e-05 -0.00048595
0.00124535 1.76299e-05 6.18606e-07
1.76299e-05 -7.861e-05 3.78608e-06
6.18606e-07 3.78608e-06 4.61555e-05
0.00269955 -0.00022533 2.05136e-05
-0.00022533 0.000449096 -5.33659e-05
2.05136e-05 -5.33659e-05 0.000330306
0.00803183 0.000126551 2.65646e-05
0.000126551 0.00213067 -3.22635e-05
2.65646e-05 -3.22635e-05 0.00153922
0.000231905 -7.4076e-07 1.24363e-06
-7.4076e-07 -0.000996007 6.48245e-05
1.24363e-06 6.48245e-05 -0.000781624
0.000307542 -8.31845e-06 -1.72015e-07
-8.31845e-06 -0.000635881 3.06735e-06
-1.72015e-07 3.06735e-06 -0.000493381
0.00107254 6.33338e-06 -1.21735e-07
6.33338e-06 8.91411e-05 -5.24091e-07
-1.21735e-07 -5.24091e-07 8.46751e-06
0.000983096 -3.39179e-06 -1.0432e-07
-3.39179e-06 5.20545e-05 -2.1218e-07
-1.0432e-07 -2.1218e-07 -2.87181e-05
0.00103869 -2.14704e-05 -1.96056e-07
-2.14704e-05 8.72207e-05 9.54966e-07
-1.96056e-07 9.54966e-07 1.06649e-05
0.00100103 1.96019e-05 -4.01177e-07
1.96019e-05 5.88195e-05 -6.65591e-07
-4.01177e-07 -6.65591e-07 -1.38751e-05
0.00112799 5.34434e-05 1.10984e-06
5.34434e-05 0.000129486 1.23965e-06
1.10984e-06 1.23965e-06 5.85511e-05
0.00120231 3.47883e-05 1.08438e-07
3.47883e-05 0.000161758 9.34349e-07
1.08438e-07 9.34349e-07 9.90894e-05
0.00261197 -0.000183289 5.70823e-06
-0.000183289 0.000527787 4.47907e-07
5.70823e-06 4.47907e-07 0.000528016
0.000707431 -1.53829e-05 7.18619e-07
-1.53829e-05 5.19116e-05 4.86467e-06
7.18619e-07 4.86467e-06 -0.000200617
0.00111925 3.033e-05 4.38123e-07
3.033e-05 0.000119089 1.02498e-06
4.38123e-07 1.02498e-06 3.35231e-05
0.00122879 -1.77684e-05 8.04268e-07
-1.77684e-05 0.000180917 -2.31366e-07
8.04268e-07 -2.31366e-07 6.46529e-05
0.00112691 1.17091e-06 7.0788e-08
1.17091e-06 0.000113487 4.05647e-08
7.0788e-08 4.05647e-08 2.0678e-05
0.00109387 1.91257e-05 4.18089e-07
1.91257e-05 9.49275e-05 1.3157e-07
4.18089e-07 1.3157e-07 1.22216e-05
0.00111713 3.03498e-05 2.44365e-07
3.03498e-05 0.000106622 -2.69237e-07
2.44365e-07 -2.69237e-07 1.70473e-05
0.00102987 -0.000139273 -1.8517e-06
-0.000139273 4.59996e-05 2.54329e-06
-1.8517e-06 2.54329e-06 -4.29031e-05
0.00121838 -2.68456e-06 5.84877e-07
-2.68456e-06 0.000141749 -1.24528e-06
5.84877e-07 -1.24528e-06 5.44609e-05
0.00136448 5.00335e-05 -1.62048e-06
5.00335e-05 0.000402733 -7.58859e-07
-1.62048e-06 -7.58859e-07 0.000218872
0.000941083 9.47465e-07 4.17825e-07
9.47465e-07 1.64989e-05 -2.15008e-06
4.17825e-07 -2.15008e-06 -6.78142e-05
-0.000144084 -2.55881e-05 3.37962e-06
-2.55881e-05 -0.000123729 -6.77859e-06
3.37962e-06 -6.77859e-06 -0.000373274
0.000374438 2.07284e-05 -2.46843e-06
2.07284e-05 -0.00018641 9.92578e-06
-2.46843e-06 9.92578e-06 -0.000235902
0.00105443 -7.68308e-06 1.6161e-07
-7.68308e-06 6.61991e-05 -1.19655e-06
1.6161e-07 -1.19655e-06 -2.39102e-05
0.0013098 -4.29303e-06 6.51319e-07
-4.29303e-06 0.000273853 -4.46092e-07
6.51319e-07 -4.46092e-07 0.000141832
0.00106148 -1.69372e-06 3.91069e-06
-1.69372e-06 0.000168043 -2.08567e-08
3.91069e-06 -2.08567e-08 4.97419e-05
0.00121457 -4.28003e-06 -1.68186e-05
-4.28003e-06 0.00031729 1.39014e-06
-1.68186e-05 1.39014e-06 0.000236749
0.00140663 6.48138e-05 3.43092e-06
6.48138e-05 0.000301858 4.2486e-06
3.43092e-06 4.2486e-06 0.000228576
-0.000377502 6.94791e-05 8.20409e-06
6.94791e-05 -0.000320968 -1.33138e-05
8.20409e-06 -1.33138e-05 -0.000411992
0.00083448 6.43074e-06 -9.13772e-06
6.43074e-06 -9.3986e-06 1.72384e-06
-9.13772e-06 1.72384e-06 -0.000126906
0.00352344 -2.53803e-05 -1.82321e-05
-2.53803e-05 0.000261536 -1.12335e-05
-1.82321e-05 -1.12335e-05 -7.80862e-06
-0.00094344 2.48463e-05 2.77001e-06
2.48463e-05 -0.00168695 6.94163e-05
2.77001e-06 6.94163e-05 -0.00146134
0.000678478 -6.80953e-06 -2.9026e-06
-6.80953e-06 -0.000143938 -3.78266e-06
-2.9026e-06 -3.78266e-06 -0.000278838
0.000529359 1.11089e-05 -1.9717e-06
1.11089e-05 -0.000483919 -3.93959e-06
-1.9717e-06 -3.93959e-06 -0.000378143
0.000623802 4.26155e-05 1.62457e-07
4.26155e-05 3.13393e-05 2.78362e-07
1.62457e-07 2.78362e-07 -5.44166e-05
0.00122064 -4.34614e-06 -6.02305e-07
-4.34614e-06 0.000189121 -3.43671e-07
-6.02305e-07 -3.43671e-07 5.34096e-05
0.00120452 -2.11835e-05 -4.00245e-06
-2.11835e-05 0.000228891 1.73241e-06
-4.00245e-06 1.73241e-06 0.000112011
0.00138128 0.000173015 3.03163e-05
0.000173015 0.000284977 1.05016e-06
3.03163e-05 1.05016e-06 0.000182968
0.00154197 0.000100699 1.77153e-06
0.000100699 8.84332e-06 -2.69513e-06
1.77153e-06 -2.69513e-06 0.000306536
0.000695232 0.000142418 2.59739e-06
0.000142418 -0.000748426 -1.36462e-05
2.59739e-06 -1.36462e-05 -0.000565375
0.00692555 -7.04012e-06 9.20691e-06
-7.04012e-06 0.00175758 -1.86454e-05
9.20691e-06 -1.86454e-05 0.00135122
-0.000744204 8.84342e-06 -2.18171e-05
8.84342e-06 -0.000141421 -1.31824e-05
-2.18171e-05 -1.31824e-05 -0.000372275
0.00117307 -1.52513e-05 -1.33536e-05
-1.52513e-05 0.0002357 5.32446e-07
-1.33536e-05 5.32446e-07 0.000112027
0.000953816 -1.15834e-07 -8.28776e-06
-1.15834e-07 4.14127e-05 -8.04899e-07
-8.28776e-06 -8.04899e-07 -6.8517e-06
0.00133905 0.000164426 9.64932e-06
0.000164426 0.000147949 -2.47161e-06
9.64932e-06 -2.47161e-06 0.000492502
-0.00300809 0.000237773 4.57538e-05
0.000237773 -0.00219934 -3.90804e-05
4.57538e-05 -3.90804e-05 -0.00215919
0.00778924 0.000168873 2.62942e-06
0.000168873 0.00206864 -1.21425e-05
2.62942e-06 -1.21425e-05 0.00122077
0.00147441 -2.91574e-05 -2.12979e-05
-2.91574e-05 0.000304459 9.53179e-05
-2.12979e-05 9.53179e-05 5.3552e-05
0.000857549 1.98647e-05 1.61597e-06
1.98647e-05 -6.00414e-06 4.83058e-06
1.61597e-06 4.83058e-06 -9.67949e-05
0.000409251 -1.45886e-05 1.05759e-06
-1.45886e-05 -4.27522e-05 -1.32167e-06
1.05759e-06 -1.32167e-06 -0.000264427
0.000685876 -3.87844e-05 1.23099e-06
-3.87844e-05 0.000158824 -2.67857e-06
1.23099e-06 -2.67857e-06 -0.000106917
0.000999566 -4.25211e-05 2.79431e-07
-4.25211e-05 4.65325e-05 -7.13439e-07
2.79431e-07 -7.13439e-07 -4.18253e-05
0.000715589 -3.02466e-05 -4.57635e-07
-3.02466e-05 -5.97044e-05 2.31268e-06
-4.57635e-07 2.31268e-06 -0.000156262
0.000806893 -2.61097e-05 -1.39138e-07
-2.61097e-05 3.31822e-05 6.50268e-07
-1.39138e-07 6.50268e-07 -8.78529e-05
0.000891919 -7.22416e-05 2.41117e-06
-7.22416e-05 0.000132278 -1.09652e-06
2.41117e-06 -1.09652e-06 -7.12247e-05
0.00134848 -5.56744e-05 -3.03342e-07
-5.56744e-05 0.000234491 4.37747e-08
-3.03342e-07 4.37747e-08 0.000140517
0.00130227 -7.12431e-05 -1.62283e-08
-7.12431e-05 0.000244505 3.67637e-07
-1.62283e-08 3.67637e-07 0.000118937
0.00111284 -7.5635e-05 1.6767e-06
-7.5635e-05 0.000155024 1.9373e-06
1.6767e-06 1.9373e-06 -3.65898e-06
0.000626925 -4.60927e-05 -1.7965e-07
-4.60927e-05 -0.000103946 -1.26716e-06
-1.7965e-07 -1.26716e-06 -0.000205015
0.00109704 -6.70325e-05 -3.75169e-07
-6.70325e-05 0.000121197 -2.56057e-08
-3.75169e-07 -2.56057e-08 1.6713e-06
0.00167412 -9.13889e-05 -9.57177e-07
-9.13889e-05 0.000371412 1.90522e-06
-9.57177e-07 1.90522e-06 0.000247414
0.00139929 -8.12933e-05 -2.07667e-06
-8.12933e-05 0.000212059 2.66777e-06
-2.07667e-06 2.66777e-06 0.000102138
0.000834533 -5.78706e-05 -4.75106e-07
-5.78706e-05 -3.577e-05 1.75918e-06
-4.75106e-07 1.75918e-06 -0.000124797
0.0011228 -6.91262e-05 -6.01448e-07
-6.91262e-05 9.58682e-05 5.64178e-07
-6.01448e-07 5.64178e-07 -7.66392e-06
0.00107002 -6.38949e-05 -2.18024e-07
-6.38949e-05 9.23175e-05 -8.30734e-07
-2.18024e-07 -8.30734e-07 -1.28023e-05
0.00123084 -6.35456e-05 4.3643e-07
-6.35456e-05 0.00017423 -5.54382e-07
4.3643e-07 -5.54382e-07 9.43142e-05
0.00111843 -6.23133e-05 1.24004e-06
-6.23133e-05 0.000118885 -6.21141e-07
1.24004e-06 -6.21141e-07 3.56827e-05
0.000895819 -4.19118e-05 -5.1496e-07
-4.19118e-05 2.10104e-05 6.14294e-07
-5.1496e-07 6.14294e-07 -5.57647e-05
0.00095989 -5.25573e-05 2.40201e-07
-5.25573e-05 5.60029e-05 -1.14617e-07
2.40201e-07 -1.14617e-07 -2.63409e-05
0.00102708 -5.90382e-05 2.91341e-06
-5.90382e-05 7.54783e-05 -1.35258e-06
2.91341e-06 -1.35258e-06 -1.22557e-05
0.000984981 -7.5823e-06 -1.30896e-06
-7.5823e-06 4.96421e-05 1.09639e-06
-1.30896e-06 1.09639e-06 -1.31536e-05
0.00106502 -4.58154e-05 -2.64398e-07
-4.58154e-05 9.61868e-05 -3.85938e-08
-2.64398e-07 -3.85938e-08 2.21469e-05
0.00111554 -5.73473e-05 3.58859e-07
-5.73473e-05 0.000124753 -3.69706e-08
3.58859e-07 -3.69706e-08 4.2849e-05
0.000911994 1.04976e-05 -1.54471e-06
1.04976e-05 8.71417e-06 2.19434e-06
-1.54471e-06 2.19434e-06 -2.96015e-05
0.000990613 -1.05366e-05 1.77034e-07
-1.05366e-05 4.79309e-05 7.3124e-08
1.77034e-07 7.3124e-08 -1.14416e-05
0.000975369 -3.80888e-05 1.2444e-06
-3.80888e-05 4.69356e-05 -2.76985e-07
1.2444e-06 -2.76985e-07 -2.68719e-05
0.000975739 -3.47365e-06 7.84042e-07
-3.47365e-06 3.84969e-05 -1.34026e-06
7.84042e-07 -1.34026e-06 -1.70328e-05
0.000909324 1.49109e-05 2.00148e-07
1.49109e-05 4.04066e-06 -3.99248e-08
2.00148e-07 -3.99248e-08 -3.09705e-05
0.000822479 1.97513e-05 -2.31507e-06
1.97513e-05 -4.0438e-05 3.3408e-06
-2.31507e-06 3.3408e-06 -4.68195e-05
0.000910124 1.42824e-05 8.43858e-07
1.42824e-05 7.54987e-07 -1.98489e-06
8.43858e-07 -1.98489e-06 -3.15515e-05
0.000850329 1.75408e-05 1.00348e-07
1.75408e-05 -3.22096e-05 -1.15157e-08
1.00348e-07 -1.15157e-08 -3.66558e-05
0.00229888 2.55882e-05 -1.44906e-05
2.55882e-05 0.00070843 3.81131e-06
-1.44906e-05 3.81131e-06 0.0007282
0.000871935 1.50779e-05 1.77423e-06
1.50779e-05 -2.63916e-05 -3.19224e-06
1.77423e-06 -3.19224e-06 -2.9306e-05
0.00165011 1.96008e-05 5.55595e-06
1.96008e-05 0.000371852 -1.11897e-06
5.55595e-06 -1.11897e-06 0.000389802
0.00224727 1.74327e-05 1.123e-05
1.74327e-05 0.000673424 -3.89062e-06
1.123e-05 -3.89062e-06 0.000695192
0.000958306 1.73726e-05 -6.57751e-07
1.73726e-05 2.66934e-05 -1.30603e-06
-6.57751e-07 -1.30603e-06 -2.72542e-05
0.000911798 -1.04433e-05 -6.91649e-07
-1.04433e-05 -2.39614e-06 -1.93713e-06
-6.91649e-07 -1.93713e-06 -3.40631e-05
0.000872934 8.65663e-06 -5.26105e-07
8.65663e-06 -1.52133e-05 -5.48759e-07
-5.26105e-07 -5.48759e-07 -6.73609e-05
0.000884072 -1.26748e-05 -1.14062e-06
-1.26748e-05 -2.45551e-05 -3.30154e-06
-1.14062e-06 -3.30154e-06 -2.62845e-05
0.000800372 -8.04559e-06 -2.39121e-07
-8.04559e-06 -6.05236e-05 -5.95815e-07
-2.39121e-07 -5.95815e-07 -9.07492e-05
0.00107307 -2.30244e-06 1.39145e-07
-2.30244e-06 8.61453e-05 6.42254e-07
1.39145e-07 6.42254e-07 3.74946e-05
0.00220056 -1.30211e-05 -8.89498e-06
-1.30211e-05 0.000645256 -4.00001e-06
-8.89498e-06 -4.00001e-06 0.000668243
0.000875751 -9.53276e-06 -9.62948e-08
-9.53276e-06 -3.2662e-05 -2.14822e-08
-9.62948e-08 -2.14822e-08 -3.21996e-05
0.000681552 -6.45582e-06 1.12374e-07
-6.45582e-06 -0.000122672 1.20262e-06
1.12374e-07 1.20262e-06 -0.000151139
0.00215437 -8.47843e-06 -1.16341e-06
-8.47843e-06 0.000618591 1.95975e-08
-1.16341e-06 1.95975e-08 0.000642656
0.000870102 -6.24624e-06 4.71944e-07
-6.24624e-06 -3.84887e-05 3.14221e-06
4.71944e-07 3.14221e-06 -3.62939e-05
0.00212031 -4.00308e-06 2.27247e-06
-4.00308e-06 0.000599374 3.88815e-06
2.27247e-06 3.88815e-06 0.000624124
0.00132886 1.80221e-06 6.2595e-07
1.80221e-06 0.000256128 3.7191e-06
6.2595e-07 3.7191e-06 0.000128029
0.00123318 -7.59026e-06 3.44817e-06
-7.59026e-06 0.000268033 -7.58994e-07
3.44817e-06 -7.58994e-07 0.000157426
0.00120488 -1.16113e-05 -1.85653e-05
-1.16113e-05 0.000289871 2.27183e-06
-1.85653e-05 2.27183e-06 0.000217825
0.000942814 6.75259e-06 -2.0875e-07
6.75259e-06 1.77759e-05 -1.03753e-06
-2.0875e-07 -1.03753e-06 -4.97433e-05
0.00112478 2.8525e-05 -2.42603e-07
2.8525e-05 0.000113676 -6.47282e-07
-2.42603e-07 -6.47282e-07 3.82326e-05
0.00108042 2.91985e-05 1.04985e-06
2.91985e-05 9.46277e-05 9.54913e-07
1.04985e-06 9.54913e-07 3.01835e-05
0.000927238 1.21791e-05 -3.91972e-08
1.21791e-05 1.22323e-05 1.63523e-08
-3.91972e-08 1.63523e-08 -5.40853e-05
0.00106801 2.12862e-05 1.84211e-07
2.12862e-05 8.93386e-05 3.5496e-07
1.84211e-07 3.5496e-07 1.61114e-05
0.0010404 2.71877e-05 -3.98447e-07
2.71877e-05 7.35542e-05 -6.5968e-07
-3.98447e-07 -6.5968e-07 -7.18285e-07
0.00105136 5.12876e-05 -1.81454e-07
5.12876e-05 8.37879e-05 -7.13779e-08
-1.81454e-07 -7.13779e-08 3.17425e-06
0.00102762 2.71864e-05 -7.1515e-06
2.71864e-05 0.000129138 -4.724e-06
-7.1515e-06 -4.724e-06 2.39683e-05
0.00113086 1.22908e-05 1.74771e-06
1.22908e-05 0.000146546 -6.65349e-06
1.74771e-06 -6.65349e-06 3.36415e-05
0.00102921 -6.52533e-06 -8.37914e-06
-6.52533e-06 0.000139827 4.57324e-06
-8.37914e-06 4.57324e-06 4.11091e-05
0.000139825 8.81848e-06 4.2327e-06
8.81848e-06 -0.000714439 5.99862e-06
4.2327e-06 5.99862e-06 -0.000637705
0.000945376 -4.70799e-05 -6.1201e-05
-4.70799e-05 -0.000513624 5.81692e-05
-6.1201e-05 5.81692e-05 -0.000707889
0.00200884 7.69362e-05 5.27401e-05
7.69362e-05 -2.64867e-05 -5.53933e-05
5.27401e-05 -5.53933e-05 -0.000822484
0.00454649 0.00019942 1.869e-05
0.00019942 0.000815026 -2.53877e-05
1.869e-05 -2.53877e-05 0.00098451
0.00141677 -0.000190631 -2.30138e-05
-0.000190631 -0.000221842 2.06061e-05
-2.30138e-05 2.06061e-05 -0.000471292
0.00320173 -7.27526e-05 2.29489e-05
-7.27526e-05 -0.000135288 -4.91283e-05
2.29489e-05 -4.91283e-05 -0.000878639
0.00350418 -2.25766e-05 -6.24581e-06
-2.25766e-05 0.000318063 2.04953e-06
-6.24581e-06 2.04953e-06 0.00045087
0.00199903 -1.75681e-05 9.97848e-07
-1.75681e-05 0.000297351 3.53036e-06
9.97848e-07 3.53036e-06 0.000504375
0.00149037 -0.000150416 3.19274e-05
-0.000150416 0.000136276 -2.36869e-05
3.19274e-05 -2.36869e-05 5.57587e-06
0.0032462 -0.00025044 -1.81821e-05
-0.00025044 -0.000545388 -0.000105175
-1.81821e-05 -0.000105175 -0.000843564
-6.31209e-05 -9.08798e-05 2.45301e-05
-9.08798e-05 -0.00121111 4.50688e-05
2.45301e-05 4.50688e-05 -0.0010686
-0.00065521 -7.39389e-05 -3.72638e-06
-7.39389e-05 -0.00127103 1.73929e-06
-3.72638e-06 1.73929e-06 -0.00100072
0.00113557 4.48652e-06 -5.98881e-07
4.48652e-06 0.000112773 -5.97327e-07
-5.98881e-07 -5.97327e-07 3.1714e-05
0.00102825 9.50801e-06 7.37028e-08
9.50801e-06 6.74168e-05 -2.07246e-07
7.37028e-08 -2.07246e-07 -1.37768e-05
0.000980047 -4.30449e-07 1.09961e-08
-4.30449e-07 5.25333e-05 4.39385e-07
1.09961e-08 4.39385e-07 -2.88075e-05
0.00102793 2.18933e-05 8.33144e-08
2.18933e-05 7.20275e-05 -4.16839e-08
8.33144e-08 -4.16839e-08 -6.96478e-07
0.00197722 -0.000144855 1.16605e-05
-0.000144855 0.000465294 4.36311e-06
1.16605e-05 4.36311e-06 0.000415871
0.00116567 4.45685e-05 2.93293e-06
4.45685e-05 0.000349436 1.27616e-06
2.93293e-06 1.27616e-06 0.000167826
0.000979666 1.52099e-05 1.32672e-07
1.52099e-05 3.60532e-05 1.10156e-06
1.32672e-07 1.10156e-06 -4.62184e-05
0.00102041 2.04779e-05 -4.13354e-08
2.04779e-05 5.72656e-05 1.01108e-06
-4.13354e-08 1.01108e-06 -3.22684e-05
0.0015304 -8.30642e-07 -4.45034e-07
-8.30642e-07 0.000295213 -1.2327e-06
-4.45034e-07 -1.2327e-06 0.00020885
0.000994864 1.82329e-05 -7.63743e-07
1.82329e-05 4.40026e-05 1.44759e-08
-7.63743e-07 1.44759e-08 -4.07748e-05
0.00100354 -1.08397e-06 -1.19872e-06
-1.08397e-06 4.06669e-05 6.02343e-07
-1.19872e-06 6.02343e-07 -5.08928e-05
0.000588297 -3.91735e-05 1.10725e-05
-3.91735e-05 0.00022527 -1.27553e-06
1.10725e-05 -1.27553e-06 2.83172e-05
0.000844324 8.82033e-06 2.71921e-06
8.82033e-06 4.63567e-05 4.87168e-06
2.71921e-06 4.87168e-06 1.24048e-06
0.00119855 3.23934e-07 1.10498e-07
3.23934e-07 0.000149568 -3.22302e-06
1.10498e-07 -3.22302e-06 5.7529e-05
0.000295057 1.67263e-05 5.50596e-06
1.67263e-05 0.000316985 9.85584e-07
5.50596e-06 9.85584e-07 3.21108e-05
0.00167128 -3.48289e-05 7.75525e-06
-3.48289e-05 0.000459202 7.95429e-07
7.75525e-06 7.95429e-07 0.000345715
0.00150604 -3.50669e-06 -1.17079e-05
-3.50669e-06 0.000459663 8.72389e-07
-1.17079e-05 8.72389e-07 0.000334964
0.00109252 -4.03504e-06 3.34837e-07
-4.03504e-06 0.000151999 -3.25192e-07
3.34837e-07 -3.25192e-07 1.82832e-05
0.000717327 -2.73085e-06 -3.53318e-06
-2.73085e-06 -5.26392e-05 -4.35324e-07
-3.53318e-06 -4.35324e-07 -0.000176174
0.000440755 2.439e-05 -2.57826e-06
2.439e-05 -9.25231e-05 6.44291e-06
-2.57826e-06 6.44291e-06 -0.000177229
0.00134182 8.81979e-05 -4.48928e-05
8.81979e-05 0.000558796 7.49828e-06
-4.48928e-05 7.49828e-06 0.000598143
0.00105167 -3.5902e-06 -5.19963e-08
-3.5902e-06 9.57967e-05 4.78414e-06
-5.19963e-08 4.78414e-06 -4.02766e-05
0.00320441 0.000177254 2.06818e-05
0.000177254 -4.65998e-05 -8.65336e-05
2.06818e-05 -8.65336e-05 -0.000570183
0.0048451 0.000234409 -1.58599e-05
0.000234409 0.00101818 1.87743e-05
-1.58599e-05 1.87743e-05 0.00115275
0.00120407 -2.41475e-05 9.28285e-06
-2.41475e-05 0.000246593 -6.57849e-06
9.28285e-06 -6.57849e-06 0.000130108
0.00226362 9.68634e-05 -3.2463e-06
9.68634e-05 0.000480927 -7.41107e-07
-3.2463e-06 -7.41107e-07 0.000744553
-4.47617e-05 -8.09449e-06 1.97499e-05
-8.09449e-06 0.000109882 -1.83412e-07
1.97499e-05 -1.83412e-07 -7.67658e-05
0.00124236 -1.45324e-05 -3.77659e-06
-1.45324e-05 0.000273514 6.6358e-07
-3.77659e-06 6.6358e-07 0.00015
0.00118459 -3.98396e-06 4.22399e-06
-3.98396e-06 0.000214081 -2.55548e-07
4.22399e-06 -2.55548e-07 0.000153631
0.0019715 -3.59563e-05 -1.14637e-05
-3.59563e-05 0.000652555 1.79724e-05
-1.14637e-05 1.79724e-05 0.000597519
0.000482904 0.000176827 -1.93259e-06
0.000176827 -0.000355578 2.31315e-06
-1.93259e-06 2.31315e-06 3.49217e-06
0.00129904 0.000286747 5.06748e-06
0.000286747 -0.000329036 -1.09156e-05
5.06748e-06 -1.09156e-05 -0.000278263
0.00306891 1.93955e-05 2.03037e-05
1.93955e-05 0.000286344 -9.82423e-06
2.03037e-05 -9.82423e-06 -0.000755077
0.000533584 -5.97572e-05 7.93452e-06
-5.97572e-05 0.000317453 -1.6043e-05
7.93452e-06 -1.6043e-05 9.29923e-05
0.0013722 -1.20901e-05 -1.02856e-05
-1.20901e-05 0.000404042 1.2941e-06
-1.02856e-05 1.2941e-06 0.000314265
-0.00121852 6.68218e-05 7.82654e-06
6.68218e-05 -0.00115844 -6.03182e-06
7.82654e-06 -6.03182e-06 -0.00106253
3.99422e-05 0.00022743 5.35382e-05
0.00022743 -7.81188e-05 -2.93461e-05
5.35382e-05 -2.93461e-05 -2.24555e-05
0.00618793 0.000377327 3.69109e-05
0.000377327 0.0017167 -4.91092e-05
3.69109e-05 -4.91092e-05 0.000822991
0.00216701 -0.000170505 -5.17969e-05
-0.000170505 0.00015122 0.00010765
-5.17969e-05 0.00010765 -0.000356322
0.000985399 -1.11902e-05 -2.36987e-06
-1.11902e-05 0.00022433 1.19702e-06
-2.36987e-06 1.19702e-06 8.52888e-06
0.000572265 -2.61401e-05 1.4841e-07
-2.61401e-05 0.000110851 -1.02141e-06
1.4841e-07 -1.02141e-06 -0.000160468
0.00145276 -0.000105238 3.01557e-06
-0.000105238 0.00043115 4.49811e-08
3.01557e-06 4.49811e-08 0.000183379
0.000700103 -1.96746e-05 -8.56076e-07
-1.96746e-05 -1.80397e-05 -1.55135e-07
-8.56076e-07 -1.55135e-07 -0.000133387
0.000496126 -4.86732e-05 1.80691e-08
-4.86732e-05 -4.14681e-05 2.82946e-07
1.80691e-08 2.82946e-07 -0.000251189
0.00124643 -9.70363e-05 2.11405e-06
-9.70363e-05 0.00023345 4.60587e-06
2.11405e-06 4.60587e-06 4.42984e-05
0.00159711 -8.30136e-05 -1.54011e-06
-8.30136e-05 0.00038097 1.679e-08
-1.54011e-06 1.679e-08 0.000251493
0.00124571 -7.90293e-05 -7.6801e-08
-7.90293e-05 0.000211814 7.52317e-07
-7.6801e-08 7.52317e-07 5.25865e-05
0.00118527 -9.09633e-05 -5.75001e-07
-9.09633e-05 0.00012218 2.12075e-07
-5.75001e-07 2.12075e-07 -3.03741e-05
0.0011092 -6.70973e-05 -5.70597e-07
-6.70973e-05 0.000125384 -8.03403e-07
-5.70597e-07 -8.03403e-07 3.16473e-06
0.00154719 -8.8575e-05 7.56721e-08
-8.8575e-05 0.000306832 2.15806e-07
7.56721e-08 2.15806e-07 0.000180893
0.00131772 -8.51055e-05 -2.91264e-07
-8.51055e-05 0.000163172 9.87275e-08
-2.91264e-07 9.87275e-08 3.77379e-05
0.00132218 -7.85862e-05 -1.68571e-06
-7.85862e-05 0.000135516 7.73061e-08
-1.68571e-06 7.73061e-08 2.84031e-05
0.00151803 -8.00587e-05 -2.07406e-06
-8.00587e-05 0.000275362 3.03232e-06
-2.07406e-06 3.03232e-06 0.000177777
0.00134515 -8.03615e-05 -3.95875e-07
-8.03615e-05 0.000184567 3.76794e-07
-3.95875e-07 3.76794e-07 7.30919e-05
0.000798322 -5.4363e-05 1.37668e-07
-5.4363e-05 -4.93225e-05 -6.38908e-08
1.37668e-07 -6.38908e-08 -0.000130252
0.000966492 -6.12217e-05 9.24368e-07
-6.12217e-05 3.03008e-05 -3.04316e-07
9.24368e-07 -3.04316e-07 -5.8005e-05
0.00108226 -6.85431e-05 6.98787e-07
-6.85431e-05 7.72351e-05 -1.29624e-06
6.98787e-07 -1.29624e-06 -2.80003e-05
0.00110966 -5.3815e-05 -1.57223e-07
-5.3815e-05 0.00011745 1.08373e-07
-1.57223e-07 1.08373e-07 3.98206e-05
0.00115986 -6.1394e-05 -2.1547e-08
-6.1394e-05 0.000140401 -1.91591e-07
-2.1547e-08 -1.91591e-07 6.01774e-05
0.0009246 -5.66061e-05 1.96742e-06
-5.66061e-05 2.43588e-05 -4.25322e-07
1.96742e-06 -4.25322e-07 -5.69344e-05
0.000920777 -8.76329e-07 -6.6953e-07
-8.76329e-07 2.24189e-05 1.00595e-06
-6.6953e-07 1.00595e-06 -4.35924e-05
0.00093481 -4.04358e-05 -9.11269e-08
-4.04358e-05 3.87105e-05 1.89937e-07
-9.11269e-08 1.89937e-07 -3.72925e-05
0.00107265 -5.56337e-05 7.84473e-07
-5.56337e-05 0.00011084 -4.35811e-07
7.84473e-07 -4.35811e-07 2.92341e-05
0.00088679 1.48562e-05 -2.11297e-06
1.48562e-05 -7.90799e-07 2.20544e-06
-2.11297e-06 2.20544e-06 -4.27261e-05
0.000985984 -8.16886e-06 -2.46774e-07
-8.16886e-06 4.9248e-05 1.72156e-08
-2.46774e-07 1.72156e-08 -1.32869e-05
0.00107765 -4.55969e-05 4.82008e-07
-4.55969e-05 0.000101217 -2.84589e-07
4.82008e-07 -2.84589e-07 2.74483e-05
0.000846632 2.20306e-05 -3.84153e-06
2.20306e-05 -2.34479e-05 4.72727e-06
-3.84153e-06 4.72727e-06 -3.21242e-05
0.000901707 1.47055e-05 3.16554e-07
1.47055e-05 4.07815e-06 -2.84963e-08
3.16554e-07 -2.84963e-08 -3.44132e-05
0.000974004 -1.06797e-05 1.26622e-06
-1.06797e-05 3.88171e-05 -1.07589e-06
1.26622e-06 -1.07589e-06 -2.01929e-05
0.00089923 1.68104e-05 1.1397e-06
1.68104e-05 -7.76122e-07 -2.13852e-06
1.1397e-06 -2.13852e-06 -3.59091e-05
0.000839463 2.00381e-05 1.17666e-07
2.00381e-05 -3.20242e-05 -3.56518e-08
1.17666e-07 -3.56518e-08 -3.8513e-05
0.00233686 2.96112e-05 -1.64147e-05
2.96112e-05 0.000733678 3.77801e-06
-1.64147e-05 3.77801e-06 0.000752055
0.000866007 1.77414e-05 2.13998e-06
1.77414e-05 -2.44829e-05 -3.27434e-06
2.13998e-06 -3.27434e-06 -2.89965e-05
0.00229763 2.5603e-05 6.3954e-07
2.5603e-05 0.000708492 4.38021e-08
6.3954e-07 4.38021e-08 0.000728124
0.00226938 2.15689e-05 1.34956e-05
2.15689e-05 0.000689391 -3.87726e-06
1.34956e-05 -3.87726e-06 0.000710109
0.00103659 2.63025e-05 -5.40906e-07
2.63025e-05 6.74712e-05 -1.05264e-06
-5.40906e-07 -1.05264e-06 -2.33262e-06
0.000976442 1.25415e-05 -6.13985e-07
1.25415e-05 3.36734e-05 -1.50123e-06
-6.13985e-07 -1.50123e-06 -2.30888e-05
0.000903425 -1.63452e-05 -7.66192e-07
-1.63452e-05 -4.32099e-06 -2.07098e-06
-7.66192e-07 -2.07098e-06 -3.83625e-05
0.000969086 1.2517e-05 8.18977e-08
1.2517e-05 3.16148e-05 -3.9828e-08
8.18977e-08 -3.9828e-08 -2.20571e-05
0.000872927 -1.53073e-05 -1.56549e-06
-1.53073e-05 -2.59137e-05 -3.38791e-06
-1.56549e-06 -3.38791e-06 -2.97582e-05
0.000919107 -1.18694e-05 -7.94978e-09
-1.18694e-05 1.52607e-06 -4.38619e-09
-7.94978e-09 -4.38619e-09 -3.0201e-05
0.000957617 1.69009e-05 1.57441e-07
1.69009e-05 2.76958e-05 7.50444e-07
1.57441e-07 7.50444e-07 -2.35748e-05
0.00226094 -1.74099e-05 -1.12601e-05
-1.74099e-05 0.000679795 -4.04181e-06
-1.12601e-05 -4.04181e-06 0.000701525
0.000866409 -1.25768e-05 -1.00232e-07
-1.25768e-05 -3.34127e-05 -2.56421e-08
-1.00232e-07 -2.56421e-08 -3.50294e-05
0.000933214 -8.353e-06 2.39886e-07
-8.353e-06 6.80188e-06 1.28789e-06
2.39886e-07 1.28789e-06 -2.2844e-05
0.00219733 -1.2905e-05 -1.03439e-06
-1.2905e-05 0.000643207 2.99604e-08
-1.03439e-06 2.99604e-08 0.000666347
0.000860334 -9.42312e-06 7.1313e-07
-9.42312e-06 -4.04034e-05 3.20762e-06
7.1313e-07 3.20762e-06 -3.98323e-05
0.00215095 -8.33566e-06 5.21278e-06
-8.33566e-06 0.000616542 3.90616e-06
5.21278e-06 3.90616e-06 0.000640726
0.000979285 1.09136e-05 -1.13266e-05
1.09136e-05 0.000101855 -1.37531e-07
-1.13266e-05 -1.37531e-07 -2.17821e-05
0.00117217 1.38639e-06 8.6847e-07
1.38639e-06 0.000167723 -5.88436e-07
8.6847e-07 -5.88436e-07 3.81871e-05
0.00132898 -6.28209e-06 -6.80784e-06
-6.28209e-06 0.000322959 -2.28285e-06
-6.80784e-06 -2.28285e-06 0.000212691
0.00098111 1.75103e-05 -7.57191e-08
1.75103e-05 3.88611e-05 1.37107e-08
-7.57191e-08 1.37107e-08 -2.93108e-05
0.00107147 2.61513e-05 4.31592e-08
2.61513e-05 8.59388e-05 2.49224e-07
4.31592e-08 2.49224e-07 1.01301e-05
0.000994668 3.06596e-05 -8.71213e-07
3.06596e-05 5.11265e-05 -1.25762e-06
-8.71213e-07 -1.25762e-06 -2.72097e-05
0.000946898 2.02735e-05 -2.29369e-07
2.02735e-05 2.36502e-05 -1.22544e-06
-2.29369e-07 -1.22544e-06 -5.1638e-05
0.00114062 4.35671e-05 -3.726e-07
4.35671e-05 0.000125829 -7.07774e-07
-3.726e-07 -7.07774e-07 4.48996e-05
0.000908635 1.54724e-05 1.8631e-07
1.54724e-05 3.91568e-06 9.15638e-07
1.8631e-07 9.15638e-07 -6.30048e-05
0.000997641 9.81751e-06 2.67239e-07
9.81751e-06 5.14375e-05 9.89034e-07
2.67239e-07 9.89034e-07 -2.17908e-05
0.00102906 3.52815e-05 -1.14408e-07
3.52815e-05 6.92658e-05 -1.95625e-08
-1.14408e-07 -1.95625e-08 -5.61111e-06
0.00104611 2.71495e-05 3.79952e-07
2.71495e-05 7.75213e-05 4.62358e-07
3.79952e-07 4.62358e-07 -1.4468e-06
0.00108886 2.98456e-05 -2.75802e-07
2.98456e-05 0.000101582 -6.41779e-07
-2.75802e-07 -6.41779e-07 2.11698e-05
0.000915765 3.22419e-06 -9.68572e-06
3.22419e-06 0.000107612 3.17493e-06
-9.68572e-06 3.17493e-06 3.89519e-05
0.00091069 2.78476e-05 3.48354e-07
2.78476e-05 5.86002e-05 -2.07045e-06
3.48354e-07 -2.07045e-06 -4.58964e-05
0.0004623 1.13056e-05 5.83274e-07
1.13056e-05 -0.00026834 -1.87442e-06
5.83274e-07 -1.87442e-06 -0.000388392
0.00108368 -1.05805e-05 6.91679e-06
-1.05805e-05 -0.000229267 5.95486e-06
6.91679e-06 5.95486e-06 -3.30959e-05
-0.00170817 1.64635e-05 -2.62044e-06
1.64635e-05 -0.00215667 -6.82793e-05
-2.62044e-06 -6.82793e-05 -0.00196249
0.00141005 -0.000228946 -6.70845e-05
-0.000228946 -0.000361714 8.97864e-05
-6.70845e-05 8.97864e-05 -0.000714622
0.00707219 0.000124513 -1.42169e-05
0.000124513 0.00148968 -4.69661e-05
-1.42169e-05 -4.69661e-05 0.0010851
0.000986373 -0.000195563 -3.71939e-05
-0.000195563 -0.000323254 3.00556e-05
-3.71939e-05 3.00556e-05 -0.000706463
0.00755959 -0.000121887 2.28863e-05
-0.000121887 0.00177499 1.93903e-06
2.28863e-05 1.93903e-06 0.00134268
0.000970353 -0.000168159 5.42375e-06
-0.000168159 -0.00078276 -2.08277e-05
5.42375e-06 -2.08277e-05 -0.000668704
9.73555e-05 -8.14734e-05 2.48843e-06
-8.14734e-05 -0.000825579 -1.15949e-06
2.48843e-06 -1.15949e-06 -0.000539675
0.00177886 -7.45194e-05 -2.50785e-05
-7.45194e-05 0.000296161 -5.52863e-05
-2.50785e-05 -5.52863e-05 -0.000117904
0.00703017 -0.000277809 -1.65284e-05
-0.000277809 0.00157177 4.9172e-05
-1.65284e-05 4.9172e-05 0.00104731
0.00557662 -0.000324348 1.53443e-05
-0.000324348 0.00166738 2.44677e-05
1.53443e-05 2.44677e-05 0.00181244
0.00112737 -0.000153996 2.19754e-06
-0.000153996 -0.000118594 9.3909e-07
2.19754e-06 9.3909e-07 0.000299269
0.000952573 2.54554e-05 -8.16913e-07
2.54554e-05 4.01121e-05 -4.60677e-07
-8.16913e-07 -4.60677e-07 -3.74085e-05
0.00110363 4.3654e-06 -1.18842e-07
4.3654e-06 0.000100878 1.28097e-07
-1.18842e-07 1.28097e-07 1.91651e-05
0.00101656 8.64476e-06 2.69963e-07
8.64476e-06 6.14142e-05 4.3192e-07
2.69963e-07 4.3192e-07 -1.99906e-05
0.000991263 -3.86333e-05 2.04369e-05
-3.86333e-05 0.000387946 -2.64815e-06
2.04369e-05 -2.64815e-06 0.000246026
0.0012647 -9.79983e-06 4.33807e-07
-9.79983e-06 0.00025163 -2.56675e-07
4.33807e-07 -2.56675e-07 0.000210979
0.00103469 1.31935e-05 -8.71763e-08
1.31935e-05 6.36793e-05 1.93531e-06
-8.71763e-08 1.93531e-06 -2.07935e-05
0.000980568 -1.40045e-05 -6.32329e-07
-1.40045e-05 2.80036e-05 2.67892e-06
-6.32329e-07 2.67892e-06 -6.40325e-05
0.00107 -4.10514e-06 1.02163e-07
-4.10514e-06 8.82538e-05 5.73399e-08
1.02163e-07 5.73399e-08 -3.05894e-06
0.000892496 -3.63121e-05 1.09197e-06
-3.63121e-05 9.37292e-05 2.15417e-06
1.09197e-06 2.15417e-06 -2.92451e-05
-8.09353e-05 1.73643e-05 1.89421e-06
1.73643e-05 8.87991e-05 -6.56816e-06
1.89421e-06 -6.56816e-06 -0.000195525
0.000439533 1.45815e-05 -2.05117e-06
1.45815e-05 -0.000107908 4.44518e-07
-2.05117e-06 4.44518e-07 -0.00024471
0.00133659 4.8886e-05 4.66808e-06
4.8886e-05 0.000531703 5.93867e-06
4.66808e-06 5.93867e-06 0.000352239
0.00198783 -6.71161e-06 -1.30292e-05
-6.71161e-06 0.000822608 -1.69991e-06
-1.30292e-05 -1.69991e-06 0.00073821
0.00107117 -4.07116e-06 -3.97797e-06
-4.07116e-06 0.000182804 -2.79612e-07
-3.97797e-06 -2.79612e-07 5.3636e-05
0.0009302 -3.63496e-06 6.66258e-07
-3.63496e-06 6.46861e-05 5.20245e-07
6.66258e-07 5.20245e-07 -7.07875e-05
-0.000139834 1.99271e-07 -8.42071e-06
1.99271e-07 3.75887e-05 1.72074e-05
-8.42071e-06 1.72074e-05 -0.000120739
0.000126538 2.3472e-05 4.02745e-05
2.3472e-05 -0.000420267 -5.15974e-05
4.02745e-05 -5.15974e-05 -0.000770381
0.00131187 -1.37322e-05 6.00053e-06
-1.37322e-05 0.000311486 3.48642e-06
6.00053e-06 3.48642e-06 0.000188028
0.00802309 0.000183653 3.19583e-05
0.000183653 0.00199564 -7.28513e-06
3.19583e-05 -7.28513e-06 0.00108321
0.00356575 0.000362335 -3.25264e-05
0.000362335 0.000887393 1.94531e-05
-3.25264e-05 1.94531e-05 0.000865272
0.00138978 -8.17645e-06 1.61151e-05
-8.17645e-06 0.000368779 -5.16103e-06
1.61151e-05 -5.16103e-06 0.000297084
-0.000342168 0.000189554 -9.70083e-06
0.000189554 -0.000856712 1.39594e-05
-9.70083e-06 1.39594e-05 -0.000492386
-0.000147805 -2.2379e-05 -8.16228e-06
-2.2379e-05 3.3896e-05 7.29452e-08
-8.16228e-06 7.29452e-08 -0.000193227
0.00122316 -1.30226e-05 4.62207e-06
-1.30226e-05 0.000307247 -3.72452e-07
4.62207e-06 -3.72452e-07 0.00021861
-0.00110155 7.7778e-05 3.81484e-06
7.7778e-05 -0.00102804 -2.54441e-06
3.81484e-06 -2.54441e-06 -0.000920677
0.00184607 -0.000115746 8.4751e-06
-0.000115746 0.000346469 3.22304e-05
8.4751e-06 3.22304e-05 -5.84192e-05
0.00292216 0.000324697 -3.10166e-06
0.000324697 0.000928911 -1.48559e-06
-3.10166e-06 -1.48559e-06 0.000886569
0.00603461 0.000131141 2.20118e-05
0.000131141 0.00154192 -1.13745e-05
2.20118e-05 -1.13745e-05 0.0003774
0.00169305 -6.30743e-05 1.14478e-05
-6.30743e-05 0.000394764 2.15975e-06
1.14478e-05 2.15975e-06 0.000400624
-0.000998783 1.44556e-05 -3.6844e-06
1.44556e-05 -0.000950427 6.67227e-07
-3.6844e-06 6.67227e-07 -0.000978291
0.00243154 0.000224373 4.32802e-05
0.000224373 0.000892802 -1.59467e-05
4.32802e-05 -1.59467e-05 0.000832381
0.00349531 0.000295882 -2.68009e-05
0.000295882 0.000664208 2.27171e-05
-2.68009e-05 2.27171e-05 -0.000211053
0.00168384 -8.48063e-05 8.13487e-06
-8.48063e-05 0.000181444 4.21296e-05
8.13487e-06 4.21296e-05 -9.33004e-05
0.000591431 -1.32031e-05 -9.78462e-07
-1.32031e-05 0.000119158 3.25535e-06
-9.78462e-07 3.25535e-06 -0.000152487
0.000966716 -9.47342e-05 6.3933e-07
-9.47342e-05 0.000215498 -1.91363e-06
6.3933e-07 -1.91363e-06 -5.72474e-05
0.00256703 -0.000172855 3.20068e-07
-0.000172855 0.000744021 2.39602e-06
3.20068e-07 2.39602e-06 0.000545335
0.000139707 -2.54625e-05 -1.42722e-06
-2.54625e-05 -0.000199874 1.84932e-06
-1.42722e-06 1.84932e-06 -0.000412781
0.000871647 -8.62247e-05 1.00424e-06
-8.62247e-05 5.41278e-05 8.06175e-08
1.00424e-06 8.06175e-08 -0.000136974
0.00131438 -0.000114343 -7.31567e-07
-0.000114343 0.000132255 1.28885e-06
-7.31567e-07 1.28885e-06 -1.20373e-05
0.00136136 -8.13428e-05 -1.61085e-06
-8.13428e-05 0.000258493 -4.16981e-08
-1.61085e-06 -4.16981e-08 0.000100642
0.00121907 -9.01397e-05 -1.03566e-06
-9.01397e-05 0.000134257 -8.77891e-07
-1.03566e-06 -8.77891e-07 -1.24702e-05
0.00157398 -9.94584e-05 -1.00702e-06
-9.94584e-05 0.000231216 -3.33739e-07
-1.00702e-06 -3.33739e-07 0.000117038
0.00143206 -8.56978e-05 -2.06609e-07
-8.56978e-05 0.00024812 -1.2105e-06
-2.06609e-07 -1.2105e-06 0.000121057
0.00127154 -8.25578e-05 3.26119e-07
-8.25578e-05 0.000137298 -9.33592e-07
3.26119e-07 -9.33592e-07 1.47142e-05
0.00141635 -8.07798e-05 -1.53631e-06
-8.07798e-05 0.000144764 -1.65814e-06
-1.53631e-06 -1.65814e-06 4.26677e-05
0.00131919 -7.27562e-05 -1.33649e-06
-7.27562e-05 8.18487e-05 -8.92833e-07
-1.33649e-06 -8.92833e-07 -8.81101e-06
0.00114315 -7.11056e-05 -1.34809e-06
-7.11056e-05 6.25818e-05 1.01566e-06
-1.34809e-06 1.01566e-06 -3.69234e-05
0.00124384 -7.59632e-05 3.28455e-07
-7.59632e-05 9.50425e-05 -8.5577e-07
3.28455e-07 -8.5577e-07 -1.09847e-05
0.00125277 -6.92207e-05 -8.79361e-07
-6.92207e-05 0.000156451 1.99977e-06
-8.79361e-07 1.99977e-06 6.90002e-05
0.00124263 -7.32113e-05 -2.51429e-07
-7.32113e-05 0.00014091 5.05657e-07
-2.51429e-07 5.05657e-07 4.15314e-05
0.00127764 -7.89711e-05 8.11795e-07
-7.89711e-05 0.000150508 -1.76499e-06
8.11795e-07 -1.76499e-06 3.74995e-05
0.00101294 -5.60811e-05 -3.6942e-07
-5.60811e-05 6.1294e-05 -4.46304e-07
-3.6942e-07 -4.46304e-07 -1.45298e-05
0.000880068 -5.62806e-05 -1.85283e-07
-5.62806e-05 -8.08438e-06 -7.32969e-07
-1.85283e-07 -7.32969e-07 -8.805e-05
0.00111104 -6.49215e-05 2.16624e-06
-6.49215e-05 0.000102556 -2.14225e-06
2.16624e-06 -2.14225e-06 1.49534e-05
0.000957196 -1.82798e-05 -6.10678e-07
-1.82798e-05 4.24913e-05 8.35789e-07
-6.10678e-07 8.35789e-07 -2.6151e-05
0.00104114 -5.10925e-05 1.60859e-07
-5.10925e-05 8.44248e-05 3.07452e-07
1.60859e-07 3.07452e-07 7.05685e-06
0.00108821 -5.92472e-05 5.1752e-07
-5.92472e-05 0.00010617 4.21539e-07
5.1752e-07 4.21539e-07 2.56478e-05
0.000873999 2.96048e-05 -1.90539e-06
2.96048e-05 -1.65988e-06 2.09521e-06
-1.90539e-06 2.09521e-06 -4.80432e-05
0.00097606 -2.9754e-06 -7.23343e-08
-2.9754e-06 4.94392e-05 6.83737e-09
-7.23343e-08 6.83737e-09 -1.6644e-05
0.000972688 -3.9477e-05 1.27451e-07
-3.9477e-05 5.6006e-05 -1.83527e-07
1.27451e-07 -1.83527e-07 -1.92979e-05
0.00149073 2.83039e-05 -1.03404e-05
2.83039e-05 0.000311135 3.28848e-06
-1.03404e-05 3.28848e-06 0.000303351
0.000892771 1.40025e-05 9.23957e-08
1.40025e-05 2.25117e-06 -2.80702e-08
9.23957e-08 -2.80702e-08 -3.96074e-05
0.000991582 -8.67464e-06 8.80751e-07
-8.67464e-06 5.10772e-05 -1.02994e-06
8.80751e-07 -1.02994e-06 -1.1126e-05
0.00104636 2.14994e-05 -1.53363e-05
2.14994e-05 8.10415e-05 3.83981e-06
-1.53363e-05 3.83981e-06 9.1251e-05
0.0011774 2.43902e-05 -3.76535e-06
2.43902e-05 0.000145964 5.0351e-07
-3.76535e-06 5.0351e-07 0.000138642
0.000891862 1.90542e-05 1.4514e-06
1.90542e-05 -4.87832e-07 -2.11721e-06
1.4514e-06 -2.11721e-06 -3.90614e-05
0.000856199 2.03458e-05 2.52873e-06
2.03458e-05 -2.37388e-05 -3.38392e-06
2.52873e-06 -3.38392e-06 -3.03344e-05
0.0023441 2.95937e-05 5.45254e-07
2.95937e-05 0.000738081 4.70913e-08
5.45254e-07 4.70913e-08 0.000756249
0.00229911 2.55836e-05 1.55707e-05
2.55836e-05 0.000709962 -3.85548e-06
1.55707e-05 -3.85548e-06 0.000729445
0.000986718 2.56684e-05 -8.53619e-07
2.56684e-05 4.51353e-05 -1.32032e-06
-8.53619e-07 -1.32032e-06 -2.79443e-05
0.000985734 1.58398e-06 -6.29851e-07
1.58398e-06 3.84123e-05 -1.66089e-06
-6.29851e-07 -1.66089e-06 -2.11838e-05
0.00101962 2.03269e-05 -1.10177e-07
2.03269e-05 5.83711e-05 1.47766e-08
-1.10177e-07 1.47766e-08 -1.16654e-05
0.00089538 -2.01409e-05 -9.71503e-07
-2.01409e-05 -6.22122e-06 -2.26041e-06
-9.71503e-07 -2.26041e-06 -4.24243e-05
0.00097855 6.10649e-06 2.53864e-07
6.10649e-06 3.45736e-05 -6.87614e-08
2.53864e-07 -6.87614e-08 -2.18962e-05
0.000861902 -1.75417e-05 -2.02082e-06
-1.75417e-05 -2.72112e-05 -3.4611e-06
-2.02082e-06 -3.4611e-06 -3.29521e-05
0.00091089 -1.2852e-05 -2.5489e-07
-1.2852e-05 -5.87629e-07 2.97889e-10
-2.5489e-07 2.97889e-10 -3.45678e-05
0.000980234 1.49186e-05 6.44427e-07
1.49186e-05 3.78435e-05 1.42648e-06
6.44427e-07 1.42648e-06 -1.62743e-05
0.00232045 -2.16358e-05 -1.36833e-05
-2.16358e-05 0.000714455 -4.04506e-06
-1.36833e-05 -4.04506e-06 0.000734858
0.000855553 -1.51913e-05 -1.48953e-07
-1.51913e-05 -3.45949e-05 -1.441e-08
-1.48953e-07 -1.441e-08 -3.83421e-05
0.000927985 -1.11603e-05 6.38974e-07
-1.11603e-05 6.17391e-06 1.9083e-06
6.38974e-07 1.9083e-06 -2.55603e-05
0.00225556 -1.73487e-05 -9.02698e-07
-1.73487e-05 0.000676562 3.77435e-08
-9.02698e-07 3.77435e-08 0.000698477
0.00084923 -1.2479e-05 9.65069e-07
-1.2479e-05 -4.20198e-05 3.30802e-06
9.65069e-07 3.30802e-06 -4.3527e-05
0.00219415 -1.27618e-05 7.79337e-06
-1.27618e-05 0.000641179 3.91875e-06
7.79337e-06 3.91875e-06 0.000664473
0.000608642 5.22659e-06 -1.07907e-05
5.22659e-06 -4.07949e-06 -4.73492e-06
-1.07907e-05 -4.73492e-06 -8.9834e-05
0.00093233 8.78987e-06 -1.05994e-06
8.78987e-06 7.2829e-05 -7.48283e-07
-1.05994e-06 -7.48283e-07 -5.17689e-05
0.000989245 1.02249e-06 -3.3528e-07
1.02249e-06 6.33078e-05 -3.31223e-06
-3.3528e-07 -3.31223e-06 -6.77794e-05
0.00103955 4.80318e-05 -9.17308e-07
4.80318e-05 7.69473e-05 -2.80815e-07
-9.17308e-07 -2.80815e-07 -2.0957e-06
0.00102774 1.71921e-05 2.68231e-07
1.71921e-05 6.29521e-05 1.01909e-06
2.68231e-07 1.01909e-06 -5.0842e-06
0.00101596 2.53828e-05 3.7255e-07
2.53828e-05 5.74361e-05 1.18402e-06
3.7255e-07 1.18402e-06 -1.89075e-05
0.00104274 2.01491e-05 6.6956e-08
2.01491e-05 7.24506e-05 -2.30413e-07
6.6956e-08 -2.30413e-07 -2.28566e-06
0.00104909 3.93777e-05 -1.47634e-07
3.93777e-05 7.97643e-05 -1.25399e-07
-1.47634e-07 -1.25399e-07 1.18906e-06
0.00105499 4.092e-05 1.17747e-07
4.092e-05 8.17713e-05 3.84251e-07
1.17747e-07 3.84251e-07 1.09213e-06
0.00105414 4.97963e-05 -1.08786e-06
4.97963e-05 8.35679e-05 -1.27801e-06
-1.08786e-06 -1.27801e-06 2.66397e-07
0.000948155 3.92571e-05 -3.98912e-07
3.92571e-05 3.1431e-05 -1.12336e-06
-3.98912e-07 -1.12336e-06 -5.05092e-05
0.00102051 4.45733e-05 5.81174e-07
4.45733e-05 6.61868e-05 6.79401e-07
5.81174e-07 6.79401e-07 -9.22636e-06
0.00100496 6.27869e-06 4.0217e-07
6.27869e-06 5.44149e-05 8.4462e-07
4.0217e-07 8.4462e-07 -2.33174e-05
0.00106953 3.16806e-05 -1.05736e-07
3.16806e-05 9.24174e-05 -7.60779e-09
-1.05736e-07 -7.60779e-09 1.18226e-05
0.00149794 3.73283e-05 1.0786e-06
3.73283e-05 0.000304185 -1.09674e-06
1.0786e-06 -1.09674e-06 0.000220794
0.00208352 -7.46723e-05 4.80213e-06
-7.46723e-05 0.000782036 3.52146e-06
4.80213e-06 3.52146e-06 0.000916597
0.000727509 7.95528e-06 1.4676e-06
7.95528e-06 -1.12892e-05 2.71208e-06
1.4676e-06 2.71208e-06 -7.91176e-05
0.000874412 2.83104e-05 1.08388e-05
2.83104e-05 3.98467e-05 1.95922e-08
1.08388e-05 1.95922e-08 -6.43653e-05
0.00148656 -9.88012e-05 2.20028e-06
-9.88012e-05 -3.1601e-05 -4.9221e-06
2.20028e-06 -4.9221e-06 0.000265519
0.00332608 -0.000225948 -1.40105e-06
-0.000225948 0.00012582 -9.22386e-05
-1.40105e-06 -9.22386e-05 0.000230986
0.00311102 5.48831e-05 -2.38083e-05
5.48831e-05 -0.000567806 0.000103684
-2.38083e-05 0.000103684 -0.000849729
0.00087191 -0.000188135 -5.85866e-05
-0.000188135 -6.98997e-05 6.7266e-05
-5.85866e-05 6.7266e-05 -0.000321885
0.00207827 -5.45952e-05 -1.56429e-05
-5.45952e-05 0.000684421 2.55753e-06
-1.56429e-05 2.55753e-06 0.000426359
0.0003571 -0.000155867 8.47209e-08
-0.000155867 -0.00045698 -1.0732e-06
8.47209e-08 -1.0732e-06 -8.62591e-05
0.00522831 -8.55684e-05 1.38312e-05
-8.55684e-05 0.00062829 5.3472e-05
1.38312e-05 5.3472e-05 -9.64506e-05
-0.000630266 -0.000201573 -6.6633e-06
-0.000201573 -0.000936388 -1.23408e-05
-6.6633e-06 -1.23408e-05 -0.000788718
0.00234434 0.000129796 -6.0165e-05
0.000129796 0.000609407 -4.98466e-05
-6.0165e-05 -4.98466e-05 0.000386866
0.00687273 -0.00024327 4.44919e-06
-0.00024327 0.00195688 3.50966e-05
4.44919e-06 3.50966e-05 0.00122686
-0.000105864 -0.000178689 3.46543e-05
-0.000178689 -9.83127e-05 2.05591e-05
3.46543e-05 2.05591e-05 -4.70183e-06
0.000837038 6.89492e-05 -3.43268e-06
6.89492e-05 7.65169e-06 -2.62093e-06
-3.43268e-06 -2.62093e-06 -6.67287e-05
0.00116746 2.98546e-05 2.11582e-06
2.98546e-05 0.000139752 2.59337e-07
2.11582e-06 2.59337e-07 6.30536e-05
0.00107257 1.65365e-05 -2.2676e-07
1.65365e-05 9.02079e-05 3.00069e-07
-2.2676e-07 3.00069e-07 7.2252e-06
-0.000634806 9.98879e-06 -4.57798e-06
9.98879e-06 -0.000228164 -1.53427e-05
-4.57798e-06 -1.53427e-05 -0.000512278
0.000376685 -2.4829e-05 -9.24781e-07
-2.4829e-05 -0.000149279 2.29659e-06
-9.24781e-07 2.29659e-06 -0.000282573
0.00091068 8.99851e-06 2.41216e-06
8.99851e-06 1.32852e-05 3.9522e-06
2.41216e-06 3.9522e-06 -7.77483e-05
0.00104486 3.55375e-05 4.36813e-08
3.55375e-05 0.000173164 2.07803e-07
4.36813e-08 2.07803e-07 3.93053e-05
0.000786616 2.56216e-05 1.63318e-06
2.56216e-05 0.000264236 -1.26238e-06
1.63318e-06 -1.26238e-06 9.86474e-05
-0.00117865 5.18825e-05 -1.82834e-06
5.18825e-05 -0.000778588 1.58294e-05
-1.82834e-06 1.58294e-05 -0.000948448
0.0026904 -1.82667e-05 -7.1024e-06
-1.82667e-05 0.00121563 -1.86668e-07
-7.1024e-06 -1.86668e-07 0.00122089
0.000925717 -4.8121e-06 -6.95972e-07
-4.8121e-06 0.000172913 -1.27953e-06
-6.95972e-07 -1.27953e-06 7.85186e-05
0.000654787 -4.48936e-06 4.40153e-06
-4.48936e-06 -8.25572e-05 3.82635e-07
4.40153e-06 3.82635e-07 -0.000216256
0.000137451 -2.86912e-05 8.48302e-06
-2.86912e-05 0.000184239 1.44987e-05
8.48302e-06 1.44987e-05 -5.26108e-05
0.000877277 -9.09168e-05 -5.92622e-06
-9.09168e-05 -6.16836e-05 -4.82085e-05
-5.92622e-06 -4.82085e-05 -0.000358731
0.00118473 -1.39607e-05 1.95404e-05
-1.39607e-05 0.000279791 -2.31889e-06
1.95404e-05 -2.31889e-06 0.000192767
0.00160069 0.000139971 -2.91393e-05
0.000139971 -0.000187395 3.14339e-05
-2.91393e-05 3.14339e-05 -0.00122102
-0.00135092 0.00022041 -5.44739e-05
0.00022041 -0.000934534 2.92675e-05
-5.44739e-05 2.92675e-05 -0.000922664
0.00125765 9.87692e-05 -3.17082e-06
9.87692e-05 0.000308444 2.8334e-06
-3.17082e-06 2.8334e-06 0.000476054
0.00159404 -7.40525e-05 2.14764e-06
-7.40525e-05 0.000366849 2.13902e-06
2.14764e-06 2.13902e-06 0.000356176
0.00125216 2.72132e-05 -2.11566e-06
2.72132e-05 0.0003378 8.64143e-08
-2.11566e-06 8.64143e-08 0.000358443
-0.00189735 0.000119899 -5.9076e-06
0.000119899 -0.000956353 3.38424e-06
-5.9076e-06 3.38424e-06 -0.000976008
0.00330177 -0.00014887 -1.21409e-05
-0.00014887 0.000672254 2.10958e-05
-1.21409e-05 2.10958e-05 0.000234144
0.00507878 0.000255482 -6.91164e-06
0.000255482 0.00136346 3.41358e-06
-6.91164e-06 3.41358e-06 0.000527144
0.000958727 -0.000100295 5.60048e-06
-0.000100295 -0.00018702 7.6344e-06
5.60048e-06 7.6344e-06 -0.000132575
-0.00277313 5.12968e-05 5.50635e-05
5.12968e-05 -0.00172028 -1.5186e-05
5.50635e-05 -1.5186e-05 -0.00171791
0.00499824 0.00024885 1.25386e-05
0.00024885 0.00142896 -3.59799e-06
1.25386e-05 -3.59799e-06 0.000764892
0.00336809 8.41601e-06 -1.56409e-05
8.41601e-06 0.000629872 2.96098e-05
-1.56409e-05 2.96098e-05 0.000320714
0.000557031 -8.39976e-05 -2.12731e-06
-8.39976e-05 4.3223e-05 -1.6384e-06
-2.12731e-06 -1.6384e-06 -0.000260648
0.00111879 -0.000134331 6.93922e-07
-0.000134331 7.5e-05 1.09334e-06
6.93922e-07 1.09334e-06 -0.000131147
0.00166793 -0.000166012 -3.5814e-06
-0.000166012 0.00016985 3.48735e-06
-3.5814e-06 3.48735e-06 4.06308e-05
0.00038467 -7.2581e-05 -1.51345e-06
-7.2581e-05 -0.000175788 -1.79162e-06
-1.51345e-06 -1.79162e-06 -0.000372415
0.00124688 -0.000111952 -1.26527e-06
-0.000111952 9.31159e-05 -1.35199e-06
-1.26527e-06 -1.35199e-06 -5.02842e-05
0.00202973 -0.000119203 -5.79154e-06
-0.000119203 0.000337049 -9.05172e-07
-5.79154e-06 -9.05172e-07 0.000246261
0.0012078 -8.85968e-05 -5.78265e-07
-8.85968e-05 0.000125033 -2.53598e-06
-5.78265e-07 -2.53598e-06 -1.72269e-05
0.00131192 -9.20047e-05 9.84657e-07
-9.20047e-05 0.000104883 -7.94767e-07
9.84657e-07 -7.94767e-07 -7.86229e-06
0.00168326 -8.53656e-05 -1.69595e-06
-8.53656e-05 0.000201597 -2.37944e-06
-1.69595e-06 -2.37944e-06 0.000124865
0.00118459 -7.90314e-05 7.61382e-08
-7.90314e-05 9.11375e-05 -1.3828e-06
7.61382e-08 -1.3828e-06 -2.90244e-05
0.00126158 -7.61652e-05 -2.92488e-07
-7.61652e-05 6.31927e-05 -6.05426e-07
-2.92488e-07 -6.05426e-07 -3.73205e-05
0.00143276 -7.02958e-05 -1.17083e-06
-7.02958e-05 8.45323e-05 -2.00398e-06
-1.17083e-06 -2.00398e-06 1.32113e-05
0.00140346 -6.59952e-05 -1.2657e-06
-6.59952e-05 9.04761e-05 -1.24649e-06
-1.2657e-06 -1.24649e-06 2.02596e-05
0.00131078 -7.20628e-05 -1.72245e-06
-7.20628e-05 9.94343e-05 -2.26942e-07
-1.72245e-06 -2.26942e-07 9.48088e-06
0.00130396 -7.07046e-05 5.8319e-07
-7.07046e-05 7.43737e-05 2.17715e-07
5.8319e-07 2.17715e-07 -1.4493e-05
0.000846333 -6.0105e-05 -1.29068e-06
-6.0105e-05 -7.00845e-05 1.48298e-06
-1.29068e-06 1.48298e-06 -0.000160511
0.00126127 -7.34961e-05 7.39769e-07
-7.34961e-05 0.000121292 -7.06849e-07
7.39769e-07 -7.06849e-07 2.2918e-05
0.00114696 -7.28239e-05 1.50767e-06
-7.28239e-05 4.54677e-05 -1.33983e-06
1.50767e-06 -1.33983e-06 -5.9443e-05
0.0010514 -6.0325e-05 -2.91798e-07
-6.0325e-05 7.1448e-05 8.55616e-07
-2.91798e-07 8.55616e-07 -6.78702e-06
0.00103844 -6.34813e-05 2.76812e-07
-6.34813e-05 5.36171e-05 -1.53058e-07
2.76812e-07 -1.53058e-07 -3.39629e-05
0.000963167 -6.62509e-05 8.56395e-07
-6.62509e-05 4.45991e-06 -1.92766e-06
8.56395e-07 -1.92766e-06 -9.67086e-05
0.000996365 -3.87834e-05 -1.23528e-06
-3.87834e-05 5.85013e-05 2.37417e-07
-1.23528e-06 2.37417e-07 -1.0529e-05
0.00105789 -5.68697e-05 -1.95541e-07
-5.68697e-05 8.25004e-05 -2.82712e-07
-1.95541e-07 -2.82712e-07 6.6407e-06
0.000971941 -5.84905e-05 1.46447e-08
-5.84905e-05 3.83051e-05 -1.20776e-06
1.46447e-08 -1.20776e-06 -4.07351e-05
0.000905044 7.6683e-06 -2.14139e-06
7.6683e-06 2.08422e-05 2.02953e-06
-2.14139e-06 2.02953e-06 -2.96504e-05
0.000991489 -1.98898e-05 3.55835e-07
-1.98898e-05 5.87161e-05 2.2731e-07
3.55835e-07 2.2731e-07 -9.80289e-06
0.000973272 -4.81849e-05 6.94697e-07
-4.81849e-05 5.16143e-05 3.76721e-07
6.94697e-07 3.76721e-07 -2.54697e-05
0.00078276 2.69074e-05 -3.97428e-06
2.69074e-05 -4.37818e-05 3.49074e-06
-3.97428e-06 3.49074e-06 -5.75436e-05
0.000890401 1.0209e-05 -2.04498e-07
1.0209e-05 5.27089e-06 -5.29966e-08
-2.04498e-07 -5.29966e-08 -4.04925e-05
0.00101918 -5.42836e-06 7.02424e-07
-5.42836e-06 7.04208e-05 -1.05604e-06
7.02424e-07 -1.05604e-06 4.2687e-06
0.00243106 4.13376e-05 -7.79013e-06
4.13376e-05 0.000795481 1.57016e-06
-7.79013e-06 1.57016e-06 0.000809913
0.000802463 2.44217e-05 1.62212e-07
2.44217e-05 -3.96476e-05 3.52747e-08
1.62212e-07 3.52747e-08 -5.12558e-05
0.000896854 1.275e-05 2.25859e-06
1.275e-05 4.70925e-06 -2.0794e-06
2.25859e-06 -2.0794e-06 -3.73632e-05
0.00241046 3.34894e-05 4.7685e-07
3.34894e-05 0.000777527 4.61896e-08
4.7685e-07 4.61896e-08 0.000794128
0.000842113 2.2709e-05 3.10505e-06
2.2709e-05 -2.50185e-05 -3.48331e-06
3.10505e-06 -3.48331e-06 -3.41895e-05
0.00235016 2.953e-05 1.76869e-05
2.953e-05 0.000741876 -3.87366e-06
1.76869e-05 -3.87366e-06 0.000759844
0.00108389 4.21497e-05 -6.99845e-07
4.21497e-05 9.77109e-05 -3.1266e-07
-6.99845e-07 -3.1266e-07 2.35675e-05
0.00100865 2.53742e-05 -1.32914e-07
2.53742e-05 5.65734e-05 -2.19754e-07
-1.32914e-07 -2.19754e-07 -1.63244e-05
0.000985286 2.682e-06 -9.54861e-07
2.682e-06 4.35448e-05 -1.64084e-06
-9.54861e-07 -1.64084e-06 -2.01503e-05
0.000890995 -1.76943e-05 -1.47652e-06
-1.76943e-05 -5.48417e-06 -2.47487e-06
-1.47652e-06 -2.47487e-06 -4.4168e-05
0.000979852 1.27528e-07 7.94779e-08
1.27528e-07 3.60941e-05 -8.83099e-09
7.94779e-08 -8.83099e-09 -2.354e-05
0.000995935 2.35944e-05 5.66098e-07
2.35944e-05 4.69944e-05 1.18638e-06
5.66098e-07 1.18638e-06 -2.39381e-05
0.000850736 -1.96384e-05 -2.58575e-06
-1.96384e-05 -2.89113e-05 -3.53869e-06
-2.58575e-06 -3.53869e-06 -3.62442e-05
0.000902213 -1.59788e-05 -1.44503e-07
-1.59788e-05 -3.33339e-06 -1.48891e-08
-1.44503e-07 -1.48891e-08 -3.92968e-05
0.000976457 5.11192e-07 5.66905e-07
5.11192e-07 3.32997e-05 1.51546e-06
5.66905e-07 1.51546e-06 -2.28425e-05
0.00236573 -2.56711e-05 -1.59462e-05
-2.56711e-05 0.000742253 -4.02715e-06
-1.59462e-05 -4.02715e-06 0.000761382
0.00084489 -1.73911e-05 -1.34378e-07
-1.73911e-05 -3.5677e-05 -1.02413e-08
-1.34378e-07 -1.02413e-08 -4.1334e-05
0.000917267 -1.20505e-05 8.27418e-07
-1.20505e-05 2.44012e-06 1.99973e-06
8.27418e-07 1.99973e-06 -3.14184e-05
0.0023173 -2.16452e-05 -8.7278e-07
-2.16452e-05 0.000712329 4.64719e-08
-8.7278e-07 4.64719e-08 0.000732895
0.000837243 -1.50692e-05 1.27651e-06
-1.50692e-05 -4.37377e-05 3.41292e-06
1.27651e-06 3.41292e-06 -4.73851e-05
0.00224946 -1.72327e-05 1.01327e-05
-1.72327e-05 0.000672964 3.94349e-06
1.01327e-05 3.94349e-06 0.00069507
0.000376733 -2.43665e-05 4.79025e-07
-2.43665e-05 -9.56935e-05 -1.53115e-07
4.79025e-07 -1.53115e-07 -0.000108264
0.000546254 7.62295e-06 -1.10529e-06
7.62295e-06 -4.2709e-05 -9.67354e-07
-1.10529e-06 -9.67354e-07 -0.000128502
0.000885703 6.63167e-06 9.01877e-06
6.63167e-06 4.3758e-05 -1.61533e-06
9.01877e-06 -1.61533e-06 -8.17921e-05
0.00102718 4.52928e-05 6.67971e-09
4.52928e-05 7.01297e-05 2.15605e-07
6.67971e-09 2.15605e-07 -9.03313e-06
0.00117514 5.83694e-05 -8.46409e-07
5.83694e-05 0.000149367 1.75338e-07
-8.46409e-07 1.75338e-07 7.11923e-05
0.00105925 5.38315e-05 -8.62177e-07
5.38315e-05 8.49034e-05 -3.79034e-07
-8.62177e-07 -3.79034e-07 3.17571e-06
0.00112349 1.69682e-05 1.82289e-09
1.69682e-05 0.000113431 4.7016e-07
1.82289e-09 4.7016e-07 3.95279e-05
0.0011148 4.16625e-05 5.63129e-07
4.16625e-05 0.00011316 8.79079e-07
5.63129e-07 8.79079e-07 3.49813e-05
0.000987224 3.03155e-05 3.07307e-07
3.03155e-05 4.5123e-05 1.41285e-06
3.07307e-07 1.41285e-06 -3.45117e-05
0.000992208 3.43215e-05 -1.68785e-07
3.43215e-05 5.23788e-05 4.62818e-08
-1.68785e-07 4.62818e-08 -2.90022e-05
0.00106355 4.40572e-05 1.2905e-07
4.40572e-05 8.72749e-05 5.56948e-08
1.2905e-07 5.56948e-08 4.69146e-06
0.00107733 4.74306e-05 -1.18154e-06
4.74306e-05 0.000105682 -1.48777e-06
-1.18154e-06 -1.48777e-06 1.82017e-05
0.000897947 4.05344e-05 -1.36742e-06
4.05344e-05 1.02033e-05 -2.38692e-06
-1.36742e-06 -2.38692e-06 -7.43501e-05
0.00106257 3.98821e-05 1.99093e-07
3.98821e-05 9.00057e-05 4.86559e-07
1.99093e-07 4.86559e-07 8.71913e-06
0.00123034 3.88123e-05 2.75873e-07
3.88123e-05 0.000174746 -4.92241e-08
2.75873e-07 -4.92241e-08 9.11895e-05
-0.00283795 -0.000103579 4.38805e-05
-0.000103579 -0.00153574 2.32027e-05
4.38805e-05 2.32027e-05 -0.00155533
0.0011439 -7.49847e-05 -6.81338e-07
-7.49847e-05 0.000255527 -6.26318e-07
-6.81338e-07 -6.26318e-07 0.000377835
0.000581859 1.28114e-05 1.11325e-05
1.28114e-05 -0.000106151 2.5041e-06
1.11325e-05 2.5041e-06 -0.00017362
-0.0002855 -0.00015604 5.18908e-07
-0.00015604 -0.000733965 -8.24966e-06
5.18908e-07 -8.24966e-06 -0.000406936
0.00388358 -0.00030395 -1.48738e-05
-0.00030395 0.00102438 -5.41441e-05
-1.48738e-05 -5.41441e-05 0.0011616
0.00512611 -8.51802e-05 3.72464e-05
-8.51802e-05 0.000805936 2.97427e-05
3.72464e-05 2.97427e-05 0.000300378
0.000617226 -4.51656e-05 -2.83954e-05
-4.51656e-05 -0.000101644 6.65435e-05
-2.83954e-05 6.65435e-05 -0.000640503
0.00194693 0.00011464 -3.57626e-05
0.00011464 0.000230062 -2.89184e-05
-3.57626e-05 -2.89184e-05 -0.00017237
0.00256063 -0.000264106 -1.21741e-06
-0.000264106 0.000764561 -1.69257e-06
-1.21741e-06 -1.69257e-06 0.000799417
0.0031516 -0.000101985 3.29247e-05
-0.000101985 0.00013357 4.44698e-05
3.29247e-05 4.44698e-05 -0.000608508
0.00147282 0.000134867 -7.12515e-05
0.000134867 -7.35013e-05 -8.55154e-05
-7.12515e-05 -8.55154e-05 -0.000490285
0.00309158 -1.63818e-05 -3.38982e-05
-1.63818e-05 0.000443449 -9.95439e-06
-3.38982e-05 -9.95439e-06 -0.000326733
0.00220824 0.000146991 7.33564e-06
0.000146991 0.000661253 -7.06209e-06
7.33564e-06 -7.06209e-06 0.000520028
0.000906094 6.88402e-05 -4.14439e-07
6.88402e-05 3.05917e-05 -4.83837e-07
-4.14439e-07 -4.83837e-07 -4.1494e-05
0.00133603 3.71155e-05 1.72517e-06
3.71155e-05 0.000217873 2.6386e-07
1.72517e-06 2.6386e-07 0.000141184
-0.000318176 -1.12157e-05 -1.22166e-05
-1.12157e-05 -0.000250537 -5.68419e-06
-1.22166e-05 -5.68419e-06 -0.000408532
0.0016285 5.45862e-05 2.31521e-06
5.45862e-05 0.000442676 -2.71138e-07
2.31521e-06 -2.71138e-07 0.000311173
0.00092488 0.00010745 5.93087e-06
0.00010745 0.000165948 1.9398e-06
5.93087e-06 1.9398e-06 2.64269e-05
6.88819e-05 0.000110432 2.10597e-05
0.000110432 -0.000385018 2.08263e-05
2.10597e-05 2.08263e-05 -0.00051392
-0.000837901 -2.0918e-05 7.2724e-05
-2.0918e-05 -0.000696231 -5.30607e-06
7.2724e-05 -5.30607e-06 -0.000665377
0.000728031 -1.17297e-05 -9.20436e-06
-1.17297e-05 7.63279e-05 4.33781e-07
-9.20436e-06 4.33781e-07 5.83054e-05
-0.000272578 -3.14781e-06 1.55593e-05
-3.14781e-06 -0.000561686 -1.03288e-06
1.55593e-05 -1.03288e-06 -0.000666012
0.00157359 -7.32761e-05 -2.68672e-05
-7.32761e-05 0.000419379 7.22475e-07
-2.68672e-05 7.22475e-07 0.000345367
0.00128283 -0.000108284 -3.89373e-05
-0.000108284 -0.000108997 -5.10651e-06
-3.89373e-05 -5.10651e-06 -0.000326463
0.00103786 1.4908e-05 -3.69363e-06
1.4908e-05 0.000214099 -2.33444e-06
-3.69363e-06 -2.33444e-06 0.00021553
0.00231213 0.000238402 1.41692e-05
0.000238402 0.000208214 -2.84533e-05
1.41692e-05 -2.84533e-05 -0.000700446
0.00409282 0.000185306 -9.61447e-05
0.000185306 0.00180076 2.26864e-05
-9.61447e-05 2.26864e-05 0.0017253
0.0016304 -0.000116336 1.2197e-05
-0.000116336 0.000178663 -9.0097e-07
1.2197e-05 -9.0097e-07 0.000192926
-0.000102378 8.63513e-05 -3.0513e-05
8.63513e-05 -0.000314717 3.28486e-06
-3.0513e-05 3.28486e-06 -0.000383228
0.00326492 0.000159719 -7.33482e-06
0.000159719 0.000662328 6.67595e-06
-7.33482e-06 6.67595e-06 -0.000172306
0.00106073 2.75286e-05 -6.97108e-06
2.75286e-05 -0.000298103 3.45989e-06
-6.97108e-06 3.45989e-06 -0.000359863
0.000322604 -8.14947e-05 3.21586e-07
-8.14947e-05 -0.000563426 5.66797e-06
3.21586e-07 5.66797e-06 -0.000479425
0.00474112 9.4026e-05 1.86887e-05
9.4026e-05 0.00134839 7.56442e-06
1.86887e-05 7.56442e-06 0.000676977
0.00154347 7.56594e-05 -1.88929e-06
7.56594e-05 0.000299211 -9.31576e-07
-1.88929e-06 -9.31576e-07 3.12553e-05
-0.000515029 -9.35953e-05 1.13199e-06
-9.35953e-05 -0.000679281 -7.15573e-06
1.13199e-06 -7.15573e-06 -0.000897024
0.00155163 -0.000159187 -2.18138e-07
-0.000159187 0.000135764 -4.97865e-07
-2.18138e-07 -4.97865e-07 1.72028e-06
0.00122925 -0.000139252 -1.66048e-05
-0.000139252 -0.000226043 8.32622e-06
-1.66048e-05 8.32622e-06 -0.000300441
0.00122573 -0.000110485 -1.69458e-06
-0.000110485 7.48069e-05 -3.20009e-06
-1.69458e-06 -3.20009e-06 -6.66945e-05
0.00147318 -0.000108042 -1.75343e-06
-0.000108042 6.10573e-05 6.50949e-07
-1.75343e-06 6.50949e-07 -2.73886e-05
0.00208232 -9.23959e-05 -6.11216e-06
-9.23959e-05 0.000271431 3.21122e-06
-6.11216e-06 3.21122e-06 0.000233632
0.00107459 -8.49618e-05 2.25389e-06
-8.49618e-05 -8.41437e-06 -6.57737e-07
2.25389e-06 -6.57737e-07 -0.000119486
0.00140287 -7.94526e-05 -4.25717e-07
-7.94526e-05 5.79947e-05 -3.52207e-07
-4.25717e-07 -3.52207e-07 -1.71126e-05
0.00160982 -6.88736e-05 -1.02418e-06
-6.88736e-05 8.67865e-05 -1.23686e-07
-1.02418e-06 -1.23686e-07 4.45789e-05
0.00109212 -7.13964e-05 1.66852e-06
-7.13964e-05 -2.53901e-05 -3.28623e-08
1.66852e-06 -3.28623e-08 -0.00012431
0.00132902 -6.80339e-05 1.87523e-07
-6.80339e-05 3.11309e-05 2.77796e-07
1.87523e-07 2.77796e-07 -3.9565e-05
0.0013503 -6.07596e-05 -4.92035e-07
-6.07596e-05 1.19628e-05 -2.52305e-07
-4.92035e-07 -2.52305e-07 -3.97229e-05
0.00159711 -6.10561e-05 -5.20258e-07
-6.10561e-05 0.000169954 -2.46908e-07
-5.20258e-07 -2.46908e-07 0.000110834
0.00139038 -6.43416e-05 -6.54178e-07
-6.43416e-05 8.36098e-05 1.28701e-06
-6.54178e-07 1.28701e-06 1.53475e-05
0.0013459 -6.48986e-05 -7.38025e-07
-6.48986e-05 8.51234e-05 -1.92711e-06
-7.38025e-07 -1.92711e-06 1.0825e-05
0.00129046 -6.84068e-05 -1.57983e-06
-6.84068e-05 0.000105374 4.00895e-07
-1.57983e-06 4.00895e-07 1.96757e-05
0.00137007 -7.28176e-05 6.69075e-07
-7.28176e-05 0.000130225 -2.34424e-07
6.69075e-07 -2.34424e-07 4.02806e-05
0.00127315 -6.84635e-05 2.10596e-06
-6.84635e-05 5.89699e-05 1.34805e-06
2.10596e-06 1.34805e-06 -2.80487e-05
0.000873329 -5.75632e-05 -1.45291e-06
-5.75632e-05 -4.28933e-05 1.86496e-06
-1.45291e-06 1.86496e-06 -0.000125332
0.00108622 -6.56478e-05 9.88986e-08
-6.56478e-05 4.97745e-05 -7.34684e-08
9.88986e-08 -7.34684e-08 -3.9732e-05
0.00137012 -7.5632e-05 2.26691e-06
-7.5632e-05 0.00017534 -2.22524e-06
2.26691e-06 -2.22524e-06 7.81246e-05
0.00099585 -4.5587e-05 -9.32719e-07
-4.5587e-05 5.20431e-05 4.95918e-07
-9.32719e-07 4.95918e-07 -1.826e-05
0.0010848 -6.07428e-05 6.73971e-08
-6.07428e-05 8.69806e-05 -1.59779e-07
6.73971e-08 -1.59779e-07 8.64779e-06
0.000846388 -5.83668e-05 4.82244e-07
-5.83668e-05 -3.86272e-05 -2.20945e-06
4.82244e-07 -2.20945e-06 -0.000126328
0.000894129 -2.20957e-06 -2.55105e-06
-2.20957e-06 2.05836e-05 1.79572e-06
-2.55105e-06 1.79572e-06 -3.38776e-05
0.00102396 -4.02329e-05 -7.19365e-08
-4.02329e-05 7.10569e-05 1.11535e-08
-7.19365e-08 1.11535e-08 2.12629e-06
0.00109815 -5.74786e-05 4.89471e-07
-5.74786e-05 0.000101437 -3.99736e-07
4.89471e-07 -3.99736e-07 2.55486e-05
0.000750222 3.05806e-05 -4.06173e-06
3.05806e-05 -5.10795e-05 3.53004e-06
-4.06173e-06 3.53004e-06 -6.81021e-05
0.000900475 8.61471e-06 -1.4957e-08
8.61471e-06 1.75803e-05 1.67464e-08
-1.4957e-08 1.67464e-08 -3.30992e-05
0.00102948 -2.18514e-05 1.28835e-06
-2.18514e-05 7.68018e-05 -3.85895e-07
1.28835e-06 -3.85895e-07 8.38187e-06
0.00253706 4.1897e-05 -2.18868e-05
4.1897e-05 0.000854016 3.66106e-06
-2.18868e-05 3.66106e-06 0.0008673
0.000798667 2.76679e-05 -1.91917e-09
2.76679e-05 -3.5142e-05 2.64901e-10
-1.91917e-09 2.64901e-10 -4.91738e-05
0.000908082 3.03055e-06 2.49915e-06
3.03055e-06 1.36695e-05 -2.06188e-06
2.49915e-06 -2.06188e-06 -3.20709e-05
0.00175434 3.31456e-05 8.28103e-06
3.31456e-05 0.000449622 -1.01761e-06
8.28103e-06 -1.01761e-06 0.000460931
0.000827749 2.50737e-05 3.72989e-06
2.50737e-05 -2.68383e-05 -3.51311e-06
3.72989e-06 -3.51311e-06 -3.85421e-05
0.00241971 3.35695e-05 1.96667e-05
3.35695e-05 0.000783339 -3.8742e-06
1.96667e-05 -3.8742e-06 0.00079958
0.00107424 4.53447e-05 -5.04831e-07
4.53447e-05 9.51096e-05 3.47103e-07
-5.04831e-07 3.47103e-07 2.12729e-05
0.00102689 3.86146e-05 1.75089e-07
3.86146e-05 6.81368e-05 3.95442e-07
1.75089e-07 3.95442e-07 -6.25467e-06
0.000978153 -1.86663e-07 -1.18659e-06
-1.86663e-07 4.30014e-05 -1.17532e-06
-1.18659e-06 -1.17532e-06 -2.33994e-05
0.00103215 3.28173e-05 5.6864e-07
3.28173e-05 6.97155e-05 9.31228e-07
5.6864e-07 9.31228e-07 -3.69729e-06
0.000987329 -3.08736e-06 -2.87164e-08
-3.08736e-06 4.427e-05 6.40538e-08
-2.87164e-08 6.40538e-08 -1.91143e-05
0.000890022 -1.1496e-05 -2.04951e-06
-1.1496e-05 -1.40934e-06 -2.52481e-06
-2.04951e-06 -2.52481e-06 -4.38057e-05
0.000840045 -2.21217e-05 -3.0264e-06
-2.21217e-05 -2.95669e-05 -3.6815e-06
-3.0264e-06 -3.6815e-06 -3.86802e-05
0.00089994 -1.57757e-05 -1.82241e-07
-1.57757e-05 -1.58842e-06 -5.0581e-08
-1.82241e-07 -5.0581e-08 -4.00639e-05
0.00097831 -6.92259e-06 3.96536e-07
-6.92259e-06 3.54551e-05 1.74388e-06
3.96536e-07 1.74388e-06 -2.38704e-05
0.0023935 -2.95545e-05 -1.78971e-05
-2.95545e-05 0.000761544 -3.95811e-06
-1.78971e-05 -3.95811e-06 0.000779468
0.000836492 -1.94483e-05 -1.55237e-07
-1.94483e-05 -3.58599e-05 8.84766e-09
-1.55237e-07 8.84766e-09 -4.31338e-05
0.000913432 -1.07375e-05 1.42207e-06
-1.07375e-05 1.86406e-06 2.15943e-06
1.42207e-06 2.15943e-06 -3.393e-05
0.00237026 -2.57589e-05 -7.34844e-07
-2.57589e-05 0.000744026 5.22654e-08
-7.34844e-07 5.22654e-08 0.000763264
0.00082841 -1.72628e-05 1.7323e-06
-1.72628e-05 -4.38241e-05 3.4797e-06
1.7323e-06 3.4797e-06 -4.94064e-05
0.00231464 -2.16403e-05 1.23625e-05
-2.16403e-05 0.00071045 3.96612e-06
1.23625e-05 3.96612e-06 0.000731179
0.000231119 4.38126e-05 0.000100886
4.38126e-05 -0.000267427 9.76251e-06
0.000100886 9.76251e-06 -0.000461676
0.00156953 -3.38726e-05 3.95963e-06
-3.38726e-05 0.000583702 3.33155e-08
3.95963e-06 3.33155e-08 0.000587027
0.000541569 1.0233e-05 1.42325e-05
1.0233e-05 -4.46065e-05 2.6315e-06
1.42325e-05 2.6315e-06 -0.000130337
0.00100224 4.29039e-05 1.23169e-06
4.29039e-05 5.68996e-05 6.19757e-07
1.23169e-06 6.19757e-07 -2.23986e-05
0.00101697 4.81556e-05 6.23361e-07
4.81556e-05 6.52989e-05 6.88098e-08
6.23361e-07 6.88098e-08 -1.64468e-05
0.00108624 5.62083e-05 -4.71002e-08
5.62083e-05 0.000106793 -6.1768e-08
-4.71002e-08 -6.1768e-08 2.9077e-05
0.00114187 6.06634e-05 -4.35728e-07
6.06634e-05 0.000137808 6.54311e-08
-4.35728e-07 6.54311e-08 5.96082e-05
0.00109573 5.69388e-05 -1.82621e-06
5.69388e-05 0.000112747 -1.20931e-07
-1.82621e-06 -1.20931e-07 3.07079e-05
0.00103366 3.75101e-05 4.68642e-07
3.75101e-05 7.30667e-05 1.31488e-06
4.68642e-07 1.31488e-06 -8.38616e-06
0.00105151 4.77798e-05 1.20523e-06
4.77798e-05 8.20249e-05 1.09605e-06
1.20523e-06 1.09605e-06 -8.06842e-07
0.000969712 5.25257e-05 -4.4095e-07
5.25257e-05 5.40082e-05 -3.49267e-07
-4.4095e-07 -3.49267e-07 -3.35903e-05
0.000554629 4.62207e-05 -1.65273e-06
4.62207e-05 -0.000148345 2.77626e-07
-1.65273e-06 2.77626e-07 -0.000232406
0.000814263 5.34907e-05 -2.02016e-06
5.34907e-05 -2.55364e-05 -1.73652e-06
-2.02016e-06 -1.73652e-06 -0.000114801
0.00182793 0.000100627 4.95654e-07
0.000100627 0.000439764 -4.32453e-06
4.95654e-07 -4.32453e-06 0.000337522
0.00108248 4.52817e-05 -1.45169e-06
4.52817e-05 0.000110439 5.75119e-08
-1.45169e-06 5.75119e-08 2.40534e-05
0.00105325 3.6784e-05 6.82063e-07
3.6784e-05 8.90612e-05 1.08328e-06
6.82063e-07 1.08328e-06 5.5543e-06
0.00723933 -9.67551e-05 -8.031e-06
-9.67551e-05 0.00198467 -1.21137e-05
-8.031e-06 -1.21137e-05 0.00131728
-0.000146796 -0.000130046 6.13181e-06
-0.000130046 -0.000384872 5.19161e-06
6.13181e-06 5.19161e-06 -0.000470575
0.00210036 -8.35331e-05 -9.62501e-06
-8.35331e-05 0.000770531 -4.02121e-06
-9.62501e-06 -4.02121e-06 0.000894349
-0.00206024 -0.000161164 -3.10617e-05
-0.000161164 -0.00134717 -2.5378e-05
-3.10617e-05 -2.5378e-05 -0.0012088
0.00751784 -0.000236049 6.48135e-05
-0.000236049 0.00206315 4.71016e-05
6.48135e-05 4.71016e-05 0.00106844
0.00161998 9.69084e-05 3.30954e-05
9.69084e-05 0.000349432 1.03951e-05
3.30954e-05 1.03951e-05 0.000117957
0.00156378 0.000129204 -2.88051e-05
0.000129204 7.39254e-05 -2.49517e-05
-2.88051e-05 -2.49517e-05 -0.000239851
0.00517024 -0.000183983 2.46204e-05
-0.000183983 0.00129196 1.66241e-05
2.46204e-05 1.66241e-05 0.000641143
0.00129873 5.63683e-05 -3.96405e-05
5.63683e-05 -7.29935e-05 -4.89771e-05
-3.96405e-05 -4.89771e-05 -0.000372784
0.00223179 0.000175116 1.75711e-05
0.000175116 0.000468992 8.68188e-06
1.75711e-05 8.68188e-06 0.000311127
0.000919499 9.96311e-05 -2.42502e-07
9.96311e-05 7.48536e-05 -5.27484e-06
-2.42502e-07 -5.27484e-06 -7.54311e-05
0.000884576 5.42476e-05 8.48462e-07
5.42476e-05 8.56832e-06 2.9438e-06
8.48462e-07 2.9438e-06 -5.92524e-05
0.00200872 0.000141397 -2.07054e-05
0.000141397 0.000663005 -2.10927e-05
-2.07054e-05 -2.10927e-05 0.000540033
-3.37963e-05 0.000127584 -3.60077e-06
0.000127584 -0.000531013 1.82062e-05
-3.60077e-06 1.82062e-05 -0.000647964
0.000722473 3.60049e-05 -9.95293e-07
3.60049e-05 -0.00043772 -4.87378e-06
-9.95293e-07 -4.87378e-06 -0.000912161
0.00156425 5.81372e-06 4.90407e-07
5.81372e-06 0.000336554 3.23841e-06
4.90407e-07 3.23841e-06 0.000226804
-0.00110842 -7.03249e-06 -6.43826e-06
-7.03249e-06 -0.000989189 -3.28506e-07
-6.43826e-06 -3.28506e-07 -0.00102714
0.00255169 -0.000136343 -3.50807e-05
-0.000136343 0.000661364 -2.10315e-06
-3.50807e-05 -2.10315e-06 0.000643238
0.00146043 2.32235e-05 2.96444e-05
2.32235e-05 -0.000478447 -2.57155e-05
2.96444e-05 -2.57155e-05 -0.00063146
0.000255649 -1.80168e-06 -0.000117613
-1.80168e-06 -0.000276502 2.2784e-05
-0.000117613 2.2784e-05 -0.000469597
0.00549527 0.000267463 -2.0275e-05
0.000267463 0.00182727 5.98996e-06
-2.0275e-05 5.98996e-06 0.00101523
0.00119502 -9.76863e-05 1.47762e-06
-9.76863e-05 -0.000128746 -1.98161e-06
1.47762e-06 -1.98161e-06 -6.56693e-05
0.00480483 0.000163132 2.87518e-05
0.000163132 0.00140305 2.76947e-06
2.87518e-05 2.76947e-06 0.00080857
0.00207043 8.28547e-05 2.67503e-05
8.28547e-05 0.000169599 -8.01176e-06
2.67503e-05 -8.01176e-06 -0.000144247
0.00267006 -6.74467e-05 -7.72207e-06
-6.74467e-05 0.000451111 2.46082e-06
-7.72207e-06 2.46082e-06 0.000482257
0.00110062 6.91226e-05 -2.98649e-05
6.91226e-05 0.000287056 1.08635e-05
-2.98649e-05 1.08635e-05 4.85023e-05
0.00137316 -0.000150225 9.07488e-06
-0.000150225 7.16382e-05 -7.26766e-06
9.07488e-06 -7.26766e-06 -6.6399e-05
0.00170793 -0.000143583 -4.06477e-06
-0.000143583 1.06025e-05 1.49325e-06
-4.06477e-06 1.49325e-06 -5.80176e-05
0.00190109 -8.62049e-05 -1.29044e-05
-8.62049e-05 1.28975e-05 3.66148e-06
-1.29044e-05 3.66148e-06 -1.16411e-05
0.000819991 -9.51422e-05 5.21535e-06
-9.51422e-05 -0.000259394 -1.37743e-06
5.21535e-06 -1.37743e-06 -0.000344791
0.00147545 -8.32041e-05 2.12822e-06
-8.32041e-05 -1.47426e-05 1.08384e-06
2.12822e-06 1.08384e-06 -5.00986e-05
0.00163946 -5.69213e-05 -1.57777e-06
-5.69213e-05 2.25198e-05 4.5173e-06
-1.57777e-06 4.5173e-06 4.70043e-06
0.00110835 -7.37393e-05 1.59116e-06
-7.37393e-05 -9.36298e-05 1.46512e-06
1.59116e-06 1.46512e-06 -0.000166881
0.0014495 -6.74518e-05 3.1803e-08
-6.74518e-05 8.12846e-06 1.67374e-06
3.1803e-08 1.67374e-06 -3.47627e-05
0.00151225 -5.50743e-05 8.8123e-07
-5.50743e-05 3.17802e-05 2.70832e-06
8.8123e-07 2.70832e-06 -4.9952e-06
0.00124054 -6.6132e-05 2.3728e-06
-6.6132e-05 -1.48278e-05 2.12816e-06
2.3728e-06 2.12816e-06 -8.49178e-05
0.00139647 -6.2064e-05 7.9685e-08
-6.2064e-05 3.60448e-05 1.01521e-06
7.9685e-08 1.01521e-06 -1.66962e-05
0.00145119 -5.48118e-05 6.97951e-08
-5.48118e-05 6.31219e-05 7.4214e-07
6.97951e-08 7.4214e-07 1.15606e-05
0.00141338 -5.87287e-05 -1.18983e-06
-5.87287e-05 8.04606e-05 1.00619e-06
-1.18983e-06 1.00619e-06 2.32907e-05
0.00156287 -6.0324e-05 8.74999e-07
-6.0324e-05 0.000168016 -1.04846e-06
8.74999e-07 -1.04846e-06 0.000102855
0.001393 -6.30182e-05 1.50637e-06
-6.30182e-05 8.47629e-05 2.95784e-06
1.50637e-06 2.95784e-06 1.8395e-05
0.00135816 -6.4635e-05 8.48867e-08
-6.4635e-05 9.065e-05 -4.49137e-07
8.48867e-08 -4.49137e-07 1.60584e-05
0.0013398 -6.28212e-05 -6.62489e-07
-6.28212e-05 9.59337e-05 -5.79818e-07
-6.62489e-07 -5.79818e-07 1.89186e-05
0.000980369 -5.84694e-05 -1.74338e-06
-5.84694e-05 -2.75465e-05 1.20475e-06
-1.74338e-06 1.20475e-06 -0.000109297
0.00128359 -6.79089e-05 3.8234e-08
-6.79089e-05 0.000103029 -1.56672e-07
3.8234e-08 -1.56672e-07 1.68976e-05
0.00143441 -7.36993e-05 2.09488e-06
-7.36993e-05 0.00016368 -3.20523e-07
2.09488e-06 -3.20523e-07 7.37143e-05
0.00103587 -5.22321e-05 -1.28646e-06
-5.22321e-05 5.60433e-05 1.15092e-06
-1.28646e-06 1.15092e-06 -1.69262e-05
0.00095362 -5.93177e-05 -3.83901e-07
-5.93177e-05 -6.62938e-07 4.42034e-07
-3.83901e-07 4.42034e-07 -8.26079e-05
0.00129797 -7.03949e-05 1.39703e-06
-7.03949e-05 0.000156051 -1.66329e-06
1.39703e-06 -1.66329e-06 6.74779e-05
0.000854602 -5.0484e-06 -2.32129e-06
-5.0484e-06 2.79264e-06 1.53534e-06
-2.32129e-06 1.53534e-06 -5.44965e-05
0.00103825 -4.71398e-05 -2.44479e-08
-4.71398e-05 7.16533e-05 -1.10825e-07
-2.44479e-08 -1.10825e-07 1.28109e-06
0.00112201 -6.12816e-05 5.85113e-07
-6.12816e-05 0.000104429 -1.20757e-06
5.85113e-07 -1.20757e-06 2.59869e-05
0.000708787 3.38352e-05 -3.97505e-06
3.38352e-05 -6.29938e-05 3.60945e-06
-3.97505e-06 3.60945e-06 -8.39218e-05
0.000905079 -3.98502e-06 -1.22396e-09
-3.98502e-06 2.39531e-05 9.92742e-08
-1.22396e-09 9.92742e-08 -3.01661e-05
0.00105102 -4.12818e-05 1.21712e-06
-4.12818e-05 8.33866e-05 -3.06631e-07
1.21712e-06 -3.06631e-07 1.45664e-05
0.0025885 4.64305e-05 -2.26542e-05
4.64305e-05 0.000887365 3.52597e-06
-2.26542e-05 3.52597e-06 0.000898822
0.000779406 3.17069e-05 -2.05049e-08
3.17069e-05 -3.55426e-05 -3.42462e-08
-2.05049e-08 -3.42462e-08 -5.29228e-05
0.000900179 -2.38775e-06 2.52884e-06
-2.38775e-06 1.55475e-05 -1.78398e-06
2.52884e-06 -1.78398e-06 -3.45739e-05
0.00252278 4.19546e-05 2.181e-07
4.19546e-05 0.000847729 7.10379e-08
2.181e-07 7.10379e-08 0.000860851
0.000819348 2.85556e-05 3.9044e-06
2.85556e-05 -2.40785e-05 -3.52435e-06
3.9044e-06 -3.52435e-06 -3.84013e-05
0.00247194 3.77204e-05 2.10977e-05
3.77204e-05 0.000816099 -3.78119e-06
2.10977e-05 -3.78119e-06 0.000830699
0.00106212 4.99787e-05 -6.93134e-07
4.99787e-05 9.42557e-05 -6.4897e-08
-6.93134e-07 -6.4897e-08 1.85078e-05
0.00103903 4.50986e-05 2.78437e-07
4.50986e-05 7.85084e-05 1.47097e-07
2.78437e-07 1.47097e-07 4.64119e-06
0.000911143 1.36858e-06 -1.54051e-06
1.36858e-06 1.1857e-05 -7.24714e-07
-1.54051e-06 -7.24714e-07 -5.63531e-05
0.000969663 3.2711e-05 1.24877e-06
3.2711e-05 3.81517e-05 1.06981e-06
1.24877e-06 1.06981e-06 -3.63037e-05
0.000951417 -1.19831e-07 -8.54257e-08
-1.19831e-07 2.96002e-05 1.99358e-07
-8.54257e-08 1.99358e-07 -3.7204e-05
0.000893207 -5.94308e-06 -2.45284e-06
-5.94308e-06 3.45713e-06 -2.22517e-06
-2.45284e-06 -2.22517e-06 -4.33022e-05
0.000980905 -3.31705e-06 8.01524e-07
-3.31705e-06 4.13967e-05 1.72327e-06
8.01524e-07 1.72327e-06 -2.20719e-05
0.000897725 -1.12431e-05 -1.19973e-07
-1.12431e-05 1.8166e-06 -5.87888e-08
-1.19973e-07 -5.87888e-08 -4.04599e-05
0.000829348 -2.51932e-05 -3.48438e-06
-2.51932e-05 -2.86148e-05 -3.79366e-06
-3.48438e-06 -3.79366e-06 -4.0332e-05
0.00242327 -3.34568e-05 -1.95667e-05
-3.34568e-05 0.000782485 -3.91057e-06
-1.95667e-05 -3.91057e-06 0.000799055
0.000827909 -2.17313e-05 -8.22951e-08
-2.17313e-05 -3.55664e-05 -1.32285e-08
-8.22951e-08 -1.32285e-08 -4.45718e-05
0.000905778 -1.44662e-05 1.357e-06
-1.44662e-05 7.67556e-07 2.39451e-06
1.357e-06 2.39451e-06 -3.75294e-05
0.00240884 -2.96913e-05 -6.26241e-07
-2.96913e-05 0.000768726 6.23088e-08
-6.26241e-07 6.23088e-08 0.000786708
0.000822982 -1.92625e-05 2.2301e-06
-1.92625e-05 -4.24705e-05 3.56166e-06
2.2301e-06 3.56166e-06 -4.96841e-05
0.00237332 -2.58142e-05 1.47405e-05
-2.58142e-05 0.000745052 3.96888e-06
1.47405e-05 3.96888e-06 0.000764408
0.00550285 4.79005e-06 2.60629e-05
4.79005e-06 0.00162346 -9.17355e-07
2.60629e-05 -9.17355e-07 0.00109827
-0.000637344 -2.66297e-05 1.45128e-05
-2.66297e-05 -0.00043589 9.60443e-07
1.45128e-05 9.60443e-07 -0.000460441
0.000302855 -2.30262e-05 1.61959e-06
-2.30262e-05 -0.000173822 6.99284e-08
1.61959e-06 6.99284e-08 -0.00018586
0.0010127 4.19985e-05 1.61649e-06
4.19985e-05 6.46007e-05 4.81623e-07
1.61649e-06 4.81623e-07 -1.719e-05
0.00100666 5.42589e-05 7.83852e-07
5.42589e-05 6.88535e-05 9.78753e-08
7.83852e-07 9.78753e-08 -8.42286e-06
0.00113529 5.77807e-05 1.48725e-07
5.77807e-05 0.000132442 -4.92113e-08
1.48725e-07 -4.92113e-08 5.05775e-05
0.00109435 5.95868e-05 -3.0551e-07
5.95868e-05 0.000114333 -1.8196e-07
-3.0551e-07 -1.8196e-07 3.61257e-05
0.00111979 6.16532e-05 1.84144e-06
6.16532e-05 0.000130145 6.64066e-07
1.84144e-06 6.64066e-07 4.93906e-05
0.000835626 5.33421e-05 -1.87338e-06
5.33421e-05 -8.10577e-06 5.55375e-07
-1.87338e-06 5.55375e-07 -8.85546e-05
0.000843797 4.82626e-05 1.2663e-06
4.82626e-05 -8.58908e-06 1.06967e-06
1.2663e-06 1.06967e-06 -9.54028e-05
0.000803172 5.27685e-05 6.59094e-07
5.27685e-05 -2.54405e-05 -1.288e-07
6.59094e-07 -1.288e-07 -0.000111076
0.000851736 5.25526e-05 8.30543e-07
5.25526e-05 1.16441e-06 1.22152e-07
8.30543e-07 1.22152e-07 -8.92441e-05
0.000493755 5.44156e-05 -4.20176e-07
5.44156e-05 -0.000195522 -4.22457e-09
-4.20176e-07 -4.22457e-09 -0.000281067
0.00260832 0.000119099 -5.18028e-08
0.000119099 0.00080259 -1.02146e-06
-5.18028e-08 -1.02146e-06 0.000707081
0.00181363 0.000117669 4.78079e-07
0.000117669 0.000315764 -4.19871e-06
4.78079e-07 -4.19871e-06 0.000198234
0.00122811 8.60893e-05 7.83495e-07
8.60893e-05 0.000150062 1.43242e-07
7.83495e-07 1.43242e-07 5.02076e-05
0.00123772 4.81569e-05 -7.49713e-07
4.81569e-05 0.000196865 1.34979e-06
-7.49713e-07 1.34979e-06 0.000108709
0.000925082 -4.53765e-05 -1.72752e-05
-4.53765e-05 -0.000223583 -1.96056e-05
-1.72752e-05 -1.96056e-05 -0.000346963
0.00371846 -9.15985e-05 -1.07557e-05
-9.15985e-05 0.000690457 -2.55668e-06
-1.07557e-05 -2.55668e-06 0.000142175
0.00285015 -0.000181798 -3.78604e-05
-0.000181798 0.00115844 -1.41586e-05
-3.78604e-05 -1.41586e-05 0.0010749
0.00409334 -0.000106278 9.66136e-05
-0.000106278 0.000829197 3.66422e-05
9.66136e-05 3.66422e-05 8.28942e-05
0.0028702 0.000156158 2.31355e-05
0.000156158 0.000792516 4.46208e-05
2.31355e-05 4.46208e-05 0.000615142
0.00104765 3.5032e-05 -1.59665e-05
3.5032e-05 -5.9146e-05 -4.22258e-06
-1.59665e-05 -4.22258e-06 -0.000194582
0.00115963 7.00011e-05 2.04841e-05
7.00011e-05 -0.000161433 1.20393e-05
2.04841e-05 1.20393e-05 -0.000222175
0.00194667 0.000174906 3.00829e-07
0.000174906 0.000327985 8.54113e-06
3.00829e-07 8.54113e-06 0.00018878
0.000261509 7.46791e-05 -1.49006e-06
7.46791e-05 -0.000235401 5.68087e-06
-1.49006e-06 5.68087e-06 -0.000383074
0.00218826 0.000203121 -5.75772e-05
0.000203121 0.000361392 -7.52998e-05
-5.75772e-05 -7.52998e-05 0.000293836
0.00202352 4.56786e-06 -0.000111978
4.56786e-06 0.000494016 -6.48355e-06
-0.000111978 -6.48355e-06 0.000211821
0.00527069 4.74553e-05 1.13604e-05
4.74553e-05 0.00170602 -8.04065e-07
1.13604e-05 -8.04065e-07 0.00119749
-0.00290754 -2.07282e-05 -6.93961e-05
-2.07282e-05 -0.0018673 5.55713e-06
-6.93961e-05 5.55713e-06 -0.00185679
0.00235893 -0.000113543 -2.31451e-06
-0.000113543 0.000453313 -2.3597e-06
-2.31451e-06 -2.3597e-06 0.000488853
0.000971032 8.35672e-05 3.51119e-05
8.35672e-05 -0.000267802 -9.84825e-06
3.51119e-05 -9.84825e-06 -0.000439233
0.000456644 -1.75122e-06 2.28837e-05
-1.75122e-06 -0.000422847 -2.84332e-06
2.28837e-05 -2.84332e-06 -0.000928763
0.00174734 -7.17162e-05 5.69889e-07
-7.17162e-05 -9.25878e-06 2.78904e-06
5.69889e-07 2.78904e-06 2.93292e-05
0.001322 9.4861e-05 2.72263e-06
9.4861e-05 0.000211924 -5.23331e-06
2.72263e-06 -5.23331e-06 8.84811e-06
0.00260514 -5.5178e-06 1.00253e-07
-5.5178e-06 0.000344534 -1.28201e-05
1.00253e-07 -1.28201e-05 0.00034046
0.00090781 6.02653e-05 3.4993e-06
6.02653e-05 -0.000212245 -2.14492e-06
3.4993e-06 -2.14492e-06 -0.000283472
0.00254098 -0.000152806 8.68093e-06
-0.000152806 0.000421879 -3.21905e-06
8.68093e-06 -3.21905e-06 0.000356055
0.00205778 -8.79594e-05 2.40946e-06
-8.79594e-05 9.08402e-05 -7.81187e-07
2.40946e-06 -7.81187e-07 6.93194e-05
0.00199574 -1.65824e-05 -2.60669e-06
-1.65824e-05 0.000161366 2.98876e-06
-2.60669e-06 2.98876e-06 0.000134667
0.00090359 -7.5384e-05 8.63632e-06
-7.5384e-05 -0.000285758 -1.36787e-06
8.63632e-06 -1.36787e-06 -0.000319517
0.00168861 -5.80344e-05 2.34465e-06
-5.80344e-05 5.73179e-05 5.52565e-08
2.34465e-06 5.52565e-08 3.69384e-05
0.00171034 -3.26557e-05 -4.76463e-07
-3.26557e-05 8.79296e-05 3.29579e-06
-4.76463e-07 3.29579e-06 4.66536e-05
0.00132573 -6.64192e-05 3.37645e-06
-6.64192e-05 -5.16964e-05 1.55928e-06
3.37645e-06 1.55928e-06 -9.55165e-05
0.00151528 -5.55581e-05 7.52427e-07
-5.55581e-05 4.05673e-05 7.77842e-07
7.52427e-07 7.77842e-07 1.79927e-06
0.00161813 -4.45206e-05 -3.4324e-07
-4.45206e-05 0.000101661 1.84019e-06
-3.4324e-07 1.84019e-06 4.88736e-05
0.00145296 -6.34126e-05 1.08621e-06
-6.34126e-05 6.52981e-05 1.73559e-06
1.08621e-06 1.73559e-06 1.14597e-05
0.00139059 -5.57875e-05 -1.08695e-07
-5.57875e-05 3.92647e-05 -3.08183e-08
-1.08695e-07 -3.08183e-08 -1.27371e-05
0.00139075 -5.30749e-05 1.39304e-06
-5.30749e-05 5.79233e-05 6.78715e-07
1.39304e-06 6.78715e-07 -5.95496e-06
0.00124876 -5.66319e-05 -2.43452e-07
-5.66319e-05 4.28413e-07 1.96787e-06
-2.43452e-07 1.96787e-06 -5.4834e-05
0.00142573 -5.76488e-05 -8.24597e-07
-5.76488e-05 9.96945e-05 -5.7153e-07
-8.24597e-07 -5.7153e-07 3.58437e-05
0.00152858 -5.90479e-05 2.04628e-07
-5.90479e-05 0.000165232 -3.5648e-07
2.04628e-07 -3.5648e-07 9.33788e-05
0.00136878 -6.4347e-05 9.21482e-07
-6.4347e-05 9.52813e-05 9.1744e-07
9.21482e-07 9.1744e-07 2.041e-05
0.00133983 -6.2438e-05 1.54008e-07
-6.2438e-05 9.62616e-05 -3.20402e-07
1.54008e-07 -3.20402e-07 1.88966e-05
0.001365 -6.09602e-05 -8.93143e-07
-6.09602e-05 0.000128716 1.73286e-07
-8.93143e-07 1.73286e-07 5.20599e-05
0.000851229 -4.90601e-05 -2.25426e-06
-4.90601e-05 -6.49038e-05 1.51072e-06
-2.25426e-06 1.51072e-06 -0.000139608
0.0010653 -6.01257e-05 -3.16491e-07
-6.01257e-05 1.76136e-05 2.5616e-07
-3.16491e-07 2.5616e-07 -6.3805e-05
0.00127685 -6.74156e-05 1.42928e-06
-6.74156e-05 0.000100781 -9.09114e-07
1.42928e-06 -9.09114e-07 1.42112e-05
0.000865618 -1.73442e-05 -2.2215e-06
-1.73442e-05 2.96485e-06 1.6626e-06
-2.2215e-06 1.6626e-06 -5.70043e-05
0.00105825 -5.23388e-05 7.30758e-08
-5.23388e-05 6.65792e-05 1.54082e-08
7.30758e-08 1.54082e-08 -6.39977e-06
0.00105213 -6.15537e-05 4.90205e-07
-6.15537e-05 5.03431e-05 -8.6677e-07
4.90205e-07 -8.6677e-07 -3.11139e-05
0.000679734 3.65296e-05 -3.92513e-06
3.65296e-05 -6.85287e-05 3.5034e-06
-3.92513e-06 3.5034e-06 -9.39798e-05
0.000895986 -9.43072e-06 -1.33281e-07
-9.43072e-06 2.11548e-05 3.48939e-08
-1.33281e-07 3.48939e-08 -3.58965e-05
0.0010804 -4.85722e-05 1.22903e-06
-4.85722e-05 9.119e-05 -8.6516e-07
1.22903e-06 -8.6516e-07 2.07454e-05
0.00267599 5.11189e-05 -2.37389e-05
5.11189e-05 0.000938871 3.41744e-06
-2.37389e-05 3.41744e-06 0.00094817
0.000754929 3.51072e-05 1.25425e-07
3.51072e-05 -3.91756e-05 1.08312e-08
1.25425e-07 1.08312e-08 -6.04438e-05
0.000910706 -5.73141e-06 2.61706e-06
-5.73141e-06 2.47509e-05 -1.50467e-06
2.61706e-06 -1.50467e-06 -2.9029e-05
0.00258254 4.64289e-05 2.10502e-07
4.64289e-05 0.00088523 7.54348e-08
2.10502e-07 7.54348e-08 0.000896445
0.000809214 3.27104e-05 3.71077e-06
3.27104e-05 -1.9873e-05 -3.54558e-06
3.71077e-06 -3.54558e-06 -3.7583e-05
0.00250951 4.19378e-05 2.21116e-05
4.19378e-05 0.00084192 -3.65176e-06
2.21116e-05 -3.65176e-06 0.000854886
0.0010703 5.51124e-05 -9.27509e-07
5.51124e-05 9.9774e-05 -6.54798e-07
-9.27509e-07 -6.54798e-07 2.17752e-05
0.00111838 5.17927e-05 1.43877e-07
5.17927e-05 0.000122015 1.04955e-07
1.43877e-07 1.04955e-07 4.65772e-05
0.000957472 2.044e-05 -1.50026e-06
2.044e-05 4.09274e-05 -5.58361e-07
-1.50026e-06 -5.58361e-07 -2.86974e-05
0.00100438 4.48687e-05 9.11474e-07
4.48687e-05 6.21466e-05 2.33323e-07
9.11474e-07 2.33323e-07 -1.17488e-05
0.000919592 3.9523e-06 -3.75629e-07
3.9523e-06 1.6962e-05 -3.81854e-08
-3.75629e-07 -3.81854e-08 -5.13957e-05
0.00089331 -3.06209e-08 -2.65275e-06
-3.06209e-08 8.15876e-06 -1.81691e-06
-2.65275e-06 -1.81691e-06 -4.28503e-05
0.000925592 -5.03429e-06 1.00994e-06
-5.03429e-06 1.6736e-05 1.38001e-06
1.00994e-06 1.38001e-06 -5.06347e-05
0.000895267 -7.16019e-06 -5.8038e-08
-7.16019e-06 4.71695e-06 -9.02726e-09
-5.8038e-08 -9.02726e-09 -4.20947e-05
0.000812694 -2.90851e-05 -3.76341e-06
-2.90851e-05 -2.9785e-05 -3.75212e-06
-3.76341e-06 -3.75212e-06 -4.47019e-05
0.000905684 -1.14921e-05 1.84799e-06
-1.14921e-05 5.21942e-06 2.61041e-06
1.84799e-06 2.61041e-06 -3.6946e-05
0.000813493 -2.45046e-05 -1.04627e-07
-2.45046e-05 -3.69785e-05 -1.98103e-08
-1.04627e-07 -1.98103e-08 -4.84489e-05
0.00248006 -3.76167e-05 -2.11116e-05
-3.76167e-05 0.000817739 -3.8535e-06
-2.11116e-05 -3.8535e-06 0.000832587
0.00244136 -3.36112e-05 -4.35391e-07
-3.36112e-05 0.000790874 6.28268e-08
-4.35391e-07 6.28268e-08 0.000807535
0.000815905 -2.13597e-05 2.81575e-06
-2.13597e-05 -4.15684e-05 3.62422e-06
2.81575e-06 3.62422e-06 -5.04562e-05
0.00242017 -2.98367e-05 1.69004e-05
-2.98367e-05 0.000773933 3.93304e-06
1.69004e-05 3.93304e-06 0.000791978
0.000687899 -2.59296e-05 -5.20329e-05
-2.59296e-05 -0.000188864 -8.9571e-06
-5.20329e-05 -8.9571e-06 -0.000338573
0.00166075 -4.09251e-05 -1.0475e-05
-4.09251e-05 -5.66599e-05 -5.45924e-06
-1.0475e-05 -5.45924e-06 -0.000557645
0.00323183 -0.000142121 -3.94333e-05
-0.000142121 0.0012076 -3.69408e-06
-3.94333e-05 -3.69408e-06 0.00112652
0.00118858 6.65265e-05 2.49499e-06
6.65265e-05 0.000140817 5.49465e-07
2.49499e-06 5.49465e-07 5.79364e-05
0.00115262 5.86779e-05 1.40629e-06
5.86779e-05 0.000141918 -4.60588e-08
1.40629e-06 -4.60588e-08 6.01694e-05
0.00103327 5.80326e-05 5.94198e-07
5.80326e-05 8.41089e-05 -3.81411e-08
5.94198e-07 -3.81411e-08 5.93863e-06
0.00100854 5.83065e-05 -5.08002e-09
5.83065e-05 7.753e-05 1.21937e-07
-5.08002e-09 1.21937e-07 -3.44048e-06
0.00106245 6.0491e-05 -1.12167e-07
6.0491e-05 0.000103467 -2.9953e-07
-1.12167e-07 -2.9953e-07 2.22579e-05
0.00074418 5.62303e-05 -1.68267e-06
5.62303e-05 -5.92921e-05 7.07872e-07
-1.68267e-06 7.07872e-07 -0.000135312
0.00113935 6.2144e-05 2.6532e-06
6.2144e-05 0.00014186 -8.05353e-07
2.6532e-06 -8.05353e-07 5.43109e-05
0.00112039 5.63478e-05 1.4456e-06
5.63478e-05 0.000138938 1.12799e-06
1.4456e-06 1.12799e-06 4.737e-05
0.00103554 6.92673e-05 -1.14931e-07
6.92673e-05 6.87132e-05 -1.18187e-07
-1.14931e-07 -1.18187e-07 -1.60952e-05
0.00192948 0.000101608 2.02386e-07
0.000101608 0.000482258 9.59976e-07
2.02386e-07 9.59976e-07 0.000389362
0.00152832 9.88316e-05 4.65756e-07
9.88316e-05 0.000181423 -1.65295e-06
4.65756e-07 -1.65295e-06 7.9204e-05
0.00179174 9.91444e-05 -5.23726e-06
9.91444e-05 0.000133879 -2.52615e-06
-5.23726e-06 -2.52615e-06 1.91972e-05
0.00132565 0.000104324 2.93627e-06
0.000104324 6.70469e-05 8.7346e-07
2.93627e-06 8.7346e-07 -4.94427e-05
0.00073653 7.21383e-05 -5.31227e-07
7.21383e-05 -9.46412e-05 4.50084e-06
-5.31227e-07 4.50084e-06 -0.000191896
0.00160129 -2.13559e-05 -3.66487e-06
-2.13559e-05 -4.4746e-05 4.75196e-06
-3.66487e-06 4.75196e-06 -7.61679e-05
0.00192986 -3.78638e-05 -2.55511e-10
-3.78638e-05 5.20266e-05 7.71988e-07
-2.55511e-10 7.71988e-07 -0.000116918
0.000903363 -0.00010155 -2.09391e-05
-0.00010155 -0.000456023 -6.00342e-06
-2.09391e-05 -6.00342e-06 -0.000921828
0.00232265 0.000101397 2.06566e-05
0.000101397 0.000107515 2.07616e-05
2.06566e-05 2.07616e-05 -0.000123747
0.00138586 7.31093e-05 2.38564e-06
7.31093e-05 -0.000105931 1.57678e-06
2.38564e-06 1.57678e-06 -0.000166264
0.00010979 0.00012687 -8.24566e-06
0.00012687 -0.000512592 -8.38947e-06
-8.24566e-06 -8.38947e-06 -0.00065456
0.00233521 -4.99051e-06 7.8273e-06
-4.99051e-06 0.000577225 -5.52644e-06
7.8273e-06 -5.52644e-06 0.000508828
0.000722337 2.15045e-06 -2.24365e-05
2.15045e-06 4.42496e-05 1.40662e-06
-2.24365e-05 1.40662e-06 -0.00015803
0.00124357 0.000129596 5.27491e-05
0.000129596 -0.00029826 -1.21295e-06
5.27491e-05 -1.21295e-06 -0.000767611
0.000840532 -7.80335e-05 -2.09872e-06
-7.80335e-05 -0.00046661 7.43139e-06
-2.09872e-06 7.43139e-06 -0.000421454
0.00149156 0.00010722 4.28761e-05
0.00010722 8.15634e-05 -1.69397e-05
4.28761e-05 -1.69397e-05 -0.000155895
0.00202888 -8.79375e-06 5.63957e-06
-8.79375e-06 3.85181e-05 -1.58482e-06
5.63957e-06 -1.58482e-06 2.60738e-05
0.00135142 6.96724e-05 3.28763e-07
6.96724e-05 1.33877e-05 -3.68773e-06
3.28763e-07 -3.68773e-06 -5.70845e-05
0.00116761 4.41e-05 -6.26298e-06
4.41e-05 -0.000274545 -2.26811e-07
-6.26298e-06 -2.26811e-07 -0.000345844
0.000869754 4.21266e-05 -5.32029e-06
4.21266e-05 -0.000333337 -3.71195e-06
-5.32029e-06 -3.71195e-06 -0.000421894
0.00195583 -8.63703e-05 1.27732e-05
-8.63703e-05 4.19885e-05 -3.14672e-06
1.27732e-05 -3.14672e-06 2.60462e-05
0.00185439 -1.91706e-05 3.35102e-06
-1.91706e-05 9.6029e-05 4.09077e-07
3.35102e-06 4.09077e-07 6.40325e-05
0.00186531 1.05918e-05 -1.92564e-06
1.05918e-05 0.00017916 9.3648e-07
-1.92564e-06 9.3648e-07 0.000114293
0.00172239 -5.95819e-05 1.62579e-06
-5.95819e-05 8.40617e-05 -1.28826e-06
1.62579e-06 -1.28826e-06 6.06179e-05
0.00172641 -3.38244e-05 -1.40606e-07
-3.38244e-05 9.8944e-05 -2.18528e-07
-1.40606e-07 -2.18528e-07 5.56793e-05
0.00173385 -2.02622e-05 -7.53593e-07
-2.02622e-05 0.000135797 1.99283e-06
-7.53593e-07 1.99283e-06 7.16332e-05
0.00151215 -5.59145e-05 1.13509e-07
-5.59145e-05 4.61949e-05 -5.93398e-07
1.13509e-07 -5.93398e-07 5.46575e-06
0.0015609 -4.6045e-05 -8.58665e-07
-4.6045e-05 8.33318e-05 -9.7136e-07
-8.58665e-07 -9.7136e-07 3.09855e-05
0.00142247 -4.2704e-05 1.0995e-07
-4.2704e-05 3.6732e-05 2.12348e-06
1.0995e-07 2.12348e-06 -3.25546e-05
0.00132253 -5.6617e-05 -8.39945e-07
-5.6617e-05 1.16129e-05 -1.21785e-06
-8.39945e-07 -1.21785e-06 -4.07895e-05
0.00137191 -5.25727e-05 1.64218e-07
-5.25727e-05 4.9543e-05 -5.81113e-07
1.64218e-07 -5.81113e-07 -1.43707e-05
0.00136931 -5.31571e-05 3.39403e-07
-5.31571e-05 6.39499e-05 5.59109e-07
3.39403e-07 5.59109e-07 -8.62194e-06
0.00128639 -5.50083e-05 -1.48259e-06
-5.50083e-05 3.0243e-05 7.49241e-07
-1.48259e-06 7.49241e-07 -3.22898e-05
0.00139847 -5.60169e-05 -2.4626e-07
-5.60169e-05 9.99245e-05 -3.7219e-07
-2.4626e-07 -3.7219e-07 2.88725e-05
0.00132425 -5.3825e-05 -7.24509e-07
-5.3825e-05 8.32568e-05 1.505e-07
-7.24509e-07 1.505e-07 8.66869e-06
0.00133963 -6.20533e-05 9.79794e-07
-6.20533e-05 9.6438e-05 -3.89306e-08
9.79794e-07 -3.89306e-08 1.87283e-05
0.00122545 -5.80528e-05 2.2748e-07
-5.80528e-05 5.99974e-05 -1.81489e-07
2.2748e-07 -1.81489e-07 -1.71548e-05
0.00121402 -5.33134e-05 -1.89446e-06
-5.33134e-05 8.37213e-05 9.67701e-07
-1.89446e-06 9.67701e-07 1.03649e-05
0.00092271 -2.95453e-05 -2.69105e-06
-2.95453e-05 1.34446e-05 1.68694e-06
-2.69105e-06 1.68694e-06 -4.85438e-05
0.000946229 -5.09522e-05 -5.21952e-07
-5.09522e-05 -1.55669e-05 3.54057e-07
-5.21952e-07 3.54057e-07 -8.97985e-05
0.00113457 -6.13411e-05 9.57195e-07
-6.13411e-05 5.52263e-05 -7.41616e-07
9.57195e-07 -7.41616e-07 -2.58541e-05
0.00068194 2.69985e-05 -3.96284e-06
2.69985e-05 -6.06229e-05 3.5488e-06
-3.96284e-06 3.5488e-06 -9.08486e-05
0.000908274 -1.96567e-05 4.0617e-08
-1.96567e-05 2.32597e-05 6.74896e-08
4.0617e-08 6.74896e-08 -3.68696e-05
0.00108288 -5.26047e-05 1.50275e-06
-5.26047e-05 7.8189e-05 -1.14567e-06
1.50275e-06 -1.14567e-06 5.19285e-06
0.00275302 5.54072e-05 -2.51667e-05
5.54072e-05 0.000986498 3.31418e-06
-2.51667e-05 3.31418e-06 0.000993337
0.000744552 3.47594e-05 1.07913e-08
3.47594e-05 -3.71064e-05 -5.93106e-08
1.07913e-08 -5.93106e-08 -6.24967e-05
0.000935219 -1.23376e-05 2.53899e-06
-1.23376e-05 3.86407e-05 -1.62942e-06
2.53899e-06 -1.62942e-06 -1.83048e-05
0.0026549 5.07027e-05 3.24497e-07
5.07027e-05 0.000929472 9.62698e-08
3.24497e-07 9.62698e-08 0.000938508
0.000797698 3.62575e-05 3.7852e-06
3.62575e-05 -1.70969e-05 -3.4286e-06
3.7852e-06 -3.4286e-06 -3.86796e-05
0.00257094 4.62125e-05 2.33459e-05
4.62125e-05 0.000880277 -3.58962e-06
2.33459e-05 -3.58962e-06 0.000891278
0.000939311 5.67712e-05 -8.47303e-07
5.67712e-05 2.28208e-05 -7.63035e-07
-8.47303e-07 -7.63035e-07 -5.78685e-05
0.00103835 5.41096e-05 -4.19282e-08
5.41096e-05 8.35426e-05 -2.54635e-07
-4.19282e-08 -2.54635e-07 5.78098e-06
0.00106416 4.04505e-05 -1.31318e-06
4.04505e-05 9.4081e-05 -4.86742e-07
-1.31318e-06 -4.86742e-07 2.28196e-05
0.00117902 5.38629e-05 7.17659e-07
5.38629e-05 0.000151911 -5.90404e-08
7.17659e-07 -5.90404e-08 7.67646e-05
0.000987015 2.40502e-05 -3.70833e-07
2.40502e-05 5.6187e-05 -1.3847e-07
-3.70833e-07 -1.3847e-07 -1.31202e-05
0.000901429 2.57002e-06 -2.56355e-06
2.57002e-06 2.0335e-05 -1.62639e-06
-2.56355e-06 -1.62639e-06 -3.46063e-05
0.000927437 1.04589e-05 8.86958e-07
1.04589e-05 2.14645e-05 4.46207e-07
8.86958e-07 4.46207e-07 -4.67456e-05
0.000895148 -4.87707e-06 6.63354e-09
-4.87707e-06 1.02897e-05 4.69877e-08
6.63354e-09 4.69877e-08 -4.08439e-05
0.000793655 -3.35948e-05 -3.74079e-06
-3.35948e-05 -3.00804e-05 -3.60945e-06
-3.74079e-06 -3.60945e-06 -4.85478e-05
0.000897828 -9.16061e-06 2.29622e-06
-9.16061e-06 6.2816e-06 2.51637e-06
2.29622e-06 2.51637e-06 -4.05593e-05
0.000796067 -2.80709e-05 -8.16759e-08
-2.80709e-05 -3.89256e-05 2.55566e-09
-8.16759e-08 2.55566e-09 -5.35112e-05
0.00253974 -4.19985e-05 -2.23415e-05
-4.19985e-05 0.000854996 -3.73022e-06
-2.23415e-05 -3.73022e-06 0.000867948
0.000801342 -2.39113e-05 3.30827e-06
-2.39113e-05 -4.35368e-05 3.74459e-06
3.30827e-06 3.74459e-06 -5.47627e-05
0.00249 -3.76944e-05 -3.56327e-07
-3.76944e-05 0.000821814 6.77427e-08
-3.56327e-07 6.77427e-08 0.000836866
0.00245857 -3.37332e-05 1.88743e-05
-3.37332e-05 0.000798922 3.8702e-06
1.88743e-05 3.8702e-06 0.000815662
0.00128639 -4.65818e-05 -2.27343e-06
-4.65818e-05 -9.93776e-05 3.56156e-07
-2.27343e-06 3.56156e-07 -0.000133409
0.00212154 -5.90717e-06 -4.03331e-06
-5.90717e-06 0.000302986 6.91111e-06
-4.03331e-06 6.91111e-06 6.43302e-05
0.00448381 4.21111e-05 -6.56249e-05
4.21111e-05 0.00131052 -1.04248e-05
-6.56249e-05 -1.04248e-05 0.000806131
0.000928251 5.95602e-05 1.12123e-06
5.95602e-05 3.96651e-07 5.00138e-07
1.12123e-06 5.00138e-07 -7.75262e-05
0.00132454 7.36886e-05 1.96983e-06
7.36886e-05 0.000149723 -1.06051e-06
1.96983e-06 -1.06051e-06 6.32356e-05
0.000887926 5.92295e-05 2.89341e-07
5.92295e-05 -1.10363e-07 -3.77603e-07
2.89341e-07 -3.77603e-07 -8.25572e-05
0.0011524 6.2479e-05 1.17604e-06
6.2479e-05 0.000147536 -8.43799e-07
1.17604e-06 -8.43799e-07 6.62576e-05
0.00104114 6.04263e-05 2.24786e-07
6.04263e-05 9.42139e-05 -1.02146e-07
2.24786e-07 -1.02146e-07 1.25091e-05
0.00101439 6.44758e-05 8.88027e-07
6.44758e-05 6.63918e-05 7.30354e-07
8.88027e-07 7.30354e-07 -1.05477e-05
0.00140125 8.73681e-05 -2.11809e-06
8.73681e-05 0.000131174 -2.94894e-06
-2.11809e-06 -2.94894e-06 3.92201e-05
0.00143281 8.01193e-05 2.46458e-06
8.01193e-05 0.000264453 2.71446e-07
2.46458e-06 2.71446e-07 0.000180301
0.00083685 7.36206e-05 -1.04924e-06
7.36206e-05 -3.44717e-05 3.83366e-06
-1.04924e-06 3.83366e-06 -0.000124931
0.00143082 9.624e-05 -1.01136e-06
9.624e-05 0.000138918 -3.63286e-07
-1.01136e-06 -3.63286e-07 3.81973e-05
0.00118574 8.04693e-05 -4.23366e-06
8.04693e-05 -0.000124113 -2.63841e-06
-4.23366e-06 -2.63841e-06 -0.000230473
0.00175395 3.37913e-05 -6.4422e-06
3.37913e-05 1.56928e-05 4.59112e-06
-6.4422e-06 4.59112e-06 -6.46499e-05
0.00193836 0.000101964 5.74708e-07
0.000101964 0.000198036 7.5429e-07
5.74708e-07 7.5429e-07 8.44073e-05
0.00110661 9.64578e-05 -2.51577e-07
9.64578e-05 -5.40246e-05 4.3107e-06
-2.51577e-07 4.3107e-06 -0.000168416
0.00157567 -1.66054e-05 4.47465e-07
-1.66054e-05 -4.6192e-05 7.43663e-07
4.47465e-07 7.43663e-07 -7.70754e-05
0.00283891 -4.83361e-05 4.95343e-05
-4.83361e-05 0.000377436 2.66007e-05
4.95343e-05 2.66007e-05 0.000142845
0.00210893 8.54252e-05 -4.15413e-06
8.54252e-05 0.000202013 -2.37743e-06
-4.15413e-06 -2.37743e-06 0.000138404
0.00193538 2.17821e-05 -4.34483e-06
2.17821e-05 0.000261204 -3.01658e-06
-4.34483e-06 -3.01658e-06 0.000201749
0.00144822 -8.37729e-06 8.4331e-07
-8.37729e-06 0.000138574 -4.97514e-07
8.4331e-07 -4.97514e-07 7.32927e-05
0.000867719 5.3063e-05 5.53063e-05
5.3063e-05 -0.000106563 2.77661e-06
5.53063e-05 2.77661e-06 -0.000366489
0.00142856 -1.42334e-05 6.64359e-06
-1.42334e-05 -0.000274307 4.37015e-07
6.64359e-06 4.37015e-07 -0.00029328
0.00159578 7.60461e-05 -4.92002e-06
7.60461e-05 0.000151466 1.82692e-06
-4.92002e-06 1.82692e-06 8.32757e-05
0.00160948 5.05062e-05 -1.81005e-06
5.05062e-05 -6.41182e-05 4.26252e-06
-1.81005e-06 4.26252e-06 -0.000132265
0.00152024 5.31695e-05 2.39831e-07
5.31695e-05 -1.10562e-05 1.39337e-06
2.39831e-07 1.39337e-06 -9.58481e-05
0.00164144 4.27367e-05 -4.93007e-06
4.27367e-05 7.66472e-05 -1.52928e-07
-4.93007e-06 -1.52928e-07 -2.57258e-06
0.00137105 3.81272e-05 -3.04846e-06
3.81272e-05 -2.72117e-05 -1.63716e-06
-3.04846e-06 -1.63716e-06 -9.58634e-05
0.00159612 -2.11275e-05 7.63034e-06
-2.11275e-05 -2.97112e-05 -2.40173e-06
7.63034e-06 -2.40173e-06 -6.61248e-05
0.00172217 9.14999e-06 -1.11629e-06
9.14999e-06 0.000102943 -9.48399e-07
-1.11629e-06 -9.48399e-07 3.9873e-05
0.00165737 1.97655e-05 -1.47906e-06
1.97655e-05 9.42881e-05 3.90111e-08
-1.47906e-06 3.90111e-08 1.62809e-05
0.00180242 -3.48622e-05 -1.54569e-06
-3.48622e-05 0.000139592 -2.64703e-06
-1.54569e-06 -2.64703e-06 9.49631e-05
0.00165122 -2.01537e-05 -1.24125e-07
-2.01537e-05 9.85911e-05 -4.41472e-07
-1.24125e-07 -4.41472e-07 3.49936e-05
0.00145089 -1.50895e-05 -8.81676e-07
-1.50895e-05 1.82593e-05 1.75304e-06
-8.81676e-07 1.75304e-06 -5.73927e-05
0.00150081 -4.73761e-05 -2.71832e-06
-4.73761e-05 6.33329e-05 -2.88329e-06
-2.71832e-06 -2.88329e-06 1.14776e-05
0.00144946 -4.22499e-05 2.64872e-07
-4.22499e-05 4.98399e-05 -7.8952e-08
2.64872e-07 -7.8952e-08 -1.9505e-05
0.00142475 -4.42049e-05 -2.7979e-07
-4.42049e-05 5.67729e-05 1.47712e-06
-2.7979e-07 1.47712e-06 -2.02374e-05
0.00135353 -5.20529e-05 -9.29179e-07
-5.20529e-05 4.13676e-05 -1.85781e-06
-9.29179e-07 -1.85781e-06 -2.25783e-05
0.00136883 -5.24793e-05 4.90934e-08
-5.24793e-05 6.34663e-05 -4.09762e-07
4.90934e-08 -4.09762e-07 -9.04361e-06
0.00133271 -5.17638e-05 -6.14844e-07
-5.17638e-05 6.61577e-05 5.88905e-07
-6.14844e-07 5.88905e-07 -9.91022e-06
0.00126731 -5.30342e-05 -3.045e-07
-5.30342e-05 3.40824e-05 -1.28846e-08
-3.045e-07 -1.28846e-08 -3.61704e-05
0.00123219 -5.20837e-05 -1.76464e-07
-5.20837e-05 3.79767e-05 -1.70049e-07
-1.76464e-07 -1.70049e-07 -3.64283e-05
0.00120588 -4.86995e-05 -1.86301e-06
-4.86995e-05 5.68358e-05 7.42753e-07
-1.86301e-06 7.42753e-07 -1.58461e-05
0.00109048 -5.52531e-05 1.37053e-06
-5.52531e-05 -6.50967e-06 -5.93668e-07
1.37053e-06 -5.93668e-07 -8.4161e-05
0.00106498 -4.98577e-05 6.69861e-08
-4.98577e-05 1.07681e-05 3.84852e-08
6.69861e-08 3.84852e-08 -6.27119e-05
0.000975928 -3.39162e-05 -3.02864e-06
-3.39162e-05 1.50364e-05 1.53546e-06
-3.02864e-06 1.53546e-06 -4.75267e-05
0.000711943 8.90462e-06 -5.25575e-06
8.90462e-06 -4.64549e-05 3.5312e-06
-5.25575e-06 3.5312e-06 -8.06385e-05
0.000937789 -3.09023e-05 4.48949e-08
-3.09023e-05 2.10342e-05 9.68448e-08
4.48949e-08 9.68448e-08 -4.10304e-05
0.00105217 -5.31651e-05 1.11947e-06
-5.31651e-05 3.90038e-05 -7.8478e-07
1.11947e-06 -7.8478e-07 -3.47563e-05
0.00283745 5.98449e-05 -2.60997e-05
5.98449e-05 0.00104065 3.21635e-06
-2.60997e-05 3.21635e-06 0.00104435
0.000745461 2.09341e-05 4.61301e-08
2.09341e-05 -3.20823e-05 -6.8349e-08
4.61301e-08 -6.8349e-08 -6.19519e-05
0.000945866 -2.32903e-05 2.73728e-06
-2.32903e-05 4.07381e-05 -1.71053e-06
2.73728e-06 -1.71053e-06 -1.93751e-05
0.00272807 5.49935e-05 2.78353e-07
5.49935e-05 0.000975811 9.13025e-08
2.78353e-07 9.13025e-08 0.000982241
0.000802635 2.97101e-05 4.54316e-06
2.97101e-05 -9.15068e-06 -3.36685e-06
4.54316e-06 -3.36685e-06 -3.43692e-05
0.00263927 5.04457e-05 2.4574e-05
5.04457e-05 0.000922796 -3.48023e-06
2.4574e-05 -3.48023e-06 0.000931545
0.000749955 5.63447e-05 -4.85594e-07
5.63447e-05 -9.93752e-05 -6.84984e-07
-4.85594e-07 -6.84984e-07 -0.000184697
0.000826701 5.4003e-05 -1.88162e-08
5.4003e-05 -3.48553e-05 -9.96961e-08
-1.88162e-08 -9.96961e-08 -0.000115964
0.00110055 4.91183e-05 -1.51443e-06
4.91183e-05 0.0001002 -5.16739e-07
-1.51443e-06 -5.16739e-07 2.68802e-05
0.00100448 5.30526e-05 5.38314e-07
5.30526e-05 6.63854e-05 6.92983e-10
5.38314e-07 6.92983e-10 -1.11364e-05
0.001011 3.82326e-05 -5.22816e-08
3.82326e-05 6.83979e-05 -5.10886e-08
-5.22816e-08 -5.10886e-08 -2.72669e-06
0.000919073 6.39507e-06 -2.63647e-06
6.39507e-06 3.55913e-05 -1.46329e-06
-2.63647e-06 -1.46329e-06 -2.2633e-05
0.00102125 2.70258e-05 1.00128e-06
2.70258e-05 7.38521e-05 1.96749e-07
1.00128e-06 1.96749e-07 4.83502e-06
0.000892636 -6.93388e-07 9.79479e-08
-6.93388e-07 1.78717e-05 4.64073e-08
9.79479e-08 4.64073e-08 -3.73016e-05
0.000785316 -3.78263e-05 -3.60272e-06
-3.78263e-05 -2.34701e-05 -3.48573e-06
-3.60272e-06 -3.48573e-06 -4.59647e-05
0.000896633 -8.20808e-06 2.53517e-06
-8.20808e-06 1.23384e-05 2.13201e-06
2.53517e-06 2.13201e-06 -3.89738e-05
0.000773508 -3.25679e-05 -2.68003e-08
-3.25679e-05 -4.1226e-05 7.49362e-09
-2.68003e-08 7.49362e-09 -5.93503e-05
0.0025906 -4.646e-05 -2.33471e-05
-4.646e-05 0.000888883 -3.57775e-06
-2.33471e-05 -3.57775e-06 0.000899775
0.000780261 -2.71221e-05 3.82099e-06
-2.71221e-05 -4.76991e-05 3.76499e-06
3.82099e-06 3.76499e-06 -6.19534e-05
0.00255582 -4.20767e-05 -2.90566e-07
-4.20767e-05 0.000861989 7.5867e-08
-2.90566e-07 7.5867e-08 0.000875162
0.00250604 -3.78271e-05 2.04179e-05
-3.78271e-05 0.000829024 3.78605e-06
2.04179e-05 3.78605e-06 0.000844248
0.00159739 -1.96872e-05 -4.44632e-07
-1.96872e-05 -1.45693e-05 1.54914e-06
-4.44632e-07 1.54914e-06 -6.65507e-05
0.00115658 -4.53046e-05 3.80193e-07
-4.53046e-05 -0.000136083 -7.46619e-07
3.80193e-07 -7.46619e-07 -0.000170535
0.000574805 -3.47929e-05 4.41778e-05
-3.47929e-05 -0.000220353 1.86138e-05
4.41778e-05 1.86138e-05 -0.000378161
0.00179529 8.41561e-05 6.21726e-07
8.41561e-05 0.000330366 -2.19019e-06
6.21726e-07 -2.19019e-06 0.000245182
0.000910449 6.02035e-05 -7.25208e-07
6.02035e-05 3.63903e-06 3.63831e-07
-7.25208e-07 3.63831e-07 -7.10937e-05
0.000773595 6.30093e-05 -2.53591e-06
6.30093e-05 -0.000185097 -1.77435e-07
-2.53591e-06 -1.77435e-07 -0.000276128
0.0013108 7.34044e-05 1.79453e-07
7.34044e-05 0.000141959 7.88661e-08
1.79453e-07 7.88661e-08 5.493e-05
0.000597525 5.19577e-05 -9.80485e-07
5.19577e-05 -0.000134921 8.10476e-07
-9.80485e-07 8.10476e-07 -0.000217072
0.00166698 8.06433e-05 -3.47782e-06
8.06433e-05 0.000140989 -4.09362e-06
-3.47782e-06 -4.09362e-06 4.19754e-05
0.0012776 7.2343e-05 4.70284e-07
7.2343e-05 0.000188482 -6.80114e-08
4.70284e-07 -6.80114e-08 0.000110704
0.00139516 8.58992e-05 1.38666e-09
8.58992e-05 0.000121668 2.42631e-07
1.38666e-09 2.42631e-07 3.00242e-05
0.00160309 3.49644e-05 -2.57169e-06
3.49644e-05 1.82781e-05 2.68585e-06
-2.57169e-06 2.68585e-06 -6.92504e-05
0.00142981 9.6e-05 1.62521e-06
9.6e-05 0.000142778 2.97509e-06
1.62521e-06 2.97509e-06 4.35055e-05
0.00149261 8.75916e-05 -9.07011e-07
8.75916e-05 2.22929e-05 -7.18667e-07
-9.07011e-07 -7.18667e-07 -8.49075e-05
0.00183159 3.04401e-05 -5.92721e-07
3.04401e-05 6.53298e-05 2.04056e-06
-5.92721e-07 2.04056e-06 -1.71787e-05
0.00165864 9.52595e-05 3.90428e-06
9.52595e-05 6.50894e-05 2.76488e-06
3.90428e-06 2.76488e-06 -4.83805e-05
0.00146497 -7.40768e-06 -8.8513e-06
-7.40768e-06 -8.84509e-05 -6.31149e-06
-8.8513e-06 -6.31149e-06 -0.000118694
0.00170659 2.02656e-06 -2.20592e-06
2.02656e-06 0.000157024 -1.16686e-06
-2.20592e-06 -1.16686e-06 9.77138e-05
0.00147741 1.64079e-05 1.18199e-06
1.64079e-05 2.36398e-05 5.12555e-07
1.18199e-06 5.12555e-07 -3.5526e-05
0.000514657 -9.23584e-06 1.18221e-06
-9.23584e-06 -0.000320243 3.00475e-06
1.18221e-06 3.00475e-06 -0.000383403
0.00198635 5.54769e-05 3.74798e-06
5.54769e-05 0.000112523 -1.73739e-06
3.74798e-06 -1.73739e-06 4.70597e-05
0.00220116 6.40055e-05 1.51539e-05
6.40055e-05 0.000328649 4.57515e-06
1.51539e-05 4.57515e-06 0.000247452
0.00183134 4.58233e-05 -3.06385e-06
4.58233e-05 0.000159438 -4.86516e-07
-3.06385e-06 -4.86516e-07 8.00007e-05
0.00153573 3.83456e-05 8.6591e-07
3.83456e-05 6.00261e-05 1.74166e-06
8.6591e-07 1.74166e-06 -8.20699e-06
0.00159329 3.73249e-05 -3.11449e-06
3.73249e-05 9.18165e-05 -1.99841e-06
-3.11449e-06 -1.99841e-06 1.70048e-05
0.00165714 7.49711e-06 -1.12879e-06
7.49711e-06 6.76319e-05 -2.13946e-06
-1.12879e-06 -2.13946e-06 5.81039e-06
0.0016873 1.90628e-05 -3.32162e-09
1.90628e-05 0.000106874 -2.54377e-07
-3.32162e-09 -2.54377e-07 2.96778e-05
0.00160135 2.29081e-05 -2.46506e-06
2.29081e-05 8.11868e-05 -6.3993e-07
-2.46506e-06 -6.3993e-07 1.24039e-07
0.00157656 -2.0244e-05 -2.76601e-07
-2.0244e-05 6.57046e-05 -2.446e-06
-2.76601e-07 -2.446e-06 2.59465e-06
0.00151124 -1.52026e-05 2.73193e-07
-1.52026e-05 4.82378e-05 3.75888e-07
2.73193e-07 3.75888e-07 -2.78423e-05
0.00150649 -1.57383e-05 -1.28311e-06
-1.57383e-05 6.34762e-05 9.24347e-07
-1.28311e-06 9.24347e-07 -1.7499e-05
0.00147193 -4.17111e-05 3.34171e-08
-4.17111e-05 6.07921e-05 -2.21761e-06
3.34171e-08 -2.21761e-06 -8.61302e-06
0.00143917 -4.33126e-05 1.86531e-07
-4.33126e-05 6.30331e-05 3.65204e-08
1.86531e-07 3.65204e-08 -1.40225e-05
0.00138961 -4.49952e-05 -1.05257e-06
-4.49952e-05 6.28465e-05 1.05242e-06
-1.05257e-06 1.05242e-06 -1.64622e-05
0.00136838 -5.18596e-05 -2.30363e-07
-5.18596e-05 6.30048e-05 -1.37022e-06
-2.30363e-07 -1.37022e-06 -9.44669e-06
0.00133255 -5.1355e-05 4.59198e-09
-5.1355e-05 6.56801e-05 -2.40738e-07
4.59198e-09 -2.40738e-07 -1.03488e-05
0.00124119 -4.65181e-05 -1.74004e-06
-4.65181e-05 5.12506e-05 8.06934e-07
-1.74004e-06 8.06934e-07 -2.30581e-05
0.0011358 -5.02232e-05 6.08884e-07
-5.02232e-05 -9.42332e-06 -4.67769e-07
6.08884e-07 -4.67769e-07 -8.36388e-05
0.00119342 -4.80267e-05 -2.30466e-08
-4.80267e-05 5.08564e-05 -4.65401e-08
-2.30466e-08 -4.65401e-08 -2.17309e-05
0.00102352 -3.40296e-05 -3.26615e-06
-3.40296e-05 1.50487e-05 1.46535e-06
-3.26615e-06 1.46535e-06 -4.79413e-05
0.000907328 -4.61556e-05 1.69728e-06
-4.61556e-05 -6.63525e-05 -8.18087e-07
1.69728e-06 -8.18087e-07 -0.000139949
0.000976032 -3.42096e-05 4.3812e-08
-3.42096e-05 1.58512e-05 5.26555e-08
4.3812e-08 5.26555e-08 -4.67942e-05
0.00166622 1.29338e-05 -6.47282e-06
1.29338e-05 0.000436752 1.96236e-06
-6.47282e-06 1.96236e-06 0.000404177
0.00114165 3.41464e-05 -2.70803e-05
3.41464e-05 0.000187766 5.99056e-06
-2.70803e-05 5.99056e-06 0.000176812
0.00122763 1.42099e-05 -1.09337e-06
1.42099e-05 0.00021228 -1.19351e-08
-1.09337e-06 -1.19351e-08 0.000180736
0.000956763 -3.21135e-05 2.94565e-06
-3.21135e-05 3.04936e-05 -1.56431e-06
2.94565e-06 -1.56431e-06 -3.16545e-05
0.00284559 5.94017e-05 3.20759e-07
5.94017e-05 0.00104691 1.11699e-07
3.20759e-07 1.11699e-07 0.00104999
0.00081324 1.92201e-05 5.21785e-06
1.92201e-05 -8.495e-07 -3.36625e-06
5.21785e-06 -3.36625e-06 -3.06029e-05
0.00271153 5.44097e-05 2.602e-05
5.44097e-05 0.000969197 -3.41465e-06
2.602e-05 -3.41465e-06 0.000975234
0.00118037 6.65587e-05 -9.82728e-07
6.65587e-05 -1.8194e-05 -1.9876e-07
-9.82728e-07 -1.9876e-07 -0.000101819
0.000831921 6.07055e-05 6.00304e-07
6.07055e-05 -9.464e-05 1.7168e-07
6.00304e-07 1.7168e-07 -0.000182425
0.000858661 5.95006e-05 -1.00269e-07
5.95006e-05 -5.05947e-05 -7.31364e-08
-1.00269e-07 -7.31364e-08 -0.000136526
0.00111955 5.48267e-05 -1.49631e-06
5.48267e-05 9.17088e-05 -7.33448e-07
-1.49631e-06 -7.33448e-07 1.63895e-05
0.000700629 5.08397e-05 4.49922e-07
5.08397e-05 -9.935e-05 5.78322e-07
4.49922e-07 5.78322e-07 -0.000180827
0.00103781 4.63416e-05 -1.36566e-07
4.63416e-05 6.99076e-05 -4.02969e-08
-1.36566e-07 -4.02969e-08 -3.12032e-06
0.000938109 1.49794e-05 -2.72698e-06
1.49794e-05 4.53535e-05 -1.19765e-06
-2.72698e-06 -1.19765e-06 -1.48313e-05
0.00096273 3.61564e-05 1.28768e-06
3.61564e-05 4.50942e-05 4.35641e-07
1.28768e-06 4.35641e-07 -2.5899e-05
0.000881708 3.61997e-06 7.69852e-08
3.61997e-06 1.87568e-05 1.04554e-07
7.69852e-08 1.04554e-07 -3.96488e-05
0.000785507 -3.59453e-05 -4.08224e-06
-3.59453e-05 -1.42874e-05 -3.28045e-06
-4.08224e-06 -3.28045e-06 -4.0806e-05
0.000882358 -4.33862e-06 2.50686e-06
-4.33862e-06 1.46871e-05 1.74645e-06
2.50686e-06 1.74645e-06 -4.07109e-05
0.00074644 -3.66861e-05 7.52218e-09
-3.66861e-05 -4.37106e-05 -1.82912e-08
7.52218e-09 -1.82912e-08 -6.58816e-05
0.00263431 -5.07913e-05 -2.43486e-05
-5.07913e-05 0.000920872 -3.45388e-06
-2.43486e-05 -3.45388e-06 0.000929364
0.000750464 -3.13208e-05 4.09709e-06
-3.13208e-05 -5.38517e-05 3.68365e-06
4.09709e-06 3.68365e-06 -7.16115e-05
0.00261536 -4.6638e-05 -2.55812e-07
-4.6638e-05 0.000899959 8.25875e-08
-2.55812e-07 8.25875e-08 0.000911087
0.00257253 -4.21675e-05 2.18922e-05
-4.21675e-05 0.000869277 3.7042e-06
2.18922e-05 3.7042e-06 0.000882672
0.00159022 -2.01946e-05 -3.04759e-07
-2.01946e-05 4.46146e-05 2.12776e-06
-3.04759e-07 2.12776e-06 -2.21702e-05
0.0017498 -1.91904e-05 1.42897e-06
-1.91904e-05 7.65929e-05 -1.94285e-06
1.42897e-06 -1.94285e-06 2.34102e-05
0.00128551 -5.01693e-05 -2.92039e-07
-5.01693e-05 -5.61115e-05 -3.55728e-06
-2.92039e-07 -3.55728e-06 -9.16417e-05
0.00149589 7.23241e-05 -4.30674e-06
7.23241e-05 7.81083e-05 -2.7584e-06
-4.30674e-06 -2.7584e-06 -1.36504e-05
0.00151701 7.77332e-05 -1.60033e-07
7.77332e-05 0.000209724 3.89357e-07
-1.60033e-07 3.89357e-07 0.00012693
0.000806277 5.91343e-05 -3.66069e-06
5.91343e-05 -3.57929e-05 4.70712e-07
-3.66069e-06 4.70712e-07 -0.000107217
0.00131985 7.42442e-05 9.72079e-07
7.42442e-05 7.89558e-05 9.79212e-07
9.72079e-07 9.79212e-07 -1.03739e-05
0.00131672 7.35498e-05 -1.39374e-06
7.35498e-05 0.000143727 7.46358e-07
-1.39374e-06 7.46358e-07 5.61519e-05
0.00171558 3.22592e-05 -2.23268e-06
3.22592e-05 9.11356e-05 1.085e-06
-2.23268e-06 1.085e-06 -2.65045e-06
0.00161854 8.1311e-05 -1.53819e-06
8.1311e-05 0.000115314 -1.44659e-06
-1.53819e-06 -1.44659e-06 1.44408e-05
0.00139129 8.4796e-05 1.80952e-06
8.4796e-05 0.000114522 4.29113e-06
1.80952e-06 4.29113e-06 2.29622e-05
0.00169887 3.33673e-05 -3.9764e-07
3.33673e-05 6.35346e-05 9.59805e-07
-3.9764e-07 9.59805e-07 -2.4513e-05
0.00188153 9.63512e-05 3.57223e-06
9.63512e-05 0.000205834 1.6579e-06
3.57223e-06 1.6579e-06 9.80969e-05
0.00183079 2.76757e-05 4.54629e-06
2.76757e-05 7.41028e-05 -4.56695e-07
4.54629e-06 -4.56695e-07 -1.02676e-05
0.00138521 2.09309e-06 -1.67178e-06
2.09309e-06 6.31315e-06 -4.03039e-09
-1.67178e-06 -4.03039e-09 -6.25507e-05
0.00154331 3.69005e-06 -2.63669e-07
3.69005e-06 7.4087e-05 -5.38823e-07
-2.63669e-07 -5.38823e-07 1.41264e-05
0.00088133 1.05256e-05 6.15546e-06
1.05256e-05 -0.000282478 5.84114e-06
6.15546e-06 5.84114e-06 -0.000341077
0.00204994 4.95216e-05 4.7405e-06
4.95216e-05 0.00025581 -9.65511e-07
4.7405e-06 -9.65511e-07 0.00017624
0.00166235 3.85505e-05 7.20833e-06
3.85505e-05 0.000127529 4.91559e-06
7.20833e-06 4.91559e-06 5.98612e-05
0.0016481 3.78168e-05 -1.13219e-06
3.78168e-05 0.000118443 -4.0286e-07
-1.13219e-06 -4.0286e-07 4.40099e-05
0.00154056 3.17012e-05 -1.17986e-06
3.17012e-05 8.06455e-05 -7.95465e-07
-1.17986e-06 -7.95465e-07 1.38155e-06
0.00170546 1.81481e-05 1.79042e-06
1.81481e-05 0.00011335 -7.0102e-07
1.79042e-06 -7.0102e-07 3.70372e-05
0.00160398 2.08537e-05 -4.77041e-07
2.08537e-05 8.02905e-05 -7.92417e-08
-4.77041e-07 -7.92417e-08 -6.35796e-07
0.00151251 1.39689e-05 -2.54862e-06
1.39689e-05 5.4428e-05 -9.92644e-07
-2.54862e-06 -9.92644e-07 -2.71278e-05
0.00156851 -1.54786e-05 8.92854e-07
-1.54786e-05 7.67447e-05 -7.53082e-07
8.92854e-07 -7.53082e-07 2.26689e-07
0.0015106 -1.61617e-05 6.50669e-08
-1.61617e-05 6.50421e-05 3.94293e-07
6.50669e-08 3.94293e-07 -1.60504e-05
0.00146072 -2.31743e-05 -1.81604e-06
-2.31743e-05 6.66297e-05 5.56372e-07
-1.81604e-06 5.56372e-07 -1.48338e-05
0.00145323 -4.2355e-05 8.11439e-07
-4.2355e-05 6.9128e-05 -1.38764e-06
8.11439e-07 -1.38764e-06 -7.97039e-06
0.00139672 -4.46249e-05 1.0181e-07
-4.46249e-05 6.56641e-05 1.0114e-07
1.0181e-07 1.0114e-07 -1.3684e-05
0.00129904 -4.18205e-05 -2.04152e-06
-4.18205e-05 5.20076e-05 1.00653e-06
-2.04152e-06 1.00653e-06 -2.49407e-05
0.00133183 -5.09803e-05 6.84964e-07
-5.09803e-05 6.49403e-05 -1.06732e-06
6.84964e-07 -1.06732e-06 -1.10532e-05
0.00124369 -4.61761e-05 -6.8142e-09
-4.61761e-05 5.21527e-05 -1.21795e-07
-6.8142e-09 -1.21795e-07 -2.21148e-05
0.00106808 -3.36454e-05 -3.51699e-06
-3.36454e-05 1.58539e-05 1.6125e-06
-3.51699e-06 1.6125e-06 -4.89053e-05
0.00117996 -4.735e-05 1.63241e-06
-4.735e-05 4.43858e-05 -7.75592e-07
1.63241e-06 -7.75592e-07 -2.8107e-05
0.00101702 -3.37824e-05 7.5292e-08
-3.37824e-05 1.23799e-05 -3.72985e-08
7.5292e-08 -3.72985e-08 -5.06933e-05
0.00171624 6.63537e-06 -6.75867e-06
6.63537e-06 0.000457292 1.98462e-06
-6.75867e-06 1.98462e-06 0.000422337
0.000977859 -3.47095e-05 3.1e-06
-3.47095e-05 1.74842e-05 -1.39214e-06
3.1e-06 -1.39214e-06 -4.52485e-05
0.00173315 9.16829e-06 5.97133e-06
9.16829e-06 0.000466048 -9.46547e-07
5.97133e-06 -9.46547e-07 0.000433522
0.00120385 3.2407e-05 -3.14188e-05
3.2407e-05 0.000233699 5.8309e-06
-3.14188e-05 5.8309e-06 0.000217773
0.00206557 4.80773e-05 -2.06006e-05
4.80773e-05 0.000660604 1.72658e-06
-2.06006e-05 1.72658e-06 0.000654809
0.00176324 1.49622e-05 1.57996e-05
1.49622e-05 0.000480464 -2.76732e-06
1.57996e-05 -2.76732e-06 0.000451989
0.00284952 5.83911e-05 2.84299e-05
5.83911e-05 0.00105088 -3.36324e-06
2.84299e-05 -3.36324e-06 0.00105341
0.00149774 6.64272e-05 -3.23197e-06
6.64272e-05 7.5317e-05 -2.25197e-06
-3.23197e-06 -2.25197e-06 -1.23577e-05
0.00141092 7.1068e-05 1.62594e-06
7.1068e-05 0.000144451 -1.04797e-07
1.62594e-06 -1.04797e-07 6.11222e-05
0.00117941 6.66602e-05 1.04406e-06
6.66602e-05 -8.94315e-06 6.42138e-07
1.04406e-06 6.42138e-07 -8.7817e-05
0.00112974 5.95449e-05 -1.47087e-06
5.95449e-05 7.49769e-05 -1.05719e-06
-1.47087e-06 -1.05719e-06 -4.02092e-06
0.00112122 6.8443e-05 -3.57324e-07
6.8443e-05 4.3663e-05 1.88489e-07
-3.57324e-07 1.88489e-07 -4.42363e-05
0.000999056 6.36459e-05 4.68786e-07
6.36459e-05 1.34014e-05 7.05284e-07
4.68786e-07 7.05284e-07 -7.31519e-05
0.00108392 5.37036e-05 -7.12978e-08
5.37036e-05 7.65328e-05 -1.13516e-07
-7.12978e-08 -1.13516e-07 1.07837e-06
0.000961249 2.57128e-05 -2.62672e-06
2.57128e-05 4.923e-05 -1.20548e-06
-2.62672e-06 -1.20548e-06 -1.28422e-05
0.000976834 4.36837e-05 1.11181e-06
4.36837e-05 4.04968e-05 3.68476e-07
1.11181e-06 3.68476e-07 -3.22493e-05
0.000891304 1.16615e-05 -5.12775e-08
1.16615e-05 2.27841e-05 9.15557e-08
-5.12775e-08 9.15557e-08 -3.742e-05
0.000792044 -2.73658e-05 -4.8984e-06
-2.73658e-05 -4.5235e-06 -3.02734e-06
-4.8984e-06 -3.02734e-06 -3.52032e-05
0.000850295 1.00319e-06 2.40418e-06
1.00319e-06 4.82755e-06 1.53174e-06
2.40418e-06 1.53174e-06 -5.37668e-05
0.000730255 -3.96693e-05 -2.07925e-08
-3.96693e-05 -4.10861e-05 -2.5697e-08
-2.07925e-08 -2.5697e-08 -6.78107e-05
0.00268044 -5.48361e-05 -2.56129e-05
-5.48361e-05 0.000956613 -3.33227e-06
-2.56129e-05 -3.33227e-06 0.000962178
0.000706913 -3.54718e-05 3.99302e-06
-3.54718e-05 -6.42906e-05 3.59606e-06
3.99302e-06 3.59606e-06 -8.6127e-05
0.0026661 -5.11745e-05 -2.41827e-07
-5.11745e-05 0.000935004 8.74709e-08
-2.41827e-07 8.74709e-08 0.00094381
0.00263866 -4.676e-05 2.30682e-05
-4.676e-05 0.000910283 3.57747e-06
2.30682e-05 3.57747e-06 0.000921658
0.00157874 -1.64061e-05 -2.02395e-06
-1.64061e-05 4.8924e-05 2.40652e-06
-2.02395e-06 2.40652e-06 -2.94373e-05
0.00163354 -1.90117e-05 3.9768e-07
-1.90117e-05 6.60563e-05 -6.0157e-07
3.9768e-07 -6.0157e-07 -1.17502e-06
0.00212233 -1.94597e-05 2.08532e-06
-1.94597e-05 0.000274661 -5.02785e-06
2.08532e-06 -5.02785e-06 0.00022011
0.00146154 3.43329e-05 -2.27127e-06
3.43329e-05 -9.49162e-06 3.94657e-07
-2.27127e-06 3.94657e-07 -0.000100425
0.0015508 7.35549e-05 1.62027e-07
7.35549e-05 0.000106513 -6.08014e-07
1.62027e-07 -6.08014e-07 1.4468e-05
0.0013328 7.33287e-05 -1.16315e-06
7.33287e-05 0.00013398 1.86341e-06
-1.16315e-06 1.86341e-06 5.36406e-05
0.00180855 8.43104e-05 1.72844e-06
8.43104e-05 0.000314431 9.15821e-07
1.72844e-06 9.15821e-07 0.000226897
0.00179627 3.39663e-05 -1.89077e-07
3.39663e-05 0.000130753 -1.21727e-07
-1.89077e-07 -1.21727e-07 3.72797e-05
0.00158643 8.20603e-05 2.29879e-06
8.20603e-05 9.69967e-05 1.6001e-06
2.29879e-06 1.6001e-06 -5.60633e-06
0.00178919 3.09408e-05 3.04394e-06
3.09408e-05 0.000105817 -3.29858e-07
3.04394e-06 -3.29858e-07 1.73109e-05
0.0015018 1.48603e-06 9.15305e-08
1.48603e-06 6.08306e-05 5.2807e-07
9.15305e-08 5.2807e-07 -1.57044e-05
0.00143925 3.4983e-06 3.18327e-08
3.4983e-06 2.86283e-05 -2.35027e-07
3.18327e-08 -2.35027e-07 -4.18941e-05
0.00142088 6.03086e-06 1.53304e-06
6.03086e-06 1.19696e-05 9.1417e-07
1.53304e-06 9.1417e-07 -4.87821e-05
0.00155732 3.15332e-05 -6.94882e-07
3.15332e-05 9.7506e-05 -4.61393e-08
-6.94882e-07 -4.61393e-08 1.42028e-05
0.00169955 3.82242e-05 2.90056e-06
3.82242e-05 0.000143706 1.30428e-06
2.90056e-06 1.30428e-06 6.9624e-05
0.00154166 3.19991e-05 2.52253e-07
3.19991e-05 8.0592e-05 2.25324e-07
2.52253e-07 2.25324e-07 9.47972e-07
0.00156402 2.82583e-05 -9.40008e-07
2.82583e-05 9.45112e-05 -4.3788e-07
-9.40008e-07 -4.3788e-07 1.32357e-05
0.00162916 1.90908e-05 1.69767e-06
1.90908e-05 9.03905e-05 3.91537e-07
1.69767e-06 3.91537e-07 9.5935e-06
0.00153567 1.38608e-05 -6.73029e-07
1.38608e-05 6.57668e-05 -1.57162e-07
-6.73029e-07 -1.57162e-07 -1.57266e-05
0.00148416 7.85855e-06 -2.80529e-06
7.85855e-06 6.58514e-05 -4.68956e-07
-2.80529e-06 -4.68956e-07 -1.62752e-05
0.00151664 -1.59443e-05 2.02549e-06
-1.59443e-05 6.75367e-05 -1.58148e-07
2.02549e-06 -1.58148e-07 -1.36701e-05
0.00145414 -2.18076e-05 5.05359e-08
-2.18076e-05 6.35853e-05 1.82002e-07
5.05359e-08 1.82002e-07 -1.79756e-05
0.00136408 -2.86811e-05 -2.64342e-06
-2.86811e-05 5.71349e-05 6.22501e-07
-2.64342e-06 6.22501e-07 -2.12342e-05
0.00140484 -4.42122e-05 1.48108e-06
-4.42122e-05 6.89611e-05 -8.60341e-07
1.48108e-06 -8.60341e-07 -1.04229e-05
0.00130265 -4.15062e-05 4.97801e-08
-4.15062e-05 5.33978e-05 1.06424e-07
4.97801e-08 1.06424e-07 -2.35609e-05
0.00112205 -3.12562e-05 -4.06351e-06
-3.12562e-05 2.0407e-05 1.79645e-06
-4.06351e-06 1.79645e-06 -4.67717e-05
0.00124583 -4.57707e-05 1.77263e-06
-4.57707e-05 5.28914e-05 -1.03341e-06
1.77263e-06 -1.03341e-06 -2.13326e-05
0.00106577 -3.30993e-05 1.66319e-07
-3.30993e-05 1.43453e-05 -8.66681e-08
1.66319e-07 -8.66681e-08 -5.0478e-05
0.00176121 3.26741e-06 -6.74686e-06
3.26741e-06 0.000473604 2.0916e-06
-6.74686e-06 2.0916e-06 0.00043729
0.0010127 -3.35659e-05 3.21774e-06
-3.35659e-05 1.0804e-05 -1.40827e-06
3.21774e-06 -1.40827e-06 -5.23562e-05
0.00179349 2.8221e-06 6.78142e-06
2.8221e-06 0.000491627 -8.23978e-07
6.78142e-06 -8.23978e-07 0.000456876
0.00124115 2.99048e-05 -3.48428e-05
2.99048e-05 0.000263105 5.34959e-06
-3.48428e-05 5.34959e-06 0.000244194
0.00180412 5.1634e-06 1.93281e-05
5.1634e-06 0.000497311 -4.0366e-06
1.93281e-05 -4.0366e-06 0.0004649
0.00119128 3.73018e-05 -1.25574e-05
3.73018e-05 0.000230021 2.07368e-06
-1.25574e-05 2.07368e-06 0.000213644
0.00294498 6.97628e-05 1.13941e-05
6.97628e-05 0.00111226 -1.32377e-06
1.13941e-05 -1.32377e-06 0.00111076
0.00175403 4.36789e-05 -2.48001e-06
4.36789e-05 0.000166474 -9.05488e-07
-2.48001e-06 -9.05488e-07 7.57766e-05
0.00151113 6.49372e-05 -1.17485e-06
6.49372e-05 0.000119447 -1.97762e-06
-1.17485e-06 -1.97762e-06 3.46905e-05
0.00154887 6.82906e-05 -1.45903e-06
6.82906e-05 0.000109617 1.12102e-06
-1.45903e-06 1.12102e-06 2.27317e-05
0.00146292 6.66435e-05 -9.77968e-07
6.66435e-05 0.000201651 -3.3234e-07
-9.77968e-07 -3.3234e-07 0.000122736
0.00126757 6.89028e-05 4.30064e-07
6.89028e-05 7.23883e-05 -8.99312e-07
4.30064e-07 -8.99312e-07 -1.07125e-05
0.00123398 6.7733e-05 2.74176e-06
6.7733e-05 2.77714e-05 1.42611e-06
2.74176e-06 1.42611e-06 -4.64692e-05
0.000994881 3.84324e-05 -2.80219e-06
3.84324e-05 4.73834e-05 -1.55401e-06
-2.80219e-06 -1.55401e-06 -1.82983e-05
0.0011238 5.95963e-05 -6.79645e-08
5.95963e-05 7.20452e-05 -8.40525e-08
-6.79645e-08 -8.40525e-08 -7.02489e-06
0.00138601 7.54561e-05 1.51486e-06
7.54561e-05 0.000170723 1.08132e-06
1.51486e-06 1.08132e-06 8.26444e-05
0.00103091 5.20366e-05 1.20761e-06
5.20366e-05 5.27941e-05 4.24919e-07
1.20761e-06 4.24919e-07 -2.27613e-05
0.000920523 2.44695e-05 -4.68026e-08
2.44695e-05 2.9851e-05 -5.96457e-08
-4.68026e-08 -5.96457e-08 -3.21371e-05
0.000800921 -8.54339e-06 -5.50444e-06
-8.54339e-06 2.22207e-06 -3.04225e-06
-5.50444e-06 -3.04225e-06 -3.24245e-05
0.000837281 8.70392e-06 2.31333e-06
8.70392e-06 -3.56629e-06 1.19082e-06
2.31333e-06 1.19082e-06 -6.37228e-05
0.000730262 -2.77797e-05 -1.67042e-07
-2.77797e-05 -3.35263e-05 -3.27389e-08
-1.67042e-07 -3.27389e-08 -6.41652e-05
0.00276351 -5.87255e-05 -2.75422e-05
-5.87255e-05 0.00101388 -3.17477e-06
-2.75422e-05 -3.17477e-06 0.00101589
0.000670641 -3.83458e-05 3.77396e-06
-3.83458e-05 -7.06436e-05 3.49814e-06
3.77396e-06 3.49814e-06 -9.71571e-05
0.00270874 -5.5423e-05 -2.88354e-07
-5.5423e-05 0.000968261 9.43825e-08
-2.88354e-07 9.43825e-08 0.00097429
0.00269628 -5.14458e-05 2.39775e-05
-5.14458e-05 0.000948345 3.41854e-06
2.39775e-05 3.41854e-06 0.000957474
0.00162114 -5.97883e-06 -1.24766e-06
-5.97883e-06 7.52555e-05 1.04642e-06
-1.24766e-06 1.04642e-06 -5.70476e-06
0.00168001 -1.55971e-05 -1.28892e-07
-1.55971e-05 9.13413e-05 5.95928e-07
-1.28892e-07 5.95928e-07 1.20488e-05
0.00161995 -1.77426e-05 1.90873e-06
-1.77426e-05 6.0161e-05 -3.2512e-06
1.90873e-06 -3.2512e-06 -7.53435e-06
0.00159255 3.53744e-05 3.80911e-07
3.53744e-05 4.90381e-05 -1.12615e-07
3.80911e-07 -1.12615e-07 -4.14533e-05
0.00161705 7.50974e-05 1.96408e-06
7.50974e-05 0.000140975 1.09033e-06
1.96408e-06 1.09033e-06 4.85504e-05
0.00189184 3.53428e-05 2.44185e-06
3.53428e-05 0.000177554 -8.14017e-07
2.44185e-06 -8.14017e-07 8.44216e-05
0.00152789 2.47088e-06 -9.12651e-07
2.47088e-06 7.16015e-05 5.68304e-07
-9.12651e-07 5.68304e-07 -1.11823e-05
0.00148869 4.10993e-06 5.61261e-07
4.10993e-06 5.67463e-05 -2.48899e-07
5.61261e-07 -2.48899e-07 -2.01988e-05
0.00151783 4.91475e-06 1.48721e-06
4.91475e-06 6.27252e-05 -1.39702e-07
1.48721e-06 -1.39702e-07 -9.45078e-06
0.001525 2.30563e-05 -6.55789e-07
2.30563e-05 8.19713e-05 -1.83381e-07
-6.55789e-07 -1.83381e-07 -8.98207e-07
0.00156841 2.10053e-05 -3.18161e-07
2.10053e-05 0.000108475 2.07435e-07
-3.18161e-07 2.07435e-07 2.29579e-05
0.00153411 3.23026e-05 1.67138e-06
3.23026e-05 7.63414e-05 6.8247e-07
1.67138e-06 6.8247e-07 -3.68396e-06
0.00155223 2.79808e-05 4.12285e-07
2.79808e-05 8.96335e-05 2.28484e-07
4.12285e-07 2.28484e-07 8.31804e-06
0.00154482 2.37363e-05 -9.16328e-07
2.37363e-05 0.000100138 -2.59716e-07
-9.16328e-07 -2.59716e-07 1.80224e-05
0.0015582 1.30978e-05 1.70037e-06
1.30978e-05 7.68191e-05 6.37099e-07
1.70037e-06 6.37099e-07 -4.6134e-06
0.00148171 6.66442e-06 -6.39347e-07
6.66442e-06 6.47184e-05 1.60934e-08
-6.39347e-07 1.60934e-08 -1.73161e-05
0.00139128 -7.59134e-07 -3.59318e-06
-7.59134e-07 5.73733e-05 2.07861e-07
-3.59318e-06 2.07861e-07 -2.17784e-05
0.00144962 -2.19712e-05 1.89465e-06
-2.19712e-05 6.14411e-05 -1.8193e-07
1.89465e-06 -1.8193e-07 -2.02044e-05
0.00135741 -2.79206e-05 8.38172e-08
-2.79206e-05 5.38776e-05 1.05753e-07
8.38172e-08 1.05753e-07 -2.45543e-05
0.0011545 -2.17089e-05 -4.70478e-06
-2.17089e-05 1.60126e-05 1.50383e-06
-4.70478e-06 1.50383e-06 -5.21282e-05
0.00130662 -4.11389e-05 2.29024e-06
-4.11389e-05 5.49693e-05 -7.83186e-07
2.29024e-06 -7.83186e-07 -2.19991e-05
0.00111797 -3.04619e-05 2.03281e-07
-3.04619e-05 1.7494e-05 7.03977e-08
2.03281e-07 7.03977e-08 -4.97046e-05
0.00186053 5.43951e-06 -6.90726e-06
5.43951e-06 0.000513294 2.19275e-06
-6.90726e-06 2.19275e-06 0.000476443
0.00106523 -3.26005e-05 3.56286e-06
-3.26005e-05 1.37683e-05 -1.62306e-06
3.56286e-06 -1.62306e-06 -5.11292e-05
0.00185849 -1.4232e-06 7.7786e-06
-1.4232e-06 0.000517977 -6.94791e-07
7.7786e-06 -6.94791e-07 0.000481943
0.00127639 2.53385e-05 -3.85094e-05
2.53385e-05 0.000287045 4.81312e-06
-3.85094e-05 4.81312e-06 0.000266506
0.00187274 -1.86803e-06 2.12094e-05
-1.86803e-06 0.000526784 -3.87756e-06
2.12094e-05 -3.87756e-06 0.000492333
0.0012392 3.66308e-05 -1.41948e-05
3.66308e-05 0.000265519 1.80503e-06
-1.41948e-05 1.80503e-06 0.000245784
0.00117261 4.30885e-05 7.34938e-06
4.30885e-05 0.000223386 -1.65777e-06
7.34938e-06 -1.65777e-06 0.00020646
0.00155285 6.15038e-06 -1.5272e-06
6.15038e-06 5.10341e-05 1.14545e-06
-1.5272e-06 1.14545e-06 -3.06966e-05
0.00152256 4.57844e-05 -2.68478e-06
4.57844e-05 8.34769e-05 -5.41746e-07
-2.68478e-06 -5.41746e-07 -4.32997e-06
0.00165893 4.27986e-05 -1.0989e-06
4.27986e-05 0.000116188 -8.562e-07
-1.0989e-06 -8.562e-07 2.51719e-05
0.00143303 6.11878e-05 -2.05562e-06
6.11878e-05 0.000131222 -8.48154e-07
-2.05562e-06 -8.48154e-07 5.12565e-05
0.00157298 6.61518e-05 7.845e-07
6.61518e-05 0.000154334 5.79466e-07
7.845e-07 5.79466e-07 7.00132e-05
0.00156002 6.93516e-05 3.66739e-06
6.93516e-05 0.000124505 2.61028e-06
3.66739e-06 2.61028e-06 3.84554e-05
0.000968246 4.31517e-05 -3.29373e-06
4.31517e-05 6.13132e-07 -1.3994e-06
-3.29373e-06 -1.3994e-06 -6.74719e-05
0.00116915 6.11088e-05 9.30293e-07
6.11088e-05 5.38781e-05 5.77732e-07
9.30293e-07 5.77732e-07 -2.60667e-05
0.00111246 6.65078e-05 1.27285e-06
6.65078e-05 -6.01986e-06 1.25938e-06
1.27285e-06 1.25938e-06 -8.87996e-05
0.000809089 9.46942e-06 -6.2594e-06
9.46942e-06 4.09524e-06 -3.45173e-06
-6.2594e-06 -3.45173e-06 -3.5494e-05
0.000957619 3.65273e-05 -1.39677e-07
3.65273e-05 2.8764e-05 -1.24952e-07
-1.39677e-07 -1.24952e-07 -3.66908e-05
0.00112475 5.98404e-05 1.50841e-06
5.98404e-05 7.24977e-05 9.31255e-07
1.50841e-06 9.31255e-07 -6.65553e-06
0.00087057 2.25358e-05 2.38791e-06
2.25358e-05 5.92552e-06 9.93796e-07
2.38791e-06 9.93796e-07 -5.598e-05
0.000738975 -1.18277e-05 -4.117e-08
-1.18277e-05 -2.41237e-05 -5.65586e-08
-4.117e-08 -5.65586e-08 -5.92192e-05
0.00292512 -6.2106e-05 -3.10036e-05
-6.2106e-05 0.00111188 -3.02933e-06
-3.10036e-05 -3.02933e-06 0.00110992
0.000675881 -3.54158e-05 3.81612e-06
-3.54158e-05 -5.76894e-05 3.30956e-06
3.81612e-06 3.30956e-06 -8.89702e-05
0.00276717 -5.95029e-05 -3.59556e-07
-5.95029e-05 0.0010127 1.06247e-07
-3.59556e-07 1.06247e-07 0.0010153
0.00274628 -5.598e-05 2.48837e-05
-5.598e-05 0.000984485 3.26851e-06
2.48837e-05 3.26851e-06 0.000990969
0.00161478 -1.28715e-05 -1.0401e-06
-1.28715e-05 8.98157e-05 -3.97174e-07
-1.0401e-06 -3.97174e-07 7.63219e-06
0.00166434 -6.4724e-06 -3.67136e-07
-6.4724e-06 9.43849e-05 2.18922e-07
-3.67136e-07 2.18922e-07 1.3128e-05
0.00172696 -1.47228e-05 1.07115e-06
-1.47228e-05 0.000107749 -1.611e-06
1.07115e-06 -1.611e-06 2.74625e-05
0.00170556 3.60711e-05 2.7571e-06
3.60711e-05 9.85914e-05 -2.38637e-07
2.7571e-06 -2.38637e-07 8.57748e-06
0.00155085 -1.26806e-06 -9.26717e-07
-1.26806e-06 8.24945e-05 -3.22916e-07
-9.26717e-07 -3.22916e-07 -3.74319e-06
0.00157676 2.51005e-06 -2.59512e-07
2.51005e-06 9.56872e-05 -1.64728e-07
-2.59512e-07 -1.64728e-07 1.33143e-05
0.00146451 6.58848e-06 6.6963e-07
6.58848e-06 4.71267e-05 -2.07464e-07
6.6963e-07 -2.07464e-07 -3.02089e-05
0.00150281 1.81091e-05 -5.20181e-07
1.81091e-05 7.14866e-05 -4.47049e-07
-5.20181e-07 -4.47049e-07 -1.10812e-05
0.00152517 2.56109e-05 5.27643e-08
2.56109e-05 8.637e-05 -2.57196e-07
5.27643e-08 -2.57196e-07 7.48e-07
0.00153965 2.24624e-05 -1.53481e-06
2.24624e-05 0.00010385 5.04074e-07
-1.53481e-06 5.04074e-07 1.94376e-05
0.00154517 2.7762e-05 1.85244e-06
2.7762e-05 8.70463e-05 9.36082e-07
1.85244e-06 9.36082e-07 5.69073e-06
0.0015498 2.41783e-05 4.79182e-07
2.41783e-05 0.000104257 1.19151e-07
4.79182e-07 1.19151e-07 2.23645e-05
0.00132065 2.05261e-05 -2.74763e-06
2.05261e-05 1.8506e-05 -4.1617e-08
-2.74763e-06 -4.1617e-08 -6.15747e-05
0.00147239 6.98513e-06 1.39049e-06
6.98513e-06 6.0369e-05 5.17944e-07
1.39049e-06 5.17944e-07 -2.15904e-05
0.00138035 1.00639e-06 -3.38124e-07
1.00639e-06 5.20188e-05 1.27612e-07
-3.38124e-07 1.27612e-07 -2.70582e-05
0.00116433 -2.6243e-06 -5.05618e-06
-2.6243e-06 9.05296e-06 1.03682e-06
-5.05618e-06 1.03682e-06 -5.92033e-05
0.00135024 -2.49842e-05 2.70254e-06
-2.49842e-05 5.04273e-05 -3.6934e-07
2.70254e-06 -3.6934e-07 -2.80349e-05
0.00115457 -2.29118e-05 1.09774e-07
-2.29118e-05 1.55008e-05 1.60552e-07
1.09774e-07 1.60552e-07 -5.27e-05
0.000697934 -9.6524e-06 -7.66117e-06
-9.6524e-06 -8.99736e-05 3.12762e-06
-7.66117e-06 3.12762e-06 -0.000131764
0.00111681 -2.98407e-05 4.2098e-06
-2.98407e-05 1.60519e-05 -1.54085e-06
4.2098e-06 -1.54085e-06 -5.11805e-05
0.001328 -1.26178e-05 9.77751e-06
-1.26178e-05 0.000238406 -3.47979e-07
9.77751e-06 -3.47979e-07 0.000199315
0.00375931 7.61411e-05 -4.17681e-05
7.61411e-05 0.00155273 1.97072e-06
-4.17681e-05 1.97072e-06 0.00154255
0.00195169 -7.28786e-06 2.33831e-05
-7.28786e-06 0.000560089 -3.75538e-06
2.33831e-05 -3.75538e-06 0.000524454
0.00128665 3.52858e-05 -1.60505e-05
3.52858e-05 0.000296398 1.51766e-06
-1.60505e-05 1.51766e-06 0.000274602
0.00123519 4.49125e-05 7.42415e-06
4.49125e-05 0.000267128 -1.67962e-06
7.42415e-06 -1.67962e-06 0.000246397
0.00163649 -5.14848e-06 -5.57001e-07
-5.14848e-06 0.000104618 2.6964e-08
-5.57001e-07 2.6964e-08 2.42937e-05
0.00138744 1.48086e-05 -1.78897e-06
1.48086e-05 4.67043e-06 8.11026e-07
-1.78897e-06 8.11026e-07 -7.84754e-05
0.00158641 6.05248e-06 8.4876e-08
6.05248e-06 7.07522e-05 -4.2911e-08
8.4876e-08 -4.2911e-08 -1.09493e-05
0.00108573 4.35445e-05 -3.15196e-06
4.35445e-05 -8.59097e-05 -9.56314e-07
-3.15196e-06 -9.56314e-07 -0.000168671
0.00154266 4.59817e-05 1.35942e-07
4.59817e-05 9.59962e-05 -3.45817e-08
1.35942e-07 -3.45817e-08 8.95347e-06
0.00156244 4.2033e-05 1.65379e-06
4.2033e-05 6.55101e-05 -5.18742e-07
1.65379e-06 -5.18742e-07 -2.58676e-05
0.000693046 3.69184e-05 -4.9653e-06
3.69184e-05 -0.000179736 -1.89389e-06
-4.9653e-06 -1.89389e-06 -0.000250344
0.00143321 6.18626e-05 5.42561e-07
6.18626e-05 0.000130736 -3.02775e-09
5.42561e-07 -3.02775e-09 5.0684e-05
0.00163306 6.74454e-05 2.48102e-06
6.74454e-05 0.000188889 1.73679e-06
2.48102e-06 1.73679e-06 0.000104921
0.000789047 2.42956e-05 -7.25591e-06
2.42956e-05 -1.65803e-05 -3.6532e-06
-7.25591e-06 -3.6532e-06 -5.99414e-05
0.000807961 3.9541e-05 -1.30168e-07
3.9541e-05 -8.19859e-05 8.16241e-08
-1.30168e-07 8.16241e-08 -0.000150912
0.000879091 5.56493e-05 2.70132e-06
5.56493e-05 -9.20763e-05 1.66701e-06
2.70132e-06 1.66701e-06 -0.000173055
0.00322564 -6.05705e-05 -3.80972e-05
-6.05705e-05 0.00127592 -2.9953e-06
-3.80972e-05 -2.9953e-06 0.00127038
0.000732024 6.26425e-06 -1.2531e-07
6.26425e-06 -2.91488e-05 -4.41881e-08
-1.2531e-07 -4.41881e-08 -6.89932e-05
0.000927406 3.46589e-05 2.51197e-06
3.46589e-05 1.36546e-05 1.37676e-06
2.51197e-06 1.37676e-06 -5.15856e-05
0.000674259 -1.38259e-05 4.80515e-06
-1.38259e-05 -5.18536e-05 3.18447e-06
4.80515e-06 3.18447e-06 -8.72456e-05
0.0028971 -6.39602e-05 -4.83849e-07
-6.39602e-05 0.00109503 1.32717e-07
-4.83849e-07 1.32717e-07 0.00109364
0.00278689 -6.00871e-05 2.5923e-05
-6.00871e-05 0.00101911 3.12663e-06
2.5923e-05 3.12663e-06 0.00102237
0.001571 -1.34079e-05 -1.54553e-06
-1.34079e-05 8.1244e-05 -2.62583e-07
-1.54553e-06 -2.62583e-07 -1.92061e-06
0.00160514 -1.27776e-05 -3.85128e-07
-1.27776e-05 8.5692e-05 -2.3774e-07
-3.85128e-07 -2.3774e-07 3.77554e-06
0.00171854 -6.86858e-06 1.12916e-06
-6.86858e-06 0.000119013 -1.04466e-06
1.12916e-06 -1.04466e-06 3.74446e-05
0.00160699 1.29021e-05 -1.43444e-06
1.29021e-05 0.000115237 1.19068e-07
-1.43444e-06 1.19068e-07 2.77265e-05
0.00155851 2.35314e-06 -3.58703e-07
2.35314e-06 8.53072e-05 -2.93983e-07
-3.58703e-07 -2.93983e-07 -1.37257e-06
0.00163256 -3.55623e-07 -2.17698e-07
-3.55623e-07 0.000123061 -1.52058e-07
-2.17698e-07 -1.52058e-07 4.11972e-05
0.00147096 2.86431e-05 6.47214e-07
2.86431e-05 5.88237e-05 -9.38898e-07
6.47214e-07 -9.38898e-07 -2.68188e-05
0.00153129 2.45949e-05 3.34077e-07
2.45949e-05 9.91204e-05 9.96326e-08
3.34077e-07 9.96326e-08 1.47892e-05
0.00154339 1.87868e-05 -2.26e-06
1.87868e-05 0.000127705 6.43999e-07
-2.26e-06 6.43999e-07 4.77618e-05
0.00155953 2.46477e-05 2.23221e-06
2.46477e-05 0.000110649 7.0216e-07
2.23221e-06 7.0216e-07 2.89844e-05
0.00146795 2.28179e-05 6.86918e-08
2.28179e-05 9.45171e-05 6.32717e-08
6.86918e-08 6.32717e-08 1.54516e-05
0.000916295 1.51386e-05 -6.00168e-06
1.51386e-05 -0.000124372 9.61347e-07
-6.00168e-06 9.61347e-07 -0.000195153
0.00136309 3.93029e-07 2.53554e-06
3.93029e-07 4.36072e-05 9.04103e-08
2.53554e-06 9.04103e-08 -3.54455e-05
0.00115985 -9.75685e-07 -2.22725e-08
-9.75685e-07 6.50634e-06 3.33752e-08
-2.22725e-08 3.33752e-08 -6.16967e-05
0.00070934 -1.41153e-06 -7.84645e-06
-1.41153e-06 -9.0831e-05 2.60708e-06
-7.84645e-06 2.60708e-06 -0.000132219
0.00115103 -2.22924e-05 4.91017e-06
-2.22924e-05 1.32246e-05 -1.17519e-06
4.91017e-06 -1.17519e-06 -5.50045e-05
0.000707448 -7.10311e-06 -9.75119e-08
-7.10311e-06 -8.51999e-05 1.52124e-07
-9.75119e-08 1.52124e-07 -0.000127098
0.00382264 8.12604e-05 -4.22259e-05
8.12604e-05 0.00158375 1.46137e-06
-4.22259e-05 1.46137e-06 0.00157315
0.000773538 -2.16049e-05 9.86855e-06
-2.16049e-05 -4.61627e-05 -4.19908e-06
9.86855e-06 -4.19908e-06 -8.87793e-05
0.00260698 6.43636e-05 1.56093e-05
6.43636e-05 0.000967853 8.92048e-07
1.56093e-05 8.92048e-07 0.000950535
0.00130019 4.7132e-05 7.20846e-06
4.7132e-05 0.000307796 -1.69795e-06
7.20846e-06 -1.69795e-06 0.00028451
0.00172413 -1.35485e-05 -9.31468e-07
-1.35485e-05 0.00016275 4.0228e-08
-9.31468e-07 4.0228e-08 8.18635e-05
0.00149227 5.95559e-08 -1.27505e-06
5.95559e-08 5.8924e-05 1.7555e-07
-1.27505e-06 1.7555e-07 -2.13477e-05
0.00154272 -5.29146e-06 1.3208e-08
-5.29146e-06 5.88036e-05 1.25473e-07
1.3208e-08 1.25473e-07 -2.12529e-05
0.00134004 2.28906e-05 -2.66829e-06
2.28906e-05 2.58416e-05 8.2409e-08
-2.66829e-06 8.2409e-08 -5.3828e-05
0.00142943 1.45289e-05 4.19087e-07
1.45289e-05 2.63365e-05 -1.26896e-07
4.19087e-07 -1.26896e-07 -5.64853e-05
0.00162277 5.85756e-06 1.53135e-06
5.85756e-06 9.16991e-05 -8.79408e-07
1.53135e-06 -8.79408e-07 1.00432e-05
0.000779079 3.2264e-05 -5.70461e-06
3.2264e-05 -0.000172227 -1.86068e-06
-5.70461e-06 -1.86068e-06 -0.000243566
0.00143585 4.93718e-05 -7.73852e-07
4.93718e-05 8.97464e-05 -2.13711e-07
-7.73852e-07 -2.13711e-07 8.26418e-06
0.00157531 4.63436e-05 2.88494e-06
4.63436e-05 0.000114389 -1.34622e-07
2.88494e-06 -1.34622e-07 2.81416e-05
0.000757201 3.16913e-05 -8.37157e-06
3.16913e-05 -4.6599e-05 -3.68217e-06
-8.37157e-06 -3.68217e-06 -9.11422e-05
0.000757101 3.85307e-05 -1.31135e-06
3.85307e-05 -0.000151758 -5.169e-07
-1.31135e-06 -5.169e-07 -0.00022272
0.00143663 6.26271e-05 3.04049e-06
6.26271e-05 0.000131867 1.02432e-06
3.04049e-06 1.02432e-06 5.17216e-05
0.00357353 -6.02237e-05 -4.3313e-05
-6.02237e-05 0.00145722 -2.86394e-06
-4.3313e-05 -2.86394e-06 0.0014489
0.000724934 2.10408e-05 -1.63961e-07
2.10408e-05 -4.3991e-05 1.32826e-07
-1.63961e-07 1.32826e-07 -8.75298e-05
0.000650193 3.59865e-05 3.12607e-06
3.59865e-05 -0.000163437 1.79242e-06
3.12607e-06 1.79242e-06 -0.000233196
0.00312457 -6.79062e-05 -1.11853e-06
-6.79062e-05 0.00122413 1.62136e-07
-1.11853e-06 1.62136e-07 0.00121879
0.000657933 3.61066e-06 5.36958e-06
3.61066e-06 -6.09817e-05 3.46213e-06
5.36958e-06 3.46213e-06 -0.000101062
0.00285179 -6.40882e-05 2.70445e-05
-6.40882e-05 0.00106923 2.98659e-06
2.70445e-05 2.98659e-06 0.00106863
0.00160233 2.61363e-07 -1.37121e-06
2.61363e-07 0.000110947 -3.41923e-07
-1.37121e-06 -3.41923e-07 2.64857e-05
0.0015842 -1.24376e-05 2.48964e-07
-1.24376e-05 8.83306e-05 2.66103e-07
2.48964e-07 2.66103e-07 5.14579e-06
0.00158532 -1.24665e-05 5.19866e-07
-1.24665e-05 7.65097e-05 -4.47963e-07
5.19866e-07 -4.47963e-07 -5.1219e-06
0.00157589 1.56528e-06 -2.82688e-06
1.56528e-06 0.00012441 1.59806e-07
-2.82688e-06 1.59806e-07 4.16392e-05
0.00160568 1.27275e-05 3.36208e-07
1.27275e-05 0.000116889 -4.86109e-08
3.36208e-07 -4.86109e-08 2.9492e-05
0.0015689 8.45936e-06 1.30478e-06
8.45936e-06 8.96518e-05 -2.9899e-07
1.30478e-06 -2.9899e-07 2.3974e-06
0.00152926 2.55324e-05 1.72948e-06
2.55324e-05 9.75138e-05 -5.69581e-07
1.72948e-06 -5.69581e-07 1.32926e-05
0.0015384 1.92189e-05 5.75041e-07
1.92189e-05 0.0001249 -5.26484e-08
5.75041e-07 -5.26484e-08 4.51031e-05
0.000932296 1.15621e-05 -5.94856e-06
1.15621e-05 -0.000127363 1.07412e-06
-5.94856e-06 1.07412e-06 -0.000199737
0.00162663 2.51259e-05 3.02325e-06
2.51259e-05 0.000176127 3.04335e-08
3.02325e-06 3.04335e-08 9.80786e-05
0.001041 1.70341e-05 -9.64148e-07
1.70341e-05 -6.02073e-05 2.13927e-07
-9.64148e-07 2.13927e-07 -0.000129998
0.000722631 4.39391e-06 -8.30594e-06
4.39391e-06 -8.98749e-05 2.20498e-06
-8.30594e-06 2.20498e-06 -0.000132394
0.00115654 -1.45974e-06 4.95467e-06
-1.45974e-06 4.47596e-06 -1.01158e-06
4.95467e-06 -1.01158e-06 -6.36881e-05
0.000711987 5.8581e-06 1.57603e-07
5.8581e-06 -8.90243e-05 2.86439e-08
1.57603e-07 2.86439e-08 -0.00013075
0.00391773 7.96571e-05 -4.52875e-05
7.96571e-05 0.00162918 9.13229e-07
-4.52875e-05 9.13229e-07 0.0016189
0.000711322 -2.35354e-06 7.56074e-06
-2.35354e-06 -8.34158e-05 -2.86653e-06
7.56074e-06 -2.86653e-06 -0.000125246
0.00387654 7.94884e-05 3.46149e-07
7.94884e-05 0.00161017 1.62828e-07
3.46149e-07 1.62828e-07 0.00159972
0.00149995 2.26859e-05 4.03501e-05
2.26859e-05 0.000402533 -2.41892e-06
4.03501e-05 -2.41892e-06 0.000380893
0.00167368 -7.98752e-06 -1.26255e-06
-7.98752e-06 0.000154631 -1.56707e-07
-1.26255e-06 -1.56707e-07 7.40159e-05
0.00159944 -1.36563e-05 4.27634e-07
-1.36563e-05 0.000100938 2.56651e-07
4.27634e-07 2.56651e-07 2.03346e-05
0.00137357 4.10094e-07 -2.43188e-06
4.10094e-07 3.5847e-05 -2.11564e-07
-2.43188e-06 -2.11564e-07 -4.27558e-05
0.00150737 -5.21826e-07 2.59111e-07
-5.21826e-07 6.59124e-05 -1.46417e-07
2.59111e-07 -1.46417e-07 -1.43765e-05
0.0014468 -5.45093e-06 1.76989e-06
-5.45093e-06 1.19795e-05 -8.09431e-09
1.76989e-06 -8.09431e-09 -6.78133e-05
0.00115898 2.02922e-05 -5.20763e-06
2.02922e-05 1.37297e-06 -1.19931e-06
-5.20763e-06 -1.19931e-06 -6.77602e-05
0.00138142 2.31294e-05 -5.07441e-08
2.31294e-05 4.49937e-05 1.27391e-07
-5.07441e-08 1.27391e-07 -3.4703e-05
0.00147055 1.42489e-05 1.69269e-06
1.42489e-05 4.7534e-05 -6.83478e-07
1.69269e-06 -6.83478e-07 -3.4961e-05
0.000733449 2.86799e-05 -8.95279e-06
2.86799e-05 -7.14672e-05 -3.50155e-06
-8.95279e-06 -3.50155e-06 -0.000115178
0.000984182 3.57028e-05 -1.55201e-06
3.57028e-05 -6.98443e-05 -3.94569e-07
-1.55201e-06 -3.94569e-07 -0.00014054
0.00178133 5.50023e-05 2.5918e-06
5.50023e-05 0.000263052 4.25256e-07
2.5918e-06 4.25256e-07 0.000182871
0.00385718 -6.32977e-05 -4.62394e-05
-6.32977e-05 0.00160101 -2.54136e-06
-4.62394e-05 -2.54136e-06 0.00159112
0.000719899 2.89094e-05 -3.57262e-08
2.89094e-05 -6.25405e-05 1.6138e-07
-3.57262e-08 1.6138e-07 -0.000107219
0.000815153 4.00949e-05 3.00795e-06
4.00949e-05 -0.000126627 1.17761e-06
3.00795e-06 1.17761e-06 -0.000197953
0.00344438 -6.69702e-05 -1.26314e-06
-6.69702e-05 0.00139271 1.91638e-07
-1.26314e-06 1.91638e-07 0.00138456
0.000665192 1.76414e-05 6.20469e-06
1.76414e-05 -6.95017e-05 3.88853e-06
6.20469e-06 3.88853e-06 -0.000113203
0.00302044 -6.90271e-05 2.88523e-05
-6.90271e-05 0.00117034 2.87478e-06
2.88523e-05 2.87478e-06 0.00116564
0.00158211 4.86981e-06 -2.2478e-06
4.86981e-06 0.000130727 -5.61199e-07
-2.2478e-06 -5.61199e-07 5.00821e-05
0.0015993 -2.19648e-06 2.29491e-07
-2.19648e-06 0.000111398 1.87302e-07
2.29491e-07 1.87302e-07 2.71291e-05
0.00160188 -1.20106e-05 2.00402e-06
-1.20106e-05 9.76845e-05 7.72273e-07
2.00402e-06 7.72273e-07 1.44628e-05
0.000942123 -1.04348e-05 -6.54562e-06
-1.04348e-05 -0.000134272 3.67971e-07
-6.54562e-06 3.67971e-07 -0.000208385
0.00159237 8.43218e-06 5.98083e-07
8.43218e-06 0.00013341 1.1682e-07
5.98083e-07 1.1682e-07 5.05016e-05
0.0015948 1.27855e-05 2.17832e-06
1.27855e-05 0.000113842 -4.25376e-07
2.17832e-06 -4.25376e-07 2.657e-05
0.00153535 1.93295e-05 3.27916e-06
1.93295e-05 0.000123077 -4.02687e-07
3.27916e-06 -4.02687e-07 4.342e-05
0.000929867 1.15334e-05 -7.32388e-07
1.15334e-05 -0.00012728 1.9484e-07
-7.32388e-07 1.9484e-07 -0.000199317
0.000724734 9.68052e-06 -8.68512e-06
9.68052e-06 -9.78432e-05 1.54463e-06
-8.68512e-06 1.54463e-06 -0.000141473
0.00115935 1.97968e-05 4.11014e-06
1.97968e-05 7.49346e-07 -7.7512e-07
4.11014e-06 -7.7512e-07 -6.80623e-05
0.000726493 1.32502e-05 2.44819e-07
1.32502e-05 -8.77818e-05 3.19764e-08
2.44819e-07 3.19764e-08 -0.000130509
0.00401777 7.6561e-05 -4.83022e-05
7.6561e-05 0.00167614 3.70768e-07
-4.83022e-05 3.70768e-07 0.00166629
0.000714624 1.4041e-05 7.77705e-06
1.4041e-05 -8.74884e-05 -2.47653e-06
7.77705e-06 -2.47653e-06 -0.000129334
0.00396609 8.10698e-05 5.76944e-08
8.10698e-05 0.00165296 1.39385e-07
5.76944e-08 1.39385e-07 0.00164259
0.0039491 7.89993e-05 4.63895e-05
7.89993e-05 0.00164583 -1.1449e-06
4.63895e-05 -1.1449e-06 0.00163547
0.00143909 -5.28316e-06 -2.64339e-06
-5.28316e-06 6.61738e-05 -6.17159e-07
-2.64339e-06 -6.17159e-07 -1.33516e-05
0.00157161 -9.06161e-06 2.36212e-07
-9.06161e-06 0.000102444 1.38446e-07
2.36212e-07 1.38446e-07 2.17808e-05
0.0014689 -1.35733e-05 1.31919e-06
-1.35733e-05 3.61701e-05 4.75936e-07
1.31919e-06 4.75936e-07 -4.41317e-05
0.00116624 -1.07967e-06 -5.18738e-06
-1.07967e-06 -3.49201e-06 -1.23886e-06
-5.18738e-06 -1.23886e-06 -7.23621e-05
0.00139884 1.62e-07 1.30262e-07
1.62e-07 4.78056e-05 -9.28805e-08
1.30262e-07 -9.28805e-08 -3.08352e-05
0.00152096 -1.08735e-06 1.31614e-06
-1.08735e-06 7.21867e-05 -5.22234e-07
1.31614e-06 -5.22234e-07 -8.12275e-06
0.000719422 1.75646e-05 -9.02235e-06
1.75646e-05 -8.81452e-05 -3.11333e-06
-9.02235e-06 -3.11333e-06 -0.000130532
0.00117549 2.01188e-05 -1.07915e-07
2.01188e-05 9.80913e-06 1.45855e-07
-1.07915e-07 1.45855e-07 -5.94167e-05
0.00142272 2.33149e-05 2.89472e-06
2.33149e-05 6.41267e-05 2.50863e-07
2.89472e-06 2.50863e-07 -1.56023e-05
0.00401558 -6.8085e-05 -4.77504e-05
-6.8085e-05 0.00167872 -2.08597e-06
-4.77504e-05 -2.08597e-06 0.00166837
0.00071705 2.80211e-05 8.26272e-08
2.80211e-05 -7.8376e-05 1.52654e-07
8.26272e-08 1.52654e-07 -0.00012212
0.00119867 3.94725e-05 3.7286e-06
3.94725e-05 3.74035e-05 1.26878e-06
3.7286e-06 1.26878e-06 -3.27062e-05
0.00372862 -6.67965e-05 -1.0489e-06
-6.67965e-05 0.0015374 2.05332e-07
-1.0489e-06 2.05332e-07 0.0015276
0.000684534 2.65987e-05 7.3669e-06
2.65987e-05 -7.78629e-05 3.87162e-06
7.3669e-06 3.87162e-06 -0.000122601
0.0032991 -7.33746e-05 3.31449e-05
-7.33746e-05 0.00132044 2.74875e-06
3.31449e-05 2.74875e-06 0.00131234
0.0012164 -2.02466e-06 -5.62612e-06
-2.02466e-06 6.33578e-06 -6.15526e-07
-5.62612e-06 -6.15526e-07 -6.51575e-05
0.00146348 -2.97291e-08 6.25186e-07
-2.97291e-08 6.98219e-05 -9.21883e-08
6.25186e-07 -9.21883e-08 -1.20855e-05
0.00159824 -5.68199e-06 2.04761e-06
-5.68199e-06 0.000112676 9.55075e-07
2.04761e-06 9.55075e-07 2.86031e-05
0.000726364 9.6319e-06 -9.13963e-06
9.6319e-06 -0.000104201 3.92453e-07
-9.13963e-06 3.92453e-07 -0.000148155
0.000951765 -2.85027e-06 -9.11918e-07
-2.85027e-06 -0.00012917 3.11287e-07
-9.11918e-07 3.11287e-07 -0.000203006
0.00161064 1.47585e-05 3.93181e-06
1.47585e-05 0.000143352 -4.11697e-07
3.93181e-06 -4.11697e-07 6.02919e-05
0.000927383 1.18089e-05 4.12768e-06
1.18089e-05 -0.000127348 -5.4571e-07
4.12768e-06 -5.4571e-07 -0.000199024
0.000733497 1.20496e-05 1.94707e-07
1.20496e-05 -9.33245e-05 1.72746e-07
1.94707e-07 1.72746e-07 -0.000137168
0.00417208 7.49096e-05 -5.09719e-05
7.49096e-05 0.00174845 -1.62098e-07
-5.09719e-05 -1.62098e-07 0.00173883
0.000730816 2.06157e-05 8.24069e-06
2.06157e-05 -8.53231e-05 -2.04588e-06
8.24069e-06 -2.04588e-06 -0.000128383
0.00407917 7.76679e-05 4.00847e-07
7.76679e-05 0.00170576 1.64653e-07
4.00847e-07 1.64653e-07 0.00169584
0.00401286 8.29887e-05 4.90656e-05
8.29887e-05 0.00167602 -6.23967e-07
4.90656e-05 -6.23967e-07 0.00166553
0.00119486 -6.56064e-06 -5.51551e-06
-6.56064e-06 3.47405e-06 -1.29089e-06
-5.51551e-06 -1.29089e-06 -6.64824e-05
0.00138399 -6.66256e-06 -6.34384e-08
-6.66256e-06 3.71245e-05 -8.22501e-08
-6.34384e-08 -8.22501e-08 -4.27528e-05
0.00147363 -1.01959e-05 1.53459e-06
-1.01959e-05 5.23494e-05 2.85263e-07
1.53459e-06 2.85263e-07 -2.83756e-05
0.00208878 -6.54513e-06 -2.85628e-05
-6.54513e-06 0.000599205 -1.93456e-06
-2.85628e-05 -1.93456e-06 0.000564208
0.00118592 -1.46944e-06 1.1593e-07
-1.46944e-06 6.34559e-06 3.81467e-08
1.1593e-07 3.81467e-08 -6.26691e-05
0.00142777 -2.81177e-07 2.73152e-06
-2.81177e-07 6.15607e-05 6.63499e-08
2.73152e-06 6.63499e-08 -1.71242e-05
0.00409548 -6.27521e-05 -5.08777e-05
-6.27521e-05 0.00171421 -1.48419e-06
-5.08777e-05 -1.48419e-06 0.00170487
0.000719205 1.78979e-05 -2.9084e-08
1.78979e-05 -8.809e-05 1.19784e-07
-2.9084e-08 1.19784e-07 -0.000130537
0.00119165 1.93352e-05 5.36927e-06
1.93352e-05 1.81402e-05 1.50519e-06
5.36927e-06 1.50519e-06 -5.12186e-05
0.00392435 -6.32366e-05 2.30812e-07
-6.32366e-05 0.00163323 1.71448e-07
2.30812e-07 1.71448e-07 0.00162336
0.000695793 2.68306e-05 8.27943e-06
2.68306e-05 -8.76682e-05 3.65926e-06
8.27943e-06 3.65926e-06 -0.000131489
0.0036091 -7.23937e-05 3.93195e-05
-7.23937e-05 0.00147862 2.59843e-06
3.93195e-05 2.59843e-06 0.00146874
0.000769255 4.62766e-06 -1.19987e-05
4.62766e-06 -8.32027e-05 -1.11067e-06
-1.19987e-05 -1.11067e-06 -0.000127661
0.00108184 -4.70797e-06 1.27755e-07
-4.70797e-06 -6.21686e-05 2.66451e-07
1.27755e-07 2.66451e-07 -0.000134462
0.00133533 -4.72995e-06 3.61807e-06
-4.72995e-06 3.98147e-06 5.49299e-07
3.61807e-06 5.49299e-07 -7.91153e-05
0.00431095 -8.41699e-06 -5.12954e-05
-8.41699e-06 0.00181318 -7.25649e-07
-5.12954e-05 -7.25649e-07 0.00180424
0.000739522 7.12555e-06 9.95483e-08
7.12555e-06 -9.76581e-05 1.81009e-07
9.95483e-08 1.81009e-07 -0.000141872
0.000954897 4.3845e-06 4.52586e-06
4.3845e-06 -0.000127215 -7.39066e-08
4.52586e-06 -7.39066e-08 -0.000200793
0.000741139 1.85477e-05 8.81928e-06
1.85477e-05 -8.90431e-05 -1.15662e-06
8.81928e-06 -1.15662e-06 -0.000133323
0.00423059 7.83254e-05 1.88255e-06
7.83254e-05 0.00177703 2.58578e-07
1.88255e-06 2.58578e-07 0.00176719
0.00413932 8.10693e-05 5.38117e-05
8.10693e-05 0.00173508 -7.6557e-08
5.38117e-05 -7.6557e-08 0.00172489
0.00216151 -2.1038e-05 -3.25093e-05
-2.1038e-05 0.000628271 -1.76646e-06
-3.25093e-05 -1.76646e-06 0.000592023
0.00120253 -5.20774e-06 -4.95902e-08
-5.20774e-06 7.09251e-06 1.69709e-08
-4.95902e-08 1.69709e-08 -6.27989e-05
0.00132828 -7.89103e-06 2.61419e-06
-7.89103e-06 7.76296e-06 4.62531e-07
2.61419e-06 4.62531e-07 -7.24601e-05
0.00402901 -7.80467e-05 -1.34501e-05
-7.80467e-05 0.00168294 -5.89993e-07
-1.34501e-05 -5.89993e-07 0.00167194
0.000731292 3.21441e-06 -5.32193e-08
3.21441e-06 -8.84658e-05 5.32205e-08
-5.32193e-08 5.32205e-08 -0.000130755
0.00120772 -5.75267e-07 5.37239e-06
-5.75267e-07 1.70543e-05 1.25004e-06
5.37239e-06 1.25004e-06 -5.20384e-05
0.00403083 -6.06549e-05 6.1019e-07
-6.06549e-05 0.00168273 1.65022e-07
6.1019e-07 1.65022e-07 0.0016734
0.000714495 1.89978e-05 8.97689e-06
1.89978e-05 -9.02823e-05 3.29456e-06
8.97689e-06 3.29456e-06 -0.000132744
0.00382816 -6.61754e-05 4.38862e-05
-6.61754e-05 0.00158643 2.28116e-06
4.38862e-05 2.28116e-06 0.00157643
0.00155475 -8.33341e-06 -5.36246e-05
-8.33341e-06 0.000409932 -2.52953e-07
-5.36246e-05 -2.52953e-07 0.000388674
0.00146697 -1.74429e-06 -1.23008e-05
-1.74429e-06 0.00027126 3.57404e-07
-1.23008e-05 3.57404e-07 0.000231116
0.000958888 -3.57518e-06 5.64551e-06
-3.57518e-06 -0.000124885 9.48409e-07
5.64551e-06 9.48409e-07 -0.000197948
0.00431847 1.09887e-06 2.18641e-06
1.09887e-06 0.00181799 -4.26186e-07
2.18641e-06 -4.26186e-07 0.00180842
0.000744196 5.5562e-06 9.42116e-06
5.5562e-06 -9.52383e-05 -3.0308e-08
9.42116e-06 -3.0308e-08 -0.000139512
0.00428478 7.36554e-05 5.60951e-05
7.36554e-05 0.00180283 5.05489e-07
5.60951e-05 5.05489e-07 0.00179326
0.00141764 -3.20421e-05 -8.37871e-06
-3.20421e-05 0.000349604 -9.64373e-07
-8.37871e-06 -9.64373e-07 0.000326348
0.00145658 -3.46322e-06 -1.15934e-05
-3.46322e-06 0.000271872 1.79201e-07
-1.15934e-05 1.79201e-07 0.000232431
0.00120916 -6.36398e-06 5.28125e-06
-6.36398e-06 1.02938e-05 1.24874e-06
5.28125e-06 1.24874e-06 -5.95985e-05
0.00273431 -4.53472e-05 2.17153e-05
-4.53472e-05 0.00102161 -1.58073e-08
2.17153e-05 -1.58073e-08 0.0010057
0.000740171 8.6781e-06 9.28959e-06
8.6781e-06 -8.49631e-05 2.81582e-06
9.28959e-06 2.81582e-06 -0.000127179
0.00397554 -5.586e-05 4.83964e-05
-5.586e-05 0.0016554 1.79848e-06
4.83964e-05 1.79848e-06 0.00164638
0.00433488 -6.19233e-05 -1.62639e-06
-6.19233e-05 0.00182407 2.60632e-07
-1.62639e-06 2.60632e-07 0.00181538
0.000744287 2.50861e-06 9.488e-06
2.50861e-06 -9.52768e-05 1.28132e-06
9.488e-06 1.28132e-06 -0.000139199
0.00434153 2.80592e-05 5.55259e-05
2.80592e-05 0.00182874 -5.81683e-07
5.55259e-05 -5.81683e-07 0.00181916
0.00283323 -4.80015e-05 2.21856e-05
-4.80015e-05 0.00106618 -9.31271e-08
2.21856e-05 -9.31271e-08 0.00104993
0.000754907 2.90426e-06 9.2849e-06
2.90426e-06 -8.38457e-05 2.23034e-06
9.2849e-06 2.23034e-06 -0.000126976
0.00407397 -5.50651e-05 5.07207e-05
-5.50651e-05 0.00170082 1.25337e-06
5.07207e-05 1.25337e-06 0.00169221
0.00428813 -7.89486e-05 5.20872e-05
-7.89486e-05 0.00180333 1.56437e-08
5.20872e-05 1.56437e-08 0.00179327
0.00418711 -5.76797e-05 5.22356e-05
-5.76797e-05 0.00175382 6.52317e-07
5.22356e-05 6.52317e-07 0.00174523
