# vtk DataFile Version 2.0
Wound Healing Simulation
ASCII
DATASET UNSTRUCTURED_GRID
POINTS 3012 float
69.9759 18.75 4
67.2507 60.3285 4
69.976 18.75 2
73.0099 25.446 4
71.1327 20.9142 4
68.6801 16.6661 4
67.8276 19.925 3.9873
67.2507 60.3286 2
71.1327 54.0858 4
68.6801 58.3339 4
65.6939 62.2254 4
65.314 59.0037 3.98835
74.6784 42.3946 4
73.7221 47.2057 4
69.9759 18.75 0
73.0099 25.446 2
68.6801 16.6661 2
71.1327 20.9142 2
67.8281 19.9265 2
74.6792 32.6053 4
73.7222 27.7943 4
72.1454 23.1494 4
70.6156 26.2224 3.98584
68.8877 21.9584 3.98691
67.2507 14.6715 4
66.6391 17.9696 3.9879
65.8029 21.022 3.98183
67.2507 60.3285 0
71.1327 54.0858 2
68.6801 58.3339 2
65.694 62.2255 2
65.3146 59.0031 2
72.1454 51.8506 4
69.9759 56.25 4
68.8384 53.1129 3.98651
64.0165 64.0165 4
66.6127 57.1357 3.98804
63.8873 60.7686 3.98974
63.5051 57.7782 3.98359
60.3285 67.2507 4
74.6792 42.3947 2
73.7222 47.2057 2
74.9194 39.9526 4
74.2788 44.8158 4
72.169 42.0856 3.9841
73.0099 49.554 4
71.2507 46.5974 3.98564
73.0099 25.446 0
71.1327 20.9142 0
68.6801 16.6661 0
67.8276 19.925 0.0127022
74.6792 32.6053 2
73.7222 27.7943 2
67.2508 14.6715 2
72.1455 23.1494 2
70.6157 26.2232 2
66.6397 17.9705 2
68.8881 21.96 2
65.803 21.0214 2
74.9197 35.0474 4
74.2794 30.1841 4
72.1857 32.9433 3.98475
71.2795 28.4323 3.98575
69.8174 24.0609 3.98643
68.3504 26.952 3.97762
66.7677 22.9319 3.98033
65.694 12.7746 4
65.3255 16.1004 3.98894
64.7195 19.1892 3.98318
63.8956 22.0294 3.97862
71.1327 54.0858 0
65.6939 62.2254 0
68.6801 58.3339 0
65.314 59.0037 0.0116514
72.1455 51.8506 2
69.9759 56.25 2
68.8387 53.1112 2
64.0165 64.0165 2
66.6133 57.1346 2
63.8878 60.7683 2
63.5053 57.779 2
62.2254 65.694 4
58.8948 65.4158 3.99265
69.7708 50.9879 3.9861
67.7859 55.1683 3.98743
66.6547 52.2109 3.97987
62.3374 62.4297 3.99122
64.6665 56.0368 3.9835
62.2064 59.4117 3.98413
61.8304 56.6911 3.98101
58.3339 68.6801 4
60.3285 67.2508 2
73.7221 47.2057 0
74.6784 42.3946 0
74.9197 39.9526 2
74.2794 44.8159 2
72.1689 42.0857 2
73.0099 49.554 2
71.2507 46.5972 2
75 37.5 4
72.4059 39.8022 3.98331
71.7837 44.3527 3.9851
69.8064 41.7898 3.97623
70.5768 48.8125 3.98595
68.916 46.015 3.97742
74.6792 32.6053 0
73.7222 27.7943 0
67.2507 14.6715 0
72.1454 23.1494 0
70.6156 26.2224 0.0141615
68.8877 21.9584 0.013091
66.6391 17.9696 0.0121016
65.8029 21.022 0.0181712
74.9197 35.0474 2
74.2794 30.1841 2
72.1856 32.9433 2
71.2795 28.4325 2
65.694 12.7745 2
65.326 16.1006 2
69.8175 24.0622 2
68.3503 26.9522 2
64.7198 19.1883 2
66.7676 22.9317 2
63.8958 22.0287 2
72.4138 35.2242 3.98361
71.8051 30.6766 3.98556
69.8428 33.2687 3.97692
68.9697 29.0386 3.97768
67.6156 24.912 3.9788
66.1994 27.634 3.97445
64.0165 10.9835 4
64.764 23.8266 3.977
63.8915 14.3242 3.99008
63.5181 17.4393 3.98457
62.9157 20.3118 3.97985
62.1033 22.9351 3.97686
60.6848 11.0954 3.99176
57.6132 11.4404 3.9868
72.1454 51.8506 0
69.9759 56.25 0
68.8384 53.1129 0.0134854
64.0165 64.0165 0
63.8873 60.7686 0.010264
66.6127 57.1357 0.0119642
63.5051 57.7782 0.0164077
62.2255 65.694 2
58.8951 65.4159 2
69.7709 50.9866 2
67.7864 55.1667 2
66.6546 52.2111 2
62.3377 62.4295 2
64.6667 56.0376 2
62.2064 59.4124 2
61.8306 56.692 2
60.6696 63.9788 3.992
57.0254 66.7366 3.99319
57.5589 63.6968 3.98736
67.512 50.1774 3.9785
65.7079 54.1767 3.98201
64.5451 51.3894 3.97615
60.7754 60.9447 3.98515
62.8289 55.0765 3.98103
60.6639 58.1699 3.9811
60.3371 55.798 3.97991
56.25 69.9759 4
58.3339 68.6801 2
60.3285 67.2507 0
58.9218 9.65372 3.99237
62.2254 9.30607 4
73.0099 49.554 0
74.2788 44.8158 0
71.2507 46.5974 0.0143641
72.169 42.0856 0.0158963
74.9194 39.9526 0
75 37.5 2
72.4058 39.8024 2
71.7837 44.3527 2
69.8064 41.7897 2
70.5768 48.8118 2
68.916 46.0147 2
72.4892 37.5121 3.98327
70.0425 39.6575 3.97488
69.4337 43.9076 3.9772
67.6008 41.4986 3.97286
68.27 48.1074 3.97785
66.7152 45.4416 3.97439
74.9197 35.0474 0
74.2794 30.1841 0
72.1857 32.9433 0.0152535
71.2795 28.4323 0.0142491
65.694 12.7746 0
65.3255 16.1004 0.0110579
69.8174 24.0609 0.0135707
68.3504 26.952 0.0223779
66.7677 22.9319 0.0196686
64.7195 19.1892 0.0168179
63.8956 22.0294 0.0213844
72.4138 35.2241 2
71.8051 30.6766 2
69.8428 33.2689 2
68.9697 29.0388 2
64.0165 10.9835 2
63.8918 14.3243 2
63.5184 17.4384 2
67.6155 24.912 2
66.1993 27.6338 2
62.9161 20.3108 2
64.764 23.8261 2
62.1036 22.9345 2
60.6851 11.0955 2
57.6133 11.4397 2
70.0596 35.3923 3.97554
69.4705 31.1498 3.97766
67.6596 33.5906 3.97361
66.7773 29.622 3.97449
65.53 25.6977 3.9755
64.1519 28.2534 3.97346
62.3427 12.6524 3.99101
62.8656 24.632 3.97537
62.2023 15.7768 3.98504
61.8213 18.674 3.98148
61.2283 21.3309 3.97768
60.4372 23.7174 3.97622
59.2475 12.7717 3.98534
55.8751 10.2271 3.98825
56.4065 13.103 3.98358
69.7708 50.9879 0.0138995
62.2254 65.694 0
58.8948 65.4158 0.00735485
67.7859 55.1683 0.0125684
66.6547 52.2109 0.0201338
62.3374 62.4297 0.00878438
62.2064 59.4117 0.0158706
64.6665 56.0368 0.0165031
61.8304 56.6911 0.0189916
60.6699 63.9788 2
57.0256 66.7367 2
57.5588 63.6976 2
67.5119 50.1774 2
65.708 54.1773 2
64.5451 51.3899 2
60.7755 60.9456 2
62.8292 55.0775 2
60.6639 58.1708 2
60.3373 55.7987 2
55.0708 67.9335 3.99347
59.2208 62.3721 3.98584
55.8052 64.9143 3.9889
56.3284 62.0978 3.98418
65.3382 49.411 3.97506
63.7149 53.2988 3.97878
62.4505 50.6583 3.97424
59.337 59.567 3.98287
61.0877 54.3201 3.98003
59.2959 57.0251 3.97898
59.2522 55.1963 3.98084
48.1033 68.5816 3.99025
50.9485 69.933 3.99389
54.0858 71.1327 4
56.25 69.976 2
58.3339 68.6801 0
57.0589 8.33362 3.99281
60.3285 7.74928 4
58.9222 9.65371 2
62.2255 9.30602 2
70.5768 48.8125 0.0140507
71.7837 44.3527 0.0148964
68.916 46.015 0.0225838
69.8064 41.7898 0.0237709
72.4059 39.8022 0.016685
75 37.5 0
72.4892 37.5122 2
70.0425 39.6575 2
69.4337 43.9075 2
67.6008 41.4987 2
68.27 48.1073 2
66.7151 45.4417 2
70.1307 37.5218 3.97506
67.8363 39.513 3.97159
67.2285 43.4714 3.97404
65.5601 41.212 3.97191
66.0746 47.4201 3.97481
64.6588 44.8518 3.97344
72.4138 35.2242 0.0163864
71.8051 30.6766 0.0144351
69.8428 33.2687 0.0230821
68.9697 29.0386 0.0223194
64.0165 10.9835 0
63.8915 14.3242 0.00992173
63.5181 17.4393 0.0154283
67.6156 24.912 0.0211972
66.1994 27.634 0.0255458
64.764 23.8266 0.0230021
62.9157 20.3118 0.0201467
62.1033 22.9351 0.0231424
60.6848 11.0954 0.00824237
57.6132 11.4404 0.0132009
70.0596 35.3925 2
69.4707 31.1499 2
67.6597 33.5906 2
66.7774 29.6219 2
62.3429 12.6526 2
62.2023 15.7763 2
61.8216 18.673 2
65.5299 25.6974 2
64.1519 28.2532 2
61.2287 21.3301 2
62.8657 24.6315 2
60.4375 23.717 2
59.2475 12.7711 2
56.4065 13.1021 2
55.8751 10.2263 2
67.8731 35.5478 3.97235
67.2705 31.6217 3.97451
65.7029 33.9263 3.97232
64.6691 30.1899 3.97338
63.5449 26.4109 3.97399
62.2635 28.7744 3.97402
60.7772 14.2162 3.98492
61.0544 25.3308 3.97455
60.6179 17.1168 3.98286
60.2318 19.8036 3.97949
59.6728 22.2459 3.97618
58.9902 24.3086 3.97686
54.0381 9.13068 3.9888
57.9121 14.3218 3.98327
54.7876 12.0022 3.98485
55.314 14.6336 3.98223
67.512 50.1774 0.0214976
57.0254 66.7366 0.00680631
60.6696 63.9788 0.008003
57.5589 63.6968 0.0126386
65.7079 54.1767 0.0179902
64.5451 51.3894 0.0238547
60.7754 60.9447 0.0148481
60.6639 58.1699 0.0189017
62.8289 55.0765 0.018966
60.3371 55.798 0.0200937
55.071 67.9336 2
59.2208 62.3731 2
55.8051 64.9149 2
56.3284 62.0986 2
65.3381 49.4113 2
63.7151 53.2997 2
62.4506 50.6588 2
59.337 59.568 2
61.088 54.3209 2
59.2961 57.0258 2
59.2524 55.197 2
53.0426 69.0013 3.99371
53.9674 66.0163 3.98952
57.883 60.8788 3.98349
54.6847 63.2141 3.98552
55.2134 60.6258 3.98254
63.2018 48.6659 3.97359
61.7522 52.584 3.97719
60.2829 50.0279 3.97319
58.0228 58.2728 3.98052
59.3386 53.96 3.97918
58.1346 55.826 3.97697
50.1099 67.8596 3.99009
47.4639 66.586 3.98799
46.057 69.1612 3.99046
48.1033 68.5821 2
48.8027 70.7242 3.99404
50.9487 69.9331 2
51.8506 72.1454 4
54.0858 71.1327 2
56.25 69.9759 0
55.1032 7.13822 3.99302
58.3339 6.31992 4
57.0592 8.33352 2
60.3286 7.74926 2
58.9218 9.65372 0.00762525
62.2254 9.30607 0
68.27 48.1074 0.0221512
69.4337 43.9076 0.0227952
66.7152 45.4416 0.0256072
67.6008 41.4986 0.0271373
70.0425 39.6575 0.0251183
72.4892 37.5121 0.0167296
70.1307 37.5218 2
67.8363 39.513 2
67.2285 43.4715 2
65.5601 41.2122 2
66.0746 47.4202 2
64.6587 44.8519 2
67.9328 37.5225 3.97178
65.7899 39.3717 3.97063
65.1819 43.0283 3.97304
63.7605 40.9327 3.9717
63.9727 46.7207 3.97371
62.8147 44.2215 3.9739
70.0596 35.3923 0.0244579
69.4705 31.1498 0.022338
67.6596 33.5906 0.026394
66.7773 29.622 0.0255142
62.3427 12.6524 0.00899085
62.2023 15.7768 0.0149605
61.8213 18.674 0.0185222
65.53 25.6977 0.0245025
64.1519 28.2534 0.0265369
62.8656 24.632 0.0246313
61.2283 21.3309 0.0223244
60.4372 23.7174 0.0237783
59.2475 12.7717 0.0146594
56.4065 13.103 0.0164152
55.8751 10.2271 0.0117529
67.8731 35.5478 2
67.2706 31.6216 2
65.703 33.9262 2
64.6692 30.1897 2
60.7772 14.2156 2
60.618 17.1159 2
60.2323 19.8027 2
63.5449 26.4107 2
62.2636 28.7742 2
59.6733 22.2453 2
61.0546 25.3305 2
58.9906 24.3082 2
57.912 14.3211 2
55.3139 14.6328 2
54.038 9.13007 2
54.7876 12.0013 2
65.8797 35.6669 3.97121
65.1926 32.1522 3.97328
64.29 34.2491 3.9728
62.6022 30.6326 3.97284
61.6584 27.0678 3.97301
60.8573 29.1352 3.97461
59.3135 15.6586 3.98329
59.3407 25.7871 3.97692
59.1299 18.3425 3.9817
58.7501 20.8398 3.97742
58.2967 23.0787 3.97488
57.98 24.6526 3.97719
52.1126 8.14938 3.98914
53.0584 11.0089 3.98581
56.6787 15.7302 3.98243
53.8105 13.6685 3.9832
54.3782 15.9847 3.982
55.0708 67.9335 0.00653338
65.3382 49.411 0.0249359
55.8052 64.9143 0.0111045
59.2208 62.3721 0.0141601
56.3284 62.0978 0.0158194
63.7149 53.2988 0.0212188
62.4505 50.6583 0.0257584
59.337 59.567 0.017132
59.2959 57.0251 0.0210174
61.0877 54.3201 0.0199738
59.2522 55.1963 0.0191638
53.0429 69.0014 2
53.9673 66.0168 2
57.883 60.8796 2
54.6846 63.2149 2
55.2133 60.6268 2
63.2018 48.6662 2
61.7525 52.5847 2
60.283 50.0284 2
58.023 58.2738 2
59.3389 53.9607 2
58.1349 55.8266 2
52.0709 67.0027 3.98987
52.9538 64.2242 3.98668
56.6513 59.4993 3.98214
53.6823 61.6311 3.98369
54.2626 59.3322 3.98104
61.002 47.8876 3.97276
59.7215 52.1163 3.97678
58.0349 49.6291 3.97478
56.7823 57.0007 3.977
57.1309 54.1358 3.97713
50.1098 67.86 2
49.3376 65.9263 3.98782
47.4637 66.5866 2
46.8927 64.7434 3.98646
45.559 67.1037 3.98786
43.9739 69.5936 3.99048
46.057 69.1616 2
46.6093 71.3687 3.99421
48.1033 68.5816 0.00974512
48.8029 70.7244 2
49.554 73.0099 4
50.9485 69.933 0.00611353
51.8506 72.1455 2
54.0858 71.1327 0
53.0641 6.0698 3.99321
55.1034 7.13811 2
56.25 5.02411 4
58.3339 6.3199 2
57.0589 8.33362 0.00718512
60.3285 7.74928 0
66.0746 47.4201 0.0251852
67.2285 43.4714 0.0259642
64.6588 44.8518 0.0265615
65.5601 41.212 0.0280904
67.8363 39.513 0.0284061
70.1307 37.5218 0.0249404
67.9328 37.5225 2
65.7899 39.3718 2
65.182 43.0285 2
63.7605 40.9328 2
63.9727 46.7209 2
62.8146 44.2216 2
65.8931 37.5026 3.97045
63.9026 39.2688 3.97062
63.3359 42.5546 3.97281
62.4372 40.7009 3.97197
61.9758 45.9254 3.97391
61.4605 43.6895 3.9745
67.8731 35.5478 0.0276546
67.2705 31.6217 0.0254922
65.7029 33.9263 0.0276844
64.6691 30.1899 0.0266186
60.7772 14.2162 0.0150775
60.6179 17.1168 0.0171429
60.2318 19.8036 0.0205142
63.5449 26.4109 0.0260121
62.2635 28.7744 0.0259799
61.0544 25.3308 0.0254493
59.6728 22.2459 0.023816
58.9902 24.3086 0.0231389
57.9121 14.3218 0.0167284
55.314 14.6336 0.0177666
54.0381 9.13068 0.0111952
54.7876 12.0022 0.0151488
65.8797 35.6668 2
65.1928 32.152 2
64.2901 34.249 2
62.6023 30.6325 2
59.3134 15.6578 2
59.1302 18.3416 2
58.7507 20.839 2
61.6585 27.0676 2
60.8573 29.135 2
58.2972 23.0782 2
59.341 25.7868 2
57.9804 24.6523 2
56.6786 15.7294 2
54.378 15.9838 2
53.8105 13.6675 2
52.1126 8.14885 2
53.0584 11.0081 2
64.0949 35.6323 3.97108
62.9387 33.0444 3.9727
60.6233 30.6076 3.97221
59.5792 27.903 3.97288
57.9429 16.971 3.98249
57.7507 25.7148 3.97901
57.7219 19.4616 3.98018
57.3809 21.8254 3.97491
57.1976 23.9337 3.97442
50.1126 7.28148 3.98937
51.2327 10.1175 3.98651
52.1726 12.7861 3.98443
55.54 16.9586 3.98241
52.9789 15.2496 3.98156
53.7604 16.9661 3.98211
53.0426 69.0013 0.0062934
53.9674 66.0163 0.0104804
63.2018 48.6659 0.0264134
54.6847 63.2141 0.014478
57.883 60.8788 0.0165103
55.2134 60.6258 0.0174559
61.7522 52.584 0.0228123
60.2829 50.0279 0.0268092
58.0228 58.2728 0.0194828
58.1346 55.826 0.0230316
59.3386 53.96 0.0208223
52.0708 67.0031 2
52.9536 64.2249 2
56.6513 59.5003 2
53.6821 61.632 2
54.2625 59.3333 2
61.0022 47.888 2
59.7219 52.1169 2
58.0351 49.6293 2
56.7826 57.0018 2
57.1313 54.1362 2
51.1684 65.1332 3.9874
52.0468 62.5463 3.98487
55.4842 58.2615 3.98151
52.8361 60.1453 3.98207
53.6431 58.4824 3.98022
58.3161 46.8595 3.9751
57.5718 51.7999 3.97625
56.2573 49.5649 3.98156
55.4781 55.806 3.97643
55.3666 53.3941 3.9714
50.1099 67.8596 0.00991287
49.3373 65.9267 2
48.6185 64.1297 3.98604
47.4639 66.586 0.0120098
45.5588 67.1041 2
46.8925 64.744 2
46.3821 63.0621 3.98527
45.133 65.205 3.98658
43.6321 67.4746 3.98801
41.8611 69.8811 3.99041
43.974 69.594 2
44.3767 71.8636 3.99417
46.057 69.1612 0.0095377
46.6095 71.3689 2
47.2057 73.7222 4
48.8027 70.7242 0.00596084
49.554 73.0099 2
51.8506 72.1454 0
50.9538 5.13023 3.99341
53.0644 6.06967 2
54.0858 3.86728 4
55.1032 7.13822 0.0069831
56.25 5.02406 2
58.3339 6.31992 0
63.9727 46.7207 0.0262925
65.1819 43.0283 0.0269617
62.8147 44.2215 0.0261008
63.7605 40.9327 0.0283008
65.7899 39.3717 0.0293677
67.9328 37.5225 0.028222
65.8931 37.5026 2
63.9026 39.2689 2
63.3359 42.5547 2
62.4373 40.701 2
61.9759 45.9255 2
61.4605 43.6896 2
63.9632 37.4579 3.97041
62.1626 39.3572 3.97139
61.2278 41.9633 3.97286
60.2603 44.7783 3.97444
65.8797 35.6669 0.0287895
65.1926 32.1522 0.0267163
64.29 34.2491 0.027196
62.6022 30.6326 0.0271616
59.3135 15.6586 0.0167058
59.1299 18.3425 0.0182984
58.7501 20.8398 0.0225787
61.6584 27.0678 0.0269867
60.8573 29.1352 0.0253877
59.3407 25.7871 0.0230843
58.2967 23.0787 0.0251174
57.98 24.6526 0.0228095
56.6787 15.7302 0.0175663
54.3782 15.9847 0.0179998
53.8105 13.6685 0.0167984
52.1126 8.14938 0.0108628
53.0584 11.0089 0.0141917
64.0949 35.6323 2
62.9389 33.0443 2
60.6234 30.6075 2
57.943 16.9701 2
57.7225 19.4605 2
57.3816 21.8247 2
59.5793 27.9028 2
57.1982 23.9335 2
57.7511 25.7147 2
50.1126 7.28106 2
55.5399 16.9577 2
53.7602 16.9651 2
52.9788 15.2486 2
52.1725 12.7853 2
51.2326 10.117 2
62.1969 35.3587 3.97104
60.3032 32.7438 3.97263
58.6323 30.0701 3.97247
57.3007 27.3703 3.97306
56.6401 18.1424 3.98236
56.3043 25.0904 3.97407
56.3645 20.5066 3.97731
56.1191 22.8547 3.97181
48.0563 6.5247 3.98965
49.3245 9.32573 3.98685
50.4333 11.9846 3.98476
51.3786 14.4852 3.98302
54.4178 17.9068 3.98247
52.3629 17.0214 3.9812
52.0709 67.0027 0.0101265
52.9538 64.2242 0.0133218
61.002 47.8876 0.027241
53.6823 61.6311 0.0163074
56.6513 59.4993 0.0178604
54.2626 59.3322 0.018961
59.7215 52.1163 0.0232246
58.0349 49.6291 0.0252182
56.7823 57.0007 0.0229974
57.1309 54.1358 0.0228732
51.1681 65.1337 2
52.0465 62.547 2
55.4843 58.2627 2
52.836 60.1462 2
53.643 58.4836 2
58.3164 46.8595 2
57.5722 51.8002 2
56.2576 49.5652 2
55.4787 55.8072 2
55.3671 53.395 2
50.3466 63.3878 3.98558
51.2451 60.9444 3.98302
54.224 57.2763 3.97983
52.315 58.6451 3.98046
56.7353 44.194 3.97425
55.5047 47.9081 3.97591
55.0801 51.3967 3.97231
54.0116 54.5565 3.97454
49.3376 65.9263 0.0121769
48.6182 64.1301 2
47.9623 62.4831 3.98486
45.559 67.1037 0.0121356
46.8927 64.7434 0.0135446
43.6319 67.4751 2
46.3819 63.0628 2
45.1328 65.2055 2
45.9875 61.5958 3.98438
44.7674 63.4636 3.98583
43.3569 65.515 3.98676
41.664 67.6937 3.98796
39.7027 70.0283 3.9903
41.8611 69.8816 2
42.1111 72.2083 3.99408
43.9739 69.5936 0.00952047
44.3769 71.8638 2
44.8159 74.2794 4
46.6093 71.3687 0.0057917
47.2057 73.7222 2
49.554 73.0099 0
48.7843 4.3213 3.99363
50.9541 5.13008 2
51.8506 2.85458 4
53.0641 6.0698 0.00679357
54.0858 3.86728 2
56.25 5.02411 0
61.9758 45.9254 0.0260917
63.3359 42.5546 0.0271854
61.4605 43.6895 0.0255007
62.4372 40.7009 0.0280313
63.9026 39.2688 0.0293762
65.8931 37.5026 0.0295453
63.9631 37.4579 2
62.1628 39.3572 2
61.2278 41.9634 2
60.2603 44.7782 2
61.9973 37.4453 3.97109
60.2582 39.8511 3.97229
59.0094 42.9254 3.97349
64.0949 35.6323 0.0289219
62.9387 33.0444 0.0273024
60.6233 30.6076 0.0277858
57.9429 16.971 0.0175143
57.7219 19.4616 0.019815
57.3809 21.8254 0.0250914
59.5792 27.903 0.0271201
57.7507 25.7148 0.0209927
57.1976 23.9337 0.0255784
55.54 16.9586 0.0175905
53.7604 16.9661 0.01789
52.9789 15.2496 0.0184381
50.1126 7.28148 0.0106254
52.1726 12.7861 0.0155704
51.2327 10.1175 0.0134922
62.1969 35.3587 2
60.3034 32.7436 2
58.6324 30.0702 2
56.6403 18.1413 2
56.3653 20.5055 2
56.12 22.8544 2
57.3008 27.3702 2
56.3049 25.0906 2
48.0563 6.52422 2
49.3244 9.32532 2
54.4178 17.9057 2
52.3626 17.0204 2
51.3785 14.4844 2
50.4332 11.984 2
59.9054 35.1196 3.97202
58.0123 32.267 3.97356
56.5585 29.3317 3.97179
55.4586 26.5888 3.97574
55.3465 19.1756 3.98206
54.9409 24.0433 3.97069
55.0092 21.5483 3.97482
45.9621 5.87974 3.98999
43.3733 7.46914 3.98806
47.3548 8.61978 3.98712
48.5999 11.2864 3.98531
49.7143 13.7328 3.98372
50.6346 16.1187 3.98107
53.1276 18.6456 3.98039
51.3046 18.0342 3.98552
51.1684 65.1332 0.0126024
52.0468 62.5463 0.0151313
58.3161 46.8595 0.0249044
52.8361 60.1453 0.0179339
55.4842 58.2615 0.0184921
53.6431 58.4824 0.0197828
57.5718 51.7999 0.0237547
56.2573 49.5649 0.0184378
55.4781 55.806 0.0235721
55.3666 53.3941 0.0286032
50.3464 63.3883 2
51.2448 60.9452 2
54.2242 57.2776 2
52.3148 58.646 2
56.7353 44.194 2
55.5047 47.9087 2
55.0807 51.3971 2
54.0122 54.5585 2
49.5923 61.7529 3.98427
55.6608 41.7151 3.97515
50.5684 59.3383 3.98051
52.1897 56.501 3.9771
54.2046 45.5774 3.97649
53.3519 49.3362 3.97459
52.677 52.8587 3.9711
48.6185 64.1297 0.0139637
47.962 62.4835 2
47.3295 61.0186 3.98384
43.6321 67.4746 0.0119865
45.133 65.205 0.0134172
46.3821 63.0621 0.0147322
41.6639 67.6942 2
43.3567 65.5155 2
45.9872 61.5964 2
44.7671 63.4641 2
45.7665 60.6405 3.98353
44.4833 61.8458 3.98456
43.1467 63.7364 3.98571
41.5464 65.6531 3.98671
39.633 67.7736 3.98779
37.526 70.0535 3.9902
39.7027 70.0289 2
39.8179 72.4055 3.99402
41.8611 69.8811 0.00958592
42.1112 72.2086 2
42.3947 74.6792 4
44.3767 71.8636 0.00583313
44.8159 74.2794 2
47.2057 73.7222 0
43.8514 5.35681 3.99024
46.5703 3.64586 3.99387
48.7845 4.3211 2
49.554 1.99015 4
50.9538 5.13023 0.00659255
51.8506 2.85453 2
54.0858 3.86728 0
60.2603 44.7783 0.0255646
61.2278 41.9633 0.0271399
62.1626 39.3572 0.0286065
63.9632 37.4579 0.0295868
61.9977 37.4454 2
60.2584 39.8512 2
59.0093 42.9254 2
59.7668 37.5685 3.97211
58.0157 40.6632 3.97302
55.1361 39.7277 3.97515
62.1969 35.3587 0.0289622
60.3032 32.7438 0.0273653
58.6323 30.0701 0.0275327
56.6401 18.1424 0.0176445
56.3645 20.5066 0.0226898
56.1191 22.8547 0.0281922
57.3007 27.3703 0.0269396
56.3043 25.0904 0.0259313
54.4178 17.9068 0.0175262
52.3629 17.0214 0.0188013
51.3786 14.4852 0.0169767
48.0563 6.5247 0.0103461
49.3245 9.32573 0.0131529
50.4333 11.9846 0.0152449
59.9059 35.1196 2
45.9622 5.87927 2
43.3734 7.46867 2
58.0123 32.267 2
56.5589 29.3318 2
55.3469 19.1743 2
55.0102 21.5467 2
54.9417 24.0439 2
55.4589 26.5892 2
47.3547 8.61924 2
48.5997 11.286 2
53.1277 18.6444 2
51.3046 18.0334 2
50.6344 16.1178 2
49.7142 13.7321 2
57.4174 34.7601 3.97432
55.7483 31.5143 3.97286
54.5171 28.3934 3.97619
53.7841 25.486 3.97425
53.974 20.1229 3.98183
53.5894 22.6961 3.97167
41.3984 7.07429 3.98829
45.3594 7.99117 3.98739
42.8649 9.40993 3.98658
46.666 10.6476 3.98541
47.7453 13.0934 3.98389
48.9319 15.3898 3.9828
50.0078 17.6881 3.97917
51.6543 19.3104 3.98721
50.3466 63.3878 0.0144159
51.2451 60.9444 0.0169753
56.7353 44.194 0.0257524
55.5047 47.9081 0.0240933
52.315 58.6451 0.019544
54.224 57.2763 0.0201749
55.0801 51.3967 0.0276948
54.0116 54.5565 0.0254642
49.592 61.7534 2
55.662 41.7152 2
50.5681 59.3393 2
52.19 56.5021 2
54.2064 45.5774 2
53.3523 49.3358 2
52.6779 52.8586 2
48.8497 60.2113 3.98279
52.5713 42.6567 3.97605
49.7917 57.6376 3.97918
50.5998 54.4367 3.9756
51.8277 47.2811 3.97777
51.2259 50.9501 3.97053
48.2007 43.8163 3.98938
47.9623 62.4831 0.0151367
47.3292 61.019 2
46.6193 59.8055 3.98288
41.664 67.6937 0.0120363
43.3569 65.515 0.0132368
44.7674 63.4636 0.0141683
45.9875 61.5958 0.0156162
39.6329 67.7741 2
41.5462 65.6535 2
45.7661 60.641 2
43.1465 63.7368 2
44.4831 61.8464 2
44.6239 60.3033 3.98386
42.9505 62.0948 3.98506
41.6001 63.8302 3.98566
39.6479 65.6215 3.98646
37.5634 67.756 3.98779
31.6971 65.1401 3.98657
33.392 67.4936 3.98767
35.3333 69.9636 3.99015
37.526 70.054 2
37.5095 72.46 3.99391
39.7027 70.0283 0.00970078
39.8179 72.4058 2
39.9526 74.9197 4
42.1111 72.2083 0.00592095
42.3947 74.6792 2
44.8159 74.2794 0
41.736 4.96591 3.99051
43.8515 5.35637 2
44.3256 3.10918 3.994
46.5705 3.64564 2
47.2057 1.27793 4
48.7843 4.3213 0.00636973
49.554 1.99013 2
51.8506 2.85458 0
59.0094 42.9254 0.0265148
60.2582 39.8511 0.027713
61.9973 37.4453 0.0289079
59.7676 37.5686 2
58.0162 40.6633 2
55.1367 39.7275 2
56.8397 37.8993 3.97482
49.6387 41.344 3.98317
53.1762 39.3129 3.97627
39.4416 6.79773 3.98849
59.9054 35.1196 0.0279775
58.0123 32.267 0.0264378
56.5585 29.3317 0.0282144
55.3465 19.1756 0.0179372
55.0092 21.5483 0.0251753
54.9409 24.0433 0.0293141
55.4586 26.5888 0.0242617
53.1276 18.6456 0.0196075
51.3046 18.0342 0.0144779
50.6346 16.1187 0.0189285
45.9621 5.87974 0.0100138
49.7143 13.7328 0.0162818
47.3548 8.61978 0.0128803
48.5999 11.2864 0.0146894
43.3733 7.46914 0.0119375
57.4185 34.7602 2
41.3984 7.07375 2
45.3594 7.99071 2
42.865 9.40943 2
55.7471 31.5145 2
54.5174 28.3939 2
53.9746 20.1213 2
53.5902 22.692 2
53.7848 25.4866 2
46.6659 10.6471 2
47.7451 13.093 2
51.6547 19.3097 2
50.0077 17.6872 2
48.9317 15.389 2
54.9192 33.97 3.97495
53.5089 30.4768 3.973
52.6021 27.1863 3.97667
52.1544 24.0806 3.97345
52.3966 21.0473 3.98133
41.0129 9.04304 3.98659
44.7231 9.99053 3.98574
42.4676 10.8957 3.98478
46.0048 12.7219 3.98406
47.6818 14.5749 3.98362
48.1148 16.9776 3.98037
49.8194 19.5889 3.97696
49.5923 61.7529 0.0157276
50.5684 59.3383 0.0194934
55.6608 41.7151 0.0248535
54.2046 45.5774 0.0235057
53.3519 49.3362 0.0254111
52.1897 56.501 0.0228955
52.677 52.8587 0.0289007
48.8493 60.2118 2
52.573 42.656 2
49.7917 57.6386 2
50.6004 54.4383 2
51.8286 47.28 2
51.2267 50.9491 2
48.1996 43.8204 2
47.9883 58.7537 3.98203
50.1277 45.2939 3.97494
48.6019 55.9284 3.98051
49.1372 52.6042 3.97485
49.6831 49.0556 3.97398
46.0529 39.8901 3.90532
46.452 42.7038 3.95419
46.5212 45.8624 3.99072
43.8972 41.1925 3.91196
42.0716 42.0255 3.88232
47.3295 61.0186 0.0161579
46.6188 59.8059 2
45.469 58.8025 3.98314
39.633 67.7736 0.012209
41.5464 65.6531 0.0132935
43.1467 63.7364 0.0142888
44.4833 61.8458 0.0154399
45.7665 60.6405 0.0164748
41.5999 63.8305 2
37.5634 67.7566 2
39.6477 65.6219 2
44.6235 60.3039 2
42.9503 62.0952 2
41.7536 62.5057 3.98543
42.4818 59.9962 3.98472
39.8936 63.5656 3.98548
37.6424 65.5206 3.98603
35.4634 67.6654 3.98775
33.5754 65.3536 3.9863
31.9595 63.3139 3.98557
29.8831 64.7309 3.98657
31.6971 65.1405 2
31.3764 67.2032 3.98776
33.392 67.4941 2
33.156 69.7569 3.99017
35.3332 69.9641 2
35.1949 72.3744 3.99387
37.526 70.0535 0.00980329
37.5095 72.4603 2
37.5 75 4
39.8179 72.4055 0.00598041
39.9526 74.9197 2
42.3947 74.6792 0
39.6234 4.71304 3.99065
41.736 4.96542 2
42.062 2.7168 3.99416
43.8514 5.35681 0.00975843
44.3258 3.10893 2
44.8158 0.721173 4
46.5703 3.64586 0.00612593
47.2057 1.27779 2
49.554 1.99015 0
58.0157 40.6632 0.026981
59.7668 37.5685 0.0278863
55.1361 39.7277 0.0248486
49.6437 41.3467 2
56.8403 37.8994 2
53.1767 39.3122 2
54.0166 36.629 3.97662
47.5708 40.441 3.96102
50.6009 38.5142 3.98126
37.5153 6.66874 3.98846
39.4417 6.79718 2
39.2104 8.68544 3.98689
35.9407 8.4851 3.98715
57.4174 34.7601 0.025679
55.7483 31.5143 0.0271417
54.5171 28.3934 0.0238107
53.974 20.1229 0.0181708
53.5894 22.6961 0.0283259
53.7841 25.486 0.0257547
51.6543 19.3104 0.0127913
50.0078 17.6881 0.0208281
48.9319 15.3898 0.0171984
45.3594 7.99117 0.0126134
47.7453 13.0934 0.0161115
46.666 10.6476 0.0145927
41.3984 7.07429 0.0117054
42.8649 9.40993 0.0134175
54.9215 33.97 2
41.0129 9.04246 2
44.723 9.99015 2
42.4675 10.8952 2
53.5079 30.4756 2
52.6028 27.1883 2
52.3976 21.0464 2
52.1558 24.0806 2
46.0045 12.7213 2
47.6815 14.5743 2
49.8197 19.5875 2
48.1147 16.9766 2
52.466 32.8694 3.97677
51.3426 29.1436 3.97112
50.8038 25.7117 3.97295
49.9457 22.1681 3.97934
40.5683 11.5988 3.9846
43.8574 11.9111 3.98495
45.8031 15.4103 3.98335
47.5054 19.2106 3.97808
46.3921 37.5048 3.91038
48.8497 60.2113 0.0172119
49.7917 57.6376 0.0208223
52.5713 42.6567 0.0239466
51.8277 47.2811 0.0222319
51.2259 50.9501 0.0294669
50.5998 54.4367 0.0243996
48.2007 43.8163 0.0106155
47.9879 58.7541 2
50.1298 45.2957 2
48.6019 55.9297 2
49.1379 52.6079 2
49.6838 49.0547 2
46.0651 39.8956 2
46.4631 42.7131 2
46.5194 45.8504 2
43.9107 41.1999 2
42.077 42.0278 2
46.8406 57.3573 3.98291
44.6579 39.4731 3.90213
42.4438 40.8928 3.8983
48.1062 47.2552 3.97787
47.1728 54.2647 3.98131
47.5975 50.7601 3.97547
44.8206 47.4449 4.00073
45.1274 41.9859 3.91162
44.9395 44.6141 3.9562
42.712 42.717 3.91425
40.9361 42.3644 3.90838
46.6193 59.8055 0.0171178
45.4685 58.803 2
43.8773 57.7278 3.98401
37.5634 67.756 0.0122128
39.6479 65.6215 0.0135381
41.6001 63.8302 0.014336
42.9505 62.0948 0.0149361
44.6239 60.3033 0.0161434
35.4634 67.6659 2
41.7534 62.5061 2
39.8934 63.566 2
37.6423 65.5211 2
42.4814 59.9968 2
40.6234 61.6648 3.98475
40.4459 58.2306 3.98452
37.8369 63.2271 3.98547
35.573 65.4429 3.98621
33.5754 65.354 2
31.9595 63.3142 2
33.6291 63.3538 3.98529
30.3784 62.8723 3.98569
32.1232 62.0212 3.98515
26.868 61.5153 3.98472
28.0619 64.1586 3.98636
29.8832 64.7313 2
29.4058 66.7667 3.98778
31.6971 65.1401 0.0134345
31.3765 67.2037 2
31.0131 69.4218 3.99013
33.392 67.4936 0.0123269
33.1559 69.7574 2
32.892 72.1486 3.9939
35.3333 69.9636 0.00985291
35.1948 72.3747 2
35.0474 74.9194 4
37.5095 72.46 0.00609303
37.5 75 2
39.9526 74.9197 0
35.6197 6.71969 3.98856
37.5225 4.61248 3.99079
39.6235 4.71257 2
39.7884 2.47325 3.99427
41.736 4.96591 0.00949153
42.0621 2.71651 2
42.3946 0.32156 4
44.3256 3.10918 0.0060043
44.8159 0.72056 2
47.2057 1.27793 0
49.6387 41.344 0.016835
56.8397 37.8993 0.0251823
53.1762 39.3129 0.0237322
47.5761 40.4428 2
50.6037 38.5152 2
54.0168 36.6289 2
51.3861 35.5835 3.96697
48.2386 37.7734 3.97299
46.0504 35.1383 3.91186
43.8955 33.8194 3.90832
42.0641 32.9883 3.88064
37.457 8.52714 3.98698
37.5154 6.66818 2
39.4416 6.79773 0.0115074
39.2104 8.68481 2
38.9754 10.1174 3.98643
35.8973 9.76427 3.98598
34.1491 8.81447 3.98702
35.9407 8.48442 2
54.9192 33.97 0.025049
53.5089 30.4768 0.0269964
52.6021 27.1863 0.0233256
52.3966 21.0473 0.0186715
52.1544 24.0806 0.02655
49.8194 19.5889 0.0230444
48.1148 16.9776 0.0196252
47.6818 14.5749 0.0163804
44.7231 9.99053 0.0142606
46.0048 12.7219 0.0159444
41.0129 9.04304 0.0134074
42.4676 10.8957 0.0152156
52.4678 32.8688 2
40.5682 11.5983 2
43.8571 11.9108 2
51.345 29.1451 2
50.8057 25.7133 2
49.9468 22.1665 2
45.8027 15.4097 2
47.5057 19.2097 2
50.0234 31.4026 3.96583
49.3028 27.456 3.98059
49.4155 24.3798 3.97946
47.1904 21.9154 3.97637
38.3007 12.7227 3.9847
42.1008 14.2936 3.98356
44.8017 18.4428 3.98336
44.9424 37.514 3.90416
46.4109 37.5103 2
47.9883 58.7537 0.0179749
48.6019 55.9284 0.0194896
50.1277 45.2939 0.0250597
49.6831 49.0556 0.0260215
49.1372 52.6042 0.0251541
46.0529 39.8901 0.0946842
46.452 42.7038 0.045811
46.5212 45.8624 0.00928229
43.8972 41.1925 0.0880367
42.0716 42.0255 0.117678
46.8402 57.358 2
44.6731 39.4778 2
42.4455 40.8919 2
48.1069 47.255 2
47.1731 54.2661 2
47.5989 50.7622 2
44.8236 47.4248 2
45.1373 41.9945 2
44.9515 44.6275 2
42.7315 42.7272 2
40.9423 42.3623 2
45.4002 55.9449 3.98385
42.7933 39.2769 3.91202
40.9002 40.8117 3.95645
46.1072 48.9289 3.98072
45.5521 52.5597 3.98306
43.4692 48.4787 4.00031
43.363 46.1863 3.96195
43.6995 43.8042 3.90674
41.2006 43.8841 3.91493
39.3134 42.694 3.92184
45.469 58.8025 0.0168569
43.8768 57.7284 2
42.1082 56.3554 3.98538
35.4634 67.6654 0.0122524
37.6424 65.5206 0.0139742
39.8936 63.5656 0.0145211
41.7536 62.5057 0.0145661
42.4818 59.9962 0.0152767
35.573 65.4433 2
40.623 61.6651 2
37.8368 63.2274 2
40.4454 58.2311 2
38.9268 56.5267 3.98746
38.2508 60.3501 3.9852
35.6071 63.2209 3.98526
33.5754 65.3536 0.0137024
31.9595 63.3139 0.0144274
33.6291 63.3542 2
30.3785 62.8726 2
32.1232 62.0215 2
28.6808 62.2173 3.98549
33.346 61.5344 3.98518
31.0662 61.2386 3.98513
27.5666 59.6139 3.98297
23.7886 59.1 3.98268
25.0332 60.8876 3.98373
26.8681 61.5155 2
26.2284 63.4907 3.98601
28.0621 64.159 2
27.4623 66.1903 3.98776
29.8831 64.7309 0.0134318
29.4059 66.7672 2
28.9053 68.9472 3.99012
31.3764 67.2032 0.0122395
31.013 69.4222 2
30.6143 71.7797 3.99392
33.156 69.7569 0.00983191
32.8918 72.1489 2
32.6054 74.6784 4
35.1949 72.3744 0.00612662
35.0474 74.9197 2
37.5 75 0
33.7222 6.97425 3.98827
35.4338 4.68285 3.99077
35.6197 6.71909 2
37.5139 2.38587 3.99436
37.5226 4.61202 2
39.6234 4.71304 0.00934988
39.7885 2.47296 2
39.9526 0.0806499 4
42.062 2.7168 0.00584057
42.3947 0.320817 2
44.8158 0.721173 0
44.6636 35.542 3.90141
42.4418 34.1169 3.89705
47.5708 40.441 0.0389784
50.6009 38.5142 0.018736
54.0166 36.629 0.0233753
48.2428 37.7723 2
51.3883 35.5825 2
46.0594 35.1282 2
43.9123 33.8082 2
42.0693 32.9877 2
48.3998 34.2764 3.9936
45.1218 33.0335 3.90657
42.7096 32.3011 3.91472
40.9281 32.65 3.91178
37.3093 10.6204 3.98568
37.457 8.52643 2
37.5153 6.66874 0.0115357
39.2104 8.68544 0.0131107
38.9754 10.1167 2
34.7523 10.3696 3.98567
35.8973 9.76352 2
32.3758 9.361 3.98641
34.149 8.81375 2
35.9407 8.4851 0.0128459
52.466 32.8694 0.0232272
51.3426 29.1436 0.0288792
50.8038 25.7117 0.0270519
49.9457 22.1681 0.0206645
47.5054 19.2106 0.0219225
45.8031 15.4103 0.0166521
43.8574 11.9111 0.0150465
40.5683 11.5988 0.0153983
50.0254 31.402 2
38.3004 12.722 2
42.1003 14.2931 2
49.3045 27.4569 2
49.4172 24.3784 2
47.1915 21.9162 2
44.8017 18.4421 2
47.8194 29.5611 3.97376
47.1158 25.1058 3.98266
44.2919 21.2912 3.98241
36.5803 12.9191 3.98416
38.6802 14.7911 3.9834
41.75 17.8203 3.98169
42.9378 37.4952 3.90727
44.9642 37.5128 2
46.3921 37.5048 0.0896173
46.8406 57.3573 0.0170873
47.1728 54.2647 0.0186897
48.1062 47.2552 0.022128
47.5975 50.7601 0.0245271
44.6579 39.4731 0.0978656
45.1274 41.9859 0.0883766
44.9395 44.6141 0.0438042
44.8206 47.4449 -0.00072709
42.712 42.717 0.0857513
42.4438 40.8928 0.1017
40.9361 42.3644 0.091618
45.4 55.9457 2
42.7979 39.2755 2
40.9005 40.8082 2
46.1081 48.9303 2
45.5531 52.5613 2
43.4707 48.5008 2
43.3862 46.1995 2
43.7143 43.8139 2
41.2142 43.8874 2
39.3164 42.6919 2
43.7398 54.4571 3.98902
40.9932 39.1766 3.97505
39.2348 40.8955 3.97598
43.7186 50.5398 3.99293
41.975 47.7207 3.98801
41.885 45.2054 3.90279
39.4372 44.628 3.92186
37.4947 42.8245 3.92567
43.8773 57.7278 0.0159939
42.1075 56.356 2
40.4212 54.965 3.9873
35.573 65.4429 0.0137917
37.8369 63.2271 0.0145309
40.6234 61.6648 0.0152548
40.4459 58.2306 0.0154753
35.6071 63.2211 2
38.2503 60.35 2
38.926 56.5278 2
38.0004 55.2855 3.9874
36.9355 57.6563 3.98528
35.3638 60.9343 3.98514
33.6291 63.3538 0.0147073
30.3784 62.8723 0.0143091
32.1232 62.0212 0.0148484
33.3458 61.5347 2
28.6809 62.2176 2
31.0661 61.2387 2
29.4021 60.3081 3.98446
32.3556 59.7675 3.98466
28.0184 58.3934 3.98359
27.5667 59.614 2
25.3755 58.6127 3.98145
22.751 58.2583 3.97915
23.3984 60.3668 3.98223
23.7886 59.1005 2
25.0333 60.888 2
24.4308 62.7828 3.98539
26.868 61.5153 0.0152827
26.2286 63.491 2
25.5463 65.5002 3.98766
28.0619 64.1586 0.0136436
27.4624 66.1908 2
26.8349 68.3354 3.99007
29.4058 66.7667 0.0122208
28.9053 68.9476 2
28.3694 71.2649 3.99392
31.0131 69.4218 0.00986698
30.6141 71.7799 2
30.1842 74.2788 4
32.892 72.1486 0.0060964
32.6053 74.6792 2
35.0474 74.9194 0
31.7865 7.41408 3.98807
33.3456 4.92199 3.99065
33.7222 6.97362 2
35.2441 2.46202 3.99433
35.4338 4.68235 2
35.6197 6.71969 0.0114415
37.5 0 4
37.514 2.38557 2
37.5225 4.61248 0.00921304
39.7884 2.47325 0.00572853
39.9526 0.0802889 2
42.3946 0.32156 0
42.8006 35.7216 3.91059
44.6753 35.5387 2
40.899 34.1976 3.95692
42.4437 34.1175 2
48.2386 37.7734 0.0270145
51.3861 35.5835 0.0330301
46.0504 35.1383 0.0881405
43.8955 33.8194 0.0916807
42.0641 32.9883 0.11936
48.4045 34.2725 2
45.1332 33.0258 2
42.726 32.2933 2
40.9303 32.651 2
46.355 31.557 3.97817
43.6927 31.2182 3.90735
41.2039 31.1219 3.90758
39.3036 32.3148 3.92105
35.6905 11.7643 3.98435
37.3093 10.6196 2
37.457 8.52714 0.0130207
38.9754 10.1174 0.0135739
33.0961 11.2061 3.98444
34.7523 10.3688 2
35.8973 9.76427 0.0140162
30.4804 10.0091 3.98571
32.3756 9.36022 2
34.1491 8.81447 0.0129838
50.0234 31.4026 0.0341677
49.3028 27.456 0.0194122
49.4155 24.3798 0.0205361
47.1904 21.9154 0.023629
44.8017 18.4428 0.0166438
42.1008 14.2936 0.0164363
38.3007 12.7227 0.0152961
36.58 12.9183 2
47.8198 29.5596 2
38.6795 14.7904 2
41.7497 17.8195 2
47.1181 25.1067 2
44.2927 21.2897 2
45.5795 27.6872 3.99423
43.8115 24.0154 3.99259
41.343 20.696 3.98148
35.7701 14.7434 3.98348
38.6806 17.5763 3.98187
41.043 37.4864 3.97274
42.9434 37.4962 2
44.9424 37.514 0.0958435
45.4002 55.9449 0.0161511
45.5521 52.5597 0.0169369
46.1072 48.9289 0.0192828
42.7933 39.2769 0.0879846
43.6995 43.8042 0.0932619
43.363 46.1863 0.038053
43.4692 48.4787 -0.0003084
41.2006 43.8841 0.0850674
40.9002 40.8117 0.0435498
39.3134 42.694 0.0781628
43.7395 54.4586 2
40.9941 39.1748 2
39.2344 40.8935 2
43.7191 50.5473 2
41.9781 47.7323 2
41.9038 45.2136 2
37.4969 42.823 2
39.4524 44.6257 2
41.8854 53.0345 3.99585
39.2355 39.1786 3.96885
37.4966 40.942 3.97338
35.6824 42.695 3.92307
40.9558 49.7707 4.00308
39.8004 46.0998 3.89836
37.4965 44.8797 3.92253
42.1082 56.3554 0.014623
40.4202 54.9654 2
38.7301 53.8993 3.98821
35.6071 63.2209 0.0147399
38.2508 60.3501 0.0148033
38.9268 56.5267 0.0125419
35.3635 60.9343 2
36.9348 57.6557 2
37.9993 55.2851 2
36.3193 55.4202 3.98866
34.4874 58.5473 3.98506
33.346 61.5344 0.0148211
28.6808 62.2173 0.0145123
31.0662 61.2386 0.0148748
32.3555 59.7675 2
29.4021 60.3082 2
30.2939 57.8403 3.98521
28.0184 58.3934 2
26.9369 56.8429 3.98082
27.5666 59.6139 0.0170312
25.3756 58.6129 2
23.8303 56.8236 3.97617
21.3261 57.417 3.97862
21.99 59.6387 3.98192
22.751 58.2588 2
22.7343 62.0339 3.98432
23.3985 60.3673 2
23.7886 59.1 0.0173211
25.0332 60.8876 0.0162697
24.4309 62.7832 2
23.6802 64.7184 3.98721
26.2284 63.4907 0.0139892
25.5465 65.5006 2
24.8072 67.5965 3.98998
27.4623 66.1903 0.0122415
26.8349 68.3358 2
26.1647 70.6056 3.9939
28.9053 68.9472 0.0098803
28.3692 71.265 2
27.7943 73.7221 4
30.6143 71.7797 0.00608341
30.1841 74.2794 2
32.6054 74.6784 0
29.809 7.98727 3.9876
31.2507 5.32921 3.99034
31.7864 7.4133 2
32.9798 2.70013 3.99425
33.3457 4.92143 2
33.7222 6.97425 0.01173
35.0474 0.080333 4
35.2441 2.46171 2
35.4338 4.68285 0.00923266
37.5 0 2
37.5139 2.38587 0.00564047
39.9526 0.0806499 0
40.9986 35.8082 3.97418
42.8031 35.7236 2
44.6636 35.542 0.0985864
28.5412 10.6844 3.9856
39.231 34.113 3.97498
40.8983 34.2019 2
42.4418 34.1169 0.102949
48.3998 34.2764 0.00639519
45.1218 33.0335 0.0934258
42.7096 32.3011 0.0852765
40.9281 32.65 0.0882201
46.3688 31.5522 2
43.7001 31.2106 2
41.2184 31.1156 2
39.3059 32.3155 2
44.4098 29.7327 3.96665
41.8923 29.8071 3.90661
39.44 30.3792 3.92248
37.484 32.1777 3.92751
34.0903 12.922 3.98374
35.6904 11.7634 2
37.3093 10.6204 0.0143219
31.1841 11.9742 3.98471
33.0961 11.2052 2
34.7523 10.3696 0.0143253
30.4803 10.0082 2
32.3758 9.361 0.0135933
47.8194 29.5611 0.026239
47.1158 25.1058 0.0173387
36.5803 12.9191 0.0158401
44.2919 21.2912 0.017594
41.75 17.8203 0.0183137
38.6802 14.7911 0.016597
35.7695 14.7426 2
45.5809 27.6797 2
38.6801 17.5752 2
41.343 20.694 2
43.8138 24.0178 2
33.6054 15.8598 3.98333
43.0778 26.495 3.99814
40.9221 23.2669 3.98587
38.4223 20.3035 3.98331
35.8466 17.4901 3.98334
39.2432 37.4857 3.96607
41.0438 37.4867 2
42.9378 37.4952 0.0927291
43.7398 54.4571 0.0109803
43.7186 50.5398 0.00707174
40.9932 39.1766 0.0249509
41.885 45.2054 0.097212
41.975 47.7207 0.0119876
39.4372 44.628 0.0781438
39.2348 40.8955 0.024018
37.4947 42.8245 0.0743312
41.8847 53.0368 2
39.2361 39.1775 2
37.4967 40.9398 2
40.9557 49.7733 2
35.6807 42.6931 2
39.8216 46.1157 2
37.4939 44.8767 2
39.8289 51.9563 4.00162
37.4951 39.1909 3.95895
35.7603 40.9017 3.97657
34.0584 42.3599 3.90957
35.5398 44.6279 3.91929
38.7454 48.766 4.00488
37.4954 46.4191 3.89851
40.4212 54.965 0.0127034
38.7291 53.8981 2
36.7181 53.2557 3.99667
35.3638 60.9343 0.014865
36.9355 57.6563 0.0147248
38.0004 55.2855 0.0126014
34.487 58.547 2
36.3185 55.4184 2
33.2222 55.5342 3.98643
32.3556 59.7675 0.0153445
29.4021 60.3081 0.0155448
30.294 57.8402 2
28.677 55.3328 3.98107
28.0184 58.3934 0.0164132
26.9369 56.8429 2
25.2963 55.1612 3.97733
21.7945 55.364 3.97497
25.3755 58.6127 0.0185475
23.8303 56.8239 2
20.2095 57.0468 3.98098
20.6399 58.7965 3.98084
21.3261 57.4174 2
21.164 61.1835 3.98355
21.99 59.6392 2
22.751 58.2583 0.020855
21.8935 63.8462 3.98655
22.7344 62.0344 2
23.3984 60.3668 0.017774
24.4308 62.7828 0.0146101
23.6804 64.7188 2
22.8355 66.7401 3.98983
25.5463 65.5002 0.0123392
24.8072 67.5968 2
24.0089 69.8068 3.99382
26.8349 68.3354 0.00993235
26.1644 70.6058 2
25.446 73.0099 4
28.3694 71.2649 0.0060775
27.7943 73.7222 2
30.1842 74.2788 0
27.8189 8.64698 3.98725
29.1526 5.87495 3.99
29.8089 7.98651 2
30.725 3.09731 3.99404
31.2507 5.32856 2
31.7865 7.41408 0.0119286
32.6053 0.320823 4
32.9798 2.69982 2
33.3456 4.92199 0.0093518
35.0474 0.0802903 2
35.2441 2.46202 0.00566552
37.5 0 0
39.2389 35.8052 3.96864
40.9989 35.8107 2
42.8006 35.7216 0.0894091
28.5411 10.6838 2
26.62 11.3797 3.98532
29.2229 12.6308 3.98483
37.4902 34.0616 3.97104
39.2302 34.1138 2
40.899 34.1976 0.0430847
46.355 31.557 0.0218282
43.6927 31.2182 0.0926534
41.2039 31.1219 0.0924152
39.3036 32.3148 0.0789512
44.4242 29.7232 2
41.9107 29.7967 2
39.4527 30.3792 2
37.4844 32.1776 2
42.3403 28.3537 3.94882
39.8239 28.9063 3.90675
37.4901 30.1169 3.92338
35.6703 32.3036 3.92135
31.9117 14.4667 3.98392
34.0901 12.9211 2
35.6905 11.7643 0.0156497
31.184 11.9734 2
33.0961 11.2061 0.0155558
30.4804 10.0091 0.0142906
45.5795 27.6872 0.00577341
43.8115 24.0154 0.00740686
35.7701 14.7434 0.0165209
41.343 20.696 0.0185169
38.6806 17.5763 0.0181345
33.605 15.8596 2
35.8461 17.4893 2
43.0801 26.4938 2
38.4219 20.3023 2
40.9228 23.2619 2
33.5476 17.3671 3.98485
40.4568 25.6128 4.01118
38.0791 22.8291 3.99232
35.5828 20.0558 3.98411
37.495 37.493 3.94543
39.2436 37.4856 2
41.043 37.4864 0.0272573
41.8854 53.0345 0.0041456
40.9558 49.7707 -0.00308274
39.2355 39.1786 0.0311496
39.8004 46.0998 0.101642
37.4965 44.8797 0.0774667
37.4966 40.942 0.0266247
35.6824 42.695 0.0769297
39.8284 51.9568 2
37.4954 39.1896 2
35.7609 40.9006 2
38.7421 48.7924 2
34.0552 42.3595 2
35.5305 44.6305 2
37.4917 46.4395 2
37.6745 51.0563 4.01209
35.7593 39.1905 3.96874
34.0999 40.8147 3.95619
32.9207 42.0172 3.88176
33.7768 43.8759 3.91244
35.1718 46.0951 3.904
36.874 48.415 3.98993
38.7301 53.8993 0.0117855
36.7176 53.2529 2
34.354 52.5135 3.98985
34.4874 58.5473 0.0149394
36.3193 55.4202 0.0113389
33.2221 55.533 2
30.5037 53.4324 3.98381
30.2939 57.8403 0.0147858
28.6771 55.3329 2
26.8623 53.459 3.97667
26.9369 56.8429 0.0191807
25.2963 55.1614 2
23.5523 53.5022 3.97361
20.4469 53.2437 3.97198
19.9197 55.8501 3.97976
21.7945 55.3642 2
23.8303 56.8236 0.0238293
19.4312 57.908 3.98037
20.2095 57.0472 2
19.7028 60.2173 3.98242
20.6399 58.797 2
21.3261 57.417 0.0213773
20.2057 62.8674 3.98546
21.1641 61.1841 2
21.99 59.6387 0.018084
20.9369 65.7692 3.98951
21.8937 63.8468 2
22.7343 62.0339 0.0156751
23.6802 64.7184 0.0127873
22.8355 66.7405 2
21.9114 68.8739 3.99371
24.8072 67.5965 0.0100214
24.0086 69.8068 2
23.1494 72.1454 4
26.1647 70.6056 0.00609693
25.446 73.0099 2
27.7943 73.7221 0
25.8581 9.37506 3.98687
27.0674 6.53909 3.98961
27.8188 8.64624 2
28.4872 3.64322 3.99384
29.1525 5.87431 2
29.809 7.98727 0.0124031
30.1841 0.720592 4
30.7249 3.09699 2
31.2507 5.32921 0.00966293
32.6053 0.320817 2
32.9798 2.70013 0.00574888
35.0474 0.080333 0
37.495 35.8005 3.95816
39.2388 35.8059 2
40.9986 35.8082 0.0258234
24.7749 12.0627 3.98534
23.7489 14.3467 3.98435
28.5412 10.6844 0.0143985
26.6201 11.3792 2
29.2229 12.6301 2
27.2891 13.3638 3.98463
29.7776 14.1892 3.98381
35.7547 34.0975 3.97545
37.4899 34.0628 2
39.231 34.113 0.0250187
37.484 32.1777 0.0724885
44.4098 29.7327 0.0333532
41.8923 29.8071 0.0933886
39.44 30.3792 0.077523
42.3552 28.3419 2
39.8418 28.8913 2
37.4909 30.121 2
35.6687 32.3036 2
40.0257 27.5212 3.96557
37.4984 28.573 3.9023
35.5313 30.3688 3.92158
34.0521 32.6307 3.90951
30.9231 16.8221 3.98376
31.9117 14.466 2
34.0903 12.922 0.0162639
31.1841 11.9742 0.0152937
43.0778 26.495 0.00186396
40.9221 23.2669 0.0141332
33.6054 15.8598 0.0166673
35.8466 17.4901 0.0166554
38.4223 20.3035 0.0166885
33.5471 17.3674 2
35.5821 20.0544 2
40.4561 25.6104 2
38.0789 22.8288 2
32.8607 19.7708 3.9854
37.7996 25.1298 4.02578
35.2021 22.6121 3.98496
35.75 37.4965 3.96639
37.4954 37.4929 2
39.2432 37.4857 0.0339318
39.8289 51.9563 -0.00161727
38.7454 48.766 -0.00488244
37.4951 39.1909 0.0410506
37.4954 46.4191 0.101487
35.5398 44.6279 0.0807065
35.7603 40.9017 0.0234334
34.0584 42.3599 0.0904334
37.6739 51.0629 2
35.7598 39.1896 2
34.1003 40.8103 2
36.8715 48.4275 2
32.9154 42.0177 2
33.7668 43.8844 2
35.149 46.109 2
35.4359 50.1952 4.0106
34.006 39.1864 3.97013
32.5441 40.8886 3.89763
32.273 42.7042 3.91303
33.116 45.1906 3.90959
34.2732 47.4778 3.96372
36.7181 53.2557 0.00332816
34.354 52.5124 2
31.9761 51.2392 3.99097
33.2222 55.5342 0.0135697
30.504 53.4333 2
28.4018 51.6413 3.97973
28.677 55.3328 0.0189294
26.8625 53.459 2
25.0505 51.7804 3.971
25.2963 55.1612 0.0226699
23.5525 53.5022 2
21.9374 51.8269 3.97113
19.1772 51.6531 3.97209
18.9052 54.3261 3.97521
20.447 53.244 2
18.4374 56.74 3.98097
19.9196 55.8505 2
21.7945 55.364 0.025028
18.3639 59.1243 3.98062
19.4312 57.9084 2
20.2095 57.0468 0.0190168
18.6162 61.775 3.98419
19.7029 60.2179 2
20.6399 58.7965 0.0191558
19.1257 64.68 3.98877
20.2058 62.8681 2
21.164 61.1835 0.0164494
19.8854 67.8105 3.99349
20.9369 65.7696 2
21.8935 63.8462 0.0134528
22.8355 66.7401 0.0101658
21.9111 68.8739 2
20.9142 71.1327 4
24.0089 69.8068 0.00618161
23.1494 72.1455 2
25.446 73.0099 0
23.0942 12.7774 3.98495
23.9707 10.1615 3.98669
25.0212 7.30919 3.9894
25.8581 9.37437 2
26.2789 4.32744 3.9936
27.0672 6.53844 2
27.8189 8.64698 0.0127451
27.7943 1.27781 4
28.487 3.64294 2
29.1526 5.87495 0.010003
30.1841 0.720551 2
30.725 3.09731 0.00595882
32.6053 0.320823 0
35.754 35.8044 3.96937
37.4952 35.8015 2
39.2389 35.8052 0.0313567
24.775 12.0622 2
23.7492 14.3465 2
22.4773 15.0231 3.98379
25.3551 13.8959 3.98419
24.0217 15.6083 3.98333
26.62 11.3797 0.0146845
29.2229 12.6308 0.0151688
27.2892 13.3635 2
29.7776 14.1885 2
28.3533 15.9631 3.98418
34.1011 34.1836 3.95605
35.7557 34.0985 2
37.4902 34.0616 0.0289591
35.6703 32.3036 0.0786459
37.4901 30.1169 0.0766236
42.3403 28.3537 0.051183
39.8239 28.9063 0.0932472
40.034 27.5096 2
37.4982 28.5551 2
35.5184 30.3708 2
34.052 32.6312 2
37.617 27.1948 3.96718
35.1508 28.8903 3.905
33.7636 31.1142 3.9109
32.9208 32.974 3.88203
30.2043 19.3241 3.98526
30.923 16.8216 2
31.9117 14.4667 0.0160815
40.4568 25.6128 -0.0111764
38.0791 22.8291 0.00768392
33.5476 17.3671 0.0151457
35.5828 20.0558 0.0158898
32.8596 19.7717 2
35.2015 22.6088 2
37.8013 25.1336 2
32.3062 22.3818 3.98547
34.9566 25.1378 4.00908
33.9554 37.497 3.97126
35.7503 37.4965 2
37.495 37.493 0.054573
37.6745 51.0563 -0.012089
36.874 48.415 0.0100733
35.7593 39.1905 0.0312562
35.1718 46.0951 0.0959987
33.7768 43.8759 0.0875572
34.0999 40.8147 0.043808
32.9207 42.0172 0.118241
35.4351 50.1988 2
34.0065 39.1838 2
32.5418 40.886 2
34.2657 47.5071 2
32.2577 42.7081 2
33.0958 45.2079 2
33.2015 49.1858 4.00814
32.1911 39.2787 3.9124
31.0881 41.1796 3.91007
31.2941 43.787 3.9057
32.2298 46.4044 3.96156
34.354 52.5135 0.0101543
31.9764 51.2411 2
29.8145 49.7523 3.98446
30.5037 53.4324 0.0161856
28.4024 51.6387 2
26.4674 50.0192 3.97131
26.8623 53.459 0.0233288
25.051 51.7797 2
23.3051 50.2204 3.97275
23.5523 53.5022 0.0263944
21.9377 51.8272 2
20.4357 50.3345 3.97236
17.9652 50.345 3.97406
17.8148 52.8079 3.97355
19.1776 51.6531 2
17.4243 55.3557 3.97791
18.9052 54.3265 2
20.4469 53.2437 0.0280169
17.1281 57.8865 3.98148
18.4373 56.7404 2
19.9197 55.8501 0.0202413
17.1332 60.5583 3.98259
18.364 59.1249 2
19.4312 57.908 0.0196303
17.406 63.4727 3.98746
18.6163 61.7757 2
19.7028 60.2173 0.0175782
17.9415 66.6189 3.99317
19.1258 64.6805 2
20.2057 62.8674 0.0145422
18.75 69.9759 4
19.8852 67.8105 2
20.9369 65.7692 0.0104932
21.9114 68.8739 0.00629462
20.9142 71.1327 2
23.1494 72.1454 0
21.5848 13.5974 3.9845
22.1888 11.0208 3.98622
23.0944 12.7773 2
23.0392 8.17454 3.98925
23.9708 10.1612 2
24.1165 5.14214 3.99343
25.021 7.30867 2
25.8581 9.37506 0.0131272
25.446 1.99014 4
26.2786 4.32721 2
27.0674 6.53909 0.0103919
27.7943 1.27778 2
28.4872 3.64322 0.00615628
30.1841 0.720592 0
33.999 35.8086 3.97322
35.7546 35.8053 2
37.495 35.8005 0.0418358
21.3022 15.819 3.983
24.7749 12.0627 0.0146585
23.7489 14.3467 0.0156498
25.3553 13.8955 2
22.4777 15.0231 2
24.0221 15.6082 2
23.2606 16.2398 3.98315
25.377 16.0759 3.9842
27.2891 13.3638 0.0153676
29.7776 14.1892 0.0161871
28.3536 15.9629 2
27.4358 18.7841 3.98475
32.5576 34.1043 3.89893
34.1031 34.186 2
35.7547 34.0975 0.024548
34.0521 32.6307 0.0904854
35.5313 30.3688 0.0784151
37.4984 28.573 0.0977038
40.0257 27.5212 0.0344274
37.6132 27.1609 2
32.9192 32.9732 2
35.1325 28.8736 2
33.749 31.0991 2
35.0654 27.3225 3.97176
33.0881 29.7993 3.90517
32.2617 32.2763 3.91058
29.5675 21.9179 3.99204
30.2039 19.3243 2
30.9231 16.8221 0.0162413
37.7996 25.1298 -0.0257784
35.2021 22.6121 0.0150376
32.8607 19.7708 0.0146001
32.3055 22.3835 2
34.9615 25.1414 2
31.66 25.5977 3.99498
32.0557 37.4987 3.90875
33.956 37.4965 2
35.75 37.4965 0.033614
35.4359 50.1952 -0.0105979
34.2732 47.4778 0.0362823
34.006 39.1864 0.0298679
33.116 45.1906 0.0904068
32.273 42.7042 0.0869654
32.5441 40.8886 0.102371
33.2011 49.17 2
32.1882 39.2756 2
31.0714 41.1872 2
32.2116 46.4203 2
31.2831 43.7969 2
31.09 48.0093 4
30.3231 39.4552 3.9023
29.863 41.9755 3.90563
30.3773 44.9821 3.96156
31.9761 51.2392 0.00902863
29.815 49.7473 2
27.8164 48.2174 3.97691
28.4018 51.6413 0.0202714
26.4683 50.0174 2
24.6023 48.4993 3.97576
25.0505 51.7804 0.0290049
23.3057 50.2205 2
21.6141 48.813 3.97503
21.9374 51.8269 0.0288699
20.4364 50.3343 2
19.0056 49.1083 3.97619
16.8739 49.3434 3.97681
16.7553 51.4204 3.97443
17.9658 50.3452 2
16.3752 53.884 3.97596
17.815 52.8081 2
19.1772 51.6531 0.0279123
15.9679 56.4879 3.97999
17.4242 55.3562 2
18.9052 54.3261 0.0247915
15.7457 59.2192 3.98229
17.1281 57.8871 2
18.4374 56.74 0.0190266
15.7864 62.1431 3.98565
17.1333 60.559 2
18.3639 59.1243 0.0193823
16.0881 65.3015 3.99276
17.406 63.4733 2
18.6162 61.775 0.0158055
16.6661 68.6801 4
17.9412 66.6189 2
19.1257 64.68 0.0112271
18.75 69.9759 2
19.8854 67.8105 0.00651077
20.9142 71.1327 0
20.2167 14.5862 3.98377
21.5851 13.5974 2
20.528 11.9904 3.98563
21.1423 9.14422 3.98913
22.189 11.0205 2
23.0942 12.7774 0.0150504
22.0156 6.08112 3.9933
23.0391 8.1742 2
23.9707 10.1615 0.0133056
23.1494 2.85457 4
24.1162 5.142 2
25.0212 7.30919 0.0106018
25.446 1.99012 2
26.2789 4.32744 0.0063953
27.7943 1.27781 0
32.1969 35.7155 3.91178
34.0004 35.8102 2
35.754 35.8044 0.0306274
21.3024 15.8185 2
20.2991 16.9532 3.98322
22.0937 16.6243 3.98199
25.3551 13.8959 0.0158106
22.4773 15.0231 0.0162142
24.0217 15.6083 0.0166742
25.3774 16.0757 2
23.261 16.2398 2
24.1999 18.4381 3.98178
27.0044 21.4417 3.98513
28.3533 15.9631 0.0158198
27.4356 18.7841 2
31.0952 33.8095 3.90791
32.5552 34.1074 2
34.1011 34.1836 0.0439511
32.9208 32.974 0.117973
33.7636 31.1142 0.0891003
35.1508 28.8903 0.0949994
37.617 27.1948 0.0328206
35.0498 27.3053 2
32.2561 32.2802 2
33.0689 29.7787 2
32.4977 28.0529 3.98322
31.2686 31.2041 3.9073
28.7732 24.3834 3.98684
29.5667 21.919 2
30.2043 19.3241 0.0147358
34.9566 25.1378 -0.00907704
32.3062 22.3818 0.0145308
31.6618 25.5863 2
29.5976 27.2886 3.97504
30.0407 37.4864 3.90366
32.0532 37.4979 2
33.9554 37.497 0.0287393
33.2015 49.1858 -0.00814152
32.2298 46.4044 0.0384417
32.1911 39.2787 0.0876028
31.2941 43.787 0.0943037
31.0881 41.1796 0.0899313
31.0915 48.0094 2
30.3086 39.4642 2
29.8517 41.9834 2
30.3636 44.9964 2
29.1126 46.5826 3.99828
28.934 39.8657 3.90756
28.5982 43.1907 3.96499
29.8145 49.7523 0.0155375
27.8171 48.2126 2
25.8832 46.6891 3.9804
26.4674 50.0192 0.0286859
24.603 48.4994 2
22.7554 47.1091 3.9793
23.3051 50.2204 0.0272476
21.615 48.8126 2
19.9534 47.6374 3.9784
20.4357 50.3345 0.0276366
19.0063 49.1085 2
17.6499 48.1908 3.97787
16.1263 48.6933 3.97877
16.8744 49.3437 2
15.8341 50.1807 3.97597
15.3646 52.4264 3.97548
16.7557 51.4207 2
17.9652 50.345 0.0259374
14.8587 54.9877 3.97795
16.3752 53.8843 2
17.8148 52.8079 0.0264508
14.4538 57.748 3.98163
15.9679 56.4885 2
17.4243 55.3557 0.0220866
14.2641 60.6974 3.98456
15.7458 59.2198 2
17.1281 57.8865 0.0185215
14.3324 63.8607 3.99194
15.7863 62.1437 2
17.1332 60.5583 0.0174086
14.6715 67.2507 4
16.0878 65.3014 2
17.406 63.4727 0.0125438
16.6661 68.6801 2
17.9415 66.6189 0.00682685
18.75 69.9759 0
18.9303 15.7736 3.98297
20.2169 14.586 2
18.9776 13.1013 3.98485
21.5848 13.5974 0.0154974
20.5283 11.9902 2
19.3416 10.2318 3.98887
19.9902 7.14577 3.99323
21.1423 9.14392 2
22.1888 11.0208 0.0137776
20.9142 3.86727 4
22.0152 6.08112 2
23.0392 8.17454 0.0107475
23.1494 2.85451 2
24.1165 5.14214 0.00656787
25.446 1.99014 0
30.3301 35.5362 3.90501
32.1938 35.7168 2
33.999 35.8086 0.0267763
21.3022 15.819 0.017002
22.0939 16.6239 2
20.2992 16.9524 2
19.2375 18.3999 3.98229
21.7776 17.8404 3.98217
25.377 16.0759 0.0158038
23.2606 16.2398 0.0168512
24.2 18.4381 2
22.2705 19.8812 3.98055
24.5812 21.3087 3.98281
26.3958 23.7069 3.98041
27.0047 21.4423 2
27.4358 18.7841 0.0152535
29.8618 33.0078 3.90468
31.0793 33.7904 2
32.5576 34.1043 0.101067
32.2617 32.2763 0.0894162
33.0881 29.7993 0.0948293
35.0654 27.3225 0.0282429
32.4869 28.0458 2
31.2719 31.203 2
30.0535 29.5088 3.9738
27.8385 26.5245 3.97276
28.7736 24.3883 2
29.5675 21.9179 0.00796141
31.66 25.5977 0.00501729
29.5911 27.2521 2
28.5894 37.4951 3.91198
30.0264 37.4896 2
32.0557 37.4987 0.0912511
31.09 48.0093 -2.51719e-06
30.3773 44.9821 0.0384443
30.3231 39.4552 0.0976962
29.863 41.9755 0.0943662
29.1145 46.6011 2
28.9213 39.8719 2
28.5838 43.199 2
27.1987 44.8455 3.98237
26.7122 40.6272 3.99185
27.8164 48.2174 0.0230922
25.8829 46.6887 2
23.9335 45.2386 3.97437
24.6023 48.4993 0.0242389
22.7563 47.1084 2
20.8914 45.9191 3.9778
21.6141 48.813 0.0249686
19.954 47.6376 2
18.2981 46.7512 3.97661
19.0056 49.1083 0.0238059
17.6504 48.1913 2
16.3176 47.7234 3.97831
16.1267 48.6937 2
15.1819 49.0239 3.97705
16.8739 49.3434 0.0231884
15.8345 50.1811 2
14.4792 50.9929 3.97581
13.8206 53.4422 3.97694
15.3648 52.4268 2
16.7553 51.4204 0.0255745
13.2482 56.1748 3.98019
14.8586 54.9883 2
16.3752 53.884 0.0240378
12.8459 59.131 3.98437
14.4538 57.7486 2
15.9679 56.4879 0.0200118
12.6778 62.3033 3.99075
14.2641 60.6977 2
15.7457 59.2192 0.0177088
12.7746 65.6939 4
14.332 63.8605 2
15.7864 62.1431 0.0143476
14.6714 67.2507 2
16.0881 65.3015 0.00724242
16.6661 68.6801 0
17.6639 17.1492 3.98228
18.9303 15.773 2
17.5091 14.3659 3.98389
20.2167 14.5862 0.0162304
18.9779 13.1008 2
17.6373 11.4507 3.98801
20.528 11.9904 0.0143743
19.3419 10.2315 2
18.0503 8.3386 3.99318
18.75 5.0241 4
19.9898 7.14586 2
21.1423 9.14422 0.010874
20.9142 3.86727 2
22.0156 6.08112 0.0067044
23.1494 2.85457 0
28.9316 35.1062 3.90565
30.3145 35.5317 2
32.1969 35.7155 0.0882228
22.0937 16.6243 0.0180139
20.2991 16.9532 0.0167837
21.7777 17.8398 2
19.2375 18.3992 2
17.9723 19.9323 3.98109
20.8693 19.3685 3.98203
24.1999 18.4381 0.0182183
22.2707 19.8804 2
24.5816 21.3091 2
22.3456 21.706 3.98211
24.6772 23.1535 3.98016
25.4244 25.9343 3.97152
26.3968 23.7064 2
27.0044 21.4417 0.0148688
28.2432 32.283 3.95306
29.8525 33.0063 2
31.0952 33.8095 0.0920939
31.2686 31.2041 0.0927015
32.4977 28.0529 0.016785
30.0307 29.4973 2
26.9582 29.1159 3.98705
27.8344 26.5219 2
28.7732 24.3834 0.0131579
29.5976 27.2886 0.0249573
26.8166 37.353 3.96735
28.5773 37.4915 2
30.0407 37.4864 0.0963402
29.1126 46.5826 0.00172329
28.5982 43.1907 0.035012
28.934 39.8657 0.092439
27.2008 44.8497 2
26.7055 40.6341 2
25.1865 43.1915 3.97013
23.9537 39.4284 3.96998
25.8832 46.6891 0.0195952
23.929 45.2398 2
21.8557 43.9695 3.97691
22.7554 47.1091 0.0207039
20.8916 45.9191 2
18.9547 44.9827 3.97511
19.9534 47.6374 0.0215995
18.2985 46.7518 2
16.6088 46.2225 3.97377
17.6499 48.1908 0.0221342
16.3181 47.7238 2
14.9131 47.6773 3.97587
16.1263 48.6933 0.0212254
15.1824 49.0243 2
13.7785 49.552 3.97589
15.8341 50.1807 0.0240349
14.4796 50.9933 2
12.8881 51.8794 3.97649
12.1357 54.5319 3.97903
13.8207 53.4427 2
15.3646 52.4264 0.0245176
11.5302 57.4625 3.98344
13.2481 56.1755 2
14.8587 54.9877 0.0220455
11.1322 60.6293 3.98965
12.8459 59.1313 2
14.4538 57.748 0.0183748
10.9835 64.0165 4
12.6775 62.303 2
14.2641 60.6974 0.0154448
12.7745 65.694 2
14.3324 63.8607 0.00805683
14.6715 67.2507 0
16.3956 18.6431 3.98179
17.6639 17.1485 2
16.0998 15.7749 3.98357
18.9303 15.7736 0.0170315
17.5092 14.3651 2
16.0191 12.8043 3.98633
18.9776 13.1013 0.0151478
17.6376 11.4502 2
16.2014 9.66175 3.99288
19.3416 10.2318 0.0111332
18.05 8.33874 2
16.6661 6.31991 4
18.75 5.02404 2
19.9902 7.14577 0.0067713
20.9142 3.86727 0
27.3253 34.7428 3.95473
28.9173 35.1019 2
30.3301 35.5362 0.0949924
16.6716 21.3683 3.97829
21.7776 17.8404 0.0178257
19.2375 18.3999 0.017713
20.8694 19.3677 2
17.9724 19.9316 2
19.7129 21.5616 3.98419
22.2705 19.8812 0.0194507
24.5812 21.3087 0.0171947
22.346 21.7046 2
24.6772 23.1534 2
22.8235 24.5887 3.97512
24.5009 28.5113 3.96738
25.4218 25.9323 2
26.3958 23.7069 0.0195918
26.0855 31.6882 3.9914
28.232 32.2737 2
29.8618 33.0078 0.0953202
30.0535 29.5088 0.0262046
26.9643 29.1161 2
27.8385 26.5245 0.0272384
24.633 36.8525 3.97893
26.8094 37.3571 2
28.5894 37.4951 0.0880233
27.1987 44.8455 0.0176342
26.7122 40.6272 0.00815442
25.1828 43.1944 2
23.9501 39.4305 2
22.9093 41.8098 3.97879
21.6809 38.4989 3.97305
23.9335 45.2386 0.0256343
21.8566 43.971 2
19.7008 42.8965 3.9749
20.8914 45.9191 0.0222014
18.9546 44.9832 2
16.9341 44.3873 3.97211
18.2981 46.7512 0.0233916
16.609 46.2229 2
14.8341 46.0966 3.97313
16.3176 47.7234 0.0216942
14.9135 47.6777 2
13.287 48.0129 3.97469
15.1819 49.0239 0.0229528
13.7789 49.5525 2
12.1083 50.2562 3.97602
14.4792 50.9929 0.0241892
12.8884 51.8799 2
11.1318 52.8394 3.97818
10.3206 55.7134 3.98231
12.1357 54.5326 2
13.8206 53.4422 0.0230572
9.69872 58.8514 3.98844
11.53 57.4632 2
13.2482 56.1748 0.0198124
9.30605 62.2254 4
11.1319 60.6291 2
12.8459 59.131 0.0156307
10.9835 64.0165 2
12.6778 62.3033 0.0092544
12.7746 65.6939 0
15.1399 20.1776 3.97969
16.3957 18.6425 2
14.745 17.2976 3.98244
17.6639 17.1492 0.017724
16.0999 15.774 2
14.4815 14.2863 3.98521
17.5091 14.3659 0.0161122
16.0193 12.8036 2
14.4442 11.1129 3.99234
17.6373 11.4507 0.0119875
16.2012 9.66182 2
14.6715 7.74927 4
18.0503 8.3386 0.00682409
16.6661 6.31988 2
18.75 5.0241 0
25.2762 34.2526 3.98758
27.3169 34.742 2
28.9316 35.1062 0.0943479
17.8438 22.3129 3.98486
15.5167 22.9123 3.97557
16.6716 21.3674 2
20.8693 19.3685 0.017965
17.9723 19.9323 0.0189131
19.7132 21.5607 2
19.6462 24.3659 3.97841
22.3456 21.706 0.0178924
24.6772 23.1535 0.0198414
22.8216 24.5868 2
21.8779 27.8061 3.96877
23.6702 31.1716 3.9714
24.5041 28.5109 2
25.4244 25.9343 0.0284806
26.0881 31.6826 2
28.2432 32.283 0.0469396
26.9582 29.1159 0.0129489
22.4074 36.2682 3.9755
24.6277 36.852 2
26.8166 37.353 0.032651
25.1865 43.1915 0.0298694
23.9537 39.4284 0.0300151
22.9076 41.8112 2
21.6815 38.4998 2
20.6391 40.6342 3.97419
20.0345 37.7793 3.975
21.8557 43.9695 0.0230939
19.7014 42.8971 2
17.3282 42.1039 3.97368
18.9547 44.9827 0.0248922
16.9341 44.3876 2
14.8327 44.2052 3.97231
16.6088 46.2225 0.0262276
14.8343 46.097 2
12.9597 46.299 3.97313
14.9131 47.6773 0.0241318
13.2874 48.0134 2
11.4812 48.5518 3.9747
13.7785 49.552 0.0241116
12.1087 50.2567 2
10.2583 51.0816 3.97731
12.8881 51.8794 0.0235088
11.132 52.84 2
9.22969 53.8904 3.98143
8.38226 56.9834 3.98745
10.3205 55.714 2
12.1357 54.5319 0.0209694
7.74927 60.3285 4
9.69821 58.8509 2
11.5302 57.4625 0.0165551
9.306 62.2255 2
11.1322 60.6293 0.0103524
10.9835 64.0165 0
13.952 21.7446 3.97766
15.1399 20.1767 2
13.4452 18.8947 3.9811
16.3956 18.6431 0.0182107
14.7451 17.2968 2
13.0267 15.879 3.98451
16.0998 15.7749 0.0164303
14.4816 14.2855 2
12.7816 12.6861 3.99138
16.0191 12.8043 0.0136717
14.444 11.113 2
12.7746 9.30605 4
16.2014 9.66175 0.00711651
14.6715 7.74924 2
16.6661 6.31991 0
22.9876 33.7885 3.97373
25.2692 34.2507 2
27.3253 34.7428 0.0452686
17.6129 24.0316 3.97796
17.8436 22.3119 2
14.3001 24.4447 3.97403
15.5162 22.9111 2
16.6716 21.3683 0.0217064
19.0094 27.1851 3.9674
19.7129 21.5616 0.0158112
19.6447 24.3654 2
21.1158 30.6476 3.97108
22.8235 24.5887 0.0248758
21.8789 27.8059 2
23.6646 31.1717 2
24.5009 28.5113 0.032619
26.0855 31.6882 0.00860334
20.1694 35.9153 3.97418
22.4042 36.2694 2
24.633 36.8525 0.0210713
22.9093 41.8098 0.0212062
21.6809 38.4989 0.026946
20.6363 40.6348 2
20.0332 37.7797 2
18.0175 39.001 3.97362
19.7008 42.8965 0.0250979
17.3286 42.1044 2
14.7811 41.9204 3.97276
16.9341 44.3873 0.0278905
14.8327 44.2055 2
12.6979 44.3951 3.97315
14.8341 46.0966 0.0268672
12.9599 46.2995 2
10.9836 46.7349 3.97351
13.287 48.0129 0.0253059
11.4815 48.5522 2
9.52279 49.2403 3.97594
12.1083 50.2562 0.0239841
10.2587 51.0821 2
8.26309 52.0023 3.9805
11.1318 52.8394 0.0218212
9.2298 53.8908 2
7.19127 55.0328 3.987
6.31991 58.3339 4
8.38167 56.9823 2
10.3206 55.7134 0.0176937
7.74924 60.3285 2
9.69872 58.8514 0.011562
9.30605 62.2254 0
13.2218 25.3578 3.9798
12.8198 23.2747 3.97619
13.9517 21.7435 2
12.2304 20.5442 3.97992
15.1399 20.1776 0.0203139
13.4452 18.8938 2
11.6561 17.5601 3.98409
14.745 17.2976 0.0175628
13.0267 15.8783 2
11.219 14.3709 3.99009
14.4815 14.2863 0.0147926
12.7814 12.6862 2
10.9835 10.9835 4
14.4442 11.1129 0.00766254
12.7745 9.306 2
14.6715 7.74927 0
20.5443 33.3827 3.97295
22.9862 33.7894 2
25.2762 34.2526 0.0124223
15.888 26.3926 3.9714
17.612 24.0307 2
17.8438 22.3129 0.0151382
14.2998 24.4442 2
15.5167 22.9123 0.0244339
18.3475 30.1592 3.96952
19.0096 27.1848 2
19.6462 24.3659 0.0215886
21.1129 30.6472 2
21.8779 27.8061 0.0312317
23.6702 31.1716 0.0285975
17.6632 35.9596 3.97288
20.167 35.9156 2
22.4074 36.2682 0.0244986
20.6391 40.6342 0.0258085
20.0345 37.7793 0.025001
18.0164 39.0013 2
14.2955 39.1761 3.97183
17.3282 42.1039 0.026323
14.7813 41.9207 2
12.386 42.2787 3.97174
14.8327 44.2052 0.027695
12.6979 44.3954 2
10.5597 44.8039 3.97365
12.9597 46.299 0.026871
10.9838 46.7354 2
8.90604 47.3189 3.97481
11.4812 48.5518 0.0252968
9.52313 49.2407 2
7.4308 50.0347 3.97913
10.2583 51.0816 0.0226936
8.2634 52.0024 2
6.13197 53.0066 3.98685
9.22969 53.8904 0.0185661
7.19081 55.0312 2
5.0241 56.25 4
6.31988 58.3339 2
8.38226 56.9834 0.0125456
7.74927 60.3285 0
13.4601 26.8081 3.97236
11.9349 24.7846 3.97506
13.2216 25.3573 2
11.134 22.2302 3.97827
12.8197 23.2739 2
13.952 21.7446 0.0223361
12.2303 20.543 2
10.3861 19.3154 3.98332
13.4452 18.8947 0.0188971
11.6561 17.5591 2
9.75973 16.1545 3.98885
13.0267 15.879 0.0154907
11.2187 14.371 2
9.30607 12.7746 4
12.7816 12.6861 0.00862241
10.9835 10.9835 2
12.7746 9.30605 0
17.8256 33.1023 3.97186
20.543 33.3828 2
22.9876 33.7885 0.0262742
15.4726 29.6289 3.9715
15.8877 26.3924 2
17.6129 24.0316 0.0220428
14.3001 24.4447 0.0259742
18.3472 30.1592 2
19.0094 27.1851 0.0325958
21.1158 30.6476 0.0289221
14.9029 36.0152 3.97213
17.6622 35.9598 2
20.1694 35.9153 0.0258188
12.5918 37.8285 3.97168
18.0175 39.001 0.0263822
14.2954 39.1763 2
11.9034 40.1411 3.97068
14.7811 41.9204 0.0272442
12.3861 42.279 2
10.1594 42.779 3.97225
12.6979 44.3951 0.0268535
10.5597 44.8043 2
8.3836 45.3211 3.97483
10.9836 46.7349 0.0264921
8.90626 47.3193 2
6.72275 47.9994 3.978
9.52279 49.2403 0.024061
7.43111 50.0348 2
5.20901 50.9091 3.98654
8.26309 52.0023 0.0194955
6.13177 53.005 2
3.86727 54.0858 4
7.19127 55.0328 0.0130001
5.02404 56.25 2
6.31991 58.3339 0
12.9139 29.0274 3.97008
11.366 26.4852 3.97344
13.4599 26.8077 2
10.1946 23.9656 3.97619
11.9348 24.7841 2
13.2218 25.3578 0.0202031
9.23863 21.1354 3.98175
11.134 22.2292 2
12.8198 23.2747 0.0238053
12.2304 20.5442 0.0200751
10.386 19.3143 2
8.41547 18.0261 3.98803
11.6561 17.5601 0.0159081
9.75931 16.1547 2
7.74928 14.6715 4
11.219 14.3709 0.00991117
9.30602 12.7745 2
10.9835 10.9835 0
14.47 32.8574 3.97197
17.8277 33.1024 2
20.5443 33.3827 0.0270452
15.4726 29.6289 2
15.888 26.3926 0.0286029
18.3475 30.1592 0.0304756
12.885 36.2073 3.97135
14.903 36.0154 2
17.6632 35.9596 0.0271166
12.592 37.8286 2
11.2614 38.3095 3.97111
14.2955 39.1761 0.0281745
11.9035 40.1413 2
9.74801 40.7544 3.97069
12.386 42.2787 0.0282624
10.1595 42.7793 2
7.93312 43.27 3.97382
10.5597 44.8039 0.0263488
8.38366 45.3214 2
6.12896 45.9047 3.97789
8.90604 47.3189 0.0251902
6.72296 47.9995 2
4.42091 48.7498 3.98613
7.4308 50.0347 0.0208681
5.20895 50.908 2
2.85457 51.8506 4
6.13197 53.0066 0.0131518
3.86727 54.0858 2
5.0241 56.25 0
12.056 31.2526 3.97091
10.7782 28.4126 3.97242
12.9138 29.0272 2
9.41064 25.7972 3.97482
11.3659 26.4848 2
13.4601 26.8081 0.0276447
8.22667 23.0221 3.97959
10.1947 23.965 2
11.9349 24.7846 0.0249395
7.19763 19.977 3.98724
9.23869 21.1347 2
11.134 22.2302 0.0217347
10.3861 19.3154 0.0166782
8.41492 18.0268 2
6.31992 16.6661 4
9.75973 16.1545 0.0111455
7.74926 14.6714 2
9.30607 12.7746 0
12.0772 34.2923 3.97133
14.4699 32.8574 2
17.8256 33.1023 0.0281372
15.4726 29.6289 0.0285033
10.8253 36.6102 3.97105
12.8855 36.2074 2
14.9029 36.0152 0.0278681
12.5918 37.8285 0.0283156
11.2616 38.3097 2
9.34426 38.8232 3.97079
11.9034 40.1411 0.029322
9.74812 40.7546 2
7.54671 41.2107 3.97196
10.1594 42.779 0.0277455
7.93317 43.2703 2
5.64115 43.7678 3.97759
8.3836 45.3211 0.0251651
6.12905 45.9047 2
3.76672 46.5361 3.98604
6.72275 47.9994 0.0219978
4.42092 48.7492 2
1.99014 49.554 4
5.20901 50.9091 0.01346
2.85451 51.8506 2
3.86727 54.0858 0
10.9182 32.9167 3.97171
10.0922 30.3803 3.97171
12.0559 31.2525 2
8.71887 27.7311 3.97428
10.7781 28.4125 2
12.9139 29.0274 0.029918
7.35295 24.9823 3.97821
9.41064 25.7968 2
11.366 26.4852 0.026564
6.11481 22.0019 3.98636
8.22687 23.0218 2
10.1946 23.9656 0.023808
5.02411 18.75 4
7.19718 19.9783 2
9.23863 21.1354 0.0182493
8.41547 18.0261 0.0119688
6.3199 16.6661 2
7.74928 14.6715 0
10.4343 34.9988 3.97128
12.0771 34.2923 2
14.47 32.8574 0.028035
9.01582 36.9846 3.97073
10.8259 36.6103 2
12.885 36.2073 0.0286541
11.2614 38.3095 0.0288882
9.34435 38.8234 2
7.22895 39.1812 3.97154
9.74801 40.7544 0.0293076
7.54683 41.2109 2
5.25789 41.6134 3.97579
7.93312 43.27 0.0261803
5.64118 43.7678 2
3.24461 44.2815 3.98564
6.12896 45.9047 0.0221078
3.76676 46.536 2
1.27781 47.2057 4
4.42091 48.7498 0.0138659
1.99012 49.554 2
2.85457 51.8506 0
10.0859 33.8801 3.97172
9.3858 32.1527 3.97268
10.9181 32.9167 2
8.06885 29.695 3.97333
10.0921 30.3802 2
12.056 31.2526 0.0290862
6.59692 27.0086 3.97764
8.71886 27.7309 2
10.7782 28.4126 0.0275829
5.17034 24.0957 3.98595
7.35307 24.9822 2
9.41064 25.7972 0.0251805
3.86728 20.9142 4
6.11462 22.0033 2
8.22667 23.0221 0.0204144
5.02406 18.75 2
7.19763 19.977 0.012756
6.31992 16.6661 0
8.84253 35.2786 3.97083
10.4344 34.9988 2
12.0772 34.2923 0.0286682
7.01269 37.2054 3.97187
9.01587 36.9846 2
10.8253 36.6102 0.0289532
9.34426 38.8232 0.0292083
7.22902 39.1813 2
4.98695 39.4668 3.97448
7.54671 41.2107 0.0280446
5.258 41.6134 2
2.8556 42.0021 3.98419
5.64115 43.7678 0.0224092
3.24463 44.2818 2
0.720592 44.8159 4
3.76672 46.5361 0.0139577
1.27778 47.2057 2
1.99014 49.554 0
8.88308 33.6965 3.97189
10.0858 33.8801 2
7.50711 31.6088 3.97346
9.38569 32.1527 2
10.9182 32.9167 0.0282921
5.94259 29.0698 3.97695
8.06877 29.6949 2
10.0922 30.3803 0.0282936
4.35817 26.2484 3.98582
6.59698 27.0086 2
8.71887 27.7311 0.0257155
2.85458 23.1494 4
5.17024 24.0967 2
7.35295 24.9823 0.0217945
3.86728 20.9142 2
6.11481 22.0019 0.0136408
5.02411 18.75 0
6.96324 35.3057 3.97162
8.84262 35.2786 2
10.4343 34.9988 0.02872
4.8371 37.3395 3.97495
7.01275 37.2055 2
9.01582 36.9846 0.0292685
7.22895 39.1812 0.0284613
4.987 39.4668 2
2.60418 39.7138 3.98281
5.25789 41.6134 0.0242116
2.85573 42.0025 2
0.320823 42.3947 4
3.24461 44.2815 0.0143627
0.720551 44.8159 2
1.27781 47.2057 0
7.122 33.4606 3.97292
8.88304 33.6965 2
10.0859 33.8801 0.0282779
5.4141 31.1338 3.97656
7.50697 31.6087 2
9.3858 32.1527 0.0273196
3.68017 28.4441 3.98538
5.94254 29.0699 2
8.06885 29.695 0.0266742
1.99015 25.446 4
4.35812 26.249 2
6.59692 27.0086 0.0223617
2.85453 23.1494 2
5.17034 24.0957 0.0140501
3.86728 20.9142 0
4.85159 35.2515 3.97483
6.96333 35.3057 2
8.84253 35.2786 0.0291659
2.49558 37.4285 3.98314
4.83715 37.3397 2
7.01269 37.2054 0.0281265
4.98695 39.4668 0.0255211
2.60426 39.7144 2
0.080333 39.9526 4
2.8556 42.0021 0.0158058
0.320817 42.3947 2
0.720592 44.8159 0
5.04426 33.1903 3.97589
7.12196 33.4606 2
8.88308 33.6965 0.0281112
3.14482 30.6664 3.98454
5.41396 31.134 2
7.50711 31.6088 0.0265415
1.27793 27.7943 4
3.68015 28.4443 2
5.94259 29.0698 0.0230512
1.99013 25.446 2
4.35817 26.2484 0.0141793
2.85458 23.1494 0
2.54778 35.159 3.98305
4.85168 35.2518 2
6.96324 35.3057 0.0283839
0 37.5 4
2.49569 37.429 2
4.8371 37.3395 0.0250533
2.60418 39.7138 0.017191
0.0802903 39.9526 2
0.320823 42.3947 0
2.76515 32.9058 3.98372
5.04421 33.1906 2
7.122 33.4606 0.0270781
0.721173 30.1842 4
3.14478 30.6665 2
5.4141 31.1338 0.0234412
1.27779 27.7943 2
3.68017 28.4441 0.0146163
1.99015 25.446 0
0.0806499 35.0474 4
2.5479 35.1595 2
4.85159 35.2515 0.0251741
0 37.5 2
2.49558 37.4285 0.0168577
0.080333 39.9526 0
0.32156 32.6054 4
2.76517 32.9061 2
5.04426 33.1903 0.0241053
0.72056 30.1841 2
3.14482 30.6664 0.0154575
1.27793 27.7943 0
0.0802889 35.0474 2
2.54778 35.159 0.0169464
0 37.5 0
0.320817 32.6053 2
2.76515 32.9058 0.016279
0.721173 30.1842 0
0.0806499 35.0474 0
0.32156 32.6054 0
CELLS 1910 17190
8 18 6 25 56 2 0 5 16
8 57 23 6 18 17 4 0 2
8 78 36 9 29 31 11 1 7
8 31 11 1 7 79 37 10 30
8 110 57 18 50 48 17 2 14
8 50 18 56 111 14 2 16 49
8 116 62 22 55 52 20 3 15
8 56 25 67 118 16 5 24 53
8 119 63 23 57 54 21 4 17
8 55 22 63 119 15 3 21 54
8 58 26 68 121 18 6 25 56
8 122 65 26 58 57 23 6 18
8 73 31 7 27 142 79 30 71
8 143 78 29 72 73 31 7 27
8 83 147 76 34 32 74 28 8
8 84 148 78 36 33 75 29 9
8 76 34 8 28 148 84 33 75
8 37 79 150 86 10 30 77 35
8 151 87 36 78 80 38 11 31
8 80 38 11 31 152 88 37 79
8 175 100 42 94 96 44 12 40
8 44 96 176 101 12 40 95 43
8 101 176 98 46 43 95 41 13
8 46 98 178 103 13 41 97 45
8 178 103 45 97 147 83 32 74
8 189 116 55 109 106 52 15 47
8 111 56 118 191 49 16 53 107
8 192 119 57 110 108 54 17 48
8 109 55 119 192 47 15 54 108
8 194 122 58 112 110 57 18 50
8 112 58 121 195 50 18 56 111
8 115 61 19 51 197 124 59 113
8 115 61 125 198 51 19 60 114
8 198 125 62 116 114 60 20 52
8 200 127 64 120 116 62 22 55
8 118 67 132 202 53 24 66 117
8 121 68 133 203 56 25 67 118
8 120 64 128 204 55 22 63 119
8 204 128 65 122 119 63 23 57
8 206 134 68 121 123 69 26 58
8 123 69 26 58 207 131 65 122
8 226 147 74 138 140 76 28 70
8 229 148 75 139 143 78 29 72
8 140 76 28 70 229 148 75 139
8 142 79 30 71 231 150 77 141
8 144 80 31 73 232 152 79 142
8 233 151 78 143 144 80 31 73
8 150 86 35 77 235 154 81 145
8 235 154 81 145 146 82 39 91
8 146 82 39 91 236 155 90 165
8 238 157 83 147 149 85 34 76
8 239 158 84 148 151 87 36 78
8 149 85 34 76 239 158 84 148
8 152 88 37 79 241 160 86 150
8 242 161 87 151 153 89 38 80
8 153 89 38 80 243 162 88 152
8 171 98 41 92 265 178 97 169
8 265 178 97 169 226 147 74 138
8 172 96 40 93 266 176 95 170
8 266 176 95 170 171 98 41 92
8 269 175 94 173 172 96 40 93
8 271 180 99 174 175 100 42 94
8 197 124 59 113 271 180 99 174
8 272 181 100 175 177 102 44 96
8 273 182 101 176 179 104 46 98
8 177 102 44 96 273 182 101 176
8 179 104 46 98 275 184 103 178
8 275 184 103 178 238 157 83 147
8 188 115 51 105 283 197 113 186
8 188 115 198 284 105 51 114 187
8 284 198 116 189 187 114 52 106
8 286 200 120 193 189 116 55 109
8 191 118 202 288 107 53 117 190
8 195 121 203 289 111 56 118 191
8 193 120 204 290 109 55 119 192
8 290 204 122 194 192 119 57 110
8 196 123 58 112 292 207 122 194
8 293 206 121 195 196 123 58 112
8 199 126 61 115 297 211 124 197
8 298 212 127 200 198 125 62 116
8 199 126 212 298 115 61 125 198
8 205 129 64 120 300 214 127 200
8 301 217 130 201 202 132 66 117
8 209 136 168 264 301 217 130 201
8 302 219 132 202 203 133 67 118
8 303 220 133 203 206 134 68 121
8 205 129 215 304 120 64 128 204
8 304 215 131 207 204 128 65 122
8 306 221 134 206 208 135 69 123
8 208 135 69 123 307 218 131 207
8 210 137 167 263 309 223 136 209
8 328 238 147 226 230 149 76 140
8 228 146 91 166 329 236 165 260
8 231 150 77 141 330 235 145 227
8 330 235 145 227 228 146 91 166
8 332 239 148 229 233 151 78 143
8 230 149 76 140 332 239 148 229
8 232 152 79 142 334 241 150 231
8 234 153 80 144 335 243 152 232
8 336 242 151 233 234 153 80 144
8 236 155 90 165 338 245 164 259
8 241 160 86 150 339 246 154 235
8 339 246 154 235 237 156 82 146
8 237 156 82 146 340 247 155 236
8 342 249 157 238 240 159 85 149
8 343 250 158 239 242 161 87 151
8 240 159 85 149 343 250 158 239
8 243 162 88 152 345 252 160 241
8 244 163 253 346 153 89 161 242
8 244 163 89 153 347 254 162 243
8 311 224 261 371 210 137 167 263
8 263 167 262 372 209 136 168 264
8 267 179 98 171 375 275 178 265
8 375 275 178 265 328 238 147 226
8 376 273 176 266 267 179 98 171
8 268 177 96 172 376 273 176 266
8 379 272 175 269 268 177 96 172
8 380 271 174 270 269 175 94 173
8 283 197 113 186 380 271 174 270
8 381 277 180 271 272 181 100 175
8 297 211 124 197 381 277 180 271
8 382 278 181 272 274 183 102 177
8 274 183 102 177 383 279 182 273
8 383 279 182 273 276 185 104 179
8 385 281 184 275 342 249 157 238
8 276 185 104 179 385 281 184 275
8 285 199 115 188 393 297 197 283
8 394 298 200 286 284 198 116 189
8 285 199 298 394 188 115 198 284
8 291 205 120 193 396 300 200 286
8 397 301 201 287 288 202 117 190
8 295 209 264 374 397 301 201 287
8 398 302 202 288 289 203 118 191
8 399 303 203 289 293 206 121 195
8 291 205 304 400 193 120 204 290
8 400 304 207 292 290 204 122 194
8 294 208 123 196 402 307 207 292
8 403 306 206 293 294 208 123 196
8 296 210 263 373 405 309 209 295
8 408 312 213 299 297 211 126 199
8 299 213 313 409 199 126 212 298
8 409 313 214 300 298 212 127 200
8 305 216 129 205 411 315 214 300
8 412 318 217 301 302 219 132 202
8 309 223 136 209 412 318 217 301
8 413 320 219 302 303 220 133 203
8 306 221 321 414 206 134 220 303
8 307 218 131 207 415 316 215 304
8 305 216 316 415 205 129 215 304
8 417 322 221 306 308 222 135 208
8 308 222 135 208 418 319 218 307
8 310 225 137 210 420 325 223 309
8 423 326 224 311 310 225 137 210
8 329 236 165 260 441 338 259 368
8 442 342 238 328 333 240 149 230
8 331 237 146 228 443 340 236 329
8 334 241 150 231 444 339 235 330
8 444 339 235 330 331 237 146 228
8 446 343 239 332 336 242 151 233
8 333 240 149 230 446 343 239 332
8 335 243 152 232 448 345 241 334
8 337 244 153 234 449 347 243 335
8 337 244 346 450 234 153 242 336
8 338 245 164 259 452 349 258 367
8 340 247 155 236 453 350 245 338
8 345 252 160 241 454 351 246 339
8 454 351 246 339 341 248 156 237
8 341 248 156 237 455 352 247 340
8 240 159 251 344 342 249 354 457
8 242 161 253 346 343 250 355 458
8 343 250 355 458 240 159 251 344
8 347 254 162 243 460 357 252 345
8 348 255 358 461 244 163 253 346
8 348 255 163 244 462 359 254 347
8 473 360 257 365 363 256 364 482
8 452 349 258 367 365 257 366 485
8 422 324 369 488 311 224 261 371
8 371 261 370 490 263 167 262 372
8 407 311 371 491 296 210 263 373
8 373 263 372 492 295 209 264 374
8 493 385 275 375 442 342 238 328
8 377 276 179 267 493 385 275 375
8 378 274 177 268 494 383 273 376
8 494 383 273 376 377 276 179 267
8 497 382 272 379 378 274 177 268
8 498 381 271 380 379 272 175 269
8 393 297 197 283 498 381 271 380
8 499 387 277 381 382 278 181 272
8 408 312 211 297 499 387 277 381
8 500 388 278 382 384 280 183 274
8 501 389 279 383 386 282 185 276
8 384 280 183 274 501 389 279 383
8 386 282 185 276 503 391 281 385
8 503 391 281 385 457 354 249 342
8 511 408 299 395 393 297 199 285
8 395 299 409 512 285 199 298 394
8 512 409 300 396 394 298 200 286
8 401 305 205 291 514 411 300 396
8 515 412 301 397 398 302 202 288
8 405 309 209 295 515 412 301 397
8 516 413 302 398 399 303 203 289
8 403 306 414 517 293 206 303 399
8 402 307 207 292 518 415 304 400
8 401 305 415 518 291 205 304 400
8 404 308 208 294 520 418 307 402
8 521 417 306 403 404 308 208 294
8 406 310 210 296 523 420 309 405
8 526 423 311 407 406 310 210 296
8 410 314 213 299 527 424 312 408
8 528 425 315 411 409 313 214 300
8 410 314 425 528 299 213 313 409
8 416 317 216 305 530 427 315 411
8 531 430 318 412 413 320 219 302
8 420 325 223 309 531 430 318 412
8 532 432 320 413 414 321 220 303
8 417 322 433 533 306 221 321 414
8 418 319 218 307 534 428 316 415
8 416 317 428 534 305 216 316 415
8 419 323 434 536 308 222 322 417
8 419 323 222 308 537 431 319 418
8 421 327 225 310 539 438 325 420
8 421 327 439 541 310 225 326 423
8 543 437 324 422 423 326 224 311
8 441 338 259 368 559 452 367 486
8 443 340 236 329 560 453 338 441
8 333 240 344 447 442 342 457 561
8 445 341 237 331 562 455 340 443
8 448 345 241 334 563 454 339 444
8 563 454 339 444 445 341 237 331
8 336 242 346 450 446 343 458 565
8 446 343 458 565 333 240 344 447
8 449 347 243 335 567 460 345 448
8 451 348 244 337 568 462 347 449
8 451 348 461 569 337 244 346 450
8 570 463 349 452 473 360 257 365
8 453 350 245 338 570 463 349 452
8 455 352 247 340 571 464 350 453
8 460 357 252 345 572 465 351 454
8 572 465 351 454 456 353 248 341
8 456 353 248 341 573 466 352 455
8 344 251 356 459 457 354 468 575
8 458 355 469 576 344 251 356 459
8 346 253 358 461 458 355 469 576
8 462 359 254 347 578 471 357 460
8 348 255 359 462 461 358 472 579
8 591 474 360 473 475 361 256 363
8 475 361 256 363 594 477 362 479
8 363 256 364 482 479 362 480 603
8 590 473 365 484 481 363 482 605
8 482 364 257 365 606 483 366 485
8 559 452 367 486 484 365 485 607
8 542 436 487 609 422 324 369 488
8 525 422 488 611 407 311 371 491
8 488 369 489 612 371 261 370 490
8 491 371 490 613 373 263 372 492
8 495 386 276 377 614 503 385 493
8 614 503 385 493 561 457 342 442
8 615 501 383 494 495 386 276 377
8 496 384 274 378 615 501 383 494
8 618 500 382 497 496 384 274 378
8 619 499 381 498 497 382 272 379
8 511 408 297 393 619 499 381 498
8 620 505 387 499 500 388 278 382
8 527 424 312 408 620 505 387 499
8 502 390 506 621 384 280 388 500
8 622 507 389 501 504 392 282 386
8 502 390 280 384 622 507 389 501
8 504 392 282 386 624 509 391 503
8 624 509 391 503 575 468 354 457
8 513 410 299 395 630 527 408 511
8 631 528 411 514 512 409 300 396
8 513 410 528 631 395 299 409 512
8 519 416 305 401 633 530 411 514
8 634 531 412 515 516 413 302 398
8 523 420 309 405 634 531 412 515
8 635 532 413 516 517 414 303 399
8 521 417 533 636 403 306 414 517
8 520 418 307 402 637 534 415 518
8 519 416 534 637 401 305 415 518
8 522 419 308 404 639 537 418 520
8 522 419 536 640 404 308 417 521
8 524 421 310 406 642 539 420 523
8 524 421 541 644 406 310 423 526
8 646 543 422 525 526 423 311 407
8 529 426 314 410 647 544 424 527
8 528 425 545 648 411 315 427 530
8 529 426 545 648 410 314 425 528
8 535 429 317 416 649 546 427 530
8 650 548 430 531 532 432 320 413
8 539 438 325 420 650 548 430 531
8 533 433 550 651 414 321 432 532
8 536 434 551 652 417 322 433 533
8 537 431 319 418 653 547 428 534
8 535 429 547 653 416 317 428 534
8 538 435 552 654 419 323 434 536
8 538 435 323 419 655 549 431 537
8 540 440 327 421 657 556 438 539
8 540 440 557 659 421 327 439 541
8 541 439 555 660 423 326 437 543
8 661 554 436 542 543 437 324 422
8 676 570 452 559 590 473 365 484
8 560 453 338 441 676 570 452 559
8 562 455 340 443 677 571 453 560
8 447 344 459 566 561 457 575 678
8 564 456 341 445 679 573 455 562
8 567 460 345 448 680 572 454 563
8 680 572 454 563 564 456 341 445
8 565 458 576 682 447 344 459 566
8 450 346 461 569 565 458 576 682
8 568 462 347 449 684 578 460 567
8 451 348 462 568 569 461 579 685
8 686 580 463 570 591 474 360 473
8 571 464 350 453 686 580 463 570
8 573 466 352 455 687 581 464 571
8 572 465 582 688 460 357 471 578
8 574 467 582 688 456 353 465 572
8 574 467 353 456 689 583 466 573
8 459 356 470 577 575 468 585 691
8 576 469 586 692 459 356 470 577
8 461 358 472 579 576 469 586 692
8 462 359 471 578 579 472 588 694
8 704 591 473 590 593 475 363 481
8 595 476 592 705 475 361 474 591
8 593 475 363 481 707 594 479 602
8 594 477 362 479 709 598 478 600
8 595 476 361 475 711 597 477 594
8 479 362 480 603 600 478 601 720
8 481 363 482 605 602 479 603 722
8 603 480 364 482 723 604 483 606
8 605 482 365 484 724 606 485 607
8 656 553 608 726 542 436 487 609
8 645 542 609 728 525 422 488 611
8 609 487 610 729 488 369 489 612
8 611 488 612 730 491 371 490 613
8 616 504 386 495 731 624 503 614
8 731 624 503 614 678 575 457 561
8 732 622 501 615 616 504 386 495
8 617 502 384 496 732 622 501 615
8 617 502 621 735 496 384 500 618
8 736 620 499 619 618 500 382 497
8 630 527 408 511 736 620 499 619
8 621 506 626 737 500 388 505 620
8 647 544 424 527 737 626 505 620
8 623 508 627 738 502 390 506 621
8 623 508 390 502 739 628 507 622
8 625 510 628 739 504 392 507 622
8 740 629 509 624 691 585 468 575
8 625 510 392 504 740 629 509 624
8 632 529 410 513 744 647 527 630
8 631 528 648 745 514 411 530 633
8 632 529 648 745 513 410 528 631
8 638 535 416 519 746 649 530 633
8 747 650 531 634 635 532 413 516
8 642 539 420 523 747 650 531 634
8 636 533 651 748 517 414 532 635
8 640 536 652 749 521 417 533 636
8 639 537 418 520 750 653 534 637
8 638 535 653 750 519 416 534 637
8 641 538 419 522 751 655 537 639
8 641 538 654 752 522 419 536 640
8 643 540 421 524 753 657 539 642
8 643 540 659 755 524 421 541 644
8 644 541 660 757 526 423 543 646
8 758 661 542 645 646 543 422 525
8 529 426 544 647 648 545 662 759
8 530 427 545 648 649 546 663 760
8 535 429 546 649 653 547 664 761
8 762 666 548 650 651 550 432 532
8 657 556 438 539 762 666 548 650
8 652 551 668 763 533 433 550 651
8 654 552 669 764 536 434 551 652
8 655 549 431 537 765 665 547 653
8 538 435 549 655 654 552 667 766
8 661 554 671 768 542 436 553 656
8 658 558 440 540 769 674 556 657
8 658 558 675 770 540 440 557 659
8 659 557 673 771 541 439 555 660
8 660 555 672 772 543 437 554 661
8 788 686 570 676 704 591 473 590
8 677 571 453 560 788 686 570 676
8 679 573 455 562 789 687 571 677
8 566 459 577 683 678 575 691 790
8 681 574 456 564 791 689 573 679
8 680 572 688 792 567 460 578 684
8 681 574 688 792 564 456 572 680
8 682 576 692 794 566 459 577 683
8 569 461 579 685 682 576 692 794
8 568 462 578 684 685 579 694 796
8 687 581 464 571 798 696 580 686
8 798 696 580 686 705 592 474 591
8 689 583 466 573 799 697 581 687
8 688 582 698 800 578 471 588 694
8 690 584 698 800 574 467 582 688
8 690 584 467 574 801 699 583 689
8 693 587 701 803 577 470 585 691
8 693 587 470 577 804 702 586 692
8 695 589 702 804 579 472 586 692
8 695 589 472 579 805 703 588 694
8 708 595 705 813 593 475 591 704
8 710 596 706 814 595 476 592 705
8 707 594 479 602 816 709 600 719
8 708 595 475 593 817 711 594 707
8 709 598 478 600 819 715 599 717
8 711 597 477 594 820 714 598 709
8 710 596 476 595 822 713 597 711
8 600 478 601 720 717 599 718 832
8 602 479 603 722 719 600 720 834
8 720 601 480 603 835 721 604 723
8 722 603 482 605 836 723 606 724
8 767 670 725 839 656 553 608 726
8 756 656 726 841 645 542 609 728
8 726 608 727 842 609 487 610 729
8 728 609 729 843 611 488 612 730
8 844 740 624 731 790 691 575 678
8 733 625 504 616 844 740 624 731
8 734 623 502 617 845 739 622 732
8 733 625 739 845 616 504 622 732
8 734 623 738 846 617 502 621 735
8 735 621 737 847 618 500 620 736
8 744 647 527 630 847 737 620 736
8 621 506 627 738 737 626 741 848
8 647 544 626 737 759 662 741 848
8 623 508 628 739 738 627 742 849
8 740 629 585 691 850 743 700 802
8 625 510 629 740 739 628 743 850
8 632 529 647 744 745 648 759 854
8 633 530 648 745 746 649 760 855
8 638 535 649 746 750 653 761 856
8 857 762 650 747 748 651 532 635
8 753 657 539 642 857 762 650 747
8 749 652 763 858 636 533 651 748
8 752 654 764 859 640 536 652 749
8 751 655 537 639 860 765 653 750
8 641 538 655 751 752 654 766 861
8 754 658 540 643 862 769 657 753
8 754 658 770 863 643 540 659 755
8 755 659 771 864 644 541 660 757
8 758 661 768 866 645 542 656 756
8 757 660 772 867 646 543 661 758
8 759 662 773 868 648 545 663 760
8 649 546 663 760 761 664 774 871
8 765 665 547 653 872 775 664 761
8 873 777 666 762 763 668 550 651
8 769 674 556 657 873 777 666 762
8 764 669 779 874 652 551 668 763
8 654 552 667 766 764 669 778 875
8 655 549 665 765 766 667 776 876
8 768 671 782 877 656 553 670 767
8 772 672 783 878 661 554 671 768
8 658 558 674 769 770 675 786 879
8 659 557 675 770 771 673 785 881
8 882 784 672 772 771 673 555 660
8 789 687 571 677 897 798 686 788
8 897 798 686 788 813 705 591 704
8 791 689 573 679 898 799 687 789
8 795 693 803 900 683 577 691 790
8 793 690 574 681 901 801 689 791
8 792 688 800 902 684 578 694 796
8 793 690 800 902 681 574 688 792
8 795 693 577 683 903 804 692 794
8 797 695 804 903 685 579 692 794
8 797 695 579 685 904 805 694 796
8 905 806 697 799 798 696 581 687
8 814 706 806 905 705 592 696 798
8 689 583 697 799 801 699 808 907
8 800 698 809 908 694 588 703 805
8 690 584 699 801 800 698 809 908
8 803 701 810 909 691 585 700 802
8 693 587 702 804 803 701 811 910
8 695 589 703 805 804 702 812 911
8 818 710 814 919 708 595 705 813
8 821 712 815 920 710 596 706 814
8 816 709 600 719 922 819 717 831
8 817 711 594 707 923 820 709 816
8 818 710 595 708 924 822 711 817
8 819 715 599 717 926 827 716 829
8 820 714 598 709 927 826 715 819
8 929 825 713 822 820 714 597 711
8 821 712 596 710 930 824 713 822
8 717 599 718 832 829 716 830 942
8 719 600 720 834 831 717 832 944
8 832 718 601 720 945 833 721 835
8 834 720 603 722 946 835 723 836
8 869 780 838 950 767 670 725 839
8 865 767 839 952 756 656 726 841
8 839 725 840 953 726 608 727 842
8 841 726 842 954 728 609 729 843
8 844 740 691 790 955 850 802 899
8 733 625 740 844 845 739 850 955
8 734 623 739 845 846 738 849 956
8 735 621 738 846 847 737 848 957
8 744 647 737 847 854 759 848 957
8 738 627 742 849 848 741 851 958
8 848 741 851 958 759 662 773 868
8 850 743 700 802 959 852 807 906
8 849 742 628 739 959 852 743 850
8 854 759 868 965 745 648 760 855
8 746 649 760 855 856 761 871 966
8 860 765 653 750 967 872 761 856
8 968 873 762 857 858 763 651 748
8 862 769 657 753 968 873 762 857
8 859 764 874 969 749 652 763 858
8 752 654 766 861 859 764 875 970
8 751 655 765 860 861 766 876 971
8 754 658 769 862 863 770 879 972
8 755 659 770 863 864 771 881 974
8 976 882 772 867 864 771 660 757
8 866 768 877 977 756 656 767 865
8 867 772 878 978 758 661 768 866
8 760 663 773 868 871 774 883 980
8 870 781 837 948 982 890 780 869
8 982 890 780 869 877 782 670 767
8 761 664 774 871 872 775 884 984
8 876 776 665 765 985 885 775 872
8 873 777 668 763 986 887 779 874
8 769 674 777 873 879 786 887 986
8 764 669 778 875 874 779 888 987
8 766 667 776 876 875 778 886 988
8 878 783 892 989 768 671 782 877
8 878 783 672 772 990 893 784 882
8 880 787 675 770 991 896 786 879
8 880 787 895 992 770 675 785 881
8 881 785 894 993 771 673 784 882
8 1006 905 799 898 897 798 687 789
8 919 814 905 1006 813 705 798 897
8 791 689 799 898 901 801 907 1007
8 900 803 909 1009 790 691 802 899
8 795 693 804 903 900 803 910 1010
8 902 800 908 1011 796 694 805 904
8 793 690 801 901 902 800 908 1011
8 797 695 805 904 903 804 911 1012
8 799 697 806 905 907 808 912 1013
8 920 815 912 1013 814 706 806 905
8 802 700 810 909 906 807 913 1014
8 801 699 808 907 908 809 914 1015
8 805 703 809 908 911 812 915 1016
8 803 701 811 910 909 810 916 1017
8 911 812 917 1018 804 702 811 910
8 925 821 920 1030 818 710 814 919
8 928 823 921 1031 821 712 815 920
8 922 819 717 831 1033 926 829 941
8 923 820 709 816 1034 927 819 922
8 1035 929 822 924 923 820 711 817
8 925 821 710 818 1036 930 822 924
8 1038 933 825 929 927 826 714 820
8 926 827 716 829 1039 935 828 939
8 927 826 715 819 1040 934 827 926
8 928 823 712 821 1041 931 824 930
8 1042 932 824 930 929 825 713 822
8 829 716 830 942 939 828 940 1058
8 831 717 832 944 941 829 942 1060
8 942 830 718 832 1061 943 833 945
8 944 832 720 834 1062 945 835 946
8 981 889 947 1064 870 781 837 948
8 948 837 949 1067 869 780 838 950
8 975 869 950 1069 865 767 839 952
8 950 838 951 1070 839 725 840 953
8 952 839 953 1071 841 726 842 954
8 955 850 802 899 1072 959 906 1008
8 956 849 739 845 1072 959 850 955
8 846 738 849 956 957 848 958 1073
8 957 848 958 1073 854 759 868 965
8 849 742 852 959 958 851 961 1076
8 960 853 961 1076 906 807 852 959
8 958 851 961 1076 868 773 883 980
8 960 853 807 906 1077 963 913 1014
8 855 760 868 965 966 871 980 1085
8 856 761 871 966 967 872 984 1086
8 971 876 765 860 1087 985 872 967
8 968 873 763 858 1088 986 874 969
8 862 769 873 968 972 879 986 1088
8 859 764 875 970 969 874 987 1089
8 861 766 876 971 970 875 988 1090
8 973 880 770 863 1091 991 879 972
8 973 880 992 1092 863 770 881 974
8 974 881 993 1093 864 771 882 976
8 979 870 948 1066 1094 982 869 975
8 1094 982 869 975 977 877 767 865
8 978 878 772 867 1095 990 882 976
8 978 878 989 1096 866 768 877 977
8 871 774 883 980 984 884 994 1099
8 983 891 999 1100 870 781 889 981
8 1101 1000 890 982 989 892 782 877
8 983 891 781 870 1101 1000 890 982
8 872 775 884 984 985 885 995 1103
8 876 776 885 985 988 886 996 1104
8 986 887 779 874 1105 998 888 987
8 879 786 887 986 991 896 998 1105
8 875 778 886 988 987 888 997 1106
8 990 893 1002 1107 878 783 892 989
8 1108 1003 893 990 993 894 784 882
8 880 787 896 991 992 895 1005 1109
8 993 894 785 881 1110 1004 895 992
8 898 799 905 1006 1007 907 1013 1120
8 1030 920 1013 1120 919 814 905 1006
8 901 801 907 1007 1011 908 1015 1121
8 899 802 909 1009 1008 906 1014 1122
8 900 803 910 1010 1009 909 1017 1123
8 1012 911 1018 1124 903 804 910 1010
8 904 805 908 1011 1012 911 1016 1125
8 1013 912 1020 1127 907 808 914 1015
8 1031 921 1020 1127 920 815 912 1013
8 1019 918 962 1075 1128 1021 913 1014
8 1128 1021 913 1014 1017 916 810 909
8 1015 914 1022 1129 908 809 915 1016
8 1016 915 1023 1130 911 812 917 1018
8 1018 917 1024 1131 910 811 916 1017
8 1037 928 1031 1148 925 821 920 1030
8 928 823 931 1041 1031 921 1032 1149
8 1033 926 829 941 1151 1039 939 1057
8 1034 927 819 922 1152 1040 926 1033
8 1153 1038 929 1035 1034 927 820 923
8 1154 1042 930 1036 1035 929 822 924
8 1037 928 821 925 1155 1041 930 1036
8 1039 935 828 939 1156 1047 938 1055
8 1157 1043 932 1042 1038 933 825 929
8 1038 933 826 927 1158 1045 934 1040
8 1040 934 827 926 1159 1046 935 1039
8 930 824 932 1042 1041 931 1044 1160
8 1051 936 1048 1165 1175 1052 937 1053
8 1156 1047 938 1055 1053 937 1054 1178
8 939 828 940 1058 1055 938 1056 1181
8 941 829 942 1060 1057 939 1058 1183
8 942 830 943 1061 1058 940 1059 1184
8 1060 942 832 944 1185 1061 945 1062
8 1082 964 1063 1188 981 889 947 1064
8 1097 981 1064 1190 979 870 948 1066
8 1064 947 1065 1191 948 837 949 1067
8 1066 948 1067 1193 975 869 950 1069
8 1067 949 1068 1194 950 838 951 1070
8 1069 950 1070 1195 952 839 953 1071
8 956 849 959 1072 1073 958 1076 1197
8 1074 960 1076 1197 1008 906 959 1072
8 1073 958 1076 1197 965 868 980 1085
8 1074 960 906 1008 1198 1077 1014 1122
8 1133 1026 1079 1199 1019 918 962 1075
8 1077 963 913 1014 1200 1080 962 1075
8 960 853 963 1077 1076 961 1078 1201
8 980 883 961 1076 1099 994 1078 1201
8 1210 1083 964 1082 1100 999 889 981
8 966 871 980 1085 1086 984 1099 1215
8 967 872 984 1086 1087 985 1103 1216
8 971 876 985 1087 1090 988 1104 1217
8 1088 986 874 969 1218 1105 987 1089
8 972 879 986 1088 1091 991 1105 1218
8 970 875 988 1090 1089 987 1106 1219
8 973 880 991 1091 1092 992 1109 1220
8 1093 993 881 974 1221 1110 992 1092
8 1222 1108 990 1095 1093 993 882 976
8 1223 1101 982 1094 1096 989 877 977
8 1098 983 870 979 1223 1101 982 1094
8 1095 990 1107 1224 978 878 989 1096
8 1098 983 1100 1225 979 870 981 1097
8 984 884 994 1099 1103 995 1111 1227
8 1102 1001 1115 1228 983 891 999 1100
8 1101 1000 892 989 1229 1116 1002 1107
8 1102 1001 891 983 1229 1116 1000 1101
8 985 885 995 1103 1104 996 1112 1230
8 988 886 996 1104 1106 997 1113 1231
8 1105 998 888 987 1232 1114 997 1106
8 991 896 998 1105 1109 1005 1114 1232
8 1108 1003 1117 1233 990 893 1002 1107
8 1108 1003 894 993 1233 1117 1004 1110
8 992 895 1005 1109 1110 1004 1118 1234
8 1120 1013 1127 1244 1007 907 1015 1121
8 1148 1031 1127 1244 1030 920 1013 1120
8 1121 1015 1129 1245 1011 908 1016 1125
8 1126 1019 1075 1196 1246 1128 1014 1122
8 1246 1128 1014 1122 1123 1017 909 1009
8 1124 1018 1131 1247 1010 910 1017 1123
8 1125 1016 1130 1248 1012 911 1018 1124
8 1127 1020 1137 1254 1015 914 1022 1129
8 1031 921 1032 1149 1127 1020 1137 1254
8 1134 1027 918 1019 1257 1140 1021 1128
8 1257 1140 1021 1128 1131 1024 916 1017
8 1129 1022 1141 1258 1016 915 1023 1130
8 1130 1023 1142 1259 1018 917 1024 1131
8 1261 1144 1025 1132 1133 1026 1079 1199
8 1255 1138 1025 1132 1135 1028 1144 1261
8 1133 1026 918 1019 1262 1145 1027 1134
8 1136 1029 1139 1256 1263 1146 1028 1135
8 1037 928 1041 1155 1148 1031 1149 1275
8 1041 931 1044 1160 1149 1032 1150 1276
8 1151 1039 939 1057 1278 1156 1055 1180
8 1152 1040 926 1033 1279 1159 1039 1151
8 1153 1038 927 1034 1280 1158 1040 1152
8 1281 1157 1042 1154 1153 1038 929 1035
8 1036 930 1042 1154 1155 1041 1160 1282
8 1283 1164 1046 1159 1156 1047 935 1039
8 1165 1048 1164 1283 1053 937 1047 1156
8 1157 1043 933 1038 1284 1161 1045 1158
8 1157 1043 1161 1284 1042 932 1044 1160
8 1040 934 1046 1159 1158 1045 1163 1285
8 1166 1049 1167 1292 1051 936 1048 1165
8 1166 1049 936 1051 1293 1168 1050 1172
8 1051 936 1052 1175 1172 1050 1173 1306
8 1174 1051 1165 1290 1308 1175 1053 1177
8 1053 937 1054 1178 1175 1052 1176 1309
8 1278 1156 1055 1180 1177 1053 1178 1311
8 1055 938 1056 1181 1178 1054 1179 1312
8 1057 939 1058 1183 1180 1055 1181 1314
8 1058 940 1059 1184 1181 1056 1182 1315
8 1060 942 1061 1185 1183 1058 1184 1316
8 1208 1081 1187 1321 1082 964 1063 1188
8 1209 1082 1188 1322 1097 981 1064 1190
8 1188 1063 1189 1323 1064 947 1065 1191
8 1190 1064 1191 1325 1066 948 1067 1193
8 1191 1065 1192 1326 1067 949 1068 1194
8 1067 1193 1069 950 1194 1327 1195 1070
8 1250 1133 1199 1330 1126 1019 1075 1196
8 1198 1077 1014 1122 1331 1200 1075 1196
8 1074 960 1077 1198 1197 1076 1201 1332
8 1085 980 1076 1197 1215 1099 1201 1332
8 1199 1079 1203 1333 1075 962 1080 1200
8 1132 1025 1119 1243 1199 1079 1203 1333
8 1201 1078 963 1077 1334 1202 1080 1200
8 1099 994 1078 1201 1227 1111 1202 1334
8 1343 1207 1081 1208 1210 1083 964 1082
8 1214 1084 1186 1319 1343 1207 1081 1208
8 1345 1210 1082 1209 1225 1100 981 1097
8 1346 1211 1083 1210 1228 1115 999 1100
8 1086 984 1099 1215 1216 1103 1227 1352
8 1087 985 1103 1216 1217 1104 1230 1353
8 1090 988 1104 1217 1219 1106 1231 1354
8 1218 1105 987 1089 1355 1232 1106 1219
8 1091 991 1105 1218 1220 1109 1232 1355
8 1092 992 1109 1220 1221 1110 1234 1356
8 1222 1108 1233 1357 1095 990 1107 1224
8 1222 1108 993 1093 1357 1233 1110 1221
8 1223 1101 989 1096 1358 1229 1107 1224
8 1226 1102 983 1098 1358 1229 1101 1223
8 1226 1102 1228 1359 1098 983 1100 1225
8 1103 995 1111 1227 1230 1112 1235 1360
8 1107 1002 1117 1233 1229 1116 1240 1362
8 1102 1001 1116 1229 1228 1115 1240 1362
8 1104 996 1112 1230 1231 1113 1236 1363
8 1364 1237 1114 1232 1231 1113 997 1106
8 1109 1005 1114 1232 1234 1118 1238 1365
8 1110 1004 1118 1234 1233 1117 1241 1366
8 1242 1374 1255 1138 1119 1243 1132 1025
8 1244 1127 1254 1376 1121 1015 1129 1245
8 1148 1031 1149 1275 1244 1127 1254 1376
8 1245 1129 1258 1377 1125 1016 1130 1248
8 1251 1134 1019 1126 1378 1257 1128 1246
8 1378 1257 1128 1246 1247 1131 1017 1123
8 1248 1130 1259 1379 1124 1018 1131 1247
8 1261 1381 1250 1133 1132 1249 1330 1199
8 1255 1380 1252 1135 1132 1249 1381 1261
8 1250 1133 1019 1126 1382 1262 1134 1251
8 1253 1136 1256 1385 1384 1263 1135 1252
8 1254 1137 1265 1387 1129 1022 1141 1258
8 1149 1032 1150 1276 1254 1137 1265 1387
8 1028 1135 1255 1138 1139 1256 1388 1266
8 1136 1029 1147 1264 1256 1139 1267 1389
8 1390 1268 1140 1257 1259 1142 1024 1131
8 1260 1143 1027 1134 1390 1268 1140 1257
8 1258 1141 1269 1391 1130 1023 1142 1259
8 1262 1145 1027 1134 1393 1271 1143 1260
8 1261 1144 1026 1133 1394 1272 1145 1262
8 1135 1028 1144 1261 1263 1146 1272 1394
8 1136 1029 1146 1263 1264 1147 1273 1395
8 1155 1041 1160 1282 1275 1149 1276 1405
8 1276 1150 1044 1160 1406 1277 1162 1286
8 1408 1283 1159 1279 1278 1156 1039 1151
8 1290 1165 1283 1408 1177 1053 1156 1278
8 1152 1040 1159 1279 1280 1158 1285 1409
8 1281 1157 1038 1153 1410 1284 1158 1280
8 1281 1157 1284 1410 1154 1042 1160 1282
8 1159 1046 1164 1283 1285 1163 1289 1412
8 1292 1167 1289 1412 1165 1048 1164 1283
8 1158 1045 1163 1285 1284 1161 1288 1413
8 1284 1161 1288 1413 1160 1044 1162 1286
8 1291 1166 1292 1418 1174 1051 1165 1290
8 1291 1166 1051 1174 1419 1293 1172 1305
8 1294 1169 1296 1421 1166 1049 1167 1292
8 1293 1168 1050 1172 1422 1295 1171 1303
8 1294 1169 1049 1166 1423 1297 1168 1293
8 1422 1295 1171 1303 1301 1170 1302 1435
8 1172 1050 1173 1306 1303 1171 1304 1438
8 1174 1051 1175 1308 1305 1172 1306 1440
8 1175 1052 1176 1309 1306 1173 1307 1441
8 1177 1053 1178 1311 1308 1175 1309 1443
8 1178 1054 1179 1312 1309 1176 1310 1444
8 1180 1055 1181 1314 1311 1178 1312 1446
8 1056 1181 1312 1179 1182 1315 1447 1313
8 1183 1058 1184 1316 1314 1181 1315 1448
8 1319 1186 1084 1214 1451 1317 1213 1350
8 1319 1186 1318 1453 1208 1081 1187 1321
8 1321 1187 1320 1456 1188 1063 1189 1323
8 1344 1208 1321 1457 1209 1082 1188 1322
8 1322 1188 1323 1458 1190 1064 1191 1325
8 1323 1189 1324 1459 1191 1065 1192 1326
8 1191 1325 1193 1067 1326 1460 1327 1194
8 1242 1374 1243 1119 1328 1462 1335 1204
8 1330 1199 1333 1465 1196 1075 1200 1331
8 1132 1249 1330 1199 1243 1375 1465 1333
8 1332 1201 1077 1198 1466 1334 1200 1331
8 1215 1099 1201 1332 1352 1227 1334 1466
8 1119 1243 1333 1203 1204 1335 1470 1338
8 1333 1203 1338 1470 1200 1080 1202 1334
8 1227 1111 1202 1334 1360 1235 1338 1470
8 1328 1462 1335 1204 1205 1336 1471 1339
8 1337 1206 1340 1472 1464 1329 1205 1336
8 1346 1211 1342 1479 1210 1083 1207 1343
8 1346 1211 1115 1228 1479 1342 1239 1361
8 1348 1212 1084 1214 1479 1342 1207 1343
8 1480 1343 1208 1344 1345 1210 1082 1209
8 1351 1214 1319 1454 1480 1343 1208 1344
8 1481 1346 1210 1345 1359 1228 1100 1225
8 1348 1212 1347 1483 1214 1084 1213 1350
8 1216 1103 1227 1352 1353 1230 1360 1488
8 1217 1104 1230 1353 1354 1231 1363 1489
8 1490 1364 1232 1355 1354 1231 1106 1219
8 1220 1109 1232 1355 1356 1234 1365 1491
8 1221 1110 1234 1356 1357 1233 1366 1492
8 1224 1107 1233 1357 1358 1229 1362 1493
8 1226 1102 1229 1358 1359 1228 1362 1493
8 1230 1112 1235 1360 1363 1236 1367 1496
8 1361 1239 1115 1228 1497 1371 1240 1362
8 1366 1241 1372 1498 1233 1117 1240 1362
8 1364 1237 1113 1231 1499 1368 1236 1363
8 1364 1237 1368 1499 1232 1114 1238 1365
8 1234 1118 1238 1365 1366 1241 1369 1500
8 1507 1373 1242 1374 1388 1266 1138 1255
8 1508 1374 1243 1375 1380 1255 1132 1249
8 1376 1254 1387 1509 1245 1129 1258 1377
8 1275 1149 1276 1405 1376 1254 1387 1509
8 1377 1258 1391 1510 1248 1130 1259 1379
8 1511 1390 1257 1378 1379 1259 1131 1247
8 1383 1260 1134 1251 1511 1390 1257 1378
8 1252 1135 1256 1385 1380 1255 1388 1512
8 1261 1381 1513 1394 1133 1250 1382 1262
8 1135 1252 1384 1263 1261 1381 1513 1394
8 1382 1262 1134 1251 1514 1393 1260 1383
8 1253 1136 1263 1384 1386 1264 1395 1516
8 1253 1136 1264 1386 1385 1256 1389 1517
8 1387 1265 1397 1519 1258 1141 1269 1391
8 1276 1150 1277 1406 1387 1265 1397 1519
8 1256 1139 1267 1389 1388 1266 1398 1520
8 1264 1147 1274 1396 1389 1267 1399 1521
8 1392 1270 1143 1260 1522 1400 1268 1390
8 1390 1268 1142 1259 1522 1400 1269 1391
8 1392 1270 1401 1523 1260 1143 1271 1393
8 1272 1394 1524 1402 1145 1262 1393 1271
8 1395 1273 1146 1263 1524 1402 1272 1394
8 1273 1395 1264 1147 1403 1526 1396 1274
8 1405 1276 1160 1282 1534 1406 1286 1411
8 1414 1287 1407 1535 1286 1162 1277 1406
8 1279 1159 1283 1408 1409 1285 1412 1537
8 1418 1292 1412 1537 1290 1165 1283 1408
8 1280 1158 1285 1409 1410 1284 1413 1538
8 1410 1284 1413 1538 1282 1160 1286 1411
8 1285 1163 1289 1412 1413 1288 1417 1540
8 1421 1296 1417 1540 1292 1167 1289 1412
8 1414 1287 1162 1286 1541 1416 1288 1413
8 1420 1294 1421 1545 1291 1166 1292 1418
8 1419 1293 1172 1305 1546 1422 1303 1437
8 1420 1294 1166 1291 1547 1423 1293 1419
8 1294 1169 1297 1423 1421 1296 1425 1548
8 1423 1297 1168 1293 1549 1424 1295 1422
8 1301 1170 1298 1427 1422 1295 1424 1549
8 1432 1300 1428 1554 1301 1170 1298 1427
8 1431 1299 1428 1554 1560 1430 1300 1432
8 1563 1433 1300 1432 1435 1302 1170 1301
8 1546 1422 1303 1437 1434 1301 1435 1565
8 1303 1171 1304 1438 1435 1302 1436 1566
8 1305 1172 1306 1440 1437 1303 1438 1568
8 1306 1173 1307 1441 1438 1304 1439 1569
8 1308 1175 1309 1443 1440 1306 1441 1571
8 1309 1176 1310 1444 1441 1307 1442 1572
8 1311 1178 1312 1446 1443 1309 1444 1574
8 1179 1312 1444 1310 1313 1447 1575 1445
8 1314 1181 1315 1448 1446 1312 1447 1576
8 1350 1213 1349 1486 1451 1317 1449 1579
8 1451 1317 1450 1581 1319 1186 1318 1453
8 1454 1319 1214 1351 1582 1451 1350 1487
8 1453 1318 1452 1584 1321 1187 1320 1456
8 1454 1319 1453 1585 1344 1208 1321 1457
8 1456 1320 1455 1586 1323 1189 1324 1459
8 1457 1321 1456 1587 1322 1188 1323 1458
8 1458 1323 1459 1588 1325 1191 1326 1460
8 1205 1336 1464 1329 1328 1462 1590 1461
8 1507 1373 1461 1590 1374 1242 1328 1462
8 1508 1374 1462 1591 1375 1243 1335 1467
8 1337 1206 1329 1464 1473 1341 1463 1594
8 1375 1243 1335 1467 1465 1333 1470 1596
8 1465 1333 1470 1596 1331 1200 1334 1466
8 1352 1227 1334 1466 1488 1360 1470 1596
8 1591 1462 1336 1468 1467 1335 1471 1597
8 1469 1337 1472 1598 1595 1464 1336 1468
8 1471 1339 1474 1600 1335 1204 1338 1470
8 1600 1474 1367 1496 1470 1338 1235 1360
8 1336 1205 1340 1472 1471 1339 1475 1601
8 1337 1206 1341 1473 1472 1340 1476 1602
8 1495 1370 1478 1609 1361 1239 1342 1479
8 1348 1212 1342 1479 1483 1347 1478 1609
8 1481 1346 1479 1610 1345 1210 1343 1480
8 1481 1346 1228 1359 1610 1479 1361 1494
8 1484 1348 1214 1351 1610 1479 1343 1480
8 1483 1347 1482 1612 1350 1213 1349 1486
8 1484 1348 1483 1613 1351 1214 1350 1487
8 1353 1230 1360 1488 1489 1363 1496 1616
8 1490 1364 1231 1354 1617 1499 1363 1489
8 1490 1364 1499 1617 1355 1232 1365 1491
8 1356 1234 1365 1491 1492 1366 1500 1619
8 1492 1366 1498 1620 1357 1233 1362 1493
8 1494 1361 1228 1359 1621 1497 1362 1493
8 1495 1370 1239 1361 1622 1504 1371 1497
8 1363 1236 1367 1496 1499 1368 1501 1623
8 1497 1371 1240 1362 1624 1505 1372 1498
8 1625 1503 1372 1498 1500 1369 1241 1366
8 1365 1238 1368 1499 1500 1369 1502 1626
8 1520 1398 1506 1633 1388 1266 1373 1507
8 1634 1507 1374 1508 1512 1388 1255 1380
8 1509 1387 1519 1635 1377 1258 1391 1510
8 1405 1276 1406 1534 1509 1387 1519 1635
8 1515 1392 1260 1383 1636 1522 1390 1511
8 1511 1390 1259 1379 1636 1522 1391 1510
8 1385 1256 1389 1517 1512 1388 1520 1637
8 1513 1394 1262 1382 1638 1524 1393 1514
8 1395 1516 1638 1524 1263 1384 1513 1394
8 1515 1392 1523 1639 1383 1260 1393 1514
8 1516 1395 1526 1640 1386 1264 1396 1518
8 1386 1264 1396 1518 1517 1389 1521 1641
8 1519 1397 1527 1643 1391 1269 1400 1522
8 1535 1407 1527 1643 1406 1277 1397 1519
8 1389 1267 1399 1521 1520 1398 1528 1644
8 1645 1529 1399 1521 1525 1404 1274 1396
8 1392 1270 1400 1522 1523 1401 1531 1646
8 1524 1402 1271 1393 1648 1532 1401 1523
8 1403 1526 1648 1532 1273 1395 1524 1402
8 1525 1404 1274 1396 1649 1533 1403 1526
8 1539 1414 1535 1657 1411 1286 1406 1534
8 1542 1415 1536 1658 1414 1287 1407 1535
8 1409 1285 1412 1537 1538 1413 1540 1660
8 1545 1421 1540 1660 1418 1292 1412 1537
8 1539 1414 1286 1411 1661 1541 1413 1538
8 1540 1417 1544 1663 1413 1288 1416 1541
8 1421 1296 1425 1548 1540 1417 1544 1663
8 1542 1415 1287 1414 1664 1543 1416 1541
8 1420 1294 1423 1547 1545 1421 1548 1666
8 1547 1423 1293 1419 1667 1549 1422 1546
8 1434 1301 1427 1553 1546 1422 1549 1667
8 1423 1297 1424 1549 1548 1425 1550 1668
8 1551 1426 1550 1668 1427 1298 1424 1549
8 1551 1426 1298 1427 1671 1552 1428 1554
8 1562 1432 1554 1674 1434 1301 1427 1553
8 1431 1299 1429 1558 1554 1428 1555 1675
8 1431 1299 1430 1560 1558 1429 1557 1680
8 1560 1430 1300 1432 1683 1559 1433 1563
8 1561 1431 1554 1674 1684 1560 1432 1562
8 1685 1563 1432 1562 1565 1435 1301 1434
8 1435 1302 1436 1566 1563 1433 1564 1686
8 1437 1303 1438 1568 1565 1435 1566 1688
8 1438 1304 1439 1569 1566 1436 1567 1689
8 1440 1306 1441 1571 1568 1438 1569 1691
8 1441 1307 1442 1572 1569 1439 1570 1692
8 1443 1309 1444 1574 1571 1441 1572 1694
8 1310 1444 1572 1442 1445 1575 1695 1573
8 1446 1312 1447 1576 1574 1444 1575 1696
8 1486 1349 1485 1614 1579 1449 1577 1699
8 1451 1317 1449 1579 1581 1450 1578 1701
8 1487 1350 1486 1615 1582 1451 1579 1702
8 1581 1450 1580 1704 1453 1318 1452 1584
8 1582 1451 1581 1705 1454 1319 1453 1585
8 1584 1452 1583 1706 1456 1320 1455 1586
8 1585 1453 1584 1707 1457 1321 1456 1587
8 1587 1456 1586 1708 1458 1323 1459 1588
8 1633 1506 1589 1710 1507 1373 1461 1590
8 1464 1329 1461 1590 1594 1463 1589 1710
8 1468 1336 1462 1591 1595 1464 1590 1711
8 1634 1507 1590 1711 1508 1374 1462 1591
8 1473 1341 1463 1594 1603 1477 1593 1716
8 1469 1337 1464 1595 1599 1473 1594 1717
8 1471 1597 1467 1335 1600 1718 1596 1470
8 1718 1600 1496 1616 1596 1470 1360 1488
8 1336 1468 1597 1471 1472 1598 1719 1601
8 1469 1337 1473 1599 1598 1472 1602 1720
8 1722 1604 1501 1623 1600 1474 1367 1496
8 1475 1601 1471 1339 1604 1722 1600 1474
8 1602 1476 1605 1723 1472 1340 1475 1601
8 1476 1602 1724 1606 1341 1473 1603 1477
8 1483 1347 1478 1609 1612 1482 1608 1731
8 1495 1370 1504 1622 1609 1478 1608 1731
8 1618 1495 1609 1732 1494 1361 1479 1610
8 1484 1348 1479 1610 1613 1483 1609 1732
8 1486 1349 1482 1612 1614 1485 1611 1733
8 1613 1483 1612 1734 1487 1350 1486 1615
8 1489 1363 1496 1616 1617 1499 1623 1736
8 1491 1365 1499 1617 1619 1500 1626 1737
8 1618 1495 1361 1494 1738 1622 1497 1621
8 1739 1625 1498 1620 1619 1500 1366 1492
8 1621 1497 1362 1493 1740 1624 1498 1620
8 1742 1631 1504 1622 1624 1505 1371 1497
8 1743 1628 1502 1626 1623 1501 1368 1499
8 1744 1630 1505 1624 1625 1503 1372 1498
8 1745 1629 1503 1625 1626 1502 1369 1500
8 1520 1398 1528 1644 1633 1506 1632 1751
8 1637 1520 1633 1752 1512 1388 1507 1634
8 1635 1519 1643 1753 1510 1391 1522 1636
8 1657 1535 1643 1753 1534 1406 1519 1635
8 1515 1392 1522 1636 1639 1523 1646 1754
8 1517 1389 1521 1641 1637 1520 1644 1755
8 1524 1638 1756 1648 1393 1514 1639 1523
8 1640 1526 1395 1516 1756 1648 1524 1638
8 1642 1525 1396 1518 1757 1649 1526 1640
8 1758 1645 1521 1641 1642 1525 1396 1518
8 1646 1531 1400 1522 1760 1650 1527 1643
8 1535 1407 1536 1658 1643 1527 1650 1760
8 1521 1399 1529 1645 1644 1528 1651 1761
8 1647 1530 1652 1762 1525 1404 1529 1645
8 1401 1523 1648 1532 1531 1646 1763 1655
8 1525 1404 1533 1649 1647 1530 1654 1765
8 1533 1649 1766 1656 1403 1526 1648 1532
8 1662 1542 1658 1774 1539 1414 1535 1657
8 1542 1415 1543 1664 1658 1536 1659 1775
8 1660 1540 1663 1777 1538 1413 1541 1661
8 1545 1421 1548 1666 1660 1540 1663 1777
8 1662 1542 1414 1539 1778 1664 1541 1661
8 1664 1543 1416 1541 1779 1665 1544 1663
8 1548 1425 1550 1668 1663 1544 1665 1779
8 1547 1423 1549 1667 1666 1548 1668 1781
8 1670 1551 1668 1781 1553 1427 1549 1667
8 1551 1426 1552 1671 1668 1550 1669 1782
8 1670 1551 1427 1553 1784 1671 1554 1674
8 1675 1555 1672 1785 1554 1428 1552 1671
8 1678 1556 1673 1789 1558 1429 1555 1675
8 1561 1431 1558 1681 1674 1554 1675 1790
8 1794 1677 1556 1678 1680 1557 1429 1558
8 1560 1430 1559 1683 1680 1557 1679 1797
8 1561 1431 1560 1684 1681 1558 1680 1798
8 1563 1433 1564 1686 1683 1559 1682 1800
8 1684 1560 1432 1562 1801 1683 1563 1685
8 1565 1435 1566 1688 1685 1563 1686 1802
8 1566 1436 1567 1689 1686 1564 1687 1803
8 1568 1438 1569 1691 1688 1566 1689 1805
8 1569 1439 1570 1692 1689 1567 1690 1806
8 1571 1441 1572 1694 1691 1569 1692 1808
8 1442 1572 1692 1570 1573 1695 1809 1693
8 1574 1444 1575 1696 1694 1572 1695 1810
8 1614 1485 1592 1712 1699 1577 1697 1813
8 1579 1449 1577 1699 1701 1578 1698 1815
8 1615 1486 1614 1735 1702 1579 1699 1816
8 1701 1578 1700 1818 1581 1450 1580 1704
8 1582 1451 1579 1702 1705 1581 1701 1819
8 1704 1580 1703 1820 1584 1452 1583 1706
8 1705 1581 1704 1821 1585 1453 1584 1707
8 1707 1584 1706 1822 1587 1456 1586 1708
8 1710 1589 1506 1633 1824 1709 1632 1751
8 1594 1463 1589 1710 1716 1593 1709 1824
8 1752 1633 1710 1825 1634 1507 1590 1711
8 1595 1464 1590 1711 1717 1594 1710 1825
8 1830 1714 1592 1712 1733 1611 1485 1614
8 1603 1477 1593 1716 1725 1607 1715 1834
8 1599 1473 1594 1717 1721 1603 1716 1835
8 1837 1722 1623 1736 1718 1600 1496 1616
8 1719 1601 1722 1837 1597 1471 1600 1718
8 1602 1720 1598 1472 1723 1838 1719 1601
8 1720 1602 1473 1599 1839 1724 1603 1721
8 1723 1605 1726 1840 1601 1475 1604 1722
8 1840 1726 1628 1743 1722 1604 1501 1623
8 1724 1606 1727 1841 1602 1476 1605 1723
8 1725 1607 1728 1842 1603 1477 1606 1724
8 1612 1482 1608 1731 1733 1611 1730 1849
8 1741 1627 1730 1849 1622 1504 1608 1731
8 1613 1483 1609 1732 1734 1612 1731 1850
8 1618 1495 1622 1738 1732 1609 1731 1850
8 1615 1486 1612 1734 1735 1614 1733 1851
8 1852 1743 1626 1737 1736 1623 1499 1617
8 1853 1745 1625 1739 1737 1626 1500 1619
8 1855 1742 1622 1738 1740 1624 1497 1621
8 1856 1744 1624 1740 1739 1625 1498 1620
8 1741 1627 1504 1622 1857 1746 1631 1742
8 1742 1631 1505 1624 1858 1749 1630 1744
8 1859 1747 1629 1745 1743 1628 1502 1626
8 1860 1748 1630 1744 1745 1629 1503 1625
8 1644 1528 1651 1761 1751 1632 1750 1865
8 1637 1520 1644 1755 1752 1633 1751 1866
8 1754 1646 1522 1636 1867 1760 1643 1753
8 1657 1535 1658 1774 1753 1643 1760 1867
8 1639 1523 1646 1754 1756 1648 1763 1868
8 1641 1521 1645 1758 1755 1644 1761 1869
8 1757 1649 1526 1640 1870 1766 1648 1756
8 1642 1525 1649 1757 1759 1647 1765 1871
8 1759 1647 1762 1872 1642 1525 1645 1758
8 1760 1650 1767 1874 1646 1531 1655 1763
8 1658 1536 1659 1775 1760 1650 1767 1874
8 1762 1652 1768 1875 1645 1529 1651 1761
8 1764 1653 1769 1876 1647 1530 1652 1762
8 1656 1766 1877 1773 1532 1648 1763 1655
8 1771 1879 1765 1654 1653 1764 1647 1530
8 1533 1649 1765 1654 1656 1766 1880 1772
8 1662 1542 1664 1778 1774 1658 1775 1887
8 1664 1543 1665 1779 1775 1659 1776 1888
8 1778 1664 1541 1661 1890 1779 1663 1777
8 1666 1548 1668 1781 1777 1663 1779 1890
8 1782 1669 1780 1891 1668 1550 1665 1779
8 1670 1551 1671 1784 1781 1668 1782 1893
8 1671 1552 1672 1785 1782 1669 1783 1894
8 1790 1675 1785 1896 1674 1554 1671 1784
8 1675 1555 1673 1789 1785 1672 1786 1897
8 1792 1676 1788 1903 1678 1556 1673 1789
8 1795 1678 1789 1904 1681 1558 1675 1790
8 1792 1676 1556 1678 1906 1791 1677 1794
8 1680 1557 1679 1797 1794 1677 1793 1909
8 1910 1794 1678 1795 1798 1680 1558 1681
8 1683 1559 1682 1800 1797 1679 1796 1912
8 1684 1560 1683 1801 1798 1680 1797 1913
8 1686 1564 1687 1803 1800 1682 1799 1915
8 1685 1563 1686 1802 1801 1683 1800 1916
8 1688 1566 1689 1805 1802 1686 1803 1917
8 1689 1567 1690 1806 1803 1687 1804 1918
8 1691 1569 1692 1808 1805 1689 1806 1920
8 1692 1570 1693 1809 1806 1690 1807 1921
8 1694 1572 1695 1810 1808 1692 1809 1922
8 1829 1713 1811 1926 1712 1592 1697 1813
8 1813 1697 1812 1928 1699 1577 1698 1815
8 1735 1614 1712 1828 1816 1699 1813 1929
8 1815 1698 1814 1931 1701 1578 1700 1818
8 1702 1579 1699 1816 1819 1701 1815 1932
8 1818 1700 1817 1933 1704 1580 1703 1820
8 1819 1701 1818 1934 1705 1581 1704 1821
8 1821 1704 1820 1935 1707 1584 1706 1822
8 1824 1709 1632 1751 1937 1823 1750 1865
8 1716 1593 1709 1824 1834 1715 1823 1937
8 1825 1710 1633 1752 1938 1824 1751 1866
8 1717 1594 1710 1825 1835 1716 1824 1938
8 1945 1830 1712 1828 1851 1733 1614 1735
8 1830 1714 1831 1946 1712 1592 1713 1829
8 1947 1832 1714 1830 1849 1730 1611 1733
8 1843 1729 1607 1725 1950 1833 1715 1834
8 1721 1603 1716 1835 1836 1725 1834 1951
8 1836 1725 1842 1953 1721 1603 1724 1839
8 1723 1838 1719 1601 1840 1954 1837 1722
8 1954 1840 1743 1852 1837 1722 1623 1736
8 1724 1839 1720 1602 1841 1955 1838 1723
8 1841 1727 1844 1956 1723 1605 1726 1840
8 1956 1844 1747 1859 1840 1726 1628 1743
8 1728 1842 1724 1606 1845 1957 1841 1727
8 1725 1607 1729 1843 1842 1728 1846 1958
8 1741 1627 1746 1857 1849 1730 1848 1965
8 1734 1612 1731 1850 1851 1733 1849 1966
8 1854 1741 1849 1966 1738 1622 1731 1850
8 1967 1859 1745 1853 1852 1743 1626 1737
8 1968 1860 1744 1856 1853 1745 1625 1739
8 1854 1741 1622 1738 1969 1857 1742 1855
8 1855 1742 1624 1740 1970 1858 1744 1856
8 1857 1746 1631 1742 1971 1861 1749 1858
8 1858 1749 1630 1744 1972 1863 1748 1860
8 1859 1747 1862 1973 1745 1629 1748 1860
8 1875 1768 1864 1977 1761 1651 1750 1865
8 1755 1644 1761 1869 1866 1751 1865 1978
8 1867 1760 1874 1979 1754 1646 1763 1868
8 1774 1658 1775 1887 1867 1760 1874 1979
8 1870 1766 1648 1756 1980 1877 1763 1868
8 1872 1762 1875 1981 1758 1645 1761 1869
8 1757 1649 1766 1870 1871 1765 1880 1982
8 1983 1879 1764 1873 1871 1765 1647 1759
8 1873 1764 1876 1984 1759 1647 1762 1872
8 1877 1773 1655 1763 1986 1881 1767 1874
8 1775 1659 1776 1888 1874 1767 1881 1986
8 1876 1769 1882 1987 1762 1652 1768 1875
8 1878 1770 1883 1988 1764 1653 1769 1876
8 1880 1772 1656 1766 1989 1886 1773 1877
8 1878 1770 1653 1764 1990 1884 1771 1879
8 1765 1654 1772 1880 1879 1771 1885 1991
8 1778 1664 1779 1890 1887 1775 1888 1997
8 1998 1889 1776 1888 1891 1780 1665 1779
8 1893 1782 1891 2000 1781 1668 1779 1890
8 1894 1783 1892 2001 1782 1669 1780 1891
8 1784 1671 1785 1896 1893 1782 1894 2003
8 1897 1786 1895 2004 1785 1672 1783 1894
8 1790 1675 1789 1904 1896 1785 1897 2006
8 1901 1787 1898 2007 1789 1673 1786 1897
8 1903 1788 1900 2013 1789 1673 1787 1901
8 1792 1676 1791 1906 1903 1788 1902 2016
8 1907 1792 1903 2017 1795 1678 1789 1904
8 1906 1791 1677 1794 2019 1905 1793 1909
8 1907 1792 1678 1795 2020 1906 1794 1910
8 1797 1679 1796 1912 1909 1793 1908 2022
8 1798 1680 1797 1913 1910 1794 1909 2023
8 1800 1682 1799 1915 1912 1796 1911 2025
8 1801 1683 1800 1916 1913 1797 1912 2026
8 1803 1687 1804 1918 1915 1799 1914 2028
8 1802 1686 1803 1917 1916 1800 1915 2029
8 1805 1689 1806 1920 1917 1803 1918 2030
8 1806 1690 1807 1921 1918 1804 1919 2031
8 1808 1692 1809 1922 1920 1806 1921 2032
8 1939 1826 1924 2037 1829 1713 1811 1926
8 1926 1811 1925 2039 1813 1697 1812 1928
8 1944 1829 1926 2040 1828 1712 1813 1929
8 1928 1812 1927 2042 1815 1698 1814 1931
8 1929 1813 1928 2043 1816 1699 1815 1932
8 1931 1814 1930 2044 1818 1700 1817 1933
8 1932 1815 1931 2045 1819 1701 1818 1934
8 1934 1818 1933 2046 1821 1704 1820 1935
8 2048 1936 1823 1937 1977 1864 1750 1865
8 1950 1833 1715 1834 2048 1936 1823 1937
8 1938 1824 1751 1866 2049 1937 1865 1978
8 1835 1716 1824 1938 1951 1834 1937 2049
8 1939 1826 1713 1829 2053 1942 1831 1946
8 1940 1827 1923 2035 2053 1942 1826 1939
8 1945 1830 1946 2058 1828 1712 1829 1944
8 2059 1947 1830 1945 1966 1849 1733 1851
8 1947 1832 1730 1849 2060 1948 1848 1965
8 1947 1832 1948 2060 1830 1714 1831 1946
8 1959 1847 1729 1843 2063 1949 1833 1950
8 1952 1843 1725 1836 2064 1950 1834 1951
8 1836 1725 1843 1952 1953 1842 1958 2066
8 1953 1842 1957 2067 1839 1724 1841 1955
8 1841 1955 1838 1723 1956 2068 1954 1840
8 2068 1956 1859 1967 1954 1840 1743 1852
8 1956 1844 1960 2069 1859 1747 1862 1973
8 1845 1957 1841 1727 1960 2069 1956 1844
8 1728 1842 1957 1845 1846 1958 2071 1961
8 1962 2072 1959 1847 1846 1958 1843 1729
8 1971 1861 1964 2077 1857 1746 1848 1965
8 1854 1741 1857 1969 1966 1849 1965 2078
8 1967 1859 1973 2079 1853 1745 1860 1968
8 1970 1858 1744 1856 2080 1972 1860 1968
8 1969 1857 1742 1855 2081 1971 1858 1970
8 1971 1861 1749 1858 2082 1974 1863 1972
8 1973 1862 1975 2083 1860 1748 1863 1972
8 1987 1882 1976 2086 1875 1768 1864 1977
8 1981 1875 1977 2087 1869 1761 1865 1978
8 1980 1877 1763 1868 2088 1986 1874 1979
8 1887 1775 1888 1997 1979 1874 1986 2088
8 1880 1982 2089 1989 1766 1870 1980 1877
8 1984 1876 1987 2090 1872 1762 1875 1981
8 1765 1871 1983 1879 1880 1982 2091 1991
8 1985 1878 1764 1873 2092 1990 1879 1983
8 1985 1878 1988 2093 1873 1764 1876 1984
8 2094 1992 1881 1986 1998 1889 1776 1888
8 1986 1881 1992 2094 1877 1773 1886 1989
8 1988 1883 1993 2095 1876 1769 1882 1987
8 1878 1770 1884 1990 1988 1883 1994 2096
8 1991 1885 1772 1880 2097 1996 1886 1989
8 1879 1771 1885 1991 1990 1884 1995 2098
8 2103 1998 1888 1997 2000 1891 1779 1890
8 2104 1999 1889 1998 2001 1892 1780 1891
8 2003 1894 2001 2106 1893 1782 1891 2000
8 2004 1895 2002 2107 1894 1783 1892 2001
8 2006 1897 2004 2109 1896 1785 1894 2003
8 2007 1898 2005 2110 1897 1786 1895 2004
8 2014 1901 2007 2112 1904 1789 1897 2006
8 2011 1899 2008 2113 1901 1787 1898 2007
8 2119 2010 1899 2011 2013 1900 1787 1901
8 2016 1902 2012 2122 1903 1788 1900 2013
8 2017 1903 2013 2123 1904 1789 1901 2014
8 1906 1791 1905 2019 2016 1902 2015 2125
8 1907 1792 1906 2020 2017 1903 2016 2126
8 1909 1793 1908 2022 2019 1905 2018 2128
8 2020 1906 1794 1910 2129 2019 1909 2023
8 1912 1796 1911 2025 2022 1908 2021 2131
8 1913 1797 1912 2026 2023 1909 2022 2132
8 1915 1799 1914 2028 2025 1911 2024 2134
8 1916 1800 1915 2029 2026 1912 2025 2135
8 1918 1804 1919 2031 2028 1914 2027 2136
8 1917 1803 1918 2030 2029 1915 2028 2137
8 1920 1806 1921 2032 2030 1918 2031 2138
8 1940 1827 1941 2054 2035 1923 2033 2140
8 2035 1923 2034 2143 1939 1826 1924 2037
8 2037 1924 2036 2146 1926 1811 1925 2039
8 2051 1939 2037 2147 1944 1829 1926 2040
8 2039 1925 2038 2149 1928 1812 1927 2042
8 2040 1926 2039 2150 1929 1813 1928 2043
8 2042 1927 2041 2151 1931 1814 1930 2044
8 2043 1928 2042 2152 1932 1815 1931 2045
8 2045 1931 2044 2153 1934 1818 1933 2046
8 2155 2047 1936 2048 2086 1976 1864 1977
8 2063 1949 1833 1950 2155 2047 1936 2048
8 2156 2048 1937 2049 2087 1977 1865 1978
8 2064 1950 1834 1951 2156 2048 1937 2049
8 2051 1939 1829 1944 2160 2053 1946 2058
8 2052 1940 2035 2144 2160 2053 1939 2051
8 2053 1942 1831 1946 2163 2057 1948 2060
8 2055 1943 1827 1940 2163 2057 1942 2053
8 2055 1943 2056 2164 1940 1827 1941 2054
8 2059 1947 1849 1966 2167 2060 1965 2078
8 2059 1947 2060 2167 1945 1830 1946 2058
8 2077 1964 2061 2168 1965 1848 1948 2060
8 2070 1963 1847 1959 2170 2062 1949 2063
8 2065 1959 1843 1952 2171 2063 1950 2064
8 2173 2072 1958 2066 2065 1959 1843 1952
8 1953 1842 1958 2066 2067 1957 2071 2174
8 2068 1956 2069 2175 1967 1859 1973 2079
8 2067 1957 2069 2175 1955 1841 1956 2068
8 1845 1957 2069 1960 1961 2071 2176 2073
8 2069 1960 2073 2176 1973 1862 1975 2083
8 2070 1963 2075 2177 1959 1847 1962 2072
8 1846 1958 2071 1961 1962 2072 2178 2074
8 2077 1964 1861 1971 2182 2076 1974 2082
8 2081 1971 2077 2183 1969 1857 1965 2078
8 2079 1973 2083 2184 1968 1860 1972 2080
8 2081 1971 1858 1970 2185 2082 1972 2080
8 2083 1975 2084 2186 1972 1863 1974 2082
8 2086 1976 1882 1987 2189 2085 1993 2095
8 2090 1987 2086 2190 1981 1875 1977 2087
8 2191 2094 1986 2088 2103 1998 1888 1997
8 2088 1986 2094 2191 1980 1877 1989 2089
8 1991 2091 2192 2097 1880 1982 2089 1989
8 2093 1988 2095 2193 1984 1876 1987 2090
8 1879 1983 2092 1990 1991 2091 2194 2098
8 1985 1878 1990 2092 2093 1988 2096 2195
8 2097 1996 1886 1989 2196 2099 1992 2094
8 2196 2099 1992 2094 2104 1999 1889 1998
8 1994 2096 1988 1883 2100 2197 2095 1993
8 2096 1994 1884 1990 2198 2101 1995 2098
8 1995 2098 2199 2102 1885 1991 2097 1996
8 2203 2104 1998 2103 2106 2001 1891 2000
8 2107 2002 2105 2204 2001 1892 1999 2104
8 2109 2004 2107 2206 2003 1894 2001 2106
8 2110 2005 2108 2207 2004 1895 2002 2107
8 2112 2007 2110 2209 2006 1897 2004 2109
8 2113 2008 2111 2210 2007 1898 2005 2110
8 2120 2011 2113 2212 2014 1901 2007 2112
8 2117 2009 2114 2213 2011 1899 2008 2113
8 2219 2116 2009 2117 2119 2010 1899 2011
8 2222 2118 2010 2119 2122 2012 1900 2013
8 2223 2119 2011 2120 2123 2013 1901 2014
8 2016 1902 2015 2125 2122 2012 2121 2225
8 2126 2016 2122 2226 2017 1903 2013 2123
8 2019 1905 2018 2128 2125 2015 2124 2228
8 2020 1906 2019 2129 2126 2016 2125 2229
8 2022 1908 2021 2131 2128 2018 2127 2231
8 2023 1909 2022 2132 2129 2019 2128 2232
8 2025 1911 2024 2134 2131 2021 2130 2234
8 2026 1912 2025 2135 2132 2022 2131 2235
8 1914 2028 2134 2024 2027 2136 2236 2133
8 2029 1915 2028 2137 2135 2025 2134 2237
8 2030 1918 2031 2138 2137 2028 2136 2238
8 2157 2050 2139 2240 2054 1941 2033 2140
8 2052 1940 2054 2161 2144 2035 2140 2242
8 2140 2033 2141 2243 2035 1923 2034 2143
8 2143 2034 2142 2246 2037 1924 2036 2146
8 2144 2035 2143 2247 2051 1939 2037 2147
8 2146 2036 2145 2249 2039 1925 2038 2149
8 2147 2037 2146 2250 2040 1926 2039 2150
8 2149 2038 2148 2251 2042 1927 2041 2151
8 2150 2039 2149 2252 2043 1928 2042 2152
8 2152 2042 2151 2253 2045 1931 2044 2153
8 2255 2154 2047 2155 2189 2085 1976 2086
8 2170 2062 1949 2063 2255 2154 2047 2155
8 2256 2155 2048 2156 2190 2086 1977 2087
8 2171 2063 1950 2064 2256 2155 2048 2156
8 2258 2159 2050 2157 2164 2056 1941 2054
8 2160 2053 1946 2058 2262 2163 2060 2167
8 2162 2055 1940 2052 2262 2163 2053 2160
8 2162 2055 2164 2263 2052 1940 2054 2161
8 2163 2057 1948 2060 2264 2165 2061 2168
8 2055 1943 2057 2163 2164 2056 2165 2264
8 2182 2076 2166 2268 2077 1964 2061 2168
8 2183 2077 2168 2269 2078 1965 2060 2167
8 2070 1963 2062 2170 2177 2075 2169 2271
8 2172 2070 1959 2065 2272 2170 2063 2171
8 2172 2070 2177 2273 2065 1959 2072 2173
8 2066 1958 2072 2173 2174 2071 2178 2274
8 2067 1957 2071 2174 2175 2069 2176 2275
8 2175 2069 2176 2275 2079 1973 2083 2184
8 2071 1961 2074 2178 2176 2073 2179 2276
8 2176 2073 2179 2276 2083 1975 2084 2186
8 2072 1962 2075 2177 2178 2074 2180 2277
8 2182 2076 1974 2082 2280 2181 2084 2186
8 2183 2077 1971 2081 2281 2182 2082 2185
8 2184 2083 2186 2282 2080 1972 2082 2185
8 2189 2085 1993 2095 2285 2188 2100 2197
8 2190 2086 1987 2090 2286 2189 2095 2193
8 2192 2097 1989 2089 2287 2196 2094 2191
8 2287 2196 2094 2191 2203 2104 1998 2103
8 2194 2098 1991 2091 2288 2199 2097 2192
8 2195 2096 2197 2289 2093 1988 2095 2193
8 2096 2195 2290 2198 1990 2092 2194 2098
8 2097 1996 2099 2196 2199 2102 2200 2291
8 2196 2099 1999 2104 2291 2200 2105 2204
8 2100 2197 2292 2201 1994 2096 2198 2101
8 1995 2098 2198 2101 2102 2199 2293 2202
8 2206 2107 2204 2296 2106 2001 2104 2203
8 2207 2108 2205 2297 2107 2002 2105 2204
8 2209 2110 2207 2299 2109 2004 2107 2206
8 2210 2111 2208 2300 2110 2005 2108 2207
8 2212 2113 2210 2302 2112 2007 2110 2209
8 2213 2114 2211 2303 2113 2008 2111 2210
8 2220 2117 2213 2305 2120 2011 2113 2212
8 2216 2115 2214 2306 2117 2009 2114 2213
8 2216 2115 2009 2117 2311 2217 2116 2219
8 2219 2116 2010 2119 2314 2218 2118 2222
8 2315 2219 2117 2220 2223 2119 2011 2120
8 2122 2012 2121 2225 2222 2118 2221 2317
8 2318 2222 2119 2223 2226 2122 2013 2123
8 2125 2015 2124 2228 2225 2121 2224 2320
8 2126 2016 2125 2229 2226 2122 2225 2321
8 2128 2018 2127 2231 2228 2124 2227 2323
8 2129 2019 2128 2232 2229 2125 2228 2324
8 2131 2021 2130 2234 2231 2127 2230 2326
8 2132 2022 2131 2235 2232 2128 2231 2327
8 2134 2024 2133 2236 2234 2130 2233 2328
8 2135 2025 2134 2237 2235 2131 2234 2329
8 2137 2028 2136 2238 2237 2134 2236 2330
8 2157 2050 2158 2259 2240 2139 2239 2332
8 2257 2157 2240 2334 2161 2054 2140 2242
8 2240 2139 2241 2335 2140 2033 2141 2243
8 2242 2140 2243 2337 2144 2035 2143 2247
8 2243 2141 2244 2338 2143 2034 2142 2246
8 2246 2142 2245 2341 2146 2036 2145 2249
8 2247 2143 2246 2342 2147 2037 2146 2250
8 2249 2145 2248 2343 2149 2038 2148 2251
8 2250 2146 2249 2344 2150 2039 2149 2252
8 2252 2149 2251 2345 2152 2042 2151 2253
8 2169 2271 2347 2254 2062 2170 2255 2154
8 2189 2085 2188 2285 2255 2154 2254 2347
8 2348 2255 2155 2256 2286 2189 2086 2190
8 2272 2170 2063 2171 2348 2255 2155 2256
8 2349 2258 2157 2257 2263 2164 2054 2161
8 2258 2159 2261 2351 2157 2050 2158 2259
8 2258 2159 2056 2164 2351 2261 2165 2264
8 2262 2163 2060 2167 2355 2264 2168 2269
8 2162 2055 2163 2262 2263 2164 2264 2355
8 2357 2266 2165 2264 2268 2166 2061 2168
8 2268 2166 2076 2182 2361 2267 2181 2280
8 2281 2182 2268 2362 2183 2077 2168 2269
8 2271 2169 2270 2364 2177 2075 2180 2277
8 2172 2070 2170 2272 2273 2177 2271 2365
8 2072 2173 2274 2178 2177 2273 2366 2277
8 2071 2174 2275 2176 2178 2274 2367 2276
8 2275 2176 2276 2367 2184 2083 2186 2282
8 2283 2187 2084 2186 2368 2278 2179 2276
8 2178 2074 2180 2277 2276 2179 2278 2368
8 2283 2187 2279 2370 2186 2084 2181 2280
8 2281 2182 2082 2185 2371 2280 2186 2282
8 2188 2285 2374 2284 2100 2197 2292 2201
8 2286 2189 2095 2193 2375 2285 2197 2289
8 2192 2097 2196 2287 2288 2199 2291 2376
8 2287 2196 2104 2203 2376 2291 2204 2296
8 2194 2098 2199 2288 2290 2198 2293 2377
8 2289 2197 2096 2195 2378 2292 2198 2290
8 2291 2200 2105 2204 2379 2294 2205 2297
8 2199 2102 2200 2291 2293 2202 2294 2379
8 2198 2101 2202 2293 2292 2201 2295 2380
8 2299 2207 2297 2383 2206 2107 2204 2296
8 2300 2208 2298 2384 2207 2108 2205 2297
8 2302 2210 2300 2386 2209 2110 2207 2299
8 2303 2211 2301 2387 2210 2111 2208 2300
8 2305 2213 2303 2389 2212 2113 2210 2302
8 2306 2214 2304 2390 2213 2114 2211 2303
8 2310 2216 2306 2392 2220 2117 2213 2305
8 2308 2215 2307 2393 2216 2115 2214 2306
8 2308 2215 2115 2216 2396 2309 2217 2311
8 2310 2216 2117 2220 2398 2311 2219 2315
8 2311 2217 2116 2219 2399 2312 2218 2314
8 2314 2218 2118 2222 2402 2313 2221 2317
8 2315 2219 2119 2223 2403 2314 2222 2318
8 2225 2121 2224 2320 2317 2221 2316 2405
8 2226 2122 2225 2321 2318 2222 2317 2406
8 2228 2124 2227 2323 2320 2224 2319 2408
8 2229 2125 2228 2324 2321 2225 2320 2409
8 2231 2127 2230 2326 2323 2227 2322 2411
8 2232 2128 2231 2327 2324 2228 2323 2412
8 2234 2130 2233 2328 2326 2230 2325 2413
8 2235 2131 2234 2329 2327 2231 2326 2414
8 2237 2134 2236 2330 2329 2234 2328 2415
8 2259 2158 2260 2352 2332 2239 2331 2417
8 2257 2157 2259 2350 2334 2240 2332 2419
8 2240 2139 2239 2332 2335 2241 2333 2420
8 2334 2240 2335 2422 2242 2140 2243 2337
8 2335 2241 2336 2423 2243 2141 2244 2338
8 2337 2243 2338 2425 2247 2143 2246 2342
8 2338 2244 2339 2426 2246 2142 2245 2341
8 2341 2245 2340 2428 2249 2145 2248 2343
8 2342 2246 2341 2429 2250 2146 2249 2344
8 2344 2249 2343 2430 2252 2149 2251 2345
8 2188 2285 2347 2254 2284 2374 2432 2346
8 2347 2254 2346 2432 2271 2169 2270 2364
8 2365 2271 2170 2272 2433 2347 2255 2348
8 2286 2189 2285 2375 2348 2255 2347 2433
8 2349 2258 2351 2435 2257 2157 2259 2350
8 2349 2258 2164 2263 2435 2351 2264 2355
8 2259 2158 2261 2351 2352 2260 2354 2437
8 2356 2265 2354 2437 2264 2165 2261 2351
8 2441 2357 2264 2355 2362 2268 2168 2269
8 2356 2265 2165 2264 2442 2358 2266 2357
8 2443 2359 2266 2357 2361 2267 2166 2268
8 2370 2279 2360 2446 2280 2181 2267 2361
8 2362 2268 2182 2281 2447 2361 2280 2371
8 2180 2277 2368 2278 2270 2364 2449 2363
8 2271 2365 2273 2177 2364 2450 2366 2277
8 2372 2283 2186 2282 2451 2368 2276 2367
8 2178 2274 2367 2276 2277 2366 2451 2368
8 2283 2187 2278 2368 2370 2279 2369 2452
8 2372 2283 2370 2453 2282 2186 2280 2371
8 2284 2374 2455 2373 2201 2292 2380 2295
8 2375 2285 2197 2289 2456 2374 2292 2378
8 2376 2291 2204 2296 2457 2379 2297 2383
8 2288 2199 2291 2376 2377 2293 2379 2457
8 2198 2290 2378 2292 2293 2377 2458 2380
8 2293 2202 2294 2379 2380 2295 2381 2459
8 2384 2298 2381 2459 2297 2205 2294 2379
8 2386 2300 2384 2463 2299 2207 2297 2383
8 2387 2301 2385 2464 2300 2208 2298 2384
8 2389 2303 2387 2466 2302 2210 2300 2386
8 2390 2304 2388 2467 2303 2211 2301 2387
8 2392 2306 2390 2469 2305 2213 2303 2389
8 2393 2307 2391 2470 2306 2214 2304 2390
8 2395 2308 2393 2472 2310 2216 2306 2392
8 2308 2215 2309 2396 2393 2307 2394 2473
8 2395 2308 2216 2310 2475 2396 2311 2398
8 2396 2309 2217 2311 2476 2397 2312 2399
8 2398 2311 2219 2315 2478 2399 2314 2403
8 2399 2312 2218 2314 2479 2400 2313 2402
8 2317 2221 2316 2405 2402 2313 2401 2482
8 2403 2314 2222 2318 2483 2402 2317 2406
8 2320 2224 2319 2408 2405 2316 2404 2485
8 2321 2225 2320 2409 2406 2317 2405 2486
8 2323 2227 2322 2411 2408 2319 2407 2488
8 2324 2228 2323 2412 2409 2320 2408 2489
8 2326 2230 2325 2413 2411 2322 2410 2490
8 2327 2231 2326 2414 2412 2323 2411 2491
8 2329 2234 2328 2415 2414 2326 2413 2492
8 2417 2331 2260 2352 2494 2416 2353 2438
8 2350 2259 2352 2436 2419 2332 2417 2496
8 2332 2239 2331 2417 2420 2333 2418 2497
8 2334 2240 2332 2419 2422 2335 2420 2499
8 2420 2333 2421 2500 2335 2241 2336 2423
8 2422 2335 2423 2502 2337 2243 2338 2425
8 2423 2336 2424 2503 2338 2244 2339 2426
8 2425 2338 2426 2505 2342 2246 2341 2429
8 2426 2339 2427 2506 2341 2245 2340 2428
8 2429 2341 2428 2507 2344 2249 2343 2430
8 2432 2346 2284 2374 2509 2431 2373 2455
8 2432 2346 2431 2509 2364 2270 2363 2449
8 2375 2285 2374 2456 2433 2347 2432 2510
8 2347 2433 2365 2271 2432 2510 2450 2364
8 2350 2259 2351 2435 2436 2352 2437 2514
8 2440 2356 2437 2514 2355 2264 2351 2435
8 2352 2260 2354 2437 2438 2353 2439 2516
8 2356 2265 2358 2442 2437 2354 2439 2516
8 2440 2356 2264 2355 2518 2442 2357 2441
8 2519 2443 2357 2441 2447 2361 2268 2362
8 2443 2359 2444 2520 2357 2266 2358 2442
8 2443 2359 2267 2361 2520 2444 2360 2446
8 2446 2360 2279 2370 2523 2445 2369 2452
8 2453 2370 2446 2524 2371 2280 2361 2447
8 2449 2363 2448 2525 2368 2278 2369 2452
8 2366 2277 2364 2450 2451 2368 2449 2526
8 2372 2283 2368 2451 2453 2370 2452 2527
8 2455 2373 2295 2380 2529 2454 2382 2460
8 2456 2374 2292 2378 2530 2455 2380 2458
8 2377 2293 2379 2457 2458 2380 2459 2531
8 2463 2384 2459 2531 2383 2297 2379 2457
8 2533 2461 2382 2460 2459 2381 2295 2380
8 2464 2385 2461 2533 2384 2298 2381 2459
8 2466 2387 2464 2537 2386 2300 2384 2463
8 2467 2388 2465 2538 2387 2301 2385 2464
8 2469 2390 2467 2540 2389 2303 2387 2466
8 2470 2391 2468 2541 2390 2304 2388 2467
8 2472 2393 2470 2543 2392 2306 2390 2469
8 2393 2307 2394 2473 2470 2391 2471 2544
8 2395 2308 2396 2475 2472 2393 2473 2546
8 2396 2309 2397 2476 2473 2394 2474 2547
8 2475 2396 2311 2398 2549 2476 2399 2478
8 2476 2397 2312 2399 2550 2477 2400 2479
8 2478 2399 2314 2403 2552 2479 2402 2483
8 2479 2400 2313 2402 2553 2480 2401 2482
8 2405 2316 2404 2485 2482 2401 2481 2556
8 2406 2317 2405 2486 2483 2402 2482 2557
8 2408 2319 2407 2488 2485 2404 2484 2559
8 2409 2320 2408 2489 2486 2405 2485 2560
8 2411 2322 2410 2490 2488 2407 2487 2561
8 2412 2323 2411 2491 2489 2408 2488 2562
8 2414 2326 2413 2492 2491 2411 2490 2563
8 2513 2434 2493 2565 2438 2353 2416 2494
8 2496 2417 2352 2436 2567 2494 2438 2515
8 2494 2416 2495 2568 2417 2331 2418 2497
8 2419 2332 2417 2496 2499 2420 2497 2570
8 2497 2418 2498 2571 2420 2333 2421 2500
8 2499 2420 2500 2573 2422 2335 2423 2502
8 2500 2421 2501 2574 2423 2336 2424 2503
8 2502 2423 2503 2576 2425 2338 2426 2505
8 2503 2424 2504 2577 2426 2339 2427 2506
8 2505 2426 2506 2578 2429 2341 2428 2507
8 2509 2431 2373 2455 2580 2508 2454 2529
8 2509 2431 2508 2580 2449 2363 2448 2525
8 2432 2510 2581 2509 2374 2456 2530 2455
8 2432 2510 2450 2364 2509 2581 2526 2449
8 2583 2511 2434 2513 2516 2439 2353 2438
8 2436 2352 2437 2514 2515 2438 2516 2588
8 2440 2356 2442 2518 2514 2437 2516 2588
8 2442 2358 2444 2520 2516 2439 2517 2589
8 2519 2443 2520 2591 2441 2357 2442 2518
8 2519 2443 2361 2447 2591 2520 2446 2524
8 2446 2360 2445 2523 2520 2444 2521 2592
8 2525 2448 2522 2593 2452 2369 2445 2523
8 2524 2446 2370 2453 2594 2523 2452 2527
8 2526 2449 2525 2595 2451 2368 2452 2527
8 2534 2462 2528 2597 2460 2382 2454 2529
8 2530 2455 2380 2458 2598 2529 2460 2532
8 2599 2533 2460 2532 2531 2459 2380 2458
8 2537 2464 2533 2599 2463 2384 2459 2531
8 2534 2462 2382 2460 2601 2535 2461 2533
8 2538 2465 2535 2601 2464 2385 2461 2533
8 2540 2467 2538 2604 2466 2387 2464 2537
8 2541 2468 2539 2605 2467 2388 2465 2538
8 2543 2470 2541 2607 2469 2390 2467 2540
8 2470 2391 2471 2544 2541 2468 2542 2608
8 2472 2393 2473 2546 2543 2470 2544 2610
8 2473 2394 2474 2547 2544 2471 2545 2611
8 2475 2396 2476 2549 2546 2473 2547 2613
8 2476 2397 2477 2550 2547 2474 2548 2614
8 2549 2476 2399 2478 2616 2550 2479 2552
8 2479 2400 2480 2553 2550 2477 2551 2617
8 2552 2479 2402 2483 2619 2553 2482 2557
8 2482 2401 2481 2556 2553 2480 2554 2620
8 2485 2404 2484 2559 2556 2481 2555 2623
8 2486 2405 2485 2560 2557 2482 2556 2624
8 2488 2407 2487 2561 2559 2484 2558 2625
8 2489 2408 2488 2562 2560 2485 2559 2626
8 2491 2411 2490 2563 2562 2488 2561 2627
8 2513 2434 2512 2585 2565 2493 2564 2630
8 2586 2513 2565 2632 2515 2438 2494 2567
8 2565 2493 2566 2633 2494 2416 2495 2568
8 2567 2494 2568 2635 2496 2417 2497 2570
8 2568 2495 2569 2636 2497 2418 2498 2571
8 2570 2497 2571 2638 2499 2420 2500 2573
8 2571 2498 2572 2639 2500 2421 2501 2574
8 2573 2500 2574 2641 2502 2423 2503 2576
8 2574 2501 2575 2642 2503 2424 2504 2577
8 2576 2503 2577 2643 2505 2426 2506 2578
8 2597 2528 2579 2645 2529 2454 2508 2580
8 2580 2508 2579 2645 2525 2448 2522 2593
8 2581 2509 2455 2530 2646 2580 2529 2598
8 2581 2509 2580 2646 2526 2449 2525 2595
8 2583 2511 2582 2648 2513 2434 2512 2585
8 2583 2511 2439 2516 2648 2582 2517 2589
8 2649 2583 2513 2586 2588 2516 2438 2515
8 2589 2517 2444 2520 2653 2587 2521 2592
8 2518 2442 2520 2591 2588 2516 2589 2654
8 2593 2522 2590 2655 2523 2445 2521 2592
8 2524 2446 2523 2594 2591 2520 2592 2656
8 2595 2525 2593 2657 2527 2452 2523 2594
8 2602 2536 2596 2659 2534 2462 2528 2597
8 2600 2534 2597 2660 2532 2460 2529 2598
8 2600 2534 2460 2532 2661 2601 2533 2599
8 2604 2538 2601 2661 2537 2464 2533 2599
8 2602 2536 2462 2534 2663 2603 2535 2601
8 2601 2535 2465 2538 2663 2603 2539 2605
8 2607 2541 2605 2665 2540 2467 2538 2604
8 2608 2542 2606 2666 2541 2468 2539 2605
8 2543 2470 2544 2610 2607 2541 2608 2668
8 2544 2471 2545 2611 2608 2542 2609 2669
8 2546 2473 2547 2613 2610 2544 2611 2671
8 2547 2474 2548 2614 2611 2545 2612 2672
8 2549 2476 2550 2616 2613 2547 2614 2674
8 2550 2477 2551 2617 2614 2548 2615 2675
8 2552 2479 2553 2619 2616 2550 2617 2677
8 2553 2480 2554 2620 2617 2551 2618 2678
8 2557 2482 2556 2624 2619 2553 2620 2680
8 2556 2481 2555 2623 2620 2554 2621 2681
8 2559 2484 2558 2625 2623 2555 2622 2683
8 2560 2485 2559 2626 2624 2556 2623 2684
8 2562 2488 2561 2627 2626 2559 2625 2685
8 2690 2629 2564 2630 2650 2584 2512 2585
8 2586 2513 2585 2651 2632 2565 2630 2691
8 2630 2564 2631 2692 2565 2493 2566 2633
8 2632 2565 2633 2694 2567 2494 2568 2635
8 2633 2566 2634 2695 2568 2495 2569 2636
8 2635 2568 2636 2697 2570 2497 2571 2638
8 2636 2569 2637 2698 2571 2498 2572 2639
8 2638 2571 2639 2700 2573 2500 2574 2641
8 2639 2572 2640 2701 2574 2501 2575 2642
8 2641 2574 2642 2702 2576 2503 2577 2643
8 2597 2528 2596 2659 2645 2579 2644 2704
8 2645 2579 2644 2704 2593 2522 2590 2655
8 2660 2597 2645 2705 2598 2529 2580 2646
8 2646 2580 2645 2705 2595 2525 2593 2657
8 2650 2584 2512 2585 2707 2647 2582 2648
8 2648 2582 2517 2589 2707 2647 2587 2653
8 2649 2583 2648 2708 2586 2513 2585 2651
8 2649 2583 2516 2588 2708 2648 2589 2654
8 2655 2590 2652 2710 2592 2521 2587 2653
8 2654 2589 2520 2591 2711 2653 2592 2656
8 2657 2593 2655 2712 2594 2523 2592 2656
8 2602 2536 2603 2663 2659 2596 2658 2714
8 2662 2602 2659 2715 2600 2534 2597 2660
8 2662 2602 2534 2600 2717 2663 2601 2661
8 2661 2601 2538 2604 2717 2663 2605 2665
8 2666 2606 2664 2718 2605 2539 2603 2663
8 2668 2608 2666 2720 2607 2541 2605 2665
8 2608 2542 2609 2669 2666 2606 2667 2721
8 2610 2544 2611 2671 2668 2608 2669 2723
8 2611 2545 2612 2672 2669 2609 2670 2724
8 2613 2547 2614 2674 2671 2611 2672 2726
8 2614 2548 2615 2675 2672 2612 2673 2727
8 2616 2550 2617 2677 2674 2614 2675 2729
8 2617 2551 2618 2678 2675 2615 2676 2730
8 2619 2553 2620 2680 2677 2617 2678 2732
8 2620 2554 2621 2681 2678 2618 2679 2733
8 2624 2556 2623 2684 2680 2620 2681 2735
8 2681 2621 2555 2623 2736 2682 2622 2683
8 2626 2559 2625 2685 2684 2623 2683 2737
8 2688 2628 2584 2650 2740 2686 2647 2707
8 2688 2628 2687 2742 2650 2584 2629 2690
8 2690 2629 2689 2745 2630 2564 2631 2692
8 2746 2690 2630 2691 2709 2650 2585 2651
8 2691 2630 2692 2747 2632 2565 2633 2694
8 2692 2631 2693 2748 2633 2566 2634 2695
8 2694 2633 2695 2750 2635 2568 2636 2697
8 2695 2634 2696 2751 2636 2569 2637 2698
8 2697 2636 2698 2753 2638 2571 2639 2700
8 2698 2637 2699 2754 2639 2572 2640 2701
8 2700 2639 2701 2755 2641 2574 2642 2702
8 2659 2596 2658 2714 2704 2644 2703 2757
8 2704 2644 2703 2757 2655 2590 2652 2710
8 2660 2597 2659 2715 2705 2645 2704 2758
8 2705 2645 2704 2758 2657 2593 2655 2712
8 2759 2706 2647 2707 2710 2652 2587 2653
8 2709 2650 2585 2651 2760 2707 2648 2708
8 2708 2648 2589 2654 2760 2707 2653 2711
8 2712 2655 2710 2761 2656 2592 2653 2711
8 2763 2713 2658 2714 2718 2664 2603 2663
8 2662 2602 2663 2717 2715 2659 2714 2764
8 2720 2666 2718 2767 2665 2605 2663 2717
8 2768 2719 2664 2718 2721 2667 2606 2666
8 2668 2608 2669 2723 2720 2666 2721 2770
8 2669 2609 2670 2724 2721 2667 2722 2771
8 2671 2611 2672 2726 2723 2669 2724 2773
8 2672 2612 2673 2727 2724 2670 2725 2774
8 2674 2614 2675 2729 2726 2672 2727 2776
8 2675 2615 2676 2730 2727 2673 2728 2777
8 2677 2617 2678 2732 2729 2675 2730 2779
8 2678 2618 2679 2733 2730 2676 2731 2780
8 2680 2620 2681 2735 2732 2678 2733 2782
8 2733 2679 2621 2681 2783 2734 2682 2736
8 2735 2681 2623 2684 2784 2736 2683 2737
8 2740 2686 2647 2707 2787 2738 2706 2759
8 2688 2628 2686 2740 2742 2687 2739 2789
8 2743 2688 2650 2709 2790 2740 2707 2760
8 2742 2687 2741 2792 2690 2629 2689 2745
8 2743 2688 2742 2793 2709 2650 2690 2746
8 2745 2689 2744 2795 2692 2631 2693 2748
8 2746 2690 2745 2796 2691 2630 2692 2747
8 2747 2692 2748 2797 2694 2633 2695 2750
8 2748 2693 2749 2798 2695 2634 2696 2751
8 2750 2695 2751 2800 2697 2636 2698 2753
8 2751 2696 2752 2801 2698 2637 2699 2754
8 2753 2698 2754 2802 2700 2639 2701 2755
8 2763 2713 2756 2804 2714 2658 2703 2757
8 2759 2706 2652 2710 2804 2756 2703 2757
8 2715 2659 2714 2764 2758 2704 2757 2805
8 2758 2704 2757 2805 2712 2655 2710 2761
8 2806 2759 2707 2760 2761 2710 2653 2711
8 2765 2716 2762 2808 2718 2664 2713 2763
8 2809 2763 2714 2764 2767 2718 2663 2717
8 2765 2716 2664 2718 2811 2766 2719 2768
8 2813 2768 2718 2767 2770 2721 2666 2720
8 2814 2769 2719 2768 2771 2722 2667 2721
8 2723 2669 2724 2773 2770 2721 2771 2816
8 2724 2670 2725 2774 2771 2722 2772 2817
8 2726 2672 2727 2776 2773 2724 2774 2819
8 2727 2673 2728 2777 2774 2725 2775 2820
8 2729 2675 2730 2779 2776 2727 2777 2822
8 2730 2676 2731 2780 2777 2728 2778 2823
8 2732 2678 2733 2782 2779 2730 2780 2825
8 2780 2731 2679 2733 2826 2781 2734 2783
8 2782 2733 2681 2735 2827 2783 2736 2784
8 2830 2785 2738 2787 2804 2756 2706 2759
8 2789 2739 2686 2740 2832 2786 2738 2787
8 2790 2740 2707 2760 2833 2787 2759 2806
8 2742 2687 2739 2789 2792 2741 2788 2835
8 2743 2688 2740 2790 2793 2742 2789 2836
8 2792 2741 2791 2838 2745 2689 2744 2795
8 2793 2742 2792 2839 2746 2690 2745 2796
8 2795 2744 2794 2841 2748 2693 2749 2798
8 2796 2745 2795 2842 2747 2692 2748 2797
8 2797 2748 2798 2843 2750 2695 2751 2800
8 2798 2749 2799 2844 2751 2696 2752 2801
8 2800 2751 2801 2845 2753 2698 2754 2802
8 2808 2762 2803 2847 2763 2713 2756 2804
8 2809 2763 2804 2848 2764 2714 2757 2805
8 2806 2759 2710 2761 2848 2804 2757 2805
8 2765 2716 2766 2811 2808 2762 2807 2850
8 2810 2765 2808 2851 2767 2718 2763 2809
8 2810 2765 2718 2767 2852 2811 2768 2813
8 2811 2766 2719 2768 2853 2812 2769 2814
8 2855 2814 2768 2813 2816 2771 2721 2770
8 2856 2815 2769 2814 2817 2772 2722 2771
8 2773 2724 2774 2819 2816 2771 2817 2858
8 2774 2725 2775 2820 2817 2772 2818 2859
8 2776 2727 2777 2822 2819 2774 2820 2861
8 2777 2728 2778 2823 2820 2775 2821 2862
8 2779 2730 2780 2825 2822 2777 2823 2864
8 2823 2778 2731 2780 2865 2824 2781 2826
8 2825 2780 2733 2782 2866 2826 2783 2827
8 2869 2828 2785 2830 2847 2803 2756 2804
8 2871 2829 2786 2832 2830 2785 2738 2787
8 2872 2830 2787 2833 2848 2804 2759 2806
8 2789 2739 2786 2832 2835 2788 2831 2874
8 2836 2789 2740 2790 2875 2832 2787 2833
8 2792 2741 2788 2835 2838 2791 2834 2877
8 2793 2742 2789 2836 2839 2792 2835 2878
8 2838 2791 2837 2880 2795 2744 2794 2841
8 2839 2792 2838 2881 2796 2745 2795 2842
8 2841 2794 2840 2882 2798 2749 2799 2844
8 2842 2795 2841 2883 2797 2748 2798 2843
8 2843 2798 2844 2884 2800 2751 2801 2845
8 2886 2846 2803 2847 2850 2807 2762 2808
8 2851 2808 2847 2887 2809 2763 2804 2848
8 2850 2807 2766 2811 2889 2849 2812 2853
8 2810 2765 2811 2852 2851 2808 2850 2890
8 2852 2811 2768 2813 2891 2853 2814 2855
8 2853 2812 2769 2814 2892 2854 2815 2856
8 2894 2856 2814 2855 2858 2817 2771 2816
8 2817 2772 2818 2859 2856 2815 2857 2895
8 2819 2774 2820 2861 2858 2817 2859 2897
8 2820 2775 2821 2862 2859 2818 2860 2898
8 2822 2777 2823 2864 2861 2820 2862 2900
8 2823 2778 2824 2865 2862 2821 2863 2901
8 2864 2823 2780 2825 2902 2865 2826 2866
8 2904 2867 2828 2869 2886 2846 2803 2847
8 2869 2828 2868 2906 2830 2785 2829 2871
8 2907 2869 2830 2872 2887 2847 2804 2848
8 2871 2829 2870 2909 2832 2786 2831 2874
8 2910 2871 2832 2875 2872 2830 2787 2833
8 2835 2788 2831 2874 2877 2834 2873 2912
8 2836 2789 2832 2875 2878 2835 2874 2913
8 2877 2834 2876 2915 2838 2791 2837 2880
8 2839 2792 2835 2878 2881 2838 2877 2916
8 2880 2837 2879 2917 2841 2794 2840 2882
8 2881 2838 2880 2918 2842 2795 2841 2883
8 2883 2841 2882 2919 2843 2798 2844 2884
8 2921 2885 2846 2886 2889 2849 2807 2850
8 2922 2886 2847 2887 2890 2850 2808 2851
8 2889 2849 2812 2853 2924 2888 2854 2892
8 2890 2850 2811 2852 2925 2889 2853 2891
8 2891 2853 2814 2855 2926 2892 2856 2894
8 2892 2854 2815 2856 2927 2893 2857 2895
8 2858 2817 2859 2897 2894 2856 2895 2929
8 2859 2818 2860 2898 2895 2857 2896 2930
8 2861 2820 2862 2900 2897 2859 2898 2932
8 2862 2821 2863 2901 2898 2860 2899 2933
8 2864 2823 2865 2902 2900 2862 2901 2934
8 2904 2867 2846 2886 2936 2903 2885 2921
8 2904 2867 2903 2936 2869 2828 2868 2906
8 2937 2904 2869 2907 2922 2886 2847 2887
8 2906 2868 2905 2939 2871 2829 2870 2909
8 2907 2869 2906 2940 2872 2830 2871 2910
8 2909 2870 2908 2942 2874 2831 2873 2912
8 2910 2871 2909 2943 2875 2832 2874 2913
8 2912 2873 2911 2945 2877 2834 2876 2915
8 2878 2835 2874 2913 2916 2877 2912 2946
8 2915 2876 2914 2947 2880 2837 2879 2917
8 2916 2877 2915 2948 2881 2838 2880 2918
8 2918 2880 2917 2949 2883 2841 2882 2919
8 2921 2885 2849 2889 2951 2920 2888 2924
8 2952 2921 2886 2922 2925 2889 2850 2890
8 2924 2888 2854 2892 2954 2923 2893 2927
8 2925 2889 2853 2891 2955 2924 2892 2926
8 2926 2892 2856 2894 2956 2927 2895 2929
8 2895 2857 2896 2930 2927 2893 2928 2957
8 2897 2859 2898 2932 2929 2895 2930 2959
8 2898 2860 2899 2933 2930 2896 2931 2960
8 2900 2862 2901 2934 2932 2898 2933 2961
8 2936 2903 2885 2921 2963 2935 2920 2951
8 2936 2903 2935 2963 2906 2868 2905 2939
8 2937 2904 2886 2922 2964 2936 2921 2952
8 2937 2904 2936 2964 2907 2869 2906 2940
8 2939 2905 2938 2966 2909 2870 2908 2942
8 2940 2906 2939 2967 2910 2871 2909 2943
8 2942 2908 2941 2969 2912 2873 2911 2945
8 2943 2909 2942 2970 2913 2874 2912 2946
8 2945 2911 2944 2971 2915 2876 2914 2947
8 2946 2912 2945 2972 2916 2877 2915 2948
8 2948 2915 2947 2973 2918 2880 2917 2949
8 2951 2920 2888 2924 2975 2950 2923 2954
8 2952 2921 2889 2925 2976 2951 2924 2955
8 2927 2893 2928 2957 2954 2923 2953 2978
8 2955 2924 2892 2926 2979 2954 2927 2956
8 2929 2895 2930 2959 2956 2927 2957 2980
8 2930 2896 2931 2960 2957 2928 2958 2981
8 2932 2898 2933 2961 2959 2930 2960 2982
8 2951 2920 2950 2975 2963 2935 2962 2984
8 2963 2935 2962 2984 2939 2905 2938 2966
8 2964 2936 2921 2952 2985 2963 2951 2976
8 2964 2936 2963 2985 2940 2906 2939 2967
8 2966 2938 2965 2987 2942 2908 2941 2969
8 2967 2939 2966 2988 2943 2909 2942 2970
8 2969 2941 2968 2989 2945 2911 2944 2971
8 2970 2942 2969 2990 2946 2912 2945 2972
8 2972 2945 2971 2991 2948 2915 2947 2973
8 2954 2923 2953 2978 2975 2950 2974 2993
8 2976 2951 2924 2955 2994 2975 2954 2979
8 2957 2928 2958 2981 2978 2953 2977 2995
8 2956 2927 2957 2980 2979 2954 2978 2996
8 2959 2930 2960 2982 2980 2957 2981 2997
8 2984 2962 2983 2999 2966 2938 2965 2987
8 2975 2950 2974 2993 2984 2962 2983 2999
8 2976 2951 2975 2994 2985 2963 2984 3000
8 2985 2963 2984 3000 2967 2939 2966 2988
8 2987 2965 2986 3001 2969 2941 2968 2989
8 2988 2966 2987 3002 2970 2942 2969 2990
8 2990 2969 2989 3003 2972 2945 2971 2991
8 2978 2953 2977 2995 2993 2974 2992 3004
8 2979 2954 2978 2996 2994 2975 2993 3005
8 2980 2957 2981 2997 2996 2978 2995 3006
8 2974 2993 2999 2983 2992 3004 3007 2998
8 2983 2999 2987 2965 2998 3007 3001 2986
8 3000 2984 2999 3008 2988 2966 2987 3002
8 2994 2975 2993 3005 3000 2984 2999 3008
8 3002 2987 3001 3009 2990 2969 2989 3003
8 2996 2978 2995 3006 3005 2993 3004 3010
8 3005 2993 3004 3010 3008 2999 3007 3011
8 3008 2999 3007 3011 3002 2987 3001 3009

CELL_TYPES 1910
12
12
12
12
12
12
12
12
12
12
12
12
12
12
12
12
12
12
12
12
12
12
12
12
12
12
12
12
12
12
12
12
12
12
12
12
12
12
12
12
12
12
12
12
12
12
12
12
12
12
12
12
12
12
12
12
12
12
12
12
12
12
12
12
12
12
12
12
12
12
12
12
12
12
12
12
12
12
12
12
12
12
12
12
12
12
12
12
12
12
12
12
12
12
12
12
12
12
12
12
12
12
12
12
12
12
12
12
12
12
12
12
12
12
12
12
12
12
12
12
12
12
12
12
12
12
12
12
12
12
12
12
12
12
12
12
12
12
12
12
12
12
12
12
12
12
12
12
12
12
12
12
12
12
12
12
12
12
12
12
12
12
12
12
12
12
12
12
12
12
12
12
12
12
12
12
12
12
12
12
12
12
12
12
12
12
12
12
12
12
12
12
12
12
12
12
12
12
12
12
12
12
12
12
12
12
12
12
12
12
12
12
12
12
12
12
12
12
12
12
12
12
12
12
12
12
12
12
12
12
12
12
12
12
12
12
12
12
12
12
12
12
12
12
12
12
12
12
12
12
12
12
12
12
12
12
12
12
12
12
12
12
12
12
12
12
12
12
12
12
12
12
12
12
12
12
12
12
12
12
12
12
12
12
12
12
12
12
12
12
12
12
12
12
12
12
12
12
12
12
12
12
12
12
12
12
12
12
12
12
12
12
12
12
12
12
12
12
12
12
12
12
12
12
12
12
12
12
12
12
12
12
12
12
12
12
12
12
12
12
12
12
12
12
12
12
12
12
12
12
12
12
12
12
12
12
12
12
12
12
12
12
12
12
12
12
12
12
12
12
12
12
12
12
12
12
12
12
12
12
12
12
12
12
12
12
12
12
12
12
12
12
12
12
12
12
12
12
12
12
12
12
12
12
12
12
12
12
12
12
12
12
12
12
12
12
12
12
12
12
12
12
12
12
12
12
12
12
12
12
12
12
12
12
12
12
12
12
12
12
12
12
12
12
12
12
12
12
12
12
12
12
12
12
12
12
12
12
12
12
12
12
12
12
12
12
12
12
12
12
12
12
12
12
12
12
12
12
12
12
12
12
12
12
12
12
12
12
12
12
12
12
12
12
12
12
12
12
12
12
12
12
12
12
12
12
12
12
12
12
12
12
12
12
12
12
12
12
12
12
12
12
12
12
12
12
12
12
12
12
12
12
12
12
12
12
12
12
12
12
12
12
12
12
12
12
12
12
12
12
12
12
12
12
12
12
12
12
12
12
12
12
12
12
12
12
12
12
12
12
12
12
12
12
12
12
12
12
12
12
12
12
12
12
12
12
12
12
12
12
12
12
12
12
12
12
12
12
12
12
12
12
12
12
12
12
12
12
12
12
12
12
12
12
12
12
12
12
12
12
12
12
12
12
12
12
12
12
12
12
12
12
12
12
12
12
12
12
12
12
12
12
12
12
12
12
12
12
12
12
12
12
12
12
12
12
12
12
12
12
12
12
12
12
12
12
12
12
12
12
12
12
12
12
12
12
12
12
12
12
12
12
12
12
12
12
12
12
12
12
12
12
12
12
12
12
12
12
12
12
12
12
12
12
12
12
12
12
12
12
12
12
12
12
12
12
12
12
12
12
12
12
12
12
12
12
12
12
12
12
12
12
12
12
12
12
12
12
12
12
12
12
12
12
12
12
12
12
12
12
12
12
12
12
12
12
12
12
12
12
12
12
12
12
12
12
12
12
12
12
12
12
12
12
12
12
12
12
12
12
12
12
12
12
12
12
12
12
12
12
12
12
12
12
12
12
12
12
12
12
12
12
12
12
12
12
12
12
12
12
12
12
12
12
12
12
12
12
12
12
12
12
12
12
12
12
12
12
12
12
12
12
12
12
12
12
12
12
12
12
12
12
12
12
12
12
12
12
12
12
12
12
12
12
12
12
12
12
12
12
12
12
12
12
12
12
12
12
12
12
12
12
12
12
12
12
12
12
12
12
12
12
12
12
12
12
12
12
12
12
12
12
12
12
12
12
12
12
12
12
12
12
12
12
12
12
12
12
12
12
12
12
12
12
12
12
12
12
12
12
12
12
12
12
12
12
12
12
12
12
12
12
12
12
12
12
12
12
12
12
12
12
12
12
12
12
12
12
12
12
12
12
12
12
12
12
12
12
12
12
12
12
12
12
12
12
12
12
12
12
12
12
12
12
12
12
12
12
12
12
12
12
12
12
12
12
12
12
12
12
12
12
12
12
12
12
12
12
12
12
12
12
12
12
12
12
12
12
12
12
12
12
12
12
12
12
12
12
12
12
12
12
12
12
12
12
12
12
12
12
12
12
12
12
12
12
12
12
12
12
12
12
12
12
12
12
12
12
12
12
12
12
12
12
12
12
12
12
12
12
12
12
12
12
12
12
12
12
12
12
12
12
12
12
12
12
12
12
12
12
12
12
12
12
12
12
12
12
12
12
12
12
12
12
12
12
12
12
12
12
12
12
12
12
12
12
12
12
12
12
12
12
12
12
12
12
12
12
12
12
12
12
12
12
12
12
12
12
12
12
12
12
12
12
12
12
12
12
12
12
12
12
12
12
12
12
12
12
12
12
12
12
12
12
12
12
12
12
12
12
12
12
12
12
12
12
12
12
12
12
12
12
12
12
12
12
12
12
12
12
12
12
12
12
12
12
12
12
12
12
12
12
12
12
12
12
12
12
12
12
12
12
12
12
12
12
12
12
12
12
12
12
12
12
12
12
12
12
12
12
12
12
12
12
12
12
12
12
12
12
12
12
12
12
12
12
12
12
12
12
12
12
12
12
12
12
12
12
12
12
12
12
12
12
12
12
12
12
12
12
12
12
12
12
12
12
12
12
12
12
12
12
12
12
12
12
12
12
12
12
12
12
12
12
12
12
12
12
12
12
12
12
12
12
12
12
12
12
12
12
12
12
12
12
12
12
12
12
12
12
12
12
12
12
12
12
12
12
12
12
12
12
12
12
12
12
12
12
12
12
12
12
12
12
12
12
12
12
12
12
12
12
12
12
12
12
12
12
12
12
12
12
12
12
12
12
12
12
12
12
12
12
12
12
12
12
12
12
12
12
12
12
12
12
12
12
12
12
12
12
12
12
12
12
12
12
12
12
12
12
12
12
12
12
12
12
12
12
12
12
12
12
12
12
12
12
12
12
12
12
12
12
12
12
12
12
12
12
12
12
12
12
12
12
12
12
12
12
12
12
12
12
12
12
12
12
12
12
12
12
12
12
12
12
12
12
12
12
12
12
12
12
12
12
12
12
12
12
12
12
12
12
12
12
12
12
12
12
12
12
12
12
12
12
12
12
12
12
12
12
12
12
12
12
12
12
12
12
12
12
12
12
12
12
12
12
12
12
12
12
12
12
12
12
12
12
12
12
12
12
12
12
12
12
12
12
12
12
12
12
12
12
12
12
12
12
12
12
12
12
12
12
12
12
12
12
12
12
12
12
12
12
12
12
12
12
12
12
12
12
12
12
12
12
12
12
12
12
12
12
12
12
12
12
12
12
12
12
12
12
12
12
12
12
12
12
12
12
12
12
12
12
12
12
12
12
12
12
12
12
12
12
12
12
12
12
12
12
12
12
12
12
12
12
12
12
12
12
12
12
12
12
12
12
12
12
12
12
12
12
12
12
12
12
12
12
12
12
12
12
12
12
12
12
12
12
12
12
12
12
12
12
12
12
12
12
12
12
12
12
12
12
12
12
12
12
12
12
12
12
12
12
12
12
12
12
12
12
12
12
12
12
12
12
12
12
12
12
12
12
12
12
12
12
12
12
12
12
12
12
12
12
12
12
12
12
12
12
12
12
12
12
12
12
12
12
12
12
12
12
12
12
12
12
12
12
12
12
12
12
12
12
12
12
12
12
12
12
12
12
12
12
12
12
12
12
12
12
12
12
12
12
12
12
12
12
12
12
12
12
12
12
12
12
12
12
12
12
12
12
12
12
12
12
12
12
12
12
12
12
12
12
12
12
12
12
12
12
12
12
12
12
12
12
12
12
12
12
12
12
12
12
12
12
12
12
12
12
12
12
12
12
12
12
12
12
12
12
12
12
12
12
12
12
12
12
12
12
12
12
12
12
12
12
12
12
12
12
12
12
12
12
12
12
12
12
12
12
12
12
12
12
12
12
12
12
12
12
12
12
12
12
12
12
12
12
12
12
12
12
12
12
12
12
12
12
12
12
12
12
12
12
12
12
12
12
12
12
12
12
12
12
12
12
12
12
12
12
12
12
12
12
12
12
12
12
12
12
12
12
12
12
12
12
12
12
12
12
12
12

POINT_DATA 3012
SCALARS Jp_lamdaP float 4
LOOKUP_TABLE default
1 1 1 1
1 1 1 1
1 1 1 1
0.99999 1 1 0.99999
0.999999 1 1 0.999999
1 1 1 1
0.999894 1 1 0.999894
1 1 1 1
1 1 1 1
1 1 1 1
1 1 1 1
0.99997 1 1 0.99997
0.999977 1 1 0.999977
0.999992 1 1 0.999992
1 1 1 1
0.999992 1 1 0.999992
1 1 1 1
0.999999 1 1 0.999999
0.999895 1 1 0.999895
1 1 1 1
0.999988 1 1 0.999988
0.999995 1 1 0.999995
0.999818 1 1 0.999818
0.999873 1 1 0.999873
1 1 1 1
0.999918 1 1 0.999918
0.999699 1 1 0.999699
1 1 1 1
0.999999 1 1 0.999999
1 1 1 1
1 1 1 1
0.999973 1 1 0.999973
0.999996 1 1 0.999996
1 1 1 1
0.999917 1 1 0.999917
1 1 1 1
0.999957 1 1 0.999957
0.999983 1 1 0.999983
0.999744 1 1 0.999744
1 1 1 1
1 1 1 1
0.999995 1 1 0.999995
1 1 1 1
0.999987 1 1 0.999987
0.999814 1 1 0.999814
1 1 1 1
0.999876 1 1 0.999876
0.999994 1 1 0.999994
1 1 1 1
1 1 1 1
0.999896 1 1 0.999896
0.999989 1 1 0.999989
0.999989 1 1 0.999989
1 1 1 1
0.999997 1 1 0.999997
0.999819 1 1 0.999819
0.999919 1 1 0.999919
0.999874 1 1 0.999874
0.999692 1 1 0.999692
1 1 1 1
0.999984 1 1 0.999984
0.999839 1 1 0.999839
0.999802 1 1 0.999802
0.999846 1 1 0.999846
0.999516 1 1 0.999516
0.999623 1 1 0.999623
1 1 1 1
0.999947 1 1 0.999947
0.999752 1 1 0.999752
0.999455 1 1 0.999455
1 1 1 1
1 1 1 1
1 1 1 1
0.999977 1 1 0.999977
1 1 1 1
1 1 1 1
0.999922 1 1 0.999922
1 1 1 1
0.999961 1 1 0.999961
0.999988 1 1 0.999988
0.999743 1 1 0.999743
1 1 1 1
1 1 1 1
0.999896 1 1 0.999896
0.999938 1 1 0.999938
0.99959 1 1 0.99959
0.999996 1 1 0.999996
0.99972 1 1 0.99972
0.99977 1 1 0.99977
0.999569 1 1 0.999569
1 1 1 1
1 1 1 1
1 1 1 1
1 1 1 1
1 1 1 1
0.999992 1 1 0.999992
0.999828 1 1 0.999828
0.999997 1 1 0.999997
0.999876 1 1 0.999876
1 1 1 1
0.999788 1 1 0.999788
0.999857 1 1 0.999857
0.999365 1 1 0.999365
0.999888 1 1 0.999888
0.999436 1 1 0.999436
0.999981 1 1 0.999981
0.99999 1 1 0.99999
1 1 1 1
0.999998 1 1 0.999998
0.999821 1 1 0.999821
0.999876 1 1 0.999876
0.99992 1 1 0.99992
0.999684 1 1 0.999684
1 1 1 1
0.999986 1 1 0.999986
0.999799 1 1 0.999799
0.999803 1 1 0.999803
1 1 1 1
0.999963 1 1 0.999963
0.999848 1 1 0.999848
0.9995 1 1 0.9995
0.999744 1 1 0.999744
0.999633 1 1 0.999633
0.999456 1 1 0.999456
0.9998 1 1 0.9998
0.999796 1 1 0.999796
0.99941 1 1 0.99941
0.999459 1 1 0.999459
0.999554 1 1 0.999554
0.999275 1 1 0.999275
1 1 1 1
0.999411 1 1 0.999411
0.999995 1 1 0.999995
0.999766 1 1 0.999766
0.999498 1 1 0.999498
0.999356 1 1 0.999356
1 1 1 1
0.999853 1 1 0.999853
1 1 1 1
1 1 1 1
0.999927 1 1 0.999927
1 1 1 1
0.999992 1 1 0.999992
0.999964 1 1 0.999964
0.999742 1 1 0.999742
1 1 1 1
1 1 1 1
0.999902 1 1 0.999902
0.999944 1 1 0.999944
0.999592 1 1 0.999592
0.999998 1 1 0.999998
0.999721 1 1 0.999721
0.999769 1 1 0.999769
0.999563 1 1 0.999563
1 1 1 1
1 1 1 1
0.99987 1 1 0.99987
0.999522 1 1 0.999522
0.999666 1 1 0.999666
0.999384 1 1 0.999384
0.999804 1 1 0.999804
0.999541 1 1 0.999541
0.999583 1 1 0.999583
0.999493 1 1 0.999493
1 1 1 1
1 1 1 1
1 1 1 1
1 1 1 1
1 1 1 1
1 1 1 1
1 1 1 1
0.999875 1 1 0.999875
0.999825 1 1 0.999825
1 1 1 1
1 1 1 1
0.99979 1 1 0.99979
0.999858 1 1 0.999858
0.999365 1 1 0.999365
0.999887 1 1 0.999887
0.999436 1 1 0.999436
0.999779 1 1 0.999779
0.999322 1 1 0.999322
0.999406 1 1 0.999406
0.999164 1 1 0.999164
0.999472 1 1 0.999472
0.999241 1 1 0.999241
1 1 1 1
0.999988 1 1 0.999988
0.999758 1 1 0.999758
0.999804 1 1 0.999804
1 1 1 1
0.999979 1 1 0.999979
0.99985 1 1 0.99985
0.999485 1 1 0.999485
0.999644 1 1 0.999644
0.999736 1 1 0.999736
0.999457 1 1 0.999457
0.999797 1 1 0.999797
0.999796 1 1 0.999796
0.999379 1 1 0.999379
0.99947 1 1 0.99947
1 1 1 1
0.999992 1 1 0.999992
0.99978 1 1 0.99978
0.999555 1 1 0.999555
0.999256 1 1 0.999256
0.999495 1 1 0.999495
0.999419 1 1 0.999419
0.999358 1 1 0.999358
1 1 1 1
0.999853 1 1 0.999853
0.999331 1 1 0.999331
0.999443 1 1 0.999443
0.999196 1 1 0.999196
0.999202 1 1 0.999202
0.999357 1 1 0.999357
0.999186 1 1 0.999186
0.999999 1 1 0.999999
0.999316 1 1 0.999316
0.999789 1 1 0.999789
0.999553 1 1 0.999553
0.999397 1 1 0.999397
0.999326 1 1 0.999326
0.999818 1 1 0.999818
0.9999 1 1 0.9999
0.999631 1 1 0.999631
0.999904 1 1 0.999904
1 1 1 1
1 1 1 1
0.99995 1 1 0.99995
0.999593 1 1 0.999593
1 1 1 1
0.999769 1 1 0.999769
0.999721 1 1 0.999721
0.999558 1 1 0.999558
1 1 1 1
1 1 1 1
0.99987 1 1 0.99987
0.999523 1 1 0.999523
0.999668 1 1 0.999668
0.999385 1 1 0.999385
0.999805 1 1 0.999805
0.999547 1 1 0.999547
0.999582 1 1 0.999582
0.999485 1 1 0.999485
1 1 1 1
0.999836 1 1 0.999836
0.999908 1 1 0.999908
0.999663 1 1 0.999663
0.999317 1 1 0.999317
0.999479 1 1 0.999479
0.999282 1 1 0.999282
0.999616 1 1 0.999616
0.999466 1 1 0.999466
0.999468 1 1 0.999468
0.999428 1 1 0.999428
0.999978 1 1 0.999978
1 1 1 1
1 1 1 1
1 1 1 1
1 1 1 1
1 1 1 1
1 1 1 1
1 1 1 1
1 1 1 1
0.999889 1 1 0.999889
0.999856 1 1 0.999856
0.999436 1 1 0.999436
0.999366 1 1 0.999366
0.999792 1 1 0.999792
1 1 1 1
0.999779 1 1 0.999779
0.999322 1 1 0.999322
0.999406 1 1 0.999406
0.999163 1 1 0.999163
0.999472 1 1 0.999472
0.999241 1 1 0.999241
0.99931 1 1 0.99931
0.999119 1 1 0.999119
0.999206 1 1 0.999206
0.999105 1 1 0.999105
0.999275 1 1 0.999275
0.999174 1 1 0.999174
0.999795 1 1 0.999795
0.999797 1 1 0.999797
0.999349 1 1 0.999349
0.99948 1 1 0.99948
1 1 1 1
0.999989 1 1 0.999989
0.999793 1 1 0.999793
0.999556 1 1 0.999556
0.999238 1 1 0.999238
0.999427 1 1 0.999427
0.999492 1 1 0.999492
0.999359 1 1 0.999359
1 1 1 1
0.999853 1 1 0.999853
0.99932 1 1 0.99932
0.999442 1 1 0.999442
0.999189 1 1 0.999189
0.999221 1 1 0.999221
0.999998 1 1 0.999998
0.999789 1 1 0.999789
0.999566 1 1 0.999566
0.999357 1 1 0.999357
0.999182 1 1 0.999182
0.999383 1 1 0.999383
0.999316 1 1 0.999316
0.999325 1 1 0.999325
0.999819 1 1 0.999819
0.999628 1 1 0.999628
0.9999 1 1 0.9999
0.999159 1 1 0.999159
0.99921 1 1 0.99921
0.999094 1 1 0.999094
0.999132 1 1 0.999132
0.99926 1 1 0.99926
0.999188 1 1 0.999188
0.999801 1 1 0.999801
0.999297 1 1 0.999297
0.999618 1 1 0.999618
0.999437 1 1 0.999437
0.999312 1 1 0.999312
0.999354 1 1 0.999354
0.999941 1 1 0.999941
0.99963 1 1 0.99963
0.999641 1 1 0.999641
0.999546 1 1 0.999546
0.999523 1 1 0.999523
1 1 1 1
1 1 1 1
0.99987 1 1 0.99987
0.99967 1 1 0.99967
0.999385 1 1 0.999385
0.999805 1 1 0.999805
0.999581 1 1 0.999581
0.999554 1 1 0.999554
0.999477 1 1 0.999477
1 1 1 1
0.999835 1 1 0.999835
0.999909 1 1 0.999909
0.999662 1 1 0.999662
0.999316 1 1 0.999316
0.99948 1 1 0.99948
0.999282 1 1 0.999282
0.999617 1 1 0.999617
0.999474 1 1 0.999474
0.999465 1 1 0.999465
0.999448 1 1 0.999448
1 1 1 1
0.999938 1 1 0.999938
0.999643 1 1 0.999643
0.999694 1 1 0.999694
0.999544 1 1 0.999544
0.999226 1 1 0.999226
0.999384 1 1 0.999384
0.999245 1 1 0.999245
0.999491 1 1 0.999491
0.999418 1 1 0.999418
0.999345 1 1 0.999345
0.999968 1 1 0.999968
0.999818 1 1 0.999818
0.999985 1 1 0.999985
0.99998 1 1 0.99998
1 1 1 1
1 1 1 1
1 1 1 1
1 1 1 1
1 1 1 1
1 1 1 1
1 1 1 1
1 1 1 1
1 1 1 1
1 1 1 1
1 1 1 1
0.999473 1 1 0.999473
0.999406 1 1 0.999406
0.999241 1 1 0.999241
0.999163 1 1 0.999163
0.999322 1 1 0.999322
0.999778 1 1 0.999778
0.99931 1 1 0.99931
0.999119 1 1 0.999119
0.999206 1 1 0.999206
0.999101 1 1 0.999101
0.999275 1 1 0.999275
0.999175 1 1 0.999175
0.999105 1 1 0.999105
0.999101 1.00004 1 0.999061
0.999137 1 1 0.999137
0.999105 1.00001 1 0.999091
0.999202 1 1 0.999202
0.999199 1 1 0.999199
0.99931 1 1 0.99931
0.999442 1 1 0.999442
0.999181 1 1 0.999181
0.999241 1 1 0.999241
0.999998 1 1 0.999998
0.999789 1 1 0.999789
0.999578 1 1 0.999578
0.999356 1 1 0.999356
0.999177 1 1 0.999177
0.999317 1 1 0.999317
0.999369 1 1 0.999369
0.999325 1 1 0.999325
0.999819 1 1 0.999819
0.999624 1 1 0.999624
0.999899 1 1 0.999899
0.999143 1 1 0.999143
0.99921 1 1 0.99921
0.999085 1 1 0.999085
0.999136 1 1 0.999136
0.999802 1 1 0.999802
0.999617 1 1 0.999617
0.999451 1 1 0.999451
0.999266 1 1 0.999266
0.999194 1 1 0.999194
0.999301 1 1 0.999301
0.999297 1 1 0.999297
0.999359 1 1 0.999359
0.999632 1 1 0.999632
0.999536 1 1 0.999536
0.999938 1 1 0.999938
0.999647 1 1 0.999647
0.999054 1 1 0.999054
0.999109 1 1 0.999109
0.999047 1 1 0.999047
0.99912 1 1 0.99912
0.999257 1 1 0.999257
0.999214 1 1 0.999214
0.999633 1 1 0.999633
0.999356 1 1 0.999356
0.999512 1 1 0.999512
0.99934 1 1 0.99934
0.999253 1 1 0.999253
0.999357 1 1 0.999357
0.99996 1 1 0.99996
0.999687 1 1 0.999687
0.99955 1 1 0.99955
0.999534 1 1 0.999534
0.999503 1 1 0.999503
1 1 1 1
0.999315 1 1 0.999315
0.999911 1 1 0.999911
0.999835 1 1 0.999835
0.999661 1 1 0.999661
0.999481 1 1 0.999481
0.999282 1 1 0.999282
0.999617 1 1 0.999617
0.999461 1 1 0.999461
0.999482 1 1 0.999482
0.999468 1 1 0.999468
1 1 1 1
0.99994 1 1 0.99994
0.999643 1 1 0.999643
0.999694 1 1 0.999694
0.99954 1 1 0.99954
0.999224 1 1 0.999224
0.999385 1 1 0.999385
0.999241 1 1 0.999241
0.999493 1 1 0.999493
0.999423 1 1 0.999423
0.999355 1 1 0.999355
0.999956 1 1 0.999956
0.999731 1 1 0.999731
0.999522 1 1 0.999522
0.999564 1 1 0.999564
0.999483 1 1 0.999483
0.999204 1 1 0.999204
0.999339 1 1 0.999339
0.999294 1 1 0.999294
0.999401 1 1.00002 0.999377
0.999286 1 1 0.999286
0.999971 1 1 0.999971
0.999772 1 1 0.999772
0.999807 1 1 0.999807
0.999696 1 1 0.999696
0.999829 1 1 0.999829
0.99999 1 1 0.99999
0.999987 1 1 0.999987
1 1 1 1
0.999982 1 1 0.999982
1 1 1 1
1 1 1 1
1 1 1 1
1 1 1 1
1 1 1 1
1 1 1 1
1 1 1 1
1 1 1 1
1 1 1 1
1 1 1 1
1 1 1 1
0.999274 1 1 0.999274
0.999206 1 1 0.999206
0.999175 1 1 0.999175
0.999097 1 1 0.999097
0.999119 1 1 0.999119
0.999309 1 1 0.999309
0.999105 1 1 0.999105
0.999094 1.00004 1 0.999054
0.999138 1 1 0.999138
0.999097 1.00001 1 0.99909
0.999201 1 1 0.999201
0.999198 1 1 0.999198
0.999076 1.00004 1 0.999034
0.999637 1.00059 1 0.999043
0.999133 1 1 0.999133
0.999176 1.00009 1 0.999082
0.999207 1 1 0.999207
0.999219 1 1 0.999219
0.999127 1 1 0.999127
0.999209 1 1 0.999209
0.999077 1 1 0.999077
0.99914 1 1 0.99914
0.999803 1 1 0.999803
0.999615 1 1 0.999615
0.999465 1 1 0.999465
0.999272 1 1 0.999272
0.9992 1 1 0.9992
0.999298 1 1 0.999298
0.999289 1 1 0.999289
0.999364 1 1 0.999364
0.999633 1 1 0.999633
0.999526 1 1 0.999526
0.999936 1 1 0.999936
0.999654 1 1 0.999654
0.999069 1.00001 1 0.999054
0.999111 1 1 0.999111
0.999047 1 1 0.999047
0.999122 1 1 0.999122
0.999634 1 1 0.999634
0.999524 1 1 0.999524
0.999339 1 1 0.999339
0.999252 1 1 0.999252
0.999241 1 1 0.999241
0.999247 1 1 0.999247
0.999357 1 1 0.999357
0.999374 1 1 0.999374
0.99955 1 1 0.99955
0.9995 1 1 0.9995
0.999532 1 1 0.999532
0.999943 1 1 0.999943
0.999694 1 1 0.999694
0.999183 1.00016 1 0.999018
0.999041 1 1 0.999041
0.999166 1.00003 1 0.999138
0.999295 1 1 0.999295
0.999558 1 1 0.999558
0.999408 1 1 0.999408
0.99944 1 1 0.99944
0.999214 1 1 0.999214
0.999201 1 1 0.999201
0.999943 1 1 0.999943
0.999759 1 1 0.999759
0.999575 1 1 0.999575
0.999521 1 1 0.999521
0.999452 1 1 0.999452
0.99947 1 1 0.99947
1 1 1 1
0.999942 1 1 0.999942
0.999223 1 1 0.999223
0.999693 1 1 0.999693
0.999642 1 1 0.999642
0.999536 1 1 0.999536
0.999385 1 1 0.999385
0.999238 1 1 0.999238
0.999494 1 1 0.999494
0.999365 1 1 0.999365
0.999428 1 1 0.999428
0.999959 1 1 0.999959
0.999731 1 1 0.999731
0.999529 1 1 0.999529
0.999563 1 1 0.999563
0.999475 1 1 0.999475
0.999202 1 1 0.999202
0.999336 1 1 0.999336
0.9993 1 1 0.9993
0.999384 1 1.00001 0.999371
0.99927 1 1 0.99927
0.999764 1 1 0.999764
0.999575 1 1 0.999575
0.999465 1 1.00003 0.999439
0.999466 1 1 0.999466
0.999425 1 1 0.999425
0.999325 1 1 0.999325
0.999255 1 1 0.999255
0.999284 1 1 0.999284
0.999565 1 1.00027 0.999294
0.999136 1 1 0.999136
0.999974 1 1 0.999974
0.999781 1 1 0.999781
0.999635 1 1 0.999635
0.999795 1 1 0.999795
0.999829 1 1 0.999829
0.999679 1 1 0.999679
0.999588 1 1 0.999588
0.999675 1 1 0.999675
0.999839 1 1 0.999839
0.999992 1 1 0.999992
0.999991 1 1 0.999991
1 1 1 1
0.999988 1 1 0.999988
1 1 1 1
1 1 1 1
1 1 1 1
1 1 1 1
1 1 1 1
1 1 1 1
1 1 1 1
1 1 1 1
1 1 1 1
1 1 1 1
1 1 1 1
0.999199 1 1 0.999199
0.999138 1 1 0.999138
0.999197 1 1 0.999197
0.999091 1 1 0.999089
0.999087 1.00004 1 0.999048
0.999105 1 1 0.999105
0.999088 1.00006 1 0.999031
0.99951 1.00047 1 0.999045
0.999127 1 1 0.999127
0.999136 1.00006 1 0.999077
0.999207 1 1 0.999207
0.999234 1 1 0.999234
1.00003 1.00102 1 0.999018
0.99998 1.00092 1 0.999057
0.999308 1.00018 1 0.999131
0.999284 1 1 0.999284
0.999083 1.00003 1 0.999055
0.999114 1 1 0.999114
0.999048 1 1 0.999048
0.999124 1 1 0.999124
0.999634 1 1 0.999634
0.999535 1 1 0.999535
0.999338 1 1 0.999338
0.999248 1 1 0.999248
0.999268 1 1 0.999268
0.999359 1 1 0.999359
0.999241 1 1 0.999241
0.999391 1 1 0.999391
0.99955 1 1 0.99955
0.999497 1 1 0.999497
0.99953 1 1 0.99953
0.999925 1 1 0.999925
0.9997 1 1 0.9997
0.99916 1.00014 1 0.999021
0.99908 1.00003 1 0.999045
0.999199 1.00005 1 0.999148
0.999557 1 1 0.999557
0.999454 1 1 0.999454
0.999211 1 1 0.999211
0.999285 1 1 0.999285
0.999227 1 1 0.999227
0.999407 1 1 0.999407
0.999944 1 1 0.999944
0.999521 1 1 0.999521
0.999478 1 1 0.999478
0.999451 1 1 0.999451
0.99958 1 1 0.99958
0.999746 1 1 0.999746
0.99942 1.0004 1 0.999016
0.999201 1.00017 1 0.99903
0.999353 1.00017 1 0.999186
0.999537 1.00018 1 0.999357
0.999512 1 1 0.999512
0.999269 1 1 0.999269
0.999302 1 1 0.999302
0.99922 1 1.0001 0.999115
0.999957 1 1 0.999957
0.999796 1 1 0.999796
0.999623 1 1 0.999623
0.999448 1 1 0.999448
0.99948 1 1 0.99948
0.999418 1 1 0.999418
0.999962 1 1 0.999962
0.999731 1 1 0.999731
0.999201 1 1 0.999201
0.999562 1 1 0.999562
0.999535 1 1 0.999535
0.999467 1 1 0.999467
0.999332 1 1 0.999332
0.999306 1 1 0.999306
0.999364 1 1 0.999364
0.999253 1 1 0.999253
0.999764 1 1 0.999764
0.99958 1 1 0.99958
0.999462 1 1.00001 0.99945
0.999472 1 1 0.999472
0.999428 1 1 0.999428
0.999323 1 1 0.999323
0.99926 1 1 0.99926
0.999331 1 1 0.999331
0.999558 1 1.00027 0.999285
0.999135 1 1.00002 0.999114
0.999609 1 1 0.999609
0.999461 1 1 0.999461
0.999603 1 1.00024 0.999361
0.999381 1 1 0.999381
0.999858 1.00056 1 0.999295
1.00025 1.00102 0.999872 0.99936
0.999117 1 1 0.999117
1.00093 1 1.00183 0.999105
0.99979 1 1 0.99979
0.999643 1 1 0.999643
0.999551 1 1 0.999551
0.999829 1 1 0.999829
0.999662 1 1 0.999662
0.999839 1 1 0.999839
0.999575 1 1 0.999575
0.999682 1 1 0.999682
0.999502 1 1 0.999502
0.999574 1 1 0.999574
0.999685 1 1 0.999685
0.999844 1 1 0.999844
0.999992 1 1 0.999992
0.999992 1 1 0.999992
1 1 1 1
0.999991 1 1 0.999991
1 1 1 1
1 1 1 1
1 1 1 1
1 1 1 1
1 1 1 1
1 1 1 1
1 1 1 1
1 1 1 1
1 1 1 1
1 1 1 1
1 1 1 1
0.999208 1 1 0.999208
0.999121 1 1 0.999121
0.99925 1 1 0.99925
0.99909 1.00002 1 0.999071
0.999371 1.00032 1 0.999047
0.9991 1.00007 1 0.999029
0.999881 1.00086 1 0.999023
0.999928 1.00087 1 0.999057
0.999375 1.00024 1 0.999137
0.999279 1 1 0.999279
1.00056 1.00152 1 0.999036
1.00057 1.00147 1 0.999101
0.999681 1.00048 1 0.999202
0.999136 1.00011 1 0.999023
0.999105 1.00005 1 0.99905
0.999231 1.00007 1 0.999159
0.999555 1 1 0.999555
0.999468 1 1 0.999468
0.999222 1 1.00001 0.999208
0.999275 1 1 0.999275
0.999405 1 1 0.999405
0.999253 1 1 0.999253
0.99952 1 1 0.99952
0.999486 1 1 0.999486
0.99945 1 1 0.99945
0.999944 1 1 0.999944
0.999586 1 1 0.999586
0.999733 1 1 0.999733
0.999551 1.00053 1 0.999018
0.999144 1.00012 1 0.999028
0.999285 1.00011 1 0.999173
0.99951 1 1 0.99951
0.999325 1 1 0.999325
0.999239 1 1.00012 0.99912
1 1.00063 1 0.999369
0.999266 1 1 0.999266
0.99997 1 1 0.99997
0.999796 1 1 0.999796
0.999479 1 1 0.999479
0.999425 1 1 0.999425
0.999453 1 1 0.999453
0.999613 1 1 0.999613
0.999978 1.00094 1 0.999043
0.999869 1.00082 1 0.999047
1.00091 1.0017 0.999905 0.999306
1.00092 1.00153 1 0.999382
0.999441 1 1 0.999441
1.00033 1 1.00127 0.999059
0.999426 1 1.00022 0.999203
0.999994 1 1 0.999994
0.999867 1 1 0.999867
0.999799 1 1 0.999799
0.999636 1 1 0.999636
0.999492 1 1 0.999492
0.999363 1 1 0.999363
0.999465 1 1 0.999465
0.999403 1 1 0.999403
0.999764 1 1 0.999764
0.999585 1 1 0.999585
0.999322 1 1 0.999322
0.999477 1 1 0.999477
0.999461 1 1 0.999461
0.999432 1 1 0.999432
0.999264 1 1 0.999264
0.999377 1 1 0.999377
0.999581 1 1.0003 0.999276
0.999092 1 1 0.999092
0.999604 1 1 0.999604
0.99947 1 1 0.99947
0.999658 1 1.00029 0.999371
0.999389 1 1 0.999389
0.999879 1.00059 1 0.999286
0.99997 1.00066 0.999949 0.999358
0.999169 1.00003 1 0.999139
1.00051 1 1.00141 0.999095
0.999518 1 1 0.999518
0.999866 1.00066 1 0.99921
0.999389 1 1 0.999389
0.999697 1 1.00042 0.999272
1.00247 1.00341 0.999722 0.99934
1.00003 1.00093 1 0.999103
1.00154 1 1.00252 0.999016
0.999651 1 1 0.999651
0.999551 1 1 0.999551
0.999472 1 1 0.999472
0.999839 1 1 0.999839
0.999688 1 1 0.999688
0.999562 1 1 0.999562
0.999844 1 1 0.999844
0.999684 1 1 0.999684
0.999492 1 1 0.999492
0.999588 1 1 0.999588
0.999439 1 1 0.999439
0.999489 1 1 0.999489
0.9996 1 1 0.9996
0.999704 1 1 0.999704
0.999843 1 1 0.999843
0.999991 1 1 0.999991
0.999992 1 1 0.999992
1 1 1 1
0.999992 1 1 0.999992
1 1 1 1
1 1 1 1
1 1 1 1
1 1 1 1
1 1 1 1
0.999999 1 1 0.999999
1 1 1 1
1 1 1 1
1 1 1 1
1 1 1 1
1 1 1 1
1 1 1 1
0.999274 1 1 0.999274
0.999449 1.00031 1 0.999144
0.999892 1.00084 1 0.999056
0.99974 1.00071 1 0.999027
1.00064 1.0016 1 0.999041
1.00072 1.00162 1 0.999092
0.999749 1.00053 1 0.999216
1.00072 1.00164 1 0.999083
1.00083 1.0017 1 0.999134
0.999849 1.00061 1 0.999234
0.999707 1.00069 1 0.99902
0.999103 1.00008 1 0.999025
0.999237 1.00008 1 0.99916
0.999507 1 1 0.999507
0.999348 1 1 0.999348
0.999154 1 1.00003 0.999126
1.00045 1.00107 1 0.999381
0.999264 1 1 0.999264
0.999479 1 1 0.999479
0.999432 1 1 0.999432
0.999458 1 1 0.999458
0.999983 1 1 0.999983
0.999796 1 1 0.999796
0.999603 1 1 0.999603
0.999864 1.00082 1 0.999047
0.999992 1 1 0.999992
0.999858 1 1 0.999858
0.999923 1.00088 1 0.999047
1.00129 1.00201 1 0.999282
0.999454 1 1 0.999454
0.999861 1 1.00068 0.99918
0.999676 1 1.00061 0.999066
1.00047 1.00109 1 0.999381
0.999823 1 1 0.999823
0.999636 1 1 0.999636
0.999458 1 1 0.999458
0.999447 1 1.00001 0.999432
0.999348 1 1 0.999348
0.999494 1 1 0.999494
1.00069 1.0016 1 0.999088
1.00189 1.00276 1 0.999129
1.00287 1.00382 0.999601 0.999449
0.999189 1 1 0.999186
0.999878 1 1.00048 0.9994
1.00224 1 1.0032 0.99904
0.999868 1 1 0.999868
0.999845 1 1 0.999845
0.999744 1 1 0.999744
0.999642 1 1 0.999642
0.999532 1 1 0.999532
0.999387 1 1 0.999387
0.999306 1 1.00002 0.999284
0.999438 1 1 0.999438
0.9996 1 1 0.9996
0.999478 1 1 0.999478
0.99997 1.00069 1 0.999277
0.999692 1.00034 1 0.999357
0.999396 1 1 0.999396
0.999685 1 1.0003 0.99938
0.999248 1.00006 1.00003 0.99916
1.00015 1 1.00106 0.999085
0.999517 1 1 0.999517
0.999895 1.00067 1 0.999226
0.99939 1 1 0.99939
0.999897 1 1.00064 0.999258
1.0017 1.00263 0.99974 0.999332
1.00041 1.0013 1 0.999109
1.00154 1 1.00253 0.999017
0.999423 1 1 0.999423
1.00973 1.01111 0.999356 0.999283
0.999324 1 1 0.999324
1.00134 1 1.0022 0.999136
0.999729 1.00337 0.997225 0.999139
1.0011 1.00001 1.00211 0.998972
1.00686 1.00956 0.998117 0.999205
0.999551 1 1 0.999551
0.999471 1 1 0.999471
0.999416 1 1 0.999416
0.999844 1 1 0.999844
0.999683 1 1 0.999683
0.999601 1 1 0.999601
0.999481 1 1 0.999481
0.999843 1 1 0.999843
0.999695 1 1 0.999695
0.999436 1 1 0.999436
0.999599 1 1 0.999599
0.999501 1 1 0.999501
0.999418 1 1 0.999418
0.999529 1 1 0.999529
0.999609 1 1 0.999609
0.999683 1 1 0.999683
0.999818 1 1 0.999818
0.999722 1 1 0.999722
0.999818 1 1 0.999818
0.99999 1 1 0.99999
0.999991 1 1 0.999991
1 1 1 1
0.999991 1 1 0.999991
1 1 1 1
1 1 1 1
1 1 1 1
1 1 1 1
1 1 1 1
1 1 1 1
0.999998 1 1 0.999998
1 1 1 1
1 1 1 1
1 1 1 1
1 1 1 1
1 1 1 1
1 1 1 1
0.9998 1.00057 1 0.99923
1.00089 1.0018 1 0.999084
1.00071 1.00167 1 0.999046
1.00084 1.00176 1 0.999082
1.00078 1.00164 1 0.99914
0.999668 1.00042 1 0.999244
1.00129 1.00213 1 0.999164
1.00674 1.01211 0.995345 0.999349
1.00928 1.01037 0.999574 0.99935
0.9999 1 1 0.9999
0.999752 1.0007 1 0.999052
0.999941 1.00089 1 0.999047
1.00158 1.00232 1 0.999259
0.999466 1 1 0.999466
1.0005 1 1.00134 0.999158
0.999208 1 1.00014 0.999073
1.00004 1.00066 1 0.99938
0.999451 1 1 0.999451
0.999462 1 1 0.999462
0.999333 1 1 0.999333
0.999989 1 1 0.999989
0.999496 1 1 0.999496
0.999848 1 1 0.999848
0.999635 1 1 0.999635
0.999849 1 1 0.999849
1.00055 1.00147 1 0.999084
0.999879 1 1 0.999879
0.999844 1 1 0.999844
0.999725 1 1 0.999725
1.00225 1.00312 1 0.999133
1.00179 1.0029 0.999469 0.999418
0.999728 1 1.00032 0.999407
1.00246 1 1.00343 0.999031
0.999369 1.00002 1.00016 0.999192
0.999655 1 1 0.999655
0.999526 1 1 0.999526
0.999423 1 1 0.999423
0.999409 1 1.00011 0.9993
0.999398 1 1 0.999398
1.00348 1.00435 1.00004 0.999083
1.0027 1.00608 0.997374 0.99927
1.00033 1.00135 0.999716 0.999269
1.00126 1 1.00219 0.999073
1.00206 1 1.00276 0.999308
0.999727 1 1 0.999727
0.999678 1 1 0.999678
0.999621 1 1 0.999621
0.999541 1 1 0.999541
0.999447 1 1 0.999447
0.999326 1 1 0.999326
1.00109 1 1.00183 0.999257
0.999516 1 1 0.999516
0.999391 1 1 0.999391
0.999905 1.00066 1 0.999242
1.00083 1.0018 0.999712 0.999323
1.00077 1.00166 1 0.999115
1.00007 1 1.00083 0.999243
1.00138 1 1.00237 0.999018
0.999432 1 1 0.999432
1.00929 1.01116 0.998857 0.999289
0.999327 1 1 0.999327
1.0012 1 1.00206 0.999138
1.00094 1.00394 0.99784 0.99917
1.00159 1.00002 1.00261 0.998968
1.00866 1.01171 0.997807 0.999182
0.999369 1 1 0.999369
0.9991 1.00876 0.99122 0.9992
0.999784 1 1.0005 0.999289
1.00474 1 1.00568 0.999069
1.00058 1.00049 1.00109 0.999004
0.958548 0.963823 0.998465 0.996055
1.00408 1.00087 1.00477 0.998452
0.991344 1.00982 0.982404 0.999282
0.928095 0.943357 0.985486 0.998312
0.933114 0.966133 0.967009 0.998775
0.999471 1 1 0.999471
0.999419 1 1 0.999419
0.99939 1 1 0.99939
0.999842 1 1 0.999842
0.999686 1 1 0.999686
0.999599 1 1 0.999599
0.999512 1 1 0.999512
0.999433 1 1 0.999433
0.999596 1 1 0.999596
0.999828 1 1 0.999828
0.999692 1 1 0.999692
0.999425 1 1 0.999425
0.999526 1 1 0.999526
0.999538 1 1 0.999538
0.999454 1 1 0.999454
0.999575 1 1 0.999575
0.999679 1 1 0.999679
0.999817 1 1 0.999817
0.999707 1 1 0.999707
0.999614 1 1 0.999614
0.999693 1 1 0.999693
0.999705 1 1 0.999705
0.999836 1 1 0.999836
0.999818 1 1 0.999818
0.999989 1 1 0.999989
0.99999 1 1 0.99999
1 1 1 1
0.99999 1 1 0.99999
1 1 1 1
1 1 1 1
1 1 1 1
1 1 1 1
1 1 1 1
1 1 1 1
1 1 1 1
1 1 1 1
0.999997 1 1 0.999997
1 1 1 1
1 1 1 1
1 1 1 1
1 1 1 1
1 1 1 1
1.00071 1.00156 1 0.999146
1.00091 1.00183 1 0.999082
0.99946 1.00021 1 0.999253
1.00815 1.0121 0.996732 0.999359
1.00128 1.00212 1 0.999162
1.00958 1.01054 0.999739 0.999314
1.00885 1.00976 1.00004 0.999067
0.978744 0.984914 0.995623 0.998104
1.0093 1.01064 0.999227 0.999448
0.999906 1 1 0.999906
0.9999 1 1 0.9999
0.999766 1 1 0.999766
0.999781 1 1 0.999781
1.00043 1.00135 1 0.99908
1.00266 1.00353 1 0.999136
1.00076 1.0019 0.999481 0.999387
0.999414 1 1 0.999414
1.00222 1 1.0032 0.999021
0.999344 1.00002 1.00013 0.999197
0.999408 1 1 0.999408
0.999559 1 1.00024 0.999316
0.999408 1 1 0.999408
0.999844 1 1 0.999844
0.99952 1 1 0.99952
0.999669 1 1 0.999669
0.99989 1 1 0.99989
0.999705 1 1 0.999705
1.00283 1.0037 1.00003 0.9991
0.999746 1 1 0.999746
0.99969 1 1 0.99969
0.99962 1 1 0.99962
1.00384 1.00627 0.998305 0.999276
0.999743 1.00093 0.999541 0.999268
1.00177 1 1.00247 0.999307
1.00117 1 1.0021 0.999064
0.999545 1 1 0.999545
0.999451 1 1 0.999451
1.0004 1 1.00114 0.999257
0.999435 1 1.00012 0.999313
1.01011 1.01103 0.999954 0.999139
1.00211 1.00518 0.997704 0.999235
1.00012 1.00038 1.00073 0.999016
1.00124 1 1.00203 0.999214
0.999584 1 1 0.999584
0.999568 1 1 0.999568
0.999411 1 1 0.999411
1.00156 1 1.00237 0.999197
0.952764 0.963719 0.992666 0.995937
0.999441 1 1 0.999441
0.99933 1 1 0.99933
1.00883 1.01117 0.998393 0.999295
1.00224 1.00447 0.99857 0.999201
1.00221 1 1.00325 0.998963
1.00129 1 1.00215 0.99914
1.01066 1.01373 0.997818 0.999159
0.999375 1 1 0.999375
0.999078 1.00885 0.991117 0.999191
0.999589 1 1.0003 0.999292
1.0046 1 1.00553 0.999073
0.999938 1.0006 1.00033 0.999015
0.957257 0.964303 0.996391 0.996289
0.998429 0.997222 1.00345 0.997766
0.994735 1.01156 0.984042 0.999313
0.934361 0.945924 0.989783 0.997972
0.926091 0.961312 0.964617 0.9987
0.999379 1 1 0.999379
0.935093 0.944571 0.992339 0.997609
0.950399 0.968071 0.98282 0.998906
0.979574 1.00209 0.978327 0.999187
1.00253 1 1.00325 0.99928
1.00902 1 1.00991 0.999125
0.994208 1.01017 0.984853 0.999337
0.96947 0.970715 1.00294 0.995794
1.00693 1.00328 1.00606 0.997593
0.927647 0.950638 0.977558 0.998217
0.972691 0.999203 0.974243 0.999204
0.999423 1 1 0.999423
0.999391 1 1 0.999391
0.999384 1 1 0.999384
0.999839 1 1 0.999839
0.999702 1 1 0.999702
0.999584 1 1 0.999584
0.999522 1 1 0.999522
0.999431 1 1 0.999431
0.999817 1 1 0.999817
0.999538 1 1 0.999538
0.999588 1 1 0.999588
0.99969 1 1 0.99969
0.999443 1 1 0.999443
0.999496 1 1 0.999496
0.999605 1 1.0002 0.999408
0.999589 1 1 0.999589
0.9997 1 1 0.9997
0.999706 1 1 0.999706
0.999601 1 1 0.999601
0.999601 1 1 0.999601
0.999586 1 1 0.999586
0.999534 1 1 0.999534
0.999522 1 1 0.999522
0.999671 1 1 0.999671
0.999692 1 1 0.999692
0.99983 1 1 0.99983
0.999688 1 1 0.999688
0.999827 1 1 0.999827
0.999988 1 1 0.999988
0.999818 1 1 0.999818
0.999989 1 1 0.999989
1 1 1 1
0.999989 1 1 0.999989
1 1 1 1
1 1 1 1
1 1 1 1
1 1 1 1
1 1 1 1
0.999902 1 1 0.999902
1 1 1 1
1 1 1 1
1 1 1 1
0.999999 1 1 0.999999
1 1 1 1
1 1 1 1
1 1 1 1
1 1 1 1
1 1 1 1
1.00969 1.01246 0.997892 0.999369
1.0013 1.00215 1 0.999159
1.00983 1.01069 0.999876 0.999279
0.980388 0.98446 0.997329 0.998531
1.00952 1.01045 0.999624 0.999461
1.00944 1.01036 1.00003 0.999052
1.0124 1.01163 1.00159 0.999173
0.986182 0.986526 1.00123 0.998421
0.960916 0.966943 0.998495 0.995265
0.920933 0.943152 0.978999 0.997388
0.928187 0.958519 0.969555 0.998763
0.99976 1 1 0.99976
0.999906 1 1 0.999906
0.999899 1 1 0.999899
0.99976 1 1 0.99976
0.999671 1 1 0.999671
0.999692 1 1 0.999692
0.999765 1 1 0.999765
0.999772 1 1 0.999772
1.00205 1.00291 1.00003 0.999116
1.00497 1.00657 0.999126 0.999283
0.999242 1.00066 0.999317 0.999267
1.00181 1 1.00251 0.999305
1.00153 1 1.00248 0.999055
0.999734 1 1.00048 0.999257
0.999518 1 1.00022 0.999301
0.999456 1 1 0.999456
0.999701 1 1 0.999701
0.999549 1 1 0.999549
0.999766 1 1 0.999766
0.999618 1 1 0.999618
1.01038 1.01181 0.999465 0.999118
0.999591 1 1 0.999591
0.999569 1 1 0.999569
1.00106 1.00456 0.997283 0.999232
0.999948 1.00049 1.0004 0.999051
1.00185 1 1.00266 0.999191
0.999405 1 1 0.999405
1.00142 1 1.00222 0.9992
1.00336 1.01331 0.991091 0.999076
0.998892 1.00093 0.998882 0.999082
1.00014 1 1.00103 0.999109
1.00428 1 1.0051 0.999182
0.99951 1 1 0.99951
0.999444 1 1 0.999444
0.999824 1 1.00054 0.999281
0.929233 0.946634 0.983568 0.998017
0.959356 0.965575 0.997415 0.996135
0.999381 1 1 0.999381
0.999294 1 1 0.999294
0.999479 1.00914 0.991239 0.999182
0.999196 1.00074 0.999435 0.999027
1.00421 1 1.00514 0.999077
0.958519 0.964993 0.998058 0.995225
0.998434 0.99787 1.00213 0.99844
0.998152 1.01356 0.985451 0.999342
0.928908 0.946187 0.98415 0.997549
0.918521 0.955971 0.962149 0.998624
0.999378 1 1 0.999378
0.929145 0.946737 0.983288 0.998099
0.952377 0.966161 0.986801 0.998918
0.981536 1.00227 0.980121 0.999176
1.00208 1 1.0028 0.999285
1.00823 1 1.0091 0.99914
0.9888 1.00745 0.982145 0.99933
0.971082 0.972557 1.00301 0.995488
1.00177 0.998595 1.00488 0.99831
0.929357 0.950539 0.980178 0.997488
0.967112 0.996912 0.970946 0.999137
0.999365 1 1 0.999365
0.967415 0.970625 0.997493 0.999198
1.01357 1.01611 0.997914 0.999578
0.987796 1 0.988465 0.999323
1.00722 1 1.00781 0.999418
1.0085 1.00355 1.0053 0.999633
0.996258 0.995158 1.00218 0.998931
0.97506 0.972965 1.00655 0.995635
0.947181 0.971772 0.977182 0.997454
0.993015 1.01701 0.976997 0.999398
0.999392 1 1 0.999392
0.999376 1 1 0.999376
0.99981 1 1.00042 0.999389
0.999817 1 1 0.999817
0.999701 1 1 0.999701
0.999602 1 1 0.999602
0.999539 1 1 0.999539
0.999432 1 1 0.999432
0.9997 1 1 0.9997
0.999505 1 1 0.999505
0.999589 1 1 0.999589
0.999649 1 1.00024 0.999404
0.999946 1 1.00055 0.999392
0.999566 1 1.00009 0.99948
0.999594 1 1 0.999594
0.999706 1 1 0.999706
0.999587 1 1 0.999587
0.999601 1 1 0.999601
0.999586 1 1 0.999586
0.999531 1 1 0.999531
0.999557 1 1 0.999557
0.999526 1 1 0.999526
0.999488 1 1 0.999488
0.999443 1 1 0.999443
0.999437 1 1 0.999437
0.999498 1 1 0.999498
0.999523 1 1 0.999523
0.999642 1 1 0.999642
0.99967 1 1 0.99967
0.999816 1 1 0.999816
0.999692 1 1 0.999692
0.999829 1 1 0.999829
0.999985 1 1 0.999985
0.999818 1 1 0.999818
0.999987 1 1 0.999987
1 1 1 1
0.999988 1 1 0.999988
1 1 1 1
1 1 1 1
1 1 1 1
1 1 1 1
1 1 1 1
0.999911 1 1 0.999911
1 1 1 1
0.999903 1 1 0.999903
1 1 1 1
1 1 1 1
1 1 1 1
1 1 1 1
1 1 1 1
1 1 1 1
1 1 1 1
1 1 1 1
0.929984 0.944723 0.986127 0.998248
0.954638 0.966698 0.988418 0.999096
0.983437 0.98512 0.999429 0.998862
1.00958 1.01026 0.99985 0.999474
1.01009 1.01103 1.00003 0.999037
0.985773 0.985026 1.00158 0.999178
1.01137 1.0114 1.0008 0.99918
0.96362 0.969057 0.99829 0.996092
0.928613 0.944145 0.9853 0.998223
0.923748 0.957989 0.965519 0.998693
1.00056 0.997991 1.00317 0.999404
0.970297 0.972157 1.00211 0.995983
0.92529 0.949506 0.976253 0.9982
0.967954 0.993792 0.974967 0.999009
0.999636 1 1 0.999636
0.999768 1 1 0.999768
0.999906 1 1 0.999906
0.999754 1 1 0.999754
0.999681 1 1 0.999681
0.999652 1 1 0.999652
0.999694 1 1 0.999694
0.999711 1 1 0.999711
0.999753 1 1 0.999753
0.999764 1 1 0.999764
1.0107 1.01259 0.999025 0.999098
1.00013 1.00385 0.997063 0.999229
0.999773 1.00055 1.00013 0.999087
1.00222 1 1.00306 0.999167
1.0012 1 1.00199 0.999204
0.999399 1 1 0.999399
0.99957 1 1 0.99957
0.999599 1 1 0.999599
1.00477 1.01331 0.992518 0.999047
0.999504 1 1 0.999504
0.99943 1 1 0.99943
0.998582 1.00058 0.998946 0.999053
1.00048 1 1.00133 0.999144
1.00335 1 1.00419 0.999165
1.0004 1 1.00112 0.999273
1.00663 1.01275 0.99501 0.998949
1.00435 1 1.00512 0.999237
1.00394 1 1.00476 0.999187
0.999496 1 1 0.999496
0.999411 1 1 0.999411
0.999312 1 1 0.999312
0.966947 0.972292 0.995377 0.999122
0.931714 0.945851 0.987551 0.997471
0.956303 0.965399 0.994638 0.995918
0.999377 1 1 0.999377
1.00173 1 1.00244 0.99929
0.983456 1.00238 0.981943 0.999166
1.00765 1 1.0085 0.999155
0.927387 0.946709 0.982101 0.997443
0.969637 0.97181 1.00119 0.996579
1.00309 0.999786 1.00567 0.997641
0.986896 1.00508 0.98257 0.99933
0.932828 0.950197 0.983394 0.998299
0.952545 0.966439 0.986752 0.998857
0.959556 0.99144 0.968786 0.999024
0.999363 1 1 0.999363
0.964134 0.970521 0.994283 0.999131
1.0132 1.01584 0.997815 0.999583
0.990835 1 0.991498 0.999331
1.00737 1 1.00795 0.999421
1.00781 1.00315 1.0054 0.999247
0.997197 0.995653 1.00364 0.997921
0.973591 0.974483 1.00357 0.995529
0.952403 0.974652 0.978728 0.99841
0.985758 1.01046 0.976248 0.999293
0.999749 1 1.00021 0.99954
1.01935 1.01987 0.999791 0.999697
1.02381 1.02672 0.997399 0.999765
1.00796 1 1.00825 0.999717
0.997693 0.9917 1.00654 0.999504
0.980695 0.979042 1.00619 0.995523
0.975861 0.990382 0.986804 0.998515
0.987457 1.01272 0.975773 0.999262
0.999368 1 1 0.999368
0.999759 1 1.00036 0.999404
1.00076 1 1.0013 0.999461
0.9997 1 1 0.9997
0.999589 1 1 0.999589
0.999515 1 1 0.999515
0.999682 1 1.00028 0.9994
0.999594 1 1 0.999594
0.999511 1 1.00003 0.99948
1.00033 1 1.00093 0.999394
1.00032 1 1.00086 0.99946
0.999618 1 1.00021 0.999406
0.999514 1 1 0.999514
0.999601 1 1 0.999601
0.999585 1 1 0.999585
0.999528 1 1 0.999528
0.999527 1 1 0.999527
0.999557 1 1 0.999557
0.999492 1 1 0.999492
0.999461 1 1 0.999461
0.999462 1 1 0.999462
0.999412 1 1 0.999412
0.999446 1 1 0.999446
0.999419 1 1 0.999419
0.999371 1 1 0.999371
0.999523 1 1 0.999523
0.999468 1 1 0.999468
0.99951 1 1 0.99951
0.999599 1 1 0.999599
0.999523 1 1 0.999523
0.999642 1 1 0.999642
0.999795 1 1 0.999795
0.999669 1 1 0.999669
0.999816 1 1 0.999816
0.999982 1 1 0.999982
0.999829 1 1 0.999829
0.999984 1 1 0.999984
1 1 1 1
0.999987 1 1 0.999987
1 1 1 1
1 1 1 1
1 1 1 1
1 1 1 1
1 1 1 1
0.999866 1 1 0.999866
1 1 1 1
0.999892 1 1 0.999892
1 1 1 1
1 1 1 1
0.999903 1 1 0.999903
1 1 1 1
1 1 1 1
1 1 1 1
1 1 1 1
1 1 1 1
1 1 1 1
0.968195 0.971322 0.997508 0.99927
0.930237 0.944448 0.987114 0.997811
1.01206 1.01629 0.996278 0.999559
0.951418 0.964898 0.986975 0.999042
0.981825 0.983685 0.999806 0.998303
1.01043 1.01121 1.00004 0.999188
0.964777 0.968851 0.99885 0.996941
0.926582 0.945463 0.982545 0.99744
0.919276 0.957553 0.96135 0.998623
0.998068 0.998815 1.00019 0.999067
0.97012 0.970742 1.0036 0.995777
0.92741 0.953008 0.97564 0.997438
0.968466 0.994156 0.975129 0.999005
1.00046 1.0036 0.997676 0.999194
0.970606 0.970864 1.00415 0.995599
0.955724 0.977019 0.979811 0.99836
0.990715 1.01508 0.976657 0.999325
0.999561 1 1 0.999561
0.999648 1 1 0.999648
0.999777 1 1 0.999777
0.999692 1 1 0.999692
0.999582 1 1 0.999582
0.999661 1 1 0.999661
0.999696 1 1 0.999696
0.999696 1 1 0.999696
0.999723 1 1 0.999723
0.999742 1 1 0.999742
1.00638 1.01364 0.993813 0.999018
0.997938 1.00022 0.998697 0.999025
1.00077 1 1.00159 0.999179
1.00266 1 1.00352 0.999147
1.00103 1 1.00176 0.999266
0.999415 1 1 0.999415
0.999499 1 1 0.999499
0.999497 1 1 0.999497
1.0037 1.01039 0.99441 0.998968
0.999419 1 1 0.999419
0.9994 1 1.00009 0.99931
1.00298 1 1.00378 0.9992
1.0038 1 1.00462 0.999188
0.998548 1.0105 0.989016 0.99915
1.01549 1 1.01613 0.999366
1.00004 1 1.00078 0.999261
0.999431 1 1 0.999431
0.999312 1 1 0.999312
1.02113 1.02164 0.999768 0.999732
0.967889 0.971649 0.996916 0.999212
0.931366 0.946683 0.985581 0.998213
0.999361 1 1 0.999361
1.0073 1 1.00788 0.999424
0.992534 1 0.99319 0.999339
0.968216 0.97134 0.997532 0.99925
0.973399 0.972083 1.00591 0.995472
0.998668 0.995787 1.00415 0.998744
1.00271 1.002 1.00187 0.998837
0.94858 0.971255 0.979145 0.997457
1.01302 1.01577 0.997703 0.999587
0.983715 1.00807 0.976519 0.999306
0.999689 1 1.00014 0.999553
1.0197 1.02004 0.999921 0.999747
1.02467 1.0279 0.997088 0.999769
1.00764 0.999985 1.00805 0.999607
0.998084 0.993744 1.00517 0.999202
0.984357 0.981087 1.00794 0.995432
0.991146 1.01721 0.975007 0.999352
0.966606 0.984001 0.984232 0.998059
0.999975 1 1.00026 0.999711
1.02567 1.02745 0.998346 0.999916
1.0271 1.02994 0.997446 0.999792
0.991634 1.01424 0.978371 0.999328
1.00513 0.993503 1.01189 0.999818
0.981949 0.979856 1.00631 0.99585
0.961266 0.97686 0.985627 0.998386
0.999686 1 1.00027 0.999419
1.00052 1 1.00109 0.999425
1.00312 1 1.00355 0.999568
0.999594 1 1 0.999594
0.999481 1 1 0.999481
1.00077 1 1.00138 0.999397
0.999517 1 1 0.999517
0.99973 1 1.00033 0.999405
1.0007 1 1.00126 0.999435
0.999859 1 1.00035 0.999505
0.999431 1 1 0.999431
0.999529 1 1 0.999529
0.999557 1 1 0.999557
0.999497 1 1 0.999497
0.999462 1 1 0.999462
0.999464 1 1 0.999464
0.999433 1 1 0.999433
0.999435 1 1 0.999435
1.00035 1 1.00106 0.999291
0.99945 1 1 0.99945
0.999427 1 1.00001 0.999416
0.999275 1 1 0.999275
0.999381 1 1 0.999381
0.999503 1 1 0.999503
0.999373 1 1 0.999373
0.999594 1 1 0.999594
0.999514 1 1 0.999514
0.999499 1 1 0.999499
0.999522 1 1 0.999522
0.999609 1 1 0.999609
0.999767 1 1 0.999767
0.999642 1 1 0.999642
0.999794 1 1 0.999794
0.999976 1 1 0.999976
0.999815 1 1 0.999815
0.99998 1 1 0.99998
1 1 1 1
0.999984 1 1 0.999984
1 1 1 1
1 1 1 1
1 1 1 1
1 1 1 1
1 1 1 1
0.999808 1 1 0.999808
0.999973 1 1 0.999973
0.999865 1 1 0.999865
1 1 1 1
0.999989 1 1 0.999989
0.999872 1 1 0.999872
1 1 1 1
1 1 1 1
1 1 1 1
1 1 1 1
1 1 1 1
1 1 1 1
1.01977 1.0204 0.999662 0.999715
0.962876 0.970781 0.992762 0.999088
0.932875 0.944641 0.989977 0.997543
0.999651 1 1 0.999651
1.02618 1.02902 0.997425 0.999816
1.01302 1.01663 0.99689 0.999563
0.94632 0.964736 0.981984 0.998907
0.996402 0.999553 0.99815 0.998695
0.970897 0.971501 1.00347 0.995922
0.931396 0.956157 0.975817 0.998245
0.966422 0.991908 0.975354 0.998926
1.00214 1.00662 0.997285 0.998263
0.971554 0.971163 1.00472 0.995705
0.956815 0.977023 0.981303 0.997976
0.98823 1.01357 0.97574 0.999243
0.995787 0.998068 0.999815 0.997898
0.977189 0.974007 1.00855 0.994758
0.967348 0.986611 0.98279 0.997646
0.988413 1.0148 0.974727 0.999248
0.999489 1 1 0.999489
0.999554 1 1 0.999554
0.99966 1 1 0.99966
0.999567 1 1 0.999567
0.999596 1 1 0.999596
0.99967 1 1 0.99967
0.9997 1 1 0.9997
0.999735 1 1 0.999735
1.00067 1.00784 0.993894 0.998987
1.00156 1 1.0024 0.999163
0.999499 1 1 0.999499
1.00356 1 1.00438 0.999189
0.999474 1 1.00017 0.999308
0.999427 1 1 0.999427
0.999433 1 1 0.999433
1.00215 1.00964 0.993412 0.999159
0.999323 1 1 0.999323
1.00086 1 1.0016 0.999255
1.01345 1 1.01411 0.999348
0.999435 1 1 0.999435
0.997293 1.0026 0.995159 0.999544
1.01308 1 1.01363 0.999457
0.999331 1 1 0.999331
0.99937 1 1 0.99937
1.02624 1.02703 0.999312 0.999923
1.02056 1.02111 0.999723 0.999737
0.968767 0.970845 0.998555 0.999304
0.999567 1 1 0.999567
1.00809 0.999979 1.00862 0.999499
1.02013 1.02035 0.999995 0.999796
0.980012 0.976107 1.0085 0.995534
1.00191 0.995603 1.00807 0.998277
0.966297 0.984814 0.983501 0.997657
1.02528 1.0288 0.996807 0.999772
0.99533 1.02222 0.974234 0.999443
1.00015 1 1.00047 0.999678
1.02625 1.02811 0.998278 0.999916
1.02738 1.02999 0.997638 0.999829
1.0064 0.994749 1.01179 0.999931
0.988318 1.01244 0.976915 0.999243
0.980842 0.980583 1.00428 0.996005
0.963379 0.981256 0.984186 0.997557
1.00607 0.997724 1.0086 0.999771
1.02402 1.02599 0.998144 0.999937
1.02707 1.02929 0.998035 0.999813
0.967774 0.993756 0.974809 0.999022
0.965544 0.985242 0.982317 0.997649
1.00069 0.991411 1.00923 1.00013
0.977912 0.974721 1.00762 0.995686
1.00028 1 1.00089 0.999389
1.00223 1 1.00268 0.999552
1.0122 1 1.01262 0.999581
0.999519 1 1 0.999519
0.999769 1 1.00037 0.999403
1.00095 1 1.00154 0.999411
0.99943 1 1 0.99943
0.999936 1 1.00043 0.999503
1.00281 1 1.00337 0.999438
0.999462 1 1 0.999462
0.999467 1 1 0.999467
0.999602 1 1.00018 0.999423
1.00231 1 1.00301 0.999297
0.999458 1 1 0.999458
1.00001 1 1.0007 0.999313
1.00094 1 1.00178 0.99917
0.999277 1 1.00005 0.999227
0.999437 1 1.00002 0.999412
0.99927 1 1.00002 0.999254
0.999438 1 1 0.999438
0.99948 1 1 0.99948
0.999397 1 1 0.999397
0.999588 1 1 0.999588
0.999501 1 1 0.999501
0.999375 1 1 0.999375
0.999741 1 1 0.999741
0.99959 1 1 0.99959
0.999506 1 1 0.999506
0.99962 1 1 0.99962
0.999767 1 1 0.999767
0.999966 1 1 0.999966
0.999794 1 1 0.999794
0.999974 1 1 0.999974
1 1 1 1
0.999979 1 1 0.999979
1 1 1 1
1 1 1 1
1 1 1 1
1 1 1 1
1 1 1 1
0.99978 1 1 0.99978
0.999956 1 1 0.999956
0.999819 1 1 0.999819
1 1 1 1
0.999972 1 1 0.999972
0.999864 1 1 0.999864
1 1 1 1
1 1 1 1
0.999979 1 1 0.999979
1 1 1 1
1 1 1 1
1 1 1 1
1.02697 1.02797 0.999119 0.999911
1.01971 1.02053 0.999473 0.999719
0.963763 0.970689 0.993765 0.999095
0.999656 1 1 0.999656
0.999623 1 1 0.999623
0.99957 1 1 0.99957
1.02615 1.02913 0.997318 0.999791
1.02693 1.02941 0.997777 0.999819
1.01448 1.01698 0.997973 0.999567
1.00854 1.00975 0.999737 0.999061
0.971992 0.970928 1.00546 0.995657
0.952635 0.973775 0.980794 0.997447
0.98962 1.01568 0.975029 0.999293
0.991731 0.995857 0.997102 0.998751
0.976282 0.973985 1.00679 0.995595
0.969471 0.985696 0.985108 0.998408
0.991396 1.01857 0.973964 0.999345
0.982832 0.989107 0.994855 0.998794
0.982415 0.976421 1.01043 0.995751
0.966448 0.980696 0.987117 0.998333
0.991279 1.01549 0.976756 0.999392
0.999471 1 1 0.999471
0.999488 1 1 0.999488
0.999546 1 1 0.999546
0.999565 1 1 0.999565
0.999611 1 1 0.999611
0.999704 1 1 0.999704
1.00619 1.00883 0.998215 0.999169
1.01132 1 1.01199 0.99933
0.999435 1 1 0.999435
1.00156 1 1.00231 0.999249
0.999333 1 1 0.999333
0.999431 1 1 0.999431
0.999367 1 1 0.999367
1.00123 1.00384 0.99787 0.999535
0.999349 1 1 0.999349
1.01263 0.999052 1.01412 0.999481
0.999408 1 1 0.999408
1.01736 0.996416 1.02127 0.999754
0.997948 0.997889 1.00044 0.999623
0.999351 1 1 0.999351
1.02253 1.02356 0.99904 0.999952
1.02561 1.02649 0.99921 0.999929
1.01995 1.02057 0.99965 0.999742
1.00035 1 1.00071 0.999644
1.00167 0.994406 1.00732 0.999982
1.02677 1.02868 0.998226 0.999916
0.988445 0.984258 1.00679 0.997477
0.971156 0.985438 0.986994 0.998494
1.02793 1.03011 0.998015 0.999867
0.990245 1.01462 0.976669 0.999294
1.00501 0.998367 1.00687 0.999788
1.02364 1.02525 0.998493 0.999941
1.02799 1.02968 0.998548 0.999816
1.00187 0.990196 1.0127 0.999099
0.967701 0.994237 0.974271 0.999014
0.967024 0.984442 0.98388 0.998401
0.982612 0.977941 1.0089 0.995909
1.02441 0.998818 1.02574 0.999889
1.02701 1.0278 0.999325 0.999909
1.01389 1.01755 0.996848 0.999553
0.927642 0.95778 0.969728 0.998769
0.953618 0.97548 0.979158 0.998397
0.987052 0.979774 1.01167 0.995804
0.980662 0.987931 0.993827 0.998809
1.00121 1 1.00167 0.999537
1.01327 1 1.01369 0.999586
1.0195 1 1.01998 0.999531
0.99943 1 1 0.99943
1.00005 1 1.00055 0.999501
1.00225 1 1.00281 0.999447
1.01068 1 1.01137 0.999311
0.999733 1 1.00032 0.999414
1.00249 1 1.00322 0.999273
1.00629 1 1.0072 0.999096
0.999688 1 1.00035 0.999335
1.00147 1 1.00231 0.999166
1.00185 1 1.0028 0.999062
0.999181 1 1.00006 0.999123
0.999369 1 1 0.999369
0.99935 1 1.00014 0.999212
0.999263 1 1.00003 0.999234
0.999498 1 1 0.999498
0.999456 1 1 0.999456
0.999552 1 1 0.999552
0.999492 1 1 0.999492
0.999413 1 1 0.999413
0.999716 1 1 0.999716
0.999589 1 1 0.999589
0.999499 1 1 0.999499
0.999952 1 1 0.999952
0.999741 1 1 0.999741
0.999586 1 1 0.999586
0.999767 1 1 0.999767
0.999964 1 1 0.999964
1 1 1 1
0.999972 1 1 0.999972
1 1 1 1
1 1 1 1
1 1 1 1
1 1 1 1
1 1 1 1
0.999776 1 1 0.999776
0.999971 1 1 0.999971
0.999789 1 1 0.999789
1 1 1 1
0.999971 1 1 0.999971
0.99983 1 1 0.99983
1 1 1 1
1 1 1 1
0.999972 1 1 0.999972
1 1 1 1
1 1 1 1
1 1 1 1
1.02426 1.0259 0.998468 0.999935
1.02717 1.02825 0.999037 0.999911
1.01948 1.02061 0.999175 0.999722
0.999611 1 1 0.999611
0.999553 1 1 0.999553
0.999661 1 1 0.999661
0.999621 1 1 0.999621
0.999558 1 1 0.999558
0.999549 1 1 0.999549
0.9995 1 1 0.9995
1.02253 1.02506 0.997775 0.999764
1.02664 1.02948 0.997419 0.999828
1.02733 1.0298 0.997777 0.999822
0.995335 1.02303 0.97347 0.999441
0.992292 0.998675 0.995665 0.997934
0.979268 0.975485 1.00752 0.996388
0.969456 0.982207 0.989476 0.997515
0.984796 0.98938 0.997044 0.998318
0.980952 0.977824 1.00757 0.995661
0.968748 0.985305 0.985599 0.997562
0.986064 1.01076 0.976285 0.999267
0.97666 0.982776 0.994616 0.999156
0.976596 0.97943 1.00153 0.995585
0.981935 0.994546 0.988859 0.998444
0.973181 0.997876 0.97604 0.999193
0.999456 1 1 0.999456
0.999469 1 1 0.999469
0.999488 1 1 0.999488
0.999564 1 1 0.999564
1.00448 1.00489 1.00007 0.999525
1.01245 0.998004 1.01497 0.999506
0.999427 1 1 0.999427
0.999365 1 1 0.999365
0.999367 1 1 0.999367
0.99941 1 1 0.99941
0.999341 1 1 0.999341
1.00867 0.994277 1.01473 0.999748
0.999015 0.998907 1.00044 0.99967
0.999367 1 1 0.999367
1.01665 0.989813 1.02718 0.999939
1.00335 1 1.00395 0.999406
1.02675 1.02719 0.999645 0.99992
1.02081 1.02168 0.999185 0.999958
1.02508 1.02597 0.999198 0.999936
1.00384 0.998933 1.00511 0.999805
1.00313 0.990108 1.01307 1.00008
1.02327 1.02456 0.998792 0.999945
0.977749 0.974646 1.00751 0.995702
0.965885 0.980116 0.987926 0.997524
1.02846 1.03007 0.998619 0.999819
0.965901 0.991713 0.975004 0.998942
1.02635 0.99791 1.02863 0.999873
1.02712 1.02805 0.999189 0.999909
1.0151 1.01791 0.997682 0.999557
0.985126 0.99064 0.994551 0.999883
0.922945 0.957239 0.965428 0.9987
0.952899 0.974012 0.980273 0.998012
0.989086 0.980131 1.0131 0.996088
1.01287 0.9971 1.01598 0.999834
1.02044 1.0207 1.00004 0.99971
0.95487 0.966968 0.988376 0.999103
0.924245 0.947891 0.976808 0.998204
0.980105 0.975541 1.00903 0.995689
0.97926 0.988766 0.992044 0.99833
1.01446 1 1.01487 0.99959
1.02018 1 1.02066 0.999527
1.01486 1 1.01543 0.999431
1.00175 1 1.0023 0.999456
1.01114 1 1.01181 0.999333
1.00854 1 1.00945 0.999101
1.00279 1 1.00354 0.999249
1.00634 1 1.00728 0.999075
1.00337 1 1.00441 0.99896
1.00201 1 1.00285 0.999162
1.00165 1 1.00261 0.999042
1.00096 1 1.00196 0.999004
0.999099 1 1 0.999099
0.999251 1 1 0.999251
0.999279 1 1.00017 0.999104
0.99946 1 1 0.99946
0.999381 1 1 0.999381
0.999418 1 1.00022 0.999198
0.999529 1 1 0.999529
0.999493 1 1 0.999493
0.999474 1 1 0.999474
0.999679 1 1 0.999679
0.99956 1 1 0.99956
0.999503 1 1 0.999503
0.999927 1 1 0.999927
0.999716 1 1 0.999716
0.99959 1 1 0.99959
1 1 1 1
0.999949 1 1 0.999949
0.999742 1 1 0.999742
0.999961 1 1 0.999961
1 1 1 1
1 1 1 1
1 1 1 1
1 1 1 1
1 1 1 1
0.999611 1 1 0.999611
0.999752 1 1 0.999752
0.999961 1 1 0.999961
0.999776 1 1 0.999776
1 1 1 1
0.999974 1 1 0.999974
0.999798 1 1 0.999798
1 1 1 1
1 1 1 1
0.999985 1 1 0.999985
1 1 1 1
1 1 1 1
1 1 1 1
1.02612 1.02689 0.999336 0.999914
1.02395 1.02519 0.998852 0.999939
1.0274 1.02854 0.998978 0.999911
0.999616 1 1 0.999616
0.999545 1 1 0.999545
0.999525 1 1 0.999525
0.99954 1 1 0.99954
0.999509 1 1 0.999509
0.999619 1 1 0.999619
0.999547 1 1 0.999547
0.99955 1 1 0.99955
0.999498 1 1 0.999498
0.999499 1 1 0.999499
1.01303 1.0143 0.999178 0.99957
1.02336 1.02617 0.997493 0.999768
1.02683 1.02958 0.997465 0.999865
0.983573 1.00814 0.976327 0.999283
0.974229 0.987389 0.988188 0.998466
0.98297 0.987534 0.997487 0.997886
0.979526 0.97971 1.00407 0.995761
0.980659 0.983014 0.999385 0.998218
0.980903 0.979044 1.00621 0.995716
0.971718 0.988098 0.985381 0.998012
0.968708 0.995833 0.973612 0.999127
0.995383 0.982073 1.01509 0.998484
0.978688 0.980581 1.00223 0.99585
0.948985 0.972586 0.978208 0.997471
0.93401 0.9667 0.967377 0.998767
0.999543 1 1 0.999543
0.999457 1 1 0.999457
0.999467 1 1 0.999467
1.00083 0.992669 1.00848 0.999742
1.00013 1 1.00041 0.99972
0.999411 1 1 0.999411
0.999332 1 1 0.999332
0.999409 1 1.00003 0.999375
1.00384 1 1.00444 0.999404
1.0163 0.991384 1.02519 0.999942
1.00378 1 1.00435 0.999425
1.01119 0.997506 1.01406 0.999666
1.02051 1.02079 1 0.999724
1.02602 1.02651 0.999593 0.999928
1.01903 1.0198 0.999277 0.999963
1.02815 0.997081 1.03131 0.999855
0.983957 0.989759 0.995532 0.998599
1.02728 1.0283 0.999098 0.99991
0.980718 0.978053 1.00794 0.994822
0.950435 0.972177 0.980069 0.997518
1.01678 1.0183 0.998948 0.999561
0.918869 0.957047 0.961425 0.998631
1.01333 0.997553 1.01598 0.999838
1.02045 1.02085 0.999899 0.999713
0.951679 0.964978 0.987158 0.999048
0.976706 0.988405 0.989288 0.998863
0.927303 0.951987 0.97655 0.997462
0.979168 0.976418 1.00765 0.9952
0.993909 0.996694 0.997579 0.999625
0.968212 0.97131 0.997533 0.999276
0.921631 0.942555 0.980346 0.997404
0.974587 0.97294 1.0061 0.99562
0.997052 0.995494 1.0027 0.998873
1.02042 1 1.02091 0.999524
1.01743 1 1.01801 0.999429
0.996375 1 0.997124 0.999249
1.01142 1 1.01208 0.999354
1.00808 1 1.00897 0.99912
1.00166 1 1.00266 0.999003
1.00628 1 1.00723 0.999055
1.003 1 1.00404 0.998963
0.999064 1 1.00003 0.99903
1.00143 1 1.00241 0.999023
1.00049 1 1.00148 0.999012
0.999115 1 1 0.999115
0.999189 1 1 0.999189
0.999187 1 1 0.999187
0.999104 1 1 0.999104
0.999368 1 1 0.999368
0.999234 1 1 0.99923
0.999379 1 1.00029 0.999085
0.999531 1 1 0.999531
0.999474 1 1 0.999474
0.999392 1 1 0.999392
0.999639 1 1 0.999639
0.999531 1 1 0.999531
0.999489 1 1 0.999489
0.999889 1 1 0.999889
0.999679 1 1 0.999679
0.999569 1 1 0.999569
1 1 1 1
0.999926 1 1 0.999926
0.999717 1 1 0.999717
1 1 1 1
1 1 1 1
0.999947 1 1 0.999947
1 1 1 1
1 1 1 1
1 1 1 1
0.999583 1 1 0.999583
0.999727 1 1 0.999727
0.999605 1 1 0.999605
0.999952 1 1 0.999952
0.999751 1 1 0.999751
1 1 1 1
0.999964 1 1 0.999964
0.999775 1 1 0.999775
1 1 1 1
1 1 1 1
0.999977 1 1 0.999977
1 1 1 1
1 1 1 1
1 1 1 1
1.01887 1.0191 1 0.999776
1.02694 1.02774 0.999312 0.999914
1.02363 1.02452 0.999182 0.999944
0.999531 1 1 0.999531
0.99962 1 1 0.99962
0.999538 1 1 0.999538
0.999548 1 1 0.999548
0.999532 1 1 0.999532
0.999508 1 1 0.999508
0.999486 1 1 0.999486
0.999493 1 1 0.999493
0.999551 1 1 0.999551
0.999496 1 1 0.999496
0.999498 1 1 0.999498
0.999488 1 1 0.999488
0.952899 0.968648 0.984832 0.998892
1.01237 1.01374 0.99907 0.999574
1.02451 1.02752 0.997295 0.999771
0.962132 0.991685 0.971175 0.998995
0.973634 0.990374 0.985423 0.997639
0.975658 0.978741 1.00126 0.9956
0.982665 0.980278 1.0032 0.999236
0.994843 0.980485 1.01519 0.999461
0.927625 0.961743 0.965778 0.998703
0.981828 0.979431 1.00722 0.995266
0.949682 0.97259 0.978067 0.998343
0.99141 0.988697 1.0033 0.999446
0.976108 0.974961 1.00521 0.99599
0.925524 0.948294 0.97774 0.998209
1.00008 1 1.00041 0.999675
0.999544 1 1 0.999544
0.999458 1 1 0.999458
1.01586 0.993007 1.02308 0.99994
1.00446 1 1.00506 0.999403
0.999434 1 1.00005 0.999384
1.00407 1 1.00465 0.999428
1.01064 0.998473 1.01251 0.999678
1.00905 0.99999 1.00939 0.999679
0.966707 0.971799 0.99572 0.999035
1.02028 1.02053 0.999986 0.999774
1.02539 1.02585 0.999616 0.999935
1.01378 0.998011 1.01596 0.999843
0.978529 0.990791 0.988368 0.999248
1.02029 1.02092 0.999666 0.999717
0.98131 0.97765 1.00727 0.996497
0.931301 0.954954 0.976936 0.998254
0.946317 0.964914 0.981792 0.998914
0.993587 0.997307 0.996624 0.999645
0.962423 0.970552 0.992525 0.999093
0.929549 0.943192 0.98727 0.998242
0.996395 0.99321 1.00521 0.998005
0.976086 0.975506 1.00492 0.995697
0.986983 1.00462 0.982971 0.999465
0.929701 0.944701 0.985833 0.998264
0.973083 0.972902 1.00432 0.995888
1.003 1.00256 1.00257 0.997879
1.02092 1 1.02151 0.999427
0.993405 1 0.994138 0.999263
0.987985 1.00023 0.988532 0.999216
1.00782 1 1.00869 0.999138
1.00168 1.00003 1.00264 0.999006
0.999647 1.00047 1 0.999175
1.00266 1 1.0037 0.998966
0.999358 1 1.00032 0.999041
0.99938 1.00012 1 0.999261
1.00003 1 1.00101 0.99902
0.999121 1 1 0.999121
0.999307 1 1 0.999307
0.999337 1 1 0.999337
0.999223 1 1 0.999223
0.999205 1 1 0.999205
0.999294 1 1 0.999294
0.999201 1 1 0.999201
0.99911 1 1 0.99911
0.99949 1 1 0.99949
0.999368 1 1 0.999368
0.999219 1 1.00001 0.999208
0.999619 1 1 0.999619
0.99953 1 1 0.99953
0.999488 1 1 0.999488
0.999842 1 1 0.999842
0.999641 1 1 0.999641
0.999533 1 1 0.999533
1 1 1 1
0.999888 1 1 0.999888
0.999679 1 1 0.999679
1 1 1 1
1 1 1 1
0.999925 1 1 0.999925
1 1 1 1
1 1 1 1
1 1 1 1
0.999588 1 1 0.999588
0.999586 1 1 0.999586
0.999701 1 1 0.999701
0.99994 1 1 0.99994
0.999727 1 1 0.999727
0.999599 1 1 0.999599
1 1 1 1
0.999954 1 1 0.999954
0.999751 1 1 0.999751
1 1 1 1
1 1 1 1
0.999967 1 1 0.999967
1 1 1 1
1 1 1 1
1 1 1 1
0.967495 0.97077 0.997425 0.999199
1.01905 1.01928 1 0.99978
1.02772 1.02852 0.999304 0.999914
0.999525 1 1 0.999525
0.999535 1 1 0.999535
0.999496 1 1 0.999496
0.999556 1 1 0.999556
0.99954 1 1 0.99954
0.999507 1 1 0.999507
0.999494 1 1 0.999494
0.999487 1 1 0.999487
0.999451 1 1 0.999451
0.999489 1 1 0.999489
0.999497 1 1 0.999497
0.99949 1 1 0.99949
0.92943 0.945038 0.985191 0.998268
0.952968 0.966822 0.986744 0.998913
1.01202 1.01339 0.99907 0.999577
0.921691 0.957223 0.964193 0.998638
0.947236 0.969299 0.97971 0.997477
0.989688 0.984372 1.00872 0.996706
1.00004 0.980415 1.02162 0.998435
0.991668 0.988381 1.00487 0.998466
0.928202 0.949805 0.979714 0.99749
0.980291 0.977797 1.00627 0.9963
0.993073 0.989925 1.00467 0.99852
0.976675 0.975428 1.00542 0.995883
1.00766 1 1.00819 0.999482
0.999935 1 1.00027 0.999669
0.999545 1 1 0.999545
1.00907 0.998505 1.0109 0.999689
1.00437 1 1.00494 0.999431
1.00866 0.999835 1.00918 0.999647
1.00155 1.00067 1.00146 0.999413
0.928444 0.947499 0.981803 0.99805
0.967446 0.971042 0.997126 0.999169
1.01991 1.02018 0.999918 0.999824
0.992125 0.997562 0.994882 0.999666
0.997193 0.992779 1.00562 0.998838
0.963399 0.970648 0.993427 0.999099
0.976699 0.973749 1.0074 0.995664
0.926354 0.94431 0.983491 0.997452
0.989658 1.00477 0.985505 0.999442
0.930095 0.944571 0.986841 0.997805
0.973238 0.972056 1.0055 0.995737
1.0027 0.999184 1.00481 0.998718
1.00829 1.01091 0.998159 0.999247
0.961928 0.967183 0.999343 0.99522
0.998391 1.00115 0.998237 0.999004
0.99042 1 0.991137 0.999278
0.989724 1.00035 0.990165 0.999201
0.991697 1.0011 0.991347 0.999256
1.00162 1.00006 1.00255 0.999009
0.999717 1.00068 0.999864 0.999171
1.00084 1.00205 0.999338 0.999452
0.999679 1 1.00063 0.999053
0.999431 1.00017 1 0.999263
1.00011 1.00065 1 0.999461
0.999127 1 1 0.999127
0.999307 1 1 0.999307
0.999439 1 1 0.999439
0.999415 1 1 0.999415
0.999354 1 1 0.999354
0.999325 1 1 0.999325
0.999287 1 1 0.999287
0.999226 1 1 0.999226
0.99922 1 1 0.99922
0.9994 1 1 0.9994
0.99931 1 1 0.99931
0.999215 1 1 0.999215
0.999593 1 1 0.999593
0.999487 1 1 0.999487
0.999367 1 1 0.999367
0.999804 1 1 0.999804
0.99962 1 1 0.99962
0.999529 1 1 0.999529
1 1 1 1
0.999842 1 1 0.999842
0.999642 1 1 0.999642
1 1 1 1
1 1 1 1
0.999887 1 1 0.999887
1 1 1 1
1 1 1 1
1 1 1 1
0.999575 1 1 0.999575
0.999578 1 1 0.999578
0.999677 1 1 0.999677
0.999589 1 1 0.999589
0.9997 1 1 0.9997
0.999917 1 1 0.999917
1 1 1 1
0.999941 1 1 0.999941
0.999727 1 1 0.999727
1 1 1 1
1 1 1 1
0.999956 1 1 0.999956
1 1 1 1
1 1 1 1
1 1 1 1
0.936528 0.946307 0.992015 0.997632
0.965175 0.970777 0.995133 0.999092
1.01926 1.01948 1 0.999784
0.999519 1 1 0.999519
0.999491 1 1 0.999491
0.999541 1 1 0.999541
0.999532 1 1 0.999532
0.999495 1 1 0.999495
0.999495 1 1 0.999495
0.999489 1 1 0.999489
0.999455 1 1 0.999455
0.999475 1 1 0.999475
0.999446 1 1 0.999446
0.999577 1 1.00026 0.99932
0.999487 1 1 0.999487
0.999491 1 1 0.999491
0.97227 0.97684 1.00016 0.995164
0.934984 0.947242 0.989109 0.997928
0.952256 0.965928 0.986986 0.998845
0.929525 0.950323 0.979798 0.998281
0.977852 0.974696 1.00831 0.994969
0.994651 0.989689 1.00555 0.999469
0.995737 0.992775 1.00396 0.999028
0.976674 0.976961 1.0037 0.996018
0.991545 0.998828 0.994196 0.998504
1.00603 1.00132 1.0057 0.999015
1.00613 1 1.00666 0.99947
0.999663 1 1 0.999663
1.00766 1 1.00804 0.999617
1.00059 1.00097 1.00017 0.999447
0.954636 0.965271 0.992995 0.995959
0.932008 0.94685 0.98676 0.997532
0.968712 0.970445 0.998909 0.999304
0.992384 1.00522 0.987807 0.999417
1.00627 1.00218 1.0062 0.997897
0.933475 0.944678 0.990591 0.997526
0.973853 0.971796 1.00628 0.995868
1.00261 1.01027 0.993172 0.999239
0.964313 0.968742 0.999391 0.996034
1.00006 1.00329 0.99862 0.998159
1.00546 1.01038 0.996104 0.999028
0.998477 0.995343 1.00381 0.999342
0.990378 1.00044 0.990751 0.999186
0.993018 1.00103 0.992748 0.999238
1.00196 1.00785 0.994841 0.999312
0.999637 1.00079 0.999678 0.999168
0.99988 1.00132 0.999112 0.999446
1.00142 1.00284 0.999077 0.999505
0.999473 1.00021 1 0.999264
0.999867 1.00042 0.999994 0.99945
1.00003 1.00057 0.999987 0.999472
0.999307 1 1 0.999307
0.999432 1 1 0.999432
0.999427 1 1 0.999427
0.999433 1 1 0.999433
0.999369 1 1 0.999369
0.999371 1 1 0.999371
0.999321 1 1 0.999321
0.999317 1 1 0.999317
0.999352 1 1 0.999352
0.999283 1 1 0.999283
0.999228 1 1 0.999228
0.999539 1 1 0.999539
0.999411 1 1 0.999411
0.999326 1 1 0.999326
0.999775 1 1 0.999775
0.999591 1 1 0.999591
0.999485 1 1 0.999485
0.999999 1 1 0.999999
0.999805 1 1 0.999805
0.999621 1 1 0.999621
1 1 1 1
1 1 1 1
0.999842 1 1 0.999842
1 1 1 1
1 1 1 1
1 1 1 1
0.99955 1 1 0.99955
0.999575 1 1 0.999575
0.999641 1 1 0.999641
0.999569 1 1 0.999569
0.999668 1 1 0.999668
0.999881 1 1 0.999881
0.9997 1 1 0.9997
0.999917 1 1 0.999917
1 1 1 1
1 1 1 1
1 1 1 1
0.999942 1 1 0.999942
1 1 1 1
1 1 1 1
1 1 1 1
0.966372 0.970691 0.999554 0.995995
0.932179 0.948933 0.984158 0.998158
0.967541 0.970974 0.997299 0.999163
0.999486 1 1 0.999486
0.999547 1 1 0.999547
0.999499 1 1 0.999499
0.999533 1 1 0.999533
0.999501 1 1 0.999501
0.999512 1 1 0.999512
0.999459 1 1 0.999459
0.999461 1 1 0.999461
0.999443 1 1 0.999443
0.999443 1 1 0.999443
0.999352 1 1 0.999352
0.999112 1 1.00011 0.998998
0.999388 1 1.00006 0.999331
0.999485 1 1 0.999485
0.989713 0.994079 0.996831 0.998773
0.970949 0.973864 1.00116 0.995848
0.928584 0.94715 0.9829 0.997455
0.975331 0.974926 1.00464 0.995792
0.990977 0.991019 1.00044 0.999522
0.992659 0.997044 0.996317 0.999283
0.997217 1.00479 0.993324 0.999138
1.00312 1.00066 1.00337 0.999084
1.00508 1 1.00563 0.999459
0.998505 1.0011 0.997932 0.999478
0.986793 0.986386 1.00207 0.998344
0.96166 0.966874 0.998446 0.996155
0.930503 0.947249 0.984038 0.998256
0.999189 1.00962 0.990432 0.999231
1.00667 1.00653 1.00128 0.998858
0.965554 0.968434 1.00015 0.996876
1.00062 1.00824 0.993392 0.999048
0.995224 0.995723 1.0005 0.999
1.00019 1.01283 0.988399 0.999101
1.00978 1.0082 1.00249 0.99908
0.995156 1.00107 0.994864 0.999221
1.00214 1.00748 0.995385 0.999312
1.00361 1.00702 0.997308 0.999305
0.99928 1.00089 0.998954 0.999439
1.00121 1.00253 0.999182 0.999498
1.00066 1.00152 0.999799 0.999341
0.99964 1.0002 1 0.99944
0.999809 1.00035 1 0.999462
0.999381 1.00005 1 0.999328
0.999424 1 1 0.999424
0.999434 1 1 0.999434
0.999331 1 1 0.999331
0.999452 1 1 0.999452
0.999379 1 1 0.999379
0.999322 1 1 0.999322
0.999318 1 1 0.999318
0.999314 1 1 0.999314
0.999353 1 1 0.999353
0.999468 1 1 0.999468
0.999363 1 1 0.999363
0.99928 1 1 0.99928
0.999734 1 1 0.999734
0.999539 1 1 0.999539
0.999422 1 1 0.999422
0.999992 1 1 0.999992
0.999775 1 1 0.999775
0.99959 1 1 0.99959
1 1 1 1
0.999997 1 1 0.999997
0.999805 1 1 0.999805
1 1 1 1
1 1 1 1
1 1 1 1
0.999524 1 1 0.999524
0.999556 1 1 0.999556
0.999619 1 1 0.999619
0.999576 1 1 0.999576
0.999638 1 1 0.999638
0.999839 1 1 0.999839
0.999659 1 1 0.999659
0.999881 1 1 0.999881
1 1 1 1
0.999918 1 1 0.999918
1 1 1 1
1 1 1 1
1 1 1 1
1 1 1 1
1 1 1 1
0.983389 0.986272 0.998352 0.998723
0.960171 0.967849 0.996107 0.995944
0.930474 0.949153 0.982799 0.997478
0.999442 1 1 0.999442
0.999503 1 1 0.999503
0.999533 1 1 0.999533
0.999511 1 1 0.999511
0.999498 1 1 0.999498
0.999549 1 1 0.999549
0.999448 1 1 0.999448
0.999439 1 1 0.999439
0.999458 1 1 0.999458
0.999379 1 1 0.999379
0.999145 1 1 0.999145
1.00222 1.00347 1 0.998752
0.99913 1 1.00013 0.999001
0.999343 1 1 0.999343
0.999711 1.00448 0.995998 0.999251
0.990518 0.995444 0.996652 0.998394
0.972753 0.974818 1.00128 0.996601
0.994947 0.998351 0.998097 0.99849
1.00173 1.00602 0.996646 0.999086
1.0016 1.00014 1.00231 0.999154
1.00059 1.00121 1.00002 0.999362
0.987976 0.985341 1.00365 0.999029
0.958384 0.966694 0.99539 0.995996
0.994545 1.00592 0.989615 0.999067
0.992914 0.995793 0.998487 0.998619
1.00184 1.01287 0.990023 0.999083
1.00771 1.00718 1.00136 0.999167
1.01158 1.01305 0.999492 0.99906
1.00522 1.00622 1 0.999
1.0019 1.00685 0.995771 0.999312
1.005 1.00757 0.998138 0.999311
1.00032 1.00114 1 0.999183
1.00091 1.00204 0.999384 0.999491
1.00114 1.00185 0.999957 0.999339
0.999249 1.00007 1 0.999176
0.999584 1.00013 1 0.999453
0.999438 1.00009 1 0.999348
0.999218 1 1 0.999218
0.999441 1 1 0.999441
0.999331 1 1 0.999331
0.999271 1 1 0.999271
0.999389 1 1 0.999389
0.999326 1 1 0.999326
0.999324 1 1 0.999324
0.999311 1 1 0.999311
0.999346 1 1 0.999346
0.999437 1 1 0.999437
0.999683 1 1 0.999683
0.999479 1 1 0.999479
0.999373 1 1 0.999373
0.999978 1 1 0.999978
0.999733 1 1 0.999733
0.999538 1 1 0.999538
1 1 1 1
0.999988 1 1 0.999988
0.999774 1 1 0.999774
1 1 1 1
0.999996 1 1 0.999996
1 1 1 1
0.999471 1 1 0.999471
0.999525 1 1 0.999525
0.999599 1 1 0.999599
0.999563 1 1 0.999563
0.999624 1 1 0.999624
0.999802 1 1 0.999802
0.999635 1 1 0.999635
0.999839 1 1 0.999839
1 1 1 1
0.999881 1 1 0.999881
1 1 1 1
1 1 1 1
1 1 1 1
1 1 1 1
1 1 1 1
1.0017 1.00517 0.997094 0.999452
0.983026 0.987573 0.997386 0.998004
0.963717 0.968119 0.999399 0.996051
0.999476 1 1 0.999476
0.99932 1 1 0.99932
0.999452 1 1 0.999452
0.99951 1 1 0.99951
0.999494 1 1 0.999494
0.999535 1 1 0.999535
0.999352 1.00013 1 0.999221
0.999473 1 1 0.999473
0.999406 1 1 0.999406
0.999188 1.00003 1 0.999155
0.999827 1.00098 1 0.998845
1.00459 1.0061 0.999519 0.998981
1.00149 1.00273 1 0.998765
0.999005 1 1 0.999005
1.00203 1.00658 0.996203 0.99928
0.988503 0.994916 0.995602 0.997942
1.0046 1.00698 0.9986 0.999034
1.0011 1.00173 1 0.999378
1.00123 1.00068 1.00116 0.999393
0.986094 0.98512 1.00281 0.998187
1.00391 1.01333 0.991634 0.999065
1.00552 1.006 1.00027 0.999256
1.01162 1.01338 0.999187 0.999079
1.00615 1.00712 1 0.999034
1.0026 1.00352 1 0.999083
1.00286 1.00364 1 0.999226
1.00651 1.00826 0.998947 0.999318
1.00042 1.00123 1 0.999189
0.9995 1.00042 1 0.999083
1.00149 1.00215 1 0.999336
0.999314 1.00013 1 0.999188
0.999113 1 1 0.999113
0.999495 1.00013 1 0.999369
0.999216 1 1 0.999216
0.999177 1 1 0.999177
0.999331 1 1 0.999331
0.999271 1 1 0.999271
0.999271 1 1 0.999271
0.999329 1 1 0.999329
0.999324 1 1 0.999324
0.999401 1 1 0.999401
0.999339 1 1 0.999339
0.999433 1 1 0.999433
0.999638 1 1 0.999638
0.999958 1 1 0.999958
0.999683 1 1 0.999683
0.999491 1 1 0.999491
1 1 1 1
0.999972 1 1 0.999972
0.999733 1 1 0.999733
1 1 1 1
0.999985 1 1 0.999985
1 1 1 1
0.999371 1 1 0.999371
0.99946 1 1 0.99946
0.999554 1 1 0.999554
0.999526 1 1 0.999526
0.999599 1 1 0.999599
0.999771 1 1 0.999771
0.999628 1 1 0.999628
0.999802 1 1 0.999802
0.999998 1 1 0.999998
0.999839 1 1 0.999839
1 1 1 1
1 1 1 1
1 1 1 1
1 1 1 1
1 1 1 1
1.00178 1.00312 0.999381 0.999282
1.0007 1.0042 0.997079 0.999432
0.982703 0.986214 0.997808 0.998629
0.999344 1.00007 1 0.99927
0.999529 1 1 0.999529
0.999166 1 1 0.999166
0.999312 1 1 0.999312
0.999462 1 1 0.999462
1.00044 1.00149 1 0.998947
0.999522 1 1 0.999522
0.999278 1.00006 1 0.999213
1.00074 1.00182 1 0.998924
0.999219 1.00005 1 0.999165
1.00007 1.00126 1 0.99882
1.00365 1.00501 0.999671 0.998975
1.00043 1.00166 1 0.998779
1.00392 1.00809 0.996554 0.999309
1.00158 1.00222 1 0.999353
1.00079 1.00141 1 0.999375
1.00188 1.00021 1.00224 0.999424
1.01184 1.01385 0.998911 0.999099
1.00741 1.00835 1 0.999069
1.00335 1.00427 1 0.999079
1.00333 1.0041 1 0.999226
1.00145 1.00228 1 0.99917
1.00053 1.00133 1 0.999196
0.99943 1.00034 1 0.999088
0.999163 1.00009 1 0.999076
0.999387 1.00019 1 0.999201
0.999109 1 1 0.999109
0.999099 1 1 0.999099
0.999214 1 1 0.999214
0.999175 1 1 0.999175
0.999193 1 1 0.999193
0.99927 1 1 0.99927
0.999271 1 1 0.999271
0.999342 1 1 0.999342
0.999325 1 1 0.999325
0.999402 1 1 0.999402
0.999592 1 1 0.999592
0.99943 1 1 0.99943
0.999637 1 1 0.999637
0.999939 1 1 0.999939
1 1 1 1
0.999952 1 1 0.999952
0.999683 1 1 0.999683
1 1 1 1
0.999966 1 1 0.999966
1 1 1 1
0.999196 1 1 0.999196
0.999291 1 1 0.999291
0.999359 1 1 0.999359
0.999501 1 1 0.999501
0.999449 1 1 0.999449
0.999556 1 1 0.999556
0.999743 1 1 0.999743
0.9996 1 1 0.9996
0.999771 1 1 0.999771
0.999988 1 1 0.999988
0.999802 1 1 0.999802
0.999999 1 1 0.999999
1 1 1 1
1 1 1 1
1 1 1 1
1 1 1 1
1.00105 1.00186 1 0.999185
1.00312 1.00425 0.999567 0.999307
1.00049 1.00402 0.997069 0.999412
0.999517 1.00049 1 0.99903
0.999349 1.00003 1 0.999316
0.999582 1 1 0.999582
0.999197 1.00001 1 0.999185
0.999304 1 1 0.999304
1.00224 1.00336 1 0.998888
1.00021 1.00129 1 0.998925
0.999217 1.00001 1 0.999205
1.00104 1.00212 1 0.998918
1.0004 1.00161 1 0.998795
1.0035 1.00474 0.99979 0.99897
1.00246 1.0032 1 0.99926
1.0013 1.00196 1 0.999342
1.00042 1.00104 1 0.999372
1.00381 1.00474 1 0.999075
1.00356 1.00434 1 0.999227
1.00145 1.00228 1 0.999172
1.00057 1.00145 1 0.999128
0.999388 1.00029 1 0.999093
0.999125 1.00005 1 0.999072
0.999083 1 1 0.999083
0.999104 1 1 0.999104
0.999098 1 1 0.999098
0.999132 1 1 0.999132
0.999173 1 1 0.999173
0.999192 1 1 0.999192
0.999273 1 1 0.999273
0.99927 1 1 0.99927
0.999342 1 1 0.999342
0.999535 1 1 0.999535
0.999402 1 1 0.999402
0.999592 1 1 0.999592
0.999924 1 1 0.999924
0.999637 1 1 0.999637
0.999935 1 1 0.999935
0.999999 1 1 0.999999
1 1 1 1
0.999946 1 1 0.999946
1 1 1 1
0.999061 1 1 0.99906
0.999275 1 1 0.999275
0.999263 1 1 0.999263
0.999426 1 1 0.999426
0.999289 1 1 0.999289
0.999347 1 1 0.999347
0.999502 1 1 0.999502
0.999705 1 1 0.999705
0.999558 1 1 0.999558
0.999743 1 1 0.999743
0.999973 1 1 0.999973
0.999771 1 1 0.999771
0.999991 1 1 0.999991
1 1 1 1
1 1 1 1
1 1 1 1
1 1 1 1
1.00281 1.00373 1 0.999081
1.00107 1.00189 1 0.999183
1.00401 1.00489 0.999796 0.999332
1.00081 1.00188 1 0.998937
0.99949 1.00046 1 0.999033
0.999362 1 1 0.999362
0.999231 1.00003 1 0.999204
1.00221 1.00332 1 0.998889
1.00007 1.00117 1 0.998902
1.00121 1.0023 1 0.998911
1.003 1.00383 1 0.999171
1.00248 1.00324 1 0.999236
1.00104 1.00171 1 0.999331
1.00207 1.00296 1 0.999104
1.00154 1.00237 1 0.999175
1.00073 1.00161 1 0.999128
0.999489 1.00038 1 0.999106
0.999091 1.00002 1 0.999068
0.999145 1.00006 1 0.999084
0.99911 1 1 0.99911
0.999096 1 1 0.999096
0.999132 1 1 0.999132
0.999222 1 1 0.999222
0.999191 1 1 0.999191
0.999273 1 1 0.999273
0.999474 1 1 0.999474
0.999342 1 1 0.999342
0.999534 1 1 0.999534
0.99991 1 1 0.99991
0.999591 1 1 0.999591
0.99992 1 1 0.99992
0.999998 1 1 0.999998
0.99993 1 1 0.99993
1 1 1 1
1 1 1 1
0.999031 1.00006 1 0.998976
0.99914 1 1 0.99914
0.999085 1 1 0.999084
0.999374 1 1 0.999374
0.999274 1 1 0.999274
0.99933 1 1 0.99933
0.999634 1 1 0.999634
0.999425 1 1 0.999425
0.999287 1 1 0.999287
0.999503 1 1 0.999503
0.999705 1 1 0.999705
0.999954 1 1 0.999954
0.999744 1 1 0.999744
0.999978 1 1 0.999978
1 1 1 1
0.999995 1 1 0.999995
1 1 1 1
1 1 1 1
1.00197 1.00292 1 0.999051
1.00304 1.00398 1 0.999062
1.00122 1.00204 1 0.999182
1.00062 1.00168 1 0.998934
0.999452 1.00042 1 0.999035
1.00202 1.00314 1 0.998889
1.00294 1.00384 1 0.999098
1.00325 1.00408 1 0.99917
1.00248 1.00327 1 0.999212
1.00183 1.00272 1 0.999105
1.0006 1.00152 1 0.999081
1.00087 1.00175 1 0.999127
0.999565 1.00046 1 0.999106
0.999175 1.00006 1 0.999114
0.999198 1.00011 1 0.999085
0.999111 1 1 0.999111
0.999194 1 1 0.999194
0.999132 1 1 0.999132
0.999221 1 1 0.999221
0.999431 1 1 0.999431
0.999272 1 1 0.999272
0.999473 1 1 0.999473
0.999894 1 1 0.999894
0.999533 1 1 0.999533
0.999906 1 1 0.999906
0.999996 1 1 0.999996
0.999917 1 1 0.999917
0.999999 1 1 0.999999
1 1 1 1
0.999532 1.00048 1 0.999051
0.999042 1 1 0.999042
0.999005 1.00004 1 0.998969
0.999267 1 1 0.999267
0.999151 1 1 0.999151
0.999108 1 1 0.999108
0.999555 1 1 0.999555
0.999352 1 1 0.999352
0.999273 1 1 0.999273
0.999928 1 1 0.999928
0.999636 1 1 0.999636
0.999425 1 1 0.999425
0.999706 1 1 0.999706
0.99996 1 1 0.99996
1 1 1 1
0.999982 1 1 0.999982
1 1 1 1
1 1 1 1
1.00122 1.00218 1 0.999047
1.00192 1.00287 1 0.999046
1.00328 1.00424 1 0.999043
1.00048 1.00155 1 0.998931
1.00141 1.00236 1 0.999054
1.00306 1.00396 1 0.999103
1.00352 1.00435 1 0.99917
1.00158 1.00248 1 0.999107
1.00067 1.00159 1 0.999081
0.999263 1.00016 1 0.9991
0.99965 1.00054 1 0.999106
0.999175 1.00006 1 0.999118
0.999173 1 1 0.999173
0.999112 1 1 0.999112
0.999194 1 1 0.999194
0.999407 1 1 0.999407
0.999221 1 1 0.999221
0.999431 1 1 0.999431
0.999877 1 1 0.999877
0.999471 1 1 0.999471
0.999889 1 1 0.999889
1 1 1 1
0.999902 1 1 0.999902
0.999997 1 1 0.999997
0.999999 1 1 0.999999
0.999622 1.00055 1 0.99907
0.999074 1 1 0.999074
0.999533 1.00048 1 0.999053
0.999157 1 1 0.999157
0.999055 1 1 0.999055
0.998985 1.00002 1 0.998962
0.999446 1 1 0.999446
0.999266 1 1 0.999266
0.999162 1 1 0.999162
0.999899 1 1 0.999899
0.999536 1 1 0.999536
0.999331 1 1 0.999331
1 1 1 1
0.999936 1 1 0.999936
0.999637 1 1 0.999637
0.999966 1 1 0.999966
1 1 1 1
1 1 1 1
1.0005 1.00145 1 0.999054
1.00153 1.00247 1 0.999055
1.00181 1.00277 1 0.999041
0.999706 1.00065 1 0.999055
1.00134 1.00229 1 0.99905
1.00317 1.00407 1 0.999108
1.00074 1.00166 1 0.999081
0.999293 1.00019 1 0.9991
0.999175 1 1 0.999175
0.999178 1.00005 1 0.999123
0.999191 1 1 0.999191
0.999353 1 1 0.999353
0.999195 1 1 0.999195
0.999407 1 1 0.999407
0.999863 1 1 0.999863
0.99943 1 1 0.99943
0.999875 1 1 0.999875
1 1 1 1
0.999883 1 1 0.999883
0.999997 1 1 0.999997
0.999998 1 1 0.999998
0.999362 1.00028 1 0.999079
0.999107 1 1 0.999107
0.999651 1.00058 1 0.999071
0.999169 1 1 0.999169
0.999088 1.00001 1 0.999079
0.999534 1.00048 1 0.999056
0.999379 1 1 0.999379
0.99918 1 1 0.99918
0.999069 1 1 0.999069
0.999876 1 1 0.999876
0.999437 1 1 0.999437
0.999264 1 1 0.999264
1 1 1 1
0.999905 1 1 0.999905
0.999517 1 1 0.999517
1 1 1 1
0.999943 1 1 0.999943
1 1 1 1
0.999442 1.00037 1 0.999068
1.0003 1.00125 1 0.999055
1.00184 1.00278 1 0.999063
0.999133 1 1 0.999133
0.999597 1.00054 1 0.999057
1.0013 1.00225 1 0.999047
0.999327 1.00023 1 0.9991
0.999175 1 1 0.999175
0.999317 1 1 0.999317
0.999208 1 1 0.999208
0.99937 1 1 0.99937
0.999836 1 1 0.999836
0.999407 1 1 0.999407
0.999861 1 1 0.999861
1 1 1 1
0.999874 1 1 0.999874
1 1 1 1
0.999995 1 1 0.999995
0.999112 1 1 0.999112
0.99927 1.00019 1 0.999078
0.999173 1 1 0.999173
0.999115 1.00001 1 0.999107
0.999679 1.00061 1 0.999072
0.999381 1 1 0.999381
0.999167 1 1 0.999167
0.9991 1.00002 1 0.999084
0.999861 1 1 0.999861
0.99939 1 1 0.99939
0.999203 1 1 0.999203
1 1 1 1
0.99988 1 1 0.99988
0.999428 1 1 0.999428
1 1 1 1
0.999912 1 1 0.999912
1 1 1 1
0.999149 1 1 0.999149
0.999292 1.00022 1 0.999071
1.00008 1.00103 1 0.999057
0.999289 1 1 0.999289
0.999133 1 1 0.999133
0.99946 1.0004 1 0.99906
0.999175 1 1 0.999175
0.999322 1 1 0.999322
0.999801 1 1 0.999801
0.999386 1 1 0.999386
0.999833 1 1 0.999833
1 1 1 1
0.99986 1 1 0.99986
1 1 1 1
1 1 1 1
0.999163 1 1 0.999163
0.999107 1 1 0.999107
0.999174 1.0001 1 0.999076
0.999369 1 1 0.999369
0.999172 1 1 0.999172
0.999125 1.00002 1 0.999107
0.999849 1 1 0.999849
0.99938 1 1 0.99938
0.999165 1 1 0.999165
1 1 1 1
0.999864 1 1 0.999864
0.999401 1 1 0.999401
1 1 1 1
0.999885 1 1 0.999885
1 1 1 1
0.999323 1 1 0.999323
0.999133 1 1 0.999133
0.999166 1.00009 1 0.999074
0.99978 1 1 0.99978
0.999291 1 1 0.999291
0.999133 1 1 0.999133
0.999327 1 1 0.999327
0.999799 1 1 0.999799
1 1 1 1
0.999831 1 1 0.999831
1 1 1 1
1 1 1 1
0.999348 1 1 0.999348
0.999157 1 1 0.999157
0.999102 1 1 0.999102
0.999843 1 1 0.999843
0.999368 1 1 0.999368
0.999171 1 1 0.999171
1 1 1 1
0.999849 1 1 0.999849
0.99938 1 1 0.99938
1 1 1 1
0.999866 1 1 0.999866
1 1 1 1
0.999777 1 1 0.999777
0.99931 1 1 0.99931
0.999116 1 1 0.999116
1 1 1 1
0.999779 1 1 0.999779
0.999294 1 1 0.999294
0.999797 1 1 0.999797
1 1 1 1
1 1 1 1
0.999817 1 1 0.999817
0.999348 1 1 0.999348
0.999151 1 1 0.999151
1 1 1 1
0.999832 1 1 0.999832
0.999367 1 1 0.999367
1 1 1 1
0.99985 1 1 0.99985
1 1 1 1
0.999957 1 1 0.999957
0.999793 1 1 0.999793
0.999297 1 1 0.999297
1 1 1 1
0.999779 1 1 0.999779
1 1 1 1
0.999968 1 1 0.999968
0.999813 1 1 0.999813
0.999348 1 1 0.999348
0.999988 1 1 0.999988
0.99983 1 1 0.99983
1 1 1 1
1 1 1 1
0.999783 1 1 0.999783
1 1 1 1
0.999982 1 1 0.999982
0.999805 1 1 0.999805
1 1 1 1
1 1 1 1
1 1 1 1

VECTORS lamdaE float
0.998977 1.00017 0.996721
0.999172 0.999274 0.998685
0.998898 1.00028 0.996779
0.999403 1.00002 0.996313
0.999029 1.00027 0.996594
0.999066 0.999797 0.996878
0.999709 1.00074 0.994635
0.999199 0.999148 0.998723
0.998942 1.00033 0.998581
0.998916 0.999724 0.998729
0.999339 0.99878 0.99737
0.999711 1.00044 0.994668
0.999676 1.00001 0.99589
0.999311 0.999894 0.996416
0.998808 1.00043 0.996845
0.999303 1.00004 0.996398
0.998999 0.999873 0.996939
0.998934 1.00038 0.996671
0.999772 1.00069 0.994634
0.999557 0.999994 0.998233
0.999482 0.999947 0.99627
0.999205 1.00017 0.996453
1.00059 1.00001 0.993848
0.999985 1.00055 0.994362
0.999245 0.999193 0.99714
0.999518 1.00075 0.994941
1.00105 1.00117 0.991803
0.999221 0.999015 0.998764
0.999 1.00026 0.997557
0.998992 0.999789 0.997812
0.999318 0.998633 0.99884
0.999646 1.00053 0.99467
0.99925 1.00021 0.996421
0.999033 1.00034 0.996741
1.00022 1.00046 0.994653
0.999368 0.998113 0.99906
0.999801 1.00053 0.995219
0.999635 1.00018 0.99504
1.00038 1.00166 0.992234
0.999482 0.997643 0.999171
0.999658 1 0.998152
0.999389 0.999961 0.997361
0.999762 0.999999 0.99807
0.999368 0.999932 0.996294
1.00101 1.00002 0.992544
0.999243 1.00009 0.998502
1.00077 0.999947 0.994178
0.999204 1.00006 0.996482
0.998837 1.00053 0.996738
0.998931 0.999949 0.99701
0.99984 1.00061 0.99463
0.99953 0.999986 0.997185
0.99939 0.999927 0.996355
0.999198 0.999196 0.9972
0.999102 1.00024 0.996538
1.00062 1.00001 0.993823
0.999575 1.0007 0.994942
1.00004 1.0005 0.994357
1.00113 1.00119 0.991719
0.999649 1 0.998156
0.999504 0.999968 0.996192
1.00083 1.00001 0.993925
1.00067 0.999902 0.993824
1.00031 1.00027 0.994079
1.00261 0.999957 0.990199
1.0016 1.00067 0.991035
0.999465 0.998489 0.99746
0.999396 1.00049 0.995405
1.0005 1.00158 0.992355
1.00181 1.00131 0.989871
0.999032 1.00018 0.998508
0.999342 0.998479 0.998917
0.99906 0.999551 0.998664
0.99958 1.00062 0.994672
0.999266 1.00019 0.998414
0.998996 1.00012 0.998558
1.00011 1.00049 0.993761
0.999393 0.998179 0.998376
0.999703 1.00066 0.994413
0.999599 1.00014 0.995483
1.00038 1.00164 0.992224
0.999451 0.997884 0.99909
0.999652 0.998819 0.996397
1.00048 1.00016 0.993451
0.999949 1.00063 0.994049
1.00177 1.00065 0.990575
0.999584 0.999638 0.996304
1.00071 1.00133 0.991953
1.00014 1.00184 0.992508
1.00086 1.0019 0.991025
0.999532 0.997358 0.999237
0.999475 0.997594 0.999193
0.999426 1.00001 0.99836
0.999596 1 0.998206
0.999741 1 0.998086
0.999459 0.999987 0.997249
1.00099 1.00002 0.993159
0.999293 1.00003 0.99743
1.00072 0.999943 0.993719
0.999752 0.999998 0.99808
1.00112 0.999972 0.992353
1.00087 0.999993 0.993958
1.00309 0.999775 0.988934
1.00064 0.999995 0.994328
1.00273 0.999861 0.989555
0.999605 0.999983 0.99603
0.999297 0.999892 0.99644
0.999145 0.999165 0.997268
0.999002 1.00033 0.996619
1.00066 1.00001 0.993798
1.0001 1.00043 0.994356
0.999635 1.00065 0.994938
1.0012 1.00123 0.991635
0.999693 1 0.998122
0.999409 0.999942 0.996291
1.00088 0.999995 0.993077
1.0007 0.999887 0.993787
0.999401 0.998458 0.998181
0.999484 1.00043 0.995515
1.00036 1.00024 0.994068
1.0026 0.999955 0.990099
1.00058 1.00162 0.992269
1.00164 1.00072 0.991103
1.00181 1.00131 0.989874
1.00102 1.00001 0.992514
1.00068 0.999935 0.993753
1.00292 0.999818 0.989482
1.0027 0.999741 0.989977
1.00222 1.00024 0.990383
1.00362 0.999684 0.988346
0.999481 0.998006 0.999034
1.0024 1.00073 0.989291
0.999572 1.00001 0.995337
1.00007 1.00176 0.992593
1.00126 1.00193 0.990415
1.0023 1.00125 0.989022
0.999683 0.999105 0.995987
1.00008 1.00074 0.993684
0.999197 1.00018 0.998432
0.99896 0.999968 0.998597
1.00007 1.00051 0.993773
0.99941 0.998092 0.999051
0.999544 1.00021 0.995146
0.999627 1.00077 0.994405
1.00038 1.00163 0.992212
0.999443 0.997855 0.999117
0.999658 0.998766 0.99642
1.00045 1.00015 0.993968
0.999865 1.00064 0.99453
1.00177 1.00063 0.990592
0.999584 0.999608 0.99572
1.00069 1.00131 0.991962
1.00012 1.00185 0.992501
1.00086 1.0019 0.990981
0.999601 0.999219 0.996074
0.99973 0.998409 0.996672
1.00001 1.00061 0.993923
1.00229 1.00021 0.990017
1.00116 1.00106 0.991349
1.00261 1.00069 0.988969
1.0001 1.0015 0.992912
1.00126 1.00145 0.990684
1.00053 1.00247 0.991222
1.00103 1.00217 0.990526
0.99961 0.997075 0.999282
0.999536 0.997303 0.999253
0.999471 0.99754 0.999216
0.999725 0.998743 0.996298
0.999509 0.997761 0.999116
0.999337 1.00008 0.998395
0.999492 0.999996 0.9983
1.0007 0.99992 0.993226
1.00094 1.00002 0.992652
0.999713 1 0.998109
0.999761 0.999999 0.998071
1.00111 0.99998 0.992362
1.00081 1 0.993505
1.00309 0.999777 0.988939
1.00059 0.999959 0.993373
1.00272 0.99987 0.989554
1.00113 0.999966 0.992317
1.00332 0.999717 0.988554
1.00287 0.999807 0.989342
1.00411 0.999452 0.987367
1.00257 0.999968 0.989724
1.00371 0.999517 0.988062
0.999727 1 0.998094
0.999313 0.9999 0.996394
1.00089 0.999978 0.99228
1.00074 0.99989 0.993751
0.999305 0.998395 0.998945
0.99957 1.0004 0.995621
1.0004 1.0002 0.994059
1.00258 0.999949 0.989998
1.00167 1.00077 0.991172
1.00067 1.00167 0.992184
1.00181 1.00131 0.989878
1.00103 1 0.992503
1.00072 0.999921 0.99372
1.0029 0.999801 0.989273
1.00271 0.999783 0.990077
0.999464 0.998049 0.999003
0.999577 0.999968 0.99567
1.00015 1.00178 0.992686
1.00219 1.00028 0.990389
1.00361 0.999621 0.988207
1.00119 1.00193 0.990402
1.00245 1.00075 0.98935
1.00229 1.00125 0.98903
0.999663 0.999173 0.995974
1.00008 1.00073 0.99368
1.00322 0.99975 0.988697
1.00269 0.999781 0.989935
1.00389 0.999577 0.987921
1.00376 0.999299 0.988058
1.00308 1.00014 0.988749
1.00417 0.999158 0.987705
0.999629 0.999517 0.995647
1.00301 1.00049 0.988418
1.00004 1.00162 0.992807
1.00057 1.00223 0.991078
1.00174 1.00208 0.98961
1.00267 1.00102 0.988641
1.00011 1.00122 0.993179
1.0001 1.00019 0.994202
1.00027 1.00183 0.992263
1.0004 1.00017 0.993513
0.999435 0.997819 0.999143
0.99966 0.998722 0.996443
0.999764 1.00075 0.994129
1.00176 1.00062 0.990609
0.99958 0.999572 0.995689
1.0001 1.00184 0.992495
1.00067 1.00131 0.991972
1.00087 1.00189 0.990936
0.999612 0.999158 0.996092
0.999724 0.998388 0.996688
1.00001 1.00062 0.99393
1.00229 1.00022 0.990022
1.00114 1.00105 0.991373
1.00261 1.00069 0.98897
1.00007 1.00154 0.992913
1.00129 1.00146 0.990724
1.00052 1.00246 0.991216
1.001 1.00217 0.990484
0.999804 0.998088 0.996854
1.00008 1.00104 0.993367
1 1.00007 0.994479
1.00018 1.00167 0.992592
1.00322 1.00006 0.988422
1.00184 1.00122 0.989928
1.00311 1.00053 0.988161
1.00037 1.00233 0.991683
1.00158 1.00147 0.990178
1.00056 1.00322 0.990383
1.00118 1.00206 0.99009
1.00015 0.999072 0.995232
0.999927 0.997652 0.99705
0.999696 0.99683 0.999313
0.999621 0.99703 0.999293
0.999543 0.997249 0.999268
0.999785 0.998417 0.996524
0.999541 0.997508 0.999182
0.999721 0.998785 0.996276
0.999512 0.997792 0.999091
1.0006 0.999942 0.993372
1.00079 0.999989 0.992988
1.00271 0.999877 0.989553
1.00308 0.99978 0.988944
1.0011 0.999988 0.992369
0.99977 1 0.998065
1.00114 0.999971 0.992312
1.00332 0.999716 0.988555
1.00285 0.999818 0.989342
1.00411 0.999459 0.987368
1.00257 0.999983 0.989725
1.00372 0.999512 0.988062
1.00335 0.999698 0.988509
1.00436 0.999363 0.986964
1.00388 0.999458 0.987813
1.00456 0.999026 0.986953
1.00353 0.999705 0.988212
1.00424 0.999002 0.987581
1.00104 0.999993 0.992489
1.00076 0.999922 0.993686
1.00288 0.999779 0.989065
1.00271 0.999814 0.990176
0.99945 0.998104 0.998972
0.999596 0.999962 0.995985
1.00025 1.00178 0.992778
1.00217 1.00032 0.990395
1.0036 0.999556 0.988068
1.0025 1.00076 0.989409
1.00112 1.00192 0.990389
1.00228 1.00124 0.989037
0.999647 0.999237 0.995959
1.00008 1.0007 0.993675
1.0032 0.99974 0.988637
1.00271 0.999774 0.98993
1.00392 0.999552 0.987837
1.00376 0.999369 0.988193
0.99962 0.999575 0.995645
1.00007 1.00164 0.992808
1.00058 1.0022 0.991183
1.00311 1.00018 0.988745
1.00417 0.999073 0.987669
1.00168 1.00209 0.989498
1.003 1.00049 0.988417
1.00261 1.00098 0.988667
1.00012 1.00116 0.993186
1.00027 1.00179 0.992275
1.00009 1.0002 0.994191
1.0042 0.999495 0.987429
1.00372 0.999457 0.988228
1.0044 0.999293 0.987139
1.00432 0.998831 0.987605
1.00366 0.999656 0.987861
1.00449 0.998516 0.987617
1.00009 1.00148 0.992929
1.00333 1.00016 0.988107
1.00042 1.00206 0.991762
1.00082 1.00268 0.990181
1.002 1.00211 0.988894
1.00287 1.00057 0.98892
1.00014 0.99981 0.994509
1.00035 1.00185 0.992096
1.00026 1.00139 0.992649
1.00026 1.00239 0.991789
1.00228 1.00022 0.990027
0.999716 0.998366 0.996705
0.999626 0.999095 0.996108
1.00001 1.00062 0.993936
1.00111 1.00105 0.991397
1.0026 1.00069 0.988971
1.00003 1.00159 0.992914
1.00051 1.00246 0.99121
1.00131 1.00147 0.990765
1.00098 1.00217 0.990443
0.999796 0.99808 0.996862
1.00007 1.00108 0.993366
1.00001 1.00006 0.994491
1.00018 1.0017 0.992582
1.00323 1.00008 0.988412
1.00182 1.00123 0.989943
1.00311 1.00054 0.988163
1.00034 1.00234 0.991694
1.0016 1.00149 0.990225
1.00058 1.00323 0.990343
1.00115 1.002 0.990314
0.999869 0.997848 0.99697
1.00005 0.999645 0.994837
1.0003 1.00195 0.992155
1.00017 1.00117 0.993115
1.00013 1.00254 0.99186
1.00376 0.999739 0.987716
1.00221 1.00119 0.989226
1.00337 1.00035 0.987864
1.00033 1.00337 0.990737
1.00175 1.00139 0.989898
1.00072 1.00337 0.989456
1.00012 0.999214 0.995146
1.00019 1.00006 0.994196
1.00018 0.998968 0.995289
1.00014 0.999092 0.995228
0.999964 0.997448 0.997556
0.999917 0.997633 0.997277
0.999823 0.996639 0.998459
0.999708 0.996791 0.999321
0.999633 0.996985 0.999302
0.99985 0.998164 0.996656
0.999607 0.997253 0.999225
0.99979 0.998436 0.996508
0.999545 0.997549 0.999162
0.999716 0.99883 0.996254
0.999515 0.997827 0.999066
1.00256 0.999995 0.989726
1.00285 0.999826 0.989342
1.00372 0.999514 0.988062
1.00411 0.999465 0.987368
1.00332 0.999715 0.988557
1.00115 0.999974 0.992308
1.00335 0.999695 0.988506
1.00437 0.999363 0.986966
1.00387 0.999471 0.987816
1.00458 0.999 0.986904
1.00354 0.999701 0.988206
1.00424 0.999005 0.987583
1.0044 0.999337 0.986928
1.00484 0.998959 0.98644
1.0044 0.99896 0.987324
1.00482 0.998707 0.986867
1.00404 0.999277 0.987668
1.0045 0.998391 0.987697
1.00317 0.99973 0.988577
1.00273 0.99976 0.989924
1.00393 0.999535 0.987754
1.00376 0.99944 0.988329
0.999614 0.999617 0.995642
1.00009 1.00165 0.99281
1.00059 1.00216 0.991287
1.00315 1.00023 0.98874
1.00416 0.998987 0.987632
1.003 1.0005 0.988416
1.00162 1.00211 0.989386
1.00255 1.00095 0.988693
1.00013 1.00111 0.993193
1.00027 1.00175 0.992287
1.00008 1.00021 0.994179
1.00422 0.999477 0.987281
1.00374 0.999419 0.98823
1.00439 0.999247 0.987107
1.00432 0.998874 0.987629
1.00011 1.00143 0.992938
1.00046 1.00205 0.991743
1.00079 1.00268 0.990314
1.00366 0.999758 0.987928
1.00451 0.998416 0.987617
1.00191 1.00217 0.988828
1.00334 1.00014 0.988098
1.00281 1.00048 0.988955
1.00035 1.00186 0.992111
1.00027 1.00241 0.991734
1.00013 0.999828 0.994502
1.00026 1.00133 0.992721
1.00465 0.999158 0.986654
1.00423 0.999107 0.987584
1.00466 0.998861 0.987005
1.00462 0.998403 0.9874
1.00414 0.999103 0.987578
1.00476 0.998199 0.987405
1.00039 1.00188 0.992008
1.00344 0.999341 0.988582
1.00041 1.00259 0.99106
1.00111 1.00311 0.989396
1.00216 1.00213 0.988407
1.00297 1.00048 0.988931
1.00015 0.999633 0.994656
1.00027 1.0009 0.993117
1.00036 1.00227 0.991685
1.00022 1.00215 0.992101
1.00026 1.00256 0.991578
0.999788 0.998072 0.996869
1.00323 1.00009 0.988402
1.00002 1.00004 0.994502
1.00005 1.00114 0.993366
1.00017 1.00173 0.992572
1.0018 1.00123 0.989958
1.00311 1.00054 0.988165
1.00031 1.00234 0.991704
1.0006 1.00325 0.990302
1.00163 1.00151 0.990273
1.00112 1.00193 0.990537
0.999863 0.99784 0.996974
1.00005 0.999636 0.994845
1.00029 1.00195 0.992154
1.00016 1.00118 0.993117
1.00013 1.00258 0.991797
1.00376 0.999757 0.987702
1.00221 1.00119 0.989234
1.00336 1.00037 0.987849
1.00029 1.00337 0.990752
1.00177 1.00142 0.98994
1.00084 1.00335 0.989543
1.00009 0.999394 0.995028
1.00018 1.00066 0.993601
1.00028 1.00287 0.991317
1.00009 1.00217 0.992293
1.00009 1.00322 0.991305
1.00408 0.999354 0.987487
1.00245 1.001 0.988936
1.00321 0.999819 0.988508
1.00022 1.00443 0.989765
1.00155 1.00261 0.989082
1.00012 0.999224 0.995145
1.00017 1.00018 0.994008
1.00018 1.00007 0.994144
1.00014 1.00081 0.993655
1.0002 1.00003 0.994196
1.00021 0.998898 0.995301
1.00018 0.998972 0.995287
1.00002 0.997282 0.99761
1.00014 0.99911 0.995223
0.99997 0.997439 0.997564
0.999906 0.996429 0.998508
0.999907 0.99762 0.9975
0.999802 0.996603 0.998903
0.999721 0.996753 0.999329
0.999905 0.997965 0.99675
0.999855 0.998174 0.996649
0.999686 0.997031 0.999253
0.999602 0.997296 0.999213
0.999795 0.998453 0.996493
0.999549 0.997587 0.999142
1.00355 0.999695 0.988199
1.00387 0.999477 0.987818
1.00424 0.999005 0.987585
1.0046 0.998973 0.986856
1.00437 0.999363 0.986968
1.00336 0.999693 0.988503
1.0044 0.999337 0.986929
1.00485 0.99897 0.986398
1.00439 0.998967 0.987328
1.00482 0.998648 0.986874
1.00405 0.999273 0.987656
1.00452 0.998346 0.987679
1.00486 0.999014 0.986352
1.00505 0.998688 0.986373
1.00466 0.998445 0.987278
1.00494 0.998424 0.986891
1.00435 0.998663 0.987641
1.00473 0.998041 0.987674
1.00424 0.999457 0.987133
1.00375 0.999386 0.988231
1.00438 0.999199 0.987075
1.00432 0.998915 0.987653
1.00014 1.00138 0.992947
1.0005 1.00205 0.991724
1.00075 1.00268 0.990446
1.00366 0.999861 0.987996
1.00454 0.998316 0.987618
1.00336 1.00012 0.988089
1.00182 1.00224 0.988762
1.00275 1.00039 0.98899
1.00035 1.00186 0.992126
1.00028 1.00242 0.991679
1.00012 0.999844 0.994495
1.00026 1.00126 0.992794
1.00466 0.999161 0.986649
1.00424 0.999102 0.987592
1.00459 0.998838 0.987098
1.00464 0.998414 0.987404
1.00041 1.00188 0.992005
1.00041 1.00254 0.991168
1.00109 1.00317 0.989386
1.00415 0.999191 0.987585
1.0047 0.998089 0.987565
1.00214 1.0022 0.988363
1.00348 0.999365 0.988574
1.00291 1.00023 0.989007
1.00039 1.00226 0.99169
1.00028 1.00257 0.991564
1.00021 1.00216 0.992094
1.00015 0.999629 0.994584
1.00027 1.00086 0.993163
1.00494 0.99872 0.986527
1.00463 0.998574 0.987255
1.00488 0.9981 0.987165
1.00439 0.998472 0.987613
1.00039 1.00226 0.991615
1.00387 0.998816 0.988741
1.0003 1.00307 0.990551
1.00139 1.00364 0.988342
1.00253 1.00209 0.987906
1.00017 0.999487 0.994624
1.00026 1.00063 0.993548
1.0002 1.00166 0.992622
1.00035 1.00235 0.991629
1.0002 1.00268 0.991654
1.00034 1.0025 0.991453
0.999857 0.997832 0.996979
1.00005 0.999627 0.994853
1.00377 0.999774 0.987688
1.00016 1.0012 0.993119
1.00027 1.00194 0.992153
1.00012 1.00262 0.991735
1.0022 1.00119 0.989241
1.00334 1.00038 0.987833
1.00026 1.00336 0.990767
1.00096 1.00332 0.989629
1.00178 1.00144 0.989984
1.00008 0.999398 0.995031
1.00018 1.00065 0.993608
1.00025 1.00285 0.991353
1.00009 1.00216 0.99229
1.00008 1.00327 0.991222
1.00406 0.999398 0.987488
1.00247 1.00099 0.988913
1.00328 0.999668 0.988609
1.00018 1.00438 0.989756
1.00155 1.00281 0.988906
1.00016 1.00037 0.99393
1.00012 1.00163 0.99268
1.00014 1.00387 0.990607
1.00005 1.00301 0.99144
1.0002 1.00354 0.990754
1.00435 0.998052 0.988228
1.00259 1.00138 0.988526
1.0035 0.998536 0.988558
1.00053 1.00472 0.989319
1.00128 1.00356 0.987905
1.00011 0.999234 0.995144
1.00017 1.00017 0.994057
1.00015 1.00095 0.993325
1.00018 1.0001 0.994092
1.0002 1.00004 0.994197
1.00014 1.0008 0.993577
1.00008 1.00137 0.993182
1.00012 1.00076 0.99358
1.00023 0.999986 0.994206
1.00022 0.998896 0.995274
1.00021 0.998896 0.995302
1.00006 0.997182 0.997617
1.00017 0.998976 0.995285
1.00002 0.997279 0.997613
0.999965 0.996269 0.998544
0.999977 0.997426 0.997573
0.999897 0.996405 0.998507
0.999778 0.996561 0.999353
0.999957 0.997775 0.996845
0.999909 0.997973 0.996746
0.999759 0.996829 0.999278
0.99986 0.998184 0.996642
0.999676 0.997064 0.999245
0.999598 0.997334 0.9992
1.00406 0.999271 0.987644
1.00439 0.998977 0.987333
1.00454 0.998297 0.987661
1.00482 0.998587 0.986881
1.00487 0.99898 0.986356
1.0044 0.999337 0.986929
1.00486 0.999033 0.986351
1.00505 0.998721 0.986356
1.00468 0.998456 0.987243
1.00494 0.998351 0.986897
1.00436 0.998659 0.987644
1.00468 0.997967 0.987756
1.00507 0.998764 0.986256
1.00508 0.998338 0.986633
1.00491 0.997963 0.987314
1.00465 0.997977 0.987824
1.00466 0.999163 0.986644
1.00425 0.999095 0.9876
1.00453 0.998815 0.987192
1.00465 0.998426 0.987408
1.00043 1.00188 0.992001
1.00042 1.00249 0.991276
1.00106 1.00323 0.989375
1.00415 0.999277 0.987592
1.00464 0.997989 0.987724
1.00352 0.999389 0.988566
1.00212 1.00226 0.988318
1.00286 0.99999 0.989083
1.0004 1.00225 0.991695
1.0003 1.00257 0.991549
1.00019 1.00218 0.992087
1.00015 0.999627 0.994512
1.00028 1.00081 0.99321
1.0049 0.99871 0.986601
1.00464 0.998612 0.987221
1.00486 0.998168 0.98723
1.00044 1.00225 0.991602
1.00041 1.00302 0.990666
1.00134 1.00374 0.988318
1.00446 0.998485 0.987616
1.0025 1.0019 0.98807
1.00366 0.998793 0.98885
1.00017 0.999466 0.994642
1.00037 1.00235 0.991627
1.00034 1.00249 0.991483
1.00019 1.00272 0.991615
1.00021 1.00164 0.992653
1.00026 1.00062 0.993488
1.00501 0.998415 0.986733
1.00491 0.997999 0.987315
1.00486 0.998038 0.987085
1.00492 0.997786 0.987426
1.00037 1.00251 0.99141
1.00335 1.00028 0.988014
1.00054 1.00405 0.989296
1.00166 1.00408 0.987556
1.00018 0.999336 0.994769
1.00026 1.00046 0.993742
1.00021 1.0014 0.992918
1.00016 1.00235 0.992003
1.0004 1.00247 0.99147
1.00033 1.00265 0.991366
1.00008 0.999401 0.995033
1.00018 1.00064 0.993615
1.00403 0.999445 0.987488
1.0001 1.00215 0.992287
1.00022 1.00284 0.991389
1.00007 1.00332 0.99114
1.0025 1.00099 0.98889
1.00335 0.999505 0.988711
1.00014 1.00435 0.989748
1.00154 1.00302 0.988731
1.00017 1.00035 0.993934
1.00013 1.00162 0.99271
1.0001 1.00384 0.990694
1.00005 1.00303 0.991456
1.00015 1.00362 0.990731
1.0044 0.998131 0.988173
1.00265 1.00121 0.988537
1.00338 0.998415 0.989303
1.00043 1.00467 0.989302
1.00144 1.00394 0.987557
1.00014 1.00115 0.993131
1.00009 1.00248 0.991867
1.00011 1.00437 0.990109
1.00008 1.00367 0.990557
1.00502 0.997014 0.988216
1.0046 0.996961 0.988733
1.00283 1.00166 0.987521
1.00062 1.00482 0.988081
1.00018 1.00017 0.994107
1.00015 1.00096 0.993362
1.00009 1.00159 0.99289
1.0002 1.00003 0.994197
1.00013 1.00079 0.9935
1.00023 0.999974 0.994207
1.00008 1.00137 0.993119
1.00013 1.00074 0.993602
1.00005 1.00181 0.992756
1.00008 1.00125 0.993168
1.00013 1.00069 0.993615
1.00025 0.999973 0.994186
1.00022 0.998938 0.995225
1.00022 0.998896 0.995273
1.00009 0.997152 0.997592
1.00021 0.998891 0.995303
1.00007 0.997196 0.997613
1.00001 0.996189 0.998536
1.00003 0.997279 0.997617
0.999959 0.996247 0.998545
0.999888 0.996385 0.998505
1.00001 0.997582 0.996949
0.99996 0.997782 0.996841
0.999826 0.996637 0.999303
0.999913 0.997982 0.996741
0.999749 0.996862 0.99927
0.999667 0.997099 0.999237
1.00437 0.998654 0.987647
1.0047 0.998468 0.987208
1.00464 0.997901 0.987838
1.00496 0.998282 0.986902
1.00505 0.998753 0.98634
1.00486 0.999052 0.986351
1.00505 0.99876 0.986305
1.00508 0.998357 0.986629
1.00491 0.997959 0.987321
1.00466 0.997929 0.987815
1.0051 0.998457 0.986509
1.00512 0.997789 0.987164
1.00497 0.997544 0.987594
1.00486 0.998701 0.986675
1.00465 0.998649 0.987186
1.00485 0.998225 0.987295
1.00047 1.00225 0.991589
1.00053 1.00298 0.990782
1.00129 1.00385 0.988294
1.00454 0.998491 0.98762
1.00345 0.998772 0.988956
1.00249 1.00171 0.988235
1.00039 1.00235 0.991626
1.00031 1.00249 0.991514
1.00018 1.00277 0.991576
1.00017 0.999442 0.994661
1.00021 1.00162 0.992685
1.00026 1.0006 0.993428
1.00503 0.99843 0.986675
1.00489 0.998003 0.987325
1.00492 0.998068 0.987081
1.00041 1.00252 0.991379
1.00047 1.00402 0.989548
1.00172 1.00405 0.987542
1.00478 0.997896 0.987659
1.00335 1.00021 0.987965
1.00018 0.999313 0.994857
1.00025 1.00046 0.993743
1.00035 1.00244 0.991465
1.00033 1.00255 0.991486
1.00016 1.00234 0.991971
1.0002 1.00143 0.992872
1.00509 0.997887 0.987069
1.00503 0.997519 0.987535
1.00508 0.997547 0.987251
1.00455 0.997701 0.98808
1.00013 1.00321 0.990994
1.00234 1.00317 0.987013
1.00087 1.00479 0.98854
1.00019 0.999158 0.995068
1.00018 1.00013 0.994135
1.00022 1.0004 0.993704
1.00019 1.00127 0.99302
1.00011 1.0021 0.99232
1.00005 1.0031 0.991354
1.00054 1.00173 0.991774
1.00024 1.00291 0.99185
1.00018 1.00033 0.993938
1.00014 1.00161 0.992741
1.00443 0.998229 0.988118
1.00005 1.00305 0.991473
1.00006 1.00381 0.99078
1.00008 1.00371 0.990709
1.00272 1.00103 0.988548
1.00326 0.998284 0.990044
1.00032 1.00461 0.989285
1.0016 1.00427 0.987208
1.00015 1.00118 0.993088
1.00009 1.00251 0.991884
1.00008 1.00436 0.990176
1.00013 1.0037 0.990607
1.00503 0.997033 0.988123
1.00445 0.997099 0.988802
1.00293 1.00155 0.98779
1.00081 1.00486 0.987926
1.0001 1.00188 0.992573
1.00502 0.99673 0.988225
1.00006 1.00347 0.991188
1.00038 1.00436 0.989581
1.00513 0.996104 0.988715
1.00433 0.998417 0.987837
1.00177 1.00419 0.987268
1.00015 1.00098 0.993399
1.00009 1.00159 0.992885
1.00004 1.00214 0.992438
1.00023 0.999967 0.994208
1.00013 1.00074 0.993624
1.00008 1.00138 0.993057
1.00025 0.999967 0.994185
1.00013 1.0007 0.993614
1.00006 1.00183 0.9927
1.00008 1.00125 0.993225
1.00006 1.0021 0.992407
1.00008 1.00166 0.99277
1.00009 1.00118 0.993306
1.00018 1.00064 0.993633
1.00025 1.00002 0.994132
1.00022 0.998992 0.995181
1.00022 0.998941 0.995225
1.00011 0.997155 0.997557
1.00022 0.998899 0.995273
1.00009 0.997173 0.997587
1.00004 0.996153 0.998517
1.00007 0.99721 0.99761
1.00001 0.996159 0.99854
0.999953 0.996225 0.998544
1.0002 0.998997 0.995206
1.00005 0.997398 0.997047
1.00001 0.99759 0.996944
0.999886 0.996452 0.99933
0.999963 0.997791 0.996837
0.999817 0.996668 0.999295
0.99974 0.996893 0.999262
1.00467 0.997878 0.987806
1.0049 0.997954 0.987328
1.00507 0.998371 0.986626
1.00503 0.998756 0.986354
1.0051 0.998444 0.986525
1.00513 0.997804 0.98711
1.00498 0.997507 0.987604
1.0051 0.997898 0.987045
1.00515 0.997305 0.987633
1.00498 0.996489 0.988426
1.00505 0.998446 0.986618
1.00487 0.998011 0.987335
1.00498 0.998116 0.987076
1.00045 1.00252 0.991347
1.0004 1.00396 0.9898
1.00176 1.00398 0.987528
1.00465 0.997999 0.987892
1.00334 1.00011 0.987918
1.0003 1.00239 0.991459
1.00035 1.00246 0.991602
1.00015 1.00235 0.991938
1.00018 0.999288 0.994945
1.00025 1.00046 0.993744
1.00019 1.00145 0.992826
1.00508 0.997839 0.987171
1.0002 0.999152 0.995066
1.00017 1.00014 0.994093
1.00502 0.997564 0.987509
1.00505 0.997683 0.987179
1.00009 1.00318 0.99115
1.00085 1.00476 0.988398
1.00234 1.00304 0.987026
1.00457 0.99772 0.988086
1.00023 1.00039 0.993831
1.00019 1.00127 0.993018
1.00063 1.00182 0.991575
1.00013 1.00235 0.992251
1.00003 1.0032 0.991261
1.00013 1.00206 0.99233
1.0051 0.996997 0.987912
1.00513 0.9975 0.9875
1.00506 0.99644 0.988248
1.00359 0.99948 0.987932
1.00025 1.00316 0.991069
1.00142 1.00469 0.987552
1.00017 1 0.994185
1.00019 1.00029 0.993949
1.0001 1.001 0.993543
1.00017 1.00123 0.992994
1.0001 1.00197 0.992563
0.999944 1.00281 0.991731
0.999865 1.00417 0.990896
1.00024 1.00171 0.992362
1.00016 1.00121 0.993046
1.00008 1.00254 0.991901
1.00506 0.997027 0.98803
1.00434 0.997259 0.988872
1.00018 1.00372 0.990656
1.00007 1.00433 0.990243
1.00302 1.00147 0.988062
1.00099 1.00492 0.987772
1.00009 1.00191 0.992557
1.00503 0.996712 0.988257
1.00004 1.00337 0.99121
1.00036 1.00432 0.989543
1.00513 0.996002 0.98864
1.00439 0.998353 0.987929
1.00166 1.00437 0.98738
1.00003 1.00281 0.99183
1.00516 0.995905 0.989462
1.00037 1.00379 0.990561
1.00082 1.0047 0.988849
1.00494 0.996218 0.988647
1.00262 1.00195 0.987507
1.00103 1.00005 0.991782
1.00009 1.00159 0.992879
1.00004 1.00214 0.992435
1.0001 1.00235 0.99209
1.00025 0.999962 0.994184
1.00014 1.0007 0.993612
1.00008 1.00125 0.993283
1.00007 1.00185 0.992644
1.00025 1.00002 0.994129
1.00018 1.00063 0.993606
1.00007 1.00212 0.992385
1.0001 1.00117 0.993301
1.00007 1.00168 0.99282
1.00008 1.00198 0.992481
1.00006 1.00145 0.993062
1.00015 1.00107 0.993312
1.00024 1.00064 0.993486
1.00026 1.00006 0.993991
1.0002 1.00067 0.993647
1.00024 1.00007 0.993992
1.00021 0.999019 0.995162
1.00022 0.998991 0.995182
1.00013 0.997203 0.997089
1.00022 0.998944 0.995225
1.00012 0.997179 0.997338
1.00002 0.996097 0.999367
1.00009 0.997194 0.997582
1.00004 0.996118 0.99852
1.00001 0.996131 0.998542
1.0002 0.998883 0.995318
1.0002 0.998998 0.995202
1.00009 0.997253 0.997125
1.00005 0.997406 0.997262
0.999938 0.996296 0.999352
1.00001 0.997597 0.996939
0.999878 0.996484 0.999321
0.999809 0.996702 0.999287
1.00499 0.997468 0.987614
1.00514 0.997815 0.987055
1.0051 0.998437 0.986541
1.00511 0.997891 0.987033
1.00513 0.997303 0.987606
1.00499 0.99663 0.988392
1.00509 0.996865 0.988044
1.00218 1.00004 0.98861
1.00519 0.995621 0.989311
1.00018 0.999939 0.994351
1.00506 0.997792 0.987272
1.00502 0.997592 0.987483
1.00501 0.997847 0.987107
1.00006 1.00316 0.991305
1.00085 1.00476 0.988255
1.00234 1.00296 0.98704
1.00459 0.997792 0.988093
1.00071 1.00194 0.991377
1.00001 1.00178 0.992656
1.00001 1.00327 0.99117
1.0002 0.99915 0.995063
1.00015 1.00202 0.99234
1.00023 1.00038 0.993958
1.00019 1.00127 0.993017
1.00017 1.00014 0.994051
1.00511 0.996969 0.987955
1.00017 0.999996 0.994241
1.00019 1.00029 0.993944
1.00011 1.00098 0.993447
1.00513 0.997302 0.987506
1.00501 0.996707 0.988152
1.00034 1.00278 0.991141
1.00119 1.00476 0.987532
1.00362 0.999612 0.987932
1.00017 1.00124 0.993057
1.0001 1.00195 0.992542
1.00018 1.00204 0.992113
0.999866 1.00393 0.991046
0.999968 1.00284 0.991798
1.00515 0.996649 0.988282
1.00516 0.997878 0.987063
1.0047 0.996949 0.988458
1.00216 1.00244 0.988298
1.00022 1.00336 0.990862
1.00012 1.00081 0.99348
1.00012 1.00114 0.99321
1.00011 1.00152 0.993009
1.00006 1.00183 0.992651
1.00003 1.00246 0.992192
0.999856 1.0035 0.991346
0.999786 1.00422 0.990661
1.00008 1.00193 0.992542
1.00002 1.00328 0.991231
1.00504 0.996698 0.988289
1.00512 0.99592 0.988565
1.00445 0.998246 0.98802
1.00033 1.00428 0.989506
1.00154 1.00453 0.987493
1.00001 1.00275 0.991925
1.00516 0.995722 0.989448
1.00023 1.00376 0.990592
1.0006 1.00472 0.988972
1.00499 0.995909 0.988816
1.00258 1.00212 0.987469
1.00104 1.00005 0.99065
1.00009 1.00313 0.991425
1.0051 0.995366 0.990478
1.00007 1.00404 0.990611
1.00066 1.00463 0.988718
1.00323 0.99837 0.988716
1.00105 0.995356 0.9639
0.996367 1.0011 0.980758
1.00051 1.00008 0.992884
0.998325 0.99758 0.955225
0.994332 0.99826 0.95435
1.00004 1.00215 0.992431
1.00008 1.00237 0.992137
1.00015 1.00214 0.992266
1.00025 1.00001 0.994125
1.00018 1.00062 0.993579
1.00011 1.00115 0.993296
1.00007 1.0017 0.992871
1.00007 1.00211 0.992363
1.00015 1.00107 0.993272
1.00025 1.00006 0.994042
1.00024 1.00062 0.993521
1.00007 1.00199 0.992487
1.00007 1.00145 0.993053
1.0001 1.00133 0.993073
1.00009 1.00159 0.992886
1.00023 1.001 0.993163
1.00029 1.00066 0.993374
1.00025 1.00006 0.993987
1.00026 1.00066 0.993499
1.00022 1.00102 0.99327
1.00015 1.00075 0.993582
1.00021 1.00068 0.993584
1.00024 1.00006 0.994102
1.00024 1.00008 0.993989
1.00021 0.999028 0.995157
1.00021 0.999017 0.995161
1.00013 0.997251 0.997069
1.00022 0.99899 0.995183
1.00013 0.997206 0.997088
1.00003 0.996104 0.999361
1.00013 0.997203 0.997119
1.00004 0.9961 0.998935
1.00004 0.996085 0.998523
1.00021 0.998798 0.995398
1.00021 0.998877 0.995317
1.00011 0.997144 0.997192
1.00021 0.998997 0.995199
1.00008 0.997247 0.99734
0.999979 0.996177 0.99937
1.00005 0.997425 0.997031
0.99993 0.996345 0.999342
0.999871 0.996514 0.999313
1.00511 0.997306 0.98758
1.00512 0.997887 0.987021
1.00499 0.996759 0.988358
1.00204 0.99892 0.988734
1.00508 0.996881 0.988085
1.00521 0.99597 0.989189
1.00525 0.996946 0.988076
0.998475 0.999616 0.977947
1.00339 0.996993 0.989066
1.00018 0.999902 0.994382
1.00018 0.99993 0.99435
1.00011 1.00072 0.993694
1.0001 1.00067 0.993777
1.00511 0.996946 0.987997
1.00515 0.997197 0.987512
1.00498 0.996892 0.988056
1.00043 1.00243 0.991214
1.00095 1.00478 0.987512
1.00367 0.999773 0.987933
1.00014 1.00238 0.991861
0.999876 1.00369 0.991196
0.99999 1.00286 0.991866
1.0002 1.0003 0.99394
1.00009 1.00193 0.992521
1.00017 1.00124 0.99312
1.00018 0.99999 0.994297
1.00011 1.00097 0.993352
1.00501 0.996685 0.98832
1.00012 1.00081 0.993578
1.00012 1.00113 0.993249
1.00012 1.00149 0.992946
1.00517 0.997478 0.987163
1.00466 0.997075 0.988383
1.00029 1.00321 0.990846
1.0021 1.00272 0.988162
1.00008 1.00186 0.992647
0.999986 1.00244 0.992238
0.999814 1.00425 0.990661
0.999905 1.00367 0.991204
1.00523 0.996884 0.987857
1.00506 0.996882 0.987645
1.00322 0.999993 0.988528
1.00022 1.00393 0.99034
1.00013 1.00151 0.992836
1.00004 1.0017 0.992837
1 1.00245 0.992176
0.999932 1.00425 0.990409
1.00007 0.995052 0.96149
0.999983 1.00269 0.99202
1.0001 1.00372 0.990623
1.00515 0.995511 0.989435
1.00503 0.995602 0.988986
1.00254 1.00229 0.98743
1.00037 1.00468 0.989095
1.00102 1.00006 0.98951
1.00001 1.00316 0.991475
1.00508 0.995201 0.990409
1.00001 1.00403 0.99064
1.0006 1.00473 0.988712
1.00353 0.998371 0.988707
1.00092 0.995726 0.96171
0.996282 1.00093 0.977256
1.00045 1.00008 0.993203
0.997544 0.998066 0.955351
0.994341 0.99825 0.950975
0.999989 1.00295 0.99181
0.999265 0.995139 0.955784
0.994454 0.999802 0.955392
1.00428 0.995547 0.991153
0.99973 1.00437 0.99093
1.00087 1.00312 0.989692
0.999723 0.999724 0.995671
0.998304 0.99873 0.964178
0.994909 1.00124 0.976523
0.996736 0.999488 0.95695
0.994359 0.999056 0.961561
1.00004 1.00239 0.992185
1.00012 1.00217 0.99226
1.00009 1.00176 0.992857
1.00024 1.00006 0.994092
1.00025 1.00061 0.993556
1.00015 1.00107 0.993232
1.00009 1.00144 0.993045
1.00007 1.00201 0.992494
1.00025 1.00007 0.993988
1.00009 1.00133 0.993099
1.00023 1.00101 0.993201
1.00029 1.00064 0.993437
1.00009 1.00159 0.99287
1.00021 1.00124 0.992949
1.00016 1.00129 0.993091
1.0003 1.00092 0.993179
1.00029 1.00064 0.993476
1.00027 1.00066 0.993497
1.00022 1.001 0.993235
1.0003 1.00091 0.993159
1.00014 1.00112 0.993234
1.00024 1.00115 0.993091
0.999983 1.00182 0.992799
1.00011 1.00088 0.993518
1.00015 1.00076 0.993581
1.00022 1.00008 0.994112
1.00021 1.00068 0.993521
1.00024 1.00006 0.994065
1.00021 0.999042 0.995154
1.00024 1.00009 0.993986
1.00021 0.999024 0.995157
1.00009 0.997277 0.997514
1.00021 0.999016 0.995161
1.00012 0.997243 0.997291
1.00007 0.996131 0.998471
1.00013 0.99721 0.997087
1.00003 0.99611 0.999358
1.00007 0.996104 0.998503
1.00018 0.999892 0.994377
1.0002 0.998757 0.995444
1.00021 0.998796 0.995399
1.00013 0.997066 0.997247
1.00021 0.998873 0.995316
1.00012 0.997136 0.997193
1.00001 0.996083 0.999385
1.00007 0.99726 0.997543
0.99999 0.99622 0.998928
0.999965 0.996376 0.998459
1.00178 0.997913 0.988855
1.00507 0.996905 0.988125
1.00523 0.996318 0.989068
0.997991 0.998899 0.979976
1.00326 0.99763 0.989299
1.00527 0.99639 0.98813
1.00477 0.997533 0.988801
0.998911 0.99734 0.981781
0.999453 0.995599 0.963139
0.997634 0.997989 0.955575
0.994446 0.997952 0.954215
1.00009 1.00069 0.993677
1.00018 0.999904 0.994381
1.00018 0.999925 0.99435
1.00011 1.00072 0.993666
1.00006 1.00123 0.993278
1.0001 1.00109 0.99337
1.00011 1.00072 0.993728
1.00009 1.00068 0.993734
1.00491 0.996687 0.98836
1.00518 0.996993 0.987264
1.00461 0.997241 0.988309
1.00036 1.00301 0.990831
1.00205 1.00288 0.988025
0.999841 1.00427 0.990663
0.999954 1.00383 0.991061
0.99994 1.00242 0.992284
1.00011 1.00111 0.993288
1.00009 1.00189 0.992642
1.00013 1.00082 0.993676
1.00013 1.00146 0.992882
1.00514 0.997093 0.987732
1.0001 1.0015 0.992907
1.00006 1.0017 0.992802
1.00497 0.997184 0.987649
1.00288 0.999733 0.988885
1.00033 1.00395 0.990097
1.00004 1.00247 0.992119
0.999941 1.00436 0.990414
1.00431 1.00063 0.987042
1.00425 0.996892 0.989728
1.00066 1.00224 0.990011
1.00008 1.00379 0.99086
1.00007 1.00167 0.992709
1.0001 1.0021 0.992366
1.00004 1.00297 0.99157
0.998955 0.994849 0.954239
1.00064 0.995096 0.965951
0.999937 1.00319 0.991525
0.99995 1.00406 0.99067
1.00506 0.995063 0.990341
1.00384 0.998433 0.988698
1.00054 1.00485 0.988705
1.00075 0.995353 0.960937
0.996288 1.00099 0.978468
1.00022 1.00008 0.993528
0.997433 0.997651 0.957076
0.994337 0.998244 0.947588
0.999949 1.00298 0.991804
0.999278 0.995217 0.95402
0.99445 0.999897 0.954018
1.00446 0.995928 0.991058
0.999639 1.00435 0.990972
1.00075 1.00286 0.989828
0.99982 0.998682 0.996254
0.998463 0.99871 0.961898
0.995156 1.00245 0.979256
0.996401 0.999702 0.956294
0.994499 0.999172 0.959723
0.999857 1.00268 0.99239
0.99437 1.00019 0.958744
0.994863 1.00205 0.972985
1.00161 0.998283 0.993894
0.999414 1.00405 0.992146
0.998389 1.00156 0.996848
0.996275 1.00089 0.983273
0.995979 1.00085 0.961494
0.995868 0.999602 0.958222
0.995546 0.998009 0.967613
1.00009 1.00219 0.992254
1.00009 1.0018 0.992771
0.999853 1.00112 0.993648
1.00025 1.00007 0.993989
1.00029 1.00063 0.9935
1.00023 1.00103 0.993239
1.00008 1.00132 0.993126
1.0001 1.0016 0.992854
1.00029 1.00063 0.993476
1.00019 1.00128 0.992985
1.0003 1.00091 0.993174
1.00011 1.00124 0.993182
1.00018 1.00066 0.993788
1.00031 1.00093 0.993114
1.00032 1.00089 0.993141
1.00027 1.00065 0.993495
1.00022 1.00099 0.993199
1.00029 1.00092 0.993162
1.00014 1.00112 0.99323
1.00024 1.00111 0.99308
1.00006 1.00136 0.993119
1.00029 1.00104 0.993054
1.00017 1.0013 0.992998
1.00004 1.00247 0.992052
0.999819 1.00374 0.991145
0.999928 1.00235 0.992278
0.999974 1.00187 0.992783
1.00008 1.0011 0.993354
1.00011 1.00089 0.993512
1.00019 1.00015 0.994103
1.00015 1.00077 0.993581
1.00022 1.00009 0.994112
1.00019 0.999084 0.995147
1.00024 1.00007 0.994027
1.00021 0.999038 0.995155
1.00007 0.99732 0.997518
1.00021 0.99902 0.995157
1.0001 0.997272 0.997295
1.00004 0.996138 0.998476
1.00013 0.997233 0.997071
1.00002 0.996132 0.999354
1.00003 0.996115 0.999356
1.00019 0.999957 0.994471
1.0002 0.998772 0.995439
1.00018 0.999905 0.994376
1.00013 0.997035 0.997277
1.00021 0.998758 0.995444
1.00021 0.998792 0.995399
1.00013 0.997069 0.997245
1.00002 0.996022 0.999397
1.0001 0.997135 0.99761
1.00002 0.996099 0.998957
1.00001 0.996227 0.998501
0.998856 0.995988 0.954558
0.994311 0.999061 0.957909
0.998233 0.997862 0.981426
1.00313 0.998435 0.989527
1.0053 0.995897 0.988181
0.998746 0.997274 0.984553
1.00477 0.997802 0.988766
1.00001 0.99513 0.965123
0.997649 0.997639 0.954872
0.994391 0.997966 0.950675
1.00006 0.99702 0.988617
0.997776 0.997943 0.966719
0.996447 0.999863 0.956621
0.994772 0.999204 0.958567
1.0001 1.00129 0.993136
1.0001 1.00068 0.99371
1.00018 0.999898 0.99438
1.00011 1.00072 0.993639
1.00005 1.0012 0.993336
1.00009 1.0013 0.993173
1.00011 1.00108 0.993349
1.00013 1.00092 0.993433
1.00011 1.00072 0.993678
1.0001 1.00069 0.993691
1.005 0.997296 0.98761
1.00482 0.997398 0.987657
1.00252 0.999457 0.989244
1.00043 1.00399 0.989855
0.999956 1.00443 0.990419
1.00008 1.0025 0.992063
1.00007 1.0017 0.992767
1.00008 1.0015 0.992978
1.00441 0.999898 0.987049
1.00009 1.0017 0.992688
1.00011 1.00208 0.992317
1.00401 0.996975 0.989696
1.00058 1.00269 0.990154
1.00017 1.00377 0.990585
1.00007 1.00295 0.991595
1.00166 1.00357 0.989415
1.00135 0.999368 0.992891
0.999981 1.00301 0.991594
1.00007 1.00188 0.992596
1.00017 1.00196 0.992282
1.00024 1.00234 0.991873
0.995298 0.999036 0.962691
0.999082 0.995386 0.955212
1.00032 0.995166 0.960879
0.99991 1.00302 0.991798
0.999556 1.00432 0.991016
1.00476 0.996223 0.990962
1.00061 1.00263 0.989959
0.999308 0.995224 0.955367
0.998165 0.998724 0.963786
0.995208 1.00207 0.976397
1.00001 0.997426 0.996781
0.99661 0.999834 0.955277
0.994438 0.999965 0.953975
0.994795 0.999263 0.959168
0.999779 1.00272 0.99239
0.994377 0.99995 0.959957
0.994771 1.00233 0.972834
1.00177 0.998418 0.993684
0.999202 1.0039 0.992194
0.998794 0.999352 0.998344
0.9962 1.0014 0.979345
0.996111 1.00195 0.964314
0.996644 0.999076 0.958112
0.995787 0.998164 0.967312
0.999337 1.00184 0.994407
0.996005 1.00143 0.97716
0.998077 1.0014 0.97955
0.997825 1.0016 0.996841
0.996965 1.0012 0.988951
0.995739 1.00099 0.963852
0.994962 0.999923 0.960348
0.997198 0.998531 0.96527
1.00007 1.00183 0.992687
0.999931 1.00105 0.993728
0.999637 0.999973 0.995111
1.00029 1.00062 0.993477
1.0003 1.00089 0.99317
1.00018 1.00132 0.993022
1.00008 1.00118 0.993272
1.00032 1.0009 0.993143
1.0003 1.00097 0.993093
1.00016 1.00047 0.993893
0.999892 1.00022 0.99467
1.00035 1.00044 0.993553
1.00031 1.00092 0.993075
1.00029 1.00093 0.993164
1.00014 1.00112 0.993227
1.00025 1.00109 0.993069
1.00029 1.00105 0.993056
1.00005 1.0014 0.993107
1.00018 1.00127 0.993008
1.00007 1.0017 0.992764
1.00024 1.00115 0.993026
0.999949 1.00263 0.992077
1.00005 1.00244 0.992106
0.999805 1.00353 0.991374
1.00016 1.00407 0.990283
0.999997 1.00288 0.991861
0.999796 1.00361 0.991324
0.999935 1.00235 0.992384
1.00006 1.00147 0.992932
0.999965 1.00193 0.992767
1.00008 1.00112 0.993345
1.00017 1.00025 0.994037
1.00011 1.00091 0.993507
1.00019 1.00015 0.994101
1.00015 0.999171 0.995127
1.00022 1.00009 0.994111
1.00019 0.999079 0.995148
1.00003 0.997392 0.997517
1.00021 0.999032 0.995156
1.00007 0.997321 0.997298
1 0.996207 0.998479
1.00011 0.997259 0.997074
1.00002 0.996151 0.998914
1.00002 0.996137 0.999354
1.00018 1.00007 0.99424
1.00019 0.998849 0.995389
1.00018 0.99996 0.994357
1.00012 0.997061 0.99727
1.0002 0.998774 0.99544
1.00017 0.999923 0.994374
1.00003 0.996003 0.999402
1.00013 0.997035 0.997276
1.00021 0.998758 0.995444
1.00013 0.997073 0.997243
1.00002 0.996031 0.999394
1.00001 0.996094 0.999381
0.994615 0.999103 0.962718
0.998836 0.995398 0.954807
0.994722 1.00256 0.972204
0.994341 0.999375 0.956621
0.999286 0.997259 0.980388
1.00478 0.997999 0.988689
0.999641 0.99556 0.966875
0.99806 0.998057 0.956356
0.994341 0.998185 0.947128
0.999565 0.997883 0.986702
0.998489 0.997551 0.961737
0.996526 0.999694 0.95551
0.994739 0.999159 0.957185
0.996388 0.998551 0.986883
0.997249 0.999988 0.961534
0.995588 0.999783 0.956502
0.996076 0.998788 0.964094
1.00011 1.00169 0.992775
1.00009 1.00129 0.993182
1.0001 1.00068 0.993743
1.00004 1.00117 0.993394
1.00013 1.00154 0.992787
1.00009 1.00127 0.993217
1.00011 1.00108 0.993328
1.00016 1.00101 0.993356
1.00014 1.00091 0.993501
1.00012 1.00071 0.993629
1.00453 0.999282 0.987059
1.0038 0.997167 0.989659
1.00051 1.00311 0.990295
1.00027 1.00374 0.99031
1.00009 1.00295 0.991619
1.00012 1.00206 0.992268
1.00011 1.00172 0.992668
1.00008 1.00189 0.99259
1.00214 1.00199 0.989678
1.00016 1.00201 0.992322
1.00025 1.00231 0.991899
1.00136 0.999473 0.992505
1.00021 1.0027 0.991598
0.999413 1.00126 0.993974
0.999716 1.00052 0.995157
1.00024 1.00168 0.992195
1.0002 1.0019 0.992334
1.00027 1.00226 0.991823
0.997679 1.00049 0.978352
0.995295 0.999635 0.962647
0.998949 0.995901 0.954328
0.999702 1.00277 0.992389
0.999015 1.00383 0.992244
1.00176 0.998583 0.993498
0.994324 0.999674 0.961995
0.996772 1.00095 0.961053
0.996351 1.00097 0.981368
0.99934 0.998182 0.999949
0.995832 0.999399 0.95813
0.994526 1.00261 0.972691
0.995836 0.998302 0.967664
0.999271 1.00196 0.994286
0.995573 1.00092 0.979663
0.997896 1.00181 0.979799
0.997803 1.00215 0.997042
0.996705 1.0009 0.988957
0.996065 1.00133 0.96068
0.996954 0.998292 0.967091
0.994899 0.999611 0.960423
0.997995 1.00137 0.997411
1.00128 1.00196 0.98414
0.999037 1.00184 0.980525
0.996242 0.998337 0.964308
0.994999 1.00254 0.997181
0.995597 0.998977 0.967032
0.994582 1.00011 0.961548
1.00002 1.00097 0.993806
0.999776 1.0001 0.994804
0.999181 0.999364 0.996549
1.00032 1.00089 0.993145
1.00028 1.00102 0.993073
1.00017 1.00025 0.993998
1.00032 1.00095 0.993066
1.00034 1.0004 0.993542
1.00005 0.999986 0.994564
0.999573 1.00002 0.995225
1.00039 1.0007 0.993194
1.00028 1.00105 0.993057
1.00004 1.00145 0.993094
1.00019 1.00123 0.993018
1.00024 1.00115 0.99301
1.00009 1.00164 0.992822
0.99978 1.00208 0.99291
0.99988 1.00267 0.992141
0.999834 1.004 0.990832
1.00007 1.00242 0.992161
0.999928 1.00351 0.99132
1.00007 1.00451 0.989718
1.00014 1.00427 0.990052
1.00002 1.00325 0.991366
1.0001 1.00411 0.990288
1.00008 1.00196 0.992527
1 1.00291 0.991772
0.999772 1.00348 0.991501
0.999942 1.00236 0.99249
1.00006 1.00144 0.993017
1.00015 1.00046 0.99386
1.00009 1.00114 0.993336
1.00017 1.00027 0.994031
1.00011 0.999286 0.995086
1.0002 1.00015 0.994098
1.00016 0.999159 0.995128
0.999966 0.997507 0.997503
1.00019 0.999072 0.995149
1.00003 0.9974 0.997297
0.999953 0.996302 0.99848
1.00008 0.997311 0.997079
0.999989 0.996214 0.998916
0.999996 0.996177 0.999355
1.0002 1.00025 0.993892
1.00017 0.999003 0.995124
1.00019 1.00008 0.994236
1.0001 0.997153 0.997221
1.00018 0.99886 0.995306
1.00017 0.999964 0.994243
1.00001 0.996032 0.999398
1.00012 0.997057 0.997271
1.0002 0.998775 0.995441
1.00003 0.996004 0.999401
1.00013 0.997036 0.997275
1.00002 0.99604 0.999391
0.99663 1.00122 0.977912
0.99463 0.998774 0.962069
0.998801 0.995376 0.955398
1.00022 1.00102 0.993184
0.996853 1.00192 0.981979
0.994576 1.00237 0.972086
0.994309 0.999465 0.956598
0.999344 0.998941 0.984932
0.998445 0.997977 0.966567
0.996472 0.999883 0.954569
0.994852 0.998956 0.956416
0.996174 0.999413 0.98217
0.996124 1.00061 0.965269
0.996799 0.999802 0.957479
0.996101 0.998876 0.963438
0.995368 1.00172 0.978062
0.995482 1.00018 0.961631
0.995108 0.99983 0.960099
0.996848 0.998616 0.965456
1.00017 1.00182 0.992488
1.00011 1.0017 0.99275
1.00009 1.00129 0.993228
1.00017 1.0015 0.992792
1.00012 1.00154 0.992872
1.00009 1.00125 0.993261
1.00017 1.00101 0.993372
1.00014 1.0009 0.993568
1.00261 1.0004 0.989942
1.00139 0.999632 0.992118
1.00008 1.0019 0.992583
1.00043 1.0025 0.991601
1.00027 1.00224 0.991925
1.00016 1.00205 0.992361
1.00019 1.00195 0.992356
1.00025 1.00068 0.994275
1.00025 1.00223 0.991941
1.00035 1.00179 0.992192
0.999842 0.999779 0.995085
1.00023 1.00178 0.992501
0.998158 0.998895 0.997712
0.99875 1.00212 0.99555
1.00031 1.00132 0.992406
1.00027 1.00186 0.992313
1.00282 1.00191 0.98342
0.997759 1.00101 0.978197
0.995279 1.00021 0.962612
0.999185 1.00207 0.99417
0.997767 1.0021 0.99721
0.995152 1.00044 0.982148
0.995901 0.999927 0.964517
0.996693 1.00057 0.984656
0.994944 0.999844 0.959952
0.997835 1.00218 0.980049
0.996811 0.998218 0.968912
0.998106 1.00155 0.996835
1.00101 1.00205 0.984477
0.999275 1.00162 0.981889
0.995391 1.00325 0.999771
0.99639 0.998523 0.963375
0.995034 0.999243 0.964948
0.994747 0.999973 0.960626
0.996742 1.00122 0.999671
1.00466 1.00206 0.982205
0.997 1.00133 0.982446
0.994806 0.998858 0.958752
0.9949 0.999812 0.960009
0.995478 0.999112 0.997181
0.995279 1.00013 0.961277
0.999895 1.00027 0.994503
0.999297 0.999636 0.9964
0.998244 0.998905 0.999153
1.00033 1.00099 0.993057
1.00033 1.00039 0.993532
1.00018 0.999855 0.994457
1.00034 1.00082 0.993169
0.999719 0.999684 0.995254
0.999458 1.00171 0.99383
1.00024 1.00116 0.992995
1.00012 1.00157 0.992879
0.999913 1.00208 0.992793
0.999369 1.0041 0.991578
0.99981 1.0027 0.992205
0.999727 1.00391 0.991057
1.00016 1.00494 0.989397
1.00077 1.00449 0.98871
1.00005 1.00348 0.991266
1.00019 1.00463 0.989483
1.00033 1.00386 0.99041
0.999908 1.00373 0.990892
1.00015 1.00412 0.990197
1.00007 1.00237 0.992144
1.00006 1.00323 0.991352
1.00004 1.00414 0.990295
1.00014 1.00082 0.993533
1.00007 1.00194 0.9925
1 1.00294 0.991682
1.00006 1.00141 0.993101
1.00015 1.00048 0.993851
1.00007 0.999457 0.995
1.00016 1.00028 0.994026
1.00012 0.99928 0.995085
0.999921 0.997664 0.997031
1.00017 0.999148 0.99513
0.999986 0.997514 0.997063
0.999849 0.99642 0.999355
1.00004 0.997392 0.997078
0.999941 0.996304 0.998916
0.99996 0.996243 0.999355
1.00024 1.00032 0.993758
1.00015 0.999194 0.994941
1.00021 1.00025 0.993954
1.00007 0.997297 0.997135
1.00017 0.999016 0.995103
1.00019 1.00009 0.994232
0.999989 0.996114 0.999383
1.0001 0.997143 0.997224
1.00018 0.998869 0.995222
1.00002 0.996024 0.999399
1.00012 0.997053 0.997272
1.00003 0.996005 0.9994
1.00181 1.00153 0.983329
0.996456 1.00149 0.978038
0.994539 0.998661 0.962221
1.00021 1.00104 0.993205
1.00023 1.00108 0.993062
1.00015 1.00152 0.992866
0.998858 1.00264 0.979965
0.996585 1.00161 0.982215
0.994434 1.00216 0.971952
0.995625 1.0002 0.985714
0.996772 1.00006 0.961469
0.995695 0.99979 0.957069
0.995957 0.999069 0.963392
0.995248 1.00056 0.982043
0.996053 1.00098 0.962197
0.995161 0.999982 0.96134
0.996667 0.998796 0.967166
0.995509 1.00167 0.979356
0.994981 1.0002 0.965159
0.994527 1.00006 0.962254
0.995379 0.998294 0.967457
1.00024 1.00173 0.992475
1.00016 1.00184 0.992473
1.0001 1.00171 0.992725
1.00017 1.00152 0.992786
1.00012 1.00154 0.992957
1.00018 1.00101 0.993388
1.001 1.00003 0.994569
0.99981 0.999092 0.995015
1.00017 1.00202 0.992378
1.00047 1.00171 0.992189
1.00023 1.00225 0.992059
1.00026 1.00172 0.992434
1.00023 1.00187 0.992359
0.99845 1.00006 0.99778
1.00027 1.00135 0.992649
0.998496 1.00156 0.9966
1.0002 1.0014 0.992893
0.996756 0.998823 0.999541
0.998393 1.00042 0.998449
1.00006 1.00154 0.992903
1.00705 1.00257 0.98037
1.00366 1.00201 0.9826
0.997839 1.00156 0.978041
0.998263 1.00167 0.99625
0.99595 1.0014 0.998709
1.00074 1.00212 0.984814
0.995382 0.999773 0.971704
0.99469 1.00003 0.961398
0.999472 1.00132 0.983253
0.996302 0.998779 0.963355
0.99701 1.00129 0.999634
1.00543 1.0018 0.981466
0.996724 1.00103 0.982649
0.995078 1.00022 0.991669
0.9948 0.999082 0.957198
0.995369 0.999922 0.960501
0.995117 1.0001 0.966015
0.996176 1.00094 1.00241
1.0023 1.00115 0.98307
0.994978 1.00243 0.972167
0.994507 0.997684 0.954094
0.99518 0.999752 0.95699
0.995177 1.00007 0.965033
0.99534 0.99928 0.987871
0.999417 0.999951 0.996255
0.998357 0.998652 0.999063
0.998584 1.00006 0.997741
1.0003 1.0009 0.993143
0.999868 0.999317 0.995282
0.999311 1.00182 0.993993
0.999156 1.00328 0.992897
1.00005 1.00209 0.992677
0.999686 1.00406 0.991325
1.00011 1.00509 0.989315
0.999608 1.00383 0.991283
1.00018 1.00496 0.989351
1.00109 1.00495 0.98792
1.00143 1.00454 0.987593
1.00049 1.00369 0.989838
1.00076 1.00449 0.988655
1.00031 1.00475 0.989248
1.0003 1.00336 0.990853
1.00024 1.00369 0.990571
0.999993 1.00303 0.991499
0.999961 1.00369 0.990991
1.00016 1.00398 0.990343
1.00014 1.0013 0.993055
1.00008 1.00234 0.99215
1.00009 1.00322 0.991338
1.00003 0.999716 0.994818
1.00014 1.00082 0.993526
1.00006 1.00192 0.992474
1.00014 1.0005 0.993842
1.00007 0.999457 0.994997
0.999847 0.99786 0.996971
1.00012 0.999274 0.995085
0.999925 0.997668 0.997029
0.999797 0.996575 0.999342
0.999992 0.997511 0.997062
0.999874 0.996437 0.998911
0.999911 0.996337 0.999353
1.00025 1.00041 0.993736
1.00016 0.999342 0.994935
1.00023 1.00034 0.993798
1.00003 0.997479 0.997033
1.00016 0.999204 0.995002
1.00022 1.00025 0.994016
0.999952 0.996238 0.999362
1.00007 0.997287 0.99714
1.00016 0.999032 0.995082
0.999993 0.996095 0.999388
1.0001 0.997135 0.997227
1.00002 0.996016 0.999401
1.00441 1.0026 0.981817
1.0016 1.00152 0.983645
0.996305 1.00161 0.978194
1.00022 1.0012 0.992958
1.00014 1.00179 0.992612
1.0002 1.00106 0.993226
1.00023 1.0011 0.99305
1.00016 1.0015 0.992818
1.00016 1.00157 0.992781
1.00015 1.00174 0.992614
0.997767 1.00193 0.979379
0.999051 1.00244 0.981297
0.996314 1.0013 0.982452
0.996432 0.99882 0.968878
0.99483 1.00022 0.978866
0.995918 1.00156 0.963111
0.99465 0.999986 0.960205
0.995407 0.999782 0.977848
0.995231 1.00005 0.962033
0.994673 0.999975 0.961581
0.995547 0.998464 0.967176
0.995507 0.997792 0.984649
0.995081 1.00016 0.96182
0.995261 0.99992 0.960348
0.994319 0.998842 0.961567
1.00023 1.00155 0.992715
1.00023 1.00168 0.992469
1.00015 1.00184 0.992459
1.00017 1.00153 0.992781
0.998906 1.00146 0.997825
0.998366 1.00104 0.997634
1.00029 1.00163 0.992366
1.0002 1.00186 0.992405
1.00023 1.00146 0.992894
1.00022 1.00141 0.992829
1.00003 1.00159 0.992837
0.996376 1.00046 0.998603
0.998165 1.00045 0.998832
0.999888 1.00148 0.993227
0.995795 0.997829 1.00039
0.998719 1.00194 0.996484
1.00298 1.00189 0.983293
1.00877 1.00204 0.978236
1.0045 1.0021 0.98178
0.997303 1.00136 0.999599
0.995461 0.999233 0.997593
1.00619 1.00157 0.980727
0.995368 1.00013 0.961617
0.9947 0.999969 0.959823
0.996444 1.00072 0.982852
0.994978 0.999087 0.956687
0.99622 1.00069 1.00257
1.00206 1.00111 0.983397
0.994805 1.00215 0.972061
0.995049 0.99928 0.992355
0.99444 0.997956 0.950714
0.996476 0.999852 0.957914
0.995328 1.00011 0.963211
0.996503 1.00136 0.999911
0.997179 1.00109 0.977288
0.994487 0.999049 0.958103
0.996657 0.999959 0.956335
0.995707 1.00071 0.965043
0.994846 0.99982 0.982294
0.998532 0.998406 0.998967
0.99842 1.00034 0.997739
1.00004 0.998828 0.996976
0.999147 1.00195 0.994156
0.998833 1.00334 0.993123
1.00033 1.00384 0.990086
1.00002 1.004 0.991071
1.00029 1.0051 0.989126
1.00135 1.00443 0.987581
1.00022 1.00498 0.989306
1.00112 1.00495 0.987796
1.0018 1.00411 0.98704
1.00221 1.00325 0.987233
1.00135 1.0039 0.988508
1.00146 1.00457 0.987402
1.00048 1.00301 0.990477
1.0005 1.00366 0.989917
1.00076 1.00449 0.988599
1.00029 1.0031 0.991036
1.00027 1.00341 0.990824
1.00015 1.00352 0.990732
1.00015 1.00187 0.992445
1.00002 1.00295 0.991602
1.00001 1.00364 0.99109
1.00001 1.00009 0.994467
1.00014 1.00128 0.993056
1.00009 1.00232 0.992157
0.999786 0.998075 0.996887
1.00002 0.999725 0.994811
1.00013 1.00083 0.99352
1.00007 0.999455 0.994994
0.999853 0.997866 0.996967
0.999717 0.99676 0.999328
0.999929 0.997673 0.997027
0.999787 0.996602 0.999338
0.999849 0.996464 0.999346
1.00021 1.00131 0.992919
1.00025 1.0005 0.993623
1.00015 0.999473 0.994825
1.00025 1.0004 0.993736
0.999976 0.99767 0.996933
1.00015 0.999356 0.994935
1.00022 1.00035 0.993838
0.999903 0.996395 0.999337
1.00002 0.997467 0.997039
1.00016 0.999211 0.995062
0.999957 0.996215 0.999368
1.00006 0.997276 0.997145
0.999997 0.996078 0.999393
1.00121 1.00207 0.984124
1.0052 1.00245 0.981142
1.00138 1.00151 0.98396
1.00022 1.0012 0.992985
1.00014 1.0018 0.992566
1.00011 1.00215 0.992237
1.00013 1.0017 0.99262
1.00012 1.00215 0.992335
1.00023 1.0011 0.993037
1.00017 1.00149 0.99277
1.00014 1.00158 0.992785
1.00019 1.00172 0.992558
1.0001 1.00184 0.992656
0.994885 1.00199 0.972855
0.997673 1.00228 0.97963
0.9993 1.00237 0.982629
0.995684 0.998664 0.967562
0.994597 0.999975 0.962209
0.99501 0.99984 0.976095
0.994983 1.00006 0.964938
0.995381 0.996989 0.979712
0.995054 1.00007 0.964973
0.994723 0.999873 0.960674
0.9944 0.998996 0.959731
0.995274 0.994798 0.984384
0.995141 1.00003 0.965533
0.996032 0.999901 0.957685
0.994337 0.998241 0.953875
0.99984 1.0013 0.993574
1.00019 1.00164 0.992686
1.00023 1.00166 0.992464
0.995947 1.00189 0.99769
0.997919 1.00032 0.99924
1.00023 1.00141 0.992763
1.00001 1.00169 0.992771
0.999894 1.00141 0.993269
0.998562 1.00181 0.996226
0.995726 0.997506 1.00046
0.998626 1.00229 0.994878
0.99674 1.00071 0.997261
0.997336 1.00088 0.978146
1.00377 1.00189 0.982548
1.01049 1.00154 0.976101
0.996207 1.0005 1.00272
0.99493 0.999337 0.985727
1.00184 1.00107 0.983725
0.995519 1.00007 0.961238
0.995412 0.999848 0.958234
0.994633 1.00183 0.971949
0.994373 0.99821 0.947331
0.996527 1.00118 1.00015
0.997041 1.0013 0.977433
0.994514 0.999183 0.956769
0.994899 0.999672 0.984393
0.996335 0.999954 0.955626
0.995642 1.00001 0.962075
0.997919 1.00003 0.99668
0.994757 0.998989 0.962851
0.997293 0.997983 0.955595
0.997381 1.001 0.961269
0.994937 1.00005 0.984067
0.998325 1.00056 0.997728
0.999847 0.998676 0.997007
1.00186 0.999062 0.992573
0.99852 1.00339 0.993348
0.999987 1.0039 0.990391
1.00215 1.00161 0.988435
1.00044 1.0051 0.988936
1.0014 1.00427 0.987595
1.00274 1.00211 0.987425
1.00114 1.00495 0.987672
1.00179 1.00409 0.987085
1.00288 1.00169 0.98745
1.00298 1.00112 0.987817
1.00185 1.00318 0.987844
1.00221 1.00312 0.987271
1.0011 1.00323 0.989466
1.00128 1.00399 0.988331
1.00148 1.0046 0.987211
1.00053 1.00266 0.990946
1.00046 1.00299 0.990601
1.00051 1.00363 0.989996
1.00027 1.00224 0.99187
1.00026 1.00309 0.991085
1.00024 1.00346 0.990793
1.00001 1.00067 0.993901
1.00016 1.00186 0.992446
1.00004 1.00288 0.991706
0.999701 0.998368 0.997193
1 1.00011 0.994457
1.00014 1.00127 0.993056
0.999649 0.997008 0.998356
0.999781 0.998106 0.997095
1.00002 0.999732 0.994804
0.999859 0.997873 0.996964
0.999706 0.996797 0.999321
0.999776 0.996631 0.999334
1.00017 1.00166 0.992603
1.00026 1.00067 0.993451
1.0002 1.00135 0.99288
1.00011 0.99962 0.994748
1.00025 1.00052 0.993624
0.999921 0.997853 0.996851
1.00014 0.999495 0.994824
1.00025 1.00041 0.993735
0.999845 0.99657 0.999313
0.999972 0.997664 0.996938
1.00015 0.999376 0.994934
0.999908 0.996367 0.999345
1.00002 0.997457 0.997045
0.999962 0.996188 0.999375
0.996239 1.0006 0.981164
1.00092 1.00217 0.984435
1.00596 1.00235 0.980468
1.00005 1.00246 0.992097
1.00022 1.00123 0.993013
1.00016 1.00181 0.992521
1.00014 1.00172 0.992657
1.00013 1.00211 0.992284
1.00012 1.00213 0.99229
1.00011 1.00243 0.992019
1.00005 1.00213 0.992335
1.00012 1.0016 0.992789
1.00022 1.0017 0.992502
1.00009 1.00186 0.992632
1.00004 1.00218 0.992718
0.994466 0.999714 0.955104
0.994729 1.00231 0.972691
0.99753 1.00254 0.979878
0.994564 0.999214 0.958865
0.995279 0.999859 0.960551
0.995101 1.00016 0.961931
0.995097 0.996051 0.982188
0.995179 0.994803 0.987708
0.994332 0.998226 0.950603
0.995004 1.00009 0.962016
0.996421 0.999814 0.957195
0.995406 0.997236 0.987375
0.995865 0.999901 0.966467
0.996758 0.999928 0.955446
0.9994 1.00102 0.994614
0.999951 1.00126 0.993575
1.00014 1.00172 0.992657
0.995621 0.99719 1.00047
0.99862 1.00157 0.995981
0.999867 1.00135 0.99331
0.999038 1.0022 0.994704
0.996383 1.00088 0.997432
0.998066 1.00128 0.994909
0.995085 0.999914 0.958366
0.997773 1.00075 0.980174
1.00456 1.00189 0.981803
0.996468 1.00107 1.00044
0.994935 0.999645 0.985825
0.996952 1.00146 0.977604
0.995647 0.999764 0.964633
0.996571 0.999963 0.954523
0.994458 0.999269 0.956798
0.997727 0.999862 0.996782
0.994844 0.998713 0.962129
0.997417 0.998004 0.955187
0.994853 1.00019 0.979676
0.996099 1.00078 0.96457
0.998875 0.999467 0.996601
0.998738 0.995948 0.954895
0.997393 1.00024 0.964976
0.995052 1.00084 0.977786
0.999585 0.998523 0.997046
1.00146 0.998788 0.993377
1.00334 0.996918 0.991236
0.999636 1.00397 0.990698
1.00222 1.00163 0.988431
1.00402 0.997953 0.988624
1.00146 1.00413 0.987611
1.00267 1.00196 0.987484
1.00391 0.998694 0.988429
1.00179 1.00405 0.98713
1.00289 1.00155 0.987471
1.00376 0.998921 0.988539
1.00342 0.999407 0.988806
1.0026 1.00161 0.988062
1.00297 1.00104 0.987919
1.0015 1.00275 0.988721
1.00188 1.00314 0.987963
1.00219 1.00299 0.98731
1.00078 1.00269 0.99045
1.00098 1.00324 0.989481
1.0012 1.00408 0.988153
1.00048 1.0022 0.991539
1.00056 1.00267 0.990936
1.00045 1.00296 0.990725
1.00004 1.0013 0.993235
1.00028 1.00223 0.991883
1.00023 1.00307 0.991134
0.999653 0.998724 0.996457
1.00001 1.00066 0.99389
1.00018 1.00185 0.992447
0.999519 0.997269 0.999276
0.999713 0.99841 0.996686
0.999996 1.00012 0.994445
0.999626 0.997003 0.9993
0.999789 0.998121 0.996853
0.999695 0.996834 0.999315
1.00011 1.00202 0.992441
1.00018 1.00164 0.992608
1.00022 1.00099 0.993193
1.00007 0.999776 0.994665
1.00025 1.00067 0.993454
1.0002 1.00138 0.992842
0.999863 0.998024 0.996792
1.00011 0.999622 0.994749
1.00025 1.0005 0.993625
0.999779 0.996746 0.999292
0.999916 0.997851 0.996854
1.00013 0.999509 0.994823
0.999851 0.996542 0.99932
0.999968 0.997657 0.996942
0.999914 0.996339 0.999352
0.994802 0.999957 0.958582
0.996029 1.00064 0.981309
1.00068 1.00225 0.984747
1.00004 1.00252 0.992049
1.00005 1.00283 0.991808
1.00004 1.00274 0.991834
1.00015 1.00172 0.992694
1.00014 1.00207 0.992332
1.00011 1.00211 0.992246
1.00006 1.00214 0.992308
1.00009 1.00245 0.991991
0.99995 1.00299 0.991801
1.00014 1.00174 0.99253
1.00008 1.00188 0.992608
0.999988 1.00205 0.992727
0.998327 0.998249 0.954163
0.994443 0.999928 0.953804
0.994491 1.0025 0.972549
0.994319 0.998222 0.947315
0.995349 0.999843 0.957356
0.995546 1.00013 0.966084
0.995185 0.994779 0.984006
0.995296 0.997265 0.984055
0.99643 0.999301 0.955127
0.995658 1.00004 0.963901
0.996483 0.996991 0.983646
0.997111 1.00091 0.960932
1.00088 1.00086 0.992731
0.999576 1.00087 0.994514
1.00005 1.00121 0.993578
0.995989 1.00116 0.997584
0.999365 1.00213 0.994523
0.99878 1.00158 0.994416
1.00154 0.999602 0.990749
0.998952 0.994887 0.954354
0.995045 1.00009 0.960673
0.998215 1.00062 0.982191
0.997603 0.999623 0.996929
0.994982 0.999972 0.981373
0.994771 0.998571 0.962301
0.996432 1.00115 0.960924
0.998047 0.999229 0.956367
0.998775 0.999649 0.995827
0.998744 0.995833 0.954959
0.998499 0.998977 0.960761
0.994947 1.00108 0.98105
0.999541 0.999714 0.995568
0.999373 0.997126 0.962196
0.996492 0.999539 0.983624
1.0011 0.998508 0.994179
1.00316 0.997059 0.991153
1.00481 0.994895 0.990181
1.00227 1.00162 0.988426
1.00403 0.998028 0.988576
1.00475 0.995815 0.989405
1.00259 1.00181 0.987543
1.0039 0.998623 0.988404
1.00468 0.996304 0.989105
1.00291 1.00141 0.987493
1.00373 0.99889 0.988515
1.00415 0.997368 0.989291
1.0037 0.998511 0.98932
1.0034 0.999272 0.988923
1.00305 1.0001 0.988744
1.00233 1.00169 0.988564
1.00261 1.00165 0.988084
1.00297 1.00095 0.988021
1.00125 1.00249 0.98957
1.00154 1.00277 0.988852
1.0019 1.00309 0.988081
1.00065 1.00218 0.9912
1.00081 1.00269 0.990429
1.00087 1.00325 0.989497
1.00014 1.00155 0.992756
1.0005 1.00218 0.991543
1.00059 1.00267 0.990926
0.999625 0.999139 0.996056
1.00006 1.00123 0.993236
1.0003 1.00221 0.991896
0.999483 0.997506 0.999222
0.999653 0.998765 0.996433
1.00001 1.00065 0.993878
0.999544 0.997289 0.998777
0.999722 0.99842 0.99668
0.999613 0.997071 0.999285
1.00012 1.00239 0.992044
1.0001 1.00207 0.992393
1.00014 1.00144 0.992901
1.0002 1.00164 0.992613
1.00022 1.00099 0.993194
1 1.00005 0.994501
0.999805 0.998179 0.99675
1.00007 0.999767 0.994671
1.00024 1.00069 0.993458
0.999706 0.996921 0.999277
0.999858 0.99802 0.996795
1.00011 0.999624 0.99475
0.999786 0.996724 0.999298
0.99991 0.99785 0.996857
0.999857 0.996512 0.999327
0.999068 0.996125 0.955568
0.994582 1.00034 0.957726
0.99585 1.00069 0.98145
1.00002 1.00259 0.992002
1.00002 1.00285 0.991744
0.999996 1.0028 0.991873
1.00016 1.00286 0.99156
0.999966 1.00316 0.991576
1.00008 1.00216 0.992281
1.00009 1.00247 0.991962
0.99992 1.00288 0.99184
0.999827 1.00303 0.99148
1.00013 1.00238 0.991904
1.0017 1.00156 0.990248
0.99995 1.00208 0.992622
0.999968 1.00192 0.992735
0.999241 0.999296 0.960354
0.997573 0.998282 0.954446
0.994429 1.00007 0.953698
0.996809 0.999699 0.954058
0.99569 1.00069 0.961861
0.995037 0.997235 0.988241
0.996576 0.997131 0.985952
0.997098 0.999106 0.965247
0.999416 0.998482 0.980543
1.00322 0.999058 0.989659
1.00049 1.00068 0.992719
0.999711 1.00073 0.994411
0.999264 1.00183 0.993946
1.00226 1.00004 0.989933
1.00001 0.99556 0.961081
0.999084 0.995367 0.955566
0.99493 1.00031 0.962992
0.998619 0.999836 0.995034
0.994832 1.00145 0.978047
0.998775 0.995449 0.955397
0.997844 1.00002 0.964986
0.999804 0.999806 0.995645
1.00023 0.995912 0.964006
0.996325 1.00034 0.97995
1.00146 1.0019 0.991451
1.00026 0.99667 0.98731
1.003 0.997221 0.991067
1.00461 0.995393 0.989918
1.00515 0.995672 0.989001
1.00406 0.99811 0.98853
1.00472 0.996046 0.989342
1.0051 0.995562 0.989135
1.0039 0.998549 0.988379
1.00469 0.996462 0.989042
1.0049 0.996374 0.98875
1.0037 0.998863 0.988491
1.00409 0.997502 0.989227
1.00427 0.997448 0.989094
1.00361 0.99832 0.989484
1.00353 0.999188 0.988909
1.00339 0.999148 0.989041
1.00306 1.00011 0.988714
1.00284 1.00058 0.988699
1.00191 1.00175 0.989081
1.00232 1.00173 0.988537
1.00262 1.0017 0.988105
1.00096 1.00215 0.99065
1.00123 1.00249 0.989661
1.00156 1.00279 0.988984
1.00021 1.00166 0.992456
1.00069 1.00217 0.991183
1.00084 1.0027 0.990409
0.999637 0.999591 0.995566
1.00016 1.00152 0.992766
1.00052 1.00216 0.991548
0.999458 0.997784 0.999144
0.999615 0.99921 0.996035
1.00008 1.00117 0.993237
0.99949 0.997554 0.999201
0.999651 0.998812 0.99641
0.999542 0.997329 0.999244
1.00026 1.00258 0.991614
1.00011 1.00237 0.992048
1.00014 1.00188 0.992423
1.00009 1.00209 0.992345
1.00013 1.00151 0.992831
0.999958 1.00051 0.994121
1.00022 1.00098 0.993195
1.00002 1.00003 0.994508
0.99973 0.998394 0.996679
0.999624 0.997096 0.999266
0.999798 0.998177 0.996753
1.00007 0.999755 0.994677
0.999715 0.996899 0.999282
0.999853 0.998016 0.996797
0.999792 0.996699 0.999304
1.00093 0.996396 0.963068
0.998706 0.996188 0.95458
0.994344 1.00079 0.957636
0.999998 1.00296 0.991655
0.999945 1.00276 0.991938
0.999969 1.00316 0.991617
1.00014 1.00285 0.991565
1.0003 1.00309 0.991078
0.99993 1.00302 0.991568
0.999892 1.00275 0.991878
0.999971 1.00317 0.991298
1.00003 1.00264 0.991799
1.00046 1.00216 0.991062
1.00199 1.00151 0.990435
1.00337 0.999974 0.988147
1.00145 1.00145 0.990455
0.999762 1.00242 0.992714
0.999223 0.998662 0.979096
0.999038 0.999193 0.961224
0.997716 0.998607 0.955515
0.998054 1.00072 0.960931
0.996864 0.997242 0.988159
0.999748 0.998216 0.984824
1.00328 0.997597 0.990604
1.00326 0.998764 0.990015
1.00034 1.00052 0.992705
1.00348 1.0007 0.9891
0.999201 0.998481 0.980613
1.00059 0.995478 0.96545
0.99894 0.99583 0.954723
0.999976 0.999895 0.995702
0.996129 1.00109 0.982191
0.999803 0.995872 0.965841
1.00162 1.00099 0.991663
0.999713 0.997674 0.985558
1.00411 0.999883 0.988788
1.0047 0.99717 0.988746
1.00439 0.995828 0.989656
1.00507 0.995614 0.988962
1.00516 0.996304 0.988586
1.00465 0.996296 0.989277
1.00506 0.995692 0.989134
1.00506 0.996746 0.988229
1.00471 0.996604 0.988979
1.00487 0.996558 0.988699
1.00488 0.997472 0.987895
1.00403 0.997639 0.989164
1.00411 0.997508 0.989223
1.00396 0.998557 0.988466
1.00352 0.998126 0.989647
1.00349 0.999054 0.988994
1.00336 0.999911 0.988541
1.00307 1.00012 0.988685
1.00284 1.0006 0.988675
1.00256 1.00091 0.988983
1.00144 1.00168 0.989996
1.00189 1.00177 0.989171
1.00231 1.00176 0.988511
1.00039 1.00174 0.992065
1.00098 1.00214 0.990643
1.00122 1.0025 0.989752
0.99962 1.00013 0.995083
1.00024 1.00168 0.992457
1.00073 1.00217 0.991166
0.99946 0.998068 0.999027
0.999637 0.999639 0.995556
1.00018 1.00148 0.992775
0.999472 0.997828 0.999108
0.999608 0.99927 0.996013
0.999498 0.997597 0.999178
1.00039 1.00279 0.991169
1.00026 1.00256 0.99165
1.00024 1.00216 0.992026
1.00011 1.00235 0.992051
1.00014 1.00193 0.992367
0.999979 1.00101 0.993573
1.00013 1.00157 0.992761
0.999965 1.0005 0.994128
0.999652 0.998715 0.996503
1.00003 1 0.994515
0.999727 0.998377 0.996687
0.999543 0.997309 0.999247
0.999637 0.997074 0.99927
0.999793 0.998174 0.996757
0.999723 0.99688 0.999286
0.999265 0.998251 0.979982
1.00072 0.996414 0.959649
0.998706 0.996054 0.955285
1.00088 1.00268 0.990378
0.999971 1.00317 0.991658
1.00011 1.00285 0.99157
0.999976 1.0031 0.991566
1.00024 1.00317 0.991044
1.0003 1.00199 0.991811
1.00012 1.00336 0.991115
1 1.00293 0.991695
1.00062 1.00217 0.991201
1.0017 1.00153 0.990486
1.00306 1.00016 0.988616
1.00492 0.998293 0.986656
1.0033 0.999857 0.98811
1.00126 1.00127 0.990662
1.00265 0.997367 0.992617
0.9991 0.999214 0.977581
0.999174 0.998895 0.96242
0.999564 0.998075 0.982352
1.00335 0.996945 0.9916
1.00296 0.998329 0.990379
1.00352 0.998576 0.988035
0.999002 0.997423 0.983033
1.00036 0.995524 0.96074
1.00189 0.999996 0.991869
0.999651 0.998759 0.98381
1.00407 0.998883 0.988867
1.00464 0.997489 0.989017
1.00526 0.996228 0.988351
1.00514 0.997591 0.987771
1.00496 0.995606 0.988923
1.00516 0.996009 0.988642
1.00503 0.996832 0.988354
1.00506 0.995766 0.989133
1.00505 0.996696 0.988242
1.00493 0.997893 0.987375
1.00484 0.996745 0.988649
1.00477 0.997499 0.988052
1.00447 0.99838 0.987655
1.00395 0.997564 0.989353
1.00399 0.998561 0.98845
1.00381 0.999305 0.988085
1.00346 0.998922 0.989079
1.00333 0.999816 0.988564
1.00303 1.00034 0.988598
1.00284 1.00062 0.988651
1.00252 1.00091 0.988936
1.00207 1.00111 0.989663
1.00079 1.00148 0.991605
1.00143 1.00169 0.990089
1.00186 1.0018 0.98926
0.999614 1.00061 0.994618
1.00041 1.00175 0.992063
1.00101 1.00212 0.990636
0.999397 0.998433 0.998895
0.999664 1.00008 0.995077
1.00026 1.00168 0.992459
0.999453 0.998122 0.998985
0.999637 0.999678 0.995545
0.999484 0.997873 0.999071
1.00071 1.00267 0.990513
1.00038 1.00276 0.991179
1.00042 1.00228 0.991643
1.00027 1.00254 0.991686
1.00023 1.00216 0.992046
1.00003 1.00143 0.993073
1.00014 1.00199 0.99231
0.999965 1.00106 0.993572
0.999581 0.999136 0.9962
0.999969 1.0005 0.994134
0.999653 0.998677 0.996522
0.999478 0.997554 0.999203
0.999725 0.998363 0.996696
0.999553 0.997273 0.999254
0.999647 0.997054 0.999273
1.00284 0.997953 0.99107
0.999264 0.998455 0.976586
1.00027 0.99681 0.963529
1.00098 1.00177 0.990836
1.00214 1.00154 0.989135
1.00067 1.0027 0.990497
1.00003 1.00315 0.991563
1.00019 1.00326 0.991007
1.00051 1.00196 0.991678
1.00305 0.99979 0.989057
1.00073 1.00219 0.991339
1.00126 1.00154 0.990536
1.00302 1.00014 0.988735
1.00468 0.998939 0.986446
1.00511 0.997021 0.987438
1.00493 0.998342 0.986709
1.00331 0.999835 0.988072
1.00292 0.997326 0.992789
0.99889 1.00003 0.975391
1.00368 0.996443 0.99258
1.00508 0.997075 0.98854
1.00336 0.998387 0.98829
0.999519 0.996507 0.979227
1.00405 0.998012 0.98896
1.00459 0.997795 0.989245
1.00519 0.996161 0.98855
1.00517 0.997239 0.987766
1.00511 0.996785 0.98805
1.00514 0.996714 0.987737
1.0052 0.995634 0.988698
1.00502 0.996679 0.988351
1.00492 0.99756 0.987711
1.00505 0.996708 0.988254
1.00489 0.997895 0.987428
1.00473 0.998377 0.987206
1.00465 0.997534 0.988209
1.00452 0.998381 0.987621
1.00432 0.99878 0.987615
1.00401 0.998565 0.988433
1.00382 0.9993 0.988075
1.00349 0.999857 0.988148
1.0033 0.999721 0.988587
1.00298 1.00032 0.98861
1.00248 1.00065 0.989276
1.00247 1.00091 0.988889
1.00202 1.00109 0.989637
1.00124 1.00102 0.991202
0.999699 1.00076 0.994252
1.00079 1.00149 0.991601
1.00142 1.00171 0.990182
0.999252 0.998949 0.998765
0.999686 1.00052 0.994608
1.00043 1.00176 0.99206
0.999373 0.998535 0.998853
0.999699 1.00006 0.995072
0.999452 0.998188 0.998943
1.00132 1.00228 0.989482
1.00071 1.00265 0.990413
1.00077 1.00218 0.991066
1.00037 1.00272 0.99119
1.00039 1.00227 0.991654
1.0001 1.00174 0.992694
1.00021 1.00215 0.992067
1 1.0015 0.993067
0.999555 0.999595 0.995777
0.999952 1.0011 0.99357
0.999591 0.999076 0.996221
0.99944 0.997817 0.999124
0.999654 0.998638 0.996541
0.999481 0.997512 0.999219
0.999564 0.997243 0.999261
1.00505 0.996547 0.988048
1.00288 0.997729 0.990473
0.999321 0.99762 0.978089
1.00313 1.00016 0.988952
1.00078 1.00162 0.991371
1.00312 1.00014 0.988048
1.00217 1.00155 0.989067
1.00045 1.00275 0.990619
1.00466 0.998884 0.986797
1.00073 1.00193 0.991549
1.00317 0.999705 0.988957
1.00507 0.998358 0.986487
1.003 1.00009 0.988854
1.00488 0.998918 0.986258
1.00506 0.99717 0.987465
1.00478 0.99844 0.986757
1.00303 0.997185 0.992973
1.00508 0.997191 0.987604
1.00509 0.997145 0.988499
1.00316 0.998218 0.988538
1.00508 0.996035 0.988752
1.00519 0.996981 0.98776
1.00504 0.99678 0.988148
1.00513 0.996805 0.987877
1.00513 0.997323 0.987485
1.00499 0.996576 0.988349
1.00491 0.997586 0.987709
1.00488 0.998131 0.987232
1.00485 0.997908 0.98748
1.00473 0.998421 0.987193
1.00455 0.998688 0.987294
1.00457 0.998382 0.987588
1.00434 0.998784 0.987598
1.00398 0.9993 0.987771
1.00383 0.999295 0.988064
1.0035 0.999854 0.988147
1.00297 1.00024 0.98875
1.00294 1.00029 0.988622
1.00248 1.00065 0.989279
1.00166 1.00065 0.990779
1.00196 1.00108 0.989611
1.00124 1.00104 0.991193
0.999803 1.00068 0.994934
0.999185 0.999594 0.996813
0.999772 1.00066 0.994684
1.0008 1.00151 0.991597
0.999233 0.999086 0.99872
0.999761 1.00043 0.994597
0.999354 0.998624 0.998808
1.0037 0.999231 0.988188
1.00212 1.00147 0.988821
1.00146 1.00226 0.989367
1.0012 1.00196 0.990456
1.00071 1.00263 0.990312
1.00073 1.00219 0.991086
1.00025 1.0018 0.992363
1.00036 1.00226 0.991664
1.00007 1.00175 0.992693
0.999588 1.00005 0.99528
0.999971 1.00158 0.993062
0.999559 0.999548 0.995791
0.999402 0.998129 0.999004
0.999599 0.999019 0.996242
0.999434 0.997775 0.999152
0.999485 0.997468 0.999234
1.00506 0.997684 0.987181
1.00509 0.996775 0.988546
1.00297 0.997693 0.989879
1.00454 0.998774 0.987146
1.00279 1.00021 0.989346
1.00058 1.00144 0.9919
1.00333 1.00009 0.988186
1.00221 1.00157 0.988999
1.00516 0.998727 0.986215
1.00467 0.998994 0.98661
1.00328 0.999649 0.988855
1.00507 0.998362 0.98648
1.00509 0.998898 0.98607
1.00503 0.997276 0.987504
1.00518 0.997601 0.987239
1.0051 0.997105 0.98766
1.00512 0.99714 0.988461
1.00501 0.996782 0.988246
1.00512 0.996872 0.988017
1.00514 0.997253 0.987567
1.00514 0.998032 0.986838
1.00488 0.997606 0.987707
1.00481 0.998177 0.987252
1.00469 0.998865 0.98685
1.00474 0.998458 0.987181
1.00454 0.99869 0.987302
1.00421 0.999103 0.987537
1.00435 0.998788 0.987581
1.00399 0.9993 0.987769
1.00341 0.999788 0.988365
1.0035 0.999851 0.988145
1.00297 1.00024 0.98875
1.00207 1.00038 0.990282
1.00247 1.00065 0.989283
1.00167 1.00065 0.990766
0.999996 1.00049 0.994817
1.00124 1.00105 0.991185
0.999911 1.00065 0.994887
0.999065 1.00009 0.996654
0.99911 0.999675 0.997697
0.999867 1.00058 0.995077
0.999213 0.999213 0.998669
1.00465 0.998532 0.987216
1.00301 1.0004 0.988646
1.00355 0.998923 0.988805
1.00173 1.00161 0.989739
1.00224 1.00151 0.988788
1.0016 1.00223 0.989252
1.00115 1.002 0.990464
1.00054 1.0017 0.991927
1.00068 1.00219 0.991107
1.00023 1.00179 0.992366
0.999641 1.00044 0.994812
1.00004 1.00175 0.992693
0.999563 1.00005 0.995287
0.999313 0.998563 0.998862
0.999563 0.99949 0.995803
0.999401 0.998071 0.999045
0.999431 0.997729 0.999178
1.00518 0.998005 0.986772
1.00506 0.997668 0.987177
1.00509 0.99694 0.989035
1.00502 0.998591 0.986473
1.00451 0.99887 0.987187
1.00248 1.00025 0.989743
1.00352 1.00001 0.988327
1.00515 0.998669 0.986212
1.00469 0.999101 0.986424
1.00506 0.998374 0.986471
1.00518 0.997959 0.986851
1.00518 0.997605 0.987195
1.00509 0.997037 0.987717
1.00516 0.998244 0.986608
1.00515 0.997183 0.98765
1.00511 0.998031 0.986878
1.00496 0.998738 0.986507
1.00475 0.998234 0.987273
1.00468 0.99887 0.986868
1.00435 0.999333 0.987035
1.00454 0.998695 0.98731
1.00421 0.999107 0.987534
1.00364 0.999565 0.988165
1.00399 0.9993 0.987766
1.00341 0.999787 0.988367
1.00242 1.0001 0.989901
1.00297 1.00024 0.988751
1.00208 1.00036 0.99027
1.00023 1.00026 0.994675
1.00167 1.00066 0.990753
1.00009 1.00048 0.994763
0.999058 1.00023 0.996586
1.00003 1.00059 0.994837
0.998989 1.0002 0.996707
0.998986 0.999704 0.998677
1.00486 0.998833 0.986672
1.0041 0.999152 0.987667
1.00452 0.998638 0.987407
1.00247 1.00091 0.989262
1.003 1.00026 0.988672
1.00341 0.998624 0.989412
1.00101 1.00144 0.99126
1.00172 1.00163 0.989731
1.00236 1.00156 0.988753
1.00111 1.00203 0.990472
1.00051 1.00169 0.991936
0.999707 1.00073 0.994415
1.00021 1.00176 0.99237
0.99958 1.00051 0.994818
0.999157 0.999142 0.998728
0.999537 1.00005 0.995294
0.999329 0.998471 0.99891
0.999402 0.998016 0.999084
1.00514 0.998078 0.986748
1.00517 0.998004 0.986745
1.00509 0.997652 0.987174
1.00505 0.998435 0.986565
1.00447 0.998973 0.987226
1.00515 0.998601 0.98621
1.00514 0.998217 0.986659
1.00518 0.997988 0.98683
1.00518 0.99761 0.987151
1.00516 0.9982 0.98664
1.0051 0.998595 0.986435
1.00508 0.998026 0.986918
1.00496 0.998773 0.986473
1.00467 0.999256 0.986481
1.00467 0.998873 0.986885
1.00435 0.99934 0.987037
1.00379 0.999719 0.987722
1.00422 0.999107 0.987532
1.00364 0.999565 0.988159
1.00259 0.999922 0.989738
1.00341 0.999785 0.988369
1.00243 1.00009 0.989898
1.00048 1.00003 0.994515
1.0021 1.00035 0.990258
1.00032 1.00026 0.994612
0.999174 1.00017 0.996491
1.0002 1.00045 0.994715
0.99898 1.00031 0.996657
0.998904 1.00034 0.996767
1.005 0.998471 0.986574
1.00446 0.998979 0.987157
1.00483 0.998798 0.986646
1.00336 0.999931 0.988431
1.00411 0.999231 0.987692
1.00437 0.998741 0.987606
1.00162 1.00089 0.990584
1.00246 1.00084 0.989109
1.00299 1.00012 0.988699
0.999846 1.00084 0.994029
1.001 1.00143 0.991274
1.00172 1.00165 0.989723
1.00049 1.00169 0.991945
0.999615 1.00084 0.994428
0.999013 0.999755 0.998618
0.999513 1.0006 0.994823
0.999187 0.999015 0.998776
0.99935 0.998379 0.998955
1.00512 0.998248 0.986677
1.00514 0.99809 0.986739
1.00516 0.998006 0.986717
1.00509 0.998282 0.986657
1.00509 0.998523 0.986472
1.00515 0.998224 0.986658
1.00518 0.998017 0.98681
1.00517 0.998164 0.986672
1.00509 0.998552 0.986453
1.00491 0.999004 0.98642
1.00496 0.998808 0.986439
1.00466 0.999312 0.986522
1.0041 0.999671 0.987047
1.00435 0.99935 0.987039
1.00379 0.999722 0.987715
1.00273 0.999947 0.989437
1.00364 0.999569 0.988153
1.00261 0.999908 0.989735
1.0006 0.999931 0.993394
1.00244 1.00007 0.989894
1.00053 1.00002 0.993965
0.999306 1.00011 0.998419
1.00041 1.00026 0.99455
0.99909 1.00023 0.996568
0.998897 1.00044 0.996716
1.00497 0.998462 0.986699
1.00458 0.998868 0.986928
1.005 0.998515 0.986628
1.00379 0.999371 0.987843
1.00446 0.99901 0.987154
1.00481 0.998767 0.986621
1.00227 1.00018 0.989754
1.00337 0.999922 0.988426
1.00412 0.999313 0.987716
1.00012 1.00064 0.993658
1.00163 1.00086 0.990447
1.00244 1.00078 0.988956
0.999002 1.00021 0.998517
0.999759 1.00092 0.994049
1.00098 1.00142 0.991289
0.999528 1.00094 0.99444
0.999025 0.999617 0.998658
0.999216 0.998879 0.998817
1.00507 0.998436 0.986556
1.00512 0.998232 0.986681
1.00515 0.998105 0.986729
1.00493 0.998908 0.986457
1.00509 0.998515 0.986482
1.00516 0.998225 0.986658
1.00509 0.998504 0.986471
1.00491 0.998972 0.986416
1.00448 0.999378 0.986905
1.00466 0.999369 0.986563
1.0041 0.999724 0.987205
1.00306 0.999918 0.988569
1.0038 0.99972 0.987708
1.00274 0.999944 0.989428
1.00069 1 0.993155
1.00262 0.999895 0.989732
1.0006 0.999932 0.993392
0.999356 1.00003 0.9984
1.00054 1.00003 0.993458
0.999264 1.00009 0.997466
0.999006 1.0003 0.996641
1.00488 0.998625 0.986729
1.00465 0.998774 0.987027
1.00497 0.998454 0.986711
1.00397 0.999315 0.987733
1.00462 0.998846 0.986931
1.005 0.998558 0.986682
1.00269 0.999749 0.989409
1.0038 0.999444 0.988005
1.00446 0.999039 0.98715
1.00043 1.00024 0.99343
1.00232 1.00017 0.989705
1.00339 0.999913 0.988421
0.999118 1.00037 0.998436
1.00007 1.00066 0.993684
1.00164 1.00083 0.99031
0.998962 1.0001 0.998553
0.999683 1.00097 0.994072
0.999033 0.999466 0.9987
1.00492 0.998842 0.986526
1.00507 0.998471 0.986557
1.00513 0.998215 0.986684
1.00449 0.999225 0.98701
1.00493 0.998892 0.986471
1.00508 0.998513 0.986491
1.00491 0.998942 0.986412
1.00447 0.999383 0.986898
1.00343 0.999702 0.988098
1.00409 0.999778 0.987363
1.00304 0.999942 0.98873
1.00091 1.00005 0.992658
1.00276 0.999935 0.989421
1.0007 0.999997 0.99314
0.999417 1.00001 0.998353
1.00059 0.99994 0.99339
0.999373 1.00002 0.998389
0.999299 1.00005 0.99643
1.00471 0.998907 0.986973
1.0049 0.99856 0.986741
1.0041 0.999227 0.987585
1.00466 0.998757 0.987018
1.00498 0.998445 0.986723
1.00289 0.999704 0.989376
1.00399 0.999313 0.987724
1.00465 0.998824 0.986934
1.00065 0.999934 0.993292
1.0027 0.999799 0.989507
1.00381 0.99952 0.988168
0.999283 1.00026 0.998387
1.00041 1.00024 0.993444
1.00236 1.00017 0.989656
0.99906 1.0003 0.998459
1.00001 1.00069 0.993711
0.998922 0.999988 0.998593
1.00443 0.999236 0.987113
1.00492 0.998873 0.986516
1.00506 0.998506 0.986559
1.00345 0.999582 0.988177
1.00449 0.999228 0.987012
1.00493 0.998873 0.986484
1.00447 0.999388 0.98689
1.00341 0.999721 0.988119
1.00115 1.00003 0.992237
1.00302 0.999964 0.988891
1.00093 1.00005 0.992636
0.999558 1.00001 0.998235
1.00071 0.999997 0.993126
0.999462 1 0.998319
0.999399 1.00001 0.998375
1.00422 0.999234 0.987393
1.00469 0.998828 0.986937
1.00492 0.998495 0.986754
1.00304 0.999675 0.989129
1.00411 0.999231 0.987576
1.00466 0.998741 0.987009
1.0008 0.99984 0.99309
1.00289 0.999718 0.989373
1.004 0.999311 0.987716
0.999433 1.00008 0.998344
1.00064 0.999923 0.993301
1.0027 0.999843 0.989605
0.999233 1.00025 0.998399
1.00039 1.00024 0.993458
0.998991 1.00026 0.998489
1.0034 0.999649 0.988474
1.00445 0.999217 0.986967
1.00491 0.998901 0.986505
1.00122 0.999962 0.992163
1.00346 0.999572 0.988166
1.00449 0.999229 0.987014
1.00338 0.999737 0.988141
1.00116 1.00002 0.992233
0.999739 1.00001 0.998088
1.00095 1.00006 0.992613
0.999623 1.00001 0.998177
0.999505 0.999994 0.998276
1.00322 0.999669 0.988791
1.00424 0.999202 0.98732
1.00468 0.998749 0.986901
1.00099 0.999904 0.993856
1.00304 0.999686 0.98912
1.00413 0.999236 0.987567
0.999553 0.999973 0.998271
1.0008 0.999842 0.993098
1.00288 0.999732 0.98937
0.999389 1.0001 0.99836
1.00064 0.999918 0.993311
0.99918 1.00025 0.998411
1.00122 0.999966 0.99219
1.0034 0.999614 0.988381
1.00448 0.999194 0.986822
0.999817 1 0.998035
1.00122 0.999965 0.992164
1.00347 0.999564 0.988155
1.00116 1.00001 0.992226
0.999779 1.00001 0.99806
0.999696 1.00001 0.998122
1.00117 0.999963 0.993505
1.00322 0.999664 0.988794
1.00425 0.999171 0.987247
0.999461 0.999973 0.998354
1.00092 0.999913 0.992819
1.00305 0.999691 0.989111
0.99951 0.999998 0.9983
1.00079 0.99985 0.993107
0.999352 1.00012 0.998372
0.999793 1.00001 0.995664
1.00121 0.999965 0.992813
1.00339 0.999584 0.988288
0.999813 0.999998 0.998036
1.00121 0.999967 0.992169
0.999804 1 0.998039
0.999542 0.999991 0.995985
1.0011 0.999973 0.993027
1.00322 0.999661 0.988797
0.999532 0.999977 0.997171
1.00092 0.999929 0.992805
0.999475 1.00002 0.998326
0.999799 0.999995 0.998044
1.00117 0.999964 0.992264
0.999812 0.999996 0.998036
0.999642 0.999997 0.997019
1.00106 0.999975 0.992487
0.999575 0.999985 0.998246
0.999769 0.99999 0.998074
0.999679 0.999986 0.998152

TENSORS stress float
0.00118871 -7.90135e-06 7.28274e-05
-7.90135e-06 0.000293092 -8.26295e-06
7.28274e-05 -8.26295e-06 0.0002735
0.00330441 -8.28271e-05 6.74241e-05
-8.28271e-05 0.00140821 3.5949e-06
6.74241e-05 3.5949e-06 0.00140353
0.00120995 3.30903e-05 3.48378e-05
3.30903e-05 0.000314445 -2.57438e-06
3.48378e-05 -2.57438e-06 0.000288998
0.00160403 -1.54412e-05 8.9711e-05
-1.54412e-05 0.000483648 -6.41068e-06
8.9711e-05 -6.41068e-06 0.000462275
0.00130442 -1.52555e-05 7.8641e-05
-1.52555e-05 0.000352488 -8.35611e-06
7.8641e-05 -8.35611e-06 0.000331197
0.00112692 2.06523e-05 6.1742e-05
2.06523e-05 0.000253273 -7.47601e-06
6.1742e-05 -7.47601e-06 0.000234984
0.00110941 -3.09231e-06 8.89888e-06
-3.09231e-06 0.000206395 -4.49713e-06
8.89888e-06 -4.49713e-06 0.000155837
0.00325294 -9.72389e-05 2.63172e-06
-9.72389e-05 0.00137909 -3.11114e-07
2.63172e-06 -3.11114e-07 0.00137365
0.00404675 -0.000173374 1.73427e-06
-0.000173374 0.00183599 2.31181e-06
1.73427e-06 2.31181e-06 0.00181117
0.00328865 -0.000143696 1.05468e-05
-0.000143696 0.00142713 1.71361e-06
1.05468e-05 1.71361e-06 0.00140976
0.00115074 -3.55896e-05 5.19483e-05
-3.55896e-05 0.000240487 4.24132e-06
5.19483e-05 4.24132e-06 0.000231358
0.00074771 2.60613e-05 7.71281e-06
2.60613e-05 5.02942e-06 4.93596e-06
7.71281e-06 4.93596e-06 -3.80829e-05
0.00175593 -9.33386e-06 0.000106784
-9.33386e-06 0.000546653 1.02139e-06
0.000106784 1.02139e-06 0.000523948
0.0013096 1.35579e-05 1.66493e-05
1.35579e-05 0.000331209 1.5322e-06
1.66493e-05 1.5322e-06 0.000305853
0.0012711 8.21941e-05 -2.48238e-06
8.21941e-05 0.000359294 3.17658e-06
-2.48238e-06 3.17658e-06 0.000326671
0.00147603 3.20551e-06 3.85787e-05
3.20551e-06 0.000421517 -2.31777e-06
3.85787e-05 -2.31777e-06 0.000397947
0.00113495 4.15725e-05 2.8998e-05
4.15725e-05 0.000264585 -2.50477e-06
2.8998e-05 -2.50477e-06 0.00024262
0.00129983 3.22723e-05 4.00739e-05
3.22723e-05 0.000361268 -2.43114e-06
4.00739e-05 -2.43114e-06 0.000333888
0.00122674 -1.57883e-05 -1.50619e-05
-1.57883e-05 0.000262799 3.80553e-07
-1.50619e-05 3.80553e-07 0.0002149
0.00482832 -1.32468e-05 0.000106535
-1.32468e-05 0.00219308 -1.20046e-06
0.000106535 -1.20046e-06 0.00218821
0.00166204 -9.11362e-06 9.30897e-05
-9.11362e-06 0.00050844 -4.81387e-06
9.30897e-05 -4.81387e-06 0.000487691
0.00145865 -1.65104e-05 8.40005e-05
-1.65104e-05 0.000421537 -7.74313e-06
8.40005e-05 -7.74313e-06 0.000399879
0.00145749 -2.61736e-05 1.88664e-05
-2.61736e-05 0.000317927 -3.44725e-06
1.88664e-05 -3.44725e-06 0.00026803
0.00122921 -3.61085e-07 9.05528e-06
-3.61085e-07 0.000250944 -4.99873e-06
9.05528e-06 -4.99873e-06 0.000198035
0.00114231 4.28631e-05 4.85898e-05
4.28631e-05 0.00024589 -6.90223e-06
4.85898e-05 -6.90223e-06 0.000230813
0.00101715 3.22855e-06 8.5162e-06
3.22855e-06 0.000168757 -3.68053e-06
8.5162e-06 -3.68053e-06 0.000122169
0.00152036 -9.27003e-05 4.13457e-06
-9.27003e-05 0.000330908 -1.77448e-06
4.13457e-06 -1.77448e-06 0.000251662
0.00318298 -0.000104336 -5.25173e-05
-0.000104336 0.00133966 -3.08141e-06
-5.25173e-05 -3.08141e-06 0.00133399
0.00261387 -5.76922e-05 -3.91024e-05
-5.76922e-05 0.00105698 -7.73005e-07
-3.91024e-05 -7.73005e-07 0.00103626
0.00226809 -8.22308e-05 -2.68049e-05
-8.22308e-05 0.000872787 -6.1215e-07
-2.68049e-05 -6.1215e-07 0.000854958
0.0030125 -9.24106e-05 1.55076e-06
-9.24106e-05 0.00123798 -1.78399e-07
1.55076e-06 -1.78399e-07 0.00123648
0.000688016 1.77269e-05 -1.09758e-07
1.77269e-05 -2.14734e-05 -1.71154e-07
-1.09758e-07 -1.71154e-07 -6.50011e-05
0.00160951 2.75731e-05 8.62164e-05
2.75731e-05 0.000498558 5.36501e-06
8.62164e-05 5.36501e-06 0.00047732
0.0016329 1.25043e-05 7.58294e-05
1.25043e-05 0.0005277 6.16728e-06
7.58294e-05 6.16728e-06 0.000507126
0.00222109 7.49404e-05 4.77322e-05
7.49404e-05 0.000759082 5.67787e-06
4.77322e-05 5.67787e-06 0.000715851
0.00271575 -9.49356e-05 1.4678e-05
-9.49356e-05 0.00107203 1.35068e-06
1.4678e-05 1.35068e-06 0.00107308
0.00192908 3.52552e-05 3.69288e-05
3.52552e-05 0.000632474 4.42551e-06
3.69288e-05 4.42551e-06 0.000593587
0.000677293 -1.07713e-05 7.7217e-06
-1.07713e-05 -2.80796e-05 6.92466e-06
7.7217e-06 6.92466e-06 -6.67968e-05
0.000916728 6.37519e-05 3.66183e-06
6.37519e-05 6.10492e-05 8.71175e-07
3.66183e-06 8.71175e-07 -1.6476e-05
0.00251357 -6.60855e-05 3.94368e-05
-6.60855e-05 0.000951304 3.2267e-06
3.94368e-05 3.2267e-06 0.000960279
0.00501692 -1.16122e-05 9.74774e-07
-1.16122e-05 0.0022874 -5.79977e-07
9.74774e-07 -5.79977e-07 0.002282
0.00302052 1.49441e-05 -4.25085e-05
1.49441e-05 0.0012385 -1.00388e-06
-4.25085e-05 -1.00388e-06 0.0012232
0.00519074 1.95241e-05 0.000115376
1.95241e-05 0.00237312 4.52634e-07
0.000115376 4.52634e-07 0.00236814
0.00135096 2.70092e-06 1.33794e-05
2.70092e-06 0.000349628 9.74286e-07
1.33794e-05 9.74286e-07 0.000323052
0.000792414 -4.15655e-06 1.46301e-05
-4.15655e-06 -7.2074e-05 2.28219e-06
1.46301e-05 2.28219e-06 -0.000129522
0.0044605 -1.62274e-05 2.87906e-05
-1.62274e-05 0.00201369 1.27006e-06
2.87906e-05 1.27006e-06 0.00200382
0.00235377 1.08727e-05 5.57942e-05
1.08727e-05 0.00078031 3.41144e-06
5.57942e-05 3.41144e-06 0.000740053
0.00134143 -1.93561e-06 -1.7296e-05
-1.93561e-06 0.000355889 2.06303e-06
-1.7296e-05 2.06303e-06 0.000330307
0.0013361 5.90386e-05 -5.36877e-06
5.90386e-05 0.000386973 2.97213e-06
-5.36877e-06 2.97213e-06 0.000356628
0.00115696 7.38524e-05 -5.78438e-06
7.38524e-05 0.000284588 2.54915e-06
-5.78438e-06 2.54915e-06 0.00025756
0.0012911 -3.17708e-05 -3.86815e-05
-3.17708e-05 0.000289916 5.21169e-06
-3.86815e-05 5.21169e-06 0.000245447
0.00319978 4.0704e-05 -4.33758e-05
4.0704e-05 0.00132977 -1.06444e-06
-4.33758e-05 -1.06444e-06 0.00131065
0.00149581 -9.04478e-07 3.82659e-05
-9.04478e-07 0.000425292 -1.55669e-06
3.82659e-05 -1.55669e-06 0.000402467
0.00110214 5.21357e-05 2.16551e-05
5.21357e-05 0.000228343 -2.30869e-06
2.16551e-05 -2.30869e-06 0.000211775
0.00139543 1.5391e-05 3.93897e-05
1.5391e-05 0.000395682 -2.60564e-06
3.93897e-05 -2.60564e-06 0.000370676
0.00150645 -3.42132e-05 -1.40017e-05
-3.42132e-05 0.000341623 2.76486e-07
-1.40017e-05 2.76486e-07 0.000293415
0.00112307 -2.56967e-06 -1.18962e-05
-2.56967e-06 0.000220141 3.38775e-07
-1.18962e-05 3.38775e-07 0.000175512
0.00132856 -2.54607e-05 -1.52662e-05
-2.54607e-05 0.000295498 4.03549e-07
-1.52662e-05 4.03549e-07 0.00024709
0.00164904 -9.80528e-05 -2.31391e-06
-9.80528e-05 0.000394296 8.26222e-07
-2.31391e-06 8.26222e-07 0.000313906
0.00499581 3.91857e-05 0.000105195
3.91857e-05 0.00227707 1.52267e-07
0.000105195 1.52267e-07 0.00227157
0.00164067 1.12493e-06 9.54118e-05
1.12493e-06 0.000495953 -3.44759e-06
9.54118e-05 -3.44759e-06 0.000474801
0.00226177 4.45842e-05 1.2672e-05
4.45842e-05 0.000729596 -1.09658e-06
1.2672e-05 -1.09658e-06 0.000680822
0.00148664 -2.64367e-05 2.06408e-05
-2.64367e-05 0.000325676 -2.46659e-06
2.06408e-05 -2.46659e-06 0.000277091
0.00135046 -1.55865e-05 1.42799e-05
-1.55865e-05 0.000285962 -4.48688e-06
1.42799e-05 -4.48688e-06 0.000234973
0.00195662 -7.96511e-05 6.71934e-06
-7.96511e-05 0.000433545 -2.02443e-06
6.71934e-06 -2.02443e-06 0.000349259
0.00124737 -8.27357e-05 6.24859e-06
-8.27357e-05 0.000140843 -3.02367e-06
6.24859e-06 -3.02367e-06 5.7689e-05
0.0012181 4.63762e-05 4.37477e-05
4.63762e-05 0.000264952 -6.66469e-06
4.37477e-05 -6.66469e-06 0.000256529
0.000968258 2.85105e-05 6.91987e-06
2.85105e-05 0.000147073 -3.07492e-06
6.91987e-06 -3.07492e-06 0.000107822
0.00133118 -7.91676e-05 2.926e-06
-7.91676e-05 0.000271253 -1.15389e-06
2.926e-06 -1.15389e-06 0.000195606
0.00112875 -9.93408e-05 2.736e-06
-9.93408e-05 6.54702e-05 -1.03465e-06
2.736e-06 -1.03465e-06 -3.64513e-05
0.00398103 -7.76378e-05 -7.16465e-05
-7.76378e-05 0.00178404 -4.19687e-06
-7.16465e-05 -4.19687e-06 0.00177269
0.00296892 -9.3884e-05 -4.70359e-05
-9.3884e-05 0.0012119 -3.05714e-06
-4.70359e-05 -3.05714e-06 0.00121142
0.00335734 -0.000108598 -5.91613e-05
-0.000108598 0.00144918 -3.1465e-06
-5.91613e-05 -3.1465e-06 0.00143937
0.000634626 1.74157e-05 -6.61838e-06
1.74157e-05 -4.56883e-05 -5.53368e-06
-6.61838e-06 -5.53368e-06 -8.90609e-05
0.00453891 -2.29963e-05 -2.83806e-06
-2.29963e-05 0.00205892 -2.93706e-07
-2.83806e-06 -2.93706e-07 0.00205134
0.00385223 -9.55832e-05 2.62255e-06
-9.55832e-05 0.00172239 -2.46614e-07
2.62255e-06 -2.46614e-07 0.00170879
0.000633164 7.13188e-05 -6.25793e-07
7.13188e-05 -8.07447e-05 -1.63831e-07
-6.25793e-07 -1.63831e-07 -0.000133045
0.00188874 -6.74385e-05 -1.84438e-05
-6.74385e-05 0.00062759 -6.67011e-07
-1.84438e-05 -6.67011e-07 0.000625794
0.000657842 4.23578e-05 -2.71017e-07
4.23578e-05 -3.94076e-05 -9.34119e-08
-2.71017e-07 -9.34119e-08 -8.65006e-05
0.001168 -2.32322e-05 1.02702e-05
-2.32322e-05 0.000236581 4.48263e-07
1.02702e-05 4.48263e-07 0.000201823
0.000867424 6.21908e-05 1.7351e-07
6.21908e-05 3.39709e-05 -2.08637e-07
1.7351e-07 -2.08637e-07 -4.28958e-05
0.00266142 -7.3215e-05 4.38413e-05
-7.3215e-05 0.00103446 3.21876e-06
4.38413e-05 3.21876e-06 0.00104094
0.000715902 -5.29997e-05 1.40628e-06
-5.29997e-05 -1.46761e-05 4.28264e-06
1.40628e-06 4.28264e-06 -3.53014e-05
0.000775052 6.00812e-05 1.45088e-05
6.00812e-05 -3.38019e-05 6.45688e-06
1.45088e-05 6.45688e-06 -8.69942e-05
0.000803286 6.56343e-05 1.34477e-05
6.56343e-05 2.21771e-05 7.96424e-06
1.34477e-05 7.96424e-06 -2.88585e-05
0.00105203 8.10542e-05 6.53431e-06
8.10542e-05 2.25082e-05 2.91e-06
6.53431e-06 2.91e-06 -6.48253e-05
0.00157826 -5.33346e-05 2.19131e-05
-5.33346e-05 0.000455696 3.72572e-06
2.19131e-05 3.72572e-06 0.000429699
0.000966238 7.79483e-05 4.04464e-06
7.79483e-05 6.21935e-05 1.61732e-06
4.04464e-06 1.61732e-06 -1.64658e-05
0.000892759 4.5747e-05 3.5602e-06
4.5747e-05 6.65308e-05 1.65824e-06
3.5602e-06 1.65824e-06 -9.38089e-06
0.000882009 9.08241e-05 1.8055e-06
9.08241e-05 1.20233e-05 -5.72744e-07
1.8055e-06 -5.72744e-07 -8.22815e-05
0.00233498 -5.91458e-05 3.3896e-05
-5.91458e-05 0.000850053 3.29285e-06
3.3896e-05 3.29285e-06 0.000861649
0.00245427 -6.63718e-05 8.66949e-07
-6.63718e-05 0.000919839 -1.02275e-07
8.66949e-07 -1.02275e-07 0.000929022
0.00466092 2.21618e-05 -0.000101124
2.21618e-05 0.00211075 -3.28327e-06
-0.000101124 -3.28327e-06 0.0021058
0.00491611 -4.33699e-06 -0.000104145
-4.33699e-06 0.00223664 -1.29792e-06
-0.000104145 -1.29792e-06 0.00223174
0.0051557 2.13252e-05 3.53052e-06
2.13252e-05 0.00235746 -5.73822e-07
3.53052e-06 -5.73822e-07 0.00235142
0.0030939 -9.39518e-06 -4.24569e-05
-9.39518e-06 0.0012743 -5.03304e-07
-4.24569e-05 -5.03304e-07 0.00125771
0.00163651 8.75272e-06 2.44301e-05
8.75272e-06 0.00038025 1.26289e-07
2.44301e-05 1.26289e-07 0.000329464
0.00294284 -3.49938e-06 -4.37248e-05
-3.49938e-06 0.00120396 -1.19931e-06
-4.37248e-05 -1.19931e-06 0.00118824
0.00155312 2.67462e-05 2.18384e-05
2.67462e-05 0.00035773 4.05432e-07
2.18384e-05 4.05432e-07 0.000311383
0.00517136 8.64852e-05 0.000107761
8.64852e-05 0.00236799 1.49416e-06
0.000107761 1.49416e-06 0.00235991
0.000758106 -1.84836e-06 1.33664e-05
-1.84836e-06 -9.9537e-05 3.89973e-07
1.33664e-05 3.89973e-07 -0.000158434
0.0024101 -1.29309e-05 5.80597e-05
-1.29309e-05 0.000802338 2.48825e-06
5.80597e-05 2.48825e-06 0.000760165
0.00124621 1.69188e-05 8.43348e-06
1.69188e-05 9.99838e-06 1.80379e-06
8.43348e-06 1.80379e-06 -8.32706e-05
0.00227569 5.34471e-05 5.31942e-05
5.34471e-05 0.000751848 3.92766e-06
5.31942e-05 3.92766e-06 0.000710611
0.00119852 4.70557e-05 8.13506e-06
4.70557e-05 1.73707e-05 1.8989e-06
8.13506e-06 1.8989e-06 -7.13974e-05
0.0017181 1.83704e-05 -0.000103285
1.83704e-05 0.000531418 4.08645e-07
-0.000103285 4.08645e-07 0.000509571
0.00130155 -1.40013e-05 -1.80335e-05
-1.40013e-05 0.000327859 1.5312e-06
-1.80335e-05 1.5312e-06 0.00030274
0.00100603 6.42995e-05 -7.88892e-06
6.42995e-05 0.000181728 2.00149e-06
-7.88892e-06 2.00149e-06 0.000163145
0.00135139 1.92085e-05 -1.27343e-05
1.92085e-05 0.00037714 2.47213e-06
-1.27343e-05 2.47213e-06 0.000350647
0.00156455 -3.03854e-05 -4.89739e-05
-3.03854e-05 0.000370244 4.1624e-06
-4.89739e-05 4.1624e-06 0.00032357
0.00138881 -3.9087e-05 -4.28718e-05
-3.9087e-05 0.000321463 5.42888e-06
-4.28718e-05 5.42888e-06 0.000276132
0.00120562 -1.43457e-05 -3.35497e-05
-1.43457e-05 0.000258373 4.45915e-06
-3.35497e-05 4.45915e-06 0.000216429
0.00181347 -0.000104316 -9.59095e-06
-0.000104316 0.000476586 3.76403e-06
-9.59095e-06 3.76403e-06 0.000394937
0.00507182 6.29815e-07 -2.80462e-06
6.29815e-07 0.00231442 -5.2574e-07
-2.80462e-06 -5.2574e-07 0.00230919
0.00147612 -1.40975e-06 4.00928e-05
-1.40975e-06 0.000414256 -8.95019e-07
4.00928e-05 -8.95019e-07 0.000390861
0.00115828 7.22276e-06 -2.60584e-05
7.22276e-06 0.00013396 3.09778e-07
-2.60584e-05 3.09778e-07 8.17959e-05
0.00151469 -2.75226e-05 -1.4476e-05
-2.75226e-05 0.000338299 2.79688e-07
-1.4476e-05 2.79688e-07 0.000291144
0.00203751 6.7487e-05 3.54143e-05
6.7487e-05 0.000708287 -1.38599e-06
3.54143e-05 -1.38599e-06 0.00070428
0.00129438 2.87974e-05 -7.24683e-06
2.87974e-05 0.000316792 2.38416e-07
-7.24683e-06 2.38416e-07 0.000278154
0.00142874 -3.38982e-05 -1.41842e-05
-3.38982e-05 0.000322642 3.54713e-07
-1.41842e-05 3.54713e-07 0.00027451
0.00176356 -7.37133e-05 -4.65685e-06
-7.37133e-05 0.000331259 6.77931e-07
-4.65685e-06 6.77931e-07 0.000245923
0.00150787 -8.88405e-05 -1.83482e-06
-8.88405e-05 0.000360394 7.77118e-07
-1.83482e-06 7.77118e-07 0.000283104
0.00153113 -9.07668e-05 -1.10663e-06
-9.07668e-05 0.000289635 1.1123e-07
-1.10663e-06 1.1123e-07 0.000206929
0.0011371 -9.90052e-05 -4.62471e-08
-9.90052e-05 6.94378e-05 8.23244e-08
-4.62471e-08 8.23244e-08 -3.2311e-05
0.000750316 2.68168e-06 1.32307e-05
2.68168e-06 -9.4862e-05 -1.51491e-06
1.32307e-05 -1.51491e-06 -0.000152613
0.0014577 -2.00981e-05 1.95028e-05
-2.00981e-05 0.00030901 -2.06458e-06
1.95028e-05 -2.06458e-06 0.000260105
0.00161916 -6.97721e-06 7.83377e-06
-6.97721e-06 0.000222353 -1.69753e-06
7.83377e-06 -1.69753e-06 0.000134547
0.00157619 -5.42806e-05 7.90734e-06
-5.42806e-05 0.000219729 -1.31452e-06
7.90734e-06 -1.31452e-06 0.000135495
0.00147445 -8.21871e-05 7.50536e-06
-8.21871e-05 0.000211319 -3.06027e-06
7.50536e-06 -3.06027e-06 0.000125287
0.00183388 -8.8167e-05 2.43097e-06
-8.8167e-05 0.000284847 -6.84749e-07
2.43097e-06 -6.84749e-07 0.000181816
0.00284582 8.31801e-05 4.47884e-05
8.31801e-05 0.00113182 -2.99384e-06
4.47884e-05 -2.99384e-06 0.00113618
0.00117227 -9.56329e-05 2.88765e-06
-9.56329e-05 3.76908e-05 -1.4807e-06
2.88765e-06 -1.4807e-06 -6.53284e-05
0.000675104 6.16159e-05 2.39735e-06
6.16159e-05 -2.10414e-05 -4.67813e-06
2.39735e-06 -4.67813e-06 -5.92202e-05
0.000693292 -5.29409e-05 2.6538e-06
-5.29409e-05 -3.76208e-05 -1.11434e-06
2.6538e-06 -1.11434e-06 -0.000110914
0.00123135 -0.00010766 2.5471e-06
-0.00010766 0.000167538 -1.07367e-06
2.5471e-06 -1.07367e-06 6.59741e-05
0.00126289 -0.000111249 1.19168e-06
-0.000111249 9.60724e-05 -4.54306e-07
1.19168e-06 -4.54306e-07 -1.54883e-05
0.000621952 5.61105e-05 2.18313e-06
5.61105e-05 -6.32141e-05 -4.65772e-06
2.18313e-06 -4.65772e-06 -8.95147e-05
0.000803602 3.58304e-05 7.31699e-07
3.58304e-05 1.29493e-05 -2.49963e-06
7.31699e-07 -2.49963e-06 -4.14537e-05
0.00434705 -2.22823e-05 -8.74642e-05
-2.22823e-05 0.00196047 -4.07857e-06
-8.74642e-05 -4.07857e-06 0.00195355
0.00358459 -0.000106754 -6.24548e-05
-0.000106754 0.00158158 -3.81558e-06
-6.24548e-05 -3.81558e-06 0.00156856
0.000577433 6.26817e-05 -1.06409e-05
6.26817e-05 -0.000108324 -6.30155e-06
-1.06409e-05 -6.30155e-06 -0.000160544
0.00278993 -8.31325e-05 -4.38821e-05
-8.31325e-05 0.00110807 -2.99076e-06
-4.38821e-05 -2.99076e-06 0.00111189
0.000612476 -3.80912e-05 -2.07615e-06
-3.80912e-05 -5.49417e-05 -5.51008e-06
-2.07615e-06 -5.51008e-06 -9.32986e-05
0.000591007 3.75528e-05 -7.88955e-06
3.75528e-05 -6.94498e-05 -5.46397e-06
-7.88955e-06 -5.46397e-06 -0.000117045
0.000833455 6.07189e-05 -3.61592e-06
6.07189e-05 1.50752e-05 -1.32738e-06
-3.61592e-06 -1.32738e-06 -6.13868e-05
0.002635 -7.37918e-05 8.24211e-07
-7.37918e-05 0.00102078 -1.32614e-07
8.24211e-07 -1.32614e-07 0.00102738
0.000686624 -4.97817e-05 1.12786e-07
-4.97817e-05 -3.15564e-05 9.05455e-08
1.12786e-07 9.05455e-08 -5.13021e-05
0.00143877 6.38359e-05 1.95064e-05
6.38359e-05 0.000322224 2.77565e-07
1.95064e-05 2.77565e-07 0.000274509
0.00126881 5.68257e-05 1.62498e-05
5.68257e-05 0.000276329 2.96932e-07
1.62498e-05 2.96932e-07 0.000230557
0.00103843 8.13132e-05 4.06913e-07
8.13132e-05 1.62414e-05 -1.62918e-07
4.06913e-07 -1.62918e-07 -7.10018e-05
0.000685572 -5.58647e-05 1.50463e-08
-5.58647e-05 -2.02321e-05 9.58249e-08
1.50463e-08 9.58249e-08 -5.1736e-05
0.000908767 7.45714e-05 1.28664e-07
7.45714e-05 3.23515e-05 3.21891e-07
1.28664e-07 3.21891e-07 -4.58621e-05
0.0008388 3.92409e-05 3.03479e-07
3.92409e-05 3.85083e-05 -2.89119e-07
3.03479e-07 -2.89119e-07 -3.71416e-05
0.000834265 8.85717e-05 -9.11554e-08
8.85717e-05 -1.40477e-05 -1.40055e-07
-9.11554e-08 -1.40055e-07 -0.000108667
0.000682438 -5.6644e-05 1.65802e-06
-5.6644e-05 -2.53134e-05 4.51637e-06
1.65802e-06 4.51637e-06 -5.15782e-05
0.000745491 -4.41219e-05 2.26481e-06
-4.41219e-05 -9.67968e-06 3.81299e-06
2.26481e-06 3.81299e-06 -2.42788e-05
0.000747189 -6.96748e-06 2.3812e-06
-6.96748e-06 -1.08342e-05 2.24782e-06
2.3812e-06 2.24782e-06 -6.38518e-05
0.0010972 7.17584e-05 7.39467e-06
7.17584e-05 3.06446e-06 2.60733e-06
7.39467e-06 2.60733e-06 -8.56481e-05
0.0010151 8.34875e-05 5.1926e-06
8.34875e-05 5.25807e-05 2.74146e-06
5.1926e-06 2.74146e-06 -3.05355e-05
0.00124924 0.000102222 3.54056e-06
0.000102222 6.30601e-05 1.66389e-06
3.54056e-06 1.66389e-06 -4.37401e-05
0.000855827 2.72504e-05 2.82348e-06
2.72504e-05 4.84801e-05 2.08166e-06
2.82348e-06 2.08166e-06 -2.15514e-05
0.000925435 9.40886e-05 1.41158e-06
9.40886e-05 9.62404e-07 9.57322e-08
1.41158e-06 9.57322e-08 -9.40491e-05
0.00105875 9.50398e-05 2.06251e-06
9.50398e-05 0.000133613 7.00576e-08
2.06251e-06 7.00576e-08 3.77144e-05
0.00107615 0.000108214 -9.46577e-07
0.000108214 0.000104165 -1.63055e-06
-9.46577e-07 -1.63055e-06 8.33947e-07
0.00221105 -5.26293e-05 2.94103e-05
-5.26293e-05 0.000775963 3.37958e-06
2.94103e-05 3.37958e-06 0.000790092
0.00229181 -5.93024e-05 6.80077e-07
-5.93024e-05 0.000826287 -8.29944e-08
6.80077e-07 -8.29944e-08 0.000838165
0.00239599 -6.63858e-05 -3.38665e-05
-6.63858e-05 0.000888645 -3.10252e-06
-3.38665e-05 -3.10252e-06 0.000898119
0.0006686 4.55243e-05 2.73312e-06
4.55243e-05 -4.67622e-05 -4.06044e-06
2.73312e-06 -4.06044e-06 -6.67458e-05
0.00268686 7.48864e-05 4.03497e-05
7.48864e-05 0.00104291 -3.09683e-06
4.03497e-05 -3.09683e-06 0.00104994
0.00455736 1.00382e-05 -9.71437e-05
1.00382e-05 0.00206129 -3.86485e-06
-9.71437e-05 -3.86485e-06 0.00205588
0.00474384 5.95199e-06 -0.000101328
5.95199e-06 0.00215093 -2.24323e-06
-0.000101328 -2.24323e-06 0.00214621
0.000714465 3.30781e-05 -1.25683e-05
3.30781e-05 -8.75145e-05 -3.23726e-06
-1.25683e-05 -3.23726e-06 -0.000139225
0.000730447 1.82653e-05 -1.30909e-05
1.82653e-05 -9.88082e-05 -2.05281e-06
-1.30909e-05 -2.05281e-06 -0.00015568
0.0051099 -3.6379e-05 -0.000106963
-3.6379e-05 0.00233377 -2.44053e-07
-0.000106963 -2.44053e-07 0.00232825
0.00518882 8.22077e-06 -1.20524e-06
8.22077e-06 0.00237277 4.90825e-07
-1.20524e-06 4.90825e-07 0.00236742
0.000753895 -1.65609e-08 -1.09912e-07
-1.65609e-08 -0.000100845 -3.74113e-07
-1.09912e-07 -3.74113e-07 -0.000159768
0.00159449 9.14856e-06 2.30256e-05
9.14856e-06 0.000371799 4.0352e-07
2.30256e-05 4.0352e-07 0.000323992
0.00124329 2.06668e-05 1.78315e-07
2.06668e-05 9.0431e-06 -7.60535e-09
1.78315e-07 -7.60535e-09 -8.42566e-05
0.000670047 4.35089e-05 9.37075e-08
4.35089e-05 -0.000101156 -6.60596e-08
9.37075e-08 -6.60596e-08 -0.000152489
0.00119362 4.88507e-05 -1.21685e-08
4.88507e-05 1.5478e-05 -1.53071e-07
-1.21685e-08 -1.53071e-07 -7.35292e-05
0.000735825 -7.99084e-06 1.3588e-05
-7.99084e-06 -0.000112359 -5.40836e-07
1.3588e-05 -5.40836e-07 -0.000171654
0.00127853 7.48268e-06 8.71665e-06
7.48268e-06 8.35693e-06 3.7801e-07
8.71665e-06 3.7801e-07 -8.84331e-05
0.00122321 3.18189e-05 8.17167e-06
3.18189e-05 1.71633e-05 1.89972e-06
8.17167e-06 1.89972e-06 -7.26036e-05
0.00150708 2.04595e-05 3.82589e-06
2.04595e-05 6.43484e-05 1.45681e-06
3.82589e-06 1.45681e-06 -4.3924e-05
0.00115383 5.96719e-05 7.85629e-06
5.96719e-05 8.00978e-06 2.34895e-06
7.85629e-06 2.34895e-06 -8.07657e-05
0.00144639 5.44544e-05 3.53161e-06
5.44544e-05 6.71798e-05 7.47881e-07
3.53161e-06 7.47881e-07 -3.57546e-05
0.00512475 4.08415e-06 -0.000116151
4.08415e-06 0.00234051 -8.051e-07
-0.000116151 -8.051e-07 0.00233539
0.00128808 -2.14053e-05 -1.52668e-05
-2.14053e-05 0.000320364 1.11135e-06
-1.52668e-05 1.11135e-06 0.00029451
-1.18034e-05 -1.91068e-07 -1.3009e-05
-1.91068e-07 -0.000491212 2.52355e-06
-1.3009e-05 2.52355e-06 -0.000552217
0.00157376 -1.87607e-05 -5.02275e-05
-1.87607e-05 0.000367216 2.79742e-06
-5.02275e-05 2.79742e-06 0.00032148
0.00277903 0.000103626 -1.55448e-05
0.000103626 0.00111279 1.26219e-06
-1.55448e-05 1.26219e-06 0.00111023
0.0016594 8.69073e-06 -2.6841e-05
8.69073e-06 0.000501423 3.97066e-06
-2.6841e-05 3.97066e-06 0.000467404
0.00149457 -3.78621e-05 -4.61786e-05
-3.78621e-05 0.000354065 5.09515e-06
-4.61786e-05 5.09515e-06 0.00030787
0.00156594 -6.79485e-05 -1.47176e-05
-6.79485e-05 0.000226491 3.1957e-06
-1.47176e-05 3.1957e-06 0.000140149
0.00182933 -9.9711e-05 -9.7536e-06
-9.9711e-05 0.000446365 3.55301e-06
-9.7536e-06 3.55301e-06 0.000363987
0.00170525 -9.83361e-05 -7.65661e-06
-9.83361e-05 0.000460626 3.02129e-06
-7.65661e-06 3.02129e-06 0.000381645
0.00114793 -9.88174e-05 -2.25334e-06
-9.88174e-05 7.4728e-05 1.04923e-06
-2.25334e-06 1.04923e-06 -2.68684e-05
0.000748254 4.63001e-06 -1.91321e-08
4.63001e-06 -9.70837e-05 -3.09431e-07
-1.91321e-08 -3.09431e-07 -0.00015482
0.00150961 -1.60235e-05 -1.58141e-05
-1.60235e-05 0.000333969 8.90252e-08
-1.58141e-05 8.90252e-08 0.000286538
0.00122407 -6.68895e-06 -2.98278e-06
-6.68895e-06 1.3459e-05 3.92024e-08
-2.98278e-06 3.92024e-08 -7.67085e-05
0.00179411 -5.61824e-05 -2.31103e-06
-5.61824e-05 0.000335463 3.21995e-07
-2.31103e-06 3.21995e-07 0.000252419
0.00281497 8.20441e-05 -6.9808e-07
8.20441e-05 0.00111686 -1.52675e-07
-6.9808e-07 -1.52675e-07 0.00112094
0.00112147 3.78832e-05 1.87033e-06
3.78832e-05 0.000212516 2.22407e-07
1.87033e-06 2.22407e-07 0.000179448
0.00109753 -5.69527e-05 1.73495e-07
-5.69527e-05 0.000173077 -9.2319e-08
1.73495e-07 -9.2319e-08 9.97414e-05
0.00147943 -8.14227e-05 -2.12765e-06
-8.14227e-05 0.000215395 2.96586e-07
-2.12765e-06 2.96586e-07 0.00012933
0.0015145 -8.0639e-05 -1.85198e-06
-8.0639e-05 0.000114674 4.00251e-07
-1.85198e-06 4.00251e-07 1.03336e-05
0.00100353 -9.7365e-05 -3.61398e-07
-9.7365e-05 4.99875e-05 -1.40367e-07
-3.61398e-07 -1.40367e-07 -5.10882e-05
0.00143093 -0.000102433 1.59862e-08
-0.000102433 0.000171854 -1.13964e-07
1.59862e-08 -1.13964e-07 6.94339e-05
0.00124724 -0.00011005 1.08108e-07
-0.00011005 8.79615e-05 1.61477e-07
1.08108e-07 1.61477e-07 -2.33625e-05
0.000644535 5.86924e-05 -2.34482e-07
5.86924e-05 -4.91425e-05 4.82296e-08
-2.34482e-07 4.82296e-08 -7.63312e-05
0.000774755 3.12516e-05 -2.79157e-07
3.12516e-05 -3.13284e-06 1.48039e-07
-2.79157e-07 1.48039e-07 -5.72867e-05
0.00125794 -3.92995e-06 8.38604e-06
-3.92995e-06 5.15696e-06 -1.7813e-06
8.38604e-06 -1.7813e-06 -9.02539e-05
0.00154707 -2.45765e-05 7.43843e-06
-2.45765e-05 0.000202367 -1.36397e-06
7.43843e-06 -1.36397e-06 0.000118988
0.00186612 -1.16682e-05 2.55266e-06
-1.16682e-05 0.000272851 -9.77644e-07
2.55266e-06 -9.77644e-07 0.00017043
0.00126565 -5.42432e-05 4.39243e-06
-5.42432e-05 -3.46287e-05 -4.73552e-07
4.39243e-06 -4.73552e-07 -0.000137019
0.00150173 -9.86994e-05 2.99451e-06
-9.86994e-05 0.000156253 -1.23165e-06
2.99451e-06 -1.23165e-06 5.23081e-05
0.00177643 -8.61754e-05 3.50929e-07
-8.61754e-05 0.000202197 1.11401e-07
3.50929e-07 1.11401e-07 9.56091e-05
0.000574504 6.36932e-05 1.18834e-06
6.36932e-05 -8.00953e-05 -4.99047e-06
1.18834e-06 -4.99047e-06 -0.000113111
0.00135102 -0.000107183 8.8898e-07
-0.000107183 8.0711e-05 -1.10338e-06
8.8898e-07 -1.10338e-06 -3.08107e-05
0.000701576 -2.14247e-05 1.9482e-06
-2.14247e-05 -2.95136e-05 -1.12428e-06
1.9482e-06 -1.12428e-06 -0.000100818
0.000621331 -7.78516e-05 1.90271e-06
-7.78516e-05 -0.000105267 -1.46727e-06
1.90271e-06 -1.46727e-06 -0.000200599
0.00170479 -0.000137139 6.38969e-07
-0.000137139 0.000383374 -1.27245e-07
6.38969e-07 -1.27245e-07 0.000270079
0.00151413 -0.000124005 -8.47189e-07
-0.000124005 0.000193626 6.39225e-07
-8.47189e-07 6.39225e-07 7.90294e-05
0.000850492 4.67044e-06 1.5045e-06
4.67044e-06 4.156e-05 -2.47581e-06
1.5045e-06 -2.47581e-06 -2.23653e-05
0.000791576 4.04742e-05 7.60228e-07
4.04742e-05 2.67327e-06 -1.91157e-06
7.60228e-07 -1.91157e-06 -4.37237e-05
0.000864398 -2.89895e-05 4.9417e-07
-2.89895e-05 4.40541e-05 -7.57289e-07
4.9417e-07 -7.57289e-07 -3.55422e-05
0.000628783 5.86763e-05 -1.1571e-05
5.86763e-05 -0.000105803 -5.48018e-06
-1.1571e-05 -5.48018e-06 -0.000158443
0.00259623 -7.43122e-05 -3.91239e-05
-7.43122e-05 0.0010005 -3.01795e-06
-3.91239e-05 -3.01795e-06 0.00100723
0.000663755 -4.60535e-05 -2.79281e-06
-4.60535e-05 -4.49046e-05 -3.89342e-06
-2.79281e-06 -3.89342e-06 -6.37771e-05
0.000559669 5.22703e-05 -8.89707e-06
5.22703e-05 -9.53573e-05 -6.05295e-06
-8.89707e-06 -6.05295e-06 -0.000145418
0.00101844 8.14971e-05 -6.29063e-06
8.14971e-05 6.80893e-06 -3.34483e-06
-6.29063e-06 -3.34483e-06 -8.03701e-05
0.000571787 -6.29771e-05 -1.07931e-06
-6.29771e-05 -7.78114e-05 -5.05192e-06
-1.07931e-06 -5.05192e-06 -0.00011083
0.00075047 3.38519e-05 -2.23413e-06
3.38519e-05 -8.06944e-06 -1.94832e-06
-2.23413e-06 -1.94832e-06 -8.29879e-05
0.000864138 7.13158e-05 -3.77212e-06
7.13158e-05 9.34408e-06 -1.07014e-06
-3.77212e-06 -1.07014e-06 -6.84495e-05
0.000782306 8.61547e-05 -2.37844e-06
8.61547e-05 -4.23948e-05 2.24716e-07
-2.37844e-06 2.24716e-07 -0.000137304
0.000648455 -5.82954e-05 2.1877e-07
-5.82954e-05 -4.37242e-05 7.89489e-08
2.1877e-07 7.89489e-08 -6.98949e-05
0.000719416 -4.16379e-05 -3.12004e-08
-4.16379e-05 -2.36996e-05 9.01148e-08
-3.12004e-08 9.01148e-08 -3.78209e-05
0.000774539 -3.13738e-05 1.35683e-07
-3.13738e-05 1.49539e-06 1.67441e-07
1.35683e-07 1.67441e-07 -4.98557e-05
0.00111025 7.32748e-05 3.26902e-07
7.32748e-05 1.0671e-05 -1.96213e-07
3.26902e-07 -1.96213e-07 -7.82242e-05
0.000962598 8.12376e-05 3.00399e-07
8.12376e-05 2.6458e-05 2.0591e-07
3.00399e-07 2.0591e-07 -5.62976e-05
0.00124472 0.000102768 2.34612e-07
0.000102768 6.12623e-05 7.81394e-08
2.34612e-07 7.81394e-08 -4.56793e-05
0.00081931 2.38276e-05 -2.84569e-07
2.38276e-05 3.1639e-05 4.03295e-09
-2.84569e-07 4.03295e-09 -3.84669e-05
0.0010579 0.000100139 -9.36752e-08
0.000100139 7.10217e-05 -9.2218e-08
-9.36752e-08 -9.2218e-08 -2.40226e-05
0.00101732 9.29281e-05 2.53793e-07
9.29281e-05 0.000112027 -3.59326e-07
2.53793e-07 -3.59326e-07 1.62589e-05
0.000944054 0.000102973 -7.26591e-07
0.000102973 3.50485e-05 5.03507e-07
-7.26591e-07 5.03507e-07 -6.84881e-05
0.000758912 -3.72676e-05 2.6249e-06
-3.72676e-05 -1.18529e-05 3.45575e-06
2.6249e-06 3.45575e-06 -2.21392e-05
0.000775646 2.2806e-06 2.69374e-06
2.2806e-06 1.63237e-06 1.81745e-06
2.69374e-06 1.81745e-06 -5.90284e-05
0.000759645 -3.51938e-05 9.24786e-07
-3.51938e-05 -9.59072e-06 2.24059e-06
9.24786e-07 2.24059e-06 -5.2553e-05
0.000878273 2.11218e-05 8.83585e-07
2.11218e-05 5.58123e-05 7.36944e-07
8.83585e-07 7.36944e-07 -1.91317e-05
0.00132158 8.81107e-05 4.42508e-06
8.81107e-05 4.7953e-05 1.05157e-06
4.42508e-06 1.05157e-06 -5.82296e-05
0.00117726 0.000106328 2.49993e-06
0.000106328 8.90936e-05 1.67017e-06
2.49993e-06 1.67017e-06 -1.25411e-05
0.00135434 0.000112067 1.43856e-06
0.000112067 7.49759e-05 1.7138e-06
1.43856e-06 1.7138e-06 -4.05453e-05
0.00106601 6.5148e-05 1.93784e-06
6.5148e-05 0.000147994 9.93126e-07
1.93784e-06 9.93126e-07 5.85656e-05
0.00115323 0.000111631 -2.17656e-07
0.000111631 9.70972e-05 -7.65459e-08
-2.17656e-07 -7.65459e-08 -5.16945e-06
0.00104659 0.000106786 6.25587e-07
0.000106786 0.000128641 -1.43106e-06
6.25587e-07 -1.43106e-06 1.74611e-05
0.000731406 9.52789e-05 1.27324e-07
9.52789e-05 -9.55459e-05 -1.4164e-06
1.27324e-07 -1.4164e-06 -0.000202279
0.000823115 -1.85788e-05 1.04384e-06
-1.85788e-05 4.71511e-06 1.6785e-06
1.04384e-06 1.6785e-06 -2.37599e-05
0.000765751 -2.84943e-05 1.8198e-06
-2.84943e-05 -2.20834e-05 3.36758e-06
1.8198e-06 3.36758e-06 -2.71386e-05
0.00214618 -4.65681e-05 2.57704e-05
-4.65681e-05 0.000733043 3.52016e-06
2.57704e-05 3.52016e-06 0.000749358
0.00219269 -5.27244e-05 8.64953e-07
-5.27244e-05 0.000765023 -8.28812e-08
8.64953e-07 -8.28812e-08 0.000779404
0.0022529 -5.90372e-05 -3.01765e-05
-5.90372e-05 0.000804679 -3.22857e-06
-3.01765e-05 -3.22857e-06 0.000816917
0.000698999 3.88914e-05 2.87856e-06
3.88914e-05 -3.91453e-05 -3.62918e-06
2.87856e-06 -3.62918e-06 -5.44294e-05
0.00250469 6.74662e-05 3.51114e-05
6.74662e-05 0.000941281 -3.20456e-06
3.51114e-05 -3.20456e-06 0.00095078
0.000688257 4.98852e-05 -1.84338e-07
4.98852e-05 -3.49337e-05 6.01983e-08
-1.84338e-07 6.01983e-08 -5.58607e-05
0.00270565 7.4173e-05 -6.7268e-07
7.4173e-05 0.00105283 -1.26946e-07
-6.7268e-07 -1.26946e-07 0.00105974
0.000670377 4.74709e-05 -1.21447e-05
4.74709e-05 -0.000101117 -4.27674e-06
-1.21447e-05 -4.27674e-06 -0.000152794
0.000742634 2.85611e-05 -1.28106e-05
2.85611e-05 -8.0094e-05 -2.50214e-06
-1.28106e-05 -2.50214e-06 -0.0001341
0.0011769 4.94907e-05 -7.97333e-06
4.94907e-05 7.40253e-06 -2.08711e-06
-7.97333e-06 -2.08711e-06 -8.17783e-05
0.00123873 2.23503e-05 -8.19587e-06
2.23503e-05 7.30549e-06 -1.80944e-06
-8.19587e-06 -1.80944e-06 -8.59958e-05
0.000756167 4.08294e-06 -1.36471e-05
4.08294e-06 -9.91116e-05 -1.20049e-06
-1.36471e-05 -1.20049e-06 -0.000157903
0.00520817 -3.10241e-05 -0.000113989
-3.10241e-05 0.0023822 8.06282e-07
-0.000113989 8.06282e-07 0.00237723
0.000759236 -1.15874e-06 9.76478e-08
-1.15874e-06 -0.000100775 -2.76728e-07
9.76478e-08 -2.76728e-07 -0.000159983
0.00128347 1.14073e-05 5.36547e-08
1.14073e-05 1.09815e-05 -4.81937e-07
5.36547e-08 -4.81937e-07 -8.57691e-05
0.001207 3.20309e-05 -4.19433e-08
3.20309e-05 9.60248e-06 8.20525e-08
-4.19433e-08 8.20525e-08 -8.0295e-05
0.00152325 2.01359e-05 1.1403e-07
2.01359e-05 7.28238e-05 1.83954e-09
1.1403e-07 1.83954e-09 -3.54347e-05
0.00115865 6.17526e-05 1.32817e-07
6.17526e-05 1.1477e-05 -1.1573e-07
1.32817e-07 -1.1573e-07 -7.76028e-05
0.00145275 5.68553e-05 1.35159e-08
5.68553e-05 7.04259e-05 -4.83393e-08
1.35159e-08 -4.83393e-08 -3.26461e-05
0.0012864 -4.16413e-07 8.68248e-06
-4.16413e-07 9.64934e-06 -6.35953e-07
8.68248e-06 -6.35953e-07 -8.74154e-05
0.00154399 1.45607e-05 4.1075e-06
1.45607e-05 6.26934e-05 2.24096e-07
4.1075e-06 2.24096e-07 -4.93578e-05
0.00148547 3.69223e-05 3.62436e-06
3.69223e-05 7.25689e-05 1.2831e-06
3.62436e-06 1.2831e-06 -3.15699e-05
0.00165212 1.71025e-05 1.33059e-06
1.71025e-05 9.85489e-05 1.19486e-06
1.33059e-06 1.19486e-06 -1.1347e-05
0.00139204 7.28402e-05 3.432e-06
7.28402e-05 5.66612e-05 7.37003e-07
3.432e-06 7.37003e-07 -4.74961e-05
0.00157966 5.91591e-05 1.02294e-06
5.91591e-05 8.82051e-05 2.92842e-07
1.02294e-06 2.92842e-07 -1.67518e-05
0.000764997 8.37579e-06 -1.30486e-05
8.37579e-06 -8.95165e-05 8.19867e-07
-1.30486e-05 8.19867e-07 -0.000147406
0.00158313 -2.42867e-06 -5.1231e-05
-2.42867e-06 0.000370404 1.85747e-06
-5.1231e-05 1.85747e-06 0.000324484
0.000831291 -4.80166e-06 -8.70602e-06
-4.80166e-06 -0.000194373 2.02514e-06
-8.70602e-06 2.02514e-06 -0.000286943
0.00199345 -5.69604e-05 -1.32691e-05
-5.69604e-05 0.000441203 2.01764e-06
-1.32691e-05 2.01764e-06 0.000359493
0.00280952 8.12907e-05 -4.68001e-05
8.12907e-05 0.00111531 3.16857e-06
-4.68001e-05 3.16857e-06 0.00111903
0.00162606 3.91308e-05 -2.35525e-05
3.91308e-05 0.000482149 3.22098e-06
-2.35525e-05 3.22098e-06 0.000451356
0.00150767 -6.90662e-05 -5.32061e-06
-6.90662e-05 0.000386651 1.86982e-06
-5.32061e-06 1.86982e-06 0.00031304
0.00148569 -8.09052e-05 -1.1503e-05
-8.09052e-05 0.000220211 3.61717e-06
-1.1503e-05 3.61717e-06 0.000134111
0.00118969 -7.29363e-05 -5.13727e-06
-7.29363e-05 -5.83352e-05 1.12378e-06
-5.13727e-06 1.12378e-06 -0.000163973
0.00168751 -0.000109213 -3.74435e-06
-0.000109213 0.000304981 1.49473e-06
-3.74435e-06 1.49473e-06 0.000203147
0.00077147 -8.67399e-05 -2.06104e-06
-8.67399e-05 -6.96416e-05 7.61502e-07
-2.06104e-06 7.61502e-07 -0.000170206
0.00123026 -0.000108799 -5.27887e-07
-0.000108799 7.91764e-05 7.01589e-07
-5.27887e-07 7.01589e-07 -3.19094e-05
0.000671122 5.48894e-05 -1.91531e-06
5.48894e-05 -3.47575e-05 4.65042e-06
-1.91531e-06 4.65042e-06 -6.17409e-05
0.000743605 1.95735e-05 -1.84088e-06
1.95735e-05 -1.98705e-05 2.17691e-06
-1.84088e-06 2.17691e-06 -7.42393e-05
0.00107593 -2.70576e-07 -4.13655e-07
-2.70576e-07 -8.95705e-05 -3.00895e-07
-4.13655e-07 -3.00895e-07 -0.000185929
0.00158511 -2.67658e-05 -2.51256e-06
-2.67658e-05 0.000221252 2.71508e-07
-2.51256e-06 2.71508e-07 0.000137862
0.0017766 -8.90825e-06 -1.81664e-06
-8.90825e-06 0.000223182 4.24452e-07
-1.81664e-06 4.24452e-07 0.000119891
0.00156263 -5.83315e-05 9.36381e-07
-5.83315e-05 0.000123857 -1.64063e-07
9.36381e-07 -1.64063e-07 2.29346e-05
0.000631761 5.54533e-05 -1.99587e-07
5.54533e-05 -5.14312e-05 6.25093e-08
-1.99587e-07 6.25093e-08 -8.33316e-05
0.000825954 -3.20177e-05 -1.13672e-07
-3.20177e-05 3.52495e-05 -9.39005e-08
-1.13672e-07 -9.39005e-08 -3.65547e-05
0.000746414 -8.36053e-05 7.72783e-07
-8.36053e-05 -3.88209e-05 -6.22578e-07
7.72783e-07 -6.22578e-07 -0.000133212
0.00166039 -0.000101922 -7.87364e-07
-0.000101922 0.000238117 1.44693e-07
-7.87364e-07 1.44693e-07 0.000134079
0.00159388 -8.08976e-05 -5.57272e-07
-8.08976e-05 0.00010425 4.51529e-07
-5.57272e-07 4.51529e-07 -2.23203e-06
0.00138827 -0.000123158 -1.04328e-06
-0.000123158 0.000218039 5.00113e-07
-1.04328e-06 5.00113e-07 0.00010421
0.00134759 -0.000106556 -6.479e-08
-0.000106556 7.89117e-05 -4.79909e-08
-6.479e-08 -4.79909e-08 -3.25615e-05
0.0013256 -0.000116254 3.83438e-07
-0.000116254 9.72732e-05 7.27852e-07
3.83438e-07 7.27852e-07 -1.65754e-05
0.000798333 -1.48791e-06 -2.72427e-07
-1.48791e-06 1.2591e-05 -8.11558e-08
-2.72427e-07 -8.11558e-08 -5.09608e-05
0.000827471 -7.00254e-06 -4.6344e-07
-7.00254e-06 2.01734e-05 -2.54219e-07
-4.6344e-07 -2.54219e-07 -5.65408e-05
0.000776514 3.70773e-05 1.27977e-07
3.70773e-05 -5.7069e-06 2.33336e-07
1.27977e-07 2.33336e-07 -5.19684e-05
0.00192128 2.738e-06 2.78888e-06
2.738e-06 0.0002772 -9.63862e-07
2.78888e-06 -9.63862e-07 0.000170273
0.00163039 -2.9331e-05 3.13965e-06
-2.9331e-05 0.000161159 -7.91197e-07
3.13965e-06 -7.91197e-07 6.17212e-05
0.00181869 -8.03787e-06 7.43209e-07
-8.03787e-06 0.000202638 -5.52011e-07
7.43209e-07 -5.52011e-07 9.3274e-05
0.00161518 -5.2131e-05 1.33731e-06
-5.2131e-05 9.83617e-05 -3.2998e-08
1.33731e-06 -3.2998e-08 -5.18781e-06
0.00123983 -9.58862e-05 1.84228e-06
-9.58862e-05 -3.71079e-05 -8.14065e-07
1.84228e-06 -8.14065e-07 -0.000147886
0.00169816 -7.68087e-05 -9.89904e-07
-7.68087e-05 0.000124384 6.68506e-07
-9.89904e-07 6.68506e-07 2.19303e-05
0.000808429 -1.65714e-05 2.40448e-06
-1.65714e-05 2.50169e-05 -1.75811e-06
2.40448e-06 -1.75811e-06 -4.49897e-05
0.00140323 -0.000111152 -1.38593e-06
-0.000111152 7.53965e-05 -8.85738e-07
-1.38593e-06 -8.85738e-07 -3.74677e-05
0.000918984 -8.59906e-05 1.08927e-06
-8.59906e-05 6.55937e-05 1.56375e-07
1.08927e-06 1.56375e-07 -2.20005e-05
0.00073231 -9.44905e-05 1.54806e-06
-9.44905e-05 -6.24217e-05 -2.01392e-06
1.54806e-06 -2.01392e-06 -0.000172091
0.00151156 -0.000134871 1.18513e-06
-0.000134871 0.00025448 5.7401e-07
1.18513e-06 5.7401e-07 0.000133165
0.00187315 -0.000139346 -2.54731e-06
-0.000139346 0.000359805 2.25282e-06
-2.54731e-06 2.25282e-06 0.000250568
0.000795888 3.30938e-05 1.42936e-06
3.30938e-05 -9.80661e-07 -1.63928e-06
1.42936e-06 -1.63928e-06 -4.14395e-05
0.000900491 -4.06758e-05 1.17903e-06
-4.06758e-05 5.63097e-05 5.09006e-08
1.17903e-06 5.09006e-08 -2.40352e-05
0.000773556 -2.72966e-06 6.70922e-07
-2.72966e-06 -9.36007e-06 -1.37513e-06
6.70922e-07 -1.37513e-06 -8.0907e-05
0.000981397 -7.67346e-05 -1.56305e-07
-7.67346e-05 0.000110509 1.01464e-06
-1.56305e-07 1.01464e-06 2.14176e-05
0.00111744 7.49341e-05 -7.67737e-06
7.49341e-05 1.52685e-05 -3.06037e-06
-7.67737e-06 -3.06037e-06 -7.38335e-05
0.000691431 -3.96516e-05 -2.88793e-06
-3.96516e-05 -3.85964e-05 -3.52164e-06
-2.88793e-06 -3.52164e-06 -5.23091e-05
0.00061746 -5.54768e-05 -2.26465e-06
-5.54768e-05 -6.18596e-05 -4.43392e-06
-2.26465e-06 -4.43392e-06 -8.71559e-05
0.000789615 -4.03362e-05 -7.37626e-07
-4.03362e-05 1.02449e-05 -2.43806e-06
-7.37626e-07 -2.43806e-06 -4.14976e-05
0.000911518 7.9038e-05 -4.48194e-06
7.9038e-05 1.38312e-06 -2.41272e-06
-4.48194e-06 -2.41272e-06 -8.10618e-05
0.00124269 0.000103319 -3.43836e-06
0.000103319 6.07393e-05 -1.5984e-06
-3.43836e-06 -1.5984e-06 -4.63398e-05
0.000787106 1.84e-05 -2.34559e-06
1.84e-05 1.71432e-05 -1.87056e-06
-2.34559e-06 -1.87056e-06 -5.31491e-05
0.000983698 9.10789e-05 -2.12578e-06
9.10789e-05 9.45931e-05 -1.0736e-06
-2.12578e-06 -1.0736e-06 -1.08549e-06
0.00118214 0.000105851 -1.67965e-06
0.000105851 0.00013685 -2.5612e-07
-1.67965e-06 -2.5612e-07 4.17945e-05
0.000806859 9.74593e-05 -1.89579e-06
9.74593e-05 -3.66686e-05 1.04926e-06
-1.89579e-06 1.04926e-06 -0.000140392
0.000734381 -3.61609e-05 9.49345e-08
-3.61609e-05 -2.45639e-05 3.05898e-08
9.49345e-08 3.05898e-08 -3.46895e-05
0.000797238 6.46883e-06 4.67042e-08
6.46883e-06 1.61582e-05 -4.08221e-08
4.67042e-08 -4.08221e-08 -4.59113e-05
0.000775682 -3.8677e-05 -1.14075e-07
-3.8677e-05 -1.10363e-06 2.32752e-07
-1.14075e-07 2.32752e-07 -4.40905e-05
0.000891636 1.10136e-05 2.48148e-07
1.10136e-05 6.19977e-05 -2.1914e-07
2.48148e-07 -2.1914e-07 -1.22071e-05
0.00134292 8.943e-05 8.77386e-07
8.943e-05 5.90606e-05 1.91647e-07
8.77386e-07 1.91647e-07 -4.74033e-05
0.00113281 0.000105193 9.0169e-08
0.000105193 6.76608e-05 4.83322e-08
9.0169e-08 4.83322e-08 -3.3933e-05
0.00135829 0.000112313 -3.40685e-08
0.000112313 7.72781e-05 6.25975e-07
-3.40685e-08 6.25975e-07 -3.82656e-05
0.000991507 6.67164e-05 3.12497e-07
6.67164e-05 0.000109484 2.60581e-07
3.12497e-07 2.60581e-07 2.09656e-05
0.00133097 0.00011938 -5.54062e-07
0.00011938 0.000190867 -9.67974e-07
-5.54062e-07 -9.67974e-07 8.85328e-05
0.0010693 0.000108364 2.37166e-07
0.000108364 0.000139706 -7.27194e-07
2.37166e-07 -7.27194e-07 2.78534e-05
0.000883659 0.000102405 -1.71427e-06
0.000102405 -1.19639e-05 -3.21102e-08
-1.71427e-06 -3.21102e-08 -0.000116493
0.000766414 -3.27142e-05 2.25214e-06
-3.27142e-05 -1.53188e-05 3.38345e-06
2.25214e-06 3.38345e-06 -2.26558e-05
0.000784312 -3.49763e-05 9.74533e-07
-3.49763e-05 -2.42416e-06 1.95874e-06
9.74533e-07 1.95874e-06 -3.92756e-05
0.0009874 3.31579e-05 1.40853e-06
3.31579e-05 0.000107992 4.85389e-07
1.40853e-06 4.85389e-07 2.68213e-05
0.000853402 4.70953e-06 6.73251e-07
4.70953e-06 3.79638e-05 1.27789e-06
6.73251e-07 1.27789e-06 -2.71315e-05
0.000947152 6.54341e-05 1.00301e-06
6.54341e-05 0.000100759 -1.88351e-07
1.00301e-06 -1.88351e-07 1.20726e-05
0.00145003 9.31554e-05 2.46579e-06
9.31554e-05 6.6776e-05 2.45342e-07
2.46579e-06 2.45342e-07 -4.52191e-05
0.00122228 0.000115665 6.33406e-07
0.000115665 8.07089e-05 1.68283e-06
6.33406e-07 1.68283e-06 -2.94613e-05
0.00148239 0.000120138 -7.9262e-07
0.000120138 0.000114342 1.46447e-06
-7.9262e-07 1.46447e-06 -3.8588e-06
0.00111154 0.00010562 2.70806e-06
0.00010562 0.000181503 2.40694e-06
2.70806e-06 2.40694e-06 7.34367e-05
0.0011825 0.000118421 1.27602e-06
0.000118421 9.35111e-05 1.14997e-07
1.27602e-06 1.14997e-07 -1.21169e-05
0.000423362 8.18767e-05 1.69493e-06
8.18767e-05 -0.000219295 -2.08702e-06
1.69493e-06 -2.08702e-06 -0.000340143
0.00081659 -2.26668e-05 1.21676e-06
-2.26668e-05 5.04829e-06 1.73254e-06
1.21676e-06 1.73254e-06 -2.53594e-05
0.000841069 4.41922e-06 4.17584e-07
4.41922e-06 2.37871e-05 7.10686e-07
4.17584e-07 7.10686e-07 -2.3346e-05
0.000835494 -1.33567e-05 7.87285e-07
-1.33567e-05 8.10066e-06 1.71989e-06
7.87285e-07 1.71989e-06 -1.89696e-05
0.000824211 -1.71933e-05 1.33793e-07
-1.71933e-05 5.94787e-06 1.11799e-09
1.33793e-07 1.11799e-09 -2.26497e-05
0.00130493 -3.0478e-05 1.9379e-06
-3.0478e-05 0.000262232 2.02895e-06
1.9379e-06 2.02895e-06 0.000262163
0.00103247 -3.11619e-05 7.94033e-07
-3.11619e-05 0.000121575 -2.65268e-08
7.94033e-07 -2.65268e-08 0.000118104
0.00100695 -2.77038e-05 2.11788e-05
-2.77038e-05 0.000111398 6.24229e-06
2.11788e-05 6.24229e-06 0.000123955
0.0021364 -4.66068e-05 1.01658e-06
-4.66068e-05 0.000726662 -7.64794e-08
1.01658e-06 -7.64794e-08 0.000743208
0.00217482 -5.26507e-05 -2.6925e-05
-5.26507e-05 0.000754327 -3.37228e-06
-2.6925e-05 -3.37228e-06 0.000768993
0.000713981 3.45263e-05 2.55575e-06
3.45263e-05 -3.89362e-05 -3.51572e-06
2.55575e-06 -3.51572e-06 -5.10322e-05
0.00238183 6.05885e-05 3.14097e-05
6.05885e-05 0.000868924 -3.35786e-06
3.14097e-05 -3.35786e-06 0.000880832
0.000719774 4.07345e-05 1.2979e-08
4.07345e-05 -2.79621e-05 6.2375e-08
1.2979e-08 6.2375e-08 -4.36208e-05
0.00254843 6.70885e-05 -8.67715e-07
6.70885e-05 0.000964576 -1.07753e-07
-8.67715e-07 -1.07753e-07 0.000973904
0.000708801 5.30295e-05 -1.15586e-06
5.30295e-05 -2.27924e-05 4.48392e-06
-1.15586e-06 4.48392e-06 -4.45546e-05
0.00272603 7.37307e-05 -4.41453e-05
7.37307e-05 0.00106369 3.26319e-06
-4.41453e-05 3.26319e-06 0.00107042
0.00116839 6.39544e-05 -8.07493e-06
6.39544e-05 1.73145e-05 -2.53028e-06
-8.07493e-06 -2.53028e-06 -7.20445e-05
0.00120455 3.52773e-05 -7.9269e-06
3.52773e-05 8.96273e-06 -1.6538e-06
-7.9269e-06 -1.6538e-06 -8.11093e-05
0.00145222 5.52596e-05 -3.53851e-06
5.52596e-05 7.01773e-05 -8.45775e-07
-3.53851e-06 -8.45775e-07 -3.28634e-05
0.00153958 2.00766e-05 -3.78634e-06
2.00766e-05 8.13534e-05 -1.42754e-06
-3.78634e-06 -1.42754e-06 -2.68914e-05
0.00128308 1.39711e-05 -8.7312e-06
1.39711e-05 1.09368e-05 -1.37922e-06
-8.7312e-06 -1.37922e-06 -8.58118e-05
0.000768715 5.27518e-06 -1.36165e-05
5.27518e-06 -9.58801e-05 -1.8887e-08
-1.36165e-05 -1.8887e-08 -0.000155202
0.00128565 1.43647e-06 -2.07032e-08
1.43647e-06 9.00804e-06 -1.80305e-07
-2.07032e-08 -1.80305e-07 -8.81114e-05
0.00156027 1.62905e-05 -2.26281e-08
1.62905e-05 7.1023e-05 -4.69055e-07
-2.26281e-08 -4.69055e-07 -4.09937e-05
0.00148177 3.39662e-05 7.91857e-08
3.39662e-05 7.11596e-05 1.98597e-07
7.91857e-08 1.98597e-07 -3.29048e-05
0.00160428 1.62577e-05 1.21439e-08
1.62577e-05 7.12033e-05 3.20141e-08
1.21439e-08 3.20141e-08 -3.91462e-05
0.0014061 7.35241e-05 -1.0839e-07
7.35241e-05 6.33385e-05 -1.50362e-09
-1.0839e-07 -1.50362e-09 -4.08833e-05
0.00158269 5.87561e-05 -3.49919e-08
5.87561e-05 8.98635e-05 6.28521e-08
-3.49919e-08 6.28521e-08 -1.50634e-05
0.00156011 6.11906e-06 4.3978e-06
6.11906e-06 6.80785e-05 -5.99831e-07
4.3978e-06 -5.99831e-07 -4.41391e-05
0.00161626 1.28365e-05 1.37512e-06
1.28365e-05 5.73855e-05 7.11138e-07
1.37512e-06 7.11138e-07 -5.78489e-05
0.00160108 3.74018e-05 1.24054e-06
3.74018e-05 8.5205e-05 9.32612e-07
1.24054e-06 9.32612e-07 -2.11195e-05
0.00184357 1.23255e-05 4.29383e-07
1.23255e-05 0.000173537 6.46619e-07
4.29383e-07 6.46619e-07 6.52175e-05
0.00152822 7.3724e-05 6.94916e-07
7.3724e-05 8.01671e-05 -1.05412e-07
6.94916e-07 -1.05412e-07 -2.69047e-05
0.0016647 4.94634e-05 -1.64395e-06
4.94634e-05 0.000101192 5.80876e-07
-1.64395e-06 5.80876e-07 2.5345e-06
0.000885923 1.31409e-06 -8.35774e-06
1.31409e-06 -0.000188245 1.05538e-06
-8.35774e-06 1.05538e-06 -0.000285598
0.00161616 -3.07828e-05 -1.26211e-05
-3.07828e-05 0.000236152 1.71045e-06
-1.26211e-05 1.71045e-06 0.000152823
0.00167657 -2.53331e-06 -5.94869e-06
-2.53331e-06 0.000168399 1.91839e-06
-5.94869e-06 1.91839e-06 6.42547e-05
0.0018636 -6.26107e-05 -3.79416e-06
-6.26107e-05 0.000284445 3.45563e-07
-3.79416e-06 3.45563e-07 0.000184977
0.000674261 4.32546e-05 -3.90878e-06
4.32546e-05 -2.9993e-05 4.44035e-06
-3.90878e-06 4.44035e-06 -6.11768e-05
0.00088852 -3.68431e-05 -3.02777e-06
-3.68431e-05 6.77898e-05 1.4909e-06
-3.02777e-06 1.4909e-06 -4.28295e-06
0.000879845 -8.99965e-05 -6.45603e-07
-8.99965e-05 3.16239e-05 1.47115e-07
-6.45603e-07 1.47115e-07 -6.18535e-05
0.00182664 -0.0001054 -4.84374e-06
-0.0001054 0.000323932 1.8024e-06
-4.84374e-06 1.8024e-06 0.000219785
0.00141261 -7.56053e-05 -1.83738e-06
-7.56053e-05 6.9316e-06 2.68604e-07
-1.83738e-06 2.68604e-07 -9.94386e-05
0.00134494 -0.000105974 -1.12541e-06
-0.000105974 7.75283e-05 1.04671e-06
-1.12541e-06 1.04671e-06 -3.39004e-05
0.00106788 -0.000109038 -1.47209e-06
-0.000109038 5.0667e-05 1.07876e-06
-1.47209e-06 1.07876e-06 -6.3684e-05
0.00112926 -0.000108131 2.16833e-06
-0.000108131 -3.08534e-06 -5.29779e-08
2.16833e-06 -5.29779e-08 -0.000116159
0.000762819 -2.01704e-07 -2.52043e-06
-2.01704e-07 -8.04234e-06 1.87262e-06
-2.52043e-06 1.87262e-06 -7.08765e-05
0.000808222 -3.55543e-06 -1.11525e-06
-3.55543e-06 9.40478e-06 2.64217e-07
-1.11525e-06 2.64217e-07 -6.69694e-05
0.000761835 3.574e-05 -7.39996e-07
3.574e-05 -1.34759e-05 2.11097e-06
-7.39996e-07 2.11097e-06 -5.97967e-05
0.00174027 3.34275e-06 -1.84853e-06
3.34275e-06 0.000179273 2.21561e-07
-1.84853e-06 2.21561e-07 7.0504e-05
0.00163092 -3.41593e-05 -9.17494e-07
-3.41593e-05 0.000159905 9.54605e-08
-9.17494e-07 9.54605e-08 6.06241e-05
0.00167601 -5.32898e-06 -6.79118e-07
-5.32898e-06 0.000127183 6.53546e-07
-6.79118e-07 6.53546e-07 1.75002e-05
0.00170603 -5.10096e-05 2.73341e-07
-5.10096e-05 0.000146938 -1.00346e-07
2.73341e-07 -1.00346e-07 4.36283e-05
0.000813904 -2.00775e-05 1.80066e-07
-2.00775e-05 2.59227e-05 -2.19569e-07
1.80066e-07 -2.19569e-07 -4.3653e-05
0.0010075 -9.07549e-05 -1.56419e-07
-9.07549e-05 0.000110067 3.00399e-07
-1.56419e-07 3.00399e-07 2.19768e-05
0.000826228 -9.7739e-05 5.84728e-07
-9.7739e-05 -9.99105e-06 -8.92407e-07
5.84728e-07 -8.92407e-07 -0.000118348
0.0014854 -0.000102012 3.28396e-07
-0.000102012 9.43774e-05 -5.07447e-07
3.28396e-07 -5.07447e-07 -1.61994e-05
0.00162289 -7.48529e-05 2.2829e-07
-7.48529e-05 8.13063e-05 8.44619e-07
2.2829e-07 8.44619e-07 -2.0442e-05
0.00124765 -0.000123557 -4.80271e-08
-0.000123557 0.000120459 2.1935e-07
-4.80271e-08 2.1935e-07 -1.52874e-06
0.00141299 -0.000110094 -2.13174e-07
-0.000110094 7.89521e-05 1.29684e-07
-2.13174e-07 1.29684e-07 -3.36896e-05
0.00162469 -0.000130058 9.90749e-07
-0.000130058 0.000231428 5.41341e-07
9.90749e-07 5.41341e-07 0.000123417
0.000942047 -4.59277e-05 -1.84081e-07
-4.59277e-05 7.98868e-05 -2.11256e-07
-1.84081e-07 -2.11256e-07 -1.32706e-06
0.000952894 -8.05026e-05 -2.73869e-07
-8.05026e-05 9.55132e-05 3.5939e-07
-2.73869e-07 3.5939e-07 5.21831e-06
0.000792747 3.32582e-05 1.76028e-07
3.32582e-05 -2.23062e-06 8.43807e-08
1.76028e-07 8.43807e-08 -4.28561e-05
0.000779771 1.49391e-05 -1.0488e-07
1.49391e-05 -9.20236e-06 -5.03974e-07
-1.0488e-07 -5.03974e-07 -7.77404e-05
0.00166966 1.27128e-06 1.60095e-06
1.27128e-06 0.000102282 -1.26071e-06
1.60095e-06 -1.26071e-06 -1.18228e-05
0.0017105 -2.78649e-05 1.02706e-06
-2.78649e-05 0.000156749 -6.4291e-08
1.02706e-06 -6.4291e-08 5.26086e-05
0.00176848 -4.09585e-06 4.6596e-07
-4.09585e-06 0.000149982 -4.20175e-07
4.6596e-07 -4.20175e-07 4.16773e-05
0.00160054 -4.22779e-05 -2.20458e-07
-4.22779e-05 5.93377e-05 -8.17977e-07
-2.20458e-07 -8.17977e-07 -4.29772e-05
0.0014902 -9.98479e-05 -1.17128e-06
-9.98479e-05 4.71284e-05 -7.16811e-08
-1.17128e-06 -7.16811e-08 -6.23308e-05
0.0017569 -7.25513e-05 8.08687e-07
-7.25513e-05 0.000124785 6.13671e-08
8.08687e-07 6.13671e-08 2.31145e-05
0.000919363 -8.2555e-05 1.22225e-06
-8.2555e-05 6.72402e-05 5.07295e-07
1.22225e-06 5.07295e-07 -1.63839e-05
0.00125792 -0.000107603 -3.59377e-06
-0.000107603 -2.28564e-05 2.04283e-07
-3.59377e-06 2.04283e-07 -0.000125011
0.00067288 -8.60484e-05 -1.1125e-07
-8.60484e-05 -6.24492e-05 -7.6963e-07
-1.1125e-07 -7.6963e-07 -0.000161956
0.0011038 -0.000117692 1.77602e-06
-0.000117692 0.000113898 -1.4784e-06
1.77602e-06 -1.4784e-06 -8.48578e-06
0.00133077 -0.000133745 1.05564e-06
-0.000133745 0.000140398 2.16195e-06
1.05564e-06 2.16195e-06 1.32432e-05
0.00209168 -0.000148246 -1.09593e-06
-0.000148246 0.000460081 1.71387e-06
-1.09593e-06 1.71387e-06 0.000351226
0.00080815 2.20032e-05 1.65292e-06
2.20032e-05 1.72323e-06 -1.65995e-06
1.65292e-06 -1.65995e-06 -3.5492e-05
0.000741471 4.56661e-06 5.39476e-07
4.56661e-06 -2.82873e-05 -1.25993e-06
5.39476e-07 -1.25993e-06 -9.27443e-05
0.000964088 -9.51176e-05 2.13706e-07
-9.51176e-05 9.70271e-05 1.30023e-06
2.13706e-07 1.30023e-06 5.35315e-06
0.000972456 -5.99747e-05 8.29263e-07
-5.99747e-05 0.000103076 7.92658e-08
8.29263e-07 7.92658e-08 2.0393e-05
0.000953715 -9.47415e-05 -5.37317e-07
-9.47415e-05 9.89159e-05 1.92225e-06
-5.37317e-07 1.92225e-06 4.13219e-06
0.000710679 -3.5186e-05 -2.54324e-06
-3.5186e-05 -3.68346e-05 -3.42592e-06
-2.54324e-06 -3.42592e-06 -4.68116e-05
0.0013645 9.07762e-05 -2.8738e-06
9.07762e-05 7.03354e-05 -6.96915e-07
-2.8738e-06 -6.96915e-07 -3.64227e-05
0.000787552 -4.16103e-05 -9.27834e-07
-4.16103e-05 5.24338e-06 -1.99794e-06
-9.27834e-07 -1.99794e-06 -3.78138e-05
0.000842483 -6.02986e-06 -1.31721e-06
-6.02986e-06 4.05684e-05 -2.22278e-06
-1.31721e-06 -2.22278e-06 -2.09996e-05
0.000902484 1.83914e-06 -1.39256e-07
1.83914e-06 6.67695e-05 -1.00582e-06
-1.39256e-07 -1.00582e-06 -6.64567e-06
0.00109684 0.000104484 -2.56746e-06
0.000104484 5.06109e-05 -1.67444e-06
-2.56746e-06 -1.67444e-06 -5.09726e-05
0.00135912 0.000112448 -1.41686e-06
0.000112448 7.80295e-05 -4.62131e-07
-1.41686e-06 -4.62131e-07 -3.75414e-05
0.000928989 8.20238e-05 -1.51628e-06
8.20238e-05 7.93061e-05 -4.41804e-07
-1.51628e-06 -4.41804e-07 -9.71148e-06
0.00110705 0.000110742 -2.11334e-06
0.000110742 0.000158629 -9.99914e-07
-2.11334e-06 -9.99914e-07 4.60194e-05
0.00151049 0.000127214 -1.46847e-06
0.000127214 0.000285508 -1.22674e-06
-1.46847e-06 -1.22674e-06 0.000183105
0.00103365 0.000109406 -3.2412e-06
0.000109406 7.0378e-05 2.14298e-06
-3.2412e-06 2.14298e-06 -3.1928e-05
0.000743772 -3.19468e-05 9.81603e-08
-3.19468e-05 -2.71148e-05 2.64278e-08
9.81603e-08 2.64278e-08 -3.4344e-05
0.00079188 -3.52282e-05 -1.01088e-07
-3.52282e-05 1.52762e-06 7.87646e-08
-1.01088e-07 7.87646e-08 -3.52461e-05
0.000945159 4.10151e-05 3.47561e-07
4.10151e-05 8.65971e-05 -8.35768e-08
3.47561e-07 -8.35768e-08 5.29427e-06
0.000862164 -9.78042e-06 -2.42518e-08
-9.78042e-06 4.15714e-05 7.44806e-08
-2.42518e-08 7.44806e-08 -2.25574e-05
0.000899305 5.33656e-05 4.31881e-07
5.33656e-05 7.36634e-05 -2.96835e-07
4.31881e-07 -2.96835e-07 -1.43999e-05
0.00146231 9.39438e-05 1.12976e-06
9.39438e-05 7.33151e-05 3.72984e-07
1.12976e-06 3.72984e-07 -3.89967e-05
0.00122683 0.000116571 1.42642e-07
0.000116571 8.35151e-05 1.67714e-08
1.42642e-07 1.67714e-08 -2.67109e-05
0.00143331 0.00011977 8.53096e-07
0.00011977 8.97838e-05 9.00226e-07
8.53096e-07 9.00226e-07 -2.88668e-05
0.00102876 0.000101655 8.9532e-07
0.000101655 0.000140044 9.80199e-07
8.9532e-07 9.80199e-07 3.23112e-05
0.00132294 0.00012388 6.72248e-07
0.00012388 0.000168166 -9.2718e-07
6.72248e-07 -9.2718e-07 6.25984e-05
0.000860342 0.000103502 -1.54849e-06
0.000103502 5.83456e-06 -8.59425e-07
-1.54849e-06 -8.59425e-07 -0.000115261
0.00080451 -2.82256e-05 1.19504e-06
-2.82256e-05 3.17552e-06 1.80973e-06
1.19504e-06 1.80973e-06 -2.98193e-05
0.000849834 -7.2958e-06 5.23354e-07
-7.2958e-06 2.94347e-05 1.15376e-06
5.23354e-07 1.15376e-06 -2.58125e-05
0.00106056 9.75962e-05 4.6026e-07
9.75962e-05 0.00015621 -2.51496e-07
4.6026e-07 -2.51496e-07 5.76815e-05
0.000914821 1.59461e-05 5.64255e-07
1.59461e-05 7.78057e-05 5.06735e-07
5.64255e-07 5.06735e-07 -2.21374e-07
0.00102369 5.30346e-05 5.20266e-07
5.30346e-05 0.000144295 -1.06028e-06
5.20266e-07 -1.06028e-06 4.78497e-05
0.00152573 9.28638e-05 -1.49107e-06
9.28638e-05 7.35438e-05 -1.11166e-06
-1.49107e-06 -1.11166e-06 -3.80595e-05
0.00128752 0.000126217 6.2639e-07
0.000126217 8.77994e-05 1.46807e-06
6.2639e-07 1.46807e-06 -2.55531e-05
0.00122218 0.000124353 -4.3521e-06
0.000124353 -2.33527e-05 1.82705e-07
-4.3521e-06 1.82705e-07 -0.000132943
0.000970386 0.000103594 4.57944e-07
0.000103594 0.000116877 2.25809e-06
4.57944e-07 2.25809e-06 -7.83458e-06
0.00122028 0.000130101 3.61492e-06
0.000130101 0.000136329 -8.46477e-07
3.61492e-06 -8.46477e-07 1.25377e-05
0.000814465 -2.14536e-05 5.74109e-08
-2.14536e-05 4.26724e-06 1.4607e-09
5.74109e-08 1.4607e-09 -2.61533e-05
0.00069612 -1.86071e-05 6.08603e-07
-1.86071e-05 -5.485e-05 1.42466e-06
6.08603e-07 1.42466e-06 -0.000102891
0.000783096 -1.35847e-05 -6.60908e-07
-1.35847e-05 -8.32671e-06 -1.16939e-08
-6.60908e-07 -1.16939e-08 -5.51937e-05
0.00104982 1.33611e-05 1.0166e-06
1.33611e-05 0.000142367 -5.82759e-08
1.0166e-06 -5.82759e-08 8.40457e-05
0.000854496 1.09657e-05 1.59724e-06
1.09657e-05 2.85805e-05 8.39908e-07
1.59724e-06 8.39908e-07 -1.76955e-05
0.000840859 -5.80435e-06 7.78602e-07
-5.80435e-06 7.83341e-06 1.7188e-06
7.78602e-07 1.7188e-06 -1.84764e-05
0.000832347 -1.38517e-05 2.31141e-08
-1.38517e-05 6.60088e-06 2.10822e-08
2.31141e-08 2.10822e-08 -2.05184e-05
0.00129947 -2.48357e-05 1.3881e-06
-2.48357e-05 0.000253543 1.99446e-06
1.3881e-06 1.99446e-06 0.000255331
0.000822936 -1.62708e-05 -1.04784e-06
-1.62708e-05 5.86495e-06 -1.7804e-06
-1.04784e-06 -1.7804e-06 -2.28552e-05
0.0013212 -2.87462e-05 -3.79534e-06
-2.87462e-05 0.000270493 -1.16963e-06
-3.79534e-06 -1.16963e-06 0.000270716
0.00100649 -2.36871e-05 1.80445e-05
-2.36871e-05 0.000103361 6.19111e-06
1.80445e-05 6.19111e-06 0.0001179
0.00130883 -3.18956e-05 -9.09726e-06
-3.18956e-05 0.000270445 -3.14322e-06
-9.09726e-06 -3.14322e-06 0.000268781
0.00153201 -3.42934e-05 1.633e-05
-3.42934e-05 0.0003942 2.04404e-06
1.633e-05 2.04404e-06 0.000409693
0.00212752 -4.65392e-05 -2.37384e-05
-4.65392e-05 0.000720756 -3.50809e-06
-2.37384e-05 -3.50809e-06 0.000737546
0.000720302 3.11938e-05 2.13086e-06
3.11938e-05 -4.17655e-05 -3.5024e-06
2.13086e-06 -3.5024e-06 -5.14783e-05
0.000731199 3.52478e-05 -1.35127e-07
3.52478e-05 -2.9857e-05 1.68527e-08
-1.35127e-07 1.68527e-08 -4.20974e-05
0.00232356 5.4497e-05 2.80061e-05
5.4497e-05 0.000830242 -3.52611e-06
2.80061e-05 -3.52611e-06 0.000844193
0.00241325 6.05928e-05 -7.9135e-07
6.05928e-05 0.000886298 -9.27953e-08
-7.9135e-07 -9.27953e-08 0.000897965
0.000737399 4.32738e-05 -2.14347e-06
4.32738e-05 -1.8321e-05 3.91883e-06
-2.14347e-06 3.91883e-06 -3.44461e-05
0.00258455 6.64706e-05 -4.00495e-05
6.64706e-05 0.000983786 3.31784e-06
-4.00495e-05 3.31784e-06 0.000992995
0.00142164 7.43742e-05 -3.68874e-06
7.43742e-05 7.07595e-05 -7.4494e-07
-3.68874e-06 -7.4494e-07 -3.3538e-05
0.00148197 3.46519e-05 -3.60109e-06
3.46519e-05 7.17345e-05 -8.67637e-07
-3.60109e-06 -8.67637e-07 -3.24156e-05
0.00158527 5.94553e-05 -8.03708e-07
5.94553e-05 9.12847e-05 -1.31713e-07
-8.03708e-07 -1.31713e-07 -1.36549e-05
0.00155616 1.53462e-05 -1.26511e-06
1.53462e-05 4.37399e-05 -1.14556e-06
-1.26511e-06 -1.14556e-06 -6.70624e-05
0.00158137 1.97025e-05 -3.97645e-06
1.97025e-05 8.18404e-05 -1.13511e-06
-3.97645e-06 -1.13511e-06 -3.01747e-05
0.00129644 6.28548e-06 -8.67845e-06
6.28548e-06 1.41383e-05 2.016e-07
-8.67845e-06 2.016e-07 -8.29653e-05
0.00157102 1.03482e-05 5.14709e-08
1.03482e-05 7.36666e-05 -1.94278e-07
5.14709e-08 -1.94278e-07 -3.8611e-05
0.00161657 4.77367e-06 1.98005e-07
4.77367e-06 5.63004e-05 6.53176e-08
1.98005e-07 6.53176e-08 -5.94461e-05
0.00161415 3.66177e-05 2.78762e-09
3.66177e-05 9.21783e-05 2.04803e-07
2.78762e-09 2.04803e-07 -1.40453e-05
0.00177077 1.17663e-05 -2.70638e-08
1.17663e-05 0.000134237 -4.34685e-07
-2.70638e-08 -4.34685e-07 2.62452e-05
0.00153356 7.49484e-05 -1.61974e-07
7.49484e-05 8.2325e-05 9.43145e-08
-1.61974e-07 9.43145e-08 -2.49522e-05
0.00162839 4.886e-05 -4.63403e-09
4.886e-05 7.98294e-05 5.58065e-07
-4.63403e-09 5.58065e-07 -1.87206e-05
0.00164656 -1.42138e-07 2.25179e-06
-1.42138e-07 7.18389e-05 -5.77251e-07
2.25179e-06 -5.77251e-07 -4.48074e-05
0.00177348 1.40357e-05 8.49584e-08
1.40357e-05 0.000115579 5.08807e-07
8.49584e-08 5.08807e-07 1.44739e-06
0.00159061 2.86496e-05 -2.58111e-07
2.86496e-05 4.94025e-05 1.63368e-06
-2.58111e-07 1.63368e-06 -5.35738e-05
0.00182443 7.58407e-06 1.87848e-07
7.58407e-06 0.00014915 2.40613e-07
1.87848e-07 2.40613e-07 4.29346e-05
0.00154347 6.77466e-05 -1.3922e-06
6.77466e-05 5.26198e-05 -7.08367e-07
-1.3922e-06 -7.08367e-07 -5.00368e-05
0.00184428 4.16852e-05 -2.61951e-07
4.16852e-05 0.000168817 2.23309e-07
-2.61951e-07 2.23309e-07 7.33641e-05
0.00156068 3.37386e-06 -5.78333e-06
3.37386e-06 8.19483e-05 1.38528e-06
-5.78333e-06 1.38528e-06 -2.86454e-05
0.00162158 -3.57726e-05 -5.00583e-06
-3.57726e-05 0.000153741 8.64234e-07
-5.00583e-06 8.64234e-07 5.46488e-05
0.00153761 -4.74928e-06 -2.18041e-06
-4.74928e-06 5.38695e-05 1.53351e-06
-2.18041e-06 1.53351e-06 -5.61576e-05
0.00179793 -5.04719e-05 -1.55922e-06
-5.04719e-05 0.00019598 -9.90195e-08
-1.55922e-06 -9.90195e-08 9.29106e-05
0.000830539 -2.35952e-05 -2.67398e-06
-2.35952e-05 3.25569e-05 1.52784e-06
-2.67398e-06 1.52784e-06 -3.66205e-05
0.00109038 -9.51572e-05 -1.51234e-06
-9.51572e-05 0.00015182 4.80723e-07
-1.51234e-06 4.80723e-07 6.32354e-05
0.00091208 -0.000100388 -3.07444e-07
-0.000100388 3.84601e-05 2.0427e-07
-3.07444e-07 2.0427e-07 -6.85465e-05
0.00173131 -0.00010808 -1.37856e-06
-0.00010808 0.000226019 3.80088e-07
-1.37856e-06 3.80088e-07 0.000115651
0.00154959 -7.293e-05 2.50317e-07
-7.293e-05 3.92058e-05 1.81222e-07
2.50317e-07 1.81222e-07 -6.18308e-05
0.00142354 -0.000109137 1.23571e-06
-0.000109137 8.29645e-05 1.10401e-06
1.23571e-06 1.10401e-06 -2.94669e-05
0.000992598 -0.000112654 -7.55021e-07
-0.000112654 -9.01257e-06 1.74949e-07
-7.55021e-07 1.74949e-07 -0.000131705
0.00137367 -0.000120662 3.88896e-06
-0.000120662 0.000101523 -2.48452e-06
3.88896e-06 -2.48452e-06 -5.22734e-06
0.000959106 -3.62336e-05 -1.27153e-06
-3.62336e-05 8.83402e-05 -3.74214e-07
-1.27153e-06 -3.74214e-07 7.77216e-06
0.000931282 -6.43209e-05 -7.26779e-07
-6.43209e-05 7.97604e-05 -5.71495e-07
-7.26779e-07 -5.71495e-07 -8.98164e-06
0.000783649 3.1829e-05 -1.03255e-06
3.1829e-05 -6.81734e-06 1.83216e-06
-1.03255e-06 1.83216e-06 -4.74682e-05
0.000794583 2.66752e-05 -1.74491e-07
2.66752e-05 -2.95476e-06 3.27016e-07
-1.74491e-07 3.27016e-07 -6.9729e-05
0.00167268 1.95197e-06 -1.25451e-07
1.95197e-06 0.000103644 -1.95606e-07
-1.25451e-07 -1.95606e-07 -1.05199e-05
0.00173132 -2.52548e-05 -6.75976e-07
-2.52548e-05 0.000167212 1.21942e-07
-6.75976e-07 1.21942e-07 6.33392e-05
0.00167564 -4.80255e-06 -7.02012e-07
-4.80255e-06 0.000105807 8.4487e-07
-7.02012e-07 8.4487e-07 -1.55678e-06
0.00166777 -4.38479e-05 -1.00391e-09
-4.38479e-05 9.38252e-05 -4.9352e-07
-1.00391e-09 -4.9352e-07 -8.45334e-06
0.00098024 -6.73316e-05 -2.38429e-07
-6.73316e-05 9.66404e-05 9.82071e-08
-2.38429e-07 9.82071e-08 1.39105e-05
0.000760955 -8.93164e-05 5.17827e-07
-8.93164e-05 -1.58233e-05 -4.59913e-07
5.17827e-07 -4.59913e-07 -0.000114014
0.00110595 -0.000117097 1.15758e-07
-0.000117097 0.000116619 -1.66651e-07
1.15758e-07 -1.66651e-07 -6.07298e-06
0.00163732 -0.000103218 -4.53296e-07
-0.000103218 0.000125989 -5.18702e-07
-4.53296e-07 -5.18702e-07 1.61045e-05
0.00164929 -7.09668e-05 -5.10646e-07
-7.09668e-05 7.22301e-05 2.1614e-07
-5.10646e-07 2.1614e-07 -2.69416e-05
0.00132435 -0.000132046 -2.59462e-07
-0.000132046 0.000138088 6.09968e-07
-2.59462e-07 6.09968e-07 1.01967e-05
0.00141794 -0.000110997 -3.55811e-07
-0.000110997 5.78729e-05 1.29563e-06
-3.55811e-07 1.29563e-06 -4.43803e-05
0.00166674 -0.000132895 1.23395e-06
-0.000132895 0.000238087 -1.5715e-06
1.23395e-06 -1.5715e-06 0.00013227
0.00101323 -9.75786e-05 5.10127e-08
-9.75786e-05 0.000121879 -3.6434e-08
5.10127e-08 -3.6434e-08 3.01549e-05
0.00098099 -9.12374e-05 7.57513e-08
-9.12374e-05 0.000111373 1.77871e-07
7.57513e-08 1.77871e-07 1.71675e-05
0.000953068 -4.13346e-05 -3.31825e-07
-4.13346e-05 9.14956e-05 -1.36397e-08
-3.31825e-07 -1.36397e-08 9.96808e-06
0.000689642 2.70557e-05 -2.29787e-07
2.70557e-05 -6.09874e-05 2.47177e-09
-2.29787e-07 2.47177e-09 -9.93104e-05
0.000762199 2.21414e-05 5.65748e-08
2.21414e-05 -2.05902e-05 -3.4093e-07
5.65748e-08 -3.4093e-07 -8.2522e-05
0.00171401 3.46001e-06 7.76883e-07
3.46001e-06 9.56547e-05 -1.16219e-06
7.76883e-07 -1.16219e-06 -1.71156e-05
0.00165378 -1.10062e-05 1.1026e-06
-1.10062e-05 8.69976e-05 -6.34806e-07
1.1026e-06 -6.34806e-07 -1.71649e-05
0.00161636 -4.70323e-05 1.25998e-06
-4.70323e-05 3.91094e-05 -1.04889e-06
1.25998e-06 -1.04889e-06 -6.35172e-05
0.00139171 -8.5872e-05 1.51037e-07
-8.5872e-05 -3.784e-05 -2.04646e-06
1.51037e-07 -2.04646e-06 -0.000141042
0.000932759 -9.52304e-05 -1.56151e-07
-9.52304e-05 7.77906e-05 1.25635e-06
-1.56151e-07 1.25635e-06 -1.4574e-05
0.0021007 -0.000138179 -1.46529e-06
-0.000138179 0.000370293 1.03053e-06
-1.46529e-06 1.03053e-06 0.00027305
0.000338707 -7.22944e-05 -1.95208e-07
-7.22944e-05 -0.000233344 -2.14111e-06
-1.95208e-07 -2.14111e-06 -0.00034046
0.00120953 -0.000130288 2.95989e-06
-0.000130288 0.00014689 -1.20484e-06
2.95989e-06 -1.20484e-06 8.77534e-06
0.00168379 -0.00015081 1.54142e-06
-0.00015081 0.000290804 2.29771e-06
1.54142e-06 2.29771e-06 0.000157925
0.000593726 2.0122e-05 1.3012e-06
2.0122e-05 -0.000115196 -2.38207e-06
1.3012e-06 -2.38207e-06 -0.000152052
0.000958913 6.97988e-07 1.38902e-06
6.97988e-07 8.6326e-05 -7.04573e-07
1.38902e-06 -7.04573e-07 2.83922e-05
0.000973159 -2.86071e-05 8.37999e-08
-2.86071e-05 9.91837e-05 -1.33418e-07
8.37999e-08 -1.33418e-07 2.64283e-05
0.00096773 -9.5801e-05 -5.46727e-07
-9.5801e-05 9.91626e-05 2.12195e-06
-5.46727e-07 2.12195e-06 6.18195e-06
0.00106891 -6.33137e-05 3.57099e-07
-6.33137e-05 0.000155586 1.32782e-06
3.57099e-07 1.32782e-06 6.55587e-05
0.000912342 -9.27143e-05 -2.65229e-07
-9.27143e-05 6.99882e-05 1.90842e-06
-2.65229e-07 1.90842e-06 -2.56421e-05
0.000722491 -3.12577e-05 -2.1e-06
-3.12577e-05 -3.81812e-05 -3.41148e-06
-2.1e-06 -3.41148e-06 -4.53108e-05
0.000799324 -3.45051e-05 -1.43852e-06
-3.45051e-05 5.31229e-06 -1.70878e-06
-1.43852e-06 -1.70878e-06 -3.13151e-05
0.00147797 9.49059e-05 -5.41267e-07
9.49059e-05 8.15437e-05 4.3542e-07
-5.41267e-07 4.3542e-07 -3.10877e-05
0.000881276 -2.62634e-05 -5.59392e-08
-2.62634e-05 5.05327e-05 -1.20327e-06
-5.59392e-08 -1.20327e-06 -1.26197e-05
0.000878462 3.5393e-05 -9.17176e-07
3.5393e-05 5.02961e-05 -3.40921e-07
-9.17176e-07 -3.40921e-07 -2.96621e-05
0.000854011 4.32316e-05 6.26012e-08
4.32316e-05 4.78403e-05 -4.1676e-08
6.26012e-08 -4.1676e-08 -3.95926e-05
0.00122938 0.000117337 -9.76917e-07
0.000117337 8.52953e-05 -1.81671e-06
-9.76917e-07 -1.81671e-06 -2.49714e-05
0.00137978 0.000119149 8.59959e-07
0.000119149 6.29517e-05 7.40962e-08
8.59959e-07 7.40962e-08 -5.61236e-05
0.00094001 9.73103e-05 -4.24414e-07
9.73103e-05 9.49982e-05 -2.44612e-07
-4.24414e-07 -2.44612e-07 -1.22928e-05
0.00128646 0.000124338 -1.74254e-06
0.000124338 0.000225267 1.14911e-06
-1.74254e-06 1.14911e-06 0.000104013
0.00146486 0.000129452 -2.32782e-06
0.000129452 0.000243738 -1.12103e-06
-2.32782e-06 -1.12103e-06 0.000138205
0.000806134 -2.73363e-05 1.39431e-08
-2.73363e-05 4.25735e-06 2.34915e-08
1.39431e-08 2.34915e-08 -2.87038e-05
0.000852401 -1.99253e-05 -2.10451e-07
-1.99253e-05 3.05707e-05 1.72563e-07
-2.10451e-07 1.72563e-07 -2.44919e-05
0.00100989 9.51304e-05 -4.78124e-07
9.51304e-05 0.000131064 -3.01181e-07
-4.78124e-07 -3.01181e-07 3.31348e-05
0.000902808 9.03099e-06 1.68874e-07
9.03099e-06 6.91308e-05 6.19562e-09
1.68874e-07 6.19562e-09 -7.60348e-06
0.000940267 6.05675e-05 1.31333e-07
6.05675e-05 0.000102406 -6.45078e-07
1.31333e-07 -6.45078e-07 3.8201e-06
0.00152774 9.50972e-05 -6.83601e-07
9.50972e-05 7.66515e-05 -2.99563e-07
-6.83601e-07 -2.99563e-07 -3.55388e-05
0.00130696 0.000126872 9.97514e-07
0.000126872 9.7016e-05 -6.06409e-08
9.97514e-07 -6.06409e-08 -1.65681e-05
0.00136425 0.000127934 7.19602e-07
0.000127934 4.44584e-05 1.84272e-06
7.19602e-07 1.84272e-06 -6.29354e-05
0.00077717 9.41251e-05 6.91965e-07
9.41251e-05 1.6349e-05 1.80521e-06
6.91965e-07 1.80521e-06 -0.000107702
0.00123746 0.000130624 -4.45876e-07
0.000130624 0.000146845 -1.0799e-06
-4.45876e-07 -1.0799e-06 1.99508e-05
0.000845477 -8.83129e-06 7.39683e-07
-8.83129e-06 2.58482e-05 1.01385e-06
7.39683e-07 1.01385e-06 -2.38325e-05
0.000780963 -9.81044e-06 -1.54359e-08
-9.81044e-06 -1.76372e-06 1.30979e-06
-1.54359e-08 1.30979e-06 -7.09478e-05
0.00111437 0.000105949 -1.26212e-07
0.000105949 0.000199439 -8.13267e-07
-1.26212e-07 -8.13267e-07 8.65582e-05
0.000811818 3.02176e-05 2.29489e-07
3.02176e-05 2.89183e-05 2.67787e-07
2.29489e-07 2.67787e-07 -6.28034e-05
0.00102219 7.33316e-05 -1.18633e-07
7.33316e-05 0.000139688 -1.45837e-06
-1.18633e-07 -1.45837e-06 3.36681e-05
0.00159962 9.28763e-05 -2.54437e-06
9.28763e-05 6.76795e-05 1.00822e-06
-2.54437e-06 1.00822e-06 -2.63536e-05
0.00171139 0.000158076 -4.80094e-07
0.000158076 0.00029691 -1.08723e-06
-4.80094e-07 -1.08723e-06 0.000173698
0.00035506 0.000100763 -1.65327e-07
0.000100763 -0.000520916 -1.1643e-06
-1.65327e-07 -1.1643e-06 -0.000621315
0.00167013 0.000141395 4.02246e-06
0.000141395 0.000468298 2.82376e-06
4.02246e-06 2.82376e-06 0.000332735
0.000118611 8.55463e-05 -7.89388e-08
8.55463e-05 -0.000428292 -9.50556e-07
-7.89388e-08 -9.50556e-07 -0.0005694
0.000814356 -1.94743e-05 -1.38219e-06
-1.94743e-05 4.55094e-06 -1.69816e-06
-1.38219e-06 -1.69816e-06 -2.58639e-05
0.000780988 -1.26061e-05 1.37028e-07
-1.26061e-05 -9.43193e-06 5.40478e-07
1.37028e-07 5.40478e-07 -5.7236e-05
0.000778067 -2.51628e-05 1.44273e-07
-2.51628e-05 -6.66854e-06 1.05931e-06
1.44273e-07 1.05931e-06 -6.64203e-05
0.000737188 -2.99059e-05 -7.30909e-07
-2.99059e-05 -3.34784e-05 -6.51607e-07
-7.30909e-07 -6.51607e-07 -8.04278e-05
0.000864052 -3.76519e-06 2.20123e-07
-3.76519e-06 3.26229e-05 -3.45402e-08
2.20123e-07 -3.45402e-08 -1.29573e-05
0.000901135 -1.84788e-05 1.89587e-07
-1.84788e-05 6.02399e-05 -3.84761e-07
1.89587e-07 -3.84761e-07 3.34155e-06
0.00100238 5.80184e-06 2.2565e-07
5.80184e-06 0.000118748 -2.21319e-07
2.2565e-07 -2.21319e-07 5.4562e-05
0.000798778 -3.35311e-05 1.37532e-07
-3.35311e-05 7.46862e-06 4.39473e-07
1.37532e-07 4.39473e-07 -4.99182e-05
0.000883074 -1.57801e-05 1.70674e-07
-1.57801e-05 3.86513e-05 7.40311e-07
1.70674e-07 7.40311e-07 -5.21532e-06
0.000832367 8.70097e-07 8.08703e-07
8.70097e-07 2.29319e-06 1.5869e-06
8.08703e-07 1.5869e-06 -2.4158e-05
0.000834834 -9.96081e-06 -1.45625e-07
-9.96081e-06 4.85627e-06 1.66407e-08
-1.45625e-07 1.66407e-08 -2.15081e-05
0.00129642 -1.85111e-05 1.18575e-06
-1.85111e-05 0.000247345 1.92934e-06
1.18575e-06 1.92934e-06 0.000250149
0.000829572 -1.41433e-05 -7.03586e-07
-1.41433e-05 5.29369e-06 -1.77002e-06
-7.03586e-07 -1.77002e-06 -2.18649e-05
0.00131355 -2.32588e-05 -3.15392e-06
-2.32588e-05 0.000260809 -1.15771e-06
-3.15392e-06 -1.15771e-06 0.000262756
0.000998464 -1.96219e-05 1.45125e-05
-1.96219e-05 9.33218e-05 6.16181e-06
1.45125e-05 6.16181e-06 0.000109356
0.00133286 -2.74462e-05 -7.7725e-06
-2.74462e-05 0.000276282 -4.36541e-06
-7.7725e-06 -4.36541e-06 0.000276727
0.000951031 -2.49562e-05 5.92748e-06
-2.49562e-05 7.38327e-05 2.36031e-06
5.92748e-06 2.36031e-06 8.81661e-05
0.0020477 -4.47757e-05 -6.19447e-06
-4.47757e-05 0.00067189 -1.53982e-06
-6.19447e-06 -1.53982e-06 0.000689836
0.000733611 2.79031e-05 1.60731e-06
2.79031e-05 -4.06007e-05 -3.47061e-06
1.60731e-06 -3.47061e-06 -4.80132e-05
0.000737316 3.1608e-05 -1.25376e-07
3.1608e-05 -3.28409e-05 2.01786e-08
-1.25376e-07 2.01786e-08 -4.26419e-05
0.00227517 4.82505e-05 2.45747e-05
4.82505e-05 0.000797355 -3.67247e-06
2.45747e-05 -3.67247e-06 0.000813182
0.000750129 3.61273e-05 -2.73143e-06
3.61273e-05 -1.984e-05 3.54426e-06
-2.73143e-06 3.54426e-06 -3.22419e-05
0.00233208 5.43096e-05 -1.04932e-06
5.43096e-05 0.000835725 -8.95307e-08
-1.04932e-06 -8.95307e-08 0.000849513
0.00243812 6.00162e-05 -3.49399e-05
6.00162e-05 0.000900098 3.38447e-06
-3.49399e-05 3.38447e-06 0.000911639
0.00153986 7.61306e-05 -1.51905e-06
7.61306e-05 8.49713e-05 1.93382e-07
-1.51905e-06 1.93382e-07 -2.25097e-05
0.00162999 3.49499e-05 -7.95734e-07
3.49499e-05 0.000100578 -4.54395e-07
-7.95734e-07 -4.54395e-07 -5.50689e-06
0.00158684 4.82285e-05 1.60729e-06
4.82285e-05 5.56364e-05 9.3375e-08
1.60729e-06 9.3375e-08 -4.2785e-05
0.00168941 1.11058e-05 -4.33913e-07
1.11058e-05 9.05506e-05 -1.4585e-06
-4.33913e-07 -1.4585e-06 -1.71185e-05
0.00161688 -1.04086e-07 -1.36794e-06
-1.04086e-07 5.52603e-05 -6.82772e-07
-1.36794e-06 -6.82772e-07 -6.10272e-05
0.00157882 1.37293e-05 -4.08119e-06
1.37293e-05 7.76447e-05 2.45793e-07
-4.08119e-06 2.45793e-07 -3.46603e-05
0.00166624 3.48287e-06 2.06623e-07
3.48287e-06 8.25271e-05 -2.32111e-07
2.06623e-07 -2.32111e-07 -3.4241e-05
0.00179266 1.00098e-05 1.19648e-07
1.00098e-05 0.000127193 -8.09038e-08
1.19648e-07 -8.09038e-08 1.27996e-05
0.00161314 2.69688e-05 -2.91437e-08
2.69688e-05 5.977e-05 4.27103e-07
-2.91437e-08 4.27103e-07 -4.35692e-05
0.00174602 7.64312e-06 1.57237e-07
7.64312e-06 0.00010665 -6.90947e-07
1.57237e-07 -6.90947e-07 8.02169e-07
0.00157514 6.91425e-05 -5.23859e-07
6.91425e-05 6.85083e-05 1.45661e-07
-5.23859e-07 1.45661e-07 -3.41005e-05
0.00171113 4.10868e-05 1.25919e-06
4.10868e-05 0.000101641 -4.32688e-07
1.25919e-06 -4.32688e-07 7.45799e-06
0.0017579 1.09632e-05 2.13644e-07
1.09632e-05 0.000103526 -2.74172e-07
2.13644e-07 -2.74172e-07 -1.2693e-05
0.00174724 8.15484e-06 -4.73635e-07
8.15484e-06 9.19436e-05 4.22374e-07
-4.73635e-07 4.22374e-07 -1.69952e-05
0.00171912 2.13101e-05 2.01115e-07
2.13101e-05 8.69817e-05 1.01054e-06
2.01115e-07 1.01054e-06 -1.17673e-05
0.00177059 6.17657e-05 -1.13825e-06
6.17657e-05 0.00013313 -1.43458e-07
-1.13825e-06 -1.43458e-07 3.87144e-05
0.0016745 2.6067e-06 -1.83392e-06
2.6067e-06 0.000104397 8.96297e-07
-1.83392e-06 8.96297e-07 -9.82703e-06
0.00175739 -2.43582e-05 -2.52927e-06
-2.43582e-05 0.000180311 5.06685e-07
-2.52927e-06 5.06685e-07 7.66708e-05
0.00158904 -5.46276e-06 -1.55235e-06
-5.46276e-06 6.47853e-05 2.05384e-06
-1.55235e-06 2.05384e-06 -4.16238e-05
0.00173225 -4.48212e-05 -5.05771e-07
-4.48212e-05 0.000126931 7.5361e-08
-5.05771e-07 7.5361e-08 2.46924e-05
0.00104282 -6.65181e-05 -1.40944e-06
-6.65181e-05 0.000129085 -3.40364e-07
-1.40944e-06 -3.40364e-07 4.58644e-05
0.000870913 -9.39187e-05 5.99097e-07
-9.39187e-05 4.19978e-05 -2.42404e-07
5.99097e-07 -2.42404e-07 -5.49911e-05
0.00109918 -0.000116084 -9.38011e-07
-0.000116084 0.000114744 1.61693e-06
-9.38011e-07 1.61693e-06 -8.2224e-06
0.00178348 -0.000106521 -2.15616e-07
-0.000106521 0.000204326 -5.1113e-08
-2.15616e-07 -5.1113e-08 9.40226e-05
0.0015626 -6.98642e-05 -1.50514e-06
-6.98642e-05 3.05736e-05 9.41997e-07
-1.50514e-06 9.41997e-07 -6.61505e-05
0.00156323 -0.000114034 2.63978e-06
-0.000114034 0.000131318 2.32846e-06
2.63978e-06 2.32846e-06 2.89595e-05
0.00129013 -0.000129165 -9.41462e-07
-0.000129165 0.000121522 -7.16572e-07
-9.41462e-07 -7.16572e-07 -7.03763e-06
0.00126039 -0.000118215 1.39681e-07
-0.000118215 2.59749e-05 -6.43175e-06
1.39681e-07 -6.43175e-06 -7.69072e-05
0.00106032 -9.99875e-05 -1.52327e-07
-9.99875e-05 0.000145873 -1.30469e-06
-1.52327e-07 -1.30469e-06 5.40662e-05
0.00101922 -9.05709e-05 -1.55636e-07
-9.05709e-05 0.000129601 -1.93027e-06
-1.55636e-07 -1.93027e-06 3.56575e-05
0.000923353 -2.42024e-05 1.32814e-07
-2.42024e-05 7.53182e-05 8.19265e-08
1.32814e-07 8.19265e-08 -5.38503e-06
0.0005776 2.79421e-05 -1.16652e-06
2.79421e-05 -0.000120666 1.7597e-06
-1.16652e-06 1.7597e-06 -0.000159876
0.000788806 3.57788e-05 -1.56936e-07
3.57788e-05 -8.65912e-06 3.46428e-07
-1.56936e-07 3.46428e-07 -6.88564e-05
0.00168841 3.0043e-06 -4.60851e-07
3.0043e-06 8.55145e-05 1.22681e-07
-4.60851e-07 1.22681e-07 -2.64473e-05
0.00168227 -1.18421e-05 -8.65481e-08
-1.18421e-05 0.000101713 -3.80833e-07
-8.65481e-08 -3.80833e-07 -3.00098e-06
0.00176154 -4.89725e-05 -9.33152e-07
-4.89725e-05 0.000117598 -1.36584e-07
-9.33152e-07 -1.36584e-07 1.54257e-05
0.00102618 -9.95057e-05 -1.85298e-08
-9.95057e-05 0.00012487 2.35861e-07
-1.85298e-08 2.35861e-07 3.21818e-05
0.000756416 -9.21571e-05 1.18391e-06
-9.21571e-05 -1.80582e-05 -1.07704e-06
1.18391e-06 -1.07704e-06 -0.000124826
0.0011488 -0.000126511 -1.41105e-07
-0.000126511 0.000118651 -1.11638e-07
-1.41105e-07 -1.11638e-07 -1.99485e-05
0.00163349 -9.12331e-05 5.38358e-07
-9.12331e-05 8.42917e-05 -1.37346e-06
5.38358e-07 -1.37346e-06 -1.88526e-05
0.00155004 -0.000142453 -2.42333e-07
-0.000142453 0.000221756 -7.88287e-08
-2.42333e-07 -7.88287e-08 9.25173e-05
0.00158201 -0.000125348 -1.45493e-06
-0.000125348 0.000114698 1.27935e-07
-1.45493e-06 1.27935e-07 1.85081e-05
0.000589314 2.31924e-05 8.07139e-08
2.31924e-05 -0.000117694 -5.86194e-07
8.07139e-08 -5.86194e-07 -0.000154289
0.00101848 -9.83635e-05 -1.8715e-10
-9.83635e-05 0.00012519 1.12752e-07
-1.8715e-10 1.12752e-07 3.1992e-05
0.000929303 -9.32224e-05 -5.39775e-07
-9.32224e-05 7.93255e-05 1.99102e-07
-5.39775e-07 1.99102e-07 -1.5903e-05
0.00105303 -6.55636e-05 -2.99021e-07
-6.55636e-05 0.000150039 7.9549e-07
-2.99021e-07 7.9549e-07 5.8133e-05
0.00100079 -2.42209e-05 2.33915e-08
-2.42209e-05 0.000114408 2.21277e-08
2.33915e-08 2.21277e-08 4.15555e-05
0.000852303 1.38226e-05 -2.14329e-07
1.38226e-05 2.70666e-05 1.93565e-07
-2.14329e-07 1.93565e-07 -2.99134e-05
0.00177852 -7.53269e-07 5.57494e-07
-7.53269e-07 0.000118009 -9.21239e-07
5.57494e-07 -9.21239e-07 9.617e-06
0.00175138 -1.4077e-05 5.25027e-08
-1.4077e-05 0.000106643 -1.3423e-07
5.25027e-08 -1.3423e-07 7.03485e-06
0.00139923 -5.70715e-05 1.87244e-06
-5.70715e-05 -8.04142e-05 -7.29181e-07
1.87244e-06 -7.29181e-07 -0.000184162
0.00185213 -0.000113431 6.70409e-07
-0.000113431 0.000137348 -3.44644e-06
6.70409e-07 -3.44644e-06 3.63687e-05
0.000952535 -9.72885e-05 -8.30116e-07
-9.72885e-05 8.95524e-05 1.32547e-06
-8.30116e-07 1.32547e-06 -6.7998e-06
0.0016747 -0.000145564 3.02404e-06
-0.000145564 0.00019584 2.72071e-06
3.02404e-06 2.72071e-06 7.75417e-05
0.000665398 -9.50547e-05 -5.52224e-07
-9.50547e-05 -7.38153e-05 -2.71664e-06
-5.52224e-07 -2.71664e-06 -0.000201647
0.00152149 -0.000149895 8.72564e-07
-0.000149895 0.000289001 1.1103e-06
8.72564e-07 1.1103e-06 0.000137764
0.000606256 1.95086e-05 8.32236e-07
1.95086e-05 -0.000110806 -2.36145e-06
8.32236e-07 -2.36145e-06 -0.000145178
0.000970909 -1.10956e-06 1.14988e-06
-1.10956e-06 9.09944e-05 -8.4609e-07
1.14988e-06 -8.4609e-07 3.69925e-05
0.00104241 -2.81768e-05 2.56871e-07
-2.81768e-05 0.0001367 5.64753e-07
2.56871e-07 5.64753e-07 6.72257e-05
0.000969864 -2.74151e-05 4.73498e-07
-2.74151e-05 0.00010174 -7.58022e-07
4.73498e-07 -7.58022e-07 1.82962e-05
0.00106374 -0.000100767 -3.09291e-07
-0.000100767 0.000146593 2.24687e-06
-3.09291e-07 2.24687e-06 5.07619e-05
0.00096277 -9.67462e-05 -1.21572e-06
-9.67462e-05 9.77512e-05 3.08195e-06
-1.21572e-06 3.08195e-06 -4.23357e-07
0.000806461 -2.62369e-05 -1.50764e-06
-2.62369e-05 4.5577e-06 -1.67793e-06
-1.50764e-06 -1.67793e-06 -2.83207e-05
0.000849179 -2.94094e-05 -3.34388e-07
-2.94094e-05 2.88673e-05 -1.03572e-06
-3.34388e-07 -1.03572e-06 -2.61468e-05
0.00153447 9.75236e-05 6.46522e-07
9.75236e-05 8.22432e-05 8.04052e-07
6.46522e-07 8.04052e-07 -3.05573e-05
0.000901343 -2.87515e-07 -1.40853e-07
-2.87515e-07 6.60823e-05 -5.1772e-07
-1.40853e-07 -5.1772e-07 -9.40542e-06
0.000948095 9.2166e-05 -2.28978e-07
9.2166e-05 0.000100485 -1.53963e-07
-2.28978e-07 -1.53963e-07 3.14689e-06
0.000865978 4.85906e-05 -4.00473e-07
4.85906e-05 6.12302e-05 -7.99109e-08
-4.00473e-07 -7.99109e-08 -3.68046e-05
0.00133183 0.000127772 -5.805e-07
0.000127772 0.000108966 -1.90843e-06
-5.805e-07 -1.90843e-06 -4.86149e-06
0.0014953 0.000131255 2.10176e-06
0.000131255 0.000106219 4.62508e-09
2.10176e-06 4.62508e-09 1.11427e-06
0.000596431 8.54505e-05 1.77206e-07
8.54505e-05 -7.75239e-05 6.28154e-07
1.77206e-07 6.28154e-07 -0.000200999
0.00129115 0.000133002 -1.39798e-06
0.000133002 0.000176955 3.85007e-07
-1.39798e-06 3.85007e-07 4.67159e-05
0.000844244 -1.82539e-05 -2.34484e-07
-1.82539e-05 2.50163e-05 1.0453e-07
-2.34484e-07 1.0453e-07 -2.47316e-05
0.000832044 -2.58025e-06 5.72856e-08
-2.58025e-06 2.50867e-05 6.03622e-07
5.72856e-08 6.03622e-07 -4.39419e-05
0.00107562 0.000103848 1.06366e-07
0.000103848 0.000181824 -8.95906e-07
1.06366e-07 -8.95906e-07 7.0152e-05
0.000862022 9.71231e-06 -1.71362e-07
9.71231e-06 5.17406e-05 1.03548e-08
-1.71362e-07 1.03548e-08 -3.70755e-05
0.000939121 6.75314e-05 -9.91228e-07
6.75314e-05 9.89506e-05 -9.7392e-07
-9.91228e-07 -9.7392e-07 -7.05651e-06
0.00179189 9.6073e-05 -1.43739e-06
9.6073e-05 0.000164813 -2.48147e-07
-1.43739e-06 -2.48147e-07 6.99117e-05
0.00167308 0.000155666 1.63771e-06
0.000155666 0.000270698 2.36211e-07
1.63771e-06 2.36211e-07 0.000148858
0.000890347 0.000119031 -8.17039e-07
0.000119031 -0.000228894 6.40501e-07
-8.17039e-07 6.40501e-07 -0.000321273
0.0012694 0.000122143 1.12937e-06
0.000122143 0.000262311 1.24363e-06
1.12937e-06 1.24363e-06 0.000127595
0.000654139 0.000111925 -1.50852e-06
0.000111925 -0.00015308 -9.37456e-07
-1.50852e-06 -9.37456e-07 -0.000301626
0.000781945 -1.44755e-05 2.97217e-07
-1.44755e-05 -4.53385e-06 1.1617e-06
2.97217e-07 1.1617e-06 -6.6839e-05
0.00075433 3.06374e-05 2.56741e-07
3.06374e-05 -6.57996e-06 1.58254e-07
2.56741e-07 1.58254e-07 -9.17848e-05
0.00105781 0.000103527 4.9786e-07
0.000103527 0.000173501 -6.65484e-07
4.9786e-07 -6.65484e-07 5.1021e-05
0.000584826 4.53637e-05 9.31017e-08
4.53637e-05 -8.87074e-05 2.61049e-07
9.31017e-08 2.61049e-07 -0.000194947
0.00208378 7.2485e-05 -1.93742e-06
7.2485e-05 0.000245439 3.98842e-07
-1.93742e-06 3.98842e-07 0.000161853
0.00159482 0.000118003 2.19257e-06
0.000118003 1.42223e-05 9.69205e-07
2.19257e-06 9.69205e-07 -6.84225e-05
0.00142825 0.000157287 8.43805e-07
0.000157287 0.000122845 -3.82092e-06
8.43805e-07 -3.82092e-06 -1.43242e-05
0.000311805 8.24084e-05 -2.12539e-07
8.24084e-05 -0.000253602 1.39353e-06
-2.12539e-07 1.39353e-06 -0.000416532
0.000855216 2.85339e-06 -6.63778e-07
2.85339e-06 3.27359e-05 -4.47351e-07
-6.63778e-07 -4.47351e-07 -1.63642e-05
0.000862262 -8.81261e-06 -1.32474e-07
-8.81261e-06 3.95048e-05 3.79613e-07
-1.32474e-07 3.79613e-07 -2.08077e-05
0.000951162 -1.4951e-05 1.45218e-07
-1.4951e-05 8.97425e-05 5.81572e-07
1.45218e-07 5.81572e-07 2.24842e-05
0.000857865 -1.81029e-05 -7.13301e-07
-1.81029e-05 2.76702e-05 -7.27863e-07
-7.13301e-07 -7.27863e-07 -1.6792e-05
0.000753341 -3.4301e-05 1.69596e-07
-3.4301e-05 -1.83497e-05 -6.53141e-07
1.69596e-07 -6.53141e-07 -7.60135e-05
0.000869701 -1.25614e-05 5.657e-08
-1.25614e-05 3.14292e-05 3.8254e-08
5.657e-08 3.8254e-08 -1.23529e-05
0.000924925 1.55485e-05 -1.68255e-07
1.55485e-05 8.08082e-05 -3.32541e-07
-1.68255e-07 -3.32541e-07 1.3683e-05
0.000817571 -1.66527e-05 1.4663e-07
-1.66527e-05 1.96089e-05 2.99823e-07
1.4663e-07 2.99823e-07 -3.90486e-05
0.000954298 -1.38196e-06 3.51679e-07
-1.38196e-06 9.52481e-05 2.77578e-08
3.51679e-07 2.77578e-08 2.4627e-05
0.000816392 -3.49896e-05 -2.02241e-07
-3.49896e-05 2.12618e-05 4.84439e-07
-2.02241e-07 4.84439e-07 -4.39992e-05
0.000767053 1.22024e-05 3.7564e-07
1.22024e-05 -9.52515e-06 6.259e-07
3.7564e-07 6.259e-07 -6.65728e-05
0.00087923 2.04819e-06 3.36253e-07
2.04819e-06 3.52023e-05 6.64489e-07
3.36253e-07 6.64489e-07 -8.48632e-06
0.000824819 5.18661e-06 6.82482e-07
5.18661e-06 -1.4045e-06 1.52111e-06
6.82482e-07 1.52111e-06 -2.85473e-05
0.000831221 -5.80657e-06 -2.50531e-07
-5.80657e-06 1.80385e-06 5.58242e-09
-2.50531e-07 5.58242e-09 -2.47262e-05
0.00130342 -1.22379e-05 9.79439e-07
-1.22379e-05 0.000248356 1.86383e-06
9.79439e-07 1.86383e-06 0.000251371
0.000825833 -1.4828e-05 -3.5436e-07
-1.4828e-05 2.28513e-07 -1.68219e-06
-3.5436e-07 -1.68219e-06 -2.61803e-05
0.00131787 -1.71724e-05 -2.52049e-06
-1.71724e-05 0.000258884 -1.19234e-06
-2.52049e-06 -1.19234e-06 0.000261631
0.00100178 -1.51285e-05 1.15633e-05
-1.51285e-05 9.10011e-05 6.24205e-06
1.15633e-05 6.24205e-06 0.000107637
0.00133207 -2.21568e-05 -5.99511e-06
-2.21568e-05 0.000270472 -4.30396e-06
-5.99511e-06 -4.30396e-06 0.000272484
0.000952125 -2.05467e-05 4.48977e-06
-2.05467e-05 6.85002e-05 2.36098e-06
4.48977e-06 2.36098e-06 8.44564e-05
0.000893566 -2.52648e-05 -2.28318e-06
-2.52648e-05 4.32834e-05 -1.60099e-06
-2.28318e-06 -1.60099e-06 5.75924e-05
0.000744272 2.41939e-05 1.14197e-06
2.41939e-05 -4.05441e-05 -3.38989e-06
1.14197e-06 -3.38989e-06 -4.55821e-05
0.000746619 2.81837e-05 -1.61281e-07
2.81837e-05 -3.37725e-05 2.02864e-08
-1.61281e-07 2.02864e-08 -4.12568e-05
0.00222393 4.17286e-05 2.09052e-05
4.17286e-05 0.000763464 -3.77742e-06
2.09052e-05 -3.77742e-06 0.00078109
0.000756465 3.20769e-05 -2.36577e-06
3.20769e-05 -2.2795e-05 3.47478e-06
-2.36577e-06 3.47478e-06 -3.2692e-05
0.00228495 4.82515e-05 -1.17498e-06
4.82515e-05 0.000803482 -8.2873e-08
-1.17498e-06 -8.2873e-08 0.000819118
0.00234578 5.4037e-05 -3.06601e-05
5.4037e-05 0.0008439 3.50276e-06
-3.06601e-05 3.50276e-06 0.000857539
0.00160599 7.06035e-05 1.42472e-06
7.06035e-05 8.39628e-05 1.30113e-06
1.42472e-06 1.30113e-06 -1.86026e-05
0.00163992 2.51919e-05 -1.42079e-07
2.51919e-05 7.23664e-05 -5.83188e-07
-1.42079e-07 -5.83188e-07 -3.13382e-05
0.00160757 4.06291e-05 1.82744e-06
4.06291e-05 4.95811e-05 -1.36929e-06
1.82744e-06 -1.36929e-06 -4.33309e-05
0.00169193 7.73803e-06 2.22134e-07
7.73803e-06 7.65759e-05 -1.4014e-06
2.22134e-07 -1.4014e-06 -2.88806e-05
0.00180973 7.29304e-06 3.4336e-08
7.29304e-06 0.000137963 -7.48275e-07
3.4336e-08 -7.48275e-07 2.32249e-05
0.00168366 2.27995e-06 -1.65001e-06
2.27995e-06 9.20066e-05 1.08396e-07
-1.65001e-06 1.08396e-07 -2.48478e-05
0.00176706 1.19614e-05 -9.44116e-08
1.19614e-05 0.000111125 -2.26123e-09
-9.44116e-08 -2.26123e-09 -4.44639e-06
0.00175848 4.31635e-06 3.08559e-07
4.31635e-06 9.86825e-05 -1.27134e-07
3.08559e-07 -1.27134e-07 -1.0328e-05
0.00171941 2.20513e-05 6.33468e-07
2.20513e-05 8.67569e-05 -1.28078e-07
6.33468e-07 -1.28078e-07 -1.18889e-05
0.00170696 5.75889e-05 9.57888e-08
5.75889e-05 9.84929e-05 -2.10505e-07
9.57888e-08 -2.10505e-07 4.43461e-06
0.00179425 6.86933e-06 -1.10598e-06
6.86933e-06 0.000111882 -2.33277e-09
-1.10598e-06 -2.33277e-09 6.56397e-07
0.00188414 5.47101e-06 -6.69415e-07
5.47101e-06 0.000145082 3.16806e-07
-6.69415e-07 3.16806e-07 4.62232e-05
0.00175668 4.08615e-05 1.41187e-07
4.08615e-05 9.03891e-05 1.07267e-06
1.41187e-07 1.07267e-06 -2.67194e-06
0.00166277 2.73208e-06 -1.38661e-06
2.73208e-06 7.53618e-05 1.28332e-06
-1.38661e-06 1.28332e-06 -3.57961e-05
0.00171303 -1.27133e-05 -1.0925e-06
-1.27133e-05 0.000117687 3.20585e-07
-1.0925e-06 3.20585e-07 1.24317e-05
0.00189508 -5.09122e-05 -7.81014e-07
-5.09122e-05 0.000189721 2.66065e-07
-7.81014e-07 2.66065e-07 8.80635e-05
0.00110622 -0.000102974 -2.63482e-07
-0.000102974 0.000164899 -5.24926e-07
-2.63482e-07 -5.24926e-07 7.19847e-05
0.00119012 -0.000112884 2.8825e-07
-0.000112884 0.000205549 3.02822e-07
2.8825e-07 3.02822e-07 9.90426e-05
0.0011374 -0.000124819 -1.68619e-06
-0.000124819 0.000116337 1.93638e-06
-1.68619e-06 1.93638e-06 -2.30461e-05
0.00189088 -9.68672e-05 -5.57596e-07
-9.68672e-05 0.000213933 2.09246e-07
-5.57596e-07 2.09246e-07 0.000110903
0.00110025 -0.000113336 -3.77392e-06
-0.000113336 -0.000122732 2.2264e-06
-3.77392e-06 2.2264e-06 -0.000217884
0.00148023 -0.000137102 -1.99135e-06
-0.000137102 0.000185345 -3.06291e-06
-1.99135e-06 -3.06291e-06 5.95734e-05
0.00106612 -0.000100753 3.5027e-07
-0.000100753 0.000149625 -1.7852e-06
3.5027e-07 -1.7852e-06 5.62228e-05
0.000893702 -9.08975e-05 -1.45116e-06
-9.08975e-05 6.18724e-05 -2.10183e-06
-1.45116e-06 -2.10183e-06 -3.27656e-05
0.00102712 -7.78047e-05 3.97309e-07
-7.78047e-05 0.000140675 -1.42984e-08
3.97309e-07 -1.42984e-08 4.59396e-05
0.000574082 2.43653e-05 -9.819e-07
2.43653e-05 -0.000125784 1.16636e-06
-9.819e-07 1.16636e-06 -0.000162122
0.00102987 -1.27124e-05 3.97154e-08
-1.27124e-05 0.000128561 7.857e-08
3.97154e-08 7.857e-08 5.67599e-05
0.000737644 2.46765e-05 -1.87257e-07
2.46765e-05 -3.62973e-05 1.06366e-06
-1.87257e-07 1.06366e-06 -9.23697e-05
0.00178965 9.57984e-07 -5.22936e-08
9.57984e-07 0.000121296 -1.44883e-07
-5.22936e-08 -1.44883e-07 1.21969e-05
0.00172609 -1.56984e-05 7.87936e-07
-1.56984e-05 9.4829e-05 -1.27066e-07
7.87936e-07 -1.27066e-07 -4.80089e-06
0.00162656 -5.92453e-05 1.35151e-07
-5.92453e-05 3.50846e-05 -2.07253e-07
1.35151e-07 -2.07253e-07 -6.8613e-05
0.00103364 -0.000101182 -1.81602e-08
-0.000101182 0.00012992 6.96793e-07
-1.81602e-08 6.96793e-07 3.30192e-05
0.000787011 -9.97435e-05 -2.32509e-07
-9.97435e-05 -4.50466e-06 2.97057e-07
-2.32509e-07 2.97057e-07 -0.000129662
0.0016388 -0.000154755 -1.87305e-06
-0.000154755 0.000346132 1.30371e-06
-1.87305e-06 1.30371e-06 0.000194816
0.0019501 -0.000117532 -8.4682e-07
-0.000117532 0.000196251 4.09357e-07
-8.4682e-07 4.09357e-07 9.65911e-05
0.00151316 -0.00013999 2.14277e-06
-0.00013999 0.000110378 -1.38261e-06
2.14277e-06 -1.38261e-06 -7.74528e-06
0.00070826 1.94629e-05 1.65453e-07
1.94629e-05 -5.67439e-05 -5.67987e-07
1.65453e-07 -5.67987e-07 -9.00299e-05
0.000955657 9.48682e-06 -3.12184e-07
9.48682e-06 8.25617e-05 1.6979e-07
-3.12184e-07 1.6979e-07 2.90797e-05
0.000857553 -9.05392e-05 -8.58417e-07
-9.05392e-05 3.89385e-05 2.16959e-07
-8.58417e-07 2.16959e-07 -5.60143e-05
0.00100684 -9.44749e-05 1.19063e-06
-9.44749e-05 0.000119391 8.0991e-07
1.19063e-06 8.0991e-07 2.36111e-05
0.000920201 -2.94001e-05 -1.18006e-09
-2.94001e-05 7.63203e-05 -3.46193e-07
-1.18006e-09 -3.46193e-07 -8.20704e-06
0.000979021 -2.52961e-05 -5.73821e-07
-2.52961e-05 0.000102793 8.52687e-07
-5.73821e-07 8.52687e-07 3.3354e-05
0.00178334 -1.75779e-06 -2.22333e-06
-1.75779e-06 0.000101736 -1.29793e-07
-2.22333e-06 -1.29793e-07 7.35737e-07
0.00175769 -2.59334e-05 1.20089e-07
-2.59334e-05 8.73855e-05 4.75381e-07
1.20089e-07 4.75381e-07 -6.81816e-06
0.00173037 -8.09027e-05 5.6549e-07
-8.09027e-05 4.26598e-05 -1.30587e-06
5.6549e-07 -1.30587e-06 -5.53141e-05
0.00169788 -0.000140683 3.2014e-07
-0.000140683 5.93052e-05 -2.67349e-06
3.2014e-07 -2.67349e-06 -3.81858e-05
0.000691744 -8.59275e-05 -1.60174e-06
-8.59275e-05 -3.1082e-05 1.02064e-06
-1.60174e-06 1.02064e-06 -0.000135356
0.00147083 -0.000153741 -1.20223e-06
-0.000153741 0.000199123 3.64278e-06
-1.20223e-06 3.64278e-06 3.76246e-05
0.00167374 -0.000149682 6.19604e-07
-0.000149682 0.000439334 -2.48394e-06
6.19604e-07 -2.48394e-06 0.000294154
0.000830781 1.56509e-05 5.79807e-07
1.56509e-05 5.80429e-06 -1.67963e-06
5.79807e-07 -1.67963e-06 -2.42902e-05
0.000838937 -4.47786e-05 9.06812e-07
-4.47786e-05 2.7098e-05 -8.8498e-07
9.06812e-07 -8.8498e-07 -2.26671e-05
0.000729622 1.01002e-05 5.0137e-07
1.01002e-05 -3.47054e-05 -1.39565e-06
5.0137e-07 -1.39565e-06 -8.93242e-05
0.000928951 -2.9782e-05 9.32899e-07
-2.9782e-05 7.78721e-05 -1.70629e-07
9.32899e-07 -1.70629e-07 9.95663e-06
0.000928959 1.14791e-05 -3.12628e-08
1.14791e-05 7.83792e-05 -2.10499e-07
-3.12628e-08 -2.10499e-07 2.43866e-06
0.000814198 -9.0845e-05 2.24687e-06
-9.0845e-05 3.9584e-05 1.85432e-06
2.24687e-06 1.85432e-06 -6.18186e-05
0.000810816 -8.75494e-05 -2.43844e-06
-8.75494e-05 -5.80703e-06 2.3304e-06
-2.43844e-06 2.3304e-06 -9.31794e-05
0.00181439 -0.000140865 -1.85267e-06
-0.000140865 0.00055897 2.84085e-06
-1.85267e-06 2.84085e-06 0.000460283
0.00085315 -2.89081e-05 -4.51273e-07
-2.89081e-05 2.95327e-05 -9.6482e-07
-4.51273e-07 -9.6482e-07 -2.0272e-05
0.00088516 5.70873e-06 -3.68626e-07
5.70873e-06 5.31467e-05 -1.42621e-08
-3.68626e-07 -1.42621e-08 -1.57739e-05
0.00194135 9.8133e-05 1.18288e-06
9.8133e-05 0.000241623 7.24486e-08
1.18288e-06 7.24486e-08 0.000145711
0.00091203 1.82132e-05 -3.97481e-07
1.82132e-05 7.94234e-05 -3.28296e-07
-3.97481e-07 -3.28296e-07 -9.93982e-06
0.00103802 0.000101831 -4.40585e-07
0.000101831 0.000164758 -2.21733e-06
-4.40585e-07 -2.21733e-06 5.4271e-05
0.000844248 6.1386e-05 -1.13757e-06
6.1386e-05 5.25763e-05 -2.56197e-07
-1.13757e-06 -2.56197e-07 -5.3425e-05
0.00161267 0.000152261 6.54369e-07
0.000152261 0.000232675 -1.34487e-07
6.54369e-07 -1.34487e-07 0.000112318
0.00142089 0.000137615 3.25761e-06
0.000137615 6.00614e-05 2.98848e-06
3.25761e-06 2.98848e-06 -2.4295e-05
0.000845241 0.000101585 5.87576e-07
0.000101585 4.40629e-05 1.15105e-06
5.87576e-07 1.15105e-06 -8.9875e-05
0.00111828 0.0001351 -3.67526e-06
0.0001351 8.37096e-05 -1.59355e-06
-3.67526e-06 -1.59355e-06 -7.15986e-05
0.000785328 -1.31821e-06 1.98249e-07
-1.31821e-06 -7.55915e-07 4.6981e-07
1.98249e-07 4.6981e-07 -6.51188e-05
0.000820525 3.93376e-05 -1.23347e-07
3.93376e-05 2.95732e-05 -8.59416e-07
-1.23347e-07 -8.59416e-07 -5.59634e-05
0.00105526 0.000103723 -6.71685e-07
0.000103723 0.000174528 -1.044e-06
-6.71685e-07 -1.044e-06 5.22897e-05
0.000842429 5.73325e-05 -3.73225e-07
5.73325e-05 4.59103e-05 -2.38343e-07
-3.73225e-07 -2.38343e-07 -6.06371e-05
0.00200675 6.86814e-05 3.39326e-08
6.86814e-05 0.000204404 3.51564e-07
3.39326e-08 3.51564e-07 0.000119824
0.00145074 0.000114483 2.17288e-06
0.000114483 -4.31903e-05 -1.38659e-06
2.17288e-06 -1.38659e-06 -0.000126781
0.00197234 0.000177321 -3.15887e-06
0.000177321 0.000399523 -2.99634e-07
-3.15887e-06 -2.99634e-07 0.000265523
0.000674766 0.000103437 1.1805e-06
0.000103437 -7.80157e-05 4.77982e-07
1.1805e-06 4.77982e-07 -0.00023934
0.000932457 -2.28132e-06 2.95328e-07
-2.28132e-06 7.98915e-05 3.11365e-07
2.95328e-07 3.11365e-07 8.17769e-06
0.00162792 3.84141e-05 -2.71051e-06
3.84141e-05 7.20959e-06 1.02492e-07
-2.71051e-06 1.02492e-07 -7.36932e-05
0.00115259 9.09908e-05 1.61107e-07
9.09908e-05 0.00021954 1.57794e-06
1.61107e-07 1.57794e-06 0.000115914
0.0010742 0.0001079 2.59631e-07
0.0001079 0.000161812 6.68923e-07
2.59631e-07 6.68923e-07 3.12863e-05
0.00215849 9.38842e-05 -1.16726e-06
9.38842e-05 0.000215171 2.38933e-07
-1.16726e-06 2.38933e-07 0.000143664
0.00170065 0.000173426 3.08273e-06
0.000173426 9.96086e-05 -3.53687e-06
3.08273e-06 -3.53687e-06 -1.31333e-05
0.00161909 0.000158676 -1.00706e-06
0.000158676 0.000347667 2.37356e-06
-1.00706e-06 2.37356e-06 0.000171406
0.000946642 -3.58428e-06 -1.20868e-06
-3.58428e-06 8.32658e-05 -2.69982e-07
-1.20868e-06 -2.69982e-07 2.39877e-05
0.000941865 -1.50678e-05 -7.21469e-08
-1.50678e-05 8.4694e-05 2.96712e-08
-7.21469e-08 2.96712e-08 1.74223e-05
0.000940208 -9.16559e-06 2.78737e-07
-9.16559e-06 8.8626e-05 7.41729e-07
2.78737e-07 7.41729e-07 1.38527e-05
0.000860461 -1.836e-05 -2.69639e-07
-1.836e-05 2.72777e-05 -7.37785e-07
-2.69639e-07 -7.37785e-07 -1.69777e-05
0.000856476 -8.26094e-06 1.80274e-08
-8.26094e-06 4.07248e-05 1.58147e-07
1.80274e-08 1.58147e-07 -1.81305e-05
0.000838386 2.34011e-06 -3.02458e-07
2.34011e-06 3.56762e-05 -7.12949e-07
-3.02458e-07 -7.12949e-07 -3.26221e-05
0.000870086 -1.76666e-05 -1.46245e-07
-1.76666e-05 3.20911e-05 1.82609e-08
-1.46245e-07 1.82609e-08 -1.27911e-05
0.000788694 -1.84597e-05 -4.96473e-07
-1.84597e-05 1.95228e-06 3.29564e-07
-4.96473e-07 3.29564e-07 -5.52709e-05
0.000925497 -1.91813e-05 2.78904e-07
-1.91813e-05 7.91797e-05 -3.7604e-07
2.78904e-07 -3.7604e-07 8.00178e-06
0.0009041 3.70359e-06 1.03277e-07
3.70359e-06 7.04093e-05 4.88512e-07
1.03277e-07 4.88512e-07 4.10162e-06
0.00091197 -4.10537e-06 5.19857e-07
-4.10537e-06 7.14205e-05 -4.92314e-07
5.19857e-07 -4.92314e-07 -3.6527e-06
0.000831066 -3.53171e-05 8.14633e-08
-3.53171e-05 2.87643e-05 3.18258e-07
8.14633e-08 3.18258e-07 -4.2034e-05
0.000936731 1.09838e-05 3.91628e-07
1.09838e-05 8.45026e-05 5.34394e-08
3.91628e-07 5.34394e-08 2.11822e-05
0.0008742 7.46818e-06 1.14619e-06
7.46818e-06 4.66667e-05 3.81622e-07
1.14619e-06 3.81622e-07 -1.16685e-05
0.000876166 3.11567e-06 4.26496e-07
3.11567e-06 3.3705e-05 6.2131e-07
4.26496e-07 6.2131e-07 -1.0698e-05
0.000821646 9.20692e-06 4.37393e-07
9.20692e-06 -2.06615e-06 1.47671e-06
4.37393e-07 1.47671e-06 -2.99819e-05
0.00082816 -1.56386e-06 -1.63708e-07
-1.56386e-06 4.66395e-07 1.15504e-09
-1.63708e-07 1.15504e-09 -2.67036e-05
0.00130745 -5.9814e-06 7.45581e-07
-5.9814e-06 0.00024908 1.82208e-06
7.45581e-07 1.82208e-06 0.00025193
0.000834563 -1.2285e-05 -2.70898e-07
-1.2285e-05 3.71227e-06 -1.58088e-06
-2.70898e-07 -1.58088e-06 -2.28996e-05
0.00132652 -1.10672e-05 -1.85405e-06
-1.10672e-05 0.000261024 -1.21851e-06
-1.85405e-06 -1.21851e-06 0.000263889
0.00100896 -1.04641e-05 8.54672e-06
-1.04641e-05 9.2223e-05 6.34857e-06
8.54672e-06 6.34857e-06 0.000109038
0.00134131 -1.62516e-05 -4.46342e-06
-1.62516e-05 0.000271446 -4.26977e-06
-4.46342e-06 -4.26977e-06 0.000274076
0.000963058 -1.57356e-05 3.17429e-06
-1.57356e-05 6.97983e-05 2.39648e-06
3.17429e-06 2.39648e-06 8.65235e-05
0.000904792 -2.06166e-05 -1.68198e-06
-2.06166e-05 4.31004e-05 -1.57115e-06
-1.68198e-06 -1.57115e-06 5.91295e-05
0.000824277 1.16529e-05 2.74152e-07
1.16529e-05 -1.086e-07 -1.62417e-06
2.74152e-07 -1.62417e-06 -2.78518e-05
0.000756461 1.96627e-05 9.26814e-07
1.96627e-05 -3.95131e-05 -3.2795e-06
9.26814e-07 -3.2795e-06 -4.22748e-05
0.000760207 2.45255e-05 -1.3768e-07
2.45255e-05 -3.22241e-05 2.46597e-08
-1.3768e-07 2.46597e-08 -3.7343e-05
0.00216436 3.48182e-05 1.72956e-05
3.48182e-05 0.000725718 -3.8399e-06
1.72956e-05 -3.8399e-06 0.000745106
0.000763246 2.85472e-05 -1.91523e-06
2.85472e-05 -2.49819e-05 3.43512e-06
-1.91523e-06 3.43512e-06 -3.25553e-05
0.00223274 4.18349e-05 -1.40516e-06
4.18349e-05 0.000769024 -7.71767e-08
-1.40516e-06 -7.71767e-08 0.000786452
0.00229258 4.81024e-05 -2.68652e-05
4.81024e-05 0.000808459 3.67223e-06
-2.68652e-05 3.67223e-06 0.000823934
0.00163603 5.33399e-05 8.05354e-07
5.33399e-05 6.00948e-05 -5.58418e-07
8.05354e-07 -5.58418e-07 -3.3594e-05
0.00169751 2.27259e-05 3.14633e-07
2.27259e-05 7.53098e-05 -9.74345e-07
3.14633e-07 -9.74345e-07 -2.32633e-05
0.00175348 4.37076e-06 7.72501e-07
4.37076e-06 9.68166e-05 -7.27401e-07
7.72501e-07 -7.27401e-07 -1.22359e-05
0.00177582 1.31381e-05 -1.38085e-07
1.31381e-05 0.000118346 6.45995e-08
-1.38085e-07 6.45995e-08 3.49337e-06
0.00179884 6.9258e-06 -1.75276e-07
6.9258e-06 0.000113358 9.99763e-08
-1.75276e-07 9.99763e-08 2.54998e-06
0.00185543 5.6366e-06 2.45819e-07
5.6366e-06 0.000128239 -5.5348e-08
2.45819e-07 -5.5348e-08 2.85782e-05
0.00174532 4.2362e-05 2.10873e-07
4.2362e-05 8.28382e-05 2.96554e-07
2.10873e-07 2.96554e-07 -9.82149e-06
0.00178343 -1.42969e-06 -1.66933e-06
-1.42969e-06 9.5153e-05 1.27793e-07
-1.66933e-06 1.27793e-07 -5.87232e-06
0.00192534 1.80428e-05 -2.34553e-06
1.80428e-05 0.000157339 1.62643e-07
-2.34553e-06 1.62643e-07 6.68721e-05
0.00177228 1.46295e-05 -1.45979e-06
1.46295e-05 7.00483e-05 3.48383e-07
-1.45979e-06 3.48383e-07 -6.17471e-06
0.00179813 2.64341e-06 1.6985e-07
2.64341e-06 0.000123041 7.35318e-07
1.6985e-07 7.35318e-07 1.32294e-05
0.00169513 -1.75277e-05 2.82569e-07
-1.75277e-05 8.02451e-05 -2.24322e-07
2.82569e-07 -2.24322e-07 -1.94524e-05
0.00185843 -6.17244e-05 -1.30239e-06
-6.17244e-05 0.000153532 -3.18705e-07
-1.30239e-06 -3.18705e-07 4.97505e-05
0.00110753 -0.000104727 -9.0652e-08
-0.000104727 0.000166504 4.10228e-07
-9.0652e-08 4.10228e-07 6.90875e-05
0.000857505 -0.000102146 4.87952e-07
-0.000102146 3.77438e-05 3.06397e-06
4.87952e-07 3.06397e-06 -8.45009e-05
0.00164341 -0.000154262 -2.41599e-06
-0.000154262 0.000344517 2.74485e-06
-2.41599e-06 2.74485e-06 0.00019431
0.00202918 -0.000121138 3.70518e-06
-0.000121138 0.000246035 2.26053e-06
3.70518e-06 2.26053e-06 0.000147756
0.0012641 -0.000130954 -2.21199e-06
-0.000130954 -1.97192e-05 -1.83036e-06
-2.21199e-06 -1.83036e-06 -0.000137409
0.000647238 -8.02117e-05 -1.37042e-06
-8.02117e-05 -7.11143e-05 -9.07454e-07
-1.37042e-06 -9.07454e-07 -0.000165149
0.00110235 -9.8082e-05 2.92934e-06
-9.8082e-05 0.000168681 -2.99337e-06
2.92934e-06 -2.99337e-06 7.44025e-05
0.00085388 9.01721e-06 -9.68054e-08
9.01721e-06 3.64863e-05 -4.095e-07
-9.68054e-08 -4.095e-07 -4.4646e-05
0.000815527 1.90573e-05 -7.62207e-07
1.90573e-05 -8.86047e-08 1.12507e-06
-7.62207e-07 1.12507e-06 -3.22708e-05
0.000946874 2.48227e-05 -7.22379e-07
2.48227e-05 7.80608e-05 1.1082e-06
-7.22379e-07 1.1082e-06 2.46382e-05
0.000912916 -8.94929e-06 -6.18715e-07
-8.94929e-06 6.83197e-05 1.11615e-06
-6.18715e-07 1.11615e-06 -1.61234e-06
0.00181128 -1.31859e-06 1.26211e-07
-1.31859e-06 0.000118376 2.52614e-07
1.26211e-07 2.52614e-07 1.88446e-05
0.000828987 1.47239e-05 1.82508e-08
1.47239e-05 4.54707e-06 1.65236e-08
1.82508e-08 1.65236e-08 -2.55116e-05
0.000773869 -2.74736e-06 -2.85355e-07
-2.74736e-06 -1.1983e-05 7.26645e-08
-2.85355e-07 7.26645e-08 -5.92177e-05
0.00178608 -2.77101e-05 -1.87426e-07
-2.77101e-05 0.000101755 -4.12806e-07
-1.87426e-07 -4.12806e-07 6.94097e-06
0.0017156 -7.98419e-05 -3.0813e-07
-7.98419e-05 3.88474e-05 2.81999e-07
-3.0813e-07 2.81999e-07 -6.18455e-05
0.000748663 -8.80534e-05 8.63905e-08
-8.80534e-05 1.73368e-06 1.83239e-06
8.63905e-08 1.83239e-06 -0.000100874
0.00136815 -0.00013451 -7.8034e-07
-0.00013451 0.000280834 3.18863e-07
-7.8034e-07 3.18863e-07 0.000130859
0.00129098 -0.000143766 1.10044e-06
-0.000143766 9.97415e-05 9.19598e-07
1.10044e-06 9.19598e-07 -5.49616e-05
0.00180716 -0.000146372 6.73718e-07
-0.000146372 0.000118373 -3.50094e-07
6.73718e-07 -3.50094e-07 2.06762e-05
0.000911931 -1.51752e-05 1.01393e-06
-1.51752e-05 6.16233e-05 -5.09232e-07
1.01393e-06 -5.09232e-07 8.88773e-06
0.000913179 -1.57108e-05 -4.62287e-07
-1.57108e-05 7.09411e-05 4.39726e-07
-4.62287e-07 4.39726e-07 2.16709e-06
0.000922459 -9.10483e-05 5.20961e-07
-9.10483e-05 4.82995e-05 4.54301e-07
5.20961e-07 4.54301e-07 -4.1605e-05
0.00125956 -0.000113411 1.32481e-06
-0.000113411 0.000266752 -1.25198e-06
1.32481e-06 -1.25198e-06 0.000176856
0.000772348 -6.34147e-05 -1.79877e-07
-6.34147e-05 1.49776e-05 3.28633e-07
-1.79877e-07 3.28633e-07 -8.52446e-05
0.000925926 5.91201e-06 8.31018e-08
5.91201e-06 7.80605e-05 -2.8359e-07
8.31018e-08 -2.8359e-07 8.40598e-07
0.00177807 -5.97273e-06 -3.28921e-06
-5.97273e-06 7.88872e-05 -1.12556e-07
-3.28921e-06 -1.12556e-07 -6.6833e-06
0.00204576 -2.91007e-05 1.7519e-06
-2.91007e-05 0.000210133 1.6683e-06
1.7519e-06 1.6683e-06 0.000116293
0.00175488 -0.000126868 -3.2477e-06
-0.000126868 1.14024e-06 -3.95076e-06
-3.2477e-06 -3.95076e-06 -7.9291e-05
0.00119412 -0.000150171 -1.15054e-06
-0.000150171 -9.69681e-05 1.50694e-06
-1.15054e-06 1.50694e-06 -0.000214284
0.00107277 -8.8636e-05 -2.57327e-06
-8.8636e-05 0.00016161 -6.34504e-07
-2.57327e-06 -6.34504e-07 5.61841e-05
0.00177054 -0.000170618 -2.57272e-06
-0.000170618 0.000452462 -5.5073e-07
-2.57272e-06 -5.5073e-07 0.000271899
0.00069146 3.73676e-05 -1.06494e-06
3.73676e-05 -5.45733e-05 -1.26525e-06
-1.06494e-06 -1.26525e-06 -0.000101292
0.000841526 -1.73722e-05 4.58757e-07
-1.73722e-05 2.26108e-05 -9.63037e-07
4.58757e-07 -9.63037e-07 -2.61208e-05
0.00104093 -2.98903e-05 5.60796e-07
-2.98903e-05 0.000144192 -4.03975e-07
5.60796e-07 -4.03975e-07 8.2985e-05
0.000765374 1.77434e-05 -6.42024e-07
1.77434e-05 -4.22158e-06 -5.37582e-07
-6.42024e-07 -5.37582e-07 -7.43567e-05
0.00105947 -4.92475e-06 2.06114e-07
-4.92475e-06 0.000151255 2.4505e-08
2.06114e-07 2.4505e-08 7.67186e-05
0.000626754 -1.39491e-05 2.643e-07
-1.39491e-05 -6.32088e-05 4.12873e-07
2.643e-07 4.12873e-07 -0.000152717
0.00119925 -7.32988e-05 5.28012e-06
-7.32988e-05 0.000256576 2.31986e-07
5.28012e-06 2.31986e-07 0.000145507
0.000798946 -9.46487e-05 -7.07716e-06
-9.46487e-05 5.30881e-06 2.75423e-06
-7.07716e-06 2.75423e-06 -7.85921e-05
0.000781004 1.26596e-05 -3.6535e-07
1.26596e-05 -1.22418e-06 -1.92525e-07
-3.6535e-07 -1.92525e-07 -6.75994e-05
0.000881559 4.44984e-05 -1.47853e-06
4.44984e-05 6.26604e-05 -1.57174e-06
-1.47853e-06 -1.57174e-06 -2.29999e-05
0.00193394 6.52258e-05 1.23003e-06
6.52258e-05 0.000163889 -2.81474e-07
1.23003e-06 -2.81474e-07 7.84619e-05
0.00142555 0.000113856 6.40249e-07
0.000113856 -4.07752e-05 8.27893e-07
6.40249e-07 8.27893e-07 -0.00012526
0.00111004 6.1781e-05 -1.65259e-06
6.1781e-05 0.000184446 -6.68721e-07
-1.65259e-06 -6.68721e-07 7.8272e-05
0.00106524 0.000104381 -1.54447e-06
0.000104381 0.000181459 -1.43332e-06
-1.54447e-06 -1.43332e-06 5.97034e-05
0.00254296 0.000198148 -8.37592e-07
0.000198148 0.000690753 1.62228e-06
-8.37592e-07 1.62228e-06 0.0005596
0.00108841 0.000126429 -1.05275e-06
0.000126429 0.000125229 -8.66788e-07
-1.05275e-06 -8.66788e-07 -3.53081e-05
0.0009178 1.44449e-05 1.671e-07
1.44449e-05 7.50734e-05 -5.17632e-07
1.671e-07 -5.17632e-07 1.58258e-06
0.00177354 3.72856e-05 -2.39396e-07
3.72856e-05 7.8351e-05 1.4428e-07
-2.39396e-07 1.4428e-07 -1.83323e-06
0.000979898 7.22072e-05 7.76346e-08
7.22072e-05 0.000125717 8.23975e-07
7.76346e-08 8.23975e-07 2.48637e-05
0.000887577 9.76176e-05 7.72552e-08
9.76176e-05 6.63618e-05 -1.41416e-07
7.72552e-08 -1.41416e-07 -6.61278e-05
0.00189116 8.93477e-05 1.33552e-06
8.93477e-05 8.19109e-05 -1.81912e-07
1.33552e-06 -1.81912e-07 1.01429e-05
0.00195797 0.000181067 4.91692e-07
0.000181067 0.00022208 -6.51239e-07
4.91692e-07 -6.51239e-07 0.000110603
0.00173262 0.000165212 6.55616e-07
0.000165212 0.000416361 1.14916e-06
6.55616e-07 1.14916e-06 0.000240493
0.00102747 2.95281e-05 -2.52001e-07
2.95281e-05 0.000142607 6.55898e-07
-2.52001e-07 6.55898e-07 5.51249e-05
0.00205888 5.28102e-05 -5.93621e-06
5.28102e-05 0.000176583 -5.86941e-07
-5.93621e-06 -5.86941e-07 0.000116474
0.00161746 0.000113894 -1.84821e-06
0.000113894 0.000446132 4.31332e-08
-1.84821e-06 4.31332e-08 0.000332788
0.00183811 0.000156346 -2.62141e-06
0.000156346 0.000540588 5.96174e-07
-2.62141e-06 5.96174e-07 0.000385499
0.00189277 0.000169025 1.33728e-06
0.000169025 4.93988e-05 -5.36608e-07
1.33728e-06 -5.36608e-07 -1.49076e-05
0.0012837 0.000156123 -2.08556e-06
0.000156123 6.80525e-05 -3.37343e-09
-2.08556e-06 -3.37343e-09 -9.16101e-05
0.000682091 6.93963e-05 1.12079e-05
6.93963e-05 -0.000267969 2.17354e-06
1.12079e-05 2.17354e-06 -0.000370446
0.000939605 -8.36424e-06 -1.83494e-07
-8.36424e-06 8.34377e-05 -5.73898e-07
-1.83494e-07 -5.73898e-07 1.60745e-05
0.00093964 -5.09878e-06 7.32397e-08
-5.09878e-06 8.84936e-05 2.36878e-08
7.32397e-08 2.36878e-08 1.3618e-05
0.000946943 7.45531e-06 2.23799e-07
7.45531e-06 8.84918e-05 -2.78333e-07
2.23799e-07 -2.78333e-07 8.56087e-06
0.000862478 -3.16175e-05 -1.18731e-07
-3.16175e-05 2.9306e-05 -7.24324e-07
-1.18731e-07 -7.24324e-07 -1.64302e-05
0.000803152 -4.43805e-05 -6.14032e-07
-4.43805e-05 9.98665e-06 7.03996e-08
-6.14032e-07 7.03996e-08 -4.75479e-05
0.00097529 4.44292e-05 -8.18602e-07
4.44292e-05 0.000111362 2.24403e-07
-8.18602e-07 2.24403e-07 4.37731e-05
0.000907779 -2.16698e-05 7.12187e-08
-2.16698e-05 6.96259e-05 -4.92534e-07
7.12187e-08 -4.92534e-07 -2.6092e-06
0.000860653 -1.89403e-05 -1.67487e-07
-1.89403e-05 2.89476e-05 3.79737e-08
-1.67487e-07 3.79737e-08 -1.77294e-05
0.000816552 -1.77324e-06 1.14303e-07
-1.77324e-06 1.16752e-05 -3.50947e-08
1.14303e-07 -3.50947e-08 -4.40645e-05
0.000912275 -7.43607e-06 3.57844e-07
-7.43607e-06 7.15624e-05 -5.53757e-07
3.57844e-07 -5.53757e-07 -3.86359e-06
0.000937817 -1.58285e-05 -1.4579e-07
-1.58285e-05 8.37848e-05 -8.83572e-08
-1.4579e-07 -8.83572e-08 2.08533e-05
0.000921261 -2.67044e-05 1.79944e-07
-2.67044e-05 7.6768e-05 -2.04329e-08
1.79944e-07 -2.04329e-08 6.61557e-06
0.000897174 -1.26141e-05 -3.03508e-08
-1.26141e-05 6.26388e-05 -2.76104e-07
-3.03508e-08 -2.76104e-07 -1.17701e-05
0.000916197 -2.68746e-06 4.89267e-07
-2.68746e-06 7.22266e-05 -3.69167e-07
4.89267e-07 -3.69167e-07 6.64114e-06
0.000969883 2.31417e-06 6.49692e-07
2.31417e-06 9.5195e-05 -2.31853e-07
6.49692e-07 -2.31853e-07 3.3987e-05
0.000832385 1.14009e-05 1.41543e-08
1.14009e-05 2.02294e-05 3.65144e-07
1.41543e-08 3.65144e-07 -3.96593e-05
0.000751161 1.33778e-06 2.57923e-07
1.33778e-06 -3.34331e-05 1.04098e-06
2.57923e-07 1.04098e-06 -7.95138e-05
0.00100022 -3.84881e-06 3.40404e-07
-3.84881e-06 0.000118667 -5.46947e-08
3.40404e-07 -5.46947e-08 5.66459e-05
0.000734333 5.121e-06 -3.84661e-07
5.121e-06 -3.96889e-05 1.07788e-06
-3.84661e-07 1.07788e-06 -8.69607e-05
0.000822336 1.19153e-05 2.65888e-07
1.19153e-05 -1.10367e-06 1.46417e-06
2.65888e-07 1.46417e-06 -2.94136e-05
0.000821572 1.78533e-06 -2.16426e-07
1.78533e-06 -2.11998e-06 3.43815e-09
-2.16426e-07 3.43815e-09 -2.99953e-05
0.000770349 5.5108e-07 2.74647e-07
5.5108e-07 -4.02301e-05 3.03856e-06
2.74647e-07 3.03856e-06 -4.07941e-05
0.000831534 -8.538e-06 2.03377e-08
-8.538e-06 2.36157e-06 -1.49032e-06
2.03377e-08 -1.49032e-06 -2.48374e-05
0.00105475 -4.70678e-06 -1.17485e-06
-4.70678e-06 0.000113198 -1.26491e-06
-1.17485e-06 -1.26491e-06 0.000114445
0.00209323 -7.2335e-06 5.24193e-06
-7.2335e-06 0.000674454 3.97959e-06
5.24193e-06 3.97959e-06 0.000697289
0.00135119 -1.03132e-05 -2.77308e-06
-1.03132e-05 0.00027451 -4.27514e-06
-2.77308e-06 -4.27514e-06 0.000277183
0.000972495 -1.07461e-05 1.72194e-06
-1.07461e-05 7.18935e-05 2.44122e-06
1.72194e-06 2.44122e-06 8.89029e-05
0.000920451 -1.55142e-05 -1.19419e-06
-1.55142e-05 4.66063e-05 -1.54505e-06
-1.19419e-06 -1.54505e-06 6.35335e-05
0.000831517 7.91924e-06 1.95318e-07
7.91924e-06 2.22074e-06 -1.57394e-06
1.95318e-07 -1.57394e-06 -2.37674e-05
0.000831409 1.0977e-05 -3.659e-08
1.0977e-05 3.40462e-06 1.4102e-08
-3.659e-08 1.4102e-08 -2.43596e-05
0.000765044 1.48664e-05 5.01889e-07
1.48664e-05 -3.91753e-05 -3.21647e-06
5.01889e-07 -3.21647e-06 -4.01216e-05
0.00105529 2.20609e-05 -4.88707e-07
2.20609e-05 0.000121352 3.33636e-08
-4.88707e-07 3.33636e-08 0.00011993
0.00212015 2.76567e-05 1.41986e-05
2.76567e-05 0.000696949 -3.91374e-06
1.41986e-05 -3.91374e-06 0.000717851
0.000774124 2.48459e-05 -1.38117e-06
2.48459e-05 -2.49673e-05 3.3744e-06
-1.38117e-06 3.3744e-06 -3.0163e-05
0.00217782 3.5127e-05 -1.48868e-06
3.5127e-05 0.000733676 -6.90666e-08
-1.48868e-06 -6.90666e-08 0.000752828
0.00224669 4.1899e-05 -2.31872e-05
4.1899e-05 0.000777345 3.80162e-06
-2.31872e-05 3.80162e-06 0.000794562
0.00173091 4.38219e-05 -4.86587e-07
4.38219e-05 7.37925e-05 -4.65404e-07
-4.86587e-07 -4.65404e-07 -1.84609e-05
0.00182438 6.46962e-06 1.20686e-06
6.46962e-06 0.000109927 -3.76244e-07
1.20686e-06 -3.76244e-07 9.47471e-06
0.00181195 3.14084e-06 7.57363e-07
3.14084e-06 0.000119516 3.18036e-08
7.57363e-07 3.18036e-08 9.08494e-06
0.00179136 1.26716e-06 1.94095e-07
1.26716e-06 9.76906e-05 6.24894e-08
1.94095e-07 6.24894e-08 -3.44617e-06
0.00183026 1.76055e-05 -2.19893e-07
1.76055e-05 0.000109479 2.16705e-07
-2.19893e-07 2.16705e-07 1.85801e-05
0.00178879 1.16566e-05 1.95733e-06
1.16566e-05 9.0006e-05 1.31821e-07
1.95733e-06 1.31821e-07 1.2787e-05
0.00170666 7.80866e-06 -2.33883e-06
7.80866e-06 4.06525e-05 -4.66549e-07
-2.33883e-06 -4.66549e-07 -4.2219e-05
0.00369347 -6.55001e-05 5.20446e-06
-6.55001e-05 0.000931966 8.76367e-07
5.20446e-06 8.76367e-07 0.000887001
0.00150602 1.49103e-05 -3.45549e-06
1.49103e-05 -0.000109663 2.79978e-07
-3.45549e-06 2.79978e-07 -0.000167544
0.000865379 1.94399e-05 1.10159e-07
1.94399e-05 3.44361e-05 -6.77264e-07
1.10159e-07 -6.77264e-07 -8.22731e-06
0.00185233 -9.951e-07 1.72001e-06
-9.951e-07 0.000141625 2.59494e-07
1.72001e-06 2.59494e-07 4.35826e-05
0.00178187 -2.89037e-05 -1.15232e-06
-2.89037e-05 9.9245e-05 -7.99629e-07
-1.15232e-06 -7.99629e-07 3.90491e-06
0.00172236 -7.85111e-05 1.54527e-06
-7.85111e-05 4.61826e-05 8.32189e-07
1.54527e-06 8.32189e-07 -5.65703e-05
0.000839112 -9.17765e-05 1.66278e-06
-9.17765e-05 5.20694e-05 1.1015e-06
1.66278e-06 1.1015e-06 -4.90212e-05
0.00114186 -0.000122842 8.10983e-07
-0.000122842 0.000165471 3.22794e-06
8.10983e-07 3.22794e-06 8.44279e-06
0.00121145 -0.000138845 1.96113e-06
-0.000138845 5.43594e-05 -1.23587e-06
1.96113e-06 -1.23587e-06 -9.55273e-05
0.00198666 -0.000154398 1.7442e-06
-0.000154398 0.000214084 -6.81322e-07
1.7442e-06 -6.81322e-07 0.000115755
0.00104911 -9.51044e-05 4.1082e-06
-9.51044e-05 0.000110908 -3.3463e-06
4.1082e-06 -3.3463e-06 1.8379e-05
0.000656151 -8.44214e-05 -1.94496e-06
-8.44214e-05 -5.04039e-05 -7.50572e-06
-1.94496e-06 -7.50572e-06 -0.00013127
0.000693613 -5.83205e-05 4.77867e-09
-5.83205e-05 -2.64005e-05 3.09282e-07
4.77867e-09 3.09282e-07 -0.000127268
0.000830209 1.4019e-05 -7.1999e-07
1.4019e-05 4.99529e-06 1.73205e-06
-7.1999e-07 1.73205e-06 -2.50551e-05
0.000936563 -3.60073e-06 -1.24078e-07
-3.60073e-06 8.46219e-05 -4.45465e-07
-1.24078e-07 -4.45465e-07 6.14206e-06
0.00108838 -3.8469e-05 -4.66297e-07
-3.8469e-05 0.000158166 4.2446e-07
-4.66297e-07 4.2446e-07 0.000105211
0.000906017 -8.09907e-06 -6.48328e-07
-8.09907e-06 6.71638e-05 1.0928e-06
-6.48328e-07 1.0928e-06 -1.59063e-06
0.000702865 2.63498e-06 1.2587e-07
2.63498e-06 -5.24669e-05 8.41224e-07
1.2587e-07 8.41224e-07 -9.83429e-05
0.00180579 -6.26512e-06 -5.5595e-07
-6.26512e-06 9.45717e-05 -2.19846e-07
-5.5595e-07 -2.19846e-07 9.61218e-06
0.000775965 1.42161e-05 1.90777e-07
1.42161e-05 -9.6549e-06 -5.07174e-07
1.90777e-07 -5.07174e-07 -5.58468e-05
0.000847979 -2.82848e-05 -4.3602e-07
-2.82848e-05 2.91413e-05 3.08119e-08
-4.3602e-07 3.08119e-08 -2.18165e-05
0.000888558 -9.96459e-06 -7.07315e-07
-9.96459e-06 6.36647e-05 4.7887e-07
-7.07315e-07 4.7887e-07 6.99673e-07
0.00179438 -3.04225e-05 1.27228e-06
-3.04225e-05 7.10819e-05 -2.45794e-07
1.27228e-06 -2.45794e-07 -2.16886e-05
0.00181535 -0.000127586 -1.59892e-06
-0.000127586 4.76756e-05 5.21356e-07
-1.59892e-06 5.21356e-07 -3.49814e-05
0.000889596 -8.72048e-05 -4.50024e-07
-8.72048e-05 5.41946e-05 2.92732e-07
-4.50024e-07 2.92732e-07 -4.74491e-05
0.00113013 -0.000136844 1.15376e-07
-0.000136844 0.000139808 -6.86231e-07
1.15376e-07 -6.86231e-07 -4.49143e-05
0.00150776 -0.000163442 2.07483e-07
-0.000163442 6.432e-05 4.17395e-07
2.07483e-07 4.17395e-07 -5.52034e-05
0.000866899 7.84986e-06 -1.64841e-07
7.84986e-06 5.04193e-05 5.6567e-09
-1.64841e-07 5.6567e-09 -1.9357e-05
0.000984795 -2.19518e-05 -1.21522e-07
-2.19518e-05 0.000114882 3.14015e-08
-1.21522e-07 3.14015e-08 3.82115e-05
0.000759361 -9.44721e-05 -4.32579e-06
-9.44721e-05 -9.86275e-06 9.75357e-07
-4.32579e-06 9.75357e-07 -9.83153e-05
0.00106899 -5.52458e-05 5.90278e-07
-5.52458e-05 0.00018511 -5.7417e-07
5.90278e-07 -5.7417e-07 7.77153e-05
0.000833861 -2.84646e-05 -4.79064e-08
-2.84646e-05 4.66791e-05 9.24404e-07
-4.79064e-08 9.24404e-07 -4.31894e-05
0.00207428 -2.92125e-05 -3.43506e-06
-2.92125e-05 0.000191055 5.95426e-07
-3.43506e-06 5.95426e-07 0.000112123
0.00237581 -6.79565e-05 4.97782e-07
-6.79565e-05 0.000310885 7.91704e-07
4.97782e-07 7.91704e-07 0.000229689
0.00179223 -0.000176783 1.28486e-06
-0.000176783 6.42927e-05 -3.65893e-06
1.28486e-06 -3.65893e-06 -2.62522e-05
0.00177281 -0.000178576 -5.93555e-06
-0.000178576 0.000365216 3.31384e-07
-5.93555e-06 3.31384e-07 0.000213141
0.000999406 -9.90864e-05 -1.07579e-06
-9.90864e-05 0.000143803 -1.52594e-06
-1.07579e-06 -1.52594e-06 8.29168e-06
0.00071597 1.36354e-05 5.16159e-08
1.36354e-05 -3.01251e-05 -8.10031e-07
5.16159e-08 -8.10031e-07 -9.17097e-05
0.000814026 4.32779e-05 -1.55469e-07
4.32779e-05 2.46129e-05 -8.53548e-07
-1.55469e-07 -8.53548e-07 -4.25279e-05
0.00107563 1.53282e-05 6.12258e-07
1.53282e-05 0.000162241 4.02943e-07
6.12258e-07 4.02943e-07 9.2264e-05
0.000859014 -4.23435e-05 1.09189e-06
-4.23435e-05 5.23418e-05 -1.04574e-08
1.09189e-06 -1.04574e-08 -2.4219e-05
0.00103981 4.47593e-06 5.3231e-07
4.47593e-06 0.000143298 6.57954e-07
5.3231e-07 6.57954e-07 6.42641e-05
0.000843476 -1.35876e-05 1.01818e-07
-1.35876e-05 5.85996e-05 -1.4409e-06
1.01818e-07 -1.4409e-06 -3.8355e-05
0.000723737 -6.89197e-05 7.10394e-06
-6.89197e-05 1.97559e-05 1.17456e-06
7.10394e-06 1.17456e-06 -0.000109739
0.000902107 3.46655e-05 -3.82693e-07
3.46655e-05 7.02614e-05 -1.47902e-06
-3.82693e-07 -1.47902e-06 -5.29534e-06
0.000812076 5.44119e-05 -1.39379e-07
5.44119e-05 3.4774e-05 -2.78078e-09
-1.39379e-07 -2.78078e-09 -6.34258e-05
0.0019192 3.56975e-05 2.6586e-06
3.56975e-05 0.000149741 -2.73743e-07
2.6586e-06 -2.73743e-07 7.02623e-05
0.00163 8.48486e-05 2.57492e-06
8.48486e-05 -4.70221e-05 -7.40322e-07
2.57492e-06 -7.40322e-07 -0.000118752
0.00213516 0.000185894 3.62996e-07
0.000185894 0.000302887 3.61687e-07
3.62996e-07 3.61687e-07 0.00019302
0.000697683 8.757e-05 6.88702e-07
8.757e-05 -3.07899e-05 -6.10194e-08
6.88702e-07 -6.10194e-08 -0.000165046
0.00179098 0.000169297 6.5736e-07
0.000169297 0.000455693 1.07572e-06
6.5736e-07 1.07572e-06 0.000281462
0.00102521 2.21218e-05 -1.15927e-07
2.21218e-05 0.000140475 5.02345e-08
-1.15927e-07 5.02345e-08 5.56751e-05
0.00180891 5.03851e-05 -1.64073e-06
5.03851e-05 3.3304e-05 -3.81179e-07
-1.64073e-06 -3.81179e-07 -2.03333e-05
0.00121673 9.62472e-05 -7.66325e-07
9.62472e-05 0.000241395 3.50634e-07
-7.66325e-07 3.50634e-07 0.000129865
0.00136778 0.000130444 -6.54899e-07
0.000130444 0.000309508 5.5234e-07
-6.54899e-07 5.5234e-07 0.000156012
0.00182883 0.000158993 1.019e-06
0.000158993 1.05567e-05 -5.87111e-07
1.019e-06 -5.87111e-07 -5.30125e-05
0.00136878 0.000162822 -1.13498e-06
0.000162822 0.000117515 1.2192e-06
-1.13498e-06 1.2192e-06 -4.68198e-05
0.00182159 6.38451e-05 4.46332e-06
6.38451e-05 0.000111887 1.0827e-06
4.46332e-06 1.0827e-06 6.53189e-06
0.00107398 4.26961e-05 -6.32548e-07
4.26961e-05 0.000165451 -8.60371e-07
-6.32548e-07 -8.60371e-07 7.14146e-05
0.00244556 0.000112412 -5.83982e-06
0.000112412 0.000319058 -6.59287e-06
-5.83982e-06 -6.59287e-06 0.000317046
0.00120528 0.000115165 -2.94685e-06
0.000115165 0.00025011 -1.55047e-06
-2.94685e-06 -1.55047e-06 0.000130995
0.00111366 0.000124366 -4.30999e-06
0.000124366 0.000173719 -1.02189e-06
-4.30999e-06 -1.02189e-06 -9.12058e-06
6.83021e-05 0.000156666 -3.95185e-06
0.000156666 -0.000690854 -2.02971e-06
-3.95185e-06 -2.02971e-06 -0.000812116
0.00681154 -5.80942e-05 -4.29882e-05
-5.80942e-05 0.00225337 -1.16804e-05
-4.29882e-05 -1.16804e-05 0.00156707
0.00293242 1.04644e-05 7.41167e-05
1.04644e-05 8.56645e-05 5.25142e-06
7.41167e-05 5.25142e-06 -0.000383173
0.000729132 0.000157739 9.54791e-06
0.000157739 -0.000351565 1.91046e-05
9.54791e-06 1.91046e-05 -0.000375375
-0.00199292 -0.00030518 -1.11222e-05
-0.00030518 -0.000920341 -1.18705e-05
-1.11222e-05 -1.18705e-05 -0.000896069
0.00237117 -0.000477198 -2.70106e-05
-0.000477198 8.25252e-05 -4.83895e-06
-2.70106e-05 -4.83895e-06 0.00111006
0.000947313 -7.68277e-06 -1.3723e-07
-7.68277e-06 9.2489e-05 -6.78352e-07
-1.3723e-07 -6.78352e-07 1.75838e-05
0.000959512 1.51468e-06 2.29805e-07
1.51468e-06 9.67207e-05 -3.15725e-07
2.29805e-07 -3.15725e-07 1.74787e-05
0.00102486 3.11347e-05 -2.38691e-08
3.11347e-05 0.00012942 -7.98975e-07
-2.38691e-08 -7.98975e-07 4.96531e-05
0.000845208 -4.15131e-05 2.12799e-07
-4.15131e-05 2.40419e-05 -7.91255e-07
2.12799e-07 -7.91255e-07 -2.48082e-05
0.000748076 2.17554e-05 -6.6614e-07
2.17554e-05 -2.31357e-05 -3.31724e-07
-6.6614e-07 -3.31724e-07 -8.01739e-05
0.000941512 -3.78518e-05 -2.98745e-08
-3.78518e-05 8.48998e-05 -2.40871e-07
-2.98745e-08 -2.40871e-07 2.20461e-05
0.00100523 -1.65059e-05 -4.04481e-07
-1.65059e-05 0.000121099 3.435e-09
-4.04481e-07 3.435e-09 5.19288e-05
0.000885656 -1.1943e-05 4.25526e-07
-1.1943e-05 5.7482e-05 -9.46281e-07
4.25526e-07 -9.46281e-07 -1.83068e-05
0.000898923 1.8701e-05 -5.31885e-07
1.8701e-05 5.99573e-05 -3.02463e-07
-5.31885e-07 -3.02463e-07 -3.26761e-06
0.000797509 6.23517e-07 5.65652e-08
6.23517e-07 -4.89877e-06 4.71757e-07
5.65652e-08 4.71757e-07 -5.24637e-05
0.000863413 1.09311e-05 -2.53816e-07
1.09311e-05 3.6678e-05 -4.83127e-08
-2.53816e-07 -4.83127e-08 -2.2711e-05
0.0009075 -1.15559e-05 -6.69168e-08
-1.15559e-05 6.81555e-05 2.59282e-07
-6.69168e-08 2.59282e-07 -6.02218e-06
0.000919698 -6.62185e-06 5.9453e-08
-6.62185e-06 7.34347e-05 -1.29804e-07
5.9453e-08 -1.29804e-07 7.84789e-06
0.000846318 1.23781e-05 5.93524e-07
1.23781e-05 3.18311e-05 -4.22145e-07
5.93524e-07 -4.22145e-07 -3.25797e-05
0.000944651 4.05476e-06 7.22624e-07
4.05476e-06 8.44497e-05 -4.55131e-07
7.22624e-07 -4.55131e-07 1.63536e-05
0.000865695 5.46966e-06 9.56819e-07
5.46966e-06 3.42623e-05 2.93666e-07
9.56819e-07 2.93666e-07 -2.83805e-05
0.000823087 1.18527e-06 8.98828e-07
1.18527e-06 1.00525e-05 9.21623e-08
8.98828e-07 9.21623e-08 -4.94094e-05
0.000718993 -3.51705e-05 -1.21207e-06
-3.51705e-05 -4.609e-05 1.12008e-06
-1.21207e-06 1.12008e-06 -9.46239e-05
0.000931821 5.81272e-06 -1.71175e-07
5.81272e-06 7.36973e-05 2.97476e-07
-1.71175e-07 2.97476e-07 1.31749e-05
0.00100699 6.4643e-05 6.37495e-08
6.4643e-05 0.00011692 -2.04122e-07
6.37495e-08 -2.04122e-07 5.13333e-05
0.000851472 3.97562e-06 -4.11062e-07
3.97562e-06 3.87257e-05 3.23644e-07
-4.11062e-07 3.23644e-07 -2.15505e-05
0.000929642 9.63657e-06 4.71513e-07
9.63657e-06 7.59836e-05 -3.42583e-07
4.71513e-07 -3.42583e-07 1.6261e-05
0.000859637 -2.35565e-05 -1.21772e-06
-2.35565e-05 2.85001e-05 6.77432e-07
-1.21772e-06 6.77432e-07 -1.82074e-05
0.000742771 4.13597e-06 1.36179e-07
4.13597e-06 -3.24324e-05 3.8237e-07
1.36179e-07 3.8237e-07 -8.15068e-05
0.000827668 1.30287e-05 -7.52478e-08
1.30287e-05 1.84047e-06 1.54024e-06
-7.52478e-08 1.54024e-06 -2.65876e-05
0.000819708 4.29454e-06 -1.54339e-07
4.29454e-06 -2.68186e-06 1.00201e-09
-1.54339e-07 1.00201e-09 -3.0905e-05
0.000785852 5.10606e-06 -2.65152e-07
5.10606e-06 -3.08144e-05 4.32263e-06
-2.65152e-07 4.32263e-06 -3.19018e-05
0.000819831 -5.85224e-06 2.42649e-07
-5.85224e-06 -3.08039e-06 -1.43927e-06
2.42649e-07 -1.43927e-06 -3.0896e-05
0.000773666 6.18534e-07 1.64373e-07
6.18534e-07 -3.845e-05 -8.04821e-09
1.64373e-07 -8.04821e-09 -3.90419e-05
0.00210907 -9.65121e-07 2.1362e-07
-9.65121e-07 0.000682549 4.02673e-06
2.1362e-07 4.02673e-06 0.000705273
0.000792717 -3.90913e-06 -5.63514e-07
-3.90913e-06 -2.76373e-05 -4.28548e-06
-5.63514e-07 -4.28548e-06 -2.80124e-05
0.00153414 -6.09663e-06 -2.87641e-07
-6.09663e-06 0.000373016 1.937e-08
-2.87641e-07 1.937e-08 0.000392954
0.000932914 -1.01888e-05 -7.07477e-07
-1.01888e-05 4.99713e-05 -1.53243e-06
-7.07477e-07 -1.53243e-06 6.72576e-05
0.000835517 3.59594e-06 -4.31301e-08
3.59594e-06 3.18205e-06 -1.62298e-06
-4.31301e-08 -1.62298e-06 -2.15276e-05
0.000831663 7.19404e-06 4.21562e-08
7.19404e-06 2.00113e-06 4.99184e-09
4.21562e-08 4.99184e-09 -2.39436e-05
0.000771143 9.92244e-06 2.89978e-07
9.92244e-06 -3.88139e-05 -3.16087e-06
2.89978e-07 -3.16087e-06 -3.8342e-05
0.000836035 1.03037e-05 -5.21554e-07
1.03037e-05 5.55421e-06 1.69183e-06
-5.21554e-07 1.69183e-06 -2.2216e-05
0.0010461 1.65263e-05 -2.5143e-07
1.65263e-05 0.000111951 -6.31303e-07
-2.5143e-07 -6.31303e-07 0.000112458
0.00208957 2.06398e-05 1.0526e-05
2.06398e-05 0.00067659 -3.97069e-06
1.0526e-05 -3.97069e-06 0.000698645
0.000775167 2.03132e-05 -9.78603e-07
2.03132e-05 -2.92645e-05 3.30249e-06
-9.78603e-07 3.30249e-06 -3.2336e-05
0.00215285 2.73248e-05 -5.88313e-06
2.73248e-05 0.000715644 1.11339e-06
-5.88313e-06 1.11339e-06 0.000736254
0.00218768 3.53078e-05 -1.92221e-05
3.53078e-05 0.000739722 3.89234e-06
-1.92221e-05 3.89234e-06 0.000758664
0.0017446 1.74582e-05 1.38487e-06
1.74582e-05 6.68282e-05 1.75961e-07
1.38487e-06 1.75961e-07 -2.45206e-05
0.00180102 3.18924e-06 1.72482e-06
3.18924e-06 0.000101517 5.17074e-08
1.72482e-06 5.17074e-08 2.68383e-07
0.00179063 9.67985e-06 5.34929e-06
9.67985e-06 0.000102252 -1.00984e-07
5.34929e-06 -1.00984e-07 2.40813e-05
0.0017175 -2.65472e-05 5.32556e-06
-2.65472e-05 -5.87681e-05 1.49612e-06
5.32556e-06 1.49612e-06 -0.00011819
0.0018317 6.55435e-06 -4.8013e-07
6.55435e-06 0.000103372 1.37734e-08
-4.8013e-07 1.37734e-08 2.08798e-05
0.00180409 1.84148e-05 1.39965e-06
1.84148e-05 5.76634e-05 1.07062e-07
1.39965e-06 1.07062e-07 -4.33699e-06
0.00228482 1.74575e-05 -1.51862e-06
1.74575e-05 0.000284646 1.62989e-06
-1.51862e-06 1.62989e-06 0.00020158
0.00319702 -0.000123448 0.000139949
-0.000123448 0.00055737 2.11636e-05
0.000139949 2.11636e-05 0.000284644
0.00123405 -4.27887e-05 -5.24049e-06
-4.27887e-05 -0.00028437 4.3023e-07
-5.24049e-06 4.3023e-07 -0.000352759
0.000866221 2.40314e-05 -7.45596e-07
2.40314e-05 3.55432e-05 -7.50979e-07
-7.45596e-07 -7.50979e-07 -7.33316e-06
0.000860776 -1.35589e-05 6.46439e-07
-1.35589e-05 3.43707e-05 -4.23019e-08
6.46439e-07 -4.23019e-08 -1.00218e-05
0.000863765 -3.46342e-05 -1.0164e-07
-3.46342e-05 4.30418e-05 -7.16328e-09
-1.0164e-07 -7.16328e-09 -1.16643e-05
0.000869362 -2.73691e-05 -1.0021e-06
-2.73691e-05 5.64229e-05 1.11814e-07
-1.0021e-06 1.11814e-07 -3.22393e-06
0.00184569 -7.06359e-06 3.33469e-06
-7.06359e-06 0.000116326 -5.68455e-07
3.33469e-06 -5.68455e-07 3.19708e-05
0.00169185 -3.34682e-05 2.67895e-07
-3.34682e-05 1.07403e-05 -2.97761e-07
2.67895e-07 -2.97761e-07 -8.14517e-05
0.00182581 -0.000127341 -1.67192e-06
-0.000127341 6.71269e-05 2.17469e-06
-1.67192e-06 2.17469e-06 -1.841e-05
0.000735809 -8.69404e-05 2.67687e-06
-8.69404e-05 -3.80796e-05 2.25656e-06
2.67687e-06 2.25656e-06 -0.000135015
0.000441837 -0.000100938 3.71859e-06
-0.000100938 -0.000203119 -1.14286e-06
3.71859e-06 -1.14286e-06 -0.00038743
0.00188609 -0.000179258 1.69981e-06
-0.000179258 0.000258549 -1.47199e-06
1.69981e-06 -1.47199e-06 0.000138057
0.000766456 -9.08326e-05 -6.28395e-06
-9.08326e-05 -2.77583e-06 3.25204e-07
-6.28395e-06 3.25204e-07 -9.49393e-05
0.000967028 -3.98682e-05 -1.23325e-06
-3.98682e-05 0.000128567 -5.95773e-07
-1.23325e-06 -5.95773e-07 2.44321e-05
0.00103996 -4.56213e-05 -1.11072e-06
-4.56213e-05 0.000156001 1.51678e-06
-1.11072e-06 1.51678e-06 6.58171e-05
0.000860301 -5.41136e-06 -1.07065e-06
-5.41136e-06 3.53469e-05 1.00913e-06
-1.07065e-06 1.00913e-06 -1.55673e-05
0.000902984 -3.51896e-05 -3.61745e-07
-3.51896e-05 7.58184e-05 1.00656e-07
-3.61745e-07 1.00656e-07 -3.70838e-06
0.000972816 5.55772e-06 -7.08945e-07
5.55772e-06 0.00010496 5.6149e-07
-7.08945e-07 5.6149e-07 3.7086e-05
0.000862082 -3.69654e-06 2.77126e-08
-3.69654e-06 3.70851e-05 2.77645e-07
2.77126e-08 2.77645e-07 -9.20127e-06
0.00072862 2.00146e-05 2.63786e-07
2.00146e-05 -2.03089e-05 1.04613e-06
2.63786e-07 1.04613e-06 -8.52216e-05
0.00177114 -2.29773e-05 -5.77548e-07
-2.29773e-05 4.98964e-05 1.02483e-06
-5.77548e-07 1.02483e-06 -2.93982e-05
0.000872427 1.1572e-05 4.68515e-07
1.1572e-05 5.19269e-05 -4.61328e-07
4.68515e-07 -4.61328e-07 -7.72615e-06
0.000835751 2.21154e-05 5.20967e-07
2.21154e-05 3.63513e-05 2.63933e-09
5.20967e-07 2.63933e-09 -3.01457e-05
0.000950276 4.5526e-05 -3.04846e-07
4.5526e-05 9.65238e-05 6.8931e-07
-3.04846e-07 6.8931e-07 2.51923e-05
0.00199787 -6.32678e-05 -3.43856e-06
-6.32678e-05 0.000109322 2.97387e-07
-3.43856e-06 2.97387e-07 2.46331e-05
0.00170627 -0.000167668 1.02744e-06
-0.000167668 2.95145e-05 -1.35888e-06
1.02744e-06 -1.35888e-06 -6.07995e-05
0.000958497 -0.000103894 -7.23774e-07
-0.000103894 0.000108333 -2.43e-07
-7.23774e-07 -2.43e-07 -2.2425e-05
0.00182644 -0.000180969 -7.2816e-07
-0.000180969 0.000398617 -7.12018e-07
-7.2816e-07 -7.12018e-07 0.000241783
0.00093379 -1.13277e-05 -3.68521e-07
-1.13277e-05 8.87203e-05 1.17458e-07
-3.68521e-07 1.17458e-07 1.37342e-05
0.000941131 -4.71903e-06 1.70115e-07
-4.71903e-06 9.7459e-05 7.7451e-07
1.70115e-07 7.7451e-07 1.68535e-05
0.000855956 -7.35001e-05 3.32487e-06
-7.35001e-05 8.23395e-05 -8.49045e-07
3.32487e-06 -8.49045e-07 -4.18117e-05
0.00102849 -4.26584e-05 4.88191e-07
-4.26584e-05 0.000158584 -1.0543e-06
4.88191e-07 -1.0543e-06 5.57375e-05
0.00166578 -1.36441e-05 -2.54512e-06
-1.36441e-05 -6.42669e-05 1.87581e-06
-2.54512e-06 1.87581e-06 -0.000148886
0.00198145 -0.000149692 5.11813e-06
-0.000149692 6.01663e-05 -4.26227e-06
5.11813e-06 -4.26227e-06 -1.92562e-05
0.00184252 -0.000186037 -3.90005e-06
-0.000186037 0.00025883 -1.16106e-06
-3.90005e-06 -1.16106e-06 0.000134742
0.0011569 -0.000137713 -1.7142e-06
-0.000137713 0.000210562 -4.10999e-07
-1.7142e-06 -4.10999e-07 6.70976e-05
0.000842113 2.36145e-05 -8.01534e-07
2.36145e-05 4.16746e-05 -1.48011e-08
-8.01534e-07 -1.48011e-08 -3.36749e-05
0.000876663 -3.44984e-05 7.00875e-07
-3.44984e-05 6.48862e-05 -5.08324e-07
7.00875e-07 -5.08324e-07 -1.03058e-05
0.000927959 -2.26015e-05 1.12987e-07
-2.26015e-05 8.7476e-05 -2.6435e-08
1.12987e-07 -2.6435e-08 5.96612e-06
0.000802076 -8.39528e-06 -1.38453e-06
-8.39528e-06 5.15241e-05 2.3896e-07
-1.38453e-06 2.3896e-07 -7.9956e-05
0.000452956 -4.01319e-05 -3.42649e-06
-4.01319e-05 -0.000956744 -7.2004e-06
-3.42649e-06 -7.2004e-06 -0.0013747
0.000994339 1.13665e-05 2.39241e-07
1.13665e-05 0.000123229 -8.25739e-07
2.39241e-07 -8.25739e-07 4.13814e-05
0.000812305 7.61515e-05 1.21315e-06
7.61515e-05 3.41306e-05 1.0346e-06
1.21315e-06 1.0346e-06 -7.52955e-05
0.00154605 4.79607e-05 5.40489e-06
4.79607e-05 -0.000118677 5.94239e-07
5.40489e-06 5.94239e-07 -0.000165966
0.00173989 0.000147449 1.60697e-07
0.000147449 -3.95387e-05 -3.56737e-07
1.60697e-07 -3.56737e-07 -0.000102825
0.00144889 0.000169619 6.97126e-07
0.000169619 0.000166096 2.88292e-06
6.97126e-07 2.88292e-06 -4.41365e-06
0.000837966 0.000101572 2.58983e-06
0.000101572 4.69956e-05 1.02152e-06
2.58983e-06 1.02152e-06 -0.000105913
0.00292435 6.32434e-05 3.87654e-07
6.32434e-05 0.000491024 -1.41203e-06
3.87654e-07 -1.41203e-06 0.000368928
0.000966592 3.92026e-05 6.65822e-07
3.92026e-05 0.000113684 -4.23443e-07
6.65822e-07 -4.23443e-07 2.0282e-05
0.00208442 0.000106491 -4.36192e-06
0.000106491 0.000131129 -2.45191e-06
-4.36192e-06 -2.45191e-06 0.000136284
0.00104185 0.000106549 3.44569e-07
0.000106549 0.000167208 -3.22386e-07
3.44569e-07 -3.22386e-07 5.00937e-05
0.00106272 0.000125143 -1.67608e-07
0.000125143 0.000155734 4.59116e-07
-1.67608e-07 4.59116e-07 -2.92319e-05
0.000968271 0.000191261 -2.80656e-06
0.000191261 -0.000263984 3.9499e-07
-2.80656e-06 3.9499e-07 -0.000378662
0.0020411 -0.000177097 -3.205e-05
-0.000177097 -4.88132e-05 -1.13309e-05
-3.205e-05 -1.13309e-05 -0.0006543
0.00349713 -6.0574e-05 5.20579e-06
-6.0574e-05 0.000289135 -1.17458e-05
5.20579e-06 -1.17458e-05 -0.000284614
0.000831879 0.000149392 5.76726e-06
0.000149392 -0.000299578 2.14182e-06
5.76726e-06 2.14182e-06 -0.000330479
-0.00182906 -0.00026397 2.25499e-05
-0.00026397 -0.000619724 5.44603e-06
2.25499e-05 5.44603e-06 -0.000853787
0.00016273 -0.000508373 1.17747e-05
-0.000508373 -0.00111738 -7.17734e-07
1.17747e-05 -7.17734e-07 5.13803e-05
0.00109137 6.54114e-05 -5.13962e-07
6.54114e-05 0.000183296 -1.49355e-06
-5.13962e-07 -1.49355e-06 9.15562e-05
0.000758656 6.94047e-05 -8.70953e-05
6.94047e-05 0.000618923 -2.16901e-05
-8.70953e-05 -2.16901e-05 0.000334248
0.00143245 -0.000290968 -4.21589e-05
-0.000290968 0.000410587 -2.60015e-05
-4.21589e-05 -2.60015e-05 0.000740752
0.00120595 0.00012693 -8.84678e-06
0.00012693 -0.000251154 7.50122e-07
-8.84678e-06 7.50122e-07 -0.000215292
0.00117159 6.28144e-05 -3.42614e-06
6.28144e-05 0.000259821 -2.24842e-06
-3.42614e-06 -2.24842e-06 0.000130165
0.00116068 0.000155214 -7.60457e-06
0.000155214 0.000179207 -3.37766e-06
-7.60457e-06 -3.37766e-06 -2.26061e-05
0.000890994 0.000183547 6.39378e-06
0.000183547 -0.000231695 3.33108e-05
6.39378e-06 3.33108e-05 -0.000188457
0.00650645 -0.000260816 -5.47949e-05
-0.000260816 0.0021399 -1.35313e-05
-5.47949e-05 -1.35313e-05 0.00111488
0.00182122 9.35173e-05 1.13155e-05
9.35173e-05 -0.000542457 2.28155e-05
1.13155e-05 2.28155e-05 -0.00137135
0.000124654 -0.000455318 -3.85749e-05
-0.000455318 -0.000283635 -1.19498e-05
-3.85749e-05 -1.19498e-05 4.02785e-05
0.000664743 -0.000246194 -3.44569e-05
-0.000246194 -0.00152931 4.3413e-06
-3.44569e-05 4.3413e-06 -0.000744699
0.000969534 -3.2066e-06 -1.42179e-07
-3.2066e-06 0.000104265 -4.93274e-07
-1.42179e-07 -4.93274e-07 2.54868e-05
0.000973871 2.12554e-05 -2.40129e-07
2.12554e-05 0.000102654 1.58834e-07
-2.40129e-07 1.58834e-07 2.3871e-05
0.00116222 5.7956e-05 -1.25012e-07
5.7956e-05 0.000207142 -1.51622e-06
-1.25012e-07 -1.51622e-06 0.00013314
0.000847059 2.02541e-06 -1.42539e-07
2.02541e-06 2.66578e-05 -2.65266e-07
-1.42539e-07 -2.65266e-07 -2.33196e-05
0.000901771 3.13454e-06 -5.90825e-07
3.13454e-06 5.61956e-05 -3.19927e-07
-5.90825e-07 -3.19927e-07 -2.21329e-06
0.000844351 -2.45454e-05 -2.83308e-07
-2.45454e-05 2.76146e-05 -5.01524e-07
-2.83308e-07 -5.01524e-07 -3.40348e-05
0.000931797 -9.85197e-06 -1.11435e-07
-9.85197e-06 7.91516e-05 -1.56354e-07
-1.11435e-07 -1.56354e-07 1.34386e-05
0.000931543 -1.38872e-05 -6.06582e-08
-1.38872e-05 8.1336e-05 4.43412e-07
-6.06582e-08 4.43412e-07 7.10169e-06
0.000738989 -3.46892e-06 4.14658e-07
-3.46892e-06 -3.50528e-05 3.86846e-07
4.14658e-07 3.86846e-07 -8.39881e-05
0.000868814 -5.81853e-06 -1.04661e-07
-5.81853e-06 4.4043e-05 -2.81478e-07
-1.04661e-07 -2.81478e-07 -2.00726e-05
0.000942671 -2.05881e-05 -1.8272e-07
-2.05881e-05 7.7003e-05 3.27058e-07
-1.8272e-07 3.27058e-07 1.35506e-05
0.000898162 2.06615e-05 4.37558e-07
2.06615e-05 5.37321e-05 -1.9855e-07
4.37558e-07 -1.9855e-07 -7.4721e-06
0.000928382 5.97944e-06 4.53075e-08
5.97944e-06 7.58372e-05 2.42041e-08
4.53075e-08 2.42041e-08 7.42979e-06
0.000843539 -1.12801e-05 6.70866e-07
-1.12801e-05 2.17053e-05 -1.23151e-07
6.70866e-07 -1.23151e-07 -4.36632e-05
0.000994739 2.80029e-05 -3.74522e-08
2.80029e-05 0.000107308 -1.51795e-06
-3.74522e-08 -1.51795e-06 3.86623e-05
0.000954951 -5.52981e-05 1.76213e-07
-5.52981e-05 8.0034e-05 2.18358e-08
1.76213e-07 2.18358e-08 1.6046e-05
0.000945808 -3.63681e-05 -3.3656e-07
-3.63681e-05 8.00448e-05 -6.68654e-08
-3.3656e-07 -6.68654e-08 1.87555e-05
0.000947113 -4.56107e-06 -3.71034e-07
-4.56107e-06 8.11778e-05 -5.47224e-08
-3.71034e-07 -5.47224e-08 2.07839e-05
0.000946976 4.68111e-05 -3.0744e-07
4.68111e-05 8.15946e-05 -2.82717e-07
-3.0744e-07 -2.82717e-07 1.75905e-05
0.000933476 2.2845e-05 -1.7532e-09
2.2845e-05 7.41978e-05 -2.22763e-07
-1.7532e-09 -2.22763e-07 6.37921e-06
0.000897981 4.24146e-05 1.91025e-07
4.24146e-05 6.0122e-05 1.61355e-07
1.91025e-07 1.61355e-07 -3.87239e-06
0.00101501 6.00247e-05 -1.90803e-09
6.00247e-05 0.0001164 -2.70327e-07
-1.90803e-09 -2.70327e-07 4.94347e-05
0.000838996 2.0352e-05 9.69647e-07
2.0352e-05 3.83334e-05 1.47673e-06
9.69647e-07 1.47673e-06 -3.16913e-05
0.000853541 1.38171e-05 -5.59966e-08
1.38171e-05 3.63539e-05 3.87137e-07
-5.59966e-08 3.87137e-07 -2.13618e-05
0.000865545 5.26337e-07 -4.78102e-08
5.26337e-07 4.43178e-05 -2.35342e-08
-4.78102e-08 -2.35342e-08 -1.47745e-05
0.000853361 6.1291e-06 -8.43695e-07
6.1291e-06 2.46054e-05 6.23398e-07
-8.43695e-07 6.23398e-07 -2.08995e-05
0.000857199 1.06749e-05 3.42527e-07
1.06749e-05 3.16622e-05 -5.33262e-07
3.42527e-07 -5.33262e-07 -2.53244e-05
0.000810412 -1.4397e-05 1.81174e-08
-1.4397e-05 1.79124e-06 2.33911e-08
1.81174e-08 2.33911e-08 -4.50477e-05
0.000830217 1.39717e-05 -3.7432e-07
1.39717e-05 3.66079e-06 1.64102e-06
-3.7432e-07 1.64102e-06 -2.49365e-05
0.000753847 7.10951e-06 3.28545e-07
7.10951e-06 -2.50676e-05 -3.43246e-07
3.28545e-07 -3.43246e-07 -7.51383e-05
0.000824286 6.5927e-06 -1.53988e-07
6.5927e-06 -2.12692e-07 -4.56383e-09
-1.53988e-07 -4.56383e-09 -2.85341e-05
0.00136257 1.11906e-05 -2.78293e-06
1.11906e-05 0.000281499 4.29064e-06
-2.78293e-06 4.29064e-06 0.000283073
0.000818172 -3.27446e-06 4.96104e-07
-3.27446e-06 -3.6197e-06 -1.48089e-06
4.96104e-07 -1.48089e-06 -3.17892e-05
0.00106908 5.83656e-06 -1.24981e-06
5.83656e-06 0.000121707 6.2921e-07
-1.24981e-06 6.2921e-07 0.00012215
0.00098451 3.06682e-06 -2.62503e-06
3.06682e-06 7.67906e-05 3.93998e-06
-2.62503e-06 3.93998e-06 9.34531e-05
0.000777695 6.79781e-07 -4.73888e-08
6.79781e-07 -3.62662e-05 -3.02899e-06
-4.73888e-08 -3.02899e-06 -3.68935e-05
0.0021138 -4.92612e-07 2.11167e-06
-4.92612e-07 0.00068512 3.16194e-11
2.11167e-06 3.16194e-11 0.000707792
0.000991845 -3.7853e-06 -1.87245e-06
-3.7853e-06 8.05222e-05 -3.91792e-06
-1.87245e-06 -3.91792e-06 9.76063e-05
0.000856503 4.16454e-05 3.77615e-07
4.16454e-05 3.3104e-05 -1.8278e-07
3.77615e-07 -1.8278e-07 -1.18442e-05
0.000836254 -7.72557e-07 -9.40471e-08
-7.72557e-07 3.34696e-06 -1.60864e-06
-9.40471e-08 -1.60864e-06 -2.07085e-05
0.000836349 2.9021e-06 -5.42988e-08
2.9021e-06 3.50539e-06 -1.02349e-09
-5.42988e-08 -1.02349e-09 -2.11809e-05
0.00077896 4.71338e-06 1.40177e-08
4.71338e-06 -3.64726e-05 -3.12624e-06
1.40177e-08 -3.12624e-06 -3.49468e-05
0.000833568 6.51964e-06 -2.17519e-07
6.51964e-06 2.72315e-06 1.56479e-06
-2.17519e-07 1.56479e-06 -2.31867e-05
0.000772305 1.01006e-05 5.28602e-08
1.01006e-05 -3.85262e-05 -6.4302e-07
5.28602e-08 -6.4302e-07 -3.79763e-05
0.00205684 1.3509e-05 6.98398e-06
1.3509e-05 0.000656278 -4.00734e-06
6.98398e-06 -4.00734e-06 0.000679248
0.00132029 1.93708e-05 -1.2419e-06
1.93708e-05 0.000260099 1.97197e-06
-1.2419e-06 1.97197e-06 0.000261792
0.00154879 1.78161e-05 3.59761e-07
1.78161e-05 0.000386127 1.25619e-06
3.59761e-07 1.25619e-06 0.000404954
0.00103063 2.01055e-05 -1.46469e-05
2.01055e-05 0.000111386 6.49697e-06
-1.46469e-05 6.49697e-06 0.000125984
-0.000493274 1.9493e-05 7.93178e-06
1.9493e-05 -0.00116802 4.01947e-06
7.93178e-06 4.01947e-06 -0.00123778
0.00196673 5.01919e-06 2.89333e-06
5.01919e-06 0.000171378 -5.27443e-08
2.89333e-06 -5.27443e-08 8.92117e-05
0.00211223 2.16241e-05 1.53317e-06
2.16241e-05 0.000230869 -2.29785e-06
1.53317e-06 -2.29785e-06 0.000164823
0.00111271 -5.70008e-05 2.70622e-05
-5.70008e-05 -0.000297416 -1.28744e-06
2.70622e-05 -1.28744e-06 -0.000550519
0.00173346 -3.66451e-05 -1.68009e-06
-3.66451e-05 3.61984e-05 1.49725e-07
-1.68009e-06 1.49725e-07 -4.72123e-05
0.00182334 1.32629e-05 -3.67404e-06
1.32629e-05 8.82798e-06 -1.94493e-06
-3.67404e-06 -1.94493e-06 -7.14956e-05
0.00204912 2.37313e-05 -1.29168e-05
2.37313e-05 0.000232316 2.00991e-06
-1.29168e-05 2.00991e-06 0.000141198
0.00147322 -7.61756e-05 0.000127946
-7.61756e-05 -5.82717e-05 -3.35316e-06
0.000127946 -3.35316e-06 -0.00040382
0.00661671 8.15881e-05 -1.84096e-05
8.15881e-05 0.00208255 1.89816e-07
-1.84096e-05 1.89816e-07 0.00129779
0.00411598 0.000573182 -9.86676e-06
0.000573182 0.00182209 1.83302e-06
-9.86676e-06 1.83302e-06 0.00203898
0.00214491 0.000501401 -1.93392e-05
0.000501401 0.000424587 7.45899e-06
-1.93392e-05 7.45899e-06 0.0013497
0.000733168 -4.37783e-05 1.10621e-06
-4.37783e-05 -2.13731e-05 -5.70599e-07
1.10621e-06 -5.70599e-07 -7.84872e-05
0.000867381 -1.05669e-05 1.72285e-07
-1.05669e-05 3.70927e-05 -3.6869e-08
1.72285e-07 -3.6869e-08 -6.41444e-06
0.000859964 -4.7521e-05 -8.37093e-07
-4.7521e-05 3.64185e-05 8.11157e-07
-8.37093e-07 8.11157e-07 -9.76097e-06
0.000833307 -1.34495e-05 -3.20675e-07
-1.34495e-05 2.97978e-05 4.17213e-08
-3.20675e-07 4.17213e-08 -2.72284e-05
0.00085909 4.0238e-05 5.60386e-08
4.0238e-05 5.36143e-05 7.69658e-07
5.60386e-08 7.69658e-07 -1.40568e-05
0.000924143 5.56794e-05 2.461e-07
5.56794e-05 8.12184e-05 8.0592e-07
2.461e-07 8.0592e-07 1.77642e-05
0.000903139 -3.09822e-05 7.67956e-07
-3.09822e-05 6.845e-05 -7.59386e-07
7.67956e-07 -7.59386e-07 1.13783e-05
0.000822479 -4.23656e-05 -5.57527e-07
-4.23656e-05 2.74279e-05 4.90756e-07
-5.57527e-07 4.90756e-07 -3.00901e-05
0.00155316 -1.51992e-05 3.49022e-06
-1.51992e-05 -4.89927e-05 -1.20925e-06
3.49022e-06 -1.20925e-06 -0.00012825
0.00150553 -5.83559e-05 -3.18959e-06
-5.83559e-05 -0.000155795 2.79026e-07
-3.18959e-06 2.79026e-07 -0.00024302
0.00162686 -0.000160045 -3.9715e-06
-0.000160045 -1.68747e-06 2.99732e-06
-3.9715e-06 2.99732e-06 -9.17245e-05
0.000871374 -0.000106425 1.45581e-06
-0.000106425 5.03636e-05 1.36611e-06
1.45581e-06 1.36611e-06 -7.78404e-05
0.00172158 -0.000176545 2.14804e-06
-0.000176545 0.000350953 -1.84707e-07
2.14804e-06 -1.84707e-07 0.000186641
0.00096153 -7.58882e-05 -4.7804e-07
-7.58882e-05 0.000131042 -8.51206e-07
-4.7804e-07 -8.51206e-07 1.22287e-05
0.00120618 -6.9798e-05 2.04253e-07
-6.9798e-05 0.000254609 -1.20051e-07
2.04253e-07 -1.20051e-07 0.000146032
0.000844613 -1.92153e-05 -7.38708e-07
-1.92153e-05 5.22691e-05 3.7148e-07
-7.38708e-07 3.7148e-07 -2.95519e-05
0.000846298 5.9916e-06 3.96347e-07
5.9916e-06 4.25902e-05 4.94518e-07
3.96347e-07 4.94518e-07 -2.34428e-05
0.00100932 7.4232e-06 -8.05268e-07
7.4232e-06 0.000125554 -8.7011e-09
-8.05268e-07 -8.7011e-09 5.20418e-05
0.00104628 8.44312e-07 4.39004e-07
8.44312e-07 0.000142742 2.45294e-08
4.39004e-07 2.45294e-08 8.51135e-05
0.000828055 7.42955e-05 1.14025e-06
7.42955e-05 3.23213e-05 1.32474e-06
1.14025e-06 1.32474e-06 -4.03658e-05
0.00160682 -1.02034e-05 -4.51746e-07
-1.02034e-05 -9.66482e-05 -3.01915e-06
-4.51746e-07 -3.01915e-06 -0.000179685
0.000865724 2.46732e-05 -3.32499e-07
2.46732e-05 5.48156e-05 3.57195e-07
-3.32499e-07 3.57195e-07 -1.89991e-05
0.000869303 -2.36226e-05 -3.41194e-07
-2.36226e-05 5.76256e-05 -3.3099e-07
-3.41194e-07 -3.3099e-07 -1.63876e-05
0.00222599 -0.000156163 4.04997e-07
-0.000156163 0.000193426 2.34253e-06
4.04997e-07 2.34253e-06 0.000114936
0.0010567 -0.000155155 1.28818e-06
-0.000155155 -0.000131232 -9.45399e-08
1.28818e-06 -9.45399e-08 -0.000246734
0.00117145 -0.000140117 6.60111e-07
-0.000140117 0.000212089 -1.08421e-06
6.60111e-07 -1.08421e-06 6.19841e-05
0.000975035 -2.54873e-05 1.06688e-07
-2.54873e-05 0.000113019 -3.47303e-07
1.06688e-07 -3.47303e-07 2.89514e-05
0.000999833 -2.51806e-05 5.45515e-07
-2.51806e-05 0.000156975 4.83106e-07
5.45515e-07 4.83106e-07 2.51994e-05
0.00272282 -0.000101781 -8.98052e-06
-0.000101781 0.000548542 9.82256e-06
-8.98052e-06 9.82256e-06 0.000465994
0.00262024 -0.000237823 -4.73875e-06
-0.000237823 0.000478795 -6.65081e-06
-4.73875e-06 -6.65081e-06 0.000397574
-0.000187405 -0.000108891 -4.37534e-06
-0.000108891 -0.000570862 -3.41716e-07
-4.37534e-06 -3.41716e-07 -0.00070063
0.00142663 -9.42721e-05 -4.11764e-06
-9.42721e-05 0.000367026 2.47713e-06
-4.11764e-06 2.47713e-06 0.000209577
0.000740055 -6.55422e-05 8.35961e-07
-6.55422e-05 -1.28971e-05 6.96134e-08
8.35961e-07 6.96134e-08 -8.86748e-05
0.000953612 -4.0968e-05 1.442e-06
-4.0968e-05 9.76945e-05 1.14367e-07
1.442e-06 1.14367e-07 1.74714e-05
0.000903217 -1.67521e-05 -2.36929e-06
-1.67521e-05 7.89152e-05 1.47469e-07
-2.36929e-06 1.47469e-07 -1.82468e-05
-0.00331335 -1.76811e-05 -3.56861e-06
-1.76811e-05 -0.00153334 -1.50667e-07
-3.56861e-06 -1.50667e-07 -0.00132198
0.00718782 -2.86989e-05 -2.38221e-05
-2.86989e-05 0.00244199 -5.89546e-07
-2.38221e-05 -5.89546e-07 0.00187012
0.000880001 3.63146e-05 1.46748e-06
3.63146e-05 7.25456e-05 -4.58418e-07
1.46748e-06 -4.58418e-07 -2.02548e-05
0.000963244 0.000102017 2.3004e-06
0.000102017 0.000129089 3.04274e-07
2.3004e-06 3.04274e-07 1.41576e-05
0.00171331 9.80579e-05 -1.262e-06
9.80579e-05 -6.38675e-05 3.10857e-06
-1.262e-06 3.10857e-06 -4.9661e-05
0.00200324 0.0002315 9.72397e-07
0.0002315 0.000229726 1.02442e-06
9.72397e-07 1.02442e-06 0.000122435
0.00104795 0.00012649 3.70293e-06
0.00012649 0.000154655 1.48604e-06
3.70293e-06 1.48604e-06 -3.02148e-05
0.00548614 5.22189e-05 3.93987e-05
5.22189e-05 0.00154234 -9.01944e-06
3.93987e-05 -9.01944e-06 0.000755909
0.00399037 -3.94138e-05 -7.09705e-05
-3.94138e-05 0.000477757 -2.13917e-05
-7.09705e-05 -2.13917e-05 2.4533e-05
0.000413607 0.000117551 -1.89312e-06
0.000117551 -0.000519232 -2.15124e-05
-1.89312e-06 -2.15124e-05 -0.000539682
0.00339876 -0.000446223 2.97196e-05
-0.000446223 0.00168886 1.5971e-05
2.97196e-05 1.5971e-05 0.00167159
-0.00209765 -0.000549932 1.05309e-05
-0.000549932 -0.0023259 -1.71974e-05
1.05309e-05 -1.71974e-05 -0.00100392
0.0010083 8.08503e-05 1.2245e-07
8.08503e-05 0.000146353 -3.28364e-07
1.2245e-07 -3.28364e-07 5.19908e-05
-0.00266158 -0.000114946 4.75832e-06
-0.000114946 -0.00127371 -1.08406e-06
4.75832e-06 -1.08406e-06 -0.00111957
3.6248e-05 -0.000274388 -1.19179e-05
-0.000274388 -0.000178624 -3.36417e-06
-1.19179e-05 -3.36417e-06 -3.38681e-05
0.00221311 0.00016066 -1.89321e-06
0.00016066 0.000244953 -2.3779e-06
-1.89321e-06 -2.3779e-06 0.000280014
0.00091817 7.05e-05 -4.49649e-08
7.05e-05 0.000138487 -8.23285e-07
-4.49649e-08 -8.23285e-07 8.00075e-06
0.000630492 0.000122367 2.88401e-07
0.000122367 -9.13065e-05 3.7569e-07
2.88401e-07 3.7569e-07 -0.000289624
-0.000148235 0.000112576 1.52206e-05
0.000112576 -0.000696864 8.97983e-06
1.52206e-05 8.97983e-06 -0.000630788
0.00498947 -0.000194724 -1.41336e-06
-0.000194724 0.00128195 -9.78789e-07
-1.41336e-06 -9.78789e-07 0.000185355
0.0046244 0.00017148 -2.4704e-05
0.00017148 0.000938559 -1.69691e-05
-2.4704e-05 -1.69691e-05 0.000366021
0.00383501 -0.000629365 1.39268e-05
-0.000629365 0.0013743 -4.0368e-06
1.39268e-05 -4.0368e-06 0.00150652
0.000881537 -0.000305533 1.0989e-05
-0.000305533 -0.00157936 2.96457e-05
1.0989e-05 2.96457e-05 -0.000612548
0.00114124 4.99004e-05 -2.88957e-06
4.99004e-05 0.000219293 -2.83728e-06
-2.88957e-06 -2.83728e-06 0.000135699
-0.00107759 -9.09177e-05 -6.00801e-05
-9.09177e-05 -0.000407575 -9.91272e-06
-6.00801e-05 -9.91272e-06 -0.000652354
0.00190353 -2.72332e-05 -4.02382e-05
-2.72332e-05 0.000123263 -3.78483e-05
-4.02382e-05 -3.78483e-05 -8.99262e-06
0.000996908 0.000121754 -1.27045e-05
0.000121754 -5.34551e-05 -7.64201e-06
-1.27045e-05 -7.64201e-06 -6.4998e-05
0.00158271 0.000127832 -1.22248e-05
0.000127832 0.000533214 -4.06032e-06
-1.22248e-05 -4.06032e-06 0.000378427
0.000998229 6.52323e-05 -1.91464e-05
6.52323e-05 0.000215706 -4.1071e-06
-1.91464e-05 -4.1071e-06 0.000157713
0.00335863 0.000407446 -9.66117e-05
0.000407446 0.000629512 1.34996e-05
-9.66117e-05 1.34996e-05 0.000138894
-0.000241742 -0.000247424 2.50893e-05
-0.000247424 -0.000814304 2.69893e-05
2.50893e-05 2.69893e-05 -0.00222061
0.00655593 -0.000626012 -5.32897e-05
-0.000626012 0.0017568 1.9715e-06
-5.32897e-05 1.9715e-06 0.00198307
0.000555762 -0.00014104 -1.06852e-05
-0.00014104 -0.00184046 -1.47713e-05
-1.06852e-05 -1.47713e-05 -0.00115857
0.000912725 2.91957e-05 2.70296e-07
2.91957e-05 7.40659e-05 1.25479e-06
2.70296e-07 1.25479e-06 -6.12482e-06
0.00107706 5.56607e-05 1.06873e-06
5.56607e-05 0.000162174 7.42034e-07
1.06873e-06 7.42034e-07 8.73071e-05
0.000667287 5.63344e-05 6.63421e-07
5.63344e-05 -3.92093e-05 -3.9347e-06
6.63421e-07 -3.9347e-06 -0.000107607
0.000753257 2.6372e-05 1.51659e-07
2.6372e-05 -2.75017e-05 -2.86995e-07
1.51659e-07 -2.86995e-07 -7.64802e-05
0.000962385 3.13615e-05 -6.19889e-07
3.13615e-05 9.10495e-05 -3.79515e-07
-6.19889e-07 -3.79515e-07 2.86681e-05
0.00101629 -3.49411e-05 -2.17882e-07
-3.49411e-05 0.000116485 2.02827e-07
-2.17882e-07 2.02827e-07 5.33208e-05
0.000867692 -1.25268e-05 -6.93278e-07
-1.25268e-05 4.4681e-05 -3.70377e-07
-6.93278e-07 -3.70377e-07 -1.94612e-05
0.000930989 2.86865e-06 -7.82124e-07
2.86865e-06 7.6441e-05 8.82368e-07
-7.82124e-07 8.82368e-07 8.10222e-06
0.000932582 1.71201e-05 4.06283e-07
1.71201e-05 7.37354e-05 -3.89067e-07
4.06283e-07 -3.89067e-07 1.20066e-05
0.00092134 -1.46185e-05 -4.81016e-08
-1.46185e-05 6.50356e-05 9.83654e-09
-4.81016e-08 9.83654e-09 -5.15141e-07
0.000938165 -3.87924e-05 1.68845e-07
-3.87924e-05 7.19682e-05 8.6857e-08
1.68845e-07 8.6857e-08 7.2573e-06
0.000937913 1.15598e-05 1.27036e-07
1.15598e-05 7.85221e-05 2.33614e-09
1.27036e-07 2.33614e-09 1.16146e-05
0.00115625 -2.61166e-05 1.45932e-06
-2.61166e-05 0.000191218 -1.19148e-06
1.45932e-06 -1.19148e-06 0.000127676
0.00093832 -2.44936e-05 2.10002e-07
-2.44936e-05 6.63968e-05 -5.01611e-07
2.10002e-07 -5.01611e-07 1.10691e-06
0.000939788 3.35579e-06 2.44079e-07
3.35579e-06 7.66094e-05 1.61041e-08
2.44079e-07 1.61041e-08 8.132e-06
0.00095186 -2.89163e-05 2.53811e-08
-2.89163e-05 8.6179e-05 -4.84551e-07
2.53811e-08 -4.84551e-07 2.39516e-05
0.000877481 2.11748e-05 -2.50153e-07
2.11748e-05 4.05471e-05 -4.08835e-07
-2.50153e-07 -4.08835e-07 -2.12424e-05
0.000923746 -2.57713e-06 2.41715e-07
-2.57713e-06 6.8986e-05 -2.21859e-07
2.41715e-07 -2.21859e-07 1.54217e-06
0.000882714 4.12142e-05 -1.20178e-07
4.12142e-05 5.16875e-05 -4.56806e-10
-1.20178e-07 -4.56806e-10 -1.20359e-05
0.000957446 3.85011e-05 -4.93622e-07
3.85011e-05 8.28039e-05 -3.15734e-07
-4.93622e-07 -3.15734e-07 1.77545e-05
0.000845799 3.6208e-05 8.12844e-07
3.6208e-05 3.63153e-05 7.72062e-07
8.12844e-07 7.72062e-07 -2.89464e-05
0.000947513 3.8127e-05 4.41755e-07
3.8127e-05 8.00242e-05 -1.44003e-07
4.41755e-07 -1.44003e-07 1.09692e-05
0.000908658 3.35165e-05 2.26871e-07
3.35165e-05 6.07636e-05 1.22611e-07
2.26871e-07 1.22611e-07 -5.55825e-06
0.000865178 8.69294e-06 1.3217e-06
8.69294e-06 5.05446e-05 5.85918e-07
1.3217e-06 5.85918e-07 -3.0334e-05
0.000777084 -5.01684e-05 9.06226e-09
-5.01684e-05 3.27736e-05 6.01316e-07
9.06226e-09 6.01316e-07 -6.86607e-05
0.000693343 7.75756e-06 -9.39296e-08
7.75756e-06 -3.31024e-05 5.54635e-07
-9.39296e-08 5.54635e-07 -0.000110631
0.000868635 2.03308e-05 2.16898e-07
2.03308e-05 5.49996e-05 4.20713e-07
2.16898e-07 4.20713e-07 -1.54523e-05
0.000864329 2.25065e-05 3.30516e-07
2.25065e-05 4.36886e-05 9.94021e-07
3.30516e-07 9.94021e-07 -1.64065e-05
0.000872807 1.16906e-05 -1.88391e-07
1.16906e-05 4.75608e-05 -6.10876e-08
-1.88391e-07 -6.10876e-08 -1.09893e-05
0.000852169 2.18948e-05 -4.25224e-07
2.18948e-05 2.67232e-05 6.88556e-07
-4.25224e-07 6.88556e-07 -1.9723e-05
0.000886427 1.14721e-05 2.59291e-07
1.14721e-05 5.33761e-05 -2.08453e-07
2.59291e-07 -2.08453e-07 -4.42417e-06
0.000863835 2.93541e-06 -8.76558e-08
2.93541e-06 3.06968e-05 7.30434e-09
-8.76558e-08 7.30434e-09 -1.52854e-05
0.000825573 1.77032e-05 -7.16796e-07
1.77032e-05 3.12486e-06 1.64796e-06
-7.16796e-07 1.64796e-06 -2.59877e-05
0.000760022 -5.5203e-07 4.51956e-07
-5.5203e-07 -2.66669e-05 -6.32407e-07
4.51956e-07 -6.32407e-07 -7.28889e-05
0.000828232 9.71609e-06 -7.25674e-08
9.71609e-06 2.39479e-06 -3.49747e-09
-7.25674e-08 -3.49747e-09 -2.61118e-05
0.00135787 1.69108e-05 -4.49919e-06
1.69108e-05 0.000281406 4.29973e-06
-4.49919e-06 4.29973e-06 0.000282575
0.000822641 1.07604e-06 6.07534e-07
1.07604e-06 -1.32875e-06 -1.53687e-06
6.07534e-07 -1.53687e-06 -2.95631e-05
0.00106621 1.11503e-05 -1.97648e-06
1.11503e-05 0.000121766 6.13296e-07
-1.97648e-06 6.13296e-07 0.000121945
0.000937056 9.81822e-06 -6.12812e-07
9.81822e-06 5.26834e-05 1.54856e-06
-6.12812e-07 1.54856e-06 6.92373e-05
0.000772677 5.36716e-06 2.50256e-07
5.36716e-06 -3.83458e-05 -3.04646e-06
2.50256e-07 -3.04646e-06 -3.92867e-05
0.00212316 6.45001e-06 1.93804e-06
6.45001e-06 0.000690674 1.53109e-08
1.93804e-06 1.53109e-08 0.000713145
0.00211807 -1.76378e-08 9.6171e-07
-1.76378e-08 0.000687426 -4.05216e-06
9.6171e-07 -4.05216e-06 0.000710044
0.00109987 2.75591e-05 -9.64786e-07
2.75591e-05 0.000161008 -3.85803e-07
-9.64786e-07 -3.85803e-07 0.00011788
0.000835662 -4.63852e-06 -2.47128e-07
-4.63852e-06 3.66406e-06 -1.57465e-06
-2.47128e-07 -1.57465e-06 -2.05553e-05
0.00086007 2.50553e-06 6.785e-07
2.50553e-06 3.47603e-05 4.55458e-07
6.785e-07 4.55458e-07 -9.82821e-06
0.000784499 -6.2579e-07 -1.07935e-07
-6.2579e-07 -3.39576e-05 -3.09323e-06
-1.07935e-07 -3.09323e-06 -3.19663e-05
0.000838637 -1.26122e-06 3.39663e-08
-1.26122e-06 4.59292e-06 2.75005e-09
3.39663e-08 2.75005e-09 -1.94704e-05
0.00083516 2.24745e-06 -1.60296e-07
2.24745e-06 2.73572e-06 1.57328e-06
-1.60296e-07 1.57328e-06 -2.19179e-05
0.000781871 4.92629e-06 -1.39251e-07
4.92629e-06 -3.49099e-05 9.94226e-09
-1.39251e-07 9.94226e-09 -3.34206e-05
0.00202903 6.4497e-06 3.09893e-06
6.4497e-06 0.000639784 -4.01852e-06
3.09893e-06 -4.01852e-06 0.000663362
0.00131127 1.30601e-05 -7.37716e-07
1.30601e-05 0.000252034 1.91899e-06
-7.37716e-07 1.91899e-06 0.00025529
0.00150832 1.20748e-05 2.01947e-06
1.20748e-05 0.000360881 3.441e-08
2.01947e-06 3.441e-08 0.00038091
0.00101847 1.47782e-05 -1.22793e-05
1.47782e-05 9.99734e-05 6.4707e-06
-1.22793e-05 6.4707e-06 0.00011611
-0.00478201 0.000121743 -4.97915e-06
0.000121743 -0.00230582 3.95527e-06
-4.97915e-06 3.95527e-06 -0.00225652
-0.0012532 0.000240429 -8.97977e-06
0.000240429 -0.000753981 1.48457e-05
-8.97977e-06 1.48457e-05 -0.000612729
0.000885906 -2.23497e-05 -9.97261e-05
-2.23497e-05 -0.000456073 -1.13572e-05
-9.97261e-05 -1.13572e-05 -0.000692912
0.00249176 -3.8635e-05 5.50631e-06
-3.8635e-05 0.000489514 -2.53594e-07
5.50631e-06 -2.53594e-07 0.000393242
0.00143377 9.2403e-06 -8.36367e-06
9.2403e-06 -0.000227744 -9.65824e-07
-8.36367e-06 -9.65824e-07 -0.000305487
0.00127289 -1.40381e-05 2.30894e-05
-1.40381e-05 9.31139e-06 -2.39557e-06
2.30894e-05 -2.39557e-06 -0.000252114
0.00214069 2.95208e-05 2.75945e-09
2.95208e-05 0.000285156 1.6249e-06
2.75945e-09 1.6249e-06 0.000196862
0.00519305 0.000257833 -2.0766e-05
0.000257833 0.0013101 -8.59866e-06
-2.0766e-05 -8.59866e-06 0.000651228
-0.00333486 0.000269511 -1.3595e-05
0.000269511 -0.00136889 -1.10888e-06
-1.3595e-05 -1.10888e-06 -0.00137772
3.98935e-05 0.000530793 2.2263e-06
0.000530793 -0.00100101 -6.31615e-06
2.2263e-06 -6.31615e-06 0.000141044
0.00159459 -1.56711e-05 5.12468e-05
-1.56711e-05 0.00012104 -9.02337e-06
5.12468e-05 -9.02337e-06 -0.000111497
0.00680741 0.000425062 1.24088e-05
0.000425062 0.00215751 -5.62456e-06
1.24088e-05 -5.62456e-06 0.00126363
-3.86586e-05 0.000470476 -3.72149e-05
0.000470476 -0.000328758 7.43035e-06
-3.72149e-05 7.43035e-06 5.80409e-05
0.00318451 0.000296295 -4.79264e-05
0.000296295 7.60142e-06 2.58774e-05
-4.79264e-05 2.58774e-05 0.000722541
0.000858208 3.62241e-05 -7.06762e-07
3.62241e-05 5.13654e-05 5.28507e-08
-7.06762e-07 5.28507e-08 -1.9115e-05
0.000785141 -1.07379e-05 6.81832e-08
-1.07379e-05 5.33856e-06 -3.3163e-07
6.81832e-08 -3.3163e-07 -5.105e-05
0.000857584 -4.51141e-05 -8.08862e-07
-4.51141e-05 3.40013e-05 7.88006e-07
-8.08862e-07 7.88006e-07 -1.09291e-05
0.000778677 5.96637e-06 2.2022e-07
5.96637e-06 2.28994e-06 2.66508e-07
2.2022e-07 2.66508e-07 -5.59198e-05
0.000875504 4.63733e-05 7.51522e-07
4.63733e-05 6.33142e-05 7.44396e-07
7.51522e-07 7.44396e-07 -3.89099e-06
0.000913105 2.92543e-05 -7.03002e-07
2.92543e-05 8.01493e-05 3.83627e-07
-7.03002e-07 3.83627e-07 1.08155e-05
0.000889621 3.6761e-05 1.15878e-06
3.6761e-05 6.82045e-05 9.70707e-07
1.15878e-06 9.70707e-07 8.54849e-07
0.000848652 -2.34448e-05 6.03736e-07
-2.34448e-05 3.82154e-05 2.02213e-07
6.03736e-07 2.02213e-07 -2.32671e-05
0.000844803 -2.83405e-05 4.23669e-07
-2.83405e-05 3.96336e-05 -5.51609e-07
4.23669e-07 -5.51609e-07 -1.98545e-05
0.000768814 -4.00066e-05 -1.68722e-07
-4.00066e-05 2.36294e-07 5.08797e-07
-1.68722e-07 5.08797e-07 -5.88194e-05
0.00143082 -6.77671e-06 5.97491e-07
-6.77671e-06 -0.000188986 -1.49153e-06
5.97491e-07 -1.49153e-06 -0.000271073
0.00217707 -0.000153502 -1.48635e-06
-0.000153502 0.000180655 4.81774e-06
-1.48635e-06 4.81774e-06 0.000104176
0.000207734 -0.00012047 4.16724e-06
-0.00012047 -0.000552661 9.7165e-07
4.16724e-06 9.7165e-07 -0.000659299
0.00117385 -0.000142352 2.06823e-06
-0.000142352 0.000206995 7.58887e-08
2.06823e-06 7.58887e-08 5.2016e-05
0.00116429 -4.41141e-05 3.15546e-06
-4.41141e-05 0.000243819 -5.05092e-07
3.15546e-06 -5.05092e-07 0.000112392
0.00104175 -3.99539e-05 -1.36483e-07
-3.99539e-05 0.000147408 -4.86426e-07
-1.36483e-07 -4.86426e-07 6.17312e-05
0.000865271 -1.86571e-05 -9.89069e-07
-1.86571e-05 5.15627e-05 -1.79137e-07
-9.89069e-07 -1.79137e-07 -2.08683e-05
0.00088545 2.54688e-05 -5.81878e-07
2.54688e-05 6.61205e-05 8.31581e-08
-5.81878e-07 8.31581e-08 -6.25968e-06
0.0016859 -7.51305e-05 -6.22986e-06
-7.51305e-05 2.02598e-05 1.79075e-06
-6.22986e-06 1.79075e-06 -5.73184e-05
0.000799181 -3.0215e-05 -1.71578e-07
-3.0215e-05 1.7707e-05 1.04398e-07
-1.71578e-07 1.04398e-07 -5.87612e-05
0.000903518 -4.47515e-05 5.51842e-07
-4.47515e-05 7.04235e-05 -3.1991e-07
5.51842e-07 -3.1991e-07 -1.07201e-05
0.00211106 -0.00021658 8.9742e-07
-0.00021658 0.000234594 -1.10031e-06
8.9742e-07 -1.10031e-06 0.000153679
0.000345286 -0.000128107 1.01145e-06
-0.000128107 -0.000284268 9.84936e-07
1.01145e-06 9.84936e-07 -0.000414887
0.00120102 -8.66008e-05 2.59075e-06
-8.66008e-05 0.00024225 -5.29795e-07
2.59075e-06 -5.29795e-07 9.00518e-05
0.000995432 -3.0174e-05 -9.19434e-07
-3.0174e-05 0.000130884 -4.52856e-07
-9.19434e-07 -4.52856e-07 2.89354e-05
0.00259092 -0.000201734 1.3829e-06
-0.000201734 0.000672296 -4.98686e-06
1.3829e-06 -4.98686e-06 0.000547176
0.00210779 -0.000216375 -9.53743e-06
-0.000216375 0.000511127 1.25617e-06
-9.53743e-06 1.25617e-06 0.000404786
0.000878921 -5.85714e-06 -6.0667e-06
-5.85714e-06 9.78823e-05 4.66214e-06
-6.0667e-06 4.66214e-06 -3.56203e-05
0.00088173 2.43876e-05 4.90361e-07
2.43876e-05 6.15439e-05 1.11959e-06
4.90361e-07 1.11959e-06 -1.53277e-05
0.000832566 -8.01103e-05 1.27542e-06
-8.01103e-05 3.18979e-05 3.27547e-07
1.27542e-06 3.27547e-07 -5.183e-05
0.000991793 -3.8257e-05 1.31538e-07
-3.8257e-05 0.000104154 1.37359e-06
1.31538e-07 1.37359e-06 1.94478e-05
0.00108499 4.26983e-06 -5.84968e-05
4.26983e-06 0.000874237 1.11608e-06
-5.84968e-05 1.11608e-06 0.000764662
0.00131482 -1.61431e-05 1.41759e-05
-1.61431e-05 0.000751022 3.20754e-06
1.41759e-05 3.20754e-06 0.000721382
5.81042e-05 0.000181646 -4.32953e-05
0.000181646 -0.00117063 1.90604e-05
-4.32953e-05 1.90604e-05 -0.00171554
0.000940464 7.91968e-05 1.25639e-06
7.91968e-05 0.00011379 1.07505e-06
1.25639e-06 1.07505e-06 1.9185e-05
0.000685067 7.75328e-05 3.90049e-06
7.75328e-05 2.7306e-05 1.08793e-06
3.90049e-06 1.08793e-06 -0.000104629
0.00342162 0.000197671 4.12419e-06
0.000197671 0.00085288 -1.97435e-06
4.12419e-06 -1.97435e-06 0.000871463
7.57699e-05 9.0144e-05 6.96746e-06
9.0144e-05 -0.000372498 3.2736e-06
6.96746e-06 3.2736e-06 -0.00057123
0.00301137 -0.000284892 5.02642e-05
-0.000284892 0.00131616 9.62622e-06
5.02642e-05 9.62622e-06 0.00149213
0.000988274 -0.000273838 4.07063e-06
-0.000273838 -0.000609137 1.31991e-05
4.07063e-06 1.31991e-05 -0.00146997
0.00424629 0.000205218 -7.8814e-05
0.000205218 0.000544279 -5.60943e-05
-7.8814e-05 -5.60943e-05 -0.000186222
-0.00131829 7.04738e-05 1.07334e-05
7.04738e-05 -0.00122293 -3.71194e-06
1.07334e-05 -3.71194e-06 -0.00117947
-0.00234069 -0.000365784 5.16333e-05
-0.000365784 -0.00132138 2.12512e-05
5.16333e-05 2.12512e-05 -0.0012433
0.0013718 -0.000275962 3.95813e-05
-0.000275962 0.000490847 1.90073e-05
3.95813e-05 1.90073e-05 0.000621689
0.00354676 -0.000367303 4.86705e-05
-0.000367303 1.07913e-06 2.95181e-05
4.86705e-05 2.95181e-05 0.00106665
0.000969666 5.94459e-05 4.24814e-07
5.94459e-05 0.000134359 -4.13846e-07
4.24814e-07 -4.13846e-07 4.93708e-05
4.55129e-05 -0.000114301 -1.92845e-05
-0.000114301 0.000136624 -4.11383e-06
-1.92845e-05 -4.11383e-06 3.89932e-05
0.00209204 -2.54771e-05 -3.61391e-06
-2.54771e-05 0.000210312 -9.91427e-06
-3.61391e-06 -9.91427e-06 8.08788e-05
0.00137472 0.000105875 -4.56683e-06
0.000105875 0.000177985 -7.95279e-07
-4.56683e-06 -7.95279e-07 0.00011417
0.000789617 6.96288e-05 -1.91254e-06
6.96288e-05 0.000140099 -5.17477e-07
-1.91254e-06 -5.17477e-07 -2.13076e-05
-0.000558413 7.00438e-05 9.98983e-06
7.00438e-05 -0.000566881 -1.51977e-05
9.98983e-06 -1.51977e-05 -0.000599377
0.00552427 0.000532199 -3.11564e-05
0.000532199 0.00152984 -1.19634e-05
-3.11564e-05 -1.19634e-05 0.000828537
0.00799647 -0.00039448 6.10259e-06
-0.00039448 0.00267702 4.69719e-06
6.10259e-06 4.69719e-06 0.00151264
0.000437435 -0.000348436 5.49824e-06
-0.000348436 -0.00112026 5.40124e-06
5.49824e-06 5.40124e-06 -0.00085832
0.0036792 -0.000192287 3.27378e-06
-0.000192287 0.0001756 1.41233e-06
3.27378e-06 1.41233e-06 0.000882786
0.0013974 0.000108407 -6.72183e-06
0.000108407 0.000386343 -7.2071e-06
-6.72183e-06 -7.2071e-06 0.000318141
0.0017546 -7.44965e-06 -2.94227e-05
-7.44965e-06 0.000171208 -8.92841e-06
-2.94227e-05 -8.92841e-06 2.80322e-05
0.00141117 -7.41199e-06 -9.70777e-06
-7.41199e-06 -5.8022e-05 -1.92691e-05
-9.70777e-06 -1.92691e-05 -0.000125584
-0.000530193 -2.66186e-05 -1.5338e-05
-2.66186e-05 -0.000419266 -1.34733e-05
-1.5338e-05 -1.34733e-05 -0.00052963
0.00315798 0.000290699 -1.07049e-05
0.000290699 0.00109075 4.74501e-05
-1.07049e-05 4.74501e-05 0.00068607
0.0084949 -0.000259936 2.10868e-05
-0.000259936 0.00260643 -4.65071e-06
2.10868e-05 -4.65071e-06 0.00119578
-0.00283471 -0.000193883 -4.76618e-05
-0.000193883 -0.00269242 -2.77929e-05
-4.76618e-05 -2.77929e-05 -0.0028893
0.00424124 3.0582e-05 -1.25895e-06
3.0582e-05 0.000500451 -2.73617e-05
-1.25895e-06 -2.73617e-05 0.00119703
0.000938087 5.4357e-05 1.75904e-07
5.4357e-05 8.93633e-05 1.93427e-06
1.75904e-07 1.93427e-06 1.36503e-05
0.000911478 6.87112e-05 -5.63988e-07
6.87112e-05 8.57313e-05 -9.35813e-07
-5.63988e-07 -9.35813e-07 1.82363e-05
0.000541768 4.22808e-05 1.22378e-06
4.22808e-05 -9.40032e-05 -2.74585e-06
1.22378e-06 -2.74585e-06 -0.000149402
0.000933679 5.30861e-05 -1.0348e-06
5.30861e-05 7.12331e-05 -7.31904e-07
-1.0348e-06 -7.31904e-07 1.14155e-05
0.000926063 -2.66016e-05 1.65097e-08
-2.66016e-05 6.78953e-05 2.2377e-07
1.65097e-08 2.2377e-07 1.37326e-06
0.000995625 -1.51244e-05 -8.89954e-07
-1.51244e-05 0.000106188 4.5135e-07
-8.89954e-07 4.5135e-07 4.05625e-05
0.00087085 -4.08721e-06 -7.39099e-07
-4.08721e-06 4.46385e-05 1.07394e-06
-7.39099e-07 1.07394e-06 -2.09571e-05
0.00094264 8.61879e-06 3.55397e-07
8.61879e-06 7.38102e-05 -5.27472e-09
3.55397e-07 -5.27472e-09 8.28764e-06
0.00092923 -1.38209e-05 -1.97638e-07
-1.38209e-05 6.27317e-05 7.32973e-08
-1.97638e-07 7.32973e-08 -2.77487e-06
0.000989119 -2.0835e-05 3.2799e-07
-2.0835e-05 0.000104041 5.26987e-07
3.2799e-07 5.26987e-07 4.01289e-05
0.00102635 -3.72591e-05 4.3874e-07
-3.72591e-05 0.000136154 2.01649e-07
4.3874e-07 2.01649e-07 8.2216e-05
0.000991471 -4.03983e-05 1.88712e-06
-4.03983e-05 8.64557e-05 -7.47256e-07
1.88712e-06 -7.47256e-07 2.68463e-05
0.000869948 3.68772e-05 1.10708e-06
3.68772e-05 3.66575e-05 6.96574e-08
1.10708e-06 6.96574e-08 -3.19789e-05
0.00092409 -1.99692e-05 7.69068e-07
-1.99692e-05 6.73793e-05 -2.19341e-07
7.69068e-07 -2.19341e-07 1.34841e-06
0.00086489 4.19122e-05 -3.29804e-07
4.19122e-05 4.22458e-05 -3.02311e-07
-3.29804e-07 -3.02311e-07 -2.14555e-05
0.000915853 3.09386e-05 -6.98982e-07
3.09386e-05 5.9214e-05 -2.07101e-07
-6.98982e-07 -2.07101e-07 -5.06297e-06
0.000940438 3.66711e-05 -2.08574e-07
3.66711e-05 7.45736e-05 -1.06389e-07
-2.08574e-07 -1.06389e-07 6.91326e-06
0.000862919 3.91774e-05 3.1223e-07
3.91774e-05 4.70672e-05 3.45402e-07
3.1223e-07 3.45402e-07 -1.90268e-05
0.000906009 4.23373e-05 1.58082e-08
4.23373e-05 5.95963e-05 -1.24449e-07
1.58082e-08 -1.24449e-07 -7.05339e-06
0.000888474 2.42042e-05 1.63787e-06
2.42042e-05 5.69884e-05 8.75567e-07
1.63787e-06 8.75567e-07 -1.34362e-05
0.000920083 3.0205e-05 4.04061e-07
3.0205e-05 6.0421e-05 2.29593e-07
4.04061e-07 2.29593e-07 -4.5742e-06
0.000889782 -4.72382e-05 4.39095e-07
-4.72382e-05 7.6426e-05 3.82249e-07
4.39095e-07 3.82249e-07 -9.98128e-06
0.000949398 -8.01801e-07 -1.83815e-07
-8.01801e-07 9.53178e-05 -4.55425e-08
-1.83815e-07 -4.55425e-08 1.42846e-05
0.00077416 -3.95047e-05 2.41162e-07
-3.95047e-05 2.83704e-05 2.48889e-06
2.41162e-07 2.48889e-06 -6.84109e-05
0.00100738 -0.000100196 -1.64958e-06
-0.000100196 0.000138073 3.62634e-06
-1.64958e-06 3.62634e-06 2.12109e-05
0.00107399 -2.94027e-05 6.45691e-07
-2.94027e-05 0.0001714 -2.47124e-07
6.45691e-07 -2.47124e-07 8.49069e-05
0.000781961 -5.35775e-05 3.65726e-07
-5.35775e-05 3.68289e-05 -2.02938e-06
3.65726e-07 -2.02938e-06 -6.22026e-05
0.000879857 7.66952e-06 -3.24753e-07
7.66952e-06 6.52448e-05 -5.78209e-07
-3.24753e-07 -5.78209e-07 -1.09841e-05
0.000733976 1.45633e-05 5.14149e-07
1.45633e-05 -2.29425e-05 1.09815e-06
5.14149e-07 1.09815e-06 -8.9047e-05
0.000898641 2.00728e-05 -4.25058e-07
2.00728e-05 7.18719e-05 -6.00726e-07
-4.25058e-07 -6.00726e-07 1.00944e-06
0.000881581 8.57759e-06 -4.99754e-08
8.57759e-06 5.30624e-05 3.36904e-07
-4.99754e-08 3.36904e-07 -7.3009e-06
0.000845867 2.44103e-05 -5.00214e-07
2.44103e-05 2.53049e-05 8.51591e-07
-5.00214e-07 8.51591e-07 -2.25482e-05
0.00088779 -6.76992e-06 1.60571e-07
-6.76992e-06 5.73694e-05 -4.76026e-07
1.60571e-07 -4.76026e-07 -2.55099e-06
0.000855553 3.5218e-06 -3.141e-07
3.5218e-06 2.87888e-05 1.68683e-08
-3.141e-07 1.68683e-08 -1.79856e-05
0.000820516 2.13059e-05 -9.24325e-07
2.13059e-05 4.02622e-06 1.67155e-06
-9.24325e-07 1.67155e-06 -2.60443e-05
0.000875092 -8.87937e-06 9.61329e-07
-8.87937e-06 3.71279e-05 -6.83931e-07
9.61329e-07 -6.83931e-07 -9.27352e-06
0.000828194 1.33351e-05 -1.46852e-07
1.33351e-05 4.13104e-06 -3.33061e-10
-1.46852e-07 -3.33061e-10 -2.48465e-05
0.00135164 2.26349e-05 -6.2107e-06
2.26349e-05 0.000281726 4.29448e-06
-6.2107e-06 4.29448e-06 0.000282202
0.000825312 4.67305e-06 9.29004e-07
4.67305e-06 5.85886e-07 -1.59398e-06
9.29004e-07 -1.59398e-06 -2.78017e-05
0.00106196 1.64993e-05 -2.64019e-06
1.64993e-05 0.000122182 5.89383e-07
-2.64019e-06 5.89383e-07 0.000121901
0.000932205 1.51486e-05 -1.13923e-06
1.51486e-05 5.3547e-05 1.56838e-06
-1.13923e-06 1.56838e-06 6.94612e-05
0.000769831 1.0257e-05 4.58404e-07
1.0257e-05 -3.8327e-05 -3.08793e-06
4.58404e-07 -3.08793e-06 -3.95282e-05
0.00152911 1.2384e-05 4.07418e-06
1.2384e-05 0.000371864 -1.20436e-06
4.07418e-06 -1.20436e-06 0.000391241
0.00212209 7.25011e-06 4.65546e-06
7.25011e-06 0.000690381 -4.01416e-06
4.65546e-06 -4.01416e-06 0.000712816
0.000916557 -2.71666e-05 7.13464e-07
-2.71666e-05 6.31372e-05 -3.47193e-07
7.13464e-07 -3.47193e-07 1.75546e-05
0.000834008 -8.72408e-06 -2.77753e-07
-8.72408e-06 4.66507e-06 -1.50665e-06
-2.77753e-07 -1.50665e-06 -2.05465e-05
0.000904125 -8.13679e-06 4.32991e-07
-8.13679e-06 5.70659e-05 1.53781e-07
4.32991e-07 1.53781e-07 1.29892e-05
0.000788073 -5.83327e-06 -3.48218e-07
-5.83327e-06 -3.11242e-05 -3.06656e-06
-3.48218e-07 -3.06656e-06 -2.94035e-05
0.000838904 -5.21379e-06 -3.0755e-08
-5.21379e-06 5.41846e-06 1.89054e-10
-3.0755e-08 1.89054e-10 -1.8819e-05
0.000868657 -3.07438e-05 -9.4758e-07
-3.07438e-05 3.70905e-05 1.088e-06
-9.4758e-07 1.088e-06 -5.79341e-06
0.00201484 -5.98369e-07 -6.6818e-07
-5.98369e-07 0.000631895 -4.01881e-06
-6.6818e-07 -4.01881e-06 0.000655677
0.000783722 -3.72856e-07 -7.33345e-08
-3.72856e-07 -3.4397e-05 3.89578e-09
-7.33345e-08 3.89578e-09 -3.24092e-05
0.000839682 -1.78632e-06 7.39454e-08
-1.78632e-06 5.10182e-06 1.58592e-06
7.39454e-08 1.58592e-06 -1.89589e-05
0.000785263 5.1408e-06 -1.92528e-07
5.1408e-06 -3.3079e-05 3.11874e-06
-1.92528e-07 3.11874e-06 -3.16316e-05
0.00203259 6.86487e-06 -2.06161e-06
6.86487e-06 0.000641882 -1.58414e-08
-2.06161e-06 -1.58414e-08 0.000665385
0.00206172 1.35689e-05 -9.14786e-06
1.35689e-05 0.000659063 3.98759e-06
-9.14786e-06 3.98759e-06 0.000681997
-0.00108105 9.75282e-05 -3.13569e-05
9.75282e-05 -0.000340967 2.28573e-06
-3.13569e-05 2.28573e-06 -0.000539612
-0.00112833 0.000245734 5.52999e-06
0.000245734 -0.000361629 1.80262e-06
5.52999e-06 1.80262e-06 -0.000384207
0.00172492 5.05075e-05 -5.46671e-05
5.05075e-05 -5.99457e-05 2.96902e-05
-5.46671e-05 2.96902e-05 -0.00015379
-0.00122763 0.000279665 3.5371e-05
0.000279665 -0.000709013 -1.33297e-05
3.5371e-05 -1.33297e-05 -0.000514291
0.00214084 5.20584e-05 -8.32566e-05
5.20584e-05 0.000293029 1.93258e-06
-8.32566e-05 1.93258e-06 -3.55376e-05
0.00186778 2.75526e-05 3.04155e-05
2.75526e-05 0.000154046 -4.20784e-06
3.04155e-05 -4.20784e-06 6.99969e-05
0.001439 -0.000133075 -5.24417e-05
-0.000133075 -0.000345319 -1.21277e-05
-5.24417e-05 -1.21277e-05 -0.000920335
0.00594746 0.000452782 7.649e-05
0.000452782 0.00289225 -2.18072e-05
7.649e-05 -2.18072e-05 0.0029897
-0.00193941 0.000565814 1.41041e-05
0.000565814 -0.00236909 2.08523e-05
1.41041e-05 2.08523e-05 -0.0010009
0.00140804 5.87281e-05 -3.63155e-06
5.87281e-05 -9.54976e-05 1.48022e-06
-3.63155e-06 1.48022e-06 -0.000311545
0.00199092 0.000268345 1.23108e-05
0.000268345 -7.8364e-05 -1.57065e-05
1.23108e-05 -1.57065e-05 -0.00122775
0.00419483 0.000669496 -6.5817e-06
0.000669496 0.00115261 -6.98377e-06
-6.5817e-06 -6.98377e-06 0.00153028
0.00197381 0.00029875 -3.87925e-06
0.00029875 -0.000733195 6.06043e-06
-3.87925e-06 6.06043e-06 -4.10909e-05
0.00170796 -2.48216e-06 -1.54142e-05
-2.48216e-06 -0.000317317 2.16388e-06
-1.54142e-05 2.16388e-06 -0.000515665
0.00377717 0.000413862 6.35983e-05
0.000413862 0.000859059 -4.7776e-05
6.35983e-05 -4.7776e-05 -0.000383551
-0.00375053 0.000245878 -8.20228e-05
0.000245878 -0.00313981 1.34069e-05
-8.20228e-05 1.34069e-05 -0.00291981
0.0011426 0.000163104 -1.56873e-05
0.000163104 -0.00153821 2.08732e-05
-1.56873e-05 2.08732e-05 -0.000886785
0.000967548 -1.78147e-05 1.09804e-06
-1.78147e-05 0.00010951 4.3523e-07
1.09804e-06 4.3523e-07 3.27165e-05
0.000910075 3.30314e-05 -1.30143e-06
3.30314e-05 7.86687e-05 -3.59348e-07
-1.30143e-06 -3.59348e-07 9.35433e-06
0.000858826 8.86085e-06 6.98368e-07
8.86085e-06 4.41058e-05 -2.41185e-07
6.98368e-07 -2.41185e-07 -1.19496e-05
0.00091025 5.2217e-05 1.88305e-06
5.2217e-05 8.26171e-05 7.77552e-07
1.88305e-06 7.77552e-07 1.58178e-05
0.000830176 1.14715e-05 -1.68892e-07
1.14715e-05 3.65594e-05 6.4988e-07
-1.68892e-07 6.4988e-07 -4.0122e-05
0.000947116 2.93606e-05 1.4083e-07
2.93606e-05 9.91562e-05 5.27509e-07
1.4083e-07 5.27509e-07 2.98385e-05
0.000857571 -7.17457e-06 -2.66291e-07
-7.17457e-06 4.81224e-05 1.0013e-06
-2.66291e-07 1.0013e-06 -1.73184e-05
0.00096048 5.76045e-05 -6.98906e-07
5.76045e-05 0.000104374 2.90154e-07
-6.98906e-07 2.90154e-07 3.5886e-05
0.000943509 2.17981e-05 -3.59152e-07
2.17981e-05 9.46912e-05 3.24345e-07
-3.59152e-07 3.24345e-07 2.98306e-05
0.000793461 -2.21589e-05 -8.72337e-07
-2.21589e-05 1.33853e-05 -3.07239e-07
-8.72337e-07 -3.07239e-07 -4.78864e-05
0.00082349 -5.64824e-05 7.39792e-06
-5.64824e-05 -0.000413043 1.9036e-07
7.39792e-06 1.9036e-07 -0.000488875
0.00182529 -0.000200196 1.13672e-06
-0.000200196 0.000105362 4.0271e-06
1.13672e-06 4.0271e-06 2.46734e-05
0.000897847 -0.000148962 8.42977e-06
-0.000148962 1.25525e-05 3.1233e-07
8.42977e-06 3.1233e-07 -0.000119564
0.000973837 -7.66733e-05 5.92687e-06
-7.66733e-05 0.000118324 -1.39501e-06
5.92687e-06 -1.39501e-06 -3.11178e-05
0.00107754 -1.8431e-05 7.32917e-07
-1.8431e-05 0.000179781 -1.06569e-06
7.32917e-07 -1.06569e-06 7.20397e-05
0.000829338 -4.85271e-05 -5.4249e-07
-4.85271e-05 3.3418e-05 -4.58131e-07
-5.4249e-07 -4.58131e-07 -5.03465e-05
0.000858512 4.1582e-05 -1.0399e-07
4.1582e-05 4.88215e-05 -3.3067e-07
-1.0399e-07 -3.3067e-07 -2.86168e-05
0.000909479 -2.62179e-05 -1.0131e-07
-2.62179e-05 7.81095e-05 5.09392e-07
-1.0131e-07 5.09392e-07 -3.51799e-07
0.00151462 -0.000158619 -1.2681e-06
-0.000158619 0.000130241 -4.92942e-07
-1.2681e-06 -4.92942e-07 3.61252e-05
0.000951347 -6.44374e-07 -1.86718e-07
-6.44374e-07 9.48706e-05 -3.53184e-07
-1.86718e-07 -3.53184e-07 1.16402e-05
0.00100818 -3.61933e-05 -4.25897e-07
-3.61933e-05 0.000115679 -9.71634e-08
-4.25897e-07 -9.71634e-08 2.84628e-05
0.00157701 -0.000189865 5.31825e-07
-0.000189865 0.000250308 -1.01326e-06
5.31825e-07 -1.01326e-06 0.000144569
0.00109461 -2.48799e-05 -1.80551e-06
-2.48799e-05 0.000192125 1.17782e-06
-1.80551e-06 1.17782e-06 6.1299e-05
-0.000509423 -0.000191886 9.03416e-07
-0.000191886 -0.000956081 -9.30636e-06
9.03416e-07 -9.30636e-06 -0.000881297
0.00174294 -7.40305e-05 -6.04985e-06
-7.40305e-05 0.000565807 9.64072e-06
-6.04985e-06 9.64072e-06 0.000412442
0.000579397 1.8068e-05 -2.14405e-06
1.8068e-05 -0.000118053 5.57693e-06
-2.14405e-06 5.57693e-06 -0.000202851
0.000903182 4.03563e-06 4.84604e-07
4.03563e-06 6.01572e-05 9.24462e-07
4.84604e-07 9.24462e-07 -1.77373e-05
0.000889715 2.10459e-05 -5.11157e-07
2.10459e-05 5.22934e-05 1.24504e-06
-5.11157e-07 1.24504e-06 -3.51614e-05
0.00149708 2.2561e-07 -1.14754e-05
2.2561e-07 4.77002e-05 5.75551e-08
-1.14754e-05 5.75551e-08 -7.74623e-05
1.65243e-05 -2.10298e-06 -9.56559e-06
-2.10298e-06 0.000327118 -1.37744e-06
-9.56559e-06 -1.37744e-06 0.000152668
-0.00526866 -5.59375e-05 -3.97561e-06
-5.59375e-05 -0.00267959 4.29257e-06
-3.97561e-06 4.29257e-06 -0.00255475
0.000829225 7.15256e-05 2.57711e-06
7.15256e-05 6.61191e-05 1.85467e-06
2.57711e-06 1.85467e-06 -2.06059e-05
0.000190049 2.20416e-05 4.85237e-06
2.20416e-05 -0.000155486 2.68699e-06
4.85237e-06 2.68699e-06 -0.000321085
0.00130435 7.74245e-05 1.06821e-05
7.74245e-05 0.000161452 -2.18066e-06
1.06821e-05 -2.18066e-06 7.77534e-05
-0.00123747 -6.17564e-05 2.07964e-05
-6.17564e-05 -0.00046221 3.24813e-06
2.07964e-05 3.24813e-06 -0.000675195
0.00323172 -0.000415355 7.50309e-06
-0.000415355 0.00063413 6.5859e-07
7.50309e-06 6.5859e-07 -0.000747642
0.00547915 0.000500833 8.01607e-05
0.000500833 0.00148599 -3.07463e-05
8.01607e-05 -3.07463e-05 0.00096335
0.000275791 7.20316e-05 -1.37614e-05
7.20316e-05 -0.000138738 1.42124e-05
-1.37614e-05 1.42124e-05 -0.000102329
0.0054367 -0.00058081 4.19724e-05
-0.00058081 0.00147088 3.51956e-05
4.19724e-05 3.51956e-05 0.00159339
0.00214812 -2.41616e-05 3.42773e-05
-2.41616e-05 0.000208587 1.766e-05
3.42773e-05 1.766e-05 8.158e-05
0.00373345 -0.000170787 1.99965e-05
-0.000170787 0.00037086 1.55481e-05
1.99965e-05 1.55481e-05 0.00105503
0.00117578 9.8168e-05 9.41236e-07
9.8168e-05 0.000277048 -9.66053e-07
9.41236e-07 -9.66053e-07 0.000208587
0.00156849 -4.69761e-06 7.55852e-07
-4.69761e-06 8.83807e-05 -4.12027e-06
7.55852e-07 -4.12027e-06 -3.19547e-05
0.00167424 -8.63632e-06 -1.2512e-06
-8.63632e-06 8.47706e-05 -1.20929e-06
-1.2512e-06 -1.20929e-06 2.14858e-05
0.000207384 2.39e-05 6.75252e-07
2.39e-05 -3.33489e-05 2.60032e-07
6.75252e-07 2.60032e-07 -0.000141401
0.00352631 0.00037493 -2.42567e-05
0.00037493 0.000954624 -2.39787e-05
-2.42567e-05 -2.39787e-05 0.000660083
0.0042057 0.000109745 3.8284e-05
0.000109745 0.000733954 1.20959e-05
3.8284e-05 1.20959e-05 -0.000862906
0.00259089 1.49384e-05 5.55566e-07
1.49384e-05 -0.000602543 -9.34976e-06
5.55566e-07 -9.34976e-06 0.000134618
0.000721928 -0.000220497 -1.05198e-05
-0.000220497 -0.000733951 1.86598e-05
-1.05198e-05 1.86598e-05 -0.000851671
0.00113575 4.74594e-05 -3.30984e-06
4.74594e-05 0.000342221 -9.80815e-06
-3.30984e-06 -9.80815e-06 0.000307472
0.00105512 -2.48905e-07 -4.65463e-07
-2.48905e-07 9.69182e-05 3.81341e-06
-4.65463e-07 3.81341e-06 4.545e-05
0.00189189 2.30932e-06 -2.63476e-06
2.30932e-06 0.000280167 -1.2155e-05
-2.63476e-06 -1.2155e-05 0.000208988
0.00109321 0.000146729 1.46473e-05
0.000146729 -0.00148295 -2.18785e-05
1.46473e-05 -2.18785e-05 -0.000892404
-0.00141609 6.33976e-05 9.62558e-06
6.33976e-05 -0.000714205 -8.30218e-06
9.62558e-06 -8.30218e-06 -0.000938689
0.00763107 -1.16885e-06 5.42785e-05
-1.16885e-06 0.00229151 1.60674e-05
5.42785e-05 1.60674e-05 0.000980861
-0.0013242 -4.51713e-05 1.51182e-05
-4.51713e-05 -0.000838386 -4.84426e-05
1.51182e-05 -4.84426e-05 -0.00100458
0.00116454 8.83891e-05 2.46916e-06
8.83891e-05 0.000215287 3.94594e-06
2.46916e-06 3.94594e-06 0.000148301
0.000658832 5.80852e-05 -1.02455e-06
5.80852e-05 -3.97164e-05 1.86267e-06
-1.02455e-06 1.86267e-06 -9.81436e-05
0.000279867 1.31575e-05 -1.42562e-08
1.31575e-05 -0.000181391 -3.63428e-06
-1.42562e-08 -3.63428e-06 -0.000240064
0.000948599 6.8464e-05 -4.39405e-07
6.8464e-05 7.82004e-05 -4.8002e-08
-4.39405e-07 -4.8002e-08 1.17556e-05
0.000916997 7.38584e-07 -6.71111e-07
7.38584e-07 5.58205e-05 1.14309e-07
-6.71111e-07 1.14309e-07 -8.72364e-06
0.00082718 -3.3489e-05 -2.0109e-06
-3.3489e-05 1.90962e-05 2.90763e-06
-2.0109e-06 2.90763e-06 -4.59121e-05
0.0009305 4.11923e-05 1.58831e-07
4.11923e-05 6.52078e-05 2.24885e-08
1.58831e-07 2.24885e-08 -1.61658e-06
0.000879292 -4.88119e-05 7.92322e-08
-4.88119e-05 3.05748e-05 -4.30404e-07
7.92322e-08 -4.30404e-07 -3.09854e-05
0.000973043 -5.71394e-05 1.87031e-06
-5.71394e-05 0.000100298 1.4078e-06
1.87031e-06 1.4078e-06 4.19461e-05
0.000714534 -1.72438e-05 1.03195e-06
-1.72438e-05 -1.41159e-05 7.84725e-07
1.03195e-06 7.84725e-07 -5.94319e-05
0.000930123 -1.99221e-06 5.78106e-07
-1.99221e-06 5.26138e-05 -3.79152e-07
5.78106e-07 -3.79152e-07 -8.76202e-06
0.000932822 3.61038e-05 -6.32719e-07
3.61038e-05 6.84174e-05 9.14628e-08
-6.32719e-07 9.14628e-08 2.38676e-06
0.000879091 4.22192e-05 -2.4653e-07
4.22192e-05 5.72052e-05 -2.5827e-07
-2.4653e-07 -2.5827e-07 -9.68396e-06
0.000894362 4.53987e-05 -8.48826e-07
4.53987e-05 5.32605e-05 -4.62567e-07
-8.48826e-07 -4.62567e-07 -1.33996e-05
0.000908846 2.54853e-05 1.44528e-07
2.54853e-05 5.38136e-05 2.03316e-07
1.44528e-07 2.03316e-07 -1.10977e-05
0.000935672 2.55696e-05 6.2368e-07
2.55696e-05 8.07465e-05 3.09589e-07
6.2368e-07 3.09589e-07 1.10602e-05
0.000808573 -3.4213e-05 6.87241e-07
-3.4213e-05 4.09186e-05 1.0448e-06
6.87241e-07 1.0448e-06 -3.36919e-05
0.000842503 -2.65438e-05 -2.2939e-07
-2.65438e-05 5.27889e-05 -7.57827e-07
-2.2939e-07 -7.57827e-07 -3.05636e-05
0.00076616 -5.03725e-05 1.58588e-06
-5.03725e-05 3.17603e-05 1.54508e-06
1.58588e-06 1.54508e-06 -8.31709e-05
0.00103778 -9.27443e-06 -1.07707e-06
-9.27443e-06 0.000141805 -9.64447e-07
-1.07707e-06 -9.64447e-07 6.08142e-05
0.00102162 -5.29905e-05 -3.32011e-07
-5.29905e-05 0.000152055 7.93388e-07
-3.32011e-07 7.93388e-07 5.37919e-05
0.000588693 -8.24271e-05 -1.31569e-06
-8.24271e-05 -7.85163e-05 3.33078e-06
-1.31569e-06 3.33078e-06 -0.000203484
0.00090846 -9.60139e-05 -3.15746e-06
-9.60139e-05 8.82463e-05 9.04273e-07
-3.15746e-06 9.04273e-07 -3.16091e-05
0.000968313 -7.04329e-05 -8.44535e-07
-7.04329e-05 0.00012052 1.54317e-06
-8.44535e-07 1.54317e-06 2.34663e-05
0.000894873 -9.39593e-05 1.19618e-07
-9.39593e-05 8.23789e-05 2.54997e-07
1.19618e-07 2.54997e-07 -3.41704e-05
0.000911655 -5.01472e-06 3.72872e-07
-5.01472e-06 7.35171e-05 1.20278e-06
3.72872e-07 1.20278e-06 7.79362e-07
0.000992258 -3.17276e-05 -6.26127e-07
-3.17276e-05 0.000128007 -5.48972e-07
-6.26127e-07 -5.48972e-07 4.02268e-05
0.000785566 -5.64748e-05 6.97984e-07
-5.64748e-05 4.02455e-05 -3.40127e-06
6.97984e-07 -3.40127e-06 -5.63751e-05
0.00106947 7.38731e-06 -9.77633e-07
7.38731e-06 0.000165267 -1.57191e-06
-9.77633e-07 -1.57191e-06 9.03312e-05
0.000818927 1.29168e-05 5.98691e-08
1.29168e-05 2.19226e-05 -1.7638e-08
5.98691e-08 -1.7638e-08 -4.31032e-05
0.00084669 3.19459e-05 -1.73672e-07
3.19459e-05 2.87829e-05 1.05335e-06
-1.73672e-07 1.05335e-06 -2.26016e-05
0.000898203 4.015e-07 7.66873e-08
4.015e-07 6.29904e-05 -3.98323e-07
7.66873e-08 -3.98323e-07 1.7112e-06
0.000855889 1.3991e-05 -3.88851e-07
1.3991e-05 3.08936e-05 -6.45956e-08
-3.88851e-07 -6.45956e-08 -1.71398e-05
0.000813608 2.57653e-05 -1.1246e-06
2.57653e-05 4.61103e-06 1.69793e-06
-1.1246e-06 1.69793e-06 -2.68828e-05
0.00086512 -6.73533e-06 8.65839e-07
-6.73533e-06 3.37824e-05 -7.91399e-07
8.65839e-07 -7.91399e-07 -1.31437e-05
0.000822756 2.01547e-05 -9.00823e-08
2.01547e-05 4.65836e-06 1.51917e-09
-9.00823e-08 1.51917e-09 -2.52981e-05
0.00132097 2.82655e-05 -7.02292e-06
2.82655e-05 0.000271151 3.07788e-06
-7.02292e-06 3.07788e-06 0.00027045
0.000828432 9.64515e-06 1.02841e-06
9.64515e-06 3.85487e-06 -1.61352e-06
1.02841e-06 -1.61352e-06 -2.49905e-05
0.00105801 2.1828e-05 -3.27177e-06
2.1828e-05 0.000123979 5.55312e-07
-3.27177e-06 5.55312e-07 0.000122926
0.000923619 2.02614e-05 -1.69169e-06
2.02614e-05 5.36219e-05 1.5816e-06
-1.69169e-06 1.5816e-06 6.86287e-05
0.000768881 1.52606e-05 7.23659e-07
1.52606e-05 -3.60866e-05 -3.13589e-06
7.23659e-07 -3.13589e-06 -3.77739e-05
0.00152369 1.86125e-05 5.42331e-06
1.86125e-05 0.000372147 -1.14729e-06
5.42331e-06 -1.14729e-06 0.00039095
0.00211713 1.44599e-05 8.13943e-06
1.44599e-05 0.000689768 -3.94698e-06
8.13943e-06 -3.94698e-06 0.000711861
0.000715221 -1.54963e-06 -2.36382e-07
-1.54963e-06 -3.97374e-05 -1.00743e-06
-2.36382e-07 -1.00743e-06 -9.29212e-05
0.000608889 -1.31456e-05 -2.26255e-07
-1.31456e-05 -0.000112088 -1.86554e-06
-2.26255e-07 -1.86554e-06 -0.000140912
0.000938004 -1.34691e-05 1.88619e-08
-1.34691e-05 7.61753e-05 3.72404e-08
1.88619e-08 3.72404e-08 2.93027e-05
0.000788992 -1.0998e-05 -4.25391e-07
-1.0998e-05 -2.81602e-05 -3.05894e-06
-4.25391e-07 -3.05894e-06 -2.75519e-05
0.000717428 -9.10707e-06 4.85475e-08
-9.10707e-06 -5.71565e-05 1.78468e-08
4.85475e-08 1.78468e-08 -8.32722e-05
0.000711195 -3.84877e-05 1.12005e-07
-3.84877e-05 -4.42372e-05 7.16376e-07
1.12005e-07 7.16376e-07 -9.00537e-05
0.00201815 -7.53573e-06 -4.60732e-06
-7.53573e-06 0.000634703 -3.99861e-06
-4.60732e-06 -3.99861e-06 0.000658233
0.000782908 -5.61834e-06 -1.54244e-07
-5.61834e-06 -3.39385e-05 -4.39575e-09
-1.54244e-07 -4.39575e-09 -3.21775e-05
0.00084004 -5.86287e-06 8.44489e-08
-5.86287e-06 6.03975e-06 1.57231e-06
8.44489e-08 1.57231e-06 -1.82064e-05
0.00201521 -1.68351e-07 -2.00535e-06
-1.68351e-07 0.000632086 -2.5054e-10
-2.00535e-06 -2.5054e-10 0.000655859
0.000784247 -1.24253e-07 6.8265e-08
-1.24253e-07 -3.41311e-05 3.10217e-06
6.8265e-08 3.10217e-06 -3.21556e-05
0.00203633 7.27234e-06 -4.55524e-06
7.27234e-06 0.000644072 4.04005e-06
-4.55524e-06 4.04005e-06 0.000667492
0.00104937 1.53396e-05 -3.00965e-05
1.53396e-05 -0.000214968 9.02216e-06
-3.00965e-05 9.02216e-06 -0.000350432
0.00115237 0.000142395 1.09865e-06
0.000142395 0.000794041 -3.33064e-06
1.09865e-06 -3.33064e-06 0.000788047
0.000561411 -7.47368e-06 5.03911e-05
-7.47368e-06 0.000460177 -1.36053e-05
5.03911e-05 -1.36053e-05 0.000298105
0.000887346 1.78676e-05 -3.64786e-08
1.78676e-05 5.87229e-05 1.59532e-07
-3.64786e-08 1.59532e-07 -1.0013e-05
0.00168509 2.93654e-05 -8.07904e-06
2.93654e-05 0.000110859 1.67385e-05
-8.07904e-06 1.67385e-05 5.73947e-05
0.00157944 4.4323e-05 -1.54895e-05
4.4323e-05 -0.000145864 5.09074e-06
-1.54895e-05 5.09074e-06 -0.00026508
0.00134608 0.000329836 5.55779e-05
0.000329836 0.000540294 -3.04293e-05
5.55779e-05 -3.04293e-05 0.000945183
0.00307826 4.73559e-05 -3.21975e-05
4.73559e-05 0.000556114 4.74984e-06
-3.21975e-05 4.74984e-06 0.000309441
0.0090057 0.000544839 1.70442e-05
0.000544839 0.00320592 -1.33126e-05
1.70442e-05 -1.33126e-05 0.00222787
-0.00232904 0.000418233 4.42721e-05
0.000418233 -0.0019801 -8.48122e-06
4.42721e-05 -8.48122e-06 -0.00149803
0.00275432 0.000312467 3.34609e-05
0.000312467 -0.000206693 -2.55771e-05
3.34609e-05 -2.55771e-05 0.000441506
0.00230423 -3.10905e-05 -4.59018e-05
-3.10905e-05 -0.00028005 3.92582e-06
-4.59018e-05 3.92582e-06 -0.000661976
0.00675295 0.000381373 3.21235e-05
0.000381373 0.00235848 -1.34273e-05
3.21235e-05 -1.34273e-05 0.00115994
0.00370378 0.000449405 -4.33966e-06
0.000449405 0.000182766 1.92822e-06
-4.33966e-06 1.92822e-06 0.000314578
0.00297639 0.000180538 -4.87081e-06
0.000180538 -0.000483095 3.02302e-06
-4.87081e-06 3.02302e-06 0.000193512
0.00403964 -0.000206997 4.8872e-05
-0.000206997 0.000570844 -2.7554e-05
4.8872e-05 -2.7554e-05 1.1199e-05
0.00678888 0.000399567 2.64007e-05
0.000399567 0.0023492 -7.00944e-06
2.64007e-05 -7.00944e-06 0.000663973
0.00248619 0.000277187 1.06668e-05
0.000277187 -0.000214626 4.2285e-05
1.06668e-05 4.2285e-05 -0.000301272
0.00417131 4.85574e-05 -1.68823e-06
4.85574e-05 0.000339097 1.61072e-05
-1.68823e-06 1.61072e-05 0.0010756
0.000910138 -1.98987e-05 5.04686e-07
-1.98987e-05 7.40414e-05 4.84632e-07
5.04686e-07 4.84632e-07 -5.85506e-06
0.000930055 -3.16435e-05 4.81452e-07
-3.16435e-05 9.16446e-05 1.57835e-08
4.81452e-07 1.57835e-08 1.33929e-05
0.000958878 4.1998e-05 -9.45951e-07
4.1998e-05 0.000106337 -1.045e-07
-9.45951e-07 -1.045e-07 3.67515e-05
0.000900867 -1.28312e-05 -2.17373e-07
-1.28312e-05 6.47921e-05 -6.77991e-09
-2.17373e-07 -6.77991e-09 -7.60798e-06
0.000923219 3.94314e-05 -5.45081e-07
3.94314e-05 8.64629e-05 3.44611e-07
-5.45081e-07 3.44611e-07 1.09566e-05
0.000974536 1.58911e-05 5.70395e-07
1.58911e-05 0.000115435 8.41082e-07
5.70395e-07 8.41082e-07 4.56498e-05
0.00101552 5.192e-05 -4.81838e-07
5.192e-05 0.000132009 1.18393e-07
-4.81838e-07 1.18393e-07 6.44434e-05
0.00105071 5.86069e-05 6.65371e-07
5.86069e-05 0.000154233 8.42357e-07
6.65371e-07 8.42357e-07 8.82949e-05
0.000432133 -0.000116988 2.11269e-05
-0.000116988 -0.000428109 -6.77086e-06
2.11269e-05 -6.77086e-06 -0.000485661
0.00121293 -0.000171569 5.51804e-06
-0.000171569 6.88516e-05 -1.95831e-06
5.51804e-06 -1.95831e-06 -3.36039e-05
0.000920204 -9.60269e-05 -2.06608e-06
-9.60269e-05 9.00681e-05 -2.19165e-07
-2.06608e-06 -2.19165e-07 7.30605e-06
0.00146737 -4.81794e-05 2.93134e-06
-4.81794e-05 0.000368953 -2.33713e-06
2.93134e-06 -2.33713e-06 0.000241931
0.00101124 -4.42901e-05 -9.81689e-07
-4.42901e-05 0.000117233 -9.76287e-07
-9.81689e-07 -9.76287e-07 2.89988e-05
0.00105194 -1.54628e-05 -9.55399e-07
-1.54628e-05 0.000143558 -6.22155e-07
-9.55399e-07 -6.22155e-07 6.40019e-05
0.000977782 1.02796e-05 9.51754e-09
1.02796e-05 0.000104174 -1.31243e-07
9.51754e-09 -1.31243e-07 2.40666e-05
0.00130957 -0.00026385 -6.52261e-06
-0.00026385 -4.4451e-05 9.61659e-07
-6.52261e-06 9.61659e-07 -1.77268e-05
0.000970697 1.10861e-05 1.40692e-07
1.10861e-05 0.000100753 -5.04175e-07
1.40692e-07 -5.04175e-07 1.17146e-05
0.00106288 -2.57142e-05 -8.71255e-07
-2.57142e-05 0.000135216 1.02378e-07
-8.71255e-07 1.02378e-07 4.38844e-05
0.00090019 -6.19538e-05 -3.03638e-07
-6.19538e-05 0.000118626 1.91466e-06
-3.03638e-07 1.91466e-06 -2.20738e-05
0.0010725 -4.73927e-06 1.79653e-07
-4.73927e-06 0.000145007 8.82386e-07
1.79653e-07 8.82386e-07 7.11015e-05
-0.00162394 -0.000238234 1.42434e-05
-0.000238234 -0.00128257 -1.07263e-05
1.42434e-05 -1.07263e-05 -0.00122447
0.00151879 1.22955e-05 -8.38524e-06
1.22955e-05 0.000578971 1.39539e-05
-8.38524e-06 1.39539e-05 0.00043376
0.000554777 2.06561e-06 -8.53234e-07
2.06561e-06 -0.000139889 3.87948e-06
-8.53234e-07 3.87948e-06 -0.000214981
0.00097769 8.08944e-05 7.9272e-07
8.08944e-05 0.000101948 1.62809e-06
7.9272e-07 1.62809e-06 1.94297e-05
0.00126368 1.17742e-06 7.07158e-06
1.17742e-06 0.00027621 1.08803e-06
7.07158e-06 1.08803e-06 0.000211942
0.00131669 -5.49547e-06 1.50245e-05
-5.49547e-06 -3.03558e-05 3.32511e-07
1.50245e-05 3.32511e-07 -0.000158828
-0.00109124 -4.71416e-06 1.99173e-05
-4.71416e-06 -0.000240807 3.9645e-07
1.99173e-05 3.9645e-07 -0.000485087
0.000887878 8.11519e-05 6.33644e-06
8.11519e-05 0.000133481 3.69587e-06
6.33644e-06 3.69587e-06 6.59954e-05
-8.58385e-05 4.17138e-05 2.5761e-06
4.17138e-05 -0.000162357 8.42787e-06
2.5761e-06 8.42787e-06 -0.000277136
0.00140894 -4.74318e-06 2.36029e-05
-4.74318e-06 1.46116e-05 -1.75871e-07
2.36029e-05 -1.75871e-07 -8.08109e-05
0.00604249 -0.000501321 6.00169e-05
-0.000501321 0.00180219 2.18434e-05
6.00169e-05 2.18434e-05 0.000319877
0.0049292 0.00046064 -2.86191e-05
0.00046064 0.00146085 -6.99463e-05
-2.86191e-05 -6.99463e-05 0.000808604
0.00328569 -0.00032506 1.04349e-05
-0.00032506 0.000213623 6.36158e-05
1.04349e-05 6.36158e-05 7.93586e-05
0.00202431 -1.04287e-05 1.8656e-06
-1.04287e-05 0.000293465 1.58849e-05
1.8656e-06 1.58849e-05 0.000232615
0.00115735 1.3311e-05 1.19985e-06
1.3311e-05 -0.00158712 6.61732e-06
1.19985e-06 6.61732e-06 -0.000815506
0.000879099 6.42784e-05 1.73012e-06
6.42784e-05 0.000201215 3.93994e-07
1.73012e-06 3.93994e-07 0.000156893
0.00103626 1.69729e-07 -1.01948e-06
1.69729e-07 8.51932e-05 1.8612e-07
-1.01948e-06 1.8612e-07 3.52938e-05
0.00140416 1.45313e-06 -1.43661e-07
1.45313e-06 5.27428e-05 1.35968e-06
-1.43661e-07 1.35968e-06 -8.27793e-06
-0.000506123 8.00284e-05 -1.71889e-06
8.00284e-05 -0.000188424 -1.48393e-06
-1.71889e-06 -1.48393e-06 -0.000335082
0.00294926 0.000169736 4.50053e-06
0.000169736 -0.000432024 -3.49284e-06
4.50053e-06 -3.49284e-06 0.000207837
0.00526547 0.000296484 4.02125e-05
0.000296484 0.000988822 2.66873e-06
4.02125e-05 2.66873e-06 -0.000194756
0.00312486 0.000124112 -4.85591e-05
0.000124112 0.000770939 -3.92531e-06
-4.85591e-05 -3.92531e-06 0.000553298
-0.000648241 3.25861e-05 3.24338e-06
3.25861e-05 -0.000384024 -1.25717e-05
3.24338e-06 -1.25717e-05 -0.000465941
0.00123684 2.57711e-06 -2.75761e-06
2.57711e-06 0.000311758 8.69492e-06
-2.75761e-06 8.69492e-06 0.000252383
0.00173073 2.01992e-05 9.90833e-06
2.01992e-05 0.000147484 -1.59735e-05
9.90833e-06 -1.59735e-05 8.50722e-05
0.00306182 0.000306581 4.35749e-05
0.000306581 -8.74546e-05 -2.64375e-05
4.35749e-05 -2.64375e-05 0.000645683
0.00218114 0.000324069 -1.15504e-05
0.000324069 -0.000313788 -4.9442e-05
-1.15504e-05 -4.9442e-05 -0.000367173
0.0015944 0.000250287 1.49102e-05
0.000250287 0.000283285 -1.17929e-05
1.49102e-05 -1.17929e-05 0.000343299
0.00261461 -0.000183187 9.84713e-05
-0.000183187 0.000473589 1.1111e-05
9.84713e-05 1.1111e-05 -0.000998042
0.000788698 7.62466e-05 -8.57791e-07
7.62466e-05 2.30374e-05 6.83086e-06
-8.57791e-07 6.83086e-06 -3.85941e-05
0.000856137 1.06007e-05 1.60875e-06
1.06007e-05 0.000107499 2.614e-06
1.60875e-06 2.614e-06 5.4064e-05
0.00024647 -4.33496e-05 8.91223e-06
-4.33496e-05 -5.82719e-05 -5.49997e-06
8.91223e-06 -5.49997e-06 -0.000154387
0.000985756 2.02065e-05 -7.61469e-07
2.02065e-05 9.10667e-05 3.72679e-08
-7.61469e-07 3.72679e-08 2.6293e-05
0.000817554 -5.31127e-05 -1.25338e-06
-5.31127e-05 1.28521e-07 5.8869e-07
-1.25338e-06 5.8869e-07 -6.24413e-05
0.000986636 -5.75778e-05 -1.79803e-06
-5.75778e-05 9.96333e-05 1.68966e-06
-1.79803e-06 1.68966e-06 3.87946e-05
0.000944894 -1.57941e-05 -1.22491e-07
-1.57941e-05 6.47205e-05 -2.53737e-07
-1.22491e-07 -2.53737e-07 2.05571e-06
0.000687781 -2.08166e-05 -9.05528e-07
-2.08166e-05 -4.16269e-05 1.60666e-06
-9.05528e-07 1.60666e-06 -8.46343e-05
0.000773076 -4.75032e-05 1.63422e-06
-4.75032e-05 6.98516e-05 -5.94009e-07
1.63422e-06 -5.94009e-07 -2.9617e-05
0.000902497 1.71012e-05 -3.02697e-07
1.71012e-05 5.06179e-05 9.34336e-08
-3.02697e-07 9.34336e-08 -1.45224e-05
0.000989206 3.7585e-05 -4.06036e-07
3.7585e-05 0.000108193 8.42851e-08
-4.06036e-07 8.42851e-08 3.88872e-05
0.00101235 -3.21801e-05 4.14843e-07
-3.21801e-05 0.000140061 3.52176e-07
4.14843e-07 3.52176e-07 6.3222e-05
0.000622626 -4.52739e-05 2.63898e-06
-4.52739e-05 6.454e-06 1.91925e-06
2.63898e-06 1.91925e-06 -0.000119824
0.000779391 -7.81543e-06 -3.0313e-06
-7.81543e-06 2.13969e-05 -1.17705e-06
-3.0313e-06 -1.17705e-06 -5.92251e-05
0.000652981 -5.28464e-05 2.14782e-07
-5.28464e-05 -2.27067e-05 -1.57185e-07
2.14782e-07 -1.57185e-07 -0.000132722
0.00103846 -0.000112699 1.37201e-06
-0.000112699 0.000165118 1.73362e-06
1.37201e-06 1.73362e-06 1.77795e-05
0.0011415 -0.000116671 -4.10097e-06
-0.000116671 0.000163495 3.18138e-06
-4.10097e-06 3.18138e-06 2.57903e-05
0.00127191 -6.75057e-05 -7.57463e-07
-6.75057e-05 0.000277185 -1.36679e-06
-7.57463e-07 -1.36679e-06 0.000177324
0.00077581 -9.22938e-05 -7.0515e-07
-9.22938e-05 1.26234e-05 4.52384e-07
-7.0515e-07 4.52384e-07 -0.00011599
0.00138703 -0.000122191 -4.4048e-07
-0.000122191 0.000331005 -2.6438e-07
-4.4048e-07 -2.6438e-07 0.000215147
0.000658064 -7.14285e-05 -1.48277e-06
-7.14285e-05 -3.25107e-05 6.57228e-07
-1.48277e-06 6.57228e-07 -0.000137902
0.000936949 -9.71848e-05 2.44165e-07
-9.71848e-05 0.000102343 -4.46004e-07
2.44165e-07 -4.46004e-07 -1.52763e-05
0.000929506 -1.16421e-05 -4.58634e-07
-1.16421e-05 8.52885e-05 9.82255e-07
-4.58634e-07 9.82255e-07 6.84493e-06
0.00102462 -7.03595e-05 -1.12988e-06
-7.03595e-05 0.000148061 9.77408e-07
-1.12988e-06 9.77408e-07 5.08156e-05
0.000778345 -8.75487e-05 1.93005e-07
-8.75487e-05 2.4444e-05 -1.99075e-06
1.93005e-07 -1.99075e-06 -9.17644e-05
0.000862364 2.96762e-05 -1.21626e-07
2.96762e-05 4.01025e-05 1.21925e-06
-1.21626e-07 1.21925e-06 -1.67251e-05
0.000823305 -3.52386e-06 4.64415e-07
-3.52386e-06 2.69482e-05 4.60651e-08
4.64415e-07 4.60651e-08 -4.60254e-05
0.000911817 -3.39707e-05 8.30177e-07
-3.39707e-05 8.52882e-05 -2.03822e-06
8.30177e-07 -2.03822e-06 -3.79492e-06
0.00090186 9.91207e-06 -7.60182e-08
9.91207e-06 6.57149e-05 -1.00865e-06
-7.60182e-08 -1.00865e-06 1.78652e-06
0.000853414 2.18766e-05 -2.18762e-07
2.18766e-05 3.19356e-05 -1.10922e-07
-2.18762e-07 -1.10922e-07 -1.92229e-05
0.000807391 3.16029e-05 -1.15378e-06
3.16029e-05 6.58742e-06 1.72104e-06
-1.15378e-06 1.72104e-06 -2.72339e-05
0.000859365 3.53346e-06 5.44454e-07
3.53346e-06 3.29631e-05 -9.95579e-07
5.44454e-07 -9.95579e-07 -1.51757e-05
0.000815303 2.66845e-05 -1.94366e-08
2.66845e-05 5.27757e-06 -6.1883e-09
-1.94366e-08 -6.1883e-09 -2.62481e-05
0.000737011 2.87905e-05 -1.4473e-06
2.87905e-05 -3.7029e-05 3.30662e-06
-1.4473e-06 3.30662e-06 -4.23657e-05
0.000825669 1.84991e-05 9.70601e-07
1.84991e-05 5.62359e-06 -1.65059e-06
9.70601e-07 -1.65059e-06 -2.42029e-05
0.000756611 2.47689e-05 1.34992e-07
2.47689e-05 -3.30359e-05 1.37834e-08
1.34992e-07 1.37834e-08 -3.67723e-05
0.00205047 3.77435e-05 -4.82603e-06
3.77435e-05 0.000666787 1.53944e-06
-4.82603e-06 1.53944e-06 0.000686174
0.00076801 2.022e-05 9.82458e-07
2.022e-05 -3.25746e-05 -3.17576e-06
9.82458e-07 -3.17576e-06 -3.50679e-05
0.00151649 2.46339e-05 6.64293e-06
2.46339e-05 0.000372677 -1.08222e-06
6.64293e-06 -1.08222e-06 0.00039064
0.00211054 2.14813e-05 1.15133e-05
2.14813e-05 0.00068952 -3.85581e-06
1.15133e-05 -3.85581e-06 0.000711025
0.000738944 -2.17313e-05 7.00533e-08
-2.17313e-05 -3.28861e-05 -8.41453e-07
7.00533e-08 -8.41453e-07 -8.55915e-05
0.000580722 -1.65713e-05 -2.43534e-07
-1.65713e-05 -0.00012399 -1.87837e-06
-2.43534e-07 -1.87837e-06 -0.000155872
0.000832866 -3.40701e-06 -2.43441e-07
-3.40701e-06 2.22342e-05 -5.51815e-07
-2.43441e-07 -5.51815e-07 -3.02037e-05
0.000784636 -1.61574e-05 -5.06513e-07
-1.61574e-05 -2.66873e-05 -3.088e-06
-5.06513e-07 -3.088e-06 -2.7888e-05
0.000594986 -1.32144e-05 3.571e-08
-1.32144e-05 -0.000119335 -5.70418e-07
3.571e-08 -5.70418e-07 -0.000148456
0.000952763 -1.14065e-06 -1.85071e-07
-1.14065e-06 8.61286e-05 4.96902e-07
-1.85071e-07 4.96902e-07 3.76746e-05
0.00204539 -1.4591e-05 -8.12453e-06
-1.4591e-05 0.000651713 -3.98555e-06
-8.12453e-06 -3.98555e-06 0.000674478
0.000778993 -1.07655e-05 -1.05101e-07
-1.07655e-05 -3.35812e-05 -1.82351e-08
-1.05101e-07 -1.82351e-08 -3.28845e-05
0.000596684 -9.32393e-06 1.58725e-07
-9.32393e-06 -0.000121122 1.44023e-06
1.58725e-07 1.44023e-06 -0.000148132
0.00201599 -7.1521e-06 -2.13167e-06
-7.1521e-06 0.000633348 1.61705e-08
-2.13167e-06 1.61705e-08 0.000656939
0.00077868 -5.40888e-06 1.71614e-07
-5.40888e-06 -3.62361e-05 3.08155e-06
1.71614e-07 3.08155e-06 -3.44424e-05
0.00201646 2.65122e-07 -6.36505e-07
2.65122e-07 0.00063275 4.03605e-06
-6.36505e-07 4.03605e-06 0.000656504
0.00110848 8.2475e-06 2.86948e-06
8.2475e-06 0.000103651 4.77843e-07
2.86948e-06 4.77843e-07 3.90582e-05
0.001156 1.0718e-05 -1.03332e-06
1.0718e-05 -0.000151455 5.52843e-07
-1.03332e-06 5.52843e-07 -0.000283132
0.000971808 0.000111722 4.0952e-05
0.000111722 0.000780742 -9.04879e-06
4.0952e-05 -9.04879e-06 0.00073566
0.000914617 1.68804e-05 1.38145e-07
1.68804e-05 7.10077e-05 5.90172e-08
1.38145e-07 5.90172e-08 4.47506e-06
0.000837175 -6.06925e-06 3.75585e-08
-6.06925e-06 2.53352e-05 2.32991e-08
3.75585e-08 2.32991e-08 -4.11591e-05
0.000972465 2.89662e-05 -4.03934e-07
2.89662e-05 0.000106361 7.31386e-07
-4.03934e-07 7.31386e-07 3.32867e-05
0.00187524 1.74744e-05 3.88605e-06
1.74744e-05 0.000276878 2.34392e-05
3.88605e-06 2.34392e-05 0.000208492
0.00143271 2.64553e-05 -4.08136e-06
2.64553e-05 -5.39657e-05 3.09188e-06
-4.08136e-06 3.09188e-06 -0.000113005
0.00141879 3.84355e-05 2.36974e-05
3.84355e-05 -0.000235076 -2.30736e-05
2.36974e-05 -2.30736e-05 -0.000388567
0.00405525 -5.62691e-05 -4.1081e-05
-5.62691e-05 0.000674006 1.09473e-05
-4.1081e-05 1.09473e-05 0.000372285
0.00112355 0.000296209 -1.65124e-05
0.000296209 -0.000146644 1.11747e-05
-1.65124e-05 1.11747e-05 -0.00146361
0.00488526 0.000549495 5.93859e-05
0.000549495 0.00107565 -2.24318e-05
5.93859e-05 -2.24318e-05 0.00115937
0.00178021 0.000138056 9.54786e-06
0.000138056 -0.00124427 -2.01843e-05
9.54786e-06 -2.01843e-05 -0.000552767
0.00296071 -0.000200628 -1.11127e-05
-0.000200628 0.000211089 5.13789e-06
-1.11127e-05 5.13789e-06 -3.60911e-05
0.00554551 0.000179877 3.19962e-05
0.000179877 0.0016521 -2.74984e-05
3.19962e-05 -2.74984e-05 0.000213126
0.000857622 8.09495e-05 -9.8432e-06
8.09495e-05 -0.000555186 5.91016e-06
-9.8432e-06 5.91016e-06 -0.00062746
0.00273536 3.34381e-05 -1.69407e-06
3.34381e-05 -0.000588249 8.32453e-07
-1.69407e-06 8.32453e-07 0.000176822
0.00514945 -0.000481388 8.72835e-06
-0.000481388 0.00121176 -6.05496e-05
8.72835e-06 -6.05496e-05 0.00090424
0.00746758 0.000160975 4.70355e-05
0.000160975 0.00281422 -1.62935e-05
4.70355e-05 -1.62935e-05 0.00115978
-0.000963545 6.32343e-05 1.72367e-05
6.32343e-05 -0.000759891 3.92468e-05
1.72367e-05 3.92468e-05 -0.00100741
0.000559128 -0.000116206 7.94026e-06
-0.000116206 -0.00179919 7.81573e-06
7.94026e-06 7.81573e-06 -0.00111277
0.000955032 -1.80128e-06 2.6312e-08
-1.80128e-06 8.99886e-05 8.70429e-07
2.6312e-08 8.70429e-07 1.19072e-05
0.000903254 -1.22389e-05 3.88536e-08
-1.22389e-05 7.25402e-05 -1.37639e-07
3.88536e-08 -1.37639e-07 -8.91519e-06
0.000906915 -3.95937e-05 -3.04318e-07
-3.95937e-05 7.98458e-05 -3.69895e-07
-3.04318e-07 -3.69895e-07 9.92937e-07
0.000905328 8.16224e-06 -2.75004e-07
8.16224e-06 6.77038e-05 -3.81185e-07
-2.75004e-07 -3.81185e-07 -5.07929e-06
0.00102073 7.36737e-05 1.15991e-06
7.36737e-05 0.000138402 5.82402e-08
1.15991e-06 5.82402e-08 6.42462e-05
0.00106317 5.6973e-05 -7.46422e-08
5.6973e-05 0.000158599 1.69978e-07
-7.46422e-08 1.69978e-07 9.00605e-05
0.00271505 -0.000317076 9.65546e-06
-0.000317076 0.000682496 -2.96387e-06
9.65546e-06 -2.96387e-06 0.000649564
-0.000347969 -3.85878e-05 7.31573e-06
-3.85878e-05 -0.000516414 -4.19732e-06
7.31573e-06 -4.19732e-06 -0.000656363
0.0010685 3.7997e-05 3.34393e-08
3.7997e-05 0.000157522 -7.2048e-07
3.34393e-08 -7.2048e-07 7.4895e-05
0.00130294 -6.82122e-05 2.41154e-06
-6.82122e-05 0.000259052 -5.74584e-06
2.41154e-06 -5.74584e-06 0.000161369
0.00110931 2.3042e-06 -3.85938e-07
2.3042e-06 0.000174378 -1.95213e-06
-3.85938e-07 -1.95213e-06 8.73952e-05
0.000959782 -9.45787e-06 3.44183e-07
-9.45787e-06 8.38554e-05 -2.50054e-07
3.44183e-07 -2.50054e-07 8.97389e-06
0.000950414 4.13693e-05 1.71061e-07
4.13693e-05 8.64261e-05 -2.58596e-08
1.71061e-07 -2.58596e-08 6.97254e-06
0.000864176 -0.00028921 -1.11439e-05
-0.00028921 -2.37544e-05 1.05603e-06
-1.11439e-05 1.05603e-06 -9.76218e-06
0.000889669 -1.90211e-05 8.66237e-07
-1.90211e-05 3.93198e-05 -1.40906e-06
8.66237e-07 -1.40906e-06 -3.43592e-05
0.000968903 1.43396e-05 1.43639e-07
1.43396e-05 0.000333301 -1.78056e-06
1.43639e-07 -1.78056e-06 0.000196999
0.00096214 3.79973e-06 1.30214e-06
3.79973e-06 9.00023e-05 6.18152e-07
1.30214e-06 6.18152e-07 2.02636e-05
-0.00206502 -0.000111557 7.79162e-06
-0.000111557 -0.00101658 -1.32583e-05
7.79162e-06 -1.32583e-05 -0.00126856
0.00100853 6.90553e-07 2.17912e-06
6.90553e-07 0.000299639 1.96835e-05
2.17912e-06 1.96835e-05 0.000268649
0.000985964 -1.69864e-05 6.36035e-07
-1.69864e-05 0.000103496 3.12058e-06
6.36035e-07 3.12058e-06 3.11039e-05
0.00118674 1.72957e-06 -5.46292e-07
1.72957e-06 0.0003718 2.18437e-07
-5.46292e-07 2.18437e-07 0.000297381
0.000915447 1.77273e-06 3.97402e-07
1.77273e-06 8.8876e-05 5.71062e-07
3.97402e-07 5.71062e-07 2.18984e-05
0.00115407 -1.00675e-05 4.20876e-05
-1.00675e-05 -9.62719e-05 3.80726e-07
4.20876e-05 3.80726e-07 -0.000228704
0.000666358 7.60174e-05 7.16018e-06
7.60174e-05 7.87683e-05 8.58721e-06
7.16018e-06 8.58721e-06 2.5364e-05
0.00134454 0.000183845 8.64503e-06
0.000183845 0.000511841 -1.45964e-05
8.64503e-06 -1.45964e-05 0.000404449
0.00100766 5.74847e-07 -3.76757e-06
5.74847e-07 6.78095e-05 -3.33627e-06
-3.76757e-06 -3.33627e-06 1.94122e-05
0.00259273 0.000115818 -3.31521e-05
0.000115818 0.000244117 -3.47315e-06
-3.31521e-05 -3.47315e-06 -0.000943057
-0.00397015 2.25506e-05 -2.06481e-05
2.25506e-05 -0.00272941 5.04936e-05
-2.06481e-05 5.04936e-05 -0.00296006
0.000839555 1.66624e-06 -8.38277e-07
1.66624e-06 -0.000225021 1.00414e-05
-8.38277e-07 1.00414e-05 -0.000278732
0.00185117 0.00012423 -7.67312e-06
0.00012423 -0.00111674 1.988e-05
-7.67312e-06 1.988e-05 -0.00048159
0.000308488 3.60312e-05 -3.1674e-06
3.60312e-05 7.4343e-05 -3.51667e-06
-3.1674e-06 -3.51667e-06 8.97359e-06
0.000906882 1.84465e-06 -1.45747e-06
1.84465e-06 0.000123072 1.28302e-06
-1.45747e-06 1.28302e-06 5.83386e-05
0.00145516 1.66859e-05 4.6631e-06
1.66859e-05 -3.11394e-05 -2.72765e-06
4.6631e-06 -2.72765e-06 -0.000100871
0.00197256 0.000297566 5.29943e-05
0.000297566 0.000195771 1.42661e-06
5.29943e-05 1.42661e-06 0.000129354
0.00194925 0.000302543 2.78223e-06
0.000302543 -0.000800144 -7.6256e-06
2.78223e-06 -7.6256e-06 -6.21402e-05
0.000791526 9.61759e-05 1.02608e-05
9.61759e-05 -0.000642517 -7.46477e-06
1.02608e-05 -7.46477e-06 -0.00063776
0.00725653 0.000175312 1.47218e-05
0.000175312 0.00276984 -1.84127e-05
1.47218e-05 -1.84127e-05 0.00120699
-0.000437675 8.38165e-06 -2.76375e-05
8.38165e-06 -6.08889e-05 -1.42778e-05
-2.76375e-05 -1.42778e-05 -0.000209473
0.00113948 5.75666e-06 -1.51441e-06
5.75666e-06 0.00012219 4.41819e-07
-1.51441e-06 4.41819e-07 5.5351e-05
0.00182826 4.38719e-05 5.32387e-05
4.38719e-05 -2.00215e-05 -2.72204e-05
5.32387e-05 -2.72204e-05 -0.00012549
0.00179448 0.000515944 1.91916e-05
0.000515944 0.000247325 -4.20778e-06
1.91916e-05 -4.20778e-06 0.00117077
-0.00470073 0.00026276 6.93364e-05
0.00026276 -0.00343576 -1.51026e-05
6.93364e-05 -1.51026e-05 -0.00319647
0.00779502 0.000229278 2.03358e-05
0.000229278 0.00276333 -4.75171e-05
2.03358e-05 -4.75171e-05 0.00104882
0.00307272 -8.63124e-05 -1.20765e-06
-8.63124e-05 0.000527655 0.000101439
-1.20765e-06 0.000101439 0.0004935
0.0015217 8.9016e-06 -7.02003e-06
8.9016e-06 0.000442371 9.22678e-06
-7.02003e-06 9.22678e-06 0.000395273
0.000140731 -3.80723e-05 2.5714e-06
-3.80723e-05 -0.000108584 1.62638e-06
2.5714e-06 1.62638e-06 -0.00022067
0.000428917 -6.35992e-05 3.69185e-06
-6.35992e-05 9.09111e-05 -5.30868e-06
3.69185e-06 -5.30868e-06 -7.52113e-05
0.000912827 -2.56823e-05 -2.9877e-07
-2.56823e-05 5.24175e-05 -4.51566e-07
-2.9877e-07 -4.51566e-07 -1.19014e-05
0.000617787 -2.07962e-05 -5.95593e-07
-2.07962e-05 -9.18409e-05 3.03103e-06
-5.95593e-07 3.03103e-06 -0.000132627
0.00074442 -1.26915e-05 2.30007e-07
-1.26915e-05 5.6534e-05 1.84486e-07
2.30007e-07 1.84486e-07 -3.32566e-05
0.000879942 -9.69843e-05 6.25474e-06
-9.69843e-05 0.000214357 -1.73569e-06
6.25474e-06 -1.73569e-06 2.62985e-05
0.00126168 -3.56526e-05 -1.06591e-06
-3.56526e-05 0.000262163 -8.47399e-08
-1.06591e-06 -8.47399e-08 0.000183625
0.00114348 -9.00207e-05 6.65162e-07
-9.00207e-05 0.000258537 4.19023e-07
6.65162e-07 4.19023e-07 0.000127485
0.00100378 -0.000113969 2.50364e-06
-0.000113969 0.000190212 3.56669e-06
2.50364e-06 3.56669e-06 -8.25666e-06
0.000508167 -5.11146e-05 -9.09569e-07
-5.11146e-05 -9.42409e-05 -1.76675e-06
-9.09569e-07 -1.76675e-06 -0.000198517
0.00108254 -0.000113044 -4.91046e-07
-0.000113044 0.00018847 1.14721e-07
-4.91046e-07 1.14721e-07 3.65613e-05
0.00167775 -0.000156673 -1.16406e-06
-0.000156673 0.000436771 2.30063e-06
-1.16406e-06 2.30063e-06 0.00026156
0.0015799 -0.000150947 -4.20374e-06
-0.000150947 0.000341328 2.72578e-06
-4.20374e-06 2.72578e-06 0.00018822
0.000757975 -9.60207e-05 -1.59547e-06
-9.60207e-05 -2.02905e-05 2.61223e-06
-1.59547e-06 2.61223e-06 -0.000139984
0.00104353 -0.000113134 -1.27833e-06
-0.000113134 0.000111488 8.64864e-07
-1.27833e-06 8.64864e-07 -2.75362e-05
0.000959596 -0.000101942 -1.03157e-06
-0.000101942 0.000102449 -1.33084e-06
-1.03157e-06 -1.33084e-06 -2.98388e-05
0.00117741 -0.000109437 5.9397e-07
-0.000109437 0.000219807 -8.93331e-07
5.9397e-07 -8.93331e-07 0.000112486
0.00108384 -0.000106023 1.86576e-06
-0.000106023 0.000174428 -9.00388e-07
1.86576e-06 -9.00388e-07 6.23758e-05
0.000740581 -3.64543e-05 -8.99322e-08
-3.64543e-05 -2.80472e-06 1.46689e-06
-8.99322e-08 1.46689e-06 -9.40143e-05
0.000887349 -7.80218e-05 4.92303e-07
-7.80218e-05 8.61679e-05 -1.63719e-07
4.92303e-07 -1.63719e-07 -1.83998e-05
0.000956439 -9.78419e-05 3.66285e-06
-9.78419e-05 0.000111756 -2.68049e-06
3.66285e-06 -2.68049e-06 -3.5738e-06
0.000869819 3.23809e-05 -1.63019e-07
3.23809e-05 4.78532e-05 1.41495e-06
-1.63019e-07 1.41495e-06 -1.70285e-05
0.00094147 -2.27132e-05 -1.74585e-07
-2.27132e-05 9.29154e-05 -1.42644e-08
-1.74585e-07 -1.42644e-08 1.32485e-05
0.00108917 -6.98541e-05 1.2176e-07
-6.98541e-05 0.000179724 -6.53221e-07
1.2176e-07 -6.53221e-07 8.24673e-05
0.00079582 3.68768e-05 -1.01848e-06
3.68768e-05 6.10229e-06 1.84426e-06
-1.01848e-06 1.84426e-06 -3.14622e-05
0.000854326 2.47271e-05 -1.02542e-07
2.47271e-05 3.54672e-05 -1.31333e-07
-1.02542e-07 -1.31333e-07 -2.1084e-05
0.0007399 -2.89877e-06 3.67481e-07
-2.89877e-06 -1.70316e-05 -1.11688e-06
3.67481e-07 -1.11688e-06 -9.02526e-05
0.000860728 1.47067e-05 4.48493e-07
1.47067e-05 3.56007e-05 -1.2353e-06
4.48493e-07 -1.2353e-06 -1.5459e-05
0.000807156 3.4013e-05 1.87508e-09
3.4013e-05 6.61513e-06 -3.01947e-08
1.87508e-09 -3.01947e-08 -2.74394e-05
0.000722742 3.30563e-05 -1.76713e-06
3.30563e-05 -3.71115e-05 3.34567e-06
-1.76713e-06 3.34567e-06 -4.4624e-05
0.000818311 2.77617e-05 9.09361e-07
2.77617e-05 6.62571e-06 -1.76459e-06
9.09361e-07 -1.76459e-06 -2.49318e-05
0.000751506 2.92815e-05 9.34361e-08
2.92815e-05 -2.94992e-05 -2.48897e-09
9.34361e-08 -2.48897e-09 -3.48846e-05
0.00210687 4.08152e-05 -1.93321e-05
4.08152e-05 0.000702547 3.54599e-06
-1.93321e-05 3.54599e-06 0.000720886
0.000768562 2.50926e-05 1.26628e-06
2.50926e-05 -2.70846e-05 -3.22259e-06
1.26628e-06 -3.22259e-06 -3.08019e-05
0.00151134 3.07057e-05 7.83689e-06
3.07057e-05 0.000376053 -1.00508e-06
7.83689e-06 -1.00508e-06 0.000392749
0.00210302 2.82891e-05 1.46541e-05
2.82891e-05 0.000689967 -3.74343e-06
1.46541e-05 -3.74343e-06 0.000710627
0.000859485 1.28817e-05 -5.10971e-07
1.28817e-05 3.1918e-05 -4.8572e-07
-5.10971e-07 -4.8572e-07 -2.19592e-05
0.000800285 -1.89056e-05 -6.5766e-07
-1.89056e-05 -5.49206e-06 -1.39685e-06
-6.5766e-07 -1.39685e-06 -3.82239e-05
0.000783934 1.02263e-05 -6.75331e-07
1.02263e-05 -5.08944e-06 -4.88143e-07
-6.75331e-07 -4.88143e-07 -5.92943e-05
0.000777504 -2.12486e-05 -5.37854e-07
-2.12486e-05 -2.53847e-05 -3.17274e-06
-5.37854e-07 -3.17274e-06 -2.88515e-05
0.000700283 -1.68562e-05 -9.92483e-08
-1.68562e-05 -6.05388e-05 -6.05224e-07
-9.92483e-08 -6.05224e-07 -9.18113e-05
0.000957654 -4.75306e-06 -1.79355e-08
-4.75306e-06 8.79897e-05 -6.98464e-08
-1.79355e-08 -6.98464e-08 3.62881e-05
0.00208755 -2.16786e-05 -1.14809e-05
-2.16786e-05 0.000677963 -3.95091e-06
-1.14809e-05 -3.95091e-06 0.000699552
0.000772218 -1.58914e-05 -1.39138e-07
-1.58914e-05 -3.33276e-05 -1.75472e-08
-1.39138e-07 -1.75472e-08 -3.44245e-05
0.000584832 -1.32159e-05 7.35414e-08
-1.32159e-05 -0.000124569 7.41445e-07
7.35414e-08 7.41445e-07 -0.000153998
0.00203651 -1.41747e-05 -1.9362e-06
-1.41747e-05 0.00064656 3.09039e-08
-1.9362e-06 3.09039e-08 0.000669481
0.000769919 -1.05465e-05 3.7737e-07
-1.05465e-05 -3.84986e-05 3.06876e-06
3.7737e-07 3.06876e-06 -3.77196e-05
0.00201316 -6.75669e-06 3.11351e-06
-6.75669e-06 0.00063162 4.00288e-06
3.11351e-06 4.00288e-06 0.00065527
0.0011088 3.14461e-06 2.22302e-06
3.14461e-06 0.000235699 -7.58067e-06
2.22302e-06 -7.58067e-06 0.000170275
0.0010654 7.40236e-06 -9.51338e-07
7.40236e-06 7.70547e-05 7.71267e-07
-9.51338e-07 7.71267e-07 1.53706e-05
0.00121148 5.22795e-06 2.84031e-05
5.22795e-06 -0.000120176 9.74324e-07
2.84031e-05 9.74324e-07 -0.000245345
0.000828297 -3.62895e-05 4.76383e-08
-3.62895e-05 1.72836e-05 -3.35053e-07
4.76383e-08 -3.35053e-07 -4.7908e-05
0.000968186 -1.41554e-05 -1.72004e-07
-1.41554e-05 9.78067e-05 -4.44474e-07
-1.72004e-07 -4.44474e-07 2.67424e-05
0.000942448 1.78038e-05 1.12142e-06
1.78038e-05 8.45049e-05 -1.01668e-07
1.12142e-06 -1.01668e-07 1.96029e-05
0.000842504 -1.99304e-05 2.38695e-08
-1.99304e-05 2.5623e-05 2.26949e-08
2.38695e-08 2.26949e-08 -3.93077e-05
0.000914618 8.37433e-06 1.23105e-08
8.37433e-06 7.25945e-05 3.10333e-07
1.23105e-08 3.10333e-07 4.469e-07
0.000949949 1.64849e-06 -7.19925e-07
1.64849e-06 8.93004e-05 2.39582e-07
-7.19925e-07 2.39582e-07 1.82212e-05
0.000918108 8.87778e-05 2.81573e-07
8.87778e-05 8.2218e-05 9.04739e-07
2.81573e-07 9.04739e-07 2.21407e-06
0.00135961 3.49202e-07 8.4462e-06
3.49202e-07 -5.88794e-05 3.03919e-05
8.4462e-06 3.03919e-05 -0.000130038
0.00134237 1.39203e-05 5.47776e-07
1.39203e-05 1.72168e-05 7.65651e-06
5.47776e-07 7.65651e-06 -4.28499e-05
0.00118329 2.35689e-05 6.08784e-07
2.35689e-05 -0.000222765 -1.24322e-05
6.08784e-07 -1.24322e-05 -0.000280524
0.00117591 2.08441e-05 1.55353e-06
2.08441e-05 -0.00161469 -1.64904e-05
1.55353e-06 -1.64904e-05 -0.000827388
0.00143496 -0.000205059 -4.0562e-05
-0.000205059 -0.00070787 6.12945e-05
-4.0562e-05 6.12945e-05 -0.00109797
0.00189663 0.000102539 4.08045e-05
0.000102539 8.43863e-05 -1.9666e-05
4.08045e-05 -1.9666e-05 -0.00130952
0.00477598 0.000393352 3.03382e-05
0.000393352 0.00153226 -2.40719e-05
3.03382e-05 -2.40719e-05 0.0010972
0.00221606 -0.000343986 -2.38167e-05
-0.000343986 -0.000204784 8.42188e-06
-2.38167e-05 8.42188e-06 -0.0006964
0.00230688 -0.000114301 4.07362e-05
-0.000114301 0.000101126 -3.81664e-05
4.07362e-05 -3.81664e-05 -0.00134553
0.00359852 1.51663e-05 -1.81096e-05
1.51663e-05 0.000849718 1.46717e-06
-1.81096e-05 1.46717e-06 0.000562038
0.00369662 -0.000160424 -4.36851e-06
-0.000160424 0.000174554 -1.20877e-05
-4.36851e-06 -1.20877e-05 0.000876425
0.00331466 -0.000268152 -7.20578e-06
-0.000268152 0.000549579 -9.04214e-06
-7.20578e-06 -9.04214e-06 0.000554654
0.00280974 -0.000346684 2.00736e-05
-0.000346684 -0.000304352 -8.14417e-05
2.00736e-05 -8.14417e-05 -0.00124718
-0.00180714 -0.000172011 4.21423e-05
-0.000172011 -0.00234225 2.67782e-05
4.21423e-05 2.67782e-05 -0.00261664
0.000632696 -0.000219169 2.89676e-05
-0.000219169 -0.00145421 1.64676e-06
2.89676e-05 1.64676e-06 -0.000728971
0.00104763 -4.3985e-05 -3.93881e-08
-4.3985e-05 0.000132079 1.52464e-06
-3.93881e-08 1.52464e-06 6.10369e-05
0.000857221 -6.65144e-07 9.28969e-08
-6.65144e-07 3.84049e-05 -5.49729e-08
9.28969e-08 -5.49729e-08 -3.95689e-05
0.000851995 -2.53476e-06 -4.94635e-07
-2.53476e-06 4.75076e-05 -1.20981e-06
-4.94635e-07 -1.20981e-06 -3.50814e-05
0.000906187 2.13801e-05 -7.32494e-08
2.13801e-05 6.92814e-05 -1.23364e-06
-7.32494e-08 -1.23364e-06 -4.23446e-06
0.00418398 -0.000352517 8.16546e-06
-0.000352517 0.00164746 4.22563e-06
8.16546e-06 4.22563e-06 0.00162417
0.00086559 3.15303e-06 5.53688e-06
3.15303e-06 0.000306508 -8.51262e-06
5.53688e-06 -8.51262e-06 0.000189378
0.000821808 -2.5695e-05 2.54977e-08
-2.5695e-05 6.15682e-06 -1.51808e-06
2.54977e-08 -1.51808e-06 -6.77969e-05
0.000916747 3.97404e-05 3.7512e-07
3.97404e-05 7.44655e-05 -1.69027e-06
3.7512e-07 -1.69027e-06 -6.95269e-06
0.00133342 -1.08152e-06 1.3854e-06
-1.08152e-06 0.000280836 -6.61073e-06
1.3854e-06 -6.61073e-06 0.000205949
0.000914644 -7.0037e-07 -1.38622e-08
-7.0037e-07 6.2817e-05 1.02226e-07
-1.38622e-08 1.02226e-07 -6.9724e-06
0.000899399 -1.04899e-05 -1.34988e-06
-1.04899e-05 6.21848e-05 -2.42191e-07
-1.34988e-06 -2.42191e-07 -1.31423e-05
0.000270276 -0.000131233 -6.44822e-06
-0.000131233 0.000155306 -5.17451e-06
-6.44822e-06 -5.17451e-06 -8.03744e-05
0.00101514 -1.24145e-05 1.21329e-06
-1.24145e-05 0.000318272 5.10304e-06
1.21329e-06 5.10304e-06 0.000294078
0.000887327 -1.4528e-05 1.26878e-06
-1.4528e-05 6.23343e-05 -7.43266e-07
1.26878e-06 -7.43266e-07 -7.11224e-06
0.0003339 3.1116e-05 -9.71011e-06
3.1116e-05 0.000635708 -2.66408e-05
-9.71011e-06 -2.66408e-05 -2.18176e-05
0.0015068 -4.14728e-05 1.65176e-07
-4.14728e-05 0.000560996 1.38039e-05
1.65176e-07 1.38039e-05 0.000486333
0.00129107 1.02749e-07 -7.08177e-06
1.02749e-07 0.000294929 -1.41736e-06
-7.08177e-06 -1.41736e-06 0.000227499
0.000802992 1.69994e-06 -4.24512e-08
1.69994e-06 0.000129425 1.14393e-07
-4.24512e-08 1.14393e-07 4.58197e-05
0.000564689 2.50589e-06 -4.66781e-06
2.50589e-06 -0.000100037 1.7456e-06
-4.66781e-06 1.7456e-06 -0.000170406
0.00140814 4.89085e-05 1.23028e-06
4.89085e-05 0.000600161 5.58316e-06
1.23028e-06 5.58316e-06 0.000552132
0.00173343 0.000190293 -6.60908e-05
0.000190293 0.000403804 1.16785e-05
-6.60908e-05 1.16785e-05 0.000451825
0.00058514 1.19254e-06 -2.77405e-06
1.19254e-06 -6.08225e-05 -5.0807e-06
-2.77405e-06 -5.0807e-06 -0.000130598
0.00308022 0.000193234 5.96638e-05
0.000193234 0.000609207 -8.17376e-05
5.96638e-05 -8.17376e-05 -0.00082647
0.00480827 0.000421497 -3.28655e-05
0.000421497 0.00151687 2.94619e-05
-3.28655e-05 2.94619e-05 0.00116474
0.00117325 1.31301e-05 -1.05772e-06
1.31301e-05 -0.000222159 1.21654e-05
-1.05772e-06 1.21654e-05 -0.000290313
0.00303547 0.000311336 -3.4601e-05
0.000311336 -3.98499e-05 2.34585e-05
-3.4601e-05 2.34585e-05 0.000620009
-0.000376218 -2.40928e-05 2.56055e-05
-2.40928e-05 -2.99417e-05 -3.24034e-06
2.56055e-05 -3.24034e-06 -0.000188794
0.00106922 5.06886e-06 1.47659e-06
5.06886e-06 7.80469e-05 -1.03748e-06
1.47659e-06 -1.03748e-06 1.44506e-05
0.00160598 3.50105e-05 1.43547e-05
3.50105e-05 -0.000147403 -5.32157e-06
1.43547e-05 -5.32157e-06 -0.000286717
0.00187246 -2.30916e-05 -1.27547e-05
-2.30916e-05 5.64223e-05 2.25953e-05
-1.27547e-05 2.25953e-05 0.000162336
-6.46657e-05 0.000543242 -2.88501e-06
0.000543242 -0.00103664 5.30053e-06
-2.88501e-06 5.30053e-06 0.000107985
0.00341602 0.000477516 1.93187e-06
0.000477516 0.000149602 2.34055e-06
1.93187e-06 2.34055e-06 0.000340524
0.00234419 -9.65384e-05 3.92886e-05
-9.65384e-05 0.000284708 -1.76273e-05
3.92886e-05 -1.76273e-05 -0.00151995
0.000887542 -7.4782e-05 3.28982e-05
-7.4782e-05 0.000355855 -7.58931e-06
3.28982e-05 -7.58931e-06 0.000293041
0.00102951 8.53635e-06 2.74029e-05
8.53635e-06 -0.000232521 -7.95336e-06
2.74029e-05 -7.95336e-06 -0.000379048
-0.00112926 0.000244141 9.10474e-06
0.000244141 -0.000681796 -1.27408e-05
9.10474e-06 -1.27408e-05 -0.000536312
0.000111534 0.000483695 3.98165e-05
0.000483695 -0.000193586 1.97382e-06
3.98165e-05 1.97382e-06 0.000166841
0.00901213 0.000516388 2.54869e-05
0.000516388 0.00320445 -4.88561e-05
2.54869e-05 -4.88561e-05 0.00171404
0.00291351 -0.000295667 -5.92737e-05
-0.000295667 0.000290911 8.61995e-05
-5.92737e-05 8.61995e-05 -0.000122988
0.000224235 -4.37117e-05 -7.06698e-06
-4.37117e-05 -7.06555e-05 9.02855e-06
-7.06698e-06 9.02855e-06 -0.000194547
0.000410728 -3.24346e-05 -2.51706e-07
-3.24346e-05 9.1756e-05 -5.18317e-07
-2.51706e-07 -5.18317e-07 -7.67495e-05
0.00152107 -0.000158273 1.31369e-05
-0.000158273 0.000505928 -4.25563e-06
1.31369e-05 -4.25563e-06 0.000371369
0.000684985 1.5546e-05 -2.67025e-06
1.5546e-05 2.93388e-05 -9.90816e-07
-2.67025e-06 -9.90816e-07 -5.17104e-05
0.000347277 -5.4919e-05 9.61748e-07
-5.4919e-05 -3.62532e-05 -9.67297e-07
9.61748e-07 -9.67297e-07 -0.000228777
0.0011334 -0.000130144 5.57817e-06
-0.000130144 0.000225642 4.97261e-06
5.57817e-06 4.97261e-06 2.53015e-05
0.00166182 -0.000136005 -1.84984e-06
-0.000136005 0.000508717 -7.10765e-07
-1.84984e-06 -7.10765e-07 0.000372008
0.00124957 -0.000125241 3.19924e-07
-0.000125241 0.000301542 1.20133e-06
3.19924e-07 1.20133e-06 0.000103862
0.00123185 -0.000150721 -9.92933e-07
-0.000150721 0.000173959 3.60007e-07
-9.92933e-07 3.60007e-07 -1.92966e-05
0.00115502 -0.000114877 -1.26334e-06
-0.000114877 0.000225746 -2.0308e-06
-1.26334e-06 -2.0308e-06 6.93238e-05
0.00159982 -0.000152819 3.20447e-07
-0.000152819 0.000388361 3.45987e-07
3.20447e-07 3.45987e-07 0.000214661
0.0012808 -0.000147452 -9.76078e-07
-0.000147452 0.000154706 -8.9307e-07
-9.76078e-07 -8.9307e-07 -1.86411e-05
0.0014813 -0.000148417 -2.80591e-06
-0.000148417 0.000217511 -1.38857e-06
-2.80591e-06 -1.38857e-06 6.88517e-05
0.00169712 -0.000149636 -4.72718e-06
-0.000149636 0.000412272 4.1633e-06
-4.72718e-06 4.1633e-06 0.000274137
0.0014238 -0.000144829 -8.97612e-07
-0.000144829 0.000256792 5.21484e-07
-8.97612e-07 5.21484e-07 0.000100715
0.000632327 -8.69134e-05 4.70625e-08
-8.69134e-05 -8.82229e-05 -2.7589e-07
4.70625e-08 -2.7589e-07 -0.000196282
0.000870198 -0.000100877 1.6277e-06
-0.000100877 3.82392e-05 -4.63474e-07
1.6277e-06 -4.63474e-07 -8.06329e-05
0.000966874 -0.000110606 1.42222e-06
-0.000110606 7.02946e-05 -2.14869e-06
1.42222e-06 -2.14869e-06 -7.00454e-05
0.00102859 -9.67427e-05 -1.71758e-07
-9.67427e-05 0.000139038 6.0653e-07
-1.71758e-07 6.0653e-07 3.66722e-05
0.00112781 -0.000106385 -1.86478e-07
-0.000106385 0.00019509 -4.4139e-07
-1.86478e-07 -4.4139e-07 8.74495e-05
0.00080153 -9.09683e-05 3.46433e-06
-9.09683e-05 2.89121e-05 -3.45905e-07
3.46433e-06 -3.45905e-07 -7.94618e-05
0.000839823 1.24818e-05 3.13456e-07
1.24818e-05 3.83423e-05 1.44509e-06
3.13456e-07 1.44509e-06 -3.85768e-05
0.000846278 -4.09853e-05 4.5136e-08
-4.09853e-05 5.28953e-05 5.21739e-07
4.5136e-08 5.21739e-07 -3.77885e-05
0.00111074 -8.51881e-05 1.22462e-06
-8.51881e-05 0.000201975 -1.43124e-06
1.22462e-06 -1.43124e-06 9.80376e-05
0.000780286 4.71084e-05 -8.18303e-07
4.71084e-05 3.72652e-06 2.15455e-06
-8.18303e-07 2.15455e-06 -4.06012e-05
0.000853372 1.8788e-05 -1.4552e-07
1.8788e-05 4.03437e-05 -9.56509e-08
-1.4552e-07 -9.56509e-08 -2.54585e-05
0.000948075 -3.10577e-05 3.61255e-07
-3.10577e-05 9.75255e-05 -1.01832e-06
3.61255e-07 -1.01832e-06 1.67755e-05
0.000732684 3.72597e-05 -3.05066e-06
3.72597e-05 -2.47669e-05 4.6306e-06
-3.05066e-06 4.6306e-06 -3.47606e-05
0.000793022 4.19257e-05 1.16969e-07
4.19257e-05 5.59414e-06 -8.2789e-08
1.16969e-07 -8.2789e-08 -3.26678e-05
0.000846302 1.99568e-05 3.43368e-07
1.99568e-05 3.09065e-05 -1.33108e-06
3.43368e-07 -1.33108e-06 -2.54176e-05
0.000805953 3.65101e-05 6.90488e-07
3.65101e-05 6.11667e-06 -1.89293e-06
6.90488e-07 -1.89293e-06 -2.81603e-05
0.000743765 3.37879e-05 4.72742e-08
3.37879e-05 -2.61697e-05 -2.32375e-08
4.72742e-08 -2.32375e-08 -3.37742e-05
0.00212428 4.72021e-05 -2.19937e-05
4.72021e-05 0.000719337 3.41308e-06
-2.19937e-05 3.41308e-06 0.000735945
0.000768323 2.98299e-05 1.5697e-06
2.98299e-05 -2.07341e-05 -3.27568e-06
1.5697e-06 -3.27568e-06 -2.61766e-05
0.00210964 4.11029e-05 1.12013e-06
4.11029e-05 0.000704991 6.99372e-08
1.12013e-06 6.99372e-08 0.000723152
0.00210089 3.48845e-05 1.76579e-05
3.48845e-05 0.000694491 -3.63363e-06
1.76579e-05 -3.63363e-06 0.000713991
0.000900649 6.85199e-06 -1.253e-07
6.85199e-06 6.04837e-05 -6.26404e-07
-1.253e-07 -6.26404e-07 -7.70401e-06
0.000854204 2.58261e-05 -9.4584e-07
2.58261e-05 3.26553e-05 -9.98372e-07
-9.4584e-07 -9.98372e-07 -2.53496e-05
0.000795638 -2.58851e-05 -6.9556e-07
-2.58851e-05 -5.32432e-06 -1.58545e-06
-6.9556e-07 -1.58545e-06 -4.02659e-05
0.000859131 1.32163e-05 -1.36718e-07
1.32163e-05 3.11034e-05 -4.3206e-08
-1.36718e-07 -4.3206e-08 -2.24607e-05
0.000764092 -2.55369e-05 -9.1211e-07
-2.55369e-05 -2.67582e-05 -3.26782e-06
-9.1211e-07 -3.26782e-06 -3.25621e-05
0.000808553 -2.04317e-05 -1.18965e-07
-2.04317e-05 -6.3424e-07 3.34939e-09
-1.18965e-07 3.34939e-09 -3.35058e-05
0.000828693 3.14088e-06 1.38962e-07
3.14088e-06 1.4e-05 -1.85117e-08
1.38962e-07 -1.85117e-08 -3.61201e-05
0.00214029 -2.87046e-05 -1.47853e-05
-2.87046e-05 0.000710967 -3.91266e-06
-1.47853e-05 -3.91266e-06 0.000731081
0.000762018 -2.08478e-05 -1.2138e-07
-2.08478e-05 -3.36437e-05 -1.91644e-08
-1.2138e-07 -1.91644e-08 -3.69913e-05
0.000816486 -1.74024e-05 9.15703e-08
-1.74024e-05 1.07701e-06 8.02004e-07
9.15703e-08 8.02004e-07 -2.9578e-05
0.00207787 -2.13062e-05 -1.83861e-06
-2.13062e-05 0.000672261 4.79221e-08
-1.83861e-06 4.79221e-08 0.000694044
0.000758553 -1.56276e-05 4.05499e-07
-1.56276e-05 -4.06129e-05 3.0938e-06
4.05499e-07 3.0938e-06 -4.16066e-05
0.0020297 -1.3733e-05 6.97473e-06
-1.3733e-05 0.000642502 3.96545e-06
6.97473e-06 3.96545e-06 0.000665567
0.00103429 -3.3676e-06 -4.18496e-07
-3.3676e-06 0.000101328 -3.01065e-06
-4.18496e-07 -3.01065e-06 3.92347e-05
0.000890249 2.45295e-06 1.49837e-06
2.45295e-06 0.000120301 -1.13193e-06
1.49837e-06 -1.13193e-06 4.94553e-05
0.00102433 6.51318e-06 -4.72579e-06
6.51318e-06 5.21068e-05 4.66434e-06
-4.72579e-06 4.66434e-06 -7.00564e-06
0.000861663 -3.61839e-06 -2.64461e-07
-3.61839e-06 3.92331e-05 -1.72132e-08
-2.64461e-07 -1.72132e-08 -2.83202e-05
0.000919991 -1.84606e-05 -1.40235e-07
-1.84606e-05 7.18575e-05 2.64754e-07
-1.40235e-07 2.64754e-07 2.99542e-07
0.000866381 -1.64861e-05 1.76589e-07
-1.64861e-05 4.70963e-05 -1.52056e-06
1.76589e-07 -1.52056e-06 -2.94374e-05
0.000822541 -2.47264e-05 -8.29803e-08
-2.47264e-05 2.09119e-05 -6.34399e-07
-8.29803e-08 -6.34399e-07 -5.00842e-05
0.001024 2.76344e-05 -4.96005e-07
2.76344e-05 0.000135046 -1.44008e-07
-4.96005e-07 -1.44008e-07 5.58419e-05
0.000824913 -2.76854e-05 -6.17071e-08
-2.76854e-05 1.43678e-05 1.32994e-07
-6.17071e-08 1.32994e-07 -4.94567e-05
0.000845386 -1.17307e-05 2.25577e-07
-1.17307e-05 3.27248e-05 -4.23948e-07
2.25577e-07 -4.23948e-07 -3.83583e-05
0.000913294 1.28845e-05 -1.84904e-07
1.28845e-05 7.16463e-05 -5.19094e-08
-1.84904e-07 -5.19094e-08 2.74199e-07
0.000935232 2.47399e-05 1.34794e-07
2.47399e-05 8.20943e-05 3.68418e-07
1.34794e-07 3.68418e-07 5.74612e-06
0.000997071 1.68072e-05 -1.07394e-07
1.68072e-05 0.000121024 5.29637e-07
-1.07394e-07 5.29637e-07 4.52802e-05
0.00180052 -3.42309e-05 3.58266e-05
-3.42309e-05 0.000146877 3.77167e-05
3.58266e-05 3.77167e-05 -2.43568e-05
0.00167047 -3.60426e-07 2.14298e-06
-3.60426e-07 0.000119193 1.18323e-05
2.14298e-06 1.18323e-05 5.20002e-05
0.000934906 1.14189e-05 1.49003e-06
1.14189e-05 -0.000158108 -2.09678e-06
1.49003e-06 -2.09678e-06 -0.000208111
0.00386647 -0.000144991 -1.74798e-05
-0.000144991 0.000434503 -2.9608e-05
-1.74798e-05 -2.9608e-05 0.00112155
-0.00363292 0.00011986 -1.16493e-05
0.00011986 -0.00260255 -3.99464e-05
-1.16493e-05 -3.99464e-05 -0.00290368
0.00187677 -0.000341063 -8.91948e-05
-0.000341063 -0.000383939 7.78067e-05
-8.91948e-05 7.78067e-05 -0.000976013
0.00769451 0.000150371 -3.58154e-05
0.000150371 0.00231203 -4.25191e-05
-3.58154e-05 -4.25191e-05 0.0011618
0.00253245 -0.000285841 -4.19666e-05
-0.000285841 4.39581e-05 4.11814e-05
-4.19666e-05 4.11814e-05 -0.000315403
0.00807845 -0.000167089 3.69808e-05
-0.000167089 0.0027653 -1.06885e-06
3.69808e-05 -1.06885e-06 0.00138383
0.000582795 -0.00019284 1.8418e-05
-0.00019284 -0.000887745 -1.32131e-05
1.8418e-05 -1.32131e-05 -0.00105471
0.000832546 -0.000262223 -1.04454e-05
-0.000262223 -0.00147332 -2.85443e-05
-1.04454e-05 -2.85443e-05 -0.000608862
0.0026852 -0.00011418 -7.60864e-05
-0.00011418 0.000400347 -4.00674e-05
-7.60864e-05 -4.00674e-05 -1.28937e-05
0.00805163 -0.000392306 -1.98594e-05
-0.000392306 0.00228184 5.00623e-05
-1.98594e-05 5.00623e-05 0.00126045
0.00772727 -0.000651346 3.13588e-05
-0.000651346 0.00224962 1.13629e-05
3.13588e-05 1.13629e-05 0.00246104
0.00240441 -0.000437518 1.60822e-05
-0.000437518 0.000125638 8.60323e-07
1.60822e-05 8.60323e-07 0.00114395
0.000806146 1.49374e-05 8.94816e-07
1.49374e-05 3.35866e-05 1.46862e-06
8.94816e-07 1.46862e-06 -3.12931e-05
0.000993499 -3.37582e-05 -1.1841e-07
-3.37582e-05 0.0001078 3.39031e-07
-1.1841e-07 3.39031e-07 3.5349e-05
0.000820899 -1.04199e-06 1.58384e-07
-1.04199e-06 1.83315e-05 -9.78376e-07
1.58384e-07 -9.78376e-07 -5.93035e-05
0.00223723 -0.000141421 1.42364e-05
-0.000141421 0.00112199 9.54792e-07
1.42364e-05 9.54792e-07 0.000916968
0.000753531 -3.41047e-05 -5.40952e-06
-3.41047e-05 0.000201318 -6.46612e-06
-5.40952e-06 -6.46612e-06 0.000181722
0.000858415 -1.16734e-05 -7.13861e-07
-1.16734e-05 3.22101e-05 -2.94687e-07
-7.13861e-07 -2.94687e-07 -3.83164e-05
0.000890806 -4.65707e-05 -1.40912e-06
-4.65707e-05 5.60552e-05 -3.38212e-06
-1.40912e-06 -3.38212e-06 -1.81955e-05
0.000848305 -1.23625e-05 -5.27064e-07
-1.23625e-05 4.16576e-05 -3.93522e-07
-5.27064e-07 -3.93522e-07 -2.68277e-05
0.000504414 -3.59739e-05 1.41974e-06
-3.59739e-05 4.86018e-05 4.80016e-06
1.41974e-06 4.80016e-06 -2.8254e-05
-0.000212637 -9.99298e-06 2.36207e-05
-9.99298e-06 0.000261374 -2.39496e-05
2.36207e-05 -2.39496e-05 -0.000356157
-0.000200395 -1.34798e-05 -2.04918e-06
-1.34798e-05 -0.000335202 5.2167e-06
-2.04918e-06 5.2167e-06 -0.000430423
0.00132146 0.000127369 1.82654e-05
0.000127369 0.000584906 -1.37331e-05
1.82654e-05 -1.37331e-05 0.000261165
0.00137605 -2.68158e-06 2.18988e-05
-2.68158e-06 -6.91661e-08 -3.62676e-07
2.18988e-05 -3.62676e-07 -0.00013561
0.00089072 7.31762e-07 -1.14267e-07
7.31762e-07 7.49126e-05 -5.69017e-07
-1.14267e-07 -5.69017e-07 4.91783e-06
0.000439623 1.58001e-06 3.53384e-07
1.58001e-06 -9.86474e-05 -1.73957e-07
3.53384e-07 -1.73957e-07 -0.000191253
-0.000850635 -3.7761e-05 -2.86626e-05
-3.7761e-05 -0.000219421 1.0888e-05
-2.86626e-05 1.0888e-05 -0.000401954
0.00136778 5.21067e-05 2.61281e-05
5.21067e-05 -0.000370059 -4.39982e-05
2.61281e-05 -4.39982e-05 -0.000549368
0.00100845 4.37828e-06 4.53627e-06
4.37828e-06 4.07703e-05 -5.2198e-06
4.53627e-06 -5.2198e-06 -2.01497e-05
0.0095606 0.000158924 6.49799e-05
0.000158924 0.00334969 7.97512e-06
6.49799e-05 7.97512e-06 0.00170014
0.00536037 0.000642988 -5.08442e-05
0.000642988 0.00134926 2.9889e-05
-5.08442e-05 2.9889e-05 0.00146019
0.00135773 2.8861e-05 -2.53788e-05
2.8861e-05 -0.000288582 2.11538e-05
-2.53788e-05 2.11538e-05 -0.00046706
-0.0019375 0.000575042 -1.24516e-05
0.000575042 -0.00233372 -2.03619e-05
-1.24516e-05 -2.03619e-05 -0.000973992
0.000278463 -4.13595e-05 -8.60496e-06
-4.13595e-05 9.68479e-05 -8.86082e-07
-8.60496e-06 -8.86082e-07 5.89203e-06
0.00113965 3.98994e-06 3.3561e-07
3.98994e-06 -0.000166085 -1.85652e-07
3.3561e-07 -1.85652e-07 -0.000309494
-0.00124422 0.000281891 -3.36745e-05
0.000281891 -0.000704833 1.16882e-05
-3.36745e-05 1.16882e-05 -0.000512307
0.0021365 -0.00026177 -9.99598e-06
-0.00026177 -3.11859e-06 2.85735e-05
-9.99598e-06 2.85735e-05 -0.000262867
0.00385116 0.000678586 8.30655e-06
0.000678586 0.0010747 7.13167e-06
8.30655e-06 7.13167e-06 0.00139714
0.00541 0.000110219 3.68673e-05
0.000110219 0.00136693 -2.08733e-05
3.68673e-05 -2.08733e-05 -0.000229175
0.00261763 -0.000202661 2.70754e-05
-0.000202661 0.000754481 1.23842e-05
2.70754e-05 1.23842e-05 0.000857145
-0.00109751 8.97372e-05 2.96808e-05
8.97372e-05 -0.000350948 -2.26666e-06
2.96808e-05 -2.26666e-06 -0.0005452
0.00253803 0.000493472 1.43627e-05
0.000493472 0.00121772 -3.75016e-06
1.43627e-05 -3.75016e-06 0.00135318
0.00576865 0.000495742 -4.33645e-05
0.000495742 0.00164465 3.81482e-05
-4.33645e-05 3.81482e-05 0.000268395
0.00245244 -0.000412886 -1.34749e-05
-0.000412886 0.000219255 2.41698e-05
-1.34749e-05 2.41698e-05 -0.000363108
0.000514128 -3.64566e-06 -2.23052e-06
-3.64566e-06 0.000146269 5.9113e-06
-2.23052e-06 5.9113e-06 -1.8578e-05
0.000816248 -0.000128646 1.25508e-06
-0.000128646 0.000170543 -2.28021e-06
1.25508e-06 -2.28021e-06 1.2602e-05
0.00212201 -0.000175969 9.47096e-06
-0.000175969 0.000482903 1.45722e-06
9.47096e-06 1.45722e-06 0.000435074
-0.000190804 -1.22794e-05 -1.74405e-06
-1.22794e-05 -0.000291465 7.3264e-07
-1.74405e-06 7.3264e-07 -0.00048704
0.000651775 -0.000104044 3.19809e-06
-0.000104044 -1.1165e-06 -4.3394e-08
3.19809e-06 -4.3394e-08 -0.00020026
0.00103086 -0.000165074 -3.91629e-07
-0.000165074 -5.89828e-05 -2.15991e-07
-3.91629e-07 -2.15991e-07 -0.000214928
0.0014448 -0.000133524 -1.9325e-06
-0.000133524 0.000387625 -1.52035e-06
-1.9325e-06 -1.52035e-06 0.000191278
0.00118986 -0.000147638 -1.21603e-06
-0.000147638 0.000143877 -1.18872e-06
-1.21603e-06 -1.18872e-06 -4.44177e-05
0.00179705 -0.000182844 -1.41069e-06
-0.000182844 0.000306664 -2.54636e-06
-1.41069e-06 -2.54636e-06 0.000162513
0.0014894 -0.000147423 6.32387e-07
-0.000147423 0.000324468 -1.82677e-06
6.32387e-07 -1.82677e-06 0.000152031
0.0012948 -0.000144695 5.06564e-07
-0.000144695 0.00015971 -1.13104e-06
5.06564e-07 -1.13104e-06 -8.71238e-06
0.00151731 -0.000150491 -2.15745e-06
-0.000150491 0.000164424 -3.81213e-06
-2.15745e-06 -3.81213e-06 2.79272e-05
0.00145474 -0.000136163 -2.03036e-06
-0.000136163 0.000127561 -2.52735e-06
-2.03036e-06 -2.52735e-06 9.98246e-07
0.00115754 -0.000127419 -2.77327e-06
-0.000127419 7.9688e-05 2.14288e-07
-2.77327e-06 2.14288e-07 -6.02427e-05
0.00131116 -0.000139419 5.65259e-07
-0.000139419 0.000127556 -8.32405e-07
5.65259e-07 -8.32405e-07 -1.93737e-05
0.0013368 -0.000126286 -2.25616e-06
-0.000126286 0.000240366 2.67903e-06
-2.25616e-06 2.67903e-06 0.000118088
0.00134506 -0.000133693 -1.51911e-07
-0.000133693 0.000230304 7.01366e-07
-1.51911e-07 7.01366e-07 9.04544e-05
0.00125406 -0.000138027 1.67346e-06
-0.000138027 0.000165688 -1.08678e-06
1.67346e-06 -1.08678e-06 6.60932e-06
0.000959765 -9.88764e-05 -5.43713e-07
-9.88764e-05 8.31882e-05 -6.57163e-07
-5.43713e-07 -6.57163e-07 -1.81994e-05
0.000749405 -9.18796e-05 -2.5583e-07
-9.18796e-05 -2.49231e-05 -1.20966e-06
-2.5583e-07 -1.20966e-06 -0.000131817
0.00097258 -0.000105312 4.91114e-06
-0.000105312 9.14488e-05 -3.48151e-06
4.91114e-06 -3.48151e-06 -2.65485e-05
0.000901916 -4.71383e-05 -2.92488e-07
-4.71383e-05 6.71197e-05 1.37321e-06
-2.92488e-07 1.37321e-06 -1.94611e-05
0.00100377 -8.82201e-05 3.21205e-07
-8.82201e-05 0.000126145 5.12227e-07
3.21205e-07 5.12227e-07 2.53082e-05
0.00107008 -0.000102941 7.56886e-07
-0.000102941 0.000166117 5.94095e-07
7.56886e-07 5.94095e-07 5.81941e-05
0.000795447 6.48187e-05 -2.11577e-07
6.48187e-05 1.88491e-05 2.66687e-06
-2.11577e-07 2.66687e-06 -3.66049e-05
0.000873167 8.17835e-07 -1.13083e-09
8.17835e-07 5.69884e-05 -3.75028e-08
-1.13083e-09 -3.75028e-08 -2.12714e-05
0.000957927 -4.92644e-05 -1.5602e-07
-4.92644e-05 0.000111997 -4.85014e-07
-1.5602e-07 -4.85014e-07 2.167e-05
0.00135427 4.89492e-05 -1.29806e-05
4.89492e-05 0.00031776 3.11038e-06
-1.29806e-05 3.11038e-06 0.00030745
0.000773186 4.56811e-05 -9.3174e-10
4.56811e-05 -2.77784e-07 -1.85037e-07
-9.3174e-10 -1.85037e-07 -4.44935e-05
0.000838994 6.03896e-06 5.29982e-07
6.03896e-06 3.39136e-05 -1.48154e-06
5.29982e-07 -1.48154e-06 -3.27933e-05
0.000894052 3.18632e-05 -2.07024e-05
3.18632e-05 6.68139e-05 3.49363e-06
-2.07024e-05 3.49363e-06 7.55065e-05
0.00106675 4.21867e-05 -5.5204e-06
4.21867e-05 0.00015494 3.59307e-07
-5.5204e-06 3.59307e-07 0.000146147
0.000788186 4.65039e-05 3.64328e-07
4.65039e-05 3.77415e-06 -2.10023e-06
3.64328e-07 -2.10023e-06 -3.50289e-05
0.000766026 3.46156e-05 1.76349e-06
3.46156e-05 -1.45773e-05 -3.3417e-06
1.76349e-06 -3.3417e-06 -2.22832e-05
0.00213742 4.7506e-05 8.8679e-07
4.7506e-05 0.000727426 7.16441e-08
8.8679e-07 7.16441e-08 0.000743775
0.00211605 4.13343e-05 2.06255e-05
4.13343e-05 0.000709414 -3.51434e-06
2.06255e-05 -3.51434e-06 0.000727387
0.000834644 -1.02971e-05 1.00058e-08
-1.02971e-05 2.59335e-05 -1.28135e-06
1.00058e-08 -1.28135e-06 -4.49911e-05
0.000860093 4.72375e-06 -4.72007e-07
4.72375e-06 3.51347e-05 -1.3946e-06
-4.72007e-07 -1.3946e-06 -2.47275e-05
0.000894078 -1.16461e-05 6.10011e-09
-1.16461e-05 5.55319e-05 -2.44017e-08
6.10011e-09 -2.44017e-08 -1.20756e-05
0.000790478 -3.80292e-05 -5.1392e-07
-3.80292e-05 -2.70416e-06 -1.926e-06
-5.1392e-07 -1.926e-06 -4.0289e-05
0.000873641 -2.43056e-06 5.05951e-07
-2.43056e-06 4.08758e-05 -9.25103e-08
5.05951e-07 -9.25103e-08 -1.56179e-05
0.000750608 -2.94109e-05 -1.24186e-06
-2.94109e-05 -2.7882e-05 -3.40229e-06
-1.24186e-06 -3.40229e-06 -3.58534e-05
0.000805396 -2.23509e-05 -1.96057e-07
-2.23509e-05 3.94673e-07 1.54681e-08
-1.96057e-07 1.54681e-08 -3.45603e-05
0.000881468 3.20824e-05 9.92261e-07
3.20824e-05 4.76926e-05 6.86869e-07
9.92261e-07 6.86869e-07 -9.02184e-06
0.00219343 -3.53612e-05 -1.85969e-05
-3.53612e-05 0.000744992 -3.83593e-06
-1.85969e-05 -3.83593e-06 0.000763508
0.000751368 -2.51624e-05 -2.51019e-07
-2.51624e-05 -3.33967e-05 -3.96583e-09
-2.51019e-07 -3.96583e-09 -3.91269e-05
0.000824444 -2.03871e-05 3.05721e-07
-2.03871e-05 8.28031e-06 1.42335e-06
3.05721e-07 1.42335e-06 -2.47045e-05
0.00212692 -2.84035e-05 -1.65318e-06
-2.84035e-05 0.000703207 6.17025e-08
-1.65318e-06 6.17025e-08 0.000723539
0.000747719 -2.04898e-05 4.88958e-07
-2.04898e-05 -4.12377e-05 3.15998e-06
4.88958e-07 3.15998e-06 -4.44777e-05
0.00206417 -2.08684e-05 1.02779e-05
-2.08684e-05 0.000664366 3.92024e-06
1.02779e-05 3.92024e-06 0.000686369
0.00158871 -8.3605e-06 2.43085e-05
-8.3605e-06 0.000194686 8.8161e-06
2.43085e-05 8.8161e-06 9.14449e-05
0.000996485 -2.36149e-06 9.34063e-07
-2.36149e-06 7.50767e-05 -6.90716e-08
9.34063e-07 -6.90716e-08 1.40176e-05
0.000683854 1.81742e-06 3.3384e-06
1.81742e-06 1.23952e-05 4.42228e-06
3.3384e-06 4.42228e-06 -6.34204e-05
0.000945098 3.4519e-05 -6.88257e-07
3.4519e-05 9.98107e-05 -8.50242e-08
-6.88257e-07 -8.50242e-08 1.69728e-05
0.000937822 -7.60346e-06 1.34964e-07
-7.60346e-06 7.99065e-05 3.36365e-07
1.34964e-07 3.36365e-07 1.26931e-05
0.00090993 -2.20174e-05 1.10644e-07
-2.20174e-05 6.56564e-05 4.72023e-07
1.10644e-07 4.72023e-07 -6.53346e-06
0.00092194 -2.6985e-05 1.19662e-07
-2.6985e-05 7.32396e-05 -1.69244e-07
1.19662e-07 -1.69244e-07 2.57756e-06
0.000931472 2.06012e-06 1.56992e-07
2.06012e-06 8.20007e-05 -4.02758e-07
1.56992e-07 -4.02758e-07 4.98134e-06
0.000949305 1.72545e-05 -6.98915e-08
1.72545e-05 9.33077e-05 5.07626e-07
-6.98915e-08 5.07626e-07 1.47733e-05
0.000960795 2.43008e-05 -2.54907e-07
2.43008e-05 0.000101838 -1.28119e-06
-2.54907e-07 -1.28119e-06 1.8922e-05
0.00080084 -6.06182e-06 2.55505e-07
-6.06182e-06 1.56878e-05 -1.97841e-08
2.55505e-07 -1.97841e-08 -6.02163e-05
0.000880156 3.62388e-05 3.89072e-07
3.62388e-05 5.81601e-05 -2.2322e-07
3.89072e-07 -2.2322e-07 -1.4938e-05
0.000922715 -3.96173e-05 3.7452e-07
-3.96173e-05 6.7793e-05 -4.6207e-07
3.7452e-07 -4.6207e-07 -5.48493e-06
0.000948427 7.11846e-06 -7.51188e-08
7.11846e-06 9.46596e-05 1.18639e-07
-7.51188e-08 1.18639e-07 1.96665e-05
0.0014231 1.03054e-05 2.5931e-06
1.03054e-05 0.000352004 7.21112e-07
2.5931e-06 7.21112e-07 0.000275636
0.00132406 -0.000278673 4.22649e-05
-0.000278673 0.000416381 3.02657e-05
4.22649e-05 3.02657e-05 0.00066
0.00194446 -2.86797e-05 3.5686e-06
-2.86797e-05 0.00020926 9.77478e-06
3.5686e-06 9.77478e-06 4.09582e-05
0.00188884 -1.43648e-07 -7.24976e-07
-1.43648e-07 0.000233748 -5.46151e-06
-7.24976e-07 -5.46151e-06 0.000168894
0.00334213 -0.000322643 -4.05377e-05
-0.000322643 -4.41278e-05 -3.33748e-05
-4.05377e-05 -3.33748e-05 0.000939847
0.00431144 -0.000276856 -3.4953e-06
-0.000276856 0.000504799 -5.15667e-05
-3.4953e-06 -5.15667e-05 0.000306721
0.00288814 -4.8054e-05 -0.000104188
-4.8054e-05 -0.000234599 8.20609e-05
-0.000104188 8.20609e-05 -0.00115339
0.00217607 -0.000290821 -5.97083e-05
-0.000290821 0.000101982 8.96995e-05
-5.97083e-05 8.96995e-05 -0.000243694
0.00270498 -0.000164202 -3.79226e-06
-0.000164202 0.000572391 1.90963e-05
-3.79226e-06 1.90963e-05 0.000307525
0.000227861 -0.00046433 -1.35606e-05
-0.00046433 -0.00102424 -1.81536e-06
-1.35606e-05 -1.81536e-06 9.7683e-05
0.00482006 -0.000118864 1.1349e-05
-0.000118864 0.00115727 4.27292e-05
1.1349e-05 4.27292e-05 -0.000278892
0.000284392 -0.000336204 -3.31621e-06
-0.000336204 -0.00111819 1.01912e-06
-3.31621e-06 1.01912e-06 -0.000821023
0.00293432 0.000136736 -6.83966e-05
0.000136736 0.000493815 -4.13891e-05
-6.83966e-05 -4.13891e-05 0.00032399
0.00908402 -0.00044383 -5.15448e-06
-0.00044383 0.00317389 4.15281e-05
-5.15448e-06 4.15281e-05 0.00197006
-4.22959e-05 -0.000418469 5.32431e-06
-0.000418469 -0.000214634 -1.3762e-05
5.32431e-06 -1.3762e-05 0.000102546
0.000663434 0.000107064 -1.18408e-06
0.000107064 -3.15802e-05 -8.58869e-07
-1.18408e-06 -8.58869e-07 -9.48593e-05
0.00104886 1.65458e-05 2.48722e-06
1.65458e-05 0.000155026 8.57499e-08
2.48722e-06 8.57499e-08 9.16296e-05
0.000932257 -1.54061e-05 -5.75102e-07
-1.54061e-05 7.97221e-05 -6.6386e-07
-5.75102e-07 -6.6386e-07 5.95023e-06
-0.000913926 -2.96795e-05 -2.05756e-05
-2.96795e-05 -0.000190307 -1.97313e-05
-2.05756e-05 -1.97313e-05 -0.000767687
-2.01675e-05 -1.08659e-05 -1.04386e-07
-1.08659e-05 -0.000231604 -5.6768e-06
-1.04386e-07 -5.6768e-06 -0.000310785
0.000719515 9.11634e-06 6.425e-07
9.11634e-06 -2.39745e-05 8.83873e-07
6.425e-07 8.83873e-07 -9.17753e-05
0.000753529 4.71914e-05 1.9007e-06
4.71914e-05 0.000120426 8.15853e-07
1.9007e-06 8.15853e-07 2.26987e-05
0.000633697 8.37036e-05 3.50017e-06
8.37036e-05 0.00016288 -1.45185e-05
3.50017e-06 -1.45185e-05 -8.72525e-05
-0.000782972 8.45501e-05 9.36824e-06
8.45501e-05 -0.000698788 9.68865e-06
9.36824e-06 9.68865e-06 -0.000835901
0.000952773 -1.24791e-05 5.65668e-05
-1.24791e-05 0.000733712 -1.48701e-06
5.65668e-05 -1.48701e-06 0.000565263
0.00123046 -2.97571e-06 -3.06734e-06
-2.97571e-06 -9.99416e-06 -1.09338e-07
-3.06734e-06 -1.09338e-07 -0.000121764
0.000486742 1.52065e-06 5.32923e-06
1.52065e-06 -0.000147549 -2.01745e-06
5.32923e-06 -2.01745e-06 -0.000220735
7.29723e-06 -3.27592e-05 4.21581e-06
-3.27592e-05 -1.71992e-05 4.27312e-06
4.21581e-06 4.27312e-06 -0.00012087
0.00164488 -0.000257438 2.23515e-05
-0.000257438 -0.000281803 -3.44823e-05
2.23515e-05 -3.44823e-05 -0.000444234
0.00128677 -2.3541e-07 -2.67425e-05
-2.3541e-07 -7.30961e-05 -1.71452e-06
-2.67425e-05 -1.71452e-06 -0.000211429
0.00184018 0.000118603 3.29588e-06
0.000118603 -0.000206918 7.465e-06
3.29588e-06 7.465e-06 -0.0015658
-0.00237379 0.000431609 -4.21531e-05
0.000431609 -0.00190052 4.89195e-06
-4.21531e-05 4.89195e-06 -0.00148088
0.00134101 0.00033196 -5.48063e-05
0.00033196 0.000518984 2.81705e-05
-5.48063e-05 2.81705e-05 0.000936137
0.00166794 -0.000164772 -3.70442e-06
-0.000164772 0.000227216 4.35306e-06
-3.70442e-06 4.35306e-06 0.000394183
0.00117525 0.000135784 -1.96478e-06
0.000135784 0.000809611 3.54918e-06
-1.96478e-06 3.54918e-06 0.000818953
-0.00361102 0.000244622 1.1494e-05
0.000244622 -0.00132815 -1.61408e-07
1.1494e-05 -1.61408e-07 -0.00144513
0.00325113 -0.000417636 -7.73833e-06
-0.000417636 0.000602121 1.23541e-05
-7.73833e-06 1.23541e-05 -0.00025667
0.00667005 0.000400559 -1.39986e-05
0.000400559 0.00201362 1.14662e-06
-1.39986e-05 1.14662e-06 0.000770558
0.000214506 -0.000164427 -3.01746e-06
-0.000164427 -0.000466279 7.61806e-06
-3.01746e-06 7.61806e-06 -0.000410268
-0.00512076 0.000119961 4.30581e-06
0.000119961 -0.00247301 -8.89159e-06
4.30581e-06 -8.89159e-06 -0.00241696
0.00665902 0.000373047 -6.60716e-06
0.000373047 0.00225772 4.62077e-06
-6.60716e-06 4.62077e-06 0.00116044
0.00351947 -0.000225588 -1.76331e-05
-0.000225588 8.76501e-05 2.73951e-05
-1.76331e-05 2.73951e-05 -0.000579341
-0.000103853 -8.82563e-05 -9.87851e-06
-8.82563e-05 -0.000253516 2.66755e-07
-9.87851e-06 2.66755e-07 -0.000450066
0.00119013 -0.000136613 -6.21509e-07
-0.000136613 4.15177e-05 4.42743e-08
-6.21509e-07 4.42743e-08 1.82171e-05
0.00179443 -0.000163661 5.50862e-06
-0.000163661 8.77778e-05 -3.38636e-06
5.50862e-06 -3.38636e-06 9.95031e-05
0.000185001 -7.86863e-05 -1.58094e-06
-7.86863e-05 -0.000218269 -3.91297e-06
-1.58094e-06 -3.91297e-06 -0.000418027
0.00127479 -0.000172974 -1.83195e-06
-0.000172974 5.87317e-05 -1.93968e-06
-1.83195e-06 -1.93968e-06 -9.69523e-05
0.00157872 -0.000192519 -3.0512e-06
-0.000192519 1.31302e-05 -2.64381e-06
-3.0512e-06 -2.64381e-06 -9.07542e-05
0.00115419 -0.000145014 -4.66243e-07
-0.000145014 0.000117554 -2.77911e-06
-4.66243e-07 -2.77911e-06 -6.57043e-05
0.0014157 -0.00016469 1.0162e-06
-0.00016469 0.000116278 -7.00309e-07
1.0162e-06 -7.00309e-07 -2.79428e-05
0.00171616 -0.000158376 -2.06407e-06
-0.000158376 0.000143844 -3.77831e-06
-2.06407e-06 -3.77831e-06 3.92826e-05
0.00131161 -0.000142171 5.90229e-07
-0.000142171 0.000165472 -5.04081e-07
5.90229e-07 -5.04081e-07 2.21584e-06
0.00138493 -0.000143785 -3.77931e-07
-0.000143785 9.23599e-05 -6.31213e-07
-3.77931e-07 -6.31213e-07 -4.25074e-05
0.00166126 -0.000136097 -1.5907e-06
-0.000136097 0.000144978 -3.26043e-06
-1.5907e-06 -3.26043e-06 4.28701e-05
0.00166201 -0.00012743 -2.14713e-06
-0.00012743 0.000188035 -2.76693e-06
-2.14713e-06 -2.76693e-06 8.64417e-05
0.00137754 -0.000131978 -2.83001e-06
-0.000131978 0.000126915 -1.45679e-06
-2.83001e-06 -1.45679e-06 4.45662e-08
0.00145735 -0.000133465 7.59573e-07
-0.000133465 0.000129606 3.4869e-07
7.59573e-07 3.4869e-07 5.11463e-06
0.000721687 -0.000101954 -2.6767e-06
-0.000101954 -0.000122863 1.34631e-06
-2.6767e-06 1.34631e-06 -0.000249078
0.00133556 -0.00013389 1.28033e-06
-0.00013389 0.000172137 -1.12176e-06
1.28033e-06 -1.12176e-06 3.36948e-05
0.00112787 -0.00012988 2.82007e-06
-0.00012988 3.08634e-05 -8.16644e-08
2.82007e-06 -8.16644e-08 -0.000114295
0.00102349 -0.000106363 -8.13362e-07
-0.000106363 9.78696e-05 1.18765e-06
-8.13362e-07 1.18765e-06 -9.50847e-06
0.00101134 -0.000110477 5.02714e-07
-0.000110477 7.50347e-05 -2.25146e-07
5.02714e-07 -2.25146e-07 -4.62309e-05
0.000987052 -0.000117394 2.37179e-06
-0.000117394 4.52842e-05 -2.21355e-06
2.37179e-06 -2.21355e-06 -9.62806e-05
0.000972528 -8.42999e-05 -1.79015e-06
-8.42999e-05 8.96896e-05 4.91282e-07
-1.79015e-06 4.91282e-07 -5.92799e-08
0.00104311 -0.000102424 -2.12096e-07
-0.000102424 0.000125376 -4.75503e-07
-2.12096e-07 -4.75503e-07 2.37275e-05
0.000870364 -9.70408e-05 4.34847e-07
-9.70408e-05 4.03538e-05 -1.89454e-06
4.34847e-07 -1.89454e-06 -6.53829e-05
0.000859054 1.68657e-05 -3.82262e-07
1.68657e-05 5.13773e-05 2.99038e-06
-3.82262e-07 2.99038e-06 -1.27861e-05
0.000947025 -4.26032e-05 7.59517e-07
-4.26032e-05 8.99941e-05 3.78552e-07
7.59517e-07 3.78552e-07 3.69115e-06
0.00097409 -7.8329e-05 9.18246e-07
-7.8329e-05 0.000110648 4.74468e-07
9.18246e-07 4.74468e-07 1.13957e-05
0.000668038 4.66558e-05 -2.63257e-06
4.66558e-05 -4.22604e-05 3.94462e-06
-2.63257e-06 3.94462e-06 -6.10893e-05
0.000773654 3.02637e-05 -3.36704e-07
3.02637e-05 3.42389e-06 -2.52884e-07
-3.36704e-07 -2.52884e-07 -4.98756e-05
0.000904215 -1.17508e-05 2.3846e-07
-1.17508e-05 7.42766e-05 -1.66049e-06
2.3846e-07 -1.66049e-06 -5.23445e-06
0.00222609 6.62622e-05 -9.62799e-06
6.62622e-05 0.000792121 1.35796e-06
-9.62799e-06 1.35796e-06 0.000802876
0.000720538 4.25376e-05 1.30508e-07
4.25376e-05 -2.22401e-05 -1.93397e-08
1.30508e-07 -1.93397e-08 -3.66027e-05
0.00076411 4.32243e-05 8.35613e-07
4.32243e-05 -4.9792e-06 -2.3162e-06
8.35613e-07 -2.3162e-06 -4.93198e-05
0.00217831 5.33872e-05 9.12801e-07
5.33872e-05 0.000756814 6.72493e-08
9.12801e-07 6.72493e-08 0.000771272
0.000762596 3.94306e-05 2.07039e-06
3.94306e-05 -8.43768e-06 -3.48541e-06
2.07039e-06 -3.48541e-06 -1.91349e-05
0.00215078 4.76424e-05 2.36543e-05
4.76424e-05 0.000735625 -3.4023e-06
2.36543e-05 -3.4023e-06 0.000751742
0.000964416 3.04458e-05 -3.94071e-07
3.04458e-05 0.00010405 -1.90423e-07
-3.94071e-07 -1.90423e-07 2.75936e-05
0.000863002 -2.4395e-06 7.51288e-08
-2.4395e-06 4.12317e-05 -3.12127e-07
7.51288e-08 -3.12127e-07 -3.04009e-05
0.000857292 -6.09401e-06 -4.10575e-07
-6.09401e-06 3.80407e-05 -1.58637e-06
-4.10575e-07 -1.58637e-06 -2.6857e-05
0.0007801 -4.44141e-05 -6.14791e-07
-4.44141e-05 -3.40228e-06 -2.21595e-06
-6.14791e-07 -2.21595e-06 -4.34425e-05
0.00084514 -1.28067e-05 5.75936e-07
-1.28067e-05 2.79884e-05 -6.4249e-08
5.75936e-07 -6.4249e-08 -3.20598e-05
0.000847967 1.73686e-06 5.08853e-07
1.73686e-06 3.3876e-05 7.91512e-07
5.08853e-07 7.91512e-07 -3.58249e-05
0.000746352 -3.29528e-05 -1.86846e-06
-3.29528e-05 -2.40002e-05 -3.52677e-06
-1.86846e-06 -3.52677e-06 -3.38911e-05
0.000796121 -3.02599e-05 -2.14355e-07
-3.02599e-05 -5.40809e-07 1.29327e-08
-2.14355e-07 1.29327e-08 -3.75544e-05
0.000854698 -9.97162e-06 1.0188e-06
-9.97162e-06 3.09183e-05 9.68683e-07
1.0188e-06 9.68683e-07 -2.5547e-05
0.00223298 -4.17487e-05 -2.19962e-05
-4.17487e-05 0.000772371 -3.73509e-06
-2.19962e-05 -3.73509e-06 0.000789275
0.000737529 -2.88743e-05 -1.67901e-07
-2.88743e-05 -3.45866e-05 6.16486e-09
-1.67901e-07 6.16486e-09 -4.25136e-05
0.000814085 -2.10776e-05 8.06682e-07
-2.10776e-05 5.24625e-06 1.55841e-06
8.06682e-07 1.55841e-06 -2.96711e-05
0.00218172 -3.52083e-05 -1.73655e-06
-3.52083e-05 0.00073811 7.76142e-08
-1.73655e-06 7.76142e-08 0.000756808
0.000735378 -2.47518e-05 6.12845e-07
-2.47518e-05 -4.17569e-05 3.28965e-06
6.12845e-07 3.28965e-06 -4.74058e-05
0.00211418 -2.80097e-05 1.34537e-05
-2.80097e-05 0.000695748 3.88135e-06
1.34537e-05 3.88135e-06 0.000716308
-0.00112424 -0.000116043 3.75669e-05
-0.000116043 -0.000442986 1.04489e-05
3.75669e-05 1.04489e-05 -0.00068317
0.00155274 -1.32445e-05 2.35095e-06
-1.32445e-05 0.000149822 4.20326e-06
2.35095e-06 4.20326e-06 4.84348e-05
0.000980633 -1.43562e-06 4.43965e-06
-1.43562e-06 6.30099e-05 2.84066e-06
4.43965e-06 2.84066e-06 2.93677e-06
0.00092641 1.549e-05 -6.15501e-07
1.549e-05 8.80576e-05 6.06393e-07
-6.15501e-07 6.06393e-07 6.37652e-06
0.00106264 8.80137e-05 -2.88241e-08
8.80137e-05 0.000171739 1.01311e-06
-2.88241e-08 1.01311e-06 7.91416e-05
0.000956393 3.51279e-05 -3.02462e-07
3.51279e-05 0.000107228 2.80925e-07
-3.02462e-07 2.80925e-07 2.02933e-05
0.0010122 -3.18545e-05 2.14139e-07
-3.18545e-05 0.000120711 -3.86469e-07
2.14139e-07 -3.86469e-07 5.03779e-05
0.000954571 1.58624e-05 4.25683e-07
1.58624e-05 9.227e-05 5.43368e-07
4.25683e-07 5.43368e-07 1.68432e-05
0.000822704 -1.62462e-05 -6.95902e-07
-1.62462e-05 2.3009e-05 1.28132e-06
-6.95902e-07 1.28132e-06 -5.33754e-05
0.000829761 8.2979e-06 -4.53166e-07
8.2979e-06 3.37503e-05 -2.06411e-08
-4.53166e-07 -2.06411e-08 -4.50442e-05
0.000895515 1.22255e-05 2.2112e-07
1.22255e-05 6.67346e-05 -2.36137e-08
2.2112e-07 -2.36137e-08 -1.53632e-05
0.00100533 4.72394e-05 8.89432e-07
4.72394e-05 0.000142247 -9.79879e-07
8.89432e-07 -9.79879e-07 5.07078e-05
0.000816661 4.63382e-05 2.06884e-06
4.63382e-05 1.81587e-05 -1.96612e-06
2.06884e-06 -1.96612e-06 -6.13458e-05
0.000919108 3.07829e-05 -1.36199e-07
3.07829e-05 8.15366e-05 -6.07462e-07
-1.36199e-07 -6.07462e-07 4.95773e-06
0.00108224 2.8796e-05 5.70504e-07
2.8796e-05 0.000174924 3.57957e-07
5.70504e-07 3.57957e-07 9.84738e-05
-0.00171014 -0.000290893 1.24733e-05
-0.000290893 -0.000877962 2.49264e-05
1.24733e-05 2.49264e-05 -0.000864609
7.24763e-05 -0.000277891 1.07393e-05
-0.000277891 -0.000175934 3.84102e-06
1.07393e-05 3.84102e-06 -2.82228e-05
0.00194686 -2.7675e-05 -2.90391e-05
-2.7675e-05 0.000181169 -1.81253e-05
-2.90391e-05 -1.81253e-05 1.36608e-05
-0.00195247 -0.000485384 -8.76216e-06
-0.000485384 -0.00218526 1.47858e-05
-8.76216e-06 1.47858e-05 -0.000962693
0.00431911 -0.000512731 -2.5622e-05
-0.000512731 0.00113335 -3.97662e-05
-2.5622e-05 -3.97662e-05 0.00124497
0.00375289 5.07967e-05 3.97005e-05
5.07967e-05 0.000684398 1.76408e-05
3.97005e-05 1.76408e-05 -0.000690562
0.00207206 -0.000151583 -8.21559e-05
-0.000151583 0.000239711 7.90881e-05
-8.21559e-05 7.90881e-05 -0.000370178
0.00307217 0.000110397 -3.6839e-05
0.000110397 0.00044519 -1.06203e-05
-3.6839e-05 -1.06203e-05 0.000144088
0.00307356 -0.000556596 -8.71261e-06
-0.000556596 0.00104252 1.09815e-05
-8.71261e-06 1.09815e-05 0.00119913
0.00215753 -6.21683e-05 1.58416e-05
-6.21683e-05 1.11193e-05 3.2191e-05
1.58416e-05 3.2191e-05 -0.00130532
0.00162494 0.00024038 -9.45942e-05
0.00024038 -9.24325e-06 -8.6946e-05
-9.45942e-05 -8.6946e-05 -0.000608336
0.00279289 0.000159759 -0.000105573
0.000159759 0.000504143 -3.62952e-05
-0.000105573 -3.62952e-05 -0.000838293
0.00234651 0.000251491 1.15954e-05
0.000251491 0.00068313 -7.38475e-06
1.15954e-05 -7.38475e-06 0.000554934
0.00086955 0.000107348 -1.16876e-06
0.000107348 6.7158e-05 -1.55871e-08
-1.16876e-06 -1.55871e-08 5.64111e-06
0.00124227 2.27727e-05 -3.34895e-07
2.27727e-05 0.000253311 -2.05589e-06
-3.34895e-07 -2.05589e-06 0.000189542
1.42383e-05 5.93273e-05 -2.78511e-05
5.93273e-05 -0.000202066 -1.44624e-05
-2.78511e-05 -1.44624e-05 -0.000385181
0.00152049 8.75907e-05 -2.63438e-06
8.75907e-05 0.000481464 -4.36416e-06
-2.63438e-06 -4.36416e-06 0.000381285
0.00110048 0.000174009 1.29774e-05
0.000174009 0.000173729 1.559e-07
1.29774e-05 1.559e-07 5.55303e-05
0.000866146 0.000211574 3.92923e-05
0.000211574 -0.000279463 2.51655e-05
3.92923e-05 2.51655e-05 -0.000334331
-0.00322752 -1.67097e-05 -1.09869e-05
-1.67097e-05 -0.00163258 -8.40846e-06
-1.09869e-05 -8.40846e-06 -0.00132832
-4.49814e-05 -2.77357e-06 8.57731e-06
-2.77357e-06 0.000264029 1.0139e-06
8.57731e-06 1.0139e-06 6.19501e-05
0.00107142 -4.78682e-06 -1.92733e-05
-4.78682e-06 -2.91137e-05 2.94641e-07
-1.92733e-05 2.94641e-07 -0.000116161
0.000783375 -0.000149741 -3.42049e-05
-0.000149741 -0.000217712 -1.02585e-05
-3.42049e-05 -1.02585e-05 -5.86082e-05
0.00374701 -0.00047385 -5.54606e-05
-0.00047385 0.000749017 -4.85436e-06
-5.54606e-05 -4.85436e-06 0.000101701
0.0010357 0.000108944 -3.94814e-05
0.000108944 0.000797603 9.22984e-06
-3.94814e-05 9.22984e-06 0.000771639
0.0010665 0.000249433 2.72669e-05
0.000249433 -0.000217967 -4.25203e-05
2.72669e-05 -4.25203e-05 -0.00168895
0.0070418 0.000478674 -9.09352e-05
0.000478674 0.00350964 1.41931e-05
-9.09352e-05 1.41931e-05 0.0035515
0.00127641 -0.000237202 9.6822e-06
-0.000237202 -3.03993e-06 1.1441e-06
9.6822e-06 1.1441e-06 7.02756e-07
-0.000954961 0.000220149 -1.33368e-05
0.000220149 -0.000292945 -2.59865e-06
-1.33368e-05 -2.59865e-06 -0.000315419
0.00235051 0.000239027 -9.17699e-06
0.000239027 0.000171791 1.43917e-05
-9.17699e-06 1.43917e-05 -0.00112832
0.00394579 -0.000189772 9.43547e-07
-0.000189772 0.000730403 6.2395e-06
9.43547e-07 6.2395e-06 0.000165499
-0.0001266 -0.000119027 -4.05044e-06
-0.000119027 -0.000559846 -7.369e-06
-4.05044e-06 -7.369e-06 -0.000674033
0.00685212 6.11015e-05 3.49245e-05
6.11015e-05 0.00227851 3.36231e-06
3.49245e-05 3.36231e-06 0.00140259
0.00172266 4.73638e-05 2.18031e-06
4.73638e-05 -0.000390752 -5.13812e-06
2.18031e-06 -5.13812e-06 -0.000696488
0.000357089 -0.000106582 -7.6188e-06
-0.000106582 -0.000349341 8.71652e-07
-7.6188e-06 8.71652e-07 -0.000352341
0.0013077 -0.000155623 -7.343e-07
-0.000155623 -0.000140741 -5.85611e-07
-7.343e-07 -5.85611e-07 -0.000135885
0.00199637 -0.000198294 -1.0166e-06
-0.000198294 4.1725e-05 -2.41426e-06
-1.0166e-06 -2.41426e-06 3.93067e-05
0.00143654 -0.000177806 -3.39823e-06
-0.000177806 0.000135185 -3.10355e-06
-3.39823e-06 -3.10355e-06 -1.93636e-05
0.00166266 -0.000192335 -2.28378e-06
-0.000192335 5.43301e-05 1.31315e-06
-2.28378e-06 1.31315e-06 -4.87941e-05
0.00170663 -0.000162536 -5.24774e-06
-0.000162536 -8.2308e-06 1.21477e-06
-5.24774e-06 1.21477e-06 -7.40448e-05
0.00104409 -0.00014699 2.63912e-06
-0.00014699 -6.90781e-05 1.21342e-06
2.63912e-06 1.21342e-06 -0.000213847
0.00155917 -0.000150539 -9.31697e-07
-0.000150539 6.07574e-05 2.58596e-07
-9.31697e-07 2.58596e-07 -4.30155e-05
0.00154762 -0.000127473 -1.0183e-06
-0.000127473 -3.71505e-05 2.2397e-08
-1.0183e-06 2.2397e-08 -0.000111863
0.00126072 -0.00013772 2.09149e-06
-0.00013772 2.47949e-05 2.05208e-06
2.09149e-06 2.05208e-06 -0.000108499
0.00149292 -0.000129731 -1.38509e-07
-0.000129731 5.87114e-05 8.68976e-07
-1.38509e-07 8.68976e-07 -4.31962e-05
0.00164515 -0.000119092 -1.92952e-06
-0.000119092 9.01244e-05 -3.68245e-07
-1.92952e-06 -3.68245e-07 9.96602e-06
0.00193508 -0.000119852 -4.18333e-07
-0.000119852 0.00030201 -1.46898e-06
-4.18333e-07 -1.46898e-06 0.000214303
0.00159067 -0.000122877 -1.35192e-06
-0.000122877 0.000150681 1.58425e-06
-1.35192e-06 1.58425e-06 5.16325e-05
0.0014668 -0.000121069 -9.17332e-07
-0.000121069 0.000126601 -3.47683e-06
-9.17332e-07 -3.47683e-06 1.95631e-05
0.00136497 -0.000125802 -2.89475e-06
-0.000125802 0.000148517 -3.60962e-07
-2.89475e-06 -3.60962e-07 2.73045e-05
0.00148846 -0.000134963 1.05695e-06
-0.000134963 0.000185711 -3.02129e-07
1.05695e-06 -3.02129e-07 5.88552e-05
0.00145376 -0.000130697 2.89184e-06
-0.000130697 0.000128223 2.93347e-06
2.89184e-06 2.93347e-06 5.83759e-06
0.000796167 -9.96939e-05 -2.86356e-06
-9.96939e-05 -6.13331e-05 2.23914e-06
-2.86356e-06 2.23914e-06 -0.000176262
0.00105717 -0.00011544 1.83098e-07
-0.00011544 5.30935e-05 -6.77987e-08
1.83098e-07 -6.77987e-08 -7.22303e-05
0.00150817 -0.000140116 4.4285e-06
-0.000140116 0.000261796 -2.23035e-06
4.4285e-06 -2.23035e-06 0.000124874
0.000950159 -9.02317e-05 -1.62617e-06
-9.02317e-05 6.58366e-05 7.08006e-07
-1.62617e-06 7.08006e-07 -2.81662e-05
0.00108032 -0.000108316 1.59825e-07
-0.000108316 0.000125675 -1.99811e-07
1.59825e-07 -1.99811e-07 1.8126e-05
0.00072484 -9.65694e-05 1.31785e-06
-9.65694e-05 -7.03632e-05 -3.04916e-06
1.31785e-06 -3.04916e-06 -0.000190748
0.000814227 -2.00796e-05 -2.47896e-06
-2.00796e-05 2.33305e-05 2.59794e-06
-2.47896e-06 2.59794e-06 -4.78347e-05
0.00101939 -8.70844e-05 3.33319e-09
-8.70844e-05 0.000113082 -5.17901e-08
3.33319e-09 -5.17901e-08 2.32431e-05
0.00112055 -0.000105655 1.07519e-06
-0.000105655 0.000164458 -7.41525e-07
1.07519e-06 -7.41525e-07 6.25851e-05
0.000607428 5.6061e-05 -1.60696e-06
5.6061e-05 -6.69468e-05 4.70996e-06
-1.60696e-06 4.70996e-06 -9.30274e-05
0.000804799 3.63422e-06 -3.4414e-08
3.63422e-06 2.24805e-05 4.35482e-08
-3.4414e-08 4.35482e-08 -4.24405e-05
0.000995179 -4.77518e-05 1.55952e-06
-4.77518e-05 0.000115342 -5.87849e-07
1.55952e-06 -5.87849e-07 2.85434e-05
0.00238999 6.73579e-05 -3.19433e-05
6.73579e-05 0.000884419 3.0242e-06
-3.19433e-05 3.0242e-06 0.000893987
0.000693083 5.00112e-05 -1.38346e-07
5.00112e-05 -2.79902e-05 -1.29458e-07
-1.38346e-07 -1.29458e-07 -4.76277e-05
0.000747257 9.26691e-06 2.20947e-06
9.26691e-06 -1.14201e-05 -2.746e-06
2.20947e-06 -2.746e-06 -6.45823e-05
0.00160812 5.18441e-05 1.23963e-05
5.18441e-05 0.00045927 -7.23888e-07
1.23963e-05 -7.23888e-07 0.000467626
0.000751103 4.47155e-05 2.25228e-06
4.47155e-05 -6.17333e-06 -3.79214e-06
2.25228e-06 -3.79214e-06 -2.08117e-05
0.00221872 5.38854e-05 2.72965e-05
5.38854e-05 0.000779832 -3.29328e-06
2.72965e-05 -3.29328e-06 0.000793794
0.000950578 4.68083e-05 1.96517e-07
4.68083e-05 9.90876e-05 7.75455e-07
1.96517e-07 7.75455e-07 1.59149e-05
0.000932728 5.28823e-06 -1.65159e-07
5.28823e-06 8.4378e-05 5.22962e-07
-1.65159e-07 5.22962e-07 9.56676e-06
0.00087227 -2.52782e-05 -2.73908e-07
-2.52782e-05 5.20427e-05 -1.3106e-06
-2.73908e-07 -1.3106e-06 -1.71707e-05
0.000913982 9.17759e-06 2.44678e-07
9.17759e-06 6.88017e-05 6.43329e-07
2.44678e-07 6.43329e-07 -3.8658e-06
0.000854903 -2.90065e-05 2.13811e-07
-2.90065e-05 3.4378e-05 -5.36908e-08
2.13811e-07 -5.36908e-08 -2.88151e-05
0.000756951 -4.36176e-05 -9.4075e-07
-4.36176e-05 -9.89703e-06 -2.35614e-06
-9.4075e-07 -2.35614e-06 -5.32262e-05
0.000741943 -3.69041e-05 -2.3658e-06
-3.69041e-05 -2.02289e-05 -3.6073e-06
-2.3658e-06 -3.6073e-06 -3.1882e-05
0.00078237 -4.00124e-05 -1.29181e-07
-4.00124e-05 -2.93194e-06 -1.37355e-08
-1.29181e-07 -1.37355e-08 -4.24708e-05
0.000852464 -4.58939e-05 -1.13356e-07
-4.58939e-05 2.99781e-05 1.38824e-06
-1.13356e-07 1.38824e-06 -2.8387e-05
0.00225495 -4.77864e-05 -2.51991e-05
-4.77864e-05 0.000790922 -3.57502e-06
-2.51991e-05 -3.57502e-06 0.000806251
0.000727198 -3.22831e-05 -2.19329e-07
-3.22831e-05 -3.39339e-05 2.17657e-08
-2.19329e-07 2.17657e-08 -4.37583e-05
0.000802006 -2.17957e-05 1.49377e-06
-2.17957e-05 1.82659e-06 1.80936e-06
1.49377e-06 1.80936e-06 -3.46497e-05
0.00222958 -4.17052e-05 -1.37586e-06
-4.17052e-05 0.000769878 8.80614e-08
-1.37586e-06 8.80614e-08 0.000786907
0.000723906 -2.83799e-05 1.07675e-06
-2.83799e-05 -4.15274e-05 3.43399e-06
1.07675e-06 3.43399e-06 -4.9422e-05
0.00216581 -3.49876e-05 1.65655e-05
-3.49876e-05 0.00072895 3.82051e-06
1.65655e-05 3.82051e-06 0.000747857
0.00148495 9.40099e-05 9.86661e-05
9.40099e-05 0.000853377 2.78885e-05
9.86661e-05 2.78885e-05 0.00056228
0.000129865 -0.000129841 5.17238e-06
-0.000129841 0.000163775 3.90178e-06
5.17238e-06 3.90178e-06 4.34466e-06
0.00154761 -1.62976e-05 -2.02478e-05
-1.62976e-05 0.000124736 -7.81727e-07
-2.02478e-05 -7.81727e-07 2.51833e-05
0.000921096 7.61654e-07 2.56181e-07
7.61654e-07 8.41367e-05 6.64298e-07
2.56181e-07 6.64298e-07 3.1328e-06
0.000925897 1.53259e-05 1.55787e-09
1.53259e-05 9.00057e-05 5.10467e-07
1.55787e-09 5.10467e-07 3.41007e-06
0.000953428 8.36226e-05 -9.06462e-08
8.36226e-05 0.00011747 7.44588e-08
-9.06462e-08 7.44588e-08 2.55024e-05
0.00108772 0.000105086 7.91227e-07
0.000105086 0.000179688 9.4917e-07
7.91227e-07 9.4917e-07 8.19346e-05
0.000979975 7.12878e-05 -7.07756e-07
7.12878e-05 0.000133211 5.2509e-07
-7.07756e-07 5.2509e-07 3.71197e-05
0.000860476 2.01282e-05 1.81055e-07
2.01282e-05 4.96089e-05 8.4645e-07
1.81055e-07 8.4645e-07 -2.9923e-05
0.000869559 1.10518e-05 2.68348e-08
1.10518e-05 5.26412e-05 8.87146e-07
2.68348e-08 8.87146e-07 -2.93201e-05
0.000814486 4.94773e-05 -5.75192e-07
4.94773e-05 4.18443e-05 -6.45351e-07
-5.75192e-07 -6.45351e-07 -4.8074e-05
0.000234562 6.14057e-05 -3.43842e-07
6.14057e-05 -0.000255254 1.35008e-06
-3.43842e-07 1.35008e-06 -0.000351966
0.000852344 8.73302e-05 8.62027e-08
8.73302e-05 3.59235e-05 -1.64236e-06
8.62027e-08 -1.64236e-06 -5.57763e-05
0.0019547 0.00018529 3.57282e-06
0.00018529 0.000479127 -4.86127e-06
3.57282e-06 -4.86127e-06 0.000366132
0.000896722 5.34561e-05 -1.65063e-06
5.34561e-05 7.63479e-05 -3.02037e-07
-1.65063e-06 -3.02037e-07 -4.9164e-06
0.000844631 7.02182e-06 -2.84668e-07
7.02182e-06 4.62321e-05 -3.68695e-07
-2.84668e-07 -3.68695e-07 -2.73937e-05
0.0089811 -0.000116991 -3.46631e-05
-0.000116991 0.0027593 -1.41563e-05
-3.46631e-05 -1.41563e-05 0.00174482
-0.00199444 -0.000283603 -2.2203e-05
-0.000283603 -0.000826678 2.30051e-07
-2.2203e-05 2.30051e-07 -0.00104137
0.00136548 -0.000284916 -3.80615e-05
-0.000284916 0.000542129 -2.25794e-05
-3.80615e-05 -2.25794e-05 0.000665122
-0.00238671 -0.000342911 -2.31358e-05
-0.000342911 -0.0015307 -5.01497e-06
-2.31358e-05 -5.01497e-06 -0.00127914
0.00918367 -0.000377949 5.69075e-05
-0.000377949 0.00325608 2.00093e-05
5.69075e-05 2.00093e-05 0.00160763
0.00231206 6.83304e-05 6.59862e-06
6.83304e-05 0.000190506 1.74832e-05
6.59862e-06 1.74832e-05 6.7812e-05
0.00171256 0.000248212 -3.39988e-05
0.000248212 -7.08722e-05 -2.24201e-05
-3.39988e-05 -2.24201e-05 -0.00055307
0.00651027 -0.000302362 4.32677e-05
-0.000302362 0.00182092 1.75643e-05
4.32677e-05 1.75643e-05 0.000727635
0.00231921 0.000203518 -5.02569e-06
0.000203518 -6.32171e-05 -4.16769e-05
-5.02569e-06 -4.16769e-05 -0.00050028
0.00219643 0.000286624 1.48831e-05
0.000286624 0.000392394 1.12791e-05
1.48831e-05 1.12791e-05 0.000247172
0.000904939 0.000166784 5.16623e-07
0.000166784 2.51107e-05 -4.82705e-06
5.16623e-07 -4.82705e-06 -0.000115344
0.000948857 8.93555e-05 -3.39627e-06
8.93555e-05 0.0001025 2.35363e-06
-3.39627e-06 2.35363e-06 4.5392e-05
0.00195045 0.000222335 -3.66457e-05
0.000222335 0.000565276 -1.80137e-05
-3.66457e-05 -1.80137e-05 0.000457196
0.000477732 0.000207896 -1.32186e-05
0.000207896 -0.000447715 1.36081e-05
-1.32186e-05 1.36081e-05 -0.000514287
0.000376667 -4.62984e-05 2.36778e-06
-4.62984e-05 -0.00107324 -3.57007e-06
2.36778e-06 -3.57007e-06 -0.00152021
0.0015837 1.1058e-05 -6.44893e-06
1.1058e-05 0.000785132 -7.96848e-07
-6.44893e-06 -7.96848e-07 0.00079946
-0.00110386 6.19101e-06 -1.66113e-05
6.19101e-06 -0.000232144 2.13021e-07
-1.66113e-05 2.13021e-07 -0.000485284
0.0021667 -0.000287101 -3.8045e-05
-0.000287101 0.000377827 8.31441e-06
-3.8045e-05 8.31441e-06 0.00035672
0.00406372 -0.000220361 1.43778e-07
-0.000220361 0.000652166 -1.97545e-05
1.43778e-07 -1.97545e-05 -0.000163485
0.000102092 -1.99446e-05 -6.45857e-05
-1.99446e-05 0.000261568 2.17789e-05
-6.45857e-05 2.17789e-05 5.76441e-05
0.00796203 0.00045142 -2.8437e-05
0.00045142 0.00296683 1.86401e-05
-2.8437e-05 1.86401e-05 0.00175745
0.0007505 -0.000137684 2.30418e-07
-0.000137684 -0.000157126 -1.74357e-06
2.30418e-07 -1.74357e-06 -0.000227667
0.00523601 0.000198764 1.9933e-05
0.000198764 0.00141203 1.01134e-05
1.9933e-05 1.01134e-05 0.000659041
0.00329949 2.93426e-05 4.06159e-05
2.93426e-05 0.000188706 -1.50611e-06
4.06159e-05 -1.50611e-06 -0.000309713
0.00263611 -0.000145925 -5.0715e-06
-0.000145925 0.000747781 1.55674e-06
-5.0715e-06 1.55674e-06 0.000626134
0.00172246 1.95706e-05 -5.97414e-05
1.95706e-05 0.000179265 1.35384e-07
-5.97414e-05 1.35384e-07 -0.000106017
0.000963438 -0.000146926 1.12096e-06
-0.000146926 -0.000310327 -9.2522e-07
1.12096e-06 -9.2522e-07 -0.000302813
0.00177637 -0.000194854 -9.40795e-07
-0.000194854 -3.97936e-05 2.13646e-06
-9.40795e-07 2.13646e-06 -5.83246e-05
0.00233351 -0.000142445 -5.52271e-06
-0.000142445 0.000185737 -5.20644e-07
-5.52271e-06 -5.20644e-07 0.000154144
0.00179911 -0.000193982 4.62885e-06
-0.000193982 0.000122568 2.47822e-06
4.62885e-06 2.47822e-06 2.05795e-05
0.00181963 -0.000160415 1.20669e-07
-0.000160415 6.362e-05 9.74045e-07
1.20669e-07 9.74045e-07 -2.40082e-06
0.00184337 -0.000105266 -6.24948e-07
-0.000105266 4.13536e-05 1.81034e-06
-6.24948e-07 1.81034e-06 -1.66541e-05
0.00141902 -0.000143288 2.08822e-06
-0.000143288 -1.42813e-05 3.18685e-06
2.08822e-06 3.18685e-06 -0.000117249
0.00172189 -0.000131075 9.71868e-08
-0.000131075 5.70551e-05 1.42634e-06
9.71868e-08 1.42634e-06 -1.94387e-05
0.00172763 -0.000105275 8.63819e-07
-0.000105275 4.82871e-05 2.7066e-06
8.63819e-07 2.7066e-06 -2.73135e-05
0.00134477 -0.000124022 3.17216e-06
-0.000124022 -1.74579e-05 3.71718e-06
3.17216e-06 3.71718e-06 -0.000119193
0.00157766 -0.00011828 -5.79643e-07
-0.00011828 6.12051e-05 1.36838e-06
-5.79643e-07 1.36838e-06 -2.07157e-05
0.00178784 -0.000108035 6.68403e-07
-0.000108035 0.000162514 5.36744e-07
6.68403e-07 5.36744e-07 8.13884e-05
0.00163193 -0.000112643 -2.37235e-06
-0.000112643 0.000147269 9.47855e-07
-2.37235e-06 9.47855e-07 6.2527e-05
0.00175838 -0.000114556 2.08025e-06
-0.000114556 0.000235409 -2.15097e-06
2.08025e-06 -2.15097e-06 0.000138668
0.00154029 -0.000119076 1.79205e-06
-0.000119076 0.000124404 4.4597e-06
1.79205e-06 4.4597e-06 2.78036e-05
0.00145905 -0.000119704 2.6138e-07
-0.000119704 0.000121854 -5.52639e-07
2.6138e-07 -5.52639e-07 1.45365e-05
0.00143489 -0.000116719 -1.1855e-06
-0.000116719 0.000136037 -1.46347e-06
-1.1855e-06 -1.46347e-06 2.56689e-05
0.00094784 -0.000104405 -3.35178e-06
-0.000104405 -3.7378e-05 9.83935e-07
-3.35178e-06 9.83935e-07 -0.000152255
0.00135178 -0.000124233 1.00518e-07
-0.000124233 0.000142109 -2.78691e-07
1.00518e-07 -2.78691e-07 2.05289e-05
0.00160783 -0.000138368 3.76859e-06
-0.000138368 0.000248993 7.37893e-07
3.76859e-06 7.37893e-07 0.0001221
0.00100852 -9.85559e-05 -2.37967e-06
-9.85559e-05 7.36092e-05 1.30434e-06
-2.37967e-06 1.30434e-06 -2.66199e-05
0.000899281 -0.000103552 -7.12313e-07
-0.000103552 -5.49992e-06 7.89244e-07
-7.12313e-07 7.89244e-07 -0.000119577
0.00135286 -0.000127001 3.23255e-06
-0.000127001 0.000208736 -1.77911e-06
3.23255e-06 -1.77911e-06 8.44207e-05
0.000748746 -3.61493e-05 -2.62007e-06
-3.61493e-05 -1.81607e-05 1.85964e-06
-2.62007e-06 1.85964e-06 -9.19435e-05
0.00103799 -9.49014e-05 8.46682e-08
-9.49014e-05 0.000110057 -2.08307e-07
8.46682e-08 -2.08307e-07 1.55811e-05
0.00114467 -0.000110696 1.55593e-06
-0.000110696 0.000157492 -1.64875e-06
1.55593e-06 -1.64875e-06 4.9718e-05
0.000585773 5.90201e-05 -7.67354e-07
5.90201e-05 -7.55374e-05 5.30447e-06
-7.67354e-07 5.30447e-06 -0.000108852
0.000834702 -2.39648e-05 3.17222e-08
-2.39648e-05 3.27647e-05 2.60787e-07
3.17222e-08 2.60787e-07 -3.81355e-05
0.00106658 -8.07487e-05 1.81134e-06
-8.07487e-05 0.000135956 -5.47771e-07
1.81134e-06 -5.47771e-07 4.67487e-05
0.00261374 7.67631e-05 -3.5859e-05
7.67631e-05 0.00100805 2.97518e-06
-3.5859e-05 2.97518e-06 0.00101463
0.000651213 5.89835e-05 7.49607e-08
5.89835e-05 -4.22256e-05 -1.54188e-07
7.49607e-08 -1.54188e-07 -6.92387e-05
0.000774267 -2.15136e-05 2.33797e-06
-2.15136e-05 3.2187e-06 -2.55789e-06
2.33797e-06 -2.55789e-06 -6.04804e-05
0.00245062 6.79975e-05 5.51488e-07
6.79975e-05 0.000916608 9.39227e-08
5.51488e-07 9.39227e-08 0.000925813
0.000724696 5.29598e-05 1.04509e-06
5.29598e-05 -1.02695e-05 -4.41157e-06
1.04509e-06 -4.41157e-06 -3.07046e-05
0.00233146 6.04987e-05 3.15441e-05
6.04987e-05 0.000847297 -3.1694e-06
3.15441e-05 -3.1694e-06 0.00085889
0.00101176 9.41419e-05 2.28914e-07
9.41419e-05 0.000129927 3.91894e-07
2.28914e-07 3.91894e-07 3.62439e-05
0.000902114 6.43962e-05 3.48959e-07
6.43962e-05 7.60435e-05 1.27064e-07
3.48959e-07 1.27064e-07 -8.57517e-06
0.000805656 -1.6551e-05 -7.47112e-07
-1.6551e-05 2.02437e-05 -6.24226e-07
-7.47112e-07 -6.24226e-07 -5.71586e-05
0.000888459 -1.05881e-05 4.1162e-10
-1.05881e-05 6.02323e-05 9.61353e-07
4.1162e-10 9.61353e-07 -1.46177e-05
0.000844557 -3.53208e-05 5.69415e-08
-3.53208e-05 3.69277e-05 9.74673e-08
5.69415e-08 9.74673e-08 -3.26369e-05
0.000746565 -3.96762e-05 -1.09704e-06
-3.96762e-05 -1.05267e-05 -2.32101e-06
-1.09704e-06 -2.32101e-06 -5.98612e-05
0.000836759 -4.33867e-05 6.6923e-08
-4.33867e-05 2.45049e-05 1.56604e-06
6.6923e-08 1.56604e-06 -3.8384e-05
0.000770661 -4.34398e-05 -7.99896e-09
-4.34398e-05 -3.5977e-06 -1.14589e-07
-7.99896e-09 -1.14589e-07 -4.66492e-05
0.000734956 -4.32015e-05 -2.34625e-06
-4.32015e-05 -1.56789e-05 -3.74884e-06
-2.34625e-06 -3.74884e-06 -3.00257e-05
0.00226112 -5.36553e-05 -2.77669e-05
-5.36553e-05 0.00080166 -3.34887e-06
-2.77669e-05 -3.34887e-06 0.000815382
0.000724638 -3.59876e-05 -6.8399e-08
-3.59876e-05 -2.91091e-05 2.43583e-08
-6.8399e-08 2.43583e-08 -4.06755e-05
0.000781881 -3.54784e-05 1.48947e-06
-3.54784e-05 -3.92822e-06 2.01126e-06
1.48947e-06 2.01126e-06 -4.29632e-05
0.00225668 -4.77704e-05 -1.22267e-06
-4.77704e-05 0.000791016 9.44929e-08
-1.22267e-06 9.44929e-08 0.000806448
0.000711928 -3.16507e-05 1.51244e-06
-3.16507e-05 -4.18434e-05 3.57696e-06
1.51244e-06 3.57696e-06 -5.16057e-05
0.00221977 -4.15279e-05 2.02809e-05
-4.15279e-05 0.000764012 3.74117e-06
2.02809e-05 3.74117e-06 0.000781196
0.00732595 5.57278e-05 5.36465e-05
5.57278e-05 0.0022101 8.84382e-06
5.36465e-05 8.84382e-06 0.00142299
-0.00232517 -9.15896e-05 -2.82716e-06
-9.15896e-05 -0.00113832 1.08987e-06
-2.82716e-06 1.08987e-06 -0.00103545
-0.000982885 -8.73995e-05 -3.64564e-05
-8.73995e-05 -0.000401244 -3.00984e-06
-3.64564e-05 -3.00984e-06 -0.000655357
0.000887919 -3.93101e-06 1.65079e-07
-3.93101e-06 6.95038e-05 8.79854e-07
1.65079e-07 8.79854e-07 -1.69341e-05
0.000842898 8.13464e-05 -2.47024e-07
8.13464e-05 6.14042e-05 -2.91037e-07
-2.47024e-07 -2.91037e-07 -2.92499e-05
0.00104757 7.59741e-05 4.88297e-07
7.59741e-05 0.000169491 2.85911e-09
4.88297e-07 2.85911e-09 7.34377e-05
0.00101361 0.000101471 -8.43979e-07
0.000101471 0.000141635 -1.89667e-07
-8.43979e-07 -1.89667e-07 4.42126e-05
0.0011368 0.000110613 6.02884e-06
0.000110613 0.000194898 1.90638e-06
6.02884e-06 1.90638e-06 9.06313e-05
0.000647988 8.28867e-05 -8.65711e-07
8.28867e-05 -3.99862e-05 1.51842e-06
-8.65711e-07 1.51842e-06 -0.000137162
0.000600574 4.99483e-05 -2.86474e-07
4.99483e-05 -6.88428e-05 -1.37336e-07
-2.86474e-07 -1.37336e-07 -0.000158424
0.000605597 8.0847e-05 5.0438e-07
8.0847e-05 -6.57338e-05 -4.94563e-08
5.0438e-07 -4.94563e-08 -0.000166505
0.00079509 7.52365e-05 2.33488e-07
7.52365e-05 1.39006e-05 -1.05148e-09
2.33488e-07 -1.05148e-09 -7.96163e-05
0.000251337 8.14293e-05 1.42994e-06
8.14293e-05 -0.000303502 5.21575e-07
1.42994e-06 5.21575e-07 -0.000402038
0.00299004 0.000220086 1.30566e-06
0.000220086 0.00100255 -5.82876e-07
1.30566e-06 -5.82876e-07 0.000892823
0.00170471 0.00019337 3.29538e-06
0.00019337 0.000177648 -1.04283e-06
3.29538e-06 -1.04283e-06 5.17975e-05
0.00135943 0.000158318 1.26797e-06
0.000158318 0.000187719 -8.40639e-07
1.26797e-06 -8.40639e-07 7.93809e-05
0.000982171 5.63545e-05 -3.24914e-06
5.63545e-05 0.000133416 1.34695e-06
-3.24914e-06 1.34695e-06 5.17044e-05
0.00239698 -4.55625e-05 -2.40583e-05
-4.55625e-05 -0.000143054 -1.08661e-05
-2.40583e-05 -1.08661e-05 -0.000386423
0.00468466 -0.000116425 7.00987e-06
-0.000116425 0.0010309 8.74956e-07
7.00987e-06 8.74956e-07 5.28416e-05
0.00458277 -0.000475239 -3.72548e-05
-0.000475239 0.00213848 -2.90733e-05
-3.72548e-05 -2.90733e-05 0.00217676
0.00711651 -0.000146874 0.00018649
-0.000146874 0.00216915 5.69697e-05
0.00018649 5.69697e-05 0.000876604
0.00359749 0.000295682 4.75201e-05
0.000295682 0.000858996 4.79632e-05
4.75201e-05 4.79632e-05 0.000671093
0.00204175 0.000146624 -4.62175e-05
0.000146624 4.65354e-05 -1.51346e-05
-4.62175e-05 -1.51346e-05 -0.000213168
0.00187082 0.000209993 3.00575e-05
0.000209993 9.02943e-05 1.69164e-05
3.00575e-05 1.69164e-05 7.53032e-05
0.00197753 0.000275624 -1.99097e-06
0.000275624 0.000285639 5.18655e-06
-1.99097e-06 5.18655e-06 0.000159063
0.000245406 0.000124785 -2.74502e-06
0.000124785 -0.000290866 3.63139e-06
-2.74502e-06 3.63139e-06 -0.000427364
0.00199584 0.000288318 -6.89806e-05
0.000288318 0.000280704 -4.69925e-05
-6.89806e-05 -4.69925e-05 0.000218204
0.00326829 -8.69875e-05 -0.000141618
-8.69875e-05 0.000837657 -4.74169e-07
-0.000141618 -4.74169e-07 0.000440167
0.00704678 3.9972e-05 1.41175e-05
3.9972e-05 0.00237221 -2.48893e-06
1.41175e-05 -2.48893e-06 0.00173457
-0.00508072 -6.19077e-05 1.52725e-05
-6.19077e-05 -0.00270584 4.09304e-06
1.52725e-05 4.09304e-06 -0.00249645
0.00129542 -0.000155514 -1.00285e-06
-0.000155514 0.000100159 9.41537e-06
-1.00285e-06 9.41537e-06 4.73416e-05
0.00494445 5.23129e-06 6.63573e-05
5.23129e-06 0.00103294 -5.6291e-07
6.63573e-05 -5.6291e-07 0.000589556
0.000940357 -0.000149753 5.62575e-05
-0.000149753 -0.000498476 1.29475e-05
5.62575e-05 1.29475e-05 -0.00117696
0.00136655 -0.000105654 4.82367e-06
-0.000105654 0.000116644 3.23112e-07
4.82367e-06 3.23112e-07 3.67588e-05
0.00158151 8.14011e-05 -1.50644e-06
8.14011e-05 -7.07646e-06 -2.02513e-06
-1.50644e-06 -2.02513e-06 -0.000265044
0.00356211 -6.72038e-05 3.96007e-06
-6.72038e-05 0.000997971 -8.15924e-06
3.96007e-06 -8.15924e-06 0.000941614
0.00130424 4.84697e-05 2.03878e-05
4.84697e-05 -0.000129575 -1.61891e-06
2.03878e-05 -1.61891e-06 -0.000236105
0.00138823 -0.000189875 1.44523e-06
-0.000189875 -0.000200739 9.94017e-07
1.44523e-06 9.94017e-07 -0.000239933
0.00202722 -0.000137808 -1.3678e-07
-0.000137808 3.73822e-05 -1.17359e-06
-1.3678e-07 -1.17359e-06 2.02468e-06
0.00223843 -3.84505e-05 2.46344e-06
-3.84505e-05 0.000220687 -1.89767e-06
2.46344e-06 -1.89767e-06 0.000169971
0.00183916 -0.000158776 7.41278e-06
-0.000158776 8.62824e-05 5.89501e-07
7.41278e-06 5.89501e-07 1.96252e-05
0.0018886 -0.000105206 2.27141e-06
-0.000105206 7.52983e-05 -3.33585e-07
2.27141e-06 -3.33585e-07 1.57115e-05
0.00190817 -5.71008e-05 1.71755e-06
-5.71008e-05 0.000130541 8.06738e-07
1.71755e-06 8.06738e-07 5.14761e-05
0.00186701 -0.000133781 3.5777e-06
-0.000133781 0.000136028 2.51553e-06
3.5777e-06 2.51553e-06 5.77799e-05
0.00181826 -0.00010679 8.05231e-07
-0.00010679 0.000103237 2.08394e-07
8.05231e-07 2.08394e-07 2.55569e-05
0.00189594 -8.4518e-05 -3.40673e-07
-8.4518e-05 0.000167276 2.46907e-06
-3.40673e-07 2.46907e-06 7.59699e-05
0.00150735 -0.00011719 1.95462e-06
-0.00011719 3.09256e-05 1.86207e-06
1.95462e-06 1.86207e-06 -5.27597e-05
0.00158501 -0.000105856 7.27631e-07
-0.000105856 6.96783e-05 -9.17027e-07
7.27631e-07 -9.17027e-07 -1.09436e-05
0.00148497 -9.68124e-05 2.93975e-06
-9.68124e-05 4.88466e-05 7.77403e-07
2.93975e-06 7.77403e-07 -4.69519e-05
0.00132605 -0.000105251 -1.06296e-06
-0.000105251 -9.12987e-06 3.33869e-06
-1.06296e-06 3.33869e-06 -9.08746e-05
0.00159133 -0.000109288 -1.31364e-06
-0.000109288 0.00014788 -1.14583e-06
-1.31364e-06 -1.14583e-06 5.30421e-05
0.00174165 -0.000112964 3.10299e-07
-0.000112964 0.000252462 -9.85345e-07
3.10299e-07 -9.85345e-07 0.000146961
0.00144957 -0.000118293 1.27264e-06
-0.000118293 0.000116082 2.07011e-06
1.27264e-06 2.07011e-06 8.50898e-06
0.0014333 -0.000115668 3.66699e-07
-0.000115668 0.000135054 -4.39887e-07
3.66699e-07 -4.39887e-07 2.43971e-05
0.00148084 -0.000115068 -1.96106e-06
-0.000115068 0.000189906 -2.54032e-07
-1.96106e-06 -2.54032e-07 8.06916e-05
0.000761916 -8.90288e-05 -4.04334e-06
-8.90288e-05 -9.82286e-05 1.59649e-06
-4.04334e-06 1.59649e-06 -0.000201578
0.0010431 -0.000107126 -5.62536e-07
-0.000107126 1.54782e-05 4.66572e-07
-5.62536e-07 4.66572e-07 -9.86403e-05
0.00133888 -0.000122688 2.80922e-06
-0.000122688 0.000135842 -3.21604e-07
2.80922e-06 -3.21604e-07 1.38948e-05
0.00082881 -6.15094e-05 -3.40557e-06
-6.15094e-05 1.17347e-05 1.94749e-06
-3.40557e-06 1.94749e-06 -6.67687e-05
0.00105574 -0.000100221 1.41649e-07
-0.000100221 9.67773e-05 5.26466e-08
1.41649e-07 5.26466e-08 -3.44724e-06
0.00101412 -0.000107903 1.19733e-06
-0.000107903 5.62169e-05 -6.15072e-07
1.19733e-06 -6.15072e-07 -5.70255e-05
0.000624856 4.13812e-05 -3.57275e-06
4.13812e-05 -5.39965e-05 5.05113e-06
-3.57275e-06 5.05113e-06 -9.23927e-05
0.000856567 -3.91628e-05 1.59892e-07
-3.91628e-05 3.90571e-05 2.55344e-08
1.59892e-07 2.55344e-08 -3.5785e-05
0.00111674 -9.8978e-05 2.25653e-06
-9.8978e-05 0.000149569 -1.29139e-06
2.25653e-06 -1.29139e-06 5.46713e-05
0.00286543 8.65579e-05 -4.14404e-05
8.65579e-05 0.00114465 2.98837e-06
-4.14404e-05 2.98837e-06 0.00114804
0.000645574 4.47761e-05 6.20786e-07
4.47761e-05 -4.6876e-05 -5.36563e-08
6.20786e-07 -5.36563e-08 -7.8635e-05
0.000849663 -2.67693e-05 2.95893e-06
-2.67693e-05 3.92918e-05 -2.18694e-06
2.95893e-06 -2.18694e-06 -3.14454e-05
0.00266514 7.64998e-05 6.89366e-07
7.64998e-05 0.00103478 1.16056e-07
6.89366e-07 1.16056e-07 0.00104109
0.000688976 5.36498e-05 1.53014e-06
5.36498e-05 -2.291e-05 -4.82781e-06
1.53014e-06 -4.82781e-06 -4.95189e-05
0.00250404 6.79065e-05 3.63339e-05
6.79065e-05 0.00094484 -3.15739e-06
3.63339e-05 -3.15739e-06 0.000953819
0.00108248 0.000103675 -4.26186e-07
0.000103675 0.000158198 -8.16481e-07
-4.26186e-07 -8.16481e-07 5.77805e-05
0.00105604 9.65744e-05 2.504e-07
9.65744e-05 0.00015324 1.43736e-07
2.504e-07 1.43736e-07 5.98406e-05
0.000946558 4.57355e-05 -1.23073e-06
4.57355e-05 9.10362e-05 -3.37859e-07
-1.23073e-06 -3.37859e-07 6.71873e-06
0.000868266 8.1945e-05 2.02628e-07
8.1945e-05 6.17732e-05 -1.0649e-07
2.02628e-07 -1.0649e-07 -2.50045e-05
0.00080779 -2.74298e-06 -4.23715e-07
-2.74298e-06 2.22353e-05 -8.55922e-08
-4.23715e-07 -8.55922e-08 -5.64831e-05
0.000746268 -6.97085e-06 -2.18122e-06
-6.97085e-06 -7.59007e-06 -1.8315e-06
-2.18122e-06 -1.8315e-06 -6.62564e-05
0.000821801 -4.39096e-05 1.31563e-07
-4.39096e-05 2.56999e-05 1.25145e-06
1.31563e-07 1.25145e-06 -4.52285e-05
0.000762388 -4.03056e-05 1.28214e-07
-4.03056e-05 -2.1712e-06 -2.53334e-07
1.28214e-07 -2.53334e-07 -5.15172e-05
0.000718791 -5.2168e-05 -1.60742e-06
-5.2168e-05 -1.41906e-05 -4.07166e-06
-1.60742e-06 -4.07166e-06 -3.32149e-05
0.000785735 -4.38438e-05 1.03342e-06
-4.38438e-05 3.55218e-06 2.21823e-06
1.03342e-06 2.21823e-06 -3.92901e-05
0.000713821 -4.12271e-05 9.09144e-08
-4.12271e-05 -2.71671e-05 -2.94024e-08
9.09144e-08 -2.94024e-08 -4.1169e-05
0.0023096 -5.99294e-05 -3.06953e-05
-5.99294e-05 0.000835293 -3.12936e-06
-3.06953e-05 -3.12936e-06 0.000847041
0.00227042 -5.36982e-05 -7.15624e-07
-5.36982e-05 0.000805575 9.05489e-08
-7.15624e-07 9.05489e-08 0.000819394
0.000707669 -3.51048e-05 2.23007e-06
-3.51048e-05 -3.78789e-05 3.62597e-06
2.23007e-06 3.62597e-06 -4.93546e-05
0.00226012 -4.78381e-05 2.35516e-05
-4.78381e-05 0.000792136 3.62305e-06
2.35516e-05 3.62305e-06 0.00080764
0.001255 -7.19532e-05 -5.82208e-05
-7.19532e-05 -0.000327848 -7.69119e-07
-5.82208e-05 -7.69119e-07 -0.000585373
0.00169688 -0.000137906 5.97154e-06
-0.000137906 -0.000464765 8.74454e-08
5.97154e-06 8.74454e-08 -0.00114416
0.00241575 -0.000303563 -4.51759e-05
-0.000303563 0.00100006 -1.10505e-05
-4.51759e-05 -1.10505e-05 0.001145
0.00120876 0.00011858 6.31204e-06
0.00011858 0.000185516 1.76324e-06
6.31204e-06 1.76324e-06 7.61757e-05
0.00112818 7.90613e-05 2.9668e-07
7.90613e-05 0.000212526 -6.36365e-07
2.9668e-07 -6.36365e-07 0.000116554
0.000929443 9.72557e-05 -6.86924e-07
9.72557e-05 9.85704e-05 -5.08074e-07
-6.86924e-07 -5.08074e-07 1.51664e-06
0.0009034 9.60213e-05 2.50772e-07
9.60213e-05 9.43304e-05 2.67994e-07
2.50772e-07 2.67994e-07 -4.38535e-06
0.00102522 0.000105652 -1.80834e-07
0.000105652 0.000140448 -6.94786e-07
-1.80834e-07 -6.94786e-07 3.55462e-05
0.000614384 9.12114e-05 -3.00027e-07
9.12114e-05 -9.76161e-05 1.85175e-06
-3.00027e-07 1.85175e-06 -0.000187242
0.0010478 0.000104551 1.01981e-07
0.000104551 0.000162042 -1.70424e-06
1.01981e-07 -1.70424e-06 5.65889e-05
0.00096587 7.21673e-05 -1.4007e-06
7.21673e-05 0.000107265 1.53076e-06
-1.4007e-06 1.53076e-06 1.1191e-05
0.000949803 0.000114725 2.04124e-07
0.000114725 5.4359e-05 -1.96226e-07
2.04124e-07 -1.96226e-07 -4.49073e-05
0.00219428 0.000185688 6.97695e-07
0.000185688 0.000609674 2.29714e-06
6.97695e-07 2.29714e-06 0.000502169
0.00161689 0.000172846 1.53126e-06
0.000172846 0.000176172 -1.57481e-06
1.53126e-06 -1.57481e-06 5.81e-05
0.00186234 0.000160501 8.33697e-06
0.000160501 9.21894e-05 7.04327e-06
8.33697e-06 7.04327e-06 -3.3475e-05
0.00127296 0.000175163 2.87932e-07
0.000175163 -3.90769e-05 1.33934e-07
2.87932e-07 1.33934e-07 -0.000164433
0.000831397 0.000131861 -1.43941e-06
0.000131861 -7.60791e-05 3.65944e-06
-1.43941e-06 3.65944e-06 -0.000179444
0.000361691 5.34157e-05 -6.63869e-06
5.34157e-05 -0.000434235 2.08877e-06
-6.63869e-06 2.08877e-06 -0.000440971
0.00388882 -3.3052e-05 -1.13929e-05
-3.3052e-05 0.000416763 1.37352e-06
-1.13929e-05 1.37352e-06 0.0001053
0.00137787 -0.000161906 8.57949e-06
-0.000161906 -0.00054096 6.47013e-06
8.57949e-06 6.47013e-06 -0.00143542
0.0028669 0.0002278 5.06577e-05
0.0002278 0.000237985 2.29461e-05
5.06577e-05 2.29461e-05 -0.00015477
0.00126984 0.000174684 -9.08116e-06
0.000174684 -0.000115887 1.42062e-07
-9.08116e-06 1.42062e-07 -0.000144912
0.000426062 0.000196436 -1.78313e-05
0.000196436 -0.000419051 -1.24738e-05
-1.78313e-05 -1.24738e-05 -0.000552081
0.00254774 -8.60756e-05 1.37558e-05
-8.60756e-05 0.000476827 -4.57585e-06
1.37558e-05 -4.57585e-06 0.000373075
0.00128068 -7.97501e-06 -2.22056e-05
-7.97501e-06 5.47127e-06 2.77726e-06
-2.22056e-05 2.77726e-06 -0.00034888
0.000738012 0.000216842 4.5634e-05
0.000216842 -0.000922115 -1.09878e-05
4.5634e-05 -1.09878e-05 -0.00151313
0.000384649 -6.32489e-05 -5.86493e-06
-6.32489e-05 -0.00039898 1.22988e-05
-5.86493e-06 1.22988e-05 -0.000420983
0.00351322 0.000138619 3.44849e-05
0.000138619 0.000812766 -3.63436e-06
3.44849e-05 -3.63436e-06 0.000509497
0.00170765 -3.97898e-05 4.57839e-06
-3.97898e-05 3.50207e-05 -1.69257e-06
4.57839e-06 -1.69257e-06 -2.13623e-07
0.00206257 6.41975e-05 1.16642e-06
6.41975e-05 0.000266584 -2.52965e-06
1.16642e-06 -2.52965e-06 0.000171757
0.00113248 2.26656e-05 5.12704e-06
2.26656e-05 -0.000347382 -2.83463e-06
5.12704e-06 -2.83463e-06 -0.000421803
0.00236181 3.3257e-05 -1.0665e-06
3.3257e-05 0.000360072 -3.1928e-06
-1.0665e-06 -3.1928e-06 0.000269059
0.00171688 -0.000130342 1.50258e-07
-0.000130342 -0.000108008 -6.63313e-07
1.50258e-07 -6.63313e-07 -0.000145975
0.00196117 -3.9262e-05 3.55245e-06
-3.9262e-05 6.89831e-05 3.15043e-07
3.55245e-06 3.15043e-07 1.37294e-05
0.0020328 -1.61066e-05 2.27086e-07
-1.61066e-05 0.000215328 -1.68981e-06
2.27086e-07 -1.68981e-06 0.000136086
0.0019775 -0.0001059 9.62148e-07
-0.0001059 0.000130517 1.07349e-07
9.62148e-07 1.07349e-07 6.84978e-05
0.00184299 -6.05676e-05 2.25132e-07
-6.05676e-05 9.49656e-05 -3.29413e-07
2.25132e-07 -3.29413e-07 1.47767e-05
0.00181353 -4.62249e-05 -1.48748e-07
-4.62249e-05 0.000130059 -3.01609e-07
-1.48748e-07 -3.01609e-07 3.18644e-05
0.00191806 -0.000108586 -1.11866e-06
-0.000108586 0.000162994 -1.54604e-07
-1.11866e-06 -1.54604e-07 8.33198e-05
0.00182311 -8.66167e-05 -2.87532e-07
-8.66167e-05 0.000138936 -7.06533e-07
-2.87532e-07 -7.06533e-07 4.87919e-05
0.00152246 -7.37043e-05 5.08268e-07
-7.37043e-05 2.66584e-05 2.23222e-06
5.08268e-07 2.23222e-06 -7.45651e-05
0.00137027 -0.00010338 -1.60502e-07
-0.00010338 -2.92793e-05 -2.97311e-06
-1.60502e-07 -2.97311e-06 -0.000109369
0.00153597 -9.76719e-05 6.77968e-07
-9.76719e-05 7.40066e-05 -7.33058e-07
6.77968e-07 -7.33058e-07 -2.19222e-05
0.00151204 -9.81262e-05 5.39867e-07
-9.81262e-05 8.90892e-05 4.25903e-07
5.39867e-07 4.25903e-07 -1.62242e-05
0.0014245 -0.000104087 -3.39186e-06
-0.000104087 6.05019e-05 1.25717e-06
-3.39186e-06 1.25717e-06 -3.24511e-05
0.00155623 -0.000106551 -2.54392e-07
-0.000106551 0.000154824 -7.36347e-07
-2.54392e-07 -7.36347e-07 5.03521e-05
0.00144948 -0.000102436 -1.77936e-06
-0.000102436 0.000130905 4.64655e-08
-1.77936e-06 4.64655e-08 2.33157e-05
0.00143227 -0.000114632 1.89535e-06
-0.000114632 0.000134314 6.17684e-07
1.89535e-06 6.17684e-07 2.33752e-05
0.00128783 -0.000107893 4.54471e-07
-0.000107893 8.98646e-05 -2.7532e-07
4.54471e-07 -2.7532e-07 -1.96732e-05
0.00128572 -0.000102135 -3.85057e-06
-0.000102135 0.000128342 8.93229e-07
-3.85057e-06 8.93229e-07 2.60214e-05
0.000908977 -7.3698e-05 -4.34168e-06
-7.3698e-05 2.56241e-05 2.08738e-06
-4.34168e-06 2.08738e-06 -5.68511e-05
0.000890875 -9.37396e-05 -8.9689e-07
-9.37396e-05 -2.87472e-05 5.92218e-07
-8.9689e-07 5.92218e-07 -0.000131299
0.0011246 -0.000109201 2.01176e-06
-0.000109201 6.12742e-05 -1.6788e-07
2.01176e-06 -1.6788e-07 -5.2037e-05
0.000631654 -1.61852e-05 -6.23186e-06
-1.61852e-05 -4.99398e-05 5.28267e-06
-6.23186e-06 5.28267e-06 -9.34831e-05
0.000883914 -6.40244e-05 1.84146e-07
-6.40244e-05 4.06617e-05 -1.08933e-08
1.84146e-07 -1.08933e-08 -3.84224e-05
0.00110489 -0.000102146 2.75478e-06
-0.000102146 0.000120778 -1.23988e-06
2.75478e-06 -1.23988e-06 2.05511e-05
0.00302603 9.54609e-05 -4.6576e-05
9.54609e-05 0.00123798 2.96801e-06
-4.6576e-05 2.96801e-06 0.00123752
0.000670158 1.18003e-05 -2.12762e-07
1.18003e-05 -3.52291e-05 -1.4313e-07
-2.12762e-07 -1.4313e-07 -7.23437e-05
0.000922941 -4.51902e-05 3.60237e-06
-4.51902e-05 7.35083e-05 -2.19094e-06
3.60237e-06 -2.19094e-06 -1.68253e-06
0.00286421 8.47633e-05 1.00985e-06
8.47633e-05 0.00114475 1.56272e-07
1.00985e-06 1.56272e-07 0.0011479
0.00068927 3.59062e-05 4.55066e-06
3.59062e-05 -2.34771e-05 -4.77249e-06
4.55066e-06 -4.77249e-06 -5.56814e-05
0.0027125 7.56052e-05 4.18086e-05
7.56052e-05 0.00105943 -3.29056e-06
4.18086e-05 -3.29056e-06 0.00106554
0.000873786 0.000100103 -4.09625e-07
0.000100103 2.06394e-05 -7.99512e-07
-4.09625e-07 -7.99512e-07 -8.58113e-05
0.00100354 9.93873e-05 -5.9333e-08
9.93873e-05 0.000116823 -5.42722e-07
-5.9333e-08 -5.42722e-07 1.70313e-05
0.00108541 8.97514e-05 -9.68725e-07
8.97514e-05 0.000153527 -2.31315e-07
-9.68725e-07 -2.31315e-07 6.36757e-05
0.00109765 9.89952e-05 -1.66281e-07
9.89952e-05 0.000174968 -5.57212e-07
-1.66281e-07 -5.57212e-07 8.18684e-05
0.000926365 4.79383e-05 -7.46567e-07
4.79383e-05 8.05895e-05 -3.42439e-07
-7.46567e-07 -3.42439e-07 -3.05196e-06
0.000795592 1.17524e-05 -2.19963e-06
1.17524e-05 1.86341e-05 -1.51759e-06
-2.19963e-06 -1.51759e-06 -4.82953e-05
0.000810308 1.22171e-05 1.33506e-07
1.22171e-05 2.36333e-05 5.51937e-08
1.33506e-07 5.51937e-08 -5.58218e-05
0.000770173 -3.19673e-05 -1.94505e-07
-3.19673e-05 5.59096e-06 -1.31123e-08
-1.94505e-07 -1.31123e-08 -5.2699e-05
0.000686595 -6.07487e-05 -9.48516e-07
-6.07487e-05 -2.13167e-05 -4.34497e-06
-9.48516e-07 -4.34497e-06 -4.67806e-05
0.00077735 -4.40898e-05 1.05453e-06
-4.40898e-05 6.21618e-06 2.35677e-06
1.05453e-06 2.35677e-06 -4.33648e-05
0.000693795 -4.91782e-05 7.96587e-08
-4.91782e-05 -2.84095e-05 -7.98467e-08
7.96587e-08 -7.98467e-08 -4.66927e-05
0.00241973 -6.68616e-05 -3.44781e-05
-6.68616e-05 0.000900806 -2.9462e-06
-3.44781e-05 -2.9462e-06 0.000910197
0.000701056 -3.97375e-05 2.73176e-06
-3.97375e-05 -3.42071e-05 3.62473e-06
2.73176e-06 3.62473e-06 -4.79251e-05
0.00229721 -5.98884e-05 -4.12489e-07
-5.98884e-05 0.000827668 7.93138e-08
-4.12489e-07 7.93138e-08 0.000839615
0.0022772 -5.36332e-05 2.68011e-05
-5.36332e-05 0.00080829 3.44869e-06
2.68011e-05 3.44869e-06 0.000822207
0.000515823 -2.46932e-05 5.96848e-07
-2.46932e-05 -0.00040643 -2.09377e-07
5.96848e-07 -2.09377e-07 -0.000442412
0.00321399 -5.46047e-05 1.96464e-06
-5.46047e-05 0.000374466 1.08495e-05
1.96464e-06 1.08495e-05 3.2738e-05
0.00593154 0.000145261 -7.54077e-05
0.000145261 0.00180173 -9.83505e-06
-7.54077e-05 -9.83505e-06 0.00103173
0.000839828 9.79347e-05 3.1928e-06
9.79347e-05 -2.91979e-05 1.31116e-06
3.1928e-06 1.31116e-06 -0.000126688
0.00143304 0.000132883 4.08155e-06
0.000132883 0.000196886 -1.50676e-06
4.08155e-06 -1.50676e-06 8.11854e-05
0.000801421 0.000100998 5.25053e-09
0.000100998 -1.66802e-05 -7.70186e-07
5.25053e-09 -7.70186e-07 -0.000124161
0.00113107 0.000107741 -1.13327e-06
0.000107741 0.000213072 -2.06871e-06
-1.13327e-06 -2.06871e-06 0.000113115
0.000947574 0.000102303 -9.03144e-07
0.000102303 0.000103154 -1.10265e-06
-9.03144e-07 -1.10265e-06 -2.49521e-06
0.00100839 0.000111366 2.38984e-06
0.000111366 9.64728e-05 1.32326e-06
2.38984e-06 1.32326e-06 4.20008e-06
0.00161126 0.00015983 -2.45901e-06
0.00015983 0.000182859 -3.6159e-06
-2.45901e-06 -3.6159e-06 7.35144e-05
0.00152145 0.000141734 1.051e-06
0.000141734 0.000348929 -3.11772e-07
1.051e-06 -3.11772e-07 0.00024922
0.000967342 0.000131973 -1.75216e-06
0.000131973 1.11603e-06 5.73956e-06
-1.75216e-06 5.73956e-06 -0.000103222
0.00164249 0.00017347 -1.14571e-06
0.00017347 0.000193717 4.703e-08
-1.14571e-06 4.703e-08 7.66291e-05
0.00163156 0.000148794 -1.63506e-06
0.000148794 2.99163e-05 -7.87948e-07
-1.63506e-06 -7.87948e-07 -0.000100557
0.00151029 4.64928e-05 1.04321e-05
4.64928e-05 -0.000129829 4.38942e-06
1.04321e-05 4.38942e-06 -0.00022161
0.00200915 0.000160606 4.96017e-06
0.000160606 0.000173859 2.29609e-06
4.96017e-06 2.29609e-06 4.92176e-05
0.00124739 0.000171214 -4.74019e-06
0.000171214 -5.1899e-05 1.68019e-06
-4.74019e-06 1.68019e-06 -0.000176544
0.00102177 4.62826e-05 -4.78335e-07
4.62826e-05 -0.000107242 -4.86856e-07
-4.78335e-07 -4.86856e-07 -0.000119566
0.00478488 -0.000132907 4.77619e-05
-0.000132907 0.000748278 2.07656e-05
4.77619e-05 2.07656e-05 0.000404851
0.00163071 0.000164693 1.6332e-06
0.000164693 0.000141299 -7.6543e-06
1.6332e-06 -7.6543e-06 0.000103002
0.00155803 -1.63422e-05 7.01209e-06
-1.63422e-05 1.7668e-05 -1.41498e-06
7.01209e-06 -1.41498e-06 -5.9143e-05
0.00187861 -5.20112e-05 -1.34276e-06
-5.20112e-05 0.000182273 6.24096e-07
-1.34276e-06 6.24096e-07 5.81314e-05
0.000730106 6.68565e-05 5.24093e-05
6.68565e-05 -0.000468174 6.29336e-08
5.24093e-05 6.29336e-08 -0.000897957
8.76696e-06 -2.3267e-05 -9.14029e-06
-2.3267e-05 -0.000831925 4.65301e-06
-9.14029e-06 4.65301e-06 -0.000851978
0.0025201 6.56388e-05 -3.20722e-05
6.56388e-05 0.000515346 3.61953e-06
-3.20722e-05 3.61953e-06 0.000435167
0.00128493 1.41072e-05 3.37693e-07
1.41072e-05 -0.000277833 3.86083e-06
3.37693e-07 3.86083e-06 -0.000344764
0.0021725 2.463e-05 1.18213e-06
2.463e-05 0.000233652 7.75774e-07
1.18213e-06 7.75774e-07 0.000144304
0.00195782 -8.05802e-06 8.27014e-07
-8.05802e-06 0.000135125 -1.31977e-07
8.27014e-07 -1.31977e-07 5.26973e-05
0.0015364 9.83629e-08 1.7705e-06
9.83629e-08 -9.1645e-05 -1.41279e-06
1.7705e-06 -1.41279e-06 -0.000176634
0.00166831 -4.15418e-05 4.63598e-06
-4.15418e-05 -9.65751e-05 1.62642e-06
4.63598e-06 1.62642e-06 -0.000155814
0.0017822 -1.72119e-05 -1.76053e-06
-1.72119e-05 8.11106e-05 -4.1993e-08
-1.76053e-06 -4.1993e-08 2.7553e-06
0.00177723 -1.593e-05 5.26928e-07
-1.593e-05 0.00010679 -8.91825e-07
5.26928e-07 -8.91825e-07 1.50639e-05
0.0018678 -6.45006e-05 -3.21027e-06
-6.45006e-05 0.000106486 -6.6147e-07
-3.21027e-06 -6.6147e-07 2.57271e-05
0.00178322 -4.61822e-05 -7.10102e-07
-4.61822e-05 0.000116839 -3.10208e-07
-7.10102e-07 -3.10208e-07 1.91929e-05
0.00161654 -3.83486e-05 -8.74363e-07
-3.83486e-05 5.54371e-05 -1.55873e-07
-8.74363e-07 -1.55873e-07 -4.84832e-05
0.00175121 -8.85501e-05 -2.98293e-06
-8.85501e-05 0.00011129 -2.67133e-06
-2.98293e-06 -2.67133e-06 2.22552e-05
0.00162968 -7.50884e-05 4.90701e-07
-7.50884e-05 7.90527e-05 7.659e-07
4.90701e-07 7.659e-07 -2.23621e-05
0.00157797 -7.76248e-05 -3.94071e-07
-7.76248e-05 7.76931e-05 6.0553e-07
-3.94071e-07 6.0553e-07 -2.72128e-05
0.00159057 -9.85897e-05 -1.10547e-06
-9.85897e-05 0.000100979 -2.20267e-06
-1.10547e-06 -2.20267e-06 4.92592e-06
0.00151623 -9.7305e-05 2.40508e-07
-9.7305e-05 9.04836e-05 -1.80077e-07
2.40508e-07 -1.80077e-07 -1.47851e-05
0.00144913 -9.59273e-05 -1.52927e-06
-9.59273e-05 8.99893e-05 6.46991e-07
-1.52927e-06 6.46991e-07 -1.83718e-05
0.00137143 -0.000100214 -3.27111e-07
-0.000100214 5.75016e-05 3.73e-08
-3.27111e-07 3.73e-08 -4.59508e-05
0.00129876 -9.76341e-05 -1.62268e-07
-9.76341e-05 5.35799e-05 -2.71483e-07
-1.62268e-07 -2.71483e-07 -5.36735e-05
0.00125164 -9.29751e-05 -3.91962e-06
-9.29751e-05 7.37391e-05 9.79713e-07
-3.91962e-06 9.79713e-07 -2.82265e-05
0.00109043 -0.000100616 2.69601e-06
-0.000100616 -1.23371e-05 -2.24605e-07
2.69601e-06 -2.24605e-07 -0.000122214
0.00107331 -9.38605e-05 2.15764e-07
-9.38605e-05 1.84117e-05 -1.83144e-08
2.15764e-07 -1.83144e-08 -8.3808e-05
0.000971842 -7.61146e-05 -5.50612e-06
-7.61146e-05 2.2643e-05 2.25215e-06
-5.50612e-06 2.25215e-06 -6.08329e-05
0.000557911 -3.93741e-05 -7.6846e-06
-3.93741e-05 -9.26179e-05 5.68694e-06
-7.6846e-06 5.68694e-06 -0.000141124
0.000933604 -7.60041e-05 2.02968e-07
-7.60041e-05 3.86228e-05 3.63493e-08
2.02968e-07 3.63493e-08 -4.41698e-05
0.00102413 -9.87121e-05 1.97261e-06
-9.87121e-05 4.2981e-05 -3.02002e-07
1.97261e-06 -3.02002e-07 -5.88053e-05
0.00317717 0.000106803 -4.89442e-05
0.000106803 0.00133381 2.90347e-06
-4.89442e-05 2.90347e-06 0.00132808
0.000694085 -8.93897e-06 -3.12025e-07
-8.93897e-06 -2.04471e-05 -3.45477e-08
-3.12025e-07 -3.45477e-08 -6.48883e-05
0.000961961 -6.43942e-05 3.97947e-06
-6.43942e-05 8.22056e-05 -2.00078e-06
3.97947e-06 -2.00078e-06 2.1002e-06
0.00304724 9.4882e-05 1.12958e-06
9.4882e-05 0.00125178 2.00142e-07
1.12958e-06 2.00142e-07 0.00125063
0.000735552 9.28341e-06 6.27004e-06
9.28341e-06 -3.37934e-06 -4.79723e-06
6.27004e-06 -4.79723e-06 -4.04494e-05
0.00289656 8.38622e-05 4.68294e-05
8.38622e-05 0.00116249 -3.26494e-06
4.68294e-05 -3.26494e-06 0.00116526
0.000610247 9.4788e-05 -2.88675e-07
9.4788e-05 -0.000171724 -7.54355e-07
-2.88675e-07 -7.54355e-07 -0.000286527
0.000704417 9.24181e-05 3.25332e-08
9.24181e-05 -6.98234e-05 -1.62047e-07
3.25332e-08 -1.62047e-07 -0.00017682
0.00112865 9.99041e-05 -1.6148e-06
9.99041e-05 0.000150561 -3.8287e-07
-1.6148e-06 -3.8287e-07 5.44208e-05
0.000923753 9.50371e-05 -2.55327e-07
9.50371e-05 7.49445e-05 -5.13832e-07
-2.55327e-07 -5.13832e-07 -2.42008e-05
0.000988491 8.43875e-05 -2.21961e-07
8.43875e-05 0.000103519 -1.76968e-07
-2.21961e-07 -1.76968e-07 1.43077e-05
0.000889737 3.238e-05 -2.80207e-06
3.238e-05 6.70719e-05 -1.28477e-06
-2.80207e-06 -1.28477e-06 -6.34167e-06
0.000907009 4.96731e-05 2.0489e-07
4.96731e-05 7.07322e-05 -5.5039e-07
2.0489e-07 -5.5039e-07 -1.23072e-05
0.000795025 1.97906e-06 2.35651e-08
1.97906e-06 2.15874e-05 9.98269e-08
2.35651e-08 9.98269e-08 -4.62063e-05
0.000668772 -5.1302e-05 -2.76259e-06
-5.1302e-05 -2.80511e-05 -4.30449e-06
-2.76259e-06 -4.30449e-06 -5.86989e-05
0.000789167 -4.50355e-05 1.14596e-06
-4.50355e-05 1.72012e-05 2.32824e-06
1.14596e-06 2.32824e-06 -4.1471e-05
0.000656457 -5.86101e-05 -2.2819e-08
-5.86101e-05 -3.86039e-05 -1.17823e-07
-2.2819e-08 -1.17823e-07 -6.33092e-05
0.00257979 -7.46401e-05 -3.89267e-05
-7.46401e-05 0.000991285 -2.88418e-06
-3.89267e-05 -2.88418e-06 0.000997954
0.000668865 -4.61011e-05 2.81316e-06
-4.61011e-05 -4.26301e-05 3.72651e-06
2.81316e-06 3.72651e-06 -6.01775e-05
0.0023877 -6.68265e-05 -4.45181e-07
-6.68265e-05 0.000883234 8.22976e-08
-4.45181e-07 8.22976e-08 0.000892867
0.00229548 -5.97177e-05 2.91601e-05
-5.97177e-05 0.000825729 3.21191e-06
2.91601e-05 3.21191e-06 0.000837872
0.00147019 -1.26758e-05 1.15347e-05
-1.26758e-05 -0.000126811 8.73027e-07
1.15347e-05 8.73027e-07 -0.000202856
0.00108356 -5.08889e-05 -7.43387e-09
-5.08889e-05 -0.000186131 1.78478e-06
-7.43387e-09 1.78478e-06 -0.000235946
0.00239397 -0.000101904 7.27587e-05
-0.000101904 2.31505e-05 1.54732e-05
7.27587e-05 1.54732e-05 -0.000247009
0.00211248 0.000155095 2.20226e-06
0.000155095 0.000463342 -2.92027e-06
2.20226e-06 -2.92027e-06 0.000354473
0.000825258 0.000100555 -1.62219e-06
0.000100555 -2.32209e-05 5.8047e-07
-1.62219e-06 5.8047e-07 -0.000115088
0.000754341 0.000108243 -2.92453e-06
0.000108243 -0.00025801 1.37802e-06
-2.92453e-06 1.37802e-06 -0.000375503
0.00145416 0.000134127 4.85217e-07
0.000134127 0.000206381 1.66244e-07
4.85217e-07 1.66244e-07 8.98149e-05
0.00039986 8.34266e-05 -2.9556e-06
8.34266e-05 -0.000215104 6.93367e-07
-2.9556e-06 6.93367e-07 -0.000320813
0.00172335 0.000131827 -1.98501e-06
0.000131827 9.77266e-05 -4.60338e-06
-1.98501e-06 -4.60338e-06 -2.49216e-05
0.00138815 0.000130664 -1.41848e-06
0.000130664 0.000283695 -7.99381e-07
-1.41848e-06 -7.99381e-07 0.000188892
0.00168108 0.000159876 -4.61676e-07
0.000159876 0.000213035 5.84288e-07
-4.61676e-07 5.84288e-07 0.000103654
0.00174948 7.35995e-05 4.25749e-06
7.35995e-05 6.27314e-05 2.11976e-06
4.25749e-06 2.11976e-06 -5.24128e-05
0.00169159 0.000175736 1.71883e-06
0.000175736 0.00022218 3.23454e-06
1.71883e-06 3.23454e-06 0.000106098
0.00185176 0.000156977 -1.19308e-06
0.000156977 0.000129082 -1.05068e-06
-1.19308e-06 -1.05068e-06 -3.41166e-06
0.00163054 5.54094e-05 -2.59657e-07
5.54094e-05 -5.22266e-05 -6.14404e-07
-2.59657e-07 -6.14404e-07 -0.000145878
0.00176708 0.000145759 -1.73398e-06
0.000145759 7.11851e-05 -1.20342e-06
-1.73398e-06 -1.20342e-06 -5.27198e-05
0.00109102 4.34581e-05 -4.47412e-06
4.34581e-05 -7.37736e-05 -6.78348e-06
-4.47412e-06 -6.78348e-06 -8.90344e-05
0.00165565 -8.70924e-06 4.80609e-06
-8.70924e-06 3.58135e-06 -2.07135e-07
4.80609e-06 -2.07135e-07 -8.4426e-05
0.00183048 -4.08785e-06 -1.00439e-06
-4.08785e-06 0.000153778 1.87801e-07
-1.00439e-06 1.87801e-07 7.63829e-05
0.00111566 -5.20434e-06 -1.22505e-05
-5.20434e-06 -0.00016335 2.65952e-06
-1.22505e-05 2.65952e-06 -0.000306418
0.00134663 6.47019e-06 -3.56431e-06
6.47019e-06 -0.000261807 2.93665e-06
-3.56431e-06 2.93665e-06 -0.000321275
0.00209868 1.75151e-05 7.20967e-06
1.75151e-05 0.000167052 2.57487e-06
7.20967e-06 2.57487e-06 7.91006e-05
0.00190304 -6.4966e-06 -2.91912e-06
-6.4966e-06 0.000105719 -2.34405e-07
-2.91912e-06 -2.34405e-07 2.40244e-05
0.00173087 -2.82263e-06 6.60947e-07
-2.82263e-06 1.59449e-05 4.96726e-07
6.60947e-07 4.96726e-07 -6.77489e-05
0.00172995 -7.10125e-06 1.59904e-06
-7.10125e-06 4.63525e-05 -5.17353e-07
1.59904e-06 -5.17353e-07 -4.51592e-05
0.00154214 -1.78808e-05 -2.9665e-06
-1.78808e-05 -4.53973e-05 3.19132e-07
-2.9665e-06 3.19132e-07 -0.000123252
0.00176088 -1.42338e-05 -9.10473e-08
-1.42338e-05 0.000100474 9.41173e-08
-9.10473e-08 9.41173e-08 8.48972e-06
0.00174772 -8.36745e-06 -4.34604e-07
-8.36745e-06 0.000107139 -5.78695e-07
-4.34604e-07 -5.78695e-07 6.40672e-06
0.00177196 -4.65085e-05 -2.26158e-06
-4.65085e-05 0.000113542 -9.73393e-08
-2.26158e-06 -9.73393e-08 1.63993e-05
0.00167035 -3.9235e-05 -1.78111e-07
-3.9235e-05 8.3924e-05 4.90408e-07
-1.78111e-07 4.90408e-07 -2.03527e-05
0.0016449 -4.0798e-05 -1.35151e-06
-4.0798e-05 9.15917e-05 -4.34405e-07
-1.35151e-06 -4.34405e-07 -1.37092e-05
0.00173869 -7.64327e-05 7.2676e-07
-7.64327e-05 0.000132343 -6.44552e-07
7.2676e-07 -6.44552e-07 3.07436e-05
0.00160619 -7.72145e-05 2.0469e-07
-7.72145e-05 9.1214e-05 5.31615e-07
2.0469e-07 5.31615e-07 -1.37886e-05
0.00152534 -7.97763e-05 -1.89509e-06
-7.97763e-05 8.57298e-05 3.00794e-07
-1.89509e-06 3.00794e-07 -2.12891e-05
0.00152288 -9.65972e-05 3.63514e-07
-9.65972e-05 9.31195e-05 -8.58598e-07
3.63514e-07 -8.58598e-07 -1.21076e-05
0.00144907 -9.52373e-05 1.33296e-07
-9.52373e-05 8.95845e-05 2.9828e-08
1.33296e-07 2.9828e-08 -1.86814e-05
0.00132404 -8.81312e-05 -3.77861e-06
-8.81312e-05 7.05675e-05 1.24375e-06
-3.77861e-06 1.24375e-06 -3.32999e-05
0.00115452 -9.29995e-05 1.54695e-06
-9.29995e-05 -2.04946e-05 -4.64096e-07
1.54695e-06 -4.64096e-07 -0.000127402
0.00124285 -9.20051e-05 2.57259e-08
-9.20051e-05 6.9161e-05 -1.09801e-07
2.57259e-08 -1.09801e-07 -3.26497e-05
0.00102764 -7.32249e-05 -6.58592e-06
-7.32249e-05 1.75862e-05 2.59643e-06
-6.58592e-06 2.59643e-06 -6.6911e-05
0.000862896 -8.55942e-05 3.35694e-06
-8.55942e-05 -9.05099e-05 -7.03267e-07
3.35694e-06 -7.03267e-07 -0.000192619
0.00098494 -7.68969e-05 2.3647e-07
-7.68969e-05 2.94043e-05 -2.72139e-08
2.3647e-07 -2.72139e-08 -5.42441e-05
0.00173825 -1.08788e-05 -7.95781e-06
-1.08788e-05 0.000534355 3.91946e-06
-7.95781e-06 3.91946e-06 0.000487561
0.00107827 3.45403e-05 -5.49315e-05
3.45403e-05 0.00021822 7.08995e-06
-5.49315e-05 7.08995e-06 0.000199024
0.00126063 -2.25005e-05 -1.16267e-06
-2.25005e-05 0.000278595 -8.46765e-08
-1.16267e-06 -8.46765e-08 0.000232036
0.000975164 -7.87193e-05 4.65634e-06
-7.87193e-05 6.0629e-05 -1.83811e-06
4.65634e-06 -1.83811e-06 -2.25418e-05
0.0032574 0.000103197 2.91575e-06
0.000103197 0.00137879 2.73069e-07
2.91575e-06 2.73069e-07 0.0013728
0.000766345 -2.48816e-05 7.63733e-06
-2.48816e-05 1.108e-05 -5.1377e-06
7.63733e-06 -5.1377e-06 -3.23943e-05
0.0030576 9.02692e-05 5.33915e-05
9.02692e-05 0.00125906 -3.13195e-06
5.33915e-05 -3.13195e-06 0.0012579
0.00131762 0.000113977 -1.71755e-07
0.000113977 -1.226e-05 2.46081e-07
-1.71755e-07 2.46081e-07 -0.000119962
0.000792142 0.000104783 2.48504e-06
0.000104783 -0.000142459 1.33946e-06
2.48504e-06 1.33946e-06 -0.000259645
0.00081061 0.000104381 -2.09022e-07
0.000104381 -7.44753e-05 -1.1002e-07
-2.09022e-07 -1.1002e-07 -0.000190912
0.00114694 0.000105425 -1.99414e-06
0.000105425 0.000126313 -6.26229e-07
-1.99414e-06 -6.26229e-07 2.49532e-05
0.000531635 8.45945e-05 -6.8346e-09
8.45945e-05 -0.00016204 6.18589e-07
-6.8346e-09 6.18589e-07 -0.000269579
0.0010275 9.40027e-05 -3.14935e-07
9.40027e-05 9.96434e-05 -9.12518e-08
-3.14935e-07 -9.12518e-08 4.1675e-06
0.000953436 5.2865e-05 -3.2991e-06
5.2865e-05 8.96984e-05 -1.06202e-06
-3.2991e-06 -1.06202e-06 1.2594e-05
0.000900115 7.93528e-05 9.21263e-07
7.93528e-05 5.80394e-05 9.86134e-08
9.21263e-07 9.86134e-08 -3.05704e-05
0.00082466 2.66055e-05 -1.13888e-07
2.66055e-05 3.41139e-05 1.92794e-07
-1.13888e-07 1.92794e-07 -3.91861e-05
0.000707337 -2.79963e-05 -5.0165e-06
-2.79963e-05 -8.76625e-06 -4.26945e-06
-5.0165e-06 -4.26945e-06 -4.55113e-05
0.000810892 -1.66794e-05 1.26512e-06
-1.66794e-05 3.1903e-05 1.69253e-06
1.26512e-06 1.69253e-06 -3.58445e-05
0.000627939 -6.35517e-05 -3.00154e-08
-6.35517e-05 -4.73316e-05 -1.52951e-07
-3.00154e-08 -1.52951e-07 -7.93165e-05
0.00275258 -8.31221e-05 -4.34849e-05
-8.31221e-05 0.00108901 -2.91451e-06
-4.34849e-05 -2.91451e-06 0.00109232
0.000626106 -5.55518e-05 2.29463e-06
-5.55518e-05 -5.61778e-05 4.05262e-06
2.29463e-06 4.05262e-06 -7.99605e-05
0.00254218 -7.49273e-05 -5.13585e-07
-7.49273e-05 0.000971332 9.82913e-08
-5.13585e-07 9.82913e-08 0.000978233
0.00235886 -6.65561e-05 3.14864e-05
-6.65561e-05 0.000867208 2.96039e-06
3.14864e-05 2.96039e-06 0.00087714
0.00173996 1.88767e-05 6.27633e-06
1.88767e-05 5.00966e-05 1.01717e-06
6.27633e-06 1.01717e-06 -4.76777e-05
0.00205278 -1.63036e-05 -1.72316e-06
-1.63036e-05 0.000203919 -8.06681e-07
-1.72316e-06 -8.06681e-07 0.000130582
0.00220089 -9.24016e-05 -2.41933e-06
-9.24016e-05 0.000310338 5.63092e-08
-2.41933e-06 5.63092e-08 0.000243255
0.00166189 0.000122007 -5.65102e-06
0.000122007 9.02532e-05 -2.74423e-06
-5.65102e-06 -2.74423e-06 -2.59157e-05
0.00173312 0.000141265 -4.23098e-07
0.000141265 0.000291866 6.26864e-07
-4.23098e-07 6.26864e-07 0.000187056
0.000739273 0.000100697 -8.36885e-06
0.000100697 -5.48676e-05 5.99175e-07
-8.36885e-06 5.99175e-07 -0.000140896
0.00147159 0.000132807 2.28506e-06
0.000132807 0.000106165 1.55843e-06
2.28506e-06 1.55843e-06 -9.62365e-06
0.00149346 0.000136131 -3.02125e-06
0.000136131 0.00022534 6.76384e-07
-3.02125e-06 6.76384e-07 0.000107855
0.00207062 7.46476e-05 -1.09871e-06
7.46476e-05 0.000227514 1.32412e-06
-1.09871e-06 1.32412e-06 0.000107209
0.00165398 0.000132034 -2.70991e-06
0.000132034 6.19892e-05 -1.93579e-06
-2.70991e-06 -1.93579e-06 -6.39963e-05
0.00175182 0.000160468 2.00177e-06
0.000160468 0.000244055 5.95374e-06
2.00177e-06 5.95374e-06 0.000134383
0.00176645 7.49897e-05 -4.97919e-07
7.49897e-05 6.88145e-05 -6.88543e-08
-4.97919e-07 -6.88543e-08 -4.6635e-05
0.00213349 0.000166519 1.18506e-06
0.000166519 0.000258123 -3.41563e-07
1.18506e-06 -3.41563e-07 0.000123718
0.00178456 6.2241e-05 -1.22431e-05
6.2241e-05 3.28807e-05 -5.66472e-06
-1.22431e-05 -5.66472e-06 -6.17879e-05
0.00190293 -4.54521e-06 2.17372e-06
-4.54521e-06 0.000130533 1.08107e-07
2.17372e-06 1.08107e-07 3.55309e-05
0.00175735 -5.55572e-06 -5.59505e-07
-5.55572e-06 5.26999e-05 -4.80189e-07
-5.59505e-07 -4.80189e-07 -3.43119e-05
0.00204102 7.06073e-06 -7.4092e-06
7.06073e-06 0.000255595 2.72644e-06
-7.4092e-06 2.72644e-06 0.000177906
0.00194061 -5.2321e-06 -3.79086e-06
-5.2321e-06 0.00012504 1.19786e-06
-3.79086e-06 1.19786e-06 4.42163e-05
0.00190093 -5.68575e-06 2.08898e-06
-5.68575e-06 0.00011138 1.76877e-06
2.08898e-06 1.76877e-06 2.91322e-05
0.00178478 -6.21077e-06 -4.38456e-07
-6.21077e-06 7.39666e-05 -2.76199e-07
-4.38456e-07 -2.76199e-07 -1.61257e-05
0.00179551 1.69906e-06 7.1988e-07
1.69906e-06 0.000102668 -4.32949e-07
7.1988e-07 -4.32949e-07 -1.04215e-06
0.00172301 -1.28897e-05 3.60914e-07
-1.28897e-05 8.2771e-05 8.84706e-07
3.60914e-07 8.84706e-07 -9.44797e-06
0.00164853 -1.02263e-05 -5.40825e-07
-1.02263e-05 6.06749e-05 9.59625e-08
-5.40825e-07 9.59625e-08 -4.04208e-05
0.00167222 -1.27937e-05 -1.42111e-06
-1.27937e-05 9.3618e-05 1.08113e-06
-1.42111e-06 1.08113e-06 -1.62894e-05
0.00172219 -4.02005e-05 7.75695e-07
-4.02005e-05 0.000111093 8.20375e-07
7.75695e-07 8.20375e-07 6.50163e-06
0.00163658 -4.08883e-05 -8.88827e-08
-4.08883e-05 8.77478e-05 -3.19181e-07
-8.88827e-08 -3.19181e-07 -1.75079e-05
0.00155634 -4.85227e-05 -2.19899e-06
-4.85227e-05 7.95996e-05 -4.3128e-07
-2.19899e-06 -4.3128e-07 -2.62794e-05
0.00162899 -7.66057e-05 1.54287e-06
-7.66057e-05 0.000102001 3.73486e-07
1.54287e-06 3.73486e-07 -3.09549e-06
0.00153061 -7.92634e-05 7.24746e-08
-7.92634e-05 8.8157e-05 4.26989e-07
7.24746e-08 4.26989e-07 -1.88221e-05
0.00140012 -7.5966e-05 -4.01331e-06
-7.5966e-05 7.13831e-05 8.14815e-07
-4.01331e-06 8.14815e-07 -3.21979e-05
0.00144901 -9.45908e-05 1.8988e-06
-9.45908e-05 8.91888e-05 -5.99039e-07
1.8988e-06 -5.99039e-07 -1.89875e-05
0.00132166 -8.73692e-05 1.12023e-07
-8.73692e-05 6.90224e-05 9.0587e-08
1.12023e-07 9.0587e-08 -3.47261e-05
0.00108926 -6.97305e-05 -7.34825e-06
-6.97305e-05 1.69932e-05 2.82544e-06
-7.34825e-06 2.82544e-06 -7.00466e-05
0.00123407 -9.10454e-05 3.53992e-06
-9.10454e-05 6.46209e-05 -1.09704e-06
3.53992e-06 -1.09704e-06 -3.7042e-05
0.00103794 -7.32896e-05 2.97163e-07
-7.32896e-05 2.2286e-05 -1.04305e-07
2.97163e-07 -1.04305e-07 -6.23e-05
0.00185279 -1.06347e-05 -7.66944e-06
-1.06347e-05 0.000582015 4.06359e-06
-7.66944e-06 4.06359e-06 0.000534541
0.000997958 -7.78111e-05 5.56986e-06
-7.78111e-05 3.64245e-05 -2.12788e-06
5.56986e-06 -2.12788e-06 -4.74546e-05
0.00193635 -3.04071e-05 1.7124e-05
-3.04071e-05 0.000631415 -1.09587e-06
1.7124e-05 -1.09587e-06 0.000586362
0.00123272 -4.72216e-06 -7.31286e-05
-4.72216e-06 0.000309733 8.19623e-06
-7.31286e-05 8.19623e-06 0.000289953
0.00227396 5.19743e-05 -5.57403e-05
5.19743e-05 0.000863526 1.37467e-06
-5.57403e-05 1.37467e-06 0.00085047
0.00198976 -3.4744e-05 3.72811e-05
-3.4744e-05 0.000660238 -4.45288e-06
3.72811e-05 -4.45288e-06 0.000619779
0.00331099 8.39832e-05 6.59148e-05
8.39832e-05 0.00140819 -3.51751e-06
6.59148e-05 -3.51751e-06 0.00140358
0.00167637 0.000108957 -4.03859e-06
0.000108957 9.59216e-05 -3.75614e-06
-4.03859e-06 -3.75614e-06 -1.53962e-05
0.00158368 0.000125075 4.46636e-06
0.000125075 0.00020164 3.72656e-07
4.46636e-06 3.72656e-07 9.06188e-05
0.00130675 0.000115219 1.46668e-06
0.000115219 -7.60178e-06 1.06764e-06
1.46668e-06 1.06764e-06 -0.000106771
0.001165 0.000109986 -2.22729e-06
0.000109986 9.15089e-05 -1.11577e-06
-2.22729e-06 -1.11577e-06 -1.54932e-05
0.00115924 0.00012119 -5.34943e-07
0.00012119 4.42569e-05 2.39949e-07
-5.34943e-07 2.39949e-07 -7.42764e-05
0.000999833 0.000113824 3.81929e-07
0.000113824 1.6929e-05 6.25805e-07
3.81929e-07 6.25805e-07 -0.000101133
0.00109279 0.000103058 -2.03337e-07
0.000103058 0.000100923 -1.41806e-07
-2.03337e-07 -1.41806e-07 -5.45219e-07
0.000986763 7.42868e-05 -3.63035e-06
7.42868e-05 8.53412e-05 -1.41298e-06
-3.63035e-06 -1.41298e-06 4.64916e-06
0.000922897 8.80072e-05 9.65927e-07
8.80072e-05 4.6793e-05 1.54099e-07
9.65927e-07 1.54099e-07 -4.79964e-05
0.000856262 4.99517e-05 -2.65936e-07
4.99517e-05 3.82555e-05 1.81193e-08
-2.65936e-07 1.81193e-08 -3.77376e-05
0.00074775 3.83589e-06 -6.35831e-06
3.83589e-06 9.11998e-06 -4.33287e-06
-6.35831e-06 -4.33287e-06 -3.25476e-05
0.000735479 2.13104e-05 1.71033e-06
2.13104e-05 -1.1998e-05 1.24938e-06
1.71033e-06 1.24938e-06 -8.48484e-05
0.000639923 -3.82326e-05 -6.94206e-08
-3.82326e-05 -4.30327e-05 -1.15029e-07
-6.94206e-08 -1.15029e-07 -7.93117e-05
0.00292553 -9.16956e-05 -4.90838e-05
-9.16956e-05 0.00119158 -2.81047e-06
-4.90838e-05 -2.81047e-06 0.00119064
0.00057137 -6.36794e-05 1.18704e-06
-6.36794e-05 -7.72771e-05 4.58913e-06
1.18704e-06 4.58913e-06 -0.000109034
0.00272607 -8.40056e-05 -7.60277e-07
-8.40056e-05 0.00107453 1.34456e-07
-7.60277e-07 1.34456e-07 0.00107817
0.00250371 -7.47308e-05 3.47802e-05
-7.47308e-05 0.000950686 2.75821e-06
3.47802e-05 2.75821e-06 0.000957926
0.00185252 2.23547e-05 -7.90539e-07
2.23547e-05 9.99841e-05 8.91868e-07
-7.90539e-07 8.91868e-07 -4.94225e-06
0.00170562 1.84443e-05 4.72317e-07
1.84443e-05 3.28288e-05 -1.20639e-07
4.72317e-07 -1.20639e-07 -6.49652e-05
0.00245596 -1.92445e-05 -2.1642e-05
-1.92445e-05 0.000447559 -2.29836e-06
-2.1642e-05 -2.29836e-06 0.000376774
0.00182126 6.98628e-05 -7.38961e-07
6.98628e-05 0.00012118 4.95524e-07
-7.38961e-07 4.95524e-07 4.60551e-06
0.00175401 0.000124282 1.47148e-07
0.000124282 0.000143509 -1.17097e-06
1.47148e-07 -1.17097e-06 2.71045e-05
0.00143469 0.000130333 -3.65529e-06
0.000130333 0.000160828 2.26064e-06
-3.65529e-06 2.26064e-06 6.00521e-05
0.00212853 0.000155106 1.59571e-06
0.000155106 0.000439238 2.43351e-07
1.59571e-06 2.43351e-07 0.0003253
0.0019699 7.39004e-05 -4.67938e-07
7.39004e-05 0.000173936 -1.397e-07
-4.67938e-07 -1.397e-07 5.37468e-05
0.00160347 0.000132731 1.04533e-06
0.000132731 3.53665e-05 7.19589e-07
1.04533e-06 7.19589e-07 -9.39166e-05
0.00173076 7.63096e-05 -3.22393e-06
7.63096e-05 5.03405e-05 -2.24146e-06
-3.22393e-06 -2.24146e-06 -6.56002e-05
0.00184346 4.46004e-06 1.48158e-06
4.46004e-06 0.000102504 -1.027e-07
1.48158e-06 -1.027e-07 -3.0842e-07
0.00184712 -3.0521e-06 -5.47265e-07
-3.0521e-06 0.000100839 -7.72222e-08
-5.47265e-07 -7.72222e-08 5.03278e-06
0.00181031 -1.70406e-06 -5.24194e-06
-1.70406e-06 7.85577e-05 6.82561e-07
-5.24194e-06 6.82561e-07 -7.57003e-06
0.00181168 1.02046e-05 -1.79502e-07
1.02046e-05 0.000103872 -3.45717e-07
-1.79502e-07 -3.45717e-07 -4.23868e-06
0.00183232 -4.64129e-06 -2.10195e-06
-4.64129e-06 9.74696e-05 7.17357e-07
-2.10195e-06 7.17357e-07 8.7385e-06
0.00175726 2.11231e-06 -2.01867e-07
2.11231e-06 8.37476e-05 3.6279e-09
-2.01867e-07 3.6279e-09 -1.96433e-05
0.00176729 3.65585e-06 1.99761e-07
3.65585e-06 0.000120193 -5.91074e-07
1.99761e-07 -5.91074e-07 7.96017e-06
0.00156663 -1.1825e-05 1.93085e-07
-1.1825e-05 2.33471e-05 9.62094e-07
1.93085e-07 9.62094e-07 -7.81583e-05
0.00166649 -1.24028e-05 -2.29124e-07
-1.24028e-05 9.13672e-05 6.04956e-07
-2.29124e-07 6.04956e-07 -1.8408e-05
0.00157725 -1.71289e-05 -2.88941e-06
-1.71289e-05 7.85392e-05 1.84727e-06
-2.88941e-06 1.84727e-06 -3.2616e-05
0.0016301 -4.05099e-05 1.24571e-06
-4.05099e-05 8.48935e-05 -1.68754e-07
1.24571e-06 -1.68754e-07 -2.03092e-05
0.00157209 -4.68587e-05 -9.75864e-08
-4.68587e-05 8.7473e-05 -4.08165e-07
-9.75864e-08 -4.08165e-07 -1.83905e-05
0.00143214 -5.37654e-05 -4.15447e-06
-5.37654e-05 6.65558e-05 1.22116e-07
-4.15447e-06 1.22116e-07 -3.58262e-05
0.00153644 -7.86917e-05 2.40497e-06
-7.86917e-05 9.08589e-05 5.08386e-07
2.40497e-06 5.08386e-07 -1.60734e-05
0.00139556 -7.51985e-05 5.07288e-08
-7.51985e-05 6.89151e-05 3.65679e-07
5.07288e-08 3.65679e-07 -3.45622e-05
0.00115103 -6.18385e-05 -7.99516e-06
-6.18385e-05 2.00277e-05 2.31613e-06
-7.99516e-06 2.31613e-06 -6.82425e-05
0.00131881 -8.6551e-05 3.96011e-06
-8.6551e-05 6.7235e-05 -1.05231e-06
3.96011e-06 -1.05231e-06 -3.63908e-05
0.0010954 -6.885e-05 3.79978e-07
-6.885e-05 1.87205e-05 7.57379e-08
3.79978e-07 7.57379e-08 -6.82075e-05
0.00198822 -2.4366e-05 -1.1855e-05
-2.4366e-05 0.000631696 3.46382e-06
-1.1855e-05 3.46382e-06 0.000586991
0.0010415 -7.31355e-05 6.50053e-06
-7.31355e-05 2.35968e-05 -2.67776e-06
6.50053e-06 -2.67776e-06 -6.10797e-05
0.00204272 -3.84341e-05 1.77288e-05
-3.84341e-05 0.000673663 -1.25138e-06
1.77288e-05 -1.25138e-06 0.000629088
0.00131186 -1.10023e-05 -7.70036e-05
-1.10023e-05 0.000353831 7.95657e-06
-7.70036e-05 7.95657e-06 0.000332576
0.00211503 -5.36752e-05 4.41447e-05
-5.36752e-05 0.000716757 -6.7083e-06
4.41447e-05 -6.7083e-06 0.000674122
0.00124338 3.53224e-05 -3.45052e-05
3.53224e-05 0.000325163 2.54872e-06
-3.45052e-05 2.54872e-06 0.000299599
0.00338785 0.00014558 1.11349e-05
0.00014558 0.0014745 -1.69763e-06
1.11349e-05 -1.69763e-06 0.00145694
0.00192356 7.77457e-05 -2.06786e-06
7.77457e-05 0.000210508 -1.35143e-06
-2.06786e-06 -1.35143e-06 9.46555e-05
0.00156135 0.000103875 -6.06631e-07
0.000103875 9.08949e-05 -3.36912e-06
-6.06631e-07 -3.36912e-06 -1.93556e-05
0.00171198 0.000111355 -3.09599e-06
0.000111355 0.000127112 1.4049e-06
-3.09599e-06 1.4049e-06 1.69482e-05
0.00162602 0.000121457 -1.60792e-06
0.000121457 0.000274217 -4.00687e-07
-1.60792e-06 -4.00687e-07 0.000167278
0.00140158 0.000121443 5.73795e-07
0.000121443 0.000103756 -1.6478e-06
5.73795e-07 -1.6478e-06 -6.35608e-06
0.00134052 0.0001178 2.49468e-06
0.0001178 1.94609e-05 1.87514e-06
2.49468e-06 1.87514e-06 -7.12535e-05
0.00101412 8.51639e-05 -4.73805e-06
8.51639e-05 6.35521e-05 -2.39095e-06
-4.73805e-06 -2.39095e-06 -2.32501e-05
0.00116966 0.000110693 -1.46423e-07
0.000110693 9.47735e-05 -9.98282e-08
-1.46423e-07 -9.98282e-08 -1.25792e-05
0.00153483 0.000137703 1.9818e-06
0.000137703 0.000235488 8.00835e-07
1.9818e-06 8.00835e-07 0.000115578
0.00102898 0.000100256 1.51798e-06
0.000100256 7.05425e-05 3.09348e-07
1.51798e-06 3.09348e-07 -3.09982e-05
0.00091345 7.05301e-05 -2.40945e-07
7.05301e-05 4.76472e-05 -2.0257e-07
-2.40945e-07 -2.0257e-07 -3.26075e-05
0.000784485 4.05705e-05 -8.12374e-06
4.05705e-05 2.73812e-05 -5.0244e-06
-8.12374e-06 -5.0244e-06 -2.02533e-05
0.000763514 4.69463e-05 2.36579e-06
4.69463e-05 -1.08136e-05 8.59215e-07
2.36579e-06 8.59215e-07 -8.58881e-05
0.000682474 -7.98395e-07 9.92878e-08
-7.98395e-07 -1.97874e-05 -3.1421e-08
9.92878e-08 -3.1421e-08 -6.2286e-05
0.00313011 -8.86363e-05 -6.04946e-05
-8.86363e-05 0.00131604 -2.90415e-06
-6.04946e-05 -2.90415e-06 0.00131149
0.000583014 -6.08594e-05 1.02048e-06
-6.08594e-05 -6.6801e-05 4.83979e-06
1.02048e-06 4.83979e-06 -0.0001058
0.00290684 -9.41907e-05 -1.12901e-06
-9.41907e-05 0.00117983 1.92346e-07
-1.12901e-06 1.92346e-07 0.0011792
0.00270716 -8.46022e-05 3.86419e-05
-8.46022e-05 0.00106393 2.65404e-06
3.86419e-05 2.65404e-06 0.00106794
0.00178071 2.52904e-05 -2.94351e-07
2.52904e-05 7.72306e-05 4.97976e-07
-2.94351e-07 4.97976e-07 -2.89536e-05
0.00178844 2.4542e-05 -8.57776e-07
2.4542e-05 6.43779e-05 2.0355e-07
-8.57776e-07 2.0355e-07 -4.11748e-05
0.00178187 1.74599e-05 -5.51997e-06
1.74599e-05 6.93248e-05 -1.33151e-06
-5.51997e-06 -1.33151e-06 -2.83134e-05
0.00182368 6.9856e-05 1.0277e-06
6.9856e-05 0.000119153 -1.77757e-07
1.0277e-06 -1.77757e-07 4.64613e-06
0.00184284 0.000126765 1.01737e-06
0.000126765 0.000195575 4.44131e-08
1.01737e-06 4.44131e-08 7.88423e-05
0.00185019 7.25543e-05 1.11097e-06
7.25543e-05 0.000111628 -1.51102e-06
1.11097e-06 -1.51102e-06 -8.38356e-06
0.00182513 9.24762e-06 -4.9712e-07
9.24762e-06 0.000100746 -3.75605e-08
-4.9712e-07 -3.75605e-08 -6.65682e-06
0.0018697 6.62626e-06 2.45804e-07
6.62626e-06 0.000114767 -1.5331e-07
2.45804e-07 -1.5331e-07 1.15547e-05
0.00180068 -7.03421e-07 -1.42009e-06
-7.03421e-07 7.59084e-05 -1.57658e-07
-1.42009e-06 -1.57658e-07 -2.06803e-05
0.00179473 1.19558e-06 -6.92565e-07
1.19558e-06 9.6349e-05 1.09836e-07
-6.92565e-07 1.09836e-07 -1.10985e-05
0.00184952 6.21898e-06 3.38681e-07
6.21898e-06 0.000146254 -5.76433e-07
3.38681e-07 -5.76433e-07 3.38597e-05
0.00170779 2.43911e-06 -7.69001e-07
2.43911e-06 5.9196e-05 3.85446e-07
-7.69001e-07 3.85446e-07 -4.38656e-05
0.00176446 4.16289e-06 2.67485e-07
4.16289e-06 0.000118835 -3.07298e-07
2.67485e-07 -3.07298e-07 5.96832e-06
0.00159961 -2.03024e-07 -7.63556e-07
-2.03024e-07 6.43176e-05 -2.75357e-07
-7.63556e-07 -2.75357e-07 -5.18285e-05
0.00166303 -1.25683e-05 6.86182e-07
-1.25683e-05 9.02847e-05 1.80746e-07
6.86182e-07 1.80746e-07 -1.93609e-05
0.00160462 -1.78047e-05 -7.93905e-07
-1.78047e-05 9.28088e-05 9.06087e-07
-7.93905e-07 9.06087e-07 -1.83809e-05
0.0014631 -2.43035e-05 -4.97413e-06
-2.43035e-05 6.94892e-05 1.67162e-06
-4.97413e-06 1.67162e-06 -3.69574e-05
0.00158867 -4.67156e-05 1.97565e-06
-4.67156e-05 9.57031e-05 -3.88929e-07
1.97565e-06 -3.88929e-07 -1.01743e-05
0.0014423 -5.27716e-05 1.79484e-09
-5.27716e-05 7.12728e-05 -2.5462e-07
1.79484e-09 -2.5462e-07 -3.10771e-05
0.00115913 -4.54204e-05 -8.18974e-06
-4.54204e-05 7.18779e-06 1.38984e-06
-8.18974e-06 1.38984e-06 -8.02796e-05
0.00138894 -7.43276e-05 4.21494e-06
-7.43276e-05 6.53829e-05 -9.61129e-08
4.21494e-06 -9.61129e-08 -3.79877e-05
0.00114728 -6.00684e-05 2.35986e-07
-6.00684e-05 1.68356e-05 3.295e-07
2.35986e-07 3.295e-07 -7.11571e-05
0.00213305 -3.22929e-05 -1.5764e-05
-3.22929e-05 0.000686613 2.55684e-06
-1.5764e-05 2.55684e-06 0.000643642
0.00109735 -6.8012e-05 7.47544e-06
-6.8012e-05 1.82591e-05 -2.64151e-06
7.47544e-06 -2.64151e-06 -6.85616e-05
0.00214604 -4.77611e-05 1.68744e-05
-4.77611e-05 0.000708687 -1.2456e-06
1.68744e-05 -1.2456e-06 0.000665768
0.00142723 -1.19237e-05 -8.07995e-05
-1.19237e-05 0.000406703 7.08319e-06
-8.07995e-05 7.08319e-06 0.000385117
0.00222002 -6.10766e-05 4.79203e-05
-6.10766e-05 0.000759525 -6.49955e-06
4.79203e-05 -6.49955e-06 0.000717075
0.00131262 3.31722e-05 -3.85376e-05
3.31722e-05 0.0003637 2.31839e-06
-3.85376e-05 2.31839e-06 0.000336818
0.00129588 8.27185e-05 3.24849e-06
8.27185e-05 0.000364978 -3.23549e-06
3.24849e-06 -3.23549e-06 0.000332389
0.00167428 2.95218e-05 -1.13908e-06
2.95218e-05 5.74143e-05 3.91038e-07
-1.13908e-06 3.91038e-07 -5.35905e-05
0.00163243 7.70823e-05 -3.16944e-06
7.70823e-05 9.45155e-05 -1.17507e-06
-3.16944e-06 -1.17507e-06 -1.73846e-05
0.00176336 7.53239e-05 -1.84746e-06
7.53239e-05 0.000127033 -8.23097e-07
-1.84746e-06 -8.23097e-07 1.07551e-05
0.00157445 0.000105439 -3.11783e-06
0.000105439 0.000168356 -1.15162e-06
-3.11783e-06 -1.15162e-06 6.12146e-05
0.00172393 0.000108895 1.38749e-06
0.000108895 0.000178094 6.04051e-07
1.38749e-06 6.04051e-07 6.76381e-05
0.00172025 0.000112918 4.40662e-06
0.000112918 0.000144965 2.91601e-06
4.40662e-06 2.91601e-06 3.59702e-05
0.000987727 8.51948e-05 -6.05493e-06
8.51948e-05 -1.23032e-07 -2.59253e-06
-6.05493e-06 -2.59253e-06 -9.01464e-05
0.00126319 0.00011053 1.79035e-06
0.00011053 8.14456e-05 9.47688e-07
1.79035e-06 9.47688e-07 -2.67063e-05
0.00121685 0.000117776 7.22627e-07
0.000117776 4.27241e-06 1.47302e-06
7.22627e-07 1.47302e-06 -0.000104893
0.000784224 6.89442e-05 -1.12383e-05
6.89442e-05 1.98349e-05 -5.91425e-06
-1.12383e-05 -5.91425e-06 -3.26546e-05
0.00097466 8.23864e-05 -4.01417e-07
8.23864e-05 4.3424e-05 -2.21072e-07
-4.01417e-07 -2.21072e-07 -4.29427e-05
0.00117792 0.000111548 2.48617e-06
0.000111548 9.99675e-05 1.099e-06
2.48617e-06 1.099e-06 -7.75557e-06
0.000856792 6.69445e-05 3.19439e-06
6.69445e-05 1.8809e-05 1.13241e-06
3.19439e-06 1.13241e-06 -6.10493e-05
0.00069247 3.49837e-05 9.12772e-09
3.49837e-05 -1.4872e-05 3.9086e-09
9.12772e-09 3.9086e-09 -6.26462e-05
0.00345331 -7.16547e-05 -7.12334e-05
-7.16547e-05 0.00150305 -4.21972e-06
-7.12334e-05 -4.21972e-06 0.0014947
0.000633712 -7.23533e-06 4.28286e-06
-7.23533e-06 -4.19382e-05 4.64655e-06
4.28286e-06 4.64655e-06 -8.38571e-05
0.00309787 -0.000104776 -2.35751e-06
-0.000104776 0.00129716 2.84985e-07
-2.35751e-06 2.84985e-07 0.00129136
0.00290047 -9.51697e-05 4.29246e-05
-9.51697e-05 0.00117412 2.61965e-06
4.29246e-05 2.61965e-06 0.0011741
0.00184507 1.30767e-05 -2.86736e-07
1.30767e-05 0.000123488 -3.79074e-07
-2.86736e-07 -3.79074e-07 1.57633e-05
0.00180397 2.49197e-05 -2.68395e-07
2.49197e-05 8.91618e-05 1.34348e-07
-2.68395e-07 1.34348e-07 -1.71793e-05
0.00172925 2.62787e-05 1.00084e-06
2.62787e-05 3.13061e-05 -8.83642e-07
1.00084e-06 -8.83642e-07 -7.48877e-05
0.00184042 6.97588e-05 1.91762e-06
6.97588e-05 0.000124006 -2.58648e-07
1.91762e-06 -2.58648e-07 1.16059e-05
0.00180846 -3.25507e-07 -4.30058e-07
-3.25507e-07 0.000114777 -4.19e-07
-4.30058e-07 -4.19e-07 2.84737e-06
0.00185308 7.03835e-06 -1.61041e-07
7.03835e-06 0.000114478 -4.07925e-08
-1.61041e-07 -4.07925e-08 7.05362e-06
0.001891 8.31348e-06 -5.96099e-07
8.31348e-06 0.000124459 1.86388e-07
-5.96099e-07 1.86388e-07 2.08173e-05
0.00179101 -3.95274e-06 -1.34006e-06
-3.95274e-06 9.60033e-05 2.52429e-07
-1.34006e-06 2.52429e-07 -1.08604e-05
0.00180413 1.13687e-05 -9.77993e-08
1.13687e-05 0.000121336 -6.70398e-08
-9.77993e-08 -6.70398e-08 9.29321e-06
0.00185775 9.61535e-06 -1.01726e-06
9.61535e-06 0.000180592 -3.26221e-07
-1.01726e-06 -3.26221e-07 6.5736e-05
0.00176039 4.67456e-06 5.97408e-07
4.67456e-06 0.000116718 -1.15928e-07
5.97408e-07 -1.15928e-07 3.22148e-06
0.00172424 9.11299e-07 7.00141e-07
9.11299e-07 0.000131332 -5.14697e-07
7.00141e-07 -5.14697e-07 1.55391e-05
0.00132379 -2.32794e-06 -4.05354e-06
-2.32794e-06 -3.00772e-05 9.59799e-07
-4.05354e-06 9.59799e-07 -0.00014299
0.00162417 -1.6947e-05 9.87069e-07
-1.6947e-05 0.000103213 -5.07711e-10
9.87069e-07 -5.07711e-10 -7.99579e-06
0.00146799 -2.19591e-05 -5.67595e-07
-2.19591e-05 7.16191e-05 3.42352e-07
-5.67595e-07 3.42352e-07 -3.47957e-05
0.00117032 -2.37821e-05 -8.0759e-06
-2.37821e-05 3.86935e-07 1.54767e-06
-8.0759e-06 1.54767e-06 -8.91603e-05
0.00144804 -4.96564e-05 4.01249e-06
-4.96564e-05 7.3792e-05 -6.1323e-07
4.01249e-06 -6.1323e-07 -2.84421e-05
0.00117796 -4.55282e-05 -2.78378e-08
-4.55282e-05 1.59433e-05 3.53562e-08
-2.78378e-08 3.53562e-08 -7.14114e-05
0.000686502 -2.65314e-05 -1.23206e-05
-2.65314e-05 -9.52544e-05 2.65778e-06
-1.23206e-05 2.65778e-06 -0.0001453
0.00114383 -5.84955e-05 8.09345e-06
-5.84955e-05 1.37151e-05 -1.71974e-06
8.09345e-06 -1.71974e-06 -7.4003e-05
0.00145578 -4.57649e-05 2.07727e-05
-4.57649e-05 0.000322778 -7.9456e-07
2.07727e-05 -7.9456e-07 0.00027718
0.0045443 1.64146e-06 -9.61955e-05
1.64146e-06 0.0020565 3.50481e-06
-9.61955e-05 3.50481e-06 0.00205091
0.00230252 -5.6706e-05 5.07742e-05
-5.6706e-05 0.000786383 -5.74633e-06
5.07742e-05 -5.74633e-06 0.000744274
0.00138361 1.88536e-05 -3.73406e-05
1.88536e-05 0.000390128 2.39659e-06
-3.73406e-05 2.39659e-06 0.000365233
0.00134596 6.65151e-05 4.90786e-06
6.65151e-05 0.000388745 -2.95485e-06
4.90786e-06 -2.95485e-06 0.000357796
0.0017129 1.50359e-05 -2.06697e-07
1.50359e-05 8.21502e-05 -3.501e-07
-2.06697e-07 -3.501e-07 -2.68844e-05
0.00148693 3.94559e-05 -2.1963e-06
3.94559e-05 4.5131e-06 3.86471e-07
-2.1963e-06 3.86471e-07 -0.000106204
0.00180164 2.96558e-05 -4.51528e-07
2.96558e-05 0.000126069 -3.35581e-07
-4.51528e-07 -3.35581e-07 1.56003e-05
0.00117589 7.37027e-05 -4.59018e-06
7.37027e-05 -8.56134e-05 -1.7947e-06
-4.59018e-06 -1.7947e-06 -0.000193207
0.00166562 7.80329e-05 1.83334e-07
7.80329e-05 0.00011307 4.05023e-09
1.83334e-07 4.05023e-09 1.01513e-06
0.00160317 7.31655e-05 2.94571e-07
7.31655e-05 4.37214e-05 -1.63625e-07
2.94571e-07 -1.63625e-07 -7.3031e-05
0.000651892 6.66033e-05 -8.83096e-06
6.66033e-05 -0.000235553 -3.03712e-06
-8.83096e-06 -3.03712e-06 -0.000328245
0.00160584 0.00010797 9.34798e-07
0.00010797 0.000183937 1.45019e-07
9.34798e-07 1.45019e-07 7.66076e-05
0.00189968 0.00011439 3.23519e-06
0.00011439 0.000272135 1.64788e-06
3.23519e-06 1.64788e-06 0.000161448
0.000734482 7.89762e-05 -1.2592e-05
7.89762e-05 -2.62749e-05 -5.90481e-06
-1.2592e-05 -5.90481e-06 -8.1172e-05
0.000776551 7.79137e-05 -8.58604e-08
7.79137e-05 -0.000113832 1.45009e-07
-8.58604e-08 1.45009e-07 -0.00020498
0.000897671 9.95548e-05 4.35875e-06
9.95548e-05 -0.000112764 2.38968e-06
4.35875e-06 2.38968e-06 -0.00022212
0.00394576 -6.87087e-05 -7.82341e-05
-6.87087e-05 0.00177147 -5.36495e-06
-7.82341e-05 -5.36495e-06 0.00175832
0.000671778 5.95471e-05 5.9404e-08
5.95471e-05 -3.40057e-05 3.11668e-08
5.9404e-08 3.11668e-08 -8.64114e-05
0.000935656 7.96701e-05 4.3553e-06
7.96701e-05 2.397e-05 2.17831e-06
4.3553e-06 2.17831e-06 -6.20283e-05
0.000602173 2.94207e-05 6.55432e-06
2.94207e-05 -5.6824e-05 4.94922e-06
6.55432e-06 4.94922e-06 -0.000104686
0.00334141 -0.000100802 -4.45792e-06
-0.000100802 0.00144345 1.8522e-07
-4.45792e-06 1.8522e-07 0.00143387
0.00304285 -0.000106152 4.63259e-05
-0.000106152 0.00126458 2.56958e-06
4.63259e-05 2.56958e-06 0.00125937
0.00176347 9.35441e-07 -1.16376e-06
9.35441e-07 9.55338e-05 -5.31415e-07
-1.16376e-06 -5.31415e-07 -1.48188e-05
0.00183771 1.26887e-05 -4.39355e-07
1.26887e-05 0.000116748 3.05577e-08
-4.39355e-07 3.05577e-08 9.17837e-06
0.00182942 2.48635e-05 5.78863e-07
2.48635e-05 0.000102711 -2.57543e-07
5.78863e-07 -2.57543e-07 -3.78771e-06
0.00184011 1.04801e-05 -9.28182e-07
1.04801e-05 0.000163582 -2.46705e-07
-9.28182e-07 -2.46705e-07 4.92189e-05
0.00179987 3.51916e-06 -4.43864e-07
3.51916e-06 0.000110745 -6.51386e-08
-4.43864e-07 -6.51386e-08 -1.02718e-06
0.00187384 1.63839e-06 -6.44763e-07
1.63839e-06 0.000124261 2.65838e-07
-6.44763e-07 2.65838e-07 1.68826e-05
0.00175157 1.47821e-05 6.67699e-08
1.47821e-05 9.25333e-05 4.83567e-07
6.67699e-08 4.83567e-07 -1.90897e-05
0.00180498 1.20683e-05 6.89532e-07
1.20683e-05 0.00015218 -1.86132e-07
6.89532e-07 -1.86132e-07 3.73365e-05
0.00181852 5.92333e-06 -3.11127e-06
5.92333e-06 0.000200436 1.16674e-07
-3.11127e-06 1.16674e-07 8.87502e-05
0.00185724 2.05807e-06 2.45741e-06
2.05807e-06 0.000202603 -9.80766e-07
2.45741e-06 -9.80766e-07 8.71694e-05
0.00162712 3.04991e-07 2.2644e-08
3.04991e-07 0.000131459 3.47974e-08
2.2644e-08 3.47974e-08 2.05417e-05
0.000819123 -4.90583e-06 -9.78676e-06
-4.90583e-06 -0.00021276 2.3648e-06
-9.78676e-06 2.3648e-06 -0.000311145
0.00147853 -2.19483e-05 3.3444e-06
-2.19483e-05 7.66129e-05 -9.54876e-07
3.3444e-06 -9.54876e-07 -2.98654e-05
0.0011919 -2.15015e-05 -4.79272e-08
-2.15015e-05 1.0564e-05 -2.53968e-07
-4.79272e-08 -2.53968e-07 -7.89036e-05
0.000701072 -1.57267e-05 -1.2304e-05
-1.57267e-05 -9.52448e-05 1.93677e-06
-1.2304e-05 1.93677e-06 -0.000147159
0.00119 -4.41222e-05 8.38152e-06
-4.41222e-05 2.11517e-05 -1.46375e-06
8.38152e-06 -1.46375e-06 -6.60043e-05
0.000689037 -2.31588e-05 -7.95661e-08
-2.31588e-05 -9.42128e-05 1.0413e-07
-7.95661e-08 1.0413e-07 -0.000144152
0.00454908 -3.88412e-06 -9.75927e-05
-3.88412e-06 0.00205543 2.62697e-06
-9.75927e-05 2.62697e-06 0.00205048
0.000756261 -4.36955e-05 1.41052e-05
-4.36955e-05 -5.1393e-05 -4.55162e-06
1.41052e-05 -4.55162e-06 -0.000102331
0.00300514 1.23796e-05 3.76532e-05
1.23796e-05 0.00123873 5.86821e-07
3.76532e-05 5.86821e-07 0.00122311
0.00135001 2.12922e-05 1.28259e-05
2.12922e-05 0.000375874 -2.28572e-06
1.28259e-05 -2.28572e-06 0.000349692
0.00172385 4.85169e-06 -3.63757e-07
4.85169e-06 0.000100467 -3.74202e-07
-3.63757e-07 -3.74202e-07 -9.06253e-06
0.00168649 2.05403e-05 -1.08284e-06
2.05403e-05 0.000104011 -6.28015e-07
-1.08284e-06 -6.28015e-07 -3.48844e-06
0.00174021 1.4061e-05 1.25392e-07
1.4061e-05 9.57273e-05 -2.20203e-08
1.25392e-07 -2.20203e-08 -1.30519e-05
0.00144917 4.915e-05 -3.6803e-06
4.915e-05 4.26642e-05 -5.64661e-07
-3.6803e-06 -5.64661e-07 -6.26717e-05
0.00155069 3.9392e-05 3.40778e-07
3.9392e-05 3.55344e-05 3.18661e-07
3.40778e-07 3.18661e-07 -7.47748e-05
0.0019235 2.96763e-05 1.81324e-07
2.96763e-05 0.000191834 -4.82315e-07
1.81324e-07 -4.82315e-07 8.19079e-05
0.000744506 5.58067e-05 -9.54137e-06
5.58067e-05 -0.000223311 -2.84739e-06
-9.54137e-06 -2.84739e-06 -0.000315361
0.00154523 8.32845e-05 -1.28926e-06
8.32845e-05 0.000110851 -4.75628e-07
-1.28926e-06 -4.75628e-07 4.76376e-06
0.00168834 7.86766e-05 3.33264e-06
7.86766e-05 0.000126239 5.25577e-07
3.33264e-06 5.25577e-07 1.40395e-05
0.000694927 7.08705e-05 -1.32419e-05
7.08705e-05 -7.3129e-05 -4.97754e-06
-1.32419e-05 -4.97754e-06 -0.000126809
0.000695118 6.85961e-05 -2.32253e-06
6.85961e-05 -0.000215352 -6.06998e-07
-2.32253e-06 -6.06998e-07 -0.000308673
0.00163679 0.000110498 5.05655e-06
0.000110498 0.000199257 1.43706e-06
5.05655e-06 1.43706e-06 9.17472e-05
0.00440313 -7.92848e-05 -8.13251e-05
-7.92848e-05 0.00201045 -5.74944e-06
-8.13251e-05 -5.74944e-06 0.00199405
0.000665152 7.25944e-05 6.80485e-07
7.25944e-05 -6.04465e-05 1.93377e-07
6.80485e-07 1.93377e-07 -0.000114862
0.000558734 7.02896e-05 5.86547e-06
7.02896e-05 -0.000230847 3.01957e-06
5.86547e-06 3.01957e-06 -0.00032312
0.00371345 -8.8536e-05 -4.84487e-06
-8.8536e-05 0.00165065 3.42408e-07
-4.84487e-06 3.42408e-07 0.00163744
0.000562653 5.20257e-05 8.3459e-06
5.20257e-05 -8.7227e-05 5.61041e-06
8.3459e-06 5.61041e-06 -0.000139304
0.00320398 -0.000117146 4.97434e-05
-0.000117146 0.00136987 2.52952e-06
4.97434e-05 2.52952e-06 0.00135913
0.00182633 7.97853e-06 -9.50543e-07
7.97853e-06 0.000157106 -6.3256e-07
-9.50543e-07 -6.3256e-07 4.40226e-05
0.00180215 1.862e-06 8.10047e-08
1.862e-06 0.000118311 1.78273e-07
8.10047e-08 1.78273e-07 7.85714e-06
0.00182754 1.25165e-05 -6.81617e-08
1.25165e-05 0.000108445 1.84366e-07
-6.81617e-08 1.84366e-07 1.0312e-06
0.00177992 -2.03258e-06 -3.5979e-06
-2.03258e-06 0.000176758 -2.15961e-07
-3.5979e-06 -2.15961e-07 6.66081e-05
0.00183478 1.02198e-05 6.61576e-07
1.02198e-05 0.000161691 5.36541e-09
6.61576e-07 5.36541e-09 4.75924e-05
0.00180156 1.00356e-05 1.1648e-06
1.00356e-05 0.000112106 2.32686e-07
1.1648e-06 2.32686e-07 3.86652e-07
0.0017556 1.32758e-05 1.90298e-06
1.32758e-05 0.000125525 3.38095e-07
1.90298e-06 3.38095e-07 1.07088e-05
0.00179729 6.10728e-06 1.09524e-06
6.10728e-06 0.000189535 -2.51716e-07
1.09524e-06 -2.51716e-07 7.77261e-05
0.000906401 -5.43866e-08 -9.68345e-06
-5.43866e-08 -0.000197039 1.03999e-06
-9.68345e-06 1.03999e-06 -0.000298944
0.0019347 2.78199e-06 4.86109e-06
2.78199e-06 0.000295225 -1.31004e-06
4.86109e-06 -1.31004e-06 0.000186309
0.00103209 -2.70294e-06 -1.92127e-06
-2.70294e-06 -9.80479e-05 6.71646e-07
-1.92127e-06 6.71646e-07 -0.000194443
0.000709543 -6.28274e-06 -1.27508e-05
-6.28274e-06 -0.00010747 1.84685e-06
-1.27508e-05 1.84685e-06 -0.000164284
0.00122448 -2.09007e-05 8.13623e-06
-2.09007e-05 2.62232e-05 -2.1607e-06
8.13623e-06 -2.1607e-06 -6.32076e-05
0.000714596 -6.39246e-06 1.79002e-07
-6.39246e-06 -8.90774e-05 -1.89786e-07
1.79002e-07 -1.89786e-07 -0.000141149
0.00461791 -1.7518e-06 -9.83588e-05
-1.7518e-06 0.00208862 1.70485e-06
-9.83588e-05 1.70485e-06 0.0020838
0.000678906 -1.77655e-05 1.17705e-05
-1.77655e-05 -9.96533e-05 -2.35272e-06
1.17705e-05 -2.35272e-06 -0.000149286
0.00456914 5.04699e-06 1.32678e-06
5.04699e-06 0.00206519 3.94609e-07
1.32678e-06 3.94609e-07 0.00206042
0.00152167 -1.05066e-05 8.56208e-05
-1.05066e-05 0.000447798 -3.50312e-06
8.56208e-05 -3.50312e-06 0.000427301
0.0019422 9.5994e-06 -7.33083e-07
9.5994e-06 0.000237879 -8.19152e-07
-7.33083e-07 -8.19152e-07 0.000129737
0.00170097 4.3021e-06 6.08695e-07
4.3021e-06 8.69174e-05 5.92149e-07
6.08695e-07 5.92149e-07 -2.20806e-05
0.00148023 2.02779e-05 -3.3137e-06
2.02779e-05 4.71704e-05 -8.68838e-07
-3.3137e-06 -8.68838e-07 -5.7387e-05
0.00166503 1.98678e-05 4.26856e-07
1.98678e-05 9.1935e-05 -4.58988e-07
4.26856e-07 -4.58988e-07 -1.55633e-05
0.00176804 1.30694e-05 1.47592e-06
1.30694e-05 0.000109526 4.30355e-08
1.47592e-06 4.30355e-08 1.01081e-06
0.00121204 4.36296e-05 -8.27347e-06
4.36296e-05 7.81956e-06 -2.0205e-06
-8.27347e-06 -2.0205e-06 -8.19564e-05
0.00148746 4.96665e-05 -1.26217e-07
4.96665e-05 6.13827e-05 3.29117e-07
-1.26217e-07 3.29117e-07 -4.39685e-05
0.00161597 3.93405e-05 1.74501e-06
3.93405e-05 6.73421e-05 4.78614e-07
1.74501e-06 4.78614e-07 -4.25619e-05
0.000689969 5.08058e-05 -1.32239e-05
5.08058e-05 -9.55181e-05 -4.04496e-06
-1.32239e-05 -4.04496e-06 -0.000147762
0.000971076 6.21337e-05 -2.52943e-06
6.21337e-05 -0.000102324 -5.47945e-07
-2.52943e-06 -5.47945e-07 -0.000193627
0.00191958 9.29147e-05 3.92904e-06
9.29147e-05 0.000310008 9.7167e-07
3.92904e-06 9.7167e-07 0.000205416
0.00465934 -2.16692e-05 -9.6489e-05
-2.16692e-05 0.00212241 -4.51135e-06
-9.6489e-05 -4.51135e-06 0.0021146
0.000658593 6.49887e-05 1.61831e-07
6.49887e-05 -9.06809e-05 2.37521e-07
1.61831e-07 2.37521e-07 -0.000144681
0.000739743 7.08234e-05 5.25779e-06
7.08234e-05 -0.000194458 2.068e-06
5.25779e-06 2.068e-06 -0.000288433
0.00416933 -5.10452e-05 2.82003e-06
-5.10452e-05 0.00188285 5.60597e-08
2.82003e-06 5.60597e-08 0.00187132
0.000565417 6.42726e-05 1.06238e-05
6.42726e-05 -0.000109528 5.89494e-06
1.06238e-05 5.89494e-06 -0.000163855
0.00349542 -0.000111388 5.81092e-05
-0.000111388 0.00153773 3.44927e-06
5.81092e-05 3.44927e-06 0.0015238
0.00178891 1.18971e-05 -3.02841e-06
1.18971e-05 0.000185453 -7.91999e-07
-3.02841e-06 -7.91999e-07 7.64879e-05
0.00184468 5.91753e-06 4.61369e-07
5.91753e-06 0.000168654 7.41819e-09
4.61369e-07 7.41819e-09 5.53844e-05
0.00184032 2.36831e-06 1.40423e-06
2.36831e-06 0.000141043 8.73013e-07
1.40423e-06 8.73013e-07 3.0492e-05
0.000927427 -1.23632e-05 -1.00973e-05
-1.23632e-05 -0.000189108 -2.77312e-07
-1.00973e-05 -2.77312e-07 -0.000289887
0.00179261 5.31065e-06 1.04261e-06
5.31065e-06 0.000183451 4.14416e-08
1.04261e-06 4.14416e-08 7.33125e-05
0.0018218 1.01649e-05 2.48803e-06
1.01649e-05 0.000155983 1.67848e-08
2.48803e-06 1.67848e-08 4.21654e-05
0.0017782 6.00677e-06 5.1389e-06
6.00677e-06 0.000179776 -5.62251e-08
5.1389e-06 -5.62251e-08 6.78352e-05
0.000907247 -6.62756e-07 -1.48032e-06
-6.62756e-07 -0.000194945 3.85501e-07
-1.48032e-06 3.85501e-07 -0.000296701
0.000769944 2.07704e-06 -1.35766e-05
2.07704e-06 -9.4829e-05 8.30005e-07
-1.35766e-05 8.30005e-07 -0.000155098
0.00123718 3.35299e-07 6.51335e-06
3.35299e-07 1.25528e-05 -1.34267e-06
6.51335e-06 -1.34267e-06 -8.18479e-05
0.000748453 3.16795e-06 3.02674e-07
3.16795e-06 -8.88617e-05 7.97071e-08
3.02674e-07 7.97071e-08 -0.000145724
0.00486015 -7.70384e-07 -0.000102
-7.70384e-07 0.00220917 8.21794e-07
-0.000102 8.21794e-07 0.00220382
0.000741339 3.03203e-06 1.20901e-05
3.03203e-06 -7.64233e-05 -2.00717e-06
1.20901e-05 -2.00717e-06 -0.000128405
0.00468791 3.99228e-05 5.03779e-06
3.99228e-05 0.00212571 1.75746e-07
5.03779e-06 1.75746e-07 0.00211936
0.00460051 1.05756e-05 0.000102649
1.05756e-05 0.00208038 -1.79101e-06
0.000102649 -1.79101e-06 0.00207596
0.00156411 1.01389e-05 -3.54673e-06
1.01389e-05 8.26681e-05 -1.48496e-06
-3.54673e-06 -1.48496e-06 -2.35505e-05
0.00173568 8.26386e-06 4.82251e-07
8.26386e-06 0.000128666 4.01788e-07
4.82251e-07 4.01788e-07 2.02358e-05
0.00167718 3.87285e-06 1.05259e-06
3.87285e-06 7.2956e-05 1.10303e-06
1.05259e-06 1.10303e-06 -3.55119e-05
0.0012271 1.73127e-05 -8.00899e-06
1.73127e-05 3.02219e-06 -1.8404e-06
-8.00899e-06 -1.8404e-06 -8.76562e-05
0.00151812 2.06048e-05 2.19935e-07
2.06048e-05 6.60096e-05 -1.6177e-07
2.19935e-07 -1.6177e-07 -3.86064e-05
0.00164054 1.9176e-05 1.53368e-06
1.9176e-05 7.8361e-05 -3.15132e-07
1.53368e-06 -3.15132e-07 -2.91465e-05
0.000712234 3.04595e-05 -1.28999e-05
3.04595e-05 -9.8145e-05 -3.23336e-06
-1.28999e-05 -3.23336e-06 -0.000150421
0.00121387 4.45753e-05 -4.29959e-08
4.45753e-05 9.34583e-06 2.00945e-07
-4.29959e-08 2.00945e-07 -8.0653e-05
0.00152581 5.01474e-05 3.94699e-06
5.01474e-05 8.01069e-05 1.32041e-06
3.94699e-06 1.32041e-06 -2.52593e-05
0.00476504 8.93867e-06 -0.000107436
8.93867e-06 0.00216506 -3.68011e-06
-0.000107436 -3.68011e-06 0.0021603
0.000678977 4.96428e-05 2.41611e-08
4.96428e-05 -0.000101003 9.56614e-08
2.41611e-08 9.56614e-08 -0.000153324
0.0011877 6.8447e-05 6.05803e-06
6.8447e-05 1.34441e-05 1.94442e-06
6.05803e-06 1.94442e-06 -7.71031e-05
0.00451615 -1.37132e-05 4.76984e-06
-1.37132e-05 0.00205048 3.41599e-07
4.76984e-06 3.41599e-07 0.0020422
0.000622633 5.96274e-05 1.16777e-05
5.96274e-05 -0.00010848 5.18276e-06
1.16777e-05 5.18276e-06 -0.000162479
0.00395046 -6.21211e-05 7.27969e-05
-6.21211e-05 0.00176947 4.25575e-06
7.27969e-05 4.25575e-06 0.00175894
0.0013063 4.4945e-06 -8.79109e-06
4.4945e-06 1.62561e-05 -7.01278e-07
-8.79109e-06 -7.01278e-07 -8.08979e-05
0.00161155 6.62198e-06 1.15188e-06
6.62198e-06 8.95207e-05 2.38369e-08
1.15188e-06 2.38369e-08 -2.12545e-05
0.00186265 2.76108e-06 2.05474e-06
2.76108e-06 0.000179772 8.37627e-07
2.05474e-06 8.37627e-07 6.63065e-05
0.00076203 1.48279e-05 -1.40925e-05
1.48279e-05 -0.000107614 -6.40068e-07
-1.40925e-05 -6.40068e-07 -0.000166613
0.000914632 -5.3007e-06 -1.68524e-06
-5.3007e-06 -0.000196507 -5.76967e-09
-1.68524e-06 -5.76967e-09 -0.000297288
0.00180391 1.22918e-05 5.60704e-06
1.22918e-05 0.000189388 1.77179e-07
5.60704e-06 1.77179e-07 7.926e-05
0.000902023 -7.66315e-07 6.47382e-06
-7.66315e-07 -0.000196042 -7.50127e-08
6.47382e-06 -7.50127e-08 -0.000297641
0.000754615 6.20346e-06 1.07234e-07
6.20346e-06 -0.00010335 4.75517e-07
1.07234e-07 4.75517e-07 -0.000163605
0.00517132 2.19282e-05 -0.000107286
2.19282e-05 0.00236366 -3.69466e-07
-0.000107286 -3.69466e-07 0.00235798
0.000772286 1.22289e-05 1.27849e-05
1.22289e-05 -7.76716e-05 -1.37198e-06
1.27849e-05 -1.37198e-06 -0.000134755
0.00496165 4.57867e-06 1.59977e-06
4.57867e-06 0.00225915 4.29771e-07
1.59977e-06 4.29771e-07 0.00225396
0.004741 1.07958e-05 0.00010831
1.07958e-05 0.00214883 -9.93281e-07
0.00010831 -9.93281e-07 0.00214442
0.00127401 6.60037e-06 -8.49475e-06
6.60037e-06 1.29443e-05 -1.92557e-06
-8.49475e-06 -1.92557e-06 -8.08444e-05
0.00146527 8.55917e-06 -5.16832e-08
8.55917e-06 2.84353e-05 -1.41207e-07
-5.16832e-08 -1.41207e-07 -7.85823e-05
0.00153016 6.88668e-06 1.76635e-06
6.88668e-06 1.99617e-05 1.54883e-06
1.76635e-06 1.54883e-06 -8.87576e-05
0.00246793 9.16742e-06 -5.93993e-05
9.16742e-06 0.000823854 -1.98092e-06
-5.93993e-05 -1.98092e-06 0.000781244
0.00123539 1.85904e-05 1.37674e-07
1.85904e-05 7.33659e-06 4.32931e-08
1.37674e-07 4.32931e-08 -8.35624e-05
0.00155824 2.07845e-05 3.73991e-06
2.07845e-05 8.59834e-05 5.51521e-07
3.73991e-06 5.51521e-07 -1.86916e-05
0.00484352 1.44825e-05 -0.000114443
1.44825e-05 0.00219884 -2.71229e-06
-0.000114443 -2.71229e-06 0.00219471
0.000715854 3.20943e-05 1.37643e-08
3.20943e-05 -9.56926e-05 5.88769e-08
1.37643e-08 5.88769e-08 -0.000148057
0.00121329 4.53725e-05 8.36449e-06
4.53725e-05 9.60519e-06 2.3595e-06
8.36449e-06 2.3595e-06 -8.06164e-05
0.00469077 1.58446e-05 1.84803e-06
1.58446e-05 0.0021293 5.05203e-07
1.84803e-06 5.05203e-07 0.0021239
0.000672811 4.9087e-05 1.25149e-05
4.9087e-05 -0.000103803 4.16756e-06
1.25149e-05 4.16756e-06 -0.000156188
0.00437348 -2.71364e-06 9.12208e-05
-2.71364e-06 0.00197587 4.47686e-06
9.12208e-05 4.47686e-06 0.00196901
0.00078956 6.96897e-06 -1.52156e-05
6.96897e-06 -9.01342e-05 -1.79594e-06
-1.52156e-05 -1.79594e-06 -0.000150395
0.00111082 1.44137e-06 3.4995e-07
1.44137e-06 -8.7514e-05 5.33507e-07
3.4995e-07 5.33507e-07 -0.000185806
0.00142821 1.33542e-06 5.03753e-06
1.33542e-06 -9.67357e-06 7.93898e-07
5.03753e-06 7.93898e-07 -0.000122204
0.00529654 -3.87046e-05 -0.000108116
-3.87046e-05 0.00243094 -1.75587e-06
-0.000108116 -1.75587e-06 0.002422
0.000766176 9.88609e-06 -7.822e-08
9.88609e-06 -0.000103739 1.53256e-07
-7.822e-08 1.53256e-07 -0.00016381
0.000910682 1.42453e-06 6.63512e-06
1.42453e-06 -0.000199345 3.1964e-07
6.63512e-06 3.1964e-07 -0.000300129
0.000754691 1.43092e-05 1.3297e-05
1.43092e-05 -0.000103792 2.68812e-07
1.3297e-05 2.68812e-07 -0.000164225
0.00523778 5.11617e-05 4.20746e-06
5.11617e-05 0.00239904 4.84138e-07
4.20746e-06 4.84138e-07 0.00239182
0.0050879 8.24541e-05 0.000110961
8.24541e-05 0.0023261 2.15434e-07
0.000110961 2.15434e-07 0.00231783
0.00257288 -1.16833e-05 -6.32531e-05
-1.16833e-05 0.000866053 -2.04197e-06
-6.32531e-05 -2.04197e-06 0.000820313
0.00127529 8.44966e-06 -8.0963e-08
8.44966e-06 1.35444e-05 -1.83778e-08
-8.0963e-08 -1.83778e-08 -8.02153e-05
0.00136748 7.12369e-06 3.38905e-06
7.12369e-06 -2.52583e-05 1.14304e-06
3.38905e-06 1.14304e-06 -0.000133073
0.00470038 4.26947e-05 -3.17547e-05
4.26947e-05 0.00212955 -1.37372e-06
-3.17547e-05 -1.37372e-06 0.00211898
0.000764161 1.1922e-05 -1.36325e-07
1.1922e-05 -7.99733e-05 1.45547e-07
-1.36325e-07 1.45547e-07 -0.000134517
0.00125569 2.07145e-05 8.25466e-06
2.07145e-05 1.75142e-05 1.94145e-06
8.25466e-06 1.94145e-06 -7.35463e-05
0.00479812 2.24784e-05 -1.4133e-06
2.24784e-05 0.00217792 4.81684e-07
-1.4133e-06 4.81684e-07 0.00217338
0.000714881 3.40709e-05 1.31388e-05
3.40709e-05 -9.52097e-05 3.49211e-06
1.31388e-05 3.49211e-06 -0.000147719
0.00462518 2.5811e-05 0.000102428
2.5811e-05 0.00209691 4.35421e-06
0.000102428 4.35421e-06 0.00209129
0.00176792 -1.58436e-05 -0.000108263
-1.58436e-05 0.000545176 -6.44315e-08
-0.000108263 -6.44315e-08 0.000520112
0.00169315 8.04879e-06 -2.56651e-05
8.04879e-06 0.000391441 5.43088e-07
-2.56651e-05 5.43088e-07 0.000339014
0.000918011 1.72294e-06 8.57378e-06
1.72294e-06 -0.000189786 1.56861e-06
8.57378e-06 1.56861e-06 -0.000289226
0.00528298 -5.04751e-05 4.38301e-06
-5.04751e-05 0.00242574 -1.04467e-06
4.38301e-06 -1.04467e-06 0.00241581
0.000756805 6.9595e-06 1.40123e-05
6.9595e-06 -0.000107425 9.72006e-07
1.40123e-05 9.72006e-07 -0.00016801
0.00527624 7.62853e-06 0.000117315
7.62853e-06 0.0024156 1.02833e-06
0.000117315 1.02833e-06 0.00240997
0.00148326 -7.18048e-05 -8.35717e-06
-7.18048e-05 0.00041402 -8.30442e-07
-8.35717e-06 -8.30442e-07 0.000380932
0.00168532 5.66203e-06 -2.47032e-05
5.66203e-06 0.000397519 1.43794e-07
-2.47032e-05 1.43794e-07 0.000346061
0.00127665 8.16298e-06 8.12892e-06
8.16298e-06 1.43515e-05 1.93307e-06
8.12892e-06 1.93307e-06 -7.9412e-05
0.00317664 8.05552e-06 4.38552e-05
8.05552e-06 0.00131211 4.63194e-07
4.38552e-05 4.63194e-07 0.00129562
0.000771937 1.92669e-05 1.34867e-05
1.92669e-05 -7.57227e-05 3.04502e-06
1.34867e-05 3.04502e-06 -0.000130575
0.00476227 3.31596e-05 0.000107925
3.31596e-05 0.00216158 3.73474e-06
0.000107925 3.73474e-06 0.00215659
0.00525302 -4.20775e-05 -5.1541e-06
-4.20775e-05 0.00240601 4.53804e-07
-5.1541e-06 4.53804e-07 0.00239906
0.000762258 1.54291e-05 1.40832e-05
1.54291e-05 -0.000102616 1.96784e-06
1.40832e-05 1.96784e-06 -0.000161241
0.00527774 4.37682e-05 0.000111545
4.37682e-05 0.00242125 -1.14642e-06
0.000111545 -1.14642e-06 0.00241248
0.00330119 4.57086e-06 4.92743e-05
4.57086e-06 0.00137195 1.82575e-07
4.92743e-05 1.82575e-07 0.00135419
0.000768963 9.78285e-06 1.35043e-05
9.78285e-06 -8.7874e-05 2.61939e-06
1.35043e-05 2.61939e-06 -0.000145713
0.00488982 2.48131e-05 0.000108388
2.48131e-05 0.00222301 2.61013e-06
0.000108388 2.61013e-06 0.0022181
0.00519427 -0.000130659 0.000104128
-0.000130659 0.00238758 -4.39331e-08
0.000104128 -4.39331e-08 0.00237304
0.00505075 -7.63317e-05 0.000104344
-7.63317e-05 0.00230712 9.3751e-07
0.000104344 9.3751e-07 0.00229875
