# vtk DataFile Version 2.0
Wound Healing Simulation
ASCII
DATASET UNSTRUCTURED_GRID
POINTS 3012 float
69.9759 18.75 4
67.2507 60.3285 4
69.976 18.75 2
73.0099 25.446 4
71.1327 20.9142 4
68.6801 16.6661 4
67.8265 19.9261 3.98456
67.2507 60.3286 2
71.1327 54.0858 4
68.6801 58.3339 4
65.6939 62.2254 4
65.3133 59.0023 3.98566
74.6784 42.3946 4
73.7221 47.2057 4
69.9759 18.75 0
73.0099 25.446 2
68.6801 16.6661 2
71.1327 20.9142 2
67.827 19.9286 2
74.6792 32.6053 4
73.7222 27.7943 4
72.1454 23.1494 4
70.615 26.2213 3.98453
68.8867 21.9585 3.98481
67.2507 14.6715 4
66.6382 17.9711 3.98497
65.7991 21.0247 3.97684
67.2507 60.3285 0
71.1327 54.0858 2
68.6801 58.3339 2
65.694 62.2255 2
65.3144 59.0002 2
72.1454 51.8506 4
69.9759 56.25 4
68.8371 53.1128 3.98387
64.0165 64.0165 4
66.6117 57.1345 3.98517
63.8868 60.7672 3.98743
63.5027 57.7741 3.97933
60.3285 67.2507 4
74.6792 42.3947 2
73.7222 47.2057 2
74.9194 39.9526 4
74.2788 44.8158 4
72.1686 42.0857 3.98266
73.0099 49.554 4
71.2499 46.5982 3.98348
73.0099 25.446 0
71.1327 20.9142 0
68.6801 16.6661 0
67.8265 19.9261 0.0154408
74.6792 32.6053 2
73.7222 27.7943 2
67.2508 14.6715 2
72.1455 23.1494 2
70.615 26.2219 2
66.639 17.9736 2
68.8869 21.9605 2
65.7988 21.0248 2
74.9197 35.0474 4
74.2794 30.1841 4
72.1853 32.9433 3.98305
71.2789 28.4315 3.98403
69.8164 24.0602 3.98476
68.3487 26.9511 3.97527
66.7644 22.933 3.97606
65.694 12.7746 4
65.325 16.1021 3.98646
64.7162 19.1933 3.97817
63.8887 22.0348 3.97274
71.1327 54.0858 0
65.6939 62.2254 0
68.6801 58.3339 0
65.3133 59.0023 0.0143406
72.1455 51.8506 2
69.9759 56.25 2
68.8374 53.1107 2
64.0165 64.0165 2
66.6126 57.1317 2
63.888 60.7659 2
63.5028 57.775 2
62.2254 65.694 4
58.8952 65.4148 3.99226
69.7696 50.9887 3.9839
67.7845 55.1674 3.98422
66.6508 52.2095 3.97488
62.3372 62.4284 3.98958
64.6632 56.0333 3.97853
62.2048 59.4075 3.98065
61.8255 56.6842 3.97539
58.3339 68.6801 4
60.3285 67.2508 2
73.7221 47.2057 0
74.6784 42.3946 0
74.9197 39.9526 2
74.2794 44.8159 2
72.1684 42.0857 2
73.0099 49.554 2
71.25 46.5978 2
75 37.5 4
72.4058 39.8023 3.98264
71.7831 44.3531 3.98322
69.8049 41.7899 3.97326
70.5758 48.8135 3.98359
68.9138 46.0154 3.97422
74.6792 32.6053 0
73.7222 27.7943 0
67.2507 14.6715 0
72.1454 23.1494 0
70.615 26.2213 0.0154675
68.8867 21.9585 0.0151853
66.6382 17.9711 0.0150342
65.7991 21.0247 0.0231624
74.9197 35.0474 2
74.2794 30.1841 2
72.185 32.9434 2
71.279 28.4317 2
65.694 12.7745 2
65.326 16.1037 2
69.8166 24.0614 2
68.3486 26.9513 2
64.7161 19.1928 2
66.764 22.9333 2
63.8884 22.0345 2
72.4136 35.2242 3.98262
71.8044 30.6762 3.98334
69.841 33.268 3.9739
68.9679 29.0377 3.97492
67.613 24.9118 3.97542
66.1964 27.6337 3.9718
64.0165 10.9835 4
64.7581 23.8296 3.97229
63.8912 14.3257 3.98814
63.516 17.4438 3.9805
62.9092 20.3189 3.97344
62.0932 22.9432 3.97074
60.6847 11.0966 3.99036
57.613 11.444 3.98434
72.1454 51.8506 0
69.9759 56.25 0
68.8371 53.1128 0.0161257
64.0165 64.0165 0
63.8868 60.7672 0.012568
66.6117 57.1345 0.0148265
63.5027 57.7741 0.0206677
62.2255 65.694 2
58.8957 65.4147 2
69.7698 50.9873 2
67.7851 55.1647 2
66.6505 52.2091 2
62.3381 62.4277 2
64.6631 56.0337 2
62.2049 59.4086 2
61.8256 56.6852 2
60.6696 63.9778 3.99111
57.0259 66.7357 3.99293
57.559 63.6945 3.98621
67.5088 50.1771 3.97429
65.7036 54.1739 3.97599
64.5383 51.3858 3.97078
60.7745 60.9411 3.98247
62.8225 55.07 3.97491
60.6605 58.1634 3.97644
60.3296 55.7883 3.9745
56.25 69.9759 4
58.3339 68.6801 2
60.3285 67.2507 0
58.9219 9.65491 3.9913
62.2254 9.30607 4
73.0099 49.554 0
74.2788 44.8158 0
71.2499 46.5982 0.0165201
72.1686 42.0857 0.017339
74.9194 39.9526 0
75 37.5 2
72.4057 39.8024 2
71.7831 44.3527 2
69.8047 41.7897 2
70.5759 48.8128 2
68.9139 46.0151 2
72.4891 37.5121 3.98241
70.0419 39.6574 3.973
69.4318 43.908 3.97392
67.598 41.4979 3.96989
68.2672 48.1076 3.97395
66.7114 45.4408 3.97075
74.9197 35.0474 0
74.2794 30.1841 0
72.1853 32.9433 0.0169504
71.2789 28.4315 0.015968
65.694 12.7746 0
65.325 16.1021 0.0135368
69.8164 24.0602 0.0152411
68.3487 26.9511 0.024728
66.7644 22.933 0.0239423
64.7162 19.1933 0.0218304
63.8887 22.0348 0.0272624
72.4135 35.2241 2
71.8045 30.6765 2
69.8408 33.2682 2
68.968 29.0378 2
64.0165 10.9835 2
63.8922 14.3268 2
63.5161 17.4428 2
67.6128 24.9121 2
66.1963 27.6337 2
62.9091 20.3182 2
64.7578 23.8295 2
62.093 22.943 2
60.6854 11.0972 2
57.6132 11.4433 2
70.0585 35.3917 3.97309
69.4682 31.1491 3.97402
67.6563 33.5904 3.97038
66.7739 29.6217 3.97108
65.5255 25.6987 3.97186
64.1478 28.2545 3.97085
62.3425 12.6538 3.9893
62.8573 24.637 3.97097
62.2013 15.781 3.98224
61.8165 18.6815 3.9759
61.2181 21.3413 3.97047
60.4241 23.7281 3.97067
59.2472 12.7756 3.98285
55.8749 10.2307 3.98589
56.4059 13.1093 3.98098
69.7696 50.9887 0.0161034
62.2254 65.694 0
58.8952 65.4148 0.00773576
67.7845 55.1674 0.0157752
66.6508 52.2095 0.0251191
62.3372 62.4284 0.01042
62.2048 59.4075 0.0193458
64.6632 56.0333 0.0214715
61.8255 56.6842 0.0246082
60.6704 63.9774 2
57.0263 66.7357 2
57.5591 63.6956 2
67.5086 50.1767 2
65.7033 54.1738 2
64.538 51.3858 2
60.7747 60.9423 2
62.8225 55.0708 2
60.6607 58.1646 2
60.3298 55.789 2
55.0714 67.9326 3.99317
59.2204 62.3691 3.98365
55.8058 64.9124 3.98843
56.3279 62.0942 3.98235
65.3326 49.409 3.97027
63.7067 53.2929 3.97132
62.4409 50.6523 3.96905
59.3349 59.5612 3.97943
61.078 54.3108 3.97359
59.2906 57.0154 3.97308
59.243 55.1841 3.97615
48.1038 68.5801 3.98941
50.949 69.9322 3.9934
54.0858 71.1327 4
56.25 69.976 2
58.3339 68.6801 0
57.0591 8.33502 3.99167
60.3285 7.74928 4
58.9225 9.65524 2
62.2255 9.30602 2
70.5758 48.8135 0.0164059
71.7831 44.3531 0.0167752
68.9138 46.0154 0.0257785
69.8049 41.7899 0.0267445
72.4058 39.8023 0.0173553
75 37.5 0
72.4889 37.5121 2
70.0418 39.6573 2
69.4317 43.9078 2
67.5977 41.4978 2
68.2672 48.1072 2
66.7114 45.4407 2
70.1298 37.5214 3.97303
67.8349 39.5125 3.9697
67.225 43.4706 3.97028
65.5555 41.2101 3.96985
66.0696 47.4187 3.9703
64.6536 44.8491 3.97
72.4136 35.2242 0.0173772
71.8044 30.6762 0.0166577
69.841 33.268 0.0261036
68.9679 29.0377 0.0250816
64.0165 10.9835 0
63.8912 14.3257 0.0118627
63.516 17.4438 0.019499
67.613 24.9118 0.0245795
66.1964 27.6337 0.0281953
64.7581 23.8296 0.0277058
62.9092 20.3189 0.0265558
62.0932 22.9432 0.0292624
60.6847 11.0966 0.00964054
57.613 11.444 0.0156564
70.0584 35.3918 2
69.4683 31.1493 2
67.6562 33.5904 2
66.774 29.6217 2
62.3433 12.6546 2
62.2013 15.7801 2
61.8167 18.6803 2
65.5253 25.6987 2
64.1477 28.2544 2
61.2182 21.3408 2
62.8571 24.6369 2
60.424 23.7281 2
59.2472 12.775 2
56.4058 13.1083 2
55.875 10.2299 2
67.8708 35.5472 3.96982
67.2661 31.6217 3.97023
65.6985 33.9268 3.96997
64.6641 30.1911 3.97002
63.5387 26.4135 3.9708
62.2584 28.7771 3.97147
60.7767 14.2201 3.98262
61.0441 25.3377 3.97102
60.6153 17.1236 3.97907
60.2237 19.8146 3.97259
59.659 22.2597 3.96899
58.9747 24.3215 3.97156
54.038 9.13385 3.98677
57.9113 14.328 3.98097
54.7872 12.0085 3.98239
55.313 14.6422 3.97958
67.5088 50.1771 0.0257065
57.0259 66.7357 0.00707241
60.6696 63.9778 0.00888553
57.559 63.6945 0.0137873
65.7036 54.1739 0.0240077
64.5383 51.3858 0.0292187
60.7745 60.9411 0.0175298
60.6605 58.1634 0.023565
62.8225 55.07 0.0250914
60.3296 55.7883 0.0254967
55.0717 67.9327 2
59.2205 62.3702 2
55.8057 64.9134 2
56.328 62.0955 2
65.3324 49.4089 2
63.7066 53.2933 2
62.4407 50.6523 2
59.3351 59.5626 2
61.0783 54.3114 2
59.291 57.0161 2
59.2434 55.1845 2
53.0432 69.0005 3.99333
53.9681 66.0147 3.98912
57.8817 60.874 3.98087
54.6849 63.2116 3.98447
55.2122 60.6209 3.98037
63.1939 48.6615 3.96903
61.7397 52.5751 3.96883
60.2694 50.0182 3.96859
58.0192 58.2648 3.97558
59.3264 53.9471 3.97294
58.1266 55.8115 3.97126
50.1105 67.858 3.98938
47.4641 66.5837 3.98693
46.0573 69.1594 3.98942
48.1037 68.5806 2
48.8031 70.7235 3.99349
50.9493 69.9324 2
51.8506 72.1454 4
54.0858 71.1327 2
56.25 69.9759 0
55.1035 7.13963 3.99197
58.3339 6.31992 4
57.0597 8.33515 2
60.3286 7.74926 2
58.9219 9.65491 0.00870187
62.2254 9.30607 0
68.2672 48.1076 0.0260534
69.4318 43.908 0.0260813
66.7114 45.4408 0.0292494
67.598 41.4979 0.0301115
70.0419 39.6574 0.0270005
72.4891 37.5121 0.0175905
70.1297 37.5214 2
67.8349 39.5124 2
67.2249 43.4705 2
65.5553 41.2101 2
66.0696 47.4186 2
64.6536 44.8491 2
67.9312 37.5219 3.96971
65.7852 39.3703 3.96981
65.177 43.0258 3.97001
63.7433 40.9298 3.97147
63.9658 46.7172 3.96944
62.8063 44.2167 3.97172
70.0585 35.3917 0.0269079
69.4682 31.1491 0.0259837
67.6563 33.5904 0.0296224
66.7739 29.6217 0.0289209
62.3425 12.6538 0.0106964
62.2013 15.781 0.0177602
61.8165 18.6815 0.0241017
65.5255 25.6987 0.0281433
64.1478 28.2545 0.029147
62.8573 24.637 0.0290327
61.2181 21.3413 0.0295252
60.4241 23.7281 0.0293322
59.2472 12.7756 0.017152
56.4059 13.1093 0.0190173
55.8749 10.2307 0.0141056
67.8708 35.5472 2
67.2661 31.6216 2
65.6983 33.9268 2
64.6642 30.191 2
60.7767 14.2194 2
60.6153 17.1223 2
60.2241 19.8135 2
63.5386 26.4135 2
62.2583 28.777 2
59.6592 22.2595 2
61.0439 25.3377 2
58.9747 24.3217 2
57.911 14.3272 2
55.3127 14.6413 2
54.038 9.13311 2
54.7872 12.0075 2
65.8747 35.6665 3.96973
65.1862 32.1536 3.96953
64.2778 34.2495 3.97089
62.5918 30.6353 3.97106
61.6506 27.0717 3.97102
60.8461 29.14 3.97369
59.3123 15.6648 3.98055
59.3241 25.7974 3.97246
59.1251 18.3522 3.97672
58.7382 20.8547 3.96902
58.2798 23.0951 3.96938
57.9611 24.666 3.9717
52.1126 8.15206 3.98747
53.0583 11.0145 3.9834
56.6774 15.7384 3.98018
53.8097 13.6771 3.98067
54.3764 15.9949 3.97969
55.0714 67.9326 0.00682632
65.3326 49.409 0.0297279
55.8058 64.9124 0.0115747
59.2204 62.3691 0.0163505
56.3279 62.0942 0.0176522
63.7067 53.2929 0.0286752
62.4409 50.6523 0.030953
59.3349 59.5612 0.0205704
59.2906 57.0154 0.0269182
61.078 54.3108 0.0264119
59.243 55.1841 0.0238464
53.0435 69.0006 2
53.968 66.0154 2
57.8818 60.8752 2
54.6848 63.2127 2
55.2123 60.6224 2
63.1938 48.6615 2
61.7398 52.5753 2
60.2694 50.018 2
58.0197 58.2661 2
59.3269 53.9473 2
58.1271 55.8115 2
52.0716 67.0012 3.98933
52.9543 64.2222 3.98612
56.6492 59.4927 3.97906
53.682 61.6274 3.98227
54.2605 59.3261 3.97813
60.9837 47.8796 3.96923
59.7047 52.1035 3.96852
58.0122 49.6138 3.97082
56.7769 56.9878 3.97323
57.1175 54.1181 3.97088
50.1104 67.8586 2
49.3379 65.924 3.98696
47.4639 66.5843 2
46.8933 64.74 3.98557
45.559 67.1009 3.98677
43.9741 69.5917 3.9893
46.0573 69.1599 2
46.6096 71.368 3.9935
48.1038 68.5801 0.0105887
48.8034 70.7237 2
49.554 73.0099 4
50.949 69.9322 0.00660421
51.8506 72.1455 2
54.0858 71.1327 0
53.0646 6.07107 3.99224
55.104 7.13958 2
56.25 5.02411 4
58.3339 6.3199 2
57.0591 8.33502 0.00833261
60.3285 7.74928 0
66.0696 47.4187 0.0296995
67.225 43.4706 0.0297175
64.6536 44.8491 0.0300012
65.5555 41.2101 0.0301545
67.8349 39.5125 0.0303022
70.1298 37.5214 0.0269748
67.931 37.5219 2
65.785 39.3703 2
65.1769 43.0258 2
63.7433 40.9297 2
63.9657 46.7172 2
62.806 44.2166 2
65.8881 37.5017 3.96969
63.8776 39.2668 3.97111
63.3209 42.5504 3.97149
62.4052 40.698 3.97314
61.9643 45.9191 3.97098
61.4385 43.6835 3.97394
67.8708 35.5472 0.0301846
67.2661 31.6217 0.0297711
65.6985 33.9268 0.0300297
64.6641 30.1911 0.0299845
60.7767 14.2201 0.0173834
60.6153 17.1236 0.0209279
60.2237 19.8146 0.0274115
63.5387 26.4135 0.0291961
62.2584 28.7771 0.0285327
61.0441 25.3377 0.0289759
59.659 22.2597 0.0310085
58.9747 24.3215 0.0284417
57.9113 14.328 0.0190286
55.313 14.6422 0.0204239
54.038 9.13385 0.0132279
54.7872 12.0085 0.0176076
65.8746 35.6665 2
65.1862 32.1536 2
64.2779 34.2494 2
62.5919 30.6353 2
59.312 15.6638 2
59.1254 18.351 2
58.7389 20.8539 2
61.6504 27.0717 2
60.8464 29.14 2
58.28 23.0953 2
59.3245 25.7975 2
57.9611 24.6663 2
56.677 15.7374 2
54.376 15.994 2
53.8096 13.676 2
52.1126 8.15145 2
53.0582 11.0136 2
64.0746 35.6322 3.97073
62.9167 33.0462 3.97121
60.6037 30.6116 3.97347
59.562 27.9107 3.97332
57.9405 16.9795 3.97944
57.7268 25.7275 3.97374
57.7142 19.4745 3.97371
57.3652 21.8451 3.96719
57.177 23.9493 3.97067
50.1127 7.28382 3.988
51.2328 10.1225 3.98437
52.1721 12.7942 3.98194
55.5377 16.9685 3.97972
52.9775 15.2601 3.97869
53.7578 16.9771 3.98039
53.0432 69.0005 0.0066685
53.9681 66.0147 0.0108767
63.1939 48.6615 0.0309735
54.6849 63.2116 0.015532
57.8817 60.874 0.0191299
55.2122 60.6209 0.019625
61.7397 52.5751 0.0311656
60.2694 50.0182 0.0314092
58.0192 58.2648 0.0244188
58.1266 55.8115 0.0287414
59.3264 53.9471 0.0270576
52.0715 67.0018 2
52.9541 64.2231 2
56.6493 59.4942 2
53.6819 61.6287 2
54.2608 59.3276 2
60.9833 47.8794 2
59.705 52.1034 2
58.0114 49.6134 2
56.7769 56.9921 2
57.1181 54.1181 2
51.1689 65.1311 3.98672
52.0471 62.5434 3.98415
55.4811 58.2535 3.97807
52.8349 60.1404 3.98017
53.6398 58.4758 3.98003
58.2851 46.8468 3.97349
57.5514 51.7817 3.96865
56.2263 49.5498 3.97268
55.4697 55.7866 3.97046
55.3489 53.375 3.9699
50.1105 67.858 0.0106174
49.3377 65.9247 2
48.6191 64.1266 3.98554
47.4641 66.5837 0.0130683
45.5589 67.1014 2
46.893 64.7406 2
46.3828 63.058 3.98474
45.1335 65.2011 3.98551
43.632 67.4714 3.98676
41.8611 69.8791 3.98909
43.9741 69.5922 2
44.3769 71.8628 3.99339
46.0573 69.1594 0.0105817
46.6099 71.3682 2
47.2057 73.7222 4
48.8031 70.7235 0.00650915
49.554 73.0099 2
51.8506 72.1454 0
50.9543 5.13133 3.99255
53.065 6.07096 2
54.0858 3.86728 4
55.1035 7.13963 0.00803291
56.25 5.02406 2
58.3339 6.31992 0
63.9658 46.7172 0.0305591
65.177 43.0258 0.0299857
62.8063 44.2167 0.0282799
63.7433 40.9298 0.0285267
65.7852 39.3703 0.0301909
67.9312 37.5219 0.0302896
65.888 37.5017 2
63.8774 39.2667 2
63.3208 42.5503 2
62.4053 40.6979 2
61.9638 45.9189 2
61.438 43.6834 2
63.9396 37.457 3.97099
62.1185 39.3551 3.97238
61.1892 41.9584 3.97372
60.2408 44.7703 3.97431
65.8747 35.6665 0.0302716
65.1862 32.1536 0.0304715
64.2778 34.2495 0.0291147
62.5918 30.6353 0.0289415
59.3123 15.6648 0.0194471
59.1251 18.3522 0.0232818
58.7382 20.8547 0.0309818
61.6506 27.0717 0.028979
60.8461 29.14 0.0263119
59.3241 25.7974 0.0275373
58.2798 23.0951 0.0306151
57.9611 24.666 0.0283032
56.6774 15.7384 0.0198187
54.3764 15.9949 0.0203145
53.8097 13.6771 0.0193332
52.1126 8.15206 0.0125293
53.0583 11.0145 0.0165972
64.0746 35.6321 2
62.9167 33.0461 2
60.6042 30.6117 2
57.9403 16.9784 2
57.7148 19.4732 2
57.366 21.8452 2
59.5623 27.9108 2
57.1767 23.9498 2
57.7275 25.7277 2
50.1127 7.28326 2
55.5374 16.9674 2
53.7575 16.9761 2
52.9772 15.259 2
52.172 12.7932 2
51.2327 10.1218 2
62.1538 35.3596 3.97189
60.26 32.7455 3.97335
58.6003 30.0764 3.97508
57.2676 27.3834 3.97485
56.6362 18.1532 3.97911
56.2764 25.1036 3.97183
56.3536 20.5238 3.96993
56.0982 22.8755 3.96715
48.0564 6.52672 3.98855
49.3246 9.33011 3.98487
50.4333 11.9918 3.98257
51.3775 14.4955 3.98063
54.414 17.9176 3.98056
52.3601 17.0339 3.97799
52.0716 67.0012 0.0106735
52.9543 64.2222 0.0138775
60.9837 47.8796 0.0307652
53.682 61.6274 0.0177307
56.6492 59.4927 0.0209382
54.2605 59.3261 0.0218728
59.7047 52.1035 0.0314847
58.0122 49.6138 0.0291787
56.7769 56.9878 0.0267739
57.1175 54.1181 0.0291205
51.1686 65.1318 2
52.0468 62.5445 2
55.4813 58.2549 2
52.835 60.1417 2
53.64 58.4772 2
58.2849 46.8465 2
57.5518 51.7815 2
56.2257 49.5492 2
55.4706 55.7875 2
55.3498 53.3753 2
50.3472 63.3849 3.98501
51.2448 60.9406 3.98171
54.2181 57.27 3.97827
52.3125 58.6385 3.978
56.669 44.1798 3.97668
55.4641 47.8915 3.97486
55.0552 51.382 3.96909
53.9976 54.5333 3.96894
49.3379 65.924 0.0130361
48.6188 64.1274 2
47.963 62.4794 3.98452
45.559 67.1009 0.0132303
46.8933 64.74 0.0144332
43.6319 67.4721 2
46.3826 63.0588 2
45.1332 65.2018 2
45.9884 61.591 3.9842
44.768 63.4587 3.98487
43.3573 65.5105 3.98541
41.6639 67.6902 3.98659
39.7025 70.0262 3.98905
41.8611 69.8796 2
42.1112 72.2076 3.99323
43.9741 69.5917 0.0106957
44.3772 71.8631 2
44.8159 74.2794 4
46.6096 71.368 0.00650066
47.2057 73.7222 2
49.554 73.0099 0
48.7848 4.32223 3.99285
50.9546 5.13116 2
51.8506 2.85458 4
53.0646 6.07107 0.00775592
54.0858 3.86728 2
56.25 5.02411 0
61.9643 45.9191 0.0290229
63.3209 42.5504 0.0285099
61.4385 43.6835 0.02606
62.4052 40.698 0.0268572
63.8776 39.2668 0.0288891
65.8881 37.5017 0.0303117
63.9393 37.4569 2
62.1182 39.3551 2
61.1889 41.9583 2
60.24 44.7701 2
61.9531 37.4447 3.97234
60.2025 39.8471 3.97449
58.953 42.9171 3.97551
64.0746 35.6322 0.0292715
62.9167 33.0462 0.0287862
60.6037 30.6116 0.0265327
57.9405 16.9795 0.0205586
57.7142 19.4745 0.0262863
57.3652 21.8451 0.0328144
59.562 27.9107 0.0266803
57.7268 25.7275 0.0262564
57.177 23.9493 0.0293335
55.5377 16.9685 0.0202785
53.7578 16.9771 0.0196072
52.9775 15.2601 0.0213118
50.1127 7.28382 0.011997
52.1721 12.7942 0.0180568
51.2328 10.1225 0.0156313
62.1537 35.3596 2
60.2601 32.7456 2
58.6 30.0767 2
56.6362 18.1519 2
56.3541 20.5211 2
56.0988 22.876 2
57.2685 27.3836 2
56.2766 25.1044 2
48.0564 6.52621 2
49.3245 9.32956 2
54.4139 17.9168 2
52.3598 17.0329 2
51.3772 14.4943 2
50.4331 11.991 2
59.8407 35.1197 3.97338
57.956 32.2709 3.97631
56.5166 29.3423 3.97617
55.4214 26.602 3.97494
55.3399 19.1868 3.97758
54.9125 24.0622 3.97045
54.993 21.5682 3.96835
45.9623 5.88172 3.989
43.3736 7.47247 3.98654
47.355 8.62353 3.98543
48.6001 11.2929 3.98309
49.7137 13.7419 3.98148
50.6326 16.1303 3.97947
53.1226 18.6579 3.97658
51.2996 18.0474 3.98401
51.1689 65.1311 0.0132774
52.0471 62.5434 0.0158485
58.2851 46.8468 0.026506
52.8349 60.1404 0.0198319
55.4811 58.2535 0.0219253
53.6398 58.4758 0.0199742
57.5514 51.7817 0.0313497
56.2263 49.5498 0.0273162
55.4697 55.7866 0.0295351
55.3489 53.375 0.0301037
50.3469 63.3857 2
51.2448 60.9417 2
54.2184 57.2716 2
52.3127 58.6397 2
56.6677 44.1795 2
55.4631 47.8908 2
55.0558 51.3815 2
53.9986 54.5351 2
49.5926 61.7494 3.9838
55.559 41.7006 3.97704
50.567 59.3328 3.97793
52.182 56.4922 3.97349
54.1277 45.5575 3.97732
53.2986 49.3209 3.97237
52.6531 52.8373 3.96634
48.6191 64.1266 0.0144587
47.9628 62.4801 2
47.3302 61.0142 3.98375
43.632 67.4714 0.013244
45.1335 65.2011 0.0144891
46.3828 63.058 0.0152618
41.6638 67.6907 2
43.3571 65.5113 2
45.9884 61.5919 2
44.7678 63.4595 2
45.7671 60.6356 3.98312
44.4843 61.8404 3.98387
43.1472 63.7309 3.98444
41.5467 65.6481 3.98499
39.6328 67.7699 3.98635
37.5258 70.0514 3.98898
39.7026 70.0268 2
39.8179 72.4047 3.99309
41.8611 69.8791 0.0109143
42.1114 72.2079 2
42.3947 74.6792 4
44.3769 71.8628 0.00661399
44.8159 74.2794 2
47.2057 73.7222 0
43.8516 5.35859 3.98931
46.5707 3.64674 3.99307
48.7851 4.32203 2
49.554 1.99015 4
50.9543 5.13133 0.00745424
51.8506 2.85453 2
54.0858 3.86728 0
60.2408 44.7703 0.0256862
61.1892 41.9584 0.026277
62.1185 39.3551 0.0276215
63.9396 37.457 0.0290098
61.9528 37.4447 2
60.2022 39.8471 2
58.9524 42.917 2
59.6928 37.5664 3.97341
57.9347 40.6559 3.97641
55.0111 39.7183 3.97768
62.1538 35.3596 0.0281108
60.26 32.7455 0.0266472
58.6003 30.0764 0.0249199
56.6362 18.1532 0.0208913
56.3536 20.5238 0.0300656
56.0982 22.8755 0.0328518
57.2676 27.3834 0.02515
56.2764 25.1036 0.0281709
54.414 17.9176 0.019437
52.3601 17.0339 0.0220125
51.3775 14.4955 0.0193745
48.0564 6.52672 0.0114516
49.3246 9.33011 0.015127
50.4333 11.9918 0.0174304
59.8402 35.1197 2
45.9623 5.88121 2
43.3736 7.47198 2
57.958 32.271 2
56.5168 29.3424 2
55.3402 19.1857 2
54.9938 21.5673 2
54.9129 24.0634 2
55.4168 26.6035 2
47.355 8.62296 2
48.5998 11.2924 2
53.1227 18.657 2
51.2994 18.0464 2
50.6324 16.1293 2
49.7134 13.7411 2
57.3273 34.7608 3.97709
55.6865 31.5223 3.97738
54.4521 28.4096 3.97854
53.751 25.5021 3.97397
53.9645 20.1374 3.97665
53.566 22.7204 3.96485
41.3987 7.07758 3.98703
45.3597 7.99459 3.98606
42.8655 9.41516 3.98457
46.6664 10.6533 3.98337
47.7453 13.1018 3.98213
48.9305 15.4009 3.98002
50.0044 17.6995 3.97983
51.6461 19.3218 3.98668
50.3472 63.3849 0.0149938
51.2448 60.9406 0.0182922
56.669 44.1798 0.0233246
55.4641 47.8915 0.0251442
52.3125 58.6385 0.0220048
54.2181 57.27 0.0217303
55.0552 51.382 0.0309066
53.9976 54.5333 0.0310629
49.5924 61.7501 2
55.5594 41.7003 2
50.5672 59.3341 2
52.1826 56.4932 2
54.13 45.5569 2
53.3012 49.3201 2
52.6547 52.8366 2
48.8496 60.2067 3.98227
52.4296 42.6326 3.97776
49.7883 57.6294 3.97777
50.5835 54.4236 3.97068
51.7442 47.2592 3.97601
51.1847 50.9344 3.96782
48.0609 43.7947 3.99268
47.963 62.4794 0.0154782
47.3301 61.0148 2
46.6195 59.8007 3.98307
41.6639 67.6902 0.0134137
43.3573 65.5105 0.0145878
44.768 63.4587 0.0151252
45.9884 61.591 0.0158037
39.6328 67.7706 2
41.5464 65.6486 2
45.767 60.6364 2
43.147 63.7316 2
44.4842 61.8412 2
44.6243 60.2979 3.98321
42.9513 62.0884 3.98367
41.6005 63.8241 3.98444
39.6479 65.6162 3.98452
37.5633 67.7522 3.98618
31.6964 65.1348 3.98491
33.3918 67.4897 3.98616
35.333 69.9614 3.98899
37.5259 70.052 2
37.5094 72.4593 3.99302
39.7025 70.0262 0.0109467
39.818 72.4051 2
39.9526 74.9197 4
42.1112 72.2076 0.00677326
42.3947 74.6792 2
44.8159 74.2794 0
41.7362 4.96769 3.98964
43.8517 5.35808 2
44.326 3.1099 3.99331
46.571 3.6465 2
47.2057 1.27793 4
48.7848 4.32223 0.00714987
49.554 1.99013 2
51.8506 2.85458 0
58.953 42.9171 0.0244888
60.2025 39.8471 0.0255067
61.9531 37.4447 0.0276607
59.6927 37.5665 2
57.934 40.6557 2
55.0114 39.7184 2
56.7337 37.8953 3.9772
49.4627 41.3314 3.98798
53.0304 39.3031 3.97917
39.4421 6.80096 3.9871
59.8407 35.1197 0.0266241
57.956 32.2709 0.0236912
56.5166 29.3423 0.0238264
55.3399 19.1868 0.0224243
54.993 21.5682 0.031646
54.9125 24.0622 0.0295495
55.4214 26.602 0.0250617
53.1226 18.6579 0.02342
51.2996 18.0474 0.0159932
50.6326 16.1303 0.0205334
45.9623 5.88172 0.0109964
49.7137 13.7419 0.0185175
47.355 8.62353 0.0145684
48.6001 11.2929 0.016912
43.3736 7.47247 0.0134592
57.3264 34.7609 2
41.3988 7.07704 2
45.3597 7.99408 2
42.8654 9.41467 2
55.6865 31.5224 2
54.4494 28.4111 2
53.9652 20.1366 2
53.5666 22.718 2
53.7496 25.5031 2
46.6662 10.6528 2
47.7449 13.1013 2
51.6461 19.3207 2
50.0041 17.6985 2
48.9302 15.4001 2
54.7985 33.9754 3.97766
53.4245 30.4927 3.97596
52.5493 27.2077 3.97604
52.1208 24.1062 3.97257
52.3815 21.0564 3.98051
41.0135 9.0479 3.98464
44.7237 9.99565 3.98395
42.4685 10.9025 3.98335
46.0051 12.7302 3.98133
47.6811 14.5849 3.98108
48.1118 16.99 3.97842
49.8152 19.6187 3.976
49.5926 61.7494 0.0162012
50.567 59.3328 0.0220695
55.559 41.7006 0.0229613
54.1277 45.5575 0.0226826
53.2986 49.3209 0.027634
52.182 56.4922 0.0265065
52.6531 52.8373 0.0336644
48.8495 60.2075 2
52.4323 42.6311 2
49.7887 57.631 2
50.5845 54.4251 2
51.7455 47.2577 2
51.1873 50.933 2
48.0639 43.8044 2
47.9871 58.7478 3.98009
50.0034 45.2683 3.97788
48.5933 55.9201 3.97821
49.1104 52.5865 3.97197
49.6243 49.0379 3.97297
45.8664 39.8723 3.89615
46.3049 42.6762 3.93926
46.4093 45.8418 3.99316
43.7068 41.1695 3.86477
41.9606 42.0239 3.79523
47.3302 61.0142 0.0162525
46.6193 59.8014 2
45.4691 58.7975 3.98338
39.6328 67.7699 0.0136527
41.5467 65.6481 0.0150133
43.1472 63.7309 0.0155607
44.4843 61.8404 0.0161335
45.7671 60.6356 0.0168761
41.6004 63.8246 2
37.5633 67.753 2
39.6477 65.6167 2
44.6242 60.2988 2
42.9512 62.0891 2
41.7542 62.4991 3.98378
42.4818 59.9895 3.98451
39.8939 63.5589 3.98384
37.6423 65.5151 3.98419
35.4632 67.6615 3.98612
33.5749 65.3481 3.98441
31.9588 63.3074 3.98418
29.8824 64.726 3.98542
31.6965 65.1355 2
31.3762 67.1995 3.98634
33.3918 67.4905 2
33.1557 69.7547 3.98891
35.333 69.9621 2
35.1947 72.3736 3.99298
37.5258 70.0514 0.0110203
37.5095 72.4597 2
37.5 75 4
39.8179 72.4047 0.00690954
39.9526 74.9197 2
42.3947 74.6792 0
39.6238 4.71475 3.98983
41.7363 4.9672 2
42.0623 2.71746 3.99342
43.8516 5.35859 0.0106929
44.3262 3.1096 2
44.8158 0.721173 4
46.5707 3.64674 0.00692901
47.2057 1.27779 2
49.554 1.99015 0
57.9347 40.6559 0.0235889
59.6928 37.5664 0.0265933
55.0111 39.7183 0.0223179
49.4766 41.3343 2
56.7327 37.8952 2
53.0316 39.3057 2
53.8797 36.6289 3.97775
47.3896 40.4083 3.94304
50.4021 38.5122 3.98815
37.5159 6.67192 3.98735
39.4422 6.8004 2
39.2109 8.69032 3.98506
35.9414 8.49001 3.98542
57.3273 34.7608 0.0229128
55.6865 31.5223 0.0226217
54.4521 28.4096 0.0214563
53.9645 20.1374 0.0233488
53.566 22.7204 0.035146
53.751 25.5021 0.0260282
51.6461 19.3218 0.0133154
50.0044 17.6995 0.0201668
48.9305 15.4009 0.0199806
45.3597 7.99459 0.013943
47.7453 13.1018 0.0178651
46.6664 10.6533 0.0166257
41.3987 7.07758 0.0129654
42.8655 9.41516 0.0154282
54.8005 33.9747 2
41.0134 9.0474 2
44.7235 9.99524 2
42.4682 10.902 2
53.4206 30.4923 2
52.5525 27.2091 2
52.3823 21.0545 2
52.1218 24.1075 2
46.0046 12.7295 2
47.6807 14.5842 2
49.8154 19.6176 2
48.1115 16.9893 2
52.3631 32.8837 3.97997
51.2569 29.1628 3.97809
50.7511 25.7375 3.97224
49.9313 22.2024 3.97707
40.5697 11.6064 3.98226
43.858 11.9186 3.98221
45.8022 15.4228 3.98033
47.5023 19.2315 3.97654
46.1998 37.4943 3.90095
48.8496 60.2067 0.017728
49.7883 57.6294 0.0222261
52.4296 42.6326 0.0222388
51.7442 47.2592 0.02399
51.1847 50.9344 0.0321841
50.5835 54.4236 0.0293159
48.0609 43.7947 0.00731933
47.9871 58.7488 2
50.0087 45.2708 2
48.5938 55.9223 2
49.1117 52.5884 2
49.6274 49.0369 2
45.8903 39.8806 2
46.3214 42.6888 2
46.4098 45.8352 2
43.7282 41.1843 2
41.969 42.0304 2
46.8377 57.35 3.9828
44.4541 39.4496 3.85974
42.3092 40.8881 3.82196
48.0115 47.2348 3.97616
47.1578 54.2447 3.97716
47.5562 50.7417 3.96878
44.7394 47.4235 3.99222
44.9688 41.9634 3.89796
44.8627 44.5774 3.94684
42.5629 42.689 3.86534
40.8577 42.3719 3.825
46.6195 59.8007 0.0169324
45.4688 58.7983 2
43.8768 57.7231 3.98465
37.5633 67.7522 0.0138216
39.6479 65.6162 0.0154834
41.6005 63.8241 0.015563
42.9513 62.0884 0.0163265
44.6243 60.2979 0.0167942
35.4632 67.6624 2
41.754 62.4997 2
39.8938 63.5595 2
37.6422 65.5159 2
42.4818 59.9904 2
40.6236 61.6574 3.98337
40.4455 58.2224 3.98515
37.8371 63.2199 3.98307
35.5728 65.4372 3.98423
33.575 65.3488 2
31.9588 63.3082 2
33.6286 63.347 3.98357
30.3776 62.8663 3.98449
32.1225 62.0142 3.98468
26.8674 61.5096 3.9839
28.0612 64.154 3.98545
29.8825 64.7268 2
29.4055 66.7633 3.98655
31.6964 65.1348 0.0150894
31.3763 67.2002 2
31.0128 69.4196 3.98891
33.3918 67.4897 0.0138371
33.1557 69.7554 2
32.8916 72.1478 3.99302
35.333 69.9614 0.0110116
35.1947 72.374 2
35.0474 74.9194 4
37.5094 72.4593 0.00697591
37.5 75 2
39.9526 74.9197 0
35.6205 6.723 3.98715
37.523 4.61427 3.98997
39.6239 4.71426 2
39.7886 2.47384 3.99356
41.7362 4.96769 0.0103619
42.0624 2.71716 2
42.3946 0.32156 4
44.326 3.1099 0.00669152
44.8159 0.72056 2
47.2057 1.27793 0
49.4627 41.3314 0.0120198
56.7337 37.8953 0.0227953
53.0304 39.3031 0.0208278
47.4044 40.4204 2
50.415 38.5112 2
53.8844 36.63 2
51.203 35.5809 3.97852
48.0447 37.7455 3.95862
45.87 35.1379 3.89704
43.7175 33.8325 3.86039
41.9691 32.9873 3.79177
37.4577 8.53176 3.98526
37.516 6.67122 2
39.4421 6.80096 0.0129043
39.2109 8.68972 2
38.9764 10.1238 3.98452
35.8983 9.77022 3.98398
34.1499 8.81955 3.98515
35.9413 8.48927 2
54.7985 33.9754 0.0223438
53.4245 30.4927 0.024045
52.5493 27.2077 0.0239563
52.3815 21.0564 0.0194938
52.1208 24.1062 0.0274302
49.8152 19.6187 0.0239977
48.1118 16.99 0.0215804
47.6811 14.5849 0.0189245
44.7237 9.99565 0.0160456
46.0051 12.7302 0.0186682
41.0135 9.0479 0.0153606
42.4685 10.9025 0.0166483
52.3638 32.8836 2
40.5693 11.6061 2
43.8576 11.9181 2
51.2679 29.1624 2
50.7521 25.7401 2
49.9324 22.2016 2
45.8017 15.4221 2
47.5024 19.2295 2
49.89 31.4168 3.96899
49.2332 27.4964 3.97686
49.3798 24.4165 3.98101
47.1816 21.9647 3.9745
38.3022 12.732 3.98201
42.1013 14.305 3.98089
44.7995 18.4622 3.97836
44.7451 37.5007 3.85989
46.2288 37.5012 2
47.9871 58.7478 0.0199096
48.5933 55.9201 0.0217915
50.0034 45.2683 0.0221212
49.6243 49.0379 0.0270286
49.1104 52.5865 0.0280345
45.8664 39.8723 0.103849
46.3049 42.6762 0.060737
46.4093 45.8418 0.00683804
43.7068 41.1695 0.13523
41.9606 42.0239 0.204774
46.8375 57.3515 2
44.4673 39.4601 2
42.3053 40.8889 2
48.0134 47.2362 2
47.1587 54.2486 2
47.5585 50.743 2
44.7433 47.3997 2
44.9853 41.9763 2
44.8775 44.5924 2
42.5883 42.7091 2
40.856 42.3727 2
45.3953 55.9386 3.98697
42.6348 39.2776 3.83611
40.7664 40.8105 3.88916
46.046 48.9127 3.98611
45.5233 52.537 3.98186
43.4062 48.4536 4.00646
43.3317 46.1329 3.94362
43.5957 43.7741 3.89487
41.0915 43.8588 3.86248
39.2894 42.73 3.83789
45.4691 58.7975 0.0166243
43.8764 57.7238 2
42.1066 56.3503 3.98831
35.4632 67.6615 0.0138843
37.6423 65.5151 0.0158096
39.8939 63.5589 0.0161645
41.7542 62.4991 0.0162239
42.4818 59.9895 0.0154923
35.5728 65.4381 2
40.6234 61.6581 2
37.8369 63.2205 2
40.4453 58.2238 2
38.9254 56.5192 3.99085
38.2505 60.3405 3.98353
35.6069 63.2133 3.9829
33.5749 65.3481 0.0155889
31.9588 63.3074 0.0158161
33.6285 63.3477 2
30.3776 62.8669 2
32.1224 62.0149 2
28.68 62.2116 3.9848
33.3453 61.5267 3.98387
31.0657 61.2317 3.98436
27.5668 59.6072 3.98242
23.7903 59.0923 3.98031
25.0331 60.8817 3.98264
26.8675 61.5103 2
26.2278 63.4863 3.98526
28.0614 64.1547 2
27.4619 66.1871 3.98668
29.8824 64.726 0.0145782
29.4056 66.764 2
28.9049 68.9451 3.98899
31.3762 67.1995 0.0136565
31.0127 69.4202 2
30.6139 71.7788 3.99307
33.1557 69.7547 0.0110896
32.8915 72.1482 2
32.6054 74.6784 4
35.1947 72.3736 0.00702178
35.0474 74.9197 2
37.5 75 0
33.7231 6.9776 3.98672
35.4345 4.68459 3.98978
35.6204 6.72235 2
37.514 2.3865 3.99358
37.523 4.61375 2
39.6238 4.71475 0.0101673
39.7887 2.47354 2
39.9526 0.0806499 4
42.0623 2.71746 0.00657809
42.3947 0.320817 2
44.8158 0.721173 0
44.4751 35.5517 3.85428
42.3216 34.1157 3.81864
47.3896 40.4083 0.0569582
50.4021 38.5122 0.0118471
53.8797 36.6289 0.0222524
48.0576 37.7543 2
51.2121 35.5803 2
45.8877 35.1221 2
43.7404 33.8165 2
41.9775 32.9799 2
48.2261 34.3067 3.97985
44.9758 33.0394 3.89288
42.5714 32.3227 3.86329
40.8672 32.6382 3.82263
37.3106 10.6272 3.98329
37.4576 8.53085 2
37.5159 6.67192 0.0126466
39.2109 8.69032 0.0149412
38.9763 10.1231 2
34.7534 10.3761 3.98352
35.8982 9.76946 2
32.3766 9.36616 3.98456
34.1498 8.81885 2
35.9414 8.49001 0.0145803
52.3631 32.8837 0.0200288
51.2569 29.1628 0.0219139
50.7511 25.7375 0.0277623
49.9313 22.2024 0.0229281
47.5023 19.2315 0.0234582
45.8022 15.4228 0.0196653
43.858 11.9186 0.0177884
40.5697 11.6064 0.0177377
49.8962 31.4119 2
38.3017 12.7314 2
42.1008 14.3046 2
49.2346 27.4997 2
49.381 24.416 2
47.1827 21.9652 2
44.7993 18.4619 2
47.7206 29.5331 3.99096
47.077 25.156 3.98222
44.2866 21.324 3.97531
36.5818 12.9281 3.98219
38.6812 14.8033 3.98093
41.7495 17.8371 3.98012
42.7721 37.4924 3.83602
44.7592 37.5004 2
46.1998 37.4943 0.0990538
46.8377 57.35 0.0171976
47.1578 54.2447 0.0228416
48.0115 47.2348 0.0238423
47.5562 50.7417 0.0312209
44.4541 39.4496 0.140265
44.9688 41.9634 0.102045
44.8627 44.5774 0.0531623
44.7394 47.4235 0.00777537
42.5629 42.689 0.134662
42.3092 40.8881 0.178041
40.8577 42.3719 0.175003
45.3956 55.9399 2
42.6349 39.2757 2
40.7618 40.8061 2
46.0474 48.9135 2
45.5257 52.5415 2
43.409 48.4701 2
43.3538 46.1555 2
43.6129 43.791 2
41.1098 43.878 2
39.2822 42.7241 2
43.7319 54.4551 3.99727
40.8715 39.1762 3.91717
39.1703 40.9027 3.91855
43.6719 50.5067 3.99869
41.9257 47.6805 3.97688
41.8515 45.1952 3.89663
39.3669 44.5957 3.87619
37.4905 42.8518 3.84898
43.8768 57.7231 0.0153516
42.106 56.3516 2
40.4178 54.9614 3.99235
35.5728 65.4372 0.0157688
37.8371 63.2199 0.0169284
40.6236 61.6574 0.0166345
40.4455 58.2224 0.0148458
35.6068 63.2142 2
38.2502 60.3412 2
38.9248 56.5215 2
37.9991 55.2768 3.99173
36.9344 57.6448 3.98493
35.3633 60.9251 3.98334
33.6286 63.347 0.0164273
30.3776 62.8663 0.0155111
32.1225 62.0142 0.0153205
33.3451 61.5275 2
28.68 62.2123 2
31.0656 61.2323 2
29.4017 60.3018 3.98407
32.3557 59.7596 3.98599
28.0208 58.387 3.98551
27.5667 59.6078 2
25.3772 58.605 3.98
22.7543 58.2488 3.97517
23.399 60.3608 3.98071
23.7901 59.0933 2
25.0331 60.8825 2
24.4304 62.7785 3.98445
26.8674 61.5096 0.0160991
26.228 63.4869 2
25.5459 65.4971 3.98671
28.0612 64.154 0.0145516
27.4621 66.1878 2
26.8344 68.3334 3.98905
29.4055 66.7633 0.0134465
28.9048 68.9457 2
28.3689 71.2639 3.99317
31.0128 69.4196 0.0110856
30.6137 71.7791 2
30.1842 74.2788 4
32.8916 72.1478 0.00697899
32.6053 74.6792 2
35.0474 74.9194 0
31.7874 7.41741 3.98635
33.3464 4.92376 3.98959
33.723 6.97696 2
35.2442 2.46263 3.99358
35.4344 4.68407 2
35.6205 6.723 0.012851
37.5 0 4
37.5141 2.38619 2
37.523 4.61427 0.0100319
39.7886 2.47384 0.00643856
39.9526 0.0802889 2
42.3946 0.32156 0
42.6442 35.7156 3.83651
44.484 35.5422 2
40.7775 34.1955 3.88803
42.3168 34.1163 2
48.0447 37.7455 0.0413782
51.203 35.5809 0.0214837
45.87 35.1379 0.102955
43.7175 33.8325 0.139606
41.9691 32.9873 0.208226
48.2384 34.2903 2
44.9933 33.0273 2
42.5938 32.3046 2
40.8658 32.6368 2
46.2393 31.559 3.95688
43.6019 31.2395 3.88985
41.106 31.1569 3.86398
39.2971 32.279 3.83703
35.692 11.772 3.98234
37.3105 10.6263 2
37.4577 8.53176 0.0147442
38.9764 10.1238 0.0154761
33.0973 11.2128 3.98245
34.7534 10.3753 2
35.8983 9.77022 0.0160222
30.4812 10.0141 3.98405
32.3764 9.36545 2
34.1499 8.81955 0.0148536
49.89 31.4168 0.0310077
49.2332 27.4964 0.0231369
49.3798 24.4165 0.0189869
47.1816 21.9647 0.0254952
44.7995 18.4622 0.0216362
42.1013 14.305 0.0191071
38.3022 12.732 0.0179855
36.5814 12.9275 2
47.7223 29.5201 2
38.6805 14.8028 2
41.749 17.8361 2
47.079 25.1565 2
44.2876 21.3197 2
45.508 27.6507 4.00055
43.7878 24.0512 3.99861
41.3403 20.7147 3.98082
35.7717 14.7537 3.98151
38.6811 17.5924 3.97884
40.9207 37.4846 3.92875
42.7759 37.4938 2
44.7451 37.5007 0.140114
45.3953 55.9386 0.0130339
45.5233 52.537 0.0181389
46.046 48.9127 0.0138867
42.6348 39.2776 0.163889
43.5957 43.7741 0.105129
43.3317 46.1329 0.0563841
43.4062 48.4536 -0.00645636
41.0915 43.8588 0.137523
40.7664 40.8105 0.110841
39.2894 42.73 0.162114
43.7327 54.4574 2
40.8668 39.1733 2
39.1643 40.8948 2
43.6751 50.5183 2
41.9275 47.6924 2
41.8749 45.211 2
37.4922 42.8432 2
39.3881 44.6034 2
41.8739 53.0319 3.99497
39.1864 39.1782 3.94932
37.492 40.9504 3.93471
35.6993 42.7285 3.83845
40.9056 49.7361 4.00208
39.8033 46.0995 3.87848
37.4931 44.825 3.87016
42.1066 56.3503 0.0116925
40.417 54.963 2
38.7278 53.8934 3.99498
35.6069 63.2133 0.0171019
38.2505 60.3405 0.0164696
38.9254 56.5192 0.00915372
35.363 60.9259 2
36.9338 57.6458 2
37.9985 55.2782 2
36.3195 55.4064 3.99229
34.4868 58.5375 3.98558
33.3453 61.5267 0.0161266
28.68 62.2116 0.0152041
31.0657 61.2317 0.0156378
32.3555 59.7604 2
29.4016 60.3024 2
30.2964 57.8343 3.98581
28.0205 58.3877 2
26.9437 56.8366 3.97982
27.5668 59.6072 0.0175759
25.377 58.6058 2
23.8372 56.8093 3.97349
21.3314 57.4061 3.975
21.9918 59.6313 3.97986
22.7541 58.2502 2
22.7344 62.0295 3.98314
23.399 60.3617 2
23.7903 59.0923 0.0196907
25.0331 60.8817 0.0173642
24.4306 62.7793 2
23.6798 64.7155 3.98627
26.2278 63.4863 0.0147441
25.5461 65.4977 2
24.8065 67.5945 3.98909
27.4619 66.1871 0.0133241
26.8343 68.334 2
26.1641 70.6047 3.99323
28.9049 68.9451 0.0110086
28.3687 71.2642 2
27.7943 73.7221 4
30.6139 71.7788 0.00692532
30.1841 74.2794 2
32.6054 74.6784 0
29.8099 7.99065 3.98585
31.2515 5.33088 3.98919
31.7873 7.41669 2
32.9798 2.7008 3.99345
33.3463 4.9232 2
33.7231 6.9776 0.01328
35.0474 0.080333 4
35.2442 2.46231 2
35.4345 4.68459 0.0102179
37.5 0 2
37.514 2.3865 0.00641831
39.9526 0.0806499 0
40.8768 35.8055 3.91893
42.6434 35.7185 2
44.4751 35.5517 0.145719
28.5419 10.6894 3.98389
39.178 34.1052 3.9181
40.7708 34.2005 2
42.3216 34.1157 0.181362
48.2261 34.3067 0.020146
44.9758 33.0394 0.107118
42.5714 32.3227 0.13671
40.8672 32.6382 0.177365
46.2578 31.5512 2
43.6132 31.2251 2
41.1248 31.1383 2
39.2921 32.2837 2
44.3749 29.7479 3.94579
41.8715 29.8211 3.89998
39.3874 30.4127 3.87725
37.4994 32.1584 3.85011
34.0919 12.9302 3.98167
35.6919 11.7712 2
37.3106 10.6272 0.0167138
31.1851 11.9808 3.98287
33.0972 11.212 2
34.7534 10.3761 0.0164753
30.481 10.0133 2
32.3766 9.36616 0.0154387
47.7206 29.5331 0.00903966
47.077 25.156 0.017781
36.5818 12.9281 0.0178134
44.2866 21.324 0.0246919
41.7495 17.8371 0.0198768
38.6812 14.8033 0.0190667
35.771 14.7533 2
45.5091 27.6495 2
38.6802 17.5916 2
41.3402 20.7123 2
43.7895 24.0506 2
33.6069 15.8699 3.98137
43.0321 26.4818 3.99812
40.9107 23.2826 4.00034
38.4203 20.3248 3.97983
35.8476 17.5029 3.9819
39.2034 37.4857 3.95709
40.912 37.4847 2
42.7721 37.4924 0.163981
43.7319 54.4551 0.00272932
43.6719 50.5067 0.0013061
40.8715 39.1762 0.0828271
41.8515 45.1952 0.103375
41.9257 47.6805 0.0231202
39.3669 44.5957 0.123811
39.1703 40.9027 0.0814488
37.4905 42.8518 0.151018
41.8762 53.0361 2
39.1794 39.1764 2
37.4919 40.9423 2
40.9121 49.7406 2
35.7037 42.7238 2
39.8275 46.1204 2
37.4904 44.8285 2
39.8115 51.9449 3.99448
37.4905 39.192 3.96776
35.8124 40.9114 3.91819
34.1261 42.3696 3.82369
35.5985 44.5957 3.87379
38.698 48.7543 3.98801
37.4828 46.4227 3.88177
40.4178 54.9614 0.00765048
38.7278 53.8936 2
36.7189 53.2441 4.00671
35.3633 60.9251 0.0166591
36.9344 57.6448 0.0150709
37.9991 55.2768 0.00827403
34.4864 58.5382 2
36.3188 55.4077 2
33.2262 55.5229 3.98879
32.3557 59.7596 0.0140128
29.4017 60.3018 0.0159343
30.2961 57.8351 2
28.6893 55.3257 3.97897
28.0208 58.387 0.0144854
26.9431 56.837 2
25.3093 55.1464 3.97477
21.8073 55.3519 3.97004
25.3772 58.605 0.0200012
23.8367 56.8109 2
20.216 57.0333 3.97832
20.643 58.7881 3.97791
21.331 57.4076 2
21.1648 61.178 3.98135
21.9917 59.6325 2
22.7543 58.2488 0.0248319
21.8933 63.8432 3.98557
22.7344 62.0305 2
23.399 60.3608 0.0192933
24.4304 62.7785 0.0155469
23.68 64.7162 2
22.8347 66.7381 3.98913
25.5459 65.4971 0.0132909
24.8065 67.595 2
24.0083 69.8058 3.99325
26.8344 68.3334 0.0109462
26.1638 70.6049 2
25.446 73.0099 4
28.3689 71.2639 0.00683491
27.7943 73.7222 2
30.1842 74.2788 0
27.8196 8.65027 3.98559
29.1534 5.87665 3.98876
29.8097 7.98986 2
30.725 3.09799 3.99325
31.2514 5.33031 2
31.7874 7.41741 0.0136517
32.6053 0.320823 4
32.9798 2.70047 2
33.3464 4.92376 0.010412
35.0474 0.0802903 2
35.2442 2.46263 0.00641879
37.5 0 0
39.1985 35.8055 3.94836
40.8708 35.8087 2
42.6442 35.7156 0.163487
28.5419 10.6887 2
26.6207 11.3844 3.98405
29.2239 12.6371 3.98342
37.4982 34.0589 3.93493
39.1708 34.113 2
40.7775 34.1955 0.111973
46.2393 31.559 0.0431223
43.6019 31.2395 0.110149
41.106 31.1569 0.136016
39.2971 32.279 0.162967
44.3916 29.7333 2
41.891 29.803 2
39.4035 30.3995 2
37.5007 32.1671 2
42.3537 28.3881 3.93251
39.857 28.9064 3.89526
37.5166 30.1736 3.86854
35.7063 32.2757 3.83719
31.9132 14.4748 3.98227
34.0917 12.9294 2
35.692 11.772 0.0176556
31.185 11.9799 2
33.0973 11.2128 0.0175473
30.4812 10.0141 0.0159526
45.508 27.6507 -0.000553862
43.7878 24.0512 0.00138735
35.7717 14.7537 0.0184948
41.3403 20.7147 0.0191768
38.6811 17.5924 0.0211609
33.6062 15.8695 2
35.8465 17.503 2
43.0357 26.482 2
38.4199 20.3236 2
40.9105 23.2759 2
33.549 17.3787 3.98318
40.4114 25.6232 4.00685
38.0749 22.8569 3.99433
35.583 20.0697 3.98505
37.4949 37.4953 3.97621
39.195 37.4857 2
40.9207 37.4846 0.0712467
41.8739 53.0319 0.00503411
40.9056 49.7361 -0.00208064
39.1864 39.1782 0.0506836
39.8033 46.0995 0.121522
37.4931 44.825 0.129845
37.492 40.9504 0.0652899
35.6993 42.7285 0.161551
39.8165 51.9479 2
37.4918 39.1888 2
35.8195 40.9041 2
38.6989 48.7846 2
34.1267 42.3706 2
35.5867 44.6111 2
37.4845 46.4434 2
37.649 51.041 4.00995
35.7998 39.1944 3.9501
34.22 40.819 3.88903
33.018 42.0214 3.79274
33.8799 43.8484 3.86273
35.1479 46.0864 3.88974
36.8506 48.3981 3.96619
38.7278 53.8934 0.00501572
36.7197 53.2456 2
34.3606 52.4971 3.99433
34.4868 58.5375 0.0144237
36.3195 55.4064 0.00770982
33.2254 55.5236 2
30.5188 53.393 3.9806
30.2964 57.8343 0.0141862
28.6887 55.3271 2
26.8822 53.4381 3.97461
26.9437 56.8366 0.0201804
25.3087 55.1493 2
23.5735 53.4804 3.96817
20.468 53.2184 3.96435
19.9297 55.8348 3.9736
21.8064 55.3533 2
23.8372 56.8093 0.0265135
19.4355 57.8951 3.97715
20.2155 57.0348 2
19.7044 60.2102 3.9796
20.6428 58.7893 2
21.3314 57.4061 0.0249961
20.2058 62.8638 3.98389
21.1648 61.1792 2
21.9918 59.6313 0.0201446
20.9362 65.7671 3.98889
21.8934 63.8441 2
22.7344 62.0295 0.016863
23.6798 64.7155 0.0137302
22.8348 66.7387 2
21.9107 68.8729 3.99324
24.8065 67.5945 0.0109105
24.008 69.806 2
23.1494 72.1454 4
26.1641 70.6047 0.006767
25.446 73.0099 2
27.7943 73.7221 0
25.8587 9.37839 3.98533
27.0681 6.54074 3.9883
27.8194 8.6495 2
28.4871 3.64398 3.99303
29.1532 5.87602 2
29.8099 7.99065 0.0141481
30.1841 0.720592 4
30.7248 3.09767 2
31.2515 5.33088 0.0108082
32.6053 0.320817 2
32.9798 2.7008 0.00655216
35.0474 0.080333 0
37.498 35.8046 3.96884
39.1887 35.8075 2
40.8768 35.8055 0.081072
24.7755 12.0673 3.98424
23.75 14.352 3.98334
28.5419 10.6894 0.016113
26.6207 11.3838 2
29.2238 12.6363 2
27.29 13.3695 3.98367
29.7788 14.1962 3.98298
35.8225 34.0976 3.91911
37.4982 34.0667 2
39.178 34.1052 0.0818964
37.4994 32.1584 0.149895
44.3749 29.7479 0.0542091
41.8715 29.8211 0.100015
39.3874 30.4127 0.122747
42.3724 28.3687 2
39.8718 28.882 2
37.5169 30.1705 2
35.7133 32.2804 2
40.0465 27.5343 3.92816
37.5278 28.5806 3.89215
35.6245 30.414 3.87741
34.1416 32.6318 3.82268
30.9245 16.8308 3.98279
31.913 14.4741 2
34.0919 12.9302 0.0183319
31.1851 11.9808 0.0171306
43.0321 26.4818 0.0018824
40.9107 23.2826 -0.000335228
33.6069 15.8699 0.0186317
35.8476 17.5029 0.0181023
38.4203 20.3248 0.0201671
33.5481 17.3788 2
35.5826 20.0696 2
40.4114 25.6171 2
38.073 22.8553 2
32.8617 19.7841 3.98405
37.8009 25.1682 4.01464
35.2003 22.6246 3.99192
35.7913 37.5011 3.95949
37.4953 37.4947 2
39.2034 37.4857 0.0429085
39.8115 51.9449 0.00551852
38.698 48.7543 0.0119859
37.4905 39.192 0.0322382
37.4828 46.4227 0.118229
35.5985 44.5957 0.126209
35.8124 40.9114 0.0818111
34.1261 42.3696 0.176311
37.6553 51.0519 2
35.81 39.1916 2
34.2259 40.8141 2
36.843 48.4157 2
33.01 42.0279 2
33.8663 43.8638 2
35.1324 46.1031 2
35.4661 50.1699 4.00866
34.1252 39.1916 3.91999
32.6658 40.8909 3.8206
32.4151 42.6856 3.8678
33.1301 45.1871 3.89821
34.2634 47.4586 3.93879
36.7189 53.2441 -0.00670789
34.3617 52.5007 2
32.004 51.2009 4.00066
33.2262 55.5229 0.0112111
30.5181 53.3968 2
28.4289 51.6066 3.97851
28.6893 55.3257 0.0210344
26.8813 53.4402 2
25.0808 51.7491 3.96576
25.3093 55.1464 0.0252346
23.5725 53.4819 2
21.9679 51.8016 3.96478
19.2019 51.6336 3.969
18.9207 54.3069 3.96647
20.4669 53.2181 2
18.4446 56.7262 3.97684
19.9289 55.8364 2
21.8073 55.3519 0.0299624
18.367 59.1152 3.97677
19.4351 57.8962 2
20.216 57.0333 0.0216808
18.6171 61.7701 3.98183
19.7044 60.2115 2
20.643 58.7881 0.0220853
19.1253 64.6777 3.98793
20.2059 62.865 2
21.1648 61.178 0.0186496
19.8848 67.8094 3.99308
20.9363 65.7678 2
21.8933 63.8432 0.0144294
22.8347 66.7381 0.010872
21.9105 68.873 2
20.9142 71.1327 4
24.0083 69.8058 0.00675353
23.1494 72.1455 2
25.446 73.0099 0
23.0949 12.7819 3.98386
23.9712 10.1649 3.9852
25.0218 7.31099 3.98796
25.8586 9.37775 2
26.2788 4.32824 3.99279
27.0678 6.54012 2
27.8196 8.65027 0.0144122
27.7943 1.27781 4
28.4869 3.64366 2
29.1534 5.87665 0.01124
30.1841 0.720551 2
30.725 3.09799 0.00674817
32.6053 0.320823 0
35.8025 35.8104 3.95127
37.4976 35.807 2
39.1985 35.8055 0.0516359
24.7757 12.0668 2
23.7504 14.3517 2
22.4788 15.0288 3.98272
25.3561 13.9013 3.98323
24.0233 15.6143 3.98218
26.6207 11.3844 0.0159468
29.2239 12.6371 0.0165779
27.2901 13.3691 2
29.7788 14.1956 2
28.3548 15.9697 3.98332
34.2332 34.1897 3.88806
35.8294 34.1047 2
37.4982 34.0589 0.0650661
35.7063 32.2757 0.162809
37.5166 30.1736 0.131459
42.3537 28.3881 0.067491
39.857 28.9064 0.104743
40.0594 27.5195 2
37.5311 28.5572 2
35.6098 30.3958 2
34.142 32.6307 2
37.6192 27.2211 3.93896
35.1861 28.9005 3.89263
33.8918 31.1507 3.86262
33.0417 32.9781 3.79328
30.2065 19.333 3.98595
30.9241 16.8306 2
31.9132 14.4748 0.0177296
40.4114 25.6232 -0.00684729
38.0749 22.8569 0.00566802
33.549 17.3787 0.0168158
35.583 20.0697 0.0149471
32.8608 19.785 2
35.1974 22.622 2
37.7892 25.1682 2
32.3096 22.398 3.99062
34.9846 25.1577 4.00703
34.0754 37.5021 3.92953
35.8006 37.5004 2
37.4949 37.4953 0.0237941
37.649 51.041 -0.00995369
36.8506 48.3981 0.033812
35.7998 39.1944 0.0498957
35.1479 46.0864 0.110264
33.8799 43.8484 0.137269
34.22 40.819 0.110969
33.018 42.0214 0.207256
35.4631 50.1822 2
34.1348 39.1887 2
32.669 40.8901 2
34.2587 47.4917 2
32.3961 42.7001 2
33.1136 45.2048 2
33.2457 49.159 4.0067
32.3455 39.2853 3.83824
31.2608 41.1701 3.86107
31.3908 43.7684 3.89132
32.2492 46.3754 3.9374
34.3606 52.4971 0.00566706
32.0026 51.2086 2
29.8609 49.7198 3.98931
30.5188 53.393 0.0194026
28.4272 51.6056 2
26.5125 49.9889 3.97096
26.8822 53.4381 0.0253934
25.0792 51.7481 2
23.3476 50.1953 3.97159
23.5735 53.4804 0.0318288
21.9669 51.8009 2
20.4663 50.3172 3.96996
17.9898 50.3314 3.97001
17.8344 52.7892 3.96664
19.2013 51.6331 2
17.4355 55.3407 3.97024
18.9196 54.3071 2
20.468 53.2184 0.0356488
17.1332 57.8762 3.97666
18.4439 56.7273 2
19.9297 55.8348 0.0263974
17.135 60.5519 3.97913
18.3668 59.1164 2
19.4355 57.8951 0.02285
17.4061 63.4697 3.98582
18.6171 61.7714 2
19.7044 60.2102 0.0203962
17.941 66.6178 3.99281
19.1253 64.6786 2
20.2058 62.8638 0.01611
18.75 69.9759 4
19.8845 67.8095 2
20.9362 65.7671 0.0111124
21.9107 68.8729 0.00676286
20.9142 71.1327 2
23.1494 72.1454 0
21.5859 13.6021 3.98326
22.1892 11.0241 3.98488
23.0952 12.7817 2
23.0396 8.17642 3.98777
23.9712 10.1645 2
24.1164 5.14302 3.99256
25.0215 7.31046 2
25.8587 9.37839 0.0146652
25.446 1.99014 4
26.2785 4.32798 2
27.0681 6.54074 0.0117027
27.7943 1.27778 2
28.4871 3.64398 0.00697349
30.1841 0.720592 0
34.1227 35.8135 3.91813
35.8109 35.812 2
37.498 35.8046 0.0311569
21.304 15.8244 3.98237
24.7755 12.0673 0.0157609
23.75 14.352 0.0166565
25.3564 13.901 2
22.4793 15.0287 2
24.0238 15.6141 2
23.2626 16.2462 3.98197
25.3786 16.0824 3.98305
27.29 13.3695 0.0163312
29.7788 14.1962 0.0170241
28.3551 15.9697 2
27.4383 18.7915 3.98472
32.6904 34.1092 3.81947
34.2408 34.1944 2
35.8225 34.0976 0.0808911
34.1416 32.6318 0.17732
35.6245 30.414 0.12259
37.5278 28.5806 0.107846
40.0465 27.5343 0.0718432
37.621 27.1918 2
33.0309 32.9726 2
35.1717 28.8814 2
33.8769 31.1302 2
35.0693 27.3468 3.94356
33.1496 29.8193 3.8931
32.4273 32.3078 3.85995
29.5752 21.9261 3.99601
30.2061 19.3342 2
30.9245 16.8308 0.0172086
37.8009 25.1682 -0.014643
35.2003 22.6246 0.00808335
32.8617 19.7841 0.0159522
32.3064 22.3986 2
34.9974 25.1546 2
31.7027 25.6143 4.0014
32.2158 37.5036 3.83743
34.0855 37.5026 2
35.7913 37.5011 0.0405077
35.4661 50.1699 -0.00865693
34.2634 47.4586 0.0612143
34.1252 39.1916 0.0800061
33.1301 45.1871 0.101787
32.4151 42.6856 0.132202
32.6658 40.8909 0.179404
33.2407 49.1501 2
32.3468 39.2826 2
31.2397 41.1816 2
32.227 46.3977 2
31.3757 43.7811 2
31.1544 47.9853 3.99522
30.5131 39.4504 3.85593
30.0093 41.9655 3.89491
30.4327 44.9596 3.94482
32.004 51.2009 -0.000660686
29.8584 49.7185 2
27.8828 48.1865 3.97487
28.4289 51.6066 0.0214939
26.5108 49.9878 2
24.6599 48.4741 3.97659
25.0808 51.7491 0.0342447
23.3465 50.1944 2
21.6719 48.793 3.97162
21.9679 51.8016 0.0352247
20.4659 50.3164 2
19.0381 49.0946 3.97247
16.8945 49.3323 3.97216
16.7752 51.4064 3.9692
17.9898 50.331 2
16.39 53.8681 3.96741
17.8337 52.789 2
19.2019 51.6336 0.0310029
15.9754 56.4767 3.97361
17.4347 55.3416 2
18.9207 54.3069 0.0335272
15.7486 59.2119 3.97804
17.1328 57.8775 2
18.4446 56.7262 0.023162
15.7871 62.1391 3.98286
17.135 60.5533 2
18.367 59.1152 0.0232337
16.0878 65.3003 3.99212
17.406 63.4707 2
18.6171 61.7701 0.0181656
16.6661 68.6801 4
17.9406 66.6179 2
19.1253 64.6777 0.0120664
18.75 69.9759 2
19.8848 67.8094 0.00692368
20.9142 71.1327 0
20.218 14.591 3.98248
21.5862 13.6021 2
20.5286 11.994 3.98428
21.1425 9.14619 3.98769
22.1894 11.0238 2
23.0949 12.7819 0.0161364
22.0154 6.08203 3.99245
23.0394 8.17599 2
23.9712 10.1649 0.0147987
23.1494 2.85457 4
24.116 5.14286 2
25.0218 7.31099 0.0120403
25.446 1.99012 2
26.2788 4.32824 0.00721118
27.7943 1.27781 0
32.355 35.7166 3.83558
34.1307 35.8172 2
35.8025 35.8104 0.0487268
21.3044 15.8241 2
20.3018 16.9587 3.98236
22.0958 16.6303 3.98056
25.3561 13.9013 0.0167692
22.4788 15.0288 0.0172756
24.0233 15.6143 0.0178197
25.3791 16.0822 2
23.2631 16.246 2
24.2026 18.4462 3.98007
27.0135 21.45 3.98871
28.3548 15.9697 0.01668
27.4384 18.7916 2
31.2964 33.8349 3.86339
32.6932 34.1114 2
34.2332 34.1897 0.111936
33.0417 32.9781 0.206715
33.8918 31.1507 0.137384
35.1861 28.9005 0.107365
37.6192 27.2211 0.0610411
35.0534 27.3187 2
32.4094 32.2983 2
33.1325 29.7919 2
32.5583 28.0813 3.96121
31.3917 31.2375 3.89577
28.8088 24.394 3.9839
29.5718 21.9287 2
30.2065 19.333 0.0140539
34.9846 25.1577 -0.00702505
32.3096 22.398 0.00938173
31.7111 25.6013 2
29.6632 27.3043 3.96777
30.2353 37.4965 3.86033
32.2161 37.5023 2
34.0754 37.5021 0.0704677
33.2457 49.159 -0.00670029
32.2492 46.3754 0.0625996
32.3455 39.2853 0.161764
31.3908 43.7684 0.108684
31.2608 41.1701 0.138932
31.1523 47.9867 2
30.4987 39.4612 2
29.993 41.9778 2
30.4102 44.9749 2
29.1999 46.5834 4.00042
29.1088 39.8566 3.89481
28.728 43.1776 3.9496
29.8609 49.7198 0.0106855
27.8805 48.1825 2
25.9678 46.663 3.97621
26.5125 49.9889 0.0290361
24.6584 48.4725 2
22.8311 47.082 3.97645
23.3476 50.1953 0.0284137
21.6707 48.7921 2
19.9923 47.6217 3.97696
20.4663 50.3172 0.0300371
19.0389 49.094 2
17.6742 48.1799 3.97511
16.1428 48.6836 3.97352
16.895 49.3319 2
15.8505 50.17 3.97027
15.3801 52.4133 3.96864
16.7748 51.406 2
17.9898 50.3314 0.0299941
14.8692 54.9758 3.97013
16.3895 53.8686 2
17.8344 52.7892 0.0333623
14.4583 57.7402 3.97652
15.9749 56.4778 2
17.4355 55.3407 0.0297644
14.2654 60.6928 3.98137
15.7485 59.2133 2
17.1332 57.8762 0.0233376
14.3324 63.8594 3.99069
15.7869 62.1403 2
17.135 60.5519 0.0208691
14.6715 67.2507 4
16.0873 65.3002 2
17.4061 63.4697 0.014178
16.6661 68.6801 2
17.941 66.6178 0.00718931
18.75 69.9759 0
18.9321 15.7785 3.9816
20.2183 14.5909 2
18.9784 13.1049 3.98341
21.5859 13.6021 0.0167357
20.5289 11.9938 2
19.3418 10.234 3.98743
19.99 7.14668 3.99242
21.1425 9.14587 2
22.1892 11.0241 0.0151205
20.9142 3.86727 4
22.0149 6.08201 2
23.0396 8.17642 0.0122305
23.1494 2.85451 2
24.1164 5.14302 0.00744258
25.446 1.99014 0
30.5375 35.5591 3.86012
32.3588 35.7191 2
34.1227 35.8135 0.0818675
21.304 15.8244 0.0176314
22.0962 16.6301 2
20.3021 16.9581 2
19.2423 18.4063 3.97982
21.7805 17.8472 3.98108
25.3786 16.0824 0.0169502
23.2626 16.2462 0.0180301
24.2029 18.446 2
22.2777 19.8907 3.97691
24.5917 21.3193 3.98243
26.4234 23.7152 3.97371
27.0123 21.4505 2
27.4383 18.7915 0.0152819
30.0353 33.0382 3.8953
31.2674 33.811 2
32.6904 34.1092 0.180535
32.4273 32.3078 0.140047
33.1496 29.8193 0.106903
35.0693 27.3468 0.056442
32.5506 28.0697 2
31.3919 31.2262 2
30.1418 29.5353 3.96083
27.9025 26.5352 3.97621
28.8118 24.4019 2
29.5752 21.9261 0.00399351
31.7027 25.6143 -0.00139752
29.6603 27.2661 2
28.7769 37.5133 3.90162
30.229 37.499 2
32.2158 37.5036 0.162569
31.1544 47.9853 0.00477769
30.4327 44.9596 0.0551784
30.5131 39.4504 0.144069
30.0093 41.9655 0.10509
29.1978 46.5979 2
29.0897 39.8714 2
28.707 43.1909 2
27.3137 44.8712 3.98645
26.878 40.5901 3.97043
27.8828 48.1865 0.0251332
25.965 46.6658 2
24.0439 45.2216 3.97912
24.6599 48.4741 0.0234117
22.8302 47.0808 2
20.9603 45.8975 3.979
21.6719 48.793 0.0283823
19.9932 47.6209 2
18.3311 46.739 3.97716
19.0381 49.0946 0.0275322
17.6743 48.1795 2
16.3359 47.7137 3.97451
16.1432 48.6833 2
15.1952 49.0152 3.97203
16.8945 49.3323 0.0278384
15.8507 50.1697 2
14.4928 50.9834 3.97017
13.8324 53.4317 3.96968
15.3799 52.4133 2
16.7752 51.4064 0.0308016
13.2547 56.1666 3.97357
14.8688 54.9765 2
16.39 53.8681 0.0325888
12.848 59.1261 3.98052
14.4581 57.7414 2
15.9754 56.4767 0.0263908
12.6781 62.3016 3.98863
14.2652 60.6938 2
15.7486 59.2119 0.021958
12.7746 65.6939 4
14.3317 63.859 2
15.7871 62.1391 0.0171359
14.6714 67.2507 2
16.0878 65.3003 0.00788392
16.6661 68.6801 0
17.6669 17.1545 3.97978
18.9323 15.7781 2
17.5102 14.3696 3.98213
20.218 14.591 0.0175185
18.9788 13.1046 2
17.6376 11.453 3.98659
20.5286 11.994 0.0157172
19.342 10.2337 2
18.0501 8.33952 3.99236
18.75 5.0241 4
19.9895 7.14684 2
21.1425 9.14619 0.0123099
20.9142 3.86727 2
22.0154 6.08203 0.00754747
23.1494 2.85457 0
29.1299 35.1256 3.89716
30.5204 35.5462 2
32.355 35.7166 0.164415
22.0958 16.6303 0.0194416
20.3018 16.9587 0.0176426
21.7808 17.8468 2
19.2426 18.4056 2
17.9805 19.9396 3.97684
20.8756 19.3768 3.97949
24.2026 18.4462 0.019932
22.278 19.8903 2
24.5914 21.3202 2
22.3589 21.7174 3.97949
24.6995 23.1655 3.97248
25.4842 25.9446 3.96704
26.4269 23.7159 2
27.0135 21.45 0.0112873
28.4073 32.3279 3.94363
30.015 33.0298 2
31.2964 33.8349 0.13661
31.3917 31.2375 0.10423
32.5583 28.0813 0.0387949
30.1211 29.5223 2
27.0593 29.1277 4.00067
27.8999 26.5328 2
28.8088 24.394 0.0161044
29.6632 27.3043 0.0322327
27.0063 37.3733 3.95487
28.7524 37.506 2
30.2353 37.4965 0.13967
29.1999 46.5834 -0.000422988
28.728 43.1776 0.0504001
29.1088 39.8566 0.105186
27.3114 44.8831 2
26.8658 40.6049 2
25.3274 43.1759 3.97097
24.1267 39.4304 3.97984
25.9678 46.663 0.0237867
24.0356 45.2217 2
21.9438 43.9547 3.97826
22.8311 47.082 0.0235461
20.9614 45.8967 2
19.004 44.9706 3.97811
19.9923 47.6217 0.0230352
18.3313 46.7387 2
16.6339 46.2125 3.97499
17.6742 48.1799 0.0248895
16.336 47.7134 2
14.9263 47.6699 3.97252
16.1428 48.6836 0.0264799
15.1955 49.0149 2
13.7898 49.5453 3.97105
15.8505 50.17 0.029734
14.4931 50.9832 2
12.8991 51.872 3.97065
12.1436 54.5248 3.97226
13.8323 53.432 2
15.3801 52.4133 0.0313646
11.5334 57.4577 3.97843
13.2545 56.1676 2
14.8692 54.9758 0.029871
11.1329 60.6276 3.98711
12.8478 59.127 2
14.4583 57.7402 0.0234832
10.9835 64.0165 4
12.6773 62.3009 2
14.2654 60.6928 0.0186321
12.7745 65.694 2
14.3324 63.8594 0.00930525
14.6715 67.2507 0
16.4005 18.6495 3.97797
17.667 17.1539 2
16.1014 15.7791 3.98137
18.9321 15.7785 0.0184045
17.5105 14.369 2
16.0195 12.8067 3.9846
18.9784 13.1049 0.0165895
17.6378 11.4525 2
16.2013 9.66257 3.99217
19.3418 10.234 0.012567
18.0497 8.33983 2
16.6661 6.31991 4
18.75 5.02404 2
19.99 7.14668 0.00758419
20.9142 3.86727 0
27.5237 34.7748 3.94368
29.1047 35.1131 2
30.5375 35.5591 0.139881
16.6839 21.3776 3.97251
21.7805 17.8472 0.018916
19.2423 18.4063 0.0201803
20.8758 19.3763 2
17.9807 19.9388 2
19.7257 21.5722 3.97992
22.2777 19.8907 0.0230908
24.5917 21.3193 0.0175734
22.3591 21.7171 2
24.7009 23.1653 2
22.8536 24.5999 3.97096
24.6016 28.5257 3.97193
25.482 25.9433 2
26.4234 23.7152 0.0262876
26.2492 31.6978 3.99019
28.3871 32.3125 2
30.0353 33.0382 0.104701
30.1418 29.5353 0.0391739
27.0672 29.1258 2
27.9025 26.5352 0.023789
24.8306 36.856 3.98627
26.9882 37.3713 2
28.7769 37.5133 0.0983785
27.3137 44.8712 0.0135504
26.878 40.5901 0.0295683
25.3173 43.1804 2
24.1159 39.4308 2
23.0268 41.7971 3.98041
21.8453 38.5063 3.97711
24.0439 45.2216 0.0208765
21.9432 43.9543 2
19.781 42.887 3.97788
20.9603 45.8975 0.0209957
19.0036 44.9705 2
16.9755 44.3796 3.97536
18.3311 46.739 0.0228358
16.634 46.2123 2
14.8515 46.09 3.9725
16.3359 47.7137 0.0254887
14.9265 47.6697 2
13.296 48.0082 3.97088
15.1952 49.0152 0.0279702
13.79 49.5452 2
12.1175 50.2517 3.97101
14.4928 50.9834 0.0298336
12.8992 51.872 2
11.1394 52.8346 3.97222
10.3248 55.7094 3.97675
12.1436 54.5253 2
13.8324 53.4317 0.0303218
9.69968 58.8497 3.98538
11.5331 57.4585 2
13.2547 56.1666 0.0264261
9.30605 62.2254 4
11.1318 60.6264 2
12.848 59.1261 0.0194809
10.9835 64.0165 2
12.6781 62.3016 0.0113675
12.7746 65.6939 0
15.1478 20.1857 3.97352
16.4006 18.6487 2
14.7476 17.3024 3.97917
17.6669 17.1545 0.0202157
16.1016 15.7781 2
14.4822 14.2891 3.98312
17.5102 14.3696 0.0178689
16.0197 12.806 2
14.4442 11.1136 3.99159
17.6376 11.453 0.0134123
16.2009 9.66295 2
14.6715 7.74927 4
18.0501 8.33952 0.00764066
16.6661 6.31988 2
18.75 5.0241 0
25.4778 34.2629 3.98913
27.5039 34.7684 2
29.1299 35.1256 0.102841
17.8599 22.3227 3.98337
15.5322 22.9205 3.96992
16.6841 21.3767 2
20.8756 19.3768 0.0205095
17.9805 19.9396 0.023158
19.7259 21.5715 2
19.673 24.3797 3.96927
22.3589 21.7174 0.0205057
24.6995 23.1655 0.0275191
22.8538 24.5991 2
21.9693 27.8223 3.9709
23.8111 31.1855 3.97461
24.606 28.5247 2
25.4842 25.9446 0.0329608
26.2423 31.6897 2
28.4073 32.3279 0.056369
27.0593 29.1277 -0.000672264
22.5782 36.278 3.97755
24.8135 36.8547 2
27.0063 37.3733 0.0451297
25.3274 43.1759 0.0290325
24.1267 39.4304 0.0201634
23.023 41.7955 2
21.8405 38.506 2
20.7674 40.6362 3.97745
20.1791 37.7845 3.97704
21.9438 43.9547 0.0217368
19.7814 42.8872 2
17.3993 42.1 3.97615
19.004 44.9706 0.0218944
16.9757 44.3795 2
14.8617 44.1997 3.97257
16.6339 46.2125 0.0250082
14.8515 46.0899 2
12.9679 46.2953 3.97052
14.9263 47.6699 0.0274825
13.2961 48.0082 2
11.4885 48.5493 3.97055
13.7898 49.5453 0.028949
12.1178 50.2516 2
10.265 51.0792 3.97224
12.8991 51.872 0.0293491
11.1397 52.8346 2
9.23396 53.8881 3.97624
8.38352 56.982 3.98412
10.3248 55.7096 2
12.1436 54.5248 0.0277437
7.74927 60.3285 4
9.69852 58.8477 2
11.5334 57.4577 0.0215737
9.306 62.2255 2
11.1329 60.6276 0.0128913
10.9835 64.0165 0
13.9622 21.7536 3.97045
15.1479 20.1848 2
13.4497 18.9007 3.97611
16.4005 18.6495 0.0220319
14.7478 17.3013 2
13.0278 15.8822 3.98208
16.1014 15.7791 0.0186271
14.4823 14.2882 2
12.7818 12.687 3.99016
16.0195 12.8067 0.015401
14.4438 11.1141 2
12.7746 9.30605 4
16.2013 9.66257 0.00782955
14.6715 7.74924 2
16.6661 6.31991 0
23.1473 33.7996 3.97673
25.4586 34.2599 2
27.5237 34.7748 0.0563191
17.6356 24.0403 3.97018
17.8602 22.3219 2
14.316 24.4499 3.97039
15.5325 22.9199 2
16.6839 21.3776 0.0274868
19.0752 27.2018 3.97032
19.7257 21.5722 0.0200762
19.6729 24.3793 2
21.2351 30.6625 3.97228
22.8536 24.5999 0.0290374
21.9701 27.8222 2
23.8033 31.1859 2
24.6016 28.5257 0.0280722
26.2492 31.6978 0.00980503
20.3131 35.9232 3.97634
22.577 36.2774 2
24.8306 36.856 0.0137257
23.0268 41.7971 0.0195941
21.8453 38.5063 0.0228926
20.7646 40.6363 2
20.1773 37.7846 2
18.1359 39.0004 3.97593
19.781 42.887 0.0221158
17.3991 42.0999 2
14.8338 41.9171 3.97312
16.9755 44.3796 0.0246354
14.8618 44.1996 2
12.7109 44.3913 3.97038
14.8515 46.09 0.0275028
12.968 46.2953 2
10.9894 46.7336 3.97001
13.296 48.0082 0.0291189
11.4886 48.5493 2
9.52812 49.2396 3.97176
12.1175 50.2517 0.0289858
10.2653 51.0791 2
8.2669 52.0016 3.97597
11.1394 52.8346 0.0277802
9.23425 53.8878 2
7.19263 55.0321 3.9841
6.31991 58.3339 4
8.38261 56.9793 2
10.3248 55.7094 0.0232465
7.74924 60.3285 2
9.69968 58.8497 0.0146242
9.30605 62.2254 0
13.2304 25.3621 3.9713
12.8308 23.2825 3.97007
13.9626 21.7529 2
12.2367 20.5506 3.97356
15.1478 20.1857 0.0264773
13.4499 18.8995 2
11.6581 17.5638 3.98038
14.7476 17.3024 0.0208279
13.0278 15.8811 2
11.2193 14.3721 3.98829
14.4822 14.2891 0.0168774
12.7812 12.6875 2
10.9835 10.9835 4
14.4442 11.1136 0.0084104
12.7745 9.306 2
14.6715 7.74927 0
20.6761 33.3947 3.97465
23.1531 33.7998 2
25.4778 34.2629 0.01087
15.92 26.3988 3.97024
17.6356 24.0398 2
17.8599 22.3227 0.0166319
14.3163 24.4496 2
15.5322 22.9205 0.0300825
18.4285 30.1715 3.97293
19.074 27.2016 2
19.673 24.3797 0.0307262
21.2409 30.6626 2
21.9693 27.8223 0.0290983
23.8111 31.1855 0.0253898
17.765 35.9628 3.97605
20.3143 35.9233 2
22.5782 36.278 0.0224473
20.7674 40.6362 0.0225482
20.1791 37.7845 0.0229642
18.137 39.0006 2
14.364 39.1751 3.97359
17.3993 42.1 0.0238534
14.8339 41.917 2
12.4095 42.2756 3.97055
14.8617 44.1997 0.0274257
12.711 44.3913 2
10.5663 44.8024 3.96964
12.9679 46.2953 0.0294768
10.9895 46.7336 2
8.91026 47.3192 3.97119
11.4885 48.5493 0.0294483
9.52829 49.2396 2
7.4339 50.0352 3.97538
10.265 51.0792 0.0277579
8.26718 52.0012 2
6.13327 53.0068 3.98459
9.23396 53.8881 0.023761
7.19209 55.0294 2
5.0241 56.25 4
6.31988 58.3339 2
8.38352 56.982 0.0158815
7.74927 60.3285 0
13.4705 26.8137 3.97034
11.942 24.7882 3.97157
13.2306 25.3618 2
11.1415 22.2362 3.97155
12.8312 23.2822 2
13.9622 21.7536 0.0295539
12.2372 20.5497 2
10.3892 19.3192 3.97846
13.4497 18.9007 0.0238863
11.6582 17.5627 2
9.76028 16.1559 3.98652
13.0278 15.8822 0.0179232
11.2185 14.3729 2
9.30607 12.7746 4
12.7818 12.687 0.00984177
10.9835 10.9835 2
12.7746 9.30605 0
17.9276 33.1097 3.97489
20.6767 33.3947 2
23.1473 33.7996 0.0232654
15.5208 29.6355 3.9718
15.9191 26.3985 2
17.6356 24.0403 0.0298183
14.316 24.4499 0.0296138
18.4297 30.1715 2
19.0752 27.2018 0.0296832
21.2351 30.6625 0.0277197
14.9708 36.0174 3.97409
17.7649 35.9629 2
20.3131 35.9232 0.023661
12.636 37.8285 3.9732
18.1359 39.0004 0.0240737
14.3645 39.175 2
11.9328 40.1395 3.97133
14.8338 41.9171 0.0268788
12.4093 42.2755 2
10.1669 42.7776 3.96889
12.7109 44.3913 0.0296219
10.5663 44.8024 2
8.38823 45.3212 3.97049
10.9894 46.7336 0.0299898
8.9103 47.3192 2
6.72517 48.0006 3.97491
9.52812 49.2396 0.0282446
7.43406 50.0348 2
5.21015 50.9101 3.98462
8.2669 52.0016 0.0240259
6.13296 53.0048 2
3.86727 54.0858 4
7.19263 55.0321 0.0159044
5.02404 56.25 2
6.31991 58.3339 0
12.9307 29.0321 3.97003
11.3716 26.4872 3.9702
13.4699 26.8134 2
10.2 23.9682 3.97241
11.9424 24.788 2
13.2304 25.3621 0.0286968
9.24267 21.1387 3.97601
11.1421 22.2357 2
12.8308 23.2825 0.0299263
12.2367 20.5506 0.0264441
10.3896 19.3184 2
8.4163 18.0275 3.98515
11.6581 17.5638 0.0196168
9.75935 16.1574 2
7.74928 14.6715 4
11.2193 14.3721 0.0117139
9.30602 12.7745 2
10.9835 10.9835 0
14.5309 32.8617 3.9732
17.9282 33.1097 2
20.6761 33.3947 0.0253518
15.5209 29.6353 2
15.92 26.3988 0.0297584
18.4285 30.1715 0.0270719
12.9303 36.2084 3.97241
14.971 36.0174 2
17.765 35.9628 0.0239461
12.6364 37.8284 2
11.2877 38.3091 3.9718
14.364 39.1751 0.0264103
11.9332 40.1394 2
9.75653 40.7538 3.96925
12.4095 42.2756 0.0294464
10.1669 42.7776 2
7.93824 43.2699 3.96944
10.5663 44.8024 0.0303561
8.38822 45.3212 2
6.13149 45.9058 3.9743
8.91026 47.3192 0.0288078
6.7252 48.0003 2
4.42178 48.7511 3.98431
7.4339 50.0352 0.0246158
5.20997 50.9089 2
2.85457 51.8506 4
6.13327 53.0068 0.0154063
3.86727 54.0858 2
5.0241 56.25 0
12.0775 31.2557 3.97104
10.7838 28.4144 3.96947
12.9306 29.0319 2
9.41467 25.798 3.97138
11.3718 26.4869 2
13.4705 26.8137 0.0296607
8.22979 23.0234 3.9756
10.2005 23.9679 2
11.942 24.7882 0.0284299
7.19877 19.9784 3.98397
9.24332 21.1386 2
11.1415 22.2362 0.0284522
10.3892 19.3192 0.0215373
8.41557 18.0298 2
6.31992 16.6661 4
9.76028 16.1559 0.0134834
7.74926 14.6714 2
9.30607 12.7746 0
12.1127 34.2942 3.97248
14.5307 32.8617 2
17.9276 33.1097 0.0251055
15.5208 29.6355 0.0281994
10.8503 36.6106 3.97153
12.9305 36.2084 2
14.9708 36.0174 0.0259114
12.636 37.8285 0.0268037
11.288 38.309 2
9.35255 38.8231 3.96969
11.9328 40.1395 0.028669
9.75688 40.7538 2
7.54994 41.2111 3.96917
10.1669 42.7776 0.0311144
7.93829 43.2699 2
5.64403 43.7686 3.97343
8.38823 45.3212 0.0295116
6.13148 45.9055 2
3.7675 46.537 3.98379
6.72517 48.0006 0.0250926
4.42169 48.7505 2
1.99014 49.554 4
5.21015 50.9101 0.0153801
2.85451 51.8506 2
3.86727 54.0858 0
10.9317 32.9185 3.97174
10.0977 30.3815 3.96943
12.0777 31.2556 2
8.72296 27.7316 3.97056
10.7837 28.4142 2
12.9307 29.0321 0.0299677
7.35521 24.9823 3.97516
9.41488 25.7977 2
11.3716 26.4872 0.0297975
6.11577 22.0024 3.98421
8.23036 23.0235 2
10.2 23.9682 0.0275901
5.02411 18.75 4
7.19848 19.9807 2
9.24267 21.1387 0.0239877
8.4163 18.0275 0.0148485
6.3199 16.6661 2
7.74928 14.6715 0
10.4567 34.9996 3.97131
12.1132 34.2941 2
14.5309 32.8617 0.0268032
9.0225 36.9846 3.96994
10.8509 36.6106 2
12.9303 36.2084 0.0275942
11.2877 38.3091 0.0282001
9.35279 38.823 2
7.23058 39.1819 3.96944
9.75653 40.7538 0.0307486
7.55014 41.211 2
5.25977 41.6142 3.97268
7.93824 43.2699 0.0305622
5.64407 43.7684 2
3.24545 44.282 3.98302
6.13149 45.9058 0.0256965
3.76751 46.5368 2
1.27781 47.2057 4
4.42178 48.7511 0.015691
1.99012 49.554 2
2.85457 51.8506 0
10.0962 33.881 3.97128
9.38975 32.154 3.96988
10.9318 32.9185 2
8.07225 29.6952 3.97013
10.0977 30.3814 2
12.0775 31.2557 0.0289558
6.5992 27.0083 3.97436
8.72297 27.7315 2
10.7838 28.4144 0.0305332
5.17108 24.0953 3.98454
7.35549 24.9823 2
9.41467 25.798 0.0286171
3.86728 20.9142 4
6.1157 22.004 2
8.22979 23.0234 0.0243981
5.02406 18.75 2
7.19877 19.9784 0.0160254
6.31992 16.6661 0
8.84719 35.2791 3.97019
10.457 34.9995 2
12.1127 34.2942 0.0275161
7.01425 37.2057 3.96966
9.0224 36.9845 2
10.8503 36.6106 0.0284651
9.35255 38.8231 0.0303116
7.23068 39.1818 2
4.98779 39.4675 3.9724
7.54994 41.2111 0.0308297
5.25996 41.614 2
2.85612 42.0024 3.98241
5.64403 43.7686 0.0265672
3.24552 44.2819 2
0.720592 44.8159 4
3.7675 46.537 0.0162131
1.27778 47.2057 2
1.99014 49.554 0
8.88562 33.6974 3.97032
10.0964 33.8809 2
7.50983 31.6089 3.9703
9.38979 32.1539 2
10.9317 32.9185 0.0282603
5.94457 29.0693 3.97399
8.07216 29.695 2
10.0977 30.3815 0.0305689
4.35892 26.2478 3.98401
6.59927 27.0083 2
8.72296 27.7316 0.0294356
2.85458 23.1494 4
5.17105 24.0961 2
7.35521 24.9823 0.0248433
3.86728 20.9142 2
6.11577 22.0024 0.0157897
5.02411 18.75 0
6.96434 35.3058 3.96986
8.84746 35.279 2
10.4567 34.9996 0.0286869
4.83787 37.3398 3.97284
7.01434 37.2056 2
9.0225 36.9846 0.0300591
7.23058 39.1819 0.0305564
4.98788 39.4673 2
2.60435 39.7141 3.98194
5.25977 41.6142 0.0273217
2.85634 42.0026 2
0.320823 42.3947 4
3.24545 44.282 0.0169805
0.720551 44.8159 2
1.27781 47.2057 0
7.12384 33.4606 3.97041
8.88572 33.6973 2
10.0962 33.881 0.0287176
5.41559 31.1332 3.97385
7.5098 31.6088 2
9.38975 32.154 0.0301155
3.68078 28.4436 3.98342
5.94448 29.0693 2
8.07225 29.6952 0.0298687
1.99015 25.446 4
4.35892 26.248 2
6.5992 27.0083 0.0256373
2.85453 23.1494 2
5.17108 24.0953 0.0154649
3.86728 20.9142 0
4.85208 35.2514 3.97303
6.96454 35.3058 2
8.84719 35.2791 0.0298135
2.49572 37.4286 3.98236
4.83794 37.3398 2
7.01425 37.2057 0.030336
4.98779 39.4675 0.0275978
2.60449 39.7144 2
0.080333 39.9526 4
2.85612 42.0024 0.0175902
0.320817 42.3947 2
0.720592 44.8159 0
5.04518 33.1899 3.97361
7.12395 33.4606 2
8.88562 33.6974 0.0296791
3.1452 30.6661 3.98292
5.41555 31.1333 2
7.50983 31.6089 0.0297016
1.27793 27.7943 4
3.68078 28.4436 2
5.94457 29.0693 0.02601
1.99013 25.446 2
4.35892 26.2478 0.0159931
2.85458 23.1494 0
2.54783 35.1591 3.98251
4.85229 35.2516 2
6.96434 35.3058 0.0301377
0 37.5 4
2.49586 37.4289 2
4.83787 37.3398 0.0271563
2.60435 39.7141 0.0180606
0.0802903 39.9526 2
0.320823 42.3947 0
2.76531 32.9058 3.98278
5.0453 33.1901 2
7.12384 33.4606 0.0295851
0.721173 30.1842 4
3.14525 30.6664 2
5.41559 31.1332 0.0261455
1.27779 27.7943 2
3.68078 28.4436 0.0165763
1.99015 25.446 0
0.0806499 35.0474 4
2.54806 35.1594 2
4.85208 35.2514 0.0269713
0 37.5 2
2.49572 37.4286 0.0176371
0.080333 39.9526 0
0.32156 32.6054 4
2.76545 32.9062 2
5.04518 33.1899 0.0263889
0.72056 30.1841 2
3.1452 30.6661 0.0170823
1.27793 27.7943 0
0.0802889 35.0474 2
2.54783 35.1591 0.0174883
0 37.5 0
0.320817 32.6053 2
2.76531 32.9058 0.0172181
0.721173 30.1842 0
0.0806499 35.0474 0
0.32156 32.6054 0
CELLS 1910 17190
8 18 6 25 56 2 0 5 16
8 57 23 6 18 17 4 0 2
8 78 36 9 29 31 11 1 7
8 31 11 1 7 79 37 10 30
8 110 57 18 50 48 17 2 14
8 50 18 56 111 14 2 16 49
8 116 62 22 55 52 20 3 15
8 56 25 67 118 16 5 24 53
8 119 63 23 57 54 21 4 17
8 55 22 63 119 15 3 21 54
8 58 26 68 121 18 6 25 56
8 122 65 26 58 57 23 6 18
8 73 31 7 27 142 79 30 71
8 143 78 29 72 73 31 7 27
8 83 147 76 34 32 74 28 8
8 84 148 78 36 33 75 29 9
8 76 34 8 28 148 84 33 75
8 37 79 150 86 10 30 77 35
8 151 87 36 78 80 38 11 31
8 80 38 11 31 152 88 37 79
8 175 100 42 94 96 44 12 40
8 44 96 176 101 12 40 95 43
8 101 176 98 46 43 95 41 13
8 46 98 178 103 13 41 97 45
8 178 103 45 97 147 83 32 74
8 189 116 55 109 106 52 15 47
8 111 56 118 191 49 16 53 107
8 192 119 57 110 108 54 17 48
8 109 55 119 192 47 15 54 108
8 194 122 58 112 110 57 18 50
8 112 58 121 195 50 18 56 111
8 115 61 19 51 197 124 59 113
8 115 61 125 198 51 19 60 114
8 198 125 62 116 114 60 20 52
8 200 127 64 120 116 62 22 55
8 118 67 132 202 53 24 66 117
8 121 68 133 203 56 25 67 118
8 120 64 128 204 55 22 63 119
8 204 128 65 122 119 63 23 57
8 206 134 68 121 123 69 26 58
8 123 69 26 58 207 131 65 122
8 226 147 74 138 140 76 28 70
8 229 148 75 139 143 78 29 72
8 140 76 28 70 229 148 75 139
8 142 79 30 71 231 150 77 141
8 144 80 31 73 232 152 79 142
8 233 151 78 143 144 80 31 73
8 150 86 35 77 235 154 81 145
8 235 154 81 145 146 82 39 91
8 146 82 39 91 236 155 90 165
8 238 157 83 147 149 85 34 76
8 239 158 84 148 151 87 36 78
8 149 85 34 76 239 158 84 148
8 152 88 37 79 241 160 86 150
8 242 161 87 151 153 89 38 80
8 153 89 38 80 243 162 88 152
8 171 98 41 92 265 178 97 169
8 265 178 97 169 226 147 74 138
8 172 96 40 93 266 176 95 170
8 266 176 95 170 171 98 41 92
8 269 175 94 173 172 96 40 93
8 271 180 99 174 175 100 42 94
8 197 124 59 113 271 180 99 174
8 272 181 100 175 177 102 44 96
8 273 182 101 176 179 104 46 98
8 177 102 44 96 273 182 101 176
8 179 104 46 98 275 184 103 178
8 275 184 103 178 238 157 83 147
8 188 115 51 105 283 197 113 186
8 188 115 198 284 105 51 114 187
8 284 198 116 189 187 114 52 106
8 286 200 120 193 189 116 55 109
8 191 118 202 288 107 53 117 190
8 195 121 203 289 111 56 118 191
8 193 120 204 290 109 55 119 192
8 290 204 122 194 192 119 57 110
8 196 123 58 112 292 207 122 194
8 293 206 121 195 196 123 58 112
8 199 126 61 115 297 211 124 197
8 298 212 127 200 198 125 62 116
8 199 126 212 298 115 61 125 198
8 205 129 64 120 300 214 127 200
8 301 217 130 201 202 132 66 117
8 209 136 168 264 301 217 130 201
8 302 219 132 202 203 133 67 118
8 303 220 133 203 206 134 68 121
8 205 129 215 304 120 64 128 204
8 304 215 131 207 204 128 65 122
8 306 221 134 206 208 135 69 123
8 208 135 69 123 307 218 131 207
8 210 137 167 263 309 223 136 209
8 328 238 147 226 230 149 76 140
8 228 146 91 166 329 236 165 260
8 231 150 77 141 330 235 145 227
8 330 235 145 227 228 146 91 166
8 332 239 148 229 233 151 78 143
8 230 149 76 140 332 239 148 229
8 232 152 79 142 334 241 150 231
8 234 153 80 144 335 243 152 232
8 336 242 151 233 234 153 80 144
8 236 155 90 165 338 245 164 259
8 241 160 86 150 339 246 154 235
8 339 246 154 235 237 156 82 146
8 237 156 82 146 340 247 155 236
8 342 249 157 238 240 159 85 149
8 343 250 158 239 242 161 87 151
8 240 159 85 149 343 250 158 239
8 243 162 88 152 345 252 160 241
8 244 163 253 346 153 89 161 242
8 244 163 89 153 347 254 162 243
8 311 224 261 371 210 137 167 263
8 263 167 262 372 209 136 168 264
8 267 179 98 171 375 275 178 265
8 375 275 178 265 328 238 147 226
8 376 273 176 266 267 179 98 171
8 268 177 96 172 376 273 176 266
8 379 272 175 269 268 177 96 172
8 380 271 174 270 269 175 94 173
8 283 197 113 186 380 271 174 270
8 381 277 180 271 272 181 100 175
8 297 211 124 197 381 277 180 271
8 382 278 181 272 274 183 102 177
8 274 183 102 177 383 279 182 273
8 383 279 182 273 276 185 104 179
8 385 281 184 275 342 249 157 238
8 276 185 104 179 385 281 184 275
8 285 199 115 188 393 297 197 283
8 394 298 200 286 284 198 116 189
8 285 199 298 394 188 115 198 284
8 291 205 120 193 396 300 200 286
8 397 301 201 287 288 202 117 190
8 295 209 264 374 397 301 201 287
8 398 302 202 288 289 203 118 191
8 399 303 203 289 293 206 121 195
8 291 205 304 400 193 120 204 290
8 400 304 207 292 290 204 122 194
8 294 208 123 196 402 307 207 292
8 403 306 206 293 294 208 123 196
8 296 210 263 373 405 309 209 295
8 408 312 213 299 297 211 126 199
8 299 213 313 409 199 126 212 298
8 409 313 214 300 298 212 127 200
8 305 216 129 205 411 315 214 300
8 412 318 217 301 302 219 132 202
8 309 223 136 209 412 318 217 301
8 413 320 219 302 303 220 133 203
8 306 221 321 414 206 134 220 303
8 307 218 131 207 415 316 215 304
8 305 216 316 415 205 129 215 304
8 417 322 221 306 308 222 135 208
8 308 222 135 208 418 319 218 307
8 310 225 137 210 420 325 223 309
8 423 326 224 311 310 225 137 210
8 329 236 165 260 441 338 259 368
8 442 342 238 328 333 240 149 230
8 331 237 146 228 443 340 236 329
8 334 241 150 231 444 339 235 330
8 444 339 235 330 331 237 146 228
8 446 343 239 332 336 242 151 233
8 333 240 149 230 446 343 239 332
8 335 243 152 232 448 345 241 334
8 337 244 153 234 449 347 243 335
8 337 244 346 450 234 153 242 336
8 338 245 164 259 452 349 258 367
8 340 247 155 236 453 350 245 338
8 345 252 160 241 454 351 246 339
8 454 351 246 339 341 248 156 237
8 341 248 156 237 455 352 247 340
8 240 159 251 344 342 249 354 457
8 242 161 253 346 343 250 355 458
8 343 250 355 458 240 159 251 344
8 347 254 162 243 460 357 252 345
8 348 255 358 461 244 163 253 346
8 348 255 163 244 462 359 254 347
8 473 360 257 365 363 256 364 482
8 452 349 258 367 365 257 366 485
8 422 324 369 488 311 224 261 371
8 371 261 370 490 263 167 262 372
8 407 311 371 491 296 210 263 373
8 373 263 372 492 295 209 264 374
8 493 385 275 375 442 342 238 328
8 377 276 179 267 493 385 275 375
8 378 274 177 268 494 383 273 376
8 494 383 273 376 377 276 179 267
8 497 382 272 379 378 274 177 268
8 498 381 271 380 379 272 175 269
8 393 297 197 283 498 381 271 380
8 499 387 277 381 382 278 181 272
8 408 312 211 297 499 387 277 381
8 500 388 278 382 384 280 183 274
8 501 389 279 383 386 282 185 276
8 384 280 183 274 501 389 279 383
8 386 282 185 276 503 391 281 385
8 503 391 281 385 457 354 249 342
8 511 408 299 395 393 297 199 285
8 395 299 409 512 285 199 298 394
8 512 409 300 396 394 298 200 286
8 401 305 205 291 514 411 300 396
8 515 412 301 397 398 302 202 288
8 405 309 209 295 515 412 301 397
8 516 413 302 398 399 303 203 289
8 403 306 414 517 293 206 303 399
8 402 307 207 292 518 415 304 400
8 401 305 415 518 291 205 304 400
8 404 308 208 294 520 418 307 402
8 521 417 306 403 404 308 208 294
8 406 310 210 296 523 420 309 405
8 526 423 311 407 406 310 210 296
8 410 314 213 299 527 424 312 408
8 528 425 315 411 409 313 214 300
8 410 314 425 528 299 213 313 409
8 416 317 216 305 530 427 315 411
8 531 430 318 412 413 320 219 302
8 420 325 223 309 531 430 318 412
8 532 432 320 413 414 321 220 303
8 417 322 433 533 306 221 321 414
8 418 319 218 307 534 428 316 415
8 416 317 428 534 305 216 316 415
8 419 323 434 536 308 222 322 417
8 419 323 222 308 537 431 319 418
8 421 327 225 310 539 438 325 420
8 421 327 439 541 310 225 326 423
8 543 437 324 422 423 326 224 311
8 441 338 259 368 559 452 367 486
8 443 340 236 329 560 453 338 441
8 333 240 344 447 442 342 457 561
8 445 341 237 331 562 455 340 443
8 448 345 241 334 563 454 339 444
8 563 454 339 444 445 341 237 331
8 336 242 346 450 446 343 458 565
8 446 343 458 565 333 240 344 447
8 449 347 243 335 567 460 345 448
8 451 348 244 337 568 462 347 449
8 451 348 461 569 337 244 346 450
8 570 463 349 452 473 360 257 365
8 453 350 245 338 570 463 349 452
8 455 352 247 340 571 464 350 453
8 460 357 252 345 572 465 351 454
8 572 465 351 454 456 353 248 341
8 456 353 248 341 573 466 352 455
8 344 251 356 459 457 354 468 575
8 458 355 469 576 344 251 356 459
8 346 253 358 461 458 355 469 576
8 462 359 254 347 578 471 357 460
8 348 255 359 462 461 358 472 579
8 591 474 360 473 475 361 256 363
8 475 361 256 363 594 477 362 479
8 363 256 364 482 479 362 480 603
8 590 473 365 484 481 363 482 605
8 482 364 257 365 606 483 366 485
8 559 452 367 486 484 365 485 607
8 542 436 487 609 422 324 369 488
8 525 422 488 611 407 311 371 491
8 488 369 489 612 371 261 370 490
8 491 371 490 613 373 263 372 492
8 495 386 276 377 614 503 385 493
8 614 503 385 493 561 457 342 442
8 615 501 383 494 495 386 276 377
8 496 384 274 378 615 501 383 494
8 618 500 382 497 496 384 274 378
8 619 499 381 498 497 382 272 379
8 511 408 297 393 619 499 381 498
8 620 505 387 499 500 388 278 382
8 527 424 312 408 620 505 387 499
8 502 390 506 621 384 280 388 500
8 622 507 389 501 504 392 282 386
8 502 390 280 384 622 507 389 501
8 504 392 282 386 624 509 391 503
8 624 509 391 503 575 468 354 457
8 513 410 299 395 630 527 408 511
8 631 528 411 514 512 409 300 396
8 513 410 528 631 395 299 409 512
8 519 416 305 401 633 530 411 514
8 634 531 412 515 516 413 302 398
8 523 420 309 405 634 531 412 515
8 635 532 413 516 517 414 303 399
8 521 417 533 636 403 306 414 517
8 520 418 307 402 637 534 415 518
8 519 416 534 637 401 305 415 518
8 522 419 308 404 639 537 418 520
8 522 419 536 640 404 308 417 521
8 524 421 310 406 642 539 420 523
8 524 421 541 644 406 310 423 526
8 646 543 422 525 526 423 311 407
8 529 426 314 410 647 544 424 527
8 528 425 545 648 411 315 427 530
8 529 426 545 648 410 314 425 528
8 535 429 317 416 649 546 427 530
8 650 548 430 531 532 432 320 413
8 539 438 325 420 650 548 430 531
8 533 433 550 651 414 321 432 532
8 536 434 551 652 417 322 433 533
8 537 431 319 418 653 547 428 534
8 535 429 547 653 416 317 428 534
8 538 435 552 654 419 323 434 536
8 538 435 323 419 655 549 431 537
8 540 440 327 421 657 556 438 539
8 540 440 557 659 421 327 439 541
8 541 439 555 660 423 326 437 543
8 661 554 436 542 543 437 324 422
8 676 570 452 559 590 473 365 484
8 560 453 338 441 676 570 452 559
8 562 455 340 443 677 571 453 560
8 447 344 459 566 561 457 575 678
8 564 456 341 445 679 573 455 562
8 567 460 345 448 680 572 454 563
8 680 572 454 563 564 456 341 445
8 565 458 576 682 447 344 459 566
8 450 346 461 569 565 458 576 682
8 568 462 347 449 684 578 460 567
8 451 348 462 568 569 461 579 685
8 686 580 463 570 591 474 360 473
8 571 464 350 453 686 580 463 570
8 573 466 352 455 687 581 464 571
8 572 465 582 688 460 357 471 578
8 574 467 582 688 456 353 465 572
8 574 467 353 456 689 583 466 573
8 459 356 470 577 575 468 585 691
8 576 469 586 692 459 356 470 577
8 461 358 472 579 576 469 586 692
8 462 359 471 578 579 472 588 694
8 704 591 473 590 593 475 363 481
8 595 476 592 705 475 361 474 591
8 593 475 363 481 707 594 479 602
8 594 477 362 479 709 598 478 600
8 595 476 361 475 711 597 477 594
8 479 362 480 603 600 478 601 720
8 481 363 482 605 602 479 603 722
8 603 480 364 482 723 604 483 606
8 605 482 365 484 724 606 485 607
8 656 553 608 726 542 436 487 609
8 645 542 609 728 525 422 488 611
8 609 487 610 729 488 369 489 612
8 611 488 612 730 491 371 490 613
8 616 504 386 495 731 624 503 614
8 731 624 503 614 678 575 457 561
8 732 622 501 615 616 504 386 495
8 617 502 384 496 732 622 501 615
8 617 502 621 735 496 384 500 618
8 736 620 499 619 618 500 382 497
8 630 527 408 511 736 620 499 619
8 621 506 626 737 500 388 505 620
8 647 544 424 527 737 626 505 620
8 623 508 627 738 502 390 506 621
8 623 508 390 502 739 628 507 622
8 625 510 628 739 504 392 507 622
8 740 629 509 624 691 585 468 575
8 625 510 392 504 740 629 509 624
8 632 529 410 513 744 647 527 630
8 631 528 648 745 514 411 530 633
8 632 529 648 745 513 410 528 631
8 638 535 416 519 746 649 530 633
8 747 650 531 634 635 532 413 516
8 642 539 420 523 747 650 531 634
8 636 533 651 748 517 414 532 635
8 640 536 652 749 521 417 533 636
8 639 537 418 520 750 653 534 637
8 638 535 653 750 519 416 534 637
8 641 538 419 522 751 655 537 639
8 641 538 654 752 522 419 536 640
8 643 540 421 524 753 657 539 642
8 643 540 659 755 524 421 541 644
8 644 541 660 757 526 423 543 646
8 758 661 542 645 646 543 422 525
8 529 426 544 647 648 545 662 759
8 530 427 545 648 649 546 663 760
8 535 429 546 649 653 547 664 761
8 762 666 548 650 651 550 432 532
8 657 556 438 539 762 666 548 650
8 652 551 668 763 533 433 550 651
8 654 552 669 764 536 434 551 652
8 655 549 431 537 765 665 547 653
8 538 435 549 655 654 552 667 766
8 661 554 671 768 542 436 553 656
8 658 558 440 540 769 674 556 657
8 658 558 675 770 540 440 557 659
8 659 557 673 771 541 439 555 660
8 660 555 672 772 543 437 554 661
8 788 686 570 676 704 591 473 590
8 677 571 453 560 788 686 570 676
8 679 573 455 562 789 687 571 677
8 566 459 577 683 678 575 691 790
8 681 574 456 564 791 689 573 679
8 680 572 688 792 567 460 578 684
8 681 574 688 792 564 456 572 680
8 682 576 692 794 566 459 577 683
8 569 461 579 685 682 576 692 794
8 568 462 578 684 685 579 694 796
8 687 581 464 571 798 696 580 686
8 798 696 580 686 705 592 474 591
8 689 583 466 573 799 697 581 687
8 688 582 698 800 578 471 588 694
8 690 584 698 800 574 467 582 688
8 690 584 467 574 801 699 583 689
8 693 587 701 803 577 470 585 691
8 693 587 470 577 804 702 586 692
8 695 589 702 804 579 472 586 692
8 695 589 472 579 805 703 588 694
8 708 595 705 813 593 475 591 704
8 710 596 706 814 595 476 592 705
8 707 594 479 602 816 709 600 719
8 708 595 475 593 817 711 594 707
8 709 598 478 600 819 715 599 717
8 711 597 477 594 820 714 598 709
8 710 596 476 595 822 713 597 711
8 600 478 601 720 717 599 718 832
8 602 479 603 722 719 600 720 834
8 720 601 480 603 835 721 604 723
8 722 603 482 605 836 723 606 724
8 767 670 725 839 656 553 608 726
8 756 656 726 841 645 542 609 728
8 726 608 727 842 609 487 610 729
8 728 609 729 843 611 488 612 730
8 844 740 624 731 790 691 575 678
8 733 625 504 616 844 740 624 731
8 734 623 502 617 845 739 622 732
8 733 625 739 845 616 504 622 732
8 734 623 738 846 617 502 621 735
8 735 621 737 847 618 500 620 736
8 744 647 527 630 847 737 620 736
8 621 506 627 738 737 626 741 848
8 647 544 626 737 759 662 741 848
8 623 508 628 739 738 627 742 849
8 740 629 585 691 850 743 700 802
8 625 510 629 740 739 628 743 850
8 632 529 647 744 745 648 759 854
8 633 530 648 745 746 649 760 855
8 638 535 649 746 750 653 761 856
8 857 762 650 747 748 651 532 635
8 753 657 539 642 857 762 650 747
8 749 652 763 858 636 533 651 748
8 752 654 764 859 640 536 652 749
8 751 655 537 639 860 765 653 750
8 641 538 655 751 752 654 766 861
8 754 658 540 643 862 769 657 753
8 754 658 770 863 643 540 659 755
8 755 659 771 864 644 541 660 757
8 758 661 768 866 645 542 656 756
8 757 660 772 867 646 543 661 758
8 759 662 773 868 648 545 663 760
8 649 546 663 760 761 664 774 871
8 765 665 547 653 872 775 664 761
8 873 777 666 762 763 668 550 651
8 769 674 556 657 873 777 666 762
8 764 669 779 874 652 551 668 763
8 654 552 667 766 764 669 778 875
8 655 549 665 765 766 667 776 876
8 768 671 782 877 656 553 670 767
8 772 672 783 878 661 554 671 768
8 658 558 674 769 770 675 786 879
8 659 557 675 770 771 673 785 881
8 882 784 672 772 771 673 555 660
8 789 687 571 677 897 798 686 788
8 897 798 686 788 813 705 591 704
8 791 689 573 679 898 799 687 789
8 795 693 803 900 683 577 691 790
8 793 690 574 681 901 801 689 791
8 792 688 800 902 684 578 694 796
8 793 690 800 902 681 574 688 792
8 795 693 577 683 903 804 692 794
8 797 695 804 903 685 579 692 794
8 797 695 579 685 904 805 694 796
8 905 806 697 799 798 696 581 687
8 814 706 806 905 705 592 696 798
8 689 583 697 799 801 699 808 907
8 800 698 809 908 694 588 703 805
8 690 584 699 801 800 698 809 908
8 803 701 810 909 691 585 700 802
8 693 587 702 804 803 701 811 910
8 695 589 703 805 804 702 812 911
8 818 710 814 919 708 595 705 813
8 821 712 815 920 710 596 706 814
8 816 709 600 719 922 819 717 831
8 817 711 594 707 923 820 709 816
8 818 710 595 708 924 822 711 817
8 819 715 599 717 926 827 716 829
8 820 714 598 709 927 826 715 819
8 929 825 713 822 820 714 597 711
8 821 712 596 710 930 824 713 822
8 717 599 718 832 829 716 830 942
8 719 600 720 834 831 717 832 944
8 832 718 601 720 945 833 721 835
8 834 720 603 722 946 835 723 836
8 869 780 838 950 767 670 725 839
8 865 767 839 952 756 656 726 841
8 839 725 840 953 726 608 727 842
8 841 726 842 954 728 609 729 843
8 844 740 691 790 955 850 802 899
8 733 625 740 844 845 739 850 955
8 734 623 739 845 846 738 849 956
8 735 621 738 846 847 737 848 957
8 744 647 737 847 854 759 848 957
8 738 627 742 849 848 741 851 958
8 848 741 851 958 759 662 773 868
8 850 743 700 802 959 852 807 906
8 849 742 628 739 959 852 743 850
8 854 759 868 965 745 648 760 855
8 746 649 760 855 856 761 871 966
8 860 765 653 750 967 872 761 856
8 968 873 762 857 858 763 651 748
8 862 769 657 753 968 873 762 857
8 859 764 874 969 749 652 763 858
8 752 654 766 861 859 764 875 970
8 751 655 765 860 861 766 876 971
8 754 658 769 862 863 770 879 972
8 755 659 770 863 864 771 881 974
8 976 882 772 867 864 771 660 757
8 866 768 877 977 756 656 767 865
8 867 772 878 978 758 661 768 866
8 760 663 773 868 871 774 883 980
8 870 781 837 948 982 890 780 869
8 982 890 780 869 877 782 670 767
8 761 664 774 871 872 775 884 984
8 876 776 665 765 985 885 775 872
8 873 777 668 763 986 887 779 874
8 769 674 777 873 879 786 887 986
8 764 669 778 875 874 779 888 987
8 766 667 776 876 875 778 886 988
8 878 783 892 989 768 671 782 877
8 878 783 672 772 990 893 784 882
8 880 787 675 770 991 896 786 879
8 880 787 895 992 770 675 785 881
8 881 785 894 993 771 673 784 882
8 1006 905 799 898 897 798 687 789
8 919 814 905 1006 813 705 798 897
8 791 689 799 898 901 801 907 1007
8 900 803 909 1009 790 691 802 899
8 795 693 804 903 900 803 910 1010
8 902 800 908 1011 796 694 805 904
8 793 690 801 901 902 800 908 1011
8 797 695 805 904 903 804 911 1012
8 799 697 806 905 907 808 912 1013
8 920 815 912 1013 814 706 806 905
8 802 700 810 909 906 807 913 1014
8 801 699 808 907 908 809 914 1015
8 805 703 809 908 911 812 915 1016
8 803 701 811 910 909 810 916 1017
8 911 812 917 1018 804 702 811 910
8 925 821 920 1030 818 710 814 919
8 928 823 921 1031 821 712 815 920
8 922 819 717 831 1033 926 829 941
8 923 820 709 816 1034 927 819 922
8 1035 929 822 924 923 820 711 817
8 925 821 710 818 1036 930 822 924
8 1038 933 825 929 927 826 714 820
8 926 827 716 829 1039 935 828 939
8 927 826 715 819 1040 934 827 926
8 928 823 712 821 1041 931 824 930
8 1042 932 824 930 929 825 713 822
8 829 716 830 942 939 828 940 1058
8 831 717 832 944 941 829 942 1060
8 942 830 718 832 1061 943 833 945
8 944 832 720 834 1062 945 835 946
8 981 889 947 1064 870 781 837 948
8 948 837 949 1067 869 780 838 950
8 975 869 950 1069 865 767 839 952
8 950 838 951 1070 839 725 840 953
8 952 839 953 1071 841 726 842 954
8 955 850 802 899 1072 959 906 1008
8 956 849 739 845 1072 959 850 955
8 846 738 849 956 957 848 958 1073
8 957 848 958 1073 854 759 868 965
8 849 742 852 959 958 851 961 1076
8 960 853 961 1076 906 807 852 959
8 958 851 961 1076 868 773 883 980
8 960 853 807 906 1077 963 913 1014
8 855 760 868 965 966 871 980 1085
8 856 761 871 966 967 872 984 1086
8 971 876 765 860 1087 985 872 967
8 968 873 763 858 1088 986 874 969
8 862 769 873 968 972 879 986 1088
8 859 764 875 970 969 874 987 1089
8 861 766 876 971 970 875 988 1090
8 973 880 770 863 1091 991 879 972
8 973 880 992 1092 863 770 881 974
8 974 881 993 1093 864 771 882 976
8 979 870 948 1066 1094 982 869 975
8 1094 982 869 975 977 877 767 865
8 978 878 772 867 1095 990 882 976
8 978 878 989 1096 866 768 877 977
8 871 774 883 980 984 884 994 1099
8 983 891 999 1100 870 781 889 981
8 1101 1000 890 982 989 892 782 877
8 983 891 781 870 1101 1000 890 982
8 872 775 884 984 985 885 995 1103
8 876 776 885 985 988 886 996 1104
8 986 887 779 874 1105 998 888 987
8 879 786 887 986 991 896 998 1105
8 875 778 886 988 987 888 997 1106
8 990 893 1002 1107 878 783 892 989
8 1108 1003 893 990 993 894 784 882
8 880 787 896 991 992 895 1005 1109
8 993 894 785 881 1110 1004 895 992
8 898 799 905 1006 1007 907 1013 1120
8 1030 920 1013 1120 919 814 905 1006
8 901 801 907 1007 1011 908 1015 1121
8 899 802 909 1009 1008 906 1014 1122
8 900 803 910 1010 1009 909 1017 1123
8 1012 911 1018 1124 903 804 910 1010
8 904 805 908 1011 1012 911 1016 1125
8 1013 912 1020 1127 907 808 914 1015
8 1031 921 1020 1127 920 815 912 1013
8 1019 918 962 1075 1128 1021 913 1014
8 1128 1021 913 1014 1017 916 810 909
8 1015 914 1022 1129 908 809 915 1016
8 1016 915 1023 1130 911 812 917 1018
8 1018 917 1024 1131 910 811 916 1017
8 1037 928 1031 1148 925 821 920 1030
8 928 823 931 1041 1031 921 1032 1149
8 1033 926 829 941 1151 1039 939 1057
8 1034 927 819 922 1152 1040 926 1033
8 1153 1038 929 1035 1034 927 820 923
8 1154 1042 930 1036 1035 929 822 924
8 1037 928 821 925 1155 1041 930 1036
8 1039 935 828 939 1156 1047 938 1055
8 1157 1043 932 1042 1038 933 825 929
8 1038 933 826 927 1158 1045 934 1040
8 1040 934 827 926 1159 1046 935 1039
8 930 824 932 1042 1041 931 1044 1160
8 1051 936 1048 1165 1175 1052 937 1053
8 1156 1047 938 1055 1053 937 1054 1178
8 939 828 940 1058 1055 938 1056 1181
8 941 829 942 1060 1057 939 1058 1183
8 942 830 943 1061 1058 940 1059 1184
8 1060 942 832 944 1185 1061 945 1062
8 1082 964 1063 1188 981 889 947 1064
8 1097 981 1064 1190 979 870 948 1066
8 1064 947 1065 1191 948 837 949 1067
8 1066 948 1067 1193 975 869 950 1069
8 1067 949 1068 1194 950 838 951 1070
8 1069 950 1070 1195 952 839 953 1071
8 956 849 959 1072 1073 958 1076 1197
8 1074 960 1076 1197 1008 906 959 1072
8 1073 958 1076 1197 965 868 980 1085
8 1074 960 906 1008 1198 1077 1014 1122
8 1133 1026 1079 1199 1019 918 962 1075
8 1077 963 913 1014 1200 1080 962 1075
8 960 853 963 1077 1076 961 1078 1201
8 980 883 961 1076 1099 994 1078 1201
8 1210 1083 964 1082 1100 999 889 981
8 966 871 980 1085 1086 984 1099 1215
8 967 872 984 1086 1087 985 1103 1216
8 971 876 985 1087 1090 988 1104 1217
8 1088 986 874 969 1218 1105 987 1089
8 972 879 986 1088 1091 991 1105 1218
8 970 875 988 1090 1089 987 1106 1219
8 973 880 991 1091 1092 992 1109 1220
8 1093 993 881 974 1221 1110 992 1092
8 1222 1108 990 1095 1093 993 882 976
8 1223 1101 982 1094 1096 989 877 977
8 1098 983 870 979 1223 1101 982 1094
8 1095 990 1107 1224 978 878 989 1096
8 1098 983 1100 1225 979 870 981 1097
8 984 884 994 1099 1103 995 1111 1227
8 1102 1001 1115 1228 983 891 999 1100
8 1101 1000 892 989 1229 1116 1002 1107
8 1102 1001 891 983 1229 1116 1000 1101
8 985 885 995 1103 1104 996 1112 1230
8 988 886 996 1104 1106 997 1113 1231
8 1105 998 888 987 1232 1114 997 1106
8 991 896 998 1105 1109 1005 1114 1232
8 1108 1003 1117 1233 990 893 1002 1107
8 1108 1003 894 993 1233 1117 1004 1110
8 992 895 1005 1109 1110 1004 1118 1234
8 1120 1013 1127 1244 1007 907 1015 1121
8 1148 1031 1127 1244 1030 920 1013 1120
8 1121 1015 1129 1245 1011 908 1016 1125
8 1126 1019 1075 1196 1246 1128 1014 1122
8 1246 1128 1014 1122 1123 1017 909 1009
8 1124 1018 1131 1247 1010 910 1017 1123
8 1125 1016 1130 1248 1012 911 1018 1124
8 1127 1020 1137 1254 1015 914 1022 1129
8 1031 921 1032 1149 1127 1020 1137 1254
8 1134 1027 918 1019 1257 1140 1021 1128
8 1257 1140 1021 1128 1131 1024 916 1017
8 1129 1022 1141 1258 1016 915 1023 1130
8 1130 1023 1142 1259 1018 917 1024 1131
8 1261 1144 1025 1132 1133 1026 1079 1199
8 1255 1138 1025 1132 1135 1028 1144 1261
8 1133 1026 918 1019 1262 1145 1027 1134
8 1136 1029 1139 1256 1263 1146 1028 1135
8 1037 928 1041 1155 1148 1031 1149 1275
8 1041 931 1044 1160 1149 1032 1150 1276
8 1151 1039 939 1057 1278 1156 1055 1180
8 1152 1040 926 1033 1279 1159 1039 1151
8 1153 1038 927 1034 1280 1158 1040 1152
8 1281 1157 1042 1154 1153 1038 929 1035
8 1036 930 1042 1154 1155 1041 1160 1282
8 1283 1164 1046 1159 1156 1047 935 1039
8 1165 1048 1164 1283 1053 937 1047 1156
8 1157 1043 933 1038 1284 1161 1045 1158
8 1157 1043 1161 1284 1042 932 1044 1160
8 1040 934 1046 1159 1158 1045 1163 1285
8 1166 1049 1167 1292 1051 936 1048 1165
8 1166 1049 936 1051 1293 1168 1050 1172
8 1051 936 1052 1175 1172 1050 1173 1306
8 1174 1051 1165 1290 1308 1175 1053 1177
8 1053 937 1054 1178 1175 1052 1176 1309
8 1278 1156 1055 1180 1177 1053 1178 1311
8 1055 938 1056 1181 1178 1054 1179 1312
8 1057 939 1058 1183 1180 1055 1181 1314
8 1058 940 1059 1184 1181 1056 1182 1315
8 1060 942 1061 1185 1183 1058 1184 1316
8 1208 1081 1187 1321 1082 964 1063 1188
8 1209 1082 1188 1322 1097 981 1064 1190
8 1188 1063 1189 1323 1064 947 1065 1191
8 1190 1064 1191 1325 1066 948 1067 1193
8 1191 1065 1192 1326 1067 949 1068 1194
8 1067 1193 1069 950 1194 1327 1195 1070
8 1250 1133 1199 1330 1126 1019 1075 1196
8 1198 1077 1014 1122 1331 1200 1075 1196
8 1074 960 1077 1198 1197 1076 1201 1332
8 1085 980 1076 1197 1215 1099 1201 1332
8 1199 1079 1203 1333 1075 962 1080 1200
8 1132 1025 1119 1243 1199 1079 1203 1333
8 1201 1078 963 1077 1334 1202 1080 1200
8 1099 994 1078 1201 1227 1111 1202 1334
8 1343 1207 1081 1208 1210 1083 964 1082
8 1214 1084 1186 1319 1343 1207 1081 1208
8 1345 1210 1082 1209 1225 1100 981 1097
8 1346 1211 1083 1210 1228 1115 999 1100
8 1086 984 1099 1215 1216 1103 1227 1352
8 1087 985 1103 1216 1217 1104 1230 1353
8 1090 988 1104 1217 1219 1106 1231 1354
8 1218 1105 987 1089 1355 1232 1106 1219
8 1091 991 1105 1218 1220 1109 1232 1355
8 1092 992 1109 1220 1221 1110 1234 1356
8 1222 1108 1233 1357 1095 990 1107 1224
8 1222 1108 993 1093 1357 1233 1110 1221
8 1223 1101 989 1096 1358 1229 1107 1224
8 1226 1102 983 1098 1358 1229 1101 1223
8 1226 1102 1228 1359 1098 983 1100 1225
8 1103 995 1111 1227 1230 1112 1235 1360
8 1107 1002 1117 1233 1229 1116 1240 1362
8 1102 1001 1116 1229 1228 1115 1240 1362
8 1104 996 1112 1230 1231 1113 1236 1363
8 1364 1237 1114 1232 1231 1113 997 1106
8 1109 1005 1114 1232 1234 1118 1238 1365
8 1110 1004 1118 1234 1233 1117 1241 1366
8 1242 1374 1255 1138 1119 1243 1132 1025
8 1244 1127 1254 1376 1121 1015 1129 1245
8 1148 1031 1149 1275 1244 1127 1254 1376
8 1245 1129 1258 1377 1125 1016 1130 1248
8 1251 1134 1019 1126 1378 1257 1128 1246
8 1378 1257 1128 1246 1247 1131 1017 1123
8 1248 1130 1259 1379 1124 1018 1131 1247
8 1261 1381 1250 1133 1132 1249 1330 1199
8 1255 1380 1252 1135 1132 1249 1381 1261
8 1250 1133 1019 1126 1382 1262 1134 1251
8 1253 1136 1256 1385 1384 1263 1135 1252
8 1254 1137 1265 1387 1129 1022 1141 1258
8 1149 1032 1150 1276 1254 1137 1265 1387
8 1028 1135 1255 1138 1139 1256 1388 1266
8 1136 1029 1147 1264 1256 1139 1267 1389
8 1390 1268 1140 1257 1259 1142 1024 1131
8 1260 1143 1027 1134 1390 1268 1140 1257
8 1258 1141 1269 1391 1130 1023 1142 1259
8 1262 1145 1027 1134 1393 1271 1143 1260
8 1261 1144 1026 1133 1394 1272 1145 1262
8 1135 1028 1144 1261 1263 1146 1272 1394
8 1136 1029 1146 1263 1264 1147 1273 1395
8 1155 1041 1160 1282 1275 1149 1276 1405
8 1276 1150 1044 1160 1406 1277 1162 1286
8 1408 1283 1159 1279 1278 1156 1039 1151
8 1290 1165 1283 1408 1177 1053 1156 1278
8 1152 1040 1159 1279 1280 1158 1285 1409
8 1281 1157 1038 1153 1410 1284 1158 1280
8 1281 1157 1284 1410 1154 1042 1160 1282
8 1159 1046 1164 1283 1285 1163 1289 1412
8 1292 1167 1289 1412 1165 1048 1164 1283
8 1158 1045 1163 1285 1284 1161 1288 1413
8 1284 1161 1288 1413 1160 1044 1162 1286
8 1291 1166 1292 1418 1174 1051 1165 1290
8 1291 1166 1051 1174 1419 1293 1172 1305
8 1294 1169 1296 1421 1166 1049 1167 1292
8 1293 1168 1050 1172 1422 1295 1171 1303
8 1294 1169 1049 1166 1423 1297 1168 1293
8 1422 1295 1171 1303 1301 1170 1302 1435
8 1172 1050 1173 1306 1303 1171 1304 1438
8 1174 1051 1175 1308 1305 1172 1306 1440
8 1175 1052 1176 1309 1306 1173 1307 1441
8 1177 1053 1178 1311 1308 1175 1309 1443
8 1178 1054 1179 1312 1309 1176 1310 1444
8 1180 1055 1181 1314 1311 1178 1312 1446
8 1056 1181 1312 1179 1182 1315 1447 1313
8 1183 1058 1184 1316 1314 1181 1315 1448
8 1319 1186 1084 1214 1451 1317 1213 1350
8 1319 1186 1318 1453 1208 1081 1187 1321
8 1321 1187 1320 1456 1188 1063 1189 1323
8 1344 1208 1321 1457 1209 1082 1188 1322
8 1322 1188 1323 1458 1190 1064 1191 1325
8 1323 1189 1324 1459 1191 1065 1192 1326
8 1191 1325 1193 1067 1326 1460 1327 1194
8 1242 1374 1243 1119 1328 1462 1335 1204
8 1330 1199 1333 1465 1196 1075 1200 1331
8 1132 1249 1330 1199 1243 1375 1465 1333
8 1332 1201 1077 1198 1466 1334 1200 1331
8 1215 1099 1201 1332 1352 1227 1334 1466
8 1119 1243 1333 1203 1204 1335 1470 1338
8 1333 1203 1338 1470 1200 1080 1202 1334
8 1227 1111 1202 1334 1360 1235 1338 1470
8 1328 1462 1335 1204 1205 1336 1471 1339
8 1337 1206 1340 1472 1464 1329 1205 1336
8 1346 1211 1342 1479 1210 1083 1207 1343
8 1346 1211 1115 1228 1479 1342 1239 1361
8 1348 1212 1084 1214 1479 1342 1207 1343
8 1480 1343 1208 1344 1345 1210 1082 1209
8 1351 1214 1319 1454 1480 1343 1208 1344
8 1481 1346 1210 1345 1359 1228 1100 1225
8 1348 1212 1347 1483 1214 1084 1213 1350
8 1216 1103 1227 1352 1353 1230 1360 1488
8 1217 1104 1230 1353 1354 1231 1363 1489
8 1490 1364 1232 1355 1354 1231 1106 1219
8 1220 1109 1232 1355 1356 1234 1365 1491
8 1221 1110 1234 1356 1357 1233 1366 1492
8 1224 1107 1233 1357 1358 1229 1362 1493
8 1226 1102 1229 1358 1359 1228 1362 1493
8 1230 1112 1235 1360 1363 1236 1367 1496
8 1361 1239 1115 1228 1497 1371 1240 1362
8 1366 1241 1372 1498 1233 1117 1240 1362
8 1364 1237 1113 1231 1499 1368 1236 1363
8 1364 1237 1368 1499 1232 1114 1238 1365
8 1234 1118 1238 1365 1366 1241 1369 1500
8 1507 1373 1242 1374 1388 1266 1138 1255
8 1508 1374 1243 1375 1380 1255 1132 1249
8 1376 1254 1387 1509 1245 1129 1258 1377
8 1275 1149 1276 1405 1376 1254 1387 1509
8 1377 1258 1391 1510 1248 1130 1259 1379
8 1511 1390 1257 1378 1379 1259 1131 1247
8 1383 1260 1134 1251 1511 1390 1257 1378
8 1252 1135 1256 1385 1380 1255 1388 1512
8 1261 1381 1513 1394 1133 1250 1382 1262
8 1135 1252 1384 1263 1261 1381 1513 1394
8 1382 1262 1134 1251 1514 1393 1260 1383
8 1253 1136 1263 1384 1386 1264 1395 1516
8 1253 1136 1264 1386 1385 1256 1389 1517
8 1387 1265 1397 1519 1258 1141 1269 1391
8 1276 1150 1277 1406 1387 1265 1397 1519
8 1256 1139 1267 1389 1388 1266 1398 1520
8 1264 1147 1274 1396 1389 1267 1399 1521
8 1392 1270 1143 1260 1522 1400 1268 1390
8 1390 1268 1142 1259 1522 1400 1269 1391
8 1392 1270 1401 1523 1260 1143 1271 1393
8 1272 1394 1524 1402 1145 1262 1393 1271
8 1395 1273 1146 1263 1524 1402 1272 1394
8 1273 1395 1264 1147 1403 1526 1396 1274
8 1405 1276 1160 1282 1534 1406 1286 1411
8 1414 1287 1407 1535 1286 1162 1277 1406
8 1279 1159 1283 1408 1409 1285 1412 1537
8 1418 1292 1412 1537 1290 1165 1283 1408
8 1280 1158 1285 1409 1410 1284 1413 1538
8 1410 1284 1413 1538 1282 1160 1286 1411
8 1285 1163 1289 1412 1413 1288 1417 1540
8 1421 1296 1417 1540 1292 1167 1289 1412
8 1414 1287 1162 1286 1541 1416 1288 1413
8 1420 1294 1421 1545 1291 1166 1292 1418
8 1419 1293 1172 1305 1546 1422 1303 1437
8 1420 1294 1166 1291 1547 1423 1293 1419
8 1294 1169 1297 1423 1421 1296 1425 1548
8 1423 1297 1168 1293 1549 1424 1295 1422
8 1301 1170 1298 1427 1422 1295 1424 1549
8 1432 1300 1428 1554 1301 1170 1298 1427
8 1431 1299 1428 1554 1560 1430 1300 1432
8 1563 1433 1300 1432 1435 1302 1170 1301
8 1546 1422 1303 1437 1434 1301 1435 1565
8 1303 1171 1304 1438 1435 1302 1436 1566
8 1305 1172 1306 1440 1437 1303 1438 1568
8 1306 1173 1307 1441 1438 1304 1439 1569
8 1308 1175 1309 1443 1440 1306 1441 1571
8 1309 1176 1310 1444 1441 1307 1442 1572
8 1311 1178 1312 1446 1443 1309 1444 1574
8 1179 1312 1444 1310 1313 1447 1575 1445
8 1314 1181 1315 1448 1446 1312 1447 1576
8 1350 1213 1349 1486 1451 1317 1449 1579
8 1451 1317 1450 1581 1319 1186 1318 1453
8 1454 1319 1214 1351 1582 1451 1350 1487
8 1453 1318 1452 1584 1321 1187 1320 1456
8 1454 1319 1453 1585 1344 1208 1321 1457
8 1456 1320 1455 1586 1323 1189 1324 1459
8 1457 1321 1456 1587 1322 1188 1323 1458
8 1458 1323 1459 1588 1325 1191 1326 1460
8 1205 1336 1464 1329 1328 1462 1590 1461
8 1507 1373 1461 1590 1374 1242 1328 1462
8 1508 1374 1462 1591 1375 1243 1335 1467
8 1337 1206 1329 1464 1473 1341 1463 1594
8 1375 1243 1335 1467 1465 1333 1470 1596
8 1465 1333 1470 1596 1331 1200 1334 1466
8 1352 1227 1334 1466 1488 1360 1470 1596
8 1591 1462 1336 1468 1467 1335 1471 1597
8 1469 1337 1472 1598 1595 1464 1336 1468
8 1471 1339 1474 1600 1335 1204 1338 1470
8 1600 1474 1367 1496 1470 1338 1235 1360
8 1336 1205 1340 1472 1471 1339 1475 1601
8 1337 1206 1341 1473 1472 1340 1476 1602
8 1495 1370 1478 1609 1361 1239 1342 1479
8 1348 1212 1342 1479 1483 1347 1478 1609
8 1481 1346 1479 1610 1345 1210 1343 1480
8 1481 1346 1228 1359 1610 1479 1361 1494
8 1484 1348 1214 1351 1610 1479 1343 1480
8 1483 1347 1482 1612 1350 1213 1349 1486
8 1484 1348 1483 1613 1351 1214 1350 1487
8 1353 1230 1360 1488 1489 1363 1496 1616
8 1490 1364 1231 1354 1617 1499 1363 1489
8 1490 1364 1499 1617 1355 1232 1365 1491
8 1356 1234 1365 1491 1492 1366 1500 1619
8 1492 1366 1498 1620 1357 1233 1362 1493
8 1494 1361 1228 1359 1621 1497 1362 1493
8 1495 1370 1239 1361 1622 1504 1371 1497
8 1363 1236 1367 1496 1499 1368 1501 1623
8 1497 1371 1240 1362 1624 1505 1372 1498
8 1625 1503 1372 1498 1500 1369 1241 1366
8 1365 1238 1368 1499 1500 1369 1502 1626
8 1520 1398 1506 1633 1388 1266 1373 1507
8 1634 1507 1374 1508 1512 1388 1255 1380
8 1509 1387 1519 1635 1377 1258 1391 1510
8 1405 1276 1406 1534 1509 1387 1519 1635
8 1515 1392 1260 1383 1636 1522 1390 1511
8 1511 1390 1259 1379 1636 1522 1391 1510
8 1385 1256 1389 1517 1512 1388 1520 1637
8 1513 1394 1262 1382 1638 1524 1393 1514
8 1395 1516 1638 1524 1263 1384 1513 1394
8 1515 1392 1523 1639 1383 1260 1393 1514
8 1516 1395 1526 1640 1386 1264 1396 1518
8 1386 1264 1396 1518 1517 1389 1521 1641
8 1519 1397 1527 1643 1391 1269 1400 1522
8 1535 1407 1527 1643 1406 1277 1397 1519
8 1389 1267 1399 1521 1520 1398 1528 1644
8 1645 1529 1399 1521 1525 1404 1274 1396
8 1392 1270 1400 1522 1523 1401 1531 1646
8 1524 1402 1271 1393 1648 1532 1401 1523
8 1403 1526 1648 1532 1273 1395 1524 1402
8 1525 1404 1274 1396 1649 1533 1403 1526
8 1539 1414 1535 1657 1411 1286 1406 1534
8 1542 1415 1536 1658 1414 1287 1407 1535
8 1409 1285 1412 1537 1538 1413 1540 1660
8 1545 1421 1540 1660 1418 1292 1412 1537
8 1539 1414 1286 1411 1661 1541 1413 1538
8 1540 1417 1544 1663 1413 1288 1416 1541
8 1421 1296 1425 1548 1540 1417 1544 1663
8 1542 1415 1287 1414 1664 1543 1416 1541
8 1420 1294 1423 1547 1545 1421 1548 1666
8 1547 1423 1293 1419 1667 1549 1422 1546
8 1434 1301 1427 1553 1546 1422 1549 1667
8 1423 1297 1424 1549 1548 1425 1550 1668
8 1551 1426 1550 1668 1427 1298 1424 1549
8 1551 1426 1298 1427 1671 1552 1428 1554
8 1562 1432 1554 1674 1434 1301 1427 1553
8 1431 1299 1429 1558 1554 1428 1555 1675
8 1431 1299 1430 1560 1558 1429 1557 1680
8 1560 1430 1300 1432 1683 1559 1433 1563
8 1561 1431 1554 1674 1684 1560 1432 1562
8 1685 1563 1432 1562 1565 1435 1301 1434
8 1435 1302 1436 1566 1563 1433 1564 1686
8 1437 1303 1438 1568 1565 1435 1566 1688
8 1438 1304 1439 1569 1566 1436 1567 1689
8 1440 1306 1441 1571 1568 1438 1569 1691
8 1441 1307 1442 1572 1569 1439 1570 1692
8 1443 1309 1444 1574 1571 1441 1572 1694
8 1310 1444 1572 1442 1445 1575 1695 1573
8 1446 1312 1447 1576 1574 1444 1575 1696
8 1486 1349 1485 1614 1579 1449 1577 1699
8 1451 1317 1449 1579 1581 1450 1578 1701
8 1487 1350 1486 1615 1582 1451 1579 1702
8 1581 1450 1580 1704 1453 1318 1452 1584
8 1582 1451 1581 1705 1454 1319 1453 1585
8 1584 1452 1583 1706 1456 1320 1455 1586
8 1585 1453 1584 1707 1457 1321 1456 1587
8 1587 1456 1586 1708 1458 1323 1459 1588
8 1633 1506 1589 1710 1507 1373 1461 1590
8 1464 1329 1461 1590 1594 1463 1589 1710
8 1468 1336 1462 1591 1595 1464 1590 1711
8 1634 1507 1590 1711 1508 1374 1462 1591
8 1473 1341 1463 1594 1603 1477 1593 1716
8 1469 1337 1464 1595 1599 1473 1594 1717
8 1471 1597 1467 1335 1600 1718 1596 1470
8 1718 1600 1496 1616 1596 1470 1360 1488
8 1336 1468 1597 1471 1472 1598 1719 1601
8 1469 1337 1473 1599 1598 1472 1602 1720
8 1722 1604 1501 1623 1600 1474 1367 1496
8 1475 1601 1471 1339 1604 1722 1600 1474
8 1602 1476 1605 1723 1472 1340 1475 1601
8 1476 1602 1724 1606 1341 1473 1603 1477
8 1483 1347 1478 1609 1612 1482 1608 1731
8 1495 1370 1504 1622 1609 1478 1608 1731
8 1618 1495 1609 1732 1494 1361 1479 1610
8 1484 1348 1479 1610 1613 1483 1609 1732
8 1486 1349 1482 1612 1614 1485 1611 1733
8 1613 1483 1612 1734 1487 1350 1486 1615
8 1489 1363 1496 1616 1617 1499 1623 1736
8 1491 1365 1499 1617 1619 1500 1626 1737
8 1618 1495 1361 1494 1738 1622 1497 1621
8 1739 1625 1498 1620 1619 1500 1366 1492
8 1621 1497 1362 1493 1740 1624 1498 1620
8 1742 1631 1504 1622 1624 1505 1371 1497
8 1743 1628 1502 1626 1623 1501 1368 1499
8 1744 1630 1505 1624 1625 1503 1372 1498
8 1745 1629 1503 1625 1626 1502 1369 1500
8 1520 1398 1528 1644 1633 1506 1632 1751
8 1637 1520 1633 1752 1512 1388 1507 1634
8 1635 1519 1643 1753 1510 1391 1522 1636
8 1657 1535 1643 1753 1534 1406 1519 1635
8 1515 1392 1522 1636 1639 1523 1646 1754
8 1517 1389 1521 1641 1637 1520 1644 1755
8 1524 1638 1756 1648 1393 1514 1639 1523
8 1640 1526 1395 1516 1756 1648 1524 1638
8 1642 1525 1396 1518 1757 1649 1526 1640
8 1758 1645 1521 1641 1642 1525 1396 1518
8 1646 1531 1400 1522 1760 1650 1527 1643
8 1535 1407 1536 1658 1643 1527 1650 1760
8 1521 1399 1529 1645 1644 1528 1651 1761
8 1647 1530 1652 1762 1525 1404 1529 1645
8 1401 1523 1648 1532 1531 1646 1763 1655
8 1525 1404 1533 1649 1647 1530 1654 1765
8 1533 1649 1766 1656 1403 1526 1648 1532
8 1662 1542 1658 1774 1539 1414 1535 1657
8 1542 1415 1543 1664 1658 1536 1659 1775
8 1660 1540 1663 1777 1538 1413 1541 1661
8 1545 1421 1548 1666 1660 1540 1663 1777
8 1662 1542 1414 1539 1778 1664 1541 1661
8 1664 1543 1416 1541 1779 1665 1544 1663
8 1548 1425 1550 1668 1663 1544 1665 1779
8 1547 1423 1549 1667 1666 1548 1668 1781
8 1670 1551 1668 1781 1553 1427 1549 1667
8 1551 1426 1552 1671 1668 1550 1669 1782
8 1670 1551 1427 1553 1784 1671 1554 1674
8 1675 1555 1672 1785 1554 1428 1552 1671
8 1678 1556 1673 1789 1558 1429 1555 1675
8 1561 1431 1558 1681 1674 1554 1675 1790
8 1794 1677 1556 1678 1680 1557 1429 1558
8 1560 1430 1559 1683 1680 1557 1679 1797
8 1561 1431 1560 1684 1681 1558 1680 1798
8 1563 1433 1564 1686 1683 1559 1682 1800
8 1684 1560 1432 1562 1801 1683 1563 1685
8 1565 1435 1566 1688 1685 1563 1686 1802
8 1566 1436 1567 1689 1686 1564 1687 1803
8 1568 1438 1569 1691 1688 1566 1689 1805
8 1569 1439 1570 1692 1689 1567 1690 1806
8 1571 1441 1572 1694 1691 1569 1692 1808
8 1442 1572 1692 1570 1573 1695 1809 1693
8 1574 1444 1575 1696 1694 1572 1695 1810
8 1614 1485 1592 1712 1699 1577 1697 1813
8 1579 1449 1577 1699 1701 1578 1698 1815
8 1615 1486 1614 1735 1702 1579 1699 1816
8 1701 1578 1700 1818 1581 1450 1580 1704
8 1582 1451 1579 1702 1705 1581 1701 1819
8 1704 1580 1703 1820 1584 1452 1583 1706
8 1705 1581 1704 1821 1585 1453 1584 1707
8 1707 1584 1706 1822 1587 1456 1586 1708
8 1710 1589 1506 1633 1824 1709 1632 1751
8 1594 1463 1589 1710 1716 1593 1709 1824
8 1752 1633 1710 1825 1634 1507 1590 1711
8 1595 1464 1590 1711 1717 1594 1710 1825
8 1830 1714 1592 1712 1733 1611 1485 1614
8 1603 1477 1593 1716 1725 1607 1715 1834
8 1599 1473 1594 1717 1721 1603 1716 1835
8 1837 1722 1623 1736 1718 1600 1496 1616
8 1719 1601 1722 1837 1597 1471 1600 1718
8 1602 1720 1598 1472 1723 1838 1719 1601
8 1720 1602 1473 1599 1839 1724 1603 1721
8 1723 1605 1726 1840 1601 1475 1604 1722
8 1840 1726 1628 1743 1722 1604 1501 1623
8 1724 1606 1727 1841 1602 1476 1605 1723
8 1725 1607 1728 1842 1603 1477 1606 1724
8 1612 1482 1608 1731 1733 1611 1730 1849
8 1741 1627 1730 1849 1622 1504 1608 1731
8 1613 1483 1609 1732 1734 1612 1731 1850
8 1618 1495 1622 1738 1732 1609 1731 1850
8 1615 1486 1612 1734 1735 1614 1733 1851
8 1852 1743 1626 1737 1736 1623 1499 1617
8 1853 1745 1625 1739 1737 1626 1500 1619
8 1855 1742 1622 1738 1740 1624 1497 1621
8 1856 1744 1624 1740 1739 1625 1498 1620
8 1741 1627 1504 1622 1857 1746 1631 1742
8 1742 1631 1505 1624 1858 1749 1630 1744
8 1859 1747 1629 1745 1743 1628 1502 1626
8 1860 1748 1630 1744 1745 1629 1503 1625
8 1644 1528 1651 1761 1751 1632 1750 1865
8 1637 1520 1644 1755 1752 1633 1751 1866
8 1754 1646 1522 1636 1867 1760 1643 1753
8 1657 1535 1658 1774 1753 1643 1760 1867
8 1639 1523 1646 1754 1756 1648 1763 1868
8 1641 1521 1645 1758 1755 1644 1761 1869
8 1757 1649 1526 1640 1870 1766 1648 1756
8 1642 1525 1649 1757 1759 1647 1765 1871
8 1759 1647 1762 1872 1642 1525 1645 1758
8 1760 1650 1767 1874 1646 1531 1655 1763
8 1658 1536 1659 1775 1760 1650 1767 1874
8 1762 1652 1768 1875 1645 1529 1651 1761
8 1764 1653 1769 1876 1647 1530 1652 1762
8 1656 1766 1877 1773 1532 1648 1763 1655
8 1771 1879 1765 1654 1653 1764 1647 1530
8 1533 1649 1765 1654 1656 1766 1880 1772
8 1662 1542 1664 1778 1774 1658 1775 1887
8 1664 1543 1665 1779 1775 1659 1776 1888
8 1778 1664 1541 1661 1890 1779 1663 1777
8 1666 1548 1668 1781 1777 1663 1779 1890
8 1782 1669 1780 1891 1668 1550 1665 1779
8 1670 1551 1671 1784 1781 1668 1782 1893
8 1671 1552 1672 1785 1782 1669 1783 1894
8 1790 1675 1785 1896 1674 1554 1671 1784
8 1675 1555 1673 1789 1785 1672 1786 1897
8 1792 1676 1788 1903 1678 1556 1673 1789
8 1795 1678 1789 1904 1681 1558 1675 1790
8 1792 1676 1556 1678 1906 1791 1677 1794
8 1680 1557 1679 1797 1794 1677 1793 1909
8 1910 1794 1678 1795 1798 1680 1558 1681
8 1683 1559 1682 1800 1797 1679 1796 1912
8 1684 1560 1683 1801 1798 1680 1797 1913
8 1686 1564 1687 1803 1800 1682 1799 1915
8 1685 1563 1686 1802 1801 1683 1800 1916
8 1688 1566 1689 1805 1802 1686 1803 1917
8 1689 1567 1690 1806 1803 1687 1804 1918
8 1691 1569 1692 1808 1805 1689 1806 1920
8 1692 1570 1693 1809 1806 1690 1807 1921
8 1694 1572 1695 1810 1808 1692 1809 1922
8 1829 1713 1811 1926 1712 1592 1697 1813
8 1813 1697 1812 1928 1699 1577 1698 1815
8 1735 1614 1712 1828 1816 1699 1813 1929
8 1815 1698 1814 1931 1701 1578 1700 1818
8 1702 1579 1699 1816 1819 1701 1815 1932
8 1818 1700 1817 1933 1704 1580 1703 1820
8 1819 1701 1818 1934 1705 1581 1704 1821
8 1821 1704 1820 1935 1707 1584 1706 1822
8 1824 1709 1632 1751 1937 1823 1750 1865
8 1716 1593 1709 1824 1834 1715 1823 1937
8 1825 1710 1633 1752 1938 1824 1751 1866
8 1717 1594 1710 1825 1835 1716 1824 1938
8 1945 1830 1712 1828 1851 1733 1614 1735
8 1830 1714 1831 1946 1712 1592 1713 1829
8 1947 1832 1714 1830 1849 1730 1611 1733
8 1843 1729 1607 1725 1950 1833 1715 1834
8 1721 1603 1716 1835 1836 1725 1834 1951
8 1836 1725 1842 1953 1721 1603 1724 1839
8 1723 1838 1719 1601 1840 1954 1837 1722
8 1954 1840 1743 1852 1837 1722 1623 1736
8 1724 1839 1720 1602 1841 1955 1838 1723
8 1841 1727 1844 1956 1723 1605 1726 1840
8 1956 1844 1747 1859 1840 1726 1628 1743
8 1728 1842 1724 1606 1845 1957 1841 1727
8 1725 1607 1729 1843 1842 1728 1846 1958
8 1741 1627 1746 1857 1849 1730 1848 1965
8 1734 1612 1731 1850 1851 1733 1849 1966
8 1854 1741 1849 1966 1738 1622 1731 1850
8 1967 1859 1745 1853 1852 1743 1626 1737
8 1968 1860 1744 1856 1853 1745 1625 1739
8 1854 1741 1622 1738 1969 1857 1742 1855
8 1855 1742 1624 1740 1970 1858 1744 1856
8 1857 1746 1631 1742 1971 1861 1749 1858
8 1858 1749 1630 1744 1972 1863 1748 1860
8 1859 1747 1862 1973 1745 1629 1748 1860
8 1875 1768 1864 1977 1761 1651 1750 1865
8 1755 1644 1761 1869 1866 1751 1865 1978
8 1867 1760 1874 1979 1754 1646 1763 1868
8 1774 1658 1775 1887 1867 1760 1874 1979
8 1870 1766 1648 1756 1980 1877 1763 1868
8 1872 1762 1875 1981 1758 1645 1761 1869
8 1757 1649 1766 1870 1871 1765 1880 1982
8 1983 1879 1764 1873 1871 1765 1647 1759
8 1873 1764 1876 1984 1759 1647 1762 1872
8 1877 1773 1655 1763 1986 1881 1767 1874
8 1775 1659 1776 1888 1874 1767 1881 1986
8 1876 1769 1882 1987 1762 1652 1768 1875
8 1878 1770 1883 1988 1764 1653 1769 1876
8 1880 1772 1656 1766 1989 1886 1773 1877
8 1878 1770 1653 1764 1990 1884 1771 1879
8 1765 1654 1772 1880 1879 1771 1885 1991
8 1778 1664 1779 1890 1887 1775 1888 1997
8 1998 1889 1776 1888 1891 1780 1665 1779
8 1893 1782 1891 2000 1781 1668 1779 1890
8 1894 1783 1892 2001 1782 1669 1780 1891
8 1784 1671 1785 1896 1893 1782 1894 2003
8 1897 1786 1895 2004 1785 1672 1783 1894
8 1790 1675 1789 1904 1896 1785 1897 2006
8 1901 1787 1898 2007 1789 1673 1786 1897
8 1903 1788 1900 2013 1789 1673 1787 1901
8 1792 1676 1791 1906 1903 1788 1902 2016
8 1907 1792 1903 2017 1795 1678 1789 1904
8 1906 1791 1677 1794 2019 1905 1793 1909
8 1907 1792 1678 1795 2020 1906 1794 1910
8 1797 1679 1796 1912 1909 1793 1908 2022
8 1798 1680 1797 1913 1910 1794 1909 2023
8 1800 1682 1799 1915 1912 1796 1911 2025
8 1801 1683 1800 1916 1913 1797 1912 2026
8 1803 1687 1804 1918 1915 1799 1914 2028
8 1802 1686 1803 1917 1916 1800 1915 2029
8 1805 1689 1806 1920 1917 1803 1918 2030
8 1806 1690 1807 1921 1918 1804 1919 2031
8 1808 1692 1809 1922 1920 1806 1921 2032
8 1939 1826 1924 2037 1829 1713 1811 1926
8 1926 1811 1925 2039 1813 1697 1812 1928
8 1944 1829 1926 2040 1828 1712 1813 1929
8 1928 1812 1927 2042 1815 1698 1814 1931
8 1929 1813 1928 2043 1816 1699 1815 1932
8 1931 1814 1930 2044 1818 1700 1817 1933
8 1932 1815 1931 2045 1819 1701 1818 1934
8 1934 1818 1933 2046 1821 1704 1820 1935
8 2048 1936 1823 1937 1977 1864 1750 1865
8 1950 1833 1715 1834 2048 1936 1823 1937
8 1938 1824 1751 1866 2049 1937 1865 1978
8 1835 1716 1824 1938 1951 1834 1937 2049
8 1939 1826 1713 1829 2053 1942 1831 1946
8 1940 1827 1923 2035 2053 1942 1826 1939
8 1945 1830 1946 2058 1828 1712 1829 1944
8 2059 1947 1830 1945 1966 1849 1733 1851
8 1947 1832 1730 1849 2060 1948 1848 1965
8 1947 1832 1948 2060 1830 1714 1831 1946
8 1959 1847 1729 1843 2063 1949 1833 1950
8 1952 1843 1725 1836 2064 1950 1834 1951
8 1836 1725 1843 1952 1953 1842 1958 2066
8 1953 1842 1957 2067 1839 1724 1841 1955
8 1841 1955 1838 1723 1956 2068 1954 1840
8 2068 1956 1859 1967 1954 1840 1743 1852
8 1956 1844 1960 2069 1859 1747 1862 1973
8 1845 1957 1841 1727 1960 2069 1956 1844
8 1728 1842 1957 1845 1846 1958 2071 1961
8 1962 2072 1959 1847 1846 1958 1843 1729
8 1971 1861 1964 2077 1857 1746 1848 1965
8 1854 1741 1857 1969 1966 1849 1965 2078
8 1967 1859 1973 2079 1853 1745 1860 1968
8 1970 1858 1744 1856 2080 1972 1860 1968
8 1969 1857 1742 1855 2081 1971 1858 1970
8 1971 1861 1749 1858 2082 1974 1863 1972
8 1973 1862 1975 2083 1860 1748 1863 1972
8 1987 1882 1976 2086 1875 1768 1864 1977
8 1981 1875 1977 2087 1869 1761 1865 1978
8 1980 1877 1763 1868 2088 1986 1874 1979
8 1887 1775 1888 1997 1979 1874 1986 2088
8 1880 1982 2089 1989 1766 1870 1980 1877
8 1984 1876 1987 2090 1872 1762 1875 1981
8 1765 1871 1983 1879 1880 1982 2091 1991
8 1985 1878 1764 1873 2092 1990 1879 1983
8 1985 1878 1988 2093 1873 1764 1876 1984
8 2094 1992 1881 1986 1998 1889 1776 1888
8 1986 1881 1992 2094 1877 1773 1886 1989
8 1988 1883 1993 2095 1876 1769 1882 1987
8 1878 1770 1884 1990 1988 1883 1994 2096
8 1991 1885 1772 1880 2097 1996 1886 1989
8 1879 1771 1885 1991 1990 1884 1995 2098
8 2103 1998 1888 1997 2000 1891 1779 1890
8 2104 1999 1889 1998 2001 1892 1780 1891
8 2003 1894 2001 2106 1893 1782 1891 2000
8 2004 1895 2002 2107 1894 1783 1892 2001
8 2006 1897 2004 2109 1896 1785 1894 2003
8 2007 1898 2005 2110 1897 1786 1895 2004
8 2014 1901 2007 2112 1904 1789 1897 2006
8 2011 1899 2008 2113 1901 1787 1898 2007
8 2119 2010 1899 2011 2013 1900 1787 1901
8 2016 1902 2012 2122 1903 1788 1900 2013
8 2017 1903 2013 2123 1904 1789 1901 2014
8 1906 1791 1905 2019 2016 1902 2015 2125
8 1907 1792 1906 2020 2017 1903 2016 2126
8 1909 1793 1908 2022 2019 1905 2018 2128
8 2020 1906 1794 1910 2129 2019 1909 2023
8 1912 1796 1911 2025 2022 1908 2021 2131
8 1913 1797 1912 2026 2023 1909 2022 2132
8 1915 1799 1914 2028 2025 1911 2024 2134
8 1916 1800 1915 2029 2026 1912 2025 2135
8 1918 1804 1919 2031 2028 1914 2027 2136
8 1917 1803 1918 2030 2029 1915 2028 2137
8 1920 1806 1921 2032 2030 1918 2031 2138
8 1940 1827 1941 2054 2035 1923 2033 2140
8 2035 1923 2034 2143 1939 1826 1924 2037
8 2037 1924 2036 2146 1926 1811 1925 2039
8 2051 1939 2037 2147 1944 1829 1926 2040
8 2039 1925 2038 2149 1928 1812 1927 2042
8 2040 1926 2039 2150 1929 1813 1928 2043
8 2042 1927 2041 2151 1931 1814 1930 2044
8 2043 1928 2042 2152 1932 1815 1931 2045
8 2045 1931 2044 2153 1934 1818 1933 2046
8 2155 2047 1936 2048 2086 1976 1864 1977
8 2063 1949 1833 1950 2155 2047 1936 2048
8 2156 2048 1937 2049 2087 1977 1865 1978
8 2064 1950 1834 1951 2156 2048 1937 2049
8 2051 1939 1829 1944 2160 2053 1946 2058
8 2052 1940 2035 2144 2160 2053 1939 2051
8 2053 1942 1831 1946 2163 2057 1948 2060
8 2055 1943 1827 1940 2163 2057 1942 2053
8 2055 1943 2056 2164 1940 1827 1941 2054
8 2059 1947 1849 1966 2167 2060 1965 2078
8 2059 1947 2060 2167 1945 1830 1946 2058
8 2077 1964 2061 2168 1965 1848 1948 2060
8 2070 1963 1847 1959 2170 2062 1949 2063
8 2065 1959 1843 1952 2171 2063 1950 2064
8 2173 2072 1958 2066 2065 1959 1843 1952
8 1953 1842 1958 2066 2067 1957 2071 2174
8 2068 1956 2069 2175 1967 1859 1973 2079
8 2067 1957 2069 2175 1955 1841 1956 2068
8 1845 1957 2069 1960 1961 2071 2176 2073
8 2069 1960 2073 2176 1973 1862 1975 2083
8 2070 1963 2075 2177 1959 1847 1962 2072
8 1846 1958 2071 1961 1962 2072 2178 2074
8 2077 1964 1861 1971 2182 2076 1974 2082
8 2081 1971 2077 2183 1969 1857 1965 2078
8 2079 1973 2083 2184 1968 1860 1972 2080
8 2081 1971 1858 1970 2185 2082 1972 2080
8 2083 1975 2084 2186 1972 1863 1974 2082
8 2086 1976 1882 1987 2189 2085 1993 2095
8 2090 1987 2086 2190 1981 1875 1977 2087
8 2191 2094 1986 2088 2103 1998 1888 1997
8 2088 1986 2094 2191 1980 1877 1989 2089
8 1991 2091 2192 2097 1880 1982 2089 1989
8 2093 1988 2095 2193 1984 1876 1987 2090
8 1879 1983 2092 1990 1991 2091 2194 2098
8 1985 1878 1990 2092 2093 1988 2096 2195
8 2097 1996 1886 1989 2196 2099 1992 2094
8 2196 2099 1992 2094 2104 1999 1889 1998
8 1994 2096 1988 1883 2100 2197 2095 1993
8 2096 1994 1884 1990 2198 2101 1995 2098
8 1995 2098 2199 2102 1885 1991 2097 1996
8 2203 2104 1998 2103 2106 2001 1891 2000
8 2107 2002 2105 2204 2001 1892 1999 2104
8 2109 2004 2107 2206 2003 1894 2001 2106
8 2110 2005 2108 2207 2004 1895 2002 2107
8 2112 2007 2110 2209 2006 1897 2004 2109
8 2113 2008 2111 2210 2007 1898 2005 2110
8 2120 2011 2113 2212 2014 1901 2007 2112
8 2117 2009 2114 2213 2011 1899 2008 2113
8 2219 2116 2009 2117 2119 2010 1899 2011
8 2222 2118 2010 2119 2122 2012 1900 2013
8 2223 2119 2011 2120 2123 2013 1901 2014
8 2016 1902 2015 2125 2122 2012 2121 2225
8 2126 2016 2122 2226 2017 1903 2013 2123
8 2019 1905 2018 2128 2125 2015 2124 2228
8 2020 1906 2019 2129 2126 2016 2125 2229
8 2022 1908 2021 2131 2128 2018 2127 2231
8 2023 1909 2022 2132 2129 2019 2128 2232
8 2025 1911 2024 2134 2131 2021 2130 2234
8 2026 1912 2025 2135 2132 2022 2131 2235
8 1914 2028 2134 2024 2027 2136 2236 2133
8 2029 1915 2028 2137 2135 2025 2134 2237
8 2030 1918 2031 2138 2137 2028 2136 2238
8 2157 2050 2139 2240 2054 1941 2033 2140
8 2052 1940 2054 2161 2144 2035 2140 2242
8 2140 2033 2141 2243 2035 1923 2034 2143
8 2143 2034 2142 2246 2037 1924 2036 2146
8 2144 2035 2143 2247 2051 1939 2037 2147
8 2146 2036 2145 2249 2039 1925 2038 2149
8 2147 2037 2146 2250 2040 1926 2039 2150
8 2149 2038 2148 2251 2042 1927 2041 2151
8 2150 2039 2149 2252 2043 1928 2042 2152
8 2152 2042 2151 2253 2045 1931 2044 2153
8 2255 2154 2047 2155 2189 2085 1976 2086
8 2170 2062 1949 2063 2255 2154 2047 2155
8 2256 2155 2048 2156 2190 2086 1977 2087
8 2171 2063 1950 2064 2256 2155 2048 2156
8 2258 2159 2050 2157 2164 2056 1941 2054
8 2160 2053 1946 2058 2262 2163 2060 2167
8 2162 2055 1940 2052 2262 2163 2053 2160
8 2162 2055 2164 2263 2052 1940 2054 2161
8 2163 2057 1948 2060 2264 2165 2061 2168
8 2055 1943 2057 2163 2164 2056 2165 2264
8 2182 2076 2166 2268 2077 1964 2061 2168
8 2183 2077 2168 2269 2078 1965 2060 2167
8 2070 1963 2062 2170 2177 2075 2169 2271
8 2172 2070 1959 2065 2272 2170 2063 2171
8 2172 2070 2177 2273 2065 1959 2072 2173
8 2066 1958 2072 2173 2174 2071 2178 2274
8 2067 1957 2071 2174 2175 2069 2176 2275
8 2175 2069 2176 2275 2079 1973 2083 2184
8 2071 1961 2074 2178 2176 2073 2179 2276
8 2176 2073 2179 2276 2083 1975 2084 2186
8 2072 1962 2075 2177 2178 2074 2180 2277
8 2182 2076 1974 2082 2280 2181 2084 2186
8 2183 2077 1971 2081 2281 2182 2082 2185
8 2184 2083 2186 2282 2080 1972 2082 2185
8 2189 2085 1993 2095 2285 2188 2100 2197
8 2190 2086 1987 2090 2286 2189 2095 2193
8 2192 2097 1989 2089 2287 2196 2094 2191
8 2287 2196 2094 2191 2203 2104 1998 2103
8 2194 2098 1991 2091 2288 2199 2097 2192
8 2195 2096 2197 2289 2093 1988 2095 2193
8 2096 2195 2290 2198 1990 2092 2194 2098
8 2097 1996 2099 2196 2199 2102 2200 2291
8 2196 2099 1999 2104 2291 2200 2105 2204
8 2100 2197 2292 2201 1994 2096 2198 2101
8 1995 2098 2198 2101 2102 2199 2293 2202
8 2206 2107 2204 2296 2106 2001 2104 2203
8 2207 2108 2205 2297 2107 2002 2105 2204
8 2209 2110 2207 2299 2109 2004 2107 2206
8 2210 2111 2208 2300 2110 2005 2108 2207
8 2212 2113 2210 2302 2112 2007 2110 2209
8 2213 2114 2211 2303 2113 2008 2111 2210
8 2220 2117 2213 2305 2120 2011 2113 2212
8 2216 2115 2214 2306 2117 2009 2114 2213
8 2216 2115 2009 2117 2311 2217 2116 2219
8 2219 2116 2010 2119 2314 2218 2118 2222
8 2315 2219 2117 2220 2223 2119 2011 2120
8 2122 2012 2121 2225 2222 2118 2221 2317
8 2318 2222 2119 2223 2226 2122 2013 2123
8 2125 2015 2124 2228 2225 2121 2224 2320
8 2126 2016 2125 2229 2226 2122 2225 2321
8 2128 2018 2127 2231 2228 2124 2227 2323
8 2129 2019 2128 2232 2229 2125 2228 2324
8 2131 2021 2130 2234 2231 2127 2230 2326
8 2132 2022 2131 2235 2232 2128 2231 2327
8 2134 2024 2133 2236 2234 2130 2233 2328
8 2135 2025 2134 2237 2235 2131 2234 2329
8 2137 2028 2136 2238 2237 2134 2236 2330
8 2157 2050 2158 2259 2240 2139 2239 2332
8 2257 2157 2240 2334 2161 2054 2140 2242
8 2240 2139 2241 2335 2140 2033 2141 2243
8 2242 2140 2243 2337 2144 2035 2143 2247
8 2243 2141 2244 2338 2143 2034 2142 2246
8 2246 2142 2245 2341 2146 2036 2145 2249
8 2247 2143 2246 2342 2147 2037 2146 2250
8 2249 2145 2248 2343 2149 2038 2148 2251
8 2250 2146 2249 2344 2150 2039 2149 2252
8 2252 2149 2251 2345 2152 2042 2151 2253
8 2169 2271 2347 2254 2062 2170 2255 2154
8 2189 2085 2188 2285 2255 2154 2254 2347
8 2348 2255 2155 2256 2286 2189 2086 2190
8 2272 2170 2063 2171 2348 2255 2155 2256
8 2349 2258 2157 2257 2263 2164 2054 2161
8 2258 2159 2261 2351 2157 2050 2158 2259
8 2258 2159 2056 2164 2351 2261 2165 2264
8 2262 2163 2060 2167 2355 2264 2168 2269
8 2162 2055 2163 2262 2263 2164 2264 2355
8 2357 2266 2165 2264 2268 2166 2061 2168
8 2268 2166 2076 2182 2361 2267 2181 2280
8 2281 2182 2268 2362 2183 2077 2168 2269
8 2271 2169 2270 2364 2177 2075 2180 2277
8 2172 2070 2170 2272 2273 2177 2271 2365
8 2072 2173 2274 2178 2177 2273 2366 2277
8 2071 2174 2275 2176 2178 2274 2367 2276
8 2275 2176 2276 2367 2184 2083 2186 2282
8 2283 2187 2084 2186 2368 2278 2179 2276
8 2178 2074 2180 2277 2276 2179 2278 2368
8 2283 2187 2279 2370 2186 2084 2181 2280
8 2281 2182 2082 2185 2371 2280 2186 2282
8 2188 2285 2374 2284 2100 2197 2292 2201
8 2286 2189 2095 2193 2375 2285 2197 2289
8 2192 2097 2196 2287 2288 2199 2291 2376
8 2287 2196 2104 2203 2376 2291 2204 2296
8 2194 2098 2199 2288 2290 2198 2293 2377
8 2289 2197 2096 2195 2378 2292 2198 2290
8 2291 2200 2105 2204 2379 2294 2205 2297
8 2199 2102 2200 2291 2293 2202 2294 2379
8 2198 2101 2202 2293 2292 2201 2295 2380
8 2299 2207 2297 2383 2206 2107 2204 2296
8 2300 2208 2298 2384 2207 2108 2205 2297
8 2302 2210 2300 2386 2209 2110 2207 2299
8 2303 2211 2301 2387 2210 2111 2208 2300
8 2305 2213 2303 2389 2212 2113 2210 2302
8 2306 2214 2304 2390 2213 2114 2211 2303
8 2310 2216 2306 2392 2220 2117 2213 2305
8 2308 2215 2307 2393 2216 2115 2214 2306
8 2308 2215 2115 2216 2396 2309 2217 2311
8 2310 2216 2117 2220 2398 2311 2219 2315
8 2311 2217 2116 2219 2399 2312 2218 2314
8 2314 2218 2118 2222 2402 2313 2221 2317
8 2315 2219 2119 2223 2403 2314 2222 2318
8 2225 2121 2224 2320 2317 2221 2316 2405
8 2226 2122 2225 2321 2318 2222 2317 2406
8 2228 2124 2227 2323 2320 2224 2319 2408
8 2229 2125 2228 2324 2321 2225 2320 2409
8 2231 2127 2230 2326 2323 2227 2322 2411
8 2232 2128 2231 2327 2324 2228 2323 2412
8 2234 2130 2233 2328 2326 2230 2325 2413
8 2235 2131 2234 2329 2327 2231 2326 2414
8 2237 2134 2236 2330 2329 2234 2328 2415
8 2259 2158 2260 2352 2332 2239 2331 2417
8 2257 2157 2259 2350 2334 2240 2332 2419
8 2240 2139 2239 2332 2335 2241 2333 2420
8 2334 2240 2335 2422 2242 2140 2243 2337
8 2335 2241 2336 2423 2243 2141 2244 2338
8 2337 2243 2338 2425 2247 2143 2246 2342
8 2338 2244 2339 2426 2246 2142 2245 2341
8 2341 2245 2340 2428 2249 2145 2248 2343
8 2342 2246 2341 2429 2250 2146 2249 2344
8 2344 2249 2343 2430 2252 2149 2251 2345
8 2188 2285 2347 2254 2284 2374 2432 2346
8 2347 2254 2346 2432 2271 2169 2270 2364
8 2365 2271 2170 2272 2433 2347 2255 2348
8 2286 2189 2285 2375 2348 2255 2347 2433
8 2349 2258 2351 2435 2257 2157 2259 2350
8 2349 2258 2164 2263 2435 2351 2264 2355
8 2259 2158 2261 2351 2352 2260 2354 2437
8 2356 2265 2354 2437 2264 2165 2261 2351
8 2441 2357 2264 2355 2362 2268 2168 2269
8 2356 2265 2165 2264 2442 2358 2266 2357
8 2443 2359 2266 2357 2361 2267 2166 2268
8 2370 2279 2360 2446 2280 2181 2267 2361
8 2362 2268 2182 2281 2447 2361 2280 2371
8 2180 2277 2368 2278 2270 2364 2449 2363
8 2271 2365 2273 2177 2364 2450 2366 2277
8 2372 2283 2186 2282 2451 2368 2276 2367
8 2178 2274 2367 2276 2277 2366 2451 2368
8 2283 2187 2278 2368 2370 2279 2369 2452
8 2372 2283 2370 2453 2282 2186 2280 2371
8 2284 2374 2455 2373 2201 2292 2380 2295
8 2375 2285 2197 2289 2456 2374 2292 2378
8 2376 2291 2204 2296 2457 2379 2297 2383
8 2288 2199 2291 2376 2377 2293 2379 2457
8 2198 2290 2378 2292 2293 2377 2458 2380
8 2293 2202 2294 2379 2380 2295 2381 2459
8 2384 2298 2381 2459 2297 2205 2294 2379
8 2386 2300 2384 2463 2299 2207 2297 2383
8 2387 2301 2385 2464 2300 2208 2298 2384
8 2389 2303 2387 2466 2302 2210 2300 2386
8 2390 2304 2388 2467 2303 2211 2301 2387
8 2392 2306 2390 2469 2305 2213 2303 2389
8 2393 2307 2391 2470 2306 2214 2304 2390
8 2395 2308 2393 2472 2310 2216 2306 2392
8 2308 2215 2309 2396 2393 2307 2394 2473
8 2395 2308 2216 2310 2475 2396 2311 2398
8 2396 2309 2217 2311 2476 2397 2312 2399
8 2398 2311 2219 2315 2478 2399 2314 2403
8 2399 2312 2218 2314 2479 2400 2313 2402
8 2317 2221 2316 2405 2402 2313 2401 2482
8 2403 2314 2222 2318 2483 2402 2317 2406
8 2320 2224 2319 2408 2405 2316 2404 2485
8 2321 2225 2320 2409 2406 2317 2405 2486
8 2323 2227 2322 2411 2408 2319 2407 2488
8 2324 2228 2323 2412 2409 2320 2408 2489
8 2326 2230 2325 2413 2411 2322 2410 2490
8 2327 2231 2326 2414 2412 2323 2411 2491
8 2329 2234 2328 2415 2414 2326 2413 2492
8 2417 2331 2260 2352 2494 2416 2353 2438
8 2350 2259 2352 2436 2419 2332 2417 2496
8 2332 2239 2331 2417 2420 2333 2418 2497
8 2334 2240 2332 2419 2422 2335 2420 2499
8 2420 2333 2421 2500 2335 2241 2336 2423
8 2422 2335 2423 2502 2337 2243 2338 2425
8 2423 2336 2424 2503 2338 2244 2339 2426
8 2425 2338 2426 2505 2342 2246 2341 2429
8 2426 2339 2427 2506 2341 2245 2340 2428
8 2429 2341 2428 2507 2344 2249 2343 2430
8 2432 2346 2284 2374 2509 2431 2373 2455
8 2432 2346 2431 2509 2364 2270 2363 2449
8 2375 2285 2374 2456 2433 2347 2432 2510
8 2347 2433 2365 2271 2432 2510 2450 2364
8 2350 2259 2351 2435 2436 2352 2437 2514
8 2440 2356 2437 2514 2355 2264 2351 2435
8 2352 2260 2354 2437 2438 2353 2439 2516
8 2356 2265 2358 2442 2437 2354 2439 2516
8 2440 2356 2264 2355 2518 2442 2357 2441
8 2519 2443 2357 2441 2447 2361 2268 2362
8 2443 2359 2444 2520 2357 2266 2358 2442
8 2443 2359 2267 2361 2520 2444 2360 2446
8 2446 2360 2279 2370 2523 2445 2369 2452
8 2453 2370 2446 2524 2371 2280 2361 2447
8 2449 2363 2448 2525 2368 2278 2369 2452
8 2366 2277 2364 2450 2451 2368 2449 2526
8 2372 2283 2368 2451 2453 2370 2452 2527
8 2455 2373 2295 2380 2529 2454 2382 2460
8 2456 2374 2292 2378 2530 2455 2380 2458
8 2377 2293 2379 2457 2458 2380 2459 2531
8 2463 2384 2459 2531 2383 2297 2379 2457
8 2533 2461 2382 2460 2459 2381 2295 2380
8 2464 2385 2461 2533 2384 2298 2381 2459
8 2466 2387 2464 2537 2386 2300 2384 2463
8 2467 2388 2465 2538 2387 2301 2385 2464
8 2469 2390 2467 2540 2389 2303 2387 2466
8 2470 2391 2468 2541 2390 2304 2388 2467
8 2472 2393 2470 2543 2392 2306 2390 2469
8 2393 2307 2394 2473 2470 2391 2471 2544
8 2395 2308 2396 2475 2472 2393 2473 2546
8 2396 2309 2397 2476 2473 2394 2474 2547
8 2475 2396 2311 2398 2549 2476 2399 2478
8 2476 2397 2312 2399 2550 2477 2400 2479
8 2478 2399 2314 2403 2552 2479 2402 2483
8 2479 2400 2313 2402 2553 2480 2401 2482
8 2405 2316 2404 2485 2482 2401 2481 2556
8 2406 2317 2405 2486 2483 2402 2482 2557
8 2408 2319 2407 2488 2485 2404 2484 2559
8 2409 2320 2408 2489 2486 2405 2485 2560
8 2411 2322 2410 2490 2488 2407 2487 2561
8 2412 2323 2411 2491 2489 2408 2488 2562
8 2414 2326 2413 2492 2491 2411 2490 2563
8 2513 2434 2493 2565 2438 2353 2416 2494
8 2496 2417 2352 2436 2567 2494 2438 2515
8 2494 2416 2495 2568 2417 2331 2418 2497
8 2419 2332 2417 2496 2499 2420 2497 2570
8 2497 2418 2498 2571 2420 2333 2421 2500
8 2499 2420 2500 2573 2422 2335 2423 2502
8 2500 2421 2501 2574 2423 2336 2424 2503
8 2502 2423 2503 2576 2425 2338 2426 2505
8 2503 2424 2504 2577 2426 2339 2427 2506
8 2505 2426 2506 2578 2429 2341 2428 2507
8 2509 2431 2373 2455 2580 2508 2454 2529
8 2509 2431 2508 2580 2449 2363 2448 2525
8 2432 2510 2581 2509 2374 2456 2530 2455
8 2432 2510 2450 2364 2509 2581 2526 2449
8 2583 2511 2434 2513 2516 2439 2353 2438
8 2436 2352 2437 2514 2515 2438 2516 2588
8 2440 2356 2442 2518 2514 2437 2516 2588
8 2442 2358 2444 2520 2516 2439 2517 2589
8 2519 2443 2520 2591 2441 2357 2442 2518
8 2519 2443 2361 2447 2591 2520 2446 2524
8 2446 2360 2445 2523 2520 2444 2521 2592
8 2525 2448 2522 2593 2452 2369 2445 2523
8 2524 2446 2370 2453 2594 2523 2452 2527
8 2526 2449 2525 2595 2451 2368 2452 2527
8 2534 2462 2528 2597 2460 2382 2454 2529
8 2530 2455 2380 2458 2598 2529 2460 2532
8 2599 2533 2460 2532 2531 2459 2380 2458
8 2537 2464 2533 2599 2463 2384 2459 2531
8 2534 2462 2382 2460 2601 2535 2461 2533
8 2538 2465 2535 2601 2464 2385 2461 2533
8 2540 2467 2538 2604 2466 2387 2464 2537
8 2541 2468 2539 2605 2467 2388 2465 2538
8 2543 2470 2541 2607 2469 2390 2467 2540
8 2470 2391 2471 2544 2541 2468 2542 2608
8 2472 2393 2473 2546 2543 2470 2544 2610
8 2473 2394 2474 2547 2544 2471 2545 2611
8 2475 2396 2476 2549 2546 2473 2547 2613
8 2476 2397 2477 2550 2547 2474 2548 2614
8 2549 2476 2399 2478 2616 2550 2479 2552
8 2479 2400 2480 2553 2550 2477 2551 2617
8 2552 2479 2402 2483 2619 2553 2482 2557
8 2482 2401 2481 2556 2553 2480 2554 2620
8 2485 2404 2484 2559 2556 2481 2555 2623
8 2486 2405 2485 2560 2557 2482 2556 2624
8 2488 2407 2487 2561 2559 2484 2558 2625
8 2489 2408 2488 2562 2560 2485 2559 2626
8 2491 2411 2490 2563 2562 2488 2561 2627
8 2513 2434 2512 2585 2565 2493 2564 2630
8 2586 2513 2565 2632 2515 2438 2494 2567
8 2565 2493 2566 2633 2494 2416 2495 2568
8 2567 2494 2568 2635 2496 2417 2497 2570
8 2568 2495 2569 2636 2497 2418 2498 2571
8 2570 2497 2571 2638 2499 2420 2500 2573
8 2571 2498 2572 2639 2500 2421 2501 2574
8 2573 2500 2574 2641 2502 2423 2503 2576
8 2574 2501 2575 2642 2503 2424 2504 2577
8 2576 2503 2577 2643 2505 2426 2506 2578
8 2597 2528 2579 2645 2529 2454 2508 2580
8 2580 2508 2579 2645 2525 2448 2522 2593
8 2581 2509 2455 2530 2646 2580 2529 2598
8 2581 2509 2580 2646 2526 2449 2525 2595
8 2583 2511 2582 2648 2513 2434 2512 2585
8 2583 2511 2439 2516 2648 2582 2517 2589
8 2649 2583 2513 2586 2588 2516 2438 2515
8 2589 2517 2444 2520 2653 2587 2521 2592
8 2518 2442 2520 2591 2588 2516 2589 2654
8 2593 2522 2590 2655 2523 2445 2521 2592
8 2524 2446 2523 2594 2591 2520 2592 2656
8 2595 2525 2593 2657 2527 2452 2523 2594
8 2602 2536 2596 2659 2534 2462 2528 2597
8 2600 2534 2597 2660 2532 2460 2529 2598
8 2600 2534 2460 2532 2661 2601 2533 2599
8 2604 2538 2601 2661 2537 2464 2533 2599
8 2602 2536 2462 2534 2663 2603 2535 2601
8 2601 2535 2465 2538 2663 2603 2539 2605
8 2607 2541 2605 2665 2540 2467 2538 2604
8 2608 2542 2606 2666 2541 2468 2539 2605
8 2543 2470 2544 2610 2607 2541 2608 2668
8 2544 2471 2545 2611 2608 2542 2609 2669
8 2546 2473 2547 2613 2610 2544 2611 2671
8 2547 2474 2548 2614 2611 2545 2612 2672
8 2549 2476 2550 2616 2613 2547 2614 2674
8 2550 2477 2551 2617 2614 2548 2615 2675
8 2552 2479 2553 2619 2616 2550 2617 2677
8 2553 2480 2554 2620 2617 2551 2618 2678
8 2557 2482 2556 2624 2619 2553 2620 2680
8 2556 2481 2555 2623 2620 2554 2621 2681
8 2559 2484 2558 2625 2623 2555 2622 2683
8 2560 2485 2559 2626 2624 2556 2623 2684
8 2562 2488 2561 2627 2626 2559 2625 2685
8 2690 2629 2564 2630 2650 2584 2512 2585
8 2586 2513 2585 2651 2632 2565 2630 2691
8 2630 2564 2631 2692 2565 2493 2566 2633
8 2632 2565 2633 2694 2567 2494 2568 2635
8 2633 2566 2634 2695 2568 2495 2569 2636
8 2635 2568 2636 2697 2570 2497 2571 2638
8 2636 2569 2637 2698 2571 2498 2572 2639
8 2638 2571 2639 2700 2573 2500 2574 2641
8 2639 2572 2640 2701 2574 2501 2575 2642
8 2641 2574 2642 2702 2576 2503 2577 2643
8 2597 2528 2596 2659 2645 2579 2644 2704
8 2645 2579 2644 2704 2593 2522 2590 2655
8 2660 2597 2645 2705 2598 2529 2580 2646
8 2646 2580 2645 2705 2595 2525 2593 2657
8 2650 2584 2512 2585 2707 2647 2582 2648
8 2648 2582 2517 2589 2707 2647 2587 2653
8 2649 2583 2648 2708 2586 2513 2585 2651
8 2649 2583 2516 2588 2708 2648 2589 2654
8 2655 2590 2652 2710 2592 2521 2587 2653
8 2654 2589 2520 2591 2711 2653 2592 2656
8 2657 2593 2655 2712 2594 2523 2592 2656
8 2602 2536 2603 2663 2659 2596 2658 2714
8 2662 2602 2659 2715 2600 2534 2597 2660
8 2662 2602 2534 2600 2717 2663 2601 2661
8 2661 2601 2538 2604 2717 2663 2605 2665
8 2666 2606 2664 2718 2605 2539 2603 2663
8 2668 2608 2666 2720 2607 2541 2605 2665
8 2608 2542 2609 2669 2666 2606 2667 2721
8 2610 2544 2611 2671 2668 2608 2669 2723
8 2611 2545 2612 2672 2669 2609 2670 2724
8 2613 2547 2614 2674 2671 2611 2672 2726
8 2614 2548 2615 2675 2672 2612 2673 2727
8 2616 2550 2617 2677 2674 2614 2675 2729
8 2617 2551 2618 2678 2675 2615 2676 2730
8 2619 2553 2620 2680 2677 2617 2678 2732
8 2620 2554 2621 2681 2678 2618 2679 2733
8 2624 2556 2623 2684 2680 2620 2681 2735
8 2681 2621 2555 2623 2736 2682 2622 2683
8 2626 2559 2625 2685 2684 2623 2683 2737
8 2688 2628 2584 2650 2740 2686 2647 2707
8 2688 2628 2687 2742 2650 2584 2629 2690
8 2690 2629 2689 2745 2630 2564 2631 2692
8 2746 2690 2630 2691 2709 2650 2585 2651
8 2691 2630 2692 2747 2632 2565 2633 2694
8 2692 2631 2693 2748 2633 2566 2634 2695
8 2694 2633 2695 2750 2635 2568 2636 2697
8 2695 2634 2696 2751 2636 2569 2637 2698
8 2697 2636 2698 2753 2638 2571 2639 2700
8 2698 2637 2699 2754 2639 2572 2640 2701
8 2700 2639 2701 2755 2641 2574 2642 2702
8 2659 2596 2658 2714 2704 2644 2703 2757
8 2704 2644 2703 2757 2655 2590 2652 2710
8 2660 2597 2659 2715 2705 2645 2704 2758
8 2705 2645 2704 2758 2657 2593 2655 2712
8 2759 2706 2647 2707 2710 2652 2587 2653
8 2709 2650 2585 2651 2760 2707 2648 2708
8 2708 2648 2589 2654 2760 2707 2653 2711
8 2712 2655 2710 2761 2656 2592 2653 2711
8 2763 2713 2658 2714 2718 2664 2603 2663
8 2662 2602 2663 2717 2715 2659 2714 2764
8 2720 2666 2718 2767 2665 2605 2663 2717
8 2768 2719 2664 2718 2721 2667 2606 2666
8 2668 2608 2669 2723 2720 2666 2721 2770
8 2669 2609 2670 2724 2721 2667 2722 2771
8 2671 2611 2672 2726 2723 2669 2724 2773
8 2672 2612 2673 2727 2724 2670 2725 2774
8 2674 2614 2675 2729 2726 2672 2727 2776
8 2675 2615 2676 2730 2727 2673 2728 2777
8 2677 2617 2678 2732 2729 2675 2730 2779
8 2678 2618 2679 2733 2730 2676 2731 2780
8 2680 2620 2681 2735 2732 2678 2733 2782
8 2733 2679 2621 2681 2783 2734 2682 2736
8 2735 2681 2623 2684 2784 2736 2683 2737
8 2740 2686 2647 2707 2787 2738 2706 2759
8 2688 2628 2686 2740 2742 2687 2739 2789
8 2743 2688 2650 2709 2790 2740 2707 2760
8 2742 2687 2741 2792 2690 2629 2689 2745
8 2743 2688 2742 2793 2709 2650 2690 2746
8 2745 2689 2744 2795 2692 2631 2693 2748
8 2746 2690 2745 2796 2691 2630 2692 2747
8 2747 2692 2748 2797 2694 2633 2695 2750
8 2748 2693 2749 2798 2695 2634 2696 2751
8 2750 2695 2751 2800 2697 2636 2698 2753
8 2751 2696 2752 2801 2698 2637 2699 2754
8 2753 2698 2754 2802 2700 2639 2701 2755
8 2763 2713 2756 2804 2714 2658 2703 2757
8 2759 2706 2652 2710 2804 2756 2703 2757
8 2715 2659 2714 2764 2758 2704 2757 2805
8 2758 2704 2757 2805 2712 2655 2710 2761
8 2806 2759 2707 2760 2761 2710 2653 2711
8 2765 2716 2762 2808 2718 2664 2713 2763
8 2809 2763 2714 2764 2767 2718 2663 2717
8 2765 2716 2664 2718 2811 2766 2719 2768
8 2813 2768 2718 2767 2770 2721 2666 2720
8 2814 2769 2719 2768 2771 2722 2667 2721
8 2723 2669 2724 2773 2770 2721 2771 2816
8 2724 2670 2725 2774 2771 2722 2772 2817
8 2726 2672 2727 2776 2773 2724 2774 2819
8 2727 2673 2728 2777 2774 2725 2775 2820
8 2729 2675 2730 2779 2776 2727 2777 2822
8 2730 2676 2731 2780 2777 2728 2778 2823
8 2732 2678 2733 2782 2779 2730 2780 2825
8 2780 2731 2679 2733 2826 2781 2734 2783
8 2782 2733 2681 2735 2827 2783 2736 2784
8 2830 2785 2738 2787 2804 2756 2706 2759
8 2789 2739 2686 2740 2832 2786 2738 2787
8 2790 2740 2707 2760 2833 2787 2759 2806
8 2742 2687 2739 2789 2792 2741 2788 2835
8 2743 2688 2740 2790 2793 2742 2789 2836
8 2792 2741 2791 2838 2745 2689 2744 2795
8 2793 2742 2792 2839 2746 2690 2745 2796
8 2795 2744 2794 2841 2748 2693 2749 2798
8 2796 2745 2795 2842 2747 2692 2748 2797
8 2797 2748 2798 2843 2750 2695 2751 2800
8 2798 2749 2799 2844 2751 2696 2752 2801
8 2800 2751 2801 2845 2753 2698 2754 2802
8 2808 2762 2803 2847 2763 2713 2756 2804
8 2809 2763 2804 2848 2764 2714 2757 2805
8 2806 2759 2710 2761 2848 2804 2757 2805
8 2765 2716 2766 2811 2808 2762 2807 2850
8 2810 2765 2808 2851 2767 2718 2763 2809
8 2810 2765 2718 2767 2852 2811 2768 2813
8 2811 2766 2719 2768 2853 2812 2769 2814
8 2855 2814 2768 2813 2816 2771 2721 2770
8 2856 2815 2769 2814 2817 2772 2722 2771
8 2773 2724 2774 2819 2816 2771 2817 2858
8 2774 2725 2775 2820 2817 2772 2818 2859
8 2776 2727 2777 2822 2819 2774 2820 2861
8 2777 2728 2778 2823 2820 2775 2821 2862
8 2779 2730 2780 2825 2822 2777 2823 2864
8 2823 2778 2731 2780 2865 2824 2781 2826
8 2825 2780 2733 2782 2866 2826 2783 2827
8 2869 2828 2785 2830 2847 2803 2756 2804
8 2871 2829 2786 2832 2830 2785 2738 2787
8 2872 2830 2787 2833 2848 2804 2759 2806
8 2789 2739 2786 2832 2835 2788 2831 2874
8 2836 2789 2740 2790 2875 2832 2787 2833
8 2792 2741 2788 2835 2838 2791 2834 2877
8 2793 2742 2789 2836 2839 2792 2835 2878
8 2838 2791 2837 2880 2795 2744 2794 2841
8 2839 2792 2838 2881 2796 2745 2795 2842
8 2841 2794 2840 2882 2798 2749 2799 2844
8 2842 2795 2841 2883 2797 2748 2798 2843
8 2843 2798 2844 2884 2800 2751 2801 2845
8 2886 2846 2803 2847 2850 2807 2762 2808
8 2851 2808 2847 2887 2809 2763 2804 2848
8 2850 2807 2766 2811 2889 2849 2812 2853
8 2810 2765 2811 2852 2851 2808 2850 2890
8 2852 2811 2768 2813 2891 2853 2814 2855
8 2853 2812 2769 2814 2892 2854 2815 2856
8 2894 2856 2814 2855 2858 2817 2771 2816
8 2817 2772 2818 2859 2856 2815 2857 2895
8 2819 2774 2820 2861 2858 2817 2859 2897
8 2820 2775 2821 2862 2859 2818 2860 2898
8 2822 2777 2823 2864 2861 2820 2862 2900
8 2823 2778 2824 2865 2862 2821 2863 2901
8 2864 2823 2780 2825 2902 2865 2826 2866
8 2904 2867 2828 2869 2886 2846 2803 2847
8 2869 2828 2868 2906 2830 2785 2829 2871
8 2907 2869 2830 2872 2887 2847 2804 2848
8 2871 2829 2870 2909 2832 2786 2831 2874
8 2910 2871 2832 2875 2872 2830 2787 2833
8 2835 2788 2831 2874 2877 2834 2873 2912
8 2836 2789 2832 2875 2878 2835 2874 2913
8 2877 2834 2876 2915 2838 2791 2837 2880
8 2839 2792 2835 2878 2881 2838 2877 2916
8 2880 2837 2879 2917 2841 2794 2840 2882
8 2881 2838 2880 2918 2842 2795 2841 2883
8 2883 2841 2882 2919 2843 2798 2844 2884
8 2921 2885 2846 2886 2889 2849 2807 2850
8 2922 2886 2847 2887 2890 2850 2808 2851
8 2889 2849 2812 2853 2924 2888 2854 2892
8 2890 2850 2811 2852 2925 2889 2853 2891
8 2891 2853 2814 2855 2926 2892 2856 2894
8 2892 2854 2815 2856 2927 2893 2857 2895
8 2858 2817 2859 2897 2894 2856 2895 2929
8 2859 2818 2860 2898 2895 2857 2896 2930
8 2861 2820 2862 2900 2897 2859 2898 2932
8 2862 2821 2863 2901 2898 2860 2899 2933
8 2864 2823 2865 2902 2900 2862 2901 2934
8 2904 2867 2846 2886 2936 2903 2885 2921
8 2904 2867 2903 2936 2869 2828 2868 2906
8 2937 2904 2869 2907 2922 2886 2847 2887
8 2906 2868 2905 2939 2871 2829 2870 2909
8 2907 2869 2906 2940 2872 2830 2871 2910
8 2909 2870 2908 2942 2874 2831 2873 2912
8 2910 2871 2909 2943 2875 2832 2874 2913
8 2912 2873 2911 2945 2877 2834 2876 2915
8 2878 2835 2874 2913 2916 2877 2912 2946
8 2915 2876 2914 2947 2880 2837 2879 2917
8 2916 2877 2915 2948 2881 2838 2880 2918
8 2918 2880 2917 2949 2883 2841 2882 2919
8 2921 2885 2849 2889 2951 2920 2888 2924
8 2952 2921 2886 2922 2925 2889 2850 2890
8 2924 2888 2854 2892 2954 2923 2893 2927
8 2925 2889 2853 2891 2955 2924 2892 2926
8 2926 2892 2856 2894 2956 2927 2895 2929
8 2895 2857 2896 2930 2927 2893 2928 2957
8 2897 2859 2898 2932 2929 2895 2930 2959
8 2898 2860 2899 2933 2930 2896 2931 2960
8 2900 2862 2901 2934 2932 2898 2933 2961
8 2936 2903 2885 2921 2963 2935 2920 2951
8 2936 2903 2935 2963 2906 2868 2905 2939
8 2937 2904 2886 2922 2964 2936 2921 2952
8 2937 2904 2936 2964 2907 2869 2906 2940
8 2939 2905 2938 2966 2909 2870 2908 2942
8 2940 2906 2939 2967 2910 2871 2909 2943
8 2942 2908 2941 2969 2912 2873 2911 2945
8 2943 2909 2942 2970 2913 2874 2912 2946
8 2945 2911 2944 2971 2915 2876 2914 2947
8 2946 2912 2945 2972 2916 2877 2915 2948
8 2948 2915 2947 2973 2918 2880 2917 2949
8 2951 2920 2888 2924 2975 2950 2923 2954
8 2952 2921 2889 2925 2976 2951 2924 2955
8 2927 2893 2928 2957 2954 2923 2953 2978
8 2955 2924 2892 2926 2979 2954 2927 2956
8 2929 2895 2930 2959 2956 2927 2957 2980
8 2930 2896 2931 2960 2957 2928 2958 2981
8 2932 2898 2933 2961 2959 2930 2960 2982
8 2951 2920 2950 2975 2963 2935 2962 2984
8 2963 2935 2962 2984 2939 2905 2938 2966
8 2964 2936 2921 2952 2985 2963 2951 2976
8 2964 2936 2963 2985 2940 2906 2939 2967
8 2966 2938 2965 2987 2942 2908 2941 2969
8 2967 2939 2966 2988 2943 2909 2942 2970
8 2969 2941 2968 2989 2945 2911 2944 2971
8 2970 2942 2969 2990 2946 2912 2945 2972
8 2972 2945 2971 2991 2948 2915 2947 2973
8 2954 2923 2953 2978 2975 2950 2974 2993
8 2976 2951 2924 2955 2994 2975 2954 2979
8 2957 2928 2958 2981 2978 2953 2977 2995
8 2956 2927 2957 2980 2979 2954 2978 2996
8 2959 2930 2960 2982 2980 2957 2981 2997
8 2984 2962 2983 2999 2966 2938 2965 2987
8 2975 2950 2974 2993 2984 2962 2983 2999
8 2976 2951 2975 2994 2985 2963 2984 3000
8 2985 2963 2984 3000 2967 2939 2966 2988
8 2987 2965 2986 3001 2969 2941 2968 2989
8 2988 2966 2987 3002 2970 2942 2969 2990
8 2990 2969 2989 3003 2972 2945 2971 2991
8 2978 2953 2977 2995 2993 2974 2992 3004
8 2979 2954 2978 2996 2994 2975 2993 3005
8 2980 2957 2981 2997 2996 2978 2995 3006
8 2974 2993 2999 2983 2992 3004 3007 2998
8 2983 2999 2987 2965 2998 3007 3001 2986
8 3000 2984 2999 3008 2988 2966 2987 3002
8 2994 2975 2993 3005 3000 2984 2999 3008
8 3002 2987 3001 3009 2990 2969 2989 3003
8 2996 2978 2995 3006 3005 2993 3004 3010
8 3005 2993 3004 3010 3008 2999 3007 3011
8 3008 2999 3007 3011 3002 2987 3001 3009

CELL_TYPES 1910
12
12
12
12
12
12
12
12
12
12
12
12
12
12
12
12
12
12
12
12
12
12
12
12
12
12
12
12
12
12
12
12
12
12
12
12
12
12
12
12
12
12
12
12
12
12
12
12
12
12
12
12
12
12
12
12
12
12
12
12
12
12
12
12
12
12
12
12
12
12
12
12
12
12
12
12
12
12
12
12
12
12
12
12
12
12
12
12
12
12
12
12
12
12
12
12
12
12
12
12
12
12
12
12
12
12
12
12
12
12
12
12
12
12
12
12
12
12
12
12
12
12
12
12
12
12
12
12
12
12
12
12
12
12
12
12
12
12
12
12
12
12
12
12
12
12
12
12
12
12
12
12
12
12
12
12
12
12
12
12
12
12
12
12
12
12
12
12
12
12
12
12
12
12
12
12
12
12
12
12
12
12
12
12
12
12
12
12
12
12
12
12
12
12
12
12
12
12
12
12
12
12
12
12
12
12
12
12
12
12
12
12
12
12
12
12
12
12
12
12
12
12
12
12
12
12
12
12
12
12
12
12
12
12
12
12
12
12
12
12
12
12
12
12
12
12
12
12
12
12
12
12
12
12
12
12
12
12
12
12
12
12
12
12
12
12
12
12
12
12
12
12
12
12
12
12
12
12
12
12
12
12
12
12
12
12
12
12
12
12
12
12
12
12
12
12
12
12
12
12
12
12
12
12
12
12
12
12
12
12
12
12
12
12
12
12
12
12
12
12
12
12
12
12
12
12
12
12
12
12
12
12
12
12
12
12
12
12
12
12
12
12
12
12
12
12
12
12
12
12
12
12
12
12
12
12
12
12
12
12
12
12
12
12
12
12
12
12
12
12
12
12
12
12
12
12
12
12
12
12
12
12
12
12
12
12
12
12
12
12
12
12
12
12
12
12
12
12
12
12
12
12
12
12
12
12
12
12
12
12
12
12
12
12
12
12
12
12
12
12
12
12
12
12
12
12
12
12
12
12
12
12
12
12
12
12
12
12
12
12
12
12
12
12
12
12
12
12
12
12
12
12
12
12
12
12
12
12
12
12
12
12
12
12
12
12
12
12
12
12
12
12
12
12
12
12
12
12
12
12
12
12
12
12
12
12
12
12
12
12
12
12
12
12
12
12
12
12
12
12
12
12
12
12
12
12
12
12
12
12
12
12
12
12
12
12
12
12
12
12
12
12
12
12
12
12
12
12
12
12
12
12
12
12
12
12
12
12
12
12
12
12
12
12
12
12
12
12
12
12
12
12
12
12
12
12
12
12
12
12
12
12
12
12
12
12
12
12
12
12
12
12
12
12
12
12
12
12
12
12
12
12
12
12
12
12
12
12
12
12
12
12
12
12
12
12
12
12
12
12
12
12
12
12
12
12
12
12
12
12
12
12
12
12
12
12
12
12
12
12
12
12
12
12
12
12
12
12
12
12
12
12
12
12
12
12
12
12
12
12
12
12
12
12
12
12
12
12
12
12
12
12
12
12
12
12
12
12
12
12
12
12
12
12
12
12
12
12
12
12
12
12
12
12
12
12
12
12
12
12
12
12
12
12
12
12
12
12
12
12
12
12
12
12
12
12
12
12
12
12
12
12
12
12
12
12
12
12
12
12
12
12
12
12
12
12
12
12
12
12
12
12
12
12
12
12
12
12
12
12
12
12
12
12
12
12
12
12
12
12
12
12
12
12
12
12
12
12
12
12
12
12
12
12
12
12
12
12
12
12
12
12
12
12
12
12
12
12
12
12
12
12
12
12
12
12
12
12
12
12
12
12
12
12
12
12
12
12
12
12
12
12
12
12
12
12
12
12
12
12
12
12
12
12
12
12
12
12
12
12
12
12
12
12
12
12
12
12
12
12
12
12
12
12
12
12
12
12
12
12
12
12
12
12
12
12
12
12
12
12
12
12
12
12
12
12
12
12
12
12
12
12
12
12
12
12
12
12
12
12
12
12
12
12
12
12
12
12
12
12
12
12
12
12
12
12
12
12
12
12
12
12
12
12
12
12
12
12
12
12
12
12
12
12
12
12
12
12
12
12
12
12
12
12
12
12
12
12
12
12
12
12
12
12
12
12
12
12
12
12
12
12
12
12
12
12
12
12
12
12
12
12
12
12
12
12
12
12
12
12
12
12
12
12
12
12
12
12
12
12
12
12
12
12
12
12
12
12
12
12
12
12
12
12
12
12
12
12
12
12
12
12
12
12
12
12
12
12
12
12
12
12
12
12
12
12
12
12
12
12
12
12
12
12
12
12
12
12
12
12
12
12
12
12
12
12
12
12
12
12
12
12
12
12
12
12
12
12
12
12
12
12
12
12
12
12
12
12
12
12
12
12
12
12
12
12
12
12
12
12
12
12
12
12
12
12
12
12
12
12
12
12
12
12
12
12
12
12
12
12
12
12
12
12
12
12
12
12
12
12
12
12
12
12
12
12
12
12
12
12
12
12
12
12
12
12
12
12
12
12
12
12
12
12
12
12
12
12
12
12
12
12
12
12
12
12
12
12
12
12
12
12
12
12
12
12
12
12
12
12
12
12
12
12
12
12
12
12
12
12
12
12
12
12
12
12
12
12
12
12
12
12
12
12
12
12
12
12
12
12
12
12
12
12
12
12
12
12
12
12
12
12
12
12
12
12
12
12
12
12
12
12
12
12
12
12
12
12
12
12
12
12
12
12
12
12
12
12
12
12
12
12
12
12
12
12
12
12
12
12
12
12
12
12
12
12
12
12
12
12
12
12
12
12
12
12
12
12
12
12
12
12
12
12
12
12
12
12
12
12
12
12
12
12
12
12
12
12
12
12
12
12
12
12
12
12
12
12
12
12
12
12
12
12
12
12
12
12
12
12
12
12
12
12
12
12
12
12
12
12
12
12
12
12
12
12
12
12
12
12
12
12
12
12
12
12
12
12
12
12
12
12
12
12
12
12
12
12
12
12
12
12
12
12
12
12
12
12
12
12
12
12
12
12
12
12
12
12
12
12
12
12
12
12
12
12
12
12
12
12
12
12
12
12
12
12
12
12
12
12
12
12
12
12
12
12
12
12
12
12
12
12
12
12
12
12
12
12
12
12
12
12
12
12
12
12
12
12
12
12
12
12
12
12
12
12
12
12
12
12
12
12
12
12
12
12
12
12
12
12
12
12
12
12
12
12
12
12
12
12
12
12
12
12
12
12
12
12
12
12
12
12
12
12
12
12
12
12
12
12
12
12
12
12
12
12
12
12
12
12
12
12
12
12
12
12
12
12
12
12
12
12
12
12
12
12
12
12
12
12
12
12
12
12
12
12
12
12
12
12
12
12
12
12
12
12
12
12
12
12
12
12
12
12
12
12
12
12
12
12
12
12
12
12
12
12
12
12
12
12
12
12
12
12
12
12
12
12
12
12
12
12
12
12
12
12
12
12
12
12
12
12
12
12
12
12
12
12
12
12
12
12
12
12
12
12
12
12
12
12
12
12
12
12
12
12
12
12
12
12
12
12
12
12
12
12
12
12
12
12
12
12
12
12
12
12
12
12
12
12
12
12
12
12
12
12
12
12
12
12
12
12
12
12
12
12
12
12
12
12
12
12
12
12
12
12
12
12
12
12
12
12
12
12
12
12
12
12
12
12
12
12
12
12
12
12
12
12
12
12
12
12
12
12
12
12
12
12
12
12
12
12
12
12
12
12
12
12
12
12
12
12
12
12
12
12
12
12
12
12
12
12
12
12
12
12
12
12
12
12
12
12
12
12
12
12
12
12
12
12
12
12
12
12
12
12
12
12
12
12
12
12
12
12
12
12
12
12
12
12
12
12
12
12
12
12
12
12
12
12
12
12
12
12
12
12
12
12
12
12
12
12
12
12
12
12
12
12
12
12
12
12
12
12
12
12
12
12
12
12
12
12
12
12
12
12
12
12
12
12
12
12
12
12
12
12
12
12
12
12
12
12
12
12
12
12
12
12
12
12
12
12
12
12
12
12
12
12
12
12
12
12
12
12
12
12
12
12
12
12
12
12
12
12
12
12
12
12
12
12
12
12
12
12
12
12
12
12
12
12
12
12
12
12
12
12
12
12
12
12
12
12
12
12
12
12
12
12
12
12
12
12
12
12
12
12
12
12
12
12
12
12
12
12
12
12
12
12
12
12
12
12
12
12
12
12
12
12
12
12
12
12
12
12
12
12
12
12
12
12
12
12
12
12
12
12
12
12
12
12
12
12
12
12
12
12
12
12
12
12
12
12
12
12
12
12
12
12
12
12
12
12
12
12
12
12
12
12
12
12
12
12
12
12
12
12
12
12
12
12
12
12
12
12
12
12
12
12
12
12

POINT_DATA 3012
SCALARS Jp_lamdaP float 4
LOOKUP_TABLE default
0.999979 1 1 0.999979
1 1 1 1
0.999981 1 1 0.999981
0.999954 1 1 0.999954
0.999973 1 1 0.999973
0.999987 1 1 0.999987
0.999752 1 1 0.999752
1 1 1 1
1 1 1 1
1 1 1 1
1 1 1 1
0.99989 1 1 0.99989
0.999921 1 1 0.999921
0.999951 1 1 0.999951
0.999982 1 1 0.999982
0.999959 1 1 0.999959
0.999989 1 1 0.999989
0.999976 1 1 0.999976
0.999755 1 1 0.999755
1 1 1 1
0.999947 1 1 0.999947
0.999964 1 1 0.999964
0.99964 1 1 0.99964
0.999715 1 1 0.999715
0.999997 1 1 0.999997
0.999799 1 1 0.999799
0.999375 1 1 0.999375
1 1 1 1
0.999982 1 1 0.999982
0.999993 1 1 0.999993
1 1 1 1
0.999897 1 1 0.999897
0.99996 1 1 0.99996
0.999981 1 1 0.999981
0.999784 1 1 0.999784
1 1 1 1
0.999864 1 1 0.999864
0.999927 1 1 0.999927
0.999459 1 1 0.999459
1 1 1 1
1 1 1 1
0.999974 1 1 0.999974
1 1 1 1
0.999941 1 1 0.999941
0.999601 1 1 0.999601
1 1 1 1
0.999719 1 1 0.999719
0.999963 1 1 0.999963
0.999978 1 1 0.999978
0.999991 1 1 0.999991
0.999759 1 1 0.999759
0.999962 1 1 0.999962
0.999952 1 1 0.999952
0.999998 1 1 0.999998
0.999968 1 1 0.999968
0.999641 1 1 0.999641
0.999802 1 1 0.999802
0.999718 1 1 0.999718
0.999361 1 1 0.999361
1 1 1 1
0.999935 1 1 0.999935
0.999667 1 1 0.999667
0.99962 1 1 0.99962
0.999675 1 1 0.999675
0.999108 1 1 0.999108
0.999243 1 1 0.999243
1 1 1 1
0.999866 1 1 0.999866
0.999476 1 1 0.999476
0.998957 1 1 0.998957
1 1 1 1
1 1 1 1
1 1 1 1
0.999904 1 1 0.999904
1 1 1 1
1 1 1 1
0.999774 1 1 0.999774
1 1 1 1
0.999864 1 1 0.999864
0.999939 1 1 0.999939
0.999458 1 1 0.999458
1 1 1 1
1 1 1 1
0.999729 1 1 0.999729
0.999809 1 1 0.999809
0.999156 1 1 0.999156
0.999968 1 1 0.999968
0.999398 1 1 0.999398
0.999519 1 1 0.999519
0.999173 1 1 0.999173
1 1 1 1
1 1 1 1
1 1 1 1
1 1 1 1
1 1 1 1
0.999967 1 1 0.999967
0.999634 1 1 0.999634
0.999977 1 1 0.999977
0.99971 1 1 0.99971
1 1 1 1
0.999569 1 1 0.999569
0.999689 1 1 0.999689
0.998852 1 1 0.998852
0.99974 1 1 0.99974
0.998956 1 1 0.998956
0.999931 1 1 0.999931
0.999956 1 1 0.999956
0.999999 1 1 0.999999
0.999971 1 1 0.999971
0.999643 1 1 0.999643
0.999722 1 1 0.999722
0.999805 1 1 0.999805
0.999348 1 1 0.999348
1 1 1 1
0.999941 1 1 0.999941
0.999592 1 1 0.999592
0.99962 1 1 0.99962
1 1 1 1
0.999892 1 1 0.999892
0.999678 1 1 0.999678
0.999084 1 1 0.999084
0.99946 1 1 0.99946
0.999259 1 1 0.999259
0.998958 1 1 0.998958
0.999586 1 1 0.999586
0.9996 1 1 0.9996
0.998935 1 1 0.998935
0.99903 1 1 0.99903
0.99914 1 1 0.99914
0.998716 1 1 0.998716
1 1 1 1
0.998878 1 1 0.998878
0.999962 1 1 0.999962
0.999519 1 1 0.999519
0.999041 1 1 0.999041
0.998783 1 1 0.998783
0.999995 1 1 0.999995
0.999715 1 1 0.999715
1 1 1 1
1 1 1 1
0.99978 1 1 0.99978
1 1 1 1
0.999951 1 1 0.999951
0.999868 1 1 0.999868
0.999456 1 1 0.999456
1 1 1 1
1 1 1 1
0.999747 1 1 0.999747
0.999825 1 1 0.999825
0.999158 1 1 0.999158
0.999977 1 1 0.999977
0.9994 1 1 0.9994
0.999518 1 1 0.999518
0.999163 1 1 0.999163
0.999993 1 1 0.999993
1 1 1 1
0.99977 1 1 0.99977
0.999056 1 1 0.999056
0.999287 1 1 0.999287
0.99881 1 1 0.99881
0.999598 1 1 0.999598
0.999099 1 1 0.999099
0.999215 1 1 0.999215
0.999054 1 1 0.999054
1 1 1 1
1 1 1 1
1 1 1 1
1 1 1 1
1 1 1 1
1 1 1 1
1 1 1 1
0.999698 1 1 0.999698
0.999618 1 1 0.999618
1 1 1 1
1 1 1 1
0.999571 1 1 0.999571
0.999681 1 1 0.999681
0.998852 1 1 0.998852
0.999717 1 1 0.999717
0.998956 1 1 0.998956
0.999558 1 1 0.999558
0.998792 1 1 0.998792
0.998913 1 1 0.998913
0.998857 1.00033 1 0.998526
0.998996 1 1 0.998996
0.998636 1 1 0.998636
1 1 1 1
0.999948 1 1 0.999948
0.999513 1 1 0.999513
0.999621 1 1 0.999621
1 1 1 1
0.999919 1 1 0.999919
0.999681 1 1 0.999681
0.99906 1 1 0.99906
0.999276 1 1 0.999276
0.999444 1 1 0.999444
0.99896 1 1 0.99896
0.999583 1 1 0.999583
0.999601 1 1 0.999601
0.998885 1 1 0.998885
0.999048 1 1 0.999048
1 1 1 1
0.999953 1 1 0.999953
0.99954 1 1 0.99954
0.999141 1 1 0.999141
0.998687 1 1 0.998687
0.999037 1 1 0.999037
0.998893 1 1 0.998893
0.998786 1 1 0.998786
0.999992 1 1 0.999992
0.999715 1 1 0.999715
0.998805 1 1 0.998805
0.998994 1 1 0.998994
0.99861 1.00002 1 0.998592
0.998614 1 1 0.998614
0.998805 1 1 0.998805
0.998694 1.00012 1 0.998577
0.999982 1 1 0.999982
0.998724 1.00001 1 0.998716
0.999572 1 1 0.999572
0.999162 1 1 0.999162
0.998866 1 1 0.998866
0.998831 1.0001 1 0.998728
0.99964 1 1 0.99964
0.999804 1 1 0.999804
0.999383 1 1 0.999383
0.999742 1 1 0.999742
1 1 1 1
1 1 1 1
0.999829 1 1 0.999829
0.999161 1 1 0.999161
0.999986 1 1 0.999986
0.999518 1 1 0.999518
0.999401 1 1 0.999401
0.999152 1 1 0.999152
0.999996 1 1 0.999996
1 1 1 1
0.99977 1 1 0.99977
0.999057 1 1 0.999057
0.999291 1 1 0.999291
0.998809 1 1 0.998809
0.999599 1 1 0.999599
0.999108 1 1 0.999108
0.999213 1 1 0.999213
0.999043 1 1 0.999043
1 1 1 1
0.999678 1 1 0.999678
0.99986 1 1 0.99986
0.999452 1 1 0.999452
0.998716 1 1 0.998716
0.998968 1 1 0.998968
0.999478 1.00084 1 0.998639
0.9993 1 1 0.9993
0.998978 1 1 0.998978
0.999446 1 1.00043 0.99902
0.998954 1 1 0.998954
0.99997 1 1 0.99997
1 1 1 1
1 1 1 1
1 1 1 1
1 1 1 1
1 1 1 1
1 1 1 1
0.999999 1 1 0.999999
1 1 1 1
0.999719 1 1 0.999719
0.999665 1 1 0.999665
0.998956 1 1 0.998956
0.998853 1 1 0.998853
0.999574 1 1 0.999574
1 1 1 1
0.999558 1 1 0.999558
0.998793 1 1 0.998793
0.998913 1 1 0.998913
0.998767 1.00024 1 0.998525
0.998996 1 1 0.998996
0.998639 1 1 0.998636
0.998778 1 1 0.998778
0.999079 1.00061 1 0.998466
0.998642 1.00005 1 0.998588
1.00187 1.00343 1 0.998443
0.998672 1 1 0.998672
0.999839 1.00131 1 0.998533
0.99958 1 1 0.99958
0.999601 1 1 0.999601
0.998836 1 1 0.998836
0.999067 1 1 0.999067
1 1 1 1
0.999944 1 1 0.999944
0.999561 1 1 0.999561
0.999142 1 1 0.999142
0.998658 1 1 0.998658
0.998907 1 1 0.998907
0.999033 1 1 0.999033
0.998788 1 1 0.998788
0.999989 1 1 0.999989
0.999715 1 1 0.999715
0.998789 1 1 0.998789
0.998993 1 1 0.998993
0.998666 1.00009 1 0.99858
0.998645 1 1 0.998645
0.999977 1 1 0.999977
0.999571 1 1 0.999571
0.999185 1 1 0.999185
0.998805 1 1 0.998805
0.998829 1.00026 1 0.99857
0.998842 1 1 0.998842
0.998737 1.00002 1 0.998717
0.998994 1.00027 1 0.998729
0.999641 1 1 0.999641
0.999381 1 1 0.999381
0.999803 1 1 0.999803
0.998789 1.00026 1 0.998531
0.998647 1.00003 1 0.998618
1.00119 1.00275 1 0.99844
0.999207 1.0007 1 0.998508
0.998741 1.0001 1 0.998644
1.00071 1.00214 1 0.998575
0.999602 1 1 0.999602
0.999463 1.00078 1 0.998683
0.999305 1 1 0.999305
0.998954 1 1 0.998954
0.998723 1 1 0.998723
0.999772 1.00099 1 0.998778
0.999872 1 1 0.999872
0.999368 1 1 0.999368
0.999425 1 1 0.999425
0.99926 1 1 0.99926
0.999058 1 1 0.999058
1 1 1 1
0.999998 1 1 0.999998
0.999771 1 1 0.999771
0.999295 1 1 0.999295
0.998809 1 1 0.998809
0.999599 1 1 0.999599
0.999211 1 1 0.999211
0.999118 1 1 0.999118
0.999032 1 1 0.999032
1 1 1 1
0.999678 1 1 0.999678
0.999863 1 1 0.999863
0.99945 1 1 0.99945
0.998714 1 1 0.998714
0.998971 1 1 0.998971
0.999204 1.00057 1 0.998639
0.999302 1 1 0.999302
0.99899 1 1 0.99899
0.999299 1 1.00029 0.999013
0.998996 1 1 0.998996
1 1 1 1
0.999915 1 1 0.999915
0.999382 1 1 0.999382
0.999537 1 1 0.999537
0.999272 1 1 0.999272
0.999802 1.00123 1 0.998569
0.998915 1.0001 1 0.99881
1.00007 1.00149 1 0.998584
0.999538 1 1.00045 0.999085
0.998912 1 1 0.998912
0.999293 1 1.00047 0.998826
0.999958 1 1 0.999958
0.999746 1 1 0.999746
0.999977 1 1 0.999977
0.999972 1 1 0.999972
1 1 1 1
1 1 1 1
1 1 1 1
1 1 1 1
1 1 1 1
1 1 1 1
1 1 1 1
1 1 1 1
1 1 1 1
0.999998 1 1 0.999998
1 1 1 1
0.998996 1 1 0.998996
0.998914 1 1 0.998914
0.998639 1 1 0.998636
0.998669 1.00015 1 0.998524
0.998793 1 1 0.998793
0.999557 1 1 0.999557
0.998778 1 1 0.998778
0.999013 1.00055 1 0.998466
0.998614 1.00003 1 0.998588
1.00179 1.00336 1 0.998439
0.998672 1 1 0.998671
0.999601 1.00107 1 0.998533
0.999022 1.00057 1 0.99845
1.00387 1.00549 1 0.998389
1.00092 1.00243 1 0.998487
1.00661 1.00818 1 0.998447
0.999453 1.0009 1 0.998557
1.00297 1.0044 1 0.998578
0.998773 1 1 0.998773
0.998992 1 1 0.998992
0.998724 1.00016 1 0.998568
0.998675 1 1 0.998675
0.999972 1 1 0.999972
0.999571 1 1 0.999571
0.999209 1 1 0.999209
0.998806 1 1 0.998806
0.998968 1.00041 1 0.998564
0.998748 1.00003 1 0.998718
0.998818 1 1 0.998818
0.999184 1.00045 1 0.99873
0.999643 1 1 0.999643
0.999379 1 1 0.999379
0.999801 1 1 0.999801
0.998865 1.00036 1 0.998505
0.998645 1.00003 1 0.998617
1.00141 1.00299 1 0.99843
0.999594 1.00108 1 0.998513
0.999604 1 1 0.999604
0.999302 1 1 0.999302
0.998982 1 1 0.998982
0.998761 1.00011 1 0.998655
1.0007 1.00212 1 0.998584
0.998705 1 1 0.998705
0.999748 1.00107 1 0.998683
0.999769 1.00098 1 0.998788
0.99937 1 1 0.99937
0.999246 1 1 0.999246
0.999869 1 1 0.999869
0.999437 1 1 0.999437
1.00231 1.00393 1 0.998382
1.00058 1.00211 1 0.998473
1.00652 1.00813 1 0.998396
1.00204 1.00354 1 0.998505
1.00055 1.00191 1 0.998636
1.00394 1.00533 1 0.998614
0.999357 1 1 0.999357
1.00135 1.00258 1 0.998776
0.999127 1 1 0.999127
0.998894 1 1.00011 0.998785
0.998865 1.00022 1 0.998641
1.00114 1.00236 1 0.99879
0.999907 1 1 0.999907
0.999507 1 1 0.999507
0.999253 1 1 0.999253
0.999276 1 1 0.999276
0.999201 1 1 0.999201
1 1 1 1
0.998712 1 1 0.998712
0.999866 1 1 0.999866
0.999678 1 1 0.999678
0.999448 1 1 0.999448
0.998973 1 1 0.998973
0.998945 1.00031 1 0.998639
0.999304 1 1 0.999304
0.999253 1 1.00025 0.999006
0.999001 1 1 0.999001
0.999037 1 1 0.999037
1 1 1 1
0.99992 1 1 0.99992
0.999382 1 1 0.999382
0.999537 1 1 0.999537
0.99926 1 1 0.99926
0.999772 1.00121 1 0.998566
0.998873 1.00006 1 0.998811
1.00011 1.00154 1 0.998579
0.999424 1 1.00034 0.999088
0.998922 1 1 0.998922
0.999526 1 1.00069 0.998842
0.999942 1 1 0.999942
0.999619 1 1 0.999619
0.999182 1 1 0.999182
0.999338 1 1 0.999338
0.999161 1 1 0.999161
1.00152 1.00299 1 0.998541
0.999362 1.00062 1 0.998746
1.00085 1.00218 1 0.998673
1.0013 1 1.0024 0.9989
0.998733 1 1 0.998733
0.999962 1 1 0.999962
0.99969 1 1 0.99969
0.99973 1 1 0.99973
0.999586 1 1 0.999586
0.999754 1 1 0.999754
0.999981 1 1 0.999981
0.999979 1 1 0.999979
1 1 1 1
0.999975 1 1 0.999975
1 1 1 1
1 1 1 1
1 1 1 1
1 1 1 1
1 1 1 1
1 1 1 1
1 1 1 1
1 1 1 1
1 1 1 1
1 1 1 1
1 1 1 1
0.998674 1 1 0.99867
0.998588 1 1 0.998588
0.999369 1.00084 1 0.998533
1.00171 1.00328 1 0.998436
0.998953 1.00049 1 0.998466
0.998777 1 1 0.998777
0.999058 1.00061 1 0.99845
1.00395 1.00558 1 0.998381
1.00055 1.00206 1 0.998487
1.00666 1.00822 1 0.99845
0.999634 1.00108 1 0.998555
1.00281 1.00424 1 0.998579
1.0036 1.00526 1 0.998357
1.00944 1.01107 1 0.998389
1.00464 1.00614 1 0.998509
1.0082 1.00975 1 0.998466
1.0028 1.00424 1 0.998572
1.00601 1.00739 1 0.998629
0.998936 1.00046 1 0.998479
0.998641 1.00002 1 0.998616
1.00163 1.00322 1 0.998421
0.999983 1.00147 1 0.998518
0.999605 1 1 0.999605
0.999298 1 1 0.999298
0.99901 1 1 0.99901
0.998783 1.00012 1 0.998665
1.00068 1.00209 1 0.998592
1 1.00132 1 0.998683
0.998688 1 1 0.998688
0.999766 1.00097 1 0.998797
0.999373 1 1 0.999373
0.999232 1 1 0.999232
0.999866 1 1 0.999866
0.999449 1 1 0.999449
1.00258 1.0042 1 0.998382
1.00081 1.00234 1 0.998473
1.00605 1.00767 1 0.998399
1.00174 1.00324 1 0.998505
0.999356 1 1 0.999356
0.99915 1 1 0.99915
0.999008 1 1.00023 0.998782
1.00058 1.00195 1 0.99863
1.00384 1.0052 1 0.998645
0.998886 1.00026 1 0.998632
1.00155 1.00278 1 0.998777
1.00097 1.00215 1 0.99882
0.999253 1 1 0.999253
0.999197 1 1 0.999197
0.999274 1 1 0.999274
0.999883 1 1 0.999883
0.999517 1 1 0.999517
1.00874 1.0104 1 0.998363
1.00603 1.00763 1 0.998407
1.00518 1.00663 1 0.998555
1.00404 1.00535 1 0.998699
0.999243 1 1 0.999243
1.00357 1.00473 1 0.99885
0.999163 1 1.00016 0.999002
0.999013 1 1.00043 0.99858
0.999965 1.00139 1 0.998573
0.99989 1 1 0.99989
0.999615 1 1 0.999615
0.999358 1 1 0.999358
0.999218 1 1 0.999218
0.999159 1 1 0.999159
0.999158 1 1 0.999158
1 1 1 1
0.999924 1 1 0.999924
0.99972 1.00116 1 0.998564
0.999537 1 1 0.999537
0.999381 1 1 0.999381
0.999248 1 1 0.999248
0.99883 1.00002 1 0.998813
1.00007 1.0015 1 0.998574
0.99932 1 1.00023 0.99909
0.999455 1 1.0006 0.998857
0.998931 1 1 0.998931
0.999946 1 1 0.999946
0.99962 1 1 0.99962
0.999246 1 1.00006 0.999191
0.999336 1 1 0.999336
0.999148 1 1 0.999148
1.00156 1.00303 1 0.998538
0.999126 1.00039 1 0.998741
1.00083 1.00214 1 0.998689
1.00073 1 1.00184 0.998889
0.99876 1 1.00006 0.998704
0.999678 1 1 0.999678
0.999388 1 1 0.999388
1.00009 1 1.00104 0.999044
0.999162 1 1 0.999162
0.999066 1 1 0.999066
1.00502 1.00628 1 0.998747
0.999272 1.00062 1 0.998648
1.00193 1.00324 1 0.9987
1.00227 1 1.00349 0.998782
0.998511 1 1 0.998511
0.999965 1 1 0.999965
0.999702 1 1 0.999702
0.999504 1 1 0.999504
0.999715 1 1 0.999715
0.999754 1 1 0.999754
0.999563 1 1 0.999563
0.999447 1 1 0.999447
0.999557 1 1 0.999557
0.999761 1 1 0.999761
0.999981 1 1 0.999981
0.999981 1 1 0.999981
1 1 1 1
0.99998 1 1 0.99998
1 1 1 1
1 1 1 1
1 1 1 1
1 1 1 1
1 1 1 1
1 1 1 1
1 1 1 1
1 1 1 1
1 1 1 1
1 1 1 1
1 1 1 1
0.999828 1.00128 1 0.998552
1.00018 1.00169 1 0.998487
1.00266 1.00409 1 0.99858
1.00671 1.00827 1 0.998453
1.00403 1.00567 1 0.998374
0.999093 1.00064 1 0.99845
1.00367 1.00533 1 0.998353
1.00935 1.01097 1 0.998388
1.00502 1.00654 1 0.998497
1.00852 1.01007 1 0.998464
1.0023 1.00374 1 0.998573
1.0059 1.00727 1 0.998648
1.00955 1.01121 1 0.998358
1.01007 1.01165 1 0.998436
1.00868 1.01015 1 0.998545
1.00615 1.00744 1 0.998713
1.00285 1.00447 1 0.998383
1.00102 1.00255 1 0.998472
1.0056 1.00721 1 0.998402
1.00145 1.00295 1 0.998505
0.999355 1 1 0.999355
0.999173 1 1 0.999173
0.999222 1 1.00044 0.998779
1.00062 1.002 1 0.998624
1.00377 1.0051 1 0.998676
1.00178 1.003 1 0.998778
0.998896 1.00027 1 0.998622
1.00077 1.00192 1 0.99885
0.999254 1 1 0.999254
0.999193 1 1 0.999193
0.999271 1 1 0.999271
0.99986 1 1 0.99986
0.999527 1 1 0.999527
1.00831 1.00995 1 0.998367
1.00595 1.00755 1 0.998414
1.00505 1.0065 1 0.998561
0.999241 1 1 0.999241
0.999183 1 1.00016 0.999028
0.999266 1 1.00069 0.998575
1.00418 1.0055 1 0.99869
1.00002 1.00141 1 0.998612
1.0028 1.00395 1 0.99885
0.999892 1 1 0.999892
0.999216 1 1 0.999216
0.99917 1 1 0.99917
0.999154 1 1 0.999154
0.999365 1 1 0.999365
0.999597 1 1 0.999597
1.00958 1.01122 1 0.998381
1.00713 1.0087 1 0.998452
1.00634 1.00774 1 0.998618
1.00607 1.00728 1 0.998794
0.999173 1 1 0.999173
1.00123 1.00255 1 0.998678
1.00014 1 1.0014 0.998748
0.99983 1.00035 1.00104 0.998441
0.999918 1 1 0.999918
0.99967 1 1 0.99967
0.99943 1 1 0.99943
0.999187 1 1 0.999187
0.999157 1 1 0.999157
0.999099 1 1 0.999099
0.99995 1 1 0.99995
0.999621 1 1 0.999621
1.00164 1.00311 1 0.998536
0.999335 1 1 0.999335
0.9992 1 1 0.9992
0.999135 1 1 0.999135
0.99893 1.00019 1 0.998736
1.00089 1.00218 1 0.998706
1.00019 1 1.00131 0.998879
0.998942 1 1.00027 0.998675
0.999679 1 1 0.999679
0.999396 1 1 0.999396
0.999916 1 1.00086 0.999061
0.999168 1 1 0.999168
0.999076 1 1 0.999076
1.00496 1.00621 1 0.998753
0.999257 1.00061 1 0.998648
1.00198 1.0032 1 0.998776
1.0025 1 1.00374 0.998769
0.998502 1 1.00003 0.998473
0.999463 1 1 0.999463
0.999204 1 1 0.999204
1.00193 1 1.00299 0.998941
0.999002 1 1 0.999002
1.01123 1.01245 1 0.998796
1.00717 1.00847 0.999872 0.99884
1.00056 1.00208 1 0.998477
1.00242 1 1.00393 0.998497
0.999715 1 1 0.999715
0.999514 1 1 0.999514
0.99939 1 1 0.99939
0.999754 1 1 0.999754
0.999541 1 1 0.999541
0.999761 1 1 0.999761
0.99943 1 1 0.99943
0.999565 1 1 0.999565
0.999332 1 1 0.999332
0.99943 1 1 0.99943
0.999564 1 1 0.999564
0.999761 1 1 0.999761
0.999978 1 1 0.999978
0.99998 1 1 0.99998
1 1 1 1
0.999982 1 1 0.999982
1 1 1 1
1 1 1 1
1 1 1 1
1 1 1 1
1 1 1 1
1 1 1 1
1 1 1 1
1 1 1 1
1 1 1 1
1 1 1 1
1 1 1 1
1.00179 1.00323 1 0.998573
1.00541 1.00693 1 0.998486
1.00579 1.00714 1 0.998667
1.00882 1.01038 1 0.998462
1.00924 1.01087 1 0.998388
1.00375 1.00541 1 0.998349
1.00932 1.01098 1 0.998364
1.00973 1.01132 1 0.998434
1.00845 1.00992 1 0.99855
1.00698 1.00828 1 0.998708
1.01103 1.01265 1 0.998404
1.01085 1.01234 1 0.99853
1.01023 1.01159 1 0.998651
1.00787 1.00952 1 0.99837
1.00589 1.00748 1 0.998421
1.00487 1.00632 1 0.998567
0.999238 1 1 0.999238
0.999105 1 1.00005 0.999054
0.999348 1 1.00078 0.998569
1.00428 1.00561 1 0.998681
1.00214 1.00329 1 0.99885
1.00011 1.00147 1 0.99865
0.999215 1 1 0.999215
0.999183 1 1 0.999183
0.99915 1 1 0.99915
0.999894 1 1 0.999894
0.999373 1 1 0.999373
0.999579 1 1 0.999579
1.01019 1.01183 1 0.998383
1.00698 1.00854 1 0.998452
1.00631 1.00772 1 0.998606
0.999167 1 1 0.999167
0.999956 1 1.00116 0.998795
0.999694 1.00035 1.0009 0.998449
1.00647 1.00767 1 0.998812
1.00149 1.00282 1 0.998672
0.999937 1 1 0.999937
0.999671 1 1 0.999671
0.999158 1 1 0.999158
0.999119 1 1 0.999119
0.999188 1 1 0.999188
0.999416 1 1 0.999416
1.01052 1.01208 1 0.998458
1.00798 1.00948 0.999989 0.998526
1.00889 1.0103 0.999838 0.998771
1.00614 1.00729 1 0.998855
0.999791 1 1.00075 0.999046
1.00044 1.00065 1.0014 0.998397
1.00119 1 1.00259 0.9986
0.999976 1 1 0.999976
0.999777 1 1 0.999777
0.999675 1 1 0.999675
0.999453 1 1 0.999453
0.999255 1 1 0.999255
0.999063 1 1 0.999063
0.999177 1 1 0.999177
1.00144 1 1.00229 0.99915
0.999679 1 1 0.999679
0.999404 1 1 0.999404
1.0048 1.00605 1 0.998759
0.999174 1 1 0.999174
0.99995 1 1.00087 0.999077
0.999087 1 1 0.999087
0.999209 1.00056 1 0.998648
1.00195 1.00311 1 0.998851
1.00273 1 1.00398 0.998757
0.998434 1 1 0.998434
0.999455 1 1 0.999455
0.999213 1 1 0.999213
1.00226 1 1.00331 0.998954
0.999016 1 1 0.999016
1.01074 1.01196 1 0.998791
1.00653 1.00776 0.999949 0.998832
1.00091 1.0024 1 0.998511
1.00195 1 1.00348 0.998474
0.999329 1 1 0.999329
1.01163 1.01373 0.99919 0.998738
0.999081 1 1.00001 0.99907
1.00115 1 1.00234 0.998805
1.01331 1.01473 0.999722 0.998876
1.0053 1.00679 1 0.998516
1.00242 1.00084 1.00323 0.998351
0.999525 1 1 0.999525
0.999389 1 1 0.999389
0.999281 1 1 0.999281
0.999761 1 1 0.999761
0.999573 1 1 0.999573
0.999412 1 1 0.999412
0.999761 1 1 0.999761
0.999564 1 1 0.999564
0.999318 1 1 0.999318
0.999447 1 1 0.999447
0.999245 1 1 0.999245
0.999318 1 1 0.999318
0.99946 1 1 0.99946
0.999578 1 1 0.999578
0.999754 1 1 0.999754
0.999975 1 1 0.999975
0.999977 1 1 0.999977
1 1 1 1
0.99998 1 1 0.99998
1 1 1 1
1 1 1 1
1 1 1 1
1 1 1 1
1 1 1 1
0.999986 1 1 0.999986
1 1 1 1
1 1 1 1
1 1 1 1
1 1 1 1
1 1 1 1
1 1 1 1
1.00783 1.00914 1 0.998702
1.00823 1.00969 1 0.998555
1.00942 1.011 1 0.998432
1.00909 1.01074 1 0.998369
1.01086 1.01247 1 0.998412
1.01128 1.01278 1 0.998519
1.01076 1.01211 1 0.998665
1.01126 1.01277 1 0.998502
1.01305 1.01445 1 0.998613
1.00826 1.01162 0.997896 0.998775
1.01077 1.0124 1 0.998384
1.00685 1.00841 1 0.998452
1.00637 1.00778 1 0.998593
0.999161 1 1 0.999161
0.999929 1 1.00109 0.998842
0.999535 1.0003 1.00078 0.998456
1.00691 1.00808 1 0.99883
1.0015 1.00284 1 0.998666
0.99916 1 1 0.99916
0.999138 1 1 0.999138
0.99919 1 1 0.99919
0.999956 1 1 0.999956
0.999671 1 1 0.999671
0.999403 1 1 0.999403
1.01006 1.01161 1 0.99847
0.999972 1 1 0.999972
0.999764 1 1 0.999764
1.00763 1.00912 1 0.998524
1.01008 1.01138 0.999975 0.998743
0.999756 1 1.00068 0.999076
1.00184 1 1.00327 0.998568
1.00005 1.00081 1.00084 0.998405
1.0056 1.00676 1 0.998852
0.99971 1 1 0.99971
0.999452 1 1 0.999452
0.999148 1 1 0.999148
1.00035 1 1.00114 0.99921
0.999043 1 1 0.999043
0.999258 1 1 0.999258
1.01189 1.01352 0.999795 0.998588
1.01181 1.0132 1 0.998633
1.00979 1.01167 0.999186 0.998961
1.00139 1.00275 1 0.998638
1.00134 1 1.00232 0.999026
1.00396 1.00011 1.00547 0.998388
0.99978 1 1 0.99978
0.999741 1 1 0.999741
0.999605 1 1 0.999605
0.999458 1 1 0.999458
0.999314 1 1 0.999314
0.999103 1 1 0.999103
1.00163 1 1.00267 0.998963
0.999226 1 1 0.999226
0.999447 1 1 0.999447
0.999222 1 1 0.999222
1.01042 1.01165 1 0.998785
1.0061 1.00728 1 0.998824
0.99903 1 1 0.99903
1.00247 1 1.00351 0.998967
1.00134 1.00276 1.00004 0.998545
1.00153 1 1.00308 0.998452
0.999327 1 1 0.999327
1.01172 1.01385 0.999145 0.998755
0.99908 1 1.00001 0.999074
1.00119 1 1.00241 0.998785
1.0131 1.01452 0.999734 0.99886
1.00579 1.00727 1 0.998533
1.00256 1.00072 1.00348 0.998359
0.999169 1 1 0.999169
1.01806 1.02177 0.997454 0.998913
0.998959 1 1.00001 0.998948
1.0023 1 1.00371 0.998599
1.00641 1.01058 0.997225 0.998639
1.00185 1.00129 1.00221 0.998355
1.00632 1.00886 0.998499 0.998989
0.999389 1 1 0.999389
0.99928 1 1 0.99928
0.999197 1 1 0.999197
0.999761 1 1 0.999761
0.999564 1 1 0.999564
0.999464 1 1 0.999464
0.999303 1 1 0.999303
0.999754 1 1 0.999754
0.999569 1 1 0.999569
0.99924 1 1 0.99924
0.999459 1 1 0.999459
0.999332 1 1 0.999332
0.99923 1 1 0.99923
0.999374 1 1 0.999374
0.999465 1 1 0.999465
0.999544 1 1 0.999544
0.999717 1 1 0.999717
0.999599 1 1 0.999599
0.999719 1 1 0.999719
0.999973 1 1 0.999973
0.999975 1 1 0.999975
1 1 1 1
0.999977 1 1 0.999977
1 1 1 1
1 1 1 1
1 1 1 1
1 1 1 1
1 1 1 1
0.999991 1 1 0.999991
0.999984 1 1 0.999984
1 1 1 1
1 1 1 1
1 1 1 1
1 1 1 1
1 1 1 1
1 1 1 1
1.01122 1.01256 1 0.998679
1.01172 1.01323 1 0.998509
1.01071 1.01231 1 0.99842
1.01168 1.0132 1 0.9985
1.01229 1.01371 0.999988 0.998615
1.00931 1.01214 0.998421 0.998781
1.01206 1.01384 0.999572 0.998675
1.00951 1.01596 0.994852 0.99879
1.01933 1.02358 0.996855 0.998987
0.999826 1 1 0.999826
1.00965 1.01119 1 0.998482
1.00715 1.00864 1 0.998523
1.01102 1.01232 1 0.998714
0.999737 1 1.00063 0.999105
1.00254 1 1.00401 0.998536
0.999948 1.00109 1.00045 0.998412
1.00508 1.00623 1 0.99885
0.99912 1 1 0.99912
0.999271 1 1 0.999271
0.999022 1 1 0.999022
0.999969 1 1 0.999969
0.999261 1 1 0.999261
0.999746 1 1 0.999746
0.999451 1 1 0.999451
0.999752 1 1 0.999752
1.0122 1.01382 0.999817 0.99859
0.999796 1 1 0.999796
0.99974 1 1 0.99974
0.999578 1 1 0.999578
1.01223 1.01367 0.999942 0.998637
1.00859 1.01045 0.999239 0.998923
1.00059 1 1.00156 0.999039
1.00395 1.00004 1.00553 0.998383
1.00166 1.00286 1.00016 0.998643
0.999476 1 1 0.999476
0.999306 1 1 0.999306
0.999888 1 1.0007 0.999187
1.00144 1 1.00245 0.998992
0.999118 1 1 0.999118
1.01183 1.01467 0.998557 0.998639
1.01083 1.01476 0.997374 0.998758
1.00463 1.00655 0.999324 0.998764
1.00346 1.00162 1.00332 0.998525
1.00372 1 1.00478 0.998949
0.999579 1 1 0.999579
0.999511 1 1 0.999511
0.999437 1 1 0.999437
0.999323 1 1 0.999323
0.999193 1 1 0.999193
1.00002 1 1.00101 0.99901
1.00486 1 1.00596 0.998909
0.999324 1 1 0.999324
0.999079 1 1 0.999079
1.01181 1.01387 0.999189 0.998773
1.01271 1.01419 0.999702 0.998844
1.00606 1.00752 1 0.99855
1.00121 1 1.00245 0.998765
1.00255 1.00058 1.0036 0.998367
0.999189 1 1 0.999188
1.01804 1.02223 0.99698 0.998917
0.999024 1 1.00007 0.998955
1.00253 1 1.00393 0.998608
1.00737 1.01089 0.99784 0.998681
1.00223 1.00119 1.00269 0.998348
1.0073 1.00981 0.998682 0.998834
0.999076 1 1 0.999076
1.00272 1.01358 0.990398 0.998881
1.0005 1 1.00159 0.998911
1.00487 1 1.00635 0.998525
1.00176 1.00223 1.00104 0.998492
0.960811 0.971417 0.99608 0.992974
0.995984 0.993591 1.00549 0.996932
0.985257 1.0045 0.981703 0.999125
0.910937 0.932866 0.981488 0.994912
0.902839 0.946567 0.95841 0.995194
0.999279 1 1 0.999279
0.999205 1 1 0.999205
0.999195 1 1 0.999195
0.999753 1 1 0.999753
0.999559 1 1 0.999559
0.999458 1 1 0.999458
0.999347 1 1 0.999347
0.999234 1 1 0.999234
0.99945 1 1 0.99945
0.999732 1 1 0.999732
0.999555 1 1 0.999555
0.999236 1 1 0.999236
0.99937 1 1 0.99937
0.99938 1 1 0.99938
0.9993 1 1 0.9993
0.999418 1 1 0.999418
0.999527 1 1 0.999527
0.999715 1 1 0.999715
0.999569 1 1 0.999569
0.999467 1 1 0.999467
0.99957 1 1 0.99957
0.999578 1 1 0.999578
0.999748 1 1 0.999748
0.999719 1 1 0.999719
0.999972 1 1 0.999972
0.999973 1 1 0.999973
1 1 1 1
0.999974 1 1 0.999974
1 1 1 1
1 1 1 1
1 1 1 1
1 1 1 1
1 1 1 1
0.999993 1 1 0.999993
0.99999 1 1 0.99999
1 1 1 1
0.999981 1 1 0.999981
1 1 1 1
1 1 1 1
1 1 1 1
1 1 1 1
1 1 1 1
1.01157 1.013 0.999969 0.998617
1.01204 1.01356 1 0.998499
1.01017 1.01256 0.998852 0.998786
1.00986 1.01572 0.99541 0.998813
1.01181 1.01357 0.999589 0.998675
1.0202 1.02434 0.997014 0.998942
1.02124 1.02366 0.999011 0.998632
0.975713 0.984914 0.994312 0.996326
1.01582 1.01935 0.997545 0.998984
0.999834 1 1 0.999834
0.999825 1 1 0.999825
0.999634 1 1 0.999634
0.999655 1 1 0.999655
1.01261 1.01414 0.999899 0.998593
1.01278 1.0142 0.999953 0.99864
1.0075 1.00915 0.999479 0.998885
0.999752 1 1.0007 0.999053
1.00373 1 1.00536 0.998378
1.00191 1.00313 1.00013 0.998648
1.00055 1 1.0014 0.999147
1.0012 1 1.00219 0.99902
0.999133 1 1 0.999133
0.99974 1 1 0.99974
0.999297 1 1 0.999297
0.999494 1 1 0.999494
0.999812 1 1 0.999812
0.999551 1 1 0.999551
1.01049 1.01286 0.999005 0.998656
0.999606 1 1 0.999606
0.999526 1 1 0.999526
0.999434 1 1 0.999434
1.01274 1.01579 0.998225 0.998769
1.00332 1.00544 0.999133 0.99876
1.00359 1 1.00465 0.998945
1.00311 1.00176 1.00285 0.99851
0.999327 1 1 0.999327
0.999202 1 1 0.999202
1.00375 1 1.00484 0.998909
1.00066 1 1.00167 0.998991
1.0182 1.02081 0.998777 0.998668
1.0018 1.01186 0.991291 0.998751
1.00278 1.00357 1.00073 0.998489
1.00189 1 1.00306 0.998825
0.999385 1 1 0.999385
0.999367 1 1 0.999367
0.999145 1 1 0.999145
1.00639 1 1.00759 0.998805
0.949851 0.968126 0.988259 0.992779
0.999208 1 1 0.999208
0.999076 1 1.00011 0.998963
1.0176 1.02253 0.996251 0.998921
1.0084 1.01113 0.99857 0.998723
1.00281 1.00117 1.0033 0.99834
1.00286 1 1.00424 0.998618
1.00781 1.01052 0.998642 0.998676
0.999146 1 1.00006 0.99909
1.00194 1.01314 0.990071 0.998869
1.0001 1 1.00118 0.998917
1.00461 1 1.00609 0.998527
1.00178 1.00305 1.00023 0.998504
0.958519 0.970796 0.994152 0.993161
0.991036 0.991906 1.00325 0.995882
0.9879 1.00434 0.984443 0.999175
0.917227 0.935532 0.98582 0.994536
0.892084 0.938798 0.955179 0.994829
0.999523 1 1.00039 0.999134
0.924682 0.941252 0.988143 0.994184
0.926665 0.949052 0.980747 0.995579
0.978957 1.00376 0.976382 0.998883
1.00413 1 1.00521 0.998927
1.00903 1.00026 1.01012 0.998663
0.988043 1.00236 0.986432 0.999279
0.967892 0.972802 1.00231 0.992657
0.990277 0.987981 1.00675 0.995605
0.903462 0.936735 0.969536 0.994784
0.935951 0.972766 0.965665 0.996365
0.999213 1 1 0.999213
0.999194 1 1 0.999194
0.999264 1 1 0.999264
0.999746 1 1 0.999746
0.999567 1 1 0.999567
0.999435 1 1 0.999435
0.999366 1 1 0.999366
0.999243 1 1 0.999243
0.999715 1 1 0.999715
0.999381 1 1 0.999381
0.999434 1 1 0.999434
0.999543 1 1 0.999543
0.999291 1 1 0.999291
0.999334 1 1 0.999334
0.999489 1 1.0002 0.999292
0.999425 1 1 0.999425
0.999556 1 1 0.999556
0.999568 1 1 0.999568
0.999452 1 1 0.999452
0.999441 1 1 0.999441
0.999441 1 1 0.999441
0.999383 1 1 0.999383
0.99935 1 1 0.99935
0.999549 1 1 0.999549
0.99957 1 1 0.99957
0.999746 1 1 0.999746
0.999557 1 1 0.999557
0.999736 1 1 0.999736
0.999972 1 1 0.999972
0.999718 1 1 0.999718
0.999972 1 1 0.999972
1 1 1 1
0.999973 1 1 0.999973
1 1 1 1
1 1 1 1
1 1 1 1
1 1 1 1
1 1 1 1
0.999829 1 1 0.999829
0.999994 1 1 0.999994
0.999993 1 1 0.999993
1 1 1 1
0.999989 1 1 0.999989
1 1 1 1
1 1 1 1
1 1 1 1
1 1 1 1
1 1 1 1
1.01107 1.0158 0.9965 0.998836
1.0116 1.01342 0.999537 0.998674
1.02161 1.02527 0.997523 0.998898
0.978123 0.984349 0.99673 0.996936
1.01525 1.01907 0.997232 0.999021
1.0218 1.02489 0.998363 0.998619
1.01932 1.02267 0.997962 0.99876
0.980761 0.986526 0.997068 0.997079
0.958959 0.971158 0.995379 0.992024
0.899267 0.929971 0.973103 0.993712
0.894669 0.934432 0.96217 0.995092
0.999625 1 1 0.999625
0.999834 1 1 0.999834
0.999825 1 1 0.999825
0.999625 1 1 0.999625
0.999504 1 1 0.999504
0.999533 1 1 0.999533
0.999636 1 1 0.999636
0.999642 1 1 0.999642
1.0089 1.01094 0.999311 0.998672
1.01481 1.01719 0.998876 0.99878
1.00224 1.00454 0.99896 0.998756
1.00358 1 1.00465 0.998942
1.00292 1.0017 1.00272 0.998496
1.00273 1 1.00383 0.99891
1.00138 1 1.00241 0.998971
0.99921 1 1 0.99921
0.999541 1 1 0.999541
0.999331 1 1 0.999331
0.999634 1 1 0.999634
0.99943 1 1 0.99943
1.01865 1.02166 0.998414 0.998644
0.9994 1 1 0.9994
0.999367 1 1 0.999367
1.0028 1.01065 0.993482 0.998741
1.0027 1.00393 1.00022 0.998551
1.00349 1 1.00471 0.998783
0.999232 1 1.00009 0.999138
1.0058 1 1.007 0.998809
1.01412 1.02107 0.994584 0.998599
0.989864 1.0033 0.98789 0.998698
0.999721 1 1.00103 0.998691
1.00667 1 1.00786 0.998822
0.999308 1 1 0.999308
0.99921 1 1 0.99921
1.00088 1 1.00191 0.99897
0.914542 0.941125 0.977128 0.994499
0.956071 0.969792 0.992551 0.993251
0.99923 1 1.00013 0.999104
0.999814 1 1.00089 0.998923
1.00204 1.01311 0.990203 0.998857
1.00186 1.00395 0.9994 0.998516
1.00423 1 1.00571 0.998529
0.959553 0.971813 0.99543 0.991918
0.991667 0.993102 1.00194 0.996619
0.990986 1.0044 0.987415 0.999223
0.912169 0.936786 0.979511 0.994089
0.880673 0.930021 0.952212 0.994463
0.999378 1 1.00024 0.999133
0.919713 0.944306 0.979218 0.994626
0.926954 0.946644 0.983639 0.995488
0.981611 1.00442 0.978398 0.998873
1.00352 1 1.00459 0.998937
1.00821 1.00016 1.00936 0.998705
0.981607 0.99989 0.982414 0.999289
0.968601 0.974111 1.00216 0.992205
0.988932 0.988196 1.00414 0.996616
0.905998 0.935617 0.974333 0.993852
0.935194 0.972848 0.965036 0.996124
1.00024 1 1.00106 0.999185
0.943596 0.950585 0.996307 0.996327
0.990336 0.991713 1.0008 0.997812
0.986848 1.00031 0.987361 0.99917
1.00909 1 1.00992 0.999186
1.00404 0.997474 1.00697 0.999623
0.981873 0.985789 0.998413 0.997611
0.970404 0.970491 1.00763 0.992334
0.926765 0.959025 0.972335 0.993856
0.956943 0.990502 0.968848 0.997184
0.999194 1 1 0.999194
0.999245 1 1 0.999245
0.999771 1 1.00042 0.99935
0.999715 1 1 0.999715
0.99956 1 1 0.99956
0.99945 1 1 0.99945
0.999381 1 1 0.999381
0.999282 1 1 0.999282
0.999556 1 1 0.999556
0.999345 1 1 0.999345
0.999424 1 1 0.999424
0.999542 1 1.00024 0.999297
0.999902 1 1.00055 0.999347
0.99942 1 1.00009 0.999334
0.999426 1 1 0.999426
0.999568 1 1 0.999568
0.999437 1 1 0.999437
0.999441 1 1 0.999441
0.99944 1 1 0.99944
0.999381 1 1 0.999381
0.999408 1 1 0.999408
0.999368 1 1 0.999368
0.999344 1 1 0.999344
0.999216 1 1 0.999216
0.999661 1 1.00056 0.999101
0.999277 1 1 0.999277
0.999348 1 1 0.999348
0.99951 1 1 0.99951
0.999548 1 1 0.999548
0.999736 1 1 0.999736
0.99957 1 1 0.99957
0.999746 1 1 0.999746
0.999971 1 1 0.999971
0.999724 1 1 0.999724
0.999972 1 1 0.999972
1 1 1 1
0.999972 1 1 0.999972
1 1 1 1
1 1 1 1
1 1 1 1
1 1 1 1
1 1 1 1
0.999844 1 1 0.999844
0.999993 1 1 0.999993
0.999829 1 1 0.999829
1 1 1 1
0.999994 1 1 0.999994
0.999992 1 1 0.999992
1 1 1 1
1 1 1 1
1 1 1 1
1 1 1 1
1 1 1 1
0.917563 0.938977 0.982285 0.994816
0.933473 0.950561 0.985983 0.995984
0.981095 0.985032 0.998628 0.997372
1.01497 1.01871 0.997269 0.999058
1.02235 1.02603 0.997813 0.998605
0.980274 0.985026 0.99709 0.99808
1.01993 1.02248 0.99873 0.99877
0.960865 0.972171 0.995225 0.993112
0.910587 0.933365 0.980783 0.994711
0.885951 0.931325 0.956325 0.994725
0.998548 1.00009 0.999789 0.998669
0.966023 0.972024 1.00082 0.993008
0.898109 0.933802 0.966913 0.994689
0.934359 0.969797 0.967513 0.995808
0.999458 1 1 0.999458
0.999636 1 1 0.999636
0.999833 1 1 0.999833
0.999617 1 1 0.999617
0.999519 1 1 0.999519
0.999481 1 1 0.999481
0.999533 1 1 0.999533
0.999563 1 1 0.999563
0.99962 1 1 0.99962
0.99963 1 1 0.99963
1.01918 1.02246 0.998168 0.998621
1.00295 1.00875 0.995505 0.998732
1.00253 1.00425 0.999683 0.998613
1.0049 1 1.00616 0.998742
1.00487 1 1.00607 0.998814
0.999285 1 1.00015 0.999131
0.999367 1 1 0.999367
0.999414 1 1 0.999414
1.01381 1.02121 0.994173 0.998577
0.999302 1 1 0.999302
0.999195 1 1 0.999195
0.991415 1.00323 0.989554 0.998655
1.00007 1 1.00133 0.998743
1.0056 1 1.00683 0.99878
1.0018 1 1.00284 0.998958
1.00697 1.00979 0.998497 0.998709
0.99577 1 0.996726 0.999041
1.00607 1 1.00719 0.998888
0.999289 1 1 0.999289
0.999188 1 1 0.999188
0.999051 1 1 0.999051
0.944153 0.953455 0.993662 0.99656
0.919196 0.940969 0.982791 0.993966
0.953801 0.970848 0.989614 0.992752
0.999132 1 1 0.999132
1.00287 1 1.00393 0.998948
0.98424 1.00492 0.980537 0.998863
1.00743 1 1.00869 0.998747
0.917036 0.942899 0.978535 0.993905
0.967551 0.973314 1.0005 0.993584
0.988198 0.989595 1.00294 0.995661
0.978932 0.997781 0.981791 0.999306
0.908439 0.934386 0.977352 0.994761
0.928323 0.949119 0.982638 0.995372
0.931029 0.971303 0.962513 0.995869
1.00041 1 1.00123 0.999184
0.941801 0.952134 0.992814 0.996307
0.991236 0.992276 1.00115 0.997809
0.989709 1.00013 0.990377 0.999196
1.00904 0.999996 1.00988 0.999182
1.00385 0.998624 1.00599 0.999243
0.982476 0.984919 1.00132 0.9962
0.966951 0.971102 1.00341 0.992337
0.929389 0.961792 0.971145 0.995021
0.950647 0.98462 0.968464 0.996936
1.00116 1 1.00166 0.999496
0.991015 0.992683 0.999907 0.998412
0.999438 0.996183 1.00451 0.998763
1.00937 0.9995 1.01016 0.999715
0.991717 0.987082 1.00595 0.998753
0.97067 0.972664 1.00591 0.992085
0.956555 0.975597 0.985087 0.995325
0.957893 0.995326 0.965441 0.996841
0.999226 1 1 0.999226
0.999716 1 1.00036 0.99936
1.00075 1 1.0013 0.999451
0.999556 1 1 0.999556
0.999424 1 1 0.999424
0.999355 1 1 0.999355
0.999583 1 1.00028 0.999302
0.999426 1 1 0.999426
0.999363 1 1.00003 0.999332
1.00029 1 1.00093 0.999362
1.00031 1 1.00086 0.999456
0.999546 1 1.00021 0.999333
0.999353 1 1 0.999353
0.999441 1 1 0.999441
0.999439 1 1 0.999439
0.999379 1 1 0.999379
0.99937 1 1 0.99937
0.999407 1 1 0.999407
0.999348 1 1 0.999348
0.999301 1 1 0.999301
0.999334 1 1 0.999334
0.999196 1 1 0.999196
0.999225 1 1 0.999225
0.999688 1 1.00057 0.99912
0.999547 1 1.0006 0.998946
0.999255 1 1 0.999255
0.999525 1 1.00038 0.999146
0.999298 1 1 0.999298
0.999431 1 1 0.999431
0.999347 1 1 0.999347
0.999509 1 1 0.999509
0.999712 1 1 0.999712
0.999546 1 1 0.999546
0.999735 1 1 0.999735
0.999969 1 1 0.999969
0.999745 1 1 0.999745
0.999971 1 1 0.999971
1 1 1 1
0.999972 1 1 0.999972
1 1 1 1
1 1 1 1
1 1 1 1
1 1 1 1
1 1 1 1
0.999781 1 1 0.999781
0.999991 1 1 0.999991
0.999815 1 1 0.999815
1 1 1 1
0.999993 1 1 0.999993
0.999829 1 1 0.999829
1 1 1 1
1 1 1 1
0.999994 1 1 0.999994
1 1 1 1
1 1 1 1
1 1 1 1
0.947261 0.954155 0.996068 0.996693
0.917779 0.940172 0.981826 0.994252
0.990829 0.993794 0.999291 0.997724
0.927147 0.946092 0.984115 0.995794
0.976174 0.983685 0.995552 0.996799
1.01976 1.02231 0.998718 0.998779
0.960681 0.972577 0.993516 0.994216
0.908822 0.934911 0.978128 0.993832
0.877643 0.928795 0.950289 0.994357
0.996237 0.99938 0.998677 0.998176
0.967244 0.971408 1.00324 0.992499
0.902761 0.93788 0.968638 0.99372
0.931656 0.968749 0.965876 0.995687
0.994311 0.997158 0.99902 0.998123
0.969377 0.969364 1.00788 0.992198
0.929088 0.962172 0.970526 0.994941
0.955641 0.991381 0.966987 0.996859
0.999362 1 1 0.999362
0.999474 1 1 0.999474
0.999647 1 1 0.999647
0.999535 1 1 0.999535
0.999386 1 1 0.999386
0.999493 1 1 0.999493
0.999533 1 1 0.999533
0.999546 1 1 0.999546
0.999579 1 1 0.999579
0.999605 1 1 0.999605
1.01401 1.02198 0.993635 0.998557
0.993824 1.00353 0.99171 0.998612
1.00038 1 1.00159 0.998794
1.00493 1 1.0062 0.998738
1.00283 1 1.00389 0.998946
0.99918 1 1 0.99918
0.999296 1 1 0.999296
0.99929 1 1 0.99929
1.00187 1.00856 0.994632 0.998729
0.999199 1 1 0.999199
0.999139 1 1.00009 0.999046
0.994085 1 0.995089 0.998991
1.00507 1 1.00619 0.998884
0.986594 1.00174 0.985752 0.999111
1.01057 1 1.01126 0.999316
0.999848 1 1.00081 0.999035
0.999214 1 1 0.999214
0.999063 1 1 0.999063
0.990152 0.991664 0.999768 0.998707
0.946597 0.953609 0.995913 0.996721
0.917595 0.940526 0.980681 0.994839
1.00062 1 1.00144 0.999183
1.0089 0.999958 1.00977 0.999177
0.991041 1 0.991814 0.999221
0.947707 0.954619 0.996119 0.996628
0.970932 0.969953 1.00898 0.992104
0.984381 0.986229 1.00088 0.997245
0.997863 0.998693 1.00033 0.998837
0.928542 0.959089 0.974144 0.993847
0.991354 0.991999 1.00155 0.997807
0.945498 0.980348 0.967366 0.996986
1.00135 0.999979 1.00187 0.999501
0.990058 0.991341 1.00008 0.998625
1.0017 0.99807 1.00487 0.998774
1.00912 0.999514 1.01003 0.999589
0.99096 0.987652 1.00502 0.998337
0.973913 0.975012 1.00705 0.991882
0.958844 0.998433 0.963106 0.997137
0.941072 0.967367 0.977988 0.994713
1.00247 0.999352 1.00341 0.999711
0.999074 0.99914 1.00033 0.999602
1.00919 1.00513 1.00511 0.998927
0.957833 0.992185 0.968413 0.996865
1.0011 0.988336 1.0133 0.999617
0.97817 0.976466 1.00934 0.992476
0.933922 0.953194 0.984513 0.995193
0.999638 1 1.00027 0.999371
1.0005 1 1.00109 0.999414
1.00312 1 1.00355 0.999566
0.999426 1 1 0.999426
0.99933 1 1 0.99933
1.00075 1 1.00138 0.999376
0.999355 1 1 0.999355
0.99966 1 1.00033 0.999335
1.00069 1 1.00126 0.999429
0.999851 1 1.00035 0.999496
0.999322 1 1 0.999322
0.999373 1 1 0.999373
0.999406 1 1 0.999406
0.999353 1 1 0.999353
0.999332 1 1 0.999332
0.999309 1 1 0.999309
0.99959 1 1.00029 0.999299
0.999232 1 1 0.999232
1.00143 1 1.00249 0.99895
0.999235 1 1 0.999235
0.999586 1 1.00047 0.999112
0.999692 1 1.00088 0.998816
0.999495 1 1.00056 0.998934
0.999185 1 1 0.999185
0.999549 1 1.0006 0.998953
0.999384 1 1 0.999384
0.999237 1 1 0.999237
0.999392 1 1.0002 0.99919
0.999319 1 1 0.999319
0.999449 1 1 0.999449
0.999672 1 1 0.999672
0.999508 1 1 0.999508
0.999711 1 1 0.999711
0.999963 1 1 0.999963
0.999734 1 1 0.999734
0.999967 1 1 0.999967
1 1 1 1
0.99997 1 1 0.99997
1 1 1 1
1 1 1 1
1 1 1 1
1 1 1 1
1 1 1 1
0.999696 1 1 0.999696
0.999947 1 1 0.999947
0.999779 1 1 0.999779
1 1 1 1
0.999974 1 1 0.999974
0.999786 1 1 0.999786
1 1 1 1
1 1 1 1
0.999994 1 1 0.999994
1 1 1 1
1 1 1 1
1 1 1 1
0.989353 0.991098 0.999662 0.998577
0.940125 0.953095 0.990006 0.996349
0.918821 0.938566 0.984877 0.993995
0.999493 1 1 0.999493
0.996957 0.993818 1.00422 0.998943
0.992387 0.993826 1.00083 0.997723
0.921289 0.945545 0.978686 0.995566
0.994616 0.999236 0.997736 0.997636
0.970629 0.973417 1.00426 0.99291
0.906919 0.94239 0.967553 0.994632
0.926456 0.966046 0.963322 0.995533
0.996775 0.999175 1.00085 0.99675
0.965488 0.96808 1.00487 0.992487
0.93286 0.962714 0.974298 0.994552
0.954827 0.990835 0.966923 0.996624
0.98708 0.988584 1.00254 0.995947
0.974549 0.968972 1.01474 0.991148
0.941594 0.968982 0.977281 0.994325
0.956759 0.994962 0.96466 0.996831
0.999276 1 1 0.999276
0.999353 1 1 0.999353
0.999491 1 1 0.999491
0.999377 1 1 0.999377
0.999406 1 1 0.999406
0.999504 1 1 0.999504
0.99955 1 1 0.99955
0.999596 1 1 0.999596
0.996328 1.00693 0.990712 0.998748
0.992067 1 0.993118 0.998942
0.999291 1 1 0.999291
1.00403 1 1.00515 0.99888
0.999351 1 1.00031 0.99904
0.999209 1 1 0.999209
0.999217 1 1 0.999217
0.991235 1.00341 0.988743 0.999118
0.999084 1 1 0.999084
1.00074 1 1.00171 0.999032
1.00645 1 1.00714 0.99932
0.999233 1 1 0.999233
0.983358 0.994986 0.988781 0.999527
1.01259 0.999518 1.01363 0.999454
0.999137 1 1 0.999137
0.999177 1 1 0.999177
0.999252 1.00021 0.99935 0.999691
0.989705 0.991229 0.999734 0.998728
0.949506 0.95385 0.998555 0.996886
1.00148 0.999992 1.00198 0.999507
1.0099 0.999579 1.01086 0.999465
0.988886 0.990043 0.999995 0.998837
0.975938 0.972742 1.01109 0.992279
0.990272 0.985381 1.0081 0.996887
0.944678 0.96988 0.979744 0.994153
1.00375 0.999703 1.00527 0.998785
0.96175 1.00314 0.96121 0.997434
1.00277 0.999437 1.00366 0.999678
0.997898 0.998339 0.999948 0.999611
1.00836 1.00437 1.00484 0.999133
1.00707 0.993264 1.01397 0.999931
0.955735 0.991381 0.967313 0.996621
0.975851 0.974621 1.00883 0.992494
0.940724 0.964571 0.981055 0.994111
1.00656 0.996437 1.01039 0.999771
1.0076 1.00674 1.00111 0.999736
0.997306 0.995267 1.00311 0.998947
0.935297 0.971193 0.967071 0.995831
0.941091 0.97056 0.975255 0.99424
0.993069 0.987141 1.00623 0.999772
0.979569 0.970511 1.01766 0.991821
1.00027 1 1.00089 0.999376
1.00223 1 1.00268 0.99955
1.00818 0.996025 1.01262 0.999582
0.999357 1 1 0.999357
0.999702 1 1.00037 0.999337
1.00094 1 1.00154 0.999403
0.999318 1 1 0.999318
0.99993 1 1.00043 0.999497
1.0044 0.999805 1.00523 0.999369
0.999329 1 1 0.999329
0.999316 1 1 0.999316
0.999996 1 1.00072 0.999276
1.00559 1 1.00657 0.99902
0.999267 1 1 0.999267
1.0009 1 1.00191 0.998995
1.00281 1 1.00412 0.998695
1.00052 1 1.00188 0.99865
0.999456 1 1.00035 0.999103
0.999698 1 1.00092 0.998782
0.999456 1 1.00045 0.999007
0.999741 1 1.00063 0.999113
0.999462 1 1.0005 0.998962
0.999337 1 1 0.999337
0.999187 1 1.00001 0.999181
0.999575 1 1.00062 0.998959
0.999616 1 1 0.999616
0.999378 1 1 0.999378
0.99922 1 1 0.99922
0.999467 1 1 0.999467
0.999671 1 1 0.999671
0.999952 1 1 0.999952
0.99971 1 1 0.99971
0.999961 1 1 0.999961
1 1 1 1
0.999966 1 1 0.999966
1 1 1 1
1 1 1 1
1 1 1 1
1 1 1 1
1 1 1 1
0.999661 1 1 0.999661
0.999921 1 1 0.999921
0.999712 1 1 0.999712
1 1 1 1
0.999946 1 1 0.999946
0.999778 1 1 0.999778
1 1 1 1
1 1 1 1
0.999958 1 1 0.999958
1 1 1 1
1 1 1 1
1 1 1 1
0.997006 0.997401 1.00002 0.999589
0.989169 0.990863 0.999705 0.998585
0.940574 0.953756 0.989769 0.996373
0.999499 1 1 0.999499
0.999462 1 1 0.999462
0.999392 1 1 0.999392
1.0089 1.00385 1.00611 0.998925
0.997568 0.994452 1.00418 0.998958
0.99363 0.993884 1.00203 0.997721
1.00256 0.999939 1.00478 0.997855
0.967501 0.969041 1.00619 0.992269
0.929029 0.959378 0.974329 0.993881
0.956527 0.992804 0.96665 0.9967
0.982128 0.983703 1.00126 0.997142
0.970385 0.968707 1.00966 0.992149
0.940914 0.964789 0.979884 0.995275
0.959125 0.998516 0.963313 0.997132
0.974073 0.978682 0.998463 0.996824
0.981244 0.972973 1.01635 0.992279
0.934391 0.952834 0.985376 0.995199
0.956046 0.989043 0.969392 0.997158
0.999264 1 1 0.999264
0.999274 1 1 0.999274
0.999344 1 1 0.999344
0.999376 1 1 0.999376
0.999427 1 1 0.999427
0.999555 1 1 0.999555
0.996402 1.00502 0.992297 0.999123
1.00231 1 1.00299 0.999324
0.999221 1 1 0.999221
1.00134 1 1.00231 0.999029
0.999104 1 1 0.999104
0.999222 1 1 0.999222
0.999181 1 1 0.999181
0.992676 0.997627 0.995516 0.999518
0.999177 1 1 0.999177
1.00949 0.997258 1.01279 0.99948
0.999245 1 1 0.999245
1.00754 0.989756 1.01821 0.999753
0.99473 0.994676 1.00044 0.999619
0.999247 1 1 0.999247
1.01004 1.0107 0.999502 0.999843
0.999122 1.00008 0.999306 0.999734
0.98956 0.990956 0.999841 0.998749
1.00299 0.99952 1.00383 0.999644
1.00184 0.994243 1.00779 0.999853
0.996998 0.997787 0.99959 0.999619
0.982518 0.976628 1.01129 0.994795
0.946788 0.964413 0.986231 0.995431
1.00737 1.00358 1.00444 0.999338
0.957052 0.993409 0.966585 0.996707
1.00622 0.997603 1.00885 0.999788
1.00783 1.00704 1.00102 0.999769
0.998334 0.995909 1.00348 0.998962
0.991558 0.983294 1.01032 0.998101
0.933013 0.970288 0.965722 0.995715
0.938826 0.967008 0.975558 0.995181
0.990348 0.976631 1.02184 0.992374
1.01564 0.990267 1.02574 0.999889
0.997491 0.997955 0.999943 0.999592
0.991793 0.995113 0.998921 0.99774
0.894761 0.935132 0.961506 0.995135
0.929776 0.961944 0.971449 0.994966
0.983514 0.975322 1.01625 0.992275
0.965776 0.97722 0.990748 0.997518
1.0012 1 1.00167 0.999534
1.01042 0.997188 1.01369 0.999586
1.01936 0.999862 1.01998 0.999529
0.999315 1 1 0.999315
1.00005 1 1.00055 0.999497
1.00375 0.999945 1.00442 0.999392
1.0137 1 1.01457 0.999141
1.00037 1 1.00112 0.999254
1.00562 1 1.00666 0.998971
1.01099 1 1.0124 0.998608
1.00047 1 1.00143 0.999039
1.00355 1 1.00487 0.998686
1.00345 1 1.00502 0.998431
1.00039 1.00005 1.00191 0.998433
0.999929 1 1.00107 0.998862
1.00048 1 1.00185 0.99863
0.999755 1 1.00101 0.998748
0.999713 1 1.0006 0.99911
0.999482 1 1.00044 0.999043
0.999485 1 1.00025 0.999236
0.999638 1 1.0005 0.999133
0.999393 1 1.0004 0.99899
0.999543 1 1 0.999543
0.999339 1 1 0.999339
0.999179 1 1 0.999178
0.999928 1 1 0.999928
0.999616 1 1 0.999616
0.999372 1 1 0.999372
0.99967 1 1 0.99967
0.999948 1 1 0.999948
1 1 1 1
0.999958 1 1 0.999958
1 1 1 1
1 1 1 1
1 1 1 1
1 1 1 1
1 1 1 1
0.999659 1 1 0.999659
0.999942 1 1 0.999942
0.999673 1 1 0.999673
1 1 1 1
0.999943 1 1 0.999943
0.999729 1 1 0.999729
1 1 1 1
1 1 1 1
0.999945 1 1 0.999945
1 1 1 1
1 1 1 1
1 1 1 1
1.00843 1.00654 1.00214 0.999734
0.99882 0.998367 1.00086 0.999598
0.989349 0.990576 1.00017 0.998594
0.999445 1 1 0.999445
0.999363 1 1 0.999363
0.999506 1 1 0.999506
0.99946 1 1 0.99946
0.999378 1 1 0.999378
0.999372 1 1 0.999372
0.999309 1 1 0.999309
0.999025 0.995221 1.00508 0.998752
1.00704 1.00255 1.00535 0.999131
0.998458 0.995073 1.00443 0.998973
0.962843 1.00305 0.962389 0.997433
0.97845 0.981765 1.00058 0.996043
0.976368 0.972787 1.01058 0.99317
0.943161 0.960579 0.987707 0.994087
0.973759 0.978941 0.998446 0.996255
0.974554 0.970384 1.01231 0.992086
0.942353 0.965057 0.982101 0.99427
0.950823 0.984753 0.968552 0.996895
0.964876 0.974295 0.99287 0.997444
0.971626 0.972157 1.00759 0.991927
0.959819 0.978357 0.98568 0.995305
0.934268 0.971497 0.965243 0.996308
0.999284 1 1 0.999284
0.999263 1 1 0.999263
0.999272 1 1 0.999272
0.999374 1 1 0.999374
1.00099 1.00021 1.00127 0.99951
1.00691 0.995269 1.0122 0.999505
0.999211 1 1 0.999211
0.999185 1 1 0.999185
0.999216 1 1 0.999216
0.999242 1 1 0.999242
0.999236 1 1 0.999236
1.00284 0.988289 1.01517 0.99956
0.996235 0.996116 1.00044 0.999681
0.999265 1 1 0.999265
1.00877 0.98493 1.02455 0.999658
1.00174 0.997815 1.00456 0.999385
0.999724 1.00028 0.999753 0.999693
1.00889 1.00956 0.999468 0.999865
0.998948 0.999838 0.999332 0.999777
1.00597 0.998679 1.00749 0.999805
0.992892 0.983255 1.01007 0.999729
1.00797 1.00725 1.00091 0.999803
0.978285 0.970116 1.01662 0.991935
0.942578 0.962542 0.985173 0.993997
0.999491 0.996566 1.00396 0.998976
0.92841 0.967398 0.963974 0.995565
1.01877 0.990544 1.02863 0.999873
0.998758 0.998679 1.00048 0.999601
0.993243 0.995146 1.00035 0.997739
0.969807 0.980088 0.990394 0.999108
0.886983 0.932321 0.956369 0.994774
0.930893 0.961144 0.973832 0.994552
0.986479 0.975149 1.01917 0.992589
1.00254 0.987032 1.01598 0.99973
0.990888 0.992253 1.00004 0.998588
0.934691 0.95155 0.986194 0.996033
0.899913 0.933704 0.96892 0.994725
0.977635 0.971024 1.01461 0.99231
0.960448 0.975212 0.988258 0.996562
1.01326 0.998822 1.01487 0.99959
1.01876 0.998551 1.02072 0.999522
1.01298 1 1.01358 0.999403
1.00303 1 1.00362 0.999416
1.01415 1 1.01499 0.99918
1.00918 1 1.01048 0.998707
1.00573 1 1.00682 0.998921
1.01063 1 1.01208 0.998573
1.00514 1 1.0068 0.998343
1.0042 1 1.00554 0.998677
1.00348 1 1.00508 0.998401
1.00217 1.00072 1.00316 0.998299
0.998722 1.00032 1 0.998406
0.999369 1 1.00077 0.998604
1.0006 1.00002 1.00218 0.998399
0.999125 1 1.00011 0.999013
0.99962 1 1.00074 0.998886
1.00043 1 1.00182 0.99861
0.999385 1 1.00023 0.999154
0.999803 1 1.0007 0.999103
0.999505 1 1.00043 0.999079
0.999444 1 1 0.999444
0.99939 1 1.00014 0.999254
0.999558 1 1.00041 0.999154
0.999873 1 1 0.999873
0.999544 1 1 0.999544
0.99934 1 1 0.99934
1 1 1 1
0.999923 1 1 0.999923
0.999615 1 1 0.999615
0.999944 1 1 0.999944
1 1 1 1
1 1 1 1
1 1 1 1
1 1 1 1
1 1 1 1
0.999442 1 1 0.999442
0.99963 1 1 0.99963
0.999927 1 1 0.999927
0.999659 1 1 0.999659
1 1 1 1
0.999946 1 1 0.999946
0.999685 1 1 0.999685
1 1 1 1
1 1 1 1
0.999964 1 1 0.999964
1 1 1 1
1 1 1 1
1 1 1 1
0.999412 0.998353 1.00146 0.999605
1.00857 1.00679 1.002 0.999768
1.00022 0.999343 1.00128 0.999607
0.999452 1 1 0.999452
0.999352 1 1 0.999352
0.999306 1 1 0.999306
0.999351 1 1 0.999351
0.999296 1 1 0.999296
0.999458 1 1 0.999458
0.999363 1 1 0.999363
0.999373 1 1 0.999373
0.999304 1 1 0.999304
0.999319 1 1 0.999319
0.988847 0.99012 1.00094 0.997776
1.00086 0.996745 1.00537 0.998765
1.00502 1.00127 1.00441 0.999336
0.946792 0.981532 0.967557 0.996951
0.944536 0.962062 0.986249 0.995471
0.966475 0.973835 0.99678 0.995648
0.977474 0.975972 1.00941 0.992207
0.966428 0.974715 0.99539 0.996091
0.982755 0.977724 1.01309 0.992153
0.945364 0.970427 0.979293 0.994773
0.933816 0.971752 0.964763 0.996059
0.981381 0.978636 1.00614 0.996681
0.974581 0.975948 1.00625 0.992399
0.926728 0.959165 0.972193 0.993816
0.900447 0.945553 0.95699 0.995095
0.999449 1 1 0.999449
0.999285 1 1 0.999285
0.999261 1 1 0.999261
0.998568 0.986504 1.01287 0.999366
0.996514 0.996361 1.00041 0.999748
0.999238 1 1 0.999238
0.999224 1 1 0.999224
0.999308 1 1.00003 0.999275
1.00244 0.998368 1.0047 0.99938
1.00693 0.984727 1.02288 0.999673
1.00375 1 1.00435 0.999395
1.00599 0.992353 1.01434 0.99941
0.990351 0.991666 1 0.998674
0.999682 1.00023 0.999712 0.999738
1.00769 1.0084 0.999408 0.999887
1.02119 0.99033 1.03131 0.999855
0.969741 0.980419 0.992008 0.997077
0.99977 0.999414 1.00075 0.99961
0.978146 0.974313 1.01319 0.990866
0.928751 0.958435 0.974958 0.993918
0.994476 0.995224 1.00151 0.997738
0.879811 0.930219 0.951125 0.994413
1.0029 0.987356 1.01598 0.999767
0.990868 0.99227 0.999993 0.998595
0.928268 0.947158 0.984147 0.995843
0.959989 0.97609 0.986135 0.997331
0.904068 0.937832 0.970038 0.993774
0.969555 0.969206 1.00879 0.991643
0.983321 0.987914 0.996027 0.999322
0.947812 0.954467 0.996278 0.996737
0.901029 0.930646 0.974252 0.993763
0.973536 0.971063 1.01042 0.99221
0.977266 0.981746 0.998011 0.997421
1.01771 0.997157 1.0211 0.999515
1.01528 1 1.0159 0.999394
0.993336 1 0.994269 0.999061
1.01438 1 1.01517 0.999218
1.00913 1 1.01038 0.998756
1.00202 1.0008 1.00272 0.998504
1.01014 1 1.01162 0.998538
1.00432 1.00002 1.00596 0.99835
0.999258 1.0008 1.00003 0.998424
1.00338 1 1.00502 0.998371
1.00202 1.00126 1.00245 0.99831
1.00159 1.00312 1 0.998467
1.00037 1.00181 1 0.998561
0.998562 1.00005 1.00002 0.998493
0.9988 1.00038 1 0.998416
0.998806 1 1 0.998806
0.999638 1 1.00107 0.99857
1.0008 1 1.00244 0.998365
0.999133 1 1 0.999133
0.999061 1 1.00002 0.999041
0.999228 1 1.00032 0.99891
0.999342 1 1 0.999342
0.999533 1 1.00037 0.999162
0.99989 1 1.0008 0.999096
0.999778 1 1 0.999778
0.999444 1 1 0.999444
0.99929 1 1.00002 0.999273
1 1 1 1
0.99987 1 1 0.99987
0.999545 1 1 0.999545
1 1 1 1
1 1 1 1
0.999919 1 1 0.999919
1 1 1 1
1 1 1 1
1 1 1 1
0.99939 1 1 0.99939
0.999594 1 1 0.999594
0.999434 1 1 0.999434
0.999915 1 1 0.999915
0.99963 1 1 0.99963
1 1 1 1
0.99993 1 1 0.99993
0.999659 1 1 0.999659
1 1 1 1
1 1 1 1
0.999949 1 1 0.999949
1 1 1 1
1 1 1 1
1 1 1 1
0.99142 0.992591 1 0.998821
0.998542 0.997785 1.00115 0.999614
1.00864 1.00695 1.00188 0.999802
0.9993 1 1 0.9993
0.999459 1 1 0.999459
0.999341 1 1 0.999341
0.999361 1 1 0.999361
0.999317 1 1 0.999317
0.999292 1 1 0.999292
0.999246 1 1 0.999246
0.999278 1 1 0.999278
0.999373 1 1 0.999373
0.999299 1 1 0.999299
0.999315 1 1 0.999315
0.999328 1 1 0.999328
0.926651 0.948419 0.981448 0.995516
0.989908 0.990783 1.00135 0.997772
1.00225 0.997811 1.00567 0.998778
0.930239 0.97094 0.962135 0.995787
0.950202 0.973892 0.981245 0.994324
0.971905 0.972174 1.00783 0.991961
0.968688 0.973731 0.997646 0.997168
0.981199 0.978048 1.00529 0.997941
0.890504 0.937615 0.954772 0.994746
0.979609 0.974643 1.01365 0.991563
0.926444 0.959351 0.970652 0.994897
0.980411 0.983106 0.999132 0.998124
0.973138 0.970302 1.01026 0.992739
0.898837 0.933586 0.967989 0.994619
1.00006 1 1.00041 0.999657
0.999451 1 1 0.999451
0.999285 1 1 0.999285
1.00761 0.987433 1.02076 0.999682
1.00406 0.999628 1.00506 0.999374
0.999335 1 1.00005 0.999284
1.00404 1 1.00465 0.999399
1.00489 0.99273 1.01281 0.999438
1.00634 0.997428 1.00939 0.999551
0.94465 0.95343 0.994629 0.996143
0.990684 0.991759 0.999986 0.99893
0.999624 1.00011 0.999735 0.999782
1.00295 0.98739 1.01596 0.999806
0.960074 0.977817 0.983922 0.997898
0.991016 0.992236 1.00017 0.998604
0.97479 0.971826 1.00988 0.99324
0.909397 0.943212 0.969305 0.994681
0.9214 0.946115 0.978163 0.995619
0.982471 0.988433 0.994598 0.999366
0.940517 0.95334 0.99012 0.996394
0.911739 0.932688 0.98267 0.994779
0.976701 0.978668 1.0019 0.996102
0.967978 0.970247 1.00525 0.992454
0.973018 0.99509 0.978375 0.999432
0.918255 0.940091 0.981808 0.994872
0.968885 0.972757 1.00325 0.992789
0.988974 0.991178 1.00189 0.995899
1.01846 1 1.01908 0.999384
0.989751 1 0.990638 0.999105
0.981634 1.0011 0.981635 0.998903
1.00939 1 1.0106 0.998805
1.00215 1.00101 1.00264 0.998503
1.00005 1.00192 0.999428 0.998703
1.00358 1.00001 1.00522 0.998357
0.999248 1.00044 1.00037 0.998438
1.00508 1.00637 1 0.99872
1.00194 1.00177 1.00185 0.998321
1.00147 1.003 1 0.998472
1.00362 1.00488 1 0.998746
1.00206 1.00329 1 0.99877
0.999303 1.00073 1 0.998574
1.00041 1.00184 1 0.998579
0.998664 1 1 0.998664
0.998576 1.00006 1 0.998518
0.998883 1.00046 1 0.998425
0.999029 1 1 0.999029
0.998938 1 1.00013 0.998808
0.999994 1 1.00146 0.998535
0.99928 1 1 0.99928
0.99913 1 1 0.99913
0.99907 1 1 0.99907
0.999664 1 1 0.999664
0.999344 1 1 0.999344
0.999686 1 1.00052 0.99917
1 1 1 1
0.999776 1 1 0.999776
0.999444 1 1 0.999444
1 1 1 1
1 1 1 1
0.999867 1 1 0.999867
1 1 1 1
1 1 1 1
1 1 1 1
0.999379 1 1 0.999379
0.999392 1 1 0.999392
0.999548 1 1 0.999548
0.999898 1 1 0.999898
0.999595 1 1 0.999595
0.999425 1 1 0.999425
1 1 1 1
0.999917 1 1 0.999917
0.99963 1 1 0.99963
1 1 1 1
1 1 1 1
0.999933 1 1 0.999933
1 1 1 1
1 1 1 1
1 1 1 1
0.944296 0.951682 0.995876 0.996348
0.990658 0.991814 1 0.998834
0.997881 0.997416 1.00084 0.999623
0.99929 1 1 0.99929
0.99927 1 1 0.99927
0.999242 1 1 0.999242
0.999372 1 1 0.999372
0.999328 1 1 0.999328
0.999288 1 1 0.999288
0.999277 1 1 0.999277
0.999244 1 1 0.999244
0.999186 1 1 0.999186
0.999314 1 1 0.999314
0.999311 1 1 0.999311
0.999329 1 1 0.999329
0.908911 0.931836 0.98053 0.994766
0.925415 0.945491 0.98326 0.99543
0.990734 0.991142 1.00182 0.99777
0.880481 0.929618 0.95248 0.994396
0.924841 0.956744 0.972686 0.9938
0.986703 0.980661 1.01272 0.993525
0.985439 0.976927 1.0122 0.996558
0.977774 0.980519 1.00039 0.996815
0.902118 0.93372 0.972264 0.993716
0.972374 0.970358 1.00915 0.992995
0.981434 0.981938 1.0024 0.997097
0.972418 0.973717 1.00624 0.992471
1.00749 1 1.00819 0.999304
0.999905 1 1.00027 0.999638
0.999453 1 1 0.999453
1.00113 0.990635 1.01113 0.999465
1.00434 1 1.00494 0.999403
1.00693 0.998298 1.00918 0.999475
1.00111 1.00067 1.00146 0.998977
0.914882 0.942334 0.976187 0.994551
0.946433 0.95311 0.99647 0.996512
0.991287 0.992177 0.999918 0.999184
0.980723 0.988803 0.992405 0.999419
0.976515 0.978473 1.00094 0.997062
0.941329 0.953968 0.990299 0.996416
0.971847 0.970847 1.00882 0.992274
0.910487 0.935448 0.979312 0.993877
0.976523 0.995615 0.981549 0.999261
0.918531 0.940648 0.982106 0.99428
0.970255 0.972424 1.00541 0.992403
0.990283 0.988068 1.00522 0.997041
0.991225 1.00202 0.990015 0.999207
0.958777 0.971987 0.99446 0.991905
0.9931 0.994543 1.00092 0.997633
0.986114 1 0.986954 0.999149
0.982537 1.00117 0.982483 0.998884
0.982499 1.00277 0.980895 0.998869
1.00195 1.00118 1.00227 0.998501
0.999739 1.0024 0.99865 0.998698
1.0051 1.00885 0.997246 0.999025
0.99932 1.00015 1.00071 0.998452
1.00552 1.00681 1 0.998717
1.00923 1.01027 1 0.99897
1.00138 1.0029 1 0.998477
1.00328 1.00454 1 0.998745
1.00394 1.00503 1 0.998917
1.00178 1.00291 1 0.998874
1.00193 1.00314 1 0.998793
1.00019 1.00145 1 0.998742
0.998884 1.00022 1 0.998661
0.999326 1.00075 1 0.998577
1.00039 1.0018 1 0.998597
0.99885 1 1 0.99885
0.998691 1 1 0.998691
0.998615 1.00007 1 0.998543
0.999209 1 1 0.999209
0.999025 1 1 0.999025
0.998972 1 1.00016 0.99881
0.999576 1 1 0.999576
0.999281 1 1 0.999281
0.999128 1 1 0.999128
0.999996 1 1 0.999996
0.999664 1 1 0.999664
0.999346 1 1 0.999346
1 1 1 1
1 1 1 1
0.999774 1 1 0.999774
1 1 1 1
1 1 1 1
1 1 1 1
0.999328 1 1 0.999328
0.999366 1 1 0.999366
0.9995 1 1 0.9995
0.999395 1 1 0.999395
0.999548 1 1 0.999548
0.999864 1 1 0.999864
1 1 1 1
0.9999 1 1 0.9999
0.999595 1 1 0.999595
1 1 1 1
1 1 1 1
0.999919 1 1 0.999919
1 1 1 1
1 1 1 1
1 1 1 1
0.924066 0.94023 0.988553 0.99419
0.942602 0.952484 0.993497 0.996103
0.989516 0.990659 1 0.998846
0.99928 1 1 0.99928
0.999229 1 1 0.999229
0.999283 1 1 0.999283
0.999221 1 1 0.999221
0.99921 1 1 0.99921
0.999276 1 1 0.999276
0.999243 1 1 0.999243
0.999192 1 1 0.999192
0.999154 1 1 0.999154
0.999195 1 1 0.999195
0.999146 1 1.00026 0.998889
0.999325 1 1 0.999325
0.999329 1 1 0.999329
0.968081 0.977647 0.99853 0.991673
0.914392 0.933767 0.984763 0.994403
0.926368 0.946944 0.982885 0.995306
0.902564 0.933117 0.972489 0.99462
0.975766 0.970361 1.01443 0.991271
0.980041 0.979605 1.00225 0.998202
0.984448 0.984844 1.00177 0.997829
0.971133 0.974395 1.00386 0.992817
0.988745 0.997124 0.994655 0.996925
1.00563 1.00132 1.0057 0.998613
1.00594 1 1.00666 0.999289
0.999619 1 1 0.999619
1.00698 0.999538 1.00804 0.999406
1.00013 1.00101 1.00017 0.998951
0.950817 0.970716 0.986641 0.992764
0.919341 0.941982 0.981807 0.994049
0.949116 0.953007 0.999029 0.996885
0.980291 0.996692 0.984445 0.999085
0.98928 0.986674 1.00673 0.995935
0.91926 0.939567 0.984292 0.994001
0.973014 0.973511 1.00679 0.992752
0.989099 1.00293 0.98701 0.999191
0.961387 0.973257 0.994813 0.992954
0.995394 0.996661 1.0023 0.996436
1.00292 1.00681 0.997327 0.998802
0.994536 0.996854 0.999277 0.998397
0.982933 1.00129 0.982784 0.998866
0.985319 1.0024 0.984108 0.998833
1.00338 1.01533 0.989321 0.998897
0.999587 1.00277 0.998126 0.998694
1.00366 1.00744 0.997225 0.999017
1.0107 1.01478 0.996902 0.999076
1.00588 1.00717 1 0.998714
1.00958 1.01065 0.999984 0.998957
1.00725 1.00829 0.999987 0.998984
1.00298 1.00424 1 0.998745
1.00402 1.00512 1 0.998906
1.00301 1.00412 1 0.998893
1.0018 1.0029 1 0.998901
1.0003 1.0015 1 0.998802
1.00187 1.00306 1 0.998816
1.00018 1.00145 1 0.998737
0.998976 1.00025 1 0.998722
0.998764 1 1 0.998764
0.998844 1.00019 1 0.998655
0.999339 1.00076 1 0.99858
0.999095 1 1 0.999095
0.998869 1 1 0.998869
0.998718 1 1 0.998718
0.999511 1 1 0.999511
0.999207 1 1 0.999207
0.999021 1 1 0.999021
0.999976 1 1 0.999976
0.999577 1 1 0.999577
0.999282 1 1 0.999282
1 1 1 1
0.999991 1 1 0.999991
0.999664 1 1 0.999664
1 1 1 1
0.999999 1 1 0.999999
1 1 1 1
0.999247 1 1 0.999247
0.999329 1 1 0.999329
0.999422 1 1 0.999422
0.999354 1 1 0.999354
0.999485 1 1 0.999485
0.999797 1 1 0.999797
0.999548 1 1 0.999548
0.999865 1 1 0.999865
1 1 1 1
1 1 1 1
1 1 1 1
0.999901 1 1 0.999901
1 1 1 1
1 1 1 1
1 1 1 1
0.965221 0.975152 0.996935 0.992859
0.919102 0.943094 0.979752 0.994701
0.947298 0.954373 0.996377 0.996196
0.999215 1 1 0.999215
0.999296 1 1 0.999296
0.999217 1 1 0.999217
0.999224 1 1 0.999224
0.99912 1 1 0.99912
0.999201 1 1 0.999201
0.999199 1 1 0.999199
0.999119 1 1 0.999119
0.999177 1 1 0.999177
0.999054 1 1 0.999054
1.00028 1.00135 1 0.998929
0.999147 1.00062 1.00011 0.998419
0.999335 1.00036 1.00006 0.998921
0.999335 1 1 0.999335
0.986015 0.993446 0.995386 0.99712
0.967103 0.975301 0.999063 0.992524
0.908782 0.934764 0.978209 0.993863
0.97378 0.973598 1.00794 0.992309
0.981185 0.985458 0.997179 0.99848
0.992275 0.996982 0.997093 0.99818
0.996361 1.00479 0.992814 0.99879
1.00275 1.00067 1.00337 0.998709
1.0049 1 1.00563 0.999274
0.997969 1.00112 0.997932 0.998918
0.981462 0.986386 0.998126 0.996877
0.958118 0.971911 0.992538 0.993219
0.917129 0.94146 0.979143 0.994906
0.988687 1.004 0.985559 0.999173
1.00081 0.99751 1.00596 0.997366
0.960966 0.973366 0.993176 0.994044
0.996962 1.00532 0.992862 0.998816
0.993161 0.996708 0.998518 0.997921
1.01041 1.01909 0.992811 0.99866
1.00978 1.01425 0.996947 0.998635
0.988417 1.00215 0.987484 0.998796
1.00473 1.01495 0.991034 0.998892
1.01279 1.01795 0.996048 0.998881
1.0024 1.00629 0.997124 0.99901
1.01093 1.01446 0.997448 0.999067
1.00901 1.01126 0.998894 0.998878
1.00994 1.01104 0.999964 0.998944
1.00659 1.00765 0.999982 0.998972
1.00479 1.00601 1 0.998792
1.00405 1.00516 1 0.998895
1.00274 1.00384 1 0.998902
1.00129 1.00255 1 0.998752
1.00178 1.00285 1 0.998928
1.00027 1.00145 1 0.998818
0.998961 1.00023 1 0.998729
1.00017 1.00144 1 0.998733
0.998975 1.00026 1 0.998717
0.998777 1 1 0.998777
0.998963 1 1 0.998963
0.998782 1 1 0.998782
0.998809 1.00016 1 0.99865
0.999424 1 1 0.999424
0.999094 1 1 0.999094
0.998888 1 1 0.998888
0.999942 1 1 0.999942
0.99951 1 1 0.99951
0.999204 1 1 0.999204
1 1 1 1
0.999967 1 1 0.999967
0.999579 1 1 0.999579
1 1 1 1
0.999986 1 1 0.999986
1 1 1 1
0.999158 1 1 0.999158
0.999257 1 1 0.999257
0.999354 1 1 0.999354
0.99933 1 1 0.99933
0.999413 1 1 0.999413
0.999708 1 1 0.999708
0.999471 1 1 0.999471
0.999798 1 1 0.999798
1 1 1 1
0.999866 1 1 0.999866
1 1 1 1
1 1 1 1
1 1 1 1
1 1 1 1
1 1 1 1
0.979007 0.986272 0.995431 0.99719
0.959018 0.972571 0.993356 0.99266
0.916894 0.942852 0.978413 0.993924
0.998978 1 1 0.998978
0.999224 1 1 0.999224
0.999227 1 1 0.999227
0.999195 1 1 0.999195
0.999114 1 1 0.999114
0.999209 1 1 0.999209
0.999083 1 1 0.999083
0.99916 1 1 0.99916
0.999085 1 1 0.999085
0.999715 1.00077 1 0.998946
1.0003 1.00176 1 0.998545
1.00386 1.00574 0.999972 0.998163
0.999541 1.00101 1.00013 0.998403
0.999657 1.00071 1 0.998952
1.00082 1.00638 0.99538 0.999086
0.987597 0.99502 0.995943 0.996583
0.970425 0.977118 0.999645 0.993504
0.992569 0.996851 0.998561 0.997139
1.00141 1.00654 0.996025 0.998873
1.00131 1.0002 1.00231 0.998806
1.00538 1.00666 0.999909 0.998822
0.981394 0.985341 0.998187 0.997804
0.955841 0.972011 0.99049 0.992806
0.990406 1.00346 0.988152 0.998829
0.992265 0.996336 0.998526 0.997384
1.01078 1.01949 0.992795 0.998654
1.00918 1.01237 0.998122 0.998727
1.01866 1.02298 0.997152 0.998617
1.01258 1.01494 0.999126 0.99855
1.00588 1.01426 0.992839 0.998888
1.01393 1.019 0.996138 0.99889
1.00749 1.01009 0.998685 0.998736
1.01109 1.01408 0.99799 0.999059
1.01005 1.012 0.999201 0.998876
1.00569 1.00709 0.999961 0.99865
1.00598 1.00704 0.99998 0.998961
1.00461 1.00581 1 0.998812
1.00323 1.00462 1 0.998619
1.0025 1.0036 1 0.99891
1.00118 1.00243 1 0.998752
0.999459 1.0008 1 0.998663
1.00026 1.00142 1 0.998833
0.999071 1.00034 1 0.998735
0.998732 1 1 0.998732
0.998969 1.00026 1 0.998712
0.998765 1 1 0.998765
0.998915 1 1 0.998915
0.999328 1 1 0.999328
0.998982 1 1 0.998982
0.9988 1 1 0.9988
0.999894 1 1 0.999894
0.999423 1 1 0.999423
0.999093 1 1 0.999093
1 1 1 1
0.999932 1 1 0.999932
0.99951 1 1 0.99951
1 1 1 1
0.999959 1 1 0.999959
1 1 1 1
0.99902 1 1 0.99902
0.99916 1 1 0.99916
0.999282 1 1 0.999282
0.999266 1 1 0.999266
0.99936 1 1 0.99936
0.999624 1 1 0.999624
0.999404 1 1 0.999404
0.999708 1 1 0.999708
0.999997 1 1 0.999997
0.999799 1 1 0.999799
1 1 1 1
1 1 1 1
1 1 1 1
1 1 1 1
1 1 1 1
1.00616 1.00997 0.99707 0.999148
0.979032 0.987467 0.995298 0.996142
0.962868 0.972192 0.997414 0.992977
0.999026 1 1 0.999026
0.998989 1.00026 1 0.99873
0.998997 1 1 0.998997
0.999189 1 1 0.999189
0.999106 1 1 0.999106
0.999178 1 1 0.999178
1.00101 1.00235 1 0.998665
0.999117 1 1 0.999117
0.998986 1.00002 1 0.998962
1.00039 1.00181 1 0.998575
1.00357 1.00538 1 0.998194
1.01009 1.01226 0.999399 0.998463
1.00262 1.0045 0.999958 0.99817
0.999855 1.00147 1 0.998386
1.00374 1.00903 0.99562 0.999135
0.986083 0.994284 0.995809 0.995926
1.00456 1.00773 0.997898 0.998956
1.01047 1.01163 0.999894 0.998956
1.00375 1.00538 0.999503 0.998873
0.978157 0.98512 0.99632 0.9966
1.01105 1.02011 0.992459 0.998649
1.00793 1.01038 0.998758 0.998818
1.01825 1.02311 0.996594 0.99865
1.01414 1.01627 0.999334 0.998575
1.00927 1.01257 0.998118 0.998618
1.01453 1.01583 1 0.998724
1.01501 1.02015 0.996057 0.9989
1.00742 1.0102 0.9985 0.998741
1.0073 1.00936 0.999395 0.998559
1.011 1.01264 0.999505 0.998873
1.0056 1.00696 0.999989 0.998657
1.00568 1.00717 1 0.998517
1.00441 1.00558 1 0.998833
1.00309 1.00448 1 0.998617
1.00082 1.00227 1 0.998552
1.00105 1.0023 1 0.998752
0.999709 1.00105 1 0.998662
0.998697 1.00003 1 0.998663
0.999181 1.00044 1 0.99874
0.998733 1 1 0.998733
0.998861 1 1 0.998861
0.998753 1 1 0.998753
0.998909 1 1 0.998909
0.999252 1 1 0.999252
0.999844 1 1 0.999844
0.999327 1 1 0.999327
0.999001 1 1 0.999001
1 1 1 1
0.999885 1 1 0.999885
0.999422 1 1 0.999422
1 1 1 1
0.999923 1 1 0.999923
1 1 1 1
0.998815 1 1 0.998815
0.999 1 1 0.999
0.999163 1 1 0.999163
0.999163 1 1 0.999163
0.999284 1 1 0.999284
0.99955 1 1 0.99955
0.999366 1 1 0.999366
0.999623 1 1 0.999623
0.999979 1 1 0.999979
0.999707 1 1 0.999707
0.999999 1 1 0.999999
1 1 1 1
1 1 1 1
1 1 1 1
1 1 1 1
1.00954 1.01156 0.999194 0.998808
1.00522 1.00919 0.997017 0.999042
0.978443 0.986214 0.995237 0.996868
1.00111 1.00243 1 0.998685
0.999135 1 1 0.999135
1.00131 1.00276 1 0.998553
0.998865 1.00015 1 0.998718
0.999017 1 1 0.999017
1.00753 1.00924 1 0.998307
0.999147 1 1 0.999147
1.00099 1.00235 1 0.998634
1.00886 1.01056 1 0.99832
1.00048 1.00188 1 0.998605
1.00429 1.00613 1 0.998171
1.00805 1.01008 0.99953 0.998463
1.00104 1.00287 1 0.998176
1.00602 1.01097 0.995916 0.999186
1.01399 1.01517 1 0.998834
1.01052 1.01172 0.999864 0.998953
1.00267 1.00409 0.999669 0.998923
1.01813 1.02345 0.99611 0.998684
1.01575 1.01767 0.999512 0.998599
1.00981 1.01291 0.998313 0.998625
1.01497 1.01626 1 0.998733
1.01318 1.01457 1 0.998638
1.00741 1.01033 0.998364 0.998746
1.00738 1.00914 0.999686 0.998565
1.00857 1.0101 1 0.998486
1.00551 1.00686 1 0.998664
1.00528 1.00678 1 0.998509
1.00316 1.00471 1 0.998457
1.00296 1.00435 1 0.998615
1.00105 1.0025 1 0.99855
0.998819 1.00025 1 0.99857
0.999967 1.00131 1 0.998661
0.998736 1.00007 1 0.998663
0.998781 1 1 0.998781
0.998734 1 1 0.998734
0.998862 1 1 0.998862
0.999182 1 1 0.999182
0.998903 1 1 0.998903
0.999251 1 1 0.999251
0.999821 1 1 0.999821
0.999977 1 1 0.999977
0.999842 1 1 0.999842
0.999327 1 1 0.999327
1 1 1 1
0.999875 1 1 0.999875
1 1 1 1
1.00203 1.00344 1 0.998591
0.998839 1.00013 1 0.998709
0.998794 1 1 0.998794
0.999041 1 1 0.999041
0.998979 1 1 0.998979
0.999167 1 1 0.999167
0.999475 1 1 0.999475
0.999286 1 1 0.999286
0.999551 1 1 0.999551
0.999944 1 1 0.999944
0.999623 1 1 0.999623
0.999986 1 1 0.999986
1 1 1 1
1 1 1 1
1 1 1 1
1 1 1 1
1.01246 1.01384 1 0.998631
1.01278 1.01451 0.999425 0.998869
1.00553 1.00956 0.997069 0.998935
1.00645 1.00807 1 0.998398
1.00032 1.00156 1 0.998755
0.999243 1 1 0.999243
1.00156 1.00299 1 0.998577
0.998729 1.00002 1 0.998706
1.01331 1.01505 1 0.998286
1.00717 1.00891 1 0.998277
1.00101 1.00241 1 0.998603
1.0095 1.0112 1 0.998312
1.00567 1.00753 1 0.998148
1.00777 1.00975 0.999566 0.998464
1.01632 1.01763 1 0.99872
1.01405 1.01524 1 0.998827
1.01089 1.01207 0.999884 0.99895
1.01027 1.01317 0.998503 0.998633
1.01572 1.017 1 0.998741
1.01363 1.01516 0.999846 0.99865
1.01333 1.01482 1 0.998531
1.00749 1.00896 0.999966 0.99857
1.00803 1.00956 1 0.998482
1.00637 1.00796 1 0.998427
1.0049 1.00641 1 0.998501
1.00326 1.00481 1 0.998457
0.99943 1.00094 1 0.998488
1.00126 1.00272 1 0.998548
0.998977 1.00041 1 0.998569
0.998695 1 1 0.998695
0.998775 1.00011 1 0.998663
0.998781 1 1 0.998781
0.999102 1 1 0.999102
0.998864 1 1 0.998864
0.999181 1 1 0.999181
0.999802 1 1 0.999802
0.99925 1 1 0.99925
0.999815 1 1 0.999815
0.999972 1 1 0.999972
0.999988 1 1 0.999988
0.99984 1 1 0.99984
1 1 1 1
1.00404 1.00563 1 0.998418
0.998911 1.00021 1 0.998698
1.00164 1.00297 1 0.99868
0.998913 1 1 0.998913
0.998936 1.00023 1 0.998706
0.998774 1 1 0.998774
0.999042 1 1 0.999042
0.999382 1 1 0.999382
0.99917 1 1 0.99917
0.999476 1 1 0.999476
0.999903 1 1 0.999903
0.999551 1 1 0.999551
0.999955 1 1 0.999955
1 1 1 1
0.999992 1 1 0.999992
1 1 1 1
1 1 1 1
1.01511 1.01662 1 0.998508
1.01192 1.01331 1 0.998629
1.01436 1.01583 0.999619 0.998928
1.01112 1.01283 1 0.998312
1.00615 1.00777 1 0.998401
0.999531 1.00071 1 0.998824
1.00182 1.00323 1 0.998601
1.013 1.01475 1 0.998281
1.00668 1.00844 1 0.998247
1.00881 1.01053 1 0.998304
1.01482 1.01626 1 0.998586
1.01602 1.01735 1 0.998691
1.0136 1.01479 1 0.998821
1.01362 1.01516 1 0.998486
1.0139 1.01557 0.999696 0.998662
1.01325 1.01474 1 0.998531
1.0098 1.01136 1 0.998456
1.00749 1.00903 1 0.998478
1.00647 1.00805 1 0.998429
1.00113 1.0027 1 0.998437
1.00333 1.00488 1 0.998456
0.999844 1.00136 1 0.998488
0.998622 1 1 0.998622
0.999134 1.00057 1 0.998567
0.998694 1 1 0.998694
0.999022 1 1 0.999022
0.998781 1 1 0.998781
0.9991 1 1 0.9991
0.999784 1 1 0.999784
0.999179 1 1 0.999179
0.999797 1 1 0.999797
0.99997 1 1 0.99997
0.99981 1 1 0.99981
0.999973 1 1 0.999973
1 1 1 1
1.00568 1.00737 1 0.998321
0.999825 1.00131 1 0.998515
1.00397 1.00553 1 0.998449
0.998846 1 1 0.998846
0.998966 1.00027 1 0.998695
1.00126 1.0025 1 0.998767
0.999255 1 1 0.999255
0.998911 1 1 0.998911
0.999035 1.00033 1 0.998703
0.999043 1 1 0.999043
0.999383 1 1 0.999383
0.999855 1 1 0.999855
0.999478 1 1 0.999478
0.999912 1 1 0.999912
1 1 1 1
0.999966 1 1 0.999966
1 1 1 1
1 1 1 1
1.01339 1.01496 1 0.998446
1.01523 1.01677 1 0.99849
1.01242 1.01381 1 0.998627
1.01095 1.01266 1 0.998312
1.00586 1.00746 1 0.998403
1.01292 1.01467 1 0.998276
1.01304 1.01458 1 0.998485
1.01496 1.0164 1 0.998583
1.0159 1.01726 1 0.998661
1.01388 1.01541 1 0.998492
1.01084 1.01243 1 0.998432
1.01314 1.01463 1 0.998531
1.00983 1.0114 1 0.998449
1.00327 1.00485 1 0.99843
1.00657 1.00815 1 0.998431
1.0015 1.00307 1 0.998439
0.998693 1.00014 1 0.998558
1.00027 1.00179 1 0.998488
0.998633 1.00001 1 0.998621
0.998964 1 1 0.998964
0.998693 1 1 0.998693
0.999021 1 1 0.999021
0.99976 1 1 0.99976
0.999098 1 1 0.999098
0.999778 1 1 0.999778
0.999965 1 1 0.999965
0.999793 1 1 0.999793
0.999973 1 1 0.999973
0.999974 1 1 0.999974
1.00841 1.01002 1 0.998412
1.00062 1.00223 1 0.99839
1.00565 1.00734 1 0.998317
0.998698 1 1 0.998698
0.99962 1.00109 1 0.998527
1.00385 1.00538 1 0.998481
0.999136 1 1 0.999136
0.998813 1 1 0.998813
0.999033 1.00034 1 0.998693
0.9998 1 1 0.9998
0.999257 1 1 0.999257
0.998909 1 1 0.998909
0.999385 1 1 0.999385
0.999863 1 1 0.999863
1 1 1 1
0.999922 1 1 0.999922
1 1 1 1
1 1 1 1
1.01181 1.0134 1 0.998427
1.01327 1.01485 1 0.998442
1.01517 1.01673 1 0.998472
1.01077 1.01248 1 0.998313
1.01124 1.01286 1 0.998405
1.01348 1.01501 1 0.998491
1.01511 1.01656 1 0.998579
1.01412 1.01564 1 0.998498
1.01078 1.01236 1 0.998435
1.00447 1.00605 1 0.998425
1.00988 1.01145 1 0.998443
1.00334 1.00492 1 0.998433
0.999166 1.00066 1 0.998507
1.00186 1.00342 1 0.998441
0.998829 1.00027 1 0.998559
0.99891 1 1 0.99891
0.998648 1.00003 1 0.998621
0.998963 1 1 0.998963
0.999713 1 1 0.999713
0.99902 1 1 0.99902
0.999745 1 1 0.999745
1 1 1 1
0.999772 1 1 0.999772
0.999968 1 1 0.999968
0.999973 1 1 0.999973
1.00839 1.00997 1 0.998436
1.00149 1.00308 1 0.998417
1.00839 1.00999 1 0.998414
0.998642 1.0001 1 0.998546
1.00041 1.00201 1 0.998407
1.00563 1.00733 1 0.998313
0.998981 1 1 0.998981
0.998696 1 1 0.998696
0.999441 1.0009 1 0.998539
0.999753 1 1 0.999753
0.999108 1 1 0.999108
0.99878 1 1 0.99878
1 1 1 1
0.999809 1 1 0.999809
0.999259 1 1 0.999259
0.999872 1 1 0.999872
1 1 1 1
1 1 1 1
1.01046 1.01207 1 0.998409
1.01224 1.01382 1 0.998436
1.01315 1.01474 1 0.998439
1.00514 1.00677 1 0.998381
1.01072 1.01234 1 0.998405
1.01393 1.01546 1 0.998497
1.01073 1.01231 1 0.998438
1.00449 1.00608 1 0.998425
0.999892 1.00137 1 0.99852
1.00342 1.00499 1 0.998436
0.99934 1.00081 1 0.998535
0.998802 1 1 0.998802
0.99897 1.00041 1 0.99856
0.99891 1 1 0.99891
0.999676 1 1 0.999676
0.998962 1 1 0.998962
0.999711 1 1 0.999711
1 1 1 1
0.999729 1 1 0.999729
0.99998 1 1 0.99998
0.999971 1 1 0.999971
1.00672 1.00829 1 0.998436
1.0016 1.00315 1 0.998453
1.00836 1.00994 1 0.998437
0.99871 1.00016 1 0.998553
1.0017 1.00329 1 0.998419
1.00838 1.00998 1 0.998417
0.998893 1 1 0.998893
0.998646 1.00006 1 0.998582
1.00018 1.00176 1 0.998423
0.999723 1 1 0.999723
0.99897 1 1 0.99897
0.998695 1 1 0.998695
1 1 1 1
0.999761 1 1 0.999761
0.999079 1 1 0.999079
1 1 1 1
0.999819 1 1 0.999819
1 1 1 1
1.00488 1.00649 1 0.998403
1.0101 1.01171 1 0.998409
1.01271 1.01429 1 0.998445
0.999631 1.00115 1 0.998486
1.00511 1.00674 1 0.998386
1.01025 1.01186 1 0.998404
1.00453 1.00611 1 0.998425
0.999882 1.00136 1 0.998519
0.99875 1 1 0.99875
0.999506 1.00094 1 0.998563
0.998829 1 1 0.998829
0.999619 1 1 0.999619
0.99891 1 1 0.99891
0.999673 1 1 0.999673
1 1 1 1
0.999709 1 1 0.999709
1 1 1 1
0.999965 1 1 0.999965
1.00191 1.00345 1 0.998464
1.0067 1.00828 1 0.998436
0.998623 1.00007 1 0.998553
1.00164 1.0032 1 0.998453
1.0083 1.00988 1 0.998438
0.998898 1 1 0.998898
0.998709 1.00016 1 0.998551
1.00191 1.00349 1 0.998421
0.999698 1 1 0.999698
0.998912 1 1 0.998912
0.998645 1.00003 1 0.998617
1 1 1 1
0.999727 1 1 0.999727
0.998958 1 1 0.998958
1 1 1 1
0.999769 1 1 0.999769
1 1 1 1
0.99929 1.00078 1 0.998514
1.00474 1.00634 1 0.998404
1.00966 1.01127 1 0.998409
0.99873 1 1 0.99873
0.999624 1.00114 1 0.998486
1.00504 1.00666 1 0.998392
0.999869 1.00135 1 0.998519
0.998756 1 1 0.998756
0.999567 1 1 0.999567
0.998856 1 1 0.998856
0.999616 1 1 0.999616
1 1 1 1
0.999671 1 1 0.999671
1 1 1 1
1 1 1 1
0.998634 1.0001 1 0.998539
1.00179 1.00334 1 0.998459
1.0067 1.00828 1 0.998435
0.998874 1 1 0.998874
0.998673 1.00012 1 0.998552
1.00168 1.00323 1 0.998453
0.999669 1 1 0.999669
0.998897 1 1 0.998897
0.998715 1.00017 1 0.998548
1 1 1 1
0.999701 1 1 0.999701
0.998932 1 1 0.998932
1 1 1 1
0.999732 1 1 0.999732
1 1 1 1
0.998789 1 1 0.998789
0.999269 1.00078 1 0.998487
1.00462 1.00623 1 0.998406
0.999548 1 1 0.999548
0.998732 1 1 0.998732
0.999619 1.00114 1 0.998486
0.998761 1 1 0.998761
0.999565 1 1 0.999565
1 1 1 1
0.999612 1 1 0.999612
1 1 1 1
1 1 1 1
0.998834 1 1 0.998834
0.998626 1.0001 1 0.998528
1.00168 1.00323 1 0.998453
0.999675 1 1 0.999675
0.998872 1 1 0.998872
0.998724 1.00017 1 0.99855
1 1 1 1
0.99967 1 1 0.99967
0.998896 1 1 0.998896
1 1 1 1
0.999704 1 1 0.999704
1 1 1 1
0.999547 1 1 0.999547
0.998769 1 1 0.998769
0.999248 1.00079 1 0.99846
1 1 1 1
0.999547 1 1 0.999547
0.998733 1 1 0.998733
0.999563 1 1 0.999563
1 1 1 1
1 1 1 1
0.999631 1 1 0.999631
0.998835 1 1 0.998835
0.998614 1.0001 1 0.998517
1 1 1 1
0.999636 1 1 0.999636
0.998871 1 1 0.998871
1 1 1 1
0.999671 1 1 0.999671
1 1 1 1
0.999893 1 1 0.999893
0.999584 1 1 0.999584
0.998748 1 1 0.998748
1 1 1 1
0.999547 1 1 0.999547
1 1 1 1
0.999911 1 1 0.999911
0.999616 1 1 0.999616
0.998835 1 1 0.998835
0.999961 1 1 0.999961
0.999634 1 1 0.999634
1 1 1 1
1 1 1 1
0.999559 1 1 0.999559
1 1 1 1
0.999952 1 1 0.999952
0.999593 1 1 0.999593
1 1 1 1
1 1 1 1
1 1 1 1

VECTORS lamdaE float
0.999425 1.00027 0.99598
0.9994 0.999842 0.998322
0.999253 1.00045 0.99609
0.999761 0.99992 0.995891
0.999548 1.00012 0.995999
0.999349 1.00016 0.99611
1.00047 1.00069 0.993487
0.999388 0.999718 0.998374
0.999407 1.00033 0.998289
0.999105 1.00031 0.998432
0.999458 0.999415 0.996737
1.00017 1.00088 0.993474
0.999895 1.00001 0.99552
0.999589 0.999915 0.995911
0.999085 1.00069 0.996179
0.999622 0.999894 0.996024
0.999213 1.00034 0.996202
0.999379 1.00023 0.99611
1.00057 1.0006 0.993456
0.999854 1 0.997966
0.999806 0.999966 0.995746
0.999687 0.99996 0.995968
1.001 0.999908 0.993355
1.00074 1.00027 0.993455
0.999381 0.999696 0.996458
1.00009 1.00104 0.993719
1.0025 1.00076 0.989884
0.999362 0.999598 0.998438
0.999505 1.00019 0.997061
0.999229 1.00026 0.997264
0.999415 0.999236 0.998541
1.00007 1.00099 0.993486
0.999755 0.999924 0.995797
0.999481 1.00047 0.995917
1.00105 1.00025 0.993614
0.999327 0.998629 0.998888
1.00049 1.00079 0.994053
0.999952 1.00073 0.993984
1.00124 1.00203 0.990404
0.999421 0.997984 0.999095
0.999893 1.00001 0.997929
0.999698 0.999973 0.996965
0.999919 1 0.997902
0.999599 1.00001 0.995864
1.00135 1.00006 0.992058
0.999622 0.999974 0.998242
1.00129 1 0.99341
0.999483 0.999845 0.996156
0.999222 1.00036 0.996207
0.999052 1.00058 0.996312
1.00066 1.00047 0.993435
0.999786 1.00001 0.996849
0.999662 0.999947 0.995896
0.999264 0.999818 0.996553
0.999536 0.999985 0.996089
1.00106 0.999872 0.993304
1.00019 1.00097 0.993711
1.00083 1.00019 0.993415
1.00253 1.00081 0.989837
0.999876 1 0.997938
0.999875 1.00001 0.995581
1.00122 1.00001 0.993438
1.00104 0.999971 0.993199
1.00093 0.999984 0.993407
1.00324 0.999807 0.989476
1.00294 1.00012 0.989439
0.999514 0.998971 0.99693
0.999619 1.00109 0.994395
1.00172 1.00158 0.990417
1.00358 1.00062 0.98752
0.999605 1.0002 0.998118
0.999395 0.999035 0.998661
0.999335 1.00004 0.998294
0.999983 1.00108 0.993496
0.999774 1.00003 0.998085
0.999499 1.00032 0.998153
1.00095 1.00022 0.992552
0.999375 0.998714 0.998062
1.00031 1.00089 0.993109
0.999865 1.00074 0.994535
1.00124 1.002 0.990401
0.999441 0.998303 0.998941
0.99959 0.999251 0.996132
1.0012 0.99993 0.992451
1.00077 1.00056 0.992674
1.00318 1.00023 0.988574
0.99972 1.00026 0.995648
1.00191 1.00142 0.989776
1.00066 1.00251 0.991015
1.00191 1.00233 0.988766
0.999448 0.99766 0.999197
0.999394 0.997925 0.999134
0.999813 0.999969 0.998042
0.999867 1 0.997957
0.999919 1 0.99791
0.999722 0.999996 0.996912
1.00135 1.00004 0.992675
0.999703 0.999953 0.996994
1.00125 1.00002 0.992886
0.999929 1 0.997904
1.00135 0.999994 0.992074
1.00133 1.00008 0.993307
1.00363 0.999867 0.988119
1.00126 0.999927 0.993507
1.0035 0.99988 0.988369
0.999869 1.00002 0.99558
0.999513 0.999904 0.996051
0.999143 0.999923 0.996669
0.999389 1 0.996204
1.00112 0.99986 0.993253
1.00091 1.0001 0.993383
1.0003 1.00083 0.993695
1.00255 1.00086 0.98979
0.99991 1 0.997919
0.999717 1 0.995741
1.0013 0.999996 0.992483
1.0011 0.999941 0.993149
0.999418 0.999039 0.997784
0.999802 1.00098 0.994526
1.001 0.999938 0.993361
1.00326 0.999786 0.989347
1.00179 1.00164 0.990313
1.00294 1.0002 0.989537
1.00354 1.00063 0.987539
1.00133 1.00002 0.992111
1.00115 0.999993 0.992971
1.00357 0.999787 0.988621
1.00329 0.999834 0.989083
1.0032 0.999806 0.989292
1.00437 0.999467 0.987473
0.999485 0.998488 0.998838
1.00401 0.999927 0.987402
0.999669 1.0007 0.99446
1.00075 1.00224 0.990924
1.00284 1.00181 0.987791
1.00429 1.00019 0.986629
0.999699 0.999794 0.995313
1.00014 1.00172 0.992663
0.999742 1.00006 0.99809
0.99941 1.00025 0.998197
1.00095 1.0002 0.992562
0.9994 0.998546 0.99888
0.999741 1.00088 0.994136
1.00023 1.00097 0.993107
1.00124 1.00197 0.990398
0.999404 0.998245 0.998998
0.999596 0.99918 0.996168
1.0012 0.999961 0.993003
1.00071 1.00056 0.993265
1.00319 1.00022 0.988577
0.999667 1.00025 0.994976
1.00189 1.0014 0.989795
1.00063 1.00251 0.991017
1.00193 1.00232 0.9887
0.999593 0.999782 0.995587
0.999676 0.998729 0.996516
1.00001 1.0012 0.993405
1.00343 0.99997 0.988388
1.00261 1.00083 0.989047
1.00429 1.00005 0.986709
1.00037 1.0023 0.991752
1.00275 1.0015 0.987979
1.00122 1.00327 0.989305
1.00211 1.0026 0.988187
0.999529 0.997356 0.999247
0.999444 0.997601 0.999216
0.999373 0.997861 0.999168
0.999723 0.999373 0.995708
0.9995 0.998196 0.998961
0.999807 0.999979 0.998067
0.999816 0.999983 0.99801
1.00121 1.00003 0.992348
1.00129 1.00005 0.992135
0.999897 1 0.997921
0.999921 1 0.997902
1.00135 1 0.992075
1.00127 1.00007 0.992796
1.00364 0.999866 0.988119
1.00121 0.999924 0.992413
1.0035 0.999887 0.988366
1.00136 0.999992 0.992059
1.00371 0.999803 0.988044
1.00353 0.999908 0.988282
1.00472 0.999421 0.986605
1.0035 0.99989 0.988347
1.00459 0.999522 0.986763
0.999918 1 0.997904
0.999561 1 0.995904
1.00131 0.99999 0.9916
1.00117 0.999935 0.993097
0.999255 0.999039 0.998736
0.999998 1.00087 0.994648
1.00106 0.999902 0.993318
1.00327 0.999755 0.989218
1.00294 1.00026 0.989635
1.00186 1.00173 0.99021
1.00351 1.00065 0.987557
1.00133 1 0.992107
1.00122 0.999996 0.992912
1.00357 0.999773 0.988352
1.00331 0.999867 0.989179
0.999478 0.998558 0.998793
0.999748 1.00061 0.994844
1.00087 1.00227 0.991028
1.00318 0.999846 0.989284
1.00437 0.999385 0.987336
1.00273 1.00181 0.987785
1.00401 0.999965 0.987516
1.00426 1.00019 0.986651
0.999687 0.999846 0.995302
1.00016 1.00166 0.992662
1.00369 0.999793 0.988073
1.00349 0.999841 0.988732
1.00466 0.999454 0.986963
1.00442 0.999422 0.987029
1.00429 0.999537 0.987473
1.0049 0.998933 0.98688
0.999688 1.00024 0.994868
1.00468 0.999313 0.98677
1.00037 1.00235 0.991539
1.00158 1.00274 0.988717
1.00357 1.0018 0.986776
1.00472 0.99941 0.986601
1.00023 1.00205 0.992187
1.00014 1.00118 0.993202
1.00041 1.0027 0.991251
1.00115 0.999943 0.992485
0.999372 0.998188 0.999051
0.999596 0.999112 0.996204
1.00057 1.00065 0.992779
1.00319 1.00022 0.98858
0.999638 1.00027 0.99493
1.00059 1.0025 0.99102
1.00187 1.0014 0.989814
1.00194 1.00231 0.988634
0.999595 0.999711 0.995615
0.999669 0.998696 0.996537
0.999981 1.00124 0.993418
1.00342 0.999981 0.988388
1.0026 1.00082 0.989065
1.00432 1.00005 0.986695
1.00031 1.00235 0.991757
1.0028 1.00152 0.988011
1.0012 1.00326 0.989292
1.00212 1.00258 0.988159
0.999772 0.998354 0.99671
1.00017 1.00181 0.992524
0.999974 1.00048 0.994198
1.00018 1.00248 0.991896
1.00451 0.999763 0.98662
1.00365 1.00081 0.987171
1.00489 0.999752 0.985931
1.00072 1.00331 0.990193
1.00324 1.00146 0.987305
1.00133 1.00403 0.988146
1.00245 1.00228 0.987723
1.00023 0.99942 0.994818
0.999935 0.997922 0.996831
0.999632 0.997095 0.999272
0.999539 0.997302 0.999256
0.999444 0.997534 0.999232
0.999779 0.999023 0.99597
0.999508 0.997957 0.999048
0.999713 0.999431 0.995686
0.999513 0.99824 0.998921
1.00121 0.999934 0.992411
1.00123 1.00006 0.992254
1.00349 0.999893 0.988363
1.00364 0.999866 0.988119
1.00135 1.00001 0.992075
0.999931 1 0.9979
1.00136 0.999994 0.992059
1.00371 0.999808 0.988043
1.00352 0.999916 0.988282
1.00472 0.999423 0.986601
1.0035 0.999902 0.98834
1.00459 0.999523 0.986758
1.00372 0.999794 0.988041
1.00478 0.999348 0.986565
1.00461 0.999519 0.986717
1.00509 0.998773 0.986567
1.0046 0.999579 0.986666
1.00502 0.998958 0.986503
1.00134 0.999986 0.992102
1.00128 0.999989 0.99285
1.00357 0.99975 0.988086
1.00334 0.999887 0.989275
0.999477 0.99863 0.998744
0.999838 1.00058 0.995186
1.00102 1.00229 0.991131
1.00317 0.99988 0.989276
1.00438 0.9993 0.987199
1.00401 1 0.98763
1.0026 1.00181 0.987779
1.00422 1.0002 0.986673
0.999677 0.999899 0.99529
1.00019 1.00161 0.992661
1.00368 0.999762 0.987995
1.0035 0.999834 0.988722
1.00467 0.999411 0.986935
1.00443 0.999487 0.987169
0.999705 1.00025 0.994868
1.00044 1.00235 0.991525
1.00157 1.00274 0.988881
1.00429 0.999577 0.987493
1.00489 0.998853 0.986872
1.00351 1.00176 0.986638
1.00466 0.999319 0.986779
1.00471 0.999382 0.986584
1.00025 1.00199 0.992197
1.00037 1.0027 0.991268
1.00015 1.00117 0.993191
1.00475 0.999421 0.986818
1.00463 0.99946 0.986921
1.0051 0.998866 0.986574
1.00494 0.998957 0.986662
1.00485 0.998863 0.986851
1.0051 0.998237 0.987106
1.00028 1.0022 0.991916
1.00499 0.99862 0.986831
1.00095 1.00284 0.9901
1.00214 1.00329 0.987201
1.00403 1.00131 0.986212
1.00502 0.998661 0.986891
1.00016 1.00076 0.993602
1.00055 1.00256 0.991116
1.00027 1.0025 0.991618
1.00052 1.00301 0.990815
1.00342 0.999989 0.988389
0.999659 0.998671 0.996559
0.999603 0.999633 0.995642
0.999973 1.00126 0.993431
1.00259 1.00081 0.989085
1.00433 1.00005 0.986681
1.00025 1.0024 0.991764
1.00118 1.00327 0.989278
1.00284 1.00154 0.988044
1.00212 1.00256 0.988131
0.999765 0.998344 0.996717
1.00015 1.00185 0.992525
0.999984 1.00045 0.994217
1.00015 1.00254 0.991886
1.00452 0.999762 0.986612
1.00364 1.00081 0.987176
1.00489 0.99976 0.985917
1.00068 1.0033 0.990214
1.00328 1.00149 0.98735
1.00137 1.00415 0.9881
1.0024 1.00208 0.988063
0.999862 0.9981 0.996792
1.00006 0.999913 0.994624
1.00043 1.00291 0.991084
1.00014 1.00172 0.992714
1.00009 1.00349 0.991074
1.00499 0.99943 0.986087
1.00423 1.0006 0.986293
1.00507 0.999401 0.985928
1.0008 1.00449 0.988871
1.00342 1.00128 0.9871
1.00173 1.00371 0.987269
1.0002 0.999491 0.99481
1.00025 1.00047 0.993763
1.00027 0.999383 0.994796
1.00023 0.999436 0.994813
0.999978 0.997739 0.997335
0.999922 0.997911 0.997072
0.999788 0.99691 0.998336
0.999646 0.997052 0.999277
0.999551 0.997249 0.999264
0.999842 0.99875 0.99614
0.999548 0.997738 0.9991
0.999776 0.999064 0.995952
0.999523 0.997991 0.999023
0.999704 0.999487 0.995663
0.999527 0.998289 0.998879
1.0035 0.99991 0.988333
1.00352 0.999922 0.988283
1.00458 0.999533 0.986753
1.00472 0.999424 0.986596
1.00371 0.999813 0.988042
1.00136 0.999997 0.992059
1.00372 0.999791 0.98804
1.00478 0.999349 0.986564
1.0046 0.999533 0.986711
1.0051 0.998715 0.986622
1.0046 0.999577 0.986659
1.00502 0.998975 0.986498
1.00478 0.999333 0.986568
1.00512 0.998647 0.98666
1.00502 0.998857 0.986583
1.00515 0.998105 0.987149
1.00505 0.999143 0.986292
1.00515 0.998019 0.987197
1.00367 0.999731 0.987918
1.00351 0.999835 0.988712
1.00468 0.999375 0.986907
1.00444 0.999554 0.987309
0.999724 1.00026 0.994868
1.00048 1.00236 0.991511
1.00156 1.00273 0.989044
1.00429 0.999618 0.987513
1.00489 0.998773 0.986865
1.00465 0.999325 0.986788
1.00344 1.00172 0.9865
1.00469 0.999347 0.986567
1.00027 1.00193 0.992207
1.00035 1.00268 0.991285
1.00016 1.00117 0.993179
1.00476 0.999388 0.986705
1.00463 0.999457 0.986912
1.00509 0.998776 0.986609
1.00495 0.998987 0.986683
1.00032 1.00217 0.991917
1.00101 1.00283 0.990067
1.00203 1.00335 0.987421
1.00485 0.998951 0.986871
1.0051 0.998124 0.987203
1.00398 1.0013 0.98609
1.00499 0.998625 0.986843
1.00501 0.998563 0.986936
1.00057 1.00257 0.991126
1.00052 1.00304 0.990764
1.00016 1.00076 0.993594
1.00024 1.00245 0.991693
1.00512 0.998782 0.986544
1.00508 0.99893 0.98663
1.00519 0.998281 0.986901
1.00514 0.997966 0.987301
1.00507 0.998232 0.987135
1.00515 0.997409 0.987792
1.00072 1.00253 0.990853
1.00511 0.997811 0.987388
1.00101 1.00368 0.988853
1.0027 1.00361 0.986184
1.00453 1.00034 0.986155
1.00515 0.998164 0.9871
1.00018 1.00047 0.993863
1.00021 1.0021 0.992105
1.00066 1.00282 0.990703
1.00032 1.00309 0.991069
1.00062 1.00295 0.990659
0.999756 0.998336 0.996724
1.00453 0.999761 0.986604
0.999996 1.00041 0.994236
1.00012 1.00192 0.992527
1.00011 1.00261 0.991876
1.00364 1.00081 0.98718
1.00489 0.999768 0.985904
1.00066 1.00325 0.990235
1.00141 1.00426 0.988054
1.00332 1.00151 0.987395
1.00235 1.00189 0.988401
0.999855 0.998098 0.996794
1.00007 0.999895 0.994633
1.00041 1.0029 0.991093
1.00011 1.00176 0.992721
1.00007 1.00359 0.990965
1.00499 0.999436 0.986068
1.00422 1.00061 0.986293
1.00508 0.999413 0.985898
1.00073 1.00453 0.988887
1.00344 1.00129 0.987171
1.0019 1.00362 0.987325
1.00014 0.999632 0.994769
1.00018 1.00102 0.993356
1.00043 1.00401 0.990002
0.99999 1.00295 0.991785
1.00015 1.0041 0.990466
1.00511 0.998858 0.986383
1.00447 1.00025 0.986121
1.00509 0.998487 0.986592
1.00077 1.00504 0.988183
1.0031 1.00221 0.986713
1.00019 0.999507 0.994807
1.00023 1.0005 0.993703
1.00024 1.00048 0.993728
1.00017 1.00117 0.993312
1.00026 1.00051 0.993716
1.00029 0.999402 0.994738
1.00026 0.999394 0.994794
1.00004 0.997611 0.99734
1.00022 0.999451 0.994808
0.999987 0.997737 0.997335
0.999892 0.996683 0.998362
0.99991 0.997903 0.997309
0.999762 0.996864 0.998815
0.99966 0.997011 0.999282
0.99991 0.998485 0.996288
0.999844 0.99877 0.996127
0.999612 0.997504 0.999138
0.999555 0.997771 0.999085
0.999772 0.999104 0.995933
0.99954 0.998023 0.998993
1.00461 0.999574 0.986652
1.00461 0.99954 0.986705
1.00501 0.998989 0.986494
1.00511 0.998657 0.986677
1.00477 0.999351 0.986563
1.00372 0.999789 0.98804
1.00478 0.999333 0.986569
1.00512 0.998653 0.986659
1.00503 0.998867 0.986578
1.00515 0.998013 0.987262
1.00503 0.999151 0.986279
1.00515 0.99793 0.987276
1.00512 0.998686 0.98664
1.00515 0.998124 0.987154
1.00514 0.997843 0.987427
1.00512 0.997524 0.987816
1.00515 0.998293 0.986876
1.00516 0.997306 0.987989
1.00477 0.999352 0.986592
1.00463 0.999457 0.986904
1.00509 0.998683 0.986643
1.00495 0.999016 0.986703
1.00036 1.00214 0.991918
1.00108 1.00282 0.990034
1.00193 1.00342 0.98764
1.00485 0.999038 0.986891
1.00509 0.998008 0.9873
1.00499 0.998631 0.986856
1.00394 1.00127 0.985967
1.005 0.998461 0.986981
1.00056 1.00259 0.991135
1.00048 1.0031 0.990714
1.00016 1.00077 0.993587
1.00023 1.00239 0.991768
1.00511 0.998785 0.986549
1.00508 0.998956 0.986557
1.00519 0.99824 0.986934
1.00513 0.998045 0.98722
1.00073 1.00258 0.990832
1.001 1.00361 0.989055
1.00264 1.00375 0.986143
1.00507 0.998325 0.987056
1.00515 0.997292 0.98788
1.00454 1.0002 0.986142
1.0051 0.997826 0.987408
1.00515 0.998084 0.987061
1.00069 1.00282 0.990701
1.00063 1.00295 0.990662
1.00028 1.00314 0.99106
1.00017 1.00047 0.993786
1.0002 1.00205 0.992163
1.00517 0.998164 0.987107
1.00517 0.998009 0.987208
1.00515 0.996963 0.988261
1.00512 0.997238 0.987906
1.00073 1.00308 0.99027
1.00513 0.997526 0.987778
1.0009 1.00439 0.988032
1.00342 1.00306 0.985526
1.005 0.999103 0.98634
1.00018 1.00023 0.993926
1.00021 1.00173 0.992648
1.00018 1.0028 0.991637
1.00074 1.00282 0.990602
1.00037 1.00345 0.990627
1.00077 1.00272 0.990532
0.999849 0.998098 0.996796
1.00008 0.999874 0.994642
1.00499 0.999441 0.986049
1.00008 1.0018 0.992728
1.00036 1.00292 0.991101
1.00004 1.00368 0.990856
1.0042 1.00063 0.986293
1.00508 0.999424 0.985867
1.00067 1.00455 0.988902
1.00206 1.00358 0.987381
1.00346 1.00129 0.987245
1.00014 0.999636 0.99477
1.00017 1.00101 0.99337
1.00039 1.00402 0.990016
0.99997 1.00297 0.991784
1.00012 1.00407 0.990433
1.00511 0.998895 0.986362
1.00449 1.00027 0.986091
1.00509 0.99844 0.986693
1.00078 1.00501 0.988068
1.00314 1.00235 0.986627
1.00021 1.00065 0.993678
0.999999 1.00219 0.992382
1.00048 1.00439 0.989445
0.999937 1.00393 0.99075
1.00036 1.00404 0.990075
1.00513 0.997236 0.987876
1.00461 0.999997 0.98629
1.00508 0.99787 0.987162
1.00164 1.00452 0.987613
1.00325 1.00183 0.986212
1.00018 0.999523 0.994804
1.00023 1.00048 0.993746
1.0001 1.00125 0.993189
1.00023 1.00048 0.993694
1.00025 1.00051 0.993715
1.00014 1.00119 0.993256
1.00006 1.00165 0.992995
1.00014 1.00122 0.993168
1.00026 1.00057 0.99366
1.00028 0.99948 0.994667
1.00028 0.999412 0.994739
1.0001 0.997548 0.997308
1.00026 0.999405 0.994792
1.00005 0.99762 0.997336
0.999966 0.996546 0.998363
0.999996 0.997735 0.997337
0.999881 0.996657 0.998367
0.999733 0.996807 0.999302
0.999969 0.998236 0.996435
0.999912 0.998498 0.996279
0.999689 0.997258 0.999175
0.999844 0.998794 0.996115
0.999611 0.99755 0.999126
0.999563 0.997803 0.999069
1.00502 0.999159 0.986266
1.00504 0.99888 0.986572
1.00515 0.997839 0.987356
1.00516 0.997922 0.987376
1.00512 0.99866 0.986658
1.00479 0.999333 0.986569
1.00512 0.998725 0.986597
1.00515 0.998171 0.987107
1.00514 0.99789 0.987355
1.00511 0.99742 0.987893
1.00514 0.998317 0.986879
1.00516 0.997144 0.988066
1.00513 0.998227 0.987111
1.00512 0.99751 0.987782
1.00512 0.996987 0.988288
1.00515 0.997006 0.9883
1.0051 0.998788 0.986554
1.00508 0.998981 0.986485
1.00519 0.998202 0.986967
1.00512 0.998125 0.987139
1.00078 1.0026 0.990811
1.001 1.00353 0.989257
1.00257 1.00388 0.986102
1.00506 0.998419 0.986976
1.00515 0.997179 0.987966
1.00509 0.997842 0.987429
1.00454 1.00007 0.986129
1.00515 0.998029 0.987022
1.00071 1.00283 0.9907
1.00067 1.00291 0.990666
1.00025 1.00318 0.991051
1.00017 1.00046 0.993709
1.0002 1.002 0.99222
1.00517 0.998176 0.987095
1.00516 0.998028 0.987221
1.00515 0.997069 0.988154
1.00079 1.0031 0.990241
1.00105 1.00438 0.988203
1.00333 1.0031 0.985477
1.00512 0.997294 0.987903
1.005 0.99891 0.986455
1.00512 0.997468 0.987667
1.00018 1.0002 0.993959
1.00078 1.00279 0.990583
1.00074 1.00266 0.990664
1.00038 1.00351 0.990568
1.00018 1.00279 0.991657
1.0002 1.00172 0.992584
1.00515 0.997749 0.987444
1.00512 0.996937 0.988334
1.00512 0.996382 0.988729
1.00512 0.996553 0.98866
1.00079 1.0035 0.989805
1.00509 0.997832 0.987357
1.00165 1.00485 0.986478
1.00414 1.00175 0.985497
1.00019 0.999949 0.994189
1.00021 1.00145 0.992933
1.00018 1.00249 0.992009
1.00014 1.00337 0.991074
1.00083 1.00285 0.990315
1.00084 1.00294 0.990267
1.00014 0.999639 0.994771
1.00016 1.00099 0.993383
1.00512 0.998933 0.986342
0.999952 1.00299 0.991784
1.00035 1.00405 0.990031
1.00005 1.00408 0.9904
1.00451 1.00028 0.986062
1.00509 0.998393 0.986794
1.0008 1.005 0.987953
1.00318 1.00247 0.98654
1.00021 1.00062 0.993686
1.00003 1.00216 0.992424
1.00048 1.00442 0.989488
0.999891 1.00405 0.990747
1.00024 1.00393 0.990306
1.00513 0.997219 0.988037
1.00466 1 0.986162
1.00509 0.99787 0.987214
1.00149 1.00461 0.98752
1.00336 1.00181 0.986315
1.00006 1.0015 0.99299
0.99989 1.00328 0.991376
1.0008 1.0042 0.989127
0.999961 1.00451 0.989734
1.00515 0.995882 0.989255
1.0051 0.996736 0.988497
1.00472 0.999626 0.986232
1.00207 1.00355 0.986397
1.00024 1.00046 0.993789
1.00011 1.00127 0.993209
0.999962 1.00192 0.992874
1.00025 1.00052 0.993715
1.00012 1.00119 0.9932
1.00026 1.00056 0.993658
1.00005 1.00165 0.992957
1.00015 1.0012 0.993191
1.00001 1.00197 0.992726
1.00011 1.00161 0.992889
1.00017 1.00126 0.993056
1.00026 1.00065 0.993578
1.00026 0.999561 0.994618
1.00028 0.999483 0.994667
1.00013 0.997549 0.997253
1.00028 0.999417 0.994739
1.0001 0.997574 0.997299
1.00002 0.996474 0.998337
1.00006 0.997631 0.997332
0.999958 0.996517 0.998369
0.999871 0.996633 0.998369
1.00003 0.997996 0.996573
0.999974 0.998241 0.996426
0.999769 0.997011 0.999211
0.999914 0.998514 0.996269
0.999683 0.997308 0.999163
0.999613 0.99759 0.999113
1.00513 0.998341 0.986883
1.00515 0.99794 0.987282
1.00516 0.996985 0.988143
1.00511 0.997319 0.987971
1.00515 0.998219 0.987059
1.00512 0.998765 0.986553
1.00514 0.998219 0.987103
1.00511 0.997542 0.987758
1.00512 0.996989 0.988268
1.00515 0.996961 0.988311
1.00512 0.997718 0.987602
1.0051 0.996727 0.98867
1.00515 0.996221 0.988895
1.00517 0.998187 0.987082
1.00516 0.998047 0.987234
1.00515 0.997174 0.988047
1.00084 1.0031 0.990212
1.00121 1.00435 0.988374
1.00325 1.00314 0.985429
1.00512 0.997347 0.987899
1.00512 0.997416 0.987555
1.00502 0.998714 0.986571
1.00081 1.00276 0.990564
1.00068 1.00261 0.990797
1.0004 1.00357 0.99051
1.00018 1.00016 0.993992
1.00018 1.00278 0.991677
1.00019 1.00171 0.992521
1.00515 0.997794 0.987467
1.00512 0.996902 0.988391
1.00512 0.996424 0.988737
1.00081 1.00351 0.989757
1.00151 1.00494 0.986805
1.00416 1.00156 0.985588
1.00512 0.996612 0.988606
1.0051 0.99781 0.987335
1.00019 0.999931 0.994297
1.0002 1.00145 0.99293
1.00074 1.00273 0.990386
1.00081 1.00286 0.990507
1.00018 1.00334 0.991043
1.00015 1.00253 0.991958
1.00513 0.996928 0.988334
1.00511 0.995846 0.989367
1.00511 0.995813 0.98931
1.00507 0.996795 0.988716
1.00073 1.00399 0.988902
1.00476 0.999406 0.986458
1.00265 1.0043 0.986004
1.0002 0.999733 0.994573
1.00015 1.00091 0.993499
1.00018 1.00125 0.992999
1.00012 1.00232 0.992175
1.00003 1.00321 0.991424
1.00009 1.00358 0.990801
1.00124 1.00145 0.990769
1.0007 1.00261 0.991453
1.0002 1.00061 0.993694
1.00005 1.00215 0.992465
1.00514 0.997206 0.988198
0.99991 1.0041 0.990744
1.00046 1.00446 0.989532
1.00011 1.00383 0.990538
1.00471 0.999982 0.986032
1.0051 0.997865 0.987266
1.00133 1.00467 0.987429
1.00344 1.00173 0.986419
1.00007 1.00152 0.992941
0.999933 1.00331 0.991383
1.00072 1.00425 0.989178
1.00013 1.00449 0.98984
1.00515 0.995847 0.989336
1.0051 0.996844 0.98831
1.00468 0.999621 0.986322
1.00242 1.00357 0.986277
0.999915 1.00238 0.99248
1.00519 0.995156 0.989756
0.999988 1.00449 0.990502
1.00087 1.00474 0.988386
1.0051 0.995719 0.989613
1.00502 0.997895 0.987057
1.00376 1.00224 0.985773
1.00011 1.00129 0.993229
0.999961 1.00192 0.992864
0.999856 1.00246 0.992543
1.00026 1.00054 0.993657
1.00016 1.00119 0.993214
1.00003 1.00165 0.99292
1.00026 1.00063 0.993573
1.00017 1.00126 0.993072
0.999994 1.002 0.992683
1.00012 1.00158 0.99293
1.00002 1.00214 0.992478
1.00011 1.00184 0.992631
1.00016 1.00165 0.992796
1.00027 1.00126 0.992932
1.00026 1.00073 0.993478
1.00024 0.999625 0.994591
1.00026 0.999567 0.994617
1.00015 0.997568 0.997201
1.00028 0.99949 0.994667
1.00013 0.997578 0.997245
1.00006 0.996442 0.998301
1.0001 0.997599 0.997291
1.00002 0.996438 0.998344
0.99995 0.99649 0.998373
1.00019 0.999583 0.994738
1.00007 0.997797 0.996692
1.00003 0.998002 0.996566
0.999845 0.996791 0.999243
0.999979 0.998249 0.996418
0.999761 0.997063 0.9992
0.999679 0.997359 0.999151
1.00516 0.996915 0.988322
1.00511 0.996988 0.988248
1.0051 0.99757 0.987734
1.00514 0.99821 0.987094
1.00512 0.997677 0.987662
1.0051 0.996741 0.988622
1.00514 0.996213 0.988892
1.00514 0.996821 0.988424
1.00517 0.995732 0.989552
1.00515 0.994903 0.990064
1.00515 0.997838 0.98749
1.00513 0.996866 0.988448
1.00511 0.996468 0.988745
1.00083 1.00357 0.989709
1.00138 1.005 0.987133
1.00417 1.00135 0.985679
1.00511 0.996668 0.988553
1.0051 0.997755 0.987313
1.00066 1.00264 0.990456
1.0008 1.00279 0.990741
1.00013 1.00341 0.991012
1.00019 0.999909 0.994406
1.0002 1.00145 0.992928
1.00013 1.00257 0.991906
1.00514 0.996843 0.988442
1.0002 0.999732 0.994572
1.00014 1.00093 0.993452
1.0051 0.995905 0.989356
1.00511 0.995804 0.989257
1.00062 1.00412 0.989205
1.00254 1.00426 0.985968
1.00462 0.99946 0.986451
1.00498 0.996711 0.988603
1.00019 1.00123 0.993147
1.00013 1.00231 0.992167
1.00138 1.00172 0.990445
1.00043 1.00234 0.991791
1.00006 1.00367 0.990775
1.00004 1.00319 0.991436
1.00517 0.995642 0.989537
1.00514 0.995435 0.989783
1.00508 0.995257 0.989676
1.00505 0.99681 0.988145
1.00106 1.00326 0.989396
1.00344 1.00284 0.98601
1.00013 1.00077 0.993541
1.00016 1.00107 0.993318
1.00007 1.0019 0.992788
1.00009 1.00227 0.992118
1.00001 1.00307 0.991755
0.999954 1.00372 0.990845
0.999704 1.00438 0.990823
1.00066 1.00135 0.991984
1.00009 1.00154 0.992893
0.999981 1.00333 0.99139
1.00516 0.995799 0.989416
1.0051 0.996968 0.988124
1.00028 1.00449 0.989946
1.00065 1.00429 0.989227
1.00465 0.999634 0.986411
1.00277 1.00364 0.986155
0.999916 1.00239 0.992449
1.0052 0.995137 0.989798
0.999893 1.00435 0.990595
1.00087 1.00464 0.988307
1.0051 0.995652 0.98949
1.00501 0.99784 0.98727
1.00365 1.00244 0.985821
0.99985 1.00358 0.991529
1.005 0.99507 0.990967
1.00056 1.00465 0.989803
1.00184 1.00462 0.987461
1.00491 0.996578 0.988833
1.00385 1.00062 0.986729
0.999689 0.998892 0.992567
0.999957 1.00191 0.992855
0.999845 1.00248 0.992528
0.999976 1.00268 0.992145
1.00027 1.00062 0.993569
1.00017 1.00127 0.993088
1.00013 1.00154 0.99297
0.999986 1.00203 0.99264
1.00027 1.00073 0.993473
1.00026 1.00126 0.992929
1.00003 1.00219 0.992437
1.00016 1.00165 0.992794
1.00012 1.00185 0.992663
1.00016 1.00193 0.99248
1.00022 1.00169 0.992603
1.00023 1.00159 0.99272
1.00035 1.00131 0.992737
1.00029 1.00079 0.993289
1.00026 1.00128 0.99303
1.00028 1.00079 0.99331
1.00023 0.999656 0.994574
1.00024 0.999629 0.994591
1.00018 0.997622 0.996671
1.00026 0.999574 0.994617
1.00016 0.997601 0.996948
1.00003 0.996387 0.99927
1.00013 0.997609 0.997237
1.00006 0.996402 0.998307
1.00001 0.996403 0.998349
1.00017 0.999474 0.994874
1.00019 0.99958 0.994736
1.00011 0.99764 0.996789
1.00006 0.997798 0.996934
0.999911 0.996604 0.999271
1.00003 0.998009 0.996558
0.999836 0.996834 0.999234
0.999754 0.997113 0.999188
1.00514 0.996206 0.98889
1.0051 0.996753 0.988574
1.00511 0.99764 0.987722
1.00514 0.996811 0.988417
1.00517 0.995739 0.989439
1.00515 0.994914 0.990059
1.00518 0.99531 0.989749
1.00076 0.999372 0.988443
1.00489 0.994952 0.991471
1.00012 1.00071 0.993776
1.00514 0.996758 0.98855
1.0051 0.995952 0.989346
1.0051 0.99583 0.989203
1.00051 1.00423 0.989508
1.00243 1.00424 0.985934
1.00446 0.99954 0.986444
1.00492 0.996668 0.988489
1.00153 1.00192 0.990129
1.00014 1.00209 0.992142
1.00008 1.00369 0.99075
1.0002 0.999733 0.994571
1.00007 1.00315 0.991448
1.0002 1.00121 0.993296
1.00013 1.0023 0.992159
1.00013 1.00093 0.993404
1.00517 0.995502 0.989664
1.00013 1.00076 0.993623
1.00017 1.00107 0.993315
1.00008 1.00189 0.992683
1.00514 0.995313 0.989784
1.00508 0.995435 0.989519
1.00115 1.00304 0.989468
1.00303 1.00268 0.986158
1.00497 0.997052 0.988134
1.0001 1.00227 0.992187
1.00002 1.00304 0.991692
1.00059 1.00174 0.99165
0.999746 1.00423 0.990975
1.00001 1.00368 0.990907
1.00512 0.994991 0.990321
1.00511 0.995807 0.989604
1.0051 0.995894 0.989091
1.00389 0.999865 0.987918
1.00081 1.0032 0.989988
1.0001 1.0017 0.992675
1.00007 1.00208 0.992363
1.00001 1.00264 0.992106
0.99999 1.00311 0.9916
0.99987 1.00366 0.9912
0.999747 1.0045 0.990564
0.999739 1.00461 0.990481
0.999921 1.0024 0.992417
0.999794 1.00421 0.990688
1.0052 0.995128 0.98984
1.0051 0.99558 0.989367
1.00501 0.997757 0.987484
1.00088 1.00453 0.988231
1.00355 1.00261 0.985871
0.999806 1.00348 0.991696
1.00496 0.995029 0.990947
1.00029 1.0045 0.989938
1.00148 1.00476 0.987515
1.00493 0.99632 0.989014
1.0039 1.00055 0.98667
0.999632 0.998904 0.990879
0.999996 1.00387 0.991006
1.00459 0.995452 0.991589
1.00029 1.00463 0.989784
1.00194 1.00351 0.987599
1.00412 0.997579 0.988204
1.00115 0.995287 0.959314
0.995955 0.998606 0.977702
0.998814 1.00061 0.992657
0.99986 0.996871 0.932892
0.994967 0.998134 0.922555
0.999842 1.00249 0.992513
0.9999 1.00273 0.992218
0.999978 1.00231 0.992497
1.00027 1.00073 0.993468
1.00026 1.00123 0.992926
1.00016 1.00165 0.992791
1.00013 1.00185 0.992695
1.00005 1.00222 0.992395
1.00024 1.00157 0.992688
1.00028 1.00079 0.993346
1.00035 1.0013 0.992761
1.00015 1.00195 0.992485
1.00021 1.00171 0.992617
1.00025 1.00164 0.99256
1.0002 1.00149 0.992786
1.00034 1.00159 0.992524
1.0004 1.00139 0.992546
1.00029 1.00082 0.993265
1.00034 1.00135 0.992765
1.00029 1.00149 0.992746
1.00016 1.00129 0.993097
1.00026 1.00129 0.992971
1.00027 1.0007 0.993496
1.00028 1.0008 0.993301
1.00024 0.999653 0.994564
1.00023 0.999654 0.994574
1.00017 0.997676 0.996655
1.00024 0.99963 0.99459
1.00018 0.997626 0.99667
1.00004 0.996385 0.999265
1.00017 0.997632 0.996695
1.00006 0.996387 0.998773
1.00006 0.996362 0.998312
1.00016 0.999399 0.994972
1.00017 0.999473 0.994873
1.00013 0.997522 0.996863
1.00019 0.999578 0.994734
1.0001 0.997621 0.997032
0.999964 0.99645 0.999293
1.00008 0.997822 0.996667
0.999901 0.996675 0.999258
0.999828 0.996878 0.999224
1.00517 0.995746 0.989327
1.00513 0.996804 0.988409
1.00516 0.994925 0.990054
1.00078 0.998576 0.988554
1.00518 0.995291 0.989771
1.00489 0.995215 0.991349
1.00497 0.99592 0.99059
0.997141 0.999308 0.974892
1.00215 0.996556 0.989776
1.00011 1.00067 0.993822
1.00013 1.00069 0.993774
1.00005 1.00166 0.99292
1.00009 1.00149 0.993036
1.00518 0.995378 0.98979
1.00515 0.995232 0.989785
1.00512 0.995516 0.989362
1.00127 1.00284 0.989541
1.00264 1.00247 0.986304
1.00488 0.997345 0.988122
1.00051 1.0022 0.991304
0.999801 1.00407 0.991126
1.00005 1.00365 0.990968
1.00017 1.00108 0.993313
1.00004 1.003 0.991629
1.00011 1.00227 0.992256
1.00013 1.00075 0.993705
1.00009 1.00189 0.992578
1.00507 0.995024 0.990292
1.00009 1.00174 0.99279
1.00008 1.00207 0.99243
0.999996 1.00257 0.992143
1.00508 0.995522 0.989658
1.0051 0.99574 0.989069
1.00095 1.003 0.989953
1.00387 0.999911 0.987919
0.999997 1.00316 0.991597
0.999876 1.00363 0.991233
0.999769 1.00459 0.990487
0.999874 1.00449 0.990542
1.00504 0.996064 0.989769
1.00507 0.995429 0.989918
1.00421 0.998216 0.988711
1.00102 1.003 0.989948
1.00004 1.00267 0.9919
0.999984 1.00291 0.991771
0.999777 1.00408 0.990959
0.999874 1.00511 0.989643
1.00055 0.994952 0.954743
0.999758 1.00339 0.991862
1 1.00441 0.990073
1.00493 0.994977 0.99092
1.00497 0.996072 0.989195
1.00392 1.00044 0.986609
1.0011 1.00488 0.987566
0.999622 0.998895 0.98916
0.999851 1.00392 0.991151
1.00459 0.995354 0.991535
1.00017 1.00463 0.989843
1.00192 1.00344 0.987574
1.00434 0.997604 0.988286
1.00158 0.995579 0.954815
0.995615 0.998853 0.973889
0.99884 1.0005 0.992699
0.999035 0.997156 0.934648
0.994708 0.99814 0.916969
0.999719 1.00369 0.991772
0.999908 0.995084 0.937301
0.995023 0.99931 0.924147
1.00391 0.997013 0.991218
0.999875 1.00472 0.990266
1.00237 1.00133 0.988347
0.997964 1.00112 0.99424
0.999448 0.997004 0.959218
0.994842 0.998815 0.972655
0.998289 0.998905 0.935704
0.994675 0.999869 0.926217
0.999814 1.00278 0.992291
0.999927 1.00244 0.992455
0.999944 1.00124 0.993777
1.00027 1.00078 0.993402
1.00034 1.0013 0.992785
1.00022 1.00159 0.992655
1.00021 1.00173 0.992631
1.00014 1.00198 0.992489
1.00029 1.00081 0.993265
1.00026 1.00168 0.992541
1.00033 1.00159 0.992547
1.0004 1.00137 0.992616
1.0002 1.00145 0.992841
1.00033 1.00157 0.992541
1.00027 1.00075 0.993377
1.00043 1.00163 0.992322
1.00039 1.00138 0.992645
1.00036 1.00134 0.992758
1.00029 1.00148 0.992744
1.00041 1.00148 0.992495
1.00018 1.00154 0.992845
1.00021 1.00148 0.992773
0.999853 1.00236 0.992558
1.00006 1.0014 0.99317
1.00016 1.0013 0.9931
1.00024 1.00067 0.99358
1.00027 1.00131 0.992911
1.00027 1.00072 0.993453
1.00026 0.999622 0.994575
1.00028 1.00081 0.993292
1.00025 0.999644 0.994565
1.00012 0.997709 0.997166
1.00023 0.999651 0.994574
1.00015 0.997667 0.99691
1.00009 0.996409 0.998248
1.00018 0.997631 0.99667
1.00004 0.99639 0.999263
1.00009 0.996388 0.998275
1.00013 1.00069 0.993766
1.00016 0.999362 0.995005
1.00016 0.999396 0.994971
1.00015 0.997444 0.996914
1.00017 0.99947 0.994871
1.00014 0.997507 0.996863
1 0.996338 0.999309
1.00009 0.997631 0.99726
0.999977 0.996511 0.9988
0.999943 0.996714 0.998262
1.00073 0.997759 0.988682
1.00517 0.995273 0.989793
1.0049 0.995476 0.991228
0.996589 0.998575 0.976585
1.00195 0.996914 0.990013
1.00499 0.995462 0.990535
1.00418 0.99588 0.99034
0.998123 0.996576 0.979106
1.00031 0.995543 0.957822
0.99879 0.997402 0.937221
0.994624 0.998193 0.921379
1.00004 1.00159 0.992898
1.00012 1.00066 0.993819
1.00014 1.00068 0.993772
1.00007 1.00166 0.992889
1.00001 1.00229 0.992379
1.00015 1.00198 0.992508
1.00011 1.00158 0.992941
1.00006 1.00157 0.992977
1.00505 0.995028 0.990263
1.00509 0.995182 0.989708
1.00506 0.995594 0.989048
1.00107 1.00278 0.98992
1.00387 0.999869 0.987919
0.999797 1.00454 0.990496
1 1.00448 0.99052
0.99989 1.00361 0.991265
1.00008 1.00206 0.992497
1 1.00322 0.991594
1.00009 1.00177 0.992906
0.999998 1.00247 0.992182
1.00501 0.995788 0.989781
1.00002 1.00265 0.991982
0.999983 1.00293 0.991798
1.00501 0.995314 0.989795
1.00384 0.997839 0.98907
1.00119 1.00286 0.989803
0.999833 1.0041 0.990935
1 1.0051 0.989656
1.00327 1.00041 0.989651
1.00446 0.996097 0.990799
1.00212 0.999443 0.989994
1.00052 1.00357 0.990097
1.00002 1.00288 0.991676
0.999907 1.00355 0.991327
0.999781 1.0047 0.990336
0.999967 0.994878 0.935882
1.00107 0.994974 0.961293
0.999726 1.00393 0.991296
1.00006 1.00458 0.989902
1.00456 0.995193 0.991488
1.00456 0.997643 0.988367
1.00192 1.00343 0.987549
1.00057 0.995052 0.957277
0.996 0.999168 0.973961
0.998838 1.00023 0.99274
0.998379 0.997057 0.939551
0.994599 0.998151 0.911369
0.999666 1.00362 0.991789
0.999928 0.995457 0.935801
0.995071 0.999232 0.921302
1.00395 0.996961 0.991186
0.999792 1.00468 0.990379
1.00199 1.00133 0.988971
0.998277 1.00073 0.994946
1.00023 0.997039 0.955552
0.995282 0.998463 0.975589
0.997798 0.999216 0.936517
0.994844 0.999852 0.924246
0.999254 1.00324 0.99303
0.995072 0.999155 0.926291
0.994886 1.00267 0.940735
1.00082 0.999234 0.993911
0.999214 1.00415 0.992457
0.996869 1.00246 0.995439
0.99493 0.999815 0.977938
0.997035 0.999253 0.954079
0.995451 0.999895 0.940021
0.994621 0.999712 0.933484
0.999907 1.00253 0.992413
0.999952 1.00138 0.993616
0.999695 0.999711 0.9954
1.00029 1.00081 0.993264
1.00039 1.00137 0.992686
1.00032 1.00159 0.99257
1.00026 1.00172 0.992521
1.0002 1.00142 0.992896
1.00039 1.00139 0.992642
1.00033 1.00161 0.992543
1.00044 1.00163 0.99232
1.00016 1.00071 0.993576
0.999844 1.00003 0.994917
1.00044 1.00127 0.992676
1.0005 1.00158 0.992276
1.00037 1.00133 0.99275
1.0003 1.00147 0.992742
1.00042 1.00148 0.99249
1.00018 1.00153 0.992837
1.00021 1.00148 0.99282
1.00003 1.00177 0.992856
1.00031 1.00145 0.9926
1.0001 1.00146 0.99302
0.99999 1.00269 0.992008
0.999655 1.00472 0.990346
0.999712 1.00307 0.991929
0.999849 1.00242 0.992536
0.999975 1.00165 0.993062
1.00006 1.00141 0.993165
1.0002 1.00067 0.993651
1.00015 1.00132 0.993102
1.00024 1.00066 0.993583
1.00025 0.999594 0.994612
1.00027 1.00073 0.993409
1.00026 0.999609 0.994577
1.00009 0.997747 0.997182
1.00025 0.999635 0.994566
1.00013 0.997701 0.996916
1.00005 0.996424 0.998257
1.00017 0.997653 0.996656
1.00003 0.996413 0.999259
1.00004 0.996394 0.999262
1.00016 1.00077 0.993817
1.00017 0.999398 0.994951
1.00013 1.0007 0.993765
1.00015 0.997414 0.996932
1.00016 0.999362 0.995005
1.00016 0.999397 0.99497
1.00015 0.997446 0.996911
1.00003 0.996273 0.999319
1.00011 0.997502 0.997332
1.00002 0.996359 0.998829
1.00001 0.996511 0.998325
0.999921 0.995528 0.932846
0.995273 0.998813 0.92442
0.997667 0.997863 0.977553
1.00177 0.997282 0.99025
1.00499 0.99498 0.990481
0.997352 0.99663 0.981331
1.00416 0.99592 0.990411
1.00114 0.9954 0.958102
0.999419 0.996572 0.933054
0.994607 0.99816 0.915654
0.998772 0.997672 0.984704
0.998939 0.997413 0.959891
0.998265 0.99889 0.934631
0.994712 0.999846 0.924221
1.00011 1.00226 0.992206
1.00005 1.00158 0.992949
1.00013 1.00065 0.993816
1.00007 1.00164 0.992858
1.00001 1.00221 0.992463
1.00018 1.00209 0.992328
1.00016 1.00194 0.992492
1.00017 1.0017 0.99267
1.00012 1.00158 0.992881
1.00005 1.00161 0.992918
1.00494 0.995411 0.989797
1.00495 0.99522 0.98968
1.00344 0.997448 0.989433
1.00134 1.00277 0.989657
1.00013 1.00508 0.989669
0.9999 1.00412 0.990912
0.999979 1.00296 0.991826
0.999995 1.00264 0.992065
1.00349 0.999084 0.989837
1.00002 1.00291 0.991669
0.999919 1.00354 0.991285
1.00434 0.99589 0.990557
1.00187 0.999768 0.990458
1.00069 1.00365 0.989705
0.999919 1.00474 0.990202
1.00034 1.00088 0.992962
1.00153 0.998627 0.993457
0.999795 1.00419 0.99051
1.00005 1.00288 0.991702
1.00003 1.00323 0.991287
0.999947 1.00388 0.990902
0.994802 0.999205 0.935309
0.999943 0.995235 0.938293
1.0006 0.994941 0.954577
0.999585 1.00364 0.991808
0.999718 1.00463 0.990495
1.00403 0.996896 0.991151
1.0016 1.00149 0.989593
0.999916 0.995242 0.939203
0.998982 0.996965 0.956141
0.994899 0.997954 0.972665
0.998653 0.999659 0.99559
0.998203 0.999009 0.931325
0.995055 0.999128 0.922018
0.994992 0.999866 0.925948
0.999136 1.00329 0.993045
0.995088 0.999227 0.929342
0.995066 1.0028 0.940202
1.00107 0.99911 0.99401
0.998758 1.00441 0.992444
0.996601 1.00035 0.998131
0.995142 0.999217 0.975322
0.996977 0.999413 0.959731
0.997598 0.999891 0.935255
0.994624 0.999707 0.935719
0.998125 1.00225 0.995955
0.994786 1.00155 0.949524
0.994289 1.00271 0.953855
0.996479 1.00229 0.998571
0.995072 1.00006 0.984511
0.995469 1.00003 0.958989
0.994913 0.999925 0.936126
0.994733 0.999092 0.933291
0.999939 1.00151 0.99346
0.999771 0.999676 0.99549
0.999314 0.99922 0.996815
1.00039 1.0014 0.992638
1.00044 1.00164 0.992319
1.00033 1.00163 0.992546
1.00005 1.00065 0.993774
1.00047 1.0016 0.992275
1.00042 1.0013 0.992643
0.999813 0.999785 0.995155
0.998874 0.999626 0.996978
1.00009 1.00061 0.994061
1.00044 1.00148 0.99241
1.00042 1.00148 0.992484
1.00018 1.00153 0.992829
1.0002 1.00148 0.992867
1.0003 1.00147 0.992626
1.00002 1.0018 0.992843
1.00012 1.00148 0.993009
1.00006 1.00178 0.992833
0.999902 1.00142 0.9934
1.00005 1.00226 0.992237
1.00001 1.0026 0.99212
0.999741 1.00403 0.991009
1.00043 1.005 0.988966
0.9998 1.00396 0.991302
0.999617 1.00473 0.990495
0.99974 1.00309 0.992044
0.999889 1.00212 0.992603
0.999847 1.00248 0.992514
0.999987 1.00167 0.99305
1.00016 1.00074 0.993643
1.00008 1.00142 0.993161
1.0002 1.00067 0.99365
1.00021 0.999621 0.994648
1.00025 1.00067 0.993587
1.00025 0.999587 0.994614
1.00004 0.997796 0.997208
1.00026 0.9996 0.994579
1.0001 0.997739 0.996938
1 0.996505 0.998272
1.00015 0.997679 0.996664
1.00003 0.996441 0.998757
1.00002 0.996427 0.99926
1.00018 1.00087 0.993523
1.00019 0.999466 0.99486
1.00014 1.00078 0.993684
1.00015 0.99744 0.996913
1.00017 0.999393 0.994954
1.00012 1.00072 0.993762
1.00003 0.996257 0.999322
1.00015 0.997415 0.996933
1.00016 0.999357 0.995005
1.00015 0.997447 0.996909
1.00002 0.996283 0.999316
1 0.996358 0.999303
0.994839 0.998309 0.931829
0.999938 0.995311 0.935253
0.995179 1.00292 0.939982
0.995226 0.999114 0.9225
0.998186 0.996689 0.977647
1.0041 0.996347 0.990474
1.00084 0.995604 0.958254
0.999889 0.997109 0.938049
0.994597 0.998141 0.909954
0.998581 0.997517 0.983347
1.00039 0.996937 0.953015
0.998089 0.999023 0.935374
0.994695 0.999844 0.921068
0.995024 1.00077 0.980144
0.99845 0.999902 0.95301
0.995809 0.999839 0.933198
0.994663 0.999456 0.928598
1.00014 1.00255 0.991922
1.00009 1.00227 0.99228
1.00004 1.00163 0.992999
1.00002 1.00214 0.992547
1.00025 1.00219 0.992008
1.00018 1.00207 0.992367
1.00015 1.00193 0.992475
1.00026 1.00165 0.992652
1.0002 1.00167 0.992735
1.00013 1.00159 0.992822
1.00364 0.997869 0.990032
1.00423 0.995759 0.990319
1.00167 1.00014 0.990917
1.00088 1.00369 0.989319
1.00001 1.00487 0.990068
0.999939 1.00352 0.991244
1.00006 1.00291 0.991661
1.00005 1.00286 0.991728
1.00061 1.00028 0.993222
1.00005 1.0033 0.991308
0.999996 1.00395 0.990858
1.00158 0.998746 0.993095
1.00019 1.00391 0.990414
0.998851 0.9983 0.995841
0.999008 0.999682 0.997489
0.999875 1.003 0.991542
1.00015 1.00285 0.991555
1.00014 1.00367 0.99073
0.99439 1.00109 0.954682
0.99479 0.999599 0.934381
0.999935 0.995668 0.933921
0.999032 1.00334 0.993052
0.998405 1.0045 0.992416
1.00124 0.999072 0.994117
0.995054 0.999037 0.930847
0.997877 0.999234 0.954248
0.99489 0.998769 0.976247
0.996469 0.999591 1.00101
0.996004 0.999765 0.939539
0.995292 1.00295 0.939678
0.994617 0.999716 0.935846
0.998177 1.00207 0.99614
0.994814 1.00093 0.951824
0.994327 1.00281 0.95364
0.996642 1.0028 0.998325
0.994931 1.00011 0.984961
0.996462 1.00002 0.953669
0.994691 0.999237 0.935029
0.995023 0.999958 0.939336
0.997035 1.00237 0.998141
0.993965 1.00133 0.971538
0.994356 1.00158 0.956701
0.99469 0.999462 0.92875
0.994992 1.00169 0.995324
0.996211 0.999266 0.961016
0.994741 0.99998 0.939405
0.999918 0.9996 0.995575
0.999341 0.999323 0.996641
0.998311 0.999719 0.998207
1.00046 1.00161 0.992274
1.0004 1.00135 0.99261
0.999778 0.99956 0.995396
1.00041 1.00149 0.992427
1.00007 1.00054 0.994052
0.999051 0.999508 0.996838
0.998485 0.999778 0.997471
0.999933 1.00129 0.993559
1.0003 1.00149 0.992652
1.00001 1.00184 0.992831
1.00014 1.0015 0.992998
0.999967 1.00141 0.993356
1.00007 1.00169 0.992875
0.999548 1.00227 0.993242
0.999787 1.00242 0.992576
1.00008 1.00381 0.990496
1.00005 1.00248 0.992233
0.999959 1.00398 0.990891
1.00049 1.00482 0.988614
1.00046 1.00501 0.988697
0.999898 1.00439 0.990538
1.00033 1.00492 0.989051
0.999922 1.00283 0.992033
0.999778 1.00401 0.991179
0.99958 1.00474 0.990645
0.999769 1.0031 0.992159
0.999908 1.00209 0.992693
1.00012 1.00095 0.993495
1 1.00169 0.993037
1.00017 1.00075 0.993636
1.00017 0.999686 0.994672
1.00021 1.00067 0.993649
1.00022 0.999607 0.99465
0.999972 0.997881 0.997233
1.00026 0.999573 0.994616
1.00005 0.997795 0.996968
0.999937 0.996602 0.998293
1.00011 0.997717 0.996688
0.999983 0.996515 0.998765
0.999993 0.996481 0.999263
1.00025 1.00096 0.993168
1.0002 0.999603 0.99453
1.00019 1.00088 0.993523
1.00014 0.99752 0.996853
1.00019 0.999474 0.994763
1.00013 1.00079 0.993552
1.00002 0.996293 0.999316
1.00015 0.997438 0.996916
1.00017 0.999388 0.994957
1.00003 0.996257 0.999321
1.00015 0.997415 0.996933
1.00002 0.996293 0.999314
0.994517 1.00068 0.953247
0.994859 0.998337 0.933092
0.999907 0.995504 0.936058
1.00031 1.00161 0.992524
0.994293 1.00237 0.956117
0.995214 1.00294 0.939502
0.995246 0.999274 0.924238
0.998795 0.997746 0.981811
0.999372 0.998203 0.959599
0.998357 0.998977 0.930177
0.994677 0.999859 0.92192
0.995507 0.999763 0.976287
0.997267 0.999604 0.958449
0.997417 0.999894 0.93601
0.994678 0.999585 0.928934
0.995267 0.999671 0.97237
0.995437 1.00077 0.957447
0.994793 0.999935 0.939435
0.994706 0.999007 0.933353
1.00024 1.00254 0.991725
1.00013 1.00257 0.991893
1.0001 1.00224 0.992355
1.00027 1.00207 0.992118
1.00026 1.00217 0.992087
1.00017 1.00205 0.992406
1.00027 1.00166 0.99266
1.00022 1.00165 0.992801
1.0009 0.999905 0.993454
1.0016 0.998864 0.992721
1.00005 1.00285 0.991753
1.00058 1.00368 0.990313
1.00007 1.00394 0.990814
1.00002 1.0034 0.991329
1.00016 1.00288 0.991567
0.99884 0.999018 0.996216
1.00013 1.00349 0.990963
1.00019 1.00274 0.991576
0.999103 0.999045 0.997478
1.00019 1.00255 0.991825
0.997396 0.99933 0.996732
0.997664 1.00045 0.999487
1.00007 1.00256 0.991761
1.00013 1.00272 0.991761
0.993854 1.00156 0.97479
0.994373 1.00156 0.955271
0.994787 1.00002 0.933484
0.998118 1.00196 0.996346
0.996727 1.00289 0.998052
0.994871 1.00054 0.954097
0.995578 1.00009 0.960058
0.994878 0.999183 0.981062
0.995182 0.999953 0.938656
0.994345 1.00291 0.95344
0.994651 0.999356 0.936762
0.997162 1.00232 0.997961
0.993921 1.00143 0.971515
0.994274 1.00167 0.960681
0.995252 1.00276 0.99816
0.994704 0.999556 0.928978
0.995379 0.999245 0.95785
0.995065 0.999954 0.9407
0.996619 1.00281 0.998538
0.993893 1.00031 0.977354
0.994295 1.00237 0.956289
0.994741 0.999803 0.924431
0.995384 0.999932 0.938638
0.995592 0.998951 0.990858
0.99654 1.00028 0.951843
0.99932 0.9994 0.99646
0.998177 1.00033 0.99792
0.996552 0.999936 1.00154
1.00038 1.00151 0.992443
1.00006 1.00045 0.994043
0.999212 0.99936 0.996687
0.999944 1.00129 0.99351
0.998617 0.999457 0.997572
0.998254 1.0029 0.994814
1.00003 1.0014 0.993312
1.00007 1.00163 0.992916
0.999722 1.00233 0.993111
0.999299 1.00441 0.991285
0.999504 1.00256 0.992911
0.999884 1.00376 0.990828
1.00067 1.00494 0.988526
1.00178 1.00464 0.986742
1.00018 1.00394 0.990772
1.00065 1.00484 0.988449
1.00091 1.00456 0.988837
0.999875 1.00476 0.989798
1.0005 1.00487 0.988854
0.999901 1.00353 0.991365
0.999938 1.00438 0.990529
1.00024 1.00485 0.989136
1.00008 1.00142 0.993116
0.999905 1.00281 0.992005
0.999756 1.00407 0.991055
0.999926 1.00206 0.992782
1.00013 1.00097 0.993481
1.0001 0.999827 0.994653
1.00017 1.00076 0.993629
1.00017 0.999677 0.994671
0.999916 0.998015 0.996757
1.00023 0.999592 0.994652
0.999996 0.997882 0.996749
0.999808 0.99672 0.999284
1.00007 0.997775 0.996721
0.999921 0.996608 0.998778
0.999945 0.996557 0.999268
1.00029 1.00099 0.993073
1.00022 0.999757 0.994319
1.00025 1.00096 0.993246
1.00012 0.997651 0.996758
1.0002 0.99961 0.994504
1.0002 1.00088 0.993522
0.999996 0.996382 0.999299
1.00014 0.997518 0.996857
1.00018 0.999484 0.994665
1.00002 0.996282 0.999318
1.00015 0.997438 0.996919
1.00003 0.996256 0.999321
0.993843 1.00081 0.97228
0.994497 1.00144 0.953042
0.994879 0.998833 0.933201
1.00029 1.00162 0.992567
1.00028 1.00158 0.992571
1.00028 1.00194 0.992306
0.994359 1.00122 0.956837
0.994331 1.00229 0.955929
0.995222 1.00325 0.939025
0.995045 1.0003 0.978682
0.997937 1.00004 0.952424
0.995185 0.999907 0.940342
0.994688 0.999717 0.927064
0.995569 0.999362 0.975248
0.99642 1.00005 0.956407
0.995017 0.999968 0.940872
0.994674 0.999146 0.935078
0.994885 0.999474 0.971957
0.995855 1.00006 0.958932
0.994716 1.00002 0.939674
0.99463 0.999645 0.933366
1.00031 1.00228 0.991855
1.00025 1.00253 0.991709
1.00013 1.0026 0.991864
1.00029 1.00207 0.992104
1.00026 1.00215 0.992166
1.00029 1.00166 0.992668
0.998828 0.999441 0.99658
0.998967 0.998554 0.997476
1.00017 1.00293 0.991579
1.00048 1.00237 0.991611
1.00007 1.00343 0.991197
1.00025 1.0025 0.991733
1.00006 1.00276 0.991872
0.997422 0.999198 0.997082
0.999972 1.00256 0.992273
0.997478 1.00029 0.999591
1.0001 1.00227 0.99234
0.995835 0.998842 0.997863
0.99744 1.00193 0.998552
0.999629 1.00194 0.993627
0.993842 1.00131 0.981755
0.993762 1.00139 0.976502
0.994343 1.00192 0.955821
0.997406 1.0023 0.997769
0.995961 1.00257 0.99603
0.993881 1.0015 0.971489
0.995267 0.999294 0.963093
0.994756 0.999966 0.937435
0.994208 1.00175 0.964657
0.994712 0.99967 0.927288
0.9963 1.0033 0.998764
0.993844 1.0002 0.978786
0.994332 1.00226 0.956102
0.995042 0.9992 0.986323
0.994717 0.999806 0.921444
0.995225 0.999944 0.939776
0.995573 1.00033 0.958383
0.995243 1.00193 1.00069
0.993814 1.00055 0.97271
0.995065 1.00287 0.940504
0.994608 0.998173 0.922264
0.995784 0.999217 0.933225
0.995907 1.00004 0.958248
0.995838 0.999313 0.981359
0.998029 1.00107 0.997691
0.996832 0.999524 1.0014
0.996759 1.00169 0.999184
0.999951 1.00132 0.993462
0.99877 0.999168 0.997659
0.998025 1.00302 0.995125
0.998864 1.00372 0.993385
0.999907 1.0024 0.992981
0.999855 1.00432 0.990941
1.00069 1.00505 0.988366
0.999683 1.0037 0.991163
1.00076 1.00487 0.98844
1.00228 1.00477 0.986125
1.00345 1.00326 0.985192
1.00131 1.00445 0.987534
1.00177 1.00479 0.98665
1.0008 1.00488 0.988285
1.00065 1.00429 0.98947
1.0007 1.00439 0.989159
0.999899 1.00439 0.990381
0.999961 1.0048 0.989909
1.00053 1.00474 0.989012
1.00003 1.00219 0.99243
0.99996 1.00344 0.991371
0.999969 1.00438 0.990519
1.00002 1.00011 0.994492
1.00009 1.00142 0.993102
0.99989 1.00278 0.991978
1.00014 1.00098 0.993468
1.0001 0.999831 0.994649
0.999824 0.998196 0.996741
1.00018 0.999669 0.994671
0.99992 0.998013 0.996758
0.999741 0.996883 0.999276
1 0.997873 0.996748
0.999838 0.996744 0.998789
0.999883 0.996652 0.999274
1.00032 1.00101 0.993097
1.00025 0.999874 0.994313
1.00029 1.00099 0.993108
1.00009 0.997814 0.996648
1.00023 0.99976 0.994388
1.00026 1.00097 0.993323
0.999957 0.996515 0.999276
1.00012 0.997646 0.996764
1.00021 0.999617 0.994478
1 0.996362 0.999305
1.00014 0.997516 0.996862
1.00003 0.996273 0.99932
0.993927 0.999981 0.977479
0.99391 1.00051 0.972266
0.994478 1.00168 0.952914
1.00022 1.00168 0.992555
1.0001 1.00228 0.992279
1.00027 1.00163 0.992609
1.00027 1.00159 0.992576
1.00026 1.00195 0.992282
1.0002 1.00193 0.992438
1.00028 1.00204 0.992194
0.994321 1.00211 0.954047
0.994277 1.00138 0.960849
0.994367 1.00208 0.955746
0.994655 0.999274 0.936802
0.994838 0.999843 0.972694
0.995301 1.00007 0.956328
0.994801 0.999961 0.942214
0.995351 0.999588 0.971347
0.995217 1.00007 0.954517
0.994867 0.999969 0.942049
0.994634 0.999597 0.935679
0.996053 0.997683 0.975401
0.995148 1.00008 0.953837
0.995134 0.999937 0.93669
0.994697 0.999838 0.925565
1.00008 1.00217 0.992431
1.0003 1.00225 0.991875
1.00025 1.00253 0.991694
1.0003 1.00208 0.992091
0.997561 0.999302 0.997403
0.997466 1.00013 0.999682
1.00028 1.00247 0.991642
1.00006 1.00268 0.991983
0.999907 1.00259 0.992789
1.00008 1.00228 0.992285
0.999517 1.00197 0.993577
0.995744 0.999659 0.995631
0.99697 1.00245 0.998827
0.999363 1.00214 0.993586
0.995557 0.999483 0.994869
0.997887 1.00257 0.997699
0.993801 1.001 0.975611
0.99373 1.00062 0.983614
0.993689 1.00126 0.978214
0.996136 1.00361 0.99893
0.995356 0.998478 0.991766
0.993787 1.00011 0.980231
0.996786 1.00033 0.952431
0.99508 0.999917 0.941194
0.994368 1.00206 0.955912
0.994695 0.999856 0.922244
0.995488 1.00107 1.00096
0.993879 1.00035 0.972693
0.995165 1.00283 0.940016
0.994863 0.999447 0.984563
0.994588 0.998147 0.916439
0.997566 0.999862 0.935571
0.99531 1.00005 0.954396
0.99568 1.00207 0.997257
0.994541 1.00027 0.953943
0.995179 0.998831 0.925154
0.998252 0.997858 0.936082
0.995555 1.00054 0.958626
0.994902 0.999149 0.975906
0.997242 0.998884 1.00118
0.996662 1.00239 0.999127
0.99895 0.998957 0.998622
0.997842 1.00317 0.995437
0.998209 1.00373 0.99371
1.00155 1.00182 0.990061
1.00041 1.00424 0.990595
1.00092 1.00503 0.988242
1.00249 1.00307 0.986517
1.00084 1.00482 0.988355
1.0023 1.00483 0.985943
1.00385 1.0021 0.985254
1.00472 1.00027 0.985595
1.00304 1.00433 0.985313
1.0035 1.00328 0.984988
1.00107 1.00408 0.988348
1.00132 1.00442 0.987758
1.00177 1.00494 0.986558
1.00047 1.00447 0.989469
1.00057 1.00433 0.989452
1.00049 1.00424 0.989479
1.00006 1.00306 0.991469
0.999925 1.00428 0.99051
1.00006 1.00482 0.990021
0.999964 1.00067 0.994034
1.00006 1.00214 0.992426
1.00002 1.00334 0.991376
0.999737 0.998415 0.996685
1.00002 1.00014 0.994482
1.0001 1.00143 0.993087
1.0001 0.999833 0.994646
0.99983 0.998199 0.996739
0.999642 0.99707 0.999271
0.999925 0.998012 0.996758
0.999729 0.996914 0.999275
0.999806 0.996781 0.999276
1.00021 1.00179 0.992523
1.00034 1.00105 0.993029
1.00026 0.999998 0.994174
1.00033 1.00101 0.993091
1.00004 0.998003 0.996534
1.00025 0.999893 0.994309
1.00028 1.00102 0.993143
0.999905 0.996678 0.99925
1.00009 0.99781 0.996654
1.00023 0.999764 0.994458
0.999962 0.996486 0.999283
1.00012 0.997642 0.996771
1 0.996339 0.99931
0.993958 1.00043 0.972251
0.993858 0.999907 0.978904
0.993975 1.00033 0.972246
1.00025 1.00165 0.992581
1.00008 1.0023 0.992236
1.00004 1.00265 0.99194
1.00009 1.00216 0.992298
1.00008 1.00267 0.991977
1.00026 1.0016 0.992581
1.00024 1.00196 0.992258
1.00019 1.00193 0.992436
1.00027 1.00204 0.992192
1.00009 1.00216 0.992469
0.994903 1.00258 0.940371
0.994346 1.00225 0.953871
0.994189 1.00153 0.964855
0.994641 0.999544 0.935829
0.994725 1 0.93805
0.994869 0.999543 0.970098
0.995054 1.00006 0.958395
0.995541 0.997814 0.971753
0.995753 1.00006 0.958482
0.994884 0.999937 0.94034
0.9949 0.999821 0.923447
0.996093 0.995582 0.976247
0.995327 1.00006 0.959183
0.995743 0.99988 0.939658
0.995041 0.998153 0.921271
0.999386 1.00156 0.99416
1.00004 1.00225 0.992448
1.0003 1.00223 0.991895
0.995586 1.0003 0.993419
0.996751 1.00281 0.999083
1.00008 1.00228 0.992229
0.99937 1.00211 0.993528
0.999349 1.00218 0.993602
0.99766 1.00209 0.997581
0.995264 0.999537 0.995073
0.99791 1.00178 0.99669
0.995885 1.00113 0.994288
0.994459 1.001 0.954569
0.993717 1.0008 0.977288
0.993605 0.9999 0.985473
0.99551 1.0004 1.0013
0.99526 0.999259 0.979009
0.993942 1.00024 0.972669
0.996844 1.00007 0.955415
0.995167 0.999896 0.93983
0.995203 1.00306 0.939546
0.994575 0.998136 0.91063
0.99575 1.00185 0.997536
0.994515 1.00104 0.953724
0.995162 0.999065 0.923242
0.994983 0.99906 0.977319
0.998282 0.998667 0.936166
0.996258 1.00004 0.955497
0.997048 0.999265 0.99451
0.994875 0.998164 0.932567
0.998463 0.996835 0.938037
0.99832 0.999179 0.953497
0.994861 0.999111 0.977426
0.996591 1.00288 0.999055
0.998789 0.998899 0.99864
1.00254 0.9978 0.993384
0.997661 1.00367 0.994015
1.00094 1.00208 0.990525
1.00328 0.999011 0.988671
1.00117 1.00497 0.988116
1.00254 1.00315 0.986573
1.00431 0.999686 0.98669
1.00231 1.00496 0.985762
1.00384 1.00217 0.985297
1.00505 0.998896 0.98629
1.00506 0.998742 0.986454
1.0041 1.00216 0.984991
1.00468 1.0003 0.985624
1.00237 1.00428 0.986258
1.00285 1.00433 0.985184
1.00354 1.0033 0.984784
1.00105 1.00386 0.988924
1.00101 1.00401 0.988618
1.00132 1.00441 0.987981
1.00042 1.00341 0.990493
1.00039 1.0044 0.989566
1.00048 1.00436 0.989433
0.999958 1.00153 0.993173
1.00011 1.00302 0.991472
0.999949 1.00418 0.990639
0.999639 0.998756 0.996998
0.999963 1.00069 0.994016
1.0001 1.0021 0.992421
0.999557 0.997325 0.998249
0.999738 0.998451 0.996909
1.00001 1.00016 0.994471
0.999836 0.998204 0.996738
0.999631 0.997112 0.999267
0.999716 0.996947 0.999274
1.00016 1.00215 0.99221
1.00032 1.00123 0.992901
1.00019 1.00185 0.992488
1.00024 1.00013 0.994088
1.00032 1.00108 0.993029
0.999991 0.998191 0.996439
1.00025 1.00002 0.994172
1.00033 1.00102 0.993085
0.999845 0.996864 0.999222
1.00004 0.998 0.99654
1.00024 0.999913 0.994306
0.999912 0.996646 0.999258
1.00008 0.997807 0.996661
0.999968 0.996458 0.99929
0.994836 1.00019 0.955398
0.993918 1.00053 0.972244
0.993783 0.999867 0.980337
1.00004 1.00281 0.99184
1.00025 1.00167 0.992606
1.00008 1.00233 0.992193
1.00012 1.00217 0.99233
1.00008 1.00259 0.991983
1.00005 1.00268 0.991935
1.00005 1.00299 0.991646
0.999964 1.00267 0.99196
1.00019 1.00193 0.992433
1.00026 1.00204 0.992191
1.00005 1.0022 0.992426
0.999706 1.0026 0.993006
0.994976 0.999483 0.923419
0.995091 1.0027 0.939822
0.994356 1.00239 0.9537
0.9951 0.999808 0.92528
0.99517 0.999933 0.940141
0.995146 1.00008 0.954003
0.99608 0.997923 0.969939
0.996274 0.995314 0.978073
0.994796 0.998149 0.915764
0.99554 1.00005 0.955607
0.997351 0.999879 0.93487
0.995583 0.997383 0.978947
0.995829 1.00003 0.960514
0.998489 0.998584 0.933979
0.999191 1.00057 0.995511
0.999542 1.0015 0.994139
0.999994 1.00234 0.992465
0.994904 0.999541 0.995234
0.997675 1.00137 0.997458
0.999372 1.00216 0.993616
0.998631 1.00154 0.996499
0.995673 1.00127 0.994479
0.997769 1.00085 0.994407
0.994809 0.999782 0.929629
0.994385 1.00063 0.958619
0.993661 1.00062 0.978967
0.995715 1.00217 0.997852
0.994908 0.999031 0.978246
0.994492 1.00143 0.953566
0.995286 1.00008 0.955594
0.998349 0.997954 0.931248
0.99523 0.999115 0.924894
0.997115 0.999372 0.994576
0.994891 0.998176 0.933793
0.9995 0.996168 0.933792
0.995007 0.999203 0.973381
0.997564 0.998969 0.958808
0.998576 0.998636 0.995148
0.999907 0.995391 0.93331
0.998653 0.997907 0.959593
0.995265 0.999183 0.972212
0.998511 0.998938 0.998704
1.00194 0.997479 0.994116
1.00377 0.997049 0.991173
1.00032 1.00236 0.990991
1.0032 0.999491 0.988595
1.00473 0.996771 0.988681
1.00259 1.00329 0.986629
1.00423 0.999859 0.986703
1.00495 0.997573 0.987807
1.00384 1.0022 0.985338
1.00506 0.998857 0.986282
1.0051 0.997625 0.987523
1.00513 0.998121 0.98702
1.00495 0.999799 0.985857
1.00507 0.998734 0.98648
1.00345 1.00263 0.985447
1.00407 1.00208 0.985122
1.00464 1.00032 0.985653
1.00179 1.00365 0.987766
1.00215 1.00424 0.986364
1.00266 1.00429 0.985055
1.00099 1.00313 0.989769
1.00111 1.00383 0.988894
1.00096 1.00391 0.988888
1.00013 1.00227 0.992143
1.00046 1.00339 0.990502
1.00032 1.00433 0.989663
0.999599 0.999209 0.996097
0.999997 1.00149 0.993155
1.00016 1.00297 0.991476
0.999422 0.997592 0.999234
0.999649 0.998811 0.996461
0.999966 1.00071 0.993997
0.999536 0.997324 0.999251
0.999743 0.998467 0.996653
0.99962 0.997156 0.999263
1.00016 1.00243 0.992014
1.00018 1.00215 0.992201
1.00028 1.00153 0.992664
1.00018 1.0003 0.99402
1.00029 1.00124 0.992905
1.00019 1.00185 0.992452
0.99993 0.998363 0.996382
1.00023 1.00013 0.994088
1.00031 1.00109 0.993028
0.999777 0.997049 0.999198
0.99999 0.998188 0.996443
1.00025 1.00004 0.994169
0.999851 0.99683 0.99923
1.00004 0.997996 0.996546
0.999919 0.996612 0.999266
0.994907 0.999404 0.926438
0.994772 1.00024 0.955206
0.993879 1.00062 0.972234
0.999985 1.00291 0.991796
1.00018 1.0032 0.99136
0.999965 1.00323 0.991544
1.00013 1.00217 0.992362
1.00012 1.00253 0.992027
0.999993 1.00272 0.991894
1.00002 1.00266 0.991932
1.00002 1.00302 0.991613
0.999898 1.00363 0.991343
1.00017 1.00164 0.992692
1.00008 1.00216 0.992383
0.999703 1.0024 0.99295
0.999778 0.996821 0.931984
0.994962 0.999516 0.920449
0.995291 1.00281 0.939303
0.994633 0.998145 0.910261
0.996136 0.999362 0.939014
0.995874 1.00001 0.957051
0.996008 0.995092 0.975684
0.995288 0.997528 0.977172
0.997957 0.998691 0.935551
0.996386 1 0.955564
0.995798 0.997906 0.978515
0.998014 0.999073 0.953798
1.00154 0.999477 0.992985
0.999404 1.00047 0.995313
0.999649 1.00142 0.994127
0.995195 1.0017 0.994645
0.999103 1.00136 0.996306
0.998121 1.00115 0.993819
1.00106 0.999139 0.989929
0.999958 0.994872 0.936137
0.994824 0.999956 0.931653
0.994321 1.00035 0.962618
0.997211 0.999324 0.994708
0.99486 0.999196 0.973045
0.994908 0.998561 0.933905
0.997486 0.998819 0.953195
0.999914 0.997419 0.938874
0.998481 0.998893 0.993542
0.99994 0.995307 0.935719
1.00069 0.996626 0.953292
0.995306 0.998851 0.975006
0.999348 0.997113 0.994746
1.00035 0.996397 0.957476
0.995749 1.00042 0.977805
1.0013 0.997112 0.994837
1.00365 0.996652 0.991144
1.005 0.995373 0.990113
1.00312 0.999925 0.988518
1.00463 0.996779 0.988676
1.00487 0.995953 0.98939
1.00413 0.999947 0.986718
1.00491 0.997567 0.987768
1.00509 0.996231 0.988846
1.00507 0.998818 0.986275
1.0051 0.997565 0.987541
1.00513 0.996802 0.988259
1.00514 0.997609 0.987591
1.00512 0.998038 0.987107
1.00511 0.998699 0.986607
1.00462 1.0005 0.98587
1.00496 0.999676 0.985891
1.00508 0.998726 0.986506
1.00289 1.00273 0.986419
1.00345 1.00273 0.98555
1.00405 1.00197 0.985252
1.00151 1.00297 0.988963
1.00183 1.00364 0.987732
1.00194 1.00425 0.986469
1.00045 1.00244 0.991371
1.00104 1.0031 0.989762
1.00117 1.0038 0.988864
0.99962 0.999824 0.995419
1.00018 1.00218 0.99214
1.00052 1.00335 0.990511
0.999402 0.997866 0.999153
0.999596 0.999289 0.996059
1.00003 1.00145 0.993137
0.999453 0.997627 0.9987
0.999656 0.998835 0.996446
0.999528 0.997404 0.999238
1.00023 1.00274 0.991579
1.00011 1.0025 0.991995
1.00018 1.00199 0.992359
1.00021 1.00216 0.992192
1.00025 1.00155 0.992666
1.0001 1.00058 0.993873
0.999855 0.99854 0.99635
1.00018 1.0003 0.994025
1.00026 1.00127 0.99291
0.9997 0.99722 0.999184
0.999927 0.99836 0.996385
1.00023 1.00014 0.994089
0.999784 0.99702 0.999205
0.999987 0.998187 0.996447
0.999858 0.996794 0.999239
0.999918 0.995126 0.937238
0.994939 0.999764 0.926481
0.994683 1.0003 0.955004
0.99993 1.00301 0.991752
0.999933 1.00338 0.991417
1.00007 1.00318 0.991483
1.00058 1.00331 0.990492
0.999911 1.00384 0.99109
1.00005 1.00269 0.991905
1.00001 1.00304 0.991581
0.999855 1.00348 0.991405
0.999873 1.00378 0.99057
1.00037 1.00225 0.991762
1.00334 1.00032 0.98835
0.999879 1.00183 0.992983
0.999767 1.00218 0.992893
1.00027 0.99718 0.95701
0.999131 0.996862 0.934
0.994952 0.999399 0.92127
0.99836 0.998977 0.930067
0.995784 1.00013 0.957119
0.995554 0.997616 0.979611
0.995542 0.997925 0.980521
0.997198 0.999282 0.960315
0.997237 0.999681 0.977207
1.00382 0.997077 0.990667
1.0012 0.999306 0.993005
0.999598 1.00041 0.995109
0.998451 1.00132 0.99327
1.00179 1.00016 0.988584
1.00039 0.995438 0.954559
0.999946 0.995187 0.938542
0.994838 0.999859 0.933726
0.998332 0.999205 0.991916
0.99487 0.999081 0.972408
0.999917 0.99536 0.936435
0.999365 0.998378 0.959485
0.99918 0.998274 0.995012
1.00153 0.995524 0.957368
0.995675 0.9996 0.974706
1.00072 1.00073 0.991853
0.999825 0.997441 0.982339
1.00353 0.99626 0.991127
1.00499 0.995214 0.989888
1.00509 0.994933 0.990148
1.00451 0.996841 0.988667
1.00479 0.995962 0.989371
1.00506 0.995061 0.98992
1.00488 0.99757 0.987728
1.00509 0.996184 0.988832
1.00512 0.995827 0.98927
1.00508 0.997501 0.98756
1.00513 0.996834 0.988228
1.00513 0.996919 0.988341
1.00515 0.997484 0.987643
1.00511 0.998175 0.987131
1.00511 0.997951 0.987195
1.0051 0.998698 0.986603
1.00493 0.999272 0.986413
1.00403 1.00105 0.986139
1.00461 1.00043 0.985851
1.00497 0.999555 0.985925
1.00229 1.00255 0.987962
1.00284 1.00281 0.98651
1.00344 1.00284 0.985655
1.00081 1.00237 0.990745
1.00156 1.00296 0.988939
1.00188 1.00362 0.987698
0.999745 1.00037 0.994634
1.00049 1.00241 0.991377
1.00107 1.0031 0.989755
0.999418 0.998201 0.999016
0.999628 0.99988 0.995389
1.00024 1.0021 0.992139
0.999426 0.997925 0.999115
0.999592 0.999366 0.99602
0.999466 0.997676 0.999186
1.00067 1.00294 0.990578
1.00024 1.00268 0.991574
1.00021 1.00241 0.991819
1.00006 1.00254 0.991975
1.00016 1.00206 0.992291
1.00005 1.00103 0.99349
1.00023 1.00157 0.992668
1.0001 1.00056 0.993882
0.999764 0.998769 0.996293
0.999616 0.997399 0.999173
0.999851 0.998535 0.996353
1.00018 1.00029 0.994029
0.999709 0.9972 0.999188
0.999924 0.998358 0.996387
0.999791 0.996989 0.999212
1.00131 0.995157 0.959515
0.999932 0.995368 0.93584
0.994951 1.00029 0.925009
0.999896 1.00354 0.991291
0.999975 1.00312 0.991606
0.999935 1.00382 0.991138
1.00052 1.00329 0.99055
1.00096 1.00357 0.989453
1.00005 1.0037 0.990662
0.999812 1.00334 0.991467
1.00016 1.00388 0.990244
1.00032 1.00256 0.991493
1.00126 1.00213 0.989627
1.00339 1.00034 0.988867
1.00429 0.998602 0.987704
1.00291 1.00033 0.988802
0.999549 1.00217 0.993274
0.996344 0.999741 0.976342
1.00015 0.996594 0.956435
0.998825 0.997167 0.938948
0.998855 0.999533 0.953624
0.995317 0.998061 0.981856
0.997563 0.999266 0.981539
1.0015 0.998487 0.991669
1.00371 0.997097 0.990966
1.00116 0.999056 0.993025
1.00303 1.00124 0.9872
0.998483 0.996625 0.977911
1.00103 0.995098 0.961012
0.999922 0.995593 0.934188
0.999091 0.999091 0.995222
0.995443 0.999806 0.976808
1.00107 0.995534 0.957214
1.00077 1.00022 0.991999
0.999083 0.997316 0.981106
1.00348 1.00102 0.989261
1.00435 0.995954 0.989828
1.00492 0.995053 0.989655
1.00506 0.994945 0.990088
1.00507 0.995007 0.990195
1.00473 0.995975 0.989355
1.00506 0.995174 0.989877
1.0051 0.995254 0.989871
1.0051 0.996143 0.988818
1.00512 0.99585 0.989238
1.00512 0.996465 0.988851
1.00514 0.996868 0.988197
1.00512 0.996924 0.98826
1.00513 0.997748 0.987434
1.00515 0.997363 0.987694
1.00511 0.99809 0.98721
1.00497 0.998853 0.986762
1.0051 0.998717 0.986599
1.00493 0.999262 0.986406
1.00451 0.999844 0.986683
1.00324 1.00131 0.987219
1.00396 1.00112 0.986213
1.00459 1.00036 0.985833
1.00139 1.00212 0.98997
1.0023 1.00253 0.987961
1.00279 1.00289 0.9866
0.999862 1.00086 0.993925
1.00085 1.00239 0.990736
1.00161 1.00294 0.988914
0.999476 0.998592 0.998813
0.999778 1.00037 0.994623
1.00053 1.00236 0.991381
0.999458 0.998278 0.998951
0.999635 0.999942 0.995358
0.999458 0.997986 0.999073
1.00106 1.00333 0.989518
1.00071 1.00293 0.990617
1.00053 1.00264 0.991091
1.00024 1.00264 0.99157
1.00024 1.00244 0.991739
1.00012 1.00153 0.992876
1.00015 1.00213 0.992223
1.00005 1.00103 0.993499
0.999673 0.999094 0.996129
1.00011 1.00055 0.993889
0.999764 0.998746 0.996301
0.999537 0.997601 0.999156
0.999626 0.997376 0.999177
0.999848 0.998528 0.996356
0.999716 0.997177 0.999192
0.997431 0.998299 0.977929
1.00113 0.995658 0.953806
0.999892 0.995123 0.939167
1.0021 1.00275 0.988249
0.999966 1.00381 0.991185
1.00045 1.00328 0.990608
1.00015 1.00377 0.990585
1.0009 1.0037 0.989391
1.00108 1.00224 0.990208
1.00044 1.00397 0.989917
1.00034 1.00281 0.991224
1.00143 1.00207 0.989857
1.00344 1.00033 0.988401
1.00443 0.999092 0.987169
1.00455 0.997116 0.988926
1.00437 0.998691 0.987336
1.00255 1.00027 0.989254
1.00035 0.999004 0.993653
0.996615 0.999588 0.974921
0.999648 0.997064 0.956265
0.997693 0.998434 0.979897
1.00153 0.99736 0.993669
1.00316 0.997203 0.991252
1.00258 0.9961 0.989036
0.997705 0.99596 0.980365
1.00053 0.99517 0.95455
1.00066 0.999924 0.992143
0.999221 0.997311 0.979784
1.00341 0.999112 0.989474
1.00428 0.995803 0.989767
1.00506 0.996097 0.989961
1.00489 0.996262 0.990509
1.00509 0.994961 0.990029
1.00508 0.994976 0.990224
1.00512 0.995141 0.99005
1.00505 0.995271 0.989833
1.0051 0.995304 0.989873
1.00512 0.996032 0.989211
1.00513 0.995875 0.989207
1.00512 0.99645 0.988789
1.00515 0.99753 0.987641
1.00512 0.996929 0.988179
1.00512 0.99776 0.98745
1.00505 0.998594 0.986792
1.0051 0.998 0.987289
1.00498 0.998778 0.98679
1.00468 0.999342 0.986748
1.00494 0.999244 0.986399
1.00451 0.9998 0.986612
1.00386 1.00033 0.987305
1.00216 1.00136 0.989336
1.0032 1.00139 0.987301
1.0039 1.00121 0.986287
1.00008 1.00111 0.993277
1.00141 1.00213 0.989961
1.00231 1.00252 0.987961
0.999476 0.999048 0.9986
0.999968 1.00074 0.993913
1.00088 1.0024 0.990726
0.999502 0.998678 0.998738
0.999814 1.00037 0.994611
0.999501 0.998346 0.998879
1.00179 1.00313 0.988182
1.00103 1.00331 0.989531
1.00096 1.00283 0.990232
1.00074 1.0029 0.990656
1.00054 1.00262 0.991108
1.00025 1.00198 0.992236
1.00026 1.00247 0.991658
1.00008 1.00161 0.992876
0.999608 0.999556 0.995768
1.00004 1.00104 0.993509
0.999679 0.999043 0.996149
0.999483 0.997816 0.999113
0.999764 0.998727 0.996309
0.999543 0.997569 0.999163
0.999634 0.997356 0.99918
1.00132 0.998314 0.991517
0.997521 0.997827 0.974432
1.0003 0.995649 0.959918
1.00237 1.0014 0.988645
1.00414 1.0003 0.986675
1.00185 1.0027 0.988448
1.00026 1.00385 0.990507
1.00085 1.00382 0.989322
1.00142 1.00212 0.989981
1.00423 0.999417 0.987651
1.00155 1.00203 0.990086
1.00336 1.00034 0.987934
1.00434 0.999134 0.987355
1.00506 0.997853 0.987419
1.00493 0.995946 0.989477
1.00462 0.997251 0.988705
1.0044 0.998841 0.98697
1.00076 0.99889 0.993768
0.996274 1.00018 0.972984
1.00171 0.996326 0.99568
1.00504 0.995497 0.990663
1.00237 0.996654 0.989185
0.998375 0.995893 0.977137
1.00351 0.997448 0.989691
1.00423 0.996011 0.989713
1.00506 0.995549 0.990108
1.00494 0.99579 0.990321
1.00506 0.995095 0.990051
1.00514 0.995374 0.989587
1.00509 0.994951 0.990253
1.00513 0.995071 0.990038
1.00513 0.995924 0.989294
1.0051 0.995358 0.989874
1.00512 0.996121 0.989093
1.00513 0.997194 0.988036
1.00512 0.996433 0.988727
1.00514 0.997543 0.987653
1.00512 0.998487 0.986785
1.00511 0.997772 0.987465
1.00505 0.998594 0.986804
1.0048 0.999225 0.98666
1.00498 0.998706 0.986818
1.00467 0.999323 0.986736
1.0041 0.999882 0.987304
1.00452 0.999752 0.98654
1.00382 1.00032 0.987257
1.00274 1.00055 0.98909
1.00039 1.00094 0.992821
1.00215 1.00138 0.989335
1.00315 1.00148 0.987382
0.999424 0.999575 0.998408
1.00017 1.00102 0.993258
1.00142 1.00216 0.989951
0.999491 0.999163 0.998532
1.00005 1.00068 0.993899
0.999531 0.998766 0.998664
1.00306 1.0018 0.98683
1.00179 1.00309 0.988073
1.00163 1.00277 0.989007
1.001 1.0033 0.989544
1.0009 1.00284 0.990257
1.00047 1.0023 0.991572
1.00054 1.00259 0.991125
1.0002 1.00205 0.992234
0.999656 1.00005 0.995187
1.00004 1.00167 0.992877
0.999622 0.999482 0.995794
0.999469 0.998084 0.999007
0.999684 0.998994 0.99617
0.999479 0.997782 0.99913
0.99955 0.997542 0.999169
1.00507 0.995533 0.989865
1.00147 0.997928 0.990479
0.997175 0.996985 0.975195
1.00459 0.999302 0.986966
1.00203 1.00105 0.989639
1.00497 0.998804 0.986622
1.00425 1.00037 0.986614
1.00161 1.00264 0.988655
1.00508 0.998152 0.987027
1.00176 1.00196 0.989762
1.0044 0.999421 0.987239
1.00512 0.996976 0.988042
1.00431 0.999169 0.987542
1.00502 0.997803 0.987449
1.00488 0.995987 0.989583
1.00453 0.997367 0.988474
1.00102 0.998725 0.993914
1.00515 0.995681 0.989203
1.00505 0.995842 0.990662
1.00218 0.996871 0.989311
1.00506 0.9949 0.990262
1.00493 0.995328 0.990136
1.00508 0.995053 0.990176
1.00515 0.995355 0.989628
1.00518 0.995861 0.989196
1.00513 0.994982 0.990026
1.00514 0.995879 0.989302
1.00509 0.996997 0.988322
1.00512 0.996218 0.988975
1.00513 0.997288 0.987928
1.00515 0.998432 0.986808
1.00514 0.997557 0.987665
1.00512 0.998492 0.986795
1.00491 0.999173 0.986518
1.00505 0.998594 0.986816
1.0048 0.999224 0.986665
1.00425 0.999708 0.9872
1.00467 0.999302 0.986724
1.00409 0.99989 0.987309
1.00301 1.00015 0.989006
1.00378 1.0003 0.987209
1.00273 1.00057 0.989087
1.00063 1.0006 0.993826
0.999537 0.999927 0.995965
1.00047 1.00088 0.993373
1.00214 1.0014 0.989334
0.999459 0.999699 0.998335
1.00029 1.0009 0.993237
0.999508 0.999259 0.998458
1.00511 0.998632 0.986768
1.00429 0.999903 0.986663
1.00323 1.00178 0.986727
1.00247 1.00225 0.987909
1.00178 1.00304 0.987963
1.00158 1.0028 0.989034
1.00091 1.00231 0.990777
1.00085 1.00284 0.990282
1.00042 1.00232 0.991585
0.999814 1.00053 0.994465
1.00015 1.00213 0.992232
0.999643 1.00002 0.995202
0.999463 0.998462 0.998825
0.999636 0.999403 0.995818
0.999449 0.99803 0.999048
0.999477 0.997747 0.999145
1.00516 0.996221 0.988706
1.00511 0.995571 0.99027
1.00175 0.997595 0.989441
1.00514 0.998339 0.986791
1.00441 0.999373 0.987257
1.0017 1.00071 0.990614
1.005 0.998916 0.986622
1.00436 1.00045 0.986553
1.0051 0.997215 0.98819
1.00507 0.998148 0.986983
1.00458 0.999447 0.986823
1.00512 0.996966 0.988048
1.00501 0.997769 0.987478
1.00489 0.996013 0.989705
1.00516 0.99612 0.98914
1.00517 0.995676 0.989266
1.00507 0.996192 0.990666
1.00511 0.995016 0.990296
1.00515 0.995367 0.989669
1.00517 0.995752 0.989317
1.00514 0.997053 0.988232
1.00514 0.995846 0.989309
1.0051 0.997015 0.988293
1.00515 0.998306 0.986939
1.00514 0.997379 0.98782
1.00514 0.998431 0.986822
1.00501 0.999182 0.986344
1.00511 0.998497 0.986804
1.0049 0.999172 0.986525
1.00438 0.999663 0.987002
1.0048 0.999224 0.986669
1.00425 0.999711 0.9872
1.00315 1.00002 0.988877
1.00407 0.999898 0.987314
1.00301 1.00015 0.989
1.00081 1.00023 0.993914
1.00271 1.00059 0.989083
1.00076 1.00053 0.993783
0.999596 1.00012 0.995875
0.999456 1.00011 0.997055
1.00062 1.0008 0.993842
0.99949 0.999816 0.998262
1.00515 0.99846 0.986765
1.00481 0.999089 0.986928
1.0051 0.998546 0.986761
1.00342 1.00095 0.987367
1.00435 0.999927 0.986634
1.00339 1.00176 0.986625
1.00246 1.00228 0.987901
1.00156 1.00197 0.989874
1.00152 1.00282 0.98906
1.00086 1.00229 0.990796
1.00001 1.00091 0.993748
1.00036 1.00233 0.991598
0.999742 1.00058 0.994477
0.99941 0.999015 0.998601
0.999628 0.999999 0.995216
0.999444 0.998384 0.998892
0.999439 0.997983 0.999084
1.00512 0.996614 0.988611
1.00516 0.996215 0.988709
1.00512 0.995605 0.990649
1.00513 0.997775 0.987488
1.00514 0.998345 0.986815
1.00423 0.999438 0.987554
1.00502 0.999022 0.986621
1.0051 0.997217 0.98807
1.00507 0.998146 0.986939
1.0051 0.99697 0.988054
1.00513 0.996902 0.988402
1.00515 0.996174 0.989045
1.00519 0.995654 0.989329
1.00512 0.997426 0.987822
1.00516 0.995636 0.989438
1.00514 0.997063 0.988222
1.00515 0.99808 0.98728
1.0051 0.997033 0.988265
1.00515 0.998302 0.986948
1.0051 0.999147 0.986214
1.00513 0.998434 0.986836
1.00499 0.999182 0.986358
1.00452 0.999701 0.986714
1.0049 0.999171 0.986532
1.00438 0.999661 0.987004
1.00327 0.999986 0.988695
1.00424 0.999713 0.987201
1.00316 1 0.988873
1.00093 1.00003 0.993937
1.00301 1.00014 0.988994
1.00091 1.00019 0.993866
0.999636 1.00004 0.995947
1.00089 1.00044 0.993747
0.999417 1.00029 0.995974
0.999225 1.0003 0.998339
1.00515 0.99842 0.986767
1.00494 0.998933 0.986709
1.00517 0.998459 0.986743
1.00407 0.999867 0.98757
1.00478 0.998975 0.98689
1.00509 0.99846 0.986753
1.00237 1.00111 0.989174
1.00347 1.00096 0.987339
1.00441 0.999949 0.986605
1.00246 1.0023 0.987893
1.00155 1.00193 0.989888
1.00025 1.00108 0.993129
1.00082 1.00227 0.990815
0.999903 1.00101 0.993768
0.999331 0.999674 0.998394
0.999676 1.00064 0.994487
0.999407 0.998893 0.998685
0.999431 0.998298 0.998954
1.00512 0.997305 0.987906
1.00512 0.996539 0.988639
1.00517 0.996215 0.988713
1.00513 0.997751 0.987508
1.00514 0.998355 0.98684
1.0051 0.997219 0.987949
1.00511 0.997479 0.987879
1.00512 0.996971 0.988349
1.00514 0.996225 0.988951
1.00513 0.997411 0.987892
1.00513 0.998091 0.987225
1.00513 0.997074 0.988211
1.00515 0.998156 0.987138
1.00513 0.998928 0.986402
1.00515 0.998294 0.986956
1.00507 0.999146 0.986229
1.00468 0.999689 0.986405
1.00496 0.999178 0.986371
1.00452 0.999696 0.986717
1.00339 1 0.988433
1.00438 0.999659 0.987006
1.00328 0.999972 0.988693
1.00101 0.999994 0.99382
1.00317 0.999985 0.988869
1.00101 0.999997 0.99387
0.999709 0.999951 0.995934
1.001 1.00013 0.993828
0.999469 1.00013 0.996056
0.999242 1.00051 0.996058
1.00514 0.998054 0.987245
1.00506 0.998896 0.986448
1.00516 0.998335 0.986848
1.00437 0.999469 0.987316
1.00495 0.998967 0.986716
1.00518 0.998459 0.986722
1.00297 1.00023 0.988938
1.00409 0.99978 0.987433
1.00475 0.998866 0.986852
1.00055 1.00085 0.99274
1.00239 1.0011 0.989175
1.00352 1.00097 0.987311
1.00154 1.00191 0.989903
1.00014 1.00119 0.993152
0.999335 1.00025 0.998225
0.999794 1.00113 0.993785
0.999324 0.99953 0.99847
0.999404 0.998762 0.99876
1.00511 0.997604 0.987688
1.00512 0.997282 0.987936
1.00512 0.996466 0.988667
1.00512 0.997729 0.987529
1.00512 0.998133 0.987205
1.00511 0.997484 0.987894
1.00512 0.997039 0.988296
1.00513 0.997397 0.987962
1.00513 0.998042 0.987269
1.00511 0.998821 0.986614
1.00515 0.998231 0.986995
1.00512 0.999015 0.986328
1.0048 0.999511 0.986289
1.00505 0.99915 0.986244
1.00468 0.999691 0.986414
1.00358 0.999992 0.988101
1.00451 0.999697 0.986721
1.0034 0.999993 0.988431
1.00112 1.00005 0.992466
1.00329 0.999955 0.988691
1.00108 0.999959 0.993192
0.999704 0.999966 0.998139
1.00109 0.999977 0.993806
0.999564 0.999969 0.996052
0.999316 1.00023 0.996148
1.00514 0.998021 0.987333
1.0051 0.998774 0.986567
1.00514 0.998106 0.987208
1.0046 0.999273 0.986774
1.00506 0.998901 0.98652
1.00517 0.998248 0.98693
1.00324 0.999792 0.988606
1.00438 0.999485 0.98731
1.00495 0.998997 0.986723
1.00083 1.00033 0.992693
1.00298 1.00019 0.988832
1.00411 0.999689 0.987297
0.999412 1.0005 0.998149
1.00049 1.0009 0.992758
1.0024 1.00108 0.989175
1.00004 1.00125 0.99318
0.999284 1.00011 0.998286
0.999314 0.999366 0.998548
1.00512 0.998103 0.987243
1.00511 0.997599 0.987696
1.00511 0.997258 0.987966
1.00511 0.998775 0.986618
1.00511 0.998088 0.987253
1.00512 0.99749 0.98791
1.00513 0.997989 0.987313
1.00511 0.998809 0.986616
1.00484 0.9994 0.986592
1.00511 0.999105 0.986253
1.0048 0.999582 0.986389
1.00375 0.999874 0.987641
1.00468 0.999687 0.986422
1.00358 0.999989 0.988101
1.00124 1.00008 0.992196
1.00342 0.999985 0.988428
1.00113 1.00004 0.992455
0.999737 0.999975 0.998096
1.0011 0.999944 0.992626
0.999647 0.999938 0.997082
0.999421 0.999977 0.996166
1.00514 0.998243 0.987097
1.00511 0.998715 0.98657
1.00514 0.998001 0.98733
1.0047 0.999291 0.986734
1.0051 0.998797 0.986506
1.00513 0.998157 0.987171
1.00345 0.999649 0.988341
1.00461 0.999347 0.986914
1.00507 0.998906 0.986591
1.00101 0.999967 0.992716
1.00325 0.999794 0.988578
1.00439 0.999499 0.987303
0.999532 1.00036 0.998151
1.00081 1.00033 0.9927
1.00299 1.00014 0.988725
0.999376 1.00039 0.998164
1.00043 1.00092 0.992781
0.999237 0.999978 0.998353
1.0051 0.998667 0.986756
1.00512 0.998123 0.987196
1.00511 0.997592 0.987704
1.0048 0.999288 0.986753
1.00511 0.998732 0.986679
1.00511 0.99805 0.9873
1.00511 0.998796 0.986618
1.00484 0.999406 0.986587
1.00381 0.999787 0.98762
1.00479 0.999656 0.986488
1.00374 0.99991 0.987752
1.00137 1.00007 0.991968
1.00358 0.999983 0.988102
1.00125 1.00008 0.992186
0.999811 0.999991 0.998014
1.00113 1.00003 0.992445
0.999762 0.999975 0.998067
0.999707 0.999869 0.995898
1.0051 0.99873 0.986681
1.00514 0.998157 0.987123
1.00472 0.999269 0.986744
1.0051 0.998719 0.986571
1.00513 0.99798 0.987327
1.00358 0.999673 0.988405
1.0047 0.999291 0.98673
1.0051 0.99882 0.986445
1.00115 0.999843 0.992571
1.00346 0.999696 0.988433
1.00462 0.999424 0.987054
0.99968 1.00012 0.99813
1.001 0.999958 0.992724
1.00326 0.999794 0.98855
0.999507 1.00034 0.998141
1.0008 1.00033 0.992704
0.999305 1.00034 0.998198
1.00476 0.999247 0.986884
1.0051 0.998692 0.986723
1.00512 0.998144 0.987149
1.00376 0.999726 0.987769
1.00481 0.999301 0.986753
1.00511 0.998684 0.98674
1.00484 0.999413 0.986582
1.00381 0.999785 0.987608
1.00143 1.00005 0.991885
1.00373 0.999943 0.987863
1.00137 1.00006 0.991963
0.999907 1.00001 0.99793
1.00125 1.00009 0.992176
0.999845 0.999996 0.997983
0.999789 0.999977 0.998033
1.00472 0.999262 0.986776
1.0051 0.998641 0.986726
1.00515 0.998071 0.98715
1.00361 0.999705 0.98832
1.00472 0.99927 0.986736
1.0051 0.998724 0.986571
1.00125 0.999881 0.99236
1.00358 0.999682 0.9884
1.0047 0.99929 0.986725
0.999803 0.999978 0.99806
1.00115 0.999849 0.992579
1.00347 0.999734 0.988524
0.999637 1.00015 0.998141
1.001 0.999961 0.992732
0.999485 1.00033 0.998132
1.0037 0.999781 0.988088
1.00477 0.999214 0.986778
1.0051 0.998716 0.98669
1.00141 0.999996 0.991965
1.00377 0.99972 0.987748
1.00481 0.999312 0.986752
1.00382 0.999781 0.987598
1.00143 1.00003 0.991889
0.999968 1.00001 0.997867
1.00137 1.00006 0.991957
0.99993 1.00001 0.9979
0.999873 0.999999 0.997953
1.00365 0.999749 0.988217
1.00472 0.999207 0.986761
1.00509 0.998553 0.986772
1.00136 0.999979 0.993338
1.00361 0.999706 0.988314
1.00471 0.999272 0.986728
0.999862 0.999947 0.997987
1.00125 0.999902 0.992365
1.00358 0.99969 0.988394
0.999761 1.00001 0.998089
1.00114 0.999864 0.992588
0.999609 1.00016 0.998143
1.00141 0.99999 0.99201
1.0037 0.999742 0.98799
1.00477 0.999178 0.986672
0.999966 1 0.997871
1.00141 1 0.991967
1.00378 0.999717 0.987728
1.00143 1.00003 0.99189
0.999975 1.00001 0.997864
0.99996 1.00001 0.997881
1.00144 0.999994 0.993209
1.00365 0.999743 0.988217
1.00473 0.999152 0.986746
0.999647 0.999983 0.998186
1.00129 0.999985 0.992219
1.00362 0.999705 0.988309
0.999842 0.999966 0.998017
1.00125 0.999928 0.99237
0.999727 1.00003 0.998115
0.999933 1 0.995486
1.00142 0.999989 0.992613
1.00371 0.999705 0.987891
0.999961 1 0.997874
1.0014 1 0.991974
0.999983 1.00001 0.997854
0.999656 1.00001 0.995782
1.00138 0.999993 0.992682
1.00366 0.999739 0.988217
0.999755 0.999988 0.996883
1.0013 0.999984 0.992219
0.999816 0.999984 0.998045
0.999931 0.999997 0.997895
1.00136 0.999993 0.992075
0.999944 1 0.997883
0.999782 0.999996 0.996846
1.00133 0.999994 0.992142
0.999862 0.999977 0.997983
0.999915 0.999993 0.997915
0.999886 0.999987 0.997942

TENSORS stress float
0.00140797 -5.0333e-05 0.00011989
-5.0333e-05 0.000440517 -1.39062e-05
0.00011989 -1.39062e-05 0.000419487
0.00412736 -9.53461e-05 0.000111892
-9.53461e-05 0.00196636 7.1956e-06
0.000111892 7.1956e-06 0.00195591
0.00136901 2.60809e-05 6.3462e-05
2.60809e-05 0.000436182 -4.24454e-06
6.3462e-05 -4.24454e-06 0.000403563
0.00169571 -3.53249e-05 0.00012532
-3.53249e-05 0.000575973 -9.51976e-06
0.00012532 -9.51976e-06 0.000556669
0.00155877 -4.80669e-05 0.000121174
-4.80669e-05 0.000516514 -1.30944e-05
0.000121174 -1.30944e-05 0.000495561
0.00123105 -3.58851e-05 0.00011127
-3.58851e-05 0.00034174 -1.24216e-05
0.00011127 -1.24216e-05 0.000324363
0.00130579 -1.0974e-05 1.07501e-05
-1.0974e-05 0.000329791 -7.48885e-06
1.07501e-05 -7.48885e-06 0.000260412
0.00398766 -0.000122074 6.66654e-06
-0.000122074 0.00189018 -7.91883e-07
6.66654e-06 -7.91883e-07 0.00187811
0.00484777 -9.25068e-05 2.78918e-05
-9.25068e-05 0.00234914 1.84084e-06
2.78918e-05 1.84084e-06 0.00233255
0.00415263 -0.00026153 -7.27942e-06
-0.00026153 0.00202553 4.48006e-06
-7.27942e-06 4.48006e-06 0.00198204
0.00136448 -5.16795e-06 9.59317e-05
-5.16795e-06 0.000408643 6.90944e-06
9.59317e-05 6.90944e-06 0.000397816
0.000754576 8.75252e-05 1.24543e-05
8.75252e-05 3.06145e-05 8.77575e-06
1.24543e-05 8.77575e-06 -2.91733e-05
0.00165749 -1.78613e-05 0.000141711
-1.78613e-05 0.000544688 1.61558e-06
0.000141711 1.61558e-06 0.000525954
0.00124802 1.56417e-06 1.68186e-05
1.56417e-06 0.000334712 1.73473e-06
1.68186e-05 1.73473e-06 0.000304755
0.0014005 6.48293e-05 -6.7484e-06
6.48293e-05 0.000458288 4.26223e-06
-6.7484e-06 4.26223e-06 0.000421982
0.00147528 -2.41198e-05 4.97954e-05
-2.41198e-05 0.000459635 -2.97568e-06
4.97954e-05 -2.97568e-06 0.000436586
0.00126276 2.95389e-05 5.62857e-05
2.95389e-05 0.000376747 -4.08076e-06
5.62857e-05 -4.08076e-06 0.000347282
0.00142848 2.68741e-06 5.71834e-05
2.68741e-06 0.000452775 -4.74027e-06
5.71834e-05 -4.74027e-06 0.000426061
0.00139918 -5.51337e-05 -2.41051e-05
-5.51337e-05 0.000367329 1.19227e-06
-2.41051e-05 1.19227e-06 0.000307206
0.005103 -8.53477e-05 0.000150924
-8.53477e-05 0.00247621 -2.84196e-06
0.000150924 -2.84196e-06 0.0024713
0.00167119 -2.21924e-05 0.000128135
-2.21924e-05 0.000559255 -7.41407e-06
0.000128135 -7.41407e-06 0.00053965
0.00166417 -4.36609e-05 0.000123203
-4.36609e-05 0.00056439 -1.14676e-05
0.000123203 -1.14676e-05 0.000544566
0.00145051 -5.69241e-05 2.95146e-05
-5.69241e-05 0.000355296 -4.45419e-06
2.95146e-05 -4.45419e-06 0.000299175
0.0014003 -3.4217e-05 1.92908e-05
-3.4217e-05 0.000352821 -6.1806e-06
1.92908e-05 -6.1806e-06 0.000291595
0.00114962 1.18147e-05 8.89402e-05
1.18147e-05 0.000294248 -9.88828e-06
8.89402e-05 -9.88828e-06 0.000277894
0.00112907 -1.00261e-05 1.00367e-05
-1.00261e-05 0.000253804 -7.09182e-06
1.00367e-05 -7.09182e-06 0.000187075
0.00185146 -0.00015643 8.54163e-06
-0.00015643 0.000499775 -3.78203e-06
8.54163e-06 -3.78203e-06 0.000393166
0.00383283 -0.000144955 -8.54602e-05
-0.000144955 0.00180635 -4.13942e-06
-8.54602e-05 -4.13942e-06 0.00179202
0.00310578 -1.94112e-05 -7.13108e-05
-1.94112e-05 0.00138049 -2.74965e-06
-7.13108e-05 -2.74965e-06 0.00135959
0.00272954 -0.000102015 -4.87026e-05
-0.000102015 0.00120145 -1.7385e-06
-4.87026e-05 -1.7385e-06 0.00117378
0.00359993 -0.000123045 4.78549e-06
-0.000123045 0.0016661 -3.37891e-07
4.78549e-06 -3.37891e-07 0.00165808
0.000650523 7.5942e-05 -8.85916e-08
7.5942e-05 -2.18685e-05 -3.06071e-07
-8.85916e-08 -3.06071e-07 -8.09208e-05
0.00155444 4.5324e-05 0.000128287
4.5324e-05 0.00049954 8.74938e-06
0.000128287 8.74938e-06 0.000479488
0.00177184 7.75832e-05 0.000127071
7.75832e-05 0.000636511 1.15478e-05
0.000127071 1.15478e-05 0.000616918
0.00246449 0.000130327 7.81456e-05
0.000130327 0.000926469 9.13496e-06
7.81456e-05 9.13496e-06 0.000874846
0.00297521 -0.000140399 1.4774e-05
-0.000140399 0.00131852 1.53436e-06
1.4774e-05 1.53436e-06 0.00130857
0.00234715 0.000109656 6.72731e-05
0.000109656 0.000902763 9.13472e-06
6.72731e-05 9.13472e-06 0.000850605
0.000675398 3.92034e-05 1.12449e-05
3.92034e-05 -5.02572e-06 1.05436e-05
1.12449e-05 1.05436e-05 -5.66547e-05
0.000949767 0.000115845 5.2144e-06
0.000115845 8.90393e-05 2.49697e-06
5.2144e-06 2.49697e-06 -1.8141e-05
0.00258656 -9.01651e-05 5.24513e-05
-9.01651e-05 0.00108735 2.57184e-06
5.24513e-05 2.57184e-06 0.00109208
0.00516439 4.64926e-05 1.25239e-06
4.64926e-05 0.0025039 -1.03301e-06
1.25239e-06 -1.03301e-06 0.00250173
0.00317215 2.84436e-05 -5.62423e-05
2.84436e-05 0.00140385 -1.20346e-06
-5.62423e-05 -1.20346e-06 0.00138624
0.00518767 8.05288e-05 0.000153318
8.05288e-05 0.0025197 1.18711e-06
0.000153318 1.18711e-06 0.00251528
0.00134302 -1.08777e-05 1.27255e-05
-1.08777e-05 0.000387758 1.2493e-06
1.27255e-05 1.2493e-06 0.000356777
0.000748196 2.82812e-07 1.57673e-05
2.82812e-07 -6.58813e-05 2.10883e-06
1.57673e-05 2.10883e-06 -0.000128841
0.00484132 9.7744e-05 5.78542e-05
9.7744e-05 0.00233544 3.73216e-06
5.78542e-05 3.73216e-06 0.00232189
0.00248522 2.84651e-05 7.91236e-05
2.84651e-05 0.000908057 4.75696e-06
7.91236e-05 4.75696e-06 0.000863149
0.00121477 -4.42354e-05 -2.7908e-05
-4.42354e-05 0.000324867 3.14457e-06
-2.7908e-05 3.14457e-06 0.000295958
0.00133284 3.47029e-07 -1.94262e-05
3.47029e-07 0.000402785 3.52942e-06
-1.94262e-05 3.52942e-06 0.000373992
0.00133687 0.000116425 2.13864e-06
0.000116425 0.000441493 5.35752e-06
2.13864e-06 5.35752e-06 0.000396074
0.00143909 -7.91387e-05 -6.54305e-05
-7.91387e-05 0.000381182 9.06467e-06
-6.54305e-05 9.06467e-06 0.000326553
0.00329227 3.20359e-05 -6.05012e-05
3.20359e-05 0.0014772 -1.03228e-06
-6.05012e-05 -1.03228e-06 0.00145217
0.00147083 -3.35351e-05 5.15775e-05
-3.35351e-05 0.000457326 -1.83107e-06
5.15775e-05 -1.83107e-06 0.000432207
0.00114871 4.49018e-05 4.37252e-05
4.49018e-05 0.000305888 -3.14003e-06
4.37252e-05 -3.14003e-06 0.000282054
0.00146901 -1.66292e-05 5.21913e-05
-1.66292e-05 0.00046149 -4.15693e-06
5.21913e-05 -4.15693e-06 0.000438071
0.00149035 -5.86288e-05 -1.86443e-05
-5.86288e-05 0.000374415 6.64959e-07
-1.86443e-05 6.64959e-07 0.000320986
0.00126943 -3.28668e-05 -2.48997e-05
-3.28668e-05 0.000323381 3.88831e-07
-2.48997e-05 3.88831e-07 0.000261904
0.00146386 -6.67246e-05 -2.0521e-05
-6.67246e-05 0.000380595 1.20973e-06
-2.0521e-05 1.20973e-06 0.000324542
0.00191425 -0.000158426 -4.15822e-06
-0.000158426 0.000532266 1.10709e-06
-4.15822e-06 1.10709e-06 0.000424968
0.00512994 6.19895e-05 0.00014335
6.19895e-05 0.00248588 -2.64889e-08
0.00014335 -2.64889e-08 0.00248378
0.00168129 -8.06073e-06 0.000133074
-8.06073e-06 0.000560699 -5.04803e-06
0.000133074 -5.04803e-06 0.000540542
0.00234273 6.74844e-05 1.54225e-05
6.74844e-05 0.000840334 -1.31608e-06
1.54225e-05 -1.31608e-06 0.000783223
0.0014366 -6.31019e-05 2.92085e-05
-6.31019e-05 0.000345544 -4.00145e-06
2.92085e-05 -4.00145e-06 0.000287525
0.00145009 -5.13408e-05 2.60977e-05
-5.13408e-05 0.000361302 -5.20982e-06
2.60977e-05 -5.20982e-06 0.000304316
0.0019459 -0.000101482 9.05743e-06
-0.000101482 0.000477051 -2.13691e-06
9.05743e-06 -2.13691e-06 0.00038125
0.00149968 -0.000127929 1.10039e-05
-0.000127929 0.000264331 -3.98756e-06
1.10039e-05 -3.98756e-06 0.000160177
0.0011442 4.39019e-05 6.69502e-05
4.39019e-05 0.00028015 -7.94164e-06
6.69502e-05 -7.94164e-06 0.000266792
0.000881567 1.78752e-05 8.16504e-06
1.78752e-05 0.000138455 -5.48598e-06
8.16504e-06 -5.48598e-06 8.32102e-05
0.00163196 -0.000146128 6.08596e-06
-0.000146128 0.0004352 -3.425e-06
6.08596e-06 -3.425e-06 0.000329176
0.00127125 -0.000152534 5.62018e-06
-0.000152534 9.55042e-05 -1.80509e-06
5.62018e-06 -1.80509e-06 -3.88716e-05
0.00493228 9.29936e-06 -0.000138139
9.29936e-06 0.00238622 -8.03128e-06
-0.000138139 -8.03128e-06 0.00238289
0.0034254 -0.000133457 -7.24085e-05
-0.000133457 0.00156918 -2.86943e-06
-7.24085e-05 -2.86943e-06 0.00156067
0.00419253 -0.000147659 -9.47148e-05
-0.000147659 0.00201633 -6.34526e-06
-9.47148e-05 -6.34526e-06 0.00199712
0.000555069 7.19153e-05 -1.07672e-05
7.19153e-05 -7.04816e-05 -9.11127e-06
-1.07672e-05 -9.11127e-06 -0.000128989
0.00510778 6.33191e-05 -2.68515e-06
6.33191e-05 0.00247329 -9.85935e-07
-2.68515e-06 -9.85935e-07 0.00247096
0.00486688 -6.73253e-05 -6.74248e-06
-6.73253e-05 0.00237124 4.40284e-07
-6.74248e-06 4.40284e-07 0.00235813
0.000600332 0.000102595 -5.90105e-07
0.000102595 -0.000105913 -2.57728e-07
-5.90105e-07 -2.57728e-07 -0.000172003
0.00203478 -9.07533e-05 -2.99511e-05
-9.07533e-05 0.000788084 -2.05596e-07
-2.99511e-05 -2.05596e-07 0.0007782
0.000617609 0.00010748 -4.55908e-07
0.00010748 -5.33832e-05 -8.47534e-08
-4.55908e-07 -8.47534e-08 -0.000116521
0.00124906 1.85782e-05 1.88953e-05
1.85782e-05 0.000321676 2.60182e-07
1.88953e-05 2.60182e-07 0.000275607
0.000879228 0.000109435 2.97348e-07
0.000109435 4.87568e-05 -1.7941e-07
2.97348e-07 -1.7941e-07 -5.73459e-05
0.00288549 -9.59073e-05 6.71271e-05
-9.59073e-05 0.00125553 2.82353e-06
6.71271e-05 2.82353e-06 0.00125801
0.000637923 -6.81192e-05 -1.25039e-06
-6.81192e-05 -3.32602e-06 5.43172e-06
-1.25039e-06 5.43172e-06 -3.19643e-05
0.000725119 7.35416e-05 1.65578e-05
7.35416e-05 -5.81648e-05 7.73363e-06
1.65578e-05 7.73363e-06 -0.000121762
0.000762982 0.000114927 1.98837e-05
0.000114927 2.11488e-07 1.16949e-05
1.98837e-05 1.16949e-05 -6.77072e-05
0.00106113 0.00011335 1.02848e-05
0.00011335 9.33606e-07 4.19602e-06
1.02848e-05 4.19602e-06 -0.000111628
0.00176219 -3.13431e-05 3.7582e-05
-3.13431e-05 0.000615441 4.797e-06
3.7582e-05 4.797e-06 0.000581807
0.00100251 0.000124801 6.692e-06
0.000124801 7.04108e-05 4.30428e-06
6.692e-06 4.30428e-06 -4.01589e-05
0.000930138 9.51485e-05 4.73235e-06
9.51485e-05 0.000118333 2.80988e-06
4.73235e-06 2.80988e-06 1.48736e-05
0.000894495 0.000138937 1.92399e-06
0.000138937 1.96828e-05 5.68763e-08
1.92399e-06 5.68763e-08 -0.000113245
0.00233467 -8.26442e-05 3.96404e-05
-8.26442e-05 0.000942018 2.64654e-06
3.96404e-05 2.64654e-06 0.000949223
0.00248241 -9.25887e-05 2.50655e-06
-9.25887e-05 0.00103073 -1.83525e-07
2.50655e-06 -1.83525e-07 0.00103487
0.00506188 3.05878e-05 -0.000145432
3.05878e-05 0.00244549 -5.61346e-06
-0.000145432 -5.61346e-06 0.00244493
0.00513136 4.51658e-05 -0.00014607
4.51658e-05 0.00248486 -2.61205e-06
-0.00014607 -2.61205e-06 0.00248373
0.0052013 7.44397e-05 2.15329e-06
7.44397e-05 0.00252884 -9.06092e-07
2.15329e-06 -9.06092e-07 0.00252343
0.00319654 -1.7557e-05 -6.72707e-05
-1.7557e-05 0.00141318 -1.4447e-06
-6.72707e-05 -1.4447e-06 0.0013975
0.00164475 1.4995e-05 3.40916e-05
1.4995e-05 0.000434327 2.85677e-07
3.40916e-05 2.85677e-07 0.000379803
0.00320448 5.87454e-05 -6.26338e-05
5.87454e-05 0.00141926 -2.91779e-06
-6.26338e-05 -2.91779e-06 0.00140236
0.0016416 4.40138e-05 3.21508e-05
4.40138e-05 0.000442861 8.6233e-07
3.21508e-05 8.6233e-07 0.000388871
0.00521229 0.000139144 0.000148
0.000139144 0.00254262 2.30528e-06
0.000148 2.30528e-06 0.00253178
0.000692882 -3.10088e-06 1.57842e-05
-3.10088e-06 -9.84079e-05 5.67735e-07
1.57842e-05 5.67735e-07 -0.000160974
0.00254622 1.46815e-06 8.08828e-05
1.46815e-06 0.000938731 3.42105e-06
8.08828e-05 3.42105e-06 0.000893279
0.00116195 2.429e-05 1.08868e-05
2.429e-05 5.53559e-06 1.42767e-06
1.08868e-05 1.42767e-06 -0.000100647
0.00242773 7.25673e-05 7.89436e-05
7.25673e-05 0.000883375 5.67945e-06
7.89436e-05 5.67945e-06 0.000836343
0.00116054 6.07359e-05 1.04371e-05
6.07359e-05 1.99752e-05 2.45796e-06
1.04371e-05 2.45796e-06 -8.5483e-05
0.00168632 2.47502e-05 -0.00014025
2.47502e-05 0.000562644 7.93208e-07
-0.00014025 7.93208e-07 0.000544014
0.00122734 -2.51254e-05 -2.08993e-05
-2.51254e-05 0.000328877 2.01097e-06
-2.08993e-05 2.01097e-06 0.000299667
0.00114088 9.63837e-05 -4.48103e-06
9.63837e-05 0.000316824 3.86612e-06
-4.48103e-06 3.86612e-06 0.000282387
0.00126704 -2.68688e-05 -2.58472e-05
-2.68688e-05 0.000356994 3.37647e-06
-2.58472e-05 3.37647e-06 0.00032907
0.00157056 -4.52615e-05 -6.782e-05
-4.52615e-05 0.000414207 5.36386e-06
-6.782e-05 5.36386e-06 0.000364369
0.00150949 -7.21683e-05 -6.61252e-05
-7.21683e-05 0.000400932 8.35258e-06
-6.61252e-05 8.35258e-06 0.000348245
0.00134195 -6.49068e-05 -5.96245e-05
-6.49068e-05 0.000352016 8.46768e-06
-5.96245e-05 8.46768e-06 0.00029794
0.00198962 -0.000161529 -1.70174e-05
-0.000161529 0.000572139 6.12836e-06
-1.70174e-05 6.12836e-06 0.00046398
0.0051917 -6.5504e-05 -1.30562e-06
-6.5504e-05 0.00252214 -7.67472e-07
-1.30562e-06 -7.67472e-07 0.00251754
0.0014754 2.17929e-05 6.0343e-05
2.17929e-05 0.000454257 -1.68161e-06
6.0343e-05 -1.68161e-06 0.000429436
0.0011475 6.06902e-06 -3.65786e-05
6.06902e-06 0.00016135 5.00727e-07
-3.65786e-05 5.00727e-07 0.000104817
0.00148481 -4.12444e-05 -2.10436e-05
-4.12444e-05 0.000366863 5.35716e-07
-2.10436e-05 5.35716e-07 0.000313031
0.00222131 7.62913e-05 6.44698e-05
7.62913e-05 0.000890237 -4.8685e-07
6.44698e-05 -4.8685e-07 0.000881254
0.00141738 6.33361e-07 -1.602e-05
6.33361e-07 0.000426162 -3.54609e-07
-1.602e-05 -3.54609e-07 0.000374108
0.00149485 -6.50738e-05 -1.88825e-05
-6.50738e-05 0.00038307 9.11959e-07
-1.88825e-05 9.11959e-07 0.000328941
0.00176973 -9.40538e-05 -6.31131e-06
-9.40538e-05 0.000377709 1.13091e-06
-6.31131e-06 1.13091e-06 0.000280818
0.00178067 -0.000156344 -3.07154e-06
-0.000156344 0.000514047 1.01391e-06
-3.07154e-06 1.01391e-06 0.000405605
0.00174652 -0.000136446 -2.15392e-06
-0.000136446 0.000401346 4.3391e-07
-2.15392e-06 4.3391e-07 0.000297857
0.00123022 -0.000149323 5.40665e-09
-0.000149323 7.41949e-05 -1.72043e-07
5.40665e-09 -1.72043e-07 -5.96639e-05
0.000720583 6.12909e-06 1.60503e-05
6.12909e-06 -8.10795e-05 -1.24277e-06
1.60503e-05 -1.24277e-06 -0.000143033
0.0014485 -1.80039e-06 2.2714e-05
-1.80039e-06 0.000340676 -2.44137e-06
2.2714e-05 -2.44137e-06 0.000283037
0.00160871 -1.87856e-05 1.08168e-05
-1.87856e-05 0.000258023 -1.27194e-06
1.08168e-05 -1.27194e-06 0.00015824
0.00153597 -7.1952e-05 1.02085e-05
-7.1952e-05 0.000243465 -2.29243e-06
1.02085e-05 -2.29243e-06 0.000144933
0.00154339 -0.00011074 1.10328e-05
-0.00011074 0.000262447 -3.19933e-06
1.10328e-05 -3.19933e-06 0.000161636
0.00176712 -0.000108512 3.12129e-06
-0.000108512 0.000288862 -7.35785e-07
3.12129e-06 -7.35785e-07 0.000171392
0.00312839 0.00011557 6.50817e-05
0.00011557 0.00139064 -2.48401e-06
6.50817e-05 -2.48401e-06 0.00138841
0.00133355 -0.000139383 5.4706e-06
-0.000139383 8.79546e-05 -1.56349e-06
5.4706e-06 -1.56349e-06 -3.99175e-05
0.000547337 2.19367e-05 4.57938e-06
2.19367e-05 -5.98046e-05 -6.68778e-06
4.57938e-06 -6.68778e-06 -0.000105559
0.000656848 -9.47956e-05 3.8078e-06
-9.47956e-05 -4.4555e-05 -2.80502e-06
3.8078e-06 -2.80502e-06 -0.000145481
0.00135457 -0.000169033 4.91254e-06
-0.000169033 0.000206762 -2.80059e-06
4.91254e-06 -2.80059e-06 6.4185e-05
0.00144578 -0.000169589 3.21287e-06
-0.000169589 0.000131201 -1.86244e-07
3.21287e-06 -1.86244e-07 -1.2814e-05
0.000538583 5.46427e-05 1.01674e-06
5.46427e-05 -6.40144e-05 -6.29644e-06
1.01674e-06 -6.29644e-06 -0.000100422
0.000707978 2.66236e-05 4.98697e-07
2.66236e-05 1.08806e-05 -3.09913e-06
4.98697e-07 -3.09913e-06 -5.9951e-05
0.00507273 6.73718e-05 -0.00015185
6.73718e-05 0.00245573 -8.65698e-06
-0.00015185 -8.65698e-06 0.00245335
0.00457624 -8.42215e-05 -0.000113429
-8.42215e-05 0.00221192 -7.15224e-06
-0.000113429 -7.15224e-06 0.00220098
0.00058907 9.27002e-05 -1.51081e-05
9.27002e-05 -0.000112249 -8.52217e-06
-1.51081e-05 -8.52217e-06 -0.000178406
0.00304028 -0.000116872 -6.14888e-05
-0.000116872 0.00134828 -2.43831e-06
-6.14888e-05 -2.43831e-06 0.00134542
0.000530668 9.27895e-06 -5.30181e-06
9.27895e-06 -7.47484e-05 -8.04555e-06
-5.30181e-06 -8.04555e-06 -0.000122946
0.000516286 9.95236e-05 -1.37116e-05
9.95236e-05 -0.000106032 -9.25788e-06
-1.37116e-05 -9.25788e-06 -0.000168833
0.00083081 0.000104677 -5.28564e-06
0.000104677 2.08965e-05 -3.06908e-06
-5.28564e-06 -3.06908e-06 -8.43863e-05
0.00278028 -0.000101395 2.92613e-06
-0.000101395 0.00119937 -2.08032e-07
2.92613e-06 -2.08032e-07 0.00120079
0.000599183 -7.07137e-05 6.66435e-08
-7.07137e-05 -2.40504e-05 2.08177e-07
6.66435e-08 2.08177e-07 -5.2852e-05
0.00157596 8.88228e-05 3.11931e-05
8.88228e-05 0.000417082 1.18492e-06
3.11931e-05 1.18492e-06 0.000360035
0.00146476 0.000116546 2.77231e-05
0.000116546 0.000394318 8.10319e-07
2.77231e-05 8.10319e-07 0.000334851
0.00107587 0.000115543 2.54952e-07
0.000115543 9.70861e-06 -1.94377e-07
2.54952e-07 -1.94377e-07 -0.000103216
0.000633726 -2.9439e-05 -5.45807e-07
-2.9439e-05 -1.17101e-05 1.56958e-07
-5.45807e-07 1.56958e-07 -5.17062e-05
0.000945745 0.000120703 3.5359e-07
0.000120703 4.00429e-05 4.70183e-07
3.5359e-07 4.70183e-07 -6.98695e-05
0.000834508 8.76383e-05 2.66787e-07
8.76383e-05 6.47519e-05 -2.27795e-07
2.66787e-07 -2.27795e-07 -3.6737e-05
0.000823817 0.000134597 -2.67244e-09
0.000134597 -2.06754e-05 -2.69253e-08
-2.67244e-09 -2.69253e-08 -0.000153918
0.000630046 -5.04863e-05 2.80105e-06
-5.04863e-05 -7.08274e-06 5.87553e-06
2.80105e-06 5.87553e-06 -4.18814e-05
0.000672641 -6.18191e-05 -2.27301e-07
-6.18191e-05 4.50226e-06 4.3627e-06
-2.27301e-07 4.3627e-06 -1.65444e-05
0.000677264 -3.30107e-06 1.9682e-06
-3.30107e-06 6.88711e-06 2.81188e-06
1.9682e-06 2.81188e-06 -5.96735e-05
0.00110936 9.63792e-05 1.0487e-05
9.63792e-05 4.25238e-06 3.72242e-06
1.0487e-05 3.72242e-06 -0.000105799
0.00103295 0.00012486 8.97262e-06
0.00012486 3.30207e-05 4.44904e-06
8.97262e-06 4.44904e-06 -8.07528e-05
0.00130711 0.000141898 5.96805e-06
0.000141898 5.49041e-05 1.7231e-06
5.96805e-06 1.7231e-06 -8.21249e-05
0.000871884 6.82426e-05 3.72105e-06
6.82426e-05 0.000104219 2.94537e-06
3.72105e-06 2.94537e-06 1.05286e-05
0.000901306 0.000140669 2.23783e-06
0.000140669 -4.32582e-05 1.97245e-06
2.23783e-06 1.97245e-06 -0.000178719
0.00111644 0.000148852 2.07006e-06
0.000148852 0.00019681 7.95659e-07
2.07006e-06 7.95659e-07 6.24962e-05
0.00104795 0.000159434 -2.45356e-06
0.000159434 9.11406e-05 -1.33639e-06
-2.45356e-06 -1.33639e-06 -5.40523e-05
0.00218415 -7.32999e-05 3.30434e-05
-7.32999e-05 0.000849722 2.88599e-06
3.30434e-05 2.88599e-06 0.00085987
0.00226259 -8.23658e-05 1.26428e-06
-8.23658e-05 0.000901603 -1.37863e-07
1.26428e-06 -1.37863e-07 0.000908942
0.00237809 -9.2298e-05 -3.84413e-05
-9.2298e-05 0.000973451 -2.50912e-06
-3.84413e-05 -2.50912e-06 0.000977663
0.000560373 6.40503e-05 3.15862e-07
6.40503e-05 -5.35849e-05 -5.50771e-06
3.15862e-07 -5.50771e-06 -8.57841e-05
0.00292123 0.00010538 5.56968e-05
0.00010538 0.00127111 -2.62286e-06
5.56968e-05 -2.62286e-06 0.001272
0.00509579 9.60679e-05 -0.00015607
9.60679e-05 0.00246837 -8.36606e-06
-0.00015607 -8.36606e-06 0.00246482
0.00504322 -8.03841e-06 -0.000141379
-8.03841e-06 0.00243656 -3.71661e-06
-0.000141379 -3.71661e-06 0.0024359
0.000729177 5.29357e-05 -1.59828e-05
5.29357e-05 -6.24922e-05 -4.06813e-06
-1.59828e-05 -4.06813e-06 -0.000124137
0.000698969 1.98148e-05 -1.60982e-05
1.98148e-05 -8.82755e-05 -2.33324e-06
-1.60982e-05 -2.33324e-06 -0.000151163
0.00516188 -6.82695e-05 -0.000143781
-6.82695e-05 0.00250426 -5.77488e-07
-0.000143781 -5.77488e-07 0.00250118
0.005197 3.24667e-06 -1.06735e-06
3.24667e-06 0.00252159 4.32794e-07
-1.06735e-06 4.32794e-07 0.0025192
0.000690894 -3.03909e-06 -1.5604e-07
-3.03909e-06 -9.91923e-05 -1.96515e-07
-1.5604e-07 -1.96515e-07 -0.000161672
0.00161955 1.79773e-05 3.30256e-05
1.79773e-05 0.000427138 7.25731e-07
3.30256e-05 7.25731e-07 0.000373577
0.00117444 2.85148e-05 1.58788e-07
2.85148e-05 1.25328e-05 -2.28277e-07
1.58788e-07 -2.28277e-07 -9.38001e-05
0.000672872 5.13405e-05 2.13157e-07
5.13405e-05 -9.17582e-05 -1.674e-07
2.13157e-07 -1.674e-07 -0.00015337
0.00114979 6.30008e-05 -1.38395e-07
6.30008e-05 1.4724e-05 1.98269e-08
-1.38395e-07 1.98269e-08 -9.1109e-05
0.000683304 -1.50601e-05 1.61135e-05
-1.50601e-05 -0.00010482 -3.967e-07
1.61135e-05 -3.967e-07 -0.000167192
0.0011741 1.04763e-05 1.08526e-05
1.04763e-05 5.28717e-06 5.62014e-07
1.08526e-05 5.62014e-07 -0.000101375
0.00116085 4.30556e-05 1.05969e-05
4.30556e-05 1.51993e-05 2.21364e-06
1.05969e-05 2.21364e-06 -9.01751e-05
0.00143316 3.17125e-05 4.43388e-06
3.17125e-05 6.69486e-05 6.79877e-07
4.43388e-06 6.79877e-07 -5.45129e-05
0.00113645 7.75195e-05 1.04812e-05
7.75195e-05 9.92297e-06 2.75807e-06
1.04812e-05 2.75807e-06 -9.75467e-05
0.0014208 7.25935e-05 4.30988e-06
7.25935e-05 7.8364e-05 1.03216e-06
4.30988e-06 1.03216e-06 -4.42623e-05
0.00518657 -6.06614e-05 -0.000155567
-6.06614e-05 0.00251898 -3.81706e-07
-0.000155567 -3.81706e-07 0.0025145
0.00128692 -5.57627e-05 -1.75044e-05
-5.57627e-05 0.000359851 1.74028e-06
-1.75044e-05 1.74028e-06 0.000328712
-0.000139981 -4.2233e-07 -1.35809e-05
-4.2233e-07 -0.000554835 2.23301e-06
-1.35809e-05 2.23301e-06 -0.00062396
0.00157679 -3.02696e-05 -6.92374e-05
-3.02696e-05 0.000413923 3.97373e-06
-6.92374e-05 3.97373e-06 0.000363414
0.00315741 0.000159191 -1.57192e-05
0.000159191 0.00142984 1.53454e-06
-1.57192e-05 1.53454e-06 0.00141346
0.00196559 -4.83049e-05 -4.93957e-05
-4.83049e-05 0.000715056 7.02863e-06
-4.93957e-05 7.02863e-06 0.000670302
0.00155364 -6.06064e-05 -6.70057e-05
-6.06064e-05 0.000411568 7.03341e-06
-6.70057e-05 7.03341e-06 0.000360631
0.0015755 -8.63589e-05 -2.01434e-05
-8.63589e-05 0.000268202 3.89464e-06
-2.01434e-05 3.89464e-06 0.000170343
0.00199451 -0.000145429 -1.65131e-05
-0.000145429 0.000539218 5.10485e-06
-1.65131e-05 5.10485e-06 0.000436374
0.00198088 -0.000168328 -1.38483e-05
-0.000168328 0.000621662 6.16397e-06
-1.38483e-05 6.16397e-06 0.000510551
0.00119683 -0.000146556 -4.88072e-06
-0.000146556 5.7039e-05 1.25285e-06
-4.88072e-06 1.25285e-06 -7.63511e-05
0.000683143 9.05397e-06 3.18778e-08
9.05397e-06 -0.000102285 -2.01185e-07
3.18778e-08 -2.01185e-07 -0.000164041
0.00153644 -3.39741e-05 -2.31002e-05
-3.39741e-05 0.000387072 1.36963e-07
-2.31002e-05 1.36963e-07 0.000331816
0.00119147 -1.62327e-05 -4.38954e-06
-1.62327e-05 2.66987e-05 2.05484e-07
-4.38954e-06 2.05484e-07 -7.6402e-05
0.00180082 -7.50492e-05 -3.02437e-06
-7.50492e-05 0.000388174 3.99482e-07
-3.02437e-06 3.99482e-07 0.000291296
0.00314746 0.000112327 -1.47151e-06
0.000112327 0.00140191 -2.872e-07
-1.47151e-06 -2.872e-07 0.00139991
0.00118906 6.83929e-06 2.12867e-06
6.83929e-06 0.000294834 4.30534e-07
2.12867e-06 4.30534e-07 0.000249895
0.00119343 -0.00011603 5.61687e-07
-0.00011603 0.000248218 -3.6835e-07
5.61687e-07 -3.6835e-07 0.00014662
0.00155498 -0.000109911 -3.40525e-06
-0.000109911 0.000269466 6.45127e-07
-3.40525e-06 6.45127e-07 0.000168575
0.00146935 -9.93951e-05 -2.37108e-06
-9.93951e-05 0.000122376 6.46208e-07
-2.37108e-06 6.46208e-07 3.71658e-06
0.00101708 -0.000148618 -7.62004e-07
-0.000148618 2.44921e-05 -3.98258e-07
-7.62004e-07 -3.98258e-07 -0.000116363
0.0015429 -0.000145958 1.64059e-07
-0.000145958 0.000204637 -1.36308e-07
1.64059e-07 -1.36308e-07 7.78545e-05
0.00138693 -0.000165866 2.49919e-07
-0.000165866 0.00010067 -9.07403e-08
2.49919e-07 -9.07403e-08 -4.28101e-05
0.000566926 4.85575e-05 -6.54779e-07
4.85575e-05 -4.91991e-05 8.68019e-08
-6.54779e-07 8.68019e-08 -8.52533e-05
0.000691496 1.23883e-05 -1.64967e-07
1.23883e-05 6.87892e-08 1.57532e-07
-1.64967e-07 1.57532e-07 -7.07658e-05
0.00116407 -8.24706e-06 1.06966e-05
-8.24706e-06 7.96233e-07 -1.26451e-06
1.06966e-05 -1.26451e-06 -0.000105282
0.00160382 -4.10383e-05 1.03893e-05
-4.10383e-05 0.000263524 -1.65387e-06
1.03893e-05 -1.65387e-06 0.000164047
0.00182196 -2.49902e-05 3.30361e-06
-2.49902e-05 0.000288899 -3.06504e-07
3.30361e-06 -3.06504e-07 0.000172769
0.001194 -7.14201e-05 5.10071e-06
-7.14201e-05 -3.6427e-05 -1.59835e-06
5.10071e-06 -1.59835e-06 -0.000156666
0.00165226 -0.000133109 4.51401e-06
-0.000133109 0.000237304 -1.02966e-06
4.51401e-06 -1.02966e-06 0.000115469
0.00168928 -0.000106081 3.97776e-07
-0.000106081 0.000193427 -2.85901e-09
3.97776e-07 -2.85901e-09 7.24346e-05
0.000513442 3.47941e-05 3.30748e-06
3.47941e-05 -7.96387e-05 -6.53919e-06
3.30748e-06 -6.53919e-06 -0.000119911
0.00146654 -0.000149424 2.31581e-06
-0.000149424 0.000101061 -1.28153e-07
2.31581e-06 -1.28153e-07 -3.12845e-05
0.000640669 -6.38108e-05 2.62411e-06
-6.38108e-05 -2.92171e-05 -1.81121e-06
2.62411e-06 -1.81121e-06 -0.000122335
0.000515217 -0.00011695 3.2259e-06
-0.00011695 -0.000168716 -3.60603e-06
3.2259e-06 -3.60603e-06 -0.000303569
0.00197298 -0.000217449 1.98842e-06
-0.000217449 0.000496337 -7.59921e-07
1.98842e-06 -7.59921e-07 0.000336627
0.00157239 -0.000178312 1.49547e-08
-0.000178312 0.000152607 1.77753e-06
1.49547e-08 1.77753e-06 1.26196e-05
0.000767281 -1.80873e-05 1.58309e-06
-1.80873e-05 4.81725e-05 -2.95234e-06
1.58309e-06 -2.95234e-06 -3.53732e-05
0.000688146 2.57662e-05 1.17966e-06
2.57662e-05 -2.94316e-06 -2.47085e-06
1.17966e-06 -2.47085e-06 -6.44768e-05
0.000835541 -5.41094e-05 5.47133e-07
-5.41094e-05 8.42248e-05 -6.97743e-07
5.47133e-07 -6.97743e-07 -1.81451e-05
0.00063821 7.51721e-05 -1.502e-05
7.51721e-05 -0.000101993 -6.76661e-06
-1.502e-05 -6.76661e-06 -0.000165911
0.00268667 -0.000104544 -4.83686e-05
-0.000104544 0.00114908 -2.35795e-06
-4.83686e-05 -2.35795e-06 0.00114984
0.000553664 -6.37287e-05 -4.7649e-07
-6.37287e-05 -5.17201e-05 -4.63899e-06
-4.7649e-07 -4.63899e-06 -7.85821e-05
0.000524239 0.000104334 -1.48452e-05
0.000104334 -0.000122462 -9.62594e-06
-1.48452e-05 -9.62594e-06 -0.00018824
0.00108738 0.000117943 -1.05193e-05
0.000117943 1.67066e-05 -4.61031e-06
-1.05193e-05 -4.61031e-06 -9.66201e-05
0.000510292 -3.88598e-05 -2.60749e-06
-3.88598e-05 -7.71703e-05 -6.86435e-06
-2.60749e-06 -6.86435e-06 -0.000117713
0.000720629 7.80934e-05 -3.3062e-06
7.80934e-05 1.54532e-06 -2.93781e-06
-3.3062e-06 -2.93781e-06 -9.80787e-05
0.000889578 0.000116481 -6.1908e-06
0.000116481 1.03247e-05 -3.49861e-06
-6.1908e-06 -3.49861e-06 -9.89545e-05
0.00074739 0.00012999 -3.21145e-06
0.00012999 -6.44426e-05 -1.0512e-06
-3.21145e-06 -1.0512e-06 -0.000197937
0.000570748 -5.60642e-05 1.70606e-06
-5.60642e-05 -4.0165e-05 6.47966e-08
1.70606e-06 6.47966e-08 -7.42417e-05
0.000637183 -5.7012e-05 -2.39593e-07
-5.7012e-05 -1.63738e-05 1.46922e-07
-2.39593e-07 1.46922e-07 -3.63025e-05
0.000673727 -3.49329e-05 3.18146e-07
-3.49329e-05 1.17407e-06 3.47864e-07
3.18146e-07 3.47864e-07 -6.15137e-05
0.00111497 9.84129e-05 1.03437e-07
9.84129e-05 8.18945e-06 -1.68593e-07
1.03437e-07 -1.68593e-07 -0.000102282
0.00101617 0.000124468 6.17084e-07
0.000124468 2.50782e-05 -3.42729e-07
6.17084e-07 -3.42729e-07 -8.85871e-05
0.00134084 0.000144635 3.38252e-07
0.000144635 7.27222e-05 2.43869e-08
3.38252e-07 2.43869e-08 -6.47785e-05
0.000794548 5.94113e-05 9.54153e-08
5.94113e-05 6.41865e-05 -1.00022e-08
9.54153e-08 -1.00022e-08 -2.91346e-05
0.00109229 0.000151895 -2.19188e-07
0.000151895 6.2381e-05 -1.64959e-07
-2.19188e-07 -1.64959e-07 -7.38872e-05
0.00102514 0.000141973 3.48627e-07
0.000141973 0.000146791 -4.00207e-07
3.48627e-07 -4.00207e-07 1.31817e-05
0.00101571 0.000160047 -8.86705e-07
0.000160047 7.22075e-05 1.00936e-06
-8.86705e-07 1.00936e-06 -7.35992e-05
0.000679621 -5.06404e-05 1.62096e-06
-5.06404e-05 -4.40034e-06 3.58943e-06
1.62096e-06 3.58943e-06 -1.94959e-05
0.000722584 2.82752e-05 2.3822e-06
2.82752e-05 2.56505e-05 2.52819e-06
2.3822e-06 2.52819e-06 -5.32874e-05
0.000672768 -4.95508e-05 1.38477e-07
-4.95508e-05 -3.19309e-06 2.35724e-06
1.38477e-07 2.35724e-06 -5.35746e-05
0.000821305 3.42331e-05 2.11174e-07
3.42331e-05 9.07574e-05 8.12603e-07
2.11174e-07 8.12603e-07 -4.8783e-06
0.00136286 0.000118214 6.07914e-06
0.000118214 6.18064e-05 1.5887e-06
6.07914e-06 1.5887e-06 -6.99294e-05
0.00126151 0.00015756 5.21219e-06
0.00015756 8.65739e-05 2.98364e-06
5.21219e-06 2.98364e-06 -5.36927e-05
0.00150963 0.000159994 3.42419e-06
0.000159994 0.000107568 4.76052e-07
3.42419e-06 4.76052e-07 -3.89657e-05
0.0010874 0.000117489 2.30258e-06
0.000117489 0.000210702 2.06238e-06
2.30258e-06 2.06238e-06 8.93645e-05
0.00131857 0.000177298 -5.58077e-07
0.000177298 0.000149618 2.02536e-06
-5.58077e-07 2.02536e-06 1.82564e-06
0.000909072 0.000149778 -4.62365e-07
0.000149778 7.67312e-05 -1.78482e-06
-4.62365e-07 -1.78482e-06 -8.0815e-05
0.00092593 0.000160551 -5.28013e-07
0.000160551 -9.2016e-06 -5.48958e-07
-5.28013e-07 -5.48958e-07 -0.000158834
0.000733967 -2.62532e-05 1.35445e-06
-2.62532e-05 2.85047e-06 1.67232e-06
1.35445e-06 1.67232e-06 -3.1779e-05
0.000677366 -3.81887e-05 1.30635e-06
-3.81887e-05 -2.28155e-05 3.46409e-06
1.30635e-06 3.46409e-06 -3.24092e-05
0.00211979 -6.47111e-05 2.84229e-05
-6.47111e-05 0.000804537 3.20884e-06
2.84229e-05 3.20884e-06 0.00081726
0.00214492 -7.26237e-05 1.49334e-06
-7.26237e-05 0.000826768 -1.33338e-07
1.49334e-06 -1.33338e-07 0.000837201
0.00218805 -8.07788e-05 -3.39249e-05
-8.07788e-05 0.000859477 -2.73601e-06
-3.39249e-05 -2.73601e-06 0.000867295
0.000591727 5.39026e-05 1.37861e-06
5.39026e-05 -4.60979e-05 -4.74925e-06
1.37861e-06 -4.74925e-06 -7.20317e-05
0.0027186 9.54813e-05 4.73464e-05
9.54813e-05 0.00115507 -2.87214e-06
4.73464e-05 -2.87214e-06 0.00115851
0.000588756 5.86437e-05 -3.6104e-07
5.86437e-05 -3.89034e-05 9.2612e-08
-3.6104e-07 9.2612e-08 -7.04955e-05
0.00296281 0.000102367 -1.69918e-06
0.000102367 0.00129349 -2.01212e-07
-1.69918e-06 -2.01212e-07 0.00129486
0.000694926 6.39311e-05 -1.55979e-05
6.39311e-05 -7.84938e-05 -5.35492e-06
-1.55979e-05 -5.35492e-06 -0.000141098
0.000692953 3.01425e-05 -1.56217e-05
3.01425e-05 -8.56627e-05 -3.23068e-06
-1.56217e-05 -3.23068e-06 -0.000147665
0.00114331 6.45722e-05 -1.03004e-05
6.45722e-05 1.16235e-05 -2.36087e-06
-1.03004e-05 -2.36087e-06 -9.44975e-05
0.00117576 3.0586e-05 -1.08506e-05
3.0586e-05 1.35114e-05 -1.85545e-06
-1.08506e-05 -1.85545e-06 -9.29084e-05
0.000716338 -5.69785e-07 -1.6353e-05
-5.69785e-07 -8.60341e-05 -1.06027e-06
-1.6353e-05 -1.06027e-06 -0.000147923
0.00522126 -8.68019e-05 -0.000154424
-8.68019e-05 0.00253747 1.41998e-06
-0.000154424 1.41998e-06 0.00253357
0.000706189 -1.3709e-06 1.02806e-07
-1.3709e-06 -9.30648e-05 -3.05543e-07
1.02806e-07 -3.05543e-07 -0.000155153
0.00118051 1.4847e-05 3.75167e-09
1.4847e-05 8.97634e-06 -1.76895e-07
3.75167e-09 -1.76895e-07 -9.77484e-05
0.00115729 4.4075e-05 2.80688e-09
4.4075e-05 1.38622e-05 -4.39543e-08
2.80688e-09 -4.39543e-08 -9.16661e-05
0.00143362 3.14254e-05 1.5643e-08
3.14254e-05 6.7727e-05 -1.14638e-07
1.5643e-08 -1.14638e-07 -5.37768e-05
0.00113904 8.01905e-05 7.62754e-09
8.01905e-05 1.18986e-05 -2.75026e-07
7.62754e-09 -2.75026e-07 -9.60989e-05
0.00141776 7.4798e-05 -8.57569e-08
7.4798e-05 7.69333e-05 1.83155e-07
-8.57569e-08 1.83155e-07 -4.60007e-05
0.00118734 -4.66864e-07 1.0813e-05
-4.66864e-07 1.1553e-05 -1.93254e-07
1.0813e-05 -1.93254e-07 -9.50244e-05
0.00145107 1.93665e-05 4.30669e-06
1.93665e-05 6.83746e-05 3.08879e-07
4.30669e-06 3.08879e-07 -5.3126e-05
0.00142446 5.27046e-05 4.38822e-06
5.27046e-05 7.52332e-05 1.02402e-06
4.38822e-06 1.02402e-06 -4.64597e-05
0.00156126 3.74417e-05 3.96276e-07
3.74417e-05 7.30435e-05 1.1314e-07
3.96276e-07 1.1314e-07 -4.55108e-05
0.0013955 9.49452e-05 4.68668e-06
9.49452e-05 6.78657e-05 7.20234e-07
4.68668e-06 7.20234e-07 -5.86553e-05
0.00154763 8.14227e-05 4.90678e-07
8.14227e-05 9.35917e-05 -8.87353e-08
4.90678e-07 -8.87353e-08 -2.9417e-05
0.000690513 1.22175e-05 -1.54859e-05
1.22175e-05 -9.91939e-05 7.17525e-07
-1.54859e-05 7.17525e-07 -0.000160978
0.00160244 -1.18755e-05 -7.13457e-05
-1.18755e-05 0.000420199 2.79951e-06
-7.13457e-05 2.79951e-06 0.000368139
0.000765936 -1.22263e-05 -1.15121e-05
-1.22263e-05 -0.000209203 1.67638e-06
-1.15121e-05 1.67638e-06 -0.000315676
0.00204164 -7.67267e-05 -1.76818e-05
-7.67267e-05 0.000519348 2.99741e-06
-1.76818e-05 2.99741e-06 0.00042431
0.00317757 0.000105999 -7.5566e-05
0.000105999 0.00141866 2.85472e-06
-7.5566e-05 2.85472e-06 0.00141746
0.00188572 -5.27113e-07 -4.14727e-05
-5.27113e-07 0.000678625 4.84139e-06
-4.14727e-05 4.84139e-06 0.000638878
0.00177826 -0.000145239 -9.31545e-06
-0.000145239 0.000566659 4.21991e-06
-9.31545e-06 4.21991e-06 0.000463566
0.00155557 -0.000108605 -1.73967e-05
-0.000108605 0.000270321 4.33368e-06
-1.73967e-05 4.33368e-06 0.000169478
0.00116591 -8.99948e-05 -6.33448e-06
-8.99948e-05 -4.72226e-05 1.6754e-06
-6.33448e-06 1.6754e-06 -0.000167044
0.00175191 -0.000152597 -6.31434e-06
-0.000152597 0.00032112 1.586e-06
-6.31434e-06 1.586e-06 0.000195413
0.000671654 -0.000127537 -4.36727e-06
-0.000127537 -0.000161931 1.49621e-06
-4.36727e-06 1.49621e-06 -0.000301
0.00132514 -0.000161948 -2.24792e-06
-0.000161948 6.8551e-05 -1.07111e-07
-2.24792e-06 -1.07111e-07 -7.43736e-05
0.000604797 4.00891e-05 -3.53049e-06
4.00891e-05 -2.86472e-05 5.97445e-06
-3.53049e-06 5.97445e-06 -6.45937e-05
0.000683692 -2.22243e-06 -1.81802e-06
-2.22243e-06 -4.67779e-06 2.75801e-06
-1.81802e-06 2.75801e-06 -7.6457e-05
0.000975348 -4.14074e-06 -4.64615e-07
-4.14074e-06 -0.000102707 -2.60641e-07
-4.64615e-07 -2.60641e-07 -0.000209974
0.00160915 -4.2487e-05 -3.61739e-06
-4.2487e-05 0.000265877 2.75975e-07
-3.61739e-06 2.75975e-07 0.000166348
0.00175623 -2.16012e-05 -2.29421e-06
-2.16012e-05 0.000250537 4.07155e-07
-2.29421e-06 4.07155e-07 0.000134221
0.00153255 -7.75129e-05 1.0171e-06
-7.75129e-05 0.000150118 -3.53476e-07
1.0171e-06 -3.53476e-07 3.17726e-05
0.000580022 2.48616e-05 1.51437e-07
2.48616e-05 -4.52761e-05 1.55051e-07
1.51437e-07 1.55051e-07 -8.51197e-05
0.000820581 -7.986e-05 -1.41604e-07
-7.986e-05 6.88406e-05 1.76578e-07
-1.41604e-07 1.76578e-07 -2.6365e-05
0.000703721 -0.00012825 1.17785e-06
-0.00012825 -6.18309e-05 -1.19825e-06
1.17785e-06 -1.19825e-06 -0.000195794
0.00173906 -0.0001343 -1.29418e-06
-0.0001343 0.000285231 3.0811e-07
-1.29418e-06 3.0811e-07 0.000163667
0.00155722 -0.000101141 -6.92415e-07
-0.000101141 0.000118199 4.30339e-07
-6.92415e-07 4.30339e-07 -2.36318e-06
0.00153966 -0.0001923 -1.62796e-06
-0.0001923 0.000257558 5.94286e-07
-1.62796e-06 5.94286e-07 9.8443e-05
0.00144879 -0.000148135 2.29207e-07
-0.000148135 9.20217e-05 3.29224e-08
2.29207e-07 3.29224e-08 -4.01494e-05
0.00146401 -0.000173156 4.03948e-07
-0.000173156 9.18644e-05 4.03772e-07
4.03948e-07 4.03772e-07 -4.78939e-05
0.000737828 -2.31774e-05 -2.74669e-07
-2.31774e-05 3.10092e-05 -1.65035e-07
-2.74669e-07 -1.65035e-07 -5.25346e-05
0.000748949 -2.34133e-05 -7.16824e-07
-2.34133e-05 3.14095e-05 -3.50837e-07
-7.16824e-07 -3.50837e-07 -6.60768e-05
0.000694668 1.73812e-05 4.47654e-07
1.73812e-05 -9.24265e-07 2.73367e-07
4.47654e-07 2.73367e-07 -6.21747e-05
0.00183859 -5.16138e-06 3.10132e-06
-5.16138e-06 0.00028768 -4.08794e-07
3.10132e-06 -4.08794e-07 0.000170228
0.00169483 -4.75837e-05 3.8175e-06
-4.75837e-05 0.000222181 -5.75581e-07
3.8175e-06 -5.75581e-07 0.000104259
0.00172706 -2.44684e-05 5.66995e-07
-2.44684e-05 0.000171056 3.51714e-07
5.66995e-07 3.51714e-07 5.29683e-05
0.00155107 -7.59169e-05 4.92257e-07
-7.59169e-05 0.000104483 -6.75464e-07
4.92257e-07 -6.75464e-07 -1.65448e-05
0.0014338 -0.000126635 2.15893e-06
-0.000126635 5.94342e-05 -1.32323e-07
2.15893e-06 -1.32323e-07 -6.54596e-05
0.00167105 -0.000103281 -2.41091e-06
-0.000103281 0.000136952 7.99456e-07
-2.41091e-06 7.99456e-07 2.3367e-05
0.000724907 -4.66748e-05 2.44522e-06
-4.66748e-05 2.62836e-05 -1.98703e-06
2.44522e-06 -1.98703e-06 -6.39168e-05
0.00152506 -0.000154441 -5.36219e-07
-0.000154441 8.83865e-05 6.32638e-07
-5.36219e-07 6.32638e-07 -3.92257e-05
0.000881186 -0.000128978 1.18804e-06
-0.000128978 8.23871e-05 -7.21686e-07
1.18804e-06 -7.21686e-07 -3.89319e-05
0.00072604 -0.0001476 3.52568e-06
-0.0001476 -8.63815e-05 -4.11571e-06
3.52568e-06 -4.11571e-06 -0.00024683
0.00183913 -0.000217385 1.28337e-06
-0.000217385 0.00037275 1.40087e-06
1.28337e-06 1.40087e-06 0.000208704
0.00185577 -0.000197839 -2.7548e-06
-0.000197839 0.00026211 1.83089e-06
-2.7548e-06 1.83089e-06 0.000129214
0.000706913 1.48588e-05 1.45862e-06
1.48588e-05 3.23799e-06 -2.1345e-06
1.45862e-06 -2.1345e-06 -5.08787e-05
0.00083384 -7.46244e-05 1.33782e-06
-7.46244e-05 7.21557e-05 3.29159e-07
1.33782e-06 3.29159e-07 -2.97645e-05
0.000701559 -5.246e-06 5.32421e-07
-5.246e-06 1.25564e-05 -1.43685e-06
5.32421e-07 -1.43685e-06 -8.14036e-05
0.00098666 -0.000120025 -3.03457e-07
-0.000120025 0.000167272 1.37365e-06
-3.03457e-07 1.37365e-06 5.31855e-05
0.00111638 0.000100639 -1.08862e-05
0.000100639 9.79761e-06 -4.01041e-06
-1.08862e-05 -4.01041e-06 -0.000101109
0.00060699 -5.34228e-05 -1.74849e-06
-5.34228e-05 -3.37723e-05 -3.73989e-06
-1.74849e-06 -3.73989e-06 -5.29044e-05
0.000511919 -7.35889e-05 1.39868e-06
-7.35889e-05 -6.75371e-05 -6.11883e-06
1.39868e-06 -6.11883e-06 -0.00010438
0.000693265 -6.12043e-05 9.53152e-07
-6.12043e-05 1.54657e-05 -2.91273e-06
9.53152e-07 -2.91273e-06 -4.87579e-05
0.00099155 0.000123801 -7.88687e-06
0.000123801 1.30342e-05 -5.15814e-06
-7.88687e-06 -5.15814e-06 -0.000100541
0.00136125 0.000146563 -5.67612e-06
0.000146563 8.3412e-05 -1.77528e-06
-5.67612e-06 -1.77528e-06 -5.45024e-05
0.000713108 5.15847e-05 -2.16761e-06
5.15847e-05 2.11781e-05 -2.51432e-06
-2.16761e-06 -2.51432e-06 -7.11127e-05
0.000964875 0.000137183 -2.79678e-06
0.000137183 0.000114212 -2.35841e-06
-2.79678e-06 -2.35841e-06 -1.90262e-05
0.00129676 0.000163991 -2.93565e-06
0.000163991 0.000175564 -2.16667e-06
-2.93565e-06 -2.16667e-06 3.83757e-05
0.000939785 0.000157662 -1.37415e-06
0.000157662 2.98859e-05 6.14031e-07
-1.37415e-06 6.14031e-07 -0.000116225
0.000653715 -4.86982e-05 5.20971e-08
-4.86982e-05 -1.89186e-05 3.01822e-08
5.20971e-08 3.01822e-08 -3.3705e-05
0.000741571 2.21212e-05 2.37665e-07
2.21212e-05 4.09293e-05 -8.19987e-08
2.37665e-07 -8.19987e-08 -4.03391e-05
0.000679439 -5.80336e-05 -3.80881e-07
-5.80336e-05 1.65469e-06 4.17512e-07
-3.80881e-07 4.17512e-07 -4.94193e-05
0.000806271 1.19483e-05 3.99429e-07
1.19483e-05 8.13984e-05 -2.20395e-07
3.99429e-07 -2.20395e-07 -1.24374e-05
0.0013809 0.000119518 1.007e-06
0.000119518 7.10627e-05 1.24602e-07
1.007e-06 1.24602e-07 -6.08806e-05
0.00124446 0.000157773 1.58672e-07
0.000157773 7.86256e-05 1.40865e-07
1.58672e-07 1.40865e-07 -6.18779e-05
0.00149141 0.000158964 3.31557e-07
0.000158964 9.9914e-05 3.89337e-08
3.31557e-07 3.89337e-08 -4.67576e-05
0.000989204 0.000115017 3.4515e-07
0.000115017 0.000157254 4.07527e-07
3.4515e-07 4.07527e-07 3.72887e-05
0.00152045 0.000188763 -8.44236e-07
0.000188763 0.000261707 -1.74428e-06
-8.44236e-07 -1.74428e-06 0.000113275
0.00111987 0.000164543 3.09236e-07
0.000164543 0.000193478 -1.37166e-06
3.09236e-07 -1.37166e-06 3.40489e-05
0.000945026 0.000161424 -1.93804e-06
0.000161424 4.92969e-06 -4.03847e-07
-1.93804e-06 -4.03847e-07 -0.000139781
0.000677825 -4.4139e-05 1.56342e-06
-4.4139e-05 -1.50025e-05 3.46326e-06
1.56342e-06 3.46326e-06 -2.68279e-05
0.000707881 -4.93072e-05 5.38015e-07
-4.93072e-05 7.21213e-06 1.8959e-06
5.38015e-07 1.8959e-06 -3.51684e-05
0.000978592 6.75657e-05 1.71253e-06
6.75657e-05 0.000165016 9.56973e-07
1.71253e-06 9.56973e-07 5.81801e-05
0.000781569 1.83139e-05 5.08865e-08
1.83139e-05 6.20325e-05 1.40555e-06
5.08865e-08 1.40555e-06 -1.70681e-05
0.000889917 8.79605e-05 5.23231e-07
8.79605e-05 0.000139666 -7.73283e-08
5.23231e-07 -7.73283e-08 2.71103e-05
0.00154999 0.000128531 2.91221e-06
0.000128531 0.000109539 6.89743e-08
2.91221e-06 6.89743e-08 -2.74484e-05
0.00140786 0.000176446 1.56889e-06
0.000176446 0.000115515 3.83395e-06
1.56889e-06 3.83395e-06 -3.64695e-05
0.00162116 0.000177489 8.86824e-08
0.000177489 0.000136617 -2.22581e-07
8.86824e-08 -2.22581e-07 -1.04912e-05
0.00114572 0.000157502 2.53231e-06
0.000157502 0.000249999 3.21904e-06
2.53231e-06 3.21904e-06 9.70615e-05
0.00135111 0.000190372 1.52615e-06
0.000190372 0.000143326 2.67815e-06
1.52615e-06 2.67815e-06 -8.41551e-06
0.000342178 0.000122981 1.46954e-06
0.000122981 -0.000273425 -2.85673e-06
1.46954e-06 -2.85673e-06 -0.000439632
0.000730447 -3.08434e-05 1.62051e-06
-3.08434e-05 4.58688e-06 1.54677e-06
1.62051e-06 1.54677e-06 -3.10635e-05
0.000764998 1.05165e-05 5.61021e-07
1.05165e-05 3.56872e-05 5.50982e-07
5.61021e-07 5.50982e-07 -2.09292e-05
0.0007473 -1.91235e-05 9.76298e-07
-1.91235e-05 6.87851e-06 1.76857e-06
9.76298e-07 1.76857e-06 -2.7193e-05
0.000740456 -2.55916e-05 1.10345e-07
-2.55916e-05 6.74027e-06 -1.05359e-08
1.10345e-07 -1.05359e-08 -2.79797e-05
0.00125487 -4.17525e-05 1.53627e-06
-4.17525e-05 0.000295349 2.12036e-06
1.53627e-06 2.12036e-06 0.000290692
0.000969804 -4.23556e-05 7.97564e-07
-4.23556e-05 0.000141642 -3.79592e-08
7.97564e-07 -3.79592e-08 0.000133621
0.000943364 -3.68903e-05 2.35639e-05
-3.68903e-05 0.000133322 6.29668e-06
2.35639e-05 6.29668e-06 0.000142368
0.00210256 -6.41248e-05 1.50103e-06
-6.41248e-05 0.000793676 -1.24409e-07
1.50103e-06 -1.24409e-07 0.000806658
0.00211315 -7.17772e-05 -3.02288e-05
-7.17772e-05 0.000807842 -3.03549e-06
-3.02288e-05 -3.03549e-06 0.000818617
0.000618179 4.50281e-05 1.73626e-06
4.50281e-05 -4.04248e-05 -4.32038e-06
1.73626e-06 -4.32038e-06 -6.18577e-05
0.00258288 8.64224e-05 4.07495e-05
8.64224e-05 0.00107433 -3.17943e-06
4.07495e-05 -3.17943e-06 0.00108005
0.00061577 5.73646e-05 -1.0769e-07
5.73646e-05 -3.12832e-05 3.93686e-08
-1.0769e-07 3.93686e-08 -5.81276e-05
0.00277409 9.44072e-05 -1.98876e-06
9.44072e-05 0.00118511 -1.73751e-07
-1.98876e-06 -1.73751e-07 0.0011888
0.000614432 5.72747e-05 -7.52014e-07
5.72747e-05 -2.44535e-05 5.77949e-06
-7.52014e-07 5.77949e-06 -5.63029e-05
0.0030123 9.87768e-05 -6.70235e-05
9.87768e-05 0.00132009 2.91698e-06
-6.70235e-05 2.91698e-06 0.00132202
0.00114873 8.29688e-05 -1.06238e-05
8.29688e-05 1.74085e-05 -3.24996e-06
-1.06238e-05 -3.24996e-06 -9.10576e-05
0.00116062 4.78349e-05 -1.03648e-05
4.78349e-05 1.63537e-05 -2.25595e-06
-1.03648e-05 -2.25595e-06 -8.94539e-05
0.00140585 7.33225e-05 -4.59241e-06
7.33225e-05 7.07466e-05 -6.74477e-07
-4.59241e-06 -6.74477e-07 -5.22618e-05
0.00143955 3.14269e-05 -4.55663e-06
3.14269e-05 7.14139e-05 -8.77642e-07
-4.55663e-06 -8.77642e-07 -5.01229e-05
0.00118739 1.79104e-05 -1.09853e-05
1.79104e-05 1.29362e-05 -9.48969e-07
-1.09853e-05 -9.48969e-07 -9.38702e-05
0.000690041 1.2481e-05 -1.60311e-05
1.2481e-05 -0.000101253 -2.2332e-07
-1.60311e-05 -2.2332e-07 -0.000163542
0.00118001 1.63859e-06 2.18617e-08
1.63859e-06 7.52793e-06 -1.32705e-07
2.18617e-08 -1.32705e-07 -9.90936e-05
0.00144196 2.10626e-05 -7.72526e-08
2.10626e-05 6.41964e-05 -8.98615e-08
-7.72526e-08 -8.98615e-08 -5.73737e-05
0.00142278 5.02553e-05 6.14559e-08
5.02553e-05 7.46376e-05 -4.62169e-08
6.14559e-08 -4.62169e-08 -4.70387e-05
0.00160203 3.8507e-05 -9.31174e-08
3.8507e-05 9.36423e-05 4.53271e-08
-9.31174e-08 4.53271e-08 -2.39005e-05
0.00140371 9.55444e-05 -1.31319e-07
9.55444e-05 7.17317e-05 -1.81065e-07
-1.31319e-07 -1.81065e-07 -5.48921e-05
0.00154523 8.05528e-05 -1.48186e-07
8.05528e-05 9.46766e-05 1.73309e-07
-1.48186e-07 1.73309e-07 -2.84062e-05
0.00143918 6.14555e-06 4.54273e-06
6.14555e-06 6.16459e-05 -2.60194e-08
4.54273e-06 -2.60194e-08 -5.9667e-05
0.00162529 2.85516e-05 -1.27776e-07
2.85516e-05 8.70666e-05 2.73653e-07
-1.27776e-07 2.73653e-07 -2.98868e-05
0.00152276 5.96052e-05 3.77085e-07
5.96052e-05 6.70374e-05 1.08223e-07
3.77085e-07 1.08223e-07 -5.31334e-05
0.00171457 4.87315e-05 -9.8055e-07
4.87315e-05 9.91615e-05 2.14767e-07
-9.8055e-07 2.14767e-07 -9.22034e-06
0.00156889 9.87189e-05 6.91283e-07
9.87189e-05 0.000111441 -5.32451e-07
6.91283e-07 -5.32451e-07 -1.68223e-05
0.00165421 8.8392e-05 -2.668e-06
8.8392e-05 9.73418e-05 -4.08733e-07
-2.668e-06 -4.08733e-07 -1.1868e-05
0.000778977 -1.85815e-06 -1.06133e-05
-1.85815e-06 -0.000210168 6.22782e-07
-1.06133e-05 6.22782e-07 -0.000318678
0.00163379 -4.56616e-05 -1.74767e-05
-4.56616e-05 0.000278788 2.35427e-06
-1.74767e-05 2.35427e-06 0.000179187
0.00168521 -1.49873e-05 -7.52992e-06
-1.49873e-05 0.00020946 9.11986e-07
-7.52992e-06 9.11986e-07 9.30424e-05
0.00187289 -8.38574e-05 -4.86904e-06
-8.38574e-05 0.000337656 1.16401e-06
-4.86904e-06 1.16401e-06 0.000221188
0.000647208 1.4853e-05 -5.68457e-06
1.4853e-05 -8.93865e-06 6.17434e-06
-5.68457e-06 6.17434e-06 -4.94339e-05
0.00091656 -8.93406e-05 -4.27269e-06
-8.93406e-05 0.000122158 2.7135e-06
-4.27269e-06 2.7135e-06 2.53341e-05
0.000905054 -0.000140741 -1.00147e-06
-0.000140741 5.19803e-05 8.55522e-07
-1.00147e-06 8.55522e-07 -8.12547e-05
0.00182951 -0.000135631 -7.05633e-06
-0.000135631 0.000335149 1.67139e-06
-7.05633e-06 1.67139e-06 0.000213852
0.00142801 -9.62187e-05 -1.54307e-06
-9.62187e-05 4.44508e-05 6.45781e-07
-1.54307e-06 6.45781e-07 -7.56769e-05
0.00143289 -0.000146899 -2.17619e-06
-0.000146899 8.39658e-05 2.54187e-07
-2.17619e-06 2.54187e-07 -4.80274e-05
0.00109393 -0.000166539 -3.63137e-06
-0.000166539 1.19633e-05 1.36047e-06
-3.63137e-06 1.36047e-06 -0.000146499
0.00134804 -0.000167572 9.73032e-07
-0.000167572 2.65759e-05 -1.10559e-06
9.73032e-07 -1.10559e-06 -0.000112872
0.000709398 -2.60278e-05 -2.58146e-06
-2.60278e-05 1.30979e-05 2.38641e-06
-2.58146e-06 2.38641e-06 -6.95907e-05
0.000710745 -1.3472e-05 -1.47756e-06
-1.3472e-05 1.08336e-05 6.28293e-09
-1.47756e-06 6.28293e-09 -8.63601e-05
0.000699629 1.06291e-05 -1.08886e-06
1.06291e-05 6.10837e-07 2.599e-06
-1.08886e-06 2.599e-06 -6.05984e-05
0.00164549 -3.78625e-06 -2.30448e-06
-3.78625e-06 0.000179592 1.40738e-07
-2.30448e-06 1.40738e-07 6.04767e-05
0.00167581 -5.22399e-05 -1.51498e-06
-5.22399e-05 0.000212005 2.27129e-07
-1.51498e-06 2.27129e-07 9.376e-05
0.00162986 -2.11586e-05 -6.19801e-07
-2.11586e-05 0.000114977 2.02809e-07
-6.19801e-07 2.02809e-07 -2.42538e-06
0.00163911 -7.52554e-05 -3.20579e-07
-7.52554e-05 0.000149582 -1.37533e-07
-3.20579e-07 -1.37533e-07 2.89431e-05
0.000771323 -5.3556e-05 5.48564e-09
-5.3556e-05 5.1018e-05 -1.70796e-07
5.48564e-09 -1.70796e-07 -3.97899e-05
0.00100022 -0.000137844 -3.39941e-07
-0.000137844 0.000145235 5.7105e-07
-3.39941e-07 5.7105e-07 2.26502e-05
0.000840276 -0.000151929 9.08831e-07
-0.000151929 -1.59176e-05 -1.68205e-06
9.08831e-07 -1.68205e-06 -0.000174296
0.00157903 -0.000131624 2.41881e-07
-0.000131624 0.000141029 -7.46893e-08
2.41881e-07 -7.46893e-08 1.58334e-05
0.0016264 -0.000100979 3.19986e-07
-0.000100979 0.000111358 4.22436e-07
3.19986e-07 4.22436e-07 -3.00914e-07
0.00150116 -0.000199564 -3.61101e-07
-0.000199564 0.000188011 9.11627e-07
-3.61101e-07 9.11627e-07 2.35535e-05
0.00155336 -0.000155187 -4.42309e-08
-0.000155187 0.00010173 1.27055e-07
-4.42309e-08 1.27055e-07 -2.57534e-05
0.00175328 -0.000192431 4.18368e-07
-0.000192431 0.000204548 -4.89579e-07
4.18368e-07 -4.89579e-07 7.3267e-05
0.000912708 -8.28875e-05 -1.66329e-07
-8.28875e-05 0.000117897 -4.67115e-08
-1.66329e-07 -4.67115e-08 1.39878e-05
0.000950303 -0.000118928 -3.48124e-07
-0.000118928 0.000148475 3.69654e-07
-3.48124e-07 3.69654e-07 3.28819e-05
0.000713555 9.13152e-06 1.63777e-07
9.13152e-06 6.52705e-06 1.27626e-07
1.63777e-07 1.27626e-07 -4.77205e-05
0.000657054 1.54432e-05 -1.06734e-07
1.54432e-05 -1.61983e-05 -5.69335e-07
-1.06734e-07 -5.69335e-07 -0.000105451
0.00162694 -1.0417e-05 9.41515e-07
-1.0417e-05 0.000103552 -1.54233e-07
9.41515e-07 -1.54233e-07 -1.49811e-05
0.00184036 -4.96834e-05 4.01237e-07
-4.96834e-05 0.000241104 3.37217e-07
4.01237e-07 3.37217e-07 0.000122628
0.00170612 -3.6788e-05 6.71809e-08
-3.6788e-05 9.57996e-05 1.96249e-07
6.71809e-08 1.96249e-07 -1.626e-05
0.00167423 -8.53605e-05 -2.94095e-06
-8.53605e-05 0.000116448 -4.00615e-08
-2.94095e-06 -4.00615e-08 8.54169e-06
0.00164259 -0.000130796 -2.04407e-06
-0.000130796 0.000128307 1.1615e-06
-2.04407e-06 1.1615e-06 1.10401e-05
0.00168778 -0.000103666 -9.31884e-07
-0.000103666 0.000100572 1.94266e-07
-9.31884e-07 1.94266e-07 8.56739e-08
0.000853476 -0.000120528 1.1706e-06
-0.000120528 8.09438e-05 3.19206e-07
1.1706e-06 3.19206e-07 -2.944e-05
0.00162243 -0.000166503 -3.80908e-06
-0.000166503 9.82114e-05 1.35714e-06
-3.80908e-06 1.35714e-06 -1.84832e-05
0.000485388 -0.000117792 -5.16282e-07
-0.000117792 -0.000139766 -3.26855e-06
-5.16282e-07 -3.26855e-06 -0.000280894
0.00138482 -0.00020167 2.74246e-06
-0.00020167 0.000239291 -1.71675e-06
2.74246e-06 -1.71675e-06 5.78588e-05
0.00183126 -0.000223563 -3.78628e-07
-0.000223563 0.000311112 2.69872e-06
-3.78628e-07 2.69872e-06 0.000150962
0.00190494 -0.000204666 -1.32296e-06
-0.000204666 0.000251803 6.9171e-07
-1.32296e-06 6.9171e-07 0.000123791
0.000718881 4.58304e-06 1.94712e-06
4.58304e-06 6.41149e-06 -2.0632e-06
1.94712e-06 -2.0632e-06 -4.3219e-05
0.000654338 5.59846e-06 3.06492e-07
5.59846e-06 -8.66771e-06 -1.32403e-06
3.06492e-07 -1.32403e-06 -9.65345e-05
0.000911542 -0.000133994 1.72426e-07
-0.000133994 0.000122259 1.70708e-06
1.72426e-07 1.70708e-06 4.38497e-06
0.000911487 -8.70681e-05 1.30767e-06
-8.70681e-05 0.000131459 1.39037e-07
1.30767e-06 1.39037e-07 2.41942e-05
0.000954527 -0.000138094 -8.58404e-07
-0.000138094 0.000148409 2.55274e-06
-8.58404e-07 2.55274e-06 2.81119e-05
0.000629958 -4.715e-05 -1.83397e-06
-4.715e-05 -3.20677e-05 -3.5279e-06
-1.83397e-06 -3.5279e-06 -4.66201e-05
0.00139058 0.000120569 -4.20716e-06
0.000120569 7.59241e-05 -1.38028e-06
-4.20716e-06 -1.38028e-06 -5.62417e-05
0.000678817 -6.43228e-05 -2.10583e-07
-6.43228e-05 2.50954e-06 -1.90697e-06
-2.10583e-07 -1.90697e-06 -4.92991e-05
0.000751655 4.4017e-06 -2.26874e-07
4.4017e-06 4.51115e-05 -2.92869e-06
-2.26874e-07 -2.92869e-06 -3.3916e-05
0.000803116 -9.48875e-06 1.11452e-06
-9.48875e-06 7.83754e-05 -1.00729e-06
1.11452e-06 -1.00729e-06 -1.35067e-05
0.00124614 0.000158877 -5.01616e-06
0.000158877 8.0592e-05 -2.76046e-06
-5.01616e-06 -2.76046e-06 -6.01902e-05
0.00148361 0.000158552 -2.28661e-06
0.000158552 9.76959e-05 -3.39016e-07
-2.28661e-06 -3.39016e-07 -4.91675e-05
0.000888366 0.000122383 -1.4993e-06
0.000122383 0.000104787 -1.08814e-06
-1.4993e-06 -1.08814e-06 -1.60078e-05
0.00135576 0.000181333 -1.82385e-06
0.000181333 0.000324176 -1.4712e-06
-1.82385e-06 -1.4712e-06 0.000161834
0.00171906 0.000199977 -2.00226e-06
0.000199977 0.000371769 -4.10002e-06
-2.00226e-06 -4.10002e-06 0.000222766
0.00102344 0.000165907 -3.67112e-06
0.000165907 5.16576e-05 5.92763e-07
-3.67112e-06 5.92763e-07 -8.85869e-05
0.000660247 -4.29118e-05 5.68768e-08
-4.29118e-05 -2.46833e-05 5.61268e-09
5.68768e-08 5.61268e-09 -3.63864e-05
0.000709382 -5.14183e-05 -3.66097e-07
-5.14183e-05 8.28393e-06 1.43067e-07
-3.66097e-07 1.43067e-07 -3.42704e-05
0.000920271 7.09803e-05 6.9416e-07
7.09803e-05 0.000134535 -5.30866e-08
6.9416e-07 -5.30866e-08 2.7523e-05
0.000770837 -1.84816e-05 -2.89964e-07
-1.84816e-05 5.46501e-05 1.75121e-07
-2.89964e-07 1.75121e-07 -2.23681e-05
0.000811901 6.22935e-05 7.46226e-07
6.22935e-05 9.3021e-05 -2.72557e-07
7.46226e-07 -2.72557e-07 -1.78282e-05
0.00151628 0.000127891 1.1488e-06
0.000127891 9.15847e-05 3.64025e-08
1.1488e-06 3.64025e-08 -4.57314e-05
0.00139056 0.000176274 -1.48881e-07
0.000176274 0.000107833 1.4952e-06
-1.48881e-07 1.4952e-06 -4.44126e-05
0.00160342 0.000178504 1.37156e-06
0.000178504 0.000126281 3.27246e-07
1.37156e-06 3.27246e-07 -2.16329e-05
0.0010397 0.000149515 1.30706e-06
0.000149515 0.000194565 1.32113e-06
1.30706e-06 1.32113e-06 4.32139e-05
0.00151092 0.000198361 1.40882e-06
0.000198361 0.000232321 -1.70369e-06
1.40882e-06 -1.70369e-06 8.07962e-05
0.000774688 0.000152225 -1.97267e-06
0.000152225 -4.14064e-05 -1.15906e-06
-1.97267e-06 -1.15906e-06 -0.000210767
0.000728747 -3.9091e-05 1.47271e-06
-3.9091e-05 9.76482e-06 1.5709e-06
1.47271e-06 1.5709e-06 -2.81132e-05
0.000791474 9.86412e-06 3.83514e-07
9.86412e-06 5.53937e-05 1.1294e-06
3.83514e-07 1.1294e-06 -8.69625e-06
0.00102962 0.000138593 -6.83648e-07
0.000138593 0.000204511 -1.66319e-07
-6.83648e-07 -1.66319e-07 7.28068e-05
0.000842158 1.63695e-05 1.7197e-07
1.63695e-05 0.000103549 6.73708e-07
1.7197e-07 6.73708e-07 1.0029e-05
0.00108487 7.19306e-05 -2.03597e-06
7.19306e-05 0.000239109 -2.75516e-06
-2.03597e-06 -2.75516e-06 0.000119894
0.00155724 0.000129758 -2.22511e-06
0.000129758 7.70838e-05 -2.29682e-06
-2.22511e-06 -2.29682e-06 -5.35949e-05
0.00146258 0.000193188 9.4146e-07
0.000193188 0.000107795 3.76043e-06
9.4146e-07 3.76043e-06 -4.72742e-05
0.00147094 0.000191169 -2.2504e-06
0.000191169 2.25823e-05 -1.51711e-06
-2.2504e-06 -1.51711e-06 -0.000114418
0.000919324 0.000148046 -3.09222e-07
0.000148046 0.000135411 7.09899e-07
-3.09222e-07 7.09899e-07 -4.49034e-05
0.00128851 0.000199434 2.32858e-06
0.000199434 0.000136471 4.58255e-07
2.32858e-06 4.58255e-07 -3.02175e-05
0.000733073 -3.03681e-05 1.75613e-08
-3.03681e-05 6.46942e-06 -1.07567e-08
1.75613e-08 -1.07567e-08 -2.92589e-05
0.000657236 -9.51024e-06 1.24502e-06
-9.51024e-06 -2.85569e-05 9.12611e-07
1.24502e-06 9.12611e-07 -8.30406e-05
0.000697192 -2.2629e-05 -6.18278e-07
-2.2629e-05 -3.79804e-06 -7.97051e-08
-6.18278e-07 -7.97051e-08 -5.945e-05
0.000941173 2.99123e-05 1.16038e-06
2.99123e-05 0.000144206 -4.582e-07
1.16038e-06 -4.582e-07 7.56223e-05
0.000784309 2.48494e-05 1.68563e-06
2.48494e-05 4.35405e-05 6.82486e-07
1.68563e-06 6.82486e-07 -1.20957e-05
0.00074848 -8.09927e-06 1.00199e-06
-8.09927e-06 5.64048e-06 1.7144e-06
1.00199e-06 1.7144e-06 -2.85946e-05
0.00074938 -1.95913e-05 -7.59107e-08
-1.95913e-05 8.38788e-06 2.1181e-09
-7.59107e-08 2.1181e-09 -2.57607e-05
0.00125683 -3.36661e-05 1.02689e-06
-3.36661e-05 0.000290129 2.14763e-06
1.02689e-06 2.14763e-06 0.00028704
0.000746709 -2.52612e-05 -1.25391e-06
-2.52612e-05 1.05096e-05 -1.75838e-06
-1.25391e-06 -1.75838e-06 -2.43124e-05
0.0012749 -3.93381e-05 -4.5309e-06
-3.93381e-05 0.000305941 -1.20677e-06
-4.5309e-06 -1.20677e-06 0.000301627
0.000935424 -3.07973e-05 2.07925e-05
-3.07973e-05 0.000119933 6.49278e-06
2.07925e-05 6.49278e-06 0.000131167
0.00126663 -4.41511e-05 -9.7902e-06
-4.41511e-05 0.000308699 -3.18005e-06
-9.7902e-06 -3.18005e-06 0.000302631
0.00149009 -4.62728e-05 1.90546e-05
-4.62728e-05 0.000440926 1.95412e-06
1.90546e-05 1.95412e-06 0.000453041
0.00208865 -6.34212e-05 -2.69257e-05
-6.34212e-05 0.000784677 -3.34126e-06
-2.69257e-05 -3.34126e-06 0.000797935
0.000636286 3.99055e-05 1.51945e-06
3.99055e-05 -3.83656e-05 -4.09156e-06
1.51945e-06 -4.09156e-06 -5.61803e-05
0.000632841 4.74692e-05 -8.77354e-08
4.74692e-05 -3.15662e-05 3.6535e-08
-8.77354e-08 3.6535e-08 -5.34854e-05
0.00247146 7.70601e-05 3.49959e-05
7.70601e-05 0.00100547 -3.48301e-06
3.49959e-05 -3.48301e-06 0.00101362
0.00262918 8.61902e-05 -2.09471e-06
8.61902e-05 0.00109989 -1.79383e-07
-2.09471e-06 -1.79383e-07 0.0011057
0.000635228 5.45948e-05 -5.37627e-07
5.45948e-05 -2.07767e-05 5.11265e-06
-5.37627e-07 5.11265e-06 -4.74211e-05
0.00282499 9.14916e-05 -5.75875e-05
9.14916e-05 0.00121239 2.95612e-06
-5.75875e-05 2.95612e-06 0.00121671
0.00141223 9.62782e-05 -4.85863e-06
9.62782e-05 7.57412e-05 -1.05748e-06
-4.85863e-06 -1.05748e-06 -5.09991e-05
0.00142466 5.11576e-05 -4.55758e-06
5.11576e-05 7.60245e-05 -1.12866e-06
-4.55758e-06 -1.12866e-06 -4.58642e-05
0.0015395 8.06739e-05 -6.13875e-07
8.06739e-05 9.39917e-05 4.66972e-07
-6.13875e-07 4.66972e-07 -2.92367e-05
0.00163727 3.95224e-05 -3.8517e-07
3.95224e-05 0.000111346 -1.65388e-07
-3.8517e-07 -1.65388e-07 -5.18873e-06
0.00143652 2.42213e-05 -4.34191e-06
2.42213e-05 6.19265e-05 -4.68969e-07
-4.34191e-06 -4.68969e-07 -5.97447e-05
0.00118495 6.50385e-06 -1.07792e-05
6.50385e-06 9.9236e-06 -1.57216e-07
-1.07792e-05 -1.57216e-07 -9.66669e-05
0.0014469 9.9518e-06 7.51701e-08
9.9518e-06 6.55734e-05 -7.90263e-08
7.51701e-08 -7.90263e-08 -5.58047e-05
0.00163822 1.84949e-05 -4.13707e-07
1.84949e-05 9.36816e-05 -1.43491e-08
-4.13707e-07 -1.43491e-08 -2.32044e-05
0.00155861 5.8776e-05 -6.42115e-08
5.8776e-05 8.89261e-05 2.32252e-08
-6.42115e-08 2.32252e-08 -3.11197e-05
0.0017626 5.13162e-05 5.57063e-07
5.13162e-05 0.000123021 4.29282e-07
5.57063e-07 4.29282e-07 1.65388e-05
0.0015294 9.89368e-05 -1.44966e-07
9.89368e-05 8.91868e-05 -5.37843e-08
-1.44966e-07 -5.37843e-08 -3.9502e-05
0.00164912 8.75824e-05 -1.06316e-07
8.75824e-05 9.40441e-05 5.85808e-07
-1.06316e-07 5.85808e-07 -1.36006e-05
0.00163904 -1.05366e-06 6.66148e-07
-1.05366e-06 9.84843e-05 1.2234e-07
6.66148e-07 1.2234e-07 -1.87506e-05
0.0017502 3.7865e-05 -3.37889e-07
3.7865e-05 9.77212e-05 6.28876e-07
-3.37889e-07 6.28876e-07 -1.10996e-05
0.0017056 7.17114e-05 -2.66232e-06
7.17114e-05 0.000107586 -1.3461e-07
-2.66232e-06 -1.3461e-07 3.0103e-06
0.001805 5.82804e-05 -2.89339e-07
5.82804e-05 0.000125899 2.09073e-07
-2.89339e-07 2.09073e-07 2.84417e-05
0.001559 9.39374e-05 -1.93925e-06
9.39374e-05 5.35103e-05 -1.59713e-06
-1.93925e-06 -1.59713e-06 -6.24415e-05
0.00188755 9.8995e-05 -2.43317e-07
9.8995e-05 0.000182361 -3.16179e-08
-2.43317e-07 -3.16179e-08 8.67288e-05
0.00144964 -2.85889e-06 -6.34269e-06
-2.85889e-06 7.00046e-05 5.53223e-07
-6.34269e-06 5.53223e-07 -5.07733e-05
0.00165828 -5.37978e-05 -6.75288e-06
-5.37978e-05 0.000202589 1.11902e-06
-6.75288e-06 1.11902e-06 8.41387e-05
0.00153313 -1.96745e-05 -1.59641e-06
-1.96745e-05 5.91004e-05 -3.53825e-08
-1.59641e-06 -3.53825e-08 -5.76638e-05
0.00172582 -7.511e-05 -1.29617e-06
-7.511e-05 0.000193986 4.79507e-07
-1.29617e-06 4.79507e-07 7.37077e-05
0.000834752 -6.26512e-05 -3.35596e-06
-6.26512e-05 8.45323e-05 2.10218e-06
-3.35596e-06 2.10218e-06 -6.68268e-06
0.0011223 -0.000146853 -1.93415e-06
-0.000146853 0.000209899 1.90663e-06
-1.93415e-06 1.90663e-06 8.60047e-05
0.000973375 -0.000157086 -1.18763e-06
-0.000157086 6.50407e-05 1.14166e-06
-1.18763e-06 1.14166e-06 -9.13549e-05
0.00172108 -0.000136444 -1.9989e-06
-0.000136444 0.000220906 1.76224e-07
-1.9989e-06 1.76224e-07 9.54196e-05
0.00157896 -9.86528e-05 2.25899e-06
-9.86528e-05 8.4284e-05 -3.48194e-07
2.25899e-06 -3.48194e-07 -2.54408e-05
0.00157463 -0.000155604 9.25681e-07
-0.000155604 0.000111616 -4.73788e-07
9.25681e-07 -4.73788e-07 -1.57234e-05
0.00116095 -0.000181627 -2.26225e-06
-0.000181627 1.89382e-06 -3.07625e-07
-2.26225e-06 -3.07625e-07 -0.000162941
0.00164597 -0.000186657 4.18013e-06
-0.000186657 0.000144123 -2.74362e-06
4.18013e-06 -2.74362e-06 1.45303e-05
0.000934757 -7.62978e-05 -1.29677e-06
-7.62978e-05 0.000129707 -3.56292e-07
-1.29677e-06 -3.56292e-07 2.65454e-05
0.000873433 -8.89519e-05 -1.01368e-06
-8.89519e-05 9.96402e-05 -8.07835e-07
-1.01368e-06 -8.07835e-07 -1.11262e-05
0.000717965 6.65419e-06 -1.48202e-06
6.65419e-06 8.45569e-06 2.22088e-06
-1.48202e-06 2.22088e-06 -4.58543e-05
0.000638842 2.85989e-05 1.16365e-07
2.85989e-05 -2.82577e-05 2.30562e-07
1.16365e-07 2.30562e-07 -0.000114715
0.00160977 -9.95809e-06 4.59827e-09
-9.95809e-06 9.28053e-05 -8.77215e-08
4.59827e-09 -8.77215e-08 -2.57664e-05
0.00177226 -4.73797e-05 -6.71831e-07
-4.73797e-05 0.000201879 2.54967e-07
-6.71831e-07 2.54967e-07 8.23965e-05
0.00169432 -3.60008e-05 1.2932e-07
-3.60008e-05 9.28113e-05 -1.54011e-07
1.2932e-07 -1.54011e-07 -1.85671e-05
0.00163589 -8.40159e-05 -3.16548e-07
-8.40159e-05 0.000100008 2.94269e-08
-3.16548e-07 2.94269e-08 -9.3198e-06
0.000954954 -0.000112924 -3.32914e-07
-0.000112924 0.000133783 3.66407e-07
-3.32914e-07 3.66407e-07 2.45507e-05
0.000660297 -0.000127679 8.38311e-07
-0.000127679 -4.18569e-05 -1.14137e-06
8.38311e-07 -1.14137e-06 -0.000181092
0.00134431 -0.000197308 -4.11798e-07
-0.000197308 0.000221452 4.27937e-07
-4.11798e-07 4.27937e-07 3.82833e-05
0.00163729 -0.000131258 -7.84241e-07
-0.000131258 0.000127045 2.50987e-07
-7.84241e-07 2.50987e-07 8.20667e-06
0.00164407 -0.000103353 1.34804e-06
-0.000103353 7.67275e-05 -4.4577e-07
1.34804e-06 -4.4577e-07 -2.18944e-05
0.00163969 -0.000213326 -5.40952e-07
-0.000213326 0.000203562 8.51389e-07
-5.40952e-07 8.51389e-07 4.46064e-05
0.00164738 -0.000167159 -3.0733e-07
-0.000167159 0.000111268 2.39891e-07
-3.0733e-07 2.39891e-07 -5.34509e-06
0.00172617 -0.000196034 2.17604e-06
-0.000196034 0.000154485 -1.92389e-06
2.17604e-06 -1.92389e-06 2.75703e-05
0.000982896 -0.000139037 1.70133e-07
-0.000139037 0.000161184 2.12576e-07
1.70133e-07 2.12576e-07 4.26827e-05
0.000987672 -0.000132626 4.35536e-07
-0.000132626 0.00016331 4.01228e-07
4.35536e-07 4.01228e-07 4.47855e-05
0.000876291 -6.02632e-05 -3.41568e-07
-6.02632e-05 0.000109036 -8.85124e-08
-3.41568e-07 -8.85124e-08 4.79603e-06
0.000591613 1.63054e-05 -4.958e-07
1.63054e-05 -6.35223e-05 6.40857e-08
-4.958e-07 6.40857e-08 -0.000114654
0.000638377 2.37237e-05 1.16534e-07
2.37237e-05 -2.21815e-05 -4.32931e-07
1.16534e-07 -4.32931e-07 -0.000105896
0.00178686 -2.44277e-05 2.14417e-08
-2.44277e-05 0.000122441 -2.03267e-08
2.14417e-08 -2.03267e-08 1.3229e-05
0.00171984 -5.27855e-05 -5.31288e-07
-5.27855e-05 0.00010248 2.37184e-07
-5.31288e-07 2.37184e-07 -5.02518e-06
0.00173744 -9.80272e-05 -2.35783e-06
-9.80272e-05 0.000107697 -4.96445e-07
-2.35783e-06 -4.96445e-07 1.60182e-05
0.00157203 -0.000127797 -2.28224e-06
-0.000127797 3.56505e-05 9.53112e-07
-2.28224e-06 9.53112e-07 -6.58619e-05
0.000873216 -0.000134436 -6.04916e-07
-0.000134436 9.66925e-05 6.99431e-07
-6.04916e-07 6.99431e-07 -2.72218e-05
0.00200801 -0.000198781 -2.337e-06
-0.000198781 0.000265474 1.45833e-06
-2.337e-06 1.45833e-06 0.000152281
8.78911e-05 -9.65022e-05 -4.78213e-07
-9.65022e-05 -0.000354021 -4.89846e-06
-4.78213e-07 -4.89846e-06 -0.000508983
0.00173024 -0.000235223 2.51902e-06
-0.000235223 0.00036679 -1.33792e-08
2.51902e-06 -1.33792e-08 0.000173894
0.00175661 -0.000225305 1.10745e-07
-0.000225305 0.000202517 1.47312e-06
1.10745e-07 1.47312e-06 5.13837e-05
0.0004612 2.04092e-05 1.32884e-06
2.04092e-05 -0.000138006 -2.86091e-06
1.32884e-06 -2.86091e-06 -0.00018671
0.000876149 -9.45739e-06 1.45658e-06
-9.45739e-06 0.000112644 -7.3457e-07
1.45658e-06 -7.3457e-07 3.39547e-05
0.00092734 -4.02009e-05 -2.3612e-07
-4.02009e-05 0.000142757 7.66365e-08
-2.3612e-07 7.66365e-08 4.70835e-05
0.000984054 -0.000140859 -1.5429e-06
-0.000140859 0.000157337 2.34209e-06
-1.5429e-06 2.34209e-06 3.72045e-05
0.000967026 -9.00698e-05 8.06737e-07
-9.00698e-05 0.000155825 1.75937e-06
8.06737e-07 1.75937e-06 4.25158e-05
0.000834921 -0.000132114 -5.07938e-07
-0.000132114 6.97138e-05 1.84823e-06
-5.07938e-07 1.84823e-06 -5.02047e-05
0.000645138 -4.18776e-05 -1.61133e-06
-4.18776e-05 -3.29357e-05 -3.50218e-06
-1.61133e-06 -3.50218e-06 -4.45479e-05
0.000706297 -5.00245e-05 -1.61711e-06
-5.00245e-05 5.89952e-06 -1.43544e-06
-1.61711e-06 -1.43544e-06 -3.62617e-05
0.00148908 0.000127431 -9.79423e-07
0.000127431 7.72002e-05 -1.26098e-07
-9.79423e-07 -1.26098e-07 -6.04347e-05
0.000769001 -5.71755e-05 7.48715e-07
-5.71755e-05 5.22057e-05 -1.15189e-06
7.48715e-07 -1.15189e-06 -2.28137e-05
0.000813508 6.19306e-05 -9.90003e-08
6.19306e-05 7.45631e-05 -4.89894e-07
-9.90003e-08 -4.89894e-07 -2.98931e-05
0.000721184 3.6233e-05 1.34119e-06
3.6233e-05 3.89348e-05 -4.1591e-08
1.34119e-06 -4.1591e-08 -6.97216e-05
0.00136476 0.000175613 -2.43577e-06
0.000175613 9.57579e-05 -1.04729e-06
-2.43577e-06 -1.04729e-06 -5.67265e-05
0.00159378 0.000179706 7.81122e-07
0.000179706 0.000120908 5.77963e-07
7.81122e-07 5.77963e-07 -2.77768e-05
0.000928097 0.000141028 3.849e-07
0.000141028 0.000135203 -5.8416e-07
3.849e-07 -5.8416e-07 -1.43476e-05
0.00125434 0.000184473 -3.50534e-07
0.000184473 0.000215436 -1.25044e-07
-3.50534e-07 -1.25044e-07 4.47847e-05
0.0016567 0.000205825 -2.83254e-06
0.000205825 0.00031382 -4.60698e-06
-2.83254e-06 -4.60698e-06 0.000162533
0.000727215 -3.78856e-05 -1.09703e-07
-3.78856e-05 8.88833e-06 1.77443e-08
-1.09703e-07 1.77443e-08 -2.88733e-05
0.000768503 -2.46911e-05 -6.00789e-07
-2.46911e-05 4.22716e-05 3.27647e-07
-6.00789e-07 3.27647e-07 -2.08373e-05
0.000960216 0.000133714 -5.45652e-07
0.000133714 0.00016847 1.4211e-08
-5.45652e-07 1.4211e-08 3.70006e-05
0.000816948 -1.16615e-05 2.56708e-07
-1.16615e-05 8.67119e-05 5.59349e-08
2.56708e-07 5.59349e-08 -4.13366e-06
0.000900781 7.41758e-05 8.1187e-08
7.41758e-05 0.000141906 -4.87475e-07
8.1187e-08 -4.87475e-07 2.05576e-05
0.00159636 0.000133849 -1.22477e-06
0.000133849 9.84532e-05 -1.03398e-06
-1.22477e-06 -1.03398e-06 -3.32165e-05
0.0014903 0.000193914 1.11798e-06
0.000193914 0.000124121 1.60631e-06
1.11798e-06 1.60631e-06 -3.129e-05
0.00155252 0.000191926 7.39634e-07
0.000191926 6.63662e-05 2.79826e-07
7.39634e-07 2.79826e-07 -6.86283e-05
0.000722032 0.000136519 3.5877e-07
0.000136519 2.22206e-05 2.35572e-06
3.5877e-07 2.35572e-06 -0.000154821
0.00147441 0.000211987 -1.28397e-06
0.000211987 0.00023901 -3.28564e-07
-1.28397e-06 -3.28564e-07 6.86441e-05
0.000791042 6.8658e-06 1.00961e-06
6.8658e-06 4.86985e-05 6.71711e-07
1.00961e-06 6.71711e-07 -7.65359e-06
0.000621668 -3.2931e-05 -1.05372e-06
-3.2931e-05 -2.90223e-05 1.51954e-06
-1.05372e-06 1.51954e-06 -0.000107761
0.000950208 0.000141288 -2.26446e-06
0.000141288 0.00016213 -2.14058e-06
-2.26446e-06 -2.14058e-06 1.25866e-05
0.000647977 2.53746e-05 -1.40829e-06
2.53746e-05 2.43773e-06 -8.08117e-07
-1.40829e-06 -8.08117e-07 -0.000108204
0.00100549 0.00011477 -1.29613e-06
0.00011477 0.000191189 -2.19791e-06
-1.29613e-06 -2.19791e-06 6.08772e-05
0.00161588 0.000146281 -3.07485e-06
0.000146281 4.38302e-05 -2.20457e-06
-3.07485e-06 -2.20457e-06 -5.98144e-05
0.00188618 0.000235867 -8.41623e-07
0.000235867 0.000312849 7.10595e-07
-8.41623e-07 7.10595e-07 0.000154486
0.00146642 0.000192304 1.45241e-07
0.000192304 -7.41173e-06 -1.77298e-07
1.45241e-07 -1.77298e-07 -0.000133967
0.00180976 0.000213495 2.28903e-06
0.000213495 0.000574779 4.07415e-06
2.28903e-06 4.07415e-06 0.00037479
0.000536185 0.000166472 -1.02064e-06
0.000166472 -0.000303977 -2.73734e-07
-1.02064e-06 -2.73734e-07 -0.000475157
0.000736621 -2.93121e-05 -1.69196e-06
-2.93121e-05 8.79368e-06 -1.55068e-06
-1.69196e-06 -1.55068e-06 -2.69776e-05
0.000711566 -8.26339e-06 2.09047e-07
-8.26339e-06 3.23486e-06 4.39534e-07
2.09047e-07 4.39534e-07 -5.18173e-05
0.000691554 -3.56943e-05 -2.26172e-07
-3.56943e-05 6.2281e-07 2.92903e-07
-2.26172e-07 2.92903e-07 -6.46662e-05
0.000632902 -4.66875e-05 -9.37243e-07
-4.66875e-05 -4.00947e-05 -4.87482e-07
-9.37243e-07 -4.87482e-07 -9.56435e-05
0.000777218 -7.22495e-07 9.55235e-08
-7.22495e-07 3.88848e-05 3.54592e-09
9.55235e-08 3.54592e-09 -1.60907e-05
0.000797904 -8.39774e-06 1.02554e-07
-8.39774e-06 5.93589e-05 -3.42424e-07
1.02554e-07 -3.42424e-07 -5.42743e-06
0.000886314 1.5461e-05 1.10472e-08
1.5461e-05 0.000115135 -8.3571e-07
1.10472e-08 -8.3571e-07 4.2917e-05
0.000716494 -3.37738e-05 6.65281e-07
-3.37738e-05 1.80959e-05 -1.25538e-07
6.65281e-07 -1.25538e-07 -5.01567e-05
0.000804412 7.68933e-06 4.7362e-07
7.68933e-06 4.98323e-05 4.95874e-07
4.7362e-07 4.95874e-07 -3.28395e-06
0.000746762 4.8644e-08 9.75463e-07
4.8644e-08 5.36193e-06 1.59415e-06
9.75463e-07 1.59415e-06 -2.98354e-05
0.000751157 -1.18064e-05 -1.77825e-07
-1.18064e-05 7.61369e-06 -1.30441e-09
-1.77825e-07 -1.30441e-09 -2.6746e-05
0.00126064 -2.47806e-05 9.83881e-07
-2.47806e-05 0.000287568 2.0948e-06
9.83881e-07 2.0948e-06 0.000285221
0.000749763 -1.99204e-05 -9.9479e-07
-1.99204e-05 8.96667e-06 -1.78749e-06
-9.9479e-07 -1.78749e-06 -2.52552e-05
0.00127951 -3.13918e-05 -3.85945e-06
-3.13918e-05 0.000302524 -1.26122e-06
-3.85945e-06 -1.26122e-06 0.000299569
0.000938415 -2.53953e-05 1.69986e-05
-2.53953e-05 0.000115432 6.70583e-06
1.69986e-05 6.70583e-06 0.000127858
0.00129581 -3.75992e-05 -8.30935e-06
-3.75992e-05 0.000317151 -4.6374e-06
-8.30935e-06 -4.6374e-06 0.000312994
0.00087604 -3.1933e-05 6.75368e-06
-3.1933e-05 8.69073e-05 2.50382e-06
6.75368e-06 2.50382e-06 9.77994e-05
0.00202142 -6.04134e-05 -6.14121e-06
-6.04134e-05 0.000739709 -1.56268e-06
-6.14121e-06 -1.56268e-06 0.000754103
0.000653182 3.53976e-05 1.10789e-06
3.53976e-05 -3.60448e-05 -3.91827e-06
1.10789e-06 -3.91827e-06 -5.05162e-05
0.000648243 4.10424e-05 -1.49765e-07
4.10424e-05 -3.14461e-05 3.48516e-08
-1.49765e-07 3.48516e-08 -4.9502e-05
0.00237673 6.75906e-05 2.97002e-05
6.75906e-05 0.000945016 -3.74224e-06
2.97002e-05 -3.74224e-06 0.000955715
0.000651301 5.01014e-05 -1.02521e-06
5.01014e-05 -2.04361e-05 4.51672e-06
-1.02521e-06 4.51672e-06 -4.29342e-05
0.00252095 7.75716e-05 -2.05967e-06
7.75716e-05 0.00103346 -1.61785e-07
-2.05967e-06 -1.61785e-07 0.00104144
0.00267635 8.5078e-05 -4.78864e-05
8.5078e-05 0.0011258 3.05405e-06
-4.78864e-05 3.05405e-06 0.00113189
0.00148847 9.90719e-05 -1.6074e-06
9.90719e-05 6.60798e-05 2.72856e-07
-1.6074e-06 2.72856e-07 -6.30369e-05
0.00159699 5.70847e-05 -2.1332e-07
5.70847e-05 0.000112099 -6.72239e-10
-2.1332e-07 -6.72239e-10 -7.75709e-06
0.00163888 8.66922e-05 2.62427e-06
8.66922e-05 8.78837e-05 1.23674e-06
2.62427e-06 1.23674e-06 -1.81917e-05
0.0018113 5.38257e-05 2.20031e-06
5.38257e-05 0.000147136 4.78976e-08
2.20031e-06 4.78976e-08 4.25564e-05
0.0016508 1.13003e-05 -9.41961e-07
1.13003e-05 0.00010027 -1.42137e-07
-9.41961e-07 -1.42137e-07 -1.65868e-05
0.00145247 1.30658e-05 -4.2318e-06
1.30658e-05 6.83299e-05 -1.09911e-07
-4.2318e-06 -1.09911e-07 -5.30753e-05
0.00162639 2.12396e-06 -3.1681e-07
2.12396e-06 9.15954e-05 -1.86314e-08
-3.1681e-07 -1.86314e-08 -2.64549e-05
0.00174875 3.15675e-05 5.37856e-07
3.15675e-05 9.90743e-05 -2.18028e-08
5.37856e-07 -2.18028e-08 -1.04404e-05
0.00168111 6.89749e-05 -8.24075e-07
6.89749e-05 9.13663e-05 -1.57072e-07
-8.24075e-07 -1.57072e-07 -1.42817e-05
0.00177584 5.84273e-05 1.26821e-06
5.84273e-05 0.000105096 -1.29931e-07
1.26821e-06 -1.29931e-07 9.02885e-06
0.00157528 9.34525e-05 -6.54101e-07
9.34525e-05 6.74605e-05 8.20927e-08
-6.54101e-07 8.20927e-08 -4.84666e-05
0.00178328 0.000101525 2.76114e-06
0.000101525 0.00012271 5.18441e-07
2.76114e-06 5.18441e-07 2.87186e-05
0.00176659 1.96688e-06 -4.70877e-07
1.96688e-06 0.000111839 2.27858e-07
-4.70877e-07 2.27858e-07 2.09712e-06
0.00173982 4.27329e-05 -4.15882e-07
4.27329e-05 7.85843e-05 6.60427e-07
-4.15882e-07 6.60427e-07 -1.95074e-05
0.0017922 7.49506e-05 -9.70377e-07
7.49506e-05 0.000104193 3.15195e-08
-9.70377e-07 3.15195e-08 1.47296e-05
0.00192352 0.000122984 -1.36452e-06
0.000122984 0.000195761 -9.02028e-07
-1.36452e-06 -9.02028e-07 0.000103593
0.00159354 -9.53869e-06 -8.56941e-07
-9.53869e-06 8.25677e-05 1.45415e-09
-8.56941e-07 1.45415e-09 -3.60397e-05
0.00170015 -4.67294e-05 -1.75161e-06
-4.67294e-05 0.000160652 1.251e-07
-1.75161e-06 1.251e-07 4.0088e-05
0.0016845 -3.53887e-05 3.66272e-07
-3.53887e-05 9.09617e-05 -2.82748e-07
3.66272e-07 -2.82748e-07 -1.9761e-05
0.00159799 -8.21632e-05 1.48072e-06
-8.21632e-05 8.36981e-05 -1.35666e-07
1.48072e-06 -1.35666e-07 -2.70144e-05
0.00107135 -0.00011795 -1.44145e-06
-0.00011795 0.000197327 4.04296e-07
-1.44145e-06 4.04296e-07 8.68489e-05
0.000835806 -0.000138062 1.04346e-06
-0.000138062 5.63588e-05 8.07194e-07
1.04346e-06 8.07194e-07 -8.10819e-05
0.00129965 -0.000192194 -2.0623e-06
-0.000192194 0.000202233 3.24067e-06
-2.0623e-06 3.24067e-06 1.63662e-05
0.001636 -0.000131812 7.20731e-08
-0.000131812 0.000127966 -3.38104e-07
7.20731e-08 -3.38104e-07 7.55088e-06
0.00160515 -0.000103412 3.53593e-06
-0.000103412 5.52862e-05 -1.04356e-06
3.53593e-06 -1.04356e-06 -4.15155e-05
0.00167597 -0.000167999 3.36923e-06
-0.000167999 0.000126061 -8.98314e-07
3.36923e-06 -8.98314e-07 9.51783e-06
0.00144148 -0.000202745 -1.09354e-06
-0.000202745 9.31428e-05 -2.03508e-06
-1.09354e-06 -2.03508e-06 -6.465e-05
0.00157775 -0.000189118 2.86396e-06
-0.000189118 7.45395e-05 -4.83993e-06
2.86396e-06 -4.83993e-06 -5.15803e-05
0.00106783 -0.000145037 3.25061e-07
-0.000145037 0.000207854 -1.18149e-06
3.25061e-07 -1.18149e-06 8.85475e-05
0.0010359 -0.000136863 6.26692e-07
-0.000136863 0.000187905 -2.58567e-06
6.26692e-07 -2.58567e-06 6.93365e-05
0.000830179 -3.60235e-05 6.80699e-08
-3.60235e-05 8.17191e-05 -3.01839e-08
6.80699e-08 -3.01839e-08 -2.0192e-05
0.000461693 1.98124e-05 -1.7554e-06
1.98124e-05 -0.000135146 2.0928e-06
-1.7554e-06 2.0928e-06 -0.000187638
0.000626036 3.81161e-05 1.05669e-07
3.81161e-05 -3.19695e-05 2.33553e-07
1.05669e-07 2.33553e-07 -0.000112729
0.00178938 -2.56214e-05 2.16574e-07
-2.56214e-05 0.000127403 -7.56985e-08
2.16574e-07 -7.56985e-08 1.80471e-05
0.0017514 -5.45364e-05 2.38741e-07
-5.45364e-05 0.000121565 -1.87808e-07
2.38741e-07 -1.87808e-07 1.40981e-05
0.00172786 -9.83627e-05 -8.87487e-07
-9.83627e-05 0.000105195 -1.45628e-08
-8.87487e-07 -1.45628e-08 1.15977e-05
0.00101135 -0.000143469 -1.06247e-07
-0.000143469 0.000170757 6.67569e-07
-1.06247e-07 6.67569e-07 4.56018e-05
0.00073296 -0.000138084 1.63345e-06
-0.000138084 -2.82476e-06 -2.08846e-06
1.63345e-06 -2.08846e-06 -0.000159479
0.00148787 -0.00021824 -7.90569e-07
-0.00021824 0.000240278 8.71457e-07
-7.90569e-07 8.71457e-07 4.51682e-05
0.00164364 -0.000129524 7.04123e-07
-0.000129524 7.47786e-05 -1.55832e-07
7.04123e-07 -1.55832e-07 -2.71735e-05
0.00163867 -0.000216117 7.09502e-07
-0.000216117 0.000137497 -1.22768e-06
7.09502e-07 -1.22768e-06 -9.6522e-06
0.00174198 -0.000190044 -2.52551e-07
-0.000190044 0.000127228 -8.48501e-07
-2.52551e-07 -8.48501e-07 1.32861e-05
0.000461289 2.40615e-05 8.01991e-08
2.40615e-05 -0.000138617 -7.07038e-07
8.01991e-08 -7.07038e-07 -0.000186564
0.00102748 -0.000143693 -8.45072e-08
-0.000143693 0.000179008 3.43018e-07
-8.45072e-08 3.43018e-07 5.85933e-05
0.000851674 -0.00013266 -6.90277e-07
-0.00013266 8.04643e-05 2.87562e-07
-6.90277e-07 2.87562e-07 -3.77271e-05
0.00100171 -9.63722e-05 -3.84644e-07
-9.63722e-05 0.000178925 8.16347e-07
-3.84644e-07 8.16347e-07 6.20542e-05
0.000953304 -3.78538e-05 -5.26712e-08
-3.78538e-05 0.000157361 6.7343e-08
-5.26712e-08 6.7343e-08 6.1714e-05
0.000744856 1.11465e-05 -2.37119e-07
1.11465e-05 3.61149e-05 2.97131e-07
-2.37119e-07 2.97131e-07 -4.08166e-05
0.00166929 -3.56584e-05 -9.09093e-07
-3.56584e-05 4.18113e-05 1.81168e-07
-9.09093e-07 1.81168e-07 -6.16022e-05
0.00178574 -7.91783e-05 -2.41387e-06
-7.91783e-05 0.000107935 -1.17224e-07
-2.41387e-06 -1.17224e-07 1.89138e-05
0.00155968 -0.000108898 -1.50749e-06
-0.000108898 -8.04131e-06 2.26934e-07
-1.50749e-06 2.26934e-07 -9.24321e-05
0.00189626 -0.000164305 -8.04099e-07
-0.000164305 0.000165396 1.85338e-07
-8.04099e-07 1.85338e-07 7.34272e-05
0.000999195 -0.000146082 -1.7593e-06
-0.000146082 0.000163413 5.53792e-07
-1.7593e-06 5.53792e-07 3.03765e-05
0.00180081 -0.000219338 1.11161e-06
-0.000219338 0.000173836 2.22228e-06
1.11161e-06 2.22228e-06 4.63553e-05
0.000689035 -0.000150826 -4.47714e-07
-0.000150826 -6.29363e-05 -2.52561e-06
-4.47714e-07 -2.52561e-06 -0.00025596
0.00192867 -0.000258609 -2.31124e-07
-0.000258609 0.000405464 2.21168e-06
-2.31124e-07 2.21168e-06 0.000211326
0.000463338 2.85536e-05 3.3611e-07
2.85536e-05 -0.000140073 -2.76691e-06
3.3611e-07 -2.76691e-06 -0.000184328
0.000872158 -6.45821e-06 1.27914e-06
-6.45821e-06 0.00010633 -1.01983e-06
1.27914e-06 -1.01983e-06 3.41844e-05
0.00100385 -5.65504e-05 5.11693e-08
-5.65504e-05 0.000187649 8.19517e-07
5.11693e-08 8.19517e-07 9.59214e-05
0.000870376 -2.01869e-05 3.30727e-07
-2.01869e-05 0.000110411 -1.42411e-07
3.30727e-07 -1.42411e-07 6.13626e-06
0.000890953 -0.00013808 -9.66707e-07
-0.00013808 9.71506e-05 1.4525e-06
-9.66707e-07 1.4525e-06 -2.64234e-05
0.000969442 -0.000142153 -3.41054e-06
-0.000142153 0.000140711 3.25463e-06
-3.41054e-06 3.25463e-06 1.54722e-05
0.000726158 -3.70103e-05 -1.87812e-06
-3.70103e-05 8.26957e-06 -1.42967e-06
-1.87812e-06 -1.42967e-06 -2.93923e-05
0.000731992 -5.71877e-05 -1.2348e-07
-5.71877e-05 2.35726e-05 -7.16837e-07
-1.2348e-07 -7.16837e-07 -3.98785e-05
0.00164196 0.000138353 3.68943e-08
0.000138353 0.000122863 3.63704e-07
3.68943e-08 3.63704e-07 -9.83981e-06
0.000797807 -3.54613e-05 6.70191e-07
-3.54613e-05 7.35296e-05 -5.07891e-07
6.70191e-07 -5.07891e-07 -1.49301e-05
0.000926122 0.000131151 6.00217e-07
0.000131151 0.000151978 -4.10648e-07
6.00217e-07 -4.10648e-07 2.11273e-05
0.000674891 4.10682e-05 1.37336e-06
4.10682e-05 1.35819e-05 -2.33787e-07
1.37336e-06 -2.33787e-07 -0.000103349
0.00151805 0.000194832 -1.20995e-06
0.000194832 0.000140169 -9.86763e-07
-1.20995e-06 -9.86763e-07 -1.56301e-05
0.00164598 0.000193607 2.05238e-06
0.000193607 0.000115534 1.58492e-06
2.05238e-06 1.58492e-06 -1.7542e-05
0.000594751 0.000129174 6.83153e-07
0.000129174 -5.26141e-05 1.37347e-06
6.83153e-07 1.37347e-06 -0.000226644
0.00164845 0.000223295 -2.95951e-07
0.000223295 0.000335464 -7.2018e-07
-2.95951e-07 -7.2018e-07 0.00016052
0.000764546 -1.73687e-05 -5.58073e-07
-1.73687e-05 3.46103e-05 1.23879e-07
-5.58073e-07 1.23879e-07 -2.18674e-05
0.000722992 -1.58711e-05 4.90564e-09
-1.58711e-05 2.66384e-05 8.90427e-07
4.90564e-09 8.90427e-07 -5.23852e-05
0.00105583 0.000147351 -6.74442e-07
0.000147351 0.000222365 -1.85124e-06
-6.74442e-07 -1.85124e-06 7.34483e-05
0.000702045 -1.25298e-05 -2.63624e-07
-1.25298e-05 2.53781e-05 1.06456e-07
-2.63624e-07 1.06456e-07 -7.9034e-05
0.000847588 9.54746e-05 -1.10754e-06
9.54746e-05 0.000105473 -9.41873e-07
-1.10754e-06 -9.41873e-07 -1.88066e-05
0.00183657 0.000152368 -2.10589e-06
0.000152368 0.000164829 -8.96533e-07
-2.10589e-06 -8.96533e-07 6.30812e-05
0.00185835 0.000232622 8.31509e-07
0.000232622 0.000293681 6.36742e-07
8.31509e-07 6.36742e-07 0.000134574
0.00157716 0.00020055 6.67621e-07
0.00020055 5.32123e-05 1.79425e-06
6.67621e-07 1.79425e-06 -7.28503e-05
0.001376 0.000186634 1.94215e-06
0.000186634 0.000347752 3.07015e-06
1.94215e-06 3.07015e-06 0.000145178
0.000949222 0.000193688 -1.83084e-06
0.000193688 -8.0697e-05 -7.00827e-07
-1.83084e-06 -7.00827e-07 -0.000253914
0.000641509 -3.73015e-05 -3.15243e-07
-3.73015e-05 -2.33198e-05 7.32279e-07
-3.15243e-07 7.32279e-07 -9.24219e-05
0.000468309 3.10809e-05 -7.00821e-07
3.10809e-05 -9.61403e-05 2.20808e-07
-7.00821e-07 2.20808e-07 -0.00019735
0.00110796 0.000152263 -2.20381e-07
0.000152263 0.000243937 4.20929e-07
-2.20381e-07 4.20929e-07 7.3158e-05
0.000102606 3.77557e-05 4.78591e-07
3.77557e-05 -0.000297753 1.24262e-08
4.78591e-07 1.24262e-08 -0.000424124
0.00193138 0.000149601 -2.07174e-06
0.000149601 0.000122935 -4.32247e-07
-2.07174e-06 -4.32247e-07 4.59158e-05
0.0019374 0.00019027 1.14195e-06
0.00019027 0.000176653 -4.77072e-07
1.14195e-06 -4.77072e-07 7.94379e-05
0.00171021 0.000250172 -1.37805e-06
0.000250172 0.000180405 -1.47267e-06
-1.37805e-06 -1.47267e-06 1.77353e-05
-8.0834e-05 0.000104812 -6.72001e-07
0.000104812 -0.000511512 1.36409e-06
-6.72001e-07 1.36409e-06 -0.000726418
0.00076596 6.65193e-06 -8.45613e-07
6.65193e-06 3.75155e-05 2.47104e-10
-8.45613e-07 2.47104e-10 -1.97843e-05
0.000758023 -1.0724e-05 -3.25975e-07
-1.0724e-05 4.1108e-05 4.11329e-07
-3.25975e-07 4.11329e-07 -2.63011e-05
0.000851036 -3.48737e-05 -3.55258e-07
-3.48737e-05 9.83693e-05 -1.15844e-07
-3.55258e-07 -1.15844e-07 2.56158e-05
0.000760916 -3.25082e-05 -1.02951e-06
-3.25082e-05 2.77549e-05 -5.84636e-07
-1.02951e-06 -5.84636e-07 -2.5632e-05
0.000657111 -3.94904e-05 -1.97228e-07
-3.94904e-05 -1.77758e-05 -1.28711e-07
-1.97228e-07 -1.28711e-07 -8.31273e-05
0.000782504 -8.28934e-06 3.31234e-08
-8.28934e-06 3.87746e-05 2.72561e-08
3.31234e-08 2.72561e-08 -1.50287e-05
0.000796442 2.15426e-05 -3.27208e-07
2.15426e-05 7.13771e-05 -2.68774e-07
-3.27208e-07 -2.68774e-07 -4.91527e-06
0.000739308 -9.01657e-06 3.62262e-07
-9.01657e-06 3.23395e-05 2.39213e-07
3.62262e-07 2.39213e-07 -3.68845e-05
0.000837643 -8.00146e-06 2.09597e-07
-8.00146e-06 8.85842e-05 -4.65473e-07
2.09597e-07 -4.65473e-07 1.25295e-05
0.000802165 -3.96613e-05 1.93711e-07
-3.96613e-05 6.79942e-05 -3.17378e-07
1.93711e-07 -3.17378e-07 -6.61888e-06
0.000692034 1.1773e-05 4.91131e-07
1.1773e-05 2.34601e-06 1.11212e-07
4.91131e-07 1.11212e-07 -6.66172e-05
0.000782881 2.13695e-05 6.29687e-07
2.13695e-05 3.95559e-05 5.10851e-07
6.29687e-07 5.10851e-07 -1.52151e-05
0.00073523 7.04408e-06 6.00439e-07
7.04408e-06 1.15344e-06 1.48021e-06
6.00439e-07 1.48021e-06 -3.50782e-05
0.000745516 -6.0358e-06 -1.50823e-07
-6.0358e-06 4.93934e-06 8.51234e-09
-1.50823e-07 8.51234e-09 -3.03474e-05
0.00127671 -1.6369e-05 8.17898e-07
-1.6369e-05 0.000293774 2.05849e-06
8.17898e-07 2.05849e-06 0.00029138
0.000748584 -1.61151e-05 -6.7517e-07
-1.61151e-05 6.60537e-06 -1.67847e-06
-6.7517e-07 -1.67847e-06 -2.78776e-05
0.00129363 -2.28202e-05 -3.19563e-06
-2.28202e-05 0.00030611 -1.32271e-06
-3.19563e-06 -1.32271e-06 0.00030366
0.000948474 -1.93887e-05 1.41114e-05
-1.93887e-05 0.000116575 6.93183e-06
1.41114e-05 6.93183e-06 0.000129527
0.00130797 -2.97394e-05 -6.74358e-06
-2.97394e-05 0.000318163 -4.69217e-06
-6.74358e-06 -4.69217e-06 0.000315195
0.000887934 -2.61281e-05 5.41732e-06
-2.61281e-05 8.7054e-05 2.58706e-06
5.41732e-06 2.58706e-06 9.93596e-05
0.000820151 -3.18656e-05 -2.06619e-06
-3.18656e-05 5.56085e-05 -1.71909e-06
-2.06619e-06 -1.71909e-06 6.64941e-05
0.000662511 3.03407e-05 7.67525e-07
3.03407e-05 -3.75646e-05 -3.74603e-06
7.67525e-07 -3.74603e-06 -4.88407e-05
0.000661756 3.60518e-05 -1.77308e-07
3.60518e-05 -3.13404e-05 3.80966e-08
-1.77308e-07 3.80966e-08 -4.59325e-05
0.00228656 5.78488e-05 2.47165e-05
5.78488e-05 0.000887057 -3.94231e-06
2.47165e-05 -3.94231e-06 0.000900313
0.000662048 4.26003e-05 -1.41899e-06
4.26003e-05 -2.33648e-05 4.17608e-06
-1.41899e-06 4.17608e-06 -4.17301e-05
0.00241715 6.82574e-05 -2.09763e-06
6.82574e-05 0.000968339 -1.45208e-07
-2.09763e-06 -1.45208e-07 0.000978755
0.00256323 7.745e-05 -4.02322e-05
7.745e-05 0.00105726 3.35638e-06
-4.02322e-05 3.35638e-06 0.00106524
0.00159123 9.30163e-05 1.72478e-06
9.30163e-05 8.13046e-05 2.00949e-06
1.72478e-06 2.00949e-06 -3.45979e-05
0.00166006 6.62561e-05 9.00308e-07
6.62561e-05 7.70189e-05 7.19462e-08
9.00308e-07 7.19462e-08 -2.9703e-05
0.00168355 0.000104096 4.6247e-06
0.000104096 6.55755e-05 6.09736e-07
4.6247e-06 6.09736e-07 -2.67891e-05
0.00174917 5.86162e-05 2.74656e-06
5.86162e-05 8.5949e-05 -6.84654e-07
2.74656e-06 -6.84654e-07 -8.73719e-06
0.00174669 2.61963e-05 1.5661e-06
2.61963e-05 0.000100293 -2.03955e-07
1.5661e-06 -2.03955e-07 -9.97647e-06
0.0016149 1.02668e-06 -1.05553e-06
1.02668e-06 8.51643e-05 -1.24087e-07
-1.05553e-06 -1.24087e-07 -3.36563e-05
0.00175442 2.97934e-06 -1.13349e-07
2.97934e-06 0.000106441 -1.51134e-08
-1.13349e-07 -1.51134e-08 -3.33368e-06
0.0017221 3.88809e-05 5.99623e-07
3.88809e-05 7.23928e-05 -1.7776e-07
5.99623e-07 -1.7776e-07 -2.6075e-05
0.00175054 7.62212e-05 7.70655e-07
7.62212e-05 8.29439e-05 -1.73567e-07
7.70655e-07 -1.73567e-07 -6.93e-06
0.00189432 0.000118055 4.75781e-07
0.000118055 0.000172024 2.64924e-07
4.75781e-07 2.64924e-07 8.06236e-05
0.00175735 3.19654e-06 -1.32377e-06
3.19654e-06 8.6932e-05 3.61754e-07
-1.32377e-06 3.61754e-07 -1.43221e-05
0.00192382 5.86599e-05 -1.44148e-07
5.86599e-05 0.000155491 3.95211e-07
-1.44148e-07 3.95211e-07 7.30829e-05
0.00175014 0.000112694 -2.61259e-07
0.000112694 4.7949e-05 -1.2991e-07
-2.61259e-07 -1.2991e-07 -3.23599e-05
0.00179394 -2.65813e-05 5.69429e-07
-2.65813e-05 0.000133451 -2.68736e-07
5.69429e-07 -2.68736e-07 2.39583e-05
0.00178168 -5.61642e-05 7.88009e-07
-5.61642e-05 0.000139888 -3.08719e-07
7.88009e-07 -3.08719e-07 3.24604e-05
0.00171661 -9.80995e-05 1.7813e-06
-9.80995e-05 0.000102252 -8.33606e-09
1.7813e-06 -8.33606e-09 6.78688e-06
0.00113444 -0.000151326 -1.14898e-08
-0.000151326 0.000236229 8.79171e-07
-1.14898e-08 8.79171e-07 0.00011005
0.00137633 -0.000179994 8.49111e-08
-0.000179994 0.000345457 1.60334e-06
8.49111e-08 1.60334e-06 0.000188303
0.00125026 -0.000201976 -1.98417e-06
-0.000201976 0.000115388 1.7862e-06
-1.98417e-06 1.7862e-06 -8.07976e-05
0.00171515 -0.000131022 1.74367e-06
-0.000131022 0.000113977 -7.34744e-07
1.74367e-06 -7.34744e-07 1.16303e-05
0.00149206 -0.000182822 -3.90635e-07
-0.000182822 -3.86157e-06 -2.12673e-06
-3.90635e-07 -2.12673e-06 -0.000118752
0.00154834 -0.000208899 -5.53469e-07
-0.000208899 8.65086e-05 -4.44661e-06
-5.53469e-07 -4.44661e-06 -5.68224e-05
0.00105661 -0.000145543 7.50921e-07
-0.000145543 0.000193086 -1.19833e-06
7.50921e-07 -1.19833e-06 7.24755e-05
0.000827198 -0.000130143 -2.6175e-06
-0.000130143 6.9309e-05 -2.13784e-06
-2.6175e-06 -2.13784e-06 -4.68597e-05
0.00104378 -0.000110104 5.641e-07
-0.000110104 0.000208752 1.48645e-07
5.641e-07 1.48645e-07 8.61558e-05
0.000460432 2.22102e-05 -8.94686e-07
2.22102e-05 -0.000139561 1.33384e-06
-8.94686e-07 1.33384e-06 -0.000186865
0.000971989 -2.98209e-05 1.39388e-07
-2.98209e-05 0.000164932 -1.97237e-07
1.39388e-07 -1.97237e-07 7.13176e-05
0.000614563 2.83306e-05 3.49821e-07
2.83306e-05 -4.01493e-05 1.24401e-06
3.49821e-07 1.24401e-06 -0.000115171
0.0017708 -3.3982e-05 -1.9835e-07
-3.3982e-05 9.43073e-05 1.05966e-07
-1.9835e-07 1.05966e-07 -8.91545e-06
0.00182245 -8.08056e-05 6.07346e-07
-8.08056e-05 0.000129517 -3.05128e-08
6.07346e-07 -3.05128e-08 4.12078e-05
0.00161203 -0.000109302 -3.79809e-07
-0.000109302 2.21351e-05 1.1109e-07
-3.79809e-07 1.1109e-07 -6.23547e-05
0.00101771 -0.000146611 1.6118e-07
-0.000146611 0.00017104 1.42053e-06
1.6118e-07 1.42053e-06 3.7673e-05
0.000901876 -0.000162558 -1.95737e-07
-0.000162558 6.30092e-05 4.63739e-09
-1.95737e-07 4.63739e-09 -0.00012567
0.00184611 -0.000251081 -2.54312e-06
-0.000251081 0.000356081 7.12007e-07
-2.54312e-06 7.12007e-07 0.000165541
0.00190613 -0.000166051 5.79038e-07
-0.000166051 0.000168851 -6.1108e-07
5.79038e-07 -6.1108e-07 7.56719e-05
0.00176096 -0.000218881 1.67264e-06
-0.000218881 0.000148907 -4.11958e-07
1.67264e-06 -4.11958e-07 2.12576e-05
0.00059667 2.03149e-05 3.5122e-07
2.03149e-05 -6.67427e-05 -6.81906e-07
3.5122e-07 -6.81906e-07 -0.000109182
0.000865783 2.33137e-06 -3.03511e-07
2.33137e-06 0.000101531 2.21743e-07
-3.03511e-07 2.21743e-07 3.02784e-05
0.00058082 -0.000116404 -1.48792e-06
-0.000116404 -7.4196e-05 1.30562e-06
-1.48792e-06 1.30562e-06 -0.000193794
0.00114114 -0.000146769 8.01553e-07
-0.000146769 0.000237098 6.67711e-07
8.01553e-07 6.67711e-07 0.000115246
0.00086804 -3.38232e-05 2.10472e-07
-3.38232e-05 0.00011039 -3.7961e-07
2.10472e-07 -3.7961e-07 3.83543e-06
0.000913789 -4.41698e-05 -6.81042e-07
-4.41698e-05 0.000138194 9.94335e-07
-6.81042e-07 9.94335e-07 4.63233e-05
0.00181819 -5.34231e-05 -1.71e-06
-5.34231e-05 9.88008e-05 -2.09801e-07
-1.71e-06 -2.09801e-07 1.09694e-05
0.00173579 -0.000107464 -4.22789e-06
-0.000107464 5.30629e-05 -2.72909e-07
-4.22789e-06 -2.72909e-07 -1.86455e-05
0.00173552 -0.000126206 1.91955e-07
-0.000126206 4.41968e-05 8.85066e-08
1.91955e-07 8.85066e-08 -2.93854e-05
0.00243143 -0.000244124 4.23827e-06
-0.000244124 0.000430545 -6.11889e-07
4.23827e-06 -6.11889e-07 0.000327264
0.000275101 -0.000103789 -2.38518e-06
-0.000103789 -0.000231738 -7.16579e-07
-2.38518e-06 -7.16579e-07 -0.000382048
0.00184179 -0.000260469 -3.06162e-06
-0.000260469 0.000266168 4.02947e-06
-3.06162e-06 4.02947e-06 9.35459e-05
0.00209466 -0.000258795 1.84288e-06
-0.000258795 0.00064526 -2.97757e-06
1.84288e-06 -2.97757e-06 0.00043014
0.000741293 1.65911e-05 6.9683e-07
1.65911e-05 1.06127e-05 -1.89841e-06
6.9683e-07 -1.89841e-06 -2.74192e-05
0.000754461 -6.99697e-05 1.33058e-06
-6.99697e-05 4.60861e-05 -1.38792e-06
1.33058e-06 -1.38792e-06 -2.00321e-05
0.000599795 1.0462e-05 5.29228e-07
1.0462e-05 -4.32008e-05 -1.94889e-06
5.29228e-07 -1.94889e-06 -0.000114748
0.000840701 -3.74144e-05 1.17623e-06
-3.74144e-05 0.000101821 4.9538e-08
1.17623e-06 4.9538e-08 1.16293e-05
0.000822484 3.1863e-07 6.04849e-07
3.1863e-07 8.51764e-05 -3.19664e-07
6.04849e-07 -3.19664e-07 -1.0182e-05
0.000626179 -0.000112696 5.42114e-07
-0.000112696 -5.25302e-06 2.65401e-06
5.42114e-07 2.65401e-06 -0.000126187
0.000634849 -0.000122179 -3.75376e-06
-0.000122179 -8.51887e-05 1.2645e-06
-3.75376e-06 1.2645e-06 -0.000192586
0.00185637 -0.000196151 -5.36211e-06
-0.000196151 0.000655451 3.79066e-06
-5.36211e-06 3.79066e-06 0.000520173
0.000750269 -4.58955e-05 -5.46138e-07
-4.58955e-05 2.65487e-05 -4.83462e-07
-5.46138e-07 -4.83462e-07 -2.95267e-05
0.000824498 -6.00052e-06 -1.03805e-07
-6.00052e-06 8.31355e-05 3.59002e-07
-1.03805e-07 3.59002e-07 3.56064e-06
0.00205732 0.000157745 7.88595e-07
0.000157745 0.000287056 4.71282e-07
7.88595e-07 4.71282e-07 0.000187276
0.000828879 7.18806e-06 -2.76496e-08
7.18806e-06 9.92931e-05 -5.0936e-07
-2.76496e-08 -5.0936e-07 -8.40395e-06
0.00112667 0.00015153 7.1588e-07
0.00015153 0.000265838 -9.72022e-07
7.1588e-07 -9.72022e-07 0.000115789
0.00068078 7.50311e-05 -1.09892e-07
7.50311e-05 1.58641e-05 1.69983e-06
-1.09892e-07 1.69983e-06 -0.000102515
0.00178454 0.000226569 1.02857e-06
0.000226569 0.000249827 5.60034e-08
1.02857e-06 5.60034e-08 9.03469e-05
0.0016522 0.000207054 4.16693e-06
0.000207054 9.54277e-05 4.34816e-06
4.16693e-06 4.34816e-06 -2.99579e-05
0.000854285 0.000154492 1.53219e-06
0.000154492 7.29823e-05 5.73954e-07
1.53219e-06 5.73954e-07 -0.000132236
0.00122207 0.000212195 -2.84634e-06
0.000212195 6.54254e-05 -6.39183e-07
-2.84634e-06 -6.39183e-07 -0.000108246
0.00065383 -1.52376e-05 8.52698e-08
-1.52376e-05 -1.29065e-05 6.13369e-07
8.52698e-08 6.13369e-07 -8.5592e-05
0.000635044 4.58818e-05 -1.47489e-07
4.58818e-05 -4.3085e-06 -1.35439e-06
-1.47489e-07 -1.35439e-06 -0.000106731
0.00102409 0.000147187 8.26885e-07
0.000147187 0.000206458 -1.43554e-06
8.26885e-07 -1.43554e-06 3.25285e-05
0.000695243 7.75485e-05 -5.97665e-07
7.75485e-05 2.51963e-05 -1.24663e-06
-5.97665e-07 -1.24663e-06 -0.000104024
0.00198792 0.000147431 1.79791e-07
0.000147431 0.000159317 -5.03647e-07
1.79791e-07 -5.03647e-07 8.39185e-05
0.00179454 0.000189892 1.82791e-06
0.000189892 0.000108764 3.80967e-07
1.82791e-06 3.80967e-07 7.38985e-06
0.0017118 0.000245284 -1.6058e-06
0.000245284 0.000181246 -6.80466e-07
-1.6058e-06 -6.80466e-07 2.08415e-05
0.000755582 0.000164344 6.24814e-07
0.000164344 -7.90932e-05 1.67782e-07
6.24814e-07 1.67782e-07 -0.000292405
0.000820643 -1.88933e-05 -2.11544e-07
-1.88933e-05 8.28478e-05 1.25973e-09
-2.11544e-07 1.25973e-09 5.33216e-06
0.00176486 0.000111957 -1.18101e-06
0.000111957 1.65205e-06 4.71233e-07
-1.18101e-06 4.71233e-07 -5.3916e-05
0.00125652 0.00014214 -1.03035e-06
0.00014214 0.000358365 2.13014e-06
-1.03035e-06 2.13014e-06 0.000226442
0.00103449 0.000152949 -1.56471e-08
0.000152949 0.000195247 2.12146e-06
-1.56471e-08 2.12146e-06 1.49718e-05
0.00230471 0.000188481 -4.37013e-06
0.000188481 0.000288636 2.15578e-07
-4.37013e-06 2.15578e-07 0.000214983
0.0015007 0.000251396 -2.19999e-06
0.000251396 -4.66256e-05 -3.00643e-06
-2.19999e-06 -3.00643e-06 -0.000187625
0.00198662 0.000264781 -1.95441e-06
0.000264781 0.000475433 2.03812e-06
-1.95441e-06 2.03812e-06 0.000259774
0.000830934 -3.44621e-06 -1.51822e-06
-3.44621e-06 8.14569e-05 3.41847e-07
-1.51822e-06 3.41847e-07 1.4345e-05
0.000824065 -1.63905e-05 -8.39711e-08
-1.63905e-05 8.2532e-05 3.35646e-08
-8.39711e-08 3.35646e-08 1.02871e-05
0.000876842 -2.82213e-05 -5.25095e-07
-2.82213e-05 0.000119136 1.65478e-07
-5.25095e-07 1.65478e-07 3.96971e-05
0.000761762 -2.74098e-05 -4.52663e-07
-2.74098e-05 2.85658e-05 -6.38187e-07
-4.52663e-07 -6.38187e-07 -2.61177e-05
0.000769519 3.71898e-06 9.32935e-08
3.71898e-06 4.98878e-05 4.97205e-07
9.32935e-08 4.97205e-07 -1.96557e-05
0.00068234 -1.12132e-05 -5.49582e-07
-1.12132e-05 1.16237e-05 7.62254e-08
-5.49582e-07 7.62254e-08 -6.65153e-05
0.000771197 -1.57761e-05 -1.17984e-07
-1.57761e-05 3.65248e-05 1.11339e-08
-1.17984e-07 1.11339e-08 -2.0743e-05
0.00070333 -2.49977e-05 -5.29416e-07
-2.49977e-05 1.19627e-05 2.75606e-07
-5.29416e-07 2.75606e-07 -5.88428e-05
0.000779225 -4.42207e-05 3.78773e-07
-4.42207e-05 5.69977e-05 -3.52582e-07
3.78773e-07 -3.52582e-07 -1.95486e-05
0.000842852 8.92082e-06 2.38051e-07
8.92082e-06 9.62238e-05 4.04161e-07
2.38051e-07 4.04161e-07 1.81065e-05
0.00075213 -2.65149e-05 6.04549e-07
-2.65149e-05 3.67817e-05 -1.12717e-06
6.04549e-07 -1.12717e-06 -4.07951e-05
0.000790188 -6.26213e-05 2.48658e-07
-6.26213e-05 5.91104e-05 -3.50058e-07
2.48658e-07 -3.50058e-07 -1.93657e-05
0.000878251 1.25647e-05 6.09972e-07
1.25647e-05 0.000110923 -4.62402e-07
6.09972e-07 -4.62402e-07 3.33343e-05
0.000778176 1.62865e-05 1.53347e-06
1.62865e-05 5.25317e-05 1.0801e-08
1.53347e-06 1.0801e-08 -2.24756e-05
0.00078034 5.67421e-06 7.08043e-07
5.67421e-06 3.82175e-05 5.59691e-07
7.08043e-07 5.59691e-07 -1.78137e-05
0.000724138 9.45784e-06 4.45469e-07
9.45784e-06 -2.81462e-06 1.43263e-06
4.45469e-07 1.43263e-06 -3.97103e-05
0.000738115 1.00106e-06 -2.01003e-07
1.00106e-06 2.87529e-06 1.42159e-08
-2.01003e-07 1.42159e-08 -3.33383e-05
0.00128419 -7.9272e-06 5.77071e-07
-7.9272e-06 0.000296555 2.00634e-06
5.77071e-07 2.00634e-06 0.000293853
0.000750603 -1.16961e-05 -3.11232e-07
-1.16961e-05 8.0535e-06 -1.62414e-06
-3.11232e-07 -1.62414e-06 -2.73247e-05
0.00130689 -1.45382e-05 -2.38368e-06
-1.45382e-05 0.000311034 -1.3777e-06
-2.38368e-06 -1.3777e-06 0.000308455
0.000955379 -1.3276e-05 1.06745e-05
-1.3276e-05 0.000117411 7.17567e-06
1.06745e-05 7.17567e-06 0.000130451
0.0013259 -2.14037e-05 -5.07602e-06
-2.14037e-05 0.000324226 -4.74787e-06
-5.07602e-06 -4.74787e-06 0.000321579
0.000900762 -1.98928e-05 3.88e-06
-1.98928e-05 8.93225e-05 2.68381e-06
3.88e-06 2.68381e-06 0.000102336
0.000834373 -2.57746e-05 -1.49118e-06
-2.57746e-05 5.69355e-05 -1.7338e-06
-1.49118e-06 -1.7338e-06 6.9365e-05
0.000742454 6.61919e-06 4.8167e-07
6.61919e-06 9.75287e-06 -1.83077e-06
4.8167e-07 -1.83077e-06 -2.55976e-05
0.000672853 2.4327e-05 6.61374e-07
2.4327e-05 -3.74199e-05 -3.62816e-06
6.61374e-07 -3.62816e-06 -4.59499e-05
0.000673856 3.08873e-05 -1.3719e-07
3.08873e-05 -3.13491e-05 3.57658e-08
-1.3719e-07 3.57658e-08 -4.27369e-05
0.00222157 4.80772e-05 2.03417e-05
4.80772e-05 0.000843631 -4.1129e-06
2.03417e-05 -4.1129e-06 0.000859211
0.000673951 3.69263e-05 -1.24583e-06
3.69263e-05 -2.45462e-05 3.96582e-06
-1.24583e-06 3.96582e-06 -3.9301e-05
0.00232588 5.87066e-05 -2.20798e-06
5.87066e-05 0.000909917 -1.30184e-07
-2.20798e-06 -1.30184e-07 0.000922812
0.00246258 6.87359e-05 -3.36656e-05
6.87359e-05 0.000994382 3.66124e-06
-3.36656e-05 3.66124e-06 0.00100456
0.00186509 0.000113038 1.74729e-06
0.000113038 0.000148135 1.55076e-06
1.74729e-06 1.55076e-06 5.75121e-05
0.00170636 7.73761e-05 1.68409e-06
7.73761e-05 6.02357e-05 -1.54876e-07
1.68409e-06 -1.54876e-07 -3.00326e-05
0.00169649 3.83252e-05 1.64024e-06
3.83252e-05 6.16726e-05 -6.16243e-07
1.64024e-06 -6.16243e-07 -3.71898e-05
0.00174195 4.22682e-06 7.70303e-07
4.22682e-06 0.00010081 -2.50567e-07
7.70303e-07 -2.50567e-07 -8.94382e-06
0.00177574 3.65393e-06 -5.6921e-07
3.65393e-06 9.7807e-05 1.04254e-07
-5.6921e-07 1.04254e-07 -2.27651e-06
0.00187327 5.65731e-05 5.56414e-07
5.65731e-05 0.000124785 -3.25165e-07
5.56414e-07 -3.25165e-07 4.16027e-05
0.00172671 0.000113076 -5.07519e-07
0.000113076 3.07479e-05 -1.37788e-07
-5.07519e-07 -1.37788e-07 -4.95446e-05
0.00179785 6.03267e-06 -1.27727e-06
6.03267e-06 8.26052e-05 9.17672e-07
-1.27727e-06 9.17672e-07 -2.77654e-06
0.00198796 7.36106e-05 -5.53075e-07
7.36106e-05 0.000156432 6.72316e-08
-5.53075e-07 6.72316e-08 8.97694e-05
0.0017637 5.28896e-05 -1.17997e-06
5.28896e-05 1.09642e-05 -1.19302e-06
-1.17997e-06 -1.19302e-06 -2.40118e-05
0.00187651 -3.24983e-05 3.94261e-07
-3.24983e-05 0.000149195 -1.28829e-07
3.94261e-07 -1.28829e-07 4.6183e-05
0.00186504 -8.35673e-05 3.57222e-06
-8.35673e-05 0.000153783 2.25643e-07
3.57222e-06 2.25643e-07 6.61506e-05
0.00166604 -0.000111155 3.86821e-07
-0.000111155 5.2345e-05 -6.07891e-08
3.86821e-07 -6.07891e-08 -3.23955e-05
0.00108126 -0.000150215 -1.25133e-09
-0.000150215 0.000205005 2.73504e-06
-1.25133e-09 2.73504e-06 7.06873e-05
0.0010791 -0.000171749 7.567e-07
-0.000171749 0.000169935 4.24236e-06
7.567e-07 4.24236e-06 -1.52968e-05
0.00169634 -0.00023895 -2.00024e-06
-0.00023895 0.000271373 -5.74886e-07
-2.00024e-06 -5.74886e-07 8.51171e-05
0.00188269 -0.000165472 3.30996e-06
-0.000165472 0.000154832 -1.26894e-06
3.30996e-06 -1.26894e-06 6.06708e-05
0.00165339 -0.00021329 4.23924e-07
-0.00021329 9.00359e-05 -2.36004e-06
4.23924e-07 -2.36004e-06 -3.7066e-05
0.000308398 -9.72858e-05 -1.95728e-06
-9.72858e-05 -0.000224508 2.10392e-06
-1.95728e-06 2.10392e-06 -0.000340511
0.00134667 -0.000156857 7.62596e-06
-0.000156857 0.000352964 -3.91639e-06
7.62596e-06 -3.91639e-06 0.000233376
0.000785398 -2.38225e-06 -6.46632e-08
-2.38225e-06 5.67763e-05 -6.89452e-07
-6.46632e-08 -6.89452e-07 -4.29952e-05
0.000731593 1.62974e-05 -7.21914e-07
1.62974e-05 7.61954e-06 1.31076e-06
-7.21914e-07 1.31076e-06 -3.32266e-05
0.000865446 1.96197e-05 -7.36323e-07
1.96197e-05 0.000100742 1.35903e-06
-7.36323e-07 1.35903e-06 2.98261e-05
0.000827401 -1.883e-05 -5.95174e-07
-1.883e-05 9.08945e-05 1.06155e-06
-5.95174e-07 1.06155e-06 -1.13196e-06
0.00186136 -5.44896e-05 1.38709e-08
-5.44896e-05 0.000124544 4.87575e-08
1.38709e-08 4.87575e-08 3.86193e-05
0.00074023 1.20206e-05 3.57269e-07
1.20206e-05 1.00018e-05 3.40838e-08
3.57269e-07 3.40838e-08 -2.80915e-05
0.000680287 -1.80212e-05 -5.87497e-07
-1.80212e-05 -5.01983e-06 4.57966e-08
-5.87497e-07 4.57966e-08 -6.50718e-05
0.00180363 -0.000107261 -3.04704e-07
-0.000107261 9.43215e-05 -1.43411e-07
-3.04704e-07 -1.43411e-07 2.19259e-05
0.00160474 -0.000122303 -1.82351e-06
-0.000122303 -3.21273e-05 9.42608e-07
-1.82351e-06 9.42608e-07 -0.00010763
0.000586785 -0.000123016 8.03169e-08
-0.000123016 -5.21546e-05 2.71217e-06
8.03169e-08 2.71217e-06 -0.000200378
0.00166427 -0.00022715 -1.82658e-06
-0.00022715 0.000419979 8.1486e-07
-1.82658e-06 8.1486e-07 0.000199381
0.0014903 -0.000236205 6.23446e-07
-0.000236205 8.24826e-05 -9.88147e-07
6.23446e-07 -9.88147e-07 -8.43847e-05
0.0019052 -0.000226731 2.60382e-06
-0.000226731 0.000155525 -9.09103e-07
2.60382e-06 -9.09103e-07 5.20511e-05
0.000823852 -2.28514e-05 1.16934e-06
-2.28514e-05 8.02481e-05 -6.66172e-07
1.16934e-06 -6.66172e-07 1.09563e-05
0.000822777 -2.54969e-05 -2.95466e-07
-2.54969e-05 9.2918e-05 6.30402e-07
-2.95466e-07 6.30402e-07 1.72324e-06
0.000936923 -0.000130837 -2.23097e-07
-0.000130837 7.69761e-05 -3.14461e-07
-2.23097e-07 -3.14461e-07 -3.51192e-05
0.00119578 -0.000154693 6.26625e-06
-0.000154693 0.00029105 -1.92583e-06
6.26625e-06 -1.92583e-06 0.000174531
0.000649468 -8.50245e-05 -9.67971e-07
-8.50245e-05 1.63796e-06 2.11593e-07
-9.67971e-07 2.11593e-07 -0.00011513
0.000845276 -5.40339e-06 2.75859e-07
-5.40339e-06 0.000100186 -4.6097e-07
2.75859e-07 -4.6097e-07 2.79746e-06
0.00193575 -6.66571e-05 -3.75585e-06
-6.66571e-05 0.000118426 -1.58662e-07
-3.75585e-06 -1.58662e-07 5.47102e-05
0.00187789 -9.7159e-05 1.08127e-06
-9.7159e-05 9.68783e-05 6.78154e-07
1.08127e-06 6.78154e-07 3.30733e-05
0.00181331 -0.000211394 -8.35803e-07
-0.000211394 1.50742e-05 -1.90023e-06
-8.35803e-07 -1.90023e-06 -5.47082e-05
0.00158359 -0.000254965 1.39086e-06
-0.000254965 1.25234e-05 7.23227e-07
1.39086e-06 7.23227e-07 -0.00010794
0.000847535 -0.000108946 -4.80366e-06
-0.000108946 6.45846e-05 -3.00438e-06
-4.80366e-06 -3.00438e-06 -8.56234e-05
0.00242608 -0.000303113 -3.30851e-06
-0.000303113 0.000739333 2.72857e-06
-3.30851e-06 2.72857e-06 0.000506873
0.000567611 4.65635e-05 -1.22584e-06
4.65635e-05 -6.41215e-05 -1.97677e-06
-1.22584e-06 -1.97677e-06 -0.000125066
0.000765366 -3.69447e-05 1.05564e-06
-3.69447e-05 4.26072e-05 -1.28234e-06
1.05564e-06 -1.28234e-06 -2.0139e-05
0.000966244 -4.69932e-05 1.02107e-06
-4.69932e-05 0.000173076 -3.37661e-07
1.02107e-06 -3.37661e-07 9.29621e-05
0.000592556 1.64475e-05 -2.4979e-07
1.64475e-05 -3.08916e-05 -6.78334e-07
-2.4979e-07 -6.78334e-07 -0.0001236
0.00104529 -2.98896e-05 3.84193e-07
-2.98896e-05 0.000213213 -8.17287e-08
3.84193e-07 -8.17287e-08 0.000119722
0.000527303 -3.19959e-05 7.12642e-07
-3.19959e-05 -6.67282e-05 3.72462e-07
7.12642e-07 3.72462e-07 -0.00017681
0.000790583 -8.26305e-05 5.59858e-06
-8.26305e-05 0.00012436 9.56645e-07
5.59858e-06 9.56645e-07 -2.19377e-05
0.000702942 -0.000140202 -1.43833e-05
-0.000140202 -2.37688e-05 4.95475e-06
-1.43833e-05 4.95475e-06 -0.000123148
0.000645811 2.48473e-06 -5.50234e-08
2.48473e-06 -1.37176e-05 2.83761e-07
-5.50234e-08 2.83761e-07 -8.9963e-05
0.000814107 6.18267e-05 -1.91895e-06
6.18267e-05 9.3695e-05 -2.36834e-06
-1.91895e-06 -2.36834e-06 -9.73147e-06
0.00202377 0.000145463 -8.84413e-07
0.000145463 0.000182723 -3.69314e-07
-8.84413e-07 -3.69314e-07 0.000108938
0.00167955 0.00019097 1.38546e-06
0.00019097 5.41351e-05 1.69923e-06
1.38546e-06 1.69923e-06 -5.14266e-05
0.00128329 9.84829e-05 -2.68911e-06
9.84829e-05 0.00034179 -7.7592e-07
-2.68911e-06 -7.7592e-07 0.000212623
0.000956261 0.000142703 -2.98419e-07
0.000142703 0.000175699 -4.01733e-06
-2.98419e-07 -4.01733e-06 5.54016e-08
0.00178803 0.000244389 1.86655e-06
0.000244389 0.000222112 3.08269e-07
1.86655e-06 3.08269e-07 6.32921e-05
0.00171804 0.000231538 -8.56136e-07
0.000231538 0.000423631 -1.07386e-06
-8.56136e-07 -1.07386e-06 0.000210191
0.00079141 8.11391e-06 7.05304e-07
8.11391e-06 7.26749e-05 -6.2638e-07
7.05304e-07 -6.2638e-07 -9.10572e-06
0.00183081 0.000108417 -4.06322e-07
0.000108417 3.58375e-05 -1.33093e-08
-4.06322e-07 -1.33093e-08 -1.84833e-05
0.000926446 9.57837e-05 2.62675e-07
9.57837e-05 0.000172136 1.60454e-06
2.62675e-07 1.60454e-06 4.82192e-05
0.000788778 0.000136234 4.94033e-07
0.000136234 6.07188e-05 -2.37602e-07
4.94033e-07 -2.37602e-07 -0.000120599
0.00202971 0.000179737 2.40827e-06
0.000179737 0.000139014 -2.04981e-07
2.40827e-06 -2.04981e-07 6.47232e-05
0.00173082 0.000259351 -3.25335e-07
0.000259351 7.28781e-05 -1.3523e-06
-3.25335e-07 -1.3523e-06 -6.5473e-05
0.00206765 0.000272646 1.02722e-06
0.000272646 0.000530663 1.26492e-06
1.02722e-06 1.26492e-06 0.000313579
0.00103655 3.37287e-05 -2.36647e-06
3.37287e-05 0.000221362 1.06602e-06
-2.36647e-06 1.06602e-06 0.000118735
0.00215783 0.000123991 -1.58727e-05
0.000123991 0.000212971 -1.72721e-06
-1.58727e-05 -1.72721e-06 0.000178671
0.00211068 0.000197941 -3.41838e-06
0.000197941 0.000799041 -3.75514e-07
-3.41838e-06 -3.75514e-07 0.000652009
0.00234256 0.0002603 -5.46564e-06
0.0002603 0.000840879 1.70873e-06
-5.46564e-06 1.70873e-06 0.00063798
0.00208093 0.000276021 -4.70738e-06
0.000276021 0.000163725 -3.93438e-06
-4.70738e-06 -3.93438e-06 7.32849e-05
0.00154087 0.000262263 -6.47057e-06
0.000262263 0.000149659 9.83811e-08
-6.47057e-06 9.83811e-08 -3.95945e-05
0.000209589 0.000126684 9.46622e-06
0.000126684 -0.000531741 -9.00899e-07
9.46622e-06 -9.00899e-07 -0.000699219
0.000790956 -1.73026e-06 7.69837e-08
-1.73026e-06 6.57923e-05 1.25962e-07
7.69837e-08 1.25962e-07 -7.46633e-06
0.000846507 -2.36658e-05 -2.73008e-07
-2.36658e-05 0.000103528 2.09391e-07
-2.73008e-07 2.09391e-07 2.35892e-05
0.000962624 -1.23239e-05 -7.92469e-08
-1.23239e-05 0.00015876 -1.26297e-06
-7.92469e-08 -1.26297e-06 7.42543e-05
0.000757416 -4.84237e-05 -2.67237e-07
-4.84237e-05 3.171e-05 -7.22007e-07
-2.67237e-07 -7.22007e-07 -2.75682e-05
0.000727027 -4.95077e-05 -1.1411e-06
-4.95077e-05 2.42846e-05 5.45829e-07
-1.1411e-06 5.45829e-07 -4.56657e-05
0.00087194 6.67313e-05 -7.56694e-07
6.67313e-05 0.000115418 7.87956e-07
-7.56694e-07 7.87956e-07 3.56202e-05
0.000727653 -4.77834e-05 -1.16844e-07
-4.77834e-05 3.04948e-05 3.12034e-07
-1.16844e-07 3.12034e-07 -4.76501e-05
0.000761857 -2.60044e-05 -7.15558e-08
-2.60044e-05 3.45679e-05 5.65437e-09
-7.15558e-08 5.65437e-09 -2.58612e-05
0.000740313 1.07926e-05 -1.42686e-09
1.07926e-05 2.4037e-05 -1.33289e-07
-1.42686e-09 -1.33289e-07 -4.56836e-05
0.00078778 -3.07436e-05 2.71829e-07
-3.07436e-05 5.66059e-05 -4.49068e-07
2.71829e-07 -4.49068e-07 -2.19259e-05
0.000866927 -1.54358e-05 2.00682e-08
-1.54358e-05 0.000100375 -1.57394e-08
2.00682e-08 -1.57394e-08 2.57034e-05
0.000864823 -4.19644e-05 2.20848e-07
-4.19644e-05 9.90073e-05 -3.43917e-09
2.20848e-07 -3.43917e-09 2.15708e-05
0.000838049 -3.89965e-05 6.6658e-08
-3.89965e-05 7.69479e-05 -1.1304e-06
6.6658e-08 -1.1304e-06 -7.70412e-07
0.00081952 -5.51017e-06 3.21285e-07
-5.51017e-06 6.50671e-05 -1.44368e-06
3.21285e-07 -1.44368e-06 -9.8684e-06
0.000847639 1.89647e-05 5.30748e-07
1.89647e-05 8.16152e-05 -4.85979e-07
5.30748e-07 -4.85979e-07 9.36035e-06
0.000791683 2.65912e-05 2.50691e-07
2.65912e-05 5.73899e-05 4.60228e-08
2.50691e-07 4.60228e-08 -2.10547e-05
0.000662532 -1.18295e-05 2.9524e-08
-1.18295e-05 -2.89061e-05 9.79108e-07
2.9524e-08 9.79108e-07 -8.71583e-05
0.000904624 -6.75811e-06 2.74698e-07
-6.75811e-06 0.000133635 -7.22455e-07
2.74698e-07 -7.22455e-07 5.3475e-05
0.000641352 3.59833e-06 -6.64976e-07
3.59833e-06 -3.59719e-05 9.43554e-07
-6.64976e-07 9.43554e-07 -9.65364e-05
0.000727706 1.05063e-05 -4.37457e-09
1.05063e-05 -1.13992e-07 1.39748e-06
-4.37457e-09 1.39748e-06 -3.7368e-05
0.000726963 3.88417e-06 -7.24971e-09
3.88417e-06 -1.25774e-06 9.77017e-09
-7.24971e-09 9.77017e-09 -3.81105e-05
0.000683272 1.04528e-06 1.52518e-07
1.04528e-06 -4.11549e-05 3.34034e-06
1.52518e-07 3.34034e-06 -4.77466e-05
0.000742642 -4.48303e-06 -1.14542e-07
-4.48303e-06 5.5533e-06 -1.51683e-06
-1.14542e-07 -1.51683e-06 -3.06702e-05
0.00100327 -5.81052e-06 -1.5369e-06
-5.81052e-06 0.000139011 -1.44738e-06
-1.5369e-06 -1.44738e-06 0.000134413
0.00218389 -9.55584e-06 6.60255e-06
-9.55584e-06 0.00080593 4.52482e-06
6.60255e-06 4.52482e-06 0.000825892
0.00134096 -1.33304e-05 -3.00916e-06
-1.33304e-05 0.000330458 -4.78326e-06
-3.00916e-06 -4.78326e-06 0.000327603
0.00090998 -1.34914e-05 2.0713e-06
-1.34914e-05 9.11527e-05 2.77535e-06
2.0713e-06 2.77535e-06 0.000104385
0.000849218 -1.92578e-05 -9.60359e-07
-1.92578e-05 5.99992e-05 -1.72613e-06
-9.60359e-07 -1.72613e-06 7.32776e-05
0.000731091 1.01299e-05 8.7056e-08
1.01299e-05 3.45367e-06 -1.80699e-06
8.7056e-08 -1.80699e-06 -3.00457e-05
0.000740478 7.14309e-06 7.01951e-08
7.14309e-06 8.54323e-06 1.50343e-08
7.01951e-08 1.50343e-08 -2.68705e-05
0.000686487 1.81811e-05 3.85267e-07
1.81811e-05 -3.4192e-05 -3.50104e-06
3.85267e-07 -3.50104e-06 -4.05248e-05
0.000999503 2.81716e-05 -4.94263e-07
2.81716e-05 0.000146024 2.97355e-08
-4.94263e-07 2.97355e-08 0.000139024
0.00216779 3.80045e-05 1.6745e-05
3.80045e-05 0.000807521 -4.23565e-06
1.6745e-05 -4.23565e-06 0.00082513
0.000684202 3.15035e-05 -8.72027e-07
3.15035e-05 -2.56262e-05 3.80936e-06
-8.72027e-07 3.80936e-06 -3.71375e-05
0.00224667 4.89383e-05 -2.23041e-06
4.89383e-05 0.000858561 -1.11193e-07
-2.23041e-06 -1.11193e-07 0.000873811
0.00236195 5.93254e-05 -2.77626e-05
5.93254e-05 0.000930911 3.9187e-06
-2.77626e-05 3.9187e-06 0.000943499
0.00170034 0.000113639 -1.31311e-06
0.000113639 1.24617e-05 -1.77011e-07
-1.31311e-06 -1.77011e-07 -6.78362e-05
0.00182169 5.51529e-05 1.41558e-06
5.51529e-05 9.34371e-05 -9.56599e-07
1.41558e-06 -9.56599e-07 9.45786e-06
0.00179955 9.68351e-07 1.09207e-07
9.68351e-07 0.000111502 -2.11293e-07
1.09207e-07 -2.11293e-07 1.25991e-05
0.00176267 7.99495e-06 3.55802e-07
7.99495e-06 6.04949e-05 3.39596e-07
3.55802e-07 3.39596e-07 -2.50683e-05
0.00182559 7.13231e-05 -5.55412e-07
7.13231e-05 7.3093e-05 -1.31036e-07
-5.55412e-07 -1.31036e-07 5.09393e-06
0.00178306 5.28963e-05 2.18413e-06
5.28963e-05 2.24736e-05 4.04645e-07
2.18413e-06 4.04645e-07 -1.70679e-05
0.0017043 1.13945e-05 -9.28001e-07
1.13945e-05 -4.032e-06 9.39979e-08
-9.28001e-07 9.39979e-08 -5.97285e-05
0.00321093 7.7397e-05 1.3607e-05
7.7397e-05 0.00054332 5.40942e-07
1.3607e-05 5.40942e-07 0.000493789
0.0017068 3.92515e-05 -1.26852e-05
3.92515e-05 2.04192e-05 -3.26561e-06
-1.26852e-05 -3.26561e-06 3.76704e-06
0.000769749 4.15313e-05 -3.88669e-07
4.15313e-05 4.53557e-05 -1.09764e-06
-3.88669e-07 -1.09764e-06 -1.01353e-05
0.00189949 -5.52263e-05 2.09929e-06
-5.52263e-05 0.0001475 2.59382e-07
2.09929e-06 2.59382e-07 6.34586e-05
0.00184873 -0.000104343 2.67139e-06
-0.000104343 0.000124991 -1.31711e-07
2.67139e-06 -1.31711e-07 5.22045e-05
0.00153018 -0.000119303 1.57366e-06
-0.000119303 -7.66596e-05 3.77891e-07
1.57366e-06 3.77891e-07 -0.000153313
0.000901625 -0.000142068 2.04757e-06
-0.000142068 0.000128535 4.71204e-06
2.04757e-06 4.71204e-06 -1.74804e-05
0.00127774 -0.000198283 1.69856e-06
-0.000198283 0.000219139 4.8457e-06
1.69856e-06 4.8457e-06 -8.26674e-06
0.00112823 -0.000212646 -1.01396e-06
-0.000212646 -0.000106353 -3.93419e-06
-1.01396e-06 -3.93419e-06 -0.000268905
0.00150762 -0.000216739 -4.11808e-06
-0.000216739 -5.32069e-05 -1.89205e-06
-4.11808e-06 -1.89205e-06 -0.000157688
0.00119479 -0.000143386 9.38845e-06
-0.000143386 0.000214495 -3.42289e-06
9.38845e-06 -3.42289e-06 9.72498e-05
0.000533474 -0.000114536 3.51681e-06
-0.000114536 -7.19935e-05 -9.85245e-06
3.51681e-06 -9.85245e-06 -0.000170485
0.000715951 -8.45814e-05 -1.98727e-07
-8.45814e-05 3.58298e-05 -1.44346e-06
-1.98727e-07 -1.44346e-06 -8.0927e-05
0.000739584 5.68592e-06 -1.06211e-06
5.68592e-06 9.38776e-06 1.96406e-06
-1.06211e-06 1.96406e-06 -2.85663e-05
0.000871186 -1.45712e-05 -9.68997e-08
-1.45712e-05 0.000117856 -4.9531e-07
-9.68997e-08 -4.9531e-07 1.76888e-05
0.0010405 -5.45987e-05 -3.49692e-07
-5.45987e-05 0.000204002 6.19332e-07
-3.49692e-07 6.19332e-07 0.000133976
0.000797115 -1.7916e-05 -1.05753e-06
-1.7916e-05 7.81309e-05 1.03071e-06
-1.05753e-06 1.03071e-06 -1.27432e-05
0.000594092 -1.30885e-05 -4.50683e-07
-1.30885e-05 -5.66346e-05 1.21557e-06
-4.50683e-07 1.21557e-06 -0.000114768
0.00192578 -7.14801e-05 -6.92122e-07
-7.14801e-05 0.000108859 -1.4626e-07
-6.92122e-07 -1.4626e-07 4.71713e-05
0.000660351 2.13844e-05 9.22124e-08
2.13844e-05 -1.09524e-05 -7.5314e-07
9.22124e-08 -7.5314e-07 -7.18337e-05
0.000771018 -4.74894e-05 -2.47179e-07
-4.74894e-05 5.06965e-05 9.64825e-08
-2.47179e-07 9.64825e-08 -1.56674e-05
0.000826871 -2.13335e-05 -6.63295e-07
-2.13335e-05 9.67607e-05 6.52432e-07
-6.63295e-07 6.52432e-07 1.40975e-05
0.00173832 -0.000102794 5.74367e-07
-0.000102794 9.88885e-06 -5.53055e-07
5.74367e-07 -5.53055e-07 -5.28516e-05
0.00179787 -0.000210326 -8.35683e-07
-0.000210326 2.03215e-05 -2.47707e-07
-8.35683e-07 -2.47707e-07 -5.36411e-05
0.000886742 -0.000122724 2.11553e-06
-0.000122724 7.13706e-05 -1.21154e-07
2.11553e-06 -1.21154e-07 -7.07888e-05
0.00117721 -0.000219924 2.292e-06
-0.000219924 0.000100582 -3.82575e-08
2.292e-06 -3.82575e-08 -0.000131972
0.00172641 -0.000269199 -8.9149e-08
-0.000269199 9.25254e-05 4.64238e-07
-8.9149e-08 4.64238e-07 -3.2243e-05
0.000716046 -3.52311e-06 -2.24179e-07
-3.52311e-06 3.76025e-05 2.72165e-08
-2.24179e-07 2.72165e-08 -5.44958e-05
0.000940353 -4.63965e-05 -1.00372e-07
-4.63965e-05 0.000159821 1.04089e-07
-1.00372e-07 1.04089e-07 6.21462e-05
0.000580642 -0.000133525 -6.15947e-06
-0.000133525 -7.78581e-05 1.28618e-06
-6.15947e-06 1.28618e-06 -0.00018937
0.000903558 -7.86157e-05 8.24301e-07
-7.86157e-05 0.000177139 -2.27297e-07
8.24301e-07 -2.27297e-07 3.86534e-05
0.000717824 -5.67182e-05 -5.83943e-07
-5.67182e-05 3.77673e-05 4.73593e-07
-5.83943e-07 4.73593e-07 -7.33165e-05
0.00210404 -0.000132127 -4.71437e-06
-0.000132127 0.000153483 5.10015e-07
-4.71437e-06 5.10015e-07 0.000111338
0.00227413 -0.000139092 -1.03704e-06
-0.000139092 0.00027039 1.353e-06
-1.03704e-06 1.353e-06 0.000218717
0.00219665 -0.000302391 -1.45084e-07
-0.000302391 0.000236604 -6.2873e-07
-1.45084e-07 -6.2873e-07 0.000138978
0.00227418 -0.000313141 -1.04785e-05
-0.000313141 0.000551345 5.66279e-07
-1.04785e-05 5.66279e-07 0.000374013
0.000937612 -0.000123817 -6.3079e-06
-0.000123817 0.000137156 -1.97926e-06
-6.3079e-06 -1.97926e-06 -3.97542e-05
0.000583126 1.36285e-05 5.67632e-07
1.36285e-05 -4.25172e-05 -1.3945e-06
5.67632e-07 -1.3945e-06 -0.00012285
0.000608463 5.31576e-05 8.43415e-09
5.31576e-05 -2.51836e-05 -9.45127e-07
8.43415e-09 -9.45127e-07 -0.000111492
0.000914177 1.3463e-05 9.01576e-07
1.3463e-05 0.000147849 1.98378e-07
9.01576e-07 1.98378e-07 5.62512e-05
0.000819427 -7.57498e-05 1.65606e-06
-7.57498e-05 9.97197e-05 -2.37891e-07
1.65606e-06 -2.37891e-07 -1.80413e-06
0.000731805 -1.88847e-05 6.0406e-07
-1.88847e-05 4.18001e-05 5.91734e-07
6.0406e-07 5.91734e-07 -5.64464e-05
0.000709346 -2.07345e-05 1.97144e-06
-2.07345e-05 5.5446e-05 -4.58813e-07
1.97144e-06 -4.58813e-07 -7.04229e-05
0.000746008 -0.000109369 8.77808e-06
-0.000109369 0.000119077 1.1494e-06
8.77808e-06 1.1494e-06 -6.83067e-05
0.00076963 4.50775e-05 9.75681e-07
4.50775e-05 6.7302e-05 -1.59998e-06
9.75681e-07 -1.59998e-06 -1.92925e-05
0.00057652 4.8987e-05 1.15185e-06
4.8987e-05 -2.45706e-05 3.11772e-07
1.15185e-06 3.11772e-07 -0.000140584
0.00191007 0.000104764 1.72952e-06
0.000104764 7.88039e-05 -2.36009e-07
1.72952e-06 -2.36009e-07 2.49036e-05
0.00174701 0.000170666 3.85148e-06
0.000170666 -1.37419e-05 -5.91169e-07
3.85148e-06 -5.91169e-07 -8.82748e-05
0.00194836 0.000266484 4.1803e-06
0.000266484 0.000186146 3.61761e-07
4.1803e-06 3.61761e-07 5.07351e-05
0.000527493 0.000119222 2.15881e-06
0.000119222 -8.29473e-05 -9.16644e-07
2.15881e-06 -9.16644e-07 -0.000264901
0.00212448 0.000279843 3.20452e-06
0.000279843 0.000571012 1.26114e-06
3.20452e-06 1.26114e-06 0.000354005
0.00101745 2.52132e-05 -2.24988e-07
2.52132e-05 0.000208121 4.44587e-07
-2.24988e-07 4.44587e-07 0.000111225
0.00193314 0.000115717 -1.42397e-06
0.000115717 8.79223e-05 -9.42848e-08
-1.42397e-06 -9.42848e-08 5.93919e-05
0.00131808 0.000148742 -1.08075e-06
0.000148742 0.000370452 -3.72243e-07
-1.08075e-06 -3.72243e-07 0.000231179
0.00160583 0.000208709 -7.71722e-07
0.000208709 0.000465935 1.3034e-06
-7.71722e-07 1.3034e-06 0.000260309
0.00204709 0.000266706 8.11589e-07
0.000266706 0.000145232 -1.24001e-06
8.11589e-07 -1.24001e-06 5.71664e-05
0.0015065 0.000262915 -1.34623e-06
0.000262915 0.000131389 1.62586e-06
-1.34623e-06 1.62586e-06 -6.22207e-05
0.00118572 0.000151849 1.51531e-05
0.000151849 -0.000251915 1.32595e-06
1.51531e-05 1.32595e-06 -0.000458835
0.00110606 6.48376e-05 -2.61865e-06
6.48376e-05 0.000254109 -1.62751e-06
-2.61865e-06 -1.62751e-06 0.000142769
0.00251833 0.000188305 -2.16724e-05
0.000188305 0.000411764 -1.12123e-05
-2.16724e-05 -1.12123e-05 0.000414608
0.00132321 0.000177836 -5.90204e-06
0.000177836 0.000373183 -1.80901e-06
-5.90204e-06 -1.80901e-06 0.00021681
0.00140574 0.000219066 -6.9284e-06
0.000219066 0.000282765 -1.58998e-07
-6.9284e-06 -1.58998e-07 6.25726e-05
0.000475944 0.000272077 -9.63512e-06
0.000272077 -0.000547262 -2.38112e-06
-9.63512e-06 -2.38112e-06 -0.000699596
0.00813209 8.34832e-05 -9.088e-05
8.34832e-05 0.00246864 -3.39581e-05
-9.088e-05 -3.39581e-05 0.00157422
0.00377904 0.000310957 0.000102425
0.000310957 0.000512449 -9.40395e-07
0.000102425 -9.40395e-07 -0.000183693
0.000501332 0.000245719 1.06104e-05
0.000245719 -0.000418613 1.7712e-05
1.06104e-05 1.7712e-05 -0.000529461
-0.00246716 -0.000359873 7.53459e-05
-0.000359873 -0.000896886 -8.95433e-06
7.53459e-05 -8.95433e-06 -0.00115108
0.00354887 -0.000790211 -2.19387e-05
-0.000790211 0.000423788 -9.71736e-06
-2.19387e-05 -9.71736e-06 0.00175454
0.000837185 -1.4379e-05 4.76592e-07
-1.4379e-05 9.75778e-05 -5.60248e-08
4.76592e-07 -5.60248e-08 1.80393e-05
0.000923888 -2.52229e-05 9.51822e-07
-2.52229e-05 0.000142254 -3.00899e-07
9.51822e-07 -3.00899e-07 5.82028e-05
0.00091469 2.29706e-05 -4.69474e-07
2.29706e-05 0.000139062 -2.45035e-06
-4.69474e-07 -2.45035e-06 5.46272e-05
0.00075054 -5.28288e-05 8.11783e-08
-5.28288e-05 3.2784e-05 -7.10108e-07
8.11783e-08 -7.10108e-07 -3.06311e-05
0.000704084 4.64712e-05 -9.51151e-07
4.64712e-05 6.03275e-06 2.09455e-08
-9.51151e-07 2.09455e-08 -6.53304e-05
0.000859855 -4.22387e-05 -1.14752e-07
-4.22387e-05 9.67603e-05 3.87502e-07
-1.14752e-07 3.87502e-07 2.18888e-05
0.000933309 -1.93462e-05 -8.4777e-07
-1.93462e-05 0.000134745 7.65977e-07
-8.4777e-07 7.65977e-07 5.88556e-05
0.000831505 -4.21963e-05 1.40383e-08
-4.21963e-05 8.135e-05 -1.26591e-07
1.40383e-08 -1.26591e-07 1.28757e-06
0.000801223 4.01262e-05 -7.20177e-07
4.01262e-05 6.19193e-05 -2.62305e-07
-7.20177e-07 -2.62305e-07 -1.51226e-05
0.000703444 -4.89071e-06 -3.49721e-08
-4.89071e-06 -1.63414e-06 5.38893e-07
-3.49721e-08 5.38893e-07 -6.1639e-05
0.000797514 2.33905e-05 -2.63713e-07
2.33905e-05 5.93519e-05 -4.59451e-08
-2.63713e-07 -4.59451e-08 -1.76699e-05
0.000856965 -3.63828e-05 -1.97088e-07
-3.63828e-05 8.69734e-05 5.01915e-07
-1.97088e-07 5.01915e-07 9.81463e-06
0.000849082 -7.9595e-06 -1.52167e-07
-7.9595e-06 8.11393e-05 -1.55132e-07
-1.52167e-07 -1.55132e-07 6.82692e-06
0.000780568 2.53496e-05 1.50479e-07
2.53496e-05 3.95209e-05 -1.07865e-06
1.50479e-07 -1.07865e-06 -3.42214e-05
0.000734853 -8.90616e-06 6.89739e-07
-8.90616e-06 1.26118e-05 -2.24251e-06
6.89739e-07 -2.24251e-06 -5.73118e-05
0.000882931 3.14348e-05 1.34974e-06
3.14348e-05 9.59626e-05 -1.39367e-07
1.34974e-06 -1.39367e-07 2.05263e-05
0.000745552 1.54658e-06 1.06892e-06
1.54658e-06 2.14089e-05 -2.76646e-07
1.06892e-06 -2.76646e-07 -5.40963e-05
0.000651454 -4.15462e-05 -1.27608e-06
-4.15462e-05 -2.9601e-05 9.44282e-07
-1.27608e-06 9.44282e-07 -9.15319e-05
0.000863157 1.21954e-05 -4.99492e-07
1.21954e-05 9.61989e-05 -2.75724e-07
-4.99492e-07 -2.75724e-07 1.93198e-05
0.000900484 5.69502e-05 -7.67841e-09
5.69502e-05 0.000117099 -1.47065e-06
-7.67841e-09 -1.47065e-06 3.91541e-05
0.000760279 4.60343e-06 -7.54895e-07
4.60343e-06 4.89852e-05 -3.86018e-07
-7.54895e-07 -3.86018e-07 -2.47473e-05
0.000859442 6.9705e-06 6.98302e-07
6.9705e-06 0.000100041 -3.94232e-07
6.98302e-07 -3.94232e-07 2.42881e-05
0.000768174 -3.58112e-05 -1.55422e-06
-3.58112e-05 3.55096e-05 4.26784e-07
-1.55422e-06 4.26784e-07 -2.31645e-05
0.000648015 5.97446e-06 1.24399e-07
5.97446e-06 -2.95261e-05 5.31442e-07
1.24399e-07 5.31442e-07 -9.20311e-05
0.000739163 1.08033e-05 -2.88303e-07
1.08033e-05 5.49087e-06 1.45162e-06
-2.88303e-07 1.45162e-06 -3.18341e-05
0.000725265 3.13106e-06 -5.30438e-08
3.13106e-06 -1.64002e-06 -5.45468e-09
-5.30438e-08 -5.45468e-09 -3.87936e-05
0.000703926 6.91154e-06 -3.69775e-07
6.91154e-06 -2.81991e-05 4.7824e-06
-3.69775e-07 4.7824e-06 -3.53572e-05
0.000726638 -2.46279e-07 3.14512e-07
-2.46279e-07 -1.49249e-06 -1.44514e-06
3.14512e-07 -1.44514e-06 -3.82714e-05
0.000688304 1.29543e-06 2.33522e-07
1.29543e-06 -3.83117e-05 -4.13318e-09
2.33522e-07 -4.13318e-09 -4.49328e-05
0.00218995 -9.7514e-07 2.68996e-07
-9.7514e-07 0.000808806 4.5871e-06
2.68996e-07 4.5871e-06 0.000828738
0.000711585 -4.40535e-06 -4.93099e-07
-4.40535e-06 -2.47324e-05 -4.81585e-06
-4.93099e-07 -4.81585e-06 -3.12577e-05
0.00154488 -7.58793e-06 -3.72641e-07
-7.58793e-06 0.000446292 3.30727e-08
-3.72641e-07 3.30727e-08 0.000462876
0.000861674 -1.2467e-05 -4.42769e-07
-1.2467e-05 6.3307e-05 -1.74029e-06
-4.42769e-07 -1.74029e-06 7.68879e-05
0.000734468 7.46413e-06 -2.22164e-07
7.46413e-06 5.11827e-06 -1.77221e-06
-2.22164e-07 -1.77221e-06 -2.70162e-05
0.000736109 3.65213e-06 5.25607e-08
3.65213e-06 5.95315e-06 2.12663e-08
5.25607e-08 2.12663e-08 -2.75085e-05
0.000693958 1.21983e-05 1.48236e-07
1.21983e-05 -3.32013e-05 -3.45252e-06
1.48236e-07 -3.45252e-06 -3.78902e-05
0.000742756 2.50735e-06 -9.20795e-07
2.50735e-06 9.58046e-06 1.88455e-06
-9.20795e-07 1.88455e-06 -2.58317e-05
0.00098589 2.07335e-05 -2.26205e-07
2.07335e-05 0.000133751 -7.11303e-07
-2.26205e-07 -7.11303e-07 0.000129151
0.00212132 2.80684e-05 1.26657e-05
2.80684e-05 0.000776636 -4.36243e-06
1.26657e-05 -4.36243e-06 0.000795867
0.000686653 2.54214e-05 -6.04616e-07
2.54214e-05 -2.95692e-05 3.67239e-06
-6.04616e-07 3.67239e-06 -3.85011e-05
0.00222504 3.82603e-05 -7.34331e-06
3.82603e-05 0.000841067 1.17845e-06
-7.34331e-06 1.17845e-06 0.000858225
0.00227495 4.96757e-05 -2.23557e-05
4.96757e-05 0.000875245 4.10471e-06
-2.23557e-05 4.10471e-06 0.000890175
0.00166539 6.9308e-05 5.74691e-08
6.9308e-05 -9.43519e-06 -4.88388e-07
5.74691e-08 -4.88388e-07 -7.87102e-05
0.00172865 9.25287e-06 1.29672e-06
9.25287e-06 3.95061e-05 -1.33998e-07
1.29672e-06 -1.33998e-07 -4.62132e-05
0.00181484 5.3897e-05 5.09775e-06
5.3897e-05 4.05771e-05 1.36858e-06
5.09775e-06 1.36858e-06 -2.73895e-06
0.00207485 6.16422e-05 1.55932e-05
6.16422e-05 7.1849e-07 2.81003e-06
1.55932e-05 2.81003e-06 -6.68338e-05
0.00176988 1.01904e-05 -1.18977e-06
1.01904e-05 2.90127e-05 -6.30641e-08
-1.18977e-06 -6.30641e-08 -2.65314e-05
0.00189695 4.10916e-05 2.29895e-06
4.10916e-05 0.000132063 8.53472e-07
2.29895e-06 8.53472e-07 0.000113412
0.00245176 3.90205e-07 -1.15238e-05
3.90205e-07 0.000427866 -6.84923e-07
-1.15238e-05 -6.84923e-07 0.000382853
0.00309653 1.02991e-06 0.000135892
1.02991e-06 0.000306956 -4.71374e-06
0.000135892 -4.71374e-06 6.11705e-06
0.00187468 -1.4576e-05 -1.20078e-05
-1.4576e-05 -2.31894e-05 -5.5831e-06
-1.20078e-05 -5.5831e-06 -8.66244e-05
0.000769358 4.57213e-05 -7.35058e-07
4.57213e-05 4.72333e-05 -1.04528e-06
-7.35058e-07 -1.04528e-06 -8.96105e-06
0.0007687 -1.20131e-05 6.84883e-07
-1.20131e-05 4.87026e-05 -6.0444e-08
6.84883e-07 -6.0444e-08 -9.72619e-06
0.000748013 -6.1386e-05 8.20884e-08
-6.1386e-05 4.38017e-05 -3.85284e-07
8.20884e-08 -3.85284e-07 -2.82101e-05
0.000765298 -2.24522e-05 -1.24894e-06
-2.24522e-05 6.21531e-05 -7.23704e-08
-1.24894e-06 -7.23704e-08 -1.51119e-05
0.00194086 -7.76614e-05 1.92594e-06
-7.76614e-05 0.000112814 -9.79805e-08
1.92594e-06 -9.79805e-08 5.24976e-05
0.00168103 -0.000110579 -1.21525e-06
-0.000110579 -3.17337e-05 5.8955e-08
-1.21525e-06 5.8955e-08 -9.45304e-05
0.00175919 -0.000208334 -4.80299e-06
-0.000208334 1.01777e-05 9.71099e-07
-4.80299e-06 9.71099e-07 -6.85019e-05
0.00103737 -0.000162752 4.00798e-06
-0.000162752 0.00014607 2.76511e-06
4.00798e-06 2.76511e-06 6.8346e-06
-9.31676e-05 -0.000134757 4.31921e-06
-0.000134757 -0.000554737 -9.78626e-07
4.31921e-06 -9.78626e-07 -0.000785016
0.00188164 -0.00028444 1.9983e-07
-0.00028444 0.000182002 -2.35705e-06
1.9983e-07 -2.35705e-06 5.35285e-05
0.000509227 -0.000117535 -7.20182e-06
-0.000117535 -0.000108079 7.53651e-07
-7.20182e-06 7.53651e-07 -0.000229533
0.00104652 -7.50617e-05 -1.27138e-06
-7.50617e-05 0.000245118 -1.49065e-06
-1.27138e-06 -1.49065e-06 0.000115017
0.000877314 -8.17449e-05 -2.21875e-06
-8.17449e-05 0.00012532 8.49272e-07
-2.21875e-06 8.49272e-07 1.35488e-05
0.000782822 -2.26238e-05 -1.12303e-06
-2.26238e-05 5.38355e-05 1.40012e-06
-1.12303e-06 1.40012e-06 -1.04048e-05
0.000830539 -5.9132e-05 -6.97609e-07
-5.9132e-05 0.00010517 1.24468e-07
-6.97609e-07 1.24468e-07 2.21511e-06
0.000838246 -8.20962e-06 -1.00559e-06
-8.20962e-06 0.000103248 9.27786e-07
-1.00559e-06 9.27786e-07 1.34068e-05
0.000765038 -2.52642e-06 3.14623e-08
-2.52642e-06 4.9756e-05 5.8225e-07
3.14623e-08 5.8225e-07 -1.1721e-05
0.000685888 2.01942e-05 -2.46225e-07
2.01942e-05 2.03618e-05 1.67376e-06
-2.46225e-07 1.67376e-06 -6.51473e-05
0.0019583 -0.000114835 3.06835e-07
-0.000114835 0.000103563 2.82123e-07
3.06835e-07 2.82123e-07 5.79887e-05
0.000774291 8.15788e-06 6.65317e-07
8.15788e-06 6.49876e-05 -5.24005e-07
6.65317e-07 -5.24005e-07 -1.44202e-05
0.000711677 1.88446e-05 6.18734e-07
1.88446e-05 3.39959e-05 -6.01744e-08
6.18734e-07 -6.01744e-08 -5.29948e-05
0.000809899 6.16957e-05 -2.81202e-07
6.16957e-05 9.34337e-05 9.80648e-07
-2.81202e-07 9.80648e-07 7.67637e-07
0.00194596 -0.000133356 -2.74867e-06
-0.000133356 7.9071e-05 9.22705e-07
-2.74867e-06 9.22705e-07 2.38041e-05
0.00190777 -0.000281329 8.61193e-07
-0.000281329 9.23976e-05 -9.33685e-07
8.61193e-07 -9.33685e-07 -7.76586e-07
0.00102144 -0.000168289 -1.41091e-06
-0.000168289 0.00017068 -3.0512e-08
-1.41091e-06 -3.0512e-08 -8.47602e-06
0.0023174 -0.000317486 -1.24154e-06
-0.000317486 0.000570634 6.48749e-07
-1.24154e-06 6.48749e-07 0.000390189
0.000912863 -2.687e-05 -3.56033e-07
-2.687e-05 0.000147275 3.60183e-08
-3.56033e-07 3.60183e-08 4.80749e-05
0.000749023 -3.65715e-05 -2.72491e-07
-3.65715e-05 5.69273e-05 9.23405e-07
-2.72491e-07 9.23405e-07 -4.48274e-05
0.000808019 -0.000113911 3.79635e-06
-0.000113911 0.000142232 -1.0122e-06
3.79635e-06 -1.0122e-06 -3.6038e-05
0.00101751 -7.397e-05 1.0215e-06
-7.397e-05 0.000228958 -8.15853e-07
1.0215e-06 -8.15853e-07 9.27682e-05
0.00226966 -9.42695e-05 -6.96069e-06
-9.42695e-05 0.000245092 4.80511e-06
-6.96069e-06 4.80511e-06 0.000188876
0.00244491 -0.000249553 -5.18762e-06
-0.000249553 0.000286276 -1.36045e-06
-5.18762e-06 -1.36045e-06 0.000269988
0.00237662 -0.000331513 -4.85962e-06
-0.000331513 0.000468316 -3.06318e-06
-4.85962e-06 -3.06318e-06 0.000324579
0.00142268 -0.000246443 -1.53171e-06
-0.000246443 0.000350162 -4.14105e-07
-1.53171e-06 -4.14105e-07 0.000165095
0.000729392 2.67138e-05 -4.28347e-07
2.67138e-05 5.02348e-05 -6.98992e-07
-4.28347e-07 -6.98992e-07 -4.86015e-05
0.000743365 -4.31646e-05 6.00676e-07
-4.31646e-05 6.09389e-05 -1.14538e-06
6.00676e-07 -1.14538e-06 -3.97588e-05
0.000748073 -3.3632e-05 6.17825e-07
-3.3632e-05 6.42752e-05 -2.68392e-07
6.17825e-07 -2.68392e-07 -4.3301e-05
0.000606859 -8.44434e-06 -1.86135e-07
-8.44434e-06 4.5168e-05 4.79896e-07
-1.86135e-07 4.79896e-07 -0.000154186
0.000382885 -0.00012638 1.85222e-05
-0.00012638 -0.00161369 -2.92098e-06
1.85222e-05 -2.92098e-06 -0.00210793
0.000990739 1.38575e-05 1.36806e-06
1.38575e-05 0.000190683 -1.14166e-06
1.36806e-06 -1.14166e-06 9.96844e-05
0.000559106 9.48294e-05 2.88666e-06
9.48294e-05 -3.94824e-05 1.53751e-06
2.88666e-06 1.53751e-06 -0.000170119
0.00170533 0.000109326 1.49259e-05
0.000109326 -3.92691e-05 1.11459e-06
1.49259e-05 1.11459e-06 -6.05159e-05
0.00209399 0.000260696 4.24892e-06
0.000260696 0.000168923 -9.86963e-08
4.24892e-06 -9.86963e-08 8.26987e-05
0.00131325 0.000253661 5.65717e-06
0.000253661 3.06824e-05 2.71206e-06
5.65717e-06 2.71206e-06 -0.000168639
0.000757 0.000148642 4.71059e-06
0.000148642 3.10343e-05 1.31592e-06
4.71059e-06 1.31592e-06 -0.000177423
0.00221273 0.000186878 1.78801e-05
0.000186878 7.53022e-05 3.06139e-06
1.78801e-05 3.06139e-06 -0.000185279
0.000986979 5.45584e-05 7.82599e-07
5.45584e-05 0.000195815 -7.47327e-07
7.82599e-07 -7.47327e-07 8.65587e-05
0.00227035 0.000182637 -6.78213e-06
0.000182637 0.00028574 -1.87615e-06
-6.78213e-06 -1.87615e-06 0.000297973
0.00106087 0.000158541 4.69375e-07
0.000158541 0.000236964 -3.75368e-07
4.69375e-07 -3.75368e-07 8.43551e-05
0.0011685 0.0002099 -2.37628e-07
0.0002099 0.00016573 4.63557e-07
-2.37628e-07 4.63557e-07 -5.62935e-05
0.0013002 0.000318082 -2.22347e-06
0.000318082 -0.000142881 -1.20526e-06
-2.22347e-06 -1.20526e-06 -0.000288465
0.00275814 -0.000134417 -6.17126e-05
-0.000134417 -0.000215207 -1.97337e-05
-6.17126e-05 -1.97337e-05 -0.00106579
0.00370281 0.00022376 8.235e-06
0.00022376 0.000294317 -1.59452e-05
8.235e-06 -1.59452e-05 -0.000482226
0.000283655 0.000198593 5.41539e-06
0.000198593 -0.000508537 6.06077e-06
5.41539e-06 6.06077e-06 -0.000633689
-0.00168956 -0.000231349 5.79731e-05
-0.000231349 -0.000229072 1.69331e-05
5.79731e-05 1.69331e-05 -0.000775053
-0.000374575 -0.000798475 -6.60203e-06
-0.000798475 -0.00136831 -2.04959e-05
-6.60203e-06 -2.04959e-05 0.000160209
0.00119429 0.000112576 -3.4928e-06
0.000112576 0.000326267 -3.39298e-06
-3.4928e-06 -3.39298e-06 0.000215106
0.000681444 0.000174337 -2.45509e-05
0.000174337 0.000836665 -2.56336e-05
-2.45509e-05 -2.56336e-05 0.000276463
0.00135034 -0.000363212 -5.66878e-05
-0.000363212 0.000907633 -5.72212e-05
-5.66878e-05 -5.72212e-05 0.000863079
0.00239755 0.000265126 -2.33266e-05
0.000265126 0.000412534 -6.05871e-06
-2.33266e-05 -6.05871e-06 0.000428026
0.00107374 0.000101553 -1.03126e-05
0.000101553 0.000251155 -2.50941e-06
-1.03126e-05 -2.50941e-06 8.58365e-05
0.00100135 0.000316284 -1.69095e-05
0.000316284 5.73998e-06 -8.07565e-06
-1.69095e-05 -8.07565e-06 -0.000225333
-0.000167969 0.000252366 1.32821e-05
0.000252366 -0.000751114 4.96032e-05
1.32821e-05 4.96032e-05 -0.00076407
0.00815102 5.9882e-06 -4.08349e-05
5.9882e-06 0.00285292 -1.93918e-05
-4.08349e-05 -1.93918e-05 0.00147076
0.00366436 0.000469472 -5.31944e-06
0.000469472 0.000624965 1.45334e-05
-5.31944e-06 1.45334e-05 -0.000509133
0.000759878 -0.000641117 2.9834e-05
-0.000641117 -0.000211313 2.00617e-05
2.9834e-05 2.00617e-05 0.000161618
0.00132214 -0.000445961 -2.07014e-05
-0.000445961 -0.00164165 4.86474e-05
-2.07014e-05 4.86474e-05 -0.0004596
0.000866919 -3.06323e-05 1.45637e-06
-3.06323e-05 0.000115824 -4.33896e-07
1.45637e-06 -4.33896e-07 3.24894e-05
0.000907865 1.64562e-05 3.04514e-07
1.64562e-05 0.000136408 1.21332e-07
3.04514e-07 1.21332e-07 5.24523e-05
0.00112161 5.94766e-05 -1.46707e-06
5.94766e-05 0.000250503 -3.56659e-06
-1.46707e-06 -3.56659e-06 0.000184142
0.000751051 4.2603e-06 -6.78743e-08
4.2603e-06 3.57993e-05 4.23257e-09
-6.78743e-08 4.23257e-09 -3.03587e-05
0.000812106 2.03875e-05 -6.59282e-07
2.03875e-05 6.61728e-05 -1.77843e-07
-6.59282e-07 -1.77843e-07 -9.46395e-06
0.000740184 -3.10375e-05 -5.40667e-07
-3.10375e-05 2.14726e-05 2.30605e-07
-5.40667e-07 2.30605e-07 -5.10939e-05
0.000889634 -9.27363e-06 -6.76607e-08
-9.27363e-06 0.000103448 7.66848e-07
-6.76607e-08 7.66848e-07 2.94656e-05
0.000889739 -3.54064e-05 -3.44839e-07
-3.54064e-05 0.000105164 1.73234e-06
-3.44839e-07 1.73234e-06 2.82398e-05
0.000648686 -7.43725e-07 5.22298e-07
-7.43725e-07 -2.8741e-05 5.33979e-07
5.22298e-07 5.33979e-07 -9.23066e-05
0.000827097 -4.30775e-06 -1.06102e-07
-4.30775e-06 6.47377e-05 -1.19876e-07
-1.06102e-07 -1.19876e-07 -8.95267e-06
0.000883479 -3.46937e-06 2.25645e-08
-3.46937e-06 9.81558e-05 3.01067e-07
2.25645e-08 3.01067e-07 2.23357e-05
0.000822511 2.21536e-05 5.66994e-07
2.21536e-05 7.2915e-05 -2.42779e-07
5.66994e-07 -2.42779e-07 -7.21636e-06
0.000762809 -6.29987e-06 1.19425e-07
-6.29987e-06 2.76854e-05 -1.17774e-07
1.19425e-07 -1.17774e-07 -4.15317e-05
0.000860007 -1.14575e-05 4.91726e-07
-1.14575e-05 7.60224e-05 -1.16868e-06
4.91726e-07 -1.16868e-06 3.84353e-06
0.00072603 2.15635e-05 -9.07436e-07
2.15635e-05 1.99129e-06 -5.10533e-06
-9.07436e-07 -5.10533e-06 -6.21324e-05
0.00088692 -6.15572e-05 2.09886e-07
-6.15572e-05 9.69167e-05 -6.05995e-07
2.09886e-07 -6.05995e-07 1.71604e-05
0.000867769 -4.77801e-05 -5.16493e-07
-4.77801e-05 0.000100837 -7.30286e-07
-5.16493e-07 -7.30286e-07 1.94852e-05
0.000873398 -1.17133e-05 -4.65227e-07
-1.17133e-05 0.000104028 -1.84277e-07
-4.65227e-07 -1.84277e-07 2.52058e-05
0.000897757 4.34169e-05 -5.4402e-07
4.34169e-05 0.000111595 -2.9249e-07
-5.4402e-07 -2.9249e-07 3.59803e-05
0.000861693 2.00665e-05 -7.24816e-07
2.00665e-05 9.82832e-05 -1.34103e-06
-7.24816e-07 -1.34103e-06 1.15361e-05
0.000824279 4.61962e-05 3.63429e-07
4.61962e-05 7.70897e-05 -1.04342e-06
3.63429e-07 -1.04342e-06 1.98966e-06
0.000735549 3.68872e-05 2.68492e-07
3.68872e-05 1.73949e-05 -1.52556e-06
2.68492e-07 -1.52556e-06 -5.37483e-05
0.00072882 5.16988e-05 1.88794e-06
5.16988e-05 4.06716e-05 8.64634e-07
1.88794e-06 8.64634e-07 -3.95214e-05
0.000756901 1.25875e-05 -2.07356e-07
1.25875e-05 4.09058e-05 -3.71133e-07
-2.07356e-07 -3.71133e-07 -2.51095e-05
0.000780461 -3.31548e-06 -1.0483e-07
-3.31548e-06 5.72319e-05 3.46944e-08
-1.0483e-07 3.46944e-08 -1.46093e-05
0.000763126 1.79679e-06 -1.22386e-06
1.79679e-06 2.89192e-05 2.20981e-07
-1.22386e-06 2.20981e-07 -2.55768e-05
0.000811027 8.54873e-06 8.9183e-07
8.54873e-06 6.33584e-05 -5.39745e-08
8.9183e-07 -5.39745e-08 -7.10384e-06
0.00073333 -3.06988e-05 -2.16037e-08
-3.06988e-05 1.56969e-05 4.3371e-08
-2.16037e-08 4.3371e-08 -4.33603e-05
0.000749193 1.41596e-05 -7.00432e-07
1.41596e-05 1.00965e-05 1.50005e-06
-7.00432e-07 1.50005e-06 -2.70779e-05
0.000653897 6.13282e-06 5.77173e-07
6.13282e-06 -2.20578e-05 5.82927e-08
5.77173e-07 5.82927e-08 -8.7365e-05
0.000734773 8.30774e-06 -1.94088e-09
8.30774e-06 2.7624e-06 -1.2696e-08
-1.94088e-09 -1.2696e-08 -3.44836e-05
0.00134999 1.54761e-05 -2.95318e-06
1.54761e-05 0.000337264 4.69048e-06
-2.95318e-06 4.69048e-06 0.000333132
0.0007217 3.26928e-07 4.7358e-07
3.26928e-07 -3.70052e-06 -1.38639e-06
4.7358e-07 -1.38639e-06 -4.08039e-05
0.00102212 8.28137e-06 -1.46619e-06
8.28137e-06 0.000150695 7.14671e-07
-1.46619e-06 7.14671e-07 0.000145322
0.000914563 3.79746e-06 -3.22428e-06
3.79746e-06 9.20891e-05 4.43591e-06
-3.22428e-06 4.43591e-06 0.000105021
0.000693944 1.53638e-06 3.7634e-08
1.53638e-06 -3.51076e-05 -3.31634e-06
3.7634e-08 -3.31634e-06 -4.1766e-05
0.00219304 -7.1484e-08 3.03963e-06
-7.1484e-08 0.000810581 -1.26447e-09
3.03963e-06 -1.26447e-09 0.00083048
0.000923563 -3.78011e-06 -2.87984e-06
-3.78011e-06 9.69506e-05 -4.4515e-06
-2.87984e-06 -4.4515e-06 0.000110241
0.000768257 6.01615e-05 7.30088e-07
6.01615e-05 5.13948e-05 -3.00501e-07
7.30088e-07 -3.00501e-07 -9.08875e-06
0.000740503 3.63618e-06 -1.10135e-07
3.63618e-06 7.7134e-06 -1.73391e-06
-1.10135e-07 -1.73391e-06 -2.38558e-05
0.000734297 3.75154e-06 5.37229e-09
3.75154e-06 4.84643e-06 6.25597e-09
5.37229e-09 6.25597e-09 -2.72538e-05
0.000695588 5.99044e-06 -7.72815e-08
5.99044e-06 -3.41767e-05 -3.40756e-06
-7.72815e-08 -3.40756e-06 -3.77869e-05
0.000737908 1.08824e-06 -4.67187e-07
1.08824e-06 6.68567e-06 1.80379e-06
-4.67187e-07 1.80379e-06 -2.67616e-05
0.000686572 1.2332e-05 4.1952e-09
1.2332e-05 -3.77737e-05 -7.20212e-07
4.1952e-09 -7.20212e-07 -4.23487e-05
0.00208875 1.83129e-05 8.42421e-06
1.83129e-05 0.000754829 -4.45783e-06
8.42421e-06 -4.45783e-06 0.000775236
0.00129105 2.51207e-05 -1.08249e-06
2.51207e-05 0.000305581 2.10528e-06
-1.08249e-06 2.10528e-06 0.000302307
0.00154131 2.39701e-05 3.88913e-07
2.39701e-05 0.000451605 1.41097e-06
3.88913e-07 1.41097e-06 0.000467093
0.000974398 2.66558e-05 -1.67638e-05
2.66558e-05 0.000138347 7.15677e-06
-1.67638e-05 7.15677e-06 0.000148714
0.000732209 4.84359e-05 2.89715e-05
4.84359e-05 -0.000647229 1.11983e-05
2.89715e-05 1.11983e-05 -0.000743445
0.00183306 8.57387e-06 2.96349e-06
8.57387e-06 5.95503e-05 6.42079e-07
2.96349e-06 6.42079e-07 4.78388e-06
0.002108 4.0801e-05 1.63451e-05
4.0801e-05 0.000257077 8.87318e-07
1.63451e-05 8.87318e-07 0.000234165
0.000883086 2.78372e-05 1.72322e-05
2.78372e-05 -0.000571979 -3.26825e-06
1.72322e-05 -3.26825e-06 -0.000908604
0.00177636 -7.16896e-06 3.0449e-06
-7.16896e-06 -3.82085e-05 9.39971e-07
3.0449e-06 9.39971e-07 -8.22291e-05
0.00205223 -9.57853e-06 -2.53951e-06
-9.57853e-06 0.000152373 -6.69688e-07
-2.53951e-06 -6.69688e-07 0.00011314
0.00264257 -2.5547e-05 -3.90833e-05
-2.5547e-05 0.000424664 3.88261e-06
-3.90833e-05 3.88261e-06 0.000399263
0.00216896 -0.000103366 0.000140173
-0.000103366 3.14795e-05 -1.02598e-05
0.000140173 -1.02598e-05 -0.00024582
0.00792962 -0.000109743 -2.33538e-05
-0.000109743 0.00236727 7.04933e-06
-2.33538e-05 7.04933e-06 0.00139107
0.0046915 0.000768252 6.89257e-05
0.000768252 0.00228295 -2.18904e-05
6.89257e-05 -2.18904e-05 0.00246299
0.00213722 0.00073109 -1.13565e-05
0.00073109 0.000828712 1.50822e-05
-1.13565e-05 1.50822e-05 0.00184277
0.000574254 -6.32651e-05 1.44565e-06
-6.32651e-05 -4.91661e-05 -1.09341e-06
1.44565e-06 -1.09341e-06 -0.000123128
0.000771508 -9.03301e-06 6.12023e-07
-9.03301e-06 4.99629e-05 -4.80812e-08
6.12023e-07 -4.80812e-08 -7.39519e-06
0.000766387 -6.36496e-05 -1.17349e-06
-6.36496e-05 5.18324e-05 1.30993e-06
-1.17349e-06 1.30993e-06 -9.76189e-06
0.000742741 -2.91621e-05 -3.26081e-07
-2.91621e-05 4.4745e-05 6.67326e-08
-3.26081e-07 6.67326e-08 -3.06749e-05
0.000781345 4.5742e-05 2.57101e-07
4.5742e-05 7.95269e-05 6.16162e-07
2.57101e-07 6.16162e-07 -1.09806e-05
0.000903317 9.21556e-05 7.68512e-07
9.21556e-05 0.000133602 7.77284e-07
7.68512e-07 7.77284e-07 4.90112e-05
0.000829732 -1.89184e-05 9.13677e-07
-1.89184e-05 9.15073e-05 -1.28628e-06
9.13677e-07 -1.28628e-06 1.6241e-05
0.000721307 -3.31941e-05 -5.1988e-07
-3.31941e-05 3.30168e-05 6.37135e-07
-5.1988e-07 6.37135e-07 -4.11028e-05
0.00187721 -9.65485e-05 4.81425e-06
-9.65485e-05 8.636e-05 -9.80122e-07
4.81425e-06 -9.80122e-07 3.8859e-05
0.00166465 -0.000133186 1.28018e-06
-0.000133186 -9.9283e-05 -9.46092e-07
1.28018e-06 -9.46092e-07 -0.00015682
0.00151257 -0.000257197 -2.09027e-06
-0.000257197 -0.000106994 9.6194e-07
-2.09027e-06 9.6194e-07 -0.000196278
0.000996385 -0.000186691 1.91497e-06
-0.000186691 0.000139421 3.04454e-06
1.91497e-06 3.04454e-06 -3.74245e-05
0.0022664 -0.000316128 1.87489e-06
-0.000316128 0.000540021 8.99919e-07
1.87489e-06 8.99919e-07 0.00035565
0.00083565 -0.000116016 -1.05433e-06
-0.000116016 0.000148599 -8.37055e-07
-1.05433e-06 -8.37055e-07 -2.14302e-05
0.00132334 -0.000126073 -7.09397e-07
-0.000126073 0.000402569 -3.67914e-07
-7.09397e-07 -3.67914e-07 0.000254878
0.000794617 -6.33919e-05 -1.71331e-06
-6.33919e-05 8.75974e-05 1.30608e-06
-1.71331e-06 1.30608e-06 -1.78917e-05
0.000789934 -7.71693e-06 1.08867e-07
-7.71693e-06 7.85879e-05 1.04998e-06
1.08867e-07 1.04998e-06 -8.37358e-06
0.00100172 8.86278e-06 -1.51947e-06
8.86278e-06 0.0001924 5.25222e-08
-1.51947e-06 5.25222e-08 9.56498e-05
0.000999193 -4.36475e-06 7.74235e-07
-4.36475e-06 0.000189654 4.79053e-07
7.74235e-07 4.79053e-07 0.000111727
0.000722004 9.98672e-05 1.42495e-06
9.98672e-05 4.75781e-05 1.94094e-06
1.42495e-06 1.94094e-06 -4.64151e-05
0.00162958 -9.43339e-05 -1.00296e-06
-9.43339e-05 -0.000105969 -2.29485e-06
-1.00296e-06 -2.29485e-06 -0.000156047
0.000782215 3.25606e-05 -6.17122e-07
3.25606e-05 7.91515e-05 3.34718e-07
-6.17122e-07 3.34718e-07 -1.7685e-05
0.000814575 -3.66976e-05 -4.30585e-07
-3.66976e-05 9.57711e-05 -3.64642e-07
-4.30585e-07 -3.64642e-07 -1.66847e-06
0.00202714 -0.000244118 -3.47158e-07
-0.000244118 7.78417e-05 -1.18066e-06
-3.47158e-07 -1.18066e-06 4.75273e-05
0.00126441 -0.000272082 1.98629e-07
-0.000272082 -0.000104747 1.72321e-06
1.98629e-07 1.72321e-06 -0.000233686
0.0015278 -0.000254028 1.70871e-06
-0.000254028 0.00040057 -1.60493e-06
1.70871e-06 -1.60493e-06 0.000201865
0.000891211 -3.58883e-05 3.58427e-07
-3.58883e-05 0.00014583 -4.98171e-07
3.58427e-07 -4.98171e-07 3.38496e-05
0.000964859 -4.18035e-05 -1.19746e-07
-4.18035e-05 0.000233081 4.00301e-07
-1.19746e-07 4.00301e-07 3.71797e-05
0.00351227 -0.000178646 -1.05565e-05
-0.000178646 0.00104148 8.25493e-06
-1.05565e-05 8.25493e-06 0.000948096
0.00296073 -0.000337442 -1.42449e-05
-0.000337442 0.000632474 9.97319e-07
-1.42449e-05 9.97319e-07 0.000623857
-0.000252503 -0.000204865 -4.41383e-06
-0.000204865 -0.00071476 -1.86836e-06
-4.41383e-06 -1.86836e-06 -0.000857071
0.00110469 -0.000155988 -4.4717e-06
-0.000155988 0.000236787 5.05404e-06
-4.4717e-06 5.05404e-06 2.28702e-05
0.000666831 -8.34861e-05 8.74063e-07
-8.34861e-05 9.86683e-06 -3.94943e-07
8.74063e-07 -3.94943e-07 -8.85827e-05
0.000833898 -3.84745e-05 1.04001e-06
-3.84745e-05 0.000107666 -2.37582e-07
1.04001e-06 -2.37582e-07 4.20019e-06
0.000749448 -1.39382e-05 -1.48518e-06
-1.39382e-05 8.3058e-05 4.61e-07
-1.48518e-06 4.61e-07 -5.30958e-05
-0.00376046 -2.62159e-05 0.000121943
-2.62159e-05 -0.00178852 2.376e-06
0.000121943 2.376e-06 -0.00155587
0.00874347 -7.40394e-05 -2.80852e-05
-7.40394e-05 0.00287154 -3.25411e-07
-2.80852e-05 -3.25411e-07 0.00228049
0.00086949 4.71889e-05 2.4308e-06
4.71889e-05 0.000137622 3.61818e-07
2.4308e-06 3.61818e-07 3.01406e-05
0.000743329 0.000135519 4.37661e-06
0.000135519 6.88994e-05 3.72893e-08
4.37661e-06 3.72893e-08 -7.9709e-05
0.00184286 0.000165288 1.04066e-05
0.000165288 5.99667e-05 8.1392e-06
1.04066e-05 8.1392e-06 8.61007e-05
0.00212096 0.00036399 5.47027e-06
0.00036399 0.000259797 2.28167e-06
5.47027e-06 2.28167e-06 0.000121692
0.0010882 0.000210892 7.19862e-06
0.000210892 0.000131923 1.60077e-06
7.19862e-06 1.60077e-06 -9.12752e-05
0.00606463 0.000253825 6.72627e-05
0.000253825 0.00139069 3.82766e-06
6.72627e-05 3.82766e-06 0.000410904
0.00584838 0.00033297 -9.65736e-05
0.00033297 0.00120222 -2.64245e-05
-9.65736e-05 -2.64245e-05 0.000540454
-0.000238736 0.00014127 3.5608e-06
0.00014127 -0.0007583 -2.02924e-05
3.5608e-06 -2.02924e-05 -0.000890789
0.00436114 -0.000630598 5.69382e-06
-0.000630598 0.00219513 2.28588e-05
5.69382e-06 2.28588e-05 0.0020377
-0.0042828 -0.000829853 -7.66114e-05
-0.000829853 -0.00306655 -8.26818e-05
-7.66114e-05 -8.26818e-05 -0.00132731
0.000953737 0.000114348 1.80526e-07
0.000114348 0.000200728 -8.29306e-07
1.80526e-07 -8.29306e-07 8.87527e-05
-0.00243745 -0.000216162 3.53659e-05
-0.000216162 -0.0014102 4.19243e-06
3.53659e-05 4.19243e-06 -0.00144362
-0.000803474 -0.000315522 -4.05279e-05
-0.000315522 6.58115e-05 -1.575e-05
-4.05279e-05 -1.575e-05 -0.000204252
0.00249687 0.000257108 -4.39366e-06
0.000257108 0.000432911 -2.59389e-06
-4.39366e-06 -2.59389e-06 0.000467328
0.000896985 0.000118619 -1.18464e-06
0.000118619 0.000175169 -5.81498e-07
-1.18464e-06 -5.81498e-07 6.6173e-06
0.000646843 0.000248751 2.7075e-06
0.000248751 -0.000149554 1.82394e-06
2.7075e-06 1.82394e-06 -0.000373838
0.000569912 0.00018516 1.0905e-05
0.00018516 -0.00029184 1.00004e-05
1.0905e-05 1.00004e-05 -0.000256635
0.00643734 2.56291e-05 -1.18205e-05
2.56291e-05 0.0018422 -8.83187e-06
-1.18205e-05 -8.83187e-06 0.000342175
0.00638052 0.000632112 -3.93011e-05
0.000632112 0.00167225 -1.76509e-05
-3.93011e-05 -1.76509e-05 0.000892525
0.00558498 -0.00086978 2.81868e-05
-0.00086978 0.00246648 -1.87898e-05
2.81868e-05 -1.87898e-05 0.00256862
0.00125558 -0.000517302 3.76028e-05
-0.000517302 -0.00180116 8.32334e-05
3.76028e-05 8.32334e-05 -0.000566588
0.00105342 7.16341e-05 -8.63867e-06
7.16341e-05 0.000276274 -6.8164e-06
-8.63867e-06 -6.8164e-06 0.000181527
-0.00264313 -6.69463e-05 -7.50998e-05
-6.69463e-05 -0.00022066 -2.21207e-05
-7.50998e-05 -2.21207e-05 -0.00106
0.00202657 1.23695e-05 -7.24086e-05
1.23695e-05 0.000372285 -8.2962e-05
-7.24086e-05 -8.2962e-05 -0.000403113
0.000226709 0.000225075 -2.4038e-05
0.000225075 -0.000427051 1.39562e-06
-2.4038e-05 1.39562e-06 -0.0004182
0.00162123 0.000276941 -3.21977e-05
0.000276941 0.000622578 -8.80865e-06
-3.21977e-05 -8.80865e-06 0.000440028
0.00274616 0.000185857 -5.82232e-05
0.000185857 0.00111711 -1.04237e-06
-5.82232e-05 -1.04237e-06 0.000957813
0.00376329 0.000640622 -7.38846e-05
0.000640622 0.00049179 1.25087e-06
-7.38846e-05 1.25087e-06 0.00011187
-0.00105481 5.86277e-05 6.4254e-05
5.86277e-05 -0.000960481 5.35765e-05
6.4254e-05 5.35765e-05 -0.00298112
0.0066917 -0.000802018 -4.20651e-05
-0.000802018 0.00169765 4.95335e-05
-4.20651e-05 4.95335e-05 0.0017686
0.00191005 -0.000306158 -9.6901e-06
-0.000306158 -0.00197262 -2.03377e-05
-9.6901e-06 -2.03377e-05 -0.000752238
0.000924763 3.13561e-05 1.71202e-06
3.13561e-05 0.000151237 2.88928e-06
1.71202e-06 2.88928e-06 6.36576e-05
0.00111236 6.39127e-05 2.316e-06
6.39127e-05 0.000247412 1.9962e-06
2.316e-06 1.9962e-06 0.000177337
0.000553197 5.41845e-05 -6.54764e-07
5.41845e-05 -5.62981e-05 -8.34375e-06
-6.54764e-07 -8.34375e-06 -0.000103471
0.000639423 4.19848e-05 5.38803e-07
4.19848e-05 -3.42913e-05 9.22278e-08
5.38803e-07 9.22278e-08 -9.75971e-05
0.000882738 3.75829e-05 -8.10457e-07
3.75829e-05 0.000111503 -3.04302e-07
-8.10457e-07 -3.04302e-07 2.93951e-05
0.000869985 -2.11643e-05 -4.18488e-07
-2.11643e-05 9.13604e-05 7.3808e-07
-4.18488e-07 7.3808e-07 1.59699e-05
0.000860767 -1.97682e-05 -4.08652e-07
-1.97682e-05 8.47883e-05 2.29999e-07
-4.08652e-07 2.29999e-07 9.86305e-06
0.000794149 -9.96148e-06 -5.42765e-07
-9.96148e-06 4.5078e-05 2.64121e-06
-5.42765e-07 2.64121e-06 -2.35239e-05
0.000867988 3.04549e-05 2.49078e-07
3.04549e-05 0.000101518 -5.16964e-07
2.49078e-07 -5.16964e-07 1.98902e-05
0.000907188 -1.09736e-05 -1.10347e-07
-1.09736e-05 0.000102685 4.02941e-07
-1.10347e-07 4.02941e-07 3.03247e-05
0.000898556 -3.29067e-05 2.89427e-08
-3.29067e-05 0.000106051 3.33693e-07
2.89427e-08 3.33693e-07 2.44285e-05
0.000633232 6.86051e-06 6.4412e-08
6.86051e-06 -4.38642e-05 -5.39243e-07
6.4412e-08 -5.39243e-07 -0.000105143
0.00073969 -1.88117e-05 1.81461e-06
-1.88117e-05 3.39415e-05 -4.99511e-06
1.81461e-06 -4.99511e-06 -1.59937e-05
0.000900579 -2.83498e-05 2.92339e-08
-2.83498e-05 9.60041e-05 -3.26853e-06
2.92339e-08 -3.26853e-06 2.26506e-05
0.000924506 2.59044e-06 9.75485e-08
2.59044e-06 0.000129984 -1.13293e-06
9.75485e-08 -1.13293e-06 3.96065e-05
0.000876308 -3.82217e-05 5.62464e-08
-3.82217e-05 0.000108534 -1.56842e-07
5.62464e-08 -1.56842e-07 2.73638e-05
0.000894709 1.07565e-05 -4.065e-07
1.07565e-05 0.000105279 8.28455e-07
-4.065e-07 8.28455e-07 3.22492e-05
0.000863569 -1.42987e-05 3.22418e-07
-1.42987e-05 9.42134e-05 -3.28869e-07
3.22418e-07 -3.28869e-07 1.06271e-05
0.000815973 4.26338e-05 -6.65333e-08
4.26338e-05 7.05891e-05 2.52962e-08
-6.65333e-08 2.52962e-08 -3.62647e-06
0.000787582 8.80561e-06 -2.1935e-07
8.80561e-06 4.53434e-05 3.50761e-07
-2.1935e-07 3.50761e-07 -2.4499e-05
0.000760445 5.77919e-05 9.30107e-07
5.77919e-05 4.79898e-05 -2.98066e-07
9.30107e-07 -2.98066e-07 -2.67833e-05
0.000706071 2.44725e-05 -9.49196e-08
2.44725e-05 6.96588e-06 -2.07205e-06
-9.49196e-08 -2.07205e-06 -7.33588e-05
0.00076797 2.17375e-05 1.04113e-06
2.17375e-05 3.91352e-05 -1.32954e-06
1.04113e-06 -1.32954e-06 -2.88896e-05
0.000816855 2.50897e-05 2.67306e-06
2.50897e-05 7.76358e-05 -1.36428e-06
2.67306e-06 -1.36428e-06 -8.60218e-06
0.000451355 -3.09855e-05 5.63997e-07
-3.09855e-05 -8.08444e-05 -4.66209e-08
5.63997e-07 -4.66209e-08 -0.000206756
0.000479339 3.42393e-05 6.25061e-07
3.42393e-05 -8.84349e-05 2.47415e-08
6.25061e-07 2.47415e-08 -0.000177456
0.00077811 4.46702e-05 4.63377e-07
4.46702e-05 6.70068e-05 4.97995e-07
4.63377e-07 4.97995e-07 -1.28899e-05
0.000742432 4.58065e-05 5.31525e-07
4.58065e-05 3.92457e-05 3.13887e-07
5.31525e-07 3.13887e-07 -3.01594e-05
0.000781869 1.23472e-05 -2.30259e-07
1.23472e-05 5.90258e-05 -5.38808e-08
-2.30259e-07 -5.38808e-08 -1.01638e-05
0.000743805 2.74103e-05 -7.01446e-07
2.74103e-05 2.25832e-05 1.85417e-07
-7.01446e-07 1.85417e-07 -3.26543e-05
0.000801805 9.96711e-06 5.20213e-07
9.96711e-06 6.7288e-05 5.08769e-07
5.20213e-07 5.08769e-07 -3.29882e-06
0.00077596 -5.74704e-06 -1.65047e-07
-5.74704e-06 3.90858e-05 1.21996e-08
-1.65047e-07 1.21996e-08 -1.75081e-05
0.000738831 2.25382e-05 -1.04517e-06
2.25382e-05 5.26596e-06 1.49518e-06
-1.04517e-06 1.49518e-06 -3.18726e-05
0.000691446 -2.24605e-05 8.36476e-07
-2.24605e-05 -1.00469e-05 -2.11759e-07
8.36476e-07 -2.11759e-07 -6.82184e-05
0.000739234 1.17851e-05 -8.09785e-08
1.17851e-05 4.23087e-06 1.89326e-09
-8.09785e-08 1.89326e-09 -3.28276e-05
0.00134523 2.31947e-05 -4.93731e-06
2.31947e-05 0.000337293 4.6704e-06
-4.93731e-06 4.6704e-06 0.000332736
0.000730036 5.12804e-07 8.00397e-07
5.12804e-07 -1.98829e-07 -1.38932e-06
8.00397e-07 -1.38932e-06 -3.7346e-05
0.00102041 1.52829e-05 -2.32598e-06
1.52829e-05 0.000151677 6.94069e-07
-2.32598e-06 6.94069e-07 0.00014594
0.000857987 1.25205e-05 -5.37584e-07
1.25205e-05 6.20312e-05 1.69556e-06
-5.37584e-07 1.69556e-06 7.47465e-05
0.000685014 7.50914e-06 2.78557e-07
7.50914e-06 -3.9287e-05 -3.31785e-06
2.78557e-07 -3.31785e-06 -4.62636e-05
0.00219739 9.52299e-06 2.69141e-06
9.52299e-06 0.000813774 2.55667e-08
2.69141e-06 2.55667e-08 0.000833438
0.00219615 8.39177e-07 5.47894e-07
8.39177e-07 0.000812351 -4.59274e-06
5.47894e-07 -4.59274e-06 0.000832197
0.00105104 4.96055e-05 -1.19781e-06
4.96055e-05 0.000203558 -7.89524e-07
-1.19781e-06 -7.89524e-07 0.000145549
0.000750018 -8.42878e-08 -3.56938e-07
-8.42878e-08 1.25042e-05 -1.81613e-06
-3.56938e-07 -1.81613e-06 -1.9742e-05
0.000760714 3.91472e-06 6.71603e-07
3.91472e-06 4.61406e-05 6.14329e-07
6.71603e-07 6.14329e-07 -1.35191e-05
0.000697017 -3.94569e-07 -1.41277e-07
-3.94569e-07 -3.41441e-05 -3.42753e-06
-1.41277e-07 -3.42753e-06 -3.73509e-05
0.000742196 1.06423e-06 1.71785e-07
1.06423e-06 8.65572e-06 -1.45878e-08
1.71785e-07 -1.45878e-08 -2.29172e-05
0.000738797 1.60312e-06 -3.32015e-07
1.60312e-06 7.23391e-06 1.75195e-06
-3.32015e-07 1.75195e-06 -2.48702e-05
0.000698932 6.24696e-06 -1.51553e-07
6.24696e-06 -3.23962e-05 2.75626e-09
-1.51553e-07 2.75626e-09 -3.60309e-05
0.00207171 8.60002e-06 3.98524e-06
8.60002e-06 0.000743219 -4.52603e-06
3.98524e-06 -4.52603e-06 0.000764316
0.00128239 1.6881e-05 -6.64661e-07
1.6881e-05 0.000297373 2.07201e-06
-6.64661e-07 2.07201e-06 0.000295885
0.0014877 1.60522e-05 2.21241e-06
1.60522e-05 0.000416916 6.53526e-08
2.21241e-06 6.53526e-08 0.000433938
0.000949437 1.92246e-05 -1.4712e-05
1.92246e-05 0.000118238 7.09783e-06
-1.4712e-05 7.09783e-06 0.000130871
-0.00614069 0.000132575 7.48835e-05
0.000132575 -0.00297845 -2.54604e-06
7.48835e-05 -2.54604e-06 -0.00320987
-0.00144588 0.000225597 4.52852e-05
0.000225597 -0.000134548 1.9685e-05
4.52852e-05 1.9685e-05 -0.000391317
0.00344939 4.09234e-05 -0.000147478
4.09234e-05 0.000675235 1.40929e-06
-0.000147478 1.40929e-06 0.000330497
0.00173419 -4.01592e-06 2.7535e-05
-4.01592e-06 -8.96299e-06 3.44048e-06
2.7535e-05 3.44048e-06 -5.27775e-05
0.00158574 -2.01538e-05 7.63737e-06
-2.01538e-05 -0.000162254 1.00169e-06
7.63737e-06 1.00169e-06 -0.000196529
0.00105252 4.22825e-06 2.54266e-05
4.22825e-06 -0.000383072 -1.11868e-06
2.54266e-05 -1.11868e-06 -0.000543695
0.00214639 -4.30726e-05 1.65222e-07
-4.30726e-05 0.000165104 1.16909e-06
1.65222e-07 1.16909e-06 0.000119978
0.0062156 0.000191037 -8.73186e-06
0.000191037 0.00149214 -1.86656e-05
-8.73186e-06 -1.86656e-05 0.000664281
-0.00366235 0.000312354 -2.4392e-05
0.000312354 -0.00142434 -8.32766e-07
-2.4392e-05 -8.32766e-07 -0.00172541
-0.00118566 0.000777172 -2.09804e-05
0.000777172 -0.00117845 7.69434e-06
-2.09804e-05 7.69434e-06 0.000243825
0.00207704 -0.000130305 6.52276e-05
-0.000130305 7.40496e-05 9.39173e-06
6.52276e-05 9.39173e-06 -0.000179944
0.00724846 0.000236296 2.13132e-05
0.000236296 0.0023143 -5.4815e-06
2.13132e-05 -5.4815e-06 0.00110288
0.000190579 0.000620489 2.44895e-06
0.000620489 -0.000464987 -5.15225e-05
2.44895e-06 -5.15225e-05 5.58696e-05
0.00389117 0.000564682 -7.02827e-05
0.000564682 -3.86201e-05 5.13372e-05
-7.02827e-05 5.13372e-05 0.000847458
0.000774291 5.63836e-05 -6.42163e-07
5.63836e-05 7.13031e-05 -2.32056e-07
-6.42163e-07 -2.32056e-07 -2.28185e-05
0.000678441 6.707e-06 -2.13042e-07
6.707e-06 5.1827e-06 -4.41616e-07
-2.13042e-07 -4.41616e-07 -6.64089e-05
0.000767705 -6.24785e-05 -8.61955e-07
-6.24785e-05 5.1231e-05 1.11227e-06
-8.61955e-07 1.11227e-06 -8.6757e-06
0.000683818 -6.85345e-07 1.58957e-07
-6.85345e-07 1.50347e-05 6.74124e-07
1.58957e-07 6.74124e-07 -6.28867e-05
0.00077986 5.17845e-05 7.91547e-07
5.17845e-05 7.95694e-05 1.0307e-06
7.91547e-07 1.0307e-06 -1.03329e-05
0.000880595 5.13055e-05 -5.40344e-07
5.13055e-05 0.000123783 2.16193e-07
-5.40344e-07 2.16193e-07 3.31483e-05
0.000841159 6.58274e-05 1.49771e-06
6.58274e-05 0.000102653 1.23217e-06
1.49771e-06 1.23217e-06 1.54235e-05
0.00076198 -1.18642e-05 8.88797e-07
-1.18642e-05 4.87511e-05 1.08247e-08
8.88797e-07 1.08247e-08 -2.93694e-05
0.000755522 -2.16469e-05 4.01889e-07
-2.16469e-05 5.34792e-05 -6.88355e-07
4.01889e-07 -6.88355e-07 -2.48206e-05
0.00066931 -1.50985e-05 7.82143e-08
-1.50985e-05 -2.13704e-07 9.36434e-07
7.82143e-08 9.36434e-07 -7.18702e-05
0.00077669 -9.17937e-05 3.24968e-06
-9.17937e-05 -0.000578777 -3.96638e-06
3.24968e-06 -3.96638e-06 -0.00062332
0.00161121 -0.000234006 6.97564e-06
-0.000234006 -0.00012001 7.92224e-07
6.97564e-06 7.92224e-07 -0.000164309
8.19068e-05 -0.000206876 6.28744e-06
-0.000206876 -0.000714176 3.24257e-06
6.28744e-06 3.24257e-06 -0.000826434
0.00162733 -0.00026171 1.80484e-06
-0.00026171 0.000449773 7.60326e-07
1.80484e-06 7.60326e-07 0.000238827
0.00132691 -7.81951e-05 1.11262e-06
-7.81951e-05 0.000419657 -8.67518e-07
1.11262e-06 -8.67518e-07 0.000230399
0.00105658 -5.01379e-05 -4.13579e-07
-5.01379e-05 0.000239586 -3.39407e-07
-4.13579e-07 -3.39407e-07 0.000123004
0.000887171 -2.87692e-05 -9.42807e-07
-2.87692e-05 0.000130161 -2.00829e-08
-9.42807e-07 -2.00829e-08 3.68764e-05
0.000803572 3.95994e-05 -1.12541e-06
3.95994e-05 9.057e-05 5.68536e-07
-1.12541e-06 5.68536e-07 -3.81412e-06
0.00180011 -0.000146665 -3.03521e-06
-0.000146665 0.000108538 1.71236e-06
-3.03521e-06 1.71236e-06 3.88765e-05
0.000709296 -3.49985e-05 -6.65744e-08
-3.49985e-05 3.5649e-05 5.77048e-08
-6.65744e-08 5.77048e-08 -6.46383e-05
0.000799743 -3.66228e-05 4.34304e-07
-3.66228e-05 8.81256e-05 -3.90156e-07
4.34304e-07 -3.90156e-07 -1.6009e-05
0.00193811 -0.000295154 4.02814e-06
-0.000295154 0.000110261 -2.20178e-06
4.02814e-06 -2.20178e-06 9.50141e-05
0.000218832 -0.000228797 1.49886e-06
-0.000228797 -0.000449394 1.32222e-06
1.49886e-06 1.32222e-06 -0.000590809
0.00113306 -0.000156839 2.92699e-06
-0.000156839 0.000242518 -1.69238e-06
2.92699e-06 -1.69238e-06 3.24446e-05
0.000997868 -4.62959e-05 -5.7122e-07
-4.62959e-05 0.000223296 -7.80202e-07
-5.7122e-07 -7.80202e-07 7.53756e-05
0.00158654 -0.000222972 1.3335e-06
-0.000222972 0.000306659 -5.06713e-06
1.3335e-06 -5.06713e-06 9.08521e-05
0.00162919 -0.000252778 -1.74093e-05
-0.000252778 0.000281435 2.29175e-06
-1.74093e-05 2.29175e-06 0.000214483
0.000423932 -2.99975e-05 -1.25718e-05
-2.99975e-05 -6.00304e-05 1.35532e-05
-1.25718e-05 1.35532e-05 -0.000245988
0.000778086 3.03762e-05 5.92357e-07
3.03762e-05 6.88894e-05 8.22029e-07
5.92357e-07 8.22029e-07 -2.91792e-05
0.000630939 -7.75957e-05 1.13449e-06
-7.75957e-05 -9.63604e-06 7.78294e-08
1.13449e-06 7.78294e-08 -0.000114281
0.000823761 -2.39452e-05 6.87564e-07
-2.39452e-05 9.11516e-05 1.61181e-06
6.87564e-07 1.61181e-06 -1.38945e-05
0.000893821 1.91173e-05 -9.21368e-05
1.91173e-05 0.00164407 -1.35137e-06
-9.21368e-05 -1.35137e-06 0.00113902
0.00190972 -0.000113778 1.39047e-05
-0.000113778 0.00127848 6.96052e-06
1.39047e-05 6.96052e-06 0.0011278
-6.8847e-05 0.000287578 -5.47216e-05
0.000287578 -0.00194649 2.20452e-05
-5.47216e-05 2.20452e-05 -0.00252353
0.000781811 0.000101141 3.98745e-06
0.000101141 0.000109513 2.0145e-06
3.98745e-06 2.0145e-06 2.18254e-07
0.000752634 0.000135245 7.56405e-06
0.000135245 0.000114218 3.11218e-06
7.56405e-06 3.11218e-06 -5.61081e-05
0.00264497 0.00024646 1.25321e-05
0.00024646 0.000490133 4.13102e-06
1.25321e-05 4.13102e-06 0.000533028
0.000513971 0.00017939 1.27341e-05
0.00017939 -0.000189069 5.97698e-06
1.27341e-05 5.97698e-06 -0.000407113
0.00432706 -0.000345847 4.09327e-05
-0.000345847 0.00185447 1.79624e-05
4.09327e-05 1.79624e-05 0.00191499
-0.000428967 -0.000133273 -3.09716e-05
-0.000133273 -0.0015517 3.19077e-06
-3.09716e-05 3.19077e-06 -0.00281417
0.00352517 0.000530153 -7.4951e-05
0.000530153 -8.56919e-07 -4.00889e-05
-7.4951e-05 -4.00889e-05 -0.000844013
0.000375747 0.000104478 2.61635e-05
0.000104478 -0.000312879 -1.65143e-05
2.61635e-05 -1.65143e-05 -0.000272677
-0.00338661 -0.000395625 6.90088e-06
-0.000395625 -0.00147225 -1.03887e-05
6.90088e-06 -1.03887e-05 -0.00155793
0.00077636 -0.000354983 1.85242e-05
-0.000354983 0.000551945 2.41686e-05
1.85242e-05 2.41686e-05 0.000282806
0.00486103 -0.000643511 8.0886e-05
-0.000643511 0.000117666 6.47347e-05
8.0886e-05 6.47347e-05 0.00143785
0.000814498 7.60727e-05 1.76532e-06
7.60727e-05 0.000155522 -1.76797e-06
1.76532e-06 -1.76797e-06 5.63501e-05
-0.000371671 -0.000120184 -3.18421e-05
-0.000120184 0.000716212 -1.11579e-05
-3.18421e-05 -1.11579e-05 0.000121294
0.00227246 1.6767e-05 -2.91574e-06
1.6767e-05 0.000502488 -1.85243e-05
-2.91574e-06 -1.85243e-05 -0.000300194
0.000776757 0.000190896 -7.36899e-06
0.000190896 -8.52969e-05 2.67871e-06
-7.36899e-06 2.67871e-06 -0.000130593
0.000677994 0.00013957 -5.50393e-07
0.00013957 0.000153291 1.09445e-06
-5.50393e-07 1.09445e-06 -3.52257e-05
0.000268151 0.000150313 3.10802e-05
0.000150313 -0.000153008 -1.95996e-05
3.10802e-05 -1.95996e-05 -0.000261512
0.00565283 0.000824942 -1.85655e-05
0.000824942 0.00152156 -1.57578e-08
-1.85655e-05 -1.57578e-08 0.000792334
0.00850233 -0.000179948 3.8746e-05
-0.000179948 0.00323472 1.17645e-05
3.8746e-05 1.17645e-05 0.0016689
0.0018702 -0.000507872 1.74649e-06
-0.000507872 -0.000996081 -8.1675e-06
1.74649e-06 -8.1675e-06 -0.000728764
0.00573172 -0.000409092 5.3651e-06
-0.000409092 0.00053716 -9.29832e-06
5.3651e-06 -9.29832e-06 0.00167733
0.000781064 0.000106058 -1.34433e-05
0.000106058 0.000187783 -9.9873e-06
-1.34433e-05 -9.9873e-06 0.000113748
0.00179949 -4.91209e-05 -6.27337e-05
-4.91209e-05 0.000255507 -2.81969e-05
-6.27337e-05 -2.81969e-05 -0.000291449
0.00135554 1.5907e-05 -1.59532e-05
1.5907e-05 0.000206919 -4.75919e-05
-1.59532e-05 -4.75919e-05 -0.00048047
-0.000952257 -5.83243e-06 -2.41727e-05
-5.83243e-06 -0.000536218 -1.56484e-05
-2.41727e-05 -1.56484e-05 -0.000650439
0.00272389 0.000340566 -3.92746e-06
0.000340566 0.000700644 5.51742e-05
-3.92746e-06 5.51742e-05 0.000220902
0.00813779 1.27198e-05 2.14593e-05
1.27198e-05 0.0029497 4.62144e-06
2.14593e-05 4.62144e-06 0.00111714
-0.00591915 -0.000473084 -5.36824e-05
-0.000473084 -0.00391846 1.25936e-05
-5.36824e-05 1.25936e-05 -0.00476665
0.00496355 0.000101468 -2.92356e-06
0.000101468 -0.000373488 -6.94789e-05
-2.92356e-06 -6.94789e-05 0.000964652
0.00103717 6.27703e-05 2.60981e-06
6.27703e-05 0.000206684 5.74045e-06
2.60981e-06 5.74045e-06 0.000134486
0.000849084 7.27834e-05 -2.95786e-06
7.27834e-05 0.000106204 -5.53227e-07
-2.95786e-06 -5.53227e-07 5.82047e-05
0.000879726 5.81003e-05 -1.57047e-06
5.81003e-05 0.000149686 -5.83297e-06
-1.57047e-06 -5.83297e-06 0.000110954
0.00088093 6.63555e-05 -1.41345e-06
6.63555e-05 0.000102345 -3.58127e-07
-1.41345e-06 -3.58127e-07 2.48037e-05
0.000921008 -2.99058e-05 -1.92269e-07
-2.99058e-05 0.000123806 1.33264e-06
-1.92269e-07 1.33264e-06 3.85232e-05
0.000953834 -1.637e-06 -6.2448e-07
-1.637e-06 0.00012902 1.78671e-06
-6.2448e-07 1.78671e-06 5.62714e-05
0.000553843 -4.24812e-06 -4.79705e-07
-4.24812e-06 -8.15963e-05 3.94324e-06
-4.79705e-07 3.94324e-06 -0.000141005
0.000891199 8.66768e-06 5.06346e-07
8.66768e-06 0.000102425 3.46013e-08
5.06346e-07 3.46013e-08 1.87696e-05
0.000870907 -1.10963e-05 -1.92889e-07
-1.10963e-05 8.07805e-05 -2.34423e-07
-1.92889e-07 -2.34423e-07 6.93934e-06
0.000642379 -1.57715e-05 1.61144e-07
-1.57715e-05 -1.64663e-05 9.98049e-07
1.61144e-07 9.98049e-07 -6.64273e-05
0.00054731 -2.24729e-05 -3.51075e-07
-2.24729e-05 -1.61436e-05 -4.54115e-06
-3.51075e-07 -4.54115e-06 -4.89029e-05
0.000996398 -2.47133e-05 3.4759e-06
-2.47133e-05 0.000161619 -6.00628e-06
3.4759e-06 -6.00628e-06 0.000105733
0.000810187 3.50076e-05 4.59081e-07
3.50076e-05 5.73257e-05 -2.25373e-06
4.59081e-07 -2.25373e-06 -2.49355e-05
0.000880083 -4.76435e-05 9.73649e-07
-4.76435e-05 9.68257e-05 6.70839e-07
9.73649e-07 6.70839e-07 1.71445e-05
0.000795576 4.65857e-05 -2.02428e-07
4.65857e-05 5.80344e-05 6.84187e-07
-2.02428e-07 6.84187e-07 -1.55692e-05
0.000844754 2.06026e-06 -7.67921e-07
2.06026e-06 7.76427e-05 1.80127e-06
-7.67921e-07 1.80127e-06 8.23295e-06
0.000755177 1.87682e-05 3.08536e-07
1.87682e-05 2.95172e-05 3.08088e-07
3.08536e-07 3.08088e-07 -4.71949e-05
0.000784602 5.35566e-05 2.105e-07
5.35566e-05 6.15487e-05 2.38238e-07
2.105e-07 2.38238e-07 -1.35268e-05
0.000835221 3.53086e-05 -2.62038e-07
3.53086e-05 7.67649e-05 6.10505e-08
-2.62038e-07 6.10505e-08 7.83622e-06
0.000860052 4.01649e-05 1.66964e-06
4.01649e-05 9.51089e-05 -9.90306e-07
1.66964e-06 -9.90306e-07 2.1542e-05
0.000708079 1.7359e-05 1.57589e-06
1.7359e-05 1.79378e-05 -2.36649e-06
1.57589e-06 -2.36649e-06 -4.62959e-05
0.000678564 -5.80147e-05 1.53173e-06
-5.80147e-05 6.63929e-06 -6.39964e-07
1.53173e-06 -6.39964e-07 -8.41273e-05
0.000898592 9.84359e-06 -9.86399e-07
9.84359e-06 0.000125185 -2.01163e-07
-9.86399e-07 -2.01163e-07 3.75797e-05
0.00064277 -4.36583e-05 2.00865e-06
-4.36583e-05 1.51336e-05 1.31176e-06
2.00865e-06 1.31176e-06 -0.000100364
0.00102663 -0.000148044 -1.23843e-06
-0.000148044 0.000205525 3.2921e-06
-1.23843e-06 3.2921e-06 4.9275e-05
0.00113141 -3.35654e-05 1.27701e-06
-3.35654e-05 0.000276709 -6.05761e-07
1.27701e-06 -6.05761e-07 0.000172989
0.000585098 -4.84555e-05 -2.70263e-07
-4.84555e-05 -3.3144e-06 -2.70333e-06
-2.70263e-07 -2.70333e-06 -0.000127604
0.000748284 3.48264e-05 -6.08764e-07
3.48264e-05 5.76944e-05 -5.71107e-07
-6.08764e-07 -5.71107e-07 -2.95031e-05
0.000528351 3.8277e-05 1.04151e-06
3.8277e-05 -7.34365e-05 6.11999e-07
1.04151e-06 6.11999e-07 -0.000150022
0.000833598 3.32188e-05 -6.86503e-07
3.32188e-05 9.63079e-05 1.86848e-07
-6.86503e-07 1.86848e-07 1.69387e-05
0.000792181 1.17394e-05 -3.26609e-07
1.17394e-05 6.81034e-05 3.53093e-07
-3.26609e-07 3.53093e-07 -2.84991e-06
0.000732759 3.58825e-05 -6.74966e-07
3.58825e-05 1.86801e-05 3.45093e-07
-6.74966e-07 3.45093e-07 -3.71856e-05
0.000820208 -1.60073e-05 3.22772e-07
-1.60073e-05 8.53949e-05 2.40568e-07
3.22772e-07 2.40568e-07 1.22541e-05
0.000769621 -3.27113e-06 -4.29166e-07
-3.27113e-06 3.8342e-05 3.20877e-08
-4.29166e-07 3.20877e-08 -1.82231e-05
0.00073357 2.89539e-05 -1.28768e-06
2.89539e-05 5.55286e-06 1.47345e-06
-1.28768e-06 1.47345e-06 -3.19659e-05
0.000801091 -3.03857e-05 1.2846e-06
-3.03857e-05 5.50707e-05 -2.00142e-07
1.2846e-06 -2.00142e-07 -2.9995e-06
0.000743542 1.81784e-05 -1.57854e-07
1.81784e-05 7.25663e-06 4.29121e-09
-1.57854e-07 4.29121e-09 -2.96493e-05
0.0013321 3.10988e-05 -6.82201e-06
3.10988e-05 0.000333899 4.59508e-06
-6.82201e-06 4.59508e-06 0.000328795
0.000737217 7.36291e-06 1.17258e-06
7.36291e-06 2.67334e-06 -1.4113e-06
1.17258e-06 -1.4113e-06 -3.42114e-05
0.00101314 2.23803e-05 -3.12733e-06
2.23803e-05 0.000150596 6.62585e-07
-3.12733e-06 6.62585e-07 0.000144454
0.00085736 1.93096e-05 -1.02684e-06
1.93096e-05 6.58711e-05 1.70008e-06
-1.02684e-06 1.70008e-06 7.78278e-05
0.000676433 1.37045e-05 4.34537e-07
1.37045e-05 -4.22236e-05 -3.33807e-06
4.34537e-07 -3.33807e-06 -4.95215e-05
0.0015279 1.70777e-05 4.92888e-06
1.70777e-05 0.000438972 -1.35817e-06
4.92888e-06 -1.35817e-06 0.000454928
0.00220608 1.10031e-05 4.85033e-06
1.10031e-05 0.00081903 -4.52297e-06
4.85033e-06 -4.52297e-06 0.000838574
0.00083131 -1.79226e-05 5.84727e-07
-1.79226e-05 7.63297e-05 -6.6874e-07
5.84727e-07 -6.6874e-07 1.71986e-05
0.000754353 -4.7717e-06 -2.30238e-07
-4.7717e-06 1.48917e-05 -1.82952e-06
-2.30238e-07 -1.82952e-06 -1.85926e-05
0.000819811 -2.62844e-06 4.57909e-07
-2.62844e-06 7.41428e-05 1.40495e-07
4.57909e-07 1.40495e-07 1.58901e-05
0.000698884 -6.70813e-06 -3.06225e-07
-6.70813e-06 -3.25586e-05 -3.43738e-06
-3.06225e-07 -3.43738e-06 -3.61472e-05
0.000744259 -1.46244e-06 -6.07557e-08
-1.46244e-06 9.37306e-06 -2.21843e-08
-6.07557e-08 -2.21843e-08 -2.2812e-05
0.000758776 -4.70482e-05 -1.75973e-06
-4.70482e-05 4.09067e-05 1.60175e-06
-1.75973e-06 1.60175e-06 -1.57319e-05
0.00206922 -1.12296e-06 -2.89527e-07
-1.12296e-06 0.000741295 -4.53606e-06
-2.89527e-07 -4.53606e-06 0.000762573
0.000699505 -1.22313e-07 -9.59112e-08
-1.22313e-07 -3.2777e-05 -1.23046e-09
-9.59112e-08 -1.23046e-09 -3.59839e-05
0.000736244 -2.26972e-06 -1.02994e-08
-2.26972e-06 5.25567e-06 1.74537e-06
-1.02994e-08 1.74537e-06 -2.62724e-05
0.000702025 6.50745e-06 -3.92914e-08
6.50745e-06 -3.07493e-05 3.42498e-06
-3.92914e-08 3.42498e-06 -3.44105e-05
0.00207617 9.43662e-06 -2.80544e-06
9.43662e-06 0.000745924 -2.62012e-08
-2.80544e-06 -2.62012e-08 0.000766948
0.0021027 1.85975e-05 -1.10619e-05
1.85975e-05 0.000762906 4.40604e-06
-1.10619e-05 4.40604e-06 0.000783245
-0.00188747 2.87047e-05 -4.21689e-05
2.87047e-05 4.81571e-05 8.70124e-06
-4.21689e-05 8.70124e-06 -0.000653444
-0.000968781 0.000277556 -1.16778e-05
0.000277556 -0.000365084 5.23513e-06
-1.16778e-05 5.23513e-06 -0.000547342
0.00242204 9.22371e-06 -9.14535e-05
9.22371e-06 0.000358281 6.978e-05
-9.14535e-05 6.978e-05 -0.000340613
-0.00190679 0.000256388 9.01281e-05
0.000256388 -0.000160597 -3.74209e-05
9.01281e-05 -3.74209e-05 -0.000330965
0.0027356 0.000115844 -9.61556e-05
0.000115844 0.000350148 1.54756e-05
-9.61556e-05 1.54756e-05 6.42697e-05
0.00200805 -6.15037e-05 6.13301e-05
-6.15037e-05 9.54975e-05 -9.84494e-06
6.13301e-05 -9.84494e-06 4.67719e-05
0.00159614 -0.000320664 -8.80045e-05
-0.000320664 -0.000817037 -3.56458e-05
-8.80045e-05 -3.56458e-05 -0.00154512
0.00810165 0.000509558 3.62814e-05
0.000509558 0.00401823 -1.70693e-05
3.62814e-05 -1.70693e-05 0.00396698
-0.00447509 0.000847046 -7.83033e-05
0.000847046 -0.00322307 8.70326e-05
-7.83033e-05 8.70326e-05 -0.00135407
0.00153178 -1.5111e-05 -5.67456e-06
-1.5111e-05 -0.000334215 -4.93312e-06
-5.67456e-06 -4.93312e-06 -0.000577348
0.00266102 9.14492e-05 1.85713e-05
9.14492e-05 0.000166155 -2.34285e-05
1.85713e-05 -2.34285e-05 -0.00150159
0.00595012 0.00090959 -1.97934e-05
0.00090959 0.00192175 -2.62946e-05
-1.97934e-05 -2.62946e-05 0.00243907
0.00175365 0.000550972 -1.867e-05
0.000550972 -0.00133003 4.0431e-05
-1.867e-05 4.0431e-05 -0.000365465
0.00309581 -0.000238265 -3.59528e-05
-0.000238265 0.00029306 1.24635e-05
-3.59528e-05 1.24635e-05 -0.000140276
0.00407747 1.09469e-05 9.90352e-05
1.09469e-05 0.00135484 -6.33494e-05
9.90352e-05 -6.33494e-05 -0.000674338
-0.00551337 0.000252106 -6.88449e-05
0.000252106 -0.00438809 -6.86326e-05
-6.88449e-05 -6.86326e-05 -0.00409989
0.00135946 0.000342302 -2.24479e-05
0.000342302 -0.00252888 1.66021e-05
-2.24479e-05 1.66021e-05 -0.00134347
0.00085681 -1.76775e-05 1.06561e-06
-1.76775e-05 0.00011436 3.27348e-07
1.06561e-06 3.27348e-07 1.59124e-05
0.000834511 4.36145e-05 -1.65965e-06
4.36145e-05 0.000104175 -4.9247e-07
-1.65965e-06 -4.9247e-07 1.21286e-05
0.000788953 2.62412e-05 6.16335e-07
2.62412e-05 6.73982e-05 -6.00485e-08
6.16335e-07 -6.00485e-08 -3.7198e-06
0.000821963 5.9423e-05 1.84379e-06
5.9423e-05 0.000103335 1.47424e-06
1.84379e-06 1.47424e-06 1.41046e-05
0.000755836 2.09105e-05 -2.22862e-07
2.09105e-05 5.42027e-05 5.76161e-07
-2.22862e-07 5.76161e-07 -4.3846e-05
0.000902301 5.33859e-05 2.22143e-07
5.33859e-05 0.000137328 6.40613e-07
2.22143e-07 6.40613e-07 4.64083e-05
0.000779219 8.27613e-06 -1.85684e-07
8.27613e-06 6.51247e-05 1.68342e-06
-1.85684e-07 1.68342e-06 -1.97606e-05
0.000905007 8.15406e-05 -4.83852e-07
8.15406e-05 0.000139914 3.81253e-07
-4.83852e-07 3.81253e-07 5.02663e-05
0.000879176 4.03689e-05 -2.23485e-07
4.03689e-05 0.00012519 3.66428e-07
-2.23485e-07 3.66428e-07 3.95704e-05
0.000694899 -1.37151e-05 -1.05871e-06
-1.37151e-05 2.22501e-05 -7.12748e-08
-1.05871e-06 -7.12748e-08 -5.87631e-05
-7.9384e-07 -0.000109201 1.56981e-05
-0.000109201 -0.000854915 -1.0274e-05
1.56981e-05 -1.0274e-05 -0.000895304
0.00109156 -0.000268066 1.31058e-05
-0.000268066 -0.000320943 -1.27773e-07
1.31058e-05 -1.27773e-07 -0.000350153
0.000908937 -0.000266467 9.51837e-06
-0.000266467 -7.10582e-05 1.26756e-06
9.51837e-06 1.26756e-06 -0.00021343
0.00118679 -0.000157035 6.56291e-06
-0.000157035 0.000262073 -3.9493e-06
6.56291e-06 -3.9493e-06 5.20712e-05
0.00123841 -4.97634e-05 9.02682e-07
-4.97634e-05 0.000359896 -8.55515e-07
9.02682e-07 -8.55515e-07 0.000201186
0.000755522 -4.69278e-05 -7.48791e-07
-4.69278e-05 6.79742e-05 -5.2861e-07
-7.48791e-07 -5.2861e-07 -4.03447e-05
0.000783283 5.69829e-05 -1.72342e-07
5.69829e-05 7.90587e-05 -9.97724e-08
-1.72342e-07 -9.97724e-08 -2.42286e-05
0.00080092 -3.65553e-05 -2.14878e-07
-3.65553e-05 8.55907e-05 5.46331e-07
-2.14878e-07 5.46331e-07 -1.49074e-05
0.00123031 -0.000179805 1.34198e-06
-0.000179805 9.48285e-05 -3.95806e-07
1.34198e-06 -3.95806e-07 -4.7224e-05
0.000834352 5.39381e-06 -4.17797e-07
5.39381e-06 0.000107192 -3.81186e-07
-4.17797e-07 -3.81186e-07 -1.35718e-06
0.0010002 -4.1042e-05 2.50101e-07
-4.1042e-05 0.000195298 1.32828e-07
2.50101e-07 1.32828e-07 8.29698e-05
0.001396 -0.000241271 -1.4912e-06
-0.000241271 0.000147129 6.32828e-08
-1.4912e-06 6.32828e-08 9.40714e-05
0.00100635 -5.47974e-05 -5.14319e-06
-5.47974e-05 0.000223369 2.5247e-06
-5.14319e-06 2.5247e-06 4.62147e-05
-0.00060802 -0.000212225 -1.82565e-06
-0.000212225 -0.00090547 -1.18391e-05
-1.82565e-06 -1.18391e-05 -0.000924857
0.0012329 -9.19637e-05 -1.50552e-05
-9.19637e-05 0.00039335 1.14947e-05
-1.50552e-05 1.14947e-05 0.000282141
0.000405668 1.48563e-05 -2.60295e-06
1.48563e-05 -0.00013913 1.06707e-05
-2.60295e-06 1.06707e-05 -0.000242746
0.000819339 -2.98393e-06 4.05334e-07
-2.98393e-06 7.8917e-05 4.03886e-07
4.05334e-07 4.03886e-07 -1.71269e-05
0.000762085 2.01701e-05 -9.47891e-08
2.01701e-05 5.78192e-05 7.48148e-07
-9.47891e-08 7.48148e-07 -5.51334e-05
0.00128851 -7.13693e-06 -2.87014e-05
-7.13693e-06 4.56143e-05 -4.59066e-06
-2.87014e-05 -4.59066e-06 -0.00040112
-0.000590448 -6.03278e-06 -4.39571e-05
-6.03278e-06 0.0009078 -1.61317e-06
-4.39571e-05 -1.61317e-06 0.000263677
-0.00646989 -0.000137915 -0.000131443
-0.000137915 -0.00322272 1.74834e-06
-0.000131443 1.74834e-06 -0.00323005
0.000610009 8.89721e-05 7.97449e-06
8.89721e-05 5.59293e-05 2.34399e-06
7.97449e-06 2.34399e-06 -5.01289e-05
-0.000259101 2.38093e-05 8.03343e-06
2.38093e-05 -0.000321068 3.20871e-06
8.03343e-06 3.20871e-06 -0.000516342
0.0012497 0.000147992 1.76353e-05
0.000147992 0.000192404 -7.9881e-07
1.76353e-05 -7.9881e-07 0.000124492
-0.00181471 -1.63308e-05 1.1672e-05
-1.63308e-05 4.10963e-05 7.39703e-06
1.1672e-05 7.39703e-06 -0.000691315
0.00324791 -0.000138586 -3.13413e-05
-0.000138586 0.00101353 -2.6746e-05
-3.13413e-05 -2.6746e-05 -0.00107884
0.00379618 0.000682388 4.81097e-05
0.000682388 0.000378649 -1.2049e-05
4.81097e-05 -1.2049e-05 -0.000150832
0.000625472 0.000166891 9.5792e-06
0.000166891 5.80409e-05 -3.98142e-06
9.5792e-06 -3.98142e-06 5.99231e-05
0.00690047 -0.000687977 3.06335e-05
-0.000687977 0.0019846 2.35239e-07
3.06335e-05 2.35239e-07 0.00202141
0.00252895 1.29296e-05 6.23441e-05
1.29296e-05 0.000687961 4.57049e-05
6.23441e-05 4.57049e-05 -0.000141207
0.00551801 -0.000365305 2.63656e-05
-0.000365305 0.000670625 1.20764e-05
2.63656e-05 1.20764e-05 0.001853
0.000905949 0.000113759 -2.69579e-08
0.000113759 0.000266508 -2.13915e-06
-2.69579e-08 -2.13915e-06 0.000189695
0.00181724 -4.19648e-05 4.02503e-06
-4.19648e-05 0.000356826 -7.57959e-06
4.02503e-06 -7.57959e-06 -0.000136444
0.00156797 2.52688e-05 3.98805e-06
2.52688e-05 0.000209921 8.43445e-06
3.98805e-06 8.43445e-06 -0.000491209
0.000145283 0.000102632 -5.31258e-06
0.000102632 2.89655e-05 -3.14851e-07
-5.31258e-06 -3.14851e-07 -0.000101938
0.00285165 0.00042956 -3.49966e-05
0.00042956 0.000539399 -3.22013e-05
-3.49966e-05 -3.22013e-05 0.00013984
0.00317069 0.000462999 4.36357e-05
0.000462999 0.000558137 2.59848e-05
4.36357e-05 2.59848e-05 -0.00155525
0.00368678 3.5325e-05 -1.80086e-06
3.5325e-05 -0.0015135 -3.71406e-05
-1.80086e-06 -3.71406e-05 9.35563e-05
0.000586828 -0.000277429 -1.3338e-05
-0.000277429 -0.000600859 9.38317e-06
-1.3338e-05 9.38317e-06 -0.000953509
0.000804781 5.39536e-05 -3.80061e-06
5.39536e-05 0.000303302 -1.03781e-05
-3.80061e-06 -1.03781e-05 0.000241265
0.00124349 -3.36631e-05 -1.39417e-05
-3.36631e-05 0.000130894 -1.93896e-05
-1.39417e-05 -1.93896e-05 -7.41081e-05
0.00185538 6.24454e-06 6.71727e-06
6.24454e-06 0.000101885 -4.49938e-05
6.71727e-06 -4.49938e-05 -0.000523099
0.00143566 0.000338807 1.97129e-05
0.000338807 -0.00242882 -1.9415e-05
1.97129e-05 -1.9415e-05 -0.00133612
-0.00146225 1.96489e-05 1.49149e-06
1.96489e-05 -0.000650054 -1.04479e-05
1.49149e-06 -1.04479e-05 -0.000953427
0.00975754 0.000342889 8.78456e-05
0.000342889 0.00389163 3.95434e-05
8.78456e-05 3.95434e-05 0.0018071
-0.00542344 -0.000139496 3.09172e-05
-0.000139496 -0.000982479 1.95345e-05
3.09172e-05 1.95345e-05 -0.0018091
0.00127241 0.000107998 9.83675e-06
0.000107998 0.000336376 8.32896e-06
9.83675e-06 8.32896e-06 0.000286344
0.000841226 7.62021e-05 -3.00122e-06
7.62021e-05 0.000130931 1.21404e-06
-3.00122e-06 1.21404e-06 8.81556e-05
0.000458047 4.23412e-05 -7.51293e-06
4.23412e-05 9.18037e-06 -7.51513e-06
-7.51293e-06 -7.51513e-06 -3.81676e-05
0.000862961 9.65192e-05 7.55877e-08
9.65192e-05 9.23008e-05 1.16747e-06
7.55877e-08 1.16747e-06 5.5571e-06
0.000839781 1.49757e-05 -3.76436e-07
1.49757e-05 6.22116e-05 2.22622e-06
-3.76436e-07 2.22622e-06 -1.03172e-05
0.000571335 -2.62731e-05 -2.51014e-06
-2.62731e-05 -5.21475e-05 9.33095e-06
-2.51014e-06 9.33095e-06 -0.000102221
0.000794804 3.87496e-05 -1.41007e-07
3.87496e-05 4.73423e-05 -1.29432e-07
-1.41007e-07 -1.29432e-07 -3.29751e-05
0.000827113 -3.35659e-05 4.41459e-07
-3.35659e-05 7.13884e-05 -1.13973e-06
4.41459e-07 -1.13973e-06 1.38738e-05
0.000665162 -4.49702e-05 3.44128e-06
-4.49702e-05 4.19251e-05 3.05551e-06
3.44128e-06 3.05551e-06 3.09986e-06
0.000497742 -3.75689e-06 -4.31732e-07
-3.75689e-06 -2.4424e-05 -6.4419e-06
-4.31732e-07 -6.4419e-06 -5.19468e-05
0.000815701 3.17165e-06 -5.34729e-07
3.17165e-06 7.53231e-05 -4.42662e-06
-5.34729e-07 -4.42662e-06 1.35157e-05
0.000804284 1.59523e-05 -1.01378e-07
1.59523e-05 5.11686e-05 2.10737e-06
-1.01378e-07 2.10737e-06 -2.13638e-05
0.000803295 5.24611e-05 -4.1376e-07
5.24611e-05 7.23776e-05 5.66114e-07
-4.1376e-07 5.66114e-07 -3.10002e-06
0.000905188 4.23911e-05 -1.73292e-06
4.23911e-05 0.000115299 2.21068e-06
-1.73292e-06 2.21068e-06 4.572e-05
0.000802466 1.81851e-05 5.26125e-07
1.81851e-05 6.64176e-05 1.6325e-08
5.26125e-07 1.6325e-08 1.85091e-06
0.000827519 4.07489e-05 6.93205e-07
4.07489e-05 7.69715e-05 2.13818e-07
6.93205e-07 2.13818e-07 3.82779e-06
0.000735894 -3.57684e-05 1.68354e-06
-3.57684e-05 6.99648e-05 2.05281e-07
1.68354e-06 2.05281e-07 -1.06375e-05
0.000677908 -3.29612e-05 -8.02437e-07
-3.29612e-05 1.68964e-05 -1.07024e-06
-8.02437e-07 -1.07024e-06 -6.70409e-05
0.000496397 -7.21648e-05 3.94456e-06
-7.21648e-05 -6.687e-05 5.28864e-07
3.94456e-06 5.28864e-07 -0.000208432
0.000991353 -6.26378e-06 -1.80666e-06
-6.26378e-06 0.000177581 3.11257e-07
-1.80666e-06 3.11257e-07 8.90388e-05
0.00100658 -7.03443e-05 -9.3373e-07
-7.03443e-05 0.000206077 9.90118e-07
-9.3373e-07 9.90118e-07 8.69725e-05
0.000450267 -0.000116029 3.34609e-07
-0.000116029 -0.000120553 1.96621e-06
3.34609e-07 1.96621e-06 -0.000281522
0.000731696 -0.000126513 -3.59557e-06
-0.000126513 3.80703e-05 -2.22398e-07
-3.59557e-06 -2.22398e-07 -0.000118944
0.000915632 -0.000104236 -1.03405e-06
-0.000104236 0.000166027 2.0279e-06
-1.03405e-06 2.0279e-06 4.30483e-05
0.000774712 -0.000128723 -8.42905e-08
-0.000128723 6.92359e-05 8.20816e-07
-8.42905e-08 8.20816e-07 -8.37642e-05
0.000848257 -8.21694e-06 9.36256e-07
-8.21694e-06 0.000105483 7.40431e-07
9.36256e-07 7.40431e-07 1.87575e-05
0.000960887 -3.17645e-05 -5.82304e-07
-3.17645e-05 0.000185195 -6.52362e-07
-5.82304e-07 -6.52362e-07 7.89092e-05
0.000702272 -6.3359e-05 4.44743e-07
-6.3359e-05 6.46205e-05 -4.761e-06
4.44743e-07 -4.761e-06 -5.77801e-05
0.00102107 3.67892e-05 -1.99267e-06
3.67892e-05 0.000206048 -1.14465e-06
-1.99267e-06 -1.14465e-06 0.000120591
0.000664906 2.8681e-05 1.482e-07
2.8681e-05 1.80424e-06 -2.92604e-08
1.482e-07 -2.92604e-08 -7.41168e-05
0.000732769 4.99149e-05 -2.41089e-09
4.99149e-05 2.46173e-05 6.30746e-07
-2.41089e-09 6.30746e-07 -3.61339e-05
0.000830576 -1.12275e-05 -2.02031e-07
-1.12275e-05 9.17264e-05 2.44373e-07
-2.02031e-07 2.44373e-07 1.85572e-05
0.000767306 9.04507e-06 -6.74681e-07
9.04507e-06 3.90118e-05 -9.7473e-08
-6.74681e-07 -9.7473e-08 -1.81362e-05
0.000729188 3.5206e-05 -1.50584e-06
3.5206e-05 7.78393e-06 1.43729e-06
-1.50584e-06 1.43729e-06 -3.06002e-05
0.000793833 -2.63981e-05 1.26843e-06
-2.63981e-05 5.28973e-05 -2.79066e-07
1.26843e-06 -2.79066e-07 -4.82614e-06
0.000738704 2.72096e-05 -1.42263e-07
2.72096e-05 7.67321e-06 9.22266e-09
-1.42263e-07 9.22266e-09 -2.96519e-05
0.00129608 3.89848e-05 -7.71572e-06
3.89848e-05 0.000319959 3.16559e-06
-7.71572e-06 3.16559e-06 0.000313888
0.000741388 1.45975e-05 1.34433e-06
1.45975e-05 5.39023e-06 -1.42381e-06
1.34433e-06 -1.42381e-06 -3.12835e-05
0.00100581 2.96085e-05 -3.87154e-06
2.96085e-05 0.000150723 6.03585e-07
-3.87154e-06 6.03585e-07 0.00014399
0.000847068 2.57932e-05 -1.55593e-06
2.57932e-05 6.55615e-05 1.68607e-06
-1.55593e-06 1.68607e-06 7.6587e-05
0.000671673 2.01745e-05 6.34905e-07
2.01745e-05 -4.18644e-05 -3.36096e-06
6.34905e-07 -3.36096e-06 -4.95558e-05
0.00151983 2.54086e-05 6.51265e-06
2.54086e-05 0.000438431 -1.26445e-06
6.51265e-06 -1.26445e-06 0.000453637
0.00220324 2.10651e-05 8.91068e-06
2.10651e-05 0.000820119 -4.39128e-06
8.91068e-06 -4.39128e-06 0.000839134
0.000604084 3.10878e-06 -2.96905e-07
3.10878e-06 -4.44616e-05 -1.21977e-06
-2.96905e-07 -1.21977e-06 -0.000113789
0.000495668 -1.04681e-05 -3.07243e-07
-1.04681e-05 -0.000127978 -2.45601e-06
-3.07243e-07 -2.45601e-06 -0.000165756
0.000857909 -4.84856e-06 2.16939e-08
-4.84856e-06 9.39723e-05 9.22963e-08
2.16939e-08 9.22963e-08 3.2718e-05
0.000697198 -1.30857e-05 -2.87512e-07
-1.30857e-05 -3.17015e-05 -3.47264e-06
-2.87512e-07 -3.47264e-06 -3.64705e-05
0.000613719 -6.91425e-06 2.18782e-07
-6.91425e-06 -6.29692e-05 -1.08913e-08
2.18782e-07 -1.08913e-08 -9.76106e-05
0.000589688 -5.00995e-05 2.17487e-07
-5.00995e-05 -5.15997e-05 1.08699e-06
2.17487e-07 1.08699e-06 -0.000112292
0.00208356 -1.07699e-05 -4.82256e-06
-1.07699e-05 0.000750321 -4.51078e-06
-4.82256e-06 -4.51078e-06 0.000771245
0.000698626 -6.43822e-06 -1.75087e-07
-6.43822e-06 -3.26975e-05 -4.93021e-09
-1.75087e-07 -4.93021e-09 -3.62545e-05
0.000736933 -5.58862e-06 -1.59939e-07
-5.58862e-06 5.40042e-06 1.75523e-06
-1.59939e-07 1.75523e-06 -2.67361e-05
0.00206936 -2.91772e-07 -2.75099e-06
-2.91772e-07 0.00074136 1.47764e-10
-2.75099e-06 1.47764e-10 0.000762647
0.000701303 1.4842e-07 1.45605e-07
1.4842e-07 -3.17946e-05 3.40547e-06
1.45605e-07 3.40547e-06 -3.50018e-05
0.00208219 1.02588e-05 -4.96174e-06
1.02588e-05 0.000749518 4.51242e-06
-4.96174e-06 4.51242e-06 0.000770441
0.00109034 -1.51669e-06 -5.57528e-05
-1.51669e-06 -8.63136e-05 2.24115e-05
-5.57528e-05 2.24115e-05 -0.000570509
0.00136259 0.000159712 -3.97271e-06
0.000159712 0.00154093 -6.27787e-06
-3.97271e-06 -6.27787e-06 0.00119251
0.000988845 -0.000148618 -4.23176e-05
-0.000148618 0.000955612 -1.38398e-05
-4.23176e-05 -1.38398e-05 0.000563788
0.000805409 3.50337e-05 -3.3093e-08
3.50337e-05 7.39959e-05 5.0088e-07
-3.3093e-08 5.0088e-07 -1.24461e-05
0.00237067 -7.95997e-06 -2.43033e-05
-7.95997e-06 0.000821651 4.9665e-05
-2.43033e-05 4.9665e-05 0.000259469
0.00245212 -9.39936e-06 -2.50284e-05
-9.39936e-06 0.000442243 3.47665e-06
-2.50284e-05 3.47665e-06 -0.00034123
0.00147795 0.000383567 7.9996e-05
0.000383567 0.00128659 -6.54365e-05
7.9996e-05 -6.54365e-05 0.00142267
0.00297397 -0.000104788 -1.57392e-05
-0.000104788 0.000171685 -1.42177e-05
-1.57392e-05 -1.42177e-05 -8.71333e-05
0.00985492 0.000371647 3.4895e-05
0.000371647 0.00367058 -3.1053e-05
3.4895e-05 -3.1053e-05 0.00220579
-0.00278002 0.000494416 -4.40341e-06
0.000494416 -0.00261065 2.01349e-05
-4.40341e-06 2.01349e-05 -0.00195363
0.0032839 0.000600304 2.91689e-05
0.000600304 -0.000475209 -7.36221e-06
2.91689e-05 -7.36221e-06 0.000516826
0.00329628 -0.000356275 -5.48186e-05
-0.000356275 9.18247e-05 1.17196e-06
-5.48186e-05 1.17196e-06 -0.000601365
0.00729412 0.000118663 2.98506e-05
0.000118663 0.00290885 -1.4085e-05
2.98506e-05 -1.4085e-05 0.00121037
0.00492289 0.000544104 9.06331e-06
0.000544104 0.000423511 -2.662e-05
9.06331e-06 -2.662e-05 0.000600314
0.00339817 0.000359267 -1.05073e-05
0.000359267 -0.00136306 1.04424e-06
-1.05073e-05 1.04424e-06 -0.000232747
0.00432967 -0.000636907 -5.39721e-06
-0.000636907 0.000666179 -1.39052e-05
-5.39721e-06 -1.39052e-05 -0.000278991
0.00894896 -0.000170142 4.65136e-05
-0.000170142 0.00423291 -5.96939e-07
4.65136e-05 -5.96939e-07 0.00168815
0.00133591 6.61433e-05 1.18207e-05
6.61433e-05 -0.000654214 -1.91956e-05
1.18207e-05 -1.91956e-05 -0.000758643
0.00494034 4.62913e-05 -7.96994e-06
4.62913e-05 -0.000434969 3.67424e-05
-7.96994e-06 3.67424e-05 0.000945742
0.000843981 -2.96283e-05 4.63576e-07
-2.96283e-05 9.93186e-05 3.48925e-07
4.63576e-07 3.48925e-07 -1.11601e-06
0.00082876 -3.73158e-05 4.84255e-07
-3.73158e-05 0.000102138 -1.50877e-09
4.84255e-07 -1.50877e-09 1.29412e-06
0.000913574 6.54994e-05 -1.15777e-06
6.54994e-05 0.000150263 3.85284e-08
-1.15777e-06 3.85284e-08 5.7604e-05
0.000803715 -2.7473e-06 -2.77302e-07
-2.7473e-06 6.51522e-05 2.16505e-07
-2.77302e-07 2.16505e-07 -2.22062e-05
0.000866678 5.58162e-05 -6.55248e-07
5.58162e-05 0.000115795 3.9992e-07
-6.55248e-07 3.9992e-07 1.85105e-05
0.000905914 3.73065e-05 6.64797e-07
3.73065e-05 0.000139871 1.27401e-06
6.64797e-07 1.27401e-06 4.96185e-05
0.000960042 7.55628e-05 -6.38184e-07
7.55628e-05 0.000168449 6.8897e-08
-6.38184e-07 6.8897e-08 7.99895e-05
0.001002 8.3532e-05 8.82174e-07
8.3532e-05 0.000198183 1.21546e-06
8.82174e-07 1.21546e-06 0.000109589
0.00123461 -0.000155688 2.68061e-05
-0.000155688 6.29679e-05 -1.30282e-05
2.68061e-05 -1.30282e-05 -5.73655e-06
0.00105172 -0.000223953 8.523e-06
-0.000223953 -4.81368e-05 -5.51411e-06
8.523e-06 -5.51411e-06 -8.00668e-05
0.000819949 -0.00012162 -1.30398e-06
-0.00012162 0.000105961 2.65813e-08
-1.30398e-06 2.65813e-08 -6.21006e-07
0.00166731 -8.56799e-05 4.91797e-06
-8.56799e-05 0.000550358 -6.29587e-06
4.91797e-06 -6.29587e-06 0.000381783
0.00112496 -6.28559e-05 -3.96674e-07
-6.28559e-05 0.000267598 -8.88328e-07
-3.96674e-07 -8.88328e-07 0.000148955
0.000946371 -3.2143e-05 -1.21022e-06
-3.2143e-05 0.000164458 -1.61397e-07
-1.21022e-06 -1.61397e-07 5.98657e-05
0.000888926 1.46201e-05 -6.74479e-09
1.46201e-05 0.000124433 -1.89381e-07
-6.74479e-09 -1.89381e-07 2.40081e-05
0.00072197 -0.00028637 -6.78123e-06
-0.00028637 -0.000244266 4.15266e-07
-6.78123e-06 4.15266e-07 -0.000289814
0.000852915 2.37884e-05 -1.74026e-07
2.37884e-05 0.000113047 -4.66628e-07
-1.74026e-07 -4.66628e-07 -1.29916e-06
0.000960387 -3.87625e-05 4.51833e-07
-3.87625e-05 0.000150522 8.65084e-07
4.51833e-07 8.65084e-07 4.03794e-05
0.000473302 -7.824e-05 6.92628e-07
-7.824e-05 -3.6359e-05 3.48523e-06
6.92628e-07 3.48523e-06 -0.000114132
0.000869431 -1.7369e-06 6.4777e-07
-1.7369e-06 9.44372e-05 8.26511e-07
6.4777e-07 8.26511e-07 9.10559e-06
0.000338674 -0.000279313 5.29376e-05
-0.000279313 -0.000334576 -2.89133e-05
5.29376e-05 -2.89133e-05 -0.000284175
0.00106569 -5.38012e-05 -1.19096e-05
-5.38012e-05 0.000483164 1.67912e-05
-1.19096e-05 1.67912e-05 0.000369458
0.000561533 3.99478e-06 -1.00688e-06
3.99478e-06 -6.42037e-05 5.23738e-06
-1.00688e-06 5.23738e-06 -0.000158715
0.000904127 0.000107871 1.72231e-06
0.000107871 0.000137534 1.04124e-06
1.72231e-06 1.04124e-06 3.5493e-05
0.00139845 -1.46089e-05 -1.77341e-05
-1.46089e-05 0.000247639 -3.47069e-07
-1.77341e-05 -3.47069e-07 0.000103136
0.0012384 -2.48599e-05 3.32492e-05
-2.48599e-05 5.68389e-05 -2.07902e-06
3.32492e-05 -2.07902e-06 -0.000388121
-0.00206475 -3.95025e-05 -1.12198e-05
-3.95025e-05 0.000199152 1.43871e-06
-1.12198e-05 1.43871e-06 -0.000609115
0.000860679 0.000101939 1.44571e-05
0.000101939 0.000258737 4.0208e-06
1.44571e-05 4.0208e-06 0.000181149
0.000352582 0.000178542 2.36932e-05
0.000178542 0.000134096 1.03446e-05
2.36932e-05 1.03446e-05 -2.20171e-05
0.00199591 -3.41551e-05 5.75122e-05
-3.41551e-05 0.000536008 1.23388e-05
5.75122e-05 1.23388e-05 0.000110935
0.00750597 -0.000191811 7.85197e-05
-0.000191811 0.00306869 3.82601e-05
7.85197e-05 3.82601e-05 0.000958381
0.00229491 0.000423821 -6.55015e-05
0.000423821 0.000415914 -8.49969e-05
-6.55015e-05 -8.49969e-05 -0.000391484
0.00317702 -0.000254386 2.55779e-05
-0.000254386 0.000300031 -6.83778e-06
2.55779e-05 -6.83778e-06 -0.000160333
0.00177316 3.24205e-05 2.23482e-05
3.24205e-05 0.000209708 6.46897e-05
2.23482e-05 6.46897e-05 -0.000507792
0.00249851 1.87443e-06 4.04462e-06
1.87443e-06 -0.00268313 -2.48182e-05
4.04462e-06 -2.48182e-05 -0.000827294
0.00079007 9.3832e-05 1.12788e-07
9.3832e-05 0.000299317 -2.58882e-07
1.12788e-07 -2.58882e-07 0.000224534
0.00129271 -3.04332e-05 -1.70866e-07
-3.04332e-05 0.000158894 -6.40328e-06
-1.70866e-07 -6.40328e-06 -3.46052e-05
0.00210083 1.02053e-05 1.33122e-05
1.02053e-05 0.000361224 4.89959e-06
1.33122e-05 4.89959e-06 -0.000168501
-0.000811842 7.24996e-05 -1.44513e-05
7.24996e-05 -0.000332149 -4.75319e-06
-1.44513e-05 -4.75319e-06 -0.000567278
0.00344108 0.000367553 7.22899e-06
0.000367553 -0.00134424 -7.52599e-07
7.22899e-06 -7.52599e-07 -0.000235118
0.00545269 0.000610604 5.18158e-05
0.000610604 0.0018474 1.12467e-05
5.18158e-05 1.12467e-05 -0.000278242
0.00282748 0.00015854 -4.69633e-05
0.00015854 0.00134499 -1.89174e-06
-4.69633e-05 -1.89174e-06 0.000844653
0.000421366 0.000107145 -1.82771e-05
0.000107145 0.000194238 -1.1417e-05
-1.82771e-05 -1.1417e-05 6.87864e-05
0.00149282 7.67515e-07 -5.74956e-07
7.67515e-07 0.000194813 -1.91312e-05
-5.74956e-07 -1.91312e-05 2.63835e-05
0.00244931 -6.09289e-06 2.39487e-05
-6.09289e-06 0.000787257 -4.98274e-05
2.39487e-05 -4.98274e-05 0.000267962
0.00400781 0.000579699 6.57216e-05
0.000579699 -8.45098e-05 -4.93027e-05
6.57216e-05 -4.93027e-05 0.000838054
0.00265757 0.000144745 -2.68868e-05
0.000144745 -0.000229092 1.82759e-05
-2.68868e-05 1.82759e-05 -0.000184272
0.00246591 0.000265618 1.71796e-05
0.000265618 0.000394432 -2.27467e-05
1.71796e-05 -2.27467e-05 0.000471955
0.00201206 7.32418e-05 8.80038e-05
7.32418e-05 0.00158774 3.17358e-05
8.80038e-05 3.17358e-05 -0.00146079
0.00061855 8.91275e-05 3.86466e-06
8.91275e-05 1.30812e-05 7.56444e-06
3.86466e-06 7.56444e-06 -3.31494e-05
0.000656603 3.52664e-05 7.26681e-06
3.52664e-05 0.000120109 7.62279e-07
7.26681e-06 7.62279e-07 7.46207e-05
2.88779e-05 -3.68821e-06 6.17844e-06
-3.68821e-06 -1.26565e-05 -1.29161e-05
6.17844e-06 -1.29161e-05 -8.4535e-05
0.000760101 1.69879e-05 -5.77737e-08
1.69879e-05 2.31257e-05 2.29532e-06
-5.77737e-08 2.29532e-06 -5.26423e-05
0.00064366 -3.16579e-05 -1.15975e-06
-3.16579e-05 -2.9787e-05 4.40962e-06
-1.15975e-06 4.40962e-06 -8.69215e-05
0.00067718 -4.69291e-05 -3.76312e-06
-4.69291e-05 3.86923e-05 9.63753e-06
-3.76312e-06 9.63753e-06 -2.73932e-06
0.000782817 -1.04407e-05 -5.61118e-08
-1.04407e-05 5.71595e-05 -2.22957e-07
-5.61118e-08 -2.22957e-07 -5.52648e-06
0.000545078 -1.09162e-05 6.72066e-07
-1.09162e-05 -9.53716e-06 2.25878e-06
6.72066e-07 2.25878e-06 -3.46586e-05
0.000368384 -8.65494e-05 4.26454e-06
-8.65494e-05 9.45228e-06 -5.5434e-06
4.26454e-06 -5.5434e-06 -0.000114078
0.000899181 1.31035e-05 -3.86663e-07
1.31035e-05 0.000116452 2.29021e-06
-3.86663e-07 2.29021e-06 5.13641e-05
0.000760323 5.07088e-05 -9.59089e-07
5.07088e-05 4.13078e-05 1.52173e-06
-9.59089e-07 1.52173e-06 -3.17637e-05
0.00113495 -5.1934e-05 9.7885e-07
-5.1934e-05 0.000278964 9.17898e-07
9.7885e-07 9.17898e-07 0.000193078
0.000329315 -6.51512e-05 3.88692e-06
-6.51512e-05 -7.02459e-05 1.13775e-06
3.88692e-06 1.13775e-06 -0.000246982
0.000604156 -4.2911e-06 -4.30386e-06
-4.2911e-06 -1.19704e-05 3.01495e-07
-4.30386e-06 3.01495e-07 -8.91934e-05
0.0003647 -7.03689e-05 1.1897e-06
-7.03689e-05 -0.00013312 -5.02722e-07
1.1897e-06 -5.02722e-07 -0.000265678
0.00105576 -0.000165282 4.62943e-06
-0.000165282 0.000217023 -1.01467e-06
4.62943e-06 -1.01467e-06 2.31342e-05
0.0011344 -0.000175351 -1.71226e-06
-0.000175351 0.000176046 3.75048e-06
-1.71226e-06 3.75048e-06 -1.90958e-05
0.00139024 -9.84884e-05 -2.28431e-06
-9.84884e-05 0.000408114 -4.34554e-07
-2.28431e-06 -4.34554e-07 0.00028528
0.000689564 -0.000133778 -3.43403e-07
-0.000133778 2.91967e-06 3.86751e-08
-3.43403e-07 3.86751e-08 -0.000162301
0.00153718 -0.000186661 9.85317e-07
-0.000186661 0.000462248 -1.38678e-06
9.85317e-07 -1.38678e-06 0.000304262
0.000318643 -8.15362e-05 -1.13536e-06
-8.15362e-05 -0.000158132 -3.24241e-07
-1.13536e-06 -3.24241e-07 -0.000295419
0.000861806 -0.000135058 7.33988e-08
-0.000135058 0.000108177 4.38552e-07
7.33988e-08 4.38552e-07 -4.64688e-05
0.000855053 -1.19958e-05 1.42675e-07
-1.19958e-05 0.000113734 6.62026e-07
1.42675e-07 6.62026e-07 1.64158e-05
0.00100006 -0.000104078 -1.92652e-06
-0.000104078 0.000211128 1.5975e-06
-1.92652e-06 1.5975e-06 8.73471e-05
0.000532797 -0.000110204 -9.49949e-07
-0.000110204 -6.10744e-05 -7.68936e-07
-9.49949e-07 -7.68936e-07 -0.000211277
0.000752192 5.21636e-05 2.17732e-07
5.21636e-05 4.07891e-05 8.2044e-07
2.17732e-07 8.2044e-07 -2.71463e-05
0.000723599 -3.66738e-06 6.75138e-07
-3.66738e-06 3.8122e-05 -1.27855e-07
6.75138e-07 -1.27855e-07 -4.92698e-05
0.000795964 -3.1272e-05 7.63807e-07
-3.1272e-05 9.68948e-05 -2.52195e-06
7.63807e-07 -2.52195e-06 -1.20386e-05
0.000807002 1.63637e-05 -1.10486e-07
1.63637e-05 7.96502e-05 -5.25995e-07
-1.10486e-07 -5.25995e-07 4.69774e-06
0.000773198 1.83288e-05 -4.91811e-07
1.83288e-05 4.46002e-05 -1.60043e-07
-4.91811e-07 -1.60043e-07 -1.52992e-05
0.00072168 4.55978e-05 -1.51363e-06
4.55978e-05 1.10233e-05 1.38109e-06
-1.51363e-06 1.38109e-06 -2.97596e-05
0.000800242 -1.5469e-05 8.7913e-07
-1.5469e-05 5.7519e-05 -5.63708e-07
8.7913e-07 -5.63708e-07 -2.54856e-07
0.000732284 3.52311e-05 -1.04364e-07
3.52311e-05 9.12038e-06 6.26999e-09
-1.04364e-07 6.26999e-09 -2.92298e-05
0.000656612 3.82993e-05 -1.16253e-06
3.82993e-05 -3.26468e-05 3.40838e-06
-1.16253e-06 3.40838e-06 -4.34945e-05
0.000742135 2.51182e-05 1.34102e-06
2.51182e-05 8.80785e-06 -1.44355e-06
1.34102e-06 -1.44355e-06 -2.82996e-05
0.000671741 3.28866e-05 1.24646e-07
3.28866e-05 -3.13606e-05 3.0339e-08
1.24646e-07 3.0339e-08 -4.07413e-05
0.00207746 5.20445e-05 -4.71535e-06
5.20445e-05 0.000764511 1.62483e-06
-4.71535e-06 1.62483e-06 0.000780159
0.000670353 2.67284e-05 8.04209e-07
2.67284e-05 -3.82904e-05 -3.37131e-06
8.04209e-07 -3.37131e-06 -4.65897e-05
0.00150387 3.33864e-05 7.89908e-06
3.33864e-05 0.000434706 -1.15245e-06
7.89908e-06 -1.15245e-06 0.000448957
0.00219043 3.08573e-05 1.27395e-05
3.08573e-05 0.000817002 -4.19758e-06
1.27395e-05 -4.19758e-06 0.000835246
0.000624095 -1.5775e-05 -1.39397e-07
-1.5775e-05 -4.16639e-05 -9.07972e-07
-1.39397e-07 -9.07972e-07 -0.000108456
0.000474967 -1.27119e-05 -3.65502e-07
-1.27119e-05 -0.000139035 -2.36023e-06
-3.65502e-07 -2.36023e-06 -0.000179945
0.000739131 4.75255e-06 -3.25017e-07
4.75255e-06 2.93396e-05 -5.86684e-07
-3.25017e-07 -5.86684e-07 -3.84111e-05
0.000691063 -1.95266e-05 -2.99417e-07
-1.95266e-05 -3.19708e-05 -3.53018e-06
-2.99417e-07 -3.53018e-06 -3.86436e-05
0.000478403 -1.13652e-05 -6.70155e-08
-1.13652e-05 -0.000137581 -7.26317e-07
-6.70155e-08 -7.26317e-07 -0.000175737
0.000877813 5.72479e-06 -1.0843e-07
5.72479e-06 0.000109765 9.4098e-07
-1.0843e-07 9.4098e-07 4.52143e-05
0.00211919 -2.06172e-05 -8.80162e-06
-2.06172e-05 0.00077268 -4.45647e-06
-8.80162e-06 -4.45647e-06 0.000792679
0.000694825 -1.27768e-05 -1.22225e-07
-1.27768e-05 -3.29996e-05 -1.54571e-08
-1.22225e-07 -1.54571e-08 -3.77167e-05
0.000474338 -8.02623e-06 1.70193e-07
-8.02623e-06 -0.000140137 1.75917e-06
1.70193e-07 1.75917e-06 -0.000175898
0.00207786 -9.98027e-06 -2.91126e-06
-9.98027e-06 0.000746899 2.74058e-08
-2.91126e-06 2.74058e-08 0.000767924
0.000698693 -6.17404e-06 1.93223e-07
-6.17404e-06 -3.26456e-05 3.39698e-06
1.93223e-07 3.39698e-06 -3.61752e-05
0.00206828 5.42173e-07 -4.74415e-07
5.42173e-07 0.000740751 4.53284e-06
-4.74415e-07 4.53284e-06 0.000762033
0.00141973 2.18591e-05 -1.49649e-05
2.18591e-05 0.00027038 1.63791e-05
-1.49649e-05 1.63791e-05 8.03874e-05
0.00149376 1.1524e-05 8.3395e-06
1.1524e-05 0.000174574 -2.62471e-06
8.3395e-06 -2.62471e-06 -0.000308917
0.00160304 0.000125205 4.08682e-05
0.000125205 0.00170444 -2.17639e-05
4.08682e-05 -2.17639e-05 0.00138869
0.000844033 3.58147e-05 6.37555e-08
3.58147e-05 9.12564e-05 1.44908e-07
6.37555e-08 1.44908e-07 8.637e-06
0.000749636 4.29008e-06 9.42265e-08
4.29008e-06 3.20042e-05 4.149e-07
9.42265e-08 4.149e-07 -4.59765e-05
0.000903872 5.449e-05 -1.29702e-07
5.449e-05 0.000123441 1.07292e-06
-1.29702e-07 1.07292e-06 3.63259e-05
0.00174056 6.84474e-06 2.0937e-06
6.84474e-06 8.54285e-05 7.84508e-05
2.0937e-06 7.84508e-05 -0.000565391
0.00239136 1.95684e-06 -6.03965e-06
1.95684e-06 0.00081086 1.32586e-06
-6.03965e-06 1.32586e-06 0.000251905
0.00262299 -2.36102e-05 4.36723e-05
-2.36102e-05 0.000593005 -5.69887e-05
4.36723e-05 -5.69887e-05 -0.000250884
0.00451634 -0.000383499 -5.883e-05
-0.000383499 0.000872175 -1.81403e-08
-5.883e-05 -1.81403e-08 0.000192725
0.000700094 -0.000104793 -5.48616e-05
-0.000104793 -0.00014226 2.93708e-05
-5.48616e-05 2.93708e-05 -0.00209718
0.00548852 0.00065509 6.2341e-05
0.00065509 0.00138709 -6.37698e-06
6.2341e-05 -6.37698e-06 0.00136502
0.00139943 0.000236938 1.43523e-05
0.000236938 -0.00258412 -3.77092e-05
1.43523e-05 -3.77092e-05 -0.0014101
0.0049262 -0.000699894 -7.86548e-06
-0.000699894 0.0012703 4.66619e-06
-7.86548e-06 4.66619e-06 0.000610371
0.00582122 -0.000203495 1.05081e-05
-0.000203495 0.00240241 -2.13644e-06
1.05081e-05 -2.13644e-06 0.000284546
-0.000762154 0.000133108 -9.32283e-06
0.000133108 -0.000737851 -2.38546e-05
-9.32283e-06 -2.38546e-05 -0.001166
0.00368721 1.03814e-05 -7.7027e-06
1.03814e-05 -0.00152648 9.88815e-06
-7.7027e-06 9.88815e-06 4.89991e-05
0.00220583 -0.000527318 -2.95011e-05
-0.000527318 -0.000159442 -2.90038e-05
-2.95011e-05 -2.90038e-05 -0.000745667
0.00974945 -0.000506677 5.2091e-05
-0.000506677 0.00445956 1.89066e-05
5.2091e-05 1.89066e-05 0.00188622
-0.00547022 4.54548e-05 3.70311e-05
4.54548e-05 -0.00102448 -4.15098e-05
3.70311e-05 -4.15098e-05 -0.00188361
0.00184787 -0.000306207 2.58428e-07
-0.000306207 -0.00189898 1.05425e-06
2.58428e-07 1.05425e-06 -0.000719167
0.000842423 1.51711e-05 -1.33809e-07
1.51711e-05 8.61175e-05 1.13239e-06
-1.33809e-07 1.13239e-06 -7.30414e-06
0.000825343 -1.05525e-05 1.64311e-07
-1.05525e-05 9.05017e-05 -1.16575e-07
1.64311e-07 -1.16575e-07 -1.13516e-05
0.000815546 -4.93199e-05 4.5619e-08
-4.93199e-05 9.64252e-05 -2.17136e-07
4.5619e-08 -2.17136e-07 -5.88061e-06
0.000828125 2.07726e-05 -3.59537e-07
2.07726e-05 7.96001e-05 -3.13952e-07
-3.59537e-07 -3.13952e-07 -9.05969e-06
0.000970023 9.54713e-05 1.23105e-06
9.54713e-05 0.000172238 2.55753e-07
1.23105e-06 2.55753e-07 7.64245e-05
0.00102316 8.57869e-05 -3.22029e-07
8.57869e-05 0.000204197 1.76685e-07
-3.22029e-07 1.76685e-07 0.000114791
0.00163321 -0.000332748 8.49532e-07
-0.000332748 0.000219596 5.59699e-06
8.49532e-07 5.59699e-06 0.00013412
-0.000734441 -5.74627e-05 9.22851e-06
-5.74627e-05 -0.00068701 -8.0804e-06
9.22851e-06 -8.0804e-06 -0.000736958
0.000999504 5.51335e-05 -3.6925e-07
5.51335e-05 0.000192622 -3.43001e-07
-3.6925e-07 -3.43001e-07 8.73723e-05
0.00131245 -8.46165e-05 9.88294e-06
-8.46165e-05 0.000326043 -1.21839e-05
9.88294e-06 -1.21839e-05 0.000212426
0.000952328 1.24607e-05 -4.06769e-07
1.24607e-05 0.000169263 -1.80588e-06
-4.06769e-07 -1.80588e-06 5.80794e-05
0.000839217 3.9198e-06 9.50612e-08
3.9198e-06 7.76725e-05 -2.82185e-07
9.50612e-08 -2.82185e-07 -1.11356e-05
0.000922338 6.07518e-05 5.82592e-07
6.07518e-05 0.000144751 -4.06243e-07
5.82592e-07 -4.06243e-07 4.89012e-05
0.000543697 -0.000261912 -5.44822e-06
-0.000261912 -0.000240519 -2.23367e-06
-5.44822e-06 -2.23367e-06 -0.000251382
0.000989476 -2.81298e-05 1.53878e-06
-2.81298e-05 0.000179412 -2.57532e-06
1.53878e-06 -2.57532e-06 9.068e-05
0.000432921 -2.72187e-05 1.34953e-05
-2.72187e-05 0.000153286 -4.93145e-07
1.34953e-05 -4.93145e-07 4.30891e-05
0.000941074 2.92602e-05 2.16139e-06
2.92602e-05 0.000145274 9.59825e-07
2.16139e-06 9.59825e-07 6.21429e-05
-0.00211392 1.75626e-05 -1.50697e-06
1.75626e-05 -0.00102243 -2.7764e-05
-1.50697e-06 -2.7764e-05 -0.00132496
0.00114567 -1.34595e-06 6.17961e-06
-1.34595e-06 0.000486333 1.98506e-05
6.17961e-06 1.98506e-05 0.00044094
0.0010549 -3.07165e-06 2.41597e-06
-3.07165e-06 0.00023648 3.47385e-06
2.41597e-06 3.47385e-06 0.000164048
0.00158982 -1.08548e-05 -1.59782e-06
-1.08548e-05 0.000263446 6.16878e-08
-1.59782e-06 6.16878e-08 0.000176566
0.00113543 -1.19233e-05 -7.1286e-06
-1.19233e-05 0.000113034 -1.8295e-06
-7.1286e-06 -1.8295e-06 -1.36614e-05
0.00110458 -3.10883e-05 9.9381e-05
-3.10883e-05 1.63738e-05 -1.76047e-06
9.9381e-05 -1.76047e-06 -0.000437142
0.00114167 0.000141267 1.87634e-05
0.000141267 0.000482258 1.29828e-05
1.87634e-05 1.29828e-05 0.000397621
0.00350827 0.000365933 2.28253e-06
0.000365933 0.00145515 -1.61781e-05
2.28253e-06 -1.61781e-05 0.00131436
0.00132916 -2.82335e-05 1.00171e-05
-2.82335e-05 0.000175454 6.46835e-06
1.00171e-05 6.46835e-06 -6.73051e-06
0.000212438 0.000304287 -9.37655e-07
0.000304287 -0.000224966 3.45356e-06
-9.37655e-07 3.45356e-06 -0.00232221
-0.00798138 1.89175e-05 -3.32142e-05
1.89175e-05 -0.00344551 -2.61011e-05
-3.32142e-05 -2.61011e-05 -0.00438385
0.00234001 1.70534e-05 1.61022e-05
1.70534e-05 0.000624231 4.16856e-05
1.61022e-05 4.16856e-05 0.000201427
0.0015291 0.000252121 -1.18723e-05
0.000252121 -0.00253794 3.8032e-05
-1.18723e-05 3.8032e-05 -0.00136013
0.000393241 7.90501e-05 1.26046e-06
7.90501e-05 0.00019233 -9.05894e-07
1.26046e-06 -9.05894e-07 8.24455e-05
0.00130313 -4.70221e-06 3.80483e-06
-4.70221e-06 9.99893e-05 -7.83989e-06
3.80483e-06 -7.83989e-06 -4.68219e-05
0.00244486 -1.1682e-07 6.16901e-06
-1.1682e-07 0.000774034 -1.37461e-06
6.16901e-06 -1.37461e-06 0.000243416
0.00113365 0.000220397 3.46323e-05
0.000220397 -0.000333214 -1.022e-06
3.46323e-05 -1.022e-06 -0.000499026
0.00191607 0.000556968 1.66914e-05
0.000556968 -0.00132933 -3.8797e-05
1.66914e-05 -3.8797e-05 -0.000351623
-0.000629486 0.000148105 9.47422e-06
0.000148105 -0.00113854 2.04075e-05
9.47422e-06 2.04075e-05 -0.0012387
0.00633229 7.36918e-05 5.75706e-05
7.36918e-05 0.00350709 -1.72429e-05
5.75706e-05 -1.72429e-05 0.000271558
4.80127e-05 1.45979e-05 2.48921e-06
1.45979e-05 0.000222552 -1.13095e-05
2.48921e-06 -1.13095e-05 -1.16305e-05
0.00137597 1.85697e-05 1.33261e-05
1.85697e-05 0.00022635 -1.6006e-05
1.33261e-05 -1.6006e-05 4.30312e-05
0.00245652 7.88672e-06 9.04314e-05
7.88672e-06 0.00031178 -6.96356e-05
9.04314e-05 -6.96356e-05 -0.000363414
0.00243558 0.000766414 7.24663e-06
0.000766414 0.000894508 -9.28422e-06
7.24663e-06 -9.28422e-06 0.0019456
-0.00629835 0.000193374 5.21732e-05
0.000193374 -0.00464216 7.10972e-05
5.21732e-05 7.10972e-05 -0.00439638
0.00937186 -0.000237311 3.72555e-05
-0.000237311 0.00394576 -5.63694e-05
3.72555e-05 -5.63694e-05 0.00140127
0.00469814 -0.00027966 -7.16734e-05
-0.00027966 0.00114263 0.000119894
-7.16734e-05 0.000119894 0.00121064
0.00109282 3.01062e-05 6.09e-07
3.01062e-05 0.000371508 6.60393e-06
6.09e-07 6.60393e-06 0.000324848
5.72513e-05 -1.41798e-05 1.61827e-07
-1.41798e-05 -1.56815e-05 -1.1413e-06
1.61827e-07 -1.1413e-06 -9.81757e-05
-0.000499575 -0.000109231 6.04342e-06
-0.000109231 -0.000221883 -1.18506e-05
6.04342e-06 -1.18506e-05 -0.000407522
0.000765584 -2.46031e-05 1.19626e-08
-2.46031e-05 5.0132e-05 2.11749e-06
1.19626e-08 2.11749e-06 -1.49374e-05
0.000678771 -1.1795e-05 7.40709e-06
-1.1795e-05 5.1496e-05 1.19084e-05
7.40709e-06 1.19084e-05 2.88102e-05
0.000396774 -3.68717e-05 -9.29318e-07
-3.68717e-05 2.33188e-05 9.10728e-09
-9.29318e-07 9.10728e-09 -8.61613e-05
0.00118028 -0.000161153 1.73552e-05
-0.000161153 0.000476917 -1.12309e-05
1.73552e-05 -1.12309e-05 0.000253042
0.00158202 -7.0284e-05 -2.38558e-06
-7.0284e-05 0.000514013 2.00127e-06
-2.38558e-06 2.00127e-06 0.000422837
0.00129635 -0.000154564 9.80168e-07
-0.000154564 0.000417812 4.8921e-07
9.80168e-07 4.8921e-07 0.000236977
0.00107464 -0.00017963 6.93828e-06
-0.00017963 0.000289715 1.83352e-06
6.93828e-06 1.83352e-06 1.11859e-05
0.000211369 -6.50585e-05 -2.09472e-06
-6.50585e-05 -0.000211824 -1.5264e-06
-2.09472e-06 -1.5264e-06 -0.000334724
0.00107864 -0.000164559 -2.8028e-07
-0.000164559 0.000223071 9.26038e-07
-2.8028e-07 9.26038e-07 2.33526e-05
0.00196928 -0.000255568 2.11469e-06
-0.000255568 0.000604651 1.19547e-06
2.11469e-06 1.19547e-06 0.000364558
0.0017126 -0.000240312 -2.82192e-06
-0.000240312 0.000356888 3.14458e-07
-2.82192e-06 3.14458e-07 0.000143936
0.000633972 -0.000134008 -2.28057e-07
-0.000134008 -7.0217e-05 4.66991e-06
-2.28057e-07 4.66991e-06 -0.000243822
0.00119514 -0.000179915 -1.88897e-06
-0.000179915 0.000209231 1.33452e-06
-1.88897e-06 1.33452e-06 1.23903e-05
0.000930475 -0.000151505 -3.18384e-06
-0.000151505 0.000127733 3.3946e-07
-3.18384e-06 3.3946e-07 -4.20572e-05
0.0013168 -0.000167516 2.62005e-06
-0.000167516 0.00035712 -2.28356e-06
2.62005e-06 -2.28356e-06 0.000208829
0.00115061 -0.000157468 2.41008e-06
-0.000157468 0.000257287 -2.13334e-06
2.41008e-06 -2.13334e-06 0.000107084
0.000680157 -4.45408e-05 9.90642e-07
-4.45408e-05 2.79509e-05 8.94517e-07
9.90642e-07 8.94517e-07 -9.05162e-05
0.00077556 -0.000108238 1.05952e-06
-0.000108238 9.24866e-05 -3.75371e-07
1.05952e-06 -3.75371e-07 -4.54025e-05
0.000990422 -0.000143393 4.52383e-06
-0.000143393 0.000177253 -2.63152e-06
4.52383e-06 -2.63152e-06 2.53729e-05
0.00074753 5.94461e-05 8.64435e-07
5.94461e-05 4.68739e-05 1.22007e-06
8.64435e-07 1.22007e-06 -3.37772e-05
0.000883352 -3.06695e-05 -1.57493e-07
-3.06695e-05 0.000130203 -1.40619e-08
-1.57493e-07 -1.40619e-08 3.02552e-05
0.00106859 -0.000103142 -6.3038e-07
-0.000103142 0.000247225 7.56363e-09
-6.3038e-07 7.56363e-09 0.000123234
0.000698497 5.67987e-05 -8.65117e-07
5.67987e-05 7.63182e-06 1.50024e-06
-8.65117e-07 1.50024e-06 -3.82013e-05
0.000774027 2.65963e-05 -6.65337e-07
2.65963e-05 5.09722e-05 -2.72554e-07
-6.65337e-07 -2.72554e-07 -1.64591e-05
0.000604123 8.00143e-07 -3.1498e-07
8.00143e-07 -2.61763e-05 -7.68705e-07
-3.1498e-07 -7.68705e-07 -0.00011441
0.000804783 -4.27402e-06 7.82685e-07
-4.27402e-06 6.14303e-05 -9.12392e-07
7.82685e-07 -9.12392e-07 1.29165e-06
0.000724165 4.42236e-05 -2.2033e-07
4.42236e-05 1.22044e-05 -4.17356e-08
-2.2033e-07 -4.17356e-08 -2.84818e-05
0.000641822 4.41162e-05 -1.37125e-06
4.41162e-05 -3.21774e-05 3.3857e-06
-1.37125e-06 3.3857e-06 -4.51507e-05
0.000737884 3.54797e-05 1.38286e-06
3.54797e-05 1.18825e-05 -1.53246e-06
1.38286e-06 -1.53246e-06 -2.64513e-05
0.000665115 3.91242e-05 8.57385e-08
3.91242e-05 -2.80021e-05 2.08724e-08
8.57385e-08 2.08724e-08 -3.88853e-05
0.00211632 5.64655e-05 -2.19581e-05
5.64655e-05 0.000793126 3.58297e-06
-2.19581e-05 3.58297e-06 0.00080766
0.000672979 3.34502e-05 9.44989e-07
3.34502e-05 -3.09921e-05 -3.3735e-06
9.44989e-07 -3.3735e-06 -4.03478e-05
0.00148826 4.15468e-05 9.23374e-06
4.15468e-05 0.00043302 -1.02253e-06
9.23374e-06 -1.02253e-06 0.000445849
0.00216708 4.02671e-05 1.62509e-05
4.02671e-05 0.000809259 -3.95877e-06
1.62509e-05 -3.95877e-06 0.000826485
0.00078082 3.14721e-05 -5.6513e-07
3.14721e-05 4.42368e-05 -3.52206e-07
-5.6513e-07 -3.52206e-07 -2.28407e-05
0.000721133 -1.22652e-05 -6.708e-07
-1.22652e-05 -2.39782e-06 -1.69823e-06
-6.708e-07 -1.69823e-06 -4.37903e-05
0.000692395 2.21027e-05 -7.97151e-07
2.21027e-05 1.31838e-06 -5.00272e-07
-7.97151e-07 -5.00272e-07 -6.83806e-05
0.000679968 -2.60761e-05 -2.00318e-07
-2.60761e-05 -3.37341e-05 -3.62791e-06
-2.00318e-07 -3.62791e-06 -4.27934e-05
0.000597012 -1.09801e-05 -4.00865e-07
-1.09801e-05 -7.1364e-05 -7.33795e-07
-4.00865e-07 -7.33795e-07 -0.000111403
0.000875478 6.86674e-06 1.10858e-07
6.86674e-06 0.000105379 5.88578e-08
1.10858e-07 5.88578e-08 3.82074e-05
0.00217144 -3.05133e-05 -1.28812e-05
-3.05133e-05 0.000805611 -4.35985e-06
-1.28812e-05 -4.35985e-06 0.000824226
0.000687632 -1.9144e-05 -1.85258e-07
-1.9144e-05 -3.39283e-05 -1.50404e-08
-1.85258e-07 -1.50404e-08 -4.05154e-05
0.000459432 -1.18261e-05 -7.71199e-08
-1.18261e-05 -0.000148192 1.05588e-06
-7.71199e-08 1.05588e-06 -0.000186678
0.00210861 -1.97817e-05 -2.68673e-06
-1.97817e-05 0.000766336 5.40027e-08
-2.68673e-06 5.40027e-08 0.000786528
0.000693701 -1.24905e-05 3.26921e-07
-1.24905e-05 -3.35884e-05 3.45231e-06
3.26921e-07 3.45231e-06 -3.82645e-05
0.00207395 -9.18079e-06 3.78801e-06
-9.18079e-06 0.000744487 4.51996e-06
3.78801e-06 4.51996e-06 0.000765582
0.00145649 -3.96709e-06 -2.51766e-06
-3.96709e-06 0.000200129 2.00017e-05
-2.51766e-06 2.00017e-05 6.014e-06
0.00134887 1.82445e-05 -4.05479e-06
1.82445e-05 0.000222842 8.32962e-07
-4.05479e-06 8.32962e-07 1.59854e-05
0.00161601 1.9096e-05 7.2204e-05
1.9096e-05 0.000282947 -1.78662e-05
7.2204e-05 -1.78662e-05 -0.000212783
0.000725804 -3.52107e-05 9.17657e-08
-3.52107e-05 1.46486e-05 -1.18975e-07
9.17657e-08 -1.18975e-07 -5.91486e-05
0.000884889 -1.86834e-06 -5.07365e-07
-1.86834e-06 0.000110736 -4.06845e-07
-5.07365e-07 -4.06845e-07 3.06791e-05
0.000865562 3.36371e-05 1.24629e-06
3.36371e-05 0.000102195 -1.71305e-07
1.24629e-06 -1.71305e-07 2.15344e-05
0.000754291 -1.07516e-05 1.31364e-07
-1.07516e-05 3.03041e-05 7.17096e-08
1.31364e-07 7.17096e-08 -4.45382e-05
0.000828592 1.64525e-05 -3.1211e-08
1.64525e-05 8.10846e-05 2.09856e-07
-3.1211e-08 2.09856e-07 -5.24779e-06
0.000853979 -6.13729e-06 -9.03483e-07
-6.13729e-06 9.42618e-05 4.17564e-07
-9.03483e-07 4.17564e-07 1.23376e-05
0.000881784 0.000123896 8.36326e-07
0.000123896 0.000122356 9.99288e-07
8.36326e-07 9.99288e-07 2.49874e-05
0.00126271 1.04231e-05 2.49876e-05
1.04231e-05 0.000189471 7.50273e-05
2.49876e-05 7.50273e-05 -0.000510028
0.00202045 1.24521e-05 -3.10978e-06
1.24521e-05 0.000381041 2.2694e-05
-3.10978e-06 2.2694e-05 -0.000152583
0.00233804 1.18636e-05 1.25355e-05
1.18636e-05 0.000763089 -4.43659e-05
1.25355e-05 -4.43659e-05 0.000199735
0.0024487 -2.50104e-05 -8.3497e-06
-2.50104e-05 -0.00262662 -8.57095e-07
-8.3497e-06 -8.57095e-07 -0.000863062
0.00320172 -0.000603726 -2.35969e-05
-0.000603726 0.000597928 5.16579e-05
-2.35969e-05 5.16579e-05 -0.00024759
-0.00125904 -0.000349098 4.32338e-05
-0.000349098 -0.000959695 5.88013e-06
4.32338e-05 5.88013e-06 -0.00317939
0.00512732 0.000604122 4.07337e-05
0.000604122 0.00269024 -2.64046e-05
4.07337e-05 -2.64046e-05 0.0016867
0.00476819 -0.000726935 -1.68768e-05
-0.000726935 0.00109025 3.5484e-06
-1.68768e-05 3.5484e-06 0.000359391
0.00083927 -0.000277128 4.13863e-05
-0.000277128 0.000289739 -1.33815e-05
4.13863e-05 -1.33815e-05 -0.00210705
0.00357522 -3.70432e-05 -2.67315e-05
-3.70432e-05 0.00159429 2.15001e-06
-2.67315e-05 2.15001e-06 0.00109875
0.0057388 -0.000411028 -1.42763e-05
-0.000411028 0.00054507 -2.06703e-05
-1.42763e-05 -2.06703e-05 0.00168585
0.00249223 -0.000156332 -2.92637e-05
-0.000156332 -8.51287e-05 1.87764e-05
-2.92637e-05 1.87764e-05 -1.59711e-05
0.000526012 4.59449e-05 3.33679e-05
4.59449e-05 -0.000273245 -6.21125e-05
3.33679e-05 -6.21125e-05 -0.00228635
-0.0049539 -0.000504249 3.66987e-05
-0.000504249 -0.00362755 -1.35334e-05
3.66987e-05 -1.35334e-05 -0.00445036
0.00118921 -0.000429566 2.07345e-05
-0.000429566 -0.00168273 -4.91009e-05
2.07345e-05 -4.91009e-05 -0.000466867
0.000879673 -3.27172e-05 -5.46618e-07
-3.27172e-05 0.000106876 1.85816e-06
-5.46618e-07 1.85816e-06 2.86826e-05
0.000800791 1.41007e-05 1.68598e-07
1.41007e-05 6.38208e-05 5.76656e-08
1.68598e-07 5.76656e-08 -2.93705e-05
0.000794615 3.1619e-06 -5.45762e-07
3.1619e-06 7.75239e-05 -1.19346e-06
-5.45762e-07 -1.19346e-06 -2.71538e-05
0.000844654 2.65968e-05 -9.7933e-08
2.65968e-05 9.38347e-05 -1.36303e-06
-9.7933e-08 -1.36303e-06 1.27007e-06
0.00138406 -0.000292928 2.99783e-07
-0.000292928 0.000145232 1.73684e-05
2.99783e-07 1.73684e-05 8.95112e-05
0.000337138 -1.73046e-05 -2.00599e-06
-1.73046e-05 0.000105827 -1.27806e-05
-2.00599e-06 -1.27806e-05 7.50203e-06
0.000752415 -1.69598e-05 -2.722e-07
-1.69598e-05 2.31873e-05 -1.94766e-06
-2.722e-07 -1.94766e-06 -6.36219e-05
0.000938504 7.94073e-05 -7.44545e-07
7.94073e-05 0.00016117 -1.63506e-06
-7.44545e-07 -1.63506e-06 6.22811e-05
0.00155988 -2.93955e-05 8.14303e-06
-2.93955e-05 0.000513111 -1.2968e-05
8.14303e-06 -1.2968e-05 0.000420814
0.000821827 8.6919e-06 -5.74785e-07
8.6919e-06 7.79524e-05 -5.5225e-08
-5.74785e-07 -5.5225e-08 -4.39753e-06
0.000741775 7.82456e-06 -4.24119e-07
7.82456e-06 7.21164e-05 -9.26587e-07
-4.24119e-07 -9.26587e-07 -3.37461e-06
-0.000658684 -2.05923e-05 -1.40474e-05
-2.05923e-05 -0.00033351 -9.9915e-06
-1.40474e-05 -9.9915e-06 -0.000678201
0.000931964 -3.00155e-05 5.82286e-06
-3.00155e-05 0.000401359 8.64294e-07
5.82286e-06 8.64294e-07 0.000363831
0.000704845 2.57151e-06 2.93252e-06
2.57151e-06 5.2272e-05 5.8208e-07
2.93252e-06 5.8208e-07 -2.17089e-05
0.000740554 8.67453e-07 -1.60909e-05
8.67453e-07 0.000883093 -5.26362e-05
-1.60909e-05 -5.26362e-05 -5.54413e-05
0.00202203 2.12292e-06 2.81602e-06
2.12292e-06 0.000939454 1.45679e-05
2.81602e-06 1.45679e-05 0.000866297
0.00143592 -1.44853e-05 1.58607e-05
-1.44853e-05 0.000272766 7.19726e-07
1.58607e-05 7.19726e-07 0.000127142
0.00115444 -9.86757e-06 -3.92386e-07
-9.86757e-06 5.5731e-05 -1.12525e-07
-3.92386e-07 -1.12525e-07 -1.60925e-05
0.000907861 -8.58537e-06 3.26602e-06
-8.58537e-06 8.62328e-06 -1.80436e-06
3.26602e-06 -1.80436e-06 -0.000101686
0.000499709 6.74436e-05 9.31165e-06
6.74436e-05 0.000244181 8.15397e-06
9.31165e-06 8.15397e-06 0.000152868
0.00130196 0.00018077 -5.08689e-05
0.00018077 -5.97722e-05 1.98541e-05
-5.08689e-05 1.98541e-05 -7.03972e-05
0.00112217 -8.25009e-06 6.31744e-06
-8.25009e-06 1.28447e-05 4.29511e-06
6.31744e-06 4.29511e-06 -0.000115029
0.00331219 -0.000325667 0.000128466
-0.000325667 0.00203452 -0.000120347
0.000128466 -0.000120347 -0.000839823
0.00565436 0.000654288 -3.44068e-05
0.000654288 0.00256407 2.556e-05
-3.44068e-05 2.556e-05 0.00172843
0.00239186 2.96045e-06 -1.37032e-05
2.96045e-06 0.000732785 4.5079e-05
-1.37032e-05 4.5079e-05 0.000188865
0.0034009 0.000597668 -2.44705e-05
0.000597668 -0.000429493 8.69284e-06
-2.44705e-05 8.69284e-06 0.000526632
-0.000512152 -8.69742e-06 1.68412e-05
-8.69742e-06 -2.60309e-05 4.90072e-07
1.68412e-05 4.90072e-07 -0.000310699
0.00135682 1.5823e-05 4.71218e-06
1.5823e-05 0.00021025 -7.29383e-07
4.71218e-06 -7.29383e-07 1.73343e-05
0.00249881 -1.47154e-05 2.49406e-05
-1.47154e-05 0.000398172 -3.17781e-06
2.49406e-05 -3.17781e-06 -0.000356638
0.00129186 -9.55523e-05 -1.31394e-05
-9.55523e-05 -0.000616893 2.5637e-05
-1.31394e-05 2.5637e-05 -0.000331517
-0.000962922 0.000806553 2.2032e-05
0.000806553 -0.00112253 -7.54922e-06
2.2032e-05 -7.54922e-06 0.000299183
0.00514571 0.000585022 -7.77195e-06
0.000585022 0.000517606 2.58474e-05
-7.77195e-06 2.58474e-05 0.000750028
-0.000313467 -0.000438218 4.96808e-05
-0.000438218 -7.23041e-05 -3.03359e-05
4.96808e-05 -3.03359e-05 -0.00312516
0.000844755 -2.93099e-05 4.67324e-05
-2.93099e-05 0.000342471 -8.33532e-06
4.67324e-05 -8.33532e-06 0.000282778
0.00107733 -8.24064e-06 5.12105e-05
-8.24064e-06 -0.000121048 -2.20639e-05
5.12105e-05 -2.20639e-05 -0.000610027
-0.00133994 0.000231502 -4.31384e-05
0.000231502 -0.000123787 -1.86246e-05
-4.31384e-05 -1.86246e-05 -0.000381588
-2.65007e-05 0.000622318 -2.20223e-05
0.000622318 -0.00043483 6.06862e-05
-2.20223e-05 6.06862e-05 -2.32286e-05
0.00780377 0.000111007 1.69159e-05
0.000111007 0.00339201 -3.12404e-05
1.69159e-05 -3.12404e-05 0.000992915
0.00282427 -0.000304302 -7.26942e-05
-0.000304302 0.000240176 7.71926e-05
-7.26942e-05 7.71926e-05 -5.51252e-05
-1.10931e-05 -2.47929e-05 -7.46059e-06
-2.47929e-05 -6.95135e-05 1.01213e-05
-7.46059e-06 1.01213e-05 -0.000168134
0.000229784 -5.51636e-05 2.76021e-07
-5.51636e-05 0.0001664 -4.60743e-07
2.76021e-07 -4.60743e-07 -6.44139e-06
0.00104159 -0.000172722 1.90401e-05
-0.000172722 0.000369597 -8.58034e-06
1.90401e-05 -8.58034e-06 0.000243428
0.00060899 1.60534e-05 -4.09112e-06
1.60534e-05 0.000134298 3.71297e-06
-4.09112e-06 3.71297e-06 3.94576e-05
-0.000180699 -8.52289e-05 1.13994e-06
-8.52289e-05 -0.000210972 -3.10177e-06
1.13994e-06 -3.10177e-06 -0.000444231
0.00160209 -0.000246763 1.66996e-05
-0.000246763 0.000434136 -2.33408e-06
1.66996e-05 -2.33408e-06 0.000211899
0.00225173 -0.000244966 -4.65718e-06
-0.000244966 0.000899838 9.88424e-07
-4.65718e-06 9.88424e-07 0.000713659
0.00153622 -0.00020674 1.43538e-06
-0.00020674 0.000510636 1.05496e-06
1.43538e-06 1.05496e-06 0.000240437
0.000866172 -0.000209135 3.94764e-06
-0.000209135 -4.27218e-05 -3.80252e-06
3.94764e-06 -3.80252e-06 -0.000289407
0.00112964 -0.000166514 -3.9224e-06
-0.000166514 0.000243259 1.42165e-07
-3.9224e-06 1.42165e-07 3.85986e-05
0.00186407 -0.000247641 1.23111e-06
-0.000247641 0.000540599 1.19128e-07
1.23111e-06 1.19128e-07 0.00029994
0.00138374 -0.000236738 1.68129e-06
-0.000236738 0.000118356 -3.57936e-06
1.68129e-06 -3.57936e-06 -0.000100112
0.00157126 -0.000232251 5.23534e-07
-0.000232251 0.000143817 -1.56415e-06
5.23534e-07 -1.56415e-06 -2.86745e-05
0.00219295 -0.000260272 -4.8522e-06
-0.000260272 0.000663221 4.66617e-06
-4.8522e-06 4.66617e-06 0.000455964
0.00159796 -0.000233761 -1.37313e-06
-0.000233761 0.000291389 -2.89731e-07
-1.37313e-06 -2.89731e-07 7.4024e-05
0.000545211 -0.000125593 2.6374e-06
-0.000125593 -0.000110483 -2.13958e-07
2.6374e-06 -2.13958e-07 -0.000262234
0.000924257 -0.000152447 1.77491e-06
-0.000152447 8.75144e-05 -2.53634e-07
1.77491e-06 -2.53634e-07 -8.15007e-05
0.00129429 -0.000187228 -1.2068e-06
-0.000187228 0.000262609 -1.4733e-06
-1.2068e-06 -1.4733e-06 6.4239e-05
0.00106478 -0.000143662 1.06777e-06
-0.000143662 0.000224936 -9.25194e-08
1.06777e-06 -9.25194e-08 8.2596e-05
0.00111605 -0.000152136 -8.45287e-07
-0.000152136 0.00024943 -9.50989e-07
-8.45287e-07 -9.50989e-07 0.000101456
0.000793274 -0.000130403 2.57724e-06
-0.000130403 6.90765e-05 -1.92812e-06
2.57724e-06 -1.92812e-06 -7.37553e-05
0.000723533 1.01441e-05 1.25437e-06
1.01441e-05 4.17111e-05 1.28042e-06
1.25437e-06 1.28042e-06 -5.80921e-05
0.000777413 -5.37935e-05 8.45247e-08
-5.37935e-05 8.30891e-05 7.14289e-07
8.45247e-08 7.14289e-07 -3.51868e-05
0.00124482 -0.000135381 1.48421e-06
-0.000135381 0.000350034 -1.10512e-06
1.48421e-06 -1.10512e-06 0.000210887
0.000675985 7.16287e-05 2.71755e-07
7.16287e-05 6.99103e-06 2.02953e-06
2.71755e-07 2.02953e-06 -4.97009e-05
0.000769769 2.09367e-05 -2.955e-07
2.09367e-05 5.95267e-05 -1.82341e-07
-2.955e-07 -1.82341e-07 -2.27009e-05
0.000898195 -4.45737e-05 -2.8601e-07
-4.45737e-05 0.000139147 -6.32394e-07
-2.8601e-07 -6.32394e-07 3.67413e-05
0.00063486 4.96017e-05 -2.31134e-06
4.96017e-05 -2.69569e-05 4.70683e-06
-2.31134e-06 4.70683e-06 -4.26332e-05
0.000703612 5.54614e-05 -2.5512e-07
5.54614e-05 1.05282e-05 -1.78509e-07
-2.5512e-07 -1.78509e-07 -3.5327e-05
0.00079652 2.28827e-06 1.76929e-07
2.28827e-06 6.18448e-05 -1.22883e-06
1.76929e-07 -1.22883e-06 -5.27899e-06
0.000723173 4.37119e-05 9.43926e-07
4.37119e-05 1.16278e-05 -1.64298e-06
9.43926e-07 -1.64298e-06 -2.90605e-05
0.000659358 4.52955e-05 6.81374e-09
4.52955e-05 -2.24528e-05 -1.35273e-08
6.81374e-09 -1.35273e-08 -3.55488e-05
0.00211161 6.50285e-05 -2.48519e-05
6.50285e-05 0.000798996 3.28415e-06
-2.48519e-05 3.28415e-06 0.000811507
0.000676332 4.00749e-05 1.14223e-06
4.00749e-05 -2.18155e-05 -3.35434e-06
1.14223e-06 -3.35434e-06 -3.27574e-05
0.00212718 5.73701e-05 1.64323e-06
5.73701e-05 0.00080023 1.12484e-07
1.64323e-06 1.12484e-07 0.000814537
0.00214654 4.93819e-05 1.94365e-05
4.93819e-05 0.000804371 -3.7027e-06
1.94365e-05 -3.7027e-06 0.000820215
0.000811696 1.03845e-05 2.05899e-08
1.03845e-05 7.34473e-05 -4.71229e-07
2.05899e-08 -4.71229e-07 -7.83915e-06
0.000803601 4.19294e-05 -9.51097e-07
4.19294e-05 6.40739e-05 -8.60683e-07
-9.51097e-07 -8.60683e-07 -9.51368e-06
0.000722981 -2.06999e-05 -8.0719e-07
-2.06999e-05 -1.81623e-07 -1.78835e-06
-8.0719e-07 -1.78835e-06 -4.3972e-05
0.000790545 3.41241e-05 -7.71467e-08
3.41241e-05 5.00197e-05 -1.10733e-08
-7.71467e-08 -1.10733e-08 -1.73929e-05
0.000665717 -3.22203e-05 -3.38349e-07
-3.22203e-05 -3.6137e-05 -3.75129e-06
-3.38349e-07 -3.75129e-06 -4.7866e-05
0.000730308 -1.36666e-05 -1.23236e-07
-1.36666e-05 3.27572e-06 -1.44872e-08
-1.23236e-07 -1.44872e-08 -3.82736e-05
0.000758833 2.24308e-05 -2.37738e-07
2.24308e-05 3.01686e-05 5.44914e-08
-2.37738e-07 5.44914e-08 -3.34682e-05
0.00223131 -4.04053e-05 -1.68378e-05
-4.04053e-05 0.000843896 -4.23373e-06
-1.68378e-05 -4.23373e-06 0.00086079
0.000677894 -2.55065e-05 -1.69505e-07
-2.55065e-05 -3.4979e-05 -1.58086e-08
-1.69505e-07 -1.58086e-08 -4.39353e-05
0.000719476 -1.04909e-05 -1.40217e-07
-1.04909e-05 -3.48217e-06 1.07531e-06
-1.40217e-07 1.07531e-06 -4.26578e-05
0.00215528 -2.97181e-05 -2.72437e-06
-2.97181e-05 0.000796005 8.09383e-08
-2.72437e-06 8.09383e-08 0.000814871
0.000685121 -1.88013e-05 2.63836e-07
-1.88013e-05 -3.53465e-05 3.49744e-06
2.63836e-07 3.49744e-06 -4.1858e-05
0.00209598 -1.8903e-05 8.20004e-06
-1.8903e-05 0.000758837 4.45153e-06
8.20004e-06 4.45153e-06 0.00077922
0.0011557 -4.02682e-05 1.24867e-05
-4.02682e-05 0.000121421 2.13536e-05
1.24867e-05 2.13536e-05 -0.000106666
0.00126152 -7.14482e-06 -4.68024e-06
-7.14482e-06 9.90583e-05 8.1514e-06
-4.68024e-06 8.1514e-06 -7.00382e-05
0.00134152 1.26808e-05 8.55707e-06
1.26808e-05 0.000201701 -1.24293e-05
8.55707e-06 -1.24293e-05 -9.75622e-06
0.000789935 5.9786e-06 -2.28004e-07
5.9786e-06 5.66611e-05 -6.14267e-08
-2.28004e-07 -6.14267e-08 -2.20286e-05
0.000801312 -1.72561e-05 -1.85454e-07
-1.72561e-05 6.53523e-05 2.56304e-07
-1.85454e-07 2.56304e-07 -1.52117e-05
0.000766952 -2.15111e-05 -2.97037e-07
-2.15111e-05 4.87174e-05 -1.53808e-06
-2.97037e-07 -1.53808e-06 -3.60805e-05
0.000698469 -3.17854e-05 -1.9519e-07
-3.17854e-05 6.94381e-06 -6.21454e-07
-1.9519e-07 -6.21454e-07 -7.22166e-05
0.000963399 5.39691e-05 -8.53487e-07
5.39691e-05 0.000165583 -8.57772e-08
-8.53487e-07 -8.57772e-08 7.37566e-05
0.000760833 -2.81635e-05 -6.12438e-08
-2.81635e-05 3.1459e-05 -2.0907e-07
-6.12438e-08 -2.0907e-07 -4.16011e-05
0.000757467 -8.23052e-06 4.83713e-07
-8.23052e-06 3.795e-05 -8.40701e-07
4.83713e-07 -8.40701e-07 -4.56404e-05
0.000827854 1.24906e-05 -9.87091e-08
1.24906e-05 8.10109e-05 -4.23572e-08
-9.87091e-08 -4.23572e-08 -1.44285e-06
0.000884108 3.98301e-05 -9.12929e-12
3.98301e-05 0.000111593 1.74231e-07
-9.12929e-12 1.74231e-07 2.22714e-05
0.000946366 1.4907e-05 -1.65344e-07
1.4907e-05 0.000157742 5.32767e-07
-1.65344e-07 5.32767e-07 7.03156e-05
0.00192004 -5.38917e-06 7.0556e-05
-5.38917e-06 0.000395934 8.46355e-05
7.0556e-05 8.46355e-05 -0.000397617
0.00148933 2.11354e-05 4.55661e-06
2.11354e-05 0.000213 2.02519e-05
4.55661e-06 2.02519e-05 -0.000496047
0.00230172 2.08221e-05 -6.31441e-06
2.08221e-05 0.000668143 -1.87939e-05
-6.31441e-06 -1.87939e-05 0.000257382
0.00554904 -0.000374062 -2.85975e-05
-0.000374062 0.000627223 -5.39733e-05
-2.85975e-05 -5.39733e-05 0.00180066
-0.00788463 0.000243742 -3.45047e-05
0.000243742 -0.00330248 5.16298e-05
-3.45047e-05 5.16298e-05 -0.00423809
0.00408325 -0.000674534 -6.61181e-05
-0.000674534 0.00100085 5.19846e-05
-6.61181e-05 5.19846e-05 0.000240378
0.00726885 -0.000198591 -8.7529e-06
-0.000198591 0.00242982 -4.78328e-05
-8.7529e-06 -4.78328e-05 0.000526586
0.00350833 -0.000269974 -4.04952e-05
-0.000269974 0.000438217 4.31475e-05
-4.04952e-05 4.31475e-05 0.000150511
0.00968818 -0.000203118 5.8073e-05
-0.000203118 0.00414203 -1.47329e-05
5.8073e-05 -1.47329e-05 0.0016932
0.000604871 -0.000310721 2.3866e-05
-0.000310721 -0.000674348 5.14286e-06
2.3866e-05 5.14286e-06 -0.00103936
0.00111699 -0.00049407 -3.64773e-05
-0.00049407 -0.00184286 -8.40159e-05
-3.64773e-05 -8.40159e-05 -0.000581363
0.00468296 4.28056e-05 -0.000108485
4.28056e-05 0.000957358 -1.69123e-05
-0.000108485 -1.69123e-05 0.000704519
0.00793265 -0.000135835 -1.60298e-05
-0.000135835 0.00278266 4.52827e-05
-1.60298e-05 4.52827e-05 0.00105421
0.00765145 -0.000972029 -4.01174e-06
-0.000972029 0.00210262 -3.6994e-05
-4.01174e-06 -3.6994e-05 0.00221108
0.00331975 -0.000767711 1.96455e-05
-0.000767711 0.00030159 1.89347e-06
1.96455e-05 1.89347e-06 0.00172966
0.00062499 2.53849e-05 2.31792e-06
2.53849e-05 1.32376e-05 1.64938e-06
2.31792e-06 1.64938e-06 -5.33034e-05
0.000917523 -2.84534e-05 -5.51889e-08
-2.84534e-05 0.000133156 6.15427e-07
-5.51889e-08 6.15427e-07 5.27107e-05
0.000806666 1.36313e-05 -9.12995e-08
1.36313e-05 6.50009e-05 -1.17575e-06
-9.12995e-08 -1.17575e-06 -2.66258e-05
0.000206076 2.07714e-05 -2.81672e-05
2.07714e-05 6.4982e-05 1.80051e-05
-2.81672e-05 1.80051e-05 -0.00031584
0.00114886 -6.38974e-05 -3.08308e-05
-6.38974e-05 0.000534728 -8.78489e-06
-3.08308e-05 -8.78489e-06 0.000509865
0.000745398 -1.19211e-05 -1.04828e-06
-1.19211e-05 3.73185e-05 -5.7678e-07
-1.04828e-06 -5.7678e-07 -4.67945e-05
0.000503241 -3.06501e-05 -3.67584e-07
-3.06501e-05 -5.95681e-05 -5.48436e-06
-3.67584e-07 -5.48436e-06 -0.000130756
0.000753131 6.87437e-06 -3.43198e-07
6.87437e-06 8.22933e-05 -1.58015e-06
-3.43198e-07 -1.58015e-06 6.6944e-06
0.000449423 -6.80012e-06 -1.98069e-06
-6.80012e-06 0.000103669 4.13087e-06
-1.98069e-06 4.13087e-06 2.85539e-05
6.52346e-05 -1.73403e-05 4.65917e-05
-1.73403e-05 0.000559978 -3.45876e-05
4.65917e-05 -3.45876e-05 -0.00035909
-0.000721387 -1.37725e-05 -8.21794e-06
-1.37725e-05 -0.000544472 8.53282e-06
-8.21794e-06 8.53282e-06 -0.000627471
0.00113578 0.000125235 -6.85276e-06
0.000125235 0.000535739 -3.16665e-05
-6.85276e-06 -3.16665e-05 5.97244e-06
0.00139858 -5.28001e-06 5.30814e-05
-5.28001e-06 0.000129039 6.96365e-06
5.30814e-05 6.96365e-06 -0.000333737
0.00115849 -1.1687e-05 7.89086e-06
-1.1687e-05 0.000129342 2.00557e-06
7.89086e-06 2.00557e-06 9.3362e-07
0.00069649 -8.99779e-06 8.14275e-07
-8.99779e-06 -0.000172399 -4.36567e-07
8.14275e-07 -4.36567e-07 -0.000228817
-0.00152045 -4.27199e-05 -3.73528e-05
-4.27199e-05 -0.000456396 1.19906e-05
-3.73528e-05 1.19906e-05 -0.000816927
0.00263266 3.39495e-05 8.82324e-07
3.39495e-05 -3.79795e-05 -3.97267e-05
8.82324e-07 -3.97267e-05 -0.000162507
0.00137989 1.00236e-05 -5.60651e-06
1.00236e-05 0.000212066 1.19589e-05
-5.60651e-06 1.19589e-05 1.75313e-05
0.0127647 -0.000367944 9.87741e-05
-0.000367944 0.0055141 -9.18716e-06
9.87741e-05 -9.18716e-06 0.00301176
0.00519845 0.000697061 -4.37382e-05
0.000697061 0.00129832 2.41491e-06
-4.37382e-05 2.41491e-06 0.00123024
0.00265911 -2.96308e-05 -4.43808e-05
-2.96308e-05 0.000538949 5.64637e-05
-4.43808e-05 5.64637e-05 -0.000274515
-0.00432088 0.000868294 9.19192e-05
0.000868294 -0.00317976 -9.72722e-05
9.19192e-05 -9.72722e-05 -0.00136244
0.000532259 -3.32871e-05 -7.68232e-06
-3.32871e-05 0.000219081 -1.1975e-06
-7.68232e-06 -1.1975e-06 0.000126848
0.00148493 -2.905e-06 -8.65122e-06
-2.905e-06 0.000129391 2.74874e-06
-8.65122e-06 2.74874e-06 -0.000357581
-0.00179396 0.000267573 -9.12414e-05
0.000267573 -0.000162976 3.84271e-05
-9.12414e-05 3.84271e-05 -0.000326142
0.00189303 -0.000293492 -2.48107e-05
-0.000293492 -0.000193795 2.97769e-05
-2.48107e-05 2.97769e-05 -0.000389991
0.00666927 0.00101979 2.11124e-05
0.00101979 0.00229052 2.22922e-05
2.11124e-05 2.22922e-05 0.00272701
0.00692073 -0.000269962 5.16659e-05
-0.000269962 0.00263087 -2.98201e-05
5.16659e-05 -2.98201e-05 0.000467932
0.00161746 -0.00020328 1.69078e-05
-0.00020328 0.000283296 1.8377e-05
1.69078e-05 1.8377e-05 0.000445981
-0.00181256 2.3217e-05 3.97354e-05
2.3217e-05 8.93951e-05 -9.0708e-06
3.97354e-05 -9.0708e-06 -0.000607523
0.0032053 0.000693523 -6.83926e-05
0.000693523 0.00162623 3.05723e-05
-6.83926e-05 3.05723e-05 0.00173139
0.00388285 9.38084e-05 -8.78492e-05
9.38084e-05 0.00119809 7.00065e-05
-8.78492e-05 7.00065e-05 -0.00101631
0.00268724 -0.000613383 2.52675e-05
-0.000613383 0.000195656 1.16668e-06
2.52675e-05 1.16668e-06 -0.00038141
0.000636601 -1.49268e-05 7.89571e-06
-1.49268e-05 0.000385625 1.04557e-05
7.89571e-06 1.04557e-05 0.000226599
0.000563157 -0.0001543 -2.52525e-06
-0.0001543 0.000135652 8.96746e-07
-2.52525e-06 8.96746e-07 -1.5465e-05
0.00259589 -0.00029173 2.11212e-05
-0.00029173 0.00076292 1.11114e-06
2.11212e-05 1.11114e-06 0.000733575
-0.00136303 -1.33249e-05 -5.13334e-06
-1.33249e-05 -0.000812053 6.64035e-06
-5.13334e-06 6.64035e-06 -0.00105087
0.000771605 -0.000184693 4.61079e-06
-0.000184693 3.68914e-05 -6.01611e-07
4.61079e-06 -6.01611e-07 -0.000189454
0.000809006 -0.000244933 4.56659e-06
-0.000244933 -0.000245953 -2.11316e-06
4.56659e-06 -2.11316e-06 -0.000412654
0.00197919 -0.000231522 -5.80912e-06
-0.000231522 0.000718893 1.49447e-06
-5.80912e-06 1.49447e-06 0.000458955
0.00119313 -0.000226497 -2.4035e-06
-0.000226497 0.000121833 -2.31996e-06
-2.4035e-06 -2.31996e-06 -0.000115028
0.00151663 -0.000277005 5.25149e-06
-0.000277005 7.75307e-05 -2.17064e-06
5.25149e-06 -2.17064e-06 -8.87048e-05
0.00183905 -0.000244239 -2.60866e-06
-0.000244239 0.000519989 -8.22136e-07
-2.60866e-06 -8.22136e-07 0.000279149
0.00152923 -0.000243998 -1.82525e-07
-0.000243998 0.000191107 -2.00356e-06
-1.82525e-07 -2.00356e-06 -2.18439e-05
0.0016849 -0.000245214 6.83609e-07
-0.000245214 0.000126276 -2.85551e-06
6.83609e-07 -2.85551e-06 -2.93469e-05
0.00156035 -0.000199606 2.71589e-07
-0.000199606 8.14839e-05 -1.64429e-06
2.71589e-07 -1.64429e-06 -6.14039e-05
0.00157945 -0.000224949 -1.1912e-07
-0.000224949 0.000221787 -1.14872e-06
-1.1912e-07 -1.14872e-06 3.28225e-05
0.00152725 -0.000227935 1.49698e-06
-0.000227935 0.000122857 1.9799e-07
1.49698e-06 1.9799e-07 -4.87973e-05
0.00151122 -0.000203447 -1.54217e-06
-0.000203447 0.000336224 4.41242e-06
-1.54217e-06 4.41242e-06 0.000153181
0.0014689 -0.000213697 -4.19612e-08
-0.000213697 0.000276727 2.81881e-07
-4.19612e-08 2.81881e-07 6.79544e-05
0.0014414 -0.000224323 -7.6095e-07
-0.000224323 0.000204437 -1.69976e-06
-7.6095e-07 -1.69976e-06 -1.74126e-05
0.000977348 -0.00014774 1.35838e-06
-0.00014774 0.000135609 -1.21377e-06
1.35838e-06 -1.21377e-06 -8.37765e-06
0.000666551 -0.00013227 -3.03111e-07
-0.00013227 -4.02733e-05 -1.77182e-06
-3.03111e-07 -1.77182e-06 -0.000188281
0.00123772 -0.000172586 4.0776e-06
-0.000172586 0.000257797 -4.46078e-06
4.0776e-06 -4.46078e-06 9.37156e-05
0.000824972 -7.87113e-05 3.78641e-07
-7.87113e-05 8.4424e-05 1.18332e-06
3.78641e-07 1.18332e-06 -3.31122e-05
0.000888537 -0.000123025 2.64531e-07
-0.000123025 0.000128738 4.6123e-07
2.64531e-07 4.6123e-07 -1.05481e-05
0.000882745 -0.000134458 -7.71013e-07
-0.000134458 0.000123461 1.08007e-06
-7.71013e-07 1.08007e-06 -2.38052e-05
0.000670716 8.09747e-05 1.46998e-06
8.09747e-05 1.15607e-05 3.00919e-06
1.46998e-06 3.00919e-06 -6.04898e-05
0.000811107 -1.12264e-05 1.11678e-07
-1.12264e-05 9.22921e-05 -9.27306e-08
1.11678e-07 -9.27306e-08 -1.09597e-05
0.000877103 -7.05454e-05 -1.01568e-06
-7.05454e-05 0.000139685 1.62024e-07
-1.01568e-06 1.62024e-07 2.15953e-05
0.00130538 6.9377e-05 -1.37653e-05
6.9377e-05 0.000360139 2.98688e-06
-1.37653e-05 2.98688e-06 0.000343037
0.000685658 5.22996e-05 -4.32596e-07
5.22996e-05 8.06074e-06 -4.03333e-07
-4.32596e-07 -4.03333e-07 -4.62927e-05
0.000800033 -1.28575e-05 1.10038e-07
-1.28575e-05 7.73105e-05 -1.47065e-06
1.10038e-07 -1.47065e-06 -7.02244e-06
0.00078699 3.98678e-05 -2.36731e-05
3.98678e-05 6.49442e-05 3.22434e-06
-2.36731e-05 3.22434e-06 6.97776e-05
0.00100869 5.83919e-05 -6.5453e-06
5.83919e-05 0.000183096 2.67823e-07
-6.5453e-06 2.67823e-07 0.000168464
0.000705726 5.19426e-05 1.5531e-07
5.19426e-05 1.12679e-05 -1.92207e-06
1.5531e-07 -1.92207e-06 -3.42891e-05
0.000679958 4.6727e-05 1.12112e-06
4.6727e-05 -1.0969e-05 -3.37572e-06
1.12112e-06 -3.37572e-06 -2.42292e-05
0.00213585 6.60731e-05 1.36713e-06
6.60731e-05 0.000813641 1.14139e-07
1.36713e-06 1.14139e-07 0.000825826
0.00213936 5.81792e-05 2.2706e-05
5.81792e-05 0.000808102 -3.41642e-06
2.2706e-05 -3.41642e-06 0.00082219
0.000744907 -1.33355e-05 1.99386e-07
-1.33355e-05 3.38047e-05 -1.02725e-06
1.99386e-07 -1.02725e-06 -4.85626e-05
0.000805095 2.38881e-05 -4.5301e-07
2.38881e-05 6.42877e-05 -1.33819e-06
-4.5301e-07 -1.33819e-06 -1.00504e-05
0.000788704 -1.47962e-05 1.21717e-07
-1.47962e-05 5.78213e-05 -7.0196e-08
1.21717e-07 -7.0196e-08 -2.14536e-05
0.000724858 -3.22255e-05 -9.14161e-07
-3.22255e-05 4.66527e-06 -2.00381e-06
-9.14161e-07 -2.00381e-06 -4.15002e-05
0.000794172 1.29344e-05 6.88902e-07
1.29344e-05 5.3144e-05 -4.96545e-08
6.88902e-07 -4.96545e-08 -1.60016e-05
0.000654208 -3.81416e-05 -5.03226e-07
-3.81416e-05 -3.63455e-05 -3.8982e-06
-5.03226e-07 -3.8982e-06 -5.07067e-05
0.000725492 -1.74317e-05 -1.60224e-07
-1.74317e-05 1.97259e-06 1.26715e-09
-1.60224e-07 1.26715e-09 -4.19451e-05
0.000807799 4.68734e-05 9.77807e-07
4.68734e-05 6.75725e-05 6.78397e-07
9.77807e-07 6.78397e-07 -5.30037e-06
0.00229743 -4.99931e-05 -2.14739e-05
-4.99931e-05 0.000886537 -4.06812e-06
-2.14739e-05 -4.06812e-06 0.000901506
0.000665454 -3.15741e-05 -2.97812e-07
-3.15741e-05 -3.63835e-05 -5.82126e-09
-2.97812e-07 -5.82126e-09 -4.80096e-05
0.000739003 -1.40636e-05 3.56615e-07
-1.40636e-05 8.67226e-06 1.80582e-06
3.56615e-07 1.80582e-06 -3.3016e-05
0.00221388 -3.9692e-05 -2.54687e-06
-3.9692e-05 0.000833503 1.04543e-07
-2.54687e-06 1.04543e-07 0.000850658
0.000675757 -2.50145e-05 2.77999e-07
-2.50145e-05 -3.62175e-05 3.58734e-06
2.77999e-07 3.58734e-06 -4.50857e-05
0.00214077 -2.88773e-05 1.19874e-05
-2.88773e-05 0.000787297 4.36965e-06
1.19874e-05 4.36965e-06 0.000806402
0.00208752 -4.87898e-05 5.34051e-05
-4.87898e-05 0.000489613 2.94866e-05
5.34051e-05 2.94866e-05 7.09883e-05
0.00121109 -3.59923e-05 5.72605e-07
-3.59923e-05 0.000150722 6.85082e-06
5.72605e-07 6.85082e-06 -6.77922e-05
0.00108488 -1.01164e-05 -4.36082e-06
-1.01164e-05 1.26291e-05 -5.15709e-06
-4.36082e-06 -5.15709e-06 -0.000135643
0.00087611 5.58839e-05 -1.38345e-06
5.58839e-05 0.000120425 -5.06664e-07
-1.38345e-06 -5.06664e-07 2.62009e-05
0.000855837 1.88922e-06 1.74501e-07
1.88922e-06 9.28909e-05 7.5092e-08
1.74501e-07 7.5092e-08 1.47036e-05
0.000771263 -2.63424e-05 1.06265e-07
-2.63424e-05 4.8495e-05 3.96709e-07
1.06265e-07 3.96709e-07 -3.2345e-05
0.000843102 -1.99702e-05 9.8253e-08
-1.99702e-05 8.40768e-05 -1.30211e-07
9.8253e-08 -1.30211e-07 6.27829e-06
0.000873224 9.69699e-06 1.16889e-07
9.69699e-06 0.000108033 -3.19968e-07
1.16889e-07 -3.19968e-07 2.18335e-05
0.000853172 3.62345e-05 2.0489e-07
3.62345e-05 0.000103078 6.65416e-07
2.0489e-07 6.65416e-07 1.27187e-05
0.000870357 2.48021e-05 -4.10353e-07
2.48021e-05 0.000113767 -1.47704e-06
-4.10353e-07 -1.47704e-06 1.85505e-05
0.000619333 -2.40678e-05 2.3686e-07
-2.40678e-05 -2.88449e-05 -9.38921e-08
2.3686e-07 -9.38921e-08 -0.000114392
0.000826595 6.13801e-05 2.8249e-07
6.13801e-05 8.33166e-05 -4.21041e-07
2.8249e-07 -4.21041e-07 -1.25845e-06
0.000837742 -4.18638e-05 7.54417e-07
-4.18638e-05 7.32688e-05 -7.73669e-07
7.54417e-07 -7.73669e-07 -7.09518e-06
0.000847876 8.82322e-06 -1.79329e-07
8.82322e-06 9.96314e-05 1.27764e-07
-1.79329e-07 1.27764e-07 1.52714e-05
0.00133563 2.94638e-05 4.2768e-06
2.94638e-05 0.000392782 1.95515e-06
4.2768e-06 1.95515e-06 0.000310175
0.00122219 -0.000368154 6.19421e-05
-0.000368154 0.000939307 5.97434e-05
6.19421e-05 5.97434e-05 0.000844836
0.00216714 6.01502e-06 4.13681e-06
6.01502e-06 0.000520953 1.84859e-05
4.13681e-06 1.84859e-05 -0.000303608
0.00168339 2.88548e-05 -1.23919e-05
2.88548e-05 0.000242541 -3.42932e-05
-1.23919e-05 -3.42932e-05 -0.000473683
0.00483515 -0.00063554 -7.80191e-05
-0.00063554 0.000111245 -6.68504e-05
-7.80191e-05 -6.68504e-05 0.00146789
0.00389263 -0.000232834 -7.39051e-06
-0.000232834 0.000422139 2.00964e-05
-7.39051e-06 2.00964e-05 -1.45399e-06
0.000725183 -0.000366734 -9.06304e-05
-0.000366734 -0.00023983 5.90377e-05
-9.06304e-05 5.90377e-05 -0.00224883
0.00299058 -0.000209006 -5.07381e-05
-0.000209006 0.000376062 9.21505e-05
-5.07381e-05 9.21505e-05 -6.4796e-05
0.00416844 -0.00018919 -3.29717e-06
-0.00018919 0.000737075 3.50987e-05
-3.29717e-06 3.50987e-05 0.000632845
-0.000555585 -0.000764457 8.56784e-06
-0.000764457 -0.00139397 2.00664e-05
8.56784e-06 2.00664e-05 0.000173345
0.00530786 0.000148176 7.52909e-06
0.000148176 0.00229093 1.84961e-05
7.52909e-06 1.84961e-05 -0.000187764
0.00105132 -0.000478611 -6.13347e-06
-0.000478611 -0.00121884 1.3692e-05
-6.13347e-06 1.3692e-05 -0.000936412
0.00236949 0.00020478 -4.14903e-05
0.00020478 6.05779e-05 -9.50628e-06
-4.14903e-05 -9.50628e-06 -0.000147541
0.00874366 -0.000297652 -3.7344e-05
-0.000297652 0.00387726 3.71634e-05
-3.7344e-05 3.71634e-05 0.00184012
-0.000133891 -0.000566563 -6.01414e-05
-0.000566563 -0.00049331 -4.64368e-05
-6.01414e-05 -4.64368e-05 -3.1243e-05
0.000540447 0.000153858 5.91212e-07
0.000153858 -5.04395e-05 -2.6743e-06
5.91212e-07 -2.6743e-06 -0.000118766
0.000927499 3.41737e-05 4.60455e-06
3.41737e-05 0.000171615 -2.17438e-08
4.60455e-06 -2.17438e-08 0.000106523
0.000949241 -9.4563e-06 -8.15907e-07
-9.4563e-06 0.000154627 -3.09017e-07
-8.15907e-07 -3.09017e-07 7.31122e-05
-0.000743901 -9.09057e-06 -5.44215e-05
-9.09057e-06 1.663e-05 -1.29709e-05
-5.44215e-05 -1.29709e-05 -0.000845638
-0.000828724 3.91802e-05 4.99074e-06
3.91802e-05 -0.000592512 -6.80435e-06
4.99074e-06 -6.80435e-06 -0.000671306
0.000815338 3.78117e-05 3.1827e-07
3.78117e-05 0.000118891 -2.52932e-06
3.1827e-07 -2.52932e-06 4.07854e-05
0.000795015 9.4188e-05 3.28607e-06
9.4188e-05 0.000214776 2.01104e-06
3.28607e-06 2.01104e-06 0.000123702
0.000767379 0.000163744 2.1395e-06
0.000163744 0.000277851 -2.21821e-05
2.1395e-06 -2.21821e-05 -0.000140458
0.000460838 0.000236934 1.66236e-05
0.000236934 -0.000129237 5.3054e-06
1.66236e-05 5.3054e-06 -0.000298514
0.000262712 1.56392e-06 9.42852e-05
1.56392e-06 0.00127622 6.73699e-07
9.42852e-05 6.73699e-07 0.000587884
0.00144588 -2.22338e-05 -5.38014e-06
-2.22338e-05 0.000209708 6.40169e-06
-5.38014e-06 6.40169e-06 -0.000174589
0.000914207 -1.0027e-05 -1.37003e-06
-1.0027e-05 1.20818e-05 1.43796e-06
-1.37003e-06 1.43796e-06 -0.000100468
0.000962599 -4.91922e-05 -2.16728e-05
-4.91922e-05 0.000462184 5.56942e-06
-2.16728e-05 5.56942e-06 0.000370732
0.00101462 -0.000209634 1.58143e-06
-0.000209634 -0.00083791 -2.18432e-05
1.58143e-06 -2.18432e-05 -0.000810193
0.00169056 2.25184e-06 -6.75831e-05
2.25184e-06 0.00027421 1.80366e-05
-6.75831e-05 1.80366e-05 -0.000216106
-0.000688968 -0.000369884 3.19803e-05
-0.000369884 -0.000818802 -3.75162e-05
3.19803e-05 -3.75162e-05 -0.00302404
-0.00318504 0.000502439 9.56786e-06
0.000502439 -0.00274894 -3.4114e-05
9.56786e-06 -3.4114e-05 -0.00217622
0.00149212 0.00039413 -7.83165e-05
0.00039413 0.00123524 6.09708e-05
-7.83165e-05 6.09708e-05 0.00140806
0.0017602 -0.000118891 -3.49954e-06
-0.000118891 0.000214737 3.01327e-06
-3.49954e-06 3.01327e-06 0.000499573
0.00140583 0.000147979 3.41249e-06
0.000147979 0.00156707 6.15595e-06
3.41249e-06 6.15595e-06 0.00122628
-0.00377627 0.000326376 2.61428e-05
0.000326376 -0.00131767 6.8819e-07
2.61428e-05 6.8819e-07 -0.00173067
0.00415637 -0.000659979 3.90306e-07
-0.000659979 0.00116947 1.30543e-06
3.90306e-07 1.30543e-06 0.00021706
0.00854447 0.000235423 1.45709e-05
0.000235423 0.00330978 -1.07477e-06
1.45709e-05 -1.07477e-06 0.00159271
0.000588422 -0.000217156 1.81505e-06
-0.000217156 -0.000302674 1.57781e-05
1.81505e-06 1.57781e-05 -0.00021604
-0.00617586 0.000148564 -7.14565e-05
0.000148564 -0.00312031 1.501e-06
-7.14565e-05 1.501e-06 -0.00331432
0.00670137 0.000162792 -1.38459e-05
0.000162792 0.00225834 7.54478e-06
-1.38459e-05 7.54478e-06 0.000830245
0.00547913 -0.000631176 -1.88761e-07
-0.000631176 0.00092213 1.617e-05
-1.88761e-07 1.617e-05 3.83115e-05
-3.83861e-05 -0.000123989 -1.81492e-05
-0.000123989 -0.000146668 1.2408e-05
-1.81492e-05 1.2408e-05 -0.00033746
0.00123788 -0.000216068 -1.24244e-06
-0.000216068 5.15755e-05 7.41221e-07
-1.24244e-06 7.41221e-07 7.00963e-05
0.00202978 -0.000249607 1.40859e-05
-0.000249607 0.000216892 -2.55006e-06
1.40859e-05 -2.55006e-06 0.000267418
-1.49908e-05 -0.000124767 -5.53256e-06
-0.000124767 -0.000336862 3.68108e-07
-5.53256e-06 3.68108e-07 -0.000570252
0.00120253 -0.00026657 -3.88732e-06
-0.00026657 -3.68653e-05 -1.25021e-06
-3.88732e-06 -1.25021e-06 -0.000208034
0.00191107 -0.000314259 3.17047e-06
-0.000314259 0.000149802 -1.4637e-07
3.17047e-06 -1.4637e-07 3.20067e-05
0.00163431 -0.000250867 -6.09598e-06
-0.000250867 0.000348746 -1.7285e-06
-6.09598e-06 -1.7285e-06 0.000119246
0.00157577 -0.000276585 2.05006e-06
-0.000276585 0.000119583 4.2602e-07
2.05006e-06 4.2602e-07 -5.0087e-05
0.00189896 -0.000254877 7.26105e-07
-0.000254877 0.000171722 -3.95296e-06
7.26105e-07 -3.95296e-06 4.52971e-05
0.00162221 -0.000248202 -3.86272e-06
-0.000248202 0.000235988 2.79153e-07
-3.86272e-06 2.79153e-07 2.79281e-05
0.00163155 -0.000240642 7.7396e-08
-0.000240642 9.69048e-05 5.09573e-07
7.7396e-08 5.09573e-07 -5.78737e-05
0.00176721 -0.000204104 7.15476e-09
-0.000204104 0.000130707 -3.94579e-06
7.15476e-09 -3.94579e-06 1.04856e-05
0.00164756 -0.000171167 -3.04848e-07
-0.000171167 0.000100721 -2.19319e-06
-3.04848e-07 -2.19319e-06 -2.28461e-05
0.00180134 -0.000211146 -4.7273e-07
-0.000211146 0.000254633 -1.3436e-06
-4.7273e-07 -1.3436e-06 9.74077e-05
0.00159335 -0.000199441 1.97426e-07
-0.000199441 0.000100119 2.59388e-07
1.97426e-07 2.59388e-07 -4.19497e-05
0.00101016 -0.000179195 -2.26068e-06
-0.000179195 -3.30619e-05 8.74579e-07
-2.26068e-06 8.74579e-07 -0.000213621
0.0015609 -0.000219967 2.00115e-06
-0.000219967 0.000213444 -5.40842e-07
2.00115e-06 -5.40842e-07 2.76564e-05
0.00148995 -0.000224134 2.13572e-06
-0.000224134 0.000105206 2.09767e-06
2.13572e-06 2.09767e-06 -6.56582e-05
0.00108553 -0.000164544 3.13294e-07
-0.000164544 0.000143096 1.93723e-06
3.13294e-07 1.93723e-06 -1.4407e-05
0.00101141 -0.000169836 1.59329e-06
-0.000169836 7.10091e-05 -8.53064e-07
1.59329e-06 -8.53064e-07 -0.000108803
0.00069217 -0.000163324 -3.63689e-07
-0.000163324 -0.000138662 -3.06059e-06
-3.63689e-07 -3.06059e-06 -0.000349078
0.000931576 -0.00012788 -1.47142e-06
-0.00012788 0.000108303 2.04273e-07
-1.47142e-06 2.04273e-07 -1.69976e-05
0.00106091 -0.000152709 -6.81536e-08
-0.000152709 0.000177475 -7.85838e-07
-6.81536e-08 -7.85838e-07 3.30951e-05
0.000784169 -0.000138653 -1.30259e-06
-0.000138653 2.7918e-05 -3.73122e-06
-1.30259e-06 -3.73122e-06 -0.000116918
0.00075131 -4.52603e-06 2.60219e-07
-4.52603e-06 4.43567e-05 3.28665e-06
2.60219e-07 3.28665e-06 -3.96647e-05
0.000921295 -7.98274e-05 1.01479e-06
-7.98274e-05 0.0001358 4.24444e-07
1.01479e-06 4.24444e-07 1.79945e-05
0.00071626 -9.89011e-05 -7.35925e-07
-9.89011e-05 3.45012e-05 1.24994e-06
-7.35925e-07 1.24994e-06 -0.000101779
0.000547998 6.62342e-05 -3.53595e-09
6.62342e-05 -5.36264e-05 4.66914e-06
-3.53595e-09 4.66914e-06 -8.24188e-05
0.000698126 2.01399e-05 -6.62224e-07
2.01399e-05 1.85005e-05 -4.19554e-07
-6.62224e-07 -4.19554e-07 -5.01871e-05
0.000897932 -3.7102e-05 -1.75981e-07
-3.7102e-05 0.000141347 -1.66743e-06
-1.75981e-07 -1.66743e-06 3.53199e-05
0.00221848 9.11581e-05 -9.48416e-06
9.11581e-05 0.00087827 1.23637e-06
-9.48416e-06 1.23637e-06 0.000883328
0.000641379 5.97091e-05 -6.25921e-08
5.97091e-05 -1.1315e-05 -1.01135e-07
-6.25921e-08 -1.01135e-07 -3.30031e-05
0.000691535 3.22858e-05 1.19665e-06
3.22858e-05 8.29525e-06 -2.31518e-06
1.19665e-06 -2.31518e-06 -4.46183e-05
0.0021628 7.3924e-05 1.4456e-06
7.3924e-05 0.000837098 1.17019e-07
1.4456e-06 1.17019e-07 0.000847073
0.000681404 5.40188e-05 8.86842e-07
5.40188e-05 2.6323e-08 -3.57547e-06
8.86842e-07 -3.57547e-06 -1.67414e-05
0.00216368 6.69267e-05 2.62371e-05
6.69267e-05 0.000830265 -3.13644e-06
2.62371e-05 -3.13644e-06 0.00084216
0.000884841 4.65004e-05 -3.9477e-07
4.65004e-05 0.000116796 -1.71757e-07
-3.9477e-07 -1.71757e-07 2.75383e-05
0.000786363 1.06595e-07 -5.56933e-08
1.06595e-07 5.67644e-05 -2.8963e-07
-5.56933e-08 -2.8963e-07 -2.63596e-05
0.00078893 7.99642e-06 -2.43672e-07
7.99642e-06 6.10959e-05 -1.72112e-06
-2.43672e-07 -1.72112e-06 -1.93043e-05
0.000714828 -3.67524e-05 -8.9144e-07
-3.67524e-05 4.46358e-06 -2.34317e-06
-8.9144e-07 -2.34317e-06 -4.39534e-05
0.000766213 -4.72352e-06 8.39808e-07
-4.72352e-06 4.29981e-05 -6.54008e-08
8.39808e-07 -6.54008e-08 -3.05863e-05
0.000744933 -6.51503e-07 5.36373e-07
-6.51503e-07 3.65036e-05 6.0867e-07
5.36373e-07 6.0867e-07 -4.51626e-05
0.00065203 -4.37019e-05 -9.3644e-07
-4.37019e-05 -3.09692e-05 -4.0437e-06
-9.3644e-07 -4.0437e-06 -4.75995e-05
0.000719754 -2.50241e-05 -1.801e-07
-2.50241e-05 1.68694e-06 5.701e-09
-1.801e-07 5.701e-09 -4.41697e-05
0.000772556 4.87573e-06 1.20201e-06
4.87573e-06 4.02863e-05 7.97746e-07
1.20201e-06 7.97746e-07 -2.78142e-05
0.00234608 -5.91231e-05 -2.59399e-05
-5.91231e-05 0.000920056 -3.8331e-06
-2.59399e-05 -3.8331e-06 0.000933103
0.000650966 -3.71282e-05 -2.60033e-07
-3.71282e-05 -3.83182e-05 1.58295e-08
-2.60033e-07 1.58295e-08 -5.25397e-05
0.000729625 -1.56806e-05 8.52057e-07
-1.56806e-05 4.69681e-06 1.86251e-06
8.52057e-07 1.86251e-06 -3.92472e-05
0.00227698 -4.94235e-05 -2.69566e-06
-4.94235e-05 0.000874456 1.31779e-07
-2.69566e-06 1.31779e-07 0.000889662
0.000661738 -3.09206e-05 2.50637e-07
-3.09206e-05 -3.85005e-05 3.73121e-06
2.50637e-07 3.73121e-06 -5.00263e-05
0.00219334 -3.88314e-05 1.58123e-05
-3.88314e-05 0.000821335 4.25305e-06
1.58123e-05 4.25305e-06 0.000838778
-0.00261759 -0.000102478 3.20319e-05
-0.000102478 -0.000292345 2.21252e-05
3.20319e-05 2.21252e-05 -0.00110282
0.00203906 -5.7839e-05 2.07707e-06
-5.7839e-05 0.00049225 8.5393e-06
2.07707e-06 8.5393e-06 7.62866e-05
0.00126135 -3.17349e-05 -8.18677e-06
-3.17349e-05 0.00017417 -7.42177e-06
-8.18677e-06 -7.42177e-06 -3.44952e-05
0.000792463 1.91164e-05 -8.13297e-07
1.91164e-05 7.12171e-05 6.2736e-07
-8.13297e-07 6.2736e-07 -1.95696e-05
0.00114449 0.000137233 5.77767e-08
0.000137233 0.000278676 6.89687e-07
5.77767e-08 6.89687e-07 0.000165564
0.000840035 2.76645e-05 -7.63172e-07
2.76645e-05 0.000104904 6.07463e-08
-7.63172e-07 6.07463e-08 6.16293e-06
0.000944924 -3.00202e-05 3.12897e-07
-3.00202e-05 0.000140312 -3.58273e-07
3.12897e-07 -3.58273e-07 6.23882e-05
0.000946088 4.12205e-05 8.53065e-07
4.12205e-05 0.000146269 4.0886e-07
8.53065e-07 4.0886e-07 6.07427e-05
0.000678356 -9.11307e-06 -3.67607e-07
-9.11307e-06 8.64544e-07 1.45757e-06
-3.67607e-07 1.45757e-06 -8.40195e-05
0.000721619 8.57854e-06 -8.04069e-07
8.57854e-06 3.19169e-05 -2.81499e-08
-8.04069e-07 -2.81499e-08 -5.87309e-05
0.000791082 1.1212e-05 1.97092e-07
1.1212e-05 6.88177e-05 -2.38146e-07
1.97092e-07 -2.38146e-07 -2.49329e-05
0.000964357 5.7542e-05 1.28166e-06
5.7542e-05 0.000186472 -1.59135e-06
1.28166e-06 -1.59135e-06 7.59201e-05
0.000898868 9.101e-05 4.53332e-06
9.101e-05 0.000103187 -5.65077e-06
4.53332e-06 -5.65077e-06 1.28948e-05
0.000824884 3.74497e-05 -1.14559e-07
3.74497e-05 8.8688e-05 -7.21752e-07
-1.14559e-07 -7.21752e-07 1.40333e-06
0.000941629 4.74351e-05 7.48147e-07
4.74351e-05 0.000177651 1.07605e-06
7.48147e-07 1.07605e-06 9.33036e-05
-0.00322458 -0.000401677 -7.86502e-05
-0.000401677 -0.00123104 1.49309e-05
-7.86502e-05 1.49309e-05 -0.00146439
-0.000971269 -0.000337687 4.45331e-05
-0.000337687 5.67915e-05 1.6723e-05
4.45331e-05 1.6723e-05 -0.000203204
0.00240292 1.52937e-06 -5.94253e-05
1.52937e-06 0.000665714 -4.80055e-05
-5.94253e-05 -4.80055e-05 -0.000189097
-0.00442876 -0.000778831 6.15601e-05
-0.000778831 -0.00308143 8.18761e-05
6.15601e-05 8.18761e-05 -0.00135303
0.00623518 -0.00070329 -6.59787e-06
-0.00070329 0.00180196 5.24242e-06
-6.59787e-06 5.24242e-06 0.00192274
0.00224904 0.000467554 5.61307e-05
0.000467554 0.000523547 -1.48156e-05
5.61307e-05 -1.48156e-05 -0.00186651
0.00316123 -0.000221397 -0.000144251
-0.000221397 0.000429077 7.8462e-05
-0.000144251 7.8462e-05 -0.000157909
0.00316403 0.00016056 -2.62971e-05
0.00016056 0.000434152 7.31301e-06
-2.62971e-05 7.31301e-06 0.000134717
0.00526287 -0.000859903 -2.57993e-05
-0.000859903 0.00232604 2.63458e-05
-2.57993e-05 2.63458e-05 0.00254326
0.00195587 0.000151844 8.67358e-06
0.000151844 0.000583933 1.01653e-05
8.67358e-06 1.01653e-05 -0.00150672
0.00250374 0.000429585 -0.000111562
0.000429585 0.000639979 -7.32299e-05
-0.000111562 -7.32299e-05 -0.000101995
0.00170768 0.000512626 -0.000157555
0.000512626 0.000126023 -6.0257e-05
-0.000157555 -6.0257e-05 -0.00184822
0.00219028 0.000366146 1.01424e-05
0.000366146 0.000586092 -1.15007e-05
1.01424e-05 -1.15007e-05 0.000436343
0.000784725 0.000153106 -3.26518e-06
0.000153106 7.4796e-05 8.92727e-07
-3.26518e-06 8.92727e-07 8.02878e-06
0.00108077 3.26805e-05 -1.42774e-06
3.26805e-05 0.000249653 -2.74678e-06
-1.42774e-06 -2.74678e-06 0.000185644
2.25863e-05 0.000141501 -3.12393e-05
0.000141501 -7.66324e-05 -1.93993e-05
-3.12393e-05 -1.93993e-05 -0.000398127
0.00172643 0.00015445 -6.97547e-06
0.00015445 0.000672268 -6.6722e-06
-6.97547e-06 -6.6722e-06 0.00057499
0.00118395 0.000291588 8.37439e-06
0.000291588 0.000157201 -1.38529e-06
8.37439e-06 -1.38529e-06 -2.42904e-07
0.00215369 0.000431749 6.49725e-05
0.000431749 0.000124809 3.31904e-05
6.49725e-05 3.31904e-05 9.05869e-05
-0.00359277 -5.05704e-05 -0.000132242
-5.05704e-05 -0.00187097 -7.29207e-06
-0.000132242 -7.29207e-06 -0.00156723
-0.000731974 -6.20342e-06 3.97338e-05
-6.20342e-06 0.000846229 7.13195e-07
3.97338e-05 7.13195e-07 0.000108177
0.00155263 -3.19089e-05 -4.92036e-05
-3.19089e-05 0.000305415 6.10015e-06
-4.92036e-05 6.10015e-06 1.46442e-06
0.00198008 -0.000178047 -4.07386e-05
-0.000178047 0.000288992 -2.23415e-05
-4.07386e-05 -2.23415e-05 0.000565366
0.00335534 -0.000668625 -5.37114e-05
-0.000668625 0.000526139 5.85208e-07
-5.37114e-05 5.85208e-07 -0.000208582
0.00161294 0.000113161 -3.94634e-05
0.000113161 0.00171532 2.20099e-05
-3.94634e-05 2.20099e-05 0.00137877
-0.00121148 -0.000183849 7.89321e-05
-0.000183849 -0.00100152 -6.70374e-05
7.89321e-05 -6.70374e-05 -0.00315267
0.00917225 0.000513964 -5.37706e-05
0.000513964 0.00460297 5.60487e-06
-5.37706e-05 5.60487e-06 0.0045037
0.00188966 -0.000349215 -8.79919e-07
-0.000349215 0.000271735 1.94998e-06
-8.79919e-07 1.94998e-06 0.000253142
-0.00096427 0.000285853 -1.19533e-06
0.000285853 -0.000372668 -4.58527e-06
-1.19533e-06 -4.58527e-06 -0.000569805
0.00315845 0.000143042 -1.75249e-05
0.000143042 0.000510567 2.36569e-05
-1.75249e-05 2.36569e-05 -0.00131046
0.00555837 -0.00064232 -3.55425e-05
-0.00064232 0.00142657 1.07907e-05
-3.55425e-05 1.07907e-05 0.000568757
-0.00089366 -0.000139683 1.32989e-05
-0.000139683 -0.000954114 -4.1618e-06
1.32989e-05 -4.1618e-06 -0.00116784
0.00833423 -0.000138953 5.42832e-05
-0.000138953 0.00250916 -3.50038e-06
5.42832e-05 -3.50038e-06 0.00157288
0.00422353 -0.000215746 2.36466e-05
-0.000215746 0.000867413 -1.55894e-05
2.36466e-05 -1.55894e-05 0.000296262
-0.000267038 -0.000135136 -1.83324e-05
-0.000135136 -0.000735174 5.32336e-06
-1.83324e-05 5.32336e-06 -0.000668506
0.00100576 -0.000211336 -1.31784e-06
-0.000211336 -0.000316755 -8.55849e-07
-1.31784e-06 -8.55849e-07 -0.000254177
0.00212239 -0.000287062 1.14882e-05
-0.000287062 9.64948e-05 -1.23396e-05
1.14882e-05 -1.23396e-05 0.00015506
0.00152096 -0.000282915 -1.00968e-05
-0.000282915 0.000133047 -1.78595e-06
-1.00968e-05 -1.78595e-06 -3.89752e-05
0.00163992 -0.000298797 -2.01641e-07
-0.000298797 3.95113e-06 8.99408e-07
-2.01641e-07 8.99408e-07 -0.000105573
0.00209423 -0.000277317 -2.20348e-06
-0.000277317 0.00015842 -6.38283e-07
-2.20348e-06 -6.38283e-07 8.84217e-05
0.00141805 -0.000263941 -1.54256e-06
-0.000263941 4.75374e-05 2.62388e-06
-1.54256e-06 2.62388e-06 -0.000124414
0.00172369 -0.000249009 -2.21953e-06
-0.000249009 7.3034e-05 -3.93376e-07
-2.21953e-06 -3.93376e-07 -5.3285e-05
0.00189087 -0.00020667 -4.6978e-07
-0.00020667 0.000103501 -1.85036e-06
-4.6978e-07 -1.85036e-06 1.14106e-05
0.00158777 -0.000236504 1.40844e-06
-0.000236504 7.2369e-05 2.94979e-06
1.40844e-06 2.94979e-06 -8.15623e-05
0.00168309 -0.000197131 -2.34775e-07
-0.000197131 8.81284e-05 -1.13383e-07
-2.34775e-07 -1.13383e-07 -3.06659e-05
0.00169259 -0.000164603 6.22803e-07
-0.000164603 7.58537e-05 -1.92841e-06
6.22803e-07 -1.92841e-06 -2.19156e-05
0.00174986 -0.000153576 2.18502e-07
-0.000153576 0.000152203 -7.90685e-07
2.18502e-07 -7.90685e-07 4.3156e-05
0.00162611 -0.000167259 -2.00024e-06
-0.000167259 9.03266e-05 1.46664e-06
-2.00024e-06 1.46664e-06 -3.08905e-05
0.00171367 -0.000173813 1.02612e-06
-0.000173813 0.000173228 -2.91083e-06
1.02612e-06 -2.91083e-06 4.07448e-05
0.00181254 -0.000206613 -1.92358e-06
-0.000206613 0.000306917 -1.15895e-06
-1.92358e-06 -1.15895e-06 0.000146841
0.0016905 -0.000205098 8.88707e-07
-0.000205098 0.000193029 6.24625e-07
8.88707e-07 6.24625e-07 3.73667e-05
0.00163045 -0.000199102 -1.00501e-06
-0.000199102 0.00012145 2.81238e-06
-1.00501e-06 2.81238e-06 -1.97281e-05
0.00090156 -0.000161708 -4.04401e-06
-0.000161708 -4.48073e-05 3.23871e-06
-4.04401e-06 3.23871e-06 -0.000211741
0.00130692 -0.000194031 6.91055e-07
-0.000194031 0.000132053 -2.93007e-07
6.91055e-07 -2.93007e-07 -4.84782e-05
0.00151737 -0.000213751 3.06798e-06
-0.000213751 0.000190741 9.92604e-08
3.06798e-06 9.92604e-08 8.23011e-06
0.000971848 -0.000140716 -1.54408e-06
-0.000140716 9.66254e-05 1.05075e-06
-1.54408e-06 1.05075e-06 -3.84312e-05
0.00112743 -0.000166061 3.31734e-07
-0.000166061 0.00016251 -2.07546e-07
3.31734e-07 -2.07546e-07 4.95867e-06
0.000594543 -0.000141664 8.1511e-08
-0.000141664 -0.000149095 -4.83591e-06
8.1511e-08 -4.83591e-06 -0.000325462
0.000761573 -6.3619e-05 -3.07991e-06
-6.3619e-05 3.39347e-05 2.67947e-06
-3.07991e-06 2.67947e-06 -6.12216e-05
0.00102929 -0.000135604 1.34903e-07
-0.000135604 0.00016028 -1.47037e-07
1.34903e-07 -1.47037e-07 3.40787e-05
0.00112922 -0.00015664 1.92693e-07
-0.00015664 0.000211323 -1.12504e-06
1.92693e-07 -1.12504e-06 6.66272e-05
0.000518875 6.41564e-05 1.67184e-06
6.41564e-05 -6.69657e-05 6.23195e-06
1.67184e-06 6.23195e-06 -0.000104862
0.000752729 -2.10859e-05 2.51682e-07
-2.10859e-05 4.71223e-05 1.61342e-07
2.51682e-07 1.61342e-07 -4.01118e-05
0.00103814 -8.87638e-05 1.215e-06
-8.87638e-05 0.000199554 -2.89557e-07
1.215e-06 -2.89557e-07 8.01536e-05
0.0024459 9.49241e-05 -3.70271e-05
9.49241e-05 0.00100958 2.4703e-06
-3.70271e-05 2.4703e-06 0.00101331
0.00060292 6.89139e-05 -2.74651e-07
6.89139e-05 -2.21936e-05 -2.96903e-07
-2.74651e-07 -2.96903e-07 -5.20314e-05
0.000719269 -1.87224e-05 2.1852e-06
-1.87224e-05 2.71413e-05 -3.20555e-06
2.1852e-06 -3.20555e-06 -4.12924e-05
0.00158748 7.0252e-05 1.50229e-05
7.0252e-05 0.000522815 -4.65549e-07
1.50229e-05 -4.65549e-07 0.000526153
0.00067264 6.37038e-05 -4.85402e-07
6.37038e-05 6.93582e-06 -4.31614e-06
-4.85402e-07 -4.31614e-06 -1.56143e-05
0.00224036 7.57993e-05 3.10414e-05
7.57993e-05 0.000881567 -2.82465e-06
3.10414e-05 -2.82465e-06 0.000890945
0.000892495 6.42618e-05 6.78771e-07
6.42618e-05 0.000119513 3.83937e-07
6.78771e-07 3.83937e-07 2.27192e-05
0.000810456 9.08627e-06 -2.5144e-07
9.08627e-06 7.15611e-05 4.89465e-07
-2.5144e-07 4.89465e-07 -1.33902e-05
0.000775192 -2.50203e-05 2.5478e-07
-2.50203e-05 5.59816e-05 -1.65359e-06
2.5478e-07 -1.65359e-06 -2.74898e-05
0.000862966 2.13281e-05 2.36303e-07
2.13281e-05 9.95257e-05 5.90296e-07
2.36303e-07 5.90296e-07 1.51029e-05
0.000768405 -2.39934e-05 4.28378e-07
-2.39934e-05 4.55393e-05 -7.04219e-08
4.28378e-07 -7.04219e-08 -3.11698e-05
0.000689152 -3.69175e-05 -8.64169e-07
-3.69175e-05 -3.53731e-06 -2.66524e-06
-8.64169e-07 -2.66524e-06 -5.55239e-05
0.000654227 -4.98135e-05 -1.17618e-06
-4.98135e-05 -2.19758e-05 -4.2427e-06
-1.17618e-06 -4.2427e-06 -4.09147e-05
0.000710935 -3.31041e-05 1.08411e-07
-3.31041e-05 2.32847e-06 -3.7235e-08
1.08411e-07 -3.7235e-08 -4.58917e-05
0.000743554 -4.33023e-05 -2.0188e-07
-4.33023e-05 2.52455e-05 1.1678e-06
-2.0188e-07 1.1678e-06 -4.37968e-05
0.00236492 -6.76086e-05 -3.0204e-05
-6.76086e-05 0.000937502 -3.52577e-06
-3.0204e-05 -3.52577e-06 0.000948752
0.000642167 -4.24315e-05 -2.62636e-07
-4.24315e-05 -3.65505e-05 3.77973e-08
-2.62636e-07 3.77973e-08 -5.30236e-05
0.000719769 -1.70866e-05 1.62841e-06
-1.70866e-05 1.69063e-06 1.99992e-06
1.62841e-06 1.99992e-06 -4.39633e-05
0.00233388 -5.87157e-05 -2.41858e-06
-5.87157e-05 0.000912589 1.51121e-07
-2.41858e-06 1.51121e-07 0.000925785
0.000648905 -3.62749e-05 5.07556e-07
-3.62749e-05 -3.95002e-05 3.91189e-06
5.07556e-07 3.91189e-06 -5.36279e-05
0.00225541 -4.8765e-05 1.95127e-05
-4.8765e-05 0.000861696 4.1069e-06
1.95127e-05 4.1069e-06 0.000877157
0.000820924 0.000170331 3.35109e-05
0.000170331 0.000947327 3.77298e-05
3.35109e-05 3.77298e-05 0.000351709
-0.000670921 -0.000154105 9.46537e-07
-0.000154105 0.000532266 7.84331e-06
9.46537e-07 7.84331e-06 -0.000169912
0.00194919 -6.6625e-05 -5.1789e-05
-6.6625e-05 0.000485968 -1.2802e-05
-5.1789e-05 -1.2802e-05 7.25665e-05
0.00073858 -1.12891e-05 3.66112e-07
-1.12891e-05 3.94674e-05 4.65233e-07
3.66112e-07 4.65233e-07 -4.86779e-05
0.000807176 4.86395e-06 2.31242e-08
4.86395e-06 8.42009e-05 6.54917e-07
2.31242e-08 6.54917e-07 -1.34336e-05
0.000965492 0.0001199 -3.10102e-07
0.0001199 0.000184722 2.88887e-07
-3.10102e-07 2.88887e-07 7.42804e-05
0.00116211 0.000158028 1.22648e-06
0.000158028 0.000267301 3.27878e-08
1.22648e-06 3.27878e-08 0.000140209
0.000935894 9.31202e-05 -1.8482e-06
9.31202e-05 0.000177608 -7.70837e-07
-1.8482e-06 -7.70837e-07 6.08774e-05
0.000816881 4.67035e-05 7.64718e-07
4.67035e-05 8.35894e-05 1.04258e-06
7.64718e-07 1.04258e-06 -8.06238e-06
0.000749157 2.03807e-05 5.24534e-07
2.03807e-05 4.48812e-05 1.06894e-06
5.24534e-07 1.06894e-06 -4.83859e-05
0.000709028 6.39889e-05 -1.26396e-06
6.39889e-05 4.46553e-05 -1.27722e-06
-1.26396e-06 -1.27722e-06 -6.19438e-05
-5.07721e-06 7.58903e-05 -3.0381e-07
7.58903e-05 -0.000346229 3.09661e-07
-3.0381e-07 3.09661e-07 -0.000466324
0.00100495 0.000138077 5.75117e-07
0.000138077 0.000150185 -4.77723e-06
5.75117e-07 -4.77723e-06 4.2433e-05
0.00204753 0.000297747 5.37e-06
0.000297747 0.000461261 -1.07471e-05
5.37e-06 -1.07471e-05 0.000307316
0.00074658 8.42319e-05 -1.89543e-06
8.42319e-05 4.44745e-05 -4.60606e-07
-1.89543e-06 -4.60606e-07 -4.41186e-05
0.000710983 1.27518e-05 -4.53926e-07
1.27518e-05 3.80866e-05 -8.26493e-07
-4.53926e-07 -8.26493e-07 -4.06248e-05
0.0108738 6.00503e-05 -4.84905e-05
6.00503e-05 0.00361054 5.32928e-07
-4.84905e-05 5.32928e-07 0.00233958
-0.00202325 -0.000309292 -6.2721e-05
-0.000309292 -0.000362506 -1.23081e-05
-6.2721e-05 -1.23081e-05 -0.000850243
0.000634008 -0.00038534 -2.01613e-05
-0.00038534 0.000644244 -2.91602e-05
-2.01613e-05 -2.91602e-05 0.000348687
-0.00356805 -0.000380468 1.35336e-05
-0.000380468 -0.00176445 3.80827e-05
1.35336e-05 3.80827e-05 -0.00155528
0.00915413 -0.000229142 8.40771e-05
-0.000229142 0.00419985 -5.97842e-06
8.40771e-05 -5.97842e-06 0.00158727
0.00285279 0.000211424 -1.4164e-05
0.000211424 0.000456996 6.61919e-06
-1.4164e-05 6.61919e-06 0.000268571
0.00156861 0.000397179 -4.47167e-05
0.000397179 3.08019e-05 -1.83853e-05
-4.47167e-05 -1.83853e-05 -0.000577951
0.00789701 -0.000205837 5.8332e-05
-0.000205837 0.00285174 1.77143e-05
5.8332e-05 1.77143e-05 0.00129488
0.00397436 0.000538212 7.05166e-06
0.000538212 0.000588301 -2.6853e-05
7.05166e-06 -2.6853e-05 -2.19748e-05
0.00201102 0.000410894 3.20903e-06
0.000410894 0.000285869 1.3703e-05
3.20903e-06 1.3703e-05 0.000128467
0.000874833 0.000256529 3.10246e-06
0.000256529 -7.65967e-06 -4.43911e-06
3.10246e-06 -4.43911e-06 -0.000162438
0.000989828 0.000145554 -1.10835e-05
0.000145554 0.000184588 6.4703e-06
-1.10835e-05 6.4703e-06 0.000121141
0.00154503 0.000329731 -2.95069e-05
0.000329731 0.000258024 -1.55457e-05
-2.95069e-05 -1.55457e-05 0.000115243
0.00136394 0.000392481 -1.67305e-05
0.000392481 -0.000228702 1.47244e-05
-1.67305e-05 1.47244e-05 -0.000287373
0.000398181 -0.000149581 -1.61941e-05
-0.000149581 -0.00188438 -4.31072e-06
-1.61941e-05 -4.31072e-06 -0.00226526
0.00209502 -0.000106738 -4.92976e-07
-0.000106738 0.00122066 -5.44439e-06
-4.92976e-07 -5.44439e-06 0.00114513
-0.00192644 -2.24931e-05 1.914e-05
-2.24931e-05 0.000348664 -3.4206e-07
1.914e-05 -3.4206e-07 -0.00048086
0.00287617 -0.000445379 -5.44671e-05
-0.000445379 0.000693026 4.78699e-06
-5.44671e-05 4.78699e-06 0.000616059
0.00380729 -0.000578282 -1.01146e-05
-0.000578282 0.000798969 -1.42188e-05
-1.01146e-05 -1.42188e-05 -0.000374938
0.000696303 -0.000130402 2.23423e-05
-0.000130402 0.000697668 1.76832e-05
2.23423e-05 1.76832e-05 0.000358885
0.00983745 0.000215941 -5.04723e-05
0.000215941 0.003937 2.99599e-05
-5.04723e-05 2.99599e-05 0.00229186
0.000664385 -0.000202922 -6.34332e-06
-0.000202922 -0.000246092 -8.61509e-07
-6.34332e-06 -8.61509e-07 -0.000381205
0.00640664 9.79942e-05 1.23342e-05
9.79942e-05 0.00150855 1.97756e-05
1.23342e-05 1.97756e-05 0.000677896
0.00366116 -0.000304081 4.43612e-05
-0.000304081 0.000294483 -1.49077e-06
4.43612e-05 -1.49077e-06 -0.000523713
0.00244152 -0.000237671 4.6598e-06
-0.000237671 0.000707331 1.63184e-06
4.6598e-06 1.63184e-06 0.000439449
0.00372825 -8.31664e-05 -8.29001e-05
-8.31664e-05 0.000856386 -1.06876e-05
-8.29001e-05 -1.06876e-05 0.000574213
8.9099e-05 -0.000176767 -1.45974e-05
-0.000176767 -0.000807822 5.05671e-06
-1.45974e-05 5.05671e-06 -0.000726353
0.00151918 -0.000271161 -1.32644e-07
-0.000271161 -0.000193627 4.14496e-07
-1.32644e-07 4.14496e-07 -0.000157212
0.00188288 -0.000193809 4.97093e-06
-0.000193809 -5.63995e-05 -1.27451e-06
4.97093e-06 -1.27451e-06 -3.86433e-05
0.00136785 -0.00028365 -2.38979e-07
-0.00028365 -0.000136745 1.92565e-06
-2.38979e-07 1.92565e-06 -0.000240564
0.0017785 -0.000252886 -7.9794e-07
-0.000252886 1.63807e-05 -2.39722e-07
-7.9794e-07 -2.39722e-07 -5.15675e-05
0.00181412 -0.000176607 -9.03316e-07
-0.000176607 -2.64829e-05 9.80656e-07
-9.03316e-07 9.80656e-07 -6.6092e-05
0.00161233 -0.000246146 -3.94714e-06
-0.000246146 7.78631e-06 2.85737e-06
-3.94714e-06 2.85737e-06 -0.000118615
0.00179183 -0.000203336 3.26268e-07
-0.000203336 4.83522e-05 1.15655e-06
3.26268e-07 1.15655e-06 -4.3506e-05
0.00184843 -0.00017195 2.07188e-06
-0.00017195 0.000104681 1.19676e-07
2.07188e-06 1.19676e-07 2.5949e-05
0.00156973 -0.000189032 9.84948e-07
-0.000189032 2.96134e-05 3.07584e-06
9.84948e-07 3.07584e-06 -8.76934e-05
0.00169798 -0.000166926 5.35425e-08
-0.000166926 7.93e-05 1.058e-06
5.35425e-08 1.058e-06 -1.94874e-05
0.00187886 -0.000154811 1.96136e-06
-0.000154811 0.000195446 -4.58014e-07
1.96136e-06 -4.58014e-07 0.000100152
0.00166595 -0.000151869 -3.11485e-06
-0.000151869 0.000104061 2.16622e-06
-3.11485e-06 2.16622e-06 -3.45294e-06
0.00172176 -0.000152399 2.54411e-06
-0.000152399 0.000167619 -1.86543e-06
2.54411e-06 -1.86543e-06 4.92411e-05
0.00160117 -0.000163627 -7.11428e-07
-0.000163627 7.73864e-05 4.76453e-06
-7.11428e-07 4.76453e-06 -4.15379e-05
0.00169741 -0.000172651 8.34176e-07
-0.000172651 0.000164259 -5.61118e-07
8.34176e-07 -5.61118e-07 3.18498e-05
0.00167503 -0.000171946 -1.21181e-06
-0.000171946 0.000191277 -1.46692e-06
-1.21181e-06 -1.46692e-06 5.26277e-05
0.00124074 -0.000172619 -4.68915e-06
-0.000172619 4.75271e-05 6.32246e-07
-4.68915e-06 6.32246e-07 -0.000110213
0.00164579 -0.000197965 5.45243e-07
-0.000197965 0.000215487 -7.25832e-07
5.45243e-07 -7.25832e-07 5.60098e-05
0.00157945 -0.000199325 1.6891e-06
-0.000199325 0.000131458 2.35095e-06
1.6891e-06 2.35095e-06 -2.26954e-05
0.00111145 -0.000157482 -3.13867e-06
-0.000157482 0.000117978 2.64943e-06
-3.13867e-06 2.64943e-06 -2.73398e-05
0.0010094 -0.000166367 -1.18346e-06
-0.000166367 1.85278e-05 1.31257e-06
-1.18346e-06 1.31257e-06 -0.000147844
0.00158903 -0.000207631 3.16917e-06
-0.000207631 0.000290034 -1.37664e-06
3.16917e-06 -1.37664e-06 0.000109577
0.000731896 -8.30847e-05 -3.60743e-06
-8.30847e-05 -6.21388e-06 2.52107e-06
-3.60743e-06 2.52107e-06 -0.00010778
0.00106494 -0.000147605 1.79199e-07
-0.000147605 0.000145409 -3.95384e-07
1.79199e-07 -3.95384e-07 9.43929e-06
0.00119003 -0.000169104 1.26594e-06
-0.000169104 0.000193301 -2.61477e-06
1.26594e-06 -2.61477e-06 3.55021e-05
0.000523557 1.79577e-05 -3.45355e-06
1.79577e-05 -7.93759e-05 6.95529e-06
-3.45355e-06 6.95529e-06 -0.000120829
0.000814597 -6.88318e-05 2.15073e-07
-6.88318e-05 6.2872e-05 2.83681e-07
2.15073e-07 2.83681e-07 -3.33733e-05
0.00110026 -0.000135278 1.65947e-06
-0.000135278 0.000196688 -5.12903e-07
1.65947e-06 -5.12903e-07 7.0929e-05
0.00278306 0.000109294 -4.55313e-05
0.000109294 0.00120019 2.39901e-06
-4.55313e-05 2.39901e-06 0.00119993
0.000582636 4.38401e-05 6.00303e-07
4.38401e-05 -3.75678e-05 -2.8755e-07
6.00303e-07 -2.8755e-07 -7.28186e-05
0.000774412 -5.593e-05 2.6083e-06
-5.593e-05 5.57941e-05 -2.84532e-06
2.6083e-06 -2.84532e-06 -3.14282e-05
0.00254407 9.55836e-05 2.00988e-06
9.55836e-05 0.00106321 1.72249e-07
2.00988e-06 1.72249e-07 0.00106675
0.000652536 5.86456e-05 3.33911e-07
5.86456e-05 2.47696e-06 -5.21231e-06
3.33911e-07 -5.21231e-06 -2.59832e-05
0.00239083 8.51296e-05 3.78905e-05
8.51296e-05 0.000972438 -2.59527e-06
3.78905e-05 -2.59527e-06 0.000979088
0.000971951 0.000136306 7.96437e-07
0.000136306 0.00015234 -6.55562e-07
7.96437e-07 -6.55562e-07 3.27481e-05
0.000835224 9.43981e-05 4.64642e-07
9.43981e-05 9.3062e-05 2.99846e-08
4.64642e-07 2.99846e-08 -7.73873e-06
0.000708199 -1.43013e-05 -4.94619e-07
-1.43013e-05 1.94097e-05 -1.01606e-06
-4.94619e-07 -1.01606e-06 -7.31734e-05
0.000723174 -2.18137e-05 -2.10035e-07
-2.18137e-05 2.26761e-05 9.73883e-07
-2.10035e-07 9.73883e-07 -6.06256e-05
0.000731066 -4.04088e-05 2.1961e-07
-4.04088e-05 3.00824e-05 8.08921e-08
2.1961e-07 8.08921e-08 -5.27428e-05
0.000664249 -3.58259e-05 -8.80477e-07
-3.58259e-05 -1.23468e-05 -2.91607e-06
-8.80477e-07 -2.91607e-06 -7.12995e-05
0.000728617 -4.57936e-05 -3.42155e-07
-4.57936e-05 2.217e-05 1.61592e-06
-3.42155e-07 1.61592e-06 -5.28161e-05
0.000689925 -4.13982e-05 3.29261e-07
-4.13982e-05 -2.35555e-06 -1.59975e-07
3.29261e-07 -1.59975e-07 -5.46599e-05
0.000650282 -5.93564e-05 -5.16823e-07
-5.93564e-05 -1.37291e-05 -4.59911e-06
-5.16823e-07 -4.59911e-06 -3.62719e-05
0.00237964 -7.60304e-05 -3.39474e-05
-7.60304e-05 0.000953305 -3.16264e-06
-3.39474e-05 -3.16264e-06 0.00096262
0.000639562 -4.81344e-05 -4.87818e-08
-4.81344e-05 -3.02917e-05 2.92273e-08
-4.87818e-08 2.92273e-08 -4.8986e-05
0.000700743 -3.02922e-05 1.80098e-06
-3.02922e-05 -3.21827e-06 2.18354e-06
1.80098e-06 2.18354e-06 -5.1236e-05
0.00236529 -6.73471e-05 -2.11515e-06
-6.73471e-05 0.000937005 1.62133e-07
-2.11515e-06 1.62133e-07 0.000948305
0.000636392 -4.12435e-05 8.22915e-07
-4.12435e-05 -3.98488e-05 4.07891e-06
8.22915e-07 4.07891e-06 -5.61907e-05
0.00231648 -5.81816e-05 2.3952e-05
-5.81816e-05 0.000902186 3.92266e-06
2.3952e-05 3.92266e-06 0.000915569
0.00911296 0.000207939 0.00010853
0.000207939 0.00275092 3.70741e-05
0.00010853 3.70741e-05 0.0018229
-0.00241614 -0.000234028 -3.43899e-05
-0.000234028 -0.00130079 -3.19238e-06
-3.43899e-05 -3.19238e-06 -0.00137731
-0.00209865 -5.79688e-05 -4.70288e-05
-5.79688e-05 -0.000151985 -9.78424e-06
-4.70288e-05 -9.78424e-06 -0.00103689
0.000754893 -3.12992e-05 9.04603e-07
-3.12992e-05 5.38834e-05 1.65445e-06
9.04603e-07 1.65445e-06 -4.31871e-05
0.000792015 0.000115188 -7.98881e-07
0.000115188 9.29967e-05 8.03405e-07
-7.98881e-07 8.03405e-07 -1.48569e-05
0.00105067 9.88253e-05 5.12793e-07
9.88253e-05 0.00024041 -3.49224e-08
5.12793e-07 -3.49224e-08 0.000123539
0.00102747 0.00014826 -1.35958e-06
0.00014826 0.000195848 7.41933e-08
-1.35958e-06 7.41933e-08 7.05645e-05
0.00110606 0.000160464 1.00237e-05
0.000160464 0.00020714 1.79968e-06
1.00237e-05 1.79968e-06 6.74966e-05
0.000494759 0.000111466 -1.14354e-06
0.000111466 -7.50953e-05 -2.14564e-07
-1.14354e-06 -2.14564e-07 -0.000197835
0.000479251 6.69959e-05 -1.03979e-06
6.69959e-05 -7.89633e-05 -4.70932e-07
-1.03979e-06 -4.70932e-07 -0.000184485
0.000482949 0.000112408 5.88341e-07
0.000112408 -8.91545e-05 6.0292e-07
5.88341e-07 6.0292e-07 -0.000217763
0.000920162 0.000121667 -1.64087e-06
0.000121667 0.000106764 -3.053e-08
-1.64087e-06 -3.053e-08 -4.6025e-06
0.000233889 0.000126751 6.15326e-07
0.000126751 -0.000324342 -1.45146e-06
6.15326e-07 -1.45146e-06 -0.000452693
0.00283692 0.000322966 -1.87086e-06
0.000322966 0.000886991 -3.63115e-06
-1.87086e-06 -3.63115e-06 0.000740684
0.00144404 0.000298085 1.57462e-06
0.000298085 7.82301e-06 6.9942e-07
1.57462e-06 6.9942e-07 -0.000144803
0.0014343 0.000260206 3.61786e-06
0.000260206 0.000161118 -2.63755e-06
3.61786e-06 -2.63755e-06 1.53851e-05
0.000728695 9.05668e-05 -5.59002e-06
9.05668e-05 5.28561e-05 4.47401e-06
-5.59002e-06 4.47401e-06 -3.48831e-05
0.00338518 0.000176259 6.60985e-06
0.000176259 8.50052e-05 5.93551e-06
6.60985e-06 5.93551e-06 -0.000183681
0.00555435 4.27382e-05 1.80802e-05
4.27382e-05 0.00119727 1.14011e-05
1.80802e-05 1.14011e-05 -6.09055e-05
0.00557283 -0.000705742 -2.64687e-05
-0.000705742 0.002878 -3.55059e-05
-2.64687e-05 -3.55059e-05 0.00279172
0.00632146 0.00015785 0.000277092
0.00015785 0.00218261 7.64098e-05
0.000277092 7.64098e-05 8.4532e-05
0.00127816 0.000359996 2.82907e-05
0.000359996 -0.0003171 3.01778e-05
2.82907e-05 3.01778e-05 -0.000512885
0.00248212 0.000404975 -7.31279e-05
0.000404975 4.57474e-05 -2.16183e-05
-7.31279e-05 -2.16183e-05 -0.000370793
0.00297689 0.000422097 5.02293e-05
0.000422097 0.000543178 2.15277e-05
5.02293e-05 2.15277e-05 0.000550953
0.00216707 0.000415683 5.40155e-07
0.000415683 0.000343478 4.96591e-06
5.40155e-07 4.96591e-06 0.00021045
0.000446789 0.000214418 -7.89508e-07
0.000214418 -0.00020897 6.38136e-06
-7.89508e-07 6.38136e-06 -0.000355282
0.00232227 0.000469429 -7.56585e-05
0.000469429 0.000245647 -4.6493e-05
-7.56585e-05 -4.6493e-05 0.000161383
0.00281392 -0.000140741 -0.000140284
-0.000140741 0.000361238 2.57307e-06
-0.000140284 2.57307e-06 -1.14094e-05
0.00868605 -0.000115789 1.10985e-05
-0.000115789 0.0027077 -1.64435e-06
1.10985e-05 -1.64435e-06 0.00211338
-0.00627717 -0.000175665 0.000135382
-0.000175665 -0.00332791 1.113e-06
0.000135382 1.113e-06 -0.00322827
0.00182525 -0.000254744 -1.09752e-05
-0.000254744 0.00029794 6.47126e-06
-1.09752e-05 6.47126e-06 0.0001933
0.0052724 -0.000353281 9.1167e-05
-0.000353281 0.00120897 5.78508e-06
9.1167e-05 5.78508e-06 0.000416299
0.000874395 -0.000331146 8.05582e-05
-0.000331146 -0.00127867 3.71351e-05
8.05582e-05 3.71351e-05 -0.00202855
0.00135458 -0.0001632 6.68688e-06
-0.0001632 0.000137881 -9.63531e-07
6.68688e-06 -9.63531e-07 -4.75558e-05
0.00159936 -2.62828e-06 -7.2342e-06
-2.62828e-06 -0.000366981 3.80062e-06
-7.2342e-06 3.80062e-06 -0.000650537
0.00505683 -0.000177641 9.99989e-06
-0.000177641 0.00185391 -3.31968e-06
9.99989e-06 -3.31968e-06 0.00174278
0.0027191 -2.22831e-07 4.91986e-05
-2.22831e-07 0.000466471 -3.64473e-06
4.91986e-05 -3.64473e-06 0.000440138
0.000713103 -0.000251021 -8.23464e-06
-0.000251021 -0.000587016 4.58876e-06
-8.23464e-06 4.58876e-06 -0.000570193
0.00181433 -0.000200831 -3.0453e-07
-0.000200831 -7.82461e-05 1.24822e-06
-3.0453e-07 1.24822e-06 -7.42057e-05
0.00178974 -9.19404e-05 6.75773e-06
-9.19404e-05 -3.54559e-05 4.69795e-07
6.75773e-06 4.69795e-07 -5.51866e-05
0.00154751 -0.000234167 1.28212e-06
-0.000234167 -8.7058e-05 2.33006e-07
1.28212e-06 2.33006e-07 -0.000152982
0.00186588 -0.000178329 1.62544e-06
-0.000178329 1.51793e-05 7.42677e-07
1.62544e-06 7.42677e-07 -3.08315e-05
0.00171458 -0.000115265 2.29624e-06
-0.000115265 5.3281e-06 9.82812e-07
2.29624e-06 9.82812e-07 -4.71319e-05
0.00170242 -0.000200276 3.917e-06
-0.000200276 -1.59955e-06 3.06716e-06
3.917e-06 3.06716e-06 -9.32507e-05
0.00181535 -0.000167551 1.10253e-06
-0.000167551 9.59022e-05 4.27586e-07
1.10253e-06 4.27586e-07 1.70114e-05
0.00193499 -0.000136502 1.71121e-06
-0.000136502 0.00020414 4.0833e-07
1.71121e-06 4.0833e-07 0.00011989
0.00170522 -0.000168753 1.14636e-07
-0.000168753 8.42121e-05 3.23339e-06
1.14636e-07 3.23339e-06 -1.55261e-05
0.00174688 -0.000153617 -5.20267e-07
-0.000153617 0.000127127 4.02892e-07
-5.20267e-07 4.02892e-07 3.055e-05
0.00161349 -0.000138942 3.50581e-06
-0.000138942 8.9945e-05 -6.42358e-07
3.50581e-06 -6.42358e-07 -2.07666e-05
0.00158757 -0.00015029 -3.34885e-06
-0.00015029 5.93132e-05 4.59506e-06
-3.34885e-06 4.59506e-06 -4.66722e-05
0.0017027 -0.00015052 -1.02754e-06
-0.00015052 0.000155816 -1.63295e-07
-1.02754e-06 -1.63295e-07 3.9205e-05
0.00167459 -0.000148235 4.76583e-07
-0.000148235 0.000180133 -6.57765e-07
4.76583e-07 -6.57765e-07 5.29194e-05
0.00170366 -0.000172433 6.15082e-07
-0.000172433 0.000168001 1.41414e-06
6.15082e-07 1.41414e-06 3.55072e-05
0.00165115 -0.000170305 6.93465e-07
-0.000170305 0.000177855 -1.94324e-07
6.93465e-07 -1.94324e-07 3.93126e-05
0.00161757 -0.000168029 -2.68201e-06
-0.000168029 0.000207764 -3.57133e-07
-2.68201e-06 -3.57133e-07 6.85717e-05
0.000896038 -0.000144318 -6.595e-06
-0.000144318 -8.01919e-05 2.38411e-06
-6.595e-06 2.38411e-06 -0.000223841
0.00127407 -0.000173215 -9.69558e-07
-0.000173215 7.12928e-05 1.93095e-07
-9.69558e-07 1.93095e-07 -8.60386e-05
0.00145917 -0.000188243 2.90278e-06
-0.000188243 0.000113092 4.54428e-07
2.90278e-06 4.54428e-07 -4.56616e-05
0.000856799 -0.000109745 -4.87914e-06
-0.000109745 2.61094e-05 3.76842e-06
-4.87914e-06 3.76842e-06 -8.50097e-05
0.00111835 -0.000157104 4.42598e-07
-0.000157104 0.000119949 3.40906e-07
4.42598e-07 3.40906e-07 -2.49369e-05
0.00111586 -0.000170968 1.23618e-06
-0.000170968 8.06382e-05 -5.91531e-07
1.23618e-06 -5.91531e-07 -8.51044e-05
0.000531226 -7.47949e-06 -6.51865e-06
-7.47949e-06 -8.24028e-05 7.57298e-06
-6.51865e-06 7.57298e-06 -0.000131804
0.000867293 -9.37127e-05 4.81637e-08
-9.37127e-05 6.83068e-05 -1.8195e-07
4.81637e-08 -1.8195e-07 -3.48713e-05
0.00114943 -0.000153837 2.46828e-06
-0.000153837 0.000189537 -2.06288e-06
2.46828e-06 -2.06288e-06 5.27318e-05
0.0032217 0.000123912 -6.00824e-05
0.000123912 0.001445 2.42113e-06
-6.00824e-05 2.42113e-06 0.00144053
0.000608229 1.06825e-05 3.58722e-07
1.06825e-05 -3.43125e-05 -1.81317e-07
3.58722e-07 -1.81317e-07 -7.65043e-05
0.000880804 -7.59145e-05 4.05389e-06
-7.59145e-05 9.77326e-05 -2.39169e-06
4.05389e-06 -2.39169e-06 9.86253e-07
0.00291196 0.000107222 2.69955e-06
0.000107222 0.0012698 2.05295e-07
2.69955e-06 2.05295e-07 0.00126985
0.000651524 4.09269e-05 3.06613e-06
4.09269e-05 3.26927e-07 -5.98741e-06
3.06613e-06 -5.98741e-06 -3.57655e-05
0.00266016 9.39031e-05 4.98453e-05
9.39031e-05 0.00112622 -2.5703e-06
4.98453e-05 -2.5703e-06 0.00113015
0.00109025 0.000153115 -1.77439e-07
0.000153115 0.000193161 -2.76415e-06
-1.77439e-07 -2.76415e-06 5.79257e-05
0.00109062 0.000144512 4.07461e-07
0.000144512 0.000217972 2.11085e-07
4.07461e-07 2.11085e-07 9.78807e-05
0.000880976 7.65238e-05 -1.33076e-06
7.65238e-05 0.000101848 -1.35763e-06
-1.33076e-06 -1.35763e-06 -4.11166e-06
0.00077342 0.000114037 -7.00009e-08
0.000114037 6.46055e-05 3.91541e-07
-7.00009e-08 3.91541e-07 -3.99072e-05
0.000698981 6.84369e-06 -5.52216e-07
6.84369e-06 1.43442e-05 -1.72564e-07
-5.52216e-07 -1.72564e-07 -8.02194e-05
0.000700207 1.58514e-05 -2.03021e-06
1.58514e-05 1.26814e-05 -2.61837e-06
-2.03021e-06 -2.61837e-06 -6.02368e-05
0.000695172 -5.81406e-05 -1.72555e-07
-5.81406e-05 1.14265e-05 1.52111e-06
-1.72555e-07 1.52111e-06 -7.26402e-05
0.000675441 -3.87423e-05 4.09836e-07
-3.87423e-05 -4.36067e-06 -3.67162e-07
4.09836e-07 -3.67162e-07 -6.42115e-05
0.000632788 -7.21986e-05 1.47215e-06
-7.21986e-05 -1.08423e-05 -5.40294e-06
1.47215e-06 -5.40294e-06 -3.94712e-05
0.000689663 -4.4473e-05 1.08284e-06
-4.4473e-05 -2.08031e-06 2.49816e-06
1.08284e-06 2.49816e-06 -5.44951e-05
0.000628237 -5.59706e-05 2.0637e-07
-5.59706e-05 -2.70909e-05 -1.8919e-08
2.0637e-07 -1.8919e-08 -4.88951e-05
0.00243263 -8.47966e-05 -3.83288e-05
-8.47966e-05 0.000990386 -2.74205e-06
-3.83288e-05 -2.74205e-06 0.000997521
0.00237922 -7.57381e-05 -1.36258e-06
-7.57381e-05 0.000952233 1.53822e-07
-1.36258e-06 1.53822e-07 0.000961612
0.000625624 -4.65413e-05 1.36172e-06
-4.65413e-05 -3.82489e-05 4.2372e-06
1.36172e-06 4.2372e-06 -5.67111e-05
0.00235849 -6.70122e-05 2.83548e-05
-6.70122e-05 0.000932563 3.68045e-06
2.83548e-05 3.68045e-06 0.000943933
0.00289248 -6.40567e-07 -4.92355e-05
-6.40567e-07 0.000244995 1.45671e-05
-4.92355e-05 1.45671e-05 5.8661e-05
0.0018806 -0.000225885 2.06897e-05
-0.000225885 -0.000846516 8.65823e-06
2.06897e-05 8.65823e-06 -0.00171629
0.00415361 -0.000393601 -4.50277e-05
-0.000393601 0.00176328 -2.56524e-05
-4.50277e-05 -2.56524e-05 0.00184426
0.00137057 0.000185375 9.97364e-06
0.000185375 0.000268174 2.49407e-06
9.97364e-06 2.49407e-06 0.000118518
0.00118569 0.000110942 6.98164e-07
0.000110942 0.000313538 4.81522e-07
6.98164e-07 4.81522e-07 0.000196704
0.000897957 0.000138853 -1.26799e-06
0.000138853 0.00012751 1.12398e-06
-1.26799e-06 1.12398e-06 3.93897e-06
0.000786738 0.000132805 5.56716e-07
0.000132805 8.31305e-05 7.64017e-07
5.56716e-07 7.64017e-07 -4.34958e-05
0.00103513 0.000156965 -3.07663e-07
0.000156965 0.000172465 -1.48951e-06
-3.07663e-07 -1.48951e-06 3.14182e-05
0.000683361 0.000143245 -4.84534e-07
0.000143245 -6.07547e-05 4.07828e-07
-4.84534e-07 4.07828e-07 -0.000183071
0.000899014 0.000144703 -8.21843e-07
0.000144703 0.000128716 -4.08861e-07
-8.21843e-07 -4.08861e-07 -7.95448e-06
0.000970712 0.000114801 -2.5848e-06
0.000114801 0.000130794 5.21784e-06
-2.5848e-06 5.21784e-06 1.54927e-05
0.000967366 0.000173482 5.39119e-07
0.000173482 6.67511e-05 3.93698e-09
5.39119e-07 3.93698e-09 -6.33198e-05
0.00225885 0.000286882 1.0169e-06
0.000286882 0.000579018 5.12535e-06
1.0169e-06 5.12535e-06 0.000431942
0.0016928 0.000283746 -2.11627e-06
0.000283746 0.000151087 -1.03017e-06
-2.11627e-06 -1.03017e-06 -3.80544e-06
0.00150024 0.000248411 1.34446e-05
0.000248411 -1.74217e-05 1.05289e-05
1.34446e-05 1.05289e-05 -0.000133388
0.00134341 0.000294414 -2.01451e-06
0.000294414 -5.33128e-05 -2.45931e-06
-2.01451e-06 -2.45931e-06 -0.000211001
0.000952116 0.000226089 9.44548e-07
0.000226089 -7.94545e-05 5.88387e-06
9.44548e-07 5.88387e-06 -0.000216183
0.00019196 0.000161016 1.10223e-05
0.000161016 -0.000493801 4.04535e-06
1.10223e-05 4.04535e-06 -0.000494371
0.00476937 0.000273337 -2.33055e-05
0.000273337 0.000596643 2.00182e-07
-2.33055e-05 2.00182e-07 0.000210786
0.000980618 -6.47057e-05 5.70771e-05
-6.47057e-05 -0.00103761 1.48036e-05
5.70771e-05 1.48036e-05 -0.00224053
0.00214415 0.000433214 5.97334e-05
0.000433214 -0.000176585 8.22672e-06
5.97334e-05 8.22672e-06 -0.000745475
0.00171067 0.000321386 -1.92819e-05
0.000321386 0.000109656 -3.14038e-06
-1.92819e-05 -3.14038e-06 9.19267e-05
0.0010061 0.000321917 -2.91461e-05
0.000321917 -0.000171308 -2.20773e-05
-2.91461e-05 -2.20773e-05 -0.000308533
0.00191826 -9.5e-05 1.60807e-05
-9.5e-05 4.09992e-05 8.22183e-07
1.60807e-05 8.22183e-07 -5.94571e-05
0.00110811 2.82522e-06 -1.6513e-05
2.82522e-06 -0.000414606 1.45901e-06
-1.6513e-05 1.45901e-06 -0.000637652
0.000311926 0.000293124 6.04913e-05
0.000293124 -0.00184508 -1.91782e-05
6.04913e-05 -1.91782e-05 -0.00247134
0.000179644 -8.16372e-05 1.39661e-06
-8.16372e-05 -0.000501027 1.33087e-05
1.39661e-06 1.33087e-05 -0.000580063
0.00242236 -2.23188e-05 1.01161e-05
-2.23188e-05 -9.9777e-05 1.48721e-05
1.01161e-05 1.48721e-05 -0.000451984
0.00159865 -0.000101174 -3.25856e-06
-0.000101174 -1.45305e-05 -8.32879e-07
-3.25856e-06 -8.32879e-07 -7.69059e-05
0.00216455 -2.59682e-05 -3.66789e-06
-2.59682e-05 0.000174989 -7.39936e-07
-3.66789e-06 -7.39936e-07 0.000126965
0.00212545 -3.80061e-05 1.65014e-05
-3.80061e-05 0.000185988 -2.02175e-06
1.65014e-05 -2.02175e-06 0.000144547
0.00266345 -2.80926e-05 1.25242e-05
-2.80926e-05 0.000567945 3.1546e-07
1.25242e-05 3.1546e-07 0.00051961
0.00190271 -0.000211994 -5.70263e-06
-0.000211994 -1.51308e-05 5.51997e-07
-5.70263e-06 5.51997e-07 -2.81609e-05
0.00193158 -0.000101689 2.83137e-06
-0.000101689 2.61081e-05 -5.74333e-07
2.83137e-06 -5.74333e-07 4.61722e-06
0.00189317 -0.000107586 1.62579e-06
-0.000107586 9.702e-05 2.26208e-07
1.62579e-06 2.26208e-07 5.15113e-05
0.00188037 -0.00017885 2.26972e-06
-0.00017885 3.71688e-05 9.66909e-07
2.26972e-06 9.66909e-07 -1.49198e-05
0.00181822 -0.000129108 7.21369e-07
-0.000129108 5.60894e-05 -7.65547e-08
7.21369e-07 -7.65547e-08 -5.06525e-07
0.00180316 -0.00011756 3.01901e-06
-0.00011756 0.00011621 2.93399e-07
3.01901e-06 2.93399e-07 4.10416e-05
0.00178636 -0.000163833 -1.72738e-06
-0.000163833 8.91395e-05 1.67932e-06
-1.72738e-06 1.67932e-06 9.9649e-06
0.00181908 -0.000139271 -1.27137e-06
-0.000139271 0.000142792 6.63894e-08
-1.27137e-06 6.63894e-08 5.73203e-05
0.00163323 -0.000121233 2.35492e-06
-0.000121233 7.84218e-05 2.43078e-07
2.35492e-06 2.43078e-07 -2.67756e-05
0.00161429 -0.00015253 -3.23666e-06
-0.00015253 5.83529e-05 1.35201e-06
-3.23666e-06 1.35201e-06 -3.95407e-05
0.00162185 -0.000139042 3.54576e-07
-0.000139042 9.64589e-05 -3.3448e-07
3.54576e-07 -3.3448e-07 -1.41598e-05
0.00155895 -0.000129673 9.57278e-07
-0.000129673 0.000100009 8.20451e-08
9.57278e-07 8.20451e-08 -2.30582e-05
0.00167785 -0.000148426 -3.77249e-06
-0.000148426 0.000140598 2.18634e-06
-3.77249e-06 2.18634e-06 2.57827e-05
0.00161836 -0.000144854 -1.59427e-07
-0.000144854 0.000146323 -3.45525e-07
-1.59427e-07 -3.45525e-07 2.02264e-05
0.00144782 -0.000138714 -2.24317e-06
-0.000138714 9.16069e-05 2.25929e-07
-2.24317e-06 2.25929e-07 -3.89461e-05
0.00162823 -0.000168775 2.17971e-06
-0.000168775 0.000164629 5.07282e-07
2.17971e-06 5.07282e-07 2.62396e-05
0.00146508 -0.000161155 6.50611e-07
-0.000161155 0.000121975 -4.21507e-07
6.50611e-07 -4.21507e-07 -1.74895e-05
0.00133773 -0.000149036 -5.80501e-06
-0.000149036 0.000109698 1.55704e-06
-5.80501e-06 1.55704e-06 -2.37127e-05
0.000982207 -0.000122805 -7.09804e-06
-0.000122805 4.07978e-05 4.30852e-06
-7.09804e-06 4.30852e-06 -7.37641e-05
0.00100893 -0.000149141 -1.53729e-06
-0.000149141 -1.40421e-05 7.89478e-07
-1.53729e-06 7.89478e-07 -0.000157341
0.0013152 -0.000173865 2.72446e-06
-0.000173865 9.95441e-05 -3.79753e-08
2.72446e-06 -3.79753e-08 -5.73915e-05
0.000555756 -7.53801e-05 -1.02785e-05
-7.53801e-05 -7.67285e-05 8.97243e-06
-1.02785e-05 8.97243e-06 -0.000136848
0.00090884 -0.000115018 3.75399e-07
-0.000115018 5.47243e-05 5.56201e-08
3.75399e-07 5.56201e-08 -5.72821e-05
0.00113083 -0.000157301 3.76692e-06
-0.000157301 0.000124979 -1.83481e-06
3.76692e-06 -1.83481e-06 -1.95637e-05
0.00357779 0.000135624 -7.50299e-05
0.000135624 0.00164852 2.76371e-06
-7.50299e-05 2.76371e-06 0.0016396
0.000638699 -4.02214e-05 -2.58358e-08
-4.02214e-05 -2.67586e-05 -1.63897e-07
-2.58358e-08 -1.63897e-07 -7.80182e-05
0.000963691 -0.000103252 4.83604e-06
-0.000103252 0.000121343 -3.21331e-06
4.83604e-06 -3.21331e-06 1.67281e-05
0.00330873 0.000115339 2.60873e-06
0.000115339 0.00149172 2.93387e-07
2.60873e-06 2.93387e-07 0.00148853
0.000683765 -6.10723e-06 7.14776e-06
-6.10723e-06 5.30143e-06 -6.63935e-06
7.14776e-06 -6.63935e-06 -3.73901e-05
0.00302377 9.83697e-05 6.76915e-05
9.83697e-05 0.00132905 -2.98601e-06
6.76915e-05 -2.98601e-06 0.00133064
0.00095265 0.000153812 -6.82227e-07
0.000153812 6.09291e-05 -1.88984e-06
-6.82227e-07 -1.88984e-06 -8.78358e-05
0.00101201 0.000147464 -1.19678e-07
0.000147464 0.000151323 -1.21184e-06
-1.19678e-07 -1.21184e-06 1.68827e-05
0.00110963 0.000138528 -1.0848e-06
0.000138528 0.000206044 -1.43603e-06
-1.0848e-06 -1.43603e-06 8.58654e-05
0.00120926 0.000152772 -5.41104e-07
0.000152772 0.000283375 2.14081e-07
-5.41104e-07 2.14081e-07 0.0001628
0.00088701 8.18115e-05 -1.06509e-06
8.18115e-05 0.000103966 -6.87006e-07
-1.06509e-06 -6.87006e-07 -1.11527e-06
0.000779703 3.83463e-05 -2.26259e-06
3.83463e-05 5.60102e-05 -2.15839e-06
-2.26259e-06 -2.15839e-06 -2.94726e-05
0.000696224 2.74677e-05 -2.43274e-07
2.74677e-05 1.2041e-05 3.99649e-07
-2.43274e-07 3.99649e-07 -8.40212e-05
0.000691097 -2.26602e-05 -3.84916e-07
-2.26602e-05 7.38284e-06 -6.7493e-08
-3.84916e-07 -6.7493e-08 -6.35714e-05
0.000603376 -6.86958e-05 -1.00392e-07
-6.86958e-05 -2.14091e-05 -5.61953e-06
-1.00392e-07 -5.61953e-06 -5.52263e-05
0.000673719 -5.45256e-05 5.6459e-07
-5.45256e-05 -2.66702e-06 2.87012e-06
5.6459e-07 2.87012e-06 -6.35367e-05
0.00060323 -6.85112e-05 2.25601e-07
-6.85112e-05 -2.90082e-05 -1.12009e-07
2.25601e-07 -1.12009e-07 -5.64778e-05
0.00253643 -9.34402e-05 -4.44344e-05
-9.34402e-05 0.00105424 -2.37709e-06
-4.44344e-05 -2.37709e-06 0.00105911
0.000614004 -5.32818e-05 1.6114e-06
-5.32818e-05 -3.59183e-05 4.38919e-06
1.6114e-06 4.38919e-06 -5.7143e-05
0.00241221 -8.4529e-05 -8.91116e-07
-8.4529e-05 0.000978328 1.39378e-07
-8.91116e-07 1.39378e-07 0.000985531
0.00237718 -7.52439e-05 3.26799e-05
-7.52439e-05 0.000950398 3.35551e-06
3.26799e-05 3.35551e-06 0.000959865
0.000306181 2.3653e-05 9.42228e-06
2.3653e-05 -0.000571109 3.39486e-06
9.42228e-06 3.39486e-06 -0.000595445
0.00387829 3.69428e-05 9.53694e-06
3.69428e-05 0.000502772 1.07258e-05
9.53694e-06 1.07258e-05 0.000163973
0.00681994 0.000277674 -9.92906e-05
0.000277674 0.00194886 -2.59359e-05
-9.92906e-05 -2.59359e-05 0.000971377
0.00079241 0.000148907 2.71896e-06
0.000148907 -9.41944e-05 5.64795e-07
2.71896e-06 5.64795e-07 -0.000226651
0.00134282 0.000189679 3.65497e-06
0.000189679 7.84657e-05 -3.5161e-06
3.65497e-06 -3.5161e-06 -7.23569e-05
0.000920377 0.000159966 2.56481e-08
0.000159966 3.19262e-05 -1.9162e-06
2.56481e-08 -1.9162e-06 -0.000113497
0.00107434 0.000153653 -1.43152e-06
0.000153653 0.000239256 -4.9202e-07
-1.43152e-06 -4.9202e-07 0.000108798
0.000974456 0.000153862 -1.29594e-06
0.000153862 0.000142764 -8.97459e-07
-1.29594e-06 -8.97459e-07 3.26649e-07
0.00115266 0.000176888 4.70044e-06
0.000176888 0.000175845 2.34506e-06
4.70044e-06 2.34506e-06 4.8063e-05
0.00210747 0.000278785 -6.72043e-06
0.000278785 0.000415978 -5.45295e-06
-6.72043e-06 -5.45295e-06 0.000268496
0.00159795 0.000214214 6.6097e-08
0.000214214 0.000406301 2.06806e-06
6.6097e-08 2.06806e-06 0.000274755
0.00130783 0.000229527 4.69335e-06
0.000229527 7.86761e-05 1.21501e-05
4.69335e-06 1.21501e-05 -6.77726e-05
0.00178523 0.000285148 -9.44026e-07
0.000285148 0.000208141 1.24136e-06
-9.44026e-07 1.24136e-06 5.51738e-05
0.00221265 0.000283874 -6.54233e-06
0.000283874 0.000324568 2.77021e-06
-6.54233e-06 2.77021e-06 0.000184578
0.00120786 0.000116116 1.39709e-05
0.000116116 -0.000233752 4.57735e-06
1.39709e-05 4.57735e-06 -0.000305222
0.00160643 0.000248354 8.27943e-06
0.000248354 4.39727e-05 2.22391e-06
8.27943e-06 2.22391e-06 -7.4664e-05
0.00117562 0.000281701 -6.02536e-06
0.000281701 -0.000147836 -4.58479e-06
-6.02536e-06 -4.58479e-06 -0.000308509
0.000984902 0.000153016 -4.5276e-06
0.000153016 -9.95527e-05 1.64083e-06
-4.5276e-06 1.64083e-06 -0.000108767
0.00479848 0.000123921 4.22241e-05
0.000123921 0.000523655 2.67295e-06
4.22241e-05 2.67295e-06 0.000108389
0.00109964 0.000256842 2.36725e-06
0.000256842 -3.24445e-05 -9.79832e-06
2.36725e-06 -9.79832e-06 -5.68454e-05
0.0014455 -2.73598e-05 1.2387e-05
-2.73598e-05 -3.93035e-05 1.44961e-06
1.2387e-05 1.44961e-06 -8.79825e-05
0.00204285 -4.91569e-05 -5.71233e-06
-4.91569e-05 0.000141906 -2.51032e-07
-5.71233e-06 -2.51032e-07 5.94857e-05
0.00230977 0.000130207 5.72186e-05
0.000130207 -2.86089e-05 -5.15182e-06
5.72186e-05 -5.15182e-06 -0.000303035
-0.00107934 -5.96777e-05 -1.46641e-05
-5.96777e-05 -0.0014625 8.92911e-06
-1.46641e-05 8.92911e-06 -0.0014841
0.00210921 -5.76951e-05 -5.36486e-05
-5.76951e-05 0.000144656 7.00543e-06
-5.36486e-05 7.00543e-06 8.92743e-05
0.00154362 -7.17438e-05 4.46437e-07
-7.17438e-05 -0.000165024 1.87856e-06
4.46437e-07 1.87856e-06 -0.000194029
0.00224777 -4.22137e-05 -1.49921e-06
-4.22137e-05 0.000296658 2.76062e-07
-1.49921e-06 2.76062e-07 0.000246273
0.00189392 -0.000114771 5.66315e-06
-0.000114771 4.27732e-05 1.0311e-06
5.66315e-06 1.0311e-06 3.7984e-06
0.00180962 -3.32991e-05 2.58652e-06
-3.32991e-05 1.42771e-05 1.11834e-07
2.58652e-06 1.11834e-07 -4.75817e-05
0.00209063 -0.00011212 -1.42059e-06
-0.00011212 9.44113e-05 2.20496e-08
-1.42059e-06 2.20496e-08 7.2622e-05
0.00179899 -0.000106155 -1.64305e-06
-0.000106155 3.97448e-05 1.17979e-07
-1.64305e-06 1.17979e-07 -3.56986e-06
0.00190624 -0.000108088 3.15474e-06
-0.000108088 0.000126215 2.7112e-07
3.15474e-06 2.7112e-07 6.00504e-05
0.00192552 -0.000141585 -2.51369e-06
-0.000141585 0.000110238 -2.53155e-07
-2.51369e-06 -2.53155e-07 4.96119e-05
0.00176135 -0.000117267 -8.70878e-08
-0.000117267 9.52323e-05 -2.07678e-07
-8.70878e-08 -2.07678e-07 1.78849e-05
0.00171071 -0.00010251 2.27118e-06
-0.00010251 8.84424e-05 1.19688e-07
2.27118e-06 1.19688e-07 -7.62287e-06
0.00169796 -0.000141497 -5.85595e-06
-0.000141497 7.86415e-05 9.53559e-08
-5.85595e-06 9.53559e-08 -7.97466e-06
0.00165984 -0.000121034 1.1578e-07
-0.000121034 9.44047e-05 -1.99858e-08
1.1578e-07 -1.99858e-08 -1.06235e-05
0.00160828 -0.000110312 7.82281e-07
-0.000110312 0.000105025 2.80251e-07
7.82281e-07 2.80251e-07 -1.50766e-05
0.00163453 -0.000139241 -2.58694e-06
-0.000139241 0.000105395 -7.42863e-08
-2.58694e-06 -7.42863e-08 -5.11954e-06
0.00157997 -0.000129881 1.04657e-07
-0.000129881 0.000109489 -1.10018e-07
1.04657e-07 -1.10018e-07 -1.33975e-05
0.0015007 -0.00012598 -1.73946e-06
-0.00012598 0.000106859 7.67557e-07
-1.73946e-06 7.67557e-07 -2.17065e-05
0.0015646 -0.000141636 -4.71298e-07
-0.000141636 0.00011395 5.02697e-07
-4.71298e-07 5.02697e-07 -1.10672e-05
0.00139925 -0.00013709 -2.711e-07
-0.00013709 6.44322e-05 -2.66819e-07
-2.711e-07 -2.66819e-07 -6.61277e-05
0.00135037 -0.000132725 -5.60964e-06
-0.000132725 9.12205e-05 1.53239e-06
-5.60964e-06 1.53239e-06 -3.59474e-05
0.00130563 -0.000154081 3.80759e-06
-0.000154081 3.2398e-05 -2.82106e-07
3.80759e-06 -2.82106e-07 -0.000107325
0.00113504 -0.000139043 1.42188e-07
-0.000139043 -9.62422e-07 -5.81031e-08
1.42188e-07 -5.81031e-08 -0.000134277
0.00104982 -0.000118929 -9.05136e-06
-0.000118929 3.13034e-05 4.16404e-06
-9.05136e-06 4.16404e-06 -7.92126e-05
0.000481844 -0.000107595 -1.42189e-05
-0.000107595 -0.000136574 9.635e-06
-1.42189e-05 9.635e-06 -0.000200927
0.0009773 -0.000123548 4.25178e-07
-0.000123548 3.85667e-05 2.64778e-07
4.25178e-07 2.64778e-07 -7.6185e-05
0.00113634 -0.000154916 3.17076e-06
-0.000154916 5.99379e-05 -6.6221e-07
3.17076e-06 -6.6221e-07 -8.31052e-05
0.00392642 0.000153039 -8.20689e-05
0.000153039 0.00185433 3.61999e-06
-8.20689e-05 3.61999e-06 0.00183882
0.000650743 -7.11516e-05 4.61843e-09
-7.11516e-05 -2.88022e-05 1.2403e-07
4.61843e-09 1.2403e-07 -8.94509e-05
0.00098407 -0.000120902 5.78663e-06
-0.000120902 9.67344e-05 -3.58397e-06
5.78663e-06 -3.58397e-06 -1.63532e-05
0.00369073 0.00012797 4.26652e-06
0.00012797 0.00171075 4.38136e-07
4.26652e-06 4.38136e-07 0.00170257
0.000754229 -4.26081e-05 9.47568e-06
-4.26081e-05 3.24548e-05 -7.83742e-06
9.47568e-06 -7.83742e-06 -1.93351e-05
0.00341082 0.000106157 8.18042e-05
0.000106157 0.00154632 -3.33701e-06
8.18042e-05 -3.33701e-06 0.00154431
0.000654034 0.000144297 -1.52618e-06
0.000144297 -0.000208311 -9.99927e-07
-1.52618e-06 -9.99927e-07 -0.000363384
0.000711059 0.000139491 -2.30151e-07
0.000139491 -7.35699e-05 1.1168e-07
-2.30151e-07 1.1168e-07 -0.000222191
0.00112797 0.000149569 -2.63128e-06
0.000149569 0.000170096 -1.87099e-06
-2.63128e-06 -1.87099e-06 3.59287e-05
0.000930273 0.00014163 -5.01957e-07
0.00014163 0.000107537 2.71098e-07
-5.01957e-07 2.71098e-07 -2.60709e-05
0.000985256 0.000129272 -3.36299e-07
0.000129272 0.000139633 -4.46663e-07
-3.36299e-07 -4.46663e-07 2.08094e-05
0.000919855 7.46867e-05 -3.66199e-06
7.46867e-05 0.000122886 -2.22284e-06
-3.66199e-06 -2.22284e-06 2.70369e-05
0.000882302 8.61391e-05 -4.52582e-08
8.61391e-05 0.000100358 -4.22111e-07
-4.52582e-08 -4.22111e-07 -3.81525e-06
0.000746597 2.36781e-05 -1.80378e-07
2.36781e-05 3.98153e-05 1.2429e-07
-1.80378e-07 1.2429e-07 -4.52377e-05
0.000627035 -3.8402e-05 -3.99958e-06
-3.8402e-05 -1.34645e-05 -5.76929e-06
-3.99958e-06 -5.76929e-06 -5.2561e-05
0.00069096 -4.95132e-05 3.19412e-07
-4.95132e-05 9.49862e-06 3.05947e-06
3.19412e-07 3.05947e-06 -6.15667e-05
0.000569973 -7.60256e-05 -2.34273e-07
-7.60256e-05 -3.8238e-05 -1.76865e-07
-2.34273e-07 -1.76865e-07 -7.30856e-05
0.00273648 -0.000102543 -5.3752e-05
-0.000102543 0.0011696 -2.22783e-06
-5.3752e-05 -2.22783e-06 0.00117174
0.000577787 -6.35966e-05 1.09828e-06
-6.35966e-05 -4.53362e-05 4.69991e-06
1.09828e-06 4.69991e-06 -7.14025e-05
0.00250001 -9.39095e-05 -9.16757e-07
-9.39095e-05 0.00103398 1.36355e-07
-9.16757e-07 1.36355e-07 0.00103874
0.0023995 -8.38881e-05 3.60189e-05
-8.38881e-05 0.000970577 2.97479e-06
3.60189e-05 2.97479e-06 0.000977924
0.00137853 4.2502e-05 8.46834e-06
4.2502e-05 -0.000143846 1.89541e-06
8.46834e-06 1.89541e-06 -0.000197003
0.00145833 -7.84893e-06 -2.91006e-06
-7.84893e-06 -7.21974e-05 3.33426e-06
-2.91006e-06 3.33426e-06 -0.000125872
0.00274383 -5.38055e-06 6.26921e-05
-5.38055e-06 -9.69464e-05 8.08267e-08
6.26921e-05 8.08267e-08 -0.000327723
0.00169663 0.000215746 -6.8229e-07
0.000215746 0.00020087 -5.37675e-06
-6.8229e-07 -5.37675e-06 5.79926e-05
0.000770787 0.000152056 -1.25642e-06
0.000152056 -8.44187e-05 1.27246e-06
-1.25642e-06 1.27246e-06 -0.000205567
0.00155933 0.000187092 -1.88572e-06
0.000187092 8.89536e-05 1.29213e-06
-1.88572e-06 1.29213e-06 -5.02378e-05
0.00166395 0.000208176 9.1471e-07
0.000208176 0.000251381 3.32255e-07
9.1471e-07 3.32255e-07 9.80851e-05
0.000460245 0.000134029 -4.47015e-06
0.000134029 -0.000209748 1.53568e-06
-4.47015e-06 1.53568e-06 -0.000350842
0.00177672 0.00022686 -4.06632e-06
0.00022686 0.000104259 1.71241e-06
-4.06632e-06 1.71241e-06 -3.33616e-05
0.00156571 0.000207145 -4.58616e-07
0.000207145 0.000382681 1.01507e-06
-4.58616e-07 1.01507e-06 0.000249883
0.00198543 0.000271243 -6.09707e-08
0.000271243 0.000341075 -2.68751e-06
-6.09707e-08 -2.68751e-06 0.00019018
0.0018044 0.000154973 -4.48507e-06
0.000154973 7.12731e-05 1.78152e-06
-4.48507e-06 1.78152e-06 -3.24109e-05
0.00202037 0.00029613 3.69287e-06
0.00029613 0.000338761 3.79262e-06
3.69287e-06 3.79262e-06 0.000186868
0.00204881 0.000276946 -1.21136e-06
0.000276946 0.000234676 7.2432e-08
-1.21136e-06 7.2432e-08 9.5446e-05
0.00127005 0.000127229 -6.71837e-07
0.000127229 -0.000178373 3.89152e-08
-6.71837e-07 3.89152e-08 -0.000250564
0.00118401 0.000224021 -3.84339e-06
0.000224021 -0.000158208 -3.98245e-06
-3.84339e-06 -3.98245e-06 -0.00027908
0.00128974 0.000140132 -1.9947e-05
0.000140132 5.30537e-05 -2.60453e-06
-1.9947e-05 -2.60453e-06 3.6761e-05
0.00168558 8.5696e-06 -6.06344e-07
8.5696e-06 -4.58587e-05 5.21823e-07
-6.06344e-07 5.21823e-07 -0.000113025
0.00194412 -7.66055e-06 -1.71876e-06
-7.66055e-06 0.00024057 -2.75267e-07
-1.71876e-06 -2.75267e-07 0.00019141
0.00170333 9.50621e-07 -3.85261e-05
9.50621e-07 -3.3275e-06 -1.05594e-06
-3.85261e-05 -1.05594e-06 -8.69555e-05
0.000884884 -0.000101878 -9.83893e-06
-0.000101878 -0.000570482 1.14677e-06
-9.83893e-06 1.14677e-06 -0.000587674
0.00163979 -5.62206e-05 -7.26054e-06
-5.62206e-05 -7.84399e-05 -8.65202e-07
-7.26054e-06 -8.65202e-07 -0.000130754
0.00198057 -0.000109308 -8.94672e-07
-0.000109308 9.42501e-05 2.19497e-07
-8.94672e-07 2.19497e-07 5.50276e-05
0.00184937 -3.42652e-05 1.14238e-06
-3.42652e-05 3.39388e-05 -1.29492e-07
1.14238e-06 -1.29492e-07 -2.72731e-05
0.00180295 -5.5572e-05 8.41191e-07
-5.5572e-05 3.76255e-05 -1.72794e-07
8.41191e-07 -1.72794e-07 -3.22845e-05
0.001671 -0.000104425 -3.1325e-06
-0.000104425 -3.54913e-05 -8.24766e-07
-3.1325e-06 -8.24766e-07 -7.69353e-05
0.00184472 -0.000104395 5.35227e-07
-0.000104395 9.84951e-05 -7.49016e-09
5.35227e-07 -7.49016e-09 3.02523e-05
0.00183939 -8.61947e-05 1.32967e-06
-8.61947e-05 0.000117975 -3.90858e-07
1.32967e-06 -3.90858e-07 2.90321e-05
0.00173542 -0.000117989 -4.22857e-06
-0.000117989 8.24606e-05 -2.48096e-07
-4.22857e-06 -2.48096e-07 2.96312e-06
0.00169133 -0.000102644 -6.51052e-08
-0.000102644 8.1674e-05 8.90498e-08
-6.51052e-08 8.90498e-08 -1.62185e-05
0.00167657 -8.57256e-05 8.39216e-07
-8.57256e-05 0.000112275 6.82741e-08
8.39216e-07 6.82741e-08 -4.42692e-06
0.00168756 -0.000120785 -2.24911e-06
-0.000120785 0.000110877 -2.5441e-07
-2.24911e-06 -2.5441e-07 6.02534e-06
0.00161404 -0.000109515 -1.36336e-10
-0.000109515 0.000106686 5.57647e-08
-1.36336e-10 5.57647e-08 -1.32663e-05
0.00153526 -0.000104555 -1.65175e-06
-0.000104555 0.000111034 6.78858e-07
-1.65175e-06 6.78858e-07 -1.59332e-05
0.00160008 -0.000130117 -6.82381e-07
-0.000130117 0.00011844 -2.89502e-07
-6.82381e-07 -2.89502e-07 -4.27203e-06
0.00150533 -0.000125592 2.03923e-08
-0.000125592 0.000109021 -1.22531e-08
2.03923e-08 -1.22531e-08 -1.94063e-05
0.00137087 -0.000117366 -5.02755e-06
-0.000117366 8.61513e-05 1.67813e-06
-5.02755e-06 1.67813e-06 -3.85488e-05
0.00134632 -0.00013522 1.99947e-06
-0.00013522 3.48539e-05 -6.22279e-07
1.99947e-06 -6.22279e-07 -9.56858e-05
0.00132673 -0.00013085 -1.16127e-07
-0.00013085 7.89838e-05 -6.18972e-08
-1.16127e-07 -6.18972e-08 -4.79728e-05
0.0010829 -0.000107137 -1.00386e-05
-0.000107137 2.46338e-05 4.0239e-06
-1.00386e-05 4.0239e-06 -8.18328e-05
0.000926441 -0.000128632 5.19534e-06
-0.000128632 -0.000114777 -1.14358e-06
5.19534e-06 -1.14358e-06 -0.000247963
0.00103355 -0.000117545 3.15963e-07
-0.000117545 2.28269e-05 1.14033e-07
3.15963e-07 1.14033e-07 -8.76157e-05
0.00212646 -3.3783e-05 -9.9336e-06
-3.3783e-05 0.000774472 6.84768e-06
-9.9336e-06 6.84768e-06 0.000710354
0.00119742 -4.60051e-06 -0.000104165
-4.60051e-06 0.000310689 1.05118e-05
-0.000104165 1.05118e-05 0.000291312
0.00143026 -6.68452e-05 1.42764e-06
-6.68452e-05 0.000394386 1.2673e-07
1.42764e-06 1.2673e-07 0.000328243
0.000976656 -0.0001245 7.43852e-06
-0.0001245 3.90496e-05 -3.56351e-06
7.43852e-06 -3.56351e-06 -7.59757e-05
0.00410091 0.000133207 7.90455e-06
0.000133207 0.00194865 6.47846e-07
7.90455e-06 6.47846e-07 0.00193522
0.000779614 -9.03916e-05 1.28258e-05
-9.03916e-05 3.62702e-05 -9.09061e-06
1.28258e-05 -9.09061e-06 -2.53315e-05
0.00377134 0.000104527 9.81048e-05
0.000104527 0.00175287 -4.38812e-06
9.81048e-05 -4.38812e-06 0.00174747
0.00188637 0.000166723 -1.73469e-07
0.000166723 0.000248632 4.83598e-07
-1.73469e-07 4.83598e-07 0.00011919
0.0011209 0.000163777 -1.16708e-06
0.000163777 -5.55188e-05 1.63324e-06
-1.16708e-06 1.63324e-06 -0.000199923
0.000946107 0.000162522 -1.9479e-07
0.000162522 -5.63475e-05 -1.25611e-07
-1.9479e-07 -1.25611e-07 -0.000213991
0.00111821 0.000154177 -3.81195e-06
0.000154177 0.00010128 -1.82506e-06
-3.81195e-06 -1.82506e-06 -4.16772e-05
0.000472569 0.0001254 3.25131e-07
0.0001254 -0.000206245 2.48643e-06
3.25131e-07 2.48643e-06 -0.000354785
0.0010407 0.000142854 -5.26087e-07
0.000142854 0.000125085 -9.56142e-08
-5.26087e-07 -9.56142e-08 -8.17402e-06
0.00098631 0.000105517 -4.84333e-06
0.000105517 0.000129977 -2.70261e-06
-4.84333e-06 -2.70261e-06 2.60188e-05
0.000868887 0.000120472 1.03348e-06
0.000120472 7.75778e-05 8.43996e-07
1.03348e-06 8.43996e-07 -3.99401e-05
0.00080018 6.57266e-05 -3.0388e-07
6.57266e-05 5.82791e-05 3.74921e-09
-3.0388e-07 3.74921e-09 -3.62482e-05
0.000711011 1.37481e-05 -7.32954e-06
1.37481e-05 2.16789e-05 -6.50772e-06
-7.32954e-06 -6.50772e-06 -2.43736e-05
0.000719401 8.45892e-06 1.10828e-06
8.45892e-06 2.43263e-05 2.14337e-06
1.10828e-06 2.14337e-06 -5.86393e-05
0.000564449 -4.88261e-05 -5.00823e-07
-4.88261e-05 -4.66348e-05 -2.3639e-07
-5.00823e-07 -2.3639e-07 -8.5533e-05
0.00300848 -0.000110645 -6.66665e-05
-0.000110645 0.00132522 -2.26738e-06
-6.66665e-05 -2.26738e-06 0.00132404
0.000525224 -7.78977e-05 -6.81964e-07
-7.78977e-05 -6.27308e-05 5.50062e-06
-6.81964e-07 5.50062e-06 -9.76305e-05
0.00266274 -0.000104373 -1.28303e-06
-0.000104373 0.00112953 1.54932e-07
-1.28303e-06 1.54932e-07 0.00113135
0.00246586 -9.34818e-05 3.941e-05
-9.34818e-05 0.0010148 2.55276e-06
3.941e-05 2.55276e-06 0.00101967
0.00181648 8.35928e-05 -2.19028e-06
8.35928e-05 3.35878e-05 1.43997e-06
-2.19028e-06 1.43997e-06 -4.60227e-05
0.00183947 3.83885e-05 1.91128e-06
3.83885e-05 0.000108056 -6.14528e-07
1.91128e-06 -6.14528e-07 5.7053e-05
0.00312995 -3.55995e-05 -3.23892e-05
-3.55995e-05 0.000684919 -5.85037e-06
-3.23892e-05 -5.85037e-06 0.000599415
0.00172124 0.000189119 -3.06259e-06
0.000189119 0.000100798 6.72295e-07
-3.06259e-06 6.72295e-07 -3.27571e-05
0.00169184 0.000214146 -2.87284e-06
0.000214146 0.000222344 1.11027e-07
-2.87284e-06 1.11027e-07 8.24445e-05
0.000769973 0.00015662 -1.13346e-05
0.00015662 -6.44084e-05 3.63313e-06
-1.13346e-05 3.63313e-06 -0.000174422
0.00178742 0.000193309 1.79397e-06
0.000193309 0.000212648 2.16735e-07
1.79397e-06 2.16735e-07 7.3395e-05
0.00199557 0.000227257 -1.52652e-06
0.000227257 0.000430674 6.06362e-08
-1.52652e-06 6.06362e-08 0.000274801
0.00208834 0.00015465 -3.23574e-06
0.00015465 0.00021999 1.5376e-06
-3.23574e-06 1.5376e-06 0.000117364
0.00171117 0.000226883 -1.3417e-06
0.000226883 6.96935e-05 5.83994e-07
-1.3417e-06 5.83994e-07 -6.90504e-05
0.00191249 0.000266696 2.6713e-06
0.000266696 0.000291402 5.99074e-07
2.6713e-06 5.99074e-07 0.000136688
0.00181928 0.000155189 -4.61721e-07
0.000155189 7.44573e-05 1.33346e-07
-4.61721e-07 1.33346e-07 -2.93203e-05
0.00203524 0.000276471 5.88469e-06
0.000276471 0.000217336 -6.13583e-07
5.88469e-06 -6.13583e-07 7.8685e-05
0.00150247 0.000140265 -1.71027e-05
0.000140265 -5.06185e-05 -5.53243e-06
-1.71027e-05 -5.53243e-06 -0.00012248
0.00195925 1.42784e-05 5.39853e-07
1.42784e-05 0.000118564 1.55953e-07
5.39853e-07 1.55953e-07 4.72192e-05
0.00179561 1.2702e-05 3.14286e-07
1.2702e-05 1.57356e-05 -3.62031e-07
3.14286e-07 -3.62031e-07 -5.05498e-05
0.00249064 1.19638e-05 -1.9172e-05
1.19638e-05 0.000545045 -1.72585e-06
-1.9172e-05 -1.72585e-06 0.000494918
0.00214424 -0.000105227 -1.0465e-05
-0.000105227 0.000185803 -8.3881e-07
-1.0465e-05 -8.3881e-07 0.000146141
0.00193168 -3.45697e-05 -1.88161e-06
-3.45697e-05 7.5123e-05 -3.17398e-07
-1.88161e-06 -3.17398e-07 1.44219e-05
0.00181815 -5.52561e-05 6.22708e-07
-5.52561e-05 3.8053e-05 6.15608e-08
6.22708e-07 6.15608e-08 -2.84399e-05
0.00186483 -3.65663e-05 1.12199e-07
-3.65663e-05 0.000106187 -2.05862e-07
1.12199e-07 -2.05862e-07 1.72829e-05
0.0018026 -0.000101279 -9.90877e-07
-0.000101279 8.08317e-05 -2.2085e-07
-9.90877e-07 -2.2085e-07 1.05055e-05
0.00182092 -8.61043e-05 -3.76466e-07
-8.61043e-05 0.000113751 -1.94185e-07
-3.76466e-07 -1.94185e-07 2.40982e-05
0.00174581 -6.57333e-05 1.90513e-06
-6.57333e-05 0.000113962 -9.57624e-07
1.90513e-06 -9.57624e-07 1.32271e-06
0.00166844 -0.000102749 -2.31381e-06
-0.000102749 7.2987e-05 1.52363e-07
-2.31381e-06 1.52363e-07 -2.67404e-05
0.00166454 -8.55485e-05 -1.81507e-07
-8.55485e-05 0.000105755 1.02256e-07
-1.81507e-07 1.02256e-07 -1.08349e-05
0.00159716 -7.566e-05 -1.4511e-06
-7.566e-05 0.000126506 5.38889e-07
-1.4511e-06 5.38889e-07 7.33593e-07
0.00161968 -0.000108615 -5.15108e-07
-0.000108615 0.000108333 -1.87092e-07
-5.15108e-07 -1.87092e-07 -1.14557e-05
0.00152631 -0.000103806 -8.28949e-08
-0.000103806 0.000105173 7.88107e-08
-8.28949e-08 7.88107e-08 -2.16811e-05
0.00139299 -9.81524e-05 -4.87091e-06
-9.81524e-05 8.40657e-05 1.51405e-06
-4.87091e-06 1.51405e-06 -3.9903e-05
0.00150998 -0.000125245 1.84659e-06
-0.000125245 0.000111234 -7.70743e-07
1.84659e-06 -7.70743e-07 -1.70644e-05
0.00136583 -0.000116335 -2.94612e-08
-0.000116335 8.34194e-05 4.52975e-08
-2.94612e-08 4.52975e-08 -4.11338e-05
0.00110319 -9.49177e-05 -1.02238e-05
-9.49177e-05 2.15205e-05 3.74326e-06
-1.02238e-05 3.74326e-06 -8.36356e-05
0.00130435 -0.000129035 5.1898e-06
-0.000129035 6.73806e-05 -1.62265e-06
5.1898e-06 -1.62265e-06 -5.93621e-05
0.0010713 -0.000105384 2.4171e-07
-0.000105384 1.75996e-05 -3.61737e-10
2.4171e-07 -3.61737e-10 -8.86133e-05
0.00220653 -5.07912e-05 -1.67592e-05
-5.07912e-05 0.00079796 5.5493e-06
-1.67592e-05 5.5493e-06 0.000741673
0.00100823 -0.000116022 8.98369e-06
-0.000116022 9.53696e-06 -3.81974e-06
8.98369e-06 -3.81974e-06 -0.000100864
0.0023176 -8.39608e-05 2.8511e-05
-8.39608e-05 0.000866953 -2.22554e-06
2.8511e-05 -2.22554e-06 0.000810247
0.00151541 -4.54085e-05 -0.000123315
-4.54085e-05 0.000487864 1.36282e-05
-0.000123315 1.36282e-05 0.000467433
0.00282969 3.02941e-05 -0.000108112
3.02941e-05 0.00123393 3.38255e-06
-0.000108112 3.38255e-06 0.00121827
0.00240749 -0.000109796 6.87921e-05
-0.000109796 0.00092757 -8.78081e-06
6.87921e-05 -8.78081e-06 0.000873793
0.0042539 9.61302e-05 0.00011402
9.61302e-05 0.0020301 -7.04242e-06
0.00011402 -7.04242e-06 0.00201954
0.00175943 0.000148577 -2.47441e-06
0.000148577 0.000151815 -2.42237e-07
-2.47441e-06 -2.42237e-07 2.51852e-05
0.00179748 0.000172711 1.11162e-06
0.000172711 0.00026907 3.14422e-07
1.11162e-06 3.14422e-07 0.000137
0.00171064 0.000161468 9.14805e-07
0.000161468 0.000155781 3.05248e-07
9.14805e-07 3.05248e-07 2.76308e-05
0.00114108 0.000154585 -5.35798e-06
0.000154585 3.4183e-05 -1.45348e-07
-5.35798e-06 -1.45348e-07 -0.000106025
0.00128092 0.000172848 -1.91402e-07
0.000172848 2.85753e-05 5.9703e-07
-1.91402e-07 5.9703e-07 -0.000116879
0.00122106 0.000179958 1.9279e-06
0.000179958 8.64926e-05 9.10257e-07
1.9279e-06 9.10257e-07 -7.36711e-05
0.00113265 0.000155593 -4.63552e-07
0.000155593 0.00011055 7.78956e-08
-4.63552e-07 7.78956e-08 -3.297e-05
0.000982698 0.000120684 -6.22981e-06
0.000120684 8.24546e-05 -3.70786e-06
-6.22981e-06 -3.70786e-06 -3.00531e-05
0.000950426 0.000135927 1.61933e-06
0.000135927 7.84005e-05 1.71347e-06
1.61933e-06 1.71347e-06 -5.39235e-05
0.000860268 9.74369e-05 -3.45555e-07
9.74369e-05 6.11773e-05 -8.9713e-08
-3.45555e-07 -8.9713e-08 -4.13056e-05
0.000774978 5.73347e-05 -1.00422e-05
5.73347e-05 4.835e-05 -7.64786e-06
-1.00422e-05 -7.64786e-06 -7.40548e-06
0.000673234 5.758e-05 1.85711e-06
5.758e-05 -1.09055e-05 1.69661e-06
1.85711e-06 1.69661e-06 -0.000103656
0.000604045 -8.49365e-06 2.55574e-07
-8.49365e-06 -3.20296e-05 -2.38543e-07
2.55574e-07 -2.38543e-07 -7.82693e-05
0.00334769 -0.000106696 -8.58079e-05
-0.000106696 0.00152182 -3.16316e-06
-8.58079e-05 -3.16316e-06 0.00151771
0.000499265 -7.57149e-05 -1.41643e-06
-7.57149e-05 -7.39976e-05 6.41581e-06
-1.41643e-06 6.41581e-06 -0.000117121
0.00294087 -0.000117406 -2.11166e-06
-0.000117406 0.00128884 2.52241e-07
-2.11166e-06 2.52241e-07 0.00128661
0.00261842 -0.000104822 4.412e-05
-0.000104822 0.00110516 2.17518e-06
4.412e-05 2.17518e-06 0.00110706
0.0018909 8.40352e-05 -1.157e-06
8.40352e-05 8.34722e-05 1.2275e-06
-1.157e-06 1.2275e-06 -9.54205e-07
0.00178348 8.28587e-05 7.7837e-07
8.28587e-05 2.22802e-05 -1.64268e-07
7.7837e-07 -1.64268e-07 -5.72275e-05
0.00213698 3.21551e-05 -2.9671e-05
3.21551e-05 0.000292581 -4.64558e-06
-2.9671e-05 -4.64558e-06 0.000244122
0.00189179 0.000138026 2.44343e-07
0.000138026 0.000143027 1.42538e-06
2.44343e-07 1.42538e-06 3.0139e-05
0.00174515 0.000186134 -8.54647e-07
0.000186134 0.000118724 -3.08726e-07
-8.54647e-07 -3.08726e-07 -1.39389e-05
0.00167891 0.000211787 -1.80157e-06
0.000211787 0.000239122 1.45454e-06
-1.80157e-06 1.45454e-06 0.00010235
0.00199953 0.000198735 1.17573e-06
0.000198735 0.000327417 -8.35261e-07
1.17573e-06 -8.35261e-07 0.000188163
0.00191336 0.000148195 2.53355e-07
0.000148195 0.000125234 -3.79104e-08
2.53355e-07 -3.79104e-08 2.13194e-05
0.00163409 0.00022639 1.53399e-07
0.00022639 3.02327e-05 -1.00183e-06
1.53399e-07 -1.00183e-06 -0.000109589
0.00178364 0.000153647 5.28674e-06
0.000153647 6.31205e-05 -1.43595e-06
5.28674e-06 -1.43595e-06 -4.0792e-05
0.00185225 1.89713e-05 1.76009e-06
1.89713e-05 9.0179e-05 4.5078e-07
1.76009e-06 4.5078e-07 4.35857e-06
0.00189192 1.45724e-05 -4.0247e-07
1.45724e-05 8.38792e-05 -2.40418e-08
-4.0247e-07 -2.40418e-08 1.07031e-05
0.00187633 1.64964e-05 -2.35749e-06
1.64964e-05 6.55013e-05 -1.30623e-06
-2.35749e-06 -1.30623e-06 1.93193e-07
0.00167463 -6.93667e-06 -2.94959e-07
-6.93667e-06 1.60191e-05 6.54021e-08
-2.94959e-07 6.54021e-08 -8.03082e-05
0.0018303 -5.44615e-05 -1.24067e-06
-5.44615e-05 3.83494e-05 1.51736e-07
-1.24067e-06 1.51736e-07 -2.46592e-05
0.00186052 -3.75513e-05 -2.80511e-07
-3.75513e-05 0.000103611 3.93117e-07
-2.80511e-07 3.93117e-07 1.45016e-05
0.00189767 -3.67996e-05 9.2872e-07
-3.67996e-05 0.000172159 -6.92547e-07
9.2872e-07 -6.92547e-07 6.60246e-05
0.00180173 -8.6142e-05 -2.30947e-06
-8.6142e-05 0.000109074 2.75571e-07
-2.30947e-06 2.75571e-07 1.87302e-05
0.00174316 -6.56888e-05 5.0332e-07
-6.56888e-05 0.000112218 -3.73166e-07
5.0332e-07 -3.73166e-07 -2.87483e-07
0.0016352 -4.69317e-05 -1.41907e-06
-4.69317e-05 0.000121016 2.30543e-07
-1.41907e-06 2.30543e-07 -3.90154e-06
0.00165772 -8.48363e-05 -6.37422e-07
-8.48363e-05 0.000102188 1.03145e-07
-6.37422e-07 1.03145e-07 -1.42391e-05
0.00155104 -7.37709e-05 -9.06646e-08
-7.37709e-05 9.93466e-05 -5.35793e-08
-9.06646e-08 -5.35793e-08 -2.63584e-05
0.0014159 -7.47342e-05 -4.76484e-06
-7.47342e-05 8.28096e-05 1.48105e-06
-4.76484e-06 1.48105e-06 -4.18563e-05
0.00151852 -0.000103022 1.72568e-06
-0.000103022 9.99155e-05 -5.45703e-07
1.72568e-06 -5.45703e-07 -2.68148e-05
0.00139125 -9.72423e-05 -6.51725e-08
-9.72423e-05 8.2954e-05 2.73624e-08
-6.51725e-08 2.73624e-08 -4.08574e-05
0.00111797 -8.03106e-05 -1.02381e-05
-8.03106e-05 1.78893e-05 3.13351e-06
-1.02381e-05 3.13351e-06 -8.71453e-05
0.0013583 -0.000115157 5.09425e-06
-0.000115157 7.93326e-05 -1.60994e-06
5.09425e-06 -1.60994e-06 -4.50584e-05
0.00110231 -9.28884e-05 1.77289e-07
-9.28884e-05 1.97882e-05 1.28051e-07
1.77289e-07 1.28051e-07 -8.49596e-05
0.0022751 -7.04696e-05 -2.3825e-05
-7.04696e-05 0.000821641 4.6626e-06
-2.3825e-05 4.6626e-06 0.000770356
0.00105585 -0.000103603 9.84901e-06
-0.000103603 8.40213e-06 -4.00782e-06
9.84901e-06 -4.00782e-06 -9.75459e-05
0.00234203 -9.12763e-05 2.53929e-05
-9.12763e-05 0.000865404 -2.37286e-06
2.53929e-05 -2.37286e-06 0.000813819
0.00160611 -4.10676e-05 -0.000121641
-4.10676e-05 0.000536095 1.25354e-05
-0.000121641 1.25354e-05 0.000515662
0.00248006 -0.000115642 7.57511e-05
-0.000115642 0.000948877 -1.10126e-05
7.57511e-05 -1.10126e-05 0.000896143
0.00142089 2.79478e-05 -6.35258e-05
2.79478e-05 0.000452771 4.17524e-06
-6.35258e-05 4.17524e-06 0.000420897
0.00434413 0.000270028 -6.77087e-06
0.000270028 0.00212535 -4.46398e-06
-6.77087e-06 -4.46398e-06 0.00208059
0.00169079 0.000119985 -3.22122e-08
0.000119985 9.52898e-05 6.05235e-07
-3.22122e-08 6.05235e-07 -2.78428e-05
0.00165091 0.000136654 -1.51738e-06
0.000136654 0.000157372 -5.52932e-07
-1.51738e-06 -5.52932e-07 2.90105e-05
0.00175802 0.000150596 -2.09168e-06
0.000150596 0.000152104 2.89231e-08
-2.09168e-06 2.89231e-08 2.51407e-05
0.00169075 0.00016387 -3.46191e-06
0.00016387 0.000280842 -4.02367e-07
-3.46191e-06 -4.02367e-07 0.000151896
0.00151196 0.000162161 6.11029e-07
0.000162161 0.000110402 -3.1154e-07
6.11029e-07 -3.1154e-07 -2.11674e-05
0.0015543 0.000157209 3.93777e-06
0.000157209 7.33643e-05 -4.30272e-08
3.93777e-06 -4.30272e-08 -5.34818e-05
0.000986382 0.00012492 -8.68208e-06
0.00012492 2.29167e-05 -3.22737e-06
-8.68208e-06 -3.22737e-06 -9.22514e-05
0.00124114 0.000161293 -4.70817e-07
0.000161293 8.77604e-05 7.86101e-07
-4.70817e-07 7.86101e-07 -5.35601e-05
0.00145953 0.000182754 3.40005e-06
0.000182754 0.000122402 -1.33128e-07
3.40005e-06 -1.33128e-07 -2.41225e-05
0.00114557 0.000157076 3.45118e-06
0.000157076 0.000119055 2.26035e-06
3.45118e-06 2.26035e-06 -2.50572e-05
0.000927452 0.000116324 -4.51175e-07
0.000116324 5.2113e-05 -2.00793e-07
-4.51175e-07 -2.00793e-07 -5.96274e-05
0.000783234 0.000110276 -1.51063e-05
0.000110276 4.289e-05 -8.87152e-06
-1.51063e-05 -8.87152e-06 -2.1904e-05
0.000744269 8.94882e-05 3.46895e-06
8.94882e-05 -2.01451e-06 2.37223e-06
3.46895e-06 2.37223e-06 -0.000103107
0.000647987 5.19374e-05 -6.2206e-08
5.19374e-05 -1.47282e-05 1.6752e-09
-6.2206e-08 1.6752e-09 -7.04832e-05
0.00379536 -9.31361e-05 -0.000102562
-9.31361e-05 0.00178289 -5.79483e-06
-0.000102562 -5.79483e-06 0.00177379
0.000524214 -1.90213e-05 3.53326e-06
-1.90213e-05 -7.39556e-05 6.58484e-06
3.53326e-06 6.58484e-06 -0.000118649
0.00328252 -0.000131177 -4.00534e-06
-0.000131177 0.00148743 4.04908e-07
-4.00534e-06 4.04908e-07 0.00148
0.00286847 -0.000119139 5.06384e-05
-0.000119139 0.0012488 1.96747e-06
5.06384e-05 1.96747e-06 0.00124656
0.00178444 7.59277e-05 1.10013e-06
7.59277e-05 5.70128e-05 1.28075e-06
1.10013e-06 1.28075e-06 -4.01999e-05
0.00182117 8.58517e-05 -3.47864e-07
8.58517e-05 4.27065e-05 2.71678e-07
-3.47864e-07 2.71678e-07 -4.13777e-05
0.00182012 8.36352e-05 1.9883e-06
8.36352e-05 3.84486e-05 -1.71469e-06
1.9883e-06 -1.71469e-06 -4.09528e-05
0.00188328 0.000136736 5.383e-07
0.000136736 0.000138141 -9.86543e-08
5.383e-07 -9.86543e-08 2.59417e-05
0.00177383 0.000183326 -1.58023e-07
0.000183326 0.000139472 -1.43502e-06
-1.58023e-07 -1.43502e-06 7.66333e-06
0.00175975 0.000141934 1.89729e-06
0.000141934 4.01822e-05 -1.64786e-06
1.89729e-06 -1.64786e-06 -6.4965e-05
0.00183682 2.09683e-05 5.24883e-07
2.09683e-05 0.000107152 3.73755e-07
5.24883e-07 3.73755e-07 1.11552e-05
0.00186707 2.02656e-05 3.60408e-07
2.02656e-05 9.89868e-05 -2.13503e-07
3.60408e-07 -2.13503e-07 1.20956e-05
0.00180077 1.53844e-05 4.0186e-07
1.53844e-05 3.47404e-05 -1.77667e-07
4.0186e-07 -1.77667e-07 -4.03227e-05
0.00176723 -1.35872e-05 -1.27286e-06
-1.35872e-05 6.60154e-05 9.10297e-08
-1.27286e-06 9.10297e-08 -2.9304e-05
0.00173466 -1.70742e-05 1.11677e-06
-1.70742e-05 8.20687e-05 -4.38649e-07
1.11677e-06 -4.38649e-07 -2.51364e-05
0.00185456 -3.84404e-05 -1.00229e-06
-3.84404e-05 0.000100429 4.44972e-07
-1.00229e-06 4.44972e-07 1.10928e-05
0.00180228 -3.7025e-05 -3.63439e-07
-3.7025e-05 0.00011939 3.2453e-07
-3.63439e-07 3.2453e-07 1.09427e-05
0.0016774 -2.55514e-05 1.32383e-07
-2.55514e-05 0.00012214 -4.43609e-07
1.32383e-07 -4.43609e-07 1.37036e-06
0.00173386 -6.61718e-05 -1.21773e-07
-6.61718e-05 0.000106855 1.4072e-07
-1.21773e-07 1.4072e-07 -5.56876e-06
0.00158021 -4.80694e-05 -2.55963e-07
-4.80694e-05 8.99669e-05 5.14271e-08
-2.55963e-07 5.14271e-08 -3.50714e-05
0.00142661 -4.38208e-05 -5.56966e-06
-4.38208e-05 7.16141e-05 1.54899e-06
-5.56966e-06 1.54899e-06 -5.41978e-05
0.00149877 -7.33994e-05 9.57156e-07
-7.33994e-05 6.88517e-05 -6.3586e-07
9.57156e-07 -6.3586e-07 -5.68856e-05
0.00140871 -7.33111e-05 6.10228e-08
-7.33111e-05 7.86253e-05 -6.17506e-08
6.10228e-08 -6.17506e-08 -4.58654e-05
0.0011274 -6.1843e-05 -1.02022e-05
-6.1843e-05 1.06323e-05 2.75918e-06
-1.02022e-05 2.75918e-06 -9.5206e-05
0.00138686 -9.61965e-05 4.77201e-06
-9.61965e-05 8.04371e-05 -1.45297e-06
4.77201e-06 -1.45297e-06 -4.32126e-05
0.00112412 -7.80876e-05 -6.36736e-09
-7.80876e-05 2.00532e-05 9.82771e-08
-6.36736e-09 9.82771e-08 -8.45589e-05
0.00228942 -7.58043e-05 -2.713e-05
-7.58043e-05 0.000821986 3.88377e-06
-2.713e-05 3.88377e-06 0.000770988
0.00109868 -9.09104e-05 1.02892e-05
-9.09104e-05 1.6456e-05 -3.56941e-06
1.02892e-05 -3.56941e-06 -8.78724e-05
0.00235477 -8.81254e-05 2.41599e-05
-8.81254e-05 0.000862446 -1.97965e-06
2.41599e-05 -1.97965e-06 0.000813284
0.00166259 -3.68278e-05 -0.000121708
-3.68278e-05 0.00056145 1.08623e-05
-0.000121708 1.08623e-05 0.000541591
0.00246521 -0.000104425 7.56867e-05
-0.000104425 0.000929518 -9.81091e-06
7.56867e-05 -9.81091e-06 0.000880298
0.00144715 8.8985e-06 -5.74716e-05
8.8985e-06 0.00045734 4.43402e-06
-5.74716e-05 4.43402e-06 0.000430553
0.00139533 6.49411e-05 7.61064e-06
6.49411e-05 0.000444816 -4.34317e-06
7.61064e-06 -4.34317e-06 0.000408613
0.00186217 7.51269e-05 7.28143e-07
7.51269e-05 0.000155978 1.44202e-06
7.28143e-07 1.44202e-06 4.699e-05
0.0015522 0.000103935 -2.02716e-06
0.000103935 8.0983e-05 -1.88524e-07
-2.02716e-06 -1.88524e-07 -4.64063e-05
0.00173034 0.000122212 -1.14958e-06
0.000122212 0.000113951 -1.32462e-07
-1.14958e-06 -1.32462e-07 -7.87026e-06
0.00161167 0.000134116 -4.24902e-06
0.000134116 0.000202852 -1.38107e-06
-4.24902e-06 -1.38107e-06 7.84867e-05
0.00170891 0.000138375 1.00077e-06
0.000138375 0.00019212 3.65367e-07
1.00077e-06 3.65367e-07 6.37662e-05
0.00175394 0.000152552 2.74338e-06
0.000152552 0.000151481 4.4704e-07
2.74338e-06 4.4704e-07 2.41156e-05
0.00102311 0.000118587 -9.90678e-06
0.000118587 -6.59086e-06 -3.17904e-06
-9.90678e-06 -3.17904e-06 -0.000117372
0.00142321 0.000154604 2.90921e-06
0.000154604 0.000130165 3.30521e-07
2.90921e-06 3.30521e-07 1.41642e-07
0.00121871 0.000151106 3.1636e-06
0.000151106 -5.26344e-05 -6.47419e-07
3.1636e-06 -6.47419e-07 -0.000183712
0.000692825 0.000128147 -1.78227e-05
0.000128147 -2.47372e-05 -8.6355e-06
-1.78227e-05 -8.6355e-06 -9.32733e-05
0.00100713 0.000125383 -8.77625e-07
0.000125383 3.39246e-05 4.16577e-07
-8.77625e-07 4.16577e-07 -8.11726e-05
0.00134635 0.000168263 5.44073e-06
0.000168263 0.000144229 1.98398e-06
5.44073e-06 1.98398e-06 1.75356e-06
0.000883846 0.000112589 5.66185e-06
0.000112589 2.8682e-05 3.52273e-06
5.66185e-06 3.52273e-06 -8.24304e-05
0.000650715 9.82178e-05 4.22082e-08
9.82178e-05 -2.41086e-05 7.16067e-08
4.22082e-08 7.16067e-08 -8.8468e-05
0.0044053 -8.28497e-05 -0.000114232
-8.28497e-05 0.00213338 -9.57509e-06
-0.000114232 -9.57509e-06 0.00211556
0.000537986 4.21949e-05 7.15144e-06
4.21949e-05 -7.13306e-05 7.48495e-06
7.15144e-06 7.48495e-06 -0.00012554
0.00367602 -0.000132913 -6.86977e-06
-0.000132913 0.00171908 4.85907e-07
-6.86977e-06 4.85907e-07 0.00170678
0.0031932 -0.000136854 5.97652e-05
-0.000136854 0.00143714 1.91663e-06
5.97652e-05 1.91663e-06 0.00142913
0.00178393 5.47088e-05 4.31905e-07
5.47088e-05 8.18649e-05 2.88071e-07
4.31905e-07 2.88071e-07 -1.83313e-05
0.00177423 7.51552e-05 1.57901e-07
7.51552e-05 5.28626e-05 3.98062e-07
1.57901e-07 3.98062e-07 -4.38717e-05
0.0017422 8.70219e-05 2.6178e-06
8.70219e-05 -1.17066e-06 -8.02051e-07
2.6178e-06 -8.02051e-07 -8.4908e-05
0.0018717 0.000135277 4.15515e-07
0.000135277 0.000131698 -1.44737e-06
4.15515e-07 -1.44737e-06 2.01999e-05
0.00175031 -3.56098e-06 1.19534e-06
-3.56098e-06 8.80678e-05 4.04033e-08
1.19534e-06 4.04033e-08 -1.99916e-05
0.00187648 1.75716e-05 -9.0404e-08
1.75716e-05 0.000126587 -1.20486e-07
-9.0404e-08 -1.20486e-07 3.07838e-05
0.00188699 2.10561e-05 -1.31035e-06
2.10561e-05 0.000110601 -9.84309e-08
-1.31035e-06 -9.84309e-08 2.26606e-05
0.00186061 -1.72283e-05 -2.62731e-06
-1.72283e-05 0.000116638 -2.77874e-07
-2.62731e-06 -2.77874e-07 2.23165e-05
0.00172508 -1.07259e-05 -8.34998e-07
-1.07259e-05 7.65437e-05 -6.71307e-08
-8.34998e-07 -6.71307e-08 -2.97925e-05
0.00178242 -5.36516e-06 7.92934e-07
-5.36516e-06 0.000172753 -4.08465e-07
7.92934e-07 -4.08465e-07 5.53303e-05
0.00170604 -3.73291e-05 -1.239e-06
-3.73291e-05 6.59994e-05 1.13552e-06
-1.239e-06 1.13552e-06 -4.47576e-05
0.00166482 -2.49632e-05 5.65367e-07
-2.49632e-05 0.000116319 8.74928e-08
5.65367e-07 8.74928e-08 -5.80806e-06
0.00135243 -1.66442e-05 -4.49299e-06
-1.66442e-05 1.36126e-05 4.68217e-07
-4.49299e-06 4.68217e-07 -0.000111608
0.00152998 -4.76447e-05 5.49864e-07
-4.76447e-05 6.15756e-05 -1.09169e-07
5.49864e-07 -1.09169e-07 -6.34861e-05
0.00142048 -4.12532e-05 -4.70339e-07
-4.12532e-05 6.74658e-05 3.01523e-07
-4.70339e-07 3.01523e-07 -5.80901e-05
0.00115655 -3.90383e-05 -1.05202e-05
-3.90383e-05 1.03575e-05 2.52035e-06
-1.05202e-05 2.52035e-06 -9.72272e-05
0.00139578 -6.98588e-05 4.44883e-06
-6.98588e-05 7.13369e-05 -1.54742e-06
4.44883e-06 -1.54742e-06 -5.28459e-05
0.00113947 -6.13071e-05 -6.43746e-09
-6.13071e-05 1.62967e-05 3.67475e-08
-6.43746e-09 3.67475e-08 -8.93836e-05
0.000678058 -4.72538e-05 -1.55505e-05
-4.72538e-05 -8.51846e-05 3.91164e-06
-1.55505e-05 3.91164e-06 -0.000145283
0.00113482 -7.60992e-05 1.03009e-05
-7.60992e-05 2.45235e-05 -3.03338e-06
1.03009e-05 -3.03338e-06 -7.96518e-05
0.00152026 -6.13638e-05 3.07861e-05
-6.13638e-05 0.000389561 -1.63837e-06
3.07861e-05 -1.63837e-06 0.000336943
0.00489733 -8.10357e-05 -0.000148033
-8.10357e-05 0.00236254 7.48752e-06
-0.000148033 7.48752e-06 0.00235995
0.00244662 -8.64791e-05 7.57514e-05
-8.64791e-05 0.000909064 -8.13861e-06
7.57514e-05 -8.13861e-06 0.000862384
0.00146815 -1.25702e-05 -5.11871e-05
-1.25702e-05 0.000459078 3.83636e-06
-5.11871e-05 3.83636e-06 0.000435502
0.00132345 4.50673e-06 1.94343e-05
4.50673e-06 0.000390968 -3.49134e-06
1.94343e-05 -3.49134e-06 0.000362569
0.00188349 5.31644e-05 1.11472e-06
5.31644e-05 0.000171982 6.97659e-07
1.11472e-06 6.97659e-07 6.59848e-05
0.00164968 6.78736e-05 -6.07014e-07
6.78736e-05 0.000118742 8.88994e-07
-6.07014e-07 8.88994e-07 -1.9927e-06
0.00185861 7.22051e-05 1.2397e-07
7.22051e-05 0.000156955 -5.48608e-08
1.2397e-07 -5.48608e-08 4.73678e-05
0.00119012 9.42581e-05 -5.40261e-06
9.42581e-05 -5.55556e-05 -1.3426e-06
-5.40261e-06 -1.3426e-06 -0.000181114
0.00166904 0.000106809 -5.82019e-08
0.000106809 0.000146991 -2.1108e-08
-5.82019e-08 -2.1108e-08 2.06835e-05
0.0017743 0.000124918 -8.88486e-07
0.000124918 0.000134786 -9.52154e-07
-8.88486e-07 -9.52154e-07 1.42364e-05
0.000664001 8.72775e-05 -1.21208e-05
8.72775e-05 -0.000233841 -3.86853e-06
-1.21208e-05 -3.86853e-06 -0.000342382
0.00164177 0.000137205 1.35175e-06
0.000137205 0.000219671 3.01055e-07
1.35175e-06 3.01055e-07 9.47948e-05
0.00176265 0.000140289 3.37363e-06
0.000140289 0.000224543 1.08731e-06
3.37363e-06 1.08731e-06 9.61739e-05
0.000628105 0.000113517 -1.71613e-05
0.000113517 -8.27224e-05 -7.187e-06
-1.71613e-05 -7.187e-06 -0.000148198
0.00083882 0.000111118 3.21658e-07
0.000111118 -0.000109901 5.55693e-08
3.21658e-07 5.55693e-08 -0.000221542
0.00115025 0.000144977 7.86646e-06
0.000144977 -2.36233e-05 1.05507e-06
7.86646e-06 1.05507e-06 -0.000154652
0.00486991 -8.66339e-05 -0.000114949
-8.66339e-05 0.00239396 -1.14538e-05
-0.000114949 -1.14538e-05 0.00236966
0.000631855 0.000117878 1.20382e-06
0.000117878 -5.67427e-05 3.75396e-07
1.20382e-06 3.75396e-07 -0.000124506
0.00101392 0.000125197 8.15959e-06
0.000125197 3.75298e-05 4.39187e-06
8.15959e-06 4.39187e-06 -7.7483e-05
0.000512321 8.91185e-05 1.14233e-05
8.91185e-05 -9.62255e-05 8.50658e-06
1.14233e-05 8.50658e-06 -0.000159522
0.00415025 -0.000119837 -8.3285e-06
-0.000119837 0.00199325 4.92506e-07
-8.3285e-06 4.92506e-07 0.00197568
0.00352082 -0.00015462 7.00697e-05
-0.00015462 0.00163393 2.2723e-06
7.00697e-05 2.2723e-06 0.00161906
0.00180746 3.21e-05 -4.35664e-07
3.21e-05 0.000117659 -4.73434e-08
-4.35664e-07 -4.73434e-08 1.02606e-05
0.00179226 5.40133e-05 -1.1331e-07
5.40133e-05 8.28199e-05 2.52004e-07
-1.1331e-07 2.52004e-07 -1.71895e-05
0.00176581 7.4893e-05 -2.47694e-07
7.4893e-05 4.94778e-05 -6.43494e-07
-2.47694e-07 -6.43494e-07 -4.67931e-05
0.00171148 7.08996e-06 9.72758e-07
7.08996e-06 0.000127105 -2.66202e-07
9.72758e-07 -2.66202e-07 9.24962e-06
0.00174313 -4.2438e-07 -6.11813e-08
-4.2438e-07 8.74005e-05 6.42813e-08
-6.11813e-08 6.42813e-08 -1.97306e-05
0.00191524 1.18661e-05 -1.52424e-06
1.18661e-05 0.000145532 -4.41766e-08
-1.52424e-06 -4.41766e-08 4.99217e-05
0.00171116 -5.6068e-06 -1.8721e-06
-5.6068e-06 6.84248e-05 5.67908e-07
-1.8721e-06 5.67908e-07 -3.70252e-05
0.00176909 -2.77644e-06 1.08874e-06
-2.77644e-06 0.000164917 -1.79589e-07
1.08874e-06 -1.79589e-07 4.75489e-05
0.00174451 -2.06015e-06 -2.75752e-06
-2.06015e-06 0.00021981 -8.52281e-09
-2.75752e-06 -8.52281e-09 9.96677e-05
0.0016554 -2.43163e-05 1.31858e-06
-2.43163e-05 0.00011221 4.64423e-07
1.31858e-06 4.64423e-07 -1.12818e-05
0.00158467 -1.52359e-05 -2.67871e-08
-1.52359e-05 0.000141652 6.491e-08
-2.67871e-08 6.491e-08 1.78802e-05
0.000803908 -1.45895e-05 -1.25497e-05
-1.45895e-05 -0.000199749 1.87677e-06
-1.25497e-05 1.87677e-06 -0.000311852
0.00142524 -4.09618e-05 4.10593e-06
-4.09618e-05 6.90782e-05 -8.97292e-07
4.10593e-06 -8.97292e-07 -5.63541e-05
0.00114989 -3.62354e-05 5.33863e-08
-3.62354e-05 6.2498e-06 1.68055e-07
5.33863e-08 1.68055e-07 -0.000101121
0.000676497 -1.99507e-05 -1.53499e-05
-1.99507e-05 -9.60191e-05 2.93768e-06
-1.53499e-05 2.93768e-06 -0.000158035
0.00115323 -5.96189e-05 1.04888e-05
-5.96189e-05 2.27873e-05 -2.74966e-06
1.04888e-05 -2.74966e-06 -8.26239e-05
0.000682894 -3.34497e-05 -2.67636e-07
-3.34497e-05 -8.31563e-05 1.38635e-07
-2.67636e-07 1.38635e-07 -0.000143387
0.00494186 -2.91618e-05 -0.000140878
-2.91618e-05 0.00238277 5.0645e-06
-0.000140878 5.0645e-06 0.00238205
0.000719399 -5.21376e-05 1.56907e-05
-5.21376e-05 -5.86466e-05 -5.62362e-06
1.56907e-05 -5.62362e-06 -0.000118241
0.00315532 -4.91381e-05 6.2522e-05
-4.91381e-05 0.00139407 -3.87007e-07
6.2522e-05 -3.87007e-07 0.00137859
0.00125711 -2.64293e-05 2.55357e-05
-2.64293e-05 0.000349366 -3.36631e-06
2.55357e-05 -3.36631e-06 0.000321376
0.00182336 4.25277e-05 2.01297e-07
4.25277e-05 0.000157198 2.06642e-07
2.01297e-07 2.06642e-07 4.78343e-05
0.0015793 3.78684e-05 -9.48286e-08
3.78684e-05 7.84768e-05 8.93198e-07
-9.48286e-08 8.93198e-07 -3.963e-05
0.00184534 5.07478e-05 -3.29567e-07
5.07478e-05 0.000151214 -2.00691e-07
-3.29567e-07 -2.00691e-07 4.53123e-05
0.00142992 6.69108e-05 -4.37525e-06
6.69108e-05 6.53008e-05 -3.91749e-07
-4.37525e-06 -3.91749e-07 -5.6519e-05
0.00160556 6.5861e-05 4.24939e-07
6.5861e-05 9.28651e-05 9.47168e-08
4.24939e-07 9.47168e-08 -2.86376e-05
0.00185515 6.89542e-05 -1.1146e-06
6.89542e-05 0.000157892 -1.30424e-06
-1.1146e-06 -1.30424e-06 4.77247e-05
0.000682433 7.00568e-05 -1.22646e-05
7.00568e-05 -0.000243918 -3.18952e-06
-1.22646e-05 -3.18952e-06 -0.000351961
0.00151193 0.000104629 -1.3497e-06
0.000104629 0.00012317 -2.82792e-07
-1.3497e-06 -2.82792e-07 -1.03013e-06
0.00178489 0.000109456 2.27928e-06
0.000109456 0.000212558 -7.14198e-08
2.27928e-06 -7.14198e-08 8.73599e-05
0.00062419 8.24363e-05 -1.5878e-05
8.24363e-05 -0.000101455 -5.80581e-06
-1.5878e-05 -5.80581e-06 -0.000163617
0.000654478 8.78089e-05 -2.62362e-06
8.78089e-05 -0.00023931 -6.70361e-07
-2.62362e-06 -6.70361e-07 -0.000348438
0.00166936 0.000140217 7.12351e-06
0.000140217 0.000235118 1.72221e-06
7.12351e-06 1.72221e-06 0.000109737
0.00502843 -3.41965e-06 -0.000132722
-3.41965e-06 0.00244909 -9.23686e-06
-0.000132722 -9.23686e-06 0.00244094
0.000603969 0.000104044 8.79434e-07
0.000104044 -9.45918e-05 3.55738e-07
8.79434e-07 3.55738e-07 -0.000160841
0.000650383 0.000103629 1.01774e-05
0.000103629 -0.000215559 3.27712e-06
1.01774e-05 3.27712e-06 -0.000328068
0.00464635 -5.64713e-05 4.59995e-06
-5.64713e-05 0.00225778 -3.78545e-07
4.59995e-06 -3.78545e-07 0.00224325
0.000526354 0.000107004 1.46602e-05
0.000107004 -0.00011144 8.74311e-06
1.46602e-05 8.74311e-06 -0.000179185
0.00391944 -0.000158259 8.1686e-05
-0.000158259 0.00187014 4.50117e-06
8.1686e-05 4.50117e-06 0.00184955
0.00177541 2.41197e-05 -2.16894e-07
2.41197e-05 0.000159953 -8.68044e-08
-2.16894e-07 -8.68044e-08 4.44576e-05
0.00176396 3.06333e-05 -2.06487e-07
3.06333e-05 9.74681e-05 7.18845e-08
-2.06487e-07 7.18845e-08 -1.06333e-05
0.001801 5.31818e-05 -6.96124e-07
5.31818e-05 8.37125e-05 -1.6045e-07
-6.96124e-07 -1.6045e-07 -1.61067e-05
0.00172072 -1.70285e-06 -2.82903e-06
-1.70285e-06 0.000208939 -1.58823e-07
-2.82903e-06 -1.58823e-07 9.07448e-05
0.00173736 6.23285e-06 6.78096e-07
6.23285e-06 0.000141313 8.01036e-10
6.78096e-07 8.01036e-10 2.44927e-05
0.0017473 4.76757e-06 1.91463e-07
4.76757e-06 9.27738e-05 -1.18472e-10
1.91463e-07 -1.18472e-10 -1.34561e-05
0.00175531 -1.14331e-06 9.69586e-07
-1.14331e-06 0.000156817 3.03135e-07
9.69586e-07 3.03135e-07 3.94991e-05
0.001746 -1.85411e-06 1.68444e-06
-1.85411e-06 0.000220616 -2.16962e-07
1.68444e-06 -2.16962e-07 0.000100406
0.000818804 -4.52985e-06 -1.18299e-05
-4.52985e-06 -0.000197681 8.34044e-07
-1.18299e-05 8.34044e-07 -0.000309692
0.00181827 -1.4004e-05 5.51924e-06
-1.4004e-05 0.000270588 -5.90187e-07
5.51924e-06 -5.90187e-07 0.000148263
0.000989169 -1.31735e-05 -2.53782e-06
-1.31735e-05 -9.66832e-05 4.28697e-07
-2.53782e-06 4.28697e-07 -0.000207107
0.000699115 -7.11457e-06 -1.59231e-05
-7.11457e-06 -9.39553e-05 1.97742e-06
-1.59231e-05 1.97742e-06 -0.000157885
0.00115004 -3.48466e-05 1.04846e-05
-3.48466e-05 5.82424e-06 -2.21425e-06
1.04846e-05 -2.21425e-06 -0.00010142
0.000686238 -1.7449e-05 3.59005e-07
-1.7449e-05 -9.17024e-05 3.5331e-08
3.59005e-07 3.5331e-08 -0.000153437
0.00504851 -4.83987e-05 -0.000143456
-4.83987e-05 0.00244023 3.74e-06
-0.000143456 3.74e-06 0.00243871
0.000679108 -2.25944e-05 1.44521e-05
-2.25944e-05 -8.68513e-05 -3.3743e-06
1.44521e-05 -3.3743e-06 -0.000146426
0.00496628 -1.20144e-05 9.40867e-06
-1.20144e-05 0.0023982 2.27502e-09
9.40867e-06 2.27502e-09 0.00239588
0.0014843 -1.61232e-05 0.000125465
-1.61232e-05 0.000461935 -5.77576e-06
0.000125465 -5.77576e-06 0.000443933
0.00172894 2.87083e-05 2.35833e-08
2.87083e-05 0.000160313 1.79631e-07
2.35833e-08 1.79631e-07 4.42574e-05
0.00176426 4.57831e-05 -8.28715e-07
4.57831e-05 0.000121527 -9.76624e-08
-8.28715e-07 -9.76624e-08 1.27734e-05
0.00145368 3.45605e-05 -3.99124e-06
3.45605e-05 7.5388e-05 -1.55124e-07
-3.99124e-06 -1.55124e-07 -4.34891e-05
0.00157575 3.73656e-05 3.4376e-07
3.73656e-05 7.64437e-05 4.94141e-09
3.4376e-07 4.94141e-09 -4.16855e-05
0.00180601 4.84581e-05 -7.07189e-07
4.84581e-05 0.000129837 -1.22681e-06
-7.07189e-07 -1.22681e-06 2.40356e-05
0.00115472 5.7807e-05 -1.05332e-05
5.7807e-05 5.58949e-06 -1.9272e-06
-1.05332e-05 -1.9272e-06 -9.85721e-05
0.00141791 6.68585e-05 -6.54136e-09
6.68585e-05 5.85481e-05 2.03011e-07
-6.54136e-09 2.03011e-07 -6.33517e-05
0.00155907 6.3879e-05 6.32844e-07
6.3879e-05 6.57987e-05 -4.36755e-07
6.32844e-07 -4.36755e-07 -5.64872e-05
0.00064457 5.74187e-05 -1.5522e-05
5.74187e-05 -0.000105241 -4.35811e-06
-1.5522e-05 -4.35811e-06 -0.000165655
0.000900734 7.78368e-05 -3.1409e-06
7.78368e-05 -0.00012281 -5.25748e-07
-3.1409e-06 -5.25748e-07 -0.000230134
0.00184378 0.000115276 4.99929e-06
0.000115276 0.000307376 1.07482e-06
4.99929e-06 1.07482e-06 0.000184523
0.00505599 6.27174e-05 -0.000150864
6.27174e-05 0.00244908 -8.40683e-06
-0.000150864 -8.40683e-06 0.00244697
0.000616546 7.84995e-05 1.52536e-07
7.84995e-05 -0.000105349 8.00755e-08
1.52536e-07 8.00755e-08 -0.000167735
0.000646419 8.86073e-05 7.28805e-06
8.86073e-05 -0.000244066 2.35877e-06
7.28805e-06 2.35877e-06 -0.000353797
0.00490741 1.46321e-05 9.52224e-06
1.46321e-05 0.00238541 5.75584e-07
9.52224e-06 5.75584e-07 0.00237665
0.00057958 9.39149e-05 1.5252e-05
9.39149e-05 -0.000107131 7.32793e-06
1.5252e-05 7.32793e-06 -0.000173784
0.00442682 -8.47453e-05 0.000105584
-8.47453e-05 0.00213545 6.56781e-06
0.000105584 6.56781e-06 0.0021233
0.00172513 1.82833e-05 -2.73802e-06
1.82833e-05 0.000216638 -3.09019e-07
-2.73802e-06 -3.09019e-07 0.000100309
0.00175633 1.99642e-05 2.02171e-08
1.99642e-05 0.000151812 1.08253e-07
2.02171e-08 1.08253e-07 3.5843e-05
0.0017204 2.89221e-05 -4.32824e-07
2.89221e-05 7.77861e-05 1.07142e-07
-4.32824e-07 1.07142e-07 -3.0998e-05
0.000810415 -1.05081e-05 -1.2309e-05
-1.05081e-05 -0.000199646 -1.3655e-07
-1.2309e-05 -1.3655e-07 -0.000310133
0.0017431 4.78642e-06 1.76033e-06
4.78642e-06 0.000221444 -5.58603e-08
1.76033e-06 -5.58603e-08 0.000103215
0.00175815 5.41056e-06 1.21951e-06
5.41056e-06 0.00015295 1.45044e-07
1.21951e-06 1.45044e-07 3.71772e-05
0.00174812 -1.93223e-06 5.99509e-06
-1.93223e-06 0.000221811 -1.37776e-07
5.99509e-06 -1.37776e-07 0.000101529
0.000812348 -4.66346e-06 -1.89169e-06
-4.66346e-06 -0.000201516 1.87598e-07
-1.89169e-06 1.87598e-07 -0.000313609
0.000722636 -1.00265e-05 -1.61726e-05
-1.00265e-05 -8.69451e-05 7.96963e-07
-1.61726e-05 7.96963e-07 -0.000151478
0.00116264 -1.09422e-05 8.40795e-06
-1.09422e-05 -9.62531e-08 -1.30189e-06
8.40795e-06 -1.30189e-06 -0.000108827
0.000693575 2.24682e-06 1.73072e-07
2.24682e-06 -9.77396e-05 1.1348e-07
1.73072e-07 1.1348e-07 -0.000161478
0.00520574 -5.84683e-05 -0.000148984
-5.84683e-05 0.00252561 2.25133e-06
-0.000148984 2.25133e-06 0.00252268
0.000699214 -7.21134e-06 1.5202e-05
-7.21134e-06 -8.5241e-05 -2.3708e-06
1.5202e-05 -2.3708e-06 -0.000147014
0.00510255 1.57948e-05 4.54587e-06
1.57948e-05 0.00246808 4.64587e-07
4.54587e-06 4.64587e-07 0.00246711
0.00499261 -5.79754e-05 0.000154421
-5.79754e-05 0.00241094 -4.40557e-06
0.000154421 -4.40557e-06 0.00240954
0.00147527 2.16007e-05 -4.0578e-06
2.16007e-05 8.75559e-05 -5.46624e-07
-4.0578e-06 -5.46624e-07 -3.04153e-05
0.0016643 3.07799e-05 3.55402e-07
3.07799e-05 0.000123576 -1.61356e-07
3.55402e-07 -1.61356e-07 8.32599e-06
0.00170543 4.91642e-05 -1.56824e-06
4.91642e-05 8.60116e-05 -2.14342e-07
-1.56824e-06 -2.14342e-07 -2.21402e-05
0.00115588 2.8633e-05 -1.02942e-05
2.8633e-05 1.96056e-06 -1.50742e-06
-1.02942e-05 -1.50742e-06 -0.000101229
0.00143087 3.45316e-05 2.34344e-07
3.45316e-05 6.26679e-05 5.81807e-08
2.34344e-07 5.81807e-08 -5.63927e-05
0.00157017 3.68406e-05 2.67543e-07
3.68406e-05 7.34328e-05 -9.11742e-07
2.67543e-07 -9.11742e-07 -4.4723e-05
0.000668921 3.46075e-05 -1.50717e-05
3.46075e-05 -0.000101964 -3.27357e-06
-1.50717e-05 -3.27357e-06 -0.000162383
0.00115039 5.93617e-05 5.68935e-08
5.93617e-05 3.56308e-06 2.17041e-07
5.68935e-08 2.17041e-07 -0.000100922
0.00140518 6.67354e-05 4.62173e-06
6.67354e-05 5.13407e-05 8.53261e-07
4.62173e-06 8.53261e-07 -7.06393e-05
0.0050747 8.38854e-05 -0.000162651
8.38854e-05 0.00245484 -7.34645e-06
-0.000162651 -7.34645e-06 0.00245314
0.000653439 5.78213e-05 1.06798e-07
5.78213e-05 -9.99223e-05 1.42742e-07
1.06798e-07 1.42742e-07 -0.000160484
0.00110855 8.54415e-05 7.60095e-06
8.54415e-05 -7.46906e-06 2.26387e-06
7.60095e-06 2.26387e-06 -0.000114043
0.00499017 7.36234e-05 5.10742e-06
7.36234e-05 0.00241803 1.16269e-06
5.10742e-06 1.16269e-06 0.00241399
0.000612923 7.49957e-05 1.4897e-05
7.49957e-05 -0.00010703 5.71569e-06
1.4897e-05 5.71569e-06 -0.000169417
0.00481535 2.96915e-05 0.000135139
2.96915e-05 0.00232938 8.51806e-06
0.000135139 8.51806e-06 0.00232495
0.00119834 8.55027e-06 -1.1033e-05
8.55027e-06 1.82224e-05 -6.82087e-07
-1.1033e-05 -6.82087e-07 -8.78529e-05
0.00154503 1.3228e-05 1.95189e-06
1.3228e-05 0.000116558 6.40951e-08
1.95189e-06 6.40951e-08 -1.31164e-06
0.00173556 1.47559e-05 7.25885e-07
1.47559e-05 0.000142439 3.40513e-07
7.25885e-07 3.40513e-07 2.59912e-05
0.000714331 2.07773e-05 -1.65263e-05
2.07773e-05 -9.62013e-05 -2.91896e-07
-1.65263e-05 -2.91896e-07 -0.000156661
0.000805484 -4.44075e-06 -2.05363e-06
-4.44075e-06 -0.000203261 3.14317e-08
-2.05363e-06 3.14317e-08 -0.000313912
0.00176569 1.11989e-05 6.37315e-06
1.11989e-05 0.000234013 6.96633e-08
6.37315e-06 6.96633e-08 0.000115745
0.000805364 -4.35462e-06 7.97446e-06
-4.35462e-06 -0.000205685 -3.79508e-07
7.97446e-06 -3.79508e-07 -0.000317848
0.000695276 1.45159e-06 9.31605e-08
1.45159e-06 -0.000102132 3.00164e-07
9.31605e-08 3.00164e-07 -0.000166472
0.0052911 5.73224e-05 -0.000159177
5.73224e-05 0.00256894 -7.29998e-07
-0.000159177 -7.29998e-07 0.00256713
0.000674933 1.12863e-05 1.5294e-05
1.12863e-05 -0.000108469 -1.29375e-06
1.5294e-05 -1.29375e-06 -0.000172042
0.00523088 -4.44814e-05 -4.71141e-06
-4.44814e-05 0.00253697 1.04381e-06
-4.71141e-06 1.04381e-06 0.00253502
0.00513999 5.57133e-05 0.000146009
5.57133e-05 0.00248937 -1.66312e-06
0.000146009 -1.66312e-06 0.00248698
0.00117809 1.42722e-05 -1.08349e-05
1.42722e-05 1.09537e-05 -1.44179e-06
-1.08349e-05 -1.44179e-06 -9.321e-05
0.0013856 2.03038e-05 8.16043e-08
2.03038e-05 3.71216e-05 -7.96928e-08
8.16043e-08 -7.96928e-08 -8.09708e-05
0.00160313 3.27791e-05 3.15573e-07
3.27791e-05 8.86429e-05 -6.23627e-07
3.15573e-07 -6.23627e-07 -2.58018e-05
0.00252945 2.13624e-05 -8.27228e-05
2.13624e-05 0.000926657 -2.35072e-06
-8.27228e-05 -2.35072e-06 0.000881396
0.00116559 3.07316e-05 1.52373e-07
3.07316e-05 6.8547e-06 1.23643e-07
1.52373e-07 1.23643e-07 -9.65249e-05
0.0014067 3.4348e-05 4.36874e-06
3.4348e-05 4.92274e-05 2.86922e-07
4.36874e-06 2.86922e-07 -7.00216e-05
0.0050789 8.46851e-05 -0.000166414
8.46851e-05 0.00245741 -5.67943e-06
-0.000166414 -5.67943e-06 0.00245461
0.000696351 3.91785e-05 2.76554e-07
3.91785e-05 -8.59466e-05 1.78875e-07
2.76554e-07 1.78875e-07 -0.000146779
0.00115634 6.11443e-05 1.05468e-05
6.11443e-05 6.92518e-06 2.33395e-06
1.05468e-05 2.33395e-06 -9.78587e-05
0.00504744 9.72257e-05 3.98383e-07
9.72257e-05 0.00244428 1.11914e-06
3.98383e-07 1.11914e-06 0.00244098
0.000665749 5.77179e-05 1.51056e-05
5.77179e-05 -9.24189e-05 4.74906e-06
1.51056e-05 4.74906e-06 -0.000153124
0.00493091 8.99184e-05 0.000149083
8.99184e-05 0.00238733 9.45145e-06
0.000149083 9.45145e-06 0.00238306
0.000748185 7.90028e-06 -1.59342e-05
7.90028e-06 -7.11387e-05 -1.62909e-06
-1.59342e-05 -1.62909e-06 -0.000134533
0.00100318 6.026e-06 5.34057e-07
6.026e-06 -8.97021e-05 3.18666e-07
5.34057e-07 3.18666e-07 -0.000197182
0.00135851 8.01569e-06 5.81264e-06
8.01569e-06 1.29118e-05 4.29099e-07
5.81264e-06 4.29099e-07 -0.000106466
0.00527331 -8.22687e-05 -0.000145203
-8.22687e-05 0.00257052 -1.85314e-06
-0.000145203 -1.85314e-06 0.00256146
0.000703572 9.00658e-06 -2.18867e-07
9.00658e-06 -9.8735e-05 2.4275e-07
-2.18867e-07 2.4275e-07 -0.000161095
0.000809012 1.28284e-06 8.13839e-06
1.28284e-06 -0.000202327 1.30829e-07
8.13839e-06 1.30829e-07 -0.000313131
0.00067984 1.61891e-05 1.56539e-05
1.61891e-05 -0.000110675 1.34725e-08
1.56539e-05 1.34725e-08 -0.000174987
0.00530222 2.95432e-05 3.36597e-06
2.95432e-05 0.00257801 3.95044e-07
3.36597e-06 3.95044e-07 0.00257365
0.00528505 5.59423e-05 0.000150161
5.59423e-05 0.00256415 -1.94889e-07
0.000150161 -1.94889e-07 0.00256244
0.00258759 -3.10732e-06 -8.35698e-05
-3.10732e-06 0.000952623 -1.85303e-06
-8.35698e-05 -1.85303e-06 0.00090657
0.00119116 1.66719e-05 -3.9202e-08
1.66719e-05 1.76911e-05 1.9038e-08
-3.9202e-08 1.9038e-08 -8.65028e-05
0.00129466 1.91682e-05 4.18447e-06
1.91682e-05 -1.39904e-05 2.3568e-07
4.18447e-06 2.3568e-07 -0.000132204
0.00483827 -3.76981e-05 -2.93025e-05
-3.76981e-05 0.00233275 -7.18475e-07
-2.93025e-05 -7.18475e-07 0.00232044
0.000719874 2.57726e-05 -5.16501e-08
2.57726e-05 -7.68522e-05 2.12624e-07
-5.16501e-08 2.12624e-07 -0.000138572
0.0011904 3.3455e-05 1.04999e-05
3.3455e-05 1.97143e-05 1.80964e-06
1.04999e-05 1.80964e-06 -8.38174e-05
0.00509983 5.83304e-05 -8.71207e-06
5.83304e-05 0.00246701 6.12548e-08
-8.71207e-06 6.12548e-08 0.0024658
0.000728012 5.05836e-05 1.61525e-05
5.05836e-05 -6.70112e-05 3.93702e-06
1.61525e-05 3.93702e-06 -0.000128576
0.00501882 0.00011271 0.000157052
0.00011271 0.00243241 9.2913e-06
0.000157052 9.2913e-06 0.00242758
0.00169428 -2.81543e-05 -0.000142511
-2.81543e-05 0.000563452 3.41546e-07
-0.000142511 3.41546e-07 0.000543512
0.00165425 1.55905e-05 -3.41021e-05
1.55905e-05 0.000430533 3.14822e-07
-3.41021e-05 3.14822e-07 0.000377612
0.000811104 6.27044e-06 1.07513e-05
6.27044e-06 -0.000195882 1.1309e-06
1.07513e-05 1.1309e-06 -0.00030479
0.00526462 -3.32215e-05 8.4471e-06
-3.32215e-05 0.00256238 -7.35921e-07
8.4471e-06 -7.35921e-07 0.00255611
0.000690704 -1.55114e-06 1.62766e-05
-1.55114e-06 -0.000103244 8.40975e-07
1.62766e-05 8.40975e-07 -0.000166842
0.00530532 -4.34796e-05 0.000165755
-4.34796e-05 0.00257797 1.46101e-07
0.000165755 1.46101e-07 0.00257516
0.00137763 -4.30295e-05 -1.05078e-05
-4.30295e-05 0.00040758 -8.46555e-07
-1.05078e-05 -8.46555e-07 0.00037359
0.00164877 9.75889e-06 -3.38658e-05
9.75889e-06 0.000433401 -9.83248e-08
-3.38658e-05 -9.83248e-08 0.000379541
0.00119288 1.73473e-05 1.05878e-05
1.73473e-05 1.84924e-05 1.5166e-06
1.05878e-05 1.5166e-06 -8.57591e-05
0.00323469 3.69235e-05 5.96259e-05
3.69235e-05 0.00143428 6.35011e-07
5.96259e-05 6.35011e-07 0.00141715
0.000732342 3.43284e-05 1.63567e-05
3.43284e-05 -6.98988e-05 3.25638e-06
1.63567e-05 3.25638e-06 -0.000131894
0.00509309 9.91753e-05 0.000156007
9.91753e-05 0.00246812 7.33703e-06
0.000156007 7.33703e-06 0.00246454
0.00520412 -2.86945e-05 -9.30544e-06
-2.86945e-05 0.00253075 1.19312e-07
-9.30544e-06 1.19312e-07 0.0025243
0.000708157 2.61698e-05 1.68112e-05
2.61698e-05 -9.43107e-05 1.65379e-06
1.68112e-05 1.65379e-06 -0.000154393
0.00523046 6.36107e-05 0.000149274
6.36107e-05 0.00254335 -1.28662e-06
0.000149274 -1.28662e-06 0.00253764
0.00326353 2.4377e-05 7.32765e-05
2.4377e-05 0.00145019 1.12418e-06
7.32765e-05 1.12418e-06 0.00143252
0.000721592 8.77158e-06 1.60072e-05
8.77158e-06 -7.96802e-05 2.41001e-06
1.60072e-05 2.41001e-06 -0.000141751
0.00512158 -2.23442e-05 0.000147037
-2.23442e-05 0.00247801 3.73299e-06
0.000147037 3.73299e-06 0.00247689
0.00517884 -0.000130765 0.000143236
-0.000130765 0.00252386 -3.04409e-07
0.000143236 -3.04409e-07 0.00251285
0.00513942 -4.88165e-05 0.000144271
-4.88165e-05 0.00248818 1.6239e-06
0.000144271 1.6239e-06 0.00248649
