# vtk DataFile Version 2.0
Wound Healing Simulation
ASCII
DATASET UNSTRUCTURED_GRID
POINTS 3012 float
69.9759 18.75 4
67.2507 60.3285 4
69.976 18.75 2
73.0099 25.446 4
71.1327 20.9142 4
68.6801 16.6661 4
67.8264 19.9261 3.98427
67.2507 60.3286 2
71.1327 54.0858 4
68.6801 58.3339 4
65.6939 62.2254 4
65.3132 59.0022 3.9853
74.6784 42.3946 4
73.7221 47.2057 4
69.9759 18.75 0
73.0099 25.446 2
68.6801 16.6661 2
71.1327 20.9142 2
67.8268 19.9288 2
74.6792 32.6053 4
73.7222 27.7943 4
72.1454 23.1494 4
70.6149 26.2213 3.98432
68.8866 21.9584 3.98468
67.2507 14.6715 4
66.638 17.9713 3.98454
65.7987 21.0249 3.97637
67.2507 60.3285 0
71.1327 54.0858 2
68.6801 58.3339 2
65.694 62.2255 2
65.3143 58.9999 2
72.1454 51.8506 4
69.9759 56.25 4
68.837 53.1129 3.9837
64.0165 64.0165 4
66.6116 57.1344 3.98482
63.8867 60.767 3.98711
63.5024 57.7737 3.97877
60.3285 67.2507 4
74.6792 42.3947 2
73.7222 47.2057 2
74.9194 39.9526 4
74.2788 44.8158 4
72.1686 42.0857 3.98257
73.0099 49.554 4
71.2499 46.5983 3.98324
73.0099 25.446 0
71.1327 20.9142 0
68.6801 16.6661 0
67.8264 19.9261 0.0157254
74.6792 32.6053 2
73.7222 27.7943 2
67.2508 14.6715 2
72.1455 23.1494 2
70.615 26.2218 2
66.6389 17.9739 2
68.8869 21.9604 2
65.7984 21.025 2
74.9197 35.0474 4
74.2794 30.1841 4
72.1852 32.9432 3.9829
71.2789 28.4314 3.98377
69.8164 24.0601 3.98463
68.3485 26.951 3.97495
66.7641 22.933 3.97578
65.694 12.7746 4
65.3248 16.1022 3.9861
64.7157 19.1937 3.97749
63.8881 22.0351 3.9723
71.1327 54.0858 0
65.6939 62.2254 0
68.6801 58.3339 0
65.3132 59.0022 0.0146977
72.1455 51.8506 2
69.9759 56.25 2
68.8373 53.1108 2
64.0165 64.0165 2
66.6125 57.1315 2
63.8879 60.7656 2
63.5024 57.7745 2
62.2254 65.694 4
58.8952 65.4147 3.99217
69.7696 50.9888 3.98371
67.7844 55.1674 3.98396
66.6505 52.2095 3.97454
62.3371 62.4283 3.98933
64.6628 56.0329 3.97796
62.2045 59.4069 3.98012
61.8249 56.6834 3.97472
58.3339 68.6801 4
60.3285 67.2508 2
73.7221 47.2057 0
74.6784 42.3946 0
74.9197 39.9526 2
74.2794 44.8159 2
72.1683 42.0856 2
73.0099 49.554 2
71.2499 46.5978 2
75 37.5 4
72.4058 39.8023 3.98259
71.7831 44.3531 3.98303
69.8048 41.7899 3.97305
70.5757 48.8135 3.98337
68.9136 46.0154 3.97386
74.6792 32.6053 0
73.7222 27.7943 0
67.2507 14.6715 0
72.1454 23.1494 0
70.6149 26.2213 0.015676
68.8866 21.9584 0.0153235
66.638 17.9713 0.0154604
65.7987 21.0249 0.0236272
74.9197 35.0474 2
74.2794 30.1841 2
72.1849 32.9434 2
71.2789 28.4317 2
65.694 12.7745 2
65.326 16.1041 2
69.8165 24.0613 2
68.3484 26.9513 2
64.7156 19.1933 2
66.7638 22.9333 2
63.8877 22.0349 2
72.4136 35.2241 3.98257
71.8044 30.6762 3.98314
69.8408 33.2679 3.97364
68.9676 29.0376 3.97451
67.6128 24.9118 3.97514
66.196 27.6337 3.97138
64.0165 10.9835 4
64.7577 23.8297 3.97203
63.8912 14.3259 3.9879
63.5156 17.4443 3.9799
62.9083 20.3197 3.97265
62.0924 22.9437 3.97051
60.6847 11.0967 3.99014
57.6129 11.4445 3.98397
72.1454 51.8506 0
69.9759 56.25 0
68.837 53.1129 0.0163012
64.0165 64.0165 0
63.8867 60.767 0.0128906
66.6116 57.1344 0.0151764
63.5024 57.7737 0.0212258
62.2255 65.694 2
58.8958 65.4146 2
69.7697 50.9874 2
67.785 55.1647 2
66.6502 52.2091 2
62.3381 62.4275 2
64.6626 56.0333 2
62.2047 59.4081 2
61.8249 56.6845 2
60.6696 63.9777 3.99096
57.026 66.7355 3.99284
57.5589 63.6942 3.98596
67.5086 50.1771 3.97393
65.7032 54.1738 3.97553
64.5378 51.3856 3.97054
60.7744 60.9406 3.98208
62.8218 55.0693 3.97415
60.6599 58.1624 3.97573
60.3286 55.7871 3.97395
56.25 69.9759 4
58.3339 68.6801 2
60.3285 67.2507 0
58.9218 9.65502 3.9911
62.2254 9.30607 4
73.0099 49.554 0
74.2788 44.8158 0
71.2499 46.5983 0.0167569
72.1686 42.0857 0.0174292
74.9194 39.9526 0
75 37.5 2
72.4057 39.8024 2
71.783 44.3527 2
69.8046 41.7897 2
70.5758 48.8129 2
68.9136 46.015 2
72.4891 37.5121 3.98234
70.0418 39.6574 3.97283
69.4316 43.908 3.9736
67.5978 41.4977 3.9697
68.267 48.1076 3.97361
66.711 45.4407 3.97023
74.9197 35.0474 0
74.2794 30.1841 0
72.1852 32.9432 0.0171001
71.2789 28.4314 0.0162268
65.694 12.7746 0
65.3248 16.1022 0.0138956
69.8164 24.0601 0.0153746
68.3485 26.951 0.0250498
66.7641 22.933 0.0242225
64.7157 19.1937 0.0225127
63.8881 22.0351 0.0276992
72.4135 35.2241 2
71.8044 30.6765 2
69.8406 33.2681 2
68.9677 29.0378 2
64.0165 10.9835 2
63.8922 14.327 2
63.5157 17.4434 2
67.6126 24.9121 2
66.1959 27.6337 2
62.9082 20.3191 2
64.7574 23.8296 2
62.0921 22.9436 2
60.6854 11.0974 2
57.6131 11.4437 2
70.0584 35.3916 3.97298
69.468 31.1491 3.97366
67.656 33.5903 3.97008
66.7734 29.6219 3.97065
65.5251 25.6987 3.97154
64.1472 28.2547 3.97053
62.3425 12.6539 3.9891
62.8569 24.6372 3.97076
62.2011 15.7815 3.98185
61.8158 18.6824 3.97507
61.2168 21.3424 3.96962
60.4233 23.7287 3.97068
59.2471 12.776 3.98252
55.8748 10.2311 3.98555
56.4058 13.1102 3.98056
69.7696 50.9888 0.0162851
62.2254 65.694 0
58.8952 65.4147 0.00782974
67.7844 55.1674 0.0160356
66.6505 52.2095 0.0254634
62.3371 62.4283 0.0106669
62.2045 59.4069 0.0198794
64.6628 56.0329 0.0220411
61.8249 56.6834 0.0252823
60.6704 63.9773 2
57.0264 66.7356 2
57.559 63.6953 2
67.5084 50.1767 2
65.7029 54.1736 2
64.5376 51.3857 2
60.7745 60.9419 2
62.8217 55.0701 2
60.6601 58.1637 2
60.3289 55.7878 2
55.0714 67.9325 3.9931
59.2203 62.3687 3.9833
55.8058 64.9121 3.98826
56.3278 62.0935 3.98202
65.3322 49.4089 3.96995
63.7061 53.2925 3.97087
62.4404 50.652 3.96876
59.3346 59.5605 3.97896
61.0768 54.3099 3.97305
59.2898 57.014 3.97253
59.2418 55.1827 3.97602
48.1038 68.5798 3.98925
50.949 69.9321 3.9933
54.0858 71.1327 4
56.25 69.976 2
58.3339 68.6801 0
57.0591 8.3351 3.99154
60.3285 7.74928 4
58.9226 9.65539 2
62.2255 9.30602 2
70.5757 48.8135 0.0166268
71.7831 44.3531 0.0169688
68.9136 46.0154 0.0261365
69.8048 41.7899 0.0269524
72.4058 39.8023 0.0174125
75 37.5 0
72.4888 37.5121 2
70.0418 39.6573 2
69.4315 43.9077 2
67.5976 41.4976 2
68.267 48.1072 2
66.7109 45.4406 2
70.1298 37.5214 3.97287
67.8348 39.5123 3.96962
67.2246 43.4704 3.96995
65.5543 41.2098 3.96982
66.0692 47.4187 3.96993
64.6531 44.8488 3.96958
72.4136 35.2241 0.017434
71.8044 30.6762 0.0168576
69.8408 33.2679 0.0263618
68.9676 29.0376 0.0254924
64.0165 10.9835 0
63.8912 14.3259 0.0121007
63.5156 17.4443 0.0201045
67.6128 24.9118 0.0248563
66.196 27.6337 0.0286208
64.7577 23.8297 0.0279698
62.9083 20.3197 0.0273512
62.0924 22.9437 0.0294877
60.6847 11.0967 0.00985697
57.6129 11.4445 0.0160316
70.0584 35.3918 2
69.468 31.1492 2
67.6558 33.5903 2
66.7735 29.6218 2
62.3433 12.6548 2
62.2011 15.7806 2
61.8159 18.6813 2
65.5249 25.6987 2
64.1471 28.2547 2
61.2168 21.342 2
62.8566 24.6371 2
60.4231 23.7287 2
59.2472 12.7754 2
56.4057 13.1092 2
55.8749 10.2303 2
67.8708 35.5471 3.96973
67.2657 31.6216 3.97
65.6978 33.9268 3.96984
64.6635 30.1913 3.96985
63.5383 26.4137 3.97048
62.257 28.7775 3.97144
60.7766 14.2205 3.98232
61.0435 25.3381 3.97084
60.6149 17.1243 3.97856
60.2225 19.8159 3.97162
59.6574 22.2611 3.96845
58.974 24.3222 3.9712
54.0379 9.13421 3.9865
57.9112 14.3288 3.98067
54.7871 12.0093 3.98196
55.3128 14.6434 3.97919
67.5086 50.1771 0.0260666
57.026 66.7355 0.00716097
60.6696 63.9777 0.00903828
57.5589 63.6942 0.0140398
65.7032 54.1738 0.0244708
64.5378 51.3856 0.0294633
60.7744 60.9406 0.0179168
60.6599 58.1624 0.0242668
62.8218 55.0693 0.0258534
60.3286 55.7871 0.0260533
55.0718 67.9326 2
59.2204 62.3699 2
55.8057 64.9131 2
56.3278 62.0949 2
65.332 49.4088 2
63.706 53.2929 2
62.4402 50.652 2
59.3348 59.5617 2
61.0771 54.3104 2
59.2903 57.0145 2
59.2422 55.183 2
53.0432 69.0004 3.99323
53.9682 66.0145 3.98899
57.8815 60.8733 3.98046
54.6848 63.2111 3.98421
55.212 60.62 3.97995
63.1934 48.6613 3.96883
61.7388 52.5748 3.96839
60.2673 50.0174 3.96825
58.0188 58.2636 3.97496
59.3248 53.9461 3.97265
58.1255 55.8095 3.9707
50.1105 67.8578 3.98923
47.4641 66.5833 3.98675
46.0573 69.1592 3.98925
48.1038 68.5803 2
48.8031 70.7234 3.99339
50.9493 69.9323 2
51.8506 72.1454 4
54.0858 71.1327 2
56.25 69.9759 0
55.1035 7.13976 3.99185
58.3339 6.31992 4
57.0597 8.33528 2
60.3286 7.74926 2
58.9218 9.65502 0.00890246
62.2254 9.30607 0
68.267 48.1076 0.0263946
69.4316 43.908 0.0264046
66.711 45.4407 0.0297695
67.5978 41.4977 0.0303022
70.0418 39.6574 0.0271694
72.4891 37.5121 0.0176592
70.1297 37.5213 2
67.8348 39.5122 2
67.2245 43.4703 2
65.554 41.2097 2
66.0692 47.4186 2
64.653 44.8488 2
67.931 37.5218 3.96963
65.7837 39.3701 3.96988
65.1766 43.0255 3.96968
63.7392 40.9293 3.97161
63.965 46.7171 3.96916
62.8038 44.2161 3.97176
70.0584 35.3916 0.0270214
69.468 31.1491 0.0263355
67.656 33.5903 0.0299166
66.7734 29.6219 0.0293451
62.3425 12.6539 0.0108971
62.2011 15.7815 0.0181486
61.8158 18.6824 0.0249266
65.5251 25.6987 0.0284634
64.1472 28.2547 0.0294682
62.8569 24.6372 0.0292357
61.2168 21.3424 0.0303775
60.4233 23.7287 0.0293223
59.2471 12.776 0.0174833
56.4058 13.1102 0.0194352
55.8748 10.2311 0.0144535
67.8707 35.5471 2
67.2657 31.6216 2
65.6976 33.9268 2
64.6635 30.1912 2
60.7766 14.2198 2
60.6149 17.1231 2
60.2228 19.8149 2
63.5381 26.4137 2
62.2567 28.7775 2
59.6575 22.261 2
61.0433 25.3381 2
58.9739 24.3225 2
57.9109 14.3279 2
55.3125 14.6425 2
54.0379 9.13345 2
54.787 12.0083 2
65.8733 35.6665 3.96979
65.1851 32.1537 3.96939
64.2746 34.2494 3.97106
62.5881 30.6357 3.97108
61.6489 27.0722 3.97086
60.8425 29.1406 3.97393
59.3121 15.6655 3.98021
59.3214 25.7984 3.97246
59.1244 18.3534 3.97608
58.7365 20.8564 3.96777
58.2778 23.0961 3.96915
57.9584 24.6672 3.97148
52.1125 8.15239 3.98724
53.0582 11.0153 3.98307
56.6771 15.7394 3.97992
53.8095 13.6783 3.98017
54.3761 15.9963 3.97937
55.0714 67.9325 0.00690284
65.3322 49.4089 0.0300497
55.8058 64.9121 0.0117399
59.2203 62.3687 0.0166968
56.3278 62.0935 0.0179848
63.7061 53.2925 0.0291295
62.4404 50.652 0.0312404
59.3346 59.5605 0.0210422
59.2898 57.014 0.0274727
61.0768 54.3099 0.0269531
59.2418 55.1827 0.0239787
53.0436 69.0005 2
53.968 66.0152 2
57.8816 60.8745 2
54.6847 63.2122 2
55.2121 60.6214 2
63.1933 48.6612 2
61.7389 52.5749 2
60.2674 50.0173 2
58.0191 58.265 2
59.3253 53.9462 2
58.1259 55.8095 2
52.0716 67.0009 3.98919
52.9543 64.2218 3.98591
56.6489 59.4916 3.9785
53.6819 61.6266 3.98197
54.2602 59.3249 3.9777
60.9803 47.8786 3.96906
59.7031 52.1032 3.96796
58.0081 49.6123 3.97077
56.7761 56.9855 3.97267
57.1156 54.1161 3.9704
50.1104 67.8584 2
49.3379 65.9236 3.98677
47.4639 66.5838 2
46.8933 64.7394 3.98537
45.559 67.1005 3.98662
43.9741 69.5914 3.98915
46.0573 69.1596 2
46.6097 71.3679 3.99339
48.1038 68.5798 0.0107471
48.8034 70.7236 2
49.554 73.0099 4
50.949 69.9321 0.00670452
51.8506 72.1455 2
54.0858 71.1327 0
53.0647 6.07121 3.99212
55.104 7.13973 2
56.25 5.02411 4
58.3339 6.3199 2
57.0591 8.3351 0.00845713
60.3285 7.74928 0
66.0692 47.4187 0.0300657
67.2246 43.4704 0.030045
64.6531 44.8488 0.0304165
65.5543 41.2098 0.0301791
67.8348 39.5123 0.030378
70.1298 37.5214 0.0271328
67.9309 37.5217 2
65.7835 39.37 2
65.1765 43.0254 2
63.7392 40.9293 2
63.9649 46.717 2
62.8034 44.2159 2
65.8867 37.5015 3.96976
63.8734 39.2665 3.97124
63.3175 42.5499 3.97157
62.3996 40.6974 3.97342
61.9613 45.9182 3.97089
61.4333 43.6826 3.97415
67.8708 35.5471 0.030267
67.2657 31.6216 0.0299957
65.6978 33.9268 0.030161
64.6635 30.1913 0.030146
60.7766 14.2205 0.0176816
60.6149 17.1243 0.0214387
60.2225 19.8159 0.0283762
63.5383 26.4137 0.0295173
62.257 28.7775 0.0285569
61.0435 25.3381 0.0291619
59.6574 22.2611 0.0315501
58.974 24.3222 0.0288047
57.9112 14.3288 0.0193265
55.3128 14.6434 0.0208134
54.0379 9.13421 0.0135034
54.7871 12.0093 0.0180365
65.8732 35.6664 2
65.1851 32.1536 2
64.2746 34.2494 2
62.5881 30.6356 2
59.3118 15.6645 2
59.1246 18.3521 2
58.7372 20.8558 2
61.6486 27.0723 2
60.8427 29.1407 2
58.278 23.0964 2
59.3219 25.7985 2
57.9583 24.6676 2
56.6767 15.7384 2
54.3757 15.9955 2
53.8094 13.6772 2
52.1125 8.15176 2
53.0581 11.0143 2
64.0707 35.6321 3.97085
62.9115 33.0463 3.97132
60.5976 30.6122 3.97376
59.5583 27.9116 3.97356
57.9401 16.9805 3.97896
57.7229 25.7287 3.97394
57.7129 19.4759 3.97273
57.3628 21.8471 3.96628
57.1743 23.9501 3.96992
50.1126 7.28411 3.9878
51.2327 10.1231 3.9841
52.172 12.7953 3.98156
55.5374 16.9697 3.97944
52.9772 15.2618 3.97811
53.7574 16.9787 3.98031
53.0432 69.0004 0.00676656
53.9682 66.0145 0.0110144
63.1934 48.6613 0.0311716
54.6848 63.2111 0.0157871
57.8815 60.8733 0.0195447
55.212 60.62 0.0200458
61.7388 52.5748 0.0316095
60.2673 50.0174 0.0317537
58.0188 58.2636 0.0250433
58.1255 55.8095 0.0292993
59.3248 53.9461 0.0273485
52.0716 67.0015 2
52.9541 64.2226 2
56.6489 59.4931 2
53.6818 61.6279 2
54.2604 59.3264 2
60.9798 47.8784 2
59.7035 52.103 2
58.007 49.6118 2
56.7761 56.99 2
57.1162 54.1161 2
51.1688 65.1307 3.98654
52.047 62.5428 3.98394
55.4805 58.2523 3.9779
52.8347 60.1394 3.97984
53.6393 58.4746 3.97998
58.2786 46.8451 3.97355
57.5493 51.7806 3.96836
56.2206 49.5481 3.97223
55.4683 55.7842 3.96982
55.3465 53.373 3.97016
50.1105 67.8578 0.0107679
49.3377 65.9243 2
48.6191 64.126 3.98539
47.4641 66.5833 0.0132468
45.5589 67.101 2
46.8931 64.74 2
46.3829 63.0572 3.98459
45.1335 65.2005 3.98532
43.632 67.471 3.98662
41.8611 69.8789 3.98895
43.9741 69.592 2
44.377 71.8627 3.99328
46.0573 69.1592 0.0107508
46.61 71.3681 2
47.2057 73.7222 4
48.8031 70.7234 0.00660716
49.554 73.0099 2
51.8506 72.1454 0
50.9544 5.13146 3.99243
53.065 6.07111 2
54.0858 3.86728 4
55.1035 7.13976 0.00815014
56.25 5.02406 2
58.3339 6.31992 0
63.965 46.7171 0.030842
65.1766 43.0255 0.0303163
62.8038 44.2161 0.0282431
63.7392 40.9293 0.0283896
65.7837 39.3701 0.030125
67.931 37.5218 0.0303688
65.8864 37.5015 2
63.8731 39.2664 2
63.3173 42.5498 2
62.3996 40.6974 2
61.9607 45.918 2
61.4327 43.6824 2
63.9359 37.4568 3.97115
62.1123 39.3547 3.97253
61.1834 41.9576 3.97406
60.2351 44.769 3.97447
65.8733 35.6665 0.0302082
65.1851 32.1537 0.0306135
64.2746 34.2494 0.0289365
62.5881 30.6357 0.02892
59.3121 15.6655 0.0197879
59.1244 18.3534 0.0239237
58.7365 20.8564 0.0322305
61.6489 27.0722 0.029135
60.8425 29.1406 0.0260655
59.3214 25.7984 0.0275437
58.2778 23.0961 0.0308538
57.9584 24.6672 0.0285214
56.6771 15.7394 0.0200761
54.3761 15.9963 0.0206299
53.8095 13.6783 0.0198318
52.1125 8.15239 0.0127628
53.0582 11.0153 0.0169257
64.0706 35.632 2
62.9112 33.0463 2
60.5979 30.6123 2
57.9399 16.9793 2
57.7135 19.4746 2
57.3635 21.8474 2
59.5587 27.9118 2
57.1738 23.9506 2
57.7235 25.729 2
50.1126 7.28356 2
55.5369 16.9687 2
53.757 16.9778 2
52.9769 15.2606 2
52.1719 12.7943 2
51.2326 10.1224 2
62.147 35.3596 3.97203
60.2518 32.7459 3.97362
58.5924 30.0775 3.9754
57.2623 27.3847 3.975
56.6354 18.1545 3.97868
56.2719 25.1053 3.97152
56.3517 20.5258 3.96904
56.0942 22.8767 3.96684
48.0564 6.52695 3.98841
49.3246 9.33069 3.9846
50.4332 11.9927 3.9823
51.3773 14.4969 3.98017
54.4134 17.9191 3.98031
52.3597 17.036 3.97738
52.0716 67.0009 0.0108102
52.9543 64.2218 0.0140857
60.9803 47.8786 0.0309443
53.6819 61.6266 0.0180306
56.6489 59.4916 0.0215008
54.2602 59.3249 0.0222994
59.7031 52.1032 0.0320362
58.0081 49.6123 0.0292313
56.7761 56.9855 0.0273285
57.1156 54.1161 0.029602
51.1686 65.1314 2
52.0468 62.5439 2
55.4807 58.2536 2
52.8348 60.1406 2
53.6395 58.4759 2
58.2782 46.8447 2
57.5497 51.7803 2
56.2199 49.5475 2
55.4692 55.7851 2
55.3474 53.3733 2
50.3472 63.3843 3.98485
51.2447 60.9398 3.98147
54.2172 57.2689 3.97805
52.3121 58.6372 3.97755
56.6584 44.1775 3.97671
55.4564 47.8891 3.9747
55.0524 51.3811 3.96873
53.9955 54.5306 3.96847
49.3379 65.9236 0.013226
48.6188 64.1268 2
47.963 62.4786 3.98442
45.559 67.1005 0.0133753
46.8933 64.7394 0.0146307
43.6319 67.4717 2
46.3827 63.058 2
45.1332 65.2012 2
45.9885 61.5902 3.9841
44.7681 63.4579 3.98463
43.3574 65.5099 3.98523
41.6639 67.6898 3.98641
39.7025 70.026 3.98896
41.8611 69.8794 2
42.1113 72.2075 3.99314
43.9741 69.5914 0.0108494
44.3772 71.863 2
44.8159 74.2794 4
46.6097 71.3679 0.00660588
47.2057 73.7222 2
49.554 73.0099 0
48.7848 4.32234 3.99276
50.9547 5.1313 2
51.8506 2.85458 4
53.0647 6.07121 0.00787697
54.0858 3.86728 2
56.25 5.02411 0
61.9613 45.9182 0.0291135
63.3175 42.5499 0.0284335
61.4333 43.6826 0.0258523
62.3996 40.6974 0.0265762
63.8734 39.2665 0.0287553
65.8867 37.5015 0.0302447
63.9354 37.4567 2
62.1118 39.3547 2
61.1831 41.9575 2
60.2343 44.7688 2
61.9479 37.4444 3.97261
60.1952 39.8465 3.97482
58.9449 42.9156 3.97575
64.0707 35.6321 0.0291542
62.9115 33.0463 0.0286791
60.5976 30.6122 0.0262417
57.9401 16.9805 0.0210366
57.7129 19.4759 0.0272687
57.3628 21.8471 0.0337178
59.5583 27.9116 0.0264417
57.7229 25.7287 0.0260598
57.1743 23.9501 0.0300785
55.5374 16.9697 0.0205555
53.7574 16.9787 0.0196866
52.9772 15.2618 0.0218946
50.1126 7.28411 0.0121954
52.172 12.7953 0.0184366
51.2327 10.1231 0.0159043
62.1467 35.3596 2
60.2514 32.7459 2
58.592 30.0777 2
56.6354 18.1532 2
56.3522 20.523 2
56.095 22.8773 2
57.2637 27.385 2
56.2721 25.1061 2
48.0564 6.52644 2
49.3245 9.33017 2
54.4132 17.9182 2
52.3593 17.0351 2
51.377 14.4957 2
50.433 11.9919 2
59.8315 35.1197 3.97347
57.9458 32.2717 3.97661
56.5087 29.3438 3.97646
55.4147 26.6041 3.97501
55.3387 19.1882 3.97729
54.9075 24.0638 3.9697
54.9901 21.5701 3.96786
45.9623 5.88194 3.98891
43.3736 7.47285 3.98633
47.355 8.62401 3.98517
48.6 11.2938 3.98279
49.7136 13.743 3.98123
50.6324 16.132 3.97914
53.1217 18.6599 3.97627
51.2987 18.0496 3.9835
51.1688 65.1307 0.0134574
52.047 62.5428 0.0160597
58.2786 46.8451 0.0264465
52.8347 60.1394 0.0201631
55.4805 58.2523 0.0221004
53.6393 58.4746 0.0200189
57.5493 51.7806 0.031638
56.2206 49.5481 0.0277668
55.4683 55.7842 0.0301825
55.3465 53.373 0.0298368
50.3469 63.3851 2
51.2447 60.9409 2
54.2176 57.2704 2
52.3122 58.6383 2
56.657 44.1771 2
55.4551 47.8883 2
55.0531 51.3806 2
53.9965 54.5324 2
49.5926 61.7486 3.98363
55.5462 41.6978 3.97714
50.5668 59.3318 3.97768
52.1809 56.4906 3.97273
54.1162 45.5544 3.97724
53.2908 49.3184 3.97193
52.6496 52.8359 3.96601
48.6191 64.126 0.0146108
47.9628 62.4793 2
47.3302 61.0133 3.98364
43.632 67.471 0.0133844
45.1335 65.2005 0.0146807
46.3829 63.0572 0.0154051
41.6638 67.6903 2
43.3571 65.5107 2
45.9884 61.591 2
44.7679 63.4587 2
45.7671 60.6346 3.98298
44.4843 61.8394 3.98373
43.1472 63.73 3.98419
41.5467 65.6474 3.98474
39.6329 67.7695 3.98616
37.5259 70.0511 3.98888
39.7026 70.0266 2
39.8179 72.4046 3.993
41.8611 69.8789 0.011048
42.1115 72.2078 2
42.3947 74.6792 4
44.377 71.8627 0.00672016
44.8159 74.2794 2
47.2057 73.7222 0
43.8517 5.35878 3.98921
46.5708 3.64684 3.99298
48.7851 4.32214 2
49.554 1.99015 4
50.9544 5.13146 0.0075706
51.8506 2.85453 2
54.0858 3.86728 0
60.2351 44.769 0.025527
61.1834 41.9576 0.0259446
62.1123 39.3547 0.0274685
63.9359 37.4568 0.0288508
61.9474 37.4444 2
60.1947 39.8464 2
58.9442 42.9154 2
59.6847 37.5661 3.97372
57.9263 40.6543 3.97672
54.9945 39.7158 3.97757
62.147 35.3596 0.027966
60.2518 32.7459 0.0263761
58.5924 30.0775 0.0246
56.6354 18.1545 0.021323
56.3517 20.5258 0.030963
56.0942 22.8767 0.0331639
57.2623 27.3847 0.0250017
56.2719 25.1053 0.0284758
54.4134 17.9191 0.0196924
52.3597 17.036 0.0226171
51.3773 14.4969 0.0198251
48.0564 6.52695 0.0115928
49.3246 9.33069 0.0153962
50.4332 11.9927 0.0176975
59.831 35.1197 2
45.9623 5.88144 2
43.3736 7.47235 2
57.9474 32.2718 2
56.5091 29.3441 2
55.339 19.1871 2
54.991 21.5692 2
54.9078 24.065 2
55.4099 26.6056 2
47.355 8.62345 2
48.5998 11.2933 2
53.1218 18.659 2
51.2985 18.0486 2
50.6321 16.1309 2
49.7133 13.7423 2
57.3144 34.761 3.97759
55.6754 31.5238 3.97766
54.4444 28.4122 3.9786
53.7457 25.5045 3.97392
53.9629 20.1392 3.97617
53.562 22.7223 3.96414
41.3988 7.07789 3.9869
45.3597 7.99498 3.9859
42.8655 9.41582 3.98423
46.6664 10.6541 3.98305
47.7452 13.1029 3.98196
48.9304 15.4022 3.97966
50.0038 17.7011 3.97981
51.6447 19.3239 3.98595
50.3472 63.3843 0.0151488
51.2447 60.9398 0.0185314
56.6584 44.1775 0.0232852
55.4564 47.8891 0.0253019
52.3121 58.6372 0.0224468
54.2172 57.2689 0.021948
55.0524 51.3811 0.031268
53.9955 54.5306 0.0315342
49.5924 61.7493 2
55.5466 41.6973 2
50.5669 59.3331 2
52.1815 56.4915 2
54.1181 45.5537 2
53.2937 49.3177 2
52.6512 52.8351 2
48.8495 60.2057 3.98206
52.4136 42.6287 3.97798
49.7877 57.6277 3.97761
50.581 54.4215 3.97023
51.7347 47.2561 3.97611
51.179 50.9328 3.96745
48.0466 43.79 3.99246
47.963 62.4786 0.0155785
47.3301 61.014 2
46.6195 59.7998 3.98305
41.6639 67.6898 0.0135856
43.3574 65.5099 0.0147742
44.7681 63.4579 0.0153689
45.9885 61.5902 0.015901
39.6329 67.7702 2
41.5464 65.6479 2
45.767 60.6355 2
43.1471 63.7308 2
44.4843 61.8402 2
44.6243 60.2969 3.98316
42.9513 62.0874 3.98336
41.6006 63.8232 3.98419
39.648 65.6155 3.98423
37.5633 67.7518 3.98599
31.6965 65.1341 3.98463
33.3918 67.4892 3.98596
35.3331 69.9612 3.98889
37.5259 70.0518 2
37.5094 72.4592 3.99293
39.7025 70.026 0.0110365
39.818 72.405 2
39.9526 74.9197 4
42.1113 72.2075 0.00686156
42.3947 74.6792 2
44.8159 74.2794 0
41.7363 4.96786 3.98957
43.8517 5.35825 2
44.326 3.10997 3.99325
46.571 3.6466 2
47.2057 1.27793 4
48.7848 4.32234 0.00723823
49.554 1.99013 2
51.8506 2.85458 0
58.9449 42.9156 0.0242493
60.1952 39.8465 0.0251849
61.9479 37.4444 0.0273852
59.6846 37.5661 2
57.9254 40.6541 2
54.9949 39.7158 2
56.7205 37.894 3.97762
49.4464 41.3279 3.98819
53.0138 39.3033 3.97972
39.4422 6.80126 3.98696
59.8315 35.1197 0.0265273
57.9458 32.2717 0.023391
56.5087 29.3438 0.0235434
55.3387 19.1882 0.0227074
54.9901 21.5701 0.0321383
54.9075 24.0638 0.0303011
55.4147 26.6041 0.0249912
53.1217 18.6599 0.0237318
51.2987 18.0496 0.0164983
50.6324 16.132 0.0208587
45.9623 5.88194 0.0110941
49.7136 13.743 0.018775
47.355 8.62401 0.0148309
48.6 11.2938 0.0172059
43.3736 7.47285 0.013665
57.3135 34.7611 2
41.3988 7.07736 2
45.3597 7.99447 2
42.8655 9.41531 2
55.6752 31.524 2
54.4411 28.4139 2
53.9635 20.1385 2
53.5626 22.7199 2
53.7442 25.5056 2
46.6662 10.6536 2
47.7448 13.1025 2
51.6447 19.3228 2
50.0035 17.7 2
48.93 15.4015 2
54.7822 33.9751 3.97769
53.4107 30.4948 3.97663
52.5422 27.2109 3.97583
52.1151 24.1092 3.97252
52.379 21.0585 3.98006
41.0135 9.04839 3.98439
44.7237 9.99628 3.98368
42.4685 10.9034 3.98322
46.005 12.7313 3.98095
47.6809 14.5861 3.98064
48.1113 16.9912 3.97829
49.8144 19.6237 3.97614
49.5926 61.7486 0.0163694
50.5668 59.3318 0.0223164
55.5462 41.6978 0.0228595
54.1162 45.5544 0.0227625
53.2908 49.3184 0.0280723
52.1809 56.4906 0.027271
52.6496 52.8359 0.0339908
48.8494 60.2065 2
52.4169 42.6272 2
49.7881 57.6294 2
50.582 54.4228 2
51.7366 47.2546 2
51.1816 50.9314 2
48.0501 43.8002 2
47.9869 58.7466 3.97986
49.9902 45.2649 3.97802
48.5919 55.9184 3.97809
49.1067 52.5844 3.97209
49.6173 49.0353 3.97252
45.8503 39.8697 3.89506
46.29 42.6711 3.93766
46.3973 45.8363 3.99266
43.6896 41.1661 3.85839
41.9533 42.0225 3.78463
47.3302 61.0133 0.0163593
46.6192 59.8005 2
45.469 58.7965 3.98318
39.6329 67.7695 0.0138357
41.5467 65.6474 0.0152561
43.1472 63.73 0.0158101
44.4843 61.8394 0.0162677
45.7671 60.6346 0.0170179
41.6004 63.8238 2
37.5633 67.7526 2
39.6478 65.6161 2
44.6241 60.2978 2
42.9512 62.0881 2
41.7542 62.4981 3.9835
42.4817 59.9882 3.98422
39.894 63.558 3.98352
37.6423 65.5145 3.98399
35.4633 67.6611 3.98591
33.575 65.3474 3.98414
31.9589 63.3065 3.98392
29.8825 64.7252 3.98518
31.6966 65.1348 2
31.3763 67.199 3.98613
33.3918 67.49 2
33.1558 69.7544 3.98879
35.3331 69.9619 2
35.1947 72.3735 3.99288
37.5259 70.0511 0.0111175
37.5095 72.4596 2
37.5 75 4
39.8179 72.4046 0.00699921
39.9526 74.9197 2
42.3947 74.6792 0
39.6239 4.71491 3.98978
41.7363 4.96736 2
42.0623 2.71753 3.99336
43.8517 5.35878 0.0107861
44.3262 3.10967 2
44.8158 0.721173 4
46.5708 3.64684 0.00701964
47.2057 1.27779 2
49.554 1.99015 0
57.9263 40.6543 0.0232785
59.6847 37.5661 0.0262765
54.9945 39.7158 0.0224255
49.461 41.3309 2
56.7193 37.8939 2
53.0158 39.3063 2
53.8631 36.6294 3.97746
47.3734 40.4046 3.94212
50.3861 38.5121 3.98899
37.516 6.67223 3.98726
39.4422 6.8007 2
39.2109 8.69081 3.98486
35.9415 8.49051 3.98524
57.3144 34.761 0.0224051
55.6754 31.5238 0.0223444
54.4444 28.4122 0.0214027
53.9629 20.1392 0.0238349
53.562 22.7223 0.0358613
53.7457 25.5045 0.0260791
51.6447 19.3239 0.0140499
50.0038 17.7011 0.0201927
48.9304 15.4022 0.0203359
45.3597 7.99498 0.0141031
47.7452 13.1029 0.018041
46.6664 10.6541 0.0169486
41.3988 7.07789 0.0130989
42.8655 9.41582 0.0157721
54.7847 33.9743 2
41.0135 9.04789 2
44.7236 9.99586 2
42.4682 10.9028 2
53.4074 30.4943 2
52.5458 27.2123 2
52.3799 21.0567 2
52.1163 24.1105 2
46.0046 12.7307 2
47.6805 14.5855 2
49.8145 19.6225 2
48.111 16.9905 2
52.3474 32.8853 3.97995
51.2442 29.1648 3.97817
50.7431 25.7413 3.97247
49.9288 22.2073 3.97735
40.5698 11.6073 3.98188
43.858 11.9196 3.98165
45.8019 15.4242 3.9801
47.5018 19.2366 3.97663
46.1846 37.4932 3.90038
48.8495 60.2057 0.0179353
49.7877 57.6277 0.0223892
52.4136 42.6287 0.0220197
51.7347 47.2561 0.0238908
51.179 50.9328 0.0325511
50.581 54.4215 0.0297672
48.0466 43.79 0.00753565
47.9868 58.7478 2
49.9958 45.2676 2
48.5924 55.921 2
49.1078 52.5862 2
49.6206 49.0343 2
45.8753 39.8787 2
46.3071 42.6843 2
46.3979 45.83 2
43.7117 41.1815 2
41.9621 42.0296 2
46.8372 57.3487 3.98275
44.4367 39.4455 3.85515
42.3005 40.8863 3.81382
48.0007 47.2311 3.97624
47.1556 54.2422 3.97665
47.5507 50.7396 3.96754
44.7304 47.4185 3.99092
44.9534 41.9607 3.89692
44.854 44.5716 3.9462
42.5463 42.6842 3.86194
40.8523 42.3697 3.81495
46.6195 59.7998 0.0169491
45.4686 58.7974 2
43.8765 57.7219 3.98487
37.5633 67.7518 0.0140075
39.648 65.6155 0.015773
41.6006 63.8232 0.0158145
42.9513 62.0874 0.0166356
44.6243 60.2969 0.0168387
35.4633 67.6619 2
41.7541 62.4987 2
39.8939 63.5586 2
37.6423 65.5152 2
42.4817 59.9891 2
40.6236 61.6562 3.9831
40.4452 58.2205 3.98468
37.8372 63.219 3.98278
35.5728 65.4365 3.98398
33.575 65.3481 2
31.9588 63.3072 2
33.6287 63.3461 3.98333
30.3777 62.8652 3.98422
32.1226 62.013 3.98439
26.8675 61.5085 3.98368
28.0613 64.153 3.98504
29.8826 64.7259 2
29.4056 66.7627 3.98632
31.6965 65.1341 0.0153709
31.3763 67.1997 2
31.0129 69.4193 3.98877
33.3918 67.4892 0.0140436
33.1558 69.7551 2
32.8916 72.1477 3.99292
35.3331 69.9612 0.0111134
35.1947 72.3739 2
35.0474 74.9194 4
37.5094 72.4592 0.00707449
37.5 75 2
39.9526 74.9197 0
35.6206 6.72332 3.987
37.5231 4.61445 3.9899
39.6239 4.71442 2
39.7887 2.4739 3.9935
41.7363 4.96786 0.0104252
42.0625 2.71722 2
42.3946 0.32156 4
44.326 3.10997 0.00675419
44.8159 0.72056 2
47.2057 1.27793 0
49.4464 41.3279 0.011807
56.7205 37.894 0.0223827
53.0138 39.3033 0.0202843
47.3887 40.4173 2
50.3998 38.5112 2
53.8682 36.6305 2
51.1861 35.5804 3.97872
48.029 37.7432 3.95755
45.8533 35.1363 3.8958
43.6994 33.8334 3.85394
41.9613 32.9867 3.78086
37.4577 8.53219 3.98514
37.516 6.67151 2
39.4422 6.80126 0.0130404
39.2109 8.69018 2
38.9766 10.1245 3.98428
35.8984 9.77085 3.98375
34.1501 8.82008 3.98492
35.9414 8.48975 2
54.7822 33.9751 0.0223094
53.4107 30.4948 0.0233654
52.5422 27.2109 0.0241721
52.379 21.0585 0.0199363
52.1151 24.1092 0.0274756
49.8144 19.6237 0.0238551
48.1113 16.9912 0.0217052
47.6809 14.5861 0.0193595
44.7237 9.99628 0.0163232
46.005 12.7313 0.0190549
41.0135 9.04839 0.0156143
42.4685 10.9034 0.0167756
52.3485 32.8852 2
40.5695 11.6071 2
43.8576 11.9191 2
51.2558 29.1641 2
50.7445 25.7439 2
49.93 22.2064 2
45.8014 15.4238 2
47.5019 19.2347 2
49.8748 31.4182 3.96994
49.2234 27.5021 3.9767
49.3743 24.4214 3.98168
47.1801 21.9711 3.97448
38.3024 12.7332 3.9814
42.1012 14.3069 3.98023
44.7992 18.4642 3.9782
44.7281 37.4992 3.85581
46.2147 37.4994 2
47.9869 58.7466 0.0201416
48.5919 55.9184 0.0219139
49.9902 45.2649 0.0219767
49.6173 49.0353 0.0274794
49.1067 52.5844 0.0279095
45.8503 39.8697 0.10494
46.29 42.6711 0.0623358
46.3973 45.8363 0.00733645
43.6896 41.1661 0.141614
41.9533 42.0225 0.215369
46.837 57.3503 2
44.451 39.4566 2
42.2965 40.8874 2
48.0025 47.2325 2
47.1565 54.2464 2
47.5529 50.7409 2
44.7343 47.3949 2
44.9705 41.9742 2
44.8693 44.587 2
42.5721 42.7051 2
40.8504 42.371 2
45.3941 55.938 3.98739
42.6252 39.2769 3.82773
40.7577 40.8079 3.8829
46.0387 48.9098 3.98576
45.5193 52.5347 3.98222
43.3988 48.4483 4.00534
43.328 46.1254 3.94145
43.5853 43.768 3.89179
41.0801 43.8512 3.85802
39.2887 42.7259 3.82776
45.469 58.7965 0.0168225
43.8761 57.7226 2
42.1062 56.3485 3.98812
35.4633 67.6611 0.0140855
37.6423 65.5145 0.016015
39.894 63.558 0.016477
41.7542 62.4981 0.0164968
42.4817 59.9882 0.015776
35.5728 65.4374 2
40.6235 61.6569 2
37.837 63.2196 2
40.445 58.222 2
38.9249 56.5167 3.99068
38.2506 60.3391 3.98313
35.607 63.2124 3.98261
33.575 65.3474 0.0158572
31.9589 63.3065 0.0160777
33.6286 63.3468 2
30.3777 62.8659 2
32.1224 62.0137 2
28.6802 62.2102 3.98432
33.3453 61.5255 3.98361
31.0657 61.2304 3.98407
27.5669 59.6059 3.9823
23.7905 59.0914 3.98037
25.0332 60.8809 3.98243
26.8675 61.5092 2
26.2279 63.4855 3.98501
28.0614 64.1537 2
27.462 66.1865 3.98637
29.8825 64.7252 0.0148231
29.4057 66.7634 2
28.905 68.9448 3.98881
31.3763 67.199 0.0138695
31.0128 69.42 2
30.6139 71.7787 3.99297
33.1558 69.7544 0.0112082
32.8915 72.1481 2
32.6054 74.6784 4
35.1947 72.3735 0.00712413
35.0474 74.9197 2
37.5 75 0
33.7232 6.97794 3.98654
35.4346 4.68475 3.98971
35.6205 6.72267 2
37.5141 2.38657 3.99351
37.5231 4.61392 2
39.6239 4.71491 0.0102181
39.7888 2.47359 2
39.9526 0.0806499 4
42.0623 2.71753 0.00663625
42.3947 0.320817 2
44.8158 0.721173 0
44.4566 35.5531 3.84966
42.3118 34.1158 3.81052
47.3734 40.4046 0.0578839
50.3861 38.5121 0.0110067
53.8631 36.6294 0.0225415
48.0427 37.7527 2
51.1955 35.5801 2
45.8719 35.12 2
43.7229 33.8168 2
41.9702 32.9787 2
48.2092 34.3082 3.97902
44.9602 33.0392 3.89142
42.5544 32.3259 3.85999
40.8611 32.6395 3.8127
37.3108 10.6278 3.98296
37.4577 8.53125 2
37.516 6.67223 0.0127368
39.2109 8.69081 0.0151394
38.9765 10.1237 2
34.7536 10.3768 3.9832
35.8984 9.77007 2
32.3768 9.36676 3.98432
34.1499 8.8194 2
35.9415 8.49051 0.0147573
52.3474 32.8853 0.0200515
51.2442 29.1648 0.0218313
50.7431 25.7413 0.0275262
49.9288 22.2073 0.0226462
47.5018 19.2366 0.0233744
45.8019 15.4242 0.0198994
43.858 11.9196 0.0183494
40.5698 11.6073 0.0181182
49.8818 31.4129 2
38.302 12.7325 2
42.1008 14.3065 2
49.2254 27.5054 2
49.3757 24.4208 2
47.1811 21.9709 2
44.7991 18.4646 2
47.7074 29.5306 3.99079
47.0712 25.1622 3.98245
44.2858 21.3315 3.97563
36.5821 12.9292 3.98187
38.6813 14.8055 3.98019
41.7494 17.8405 3.9793
42.7593 37.4916 3.82826
44.7416 37.4993 2
46.1846 37.4932 0.0996166
46.8372 57.3487 0.0172531
47.1556 54.2422 0.0233479
48.0007 47.2311 0.0237582
47.5507 50.7396 0.0324566
44.4367 39.4455 0.144848
44.9534 41.9607 0.103082
44.854 44.5716 0.0538038
44.7304 47.4185 0.00907547
42.5463 42.6842 0.13806
42.3005 40.8863 0.186183
40.8523 42.3697 0.185054
45.3945 55.9393 2
42.6245 39.2752 2
40.7529 40.8031 2
46.04 48.9106 2
45.5217 52.5399 2
43.4015 48.4651 2
43.3509 46.1494 2
43.6031 43.7857 2
41.0991 43.8716 2
39.2808 42.7201 2
43.7305 54.4531 3.9974
40.8616 39.1745 3.91127
39.167 40.8991 3.91197
43.6663 50.5019 3.99968
41.9209 47.6741 3.9753
41.8482 45.1911 3.8953
39.3606 44.5872 3.87132
37.492 42.8452 3.84031
43.8765 57.7219 0.0151296
42.1056 56.3499 2
40.417 54.9594 3.99255
35.5728 65.4365 0.0160231
37.8372 63.219 0.0172164
40.6236 61.6562 0.0168963
40.4452 58.2205 0.0153221
35.6068 63.2132 2
38.2502 60.34 2
38.9244 56.5191 2
37.9985 55.2739 3.99186
36.9342 57.6426 3.98433
35.3634 60.924 3.98315
33.6287 63.3461 0.0166662
30.3777 62.8652 0.0157818
32.1226 62.013 0.0156052
33.3451 61.5263 2
28.6802 62.2109 2
31.0656 61.231 2
29.4019 60.2999 3.98371
32.3558 59.7583 3.98586
28.0211 58.3857 3.9855
27.5668 59.6065 2
25.3774 58.6039 3.97993
22.7548 58.248 3.97503
23.3991 60.36 3.98053
23.7904 59.0923 2
25.0332 60.8816 2
24.4305 62.7778 3.98427
26.8675 61.5085 0.016324
26.228 63.4861 2
25.546 65.4966 3.98644
28.0613 64.153 0.0149583
27.4621 66.1872 2
26.8345 68.3331 3.98885
29.4056 66.7627 0.0136771
28.905 68.9454 2
28.3689 71.2638 3.99304
31.0129 69.4193 0.0112253
30.6137 71.779 2
30.1842 74.2788 4
32.8916 72.1477 0.00708088
32.6053 74.6792 2
35.0474 74.9194 0
31.7876 7.4178 3.98615
33.3465 4.92392 3.9895
33.7231 6.97729 2
35.2442 2.46268 3.99352
35.4345 4.68423 2
35.6206 6.72332 0.0130014
37.5 0 4
37.5141 2.38624 2
37.5231 4.61445 0.0100958
39.7887 2.4739 0.00649741
39.9526 0.0802889 2
42.3946 0.32156 0
42.633 35.7145 3.82838
44.4658 35.5433 2
40.7678 34.1968 3.88159
42.3067 34.116 2
48.029 37.7432 0.0424503
51.1861 35.5804 0.0212764
45.8533 35.1363 0.104203
43.6994 33.8334 0.146061
41.9613 32.9867 0.219137
48.222 34.2904 2
44.9786 33.027 2
42.5772 32.3073 2
40.8598 32.6376 2
46.2254 31.5596 3.95517
43.5912 31.2434 3.88658
41.0945 31.1629 3.85903
39.2957 32.2823 3.82672
35.6923 11.7729 3.98198
37.3107 10.6269 2
37.4577 8.53219 0.0148639
38.9766 10.1245 0.0157183
33.0975 11.2136 3.98216
34.7536 10.3761 2
35.8984 9.77085 0.0162513
30.4814 10.0148 3.9838
32.3766 9.36607 2
34.1501 8.82008 0.0150824
49.8748 31.4182 0.0300613
49.2234 27.5021 0.0233011
49.3743 24.4214 0.0183185
47.1801 21.9711 0.0255195
44.7992 18.4642 0.0218029
42.1012 14.3069 0.019771
38.3024 12.7332 0.018602
36.5817 12.9286 2
47.7098 29.517 2
38.6807 14.8049 2
41.7489 17.8395 2
47.0736 25.1621 2
44.2868 21.3256 2
45.4983 27.6521 4.00086
43.7842 24.0584 3.99934
41.3402 20.7189 3.98007
35.772 14.7551 3.98098
38.681 17.596 3.9777
40.9091 37.4839 3.92278
42.7632 37.4928 2
44.7281 37.4992 0.144189
45.3941 55.938 0.0126137
45.5193 52.5347 0.0177844
46.0387 48.9098 0.0142398
42.6252 39.2769 0.172271
43.5853 43.768 0.108212
43.328 46.1254 0.0585513
43.3988 48.4483 -0.00534032
41.0801 43.8512 0.141983
40.7577 40.8079 0.1171
39.2887 42.7259 0.17224
43.7313 54.4554 2
40.8561 39.1713 2
39.1604 40.8911 2
43.6693 50.5137 2
41.9209 47.6861 2
41.8717 45.2075 2
37.4933 42.8363 2
39.3825 44.5964 2
41.8721 53.0299 3.99485
39.1826 39.1763 3.94381
37.4934 40.9456 3.92945
35.7029 42.7243 3.82831
40.9001 49.7294 4.0017
39.8035 46.0943 3.87698
37.4932 44.8131 3.86378
42.1062 56.3485 0.0118814
40.4162 54.9609 2
38.727 53.8908 3.99559
35.607 63.2124 0.0173871
38.2506 60.3391 0.0168678
38.9249 56.5167 0.0093245
35.3631 60.9247 2
36.9337 57.6438 2
37.9981 55.2752 2
36.3192 55.4029 3.99192
34.487 58.5363 3.98568
33.3453 61.5255 0.016387
28.6802 62.2102 0.0156812
31.0657 61.2304 0.0159269
32.3556 59.759 2
29.4018 60.3005 2
30.297 57.8323 3.98605
28.0208 58.3863 2
26.9443 56.8356 3.97977
27.5669 59.6059 0.0176957
25.3772 58.6046 2
23.8379 56.8076 3.97315
21.332 57.4043 3.9746
21.9919 59.6305 3.97963
22.7545 58.2493 2
22.7344 62.0289 3.98298
23.3991 60.3609 2
23.7905 59.0914 0.0196326
25.0332 60.8809 0.0175677
24.4307 62.7786 2
23.6799 64.715 3.98608
26.2279 63.4855 0.0149904
25.5462 65.4972 2
24.8066 67.5942 3.98889
27.462 66.1865 0.0136335
26.8345 68.3337 2
26.1641 70.6046 3.99312
28.905 68.9448 0.0111933
28.3687 71.2641 2
27.7943 73.7221 4
30.6139 71.7787 0.00703359
30.1841 74.2794 2
32.6054 74.6784 0
29.81 7.99106 3.98564
31.2516 5.33105 3.98907
31.7874 7.41708 2
32.9798 2.70086 3.99338
33.3464 4.92335 2
33.7232 6.97794 0.0134573
35.0474 0.080333 4
35.2442 2.46236 2
35.4346 4.68475 0.0102892
37.5 0 2
37.5141 2.38657 0.00649048
39.9526 0.0806499 0
40.8654 35.8057 3.91306
42.6313 35.7171 2
44.4566 35.5531 0.150339
28.5421 10.69 3.98358
39.1735 34.1079 3.91152
40.7606 34.2019 2
42.3118 34.1158 0.189478
48.2092 34.3082 0.020977
44.9602 33.0392 0.108584
42.5544 32.3259 0.140013
40.8611 32.6395 0.187302
46.2449 31.5518 2
43.6028 31.2287 2
41.1137 31.1426 2
39.2903 32.2871 2
44.3687 29.7504 3.94472
41.869 29.8236 3.89877
39.3819 30.4207 3.87273
37.5001 32.1645 3.84137
34.0922 12.9312 3.98132
35.6922 11.7721 2
37.3108 10.6278 0.0170432
31.1853 11.9816 3.98255
33.0974 11.2128 2
34.7536 10.3768 0.0168006
30.4812 10.0139 2
32.3768 9.36676 0.015682
47.7074 29.5306 0.0092127
47.0712 25.1622 0.0175511
36.5821 12.9292 0.0181337
44.2858 21.3315 0.0243678
41.7494 17.8405 0.0207021
38.6813 14.8055 0.0198134
35.7713 14.7547 2
45.5 27.6511 2
38.6802 17.5949 2
41.3399 20.7167 2
43.7859 24.0559 2
33.6072 15.8715 3.98084
43.0258 26.4854 3.99785
40.9087 23.2875 4.00118
38.42 20.3303 3.9784
35.8477 17.5054 3.98111
39.1993 37.4852 3.95172
40.9014 37.4838 2
42.7593 37.4916 0.171738
43.7305 54.4531 0.00260244
43.6663 50.5019 0.000316897
40.8616 39.1745 0.0887324
41.8482 45.1911 0.104698
41.9209 47.6741 0.0247009
39.3606 44.5872 0.128683
39.167 40.8991 0.0880319
37.492 42.8452 0.159692
41.8744 53.0342 2
39.1745 39.1744 2
37.4935 40.9371 2
40.9065 49.7343 2
35.7077 42.7195 2
39.828 46.1156 2
37.4907 44.8183 2
39.8086 51.9424 3.99441
37.4915 39.1897 3.96365
35.8185 40.9078 3.91163
34.134 42.3671 3.81375
35.6051 44.5868 3.86921
38.6932 48.7486 3.98596
37.4823 46.414 3.88016
40.417 54.9594 0.00745325
38.7272 53.8908 2
36.7185 53.2395 4.00666
35.3634 60.924 0.0168457
36.9342 57.6426 0.0156717
37.9985 55.2739 0.00813689
34.4865 58.5369 2
36.3187 55.4046 2
33.2268 55.5216 3.98935
32.3558 59.7583 0.0141418
29.4019 60.2999 0.016286
30.2966 57.8332 2
28.6908 55.3251 3.97909
28.0211 58.3857 0.0145004
26.9438 56.8359 2
25.3108 55.145 3.97464
21.8087 55.3502 3.96974
25.3774 58.6039 0.0200679
23.8375 56.8093 2
20.2168 57.0319 3.97811
20.6434 58.7872 3.97763
21.3317 57.4059 2
21.1649 61.1775 3.98122
21.9918 59.6316 2
22.7548 58.248 0.0249743
21.8933 63.8427 3.98538
22.7345 62.0298 2
23.3991 60.36 0.0194745
24.4305 62.7778 0.0157266
23.6801 64.7156 2
22.8348 66.7379 3.98892
25.546 65.4966 0.0135634
24.8067 67.5948 2
24.0083 69.8057 3.99314
26.8345 68.3331 0.0111472
26.1638 70.6048 2
25.446 73.0099 4
28.3689 71.2638 0.00696383
27.7943 73.7222 2
30.1842 74.2788 0
27.8198 8.65069 3.98537
29.1536 5.87682 3.98862
29.8098 7.99025 2
30.725 3.09805 3.99316
31.2515 5.33048 2
31.7876 7.4178 0.0138519
32.6053 0.320823 4
32.9798 2.70052 2
33.3465 4.92392 0.0104981
35.0474 0.0802903 2
35.2442 2.46268 0.00648479
37.5 0 0
39.1938 35.8065 3.94271
40.8586 35.8091 2
42.633 35.7145 0.171621
28.542 10.6893 2
26.6209 11.3851 3.98376
29.2241 12.638 3.98313
37.4985 34.0632 3.92965
39.1656 34.1161 2
40.7678 34.1968 0.118407
46.2254 31.5596 0.0448346
43.5912 31.2434 0.113419
41.0945 31.1629 0.140967
39.2957 32.2823 0.173276
44.3854 29.7356 2
41.8881 29.8051 2
39.3983 30.4065 2
37.5019 32.1735 2
42.3525 28.3912 3.93068
39.8583 28.9108 3.89405
37.5186 30.1849 3.86217
35.7097 32.2796 3.82706
31.9136 14.476 3.98189
34.092 12.9304 2
35.6923 11.7729 0.01802
31.1853 11.9808 2
33.0975 11.2136 0.017842
30.4814 10.0148 0.0161951
45.4983 27.6521 -0.000861406
43.7842 24.0584 0.000659635
35.772 14.7551 0.0190187
41.3402 20.7189 0.0199313
38.681 17.596 0.0222967
33.6065 15.8712 2
35.8466 17.5055 2
43.03 26.4853 2
38.4197 20.3286 2
40.908 23.2804 2
33.5492 17.3807 3.98275
40.4061 25.6279 4.00629
38.0744 22.8641 3.9944
35.5831 20.0735 3.98405
37.4945 37.495 3.97254
39.1905 37.4854 2
40.9091 37.4839 0.0772156
41.8721 53.0299 0.00515261
40.9001 49.7294 -0.00170109
39.1826 39.1763 0.0561853
39.8035 46.0943 0.123023
37.4932 44.8131 0.136217
37.4934 40.9456 0.0705469
35.7029 42.7243 0.171694
39.8138 51.9447 2
37.4927 39.1862 2
35.8265 40.9002 2
38.6937 48.7796 2
34.1351 42.3685 2
35.5929 44.6028 2
37.4841 46.4352 2
37.6462 51.0352 4.00902
35.8051 39.1924 3.94448
34.2316 40.8166 3.88276
33.0272 42.0211 3.78183
33.8927 43.8402 3.85794
35.1466 46.0794 3.88801
36.8535 48.3907 3.96219
38.727 53.8908 0.00440988
36.7193 53.2416 2
34.3607 52.4931 3.99346
34.487 58.5363 0.0143193
36.3192 55.4029 0.0080832
33.226 55.5223 2
30.5199 53.3882 3.98038
30.297 57.8323 0.0139471
28.6901 55.3263 2
26.8848 53.4371 3.9745
26.9443 56.8356 0.020229
25.3103 55.1478 2
23.5762 53.4788 3.96778
20.471 53.2173 3.96406
19.9308 55.8335 3.97307
21.8078 55.3517 2
23.8379 56.8076 0.0268478
19.436 57.8936 3.97685
20.2163 57.0335 2
19.7046 60.2096 3.9793
20.6431 58.7883 2
21.332 57.4043 0.0254001
20.2059 62.8634 3.98369
21.1649 61.1786 2
21.9919 59.6305 0.0203656
20.9363 65.7669 3.98869
21.8935 63.8436 2
22.7344 62.0289 0.0170168
23.6799 64.715 0.0139232
22.8349 66.7385 2
21.9107 68.8727 3.99312
24.8066 67.5942 0.0111128
24.008 69.8059 2
23.1494 72.1454 4
26.1641 70.6046 0.00688195
25.446 73.0099 2
27.7943 73.7221 0
25.8589 9.37887 3.98508
27.0683 6.54091 3.98813
27.8196 8.64993 2
28.4871 3.64405 3.99293
29.1534 5.87618 2
29.81 7.99106 0.014361
30.1841 0.720592 4
30.7249 3.09774 2
31.2516 5.33105 0.0109267
32.6053 0.320817 2
32.9798 2.70086 0.00662442
35.0474 0.080333 0
37.4975 35.8064 3.96482
39.1828 35.8089 2
40.8654 35.8057 0.086944
24.7757 12.068 3.98397
23.7502 14.353 3.98308
28.5421 10.69 0.0164163
26.6209 11.3845 2
29.2241 12.6372 2
27.2902 13.3704 3.98342
29.7791 14.1972 3.98268
35.827 34.1008 3.91276
37.4984 34.0715 2
39.1735 34.1079 0.0884848
37.5001 32.1645 0.158629
44.3687 29.7504 0.0552758
41.869 29.8236 0.101235
39.3819 30.4207 0.127271
42.371 28.3716 2
39.873 28.8858 2
37.5186 30.1805 2
35.7171 32.2843 2
40.0467 27.5387 3.92603
37.5294 28.5877 3.8909
35.6327 30.4233 3.8729
34.1492 32.6343 3.81276
30.9249 16.8321 3.98246
31.9133 14.4753 2
34.0922 12.9312 0.0186848
31.1853 11.9816 0.0174496
43.0258 26.4854 0.00214954
40.9087 23.2875 -0.00118366
33.6072 15.8715 0.0191633
35.8477 17.5054 0.0188934
38.42 20.3303 0.0216013
33.5483 17.3808 2
35.5827 20.0735 2
40.4066 25.6214 2
38.0716 22.8621 2
32.862 19.7866 3.98353
37.7994 25.1759 4.0134
35.1998 22.6296 3.99131
35.795 37.5008 3.95429
37.4952 37.4944 2
39.1993 37.4852 0.0482751
39.8086 51.9424 0.00558673
38.6932 48.7486 0.0140362
37.4915 39.1897 0.0363455
37.4823 46.414 0.119839
35.6051 44.5868 0.130793
35.8185 40.9078 0.0883664
34.134 42.3671 0.186248
37.6523 51.047 2
35.8164 39.1894 2
34.2379 40.8116 2
36.845 48.4089 2
33.0192 42.0281 2
33.8782 43.8571 2
35.1315 46.0967 2
35.4691 50.1636 4.00708
34.1371 39.1904 3.91442
32.6776 40.8899 3.81285
32.4338 42.6819 3.86414
33.1326 45.1823 3.89657
34.2642 47.4519 3.93659
36.7185 53.2395 -0.00665896
34.3615 52.4975 2
32.0071 51.1961 4.00172
33.2268 55.5216 0.010648
30.5194 53.3922 2
28.4319 51.602 3.97852
28.6908 55.3251 0.0209079
26.8839 53.4392 2
25.0845 51.7461 3.96494
25.3108 55.145 0.0253641
23.5752 53.4804 2
21.9723 51.7999 3.96429
19.2057 51.6328 3.96797
18.9228 54.3054 3.96589
20.4699 53.2169 2
18.4453 56.7249 3.97662
19.93 55.8351 2
21.8087 55.3502 0.0302646
18.3673 59.1142 3.97633
19.4356 57.8948 2
20.2168 57.0319 0.0218906
18.6172 61.7696 3.98158
19.7046 60.2108 2
20.6434 58.7872 0.0223666
19.1254 64.6775 3.98776
20.206 62.8645 2
21.1649 61.1775 0.0187844
19.8848 67.8093 3.99299
20.9364 65.7676 2
21.8933 63.8427 0.014619
22.8348 66.7379 0.0110784
21.9104 68.8729 2
20.9142 71.1327 4
24.0083 69.8057 0.00685685
23.1494 72.1455 2
25.446 73.0099 0
23.0951 12.7827 3.98361
23.9713 10.1655 3.98493
25.022 7.3112 3.98775
25.8588 9.37822 2
26.2788 4.32832 3.99268
27.068 6.54031 2
27.8198 8.65069 0.0146298
27.7943 1.27781 4
28.4869 3.64373 2
29.1536 5.87682 0.0113827
30.1841 0.720551 2
30.725 3.09805 0.00683616
32.6053 0.320823 0
35.8067 35.8118 3.9459
37.4971 35.809 2
39.1938 35.8065 0.0572898
24.7759 12.0676 2
23.7506 14.3527 2
22.479 15.0298 3.98246
25.3563 13.9023 3.98297
24.0235 15.6154 3.98195
26.6209 11.3851 0.0162353
29.2241 12.638 0.0168695
27.2903 13.37 2
29.7791 14.1966 2
28.3551 15.9708 3.98306
34.2424 34.192 3.88175
35.8346 34.1083 2
37.4985 34.0632 0.0703546
35.7097 32.2796 0.172936
37.5186 30.1849 0.137832
42.3525 28.3912 0.0693237
39.8583 28.9108 0.105947
40.0594 27.5236 2
37.5331 28.5638 2
35.6178 30.4035 2
34.1492 32.633 2
37.619 27.2286 3.93774
35.1879 28.9065 3.89135
33.9056 31.1578 3.85793
33.0508 32.9788 3.7829
30.2069 19.3347 3.98574
30.9245 16.8321 2
31.9136 14.476 0.0181075
40.4061 25.6279 -0.00628723
38.0744 22.8641 0.00559991
33.5492 17.3807 0.0172479
35.5831 20.0735 0.0159513
32.8611 19.7875 2
35.1973 22.6281 2
37.7881 25.175 2
32.31 22.4015 3.99073
34.9874 25.1656 4.00675
34.0865 37.5021 3.92381
35.8053 37.5001 2
37.4945 37.495 0.0274552
37.6462 51.0352 -0.009016
36.8535 48.3907 0.037812
35.8051 39.1924 0.0555198
35.1466 46.0794 0.111991
33.8927 43.8402 0.142064
34.2316 40.8166 0.117243
33.0272 42.0211 0.218171
35.4658 50.1769 2
34.1472 39.1873 2
32.681 40.8894 2
34.2595 47.4853 2
32.4157 42.6968 2
33.1166 45.2002 2
33.2505 49.1528 4.00571
32.3572 39.2856 3.8301
31.2803 41.1686 3.85439
31.4021 43.7637 3.8904
32.2536 46.3694 3.93512
34.3607 52.4931 0.00654228
32.0056 51.2038 2
29.8666 49.7158 3.9899
30.5199 53.3882 0.0196232
28.4302 51.6018 2
26.5178 49.9857 3.9711
26.8848 53.4371 0.0255019
25.0828 51.7452 2
23.3525 50.1926 3.97171
23.5762 53.4788 0.0322155
21.9712 51.7992 2
20.4703 50.3155 3.96976
17.9927 50.3302 3.96942
17.837 52.7884 3.96616
19.205 51.6323 2
17.4368 55.3393 3.96921
18.9217 54.3055 2
20.471 53.2173 0.0359423
17.1337 57.8753 3.97624
18.4446 56.726 2
19.9308 55.8335 0.0269287
17.1352 60.5513 3.97878
18.3671 59.1155 2
19.436 57.8936 0.0231514
17.4062 63.4694 3.98558
18.6173 61.7709 2
19.7046 60.2096 0.0207039
17.941 66.6177 3.99272
19.1254 64.6784 2
20.2059 62.8634 0.016306
18.75 69.9759 4
19.8845 67.8094 2
20.9363 65.7669 0.0113078
21.9107 68.8727 0.00688257
20.9142 71.1327 2
23.1494 72.1454 0
21.586 13.603 3.98302
22.1894 11.0247 3.9846
23.0954 12.7825 2
23.0398 8.17666 3.98753
23.9713 10.165 2
24.1164 5.14312 3.99243
25.0217 7.31066 2
25.8589 9.37887 0.0149178
25.446 1.99014 4
26.2785 4.32807 2
27.0683 6.54091 0.0118723
27.7943 1.27778 2
28.4871 3.64405 0.00707188
30.1841 0.720592 0
34.133 35.8147 3.91234
35.8161 35.8137 2
37.4975 35.8064 0.0351786
21.3043 15.8255 3.98221
24.7757 12.068 0.0160298
23.7502 14.353 0.0169156
25.3566 13.902 2
22.4795 15.0297 2
24.024 15.6152 2
23.2629 16.2474 3.98171
25.3789 16.0835 3.9828
27.2902 13.3704 0.0165846
29.7791 14.1972 0.0173245
28.3554 15.9708 2
27.4386 18.7928 3.98457
32.6997 34.1102 3.81098
34.2509 34.1972 2
35.827 34.1008 0.0872405
34.1492 32.6343 0.187238
35.6327 30.4233 0.127097
37.5294 28.5877 0.109102
40.0467 27.5387 0.0739698
37.6205 27.1989 2
33.0395 32.973 2
35.1742 28.8873 2
33.8902 31.1364 2
35.0703 27.3543 3.94181
33.1544 29.824 3.89164
32.4453 32.3118 3.85583
29.5763 21.9279 3.9963
30.2065 19.336 2
30.9249 16.8321 0.0175388
37.7994 25.1759 -0.0134008
35.1998 22.6296 0.00869129
32.862 19.7866 0.0164667
32.3069 22.4018 2
35.0009 25.1614 2
31.7089 25.6189 4.00141
32.2285 37.5039 3.82993
34.0961 37.5028 2
35.795 37.5008 0.0457076
35.4691 50.1636 -0.007076
34.2642 47.4519 0.0634136
34.1371 39.1904 0.0855812
33.1326 45.1823 0.103428
32.4338 42.6819 0.135858
32.6776 40.8899 0.187149
33.2452 49.1442 2
32.3593 39.283 2
31.2595 41.1811 2
32.2315 46.3923 2
31.3863 43.777 2
31.1619 47.9798 3.99493
30.5329 39.448 3.85128
30.0262 41.9644 3.89285
30.4408 44.9545 3.94389
32.0071 51.1961 -0.00171856
29.8637 49.7148 2
27.891 48.1833 3.97465
28.4319 51.602 0.0214786
26.516 49.9848 2
24.6674 48.4711 3.97563
25.0845 51.7461 0.0350634
23.3516 50.1918 2
21.6795 48.7906 3.97169
21.9723 51.7999 0.0357093
20.4698 50.3148 2
19.0441 49.093 3.97248
16.8982 49.3311 3.9722
16.7771 51.4059 3.96848
17.9927 50.3297 2
16.3917 53.8667 3.96673
17.8362 52.7882 2
19.2057 51.6328 0.0320266
15.9763 56.4756 3.97288
17.4361 55.3402 2
18.9228 54.3054 0.0341071
15.7489 59.2112 3.9776
17.1334 57.8766 2
18.4453 56.7249 0.0233789
15.7872 62.1388 3.98253
17.1352 60.5527 2
18.3673 59.1142 0.023674
16.0878 65.3002 3.99204
17.4061 63.4705 2
18.6172 61.7696 0.0184151
16.6661 68.6801 4
17.9406 66.6178 2
19.1254 64.6775 0.0122387
18.75 69.9759 2
19.8848 67.8093 0.00700855
20.9142 71.1327 0
20.2182 14.5919 3.98222
21.5864 13.6029 2
20.5287 11.9946 3.98401
21.1427 9.14646 3.98742
22.1895 11.0244 2
23.0951 12.7827 0.0163929
22.0154 6.08214 3.99231
23.0396 8.17622 2
23.9713 10.1655 0.0150673
23.1494 2.85457 4
24.116 5.14294 2
25.022 7.3112 0.0122494
25.446 1.99012 2
26.2788 4.32832 0.00732426
27.7943 1.27781 0
32.3649 35.7166 3.82686
34.1415 35.8187 2
35.8067 35.8118 0.0540966
21.3047 15.8252 2
20.3021 16.9597 3.98229
22.0961 16.6315 3.98037
25.3563 13.9023 0.0170343
22.479 15.0298 0.0175364
24.0235 15.6154 0.0180488
25.3794 16.0833 2
23.2634 16.2471 2
24.2029 18.4475 3.97983
27.0148 21.4517 3.98908
28.3551 15.9708 0.0169395
27.4389 18.793 2
31.3151 33.8379 3.85741
32.7032 34.112 2
34.2424 34.192 0.118247
33.0508 32.9788 0.217098
33.9056 31.1578 0.142065
35.1879 28.9065 0.108653
37.619 27.2286 0.0622564
35.054 27.3246 2
32.4255 32.3011 2
33.1381 29.7962 2
32.5653 28.0877 3.95902
31.404 31.2432 3.89394
28.8142 24.3964 3.98326
29.5729 21.9307 2
30.2069 19.3347 0.0142565
34.9874 25.1656 -0.00675328
32.31 22.4015 0.00927251
31.7172 25.6052 2
29.671 27.3073 3.9677
30.2516 37.4962 3.8561
32.2284 37.5022 2
34.0865 37.5021 0.0761876
33.2505 49.1528 -0.0057051
32.2536 46.3694 0.0648775
32.3572 39.2856 0.169895
31.4021 43.7637 0.109604
31.2803 41.1686 0.145608
31.1594 47.9818 2
30.5169 39.459 2
30.009 41.9767 2
30.4174 44.9704 2
29.211 46.5794 4.00051
29.1263 39.8564 3.89377
28.7434 43.1746 3.94841
29.8666 49.7158 0.0100963
27.8883 48.1797 2
25.9792 46.6585 3.97582
26.5178 49.9857 0.0289001
24.6658 48.4694 2
22.8407 47.079 3.97618
23.3525 50.1926 0.0282876
21.6782 48.7897 2
20.0012 47.6196 3.97695
20.4703 50.3155 0.0302435
19.0449 49.0923 2
17.6794 48.1785 3.97516
16.1458 48.6826 3.97358
16.8988 49.3307 2
15.8529 50.1691 3.96981
15.3815 52.4127 3.96852
16.7768 51.4056 2
17.9927 50.3302 0.0305826
14.8704 54.9746 3.96918
16.3912 53.8671 2
17.837 52.7884 0.0338406
14.4588 57.7394 3.97593
15.9758 56.4767 2
17.4368 55.3393 0.0307878
14.2656 60.6924 3.98103
15.7488 59.2126 2
17.1337 57.8753 0.0237553
14.3325 63.8593 3.99053
15.787 62.14 2
17.1352 60.5513 0.0212177
14.6715 67.2507 4
16.0873 65.3001 2
17.4062 63.4694 0.0144225
16.6661 68.6801 2
17.941 66.6177 0.00727794
18.75 69.9759 0
18.9323 15.7793 3.98142
20.2185 14.5918 2
18.9786 13.1055 3.98313
21.586 13.603 0.016983
20.5291 11.9944 2
19.342 10.2343 3.98714
19.99 7.14679 3.99227
21.1426 9.14613 2
22.1894 11.0247 0.0154031
20.9142 3.86727 4
22.0149 6.08212 2
23.0398 8.17666 0.0124721
23.1494 2.85451 2
24.1164 5.14312 0.00756913
25.446 1.99014 0
30.5551 35.5621 3.85542
32.3692 35.7188 2
34.133 35.8147 0.0876623
21.3043 15.8255 0.0177933
22.0965 16.6313 2
20.3024 16.9591 2
19.243 18.4074 3.9795
21.7808 17.8485 3.98093
25.3789 16.0835 0.0172048
23.2629 16.2474 0.0182913
24.2034 18.4474 2
22.2788 19.8922 3.97672
24.5933 21.3209 3.98267
26.4277 23.7171 3.97247
27.0137 21.4521 2
27.4386 18.7928 0.0154266
30.0523 33.0403 3.89427
31.2859 33.8127 2
32.6997 34.1102 0.18902
32.4453 32.3118 0.144174
33.1544 29.824 0.108358
35.0703 27.3543 0.0581888
32.5573 28.0755 2
31.4033 31.2301 2
30.1512 29.5389 3.96047
27.9109 26.5373 3.97733
28.8169 24.4045 2
29.5763 21.9279 0.00370211
31.7089 25.6189 -0.00141292
29.6682 27.2691 2
28.7923 37.5136 3.90104
30.2449 37.4994 2
32.2285 37.5039 0.170075
31.1619 47.9798 0.00507142
30.4408 44.9545 0.056108
30.5329 39.448 0.148722
30.0262 41.9644 0.107153
29.2084 46.594 2
29.1064 39.8723 2
28.7211 43.1884 2
27.3287 44.869 3.98623
26.896 40.5869 3.96966
27.891 48.1833 0.0253532
25.9759 46.6611 2
24.0577 45.2176 3.97898
24.6674 48.4711 0.0243664
22.8394 47.0777 2
20.9703 45.8949 3.97891
21.6795 48.7906 0.0283134
20.0022 47.6188 2
18.3389 46.7374 3.9772
19.0441 49.093 0.0275167
17.6796 48.1781 2
16.3405 47.7126 3.97469
16.1462 48.6822 2
15.1968 49.0144 3.97191
16.8982 49.3311 0.0278006
15.8531 50.1688 2
14.4935 50.9831 3.96973
13.8335 53.4308 3.96912
15.3814 52.4127 2
16.7771 51.4059 0.0315203
13.2555 56.1658 3.97279
14.87 54.9753 2
16.3917 53.8667 0.0332668
12.8482 59.1257 3.98009
14.4586 57.7407 2
15.9763 56.4756 0.0271213
12.6782 62.3016 3.9884
14.2654 60.6935 2
15.7489 59.2112 0.0224023
12.7746 65.6939 4
14.3317 63.8589 2
15.7872 62.1388 0.0174746
14.6714 67.2507 2
16.0878 65.3002 0.00796266
16.6661 68.6801 0
17.6673 17.1553 3.97947
18.9326 15.779 2
17.5104 14.3702 3.98187
20.2182 14.5919 0.0177799
18.9789 13.1052 2
17.6377 11.4533 3.98629
20.5287 11.9946 0.0159876
19.3421 10.234 2
18.0502 8.33962 3.99221
18.75 5.0241 4
19.9895 7.14697 2
21.1427 9.14646 0.0125773
20.9142 3.86727 2
22.0154 6.08214 0.00769123
23.1494 2.85457 0
29.1469 35.126 3.89683
30.538 35.5487 2
32.3649 35.7166 0.173136
22.0961 16.6315 0.0196309
20.3021 16.9597 0.0177143
21.7811 17.848 2
19.2433 18.4067 2
17.9816 19.9406 3.97648
20.8765 19.3782 3.97929
24.2029 18.4475 0.0201702
22.2791 19.8917 2
24.593 21.3217 2
22.3609 21.7188 3.97928
24.7031 23.1667 3.97254
25.4926 25.9467 3.96763
26.431 23.7176 2
27.0148 21.4517 0.0109249
28.4243 32.3321 3.94326
30.0308 33.0316 2
31.3151 33.8379 0.142593
31.404 31.2432 0.106063
32.5653 28.0877 0.0409843
30.1305 29.5261 2
27.0702 29.1294 4.00153
27.9081 26.5353 2
28.8142 24.3964 0.0167352
29.671 27.3073 0.0322957
27.0221 37.3739 3.954
28.7663 37.5054 2
30.2516 37.4962 0.143897
29.211 46.5794 -0.000506813
28.7434 43.1746 0.0515923
29.1263 39.8564 0.106226
27.3253 44.8817 2
26.8837 40.6032 2
25.3441 43.1731 3.97188
24.1443 39.4308 3.97982
25.9792 46.6585 0.0241846
24.0489 45.2176 2
21.9557 43.952 3.97829
22.8407 47.079 0.0238244
20.9712 45.894 2
19.014 44.9686 3.97799
20.0012 47.6196 0.0230505
18.3394 46.737 2
16.6407 46.2114 3.97514
17.6794 48.1785 0.0248356
16.3407 47.7123 2
14.9296 47.669 3.97256
16.1458 48.6826 0.0264175
15.1972 49.0141 2
13.7905 49.5448 3.97068
15.8529 50.1691 0.0301938
14.4938 50.9829 2
12.8997 51.8717 3.97049
12.1443 54.5241 3.97161
13.8334 53.431 2
15.3815 52.4127 0.0314798
11.5337 57.4572 3.97782
13.2553 56.1667 2
14.8704 54.9746 0.0308153
11.133 60.6275 3.98684
12.8481 59.1266 2
14.4588 57.7394 0.0240652
10.9835 64.0165 4
12.6773 62.3007 2
14.2656 60.6924 0.018974
12.7745 65.694 2
14.3325 63.8593 0.00947458
14.6715 67.2507 0
16.4011 18.6504 3.97757
17.6674 17.1547 2
16.1016 15.7797 3.98109
18.9323 15.7793 0.018576
17.5107 14.3696 2
16.0196 12.807 3.98431
18.9786 13.1055 0.0168707
17.6379 11.4528 2
16.2014 9.66263 3.99204
19.342 10.2343 0.0128569
18.0497 8.33995 2
16.6661 6.31991 4
18.75 5.02404 2
19.99 7.14679 0.00773101
20.9142 3.86727 0
27.5413 34.7769 3.94334
29.1212 35.1135 2
30.5551 35.5621 0.144578
16.6857 21.3787 3.97198
21.7808 17.8485 0.0190715
19.243 18.4074 0.0205039
20.8768 19.3776 2
17.9818 19.9398 2
19.7275 21.5734 3.97969
22.2788 19.8922 0.0232786
24.5933 21.3209 0.0173304
22.3611 21.7185 2
24.7044 23.1663 2
22.8589 24.6009 3.97087
24.6123 28.5271 3.9726
25.4903 25.945 2
26.4277 23.7171 0.0275287
26.2666 31.7001 3.9899
28.403 32.3168 2
30.0523 33.0403 0.10573
30.1512 29.5389 0.0395292
27.0782 29.1268 2
27.9109 26.5373 0.0226734
24.8472 36.8559 3.98759
27.0032 37.3702 2
28.7923 37.5136 0.0989568
27.3287 44.869 0.013771
26.896 40.5869 0.0303383
25.333 43.1782 2
24.1335 39.431 2
23.0438 41.7945 3.98048
21.8627 38.5065 3.97723
24.0577 45.2176 0.0210211
21.9552 43.9513 2
19.7947 42.8845 3.97793
20.9703 45.8949 0.0210851
19.0139 44.9685 2
16.9836 44.3785 3.97568
18.3389 46.7374 0.0227965
16.641 46.2112 2
14.8566 46.0892 3.97268
16.3405 47.7126 0.0253071
14.9299 47.6688 2
13.297 48.0078 3.97058
15.1968 49.0144 0.02809
13.7908 49.5448 2
12.1181 50.2514 3.97052
14.4935 50.9831 0.0302684
12.8999 51.8716 2
11.14 52.8343 3.97188
10.3252 55.7091 3.97615
12.1444 54.5246 2
13.8335 53.4308 0.0308762
9.69981 58.8496 3.98501
11.5335 57.458 2
13.2555 56.1658 0.027207
9.30605 62.2254 4
11.1318 60.6262 2
12.8482 59.1257 0.0199055
10.9835 64.0165 2
12.6782 62.3016 0.0115983
12.7746 65.6939 0
15.1489 20.1867 3.97268
16.4013 18.6496 2
14.748 17.3031 3.97877
17.6673 17.1553 0.0205338
16.1018 15.7787 2
14.4823 14.2894 3.98284
17.5104 14.3702 0.0181297
16.0198 12.8064 2
14.4442 11.1137 3.99144
17.6377 11.4533 0.0137138
16.2009 9.66306 2
14.6715 7.74927 4
18.0502 8.33962 0.00778547
16.6661 6.31988 2
18.75 5.0241 0
25.4959 34.2645 3.98939
27.521 34.77 2
29.1469 35.126 0.103175
17.8623 22.3238 3.98379
15.5343 22.9207 3.96981
16.6859 21.3778 2
20.8765 19.3782 0.0207062
17.9816 19.9406 0.0235236
19.7278 21.5726 2
19.6779 24.3801 3.96917
22.3609 21.7188 0.0207206
24.7031 23.1667 0.0274607
22.8588 24.6001 2
21.9801 27.8239 3.97084
23.8276 31.1872 3.97477
24.6169 28.5259 2
25.4926 25.9467 0.0323704
26.2586 31.6913 2
28.4243 32.3321 0.056738
27.0702 29.1294 -0.00153276
22.5953 36.2786 3.97815
24.829 36.8544 2
27.0221 37.3739 0.0459976
25.3441 43.1731 0.0281204
24.1443 39.4308 0.020176
23.0397 41.7929 2
21.8574 38.5063 2
20.7847 40.6363 3.97695
20.1945 37.7848 3.97733
21.9557 43.952 0.0217059
19.7953 42.8848 2
17.409 42.099 3.97634
19.014 44.9686 0.0220064
16.9841 44.3783 2
14.8685 44.1989 3.97282
16.6407 46.2114 0.0248565
14.8567 46.089 2
12.9702 46.2948 3.97045
14.9296 47.669 0.0274367
13.2972 48.0077 2
11.4891 48.5491 3.97017
13.7905 49.5448 0.0293223
12.1184 50.2514 2
10.2654 51.0791 3.97185
12.8997 51.8717 0.0295051
11.1403 52.8344 2
9.23428 53.888 3.97585
8.38366 56.9819 3.98373
10.3253 55.7092 2
12.1443 54.5241 0.0283926
7.74927 60.3285 4
9.69861 58.8474 2
11.5337 57.4572 0.0221847
9.306 62.2255 2
11.133 60.6275 0.0131551
10.9835 64.0165 0
13.9636 21.7545 3.9699
15.149 20.1858 2
13.4503 18.9014 3.97554
16.4011 18.6504 0.0224343
14.7482 17.3019 2
13.028 15.8826 3.98174
16.1016 15.7797 0.0189141
14.4824 14.2885 2
12.7818 12.6871 3.98997
16.0196 12.807 0.0156883
14.4438 11.1142 2
12.7746 9.30605 4
16.2014 9.66263 0.00796338
14.6715 7.74924 2
16.6661 6.31991 0
23.1648 33.801 3.97725
25.4759 34.2614 2
27.5413 34.7769 0.0566553
17.6398 24.0405 3.9696
17.8625 22.3229 2
14.3178 24.4497 3.97002
15.5346 22.9201 2
16.6857 21.3787 0.0280217
19.0845 27.2027 3.9703
19.7275 21.5734 0.0203073
19.6775 24.3797 2
21.2481 30.664 3.97253
22.8589 24.6009 0.0291289
21.981 27.8238 2
23.8192 31.1874 2
24.6123 28.5271 0.0274
26.2666 31.7001 0.0100994
20.3269 35.9238 3.97651
22.5931 36.2778 2
24.8472 36.8559 0.0124082
23.0438 41.7945 0.0195228
21.8627 38.5065 0.0227657
20.7817 40.6366 2
20.1931 37.7851 2
18.148 38.9999 3.97645
19.7947 42.8845 0.0220729
17.4089 42.0989 2
14.843 41.9165 3.97321
16.9836 44.3785 0.0243235
14.8687 44.1988 2
12.7146 44.3908 3.97035
14.8566 46.0892 0.0273192
12.9702 46.2947 2
10.99 46.7333 3.96963
13.297 48.0078 0.0294241
11.4892 48.5491 2
9.52854 49.2395 3.97134
12.1181 50.2514 0.0294757
10.2657 51.079 2
8.26713 52.0016 3.97564
11.14 52.8343 0.0281243
9.23461 53.8876 2
7.19274 55.032 3.98387
6.31991 58.3339 4
8.38277 56.9791 2
10.3252 55.7091 0.023845
7.74924 60.3285 2
9.69981 58.8496 0.014991
9.30605 62.2254 0
13.2312 25.3622 3.97099
12.832 23.2827 3.96984
13.9639 21.7539 2
12.2376 20.5513 3.97274
15.1489 20.1867 0.0273158
13.4506 18.9001 2
11.6584 17.5642 3.97991
14.748 17.3031 0.0212286
13.028 15.8815 2
11.2194 14.3722 3.98806
14.4823 14.2894 0.0171609
12.7812 12.6876 2
10.9835 10.9835 4
14.4442 11.1137 0.00855721
12.7745 9.306 2
14.6715 7.74927 0
20.6891 33.3958 3.97485
23.1711 33.8014 2
25.4959 34.2645 0.0106086
15.9267 26.3997 3.97006
17.6396 24.0399 2
17.8623 22.3238 0.0162076
14.3182 24.4495 2
15.5343 22.9207 0.0301851
18.4385 30.1724 3.97299
19.0833 27.2025 2
19.6779 24.3801 0.0308332
21.2544 30.6641 2
21.9801 27.8239 0.0291614
23.8276 31.1872 0.0252319
17.7745 35.9629 3.97654
20.3267 35.9241 2
22.5953 36.2786 0.0218529
20.7847 40.6363 0.0230515
20.1945 37.7848 0.0226726
18.1494 39 2
14.3718 39.1748 3.97382
17.409 42.099 0.0236579
14.8431 41.9165 2
12.4153 42.2751 3.97063
14.8685 44.1989 0.0271751
12.7147 44.3907 2
10.567 44.802 3.96925
12.9702 46.2948 0.0295543
10.99 46.7333 2
8.91065 47.3191 3.97076
11.4891 48.5491 0.0298344
9.52872 49.2395 2
7.43414 50.0352 3.97502
10.2654 51.0791 0.028149
8.26743 52.0012 2
6.13335 53.0069 3.98445
9.23428 53.888 0.024154
7.19221 55.0293 2
5.0241 56.25 4
6.31988 58.3339 2
8.38366 56.9819 0.016267
7.74927 60.3285 0
13.4736 26.8139 3.97037
11.9423 24.788 3.97143
13.2314 25.3619 2
11.1423 22.2368 3.97095
12.8325 23.2824 2
13.9636 21.7545 0.0300974
12.2381 20.5504 2
10.3896 19.3196 3.97788
13.4503 18.9014 0.0244649
11.6585 17.5631 2
9.76038 16.156 3.98624
13.028 15.8826 0.018261
11.2185 14.3731 2
9.30607 12.7746 4
12.7818 12.6871 0.0100254
10.9835 10.9835 2
12.7746 9.30605 0
17.9381 33.1104 3.97517
20.6887 33.3958 2
23.1648 33.801 0.0227498
15.529 29.6364 3.97191
15.9259 26.3994 2
17.6398 24.0405 0.0303971
14.3178 24.4497 0.029977
18.4394 30.1724 2
19.0845 27.2027 0.0296996
21.2481 30.664 0.0274682
14.9776 36.0175 3.97437
17.7739 35.9631 2
20.3269 35.9238 0.0234863
12.6414 37.8284 3.97338
18.148 38.9999 0.0235537
14.3724 39.1748 2
11.9381 40.1392 3.97148
14.843 41.9165 0.0267866
12.4151 42.2751 2
10.1687 42.7772 3.96885
12.7146 44.3908 0.0296513
10.567 44.802 2
8.38878 45.321 3.96992
10.99 46.7333 0.030368
8.9107 47.3191 2
6.7254 48.0006 3.97458
9.52854 49.2395 0.0286604
7.4343 50.0348 2
5.21023 50.9102 3.98444
8.26713 52.0016 0.0243554
6.13305 53.0049 2
3.86727 54.0858 4
7.19274 55.032 0.0161317
5.02404 56.25 2
6.31991 58.3339 0
12.9354 29.0324 3.96994
11.3722 26.487 3.96995
13.4728 26.8136 2
10.2003 23.9681 3.97246
11.9427 24.7877 2
13.2312 25.3622 0.0290096
9.24317 21.139 3.97539
11.143 22.2363 2
12.832 23.2827 0.0301573
12.2376 20.5513 0.0272567
10.3901 19.3189 2
8.41644 18.0276 3.98478
11.6584 17.5642 0.0200872
9.75939 16.1576 2
7.74928 14.6715 4
11.2194 14.3722 0.0119401
9.30602 12.7745 2
10.9835 10.9835 0
14.5375 32.8622 3.97343
17.9382 33.1104 2
20.6891 33.3958 0.0251518
15.529 29.6363 2
15.9267 26.3997 0.0299422
18.4385 30.1724 0.0270065
12.9352 36.2085 3.97255
14.9779 36.0176 2
17.7745 35.9629 0.0234578
12.6418 37.8284 2
11.2917 38.3089 3.97192
14.3718 39.1748 0.0261764
11.9385 40.1391 2
9.75918 40.7536 3.96927
12.4153 42.2751 0.029368
10.1686 42.7771 2
7.93859 43.2698 3.96923
10.567 44.802 0.0307477
8.38879 45.321 2
6.1318 45.9058 3.97385
8.91065 47.3191 0.0292391
6.72543 48.0003 2
4.42186 48.7511 3.98409
7.43414 50.0352 0.0249765
5.21006 50.909 2
2.85457 51.8506 4
6.13335 53.0069 0.0155457
3.86727 54.0858 2
5.0241 56.25 0
12.0823 31.256 3.97107
10.7846 28.4143 3.9692
12.9353 29.0323 2
9.41508 25.7978 3.97102
11.3724 26.4868 2
13.4736 26.8139 0.0296252
8.23001 23.0234 3.97541
10.2008 23.9678 2
11.9423 24.788 0.0285673
7.19892 19.9784 3.98358
9.24385 21.1389 2
11.1423 22.2368 0.0290527
10.3896 19.3196 0.0221249
8.4157 18.03 2
6.31992 16.6661 4
9.76038 16.156 0.013759
7.74926 14.6714 2
9.30607 12.7746 0
12.1167 34.2943 3.97265
14.5374 32.8622 2
17.9381 33.1104 0.0248332
15.529 29.6364 0.0280909
10.8538 36.6106 3.97164
12.9355 36.2084 2
14.9776 36.0175 0.0256288
12.6414 37.8284 0.0266226
11.2921 38.3088 2
9.3546 38.8229 3.96973
11.9381 40.1392 0.0285219
9.75954 40.7535 2
7.55019 41.211 3.96903
10.1687 42.7772 0.0311529
7.93865 43.2697 2
5.64424 43.7686 3.9731
8.38878 45.321 0.0300846
6.1318 45.9055 2
3.76759 46.537 3.98349
6.7254 48.0006 0.0254237
4.42178 48.7506 2
1.99014 49.554 4
5.21023 50.9102 0.0155627
2.85451 51.8506 2
3.86727 54.0858 0
10.9349 32.9187 3.97184
10.0996 30.3816 3.96924
12.0826 31.2559 2
8.72346 27.7315 3.97017
10.7846 28.4141 2
12.9354 29.0324 0.0300622
7.35542 24.9822 3.97485
9.41529 25.7976 2
11.3722 26.487 0.0300542
6.11586 22.0023 3.98408
8.23058 23.0235 2
10.2003 23.9681 0.0275402
5.02411 18.75 4
7.19864 19.9809 2
9.24317 21.139 0.0246057
8.41644 18.0276 0.0152203
6.3199 16.6661 2
7.74928 14.6715 0
10.4598 34.9996 3.9714
12.1172 34.2943 2
14.5375 32.8622 0.0265712
9.02407 36.9845 3.96997
10.8545 36.6105 2
12.9352 36.2085 0.0274457
11.2917 38.3089 0.0280759
9.35489 38.8229 2
7.23075 39.1819 3.96933
9.75918 40.7536 0.03073
7.55038 41.2109 2
5.25991 41.6142 3.97242
7.93859 43.2698 0.030767
5.64431 43.7684 2
3.24551 44.282 3.98281
6.1318 45.9058 0.0261488
3.76761 46.5368 2
1.27781 47.2057 4
4.42186 48.7511 0.0159068
1.99012 49.554 2
2.85457 51.8506 0
10.0987 33.8811 3.9714
9.39095 32.154 3.96978
10.9351 32.9186 2
8.07248 29.6951 3.96983
10.0997 30.3815 2
12.0823 31.256 0.0289309
6.59948 27.0083 3.97398
8.72348 27.7313 2
10.7846 28.4143 0.0307973
5.17115 24.0952 3.98441
7.35569 24.9822 2
9.41508 25.7978 0.0289792
3.86728 20.9142 4
6.11578 22.004 2
8.23001 23.0234 0.0245925
5.02406 18.75 2
7.19892 19.9784 0.0164163
6.31992 16.6661 0
8.84847 35.2791 3.97019
10.4601 34.9996 2
12.1167 34.2943 0.0273465
7.01436 37.2057 3.96954
9.02401 36.9844 2
10.8538 36.6106 0.0283617
9.3546 38.8229 0.030271
7.23085 39.1818 2
4.98789 39.4674 3.97221
7.55019 41.211 0.0309724
5.2601 41.614 2
2.85616 42.0024 3.98228
5.64424 43.7686 0.0269004
3.2456 44.2819 2
0.720592 44.8159 4
3.76759 46.537 0.01651
1.27778 47.2057 2
1.99014 49.554 0
8.88638 33.6974 3.97023
10.099 33.881 2
7.51007 31.6088 3.97003
9.39105 32.154 2
10.9349 32.9187 0.0281618
5.94472 29.0692 3.97379
8.07239 29.6949 2
10.0996 30.3816 0.0307575
4.35901 26.2477 3.98375
6.59955 27.0083 2
8.72346 27.7315 0.0298298
2.85458 23.1494 4
5.17112 24.096 2
7.35542 24.9822 0.0251527
3.86728 20.9142 2
6.11586 22.0023 0.0159205
5.02411 18.75 0
6.96443 35.3058 3.96974
8.84878 35.279 2
10.4598 34.9996 0.0286018
4.83793 37.3398 3.97268
7.01445 37.2056 2
9.02407 36.9845 0.0300267
7.23075 39.1819 0.030673
4.98798 39.4673 2
2.60437 39.714 3.98184
5.25991 41.6142 0.0275831
2.85638 42.0026 2
0.320823 42.3947 4
3.24551 44.282 0.0171934
0.720551 44.8159 2
1.27781 47.2057 0
7.124 33.4606 3.97019
8.88648 33.6973 2
10.0987 33.8811 0.0286001
5.41572 31.1332 3.97357
7.51007 31.6088 2
9.39095 32.154 0.0302206
3.68083 28.4435 3.98326
5.94464 29.0692 2
8.07248 29.6951 0.0301673
1.99015 25.446 4
4.35901 26.248 2
6.59948 27.0083 0.0260238
2.85453 23.1494 2
5.17115 24.0952 0.0155858
3.86728 20.9142 0
4.85213 35.2514 3.97289
6.96463 35.3058 2
8.84847 35.2791 0.0298102
2.49574 37.4286 3.9823
4.838 37.3398 2
7.01436 37.2057 0.0304553
4.98789 39.4674 0.0277892
2.60452 39.7144 2
0.080333 39.9526 4
2.85616 42.0024 0.0177226
0.320817 42.3947 2
0.720592 44.8159 0
5.04527 33.1899 3.9734
7.12413 33.4606 2
8.88638 33.6974 0.0297684
3.14523 30.6661 3.98278
5.41571 31.1333 2
7.51007 31.6088 0.0299717
1.27793 27.7943 4
3.68083 28.4436 2
5.94472 29.0692 0.0262145
1.99013 25.446 2
4.35901 26.2477 0.0162506
2.85458 23.1494 0
2.54784 35.1591 3.98246
4.85234 35.2515 2
6.96443 35.3058 0.0302567
0 37.5 4
2.49587 37.4289 2
4.83793 37.3398 0.0273169
2.60437 39.714 0.0181582
0.0802903 39.9526 2
0.320823 42.3947 0
2.76533 32.9058 3.9827
5.0454 33.1901 2
7.124 33.4606 0.0298084
0.721173 30.1842 4
3.1453 30.6665 2
5.41572 31.1332 0.0264259
1.27779 27.7943 2
3.68083 28.4435 0.0167441
1.99015 25.446 0
0.0806499 35.0474 4
2.54807 35.1594 2
4.85213 35.2514 0.0271084
0 37.5 2
2.49574 37.4286 0.0177001
0.080333 39.9526 0
0.32156 32.6054 4
2.76548 32.9062 2
5.04527 33.1899 0.0266026
0.72056 30.1841 2
3.14523 30.6661 0.0172176
1.27793 27.7943 0
0.0802889 35.0474 2
2.54784 35.1591 0.0175414
0 37.5 0
0.320817 32.6053 2
2.76533 32.9058 0.017297
0.721173 30.1842 0
0.0806499 35.0474 0
0.32156 32.6054 0
CELLS 1910 17190
8 18 6 25 56 2 0 5 16
8 57 23 6 18 17 4 0 2
8 78 36 9 29 31 11 1 7
8 31 11 1 7 79 37 10 30
8 110 57 18 50 48 17 2 14
8 50 18 56 111 14 2 16 49
8 116 62 22 55 52 20 3 15
8 56 25 67 118 16 5 24 53
8 119 63 23 57 54 21 4 17
8 55 22 63 119 15 3 21 54
8 58 26 68 121 18 6 25 56
8 122 65 26 58 57 23 6 18
8 73 31 7 27 142 79 30 71
8 143 78 29 72 73 31 7 27
8 83 147 76 34 32 74 28 8
8 84 148 78 36 33 75 29 9
8 76 34 8 28 148 84 33 75
8 37 79 150 86 10 30 77 35
8 151 87 36 78 80 38 11 31
8 80 38 11 31 152 88 37 79
8 175 100 42 94 96 44 12 40
8 44 96 176 101 12 40 95 43
8 101 176 98 46 43 95 41 13
8 46 98 178 103 13 41 97 45
8 178 103 45 97 147 83 32 74
8 189 116 55 109 106 52 15 47
8 111 56 118 191 49 16 53 107
8 192 119 57 110 108 54 17 48
8 109 55 119 192 47 15 54 108
8 194 122 58 112 110 57 18 50
8 112 58 121 195 50 18 56 111
8 115 61 19 51 197 124 59 113
8 115 61 125 198 51 19 60 114
8 198 125 62 116 114 60 20 52
8 200 127 64 120 116 62 22 55
8 118 67 132 202 53 24 66 117
8 121 68 133 203 56 25 67 118
8 120 64 128 204 55 22 63 119
8 204 128 65 122 119 63 23 57
8 206 134 68 121 123 69 26 58
8 123 69 26 58 207 131 65 122
8 226 147 74 138 140 76 28 70
8 229 148 75 139 143 78 29 72
8 140 76 28 70 229 148 75 139
8 142 79 30 71 231 150 77 141
8 144 80 31 73 232 152 79 142
8 233 151 78 143 144 80 31 73
8 150 86 35 77 235 154 81 145
8 235 154 81 145 146 82 39 91
8 146 82 39 91 236 155 90 165
8 238 157 83 147 149 85 34 76
8 239 158 84 148 151 87 36 78
8 149 85 34 76 239 158 84 148
8 152 88 37 79 241 160 86 150
8 242 161 87 151 153 89 38 80
8 153 89 38 80 243 162 88 152
8 171 98 41 92 265 178 97 169
8 265 178 97 169 226 147 74 138
8 172 96 40 93 266 176 95 170
8 266 176 95 170 171 98 41 92
8 269 175 94 173 172 96 40 93
8 271 180 99 174 175 100 42 94
8 197 124 59 113 271 180 99 174
8 272 181 100 175 177 102 44 96
8 273 182 101 176 179 104 46 98
8 177 102 44 96 273 182 101 176
8 179 104 46 98 275 184 103 178
8 275 184 103 178 238 157 83 147
8 188 115 51 105 283 197 113 186
8 188 115 198 284 105 51 114 187
8 284 198 116 189 187 114 52 106
8 286 200 120 193 189 116 55 109
8 191 118 202 288 107 53 117 190
8 195 121 203 289 111 56 118 191
8 193 120 204 290 109 55 119 192
8 290 204 122 194 192 119 57 110
8 196 123 58 112 292 207 122 194
8 293 206 121 195 196 123 58 112
8 199 126 61 115 297 211 124 197
8 298 212 127 200 198 125 62 116
8 199 126 212 298 115 61 125 198
8 205 129 64 120 300 214 127 200
8 301 217 130 201 202 132 66 117
8 209 136 168 264 301 217 130 201
8 302 219 132 202 203 133 67 118
8 303 220 133 203 206 134 68 121
8 205 129 215 304 120 64 128 204
8 304 215 131 207 204 128 65 122
8 306 221 134 206 208 135 69 123
8 208 135 69 123 307 218 131 207
8 210 137 167 263 309 223 136 209
8 328 238 147 226 230 149 76 140
8 228 146 91 166 329 236 165 260
8 231 150 77 141 330 235 145 227
8 330 235 145 227 228 146 91 166
8 332 239 148 229 233 151 78 143
8 230 149 76 140 332 239 148 229
8 232 152 79 142 334 241 150 231
8 234 153 80 144 335 243 152 232
8 336 242 151 233 234 153 80 144
8 236 155 90 165 338 245 164 259
8 241 160 86 150 339 246 154 235
8 339 246 154 235 237 156 82 146
8 237 156 82 146 340 247 155 236
8 342 249 157 238 240 159 85 149
8 343 250 158 239 242 161 87 151
8 240 159 85 149 343 250 158 239
8 243 162 88 152 345 252 160 241
8 244 163 253 346 153 89 161 242
8 244 163 89 153 347 254 162 243
8 311 224 261 371 210 137 167 263
8 263 167 262 372 209 136 168 264
8 267 179 98 171 375 275 178 265
8 375 275 178 265 328 238 147 226
8 376 273 176 266 267 179 98 171
8 268 177 96 172 376 273 176 266
8 379 272 175 269 268 177 96 172
8 380 271 174 270 269 175 94 173
8 283 197 113 186 380 271 174 270
8 381 277 180 271 272 181 100 175
8 297 211 124 197 381 277 180 271
8 382 278 181 272 274 183 102 177
8 274 183 102 177 383 279 182 273
8 383 279 182 273 276 185 104 179
8 385 281 184 275 342 249 157 238
8 276 185 104 179 385 281 184 275
8 285 199 115 188 393 297 197 283
8 394 298 200 286 284 198 116 189
8 285 199 298 394 188 115 198 284
8 291 205 120 193 396 300 200 286
8 397 301 201 287 288 202 117 190
8 295 209 264 374 397 301 201 287
8 398 302 202 288 289 203 118 191
8 399 303 203 289 293 206 121 195
8 291 205 304 400 193 120 204 290
8 400 304 207 292 290 204 122 194
8 294 208 123 196 402 307 207 292
8 403 306 206 293 294 208 123 196
8 296 210 263 373 405 309 209 295
8 408 312 213 299 297 211 126 199
8 299 213 313 409 199 126 212 298
8 409 313 214 300 298 212 127 200
8 305 216 129 205 411 315 214 300
8 412 318 217 301 302 219 132 202
8 309 223 136 209 412 318 217 301
8 413 320 219 302 303 220 133 203
8 306 221 321 414 206 134 220 303
8 307 218 131 207 415 316 215 304
8 305 216 316 415 205 129 215 304
8 417 322 221 306 308 222 135 208
8 308 222 135 208 418 319 218 307
8 310 225 137 210 420 325 223 309
8 423 326 224 311 310 225 137 210
8 329 236 165 260 441 338 259 368
8 442 342 238 328 333 240 149 230
8 331 237 146 228 443 340 236 329
8 334 241 150 231 444 339 235 330
8 444 339 235 330 331 237 146 228
8 446 343 239 332 336 242 151 233
8 333 240 149 230 446 343 239 332
8 335 243 152 232 448 345 241 334
8 337 244 153 234 449 347 243 335
8 337 244 346 450 234 153 242 336
8 338 245 164 259 452 349 258 367
8 340 247 155 236 453 350 245 338
8 345 252 160 241 454 351 246 339
8 454 351 246 339 341 248 156 237
8 341 248 156 237 455 352 247 340
8 240 159 251 344 342 249 354 457
8 242 161 253 346 343 250 355 458
8 343 250 355 458 240 159 251 344
8 347 254 162 243 460 357 252 345
8 348 255 358 461 244 163 253 346
8 348 255 163 244 462 359 254 347
8 473 360 257 365 363 256 364 482
8 452 349 258 367 365 257 366 485
8 422 324 369 488 311 224 261 371
8 371 261 370 490 263 167 262 372
8 407 311 371 491 296 210 263 373
8 373 263 372 492 295 209 264 374
8 493 385 275 375 442 342 238 328
8 377 276 179 267 493 385 275 375
8 378 274 177 268 494 383 273 376
8 494 383 273 376 377 276 179 267
8 497 382 272 379 378 274 177 268
8 498 381 271 380 379 272 175 269
8 393 297 197 283 498 381 271 380
8 499 387 277 381 382 278 181 272
8 408 312 211 297 499 387 277 381
8 500 388 278 382 384 280 183 274
8 501 389 279 383 386 282 185 276
8 384 280 183 274 501 389 279 383
8 386 282 185 276 503 391 281 385
8 503 391 281 385 457 354 249 342
8 511 408 299 395 393 297 199 285
8 395 299 409 512 285 199 298 394
8 512 409 300 396 394 298 200 286
8 401 305 205 291 514 411 300 396
8 515 412 301 397 398 302 202 288
8 405 309 209 295 515 412 301 397
8 516 413 302 398 399 303 203 289
8 403 306 414 517 293 206 303 399
8 402 307 207 292 518 415 304 400
8 401 305 415 518 291 205 304 400
8 404 308 208 294 520 418 307 402
8 521 417 306 403 404 308 208 294
8 406 310 210 296 523 420 309 405
8 526 423 311 407 406 310 210 296
8 410 314 213 299 527 424 312 408
8 528 425 315 411 409 313 214 300
8 410 314 425 528 299 213 313 409
8 416 317 216 305 530 427 315 411
8 531 430 318 412 413 320 219 302
8 420 325 223 309 531 430 318 412
8 532 432 320 413 414 321 220 303
8 417 322 433 533 306 221 321 414
8 418 319 218 307 534 428 316 415
8 416 317 428 534 305 216 316 415
8 419 323 434 536 308 222 322 417
8 419 323 222 308 537 431 319 418
8 421 327 225 310 539 438 325 420
8 421 327 439 541 310 225 326 423
8 543 437 324 422 423 326 224 311
8 441 338 259 368 559 452 367 486
8 443 340 236 329 560 453 338 441
8 333 240 344 447 442 342 457 561
8 445 341 237 331 562 455 340 443
8 448 345 241 334 563 454 339 444
8 563 454 339 444 445 341 237 331
8 336 242 346 450 446 343 458 565
8 446 343 458 565 333 240 344 447
8 449 347 243 335 567 460 345 448
8 451 348 244 337 568 462 347 449
8 451 348 461 569 337 244 346 450
8 570 463 349 452 473 360 257 365
8 453 350 245 338 570 463 349 452
8 455 352 247 340 571 464 350 453
8 460 357 252 345 572 465 351 454
8 572 465 351 454 456 353 248 341
8 456 353 248 341 573 466 352 455
8 344 251 356 459 457 354 468 575
8 458 355 469 576 344 251 356 459
8 346 253 358 461 458 355 469 576
8 462 359 254 347 578 471 357 460
8 348 255 359 462 461 358 472 579
8 591 474 360 473 475 361 256 363
8 475 361 256 363 594 477 362 479
8 363 256 364 482 479 362 480 603
8 590 473 365 484 481 363 482 605
8 482 364 257 365 606 483 366 485
8 559 452 367 486 484 365 485 607
8 542 436 487 609 422 324 369 488
8 525 422 488 611 407 311 371 491
8 488 369 489 612 371 261 370 490
8 491 371 490 613 373 263 372 492
8 495 386 276 377 614 503 385 493
8 614 503 385 493 561 457 342 442
8 615 501 383 494 495 386 276 377
8 496 384 274 378 615 501 383 494
8 618 500 382 497 496 384 274 378
8 619 499 381 498 497 382 272 379
8 511 408 297 393 619 499 381 498
8 620 505 387 499 500 388 278 382
8 527 424 312 408 620 505 387 499
8 502 390 506 621 384 280 388 500
8 622 507 389 501 504 392 282 386
8 502 390 280 384 622 507 389 501
8 504 392 282 386 624 509 391 503
8 624 509 391 503 575 468 354 457
8 513 410 299 395 630 527 408 511
8 631 528 411 514 512 409 300 396
8 513 410 528 631 395 299 409 512
8 519 416 305 401 633 530 411 514
8 634 531 412 515 516 413 302 398
8 523 420 309 405 634 531 412 515
8 635 532 413 516 517 414 303 399
8 521 417 533 636 403 306 414 517
8 520 418 307 402 637 534 415 518
8 519 416 534 637 401 305 415 518
8 522 419 308 404 639 537 418 520
8 522 419 536 640 404 308 417 521
8 524 421 310 406 642 539 420 523
8 524 421 541 644 406 310 423 526
8 646 543 422 525 526 423 311 407
8 529 426 314 410 647 544 424 527
8 528 425 545 648 411 315 427 530
8 529 426 545 648 410 314 425 528
8 535 429 317 416 649 546 427 530
8 650 548 430 531 532 432 320 413
8 539 438 325 420 650 548 430 531
8 533 433 550 651 414 321 432 532
8 536 434 551 652 417 322 433 533
8 537 431 319 418 653 547 428 534
8 535 429 547 653 416 317 428 534
8 538 435 552 654 419 323 434 536
8 538 435 323 419 655 549 431 537
8 540 440 327 421 657 556 438 539
8 540 440 557 659 421 327 439 541
8 541 439 555 660 423 326 437 543
8 661 554 436 542 543 437 324 422
8 676 570 452 559 590 473 365 484
8 560 453 338 441 676 570 452 559
8 562 455 340 443 677 571 453 560
8 447 344 459 566 561 457 575 678
8 564 456 341 445 679 573 455 562
8 567 460 345 448 680 572 454 563
8 680 572 454 563 564 456 341 445
8 565 458 576 682 447 344 459 566
8 450 346 461 569 565 458 576 682
8 568 462 347 449 684 578 460 567
8 451 348 462 568 569 461 579 685
8 686 580 463 570 591 474 360 473
8 571 464 350 453 686 580 463 570
8 573 466 352 455 687 581 464 571
8 572 465 582 688 460 357 471 578
8 574 467 582 688 456 353 465 572
8 574 467 353 456 689 583 466 573
8 459 356 470 577 575 468 585 691
8 576 469 586 692 459 356 470 577
8 461 358 472 579 576 469 586 692
8 462 359 471 578 579 472 588 694
8 704 591 473 590 593 475 363 481
8 595 476 592 705 475 361 474 591
8 593 475 363 481 707 594 479 602
8 594 477 362 479 709 598 478 600
8 595 476 361 475 711 597 477 594
8 479 362 480 603 600 478 601 720
8 481 363 482 605 602 479 603 722
8 603 480 364 482 723 604 483 606
8 605 482 365 484 724 606 485 607
8 656 553 608 726 542 436 487 609
8 645 542 609 728 525 422 488 611
8 609 487 610 729 488 369 489 612
8 611 488 612 730 491 371 490 613
8 616 504 386 495 731 624 503 614
8 731 624 503 614 678 575 457 561
8 732 622 501 615 616 504 386 495
8 617 502 384 496 732 622 501 615
8 617 502 621 735 496 384 500 618
8 736 620 499 619 618 500 382 497
8 630 527 408 511 736 620 499 619
8 621 506 626 737 500 388 505 620
8 647 544 424 527 737 626 505 620
8 623 508 627 738 502 390 506 621
8 623 508 390 502 739 628 507 622
8 625 510 628 739 504 392 507 622
8 740 629 509 624 691 585 468 575
8 625 510 392 504 740 629 509 624
8 632 529 410 513 744 647 527 630
8 631 528 648 745 514 411 530 633
8 632 529 648 745 513 410 528 631
8 638 535 416 519 746 649 530 633
8 747 650 531 634 635 532 413 516
8 642 539 420 523 747 650 531 634
8 636 533 651 748 517 414 532 635
8 640 536 652 749 521 417 533 636
8 639 537 418 520 750 653 534 637
8 638 535 653 750 519 416 534 637
8 641 538 419 522 751 655 537 639
8 641 538 654 752 522 419 536 640
8 643 540 421 524 753 657 539 642
8 643 540 659 755 524 421 541 644
8 644 541 660 757 526 423 543 646
8 758 661 542 645 646 543 422 525
8 529 426 544 647 648 545 662 759
8 530 427 545 648 649 546 663 760
8 535 429 546 649 653 547 664 761
8 762 666 548 650 651 550 432 532
8 657 556 438 539 762 666 548 650
8 652 551 668 763 533 433 550 651
8 654 552 669 764 536 434 551 652
8 655 549 431 537 765 665 547 653
8 538 435 549 655 654 552 667 766
8 661 554 671 768 542 436 553 656
8 658 558 440 540 769 674 556 657
8 658 558 675 770 540 440 557 659
8 659 557 673 771 541 439 555 660
8 660 555 672 772 543 437 554 661
8 788 686 570 676 704 591 473 590
8 677 571 453 560 788 686 570 676
8 679 573 455 562 789 687 571 677
8 566 459 577 683 678 575 691 790
8 681 574 456 564 791 689 573 679
8 680 572 688 792 567 460 578 684
8 681 574 688 792 564 456 572 680
8 682 576 692 794 566 459 577 683
8 569 461 579 685 682 576 692 794
8 568 462 578 684 685 579 694 796
8 687 581 464 571 798 696 580 686
8 798 696 580 686 705 592 474 591
8 689 583 466 573 799 697 581 687
8 688 582 698 800 578 471 588 694
8 690 584 698 800 574 467 582 688
8 690 584 467 574 801 699 583 689
8 693 587 701 803 577 470 585 691
8 693 587 470 577 804 702 586 692
8 695 589 702 804 579 472 586 692
8 695 589 472 579 805 703 588 694
8 708 595 705 813 593 475 591 704
8 710 596 706 814 595 476 592 705
8 707 594 479 602 816 709 600 719
8 708 595 475 593 817 711 594 707
8 709 598 478 600 819 715 599 717
8 711 597 477 594 820 714 598 709
8 710 596 476 595 822 713 597 711
8 600 478 601 720 717 599 718 832
8 602 479 603 722 719 600 720 834
8 720 601 480 603 835 721 604 723
8 722 603 482 605 836 723 606 724
8 767 670 725 839 656 553 608 726
8 756 656 726 841 645 542 609 728
8 726 608 727 842 609 487 610 729
8 728 609 729 843 611 488 612 730
8 844 740 624 731 790 691 575 678
8 733 625 504 616 844 740 624 731
8 734 623 502 617 845 739 622 732
8 733 625 739 845 616 504 622 732
8 734 623 738 846 617 502 621 735
8 735 621 737 847 618 500 620 736
8 744 647 527 630 847 737 620 736
8 621 506 627 738 737 626 741 848
8 647 544 626 737 759 662 741 848
8 623 508 628 739 738 627 742 849
8 740 629 585 691 850 743 700 802
8 625 510 629 740 739 628 743 850
8 632 529 647 744 745 648 759 854
8 633 530 648 745 746 649 760 855
8 638 535 649 746 750 653 761 856
8 857 762 650 747 748 651 532 635
8 753 657 539 642 857 762 650 747
8 749 652 763 858 636 533 651 748
8 752 654 764 859 640 536 652 749
8 751 655 537 639 860 765 653 750
8 641 538 655 751 752 654 766 861
8 754 658 540 643 862 769 657 753
8 754 658 770 863 643 540 659 755
8 755 659 771 864 644 541 660 757
8 758 661 768 866 645 542 656 756
8 757 660 772 867 646 543 661 758
8 759 662 773 868 648 545 663 760
8 649 546 663 760 761 664 774 871
8 765 665 547 653 872 775 664 761
8 873 777 666 762 763 668 550 651
8 769 674 556 657 873 777 666 762
8 764 669 779 874 652 551 668 763
8 654 552 667 766 764 669 778 875
8 655 549 665 765 766 667 776 876
8 768 671 782 877 656 553 670 767
8 772 672 783 878 661 554 671 768
8 658 558 674 769 770 675 786 879
8 659 557 675 770 771 673 785 881
8 882 784 672 772 771 673 555 660
8 789 687 571 677 897 798 686 788
8 897 798 686 788 813 705 591 704
8 791 689 573 679 898 799 687 789
8 795 693 803 900 683 577 691 790
8 793 690 574 681 901 801 689 791
8 792 688 800 902 684 578 694 796
8 793 690 800 902 681 574 688 792
8 795 693 577 683 903 804 692 794
8 797 695 804 903 685 579 692 794
8 797 695 579 685 904 805 694 796
8 905 806 697 799 798 696 581 687
8 814 706 806 905 705 592 696 798
8 689 583 697 799 801 699 808 907
8 800 698 809 908 694 588 703 805
8 690 584 699 801 800 698 809 908
8 803 701 810 909 691 585 700 802
8 693 587 702 804 803 701 811 910
8 695 589 703 805 804 702 812 911
8 818 710 814 919 708 595 705 813
8 821 712 815 920 710 596 706 814
8 816 709 600 719 922 819 717 831
8 817 711 594 707 923 820 709 816
8 818 710 595 708 924 822 711 817
8 819 715 599 717 926 827 716 829
8 820 714 598 709 927 826 715 819
8 929 825 713 822 820 714 597 711
8 821 712 596 710 930 824 713 822
8 717 599 718 832 829 716 830 942
8 719 600 720 834 831 717 832 944
8 832 718 601 720 945 833 721 835
8 834 720 603 722 946 835 723 836
8 869 780 838 950 767 670 725 839
8 865 767 839 952 756 656 726 841
8 839 725 840 953 726 608 727 842
8 841 726 842 954 728 609 729 843
8 844 740 691 790 955 850 802 899
8 733 625 740 844 845 739 850 955
8 734 623 739 845 846 738 849 956
8 735 621 738 846 847 737 848 957
8 744 647 737 847 854 759 848 957
8 738 627 742 849 848 741 851 958
8 848 741 851 958 759 662 773 868
8 850 743 700 802 959 852 807 906
8 849 742 628 739 959 852 743 850
8 854 759 868 965 745 648 760 855
8 746 649 760 855 856 761 871 966
8 860 765 653 750 967 872 761 856
8 968 873 762 857 858 763 651 748
8 862 769 657 753 968 873 762 857
8 859 764 874 969 749 652 763 858
8 752 654 766 861 859 764 875 970
8 751 655 765 860 861 766 876 971
8 754 658 769 862 863 770 879 972
8 755 659 770 863 864 771 881 974
8 976 882 772 867 864 771 660 757
8 866 768 877 977 756 656 767 865
8 867 772 878 978 758 661 768 866
8 760 663 773 868 871 774 883 980
8 870 781 837 948 982 890 780 869
8 982 890 780 869 877 782 670 767
8 761 664 774 871 872 775 884 984
8 876 776 665 765 985 885 775 872
8 873 777 668 763 986 887 779 874
8 769 674 777 873 879 786 887 986
8 764 669 778 875 874 779 888 987
8 766 667 776 876 875 778 886 988
8 878 783 892 989 768 671 782 877
8 878 783 672 772 990 893 784 882
8 880 787 675 770 991 896 786 879
8 880 787 895 992 770 675 785 881
8 881 785 894 993 771 673 784 882
8 1006 905 799 898 897 798 687 789
8 919 814 905 1006 813 705 798 897
8 791 689 799 898 901 801 907 1007
8 900 803 909 1009 790 691 802 899
8 795 693 804 903 900 803 910 1010
8 902 800 908 1011 796 694 805 904
8 793 690 801 901 902 800 908 1011
8 797 695 805 904 903 804 911 1012
8 799 697 806 905 907 808 912 1013
8 920 815 912 1013 814 706 806 905
8 802 700 810 909 906 807 913 1014
8 801 699 808 907 908 809 914 1015
8 805 703 809 908 911 812 915 1016
8 803 701 811 910 909 810 916 1017
8 911 812 917 1018 804 702 811 910
8 925 821 920 1030 818 710 814 919
8 928 823 921 1031 821 712 815 920
8 922 819 717 831 1033 926 829 941
8 923 820 709 816 1034 927 819 922
8 1035 929 822 924 923 820 711 817
8 925 821 710 818 1036 930 822 924
8 1038 933 825 929 927 826 714 820
8 926 827 716 829 1039 935 828 939
8 927 826 715 819 1040 934 827 926
8 928 823 712 821 1041 931 824 930
8 1042 932 824 930 929 825 713 822
8 829 716 830 942 939 828 940 1058
8 831 717 832 944 941 829 942 1060
8 942 830 718 832 1061 943 833 945
8 944 832 720 834 1062 945 835 946
8 981 889 947 1064 870 781 837 948
8 948 837 949 1067 869 780 838 950
8 975 869 950 1069 865 767 839 952
8 950 838 951 1070 839 725 840 953
8 952 839 953 1071 841 726 842 954
8 955 850 802 899 1072 959 906 1008
8 956 849 739 845 1072 959 850 955
8 846 738 849 956 957 848 958 1073
8 957 848 958 1073 854 759 868 965
8 849 742 852 959 958 851 961 1076
8 960 853 961 1076 906 807 852 959
8 958 851 961 1076 868 773 883 980
8 960 853 807 906 1077 963 913 1014
8 855 760 868 965 966 871 980 1085
8 856 761 871 966 967 872 984 1086
8 971 876 765 860 1087 985 872 967
8 968 873 763 858 1088 986 874 969
8 862 769 873 968 972 879 986 1088
8 859 764 875 970 969 874 987 1089
8 861 766 876 971 970 875 988 1090
8 973 880 770 863 1091 991 879 972
8 973 880 992 1092 863 770 881 974
8 974 881 993 1093 864 771 882 976
8 979 870 948 1066 1094 982 869 975
8 1094 982 869 975 977 877 767 865
8 978 878 772 867 1095 990 882 976
8 978 878 989 1096 866 768 877 977
8 871 774 883 980 984 884 994 1099
8 983 891 999 1100 870 781 889 981
8 1101 1000 890 982 989 892 782 877
8 983 891 781 870 1101 1000 890 982
8 872 775 884 984 985 885 995 1103
8 876 776 885 985 988 886 996 1104
8 986 887 779 874 1105 998 888 987
8 879 786 887 986 991 896 998 1105
8 875 778 886 988 987 888 997 1106
8 990 893 1002 1107 878 783 892 989
8 1108 1003 893 990 993 894 784 882
8 880 787 896 991 992 895 1005 1109
8 993 894 785 881 1110 1004 895 992
8 898 799 905 1006 1007 907 1013 1120
8 1030 920 1013 1120 919 814 905 1006
8 901 801 907 1007 1011 908 1015 1121
8 899 802 909 1009 1008 906 1014 1122
8 900 803 910 1010 1009 909 1017 1123
8 1012 911 1018 1124 903 804 910 1010
8 904 805 908 1011 1012 911 1016 1125
8 1013 912 1020 1127 907 808 914 1015
8 1031 921 1020 1127 920 815 912 1013
8 1019 918 962 1075 1128 1021 913 1014
8 1128 1021 913 1014 1017 916 810 909
8 1015 914 1022 1129 908 809 915 1016
8 1016 915 1023 1130 911 812 917 1018
8 1018 917 1024 1131 910 811 916 1017
8 1037 928 1031 1148 925 821 920 1030
8 928 823 931 1041 1031 921 1032 1149
8 1033 926 829 941 1151 1039 939 1057
8 1034 927 819 922 1152 1040 926 1033
8 1153 1038 929 1035 1034 927 820 923
8 1154 1042 930 1036 1035 929 822 924
8 1037 928 821 925 1155 1041 930 1036
8 1039 935 828 939 1156 1047 938 1055
8 1157 1043 932 1042 1038 933 825 929
8 1038 933 826 927 1158 1045 934 1040
8 1040 934 827 926 1159 1046 935 1039
8 930 824 932 1042 1041 931 1044 1160
8 1051 936 1048 1165 1175 1052 937 1053
8 1156 1047 938 1055 1053 937 1054 1178
8 939 828 940 1058 1055 938 1056 1181
8 941 829 942 1060 1057 939 1058 1183
8 942 830 943 1061 1058 940 1059 1184
8 1060 942 832 944 1185 1061 945 1062
8 1082 964 1063 1188 981 889 947 1064
8 1097 981 1064 1190 979 870 948 1066
8 1064 947 1065 1191 948 837 949 1067
8 1066 948 1067 1193 975 869 950 1069
8 1067 949 1068 1194 950 838 951 1070
8 1069 950 1070 1195 952 839 953 1071
8 956 849 959 1072 1073 958 1076 1197
8 1074 960 1076 1197 1008 906 959 1072
8 1073 958 1076 1197 965 868 980 1085
8 1074 960 906 1008 1198 1077 1014 1122
8 1133 1026 1079 1199 1019 918 962 1075
8 1077 963 913 1014 1200 1080 962 1075
8 960 853 963 1077 1076 961 1078 1201
8 980 883 961 1076 1099 994 1078 1201
8 1210 1083 964 1082 1100 999 889 981
8 966 871 980 1085 1086 984 1099 1215
8 967 872 984 1086 1087 985 1103 1216
8 971 876 985 1087 1090 988 1104 1217
8 1088 986 874 969 1218 1105 987 1089
8 972 879 986 1088 1091 991 1105 1218
8 970 875 988 1090 1089 987 1106 1219
8 973 880 991 1091 1092 992 1109 1220
8 1093 993 881 974 1221 1110 992 1092
8 1222 1108 990 1095 1093 993 882 976
8 1223 1101 982 1094 1096 989 877 977
8 1098 983 870 979 1223 1101 982 1094
8 1095 990 1107 1224 978 878 989 1096
8 1098 983 1100 1225 979 870 981 1097
8 984 884 994 1099 1103 995 1111 1227
8 1102 1001 1115 1228 983 891 999 1100
8 1101 1000 892 989 1229 1116 1002 1107
8 1102 1001 891 983 1229 1116 1000 1101
8 985 885 995 1103 1104 996 1112 1230
8 988 886 996 1104 1106 997 1113 1231
8 1105 998 888 987 1232 1114 997 1106
8 991 896 998 1105 1109 1005 1114 1232
8 1108 1003 1117 1233 990 893 1002 1107
8 1108 1003 894 993 1233 1117 1004 1110
8 992 895 1005 1109 1110 1004 1118 1234
8 1120 1013 1127 1244 1007 907 1015 1121
8 1148 1031 1127 1244 1030 920 1013 1120
8 1121 1015 1129 1245 1011 908 1016 1125
8 1126 1019 1075 1196 1246 1128 1014 1122
8 1246 1128 1014 1122 1123 1017 909 1009
8 1124 1018 1131 1247 1010 910 1017 1123
8 1125 1016 1130 1248 1012 911 1018 1124
8 1127 1020 1137 1254 1015 914 1022 1129
8 1031 921 1032 1149 1127 1020 1137 1254
8 1134 1027 918 1019 1257 1140 1021 1128
8 1257 1140 1021 1128 1131 1024 916 1017
8 1129 1022 1141 1258 1016 915 1023 1130
8 1130 1023 1142 1259 1018 917 1024 1131
8 1261 1144 1025 1132 1133 1026 1079 1199
8 1255 1138 1025 1132 1135 1028 1144 1261
8 1133 1026 918 1019 1262 1145 1027 1134
8 1136 1029 1139 1256 1263 1146 1028 1135
8 1037 928 1041 1155 1148 1031 1149 1275
8 1041 931 1044 1160 1149 1032 1150 1276
8 1151 1039 939 1057 1278 1156 1055 1180
8 1152 1040 926 1033 1279 1159 1039 1151
8 1153 1038 927 1034 1280 1158 1040 1152
8 1281 1157 1042 1154 1153 1038 929 1035
8 1036 930 1042 1154 1155 1041 1160 1282
8 1283 1164 1046 1159 1156 1047 935 1039
8 1165 1048 1164 1283 1053 937 1047 1156
8 1157 1043 933 1038 1284 1161 1045 1158
8 1157 1043 1161 1284 1042 932 1044 1160
8 1040 934 1046 1159 1158 1045 1163 1285
8 1166 1049 1167 1292 1051 936 1048 1165
8 1166 1049 936 1051 1293 1168 1050 1172
8 1051 936 1052 1175 1172 1050 1173 1306
8 1174 1051 1165 1290 1308 1175 1053 1177
8 1053 937 1054 1178 1175 1052 1176 1309
8 1278 1156 1055 1180 1177 1053 1178 1311
8 1055 938 1056 1181 1178 1054 1179 1312
8 1057 939 1058 1183 1180 1055 1181 1314
8 1058 940 1059 1184 1181 1056 1182 1315
8 1060 942 1061 1185 1183 1058 1184 1316
8 1208 1081 1187 1321 1082 964 1063 1188
8 1209 1082 1188 1322 1097 981 1064 1190
8 1188 1063 1189 1323 1064 947 1065 1191
8 1190 1064 1191 1325 1066 948 1067 1193
8 1191 1065 1192 1326 1067 949 1068 1194
8 1067 1193 1069 950 1194 1327 1195 1070
8 1250 1133 1199 1330 1126 1019 1075 1196
8 1198 1077 1014 1122 1331 1200 1075 1196
8 1074 960 1077 1198 1197 1076 1201 1332
8 1085 980 1076 1197 1215 1099 1201 1332
8 1199 1079 1203 1333 1075 962 1080 1200
8 1132 1025 1119 1243 1199 1079 1203 1333
8 1201 1078 963 1077 1334 1202 1080 1200
8 1099 994 1078 1201 1227 1111 1202 1334
8 1343 1207 1081 1208 1210 1083 964 1082
8 1214 1084 1186 1319 1343 1207 1081 1208
8 1345 1210 1082 1209 1225 1100 981 1097
8 1346 1211 1083 1210 1228 1115 999 1100
8 1086 984 1099 1215 1216 1103 1227 1352
8 1087 985 1103 1216 1217 1104 1230 1353
8 1090 988 1104 1217 1219 1106 1231 1354
8 1218 1105 987 1089 1355 1232 1106 1219
8 1091 991 1105 1218 1220 1109 1232 1355
8 1092 992 1109 1220 1221 1110 1234 1356
8 1222 1108 1233 1357 1095 990 1107 1224
8 1222 1108 993 1093 1357 1233 1110 1221
8 1223 1101 989 1096 1358 1229 1107 1224
8 1226 1102 983 1098 1358 1229 1101 1223
8 1226 1102 1228 1359 1098 983 1100 1225
8 1103 995 1111 1227 1230 1112 1235 1360
8 1107 1002 1117 1233 1229 1116 1240 1362
8 1102 1001 1116 1229 1228 1115 1240 1362
8 1104 996 1112 1230 1231 1113 1236 1363
8 1364 1237 1114 1232 1231 1113 997 1106
8 1109 1005 1114 1232 1234 1118 1238 1365
8 1110 1004 1118 1234 1233 1117 1241 1366
8 1242 1374 1255 1138 1119 1243 1132 1025
8 1244 1127 1254 1376 1121 1015 1129 1245
8 1148 1031 1149 1275 1244 1127 1254 1376
8 1245 1129 1258 1377 1125 1016 1130 1248
8 1251 1134 1019 1126 1378 1257 1128 1246
8 1378 1257 1128 1246 1247 1131 1017 1123
8 1248 1130 1259 1379 1124 1018 1131 1247
8 1261 1381 1250 1133 1132 1249 1330 1199
8 1255 1380 1252 1135 1132 1249 1381 1261
8 1250 1133 1019 1126 1382 1262 1134 1251
8 1253 1136 1256 1385 1384 1263 1135 1252
8 1254 1137 1265 1387 1129 1022 1141 1258
8 1149 1032 1150 1276 1254 1137 1265 1387
8 1028 1135 1255 1138 1139 1256 1388 1266
8 1136 1029 1147 1264 1256 1139 1267 1389
8 1390 1268 1140 1257 1259 1142 1024 1131
8 1260 1143 1027 1134 1390 1268 1140 1257
8 1258 1141 1269 1391 1130 1023 1142 1259
8 1262 1145 1027 1134 1393 1271 1143 1260
8 1261 1144 1026 1133 1394 1272 1145 1262
8 1135 1028 1144 1261 1263 1146 1272 1394
8 1136 1029 1146 1263 1264 1147 1273 1395
8 1155 1041 1160 1282 1275 1149 1276 1405
8 1276 1150 1044 1160 1406 1277 1162 1286
8 1408 1283 1159 1279 1278 1156 1039 1151
8 1290 1165 1283 1408 1177 1053 1156 1278
8 1152 1040 1159 1279 1280 1158 1285 1409
8 1281 1157 1038 1153 1410 1284 1158 1280
8 1281 1157 1284 1410 1154 1042 1160 1282
8 1159 1046 1164 1283 1285 1163 1289 1412
8 1292 1167 1289 1412 1165 1048 1164 1283
8 1158 1045 1163 1285 1284 1161 1288 1413
8 1284 1161 1288 1413 1160 1044 1162 1286
8 1291 1166 1292 1418 1174 1051 1165 1290
8 1291 1166 1051 1174 1419 1293 1172 1305
8 1294 1169 1296 1421 1166 1049 1167 1292
8 1293 1168 1050 1172 1422 1295 1171 1303
8 1294 1169 1049 1166 1423 1297 1168 1293
8 1422 1295 1171 1303 1301 1170 1302 1435
8 1172 1050 1173 1306 1303 1171 1304 1438
8 1174 1051 1175 1308 1305 1172 1306 1440
8 1175 1052 1176 1309 1306 1173 1307 1441
8 1177 1053 1178 1311 1308 1175 1309 1443
8 1178 1054 1179 1312 1309 1176 1310 1444
8 1180 1055 1181 1314 1311 1178 1312 1446
8 1056 1181 1312 1179 1182 1315 1447 1313
8 1183 1058 1184 1316 1314 1181 1315 1448
8 1319 1186 1084 1214 1451 1317 1213 1350
8 1319 1186 1318 1453 1208 1081 1187 1321
8 1321 1187 1320 1456 1188 1063 1189 1323
8 1344 1208 1321 1457 1209 1082 1188 1322
8 1322 1188 1323 1458 1190 1064 1191 1325
8 1323 1189 1324 1459 1191 1065 1192 1326
8 1191 1325 1193 1067 1326 1460 1327 1194
8 1242 1374 1243 1119 1328 1462 1335 1204
8 1330 1199 1333 1465 1196 1075 1200 1331
8 1132 1249 1330 1199 1243 1375 1465 1333
8 1332 1201 1077 1198 1466 1334 1200 1331
8 1215 1099 1201 1332 1352 1227 1334 1466
8 1119 1243 1333 1203 1204 1335 1470 1338
8 1333 1203 1338 1470 1200 1080 1202 1334
8 1227 1111 1202 1334 1360 1235 1338 1470
8 1328 1462 1335 1204 1205 1336 1471 1339
8 1337 1206 1340 1472 1464 1329 1205 1336
8 1346 1211 1342 1479 1210 1083 1207 1343
8 1346 1211 1115 1228 1479 1342 1239 1361
8 1348 1212 1084 1214 1479 1342 1207 1343
8 1480 1343 1208 1344 1345 1210 1082 1209
8 1351 1214 1319 1454 1480 1343 1208 1344
8 1481 1346 1210 1345 1359 1228 1100 1225
8 1348 1212 1347 1483 1214 1084 1213 1350
8 1216 1103 1227 1352 1353 1230 1360 1488
8 1217 1104 1230 1353 1354 1231 1363 1489
8 1490 1364 1232 1355 1354 1231 1106 1219
8 1220 1109 1232 1355 1356 1234 1365 1491
8 1221 1110 1234 1356 1357 1233 1366 1492
8 1224 1107 1233 1357 1358 1229 1362 1493
8 1226 1102 1229 1358 1359 1228 1362 1493
8 1230 1112 1235 1360 1363 1236 1367 1496
8 1361 1239 1115 1228 1497 1371 1240 1362
8 1366 1241 1372 1498 1233 1117 1240 1362
8 1364 1237 1113 1231 1499 1368 1236 1363
8 1364 1237 1368 1499 1232 1114 1238 1365
8 1234 1118 1238 1365 1366 1241 1369 1500
8 1507 1373 1242 1374 1388 1266 1138 1255
8 1508 1374 1243 1375 1380 1255 1132 1249
8 1376 1254 1387 1509 1245 1129 1258 1377
8 1275 1149 1276 1405 1376 1254 1387 1509
8 1377 1258 1391 1510 1248 1130 1259 1379
8 1511 1390 1257 1378 1379 1259 1131 1247
8 1383 1260 1134 1251 1511 1390 1257 1378
8 1252 1135 1256 1385 1380 1255 1388 1512
8 1261 1381 1513 1394 1133 1250 1382 1262
8 1135 1252 1384 1263 1261 1381 1513 1394
8 1382 1262 1134 1251 1514 1393 1260 1383
8 1253 1136 1263 1384 1386 1264 1395 1516
8 1253 1136 1264 1386 1385 1256 1389 1517
8 1387 1265 1397 1519 1258 1141 1269 1391
8 1276 1150 1277 1406 1387 1265 1397 1519
8 1256 1139 1267 1389 1388 1266 1398 1520
8 1264 1147 1274 1396 1389 1267 1399 1521
8 1392 1270 1143 1260 1522 1400 1268 1390
8 1390 1268 1142 1259 1522 1400 1269 1391
8 1392 1270 1401 1523 1260 1143 1271 1393
8 1272 1394 1524 1402 1145 1262 1393 1271
8 1395 1273 1146 1263 1524 1402 1272 1394
8 1273 1395 1264 1147 1403 1526 1396 1274
8 1405 1276 1160 1282 1534 1406 1286 1411
8 1414 1287 1407 1535 1286 1162 1277 1406
8 1279 1159 1283 1408 1409 1285 1412 1537
8 1418 1292 1412 1537 1290 1165 1283 1408
8 1280 1158 1285 1409 1410 1284 1413 1538
8 1410 1284 1413 1538 1282 1160 1286 1411
8 1285 1163 1289 1412 1413 1288 1417 1540
8 1421 1296 1417 1540 1292 1167 1289 1412
8 1414 1287 1162 1286 1541 1416 1288 1413
8 1420 1294 1421 1545 1291 1166 1292 1418
8 1419 1293 1172 1305 1546 1422 1303 1437
8 1420 1294 1166 1291 1547 1423 1293 1419
8 1294 1169 1297 1423 1421 1296 1425 1548
8 1423 1297 1168 1293 1549 1424 1295 1422
8 1301 1170 1298 1427 1422 1295 1424 1549
8 1432 1300 1428 1554 1301 1170 1298 1427
8 1431 1299 1428 1554 1560 1430 1300 1432
8 1563 1433 1300 1432 1435 1302 1170 1301
8 1546 1422 1303 1437 1434 1301 1435 1565
8 1303 1171 1304 1438 1435 1302 1436 1566
8 1305 1172 1306 1440 1437 1303 1438 1568
8 1306 1173 1307 1441 1438 1304 1439 1569
8 1308 1175 1309 1443 1440 1306 1441 1571
8 1309 1176 1310 1444 1441 1307 1442 1572
8 1311 1178 1312 1446 1443 1309 1444 1574
8 1179 1312 1444 1310 1313 1447 1575 1445
8 1314 1181 1315 1448 1446 1312 1447 1576
8 1350 1213 1349 1486 1451 1317 1449 1579
8 1451 1317 1450 1581 1319 1186 1318 1453
8 1454 1319 1214 1351 1582 1451 1350 1487
8 1453 1318 1452 1584 1321 1187 1320 1456
8 1454 1319 1453 1585 1344 1208 1321 1457
8 1456 1320 1455 1586 1323 1189 1324 1459
8 1457 1321 1456 1587 1322 1188 1323 1458
8 1458 1323 1459 1588 1325 1191 1326 1460
8 1205 1336 1464 1329 1328 1462 1590 1461
8 1507 1373 1461 1590 1374 1242 1328 1462
8 1508 1374 1462 1591 1375 1243 1335 1467
8 1337 1206 1329 1464 1473 1341 1463 1594
8 1375 1243 1335 1467 1465 1333 1470 1596
8 1465 1333 1470 1596 1331 1200 1334 1466
8 1352 1227 1334 1466 1488 1360 1470 1596
8 1591 1462 1336 1468 1467 1335 1471 1597
8 1469 1337 1472 1598 1595 1464 1336 1468
8 1471 1339 1474 1600 1335 1204 1338 1470
8 1600 1474 1367 1496 1470 1338 1235 1360
8 1336 1205 1340 1472 1471 1339 1475 1601
8 1337 1206 1341 1473 1472 1340 1476 1602
8 1495 1370 1478 1609 1361 1239 1342 1479
8 1348 1212 1342 1479 1483 1347 1478 1609
8 1481 1346 1479 1610 1345 1210 1343 1480
8 1481 1346 1228 1359 1610 1479 1361 1494
8 1484 1348 1214 1351 1610 1479 1343 1480
8 1483 1347 1482 1612 1350 1213 1349 1486
8 1484 1348 1483 1613 1351 1214 1350 1487
8 1353 1230 1360 1488 1489 1363 1496 1616
8 1490 1364 1231 1354 1617 1499 1363 1489
8 1490 1364 1499 1617 1355 1232 1365 1491
8 1356 1234 1365 1491 1492 1366 1500 1619
8 1492 1366 1498 1620 1357 1233 1362 1493
8 1494 1361 1228 1359 1621 1497 1362 1493
8 1495 1370 1239 1361 1622 1504 1371 1497
8 1363 1236 1367 1496 1499 1368 1501 1623
8 1497 1371 1240 1362 1624 1505 1372 1498
8 1625 1503 1372 1498 1500 1369 1241 1366
8 1365 1238 1368 1499 1500 1369 1502 1626
8 1520 1398 1506 1633 1388 1266 1373 1507
8 1634 1507 1374 1508 1512 1388 1255 1380
8 1509 1387 1519 1635 1377 1258 1391 1510
8 1405 1276 1406 1534 1509 1387 1519 1635
8 1515 1392 1260 1383 1636 1522 1390 1511
8 1511 1390 1259 1379 1636 1522 1391 1510
8 1385 1256 1389 1517 1512 1388 1520 1637
8 1513 1394 1262 1382 1638 1524 1393 1514
8 1395 1516 1638 1524 1263 1384 1513 1394
8 1515 1392 1523 1639 1383 1260 1393 1514
8 1516 1395 1526 1640 1386 1264 1396 1518
8 1386 1264 1396 1518 1517 1389 1521 1641
8 1519 1397 1527 1643 1391 1269 1400 1522
8 1535 1407 1527 1643 1406 1277 1397 1519
8 1389 1267 1399 1521 1520 1398 1528 1644
8 1645 1529 1399 1521 1525 1404 1274 1396
8 1392 1270 1400 1522 1523 1401 1531 1646
8 1524 1402 1271 1393 1648 1532 1401 1523
8 1403 1526 1648 1532 1273 1395 1524 1402
8 1525 1404 1274 1396 1649 1533 1403 1526
8 1539 1414 1535 1657 1411 1286 1406 1534
8 1542 1415 1536 1658 1414 1287 1407 1535
8 1409 1285 1412 1537 1538 1413 1540 1660
8 1545 1421 1540 1660 1418 1292 1412 1537
8 1539 1414 1286 1411 1661 1541 1413 1538
8 1540 1417 1544 1663 1413 1288 1416 1541
8 1421 1296 1425 1548 1540 1417 1544 1663
8 1542 1415 1287 1414 1664 1543 1416 1541
8 1420 1294 1423 1547 1545 1421 1548 1666
8 1547 1423 1293 1419 1667 1549 1422 1546
8 1434 1301 1427 1553 1546 1422 1549 1667
8 1423 1297 1424 1549 1548 1425 1550 1668
8 1551 1426 1550 1668 1427 1298 1424 1549
8 1551 1426 1298 1427 1671 1552 1428 1554
8 1562 1432 1554 1674 1434 1301 1427 1553
8 1431 1299 1429 1558 1554 1428 1555 1675
8 1431 1299 1430 1560 1558 1429 1557 1680
8 1560 1430 1300 1432 1683 1559 1433 1563
8 1561 1431 1554 1674 1684 1560 1432 1562
8 1685 1563 1432 1562 1565 1435 1301 1434
8 1435 1302 1436 1566 1563 1433 1564 1686
8 1437 1303 1438 1568 1565 1435 1566 1688
8 1438 1304 1439 1569 1566 1436 1567 1689
8 1440 1306 1441 1571 1568 1438 1569 1691
8 1441 1307 1442 1572 1569 1439 1570 1692
8 1443 1309 1444 1574 1571 1441 1572 1694
8 1310 1444 1572 1442 1445 1575 1695 1573
8 1446 1312 1447 1576 1574 1444 1575 1696
8 1486 1349 1485 1614 1579 1449 1577 1699
8 1451 1317 1449 1579 1581 1450 1578 1701
8 1487 1350 1486 1615 1582 1451 1579 1702
8 1581 1450 1580 1704 1453 1318 1452 1584
8 1582 1451 1581 1705 1454 1319 1453 1585
8 1584 1452 1583 1706 1456 1320 1455 1586
8 1585 1453 1584 1707 1457 1321 1456 1587
8 1587 1456 1586 1708 1458 1323 1459 1588
8 1633 1506 1589 1710 1507 1373 1461 1590
8 1464 1329 1461 1590 1594 1463 1589 1710
8 1468 1336 1462 1591 1595 1464 1590 1711
8 1634 1507 1590 1711 1508 1374 1462 1591
8 1473 1341 1463 1594 1603 1477 1593 1716
8 1469 1337 1464 1595 1599 1473 1594 1717
8 1471 1597 1467 1335 1600 1718 1596 1470
8 1718 1600 1496 1616 1596 1470 1360 1488
8 1336 1468 1597 1471 1472 1598 1719 1601
8 1469 1337 1473 1599 1598 1472 1602 1720
8 1722 1604 1501 1623 1600 1474 1367 1496
8 1475 1601 1471 1339 1604 1722 1600 1474
8 1602 1476 1605 1723 1472 1340 1475 1601
8 1476 1602 1724 1606 1341 1473 1603 1477
8 1483 1347 1478 1609 1612 1482 1608 1731
8 1495 1370 1504 1622 1609 1478 1608 1731
8 1618 1495 1609 1732 1494 1361 1479 1610
8 1484 1348 1479 1610 1613 1483 1609 1732
8 1486 1349 1482 1612 1614 1485 1611 1733
8 1613 1483 1612 1734 1487 1350 1486 1615
8 1489 1363 1496 1616 1617 1499 1623 1736
8 1491 1365 1499 1617 1619 1500 1626 1737
8 1618 1495 1361 1494 1738 1622 1497 1621
8 1739 1625 1498 1620 1619 1500 1366 1492
8 1621 1497 1362 1493 1740 1624 1498 1620
8 1742 1631 1504 1622 1624 1505 1371 1497
8 1743 1628 1502 1626 1623 1501 1368 1499
8 1744 1630 1505 1624 1625 1503 1372 1498
8 1745 1629 1503 1625 1626 1502 1369 1500
8 1520 1398 1528 1644 1633 1506 1632 1751
8 1637 1520 1633 1752 1512 1388 1507 1634
8 1635 1519 1643 1753 1510 1391 1522 1636
8 1657 1535 1643 1753 1534 1406 1519 1635
8 1515 1392 1522 1636 1639 1523 1646 1754
8 1517 1389 1521 1641 1637 1520 1644 1755
8 1524 1638 1756 1648 1393 1514 1639 1523
8 1640 1526 1395 1516 1756 1648 1524 1638
8 1642 1525 1396 1518 1757 1649 1526 1640
8 1758 1645 1521 1641 1642 1525 1396 1518
8 1646 1531 1400 1522 1760 1650 1527 1643
8 1535 1407 1536 1658 1643 1527 1650 1760
8 1521 1399 1529 1645 1644 1528 1651 1761
8 1647 1530 1652 1762 1525 1404 1529 1645
8 1401 1523 1648 1532 1531 1646 1763 1655
8 1525 1404 1533 1649 1647 1530 1654 1765
8 1533 1649 1766 1656 1403 1526 1648 1532
8 1662 1542 1658 1774 1539 1414 1535 1657
8 1542 1415 1543 1664 1658 1536 1659 1775
8 1660 1540 1663 1777 1538 1413 1541 1661
8 1545 1421 1548 1666 1660 1540 1663 1777
8 1662 1542 1414 1539 1778 1664 1541 1661
8 1664 1543 1416 1541 1779 1665 1544 1663
8 1548 1425 1550 1668 1663 1544 1665 1779
8 1547 1423 1549 1667 1666 1548 1668 1781
8 1670 1551 1668 1781 1553 1427 1549 1667
8 1551 1426 1552 1671 1668 1550 1669 1782
8 1670 1551 1427 1553 1784 1671 1554 1674
8 1675 1555 1672 1785 1554 1428 1552 1671
8 1678 1556 1673 1789 1558 1429 1555 1675
8 1561 1431 1558 1681 1674 1554 1675 1790
8 1794 1677 1556 1678 1680 1557 1429 1558
8 1560 1430 1559 1683 1680 1557 1679 1797
8 1561 1431 1560 1684 1681 1558 1680 1798
8 1563 1433 1564 1686 1683 1559 1682 1800
8 1684 1560 1432 1562 1801 1683 1563 1685
8 1565 1435 1566 1688 1685 1563 1686 1802
8 1566 1436 1567 1689 1686 1564 1687 1803
8 1568 1438 1569 1691 1688 1566 1689 1805
8 1569 1439 1570 1692 1689 1567 1690 1806
8 1571 1441 1572 1694 1691 1569 1692 1808
8 1442 1572 1692 1570 1573 1695 1809 1693
8 1574 1444 1575 1696 1694 1572 1695 1810
8 1614 1485 1592 1712 1699 1577 1697 1813
8 1579 1449 1577 1699 1701 1578 1698 1815
8 1615 1486 1614 1735 1702 1579 1699 1816
8 1701 1578 1700 1818 1581 1450 1580 1704
8 1582 1451 1579 1702 1705 1581 1701 1819
8 1704 1580 1703 1820 1584 1452 1583 1706
8 1705 1581 1704 1821 1585 1453 1584 1707
8 1707 1584 1706 1822 1587 1456 1586 1708
8 1710 1589 1506 1633 1824 1709 1632 1751
8 1594 1463 1589 1710 1716 1593 1709 1824
8 1752 1633 1710 1825 1634 1507 1590 1711
8 1595 1464 1590 1711 1717 1594 1710 1825
8 1830 1714 1592 1712 1733 1611 1485 1614
8 1603 1477 1593 1716 1725 1607 1715 1834
8 1599 1473 1594 1717 1721 1603 1716 1835
8 1837 1722 1623 1736 1718 1600 1496 1616
8 1719 1601 1722 1837 1597 1471 1600 1718
8 1602 1720 1598 1472 1723 1838 1719 1601
8 1720 1602 1473 1599 1839 1724 1603 1721
8 1723 1605 1726 1840 1601 1475 1604 1722
8 1840 1726 1628 1743 1722 1604 1501 1623
8 1724 1606 1727 1841 1602 1476 1605 1723
8 1725 1607 1728 1842 1603 1477 1606 1724
8 1612 1482 1608 1731 1733 1611 1730 1849
8 1741 1627 1730 1849 1622 1504 1608 1731
8 1613 1483 1609 1732 1734 1612 1731 1850
8 1618 1495 1622 1738 1732 1609 1731 1850
8 1615 1486 1612 1734 1735 1614 1733 1851
8 1852 1743 1626 1737 1736 1623 1499 1617
8 1853 1745 1625 1739 1737 1626 1500 1619
8 1855 1742 1622 1738 1740 1624 1497 1621
8 1856 1744 1624 1740 1739 1625 1498 1620
8 1741 1627 1504 1622 1857 1746 1631 1742
8 1742 1631 1505 1624 1858 1749 1630 1744
8 1859 1747 1629 1745 1743 1628 1502 1626
8 1860 1748 1630 1744 1745 1629 1503 1625
8 1644 1528 1651 1761 1751 1632 1750 1865
8 1637 1520 1644 1755 1752 1633 1751 1866
8 1754 1646 1522 1636 1867 1760 1643 1753
8 1657 1535 1658 1774 1753 1643 1760 1867
8 1639 1523 1646 1754 1756 1648 1763 1868
8 1641 1521 1645 1758 1755 1644 1761 1869
8 1757 1649 1526 1640 1870 1766 1648 1756
8 1642 1525 1649 1757 1759 1647 1765 1871
8 1759 1647 1762 1872 1642 1525 1645 1758
8 1760 1650 1767 1874 1646 1531 1655 1763
8 1658 1536 1659 1775 1760 1650 1767 1874
8 1762 1652 1768 1875 1645 1529 1651 1761
8 1764 1653 1769 1876 1647 1530 1652 1762
8 1656 1766 1877 1773 1532 1648 1763 1655
8 1771 1879 1765 1654 1653 1764 1647 1530
8 1533 1649 1765 1654 1656 1766 1880 1772
8 1662 1542 1664 1778 1774 1658 1775 1887
8 1664 1543 1665 1779 1775 1659 1776 1888
8 1778 1664 1541 1661 1890 1779 1663 1777
8 1666 1548 1668 1781 1777 1663 1779 1890
8 1782 1669 1780 1891 1668 1550 1665 1779
8 1670 1551 1671 1784 1781 1668 1782 1893
8 1671 1552 1672 1785 1782 1669 1783 1894
8 1790 1675 1785 1896 1674 1554 1671 1784
8 1675 1555 1673 1789 1785 1672 1786 1897
8 1792 1676 1788 1903 1678 1556 1673 1789
8 1795 1678 1789 1904 1681 1558 1675 1790
8 1792 1676 1556 1678 1906 1791 1677 1794
8 1680 1557 1679 1797 1794 1677 1793 1909
8 1910 1794 1678 1795 1798 1680 1558 1681
8 1683 1559 1682 1800 1797 1679 1796 1912
8 1684 1560 1683 1801 1798 1680 1797 1913
8 1686 1564 1687 1803 1800 1682 1799 1915
8 1685 1563 1686 1802 1801 1683 1800 1916
8 1688 1566 1689 1805 1802 1686 1803 1917
8 1689 1567 1690 1806 1803 1687 1804 1918
8 1691 1569 1692 1808 1805 1689 1806 1920
8 1692 1570 1693 1809 1806 1690 1807 1921
8 1694 1572 1695 1810 1808 1692 1809 1922
8 1829 1713 1811 1926 1712 1592 1697 1813
8 1813 1697 1812 1928 1699 1577 1698 1815
8 1735 1614 1712 1828 1816 1699 1813 1929
8 1815 1698 1814 1931 1701 1578 1700 1818
8 1702 1579 1699 1816 1819 1701 1815 1932
8 1818 1700 1817 1933 1704 1580 1703 1820
8 1819 1701 1818 1934 1705 1581 1704 1821
8 1821 1704 1820 1935 1707 1584 1706 1822
8 1824 1709 1632 1751 1937 1823 1750 1865
8 1716 1593 1709 1824 1834 1715 1823 1937
8 1825 1710 1633 1752 1938 1824 1751 1866
8 1717 1594 1710 1825 1835 1716 1824 1938
8 1945 1830 1712 1828 1851 1733 1614 1735
8 1830 1714 1831 1946 1712 1592 1713 1829
8 1947 1832 1714 1830 1849 1730 1611 1733
8 1843 1729 1607 1725 1950 1833 1715 1834
8 1721 1603 1716 1835 1836 1725 1834 1951
8 1836 1725 1842 1953 1721 1603 1724 1839
8 1723 1838 1719 1601 1840 1954 1837 1722
8 1954 1840 1743 1852 1837 1722 1623 1736
8 1724 1839 1720 1602 1841 1955 1838 1723
8 1841 1727 1844 1956 1723 1605 1726 1840
8 1956 1844 1747 1859 1840 1726 1628 1743
8 1728 1842 1724 1606 1845 1957 1841 1727
8 1725 1607 1729 1843 1842 1728 1846 1958
8 1741 1627 1746 1857 1849 1730 1848 1965
8 1734 1612 1731 1850 1851 1733 1849 1966
8 1854 1741 1849 1966 1738 1622 1731 1850
8 1967 1859 1745 1853 1852 1743 1626 1737
8 1968 1860 1744 1856 1853 1745 1625 1739
8 1854 1741 1622 1738 1969 1857 1742 1855
8 1855 1742 1624 1740 1970 1858 1744 1856
8 1857 1746 1631 1742 1971 1861 1749 1858
8 1858 1749 1630 1744 1972 1863 1748 1860
8 1859 1747 1862 1973 1745 1629 1748 1860
8 1875 1768 1864 1977 1761 1651 1750 1865
8 1755 1644 1761 1869 1866 1751 1865 1978
8 1867 1760 1874 1979 1754 1646 1763 1868
8 1774 1658 1775 1887 1867 1760 1874 1979
8 1870 1766 1648 1756 1980 1877 1763 1868
8 1872 1762 1875 1981 1758 1645 1761 1869
8 1757 1649 1766 1870 1871 1765 1880 1982
8 1983 1879 1764 1873 1871 1765 1647 1759
8 1873 1764 1876 1984 1759 1647 1762 1872
8 1877 1773 1655 1763 1986 1881 1767 1874
8 1775 1659 1776 1888 1874 1767 1881 1986
8 1876 1769 1882 1987 1762 1652 1768 1875
8 1878 1770 1883 1988 1764 1653 1769 1876
8 1880 1772 1656 1766 1989 1886 1773 1877
8 1878 1770 1653 1764 1990 1884 1771 1879
8 1765 1654 1772 1880 1879 1771 1885 1991
8 1778 1664 1779 1890 1887 1775 1888 1997
8 1998 1889 1776 1888 1891 1780 1665 1779
8 1893 1782 1891 2000 1781 1668 1779 1890
8 1894 1783 1892 2001 1782 1669 1780 1891
8 1784 1671 1785 1896 1893 1782 1894 2003
8 1897 1786 1895 2004 1785 1672 1783 1894
8 1790 1675 1789 1904 1896 1785 1897 2006
8 1901 1787 1898 2007 1789 1673 1786 1897
8 1903 1788 1900 2013 1789 1673 1787 1901
8 1792 1676 1791 1906 1903 1788 1902 2016
8 1907 1792 1903 2017 1795 1678 1789 1904
8 1906 1791 1677 1794 2019 1905 1793 1909
8 1907 1792 1678 1795 2020 1906 1794 1910
8 1797 1679 1796 1912 1909 1793 1908 2022
8 1798 1680 1797 1913 1910 1794 1909 2023
8 1800 1682 1799 1915 1912 1796 1911 2025
8 1801 1683 1800 1916 1913 1797 1912 2026
8 1803 1687 1804 1918 1915 1799 1914 2028
8 1802 1686 1803 1917 1916 1800 1915 2029
8 1805 1689 1806 1920 1917 1803 1918 2030
8 1806 1690 1807 1921 1918 1804 1919 2031
8 1808 1692 1809 1922 1920 1806 1921 2032
8 1939 1826 1924 2037 1829 1713 1811 1926
8 1926 1811 1925 2039 1813 1697 1812 1928
8 1944 1829 1926 2040 1828 1712 1813 1929
8 1928 1812 1927 2042 1815 1698 1814 1931
8 1929 1813 1928 2043 1816 1699 1815 1932
8 1931 1814 1930 2044 1818 1700 1817 1933
8 1932 1815 1931 2045 1819 1701 1818 1934
8 1934 1818 1933 2046 1821 1704 1820 1935
8 2048 1936 1823 1937 1977 1864 1750 1865
8 1950 1833 1715 1834 2048 1936 1823 1937
8 1938 1824 1751 1866 2049 1937 1865 1978
8 1835 1716 1824 1938 1951 1834 1937 2049
8 1939 1826 1713 1829 2053 1942 1831 1946
8 1940 1827 1923 2035 2053 1942 1826 1939
8 1945 1830 1946 2058 1828 1712 1829 1944
8 2059 1947 1830 1945 1966 1849 1733 1851
8 1947 1832 1730 1849 2060 1948 1848 1965
8 1947 1832 1948 2060 1830 1714 1831 1946
8 1959 1847 1729 1843 2063 1949 1833 1950
8 1952 1843 1725 1836 2064 1950 1834 1951
8 1836 1725 1843 1952 1953 1842 1958 2066
8 1953 1842 1957 2067 1839 1724 1841 1955
8 1841 1955 1838 1723 1956 2068 1954 1840
8 2068 1956 1859 1967 1954 1840 1743 1852
8 1956 1844 1960 2069 1859 1747 1862 1973
8 1845 1957 1841 1727 1960 2069 1956 1844
8 1728 1842 1957 1845 1846 1958 2071 1961
8 1962 2072 1959 1847 1846 1958 1843 1729
8 1971 1861 1964 2077 1857 1746 1848 1965
8 1854 1741 1857 1969 1966 1849 1965 2078
8 1967 1859 1973 2079 1853 1745 1860 1968
8 1970 1858 1744 1856 2080 1972 1860 1968
8 1969 1857 1742 1855 2081 1971 1858 1970
8 1971 1861 1749 1858 2082 1974 1863 1972
8 1973 1862 1975 2083 1860 1748 1863 1972
8 1987 1882 1976 2086 1875 1768 1864 1977
8 1981 1875 1977 2087 1869 1761 1865 1978
8 1980 1877 1763 1868 2088 1986 1874 1979
8 1887 1775 1888 1997 1979 1874 1986 2088
8 1880 1982 2089 1989 1766 1870 1980 1877
8 1984 1876 1987 2090 1872 1762 1875 1981
8 1765 1871 1983 1879 1880 1982 2091 1991
8 1985 1878 1764 1873 2092 1990 1879 1983
8 1985 1878 1988 2093 1873 1764 1876 1984
8 2094 1992 1881 1986 1998 1889 1776 1888
8 1986 1881 1992 2094 1877 1773 1886 1989
8 1988 1883 1993 2095 1876 1769 1882 1987
8 1878 1770 1884 1990 1988 1883 1994 2096
8 1991 1885 1772 1880 2097 1996 1886 1989
8 1879 1771 1885 1991 1990 1884 1995 2098
8 2103 1998 1888 1997 2000 1891 1779 1890
8 2104 1999 1889 1998 2001 1892 1780 1891
8 2003 1894 2001 2106 1893 1782 1891 2000
8 2004 1895 2002 2107 1894 1783 1892 2001
8 2006 1897 2004 2109 1896 1785 1894 2003
8 2007 1898 2005 2110 1897 1786 1895 2004
8 2014 1901 2007 2112 1904 1789 1897 2006
8 2011 1899 2008 2113 1901 1787 1898 2007
8 2119 2010 1899 2011 2013 1900 1787 1901
8 2016 1902 2012 2122 1903 1788 1900 2013
8 2017 1903 2013 2123 1904 1789 1901 2014
8 1906 1791 1905 2019 2016 1902 2015 2125
8 1907 1792 1906 2020 2017 1903 2016 2126
8 1909 1793 1908 2022 2019 1905 2018 2128
8 2020 1906 1794 1910 2129 2019 1909 2023
8 1912 1796 1911 2025 2022 1908 2021 2131
8 1913 1797 1912 2026 2023 1909 2022 2132
8 1915 1799 1914 2028 2025 1911 2024 2134
8 1916 1800 1915 2029 2026 1912 2025 2135
8 1918 1804 1919 2031 2028 1914 2027 2136
8 1917 1803 1918 2030 2029 1915 2028 2137
8 1920 1806 1921 2032 2030 1918 2031 2138
8 1940 1827 1941 2054 2035 1923 2033 2140
8 2035 1923 2034 2143 1939 1826 1924 2037
8 2037 1924 2036 2146 1926 1811 1925 2039
8 2051 1939 2037 2147 1944 1829 1926 2040
8 2039 1925 2038 2149 1928 1812 1927 2042
8 2040 1926 2039 2150 1929 1813 1928 2043
8 2042 1927 2041 2151 1931 1814 1930 2044
8 2043 1928 2042 2152 1932 1815 1931 2045
8 2045 1931 2044 2153 1934 1818 1933 2046
8 2155 2047 1936 2048 2086 1976 1864 1977
8 2063 1949 1833 1950 2155 2047 1936 2048
8 2156 2048 1937 2049 2087 1977 1865 1978
8 2064 1950 1834 1951 2156 2048 1937 2049
8 2051 1939 1829 1944 2160 2053 1946 2058
8 2052 1940 2035 2144 2160 2053 1939 2051
8 2053 1942 1831 1946 2163 2057 1948 2060
8 2055 1943 1827 1940 2163 2057 1942 2053
8 2055 1943 2056 2164 1940 1827 1941 2054
8 2059 1947 1849 1966 2167 2060 1965 2078
8 2059 1947 2060 2167 1945 1830 1946 2058
8 2077 1964 2061 2168 1965 1848 1948 2060
8 2070 1963 1847 1959 2170 2062 1949 2063
8 2065 1959 1843 1952 2171 2063 1950 2064
8 2173 2072 1958 2066 2065 1959 1843 1952
8 1953 1842 1958 2066 2067 1957 2071 2174
8 2068 1956 2069 2175 1967 1859 1973 2079
8 2067 1957 2069 2175 1955 1841 1956 2068
8 1845 1957 2069 1960 1961 2071 2176 2073
8 2069 1960 2073 2176 1973 1862 1975 2083
8 2070 1963 2075 2177 1959 1847 1962 2072
8 1846 1958 2071 1961 1962 2072 2178 2074
8 2077 1964 1861 1971 2182 2076 1974 2082
8 2081 1971 2077 2183 1969 1857 1965 2078
8 2079 1973 2083 2184 1968 1860 1972 2080
8 2081 1971 1858 1970 2185 2082 1972 2080
8 2083 1975 2084 2186 1972 1863 1974 2082
8 2086 1976 1882 1987 2189 2085 1993 2095
8 2090 1987 2086 2190 1981 1875 1977 2087
8 2191 2094 1986 2088 2103 1998 1888 1997
8 2088 1986 2094 2191 1980 1877 1989 2089
8 1991 2091 2192 2097 1880 1982 2089 1989
8 2093 1988 2095 2193 1984 1876 1987 2090
8 1879 1983 2092 1990 1991 2091 2194 2098
8 1985 1878 1990 2092 2093 1988 2096 2195
8 2097 1996 1886 1989 2196 2099 1992 2094
8 2196 2099 1992 2094 2104 1999 1889 1998
8 1994 2096 1988 1883 2100 2197 2095 1993
8 2096 1994 1884 1990 2198 2101 1995 2098
8 1995 2098 2199 2102 1885 1991 2097 1996
8 2203 2104 1998 2103 2106 2001 1891 2000
8 2107 2002 2105 2204 2001 1892 1999 2104
8 2109 2004 2107 2206 2003 1894 2001 2106
8 2110 2005 2108 2207 2004 1895 2002 2107
8 2112 2007 2110 2209 2006 1897 2004 2109
8 2113 2008 2111 2210 2007 1898 2005 2110
8 2120 2011 2113 2212 2014 1901 2007 2112
8 2117 2009 2114 2213 2011 1899 2008 2113
8 2219 2116 2009 2117 2119 2010 1899 2011
8 2222 2118 2010 2119 2122 2012 1900 2013
8 2223 2119 2011 2120 2123 2013 1901 2014
8 2016 1902 2015 2125 2122 2012 2121 2225
8 2126 2016 2122 2226 2017 1903 2013 2123
8 2019 1905 2018 2128 2125 2015 2124 2228
8 2020 1906 2019 2129 2126 2016 2125 2229
8 2022 1908 2021 2131 2128 2018 2127 2231
8 2023 1909 2022 2132 2129 2019 2128 2232
8 2025 1911 2024 2134 2131 2021 2130 2234
8 2026 1912 2025 2135 2132 2022 2131 2235
8 1914 2028 2134 2024 2027 2136 2236 2133
8 2029 1915 2028 2137 2135 2025 2134 2237
8 2030 1918 2031 2138 2137 2028 2136 2238
8 2157 2050 2139 2240 2054 1941 2033 2140
8 2052 1940 2054 2161 2144 2035 2140 2242
8 2140 2033 2141 2243 2035 1923 2034 2143
8 2143 2034 2142 2246 2037 1924 2036 2146
8 2144 2035 2143 2247 2051 1939 2037 2147
8 2146 2036 2145 2249 2039 1925 2038 2149
8 2147 2037 2146 2250 2040 1926 2039 2150
8 2149 2038 2148 2251 2042 1927 2041 2151
8 2150 2039 2149 2252 2043 1928 2042 2152
8 2152 2042 2151 2253 2045 1931 2044 2153
8 2255 2154 2047 2155 2189 2085 1976 2086
8 2170 2062 1949 2063 2255 2154 2047 2155
8 2256 2155 2048 2156 2190 2086 1977 2087
8 2171 2063 1950 2064 2256 2155 2048 2156
8 2258 2159 2050 2157 2164 2056 1941 2054
8 2160 2053 1946 2058 2262 2163 2060 2167
8 2162 2055 1940 2052 2262 2163 2053 2160
8 2162 2055 2164 2263 2052 1940 2054 2161
8 2163 2057 1948 2060 2264 2165 2061 2168
8 2055 1943 2057 2163 2164 2056 2165 2264
8 2182 2076 2166 2268 2077 1964 2061 2168
8 2183 2077 2168 2269 2078 1965 2060 2167
8 2070 1963 2062 2170 2177 2075 2169 2271
8 2172 2070 1959 2065 2272 2170 2063 2171
8 2172 2070 2177 2273 2065 1959 2072 2173
8 2066 1958 2072 2173 2174 2071 2178 2274
8 2067 1957 2071 2174 2175 2069 2176 2275
8 2175 2069 2176 2275 2079 1973 2083 2184
8 2071 1961 2074 2178 2176 2073 2179 2276
8 2176 2073 2179 2276 2083 1975 2084 2186
8 2072 1962 2075 2177 2178 2074 2180 2277
8 2182 2076 1974 2082 2280 2181 2084 2186
8 2183 2077 1971 2081 2281 2182 2082 2185
8 2184 2083 2186 2282 2080 1972 2082 2185
8 2189 2085 1993 2095 2285 2188 2100 2197
8 2190 2086 1987 2090 2286 2189 2095 2193
8 2192 2097 1989 2089 2287 2196 2094 2191
8 2287 2196 2094 2191 2203 2104 1998 2103
8 2194 2098 1991 2091 2288 2199 2097 2192
8 2195 2096 2197 2289 2093 1988 2095 2193
8 2096 2195 2290 2198 1990 2092 2194 2098
8 2097 1996 2099 2196 2199 2102 2200 2291
8 2196 2099 1999 2104 2291 2200 2105 2204
8 2100 2197 2292 2201 1994 2096 2198 2101
8 1995 2098 2198 2101 2102 2199 2293 2202
8 2206 2107 2204 2296 2106 2001 2104 2203
8 2207 2108 2205 2297 2107 2002 2105 2204
8 2209 2110 2207 2299 2109 2004 2107 2206
8 2210 2111 2208 2300 2110 2005 2108 2207
8 2212 2113 2210 2302 2112 2007 2110 2209
8 2213 2114 2211 2303 2113 2008 2111 2210
8 2220 2117 2213 2305 2120 2011 2113 2212
8 2216 2115 2214 2306 2117 2009 2114 2213
8 2216 2115 2009 2117 2311 2217 2116 2219
8 2219 2116 2010 2119 2314 2218 2118 2222
8 2315 2219 2117 2220 2223 2119 2011 2120
8 2122 2012 2121 2225 2222 2118 2221 2317
8 2318 2222 2119 2223 2226 2122 2013 2123
8 2125 2015 2124 2228 2225 2121 2224 2320
8 2126 2016 2125 2229 2226 2122 2225 2321
8 2128 2018 2127 2231 2228 2124 2227 2323
8 2129 2019 2128 2232 2229 2125 2228 2324
8 2131 2021 2130 2234 2231 2127 2230 2326
8 2132 2022 2131 2235 2232 2128 2231 2327
8 2134 2024 2133 2236 2234 2130 2233 2328
8 2135 2025 2134 2237 2235 2131 2234 2329
8 2137 2028 2136 2238 2237 2134 2236 2330
8 2157 2050 2158 2259 2240 2139 2239 2332
8 2257 2157 2240 2334 2161 2054 2140 2242
8 2240 2139 2241 2335 2140 2033 2141 2243
8 2242 2140 2243 2337 2144 2035 2143 2247
8 2243 2141 2244 2338 2143 2034 2142 2246
8 2246 2142 2245 2341 2146 2036 2145 2249
8 2247 2143 2246 2342 2147 2037 2146 2250
8 2249 2145 2248 2343 2149 2038 2148 2251
8 2250 2146 2249 2344 2150 2039 2149 2252
8 2252 2149 2251 2345 2152 2042 2151 2253
8 2169 2271 2347 2254 2062 2170 2255 2154
8 2189 2085 2188 2285 2255 2154 2254 2347
8 2348 2255 2155 2256 2286 2189 2086 2190
8 2272 2170 2063 2171 2348 2255 2155 2256
8 2349 2258 2157 2257 2263 2164 2054 2161
8 2258 2159 2261 2351 2157 2050 2158 2259
8 2258 2159 2056 2164 2351 2261 2165 2264
8 2262 2163 2060 2167 2355 2264 2168 2269
8 2162 2055 2163 2262 2263 2164 2264 2355
8 2357 2266 2165 2264 2268 2166 2061 2168
8 2268 2166 2076 2182 2361 2267 2181 2280
8 2281 2182 2268 2362 2183 2077 2168 2269
8 2271 2169 2270 2364 2177 2075 2180 2277
8 2172 2070 2170 2272 2273 2177 2271 2365
8 2072 2173 2274 2178 2177 2273 2366 2277
8 2071 2174 2275 2176 2178 2274 2367 2276
8 2275 2176 2276 2367 2184 2083 2186 2282
8 2283 2187 2084 2186 2368 2278 2179 2276
8 2178 2074 2180 2277 2276 2179 2278 2368
8 2283 2187 2279 2370 2186 2084 2181 2280
8 2281 2182 2082 2185 2371 2280 2186 2282
8 2188 2285 2374 2284 2100 2197 2292 2201
8 2286 2189 2095 2193 2375 2285 2197 2289
8 2192 2097 2196 2287 2288 2199 2291 2376
8 2287 2196 2104 2203 2376 2291 2204 2296
8 2194 2098 2199 2288 2290 2198 2293 2377
8 2289 2197 2096 2195 2378 2292 2198 2290
8 2291 2200 2105 2204 2379 2294 2205 2297
8 2199 2102 2200 2291 2293 2202 2294 2379
8 2198 2101 2202 2293 2292 2201 2295 2380
8 2299 2207 2297 2383 2206 2107 2204 2296
8 2300 2208 2298 2384 2207 2108 2205 2297
8 2302 2210 2300 2386 2209 2110 2207 2299
8 2303 2211 2301 2387 2210 2111 2208 2300
8 2305 2213 2303 2389 2212 2113 2210 2302
8 2306 2214 2304 2390 2213 2114 2211 2303
8 2310 2216 2306 2392 2220 2117 2213 2305
8 2308 2215 2307 2393 2216 2115 2214 2306
8 2308 2215 2115 2216 2396 2309 2217 2311
8 2310 2216 2117 2220 2398 2311 2219 2315
8 2311 2217 2116 2219 2399 2312 2218 2314
8 2314 2218 2118 2222 2402 2313 2221 2317
8 2315 2219 2119 2223 2403 2314 2222 2318
8 2225 2121 2224 2320 2317 2221 2316 2405
8 2226 2122 2225 2321 2318 2222 2317 2406
8 2228 2124 2227 2323 2320 2224 2319 2408
8 2229 2125 2228 2324 2321 2225 2320 2409
8 2231 2127 2230 2326 2323 2227 2322 2411
8 2232 2128 2231 2327 2324 2228 2323 2412
8 2234 2130 2233 2328 2326 2230 2325 2413
8 2235 2131 2234 2329 2327 2231 2326 2414
8 2237 2134 2236 2330 2329 2234 2328 2415
8 2259 2158 2260 2352 2332 2239 2331 2417
8 2257 2157 2259 2350 2334 2240 2332 2419
8 2240 2139 2239 2332 2335 2241 2333 2420
8 2334 2240 2335 2422 2242 2140 2243 2337
8 2335 2241 2336 2423 2243 2141 2244 2338
8 2337 2243 2338 2425 2247 2143 2246 2342
8 2338 2244 2339 2426 2246 2142 2245 2341
8 2341 2245 2340 2428 2249 2145 2248 2343
8 2342 2246 2341 2429 2250 2146 2249 2344
8 2344 2249 2343 2430 2252 2149 2251 2345
8 2188 2285 2347 2254 2284 2374 2432 2346
8 2347 2254 2346 2432 2271 2169 2270 2364
8 2365 2271 2170 2272 2433 2347 2255 2348
8 2286 2189 2285 2375 2348 2255 2347 2433
8 2349 2258 2351 2435 2257 2157 2259 2350
8 2349 2258 2164 2263 2435 2351 2264 2355
8 2259 2158 2261 2351 2352 2260 2354 2437
8 2356 2265 2354 2437 2264 2165 2261 2351
8 2441 2357 2264 2355 2362 2268 2168 2269
8 2356 2265 2165 2264 2442 2358 2266 2357
8 2443 2359 2266 2357 2361 2267 2166 2268
8 2370 2279 2360 2446 2280 2181 2267 2361
8 2362 2268 2182 2281 2447 2361 2280 2371
8 2180 2277 2368 2278 2270 2364 2449 2363
8 2271 2365 2273 2177 2364 2450 2366 2277
8 2372 2283 2186 2282 2451 2368 2276 2367
8 2178 2274 2367 2276 2277 2366 2451 2368
8 2283 2187 2278 2368 2370 2279 2369 2452
8 2372 2283 2370 2453 2282 2186 2280 2371
8 2284 2374 2455 2373 2201 2292 2380 2295
8 2375 2285 2197 2289 2456 2374 2292 2378
8 2376 2291 2204 2296 2457 2379 2297 2383
8 2288 2199 2291 2376 2377 2293 2379 2457
8 2198 2290 2378 2292 2293 2377 2458 2380
8 2293 2202 2294 2379 2380 2295 2381 2459
8 2384 2298 2381 2459 2297 2205 2294 2379
8 2386 2300 2384 2463 2299 2207 2297 2383
8 2387 2301 2385 2464 2300 2208 2298 2384
8 2389 2303 2387 2466 2302 2210 2300 2386
8 2390 2304 2388 2467 2303 2211 2301 2387
8 2392 2306 2390 2469 2305 2213 2303 2389
8 2393 2307 2391 2470 2306 2214 2304 2390
8 2395 2308 2393 2472 2310 2216 2306 2392
8 2308 2215 2309 2396 2393 2307 2394 2473
8 2395 2308 2216 2310 2475 2396 2311 2398
8 2396 2309 2217 2311 2476 2397 2312 2399
8 2398 2311 2219 2315 2478 2399 2314 2403
8 2399 2312 2218 2314 2479 2400 2313 2402
8 2317 2221 2316 2405 2402 2313 2401 2482
8 2403 2314 2222 2318 2483 2402 2317 2406
8 2320 2224 2319 2408 2405 2316 2404 2485
8 2321 2225 2320 2409 2406 2317 2405 2486
8 2323 2227 2322 2411 2408 2319 2407 2488
8 2324 2228 2323 2412 2409 2320 2408 2489
8 2326 2230 2325 2413 2411 2322 2410 2490
8 2327 2231 2326 2414 2412 2323 2411 2491
8 2329 2234 2328 2415 2414 2326 2413 2492
8 2417 2331 2260 2352 2494 2416 2353 2438
8 2350 2259 2352 2436 2419 2332 2417 2496
8 2332 2239 2331 2417 2420 2333 2418 2497
8 2334 2240 2332 2419 2422 2335 2420 2499
8 2420 2333 2421 2500 2335 2241 2336 2423
8 2422 2335 2423 2502 2337 2243 2338 2425
8 2423 2336 2424 2503 2338 2244 2339 2426
8 2425 2338 2426 2505 2342 2246 2341 2429
8 2426 2339 2427 2506 2341 2245 2340 2428
8 2429 2341 2428 2507 2344 2249 2343 2430
8 2432 2346 2284 2374 2509 2431 2373 2455
8 2432 2346 2431 2509 2364 2270 2363 2449
8 2375 2285 2374 2456 2433 2347 2432 2510
8 2347 2433 2365 2271 2432 2510 2450 2364
8 2350 2259 2351 2435 2436 2352 2437 2514
8 2440 2356 2437 2514 2355 2264 2351 2435
8 2352 2260 2354 2437 2438 2353 2439 2516
8 2356 2265 2358 2442 2437 2354 2439 2516
8 2440 2356 2264 2355 2518 2442 2357 2441
8 2519 2443 2357 2441 2447 2361 2268 2362
8 2443 2359 2444 2520 2357 2266 2358 2442
8 2443 2359 2267 2361 2520 2444 2360 2446
8 2446 2360 2279 2370 2523 2445 2369 2452
8 2453 2370 2446 2524 2371 2280 2361 2447
8 2449 2363 2448 2525 2368 2278 2369 2452
8 2366 2277 2364 2450 2451 2368 2449 2526
8 2372 2283 2368 2451 2453 2370 2452 2527
8 2455 2373 2295 2380 2529 2454 2382 2460
8 2456 2374 2292 2378 2530 2455 2380 2458
8 2377 2293 2379 2457 2458 2380 2459 2531
8 2463 2384 2459 2531 2383 2297 2379 2457
8 2533 2461 2382 2460 2459 2381 2295 2380
8 2464 2385 2461 2533 2384 2298 2381 2459
8 2466 2387 2464 2537 2386 2300 2384 2463
8 2467 2388 2465 2538 2387 2301 2385 2464
8 2469 2390 2467 2540 2389 2303 2387 2466
8 2470 2391 2468 2541 2390 2304 2388 2467
8 2472 2393 2470 2543 2392 2306 2390 2469
8 2393 2307 2394 2473 2470 2391 2471 2544
8 2395 2308 2396 2475 2472 2393 2473 2546
8 2396 2309 2397 2476 2473 2394 2474 2547
8 2475 2396 2311 2398 2549 2476 2399 2478
8 2476 2397 2312 2399 2550 2477 2400 2479
8 2478 2399 2314 2403 2552 2479 2402 2483
8 2479 2400 2313 2402 2553 2480 2401 2482
8 2405 2316 2404 2485 2482 2401 2481 2556
8 2406 2317 2405 2486 2483 2402 2482 2557
8 2408 2319 2407 2488 2485 2404 2484 2559
8 2409 2320 2408 2489 2486 2405 2485 2560
8 2411 2322 2410 2490 2488 2407 2487 2561
8 2412 2323 2411 2491 2489 2408 2488 2562
8 2414 2326 2413 2492 2491 2411 2490 2563
8 2513 2434 2493 2565 2438 2353 2416 2494
8 2496 2417 2352 2436 2567 2494 2438 2515
8 2494 2416 2495 2568 2417 2331 2418 2497
8 2419 2332 2417 2496 2499 2420 2497 2570
8 2497 2418 2498 2571 2420 2333 2421 2500
8 2499 2420 2500 2573 2422 2335 2423 2502
8 2500 2421 2501 2574 2423 2336 2424 2503
8 2502 2423 2503 2576 2425 2338 2426 2505
8 2503 2424 2504 2577 2426 2339 2427 2506
8 2505 2426 2506 2578 2429 2341 2428 2507
8 2509 2431 2373 2455 2580 2508 2454 2529
8 2509 2431 2508 2580 2449 2363 2448 2525
8 2432 2510 2581 2509 2374 2456 2530 2455
8 2432 2510 2450 2364 2509 2581 2526 2449
8 2583 2511 2434 2513 2516 2439 2353 2438
8 2436 2352 2437 2514 2515 2438 2516 2588
8 2440 2356 2442 2518 2514 2437 2516 2588
8 2442 2358 2444 2520 2516 2439 2517 2589
8 2519 2443 2520 2591 2441 2357 2442 2518
8 2519 2443 2361 2447 2591 2520 2446 2524
8 2446 2360 2445 2523 2520 2444 2521 2592
8 2525 2448 2522 2593 2452 2369 2445 2523
8 2524 2446 2370 2453 2594 2523 2452 2527
8 2526 2449 2525 2595 2451 2368 2452 2527
8 2534 2462 2528 2597 2460 2382 2454 2529
8 2530 2455 2380 2458 2598 2529 2460 2532
8 2599 2533 2460 2532 2531 2459 2380 2458
8 2537 2464 2533 2599 2463 2384 2459 2531
8 2534 2462 2382 2460 2601 2535 2461 2533
8 2538 2465 2535 2601 2464 2385 2461 2533
8 2540 2467 2538 2604 2466 2387 2464 2537
8 2541 2468 2539 2605 2467 2388 2465 2538
8 2543 2470 2541 2607 2469 2390 2467 2540
8 2470 2391 2471 2544 2541 2468 2542 2608
8 2472 2393 2473 2546 2543 2470 2544 2610
8 2473 2394 2474 2547 2544 2471 2545 2611
8 2475 2396 2476 2549 2546 2473 2547 2613
8 2476 2397 2477 2550 2547 2474 2548 2614
8 2549 2476 2399 2478 2616 2550 2479 2552
8 2479 2400 2480 2553 2550 2477 2551 2617
8 2552 2479 2402 2483 2619 2553 2482 2557
8 2482 2401 2481 2556 2553 2480 2554 2620
8 2485 2404 2484 2559 2556 2481 2555 2623
8 2486 2405 2485 2560 2557 2482 2556 2624
8 2488 2407 2487 2561 2559 2484 2558 2625
8 2489 2408 2488 2562 2560 2485 2559 2626
8 2491 2411 2490 2563 2562 2488 2561 2627
8 2513 2434 2512 2585 2565 2493 2564 2630
8 2586 2513 2565 2632 2515 2438 2494 2567
8 2565 2493 2566 2633 2494 2416 2495 2568
8 2567 2494 2568 2635 2496 2417 2497 2570
8 2568 2495 2569 2636 2497 2418 2498 2571
8 2570 2497 2571 2638 2499 2420 2500 2573
8 2571 2498 2572 2639 2500 2421 2501 2574
8 2573 2500 2574 2641 2502 2423 2503 2576
8 2574 2501 2575 2642 2503 2424 2504 2577
8 2576 2503 2577 2643 2505 2426 2506 2578
8 2597 2528 2579 2645 2529 2454 2508 2580
8 2580 2508 2579 2645 2525 2448 2522 2593
8 2581 2509 2455 2530 2646 2580 2529 2598
8 2581 2509 2580 2646 2526 2449 2525 2595
8 2583 2511 2582 2648 2513 2434 2512 2585
8 2583 2511 2439 2516 2648 2582 2517 2589
8 2649 2583 2513 2586 2588 2516 2438 2515
8 2589 2517 2444 2520 2653 2587 2521 2592
8 2518 2442 2520 2591 2588 2516 2589 2654
8 2593 2522 2590 2655 2523 2445 2521 2592
8 2524 2446 2523 2594 2591 2520 2592 2656
8 2595 2525 2593 2657 2527 2452 2523 2594
8 2602 2536 2596 2659 2534 2462 2528 2597
8 2600 2534 2597 2660 2532 2460 2529 2598
8 2600 2534 2460 2532 2661 2601 2533 2599
8 2604 2538 2601 2661 2537 2464 2533 2599
8 2602 2536 2462 2534 2663 2603 2535 2601
8 2601 2535 2465 2538 2663 2603 2539 2605
8 2607 2541 2605 2665 2540 2467 2538 2604
8 2608 2542 2606 2666 2541 2468 2539 2605
8 2543 2470 2544 2610 2607 2541 2608 2668
8 2544 2471 2545 2611 2608 2542 2609 2669
8 2546 2473 2547 2613 2610 2544 2611 2671
8 2547 2474 2548 2614 2611 2545 2612 2672
8 2549 2476 2550 2616 2613 2547 2614 2674
8 2550 2477 2551 2617 2614 2548 2615 2675
8 2552 2479 2553 2619 2616 2550 2617 2677
8 2553 2480 2554 2620 2617 2551 2618 2678
8 2557 2482 2556 2624 2619 2553 2620 2680
8 2556 2481 2555 2623 2620 2554 2621 2681
8 2559 2484 2558 2625 2623 2555 2622 2683
8 2560 2485 2559 2626 2624 2556 2623 2684
8 2562 2488 2561 2627 2626 2559 2625 2685
8 2690 2629 2564 2630 2650 2584 2512 2585
8 2586 2513 2585 2651 2632 2565 2630 2691
8 2630 2564 2631 2692 2565 2493 2566 2633
8 2632 2565 2633 2694 2567 2494 2568 2635
8 2633 2566 2634 2695 2568 2495 2569 2636
8 2635 2568 2636 2697 2570 2497 2571 2638
8 2636 2569 2637 2698 2571 2498 2572 2639
8 2638 2571 2639 2700 2573 2500 2574 2641
8 2639 2572 2640 2701 2574 2501 2575 2642
8 2641 2574 2642 2702 2576 2503 2577 2643
8 2597 2528 2596 2659 2645 2579 2644 2704
8 2645 2579 2644 2704 2593 2522 2590 2655
8 2660 2597 2645 2705 2598 2529 2580 2646
8 2646 2580 2645 2705 2595 2525 2593 2657
8 2650 2584 2512 2585 2707 2647 2582 2648
8 2648 2582 2517 2589 2707 2647 2587 2653
8 2649 2583 2648 2708 2586 2513 2585 2651
8 2649 2583 2516 2588 2708 2648 2589 2654
8 2655 2590 2652 2710 2592 2521 2587 2653
8 2654 2589 2520 2591 2711 2653 2592 2656
8 2657 2593 2655 2712 2594 2523 2592 2656
8 2602 2536 2603 2663 2659 2596 2658 2714
8 2662 2602 2659 2715 2600 2534 2597 2660
8 2662 2602 2534 2600 2717 2663 2601 2661
8 2661 2601 2538 2604 2717 2663 2605 2665
8 2666 2606 2664 2718 2605 2539 2603 2663
8 2668 2608 2666 2720 2607 2541 2605 2665
8 2608 2542 2609 2669 2666 2606 2667 2721
8 2610 2544 2611 2671 2668 2608 2669 2723
8 2611 2545 2612 2672 2669 2609 2670 2724
8 2613 2547 2614 2674 2671 2611 2672 2726
8 2614 2548 2615 2675 2672 2612 2673 2727
8 2616 2550 2617 2677 2674 2614 2675 2729
8 2617 2551 2618 2678 2675 2615 2676 2730
8 2619 2553 2620 2680 2677 2617 2678 2732
8 2620 2554 2621 2681 2678 2618 2679 2733
8 2624 2556 2623 2684 2680 2620 2681 2735
8 2681 2621 2555 2623 2736 2682 2622 2683
8 2626 2559 2625 2685 2684 2623 2683 2737
8 2688 2628 2584 2650 2740 2686 2647 2707
8 2688 2628 2687 2742 2650 2584 2629 2690
8 2690 2629 2689 2745 2630 2564 2631 2692
8 2746 2690 2630 2691 2709 2650 2585 2651
8 2691 2630 2692 2747 2632 2565 2633 2694
8 2692 2631 2693 2748 2633 2566 2634 2695
8 2694 2633 2695 2750 2635 2568 2636 2697
8 2695 2634 2696 2751 2636 2569 2637 2698
8 2697 2636 2698 2753 2638 2571 2639 2700
8 2698 2637 2699 2754 2639 2572 2640 2701
8 2700 2639 2701 2755 2641 2574 2642 2702
8 2659 2596 2658 2714 2704 2644 2703 2757
8 2704 2644 2703 2757 2655 2590 2652 2710
8 2660 2597 2659 2715 2705 2645 2704 2758
8 2705 2645 2704 2758 2657 2593 2655 2712
8 2759 2706 2647 2707 2710 2652 2587 2653
8 2709 2650 2585 2651 2760 2707 2648 2708
8 2708 2648 2589 2654 2760 2707 2653 2711
8 2712 2655 2710 2761 2656 2592 2653 2711
8 2763 2713 2658 2714 2718 2664 2603 2663
8 2662 2602 2663 2717 2715 2659 2714 2764
8 2720 2666 2718 2767 2665 2605 2663 2717
8 2768 2719 2664 2718 2721 2667 2606 2666
8 2668 2608 2669 2723 2720 2666 2721 2770
8 2669 2609 2670 2724 2721 2667 2722 2771
8 2671 2611 2672 2726 2723 2669 2724 2773
8 2672 2612 2673 2727 2724 2670 2725 2774
8 2674 2614 2675 2729 2726 2672 2727 2776
8 2675 2615 2676 2730 2727 2673 2728 2777
8 2677 2617 2678 2732 2729 2675 2730 2779
8 2678 2618 2679 2733 2730 2676 2731 2780
8 2680 2620 2681 2735 2732 2678 2733 2782
8 2733 2679 2621 2681 2783 2734 2682 2736
8 2735 2681 2623 2684 2784 2736 2683 2737
8 2740 2686 2647 2707 2787 2738 2706 2759
8 2688 2628 2686 2740 2742 2687 2739 2789
8 2743 2688 2650 2709 2790 2740 2707 2760
8 2742 2687 2741 2792 2690 2629 2689 2745
8 2743 2688 2742 2793 2709 2650 2690 2746
8 2745 2689 2744 2795 2692 2631 2693 2748
8 2746 2690 2745 2796 2691 2630 2692 2747
8 2747 2692 2748 2797 2694 2633 2695 2750
8 2748 2693 2749 2798 2695 2634 2696 2751
8 2750 2695 2751 2800 2697 2636 2698 2753
8 2751 2696 2752 2801 2698 2637 2699 2754
8 2753 2698 2754 2802 2700 2639 2701 2755
8 2763 2713 2756 2804 2714 2658 2703 2757
8 2759 2706 2652 2710 2804 2756 2703 2757
8 2715 2659 2714 2764 2758 2704 2757 2805
8 2758 2704 2757 2805 2712 2655 2710 2761
8 2806 2759 2707 2760 2761 2710 2653 2711
8 2765 2716 2762 2808 2718 2664 2713 2763
8 2809 2763 2714 2764 2767 2718 2663 2717
8 2765 2716 2664 2718 2811 2766 2719 2768
8 2813 2768 2718 2767 2770 2721 2666 2720
8 2814 2769 2719 2768 2771 2722 2667 2721
8 2723 2669 2724 2773 2770 2721 2771 2816
8 2724 2670 2725 2774 2771 2722 2772 2817
8 2726 2672 2727 2776 2773 2724 2774 2819
8 2727 2673 2728 2777 2774 2725 2775 2820
8 2729 2675 2730 2779 2776 2727 2777 2822
8 2730 2676 2731 2780 2777 2728 2778 2823
8 2732 2678 2733 2782 2779 2730 2780 2825
8 2780 2731 2679 2733 2826 2781 2734 2783
8 2782 2733 2681 2735 2827 2783 2736 2784
8 2830 2785 2738 2787 2804 2756 2706 2759
8 2789 2739 2686 2740 2832 2786 2738 2787
8 2790 2740 2707 2760 2833 2787 2759 2806
8 2742 2687 2739 2789 2792 2741 2788 2835
8 2743 2688 2740 2790 2793 2742 2789 2836
8 2792 2741 2791 2838 2745 2689 2744 2795
8 2793 2742 2792 2839 2746 2690 2745 2796
8 2795 2744 2794 2841 2748 2693 2749 2798
8 2796 2745 2795 2842 2747 2692 2748 2797
8 2797 2748 2798 2843 2750 2695 2751 2800
8 2798 2749 2799 2844 2751 2696 2752 2801
8 2800 2751 2801 2845 2753 2698 2754 2802
8 2808 2762 2803 2847 2763 2713 2756 2804
8 2809 2763 2804 2848 2764 2714 2757 2805
8 2806 2759 2710 2761 2848 2804 2757 2805
8 2765 2716 2766 2811 2808 2762 2807 2850
8 2810 2765 2808 2851 2767 2718 2763 2809
8 2810 2765 2718 2767 2852 2811 2768 2813
8 2811 2766 2719 2768 2853 2812 2769 2814
8 2855 2814 2768 2813 2816 2771 2721 2770
8 2856 2815 2769 2814 2817 2772 2722 2771
8 2773 2724 2774 2819 2816 2771 2817 2858
8 2774 2725 2775 2820 2817 2772 2818 2859
8 2776 2727 2777 2822 2819 2774 2820 2861
8 2777 2728 2778 2823 2820 2775 2821 2862
8 2779 2730 2780 2825 2822 2777 2823 2864
8 2823 2778 2731 2780 2865 2824 2781 2826
8 2825 2780 2733 2782 2866 2826 2783 2827
8 2869 2828 2785 2830 2847 2803 2756 2804
8 2871 2829 2786 2832 2830 2785 2738 2787
8 2872 2830 2787 2833 2848 2804 2759 2806
8 2789 2739 2786 2832 2835 2788 2831 2874
8 2836 2789 2740 2790 2875 2832 2787 2833
8 2792 2741 2788 2835 2838 2791 2834 2877
8 2793 2742 2789 2836 2839 2792 2835 2878
8 2838 2791 2837 2880 2795 2744 2794 2841
8 2839 2792 2838 2881 2796 2745 2795 2842
8 2841 2794 2840 2882 2798 2749 2799 2844
8 2842 2795 2841 2883 2797 2748 2798 2843
8 2843 2798 2844 2884 2800 2751 2801 2845
8 2886 2846 2803 2847 2850 2807 2762 2808
8 2851 2808 2847 2887 2809 2763 2804 2848
8 2850 2807 2766 2811 2889 2849 2812 2853
8 2810 2765 2811 2852 2851 2808 2850 2890
8 2852 2811 2768 2813 2891 2853 2814 2855
8 2853 2812 2769 2814 2892 2854 2815 2856
8 2894 2856 2814 2855 2858 2817 2771 2816
8 2817 2772 2818 2859 2856 2815 2857 2895
8 2819 2774 2820 2861 2858 2817 2859 2897
8 2820 2775 2821 2862 2859 2818 2860 2898
8 2822 2777 2823 2864 2861 2820 2862 2900
8 2823 2778 2824 2865 2862 2821 2863 2901
8 2864 2823 2780 2825 2902 2865 2826 2866
8 2904 2867 2828 2869 2886 2846 2803 2847
8 2869 2828 2868 2906 2830 2785 2829 2871
8 2907 2869 2830 2872 2887 2847 2804 2848
8 2871 2829 2870 2909 2832 2786 2831 2874
8 2910 2871 2832 2875 2872 2830 2787 2833
8 2835 2788 2831 2874 2877 2834 2873 2912
8 2836 2789 2832 2875 2878 2835 2874 2913
8 2877 2834 2876 2915 2838 2791 2837 2880
8 2839 2792 2835 2878 2881 2838 2877 2916
8 2880 2837 2879 2917 2841 2794 2840 2882
8 2881 2838 2880 2918 2842 2795 2841 2883
8 2883 2841 2882 2919 2843 2798 2844 2884
8 2921 2885 2846 2886 2889 2849 2807 2850
8 2922 2886 2847 2887 2890 2850 2808 2851
8 2889 2849 2812 2853 2924 2888 2854 2892
8 2890 2850 2811 2852 2925 2889 2853 2891
8 2891 2853 2814 2855 2926 2892 2856 2894
8 2892 2854 2815 2856 2927 2893 2857 2895
8 2858 2817 2859 2897 2894 2856 2895 2929
8 2859 2818 2860 2898 2895 2857 2896 2930
8 2861 2820 2862 2900 2897 2859 2898 2932
8 2862 2821 2863 2901 2898 2860 2899 2933
8 2864 2823 2865 2902 2900 2862 2901 2934
8 2904 2867 2846 2886 2936 2903 2885 2921
8 2904 2867 2903 2936 2869 2828 2868 2906
8 2937 2904 2869 2907 2922 2886 2847 2887
8 2906 2868 2905 2939 2871 2829 2870 2909
8 2907 2869 2906 2940 2872 2830 2871 2910
8 2909 2870 2908 2942 2874 2831 2873 2912
8 2910 2871 2909 2943 2875 2832 2874 2913
8 2912 2873 2911 2945 2877 2834 2876 2915
8 2878 2835 2874 2913 2916 2877 2912 2946
8 2915 2876 2914 2947 2880 2837 2879 2917
8 2916 2877 2915 2948 2881 2838 2880 2918
8 2918 2880 2917 2949 2883 2841 2882 2919
8 2921 2885 2849 2889 2951 2920 2888 2924
8 2952 2921 2886 2922 2925 2889 2850 2890
8 2924 2888 2854 2892 2954 2923 2893 2927
8 2925 2889 2853 2891 2955 2924 2892 2926
8 2926 2892 2856 2894 2956 2927 2895 2929
8 2895 2857 2896 2930 2927 2893 2928 2957
8 2897 2859 2898 2932 2929 2895 2930 2959
8 2898 2860 2899 2933 2930 2896 2931 2960
8 2900 2862 2901 2934 2932 2898 2933 2961
8 2936 2903 2885 2921 2963 2935 2920 2951
8 2936 2903 2935 2963 2906 2868 2905 2939
8 2937 2904 2886 2922 2964 2936 2921 2952
8 2937 2904 2936 2964 2907 2869 2906 2940
8 2939 2905 2938 2966 2909 2870 2908 2942
8 2940 2906 2939 2967 2910 2871 2909 2943
8 2942 2908 2941 2969 2912 2873 2911 2945
8 2943 2909 2942 2970 2913 2874 2912 2946
8 2945 2911 2944 2971 2915 2876 2914 2947
8 2946 2912 2945 2972 2916 2877 2915 2948
8 2948 2915 2947 2973 2918 2880 2917 2949
8 2951 2920 2888 2924 2975 2950 2923 2954
8 2952 2921 2889 2925 2976 2951 2924 2955
8 2927 2893 2928 2957 2954 2923 2953 2978
8 2955 2924 2892 2926 2979 2954 2927 2956
8 2929 2895 2930 2959 2956 2927 2957 2980
8 2930 2896 2931 2960 2957 2928 2958 2981
8 2932 2898 2933 2961 2959 2930 2960 2982
8 2951 2920 2950 2975 2963 2935 2962 2984
8 2963 2935 2962 2984 2939 2905 2938 2966
8 2964 2936 2921 2952 2985 2963 2951 2976
8 2964 2936 2963 2985 2940 2906 2939 2967
8 2966 2938 2965 2987 2942 2908 2941 2969
8 2967 2939 2966 2988 2943 2909 2942 2970
8 2969 2941 2968 2989 2945 2911 2944 2971
8 2970 2942 2969 2990 2946 2912 2945 2972
8 2972 2945 2971 2991 2948 2915 2947 2973
8 2954 2923 2953 2978 2975 2950 2974 2993
8 2976 2951 2924 2955 2994 2975 2954 2979
8 2957 2928 2958 2981 2978 2953 2977 2995
8 2956 2927 2957 2980 2979 2954 2978 2996
8 2959 2930 2960 2982 2980 2957 2981 2997
8 2984 2962 2983 2999 2966 2938 2965 2987
8 2975 2950 2974 2993 2984 2962 2983 2999
8 2976 2951 2975 2994 2985 2963 2984 3000
8 2985 2963 2984 3000 2967 2939 2966 2988
8 2987 2965 2986 3001 2969 2941 2968 2989
8 2988 2966 2987 3002 2970 2942 2969 2990
8 2990 2969 2989 3003 2972 2945 2971 2991
8 2978 2953 2977 2995 2993 2974 2992 3004
8 2979 2954 2978 2996 2994 2975 2993 3005
8 2980 2957 2981 2997 2996 2978 2995 3006
8 2974 2993 2999 2983 2992 3004 3007 2998
8 2983 2999 2987 2965 2998 3007 3001 2986
8 3000 2984 2999 3008 2988 2966 2987 3002
8 2994 2975 2993 3005 3000 2984 2999 3008
8 3002 2987 3001 3009 2990 2969 2989 3003
8 2996 2978 2995 3006 3005 2993 3004 3010
8 3005 2993 3004 3010 3008 2999 3007 3011
8 3008 2999 3007 3011 3002 2987 3001 3009

CELL_TYPES 1910
12
12
12
12
12
12
12
12
12
12
12
12
12
12
12
12
12
12
12
12
12
12
12
12
12
12
12
12
12
12
12
12
12
12
12
12
12
12
12
12
12
12
12
12
12
12
12
12
12
12
12
12
12
12
12
12
12
12
12
12
12
12
12
12
12
12
12
12
12
12
12
12
12
12
12
12
12
12
12
12
12
12
12
12
12
12
12
12
12
12
12
12
12
12
12
12
12
12
12
12
12
12
12
12
12
12
12
12
12
12
12
12
12
12
12
12
12
12
12
12
12
12
12
12
12
12
12
12
12
12
12
12
12
12
12
12
12
12
12
12
12
12
12
12
12
12
12
12
12
12
12
12
12
12
12
12
12
12
12
12
12
12
12
12
12
12
12
12
12
12
12
12
12
12
12
12
12
12
12
12
12
12
12
12
12
12
12
12
12
12
12
12
12
12
12
12
12
12
12
12
12
12
12
12
12
12
12
12
12
12
12
12
12
12
12
12
12
12
12
12
12
12
12
12
12
12
12
12
12
12
12
12
12
12
12
12
12
12
12
12
12
12
12
12
12
12
12
12
12
12
12
12
12
12
12
12
12
12
12
12
12
12
12
12
12
12
12
12
12
12
12
12
12
12
12
12
12
12
12
12
12
12
12
12
12
12
12
12
12
12
12
12
12
12
12
12
12
12
12
12
12
12
12
12
12
12
12
12
12
12
12
12
12
12
12
12
12
12
12
12
12
12
12
12
12
12
12
12
12
12
12
12
12
12
12
12
12
12
12
12
12
12
12
12
12
12
12
12
12
12
12
12
12
12
12
12
12
12
12
12
12
12
12
12
12
12
12
12
12
12
12
12
12
12
12
12
12
12
12
12
12
12
12
12
12
12
12
12
12
12
12
12
12
12
12
12
12
12
12
12
12
12
12
12
12
12
12
12
12
12
12
12
12
12
12
12
12
12
12
12
12
12
12
12
12
12
12
12
12
12
12
12
12
12
12
12
12
12
12
12
12
12
12
12
12
12
12
12
12
12
12
12
12
12
12
12
12
12
12
12
12
12
12
12
12
12
12
12
12
12
12
12
12
12
12
12
12
12
12
12
12
12
12
12
12
12
12
12
12
12
12
12
12
12
12
12
12
12
12
12
12
12
12
12
12
12
12
12
12
12
12
12
12
12
12
12
12
12
12
12
12
12
12
12
12
12
12
12
12
12
12
12
12
12
12
12
12
12
12
12
12
12
12
12
12
12
12
12
12
12
12
12
12
12
12
12
12
12
12
12
12
12
12
12
12
12
12
12
12
12
12
12
12
12
12
12
12
12
12
12
12
12
12
12
12
12
12
12
12
12
12
12
12
12
12
12
12
12
12
12
12
12
12
12
12
12
12
12
12
12
12
12
12
12
12
12
12
12
12
12
12
12
12
12
12
12
12
12
12
12
12
12
12
12
12
12
12
12
12
12
12
12
12
12
12
12
12
12
12
12
12
12
12
12
12
12
12
12
12
12
12
12
12
12
12
12
12
12
12
12
12
12
12
12
12
12
12
12
12
12
12
12
12
12
12
12
12
12
12
12
12
12
12
12
12
12
12
12
12
12
12
12
12
12
12
12
12
12
12
12
12
12
12
12
12
12
12
12
12
12
12
12
12
12
12
12
12
12
12
12
12
12
12
12
12
12
12
12
12
12
12
12
12
12
12
12
12
12
12
12
12
12
12
12
12
12
12
12
12
12
12
12
12
12
12
12
12
12
12
12
12
12
12
12
12
12
12
12
12
12
12
12
12
12
12
12
12
12
12
12
12
12
12
12
12
12
12
12
12
12
12
12
12
12
12
12
12
12
12
12
12
12
12
12
12
12
12
12
12
12
12
12
12
12
12
12
12
12
12
12
12
12
12
12
12
12
12
12
12
12
12
12
12
12
12
12
12
12
12
12
12
12
12
12
12
12
12
12
12
12
12
12
12
12
12
12
12
12
12
12
12
12
12
12
12
12
12
12
12
12
12
12
12
12
12
12
12
12
12
12
12
12
12
12
12
12
12
12
12
12
12
12
12
12
12
12
12
12
12
12
12
12
12
12
12
12
12
12
12
12
12
12
12
12
12
12
12
12
12
12
12
12
12
12
12
12
12
12
12
12
12
12
12
12
12
12
12
12
12
12
12
12
12
12
12
12
12
12
12
12
12
12
12
12
12
12
12
12
12
12
12
12
12
12
12
12
12
12
12
12
12
12
12
12
12
12
12
12
12
12
12
12
12
12
12
12
12
12
12
12
12
12
12
12
12
12
12
12
12
12
12
12
12
12
12
12
12
12
12
12
12
12
12
12
12
12
12
12
12
12
12
12
12
12
12
12
12
12
12
12
12
12
12
12
12
12
12
12
12
12
12
12
12
12
12
12
12
12
12
12
12
12
12
12
12
12
12
12
12
12
12
12
12
12
12
12
12
12
12
12
12
12
12
12
12
12
12
12
12
12
12
12
12
12
12
12
12
12
12
12
12
12
12
12
12
12
12
12
12
12
12
12
12
12
12
12
12
12
12
12
12
12
12
12
12
12
12
12
12
12
12
12
12
12
12
12
12
12
12
12
12
12
12
12
12
12
12
12
12
12
12
12
12
12
12
12
12
12
12
12
12
12
12
12
12
12
12
12
12
12
12
12
12
12
12
12
12
12
12
12
12
12
12
12
12
12
12
12
12
12
12
12
12
12
12
12
12
12
12
12
12
12
12
12
12
12
12
12
12
12
12
12
12
12
12
12
12
12
12
12
12
12
12
12
12
12
12
12
12
12
12
12
12
12
12
12
12
12
12
12
12
12
12
12
12
12
12
12
12
12
12
12
12
12
12
12
12
12
12
12
12
12
12
12
12
12
12
12
12
12
12
12
12
12
12
12
12
12
12
12
12
12
12
12
12
12
12
12
12
12
12
12
12
12
12
12
12
12
12
12
12
12
12
12
12
12
12
12
12
12
12
12
12
12
12
12
12
12
12
12
12
12
12
12
12
12
12
12
12
12
12
12
12
12
12
12
12
12
12
12
12
12
12
12
12
12
12
12
12
12
12
12
12
12
12
12
12
12
12
12
12
12
12
12
12
12
12
12
12
12
12
12
12
12
12
12
12
12
12
12
12
12
12
12
12
12
12
12
12
12
12
12
12
12
12
12
12
12
12
12
12
12
12
12
12
12
12
12
12
12
12
12
12
12
12
12
12
12
12
12
12
12
12
12
12
12
12
12
12
12
12
12
12
12
12
12
12
12
12
12
12
12
12
12
12
12
12
12
12
12
12
12
12
12
12
12
12
12
12
12
12
12
12
12
12
12
12
12
12
12
12
12
12
12
12
12
12
12
12
12
12
12
12
12
12
12
12
12
12
12
12
12
12
12
12
12
12
12
12
12
12
12
12
12
12
12
12
12
12
12
12
12
12
12
12
12
12
12
12
12
12
12
12
12
12
12
12
12
12
12
12
12
12
12
12
12
12
12
12
12
12
12
12
12
12
12
12
12
12
12
12
12
12
12
12
12
12
12
12
12
12
12
12
12
12
12
12
12
12
12
12
12
12
12
12
12
12
12
12
12
12
12
12
12
12
12
12
12
12
12
12
12
12
12
12
12
12
12
12
12
12
12
12
12
12
12
12
12
12
12
12
12
12
12
12
12
12
12
12
12
12
12
12
12
12
12
12
12
12
12
12
12
12
12
12
12
12
12
12
12
12
12
12
12
12
12
12
12
12
12
12
12
12
12
12
12
12
12
12
12
12
12
12
12
12
12
12
12
12
12
12
12
12
12
12
12
12
12
12
12
12
12
12
12
12
12
12
12
12
12
12
12
12
12
12
12
12
12
12
12
12
12
12
12
12
12
12
12
12
12
12
12
12
12
12
12
12
12
12
12
12
12
12
12
12
12
12
12
12
12
12
12
12
12
12
12
12
12
12
12
12
12
12
12
12
12
12
12
12
12
12
12
12
12
12
12
12
12
12
12
12
12
12
12
12
12
12
12
12
12
12
12
12
12
12
12
12
12
12
12
12
12
12
12
12
12
12
12
12
12
12
12
12
12
12
12
12
12
12
12
12
12
12
12
12
12
12
12
12
12
12
12
12
12
12
12
12
12
12
12
12
12
12
12
12
12
12
12
12
12
12
12
12
12
12
12
12
12
12
12
12
12
12
12
12
12
12
12
12
12
12
12
12
12
12
12
12
12
12
12
12
12
12
12
12
12
12
12
12
12
12
12
12
12
12
12
12
12
12
12
12
12
12
12
12
12
12
12
12
12
12
12
12
12
12
12
12
12
12
12
12
12
12
12
12
12
12
12
12
12

POINT_DATA 3012
SCALARS Jp_lamdaP float 4
LOOKUP_TABLE default
0.999975 1 1 0.999975
1 1 1 1
0.999977 1 1 0.999977
0.999949 1 1 0.999949
0.999968 1 1 0.999968
0.999983 1 1 0.999983
0.999733 1 1 0.999733
1 1 1 1
1 1 1 1
1 1 1 1
1 1 1 1
0.999877 1 1 0.999877
0.999915 1 1 0.999915
0.999945 1 1 0.999945
0.999978 1 1 0.999978
0.999954 1 1 0.999954
0.999985 1 1 0.999985
0.999972 1 1 0.999972
0.999736 1 1 0.999736
1 1 1 1
0.999941 1 1 0.999941
0.999959 1 1 0.999959
0.999619 1 1 0.999619
0.999695 1 1 0.999695
0.999995 1 1 0.999995
0.999781 1 1 0.999781
0.999333 1 1 0.999333
1 1 1 1
0.999979 1 1 0.999979
0.999991 1 1 0.999991
1 1 1 1
0.999884 1 1 0.999884
0.999955 1 1 0.999955
0.999976 1 1 0.999976
0.999767 1 1 0.999767
1 1 1 1
0.999849 1 1 0.999849
0.999918 1 1 0.999918
0.999421 1 1 0.999421
1 1 1 1
1 1 1 1
0.999971 1 1 0.999971
1 1 1 1
0.999935 1 1 0.999935
0.999577 1 1 0.999577
1 1 1 1
0.999701 1 1 0.999701
0.999959 1 1 0.999959
0.999974 1 1 0.999974
0.999987 1 1 0.999987
0.99974 1 1 0.99974
0.999958 1 1 0.999958
0.999946 1 1 0.999946
0.999996 1 1 0.999996
0.999964 1 1 0.999964
0.999621 1 1 0.999621
0.999784 1 1 0.999784
0.999698 1 1 0.999698
0.999319 1 1 0.999319
1 1 1 1
0.999928 1 1 0.999928
0.999648 1 1 0.999648
0.999598 1 1 0.999598
0.999655 1 1 0.999655
0.999063 1 1 0.999063
0.999198 1 1 0.999198
1 1 1 1
0.999853 1 1 0.999853
0.999438 1 1 0.999438
0.998895 1 1 0.998895
1 1 1 1
1 1 1 1
1 1 1 1
0.999891 1 1 0.999891
1 1 1 1
1 1 1 1
0.999753 1 1 0.999753
1 1 1 1
0.999848 1 1 0.999848
0.99993 1 1 0.99993
0.999419 1 1 0.999419
1 1 1 1
1 1 1 1
0.999708 1 1 0.999708
0.99979 1 1 0.99979
0.999103 1 1 0.999103
0.999963 1 1 0.999963
0.999355 1 1 0.999355
0.999486 1 1 0.999486
0.999122 1 1 0.999122
1 1 1 1
1 1 1 1
1 1 1 1
1 1 1 1
1 1 1 1
0.999964 1 1 0.999964
0.999612 1 1 0.999612
0.999974 1 1 0.999974
0.99969 1 1 0.99969
1 1 1 1
0.999545 1 1 0.999545
0.99967 1 1 0.99967
0.998796 1 1 0.998796
0.999722 1 1 0.999722
0.998902 1 1 0.998902
0.999925 1 1 0.999925
0.999951 1 1 0.999951
0.999998 1 1 0.999998
0.999967 1 1 0.999967
0.999623 1 1 0.999623
0.999702 1 1 0.999702
0.999787 1 1 0.999787
0.999305 1 1 0.999305
1 1 1 1
0.999935 1 1 0.999935
0.999569 1 1 0.999569
0.999599 1 1 0.999599
1 1 1 1
0.999881 1 1 0.999881
0.999658 1 1 0.999658
0.999038 1 1 0.999038
0.999421 1 1 0.999421
0.999215 1 1 0.999215
0.998897 1 1 0.998897
0.999563 1 1 0.999563
0.999577 1 1 0.999577
0.998883 1 1 0.998883
0.998981 1 1 0.998981
0.999093 1 1 0.999093
0.998655 1 1 0.998655
1 1 1 1
0.998816 1 1 0.998816
0.999956 1 1 0.999956
0.999485 1 1 0.999485
0.998981 1 1 0.998981
0.998715 1 1 0.998715
0.999993 1 1 0.999993
0.999696 1 1 0.999696
1 1 1 1
1 1 1 1
0.99976 1 1 0.99976
1 1 1 1
0.999943 1 1 0.999943
0.999852 1 1 0.999852
0.999418 1 1 0.999418
1 1 1 1
1 1 1 1
0.999728 1 1 0.999728
0.999808 1 1 0.999808
0.999106 1 1 0.999106
0.999973 1 1 0.999973
0.999357 1 1 0.999357
0.999485 1 1 0.999485
0.999111 1 1 0.999111
0.999991 1 1 0.999991
1 1 1 1
0.999756 1 1 0.999756
0.999002 1 1 0.999002
0.999239 1 1 0.999239
0.998742 1 1 0.998742
0.999571 1 1 0.999571
0.999041 1 1 0.999041
0.999168 1 1 0.999168
0.998998 1 1 0.998998
1 1 1 1
1 1 1 1
1 1 1 1
0.999999 1 1 0.999999
1 1 1 1
1 1 1 1
1 1 1 1
0.999677 1 1 0.999677
0.999595 1 1 0.999595
1 1 1 1
1 1 1 1
0.999548 1 1 0.999548
0.99966 1 1 0.99966
0.998796 1 1 0.998796
0.999696 1 1 0.999696
0.998902 1 1 0.998902
0.999534 1 1 0.999534
0.998736 1 1 0.998736
0.998859 1 1 0.998859
0.999055 1.0006 1 0.998458
0.998941 1 1 0.998941
0.998571 1 1 0.998569
1 1 1 1
0.999942 1 1 0.999942
0.999485 1 1 0.999485
0.9996 1 1 0.9996
1 1 1 1
0.999909 1 1 0.999909
0.999661 1 1 0.999661
0.999013 1 1 0.999013
0.999232 1 1 0.999232
0.999404 1 1 0.999404
0.998899 1 1 0.998899
0.99956 1 1 0.99956
0.999577 1 1 0.999577
0.998831 1 1 0.998831
0.999001 1 1 0.999001
1 1 1 1
0.999946 1 1 0.999946
0.999507 1 1 0.999507
0.999094 1 1 0.999094
0.998624 1 1 0.998624
0.998977 1 1 0.998977
0.998832 1 1 0.998832
0.998717 1 1 0.998717
0.999989 1 1 0.999989
0.999696 1 1 0.999696
0.998749 1 1 0.998749
0.998942 1 1 0.998942
0.99865 1.00012 1 0.998527
0.998549 1 1 0.998549
0.998744 1 1 0.998744
0.998887 1.00038 1 0.998511
0.999978 1 1 0.999978
0.998692 1.00004 1 0.998649
0.999543 1 1 0.999543
0.99911 1 1 0.99911
0.998799 1 1 0.998799
0.99882 1.00016 1 0.99866
0.999617 1 1 0.999617
0.999789 1 1 0.999789
0.999352 1 1 0.999352
0.999721 1 1 0.999721
1 1 1 1
1 1 1 1
0.99981 1 1 0.99981
0.999108 1 1 0.999108
0.999982 1 1 0.999982
0.999485 1 1 0.999485
0.999358 1 1 0.999358
0.9991 1 1 0.9991
0.999994 1 1 0.999994
1 1 1 1
0.999757 1 1 0.999757
0.999003 1 1 0.999003
0.999243 1 1 0.999243
0.998742 1 1 0.998742
0.999572 1 1 0.999572
0.999051 1 1 0.999051
0.999166 1 1 0.999166
0.998987 1 1 0.998987
1 1 1 1
0.999657 1 1 0.999657
0.999853 1 1 0.999853
0.999426 1 1 0.999426
0.998657 1.00001 1 0.998647
0.998904 1 1 0.998904
0.999818 1.00125 1 0.998565
0.999261 1 1 0.999261
0.998915 1 1 0.998915
0.999447 1 1.00048 0.998964
0.998894 1 1 0.998894
0.999967 1 1 0.999967
1 1 1 1
1 1 1 1
1 1 1 1
1 1 1 1
1 1 1 1
1 1 1 1
0.999998 1 1 0.999998
1 1 1 1
0.999698 1 1 0.999698
0.999643 1 1 0.999643
0.998902 1 1 0.998902
0.998797 1 1 0.998797
0.99955 1 1 0.99955
1 1 1 1
0.999534 1 1 0.999534
0.998736 1 1 0.998736
0.998859 1 1 0.998859
0.998918 1.00046 1 0.998457
0.998942 1 1 0.998942
0.998591 1.00002 1 0.998569
0.998722 1 1 0.998722
0.999346 1.00095 1 0.998397
0.998678 1.00016 1 0.99852
1.0027 1.00433 1 0.998375
0.998618 1.00001 1 0.998604
1.00042 1.00196 1 0.998464
0.999557 1 1 0.999557
0.999578 1 1 0.999578
0.998779 1 1 0.998779
0.99902 1 1 0.99902
1 1 1 1
0.999937 1 1 0.999937
0.999529 1 1 0.999529
0.999095 1 1 0.999095
0.998594 1 1 0.998594
0.998847 1 1 0.998847
0.998973 1 1 0.998973
0.99872 1 1 0.99872
0.999985 1 1 0.999985
0.999695 1 1 0.999695
0.998732 1 1 0.998732
0.998942 1 1 0.998942
0.998746 1.00023 1 0.998514
0.998581 1 1 0.998581
0.999973 1 1 0.999973
0.999542 1 1 0.999542
0.999135 1 1 0.999135
0.998744 1 1 0.998744
0.999093 1.00059 1 0.998504
0.998773 1 1 0.998773
0.998744 1.00009 1 0.99865
0.999069 1.00041 1 0.998661
0.999618 1 1 0.999618
0.99935 1 1 0.99935
0.999788 1 1 0.999788
0.998958 1.00049 1 0.998465
0.998686 1.00013 1 0.998552
1.00213 1.00376 1 0.998371
0.999627 1.00119 1 0.99844
0.99885 1.00027 1 0.998578
1.00165 1.00315 1 0.998512
0.999577 1 1 0.999577
0.999787 1.00117 1 0.998617
0.999264 1 1 0.999264
0.998889 1 1 0.998889
0.998691 1.00004 1 0.998651
1.00068 1.00197 1 0.998713
0.99986 1 1 0.99986
0.999336 1 1 0.999336
0.999397 1 1 0.999397
0.999226 1 1 0.999226
0.999004 1 1 0.999004
1 1 1 1
0.999997 1 1 0.999997
0.999758 1 1 0.999758
0.999247 1 1 0.999247
0.998741 1 1 0.998741
0.999572 1 1 0.999572
0.999164 1 1 0.999164
0.99906 1 1 0.99906
0.998976 1 1 0.998976
1 1 1 1
0.999657 1 1 0.999657
0.999856 1 1 0.999856
0.999424 1 1 0.999424
0.998656 1.00001 1 0.998645
0.998907 1 1 0.998907
0.999475 1.00091 1 0.998565
0.999263 1 1 0.999263
0.998927 1 1 0.998927
0.999342 1 1.00039 0.998956
0.998939 1 1 0.998939
1 1 1 1
0.999912 1 1 0.999912
0.999349 1 1 0.999349
0.999518 1 1 0.999518
0.999239 1 1 0.999239
1.00025 1.00175 1 0.998497
0.998992 1.00025 1 0.998739
1.0007 1.0022 1 0.99851
0.999635 1 1.0006 0.999034
0.998848 1 1 0.998848
0.999282 1 1.00052 0.998762
0.999956 1 1 0.999956
0.999735 1 1 0.999735
0.999975 1 1 0.999975
0.99997 1 1 0.99997
1 1 1 1
1 1 1 1
1 1 1 1
1 1 1 1
1 1 1 1
1 1 1 1
1 1 1 1
1 1 1 1
1 1 1 1
0.999996 1 1 0.999996
1 1 1 1
0.998942 1 1 0.998942
0.998859 1 1 0.998859
0.998608 1.00004 1 0.998569
0.998774 1.00032 1 0.998456
0.998736 1 1 0.998736
0.999533 1 1 0.999533
0.998721 1 1 0.998721
0.999268 1.00087 1 0.998398
0.998615 1.00009 1 0.99852
1.00268 1.00431 1 0.998372
0.998632 1.00003 1 0.998603
1.00013 1.00167 1 0.998464
0.999292 1.00091 1 0.998381
1.00482 1.00651 1 0.998322
1.00158 1.00316 1 0.998418
1.00782 1.00945 1 0.998384
0.99994 1.00146 1 0.998486
1.00421 1.0057 1 0.998515
0.998715 1 1 0.998715
0.998941 1 1 0.998941
0.998838 1.00034 1 0.998502
0.998613 1 1 0.998613
0.999967 1 1 0.999967
0.999542 1 1 0.999542
0.999159 1 1 0.999159
0.998745 1 1 0.998745
0.999304 1.00081 1 0.998498
0.998793 1.00014 1 0.998651
0.998748 1 1 0.998748
0.999348 1.00069 1 0.998661
0.99962 1 1 0.99962
0.999348 1 1 0.999348
0.999786 1 1 0.999786
0.999067 1.00063 1 0.998438
0.998676 1.00012 1 0.998551
1.0023 1.00394 1 0.998362
1.00011 1.00167 1 0.998445
0.999578 1 1 0.999578
0.999261 1 1 0.999261
0.998919 1 1 0.998919
0.998909 1.00032 1 0.998588
1.00156 1.00305 1 0.998521
0.998659 1.00003 1 0.998632
1.00009 1.00148 1 0.998617
1.00052 1.0018 1 0.998723
0.999338 1 1 0.999338
0.999211 1 1 0.999211
0.999857 1 1 0.999857
0.99941 1 1 0.99941
1.00329 1.00499 1 0.998313
1.00141 1.00301 1 0.998405
1.00811 1.00979 1 0.99833
1.00327 1.00483 1 0.998443
1.00118 1.00261 1 0.998573
1.00521 1.00667 1 0.998557
0.999322 1 1 0.999322
1.00228 1.00357 1 0.998714
0.999076 1 1 0.999076
0.998887 1 1.00018 0.998712
0.999079 1.00051 1 0.998569
1.00235 1.00362 1 0.998726
0.999897 1 1 0.999897
0.999483 1 1 0.999483
0.999218 1 1 0.999218
0.999244 1 1 0.999244
0.999165 1 1 0.999165
1 1 1 1
0.998651 1.00001 1 0.998643
0.99986 1 1 0.99986
0.999657 1 1 0.999657
0.999422 1 1 0.999422
0.998909 1 1 0.998909
0.999151 1.00059 1 0.998565
0.999265 1 1 0.999265
0.999276 1 1.00033 0.998949
0.998939 1 1 0.998939
0.998983 1 1 0.998983
1 1 1 1
0.999916 1 1 0.999916
0.999349 1 1 0.999349
0.999518 1 1 0.999518
0.999227 1 1 0.999227
1.00019 1.0017 1 0.998494
0.998927 1.00019 1 0.99874
1.00077 1.00227 1 0.998505
0.999465 1 1.00043 0.999037
0.998858 1 1 0.998858
0.999497 1 1.00072 0.998779
0.99994 1 1 0.99994
0.999605 1 1 0.999605
0.999185 1 1.00004 0.999141
0.999311 1 1 0.999311
0.999124 1 1 0.999124
1.00244 1.00398 1 0.998471
0.999597 1.00093 1 0.998673
1.00156 1.00296 1 0.998605
1.00152 1 1.00268 0.998844
0.998666 1 1 0.998666
0.99996 1 1 0.99996
0.999679 1 1 0.999679
0.99972 1 1 0.99972
0.999572 1 1 0.999572
0.999743 1 1 0.999743
0.999979 1 1 0.999979
0.999977 1 1 0.999977
1 1 1 1
0.999972 1 1 0.999972
1 1 1 1
1 1 1 1
1 1 1 1
1 1 1 1
1 1 1 1
1 1 1 1
1 1 1 1
1 1 1 1
1 1 1 1
1 1 1 1
1 1 1 1
0.998652 1.00005 1 0.998601
0.998551 1.00003 1 0.99852
0.999845 1.00138 1 0.998464
1.00265 1.00429 1 0.998368
0.999199 1.0008 1 0.998398
0.998721 1 1 0.998721
0.99933 1.00095 1 0.998382
1.00492 1.00662 1 0.998314
1.00121 1.00279 1 0.998419
1.00787 1.0095 1 0.998388
1.00012 1.00164 1 0.998484
1.00408 1.00557 1 0.998517
1.00454 1.00626 1 0.99829
1.01061 1.0123 1 0.998326
1.00574 1.00731 1 0.998448
1.00908 1.01069 1 0.998409
1.004 1.0055 1 0.998506
1.00726 1.0087 1 0.998572
0.999176 1.00077 1 0.998411
0.998663 1.00011 1 0.998551
1.00248 1.00413 1 0.998353
1.0006 1.00215 1 0.998451
0.999579 1 1 0.999579
0.999257 1 1 0.999257
0.998949 1 1 0.998948
0.99897 1.00037 1 0.998599
1.00146 1.00294 1 0.99853
1.00037 1.00175 1 0.998618
0.998629 1.00002 1 0.998614
1.00036 1.00163 1 0.998732
0.999341 1 1 0.999341
0.999196 1 1 0.999196
0.999854 1 1 0.999854
0.999422 1 1 0.999422
1.00349 1.00519 1 0.998314
1.00164 1.00325 1 0.998404
1.00767 1.00935 1 0.998334
1.00288 1.00445 1 0.998443
0.999322 1 1 0.999322
0.9991 1 1 0.9991
0.999005 1 1.0003 0.998708
1.00114 1.00258 1 0.998566
1.0051 1.00652 1 0.998588
0.999172 1.00061 1 0.998559
1.00237 1.00366 1 0.998716
1.0022 1.00345 1 0.998756
0.999218 1 1 0.999218
0.999161 1 1 0.999161
0.999241 1 1 0.999241
0.999873 1 1 0.999873
0.999494 1 1 0.999494
1.0101 1.01182 1 0.9983
1.00747 1.00914 1 0.998344
1.00643 1.00794 1 0.998501
1.00499 1.00635 1 0.998642
0.999204 1 1 0.999204
1.00451 1.00572 1 0.998792
0.99917 1 1.00023 0.998944
0.999162 1.00015 1.00051 0.998502
1.0007 1.0022 1 0.998502
0.999881 1 1 0.999881
0.999596 1 1 0.999596
0.99933 1 1 0.99933
0.999182 1 1 0.999182
0.999122 1 1 0.999122
0.999121 1 1 0.999121
1 1 1 1
0.999921 1 1 0.999921
1.00012 1.00163 1 0.998491
0.999518 1 1 0.999518
0.999349 1 1 0.999349
0.999214 1 1 0.999214
0.998862 1.00012 1 0.998742
1.00072 1.00223 1 0.9985
0.99942 1 1.00038 0.99904
0.999405 1 1.00061 0.998795
0.998868 1 1 0.998868
0.999944 1 1 0.999944
0.999606 1 1 0.999606
0.999254 1 1.0001 0.99915
0.99931 1 1 0.99931
0.999111 1 1 0.999111
1.00249 1.00403 1 0.998468
0.999332 1.00066 1 0.998668
1.00153 1.00292 1 0.998622
1.00094 1 1.00211 0.998832
0.998692 1 1.00006 0.998636
0.999667 1 1 0.999667
0.999366 1 1 0.999366
1.00022 1 1.00122 0.998999
0.999127 1 1 0.999127
0.999025 1 1 0.999025
1.00601 1.00733 1 0.998689
0.999511 1.00093 1 0.998577
1.00252 1.00389 1 0.998636
1.00246 1 1.00375 0.998722
0.99844 1 1 0.99844
0.999963 1 1 0.999963
0.999692 1 1 0.999692
0.999489 1 1 0.999489
0.999704 1 1 0.999704
0.999743 1 1 0.999743
0.999549 1 1 0.999549
0.99943 1 1 0.99943
0.999542 1 1 0.999542
0.99975 1 1 0.99975
0.999978 1 1 0.999978
0.999979 1 1 0.999979
1 1 1 1
0.999978 1 1 0.999978
1 1 1 1
1 1 1 1
1 1 1 1
1 1 1 1
1 1 1 1
1 1 1 1
1 1 1 1
1 1 1 1
1 1 1 1
1 1 1 1
1 1 1 1
1.00031 1.00183 1 0.998481
1.00084 1.00242 1 0.998419
1.00395 1.00544 1 0.998519
1.00793 1.00956 1 0.998392
1.00502 1.00672 1 0.998307
0.999368 1.00099 1 0.998382
1.00459 1.00631 1 0.998286
1.01053 1.01223 1 0.998325
1.00615 1.00773 1 0.998436
1.00939 1.011 1 0.998407
1.00344 1.00494 1 0.998507
1.00718 1.0086 1 0.998592
1.01055 1.01228 1 0.998295
1.01102 1.01266 1 0.998378
1.00964 1.01117 1 0.998491
1.0073 1.00865 1 0.998659
1.00368 1.00538 1 0.998315
1.00187 1.00347 1 0.998403
1.00723 1.0089 1 0.998338
1.0025 1.00407 1 0.998442
0.999321 1 1 0.999321
0.999125 1 1 0.999125
0.999222 1 1.00052 0.998705
1.00111 1.00256 1 0.998559
1.00502 1.00641 1 0.998619
1.0025 1.00378 1 0.998717
0.999225 1.00068 1 0.99855
1.00201 1.00323 1 0.998785
0.999219 1 1 0.999219
0.999157 1 1 0.999157
0.999238 1 1 0.999238
0.999849 1 1 0.999849
0.999504 1 1 0.999504
1.0097 1.01141 1 0.998303
1.00736 1.00903 1 0.998351
1.00629 1.00779 1 0.998506
0.999201 1 1 0.999201
0.999207 1 1.00024 0.998972
0.999379 1.00012 1.00076 0.998496
1.00513 1.0065 1 0.998633
1.00081 1.00227 1 0.998542
1.00376 1.00498 1 0.998791
0.999884 1 1 0.999884
0.99918 1 1 0.99918
0.999135 1 1 0.999135
0.999118 1 1 0.999118
0.999338 1 1 0.999338
0.999577 1 1 0.999577
1.01081 1.01251 1 0.99832
1.00822 1.00984 1 0.998398
1.00732 1.00876 1 0.998569
1.00699 1.00826 1 0.998744
0.99913 1 1 0.99913
1.002 1.00339 1 0.998616
1.00029 1 1.00162 0.998677
1.00014 1.00074 1.00104 0.998363
0.999911 1 1 0.999911
0.999653 1 1 0.999653
0.999405 1 1 0.999405
0.999154 1 1 0.999154
0.999118 1 1 0.999118
0.99906 1 1 0.99906
0.999948 1 1 0.999948
0.999607 1 1 0.999607
1.00261 1.00415 1 0.998466
0.999309 1 1 0.999309
0.999159 1 1 0.999159
0.999097 1 1 0.999097
0.99911 1.00045 1 0.998663
1.0016 1.00297 1 0.998639
1.00038 1 1.00156 0.998821
0.998873 1 1.00027 0.998606
0.999668 1 1 0.999668
0.999374 1 1 0.999374
1.00009 1 1.00108 0.999016
0.999133 1 1 0.999133
0.999038 1 1 0.999038
1.00599 1.0073 1 0.998697
0.99949 1.00091 1 0.998577
1.00261 1.0039 1 0.998712
1.00269 1 1.00399 0.998708
0.998431 1 1.00003 0.998402
0.999446 1 1 0.999446
0.999174 1 1 0.999174
1.00212 1 1.00323 0.998892
0.998959 1 1 0.998959
1.01241 1.01368 1 0.99875
1.00788 1.00923 0.999872 0.998787
1.00096 1.00255 1 0.998406
1.00247 1 1.00405 0.998427
0.999705 1 1 0.999705
0.9995 1 1 0.9995
0.999372 1 1 0.999372
0.999743 1 1 0.999743
0.999526 1 1 0.999526
0.99975 1 1 0.99975
0.999413 1 1 0.999413
0.99955 1 1 0.99955
0.999314 1 1 0.999314
0.999412 1 1 0.999412
0.999548 1 1 0.999548
0.999749 1 1 0.999749
0.999975 1 1 0.999975
0.999977 1 1 0.999977
1 1 1 1
0.999979 1 1 0.999979
1 1 1 1
1 1 1 1
1 1 1 1
1 1 1 1
1 1 1 1
1 1 1 1
1 1 1 1
1 1 1 1
1 1 1 1
1 1 1 1
1 1 1 1
1.00287 1.00437 1 0.998508
1.00657 1.00816 1 0.998424
1.0071 1.0085 1 0.998612
1.00968 1.01129 1 0.998406
1.01045 1.01214 1 0.998324
1.00465 1.00638 1 0.998281
1.01037 1.01209 1 0.9983
1.0106 1.01224 1 0.998376
1.00937 1.01089 1 0.998496
1.00818 1.00954 1 0.998654
1.01199 1.01366 1 0.998345
1.01171 1.01325 1 0.998479
1.01144 1.01286 1 0.998603
1.0093 1.01101 1 0.998307
1.00727 1.00892 1 0.998358
1.0061 1.0076 1 0.998512
0.999199 1 1 0.999199
0.999133 1 1.00013 0.998999
0.999444 1.00011 1.00085 0.99849
1.00522 1.00661 1 0.998624
1.00313 1.00435 1 0.99879
1.00101 1.00243 1 0.998581
0.999178 1 1 0.999178
0.999148 1 1 0.999148
0.999113 1 1 0.999113
0.999886 1 1 0.999886
0.999345 1 1 0.999345
0.999559 1 1 0.999559
1.01143 1.01313 1 0.998322
1.00807 1.00969 1 0.998399
1.00724 1.00869 1 0.998556
0.999124 1 1 0.999124
1.00007 1 1.00135 0.998727
1.00005 1.00078 1.0009 0.998371
1.00737 1.00862 1 0.998761
1.00229 1.00369 1 0.998609
0.999931 1 1 0.999931
0.999653 1 1 0.999653
0.999121 1 1 0.999121
0.999082 1 1 0.999082
0.999156 1 1 0.999156
0.999391 1 1 0.999391
1.01174 1.01336 1 0.998404
1.00873 1.01045 0.999813 0.998481
1.00961 1.0112 0.999706 0.998726
1.00664 1.00784 1 0.998805
0.999855 1 1.00086 0.998996
1.00085 1.00112 1.0014 0.998327
1.00116 1 1.00264 0.998526
0.999972 1 1 0.999972
0.999765 1 1 0.999765
0.999658 1 1 0.999658
0.99943 1 1 0.99943
0.999225 1 1 0.999225
0.999029 1 1 0.999029
0.999142 1 1 0.999142
1.00183 1 1.00272 0.999121
0.999668 1 1 0.999668
0.999383 1 1 0.999383
1.00586 1.00717 1 0.998704
0.999139 1 1 0.999139
1.00018 1 1.00115 0.999032
0.999051 1 1 0.999051
0.999425 1.00085 1 0.998575
1.0026 1.00381 1 0.998788
1.00294 1 1.00425 0.998694
0.998365 1 1 0.998365
0.999438 1 1 0.999438
0.999183 1 1 0.999183
1.00248 1 1.00358 0.998906
0.998974 1 1 0.998974
1.01196 1.01323 1 0.998745
1.00722 1.00851 0.999949 0.998778
1.00135 1.00291 1 0.99844
1.00198 1 1.00359 0.998403
0.999309 1 1 0.999309
1.0129 1.01528 0.998963 0.998695
0.999149 1 1.00012 0.999033
1.0012 1 1.00245 0.99875
1.01401 1.01548 0.999722 0.998833
1.00565 1.00721 1 0.998451
1.00266 1.00115 1.00323 0.998276
0.99951 1 1 0.99951
0.999372 1 1 0.999372
0.999261 1 1 0.999261
0.99975 1 1 0.99975
0.999559 1 1 0.999559
0.999395 1 1 0.999395
0.999749 1 1 0.999749
0.999548 1 1 0.999548
0.999299 1 1 0.999299
0.99943 1 1 0.99943
0.999225 1 1 0.999225
0.999298 1 1 0.999298
0.999442 1 1 0.999442
0.999561 1 1 0.999561
0.999741 1 1 0.999741
0.999972 1 1 0.999972
0.999974 1 1 0.999974
1 1 1 1
0.999977 1 1 0.999977
1 1 1 1
1 1 1 1
1 1 1 1
1 1 1 1
1 1 1 1
0.999984 1 1 0.999984
1 1 1 1
1 1 1 1
1 1 1 1
1 1 1 1
1 1 1 1
1 1 1 1
1.00908 1.01044 1 0.998649
1.0091 1.01061 1 0.998501
1.01019 1.01184 1 0.998374
1.01018 1.0119 1 0.998305
1.01176 1.01343 1 0.998353
1.01212 1.01367 1 0.998468
1.01192 1.01332 1 0.998616
1.01246 1.01403 1 0.998449
1.01447 1.01594 0.999986 0.99857
1.00859 1.01283 0.997076 0.998736
1.01202 1.01372 1 0.998324
1.00796 1.00957 1 0.9984
1.00724 1.00871 1 0.998543
0.999131 1 1.00001 0.999118
1 1 1.00123 0.998777
0.999898 1.00074 1.00078 0.99838
1.00779 1.00902 1 0.998778
1.00232 1.00373 1 0.998603
0.999123 1 1 0.999123
0.999103 1 1 0.999103
0.999157 1 1 0.999157
0.999951 1 1 0.999951
0.999654 1 1 0.999654
0.999377 1 1 0.999377
1.01132 1.01292 1 0.998417
0.999969 1 1 0.999969
0.999752 1 1 0.999752
1.00844 1.01009 0.999878 0.998479
1.0108 1.01225 0.999877 0.998697
0.999838 1 1.00081 0.999028
1.00179 1 1.0033 0.998494
1.00043 1.00125 1.00084 0.998335
1.00612 1.00732 1 0.998801
0.999695 1 1 0.999695
0.999429 1 1 0.999429
0.999111 1 1 0.999111
1.00054 1 1.00136 0.999184
0.999008 1 1 0.999008
0.999228 1 1 0.999228
1.01321 1.01494 0.999742 0.998545
1.01271 1.0143 0.999839 0.998592
1.01016 1.01238 0.998881 0.998918
1.00175 1.00317 1 0.998583
1.00132 1 1.00234 0.99898
1.004 1.00022 1.00547 0.998315
0.999768 1 1 0.999768
0.999727 1 1 0.999727
0.999586 1 1 0.999586
0.999434 1 1 0.999434
0.999288 1 1 0.999288
0.999068 1 1 0.999068
1.00232 1 1.0034 0.998929
0.999201 1 1 0.999201
0.99943 1 1 0.99943
0.999192 1 1 0.999192
1.01168 1.01295 1 0.99874
1.00679 1.00803 1 0.998768
0.998989 1 1 0.998989
1.0027 1 1.00378 0.99892
1.00183 1.00333 1.00004 0.998475
1.00155 1 1.00317 0.99838
0.999306 1 1 0.999306
1.01295 1.01543 0.99884 0.998713
0.999087 1 1.00005 0.999038
1.00123 1 1.0025 0.99873
1.01381 1.01528 0.999734 0.998816
1.0062 1.00774 1 0.99847
1.00275 1.00099 1.00348 0.998284
0.99915 1 1.00001 0.999141
1.01813 1.02231 0.997028 0.998881
0.998992 1 1.00009 0.998905
1.00227 1 1.00374 0.998537
1.00675 1.01098 0.997225 0.998589
1.00191 1.00141 1.00221 0.998288
1.00618 1.00874 0.998499 0.998967
0.999371 1 1 0.999371
0.99926 1 1 0.99926
0.999174 1 1 0.999174
0.999749 1 1 0.999749
0.999548 1 1 0.999548
0.999448 1 1 0.999448
0.999284 1 1 0.999284
0.999741 1 1 0.999741
0.999551 1 1 0.999551
0.999219 1 1 0.999219
0.999441 1 1 0.999441
0.999313 1 1 0.999313
0.999209 1 1 0.999209
0.999354 1 1 0.999354
0.999446 1 1 0.999446
0.999525 1 1 0.999525
0.999703 1 1 0.999703
0.999583 1 1 0.999583
0.999705 1 1 0.999705
0.99997 1 1 0.99997
0.999971 1 1 0.999971
1 1 1 1
0.999973 1 1 0.999973
1 1 1 1
1 1 1 1
1 1 1 1
1 1 1 1
1 1 1 1
0.999989 1 1 0.999989
0.999981 1 1 0.999981
1 1 1 1
1 1 1 1
1 1 1 1
1 1 1 1
1 1 1 1
1 1 1 1
1.01232 1.01371 1 0.99863
1.01255 1.01411 1 0.998457
1.01157 1.01323 1 0.998362
1.01287 1.01444 1 0.998448
1.01367 1.01518 0.999941 0.998571
1.00974 1.01335 0.997694 0.998741
1.0133 1.01538 0.999313 0.998633
1.00908 1.01596 0.994492 0.99873
1.01867 1.02368 0.996137 0.998959
0.999816 1 1 0.999816
1.01093 1.01252 1 0.99843
1.00799 1.0096 0.999922 0.998478
1.01176 1.01313 0.999978 0.998668
0.999844 1 1.00078 0.99906
1.00247 1 1.00402 0.998461
1.0003 1.0015 1.00045 0.998342
1.00559 1.0068 1 0.998797
0.99908 1 1 0.99908
0.999247 1 1 0.999247
0.998987 1 1 0.998987
0.999965 1 1 0.999965
0.999232 1 1 0.999232
0.999732 1 1 0.999732
0.999428 1 1 0.999428
0.999739 1 1 0.999739
1.01348 1.01528 0.999676 0.998548
0.999785 1 1 0.999785
0.999726 1 1 0.999726
0.999558 1 1 0.999558
1.01308 1.01484 0.999674 0.998596
1.00914 1.01124 0.999037 0.998879
1.0006 1 1.00161 0.998994
1.00393 1.0001 1.00553 0.998311
1.00199 1.00325 1.00016 0.998588
0.999453 1 1 0.999453
0.999279 1 1 0.999279
0.999998 1 1.00084 0.999159
1.00198 1 1.00302 0.998959
0.999084 1 1 0.999084
1.01229 1.01561 0.998121 0.998602
1.01176 1.01572 0.997374 0.998715
1.00522 1.00737 0.99915 0.998716
1.00374 1.00196 1.00332 0.998467
1.00368 1 1.00478 0.998908
0.999559 1 1 0.999559
0.999489 1 1 0.999489
0.999413 1 1 0.999413
0.999295 1 1 0.999295
0.999162 1 1 0.999162
1.00046 1 1.00148 0.998974
1.00526 1 1.0064 0.998872
0.999303 1 1 0.999303
0.999059 1 1.00002 0.999043
1.01301 1.0155 0.998819 0.998731
1.01343 1.01495 0.999702 0.998799
1.00652 1.00805 1 0.998489
1.00123 1 1.00252 0.998709
1.00269 1.0008 1.0036 0.998292
0.999186 1 1.00002 0.999161
1.01808 1.02275 0.996549 0.998885
0.999053 1 1.00014 0.998914
1.00252 1 1.00398 0.998547
1.00766 1.01122 0.99784 0.998633
1.00233 1.00136 1.00269 0.99828
1.00702 1.00957 0.998677 0.998795
0.999044 1 1 0.999044
1.00296 1.01385 0.990398 0.998853
1.00054 1 1.00167 0.998869
1.00481 1 1.00635 0.998464
1.00199 1.00252 1.00104 0.998437
0.960598 0.971958 0.995661 0.99262
0.994547 0.992863 1.00496 0.996752
0.984621 1.00387 0.981703 0.999103
0.908849 0.931635 0.981027 0.994409
0.898257 0.944034 0.956661 0.994615
0.999259 1 1 0.999259
0.999182 1 1 0.999182
0.999175 1 1 0.999175
0.99974 1 1 0.99974
0.999542 1 1 0.999542
0.99944 1 1 0.99944
0.999328 1 1 0.999328
0.999213 1 1 0.999213
0.999431 1 1 0.999431
0.999718 1 1 0.999718
0.999537 1 1 0.999537
0.999216 1 1 0.999216
0.99935 1 1 0.99935
0.99936 1 1 0.99936
0.999282 1 1 0.999282
0.999398 1 1 0.999398
0.999507 1 1 0.999507
0.999701 1 1 0.999701
0.99955 1 1 0.99955
0.999448 1 1 0.999448
0.999554 1 1 0.999554
0.999561 1 1 0.999561
0.999736 1 1 0.999736
0.999704 1 1 0.999704
0.999969 1 1 0.999969
0.999969 1 1 0.999969
1 1 1 1
0.99997 1 1 0.99997
1 1 1 1
1 1 1 1
1 1 1 1
1 1 1 1
1 1 1 1
0.999992 1 1 0.999992
0.999988 1 1 0.999988
1 1 1 1
0.999979 1 1 0.999979
1 1 1 1
1 1 1 1
1 1 1 1
1 1 1 1
1 1 1 1
1.01292 1.01448 0.999889 0.998572
1.0132 1.01477 1 0.998446
1.01072 1.0138 0.998215 0.998746
1.00946 1.01572 0.995078 0.998754
1.01297 1.01506 0.999307 0.998633
1.01973 1.02453 0.996396 0.998913
1.02138 1.02409 0.998754 0.998597
0.975223 0.984914 0.994014 0.996123
1.0155 1.01935 0.997282 0.998938
0.999824 1 1 0.999824
0.999815 1 1 0.999815
0.999616 1 1 0.999616
0.999638 1 1 0.999638
1.01385 1.01564 0.999685 0.998551
1.01366 1.01547 0.999624 0.998599
1.00821 1.01011 0.999285 0.99884
0.999779 1 1.00077 0.999008
1.00366 1 1.00536 0.998307
1.00225 1.00353 1.00013 0.998593
1.0008 1 1.00169 0.999116
1.00159 1 1.0026 0.998989
0.9991 1 1 0.9991
0.999726 1 1 0.999726
0.999269 1 1 0.999269
0.999472 1 1 0.999472
0.999801 1 1 0.999801
0.999531 1 1 0.999531
1.01095 1.01374 0.998631 0.998618
0.999588 1 1 0.999588
0.999505 1 1 0.999505
0.99941 1 1 0.99941
1.01354 1.01684 0.998023 0.998727
1.00391 1.00633 0.998891 0.998712
1.00355 1 1.00465 0.998904
1.00341 1.00211 1.00285 0.998453
0.999299 1 1 0.999299
0.999171 1 1 0.999171
1.00429 1 1.00542 0.998873
1.00118 1 1.00222 0.998954
1.01808 1.02113 0.998389 0.998627
1.00137 1.01245 0.990326 0.99871
1.00323 1.00408 1.00073 0.998438
1.00184 1 1.00306 0.998784
0.999359 1 1 0.999359
0.99934 1 1 0.99934
0.999154 1 1.00004 0.999112
1.00742 1 1.00866 0.998762
0.949936 0.968986 0.987843 0.992404
0.999182 1 1 0.999182
0.99913 1 1.00021 0.998923
1.01759 1.02303 0.995787 0.998888
1.00865 1.01143 0.99857 0.998676
1.00296 1.00139 1.0033 0.998272
1.0029 1 1.00435 0.998557
1.0074 1.01018 0.998624 0.99862
0.999161 1 1.0001 0.999059
1.00219 1.01342 0.990062 0.998841
1.00014 1 1.00126 0.998875
1.00456 1 1.0061 0.998467
1.00207 1.0034 1.00023 0.99845
0.958316 0.971409 0.993687 0.992789
0.989792 0.991331 1.0028 0.995662
0.987121 1.00354 0.984475 0.999153
0.914549 0.93384 0.985214 0.99404
0.887107 0.935791 0.953503 0.994203
0.99955 1 1.00044 0.999108
0.922758 0.940462 0.987389 0.993706
0.92396 0.947056 0.980478 0.995037
0.979237 1.00408 0.976382 0.998851
1.00428 1 1.0054 0.998888
1.00907 1.00035 1.01012 0.998608
0.987298 1.00144 0.9866 0.999266
0.967114 0.972846 1.00183 0.992289
0.988051 0.986281 1.00646 0.995365
0.899673 0.934793 0.967962 0.994284
0.932102 0.970487 0.964439 0.995861
0.999191 1 1 0.999191
0.999174 1 1 0.999174
0.999254 1 1 0.999254
0.999733 1 1 0.999733
0.999548 1 1 0.999548
0.999416 1 1 0.999416
0.999347 1 1 0.999347
0.999222 1 1 0.999222
0.999701 1 1 0.999701
0.99936 1 1 0.99936
0.999414 1 1 0.999414
0.999524 1 1 0.999524
0.999273 1 1 0.999273
0.999314 1 1 0.999314
0.999475 1 1.0002 0.999278
0.999403 1 1 0.999403
0.999537 1 1 0.999537
0.99955 1 1 0.99955
0.999434 1 1 0.999434
0.99942 1 1 0.99942
0.999423 1 1 0.999423
0.999365 1 1 0.999365
0.999329 1 1 0.999329
0.999533 1 1 0.999533
0.999554 1 1 0.999554
0.999734 1 1 0.999734
0.999539 1 1 0.999539
0.999723 1 1 0.999723
0.999968 1 1 0.999968
0.999704 1 1 0.999704
0.999969 1 1 0.999969
1 1 1 1
0.999969 1 1 0.999969
1 1 1 1
1 1 1 1
1 1 1 1
1 1 1 1
1 1 1 1
0.999819 1 1 0.999819
0.999993 1 1 0.999993
0.999991 1 1 0.999991
1 1 1 1
0.999987 1 1 0.999987
1 1 1 1
1 1 1 1
1 1 1 1
1 1 1 1
1 1 1 1
1.01071 1.01579 0.996216 0.998779
1.01266 1.01484 0.999218 0.998633
1.02132 1.02553 0.997026 0.998868
0.977597 0.984335 0.996392 0.996751
1.01484 1.01907 0.996868 0.998978
1.022 1.02538 0.998121 0.998583
1.019 1.02277 0.997592 0.998721
0.980257 0.986526 0.996711 0.996923
0.959126 0.971974 0.995096 0.991645
0.896201 0.928148 0.972191 0.993198
0.889668 0.931108 0.960781 0.994497
0.999608 1 1 0.999608
0.999824 1 1 0.999824
0.999815 1 1 0.999815
0.999608 1 1 0.999608
0.999482 1 1 0.999482
0.999512 1 1 0.999512
0.999619 1 1 0.999619
0.999626 1 1 0.999626
1.00933 1.01174 0.998976 0.998634
1.01538 1.01825 0.998445 0.998738
1.00284 1.00543 0.998716 0.998708
1.00355 1 1.00465 0.998901
1.00322 1.00206 1.00272 0.998438
1.00338 1 1.00451 0.998874
1.002 1 1.00307 0.998935
0.999179 1 1 0.999179
0.99952 1 1 0.99952
0.999302 1 1 0.999302
0.999617 1 1 0.999617
0.999407 1 1 0.999407
1.01856 1.02192 0.998105 0.998603
0.999374 1 1 0.999374
0.999341 1 1 0.999341
1.00243 1.01113 0.992696 0.9987
1.00314 1.0045 1.00014 0.998503
1.00345 1 1.00472 0.998741
0.999322 1 1.00022 0.999105
1.00668 1 1.00792 0.998766
1.0145 1.02118 0.994895 0.998556
0.988804 1.00358 0.986599 0.998664
0.999681 1 1.00103 0.998651
1.00675 1 1.00798 0.998783
0.99928 1 1 0.99928
0.99918 1 1 0.99918
1.00155 1 1.00262 0.998931
0.912715 0.94073 0.976064 0.994013
0.956187 0.970623 0.992154 0.992917
0.99927 1 1.0002 0.999074
0.999838 1 1.00096 0.998882
1.00226 1.01338 0.990194 0.998829
1.0022 1.00437 0.999381 0.998462
1.00417 1 1.00571 0.998469
0.959402 0.972356 0.995093 0.991543
0.990477 0.99265 1.00141 0.996401
0.990111 1.00343 0.987513 0.999203
0.909593 0.935227 0.978851 0.993605
0.875389 0.926563 0.950675 0.993789
0.999384 1 1.00028 0.999107
0.917746 0.94349 0.978447 0.994141
0.92389 0.944496 0.983171 0.994926
0.981915 1.00477 0.978389 0.998841
1.0037 1 1.00481 0.9989
1.00832 1.00021 1.00947 0.998655
0.980775 0.998949 0.982516 0.999278
0.967714 0.974193 1.00155 0.991815
0.987253 0.987043 1.00381 0.996411
0.902017 0.933157 0.973115 0.993334
0.93119 0.970615 0.963622 0.995599
1.00036 1 1.00119 0.999169
0.941262 0.949041 0.995945 0.995841
0.988431 0.989948 1.001 0.997474
0.987075 1.00041 0.987505 0.999152
1.00926 1 1.0101 0.999162
1.00343 0.99671 1.00713 0.999612
0.98027 0.9847 0.998067 0.997429
0.969357 0.970064 1.0074 0.99193
0.923454 0.956997 0.97141 0.993349
0.95322 0.988117 0.967817 0.996762
0.999173 1 1 0.999173
0.999234 1 1 0.999234
0.999769 1 1.00042 0.999348
0.999701 1 1 0.999701
0.99954 1 1 0.99954
0.99943 1 1 0.99943
0.999361 1 1 0.999361
0.999264 1 1 0.999264
0.999536 1 1 0.999536
0.999324 1 1 0.999324
0.999402 1 1 0.999402
0.999529 1 1.00024 0.999284
0.999897 1 1.00055 0.999342
0.999401 1 1.00009 0.999314
0.999403 1 1 0.999403
0.999549 1 1 0.999549
0.999419 1 1 0.999419
0.99942 1 1 0.99942
0.999422 1 1 0.999422
0.999363 1 1 0.999363
0.99939 1 1 0.99939
0.999348 1 1 0.999348
0.999327 1 1 0.999327
0.999192 1 1 0.999192
0.999692 1 1.00063 0.999064
0.999252 1 1 0.999252
0.999328 1 1 0.999328
0.999494 1 1 0.999494
0.999532 1 1 0.999532
0.999724 1 1 0.999724
0.999554 1 1 0.999554
0.999734 1 1 0.999734
0.999968 1 1 0.999968
0.99971 1 1 0.99971
0.999968 1 1 0.999968
1 1 1 1
0.999968 1 1 0.999968
1 1 1 1
1 1 1 1
1 1 1 1
1 1 1 1
1 1 1 1
0.999834 1 1 0.999834
0.999991 1 1 0.999991
0.999818 1 1 0.999818
1 1 1 1
0.999993 1 1 0.999993
0.999991 1 1 0.999991
1 1 1 1
1 1 1 1
1 1 1 1
1 1 1 1
1 1 1 1
0.915958 0.938202 0.981869 0.994319
0.930758 0.948559 0.985708 0.995462
0.980492 0.985009 0.998214 0.997196
1.01453 1.01871 0.996873 0.999017
1.02263 1.02657 0.997587 0.998569
0.979738 0.98501 0.996695 0.997946
1.01979 1.02261 0.998508 0.998732
0.960965 0.972911 0.99493 0.992754
0.907714 0.931723 0.979917 0.994198
0.880673 0.927898 0.954756 0.994081
0.998248 1.00015 0.999526 0.998571
0.96529 0.972117 1.00033 0.992647
0.894088 0.931789 0.965161 0.994176
0.930361 0.967561 0.966131 0.995261
0.999435 1 1 0.999435
0.999619 1 1 0.999619
0.999824 1 1 0.999824
0.999599 1 1 0.999599
0.999498 1 1 0.999498
0.999459 1 1 0.999459
0.999512 1 1 0.999512
0.999544 1 1 0.999544
0.999603 1 1 0.999603
0.999613 1 1 0.999613
1.01911 1.02267 0.997934 0.99858
1.00264 1.00913 0.994876 0.998689
1.00296 1.00489 0.999502 0.998568
1.00488 1 1.00619 0.998699
1.00556 1 1.0068 0.998771
0.999448 1 1.00035 0.999097
0.999341 1 1 0.999341
0.99939 1 1 0.99939
1.01387 1.02132 0.994157 0.998537
0.999274 1 1 0.999274
0.999164 1 1 0.999164
0.990363 1.00342 0.988357 0.998619
1.00004 1 1.00133 0.998707
1.00578 1 1.00706 0.998737
1.00238 1 1.00347 0.998919
1.00614 1.00941 0.998069 0.99869
0.99513 1 0.996104 0.999023
1.00658 1 1.00774 0.998851
0.999262 1 1 0.999262
0.999157 1 1 0.999157
0.999016 1 1 0.999016
0.942023 0.951946 0.993413 0.996138
0.917582 0.940503 0.982024 0.993488
0.953665 0.971637 0.989042 0.992378
0.999106 1 1 0.999106
1.00309 1 1.00419 0.998911
0.98458 1.0053 0.980537 0.998831
1.00755 1 1.00886 0.998703
0.915084 0.942064 0.977791 0.993424
0.966838 0.973384 1.00006 0.993219
0.986173 0.988448 1.00229 0.995422
0.978097 0.996874 0.981854 0.999298
0.904654 0.932266 0.97601 0.994234
0.925309 0.947152 0.98204 0.994806
0.926991 0.969067 0.961061 0.995338
1.00061 1 1.00145 0.999169
0.939716 0.950673 0.992608 0.995836
0.98956 0.990692 1.00139 0.997469
0.989789 1.00018 0.990425 0.999182
1.00917 0.99997 1.01005 0.999157
1.00329 0.997956 1.00611 0.999238
0.980764 0.983712 1.00102 0.995984
0.965877 0.97073 1.00307 0.991959
0.926279 0.959977 0.970219 0.994515
0.946674 0.982122 0.967283 0.996509
1.00129 1 1.0018 0.999495
0.988907 0.990786 0.999947 0.998156
0.996208 0.993182 1.00451 0.998543
1.00973 0.999437 1.01058 0.999715
0.990943 0.986451 1.00592 0.998643
0.969949 0.971951 1.00632 0.991674
0.953941 0.973991 0.984504 0.99483
0.954639 0.993407 0.964451 0.996396
0.999214 1 1 0.999214
0.999713 1 1.00036 0.999358
1.00075 1 1.0013 0.999451
0.999536 1 1 0.999536
0.999402 1 1 0.999402
0.999335 1 1 0.999335
0.999571 1 1.00028 0.99929
0.999403 1 1 0.999403
0.999343 1 1.00003 0.999312
1.00029 1 1.00093 0.999358
1.00031 1 1.00086 0.999456
0.999536 1 1.00021 0.999324
0.999332 1 1 0.999332
0.99942 1 1 0.99942
0.999421 1 1 0.999421
0.999361 1 1 0.999361
0.99935 1 1 0.99935
0.999389 1 1 0.999389
0.999332 1 1 0.999332
0.999283 1 1 0.999283
0.999321 1 1 0.999321
0.999174 1 1 0.999174
0.999202 1 1 0.999202
0.999727 1 1.00064 0.999088
0.999784 1 1.00089 0.998897
0.999224 1 1 0.999224
0.999546 1 1.00044 0.999109
0.999274 1 1 0.999274
0.999411 1 1 0.999411
0.999326 1 1 0.999326
0.999493 1 1 0.999493
0.999701 1 1 0.999701
0.999531 1 1 0.999531
0.999723 1 1 0.999723
0.999966 1 1 0.999966
0.999733 1 1 0.999733
0.999967 1 1 0.999967
1 1 1 1
0.999968 1 1 0.999968
1 1 1 1
1 1 1 1
1 1 1 1
1 1 1 1
1 1 1 1
0.999768 1 1 0.999768
0.999988 1 1 0.999988
0.999804 1 1 0.999804
1 1 1 1
0.999992 1 1 0.999992
0.999818 1 1 0.999818
1 1 1 1
1 1 1 1
0.999992 1 1 0.999992
1 1 1 1
1 1 1 1
1 1 1 1
0.945188 0.952714 0.995832 0.996253
0.916196 0.939546 0.98128 0.993751
0.989196 0.99227 0.999522 0.997378
0.923922 0.943723 0.98369 0.995251
0.975604 0.983685 0.995144 0.996625
1.01974 1.02245 0.998602 0.998742
0.960724 0.97337 0.993088 0.993877
0.906736 0.933892 0.977445 0.993326
0.872276 0.925332 0.948673 0.993664
0.995857 0.999342 0.998446 0.998064
0.966586 0.971615 1.00275 0.992093
0.898981 0.935769 0.967275 0.993189
0.927584 0.966377 0.964567 0.995117
0.993357 0.996522 0.998849 0.997973
0.969502 0.969523 1.00827 0.991774
0.925936 0.960521 0.969398 0.994425
0.951795 0.989089 0.965778 0.996394
0.999337 1 1 0.999337
0.999452 1 1 0.999452
0.99963 1 1 0.99963
0.999514 1 1 0.999514
0.999361 1 1 0.999361
0.999471 1 1 0.999471
0.999512 1 1 0.999512
0.999526 1 1 0.999526
0.999561 1 1 0.999561
0.999587 1 1 0.999587
1.01372 1.02209 0.993283 0.998518
0.992827 1.00363 0.990647 0.998574
1.00035 1 1.00159 0.998762
1.00524 1 1.00656 0.998692
1.00329 1 1.00439 0.998906
0.999148 1 1 0.999148
0.999268 1 1 0.999268
0.999263 1 1 0.999263
1.00098 1.00827 0.994055 0.99871
0.999167 1 1 0.999167
0.999215 1 1.0002 0.999011
0.993408 1 0.99443 0.998972
1.00541 1 1.00657 0.998847
0.984501 1.00085 0.984546 0.999106
1.01027 1 1.01097 0.999311
1.00008 1 1.00107 0.999006
0.999185 1 1 0.999185
0.999027 1 1 0.999027
0.987534 0.989252 0.999768 0.998495
0.944459 0.95205 0.995708 0.996303
0.915783 0.939942 0.979826 0.994358
1.00091 1 1.00174 0.999168
1.00903 0.999905 1.00999 0.999151
0.99103 1 0.991814 0.99921
0.945715 0.953291 0.995856 0.996181
0.970887 0.970028 1.00927 0.991694
0.982589 0.984995 1.00051 0.997046
0.997134 0.997963 1.00033 0.998837
0.92526 0.957255 0.973059 0.993338
0.989876 0.990562 1.00185 0.997464
0.941524 0.977784 0.966238 0.996563
1.00141 0.999952 1.00196 0.999498
0.988 0.989498 1.00009 0.998392
0.998632 0.995229 1.00487 0.998554
1.00948 0.999464 1.01044 0.999588
0.9901 0.986748 1.00519 0.998219
0.973057 0.974562 1.00707 0.991448
0.955522 0.996453 0.962078 0.99672
0.938705 0.965675 0.977726 0.994216
1.00282 0.99927 1.00384 0.999711
0.995738 0.995892 1.00033 0.999514
1.00637 1.00252 1.00511 0.998731
0.954028 0.990009 0.967136 0.996402
1.00092 0.987777 1.01372 0.999589
0.977968 0.976125 1.00989 0.992072
0.930997 0.950927 0.984257 0.994701
0.999635 1 1.00027 0.999367
1.0005 1 1.00109 0.999414
1.00312 1 1.00355 0.999566
0.999403 1 1 0.999403
0.99931 1 1 0.99931
1.00075 1 1.00138 0.999374
0.999334 1 1 0.999334
0.999651 1 1.00033 0.999326
1.00069 1 1.00126 0.999429
0.99985 1 1.00035 0.999496
0.99931 1 1 0.99931
0.999353 1 1 0.999353
0.999388 1 1 0.999388
0.999336 1 1 0.999336
0.999318 1 1 0.999318
0.999291 1 1 0.999291
0.999577 1 1.00029 0.999285
0.999212 1 1 0.999212
1.00141 1 1.0025 0.998914
0.999212 1 1 0.999212
0.999599 1 1.00052 0.999078
0.999711 1 1.00095 0.998764
0.99968 1 1.0008 0.998883
0.999151 1 1 0.999148
0.999697 1 1.00079 0.998904
0.99936 1 1 0.99936
0.999206 1 1 0.999206
0.99939 1 1.00024 0.999155
0.999296 1 1 0.999296
0.99943 1 1 0.99943
0.999659 1 1 0.999659
0.999492 1 1 0.999492
0.9997 1 1 0.9997
0.99996 1 1 0.99996
0.999723 1 1 0.999723
0.999964 1 1 0.999964
1 1 1 1
0.999967 1 1 0.999967
1 1 1 1
1 1 1 1
1 1 1 1
1 1 1 1
1 1 1 1
0.99968 1 1 0.99968
0.999943 1 1 0.999943
0.999767 1 1 0.999767
1 1 1 1
0.999972 1 1 0.999972
0.999774 1 1 0.999774
1 1 1 1
1 1 1 1
0.999992 1 1 0.999992
1 1 1 1
1 1 1 1
1 1 1 1
0.987185 0.989153 0.999662 0.998348
0.937812 0.951561 0.98961 0.995898
0.917096 0.937833 0.984288 0.993498
0.999472 1 1 0.999472
0.993679 0.990727 1.00424 0.998745
0.99063 0.992271 1.00097 0.997375
0.917819 0.942994 0.978175 0.995019
0.994326 0.999167 0.997643 0.997506
0.970488 0.973747 1.00414 0.992541
0.903721 0.941094 0.965993 0.994093
0.922282 0.963465 0.962105 0.99496
0.995704 0.998485 1.00066 0.996557
0.964659 0.967639 1.00487 0.992094
0.930109 0.961188 0.973462 0.994045
0.95099 0.988523 0.965754 0.996146
0.985525 0.987504 1.0023 0.995703
0.974275 0.968434 1.01545 0.990723
0.93914 0.967254 0.976958 0.993835
0.953359 0.992902 0.963656 0.996387
0.999249 1 1 0.999249
0.999328 1 1 0.999328
0.999469 1 1 0.999469
0.999353 1 1 0.999353
0.999382 1 1 0.999382
0.999483 1 1 0.999483
0.999531 1 1 0.999531
0.999578 1 1 0.999578
0.995355 1.00671 0.989978 0.998729
0.991315 1 0.992385 0.998922
0.999264 1 1 0.999264
1.00423 1 1.00539 0.998843
0.999627 1 1.00062 0.999005
0.999178 1 1 0.999178
0.999189 1 1 0.999189
0.98942 1.00266 0.987675 0.999114
0.999049 1 1 0.999049
1.0009 1 1.0019 0.999004
1.00597 1 1.00666 0.999318
0.999206 1 1 0.999206
0.981841 0.994122 0.98812 0.999521
1.01247 0.999401 1.01363 0.999454
0.999109 1 1 0.999109
0.999149 1 1 0.999149
0.995808 0.996834 0.99935 0.999621
0.987195 0.988915 0.99974 0.99852
0.9476 0.952328 0.998559 0.996472
1.00146 0.99994 1.00202 0.999502
1.01026 0.999579 1.01123 0.999462
0.98692 0.988282 0.999995 0.998628
0.975996 0.972421 1.01188 0.991889
0.988832 0.984111 1.00811 0.996711
0.942631 0.968424 0.979597 0.993639
1.00079 0.996973 1.00527 0.998566
0.958323 1.00113 0.96008 0.997045
1.00317 0.999398 1.0041 0.999678
0.994439 0.994965 0.999948 0.999523
1.00541 1.0016 1.00484 0.998968
1.00744 0.993114 1.0145 0.99993
0.951894 0.989186 0.966025 0.996144
0.975187 0.974015 1.00921 0.992068
0.938372 0.962905 0.980791 0.993607
1.00688 0.996372 1.01078 0.999771
1.0045 1.00371 1.00111 0.999676
0.993973 0.992131 1.00311 0.998751
0.931178 0.969116 0.965404 0.995287
0.938681 0.969069 0.974748 0.993737
0.991515 0.985715 1.00617 0.999713
0.979432 0.970131 1.0184 0.991342
1.00027 1 1.00089 0.999376
1.00223 1 1.00268 0.99955
1.0077 0.995555 1.01262 0.999582
0.999336 1 1 0.999336
0.999694 1 1.00037 0.999328
1.00094 1 1.00154 0.999403
0.999306 1 1 0.999306
0.99993 1 1.00043 0.999497
1.00457 0.99965 1.00556 0.999362
0.999316 1 1 0.999316
0.999299 1 1 0.999299
1.00002 1 1.00075 0.999261
1.00577 1 1.00678 0.99899
0.99925 1 1 0.99925
1.00088 1 1.00192 0.998961
1.00276 1 1.00413 0.998643
1.00046 1 1.00188 0.998583
0.999451 1 1.00038 0.999068
0.999755 1 1.00103 0.998729
0.999443 1 1.00049 0.998956
0.999827 1 1.00076 0.99907
0.999619 1 1.00071 0.998912
0.999308 1 1 0.999308
0.999195 1 1.00005 0.999145
0.999656 1 1.00075 0.998911
0.9996 1 1 0.9996
0.999353 1 1 0.999353
0.999188 1 1 0.999188
0.999449 1 1 0.999449
0.999658 1 1 0.999658
0.999948 1 1 0.999948
0.999699 1 1 0.999699
0.999958 1 1 0.999958
1 1 1 1
0.999963 1 1 0.999963
1 1 1 1
1 1 1 1
1 1 1 1
1 1 1 1
1 1 1 1
0.999645 1 1 0.999645
0.999916 1 1 0.999916
0.999698 1 1 0.999698
1 1 1 1
0.999942 1 1 0.999942
0.999765 1 1 0.999765
1 1 1 1
1 1 1 1
0.999955 1 1 0.999955
1 1 1 1
1 1 1 1
1 1 1 1
0.993339 0.99382 1.00002 0.999501
0.986973 0.988891 0.999705 0.998355
0.938113 0.952258 0.989176 0.995925
0.999479 1 1 0.999479
0.999442 1 1 0.999442
0.99937 1 1 0.99937
1.00613 1.00129 1.00611 0.99873
0.994395 0.991456 1.00421 0.998761
0.991795 0.992299 1.00213 0.997372
1.00156 0.999104 1.00478 0.997689
0.966628 0.968702 1.00606 0.991845
0.92589 0.957363 0.973572 0.993379
0.952966 0.990604 0.965658 0.996217
0.980747 0.982576 1.00121 0.996933
0.969992 0.968157 1.01025 0.991734
0.938122 0.96271 0.979551 0.994803
0.955698 0.996471 0.962242 0.996715
0.972337 0.97741 0.998231 0.996573
0.98119 0.972709 1.01699 0.991866
0.931535 0.950314 0.985449 0.994713
0.952277 0.986745 0.968231 0.996735
0.999238 1 1 0.999238
0.999247 1 1 0.999247
0.999318 1 1 0.999318
0.999352 1 1 0.999352
0.999403 1 1 0.999403
0.999536 1 1 0.999536
0.994929 1.00442 0.991423 0.99912
1.00172 1 1.0024 0.999324
0.999192 1 1 0.999192
1.00134 1 1.00234 0.999001
0.999072 1 1 0.999072
0.999195 1 1 0.999195
0.999154 1 1 0.999154
0.991417 0.996877 0.995008 0.999512
0.999152 1 1 0.999152
1.00919 0.997046 1.0127 0.99948
0.999223 1 1 0.999223
1.00661 0.989014 1.01804 0.999752
0.994423 0.994374 1.00044 0.999614
0.999233 1 1 0.999233
1.00719 1.00789 0.999502 0.999806
0.995645 0.996662 0.999306 0.999673
0.987119 0.988702 0.999855 0.998544
1.00342 0.999509 1.00427 0.999644
1.00236 0.994229 1.00835 0.999831
0.993409 0.99428 0.99959 0.999533
0.98127 0.975355 1.01168 0.994452
0.944055 0.962386 0.985933 0.994948
1.00431 1.00067 1.00444 0.999205
0.953491 0.991281 0.965522 0.996226
1.00673 0.99756 1.0094 0.999788
1.00471 1.00397 1.00102 0.999717
0.995112 0.992871 1.0035 0.998766
0.990107 0.981983 1.01032 0.997975
0.928767 0.967997 0.96415 0.995149
0.936008 0.965213 0.974912 0.994697
0.990198 0.97614 1.02264 0.991942
1.01431 0.988975 1.02574 0.999885
0.993785 0.994333 0.999943 0.999507
0.990129 0.993533 0.999172 0.9974
0.8894 0.931523 0.960011 0.994551
0.926527 0.960398 0.970115 0.994451
0.983138 0.97494 1.0167 0.991848
0.964389 0.975985 0.990748 0.997347
1.0012 1 1.00167 0.999534
1.01009 0.996866 1.01369 0.999586
1.01916 0.999662 1.01998 0.999529
0.999302 1 1 0.999302
1.00005 1 1.00055 0.999497
1.00393 0.999865 1.00468 0.999388
1.0143 1 1.01519 0.999122
1.00043 1 1.00119 0.999238
1.00582 1 1.00689 0.998938
1.01151 1 1.01298 0.998554
1.00045 1 1.00145 0.999008
1.00355 1 1.00492 0.998633
1.00337 1 1.00502 0.998359
1.00041 1.00016 1.00191 0.998353
0.999877 1 1.00108 0.998801
1.00043 1 1.00187 0.998562
0.999834 1 1.00114 0.998694
0.999784 1 1.00072 0.999065
0.999459 1 1.00046 0.998995
0.999531 1 1.00033 0.999198
0.999772 1 1.00068 0.999092
0.999511 1 1.00057 0.998941
0.999522 1 1 0.999522
0.999309 1 1 0.999309
0.999212 1 1.00007 0.999142
0.999923 1 1 0.999923
0.9996 1 1 0.9996
0.999347 1 1 0.999347
0.999657 1 1 0.999657
0.999945 1 1 0.999945
1 1 1 1
0.999955 1 1 0.999955
1 1 1 1
1 1 1 1
1 1 1 1
1 1 1 1
1 1 1 1
0.999643 1 1 0.999643
0.999936 1 1 0.999936
0.999658 1 1 0.999658
1 1 1 1
0.999937 1 1 0.999937
0.999715 1 1 0.999715
1 1 1 1
1 1 1 1
0.999941 1 1 0.999941
1 1 1 1
1 1 1 1
1 1 1 1
1.00543 1.00361 1.00214 0.999674
0.995298 0.994932 1.00086 0.999511
0.987135 0.988577 1.00018 0.998365
0.999425 1 1 0.999425
0.99934 1 1 0.99934
0.999486 1 1 0.999486
0.99944 1 1 0.99944
0.999355 1 1 0.999355
0.999351 1 1 0.999351
0.999286 1 1 0.999286
0.995993 0.992418 1.00508 0.998532
1.00414 0.999821 1.00535 0.998967
0.995352 0.992172 1.00443 0.998777
0.959411 1.00106 0.961238 0.997044
0.976195 0.97999 1.00033 0.995804
0.976052 0.972271 1.0112 0.992774
0.94031 0.958436 0.987412 0.993596
0.972118 0.977778 0.998206 0.995997
0.974154 0.969761 1.01299 0.991652
0.940025 0.963237 0.982004 0.993787
0.946818 0.9823 0.967297 0.996467
0.963539 0.973353 0.992674 0.997223
0.971341 0.971597 1.00833 0.991482
0.957101 0.976587 0.985151 0.994818
0.930363 0.969369 0.963812 0.995797
0.999263 1 1 0.999263
0.999237 1 1 0.999237
0.999245 1 1 0.999245
0.99935 1 1 0.99935
0.999908 0.999576 1.00083 0.999505
1.00637 0.994958 1.01197 0.999505
0.999183 1 1 0.999183
0.999159 1 1 0.999159
0.999195 1 1 0.999195
0.999219 1 1 0.999219
0.999221 1 1 0.999221
1.00192 0.987526 1.01505 0.999531
0.995774 0.995658 1.00044 0.999679
0.999252 1 1 0.999252
1.00786 0.98418 1.02446 0.999612
1.00164 0.997506 1.00477 0.999383
0.996191 0.99681 0.999753 0.999626
1.00596 1.00666 0.999468 0.999835
0.99546 0.9964 0.999332 0.999725
1.00659 0.998645 1.00815 0.999805
0.991441 0.981934 1.01001 0.999673
1.00479 1.00411 1.00091 0.999759
0.978024 0.969706 1.01726 0.991468
0.939583 0.960706 0.98442 0.993491
0.996353 0.99363 1.00396 0.998782
0.924195 0.964923 0.962609 0.994996
1.01768 0.989485 1.02863 0.999871
0.995197 0.995201 1.00048 0.999516
0.991441 0.993535 1.0005 0.997396
0.968301 0.978687 0.990394 0.998984
0.881559 0.928768 0.954765 0.99414
0.927797 0.959606 0.972649 0.99404
0.985888 0.974528 1.01966 0.992155
1.00194 0.986462 1.01598 0.999706
0.988742 0.990327 1.00004 0.998363
0.932055 0.949546 0.985996 0.99552
0.895856 0.931749 0.967062 0.994227
0.977033 0.970296 1.01516 0.991902
0.958929 0.974077 0.988067 0.996338
1.01309 0.998654 1.01487 0.99959
1.01864 0.998302 1.02086 0.999522
1.013 1 1.0136 0.999401
1.00329 1 1.00387 0.999414
1.01452 0.999975 1.0154 0.999163
1.00927 1 1.01062 0.998667
1.00595 1 1.00707 0.998886
1.01104 1 1.01254 0.998518
1.00545 1.00002 1.00717 0.998274
1.00423 1 1.00562 0.998623
1.00344 1 1.00513 0.998327
1.00232 1.00092 1.00318 0.99822
0.999064 1.00074 1 0.998329
0.999289 1 1.00077 0.998525
1.00057 1.00007 1.00218 0.998317
0.999084 1 1.00013 0.998958
0.999569 1 1.00074 0.998827
1.0004 1 1.00187 0.998541
0.99942 1 1.00031 0.999109
0.999859 1 1.0008 0.999058
0.99946 1 1.00043 0.999034
0.999415 1 1 0.999415
0.999427 1 1.00021 0.999218
0.999748 1 1.00064 0.999113
0.999865 1 1 0.999865
0.999523 1 1 0.999523
0.999311 1 1 0.999311
1 1 1 1
0.999919 1 1 0.999919
0.9996 1 1 0.9996
0.999941 1 1 0.999941
1 1 1 1
1 1 1 1
1 1 1 1
1 1 1 1
1 1 1 1
0.999422 1 1 0.999422
0.999613 1 1 0.999613
0.99992 1 1 0.99992
0.999643 1 1 0.999643
1 1 1 1
0.99994 1 1 0.99994
0.99967 1 1 0.99967
1 1 1 1
1 1 1 1
0.999959 1 1 0.999959
1 1 1 1
1 1 1 1
1 1 1 1
0.996127 0.995156 1.00146 0.999519
1.00549 1.00377 1.002 0.999716
0.99685 0.996057 1.00128 0.999521
0.999432 1 1 0.999432
0.999329 1 1 0.999329
0.999281 1 1 0.999281
0.999328 1 1 0.999328
0.999271 1 1 0.999271
0.999438 1 1 0.999438
0.999341 1 1 0.999341
0.999351 1 1 0.999351
0.999281 1 1 0.999281
0.999298 1 1 0.999298
0.986836 0.988444 1.00094 0.997434
0.997914 0.994027 1.00537 0.998545
1.00193 0.998324 1.00441 0.999204
0.942819 0.979114 0.966287 0.996527
0.941857 0.959758 0.986282 0.994998
0.96438 0.972355 0.996409 0.995373
0.977479 0.975615 1.01021 0.991784
0.965122 0.973899 0.995141 0.995826
0.982968 0.977693 1.01378 0.991728
0.942662 0.968619 0.97879 0.994292
0.929899 0.969706 0.963259 0.995525
0.980433 0.978224 1.00582 0.996456
0.974368 0.975461 1.00695 0.991986
0.923322 0.957237 0.971074 0.993303
0.896091 0.94313 0.955379 0.9945
0.999438 1 1 0.999438
0.999263 1 1 0.999263
0.999235 1 1 0.999235
0.997726 0.98573 1.01287 0.999308
0.996013 0.99586 1.00041 0.999748
0.999215 1 1 0.999215
0.999209 1 1 0.999209
0.999295 1 1.00003 0.999261
1.00237 0.998158 1.00485 0.999377
1.00608 0.983958 1.02286 0.999629
1.00374 1 1.00435 0.999392
1.00528 0.991582 1.01445 0.99937
0.987994 0.989518 1 0.99846
0.996149 0.996756 0.999712 0.999679
1.0047 1.00543 0.999408 0.999863
1.02031 0.989475 1.03131 0.999855
0.968686 0.979547 0.992008 0.996879
0.996354 0.996082 1.00075 0.999526
0.977785 0.973906 1.01372 0.990398
0.925297 0.956352 0.973945 0.993411
0.992575 0.99358 1.0016 0.997393
0.874435 0.926698 0.949559 0.993728
1.00199 0.986482 1.01598 0.999747
0.988691 0.990312 0.999993 0.998371
0.925109 0.944771 0.983804 0.995309
0.958656 0.975044 0.986022 0.99713
0.9003 0.935837 0.968563 0.993252
0.968518 0.968328 1.00906 0.991215
0.982546 0.987203 0.996002 0.999278
0.945847 0.953124 0.996045 0.996305
0.898099 0.928859 0.973446 0.99326
0.973618 0.971359 1.01062 0.991792
0.975114 0.98023 0.997545 0.997229
1.0176 0.996853 1.02131 0.999515
1.01533 1 1.01595 0.99939
0.993319 1 0.994269 0.999044
1.01467 1 1.01548 0.999204
1.0093 1 1.0106 0.99872
1.00205 1.00089 1.00272 0.998453
1.01046 1 1.012 0.998482
1.00459 1.00007 1.00625 0.998281
0.999348 1.00096 1.00003 0.998356
1.00338 1 1.00509 0.998296
1.00227 1.00159 1.00245 0.998231
1.00205 1.00366 1 0.998396
1.00092 1.00244 1 0.998491
0.998677 1.00025 1.00002 0.998411
0.999192 1.00085 1 0.998339
0.998734 1 1 0.998734
0.999562 1 1.00107 0.998489
1.00071 1 1.00244 0.998282
0.999083 1 1 0.999083
0.999013 1 1.00002 0.998989
0.99917 1 1.00032 0.998853
0.999305 1 1 0.999305
0.999577 1 1.00046 0.999118
0.999945 1 1.0009 0.99905
0.999763 1 1 0.999763
0.999415 1 1 0.999415
0.999321 1 1.00008 0.999238
1 1 1 1
0.999862 1 1 0.999862
0.999523 1 1 0.999523
1 1 1 1
1 1 1 1
0.999914 1 1 0.999914
1 1 1 1
1 1 1 1
1 1 1 1
0.999367 1 1 0.999367
0.999577 1 1 0.999577
0.999413 1 1 0.999413
0.999907 1 1 0.999907
0.999613 1 1 0.999613
1 1 1 1
0.999923 1 1 0.999923
0.999643 1 1 0.999643
1 1 1 1
1 1 1 1
0.999943 1 1 0.999943
1 1 1 1
1 1 1 1
1 1 1 1
0.989411 0.990783 1 0.998616
0.995134 0.994463 1.00115 0.999529
1.00547 1.00382 1.00188 0.999758
0.999274 1 1 0.999274
0.999439 1 1 0.999439
0.999318 1 1 0.999318
0.999339 1 1 0.999339
0.999292 1 1 0.999292
0.999266 1 1 0.999266
0.999218 1 1 0.999218
0.999253 1 1 0.999253
0.999352 1 1 0.999352
0.999276 1 1 0.999276
0.999294 1 1 0.999294
0.999311 1 1 0.999311
0.923743 0.946294 0.981108 0.994966
0.988086 0.989263 1.00139 0.997427
0.999339 0.995134 1.00567 0.998558
0.926216 0.968834 0.960576 0.995247
0.947975 0.97248 0.980848 0.993836
0.971659 0.971597 1.00862 0.991518
0.967516 0.97299 0.997476 0.99689
0.980396 0.977693 1.00503 0.997741
0.885814 0.934866 0.953151 0.994104
0.979113 0.974084 1.01417 0.991121
0.923413 0.957856 0.969485 0.994384
0.979016 0.982198 0.998815 0.997942
0.972421 0.969643 1.0106 0.99235
0.895386 0.931902 0.966521 0.994097
1.00006 1 1.00041 0.999655
0.999441 1 1 0.999441
0.999264 1 1 0.999264
1.00668 0.986559 1.02076 0.999639
1.00392 0.999487 1.00506 0.999371
0.999321 1 1.00005 0.999271
1.00404 1 1.00465 0.999396
1.0041 0.991892 1.01292 0.9994
1.00603 0.997145 1.00939 0.999527
0.94236 0.951943 0.994236 0.995672
0.988317 0.989569 0.999986 0.998749
0.996127 0.996657 0.999735 0.999733
1.00176 0.986231 1.01596 0.99979
0.958716 0.97686 0.983674 0.997714
0.988808 0.990248 1.00017 0.99838
0.974092 0.970981 1.01045 0.992833
0.906338 0.942089 0.96771 0.994152
0.917938 0.943438 0.977782 0.99508
0.981785 0.987804 0.994578 0.999324
0.93832 0.951881 0.989762 0.995951
0.909111 0.931249 0.98185 0.994274
0.974583 0.977174 1.00149 0.995862
0.966916 0.969943 1.00485 0.992066
0.972187 0.994265 0.97836 0.999421
0.916635 0.939229 0.98146 0.99438
0.968054 0.972971 1.00254 0.992426
0.98701 0.98996 1.00137 0.995654
1.01838 0.99995 1.01906 0.99938
0.989738 1 0.990637 0.999092
0.981692 1.00119 0.981634 0.998872
1.00963 1 1.01088 0.998772
1.00225 1.00112 1.00268 0.998451
1.00024 1.00216 0.999428 0.998651
1.0038 1.0001 1.00542 0.998289
0.999316 1.00057 1.00037 0.998371
1.0054 1.00675 1 0.998662
1.00231 1.00222 1.00185 0.998243
1.00195 1.00355 1 0.998401
1.00448 1.0058 1 0.998685
1.00306 1.00436 1 0.998706
0.999564 1.00107 1 0.998499
1.00104 1.00254 1 0.998509
0.998609 1.00002 1 0.998585
0.998699 1.00026 1 0.998437
0.999318 1.00097 1 0.998348
0.99897 1 1 0.99897
0.998875 1 1.00014 0.998737
0.99993 1 1.00148 0.998454
0.999237 1 1 0.999237
0.99908 1 1 0.99908
0.99902 1 1 0.99902
0.99964 1 1 0.99964
0.999307 1 1 0.999307
0.999737 1 1.00061 0.999127
1 1 1 1
0.999761 1 1 0.999761
0.999415 1 1 0.999415
1 1 1 1
1 1 1 1
0.999859 1 1 0.999859
1 1 1 1
1 1 1 1
1 1 1 1
0.999354 1 1 0.999354
0.999369 1 1 0.999369
0.999529 1 1 0.999529
0.99989 1 1 0.99989
0.999577 1 1 0.999577
0.999404 1 1 0.999404
1 1 1 1
0.999909 1 1 0.999909
0.999613 1 1 0.999613
1 1 1 1
1 1 1 1
0.999926 1 1 0.999926
1 1 1 1
1 1 1 1
1 1 1 1
0.941741 0.949934 0.995492 0.995864
0.988608 0.989965 1 0.99863
0.99435 0.993971 1.00084 0.999538
0.999264 1 1 0.999264
0.99924 1 1 0.99924
0.999214 1 1 0.999214
0.999351 1 1 0.999351
0.999304 1 1 0.999304
0.999262 1 1 0.999262
0.999251 1 1 0.999251
0.999217 1 1 0.999217
0.999156 1 1 0.999156
0.999295 1 1 0.999295
0.99929 1 1 0.99929
0.999312 1 1 0.999312
0.906419 0.930296 0.979967 0.994251
0.922167 0.9432 0.982754 0.994858
0.989164 0.989845 1.00189 0.997423
0.875412 0.926449 0.950895 0.993707
0.921785 0.955076 0.97167 0.993283
0.986037 0.980251 1.01286 0.993127
0.984613 0.976523 1.01201 0.996324
0.97622 0.97945 1.0001 0.996606
0.898407 0.931577 0.971013 0.993184
0.971047 0.969465 1.00911 0.992587
0.979678 0.980858 1.00189 0.996914
0.97154 0.973495 1.00598 0.992063
1.00747 1 1.00819 0.999285
0.999901 1 1.00027 0.999634
0.999443 1 1 0.999443
1.00034 0.989708 1.01132 0.999428
1.00434 1 1.00494 0.9994
1.00667 0.998069 1.00918 0.999448
1.00095 1.00067 1.00135 0.998928
0.913008 0.94187 0.975142 0.994068
0.944507 0.951779 0.996276 0.996069
0.988865 0.9899 0.999918 0.999036
0.980142 0.988277 0.992383 0.999381
0.974249 0.976884 1.00048 0.996824
0.938975 0.952533 0.989749 0.995976
0.970766 0.970458 1.00853 0.99186
0.908841 0.934796 0.978713 0.993381
0.975632 0.994769 0.981516 0.999232
0.917116 0.940082 0.98167 0.993786
0.96971 0.972889 1.00477 0.992002
0.98863 0.987018 1.00482 0.996829
0.989981 1.00113 0.989661 0.999198
0.958913 0.972746 0.994205 0.991525
0.992003 0.993908 1.00063 0.997458
0.986097 1 0.986946 0.99914
0.982473 1.00123 0.982393 0.998853
0.982478 1.00308 0.980609 0.998829
1.00212 1.00131 1.00237 0.998448
0.999954 1.00266 0.998648 0.998647
1.00553 1.00935 0.997227 0.998979
0.999362 1.00026 1.00071 0.998385
1.00574 1.00709 1 0.998659
1.00991 1.01101 1 0.998921
1.00188 1.00348 1 0.998406
1.00409 1.00541 1 0.998685
1.00505 1.00619 1 0.998863
1.00299 1.00418 1 0.998814
1.0029 1.00417 1 0.998729
1.00107 1.0024 1 0.998673
0.998939 1.00035 1 0.998586
0.999651 1.00115 1 0.998502
1.0011 1.00257 1 0.998528
0.998779 1 1 0.998779
0.998629 1.00002 1 0.998613
0.998755 1.00029 1 0.998463
0.99916 1 1 0.99916
0.998965 1 1 0.998965
0.998912 1 1.00017 0.99874
0.999546 1 1 0.999546
0.999238 1 1 0.999238
0.999077 1 1 0.999077
0.999994 1 1 0.999994
0.99964 1 1 0.99964
0.999309 1 1 0.999309
1 1 1 1
0.999999 1 1 0.999999
0.999758 1 1 0.999758
1 1 1 1
1 1 1 1
1 1 1 1
0.9993 1 1 0.9993
0.999342 1 1 0.999342
0.999478 1 1 0.999478
0.999372 1 1 0.999372
0.999529 1 1 0.999529
0.999854 1 1 0.999854
1 1 1 1
0.999891 1 1 0.999891
0.999577 1 1 0.999577
1 1 1 1
1 1 1 1
0.999911 1 1 0.999911
1 1 1 1
1 1 1 1
1 1 1 1
0.922256 0.939522 0.987836 0.993711
0.940301 0.95089 0.993228 0.995606
0.987443 0.988785 1 0.998643
0.999254 1 1 0.999254
0.999199 1 1 0.999199
0.999254 1 1 0.999254
0.999184 1 1 0.999184
0.999178 1 1 0.999178
0.99925 1 1 0.99925
0.999215 1 1 0.999215
0.999163 1 1 0.999163
0.999118 1 1 0.999118
0.999169 1 1 0.999169
0.999092 1 1.00026 0.998835
0.999308 1 1 0.999308
0.999312 1 1 0.999312
0.967355 0.977835 0.997985 0.99128
0.91157 0.932008 0.984077 0.993897
0.923211 0.944864 0.982259 0.99473
0.898919 0.931017 0.971278 0.994076
0.975115 0.969728 1.01485 0.99084
0.978466 0.978372 1.00207 0.998026
0.982736 0.983717 1.00134 0.99767
0.970051 0.973958 1.00357 0.992443
0.988316 0.996796 0.994733 0.996742
1.00553 1.00132 1.00564 0.998579
1.00593 1 1.00666 0.99927
0.999613 1 1 0.999613
1.00679 0.999387 1.00804 0.999376
1.00004 1.00101 1.00013 0.998895
0.950698 0.971336 0.986259 0.992389
0.917695 0.941494 0.981026 0.993574
0.947557 0.95183 0.999036 0.996471
0.979371 0.995835 0.984416 0.999037
0.987157 0.985201 1.00632 0.995692
0.917603 0.938949 0.983649 0.99351
0.972874 0.973987 1.00652 0.992383
0.988097 1.00212 0.986815 0.999182
0.961313 0.973866 0.994479 0.992591
0.993943 0.995878 1.00184 0.996226
1.00234 1.00644 0.997149 0.998777
0.994119 0.996918 0.998915 0.998276
0.982779 1.00132 0.982633 0.998835
0.9852 1.00266 0.983778 0.998791
1.00361 1.01612 0.988818 0.998857
0.999837 1.00308 0.998123 0.998642
1.00403 1.00789 0.997202 0.998971
1.01116 1.01532 0.996868 0.999035
1.00601 1.00736 1 0.998656
1.01029 1.01142 0.999984 0.998908
1.00825 1.00934 0.999987 0.998938
1.00374 1.00507 1 0.998684
1.00515 1.00631 1 0.998851
1.00409 1.00525 1 0.99884
1.00306 1.00422 1 0.998842
1.00131 1.00257 1 0.998739
1.00281 1.00406 1 0.998753
1.00104 1.00237 1 0.998669
0.999431 1.00078 1 0.998652
0.998714 1.00002 1 0.998692
0.99891 1.00033 1 0.998581
0.999723 1.00122 1 0.998506
0.999036 1 1 0.999036
0.998799 1 1 0.998799
0.998647 1.00001 1 0.998642
0.999475 1 1 0.999475
0.999156 1 1 0.999156
0.998961 1 1 0.998961
0.999971 1 1 0.999971
0.999547 1 1 0.999547
0.999239 1 1 0.999239
1 1 1 1
0.999989 1 1 0.999989
0.99964 1 1 0.99964
1 1 1 1
0.999998 1 1 0.999998
1 1 1 1
0.999211 1 1 0.999211
0.999301 1 1 0.999301
0.999396 1 1 0.999396
0.999329 1 1 0.999329
0.999463 1 1 0.999463
0.999784 1 1 0.999784
0.999529 1 1 0.999529
0.999856 1 1 0.999856
1 1 1 1
1 1 1 1
1 1 1 1
0.999893 1 1 0.999893
1 1 1 1
1 1 1 1
1 1 1 1
0.964799 0.975645 0.99635 0.992506
0.917082 0.942272 0.978929 0.994216
0.945287 0.95304 0.996152 0.995696
0.999185 1 1 0.999185
0.999268 1 1 0.999268
0.999185 1 1 0.999185
0.999187 1 1 0.999187
0.999075 1 1 0.999075
0.999166 1 1 0.999166
0.99917 1 1 0.99917
0.99908 1 1 0.99908
0.999149 1 1 0.999149
0.99901 1 1 0.99901
1.00045 1.00157 1 0.998879
0.99922 1.00075 1.00011 0.998361
0.999356 1.00043 1.00006 0.99887
0.999321 1 1 0.999321
0.985463 0.993264 0.995198 0.996934
0.966299 0.97548 0.998435 0.99214
0.906112 0.93314 0.977518 0.993368
0.973708 0.973785 1.0081 0.991891
0.979642 0.984517 0.996708 0.998334
0.992052 0.996917 0.997066 0.998048
0.996315 1.00479 0.992802 0.998756
1.00263 1.00067 1.00329 0.998675
1.00488 1 1.00563 0.999254
0.997906 1.00112 0.997932 0.998855
0.981087 0.986386 0.997912 0.996709
0.957914 0.972389 0.992175 0.992883
0.915151 0.940757 0.978232 0.994428
0.987874 1.00328 0.985469 0.999164
0.999487 0.996624 1.00571 0.99718
0.9608 0.974043 0.992661 0.993697
0.99639 1.00501 0.992627 0.99879
0.992641 0.996671 0.998166 0.997787
1.01078 1.01943 0.992886 0.998614
1.00912 1.01443 0.996174 0.998592
0.988166 1.00234 0.987092 0.998753
1.0051 1.01577 0.990629 0.998853
1.01309 1.0186 0.995747 0.998842
1.00274 1.0067 0.997101 0.998964
1.01137 1.01498 0.997419 0.999026
1.00978 1.01212 0.998856 0.998837
1.01068 1.01183 0.999964 0.998894
1.00764 1.00874 0.999982 0.998926
1.00579 1.00706 1 0.998743
1.0052 1.00636 1 0.99884
1.00378 1.00494 1 0.998848
1.00243 1.00374 1 0.998691
1.00309 1.00423 1 0.99887
1.00122 1.00247 1 0.998755
0.999262 1.0006 1 0.998662
1.00099 1.00233 1 0.998664
0.999373 1.00073 1 0.998647
0.99871 1 1 0.99871
0.998899 1 1 0.998899
0.998717 1.00001 1 0.99871
0.998878 1.0003 1 0.998575
0.999382 1 1 0.999382
0.999035 1 1 0.999035
0.998819 1 1 0.998819
0.999932 1 1 0.999932
0.999475 1 1 0.999475
0.999153 1 1 0.999153
1 1 1 1
0.999962 1 1 0.999962
0.999549 1 1 0.999549
1 1 1 1
0.999983 1 1 0.999983
1 1 1 1
0.999113 1 1 0.999113
0.999221 1 1 0.999221
0.999322 1 1 0.999322
0.999302 1 1 0.999302
0.999386 1 1 0.999386
0.99969 1 1 0.99969
0.999448 1 1 0.999448
0.999786 1 1 0.999786
1 1 1 1
0.999857 1 1 0.999857
1 1 1 1
1 1 1 1
1 1 1 1
1 1 1 1
1 1 1 1
0.978386 0.986272 0.994969 0.997021
0.958735 0.973138 0.992866 0.992279
0.914696 0.941758 0.977676 0.993442
0.998922 1 1 0.998922
0.999193 1 1 0.999193
0.999191 1 1 0.999191
0.999159 1 1 0.999159
0.999068 1 1 0.999068
0.99917 1 1 0.99917
0.999042 1 1 0.999042
0.999129 1 1 0.999129
0.999043 1 1 0.999043
0.999823 1.00093 1 0.998892
1.00053 1.00205 1 0.998481
1.00385 1.00579 0.999965 0.998115
0.999695 1.00123 1.00013 0.998341
0.999745 1.00084 1 0.998905
1.00083 1.00645 0.995337 0.999069
0.986948 0.994879 0.995634 0.99638
0.96995 0.977289 0.999349 0.993138
0.991904 0.996611 0.998291 0.996981
1.00139 1.00655 0.996016 0.998856
1.00128 1.0002 1.00231 0.998773
1.00525 1.00668 0.999809 0.99877
0.98086 0.985341 0.997787 0.99766
0.955609 0.972542 0.990081 0.992433
0.989804 1.00315 0.987885 0.998801
0.991834 0.996258 0.998319 0.997236
1.0108 1.01978 0.99258 0.99861
1.00878 1.01251 0.997625 0.998683
1.0185 1.02343 0.996602 0.998577
1.01284 1.01541 0.998948 0.998514
1.00639 1.01512 0.992543 0.998848
1.01427 1.01971 0.995804 0.998852
1.00814 1.01116 0.998309 0.998696
1.01147 1.01454 0.99795 0.999017
1.01086 1.01287 0.999172 0.998834
1.00666 1.00813 0.999933 0.998604
1.00707 1.00818 0.99998 0.998914
1.00561 1.00685 1 0.998763
1.00444 1.00589 1 0.99856
1.0035 1.00465 1 0.998856
1.00223 1.00354 1 0.998692
1.00007 1.00148 1 0.998596
1.00114 1.00237 1 0.998771
0.99943 1.00076 1 0.998668
0.998669 1 1 0.998665
0.999319 1.00068 1 0.998642
0.998697 1 1 0.998697
0.998853 1 1 0.998853
0.999281 1 1 0.999281
0.998919 1 1 0.998919
0.998729 1 1 0.998729
0.999879 1 1 0.999879
0.999381 1 1 0.999381
0.999034 1 1 0.999034
1 1 1 1
0.999923 1 1 0.999923
0.999474 1 1 0.999474
1 1 1 1
0.999952 1 1 0.999952
1 1 1 1
0.998964 1 1 0.998964
0.999115 1 1 0.999115
0.999243 1 1 0.999243
0.999231 1 1 0.999231
0.999328 1 1 0.999328
0.999601 1 1 0.999601
0.999377 1 1 0.999377
0.99969 1 1 0.99969
0.999996 1 1 0.999996
0.999787 1 1 0.999787
1 1 1 1
1 1 1 1
1 1 1 1
1 1 1 1
1 1 1 1
1.00609 1.01004 0.996962 0.99912
0.97838 0.987405 0.994903 0.995936
0.962528 0.972576 0.997016 0.992631
0.998975 1 1 0.998975
0.999133 1.00047 1 0.998662
0.998944 1 1 0.998944
0.999153 1 1 0.999153
0.99906 1 1 0.99906
0.999137 1 1 0.999137
1.00116 1.00256 1 0.998606
0.999077 1 1 0.999077
0.999044 1.00014 1 0.998905
1.00062 1.00211 1 0.998513
1.004 1.00588 1 0.998133
1.01041 1.01264 0.999374 0.998419
1.00268 1.00461 0.999957 0.99812
1.0001 1.00178 1 0.998322
1.00374 1.00906 0.995605 0.999121
0.985466 0.994049 0.995646 0.995702
1.00436 1.00773 0.997706 0.998956
1.01128 1.01248 0.999885 0.998923
1.00354 1.00539 0.99934 0.998823
0.977604 0.98512 0.995934 0.996422
1.01078 1.02039 0.991963 0.998607
1.00769 1.0105 0.998439 0.998774
1.01796 1.02357 0.995899 0.998612
1.0145 1.0168 0.999196 0.998537
1.00967 1.01351 0.997631 0.998578
1.01579 1.01713 1 0.998681
1.01539 1.02095 0.995683 0.998861
1.00808 1.01127 0.998136 0.998701
1.0082 1.01056 0.999149 0.998514
1.01186 1.01355 0.9995 0.998832
1.00659 1.00802 0.999977 0.99861
1.00674 1.00829 1 0.998461
1.0054 1.00662 1 0.998783
1.00427 1.00572 1 0.998558
1.0019 1.00342 1 0.998485
1.00201 1.00332 1 0.998692
1.00035 1.00175 1 0.998595
0.998717 1.00012 1 0.998595
0.999599 1.00093 1 0.998673
0.998683 1.00002 1 0.998666
0.998798 1 1 0.998798
0.998684 1 1 0.998684
0.998846 1 1 0.998846
0.999203 1 1 0.999203
0.999826 1 1 0.999826
0.999281 1 1 0.999281
0.998939 1 1 0.998939
1 1 1 1
0.99987 1 1 0.99987
0.99938 1 1 0.99938
1 1 1 1
0.999913 1 1 0.999913
1 1 1 1
0.998748 1 1 0.998748
0.998943 1 1 0.998943
0.999113 1 1 0.999113
0.999118 1 1 0.999118
0.999245 1 1 0.999245
0.999522 1 1 0.999522
0.999334 1 1 0.999334
0.9996 1 1 0.9996
0.999976 1 1 0.999976
0.99969 1 1 0.99969
0.999998 1 1 0.999998
1 1 1 1
1 1 1 1
1 1 1 1
1 1 1 1
1.01014 1.01234 0.999064 0.998767
1.00512 1.00926 0.996894 0.999003
0.977756 0.986214 0.994734 0.996672
1.00141 1.00279 1 0.99862
0.999092 1 1 0.999092
1.00213 1.00366 1 0.998484
0.999011 1.00036 1 0.998649
0.998965 1 1 0.998965
1.00811 1.00988 1 0.998242
0.999105 1 1 0.999105
1.00114 1.00257 1 0.998571
1.00986 1.01162 1 0.998264
1.00072 1.00218 1 0.998545
1.00465 1.00656 1 0.99811
1.00847 1.01056 0.99951 0.99842
1.00113 1.00301 1 0.998125
1.00602 1.01099 0.995904 0.999176
1.01532 1.01655 1 0.998787
1.01115 1.01248 0.999772 0.998919
1.0024 1.00409 0.999444 0.998874
1.01767 1.0239 0.995267 0.998646
1.01615 1.01821 0.999412 0.99856
1.01029 1.01392 0.997835 0.998586
1.01628 1.01764 0.999981 0.99869
1.0147 1.01613 1 0.998592
1.00805 1.01138 0.998003 0.998706
1.00835 1.01034 0.999506 0.998519
1.00939 1.01098 1 0.998432
1.00654 1.00794 1 0.998616
1.00636 1.00791 1 0.998453
1.00447 1.00609 1 0.998391
1.00411 1.00556 1 0.998557
1.00206 1.00358 1 0.998483
0.999055 1.00056 1 0.998501
1.00062 1.00203 1 0.998595
0.998812 1.00022 1 0.998595
0.998717 1 1 0.998717
0.998696 1.00003 1 0.998667
0.9988 1 1 0.9988
0.999133 1 1 0.999133
0.998839 1 1 0.998839
0.999202 1 1 0.999202
0.999804 1 1 0.999804
0.999972 1 1 0.999972
0.999825 1 1 0.999825
0.99928 1 1 0.99928
1 1 1 1
0.99986 1 1 0.99986
1 1 1 1
1.00294 1.00443 1 0.998524
0.998898 1.00026 1 0.998641
0.998727 1 1 0.998727
0.998982 1 1 0.998982
0.998921 1 1 0.998921
0.999117 1 1 0.999117
0.99944 1 1 0.99944
0.999247 1 1 0.999247
0.999522 1 1 0.999522
0.999937 1 1 0.999937
0.9996 1 1 0.9996
0.999983 1 1 0.999983
1 1 1 1
1 1 1 1
1 1 1 1
1 1 1 1
1.01386 1.01531 1 0.99858
1.01356 1.01545 0.999306 0.998831
1.00542 1.00962 0.996959 0.998885
1.00758 1.00926 1 0.998331
1.00058 1.00189 1 0.998692
0.999208 1 1 0.999208
1.00243 1.00393 1 0.998509
0.998857 1.00022 1 0.998637
1.01412 1.01591 1 0.998231
1.00773 1.00954 1 0.998212
1.00118 1.00264 1 0.998536
1.01048 1.01224 1 0.998256
1.00601 1.00794 1 0.998087
1.0084 1.01045 0.999555 0.998422
1.01759 1.01894 1 0.998674
1.01553 1.01677 1 0.998782
1.01146 1.01279 0.999778 0.998916
1.01088 1.01429 0.998039 0.998594
1.01708 1.01842 0.999976 0.998699
1.01499 1.01665 0.999763 0.998605
1.01443 1.01598 1 0.998477
1.00853 1.01017 0.999856 0.998525
1.00887 1.01046 1 0.998428
1.00769 1.00934 1 0.998363
1.00597 1.00754 1 0.998444
1.00449 1.00611 1 0.998391
1 1.00159 1 0.998417
1.00221 1.00373 1 0.998481
0.99929 1.00079 1 0.998499
0.998629 1 1 0.998629
0.998908 1.00031 1 0.998595
0.998717 1 1 0.998717
0.999052 1 1 0.999052
0.998801 1 1 0.998801
0.999132 1 1 0.999132
0.999787 1 1 0.999787
0.999201 1 1 0.999201
0.999799 1 1 0.999799
0.999967 1 1 0.999967
0.999986 1 1 0.999986
0.999824 1 1 0.999824
1 1 1 1
1.0053 1.00696 1 0.998352
0.999088 1.00046 1 0.998632
1.00252 1.00391 1 0.998613
0.998851 1 1 0.998851
0.998996 1.00036 1 0.998638
0.998705 1 1 0.998705
0.998983 1 1 0.998983
0.999339 1 1 0.999339
0.999121 1 1 0.999121
0.999442 1 1 0.999442
0.999892 1 1 0.999892
0.999523 1 1 0.999523
0.999949 1 1 0.999949
1 1 1 1
0.99999 1 1 0.99999
1 1 1 1
1 1 1 1
1.01612 1.01769 1 0.998457
1.01326 1.0147 1 0.998578
1.01521 1.01684 0.999507 0.998894
1.01217 1.01394 1 0.998251
1.00727 1.00895 1 0.998334
0.999776 1.00101 1 0.998764
1.00273 1.0042 1 0.998533
1.01378 1.01558 1 0.998225
1.00719 1.00903 1 0.998182
1.00959 1.01136 1 0.998249
1.01579 1.01729 1 0.998533
1.01726 1.01864 1 0.998644
1.01525 1.01649 1 0.998776
1.01458 1.01618 1 0.998428
1.01514 1.01703 0.999519 0.998618
1.01434 1.01589 1 0.998477
1.01102 1.01265 1 0.998394
1.00836 1.00995 1 0.998424
1.00777 1.00942 1 0.998365
1.00208 1.00372 1 0.998366
1.00448 1.0061 1 0.99839
1.00043 1.00202 1 0.998418
0.998568 1.00001 1 0.998554
0.999522 1.00103 1 0.998498
0.998629 1 1 0.998629
0.998971 1 1 0.998971
0.998717 1 1 0.998717
0.99905 1 1 0.99905
0.999768 1 1 0.999768
0.99913 1 1 0.99913
0.999782 1 1 0.999782
0.999966 1 1 0.999966
0.999794 1 1 0.999794
0.999968 1 1 0.999968
1 1 1 1
1.0069 1.00866 1 0.998254
1.00036 1.00192 1 0.998448
1.00533 1.00696 1 0.998382
0.998786 1 1 0.998786
0.999121 1.00049 1 0.99863
1.00211 1.00342 1 0.9987
0.999207 1 1 0.999207
0.998848 1 1 0.998848
0.999103 1.00047 1 0.998634
0.998984 1 1 0.998984
0.999341 1 1 0.999341
0.999839 1 1 0.999839
0.999443 1 1 0.999443
0.999902 1 1 0.999902
1 1 1 1
0.99996 1 1 0.99996
1 1 1 1
1 1 1 1
1.01435 1.01599 1 0.998389
1.01623 1.01782 1 0.998439
1.01382 1.01527 1 0.998576
1.01195 1.01373 1 0.998252
1.00696 1.00864 1 0.998337
1.01374 1.01555 1 0.99822
1.01387 1.01547 1 0.998428
1.01591 1.01741 1 0.99853
1.01703 1.01844 1 0.998613
1.01489 1.01648 1 0.998435
1.01187 1.01352 1 0.998369
1.01422 1.01577 1 0.998477
1.01107 1.0127 1 0.998386
1.00437 1.00602 1 0.99836
1.00785 1.0095 1 0.998367
1.00236 1.004 1 0.998368
0.998803 1.00032 1 0.998488
1.00087 1.00246 1 0.998418
0.998631 1.00008 1 0.998554
0.99891 1 1 0.99891
0.998628 1 1 0.998628
0.998969 1 1 0.998969
0.999743 1 1 0.999743
0.999048 1 1 0.999048
0.999762 1 1 0.999762
0.99996 1 1 0.99996
0.999777 1 1 0.999777
0.999968 1 1 0.999968
0.999969 1 1 0.999969
1.00952 1.01119 1 0.99835
1.00134 1.00302 1 0.998321
1.00696 1.00873 1 0.998251
0.998635 1 1 0.998635
1.00012 1.00166 1 0.99846
1.00532 1.00692 1 0.998414
0.999087 1 1 0.999087
0.998751 1 1 0.998751
0.999155 1.00053 1 0.998627
0.999781 1 1 0.999781
0.999209 1 1 0.999209
0.998846 1 1 0.998846
0.999343 1 1 0.999343
0.999848 1 1 0.999848
1 1 1 1
0.999912 1 1 0.999912
1 1 1 1
1 1 1 1
1.01264 1.01429 1 0.998369
1.01419 1.01583 1 0.998386
1.01613 1.01773 1 0.998421
1.01172 1.01349 1 0.998253
1.01216 1.01384 1 0.998343
1.01435 1.01594 1 0.998434
1.01606 1.01756 1 0.998526
1.01516 1.01674 1 0.998442
1.01179 1.01344 1 0.998373
1.0054 1.00705 1 0.998358
1.01112 1.01276 1 0.998378
1.00437 1.00601 1 0.998363
0.999521 1.00109 1 0.998437
1.00262 1.00426 1 0.99837
0.999022 1.00053 1 0.998489
0.998854 1 1 0.998854
0.998696 1.00014 1 0.998553
0.998909 1 1 0.998909
0.999693 1 1 0.999693
0.998968 1 1 0.998968
0.999727 1 1 0.999727
1 1 1 1
0.999756 1 1 0.999756
0.999964 1 1 0.999964
0.999969 1 1 0.999969
1.00944 1.01109 1 0.998374
1.00231 1.00397 1 0.998349
1.00946 1.01112 1 0.998352
0.99873 1.00025 1 0.998479
1.00115 1.00281 1 0.998338
1.00705 1.00882 1 0.998248
0.998929 1 1 0.998929
0.998634 1 1 0.998634
0.999912 1.00144 1 0.998472
0.999734 1 1 0.999734
0.999057 1 1 0.999057
0.998717 1 1 0.998717
1 1 1 1
0.999791 1 1 0.999791
0.999211 1 1 0.999211
0.999856 1 1 0.999856
1 1 1 1
1 1 1 1
1.01135 1.01303 1 0.998347
1.01307 1.01471 1 0.998377
1.01403 1.01567 1 0.998383
1.00598 1.00768 1 0.998313
1.01161 1.01329 1 0.998342
1.01484 1.01642 1 0.99844
1.01173 1.01337 1 0.998376
1.00543 1.00708 1 0.998358
1.00027 1.00182 1 0.998452
1.00436 1.00601 1 0.998366
0.999727 1.00126 1 0.998465
0.998743 1 1 0.998743
0.999249 1.00076 1 0.99849
0.998854 1 1 0.998854
0.999653 1 1 0.999653
0.998908 1 1 0.998908
0.99969 1 1 0.99969
1 1 1 1
0.999709 1 1 0.999709
0.999978 1 1 0.999978
0.999967 1 1 0.999967
1.00778 1.00942 1 0.998372
1.00251 1.00414 1 0.998385
1.0094 1.01104 1 0.998375
0.998932 1.00045 1 0.998486
1.00255 1.0042 1 0.99835
1.00941 1.01107 1 0.998354
0.998839 1 1 0.998839
0.998698 1.00018 1 0.998516
1.00093 1.00258 1 0.998355
0.999704 1 1 0.999704
0.998917 1 1 0.998917
0.998632 1 1 0.998632
1 1 1 1
0.999742 1 1 0.999742
0.999028 1 1 0.999028
1 1 1 1
0.999801 1 1 0.999801
1 1 1 1
1.0057 1.00737 1 0.998336
1.011 1.01267 1 0.998346
1.01354 1.01518 1 0.998386
0.999929 1.00151 1 0.998419
1.00596 1.00765 1 0.998319
1.0111 1.01278 1 0.998342
1.00546 1.00712 1 0.998358
1.00026 1.00181 1 0.998451
0.998691 1 1 0.998691
0.999924 1.00143 1 0.998494
0.99877 1 1 0.99877
0.999594 1 1 0.999594
0.998854 1 1 0.998854
0.99965 1 1 0.99965
1 1 1 1
0.999688 1 1 0.999688
1 1 1 1
0.99996 1 1 0.99996
1.00275 1.00436 1 0.998396
1.00781 1.00945 1 0.998372
0.998779 1.00029 1 0.998486
1.00252 1.00414 1 0.998385
1.00934 1.01098 1 0.998376
0.998844 1 1 0.998844
0.998907 1.00042 1 0.998483
1.00278 1.00443 1 0.998352
0.999678 1 1 0.999678
0.998859 1 1 0.998859
0.998656 1.0001 1 0.998552
1 1 1 1
0.999709 1 1 0.999709
0.998906 1 1 0.998906
1 1 1 1
0.99975 1 1 0.99975
1 1 1 1
0.999529 1.00108 1 0.998448
1.00556 1.00723 1 0.998337
1.01056 1.01224 1 0.998346
0.998672 1 1 0.998672
0.999926 1.00151 1 0.998419
1.00589 1.00758 1 0.998325
1.00025 1.0018 1 0.998451
0.998696 1 1 0.998696
0.999541 1 1 0.999541
0.998798 1 1 0.998798
0.999591 1 1 0.999591
1 1 1 1
0.999647 1 1 0.999647
1 1 1 1
1 1 1 1
0.998748 1.00028 1 0.998472
1.0026 1.00421 1 0.998392
1.00784 1.00948 1 0.998372
0.998819 1 1 0.998819
0.998861 1.00038 1 0.998484
1.00251 1.00414 1 0.998384
0.999647 1 1 0.999647
0.998843 1 1 0.998843
0.998893 1.00041 1 0.998481
1 1 1 1
0.999681 1 1 0.999681
0.998879 1 1 0.998879
1 1 1 1
0.999714 1 1 0.999714
1 1 1 1
0.998733 1 1 0.998733
0.999509 1.00109 1 0.99842
1.00545 1.00712 1 0.998339
0.999523 1 1 0.999523
0.998673 1 1 0.998673
0.999925 1.00151 1 0.998419
0.998701 1 1 0.998701
0.99954 1 1 0.99954
1 1 1 1
0.999587 1 1 0.999587
1 1 1 1
1 1 1 1
0.998779 1 1 0.998779
0.998751 1.00029 1 0.998461
1.00246 1.00408 1 0.998387
0.999656 1 1 0.999656
0.998818 1 1 0.998818
0.998945 1.00046 1 0.998483
1 1 1 1
0.999648 1 1 0.999648
0.998842 1 1 0.998842
1 1 1 1
0.999684 1 1 0.999684
1 1 1 1
0.999523 1 1 0.999523
0.998712 1 1 0.998712
0.99949 1.0011 1 0.998392
1 1 1 1
0.999522 1 1 0.999522
0.998674 1 1 0.998674
0.999538 1 1 0.999538
1 1 1 1
1 1 1 1
0.999611 1 1 0.999611
0.99878 1 1 0.99878
0.998749 1.0003 1 0.998451
1 1 1 1
0.999613 1 1 0.999613
0.998816 1 1 0.998816
1 1 1 1
0.99965 1 1 0.99965
1 1 1 1
0.999887 1 1 0.999887
0.999562 1 1 0.999562
0.998691 1 1 0.998691
1 1 1 1
0.999522 1 1 0.999522
1 1 1 1
0.999904 1 1 0.999904
0.999594 1 1 0.999594
0.99878 1 1 0.99878
0.999958 1 1 0.999958
0.999611 1 1 0.999611
1 1 1 1
1 1 1 1
0.999535 1 1 0.999535
1 1 1 1
0.999948 1 1 0.999948
0.99957 1 1 0.99957
1 1 1 1
1 1 1 1
1 1 1 1

VECTORS lamdaE float
0.999489 1.00026 0.995905
0.999442 0.999891 0.998275
0.999303 1.00045 0.996017
0.999801 0.999919 0.99583
0.999596 1.0001 0.995955
0.999404 1.00019 0.996002
1.00056 1.00066 0.993378
0.999427 0.999767 0.998329
0.999447 1.00031 0.998268
0.999141 1.00035 0.998397
0.999487 0.999474 0.99665
1.00024 1.00091 0.993321
0.999914 1.00001 0.995493
0.999617 0.999925 0.995859
0.999127 1.00069 0.996107
0.999657 0.999893 0.99597
0.999258 1.00038 0.996101
0.999422 1.0002 0.99607
1.00066 1.00056 0.993341
0.999883 0.999999 0.997942
0.999852 0.999966 0.995675
0.999725 0.999947 0.995925
1.00105 0.999913 0.993281
1.0008 1.00024 0.993398
0.999411 0.999746 0.996363
1.00019 1.00106 0.993555
1.00267 1.00069 0.989698
0.999397 0.999651 0.998394
0.999548 1.00018 0.997025
0.999271 1.00028 0.997203
0.999442 0.999297 0.9985
1.00013 1.00103 0.993333
0.999797 0.999907 0.995746
0.999527 1.00045 0.995848
1.00112 1.00023 0.993542
0.999333 0.998691 0.998862
1.00057 1.0008 0.993928
1.00001 1.00079 0.993838
1.00137 1.00205 0.990167
0.999422 0.998026 0.999081
0.999912 1.00001 0.997911
0.99973 0.999977 0.996923
0.999932 1 0.997887
0.999624 1.00001 0.995821
1.00138 1.00006 0.992029
0.999652 0.99997 0.998217
1.00135 1.00001 0.99333
0.999512 0.999842 0.99611
0.99926 1.00032 0.99617
0.999083 1.00064 0.996214
1.00076 1.00044 0.993315
0.99981 1.00001 0.99682
0.999702 0.99995 0.995833
0.999286 0.999881 0.996462
0.999571 0.999967 0.996052
1.00111 0.999875 0.993228
1.00028 1.00098 0.993543
1.00089 1.00015 0.993355
1.00268 1.00073 0.989665
0.999895 1 0.99792
0.999917 1.00001 0.995525
1.00126 1 0.993403
1.0011 0.999974 0.993108
1.00097 0.999973 0.993354
1.00331 0.999818 0.989368
1.00304 1.00007 0.98934
0.999526 0.999018 0.996863
0.999663 1.00116 0.994253
1.0019 1.00154 0.990158
1.00377 1.00047 0.987343
0.999655 1.00018 0.998086
0.999415 0.999093 0.998624
0.999383 1.00007 0.998249
1.00005 1.00111 0.993344
0.999814 1.00002 0.998055
0.99955 1.00032 0.998117
1.00102 1.00019 0.992471
0.999384 0.998772 0.998015
1.00039 1.0009 0.992963
0.999911 1.0008 0.994404
1.00137 1.00201 0.990164
0.999449 0.998349 0.998917
0.999587 0.999318 0.996075
1.00126 0.999925 0.992373
1.00085 1.00053 0.992568
1.00328 1.0002 0.988449
0.999747 1.00034 0.995551
1.00206 1.00139 0.989554
1.00075 1.00258 0.990798
1.00208 1.00232 0.988487
0.999444 0.9977 0.999187
0.999392 0.997965 0.999122
0.99985 0.999968 0.998009
0.999892 1 0.997935
0.999934 1 0.997895
0.999749 0.999997 0.996879
1.00138 1.00004 0.992641
0.999737 0.999953 0.996953
1.00131 1.00004 0.992802
0.999943 1 0.997888
1.00137 0.999996 0.992059
1.00137 1.00008 0.993249
1.00367 0.999874 0.988069
1.00132 0.999934 0.993432
1.00357 0.999896 0.988251
0.999892 1.00002 0.995543
0.999546 0.999911 0.995994
0.999155 1.00001 0.996585
0.99942 0.999981 0.996172
1.00118 0.999864 0.993176
1.00098 1.00006 0.993319
1.0004 1.00084 0.993525
1.00269 1.00077 0.989633
0.999927 1 0.997901
0.999753 1 0.99569
1.00134 0.999992 0.992439
1.00117 0.999945 0.993055
0.999426 0.9991 0.997733
0.999857 1.00105 0.994386
1.00104 0.999925 0.993307
1.00333 0.999799 0.989233
1.00196 1.00161 0.990061
1.00304 1.00014 0.989443
1.00373 1.00049 0.987363
1.00135 1.00002 0.992089
1.00121 0.999988 0.992901
1.00363 0.999774 0.988567
1.00337 0.999829 0.988957
1.00326 0.9998 0.989208
1.00445 0.99949 0.987343
0.999492 0.998539 0.998812
1.00412 0.999852 0.987312
0.999685 1.00078 0.99435
1.00087 1.00229 0.990681
1.00306 1.00172 0.987497
1.00449 0.999975 0.986515
0.999714 0.999871 0.995215
1.00015 1.00186 0.992509
0.999785 1.00005 0.998061
0.999466 1.00025 0.998157
1.00102 1.00017 0.99248
0.99941 0.998599 0.998854
0.999777 1.00095 0.993995
1.00031 1.00097 0.992965
1.00137 1.00198 0.990161
0.999409 0.998291 0.998978
0.999593 0.999244 0.996112
1.00126 0.999957 0.99293
1.00079 1.00054 0.99316
1.00328 1.0002 0.988452
0.999686 1.00033 0.994865
1.00204 1.00137 0.989571
1.00071 1.00258 0.990801
1.00209 1.00232 0.988423
0.999599 0.999858 0.995506
0.999672 0.998785 0.996471
1.00002 1.00131 0.993295
1.00351 0.999968 0.988274
1.00274 1.00077 0.988876
1.00439 0.999997 0.986616
1.0004 1.00243 0.991574
1.00295 1.00141 0.987733
1.00133 1.00335 0.989045
1.0023 1.00251 0.987966
0.999523 0.997399 0.999238
0.999438 0.997643 0.999206
0.999368 0.997901 0.999157
0.999731 0.999456 0.995616
0.999509 0.998242 0.998937
0.999845 0.999975 0.998036
0.99985 0.999985 0.99798
1.00126 1.00004 0.992261
1.00132 1.00005 0.9921
0.999912 1 0.997906
0.999933 1 0.997888
1.00136 1.00001 0.992059
1.00131 1.00008 0.99273
1.00368 0.999874 0.988068
1.00126 0.999936 0.992329
1.00357 0.9999 0.988248
1.00137 0.999996 0.992047
1.00373 0.999812 0.988021
1.00359 0.999918 0.98819
1.00475 0.999423 0.986581
1.00358 0.999899 0.988229
1.00467 0.999566 0.98662
0.999931 1 0.997888
0.999591 1 0.995858
1.00134 0.999985 0.99155
1.00123 0.999938 0.993
0.999257 0.99911 0.99871
1.00007 1.00092 0.99451
1.00111 0.999888 0.993262
1.00334 0.999769 0.989099
1.00304 1.00021 0.989547
1.00203 1.00171 0.989965
1.0037 1.00051 0.987384
1.00135 1 0.992086
1.00127 0.999993 0.992837
1.00363 0.99976 0.988292
1.0034 0.999866 0.989049
0.999487 0.998611 0.998766
0.999776 1.00068 0.99474
1.00098 1.00233 0.99079
1.00325 0.999839 0.989201
1.00445 0.999408 0.987208
1.00294 1.00172 0.987491
1.00412 0.999892 0.987421
1.00445 0.999984 0.986535
0.999702 0.999921 0.995205
1.00018 1.0018 0.99251
1.00372 0.999787 0.988063
1.00357 0.999829 0.988638
1.00472 0.99944 0.986904
1.00451 0.999405 0.986918
1.00436 0.999535 0.987383
1.00496 0.99893 0.986804
0.999702 1.00031 0.994771
1.00475 0.999241 0.986721
1.00042 1.00245 0.991362
1.00175 1.00278 0.988392
1.00381 1.00165 0.986505
1.00486 0.999174 0.986598
1.00026 1.00215 0.992049
1.00014 1.00132 0.993056
1.00043 1.00283 0.991089
1.0012 0.999939 0.992408
0.999372 0.998231 0.999035
0.999595 0.999169 0.996149
1.00066 1.00063 0.992666
1.00329 1.00019 0.988455
0.999655 1.00035 0.994817
1.00067 1.00258 0.990805
1.00202 1.00136 0.989589
1.0021 1.00229 0.98836
0.9996 0.999787 0.995535
0.999666 0.998749 0.996493
0.999983 1.00135 0.993308
1.0035 0.99998 0.988276
1.00274 1.00076 0.988892
1.00442 0.99999 0.986601
1.00035 1.00246 0.991581
1.00299 1.00144 0.987755
1.0013 1.00334 0.98903
1.00231 1.00246 0.987954
0.99977 0.998404 0.996669
1.00019 1.00192 0.992383
0.999972 1.00057 0.994115
1.00018 1.00262 0.991754
1.0046 0.999738 0.986532
1.00381 1.0007 0.986998
1.00496 0.999754 0.985849
1.00076 1.00346 0.989978
1.0035 1.00121 0.987125
1.00146 1.00405 0.987922
1.00269 1.00203 0.987571
1.00024 0.999489 0.994742
0.999936 0.997973 0.996784
0.999626 0.997137 0.999262
0.999532 0.997343 0.999246
0.999436 0.997575 0.999223
0.999784 0.99909 0.995897
0.999515 0.997997 0.999029
0.999722 0.999511 0.995594
0.999522 0.998287 0.998895
1.00126 0.999949 0.992326
1.00127 1.00006 0.992185
1.00357 0.999904 0.988245
1.00368 0.999874 0.988067
1.00137 1.00002 0.992059
0.999945 1 0.997884
1.00138 0.999998 0.992047
1.00373 0.999817 0.98802
1.00359 0.999924 0.988189
1.00475 0.999426 0.986574
1.00357 0.999912 0.988223
1.00466 0.999568 0.986616
1.00374 0.999799 0.988029
1.0048 0.999332 0.986584
1.00467 0.999545 0.98662
1.00511 0.998749 0.986593
1.00469 0.999593 0.986541
1.00506 0.999015 0.986407
1.00136 0.999988 0.992082
1.00134 0.999985 0.992771
1.00363 0.999735 0.988019
1.00343 0.999892 0.989141
0.999486 0.998685 0.998716
0.999876 1.00064 0.995082
1.00113 1.00235 0.990897
1.00324 0.99987 0.989193
1.00445 0.999322 0.987073
1.00412 0.999932 0.98753
1.00282 1.00172 0.987485
1.00442 0.999991 0.986555
0.999694 0.999971 0.995194
1.00021 1.00173 0.992511
1.00371 0.999756 0.987982
1.00358 0.999818 0.988628
1.00472 0.999396 0.986889
1.00452 0.999474 0.98705
0.999722 1.00032 0.994771
1.0005 1.00244 0.991345
1.00173 1.00278 0.988558
1.00436 0.999575 0.9874
1.00495 0.998845 0.98681
1.00375 1.0016 0.986374
1.00475 0.999248 0.986727
1.00487 0.999168 0.986555
1.00028 1.00209 0.992059
1.00039 1.00283 0.991107
1.00015 1.00131 0.993045
1.00477 0.999404 0.986821
1.0047 0.99943 0.98686
1.00513 0.99883 0.986596
1.005 0.998905 0.98663
1.0049 0.998873 0.98679
1.00513 0.998181 0.987139
1.00031 1.00229 0.991782
1.00503 0.9986 0.986825
1.00103 1.00294 0.989867
1.00235 1.00332 0.986789
1.0043 1.00103 0.986043
1.0051 0.998571 0.986851
1.00016 1.00088 0.993479
1.00059 1.00263 0.99098
1.00027 1.00269 0.991434
1.00058 1.00308 0.990666
1.0035 0.999988 0.988277
0.999656 0.998723 0.996516
0.999604 0.999715 0.995563
0.999972 1.00138 0.993321
1.00273 1.00075 0.988909
1.00443 0.999984 0.986586
1.00029 1.00251 0.991588
1.00128 1.00336 0.989014
1.00304 1.00147 0.987778
1.00231 1.00243 0.987943
0.999763 0.998393 0.996676
1.00017 1.00197 0.992384
0.999981 1.00054 0.994134
1.00015 1.00269 0.991744
1.0046 0.999736 0.986524
1.00381 1.00071 0.987003
1.00495 0.999759 0.985835
1.00073 1.00345 0.989997
1.00353 1.00125 0.987157
1.0015 1.00414 0.987872
1.00262 1.00181 0.987948
0.999863 0.998148 0.996748
1.00006 0.999991 0.994554
1.00045 1.00306 0.990908
1.00014 1.00185 0.992603
1.0001 1.00365 0.990909
1.00503 0.999434 0.986038
1.00444 1.00044 0.986141
1.00509 0.999496 0.985841
1.00088 1.00457 0.988636
1.0037 1.00092 0.98698
1.00192 1.00355 0.987076
1.0002 0.999558 0.994739
1.00025 1.00056 0.993687
1.00027 0.999454 0.99472
1.00023 0.999505 0.994738
0.99998 0.997789 0.997295
0.999923 0.997962 0.997028
0.999784 0.996954 0.998311
0.999639 0.997094 0.999267
0.999544 0.997291 0.999255
0.999845 0.998811 0.996078
0.999551 0.997779 0.999085
0.999779 0.999137 0.995878
0.999532 0.998034 0.999001
0.999714 0.999565 0.995572
0.999537 0.998337 0.998852
1.00358 0.99992 0.988217
1.00359 0.99993 0.988188
1.00464 0.999579 0.986611
1.00475 0.999428 0.986567
1.00373 0.999822 0.988018
1.00137 1 0.992046
1.00374 0.999796 0.988029
1.00479 0.999334 0.986583
1.00466 0.999558 0.986612
1.00512 0.998691 0.986656
1.00468 0.999592 0.986536
1.00506 0.999036 0.986402
1.00479 0.999315 0.986599
1.00512 0.998598 0.986751
1.00507 0.998878 0.986526
1.00515 0.998036 0.987256
1.00507 0.999177 0.986223
1.00515 0.997991 0.987255
1.0037 0.999726 0.987902
1.00359 0.999817 0.988618
1.00473 0.999357 0.986875
1.00454 0.999545 0.987182
0.999745 1.00033 0.99477
1.00054 1.00245 0.991329
1.00172 1.00278 0.988723
1.00436 0.999616 0.987417
1.00495 0.998762 0.986816
1.00474 0.999255 0.986734
1.00368 1.00155 0.986242
1.00487 0.999157 0.986512
1.00029 1.00203 0.99207
1.00037 1.00281 0.991124
1.00016 1.00131 0.993033
1.00478 0.999372 0.986717
1.0047 0.99942 0.986853
1.00512 0.998733 0.986644
1.00501 0.998937 0.986643
1.00035 1.00226 0.991781
1.0011 1.00292 0.989833
1.00223 1.0034 0.987018
1.0049 0.998965 0.986802
1.00512 0.998059 0.987254
1.00428 1.00096 0.985913
1.00502 0.998602 0.986843
1.00508 0.998528 0.986892
1.00062 1.00264 0.990988
1.00058 1.00311 0.990617
1.00016 1.00089 0.99347
1.00024 1.00264 0.991512
1.00512 0.998736 0.98662
1.00512 0.998869 0.98664
1.00519 0.998207 0.986993
1.00516 0.99786 0.987397
1.00509 0.998225 0.987157
1.00516 0.997297 0.987931
1.00077 1.00259 0.9907
1.00512 0.997808 0.987429
1.00112 1.0038 0.988536
1.00302 1.00348 0.985757
1.00481 1.00003 0.985986
1.00515 0.99826 0.987029
1.00018 1.00058 0.993757
1.0002 1.00228 0.991952
1.00072 1.00284 0.990568
1.00034 1.00326 0.990864
1.0007 1.00297 0.990533
0.999756 0.998384 0.996683
1.0046 0.999735 0.986516
0.999992 1.0005 0.994154
1.00013 1.00204 0.992386
1.00011 1.00276 0.991735
1.00381 1.00071 0.987007
1.00495 0.999764 0.98582
1.00072 1.00337 0.990016
1.00155 1.00426 0.987822
1.00355 1.00129 0.987188
1.00255 1.00159 0.988322
0.999856 0.998147 0.99675
1.00007 0.99997 0.994564
1.00043 1.00305 0.990917
1.0001 1.00189 0.99261
1.00008 1.00374 0.990799
1.00503 0.999437 0.986017
1.0044 1.00045 0.986145
1.00509 0.99951 0.98581
1.00081 1.00465 0.988652
1.00371 1.00094 0.987043
1.00211 1.00344 0.987144
1.00015 0.999697 0.994701
1.00018 1.00112 0.993266
1.00047 1.00414 0.989812
0.999985 1.0031 0.991657
1.00018 1.00421 0.990323
1.00512 0.998896 0.986365
1.00463 1.00013 0.985985
1.00509 0.998533 0.986577
1.00091 1.005 0.987994
1.00335 1.00189 0.986569
1.0002 0.999574 0.994736
1.00023 1.00058 0.993627
1.00024 1.00057 0.993652
1.00017 1.00126 0.993234
1.00025 1.0006 0.993647
1.00029 0.999475 0.994667
1.00027 0.999466 0.994719
1.00005 0.997661 0.997298
1.00023 0.99952 0.994734
0.999989 0.997787 0.997295
0.999889 0.996723 0.998337
0.999912 0.997954 0.997269
0.999757 0.996906 0.998797
0.999653 0.997053 0.999272
0.999912 0.998546 0.99623
0.999846 0.998834 0.996065
0.99961 0.997551 0.999125
0.999559 0.997809 0.999069
0.999773 0.99918 0.995859
0.99955 0.998066 0.998969
1.00467 0.99959 0.986531
1.00466 0.999563 0.986604
1.00506 0.999053 0.986397
1.00512 0.998631 0.98672
1.00479 0.999335 0.986582
1.00374 0.999794 0.988028
1.0048 0.999314 0.9866
1.00512 0.998604 0.986753
1.00507 0.99889 0.986523
1.00515 0.99794 0.987381
1.00508 0.999185 0.986207
1.00516 0.997891 0.987341
1.00512 0.998637 0.986742
1.00514 0.998047 0.987284
1.00514 0.997776 0.987535
1.00511 0.99741 0.98798
1.00515 0.998298 0.986904
1.00515 0.997219 0.988127
1.00478 0.999338 0.986613
1.00471 0.999416 0.986845
1.00512 0.998633 0.986692
1.00502 0.998966 0.986657
1.00039 1.00222 0.99178
1.00117 1.00291 0.989799
1.00211 1.0035 0.987246
1.0049 0.999056 0.986815
1.00511 0.997934 0.98737
1.00502 0.998605 0.986861
1.00426 1.00088 0.985783
1.00507 0.998487 0.986934
1.0006 1.00267 0.990996
1.00053 1.00318 0.990567
1.00017 1.00089 0.993462
1.00022 1.00258 0.991589
1.00512 0.998741 0.986623
1.00512 0.998901 0.986561
1.0052 0.99816 0.987043
1.00516 0.997945 0.987305
1.00079 1.00265 0.990677
1.00111 1.00372 0.988757
1.00295 1.00364 0.985709
1.00508 0.998325 0.987061
1.00516 0.997172 0.98803
1.00482 0.999838 0.985982
1.0051 0.997819 0.987453
1.00516 0.998184 0.986996
1.00075 1.00284 0.990565
1.00071 1.00295 0.990542
1.0003 1.00333 0.990854
1.00017 1.00058 0.99368
1.00019 1.00223 0.992015
1.00516 0.998083 0.987236
1.00518 0.99791 0.98732
1.00516 0.996803 0.988446
1.00511 0.997141 0.988047
1.0008 1.00315 0.990082
1.00511 0.997489 0.987847
1.00107 1.00443 0.987686
1.00386 1.00266 0.985199
1.00512 0.999035 0.98616
1.00017 1.00033 0.99383
1.0002 1.00188 0.99253
1.00017 1.00298 0.99148
1.00082 1.00281 0.99048
1.0004 1.00361 0.990418
1.00086 1.00268 0.990399
0.999849 0.998148 0.996752
1.00008 0.999944 0.994574
1.00504 0.99944 0.985995
1.00007 1.00194 0.992618
1.00038 1.00307 0.990926
1.00004 1.00385 0.990689
1.00436 1.00047 0.98615
1.00509 0.999523 0.985779
1.00075 1.00463 0.988667
1.00228 1.00339 0.987211
1.00373 1.00096 0.987109
1.00015 0.999701 0.994702
1.00016 1.00112 0.99328
1.00044 1.00414 0.989813
0.999957 1.00312 0.991657
1.00014 1.00418 0.9903
1.00512 0.998937 0.986343
1.00465 1.00015 0.985954
1.00509 0.998502 0.986671
1.00091 1.00496 0.987882
1.0034 1.00203 0.986494
1.00021 1.00073 0.993598
0.99998 1.00232 0.99229
1.00055 1.00439 0.989327
0.999925 1.00408 0.990618
1.00041 1.00408 0.989955
1.00512 0.997247 0.98792
1.00475 0.999804 0.986218
1.00507 0.997986 0.987105
1.0018 1.00439 0.987448
1.00358 1.00139 0.986124
1.00019 0.99959 0.994733
1.00024 1.00056 0.993668
1.00009 1.00134 0.993129
1.00023 1.00057 0.993617
1.00025 1.0006 0.993647
1.00014 1.00128 0.993179
1.00006 1.00172 0.992928
1.00014 1.00132 0.993085
1.00025 1.00066 0.993594
1.00028 0.999554 0.994606
1.00028 0.999487 0.994668
1.0001 0.997598 0.997266
1.00026 0.999477 0.994717
1.00005 0.997671 0.997294
0.999964 0.996586 0.998337
0.999997 0.997786 0.997296
0.999878 0.996697 0.998342
0.999727 0.996848 0.999291
0.999971 0.998293 0.996382
0.999913 0.998561 0.99622
0.999685 0.997306 0.999162
0.999845 0.99886 0.996052
0.999611 0.997595 0.999112
0.99957 0.997843 0.999051
1.00508 0.999194 0.986191
1.00508 0.998905 0.986519
1.00516 0.997789 0.987427
1.00515 0.997844 0.987505
1.00512 0.998611 0.986755
1.0048 0.999314 0.986602
1.00511 0.998677 0.986696
1.00514 0.998099 0.987233
1.00514 0.997828 0.987459
1.00511 0.997297 0.988066
1.00514 0.998324 0.986905
1.00515 0.997047 0.98821
1.00512 0.998158 0.98725
1.00512 0.997395 0.987941
1.00511 0.996842 0.988486
1.00514 0.996935 0.988418
1.00511 0.998745 0.986626
1.00512 0.99893 0.986482
1.0052 0.998116 0.987092
1.00515 0.99803 0.987212
1.00083 1.00267 0.990654
1.00111 1.00363 0.988978
1.00287 1.00381 0.985662
1.00507 0.998428 0.986964
1.00516 0.997051 0.988128
1.00509 0.997832 0.987477
1.00484 0.999657 0.985978
1.00516 0.998125 0.986964
1.00078 1.00286 0.990562
1.00075 1.0029 0.990551
1.00025 1.00338 0.990844
1.00017 1.00057 0.993602
1.00018 1.00217 0.992078
1.00517 0.998096 0.987222
1.00518 0.99793 0.98733
1.00516 0.996914 0.988329
1.00086 1.00316 0.990049
1.00122 1.00443 0.987859
1.00376 1.00266 0.985156
1.00512 0.997201 0.988035
1.00513 0.998842 0.986288
1.00512 0.997446 0.987719
1.00017 1.0003 0.993866
1.00086 1.00277 0.990461
1.00082 1.00261 0.990565
1.00041 1.00369 0.990351
1.00018 1.00297 0.991499
1.00019 1.00187 0.992467
1.00515 0.99764 0.987579
1.00515 0.996743 0.988495
1.00512 0.996213 0.988919
1.00512 0.996462 0.988799
1.00089 1.00353 0.989593
1.0051 0.997929 0.987279
1.0019 1.00466 0.986176
1.00446 1.00141 0.985294
1.00018 1.00003 0.994114
1.00019 1.00159 0.992822
1.00018 1.00262 0.991894
1.00013 1.00359 0.990892
1.00093 1.00277 0.990213
1.00092 1.003 0.990049
1.00014 0.999703 0.994703
1.00015 1.0011 0.993294
1.00512 0.998978 0.986321
0.999932 1.00315 0.991657
1.0004 1.0042 0.989814
1.00006 1.00417 0.990276
1.00467 1.00017 0.985923
1.00509 0.998473 0.986765
1.00093 1.00495 0.987768
1.00344 1.00215 0.986419
1.00021 1.00071 0.993606
1.00001 1.00229 0.992331
1.00055 1.00442 0.989361
0.999872 1.00422 0.990611
1.00028 1.00394 0.990222
1.00512 0.99722 0.988088
1.00481 0.999821 0.986092
1.00507 0.998021 0.987129
1.00165 1.00451 0.987338
1.00365 1.00132 0.986306
1.00004 1.00159 0.992925
0.999867 1.0034 0.991284
1.0009 1.00415 0.989007
0.999965 1.00465 0.989558
1.00514 0.995851 0.989328
1.00508 0.99684 0.988487
1.00485 0.999501 0.986142
1.00232 1.00317 0.986253
1.00024 1.00054 0.99371
1.0001 1.00136 0.993148
0.999948 1.002 0.99283
1.00024 1.00061 0.993647
1.00011 1.00129 0.993124
1.00025 1.00065 0.993592
1.00005 1.00172 0.992893
1.00015 1.0013 0.993108
1.00001 1.00202 0.992684
1.00011 1.0017 0.992808
1.00017 1.00136 0.992968
1.00025 1.00074 0.993506
1.00026 0.999632 0.994566
1.00028 0.999556 0.994606
1.00013 0.997594 0.997216
1.00028 0.999492 0.994668
1.0001 0.997624 0.997258
1.00002 0.996513 0.998311
1.00006 0.997683 0.99729
0.999956 0.996557 0.998343
0.999868 0.996672 0.998344
1.00003 0.998046 0.996529
0.999975 0.998299 0.996373
0.999763 0.997056 0.9992
0.999914 0.998578 0.996209
0.99968 0.997357 0.99915
0.999614 0.99763 0.999099
1.00514 0.99835 0.986905
1.00514 0.997881 0.987383
1.00516 0.996877 0.988293
1.0051 0.997187 0.988153
1.00515 0.998151 0.987183
1.00511 0.998718 0.98665
1.00512 0.998148 0.987239
1.00511 0.997429 0.987919
1.00511 0.996851 0.988451
1.00514 0.996888 0.988436
1.00512 0.997617 0.987758
1.00512 0.996541 0.988875
1.00515 0.99607 0.98906
1.00517 0.99811 0.987207
1.00518 0.997951 0.98734
1.00516 0.997025 0.988213
1.00092 1.00316 0.990017
1.00138 1.00441 0.988031
1.00366 1.00265 0.985113
1.00512 0.997258 0.988023
1.00513 0.997402 0.987589
1.00513 0.998649 0.986416
1.0009 1.00274 0.990441
1.00076 1.00255 0.990732
1.00043 1.00375 0.990284
1.00017 1.00027 0.993901
1.00018 1.00296 0.991517
1.00018 1.00185 0.992404
1.00515 0.997687 0.987605
1.00515 0.996713 0.98856
1.00512 0.996252 0.988931
1.00092 1.00355 0.989543
1.00175 1.00478 0.986511
1.00448 1.00118 0.985387
1.00511 0.996515 0.988738
1.0051 0.997903 0.987258
1.00018 1.00002 0.994226
1.00019 1.00159 0.992819
1.00083 1.00267 0.990288
1.00089 1.00294 0.990315
1.00016 1.00355 0.990867
1.00015 1.00266 0.991839
1.00517 0.996744 0.988489
1.00512 0.99565 0.989555
1.00511 0.995722 0.989469
1.00507 0.996736 0.988781
1.00085 1.00393 0.988717
1.00484 0.999496 0.986249
1.00293 1.00402 0.98579
1.00019 0.999804 0.99452
1.00015 1.00102 0.993416
1.00017 1.00138 0.992894
1.00012 1.00245 0.992066
1.00002 1.00335 0.991298
1.00008 1.00373 0.990661
1.00136 1.00139 0.990587
1.00079 1.00263 0.991275
1.0002 1.0007 0.993615
1.00004 1.00227 0.992371
1.00513 0.997196 0.988256
0.999895 1.00428 0.990604
1.00054 1.00446 0.989395
1.00014 1.00383 0.990489
1.00486 0.999814 0.985966
1.00507 0.998049 0.987152
1.00149 1.00457 0.987229
1.0037 1.0012 0.986488
1.00006 1.00162 0.992874
0.999915 1.00344 0.991288
1.00081 1.00421 0.989059
1.00015 1.00461 0.989675
1.00515 0.995804 0.989411
1.00508 0.996941 0.98829
1.00479 0.999485 0.986242
1.00268 1.00322 0.986154
0.999895 1.00249 0.992414
1.00517 0.995143 0.98985
1 1.00455 0.990411
1.00098 1.00477 0.988154
1.00508 0.995757 0.989657
1.00499 0.998062 0.986949
1.00399 1.00189 0.98567
1.0001 1.00138 0.993167
0.999947 1.00199 0.992819
0.999838 1.00253 0.992514
1.00026 1.00064 0.99359
1.00015 1.00129 0.993132
1.00002 1.00173 0.992859
1.00026 1.00073 0.9935
1.00016 1.00136 0.992985
0.999988 1.00205 0.992644
1.00012 1.00167 0.992847
1.00003 1.00216 0.992457
1.0001 1.00192 0.992581
1.00016 1.00176 0.992691
1.00027 1.00137 0.992828
1.00026 1.00083 0.9934
1.00023 0.999698 0.994541
1.00025 0.999638 0.994566
1.00015 0.99761 0.997165
1.00028 0.999564 0.994605
1.00013 0.997622 0.997208
1.00006 0.996472 0.998278
1.00011 0.997648 0.99725
1.00002 0.996475 0.998318
0.999948 0.996528 0.998347
1.00018 0.99965 0.994694
1.00007 0.997841 0.996654
1.00003 0.998053 0.99652
0.99984 0.99683 0.999233
0.999979 0.998309 0.996364
0.999756 0.99711 0.999188
0.999677 0.997407 0.999138
1.00515 0.996841 0.988455
1.00511 0.996859 0.988417
1.00509 0.997459 0.987898
1.00513 0.998136 0.987229
1.00511 0.99757 0.987826
1.00511 0.99655 0.988828
1.00514 0.996077 0.989054
1.00516 0.996631 0.988614
1.00518 0.995517 0.989742
1.00513 0.994905 0.990218
1.00516 0.997733 0.987632
1.00515 0.996681 0.988625
1.00511 0.996286 0.988943
1.00093 1.00362 0.989494
1.0016 1.0049 0.986847
1.00448 1.00094 0.98548
1.00511 0.996569 0.988678
1.0051 0.997855 0.987237
1.00074 1.00258 0.990362
1.00087 1.00288 0.990576
1.00012 1.00361 0.990843
1.00018 0.999996 0.994339
1.0002 1.00159 0.992815
1.00012 1.00271 0.991785
1.00517 0.996651 0.988611
1.00019 0.999804 0.994519
1.00013 1.00103 0.993367
1.00512 0.995707 0.989545
1.0051 0.995697 0.98942
1.00073 1.00406 0.989038
1.00281 1.00401 0.985747
1.00471 0.999503 0.986245
1.00497 0.996688 0.988661
1.00018 1.00136 0.993047
1.00013 1.00243 0.992057
1.00151 1.00166 0.990281
1.00049 1.00243 0.991595
1.00005 1.00381 0.990648
1.00004 1.00332 0.991317
1.00517 0.995475 0.989713
1.00512 0.995207 0.989993
1.00508 0.995238 0.989748
1.00505 0.996822 0.988162
1.00119 1.00319 0.989224
1.00364 1.00275 0.985796
1.00013 1.00086 0.993467
1.00015 1.00119 0.993232
1.00006 1.00204 0.992671
1.00008 1.00242 0.991982
1.00002 1.00317 0.991657
0.999993 1.00378 0.990733
0.999668 1.00444 0.990779
1.00078 1.00133 0.991789
1.00008 1.00164 0.992823
0.999968 1.00346 0.991292
1.00515 0.995746 0.989494
1.00508 0.99706 0.988093
1.00032 1.0046 0.989793
1.00074 1.00426 0.989109
1.00475 0.999486 0.986342
1.00305 1.00333 0.986053
0.999897 1.00249 0.992383
1.00517 0.995116 0.989894
0.999891 1.00446 0.990504
1.00099 1.00466 0.988102
1.00508 0.995683 0.989533
1.00497 0.998031 0.987172
1.00389 1.00211 0.985713
0.999836 1.00372 0.991459
1.00495 0.995097 0.991067
1.00061 1.00473 0.989688
1.002 1.00454 0.987335
1.00488 0.996606 0.988826
1.00388 1.00061 0.986655
0.999647 0.99876 0.992457
0.999943 1.00199 0.992809
0.999825 1.00255 0.992498
0.999974 1.00274 0.992117
1.00026 1.00072 0.993494
1.00016 1.00137 0.993002
1.00013 1.00163 0.992886
0.999978 1.00208 0.992603
1.00026 1.00082 0.993395
1.00025 1.00138 0.992826
1.00003 1.00221 0.992408
1.00016 1.00177 0.99269
1.00012 1.00191 0.992609
1.00016 1.00197 0.992453
1.00022 1.00182 0.992485
1.00022 1.00172 0.992607
1.00035 1.00143 0.992627
1.00029 1.00089 0.993209
1.00026 1.0014 0.992919
1.00027 1.00089 0.993216
1.00022 0.999731 0.994521
1.00023 0.999701 0.994541
1.00018 0.997667 0.996627
1.00025 0.999644 0.994565
1.00016 0.997644 0.996909
1.00003 0.996414 0.99926
1.00013 0.997653 0.997201
1.00006 0.996431 0.998284
1.00001 0.996439 0.998323
1.00016 0.999533 0.994838
1.00018 0.999646 0.994692
1.00011 0.997681 0.996758
1.00006 0.997842 0.996899
0.999907 0.996638 0.999263
1.00004 0.998059 0.996512
0.999832 0.996875 0.999224
0.999749 0.997163 0.999176
1.00513 0.996083 0.989047
1.00511 0.996556 0.98878
1.0051 0.997526 0.987894
1.00515 0.996623 0.988605
1.00518 0.995552 0.989631
1.00512 0.994915 0.990169
1.00518 0.995136 0.989944
1.00074 0.99902 0.988459
1.00479 0.994966 0.991714
1.00011 1.00078 0.993725
1.00517 0.996559 0.988733
1.00512 0.995768 0.989535
1.0051 0.995672 0.989371
1.00061 1.00417 0.989359
1.00272 1.004 0.985706
1.00457 0.999528 0.986241
1.0049 0.996665 0.98854
1.00168 1.00185 0.989984
1.00018 1.00224 0.991928
1.00008 1.00383 0.990636
1.00019 0.999805 0.994517
1.00006 1.00328 0.991337
1.00019 1.00134 0.993201
1.00012 1.00242 0.992048
1.00012 1.00103 0.993317
1.00517 0.995324 0.989857
1.00013 1.00084 0.993555
1.00016 1.00118 0.99323
1.00008 1.00203 0.992564
1.00513 0.995166 0.989996
1.00508 0.995366 0.989598
1.00128 1.00299 0.989291
1.00324 1.00254 0.985961
1.00496 0.997065 0.988146
1.0001 1.00242 0.992051
1.00003 1.00314 0.991586
1.00071 1.00171 0.991473
0.999726 1.00431 0.990913
1.00005 1.00373 0.990794
1.0051 0.994962 0.990429
1.00511 0.995478 0.989841
1.00509 0.995858 0.989127
1.00399 0.999737 0.987921
1.0009 1.00314 0.989874
1.00009 1.00183 0.992568
1.00007 1.00223 0.992217
0.999983 1.00285 0.991943
0.999996 1.00329 0.99144
0.999879 1.00373 0.991089
0.999744 1.00456 0.990508
0.999748 1.00463 0.990474
0.999905 1.0025 0.99235
0.999784 1.00433 0.990596
1.00518 0.995097 0.989936
1.00508 0.995601 0.989411
1.00496 0.997973 0.987395
1.00099 1.00453 0.988052
1.0038 1.0023 0.985756
0.999792 1.00359 0.991626
1.0049 0.995047 0.991057
1.00032 1.00456 0.989843
1.00163 1.00466 0.987389
1.0049 0.996367 0.989035
1.00396 1.00054 0.986587
0.999603 0.998748 0.990741
0.999984 1.00397 0.990947
1.00451 0.995501 0.991625
1.00031 1.00467 0.98973
1.00205 1.00334 0.987541
1.00416 0.997682 0.988063
1.00105 0.995372 0.958949
0.995954 0.998362 0.977391
0.998704 1.00071 0.992449
0.999864 0.996748 0.930458
0.994935 0.998128 0.919317
0.999822 1.00256 0.992482
0.999886 1.00279 0.992192
0.999995 1.00231 0.992476
1.00026 1.00082 0.99339
1.00026 1.00134 0.992823
1.00016 1.00176 0.992688
1.00013 1.0019 0.992637
1.00005 1.00226 0.99236
1.00024 1.0017 0.992574
1.00028 1.00088 0.993267
1.00035 1.00142 0.992649
1.00016 1.00199 0.992449
1.00021 1.00184 0.992502
1.00026 1.00178 0.992443
1.00019 1.0016 0.992681
1.00034 1.00173 0.9924
1.0004 1.00149 0.992449
1.00029 1.00091 0.993177
1.00035 1.00146 0.99266
1.00029 1.00161 0.992631
1.00016 1.00144 0.992968
1.00026 1.00141 0.992859
1.00026 1.00082 0.993401
1.00028 1.0009 0.993208
1.00024 0.999731 0.994504
1.00022 0.99973 0.994521
1.00017 0.997724 0.99661
1.00023 0.999702 0.994541
1.00018 0.997671 0.996627
1.00004 0.996413 0.999255
1.00017 0.997676 0.996653
1.00006 0.996415 0.998757
1.00006 0.996392 0.998289
1.00015 0.999454 0.994941
1.00016 0.999534 0.994837
1.00013 0.997557 0.996837
1.00018 0.999645 0.994689
1.0001 0.997659 0.997003
0.999961 0.996478 0.999286
1.00008 0.997868 0.996626
0.999897 0.996712 0.999248
0.999824 0.996921 0.999214
1.00518 0.995588 0.98952
1.00515 0.996618 0.988596
1.00513 0.994924 0.990121
1.00077 0.998261 0.98857
1.00517 0.995137 0.989942
1.00478 0.995236 0.991558
1.00493 0.995983 0.990709
0.997106 0.998926 0.974748
1.00201 0.996449 0.989916
1.00011 1.00074 0.993774
1.00012 1.00076 0.993722
1.00004 1.00178 0.992836
1.00008 1.00158 0.992966
1.00518 0.995176 0.990001
1.00514 0.995122 0.989999
1.00511 0.995493 0.989448
1.00142 1.0028 0.989357
1.00283 1.00229 0.986123
1.00486 0.997373 0.98813
1.00061 1.00218 0.991144
0.999799 1.00418 0.991047
1.00009 1.00368 0.990854
1.00016 1.00119 0.993228
1.00005 1.0031 0.991515
1.0001 1.00242 0.99212
1.00013 1.00083 0.993643
1.00009 1.00203 0.992455
1.00506 0.994957 0.990405
1.00008 1.00187 0.992688
1.00008 1.00221 0.99229
0.999962 1.00276 0.992014
1.00508 0.995321 0.989884
1.0051 0.995713 0.98911
1.00107 1.00293 0.989839
1.00397 0.999763 0.987931
1 1.00334 0.991441
0.999903 1.00371 0.9911
0.999778 1.0046 0.99048
0.999895 1.00451 0.990494
1.00503 0.995968 0.989913
1.00507 0.995262 0.990044
1.00424 0.998037 0.988822
1.0011 1.00277 0.990039
1.00001 1.00289 0.991734
0.999987 1.00312 0.991556
0.999758 1.00422 0.990851
0.999834 1.00514 0.989702
1.00044 0.994961 0.954265
0.999737 1.00351 0.991791
1.00001 1.00445 0.989996
1.00486 0.99499 0.991041
1.00494 0.996141 0.989244
1.004 1.00043 0.986518
1.00123 1.00475 0.987441
0.999618 0.998697 0.988993
0.999835 1.00401 0.991096
1.00453 0.995402 0.991575
1.00019 1.00464 0.989787
1.00205 1.00323 0.98752
1.00437 0.997701 0.988171
1.00151 0.995662 0.954208
0.995626 0.998597 0.973579
0.998706 1.00062 0.992461
0.999295 0.997115 0.932371
0.994679 0.998134 0.913328
0.999734 1.00369 0.991749
0.999895 0.99517 0.935345
0.995022 0.999205 0.92079
1.00378 0.997346 0.991133
0.999933 1.00467 0.990235
1.00251 1.00138 0.988084
0.997873 1.00137 0.993795
0.999469 0.996898 0.958588
0.994851 0.998729 0.972109
0.998336 0.998574 0.933973
0.994697 0.999837 0.922362
0.999791 1.00285 0.992268
0.999934 1.00246 0.992429
0.99993 1.00126 0.993806
1.00027 1.00087 0.993325
1.00034 1.00142 0.992672
1.00021 1.00173 0.99254
1.0002 1.00186 0.99252
1.00015 1.00202 0.992446
1.00029 1.00091 0.993178
1.00025 1.00182 0.992424
1.00033 1.00173 0.992424
1.0004 1.00148 0.992517
1.0002 1.00155 0.992741
1.00032 1.00174 0.992417
1.00027 1.00091 0.993219
1.00043 1.00175 0.992199
1.0004 1.00149 0.992542
1.00036 1.00145 0.992653
1.00029 1.0016 0.992628
1.00042 1.00159 0.992388
1.00016 1.00171 0.992704
1.00022 1.0016 0.992659
0.999862 1.00246 0.992443
1.00006 1.00156 0.993022
1.00015 1.00145 0.992969
1.00023 1.0008 0.99347
1.00027 1.00143 0.992798
1.00026 1.00084 0.993356
1.00025 0.99971 0.994504
1.00028 1.00091 0.9932
1.00024 0.999725 0.994505
1.00012 0.997757 0.997127
1.00022 0.999729 0.994521
1.00016 0.997714 0.996868
1.00009 0.99644 0.998223
1.00018 0.997676 0.996626
1.00004 0.996419 0.999253
1.00009 0.996416 0.998253
1.00012 1.00078 0.993707
1.00015 0.999421 0.994972
1.00015 0.999453 0.99494
1.00015 0.99748 0.996886
1.00016 0.999533 0.994835
1.00014 0.997542 0.996836
1 0.996362 0.999303
1.00009 0.99767 0.997233
0.999974 0.996543 0.998787
0.999939 0.996752 0.99824
1.00072 0.99749 0.9887
1.00517 0.995137 0.989941
1.00479 0.995515 0.991401
0.996514 0.998259 0.976418
1.0018 0.996791 0.990154
1.00497 0.995505 0.99061
1.00412 0.995943 0.990317
0.998007 0.996473 0.979008
1.00026 0.995504 0.957412
0.998926 0.997379 0.935353
0.994623 0.998173 0.918132
1.00003 1.00168 0.992821
1.00011 1.00074 0.993771
1.00013 1.00075 0.993719
1.00005 1.00178 0.992803
1 1.00245 0.992251
1.00016 1.00209 0.992397
1.00011 1.0017 0.992844
1.00005 1.00166 0.992902
1.00504 0.994949 0.99038
1.00509 0.995137 0.989923
1.00509 0.995515 0.989096
1.0012 1.0027 0.989806
1.00395 0.999706 0.98794
0.999807 1.00456 0.990489
1.00004 1.00447 0.99048
0.999935 1.00369 0.991112
1.00008 1.0022 0.992363
0.999998 1.00339 0.991441
1.00008 1.0019 0.992808
0.999961 1.00264 0.992085
1.005 0.995689 0.989928
0.999995 1.00288 0.991814
0.999976 1.00314 0.991606
1.00502 0.995209 0.989924
1.00387 0.997696 0.989181
1.00128 1.00263 0.989888
0.99982 1.00425 0.990814
0.999971 1.0051 0.989713
1.0032 1.00023 0.98982
1.00445 0.996082 0.990872
1.00223 0.999145 0.990166
1.00054 1.00334 0.990241
0.99999 1.00317 0.991431
0.999866 1.00386 0.991086
0.999745 1.00491 0.990247
0.999962 0.994872 0.934242
1.00097 0.994986 0.961022
0.999709 1.00401 0.991244
1.00009 1.00456 0.989844
1.00452 0.99524 0.991531
1.00458 0.997752 0.988279
1.00208 1.0032 0.9875
1.00047 0.995129 0.956967
0.996014 0.998912 0.973532
0.998682 1.00038 0.992469
0.99843 0.996968 0.937478
0.994591 0.99815 0.907317
0.999671 1.00363 0.991771
0.999912 0.995576 0.933918
0.995113 0.999112 0.917811
1.00382 0.997265 0.991098
0.999851 1.0046 0.990354
1.0021 1.00134 0.988765
0.998181 1.00106 0.994489
1.00051 0.99688 0.954862
0.995245 0.998245 0.975176
0.99806 0.99903 0.934549
0.994855 0.999814 0.920399
0.999259 1.00322 0.993103
0.995124 0.998996 0.922888
0.994926 1.00233 0.937397
1.00066 0.999613 0.993704
0.999214 1.00417 0.992451
0.996822 1.00252 0.995072
0.994886 0.999755 0.977244
0.997185 0.999054 0.953152
0.995403 0.999886 0.93836
0.99465 0.999571 0.929584
0.999907 1.00258 0.992381
0.999943 1.00135 0.993672
0.999684 0.999756 0.995371
1.00029 1.0009 0.993178
1.00039 1.00147 0.992586
1.00032 1.00172 0.992447
1.00026 1.00186 0.992405
1.0002 1.00152 0.992801
1.00039 1.0015 0.992538
1.00032 1.00176 0.992419
1.00044 1.00176 0.992197
1.00015 1.00087 0.993416
0.999787 1.00025 0.99479
1.00042 1.00148 0.992513
1.00051 1.00169 0.992171
1.00037 1.00144 0.992645
1.0003 1.00159 0.992626
1.00042 1.00159 0.992383
1.00017 1.00171 0.992697
1.00021 1.00159 0.992703
1.00002 1.00194 0.992697
1.00031 1.00154 0.992507
1.00008 1.00163 0.992911
1.00002 1.00269 0.991968
0.999663 1.0047 0.990324
0.999699 1.00315 0.99187
0.99986 1.00252 0.992422
0.999977 1.00177 0.992942
1.00006 1.00157 0.993018
1.00019 1.00081 0.993524
1.00015 1.00147 0.992971
1.00023 1.0008 0.993473
1.00025 0.999686 0.994527
1.00027 1.00084 0.993311
1.00025 0.999696 0.994506
1.00009 0.997799 0.997139
1.00024 0.999716 0.994506
1.00014 0.99775 0.996873
1.00005 0.996457 0.998231
1.00017 0.997699 0.996611
1.00003 0.996444 0.999249
1.00004 0.996423 0.999251
1.00016 1.00086 0.993749
1.00017 0.999462 0.994912
1.00012 1.00078 0.993706
1.00016 0.99745 0.996902
1.00015 0.99942 0.994972
1.00015 0.999454 0.994939
1.00015 0.997481 0.996884
1.00003 0.996297 0.999312
1.00011 0.997537 0.997309
1.00002 0.996384 0.998818
1.00001 0.99654 0.998309
0.999906 0.995692 0.930622
0.995247 0.998694 0.921051
0.997648 0.997601 0.977338
1.0016 0.997108 0.990393
1.00499 0.994993 0.990512
0.997188 0.996472 0.981191
1.0041 0.995877 0.990405
1.00115 0.995481 0.95757
0.999728 0.996439 0.930707
0.994607 0.99815 0.911971
0.998618 0.997586 0.984435
0.999074 0.997179 0.959244
0.998313 0.998587 0.932898
0.994733 0.999809 0.920476
1.00011 1.00241 0.992069
1.00004 1.00167 0.992879
1.00012 1.00072 0.993768
1.00006 1.00176 0.992771
0.999998 1.00236 0.992343
1.00019 1.0022 0.992204
1.00017 1.00205 0.992385
1.00017 1.00181 0.992565
1.00011 1.0017 0.992782
1.00004 1.00172 0.992838
1.00495 0.995284 0.989947
1.00497 0.995181 0.989813
1.00347 0.99734 0.989543
1.00142 1.00254 0.989738
1.00012 1.00506 0.989724
0.999904 1.00427 0.990777
0.99996 1.00317 0.991657
0.999965 1.00286 0.991894
1.00342 0.998962 0.990012
0.999992 1.00321 0.991425
0.999885 1.00387 0.991019
1.00433 0.995904 0.990614
1.00196 0.999397 0.990684
1.00073 1.00345 0.989826
0.999901 1.00487 0.990138
1.00026 1.00068 0.992994
1.00155 0.998464 0.993612
0.999745 1.00418 0.990562
1.00003 1.00309 0.991496
0.999979 1.00366 0.990954
0.999907 1.00434 0.990541
0.9948 0.998992 0.932408
0.999941 0.995198 0.936708
1.00052 0.99494 0.954115
0.999582 1.00368 0.991794
0.999773 1.00451 0.990477
1.00389 0.997162 0.991063
1.00169 1.00151 0.989444
0.999908 0.995321 0.937513
0.999 0.996845 0.955274
0.994897 0.997681 0.972127
0.998549 1.00006 0.995119
0.998262 0.998695 0.929127
0.995107 0.998993 0.918557
0.994993 0.999817 0.922486
0.99912 1.00324 0.993115
0.995131 0.998938 0.926152
0.995104 1.00246 0.93685
1.00095 0.999497 0.993788
0.998766 1.00442 0.992441
0.99655 1.00045 0.997708
0.99507 0.999111 0.974766
0.997295 0.999171 0.958999
0.997524 0.999899 0.933192
0.994653 0.999548 0.932195
0.998033 1.00227 0.996021
0.994867 1.00105 0.946488
0.994358 1.00204 0.950537
0.996352 1.00234 0.99875
0.994962 0.99999 0.983861
0.995493 1.00004 0.958434
0.994845 0.999929 0.93361
0.994753 0.99868 0.929691
0.999933 1.00144 0.993541
0.999762 0.999739 0.995482
0.999325 0.999255 0.996861
1.00039 1.00151 0.992534
1.00044 1.00178 0.992195
1.00032 1.00177 0.992421
1.00004 1.00082 0.993613
1.00048 1.00172 0.992168
1.00041 1.00151 0.992486
0.999749 0.999996 0.995045
0.998719 0.999905 0.996984
0.999994 1.00093 0.993924
1.00044 1.00161 0.992304
1.00043 1.00159 0.992378
1.00017 1.0017 0.99269
1.00021 1.00159 0.992746
1.00031 1.00157 0.992528
1.00002 1.00197 0.992686
1.0001 1.00164 0.992899
1.00006 1.00189 0.992763
0.999871 1.0015 0.993371
1.00015 1.00207 0.992257
1.00004 1.00259 0.992078
0.999743 1.00404 0.990994
1.00047 1.00498 0.988912
0.999804 1.00403 0.991251
0.999615 1.00473 0.990497
0.999735 1.00316 0.991979
0.999886 1.0022 0.992525
0.999861 1.00258 0.9924
0.999996 1.00178 0.992931
1.00015 1.00087 0.993525
1.00008 1.00157 0.993014
1.0002 1.00081 0.993523
1.00022 0.999714 0.994553
1.00024 1.00081 0.993476
1.00025 0.999683 0.994528
1.00005 0.997851 0.99716
1.00026 0.999689 0.994508
1.0001 0.997792 0.99689
1 0.996542 0.998244
1.00015 0.997728 0.996616
1.00003 0.996473 0.998739
1.00002 0.996459 0.999249
1.00018 1.00097 0.993441
1.00018 0.999533 0.994815
1.00014 1.00088 0.993612
1.00015 0.997475 0.996882
1.00016 0.999456 0.994915
1.00011 1.0008 0.993704
1.00003 0.99628 0.999314
1.00016 0.997451 0.996903
1.00015 0.999414 0.994972
1.00015 0.997482 0.996881
1.00002 0.996307 0.99931
0.999999 0.996382 0.999297
0.994831 0.997985 0.928617
0.999927 0.995337 0.933309
0.995174 1.00254 0.936698
0.995218 0.998983 0.919048
0.998052 0.9965 0.977565
1.00405 0.996238 0.990487
1.00081 0.995799 0.957547
0.999891 0.996822 0.936141
0.9946 0.998144 0.905831
0.99849 0.997435 0.983113
1.00076 0.996805 0.952041
0.998399 0.998808 0.933289
0.994711 0.999822 0.917144
0.994945 1.00062 0.97966
0.998462 0.999847 0.952017
0.99586 0.999812 0.930858
0.994686 0.999228 0.924546
1.00014 1.00271 0.991773
1.00009 1.00241 0.992151
1.00003 1.00172 0.992936
1 1.00229 0.992433
1.00027 1.00229 0.991881
1.00019 1.00218 0.992245
1.00015 1.00204 0.992373
1.00027 1.00174 0.992546
1.0002 1.00177 0.992633
1.00012 1.0017 0.992719
1.0036 0.997814 0.990212
1.00422 0.995803 0.99036
1.00175 0.99971 0.991196
1.00094 1.0035 0.989418
0.999988 1.00494 0.990029
0.999912 1.00385 0.990954
1.00003 1.0032 0.991419
1.00003 1.00308 0.991541
1.00055 1.00014 0.993256
1.00001 1.00371 0.990979
0.999978 1.00433 0.990535
1.00161 0.998554 0.993249
1.00016 1.00393 0.990457
0.998817 0.998054 0.995785
0.998932 0.999553 0.99773
0.999842 1.00324 0.991309
1.00013 1.00314 0.991316
1.00012 1.0042 0.990238
0.994475 1.00064 0.951693
0.994781 0.999427 0.931367
0.999928 0.995608 0.931973
0.998999 1.00327 0.993118
0.998422 1.00442 0.992415
1.00117 0.999429 0.99388
0.99507 0.99874 0.927636
0.997923 0.999113 0.953312
0.994884 0.998635 0.975637
0.996407 0.999763 1.00054
0.996058 0.999676 0.937928
0.995331 1.00261 0.936317
0.994646 0.999541 0.932292
0.998112 1.00209 0.996205
0.994875 1.00038 0.948848
0.994396 1.00215 0.95032
0.996549 1.00284 0.998382
0.994904 1.00002 0.984361
0.996433 1.00002 0.952886
0.994721 0.998877 0.931402
0.995022 0.999964 0.937188
0.996994 1.00238 0.998218
0.99409 1.00035 0.968827
0.994438 1.0006 0.953647
0.994693 0.999221 0.924746
0.994974 1.00172 0.995128
0.996205 0.999422 0.960444
0.994764 0.99998 0.936922
0.999916 0.99967 0.995587
0.999338 0.99934 0.996684
0.998155 0.99994 0.998343
1.00046 1.00173 0.992166
1.00039 1.00154 0.992459
0.9997 0.999792 0.995303
1.00041 1.00161 0.992328
0.999976 1.00087 0.993916
0.998884 0.999771 0.996863
0.998289 1.00018 0.997416
0.999864 1.00147 0.993515
1.0003 1.00159 0.992549
1.00001 1.00201 0.992675
1.00012 1.00165 0.992887
0.99994 1.0015 0.993322
1.00007 1.0018 0.9928
0.999546 1.0022 0.993305
0.999862 1.00226 0.992593
1.00014 1.0037 0.990513
1.00007 1.00248 0.992188
0.999977 1.00398 0.990869
1.00054 1.00477 0.988568
1.00054 1.00496 0.98859
0.999901 1.0045 0.99047
1.00036 1.00493 0.988997
0.999914 1.00291 0.991977
0.999781 1.00406 0.991134
0.999565 1.00473 0.99067
0.999771 1.00317 0.992089
0.999905 1.00217 0.992613
1.00012 1.00105 0.993402
1.00001 1.0018 0.992919
1.00017 1.00087 0.993519
1.00017 0.999779 0.994574
1.00021 1.00081 0.993522
1.00023 0.999702 0.994554
0.99998 0.997931 0.997186
1.00026 0.999671 0.994529
1.00006 0.997849 0.996915
0.999936 0.996646 0.998262
1.00012 0.997768 0.996636
0.999983 0.996552 0.998746
0.999993 0.996516 0.999252
1.00024 1.00106 0.993077
1.0002 0.999675 0.994469
1.00019 1.00098 0.99344
1.00015 0.997554 0.996818
1.00018 0.999541 0.994714
1.00012 1.00088 0.993476
1.00002 0.996315 0.999308
1.00015 0.997474 0.996885
1.00016 0.999447 0.994919
1.00003 0.996282 0.999314
1.00016 0.997451 0.996903
1.00002 0.996318 0.999307
0.994618 1.00001 0.950246
0.994857 0.998133 0.930121
0.999901 0.995682 0.934179
1.00032 1.00172 0.992401
0.994372 1.00167 0.953051
0.995227 1.00259 0.936211
0.995247 0.999123 0.920873
0.998707 0.997608 0.981578
0.999507 0.997851 0.95881
0.9984 0.998699 0.92781
0.994692 0.999859 0.918159
0.995499 0.999667 0.975859
0.997574 0.999371 0.957641
0.997354 0.999896 0.933769
0.994699 0.999411 0.925093
0.995257 0.999568 0.971802
0.995497 1.00094 0.956839
0.994805 0.99994 0.937165
0.994737 0.998605 0.929736
1.00025 1.00269 0.991557
1.00013 1.00273 0.991742
1.0001 1.00238 0.992233
1.00029 1.00217 0.991989
1.00028 1.00227 0.991961
1.00018 1.00216 0.992286
1.00028 1.00176 0.992555
1.00022 1.00175 0.992701
1.00086 0.999862 0.993491
1.00162 0.998644 0.992874
1.00002 1.00307 0.991586
1.00057 1.00373 0.990346
1.00009 1.00422 0.990529
0.999979 1.00381 0.991003
1.00013 1.00318 0.991324
0.998791 0.998841 0.996171
1.00013 1.00396 0.990497
1.00018 1.00301 0.99134
0.999037 0.998955 0.997717
1.00017 1.00279 0.991618
0.997352 0.999195 0.996595
0.997574 1.00036 0.99973
1.00006 1.00308 0.991281
1.00011 1.00316 0.991369
0.994015 1.00067 0.972167
0.994464 1.00108 0.952292
0.994777 0.999754 0.930361
0.998082 1.00203 0.996412
0.99664 1.00296 0.997989
0.994946 0.999954 0.95117
0.995606 1.00019 0.959364
0.994893 0.999094 0.980515
0.99512 0.999963 0.936436
0.994416 1.00226 0.950117
0.994686 0.99905 0.933106
0.997103 1.00233 0.998058
0.994066 1.00047 0.968793
0.994366 1.00068 0.957763
0.995229 1.0027 0.99797
0.994705 0.999383 0.925173
0.995326 0.999357 0.957202
0.995108 0.999959 0.938573
0.996556 1.00302 0.998483
0.994046 0.999106 0.974978
0.994366 1.00169 0.953253
0.99474 0.999783 0.920717
0.995452 0.999915 0.936341
0.995543 0.999278 0.990023
0.996499 1.00056 0.950862
0.999308 0.999402 0.996497
0.998023 1.00054 0.99803
0.996316 1.0005 1.00136
1.00037 1.00162 0.992351
0.999958 1.00078 0.993907
0.99906 0.999549 0.996729
0.999873 1.00147 0.99347
0.998407 0.999901 0.997518
0.998152 1.00311 0.994855
1.00001 1.0015 0.993272
1.00006 1.00173 0.992836
0.999725 1.00229 0.99317
0.999296 1.00432 0.991355
0.999558 1.00245 0.992925
0.999941 1.00363 0.990849
1.00073 1.00487 0.988495
1.00193 1.00449 0.986635
1.00021 1.00393 0.990743
1.00071 1.0048 0.988386
1.00104 1.00447 0.98871
0.999902 1.00484 0.989698
1.00057 1.00486 0.988753
0.999884 1.00362 0.9913
0.999939 1.00446 0.990458
1.00026 1.00488 0.989081
1.00007 1.00151 0.993037
0.999897 1.00289 0.991948
0.999759 1.0041 0.991016
0.999927 1.00215 0.992701
1.00013 1.00107 0.993389
1.00011 0.999908 0.994558
1.00018 1.00088 0.993514
1.00018 0.999768 0.994575
0.999924 0.998062 0.996703
1.00023 0.999691 0.994556
1 0.997931 0.996693
0.999807 0.99676 0.999272
1.00007 0.99783 0.996664
0.99992 0.996651 0.998756
0.999945 0.996596 0.999256
1.00028 1.0011 0.99297
1.00023 0.999831 0.994246
1.00025 1.00107 0.993155
1.00013 0.997686 0.996717
1.0002 0.999682 0.994441
1.00019 1.00098 0.99344
0.999998 0.996405 0.999291
1.00014 0.997552 0.996823
1.00018 0.999551 0.994613
1.00003 0.996305 0.999311
1.00015 0.997473 0.996888
1.00003 0.996281 0.999314
0.994019 0.999823 0.969687
0.994582 1.00086 0.950034
0.994889 0.998697 0.930255
1.00031 1.00173 0.992448
1.00029 1.00168 0.992452
1.0003 1.00204 0.99218
0.994448 1.00019 0.953772
0.994399 1.0016 0.952858
0.99525 1.0029 0.935729
0.995044 1.00007 0.978192
0.998129 0.999971 0.951415
0.995206 0.999913 0.938546
0.994707 0.999589 0.923004
0.995524 0.999202 0.974767
0.996377 1.00006 0.955708
0.994915 0.999967 0.93879
0.994712 0.998787 0.931428
0.994889 0.999347 0.971442
0.99587 1.00005 0.958446
0.994734 1.00001 0.937217
0.994658 0.999468 0.92951
1.00033 1.00242 0.991695
1.00026 1.00268 0.991547
1.00013 1.00276 0.99171
1.0003 1.00218 0.991975
1.00029 1.00225 0.992041
1.0003 1.00176 0.992564
0.998754 0.999292 0.996546
0.998907 0.998491 0.997712
1.00015 1.00322 0.991332
1.00049 1.00264 0.991372
1.00006 1.00386 0.990757
1.00024 1.00274 0.991518
1.00002 1.00321 0.991486
0.997366 0.998995 0.99695
0.999939 1.00307 0.991829
0.997367 1.00032 0.999747
1.00006 1.00255 0.992117
0.995814 0.998662 0.997666
0.997337 1.00221 0.998318
0.999495 1.00257 0.99324
0.993987 1.0002 0.979467
0.993948 1.00043 0.973946
0.994433 1.00141 0.952849
0.997333 1.00231 0.997888
0.995932 1.00255 0.995741
0.994038 1.00055 0.968756
0.995242 0.999373 0.962248
0.994776 0.999963 0.93481
0.994313 1.00075 0.961874
0.994708 0.999544 0.92327
0.996193 1.00347 0.998734
0.994005 0.998963 0.976456
0.994393 1.00155 0.953064
0.994981 0.999435 0.985598
0.994711 0.999784 0.917543
0.995129 0.999924 0.937674
0.995584 1.00055 0.957528
0.995121 1.00241 1.00016
0.994011 0.999511 0.970151
0.995057 1.00245 0.937296
0.994588 0.998161 0.919012
0.995873 0.999102 0.930918
0.996022 1.00006 0.957535
0.995881 0.999745 0.980346
0.997869 1.00127 0.997776
0.996648 1.00004 1.00123
0.996705 1.00222 0.998904
0.999884 1.00149 0.993426
0.998541 0.999675 0.997603
0.997891 1.00326 0.99516
0.998872 1.00361 0.993493
0.999915 1.00238 0.993037
0.999889 1.00422 0.991002
1.00073 1.00503 0.988311
0.999736 1.00355 0.991189
1.00082 1.0048 0.988398
1.0024 1.00475 0.986022
1.00365 1.00305 0.985013
1.00145 1.00434 0.987381
1.00192 1.00466 0.98654
1.00087 1.00484 0.988204
1.00075 1.00424 0.989361
1.00083 1.00427 0.989047
0.999896 1.00449 0.990276
0.999986 1.00486 0.989808
1.0006 1.00475 0.988917
1.00002 1.00229 0.99235
0.999949 1.00353 0.991305
0.999967 1.00444 0.990445
1.00004 1.00019 0.994406
1.00009 1.00151 0.993023
0.999881 1.00286 0.991918
1.00014 1.00108 0.993377
1.00011 0.999909 0.994556
0.999834 0.998237 0.996688
1.00019 0.999757 0.994575
0.999928 0.998059 0.996703
0.99974 0.996921 0.999265
1.00001 0.997922 0.996692
0.999837 0.996784 0.998769
0.999882 0.996695 0.999261
1.00032 1.00112 0.99299
1.00026 0.999952 0.994233
1.00029 1.0011 0.993007
1.0001 0.997849 0.9966
1.00023 0.999834 0.994317
1.00026 1.00107 0.993234
0.999959 0.996541 0.999267
1.00012 0.997681 0.996724
1.0002 0.999688 0.994414
1 0.996385 0.999297
1.00014 0.997552 0.996828
1.00003 0.996296 0.999313
0.994079 0.998744 0.975124
0.994072 0.999524 0.969662
0.994544 1.00116 0.949905
1.00023 1.00179 0.992441
1.00011 1.00237 0.992173
1.00028 1.00174 0.992495
1.00028 1.0017 0.992458
1.00028 1.00205 0.992155
1.00021 1.00202 0.992326
1.00031 1.00212 0.992063
0.994401 1.00133 0.950789
0.994379 1.00036 0.957929
0.994424 1.00141 0.952671
0.994695 0.998959 0.933119
0.994844 0.999808 0.972124
0.995319 1.00007 0.955525
0.994835 0.999956 0.940314
0.995253 0.999493 0.970827
0.995124 1.00007 0.953819
0.994893 0.999971 0.939972
0.994661 0.999401 0.932212
0.996052 0.997624 0.974836
0.995147 1.00008 0.95306
0.995039 0.999928 0.934211
0.994716 0.999805 0.921746
1.00007 1.00234 0.992283
1.00031 1.0024 0.991714
1.00026 1.00267 0.991536
1.00032 1.00218 0.991961
0.997502 0.999062 0.997283
0.997341 1.00029 0.999756
1.00027 1.00274 0.991419
1.00003 1.00312 0.991602
0.999916 1.00309 0.992382
1.00005 1.00255 0.992069
0.999419 1.00258 0.993185
0.995723 0.999504 0.995383
0.996898 1.00277 0.998628
0.999263 1.0025 0.993411
0.99553 0.999474 0.994464
0.997817 1.00302 0.997417
0.993992 0.999992 0.973062
0.993894 0.999431 0.981461
0.993905 1.00024 0.975725
0.995996 1.0038 0.998919
0.995337 0.998636 0.990966
0.993948 0.998845 0.977948
0.996789 1.00061 0.951425
0.995145 0.999907 0.939255
0.994421 1.00136 0.952872
0.994699 0.999834 0.918512
0.995406 1.00145 1.00045
0.994063 0.999313 0.970125
0.995179 1.00241 0.936804
0.994873 1.00001 0.983254
0.994591 0.998152 0.91275
0.997513 0.999846 0.933322
0.995255 1.00006 0.953502
0.995663 1.00259 0.996377
0.994673 0.999487 0.951023
0.995158 0.998649 0.921865
0.998383 0.997474 0.934315
0.995612 1.00043 0.958049
0.994912 0.999235 0.975178
0.997114 0.999341 1.00103
0.99653 1.00285 0.998845
0.998821 0.999112 0.998705
0.997655 1.00339 0.995466
0.998157 1.00374 0.993824
1.0017 1.00152 0.990116
1.00048 1.00413 0.990646
1.00097 1.00501 0.988187
1.00257 1.00304 0.986403
1.0009 1.00475 0.988302
1.00239 1.0048 0.985835
1.0039 1.0022 0.985134
1.00484 1.00035 0.985336
1.00332 1.00403 0.985092
1.00372 1.00306 0.98482
1.00116 1.00404 0.988167
1.00146 1.00432 0.987613
1.00192 1.00485 0.986446
1.00053 1.00456 0.989313
1.00066 1.00427 0.989346
1.00061 1.00411 0.989384
1.00005 1.00318 0.991367
0.999927 1.00438 0.990407
1.00008 1.00487 0.98992
0.99997 1.00075 0.99395
1.00006 1.00224 0.992345
1.00001 1.00344 0.99131
0.999747 0.99845 0.996637
1.00003 1.00021 0.994395
1.00011 1.00151 0.993009
1.00011 0.999911 0.994553
0.999839 0.99824 0.996686
0.999643 0.997106 0.99926
0.999932 0.998057 0.996704
0.999728 0.996953 0.999263
0.999805 0.996821 0.999264
1.00022 1.0019 0.992413
1.00035 1.00117 0.992914
1.00027 1.00008 0.994079
1.00033 1.00113 0.992983
1.00006 0.998041 0.99648
1.00025 0.99997 0.994229
1.00028 1.00113 0.993044
0.999908 0.996706 0.999239
1.0001 0.997847 0.996608
1.00024 0.999837 0.994388
0.999965 0.996511 0.999274
1.00012 0.997678 0.996731
1.00001 0.996361 0.999303
0.99411 0.999327 0.969609
0.994022 0.998641 0.976592
0.994123 0.999317 0.96963
1.00026 1.00175 0.992467
1.00009 1.00239 0.992131
1.00004 1.00275 0.991847
1.0001 1.00225 0.99219
1.00009 1.00276 0.991875
1.00027 1.00171 0.992464
1.00025 1.00207 0.992131
1.0002 1.00202 0.992323
1.0003 1.00213 0.992063
1.0001 1.00225 0.992367
0.994953 1.00219 0.937053
0.994425 1.0015 0.950611
0.994309 1.00053 0.962079
0.994663 0.999326 0.932332
0.994746 0.999994 0.935442
0.994871 0.999454 0.969595
0.995092 1.00007 0.957911
0.995459 0.997747 0.971264
0.995716 1.00005 0.957993
0.994912 0.999937 0.938258
0.994906 0.999788 0.919629
0.996021 0.995536 0.97581
0.995283 1.00006 0.958678
0.995676 0.999871 0.93797
0.995011 0.998138 0.917964
0.999346 1.00168 0.994106
1.00003 1.00242 0.992307
1.00031 1.00238 0.991733
0.995558 1.00017 0.993106
0.996599 1.00316 0.998913
1.00004 1.00255 0.99202
0.999243 1.00271 0.993131
0.99925 1.00253 0.99343
0.997532 1.00253 0.997302
0.995213 0.999554 0.994674
0.997767 1.00204 0.996639
0.995891 1.00104 0.993971
0.994567 1.00045 0.951659
0.993935 0.999731 0.974798
0.993799 0.998613 0.983455
0.995486 1.00068 1.00081
0.995226 0.999795 0.978011
0.994113 0.999171 0.970091
0.996948 1.00016 0.95478
0.995178 0.999872 0.938071
0.995235 1.00265 0.936328
0.994606 0.998142 0.906497
0.995738 1.0024 0.996667
0.994631 1.00035 0.950796
0.995164 0.998893 0.919873
0.994986 0.999189 0.976513
0.998514 0.998476 0.934191
0.996275 1.00002 0.954836
0.996933 0.999472 0.994108
0.994892 0.997781 0.929405
0.998702 0.996855 0.936109
0.998231 0.998818 0.952891
0.994859 0.99899 0.976886
0.99642 1.00333 0.998771
0.998647 0.999014 0.998706
1.00262 0.997621 0.993504
0.997516 1.00371 0.994131
1.00105 1.0018 0.990598
1.00342 0.998782 0.98864
1.00123 1.00494 0.988063
1.00261 1.00312 0.986453
1.00438 0.99961 0.986664
1.00238 1.00492 0.985649
1.00388 1.00223 0.985188
1.00506 0.998993 0.986236
1.00508 0.998973 0.986235
1.0044 1.00177 0.984792
1.0048 1.00034 0.985369
1.00257 1.00428 0.985922
1.00313 1.00402 0.984976
1.00378 1.00307 0.984629
1.00112 1.00394 0.988732
1.0011 1.00398 0.988463
1.00147 1.00432 0.987845
1.00044 1.00352 0.990355
1.00044 1.00448 0.989419
1.00057 1.00429 0.98933
0.999958 1.00163 0.993071
1.00011 1.00314 0.991369
0.999958 1.00428 0.990537
0.999649 0.998787 0.996961
0.999972 1.00077 0.993931
1.0001 1.00219 0.99234
0.999558 0.997356 0.998226
0.999747 0.998486 0.996864
1.00003 1.00023 0.994385
0.999844 0.998245 0.996685
0.999632 0.997147 0.999256
0.999717 0.996984 0.999262
1.00016 1.00226 0.992106
1.00032 1.00135 0.992782
1.0002 1.00195 0.992378
1.00025 1.00022 0.99398
1.00033 1.0012 0.992912
1.00001 0.998234 0.996377
1.00027 1.0001 0.994077
1.00034 1.00113 0.992976
0.999848 0.996896 0.999209
1.00005 0.998038 0.996486
1.00025 0.999988 0.994226
0.999915 0.996674 0.999247
1.00009 0.997844 0.996615
0.999971 0.996482 0.999281
0.994929 0.999492 0.952526
0.99409 0.999431 0.969593
0.993956 0.998577 0.978071
1.00006 1.00287 0.991766
1.00026 1.00177 0.992492
1.00008 1.00243 0.992088
1.00013 1.00226 0.992221
1.00009 1.00269 0.99189
1.00007 1.00277 0.991837
1.00006 1.00307 0.991549
0.999969 1.00276 0.991862
1.00021 1.00201 0.99232
1.00028 1.00213 0.992062
1.00006 1.00229 0.992322
0.999677 1.00267 0.992985
0.994993 0.999393 0.920018
0.995144 1.00231 0.936488
0.994438 1.00166 0.950438
0.995104 0.999768 0.921825
0.995076 0.999929 0.937993
0.995147 1.00008 0.953232
0.996077 0.997849 0.969319
0.99618 0.995277 0.977628
0.994769 0.998136 0.912102
0.995563 1.00005 0.955025
0.997324 0.99987 0.932745
0.995531 0.997242 0.978473
0.995826 1.00003 0.959929
0.998606 0.998157 0.93211
0.999184 1.0006 0.995489
0.999502 1.00163 0.994085
0.999981 1.00251 0.992331
0.994902 0.999607 0.994847
0.997544 1.00189 0.997182
0.999292 1.0025 0.993448
0.998545 1.00177 0.996438
0.99565 1.00127 0.994154
0.997744 1.00084 0.994226
0.994807 0.999744 0.926647
0.994495 0.99997 0.955776
0.993905 0.999505 0.976537
0.995655 1.00277 0.996989
0.994917 0.999148 0.977424
0.994587 1.0008 0.950633
0.995294 1.00006 0.954733
0.998419 0.997618 0.928883
0.995248 0.998944 0.921564
0.997021 0.999574 0.99417
0.99491 0.997913 0.930869
0.999885 0.995969 0.931369
0.994987 0.999068 0.972862
0.997731 0.998751 0.958399
0.998519 0.998557 0.99503
0.9999 0.995574 0.931057
0.998819 0.997598 0.958952
0.995175 0.998966 0.971835
0.998393 0.999099 0.998756
1.00201 0.997263 0.994218
1.00378 0.997115 0.991155
1.00039 1.0021 0.991082
1.00332 0.999302 0.988555
1.00481 0.996794 0.988515
1.00265 1.00328 0.986505
1.00428 0.999814 0.986673
1.00496 0.997531 0.987853
1.00385 1.00221 0.985241
1.00505 0.998952 0.98623
1.00511 0.997627 0.987551
1.00512 0.998169 0.986986
1.00505 0.999736 0.98568
1.00509 0.998939 0.986275
1.00377 1.00241 0.985173
1.00438 1.00172 0.984909
1.00478 1.00033 0.985403
1.00192 1.00372 0.987477
1.00234 1.00421 0.986065
1.00296 1.00398 0.98486
1.00105 1.00321 0.989588
1.00119 1.0039 0.988699
1.00105 1.0039 0.98876
1.00015 1.00238 0.992015
1.00048 1.0035 0.990364
1.00035 1.0044 0.989525
0.999606 0.999252 0.996044
1 1.00158 0.993052
1.00017 1.00308 0.991372
0.999426 0.997616 0.999225
0.999657 0.998844 0.996417
0.999976 1.00078 0.993912
0.999539 0.997353 0.999241
0.999751 0.998503 0.996606
0.999621 0.99719 0.999252
1.00018 1.00251 0.991915
1.00018 1.00226 0.992097
1.00028 1.00165 0.992546
1.0002 1.0004 0.993901
1.0003 1.00136 0.992786
1.0002 1.00196 0.992343
0.999944 0.99841 0.996314
1.00025 1.00023 0.99398
1.00032 1.00121 0.992911
0.999781 0.997084 0.999184
1 0.99823 0.996382
1.00026 1.00012 0.994075
0.999855 0.99686 0.999218
1.00005 0.998034 0.996493
0.999922 0.996638 0.999255
0.99495 0.999274 0.922998
0.994869 0.999542 0.95233
0.994068 0.999522 0.969575
0.999989 1.00297 0.991724
1.00022 1.00323 0.991302
0.999977 1.00327 0.991476
1.00015 1.00227 0.992252
1.00013 1.00262 0.991933
0.999998 1.00281 0.991799
1.00003 1.00275 0.991833
1.00003 1.0031 0.991521
0.999918 1.00366 0.991273
1.00019 1.0016 0.99269
1.0001 1.00225 0.992278
0.999683 1.00247 0.992914
0.999855 0.99666 0.929577
0.994998 0.999418 0.916901
0.995339 1.00244 0.935953
0.994627 0.998143 0.906238
0.996237 0.999152 0.937328
0.995707 1.00002 0.956304
0.995977 0.995032 0.975224
0.995248 0.997409 0.976733
0.998161 0.99853 0.93361
0.9964 1.00001 0.954779
0.99574 0.99796 0.97801
0.998246 0.998556 0.953088
1.00161 0.999325 0.992997
0.999405 1.00052 0.995281
0.99961 1.00155 0.994074
0.995128 1.00171 0.994312
0.999062 1.00157 0.996235
0.998091 1.00112 0.993651
1.00101 0.998946 0.990005
0.99995 0.99488 0.934448
0.994817 0.999802 0.9286
0.994436 0.999612 0.959833
0.997142 0.999538 0.994304
0.994859 0.999095 0.972337
0.99494 0.998388 0.930996
0.997647 0.998347 0.952556
0.999946 0.997128 0.936896
0.998415 0.9988 0.993354
0.999937 0.995341 0.93375
1.00099 0.996505 0.952354
0.995255 0.99857 0.974672
0.999294 0.996932 0.994621
1.00029 0.996422 0.957052
0.995644 1.00005 0.977477
1.00137 0.996858 0.994919
1.00368 0.996654 0.991133
1.00499 0.995601 0.990006
1.00322 0.999797 0.98847
1.00471 0.996806 0.988503
1.00489 0.996043 0.989268
1.00415 0.999921 0.986683
1.00491 0.997549 0.987817
1.00509 0.996219 0.988895
1.00503 0.998907 0.986224
1.00509 0.997582 0.987561
1.00514 0.996736 0.988343
1.00515 0.997567 0.987657
1.00512 0.998055 0.987093
1.00512 0.998786 0.986515
1.00483 1.00029 0.985732
1.00506 0.999659 0.985704
1.0051 0.998904 0.986315
1.00311 1.00266 0.98612
1.00377 1.0025 0.985266
1.00436 1.00164 0.985025
1.00161 1.00305 0.988718
1.00196 1.00371 0.987442
1.00211 1.0042 0.986207
1.00049 1.00253 0.991223
1.00111 1.00318 0.989579
1.00124 1.00387 0.988665
0.99963 0.999889 0.995341
1.0002 1.00229 0.992012
1.00055 1.00346 0.990372
0.999408 0.997885 0.999143
0.999602 0.999335 0.996006
1.00005 1.00155 0.993034
0.999457 0.997648 0.998685
0.999662 0.998873 0.996402
0.999532 0.99743 0.999228
1.00025 1.00278 0.991512
1.00011 1.00258 0.9919
1.00018 1.0021 0.992243
1.00021 1.00227 0.992088
1.00025 1.00168 0.992548
1.00012 1.00068 0.993747
0.999868 0.998592 0.996279
1.0002 1.0004 0.993906
1.00026 1.0014 0.99279
0.999705 0.997259 0.999168
0.999942 0.998407 0.996317
1.00024 1.00023 0.99398
0.999788 0.997055 0.999191
1 0.99823 0.996386
0.999862 0.996823 0.999227
0.999908 0.995171 0.935329
0.994967 0.999606 0.92319
0.994775 0.999595 0.952124
0.999928 1.00309 0.991681
0.999939 1.00344 0.991351
1.0001 1.0032 0.991433
1.00066 1.00331 0.99038
0.999925 1.00388 0.991038
1.00007 1.00277 0.991806
1.00002 1.00312 0.991493
0.999872 1.00351 0.991347
0.999926 1.0037 0.990514
1.00043 1.00209 0.991834
1.00353 1.00019 0.988173
0.99989 1.00179 0.993002
0.999763 1.00224 0.992842
1.00028 0.997003 0.956685
0.999347 0.99677 0.931755
0.994988 0.999281 0.917773
0.998541 0.998575 0.927793
0.995798 1.00003 0.9566
0.9955 0.997494 0.979089
0.99548 0.997953 0.980024
0.997438 0.998973 0.959832
0.99708 0.999422 0.977101
1.00383 0.996781 0.990948
1.00128 0.999176 0.99302
0.999605 1.00047 0.995066
0.998428 1.00127 0.993116
1.00174 0.999963 0.988663
1.00035 0.995323 0.95412
0.999937 0.99515 0.936951
0.994827 0.999528 0.930605
0.998243 0.999104 0.991658
0.994862 0.998743 0.972052
0.999916 0.995555 0.934565
0.999526 0.997845 0.958852
0.999101 0.998134 0.994908
1.00148 0.995636 0.956853
0.995664 0.999423 0.974383
1.00063 1.00047 0.991858
0.999661 0.997294 0.982135
1.00358 0.996203 0.991125
1.00498 0.995375 0.989795
1.0051 0.994973 0.990128
1.0046 0.996872 0.988489
1.00483 0.996027 0.989253
1.00507 0.995095 0.989904
1.00485 0.997577 0.98778
1.00509 0.996173 0.98888
1.00513 0.995778 0.989339
1.00507 0.997534 0.987572
1.00514 0.996766 0.988309
1.00514 0.996834 0.988455
1.00516 0.997432 0.987715
1.00514 0.998193 0.987119
1.00512 0.997942 0.987199
1.00511 0.998808 0.986505
1.005 0.999237 0.986301
1.00426 1.00084 0.985968
1.00482 1.00018 0.98572
1.00507 0.999594 0.985728
1.00245 1.00257 0.98767
1.00306 1.00276 0.986191
1.00375 1.00259 0.98536
1.00088 1.00245 0.990557
1.00166 1.00303 0.988691
1.002 1.0037 0.987408
0.999766 1.00044 0.994532
1.00053 1.00249 0.991228
1.00114 1.00318 0.989571
0.999427 0.998226 0.999001
0.99964 0.999942 0.99531
1.00026 1.0022 0.99201
0.999434 0.997944 0.999103
0.999599 0.999414 0.995966
0.999472 0.997695 0.999176
1.00073 1.00297 0.990455
1.00027 1.00271 0.991506
1.00022 1.0025 0.991719
1.00006 1.00263 0.991884
1.00016 1.00217 0.992178
1.00007 1.00113 0.993364
1.00023 1.00169 0.99255
1.00012 1.00067 0.993756
0.999776 0.998821 0.996221
0.999623 0.997437 0.999157
0.999865 0.998585 0.996282
1.00019 1.00039 0.99391
0.999713 0.997238 0.999172
0.999939 0.998405 0.99632
0.999794 0.997021 0.999198
1.00116 0.995151 0.959368
0.999906 0.995486 0.933953
0.994963 1.00012 0.921598
0.999894 1.00361 0.991226
0.999992 1.00314 0.991565
0.999954 1.00386 0.991084
1.00059 1.00329 0.990444
1.00106 1.00353 0.98932
1.00009 1.00366 0.990599
0.999824 1.00338 0.99142
1.00023 1.0038 0.990188
1.00037 1.00242 0.991565
1.00141 1.00188 0.989592
1.00351 1.00013 0.98882
1.00436 0.998412 0.987814
1.00305 1.00017 0.988695
0.99954 1.00214 0.993315
0.996131 0.999435 0.976353
1.00028 0.996315 0.955956
0.998939 0.997045 0.936981
0.998897 0.999279 0.952885
0.995244 0.998076 0.981328
0.997372 0.999159 0.981468
1.0013 0.998431 0.991881
1.00372 0.996828 0.991212
1.00125 0.998948 0.993043
1.00296 1.00101 0.987281
0.998317 0.996326 0.977936
1.00094 0.995085 0.960824
0.999916 0.995541 0.932208
0.99898 0.998938 0.995136
0.995439 0.999432 0.976471
1.00102 0.995878 0.956545
1.00069 1.00002 0.992008
0.998942 0.997214 0.98094
1.00341 1.00072 0.989422
1.00427 0.996011 0.989823
1.00493 0.995141 0.989573
1.00508 0.994988 0.990064
1.00508 0.995002 0.990241
1.00478 0.996013 0.989242
1.00506 0.995195 0.989863
1.0051 0.995228 0.989919
1.00509 0.996131 0.988865
1.00513 0.995793 0.98931
1.00512 0.996379 0.988976
1.00514 0.996801 0.988274
1.00513 0.996836 0.988371
1.00515 0.99769 0.987505
1.00517 0.9973 0.987774
1.00513 0.998098 0.987214
1.00504 0.998888 0.986654
1.00511 0.998831 0.986494
1.00501 0.999268 0.986291
1.00463 0.99973 0.98657
1.00345 1.00119 0.986988
1.00421 1.0009 0.98603
1.00483 1.00006 0.985708
1.00151 1.00215 0.989734
1.00246 1.00255 0.987671
1.00301 1.00286 0.986262
0.999893 1.00092 0.993802
1.00092 1.00247 0.990546
1.00171 1.00302 0.988665
0.99949 0.998631 0.998788
0.999803 1.00044 0.994521
1.00058 1.00244 0.991231
0.99947 0.998307 0.998932
0.999649 1 0.99528
0.999468 0.998006 0.999059
1.00116 1.00334 0.989327
1.00077 1.00295 0.990493
1.00057 1.0027 0.990968
1.00027 1.00268 0.9915
1.00025 1.00252 0.991638
1.00015 1.00162 0.992758
1.00015 1.00224 0.992112
1.00007 1.00113 0.993374
0.999684 0.999148 0.996058
1.00012 1.00065 0.993763
0.999777 0.998796 0.996229
0.999546 0.997632 0.99914
0.999632 0.997414 0.99916
0.999863 0.998577 0.996285
0.99972 0.997214 0.999177
0.997275 0.997985 0.977993
1.00099 0.995597 0.953387
0.999877 0.995113 0.937529
1.00232 1.00255 0.988082
0.99999 1.00384 0.99113
1.00051 1.00327 0.990507
1.00021 1.00373 0.99052
1.00101 1.00366 0.98925
1.00124 1.002 0.990155
1.00051 1.0039 0.989862
1.00038 1.00268 0.991297
1.00159 1.00183 0.989816
1.00357 1.00011 0.988387
1.00451 0.998922 0.987209
1.00453 0.996944 0.989203
1.00443 0.998487 0.987459
1.00265 1.00008 0.989218
1.00017 0.999033 0.993723
0.99644 0.999339 0.974898
0.999717 0.996721 0.955615
0.997471 0.998379 0.979745
1.00135 0.997278 0.993894
1.00319 0.996904 0.99146
1.00241 0.995807 0.989318
0.997481 0.995807 0.980361
1.00043 0.995102 0.954169
1.00061 0.99985 0.992159
0.999131 0.997132 0.979615
1.00335 0.998953 0.989639
1.00422 0.995709 0.98978
1.00505 0.99599 0.990044
1.00491 0.996206 0.990579
1.00511 0.995005 0.990001
1.00508 0.994979 0.990258
1.00513 0.995097 0.990114
1.00506 0.995285 0.989821
1.00511 0.995265 0.989921
1.00512 0.995937 0.989349
1.00514 0.995813 0.98928
1.00512 0.996358 0.988911
1.00515 0.99743 0.98777
1.00513 0.996838 0.988287
1.00514 0.997703 0.987519
1.0051 0.998609 0.986732
1.00512 0.998002 0.987309
1.00503 0.998812 0.98669
1.00477 0.999337 0.986605
1.00502 0.9993 0.98628
1.00464 0.999681 0.986518
1.004 1.00022 0.987181
1.00233 1.00131 0.989112
1.0034 1.00128 0.987058
1.00415 1.00096 0.986091
1.00014 1.00116 0.993128
1.00152 1.00216 0.989725
1.00247 1.00253 0.987673
0.999494 0.999097 0.998567
1.00001 1.0008 0.993788
1.00096 1.00247 0.990535
0.999518 0.99872 0.998709
0.999844 1.00043 0.99451
0.999515 0.998378 0.998855
1.00197 1.0031 0.987909
1.00113 1.00334 0.989339
1.00104 1.00288 0.990059
1.00081 1.00293 0.99053
1.00058 1.00268 0.990984
1.00028 1.00206 0.992114
1.00028 1.00255 0.991558
1.0001 1.0017 0.992757
0.999623 0.999608 0.995693
1.00006 1.00114 0.993383
0.999692 0.999093 0.996078
0.999496 0.99784 0.999096
0.999779 0.998776 0.996238
0.999552 0.997603 0.999146
0.999639 0.997394 0.999164
1.00126 0.998091 0.991638
0.997403 0.997443 0.974477
1.0002 0.995507 0.959808
1.00262 1.00098 0.988566
1.00443 0.999859 0.986585
1.00206 1.00247 0.988306
1.00032 1.00381 0.990439
1.00096 1.00379 0.989173
1.0016 1.00187 0.989939
1.00437 0.999197 0.987652
1.00172 1.00179 0.990038
1.00349 1.0001 0.987953
1.00442 0.998941 0.987405
1.00506 0.997725 0.987557
1.00487 0.995902 0.989677
1.00458 0.997088 0.98897
1.00445 0.99861 0.987106
1.00059 0.998912 0.993833
0.996162 0.999809 0.972972
1.00153 0.996362 0.995923
1.00499 0.995167 0.990983
1.00219 0.996368 0.989464
0.998135 0.995751 0.977206
1.00346 0.997412 0.989857
1.00418 0.995814 0.989747
1.00505 0.995497 0.990209
1.00497 0.995735 0.990393
1.00511 0.994996 0.990062
1.00517 0.995201 0.989761
1.00508 0.994968 0.990274
1.00512 0.995042 0.990103
1.00515 0.995794 0.989409
1.00511 0.995299 0.989922
1.00512 0.996011 0.989225
1.00513 0.997072 0.988186
1.00512 0.996335 0.988847
1.00515 0.997445 0.987781
1.00515 0.998476 0.986789
1.00513 0.997717 0.987533
1.00509 0.99861 0.986745
1.00488 0.999245 0.986527
1.00503 0.998739 0.986726
1.00477 0.999321 0.986605
1.0042 0.999848 0.987177
1.00466 0.99963 0.986466
1.00398 1.00019 0.987126
1.00288 1.00048 0.988932
1.00047 1.00094 0.992666
1.00231 1.00133 0.989113
1.00336 1.00138 0.987127
0.999454 0.999627 0.998366
1.00023 1.00107 0.993107
1.00153 1.0022 0.989716
0.999514 0.999214 0.998496
1.00009 1.00074 0.993772
0.999549 0.99881 0.998633
1.00333 1.00148 0.986649
1.00197 1.00303 0.987819
1.00176 1.0028 0.988764
1.0011 1.00332 0.989351
1.00098 1.00288 0.990086
1.00053 1.00237 0.991423
1.00059 1.00265 0.991
1.00023 1.00213 0.992113
0.999679 1.00011 0.995101
1.00006 1.00177 0.992758
0.999636 0.999535 0.995719
0.999484 0.998107 0.998987
0.9997 0.999039 0.996099
0.999491 0.997806 0.999114
0.999557 0.997577 0.999152
1.00501 0.995428 0.990104
1.0014 0.997671 0.990575
0.996984 0.996662 0.97523
1.00481 0.998998 0.986894
1.00226 1.00061 0.989643
1.00506 0.998815 0.986538
1.00452 1 0.986516
1.0018 1.00237 0.98854
1.00508 0.99813 0.987062
1.00195 1.0017 0.989731
1.00454 0.999199 0.987242
1.00513 0.99685 0.988182
1.00439 0.998959 0.987602
1.00501 0.997697 0.987566
1.00482 0.995947 0.989787
1.00448 0.997231 0.988727
1.00085 0.998773 0.993971
1.00517 0.9955 0.989375
1.005 0.995631 0.990995
1.002 0.996689 0.989588
1.00505 0.994901 0.990381
1.00495 0.995248 0.990211
1.00511 0.995002 0.990172
1.00518 0.995156 0.989806
1.00519 0.995647 0.989415
1.00511 0.99496 0.990092
1.00515 0.995765 0.989419
1.00511 0.996842 0.98846
1.00513 0.996096 0.989101
1.00513 0.997164 0.988081
1.00517 0.998371 0.986866
1.00514 0.99746 0.987792
1.00514 0.998482 0.9868
1.00496 0.999224 0.9864
1.00509 0.998611 0.986758
1.00488 0.999245 0.986534
1.00434 0.999718 0.987059
1.00476 0.999303 0.986605
1.00419 0.999857 0.98718
1.0031 1.00012 0.988886
1.00395 1.00017 0.987071
1.00287 1.0005 0.988929
1.00071 1.00058 0.993734
0.999588 0.99995 0.995869
1.00055 1.00089 0.993234
1.00229 1.00136 0.989115
0.999495 0.99975 0.998291
1.00036 1.00095 0.993085
0.999535 0.999311 0.998418
1.00512 0.998657 0.986738
1.00453 0.999655 0.986567
1.00349 1.00149 0.986561
1.00264 1.00221 0.987637
1.00196 1.00296 0.987729
1.0017 1.00283 0.988789
1.001 1.00236 0.990579
1.00092 1.00289 0.990114
1.00047 1.00239 0.991438
0.999849 1.00058 0.994362
1.00017 1.00221 0.992112
0.999662 1.00008 0.995116
0.999479 0.998493 0.998799
0.99965 0.999457 0.995743
0.999463 0.998053 0.99903
0.999488 0.997775 0.999129
1.00518 0.996057 0.988875
1.0051 0.99543 0.990499
1.00171 0.997237 0.989515
1.00514 0.99842 0.986758
1.00462 0.999102 0.987191
1.0019 1.00024 0.990696
1.00509 0.998908 0.986547
1.00463 1.00014 0.986446
1.0051 0.997129 0.988302
1.00507 0.99812 0.98702
1.00472 0.999224 0.986828
1.00512 0.996839 0.988191
1.00502 0.997683 0.987575
1.00484 0.995974 0.989915
1.00515 0.995916 0.989399
1.00519 0.9955 0.989452
1.00502 0.996074 0.991011
1.00515 0.995013 0.990279
1.00519 0.99515 0.989852
1.00518 0.995557 0.989516
1.00513 0.996925 0.988404
1.00514 0.995747 0.989429
1.00512 0.996869 0.988429
1.00517 0.998213 0.987036
1.00513 0.997254 0.987976
1.00517 0.998371 0.986876
1.00506 0.999196 0.986271
1.00513 0.998488 0.986811
1.00496 0.999221 0.986411
1.00446 0.999712 0.986843
1.00488 0.999245 0.986541
1.00434 0.99972 0.98706
1.00323 1.00002 0.988758
1.00418 0.999865 0.987183
1.00311 1.00012 0.988879
1.00087 1.00021 0.993855
1.00285 1.00052 0.988926
1.00084 1.00051 0.993695
0.999651 1.00011 0.995813
0.999507 1.00014 0.996984
1.0007 1.00081 0.993715
0.999532 0.999868 0.998215
1.00516 0.998455 0.9868
1.00491 0.999003 0.986905
1.00512 0.998595 0.986714
1.00363 1.00076 0.987193
1.00457 0.999644 0.986553
1.00364 1.0015 0.986473
1.00264 1.00224 0.987624
1.00169 1.00197 0.989637
1.00165 1.00285 0.988815
1.00095 1.00234 0.9906
1.00007 1.00096 0.99362
1.0004 1.0024 0.991452
0.99977 1.00064 0.994374
0.99943 0.999057 0.998568
0.999643 1.00006 0.99513
0.999459 0.998413 0.99887
0.999453 0.998004 0.999067
1.00513 0.996469 0.988785
1.00517 0.996054 0.988878
1.00511 0.99541 0.990868
1.00513 0.99772 0.987565
1.00514 0.99841 0.986787
1.00441 0.999203 0.987497
1.00511 0.998997 0.986555
1.0051 0.997135 0.98818
1.00507 0.998112 0.986979
1.00509 0.99684 0.988201
1.00511 0.996763 0.988596
1.00515 0.995974 0.989292
1.00521 0.995469 0.98953
1.00512 0.997329 0.987965
1.00518 0.995463 0.989616
1.00513 0.996931 0.988394
1.00515 0.997983 0.987408
1.00512 0.996896 0.988398
1.00517 0.998209 0.987042
1.00513 0.999098 0.98623
1.00516 0.998374 0.986886
1.00504 0.999196 0.986284
1.00461 0.99973 0.986565
1.00495 0.999219 0.986421
1.00446 0.999709 0.986846
1.00334 1 0.988564
1.00433 0.999722 0.987061
1.00324 1.00001 0.988754
1.00098 1.00002 0.993876
1.00311 1.00011 0.988872
1.00097 1.00016 0.993806
0.999679 1.00002 0.995903
1.00096 1.00041 0.993664
0.999462 1.00029 0.995914
0.999263 1.00035 0.998302
1.00515 0.998437 0.986792
1.00499 0.998923 0.986664
1.00517 0.998473 0.986758
1.00419 0.999709 0.987527
1.00487 0.99887 0.986865
1.00512 0.998533 0.986692
1.00253 1.00103 0.988984
1.00368 1.00077 0.987166
1.00461 0.999632 0.986541
1.00265 1.00227 0.98761
1.00169 1.00193 0.989651
1.00033 1.00111 0.992975
1.00091 1.00232 0.990621
0.999949 1.00106 0.993641
0.999365 0.999719 0.998353
0.999699 1.0007 0.994385
0.999425 0.998933 0.998656
0.999445 0.998323 0.998934
1.00512 0.9972 0.988051
1.00512 0.996391 0.988811
1.00517 0.996064 0.988882
1.00513 0.997691 0.987595
1.00514 0.998402 0.986816
1.0051 0.997142 0.988057
1.0051 0.997385 0.988025
1.00511 0.996838 0.988539
1.00513 0.996029 0.989185
1.00512 0.997317 0.988036
1.00512 0.99802 0.98734
1.00513 0.996939 0.988383
1.00515 0.99806 0.987259
1.00515 0.998862 0.986481
1.00517 0.998201 0.987047
1.00512 0.999097 0.986243
1.00476 0.99966 0.986337
1.00502 0.999191 0.986297
1.0046 0.999726 0.986571
1.00348 1.00002 0.988292
1.00446 0.999705 0.986849
1.00335 0.99999 0.988561
1.00106 1.00001 0.993742
1.00325 0.999988 0.98875
1.00106 0.999992 0.993805
0.999752 0.999942 0.99588
1.00106 1.00011 0.993766
0.999509 1.00011 0.996016
0.999282 1.0005 0.996
1.00513 0.998022 0.987331
1.0051 0.998921 0.986392
1.00517 0.998338 0.986884
1.00445 0.999463 0.987228
1.00499 0.998962 0.986668
1.00518 0.998493 0.986716
1.00308 1.00014 0.988848
1.00421 0.999623 0.987396
1.00482 0.99874 0.986824
1.00064 1.00083 0.992606
1.00255 1.00101 0.98898
1.00373 1.00078 0.987138
1.00168 1.00191 0.989665
1.00021 1.00121 0.992998
0.999386 1.00029 0.998177
0.999836 1.00118 0.99366
0.999351 0.999576 0.998433
0.999419 0.998798 0.998734
1.0051 0.997521 0.987822
1.00511 0.997174 0.988081
1.00512 0.996316 0.988837
1.00512 0.997663 0.987625
1.00511 0.998079 0.987313
1.0051 0.997393 0.988041
1.00511 0.996914 0.988481
1.00512 0.997307 0.988107
1.00512 0.99797 0.987386
1.00512 0.998775 0.98669
1.00515 0.998137 0.987111
1.00514 0.998953 0.986396
1.00485 0.999477 0.986295
1.0051 0.9991 0.986256
1.00475 0.999663 0.986348
1.00366 0.999991 0.987991
1.00458 0.999727 0.986577
1.00349 1.00001 0.988291
1.00117 1.00006 0.992363
1.00337 0.999974 0.988559
1.00114 0.999971 0.993103
0.999742 0.999962 0.998107
1.00114 0.999971 0.993737
0.999603 0.999955 0.996004
0.999353 1.0002 0.996112
1.00513 0.997976 0.987435
1.00511 0.998797 0.98656
1.00513 0.998082 0.987289
1.00469 0.999269 0.986673
1.0051 0.998921 0.986469
1.00518 0.998238 0.986976
1.00331 0.999783 0.988519
1.00446 0.999469 0.987222
1.00499 0.998999 0.986672
1.00089 1.00029 0.992618
1.00309 1.0001 0.988743
1.00423 0.999532 0.987265
0.99946 1.00051 0.99811
1.00058 1.00087 0.992622
1.00257 1.00099 0.988976
1.00011 1.00128 0.993028
0.999328 1.00015 0.998239
0.999335 0.999411 0.998514
1.00511 0.998051 0.98735
1.0051 0.997518 0.98783
1.00511 0.997146 0.988111
1.00511 0.998743 0.986685
1.00511 0.998031 0.987362
1.00511 0.997403 0.988057
1.00512 0.997916 0.987432
1.00512 0.998762 0.986693
1.00486 0.999381 0.986609
1.00513 0.999046 0.986312
1.00484 0.999553 0.986384
1.0038 0.999871 0.987588
1.00474 0.99966 0.986358
1.00365 0.999988 0.987994
1.00129 1.00008 0.992112
1.0035 1 0.98829
1.00119 1.00005 0.992352
0.999779 0.999975 0.998061
1.00116 0.999956 0.992528
0.999685 0.999936 0.997038
0.999456 0.999957 0.996124
1.00513 0.998208 0.987182
1.00512 0.998722 0.98658
1.00513 0.997956 0.987434
1.00476 0.999318 0.986653
1.00511 0.998828 0.986495
1.00512 0.998143 0.987246
1.00353 0.999635 0.988237
1.00469 0.999346 0.986809
1.00511 0.998921 0.986546
1.00106 0.999953 0.992653
1.00332 0.99978 0.988483
1.00446 0.999473 0.987216
0.999573 1.00035 0.998126
1.00089 1.00029 0.992623
1.0031 1.00006 0.988637
0.999433 1.0004 0.998121
1.00053 1.0009 0.992641
0.999274 1.00002 0.99831
1.0051 0.998642 0.986819
1.00511 0.998074 0.9873
1.0051 0.997514 0.987838
1.00482 0.999277 0.986772
1.00511 0.998698 0.986747
1.0051 0.99799 0.987411
1.00512 0.998749 0.986695
1.00486 0.999386 0.986605
1.00384 0.999784 0.987597
1.00483 0.999631 0.986473
1.00379 0.999908 0.987693
1.00141 1.00007 0.991918
1.00365 0.999983 0.987997
1.0013 1.00009 0.992104
0.999852 0.999993 0.997979
1.00119 1.00005 0.992341
0.999805 0.999977 0.99803
0.999749 0.999867 0.995837
1.00511 0.998724 0.986699
1.00513 0.998117 0.987218
1.00476 0.999293 0.986687
1.00512 0.998727 0.98658
1.00513 0.997935 0.987432
1.00364 0.999667 0.988325
1.00475 0.999319 0.986648
1.00512 0.998858 0.98643
1.0012 0.999844 0.992492
1.00354 0.999683 0.988325
1.00469 0.999427 0.986944
0.99972 1.00011 0.998102
1.00105 0.999944 0.992662
1.00334 0.999775 0.988447
0.999553 1.00033 0.998112
1.00088 1.00029 0.992624
0.999364 1.00036 0.99815
1.00478 0.999244 0.98689
1.00511 0.99867 0.986781
1.00511 0.998099 0.98725
1.00378 0.999727 0.987757
1.00482 0.999288 0.986772
1.00511 0.99865 0.986809
1.00486 0.999392 0.986601
1.00385 0.999781 0.987583
1.00146 1.00004 0.991858
1.00378 0.999941 0.987797
1.00141 1.00006 0.991914
0.999936 1.00001 0.997902
1.0013 1.00009 0.992095
0.999881 0.999997 0.997951
0.99983 0.99998 0.997997
1.00476 0.99927 0.986737
1.00511 0.998632 0.986755
1.00514 0.998026 0.987255
1.00365 0.999717 0.988256
1.00476 0.999295 0.986678
1.00511 0.998732 0.986581
1.0013 0.999885 0.992294
1.00364 0.999675 0.98832
1.00474 0.99932 0.986642
0.999841 0.999972 0.998029
1.0012 0.999851 0.9925
1.00355 0.999723 0.988414
0.999675 1.00014 0.998116
1.00105 0.999948 0.992672
0.999541 1.00032 0.998097
1.00373 0.999784 0.98807
1.00478 0.99921 0.986789
1.00511 0.998695 0.986744
1.00143 0.999998 0.99195
1.00379 0.99972 0.987735
1.00483 0.999299 0.986773
1.00385 0.999777 0.98757
1.00145 1.00003 0.991862
0.999991 1.00001 0.997846
1.00141 1.00006 0.991909
0.999957 1.00001 0.997875
0.999906 1 0.997925
1.00368 0.999755 0.988172
1.00476 0.999214 0.986731
1.0051 0.998541 0.986812
1.00139 0.999982 0.993297
1.00366 0.999716 0.98825
1.00475 0.999297 0.986669
0.99989 0.999948 0.99796
1.00129 0.999907 0.992297
1.00364 0.999682 0.988314
0.9998 1 0.998058
1.00119 0.999869 0.992508
0.999646 1.00015 0.99812
1.00143 0.99999 0.991998
1.00373 0.999745 0.987972
1.00479 0.999173 0.986688
0.999982 1 0.997854
1.00142 1 0.991953
1.00381 0.999715 0.987713
1.00145 1.00003 0.991864
0.999994 1.00001 0.997844
0.999983 1.00001 0.997858
1.00146 0.999991 0.993186
1.00369 0.99975 0.988172
1.00476 0.999157 0.986724
0.999666 0.999983 0.998172
1.00132 0.999986 0.992173
1.00367 0.999715 0.988245
0.999875 0.999965 0.997989
1.00129 0.999932 0.992302
0.999765 1.00002 0.998086
0.999946 1 0.99547
1.00144 0.999989 0.992599
1.00373 0.999708 0.987874
0.999977 1 0.997858
1.00142 1 0.991959
1 1.00001 0.997836
0.999668 1 0.995766
1.0014 0.999991 0.992656
1.00369 0.999745 0.988172
0.999776 0.999986 0.99686
1.00133 0.999982 0.992175
0.999852 0.999982 0.998014
0.999945 0.999997 0.99788
1.00137 0.999994 0.992062
0.999958 1 0.997867
0.999796 0.999995 0.996831
1.00135 0.999993 0.992116
0.999889 0.999975 0.997959
0.99993 0.999993 0.997899
0.999906 0.999986 0.997923

TENSORS stress float
0.00144448 -5.40369e-05 0.00012496
-5.40369e-05 0.000463426 -1.45639e-05
0.00012496 -1.45639e-05 0.00044232
0.00423309 -9.74976e-05 0.000116555
-9.74976e-05 0.00203721 7.81315e-06
0.000116555 7.81315e-06 0.00202589
0.0013874 2.22622e-05 6.53369e-05
2.22622e-05 0.000448318 -4.61286e-06
6.53369e-05 -4.61286e-06 0.000415832
0.00169858 -3.68773e-05 0.000128887
-3.68773e-05 0.000582096 -9.92244e-06
0.000128887 -9.92244e-06 0.000562883
0.0015803 -5.09207e-05 0.000125085
-5.09207e-05 0.000532187 -1.36241e-05
0.000125085 -1.36241e-05 0.000511458
0.00125632 -4.08212e-05 0.000117047
-4.08212e-05 0.000358444 -1.31687e-05
0.000117047 -1.31687e-05 0.000340761
0.00133338 -1.5435e-05 1.19922e-05
-1.5435e-05 0.000345243 -7.5569e-06
1.19922e-05 -7.5569e-06 0.000274913
0.0040862 -0.000124981 7.17977e-06
-0.000124981 0.00195684 -8.7931e-07
7.17977e-06 -8.7931e-07 0.00194389
0.00488798 -8.11662e-05 3.12878e-05
-8.11662e-05 0.00238148 1.86059e-06
3.12878e-05 1.86059e-06 0.00236573
0.00425052 -0.00027593 -1.00606e-05
-0.00027593 0.00209467 4.97066e-06
-1.00606e-05 4.97066e-06 0.00204766
0.00138968 -4.14969e-07 0.00010122
-4.14969e-07 0.000427165 7.39457e-06
0.00010122 7.39457e-06 0.00041631
0.000753572 9.52145e-05 1.32832e-05
9.52145e-05 3.12101e-05 9.19746e-06
1.32832e-05 9.19746e-06 -3.06257e-05
0.00164776 -1.89461e-05 0.000144838
-1.89461e-05 0.000544556 1.6631e-06
0.000144838 1.6631e-06 0.000526466
0.00124897 -3.05418e-06 1.65557e-05
-3.05418e-06 0.000339237 1.71546e-06
1.65557e-05 1.71546e-06 0.000308695
0.00140406 5.704e-05 -8.53137e-06
5.704e-05 0.000460911 4.22721e-06
-8.53137e-06 4.22721e-06 0.000425361
0.00147565 -2.65679e-05 5.09539e-05
-2.65679e-05 0.00046412 -3.04871e-06
5.09539e-05 -3.04871e-06 0.000440869
0.00128758 2.80341e-05 5.99349e-05
2.80341e-05 0.000393884 -4.30475e-06
5.99349e-05 -4.30475e-06 0.000363496
0.00143559 -6.42785e-07 5.83863e-05
-6.42785e-07 0.000459515 -4.9706e-06
5.83863e-05 -4.9706e-06 0.0004331
0.00141981 -6.03142e-05 -2.47437e-05
-6.03142e-05 0.000379219 1.36478e-06
-2.47437e-05 1.36478e-06 0.00031822
0.0051237 -9.22679e-05 0.000155135
-9.22679e-05 0.00250246 -3.04225e-06
0.000155135 -3.04225e-06 0.00249733
0.00167619 -2.32931e-05 0.000131987
-2.32931e-05 0.000566134 -7.6987e-06
0.000131987 -7.6987e-06 0.000546639
0.00167112 -4.58434e-05 0.000126627
-4.58434e-05 0.000572812 -1.19394e-05
0.000126627 -1.19394e-05 0.000553193
0.00144775 -5.98344e-05 3.0621e-05
-5.98344e-05 0.000358057 -4.67e-06
3.0621e-05 -4.67e-06 0.000300865
0.00141024 -3.78954e-05 2.0472e-05
-3.78954e-05 0.000360867 -6.27145e-06
2.0472e-05 -6.27145e-06 0.000299152
0.00115403 6.11661e-06 9.4144e-05
6.11661e-06 0.000299966 -1.04493e-05
9.4144e-05 -1.04493e-05 0.000283732
0.0011583 -1.13502e-05 1.02198e-05
-1.13502e-05 0.000271007 -7.4737e-06
1.02198e-05 -7.4737e-06 0.000201595
0.00188537 -0.000162632 9.0753e-06
-0.000162632 0.000517209 -3.88509e-06
9.0753e-06 -3.88509e-06 0.000407899
0.00392839 -0.000149325 -8.93364e-05
-0.000149325 0.00187138 -4.48911e-06
-8.93364e-05 -4.48911e-06 0.00185601
0.00313593 -1.30108e-05 -7.36947e-05
-1.30108e-05 0.00140399 -3.09669e-06
-7.36947e-05 -3.09669e-06 0.00138355
0.00278531 -9.94662e-05 -5.25606e-05
-9.94662e-05 0.00123857 -1.78181e-06
-5.25606e-05 -1.78181e-06 0.00121091
0.00368883 -0.000126054 5.19103e-06
-0.000126054 0.0017268 -3.71619e-07
5.19103e-06 -3.71619e-07 0.00171808
0.000647108 8.31782e-05 -5.93043e-08
8.31782e-05 -2.30245e-05 -3.34707e-07
-5.93043e-08 -3.34707e-07 -8.39909e-05
0.00155126 4.60153e-05 0.000132171
4.60153e-05 0.000501867 9.09196e-06
0.000132171 9.09196e-06 0.000482052
0.00176656 8.42811e-05 0.000131792
8.42811e-05 0.000637032 1.20685e-05
0.000131792 1.20685e-05 0.000617971
0.00247299 0.000133679 8.07275e-05
0.000133679 0.000936991 9.47043e-06
8.07275e-05 9.47043e-06 0.000884578
0.00303145 -0.000146526 1.44969e-05
-0.000146526 0.00136065 1.60379e-06
1.44969e-05 1.60379e-06 0.00134918
0.00238181 0.000117622 7.07356e-05
0.000117622 0.000926366 9.61811e-06
7.07356e-05 9.61811e-06 0.000872893
0.000676196 4.5647e-05 1.18801e-05
4.5647e-05 -3.18692e-06 1.102e-05
1.18801e-05 1.102e-05 -5.66e-05
0.000950194 0.000121251 5.52742e-06
0.000121251 8.85071e-05 2.68154e-06
5.52742e-06 2.68154e-06 -2.24818e-05
0.00261514 -9.28254e-05 5.42057e-05
-9.28254e-05 0.00111281 2.51746e-06
5.42057e-05 2.51746e-06 0.00111703
0.00516972 4.933e-05 1.73824e-06
4.933e-05 0.00252089 -1.02517e-06
1.73824e-06 -1.02517e-06 0.0025194
0.00318717 2.69293e-05 -5.79907e-05
2.69293e-05 0.00142103 -1.30273e-06
-5.79907e-05 -1.30273e-06 0.0014032
0.00518235 7.89432e-05 0.000156395
7.89432e-05 0.00253092 1.19506e-06
0.000156395 1.19506e-06 0.0025273
0.00134158 -2.97282e-06 1.35219e-05
-2.97282e-06 0.00039079 1.3108e-06
1.35219e-05 1.3108e-06 0.000359715
0.000743692 8.09587e-07 1.58534e-05
8.09587e-07 -6.47874e-05 2.07079e-06
1.58534e-05 2.07079e-06 -0.000128145
0.00486468 0.00010898 6.0905e-05
0.00010898 0.00236241 4.12223e-06
6.0905e-05 4.12223e-06 0.00234794
0.00250062 3.02409e-05 8.14418e-05
3.02409e-05 0.000922851 4.9135e-06
8.14418e-05 4.9135e-06 0.000877422
0.00120969 -4.84771e-05 -2.88575e-05
-4.84771e-05 0.000326414 3.34493e-06
-2.88575e-05 3.34493e-06 0.000296696
0.00132429 -4.55125e-06 -2.08327e-05
-4.55125e-06 0.000400776 3.62833e-06
-2.08327e-05 3.62833e-06 0.000371916
0.0013571 0.00012125 3.29027e-06
0.00012125 0.000458381 5.75489e-06
3.29027e-06 5.75489e-06 0.000410587
0.00145373 -8.31915e-05 -6.81025e-05
-8.31915e-05 0.000390271 9.46456e-06
-6.81025e-05 9.46456e-06 0.000334623
0.00329515 2.65749e-05 -6.28496e-05
2.65749e-05 0.0014875 -1.073e-06
-6.28496e-05 -1.073e-06 0.00146295
0.00147453 -3.5018e-05 5.34191e-05
-3.5018e-05 0.000463289 -1.92281e-06
5.34191e-05 -1.92281e-06 0.00043793
0.00115969 4.33388e-05 4.66159e-05
4.33388e-05 0.000316454 -3.32202e-06
4.66159e-05 -3.32202e-06 0.000291793
0.00146897 -1.94672e-05 5.32349e-05
-1.94672e-05 0.000465361 -4.29505e-06
5.32349e-05 -4.29505e-06 0.000442044
0.00149025 -6.0971e-05 -1.91409e-05
-6.0971e-05 0.000378669 6.80212e-07
-1.91409e-05 6.80212e-07 0.000324326
0.00129311 -3.5911e-05 -2.64604e-05
-3.5911e-05 0.000337762 4.28123e-07
-2.64604e-05 4.28123e-07 0.000273943
0.00147029 -7.00109e-05 -2.09707e-05
-7.00109e-05 0.000387095 1.30729e-06
-2.09707e-05 1.30729e-06 0.000330487
0.00193367 -0.000163801 -4.38663e-06
-0.000163801 0.000542353 1.13472e-06
-4.38663e-06 1.13472e-06 0.000432578
0.00513344 6.72836e-05 0.00014694
6.72836e-05 0.0025027 -4.69806e-08
0.00014694 -4.69806e-08 0.00250068
0.00169205 -9.01931e-06 0.000136924
-9.01931e-06 0.000571039 -5.23072e-06
0.000136924 -5.23072e-06 0.000551156
0.00235127 6.39083e-05 1.62551e-05
6.39083e-05 0.000850853 -1.2805e-06
1.62551e-05 -1.2805e-06 0.000794016
0.00144034 -6.51393e-05 2.98006e-05
-6.51393e-05 0.000351005 -4.10778e-06
2.98006e-05 -4.10778e-06 0.000291857
0.00144736 -5.44666e-05 2.72237e-05
-5.44666e-05 0.000363972 -5.37961e-06
2.72237e-05 -5.37961e-06 0.00030627
0.00194941 -0.000103835 9.31051e-06
-0.000103835 0.000483829 -2.23626e-06
9.31051e-06 -2.23626e-06 0.000386279
0.00151143 -0.000131296 1.1361e-05
-0.000131296 0.000272712 -4.06884e-06
1.1361e-05 -4.06884e-06 0.000166946
0.00113532 4.19801e-05 7.0212e-05
4.19801e-05 0.000280044 -8.19324e-06
7.0212e-05 -8.19324e-06 0.000266461
0.000879506 1.69542e-05 8.23686e-06
1.69542e-05 0.000140157 -5.87674e-06
8.23686e-06 -5.87674e-06 8.2698e-05
0.00167611 -0.000154111 6.60741e-06
-0.000154111 0.000457299 -3.70021e-06
6.60741e-06 -3.70021e-06 0.000347309
0.00128287 -0.00015724 5.9864e-06
-0.00015724 9.68548e-05 -1.64336e-06
5.9864e-06 -1.64336e-06 -3.99122e-05
0.00499229 1.87058e-05 -0.000144731
1.87058e-05 0.00243082 -8.57276e-06
-0.000144731 -8.57276e-06 0.0024282
0.00349816 -0.000137352 -7.59447e-05
-0.000137352 0.00162084 -2.97306e-06
-7.59447e-05 -2.97306e-06 0.00161151
0.00429419 -0.000151845 -9.86407e-05
-0.000151845 0.00208515 -6.94463e-06
-9.86407e-05 -6.94463e-06 0.00206476
0.000549727 7.89684e-05 -1.15311e-05
7.89684e-05 -7.31033e-05 -9.52026e-06
-1.15311e-05 -9.52026e-06 -0.000133458
0.00513912 7.14044e-05 -2.63719e-06
7.14044e-05 0.00250373 -1.06094e-06
-2.63719e-06 -1.06094e-06 0.00250173
0.00494038 -5.81189e-05 -6.9752e-06
-5.81189e-05 0.00242198 3.4494e-07
-6.9752e-06 3.4494e-07 0.00241016
0.000597968 0.000104179 -5.56564e-07
0.000104179 -0.000106229 -2.52152e-07
-5.56564e-07 -2.52152e-07 -0.000173495
0.00206276 -9.30021e-05 -3.16136e-05
-9.30021e-05 0.000811597 -1.79496e-07
-3.16136e-05 -1.79496e-07 0.000800788
0.000613429 0.00011424 -6.34354e-07
0.00011424 -5.59293e-05 -8.0681e-08
-6.34354e-07 -8.0681e-08 -0.000120848
0.00126457 2.49326e-05 2.00953e-05
2.49326e-05 0.000333437 2.5652e-07
2.00953e-05 2.5652e-07 0.000285957
0.000883365 0.000114661 3.0345e-07
0.000114661 4.99619e-05 -1.84887e-07
3.0345e-07 -1.84887e-07 -5.99104e-05
0.00292613 -9.74321e-05 7.05411e-05
-9.74321e-05 0.00128799 2.85974e-06
7.05411e-05 2.85974e-06 0.00129022
0.000630827 -6.7098e-05 -1.04688e-06
-6.7098e-05 -2.82786e-06 5.5416e-06
-1.04688e-06 5.5416e-06 -3.21896e-05
0.00072043 7.45558e-05 1.66403e-05
7.45558e-05 -5.88789e-05 7.82656e-06
1.66403e-05 7.82656e-06 -0.000123484
0.000756548 0.00011777 2.01939e-05
0.00011777 -2.59677e-06 1.19127e-05
2.01939e-05 1.19127e-05 -7.20377e-05
0.00105973 0.000115738 1.05277e-05
0.000115738 1.04727e-06 4.29457e-06
1.05277e-05 4.29457e-06 -0.000113474
0.0017988 -2.6801e-05 3.9973e-05
-2.6801e-05 0.000641236 5.00955e-06
3.9973e-05 5.00955e-06 0.000606717
0.00100097 0.000129048 7.08489e-06
0.000129048 6.72898e-05 4.43367e-06
7.08489e-06 4.43367e-06 -4.65627e-05
0.000935618 0.000101883 4.97796e-06
0.000101883 0.000122965 2.94754e-06
4.97796e-06 2.94754e-06 1.57961e-05
0.000903372 0.000144904 2.01654e-06
0.000144904 2.15472e-05 3.58671e-08
2.01654e-06 3.58671e-08 -0.000116091
0.00235314 -8.55479e-05 4.00394e-05
-8.55479e-05 0.00096148 2.60791e-06
4.00394e-05 2.60791e-06 0.000968021
0.00250288 -9.5776e-05 2.79331e-06
-9.5776e-05 0.00105159 -1.9927e-07
2.79331e-06 -1.9927e-07 0.00105503
0.00509746 2.60283e-05 -0.00014933
2.60283e-05 0.00247813 -5.82029e-06
-0.00014933 -5.82029e-06 0.00247804
0.0051463 4.20174e-05 -0.000149872
4.20174e-05 0.00250656 -2.69068e-06
-0.000149872 -2.69068e-06 0.00250626
0.00519864 7.42792e-05 1.18178e-06
7.42792e-05 0.00254213 -1.04395e-06
1.18178e-06 -1.04395e-06 0.00253714
0.00320802 -1.79968e-05 -7.01551e-05
-1.79968e-05 0.00142858 -1.57209e-06
-7.01551e-05 -1.57209e-06 0.00141288
0.001642 1.61331e-05 3.49711e-05
1.61331e-05 0.000438399 3.31634e-07
3.49711e-05 3.31634e-07 0.000383586
0.00322188 6.25156e-05 -6.38437e-05
6.25156e-05 0.00143756 -3.01222e-06
-6.38437e-05 -3.01222e-06 0.00142054
0.0016461 4.60073e-05 3.3156e-05
4.60073e-05 0.000449636 9.0442e-07
3.3156e-05 9.0442e-07 0.000394831
0.00520626 0.000141568 0.000152892
0.000141568 0.00255479 2.5058e-06
0.000152892 2.5058e-06 0.00254396
0.000685118 -2.07715e-06 1.6011e-05
-2.07715e-06 -9.8564e-05 5.59783e-07
1.6011e-05 5.59783e-07 -0.000161499
0.00255572 2.92853e-06 8.30993e-05
2.92853e-06 0.000950841 3.48374e-06
8.30993e-05 3.48374e-06 0.000905146
0.0011528 2.50149e-05 1.10782e-05
2.50149e-05 5.65369e-06 1.42263e-06
1.10782e-05 1.42263e-06 -0.000101564
0.00244155 7.41686e-05 8.13998e-05
7.41686e-05 0.000897209 5.87399e-06
8.13998e-05 5.87399e-06 0.000849612
0.00115163 6.19864e-05 1.06615e-05
6.19864e-05 1.82328e-05 2.5107e-06
1.06615e-05 2.5107e-06 -8.90789e-05
0.00167074 2.58862e-05 -0.000143427
2.58862e-05 0.00055898 8.3716e-07
-0.000143427 8.3716e-07 0.000540921
0.00123267 -2.05607e-05 -2.07451e-05
-2.05607e-05 0.000335006 1.97378e-06
-2.07451e-05 1.97378e-06 0.000305447
0.00116255 0.000100498 -3.75096e-06
0.000100498 0.000335063 4.18186e-06
-3.75096e-06 4.18186e-06 0.000298504
0.00125698 -3.09305e-05 -2.7177e-05
-3.09305e-05 0.000355234 3.53753e-06
-2.7177e-05 3.53753e-06 0.00032697
0.00157567 -4.66285e-05 -6.97945e-05
-4.66285e-05 0.000421247 5.567e-06
-6.97945e-05 5.567e-06 0.000370804
0.00151442 -7.46041e-05 -6.81505e-05
-7.46041e-05 0.000406575 8.62419e-06
-6.81505e-05 8.62419e-06 0.000353476
0.00136303 -7.10305e-05 -6.30473e-05
-7.10305e-05 0.000364249 8.98761e-06
-6.30473e-05 8.98761e-06 0.000308604
0.0019921 -0.000166 -1.779e-05
-0.000166 0.00057358 6.20682e-06
-1.779e-05 6.20682e-06 0.000463175
0.00519186 -7.08943e-05 -6.08593e-07
-7.08943e-05 0.00253757 -8.21604e-07
-6.08593e-07 -8.21604e-07 0.00253293
0.00147997 2.563e-05 6.24056e-05
2.563e-05 0.000460853 -1.74814e-06
6.24056e-05 -1.74814e-06 0.000435948
0.0011444 6.21079e-06 -3.75831e-05
6.21079e-06 0.000163421 5.22178e-07
-3.75831e-05 5.22178e-07 0.000106645
0.00149037 -4.11879e-05 -2.18937e-05
-4.11879e-05 0.000373233 5.90496e-07
-2.18937e-05 5.90496e-07 0.000318535
0.00224617 7.52863e-05 6.85655e-05
7.52863e-05 0.000912103 -4.70222e-07
6.85655e-05 -4.70222e-07 0.000902906
0.00144152 -3.30202e-06 -1.71944e-05
-3.30202e-06 0.000443053 -4.15714e-07
-1.71944e-05 -4.15714e-07 0.000389126
0.00149333 -6.7593e-05 -1.92433e-05
-6.7593e-05 0.000386575 9.53004e-07
-1.92433e-05 9.53004e-07 0.00033181
0.00177329 -9.62438e-05 -6.4805e-06
-9.62438e-05 0.000384057 1.1703e-06
-6.4805e-06 1.1703e-06 0.000285362
0.00181386 -0.000163775 -3.28807e-06
-0.000163775 0.000530899 1.01607e-06
-3.28807e-06 1.01607e-06 0.000418548
0.00175338 -0.000139751 -2.27037e-06
-0.000139751 0.000407702 4.74433e-07
-2.27037e-06 4.74433e-07 0.000302677
0.00123847 -0.000153763 7.17839e-08
-0.000153763 7.37283e-05 -1.30841e-07
7.17839e-08 -1.30841e-07 -6.24742e-05
0.000717084 6.66442e-06 1.62883e-05
6.66442e-06 -7.93911e-05 -1.22012e-06
1.62883e-05 -1.22012e-06 -0.000141591
0.00145287 1.55011e-06 2.30012e-05
1.55011e-06 0.000346809 -2.44119e-06
2.30012e-05 -2.44119e-06 0.000288329
0.00160698 -1.94964e-05 1.10898e-05
-1.94964e-05 0.000262065 -1.17881e-06
1.10898e-05 -1.17881e-06 0.000161418
0.00153843 -7.38436e-05 1.05051e-05
-7.38436e-05 0.000247559 -2.3069e-06
1.05051e-05 -2.3069e-06 0.000147248
0.00153999 -0.000112881 1.13062e-05
-0.000112881 0.000264955 -3.33847e-06
1.13062e-05 -3.33847e-06 0.000162594
0.0017747 -0.000111156 3.17755e-06
-0.000111156 0.000297231 -7.95366e-07
3.17755e-06 -7.95366e-07 0.000177466
0.00316999 0.000118772 6.77039e-05
0.000118772 0.00142456 -2.47066e-06
6.77039e-05 -2.47066e-06 0.00142167
0.0013346 -0.000142285 5.59485e-06
-0.000142285 8.93532e-05 -1.53599e-06
5.59485e-06 -1.53599e-06 -4.00846e-05
0.000531369 1.6819e-05 4.86999e-06
1.6819e-05 -6.61505e-05 -7.023e-06
4.86999e-06 -7.023e-06 -0.0001129
0.000659449 -9.96948e-05 4.01578e-06
-9.96948e-05 -4.37534e-05 -3.15542e-06
4.01578e-06 -3.15542e-06 -0.000148621
0.00136524 -0.000175351 5.26996e-06
-0.000175351 0.000206511 -2.90449e-06
5.26996e-06 -2.90449e-06 5.95159e-05
0.00145268 -0.000173957 3.40708e-06
-0.000173957 0.000129284 2.6076e-07
3.40708e-06 2.6076e-07 -1.60759e-05
0.000532903 5.04791e-05 1.38723e-06
5.04791e-05 -6.46506e-05 -6.48338e-06
1.38723e-06 -6.48338e-06 -0.000101723
0.00070253 2.37305e-05 5.54826e-07
2.37305e-05 1.25167e-05 -3.19594e-06
5.54826e-07 -3.19594e-06 -6.06885e-05
0.00511312 7.59813e-05 -0.000157899
7.59813e-05 0.00249107 -9.24867e-06
-0.000157899 -9.24867e-06 0.00248898
0.00466549 -7.54656e-05 -0.000120448
-7.54656e-05 0.00227049 -7.51936e-06
-0.000120448 -7.51936e-06 0.00226088
0.000588556 9.44797e-05 -1.54067e-05
9.44797e-05 -0.000111714 -8.6295e-06
-1.54067e-05 -8.6295e-06 -0.000179032
0.00309255 -0.00012074 -6.39244e-05
-0.00012074 0.00138785 -2.41527e-06
-6.39244e-05 -2.41527e-06 0.00138422
0.000521173 1.50774e-05 -5.80285e-06
1.50774e-05 -7.85311e-05 -8.39879e-06
-5.80285e-06 -8.39879e-06 -0.00012818
0.000514376 0.00010689 -1.46744e-05
0.00010689 -0.000107938 -9.57936e-06
-1.46744e-05 -9.57936e-06 -0.000172313
0.000835639 0.000109765 -5.61022e-06
0.000109765 2.22309e-05 -3.25849e-06
-5.61022e-06 -3.25849e-06 -8.67781e-05
0.00281871 -0.000104469 3.3199e-06
-0.000104469 0.00123068 -2.16141e-07
3.3199e-06 -2.16141e-07 0.0012315
0.000591144 -7.28371e-05 8.07876e-08
-7.28371e-05 -2.30543e-05 2.19228e-07
8.07876e-08 2.19228e-07 -5.32709e-05
0.00158296 9.07339e-05 3.22603e-05
9.07339e-05 0.000424983 1.29448e-06
3.22603e-05 1.29448e-06 0.000367092
0.00147889 0.000120894 2.90091e-05
0.000120894 0.000404467 8.97009e-07
2.90091e-05 8.97009e-07 0.000343621
0.00107297 0.000117982 2.22271e-07
0.000117982 9.20214e-06 -1.66039e-07
2.22271e-07 -1.66039e-07 -0.000105737
0.000630813 -2.48026e-05 -5.41828e-07
-2.48026e-05 -1.06145e-05 1.56234e-07
-5.41828e-07 1.56234e-07 -5.16555e-05
0.000950215 0.000125315 3.8414e-07
0.000125315 4.00119e-05 4.30822e-07
3.8414e-07 4.30822e-07 -7.32213e-05
0.000835557 9.36443e-05 2.60255e-07
9.36443e-05 6.69131e-05 -2.41051e-07
2.60255e-07 -2.41051e-07 -3.82706e-05
0.000830643 0.000140391 -1.57626e-08
0.000140391 -2.01467e-05 1.4387e-08
-1.57626e-08 1.4387e-08 -0.000158033
0.00062751 -4.96873e-05 2.93679e-06
-4.96873e-05 -4.0464e-06 6.09557e-06
2.93679e-06 6.09557e-06 -4.02276e-05
0.000664801 -6.35927e-05 -5.46122e-07
-6.35927e-05 5.59578e-06 4.50079e-06
-5.46122e-07 4.50079e-06 -1.65671e-05
0.000678219 -9.78642e-08 1.97924e-06
-9.78642e-08 1.24534e-05 2.93253e-06
1.97924e-06 2.93253e-06 -5.61399e-05
0.00110529 9.82508e-05 1.07008e-05
9.82508e-05 4.52933e-06 3.80972e-06
1.07008e-05 3.80972e-06 -0.00010741
0.0010308 0.000128128 9.31359e-06
0.000128128 3.03284e-05 4.50052e-06
9.31359e-06 4.50052e-06 -8.59238e-05
0.00130732 0.000144738 6.07454e-06
0.000144738 5.66074e-05 1.68762e-06
6.07454e-06 1.68762e-06 -8.22131e-05
0.000876506 7.45589e-05 3.92129e-06
7.45589e-05 0.000111504 3.12126e-06
3.92129e-06 3.12126e-06 1.43327e-05
0.000908333 0.000145815 2.45753e-06
0.000145815 -4.52194e-05 1.89722e-06
2.45753e-06 1.89722e-06 -0.000184319
0.00112993 0.000155569 2.17132e-06
0.000155569 0.000205779 7.99343e-07
2.17132e-06 7.99343e-07 6.63024e-05
0.00107215 0.0001672 -2.75652e-06
0.0001672 9.98097e-05 -1.36625e-06
-2.75652e-06 -1.36625e-06 -4.94503e-05
0.00220053 -7.5845e-05 3.32958e-05
-7.5845e-05 0.000867744 2.86509e-06
3.32958e-05 2.86509e-06 0.000877262
0.00227973 -8.5217e-05 1.35657e-06
-8.5217e-05 0.000920236 -1.48156e-07
1.35657e-06 -1.48156e-07 0.000926887
0.00239723 -9.55226e-05 -3.87664e-05
-9.55226e-05 0.000993425 -2.47872e-06
-3.87664e-05 -2.47872e-06 0.000996876
0.000556179 6.021e-05 6.32056e-07
6.021e-05 -5.28551e-05 -5.68923e-06
6.32056e-07 -5.68923e-06 -8.56461e-05
0.00296492 0.00010875 5.7813e-05
0.00010875 0.00130546 -2.59862e-06
5.7813e-05 -2.59862e-06 0.00130566
0.00513021 0.000104331 -0.000161575
0.000104331 0.00250134 -8.92717e-06
-0.000161575 -8.92717e-06 0.00249773
0.00507492 -6.18485e-07 -0.000146221
-6.18485e-07 0.00246684 -3.93137e-06
-0.000146221 -3.93137e-06 0.00246694
0.000724876 5.5031e-05 -1.62754e-05
5.5031e-05 -6.28039e-05 -4.17028e-06
-1.62754e-05 -4.17028e-06 -0.000125477
0.000693702 2.103e-05 -1.63888e-05
2.103e-05 -8.78342e-05 -2.31021e-06
-1.63888e-05 -2.31021e-06 -0.000151281
0.0051605 -6.15039e-05 -0.000147312
-6.15039e-05 0.0025169 -6.29282e-07
-0.000147312 -6.29282e-07 0.00251504
0.00519009 9.22018e-06 -9.26128e-07
9.22018e-06 0.00253227 4.16144e-07
-9.26128e-07 4.16144e-07 0.0025305
0.000683581 -2.72525e-06 -1.53687e-07
-2.72525e-06 -9.92563e-05 -1.89079e-07
-1.53687e-07 -1.89079e-07 -0.000162023
0.00162004 1.87787e-05 3.40476e-05
1.87787e-05 0.000431805 7.57467e-07
3.40476e-05 7.57467e-07 0.000377736
0.00116311 2.92378e-05 1.46406e-07
2.92378e-05 1.15021e-05 -2.12796e-07
1.46406e-07 -2.12796e-07 -9.58905e-05
0.000671651 5.23157e-05 1.80103e-07
5.23157e-05 -9.04282e-05 -1.78062e-07
1.80103e-07 -1.78062e-07 -0.000153129
0.00114298 6.43132e-05 -1.26077e-07
6.43132e-05 1.39694e-05 -3.34129e-09
-1.26077e-07 -3.34129e-09 -9.37096e-05
0.000676492 -1.56444e-05 1.63163e-05
-1.56444e-05 -0.00010455 -4.33897e-07
1.63163e-05 -4.33897e-07 -0.00016709
0.00116241 1.08643e-05 1.09995e-05
1.08643e-05 5.09301e-06 5.74742e-07
1.09995e-05 5.74742e-07 -0.000102325
0.00115136 4.40915e-05 1.08362e-05
4.40915e-05 1.37876e-05 2.19666e-06
1.08362e-05 2.19666e-06 -9.30991e-05
0.00142327 3.30965e-05 4.44542e-06
3.30965e-05 6.6087e-05 5.96052e-07
4.44542e-06 5.96052e-07 -5.63102e-05
0.00112938 7.90104e-05 1.06903e-05
7.90104e-05 8.88794e-06 2.86493e-06
1.06903e-05 2.86493e-06 -0.000100482
0.00144009 7.4777e-05 4.43368e-06
7.4777e-05 9.25797e-05 9.98359e-07
4.43368e-06 9.98359e-07 -3.25048e-05
0.00518046 -6.53204e-05 -0.000158795
-6.53204e-05 0.00253097 -3.30885e-07
-0.000158795 -3.30885e-07 0.00252651
0.00128824 -5.84187e-05 -1.76762e-05
-5.84187e-05 0.000364242 1.78715e-06
-1.76762e-05 1.78715e-06 0.00033277
-0.000152855 -3.45318e-07 -1.35453e-05
-3.45318e-07 -0.000561029 2.18289e-06
-1.35453e-05 2.18289e-06 -0.000630812
0.00158037 -3.13211e-05 -7.1317e-05
-3.13211e-05 0.000419436 4.13317e-06
-7.1317e-05 4.13317e-06 0.000368206
0.003215 0.000166417 -1.52383e-05
0.000166417 0.0014738 1.63007e-06
-1.52383e-05 1.63007e-06 0.00145557
0.00201248 -5.58552e-05 -5.23147e-05
-5.58552e-05 0.000745249 7.54593e-06
-5.23147e-05 7.54593e-06 0.000698949
0.00155611 -6.22976e-05 -6.88731e-05
-6.22976e-05 0.000417204 7.26911e-06
-6.88731e-05 7.26911e-06 0.000365862
0.00157806 -8.83574e-05 -2.06914e-05
-8.83574e-05 0.000273482 4.06222e-06
-2.06914e-05 4.06222e-06 0.000173769
0.00199596 -0.000148616 -1.71071e-05
-0.000148616 0.000543242 5.2123e-06
-1.71071e-05 5.2123e-06 0.000438954
0.00199973 -0.000175169 -1.46581e-05
-0.000175169 0.000631596 6.42951e-06
-1.46581e-05 6.42951e-06 0.000516627
0.00120232 -0.000150771 -5.11873e-06
-0.000150771 5.51023e-05 1.17224e-06
-5.11873e-06 1.17224e-06 -8.059e-05
0.000677149 9.3976e-06 2.2875e-08
9.3976e-06 -0.00010192 -1.75041e-07
2.2875e-08 -1.75041e-07 -0.000163957
0.00154224 -3.54674e-05 -2.38527e-05
-3.54674e-05 0.00039407 1.70704e-07
-2.38527e-05 1.70704e-07 0.000338173
0.00118826 -1.67996e-05 -4.52462e-06
-1.67996e-05 2.88077e-05 1.97461e-07
-4.52462e-06 1.97461e-07 -7.5259e-05
0.00180443 -7.70664e-05 -3.13717e-06
-7.70664e-05 0.000393428 4.12695e-07
-3.13717e-06 4.12695e-07 0.000294752
0.00319464 0.000115033 -1.61337e-06
0.000115033 0.00143887 -3.04858e-07
-1.61337e-06 -3.04858e-07 0.00143633
0.00120306 2.6925e-06 2.06825e-06
2.6925e-06 0.000306871 4.58449e-07
2.06825e-06 4.58449e-07 0.000260373
0.00120688 -0.000122663 5.98496e-07
-0.000122663 0.000256648 -4.1842e-07
5.98496e-07 -4.1842e-07 0.000150992
0.00155478 -0.000112123 -3.51567e-06
-0.000112123 0.000273637 6.58596e-07
-3.51567e-06 6.58596e-07 0.000171228
0.00146841 -0.000101617 -2.43152e-06
-0.000101617 0.000125657 6.5834e-07
-2.43152e-06 6.5834e-07 4.71362e-06
0.00101948 -0.000154 -8.05937e-07
-0.000154 1.89098e-05 -4.95803e-07
-8.05937e-07 -4.95803e-07 -0.000126226
0.00154521 -0.000149102 2.11198e-07
-0.000149102 0.000207094 -7.69086e-08
2.11198e-07 -7.69086e-08 7.86781e-05
0.00139609 -0.000170269 3.82947e-07
-0.000170269 9.99924e-05 6.8659e-08
3.82947e-07 6.8659e-08 -4.48719e-05
0.000563089 4.4555e-05 -6.60054e-07
4.4555e-05 -4.87455e-05 8.74579e-08
-6.60054e-07 8.74579e-08 -8.5535e-05
0.000687062 9.49605e-06 -1.70386e-07
9.49605e-06 2.20598e-06 1.39467e-07
-1.70386e-07 1.39467e-07 -7.10883e-05
0.00114776 -8.45811e-06 1.08432e-05
-8.45811e-06 -2.02852e-06 -1.16619e-06
1.08432e-05 -1.16619e-06 -0.000108646
0.0016166 -4.24659e-05 1.06113e-05
-4.24659e-05 0.000273959 -1.6446e-06
1.06113e-05 -1.6446e-06 0.000173204
0.00181072 -2.59893e-05 3.31006e-06
-2.59893e-05 0.000287382 -2.79717e-07
3.31006e-06 -2.79717e-07 0.000170177
0.00119526 -7.3572e-05 5.12858e-06
-7.3572e-05 -3.37344e-05 -1.5455e-06
5.12858e-06 -1.5455e-06 -0.000155772
0.00164601 -0.000135495 4.59105e-06
-0.000135495 0.000238528 -1.14537e-06
4.59105e-06 -1.14537e-06 0.000114809
0.00168211 -0.000108904 3.1725e-07
-0.000108904 0.000192505 4.33614e-08
3.1725e-07 4.33614e-08 6.98019e-05
0.000505696 3.03067e-05 3.65319e-06
3.03067e-05 -8.13682e-05 -6.77768e-06
3.65319e-06 -6.77768e-06 -0.000122451
0.0014463 -0.000151394 2.28166e-06
-0.000151394 9.25823e-05 -1.80277e-07
2.28166e-06 -1.80277e-07 -4.0946e-05
0.000635733 -6.86735e-05 2.74993e-06
-6.86735e-05 -2.90972e-05 -1.9933e-06
2.74993e-06 -1.9933e-06 -0.000125337
0.000523244 -0.00012257 3.49648e-06
-0.00012257 -0.000167967 -3.96419e-06
3.49648e-06 -3.96419e-06 -0.00030826
0.00198792 -0.000224853 2.13051e-06
-0.000224853 0.000497638 -6.09117e-07
2.13051e-06 -6.09117e-07 0.000333775
0.00155438 -0.000180752 3.37645e-07
-0.000180752 0.000139852 2.06751e-06
3.37645e-07 2.06751e-06 7.37458e-08
0.000761968 -2.21686e-05 1.66069e-06
-2.21686e-05 4.93434e-05 -2.98718e-06
1.66069e-06 -2.98718e-06 -3.65179e-05
0.000677645 2.29549e-05 1.19181e-06
2.29549e-05 -3.86924e-06 -2.60983e-06
1.19181e-06 -2.60983e-06 -6.76088e-05
0.000839151 -5.9402e-05 6.43741e-07
-5.9402e-05 9.11257e-05 -6.7869e-07
6.43741e-07 -6.7869e-07 -1.43777e-05
0.000636023 7.61606e-05 -1.5233e-05
7.61606e-05 -0.000101499 -6.85844e-06
-1.5233e-05 -6.85844e-06 -0.000166443
0.00271406 -0.000108249 -4.9205e-05
-0.000108249 0.00117425 -2.3117e-06
-4.9205e-05 -2.3117e-06 0.0011742
0.00054096 -6.55691e-05 -1.83596e-07
-6.55691e-05 -5.36486e-05 -4.78848e-06
-1.83596e-07 -4.78848e-06 -8.17862e-05
0.000526442 0.000107844 -1.52948e-05
0.000107844 -0.000121424 -9.85314e-06
-1.52948e-05 -9.85314e-06 -0.000188856
0.00108312 0.000120428 -1.08088e-05
0.000120428 1.56441e-05 -4.64647e-06
-1.08088e-05 -4.64647e-06 -9.97511e-05
0.000502267 -3.40598e-05 -3.00607e-06
-3.40598e-05 -7.9369e-05 -7.13237e-06
-3.00607e-06 -7.13237e-06 -0.000120785
0.000720162 8.31634e-05 -3.48995e-06
8.31634e-05 2.71497e-06 -3.11868e-06
-3.48995e-06 -3.11868e-06 -0.000100537
0.000896899 0.000121283 -6.57022e-06
0.000121283 1.16421e-05 -3.70085e-06
-6.57022e-06 -3.70085e-06 -0.000100976
0.000736153 0.000134581 -3.3764e-06
0.000134581 -7.41423e-05 -1.0499e-06
-3.3764e-06 -1.0499e-06 -0.000212079
0.000564694 -5.34637e-05 1.63874e-06
-5.34637e-05 -3.99216e-05 1.08065e-07
1.63874e-06 1.08065e-07 -7.48247e-05
0.000627972 -5.8567e-05 -2.54813e-07
-5.8567e-05 -1.62829e-05 1.52897e-07
-2.54813e-07 1.52897e-07 -3.72366e-05
0.000666725 -3.31335e-05 3.30224e-07
-3.31335e-05 2.39013e-06 3.65739e-07
3.30224e-07 3.65739e-07 -6.21984e-05
0.00111078 0.000100336 9.9948e-08
0.000100336 8.48305e-06 -1.80311e-07
9.9948e-08 -1.80311e-07 -0.000103894
0.00101711 0.000127998 6.07981e-07
0.000127998 2.40155e-05 -3.55621e-07
6.07981e-07 -3.55621e-07 -9.22011e-05
0.00133804 0.000147362 3.51866e-07
0.000147362 7.2668e-05 3.09313e-08
3.51866e-07 3.09313e-08 -6.66089e-05
0.000792546 6.46056e-05 9.64918e-08
6.46056e-05 6.73173e-05 9.63629e-09
9.64918e-08 9.63629e-09 -2.93111e-05
0.00109958 0.00015733 -2.4373e-07
0.00015733 6.10552e-05 -1.91997e-07
-2.4373e-07 -1.91997e-07 -7.90553e-05
0.00102014 0.000147142 3.96257e-07
0.000147142 0.000145278 -4.44449e-07
3.96257e-07 -4.44449e-07 6.71419e-06
0.00102913 0.000167263 -8.63739e-07
0.000167263 7.44587e-05 1.15374e-06
-8.63739e-07 1.15374e-06 -7.50681e-05
0.000671063 -5.1921e-05 1.48128e-06
-5.1921e-05 -4.04341e-06 3.66203e-06
1.48128e-06 3.66203e-06 -2.0026e-05
0.00072243 3.21265e-05 2.44242e-06
3.21265e-05 3.05468e-05 2.6501e-06
2.44242e-06 2.6501e-06 -5.11412e-05
0.000667141 -4.67511e-05 1.77432e-07
-4.67511e-05 -1.72125e-06 2.42842e-06
1.77432e-07 2.42842e-06 -5.3137e-05
0.000821598 3.72116e-05 1.98314e-07
3.72116e-05 9.78456e-05 9.23264e-07
1.98314e-07 9.23264e-07 -1.22372e-06
0.00138553 0.000121543 6.07973e-06
0.000121543 7.68363e-05 1.65191e-06
6.07973e-06 1.65191e-06 -5.66649e-05
0.0012531 0.000161036 5.47281e-06
0.000161036 7.88682e-05 2.82925e-06
5.47281e-06 2.82925e-06 -6.39539e-05
0.00152821 0.000164838 3.56125e-06
0.000164838 0.000119199 4.46911e-07
3.56125e-06 4.46911e-07 -2.97482e-05
0.00108429 0.000123134 2.34157e-06
0.000123134 0.000214356 2.24421e-06
2.34157e-06 2.24421e-06 8.84603e-05
0.00136796 0.000186032 -6.75819e-07
0.000186032 0.000166505 2.16581e-06
-6.75819e-07 2.16581e-06 1.61907e-05
0.000941322 0.000157709 -6.21226e-07
0.000157709 9.43163e-05 -1.87119e-06
-6.21226e-07 -1.87119e-06 -6.85622e-05
0.000966865 0.000170016 -4.73863e-07
0.000170016 3.76299e-06 -5.02475e-07
-4.73863e-07 -5.02475e-07 -0.000148589
0.000725426 -2.66546e-05 1.39076e-06
-2.66546e-05 2.96622e-06 1.69551e-06
1.39076e-06 1.69551e-06 -3.27789e-05
0.000668677 -3.90698e-05 1.2527e-06
-3.90698e-05 -2.28288e-05 3.50735e-06
1.2527e-06 3.50735e-06 -3.32469e-05
0.00213321 -6.68782e-05 2.85886e-05
-6.68782e-05 0.000820708 3.20543e-06
2.85886e-05 3.20543e-06 0.000832859
0.00215698 -7.50067e-05 1.56403e-06
-7.50067e-05 0.000842305 -1.40565e-07
1.56403e-06 -1.40565e-07 0.000852124
0.00219983 -8.34133e-05 -3.41758e-05
-8.34133e-05 0.000875005 -2.71519e-06
-3.41758e-05 -2.71519e-06 0.000882155
0.000580907 5.62735e-05 1.02699e-06
5.62735e-05 -4.70198e-05 -4.9506e-06
1.02699e-06 -4.9506e-06 -7.44022e-05
0.00275269 9.86249e-05 4.87505e-05
9.86249e-05 0.00118359 -2.8531e-06
4.87505e-05 -2.8531e-06 0.00118637
0.000582346 5.63083e-05 -2.91988e-07
5.63083e-05 -3.89917e-05 1.06084e-07
-2.91988e-07 1.06084e-07 -7.14703e-05
0.00300527 0.000105158 -1.81627e-06
0.000105158 0.00132721 -2.13439e-07
-1.81627e-06 -2.13439e-07 0.00132803
0.000693966 6.62149e-05 -1.58987e-05
6.62149e-05 -7.68161e-05 -5.46458e-06
-1.58987e-05 -5.46458e-06 -0.000140583
0.000689143 3.02209e-05 -1.58906e-05
3.02209e-05 -8.56389e-05 -3.27341e-06
-1.58906e-05 -3.27341e-06 -0.000148371
0.00113958 6.59801e-05 -1.05089e-05
6.59801e-05 1.24026e-05 -2.46257e-06
-1.05089e-05 -2.46257e-06 -9.55558e-05
0.00116262 3.13213e-05 -1.10787e-05
3.13213e-05 1.14924e-05 -1.82005e-06
-1.10787e-05 -1.82005e-06 -9.60073e-05
0.000710383 -1.00736e-06 -1.65858e-05
-1.00736e-06 -8.55011e-05 -1.04072e-06
-1.65858e-05 -1.04072e-06 -0.000147557
0.00521596 -9.01834e-05 -0.00015917
-9.01834e-05 0.00254989 1.56066e-06
-0.00015917 1.56066e-06 0.00254614
0.000699923 -1.26923e-06 1.01134e-07
-1.26923e-06 -9.24687e-05 -3.1284e-07
1.01134e-07 -3.1284e-07 -0.000154719
0.00116769 1.52763e-05 -1.25505e-09
1.52763e-05 8.19613e-06 -1.67352e-07
-1.25505e-09 -1.67352e-07 -9.93033e-05
0.00114964 4.51855e-05 -2.55154e-09
4.51855e-05 1.33118e-05 -6.4325e-08
-2.55154e-09 -6.4325e-08 -9.37375e-05
0.00142001 3.27061e-05 -1.0295e-08
3.27061e-05 6.52193e-05 -1.01275e-07
-1.0295e-08 -1.01275e-07 -5.7245e-05
0.00113352 8.17785e-05 -2.93282e-09
8.17785e-05 1.17499e-05 -2.68948e-07
-2.93282e-09 -2.68948e-07 -9.81541e-05
0.00140951 7.62997e-05 -8.39174e-08
7.62997e-05 7.65313e-05 9.66522e-08
-8.39174e-08 9.66522e-08 -4.89126e-05
0.00117285 -3.90526e-07 1.09492e-05
-3.90526e-07 1.01363e-05 -2.12006e-07
1.09492e-05 -2.12006e-07 -9.70618e-05
0.00143552 2.00967e-05 4.26786e-06
2.00967e-05 6.48155e-05 3.03039e-07
4.26786e-06 3.03039e-07 -5.70304e-05
0.00142411 5.43832e-05 4.47449e-06
5.43832e-05 7.91245e-05 9.23767e-07
4.47449e-06 9.23767e-07 -4.44226e-05
0.00157122 4.1342e-05 2.9286e-07
4.1342e-05 7.79897e-05 2.78728e-08
2.9286e-07 2.78728e-08 -4.09248e-05
0.00142886 9.79617e-05 4.70854e-06
9.79617e-05 8.88568e-05 8.69007e-07
4.70854e-06 8.69007e-07 -3.98612e-05
0.00152317 8.37369e-05 2.52445e-07
8.37369e-05 8.18616e-05 -1.30552e-07
2.52445e-07 -1.30552e-07 -4.34876e-05
0.000683206 1.26598e-05 -1.56983e-05
1.26598e-05 -9.94949e-05 7.38948e-07
-1.56983e-05 7.38948e-07 -0.000161535
0.00160678 -1.25945e-05 -7.33475e-05
-1.25945e-05 0.000426455 2.86857e-06
-7.33475e-05 2.86857e-06 0.000373901
0.000758469 -1.26532e-05 -1.17629e-05
-1.26532e-05 -0.000210568 1.61623e-06
-1.17629e-05 1.61623e-06 -0.000318111
0.0020489 -7.88805e-05 -1.81912e-05
-7.88805e-05 0.000527099 3.08246e-06
-1.81912e-05 3.08246e-06 0.000430239
0.00322887 0.000107468 -7.93902e-05
0.000107468 0.00145777 2.92943e-06
-7.93902e-05 2.92943e-06 0.00145626
0.00192494 -6.30931e-06 -4.39802e-05
-6.30931e-06 0.000705846 5.19479e-06
-4.39802e-05 5.19479e-06 0.000664951
0.00181234 -0.000153967 -9.93041e-06
-0.000153967 0.000588051 4.59503e-06
-9.93041e-06 4.59503e-06 0.000480711
0.00155714 -0.000110819 -1.79079e-05
-0.000110819 0.000275322 4.49718e-06
-1.79079e-05 4.49718e-06 0.000173006
0.00115705 -9.17949e-05 -6.41392e-06
-9.17949e-05 -4.87248e-05 1.74026e-06
-6.41392e-06 1.74026e-06 -0.000170816
0.0017551 -0.000155974 -6.47651e-06
-0.000155974 0.000324425 1.68667e-06
-6.47651e-06 1.68667e-06 0.000197019
0.000666694 -0.000132023 -4.7316e-06
-0.000132023 -0.000172408 1.35563e-06
-4.7316e-06 1.35563e-06 -0.000315616
0.00133755 -0.000166415 -2.32211e-06
-0.000166415 6.95802e-05 -1.8217e-07
-2.32211e-06 -1.8217e-07 -7.47561e-05
0.000601977 3.61048e-05 -3.84265e-06
3.61048e-05 -2.75331e-05 6.16649e-06
-3.84265e-06 6.16649e-06 -6.42911e-05
0.000683743 -5.15285e-06 -1.85885e-06
-5.15285e-06 -6.99091e-08 2.81829e-06
-1.85885e-06 2.81829e-06 -7.4424e-05
0.00096486 -4.31643e-06 -4.4614e-07
-4.31643e-06 -0.000102944 -2.04783e-07
-4.4614e-07 -2.04783e-07 -0.000210788
0.00161573 -4.37823e-05 -3.76957e-06
-4.37823e-05 0.000272871 3.17731e-07
-3.76957e-06 3.17731e-07 0.000172074
0.00175089 -2.25677e-05 -2.34073e-06
-2.25677e-05 0.000252086 3.40899e-07
-2.34073e-06 3.40899e-07 0.000134857
0.00153093 -7.96408e-05 9.76644e-07
-7.96408e-05 0.00015189 -3.39812e-07
9.76644e-07 -3.39812e-07 3.16702e-05
0.000576462 2.0468e-05 1.53114e-07
2.0468e-05 -4.45462e-05 1.61761e-07
1.53114e-07 1.61761e-07 -8.53203e-05
0.000821975 -8.56937e-05 -1.22493e-07
-8.56937e-05 7.27044e-05 2.17975e-07
-1.22493e-07 2.17975e-07 -2.57808e-05
0.000714466 -0.000134247 1.22584e-06
-0.000134247 -5.88891e-05 -1.29765e-06
1.22584e-06 -1.29765e-06 -0.000198329
0.00173317 -0.000136722 -1.34145e-06
-0.000136722 0.000286708 3.08522e-07
-1.34145e-06 3.08522e-07 0.000163251
0.00156507 -0.00010434 -6.36265e-07
-0.00010434 0.000124614 4.16001e-07
-6.36265e-07 4.16001e-07 2.51244e-06
0.00155066 -0.000198996 -1.67145e-06
-0.000198996 0.000255418 5.14233e-07
-1.67145e-06 5.14233e-07 9.23861e-05
0.00144828 -0.000151109 2.32621e-07
-0.000151109 9.36604e-05 7.62122e-08
2.32621e-07 7.62122e-08 -3.97778e-05
0.00150989 -0.000178992 3.70579e-07
-0.000178992 0.000112083 5.33765e-07
3.70579e-07 5.33765e-07 -2.81027e-05
0.000736318 -2.70547e-05 -3.10321e-07
-2.70547e-05 3.44712e-05 -1.7616e-07
-3.10321e-07 -1.7616e-07 -5.1574e-05
0.000743619 -2.85103e-05 -6.95138e-07
-2.85103e-05 3.288e-05 -3.72301e-07
-6.95138e-07 -3.72301e-07 -6.73694e-05
0.000690658 1.46694e-05 4.34615e-07
1.46694e-05 1.85333e-06 2.67946e-07
4.34615e-07 2.67946e-07 -6.16981e-05
0.00181274 -5.88648e-06 3.0642e-06
-5.88648e-06 0.000279568 -3.04851e-07
3.0642e-06 -3.04851e-07 0.000161655
0.00169432 -4.9013e-05 3.79719e-06
-4.9013e-05 0.000225323 -4.88521e-07
3.79719e-06 -4.88521e-07 0.000106362
0.00171471 -2.72343e-05 3.71065e-07
-2.72343e-05 0.000163099 4.71517e-07
3.71065e-07 4.71517e-07 4.47248e-05
0.00153722 -7.9326e-05 3.09319e-07
-7.9326e-05 9.72173e-05 -5.02905e-07
3.09319e-07 -5.02905e-07 -2.4761e-05
0.00142359 -0.000128914 2.15029e-06
-0.000128914 5.81196e-05 -2.11402e-07
2.15029e-06 -2.11402e-07 -6.85209e-05
0.00166721 -0.00010921 -2.47615e-06
-0.00010921 0.000132915 8.91435e-07
-2.47615e-06 8.91435e-07 1.87652e-05
0.000720922 -5.15293e-05 2.57658e-06
-5.15293e-05 2.79089e-05 -2.01975e-06
2.57658e-06 -2.01975e-06 -6.46503e-05
0.00152868 -0.000159272 -3.94988e-07
-0.000159272 9.35353e-05 4.18715e-07
-3.94988e-07 4.18715e-07 -3.54993e-05
0.000883518 -0.000134013 1.26037e-06
-0.000134013 8.62888e-05 -9.40089e-07
1.26037e-06 -9.40089e-07 -3.96452e-05
0.000729543 -0.000154206 3.9912e-06
-0.000154206 -9.11777e-05 -4.38869e-06
3.9912e-06 -4.38869e-06 -0.000258476
0.00188691 -0.0002251 1.26148e-06
-0.0002251 0.000387882 1.79828e-06
1.26148e-06 1.79828e-06 0.000221712
0.00182388 -0.000203146 -2.50923e-06
-0.000203146 0.000240187 1.86373e-06
-2.50923e-06 1.86373e-06 0.000105479
0.000696159 1.23288e-05 1.46467e-06
1.23288e-05 2.55465e-06 -2.22234e-06
1.46467e-06 -2.22234e-06 -5.35283e-05
0.000829301 -7.91099e-05 1.42228e-06
-7.91099e-05 7.36341e-05 4.03521e-07
1.42228e-06 4.03521e-07 -3.1063e-05
0.000688857 -9.57106e-06 6.07981e-07
-9.57106e-06 1.14238e-05 -1.53945e-06
6.07981e-07 -1.53945e-06 -8.57748e-05
0.00100207 -0.000125574 -2.40657e-07
-0.000125574 0.000180201 1.45124e-06
-2.40657e-07 1.45124e-06 6.25792e-05
0.00111163 0.000102588 -1.10529e-05
0.000102588 9.84264e-06 -4.10339e-06
-1.10529e-05 -4.10339e-06 -0.000102985
0.000598217 -5.47526e-05 -1.60209e-06
-5.47526e-05 -3.36461e-05 -3.82964e-06
-1.60209e-06 -3.82964e-06 -5.3733e-05
0.000505306 -7.25466e-05 1.64455e-06
-7.25466e-05 -6.7127e-05 -6.35662e-06
1.64455e-06 -6.35662e-06 -0.000105009
0.000682995 -6.06574e-05 1.11168e-06
-6.06574e-05 1.50703e-05 -3.03296e-06
1.11168e-06 -3.03296e-06 -5.10063e-05
0.000997245 0.000127705 -8.31338e-06
0.000127705 1.4469e-05 -5.25031e-06
-8.31338e-06 -5.25031e-06 -0.000101741
0.00135688 0.000149249 -5.77513e-06
0.000149249 8.23602e-05 -1.73713e-06
-5.77513e-06 -1.73713e-06 -5.73193e-05
0.000709558 5.70662e-05 -2.34192e-06
5.70662e-05 2.27799e-05 -2.61931e-06
-2.34192e-06 -2.61931e-06 -7.25081e-05
0.000967183 0.000142645 -2.93205e-06
0.000142645 0.000117016 -2.51116e-06
-2.93205e-06 -2.51116e-06 -2.12853e-05
0.00131586 0.000170386 -3.14074e-06
0.000170386 0.000181284 -2.10736e-06
-3.14074e-06 -2.10736e-06 3.99712e-05
0.000964321 0.000165657 -1.26582e-06
0.000165657 3.79199e-05 5.70894e-07
-1.26582e-06 5.70894e-07 -0.00011175
0.000645396 -4.9846e-05 3.95084e-08
-4.9846e-05 -1.86085e-05 3.25543e-08
3.95084e-08 3.25543e-08 -3.42444e-05
0.000740587 2.65126e-05 2.91777e-07
2.65126e-05 4.54365e-05 -1.01957e-07
2.91777e-07 -1.01957e-07 -3.84615e-05
0.000671079 -5.76934e-05 -4.81215e-07
-5.76934e-05 2.29248e-06 4.50752e-07
-4.81215e-07 4.50752e-07 -5.01766e-05
0.000801977 1.38031e-05 4.27145e-07
1.38031e-05 8.5762e-05 -2.2388e-07
4.27145e-07 -2.2388e-07 -1.12825e-05
0.00137716 0.000121931 9.89338e-07
0.000121931 7.2088e-05 1.35276e-07
9.89338e-07 1.35276e-07 -6.16211e-05
0.00125332 0.000162206 1.02036e-07
0.000162206 8.02024e-05 1.09421e-07
1.02036e-07 1.09421e-07 -6.29436e-05
0.00149112 0.000162565 3.53365e-07
0.000162565 0.000101746 2.07023e-08
3.53365e-07 2.07023e-08 -4.72291e-05
0.000995973 0.000120781 3.21742e-07
0.000120781 0.00016604 4.40047e-07
3.21742e-07 4.40047e-07 4.14433e-05
0.00154746 0.000196388 -9.29485e-07
0.000196388 0.000267376 -1.75977e-06
-9.29485e-07 -1.75977e-06 0.000116258
0.00110725 0.000169985 2.92531e-07
0.000169985 0.000186341 -1.42133e-06
2.92531e-07 -1.42133e-06 2.14621e-05
0.000971591 0.000169994 -2.02286e-06
0.000169994 1.06217e-05 -3.25158e-07
-2.02286e-06 -3.25158e-07 -0.000136177
0.000668579 -4.51598e-05 1.49652e-06
-4.51598e-05 -1.53305e-05 3.51163e-06
1.49652e-06 3.51163e-06 -2.79743e-05
0.000701401 -4.77645e-05 6.52635e-07
-4.77645e-05 8.44178e-06 1.93372e-06
6.52635e-07 1.93372e-06 -3.48484e-05
0.000983134 7.28993e-05 1.83972e-06
7.28993e-05 0.000173921 1.08566e-06
1.83972e-06 1.08566e-06 6.30942e-05
0.000780632 2.05223e-05 1.45174e-08
2.05223e-05 6.81985e-05 1.51254e-06
1.45174e-08 1.51254e-06 -1.3579e-05
0.000894693 9.15773e-05 4.86287e-07
9.15773e-05 0.000148875 -2.465e-08
4.86287e-07 -2.465e-08 3.23745e-05
0.00152562 0.000132049 2.82996e-06
0.000132049 9.86876e-05 9.80361e-08
2.82996e-06 9.80361e-08 -4.02102e-05
0.0014861 0.00018513 1.72549e-06
0.00018513 0.000151579 3.87781e-06
1.72549e-06 3.87781e-06 -2.98348e-06
0.00162356 0.000184013 -2.3171e-08
0.000184013 0.000140883 -3.39266e-07
-2.3171e-08 -3.39266e-07 -9.82705e-06
0.00110878 0.000160765 2.70175e-06
0.000160765 0.000233037 3.2582e-06
2.70175e-06 3.2582e-06 7.42336e-05
0.00138568 0.000199638 1.68894e-06
0.000199638 0.000149467 2.93218e-06
1.68894e-06 2.93218e-06 -3.83277e-06
0.000347859 0.000129729 1.73717e-06
0.000129729 -0.000277699 -3.12827e-06
1.73717e-06 -3.12827e-06 -0.000448089
0.000721093 -3.1172e-05 1.67818e-06
-3.1172e-05 4.29707e-06 1.5534e-06
1.67818e-06 1.5534e-06 -3.24317e-05
0.000758542 1.25061e-05 5.7121e-07
1.25061e-05 3.80571e-05 5.70089e-07
5.7121e-07 5.70089e-07 -2.00713e-05
0.000739924 -1.92767e-05 1.00437e-06
-1.92767e-05 7.68455e-06 1.78047e-06
1.00437e-06 1.78047e-06 -2.74931e-05
0.000732372 -2.60855e-05 1.02053e-07
-2.60855e-05 7.12209e-06 -1.22006e-08
1.02053e-07 -1.22006e-08 -2.87119e-05
0.0012559 -4.29345e-05 1.49421e-06
-4.29345e-05 0.000302069 2.14932e-06
1.49421e-06 2.14932e-06 0.000296652
0.000966144 -4.34446e-05 7.96412e-07
-4.34446e-05 0.000145122 -3.8767e-08
7.96412e-07 -3.8767e-08 0.000136295
0.00094063 -3.78561e-05 2.37636e-05
-3.78561e-05 0.000137574 6.35815e-06
2.37636e-05 6.35815e-06 0.000146028
0.00211621 -6.62164e-05 1.56992e-06
-6.62164e-05 0.000809958 -1.32359e-07
1.56992e-06 -1.32359e-07 0.000822368
0.00212442 -7.4047e-05 -3.05212e-05
-7.4047e-05 0.00082289 -3.03003e-06
-3.05212e-05 -3.03003e-06 0.000833058
0.000607039 4.62134e-05 1.58772e-06
4.62134e-05 -4.17036e-05 -4.4435e-06
1.58772e-06 -4.4435e-06 -6.42131e-05
0.00261305 8.9356e-05 4.17114e-05
8.9356e-05 0.00110055 -3.16223e-06
4.17114e-05 -3.16223e-06 0.00110563
0.000607228 5.65808e-05 -3.28701e-07
5.65808e-05 -3.16518e-05 2.93427e-08
-3.28701e-07 2.93427e-08 -5.94344e-05
0.00281437 9.73952e-05 -2.19777e-06
9.73952e-05 0.00121714 -1.87359e-07
-2.19777e-06 -1.87359e-07 0.00122023
0.000608619 5.37776e-05 -1.07326e-06
5.37776e-05 -2.45162e-05 5.93193e-06
-1.07326e-06 5.93193e-06 -5.70762e-05
0.00305616 0.000100875 -7.01023e-05
0.000100875 0.00135465 2.93053e-06
-7.01023e-05 2.93053e-06 0.00135618
0.00114556 8.46735e-05 -1.08093e-05
8.46735e-05 1.85893e-05 -3.33066e-06
-1.08093e-05 -3.33066e-06 -9.17882e-05
0.00115376 4.89861e-05 -1.06538e-05
4.89861e-05 1.6126e-05 -2.28776e-06
-1.06538e-05 -2.28776e-06 -9.12188e-05
0.00137164 7.41698e-05 -4.62824e-06
7.41698e-05 5.653e-05 -8.04959e-07
-4.62824e-06 -8.04959e-07 -6.90291e-05
0.00141846 3.25609e-05 -4.62666e-06
3.25609e-05 6.52992e-05 -7.72313e-07
-4.62666e-06 -7.72313e-07 -5.72332e-05
0.00117294 1.83852e-05 -1.11528e-05
1.83852e-05 1.13075e-05 -9.44067e-07
-1.11528e-05 -9.44067e-07 -9.62918e-05
0.000683254 1.33606e-05 -1.6249e-05
1.33606e-05 -0.000100957 -2.0099e-07
-1.6249e-05 -2.0099e-07 -0.000163425
0.00116639 1.75351e-06 2.00222e-08
1.75351e-06 6.5666e-06 -1.40676e-07
2.00222e-08 -1.40676e-07 -0.000100675
0.00142861 2.17796e-05 -8.44221e-08
2.17796e-05 6.18551e-05 -5.70147e-08
-8.44221e-08 -5.70147e-08 -6.00583e-05
0.00141031 5.17361e-05 2.94313e-08
5.17361e-05 7.22531e-05 -5.05163e-08
2.94313e-08 -5.05163e-08 -5.13038e-05
0.00160439 4.23804e-05 -1.25519e-07
4.23804e-05 9.44417e-05 1.13434e-07
-1.25519e-07 1.13434e-07 -2.3393e-05
0.0013985 9.74803e-05 -1.41188e-07
9.74803e-05 7.23285e-05 -1.48538e-07
-1.41188e-07 -1.48538e-07 -5.65263e-05
0.00154208 8.33339e-05 -1.05933e-07
8.33339e-05 9.47487e-05 1.25128e-07
-1.05933e-07 1.25128e-07 -3.06689e-05
0.00142737 6.18954e-06 4.4953e-06
6.18954e-06 6.02903e-05 -2.24186e-08
4.4953e-06 -2.24186e-08 -6.11921e-05
0.00163152 3.03714e-05 -1.81271e-07
3.03714e-05 9.04184e-05 2.87849e-07
-1.81271e-07 2.87849e-07 -2.59734e-05
0.00153169 6.35843e-05 2.7625e-07
6.35843e-05 7.18947e-05 -9.34711e-08
2.7625e-07 -9.34711e-08 -4.98791e-05
0.00171653 5.38432e-05 -1.08669e-06
5.38432e-05 9.74419e-05 2.45156e-07
-1.08669e-06 2.45156e-07 -1.02506e-05
0.00153071 0.000101148 4.48444e-07
0.000101148 9.3367e-05 -4.37256e-07
4.48444e-07 -4.37256e-07 -3.69617e-05
0.00165958 9.44989e-05 -2.90901e-06
9.44989e-05 9.7179e-05 -4.97401e-07
-2.90901e-06 -4.97401e-07 -1.24146e-05
0.000775709 -1.96079e-06 -1.07592e-05
-1.96079e-06 -0.00020707 6.21051e-07
-1.07592e-05 6.21051e-07 -0.000316195
0.0016351 -4.6813e-05 -1.79794e-05
-4.6813e-05 0.000282901 2.34443e-06
-1.79794e-05 2.34443e-06 0.00018204
0.00169031 -1.59648e-05 -7.59964e-06
-1.59648e-05 0.000216445 7.80921e-07
-7.59964e-06 7.80921e-07 9.92992e-05
0.00186788 -8.59574e-05 -4.98286e-06
-8.59574e-05 0.000338223 1.12799e-06
-4.98286e-06 1.12799e-06 0.000219806
0.00064889 1.04121e-05 -5.96378e-06
1.04121e-05 -5.20232e-06 6.46318e-06
-5.96378e-06 6.46318e-06 -4.67506e-05
0.000919757 -9.60528e-05 -4.45427e-06
-9.60528e-05 0.000127204 2.99423e-06
-4.45427e-06 2.99423e-06 2.69878e-05
0.000917821 -0.000147123 -1.17089e-06
-0.000147123 5.68342e-05 1.01956e-06
-1.17089e-06 1.01956e-06 -8.19345e-05
0.00182429 -0.000138102 -7.22944e-06
-0.000138102 0.000337055 1.81454e-06
-7.22944e-06 1.81454e-06 0.000213858
0.00145055 -9.97922e-05 -1.50632e-06
-9.97922e-05 5.80324e-05 5.30498e-07
-1.50632e-06 5.30498e-07 -6.34639e-05
0.00145091 -0.000150824 -2.15233e-06
-0.000150824 9.50997e-05 3.86911e-07
-2.15233e-06 3.86911e-07 -3.82431e-05
0.00110205 -0.000172598 -4.02925e-06
-0.000172598 7.04842e-06 9.0336e-07
-4.02925e-06 9.0336e-07 -0.000155122
0.00145136 -0.000176504 1.01004e-06
-0.000176504 7.63583e-05 -9.89337e-07
1.01004e-06 -9.89337e-07 -6.41536e-05
0.000710489 -3.05461e-05 -2.73316e-06
-3.05461e-05 1.77519e-05 2.4084e-06
-2.73316e-06 2.4084e-06 -6.73428e-05
0.000699903 -1.8789e-05 -1.5917e-06
-1.8789e-05 9.15426e-06 -4.56235e-08
-1.5917e-06 -4.56235e-08 -9.07232e-05
0.000697347 7.92068e-06 -1.12694e-06
7.92068e-06 4.42666e-06 2.7261e-06
-1.12694e-06 2.7261e-06 -5.91495e-05
0.00162689 -4.45043e-06 -2.32036e-06
-4.45043e-06 0.000175043 1.54657e-07
-2.32036e-06 1.54657e-07 5.55505e-05
0.00167945 -5.38378e-05 -1.56009e-06
-5.38378e-05 0.000217131 2.25734e-07
-1.56009e-06 2.25734e-07 9.78956e-05
0.00163307 -2.38233e-05 -5.42898e-07
-2.38233e-05 0.000115551 2.05498e-07
-5.42898e-07 2.05498e-07 -1.88664e-06
0.00162941 -7.89293e-05 -3.68954e-07
-7.89293e-05 0.000143677 -8.68833e-08
-3.68954e-07 -8.68833e-08 2.20144e-05
0.000770536 -5.92461e-05 3.85544e-08
-5.92461e-05 5.44992e-05 -1.4296e-07
3.85544e-08 -1.4296e-07 -3.87529e-05
0.00100248 -0.000143101 -3.55358e-07
-0.000143101 0.000149236 6.23859e-07
-3.55358e-07 6.23859e-07 2.19873e-05
0.000855324 -0.000159123 9.43643e-07
-0.000159123 -1.29741e-05 -1.80176e-06
9.43643e-07 -1.80176e-06 -0.000178243
0.00157406 -0.000134388 1.63081e-07
-0.000134388 0.000142463 -8.12745e-08
1.63081e-07 -8.12745e-08 1.53827e-05
0.00163324 -0.000107255 3.95371e-07
-0.000107255 0.000113738 4.26774e-07
3.95371e-07 4.26774e-07 1.79499e-06
0.0015365 -0.000206788 -3.34548e-07
-0.000206788 0.000193762 1.02243e-06
-3.34548e-07 1.02243e-06 2.73978e-05
0.00155397 -0.000160034 -7.04868e-08
-0.000160034 0.000105239 8.55209e-08
-7.04868e-08 8.55209e-08 -2.36101e-05
0.00179253 -0.00020101 3.76052e-07
-0.00020101 0.000223452 -5.57648e-07
3.76052e-07 -5.57648e-07 8.98171e-05
0.000913084 -8.82809e-05 -1.28746e-07
-8.82809e-05 0.000122386 -1.27194e-08
-1.28746e-07 -1.27194e-08 1.55323e-05
0.000959872 -0.000124314 -3.4456e-07
-0.000124314 0.000158208 3.62309e-07
-3.4456e-07 3.62309e-07 3.90933e-05
0.000705815 6.51502e-06 1.70416e-07
6.51502e-06 7.43307e-06 1.4427e-07
1.70416e-07 1.4427e-07 -4.88194e-05
0.000640419 1.12615e-05 -1.19448e-07
1.12615e-05 -1.97924e-05 -6.01765e-07
-1.19448e-07 -6.01765e-07 -0.000111976
0.0016193 -1.25077e-05 7.98318e-07
-1.25077e-05 9.90252e-05 3.519e-08
7.98318e-07 3.519e-08 -1.91342e-05
0.0018346 -5.24538e-05 3.79171e-07
-5.24538e-05 0.00023672 4.55217e-07
3.79171e-07 4.55217e-07 0.000117949
0.00168169 -4.03526e-05 1.62468e-07
-4.03526e-05 7.63664e-05 2.17749e-07
1.62468e-07 2.17749e-07 -3.51747e-05
0.00168735 -9.32934e-05 -3.04687e-06
-9.32934e-05 0.000118392 4.30168e-08
-3.04687e-06 4.30168e-08 1.09389e-05
0.00166066 -0.000136571 -2.26024e-06
-0.000136571 0.000140387 1.29011e-06
-2.26024e-06 1.29011e-06 2.19766e-05
0.00169853 -0.000111565 -9.22099e-07
-0.000111565 0.000102527 1.98007e-07
-9.22099e-07 1.98007e-07 2.88148e-06
0.000850931 -0.000124705 1.19106e-06
-0.000124705 8.34451e-05 2.71347e-07
1.19106e-06 2.71347e-07 -3.03315e-05
0.00164311 -0.000175184 -3.93818e-06
-0.000175184 0.000109626 1.68041e-06
-3.93818e-06 1.68041e-06 -8.73397e-06
0.000497514 -0.000123494 -3.85698e-07
-0.000123494 -0.000133478 -3.67077e-06
-3.85698e-07 -3.67077e-06 -0.000280571
0.0014435 -0.000213895 2.91866e-06
-0.000213895 0.000258747 -1.52914e-06
2.91866e-06 -1.52914e-06 6.97465e-05
0.00187691 -0.000231897 3.45711e-07
-0.000231897 0.000321817 2.8818e-06
3.45711e-07 2.8818e-06 0.000159586
0.00188922 -0.000210855 -1.03647e-06
-0.000210855 0.00024291 8.69691e-07
-1.03647e-06 8.69691e-07 0.000111381
0.000709266 2.03528e-06 1.97122e-06
2.03528e-06 6.53107e-06 -2.1189e-06
1.97122e-06 -2.1189e-06 -4.48756e-05
0.000639068 2.19781e-06 2.61928e-07
2.19781e-06 -1.07636e-05 -1.41109e-06
2.61928e-07 -1.41109e-06 -0.000101436
0.000903251 -0.000138044 2.30919e-07
-0.000138044 0.000121126 1.78639e-06
2.30919e-07 1.78639e-06 6.97884e-08
0.000903813 -9.17044e-05 1.42895e-06
-9.17044e-05 0.000133506 9.14345e-08
1.42895e-06 9.14345e-08 2.20628e-05
0.000973702 -0.000144461 -7.98871e-07
-0.000144461 0.000162466 2.75784e-06
-7.98871e-07 2.75784e-06 3.87603e-05
0.000622275 -4.82304e-05 -1.75911e-06
-4.82304e-05 -3.154e-05 -3.58159e-06
-1.75911e-06 -3.58159e-06 -4.69185e-05
0.00136448 0.000122177 -4.22222e-06
0.000122177 6.5109e-05 -1.44181e-06
-4.22222e-06 -1.44181e-06 -6.88196e-05
0.000668152 -6.64727e-05 -1.12859e-07
-6.64727e-05 2.61922e-06 -1.97903e-06
-1.12859e-07 -1.97903e-06 -5.10158e-05
0.000742055 7.91325e-06 -2.68007e-07
7.91325e-06 4.50089e-05 -3.04355e-06
-2.68007e-07 -3.04355e-06 -3.65656e-05
0.000790269 -9.55228e-06 1.2185e-06
-9.55228e-06 7.79848e-05 -1.08813e-06
1.2185e-06 -1.08813e-06 -1.69545e-05
0.00126707 0.00016398 -5.28211e-06
0.00016398 8.86393e-05 -2.59885e-06
-5.28211e-06 -2.59885e-06 -5.48454e-05
0.00146894 0.000161128 -2.32589e-06
0.000161128 9.21109e-05 -3.44536e-07
-2.32589e-06 -3.44536e-07 -5.69555e-05
0.000882063 0.00012664 -1.6334e-06
0.00012664 0.000105317 -1.25073e-06
-1.6334e-06 -1.25073e-06 -1.99442e-05
0.00137553 0.000189699 -1.94889e-06
0.000189699 0.000335461 -1.52484e-06
-1.94889e-06 -1.52484e-06 0.000167292
0.00170635 0.000205529 -1.92361e-06
0.000205529 0.00035677 -4.10376e-06
-1.92361e-06 -4.10376e-06 0.00020501
0.00101714 0.000172583 -3.75411e-06
0.000172583 3.99242e-05 8.23766e-07
-3.75411e-06 8.23766e-07 -0.000101655
0.000651908 -4.38904e-05 5.777e-08
-4.38904e-05 -2.45383e-05 1.07015e-09
5.777e-08 1.07015e-09 -3.70597e-05
0.000701548 -5.17901e-05 -3.86902e-07
-5.17901e-05 9.10839e-06 1.53403e-07
-3.86902e-07 1.53403e-07 -3.45974e-05
0.000918003 7.52421e-05 7.26184e-07
7.52421e-05 0.000139429 -5.52189e-08
7.26184e-07 -5.52189e-08 2.85497e-05
0.000763529 -1.86177e-05 -3.17445e-07
-1.86177e-05 5.73752e-05 1.80933e-07
-3.17445e-07 1.80933e-07 -2.21858e-05
0.000801166 6.37905e-05 8.09151e-07
6.37905e-05 9.33214e-05 -2.9609e-07
8.09151e-07 -2.9609e-07 -2.11855e-05
0.00151521 0.000132113 1.14273e-06
0.000132113 9.29429e-05 2.65452e-08
1.14273e-06 2.65452e-08 -4.62846e-05
0.0014045 0.000181267 -2.0928e-07
0.000181267 0.000109889 1.51837e-06
-2.0928e-07 1.51837e-06 -4.46335e-05
0.00161333 0.000185549 1.37025e-06
0.000185549 0.000134383 3.07921e-07
1.37025e-06 3.07921e-07 -1.72201e-05
0.00108024 0.000157881 1.34053e-06
0.000157881 0.000221221 1.26218e-06
1.34053e-06 1.26218e-06 6.35677e-05
0.00153276 0.000206956 1.66202e-06
0.000206956 0.000232352 -1.77495e-06
1.66202e-06 -1.77495e-06 7.91644e-05
0.000803124 0.00016125 -2.16502e-06
0.00016125 -3.29057e-05 -1.22172e-06
-2.16502e-06 -1.22172e-06 -0.000206326
0.00072121 -3.98132e-05 1.47006e-06
-3.98132e-05 1.05466e-05 1.58877e-06
1.47006e-06 1.58877e-06 -2.84324e-05
0.000789887 1.17877e-05 3.63948e-07
1.17877e-05 6.08628e-05 1.1956e-06
3.63948e-07 1.1956e-06 -5.29138e-06
0.00104518 0.000144615 -6.87623e-07
0.000144615 0.000218652 -2.75753e-07
-6.87623e-07 -2.75753e-07 8.20187e-05
0.000845393 1.87866e-05 1.33164e-07
1.87866e-05 0.000112031 7.58291e-07
1.33164e-07 7.58291e-07 1.55826e-05
0.00108706 7.53171e-05 -2.25404e-06
7.53171e-05 0.000245933 -2.9681e-06
-2.25404e-06 -2.9681e-06 0.000123462
0.00156544 0.000136047 -2.29573e-06
0.000136047 8.18131e-05 -2.45511e-06
-2.29573e-06 -2.45511e-06 -5.09676e-05
0.0014792 0.000200264 7.88958e-07
0.000200264 0.00011139 3.99407e-06
7.88958e-07 3.99407e-06 -4.65655e-05
0.00145736 0.000198857 -1.92183e-06
0.000198857 1.73288e-05 -1.56572e-06
-1.92183e-06 -1.56572e-06 -0.000122618
0.000941657 0.000155159 -4.85405e-07
0.000155159 0.000147758 5.96114e-07
-4.85405e-07 5.96114e-07 -3.90321e-05
0.00129315 0.00020763 2.35422e-06
0.00020763 0.000127685 2.95327e-07
2.35422e-06 2.95327e-07 -4.13837e-05
0.000724687 -3.0869e-05 1.85899e-08
-3.0869e-05 6.69572e-06 -1.32102e-08
1.85899e-08 -1.32102e-08 -3.01184e-05
0.000653253 -7.63255e-06 1.3012e-06
-7.63255e-06 -2.55913e-05 8.84242e-07
1.3012e-06 8.84242e-07 -8.14254e-05
0.000687653 -2.22446e-05 -5.98416e-07
-2.22446e-05 -3.30588e-06 -8.27145e-08
-5.98416e-07 -8.27145e-08 -6.04664e-05
0.000932215 3.36482e-05 1.13363e-06
3.36482e-05 0.000145597 -4.68165e-07
1.13363e-06 -4.68165e-07 7.54351e-05
0.000775683 2.6908e-05 1.66422e-06
2.6908e-05 4.51681e-05 6.91477e-07
1.66422e-06 6.91477e-07 -1.20234e-05
0.000740064 -7.76425e-06 1.02016e-06
-7.76425e-06 6.13906e-06 1.71973e-06
1.02016e-06 1.71973e-06 -2.91628e-05
0.000741563 -1.97852e-05 -8.40219e-08
-1.97852e-05 9.00072e-06 2.11432e-09
-8.40219e-08 2.11432e-09 -2.62554e-05
0.00125743 -3.45617e-05 9.99181e-07
-3.45617e-05 0.000296538 2.17828e-06
9.99181e-07 2.17828e-06 0.000292718
0.000739438 -2.58562e-05 -1.27949e-06
-2.58562e-05 1.13647e-05 -1.76702e-06
-1.27949e-06 -1.76702e-06 -2.45723e-05
0.0012754 -4.04193e-05 -4.59838e-06
-4.04193e-05 0.000312412 -1.21895e-06
-4.59838e-06 -1.21895e-06 0.000307355
0.000929815 -3.15139e-05 2.10304e-05
-3.15139e-05 0.000122469 6.56684e-06
2.10304e-05 6.56684e-06 0.000133174
0.0012681 -4.54171e-05 -9.82815e-06
-4.54171e-05 0.000315758 -3.21322e-06
-9.82815e-06 -3.21322e-06 0.000308914
0.00149515 -4.76283e-05 1.92914e-05
-4.76283e-05 0.000450847 1.95755e-06
1.92914e-05 1.95755e-06 0.000462405
0.00210023 -6.54016e-05 -2.72111e-05
-6.54016e-05 0.000799787 -3.35297e-06
-2.72111e-05 -3.35297e-06 0.000812481
0.000627795 4.06069e-05 1.44219e-06
4.06069e-05 -3.82534e-05 -4.17805e-06
1.44219e-06 -4.17805e-06 -5.70392e-05
0.000622323 4.92094e-05 -7.60065e-08
4.92094e-05 -3.22573e-05 3.90858e-08
-7.60065e-08 3.90858e-08 -5.53697e-05
0.00249902 7.97353e-05 3.56269e-05
7.97353e-05 0.00103025 -3.47967e-06
3.56269e-05 -3.47967e-06 0.00103775
0.00265767 8.89597e-05 -2.34769e-06
8.89597e-05 0.00112518 -1.90825e-07
-2.34769e-06 -1.90825e-07 0.0011304
0.000627957 5.37482e-05 -7.21739e-07
5.37482e-05 -2.03263e-05 5.27248e-06
-7.21739e-07 5.27248e-06 -4.79343e-05
0.00286394 9.38407e-05 -6.00663e-05
9.38407e-05 0.00124369 2.95579e-06
-6.00663e-05 2.95579e-06 0.00124756
0.00136698 9.70798e-05 -4.82451e-06
9.70798e-05 5.51306e-05 -1.14811e-06
-4.82451e-06 -1.14811e-06 -7.38745e-05
0.00139924 5.23679e-05 -4.66827e-06
5.23679e-05 6.69499e-05 -1.02713e-06
-4.66827e-06 -1.02713e-06 -5.68496e-05
0.00155808 8.39677e-05 -4.46376e-07
8.39677e-05 0.000106076 3.72786e-07
-4.46376e-07 3.72786e-07 -1.94866e-05
0.00163531 4.34159e-05 -2.35535e-07
4.34159e-05 0.000109727 6.00514e-08
-2.35535e-07 6.00514e-08 -7.02454e-06
0.00142512 2.49136e-05 -4.3089e-06
2.49136e-05 6.06629e-05 -3.94642e-07
-4.3089e-06 -3.94642e-07 -6.13507e-05
0.00117221 6.6157e-06 -1.09084e-05
6.6157e-06 9.45118e-06 -1.57804e-07
-1.09084e-05 -1.57804e-07 -9.7758e-05
0.00143347 9.94103e-06 7.96396e-08
9.94103e-06 6.33622e-05 -7.78624e-08
7.96396e-08 -7.78624e-08 -5.81842e-05
0.00164325 2.02181e-05 -4.53438e-07
2.02181e-05 9.64368e-05 -2.18184e-08
-4.53438e-07 -2.18184e-08 -1.98429e-05
0.00155709 6.26397e-05 -6.91017e-08
6.26397e-05 8.84628e-05 -2.97196e-08
-6.91017e-08 -2.97196e-08 -3.31998e-05
0.00176625 5.65568e-05 6.75025e-07
5.65568e-05 0.000122383 5.35704e-07
6.75025e-07 5.35704e-07 1.67366e-05
0.00152767 0.000102343 -1.35368e-07
0.000102343 9.01753e-05 -3.71353e-08
-1.35368e-07 -3.71353e-08 -4.0584e-05
0.00165616 9.33085e-05 -1.58326e-07
9.33085e-05 9.43283e-05 5.99181e-07
-1.58326e-07 5.99181e-07 -1.35246e-05
0.00164052 -1.25728e-06 6.2384e-07
-1.25728e-06 0.000100091 1.42404e-07
6.2384e-07 1.42404e-07 -1.63993e-05
0.00174424 3.95834e-05 -2.01611e-07
3.95834e-05 9.29855e-05 7.3259e-07
-2.01611e-07 7.3259e-07 -1.47218e-05
0.00172534 7.80554e-05 -3.02772e-06
7.80554e-05 0.000116008 -2.67778e-07
-3.02772e-06 -2.67778e-07 1.19955e-05
0.00180986 6.36973e-05 -1.86878e-07
6.36973e-05 0.000128148 2.96986e-07
-1.86878e-07 2.96986e-07 3.23181e-05
0.00156358 9.88707e-05 -2.00299e-06
9.88707e-05 5.41208e-05 -1.71935e-06
-2.00299e-06 -1.71935e-06 -6.27626e-05
0.00189493 0.000105905 -1.71294e-07
0.000105905 0.000183212 -1.80568e-08
-1.71294e-07 -1.80568e-08 8.84011e-05
0.00143961 -3.45474e-06 -6.33791e-06
-3.45474e-06 6.96628e-05 4.56912e-07
-6.33791e-06 4.56912e-07 -5.14041e-05
0.00166758 -5.56092e-05 -6.83004e-06
-5.56092e-05 0.00021055 1.02081e-06
-6.83004e-06 1.02081e-06 9.1156e-05
0.00155008 -2.22114e-05 -1.4587e-06
-2.22114e-05 6.72783e-05 -2.6112e-07
-1.4587e-06 -2.6112e-07 -4.92922e-05
0.00171874 -7.90228e-05 -1.27526e-06
-7.90228e-05 0.000188598 3.73081e-07
-1.27526e-06 3.73081e-07 6.72167e-05
0.000839427 -6.83537e-05 -3.48569e-06
-6.83537e-05 9.1576e-05 2.21427e-06
-3.48569e-06 2.21427e-06 -2.44958e-06
0.00112432 -0.000152319 -2.00312e-06
-0.000152319 0.000213932 2.20246e-06
-2.00312e-06 2.20246e-06 8.53251e-05
0.00100125 -0.000164982 -1.44665e-06
-0.000164982 7.64337e-05 1.31367e-06
-1.44665e-06 1.31367e-06 -8.6903e-05
0.00172245 -0.000139736 -2.03416e-06
-0.000139736 0.000225664 2.84158e-07
-2.03416e-06 2.84158e-07 9.81518e-05
0.00159537 -0.000105245 2.48296e-06
-0.000105245 9.24982e-05 -4.91236e-07
2.48296e-06 -4.91236e-07 -1.72289e-05
0.00157471 -0.00016056 1.02571e-06
-0.00016056 0.000114807 -4.35834e-07
1.02571e-06 -4.35834e-07 -1.38449e-05
0.00118163 -0.000188175 -2.47123e-06
-0.000188175 -3.27258e-06 -8.70475e-07
-2.47123e-06 -8.70475e-07 -0.000169715
0.00177255 -0.000199136 3.96829e-06
-0.000199136 0.000212574 -3.01052e-06
3.96829e-06 -3.01052e-06 8.003e-05
0.000935615 -8.24837e-05 -1.32805e-06
-8.24837e-05 0.000134626 -3.37323e-07
-1.32805e-06 -3.37323e-07 2.84717e-05
0.00086963 -9.35771e-05 -1.1602e-06
-9.35771e-05 0.000101663 -9.16346e-07
-1.1602e-06 -9.16346e-07 -1.22347e-05
0.000715376 4.04738e-06 -1.4927e-06
4.04738e-06 1.20989e-05 2.32413e-06
-1.4927e-06 2.32413e-06 -4.42405e-05
0.000622113 2.52204e-05 5.88473e-08
2.52204e-05 -3.17725e-05 2.74906e-07
5.88473e-08 2.74906e-07 -0.00012115
0.00160956 -1.21082e-05 1.89259e-08
-1.21082e-05 9.27281e-05 -2.79907e-08
1.89259e-08 -2.79907e-08 -2.54685e-05
0.00176815 -5.0442e-05 -6.82905e-07
-5.0442e-05 0.000197944 2.22986e-07
-6.82905e-07 2.22986e-07 7.80458e-05
0.00169224 -3.96398e-05 2.19422e-07
-3.96398e-05 8.54077e-05 -1.89544e-07
2.19422e-07 -1.89544e-07 -2.51775e-05
0.00164292 -9.17025e-05 -4.13646e-07
-9.17025e-05 9.92475e-05 7.94603e-08
-4.13646e-07 7.94603e-08 -9.7861e-06
0.000954297 -0.00011794 -3.43082e-07
-0.00011794 0.00013767 4.05655e-07
-3.43082e-07 4.05655e-07 2.49938e-05
0.000671279 -0.000133467 9.6045e-07
-0.000133467 -3.56407e-05 -1.25838e-06
9.6045e-07 -1.25838e-06 -0.000180561
0.00139391 -0.000208751 -5.72036e-07
-0.000208751 0.000236721 5.72449e-07
-5.72036e-07 5.72449e-07 4.57235e-05
0.00163551 -0.000136163 -8.70985e-07
-0.000136163 0.000128883 2.89176e-07
-8.70985e-07 2.89176e-07 8.69966e-06
0.00165136 -0.000111519 1.51056e-06
-0.000111519 7.68262e-05 -5.21318e-07
1.51056e-06 -5.21318e-07 -2.08227e-05
0.00164478 -0.000219358 -4.505e-07
-0.000219358 0.000189858 5.47461e-07
-4.505e-07 5.47461e-07 2.94413e-05
0.0016541 -0.000174998 -2.01069e-07
-0.000174998 0.000116289 2.86327e-07
-2.01069e-07 2.86327e-07 -1.85387e-06
0.00174496 -0.000204317 2.1493e-06
-0.000204317 0.000163418 -2.24014e-06
2.1493e-06 -2.24014e-06 3.28712e-05
0.000982453 -0.000143792 2.0489e-07
-0.000143792 0.000164597 2.9752e-07
2.0489e-07 2.9752e-07 4.27778e-05
0.00100258 -0.00013878 5.44371e-07
-0.00013878 0.000174831 4.43182e-07
5.44371e-07 4.43182e-07 5.31144e-05
0.000870988 -6.41817e-05 -3.65991e-07
-6.41817e-05 0.000112373 -9.56303e-08
-3.65991e-07 -9.56303e-08 4.07949e-06
0.000581831 1.46271e-05 -5.31845e-07
1.46271e-05 -6.37923e-05 6.89996e-08
-5.31845e-07 6.89996e-08 -0.000116725
0.000622521 2.22846e-05 9.55552e-08
2.22846e-05 -2.42878e-05 -4.50039e-07
9.55552e-08 -4.50039e-07 -0.000110938
0.00178991 -2.63469e-05 1.3404e-07
-2.63469e-05 0.000120961 -9.36982e-09
1.3404e-07 -9.36982e-09 1.29042e-05
0.00173369 -5.79478e-05 -2.50671e-07
-5.79478e-05 0.00010395 2.45397e-07
-2.50671e-07 2.45397e-07 -2.62945e-06
0.0017554 -0.000106844 -2.41966e-06
-0.000106844 0.000112458 -4.88904e-07
-2.41966e-06 -4.88904e-07 2.25004e-05
0.00156011 -0.000134638 -2.59112e-06
-0.000134638 2.88115e-05 1.06723e-06
-2.59112e-06 1.06723e-06 -7.2107e-05
0.000880001 -0.000139684 -6.60963e-07
-0.000139684 0.000103457 5.50792e-07
-6.60963e-07 5.50792e-07 -2.46026e-05
0.00197755 -0.000205788 -2.48992e-06
-0.000205788 0.000249794 1.79251e-06
-2.48992e-06 1.79251e-06 0.000135432
8.11226e-05 -0.000101415 -6.40749e-07
-0.000101415 -0.000362829 -5.30966e-06
-6.40749e-07 -5.30966e-06 -0.00052445
0.00189148 -0.000254942 2.32202e-06
-0.000254942 0.00043194 6.30284e-08
2.32202e-06 6.30284e-08 0.000233297
0.00170295 -0.000229337 6.39717e-07
-0.000229337 0.000166406 1.82204e-06
6.39717e-07 1.82204e-06 1.15542e-05
0.000445521 1.95139e-05 1.3428e-06
1.95139e-05 -0.000141571 -2.97249e-06
1.3428e-06 -2.97249e-06 -0.000191955
0.000867552 -1.1158e-05 1.43115e-06
-1.1158e-05 0.000115355 -7.62099e-07
1.43115e-06 -7.62099e-07 3.39425e-05
0.000917822 -4.28708e-05 -3.24827e-07
-4.28708e-05 0.000144829 1.42859e-08
-3.24827e-07 1.42859e-08 4.58571e-05
0.00099371 -0.000146718 -1.64412e-06
-0.000146718 0.000165572 2.42747e-06
-1.64412e-06 2.42747e-06 4.22419e-05
0.000949546 -9.37823e-05 1.08084e-06
-9.37823e-05 0.000151821 1.88248e-06
1.08084e-06 1.88248e-06 3.43703e-05
0.000813503 -0.000136039 -3.88016e-07
-0.000136039 5.90473e-05 1.89296e-06
-3.88016e-07 1.89296e-06 -6.38012e-05
0.00063717 -4.28112e-05 -1.56218e-06
-4.28112e-05 -3.26113e-05 -3.54876e-06
-1.56218e-06 -3.54876e-06 -4.50424e-05
0.000695859 -5.17714e-05 -1.61843e-06
-5.17714e-05 5.54432e-06 -1.46872e-06
-1.61843e-06 -1.46872e-06 -3.79676e-05
0.00150784 0.000132254 -9.77955e-07
0.000132254 8.89514e-05 -1.93008e-07
-9.77955e-07 -1.93008e-07 -5.05966e-05
0.000756815 -5.97024e-05 8.18451e-07
-5.97024e-05 5.23472e-05 -1.22337e-06
8.18451e-07 -1.22337e-06 -2.50911e-05
0.000813818 6.63267e-05 -1.25578e-07
6.63267e-05 8.05784e-05 -6.08924e-07
-1.25578e-07 -6.08924e-07 -2.75263e-05
0.000704012 3.60443e-05 1.41321e-06
3.60443e-05 3.53829e-05 -1.19633e-07
1.41321e-06 -1.19633e-07 -7.67027e-05
0.00132116 0.000177324 -2.53881e-06
0.000177324 6.74152e-05 -1.03711e-06
-2.53881e-06 -1.03711e-06 -8.70846e-05
0.00158938 0.000186125 9.04984e-07
0.000186125 0.00012145 6.72022e-07
9.04984e-07 6.72022e-07 -3.09427e-05
0.000899792 0.000144294 2.83041e-07
0.000144294 0.000123187 -6.03817e-07
2.83041e-07 -6.03817e-07 -3.24213e-05
0.00129622 0.000195081 -5.61474e-07
0.000195081 0.00023174 2.85943e-09
-5.61474e-07 2.85943e-09 5.72128e-05
0.0016881 0.000214979 -2.97969e-06
0.000214979 0.000319581 -4.91422e-06
-2.97969e-06 -4.91422e-06 0.000166435
0.000718717 -3.83669e-05 -1.32593e-07
-3.83669e-05 9.09023e-06 2.08978e-08
-1.32593e-07 2.08978e-08 -2.97327e-05
0.000761791 -2.38954e-05 -6.36174e-07
-2.38954e-05 4.47044e-05 3.39489e-07
-6.36174e-07 3.39489e-07 -2.02828e-05
0.000952554 0.000137866 -5.61337e-07
0.000137866 0.00016913 -1.88895e-08
-5.61337e-07 -1.88895e-08 3.28497e-05
0.000810147 -1.19482e-05 2.46164e-07
-1.19482e-05 8.97027e-05 7.44916e-08
2.46164e-07 7.44916e-08 -3.87557e-06
0.000896335 7.69797e-05 9.5322e-08
7.69797e-05 0.000144759 -4.30253e-07
9.5322e-08 -4.30253e-07 2.02101e-05
0.00159921 0.000140043 -1.3061e-06
0.000140043 0.000100458 -1.12732e-06
-1.3061e-06 -1.12732e-06 -3.33917e-05
0.00150984 0.00020117 1.23936e-06
0.00020117 0.000129786 1.7522e-06
1.23936e-06 1.7522e-06 -2.85844e-05
0.00155229 0.000200042 7.00377e-07
0.000200042 6.89044e-05 1.85407e-07
7.00377e-07 1.85407e-07 -6.9179e-05
0.000725388 0.000142134 3.2674e-07
0.000142134 2.38218e-05 2.50449e-06
3.2674e-07 2.50449e-06 -0.000159543
0.00150804 0.00022223 -1.34076e-06
0.00022223 0.000246231 -1.74555e-07
-1.34076e-06 -1.74555e-07 7.33952e-05
0.000787798 8.75186e-06 9.97516e-07
8.75186e-06 5.25247e-05 6.75701e-07
9.97516e-07 6.75701e-07 -5.46013e-06
0.000608993 -3.24747e-05 -1.09319e-06
-3.24747e-05 -2.98357e-05 1.57053e-06
-1.09319e-06 1.57053e-06 -0.000110499
0.000949546 0.000145632 -2.44212e-06
0.000145632 0.000165498 -2.17753e-06
-2.44212e-06 -2.17753e-06 1.14413e-05
0.000635877 2.7647e-05 -1.60085e-06
2.7647e-05 2.31192e-06 -9.05413e-07
-1.60085e-06 -9.05413e-07 -0.000111498
0.00100067 0.000121817 -1.29519e-06
0.000121817 0.000193019 -2.21818e-06
-1.29519e-06 -2.21818e-06 5.93322e-05
0.00161421 0.000153673 -2.8678e-06
0.000153673 4.28494e-05 -2.31715e-06
-2.8678e-06 -2.31715e-06 -6.21472e-05
0.0018639 0.000243388 -7.14212e-07
0.000243388 0.000295735 9.17154e-07
-7.14212e-07 9.17154e-07 0.000135075
0.00148659 0.000202276 4.84512e-07
0.000202276 7.13606e-06 -1.18055e-07
4.84512e-07 -1.18055e-07 -0.00012342
0.00178621 0.000219027 2.06643e-06
0.000219027 0.000561609 3.93801e-06
2.06643e-06 3.93801e-06 0.000355787
0.000644999 0.000180129 -1.11604e-06
0.000180129 -0.000263032 -3.50459e-07
-1.11604e-06 -3.50459e-07 -0.000435602
0.000729351 -2.99937e-05 -1.72208e-06
-2.99937e-05 9.61467e-06 -1.55629e-06
-1.72208e-06 -1.55629e-06 -2.72476e-05
0.000705097 -6.242e-06 2.37079e-07
-6.242e-06 4.90504e-06 4.3316e-07
2.37079e-07 4.3316e-07 -5.14983e-05
0.000684302 -3.32305e-05 -2.3215e-07
-3.32305e-05 2.12007e-06 2.15441e-07
-2.3215e-07 2.15441e-07 -6.42391e-05
0.000620321 -4.79416e-05 -9.33901e-07
-4.79416e-05 -4.13685e-05 -5.18063e-07
-9.33901e-07 -5.18063e-07 -9.84856e-05
0.000767676 6.13665e-07 7.04029e-08
6.13665e-07 3.98649e-05 1.04808e-08
7.04029e-08 1.04808e-08 -1.65718e-05
0.000789033 -6.02256e-06 8.99669e-08
-6.02256e-06 6.05177e-05 -3.47869e-07
8.99669e-08 -3.47869e-07 -5.82073e-06
0.000873631 1.94834e-05 -1.76304e-09
1.94834e-05 0.000113744 -8.60922e-07
-1.76304e-09 -8.60922e-07 4.02184e-05
0.000706486 -3.29324e-05 7.05781e-07
-3.29324e-05 1.86329e-05 -1.18805e-07
7.05781e-07 -1.18805e-07 -5.14629e-05
0.000794202 1.05614e-05 4.86541e-07
1.05614e-05 5.05322e-05 5.03424e-07
4.86541e-07 5.03424e-07 -3.939e-06
0.000738553 1.21372e-06 9.88211e-07
1.21372e-06 6.36812e-06 1.61976e-06
9.88211e-07 1.61976e-06 -2.98428e-05
0.000743455 -1.14112e-05 -1.84706e-07
-1.14112e-05 8.53549e-06 1.25751e-09
-1.84706e-07 1.25751e-09 -2.68909e-05
0.00126079 -2.54061e-05 9.64377e-07
-2.54061e-05 0.00029372 2.12448e-06
9.64377e-07 2.12448e-06 0.00029068
0.000741402 -2.01604e-05 -1.0173e-06
-2.01604e-05 9.32831e-06 -1.79187e-06
-1.0173e-06 -1.79187e-06 -2.60032e-05
0.00128029 -3.21986e-05 -3.92288e-06
-3.21986e-05 0.000309104 -1.2781e-06
-3.92288e-06 -1.2781e-06 0.000305427
0.000933684 -2.59883e-05 1.72297e-05
-2.59883e-05 0.000118407 6.79435e-06
1.72297e-05 6.79435e-06 0.000130311
0.00129641 -3.8613e-05 -8.35072e-06
-3.8613e-05 0.000323741 -4.69986e-06
-8.35072e-06 -4.69986e-06 0.000318845
0.000870341 -3.26216e-05 6.8166e-06
-3.26216e-05 8.92284e-05 2.53551e-06
6.8166e-06 2.53551e-06 9.95792e-05
0.00203417 -6.2255e-05 -6.11155e-06
-6.2255e-05 0.000755185 -1.58031e-06
-6.11155e-06 -1.58031e-06 0.000769025
0.000645109 3.59672e-05 1.03941e-06
3.59672e-05 -3.57119e-05 -3.9967e-06
1.03941e-06 -3.9967e-06 -5.10535e-05
0.000638068 4.19101e-05 -1.47479e-07
4.19101e-05 -3.21301e-05 3.54138e-08
-1.47479e-07 3.54138e-08 -5.11928e-05
0.0023992 6.99076e-05 3.00829e-05
6.99076e-05 0.000966861 -3.75966e-06
3.00829e-05 -3.75966e-06 0.000976924
0.000640663 5.17664e-05 -7.00376e-07
5.17664e-05 -2.10838e-05 4.68636e-06
-7.00376e-07 4.68636e-06 -4.48095e-05
0.00254962 8.02411e-05 -2.26605e-06
8.02411e-05 0.00105886 -1.75158e-07
-2.26605e-06 -1.75158e-07 0.00106622
0.00271071 8.7678e-05 -4.95911e-05
8.7678e-05 0.00115436 3.04371e-06
-4.95911e-05 3.04371e-06 0.00115993
0.00152082 0.000103407 -1.55888e-06
0.000103407 8.49122e-05 1.52923e-07
-1.55888e-06 1.52923e-07 -4.62851e-05
0.00158668 6.0878e-05 -1.71129e-08
6.0878e-05 0.000107186 1.15459e-07
-1.71129e-08 1.15459e-07 -1.4296e-05
0.00164927 9.20663e-05 2.8381e-06
9.20663e-05 8.95395e-05 1.38536e-06
2.8381e-06 1.38536e-06 -1.65687e-05
0.00181659 5.91893e-05 2.43308e-06
5.91893e-05 0.000147531 1.06589e-07
2.43308e-06 1.06589e-07 4.39368e-05
0.00165509 1.28772e-05 -9.85232e-07
1.28772e-05 0.000102691 -1.20907e-07
-9.85232e-07 -1.20907e-07 -1.35119e-05
0.00143739 1.30034e-05 -4.18586e-06
1.30034e-05 6.52467e-05 -1.11676e-07
-4.18586e-06 -1.11676e-07 -5.63249e-05
0.00162616 1.91323e-06 -3.70041e-07
1.91323e-06 9.23432e-05 -1.72487e-08
-3.70041e-07 -1.72487e-08 -2.50006e-05
0.00174667 3.31835e-05 5.85084e-07
3.31835e-05 9.63819e-05 -1.35669e-08
5.85084e-07 -1.35669e-08 -1.20679e-05
0.00169411 7.54707e-05 -8.80355e-07
7.54707e-05 9.59643e-05 -1.95103e-07
-8.80355e-07 -1.95103e-07 -9.1997e-06
0.00177424 6.38042e-05 1.42133e-06
6.38042e-05 0.000103762 -1.37635e-07
1.42133e-06 -1.37635e-07 9.46932e-06
0.00157795 9.81156e-05 -7.12974e-07
9.81156e-05 6.76437e-05 4.38202e-08
-7.12974e-07 4.38202e-08 -4.92332e-05
0.00179169 0.000108275 2.87739e-06
0.000108275 0.000123233 6.22053e-07
2.87739e-06 6.22053e-07 3.0181e-05
0.00176424 1.3002e-06 -4.08466e-07
1.3002e-06 0.0001115 2.52e-07
-4.08466e-07 2.52e-07 3.05232e-06
0.00173311 4.45601e-05 -2.19173e-07
4.45601e-05 7.41811e-05 7.93563e-07
-2.19173e-07 7.93563e-07 -2.22094e-05
0.00179598 8.05387e-05 -9.47351e-07
8.05387e-05 0.000104714 3.06498e-08
-9.47351e-07 3.06498e-08 1.73751e-05
0.00192857 0.000129719 -1.326e-06
0.000129719 0.000196319 -9.58384e-07
-1.326e-06 -9.58384e-07 0.000104551
0.0015975 -1.1731e-05 -8.05895e-07
-1.1731e-05 8.52658e-05 -6.44063e-08
-8.05895e-07 -6.44063e-08 -3.29726e-05
0.00169776 -5.00668e-05 -1.624e-06
-5.00668e-05 0.000157174 6.18803e-08
-1.624e-06 6.18803e-08 3.60835e-05
0.00170545 -3.91005e-05 6.05217e-07
-3.91005e-05 9.59921e-05 -4.11794e-07
6.05217e-07 -4.11794e-07 -1.36522e-05
0.00160064 -8.96805e-05 1.44384e-06
-8.96805e-05 8.10926e-05 -1.54948e-07
1.44384e-06 -1.54948e-07 -2.94784e-05
0.00107492 -0.000123695 -1.47125e-06
-0.000123695 0.000203894 5.34523e-07
-1.47125e-06 5.34523e-07 8.98444e-05
0.000840626 -0.000143615 1.0408e-06
-0.000143615 5.96799e-05 1.02202e-06
1.0408e-06 1.02202e-06 -8.31186e-05
0.00135039 -0.000203418 -2.39405e-06
-0.000203418 0.000219293 3.44669e-06
-2.39405e-06 3.44669e-06 2.5209e-05
0.00161087 -0.000135694 1.0108e-07
-0.000135694 0.000117753 -3.37432e-07
1.0108e-07 -3.37432e-07 -4.20268e-06
0.00161048 -0.00011188 3.9743e-06
-0.00011188 5.43072e-05 -1.20917e-06
3.9743e-06 -1.20917e-06 -4.13921e-05
0.00167155 -0.000175094 3.48945e-06
-0.000175094 0.000126119 -1.05722e-06
3.48945e-06 -1.05722e-06 8.18097e-06
0.00141438 -0.000207312 -1.34851e-06
-0.000207312 5.95032e-05 -2.45894e-06
-1.34851e-06 -2.45894e-06 -9.92096e-05
0.00162062 -0.000199206 2.54622e-06
-0.000199206 9.57498e-05 -6.07062e-06
2.54622e-06 -6.07062e-06 -3.40766e-05
0.00107546 -0.00015053 4.11105e-07
-0.00015053 0.000215978 -1.1248e-06
4.11105e-07 -1.1248e-06 9.32086e-05
0.00104889 -0.000142976 5.44735e-07
-0.000142976 0.000198181 -2.77702e-06
5.44735e-07 -2.77702e-06 7.65371e-05
0.000828447 -4.0696e-05 1.46566e-08
-4.0696e-05 8.66804e-05 4.30709e-08
1.46566e-08 4.30709e-08 -1.90095e-05
0.000451067 1.90134e-05 -1.78394e-06
1.90134e-05 -0.000136089 2.15844e-06
-1.78394e-06 2.15844e-06 -0.000190459
0.000609085 3.77791e-05 1.58351e-07
3.77791e-05 -3.4584e-05 2.66259e-07
1.58351e-07 2.66259e-07 -0.000118239
0.00179873 -2.77766e-05 1.88673e-07
-2.77766e-05 0.000129009 -9.88676e-08
1.88673e-07 -9.88676e-08 2.07736e-05
0.00176866 -5.97992e-05 2.93507e-07
-5.97992e-05 0.000125058 -2.41152e-07
2.93507e-07 -2.41152e-07 1.84732e-05
0.00173645 -0.000107068 -9.87855e-07
-0.000107068 0.00010491 -5.60605e-09
-9.87855e-07 -5.60605e-09 1.28625e-05
0.00101699 -0.000148874 -1.53647e-07
-0.000148874 0.000176954 6.97326e-07
-1.53647e-07 6.97326e-07 4.76022e-05
0.000753298 -0.000145844 1.59183e-06
-0.000145844 5.03674e-06 -2.19638e-06
1.59183e-06 -2.19638e-06 -0.000158717
0.00155338 -0.000231817 -9.16764e-07
-0.000231817 0.000252992 9.92263e-07
-9.16764e-07 9.92263e-07 5.28542e-05
0.00163236 -0.00013645 7.29731e-07
-0.00013645 6.81793e-05 -1.48049e-07
7.29731e-07 -1.48049e-07 -3.32926e-05
0.00159584 -0.000220651 4.92329e-07
-0.000220651 0.000106559 -1.12171e-06
4.92329e-07 -1.12171e-06 -4.41124e-05
0.00174333 -0.000198094 -2.63058e-07
-0.000198094 0.00012731 -9.776e-07
-2.63058e-07 -9.776e-07 1.18871e-05
0.000448148 2.32247e-05 9.86448e-08
2.32247e-05 -0.000140838 -7.22197e-07
9.86448e-08 -7.22197e-07 -0.00019039
0.00103115 -0.00014913 -6.29007e-08
-0.00014913 0.000183789 3.89437e-07
-6.29007e-08 3.89437e-07 6.02709e-05
0.000837776 -0.000137043 -7.6752e-07
-0.000137043 7.46227e-05 2.20256e-07
-7.6752e-07 2.20256e-07 -4.61561e-05
0.000999142 -0.000101074 -3.97526e-07
-0.000101074 0.000183433 8.33791e-07
-3.97526e-07 8.33791e-07 6.21231e-05
0.000949629 -4.09087e-05 -6.94829e-08
-4.09087e-05 0.000162678 5.95639e-08
-6.94829e-08 5.95639e-08 6.36867e-05
0.000734814 1.0457e-05 -2.5314e-07
1.0457e-05 3.76086e-05 3.07746e-07
-2.5314e-07 3.07746e-07 -4.1966e-05
0.00167151 -3.6978e-05 -7.03243e-07
-3.6978e-05 3.93332e-05 2.69918e-07
-7.03243e-07 2.69918e-07 -6.26833e-05
0.00177655 -8.58427e-05 -1.96832e-06
-8.58427e-05 9.64496e-05 -1.13291e-07
-1.96832e-06 -1.13291e-07 9.42646e-06
0.00155022 -0.000117651 -1.57449e-06
-0.000117651 -1.63911e-05 1.89678e-07
-1.57449e-06 1.89678e-07 -9.90733e-05
0.00192716 -0.000172966 -1.29589e-06
-0.000172966 0.000181296 5.49481e-09
-1.29589e-06 5.49481e-09 8.96939e-05
0.000990906 -0.000151277 -1.89596e-06
-0.000151277 0.00016009 3.98234e-07
-1.89596e-06 3.98234e-07 2.26652e-05
0.00182029 -0.000228661 1.51959e-06
-0.000228661 0.000185489 2.87315e-06
1.51959e-06 2.87315e-06 5.4019e-05
0.000632996 -0.000154986 -1.01272e-06
-0.000154986 -0.000102903 -2.50421e-06
-1.01272e-06 -2.50421e-06 -0.000302916
0.00201179 -0.000273696 -4.00937e-07
-0.000273696 0.000433038 1.90884e-06
-4.00937e-07 1.90884e-06 0.000235031
0.000445486 3.01642e-05 1.9044e-07
3.01642e-05 -0.00014481 -2.8684e-06
1.9044e-07 -2.8684e-06 -0.000190479
0.000863707 -7.85687e-06 1.29922e-06
-7.85687e-06 0.000108998 -1.09821e-06
1.29922e-06 -1.09821e-06 3.43789e-05
0.00100109 -5.95764e-05 2.82292e-08
-5.95764e-05 0.000193338 8.0787e-07
2.82292e-08 8.0787e-07 9.87723e-05
0.000856466 -2.05317e-05 2.13084e-07
-2.05317e-05 0.000110361 -1.53918e-07
2.13084e-07 -1.53918e-07 2.338e-06
0.000866349 -0.000142233 -9.95955e-07
-0.000142233 8.44849e-05 1.36167e-06
-9.95955e-07 1.36167e-06 -4.1634e-05
0.000966781 -0.000147093 -3.46925e-06
-0.000147093 0.00014165 3.34296e-06
-3.46925e-06 3.34296e-06 1.20373e-05
0.000716651 -3.76989e-05 -1.92414e-06
-3.76989e-05 7.94424e-06 -1.43394e-06
-1.92414e-06 -1.43394e-06 -3.07961e-05
0.000717392 -5.96168e-05 -6.61285e-08
-5.96168e-05 2.1892e-05 -7.55824e-07
-6.61285e-08 -7.55824e-07 -4.35538e-05
0.00164016 0.000144513 -3.31445e-08
0.000144513 0.000122426 3.5526e-07
-3.31445e-08 3.5526e-07 -1.25458e-05
0.000781702 -3.83032e-05 7.42702e-07
-3.83032e-05 7.15082e-05 -5.74972e-07
7.42702e-07 -5.74972e-07 -1.95633e-05
0.000940608 0.000136691 5.7037e-07
0.000136691 0.000165081 -3.95398e-07
5.7037e-07 -3.95398e-07 2.9337e-05
0.000647921 4.10278e-05 1.44218e-06
4.10278e-05 2.99487e-06 -1.96952e-07
1.44218e-06 -1.96952e-07 -0.000116489
0.00154672 0.000202537 -1.10689e-06
0.000202537 0.000151206 -9.80029e-07
-1.10689e-06 -9.80029e-07 -7.63238e-06
0.00166204 0.000202354 1.88674e-06
0.000202354 0.000127359 1.65011e-06
1.88674e-06 1.65011e-06 -8.99098e-06
0.0005928 0.000134308 6.50448e-07
0.000134308 -5.43332e-05 1.45471e-06
6.50448e-07 1.45471e-06 -0.00023445
0.00171022 0.000235522 -2.03791e-07
0.000235522 0.000358521 -5.93437e-07
-2.03791e-07 -5.93437e-07 0.00018099
0.000757561 -1.64623e-05 -6.01629e-07
-1.64623e-05 3.63811e-05 1.35377e-07
-6.01629e-07 1.35377e-07 -2.16611e-05
0.0007161 -1.56654e-05 6.31067e-09
-1.56654e-05 2.93829e-05 9.25961e-07
6.31067e-09 9.25961e-07 -5.17422e-05
0.00104821 0.000151414 -5.92021e-07
0.000151414 0.000222297 -1.88789e-06
-5.92021e-07 -1.88789e-06 6.83486e-05
0.000689415 -1.17963e-05 -2.3395e-07
-1.17963e-05 2.46567e-05 1.06916e-07
-2.3395e-07 1.06916e-07 -8.24493e-05
0.000837479 0.000100229 -1.28417e-06
0.000100229 0.00010359 -9.29079e-07
-1.28417e-06 -9.29079e-07 -2.3131e-05
0.00184008 0.000160212 -2.16304e-06
0.000160212 0.000166555 -9.568e-07
-2.16304e-06 -9.568e-07 6.35743e-05
0.00186528 0.000241521 8.61713e-07
0.000241521 0.0002926 6.25182e-07
8.61713e-07 6.25182e-07 0.000131095
0.0015749 0.000209774 6.27223e-07
0.000209774 5.63978e-05 1.83929e-06
6.27223e-07 1.83929e-06 -7.42294e-05
0.00138562 0.000194045 2.10086e-06
0.000194045 0.000351757 3.19421e-06
2.10086e-06 3.19421e-06 0.000142924
0.000998842 0.000203906 -1.88113e-06
0.000203906 -6.91215e-05 -6.28972e-07
-1.88113e-06 -6.28972e-07 -0.000242401
0.000625113 -3.62151e-05 -3.40957e-07
-3.62151e-05 -2.65641e-05 7.03817e-07
-3.40957e-07 7.03817e-07 -9.70538e-05
0.000436452 3.3555e-05 -7.62339e-07
3.3555e-05 -0.000107364 2.53883e-07
-7.62339e-07 2.53883e-07 -0.000210911
0.00110362 0.000157083 -3.12729e-08
0.000157083 0.000244749 6.31962e-07
-3.12729e-08 6.31962e-07 6.88568e-05
4.36088e-05 3.88125e-05 6.33008e-07
3.88125e-05 -0.000326689 1.15355e-07
6.33008e-07 1.15355e-07 -0.000456421
0.00195598 0.000158092 -1.83601e-06
0.000158092 0.000132287 -3.56965e-07
-1.83601e-06 -3.56965e-07 5.47123e-05
0.00195978 0.000200465 1.54812e-06
0.000200465 0.000192597 -5.05196e-07
1.54812e-06 -5.05196e-07 9.23983e-05
0.00173492 0.000261935 -1.39505e-06
0.000261935 0.000187741 -1.22498e-06
-1.39505e-06 -1.22498e-06 2.14372e-05
-0.000185877 0.000103288 -5.30835e-07
0.000103288 -0.000582759 1.08378e-06
-5.30835e-07 1.08378e-06 -0.000800962
0.000756959 8.65598e-06 -8.27871e-07
8.65598e-06 3.80333e-05 1.44369e-08
-8.27871e-07 1.44369e-08 -2.07368e-05
0.000749227 -9.05009e-06 -3.51495e-07
-9.05009e-06 4.23709e-05 4.03279e-07
-3.51495e-07 4.03279e-07 -2.64506e-05
0.000843258 -3.29629e-05 -4.1098e-07
-3.29629e-05 9.99009e-05 -1.36394e-07
-4.1098e-07 -1.36394e-07 2.62314e-05
0.000750321 -3.24004e-05 -1.04776e-06
-3.24004e-05 2.79511e-05 -5.88561e-07
-1.04776e-06 -5.88561e-07 -2.67714e-05
0.000647725 -3.85411e-05 -2.44913e-07
-3.85411e-05 -1.71174e-05 -1.53512e-07
-2.44913e-07 -1.53512e-07 -8.40172e-05
0.000772696 -6.73282e-06 2.25828e-08
-6.73282e-06 3.97062e-05 1.98867e-08
2.25828e-08 1.98867e-08 -1.54942e-05
0.000785988 2.36635e-05 -3.55056e-07
2.36635e-05 7.14556e-05 -2.60266e-07
-3.55056e-07 -2.60266e-07 -6.39162e-06
0.000731319 -7.47895e-06 3.79288e-07
-7.47895e-06 3.41288e-05 2.53068e-07
3.79288e-07 2.53068e-07 -3.6927e-05
0.000829674 -5.46353e-06 2.45701e-07
-5.46353e-06 8.94036e-05 -4.85573e-07
2.45701e-07 -4.85573e-07 1.23731e-05
0.000794762 -3.88503e-05 3.33372e-07
-3.88503e-05 6.98642e-05 -4.04923e-07
3.33372e-07 -4.04923e-07 -6.51619e-06
0.000679543 1.38061e-05 5.10716e-07
1.38061e-05 1.50733e-06 1.5051e-07
5.10716e-07 1.5051e-07 -6.93802e-05
0.000771631 2.4655e-05 6.7836e-07
2.4655e-05 3.97871e-05 5.53771e-07
6.7836e-07 5.53771e-07 -1.65273e-05
0.000725861 8.83473e-06 6.02227e-07
8.83473e-06 1.78665e-06 1.50555e-06
6.02227e-07 1.50555e-06 -3.54213e-05
0.000736826 -5.93871e-06 -1.3359e-07
-5.93871e-06 5.64689e-06 1.2645e-08
-1.3359e-07 1.2645e-08 -3.06481e-05
0.00127683 -1.67643e-05 7.97986e-07
-1.67643e-05 0.000299899 2.09036e-06
7.97986e-07 2.09036e-06 0.0002969
0.000741096 -1.5549e-05 -7.20216e-07
-1.5549e-05 7.64329e-06 -1.69838e-06
-7.20216e-07 -1.69838e-06 -2.79022e-05
0.00129458 -2.33762e-05 -3.25108e-06
-2.33762e-05 0.000312794 -1.33971e-06
-3.25108e-06 -1.33971e-06 0.000309665
0.000945124 -1.98685e-05 1.43247e-05
-1.98685e-05 0.000120253 7.02971e-06
1.43247e-05 7.02971e-06 0.000132716
0.00130883 -3.04739e-05 -6.79792e-06
-3.04739e-05 0.00032487 -4.75474e-06
-6.79792e-06 -4.75474e-06 0.000321185
0.000882925 -2.66926e-05 5.48395e-06
-2.66926e-05 8.97137e-05 2.62365e-06
5.48395e-06 2.62365e-06 0.000101493
0.000814684 -3.24981e-05 -2.04127e-06
-3.24981e-05 5.78844e-05 -1.74418e-06
-2.04127e-06 -1.74418e-06 6.82315e-05
0.000654263 3.07806e-05 7.26238e-07
3.07806e-05 -3.73498e-05 -3.79791e-06
7.26238e-07 -3.79791e-06 -4.93618e-05
0.000652726 3.66691e-05 -1.8492e-07
3.66691e-05 -3.14579e-05 3.97111e-08
-1.8492e-07 3.97111e-08 -4.69389e-05
0.00230281 5.97657e-05 2.49226e-05
5.97657e-05 0.000905199 -3.96948e-06
2.49226e-05 -3.96948e-06 0.000917901
0.000650898 4.38232e-05 -1.2195e-06
4.38232e-05 -2.43817e-05 4.28418e-06
-1.2195e-06 4.28418e-06 -4.38271e-05
0.00244409 7.0678e-05 -2.26064e-06
7.0678e-05 0.000992729 -1.55191e-07
-2.26064e-06 -1.55191e-07 0.00100251
0.00259008 7.99964e-05 -4.11602e-05
7.99964e-05 0.00108161 3.34193e-06
-4.11602e-05 3.34193e-06 0.00108903
0.00159158 9.74029e-05 1.76096e-06
9.74029e-05 8.08072e-05 2.09938e-06
1.76096e-06 2.09938e-06 -3.60618e-05
0.00166492 7.28785e-05 1.11494e-06
7.28785e-05 7.70432e-05 1.21389e-07
1.11494e-06 1.21389e-07 -2.9276e-05
0.00169156 0.000110667 4.82218e-06
0.000110667 6.4979e-05 8.00236e-07
4.82218e-06 8.00236e-07 -2.6325e-05
0.00174229 6.39552e-05 2.85461e-06
6.39552e-05 8.16843e-05 -8.68206e-07
2.85461e-06 -8.68206e-07 -1.10802e-05
0.00174932 2.77093e-05 1.5219e-06
2.77093e-05 0.000100103 -1.87593e-07
1.5219e-06 -1.87593e-07 -9.14503e-06
0.001613 8.84978e-07 -1.08549e-06
8.84978e-07 8.50651e-05 -1.4371e-07
-1.08549e-06 -1.4371e-07 -3.30863e-05
0.00175003 2.63947e-06 -9.96114e-08
2.63947e-06 0.00010446 -1.85045e-08
-9.96114e-08 -1.85045e-08 -4.04444e-06
0.00171709 4.08086e-05 6.31756e-07
4.08086e-05 6.9721e-05 -1.59541e-07
6.31756e-07 -1.59541e-07 -2.70267e-05
0.00175258 8.18074e-05 7.80925e-07
8.18074e-05 8.25783e-05 -1.97801e-07
7.80925e-07 -1.97801e-07 -5.38644e-06
0.00190349 0.000124982 4.59044e-07
0.000124982 0.000174438 2.88213e-07
4.59044e-07 2.88213e-07 8.35425e-05
0.00175787 3.15571e-06 -1.233e-06
3.15571e-06 8.75488e-05 3.65285e-07
-1.233e-06 3.65285e-07 -1.20094e-05
0.00194931 6.36783e-05 7.50595e-08
6.36783e-05 0.000167064 4.82953e-07
7.50595e-08 4.82953e-07 8.73556e-05
0.00172138 0.000118131 -2.29026e-08
0.000118131 2.69988e-05 -1.63241e-07
-2.29026e-08 -1.63241e-07 -5.17533e-05
0.00180834 -2.89909e-05 5.35988e-07
-2.89909e-05 0.000137466 -3.11246e-07
5.35988e-07 -3.11246e-07 2.90535e-05
0.00180236 -6.15088e-05 7.02636e-07
-6.15088e-05 0.000145479 -3.62259e-07
7.02636e-07 -3.62259e-07 3.88871e-05
0.00171723 -0.000106655 1.72679e-06
-0.000106655 9.77922e-05 -1.5623e-08
1.72679e-06 -1.5623e-08 3.70422e-06
0.00114195 -0.000157083 -9.92491e-08
-0.000157083 0.00024353 1.11203e-06
-9.92491e-08 1.11203e-06 0.000113074
0.00143516 -0.000191383 1.9645e-08
-0.000191383 0.000376426 1.86265e-06
1.9645e-08 1.86265e-06 0.000211714
0.00118655 -0.000207216 -1.87419e-06
-0.000207216 5.71121e-05 1.47165e-06
-1.87419e-06 1.47165e-06 -0.000143168
0.00169509 -0.000137771 1.91299e-06
-0.000137771 0.000102785 -8.1436e-07
1.91299e-06 -8.1436e-07 7.88654e-07
0.00151268 -0.000191561 -6.40153e-07
-0.000191561 5.09492e-06 -2.58336e-06
-6.40153e-07 -2.58336e-06 -0.000111552
0.00150355 -0.00021302 -9.56451e-07
-0.00021302 5.3966e-05 -4.22033e-06
-9.56451e-07 -4.22033e-06 -9.26396e-05
0.00105512 -0.000150604 8.43363e-07
-0.000150604 0.000194853 -1.13891e-06
8.43363e-07 -1.13891e-06 7.12254e-05
0.000818364 -0.000134724 -3.11766e-06
-0.000134724 6.68265e-05 -2.23642e-06
-3.11766e-06 -2.23642e-06 -5.15449e-05
0.00105646 -0.000114508 5.11663e-07
-0.000114508 0.000222438 1.91472e-07
5.11663e-07 1.91472e-07 9.48277e-05
0.000448766 2.14256e-05 -8.68908e-07
2.14256e-05 -0.000140963 1.40087e-06
-8.68908e-07 1.40087e-06 -0.000189852
0.000971827 -3.31047e-05 2.01613e-07
-3.31047e-05 0.000172079 -1.43783e-07
2.01613e-07 -1.43783e-07 7.51462e-05
0.00060391 2.87121e-05 4.18406e-07
2.87121e-05 -3.94813e-05 1.28871e-06
4.18406e-07 1.28871e-06 -0.000117031
0.00177862 -3.55624e-05 -2.31106e-07
-3.55624e-05 9.52588e-05 1.5121e-07
-2.31106e-07 1.5121e-07 -6.52581e-06
0.00182596 -8.73252e-05 6.68697e-07
-8.73252e-05 0.000125475 -7.48059e-08
6.68697e-07 -7.48059e-08 3.92255e-05
0.00160516 -0.000118188 -3.66133e-07
-0.000118188 1.57463e-05 1.60554e-07
-3.66133e-07 1.60554e-07 -6.69637e-05
0.00103018 -0.000153165 1.81864e-07
-0.000153165 0.000179338 1.55882e-06
1.81864e-07 1.55882e-06 4.13859e-05
0.000892418 -0.000169853 -2.42023e-07
-0.000169853 4.95622e-05 8.8334e-09
-2.42023e-07 8.8334e-09 -0.000145995
0.00185107 -0.000261758 -2.59708e-06
-0.000261758 0.000340394 7.43555e-07
-2.59708e-06 7.43555e-07 0.000146528
0.00189517 -0.00017375 6.99764e-07
-0.00017375 0.00016246 -6.40365e-07
6.99764e-07 -6.40365e-07 6.95651e-05
0.00175778 -0.000226484 1.83001e-06
-0.000226484 0.000148106 -4.84185e-07
1.83001e-06 -4.84185e-07 1.66574e-05
0.00058322 2.00549e-05 3.8267e-07
2.00549e-05 -6.88235e-05 -6.99502e-07
3.8267e-07 -6.99502e-07 -0.000112507
0.000858056 9.52396e-07 -3.14919e-07
9.52396e-07 0.000104468 2.34317e-07
-3.14919e-07 2.34317e-07 3.07501e-05
0.000552462 -0.000119708 -1.58442e-06
-0.000119708 -8.94443e-05 1.40963e-06
-1.58442e-06 1.40963e-06 -0.000211389
0.00116491 -0.00015316 6.69538e-07
-0.00015316 0.000254047 5.19056e-07
6.69538e-07 5.19056e-07 0.000127943
0.000867972 -3.568e-05 1.88341e-07
-3.568e-05 0.000117962 -3.84676e-07
1.88341e-07 -3.84676e-07 7.6076e-06
0.000908315 -4.61672e-05 -6.68845e-07
-4.61672e-05 0.000142288 1.01252e-06
-6.68845e-07 1.01252e-06 4.75343e-05
0.00183368 -5.59489e-05 -1.73444e-06
-5.59489e-05 0.00010049 -5.99488e-08
-1.73444e-06 -5.99488e-08 1.47931e-05
0.00174072 -0.000116195 -3.74893e-06
-0.000116195 4.84601e-05 -2.73711e-07
-3.74893e-06 -2.73711e-07 -1.9516e-05
0.00177162 -0.000136344 6.9438e-08
-0.000136344 6.2675e-05 -3.69522e-08
6.9438e-08 -3.69522e-08 -8.95873e-06
0.00241114 -0.000254044 4.63057e-06
-0.000254044 0.00042043 -7.23006e-07
4.63057e-06 -7.23006e-07 0.000315708
0.000242326 -0.000106989 -2.49592e-06
-0.000106989 -0.0002515 -8.03287e-07
-2.49592e-06 -8.03287e-07 -0.000406604
0.00187749 -0.000271655 -3.1221e-06
-0.000271655 0.000285226 4.46726e-06
-3.1221e-06 4.46726e-06 0.000106192
0.00212403 -0.000272154 1.76047e-06
-0.000272154 0.00065148 -3.17927e-06
1.76047e-06 -3.17927e-06 0.000431248
0.00073158 1.73212e-05 6.48973e-07
1.73212e-05 1.08547e-05 -1.93378e-06
6.48973e-07 -1.93378e-06 -2.81142e-05
0.000748186 -7.28626e-05 1.31793e-06
-7.28626e-05 4.95243e-05 -1.48505e-06
1.31793e-06 -1.48505e-06 -1.87756e-05
0.000584025 1.07491e-05 4.71658e-07
1.07491e-05 -4.52755e-05 -2.0921e-06
4.71658e-07 -2.0921e-06 -0.000119249
0.000836129 -3.82268e-05 1.21271e-06
-3.82268e-05 0.000106399 1.4307e-08
1.21271e-06 1.4307e-08 1.34231e-05
0.00081095 -8.63522e-07 7.10539e-07
-8.63522e-07 8.49112e-05 -4.91074e-07
7.10539e-07 -4.91074e-07 -1.31146e-05
0.000587396 -0.000112509 3.10722e-07
-0.000112509 -2.01888e-05 2.69708e-06
3.10722e-07 2.69708e-06 -0.000144235
0.000603906 -0.000126113 -3.56956e-06
-0.000126113 -0.000104104 1.1772e-06
-3.56956e-06 1.1772e-06 -0.000214607
0.0018278 -0.000200117 -5.64181e-06
-0.000200117 0.000647069 3.83254e-06
-5.64181e-06 3.83254e-06 0.00050448
0.000742019 -4.3815e-05 -5.65839e-07
-4.3815e-05 2.71562e-05 -4.61536e-07
-5.65839e-07 -4.61536e-07 -3.00869e-05
0.000819445 -6.79439e-06 -7.31823e-08
-6.79439e-06 8.73722e-05 3.38554e-07
-7.31823e-08 3.38554e-07 5.51189e-06
0.00206199 0.000165843 4.56996e-07
0.000165843 0.000289422 4.19395e-07
4.56996e-07 4.19395e-07 0.000188558
0.000830891 8.56712e-06 4.33711e-09
8.56712e-06 0.00010703 -6.16881e-07
4.33711e-09 -6.16881e-07 -3.62205e-06
0.0011291 0.000156549 9.76213e-07
0.000156549 0.000272114 -1.01759e-06
9.76213e-07 -1.01759e-06 0.000116146
0.000668695 7.81954e-05 -2.15302e-07
7.81954e-05 1.22788e-05 1.88204e-06
-2.15302e-07 1.88204e-06 -0.000107651
0.00182676 0.000237124 1.12114e-06
0.000237124 0.00026793 8.29909e-08
1.12114e-06 8.29909e-08 0.000105954
0.00164743 0.000216533 3.73369e-06
0.000216533 9.76421e-05 4.47198e-06
3.73369e-06 4.47198e-06 -3.29094e-05
0.000873237 0.000161978 1.56671e-06
0.000161978 8.09201e-05 6.3868e-07
1.56671e-06 6.3868e-07 -0.000131001
0.00122369 0.000219598 -2.94737e-06
0.000219598 5.31697e-05 -4.3595e-07
-2.94737e-06 -4.3595e-07 -0.00011924
0.000639135 -1.49524e-05 8.19054e-08
-1.49524e-05 -1.47294e-05 6.33936e-07
8.19054e-08 6.33936e-07 -8.91445e-05
0.000620605 4.82949e-05 -1.95126e-07
4.82949e-05 -5.48376e-06 -1.37187e-06
-1.95126e-07 -1.37187e-06 -0.000110475
0.00102652 0.000152442 1.01031e-06
0.000152442 0.000211332 -1.45862e-06
1.01031e-06 -1.45862e-06 3.19069e-05
0.000686168 8.2201e-05 -6.26312e-07
8.2201e-05 2.46715e-05 -1.4323e-06
-6.26312e-07 -1.4323e-06 -0.000108223
0.00199858 0.000155625 1.9835e-07
0.000155625 0.000160747 -4.91576e-07
1.9835e-07 -4.91576e-07 8.49228e-05
0.00179603 0.000199292 1.81294e-06
0.000199292 0.000112912 4.36303e-07
1.81294e-06 4.36303e-07 8.44701e-06
0.0016904 0.000253798 -1.35447e-06
0.000253798 0.000164119 -7.13193e-07
-1.35447e-06 -7.13193e-07 6.16988e-07
0.000781266 0.000172725 5.82329e-07
0.000172725 -7.75295e-05 3.51694e-08
5.82329e-07 3.51694e-08 -0.000294436
0.000811152 -1.46623e-05 -2.63951e-07
-1.46623e-05 8.36185e-05 3.823e-09
-2.63951e-07 3.823e-09 4.89852e-06
0.00179624 0.000120116 -1.0785e-06
0.000120116 1.0739e-05 6.0802e-07
-1.0785e-06 6.0802e-07 -4.28701e-05
0.00124681 0.000147394 -1.01546e-06
0.000147394 0.000360614 2.13649e-06
-1.01546e-06 2.13649e-06 0.000224726
0.00103289 0.000158868 -6.20701e-08
0.000158868 0.000195525 2.43639e-06
-6.20701e-08 2.43639e-06 9.1211e-06
0.00233954 0.000199481 -4.47558e-06
0.000199481 0.00031024 1.90684e-07
-4.47558e-06 1.90684e-07 0.000234844
0.00148344 0.000260289 -2.76962e-06
0.000260289 -5.13005e-05 -3.13886e-06
-2.76962e-06 -3.13886e-06 -0.000197658
0.00196696 0.000274401 -2.03992e-06
0.000274401 0.000452865 1.88004e-06
-2.03992e-06 1.88004e-06 0.000234216
0.000818534 -2.34736e-06 -1.51166e-06
-2.34736e-06 8.11969e-05 3.87345e-07
-1.51166e-06 3.87345e-07 1.24761e-05
0.000812276 -1.43819e-05 -1.05359e-07
-1.43819e-05 8.20926e-05 5.70651e-08
-1.05359e-07 5.70651e-08 8.70699e-06
0.000871314 -2.75786e-05 -5.84168e-07
-2.75786e-05 0.000122307 7.18787e-08
-5.84168e-07 7.18787e-08 4.18856e-05
0.000752794 -2.66852e-05 -4.54408e-07
-2.66852e-05 2.99639e-05 -6.56078e-07
-4.54408e-07 -6.56078e-07 -2.61767e-05
0.000762181 6.01631e-06 1.25171e-07
6.01631e-06 5.22371e-05 4.81553e-07
1.25171e-07 4.81553e-07 -1.91583e-05
0.000671605 -1.2177e-05 -6.30791e-07
-1.2177e-05 1.18625e-05 1.63714e-07
-6.30791e-07 1.63714e-07 -6.81209e-05
0.00076181 -1.46552e-05 -1.26357e-07
-1.46552e-05 3.79258e-05 -2.28174e-09
-1.26357e-07 -2.28174e-09 -2.10435e-05
0.00069022 -2.49577e-05 -5.37905e-07
-2.49577e-05 1.10624e-05 2.88893e-07
-5.37905e-07 2.88893e-07 -6.18011e-05
0.000765292 -4.29777e-05 3.96294e-07
-4.29777e-05 5.45057e-05 -3.45412e-07
3.96294e-07 -3.45412e-07 -2.29348e-05
0.000836398 1.01695e-05 2.52076e-07
1.01695e-05 9.9103e-05 3.56981e-07
2.52076e-07 3.56981e-07 1.88923e-05
0.000764224 -2.46308e-05 6.31694e-07
-2.46308e-05 4.72264e-05 -1.17315e-06
6.31694e-07 -1.17315e-06 -3.07339e-05
0.000786457 -6.14009e-05 3.37301e-07
-6.14009e-05 6.25733e-05 -4.38548e-07
3.37301e-07 -4.38548e-07 -1.69311e-05
0.000866693 1.33703e-05 6.26357e-07
1.33703e-05 0.000111353 -4.68822e-07
6.26357e-07 -4.68822e-07 3.12889e-05
0.000766618 1.74197e-05 1.61104e-06
1.74197e-05 5.28509e-05 5.77427e-08
1.61104e-06 5.77427e-08 -2.46187e-05
0.000772986 6.92858e-06 7.76083e-07
6.92858e-06 4.03858e-05 6.14445e-07
7.76083e-07 6.14445e-07 -1.72758e-05
0.000714846 6.88313e-06 3.9503e-07
6.88313e-06 -2.29063e-06 1.45488e-06
3.9503e-07 1.45488e-06 -4.00089e-05
0.000728827 -1.47651e-07 -2.04967e-07
-1.47651e-07 3.454e-06 2.16044e-08
-2.04967e-07 2.16044e-08 -3.36697e-05
0.00128257 -8.08345e-06 5.61433e-07
-8.08345e-06 0.000301697 2.02779e-06
5.61433e-07 2.02779e-06 0.00029844
0.000742312 -1.2369e-05 -2.27558e-07
-1.2369e-05 9.00208e-06 -1.67489e-06
-2.27558e-07 -1.67489e-06 -2.7394e-05
0.00130605 -1.48525e-05 -2.42752e-06
-1.48525e-05 0.000316703 -1.39365e-06
-2.42752e-06 -1.39365e-06 0.000313539
0.000949155 -1.35875e-05 1.08346e-05
-1.35875e-05 0.000119311 7.27145e-06
1.08346e-05 7.27145e-06 0.000131964
0.00132632 -2.18979e-05 -5.1082e-06
-2.18979e-05 0.000330706 -4.81545e-06
-5.1082e-06 -4.81545e-06 0.000327393
0.000895537 -2.03339e-05 3.92314e-06
-2.03339e-05 9.1816e-05 2.72264e-06
3.92314e-06 2.72264e-06 0.000104337
0.000828888 -2.62769e-05 -1.46819e-06
-2.62769e-05 5.91648e-05 -1.75919e-06
-1.46819e-06 -1.75919e-06 7.10756e-05
0.000735763 5.35794e-06 4.66179e-07
5.35794e-06 1.17515e-05 -1.85699e-06
4.66179e-07 -1.85699e-06 -2.44113e-05
0.000664794 2.46834e-05 6.12169e-07
2.46834e-05 -3.71213e-05 -3.67076e-06
6.12169e-07 -3.67076e-06 -4.62789e-05
0.000665466 3.13565e-05 -1.28656e-07
3.13565e-05 -3.11912e-05 3.97829e-08
-1.28656e-07 3.97829e-08 -4.33231e-05
0.0022324 4.95825e-05 2.05083e-05
4.95825e-05 0.000858508 -4.14716e-06
2.05083e-05 -4.14716e-06 0.000873629
0.000664131 3.76459e-05 -1.15337e-06
3.76459e-05 -2.49852e-05 4.05466e-06
-1.15337e-06 4.05466e-06 -4.0657e-05
0.00234543 6.07215e-05 -2.33006e-06
6.07215e-05 0.000929989 -1.38167e-07
-2.33006e-06 -1.38167e-07 0.000942311
0.00249212 7.12093e-05 -3.42475e-05
7.12093e-05 0.00102025 3.65874e-06
-3.42475e-05 3.65874e-06 0.00102981
0.00187839 0.00012015 1.73214e-06
0.00012015 0.000152412 1.66632e-06
1.73214e-06 1.66632e-06 6.24e-05
0.00170677 8.29637e-05 1.69185e-06
8.29637e-05 5.90517e-05 -1.82706e-07
1.69185e-06 -1.82706e-07 -2.95271e-05
0.0016937 4.02742e-05 1.58435e-06
4.02742e-05 6.10656e-05 -6.33859e-07
1.58435e-06 -6.33859e-07 -3.60563e-05
0.00173476 4.18522e-06 7.06105e-07
4.18522e-06 9.67498e-05 -3.17658e-07
7.06105e-07 -3.17658e-07 -1.17636e-05
0.00177317 3.86502e-06 -6.55895e-07
3.86502e-06 9.72705e-05 7.61565e-08
-6.55895e-07 7.61565e-08 -9.91496e-07
0.00188402 6.15915e-05 5.96483e-07
6.15915e-05 0.000128318 -2.98434e-07
5.96483e-07 -2.98434e-07 4.78564e-05
0.00171654 0.000118579 -5.57703e-07
0.000118579 2.05649e-05 -1.61191e-07
-5.57703e-07 -1.61191e-07 -5.82796e-05
0.00180517 8.18396e-06 -1.26102e-06
8.18396e-06 8.11045e-05 1.02132e-06
-1.26102e-06 1.02132e-06 -1.69407e-06
0.00193653 7.96799e-05 3.98726e-08
7.96799e-05 0.000119871 -4.81973e-08
3.98726e-08 -4.81973e-08 5.59365e-05
0.00185563 5.56966e-05 -1.65661e-06
5.56966e-05 5.52942e-05 -1.27697e-06
-1.65661e-06 -1.27697e-06 2.82553e-05
0.00188858 -3.43135e-05 1.76462e-07
-3.43135e-05 0.000152782 -1.71116e-07
1.76462e-07 -1.71116e-07 5.12446e-05
0.00187661 -8.995e-05 2.99053e-06
-8.995e-05 0.000154496 2.71302e-07
2.99053e-06 2.71302e-07 6.89823e-05
0.00165956 -0.000120198 2.8328e-07
-0.000120198 4.63165e-05 -4.00036e-08
2.8328e-07 -4.00036e-08 -3.65281e-05
0.0010979 -0.000157113 6.49172e-08
-0.000157113 0.000215624 3.10232e-06
6.49172e-08 3.10232e-06 7.65937e-05
0.0011313 -0.000183116 9.7514e-07
-0.000183116 0.000191553 4.30987e-06
9.7514e-07 4.30987e-06 -5.69174e-07
0.0016268 -0.000245329 -1.9047e-06
-0.000245329 0.000214798 -8.68529e-07
-1.9047e-06 -8.68529e-07 2.57564e-05
0.00187029 -0.000173248 3.48421e-06
-0.000173248 0.000147598 -1.36185e-06
3.48421e-06 -1.36185e-06 5.36379e-05
0.00164917 -0.000219909 9.33484e-08
-0.000219909 8.86744e-05 -2.66471e-06
9.33484e-08 -2.66471e-06 -4.21185e-05
0.000281423 -0.000100155 -2.21567e-06
-0.000100155 -0.000239349 2.15284e-06
-2.21567e-06 2.15284e-06 -0.000357574
0.00139832 -0.000165043 7.89344e-06
-0.000165043 0.000386875 -4.02631e-06
7.89344e-06 -4.02631e-06 0.000263074
0.000796034 -4.7911e-06 -6.83757e-08
-4.7911e-06 6.93748e-05 -6.5469e-07
-6.83757e-08 -6.5469e-07 -3.3705e-05
0.000725654 1.36479e-05 -6.99646e-07
1.36479e-05 9.94587e-06 1.35744e-06
-6.99646e-07 1.35744e-06 -3.19956e-05
0.000858614 1.82199e-05 -7.70884e-07
1.82199e-05 0.000103959 1.45543e-06
-7.70884e-07 1.45543e-06 3.0642e-05
0.000823638 -2.00635e-05 -5.64429e-07
-2.00635e-05 9.57489e-05 1.12404e-06
-5.64429e-07 1.12404e-06 8.21519e-07
0.00188647 -5.72591e-05 9.8028e-08
-5.72591e-05 0.000131258 1.31631e-07
9.8028e-08 1.31631e-07 4.76708e-05
0.000731846 1.06509e-05 4.47906e-07
1.06509e-05 1.10874e-05 3.91695e-08
4.47906e-07 3.91695e-08 -2.80014e-05
0.000670146 -1.87964e-05 -6.85351e-07
-1.87964e-05 -4.51579e-06 3.7079e-08
-6.85351e-07 3.7079e-08 -6.63949e-05
0.00181031 -0.000115663 -3.54339e-07
-0.000115663 9.14521e-05 -1.55221e-07
-3.54339e-07 -1.55221e-07 2.23372e-05
0.00163417 -0.000132158 -1.83652e-06
-0.000132158 -1.7354e-05 9.22006e-07
-1.83652e-06 9.22006e-07 -9.10043e-05
0.000552172 -0.000126411 1.6596e-07
-0.000126411 -7.17005e-05 2.8115e-06
1.6596e-07 2.8115e-06 -0.000224631
0.00171461 -0.000241096 -1.81352e-06
-0.000241096 0.000436906 7.55804e-07
-1.81352e-06 7.55804e-07 0.000211046
0.00149165 -0.000244997 6.83127e-07
-0.000244997 8.08379e-05 -9.53976e-07
6.83127e-07 -9.53976e-07 -9.17263e-05
0.00189886 -0.000235668 2.64806e-06
-0.000235668 0.000153845 -8.82531e-07
2.64806e-06 -8.82531e-07 4.87519e-05
0.000815507 -2.39569e-05 1.17665e-06
-2.39569e-05 8.28117e-05 -6.87327e-07
1.17665e-06 -6.87327e-07 1.11778e-05
0.000818641 -2.65782e-05 -2.6524e-07
-2.65782e-05 9.75772e-05 6.55359e-07
-2.6524e-07 6.55359e-07 3.57804e-06
0.000944105 -0.000137029 -3.97014e-07
-0.000137029 8.02218e-05 -2.80164e-07
-3.97014e-07 -2.80164e-07 -3.49942e-05
0.00117845 -0.000158641 6.68812e-06
-0.000158641 0.000287025 -1.95607e-06
6.68812e-06 -1.95607e-06 0.000164712
0.000636949 -8.566e-05 -1.03611e-06
-8.566e-05 6.17049e-07 1.98627e-07
-1.03611e-06 1.98627e-07 -0.000118919
0.000837283 -7.11866e-06 2.91848e-07
-7.11866e-06 0.000101955 -4.75914e-07
2.91848e-07 -4.75914e-07 2.03643e-06
0.00191606 -7.06396e-05 -3.98946e-06
-7.06396e-05 0.000100512 -1.45244e-07
-3.98946e-06 -1.45244e-07 3.93597e-05
0.00177049 -0.000104635 1.00324e-06
-0.000104635 3.16528e-05 5.13405e-07
1.00324e-06 5.13405e-07 -2.81798e-05
0.00187927 -0.000224874 -3.9892e-07
-0.000224874 4.64368e-05 -1.8629e-06
-3.9892e-07 -1.8629e-06 -2.2095e-05
0.00162105 -0.000266421 1.37865e-06
-0.000266421 3.34671e-05 7.9925e-07
1.37865e-06 7.9925e-07 -8.98794e-05
0.000830737 -0.000112656 -4.94408e-06
-0.000112656 5.45886e-05 -3.24624e-06
-4.94408e-06 -3.24624e-06 -9.95841e-05
0.00252693 -0.000323308 -3.44533e-06
-0.000323308 0.00078763 2.63561e-06
-3.44533e-06 2.63561e-06 0.000549212
0.000555335 4.80609e-05 -1.28578e-06
4.80609e-05 -6.50604e-05 -2.09798e-06
-1.28578e-06 -2.09798e-06 -0.000127762
0.00075918 -3.92315e-05 1.13248e-06
-3.92315e-05 4.58769e-05 -1.36378e-06
1.13248e-06 -1.36378e-06 -1.8898e-05
0.000962678 -4.99493e-05 9.86692e-07
-4.99493e-05 0.000178555 -2.72345e-07
9.86692e-07 -2.72345e-07 9.56344e-05
0.00057602 1.54804e-05 -1.92344e-07
1.54804e-05 -3.33115e-05 -7.76264e-07
-1.92344e-07 -7.76264e-07 -0.000129137
0.00104793 -3.28539e-05 4.63951e-07
-3.28539e-05 0.000220634 -2.60888e-07
4.63951e-07 -2.60888e-07 0.000124907
0.00055167 -3.56313e-05 8.48565e-07
-3.56313e-05 -5.11432e-05 2.53384e-07
8.48565e-07 2.53384e-07 -0.000163358
0.00068984 -8.14972e-05 5.3122e-06
-8.14972e-05 8.18454e-05 1.08402e-06
5.3122e-06 1.08402e-06 -7.24088e-05
0.000679147 -0.000146591 -1.44348e-05
-0.000146591 -3.93419e-05 4.95233e-06
-1.44348e-05 4.95233e-06 -0.000142572
0.000636988 2.04918e-06 -2.71403e-08
2.04918e-06 -1.20155e-05 3.30611e-07
-2.71403e-08 3.30611e-07 -9.0284e-05
0.000810447 6.51579e-05 -1.98105e-06
6.51579e-05 9.89719e-05 -2.45754e-06
-1.98105e-06 -2.45754e-06 -7.24543e-06
0.00201993 0.00015336 -1.18334e-06
0.00015336 0.000176058 -4.4287e-07
-1.18334e-06 -4.4287e-07 0.00010196
0.00166671 0.000199841 9.05022e-07
0.000199841 4.99993e-05 1.77285e-06
9.05022e-07 1.77285e-06 -5.87905e-05
0.00131312 0.000105735 -2.88597e-06
0.000105735 0.000363516 -9.97954e-07
-2.88597e-06 -9.97954e-07 0.000230616
0.000976094 0.000149172 -5.11533e-07
0.000149172 0.000190134 -4.35158e-06
-5.11533e-07 -4.35158e-06 8.78583e-06
0.00169966 0.000248505 1.82435e-06
0.000248505 0.000169697 2.67704e-07
1.82435e-06 2.67704e-07 8.38444e-06
0.00186954 0.000249666 -9.83366e-07
0.000249666 0.00049587 -8.66012e-07
-9.83366e-07 -8.66012e-07 0.000278446
0.000778552 1.01665e-05 7.34911e-07
1.01665e-05 7.22196e-05 -6.36963e-07
7.34911e-07 -6.36963e-07 -1.12647e-05
0.00185299 0.000115953 -4.03783e-07
0.000115953 3.96012e-05 -1.04365e-07
-4.03783e-07 -1.04365e-07 -1.20285e-05
0.000942514 0.000101425 3.29074e-07
0.000101425 0.000188454 1.63254e-06
3.29074e-07 1.63254e-06 6.09982e-05
0.000801624 0.000142824 4.78496e-07
0.000142824 6.85933e-05 -1.77565e-07
4.78496e-07 -1.77565e-07 -0.000118369
0.00204449 0.000189922 2.38475e-06
0.000189922 0.000149123 -1.95555e-07
2.38475e-06 -1.95555e-07 7.31882e-05
0.00172453 0.00026934 -3.71381e-07
0.00026934 7.525e-05 -1.30197e-06
-3.71381e-07 -1.30197e-06 -6.86026e-05
0.00207813 0.000284198 1.08786e-06
0.000284198 0.000525233 1.22549e-06
1.08786e-06 1.22549e-06 0.00030489
0.00108399 3.87768e-05 -2.57561e-06
3.87768e-05 0.000255736 1.07475e-06
-2.57561e-06 1.07475e-06 0.000150185
0.00220188 0.000132166 -1.7258e-05
0.000132166 0.000237439 -1.91052e-06
-1.7258e-05 -1.91052e-06 0.000206085
0.00215651 0.000208847 -3.69123e-06
0.000208847 0.000833215 -4.58851e-07
-3.69123e-06 -4.58851e-07 0.000681029
0.00248507 0.000279497 -5.79026e-06
0.000279497 0.000917751 1.6211e-06
-5.79026e-06 1.6211e-06 0.000710228
0.00195812 0.000281501 -5.64063e-06
0.000281501 0.000103743 -4.36913e-06
-5.64063e-06 -4.36913e-06 1.06955e-05
0.00147889 0.00026766 -6.99163e-06
0.00026766 0.000117677 2.0888e-07
-6.99163e-06 2.0888e-07 -7.58208e-05
0.000228309 0.000134343 9.5616e-06
0.000134343 -0.000536697 -1.3354e-06
9.5616e-06 -1.3354e-06 -0.000710403
0.000777679 -4.34226e-07 1.10338e-07
-4.34226e-07 6.48134e-05 1.78644e-07
1.10338e-07 1.78644e-07 -9.83232e-06
0.000837849 -2.19307e-05 -3.02346e-07
-2.19307e-05 0.000104905 1.98632e-07
-3.02346e-07 1.98632e-07 2.40332e-05
0.000981848 -9.69158e-06 -5.12259e-08
-9.69158e-06 0.000174748 -1.35148e-06
-5.12259e-08 -1.35148e-06 8.94305e-05
0.000748568 -4.94248e-05 -2.88124e-07
-4.94248e-05 3.35768e-05 -7.86739e-07
-2.88124e-07 -7.86739e-07 -2.75436e-05
0.000716181 -4.90009e-05 -1.18994e-06
-4.90009e-05 2.44556e-05 5.53601e-07
-1.18994e-06 5.53601e-07 -4.73718e-05
0.000869769 7.0102e-05 -7.34563e-07
7.0102e-05 0.000120515 8.13164e-07
-7.34563e-07 8.13164e-07 3.86864e-05
0.000706898 -4.82738e-05 -1.83069e-07
-4.82738e-05 2.46299e-05 4.09221e-07
-1.83069e-07 4.09221e-07 -5.46535e-05
0.000753575 -2.57287e-05 -5.53777e-08
-2.57287e-05 3.65074e-05 2.7374e-10
-5.53777e-08 2.7374e-10 -2.57651e-05
0.000731443 1.21881e-05 -6.77179e-09
1.21881e-05 2.55054e-05 -1.52149e-07
-6.77179e-09 -1.52149e-07 -4.6453e-05
0.000787966 -2.87724e-05 1.98072e-07
-2.87724e-05 6.0918e-05 -4.41424e-07
1.98072e-07 -4.41424e-07 -1.81375e-05
0.000856664 -1.29245e-05 5.33759e-08
-1.29245e-05 0.00010082 -2.21523e-08
5.33759e-08 -2.21523e-08 2.41366e-05
0.000856028 -3.99946e-05 1.62095e-07
-3.99946e-05 9.96795e-05 -2.45236e-09
1.62095e-07 -2.45236e-09 2.11122e-05
0.000840322 -3.46043e-05 4.99099e-08
-3.46043e-05 8.2294e-05 -1.24006e-06
4.99099e-08 -1.24006e-06 4.39364e-06
0.000820206 -2.84149e-06 2.76678e-07
-2.84149e-06 7.14361e-05 -1.49026e-06
2.76678e-07 -1.49026e-06 -5.76765e-06
0.000842905 2.28494e-05 5.41258e-07
2.28494e-05 8.51319e-05 -4.81733e-07
5.41258e-07 -4.81733e-07 1.07867e-05
0.000779866 2.72749e-05 2.93127e-07
2.72749e-05 5.77815e-05 6.02353e-08
2.93127e-07 6.02353e-08 -2.33058e-05
0.000653757 -1.23452e-05 3.7029e-08
-1.23452e-05 -2.79829e-05 1.03589e-06
3.7029e-08 1.03589e-06 -8.78597e-05
0.000901376 -6.93997e-06 3.01469e-07
-6.93997e-06 0.000139332 -7.46338e-07
3.01469e-07 -7.46338e-07 5.62867e-05
0.000630136 2.69507e-06 -6.22355e-07
2.69507e-06 -3.62204e-05 1.00724e-06
-6.22355e-07 1.00724e-06 -9.86949e-05
0.000716339 1.03814e-05 -7.78713e-08
1.03814e-05 -5.53508e-07 1.43171e-06
-7.78713e-08 1.43171e-06 -3.87915e-05
0.000716723 4.95633e-06 4.85573e-08
4.95633e-06 -1.12587e-06 1.1342e-08
4.85573e-08 1.1342e-08 -3.88876e-05
0.000674836 1.10776e-06 1.48186e-07
1.10776e-06 -4.12132e-05 3.36814e-06
1.48186e-07 3.36814e-06 -4.8437e-05
0.00073187 -4.7732e-06 -1.70002e-07
-4.7732e-06 5.35667e-06 -1.54968e-06
-1.70002e-07 -1.54968e-06 -3.18069e-05
0.000998951 -5.89066e-06 -1.56766e-06
-5.89066e-06 0.000141993 -1.46673e-06
-1.56766e-06 -1.46673e-06 0.000136814
0.00219077 -9.8077e-06 6.70625e-06
-9.8077e-06 0.000818053 4.57954e-06
6.70625e-06 4.57954e-06 0.000837746
0.00134031 -1.35955e-05 -3.00873e-06
-1.35955e-05 0.000336337 -4.84151e-06
-3.00873e-06 -4.84151e-06 0.000332907
0.000902891 -1.37911e-05 2.0829e-06
-1.37911e-05 9.24741e-05 2.81154e-06
2.0829e-06 2.81154e-06 0.000105307
0.000843005 -1.96296e-05 -9.34662e-07
-1.96296e-05 6.17748e-05 -1.7513e-06
-9.34662e-07 -1.7513e-06 7.45666e-05
0.000720184 1.11352e-05 -8.45872e-09
1.11352e-05 3.17748e-06 -1.83466e-06
-8.45872e-09 -1.83466e-06 -3.10325e-05
0.000731697 6.09021e-06 1.259e-07
6.09021e-06 9.44053e-06 1.27944e-08
1.259e-07 1.27944e-08 -2.68135e-05
0.000678998 1.84885e-05 3.56108e-07
1.84885e-05 -3.35269e-05 -3.5231e-06
3.56108e-07 -3.5231e-06 -4.03953e-05
0.000994994 2.86926e-05 -4.975e-07
2.86926e-05 0.000149073 2.97462e-08
-4.975e-07 2.97462e-08 0.000141462
0.0021754 3.91936e-05 1.68183e-05
3.91936e-05 0.000820365 -4.2677e-06
1.68183e-05 -4.2677e-06 0.000837593
0.000675421 3.20164e-05 -7.99476e-07
3.20164e-05 -2.56663e-05 3.88246e-06
-7.99476e-07 3.88246e-06 -3.7931e-05
0.00226069 5.05569e-05 -2.30309e-06
5.05569e-05 0.000875279 -1.16728e-07
-2.30309e-06 -1.16728e-07 0.000890045
0.00238711 6.14704e-05 -2.80695e-05
6.14704e-05 0.000954196 3.9407e-06
-2.80695e-05 3.9407e-06 0.000966184
0.00170981 0.000119267 -1.5206e-06
0.000119267 1.35916e-05 -1.88978e-07
-1.5206e-06 -1.88978e-07 -6.53602e-05
0.00181633 6.01461e-05 1.19545e-06
6.01461e-05 8.81278e-05 -1.0272e-06
1.19545e-06 -1.0272e-06 6.88343e-06
0.00179363 1.51368e-06 -6.59926e-08
1.51368e-06 0.00010965 -3.12158e-07
-6.59926e-08 -3.12158e-07 1.26947e-05
0.00176725 1.01571e-05 4.28391e-07
1.01571e-05 5.77334e-05 2.92753e-07
4.28391e-07 2.92753e-07 -2.52843e-05
0.00181986 7.76983e-05 -5.60029e-07
7.76983e-05 6.15579e-05 -1.4971e-07
-5.60029e-07 -1.4971e-07 -3.54479e-06
0.00182013 5.55778e-05 2.2324e-06
5.55778e-05 3.60869e-05 5.63297e-07
2.2324e-06 5.63297e-07 3.45169e-06
0.00170022 1.32094e-05 -5.86443e-07
1.32094e-05 -1.63932e-05 5.0345e-08
-5.86443e-07 5.0345e-08 -6.72555e-05
0.00315723 9.25657e-05 1.41314e-05
9.25657e-05 0.000487758 -3.19595e-08
1.41314e-05 -3.19595e-08 0.000442168
0.00173993 3.89479e-05 -1.49896e-05
3.89479e-05 4.87207e-05 -3.69896e-06
-1.49896e-05 -3.69896e-06 3.84933e-05
0.000759779 4.48435e-05 -4.9586e-07
4.48435e-05 4.61779e-05 -1.14396e-06
-4.9586e-07 -1.14396e-06 -1.06969e-05
0.00193668 -5.82643e-05 2.03641e-06
-5.82643e-05 0.000160664 2.1051e-07
2.03641e-06 2.1051e-07 7.91658e-05
0.00187791 -0.000112609 2.1077e-06
-0.000112609 0.000135393 -1.35014e-07
2.1077e-06 -1.35014e-07 6.54769e-05
0.00148299 -0.000127172 1.71013e-06
-0.000127172 -0.000103824 5.46306e-07
1.71013e-06 5.46306e-07 -0.000178874
0.000857883 -0.000145125 2.19616e-06
-0.000145125 0.000105118 5.23605e-06
2.19616e-06 5.23605e-06 -4.54452e-05
0.00136987 -0.000214312 1.95261e-06
-0.000214312 0.000257684 4.96613e-06
1.95261e-06 4.96613e-06 2.47129e-05
0.00111165 -0.000220309 -9.58419e-07
-0.000220309 -0.000120417 -4.02103e-06
-9.58419e-07 -4.02103e-06 -0.000288035
0.00149611 -0.000224309 -4.50971e-06
-0.000224309 -5.72554e-05 -2.12426e-06
-4.50971e-06 -2.12426e-06 -0.00016345
0.00124258 -0.000151665 9.56178e-06
-0.000151665 0.000240775 -3.397e-06
9.56178e-06 -3.397e-06 0.000120439
0.000525847 -0.000118251 4.38729e-06
-0.000118251 -7.24931e-05 -9.71767e-06
4.38729e-06 -9.71767e-06 -0.000175234
0.000734869 -8.66549e-05 -1.35586e-07
-8.66549e-05 5.20715e-05 -1.63118e-06
-1.35586e-07 -1.63118e-06 -6.74357e-05
0.000730068 3.10797e-06 -1.12634e-06
3.10797e-06 9.8253e-06 2.01079e-06
-1.12634e-06 2.01079e-06 -2.90991e-05
0.00086388 -1.55669e-05 -7.8218e-08
-1.55669e-05 0.000120468 -3.96623e-07
-7.8218e-08 -3.96623e-07 1.76209e-05
0.00104099 -5.58016e-05 -2.78879e-07
-5.58016e-05 0.000212216 6.88885e-07
-2.78879e-07 6.88885e-07 0.000139742
0.000785115 -1.89285e-05 -1.11261e-06
-1.89285e-05 7.83246e-05 1.08413e-06
-1.11261e-06 1.08413e-06 -1.52822e-05
0.000579826 -1.36347e-05 -4.66329e-07
-1.36347e-05 -5.87416e-05 1.29078e-06
-4.66329e-07 1.29078e-06 -0.00011864
0.0019155 -7.59271e-05 -9.09389e-07
-7.59271e-05 9.47381e-05 -1.54561e-07
-9.09389e-07 -1.54561e-07 3.66307e-05
0.00064948 2.31507e-05 7.31797e-08
2.31507e-05 -1.07518e-05 -7.96583e-07
7.31797e-08 -7.96583e-07 -7.3382e-05
0.000765859 -4.92036e-05 -2.1566e-07
-4.92036e-05 5.47104e-05 1.09035e-07
-2.1566e-07 1.09035e-07 -1.38251e-05
0.000824838 -2.37301e-05 -6.38981e-07
-2.37301e-05 0.00010278 6.94887e-07
-6.38981e-07 6.94887e-07 1.72011e-05
0.00176162 -0.000111989 6.5342e-07
-0.000111989 1.63056e-05 -4.31253e-07
6.5342e-07 -4.31253e-07 -4.19505e-05
0.00179831 -0.000221623 -1.00625e-06
-0.000221623 1.58129e-05 -3.11362e-07
-1.00625e-06 -3.11362e-07 -5.72595e-05
0.000891845 -0.000129646 2.23327e-06
-0.000129646 7.41736e-05 -1.80058e-07
2.23327e-06 -1.80058e-07 -7.26013e-05
0.00124352 -0.000235619 2.32793e-06
-0.000235619 0.000128292 -6.4987e-08
2.32793e-06 -6.4987e-08 -0.000109685
0.00172037 -0.000278388 1.77842e-08
-0.000278388 9.16109e-05 4.76495e-07
1.77842e-08 4.76495e-07 -3.60068e-05
0.000701849 -5.26788e-06 -2.35286e-07
-5.26788e-06 3.65786e-05 3.93686e-08
-2.35286e-07 3.93686e-08 -5.86144e-05
0.000930594 -4.90529e-05 -1.54028e-07
-4.90529e-05 0.000160307 1.20477e-07
-1.54028e-07 1.20477e-07 6.01705e-05
0.000577014 -0.000140743 -6.08133e-06
-0.000140743 -8.14229e-05 1.2512e-06
-6.08133e-06 1.2512e-06 -0.00019789
0.000866125 -7.9695e-05 7.54168e-07
-7.9695e-05 0.000167371 -2.0892e-07
7.54168e-07 -2.0892e-07 2.22813e-05
0.000715479 -5.91606e-05 -5.63817e-07
-5.91606e-05 3.92489e-05 3.61442e-07
-5.63817e-07 3.61442e-07 -7.41399e-05
0.00212891 -0.000140191 -5.19542e-06
-0.000140191 0.000162059 6.32815e-07
-5.19542e-06 6.32815e-07 0.000123531
0.00207177 -0.00014403 -2.04331e-06
-0.00014403 0.000156314 1.36149e-06
-2.04331e-06 1.36149e-06 0.000108436
0.00218684 -0.000313729 -5.59305e-07
-0.000313729 0.000227099 -6.44961e-07
-5.59305e-07 -6.44961e-07 0.000128622
0.00237114 -0.00033235 -1.18129e-05
-0.00033235 0.00059823 9.13602e-07
-1.18129e-05 9.13602e-07 0.000417888
0.000909478 -0.000130591 -6.71353e-06
-0.000130591 0.000121591 -2.08788e-06
-6.71353e-06 -2.08788e-06 -5.93007e-05
0.000564109 1.52313e-05 5.84896e-07
1.52313e-05 -4.7148e-05 -1.47443e-06
5.84896e-07 -1.47443e-06 -0.000129663
0.000581897 5.18433e-05 1.24306e-08
5.18433e-05 -3.39969e-05 -9.63655e-07
1.24306e-08 -9.63655e-07 -0.000123185
0.000885366 1.28889e-05 7.95893e-07
1.28889e-05 0.000140735 1.57128e-07
7.95893e-07 1.57128e-07 4.54673e-05
0.000845811 -8.12439e-05 1.66762e-06
-8.12439e-05 0.000120889 -3.94307e-07
1.66762e-06 -3.94307e-07 1.57214e-05
0.000688255 -2.32591e-05 6.84876e-07
-2.32591e-05 2.18698e-05 3.80314e-07
6.84876e-07 3.80314e-07 -7.83796e-05
0.000691229 -2.50125e-05 2.06726e-06
-2.50125e-05 5.46949e-05 -4.51353e-07
2.06726e-06 -4.51353e-07 -7.71388e-05
0.000769507 -0.000121961 8.37829e-06
-0.000121961 0.000140083 1.27431e-06
8.37829e-06 1.27431e-06 -5.42043e-05
0.000756021 4.72225e-05 1.03188e-06
4.72225e-05 6.6866e-05 -1.61435e-06
1.03188e-06 -1.61435e-06 -2.18467e-05
0.000584317 5.42383e-05 1.32565e-06
5.42383e-05 -1.39627e-05 2.81307e-07
1.32565e-06 2.81307e-07 -0.000132838
0.0019229 0.000111762 1.96828e-06
0.000111762 7.70912e-05 -2.78463e-07
1.96828e-06 -2.78463e-07 2.65266e-05
0.00173826 0.000179941 3.9048e-06
0.000179941 -1.69291e-05 -5.83794e-07
3.9048e-06 -5.83794e-07 -9.30075e-05
0.00198743 0.000278985 4.81441e-06
0.000278985 0.000213643 4.86184e-07
4.81441e-06 4.86184e-07 7.25302e-05
0.000543917 0.00012577 2.2209e-06
0.00012577 -7.3678e-05 -9.29866e-07
2.2209e-06 -9.29866e-07 -0.000260685
0.00217231 0.000293817 3.41912e-06
0.000293817 0.000586153 1.21816e-06
3.41912e-06 1.21816e-06 0.000365646
0.00101682 3.03716e-05 -2.27857e-07
3.03716e-05 0.000214615 4.7218e-07
-2.27857e-07 4.7218e-07 0.00011564
0.00194097 0.00012159 -1.53323e-06
0.00012159 9.36521e-05 -1.00631e-07
-1.53323e-06 -1.00631e-07 6.82901e-05
0.0013285 0.000154346 -1.09983e-06
0.000154346 0.000382988 -4.28636e-07
-1.09983e-06 -4.28636e-07 0.000239655
0.00167923 0.000222096 -8.06342e-07
0.000222096 0.000504322 1.35227e-06
-8.06342e-07 1.35227e-06 0.000294136
0.0020132 0.000275685 6.57205e-07
0.000275685 0.000133275 -1.41993e-06
6.57205e-07 -1.41993e-06 4.25894e-05
0.00151029 0.000273222 -1.19003e-06
0.000273222 0.000133198 1.84638e-06
-1.19003e-06 1.84638e-06 -6.5149e-05
0.00122267 0.000163316 1.62831e-05
0.000163316 -0.000249136 1.17798e-06
1.62831e-05 1.17798e-06 -0.000465436
0.00112618 7.05101e-05 -2.8295e-06
7.05101e-05 0.000273006 -1.79377e-06
-2.8295e-06 -1.79377e-06 0.000159238
0.00246982 0.000196253 -2.36498e-05
0.000196253 0.000391187 -1.15678e-05
-2.36498e-05 -1.15678e-05 0.000393936
0.00133047 0.000183683 -6.11072e-06
0.000183683 0.000382396 -1.98583e-06
-6.11072e-06 -1.98583e-06 0.000222746
0.00135415 0.000225084 -6.68423e-06
0.000225084 0.000250715 -5.91779e-08
-6.68423e-06 -5.91779e-08 2.75726e-05
0.000507352 0.000284454 -9.77873e-06
0.000284454 -0.000533182 -2.75011e-06
-9.77873e-06 -2.75011e-06 -0.000691591
0.00828058 9.77864e-05 -9.60789e-05
9.77864e-05 0.00249952 -3.67993e-05
-9.60789e-05 -3.67993e-05 0.00159103
0.00388784 0.00033507 0.00010242
0.00033507 0.000546089 -2.48316e-06
0.00010242 -2.48316e-06 -0.000141596
0.000550757 0.000258472 1.11732e-05
0.000258472 -0.000397249 1.76792e-05
1.11732e-05 1.76792e-05 -0.000512951
-0.00305088 -0.000362821 8.92931e-05
-0.000362821 -0.00111735 -9.78695e-06
8.92931e-05 -9.78695e-06 -0.0014307
0.00374894 -0.000852283 -2.07596e-05
-0.000852283 0.00046981 -8.62977e-06
-2.07596e-05 -8.62977e-06 0.00185757
0.000822854 -1.28151e-05 5.35198e-07
-1.28151e-05 9.60292e-05 -2.16707e-08
5.35198e-07 -2.16707e-08 1.54181e-05
0.000923988 -2.41092e-05 9.87639e-07
-2.41092e-05 0.000148273 -2.86175e-07
9.87639e-07 -2.86175e-07 6.3373e-05
0.000911595 2.61141e-05 -6.55713e-07
2.61141e-05 0.000141521 -2.59252e-06
-6.55713e-07 -2.59252e-06 5.64183e-05
0.000741866 -5.35025e-05 6.04214e-08
-5.35025e-05 3.46989e-05 -7.54427e-07
6.04214e-08 -7.54427e-07 -3.07124e-05
0.000698513 4.74113e-05 -9.95938e-07
4.74113e-05 9.25429e-06 -1.18078e-08
-9.95938e-07 -1.18078e-08 -6.44187e-05
0.000850897 -4.07397e-05 -1.40305e-07
-4.07397e-05 9.78386e-05 3.80684e-07
-1.40305e-07 3.80684e-07 2.10141e-05
0.000919319 -1.65876e-05 -9.39771e-07
-1.65876e-05 0.000132558 8.79318e-07
-9.39771e-07 8.79318e-07 5.54306e-05
0.0008254 -3.98635e-05 -1.41331e-08
-3.98635e-05 8.2543e-05 -3.36537e-08
-1.41331e-08 -3.36537e-08 1.92014e-06
0.000795101 4.28254e-05 -7.602e-07
4.28254e-05 6.51049e-05 -2.74299e-07
-7.602e-07 -2.74299e-07 -1.44132e-05
0.00069346 -5.16536e-06 -4.20314e-08
-5.16536e-06 -1.20515e-06 5.47623e-07
-4.20314e-08 5.47623e-07 -6.28978e-05
0.000786409 2.30481e-05 -2.36314e-07
2.30481e-05 6.00316e-05 -3.89668e-08
-2.36314e-07 -3.89668e-08 -1.95823e-05
0.000848913 -3.20781e-05 -1.13874e-07
-3.20781e-05 8.67118e-05 5.2225e-07
-1.13874e-07 5.2225e-07 9.21431e-06
0.000846788 -4.32955e-06 -1.90953e-07
-4.32955e-06 8.57267e-05 -1.54086e-07
-1.90953e-07 -1.54086e-07 9.39887e-06
0.000793324 2.93531e-05 9.99963e-08
2.93531e-05 5.25973e-05 -1.12232e-06
9.99963e-08 -1.12232e-06 -2.34195e-05
0.000715419 -4.38937e-06 7.04707e-07
-4.38937e-06 7.21267e-06 -2.30143e-06
7.04707e-07 -2.30143e-06 -6.43792e-05
0.000877299 3.48705e-05 1.40036e-06
3.48705e-05 9.93122e-05 -1.70052e-07
1.40036e-06 -1.70052e-07 2.15293e-05
0.000730797 -3.38525e-07 1.11663e-06
-3.38525e-07 1.93884e-05 -2.9355e-07
1.11663e-06 -2.9355e-07 -5.81669e-05
0.00064012 -4.30145e-05 -1.21742e-06
-4.30145e-05 -2.99428e-05 1.03091e-06
-1.21742e-06 1.03091e-06 -9.37584e-05
0.000858272 1.37358e-05 -4.793e-07
1.37358e-05 0.000100044 -2.97954e-07
-4.793e-07 -2.97954e-07 2.081e-05
0.000893098 5.67794e-05 7.02194e-08
5.67794e-05 0.000119752 -1.46474e-06
7.02194e-08 -1.46474e-06 3.93003e-05
0.000749746 4.27769e-06 -7.20043e-07
4.27769e-06 5.01559e-05 -3.66807e-07
-7.20043e-07 -3.66807e-07 -2.64199e-05
0.00085305 6.56846e-06 7.25266e-07
6.56846e-06 0.000103507 -4.06199e-07
7.25266e-07 -4.06199e-07 2.51074e-05
0.000759298 -3.8913e-05 -1.52491e-06
-3.8913e-05 3.7336e-05 4.8308e-07
-1.52491e-06 4.8308e-07 -2.33597e-05
0.000636135 5.4737e-06 1.34122e-07
5.4737e-06 -3.02117e-05 5.57955e-07
1.34122e-07 5.57955e-07 -9.45922e-05
0.000727693 1.0865e-05 -3.52563e-07
1.0865e-05 4.92953e-06 1.47926e-06
-3.52563e-07 1.47926e-06 -3.34442e-05
0.000715024 2.11036e-06 4.24179e-09
2.11036e-06 -1.5273e-06 -7.85268e-09
4.24179e-09 -7.85268e-09 -3.96212e-05
0.000695913 7.04692e-06 -3.67898e-07
7.04692e-06 -2.79435e-05 4.83803e-06
-3.67898e-07 4.83803e-06 -3.57681e-05
0.000716302 3.12894e-07 2.39657e-07
3.12894e-07 -1.46015e-06 -1.47228e-06
2.39657e-07 -1.47228e-06 -3.91268e-05
0.000680383 1.35886e-06 2.37762e-07
1.35886e-06 -3.80787e-05 -5.11125e-09
2.37762e-07 -5.11125e-09 -4.53328e-05
0.00219812 -9.94416e-07 2.34609e-07
-9.94416e-07 0.000821658 4.64515e-06
2.34609e-07 4.64515e-06 0.00084131
0.000704278 -4.43474e-06 -4.90014e-07
-4.43474e-06 -2.41279e-05 -4.86314e-06
-4.90014e-07 -4.86314e-06 -3.12585e-05
0.00154518 -7.75696e-06 -3.61406e-07
-7.75696e-06 0.000453168 3.60836e-08
-3.61406e-07 3.60836e-08 0.000469428
0.000854052 -1.27073e-05 -4.12598e-07
-1.27073e-05 6.42125e-05 -1.76998e-06
-4.12598e-07 -1.76998e-06 7.73916e-05
0.000723234 9.76767e-06 -2.93848e-07
9.76767e-06 4.72964e-06 -1.78408e-06
-2.93848e-07 -1.78408e-06 -2.80776e-05
0.000726552 3.02988e-06 1.00181e-07
3.02988e-06 6.47542e-06 2.53683e-08
1.00181e-07 2.53683e-08 -2.77192e-05
0.000686887 1.2443e-05 1.25611e-07
1.2443e-05 -3.23657e-05 -3.46682e-06
1.25611e-07 -3.46682e-06 -3.75092e-05
0.000733361 -3.50749e-08 -1.00181e-06
-3.50749e-08 1.0183e-05 1.90865e-06
-1.00181e-06 1.90865e-06 -2.60863e-05
0.000980474 2.11299e-05 -2.19787e-07
2.11299e-05 0.000136267 -7.18229e-07
-2.19787e-07 -7.18229e-07 0.000131161
0.00212306 2.89108e-05 1.27307e-05
2.89108e-05 0.000785987 -4.39261e-06
1.27307e-05 -4.39261e-06 0.000804929
0.000678374 2.58085e-05 -5.62879e-07
2.58085e-05 -2.93711e-05 3.72279e-06
-5.62879e-07 3.72279e-06 -3.89586e-05
0.00223621 3.95501e-05 -7.44837e-06
3.95501e-05 0.000856076 1.18549e-06
-7.44837e-06 1.18549e-06 0.000872826
0.00229131 5.13844e-05 -2.24765e-05
5.13844e-05 0.000893345 4.14079e-06
-2.24765e-05 4.14079e-06 0.000907774
0.00170962 7.59227e-05 -2.71715e-07
7.59227e-05 6.4069e-06 -4.90635e-07
-2.71715e-07 -4.90635e-07 -5.98196e-05
0.00173205 1.14794e-05 1.21907e-06
1.14794e-05 3.63785e-05 -3.16859e-07
1.21907e-06 -3.16859e-07 -4.68249e-05
0.00180139 5.66009e-05 5.63252e-06
5.66009e-05 2.55428e-05 1.31634e-06
5.63252e-06 1.31634e-06 -1.19674e-05
0.00207992 7.07918e-05 1.67281e-05
7.07918e-05 -2.06318e-05 2.96622e-06
1.67281e-05 2.96622e-06 -8.57255e-05
0.00175802 1.14064e-05 -1.51455e-06
1.14064e-05 1.29933e-05 -8.43359e-08
-1.51455e-06 -8.43359e-08 -3.78176e-05
0.00187405 4.18542e-05 2.67803e-06
4.18542e-05 0.000128714 9.47955e-07
2.67803e-06 9.47955e-07 0.000116076
0.00252164 -1.20681e-06 -1.29359e-05
-1.20681e-06 0.000477038 -7.84304e-07
-1.29359e-05 -7.84304e-07 0.000434626
0.00305593 6.50664e-06 0.000136989
6.50664e-06 0.000248181 -6.99238e-06
0.000136989 -6.99238e-06 -4.48803e-05
0.00193387 -9.80105e-06 -1.30933e-05
-9.80105e-06 2.8664e-06 -5.98651e-06
-1.30933e-05 -5.98651e-06 -5.91796e-05
0.000760079 4.76697e-05 -6.87901e-07
4.76697e-05 4.85668e-05 -1.06942e-06
-6.87901e-07 -1.06942e-06 -9.02905e-06
0.000761341 -1.14e-05 6.71841e-07
-1.14e-05 5.11591e-05 -5.79749e-08
6.71841e-07 -5.79749e-08 -8.81055e-06
0.000735044 -6.32091e-05 4.74752e-08
-6.32091e-05 4.34625e-05 -4.25686e-07
4.74752e-08 -4.25686e-07 -3.05394e-05
0.00075657 -2.30822e-05 -1.21468e-06
-2.30822e-05 6.40331e-05 -9.83885e-08
-1.21468e-06 -9.83885e-08 -1.53498e-05
0.00192605 -8.2447e-05 1.73784e-06
-8.2447e-05 9.47252e-05 -1.77125e-07
1.73784e-06 -1.77125e-07 3.89224e-05
0.00175863 -0.000121034 -1.10641e-06
-0.000121034 3.61512e-06 1.46278e-07
-1.10641e-06 1.46278e-07 -5.44121e-05
0.00179327 -0.000220032 -5.08781e-06
-0.000220032 2.50018e-05 9.58607e-07
-5.08781e-06 9.58607e-07 -5.3202e-05
0.0010917 -0.000173251 3.89712e-06
-0.000173251 0.000175622 2.91525e-06
3.89712e-06 2.91525e-06 3.12489e-05
-0.000101793 -0.000143282 4.81465e-06
-0.000143282 -0.000569182 -9.86639e-07
4.81465e-06 -9.86639e-07 -0.000804194
0.00184774 -0.000292548 4.79702e-07
-0.000292548 0.000167897 -2.41246e-06
4.79702e-07 -2.41246e-06 3.63808e-05
0.000519234 -0.00012538 -6.8443e-06
-0.00012538 -0.000102944 6.08597e-07
-6.8443e-06 6.08597e-07 -0.000230406
0.00107725 -7.84495e-05 -1.11423e-06
-7.84495e-05 0.000270707 -1.64066e-06
-1.11423e-06 -1.64066e-06 0.000135432
0.000842516 -8.38288e-05 -2.22222e-06
-8.38288e-05 0.000109215 8.70102e-07
-2.22222e-06 8.70102e-07 -4.72979e-06
0.00077646 -2.35705e-05 -1.05033e-06
-2.35705e-05 5.68093e-05 1.48663e-06
-1.05033e-06 1.48663e-06 -9.34329e-06
0.000814599 -6.17928e-05 -7.99692e-07
-6.17928e-05 0.000102153 2.65394e-07
-7.99692e-07 2.65394e-07 -3.53299e-06
0.000822918 -1.0213e-05 -1.06256e-06
-1.0213e-05 0.000101753 1.03645e-06
-1.06256e-06 1.03645e-06 8.88215e-06
0.000755859 -1.22752e-06 1.03475e-07
-1.22752e-06 5.13473e-05 6.42488e-07
1.03475e-07 6.42488e-07 -1.19074e-05
0.000686063 1.94748e-05 -2.88201e-07
1.94748e-05 2.72641e-05 1.80482e-06
-2.88201e-07 1.80482e-06 -6.13041e-05
0.00196969 -0.000122239 4.67016e-07
-0.000122239 0.00010459 2.88819e-07
4.67016e-07 2.88819e-07 6.26304e-05
0.000763617 7.43432e-06 6.86222e-07
7.43432e-06 6.6282e-05 -5.42901e-07
6.86222e-07 -5.42901e-07 -1.56816e-05
0.000698884 1.65558e-05 6.37918e-07
1.65558e-05 3.32365e-05 -8.19253e-08
6.37918e-07 -8.19253e-08 -5.67837e-05
0.000785799 6.28082e-05 -2.17208e-07
6.28082e-05 8.89511e-05 1.07789e-06
-2.17208e-07 1.07789e-06 -6.96428e-06
0.00191788 -0.000142204 -2.70158e-06
-0.000142204 5.89357e-05 7.39723e-07
-2.70158e-06 7.39723e-07 7.82161e-06
0.00193876 -0.000294633 9.58474e-07
-0.000294633 0.000102491 -7.40721e-07
9.58474e-07 -7.40721e-07 9.02595e-06
0.00103976 -0.000177777 -1.2109e-06
-0.000177777 0.000178979 -1.01238e-07
-1.2109e-06 -1.01238e-07 -4.36047e-06
0.00236975 -0.000333974 -1.51182e-06
-0.000333974 0.000593988 7.16353e-07
-1.51182e-06 7.16353e-07 0.000410451
0.000929661 -3.13743e-05 -3.67334e-07
-3.13743e-05 0.000163 3.06498e-08
-3.67334e-07 3.06498e-08 6.05016e-05
0.000729842 -4.17364e-05 -3.55797e-07
-4.17364e-05 4.99218e-05 9.26226e-07
-3.55797e-07 9.26226e-07 -5.43707e-05
0.000827819 -0.000126422 3.63056e-06
-0.000126422 0.000162503 -9.81054e-07
3.63056e-06 -9.81054e-07 -2.40177e-05
0.00102607 -7.95739e-05 9.95605e-07
-7.95739e-05 0.000242806 -6.89793e-07
9.95605e-07 -6.89793e-07 0.000100153
0.00230083 -0.000101875 -8.48727e-06
-0.000101875 0.000259965 4.94135e-06
-8.48727e-06 4.94135e-06 0.000207897
0.00231251 -0.000257658 -6.85824e-06
-0.000257658 0.000209349 -5.17909e-07
-6.85824e-06 -5.17909e-07 0.00020079
0.00236313 -0.000345269 -6.09661e-06
-0.000345269 0.000457428 -3.45988e-06
-6.09661e-06 -3.45988e-06 0.000311847
0.00143584 -0.000259327 -1.9757e-06
-0.000259327 0.00035386 7.7729e-08
-1.9757e-06 7.7729e-08 0.000166601
0.000715193 2.58593e-05 -4.93951e-07
2.58593e-05 5.10695e-05 -8.43727e-07
-4.93951e-07 -8.43727e-07 -5.15737e-05
0.000729568 -4.70828e-05 5.32277e-07
-4.70828e-05 6.027e-05 -1.33256e-06
5.32277e-07 -1.33256e-06 -4.4971e-05
0.000731839 -3.77336e-05 7.29736e-07
-3.77336e-05 6.24507e-05 -5.31247e-07
7.29736e-07 -5.31247e-07 -4.81711e-05
0.000613351 -1.22472e-05 -5.53329e-08
-1.22472e-05 6.54941e-05 4.71806e-07
-5.53329e-08 4.71806e-07 -0.000144735
0.00036021 -0.000135315 2.14443e-05
-0.000135315 -0.0017164 -1.33691e-06
2.14443e-05 -1.33691e-06 -0.0022205
0.00099366 1.68108e-05 1.40272e-06
1.68108e-05 0.000199231 -1.16039e-06
1.40272e-06 -1.16039e-06 0.000106401
0.000512174 9.7269e-05 3.16142e-06
9.7269e-05 -5.96198e-05 1.63119e-06
3.16142e-06 1.63119e-06 -0.000193726
0.00168131 0.000113137 1.66225e-05
0.000113137 -4.99899e-05 1.33915e-06
1.66225e-05 1.33915e-06 -6.77441e-05
0.00211734 0.000271897 5.31138e-06
0.000271897 0.000188315 1.30669e-07
5.31138e-06 1.30669e-07 9.93716e-05
0.00138865 0.000269079 5.92119e-06
0.000269079 6.904e-05 2.56204e-06
5.92119e-06 2.56204e-06 -0.000135416
0.000729228 0.000153772 4.98676e-06
0.000153772 1.32182e-05 1.32263e-06
4.98676e-06 1.32263e-06 -0.000199674
0.00226655 0.000203002 2.04683e-05
0.000203002 8.50734e-05 3.7255e-06
2.04683e-05 3.7255e-06 -0.000188401
0.00097988 5.8282e-05 8.46232e-07
5.8282e-05 0.00019989 -6.94716e-07
8.46232e-07 -6.94716e-07 8.78847e-05
0.00228553 0.000192411 -7.01623e-06
0.000192411 0.000297235 -1.84502e-06
-7.01623e-06 -1.84502e-06 0.000308794
0.00105548 0.00016342 5.32203e-07
0.00016342 0.000238481 -3.66858e-07
5.32203e-07 -3.66858e-07 8.25185e-05
0.00116096 0.00021883 -2.3037e-07
0.00021883 0.000155986 2.95365e-07
-2.3037e-07 2.95365e-07 -6.90898e-05
0.00133491 0.000332076 -2.34629e-06
0.000332076 -0.000125631 -1.40497e-06
-2.34629e-06 -1.40497e-06 -0.000277099
0.00280313 -0.000135501 -6.39778e-05
-0.000135501 -0.000257307 -2.05936e-05
-6.39778e-05 -2.05936e-05 -0.00112381
0.00383479 0.000249823 6.60746e-06
0.000249823 0.000330636 -1.5699e-05
6.60746e-06 -1.5699e-05 -0.000439421
0.000267619 0.000206111 4.94773e-06
0.000206111 -0.000513291 6.18991e-06
4.94773e-06 6.18991e-06 -0.000645139
-0.0013612 -0.000254285 6.17607e-05
-0.000254285 -1.93126e-05 1.91407e-05
6.17607e-05 1.91407e-05 -0.000604456
-0.000467714 -0.000854428 -1.04044e-05
-0.000854428 -0.00140092 -2.56768e-05
-1.04044e-05 -2.56768e-05 0.000179206
0.00119118 0.000117452 -3.71706e-06
0.000117452 0.000329777 -3.77375e-06
-3.71706e-06 -3.77375e-06 0.00021674
0.000587439 0.000183024 -1.43946e-05
0.000183024 0.000838937 -2.71071e-05
-1.43946e-05 -2.71071e-05 0.000248702
0.00128388 -0.000370697 -6.00681e-05
-0.000370697 0.000959072 -6.35442e-05
-6.00681e-05 -6.35442e-05 0.000839392
0.00246694 0.00028099 -2.40202e-05
0.00028099 0.000452959 -6.25992e-06
-2.40202e-05 -6.25992e-06 0.000468044
0.00111382 0.000107778 -1.09668e-05
0.000107778 0.000273445 -2.71745e-06
-1.09668e-05 -2.71745e-06 0.000105204
0.00106455 0.000331707 -1.76744e-05
0.000331707 3.41012e-05 -8.62617e-06
-1.76744e-05 -8.62617e-06 -0.000202201
-0.000185543 0.000259072 1.4684e-05
0.000259072 -0.000758624 5.02671e-05
1.4684e-05 5.02671e-05 -0.00078202
0.00799738 6.24598e-05 -4.09799e-05
6.24598e-05 0.0027482 -2.08628e-05
-4.09799e-05 -2.08628e-05 0.00134824
0.00375158 0.00050541 -5.29307e-06
0.00050541 0.000707781 1.31919e-05
-5.29307e-06 1.31919e-05 -0.000449509
0.000670288 -0.000688441 3.98211e-05
-0.000688441 -0.000295781 2.87775e-05
3.98211e-05 2.87775e-05 0.000105035
0.0014207 -0.000475246 -1.73203e-05
-0.000475246 -0.00165466 5.78133e-05
-1.73203e-05 5.78133e-05 -0.000432967
0.00085368 -2.9339e-05 1.57237e-06
-2.9339e-05 0.000114771 -4.09826e-07
1.57237e-06 -4.09826e-07 3.06235e-05
0.000906688 2.16821e-05 3.72496e-07
2.16821e-05 0.000140579 2.0779e-07
3.72496e-07 2.0779e-07 5.57486e-05
0.00112578 6.553e-05 -1.72866e-06
6.553e-05 0.00026046 -3.74331e-06
-1.72866e-06 -3.74331e-06 0.000193285
0.000743093 4.14432e-06 -4.63606e-08
4.14432e-06 3.78048e-05 -3.03469e-09
-4.63606e-08 -3.03469e-09 -3.03062e-05
0.000807018 2.11762e-05 -6.24202e-07
2.11762e-05 7.01885e-05 -1.97767e-07
-6.24202e-07 -1.97767e-07 -8.05217e-06
0.000724536 -3.02425e-05 -6.24425e-07
-3.02425e-05 1.90375e-05 2.46343e-07
-6.24425e-07 2.46343e-07 -5.57064e-05
0.000882838 -4.61993e-06 -1.76901e-07
-4.61993e-06 0.000105423 8.07789e-07
-1.76901e-07 8.07789e-07 2.96788e-05
0.000868742 -3.07482e-05 -3.41037e-07
-3.07482e-05 9.77533e-05 1.68553e-06
-3.41037e-07 1.68553e-06 2.04109e-05
0.000637749 -9.82708e-07 5.1208e-07
-9.82708e-07 -2.88884e-05 5.50924e-07
5.1208e-07 5.50924e-07 -9.43297e-05
0.000827287 -1.25461e-06 -9.80528e-08
-1.25461e-06 7.1147e-05 -1.18595e-07
-9.80528e-08 -1.18595e-07 -4.74767e-06
0.00087916 -6.6533e-07 3.29784e-08
-6.6533e-07 0.000102124 3.07023e-07
3.29784e-08 3.07023e-07 2.39989e-05
0.000810352 2.14281e-05 5.72895e-07
2.14281e-05 7.29699e-05 -2.51842e-07
5.72895e-07 -2.51842e-07 -9.56991e-06
0.000750286 -1.63674e-06 7.61158e-08
-1.63674e-06 2.60215e-05 -8.29659e-08
7.61158e-08 -8.29659e-08 -4.48118e-05
0.000878073 -6.9825e-06 4.85683e-07
-6.9825e-06 9.23134e-05 -1.23668e-06
4.85683e-07 -1.23668e-06 1.80724e-05
0.000697882 2.52942e-05 -1.01777e-06
2.52942e-05 -7.54373e-06 -5.3975e-06
-1.01777e-06 -5.3975e-06 -7.43446e-05
0.00087366 -6.25436e-05 2.41576e-07
-6.25436e-05 9.61314e-05 -6.40208e-07
2.41576e-07 -6.40208e-07 1.3917e-05
0.00086095 -4.88135e-05 -4.77728e-07
-4.88135e-05 0.000104104 -6.96746e-07
-4.77728e-07 -6.96746e-07 2.01198e-05
0.000865917 -1.24922e-05 -4.63757e-07
-1.24922e-05 0.000106899 -2.0647e-07
-4.63757e-07 -2.0647e-07 2.54729e-05
0.000892296 4.20258e-05 -5.23266e-07
4.20258e-05 0.000114891 -2.92912e-07
-5.23266e-07 -2.92912e-07 3.70456e-05
0.000852472 2.02529e-05 -6.62056e-07
2.02529e-05 0.000100263 -1.3528e-06
-6.62056e-07 -1.3528e-06 1.07791e-05
0.000813131 4.60621e-05 4.82271e-07
4.60621e-05 7.83956e-05 -1.00663e-06
4.82271e-07 -1.00663e-06 3.98669e-07
0.000726095 3.29682e-05 4.15655e-07
3.29682e-05 1.67611e-05 -1.51618e-06
4.15655e-07 -1.51618e-06 -5.5851e-05
0.00071414 5.26197e-05 1.87636e-06
5.26197e-05 3.69603e-05 8.0489e-07
1.87636e-06 8.0489e-07 -4.51571e-05
0.000749357 8.47756e-06 -9.10125e-08
8.47756e-06 4.21075e-05 -3.21884e-07
-9.10125e-08 -3.21884e-07 -2.61253e-05
0.00077199 -4.85254e-06 -1.41731e-07
-4.85254e-06 5.94651e-05 1.92722e-08
-1.41731e-07 1.92722e-08 -1.51153e-05
0.000752154 -1.64114e-06 -1.18094e-06
-1.64114e-06 2.91475e-05 2.97006e-07
-1.18094e-06 2.97006e-07 -2.72232e-05
0.00079959 6.0952e-06 8.82139e-07
6.0952e-06 6.32182e-05 -8.67399e-08
8.82139e-07 -8.67399e-08 -9.39765e-06
0.000723923 -3.39326e-05 -2.56826e-08
-3.39326e-05 1.69794e-05 4.77283e-08
-2.56826e-08 4.77283e-08 -4.40526e-05
0.000740563 1.24462e-05 -7.58037e-07
1.24462e-05 1.10153e-05 1.52666e-06
-7.58037e-07 1.52666e-06 -2.72967e-05
0.000642018 5.00666e-06 5.73041e-07
5.00666e-06 -2.25368e-05 2.66059e-08
5.73041e-07 2.66059e-08 -8.98645e-05
0.000725387 8.32696e-06 6.81513e-08
8.32696e-06 3.39221e-06 -1.70689e-08
6.81513e-08 -1.70689e-08 -3.49119e-05
0.00135076 1.58471e-05 -2.92623e-06
1.58471e-05 0.000344008 4.73984e-06
-2.92623e-06 4.73984e-06 0.000339239
0.000712633 2.86104e-06 4.16463e-07
2.86104e-06 -2.92415e-06 -1.42197e-06
4.16463e-07 -1.42197e-06 -4.09786e-05
0.00101832 8.48063e-06 -1.47759e-06
8.48063e-06 0.000154068 7.22854e-07
-1.47759e-06 7.22854e-07 0.000148056
0.000907561 3.84963e-06 -3.25833e-06
3.84963e-06 9.3442e-05 4.49996e-06
-3.25833e-06 4.49996e-06 0.000105959
0.000686369 1.59834e-06 3.5381e-08
1.59834e-06 -3.46767e-05 -3.34479e-06
3.5381e-08 -3.34479e-06 -4.19694e-05
0.00220244 -2.70334e-08 3.12102e-06
-2.70334e-08 0.000824128 -1.0147e-09
3.12102e-06 -1.0147e-09 0.000843739
0.000917195 -3.78222e-06 -2.97281e-06
-3.78222e-06 9.86486e-05 -4.51207e-06
-2.97281e-06 -4.51207e-06 0.000111563
0.000761734 6.1004e-05 8.08582e-07
6.1004e-05 5.46364e-05 -3.23734e-07
8.08582e-07 -3.23734e-07 -7.60623e-06
0.000732098 5.55465e-06 -1.83738e-07
5.55465e-06 8.86265e-06 -1.74774e-06
-1.83738e-07 -1.74774e-06 -2.33937e-05
0.000724689 3.42075e-06 9.7123e-08
3.42075e-06 5.33599e-06 7.75647e-09
9.7123e-08 7.75647e-09 -2.74299e-05
0.000687729 6.18117e-06 -7.96669e-08
6.18117e-06 -3.37714e-05 -3.42276e-06
-7.96669e-08 -3.42276e-06 -3.78389e-05
0.000730158 -1.42941e-06 -5.32792e-07
-1.42941e-06 8.25393e-06 1.84064e-06
-5.32792e-07 1.84064e-06 -2.59475e-05
0.000678706 1.25555e-05 -4.01452e-10
1.25555e-05 -3.74046e-05 -7.25654e-07
-4.01452e-10 -7.25654e-07 -4.24307e-05
0.00208945 1.88776e-05 8.45859e-06
1.88776e-05 0.000763405 -4.49271e-06
8.45859e-06 -4.49271e-06 0.000783573
0.0012891 2.56742e-05 -1.03803e-06
2.56742e-05 0.000310718 2.11362e-06
-1.03803e-06 2.11362e-06 0.000306942
0.00154109 2.46879e-05 3.87539e-07
2.46879e-05 0.000458511 1.42455e-06
3.87539e-07 1.42455e-06 0.000473643
0.000969711 2.73863e-05 -1.68167e-05
2.73863e-05 0.000141519 7.2359e-06
-1.68167e-05 7.2359e-06 0.000151399
0.00081847 5.05393e-05 3.17745e-05
5.05393e-05 -0.000623348 1.19094e-05
3.17745e-05 1.19094e-05 -0.000719002
0.00181116 9.10571e-06 2.9907e-06
9.10571e-06 3.84922e-05 7.09259e-07
2.9907e-06 7.09259e-07 -1.14892e-05
0.00204306 4.25556e-05 1.84039e-05
4.25556e-05 0.000230726 8.60426e-07
1.84039e-05 8.60426e-07 0.000213189
0.000828458 3.25585e-05 1.58144e-05
3.25585e-05 -0.000637025 -3.53312e-06
1.58144e-05 -3.53312e-06 -0.000964149
0.00177184 -2.24608e-06 3.94803e-06
-2.24608e-06 -4.96293e-05 1.03129e-06
3.94803e-06 1.03129e-06 -8.74568e-05
0.00207011 -1.09711e-05 -2.19584e-06
-1.09711e-05 0.000170592 -5.40031e-07
-2.19584e-06 -5.40031e-07 0.000133281
0.00279149 -2.64827e-05 -4.28474e-05
-2.64827e-05 0.000498889 4.29551e-06
-4.28474e-05 4.29551e-06 0.000478638
0.00232029 -0.00010435 0.000142325
-0.00010435 8.55029e-05 -1.04768e-05
0.000142325 -1.04768e-05 -0.000180271
0.00791043 -0.000129262 -1.95244e-05
-0.000129262 0.00229572 8.37428e-06
-1.95244e-05 8.37428e-06 0.00129214
0.00492701 0.000794858 8.0544e-05
0.000794858 0.00240916 -2.86595e-05
8.0544e-05 -2.86595e-05 0.00258599
0.00225145 0.000771978 -9.78819e-06
0.000771978 0.000970973 1.57986e-05
-9.78819e-06 1.57986e-05 0.00198746
0.000543929 -6.34361e-05 1.52728e-06
-6.34361e-05 -6.00381e-05 -1.16425e-06
1.52728e-06 -1.16425e-06 -0.000135751
0.000761899 -8.99002e-06 7.02681e-07
-8.99002e-06 5.11702e-05 -4.92141e-08
7.02681e-07 -4.92141e-08 -7.62733e-06
0.000759135 -6.44222e-05 -1.16259e-06
-6.44222e-05 5.44555e-05 1.3871e-06
-1.16259e-06 1.3871e-06 -8.79587e-06
0.000730436 -2.85628e-05 -3.26841e-07
-2.85628e-05 4.44272e-05 7.98237e-08
-3.26841e-07 7.98237e-08 -3.28566e-05
0.000786743 4.96448e-05 2.5799e-07
4.96448e-05 8.91905e-05 6.18702e-07
2.5799e-07 6.18702e-07 -4.03763e-06
0.000897952 9.54898e-05 8.28255e-07
9.54898e-05 0.00013719 7.64331e-07
8.28255e-07 7.64331e-07 4.99064e-05
0.000824133 -1.71031e-05 9.66554e-07
-1.71031e-05 9.5144e-05 -1.41455e-06
9.66554e-07 -1.41455e-06 1.75674e-05
0.000708791 -3.23209e-05 -5.35719e-07
-3.23209e-05 3.25212e-05 6.45604e-07
-5.35719e-07 6.45604e-07 -4.35038e-05
0.00187961 -0.000103355 5.47374e-06
-0.000103355 8.31987e-05 -8.54905e-07
5.47374e-06 -8.54905e-07 3.93965e-05
0.00187768 -0.00014606 1.86212e-06
-0.00014606 1.25477e-05 -1.17061e-06
1.86212e-06 -1.17061e-06 -4.02208e-05
0.001535 -0.000270527 -1.36416e-06
-0.000270527 -0.000104538 1.12951e-06
-1.36416e-06 1.12951e-06 -0.000193387
0.00104298 -0.00019913 2.38652e-06
-0.00019913 0.00016259 2.97636e-06
2.38652e-06 2.97636e-06 -1.87147e-05
0.00227022 -0.000329627 2.4081e-06
-0.000329627 0.000538063 9.55433e-07
2.4081e-06 9.55433e-07 0.00035064
0.000853525 -0.000128791 -9.46372e-07
-0.000128791 0.000168929 -1.02272e-06
-9.46372e-07 -1.02272e-06 -1.04559e-05
0.00135218 -0.000133093 -8.10284e-07
-0.000133093 0.0004277 -3.15226e-07
-8.10284e-07 -3.15226e-07 0.000272866
0.000797536 -6.92447e-05 -1.86863e-06
-6.92447e-05 9.24057e-05 1.61488e-06
-1.86863e-06 1.61488e-06 -1.61955e-05
0.000792951 -1.08696e-05 7.5993e-08
-1.08696e-05 8.68606e-05 1.17691e-06
7.5993e-08 1.17691e-06 -3.21511e-06
0.00100079 5.43091e-06 -1.62848e-06
5.43091e-06 0.000198103 1.61303e-07
-1.62848e-06 1.61303e-07 9.8539e-05
0.000998498 -5.03917e-06 8.6012e-07
-5.03917e-06 0.000197368 5.44988e-07
8.6012e-07 5.44988e-07 0.000116793
0.000708132 0.000101668 1.64498e-06
0.000101668 4.87294e-05 2.07458e-06
1.64498e-06 2.07458e-06 -4.81442e-05
0.00164483 -0.000101343 -8.1565e-07
-0.000101343 -9.77967e-05 -2.16542e-06
-8.1565e-07 -2.16542e-06 -0.000144127
0.000763998 3.24011e-05 -7.00699e-07
3.24011e-05 7.77825e-05 3.35082e-07
-7.00699e-07 3.35082e-07 -2.28555e-05
0.000810828 -4.05547e-05 -4.24803e-07
-4.05547e-05 0.000101119 -3.34026e-07
-4.24803e-07 -3.34026e-07 -3.85321e-07
0.00201017 -0.00025448 -7.79885e-08
-0.00025448 6.58395e-05 -1.26274e-06
-7.79885e-08 -1.26274e-06 4.15893e-05
0.0012845 -0.000285632 -9.93551e-09
-0.000285632 -9.95396e-05 1.90965e-06
-9.93551e-09 1.90965e-06 -0.000229461
0.00155133 -0.000267797 1.74317e-06
-0.000267797 0.00040957 -1.55913e-06
1.74317e-06 -1.55913e-06 0.000208541
0.000881931 -4.20985e-05 4.14263e-07
-4.20985e-05 0.000148632 -4.29084e-07
4.14263e-07 -4.29084e-07 3.26608e-05
0.000956004 -4.77416e-05 -1.30315e-07
-4.77416e-05 0.000243792 3.25953e-07
-1.30315e-07 3.25953e-07 3.83948e-05
0.00339972 -0.000181589 -1.1825e-05
-0.000181589 0.000984554 8.34217e-06
-1.1825e-05 8.34217e-06 0.000890008
0.00293117 -0.00034847 -1.59217e-05
-0.00034847 0.000614775 1.39558e-06
-1.59217e-05 1.39558e-06 0.000613692
-0.000152755 -0.00022251 -5.04394e-06
-0.00022251 -0.000670152 -1.49253e-06
-5.04394e-06 -1.49253e-06 -0.000813061
0.00102013 -0.000165261 -4.54336e-06
-0.000165261 0.000195342 6.515e-06
-4.54336e-06 6.515e-06 -2.05998e-05
0.000645494 -8.56143e-05 7.02811e-07
-8.56143e-05 7.0189e-06 -3.96727e-07
7.02811e-07 -3.96727e-07 -9.63962e-05
0.000818825 -4.2423e-05 1.0747e-06
-4.2423e-05 0.000109033 -4.7274e-07
1.0747e-06 -4.7274e-07 6.48946e-07
0.000814926 -1.64488e-05 -1.31454e-06
-1.64488e-05 0.000133968 3.82535e-07
-1.31454e-06 3.82535e-07 -1.17105e-05
-0.00379042 -2.37526e-05 0.000134975
-2.37526e-05 -0.00184663 1.56941e-06
0.000134975 1.56941e-06 -0.0015872
0.00884971 -7.77312e-05 -2.67712e-05
-7.77312e-05 0.00287785 5.03829e-07
-2.67712e-05 5.03829e-07 0.00228128
0.000856286 4.84999e-05 2.49965e-06
4.84999e-05 0.000137551 5.15872e-07
2.49965e-06 5.15872e-07 2.75855e-05
0.000728299 0.00013944 4.60261e-06
0.00013944 6.38277e-05 1.77563e-07
4.60261e-06 1.77563e-07 -8.78908e-05
0.00190327 0.000175992 1.2021e-05
0.000175992 9.42625e-05 8.6418e-06
1.2021e-05 8.6418e-06 0.000119375
0.00217394 0.000379936 6.02225e-06
0.000379936 0.000288612 2.64364e-06
6.02225e-06 2.64364e-06 0.000144772
0.00114308 0.000224414 7.23968e-06
0.000224414 0.000154773 1.41092e-06
7.23968e-06 1.41092e-06 -7.16109e-05
0.0062421 0.00027345 6.85777e-05
0.00027345 0.00143403 4.94241e-06
6.85777e-05 4.94241e-06 0.000434616
0.00594301 0.000366057 -9.91912e-05
0.000366057 0.00120397 -2.58634e-05
-9.91912e-05 -2.58634e-05 0.000548178
-0.000335597 0.000142521 3.39545e-06
0.000142521 -0.000795639 -2.02785e-05
3.39545e-06 -2.02785e-05 -0.000938113
0.00410473 -0.000644598 2.58047e-06
-0.000644598 0.00209081 2.42618e-05
2.58047e-06 2.42618e-05 0.00190573
-0.00467175 -0.000880984 -9.86755e-05
-0.000880984 -0.00317243 -9.92108e-05
-9.86755e-05 -9.92108e-05 -0.0013898
0.000950546 0.000118072 1.09535e-07
0.000118072 0.000204562 -9.41653e-07
1.09535e-07 -9.41653e-07 9.0756e-05
-0.00244642 -0.000233649 3.93426e-05
-0.000233649 -0.00143255 4.32896e-06
3.93426e-05 4.32896e-06 -0.00147986
-0.000901313 -0.000319553 -4.43265e-05
-0.000319553 0.00011843 -1.77489e-05
-4.43265e-05 -1.77489e-05 -0.000227674
0.00251127 0.000269367 -4.49746e-06
0.000269367 0.00044394 -2.34303e-06
-4.49746e-06 -2.34303e-06 0.000478428
0.000910245 0.00012453 -1.34515e-06
0.00012453 0.000183598 -5.35756e-07
-1.34515e-06 -5.35756e-07 1.14063e-05
0.000660329 0.00026393 3.04414e-06
0.00026393 -0.000146077 1.90933e-06
3.04414e-06 1.90933e-06 -0.00037709
0.000634083 0.000196141 1.04958e-05
0.000196141 -0.000254386 9.92941e-06
1.04958e-05 9.92941e-06 -0.000225899
0.0069415 3.94867e-05 -1.40874e-05
3.94867e-05 0.00201905 -1.12441e-05
-1.40874e-05 -1.12441e-05 0.000515814
0.00642043 0.000680057 -4.12298e-05
0.000680057 0.0016931 -1.79245e-05
-4.12298e-05 -1.79245e-05 0.000898664
0.00601014 -0.00090577 3.16654e-05
-0.00090577 0.00270222 -1.96136e-05
3.16654e-05 -1.96136e-05 0.00282141
0.0013172 -0.000552366 4.33977e-05
-0.000552366 -0.0018472 9.46375e-05
4.33977e-05 9.46375e-05 -0.000562125
0.00113535 7.9074e-05 -9.70095e-06
7.9074e-05 0.000327807 -7.2009e-06
-9.70095e-06 -7.2009e-06 0.000231603
-0.00275021 -5.61567e-05 -7.67419e-05
-5.61567e-05 -0.000161701 -2.38965e-05
-7.67419e-05 -2.38965e-05 -0.00108247
0.00206265 2.27252e-05 -7.71281e-05
2.27252e-05 0.000432107 -9.13213e-05
-7.71281e-05 -9.13213e-05 -0.000442907
9.25627e-05 0.000229548 -2.33512e-05
0.000229548 -0.000488615 1.68694e-06
-2.33512e-05 1.68694e-06 -0.000483875
0.0016468 0.000287756 -3.40407e-05
0.000287756 0.000638755 -9.54927e-06
-3.40407e-05 -9.54927e-06 0.000453347
0.00287197 0.000202503 -6.24165e-05
0.000202503 0.00118606 -1.34521e-06
-6.24165e-05 -1.34521e-06 0.00101226
0.00372643 0.000660853 -7.20819e-05
0.000660853 0.000454866 -1.78599e-06
-7.20819e-05 -1.78599e-06 7.39639e-05
-0.001247 0.000109241 7.2112e-05
0.000109241 -0.00105665 5.5726e-05
7.2112e-05 5.5726e-05 -0.00313222
0.0068901 -0.000842041 -3.6785e-05
-0.000842041 0.00178555 6.11202e-05
-3.6785e-05 6.11202e-05 0.00183513
0.00201603 -0.000326598 -9.65568e-06
-0.000326598 -0.002 -2.24991e-05
-9.65568e-06 -2.24991e-05 -0.000739483
0.000928986 3.75602e-05 1.94162e-06
3.75602e-05 0.000159253 3.15839e-06
1.94162e-06 3.15839e-06 7.04335e-05
0.00110807 6.79925e-05 2.66073e-06
6.79925e-05 0.00025175 2.03337e-06
2.66073e-06 2.03337e-06 0.000181497
0.000534178 5.58552e-05 -8.45127e-07
5.58552e-05 -6.17106e-05 -8.67756e-06
-8.45127e-07 -8.67756e-06 -0.000109757
0.000627072 4.2145e-05 5.61683e-07
4.2145e-05 -3.5315e-05 4.29398e-08
5.61683e-07 4.29398e-08 -0.000100436
0.000868247 3.78497e-05 -8.4614e-07
3.78497e-05 0.000110632 -3.24453e-07
-8.4614e-07 -3.24453e-07 2.59714e-05
0.000862626 -1.9293e-05 -4.51776e-07
-1.9293e-05 9.35289e-05 7.93524e-07
-4.51776e-07 7.93524e-07 1.58775e-05
0.000857704 -1.78126e-05 -3.60296e-07
-1.78126e-05 8.98155e-05 2.41247e-07
-3.60296e-07 2.41247e-07 1.25778e-05
0.000785886 -5.65399e-06 -4.99371e-07
-5.65399e-06 4.57188e-05 2.8353e-06
-4.99371e-07 2.8353e-06 -2.43806e-05
0.000861299 3.14478e-05 2.25223e-07
3.14478e-05 0.000104861 -5.37934e-07
2.25223e-07 -5.37934e-07 2.05933e-05
0.000907045 -6.47019e-06 -1.0033e-07
-6.47019e-06 0.000108873 3.90266e-07
-1.0033e-07 3.90266e-07 3.44891e-05
0.000888481 -3.28091e-05 6.87423e-09
-3.28091e-05 0.000107149 3.40073e-07
6.87423e-09 3.40073e-07 2.30416e-05
0.00059104 1.05914e-05 1.41021e-07
1.05914e-05 -6.13248e-05 -5.62665e-07
1.41021e-07 -5.62665e-07 -0.000125176
0.000693824 -1.37883e-05 1.54498e-06
-1.37883e-05 1.7311e-05 -5.34885e-06
1.54498e-06 -5.34885e-06 -3.48438e-05
0.000907528 -2.54273e-05 -2.085e-07
-2.54273e-05 0.000107807 -3.37235e-06
-2.085e-07 -3.37235e-06 3.14463e-05
0.000927377 2.34606e-06 2.07516e-07
2.34606e-06 0.000139094 -1.10683e-06
2.07516e-07 -1.10683e-06 4.58012e-05
0.000868206 -3.93939e-05 -7.36232e-09
-3.93939e-05 0.000111237 -1.79657e-07
-7.36232e-09 -1.79657e-07 2.73885e-05
0.000890818 1.01261e-05 -5.11263e-07
1.01261e-05 0.000109759 8.22713e-07
-5.11263e-07 8.22713e-07 3.43081e-05
0.00085719 -1.60656e-05 3.65355e-07
-1.60656e-05 9.73592e-05 -3.22475e-07
3.65355e-07 -3.22475e-07 1.13151e-05
0.000808238 4.23068e-05 -1.03692e-07
4.23068e-05 7.37497e-05 -4.08404e-09
-1.03692e-07 -4.08404e-09 -3.32958e-06
0.000779936 5.0169e-06 -2.32253e-07
5.0169e-06 4.61302e-05 3.70549e-07
-2.32253e-07 3.70549e-07 -2.5494e-05
0.000747147 5.74216e-05 1.03274e-06
5.74216e-05 4.68785e-05 -3.30767e-07
1.03274e-06 -3.30767e-07 -3.06254e-05
0.000687344 2.24381e-05 4.25462e-08
2.24381e-05 2.11165e-06 -2.10725e-06
4.25462e-08 -2.10725e-06 -8.00429e-05
0.000761258 1.8025e-05 1.2084e-06
1.8025e-05 4.24238e-05 -1.36869e-06
1.2084e-06 -1.36869e-06 -2.75002e-05
0.000825435 2.366e-05 2.8398e-06
2.366e-05 8.49789e-05 -1.48499e-06
2.8398e-06 -1.48499e-06 -1.9812e-06
0.000411445 -3.13644e-05 6.52352e-07
-3.13644e-05 -9.96841e-05 9.57819e-08
6.52352e-07 9.57819e-08 -0.000226905
0.000463184 3.61709e-05 6.01346e-07
3.61709e-05 -9.22474e-05 5.51874e-08
6.01346e-07 5.51874e-08 -0.00018279
0.000772505 4.42409e-05 4.59916e-07
4.42409e-05 6.81948e-05 5.09448e-07
4.59916e-07 5.09448e-07 -1.35543e-05
0.000732694 4.27428e-05 4.20808e-07
4.27428e-05 3.82393e-05 2.6959e-07
4.20808e-07 2.6959e-07 -3.26973e-05
0.000774773 1.00615e-05 -1.41522e-07
1.00615e-05 6.12044e-05 -2.18196e-08
-1.41522e-07 -2.18196e-08 -1.06574e-05
0.000732273 2.54556e-05 -6.24964e-07
2.54556e-05 2.22159e-05 2.66843e-07
-6.24964e-07 2.66843e-07 -3.51147e-05
0.000797542 8.78166e-06 3.94455e-07
8.78166e-06 7.19977e-05 4.46935e-07
3.94455e-07 4.46935e-07 -1.41433e-06
0.000766554 -8.20354e-06 -1.81414e-07
-8.20354e-06 4.05612e-05 2.77397e-09
-1.81414e-07 2.77397e-09 -1.81385e-05
0.000725306 2.42158e-05 -9.87983e-07
2.42158e-05 3.40572e-06 1.54956e-06
-9.87983e-07 1.54956e-06 -3.5139e-05
0.000679766 -2.57455e-05 8.14336e-07
-2.57455e-05 -1.03459e-05 -2.46891e-07
8.14336e-07 -2.46891e-07 -7.04079e-05
0.000728545 1.32252e-05 -7.90574e-08
1.32252e-05 4.12005e-06 -4.16538e-09
-7.90574e-08 -4.16538e-09 -3.41577e-05
0.00134704 2.37585e-05 -4.91638e-06
2.37585e-05 0.000344612 4.72426e-06
-4.91638e-06 4.72426e-06 0.000339355
0.000720473 8.15007e-07 7.34097e-07
8.15007e-07 3.52919e-07 -1.41034e-06
7.34097e-07 -1.41034e-06 -3.78568e-05
0.0010172 1.56112e-05 -2.34768e-06
1.56112e-05 0.00015539 6.99669e-07
-2.34768e-06 6.99669e-07 0.00014898
0.000850717 1.27741e-05 -5.22017e-07
1.27741e-05 6.31283e-05 1.71858e-06
-5.22017e-07 1.71858e-06 7.54018e-05
0.000676638 7.65511e-06 2.74672e-07
7.65511e-06 -3.92925e-05 -3.35409e-06
2.74672e-07 -3.35409e-06 -4.69352e-05
0.00220752 9.86811e-06 2.77136e-06
9.86811e-06 0.000827766 2.74083e-08
2.77136e-06 2.74083e-08 0.000847125
0.00220534 9.48086e-07 4.64862e-07
9.48086e-07 0.000825788 -4.65569e-06
4.64862e-07 -4.65569e-06 0.000845344
0.00104899 5.22126e-05 -1.22264e-06
5.22126e-05 0.000209749 -8.53283e-07
-1.22264e-06 -8.53283e-07 0.00014998
0.000742242 2.45792e-06 -4.26631e-07
2.45792e-06 1.40353e-05 -1.84866e-06
-4.26631e-07 -1.84866e-06 -1.89791e-05
0.0007514 3.39886e-06 6.37315e-07
3.39886e-06 4.76802e-05 6.30999e-07
6.37315e-07 6.30999e-07 -1.36726e-05
0.000688721 -2.16611e-07 -1.53248e-07
-2.16611e-07 -3.40304e-05 -3.44885e-06
-1.53248e-07 -3.44885e-06 -3.77127e-05
0.000732029 1.21089e-06 2.50142e-07
1.21089e-06 8.80913e-06 -1.63244e-08
2.50142e-07 -1.63244e-08 -2.34343e-05
0.000729389 -5.02145e-07 -4.088e-07
-5.02145e-07 7.81728e-06 1.77649e-06
-4.088e-07 1.77649e-06 -2.49384e-05
0.000690777 6.42618e-06 -1.46803e-07
6.42618e-06 -3.21595e-05 8.88192e-10
-1.46803e-07 8.88192e-10 -3.62479e-05
0.00207513 8.89043e-06 4.03341e-06
8.89043e-06 0.000753217 -4.56974e-06
4.03341e-06 -4.56974e-06 0.000774078
0.00127978 1.7269e-05 -6.45235e-07
1.7269e-05 0.000302105 2.0814e-06
-6.45235e-07 2.0814e-06 0.000300187
0.00148429 1.65175e-05 2.17905e-06
1.65175e-05 0.000421768 6.75101e-08
2.17905e-06 6.75101e-08 0.000438509
0.00094271 1.97436e-05 -1.47848e-05
1.97436e-05 0.000120086 7.15035e-06
-1.47848e-05 7.15035e-06 0.000132362
-0.0062171 0.000135969 8.35632e-05
0.000135969 -0.00300206 -1.76519e-06
8.35632e-05 -1.76519e-06 -0.00328083
-0.00149559 0.00021432 5.22754e-05
0.00021432 -3.10123e-05 2.1605e-05
5.22754e-05 2.1605e-05 -0.00036327
0.00359877 4.45973e-05 -0.000149777
4.45973e-05 0.000719379 2.87956e-06
-0.000149777 2.87956e-06 0.000383702
0.00161778 1.95681e-06 3.01718e-05
1.95681e-06 -8.2205e-05 3.96299e-06
3.01718e-05 3.96299e-06 -0.000117967
0.0015335 -2.12664e-05 9.24526e-06
-2.12664e-05 -0.0001856 9.39699e-07
9.24526e-06 9.39699e-07 -0.000218647
0.00101011 8.96533e-06 2.38195e-05
8.96533e-06 -0.000431318 -1.23875e-06
2.38195e-05 -1.23875e-06 -0.000578255
0.00216869 -4.64093e-05 8.10499e-07
-4.64093e-05 0.000169345 1.3768e-06
8.10499e-07 1.3768e-06 0.00012599
0.00642514 0.000185275 -5.50652e-06
0.000185275 0.00153636 -1.96668e-05
-5.50652e-06 -1.96668e-05 0.000688911
-0.00342468 0.00035246 -2.67659e-05
0.00035246 -0.00131211 -1.12778e-06
-2.67659e-05 -1.12778e-06 -0.00164367
-0.00132398 0.000819343 -2.50094e-05
0.000819343 -0.00116375 9.42507e-06
-2.50094e-05 9.42507e-06 0.000287911
0.00196128 -0.000131611 6.10678e-05
-0.000131611 -5.90741e-06 1.11586e-05
6.10678e-05 1.11586e-05 -0.000265929
0.00723121 0.000195731 2.55434e-05
0.000195731 0.00224922 -7.04079e-06
2.55434e-05 -7.04079e-06 0.00102534
0.000124681 0.000663098 1.22591e-05
0.000663098 -0.000542236 -6.05422e-05
1.22591e-05 -6.05422e-05 2.15503e-05
0.0040026 0.000600044 -7.48047e-05
0.000600044 -4.61402e-05 5.63631e-05
-7.48047e-05 5.63631e-05 0.00085425
0.000764866 5.85757e-05 -6.85693e-07
5.85757e-05 7.31853e-05 -3.11419e-07
-6.85693e-07 -3.11419e-07 -2.42415e-05
0.000666892 7.60109e-06 -2.15567e-07
7.60109e-06 4.93204e-06 -4.91669e-07
-2.15567e-07 -4.91669e-07 -6.84147e-05
0.000760421 -6.43416e-05 -8.35015e-07
-6.43416e-05 5.38581e-05 1.1451e-06
-8.35015e-07 1.1451e-06 -7.6117e-06
0.000672707 -8.15465e-07 1.70817e-07
-8.15465e-07 1.5669e-05 7.19047e-07
1.70817e-07 7.19047e-07 -6.44333e-05
0.000779039 5.39765e-05 8.32241e-07
5.39765e-05 8.64786e-05 1.13189e-06
8.32241e-07 1.13189e-06 -6.40072e-06
0.000883234 5.45746e-05 -5.08342e-07
5.45746e-05 0.000131576 1.23202e-07
-5.08342e-07 1.23202e-07 3.7985e-05
0.0008375 6.84529e-05 1.5218e-06
6.84529e-05 0.000107077 1.3138e-06
1.5218e-06 1.3138e-06 1.72379e-05
0.000751142 -9.93145e-06 9.18982e-07
-9.93145e-06 4.88536e-05 -3.23941e-08
9.18982e-07 -3.23941e-08 -3.15743e-05
0.000743786 -2.06776e-05 4.05113e-07
-2.06776e-05 5.36026e-05 -7.29585e-07
4.05113e-07 -7.29585e-07 -2.71033e-05
0.000654494 -1.45294e-05 -4.27738e-09
-1.45294e-05 -2.22178e-06 1.0247e-06
-4.27738e-09 1.0247e-06 -7.56627e-05
0.000767695 -9.78258e-05 4.83775e-06
-9.78258e-05 -0.000583387 -4.14761e-06
4.83775e-06 -4.14761e-06 -0.00062437
0.00171687 -0.000247401 8.28091e-06
-0.000247401 -6.40037e-05 2.51299e-07
8.28091e-06 2.51299e-07 -0.000104264
0.00013724 -0.000219923 7.28625e-06
-0.000219923 -0.000692224 3.37069e-06
7.28625e-06 3.37069e-06 -0.000804402
0.00164428 -0.000275312 2.22225e-06
-0.000275312 0.000455557 4.4068e-07
2.22225e-06 4.4068e-07 0.00024215
0.00132578 -8.49527e-05 1.04873e-06
-8.49527e-05 0.000432894 -7.39575e-07
1.04873e-06 -7.39575e-07 0.000235932
0.00107675 -5.70012e-05 -4.99126e-07
-5.70012e-05 0.000259232 -9.9467e-08
-4.99126e-07 -9.9467e-08 0.000137511
0.000894747 -3.16814e-05 -8.1847e-07
-3.16814e-05 0.000142394 1.04704e-07
-8.1847e-07 1.04704e-07 4.54588e-05
0.000781076 3.97966e-05 -1.08438e-06
3.97966e-05 8.69045e-05 7.23536e-07
-1.08438e-06 7.23536e-07 -1.1295e-05
0.00176952 -0.000150954 -2.87712e-06
-0.000150954 9.38019e-05 1.56679e-06
-2.87712e-06 1.56679e-06 2.34679e-05
0.000686292 -3.53454e-05 -4.79983e-08
-3.53454e-05 3.20384e-05 8.17186e-08
-4.79983e-08 8.17186e-08 -7.31513e-05
0.000784722 -3.92489e-05 4.57955e-07
-3.92489e-05 8.93424e-05 -3.85614e-07
4.57955e-07 -3.85614e-07 -2.01773e-05
0.00191505 -0.00030473 4.27963e-06
-0.00030473 9.68839e-05 -2.21929e-06
4.27963e-06 -2.21929e-06 8.88538e-05
0.000249735 -0.000243279 1.56056e-06
-0.000243279 -0.000440501 1.35817e-06
1.56056e-06 1.35817e-06 -0.000581581
0.00110457 -0.000168339 3.25625e-06
-0.000168339 0.000231871 -1.72797e-06
3.25625e-06 -1.72797e-06 1.84557e-05
0.00103057 -4.85962e-05 -5.14928e-07
-4.85962e-05 0.000254142 -8.16738e-07
-5.14928e-07 -8.16738e-07 9.82854e-05
0.00139063 -0.000222649 -3.33981e-07
-0.000222649 0.000205465 -4.82942e-06
-3.33981e-07 -4.82942e-06 -1.69604e-05
0.00160421 -0.000260021 -1.85667e-05
-0.000260021 0.00026936 3.31017e-06
-1.85667e-05 3.31017e-06 0.000205892
0.000322239 -3.98511e-05 -1.28351e-05
-3.98511e-05 -0.000102066 1.57451e-05
-1.28351e-05 1.57451e-05 -0.000295432
0.00074603 3.27894e-05 5.41625e-07
3.27894e-05 5.83591e-05 8.45262e-07
5.41625e-07 8.45262e-07 -4.36803e-05
0.000621002 -8.04125e-05 9.1327e-07
-8.04125e-05 -4.53461e-06 8.73594e-08
9.1327e-07 8.73594e-08 -0.00011568
0.000849978 -2.91339e-05 6.67689e-07
-2.91339e-05 0.000115552 1.56413e-06
6.67689e-07 1.56413e-06 3.98469e-06
0.000855047 2.66241e-05 -9.65314e-05
2.66241e-05 0.00173763 -1.46725e-06
-9.65314e-05 -1.46725e-06 0.00117153
0.00195258 -0.000125487 1.39861e-05
-0.000125487 0.00131351 7.6507e-06
1.39861e-05 7.6507e-06 0.00115951
-1.99353e-05 0.000303511 -5.80745e-05
0.000303511 -0.00201983 2.20649e-05
-5.80745e-05 2.20649e-05 -0.00259608
0.000800345 0.000106482 4.23263e-06
0.000106482 0.000126052 2.33775e-06
4.23263e-06 2.33775e-06 1.47778e-05
0.000706001 0.000139083 7.80466e-06
0.000139083 9.10973e-05 3.63093e-06
7.80466e-06 3.63093e-06 -8.35913e-05
0.00258276 0.000253889 1.31645e-05
0.000253889 0.000460561 4.76077e-06
1.31645e-05 4.76077e-06 0.000504205
0.00055187 0.000196162 1.31335e-05
0.000196162 -0.000171711 6.09282e-06
1.31335e-05 6.09282e-06 -0.000396961
0.0044771 -0.000357087 4.14051e-05
-0.000357087 0.00191019 2.00239e-05
4.14051e-05 2.00239e-05 0.00197116
-0.000736042 -0.000112095 -4.11598e-05
-0.000112095 -0.00174815 2.70794e-06
-4.11598e-05 2.70794e-06 -0.00304183
0.0033681 0.000579376 -7.87748e-05
0.000579376 -0.000100886 -3.74209e-05
-7.87748e-05 -3.74209e-05 -0.000939476
0.000501844 0.000113909 2.69542e-05
0.000113909 -0.000241494 -1.683e-05
2.69542e-05 -1.683e-05 -0.000204091
-0.00368541 -0.000409828 5.74916e-07
-0.000409828 -0.0015644 -1.43583e-05
5.74916e-07 -1.43583e-05 -0.00164449
0.000683902 -0.000369329 1.69231e-05
-0.000369329 0.00056108 2.3695e-05
1.69231e-05 2.3695e-05 0.000218436
0.00507149 -0.000694505 8.56473e-05
-0.000694505 0.0001468 7.03002e-05
8.56473e-05 7.03002e-05 0.0015124
0.000793866 7.80301e-05 2.19809e-06
7.80301e-05 0.000151078 -1.79622e-06
2.19809e-06 -1.79622e-06 5.00168e-05
-0.000459515 -0.000113694 -3.41436e-05
-0.000113694 0.000768278 -1.17624e-05
-3.41436e-05 -1.17624e-05 9.38281e-05
0.00231067 3.112e-05 -3.26338e-06
3.112e-05 0.000562675 -2.09537e-05
-3.26338e-06 -2.09537e-05 -0.00034381
0.000739895 0.000198512 -7.71494e-06
0.000198512 -9.95822e-05 3.04527e-06
-7.71494e-06 3.04527e-06 -0.000147191
0.000702638 0.000150912 -3.50008e-07
0.000150912 0.000169289 1.11259e-06
-3.50008e-07 1.11259e-06 -2.23172e-05
0.000329657 0.000160034 3.24144e-05
0.000160034 -0.000126259 -2.07792e-05
3.24144e-05 -2.07792e-05 -0.000247884
0.00555999 0.000849351 -1.88396e-05
0.000849351 0.00148747 3.06475e-07
-1.88396e-05 3.06475e-07 0.000748188
0.00890915 -0.000137974 4.13766e-05
-0.000137974 0.00341562 1.14201e-05
4.13766e-05 1.14201e-05 0.00182801
0.0018768 -0.000531916 2.17163e-06
-0.000531916 -0.00101941 -9.0959e-06
2.17163e-06 -9.0959e-06 -0.000771118
0.0059627 -0.000440947 5.53828e-06
-0.000440947 0.00058772 -1.08562e-05
5.53828e-06 -1.08562e-05 0.00176611
0.000638785 0.00010122 -1.2841e-05
0.00010122 0.000117554 -1.01736e-05
-1.2841e-05 -1.01736e-05 4.27144e-05
0.001856 -4.68892e-05 -6.68332e-05
-4.68892e-05 0.000309508 -2.96289e-05
-6.68332e-05 -2.96289e-05 -0.000302548
0.00127962 2.40959e-05 -1.5925e-05
2.40959e-05 0.00022395 -5.25565e-05
-1.5925e-05 -5.25565e-05 -0.000538422
-0.000954709 -4.02105e-06 -2.42897e-05
-4.02105e-06 -0.000528097 -1.5326e-05
-2.42897e-05 -1.5326e-05 -0.000645039
0.00252469 0.000336285 -1.22512e-06
0.000336285 0.00060192 5.55267e-05
-1.22512e-06 5.55267e-05 0.000103936
0.00830651 7.53501e-05 2.15809e-05
7.53501e-05 0.00309776 4.54608e-06
2.15809e-05 4.54608e-06 0.00118495
-0.00627546 -0.000531614 -5.36869e-05
-0.000531614 -0.00406428 1.81167e-05
-5.36869e-05 1.81167e-05 -0.00498307
0.00501206 0.00012357 -2.48906e-06
0.00012357 -0.000458343 -7.64477e-05
-2.48906e-06 -7.64477e-05 0.000929836
0.00102127 6.43898e-05 2.6065e-06
6.43898e-05 0.000203326 5.97578e-06
2.6065e-06 5.97578e-06 0.000131784
0.000890677 7.83132e-05 -3.50331e-06
7.83132e-05 0.00013614 -6.7343e-07
-3.50331e-06 -6.7343e-07 8.676e-05
0.00101666 6.48161e-05 -2.4865e-06
6.48161e-05 0.000230048 -5.99849e-06
-2.4865e-06 -5.99849e-06 0.000190983
0.00087207 6.75057e-05 -1.499e-06
6.75057e-05 0.000104181 -4.3502e-07
-1.499e-06 -4.3502e-07 2.4236e-05
0.000917355 -3.05124e-05 -2.68781e-07
-3.05124e-05 0.000129002 1.37653e-06
-2.68781e-07 1.37653e-06 4.09596e-05
0.000934455 2.76804e-06 -5.50762e-07
2.76804e-06 0.000124671 1.81522e-06
-5.50762e-07 1.81522e-06 4.98472e-05
0.000500598 -3.41746e-07 -3.684e-07
-3.41746e-07 -0.000105075 4.08063e-06
-3.684e-07 4.08063e-06 -0.000167019
0.000886466 7.30847e-06 5.45171e-07
7.30847e-06 0.000106671 3.6101e-08
5.45171e-07 3.6101e-08 2.05571e-05
0.00086989 -8.28924e-06 -2.10852e-07
-8.28924e-06 8.82238e-05 -2.1784e-07
-2.10852e-07 -2.1784e-07 1.13458e-05
0.000598829 -1.19893e-05 1.63676e-07
-1.19893e-05 -3.12382e-05 1.06084e-06
1.63676e-07 1.06084e-06 -8.34647e-05
0.000530534 -2.04965e-05 -5.62584e-07
-2.04965e-05 -1.10111e-05 -4.75788e-06
-5.62584e-07 -4.75788e-06 -4.57116e-05
0.000988377 -2.47491e-05 3.39371e-06
-2.47491e-05 0.000170052 -6.32692e-06
3.39371e-06 -6.32692e-06 0.000111146
0.000821736 3.48344e-05 5.21548e-07
3.48344e-05 7.06948e-05 -2.33985e-06
5.21548e-07 -2.33985e-06 -1.4105e-05
0.000875038 -5.13165e-05 8.65751e-07
-5.13165e-05 0.000100354 6.86069e-07
8.65751e-07 6.86069e-07 1.84782e-05
0.000790656 4.59566e-05 -4.18288e-07
4.59566e-05 6.26095e-05 6.58968e-07
-4.18288e-07 6.58968e-07 -1.37778e-05
0.00084115 -1.82339e-06 -9.56083e-07
-1.82339e-06 8.06738e-05 1.79993e-06
-9.56083e-07 1.79993e-06 9.39799e-06
0.000741137 1.57674e-05 3.22785e-07
1.57674e-05 2.68839e-05 3.24253e-07
3.22785e-07 3.24253e-07 -5.15013e-05
0.000775802 5.25396e-05 2.59584e-07
5.25396e-05 6.2651e-05 2.30949e-07
2.59584e-07 2.30949e-07 -1.51014e-05
0.000830411 3.1706e-05 -3.0154e-07
3.1706e-05 8.09034e-05 1.43128e-07
-3.0154e-07 1.43128e-07 1.01792e-05
0.000882607 3.98078e-05 1.82933e-06
3.98078e-05 0.000113609 -1.30163e-06
1.82933e-06 -1.30163e-06 3.85761e-05
0.000681632 1.32919e-05 1.83087e-06
1.32919e-05 9.73754e-06 -2.51148e-06
1.83087e-06 -2.51148e-06 -5.52056e-05
0.000678327 -6.26601e-05 1.69103e-06
-6.26601e-05 4.48302e-06 -6.32421e-07
1.69103e-06 -6.32421e-07 -8.59578e-05
0.000900019 7.49518e-06 -9.47798e-07
7.49518e-06 0.000129191 -2.06053e-07
-9.47798e-07 -2.06053e-07 4.06624e-05
0.000621679 -4.45476e-05 2.1431e-06
-4.45476e-05 8.50933e-06 1.52492e-06
2.1431e-06 1.52492e-06 -0.000108717
0.00100019 -0.000150614 -9.34311e-07
-0.000150614 0.000196867 3.54158e-06
-9.34311e-07 3.54158e-06 3.59794e-05
0.00114511 -3.90093e-05 1.3358e-06
-3.90093e-05 0.000289722 -6.35022e-07
1.3358e-06 -6.35022e-07 0.00018449
0.000557518 -4.89682e-05 -3.93769e-07
-4.89682e-05 -1.39611e-05 -2.72376e-06
-3.93769e-07 -2.72376e-06 -0.000139594
0.000738507 3.51352e-05 -6.00507e-07
3.51352e-05 5.72368e-05 -5.93525e-07
-6.00507e-07 -5.93525e-07 -3.13346e-05
0.000514652 3.65779e-05 1.04302e-06
3.65779e-05 -7.67532e-05 6.33995e-07
1.04302e-06 6.33995e-07 -0.000154576
0.000832977 3.11708e-05 -6.45487e-07
3.11708e-05 0.000100067 2.49143e-07
-6.45487e-07 2.49143e-07 1.89253e-05
0.000786525 8.91882e-06 -4.01883e-07
8.91882e-06 6.99034e-05 3.61218e-07
-4.01883e-07 3.61218e-07 -3.06753e-06
0.000727202 3.1789e-05 -7.05599e-07
3.1789e-05 2.07958e-05 3.73487e-07
-7.05599e-07 3.73487e-07 -3.66243e-05
0.000816024 -1.78605e-05 3.8728e-07
-1.78605e-05 8.97248e-05 2.48996e-07
3.8728e-07 2.48996e-07 1.3498e-05
0.000762571 -6.90903e-06 -3.87987e-07
-6.90903e-06 4.05665e-05 4.19456e-08
-3.87987e-07 4.19456e-08 -1.81396e-05
0.000722754 3.05733e-05 -1.27246e-06
3.05733e-05 4.91503e-06 1.52407e-06
-1.27246e-06 1.52407e-06 -3.41256e-05
0.000795214 -3.387e-05 1.19829e-06
-3.387e-05 5.87404e-05 -2.90824e-07
1.19829e-06 -2.90824e-07 -1.54944e-06
0.000735361 1.82651e-05 -1.69072e-07
1.82651e-05 8.32245e-06 -8.70727e-10
-1.69072e-07 -8.70727e-10 -2.99456e-05
0.00133631 3.18724e-05 -6.83957e-06
3.18724e-05 0.000342425 4.67602e-06
-6.83957e-06 4.67602e-06 0.000336534
0.000728767 6.44164e-06 1.14958e-06
6.44164e-06 3.76914e-06 -1.43088e-06
1.14958e-06 -1.43088e-06 -3.43024e-05
0.0010111 2.28798e-05 -3.16615e-06
2.28798e-05 0.00015494 6.6707e-07
-3.16615e-06 6.6707e-07 0.000148047
0.00084917 1.96903e-05 -9.98634e-07
1.96903e-05 6.66127e-05 1.72555e-06
-9.98634e-07 1.72555e-06 7.80618e-05
0.000667426 1.39345e-05 4.18491e-07
1.39345e-05 -4.25683e-05 -3.37358e-06
4.18491e-07 -3.37358e-06 -5.05678e-05
0.00153083 1.75869e-05 4.9821e-06
1.75869e-05 0.00044737 -1.37439e-06
4.9821e-06 -1.37439e-06 0.000462936
0.00221809 1.14408e-05 4.79927e-06
1.14408e-05 0.00083411 -4.58482e-06
4.79927e-06 -4.58482e-06 0.000853334
0.000822168 -1.61786e-05 5.82077e-07
-1.61786e-05 7.76342e-05 -7.26315e-07
5.82077e-07 -7.26315e-07 1.68029e-05
0.000747252 -3.16011e-06 -2.19644e-07
-3.16011e-06 1.66924e-05 -1.86885e-06
-2.19644e-07 -1.86885e-06 -1.76118e-05
0.000811886 -2.66965e-06 4.54693e-07
-2.66965e-06 7.64744e-05 1.42786e-07
4.54693e-07 1.42786e-07 1.65028e-05
0.000690933 -6.57365e-06 -3.04332e-07
-6.57365e-06 -3.23572e-05 -3.46449e-06
-3.04332e-07 -3.46449e-06 -3.64195e-05
0.000734876 -4.28968e-07 -1.02117e-08
-4.28968e-07 9.96832e-06 -2.39365e-08
-1.02117e-08 -2.39365e-08 -2.29609e-05
0.00074801 -4.96706e-05 -1.91232e-06
-4.96706e-05 4.14655e-05 1.65733e-06
-1.91232e-06 1.65733e-06 -1.67142e-05
0.00207311 -1.09003e-06 -2.91871e-07
-1.09003e-06 0.000751487 -4.58097e-06
-2.91871e-07 -4.58097e-06 0.000772536
0.000691245 3.29114e-08 -1.04424e-07
3.29114e-08 -3.26371e-05 -2.12062e-09
-1.04424e-07 -2.12062e-09 -3.63173e-05
0.000725729 -3.95179e-06 -1.09154e-07
-3.95179e-06 5.17831e-06 1.75956e-06
-1.09154e-07 1.75956e-06 -2.70133e-05
0.000693712 6.67673e-06 -2.48839e-08
6.67673e-06 -3.06044e-05 3.44394e-06
-2.48839e-08 3.44394e-06 -3.47159e-05
0.00207909 9.78308e-06 -2.86228e-06
9.78308e-06 0.000755653 -2.74605e-08
-2.86228e-06 -2.74605e-08 0.000776445
0.00210437 1.91958e-05 -1.11199e-05
1.91958e-05 0.000772065 4.43682e-06
-1.11199e-05 4.43682e-06 0.000792161
-0.00203245 1.42502e-05 -4.29153e-05
1.42502e-05 8.00851e-05 9.54347e-06
-4.29153e-05 9.54347e-06 -0.000696806
-0.00107241 0.000283084 -1.25037e-05
0.000283084 -0.000415913 5.33868e-06
-1.25037e-05 5.33868e-06 -0.000630055
0.0024541 -8.87322e-06 -9.77539e-05
-8.87322e-06 0.000394938 7.67354e-05
-9.77539e-05 7.67354e-05 -0.00040169
-0.00201025 0.000246132 0.000100867
0.000246132 -5.8148e-05 -4.25401e-05
0.000100867 -4.25401e-05 -0.000294208
0.00276897 0.000123759 -9.80149e-05
0.000123759 0.000344324 1.59615e-05
-9.80149e-05 1.59615e-05 6.69213e-05
0.00196516 -6.7564e-05 6.40418e-05
-6.7564e-05 6.17722e-05 -1.04131e-05
6.40418e-05 -1.04131e-05 1.34591e-05
0.00175978 -0.000331996 -9.08339e-05
-0.000331996 -0.000811285 -3.84462e-05
-9.08339e-05 -3.84462e-05 -0.00156364
0.0076698 0.000505062 2.82938e-05
0.000505062 0.00380653 -1.6959e-05
2.82938e-05 -1.6959e-05 0.00373045
-0.00487104 0.000891338 -0.000100457
0.000891338 -0.00333936 0.000103757
-0.000100457 0.000103757 -0.00141963
0.00162417 -1.6797e-05 -5.46522e-06
-1.6797e-05 -0.000314428 -5.52375e-06
-5.46522e-06 -5.52375e-06 -0.000559187
0.00316681 7.6351e-05 1.95818e-05
7.6351e-05 0.000332596 -2.58573e-05
1.95818e-05 -2.58573e-05 -0.0013599
0.00639621 0.000951677 -2.16872e-05
0.000951677 0.0020948 -2.71298e-05
-2.16872e-05 -2.71298e-05 0.00265303
0.0017569 0.000579385 -2.17087e-05
0.000579385 -0.00138455 4.6667e-05
-2.17087e-05 4.6667e-05 -0.000407345
0.00301026 -0.000269889 -3.88757e-05
-0.000269889 0.000226982 1.30922e-05
-3.88757e-05 1.30922e-05 -0.000217811
0.00367439 -6.3893e-05 0.000104093
-6.3893e-05 0.00116289 -6.96316e-05
0.000104093 -6.96316e-05 -0.000970961
-0.00536346 0.000284966 -6.64279e-05
0.000284966 -0.00437516 -8.0509e-05
-6.64279e-05 -8.0509e-05 -0.00408124
0.00136597 0.00036003 -2.38265e-05
0.00036003 -0.00263645 1.58229e-05
-2.38265e-05 1.58229e-05 -0.00140607
0.000846504 -1.67734e-05 1.03323e-06
-1.67734e-05 0.000115643 2.91812e-07
1.03323e-06 2.91812e-07 1.38598e-05
0.000826605 4.66809e-05 -1.69809e-06
4.66809e-05 0.000106945 -5.36255e-07
-1.69809e-06 -5.36255e-07 1.18657e-05
0.000782498 2.92819e-05 5.73106e-07
2.92819e-05 7.00326e-05 -5.55655e-08
5.73106e-07 -5.55655e-08 -2.49427e-06
0.000809062 6.07581e-05 1.91837e-06
6.07581e-05 0.000103898 1.62292e-06
1.91837e-06 1.62292e-06 1.1742e-05
0.000750771 2.28805e-05 -2.43107e-07
2.28805e-05 5.71856e-05 5.42291e-07
-2.43107e-07 5.42291e-07 -4.3898e-05
0.000904886 5.66544e-05 2.33872e-07
5.66544e-05 0.00014526 6.59947e-07
2.33872e-07 6.59947e-07 5.13687e-05
0.000774074 1.03659e-05 -2.05575e-07
1.03659e-05 6.84596e-05 1.87101e-06
-2.05575e-07 1.87101e-06 -1.88143e-05
0.000901881 8.44411e-05 -4.35573e-07
8.44411e-05 0.000145081 3.43636e-07
-4.35573e-07 3.43636e-07 5.25587e-05
0.000874857 4.28801e-05 -2.06672e-07
4.28801e-05 0.000129644 3.79695e-07
-2.06672e-07 3.79695e-07 4.13442e-05
0.000681538 -1.22788e-05 -1.10813e-06
-1.22788e-05 2.1412e-05 -2.00248e-09
-1.10813e-06 -2.00248e-09 -6.20961e-05
0.000121541 -0.000117314 1.71997e-05
-0.000117314 -0.000791788 -1.11789e-05
1.71997e-05 -1.11789e-05 -0.000831609
0.00106631 -0.000276371 1.47885e-05
-0.000276371 -0.000333804 -4.70461e-07
1.47885e-05 -4.70461e-07 -0.000356679
0.00091588 -0.00028099 1.02461e-05
-0.00028099 -7.44554e-05 9.76074e-07
1.02461e-05 9.76074e-07 -0.000215922
0.00120937 -0.000171961 7.11262e-06
-0.000171961 0.000279189 -5.47983e-06
7.11262e-06 -5.47983e-06 6.41159e-05
0.00121012 -5.46892e-05 7.6455e-07
-5.46892e-05 0.000356074 -4.73653e-07
7.6455e-07 -4.73653e-07 0.000191255
0.000736288 -4.88678e-05 -6.51301e-07
-4.88678e-05 6.66437e-05 -4.42594e-07
-6.51301e-07 -4.42594e-07 -4.74914e-05
0.000765325 5.81156e-05 -6.28439e-08
5.81156e-05 7.81265e-05 -1.26945e-07
-6.28439e-08 -1.26945e-07 -3.01322e-05
0.000781784 -3.71619e-05 -1.55036e-07
-3.71619e-05 8.29923e-05 6.05197e-07
-1.55036e-07 6.05197e-07 -2.15036e-05
0.00121119 -0.00018464 1.02712e-06
-0.00018464 8.25588e-05 -3.57047e-07
1.02712e-06 -3.57047e-07 -6.4389e-05
0.000841508 4.82597e-06 -4.80106e-07
4.82597e-06 0.000122021 -4.15957e-07
-4.80106e-07 -4.15957e-07 6.77566e-06
0.00102392 -4.61432e-05 2.2949e-07
-4.61432e-05 0.000218404 7.26167e-08
2.2949e-07 7.26167e-08 9.9004e-05
0.00134653 -0.000246995 -1.60913e-06
-0.000246995 0.000119737 -1.46601e-07
-1.60913e-06 -1.46601e-07 7.14945e-05
0.000991201 -6.46738e-05 -5.64302e-06
-6.46738e-05 0.000227179 2.70546e-06
-5.64302e-06 2.70546e-06 4.44926e-05
-0.000708224 -0.000213411 -3.45615e-06
-0.000213411 -0.000961103 -1.24775e-05
-3.45615e-06 -1.24775e-05 -0.000976621
0.00113338 -9.78381e-05 -1.52716e-05
-9.78381e-05 0.000349255 1.30914e-05
-1.52716e-05 1.30914e-05 0.000239739
0.000317122 1.01806e-05 -2.24732e-06
1.01806e-05 -0.00017895 1.19299e-05
-2.24732e-06 1.19299e-05 -0.000288996
0.000812399 -2.22302e-06 3.17429e-07
-2.22302e-06 8.36644e-05 2.66497e-07
3.17429e-07 2.66497e-07 -1.68977e-05
0.000753666 1.89214e-05 -2.71535e-07
1.89214e-05 6.202e-05 9.31198e-07
-2.71535e-07 9.31198e-07 -5.9138e-05
0.00131635 -6.52575e-06 -3.14411e-05
-6.52575e-06 0.000101718 -4.51066e-06
-3.14411e-05 -4.51066e-06 -0.000398589
-0.000653074 -2.0877e-06 -4.86816e-05
-2.0877e-06 0.00099831 -1.61838e-06
-4.86816e-05 -1.61838e-06 0.000284858
-0.00663853 -0.00014945 -0.000144474
-0.00014945 -0.00332733 2.46478e-06
-0.000144474 2.46478e-06 -0.0033338
0.0004948 8.5937e-05 8.19092e-06
8.5937e-05 7.31939e-08 2.20242e-06
8.19092e-06 2.20242e-06 -0.000108561
-0.00032679 3.38862e-05 8.34238e-06
3.38862e-05 -0.000354823 3.24818e-06
8.34238e-06 3.24818e-06 -0.000554486
0.00127254 0.000162468 1.76501e-05
0.000162468 0.000206062 -5.17091e-07
1.76501e-05 -5.17091e-07 0.000136237
-0.00192179 -7.88385e-07 1.07115e-05
-7.88385e-07 8.15396e-05 7.91195e-06
1.07115e-05 7.91195e-06 -0.000726634
0.00285948 -7.28661e-05 -3.31266e-05
-7.28661e-05 0.000842799 -3.07613e-05
-3.31266e-05 -3.07613e-05 -0.00134412
0.00382079 0.000708013 5.28241e-05
0.000708013 0.000392942 -8.15994e-06
5.28241e-05 -8.15994e-06 -0.000143256
0.000647165 0.000180691 9.33963e-06
0.000180691 5.72255e-05 -5.13397e-06
9.33963e-06 -5.13397e-06 4.96657e-05
0.00737848 -0.000718884 2.89545e-05
-0.000718884 0.00216585 -5.20494e-06
2.89545e-05 -5.20494e-06 0.00221351
0.00256789 2.75158e-05 6.59691e-05
2.75158e-05 0.000752542 4.92083e-05
6.59691e-05 4.92083e-05 -0.000184686
0.00572006 -0.000391169 2.64971e-05
-0.000391169 0.000725875 1.26769e-05
2.64971e-05 1.26769e-05 0.00194392
0.000863785 0.000115749 -9.34043e-07
0.000115749 0.000252168 -2.25628e-06
-9.34043e-07 -2.25628e-06 0.000173805
0.00186868 -4.09084e-05 4.4535e-06
-4.09084e-05 0.000410528 -7.85361e-06
4.4535e-06 -7.85361e-06 -0.000140736
0.00151696 3.43771e-05 4.72328e-06
3.43771e-05 0.000226353 9.25965e-06
4.72328e-06 9.25965e-06 -0.000551054
0.00012915 0.000111445 -5.33171e-06
0.000111445 2.7261e-05 -5.091e-07
-5.33171e-06 -5.091e-07 -0.000109107
0.00279338 0.000432739 -3.77234e-05
0.000432739 0.000533337 -3.27726e-05
-3.77234e-05 -3.27726e-05 0.000103439
0.00301141 0.000525628 4.45164e-05
0.000525628 0.000516349 2.77691e-05
4.45164e-05 2.77691e-05 -0.00167865
0.00378218 4.54378e-05 -2.64572e-06
4.54378e-05 -0.00159638 -4.18009e-05
-2.64572e-06 -4.18009e-05 8.3837e-05
0.000689225 -0.000303742 -1.44927e-05
-0.000303742 -0.000521262 6.79306e-06
-1.44927e-05 6.79306e-06 -0.000930449
0.000798736 5.45383e-05 -2.93708e-06
5.45383e-05 0.000309185 -1.03977e-05
-2.93708e-06 -1.03977e-05 0.000243919
0.00120194 -3.57127e-05 -1.42061e-05
-3.57127e-05 0.000128221 -2.1203e-05
-1.42061e-05 -2.1203e-05 -0.000104197
0.00185328 5.28787e-06 8.41428e-06
5.28787e-06 0.000111561 -4.92676e-05
8.41428e-06 -4.92676e-05 -0.000580514
0.00144865 0.000357323 2.11763e-05
0.000357323 -0.00254204 -1.8863e-05
2.11763e-05 -1.8863e-05 -0.00140245
-0.00133946 2.39322e-05 1.55934e-06
2.39322e-05 -0.000570575 -9.82593e-06
1.55934e-06 -9.82593e-06 -0.000884865
0.0100029 0.000383725 9.11038e-05
0.000383725 0.00407637 4.10223e-05
9.11038e-05 4.10223e-05 0.00189112
-0.00593748 -0.000148104 3.29111e-05
-0.000148104 -0.00103142 2.76434e-05
3.29111e-05 2.76434e-05 -0.00191603
0.00137055 0.000117656 1.13253e-05
0.000117656 0.000399495 8.62674e-06
1.13253e-05 8.62674e-06 0.000347528
0.000907452 8.0877e-05 -3.07987e-06
8.0877e-05 0.000172928 1.15866e-06
-3.07987e-06 1.15866e-06 0.000129715
0.000524137 4.81053e-05 -8.13855e-06
4.81053e-05 5.91352e-05 -7.21263e-06
-8.13855e-06 -7.21263e-06 1.13999e-05
0.000853307 9.95007e-05 1.13315e-07
9.95007e-05 9.42345e-05 1.14434e-06
1.13315e-07 1.14434e-06 4.75361e-06
0.000830883 1.87191e-05 -3.12273e-07
1.87191e-05 6.47101e-05 2.29201e-06
-3.12273e-07 2.29201e-06 -1.05281e-05
0.00054689 -2.27078e-05 -2.13907e-06
-2.27078e-05 -5.57135e-05 9.78818e-06
-2.13907e-06 9.78818e-06 -0.000107865
0.000791411 3.8626e-05 -1.49265e-07
3.8626e-05 5.22754e-05 -1.64784e-07
-1.49265e-07 -1.64784e-07 -3.02518e-05
0.000836038 -3.40866e-05 3.94513e-07
-3.40866e-05 8.92534e-05 -1.17644e-06
3.94513e-07 -1.17644e-06 2.84298e-05
0.000618412 -3.95478e-05 3.27272e-06
-3.95478e-05 3.11704e-05 3.27486e-06
3.27272e-06 3.27486e-06 -8.86453e-06
0.000465084 -4.72471e-06 -4.88319e-07
-4.72471e-06 -2.52322e-05 -7.11518e-06
-4.88319e-07 -7.11518e-06 -5.53273e-05
0.000813738 -1.13352e-06 -4.32533e-07
-1.13352e-06 8.42724e-05 -4.62666e-06
-4.32533e-07 -4.62666e-06 2.08892e-05
0.00079366 1.18496e-05 -3.19486e-07
1.18496e-05 5.00053e-05 2.15643e-06
-3.19486e-07 2.15643e-06 -2.39998e-05
0.000802108 5.11231e-05 -4.36876e-07
5.11231e-05 7.75145e-05 6.01319e-07
-4.36876e-07 6.01319e-07 -6.08833e-07
0.000900259 3.87094e-05 -2.03871e-06
3.87094e-05 0.000119247 2.31652e-06
-2.03871e-06 2.31652e-06 4.7949e-05
0.000792989 1.42676e-05 5.59803e-07
1.42676e-05 6.77168e-05 3.56709e-08
5.59803e-07 3.56709e-08 2.35532e-06
0.000835097 3.97986e-05 6.55586e-07
3.97986e-05 8.72195e-05 1.79011e-07
6.55586e-07 1.79011e-07 1.25763e-05
0.000704269 -3.51425e-05 2.06776e-06
-3.51425e-05 5.66645e-05 1.34409e-08
2.06776e-06 1.34409e-08 -2.34681e-05
0.000666351 -3.77674e-05 -8.56048e-07
-3.77674e-05 9.39339e-06 -1.01019e-06
-8.56048e-07 -1.01019e-06 -7.41323e-05
0.000499651 -7.78977e-05 4.05759e-06
-7.78977e-05 -6.37398e-05 6.66587e-07
4.05759e-06 6.66587e-07 -0.000206221
0.000987734 -9.26768e-06 -1.86649e-06
-9.26768e-06 0.00017961 3.74508e-07
-1.86649e-06 3.74508e-07 8.98811e-05
0.00100953 -7.34771e-05 -9.53625e-07
-7.34771e-05 0.000213115 1.05257e-06
-9.53625e-07 1.05257e-06 9.20005e-05
0.000420401 -0.000118412 3.01164e-07
-0.000118412 -0.000134067 2.11686e-06
3.01164e-07 2.11686e-06 -0.00029772
0.000692042 -0.000128412 -3.65778e-06
-0.000128412 1.88442e-05 -2.97201e-07
-3.65778e-06 -2.97201e-07 -0.000142872
0.000962404 -0.000111619 -1.07663e-06
-0.000111619 0.000198844 2.14444e-06
-1.07663e-06 2.14444e-06 7.27809e-05
0.000757627 -0.000131182 6.66501e-08
-0.000131182 6.52757e-05 7.20528e-07
6.66501e-08 7.20528e-07 -9.16848e-05
0.000846158 -1.09016e-05 8.68277e-07
-1.09016e-05 0.00011001 7.62956e-07
8.68277e-07 7.62956e-07 2.18892e-05
0.000962138 -3.4799e-05 -6.19097e-07
-3.4799e-05 0.000191193 -6.70298e-07
-6.19097e-07 -6.70298e-07 8.33299e-05
0.000681871 -6.36257e-05 4.47154e-07
-6.36257e-05 5.9156e-05 -4.88234e-06
4.47154e-07 -4.88234e-06 -6.44378e-05
0.00101625 3.53885e-05 -1.95791e-06
3.53885e-05 0.000208202 -1.16422e-06
-1.95791e-06 -1.16422e-06 0.000121529
0.000655829 2.7104e-05 1.40564e-07
2.7104e-05 1.62002e-06 -2.47845e-08
1.40564e-07 -2.47845e-08 -7.57489e-05
0.000723352 4.65315e-05 -5.02197e-08
4.65315e-05 2.42819e-05 6.10363e-07
-5.02197e-08 6.10363e-07 -3.7651e-05
0.000827823 -1.34688e-05 -2.04197e-07
-1.34688e-05 9.57769e-05 2.70374e-07
-2.04197e-07 2.70374e-07 2.01611e-05
0.000760686 5.15008e-06 -6.55047e-07
5.15008e-06 4.08164e-05 -7.44061e-08
-6.55047e-07 -7.44061e-08 -1.81255e-05
0.000722369 3.50583e-05 -1.49426e-06
3.50583e-05 8.96985e-06 1.47699e-06
-1.49426e-06 1.47699e-06 -3.08271e-05
0.000788873 -2.97363e-05 1.24581e-06
-2.97363e-05 5.66353e-05 -3.35345e-07
1.24581e-06 -3.35345e-07 -3.48419e-06
0.000729947 2.71848e-05 -1.71855e-07
2.71848e-05 8.05768e-06 6.18603e-09
-1.71855e-07 6.18603e-09 -3.07031e-05
0.00130285 4.00408e-05 -7.76896e-06
4.00408e-05 0.00032963 3.21519e-06
-7.76896e-06 3.21519e-06 0.000322773
0.000734394 1.31564e-05 1.39404e-06
1.31564e-05 7.08215e-06 -1.4863e-06
1.39404e-06 -1.4863e-06 -3.09238e-05
0.00100334 3.02716e-05 -3.91815e-06
3.02716e-05 0.000154733 6.1368e-07
-3.91815e-06 6.1368e-07 0.00014718
0.000842782 2.62977e-05 -1.53872e-06
2.62977e-05 6.85174e-05 1.72954e-06
-1.53872e-06 1.72954e-06 7.8944e-05
0.000662301 2.05265e-05 6.03771e-07
2.05265e-05 -4.24715e-05 -3.41248e-06
6.03771e-07 -3.41248e-06 -5.09328e-05
0.00152488 2.61592e-05 6.59744e-06
2.61592e-05 0.000448092 -1.28005e-06
6.59744e-06 -1.28005e-06 0.000462851
0.00221782 2.1835e-05 8.89117e-06
2.1835e-05 0.0008367 -4.44951e-06
8.89117e-06 -4.44951e-06 0.000855355
0.000588503 2.9262e-06 -2.70595e-07
2.9262e-06 -4.70347e-05 -1.27209e-06
-2.70595e-07 -1.27209e-06 -0.000118485
0.000482875 -9.61033e-06 -3.28728e-07
-9.61033e-06 -0.000130157 -2.52847e-06
-3.28728e-07 -2.52847e-06 -0.000168975
0.000849354 -3.25007e-06 2.57218e-08
-3.25007e-06 9.59209e-05 9.6518e-08
2.57218e-08 9.6518e-08 3.28216e-05
0.000689367 -1.30163e-05 -2.75673e-07
-1.30163e-05 -3.15754e-05 -3.51021e-06
-2.75673e-07 -3.51021e-06 -3.68391e-05
0.000601147 -6.01864e-06 2.80058e-07
-6.01864e-06 -6.45446e-05 -1.6134e-08
2.80058e-07 -1.6134e-08 -0.000100059
0.000572859 -5.12674e-05 2.03741e-07
-5.12674e-05 -5.46772e-05 1.15722e-06
2.03741e-07 1.15722e-06 -0.00011717
0.00208805 -1.1019e-05 -4.83512e-06
-1.1019e-05 0.000760817 -4.55612e-06
-4.83512e-06 -4.55612e-06 0.000781517
0.000690799 -6.30962e-06 -1.72327e-07
-6.30962e-06 -3.24193e-05 -4.98192e-09
-1.72327e-07 -4.98192e-09 -3.64501e-05
0.000724244 -6.92773e-06 -2.58432e-07
-6.92773e-06 4.1315e-06 1.76976e-06
-2.58432e-07 1.76976e-06 -2.87324e-05
0.00207452 -2.15688e-07 -2.83806e-06
-2.15688e-07 0.00075227 2.37792e-10
-2.83806e-06 2.37792e-10 0.000773323
0.000692651 2.8177e-07 1.44338e-07
2.8177e-07 -3.18694e-05 3.42368e-06
1.44338e-07 3.42368e-06 -3.55462e-05
0.00208577 1.06634e-05 -4.89025e-06
1.06634e-05 0.000759625 4.54935e-06
-4.89025e-06 4.54935e-06 0.000780314
0.00107783 -7.12667e-06 -5.85998e-05
-7.12667e-06 -8.13628e-05 2.3634e-05
-5.85998e-05 2.3634e-05 -0.000622708
0.00139785 0.000158998 -5.04348e-06
0.000158998 0.00164179 -6.64932e-06
-5.04348e-06 -6.64932e-06 0.00123924
0.00112571 -0.000161406 -5.36256e-05
-0.000161406 0.00106782 -1.49969e-05
-5.36256e-05 -1.49969e-05 0.00063948
0.0007982 3.79869e-05 -8.56994e-09
3.79869e-05 7.59825e-05 4.73194e-07
-8.56994e-09 4.73194e-07 -1.31365e-05
0.00244213 -2.08258e-05 -2.53024e-05
-2.08258e-05 0.000932503 5.41723e-05
-2.53024e-05 5.41723e-05 0.000308566
0.00252295 -2.79934e-05 -2.71021e-05
-2.79934e-05 0.000501588 3.46305e-06
-2.71021e-05 3.46305e-06 -0.000378632
0.00137182 0.000387178 8.36345e-05
0.000387178 0.00136644 -7.09065e-05
8.36345e-05 -7.09065e-05 0.00145136
0.00294386 -0.000109176 -1.26116e-05
-0.000109176 0.000123902 -1.66894e-05
-1.26116e-05 -1.66894e-05 -0.000134108
0.00949017 0.000316819 3.72554e-05
0.000316819 0.00344205 -3.15017e-05
3.72554e-05 -3.15017e-05 0.00193016
-0.00310467 0.0005234 -8.49701e-06
0.0005234 -0.00286428 2.67623e-05
-8.49701e-06 2.67623e-05 -0.00215289
0.00334173 0.000631784 2.64242e-05
0.000631784 -0.000487228 -4.80992e-06
2.64242e-05 -4.80992e-06 0.000505211
0.00353109 -0.000390336 -5.71585e-05
-0.000390336 0.000178237 1.23576e-06
-5.71585e-05 1.23576e-06 -0.000523613
0.00760447 7.15466e-05 3.09285e-05
7.15466e-05 0.00306361 -1.51155e-05
3.09285e-05 -1.51155e-05 0.00131149
0.00484749 0.000548861 1.19544e-05
0.000548861 0.000343798 -3.03725e-05
1.19544e-05 -3.03725e-05 0.000510452
0.0034788 0.000379126 -1.10326e-05
0.000379126 -0.00142431 9.32074e-07
-1.10326e-05 9.32074e-07 -0.000257841
0.00441206 -0.000698935 -3.42099e-06
-0.000698935 0.000690008 -1.41167e-05
-3.42099e-06 -1.41167e-05 -0.000283491
0.00939308 -0.000243052 4.93389e-05
-0.000243052 0.00450176 -2.8079e-06
4.93389e-05 -2.8079e-06 0.00184903
0.00140176 3.85915e-05 1.64801e-05
3.85915e-05 -0.000619601 -2.78488e-05
1.64801e-05 -2.78488e-05 -0.000732297
0.00498557 4.57132e-05 -9.99513e-06
4.57132e-05 -0.000515662 4.03305e-05
-9.99513e-06 4.03305e-05 0.000916555
0.000828277 -2.93807e-05 4.40934e-07
-2.93807e-05 9.7268e-05 2.14517e-07
4.40934e-07 2.14517e-07 -6.78088e-06
0.000822723 -3.6869e-05 5.10957e-07
-3.6869e-05 0.000105867 -2.4736e-08
5.10957e-07 -2.4736e-08 1.53341e-06
0.000920194 6.91301e-05 -1.13076e-06
6.91301e-05 0.000161502 9.0974e-08
-1.13076e-06 9.0974e-08 6.56405e-05
0.000794915 3.90704e-07 -2.82908e-07
3.90704e-07 6.52857e-05 1.4798e-07
-2.82908e-07 1.4798e-07 -2.44561e-05
0.000865005 5.84566e-05 -6.6491e-07
5.84566e-05 0.000120897 4.16024e-07
-6.6491e-07 4.16024e-07 2.05028e-05
0.00090545 4.05302e-05 7.05704e-07
4.05302e-05 0.000145948 1.41158e-06
7.05704e-07 1.41158e-06 5.29158e-05
0.000959982 7.85615e-05 -6.49264e-07
7.85615e-05 0.00017537 6.02221e-08
-6.49264e-07 6.02221e-08 8.40493e-05
0.00100313 8.66178e-05 8.94707e-07
8.66178e-05 0.0002062 1.30405e-06
8.94707e-07 1.30405e-06 0.000114701
0.00138137 -0.000166273 2.94543e-05
-0.000166273 0.000135333 -1.36073e-05
2.94543e-05 -1.36073e-05 6.31365e-05
0.000968785 -0.000227247 8.99395e-06
-0.000227247 -9.57684e-05 -6.72404e-06
8.99395e-06 -6.72404e-06 -0.000121263
0.000808565 -0.000123419 -1.07859e-06
-0.000123419 0.000108458 1.22446e-07
-1.07859e-06 1.22446e-07 -2.05352e-06
0.00175037 -9.45822e-05 5.16464e-06
-9.45822e-05 0.000607295 -7.95641e-06
5.16464e-06 -7.95641e-06 0.000434377
0.0011534 -6.76525e-05 -5.84197e-07
-6.76525e-05 0.000293187 -9.26215e-07
-5.84197e-07 -9.26215e-07 0.000166185
0.000946745 -3.34447e-05 -1.1233e-06
-3.34447e-05 0.000175865 -2.68317e-07
-1.1233e-06 -2.68317e-07 6.48257e-05
0.000878476 1.61104e-05 -5.26908e-08
1.61104e-05 0.000127814 -1.51951e-07
-5.26908e-08 -1.51951e-07 2.2545e-05
0.000706719 -0.000294925 -7.17955e-06
-0.000294925 -0.000259684 4.71831e-07
-7.17955e-06 4.71831e-07 -0.000302827
0.000849822 2.31564e-05 -1.85183e-07
2.31564e-05 0.000120074 -5.59423e-07
-1.85183e-07 -5.59423e-07 -2.64664e-06
0.000970149 -4.43092e-05 1.07143e-07
-4.43092e-05 0.000165137 9.07793e-07
1.07143e-07 9.07793e-07 4.8486e-05
0.000450941 -8.21525e-05 7.79052e-07
-8.21525e-05 -4.29373e-05 3.54746e-06
7.79052e-07 3.54746e-06 -0.00011644
0.000826251 2.49192e-06 6.56747e-07
2.49192e-06 7.80444e-05 8.08539e-07
6.56747e-07 8.08539e-07 -1.07417e-05
0.000425703 -0.000278915 5.0776e-05
-0.000278915 -0.000303741 -2.95459e-05
5.0776e-05 -2.95459e-05 -0.000244147
0.00100047 -5.90474e-05 -1.15572e-05
-5.90474e-05 0.000458066 1.79449e-05
-1.15572e-05 1.79449e-05 0.000345438
0.00059472 3.69928e-06 -1.09545e-06
3.69928e-06 -3.65414e-05 5.7079e-06
-1.09545e-06 5.7079e-06 -0.00013981
0.000912048 0.000111883 1.57554e-06
0.000111883 0.000151959 1.00762e-06
1.57554e-06 1.00762e-06 4.2501e-05
0.00139471 -1.64694e-05 -1.94861e-05
-1.64694e-05 0.000264174 -4.88372e-07
-1.94861e-05 -4.88372e-07 9.86063e-05
0.00126625 -2.7065e-05 3.59026e-05
-2.7065e-05 0.000107441 -2.2859e-06
3.59026e-05 -2.2859e-06 -0.000390928
-0.00223112 -4.08543e-05 -1.58642e-05
-4.08543e-05 0.000250803 1.5186e-06
-1.58642e-05 1.5186e-06 -0.000645489
0.0009648 0.000112255 1.55394e-05
0.000112255 0.000325603 4.61508e-06
1.55394e-05 4.61508e-06 0.000245741
0.000274037 0.000186095 2.31035e-05
0.000186095 9.62594e-05 1.04088e-05
2.31035e-05 1.04088e-05 -6.78277e-05
0.00207411 -3.21247e-05 6.09917e-05
-3.21247e-05 0.000607591 1.24632e-05
6.09917e-05 1.24632e-05 0.000131784
0.00763359 -0.000139808 8.36635e-05
-0.000139808 0.00318914 4.00169e-05
8.36635e-05 4.00169e-05 0.000967428
0.00231622 0.000431605 -6.86117e-05
0.000431605 0.000470176 -8.58632e-05
-6.86117e-05 -8.58632e-05 -0.000362583
0.00310926 -0.000256674 2.44076e-05
-0.000256674 0.000288482 -1.70558e-05
2.44076e-05 -1.70558e-05 -0.000229062
0.0017467 4.19187e-05 2.40373e-05
4.19187e-05 0.000227105 7.12653e-05
2.40373e-05 7.12653e-05 -0.000568264
0.00264879 -2.08784e-06 4.00269e-06
-2.08784e-06 -0.00277094 -2.86243e-05
4.00269e-06 -2.86243e-05 -0.000814696
0.000766935 9.53224e-05 -2.4663e-07
9.53224e-05 0.000298225 -3.27001e-07
-2.4663e-07 -3.27001e-07 0.000219431
0.00127071 -3.21262e-05 -2.24811e-07
-3.21262e-05 0.000171403 -7.0268e-06
-2.24811e-07 -7.0268e-06 -4.84548e-05
0.0021391 1.1268e-05 1.54129e-05
1.1268e-05 0.000398904 5.3944e-06
1.54129e-05 5.3944e-06 -0.000187975
-0.000847361 7.14851e-05 -1.37861e-05
7.14851e-05 -0.000349155 -4.84605e-06
-1.37861e-05 -4.84605e-06 -0.000596766
0.00353865 0.000389449 7.73593e-06
0.000389449 -0.00141133 -6.36953e-07
7.73593e-06 -6.36953e-07 -0.000258404
0.00547125 0.000626457 5.59256e-05
0.000626457 0.00192965 1.37441e-05
5.59256e-05 1.37441e-05 -0.000293444
0.00288061 0.000168503 -4.58239e-05
0.000168503 0.00143385 -8.40975e-07
-4.58239e-05 -8.40975e-07 0.000918582
0.000597767 0.000122206 -2.08592e-05
0.000122206 0.000288043 -1.08961e-05
-2.08592e-05 -1.08961e-05 0.000157389
0.00154779 2.92096e-06 -7.2849e-07
2.92096e-06 0.000216746 -2.08823e-05
-7.2849e-07 -2.08823e-05 2.75363e-05
0.00253206 -1.67996e-05 2.48439e-05
-1.67996e-05 0.000900553 -5.44133e-05
2.48439e-05 -5.44133e-05 0.000323661
0.00414801 0.000615963 6.9525e-05
0.000615963 -0.000111974 -5.41211e-05
6.9525e-05 -5.41211e-05 0.000846073
0.00285456 0.00013714 -3.14596e-05
0.00013714 -0.000165093 2.6498e-05
-3.14596e-05 2.6498e-05 -0.000111981
0.00243955 0.000259325 1.76923e-05
0.000259325 0.000418537 -2.46296e-05
1.76923e-05 -2.46296e-05 0.000481084
0.00188228 0.000107353 8.48407e-05
0.000107353 0.00167813 3.04536e-05
8.48407e-05 3.04536e-05 -0.00154611
0.000632765 9.30472e-05 4.4565e-06
9.30472e-05 2.66364e-05 7.7271e-06
4.4565e-06 7.7271e-06 -2.03219e-05
0.000675141 4.19258e-05 7.66618e-06
4.19258e-05 0.000143968 7.28602e-07
7.66618e-06 7.28602e-07 9.7945e-05
-5.47792e-05 1.07754e-06 4.47326e-06
1.07754e-06 -3.69648e-05 -1.3601e-05
4.47326e-06 -1.3601e-05 -0.000113949
0.000737604 1.41723e-05 -6.88523e-08
1.41723e-05 1.69897e-05 2.31234e-06
-6.88523e-08 2.31234e-06 -6.0514e-05
0.000636976 -3.23017e-05 -9.62879e-07
-3.23017e-05 -2.0702e-05 4.61079e-06
-9.62879e-07 4.61079e-06 -8.123e-05
0.000590115 -3.95994e-05 -2.96561e-06
-3.95994e-05 3.95995e-06 1.01977e-05
-2.96561e-06 1.01977e-05 -3.7877e-05
0.000766011 -1.44978e-05 -4.32027e-08
-1.44978e-05 5.80736e-05 -3.02238e-07
-4.32027e-08 -3.02238e-07 -6.26002e-06
0.000529346 -1.14545e-05 1.66835e-06
-1.14545e-05 6.92657e-07 2.10156e-06
1.66835e-06 2.10156e-06 -2.76174e-05
0.000436956 -9.22815e-05 4.26047e-06
-9.22815e-05 6.2846e-05 -5.76679e-06
4.26047e-06 -5.76679e-06 -6.53541e-05
0.000906974 9.04336e-06 -6.79117e-07
9.04336e-06 0.000127599 2.48136e-06
-6.79117e-07 2.48136e-06 6.1557e-05
0.000756149 4.94684e-05 -1.13356e-06
4.94684e-05 4.47554e-05 1.77564e-06
-1.13356e-06 1.77564e-06 -2.97755e-05
0.0011538 -5.66293e-05 9.77069e-07
-5.66293e-05 0.000294229 9.99028e-07
9.77069e-07 9.99028e-07 0.000208087
0.000273068 -6.6276e-05 3.98784e-06
-6.6276e-05 -9.59302e-05 1.35957e-06
3.98784e-06 1.35957e-06 -0.000274984
0.000594826 -9.68306e-06 -4.60041e-06
-9.68306e-06 -1.76496e-05 3.97276e-07
-4.60041e-06 3.97276e-07 -9.43466e-05
0.000348991 -7.40292e-05 1.2377e-06
-7.40292e-05 -0.000141461 -5.09985e-07
1.2377e-06 -5.09985e-07 -0.000274547
0.00105222 -0.000170617 4.89442e-06
-0.000170617 0.000217501 -9.69295e-07
4.89442e-06 -9.69295e-07 2.11981e-05
0.00113867 -0.000182993 -1.61701e-06
-0.000182993 0.000175716 3.75155e-06
-1.61701e-06 3.75155e-06 -2.28364e-05
0.00141501 -0.000103791 -2.37839e-06
-0.000103791 0.000427751 -4.74169e-07
-2.37839e-06 -4.74169e-07 0.000302527
0.000672669 -0.000137519 -3.75176e-07
-0.000137519 -3.02581e-06 3.13072e-08
-3.75176e-07 3.13072e-08 -0.000171794
0.00155138 -0.00019469 1.03321e-06
-0.00019469 0.000470969 -1.45314e-06
1.03321e-06 -1.45314e-06 0.000309186
0.000344814 -8.65061e-05 -1.2279e-06
-8.65061e-05 -0.000138761 -2.703e-07
-1.2279e-06 -2.703e-07 -0.000280415
0.000873646 -0.000140495 -1.37888e-08
-0.000140495 0.000118612 4.90766e-07
-1.37888e-08 4.90766e-07 -4.09761e-05
0.000828435 -1.38303e-05 1.44194e-07
-1.38303e-05 0.000105515 7.48436e-07
1.44194e-07 7.48436e-07 6.37483e-06
0.000999203 -0.000109366 -1.98351e-06
-0.000109366 0.000217731 1.63588e-06
-1.98351e-06 1.63588e-06 9.08542e-05
0.000531854 -0.000113118 -1.05884e-06
-0.000113118 -5.62036e-05 -8.9108e-07
-1.05884e-06 -8.9108e-07 -0.000210003
0.000739734 5.01706e-05 2.56911e-07
5.01706e-05 3.92751e-05 8.46751e-07
2.56911e-07 8.46751e-07 -3.00191e-05
0.000718824 -5.14045e-06 6.88421e-07
-5.14045e-06 4.10917e-05 -1.16384e-07
6.88421e-07 -1.16384e-07 -4.7866e-05
0.00078989 -3.20606e-05 8.12039e-07
-3.20606e-05 9.86665e-05 -2.62194e-06
8.12039e-07 -2.62194e-06 -1.19387e-05
0.000801984 1.45616e-05 -9.03904e-08
1.45616e-05 8.21668e-05 -5.51166e-07
-9.03904e-08 -5.51166e-07 5.57732e-06
0.000766926 1.60742e-05 -5.09157e-07
1.60742e-05 4.6706e-05 -1.57107e-07
-5.09157e-07 -1.57107e-07 -1.48359e-05
0.00071463 4.38903e-05 -1.54444e-06
4.38903e-05 1.13349e-05 1.4119e-06
-1.54444e-06 1.4119e-06 -3.05671e-05
0.000794204 -1.78368e-05 8.631e-07
-1.78368e-05 6.01816e-05 -5.70281e-07
8.631e-07 -5.70281e-07 2.08497e-07
0.000724887 3.43531e-05 -1.14264e-07
3.43531e-05 9.83865e-06 6.85035e-09
-1.14264e-07 6.85035e-09 -2.98382e-05
0.000650935 3.9122e-05 -1.13773e-06
3.9122e-05 -3.15048e-05 3.46989e-06
-1.13773e-06 3.46989e-06 -4.31921e-05
0.000737014 2.3843e-05 1.42092e-06
2.3843e-05 1.11163e-05 -1.49502e-06
1.42092e-06 -1.49502e-06 -2.73569e-05
0.000664263 3.35146e-05 1.24727e-07
3.35146e-05 -3.11139e-05 2.93774e-08
1.24727e-07 2.93774e-08 -4.13255e-05
0.00209707 5.37383e-05 -4.70021e-06
5.37383e-05 0.000783669 1.64913e-06
-4.70021e-06 1.64913e-06 0.000798804
0.000660773 2.72229e-05 7.85658e-07
2.72229e-05 -3.90412e-05 -3.44682e-06
7.85658e-07 -3.44682e-06 -4.81907e-05
0.00151159 3.43733e-05 8.01054e-06
3.43733e-05 0.000445927 -1.15864e-06
8.01054e-06 -1.15864e-06 0.000459643
0.00220832 3.19582e-05 1.27791e-05
3.19582e-05 0.000835469 -4.26153e-06
1.27791e-05 -4.26153e-06 0.000853289
0.000607254 -1.47142e-05 -1.40413e-07
-1.47142e-05 -4.50867e-05 -9.8395e-07
-1.40413e-07 -9.8395e-07 -0.000113945
0.000463016 -1.19066e-05 -3.70991e-07
-1.19066e-05 -0.000141107 -2.42553e-06
-3.70991e-07 -2.42553e-06 -0.000183179
0.000728247 5.2997e-06 -3.26967e-07
5.2997e-06 2.97322e-05 -6.08005e-07
-3.26967e-07 -6.08005e-07 -4.01223e-05
0.000682896 -1.9537e-05 -2.85544e-07
-1.9537e-05 -3.2182e-05 -3.57849e-06
-2.85544e-07 -3.57849e-06 -3.94089e-05
0.000464415 -1.04787e-05 -9.25992e-08
-1.04787e-05 -0.000140477 -7.52035e-07
-9.25992e-08 -7.52035e-07 -0.000179697
0.000870215 7.2616e-06 -8.61408e-08
7.2616e-06 0.000112596 1.00892e-06
-8.61408e-08 1.00892e-06 4.60255e-05
0.00212539 -2.11546e-05 -8.85605e-06
-2.11546e-05 0.000784181 -4.50543e-06
-8.85605e-06 -4.50543e-06 0.000803932
0.000687438 -1.27211e-05 -1.23663e-07
-1.27211e-05 -3.26123e-05 -1.79886e-08
-1.23663e-07 -1.79886e-08 -3.78251e-05
0.000457785 -8.66277e-06 1.36328e-07
-8.66277e-06 -0.000144271 1.79864e-06
1.36328e-07 1.79864e-06 -0.000180955
0.00208252 -1.01767e-05 -2.9746e-06
-1.01767e-05 0.000757482 2.87618e-08
-2.9746e-06 2.87618e-08 0.000778283
0.000691132 -6.05306e-06 2.02734e-07
-6.05306e-06 -3.22107e-05 3.41826e-06
2.02734e-07 3.41826e-06 -3.62142e-05
0.00207329 6.61793e-07 -4.07207e-07
6.61793e-07 0.000751572 4.57448e-06
-4.07207e-07 4.57448e-06 0.000772622
0.00145953 2.18981e-05 -1.51713e-05
2.18981e-05 0.000330858 1.73201e-05
-1.51713e-05 1.73201e-05 0.000116049
0.00151302 5.58591e-06 8.85376e-06
5.58591e-06 0.000202952 -2.78753e-06
8.85376e-06 -2.78753e-06 -0.00033767
0.00169534 0.000123296 4.03219e-05
0.000123296 0.00182836 -2.32453e-05
4.03219e-05 -2.32453e-05 0.00147416
0.000841449 3.94742e-05 4.25178e-08
3.94742e-05 9.56128e-05 1.6688e-07
4.25178e-08 1.6688e-07 1.05563e-05
0.000742438 8.19428e-06 1.1397e-07
8.19428e-06 3.26765e-05 4.46257e-07
1.1397e-07 4.46257e-07 -4.71497e-05
0.000901515 5.88601e-05 -9.90187e-08
5.88601e-05 0.000127364 1.0726e-06
-9.90187e-08 1.0726e-06 3.77917e-05
0.00172033 2.93859e-06 1.75138e-06
2.93859e-06 8.67328e-05 8.60772e-05
1.75138e-06 8.60772e-05 -0.000633801
0.00246186 -9.11739e-06 -5.71724e-06
-9.11739e-06 0.000917604 1.17752e-06
-5.71724e-06 1.17752e-06 0.000296691
0.00271741 -4.25045e-05 4.55999e-05
-4.25045e-05 0.00066624 -6.22158e-05
4.55999e-05 -6.22158e-05 -0.000273711
0.00452836 -0.000418461 -5.55957e-05
-0.000418461 0.000867987 -3.03174e-07
-5.55957e-05 -3.03174e-07 0.000164168
0.000768524 -0.000153399 -6.22116e-05
-0.000153399 -0.000124968 3.13013e-05
-6.22116e-05 3.13013e-05 -0.00214384
0.00581479 0.000678217 6.26698e-05
0.000678217 0.00153554 -3.76864e-06
6.26698e-05 -3.76864e-06 0.00149166
0.00138873 0.000236857 1.5838e-05
0.000236857 -0.00269026 -4.11775e-05
1.5838e-05 -4.11775e-05 -0.00148233
0.00497505 -0.000745877 -7.82084e-06
-0.000745877 0.00130231 4.91886e-06
-7.82084e-06 4.91886e-06 0.000610669
0.00565479 -0.00026693 9.02104e-06
-0.00026693 0.00239531 -1.06828e-06
9.02104e-06 -1.06828e-06 0.000168615
-0.00101746 0.00014741 -9.00167e-06
0.00014741 -0.000765809 -2.86683e-05
-9.00167e-06 -2.86683e-05 -0.00126377
0.00378158 3.54711e-06 -8.46235e-06
3.54711e-06 -0.0016114 1.1997e-05
-8.46235e-06 1.1997e-05 3.70858e-05
0.00236024 -0.000558039 -2.76767e-05
-0.000558039 -5.63895e-05 -2.83762e-05
-2.76767e-05 -2.83762e-05 -0.000662269
0.0100472 -0.000563161 4.69223e-05
-0.000563161 0.00462905 2.1353e-05
4.69223e-05 2.1353e-05 0.00195362
-0.00601471 2.91089e-05 3.98503e-05
2.91089e-05 -0.00104479 -5.16853e-05
3.98503e-05 -5.16853e-05 -0.00199409
0.00195542 -0.000329921 -5.19832e-07
-0.000329921 -0.00193365 6.60751e-07
-5.19832e-07 6.60751e-07 -0.000705067
0.000836062 1.86704e-05 -1.66409e-07
1.86704e-05 8.81264e-05 1.07694e-06
-1.66409e-07 1.07694e-06 -8.25166e-06
0.000815544 -8.79455e-06 1.3783e-07
-8.79455e-06 9.12528e-05 -1.41211e-07
1.3783e-07 -1.41211e-07 -1.39934e-05
0.000819247 -4.9538e-05 1.47018e-07
-4.9538e-05 0.000105733 -1.58941e-07
1.47018e-07 -1.58941e-07 -2.93358e-07
0.000822085 2.38607e-05 -3.74507e-07
2.38607e-05 8.14739e-05 -3.35169e-07
-3.74507e-07 -3.35169e-07 -9.7234e-06
0.000970935 9.86e-05 1.24101e-06
9.86e-05 0.000178978 3.45954e-07
1.24101e-06 3.45954e-07 8.00175e-05
0.0010278 8.88737e-05 -3.82972e-07
8.88737e-05 0.000213945 2.22411e-07
-3.82972e-07 2.22411e-07 0.000121573
0.00161168 -0.000342336 2.48074e-06
-0.000342336 0.000200668 5.85519e-06
2.48074e-06 5.85519e-06 0.000115401
-0.000705853 -5.9148e-05 9.5956e-06
-5.9148e-05 -0.000670682 -9.78674e-06
9.5956e-06 -9.78674e-06 -0.000713564
0.00099662 5.77088e-05 -1.80915e-07
5.77088e-05 0.000200376 -2.33696e-07
-1.80915e-07 -2.33696e-07 8.99475e-05
0.00135997 -9.02823e-05 1.01594e-05
-9.02823e-05 0.000359888 -1.34224e-05
1.01594e-05 -1.34224e-05 0.000241235
0.000909536 1.1918e-05 -2.35215e-07
1.1918e-05 0.000154684 -1.92211e-06
-2.35215e-07 -1.92211e-06 3.56726e-05
0.000814261 6.54883e-06 1.65567e-07
6.54883e-06 7.13661e-05 -2.46405e-07
1.65567e-07 -2.46405e-07 -2.11824e-05
0.000899293 6.40149e-05 6.5385e-07
6.40149e-05 0.000142347 -3.80794e-07
6.5385e-07 -3.80794e-07 3.971e-05
0.000506085 -0.000263951 -4.91719e-06
-0.000263951 -0.000270506 -2.29804e-06
-4.91719e-06 -2.29804e-06 -0.000279818
0.000972497 -3.02719e-05 1.70608e-06
-3.02719e-05 0.000180131 -2.93127e-06
1.70608e-06 -2.93127e-06 8.41619e-05
0.000417726 -2.92154e-05 1.5003e-05
-2.92154e-05 0.000153278 -2.36493e-07
1.5003e-05 -2.36493e-07 4.37022e-05
0.000929485 3.3032e-05 1.99609e-06
3.3032e-05 0.000147542 9.44287e-07
1.99609e-06 9.44287e-07 6.03764e-05
-0.00216624 3.27159e-05 -5.98921e-06
3.27159e-05 -0.00104409 -2.7959e-05
-5.98921e-06 -2.7959e-05 -0.0013552
0.0010268 -4.78875e-06 3.92524e-06
-4.78875e-06 0.000432873 2.0443e-05
3.92524e-06 2.0443e-05 0.000382992
0.00101011 9.64665e-07 2.14585e-06
9.64665e-07 0.00023013 3.04204e-06
2.14585e-06 3.04204e-06 0.000150184
0.00163716 -1.19843e-05 -1.9596e-06
-1.19843e-05 0.000256143 5.72333e-09
-1.9596e-06 5.72333e-09 0.000156383
0.0011405 -1.31566e-05 -7.68431e-06
-1.31566e-05 0.000130821 -2.00131e-06
-7.68431e-06 -2.00131e-06 -1.45869e-05
0.00111693 -3.29259e-05 0.000106451
-3.29259e-05 5.23999e-05 -1.96535e-06
0.000106451 -1.96535e-06 -0.000455028
0.00110584 0.000144137 1.92584e-05
0.000144137 0.000475977 1.34055e-05
1.92584e-05 1.34055e-05 0.000387159
0.00344443 0.000376021 3.26329e-07
0.000376021 0.00141704 -1.65367e-05
3.26329e-07 -1.65367e-05 0.00126409
0.00131989 -2.95036e-05 1.0436e-05
-2.95036e-05 0.000199377 7.01085e-06
1.0436e-05 7.01085e-06 -8.17817e-06
0.000102539 0.000318093 1.2137e-06
0.000318093 -0.000172695 5.37847e-06
1.2137e-06 5.37847e-06 -0.00237599
-0.00839325 2.03272e-05 -3.39858e-05
2.03272e-05 -0.00351539 -3.69887e-05
-3.39858e-05 -3.69887e-05 -0.00452282
0.00242041 1.87361e-05 1.86583e-05
1.87361e-05 0.000691762 4.56199e-05
1.86583e-05 4.56199e-05 0.000222477
0.00153082 0.000261004 -1.32149e-05
0.000261004 -0.00264661 4.15003e-05
-1.32149e-05 4.15003e-05 -0.00143002
0.000376684 8.47478e-05 2.19804e-06
8.47478e-05 0.000193093 -6.70268e-07
2.19804e-06 -6.70268e-07 7.50609e-05
0.00134094 -4.4174e-06 4.44879e-06
-4.4174e-06 0.000109579 -8.70236e-06
4.44879e-06 -8.70236e-06 -5.57811e-05
0.00251393 -8.71114e-06 5.84133e-06
-8.71114e-06 0.000876638 -1.28463e-06
5.84133e-06 -1.28463e-06 0.000286915
0.000999503 0.000205918 3.12758e-05
0.000205918 -0.000355874 -1.45596e-06
3.12758e-05 -1.45596e-06 -0.000550937
0.00192085 0.000584199 1.96173e-05
0.000584199 -0.00141191 -4.51812e-05
1.96173e-05 -4.51812e-05 -0.000402455
-0.000857258 0.000158971 8.97991e-06
0.000158971 -0.00120573 2.50725e-05
8.97991e-06 2.50725e-05 -0.00134368
0.00628948 5.64352e-05 5.76856e-05
5.64352e-05 0.00359512 -1.80311e-05
5.76856e-05 -1.80311e-05 0.000208869
5.10992e-05 1.60117e-05 8.37585e-06
1.60117e-05 0.000245564 -1.1192e-05
8.37585e-06 -1.1192e-05 -4.08079e-06
0.00141653 2.07188e-05 1.33356e-05
2.07188e-05 0.000286008 -1.70893e-05
1.33356e-05 -1.70893e-05 7.90924e-05
0.00248789 -8.97957e-06 9.65585e-05
-8.97957e-06 0.000347782 -7.69085e-05
9.65585e-05 -7.69085e-05 -0.000423515
0.00250961 0.000803536 4.00284e-06
0.000803536 0.00102184 -9.86229e-06
4.00284e-06 -9.86229e-06 0.00208299
-0.00612466 0.000222013 4.83108e-05
0.000222013 -0.00464214 8.34758e-05
4.83108e-05 8.34758e-05 -0.00437651
0.00974807 -0.000289721 3.96947e-05
-0.000289721 0.00412478 -5.81458e-05
3.96947e-05 -5.81458e-05 0.00148825
0.00481337 -0.000295189 -7.40487e-05
-0.000295189 0.00124247 0.000118155
-7.40487e-05 0.000118155 0.00128679
0.00104493 3.77832e-05 1.51453e-06
3.77832e-05 0.000361117 6.1255e-06
1.51453e-06 6.1255e-06 0.000313353
5.36502e-05 -1.37857e-05 -2.02253e-06
-1.37857e-05 -2.03577e-06 -1.19262e-06
-2.02253e-06 -1.19262e-06 -8.77527e-05
-0.000245204 -0.000112408 7.01648e-06
-0.000112408 -7.55643e-05 -1.25076e-05
7.01648e-06 -1.25076e-05 -0.000268278
0.000757055 -2.82753e-05 -1.93596e-10
-2.82753e-05 5.56032e-05 2.09487e-06
-1.93596e-10 2.09487e-06 -1.12044e-05
0.000698954 -1.14627e-05 1.01478e-05
-1.14627e-05 8.34116e-05 1.23086e-05
1.01478e-05 1.23086e-05 5.71349e-05
0.000425554 -4.14957e-05 -1.09929e-06
-4.14957e-05 5.49503e-05 3.70742e-09
-1.09929e-06 3.70742e-09 -5.85478e-05
0.00116526 -0.000166607 1.82905e-05
-0.000166607 0.000478173 -1.20598e-05
1.82905e-05 -1.20598e-05 0.000249017
0.0016331 -7.94542e-05 -2.68868e-06
-7.94542e-05 0.000547794 2.2195e-06
-2.68868e-06 2.2195e-06 0.000455743
0.00130842 -0.000162777 1.07173e-06
-0.000162777 0.000428572 4.60559e-07
1.07173e-06 4.60559e-07 0.000245077
0.00104391 -0.000184355 7.42624e-06
-0.000184355 0.000281561 2.09082e-06
7.42624e-06 2.09082e-06 -6.15675e-06
0.000166088 -6.61275e-05 -2.23936e-06
-6.61275e-05 -0.000237574 -1.68155e-06
-2.23936e-06 -1.68155e-06 -0.000360445
0.00106478 -0.000169261 -3.26442e-07
-0.000169261 0.000216988 9.9214e-07
-3.26442e-07 9.9214e-07 1.46138e-05
0.00209752 -0.000273687 1.99932e-06
-0.000273687 0.000675081 1.25513e-06
1.99932e-06 1.25513e-06 0.000430016
0.00167493 -0.000247482 -2.61772e-06
-0.000247482 0.000329802 7.40741e-07
-2.61772e-06 7.40741e-07 0.000112599
0.000597059 -0.000137663 -2.16215e-07
-0.000137663 -9.34385e-05 4.94099e-06
-2.16215e-07 4.94099e-06 -0.000270471
0.00123548 -0.000190136 -2.02219e-06
-0.000190136 0.000229033 1.3796e-06
-2.02219e-06 1.3796e-06 2.83882e-05
0.000924005 -0.000156487 -3.31206e-06
-0.000156487 0.000127571 3.98174e-07
-3.31206e-06 3.98174e-07 -4.63935e-05
0.00131493 -0.000173324 2.73836e-06
-0.000173324 0.000358763 -2.37445e-06
2.73836e-06 -2.37445e-06 0.000206515
0.00115011 -0.00016373 2.45979e-06
-0.00016373 0.000256556 -2.19379e-06
2.45979e-06 -2.19379e-06 0.000103246
0.000648091 -4.63008e-05 1.08933e-06
-4.63008e-05 1.63663e-05 1.04623e-06
1.08933e-06 1.04623e-06 -0.000105359
0.00077787 -0.000113451 1.07046e-06
-0.000113451 0.000100058 -3.36601e-07
1.07046e-06 -3.36601e-07 -4.24893e-05
0.00103941 -0.00015124 4.53078e-06
-0.00015124 0.000209042 -2.73337e-06
4.53078e-06 -2.73337e-06 5.22725e-05
0.000737743 5.97224e-05 9.65657e-07
5.97224e-05 4.71896e-05 1.27281e-06
9.65657e-07 1.27281e-06 -3.51778e-05
0.000881846 -3.37333e-05 -1.76653e-07
-3.37333e-05 0.000136335 -4.70532e-08
-1.76653e-07 -4.70532e-08 3.41323e-05
0.0010295 -0.000106676 -6.46841e-07
-0.000106676 0.000232861 -1.49185e-07
-6.46841e-07 -1.49185e-07 0.00010577
0.000689733 5.60072e-05 -8.24576e-07
5.60072e-05 6.96236e-06 1.54247e-06
-8.24576e-07 1.54247e-06 -3.99709e-05
0.000766636 2.56515e-05 -6.97396e-07
2.56515e-05 5.25615e-05 -2.80042e-07
-6.97396e-07 -2.80042e-07 -1.65283e-05
0.000596011 4.75884e-07 -2.90391e-07
4.75884e-07 -2.50561e-05 -8.40442e-07
-2.90391e-07 -8.40442e-07 -0.000115031
0.000800278 -7.02401e-06 7.38296e-07
-7.02401e-06 6.47348e-05 -9.16673e-07
7.38296e-07 -9.16673e-07 2.82425e-06
0.00071697 4.26388e-05 -2.76889e-07
4.26388e-05 1.24738e-05 -4.63157e-08
-2.76889e-07 -4.63157e-08 -2.93782e-05
0.000635437 4.51023e-05 -1.32175e-06
4.51023e-05 -3.16229e-05 3.46408e-06
-1.32175e-06 3.46408e-06 -4.54272e-05
0.000729547 3.34574e-05 1.48139e-06
3.34574e-05 1.18824e-05 -1.53967e-06
1.48139e-06 -1.53967e-06 -2.76566e-05
0.000657164 3.99471e-05 8.20359e-08
3.99471e-05 -2.8083e-05 1.9025e-08
8.20359e-08 1.9025e-08 -3.9804e-05
0.00213471 5.83337e-05 -2.22129e-05
5.83337e-05 0.00081172 3.61345e-06
-2.22129e-05 3.61345e-06 0.000825743
0.000662957 3.40822e-05 9.21619e-07
3.40822e-05 -3.21002e-05 -3.44391e-06
9.21619e-07 -3.44391e-06 -4.2297e-05
0.00149549 4.27396e-05 9.36966e-06
4.27396e-05 0.000443893 -1.02772e-06
9.36966e-06 -1.02772e-06 0.000456181
0.00218939 4.17105e-05 1.63502e-05
4.17105e-05 0.000830205 -4.0141e-06
1.63502e-05 -4.0141e-06 0.000846943
0.000772135 3.36159e-05 -5.6039e-07
3.36159e-05 4.56102e-05 -3.72454e-07
-5.6039e-07 -3.72454e-07 -2.36478e-05
0.000714153 -9.68015e-06 -6.79697e-07
-9.68015e-06 -1.3774e-06 -1.7537e-06
-6.79697e-07 -1.7537e-06 -4.39648e-05
0.000680849 2.30136e-05 -8.09186e-07
2.30136e-05 1.23574e-06 -5.2962e-07
-8.09186e-07 -5.2962e-07 -7.07437e-05
0.000671147 -2.61871e-05 -1.77884e-07
-2.61871e-05 -3.45086e-05 -3.6874e-06
-1.77884e-07 -3.6874e-06 -4.41831e-05
0.000585677 -9.1663e-06 -4.69466e-07
-9.1663e-06 -7.28201e-05 -7.55074e-07
-4.69466e-07 -7.55074e-07 -0.000113973
0.000869822 9.56374e-06 1.42746e-07
9.56374e-06 0.000108941 8.95181e-08
1.42746e-07 8.95181e-08 3.97273e-05
0.00218185 -3.13709e-05 -1.29966e-05
-3.13709e-05 0.000819583 -4.40899e-06
-1.29966e-05 -4.40899e-06 0.000837901
0.000680136 -1.91533e-05 -1.90352e-07
-1.91533e-05 -3.37687e-05 -1.72619e-08
-1.90352e-07 -1.72619e-08 -4.09089e-05
0.000443257 -1.09209e-05 -9.72861e-08
-1.09209e-05 -0.000152361 1.08519e-06
-9.72861e-08 1.08519e-06 -0.00019193
0.00211517 -2.02746e-05 -2.76839e-06
-2.02746e-05 0.00077801 5.66953e-08
-2.76839e-06 5.66953e-08 0.00079796
0.000686699 -1.24482e-05 3.20032e-07
-1.24482e-05 -3.2971e-05 3.48319e-06
3.20032e-07 3.48319e-06 -3.81441e-05
0.00208015 -9.32723e-06 3.90724e-06
-9.32723e-06 0.000755926 4.56575e-06
3.90724e-06 4.56575e-06 0.00077679
0.00150945 -5.63156e-06 -2.98197e-06
-5.63156e-06 0.00022093 2.18146e-05
-2.98197e-06 2.18146e-05 3.74647e-06
0.00137598 1.77217e-05 -4.01889e-06
1.77217e-05 0.000272294 7.86677e-07
-4.01889e-06 7.86677e-07 3.87737e-05
0.0016524 1.36107e-05 7.59839e-05
1.36107e-05 0.000326824 -1.92439e-05
7.59839e-05 -1.92439e-05 -0.000227614
0.000717947 -3.10124e-05 7.36357e-08
-3.10124e-05 1.46113e-05 -1.21652e-07
7.36357e-08 -1.21652e-07 -6.06334e-05
0.00087818 7.79481e-07 -5.55015e-07
7.79481e-07 0.000111833 -3.90956e-07
-5.55015e-07 -3.90956e-07 2.98908e-05
0.000862765 3.62522e-05 1.23903e-06
3.62522e-05 0.000106675 -1.20305e-07
1.23903e-06 -1.20305e-07 2.35592e-05
0.000747094 -6.65826e-06 1.37134e-07
-6.65826e-06 3.08584e-05 8.07152e-08
1.37134e-07 8.07152e-08 -4.57032e-05
0.000824635 1.91244e-05 -4.63088e-08
1.91244e-05 8.40228e-05 2.17185e-07
-4.63088e-08 2.17185e-07 -4.75216e-06
0.000849136 -1.8175e-06 -9.02979e-07
-1.8175e-06 9.5788e-05 4.70303e-07
-9.02979e-07 4.70303e-07 1.22606e-05
0.000887896 0.000127993 8.51494e-07
0.000127993 0.000131365 9.91662e-07
8.51494e-07 9.91662e-07 3.07944e-05
0.00118008 1.46014e-05 2.63384e-05
1.46014e-05 0.000197192 8.25091e-05
2.63384e-05 8.25091e-05 -0.000577863
0.0020529 9.73724e-06 -3.65434e-06
9.73724e-06 0.000419879 2.49166e-05
-3.65434e-06 2.49166e-05 -0.000171604
0.00241679 2.91437e-06 1.38271e-05
2.91437e-06 0.000870571 -4.84596e-05
1.38271e-05 -4.84596e-05 0.000245947
0.00258419 -3.14293e-05 -9.31917e-06
-3.14293e-05 -0.00272077 6.9521e-07
-9.31917e-06 6.9521e-07 -0.000860607
0.0033474 -0.000640403 -2.63451e-05
-0.000640403 0.000715027 5.42752e-05
-2.63451e-05 5.42752e-05 -0.00015177
-0.0012267 -0.000417087 4.14358e-05
-0.000417087 -0.000874543 1.01199e-05
4.14358e-05 1.01199e-05 -0.00322276
0.00531071 0.000649187 4.14586e-05
0.000649187 0.00286411 -2.64764e-05
4.14586e-05 -2.64764e-05 0.00179798
0.00464134 -0.000740666 -1.56761e-05
-0.000740666 0.00105345 3.35334e-06
-1.56761e-05 3.35334e-06 0.000302563
0.000609863 -0.00030092 4.18892e-05
-0.00030092 0.000291005 -1.12999e-05
4.18892e-05 -1.12999e-05 -0.00224608
0.00365579 -5.29789e-05 -2.83175e-05
-5.29789e-05 0.00170914 1.82458e-06
-2.83175e-05 1.82458e-06 0.00118537
0.00597444 -0.000446219 -1.56071e-05
-0.000446219 0.000593071 -2.20431e-05
-1.56071e-05 -2.20431e-05 0.00177721
0.0025248 -0.000135413 -3.31977e-05
-0.000135413 -5.06924e-05 2.09569e-05
-3.31977e-05 2.09569e-05 1.60434e-05
0.00042633 0.000110665 3.11628e-05
0.000110665 -0.000180057 -6.41409e-05
3.11628e-05 -6.41409e-05 -0.00234358
-0.00539093 -0.000562117 3.6431e-05
-0.000562117 -0.00380254 -1.98052e-05
3.6431e-05 -1.98052e-05 -0.00469789
0.00131284 -0.000457561 1.82733e-05
-0.000457561 -0.00169675 -5.85014e-05
1.82733e-05 -5.85014e-05 -0.000428115
0.000873837 -2.799e-05 -6.33162e-07
-2.799e-05 0.00010943 1.82035e-06
-6.33162e-07 1.82035e-06 2.91059e-05
0.000798442 1.75386e-05 1.5395e-07
1.75386e-05 6.81662e-05 7.91199e-08
1.5395e-07 7.91199e-08 -2.80971e-05
0.000789428 4.97109e-06 -5.3503e-07
4.97109e-06 8.10472e-05 -1.1545e-06
-5.3503e-07 -1.1545e-06 -2.72126e-05
0.000839611 2.80793e-05 -1.03439e-07
2.80793e-05 9.69378e-05 -1.35484e-06
-1.03439e-07 -1.35484e-06 1.37674e-06
0.00130314 -0.000300483 5.69406e-07
-0.000300483 8.98273e-05 1.78778e-05
5.69406e-07 1.78778e-05 3.12425e-05
0.000428918 -1.66595e-05 -3.72522e-06
-1.66595e-05 0.000163287 -1.39673e-05
-3.72522e-06 -1.39673e-05 6.554e-05
0.000746528 -1.26985e-05 -2.3606e-07
-1.26985e-05 2.69517e-05 -1.94772e-06
-2.3606e-07 -1.94772e-06 -6.34373e-05
0.000921978 8.32664e-05 -4.6375e-07
8.32664e-05 0.000162138 -1.40683e-06
-4.6375e-07 -1.40683e-06 5.64175e-05
0.00168926 -4.16025e-05 9.47838e-06
-4.16025e-05 0.000595833 -1.41417e-05
9.47838e-06 -1.41417e-05 0.000495501
0.00081549 1.33032e-05 -5.45911e-07
1.33032e-05 8.24512e-05 -7.35776e-08
-5.45911e-07 -7.35776e-08 -3.75397e-06
0.000766155 1.25572e-05 -6.75118e-07
1.25572e-05 0.000100616 -1.05897e-06
-6.75118e-07 -1.05897e-06 1.79336e-05
-0.000630055 -1.10286e-05 -1.15877e-05
-1.10286e-05 -0.00031703 -1.03784e-05
-1.15877e-05 -1.03784e-05 -0.000672958
0.00101726 -3.38675e-05 8.71355e-06
-3.38675e-05 0.000457827 6.55764e-07
8.71355e-06 6.55764e-07 0.000416607
0.000680339 9.00217e-06 2.48159e-06
9.00217e-06 5.14116e-05 5.67218e-07
2.48159e-06 5.67218e-07 -2.63422e-05
0.000703414 -2.36832e-06 -1.72048e-05
-2.36832e-06 0.000880839 -5.24871e-05
-1.72048e-05 -5.24871e-05 -8.73942e-05
0.00214559 1.18135e-05 3.82729e-06
1.18135e-05 0.00101654 1.46086e-05
3.82729e-06 1.46086e-05 0.00093725
0.00143113 -1.46196e-05 1.68836e-05
-1.46196e-05 0.000289611 8.51164e-07
1.68836e-05 8.51164e-07 0.000123802
0.00121278 -1.08658e-05 -5.14706e-07
-1.08658e-05 5.89541e-05 -1.17318e-07
-5.14706e-07 -1.17318e-07 -2.32146e-05
0.000933695 -9.67351e-06 3.79301e-06
-9.67351e-06 3.60319e-05 -1.99845e-06
3.79301e-06 -1.99845e-06 -9.08071e-05
0.000431858 7.10522e-05 9.06202e-06
7.10522e-05 0.00022451 7.47855e-06
9.06202e-06 7.47855e-06 0.00012422
0.00115488 0.00017473 -4.91059e-05
0.00017473 -0.000106018 2.12786e-05
-4.91059e-05 2.12786e-05 -0.000138397
0.00113911 -8.4687e-06 7.31106e-06
-8.4687e-06 8.58148e-06 4.60925e-06
7.31106e-06 4.60925e-06 -0.000135713
0.00329328 -0.000386043 0.000136176
-0.000386043 0.00216542 -0.000118395
0.000136176 -0.000118395 -0.000868711
0.00592386 0.000697319 -3.48084e-05
0.000697319 0.00271765 2.57125e-05
-3.48084e-05 2.57125e-05 0.00185053
0.00246362 -3.49047e-06 -1.50388e-05
-3.49047e-06 0.000833089 4.92632e-05
-1.50388e-05 4.92632e-05 0.000229786
0.00345937 0.000626081 -2.16229e-05
0.000626081 -0.000460473 6.1976e-06
-2.16229e-05 6.1976e-06 0.000503791
-0.000533068 -4.13082e-06 1.70161e-05
-4.13082e-06 -1.78934e-05 9.04824e-07
1.70161e-05 9.04824e-07 -0.000320291
0.00138664 1.73765e-05 4.67338e-06
1.73765e-05 0.000259696 -6.61558e-07
4.67338e-06 -6.61558e-07 4.20427e-05
0.00256978 -3.15735e-05 2.69937e-05
-3.15735e-05 0.000456292 -3.06261e-06
2.69937e-05 -3.06261e-06 -0.000392138
0.00119111 -9.51549e-05 -1.33416e-05
-9.51549e-05 -0.000634805 2.55456e-05
-1.33416e-05 2.55456e-05 -0.000370402
-0.00110465 0.000846418 2.54092e-05
0.000846418 -0.00110861 -8.69364e-06
2.54092e-05 -8.69364e-06 0.00034286
0.00505043 0.000579652 -1.0168e-05
0.000579652 0.000410594 2.95306e-05
-1.0168e-05 2.95306e-05 0.000658539
-0.000680591 -0.000480767 5.00878e-05
-0.000480767 -0.00013895 -3.20435e-05
5.00878e-05 -3.20435e-05 -0.00333803
0.000808472 -2.43634e-05 4.74163e-05
-2.43634e-05 0.000321593 -8.32501e-06
4.74163e-05 -8.32501e-06 0.00025065
0.00106734 -1.14386e-05 5.41338e-05
-1.14386e-05 -0.000118124 -2.31557e-05
5.41338e-05 -2.31557e-05 -0.000662745
-0.00138773 0.000221201 -4.93353e-05
0.000221201 -1.91854e-05 -2.09697e-05
-4.93353e-05 -2.09697e-05 -0.000355477
-2.76787e-05 0.000663324 -3.77974e-05
0.000663324 -0.000501303 7.25207e-05
-3.77974e-05 7.25207e-05 -4.36325e-05
0.00793113 4.60182e-05 1.60093e-05
4.60182e-05 0.00350229 -3.07787e-05
1.60093e-05 -3.07787e-05 0.00101077
0.00282438 -0.000301384 -7.54056e-05
-0.000301384 0.00026649 7.6175e-05
-7.54056e-05 7.6175e-05 -3.77385e-05
6.64707e-05 -2.64878e-05 -1.03057e-05
-2.64878e-05 -1.57068e-05 1.05539e-05
-1.03057e-05 1.05539e-05 -0.000116131
0.000148373 -6.31061e-05 4.10148e-07
-6.31061e-05 0.000139217 -4.89858e-07
4.10148e-07 -4.89858e-07 -4.3237e-05
0.00109496 -0.000184305 1.91493e-05
-0.000184305 0.000408013 -8.45048e-06
1.91493e-05 -8.45048e-06 0.000282242
0.000452449 7.88477e-06 -4.01349e-06
7.88477e-06 6.78175e-05 3.85401e-06
-4.01349e-06 3.85401e-06 -3.15176e-05
-0.000161882 -8.96205e-05 9.10028e-07
-8.96205e-05 -0.000190935 -3.27381e-06
9.10028e-07 -3.27381e-06 -0.000428257
0.00166176 -0.000262696 1.80526e-05
-0.000262696 0.000459666 -3.71697e-06
1.80526e-05 -3.71697e-06 0.000235259
0.00234337 -0.00026077 -4.88056e-06
-0.00026077 0.00095387 8.33119e-07
-4.88056e-06 8.33119e-07 0.000764277
0.00153762 -0.000214224 1.73265e-06
-0.000214224 0.000517864 1.03002e-06
1.73265e-06 1.03002e-06 0.000240146
0.000868853 -0.000217223 4.11976e-06
-0.000217223 -4.02116e-05 -4.38105e-06
4.11976e-06 -4.38105e-06 -0.000295092
0.00111599 -0.000171313 -4.15255e-06
-0.000171313 0.000236564 1.07038e-07
-4.15255e-06 1.07038e-07 2.89489e-05
0.00190096 -0.000259385 1.30991e-06
-0.000259385 0.000562539 3.37156e-08
1.30991e-06 3.37156e-08 0.000316918
0.00148692 -0.000251398 2.03294e-06
-0.000251398 0.000176871 -3.96205e-06
2.03294e-06 -3.96205e-06 -4.72122e-05
0.00160047 -0.000240674 6.32042e-07
-0.000240674 0.000157417 -1.89916e-06
6.32042e-07 -1.89916e-06 -2.1214e-05
0.00218195 -0.000269807 -4.58595e-06
-0.000269807 0.0006464 4.87653e-06
-4.58595e-06 4.87653e-06 0.000434971
0.00162759 -0.000245232 -1.1114e-06
-0.000245232 0.000299719 -2.97245e-07
-1.1114e-06 -2.97245e-07 7.81106e-05
0.000464195 -0.000125324 2.73134e-06
-0.000125324 -0.000156321 -1.76782e-07
2.73134e-06 -1.76782e-07 -0.000311443
0.000935926 -0.000159735 1.77772e-06
-0.000159735 9.18915e-05 -1.40938e-07
1.77772e-06 -1.40938e-07 -8.08446e-05
0.0013797 -0.000200705 -1.2331e-06
-0.000200705 0.000307823 -1.47331e-06
-1.2331e-06 -1.47331e-06 0.000105115
0.00108752 -0.000150008 1.14756e-06
-0.000150008 0.000242955 -7.70451e-08
1.14756e-06 -7.70451e-08 9.57641e-05
0.00110675 -0.000157085 -9.45143e-07
-0.000157085 0.000246255 -9.59282e-07
-9.45143e-07 -9.59282e-07 9.45631e-05
0.000793779 -0.000136117 2.80519e-06
-0.000136117 6.77921e-05 -2.09344e-06
2.80519e-06 -2.09344e-06 -7.75748e-05
0.000714651 7.84794e-06 1.31906e-06
7.84794e-06 4.28039e-05 1.33434e-06
1.31906e-06 1.33434e-06 -5.93577e-05
0.000765991 -5.67116e-05 1.45222e-07
-5.67116e-05 8.31094e-05 7.13808e-07
1.45222e-07 7.13808e-07 -3.85027e-05
0.00121619 -0.000140709 1.44863e-06
-0.000140709 0.000341834 -1.26421e-06
1.44863e-06 -1.26421e-06 0.000197748
0.000664049 7.18549e-05 2.45754e-07
7.18549e-05 5.17637e-06 2.0743e-06
2.45754e-07 2.0743e-06 -5.29933e-05
0.000766127 1.89047e-05 -3.1198e-07
1.89047e-05 6.32112e-05 -1.93008e-07
-3.1198e-07 -1.93008e-07 -2.08709e-05
0.000918876 -4.88037e-05 -3.49147e-07
-4.88037e-05 0.000157956 -7.59123e-07
-3.49147e-07 -7.59123e-07 5.29333e-05
0.000626662 5.07708e-05 -2.23994e-06
5.07708e-05 -2.74087e-05 4.80198e-06
-2.23994e-06 4.80198e-06 -4.38866e-05
0.000698553 5.31791e-05 -2.8138e-07
5.31791e-05 1.1472e-05 -1.7927e-07
-2.8138e-07 -1.7927e-07 -3.52749e-05
0.000795724 4.59138e-07 1.31762e-07
4.59138e-07 6.70862e-05 -1.25028e-06
1.31762e-07 -1.25028e-06 -1.80153e-06
0.000717588 4.11626e-05 1.03842e-06
4.11626e-05 1.25255e-05 -1.64799e-06
1.03842e-06 -1.64799e-06 -2.91796e-05
0.000650737 4.6293e-05 1.07631e-08
4.6293e-05 -2.30234e-05 -7.34314e-09
1.07631e-08 -7.34314e-09 -3.69604e-05
0.00213364 6.72614e-05 -2.51616e-05
6.72614e-05 0.000819527 3.30137e-06
-2.51616e-05 3.30137e-06 0.000831483
0.000665829 4.08935e-05 1.09014e-06
4.08935e-05 -2.32676e-05 -3.42073e-06
1.09014e-06 -3.42073e-06 -3.50462e-05
0.0021482 5.93463e-05 1.72348e-06
5.93463e-05 0.000820296 1.19105e-07
1.72348e-06 1.19105e-07 0.000834079
0.00216727 5.11055e-05 1.95693e-05
5.11055e-05 0.000824347 -3.73794e-06
1.95693e-05 -3.73794e-06 0.000839695
0.000802537 1.18009e-05 1.9539e-09
1.18009e-05 7.43463e-05 -4.58693e-07
1.9539e-09 -4.58693e-07 -9.31806e-06
0.000799574 4.43485e-05 -8.89818e-07
4.43485e-05 6.83975e-05 -8.67362e-07
-8.89818e-07 -8.67362e-07 -7.7222e-06
0.000716401 -1.81267e-05 -8.1953e-07
-1.81267e-05 7.12685e-07 -1.83026e-06
-8.1953e-07 -1.83026e-06 -4.43795e-05
0.000784037 3.71901e-05 -8.29462e-08
3.71901e-05 5.26364e-05 -5.78743e-09
-8.29462e-08 -5.78743e-09 -1.69504e-05
0.000656908 -3.25509e-05 -2.92649e-07
-3.25509e-05 -3.69886e-05 -3.82245e-06
-2.92649e-07 -3.82245e-06 -4.94347e-05
0.000722915 -1.0991e-05 -1.18342e-07
-1.0991e-05 4.03537e-06 -2.00114e-08
-1.18342e-07 -2.00114e-08 -3.86856e-05
0.000750746 2.34461e-05 -3.12516e-07
2.34461e-05 3.19339e-05 9.66367e-08
-3.12516e-07 9.66367e-08 -3.38252e-05
0.0022448 -4.1593e-05 -1.70252e-05
-4.1593e-05 0.000859711 -4.28162e-06
-1.70252e-05 -4.28162e-06 0.000876258
0.000670426 -2.56199e-05 -1.73867e-07
-2.56199e-05 -3.49806e-05 -1.79618e-08
-1.73867e-07 -1.79618e-08 -4.45561e-05
0.000709693 -7.71119e-06 -1.75215e-07
-7.71119e-06 -3.81698e-06 1.10585e-06
-1.75215e-07 1.10585e-06 -4.40506e-05
0.00216439 -3.0517e-05 -2.81431e-06
-3.0517e-05 0.000809193 8.51833e-08
-2.81431e-06 8.51833e-08 0.000827778
0.000678484 -1.88133e-05 2.52e-07
-1.88133e-05 -3.47099e-05 3.53933e-06
2.52e-07 3.53933e-06 -4.17734e-05
0.00210159 -1.93436e-05 8.32043e-06
-1.93436e-05 0.000769945 4.49411e-06
8.32043e-06 4.49411e-06 0.000790097
0.00110914 -4.33747e-05 1.26073e-05
-4.33747e-05 0.000116712 2.31403e-05
1.26073e-05 2.31403e-05 -0.000139889
0.00130087 -9.548e-06 -5.62022e-06
-9.548e-06 0.000110846 9.05424e-06
-5.62022e-06 9.05424e-06 -7.88481e-05
0.00134474 1.1271e-05 9.46994e-06
1.1271e-05 0.000231452 -1.34404e-05
9.46994e-06 -1.34404e-05 -7.49284e-06
0.000785894 9.10573e-06 -2.20571e-07
9.10573e-06 5.96063e-05 -6.42621e-08
-2.20571e-07 -6.42621e-08 -2.10845e-05
0.000791203 -1.47114e-05 -1.65669e-07
-1.47114e-05 6.43504e-05 2.52696e-07
-1.65669e-07 2.52696e-07 -1.79535e-05
0.000762607 -1.72212e-05 -4.77106e-07
-1.72212e-05 5.08643e-05 -1.49089e-06
-4.77106e-07 -1.49089e-06 -3.53154e-05
0.000689986 -2.92583e-05 -2.51436e-07
-2.92583e-05 6.32511e-06 -6.23294e-07
-2.51436e-07 -6.23294e-07 -7.44581e-05
0.00096283 5.8243e-05 -8.95716e-07
5.8243e-05 0.000170435 -7.55163e-08
-8.95716e-07 -7.55163e-08 7.64383e-05
0.000756659 -2.58685e-05 -8.55308e-08
-2.58685e-05 3.40345e-05 -2.28768e-07
-8.55308e-08 -2.28768e-07 -4.09026e-05
0.000753676 -4.97473e-06 5.03543e-07
-4.97473e-06 4.03095e-05 -8.35091e-07
5.03543e-07 -8.35091e-07 -4.53399e-05
0.000821606 1.41326e-05 -9.49729e-08
1.41326e-05 8.26334e-05 -4.2983e-08
-9.49729e-08 -4.2983e-08 -2.03563e-06
0.000881398 4.34469e-05 3.07844e-08
4.34469e-05 0.000114831 1.67789e-07
3.07844e-08 1.67789e-07 2.30914e-05
0.000943928 1.68262e-05 -2.23654e-07
1.68262e-05 0.000161789 5.64895e-07
-2.23654e-07 5.64895e-07 7.22639e-05
0.0019655 1.7632e-06 7.51083e-05
1.7632e-06 0.000451052 9.26557e-05
7.51083e-05 9.26557e-05 -0.000431609
0.00143431 2.68505e-05 5.12879e-06
2.68505e-05 0.000226538 2.23601e-05
5.12879e-06 2.23601e-05 -0.000558945
0.0023937 1.91413e-05 -7.11864e-06
1.91413e-05 0.00075053 -2.04557e-05
-7.11864e-06 -2.04557e-05 0.00029415
0.00576044 -0.000404648 -2.98302e-05
-0.000404648 0.000666771 -5.79709e-05
-2.98302e-05 -5.79709e-05 0.00188462
-0.00833248 0.000259215 -3.79232e-05
0.000259215 -0.0033403 6.42088e-05
-3.79232e-05 6.42088e-05 -0.00437324
0.00424796 -0.000710737 -7.28512e-05
-0.000710737 0.00112424 5.22465e-05
-7.28512e-05 5.22465e-05 0.000352411
0.00765319 -0.0002338 -1.04613e-05
-0.0002338 0.00264197 -4.66903e-05
-1.04613e-05 -4.66903e-05 0.000632474
0.00339403 -0.000257952 -4.04203e-05
-0.000257952 0.00040782 4.37319e-05
-4.04203e-05 4.37319e-05 0.000109973
0.00982468 -0.000200609 5.69812e-05
-0.000200609 0.00425812 -1.55218e-05
5.69812e-05 -1.55218e-05 0.00168814
0.000833471 -0.000342942 2.51713e-05
-0.000342942 -0.000554025 7.67274e-06
2.51713e-05 7.67274e-06 -0.000951429
0.00120328 -0.000528694 -4.16729e-05
-0.000528694 -0.00188518 -9.45663e-05
-4.16729e-05 -9.45663e-05 -0.000569089
0.0046925 6.27804e-05 -0.000107437
6.27804e-05 0.000967008 -1.45714e-05
-0.000107437 -1.45714e-05 0.000699224
0.00792508 -6.30707e-05 -1.5556e-05
-6.30707e-05 0.00285951 4.37791e-05
-1.5556e-05 4.37791e-05 0.00102723
0.00776554 -0.00100919 -9.54705e-06
-0.00100919 0.00213754 -4.75843e-05
-9.54705e-06 -4.75843e-05 0.00224732
0.00348808 -0.000821484 1.96834e-05
-0.000821484 0.000336464 1.24104e-06
1.96834e-05 1.24104e-06 0.00181314
0.000613302 2.891e-05 2.16673e-06
2.891e-05 1.37614e-05 1.64086e-06
2.16673e-06 1.64086e-06 -5.44013e-05
0.000916017 -2.46898e-05 -4.47608e-08
-2.46898e-05 0.000138631 6.10597e-07
-4.47608e-08 6.10597e-07 5.59062e-05
0.000802251 1.66804e-05 -7.65437e-08
1.66804e-05 6.82853e-05 -1.12175e-06
-7.65437e-08 -1.12175e-06 -2.64191e-05
0.000254814 2.89586e-05 -3.05364e-05
2.89586e-05 9.25582e-05 1.858e-05
-3.05364e-05 1.858e-05 -0.000305264
0.0010863 -6.35783e-05 -3.5063e-05
-6.35783e-05 0.000513349 -9.62035e-06
-3.5063e-05 -9.62035e-06 0.000486469
0.000726857 -9.53145e-06 -8.42041e-07
-9.53145e-06 3.50885e-05 -4.92774e-07
-8.42041e-07 -4.92774e-07 -5.2744e-05
0.000424899 -2.10984e-05 -2.2674e-07
-2.10984e-05 -8.87994e-05 -5.28109e-06
-2.2674e-07 -5.28109e-06 -0.000166005
0.000726813 1.19569e-05 -2.93417e-07
1.19569e-05 8.05065e-05 -1.65869e-06
-2.93417e-07 -1.65869e-06 9.79988e-07
0.000385179 8.91379e-07 -2.23466e-06
8.91379e-07 8.04004e-05 4.26885e-06
-2.23466e-06 4.26885e-06 -1.81605e-06
4.27727e-07 -1.80252e-05 5.13807e-05
-1.80252e-05 0.000550184 -3.47897e-05
5.13807e-05 -3.47897e-05 -0.000400397
-0.000835474 -1.35543e-05 -9.91841e-06
-1.35543e-05 -0.000595766 8.93347e-06
-9.91841e-06 8.93347e-06 -0.000681847
0.00115349 0.00013114 -8.27364e-06
0.00013114 0.000549037 -3.19858e-05
-8.27364e-06 -3.19858e-05 2.19607e-07
0.0014511 -3.45714e-06 5.77851e-05
-3.45714e-06 0.000188967 7.38057e-06
5.77851e-05 7.38057e-06 -0.000326959
0.00116542 -1.25229e-05 8.48064e-06
-1.25229e-05 0.000148411 2.20453e-06
8.48064e-06 2.20453e-06 1.97334e-06
0.000769911 -1.00175e-05 1.18828e-06
-1.00175e-05 -0.000157966 -4.86092e-07
1.18828e-06 -4.86092e-07 -0.000222083
-0.00151677 -4.06977e-05 -3.66076e-05
-4.06977e-05 -0.000443094 1.21795e-05
-3.66076e-05 1.21795e-05 -0.000823598
0.00276376 2.54152e-05 -2.09738e-09
2.54152e-05 5.24904e-05 -3.83057e-05
-2.09738e-09 -3.83057e-05 -0.00010529
0.00138567 1.06961e-05 -6.29784e-06
1.06961e-05 0.00024175 1.30262e-05
-6.29784e-06 1.30262e-05 2.20219e-05
0.0131937 -0.000420085 0.000101235
-0.000420085 0.00575094 -9.87529e-06
0.000101235 -9.87529e-06 0.00314883
0.005488 0.000712187 -4.35422e-05
0.000712187 0.00142582 -5.82789e-07
-4.35422e-05 -5.82789e-07 0.00135123
0.00275769 -4.61088e-05 -4.63544e-05
-4.61088e-05 0.000612994 6.16991e-05
-4.63544e-05 6.16991e-05 -0.000292146
-0.00469961 0.000910359 0.000115535
0.000910359 -0.00328612 -0.00011318
0.000115535 -0.00011318 -0.00142622
0.00056551 -3.66631e-05 -8.16644e-06
-3.66631e-05 0.000243995 -9.16696e-07
-8.16644e-06 -9.16696e-07 0.000139036
0.00151045 -6.68598e-06 -9.07681e-06
-6.68598e-06 0.00015709 2.93728e-06
-9.07681e-06 2.93728e-06 -0.000385596
-0.00187403 0.000259039 -0.000101841
0.000259039 -4.62965e-05 4.36152e-05
-0.000101841 4.36152e-05 -0.0002789
0.00185362 -0.000290309 -2.52928e-05
-0.000290309 -0.000188784 2.99116e-05
-2.52928e-05 2.99116e-05 -0.000399317
0.00706634 0.00105586 2.41293e-05
0.00105586 0.00243084 2.30113e-05
2.41293e-05 2.30113e-05 0.00292112
0.0069455 -0.000341079 5.32031e-05
-0.000341079 0.0027115 -3.02871e-05
5.32031e-05 -3.02871e-05 0.000469355
0.00158586 -0.000207178 1.52951e-05
-0.000207178 0.000283264 1.91081e-05
1.52951e-05 1.91081e-05 0.000445647
-0.00194447 1.34119e-05 4.12218e-05
1.34119e-05 0.000119285 -9.65371e-06
4.12218e-05 -9.65371e-06 -0.000651748
0.00372428 0.000744006 -7.98665e-05
0.000744006 0.00188375 3.7362e-05
-7.98665e-05 3.7362e-05 0.0019802
0.00328894 1.24186e-05 -9.35204e-05
1.24186e-05 0.000900463 7.43913e-05
-9.35204e-05 7.43913e-05 -0.00139431
0.00273385 -0.000636915 2.88724e-05
-0.000636915 0.000234354 -1.72243e-06
2.88724e-05 -1.72243e-06 -0.00034306
0.000415871 -2.46415e-05 7.54639e-06
-2.46415e-05 0.000285957 1.0893e-05
7.54639e-06 1.0893e-05 0.000117036
0.000494389 -0.000164746 -2.41851e-06
-0.000164746 0.000108926 1.29046e-06
-2.41851e-06 1.29046e-06 -4.57128e-05
0.00268933 -0.000310434 2.24929e-05
-0.000310434 0.000814587 8.60481e-07
2.24929e-05 8.60481e-07 0.000784195
-0.00155241 -1.66111e-05 -6.1155e-06
-1.66111e-05 -0.000900808 6.95525e-06
-6.1155e-06 6.95525e-06 -0.0011455
0.000781573 -0.000195149 4.68451e-06
-0.000195149 3.80874e-05 -4.87544e-07
4.68451e-06 -4.87544e-07 -0.000191685
0.000840416 -0.000258713 5.25637e-06
-0.000258713 -0.000239086 -2.03563e-06
5.25637e-06 -2.03563e-06 -0.000408505
0.00202361 -0.000242711 -6.21962e-06
-0.000242711 0.000746994 1.49151e-06
-6.21962e-06 1.49151e-06 0.000481287
0.00118139 -0.000234473 -2.79939e-06
-0.000234473 0.000116275 -2.37221e-06
-2.79939e-06 -2.37221e-06 -0.000127664
0.00158639 -0.000293306 5.216e-06
-0.000293306 0.000110894 -2.21368e-06
5.216e-06 -2.21368e-06 -5.93192e-05
0.00179798 -0.000250627 -2.70983e-06
-0.000250627 0.000500224 -8.31752e-07
-2.70983e-06 -8.31752e-07 0.000254461
0.00153548 -0.000252902 -5.86996e-08
-0.000252902 0.000196597 -2.1163e-06
-5.86996e-08 -2.1163e-06 -2.12944e-05
0.00174355 -0.000258442 8.98341e-07
-0.000258442 0.000161041 -3.33751e-06
8.98341e-07 -3.33751e-06 8.56053e-07
0.00159502 -0.000208992 5.16202e-08
-0.000208992 0.000104035 -2.21005e-06
5.16202e-08 -2.21005e-06 -4.51911e-05
0.00153453 -0.00022993 -3.02453e-08
-0.00022993 0.000180577 -9.22013e-07
-3.02453e-08 -9.22013e-07 -1.08717e-05
0.00154124 -0.000235947 1.46239e-06
-0.000235947 0.000126613 -9.30345e-08
1.46239e-06 -9.30345e-08 -5.09257e-05
0.00155633 -0.000214167 -1.41519e-06
-0.000214167 0.000356523 4.70248e-06
-1.41519e-06 4.70248e-06 0.000166785
0.00149027 -0.000224309 -8.97358e-08
-0.000224309 0.000275922 2.74242e-07
-8.97358e-08 2.74242e-07 6.29983e-05
0.00153179 -0.0002396 -8.11293e-07
-0.0002396 0.000244506 -1.82475e-06
-8.11293e-07 -1.82475e-06 1.84252e-05
0.00099603 -0.000154186 1.4701e-06
-0.000154186 0.000149492 -1.23049e-06
1.4701e-06 -1.23049e-06 8.51745e-07
0.000638052 -0.000135612 -4.24054e-07
-0.000135612 -5.60341e-05 -1.90499e-06
-4.24054e-07 -1.90499e-06 -0.000207496
0.00129589 -0.000183429 4.15506e-06
-0.000183429 0.000288568 -4.55545e-06
4.15506e-06 -4.55545e-06 0.000120531
0.000812873 -8.20916e-05 4.00724e-07
-8.20916e-05 8.31197e-05 1.25651e-06
4.00724e-07 1.25651e-06 -3.76641e-05
0.000886011 -0.000127142 2.54282e-07
-0.000127142 0.000132296 4.9372e-07
2.54282e-07 4.9372e-07 -1.13878e-05
0.000861763 -0.00013811 -7.30407e-07
-0.00013811 0.00011306 1.16302e-06
-7.30407e-07 1.16302e-06 -3.77039e-05
0.000656231 7.99965e-05 1.60708e-06
7.99965e-05 8.22172e-06 3.11335e-06
1.60708e-06 3.11335e-06 -6.53709e-05
0.000805225 -1.39913e-05 1.18813e-07
-1.39913e-05 9.54645e-05 -9.82042e-08
1.18813e-07 -9.82042e-08 -1.04107e-05
0.000886185 -7.46166e-05 -1.06915e-06
-7.46166e-05 0.000151285 6.08032e-08
-1.06915e-06 6.08032e-08 2.96687e-05
0.00130834 7.17774e-05 -1.37985e-05
7.17774e-05 0.000367761 3.05067e-06
-1.37985e-05 3.05067e-06 0.000349787
0.000679091 5.06155e-05 -5.32047e-07
5.06155e-05 8.64712e-06 -4.35252e-07
-5.32047e-07 -4.35252e-07 -4.68989e-05
0.000799422 -1.49195e-05 5.70867e-08
-1.49195e-05 8.30008e-05 -1.56921e-06
5.70867e-08 -1.56921e-06 -3.49985e-06
0.000787057 4.07373e-05 -2.40254e-05
4.07373e-05 6.97918e-05 3.24615e-06
-2.40254e-05 3.24615e-06 7.41418e-05
0.0010052 6.00358e-05 -6.66042e-06
6.00358e-05 0.000186294 2.56049e-07
-6.66042e-06 2.56049e-07 0.00017083
0.00070208 4.91859e-05 2.57025e-07
4.91859e-05 1.27441e-05 -1.95359e-06
2.57025e-07 -1.95359e-06 -3.36399e-05
0.000668965 4.77564e-05 1.06033e-06
4.77564e-05 -1.273e-05 -3.45306e-06
1.06033e-06 -3.45306e-06 -2.68439e-05
0.00215745 6.8362e-05 1.44733e-06
6.8362e-05 0.000833937 1.23239e-07
1.44733e-06 1.23239e-07 0.000845576
0.00216074 6.02174e-05 2.29087e-05
6.02174e-05 0.000828352 -3.4434e-06
2.29087e-05 -3.4434e-06 0.000841915
0.000740545 -8.8292e-06 1.42721e-07
-8.8292e-06 3.62713e-05 -9.9538e-07
1.42721e-07 -9.9538e-07 -4.7713e-05
0.000801257 2.65138e-05 -4.33127e-07
2.65138e-05 6.84759e-05 -1.33328e-06
-4.33127e-07 -1.33328e-06 -8.34744e-06
0.00078022 -1.14238e-05 1.29504e-07
-1.14238e-05 5.80783e-05 -7.1666e-08
1.29504e-07 -7.1666e-08 -2.29111e-05
0.000718799 -2.96154e-05 -9.4949e-07
-2.96154e-05 5.51678e-06 -2.03576e-06
-9.4949e-07 -2.03576e-06 -4.20194e-05
0.000787157 1.60666e-05 6.8322e-07
1.60666e-05 5.51526e-05 -4.04726e-08
6.8322e-07 -4.04726e-08 -1.61046e-05
0.000645085 -3.87091e-05 -4.32375e-07
-3.87091e-05 -3.74208e-05 -3.97607e-06
-4.32375e-07 -3.97607e-06 -5.2624e-05
0.000717945 -1.48382e-05 -1.58256e-07
-1.48382e-05 2.4055e-06 -4.04735e-09
-1.58256e-07 -4.04735e-09 -4.28452e-05
0.000801258 4.763e-05 9.13822e-07
4.763e-05 7.0894e-05 7.25984e-07
9.13822e-07 7.25984e-07 -4.61085e-06
0.00231661 -5.15629e-05 -2.17667e-05
-5.15629e-05 0.000905718 -4.10955e-06
-2.17667e-05 -4.10955e-06 0.000920268
0.000657548 -3.18514e-05 -3.0194e-07
-3.18514e-05 -3.67707e-05 -8.24369e-09
-3.0194e-07 -8.24369e-09 -4.91012e-05
0.000729645 -1.12771e-05 3.87282e-07
-1.12771e-05 8.31552e-06 1.86394e-06
3.87282e-07 1.86394e-06 -3.4524e-05
0.00222745 -4.08363e-05 -2.64807e-06
-4.08363e-05 0.000849316 1.10229e-07
-2.64807e-06 1.10229e-07 0.000866132
0.000669191 -2.51287e-05 2.6684e-07
-2.51287e-05 -3.56993e-05 3.63991e-06
2.6684e-07 3.63991e-06 -4.51899e-05
0.00214996 -2.9629e-05 1.21565e-05
-2.9629e-05 0.000800493 4.41337e-06
1.21565e-05 4.41337e-06 0.000819324
0.00214786 -4.76882e-05 5.69738e-05
-4.76882e-05 0.000537646 3.10277e-05
5.69738e-05 3.10277e-05 6.96679e-05
0.00118212 -3.91066e-05 6.4745e-07
-3.91066e-05 0.00016001 7.48665e-06
6.4745e-07 7.48665e-06 -8.60612e-05
0.0011113 -1.29152e-05 -5.03572e-06
-1.29152e-05 1.62786e-05 -5.51985e-06
-5.03572e-06 -5.51985e-06 -0.000150352
0.000862206 5.93917e-05 -1.52459e-06
5.93917e-05 0.000117585 -4.83345e-07
-1.52459e-06 -4.83345e-07 2.16385e-05
0.000849709 6.06332e-06 1.89607e-07
6.06332e-06 9.43975e-05 8.86057e-08
1.89607e-07 8.86057e-08 1.44419e-05
0.000758749 -2.39726e-05 1.4362e-07
-2.39726e-05 4.61974e-05 3.88065e-07
1.4362e-07 3.88065e-07 -3.63218e-05
0.000839446 -1.65255e-05 9.19703e-08
-1.65255e-05 8.63659e-05 -1.27712e-07
9.19703e-08 -1.27712e-07 6.94825e-06
0.000874476 1.40384e-05 8.86935e-08
1.40384e-05 0.000113806 -2.87779e-07
8.86935e-08 -2.87779e-07 2.59009e-05
0.000849496 4.03356e-05 2.31713e-07
4.03356e-05 0.000105979 6.63937e-07
2.31713e-07 6.63937e-07 1.36339e-05
0.000863301 2.73666e-05 -4.99161e-07
2.73666e-05 0.000115048 -1.44135e-06
-4.99161e-07 -1.44135e-06 1.77453e-05
0.000606383 -2.289e-05 1.69513e-07
-2.289e-05 -3.18111e-05 -9.16057e-08
1.69513e-07 -9.16057e-08 -0.000119002
0.0008253 6.51149e-05 2.71019e-07
6.51149e-05 8.76419e-05 -4.75954e-07
2.71019e-07 -4.75954e-07 7.54084e-07
0.00083601 -3.74992e-05 8.11405e-07
-3.74992e-05 7.55024e-05 -7.43781e-07
8.11405e-07 -7.43781e-07 -6.297e-06
0.000842303 1.24061e-05 -1.86245e-07
1.24061e-05 0.000101299 1.26412e-07
-1.86245e-07 1.26412e-07 1.51356e-05
0.00132464 3.56217e-05 4.36323e-06
3.56217e-05 0.0003946 2.26487e-06
4.36323e-06 2.26487e-06 0.000310789
0.0011655 -0.000377406 6.43104e-05
-0.000377406 0.00100394 6.60816e-05
6.43104e-05 6.60816e-05 0.000836013
0.00222023 1.6599e-05 4.7079e-06
1.6599e-05 0.000579844 2.08184e-05
4.7079e-06 2.08184e-05 -0.000337552
0.00165688 3.52657e-05 -1.28024e-05
3.52657e-05 0.000266252 -3.75137e-05
-1.28024e-05 -3.75137e-05 -0.000526939
0.00506734 -0.000684935 -8.31982e-05
-0.000684935 0.000142911 -7.22723e-05
-8.31982e-05 -7.22723e-05 0.00155048
0.00377732 -0.000237527 -4.41638e-06
-0.000237527 0.00036503 3.04614e-05
-4.41638e-06 3.04614e-05 -9.65362e-05
0.000643969 -0.000390323 -8.93701e-05
-0.000390323 -0.000147524 6.06774e-05
-8.93701e-05 6.06774e-05 -0.00230975
0.00300903 -0.000201366 -5.28363e-05
-0.000201366 0.000417168 9.27552e-05
-5.28363e-05 9.27552e-05 -4.60003e-05
0.00417775 -0.000174282 -5.00532e-07
-0.000174282 0.000741089 3.60424e-05
-5.00532e-07 3.60424e-05 0.000628071
-0.000638655 -0.000813769 1.20402e-05
-0.000813769 -0.00143041 2.43762e-05
1.20402e-05 2.43762e-05 0.000185467
0.0054359 0.000186931 7.60933e-06
0.000186931 0.00243915 1.66248e-05
7.60933e-06 1.66248e-05 -0.000150128
0.00110121 -0.000502564 -7.21067e-06
-0.000502564 -0.00125336 1.47887e-05
-7.21067e-06 1.47887e-05 -0.000968584
0.00228807 0.00021952 -3.84021e-05
0.00021952 2.76049e-05 -5.53345e-06
-3.84021e-05 -5.53345e-06 -0.000181906
0.00870711 -0.000229292 -3.97382e-05
-0.000229292 0.00393688 3.6295e-05
-3.97382e-05 3.6295e-05 0.00182482
-0.000255166 -0.000612642 -6.83399e-05
-0.000612642 -0.00060764 -5.38838e-05
-6.83399e-05 -5.38838e-05 -0.00011836
0.000516879 0.000159197 6.0065e-07
0.000159197 -5.96428e-05 -2.81924e-06
6.0065e-07 -2.81924e-06 -0.000130423
0.000915672 3.80077e-05 4.8743e-06
3.80077e-05 0.000172953 -1.66872e-09
4.8743e-06 -1.66872e-09 0.000106179
0.000955251 -4.59802e-06 -7.82672e-07
-4.59802e-06 0.000164433 -1.94745e-07
-7.82672e-07 -1.94745e-07 8.0683e-05
-0.000576364 -5.35337e-06 -6.68325e-05
-5.35337e-06 0.0001253 -1.44934e-05
-6.68325e-05 -1.44934e-05 -0.000765735
-0.000789404 4.34831e-05 5.4252e-06
4.34831e-05 -0.000561143 -6.64902e-06
5.4252e-06 -6.64902e-06 -0.000646573
0.000829168 4.37628e-05 6.56719e-07
4.37628e-05 0.000138535 -2.74677e-06
6.56719e-07 -2.74677e-06 5.62654e-05
0.000788337 0.000103364 3.64545e-06
0.000103364 0.000220385 2.12646e-06
3.64545e-06 2.12646e-06 0.000125684
0.000803188 0.000169848 1.21098e-06
0.000169848 0.000309961 -2.30272e-05
1.21098e-06 -2.30272e-05 -0.000125783
0.000481944 0.000253275 1.64885e-05
0.000253275 -0.000123946 5.72795e-06
1.64885e-05 5.72795e-06 -0.000301122
0.000293498 8.28477e-06 9.9953e-05
8.28477e-06 0.00140148 1.23258e-06
9.9953e-05 1.23258e-06 0.000646957
0.00147367 -2.26061e-05 -5.61097e-06
-2.26061e-05 0.000251196 6.86197e-06
-5.61097e-06 6.86197e-06 -0.000178732
0.000941584 -1.11387e-05 -1.24922e-06
-1.11387e-05 3.95386e-05 1.68286e-06
-1.24922e-06 1.68286e-06 -8.90274e-05
0.00093361 -5.05343e-05 -2.20806e-05
-5.05343e-05 0.000469861 5.72109e-06
-2.20806e-05 5.72109e-06 0.00036566
0.00101988 -0.00020148 -1.05256e-06
-0.00020148 -0.000840572 -2.04795e-05
-1.05256e-06 -2.04795e-05 -0.000811985
0.0017308 -2.01168e-06 -7.13888e-05
-2.01168e-06 0.00031382 1.95268e-05
-7.13888e-05 1.95268e-05 -0.000232763
-0.000811619 -0.000432744 3.57448e-05
-0.000432744 -0.000785867 -3.9671e-05
3.57448e-05 -3.9671e-05 -0.00311569
-0.0035024 0.000526422 1.9228e-05
0.000526422 -0.00301648 -4.31687e-05
1.9228e-05 -4.31687e-05 -0.00238731
0.00138667 0.000399459 -8.11251e-05
0.000399459 0.00133104 6.63743e-05
-8.11251e-05 6.63743e-05 0.00144647
0.00178727 -0.000114202 -2.52264e-06
-0.000114202 0.000231279 2.76959e-06
-2.52264e-06 2.76959e-06 0.000519637
0.00144643 0.000150641 4.47233e-06
0.000150641 0.00166603 6.37347e-06
4.47233e-06 6.37347e-06 0.00127037
-0.00350589 0.000373343 2.89525e-05
0.000373343 -0.00120752 7.85023e-07
2.89525e-05 7.85023e-07 -0.00165605
0.00412738 -0.000685091 1.47574e-06
-0.000685091 0.00119098 5.24757e-07
1.47574e-06 5.24757e-07 0.000228141
0.00902135 0.000194146 1.52657e-05
0.000194146 0.00352516 -2.00992e-06
1.52657e-05 -2.00992e-06 0.00179943
0.000675528 -0.000230502 2.13801e-06
-0.000230502 -0.000259167 1.60644e-05
2.13801e-06 1.60644e-05 -0.000168569
-0.00624794 0.000159442 -7.7619e-05
0.000159442 -0.00313395 -3.61767e-07
-7.7619e-05 -3.61767e-07 -0.0033783
0.00667824 0.000120647 -1.96048e-05
0.000120647 0.00217731 1.01377e-05
-1.96048e-05 1.01377e-05 0.000749249
0.00542628 -0.000681182 1.41664e-06
-0.000681182 0.000874896 1.37538e-05
1.41664e-06 1.37538e-05 -9.11684e-06
1.06689e-05 -0.000131767 -1.86343e-05
-0.000131767 -0.000112306 1.31614e-05
-1.86343e-05 1.31614e-05 -0.000307469
0.00127368 -0.000229612 -1.53304e-06
-0.000229612 6.68926e-05 8.04695e-07
-1.53304e-06 8.04695e-07 8.60944e-05
0.00205141 -0.000262985 1.55761e-05
-0.000262985 0.000234045 -2.68881e-06
1.55761e-05 -2.68881e-06 0.000281716
-9.98842e-05 -0.000126567 -5.62989e-06
-0.000126567 -0.000383736 9.79195e-07
-5.62989e-06 9.79195e-07 -0.000621767
0.00120439 -0.000279304 -3.76763e-06
-0.000279304 -4.31423e-05 -1.12857e-06
-3.76763e-06 -1.12857e-06 -0.000218126
0.00192233 -0.000329277 3.47103e-06
-0.000329277 0.000151245 -2.0927e-07
3.47103e-06 -2.0927e-07 2.77601e-05
0.00160488 -0.00025843 -6.61209e-06
-0.00025843 0.000334057 -1.72961e-06
-6.61209e-06 -1.72961e-06 9.86322e-05
0.00157327 -0.000288438 2.03803e-06
-0.000288438 0.00011764 6.59877e-07
2.03803e-06 6.59877e-07 -5.5891e-05
0.00192312 -0.000268583 7.4805e-07
-0.000268583 0.000185248 -3.84963e-06
7.4805e-07 -3.84963e-06 5.62325e-05
0.0014947 -0.00024884 -4.13813e-06
-0.00024884 0.000169313 4.20523e-07
-4.13813e-06 4.20523e-07 -4.29903e-05
0.0016276 -0.000249964 -9.69125e-09
-0.000249964 9.86734e-05 5.46425e-07
-9.69125e-09 5.46425e-07 -6.03305e-05
0.00179842 -0.000216264 -1.14229e-07
-0.000216264 0.000146963 -4.10403e-06
-1.14229e-07 -4.10403e-06 2.42428e-05
0.00160625 -0.000176436 -3.07113e-07
-0.000176436 7.87775e-05 -2.43933e-06
-3.07113e-07 -2.43933e-06 -4.74012e-05
0.00168667 -0.00021121 -7.38689e-07
-0.00021121 0.000190745 -1.59717e-06
-7.38689e-07 -1.59717e-06 3.01921e-05
0.00160606 -0.000207045 1.69854e-07
-0.000207045 0.000110008 5.08766e-07
1.69854e-07 5.08766e-07 -3.78815e-05
0.00114759 -0.000194025 -2.44807e-06
-0.000194025 2.79389e-05 8.76218e-07
-2.44807e-06 8.76218e-07 -0.000157353
0.00156159 -0.00022829 1.94726e-06
-0.00022829 0.000197356 -5.34186e-07
1.94726e-06 -5.34186e-07 8.45961e-06
0.00149214 -0.0002319 1.67662e-06
-0.0002319 0.00010086 2.01523e-06
1.67662e-06 2.01523e-06 -7.56043e-05
0.00109016 -0.000170719 3.95374e-07
-0.000170719 0.00014577 2.24927e-06
3.95374e-07 2.24927e-06 -1.74571e-05
0.00103237 -0.000177957 1.6798e-06
-0.000177957 7.74138e-05 -8.95261e-07
1.6798e-06 -8.95261e-07 -0.000108259
0.000766197 -0.000176277 -5.29326e-07
-0.000176277 -0.000112806 -3.12226e-06
-5.29326e-07 -3.12226e-06 -0.000327478
0.00092672 -0.000132109 -1.4938e-06
-0.000132109 0.000109261 2.98468e-07
-1.4938e-06 2.98468e-07 -1.99148e-05
0.0010642 -0.000158188 -1.15839e-07
-0.000158188 0.000182626 -8.81199e-07
-1.15839e-07 -8.81199e-07 3.37279e-05
0.00080167 -0.000145132 -1.48751e-06
-0.000145132 3.86568e-05 -4.24799e-06
-1.48751e-06 -4.24799e-06 -0.000109704
0.000743189 -8.71762e-06 2.31265e-07
-8.71762e-06 4.41933e-05 3.36383e-06
2.31265e-07 3.36383e-06 -4.19171e-05
0.000917782 -8.41041e-05 1.03359e-06
-8.41041e-05 0.00013959 4.19649e-07
1.03359e-06 4.19649e-07 1.83958e-05
0.000688152 -0.000100701 -8.21752e-07
-0.000100701 2.3361e-05 1.30909e-06
-8.21752e-07 1.30909e-06 -0.000116781
0.000538467 6.84765e-05 3.14752e-07
6.84765e-05 -5.42753e-05 4.82777e-06
3.14752e-07 4.82777e-06 -8.43197e-05
0.000691982 1.81987e-05 -6.49517e-07
1.81987e-05 2.00863e-05 -4.29903e-07
-6.49517e-07 -4.29903e-07 -5.05653e-05
0.000897646 -4.05527e-05 -1.83847e-07
-4.05527e-05 0.000148036 -1.77777e-06
-1.83847e-07 -1.77777e-06 3.90523e-05
0.00223831 9.42075e-05 -9.44085e-06
9.42075e-05 0.00089754 1.24821e-06
-9.44085e-06 1.24821e-06 0.000901947
0.000632342 6.15502e-05 -7.43325e-08
6.15502e-05 -1.18285e-05 -1.01773e-07
-7.43325e-08 -1.01773e-07 -3.4472e-05
0.000689328 2.95937e-05 1.22207e-06
2.95937e-05 1.10766e-05 -2.395e-06
1.22207e-06 -2.395e-06 -4.2961e-05
0.00218264 7.64668e-05 1.53115e-06
7.64668e-05 0.00085635 1.2421e-07
1.53115e-06 1.2421e-07 0.000865782
0.000670553 5.53919e-05 7.35322e-07
5.53919e-05 -1.52954e-06 -3.67092e-06
7.35322e-07 -3.67092e-06 -1.91698e-05
0.00218596 6.93074e-05 2.64566e-05
6.93074e-05 0.000850967 -3.14107e-06
2.64566e-05 -3.14107e-06 0.000862315
0.000877518 5.09043e-05 -4.27062e-07
5.09043e-05 0.000118027 -1.27662e-07
-4.27062e-07 -1.27662e-07 2.66664e-05
0.000784083 3.92291e-06 -8.43623e-08
3.92291e-06 6.0881e-05 -2.96595e-07
-8.43623e-08 -2.96595e-07 -2.41291e-05
0.000786496 9.75188e-06 -2.29756e-07
9.75188e-06 6.62987e-05 -1.73334e-06
-2.29756e-07 -1.73334e-06 -1.68345e-05
0.000709656 -3.4172e-05 -9.5147e-07
-3.4172e-05 5.58269e-06 -2.37915e-06
-9.5147e-07 -2.37915e-06 -4.43157e-05
0.000761516 -2.10239e-06 7.96868e-07
-2.10239e-06 4.62736e-05 -4.59839e-08
7.96868e-07 -4.59839e-08 -2.95151e-05
0.000741006 1.52082e-06 5.78357e-07
1.52082e-06 3.95766e-05 5.99567e-07
5.78357e-07 5.99567e-07 -4.40551e-05
0.000642426 -4.45704e-05 -8.27415e-07
-4.45704e-05 -3.22457e-05 -4.13665e-06
-8.27415e-07 -4.13665e-06 -4.98574e-05
0.000712347 -2.24864e-05 -1.73779e-07
-2.24864e-05 1.91557e-06 4.39408e-10
-1.73779e-07 4.39408e-10 -4.53909e-05
0.000768177 8.84133e-06 1.21359e-06
8.84133e-06 4.3414e-05 8.10685e-07
1.21359e-06 8.10685e-07 -2.66099e-05
0.00237004 -6.1047e-05 -2.64093e-05
-6.1047e-05 0.000942026 -3.86508e-06
-2.64093e-05 -3.86508e-06 0.000954587
0.000642952 -3.7617e-05 -2.70597e-07
-3.7617e-05 -3.88226e-05 1.28774e-08
-2.70597e-07 1.28774e-08 -5.38676e-05
0.000721606 -1.3067e-05 8.58828e-07
-1.3067e-05 4.93787e-06 1.91313e-06
8.58828e-07 1.91313e-06 -4.03594e-05
0.0022936 -5.09179e-05 -2.80852e-06
-5.09179e-05 0.000892128 1.38925e-07
-2.80852e-06 1.38925e-07 0.000906936
0.000655237 -3.11728e-05 2.29997e-07
-3.11728e-05 -3.81405e-05 3.79361e-06
2.29997e-07 3.79361e-06 -5.03622e-05
0.00220539 -3.99114e-05 1.60385e-05
-3.99114e-05 0.000836237 4.29743e-06
1.60385e-05 4.29743e-06 0.000853358
-0.00273125 -9.52089e-05 3.17357e-05
-9.52089e-05 -0.000227986 2.43379e-05
3.17357e-05 2.43379e-05 -0.00111764
0.00210222 -6.01902e-05 1.98906e-06
-6.01902e-05 0.000548535 9.05639e-06
1.98906e-06 9.05639e-06 8.34559e-05
0.00124737 -3.48353e-05 -8.35699e-06
-3.48353e-05 0.000195607 -7.90845e-06
-8.35699e-06 -7.90845e-06 -3.96797e-05
0.000774385 2.29264e-05 -7.64642e-07
2.29264e-05 6.58398e-05 5.98117e-07
-7.64642e-07 5.98117e-07 -2.63732e-05
0.00117094 0.000143722 4.25453e-08
0.000143722 0.000298972 7.13655e-07
4.25453e-08 7.13655e-07 0.000183205
0.000826662 2.85067e-05 -8.8715e-07
2.85067e-05 0.000101895 9.36996e-08
-8.8715e-07 9.36996e-08 1.64721e-06
0.000941427 -2.55172e-05 3.17823e-07
-2.55172e-05 0.00014254 -3.41414e-07
3.17823e-07 -3.41414e-07 6.32363e-05
0.000955063 4.56062e-05 9.29112e-07
4.56062e-05 0.000156731 3.96384e-07
9.29112e-07 3.96384e-07 6.91817e-05
0.000669592 -5.37551e-06 -2.80347e-07
-5.37551e-06 2.41633e-07 1.43709e-06
-2.80347e-07 1.43709e-06 -8.61578e-05
0.000715925 1.10804e-05 -8.29068e-07
1.10804e-05 3.32856e-05 -2.32321e-08
-8.29068e-07 -2.32321e-08 -5.92793e-05
0.000790248 1.37148e-05 1.61856e-07
1.37148e-05 7.30778e-05 -2.45973e-07
1.61856e-07 -2.45973e-07 -2.25054e-05
0.000949066 5.88917e-05 1.20125e-06
5.88917e-05 0.000182974 -1.51648e-06
1.20125e-06 -1.51648e-06 7.01515e-05
0.000872809 9.72283e-05 4.3914e-06
9.72283e-05 9.09522e-05 -5.6767e-06
4.3914e-06 -5.6767e-06 -8.0374e-07
0.000817473 3.9858e-05 -6.15748e-08
3.9858e-05 8.96633e-05 -7.6597e-07
-6.15748e-08 -7.6597e-07 1.83249e-07
0.000925843 5.10111e-05 7.49097e-07
5.10111e-05 0.000175891 1.17778e-06
7.49097e-07 1.17778e-06 8.9973e-05
-0.00364114 -0.000413693 -9.37592e-05
-0.000413693 -0.00136869 1.61487e-05
-9.37592e-05 1.61487e-05 -0.00165014
-0.00108974 -0.000342223 4.88223e-05
-0.000342223 0.000109635 1.89356e-05
4.88223e-05 1.89356e-05 -0.000225349
0.00246095 1.2235e-05 -6.3076e-05
1.2235e-05 0.000724747 -5.15464e-05
-6.3076e-05 -5.15464e-05 -0.000226614
-0.00476351 -0.000826129 7.91211e-05
-0.000826129 -0.00318055 9.69176e-05
7.91211e-05 9.69176e-05 -0.00140664
0.00658056 -0.000726801 -6.20679e-06
-0.000726801 0.00191525 1.156e-05
-6.20679e-06 1.156e-05 0.00204741
0.00182695 0.000506508 5.5289e-05
0.000506508 0.000374721 -1.70588e-05
5.5289e-05 -1.70588e-05 -0.00212117
0.00320657 -0.000204463 -0.000146427
-0.000204463 0.000473216 7.62801e-05
-0.000146427 7.62801e-05 -0.000142693
0.00310246 0.000170746 -2.51833e-05
0.000170746 0.000430205 8.28498e-06
-2.51833e-05 8.28498e-06 0.000125438
0.00561221 -0.000898819 -2.99085e-05
-0.000898819 0.00251947 2.76003e-05
-2.99085e-05 2.76003e-05 0.00275891
0.00188135 0.000178456 8.63507e-06
0.000178456 0.000615257 8.307e-06
8.63507e-06 8.307e-06 -0.00154477
0.00251236 0.00044657 -0.000112203
0.00044657 0.00067045 -7.17669e-05
-0.000112203 -7.17669e-05 -6.8463e-05
0.0016708 0.000552762 -0.000164584
0.000552762 6.61561e-05 -6.21582e-05
-0.000164584 -6.21582e-05 -0.00195813
0.00215271 0.000378869 1.00392e-05
0.000378869 0.000564477 -1.13379e-05
1.00392e-05 -1.13379e-05 0.000410998
0.000785944 0.000160355 -3.51919e-06
0.000160355 7.97238e-05 1.03484e-06
-3.51919e-06 1.03484e-06 1.01667e-05
0.00107512 3.69185e-05 -1.31523e-06
3.69185e-05 0.000254816 -2.75338e-06
-1.31523e-06 -2.75338e-06 0.000189085
-7.79654e-05 0.000143102 -3.13286e-05
0.000143102 -0.000103383 -2.12915e-05
-3.13286e-05 -2.12915e-05 -0.000442405
0.00177925 0.000168444 -7.24062e-06
0.000168444 0.000708553 -7.08067e-06
-7.24062e-06 -7.08067e-06 0.000607072
0.00119658 0.000308842 8.49841e-06
0.000308842 0.000156235 -1.56941e-06
8.49841e-06 -1.56941e-06 -9.97887e-06
0.00229656 0.000461153 6.84002e-05
0.000461153 0.000172993 3.42443e-05
6.84002e-05 3.42443e-05 0.000140208
-0.00364103 -4.68739e-05 -0.000143429
-4.68739e-05 -0.00193375 -9.1049e-06
-0.000143429 -9.1049e-06 -0.00160421
-0.000784631 -3.70611e-07 4.42332e-05
-3.70611e-07 0.000931514 8.50863e-07
4.42332e-05 8.50863e-07 0.000115967
0.00156954 -3.45432e-05 -5.32169e-05
-3.45432e-05 0.000336885 6.6972e-06
-5.32169e-05 6.6972e-06 -5.0778e-06
0.00211321 -0.000181362 -4.21836e-05
-0.000181362 0.000350703 -2.35432e-05
-4.21836e-05 -2.35432e-05 0.00063039
0.00328949 -0.000687806 -5.03008e-05
-0.000687806 0.000527144 1.42597e-06
-5.03008e-05 1.42597e-06 -0.000218297
0.00172186 0.000115621 -4.03574e-05
0.000115621 0.00184444 2.33884e-05
-4.03574e-05 2.33884e-05 0.0014666
-0.00129219 -0.000230194 8.50742e-05
-0.000230194 -0.00106834 -7.10551e-05
8.50742e-05 -7.10551e-05 -0.00326021
0.00874458 0.000511037 -4.25425e-05
0.000511037 0.00437497 5.99176e-06
-4.25425e-05 5.99176e-06 0.00424194
0.00193612 -0.000366084 -3.02223e-06
-0.000366084 0.000294769 2.13983e-06
-3.02223e-06 2.13983e-06 0.000276385
-0.00109055 0.00030006 -3.51481e-07
0.00030006 -0.000429928 -4.68907e-06
-3.51481e-07 -4.68907e-06 -0.00066625
0.00354806 0.000119977 -1.85295e-05
0.000119977 0.000609734 2.65687e-05
-1.85295e-05 2.65687e-05 -0.0012241
0.00562927 -0.000686866 -3.75463e-05
-0.000686866 0.00144374 1.11179e-05
-3.75463e-05 1.11179e-05 0.000578448
-0.00090926 -0.000145613 1.70588e-05
-0.000145613 -0.000959885 -4.58012e-06
1.70588e-05 -4.58012e-06 -0.00117751
0.00833378 -0.000159091 5.00324e-05
-0.000159091 0.00246216 -5.34289e-06
5.00324e-05 -5.34289e-06 0.00149583
0.00396146 -0.00024782 2.79153e-05
-0.00024782 0.000703074 -1.73692e-05
2.79153e-05 -1.73692e-05 0.000129989
-0.000249314 -0.000145639 -1.956e-05
-0.000145639 -0.000736522 5.9465e-06
-1.956e-05 5.9465e-06 -0.00066757
0.000995649 -0.000221368 -1.29912e-06
-0.000221368 -0.000319668 -8.94559e-07
-1.29912e-06 -8.94559e-07 -0.000257873
0.0021911 -0.000303212 1.32753e-05
-0.000303212 0.000136941 -1.28437e-05
1.32753e-05 -1.28437e-05 0.000192124
0.00153628 -0.000297043 -1.09187e-05
-0.000297043 0.000136337 -1.42149e-06
-1.09187e-05 -1.42149e-06 -4.08255e-05
0.00165377 -0.000313627 -4.31992e-07
-0.000313627 6.09265e-06 6.58323e-07
-4.31992e-07 6.58323e-07 -0.000109167
0.00208466 -0.000290107 -1.74116e-06
-0.000290107 0.00015192 -6.77411e-07
-1.74116e-06 -6.77411e-07 7.72362e-05
0.00136475 -0.000272519 -1.04993e-06
-0.000272519 2.06054e-05 2.71591e-06
-1.04993e-06 2.71591e-06 -0.000155048
0.0017444 -0.000261992 -2.14139e-06
-0.000261992 8.65529e-05 -4.87781e-07
-2.14139e-06 -4.87781e-07 -4.23977e-05
0.00191089 -0.0002175 -6.81374e-07
-0.0002175 0.000114376 -1.80491e-06
-6.81374e-07 -1.80491e-06 2.05695e-05
0.00151445 -0.000241788 1.30608e-06
-0.000241788 3.75023e-05 3.18645e-06
1.30608e-06 3.18645e-06 -0.000120327
0.00167488 -0.000206946 -2.58641e-07
-0.000206946 8.45003e-05 -6.46777e-08
-2.58641e-07 -6.46777e-08 -3.67663e-05
0.0017066 -0.000174164 3.51256e-07
-0.000174164 8.04863e-05 -1.97823e-06
3.51256e-07 -1.97823e-06 -1.79605e-05
0.00176844 -0.000160862 1.77024e-07
-0.000160862 0.0001598 -8.78558e-07
1.77024e-07 -8.78558e-07 5.00228e-05
0.00158476 -0.000172649 -2.09246e-06
-0.000172649 6.77873e-05 1.78259e-06
-2.09246e-06 1.78259e-06 -5.56073e-05
0.00169409 -0.000177841 1.28962e-06
-0.000177841 0.00016368 -3.46626e-06
1.28962e-06 -3.46626e-06 2.79965e-05
0.00183667 -0.000212821 -2.49845e-06
-0.000212821 0.000313586 -1.10874e-06
-2.49845e-06 -1.10874e-06 0.000151399
0.0016298 -0.00020765 1.12533e-06
-0.00020765 0.000158387 4.86786e-07
1.12533e-06 4.86786e-07 -1.06292e-06
0.00161354 -0.000204642 -8.57454e-07
-0.000204642 0.000114554 3.42272e-06
-8.57454e-07 3.42272e-06 -3.19258e-05
0.00094247 -0.000170202 -4.41459e-06
-0.000170202 -2.93843e-05 3.29597e-06
-4.41459e-06 3.29597e-06 -0.000201522
0.00138551 -0.000205691 6.41853e-07
-0.000205691 0.000161486 -2.08437e-07
6.41853e-07 -2.08437e-07 -2.35802e-05
0.00153389 -0.000223498 3.2043e-06
-0.000223498 0.000183808 1.6362e-07
3.2043e-06 1.6362e-07 -2.27249e-06
0.000980172 -0.000146307 -1.59787e-06
-0.000146307 0.000102898 1.25249e-06
-1.59787e-06 1.25249e-06 -3.70041e-05
0.00113531 -0.000172474 3.96253e-07
-0.000172474 0.000167005 -1.80067e-07
3.96253e-07 -1.80067e-07 3.70792e-06
0.000586119 -0.000146998 1.20463e-07
-0.000146998 -0.000159082 -4.99344e-06
1.20463e-07 -4.99344e-06 -0.000340448
0.000758198 -6.82437e-05 -3.21034e-06
-6.82437e-05 3.56106e-05 2.76835e-06
-3.21034e-06 2.76835e-06 -6.22492e-05
0.00103198 -0.000140568 1.42135e-07
-0.000140568 0.000165547 -1.79056e-07
1.42135e-07 -1.79056e-07 3.53419e-05
0.00112139 -0.000161428 1.59022e-07
-0.000161428 0.000210081 -1.39248e-06
1.59022e-07 -1.39248e-06 6.0964e-05
0.000511671 6.30291e-05 1.92429e-06
6.30291e-05 -6.73615e-05 6.49393e-06
1.92429e-06 6.49393e-06 -0.000106293
0.000750643 -2.51957e-05 2.9341e-07
-2.51957e-05 5.04939e-05 1.83984e-07
2.9341e-07 1.83984e-07 -3.9088e-05
0.00104515 -9.38501e-05 1.18505e-06
-9.38501e-05 0.000209573 -3.34273e-07
1.18505e-06 -3.34273e-07 8.6587e-05
0.00246252 9.80773e-05 -3.74664e-05
9.80773e-05 0.00102751 2.43672e-06
-3.74664e-05 2.43672e-06 0.00103065
0.000595594 6.95505e-05 -3.50456e-07
6.95505e-05 -2.20212e-05 -3.29435e-07
-3.50456e-07 -3.29435e-07 -5.28023e-05
0.000723159 -2.16961e-05 2.185e-06
-2.16961e-05 3.41201e-05 -3.31844e-06
2.185e-06 -3.31844e-06 -3.63648e-05
0.00159389 7.22847e-05 1.53213e-05
7.22847e-05 0.000532989 -4.28095e-07
1.53213e-05 -4.28095e-07 0.000535792
0.000663939 6.56111e-05 -7.9773e-07
6.56111e-05 6.90735e-06 -4.46128e-06
-7.9773e-07 -4.46128e-06 -1.66683e-05
0.00225987 7.84343e-05 3.13595e-05
7.84343e-05 0.00090075 -2.80877e-06
3.13595e-05 -2.80877e-06 0.000909601
0.000892096 6.82022e-05 7.38331e-07
6.82022e-05 0.000123955 4.1109e-07
7.38331e-07 4.1109e-07 2.54383e-05
0.000793744 1.34067e-05 -2.37636e-07
1.34067e-05 6.71831e-05 4.89886e-07
-2.37636e-07 4.89886e-07 -1.94375e-05
0.000765863 -2.30535e-05 2.43157e-07
-2.30535e-05 5.66888e-05 -1.6629e-06
2.43157e-07 -1.6629e-06 -2.92014e-05
0.000861724 2.56189e-05 2.91951e-07
2.56189e-05 0.000104519 5.86193e-07
2.91951e-07 5.86193e-07 1.80991e-05
0.000761738 -2.17557e-05 4.26977e-07
-2.17557e-05 4.7791e-05 -6.56462e-08
4.26977e-07 -6.56462e-08 -3.11846e-05
0.00068628 -3.44215e-05 -9.3141e-07
-3.44215e-05 -1.39381e-06 -2.72282e-06
-9.3141e-07 -2.72282e-06 -5.49844e-05
0.00064403 -5.10808e-05 -9.93517e-07
-5.10808e-05 -2.338e-05 -4.36459e-06
-9.93517e-07 -4.36459e-06 -4.34434e-05
0.000704297 -3.058e-05 1.16712e-07
-3.058e-05 2.74263e-06 -4.19323e-08
1.16712e-07 -4.19323e-08 -4.70098e-05
0.000735257 -3.91331e-05 -1.4744e-07
-3.91331e-05 2.5473e-05 1.15172e-06
-1.4744e-07 1.15172e-06 -4.50594e-05
0.00239453 -6.99083e-05 -3.08527e-05
-6.99083e-05 0.000962658 -3.54358e-06
-3.08527e-05 -3.54358e-06 0.000973359
0.00063363 -4.31724e-05 -2.71231e-07
-4.31724e-05 -3.73184e-05 3.82676e-08
-2.71231e-07 3.82676e-08 -5.47448e-05
0.000712134 -1.46175e-05 1.63976e-06
-1.46175e-05 1.93435e-06 2.04825e-06
1.63976e-06 2.04825e-06 -4.52559e-05
0.00235644 -6.05964e-05 -2.56425e-06
-6.05964e-05 0.000933747 1.59793e-07
-2.56425e-06 1.59793e-07 0.000946466
0.000641856 -3.67098e-05 4.67725e-07
-3.67098e-05 -3.94978e-05 3.98036e-06
4.67725e-07 3.98036e-06 -5.44369e-05
0.00227196 -5.02129e-05 1.98108e-05
-5.02129e-05 0.00087926 4.14804e-06
1.98108e-05 4.14804e-06 0.000894333
0.000771759 0.000179742 2.22652e-05
0.000179742 0.00096771 3.8443e-05
2.22652e-05 3.8443e-05 0.000340984
-0.000744697 -0.000151319 7.24824e-07
-0.000151319 0.000596181 8.21207e-06
7.24824e-07 8.21207e-06 -0.000190399
0.00200614 -6.99182e-05 -5.52516e-05
-6.99182e-05 0.000545509 -1.32579e-05
-5.52516e-05 -1.32579e-05 8.33355e-05
0.000717353 -7.26208e-06 4.9921e-07
-7.26208e-06 3.22199e-05 3.37687e-07
4.9921e-07 3.37687e-07 -5.7119e-05
0.000795395 6.1578e-06 7.74771e-08
6.1578e-06 8.22949e-05 6.27399e-07
7.74771e-08 6.27399e-07 -1.6827e-05
0.000977191 0.000124987 -3.74304e-07
0.000124987 0.000196673 2.96715e-07
-3.74304e-07 2.96715e-07 8.39295e-05
0.00118382 0.000165007 1.3181e-06
0.000165007 0.000282519 -1.68482e-08
1.3181e-06 -1.68482e-08 0.000152042
0.000938772 9.56884e-05 -2.03464e-06
9.56884e-05 0.000184842 -7.34806e-07
-2.03464e-06 -7.34806e-07 6.57949e-05
0.000818665 5.07167e-05 8.50516e-07
5.07167e-05 8.93164e-05 1.03761e-06
8.50516e-07 1.03761e-06 -4.41774e-06
0.000755372 2.31158e-05 6.43388e-07
2.31158e-05 5.29868e-05 1.04016e-06
6.43388e-07 1.04016e-06 -4.21342e-05
0.000706614 6.71605e-05 -1.34936e-06
6.71605e-05 4.77228e-05 -1.31708e-06
-1.34936e-06 -1.31708e-06 -6.08813e-05
-7.1623e-05 7.49287e-05 -3.98892e-07
7.49287e-05 -0.000383724 4.01176e-07
-3.98892e-07 4.01176e-07 -0.00050497
0.00101556 0.000144641 4.23002e-07
0.000144641 0.000156011 -4.66209e-06
4.23002e-07 -4.66209e-06 4.77897e-05
0.00210479 0.000315637 5.3294e-06
0.000315637 0.000483379 -1.07213e-05
5.3294e-06 -1.07213e-05 0.000323871
0.000735838 9.03477e-05 -2.18438e-06
9.03477e-05 4.14767e-05 -5.14275e-07
-2.18438e-06 -5.14275e-07 -4.8386e-05
0.000699341 1.49949e-05 -3.37081e-07
1.49949e-05 3.68765e-05 -9.62223e-07
-3.37081e-07 -9.62223e-07 -4.32418e-05
0.011 9.59079e-05 -5.18784e-05
9.59079e-05 0.00362236 1.2467e-06
-5.18784e-05 1.2467e-06 0.00234892
-0.00185784 -0.000329344 -6.78374e-05
-0.000329344 -0.000221242 -1.41607e-05
-6.78374e-05 -1.41607e-05 -0.000745198
0.00051909 -0.000399483 -1.74498e-05
-0.000399483 0.000652599 -2.9246e-05
-1.74498e-05 -2.9246e-05 0.000283559
-0.00372692 -0.000396319 1.7943e-05
-0.000396319 -0.00180331 4.31217e-05
1.7943e-05 4.31217e-05 -0.00158504
0.00906312 -0.000169068 8.09599e-05
-0.000169068 0.0042341 -7.63303e-06
8.09599e-05 -7.63303e-06 0.00153417
0.00272133 0.00022648 -1.67098e-05
0.00022648 0.000425023 4.07202e-06
-1.67098e-05 4.07202e-06 0.000224605
0.0015916 0.000415509 -4.40409e-05
0.000415509 6.88792e-05 -1.79133e-05
-4.40409e-05 -1.79133e-05 -0.000539657
0.00830178 -0.000165154 5.71259e-05
-0.000165154 0.00304186 1.76568e-05
5.71259e-05 1.76568e-05 0.00146746
0.00401201 0.000574096 8.9537e-06
0.000574096 0.000594434 -2.62136e-05
8.9537e-06 -2.62136e-05 -3.5935e-05
0.00197764 0.000422306 2.94227e-06
0.000422306 0.000269198 1.35091e-05
2.94227e-06 1.35091e-05 0.00011264
0.000877685 0.000268221 3.35997e-06
0.000268221 -8.15963e-06 -4.14811e-06
3.35997e-06 -4.14811e-06 -0.000165571
0.00101606 0.000154058 -1.18048e-05
0.000154058 0.000204094 6.92539e-06
-1.18048e-05 6.92539e-06 0.000137678
0.00158448 0.000350003 -2.87773e-05
0.000350003 0.000265819 -1.60095e-05
-2.87773e-05 -1.60095e-05 0.000114975
0.00149206 0.000418485 -1.72757e-05
0.000418485 -0.00018879 1.47389e-05
-1.72757e-05 1.47389e-05 -0.000246232
0.000407041 -0.000153574 -1.87142e-05
-0.000153574 -0.00195709 -4.61438e-06
-1.87142e-05 -4.61438e-06 -0.00234638
0.0021442 -0.000119978 6.44891e-07
-0.000119978 0.00125383 -5.73588e-06
6.44891e-07 -5.73588e-06 0.00117763
-0.00210272 -2.07138e-05 2.29315e-05
-2.07138e-05 0.000374884 -1.03615e-06
2.29315e-05 -1.03615e-06 -0.000544316
0.00283161 -0.000462169 -5.3968e-05
-0.000462169 0.000670725 5.0562e-06
-5.3968e-05 5.0562e-06 0.000592729
0.00379825 -0.000621123 -7.63901e-06
-0.000621123 0.000814171 -1.36374e-05
-7.63901e-06 -1.36374e-05 -0.000371341
0.000867273 -0.000137078 3.05246e-05
-0.000137078 0.000816205 1.90489e-05
3.05246e-05 1.90489e-05 0.000445859
0.0095217 0.000175988 -5.45609e-05
0.000175988 0.0037086 3.09838e-05
-5.45609e-05 3.09838e-05 0.00203047
0.000680151 -0.000211322 -7.95967e-06
-0.000211322 -0.000245333 -7.81664e-07
-7.95967e-06 -7.81664e-07 -0.000378302
0.00653059 9.57988e-05 8.27768e-06
9.57988e-05 0.00152427 2.11353e-05
8.27768e-06 2.11353e-05 0.000677303
0.0039153 -0.000334519 4.6516e-05
-0.000334519 0.000387172 -1.36876e-06
4.6516e-05 -1.36876e-06 -0.000422237
0.00224673 -0.000242518 8.0963e-06
-0.000242518 0.000602997 6.18134e-07
8.0963e-06 6.18134e-07 0.000331015
0.00360848 -8.63995e-05 -7.72423e-05
-8.63995e-05 0.000779645 -1.23479e-05
-7.72423e-05 -1.23479e-05 0.000491084
6.24938e-05 -0.000184074 -1.62523e-05
-0.000184074 -0.000821183 5.54529e-06
-1.62523e-05 5.54529e-06 -0.000740146
0.00152011 -0.000282766 -1.90294e-07
-0.000282766 -0.000189954 1.75055e-07
-1.90294e-07 1.75055e-07 -0.000155148
0.0018541 -0.000202693 6.4611e-06
-0.000202693 -7.40813e-05 -1.65134e-06
6.4611e-06 -1.65134e-06 -5.43591e-05
0.00139256 -0.000298811 -1.26156e-06
-0.000298811 -0.000129943 1.81323e-06
-1.26156e-06 1.81323e-06 -0.000239629
0.00179512 -0.000266135 -8.54813e-07
-0.000266135 2.24644e-05 -1.14173e-07
-8.54813e-07 -1.14173e-07 -4.99217e-05
0.00181643 -0.000186406 -6.96507e-07
-0.000186406 -2.47631e-05 1.01226e-06
-6.96507e-07 1.01226e-06 -6.63197e-05
0.00160027 -0.000256986 -4.05164e-06
-0.000256986 6.20138e-06 2.9358e-06
-4.05164e-06 2.9358e-06 -0.000122802
0.00180365 -0.000213908 3.00865e-07
-0.000213908 5.47427e-05 1.12486e-06
3.00865e-07 1.12486e-06 -3.88625e-05
0.00186463 -0.000181553 1.53399e-06
-0.000181553 0.000110348 1.84479e-07
1.53399e-06 1.84479e-07 3.08303e-05
0.00154657 -0.000197736 1.01698e-06
-0.000197736 1.88727e-05 3.46953e-06
1.01698e-06 3.46953e-06 -0.000100959
0.00170428 -0.000176293 3.1664e-08
-0.000176293 7.95683e-05 1.06791e-06
3.1664e-08 1.06791e-06 -1.99551e-05
0.00189191 -0.000164878 1.891e-06
-0.000164878 0.000200561 -5.07398e-07
1.891e-06 -5.07398e-07 0.000105101
0.00168211 -0.000159437 -3.24522e-06
-0.000159437 0.000109542 2.38193e-06
-3.24522e-06 2.38193e-06 1.39155e-06
0.00174746 -0.000160094 2.66142e-06
-0.000160094 0.000180672 -2.21738e-06
2.66142e-06 -2.21738e-06 6.03063e-05
0.00156797 -0.000169419 -6.34363e-07
-0.000169419 5.87796e-05 5.69156e-06
-6.34363e-07 5.69156e-06 -6.19307e-05
0.001694 -0.000177884 8.85362e-07
-0.000177884 0.000164155 -8.46293e-07
8.85362e-07 -8.46293e-07 2.82206e-05
0.0016096 -0.000172797 -1.42776e-06
-0.000172797 0.000154797 -1.49601e-06
-1.42776e-06 -1.49601e-06 1.38511e-05
0.00129448 -0.00017979 -4.8918e-06
-0.00017979 6.86787e-05 4.06346e-07
-4.8918e-06 4.06346e-07 -9.14818e-05
0.00164503 -0.000202905 3.86488e-07
-0.000202905 0.000206792 -4.92571e-07
3.86488e-07 -4.92571e-07 4.56268e-05
0.00159333 -0.000205313 1.985e-06
-0.000205313 0.000137542 2.07933e-06
1.985e-06 2.07933e-06 -2.09809e-05
0.00112743 -0.00016403 -3.38711e-06
-0.00016403 0.000124633 2.94509e-06
-3.38711e-06 2.94509e-06 -2.58632e-05
0.00103117 -0.000173795 -1.1448e-06
-0.000173795 2.38304e-05 1.30166e-06
-1.1448e-06 1.30166e-06 -0.000147955
0.00161781 -0.000216726 3.3514e-06
-0.000216726 0.000292421 -1.15919e-06
3.3514e-06 -1.15919e-06 0.000107605
0.000729439 -8.76843e-05 -3.75857e-06
-8.76843e-05 -5.39779e-06 2.74343e-06
-3.75857e-06 2.74343e-06 -0.000110314
0.00106765 -0.000152994 1.94305e-07
-0.000152994 0.000148688 -4.17497e-07
1.94305e-07 -4.17497e-07 7.86949e-06
0.00119149 -0.00017515 1.26929e-06
-0.00017515 0.000194301 -2.8492e-06
1.26929e-06 -2.8492e-06 3.08128e-05
0.000516077 1.30971e-05 -3.85559e-06
1.30971e-05 -8.12231e-05 7.22137e-06
-3.85559e-06 7.22137e-06 -0.00012359
0.000813196 -7.4359e-05 1.69333e-07
-7.4359e-05 6.57219e-05 2.68291e-07
1.69333e-07 2.68291e-07 -3.32675e-05
0.00110593 -0.000140811 1.6731e-06
-0.000140811 0.000203675 -6.51919e-07
1.6731e-06 -6.51919e-07 7.38646e-05
0.00280861 0.000113039 -4.6341e-05
0.000113039 0.00122395 2.35919e-06
-4.6341e-05 2.35919e-06 0.00122297
0.000578968 4.12812e-05 5.44923e-07
4.12812e-05 -3.63475e-05 -3.12184e-07
5.44923e-07 -3.12184e-07 -7.2478e-05
0.000778127 -6.09095e-05 2.76385e-06
-6.09095e-05 6.25644e-05 -2.91916e-06
2.76385e-06 -2.91916e-06 -2.7268e-05
0.0025627 9.87212e-05 2.21688e-06
9.87212e-05 0.00108244 1.85106e-07
2.21688e-06 1.85106e-07 0.00108542
0.000647351 5.78453e-05 5.28531e-07
5.78453e-05 3.526e-06 -5.34675e-06
5.28531e-07 -5.34675e-06 -2.56694e-05
0.00240791 8.79508e-05 3.84123e-05
8.79508e-05 0.000990468 -2.55308e-06
3.84123e-05 -2.55308e-06 0.000996619
0.000964424 0.000140468 8.71098e-07
0.000140468 0.00015193 -7.58838e-07
8.71098e-07 -7.58838e-07 2.92783e-05
0.000832249 9.80394e-05 4.99056e-07
9.80394e-05 9.63227e-05 8.68009e-09
4.99056e-07 8.68009e-09 -6.52246e-06
0.000695336 -1.1044e-05 -5.31626e-07
-1.1044e-05 1.69577e-05 -9.91892e-07
-5.31626e-07 -9.91892e-07 -7.74562e-05
0.000699199 -1.74413e-05 -1.14077e-07
-1.74413e-05 1.39479e-05 9.38567e-07
-1.14077e-07 9.38567e-07 -7.06866e-05
0.000718718 -3.73301e-05 1.70784e-07
-3.73301e-05 2.82201e-05 1.07989e-07
1.70784e-07 1.07989e-07 -5.64385e-05
0.00066242 -3.33638e-05 -9.45329e-07
-3.33638e-05 -9.75751e-06 -2.99184e-06
-9.45329e-07 -2.99184e-06 -7.03973e-05
0.00071997 -4.17609e-05 -2.63974e-07
-4.17609e-05 2.21518e-05 1.59141e-06
-2.63974e-07 1.59141e-06 -5.43265e-05
0.000682868 -3.88475e-05 3.32977e-07
-3.88475e-05 -2.41775e-06 -1.6366e-07
3.32977e-07 -1.6366e-07 -5.63043e-05
0.000640234 -6.10818e-05 -2.28682e-07
-6.10818e-05 -1.4834e-05 -4.76781e-06
-2.28682e-07 -4.76781e-06 -3.8647e-05
0.00241357 -7.86947e-05 -3.47743e-05
-7.86947e-05 0.000980818 -3.16123e-06
-3.47743e-05 -3.16123e-06 0.000989546
0.000630282 -4.92318e-05 -4.69416e-08
-4.92318e-05 -3.1351e-05 3.00455e-08
-4.69416e-08 3.00455e-08 -5.11205e-05
0.000691528 -2.78361e-05 1.83207e-06
-2.78361e-05 -4.15838e-06 2.23977e-06
1.83207e-06 2.23977e-06 -5.37477e-05
0.00239303 -6.95952e-05 -2.25405e-06
-6.95952e-05 0.000961141 1.73023e-07
-2.25405e-06 1.73023e-07 0.000971895
0.000628838 -4.18733e-05 7.64535e-07
-4.18733e-05 -4.01366e-05 4.1625e-06
7.64535e-07 4.1625e-06 -5.74089e-05
0.00233602 -5.99887e-05 2.43383e-05
-5.99887e-05 0.000921597 3.9576e-06
2.43383e-05 3.9576e-06 0.000934522
0.00930491 0.000228106 0.000113346
0.000228106 0.00279481 3.81464e-05
0.000113346 3.81464e-05 0.00187309
-0.00242395 -0.000257448 -3.92075e-05
-0.000257448 -0.00132464 -3.40556e-06
-3.92075e-05 -3.40556e-06 -0.00141313
-0.00224399 -4.43473e-05 -4.89497e-05
-4.43473e-05 -0.000126884 -1.14347e-05
-4.89497e-05 -1.14347e-05 -0.00110554
0.000744618 -2.72614e-05 1.17482e-06
-2.72614e-05 5.22888e-05 1.5877e-06
1.17482e-06 1.5877e-06 -4.57252e-05
0.000792026 0.000118978 -8.58071e-07
0.000118978 9.82804e-05 8.70732e-07
-8.58071e-07 8.70732e-07 -1.16268e-05
0.00106456 0.000103514 5.15892e-07
0.000103514 0.00025371 -3.35128e-08
5.15892e-07 -3.35128e-08 0.000134485
0.00103898 0.000154211 -1.43072e-06
0.000154211 0.000205322 6.27308e-08
-1.43072e-06 6.27308e-08 7.68919e-05
0.00110681 0.000166329 1.07423e-05
0.000166329 0.00020824 2.08226e-06
1.07423e-05 2.08226e-06 6.5267e-05
0.000460299 0.000113419 -1.22516e-06
0.000113419 -9.23617e-05 -1.67064e-07
-1.22516e-06 -1.67064e-07 -0.000217035
0.000486071 7.04083e-05 -1.05953e-06
7.04083e-05 -7.08761e-05 -6.69797e-07
-1.05953e-06 -6.69797e-07 -0.000178324
0.000447872 0.000114609 5.88733e-07
0.000114609 -0.000107912 6.16613e-07
5.88733e-07 6.16613e-07 -0.000238295
0.000940157 0.000129201 -1.56995e-06
0.000129201 0.000117992 -1.2613e-08
-1.56995e-06 -1.2613e-08 5.93799e-06
0.000221044 0.000132778 8.74838e-07
0.000132778 -0.000338285 -1.30191e-06
8.74838e-07 -1.30191e-06 -0.000467741
0.00281694 0.000335603 -1.95163e-06
0.000335603 0.000871565 -3.58706e-06
-1.95163e-06 -3.58706e-06 0.000722021
0.00150302 0.000315006 1.09591e-06
0.000315006 3.54571e-05 1.55708e-06
1.09591e-06 1.55708e-06 -0.00011926
0.00144833 0.00027457 3.90099e-06
0.00027457 0.000160948 -2.66611e-06
3.90099e-06 -2.66611e-06 1.09341e-05
0.000715042 9.6566e-05 -5.44761e-06
9.6566e-05 4.92983e-05 4.75308e-06
-5.44761e-06 4.75308e-06 -3.96838e-05
0.00339123 0.000198494 8.21581e-06
0.000198494 5.22919e-05 6.7517e-06
8.21581e-06 6.7517e-06 -0.000207754
0.0058115 6.12063e-05 1.94313e-05
6.12063e-05 0.0012503 1.38367e-05
1.94313e-05 1.38367e-05 -7.00976e-06
0.00553009 -0.000727255 -2.24743e-05
-0.000727255 0.00287783 -3.79457e-05
-2.24743e-05 -3.79457e-05 0.00277
0.00603518 0.000229446 0.00028667
0.000229446 0.00203962 7.97444e-05
0.00028667 7.97444e-05 -0.00014038
0.00124298 0.000376706 2.77434e-05
0.000376706 -0.000329063 2.81743e-05
2.77434e-05 2.81743e-05 -0.000516985
0.0026193 0.000442353 -7.42955e-05
0.000442353 8.96758e-05 -2.22915e-05
-7.42955e-05 -2.22915e-05 -0.00033884
0.00301726 0.000445464 5.32754e-05
0.000445464 0.000550636 2.2032e-05
5.32754e-05 2.2032e-05 0.000560427
0.00221663 0.000432808 8.26814e-07
0.000432808 0.000364681 4.99194e-06
8.26814e-07 4.99194e-06 0.00023285
0.000503363 0.000228197 -9.48466e-07
0.000228197 -0.000181394 6.44425e-06
-9.48466e-07 6.44425e-06 -0.000329969
0.00238975 0.000493097 -7.73784e-05
0.000493097 0.000255722 -4.71468e-05
-7.73784e-05 -4.71468e-05 0.000170797
0.00272535 -0.000141151 -0.000139491
-0.000141151 0.000302665 3.87385e-06
-0.000139491 3.87385e-06 -6.98504e-05
0.00888813 -0.000121618 1.04485e-05
-0.000121618 0.00278091 -1.78557e-06
1.04485e-05 -1.78557e-06 0.00218047
-0.00645295 -0.000186576 0.000147742
-0.000186576 -0.00343345 2.10086e-06
0.000147742 2.10086e-06 -0.00332825
0.00176501 -0.000264287 -1.41273e-05
-0.000264287 0.000253173 6.91737e-06
-1.41273e-05 6.91737e-06 0.000154395
0.00527033 -0.00038182 8.45367e-05
-0.00038182 0.00119656 7.16805e-06
8.45367e-05 7.16805e-06 0.000391921
0.00121996 -0.000337788 8.10668e-05
-0.000337788 -0.00117645 4.06942e-05
8.10668e-05 4.06942e-05 -0.00194399
0.0012827 -0.00016851 7.50606e-06
-0.00016851 9.40527e-05 -1.00685e-06
7.50606e-06 -1.00685e-06 -9.24384e-05
0.00163756 -8.1356e-06 -7.95752e-06
-8.1356e-06 -0.000372296 4.68754e-06
-7.95752e-06 4.68754e-06 -0.000654228
0.00483051 -0.000183342 1.21207e-05
-0.000183342 0.00172737 -3.89097e-06
1.21207e-05 -3.89097e-06 0.00162066
0.0029001 -1.06869e-06 5.26694e-05
-1.06869e-06 0.000550256 -4.32177e-06
5.26694e-05 -4.32177e-06 0.000532636
0.00063579 -0.000257118 -9.79962e-06
-0.000257118 -0.000626819 4.81142e-06
-9.79962e-06 4.81142e-06 -0.000608633
0.00181778 -0.000211702 -3.01056e-07
-0.000211702 -7.87864e-05 1.3496e-06
-3.01056e-07 1.3496e-06 -7.44887e-05
0.00180686 -0.0001016 7.21997e-06
-0.0001016 -2.75247e-05 4.69158e-07
7.21997e-06 4.69158e-07 -4.49887e-05
0.00156498 -0.00024702 1.20133e-06
-0.00024702 -8.14263e-05 1.7709e-07
1.20133e-06 1.7709e-07 -0.000151431
0.00186157 -0.00018799 1.64023e-06
-0.00018799 1.32657e-05 7.56044e-07
1.64023e-06 7.56044e-07 -3.45814e-05
0.00173601 -0.00012439 1.72538e-06
-0.00012439 1.45672e-05 8.44294e-07
1.72538e-06 8.44294e-07 -3.81078e-05
0.00171189 -0.000210852 4.10498e-06
-0.000210852 3.13185e-06 3.07799e-06
4.10498e-06 3.07799e-06 -9.02816e-05
0.00182252 -0.000176869 1.06886e-06
-0.000176869 9.63965e-05 3.85153e-07
1.06886e-06 3.85153e-07 1.68235e-05
0.00195138 -0.000145616 1.29444e-06
-0.000145616 0.000211323 4.51111e-07
1.29444e-06 4.51111e-07 0.000127384
0.00170216 -0.000177768 2.81025e-07
-0.000177768 7.93837e-05 3.42495e-06
2.81025e-07 3.42495e-06 -2.11431e-05
0.00175383 -0.000163107 -4.49306e-07
-0.000163107 0.00012887 4.19473e-07
-4.49306e-07 4.19473e-07 3.21162e-05
0.00162046 -0.000148057 3.76789e-06
-0.000148057 9.11426e-05 -8.8191e-07
3.76789e-06 -8.8191e-07 -2.0377e-05
0.00159878 -0.000158122 -3.75356e-06
-0.000158122 6.13083e-05 5.0613e-06
-3.75356e-06 5.0613e-06 -4.52238e-05
0.00173201 -0.000158189 -1.11972e-06
-0.000158189 0.000171355 -1.10461e-07
-1.11972e-06 -1.10461e-07 5.3013e-05
0.00168487 -0.000152877 5.26877e-07
-0.000152877 0.000188039 -7.98483e-07
5.26877e-07 -7.98483e-07 5.80992e-05
0.00170047 -0.000178341 7.04412e-07
-0.000178341 0.000168374 1.67683e-06
7.04412e-07 1.67683e-06 3.21466e-05
0.00165267 -0.00017439 7.3469e-07
-0.00017439 0.000178876 -1.95822e-07
7.3469e-07 -1.95822e-07 3.75846e-05
0.00157074 -0.000169253 -2.99673e-06
-0.000169253 0.00018192 -3.58285e-07
-2.99673e-06 -3.58285e-07 4.10514e-05
0.000924463 -0.000150521 -7.122e-06
-0.000150521 -7.11731e-05 2.3118e-06
-7.122e-06 2.3118e-06 -0.000218268
0.0013242 -0.000180555 -9.94546e-07
-0.000180555 8.95404e-05 2.3828e-08
-9.94546e-07 2.3828e-08 -7.02734e-05
0.00145552 -0.000193047 3.08812e-06
-0.000193047 0.000100668 7.38598e-07
3.08812e-06 7.38598e-07 -5.93864e-05
0.000862389 -0.000114785 -5.13515e-06
-0.000114785 2.87645e-05 4.12171e-06
-5.13515e-06 4.12171e-06 -8.62776e-05
0.00112415 -0.000162974 5.03515e-07
-0.000162974 0.000121131 4.2764e-07
5.03515e-07 4.2764e-07 -2.88192e-05
0.00114152 -0.000178689 1.50555e-06
-0.000178689 8.87031e-05 -5.61587e-07
1.50555e-06 -5.61587e-07 -8.28452e-05
0.000520426 -1.30191e-05 -6.9386e-06
-1.30191e-05 -8.65857e-05 7.93194e-06
-6.9386e-06 7.93194e-06 -0.000137251
0.000867723 -9.90391e-05 3.22747e-08
-9.90391e-05 7.10409e-05 -2.12573e-07
3.22747e-08 -2.12573e-07 -3.55977e-05
0.00114913 -0.000159206 2.58337e-06
-0.000159206 0.000191294 -2.32926e-06
2.58337e-06 -2.32926e-06 4.96051e-05
0.0032653 0.000127584 -6.25028e-05
0.000127584 0.00147986 2.38947e-06
-6.25028e-05 2.38947e-06 0.0014747
0.00060612 5.92512e-06 3.67248e-07
5.92512e-06 -3.30372e-05 -1.86012e-07
3.67248e-07 -1.86012e-07 -7.62476e-05
0.000884201 -8.14616e-05 4.19031e-06
-8.14616e-05 0.00010367 -2.53649e-06
4.19031e-06 -2.53649e-06 3.89713e-06
0.00294393 0.000110222 3.12301e-06
0.000110222 0.00129729 2.19257e-07
3.12301e-06 2.19257e-07 0.00129683
0.000651636 3.68858e-05 3.38609e-06
3.68858e-05 3.19188e-06 -6.1783e-06
3.38609e-06 -6.1783e-06 -3.34842e-05
0.00268003 9.63845e-05 5.15025e-05
9.63845e-05 0.00114627 -2.52526e-06
5.15025e-05 -2.52526e-06 0.00114983
0.00109889 0.000159156 -7.75233e-09
0.000159156 0.000199319 -2.97843e-06
-7.75233e-09 -2.97843e-06 5.99585e-05
0.00110144 0.000150165 4.23846e-07
0.000150165 0.00022805 2.13416e-07
4.23846e-07 2.13416e-07 0.000104656
0.000869251 8.11322e-05 -1.31384e-06
8.11322e-05 9.93752e-05 -1.4487e-06
-1.31384e-06 -1.4487e-06 -9.10502e-06
0.000763952 0.000117194 -1.0169e-07
0.000117194 6.45119e-05 3.94697e-07
-1.0169e-07 3.94697e-07 -4.22696e-05
0.000686868 1.04083e-05 -5.61564e-07
1.04083e-05 1.19952e-05 -1.71609e-07
-5.61564e-07 -1.71609e-07 -8.43678e-05
0.000702164 1.88359e-05 -2.06862e-06
1.88359e-05 1.80294e-05 -2.68512e-06
-2.06862e-06 -2.68512e-06 -5.71458e-05
0.000678643 -5.49457e-05 -1.65001e-07
-5.49457e-05 6.91584e-06 1.53815e-06
-1.65001e-07 1.53815e-06 -7.87324e-05
0.000670056 -3.61227e-05 3.98326e-07
-3.61227e-05 -3.64737e-06 -3.61339e-07
3.98326e-07 -3.61339e-07 -6.51681e-05
0.000623795 -7.18103e-05 1.3554e-06
-7.18103e-05 -1.21477e-05 -5.52768e-06
1.3554e-06 -5.52768e-06 -4.15906e-05
0.000679986 -4.1917e-05 1.14934e-06
-4.1917e-05 -3.47253e-06 2.56444e-06
1.14934e-06 2.56444e-06 -5.74652e-05
0.000618226 -5.7616e-05 2.13696e-07
-5.7616e-05 -2.83605e-05 -1.78789e-08
2.13696e-07 -1.78789e-08 -5.13787e-05
0.0024649 -8.76864e-05 -3.93169e-05
-8.76864e-05 0.00101691 -2.71996e-06
-3.93169e-05 -2.71996e-06 0.00102348
0.00241143 -7.83537e-05 -1.47623e-06
-7.83537e-05 0.000978845 1.64227e-07
-1.47623e-06 1.64227e-07 0.000987629
0.000617372 -4.74754e-05 1.26825e-06
-4.74754e-05 -3.88827e-05 4.34276e-06
1.26825e-06 4.34276e-06 -5.83778e-05
0.00238403 -6.91983e-05 2.89173e-05
-6.91983e-05 0.000955469 3.70478e-06
2.89173e-05 3.70478e-06 0.000966299
0.00299722 9.11471e-07 -4.77967e-05
9.11471e-07 0.000255782 1.56728e-05
-4.77967e-05 1.56728e-05 9.45169e-05
0.00176969 -0.000250436 2.26009e-05
-0.000250436 -0.000970564 9.00864e-06
2.26009e-05 9.00864e-06 -0.00184951
0.0042379 -0.000406556 -4.41291e-05
-0.000406556 0.00179998 -2.64963e-05
-4.41291e-05 -2.64963e-05 0.00188211
0.00141443 0.00019525 1.07902e-05
0.00019525 0.000285374 2.88368e-06
1.07902e-05 2.88368e-06 0.000132522
0.00120815 0.00011777 8.00022e-07
0.00011777 0.000331813 4.49322e-07
8.00022e-07 4.49322e-07 0.000212456
0.000900853 0.000143915 -1.34747e-06
0.000143915 0.000132153 1.1801e-06
-1.34747e-06 1.1801e-06 5.6475e-06
0.000773827 0.000136921 6.05616e-07
0.000136921 7.83513e-05 7.66485e-07
6.05616e-07 7.66485e-07 -5.06297e-05
0.00103978 0.000163101 -3.02951e-07
0.000163101 0.000175496 -1.49982e-06
-3.02951e-07 -1.49982e-06 3.09593e-05
0.000681019 0.000150139 -6.03183e-07
0.000150139 -6.84517e-05 7.37754e-07
-6.03183e-07 7.37754e-07 -0.000192165
0.000897919 0.000150142 -8.04251e-07
0.000150142 0.000129941 -5.4376e-07
-8.04251e-07 -5.4376e-07 -9.12529e-06
0.00100702 0.000124133 -2.34428e-06
0.000124133 0.000151446 5.38013e-06
-2.34428e-06 5.38013e-06 3.51697e-05
0.000980339 0.000182391 5.11433e-07
0.000182391 6.81169e-05 -3.49386e-09
5.11433e-07 -3.49386e-09 -6.36426e-05
0.00225389 0.00029933 1.20551e-06
0.00029933 0.000571883 5.41859e-06
1.20551e-06 5.41859e-06 0.000422154
0.00170724 0.000297388 -1.43258e-06
0.000297388 0.000154367 -7.04148e-07
-1.43258e-06 -7.04148e-07 -2.96917e-06
0.00152138 0.00025966 1.41911e-05
0.00025966 6.87013e-08 1.07216e-05
1.41911e-05 1.07216e-05 -0.000114469
0.00136672 0.000308754 -2.17694e-06
0.000308754 -4.49997e-05 -2.49949e-06
-2.17694e-06 -2.49949e-06 -0.000204206
0.000911109 0.00023599 1.07379e-06
0.00023599 -0.000107502 5.10248e-06
1.07379e-06 5.10248e-06 -0.000247046
0.000214371 0.000168618 1.25988e-05
0.000168618 -0.000490957 5.00114e-06
1.25988e-05 5.00114e-06 -0.000491035
0.00489305 0.000307059 -2.43287e-05
0.000307059 0.000620524 5.87002e-08
-2.43287e-05 5.87002e-08 0.000245685
0.000808689 -4.93665e-05 6.70172e-05
-4.93665e-05 -0.00117689 1.69914e-05
6.70172e-05 1.69914e-05 -0.00241211
0.00198929 0.000453359 5.89923e-05
0.000453359 -0.00027738 6.55853e-06
5.89923e-05 6.55853e-06 -0.000847543
0.00169368 0.00033518 -1.98993e-05
0.00033518 9.42297e-05 -3.39405e-06
-1.98993e-05 -3.39405e-06 7.80127e-05
0.0010375 0.000336439 -3.051e-05
0.000336439 -0.000165385 -2.35709e-05
-3.051e-05 -2.35709e-05 -0.000300414
0.00186748 -9.68301e-05 1.67161e-05
-9.68301e-05 6.32137e-06 1.46543e-06
1.67161e-05 1.46543e-06 -8.99851e-05
0.00110613 2.64607e-06 -1.61397e-05
2.64607e-06 -0.000436416 1.58852e-06
-1.61397e-05 1.58852e-06 -0.00064609
0.000337407 0.000320427 6.17125e-05
0.000320427 -0.00190078 -1.94183e-05
6.17125e-05 -1.94183e-05 -0.00253761
0.000408682 -9.2039e-05 -2.17976e-07
-9.2039e-05 -0.000392753 1.4408e-05
-2.17976e-07 1.4408e-05 -0.000472118
0.00244941 -2.98043e-05 7.8398e-06
-2.98043e-05 -0.000117038 1.82937e-05
7.8398e-06 1.82937e-05 -0.000464633
0.00160321 -0.000109747 -3.75236e-06
-0.000109747 -1.90241e-05 -6.59297e-07
-3.75236e-06 -6.59297e-07 -7.8806e-05
0.00217734 -3.12751e-05 -4.6164e-06
-3.12751e-05 0.000168095 -1.1875e-06
-4.6164e-06 -1.1875e-06 0.000124282
0.00206896 -4.59045e-05 1.80131e-05
-4.59045e-05 0.000149571 -2.1027e-06
1.80131e-05 -2.1027e-06 0.000113539
0.00268311 -3.10707e-05 1.41314e-05
-3.10707e-05 0.000580711 -8.35356e-08
1.41314e-05 -8.35356e-08 0.000534608
0.00190629 -0.000223711 -6.9513e-06
-0.000223711 -1.49548e-05 1.02408e-06
-6.9513e-06 1.02408e-06 -2.8872e-05
0.0019222 -0.000111348 2.75808e-06
-0.000111348 1.97082e-05 -3.70686e-07
2.75808e-06 -3.70686e-07 5.14556e-07
0.00191076 -0.000117763 1.24648e-06
-0.000117763 9.84705e-05 2.2354e-07
1.24648e-06 2.2354e-07 5.60283e-05
0.00188326 -0.000188435 2.23663e-06
-0.000188435 3.92667e-05 9.57619e-07
2.23663e-06 9.57619e-07 -1.44826e-05
0.0018274 -0.000138157 6.3771e-07
-0.000138157 5.81886e-05 -8.35463e-08
6.3771e-07 -8.35463e-08 1.30543e-06
0.00183408 -0.00012604 2.54147e-06
-0.00012604 0.000129481 2.53362e-07
2.54147e-06 2.53362e-07 5.54005e-05
0.00179035 -0.000173089 -1.21268e-06
-0.000173089 8.76081e-05 1.60646e-06
-1.21268e-06 1.60646e-06 7.81645e-06
0.00182814 -0.000148063 -1.1988e-06
-0.000148063 0.000145495 8.23011e-08
-1.1988e-06 8.23011e-08 6.03149e-05
0.00163911 -0.000129034 2.44074e-06
-0.000129034 7.81485e-05 1.20875e-07
2.44074e-06 1.20875e-07 -2.65973e-05
0.00161562 -0.000161486 -3.15457e-06
-0.000161486 5.68952e-05 1.36296e-06
-3.15457e-06 1.36296e-06 -4.11728e-05
0.00162882 -0.00014806 3.55792e-07
-0.00014806 9.8356e-05 -3.66571e-07
3.55792e-07 -3.66571e-07 -1.30779e-05
0.0015722 -0.000135649 1.09368e-06
-0.000135649 0.000107598 -1.23276e-07
1.09368e-06 -1.23276e-07 -1.76706e-05
0.00171411 -0.000156061 -4.02918e-06
-0.000156061 0.000160474 2.6501e-06
-4.02918e-06 2.6501e-06 4.41833e-05
0.00163167 -0.000149491 -2.22581e-07
-0.000149491 0.000155507 -4.33509e-07
-2.22581e-07 -4.33509e-07 2.67939e-05
0.0014445 -0.000141527 -2.24021e-06
-0.000141527 9.18322e-05 4.13031e-07
-2.24021e-06 4.13031e-07 -4.13105e-05
0.0017053 -0.000176386 2.36827e-06
-0.000176386 0.000208042 2.83719e-07
2.36827e-06 2.83719e-07 6.63823e-05
0.00146564 -0.000164314 6.3924e-07
-0.000164314 0.000121378 -2.93697e-07
6.3924e-07 -2.93697e-07 -1.95792e-05
0.00132552 -0.000151873 -6.04783e-06
-0.000151873 0.000101262 1.39291e-06
-6.04783e-06 1.39291e-06 -3.39361e-05
0.000992609 -0.000127725 -7.54667e-06
-0.000127725 4.33208e-05 4.5414e-06
-7.54667e-06 4.5414e-06 -7.45175e-05
0.0010286 -0.00015498 -1.60045e-06
-0.00015498 -9.43888e-06 7.72918e-07
-1.60045e-06 7.72918e-07 -0.000156354
0.00131523 -0.000178954 3.00514e-06
-0.000178954 8.95732e-05 8.88769e-08
3.00514e-06 8.88769e-08 -6.96906e-05
0.000547965 -8.24144e-05 -1.09628e-05
-8.24144e-05 -8.02106e-05 9.42837e-06
-1.09628e-05 9.42837e-06 -0.000142208
0.000910682 -0.000120078 4.17922e-07
-0.000120078 5.54656e-05 9.53454e-08
4.17922e-07 9.53454e-08 -6.04688e-05
0.00112516 -0.000162411 4.0548e-06
-0.000162411 0.000119927 -1.92675e-06
4.0548e-06 -1.92675e-06 -2.9548e-05
0.00363789 0.000139102 -7.84244e-05
0.000139102 0.00169345 2.85032e-06
-7.84244e-05 2.85032e-06 0.00168381
0.000635973 -4.62936e-05 6.76515e-09
-4.62936e-05 -2.60175e-05 -1.72071e-07
6.76515e-09 -1.72071e-07 -7.88954e-05
0.000966637 -0.000109136 5.00379e-06
-0.000109136 0.000125715 -3.49837e-06
5.00379e-06 -3.49837e-06 1.75253e-05
0.00335845 0.000117525 2.79475e-06
0.000117525 0.00152993 3.11327e-07
2.79475e-06 3.11327e-07 0.00152636
0.000687553 -1.08807e-05 7.49561e-06
-1.08807e-05 1.0031e-05 -6.94322e-06
7.49561e-06 -6.94322e-06 -3.38763e-05
0.00306026 9.95035e-05 7.11657e-05
9.95035e-05 0.00135906 -3.03644e-06
7.11657e-05 -3.03644e-06 0.0013605
0.000985339 0.000161866 -7.20392e-07
0.000161866 7.49236e-05 -1.73498e-06
-7.20392e-07 -1.73498e-06 -7.88553e-05
0.00101331 0.000152887 -1.0756e-07
0.000152887 0.000153419 -1.32085e-06
-1.0756e-07 -1.32085e-06 1.49074e-05
0.00111113 0.000143707 -1.12026e-06
0.000143707 0.000210023 -1.59058e-06
-1.12026e-06 -1.59058e-06 8.61157e-05
0.0012392 0.000159952 -5.61182e-07
0.000159952 0.000304385 2.58255e-07
-5.61182e-07 2.58255e-07 0.000180257
0.000884251 8.66846e-05 -1.07846e-06
8.66846e-05 0.000106479 -7.26377e-07
-1.07846e-06 -7.26377e-07 -1.24359e-06
0.000785083 4.30959e-05 -2.38667e-06
4.30959e-05 6.30185e-05 -2.18893e-06
-2.38667e-06 -2.18893e-06 -2.47611e-05
0.000686304 3.10236e-05 -2.19596e-07
3.10236e-05 1.07754e-05 3.91742e-07
-2.19596e-07 3.91742e-07 -8.71642e-05
0.000687108 -1.98856e-05 -3.84692e-07
-1.98856e-05 9.05595e-06 -6.73405e-08
-3.84692e-07 -6.73405e-08 -6.37646e-05
0.00059869 -6.81219e-05 -2.42691e-07
-6.81219e-05 -2.05625e-05 -5.75499e-06
-2.42691e-07 -5.75499e-06 -5.53599e-05
0.00066263 -5.17296e-05 6.50964e-07
-5.17296e-05 -5.18996e-06 2.94561e-06
6.50964e-07 2.94561e-06 -6.75794e-05
0.000594163 -7.06429e-05 2.20864e-07
-7.06429e-05 -2.95735e-05 -1.14301e-07
2.20864e-07 -1.14301e-07 -5.8448e-05
0.00256748 -9.64501e-05 -4.57471e-05
-9.64501e-05 0.00108013 -2.33358e-06
-4.57471e-05 -2.33358e-06 0.00108448
0.000604544 -5.46963e-05 1.44843e-06
-5.46963e-05 -3.70815e-05 4.53031e-06
1.44843e-06 4.53031e-06 -5.94476e-05
0.00244645 -8.74689e-05 -9.89022e-07
-8.74689e-05 0.00100598 1.50129e-07
-9.89022e-07 1.50129e-07 0.00101258
0.00240776 -7.77998e-05 3.34229e-05
-7.77998e-05 0.000976145 3.36762e-06
3.34229e-05 3.36762e-06 0.000985013
0.000384148 2.49909e-05 1.03658e-05
2.49909e-05 -0.000545318 4.07596e-06
1.03658e-05 4.07596e-06 -0.000565987
0.00395277 4.45835e-05 1.30343e-05
4.45835e-05 0.000504631 1.02717e-05
1.30343e-05 1.02717e-05 0.000183265
0.00701414 0.000297605 -9.84784e-05
0.000297605 0.00200613 -2.65749e-05
-9.84784e-05 -2.65749e-05 0.0010214
0.000736109 0.000153463 2.98734e-06
0.000153463 -0.000138636 6.76353e-07
2.98734e-06 6.76353e-07 -0.00027138
0.00134967 0.000197879 3.94192e-06
0.000197879 6.57628e-05 -3.70315e-06
3.94192e-06 -3.70315e-06 -8.56476e-05
0.000902157 0.000166012 -5.77033e-08
0.000166012 1.43758e-05 -2.24924e-06
-5.77033e-08 -2.24924e-06 -0.000133393
0.00108284 0.000159911 -1.42891e-06
0.000159911 0.000246848 -5.82421e-07
-1.42891e-06 -5.82421e-07 0.000113623
0.000988858 0.000160686 -1.40155e-06
0.000160686 0.000150941 -9.31759e-07
-1.40155e-06 -9.31759e-07 4.79562e-06
0.0011915 0.000187264 5.16194e-06
0.000187264 0.000191043 2.57603e-06
5.16194e-06 2.57603e-06 6.15178e-05
0.00216477 0.000294829 -7.01094e-06
0.000294829 0.000440471 -5.47175e-06
-7.01094e-06 -5.47175e-06 0.000290458
0.00163015 0.000225461 5.5527e-08
0.000225461 0.000419249 1.9314e-06
5.5527e-08 1.9314e-06 0.000285502
0.00130538 0.000240655 5.53553e-06
0.000240655 7.22108e-05 1.25536e-05
5.53553e-06 1.25536e-05 -7.60956e-05
0.00178683 0.000297938 -1.13821e-06
0.000297938 0.000204376 1.20903e-06
-1.13821e-06 1.20903e-06 4.93364e-05
0.00219503 0.000294416 -6.40515e-06
0.000294416 0.000315169 3.10515e-06
-6.40515e-06 3.10515e-06 0.000174312
0.0011838 0.000123291 1.45488e-05
0.000123291 -0.000238531 4.84542e-06
1.45488e-05 4.84542e-06 -0.000308775
0.00157743 0.000258168 8.35747e-06
0.000258168 3.51107e-05 2.06841e-06
8.35747e-06 2.06841e-06 -8.23977e-05
0.0011537 0.000292984 -6.77158e-06
0.000292984 -0.000164086 -5.96934e-06
-6.77158e-06 -5.96934e-06 -0.000325616
0.00101183 0.000162344 -4.86316e-06
0.000162344 -9.52005e-05 1.87878e-06
-4.86316e-06 1.87878e-06 -0.00010417
0.0048909 0.000145774 4.08186e-05
0.000145774 0.00054156 1.94082e-06
4.08186e-05 1.94082e-06 0.00013031
0.00118264 0.000271215 1.80972e-06
0.000271215 1.25305e-05 -1.05527e-05
1.80972e-06 -1.05527e-05 -1.10232e-05
0.00126536 -2.76023e-05 1.4288e-05
-2.76023e-05 -0.000138517 1.53948e-06
1.4288e-05 1.53948e-06 -0.000182554
0.00198632 -4.81404e-05 -6.60172e-06
-4.81404e-05 0.000102739 -3.68835e-07
-6.60172e-06 -3.68835e-07 2.73225e-05
0.00234603 0.000133181 5.80723e-05
0.000133181 -2.44503e-05 -6.92146e-06
5.80723e-05 -6.92146e-06 -0.000292015
-0.000905547 -6.86059e-05 -1.63726e-05
-6.86059e-05 -0.00137751 1.01813e-05
-1.63726e-05 1.01813e-05 -0.00139556
0.00204017 -6.71949e-05 -5.50302e-05
-6.71949e-05 9.12206e-05 7.683e-06
-5.50302e-05 7.683e-06 3.86127e-05
0.00155289 -7.98606e-05 3.91777e-07
-7.98606e-05 -0.00016463 1.78634e-06
3.91777e-07 1.78634e-06 -0.000187463
0.00228722 -4.43394e-05 -2.06203e-06
-4.43394e-05 0.000319549 4.42345e-07
-2.06203e-06 4.42345e-07 0.000270942
0.00187136 -0.000121996 6.161e-06
-0.000121996 1.85095e-05 4.87581e-07
6.161e-06 4.87581e-07 -1.63925e-05
0.00183708 -3.18802e-05 3.3626e-06
-3.18802e-05 2.35087e-05 -2.19145e-07
3.3626e-06 -2.19145e-07 -3.58426e-05
0.00206255 -0.000122016 -1.91989e-06
-0.000122016 7.78647e-05 1.63883e-08
-1.91989e-06 1.63883e-08 5.84543e-05
0.00180091 -0.000115851 -1.64712e-06
-0.000115851 3.35749e-05 6.12264e-08
-1.64712e-06 6.12264e-08 -6.74058e-06
0.00189993 -0.000115989 2.86302e-06
-0.000115989 0.000113714 2.54635e-07
2.86302e-06 2.54635e-07 5.05706e-05
0.00191352 -0.000150475 -2.10413e-06
-0.000150475 0.000100277 -2.29563e-07
-2.10413e-06 -2.29563e-07 3.9203e-05
0.00176587 -0.000125323 3.71876e-08
-0.000125323 9.37143e-05 -1.29272e-07
3.71876e-08 -1.29272e-07 1.73283e-05
0.00172187 -0.000110207 2.17463e-06
-0.000110207 9.07523e-05 1.03109e-07
2.17463e-06 1.03109e-07 -4.17072e-06
0.00169893 -0.000149889 -5.46694e-06
-0.000149889 7.6519e-05 1.71051e-07
-5.46694e-06 1.71051e-07 -9.82083e-06
0.00166355 -0.000128943 1.30335e-07
-0.000128943 9.32596e-05 -5.04092e-08
1.30335e-07 -5.04092e-08 -1.13517e-05
0.00162204 -0.00011719 1.03237e-06
-0.00011719 0.000110045 3.64313e-08
1.03237e-06 3.64313e-08 -1.14021e-05
0.00163965 -0.000148117 -2.74396e-06
-0.000148117 0.000106961 9.65728e-08
-2.74396e-06 9.65728e-08 -4.37849e-06
0.00157947 -0.000135401 8.18093e-08
-0.000135401 0.000109767 -7.85895e-08
8.18093e-08 -7.85895e-08 -1.53115e-05
0.00149103 -0.000128533 -1.75456e-06
-0.000128533 0.000104632 6.64381e-07
-1.75456e-06 6.64381e-07 -2.65231e-05
0.00157491 -0.000146104 -6.0338e-07
-0.000146104 0.000121167 7.15227e-07
-6.0338e-07 7.15227e-07 -6.35894e-06
0.00141146 -0.000140521 -2.55412e-07
-0.000140521 7.32332e-05 -2.13185e-07
-2.55412e-07 -2.13185e-07 -5.98345e-05
0.00134628 -0.000135333 -5.7068e-06
-0.000135333 9.0346e-05 1.61187e-06
-5.7068e-06 1.61187e-06 -3.8977e-05
0.00135472 -0.000159249 3.95915e-06
-0.000159249 5.77249e-05 -2.92805e-07
3.95915e-06 -2.92805e-07 -8.33258e-05
0.00113914 -0.000142609 3.76872e-08
-0.000142609 -1.62019e-06 -1.57234e-07
3.76872e-08 -1.57234e-07 -0.000136785
0.00105232 -0.000122358 -9.49564e-06
-0.000122358 3.10093e-05 4.205e-06
-9.49564e-06 4.205e-06 -8.17266e-05
0.000480681 -0.000115257 -1.52835e-05
-0.000115257 -0.000138507 9.99709e-06
-1.52835e-05 9.99709e-06 -0.000204525
0.000979165 -0.000127874 4.58016e-07
-0.000127874 3.66911e-05 3.20428e-07
4.58016e-07 3.20428e-07 -8.12841e-05
0.00114872 -0.000160476 3.54115e-06
-0.000160476 6.10594e-05 -6.82612e-07
3.54115e-06 -6.82612e-07 -8.57969e-05
0.00401028 0.000157441 -8.55176e-05
0.000157441 0.0019133 3.92217e-06
-8.55176e-05 3.92217e-06 0.00189673
0.000646529 -7.84574e-05 7.90178e-08
-7.84574e-05 -3.01171e-05 1.57398e-07
7.90178e-08 1.57398e-07 -9.26321e-05
0.000980172 -0.00012609 6.08463e-06
-0.00012609 9.45864e-05 -3.84688e-06
6.08463e-06 -3.84688e-06 -2.24234e-05
0.00375971 0.000130517 4.71709e-06
0.000130517 0.00176064 4.737e-07
4.71709e-06 4.737e-07 0.00175187
0.000759096 -4.87373e-05 9.97525e-06
-4.87373e-05 3.74875e-05 -8.28209e-06
9.97525e-06 -8.28209e-06 -1.60067e-05
0.00346532 0.000107205 8.58705e-05
0.000107205 0.00158721 -3.48455e-06
8.58705e-05 -3.48455e-06 0.001585
0.000613876 0.000147205 -1.48691e-06
0.000147205 -0.00024352 -6.04054e-07
-1.48691e-06 -6.04054e-07 -0.000400239
0.000722733 0.000145914 -3.16582e-07
0.000145914 -7.18893e-05 2.80657e-07
-3.16582e-07 2.80657e-07 -0.000224979
0.00112624 0.00015485 -2.64276e-06
0.00015485 0.000169231 -2.0113e-06
-2.64276e-06 -2.0113e-06 3.05919e-05
0.000920956 0.000146219 -5.49685e-07
0.000146219 0.000103734 3.55314e-07
-5.49685e-07 3.55314e-07 -3.3859e-05
0.000985187 0.00013408 -3.48459e-07
0.00013408 0.00014245 -4.81441e-07
-3.48459e-07 -4.81441e-07 2.00097e-05
0.000924226 8.00484e-05 -3.77475e-06
8.00484e-05 0.000129002 -2.33132e-06
-3.77475e-06 -2.33132e-06 3.01684e-05
0.000885218 9.11135e-05 -5.60352e-08
9.11135e-05 0.000105984 -4.34696e-07
-5.60352e-08 -4.34696e-07 -9.17235e-07
0.000743811 2.75725e-05 -2.11554e-07
2.75725e-05 4.24596e-05 1.21538e-07
-2.11554e-07 1.21538e-07 -4.48858e-05
0.000626916 -3.44575e-05 -4.28304e-06
-3.44575e-05 -1.12695e-05 -5.94051e-06
-4.28304e-06 -5.94051e-06 -5.10057e-05
0.000679472 -4.66382e-05 3.97226e-07
-4.66382e-05 6.79744e-06 3.10097e-06
3.97226e-07 3.10097e-06 -6.58564e-05
0.000563219 -7.40011e-05 -2.05201e-07
-7.40011e-05 -3.92661e-05 -1.88284e-07
-2.05201e-07 -1.88284e-07 -7.46327e-05
0.00276789 -0.000105422 -5.57283e-05
-0.000105422 0.00119606 -2.16465e-06
-5.57283e-05 -2.16465e-06 0.00119776
0.000567108 -6.56927e-05 8.13713e-07
-6.56927e-05 -4.70477e-05 4.88526e-06
8.13713e-07 4.88526e-06 -7.44435e-05
0.00253007 -9.70052e-05 -1.02332e-06
-9.70052e-05 0.0010593 1.45636e-07
-1.02332e-06 1.45636e-07 0.00106349
0.00243315 -8.67998e-05 3.69217e-05
-8.67998e-05 0.00099797 2.96842e-06
3.69217e-05 2.96842e-06 0.00100469
0.00130561 4.56822e-05 8.70615e-06
4.56822e-05 -0.000177859 1.89759e-06
8.70615e-06 1.89759e-06 -0.000227529
0.00152639 -5.99471e-06 -3.09665e-06
-5.99471e-06 -5.52597e-05 3.4326e-06
-3.09665e-06 3.4326e-06 -0.000105962
0.00280272 -1.5514e-06 6.35289e-05
-1.5514e-06 -0.000113255 -1.08107e-06
6.35289e-05 -1.08107e-06 -0.000316755
0.00171585 0.000227516 -4.08432e-07
0.000227516 0.000199605 -5.92903e-06
-4.08432e-07 -5.92903e-06 5.48949e-05
0.000734667 0.000157983 -1.55225e-06
0.000157983 -0.000116198 1.21264e-06
-1.55225e-06 1.21264e-06 -0.000236781
0.00165364 0.000197631 -2.09839e-06
0.000197631 0.000136673 1.16259e-06
-2.09839e-06 1.16259e-06 -5.68114e-06
0.0017081 0.000218631 8.94335e-07
0.000218631 0.000262153 3.42722e-07
8.94335e-07 3.42722e-07 0.000107511
0.000404335 0.000137514 -4.81717e-06
0.000137514 -0.000248736 1.31089e-06
-4.81717e-06 1.31089e-06 -0.00039145
0.00177022 0.000236281 -3.64031e-06
0.000236281 0.000100725 1.92446e-06
-3.64031e-06 1.92446e-06 -3.91758e-05
0.00163882 0.000220456 -5.87103e-07
0.000220456 0.00041702 8.28835e-07
-5.87103e-07 8.28835e-07 0.00028222
0.00203341 0.000286383 -1.12753e-07
0.000286383 0.000360639 -2.77675e-06
-1.12753e-07 -2.77675e-06 0.000207366
0.00180722 0.000162359 -4.41583e-06
0.000162359 6.83843e-05 1.86801e-06
-4.41583e-06 1.86801e-06 -3.46895e-05
0.00201767 0.000308696 3.54142e-06
0.000308696 0.000332902 3.62619e-06
3.54142e-06 3.62619e-06 0.000179188
0.00204294 0.000288138 -1.11382e-06
0.000288138 0.000231694 1.37257e-07
-1.11382e-06 1.37257e-07 9.11941e-05
0.00122403 0.000135439 -6.96142e-07
0.000135439 -0.000195033 2.3204e-07
-6.96142e-07 2.3204e-07 -0.000266054
0.0011465 0.000233309 -4.42765e-06
0.000233309 -0.000171434 -4.32814e-06
-4.42765e-06 -4.32814e-06 -0.000291465
0.00133172 0.000151492 -2.23441e-05
0.000151492 6.45148e-05 -2.98694e-06
-2.23441e-05 -2.98694e-06 4.81436e-05
0.00170158 1.25991e-05 1.45837e-06
1.25991e-05 -4.51512e-05 3.76658e-07
1.45837e-06 3.76658e-07 -0.000109904
0.00192138 -7.82229e-06 -1.55401e-06
-7.82229e-06 0.000231099 -3.14977e-07
-1.55401e-06 -3.14977e-07 0.000186766
0.00177741 -7.38312e-07 -4.1829e-05
-7.38312e-07 2.96719e-05 -2.00255e-06
-4.1829e-05 -2.00255e-06 -4.77934e-05
0.000968584 -0.000109927 -1.11819e-05
-0.000109927 -0.000528573 1.33884e-06
-1.11819e-05 1.33884e-06 -0.000538901
0.00162115 -5.73487e-05 -8.27043e-06
-5.73487e-05 -8.75338e-05 -1.61602e-08
-8.27043e-06 -1.61602e-08 -0.000138337
0.00197187 -0.000116337 -7.42724e-07
-0.000116337 7.91911e-05 4.03435e-08
-7.42724e-07 4.03435e-08 4.34122e-05
0.0018637 -3.30842e-05 8.10186e-07
-3.30842e-05 3.43708e-05 -8.39128e-09
8.10186e-07 -8.39128e-09 -2.39327e-05
0.00180884 -5.65144e-05 3.45664e-07
-5.65144e-05 3.22747e-05 -5.53394e-07
3.45664e-07 -5.53394e-07 -3.46046e-05
0.0016452 -0.000113232 -2.68243e-06
-0.000113232 -5.5961e-05 -8.10678e-07
-2.68243e-06 -8.10678e-07 -9.43407e-05
0.00185284 -0.000111981 5.88052e-07
-0.000111981 9.48232e-05 -5.60725e-08
5.88052e-07 -5.60725e-08 2.90476e-05
0.00183899 -9.31482e-05 1.24366e-06
-9.31482e-05 0.000113474 -3.9343e-07
1.24366e-06 -3.9343e-07 2.59954e-05
0.00171766 -0.000125757 -3.53722e-06
-0.000125757 6.83775e-05 -2.46398e-07
-3.53722e-06 -2.46398e-07 -1.0276e-05
0.00169411 -0.000110436 -2.33398e-08
-0.000110436 7.94842e-05 3.3747e-08
-2.33398e-08 3.3747e-08 -1.72695e-05
0.0016833 -9.3373e-05 1.07156e-06
-9.3373e-05 0.000110583 -1.77141e-08
1.07156e-06 -1.77141e-08 -6.40235e-06
0.00168894 -0.000128801 -2.29659e-06
-0.000128801 0.000108776 -1.87031e-07
-2.29659e-06 -1.87031e-07 4.30688e-06
0.00161937 -0.000116029 -4.70086e-08
-0.000116029 0.000107937 3.59486e-09
-4.70086e-08 3.59486e-09 -1.33275e-05
0.00152081 -0.000107194 -1.56458e-06
-0.000107194 0.0001065 6.42013e-07
-1.56458e-06 6.42013e-07 -2.30579e-05
0.00158904 -0.000135299 -8.38624e-07
-0.000135299 0.000113163 -2.59768e-08
-8.38624e-07 -2.59768e-08 -1.17317e-05
0.00150117 -0.000128411 -7.53969e-09
-0.000128411 0.000109407 -2.31893e-08
-7.53969e-09 -2.31893e-08 -2.15984e-05
0.00136932 -0.000119761 -5.18668e-06
-0.000119761 8.79804e-05 1.73106e-06
-5.18668e-06 1.73106e-06 -3.91894e-05
0.00137623 -0.000139355 2.0899e-06
-0.000139355 5.34108e-05 -5.6553e-07
2.0899e-06 -5.6553e-07 -7.95633e-05
0.00132716 -0.000133685 -1.06743e-07
-0.000133685 8.04689e-05 -4.91823e-08
-1.06743e-07 -4.91823e-08 -4.86812e-05
0.0010801 -0.000109546 -1.03348e-05
-0.000109546 2.43588e-05 4.09212e-06
-1.03348e-05 4.09212e-06 -8.39954e-05
0.000947269 -0.000132956 5.43438e-06
-0.000132956 -0.000107514 -1.21898e-06
5.43438e-06 -1.21898e-06 -0.000242603
0.00103439 -0.000120769 2.87198e-07
-0.000120769 2.14605e-05 8.61425e-08
2.87198e-07 8.61425e-08 -9.11473e-05
0.00215973 -3.9362e-05 -1.12157e-05
-3.9362e-05 0.000795737 6.90973e-06
-1.12157e-05 6.90973e-06 0.000730796
0.00121627 -7.79224e-06 -0.000109255
-7.79224e-06 0.000323909 1.10061e-05
-0.000109255 1.10061e-05 0.000304361
0.00144422 -7.14722e-05 1.53929e-06
-7.14722e-05 0.000404415 1.61903e-07
1.53929e-06 1.61903e-07 0.000336154
0.000970047 -0.000128311 7.85896e-06
-0.000128311 3.27751e-05 -3.67358e-06
7.85896e-06 -3.67358e-06 -8.54284e-05
0.00419503 0.000136237 8.5544e-06
0.000136237 0.00201329 7.28248e-07
8.5544e-06 7.28248e-07 0.00199895
0.000780068 -9.80619e-05 1.36712e-05
-9.80619e-05 3.80058e-05 -9.55053e-06
1.36712e-05 -9.55053e-06 -2.56809e-05
0.00384905 0.000105336 0.000102841
0.000105336 0.00180734 -4.72824e-06
0.000102841 -4.72824e-06 0.00180158
0.00184997 0.000169152 -1.79872e-07
0.000169152 0.000229976 4.58564e-07
-1.79872e-07 4.58564e-07 9.87792e-05
0.00124746 0.000174308 -1.52323e-06
0.000174308 3.79409e-06 1.67287e-06
-1.52323e-06 1.67287e-06 -0.00014194
0.000953682 0.000168412 -7.51078e-08
0.000168412 -6.36834e-05 -6.1873e-08
-7.51078e-08 -6.1873e-08 -0.000223281
0.00110751 0.00015868 -3.9434e-06
0.00015868 9.16075e-05 -1.76185e-06
-3.9434e-06 -1.76185e-06 -5.563e-05
0.000460836 0.000130065 2.09361e-07
0.000130065 -0.000218208 2.6809e-06
2.09361e-07 2.6809e-06 -0.000370656
0.00104182 0.000148226 -5.52243e-07
0.000148226 0.000125646 -1.06788e-07
-5.52243e-07 -1.06788e-07 -1.21064e-05
0.000987591 0.000111044 -5.04819e-06
0.000111044 0.000132056 -2.92535e-06
-5.04819e-06 -2.92535e-06 2.46507e-05
0.000868317 0.000125007 1.0423e-06
0.000125007 7.98566e-05 9.18354e-07
1.0423e-06 9.18354e-07 -4.11828e-05
0.000799346 7.12067e-05 -2.76149e-07
7.12067e-05 6.08683e-05 -2.70263e-08
-2.76149e-07 -2.70263e-08 -3.62707e-05
0.000716206 1.87478e-05 -7.68998e-06
1.87478e-05 2.70279e-05 -6.79883e-06
-7.68998e-06 -6.79883e-06 -2.03186e-05
0.000711128 1.2284e-05 1.13187e-06
1.2284e-05 2.36456e-05 2.15531e-06
1.13187e-06 2.15531e-06 -6.13266e-05
0.000561555 -4.64308e-05 -4.27155e-07
-4.64308e-05 -4.54476e-05 -2.64274e-07
-4.27155e-07 -2.64274e-07 -8.5291e-05
0.00304752 -0.000112592 -6.99539e-05
-0.000112592 0.00135652 -2.24081e-06
-6.99539e-05 -2.24081e-06 0.00135507
0.00051801 -8.03595e-05 -1.06326e-06
-8.03595e-05 -6.22863e-05 5.72435e-06
-1.06326e-06 5.72435e-06 -9.88272e-05
0.00269354 -0.000107705 -1.39775e-06
-0.000107705 0.00115556 1.65291e-07
-1.39775e-06 1.65291e-07 0.00115679
0.00249999 -9.67028e-05 4.04866e-05
-9.67028e-05 0.00104237 2.52465e-06
4.04866e-05 2.52465e-06 0.00104662
0.00183626 8.90092e-05 -7.51315e-07
8.90092e-05 3.59379e-05 1.4281e-06
-7.51315e-07 1.4281e-06 -4.17034e-05
0.00185401 4.14901e-05 2.74155e-06
4.14901e-05 0.000116432 -5.78417e-07
2.74155e-06 -5.78417e-07 6.86612e-05
0.00318719 -3.14832e-05 -3.62196e-05
-3.14832e-05 0.000691142 -6.84786e-06
-3.62196e-05 -6.84786e-06 0.000607975
0.00175376 0.000199218 -3.10895e-06
0.000199218 0.000117246 8.30883e-07
-3.10895e-06 8.30883e-07 -1.9682e-05
0.0017384 0.00022697 -3.26314e-06
0.00022697 0.000237861 1.23454e-07
-3.26314e-06 1.23454e-07 9.59285e-05
0.000733178 0.000162965 -1.18905e-05
0.000162965 -9.50671e-05 3.69032e-06
-1.18905e-05 3.69032e-06 -0.000203584
0.00185929 0.000202863 1.83109e-06
0.000202863 0.000248361 1.77251e-07
1.83109e-06 1.77251e-07 0.000106221
0.00211907 0.000242325 -1.63813e-06
0.000242325 0.000487156 -1.3297e-07
-1.63813e-06 -1.3297e-07 0.000329049
0.00210445 0.000160936 -2.71149e-06
0.000160936 0.000228211 1.65478e-06
-2.71149e-06 1.65478e-06 0.000125913
0.0017018 0.000236021 -1.27621e-06
0.000236021 6.45635e-05 6.38118e-07
-1.27621e-06 6.38118e-07 -7.63854e-05
0.0019545 0.000281222 2.19189e-06
0.000281222 0.000307804 4.93199e-07
2.19189e-06 4.93199e-07 0.000150815
0.00181981 0.000162305 -4.31214e-07
0.000162305 7.08066e-05 1.05857e-07
-4.31214e-07 1.05857e-07 -3.23065e-05
0.00205659 0.00028942 6.09223e-06
0.00028942 0.00022813 -7.35062e-07
6.09223e-06 -7.35062e-07 8.774e-05
0.00150807 0.000148781 -1.77738e-05
0.000148781 -4.07352e-05 -5.5032e-06
-1.77738e-05 -5.5032e-06 -0.00011157
0.00197048 1.70584e-05 1.00911e-06
1.70584e-05 0.00012133 1.645e-07
1.00911e-06 1.645e-07 5.3488e-05
0.00182253 1.70291e-05 -9.08278e-08
1.70291e-05 2.25635e-05 -3.38901e-07
-9.08278e-08 -3.38901e-07 -4.1157e-05
0.00259765 1.23092e-05 -2.2542e-05
1.23092e-05 0.000610693 -1.88593e-06
-2.2542e-05 -1.88593e-06 0.000565255
0.00217955 -0.000112362 -1.09315e-05
-0.000112362 0.000195715 -6.23946e-07
-1.09315e-05 -6.23946e-07 0.000158729
0.00193901 -3.38242e-05 -1.66887e-06
-3.38242e-05 7.07859e-05 1.23555e-07
-1.66887e-06 1.23555e-07 1.32079e-05
0.00182664 -5.67819e-05 6.86522e-07
-5.67819e-05 3.38467e-05 -1.0746e-08
6.86522e-07 -1.0746e-08 -2.92287e-05
0.00186482 -3.77714e-05 -1.29673e-08
-3.77714e-05 0.000104135 -2.17983e-07
-1.29673e-08 -2.17983e-07 1.71801e-05
0.00182645 -0.000108609 -6.50976e-07
-0.000108609 8.6731e-05 -8.66028e-08
-6.50976e-07 -8.66028e-08 1.82786e-05
0.00183044 -9.26235e-05 -3.58565e-07
-9.26235e-05 0.000114773 -1.87225e-07
-3.58565e-07 -1.87225e-07 2.65173e-05
0.00175631 -7.20582e-05 2.10416e-06
-7.20582e-05 0.000113982 -1.11392e-06
2.10416e-06 -1.11392e-06 1.92502e-06
0.00166132 -0.000110592 -2.24432e-06
-0.000110592 6.55001e-05 4.73892e-08
-2.24432e-06 4.73892e-08 -3.30892e-05
0.00167463 -9.31877e-05 -1.50569e-07
-9.31877e-05 0.000106385 1.1277e-07
-1.50569e-07 1.1277e-07 -1.0509e-05
0.00157699 -7.97352e-05 -1.24395e-06
-7.97352e-05 0.000116155 4.64484e-07
-1.24395e-06 4.64484e-07 -1.15403e-05
0.00161881 -0.00011484 -7.47066e-07
-0.00011484 0.000106988 -6.66306e-08
-7.47066e-07 -6.66306e-08 -1.40785e-05
0.00152355 -0.000106869 -1.16325e-07
-0.000106869 0.000106245 6.57919e-08
-1.16325e-07 6.57919e-08 -2.31613e-05
0.00139221 -0.000100411 -4.96506e-06
-0.000100411 8.73669e-05 1.57868e-06
-4.96506e-06 1.57868e-06 -3.94136e-05
0.00151379 -0.000128427 1.79899e-06
-0.000128427 0.000115514 -6.96572e-07
1.79899e-06 -6.96572e-07 -1.53527e-05
0.0013629 -0.000118661 -2.93417e-08
-0.000118661 8.45074e-05 4.68774e-08
-2.93417e-08 4.68774e-08 -4.24944e-05
0.00110121 -9.69553e-05 -1.04836e-05
-9.69553e-05 2.28806e-05 3.83165e-06
-1.04836e-05 3.83165e-06 -8.42238e-05
0.00130767 -0.00013202 5.35772e-06
-0.00013202 7.03375e-05 -1.69402e-06
5.35772e-06 -1.69402e-06 -5.86304e-05
0.00106997 -0.000107771 2.19072e-07
-0.000107771 1.80169e-05 -1.6395e-08
2.19072e-07 -1.6395e-08 -9.00677e-05
0.00222771 -5.55972e-05 -1.80161e-05
-5.55972e-05 0.000814216 5.60644e-06
-1.80161e-05 5.60644e-06 0.000757384
0.00100714 -0.000119016 9.38017e-06
-0.000119016 6.91088e-06 -3.92669e-06
9.38017e-06 -3.92669e-06 -0.000105597
0.00234469 -9.00985e-05 2.92225e-05
-9.00985e-05 0.000885764 -2.40959e-06
2.92225e-05 -2.40959e-06 0.000828337
0.00154423 -4.86703e-05 -0.00012802
-4.86703e-05 0.000507312 1.41903e-05
-0.00012802 1.41903e-05 0.000486935
0.00289553 2.80931e-05 -0.000114023
2.80931e-05 0.00127772 3.73193e-06
-0.000114023 3.73193e-06 0.0012618
0.00244047 -0.000117715 7.22953e-05
-0.000117715 0.000950438 -9.23124e-06
7.22953e-05 -9.23124e-06 0.00089536
0.00435918 9.79397e-05 0.000118889
9.79397e-05 0.00210103 -7.64534e-06
0.000118889 -7.64534e-06 0.00208961
0.00176627 0.000156599 -2.26936e-06
0.000156599 0.000153883 -8.20587e-08
-2.26936e-06 -8.20587e-08 2.5726e-05
0.001859 0.00017878 9.89141e-07
0.00017878 0.000303551 1.97553e-07
9.89141e-07 1.97553e-07 0.000170473
0.00171487 0.000166365 1.02499e-06
0.000166365 0.000158873 2.51482e-07
1.02499e-06 2.51482e-07 2.84249e-05
0.00112466 0.000157543 -5.74093e-06
0.000157543 1.84388e-05 1.85827e-07
-5.74093e-06 1.85827e-07 -0.000123745
0.00131407 0.000178201 -2.10587e-07
0.000178201 3.75029e-05 6.01408e-07
-2.10587e-07 6.01408e-07 -0.000108527
0.00128234 0.000189105 1.96261e-06
0.000189105 0.000110233 7.67651e-07
1.96261e-06 7.67651e-07 -5.22089e-05
0.00114026 0.000161339 -5.36861e-07
0.000161339 0.000110966 1.65708e-07
-5.36861e-07 1.65708e-07 -3.70787e-05
0.000975514 0.000125031 -6.50723e-06
0.000125031 7.71225e-05 -3.92827e-06
-6.50723e-06 -3.92827e-06 -3.90717e-05
0.000953571 0.000141315 1.67033e-06
0.000141315 7.99287e-05 1.90462e-06
1.67033e-06 1.90462e-06 -5.6898e-05
0.000862396 0.000102555 -3.49956e-07
0.000102555 6.35418e-05 -9.84132e-08
-3.49956e-07 -9.84132e-08 -4.23461e-05
0.000778671 6.40522e-05 -1.06309e-05
6.40522e-05 5.23779e-05 -8.0518e-06
-1.06309e-05 -8.0518e-06 -5.11851e-06
0.000669115 6.21951e-05 1.94757e-06
6.21951e-05 -1.02956e-05 1.74449e-06
1.94757e-06 1.74449e-06 -0.000105609
0.000601552 -3.62176e-06 2.33407e-07
-3.62176e-06 -3.127e-05 -2.37263e-07
2.33407e-07 -2.37263e-07 -7.85168e-05
0.00340551 -0.000107222 -9.00719e-05
-0.000107222 0.00156424 -3.36993e-06
-9.00719e-05 -3.36993e-06 0.00155995
0.000494209 -7.15452e-05 -1.05761e-06
-7.15452e-05 -7.50265e-05 6.53073e-06
-1.05761e-06 6.53073e-06 -0.000118376
0.00297885 -0.000120942 -2.32867e-06
-0.000120942 0.00131963 2.70244e-07
-2.32867e-06 2.70244e-07 0.00131677
0.0026482 -0.000108246 4.53415e-05
-0.000108246 0.00113054 2.12652e-06
4.53415e-05 2.12652e-06 0.00113181
0.00190416 8.8273e-05 -4.5518e-07
8.8273e-05 8.75187e-05 1.31935e-06
-4.5518e-07 1.31935e-06 4.98753e-06
0.00179635 8.81659e-05 7.17031e-07
8.81659e-05 2.1595e-05 -1.82606e-07
7.17031e-07 -1.82606e-07 -5.59735e-05
0.00210614 3.53518e-05 -3.15228e-05
3.53518e-05 0.000272429 -5.14983e-06
-3.15228e-05 -5.14983e-06 0.000227315
0.00188209 0.000143141 4.32284e-07
0.000143141 0.000135982 1.50921e-06
4.32284e-07 1.50921e-06 2.28302e-05
0.00175097 0.000194721 -7.53632e-07
0.000194721 0.000121024 -2.47819e-07
-7.53632e-07 -2.47819e-07 -1.47263e-05
0.00170283 0.000222895 -1.99671e-06
0.000222895 0.000244985 1.32347e-06
-1.99671e-06 1.32347e-06 0.000106151
0.00204927 0.000207306 1.19808e-06
0.000207306 0.000351356 -8.55218e-07
1.19808e-06 -8.55218e-07 0.000209474
0.00192602 0.000154226 1.68253e-07
0.000154226 0.000131563 -4.03532e-08
1.68253e-07 -4.03532e-08 2.79418e-05
0.00162383 0.000235259 -1.36852e-07
0.000235259 2.46831e-05 -1.05024e-06
-1.36852e-07 -1.05024e-06 -0.000117253
0.00176891 0.00015991 5.12087e-06
0.00015991 5.32681e-05 -1.64891e-06
5.12087e-06 -1.64891e-06 -4.98998e-05
0.00184464 2.08676e-05 1.94448e-06
2.08676e-05 8.57582e-05 4.67012e-07
1.94448e-06 4.67012e-07 2.26755e-06
0.0018968 1.72844e-05 -4.28572e-07
1.72844e-05 8.30061e-05 -1.81071e-08
-4.28572e-07 -1.81071e-08 1.31595e-05
0.0019115 2.11148e-05 -4.07778e-06
2.11148e-05 7.62778e-05 -1.1232e-06
-4.07778e-06 -1.1232e-06 1.37855e-05
0.00166408 -6.57338e-06 -4.53921e-07
-6.57338e-06 9.87039e-06 9.09794e-08
-4.53921e-07 9.09794e-08 -8.49358e-05
0.0018461 -5.65995e-05 -1.0028e-06
-5.65995e-05 3.7602e-05 3.44047e-07
-1.0028e-06 3.44047e-07 -2.15012e-05
0.00186202 -3.90144e-05 -2.90508e-07
-3.90144e-05 0.000102019 4.21391e-07
-2.90508e-07 4.21391e-07 1.48724e-05
0.00191093 -3.94594e-05 8.9259e-07
-3.94594e-05 0.000176458 -7.01417e-07
8.9259e-07 -7.01417e-07 7.15421e-05
0.0018235 -9.23042e-05 -2.2769e-06
-9.23042e-05 0.000116827 2.75985e-07
-2.2769e-06 2.75985e-07 2.78106e-05
0.00175615 -7.20462e-05 6.10109e-07
-7.20462e-05 0.00011356 -4.36092e-07
6.10109e-07 -4.36092e-07 1.6115e-06
0.0016217 -5.20881e-05 -1.19109e-06
-5.20881e-05 0.000111169 -9.41127e-08
-1.19109e-06 -9.41127e-08 -1.42454e-05
0.00167189 -9.24732e-05 -7.87364e-07
-9.24732e-05 0.000105533 2.14137e-07
-7.87364e-07 2.14137e-07 -1.12112e-05
0.001552 -7.82241e-05 -9.38323e-08
-7.82241e-05 9.98736e-05 4.91742e-08
-9.38323e-08 4.91742e-08 -2.77034e-05
0.00143303 -7.73368e-05 -4.84892e-06
-7.73368e-05 9.4989e-05 1.54126e-06
-4.84892e-06 1.54126e-06 -3.21596e-05
0.00152451 -0.000106418 1.55079e-06
-0.000106418 0.00010506 -5.25268e-07
1.55079e-06 -5.25268e-07 -2.41858e-05
0.00138364 -9.93068e-05 -6.04479e-08
-9.93068e-05 8.26044e-05 -6.42507e-09
-6.04479e-08 -6.42507e-09 -4.40075e-05
0.00111248 -8.20753e-05 -1.04807e-05
-8.20753e-05 1.75146e-05 3.19235e-06
-1.04807e-05 3.19235e-06 -8.95995e-05
0.00135325 -0.00011739 5.21039e-06
-0.00011739 7.92897e-05 -1.64619e-06
5.21039e-06 -1.64619e-06 -4.75314e-05
0.00109972 -9.48524e-05 1.77458e-07
-9.48524e-05 2.08212e-05 1.46452e-07
1.77458e-07 1.46452e-07 -8.58526e-05
0.00229169 -7.46901e-05 -2.507e-05
-7.46901e-05 0.000836535 4.77919e-06
-2.507e-05 4.77919e-06 0.000784454
0.00105661 -0.000105986 1.01568e-05
-0.000105986 9.82937e-06 -4.12541e-06
1.01568e-05 -4.12541e-06 -9.79732e-05
0.00235741 -9.55274e-05 2.59949e-05
-9.55274e-05 0.00087934 -2.49331e-06
2.59949e-05 -2.49331e-06 0.000827111
0.00162091 -4.35951e-05 -0.000125446
-4.35951e-05 0.000548426 1.30062e-05
-0.000125446 1.30062e-05 0.000528219
0.0024996 -0.000120299 7.8577e-05
-0.000120299 0.000964782 -1.1372e-05
7.8577e-05 -1.1372e-05 0.00091121
0.00143503 2.42934e-05 -6.51137e-05
2.42934e-05 0.000463066 4.50082e-06
-6.51137e-05 4.50082e-06 0.000431455
0.00445045 0.000282851 -9.05105e-06
0.000282851 0.00219898 -4.87409e-06
-9.05105e-06 -4.87409e-06 0.00215113
0.00171014 0.000127465 2.3819e-07
0.000127465 0.000103864 6.14966e-07
2.3819e-07 6.14966e-07 -2.06964e-05
0.00163408 0.000141029 -1.38974e-06
0.000141029 0.000149402 -4.88542e-07
-1.38974e-06 -4.88542e-07 1.92126e-05
0.00175864 0.000158058 -2.11134e-06
0.000158058 0.000150137 1.83531e-08
-2.11134e-06 1.83531e-08 2.13218e-05
0.0016665 0.000165498 -3.58192e-06
0.000165498 0.0002678 -5.65038e-07
-3.58192e-06 -5.65038e-07 0.000138377
0.00149838 0.000164583 6.87245e-07
0.000164583 0.000103544 -2.11656e-07
6.87245e-07 -2.11656e-07 -2.87492e-05
0.00158145 0.000163901 3.67637e-06
0.000163901 8.88966e-05 -3.20949e-07
3.67637e-06 -3.20949e-07 -4.07818e-05
0.000977327 0.000128107 -9.07348e-06
0.000128107 1.44777e-05 -3.12158e-06
-9.07348e-06 -3.12158e-06 -0.000103199
0.00124749 0.000165711 -4.63626e-07
0.000165711 8.44905e-05 9.24267e-07
-4.63626e-07 9.24267e-07 -5.89437e-05
0.0013964 0.000182787 3.55893e-06
0.000182787 7.94245e-05 -2.90553e-07
3.55893e-06 -2.90553e-07 -6.6914e-05
0.00117285 0.000164168 3.62194e-06
0.000164168 0.000130331 2.47136e-06
3.62194e-06 2.47136e-06 -1.85712e-05
0.000928039 0.000121021 -4.81162e-07
0.000121021 5.07703e-05 -1.74357e-07
-4.81162e-07 -1.74357e-07 -6.46702e-05
0.000779739 0.000118525 -1.61209e-05
0.000118525 4.1679e-05 -9.2626e-06
-1.61209e-05 -9.2626e-06 -2.50745e-05
0.000745601 9.41051e-05 3.61076e-06
9.41051e-05 -2.37676e-07 2.55877e-06
3.61076e-06 2.55877e-06 -0.00010467
0.000644434 5.84358e-05 -9.8173e-08
5.84358e-05 -1.49048e-05 4.42419e-09
-9.8173e-08 4.42419e-09 -7.22923e-05
0.00388209 -9.3879e-05 -0.000107264
-9.3879e-05 0.00184235 -6.30304e-06
-0.000107264 -6.30304e-06 0.00183263
0.000515809 -1.41834e-05 3.88137e-06
-1.41834e-05 -7.66544e-05 6.80941e-06
3.88137e-06 6.80941e-06 -0.00012221
0.00333367 -0.000134168 -4.44641e-06
-0.000134168 0.0015264 4.24892e-07
-4.44641e-06 4.24892e-07 0.00151843
0.00290185 -0.000123041 5.21318e-05
-0.000123041 0.0012769 1.90102e-06
5.21318e-05 1.90102e-06 0.00127393
0.00178217 7.89347e-05 1.20057e-06
7.89347e-05 5.45633e-05 1.33444e-06
1.20057e-06 1.33444e-06 -4.1307e-05
0.00182311 9.00431e-05 -2.98366e-07
9.00431e-05 4.03721e-05 3.28809e-07
-2.98366e-07 3.28809e-07 -4.18495e-05
0.00183611 8.93672e-05 6.78677e-07
8.93672e-05 3.91828e-05 -1.66904e-06
6.78677e-07 -1.66904e-06 -3.83645e-05
0.00188366 0.000142049 5.83318e-07
0.000142049 0.000137021 -9.16548e-08
5.83318e-07 -9.16548e-08 2.47223e-05
0.00175364 0.000190402 -3.73064e-07
0.000190402 0.000127946 -1.52401e-06
-3.73064e-07 -1.52401e-06 -6.65659e-06
0.00177196 0.000147801 1.52065e-06
0.000147801 4.57463e-05 -1.75779e-06
1.52065e-06 -1.75779e-06 -5.91486e-05
0.00183243 2.30896e-05 4.55198e-07
2.30896e-05 0.00010595 3.72821e-07
4.55198e-07 3.72821e-07 1.14641e-05
0.00186316 2.22158e-05 3.06951e-07
2.22158e-05 9.69344e-05 -2.50159e-07
3.06951e-07 -2.50159e-07 1.22853e-05
0.0017907 1.80854e-05 -6.2958e-08
1.80854e-05 2.60811e-05 -1.77913e-07
-6.2958e-08 -1.77913e-07 -4.58341e-05
0.00176162 -1.30435e-05 -1.33602e-06
-1.30435e-05 6.26869e-05 9.22009e-08
-1.33602e-06 9.22009e-08 -3.11049e-05
0.0017289 -1.809e-05 1.04795e-06
-1.809e-05 7.84816e-05 -4.15825e-07
1.04795e-06 -4.15825e-07 -2.77062e-05
0.00185692 -4.01597e-05 -9.18341e-07
-4.01597e-05 9.90614e-05 5.33414e-07
-9.18341e-07 5.33414e-07 1.17011e-05
0.00180686 -3.97297e-05 -4.03086e-07
-3.97297e-05 0.000118536 3.5148e-07
-4.03086e-07 3.5148e-07 1.12002e-05
0.00168843 -2.89686e-05 1.92752e-07
-2.89686e-05 0.000125604 -4.48774e-07
1.92752e-07 -4.48774e-07 5.31495e-06
0.00174838 -7.25409e-05 -9.93679e-08
-7.25409e-05 0.000108992 1.75484e-07
-9.93679e-08 1.75484e-07 -2.90555e-06
0.00158614 -5.34314e-05 -2.03939e-07
-5.34314e-05 9.0882e-05 -7.29789e-08
-2.03939e-07 -7.29789e-08 -3.46156e-05
0.00143924 -4.61938e-05 -5.58304e-06
-4.61938e-05 8.04532e-05 1.25799e-06
-5.58304e-06 1.25799e-06 -4.65677e-05
0.00152289 -7.8262e-05 8.75387e-07
-7.8262e-05 8.12892e-05 -3.74971e-07
8.75387e-07 -3.74971e-07 -4.62726e-05
0.00140207 -7.54861e-05 8.48496e-08
-7.54861e-05 7.79756e-05 7.40177e-08
8.48496e-08 7.40177e-08 -4.90282e-05
0.00112245 -6.34566e-05 -1.04397e-05
-6.34566e-05 1.00228e-05 2.86616e-06
-1.04397e-05 2.86616e-06 -9.79075e-05
0.00137483 -9.81339e-05 4.80037e-06
-9.81339e-05 7.77115e-05 -1.57187e-06
4.80037e-06 -1.57187e-06 -4.87254e-05
0.00111926 -7.98385e-05 -2.32232e-08
-7.98385e-05 2.0053e-05 6.65324e-08
-2.32232e-08 6.65324e-08 -8.66351e-05
0.00230124 -8.1276e-05 -2.83443e-05
-8.1276e-05 0.000834794 4.03497e-06
-2.83443e-05 4.03497e-06 0.000782594
0.00109499 -9.27665e-05 1.0572e-05
-9.27665e-05 1.68829e-05 -3.63041e-06
1.0572e-05 -3.63041e-06 -8.93457e-05
0.00236771 -9.16392e-05 2.47784e-05
-9.16392e-05 0.000875648 -2.04525e-06
2.47784e-05 -2.04525e-06 0.000825735
0.00167211 -3.88745e-05 -0.000125412
-3.88745e-05 0.000570997 1.12658e-05
-0.000125412 1.12658e-05 0.000551297
0.00247581 -0.000107664 7.80762e-05
-0.000107664 0.000941263 -1.00986e-05
7.80762e-05 -1.00986e-05 0.000891528
0.00145159 5.58725e-06 -5.86442e-05
5.58725e-06 0.000462867 4.66271e-06
-5.86442e-05 4.66271e-06 0.000436407
0.00139532 5.69961e-05 9.49978e-06
5.69961e-05 0.000445672 -4.26083e-06
9.49978e-06 -4.26083e-06 0.000410404
0.00186663 7.88289e-05 7.76619e-07
7.88289e-05 0.000157778 1.56261e-06
7.76619e-07 1.56261e-06 4.8944e-05
0.00156164 0.000109259 -1.86566e-06
0.000109259 8.61352e-05 -1.47552e-07
-1.86566e-06 -1.47552e-07 -4.32743e-05
0.00174848 0.000129573 -1.13768e-06
0.000129573 0.00012102 -1.57543e-07
-1.13768e-06 -1.57543e-07 -2.03748e-06
0.00162198 0.000137019 -4.23975e-06
0.000137019 0.00021265 -1.56482e-06
-4.23975e-06 -1.56482e-06 8.64459e-05
0.00169471 0.000142435 9.54906e-07
0.000142435 0.000186101 3.64094e-07
9.54906e-07 3.64094e-07 5.59232e-05
0.00174883 0.000159435 2.49057e-06
0.000159435 0.000145751 5.01331e-07
2.49057e-06 5.01331e-07 1.62242e-05
0.00102041 0.000120758 -1.00766e-05
0.000120758 -8.55272e-06 -3.30955e-06
-1.00766e-05 -3.30955e-06 -0.000120541
0.00140913 0.00015656 3.03337e-06
0.00015656 0.000122168 1.79741e-07
3.03337e-06 1.79741e-07 -8.30079e-06
0.00114039 0.000150365 3.35962e-06
0.000150365 -9.53699e-05 -5.79039e-07
3.35962e-06 -5.79039e-07 -0.000226893
0.000678736 0.000133312 -1.8395e-05
0.000133312 -3.29576e-05 -8.80837e-06
-1.8395e-05 -8.80837e-06 -0.000103051
0.00100763 0.000129192 -9.45748e-07
0.000129192 3.0538e-05 5.33269e-07
-9.45748e-07 5.33269e-07 -8.71715e-05
0.00137644 0.000174192 5.69857e-06
0.000174192 0.000153924 1.81877e-06
5.69857e-06 1.81877e-06 9.19993e-06
0.000890889 0.000117594 5.94483e-06
0.000117594 3.06369e-05 3.80276e-06
5.94483e-06 3.80276e-06 -8.41872e-05
0.000648178 0.000105373 1.64843e-07
0.000105373 -2.50481e-05 7.17772e-08
1.64843e-07 7.17772e-08 -9.14389e-05
0.0045176 -8.46467e-05 -0.000118895
-8.46467e-05 0.00220858 -1.04004e-05
-0.000118895 -1.04004e-05 0.0021894
0.000527229 4.81541e-05 7.60711e-06
4.81541e-05 -7.57343e-05 7.82145e-06
7.60711e-06 7.82145e-06 -0.000131448
0.00375 -0.000135428 -7.41139e-06
-0.000135428 0.00177163 5.36002e-07
-7.41139e-06 5.36002e-07 0.00175859
0.00323757 -0.00014133 6.19121e-05
-0.00014133 0.0014724 1.85571e-06
6.19121e-05 1.85571e-06 0.0014635
0.00177643 5.768e-05 3.21751e-07
5.768e-05 7.85841e-05 2.93513e-07
3.21751e-07 2.93513e-07 -2.04576e-05
0.00176724 7.81073e-05 2.80694e-07
7.81073e-05 4.81212e-05 4.36089e-07
2.80694e-07 4.36089e-07 -4.72567e-05
0.0017283 9.10319e-05 1.80303e-06
9.10319e-05 -1.19647e-05 -8.78173e-07
1.80303e-06 -8.78173e-07 -9.38792e-05
0.00188235 0.000140782 2.20883e-07
0.000140782 0.000136664 -1.50257e-06
2.20883e-07 -1.50257e-06 2.5237e-05
0.00174484 -3.18166e-06 1.19359e-06
-3.18166e-06 8.61564e-05 5.97085e-08
1.19359e-06 5.97085e-08 -2.10553e-05
0.00187628 1.9646e-05 -1.00001e-07
1.9646e-05 0.000127652 -1.24688e-07
-1.00001e-07 -1.24688e-07 3.33687e-05
0.00188693 2.30799e-05 -1.43878e-06
2.30799e-05 0.000110896 -9.20656e-08
-1.43878e-06 -9.20656e-08 2.51069e-05
0.00186222 -1.65919e-05 -2.63698e-06
-1.65919e-05 0.000117362 -3.36965e-07
-2.63698e-06 -3.36965e-07 2.45837e-05
0.00171955 -1.15715e-05 -8.97693e-07
-1.15715e-05 7.31879e-05 -6.63093e-08
-8.97693e-07 -6.63093e-08 -3.2095e-05
0.0017781 -6.58133e-06 8.66026e-07
-6.58133e-06 0.000170901 -4.05831e-07
8.66026e-07 -4.05831e-07 5.39087e-05
0.001703 -4.00839e-05 -1.32436e-06
-4.00839e-05 6.05712e-05 1.20404e-06
-1.32436e-06 1.20404e-06 -4.91831e-05
0.00167048 -2.84445e-05 5.33675e-07
-2.84445e-05 0.000117392 1.12126e-07
5.33675e-07 1.12126e-07 -4.38638e-06
0.00136363 -1.83876e-05 -4.44469e-06
-1.83876e-05 2.18721e-05 4.17776e-07
-4.44469e-06 4.17776e-07 -0.000103701
0.00155525 -5.32196e-05 5.42923e-07
-5.32196e-05 7.32246e-05 -4.91628e-08
5.42923e-07 -4.91628e-08 -5.22525e-05
0.00141629 -4.34849e-05 -4.63859e-07
-4.34849e-05 6.6852e-05 2.06651e-07
-4.63859e-07 2.06651e-07 -5.99459e-05
0.00115003 -4.03845e-05 -1.07879e-05
-4.03845e-05 9.46426e-06 2.44645e-06
-1.07879e-05 2.44645e-06 -9.9756e-05
0.00136726 -7.16394e-05 4.52135e-06
-7.16394e-05 5.88218e-05 -1.34025e-06
4.52135e-06 -1.34025e-06 -6.78925e-05
0.0011334 -6.28739e-05 1.60369e-08
-6.28739e-05 1.52136e-05 1.04163e-07
1.60369e-08 1.04163e-07 -9.25423e-05
0.000675315 -4.94491e-05 -1.58569e-05
-4.94491e-05 -8.53583e-05 3.99739e-06
-1.58569e-05 3.99739e-06 -0.000146597
0.00113073 -7.78372e-05 1.05338e-05
-7.78372e-05 2.49829e-05 -3.16002e-06
1.05338e-05 -3.16002e-06 -8.12634e-05
0.00152572 -6.26319e-05 3.17483e-05
-6.26319e-05 0.000396399 -1.74422e-06
3.17483e-05 -1.74422e-06 0.000342874
0.00493249 -8.91704e-05 -0.000153075
-8.91704e-05 0.00239521 7.97918e-06
-0.000153075 7.97918e-06 0.0023926
0.0024574 -8.89528e-05 7.80874e-05
-8.89528e-05 0.000921139 -8.36872e-06
7.80874e-05 -8.36872e-06 0.000873921
0.00147075 -1.53894e-05 -5.23408e-05
-1.53894e-05 0.000464194 3.97573e-06
-5.23408e-05 3.97573e-06 0.00044064
0.00131554 -4.85651e-07 2.0902e-05
-4.85651e-07 0.000389486 -3.55753e-06
2.0902e-05 -3.55753e-06 0.00036106
0.00188322 5.61138e-05 1.1087e-06
5.61138e-05 0.000171981 7.70052e-07
1.1087e-06 7.70052e-07 6.65458e-05
0.00165042 7.1375e-05 -5.48408e-07
7.1375e-05 0.000120079 1.00425e-06
-5.48408e-07 1.00425e-06 -1.83494e-06
0.00186469 7.60123e-05 1.55584e-07
7.60123e-05 0.000160152 -4.13878e-08
1.55584e-07 -4.13878e-08 5.06097e-05
0.00122123 9.72955e-05 -5.50991e-06
9.72955e-05 -3.73251e-05 -1.29491e-06
-5.50991e-06 -1.29491e-06 -0.000164765
0.00167906 0.00011201 -3.56298e-08
0.00011201 0.000152504 -2.43326e-08
-3.56298e-08 -2.43326e-08 2.4306e-05
0.00178966 0.000132133 -1.03058e-06
0.000132133 0.000139421 -9.60814e-07
-1.03058e-06 -9.60814e-07 1.7821e-05
0.000671628 8.92536e-05 -1.23191e-05
8.92536e-05 -0.000227709 -4.18103e-06
-1.23191e-05 -4.18103e-06 -0.000337827
0.00164353 0.000139826 1.41302e-06
0.000139826 0.000224638 3.21939e-07
1.41302e-06 3.21939e-07 9.79796e-05
0.00175349 0.000144129 3.14722e-06
0.000144129 0.000221803 1.26013e-06
3.14722e-06 1.26013e-06 9.15903e-05
0.000614363 0.000114898 -1.74205e-05
0.000114898 -8.96104e-05 -7.33883e-06
-1.74205e-05 -7.33883e-06 -0.000156082
0.000844306 0.000113665 4.25455e-07
0.000113665 -0.000107684 -1.0621e-07
4.25455e-07 -1.0621e-07 -0.000220583
0.00114604 0.0001472 8.01808e-06
0.0001472 -2.67258e-05 8.08732e-07
8.01808e-06 8.08732e-07 -0.000158163
0.00495406 -7.86875e-05 -0.000120625
-7.86875e-05 0.00245041 -1.18549e-05
-0.000120625 -1.18549e-05 0.00242736
0.00062545 0.000123367 1.31551e-06
0.000123367 -6.11348e-05 4.48899e-07
1.31551e-06 4.48899e-07 -0.000130507
0.00102384 0.000129639 8.58387e-06
0.000129639 3.90704e-05 4.56171e-06
8.58387e-06 4.56171e-06 -7.8659e-05
0.00050418 9.66544e-05 1.21977e-05
9.66544e-05 -0.000100885 8.89655e-06
1.21977e-05 8.89655e-06 -0.000165958
0.00425106 -0.000116706 -7.51875e-06
-0.000116706 0.00205923 3.47514e-07
-7.51875e-06 3.47514e-07 0.00204194
0.00358336 -0.000158967 7.32185e-05
-0.000158967 0.00168016 2.35776e-06
7.32185e-05 2.35776e-06 0.00166434
0.00180589 3.48078e-05 -5.21021e-07
3.48078e-05 0.000117763 -7.77875e-08
-5.21021e-07 -7.77875e-08 1.10817e-05
0.00178705 5.69604e-05 -9.59263e-08
5.69604e-05 8.08847e-05 2.8156e-07
-9.59263e-08 2.8156e-07 -1.79659e-05
0.00175314 7.77942e-05 -4.19313e-07
7.77942e-05 4.18452e-05 -6.61609e-07
-4.19313e-07 -6.61609e-07 -5.30544e-05
0.00170071 6.95854e-06 1.0514e-06
6.95854e-06 0.000122643 -2.49077e-07
1.0514e-06 -2.49077e-07 5.03369e-06
0.00173702 -9.28512e-08 -3.96275e-08
-9.28512e-08 8.53099e-05 6.65961e-08
-3.96275e-08 6.65961e-08 -2.09353e-05
0.00192064 1.39753e-05 -1.48572e-06
1.39753e-05 0.000149689 -3.38837e-08
-1.48572e-06 -3.38837e-08 5.56037e-05
0.00170356 -6.25899e-06 -1.87955e-06
-6.25899e-06 6.40326e-05 5.42805e-07
-1.87955e-06 5.42805e-07 -4.03351e-05
0.00176477 -3.95296e-06 1.09157e-06
-3.95296e-06 0.000162979 -1.72381e-07
1.09157e-06 -1.72381e-07 4.60548e-05
0.00174051 -2.94572e-06 -2.66517e-06
-2.94572e-06 0.000221739 -2.65001e-08
-2.66517e-06 -2.65001e-08 0.000101319
0.00165417 -2.78654e-05 1.16145e-06
-2.78654e-05 0.000110074 5.27864e-07
1.16145e-06 5.27864e-07 -1.31997e-05
0.00158232 -1.71654e-05 -1.86724e-08
-1.71654e-05 0.000142838 6.33448e-08
-1.86724e-08 6.33448e-08 1.85601e-05
0.000801392 -1.54908e-05 -1.27027e-05
-1.54908e-05 -0.000197389 1.8171e-06
-1.27027e-05 1.8171e-06 -0.000310522
0.00139902 -4.29722e-05 4.13556e-06
-4.29722e-05 5.62764e-05 -8.1028e-07
4.13556e-06 -8.1028e-07 -7.04495e-05
0.0011428 -3.75271e-05 4.04128e-08
-3.75271e-05 5.11668e-06 1.52694e-07
4.04128e-08 1.52694e-07 -0.000103862
0.000673349 -2.01048e-05 -1.56701e-05
-2.01048e-05 -9.62093e-05 2.91487e-06
-1.56701e-05 2.91487e-06 -0.000159112
0.0011471 -6.11854e-05 1.07184e-05
-6.11854e-05 2.182e-05 -2.70435e-06
1.07184e-05 -2.70435e-06 -8.56507e-05
0.000680395 -3.55089e-05 -2.58243e-07
-3.55089e-05 -8.30407e-05 1.77702e-07
-2.58243e-07 1.77702e-07 -0.000144494
0.00498676 -2.47046e-05 -0.000144743
-2.47046e-05 0.00241996 5.25541e-06
-0.000144743 5.25541e-06 0.00241973
0.000716574 -5.31107e-05 1.57907e-05
-5.31107e-05 -5.84941e-05 -5.71352e-06
1.57907e-05 -5.71352e-06 -0.000119258
0.00317493 -5.37885e-05 6.53249e-05
-5.37885e-05 0.00141338 -5.60441e-07
6.53249e-05 -5.60441e-07 0.00139769
0.00124957 -3.07047e-05 2.68667e-05
-3.07047e-05 0.000348822 -3.50248e-06
2.68667e-05 -3.50248e-06 0.000320373
0.00181469 4.63959e-05 1.97828e-07
4.63959e-05 0.00015215 2.15374e-07
1.97828e-07 2.15374e-07 4.30729e-05
0.00157894 3.98021e-05 5.68375e-08
3.98021e-05 7.81769e-05 9.82091e-07
5.68375e-08 9.82091e-07 -4.06297e-05
0.00184929 5.36401e-05 -3.29894e-07
5.36401e-05 0.000153403 -2.05756e-07
-3.29894e-07 -2.05756e-07 4.8103e-05
0.00143353 6.89919e-05 -4.42031e-06
6.89919e-05 7.04352e-05 -3.70869e-07
-4.42031e-06 -3.70869e-07 -5.31694e-05
0.00160828 6.95552e-05 4.23187e-07
6.95552e-05 9.50655e-05 9.70088e-08
4.23187e-07 9.70088e-08 -2.77271e-05
0.00186385 7.28623e-05 -1.15006e-06
7.28623e-05 0.000163054 -1.39371e-06
-1.15006e-06 -1.39371e-06 5.28256e-05
0.000660231 7.06215e-05 -1.25046e-05
7.06215e-05 -0.000254491 -3.18276e-06
-1.25046e-05 -3.18276e-06 -0.000364148
0.00152353 0.000107181 -1.35422e-06
0.000107181 0.000132093 -2.48607e-07
-1.35422e-06 -2.48607e-07 5.9509e-06
0.00179626 0.00011455 2.18727e-06
0.00011455 0.000218858 -1.11131e-07
2.18727e-06 -1.11131e-07 9.19012e-05
0.000621379 8.30228e-05 -1.60479e-05
8.30228e-05 -0.000101301 -5.98548e-06
-1.60479e-05 -5.98548e-06 -0.000164323
0.000650219 8.93599e-05 -2.64762e-06
8.93599e-05 -0.000240004 -6.94687e-07
-2.64762e-06 -6.94687e-07 -0.000350758
0.00166255 0.000142545 7.20885e-06
0.000142545 0.00023522 1.91859e-06
7.20885e-06 1.91859e-06 0.000108119
0.00506672 5.41239e-06 -0.000137919
5.41239e-06 0.00248166 -9.68428e-06
-0.000137919 -9.68428e-06 0.00247445
0.000597862 0.000105702 8.73761e-07
0.000105702 -9.76098e-05 3.312e-07
8.73761e-07 3.312e-07 -0.000164885
0.000664476 0.000106606 1.05504e-05
0.000106606 -0.000208959 3.18065e-06
1.05504e-05 3.18065e-06 -0.000322781
0.00474435 -5.25247e-05 6.09921e-06
-5.25247e-05 0.00232361 -4.63084e-07
6.09921e-06 -4.63084e-07 0.0023088
0.000530083 0.000111472 1.51827e-05
0.000111472 -0.00011035 9.07104e-06
1.51827e-05 9.07104e-06 -0.000180046
0.00400989 -0.000162694 8.50256e-05
-0.000162694 0.00193259 4.96529e-06
8.50256e-05 4.96529e-06 0.00191073
0.00177427 2.5841e-05 -1.76736e-07
2.5841e-05 0.000160907 -9.66383e-08
-1.76736e-07 -9.66383e-08 4.55436e-05
0.00175887 3.32408e-05 -2.64556e-07
3.32408e-05 9.56276e-05 8.35644e-08
-2.64556e-07 8.35644e-08 -1.18115e-05
0.00179655 5.6075e-05 -5.98143e-07
5.6075e-05 8.22643e-05 -1.35007e-07
-5.98143e-07 -1.35007e-07 -1.63925e-05
0.00171546 -1.67405e-06 -2.71942e-06
-1.67405e-06 0.000211182 -1.57224e-07
-2.71942e-06 -1.57224e-07 9.27e-05
0.00172837 6.0896e-06 6.62202e-07
6.0896e-06 0.000137818 2.02211e-09
6.62202e-07 2.02211e-09 2.12745e-05
0.00174065 5.00598e-06 3.05245e-07
5.00598e-06 9.05264e-05 -1.54581e-08
3.05245e-07 -1.54581e-08 -1.47725e-05
0.00175178 -2.22354e-06 9.00896e-07
-2.22354e-06 0.00015524 3.08436e-07
9.00896e-07 3.08436e-07 3.83749e-05
0.0017422 -2.74419e-06 1.74465e-06
-2.74419e-06 0.000222599 -2.15532e-07
1.74465e-06 -2.15532e-07 0.000102124
0.000812741 -4.94993e-06 -1.19646e-05
-4.94993e-06 -0.000196104 7.964e-07
-1.19646e-05 7.964e-07 -0.000308833
0.00180436 -1.61199e-05 5.46706e-06
-1.61199e-05 0.000265761 -5.28897e-07
5.46706e-06 -5.28897e-07 0.000142781
0.000982363 -1.41275e-05 -2.55518e-06
-1.41275e-05 -9.64244e-05 4.07711e-07
-2.55518e-06 4.07711e-07 -0.000207943
0.000694942 -7.01179e-06 -1.61901e-05
-7.01179e-06 -9.36409e-05 1.94528e-06
-1.61901e-05 1.94528e-06 -0.0001581
0.001142 -3.6061e-05 1.06705e-05
-3.6061e-05 4.2688e-06 -2.157e-06
1.06705e-05 -2.157e-06 -0.000104557
0.000681289 -1.84382e-05 3.89895e-07
-1.84382e-05 -9.28243e-05 3.29721e-08
3.89895e-07 3.29721e-08 -0.000155393
0.0050902 -5.60859e-05 -0.000148411
-5.60859e-05 0.00247671 4.00142e-06
-0.000148411 4.00142e-06 0.00247534
0.000677016 -2.30141e-05 1.47024e-05
-2.30141e-05 -8.6674e-05 -3.36498e-06
1.47024e-05 -3.36498e-06 -0.000147382
0.00501123 -1.33786e-05 1.02091e-05
-1.33786e-05 0.00243637 -4.1499e-08
1.02091e-05 -4.1499e-08 0.00243403
0.00149123 -1.60543e-05 0.000129736
-1.60543e-05 0.000469515 -6.01639e-06
0.000129736 -6.01639e-06 0.00045179
0.00170949 3.08139e-05 1.85438e-07
3.08139e-05 0.000150531 2.24135e-07
1.85438e-07 2.24135e-07 3.39426e-05
0.00176384 4.96763e-05 -9.8757e-07
4.96763e-05 0.000120372 -1.44978e-07
-9.8757e-07 -1.44978e-07 1.20342e-05
0.00144212 3.58257e-05 -4.02286e-06
3.58257e-05 7.37457e-05 -1.26662e-07
-4.02286e-06 -1.26662e-07 -4.65418e-05
0.00157373 3.9188e-05 3.58654e-07
3.9188e-05 7.55564e-05 -1.11523e-08
3.58654e-07 -1.11523e-08 -4.32804e-05
0.00181346 5.13097e-05 -7.82038e-07
5.13097e-05 0.000133805 -1.34489e-06
-7.82038e-07 -1.34489e-06 2.86417e-05
0.001146 5.87636e-05 -1.07474e-05
5.87636e-05 4.32918e-06 -1.99099e-06
-1.07474e-05 -1.99099e-06 -0.00010114
0.00141103 6.85386e-05 2.50496e-08
6.85386e-05 5.83632e-05 1.84778e-07
2.50496e-08 1.84778e-07 -6.53381e-05
0.00156297 6.77422e-05 6.07781e-07
6.77422e-05 6.84189e-05 -5.35156e-07
6.07781e-07 -5.35156e-07 -5.52652e-05
0.000639332 5.78558e-05 -1.56901e-05
5.78558e-05 -0.000106405 -4.41585e-06
-1.56901e-05 -4.41585e-06 -0.000167764
0.000885743 7.8768e-05 -3.19917e-06
7.8768e-05 -0.000129166 -4.85489e-07
-3.19917e-06 -4.85489e-07 -0.000238137
0.00183442 0.000117308 5.08212e-06
0.000117308 0.000306255 1.11976e-06
5.08212e-06 1.11976e-06 0.0001814
0.00508499 7.08487e-05 -0.000156523
7.08487e-05 0.00247788 -8.95951e-06
-0.000156523 -8.95951e-06 0.00247616
0.000613053 7.92658e-05 1.73958e-07
7.92658e-05 -0.000105554 5.3466e-08
1.73958e-07 5.3466e-08 -0.000168773
0.000630231 8.97106e-05 7.38876e-06
8.97106e-05 -0.000251625 2.5134e-06
7.38876e-06 2.5134e-06 -0.000363027
0.00496258 2.35018e-05 9.70739e-06
2.35018e-05 0.00242727 7.10974e-07
9.70739e-06 7.10974e-07 0.00241916
0.000582283 9.59285e-05 1.56497e-05
9.59285e-05 -0.000105646 7.39657e-06
1.56497e-05 7.39657e-06 -0.000173341
0.00453614 -7.63508e-05 0.000112475
-7.63508e-05 0.00220464 6.96841e-06
0.000112475 6.96841e-06 0.00219362
0.00171745 1.91164e-05 -2.67035e-06
1.91164e-05 0.000217918 -2.64231e-07
-2.67035e-06 -2.64231e-07 0.000101101
0.0017501 2.15932e-05 -1.21781e-08
2.15932e-05 0.000149988 1.05297e-07
-1.21781e-08 1.05297e-07 3.40874e-05
0.00171293 3.14428e-05 -4.92709e-07
3.14428e-05 7.46523e-05 8.34342e-08
-4.92709e-07 8.34342e-08 -3.35217e-05
0.00080155 -1.03353e-05 -1.24487e-05
-1.03353e-05 -0.000199037 -1.5628e-07
-1.24487e-05 -1.5628e-07 -0.000310146
0.00173746 4.77799e-06 1.83091e-06
4.77799e-06 0.000223488 -5.43858e-08
1.83091e-06 -5.43858e-08 0.000104988
0.00175032 5.22729e-06 1.14747e-06
5.22729e-06 0.000150085 1.41903e-07
1.14747e-06 1.41903e-07 3.46177e-05
0.00174429 -2.83529e-06 6.02088e-06
-2.83529e-06 0.000223722 -1.19498e-07
6.02088e-06 -1.19498e-07 0.000103188
0.000804939 -5.03824e-06 -1.9058e-06
-5.03824e-06 -0.000200786 1.74851e-07
-1.9058e-06 1.74851e-07 -0.000313625
0.000715633 -1.12976e-05 -1.63966e-05
-1.12976e-05 -8.73639e-05 7.76322e-07
-1.63966e-05 7.76322e-07 -0.000152223
0.00115145 -1.19481e-05 8.54234e-06
-1.19481e-05 -2.01351e-06 -1.27335e-06
8.54234e-06 -1.27335e-06 -0.000111905
0.000686103 2.36476e-06 1.72513e-07
2.36476e-06 -9.91945e-05 1.06046e-07
1.72513e-07 1.06046e-07 -0.000163447
0.00522789 -6.01788e-05 -0.000155275
-6.01788e-05 0.00255173 2.4644e-06
-0.000155275 2.4644e-06 0.00254937
0.000690267 -8.97494e-06 1.55008e-05
-8.97494e-06 -8.83056e-05 -2.34063e-06
1.55008e-05 -2.34063e-06 -0.000150965
0.00513754 1.45741e-05 3.68478e-06
1.45741e-05 0.00250019 5.34679e-07
3.68478e-06 5.34679e-07 0.0025
0.00503705 -6.19392e-05 0.000159021
-6.19392e-05 0.00244841 -4.64478e-06
0.000159021 -4.64478e-06 0.00244732
0.0014658 2.2605e-05 -4.07776e-06
2.2605e-05 8.73331e-05 -4.69914e-07
-4.07776e-06 -4.69914e-07 -3.16992e-05
0.00165933 3.30978e-05 2.94168e-07
3.30978e-05 0.000121695 -2.3352e-07
2.94168e-07 -2.3352e-07 6.0702e-06
0.00171302 5.30809e-05 -1.85556e-06
5.30809e-05 8.86375e-05 -2.67508e-07
-1.85556e-06 -2.67508e-07 -1.89672e-05
0.00114958 2.95805e-05 -1.05308e-05
2.95805e-05 3.22749e-06 -1.52248e-06
-1.05308e-05 -1.52248e-06 -0.000101172
0.00142128 3.58896e-05 2.37227e-07
3.58896e-05 6.17752e-05 6.74584e-08
2.37227e-07 6.74584e-08 -5.87133e-05
0.00156745 3.85523e-05 1.85089e-07
3.85523e-05 7.25043e-05 -1.02115e-06
1.85089e-07 -1.02115e-06 -4.63649e-05
0.000663099 3.47246e-05 -1.5253e-05
3.47246e-05 -0.000102958 -3.35206e-06
-1.5253e-05 -3.35206e-06 -0.000164137
0.00114112 6.03662e-05 7.96932e-08
6.03662e-05 1.92277e-06 1.63435e-07
7.96932e-08 1.63435e-07 -0.000103872
0.00138921 6.80677e-05 4.69744e-06
6.80677e-05 4.65569e-05 7.94552e-07
4.69744e-06 7.94552e-07 -7.72424e-05
0.00510456 9.09115e-05 -0.00016822
9.09115e-05 0.00248492 -7.83167e-06
-0.00016822 -7.83167e-06 0.00248334
0.000650922 5.83788e-05 9.62912e-08
5.83788e-05 -9.95865e-05 1.85884e-07
9.62912e-08 1.85884e-07 -0.000161105
0.00110181 8.67546e-05 7.74893e-06
8.67546e-05 -9.06837e-06 2.34126e-06
7.74893e-06 2.34126e-06 -0.000117322
0.00502127 8.20381e-05 5.09686e-06
8.20381e-05 0.00244811 1.2511e-06
5.09686e-06 1.2511e-06 0.00244432
0.000608821 7.58819e-05 1.50671e-05
7.58819e-05 -0.000107505 5.84716e-06
1.50671e-05 5.84716e-06 -0.000170705
0.00489028 3.97027e-05 0.000142078
3.97027e-05 0.00238186 9.15887e-06
0.000142078 9.15887e-06 0.00237794
0.00118547 8.84487e-06 -1.12013e-05
8.84487e-06 1.73905e-05 -6.93016e-07
-1.12013e-05 -6.93016e-07 -8.93538e-05
0.001539 1.40185e-05 2.03316e-06
1.40185e-05 0.000118479 7.47409e-08
2.03316e-06 7.47409e-08 1.72023e-07
0.00172479 1.63192e-05 5.82882e-07
1.63192e-05 0.000138107 2.78761e-07
5.82882e-07 2.78761e-07 2.16639e-05
0.000710764 2.13063e-05 -1.67469e-05
2.13063e-05 -9.45033e-05 -3.08651e-07
-1.67469e-05 -3.08651e-07 -0.000155033
0.000797073 -4.35277e-06 -2.0747e-06
-4.35277e-06 -0.000202508 2.82122e-08
-2.0747e-06 2.82122e-08 -0.000313792
0.00175982 1.11741e-05 6.40769e-06
1.11741e-05 0.000235939 7.72835e-08
6.40769e-06 7.72835e-08 0.000117415
0.000797177 -4.69572e-06 8.09218e-06
-4.69572e-06 -0.000205501 -3.69183e-07
8.09218e-06 -3.69183e-07 -0.000318438
0.000689443 9.99308e-07 1.05612e-07
9.99308e-07 -0.000101949 3.00003e-07
1.05612e-07 3.00003e-07 -0.000166602
0.00530109 5.73233e-05 -0.000164963
5.73233e-05 0.00258887 -7.80798e-07
-0.000164963 -7.80798e-07 0.00258768
0.000667309 1.1392e-05 1.55152e-05
1.1392e-05 -0.000110064 -1.26256e-06
1.55152e-05 -1.26256e-06 -0.000174117
0.00525083 -4.9068e-05 -5.60487e-06
-4.9068e-05 0.00256228 1.09341e-06
-5.60487e-06 1.09341e-06 0.00256072
0.00517173 6.0984e-05 0.000149255
6.0984e-05 0.00252118 -1.75984e-06
0.000149255 -1.75984e-06 0.00251874
0.00116717 1.48298e-05 -1.10554e-05
1.48298e-05 1.0255e-05 -1.40739e-06
-1.10554e-05 -1.40739e-06 -9.48557e-05
0.00137806 2.14531e-05 8.82659e-08
2.14531e-05 3.78277e-05 -6.32474e-08
8.82659e-08 -6.32474e-08 -8.12303e-05
0.00161243 3.52957e-05 9.97318e-08
3.52957e-05 9.45366e-05 -7.17679e-07
9.97318e-08 -7.17679e-07 -2.01267e-05
0.00253153 2.31933e-05 -8.49591e-05
2.31933e-05 0.000935318 -2.45697e-06
-8.49591e-05 -2.45697e-06 0.000889889
0.00115729 3.1674e-05 1.50367e-07
3.1674e-05 7.02224e-06 1.56595e-07
1.50367e-07 1.56595e-07 -9.75661e-05
0.00139833 3.57936e-05 4.42602e-06
3.57936e-05 4.86703e-05 2.75913e-07
4.42602e-06 2.75913e-07 -7.20255e-05
0.00509824 9.13209e-05 -0.000171486
9.13209e-05 0.00248259 -6.08248e-06
-0.000171486 -6.08248e-06 0.00247975
0.000692764 4.00614e-05 3.16875e-07
4.00614e-05 -8.5627e-05 1.72431e-07
3.16875e-07 1.72431e-07 -0.000147282
0.00114735 6.22171e-05 1.07773e-05
6.22171e-05 5.39297e-06 2.29346e-06
1.07773e-05 2.29346e-06 -0.000100702
0.0050811 0.000104924 2.53927e-07
0.000104924 0.00247648 1.19876e-06
2.53927e-07 1.19876e-06 0.00247322
0.00066669 5.83063e-05 1.53135e-05
5.83063e-05 -9.01972e-05 4.92194e-06
1.53135e-05 4.92194e-06 -0.000151864
0.00496427 9.87741e-05 0.000154585
9.87741e-05 0.00241885 1.01132e-05
0.000154585 1.01132e-05 0.00241466
0.000743022 7.88761e-06 -1.59778e-05
7.88761e-06 -6.97879e-05 -1.63649e-06
-1.59778e-05 -1.63649e-06 -0.000133452
0.000990696 6.37174e-06 5.52751e-07
6.37174e-06 -9.07302e-05 2.97145e-07
5.52751e-07 2.97145e-07 -0.000198898
0.00135412 8.74034e-06 5.87145e-06
8.74034e-06 1.5457e-05 3.88077e-07
5.87145e-06 3.88077e-07 -0.00010431
0.00527015 -8.4535e-05 -0.000150598
-8.4535e-05 0.0025839 -1.70359e-06
-0.000150598 -1.70359e-06 0.0025751
0.000696532 8.84577e-06 -2.29895e-07
8.84577e-06 -9.88046e-05 2.42397e-07
-2.29895e-07 2.42397e-07 -0.000161303
0.00079997 1.2995e-06 8.24698e-06
1.2995e-06 -0.000201988 1.37834e-07
8.24698e-06 1.37834e-07 -0.000313435
0.000671432 1.64987e-05 1.58702e-05
1.64987e-05 -0.000111869 3.94352e-08
1.58702e-05 3.94352e-08 -0.000176476
0.00530614 2.78955e-05 3.2875e-06
2.78955e-05 0.00259458 3.02573e-07
3.2875e-06 3.02573e-07 0.0025909
0.00529754 4.89126e-05 0.000154816
4.89126e-05 0.00258459 -2.48269e-07
0.000154816 -2.48269e-07 0.0025839
0.00258578 -2.46079e-06 -8.54616e-05
-2.46079e-06 0.000959662 -1.86189e-06
-8.54616e-05 -1.86189e-06 0.000913691
0.00118046 1.7276e-05 -2.93896e-08
1.7276e-05 1.71362e-05 2.68291e-08
-2.93896e-08 2.68291e-08 -8.80189e-05
0.00128943 2.04794e-05 4.2e-06
2.04794e-05 -1.21388e-05 1.84913e-07
4.2e-06 1.84913e-07 -0.000131221
0.00485209 -5.00603e-05 -2.87165e-05
-5.00603e-05 0.00235435 -6.21594e-07
-2.87165e-05 -6.21594e-07 0.0023415
0.000712677 2.72623e-05 -5.10587e-08
2.72623e-05 -7.78633e-05 2.1582e-07
-5.10587e-08 2.1582e-07 -0.000140147
0.00117912 3.43747e-05 1.07332e-05
3.43747e-05 1.83109e-05 1.89621e-06
1.07332e-05 1.89621e-06 -8.64321e-05
0.00512693 5.93792e-05 -9.68513e-06
5.93792e-05 0.00249574 -4.29606e-08
-9.68513e-06 -4.29606e-08 0.00249479
0.000726956 5.24628e-05 1.6468e-05
5.24628e-05 -6.52716e-05 4.00951e-06
1.6468e-05 4.00951e-06 -0.000127695
0.00505376 0.000120989 0.00016252
0.000120989 0.00246551 9.94976e-06
0.00016252 9.94976e-06 0.00246054
0.00168526 -2.95699e-05 -0.000145642
-2.95699e-05 0.000564216 3.61589e-07
-0.000145642 3.61589e-07 0.000544961
0.00165115 1.61695e-05 -3.48848e-05
1.61695e-05 0.000434905 2.95636e-07
-3.48848e-05 2.95636e-07 0.000382023
0.000800477 6.61798e-06 1.09261e-05
6.61798e-06 -0.000196315 1.09198e-06
1.09261e-05 1.09198e-06 -0.000305927
0.00526242 -3.4184e-05 8.56287e-06
-3.4184e-05 0.00257621 -6.08106e-07
8.56287e-06 -6.08106e-07 0.00257028
0.000684323 -2.49996e-06 1.64729e-05
-2.49996e-06 -0.000102867 8.59805e-07
1.64729e-05 8.59805e-07 -0.000166676
0.00530896 -4.49145e-05 0.000171124
-4.49145e-05 0.00259469 3.25336e-08
0.000171124 3.25336e-08 0.00259246
0.00136432 -3.48907e-05 -1.10395e-05
-3.48907e-05 0.000404556 -8.74564e-07
-1.10395e-05 -8.74564e-07 0.00037094
0.0016449 9.90811e-06 -3.47303e-05
9.90811e-06 0.000436913 -1.2514e-07
-3.47303e-05 -1.2514e-07 0.000382935
0.00118114 1.80167e-05 1.08202e-05
1.80167e-05 1.73739e-05 1.49002e-06
1.08202e-05 1.49002e-06 -8.78529e-05
0.00323625 3.63407e-05 6.16685e-05
3.63407e-05 0.00144395 7.5571e-07
6.16685e-05 7.5571e-07 0.00142726
0.00072313 3.57771e-05 1.66022e-05
3.57771e-05 -7.20163e-05 3.34051e-06
1.66022e-05 3.34051e-06 -0.000134552
0.00512539 9.62825e-05 0.000159988
9.62825e-05 0.00249841 7.56185e-06
0.000159988 7.56185e-06 0.00249579
0.00519702 -2.68802e-05 -8.94195e-06
-2.68802e-05 0.00254213 -2.18867e-08
-8.94195e-06 -2.18867e-08 0.00253583
0.000702558 2.71428e-05 1.70641e-05
2.71428e-05 -9.36867e-05 1.65212e-06
1.70641e-05 1.65212e-06 -0.000153814
0.00522401 6.25461e-05 0.000154715
6.25461e-05 0.00255414 -1.16583e-06
0.000154715 -1.16583e-06 0.00254922
0.00325904 2.67718e-05 7.56151e-05
2.67718e-05 0.00145776 1.25034e-06
7.56151e-05 1.25034e-06 0.00144014
0.000717411 8.37801e-06 1.62669e-05
8.37801e-06 -7.85956e-05 2.42318e-06
1.62669e-05 2.42318e-06 -0.00014097
0.00513827 -2.7202e-05 0.000150698
-2.7202e-05 0.00250151 3.88486e-06
0.000150698 3.88486e-06 0.00250054
0.00517652 -0.000132664 0.00014838
-0.000132664 0.00253778 -4.6454e-07
0.00014838 -4.6454e-07 0.00252685
0.00514608 -4.14061e-05 0.000148326
-4.14061e-05 0.0025051 1.73044e-06
0.000148326 1.73044e-06 0.0025045
