# vtk DataFile Version 2.0
Wound Healing Simulation
ASCII
DATASET UNSTRUCTURED_GRID
POINTS 3012 float
69.9759 18.75 4
67.2507 60.3285 4
69.976 18.75 2
73.0099 25.446 4
71.1327 20.9142 4
68.6801 16.6661 4
67.8188 19.9234 3.96928
67.2507 60.3286 2
71.1327 54.0858 4
68.6801 58.3339 4
65.6939 62.2254 4
65.3053 58.9999 3.96841
74.6784 42.3946 4
73.7221 47.2057 4
69.9759 18.75 0
73.0099 25.446 2
68.6801 16.6661 2
71.1327 20.9142 2
67.8193 19.9277 2
74.6792 32.6053 4
73.7222 27.7943 4
72.1454 23.1494 4
70.6102 26.2213 3.97059
68.8799 21.9559 3.96974
67.2507 14.6715 4
66.6294 17.9702 3.96833
65.6853 21.0624 3.96033
67.2507 60.3285 0
71.1327 54.0858 2
68.6801 58.3339 2
65.694 62.2255 2
65.307 58.9936 2
72.1454 51.8506 4
69.9759 56.25 4
68.8305 53.1153 3.96967
64.0165 64.0165 4
66.6035 57.1346 3.96905
63.8781 60.7615 3.96447
63.4095 57.7315 3.95688
60.3285 67.2507 4
74.6792 42.3947 2
73.7222 47.2057 2
74.9194 39.9526 4
74.2788 44.8158 4
72.1653 42.086 3.97319
73.0099 49.554 4
71.2457 46.5985 3.97153
73.0099 25.446 0
71.1327 20.9142 0
68.6801 16.6661 0
67.8188 19.9234 0.0307202
74.6792 32.6053 2
73.7222 27.7943 2
67.2508 14.6715 2
72.1455 23.1494 2
70.6094 26.2226 2
66.6307 17.9751 2
68.8798 21.959 2
65.6868 21.0632 2
74.9197 35.0474 4
74.2794 30.1841 4
72.182 32.9448 3.97328
71.2749 28.4325 3.97127
69.8107 24.0587 3.97001
68.2714 26.9733 3.96411
66.6645 22.9645 3.9624
65.694 12.7746 4
65.3161 16.1037 3.96786
64.5936 19.2369 3.95798
63.6165 22.1402 3.96661
71.1327 54.0858 0
65.6939 62.2254 0
68.6801 58.3339 0
65.3053 58.9999 0.0315902
72.1455 51.8506 2
69.9759 56.25 2
68.8306 53.1115 2
64.0165 64.0165 2
66.6049 57.1287 2
63.8796 60.7541 2
63.4012 57.7311 2
62.2254 65.694 4
58.888 65.4087 3.97311
69.7639 50.9905 3.97006
67.7771 55.1696 3.96952
66.5428 52.1768 3.96306
62.3285 62.4222 3.96619
64.5503 55.9918 3.95919
62.1634 59.3682 3.95238
61.5924 56.5694 3.96154
58.3339 68.6801 4
60.3285 67.2508 2
73.7221 47.2057 0
74.6784 42.3946 0
74.9197 39.9526 2
74.2794 44.8159 2
72.1641 42.0848 2
73.0099 49.554 2
71.2448 46.5967 2
75 37.5 4
72.4026 39.8028 3.97406
71.7792 44.3532 3.97256
69.7697 41.7854 3.968
70.5709 48.8145 3.97085
68.8447 45.9998 3.96677
74.6792 32.6053 0
73.7222 27.7943 0
67.2507 14.6715 0
72.1454 23.1494 0
70.6102 26.2213 0.0294072
68.8799 21.9559 0.0302587
66.6294 17.9702 0.0316734
65.6853 21.0624 0.0396654
74.9197 35.0474 2
74.2794 30.1841 2
72.1806 32.945 2
71.2738 28.4335 2
65.694 12.7745 2
65.3168 16.1098 2
69.8102 24.0607 2
68.2741 26.9741 2
64.5869 19.239 2
66.6666 22.9656 2
63.6173 22.1407 2
72.4105 35.2254 3.97409
71.8009 30.6778 3.97267
69.805 33.2771 3.96728
68.9048 29.0553 3.96525
67.525 24.9383 3.96346
65.9264 27.708 3.97498
64.0165 10.9835 4
64.4795 23.9262 3.96985
63.8809 14.3311 3.96396
63.4018 17.4909 3.95478
62.6445 20.4335 3.96356
61.6613 23.1183 3.97338
60.6773 11.1061 3.96923
57.6004 11.5053 3.96321
72.1454 51.8506 0
69.9759 56.25 0
68.8305 53.1153 0.0303269
64.0165 64.0165 0
63.8781 60.7615 0.0355297
66.6035 57.1346 0.0309526
63.4095 57.7315 0.0431215
62.2255 65.694 2
58.8917 65.4024 2
69.7637 50.9877 2
67.7778 55.1645 2
66.5437 52.1758 2
62.3312 62.4127 2
64.5434 55.9904 2
62.155 59.3683 2
61.5978 56.5711 2
60.6618 63.9705 3.96912
57.0194 66.7292 3.97474
57.5418 63.6373 3.96734
67.4072 50.149 3.9642
65.5915 54.137 3.96119
64.239 51.2864 3.9713
60.7552 60.8956 3.9566
62.5605 54.959 3.96566
60.4344 58.037 3.9568
59.9745 55.6136 3.96775
56.25 69.9759 4
58.3339 68.6801 2
60.3285 67.2507 0
58.9167 9.66423 3.97054
62.2254 9.30607 4
73.0099 49.554 0
74.2788 44.8158 0
71.2457 46.5985 0.0284711
72.1653 42.086 0.0268131
74.9194 39.9526 0
75 37.5 2
72.4018 39.802 2
71.7786 44.3516 2
69.7713 41.7848 2
70.5705 48.8123 2
68.8477 45.9991 2
72.4861 37.513 3.97394
70.0151 39.6567 3.96798
69.3843 43.8987 3.96779
67.3395 41.4716 3.97662
68.1783 48.0853 3.96525
66.4212 45.3804 3.97639
74.9197 35.0474 0
74.2794 30.1841 0
72.182 32.9448 0.0267167
71.2749 28.4325 0.0287314
65.694 12.7746 0
65.3161 16.1037 0.0321406
69.8107 24.0587 0.0299926
68.2714 26.9733 0.035894
66.6645 22.9645 0.0376039
64.5936 19.2369 0.0420188
63.6165 22.1402 0.033391
72.4097 35.2251 2
71.8001 30.6786 2
69.8076 33.2775 2
68.9086 29.0558 2
64.0165 10.9835 2
63.8828 14.3385 2
63.4126 17.4875 2
67.5277 24.9392 2
65.9237 27.7093 2
62.6515 20.4322 2
64.4785 23.9272 2
61.6618 23.1196 2
60.6801 11.1119 2
57.5977 11.4941 2
70.029 35.3974 3.96754
69.4213 31.162 3.96626
67.4063 33.6219 3.97651
66.5061 29.6835 3.97614
65.2528 25.7843 3.97326
63.6737 28.3783 3.97547
62.3331 12.6609 3.96644
62.4084 24.8022 3.97455
62.1584 15.8188 3.95293
61.5532 18.8087 3.95987
60.8036 21.5274 3.96975
59.8543 23.9708 3.97427
59.2319 12.8302 3.9611
55.8673 10.282 3.96896
56.37 13.2104 3.9609
69.7639 50.9905 0.0299353
62.2254 65.694 0
58.888 65.4087 0.0268924
67.7771 55.1696 0.0304781
66.5428 52.1768 0.0369405
62.3285 62.4222 0.0338109
62.1634 59.3682 0.0476238
64.5503 55.9918 0.040811
61.5924 56.5694 0.0384642
60.666 63.9636 2
57.0233 66.7236 2
57.5461 63.6466 2
67.4083 50.148 2
65.5901 54.1359 2
64.2376 51.2856 2
60.7472 60.8966 2
62.5645 54.9603 2
60.4315 58.0365 2
59.972 55.6126 2
55.0652 67.9295 3.98119
59.2087 62.3096 3.96943
55.785 64.8503 3.9684
56.3045 62.0032 3.98036
65.0294 49.3197 3.97366
63.4153 53.1851 3.96821
61.9436 50.4799 3.97349
59.2028 59.4514 3.95362
60.6707 54.1342 3.97192
58.8971 56.8155 3.96005
58.7798 54.9656 3.97102
48.0965 68.5664 3.97795
50.9437 69.9296 3.9847
54.0858 71.1327 4
56.25 69.976 2
58.3339 68.6801 0
57.055 8.33771 3.97858
60.3285 7.74928 4
58.9191 9.66955 2
62.2255 9.30602 2
70.5709 48.8145 0.0291453
71.7792 44.3532 0.0274399
68.8447 45.9998 0.0332313
69.7697 41.7854 0.0320028
72.4026 39.8028 0.0259353
75 37.5 0
72.4848 37.5124 2
70.0173 39.6564 2
69.3853 43.898 2
67.3365 41.4711 2
68.1784 48.0841 2
66.4174 45.3792 2
70.103 37.5239 3.96783
67.5871 39.502 3.97656
66.9505 43.4279 3.9765
65.1174 41.1719 3.97623
65.7679 47.3429 3.97556
64.1713 44.7623 3.97569
72.4105 35.2254 0.0259094
71.8009 30.6778 0.0273328
69.805 33.2771 0.0327208
68.9048 29.0553 0.0347524
64.0165 10.9835 0
63.8809 14.3311 0.0360369
63.4018 17.4909 0.0452206
67.525 24.9383 0.0365441
65.9264 27.708 0.0250176
64.4795 23.9262 0.0301534
62.6445 20.4335 0.0364414
61.6613 23.1183 0.026624
60.6773 11.1061 0.0307677
57.6004 11.5053 0.0367948
70.0313 35.3975 2
69.4241 31.1623 2
67.4038 33.6225 2
66.5028 29.6848 2
62.336 12.668 2
62.1633 15.8189 2
61.5622 18.8072 2
65.2509 25.7855 2
63.6726 28.3788 2
60.8044 21.5288 2
62.408 24.8035 2
59.8526 23.9732 2
59.2309 12.8268 2
56.366 13.2005 2
55.8672 10.2854 2
67.6288 35.565 3.97664
67.0067 31.6693 3.97659
65.2752 33.9722 3.97638
64.1955 30.2899 3.97562
63.0759 26.5627 3.9746
61.6182 28.9459 3.9751
60.7527 14.2645 3.95388
60.4405 25.5641 3.97438
60.3895 17.2537 3.95663
59.803 20.0192 3.96481
59.1034 22.5131 3.97214
58.2841 24.622 3.97403
54.0375 9.1572 3.98761
57.8351 14.4348 3.95198
54.7705 12.1127 3.97531
55.2196 14.7946 3.95237
67.4072 50.149 0.0358025
57.0194 66.7292 0.0252609
60.6618 63.9705 0.0308825
57.5418 63.6373 0.0326618
65.5915 54.137 0.0388097
64.239 51.2864 0.028696
60.7552 60.8956 0.043398
60.4344 58.037 0.0431965
62.5605 54.959 0.0343406
59.9745 55.6136 0.0322466
55.0701 67.9239 2
59.2057 62.3146 2
55.7893 64.8452 2
56.301 62.0061 2
65.0271 49.3185 2
63.4154 53.1851 2
61.9429 50.4795 2
59.2279 59.46 2
60.6697 54.1335 2
58.9054 56.8174 2
58.7882 54.967 2
53.0371 68.9957 3.98171
53.9525 65.9783 3.96971
57.8287 60.7897 3.95145
54.6525 63.0997 3.96534
55.1576 60.5125 3.97493
62.6843 48.5087 3.974
61.2827 52.3974 3.97321
59.5874 49.7746 3.97278
57.7506 58.095 3.95618
58.8054 53.7157 3.97258
57.5785 55.5566 3.96278
50.1015 67.8439 3.97392
47.4511 66.5552 3.97413
46.0515 69.1471 3.98055
48.1009 68.5672 2
48.7977 70.7209 3.98711
50.9489 69.9261 2
51.8506 72.1454 4
54.0858 71.1327 2
56.25 69.9759 0
55.1012 7.14121 3.99232
58.3339 6.31992 4
57.0584 8.34261 2
60.3286 7.74926 2
58.9167 9.66423 0.0294565
62.2254 9.30607 0
68.1783 48.0853 0.0347484
69.3843 43.8987 0.0322084
66.4212 45.3804 0.0236127
67.3395 41.4716 0.0233817
70.0151 39.6567 0.0320249
72.4861 37.513 0.0260599
70.1063 37.5238 2
67.584 39.5017 2
66.9482 43.4267 2
65.1172 41.1717 2
65.7651 47.3416 2
64.1708 44.7622 2
67.6902 37.5261 3.97651
65.3594 39.3532 3.97641
64.7219 42.9616 3.97608
63.161 40.8769 3.9763
63.4585 46.5974 3.97483
62.1548 44.1025 3.97567
70.029 35.3974 0.0324574
69.4213 31.162 0.0337369
67.4063 33.6219 0.0234872
66.5061 29.6835 0.0238637
62.3331 12.6609 0.033556
62.1584 15.8188 0.0470726
61.5532 18.8087 0.0401253
65.2528 25.7843 0.0267374
63.6737 28.3783 0.0245313
62.4084 24.8022 0.0254474
60.8036 21.5274 0.0302461
59.8543 23.9708 0.0257336
59.2319 12.8302 0.0389033
56.37 13.2104 0.0390977
55.8673 10.282 0.0310366
67.6263 35.5654 2
67.0042 31.6704 2
65.2741 33.9724 2
64.1951 30.2901 2
60.75 14.2658 2
60.3846 17.2552 2
59.8016 20.0212 2
63.0748 26.5637 2
61.6182 28.9459 2
59.104 22.5152 2
60.44 25.5646 2
58.2796 24.6247 2
57.8341 14.4226 2
55.2077 14.7766 2
54.0401 9.15022 2
54.7603 12.1079 2
65.4581 35.6925 3.9764
64.7336 32.222 3.97577
63.7443 34.3031 3.9761
61.9444 30.7674 3.97541
61.021 27.2659 3.97461
60.0822 29.3417 3.9755
59.1598 15.7853 3.95438
58.5792 26.0769 3.97473
58.7349 18.5643 3.96024
58.1867 21.1246 3.96687
57.6178 23.4043 3.97239
57.2011 24.9991 3.97484
52.1031 8.18591 3.96768
53.0564 11.0669 3.97139
56.5126 15.9089 3.95641
53.7574 13.8023 3.95913
54.2004 16.1835 3.95578
55.0652 67.9295 0.0188059
65.0294 49.3197 0.0263386
55.785 64.8503 0.031598
59.2087 62.3096 0.0305667
56.3045 62.0032 0.0196376
63.4153 53.1851 0.0317875
61.9436 50.4799 0.0265093
59.2028 59.4514 0.0463815
58.8971 56.8155 0.0399509
60.6707 54.1342 0.0280758
58.7798 54.9656 0.0289823
53.0426 68.9923 2
53.9568 65.9769 2
57.8297 60.7987 2
54.6495 63.0972 2
55.1548 60.5117 2
62.6837 48.5082 2
61.2824 52.397 2
59.5875 49.7744 2
57.7549 58.0972 2
58.8095 53.7155 2
57.5752 55.5543 2
52.0595 66.9779 3.97298
52.9269 64.1365 3.9676
56.4965 59.3511 3.95241
53.6155 61.4695 3.96588
54.1507 59.1704 3.96337
60.2713 47.6743 3.97376
59.0953 51.863 3.97266
57.1798 49.3096 3.97339
56.4157 56.7713 3.96002
56.4204 53.8113 3.96742
50.1056 67.8404 2
49.3202 65.8761 3.97295
47.4553 66.5475 2
46.8737 64.6714 3.9782
45.5519 67.0751 3.97813
43.9705 69.5804 3.98269
46.0556 69.1481 2
46.6051 71.3653 3.98871
48.0965 68.5664 0.0220526
48.8028 70.7199 2
49.554 73.0099 4
50.9437 69.9296 0.0152953
51.8506 72.1455 2
54.0858 71.1327 0
53.0627 6.0815 3.97902
55.1047 7.14335 2
56.25 5.02411 4
58.3339 6.3199 2
57.055 8.33771 0.0214173
60.3285 7.74928 0
65.7679 47.3429 0.0244409
66.9505 43.4279 0.0235037
64.1713 44.7623 0.0243139
65.1174 41.1719 0.0237669
67.5871 39.502 0.0234375
70.103 37.5239 0.0321723
67.687 37.5261 2
65.3593 39.3533 2
64.721 42.9613 2
63.1619 40.877 2
63.4581 46.5967 2
62.1552 44.1028 2
65.469 37.5068 3.97633
63.3092 39.245 3.97629
62.7074 42.4711 3.97608
61.7074 40.6373 3.97649
61.2716 45.7579 3.97491
60.6594 43.5523 3.9761
67.6288 35.565 0.0233589
67.0067 31.6693 0.0234102
65.2752 33.9722 0.0236232
64.1955 30.2899 0.0243764
60.7527 14.2645 0.046121
60.3895 17.2537 0.043367
59.803 20.0192 0.0351852
63.0759 26.5627 0.0253978
61.6182 28.9459 0.0248995
60.4405 25.5641 0.0256244
59.1034 22.5131 0.0278643
58.2841 24.622 0.0259719
57.8351 14.4348 0.0480193
55.2196 14.7946 0.0476272
54.0375 9.1572 0.0123906
54.7705 12.1127 0.0246935
65.4576 35.6926 2
64.733 32.2224 2
63.7454 34.303 2
61.9445 30.767 2
59.1777 15.7814 2
58.7381 18.5647 2
58.1832 21.128 2
61.0207 27.2665 2
60.0829 29.3417 2
57.6136 23.4085 2
58.5768 26.078 2
57.1964 25.0017 2
56.4983 15.9119 2
54.2039 16.1825 2
53.7397 13.7859 2
52.1026 8.19386 2
53.0544 11.062 2
63.5224 35.667 3.97608
62.2769 33.1361 3.97591
59.7849 30.7945 3.97535
58.7408 28.1643 3.97496
57.658 17.1726 3.95665
56.8778 26.0699 3.97475
57.1956 19.752 3.95979
56.694 22.1734 3.96854
56.4025 24.3092 3.97368
50.1045 7.31194 3.97344
51.1956 10.2141 3.96297
52.1267 12.8823 3.9677
55.2681 17.1947 3.95513
52.8663 15.4297 3.9631
53.5187 17.2077 3.95456
53.0371 68.9957 0.018289
53.9525 65.9783 0.0302922
62.6843 48.5087 0.0260048
54.6525 63.0997 0.0346552
57.8287 60.7897 0.0485506
55.1576 60.5125 0.0250661
61.2827 52.3974 0.0267886
59.5874 49.7746 0.027219
57.7506 58.095 0.0438163
57.5785 55.5566 0.0372246
58.8054 53.7157 0.0274212
52.0638 66.9729 2
52.9279 64.1351 2
56.4908 59.3511 2
53.6119 61.4653 2
54.1439 59.1696 2
60.2715 47.674 2
59.0971 51.8626 2
57.1804 49.3101 2
56.4117 56.7735 2
56.4176 53.8098 2
51.1471 65.0749 3.96605
51.9943 62.4183 3.96401
55.2461 58.067 3.95961
52.6967 59.944 3.95783
53.4763 58.2906 3.96154
57.3098 46.5572 3.97456
56.7997 51.4668 3.97257
55.2992 49.1793 3.97512
55.025 55.5336 3.96035
54.5909 53.0437 3.96168
50.1015 67.8439 0.0260759
49.3231 65.8764 2
48.5911 64.0508 3.97742
47.4511 66.5552 0.0258727
45.5539 67.0808 2
46.8769 64.6689 2
46.3532 62.9736 3.98479
45.1177 65.1609 3.98105
43.6277 67.4519 3.97981
41.8588 69.8681 3.98283
43.9728 69.5817 2
44.3732 71.8601 3.98956
46.0515 69.1471 0.0194472
46.6088 71.3648 2
47.2057 73.7222 4
48.7977 70.7209 0.0128929
49.554 73.0099 2
51.8506 72.1454 0
50.9541 5.13696 3.98459
53.0651 6.08164 2
54.0858 3.86728 4
55.1012 7.14121 0.00768123
56.25 5.02406 2
58.3339 6.31992 0
63.4585 46.5974 0.0251722
64.7219 42.9616 0.0239168
62.1548 44.1025 0.024331
63.161 40.8769 0.0237011
65.3594 39.3532 0.0235939
67.6902 37.5261 0.0234931
65.4684 37.5069 2
63.3107 39.2453 2
62.7083 42.4708 2
61.7079 40.6374 2
61.2719 45.7575 2
60.6595 43.5523 2
63.3748 37.4631 3.97639
61.3991 39.3213 3.97666
60.3947 41.8535 3.97682
59.3598 44.5808 3.97526
65.4581 35.6925 0.0235994
64.7336 32.222 0.0242262
63.7443 34.3031 0.0239006
61.9444 30.7674 0.0245853
59.1598 15.7853 0.0456204
58.7349 18.5643 0.0397569
58.1867 21.1246 0.0331338
61.021 27.2659 0.0253948
60.0822 29.3417 0.0245017
58.5792 26.0769 0.025269
57.6178 23.4043 0.0276111
57.2011 24.9991 0.0251622
56.5126 15.9089 0.0435871
54.2004 16.1835 0.0442152
53.7574 13.8023 0.0408741
52.1031 8.18591 0.0323233
53.0564 11.0669 0.0286142
63.5238 35.6668 2
62.2786 33.1364 2
59.7854 30.7944 2
57.6652 17.1719 2
57.1971 19.7526 2
56.6899 22.178 2
58.7407 28.1637 2
56.4079 24.3109 2
56.8771 26.0698 2
50.1102 7.29455 2
55.267 17.192 2
53.5262 17.1994 2
52.8559 15.4262 2
52.1348 12.8852 2
51.2007 10.2144 2
61.4411 35.4113 3.97638
59.3872 32.882 3.97592
57.6213 30.3241 3.97497
56.3182 27.7162 3.97504
56.2432 18.4073 3.95692
55.3739 25.4978 3.97372
55.7421 20.8547 3.96153
55.3287 23.256 3.96851
48.056 6.53602 3.97981
49.2983 9.38823 3.97275
50.3755 12.1473 3.97272
51.2853 14.6324 3.97739
54.0914 18.1892 3.95947
52.1496 17.2674 3.95727
52.0595 66.9779 0.0270165
52.9269 64.1365 0.0323984
60.2713 47.6743 0.0262371
53.6155 61.4695 0.034118
56.4965 59.3511 0.0475949
54.1507 59.1704 0.0366307
59.0953 51.863 0.0273422
57.1798 49.3096 0.0266099
56.4157 56.7713 0.0399779
56.4204 53.8113 0.0325793
51.1489 65.0708 2
51.9961 62.4302 2
55.2381 58.0654 2
52.6972 59.9455 2
53.4693 58.2928 2
57.3098 46.5568 2
56.7987 51.4658 2
55.2986 49.1787 2
55.0229 55.5337 2
54.5897 53.0437 2
50.3088 63.3024 3.9699
51.1387 60.7759 3.96974
53.9311 57.0536 3.96727
52.0548 58.4148 3.9651
55.4674 43.9164 3.9751
54.375 47.5008 3.97513
54.0823 50.9924 3.96559
53.4468 54.2467 3.96403
49.3202 65.8761 0.0270482
48.5895 64.0659 2
47.917 62.3987 3.98997
45.5519 67.0751 0.0218732
46.8737 64.6714 0.0217994
43.6293 67.4536 2
46.3538 62.9699 2
45.1222 65.1541 2
45.9467 61.4909 3.99087
44.7458 63.3886 3.97632
43.3497 65.4787 3.97918
41.6616 67.6704 3.97854
39.7014 70.0153 3.98223
41.8603 69.8704 2
42.1085 72.2041 3.99037
43.9705 69.5804 0.0173063
44.376 71.8597 2
44.8159 74.2794 4
46.6051 71.3653 0.011286
47.2057 73.7222 2
49.554 73.0099 0
48.7849 4.32508 3.98581
50.9546 5.13548 2
51.8506 2.85458 4
53.0627 6.0815 0.0209759
54.0858 3.86728 2
56.25 5.02411 0
61.2716 45.7579 0.0250875
62.7074 42.4711 0.0239235
60.6594 43.5523 0.0239029
61.7074 40.6373 0.0235125
63.3092 39.245 0.0237081
65.469 37.5068 0.0236729
63.3762 37.4631 2
61.3995 39.322 2
60.3947 41.8535 2
59.3608 44.5805 2
61.2163 37.4519 3.97677
59.2954 39.7886 3.97661
57.9442 42.7588 3.97593
63.5224 35.667 0.0239154
62.2769 33.1361 0.0240925
59.7849 30.7945 0.0246453
57.658 17.1726 0.043354
57.1956 19.752 0.0402115
56.694 22.1734 0.0314645
58.7408 28.1643 0.0250355
56.8778 26.0699 0.0252547
56.4025 24.3092 0.0263186
55.2681 17.1947 0.044869
53.5187 17.2077 0.0454435
52.8663 15.4297 0.0368978
50.1045 7.31194 0.0265616
52.1267 12.8823 0.0323009
51.1956 10.2141 0.0370256
61.4415 35.4111 2
59.3868 32.8824 2
57.6218 30.3248 2
56.2446 18.4077 2
55.7596 20.8508 2
55.3456 23.2571 2
56.318 27.716 2
55.3772 25.5027 2
48.0517 6.546 2
49.3012 9.38962 2
54.0959 18.1906 2
52.1451 17.2623 2
51.2788 14.6276 2
50.38 12.1417 2
58.9097 35.1936 3.97636
56.8566 32.4652 3.97511
55.4065 29.6622 3.97503
54.3812 27.0288 3.97416
54.8937 19.4856 3.9605
54.0551 24.4836 3.97124
54.3055 21.9452 3.96557
45.9615 5.89656 3.98015
43.3685 7.49497 3.97906
47.3372 8.65923 3.97282
48.5594 11.4019 3.9689
49.6185 13.917 3.97857
50.478 16.3276 3.9613
52.7816 18.9758 3.96007
51.058 18.3707 3.95257
51.1471 65.0749 0.0339503
51.9943 62.4183 0.0359863
57.3098 46.5572 0.0254396
52.6967 59.944 0.0421678
55.2461 58.067 0.0403943
53.4763 58.2906 0.0384624
56.7997 51.4668 0.0274306
55.2992 49.1793 0.0248762
55.025 55.5336 0.0396497
54.5909 53.0437 0.0383238
50.3063 63.2995 2
51.1392 60.7768 2
53.9206 57.0535 2
52.0468 58.418 2
55.4712 43.916 2
54.3758 47.5013 2
54.0779 50.991 2
53.4401 54.2478 2
49.5207 61.6615 3.97728
54.1371 41.5583 3.97432
50.3836 59.1429 3.96914
51.7644 56.2299 3.96469
52.7706 45.1479 3.97246
52.1546 48.8755 3.9696
51.8855 52.4934 3.958
48.5911 64.0508 0.0225774
47.9155 62.4017 2
47.2656 60.9191 3.9927
43.6277 67.4519 0.0201857
45.1177 65.1609 0.0189458
46.3532 62.9736 0.01521
41.6638 67.6726 2
43.3569 65.4789 2
45.9475 61.4936 2
44.7479 63.3804 2
45.6994 60.5346 4.00483
44.4515 61.7498 3.9845
43.1323 63.674 3.98046
41.543 65.6182 3.97322
39.6322 67.7499 3.97759
37.5261 70.0399 3.98243
39.7023 70.0157 2
39.8164 72.4015 3.99066
41.8588 69.8681 0.0171739
42.1104 72.205 2
42.3947 74.6792 4
44.3732 71.8601 0.010444
44.8159 74.2794 2
47.2057 73.7222 0
43.8503 5.37025 3.97884
46.5693 3.65116 3.9872
48.7838 4.32905 2
49.554 1.99015 4
50.9541 5.13696 0.0154097
51.8506 2.85453 2
54.0858 3.86728 0
59.3598 44.5808 0.0247364
60.3947 41.8535 0.0231767
61.3991 39.3213 0.023345
63.3748 37.4631 0.0236135
61.2175 37.4518 2
59.2938 39.7889 2
57.9429 42.7577 2
58.7518 37.5723 3.97674
56.8324 40.5421 3.97752
53.5235 39.6074 3.9769
61.4411 35.4113 0.0236232
59.3872 32.882 0.0240845
57.6213 30.3241 0.0250329
56.2432 18.4073 0.0430814
55.7421 20.8547 0.0384669
55.3287 23.256 0.0314935
56.3182 27.7162 0.0249601
55.3739 25.4978 0.0262781
54.0914 18.1892 0.0405273
52.1496 17.2674 0.0427325
51.2853 14.6324 0.0226121
48.056 6.53602 0.0201878
49.2983 9.38823 0.0272461
50.3755 12.1473 0.0272819
58.9075 35.1925 2
45.9612 5.89486 2
43.3695 7.49848 2
56.8555 32.4651 2
55.4089 29.6601 2
54.8834 19.4916 2
54.3329 21.9438 2
54.0522 24.4911 2
54.3812 27.0287 2
47.3397 8.65197 2
48.5626 11.3916 2
52.7778 18.9457 2
51.0603 18.3716 2
50.4853 16.3249 2
49.6144 13.9179 2
56.1561 34.8723 3.97735
54.4039 31.8049 3.97428
53.2652 28.8136 3.97575
52.7541 25.9665 3.97327
53.4746 20.4809 3.96773
52.8303 23.1505 3.96954
41.3961 7.09323 3.97829
45.3482 8.01222 3.98443
42.8569 9.44936 3.97271
46.6408 10.7298 3.97343
47.6713 13.2247 3.97365
48.7821 15.5728 3.97704
49.7757 17.9614 3.95864
51.2957 19.6851 3.97692
50.3088 63.3024 0.0301015
51.1387 60.7759 0.0302649
55.4674 43.9164 0.0248982
54.375 47.5008 0.024873
52.0548 58.4148 0.0348979
53.9311 57.0536 0.0327271
54.0823 50.9924 0.0344062
53.4468 54.2467 0.0359724
49.5222 61.6578 2
54.1308 41.5499 2
50.3826 59.1478 2
51.7674 56.235 2
52.7643 45.1455 2
52.1501 48.8735 2
51.8908 52.4948 2
48.7264 60.1072 3.99616
50.7084 42.3579 3.98294
49.5031 57.4257 3.96291
50.0157 54.1262 3.9586
50.434 46.7658 3.97701
50.2458 50.5378 3.95283
46.4793 43.2909 3.95604
47.917 62.3987 0.0100296
47.2711 60.9156 2
46.5191 59.7042 3.99323
41.6616 67.6704 0.0214636
43.3497 65.4787 0.0208162
44.7458 63.3886 0.0236834
45.9467 61.4909 0.00912961
39.6343 67.7507 2
41.5484 65.6147 2
45.7052 60.5368 2
43.1327 63.6705 2
44.4521 61.7449 2
44.5757 60.19 3.99324
42.9255 62.0087 3.98042
41.5888 63.7843 3.98175
39.645 65.5885 3.97593
37.5631 67.7323 3.97644
31.7035 65.0944 3.97222
33.3945 67.4705 3.97872
35.3345 69.9512 3.98254
37.5261 70.0418 2
37.5095 72.4555 3.99116
39.7014 70.0153 0.0177673
39.8175 72.4017 2
39.9526 74.9197 4
42.1085 72.2041 0.00963132
42.3947 74.6792 2
44.8159 74.2794 0
41.7354 4.97666 3.98397
43.8502 5.37073 2
44.3255 3.11348 3.98909
46.5706 3.65057 2
47.2057 1.27793 4
48.7849 4.32508 0.0141929
49.554 1.99013 2
51.8506 2.85458 0
57.9442 42.7588 0.0240678
59.2954 39.7886 0.0233909
61.2163 37.4519 0.023232
58.753 37.5725 2
56.8327 40.5438 2
53.5198 39.6088 2
55.4866 37.8843 3.977
47.7215 41.0949 3.9666
51.2415 39.2489 3.97917
39.4396 6.81615 3.97755
58.9097 35.1936 0.0236412
56.8566 32.4652 0.0248862
55.4065 29.6622 0.0249673
54.8937 19.4856 0.0394966
54.3055 21.9452 0.0344315
54.0551 24.4836 0.0287603
54.3812 27.0288 0.0258358
52.7816 18.9758 0.0399316
51.058 18.3707 0.0474282
50.478 16.3276 0.0386969
45.9615 5.89656 0.0198545
49.6185 13.917 0.021426
47.3372 8.65923 0.0271829
48.5594 11.4019 0.0311001
43.3685 7.49497 0.0209411
56.1544 34.8746 2
41.3974 7.09464 2
45.349 8.01336 2
42.8541 9.44907 2
54.4 31.8045 2
53.2603 28.8145 2
53.4766 20.4879 2
52.8067 23.1627 2
52.76 25.9655 2
46.6405 10.7199 2
47.6735 13.2122 2
51.3024 19.685 2
49.7769 17.9527 2
48.7918 15.5978 2
53.3007 34.1251 3.97565
52.0241 30.8794 3.97462
51.3992 27.6836 3.97494
51.2411 24.582 3.97113
51.8517 21.4631 3.97389
41.007 9.06842 3.97563
44.7122 10.0412 3.9785
42.4455 10.9379 4.00397
45.9421 12.8111 3.97168
47.5693 14.7502 3.97549
47.9117 17.1663 3.97959
49.5415 20.0838 3.98788
49.5207 61.6615 0.0227216
50.3836 59.1429 0.0308633
54.1371 41.5583 0.0256834
52.7706 45.1479 0.027539
52.1546 48.8755 0.030395
51.7644 56.2299 0.0353116
51.8855 52.4934 0.0420029
48.7264 60.1056 2
50.7358 42.3837 2
49.5027 57.4188 2
50.0157 54.1288 2
50.4348 46.7655 2
50.2488 50.5378 2
46.4905 43.3332 2
47.816 58.5763 3.99038
48.4776 44.8705 3.98233
48.206 55.6807 3.95051
48.4234 52.2561 3.97707
48.5517 48.5906 3.97237
44.1334 39.6708 3.80754
44.7042 42.2389 3.85651
45.0782 45.2122 3.97283
42.0551 40.9481 3.56477
41.1335 41.4319 3.36296
47.2656 60.9191 0.00729671
46.5255 59.705 2
45.3627 58.68 3.99389
39.6322 67.7499 0.0224079
41.543 65.6182 0.0267795
43.1323 63.674 0.0195411
44.4515 61.7498 0.0154999
45.6994 60.5346 -0.00483287
41.593 63.7781 2
37.5651 67.7345 2
39.6495 65.5903 2
44.5724 60.1946 2
42.9257 62.0015 2
41.7353 62.4305 3.98585
42.4447 59.8776 3.98791
39.886 63.5236 3.98031
37.6408 65.4867 3.97571
35.4639 67.6417 3.97564
33.5791 65.3115 3.97351
31.9704 63.2474 3.98896
29.8956 64.6853 3.97912
31.6966 65.1033 2
31.3823 67.184 3.97885
33.3961 67.4753 2
33.1586 69.7449 3.98317
35.3341 69.9529 2
35.1967 72.3708 3.99153
37.5261 70.0399 0.0175688
37.5101 72.4563 2
37.5 75 4
39.8164 72.4015 0.00934338
39.9526 74.9197 2
42.3947 74.6792 0
39.624 4.72271 3.98533
41.7351 4.97738 2
42.0621 2.72027 3.98995
43.8503 5.37025 0.0211647
44.3256 3.11351 2
44.8158 0.721173 4
46.5693 3.65116 0.0128024
47.2057 1.27779 2
49.554 1.99015 0
56.8324 40.5421 0.0224758
58.7518 37.5723 0.0232609
53.5235 39.6074 0.0230986
47.7658 41.1223 2
55.4841 37.883 2
51.2572 39.2328 2
52.1822 36.6349 3.97702
45.6427 40.2039 3.87891
48.5709 38.4643 3.96434
37.5142 6.6842 3.982
39.4406 6.8148 2
39.2071 8.71638 3.98298
35.9419 8.50994 3.97764
56.1561 34.8723 0.0226525
54.4039 31.8049 0.0257202
53.2652 28.8136 0.0242491
53.4746 20.4809 0.0322681
52.8303 23.1505 0.0304618
52.7541 25.9665 0.0267279
51.2957 19.6851 0.0230797
49.7757 17.9614 0.0413626
48.7821 15.5728 0.0229557
45.3482 8.01222 0.0155732
47.6713 13.2247 0.0263534
46.6408 10.7298 0.026566
41.3961 7.09323 0.021715
42.8569 9.44936 0.0272862
53.303 34.1302 2
41.0031 9.07018 2
44.7109 10.0369 2
42.4422 10.9441 2
52.0289 30.8755 2
51.4017 27.6861 2
51.8476 21.468 2
51.2292 24.5928 2
45.9435 12.7995 2
47.5637 14.7319 2
49.5591 20.0982 2
47.9119 17.1626 2
50.6771 33.1274 3.97489
49.8326 29.6767 3.97648
49.6952 26.202 3.9707
49.3837 22.6483 3.97211
40.5532 11.6298 3.98937
43.8078 11.9661 3.96712
45.6912 15.6142 4.00175
47.2584 19.6631 3.97768
44.4103 37.5075 3.81935
48.7264 60.1072 0.00384483
49.5031 57.4257 0.0370894
50.7084 42.3579 0.0170626
50.434 46.7658 0.022985
50.2458 50.5378 0.0471694
50.0157 54.1262 0.0414049
46.4793 43.2909 0.0439648
47.8081 58.578 2
48.4924 44.8831 2
48.2002 55.6843 2
48.4236 52.2614 2
48.5556 48.5916 2
44.2549 39.6871 2
44.7404 42.2835 2
45.0851 45.2356 2
42.1206 41.0128 2
41.1762 41.4525 2
46.6052 57.163 3.99241
42.6472 39.3979 3.55744
41.5089 40.4319 3.34422
46.7677 46.8277 3.99299
46.6765 53.9597 3.95558
46.7423 50.3835 3.97246
43.7585 46.8261 3.9802
43.383 41.6388 3.81435
43.6359 44.0047 3.84291
41.4451 42.1215 3.58823
40.3045 41.701 3.28252
46.5191 59.7042 0.0067745
45.3557 58.6795 2
43.7745 57.5414 3.99689
37.5631 67.7323 0.0235587
39.645 65.5885 0.0240714
41.5888 63.7843 0.018252
42.9255 62.0087 0.0195795
44.5757 60.19 0.00675654
35.4654 67.6433 2
41.7348 62.4263 2
39.8884 63.5266 2
37.6439 65.4895 2
42.4427 59.88 2
40.6069 61.5776 3.98817
40.4131 58.0547 3.99207
37.8339 63.1755 3.97368
35.5736 65.4041 3.97484
33.5746 65.3039 2
31.9705 63.2305 2
33.635 63.3021 3.98786
30.4029 62.7875 3.98173
32.1453 61.9465 3.99336
26.9294 61.3648 3.99079
28.0863 64.083 3.98861
29.8927 64.6789 2
29.4141 66.736 3.98037
31.7035 65.0944 0.0277775
31.3837 67.1856 2
31.0169 69.4113 3.98367
33.3945 67.4705 0.0212799
33.1575 69.7477 2
32.8951 72.1451 3.9913
35.3345 69.9512 0.0174589
35.1963 72.3717 2
35.0474 74.9194 4
37.5095 72.4555 0.00883602
37.5 75 2
39.9526 74.9197 0
35.6191 6.73651 3.97893
37.5241 4.62163 3.98614
39.6233 4.72168 2
39.7889 2.47631 3.9914
41.7354 4.97666 0.016032
42.0621 2.72062 2
42.3946 0.32156 4
44.3255 3.11348 0.0109116
44.8159 0.72056 2
47.2057 1.27793 0
47.7215 41.0949 0.033396
55.4866 37.8843 0.0229973
51.2415 39.2489 0.020828
45.7062 40.1894 2
48.6168 38.4592 2
52.1784 36.6304 2
49.4221 35.6315 3.97862
46.1963 37.6983 3.83842
44.1628 35.307 3.81065
42.1068 34.0095 3.56587
41.1797 33.5242 3.36653
37.457 8.54754 3.98012
37.5151 6.68439 2
39.4396 6.81615 0.0224511
39.2063 8.71808 2
38.9693 10.1543 3.99339
35.8975 9.79403 3.98141
34.1523 8.84111 3.97642
35.9408 8.51085 2
53.3007 34.1251 0.0243524
52.0241 30.8794 0.0253783
51.3992 27.6836 0.0250609
51.8517 21.4631 0.0261135
51.2411 24.582 0.028866
49.5415 20.0838 0.0121168
47.9117 17.1663 0.0204138
47.5693 14.7502 0.0245092
44.7122 10.0412 0.0214961
45.9421 12.8111 0.0283161
41.007 9.06842 0.024372
42.4455 10.9379 -0.00396955
50.701 33.1099 2
40.5549 11.6457 2
43.8072 11.9451 2
49.8424 29.6724 2
49.6944 26.2181 2
49.3767 22.6308 2
45.675 15.557 2
47.2724 19.7066 2
48.2824 31.6881 3.9794
48.0155 27.9897 3.97528
48.5487 24.8085 3.96693
46.7877 22.4752 3.99124
38.2967 12.7777 3.98038
42.0407 14.4296 3.9937
44.6094 18.7174 3.99579
42.9038 37.4884 3.55084
44.5317 37.4942 2
47.816 58.5763 0.00962424
48.206 55.6807 0.0494915
48.4776 44.8705 0.0176698
48.5517 48.5906 0.0276302
48.4234 52.2561 0.0229337
44.1334 39.6708 0.192461
44.7042 42.2389 0.143493
45.0782 45.2122 0.0271698
42.0551 40.9481 0.435229
41.1335 41.4319 0.637042
46.5984 57.1694 2
42.7402 39.4135 2
41.5371 40.437 2
46.773 46.8314 2
46.669 53.9628 2
46.7418 50.3965 2
43.8013 46.8435 2
43.4553 41.7013 2
43.7009 44.0435 2
41.5039 42.2186 2
40.3895 41.7179 2
45.1032 55.7237 4.00286
41.8163 39.0283 3.35499
40.145 40.3875 3.37809
45.1176 48.469 4.00347
44.8967 52.1843 3.99484
42.598 47.8019 3.98732
42.4405 45.4617 3.85383
42.4939 43.3008 3.78169
40.6122 42.9937 3.55709
39.0888 42.0019 3.37284
45.3627 58.68 0.0061097
43.7669 57.5539 2
42.0002 56.0784 3.99538
35.4639 67.6417 0.0243591
37.6408 65.4867 0.0242938
39.886 63.5236 0.0196908
41.7353 62.4305 0.0141546
42.4447 59.8776 0.012085
35.5756 65.411 2
40.6079 61.5637 2
37.8373 63.1789 2
40.4111 58.0659 2
38.9025 56.2277 3.99546
38.2403 60.2575 3.98996
35.6082 63.17 3.975
33.5791 65.3115 0.0264861
31.9704 63.2474 0.0110372
33.6349 63.3052 2
30.4014 62.7748 2
32.1562 61.9337 2
28.7218 62.1162 3.98711
33.3635 61.4682 3.98962
31.1359 61.1525 4.01098
27.6825 59.4673 3.96411
23.934 58.9044 3.97653
25.1152 60.7059 3.98139
26.9271 61.3743 2
26.2682 63.4059 3.9773
28.0879 64.0901 2
27.4779 66.1549 3.97807
29.8956 64.6853 0.0208826
29.4146 66.7501 2
28.9124 68.9307 3.98135
31.3823 67.184 0.021151
31.0153 69.4123 2
30.6186 71.7773 3.99094
33.1586 69.7449 0.0168341
32.8937 72.1463 2
32.6054 74.6784 4
35.1967 72.3708 0.00846871
35.0474 74.9197 2
37.5 75 0
33.722 6.99269 3.97742
35.4364 4.69163 3.98572
35.6201 6.73694 2
37.5152 2.3888 3.99162
37.5228 4.62097 2
39.624 4.72271 0.0146674
39.7886 2.47598 2
39.9526 0.0806499 4
42.0621 2.72027 0.0100519
42.3947 0.320817 2
44.8158 0.721173 0
42.6878 35.5687 3.56332
41.5517 34.5106 3.33024
45.6427 40.2039 0.12109
48.5709 38.4643 0.0356632
52.1822 36.6349 0.0229798
46.2328 37.7133 2
49.4663 35.6485 2
44.2817 35.2918 2
42.1701 33.9419 2
41.1932 33.4973 2
46.5401 34.54 3.92085
43.4388 33.3189 3.80646
41.4848 32.8385 3.5913
40.3214 33.2617 3.28024
37.307 10.6491 3.9803
37.4567 8.54767 2
37.5142 6.6842 0.0180028
39.2071 8.71638 0.0170185
38.9717 10.1589 2
34.7558 10.4068 3.97475
35.9016 9.79473 2
32.3812 9.39061 3.97174
34.1506 8.8426 2
35.9419 8.50994 0.0223649
50.6771 33.1274 0.0251057
49.8326 29.6767 0.0235182
49.6952 26.202 0.0293013
49.3837 22.6483 0.0278883
47.2584 19.6631 0.0223219
45.6912 15.6142 -0.00175294
43.8078 11.9661 0.0328839
40.5532 11.6298 0.01063
48.3023 31.6655 2
38.294 12.7827 2
42.0545 14.4241 2
48.0075 27.9875 2
48.5476 24.8193 2
46.7795 22.4651 2
44.6229 18.7848 2
46.2892 30.0297 3.97639
46.248 25.5156 3.97734
44.0169 21.747 3.98206
36.5909 12.9925 3.98161
38.6522 14.9444 3.98116
41.6407 18.0626 3.98947
41.9536 37.4556 3.36341
42.9919 37.4898 2
44.4103 37.5075 0.18065
46.6052 57.163 0.00759124
46.6765 53.9597 0.0444239
46.7677 46.8277 0.0070149
46.7423 50.3835 0.0275357
42.6472 39.3979 0.442559
43.383 41.6388 0.185654
43.6359 44.0047 0.157087
43.7585 46.8261 0.0198005
41.4451 42.1215 0.411772
41.5089 40.4319 0.655778
40.3045 41.701 0.717476
45.0987 55.7249 2
41.8472 39.0349 2
40.2433 40.376 2
45.1151 48.4958 2
44.8877 52.1862 2
42.6491 47.8263 2
42.5118 45.5425 2
42.5487 43.3361 2
40.6856 43.0867 2
39.0407 42.0477 2
43.4199 54.1351 4.00501
40.1763 38.9241 3.41465
38.9984 40.4919 3.37975
42.9471 49.9167 4.00392
41.3174 46.9344 3.9098
41.2188 44.5184 3.78104
39.3647 43.6604 3.56124
37.503 42.1652 3.44596
43.7745 57.5414 0.00310644
42.0007 56.0678 2
40.3003 54.6345 3.99701
35.5736 65.4041 0.0251575
37.8339 63.1755 0.0263234
40.6069 61.5776 0.0118292
40.4131 58.0547 0.00792714
35.6102 63.1728 2
38.2411 60.2394 2
38.9016 56.2181 2
37.9679 54.9091 3.9956
36.9319 57.4628 3.9938
35.3685 60.8489 3.98567
33.635 63.3021 0.0121419
30.4029 62.7875 0.018268
32.1453 61.9465 0.00664052
33.3771 61.4611 2
28.7162 62.128 2
31.1302 61.145 2
29.5081 60.28 3.98004
32.39 59.5976 3.99392
28.1749 58.2326 4.00786
27.683 59.4735 2
25.5311 58.4307 3.97025
22.9465 58.0485 3.96641
23.4943 60.1767 3.97008
23.935 58.9033 2
25.1145 60.7012 2
24.4852 62.6722 3.96883
26.9294 61.3648 0.00920895
26.2686 63.4177 2
25.5697 65.4457 3.97335
28.0863 64.083 0.0113934
27.4728 66.1387 2
26.8446 68.3229 3.98106
29.4141 66.736 0.0196275
28.908 68.934 2
28.3748 71.2607 3.98762
31.0169 69.4113 0.0163263
30.6164 71.7767 2
30.1842 74.2788 4
32.8951 72.1451 0.00870487
32.6053 74.6792 2
35.0474 74.9194 0
31.7865 7.43522 3.97499
33.3489 4.93132 3.98398
33.7232 6.99364 2
35.2459 2.46478 3.99123
35.4345 4.69217 2
35.6191 6.73651 0.0210706
37.5 0 4
37.514 2.38869 2
37.5241 4.62163 0.0138593
39.7889 2.47631 0.0086045
39.9526 0.0802889 2
42.3946 0.32156 0
41.8183 35.8838 3.29941
42.7965 35.5532 2
40.2056 34.5472 3.40018
41.5769 34.4965 2
46.1963 37.6983 0.161577
49.4221 35.6315 0.0213791
44.1628 35.307 0.189347
42.1068 34.0095 0.434129
41.1797 33.5242 0.63347
46.5899 34.5389 2
43.5013 33.257 2
41.5295 32.7436 2
40.3823 33.2469 2
44.7389 32.0316 3.8736
42.5258 31.6558 3.76975
40.6466 31.967 3.56293
39.0833 32.9664 3.37329
35.6971 11.8131 3.97348
37.3138 10.6495 2
37.457 8.54754 0.0198801
38.9693 10.1543 0.00660524
33.1049 11.257 3.97123
34.7595 10.404 2
35.8975 9.79403 0.0185869
30.4901 10.0516 3.97226
32.3796 9.39659 2
34.1523 8.84111 0.023576
48.2824 31.6881 0.0205985
48.0155 27.9897 0.024716
48.5487 24.8085 0.0330728
46.7877 22.4752 0.00875825
44.6094 18.7174 0.00420665
42.0407 14.4296 0.00630257
38.2967 12.7777 0.0196212
36.5844 12.9933 2
46.2688 29.9738 2
38.6627 14.9136 2
41.6181 18.0463 2
46.2467 25.502 2
44.0141 21.7429 2
44.4128 28.202 3.98968
43.2223 24.4162 4.0057
41.131 21.1032 3.99607
35.7783 14.8216 3.9937
38.6039 17.8213 3.99288
40.2343 37.4091 3.4464
41.9944 37.4639 2
42.9038 37.4884 0.449164
45.1032 55.7237 -0.00286138
44.8967 52.1843 0.00515967
45.1176 48.469 -0.00347116
41.8163 39.0283 0.645012
42.4939 43.3008 0.218307
42.4405 45.4617 0.146169
42.598 47.8019 0.0126767
40.6122 42.9937 0.442911
40.145 40.3875 0.621913
39.0888 42.0019 0.627157
43.4134 54.1316 2
40.238 38.9288 2
38.9611 40.4953 2
42.9291 49.9375 2
41.3138 46.9605 2
41.2439 44.5697 2
37.4904 42.1877 2
39.3813 43.7571 2
41.5769 52.5864 4.00481
39.0118 38.9895 3.36237
37.4956 40.5269 3.46067
35.9038 42.0248 3.37168
40.5815 49.0847 3.98755
39.5414 45.2164 3.75149
37.4956 43.9791 3.61264
42.0002 56.0784 0.00461683
40.2959 54.6404 2
38.6665 53.3739 3.99843
35.6082 63.17 0.0249965
38.2403 60.2575 0.0100383
38.9025 56.2277 0.00453776
35.3799 60.8394 2
36.9358 57.4773 2
37.9603 54.9041 2
36.3261 55.022 3.99517
34.5145 58.3873 3.99464
33.3635 61.4682 0.0103836
28.7218 62.1162 0.0128889
31.1359 61.1525 -0.0109825
32.3949 59.5931 2
29.5073 60.2854 2
30.4173 57.5906 3.9811
28.1709 58.228 2
27.1932 56.6609 3.9636
27.6825 59.4673 0.0358902
25.5325 58.4273 2
24.1328 56.5905 3.95827
21.6443 57.1716 3.95995
22.1104 59.4529 3.97276
22.9517 58.0479 2
22.8011 61.8787 3.97045
23.4929 60.1773 2
23.934 58.9044 0.0234689
25.1152 60.7059 0.0186109
24.4849 62.681 2
23.71 64.6519 3.9646
26.2682 63.4059 0.0226977
25.5657 65.4418 2
24.8183 67.5832 3.97164
27.4779 66.1549 0.0219255
26.8405 68.3256 2
26.1706 70.6031 3.98821
28.9124 68.9307 0.0186495
28.3714 71.2616 2
27.7943 73.7221 4
30.6186 71.7773 0.00905563
30.1841 74.2794 2
32.6054 74.6784 0
29.81 8.01529 3.97041
31.2542 5.34017 3.98213
31.7881 7.43429 2
32.982 2.70289 3.99063
33.3466 4.93199 2
33.722 6.99269 0.022582
35.0474 0.080333 4
35.2443 2.46515 2
35.4364 4.69163 0.0142832
37.5 0 2
37.5152 2.3888 0.00838394
39.9526 0.0806499 0
40.3289 35.9593 3.45773
41.8696 35.8833 2
42.6878 35.5687 0.436684
28.5536 10.7345 3.97125
38.9867 34.4964 3.35997
40.2124 34.5389 2
41.5517 34.5106 0.669763
46.5401 34.54 0.0791512
43.4388 33.3189 0.193535
41.4848 32.8385 0.4087
40.3214 33.2617 0.719757
44.7641 31.9992 2
42.5873 31.6131 2
40.7168 31.877 2
39.0513 32.9209 2
43.2684 30.3376 3.85699
41.2364 30.4212 3.78223
39.3641 31.304 3.56724
37.501 32.8281 3.44324
34.1044 12.9809 3.98259
35.7008 11.8058 2
37.307 10.6491 0.0196956
31.1988 12.0354 3.97434
33.1079 11.2511 2
34.7558 10.4068 0.0252541
30.486 10.0492 2
32.3812 9.39061 0.0282553
46.2892 30.0297 0.023608
46.248 25.5156 0.02266
36.5909 12.9925 0.0183858
44.0169 21.747 0.017938
41.6407 18.0626 0.0105343
38.6522 14.9444 0.0188409
35.7649 14.8488 2
44.4074 28.2125 2
38.6182 17.8102 2
41.151 21.0832 2
43.211 24.3962 2
33.642 15.9551 3.99184
42.3618 26.9778 3.96661
40.7105 23.8387 4.00346
38.3517 20.6504 3.99555
35.8203 17.731 3.9852
39.0153 37.4907 3.3414
40.2724 37.4194 2
41.9536 37.4556 0.636589
43.4199 54.1351 -0.00501205
42.9471 49.9167 -0.00391665
40.1763 38.9241 0.585353
41.2188 44.5184 0.218964
41.3174 46.9344 0.0902027
39.3647 43.6604 0.438759
38.9984 40.4919 0.62025
37.503 42.1652 0.554038
41.564 52.5816 2
38.9775 38.9854 2
37.4802 40.5334 2
40.5678 49.089 2
35.9442 42.0659 2
39.5772 45.2922 2
37.4863 44.061 2
39.6629 51.3217 3.99933
37.4939 38.9847 3.42926
36.0367 40.5159 3.3709
34.6978 41.7324 3.27867
35.6306 43.681 3.56055
38.5644 47.8965 3.9173
37.483 45.5042 3.78463
40.3003 54.6345 0.0029872
38.6591 53.3855 2
36.772 52.724 3.99869
35.3685 60.8489 0.0143314
36.9319 57.4628 0.00619925
37.9679 54.9091 0.0044048
34.5096 58.3922 2
36.3313 55.0218 2
33.4138 55.213 4.00778
32.39 59.5976 0.00608454
29.5081 60.28 0.0199587
30.417 57.5787 2
29.0387 55.1784 3.98638
28.1749 58.2326 -0.00785683
27.1983 56.6589 2
25.7264 54.9143 3.95778
22.2983 55.0679 3.95961
25.5311 58.4307 0.0297456
24.1366 56.588 2
20.5383 56.8034 3.9618
20.806 58.6014 3.96053
21.6492 57.1719 2
21.2443 61.0094 3.96683
22.107 59.4545 2
22.9465 58.0485 0.0335903
21.933 63.7435 3.96846
22.801 61.8837 2
23.4943 60.1767 0.0299238
24.4852 62.6722 0.0311705
23.7048 64.6508 2
22.848 66.7168 3.96951
25.5697 65.4457 0.0266534
24.8143 67.577 2
24.0147 69.8047 3.98583
26.8446 68.3229 0.0189383
26.1652 70.6024 2
25.446 73.0099 4
28.3748 71.2607 0.0123812
27.7943 73.7222 2
30.1842 74.2788 0
27.8213 8.68842 3.97195
29.156 5.88648 3.97977
29.8105 8.01273 2
30.7278 3.10047 3.98973
31.2517 5.33937 2
31.7865 7.43522 0.0250116
32.6053 0.320823 4
32.98 2.7034 2
33.3489 4.93132 0.016015
35.0474 0.0802903 2
35.2459 2.46478 0.00877404
37.5 0 0
38.895 36.002 3.35794
40.3012 35.9586 2
41.8183 35.8838 0.700593
28.5505 10.7362 2
26.6386 11.4362 3.97217
29.2446 12.6839 3.97855
37.5111 34.4731 3.46081
39.0035 34.5053 2
40.2056 34.5472 0.599824
44.7389 32.0316 0.126402
42.5258 31.6558 0.230253
40.6466 31.967 0.437071
39.0833 32.9664 0.626711
43.3248 30.2915 2
41.2818 30.3634 2
39.3805 31.2038 2
37.5125 32.8028 2
41.6496 29.0745 3.84816
39.5615 29.7481 3.77393
37.4946 31.0001 3.61548
35.9125 32.9843 3.37811
31.9511 14.5377 3.98594
34.1076 12.9802 2
35.6971 11.8131 0.0265205
31.1979 12.0226 2
33.1049 11.257 0.0287655
30.4901 10.0516 0.0277447
44.4128 28.202 0.0103218
43.2223 24.4162 -0.00569812
35.7783 14.8216 0.00630492
41.131 21.1032 0.00392809
38.6039 17.8213 0.00712403
33.6215 15.9334 2
35.8422 17.6108 2
42.4192 26.9347 2
38.2898 20.6899 2
40.6863 23.8558 2
33.5826 17.5005 3.99069
40.1412 26.3469 3.95936
37.9865 23.6185 3.995
35.5175 20.4918 3.99492
37.5263 37.4844 3.45009
38.972 37.4869 2
40.2343 37.4091 0.553595
41.5769 52.5864 -0.00481314
40.5815 49.0847 0.0124468
39.0118 38.9895 0.637633
39.5414 45.2164 0.248511
37.4956 43.9791 0.387359
37.4956 40.5269 0.539326
35.9038 42.0248 0.628321
39.6502 51.3117 2
37.4778 38.9914 2
36.0191 40.4904 2
38.5893 47.967 2
34.6244 41.7491 2
35.6052 43.7816 2
37.4905 45.5778 2
37.6724 50.2854 3.98961
36.1094 39.018 3.36605
34.8131 40.4238 3.40063
33.8438 41.4718 3.36611
34.3896 43.0269 3.554
35.4024 45.2952 3.78299
36.9436 47.5286 3.86814
38.6665 53.3739 0.00156948
36.7996 52.6681 2
34.5378 52.0752 3.99941
34.5145 58.3873 0.0053595
36.3261 55.022 0.00483342
33.4182 55.2116 2
30.9255 53.1961 3.99427
30.4173 57.5906 0.0188964
29.0445 55.1847 2
27.4173 53.1792 3.95249
27.1932 56.6609 0.0363992
25.7361 54.9132 2
24.2111 53.1577 3.95364
21.2283 52.8739 3.95887
20.4019 55.5659 3.96017
22.3005 55.0674 2
24.1328 56.5905 0.0417285
19.6848 57.6936 3.96111
20.5308 56.8072 2
19.7834 60.0663 3.97324
20.7954 58.6071 2
21.6443 57.1716 0.0400533
20.2597 62.7209 3.97099
21.2507 61.0174 2
22.1104 59.4529 0.0272379
20.9544 65.716 3.96526
21.9292 63.7372 2
22.8011 61.8787 0.0295473
23.71 64.6519 0.0354025
22.8452 66.7118 2
21.9183 68.868 3.98156
24.8183 67.5832 0.0283644
24.0101 69.8005 2
23.1494 72.1454 4
26.1706 70.6031 0.0117911
25.446 73.0099 2
27.7943 73.7221 0
25.8625 9.42445 3.97175
27.0706 6.55299 3.9763
27.8206 8.67811 2
28.4903 3.6459 3.9886
29.1536 5.88747 2
29.81 8.01529 0.0295872
30.1841 0.720592 4
30.7246 3.10052 2
31.2542 5.34017 0.0178679
32.6053 0.320817 2
32.982 2.70289 0.00937193
35.0474 0.080333 0
37.5168 35.9883 3.41611
38.8691 35.9602 2
40.3289 35.9593 0.54227
24.8029 12.12 3.96783
23.8062 14.5373 3.97942
28.5536 10.7345 0.0287507
26.6327 11.4429 2
29.2414 12.7017 2
27.3101 13.4669 3.97443
29.8259 14.2387 3.99923
36.0023 34.4952 3.38741
37.5383 34.4575 2
38.9867 34.4964 0.640029
37.501 32.8281 0.556763
43.2684 30.3376 0.14301
41.2364 30.4212 0.217774
39.3641 31.304 0.432762
41.6792 28.9959 2
39.5746 29.6736 2
37.5003 30.9191 2
35.9536 32.9392 2
39.7433 28.3646 3.84534
37.4636 29.4493 3.76954
35.637 31.3271 3.56416
34.6806 33.2842 3.28762
31.0013 16.8969 3.99698
31.9414 14.5137 2
34.1044 12.9809 0.0174134
31.1988 12.0354 0.025663
42.3618 26.9778 0.0333893
40.7105 23.8387 -0.00345736
33.642 15.9551 0.00816179
35.8203 17.731 0.0148016
38.3517 20.6504 0.00445304
33.5344 17.5523 2
35.4603 20.5626 2
40.1493 26.3366 2
38.0566 23.613 2
33.0219 20.0623 3.9976
37.7669 26.0237 3.95382
35.4096 23.2477 4.00681
36.0614 37.4844 3.34969
37.4966 37.4846 2
39.0153 37.4907 0.658602
39.6629 51.3217 0.000669496
38.5644 47.8965 0.0826979
37.4939 38.9847 0.570744
37.483 45.5042 0.215371
35.6306 43.681 0.439453
36.0367 40.5159 0.629102
34.6978 41.7324 0.721331
37.6311 50.321 2
36.1643 39.0001 2
34.7644 40.4415 2
36.9267 47.5986 2
33.8067 41.5 2
34.316 43.113 2
35.3731 45.3563 2
35.5922 49.4794 3.98071
34.7265 38.9907 3.4526
33.4671 40.4838 3.32887
33.5425 42.1588 3.58897
33.8108 44.5526 3.77162
34.7154 46.7001 3.8478
36.772 52.724 0.00131434
34.5288 52.1004 2
32.4661 50.8459 4.00454
33.4138 55.213 -0.00777764
30.9286 53.1946 2
29.0417 51.1969 3.9835
29.0387 55.1784 0.013616
27.4244 53.1784 2
25.8343 51.3698 3.95491
25.7264 54.9143 0.042224
24.2176 53.1601 2
22.8257 51.4215 3.95449
20.1458 51.2495 3.96571
19.5821 53.9969 3.96151
21.2283 52.8722 2
18.8461 56.4893 3.96142
20.3999 55.5678 2
22.2983 55.0679 0.040391
18.5186 58.9562 3.95371
19.6805 57.6956 2
20.5383 56.8034 0.0381983
18.6627 61.6733 3.97731
19.7889 60.0686 2
20.806 58.6014 0.0394718
19.1492 64.6026 3.96681
20.2578 62.7231 2
21.2443 61.0094 0.0331718
19.8918 67.8079 3.98023
20.9489 65.7165 2
21.933 63.7435 0.0315387
22.848 66.7168 0.0304868
21.9135 68.8653 2
20.9142 71.1327 4
24.0147 69.8047 0.0141694
23.1494 72.1455 2
25.446 73.0099 0
23.124 12.9308 3.97244
23.9816 10.2024 3.96985
25.0244 7.3261 3.97241
25.8627 9.42195 2
26.2822 4.33073 3.98729
27.0676 6.55377 2
27.8213 8.68842 0.0280533
27.7943 1.27781 4
28.4861 3.64782 2
29.156 5.88648 0.020233
30.1841 0.720551 2
30.7278 3.10047 0.0102695
32.6053 0.320823 0
36.0144 35.9911 3.36766
37.5636 36.003 2
38.895 36.002 0.642059
24.7879 12.1629 2
23.8036 14.5462 2
22.5626 15.2031 3.98284
25.3922 14.0707 3.97523
24.1301 15.7911 4.01034
26.6386 11.4362 0.0278285
29.2446 12.6839 0.0214522
27.323 13.4378 2
29.813 14.2565 2
28.4448 15.9977 3.98879
34.8393 34.59 3.38525
36.047 34.4948 2
37.5111 34.4731 0.539186
35.9125 32.9843 0.621894
37.4946 31.0001 0.384519
41.6496 29.0745 0.151835
39.5615 29.7481 0.22607
39.7917 28.3046 2
37.4691 29.4037 2
35.6195 31.2322 2
34.6068 33.2668 2
37.6082 28.067 3.83922
35.4544 29.762 3.76782
34.3687 31.9886 3.55835
33.8407 33.5494 3.36668
30.3669 19.7135 3.9829
30.9598 16.9022 2
31.9511 14.5377 0.0140621
40.1412 26.3469 0.0406421
37.9865 23.6185 0.00500173
33.5826 17.5005 0.00931375
35.5175 20.4918 0.00508459
33.0121 20.0795 2
35.3565 23.2324 2
37.734 25.9953 2
32.6719 22.8323 4.00652
35.2626 25.8779 3.98108
34.731 37.5228 3.47068
36.0527 37.5083 2
37.5263 37.4844 0.54991
37.6724 50.2854 0.0103896
36.9436 47.5286 0.131857
36.1094 39.018 0.633951
35.4024 45.2952 0.217006
34.3896 43.0269 0.445995
34.8131 40.4238 0.599372
33.8438 41.4718 0.633888
35.585 49.4891 2
34.6978 39.0041 2
33.441 40.4856 2
34.6618 46.7761 2
33.4863 42.2569 2
33.7613 44.6084 2
33.6719 48.5997 3.96915
33.1797 39.0947 3.30127
32.9059 40.9837 3.56444
32.4906 43.3408 3.77803
33.0579 45.694 3.8429
34.5378 52.0752 0.000594863
32.4819 50.8389 2
30.6595 49.3413 4.0027
30.9255 53.1961 0.00572597
29.0482 51.1849 2
27.4025 49.5577 3.97919
27.4173 53.1792 0.0475139
25.8425 51.3681 2
24.3157 49.7641 3.96902
24.2111 53.1577 0.0463555
22.8283 51.4186 2
21.5301 49.8895 3.96784
18.848 49.9812 3.9737
18.6336 52.4553 3.96705
20.1414 51.2484 2
18.0031 55.069 3.96262
19.5754 53.9978 2
21.2283 52.8739 0.0411307
17.422 57.6865 3.9579
18.8458 56.4897 2
20.4019 55.5659 0.0398269
17.217 60.4461 3.94887
18.5187 58.9586 2
19.6848 57.6936 0.038889
17.4147 63.4125 3.97238
18.6609 61.6675 2
19.7834 60.0663 0.0267572
17.9496 66.6073 3.97075
19.1406 64.6003 2
20.2597 62.7209 0.0290062
18.75 69.9759 4
19.8877 67.8026 2
20.9544 65.716 0.0347435
21.9183 68.868 0.0184419
20.9142 71.1327 2
23.1494 72.1454 0
21.6304 13.7499 3.96774
22.2061 11.101 3.96406
23.1234 12.923 2
23.0432 8.19961 3.97153
23.977 10.2286 2
24.1199 5.14589 3.98618
25.02 7.32755 2
25.8625 9.42445 0.0282519
25.446 1.99014 4
26.277 4.33247 2
27.0706 6.55299 0.0236978
27.7943 1.27778 2
28.4903 3.6459 0.0114003
30.1841 0.720592 0
34.8115 36.0334 3.42232
36.0546 35.9951 2
37.5168 35.9883 0.583892
21.4318 16.0068 3.95991
24.8029 12.12 0.0321663
23.8062 14.5373 0.0205786
25.3924 14.0359 2
22.5647 15.1981 2
24.1309 15.8054 2
23.4176 16.4133 3.96685
25.4781 16.3007 3.98999
27.3101 13.4669 0.0255711
29.8259 14.2387 0.000774398
28.4279 16.0571 2
27.6209 19.1151 3.9896
33.4667 34.5439 3.34907
34.7465 34.6007 2
36.0023 34.4952 0.61259
34.6806 33.2842 0.712383
35.637 31.3271 0.43584
37.4636 29.4493 0.23046
39.7433 28.3646 0.154664
37.565 28.0377 2
33.8031 33.5311 2
35.4412 29.6929 2
34.3064 31.8984 2
35.3341 28.1618 3.85935
33.7831 30.4509 3.7798
33.5261 32.8521 3.5938
30.0118 22.3334 4.01159
30.3435 19.7276 2
31.0013 16.8969 0.00302405
37.7669 26.0237 0.0461811
35.4096 23.2477 -0.00680722
33.0219 20.0623 0.00240036
32.6693 22.7922 2
35.2722 25.8683 2
32.3535 26.1626 4.01851
33.0309 37.5134 3.35076
34.7182 37.5164 2
36.0614 37.4844 0.650311
35.5922 49.4794 0.0192884
34.7154 46.7001 0.152203
34.7265 38.9907 0.547396
33.8108 44.5526 0.228384
33.5425 42.1588 0.411029
33.4671 40.4838 0.671127
33.6255 48.5947 2
33.1672 39.1003 2
32.8436 41.0531 2
33.0409 45.7624 2
32.4416 43.3675 2
32.0311 47.3839 3.98355
32.3252 39.4249 3.56696
31.577 41.6795 3.80916
31.6152 44.3782 3.84362
32.4661 50.8459 -0.00454099
30.6734 49.3605 2
28.9499 47.7616 3.97169
29.0417 51.1969 0.0164998
27.4089 49.5563 2
25.803 47.998 3.97688
25.8343 51.3698 0.0450927
24.318 49.7618 2
22.857 48.3218 3.97301
22.8257 51.4215 0.0455056
21.5302 49.8869 2
20.0268 48.714 3.97517
17.723 49.026 3.97596
17.5149 51.1006 3.97242
18.8495 49.9792 2
17.0224 53.593 3.96821
18.6327 52.4543 2
20.1458 51.2495 0.0342936
16.3983 56.2609 3.96229
17.9983 55.0699 2
19.5821 53.9969 0.0384892
15.8682 59.0914 3.95523
17.4274 57.6871 2
18.8461 56.4893 0.038576
15.7989 62.0635 3.96917
17.2077 60.45 2
18.5186 58.9562 0.0462892
16.0963 65.2986 3.97731
17.4139 63.4219 2
18.6627 61.6733 0.0226863
16.6661 68.6801 4
17.9448 66.6036 2
19.1492 64.6026 0.0331935
18.75 69.9759 2
19.8918 67.8079 0.0197743
20.9142 71.1327 0
20.2878 14.7509 3.96302
21.6354 13.7519 2
20.5558 12.1171 3.97061
21.1489 9.18147 3.97233
22.1966 11.1146 2
23.124 12.9308 0.0275608
22.0208 6.0857 3.98573
23.0388 8.20606 2
23.9816 10.2024 0.0301501
23.1494 2.85457 4
24.1144 5.15013 2
25.0244 7.3261 0.0275858
25.446 1.99012 2
26.2822 4.33073 0.0127073
27.7943 1.27781 0
33.1578 35.9433 3.35345
34.747 36.0338 2
36.0144 35.9911 0.632339
21.4426 16.0069 2
20.5164 17.1859 3.96262
22.2656 16.8164 3.96582
25.3922 14.0707 0.0247656
22.5626 15.2031 0.0171566
24.1301 15.7911 -0.0103409
25.4755 16.298 2
23.4218 16.4212 2
24.4165 18.7616 3.9816
27.4707 21.917 3.99049
28.4448 15.9977 0.0112074
27.6041 19.1084 2
32.9031 34.0213 3.56244
33.4395 34.5437 2
34.8393 34.59 0.614752
33.8407 33.5494 0.633321
34.3687 31.9886 0.441647
35.4544 29.762 0.232184
37.6082 28.067 0.160782
35.3144 28.1118 2
33.4811 32.7633 2
33.7351 30.386 2
33.2541 28.7994 3.87086
32.4944 31.6631 3.77459
29.5226 24.8164 4.01504
30.0041 22.3036 2
30.3669 19.7135 0.0170997
35.2626 25.8779 0.0189212
32.6719 22.8323 -0.00651683
32.3301 26.1203 2
30.633 27.8231 3.99095
32.101 37.4955 3.54897
33.0081 37.5144 2
34.731 37.5228 0.529323
33.6719 48.5997 0.0308488
33.0579 45.694 0.1571
33.1797 39.0947 0.698734
32.4906 43.3408 0.221968
32.9059 40.9837 0.435559
31.9885 47.4131 2
32.2288 39.4303 2
31.5077 41.7437 2
31.5422 44.4408 2
30.415 46.0061 3.97799
30.8463 39.6929 3.81426
30.2721 42.7248 3.86709
30.6595 49.3413 -0.00269651
28.9547 47.7666 2
27.2767 46.1861 3.98688
27.4025 49.5577 0.0208065
25.8084 47.9958 2
24.1747 46.5854 3.97608
24.3157 49.7641 0.030981
22.8575 48.3198 2
21.1212 47.2207 3.9753
21.5301 49.8895 0.0321645
20.0263 48.7131 2
18.6256 47.8499 3.97563
16.9677 48.3995 3.97552
17.7229 49.0261 2
16.5639 49.8966 3.97483
15.982 52.1617 3.97306
17.5166 51.099 2
18.848 49.9812 0.0262997
15.3291 54.7656 3.96799
17.0228 53.5922 2
18.6336 52.4553 0.0329549
14.6739 57.6092 3.96127
16.3968 56.2616 2
18.0031 55.069 0.0373803
14.2852 60.6447 3.95967
15.8679 59.0925 2
17.422 57.6865 0.0421042
14.3396 63.8516 3.966
15.8029 62.0672 2
17.217 60.4461 0.051131
14.6715 67.2507 4
16.0909 65.2912 2
17.4147 63.4125 0.027625
16.6661 68.6801 2
17.9496 66.6073 0.0292522
18.75 69.9759 0
19.0574 15.9607 3.95699
20.296 14.7409 2
19.015 13.244 3.96736
21.6304 13.7499 0.0322572
20.5465 12.1193 2
19.3551 10.284 3.97003
19.9959 7.14837 3.98212
21.1429 9.17662 2
22.2061 11.101 0.0359419
20.9142 3.86727 4
22.0127 6.08744 2
23.0432 8.19961 0.0284727
23.1494 2.85451 2
24.1199 5.14589 0.0138202
25.446 1.99014 0
32.3412 35.5746 3.55228
33.1365 35.937 2
34.8115 36.0334 0.577678
21.4318 16.0068 0.0400901
22.2775 16.8187 2
20.5296 17.1843 2
19.592 18.6739 3.96751
21.991 18.1622 3.98135
25.4781 16.3007 0.0100124
23.4176 16.4133 0.0331503
24.4258 18.7701 2
22.7249 20.2184 3.9699
25.0844 21.7542 3.98747
27.1731 24.0766 3.97638
27.4855 21.8215 2
27.6209 19.1151 0.0103984
31.5811 33.331 3.80662
32.8475 33.9672 2
33.4667 34.5439 0.650926
33.5261 32.8521 0.406199
33.7831 30.4509 0.220202
35.3341 28.1618 0.140645
33.2076 28.7512 2
32.4146 31.5996 2
31.3159 30.1488 3.88783
28.9312 27.0047 4.01445
29.5143 24.8089 2
30.0118 22.3334 -0.0115894
32.3535 26.1626 -0.0185101
30.6312 27.8259 2
30.5875 37.4838 3.81803
31.9927 37.4956 2
33.0309 37.5134 0.649244
32.0311 47.3839 0.0164492
31.6152 44.3782 0.156377
32.3252 39.4249 0.433044
31.577 41.6795 0.190839
30.4295 46.0223 2
30.7441 39.7019 2
30.2412 42.7584 2
28.7951 44.3911 3.95712
28.5984 40.3546 3.91281
28.9499 47.7616 0.0283113
27.2792 46.1842 2
25.5341 44.7302 3.97937
25.803 47.998 0.0231186
24.1756 46.5847 2
22.2245 45.5438 3.97652
22.857 48.3218 0.0269904
21.1222 47.2203 2
19.4168 46.4167 3.97519
20.0268 48.714 0.0248335
18.6263 47.8504 2
17.2361 47.4333 3.97494
16.9694 48.4001 2
15.9387 48.7584 3.97494
17.723 49.026 0.0240436
16.5656 49.8958 2
15.0825 50.7544 3.97426
14.2754 53.2436 3.97223
15.9824 52.161 2
17.5149 51.1006 0.027576
13.5313 56.0349 3.9623
15.3287 54.7658 2
17.0224 53.593 0.0317948
12.9068 59.0774 3.95093
14.6737 57.6096 2
16.3983 56.2609 0.037713
12.687 62.2932 3.9645
14.2878 60.6482 2
15.8682 59.0914 0.044768
12.7746 65.6939 4
14.3358 63.8437 2
15.7989 62.0635 0.0308281
14.6714 67.2507 2
16.0963 65.2986 0.0226869
16.6661 68.6801 0
17.9348 17.3665 3.95962
19.0772 15.9531 2
17.5636 14.4924 3.9569
20.2878 14.7509 0.0369825
19.0078 13.226 2
17.6602 11.5405 3.9687
20.5558 12.1171 0.0293909
19.3475 10.3036 2
18.0559 8.34324 3.97803
18.75 5.0241 4
19.988 7.15786 2
21.1489 9.18147 0.0276711
20.9142 3.86727 2
22.0208 6.0857 0.0142688
23.1494 2.85457 0
30.8472 35.3226 3.80851
32.2393 35.5633 2
33.1578 35.9433 0.646548
22.2656 16.8164 0.0341828
20.5164 17.1859 0.0373824
22.0073 18.1511 2
19.5921 18.6694 2
18.5244 20.2442 3.96926
21.2904 19.6932 3.97456
24.4165 18.7616 0.0183975
22.7347 20.2159 2
25.1025 21.7161 2
23.0087 22.098 3.97473
25.4963 23.4013 3.97402
26.5721 26.372 3.98472
27.1737 24.0823 2
27.4707 21.917 0.00950716
30.0157 32.733 3.86535
31.506 33.2792 2
32.9031 34.0213 0.437557
32.4944 31.6631 0.225408
33.2541 28.7994 0.129142
31.295 30.1084 2
28.4112 29.6173 4.00479
28.9225 27.0186 2
29.5226 24.8164 -0.015038
30.633 27.8231 0.00904632
28.8892 37.4335 3.83913
30.4729 37.4975 2
32.101 37.4955 0.451031
30.415 46.0061 0.0220127
30.2721 42.7248 0.132914
30.8463 39.6929 0.18574
28.8013 44.4503 2
28.5507 40.3805 2
26.9741 42.9021 3.98228
25.9415 39.3662 3.97768
27.2767 46.1861 0.0131239
25.5261 44.7403 2
23.4941 43.5977 3.97472
24.1747 46.5854 0.0239216
22.2229 45.5439 2
20.2614 44.6684 3.97472
21.1212 47.2207 0.0246951
19.4168 46.4173 2
17.6246 45.9449 3.97499
18.6256 47.8499 0.0243724
17.2367 47.4336 2
15.7211 47.4359 3.9749
16.9677 48.3995 0.0244826
15.9406 48.7583 2
14.4077 49.3334 3.97445
16.5639 49.8966 0.0251665
15.0834 50.7535 2
13.3435 51.6998 3.97426
12.4221 54.4071 3.96588
14.2757 53.2434 2
15.982 52.1617 0.0269379
11.6425 57.4065 3.95679
13.5299 56.0352 2
15.3291 54.7656 0.0320053
11.1413 60.6205 3.96386
12.901 59.0792 2
14.6739 57.6092 0.0387329
10.9835 64.0165 4
12.6842 62.2843 2
14.2852 60.6447 0.0403288
12.7745 65.694 2
14.3396 63.8516 0.034005
14.6715 67.2507 0
16.7953 18.8843 3.96248
17.9413 17.3616 2
16.235 15.9179 3.95591
19.0574 15.9607 0.0430059
17.5678 14.4907 2
16.033 12.8809 3.96168
19.015 13.244 0.0326361
17.6491 11.5383 2
16.2087 9.67091 3.96968
19.3551 10.284 0.0299679
18.0489 8.3515 2
16.6661 6.31991 4
18.75 5.02404 2
19.9959 7.14837 0.0178843
20.9142 3.86727 0
29.246 34.9595 3.87979
30.7235 35.292 2
32.3412 35.5746 0.447719
17.2648 21.6693 3.97157
21.991 18.1622 0.018647
19.592 18.6739 0.0324872
21.2985 19.6895 2
18.515 20.2373 2
20.431 21.945 3.97376
22.7249 20.2184 0.0301012
25.0844 21.7542 0.0125291
23.0114 22.0961 2
25.4838 23.447 2
23.8837 25.0268 3.97142
25.9857 28.9949 3.98384
26.5673 26.3948 2
27.1731 24.0766 0.0236187
27.8978 32.0845 3.97421
29.9644 32.7115 2
31.5811 33.331 0.193376
31.3159 30.1488 0.112166
28.4196 29.577 2
28.9312 27.0047 -0.0144494
26.6779 36.8926 3.95485
28.8357 37.3949 2
30.5875 37.4838 0.181972
28.7951 44.3911 0.0428788
28.5984 40.3546 0.0871937
26.9483 42.9373 2
25.89 39.3529 2
24.758 41.5918 3.9763
23.6359 38.514 3.97564
25.5341 44.7302 0.020628
23.4916 43.6044 2
21.1816 42.6452 3.97447
22.2245 45.5438 0.0234822
20.2628 44.6693 2
18.0562 44.146 3.97505
19.4168 46.4167 0.0248066
17.625 45.9454 2
15.6931 45.8779 3.975
17.2361 47.4333 0.0250648
15.7214 47.4361 2
13.9464 47.8192 3.97482
15.9387 48.7584 0.0250643
14.4086 49.333 2
12.5848 50.0912 3.97435
15.0825 50.7544 0.0257418
13.3442 51.6994 2
11.417 52.7299 3.96869
10.4445 55.6635 3.95968
12.4197 54.4074 2
14.2754 53.2436 0.0277708
9.70815 58.8457 3.967
11.6473 57.4059 2
13.5313 56.0349 0.0377014
9.30605 62.2254 4
11.1399 60.6129 2
12.9068 59.0774 0.0490721
10.9835 64.0165 2
12.687 62.2932 0.0355029
12.7746 65.6939 0
15.5821 20.4115 3.96778
16.8053 18.8816 2
14.9749 17.4538 3.95836
17.9348 17.3665 0.0403817
16.2202 15.9076 2
14.4968 14.3551 3.95983
17.5636 14.4924 0.0430979
16.0379 12.8777 2
14.4524 11.1217 3.96896
17.6602 11.5405 0.0312957
16.202 9.68201 2
14.6715 7.74927 4
18.0559 8.34324 0.0219745
16.6661 6.31988 2
18.75 5.0241 0
27.2 34.48 3.97492
29.2048 34.9705 2
30.8472 35.3226 0.191487
18.574 22.6688 3.97444
16.1573 23.2021 3.9729
17.2634 21.6649 2
21.2904 19.6932 0.0254394
18.5244 20.2442 0.0307394
20.4363 21.9433 2
20.6154 24.8049 3.97196
23.0087 22.098 0.0252655
25.4963 23.4013 0.0259753
23.8846 25.0237 2
23.3648 28.3142 3.97087
25.4758 31.5642 3.98293
25.9986 28.9142 2
26.5721 26.372 0.015281
27.862 32.0577 2
30.0157 32.733 0.134652
28.4112 29.6173 -0.00479486
24.366 36.3519 3.97849
26.6251 36.899 2
28.8892 37.4335 0.160869
26.9741 42.9021 0.0177192
25.9415 39.3662 0.0223239
24.7245 41.6016 2
23.6288 38.5162 2
22.3725 40.4894 3.97535
21.6586 37.7912 3.97814
23.4941 43.5977 0.0252843
21.1824 42.6437 2
18.5566 41.9348 3.97569
20.2614 44.6684 0.0252827
18.0564 44.146 2
15.7441 44.0234 3.97516
17.6246 45.9449 0.0250135
15.6927 45.8781 2
13.643 46.1324 3.97492
15.7211 47.4359 0.0251039
13.9463 47.819 2
11.976 48.4068 3.97493
14.4077 49.3334 0.0255517
12.5858 50.0907 2
10.5491 50.9847 3.97199
13.3435 51.6998 0.0257395
11.4175 52.7291 2
9.3444 53.85 3.96188
8.39149 56.9814 3.96836
10.4471 55.6622 2
12.4221 54.4071 0.0341242
7.74927 60.3285 4
9.70679 58.8397 2
11.6425 57.4065 0.0432064
9.306 62.2255 2
11.1413 60.6205 0.0361397
10.9835 64.0165 0
14.4174 21.9621 3.97234
15.5852 20.4078 2
13.7069 19.0422 3.96294
16.7953 18.8843 0.0375196
14.9723 17.4477 2
13.0524 15.9317 3.95504
16.235 15.9179 0.044094
14.5079 14.3469 2
12.7885 12.6952 3.96624
16.033 12.8809 0.0383246
14.4473 11.1348 2
12.7746 9.30605 4
16.2087 9.67091 0.03032
14.6715 7.74924 2
16.6661 6.31991 0
24.8737 33.9865 3.98056
27.1734 34.4302 2
29.246 34.9595 0.120214
18.4648 24.4083 3.97225
18.5821 22.6681 2
14.9701 24.688 3.97379
16.1563 23.1982 2
17.2648 21.6693 0.0284342
20.1802 27.5866 3.97295
20.431 21.945 0.0262382
20.6197 24.8049 2
22.7411 31.0138 3.97378
23.8837 25.0268 0.0285821
23.3566 28.3219 2
25.4211 31.6336 2
25.9857 28.9949 0.0161603
27.8978 32.0845 0.0257856
21.7412 36.009 3.97779
24.3611 36.3678 2
26.6779 36.8926 0.0451494
24.758 41.5918 0.0237022
23.6359 38.514 0.0243639
22.3778 40.491 2
21.6573 37.7889 2
19.3567 38.958 3.97709
21.1816 42.6452 0.0255339
18.5569 41.935 2
15.7342 41.8069 3.97586
18.0562 44.146 0.0249543
15.7434 44.0232 2
13.4014 44.2625 3.97514
15.6931 45.8779 0.0249965
13.6423 46.1324 2
11.4882 46.6134 3.97535
13.9464 47.8192 0.0251828
11.9771 48.4062 2
9.81801 49.1549 3.97429
12.5848 50.0912 0.0256457
10.55 50.9837 2
8.36946 51.9696 3.9635
11.417 52.7299 0.0313143
9.34271 53.849 2
7.19994 55.0335 3.96951
6.31991 58.3339 4
8.39013 56.976 2
10.4445 55.6635 0.0403168
7.74924 60.3285 2
9.70815 58.8457 0.0329991
9.30605 62.2254 0
13.8039 25.5677 3.97582
13.3064 23.4718 3.97387
14.4176 21.9583 2
12.5245 20.6812 3.96595
15.5821 20.4115 0.0322223
13.6978 19.0358 2
11.7458 17.6156 3.95483
14.9749 17.4538 0.0416357
13.0666 15.9291 2
11.2272 14.3822 3.9639
14.4968 14.3551 0.0401668
12.7878 12.7071 2
10.9835 10.9835 4
14.4524 11.1217 0.0310361
12.7745 9.306 2
14.6715 7.74927 0
22.1132 33.6143 3.97687
24.8701 33.9335 2
27.2 34.48 0.025076
16.7694 26.6796 3.97386
18.4667 24.4073 2
18.574 22.6688 0.0255609
14.9665 24.6875 2
16.1573 23.2021 0.0271045
19.5719 30.4597 3.97478
20.1801 27.5833 2
20.6154 24.8049 0.0280399
22.7561 31.0012 2
23.3648 28.3142 0.0291348
25.4758 31.5642 0.0170684
18.9251 36.0381 3.97743
21.745 36.006 2
24.366 36.3519 0.0215143
22.3725 40.4894 0.0246506
21.6586 37.7912 0.0218589
19.3553 38.9579 2
15.214 39.1412 3.97684
18.5566 41.9348 0.0243117
15.7339 41.8069 2
13.0894 42.1922 3.97582
15.7441 44.0234 0.0248426
13.4006 44.2624 2
11.0675 44.7103 3.97553
13.643 46.1324 0.0250788
11.489 46.6128 2
9.20749 47.2452 3.97584
11.976 48.4068 0.0250677
9.81999 49.1537 2
7.52953 50.0084 3.96439
10.5491 50.9847 0.0280136
8.36755 51.9685 2
6.13999 53.0087 3.96998
9.3444 53.85 0.0381185
7.19933 55.0287 2
5.0241 56.25 4
6.31988 58.3339 2
8.39149 56.9814 0.0316419
7.74927 60.3285 0
14.1128 27.0107 3.97465
12.4035 24.9514 3.97467
13.8015 25.5667 2
11.4441 22.3529 3.96973
13.3046 23.4692 2
14.4174 21.9621 0.0276603
12.5187 20.6766 2
10.5223 19.3735 3.95829
13.7069 19.0422 0.0370578
11.7605 17.6149 2
9.76775 16.1631 3.96655
13.0524 15.9317 0.0449649
11.227 14.3895 2
9.30607 12.7746 4
12.7885 12.6952 0.0337584
10.9835 10.9835 2
12.7746 9.30605 0
19.0779 33.2719 3.97574
22.1066 33.6235 2
24.8737 33.9865 0.0194404
16.3976 29.8602 3.975
16.7679 26.6811 2
18.4648 24.4083 0.0277457
14.9701 24.688 0.0262075
19.5673 30.4615 2
20.1802 27.5866 0.0270525
22.7411 31.0138 0.0262164
15.8693 36.0667 3.9771
18.9237 36.0384 2
21.7412 36.009 0.022207
13.3298 37.8311 3.97705
19.3567 38.958 0.0229062
15.2139 39.1414 2
12.5741 40.0988 3.97638
15.7342 41.8069 0.0241387
13.0883 42.1919 2
10.6581 42.7148 3.97575
13.4014 44.2625 0.0248565
11.068 44.7102 2
8.68362 45.2606 3.97638
11.4882 46.6134 0.0246525
9.21041 47.244 2
6.80917 47.9793 3.96539
9.81801 49.1549 0.0257059
7.52759 50.0074 2
5.21604 50.9116 3.97043
8.36946 51.9696 0.0364993
6.1399 53.0051 2
3.86727 54.0858 4
7.19994 55.0335 0.0304947
5.02404 56.25 2
6.31991 58.3339 0
13.5855 29.1894 3.9742
11.8517 26.625 3.97489
14.112 27.011 2
10.4806 24.0667 3.97385
12.4041 24.9505 2
13.8039 25.5677 0.024177
9.36712 21.1837 3.96197
11.4428 22.3504 2
13.3064 23.4718 0.0261296
12.5245 20.6812 0.0340501
10.5327 19.3738 2
8.42361 18.0313 3.96846
11.7458 17.6156 0.0451731
9.76787 16.1681 2
7.74928 14.6715 4
11.2272 14.3822 0.0360985
9.30602 12.7745 2
10.9835 10.9835 0
15.369 32.9782 3.97629
19.0786 33.2715 2
22.1132 33.6143 0.0231284
16.3985 29.8599 2
16.7694 26.6796 0.026142
19.5719 30.4597 0.0252214
13.643 36.239 3.97672
15.8688 36.0665 2
18.9251 36.0381 0.0225698
13.3289 37.8312 2
11.8772 38.3034 3.97644
15.214 39.1412 0.023158
12.5733 40.0989 2
10.2239 40.7186 3.9762
13.0894 42.1922 0.0241831
10.6586 42.7143 2
8.22504 43.2268 3.97625
11.0675 44.7103 0.0244676
8.68696 45.2597 2
6.20122 45.8904 3.96671
9.20749 47.2452 0.0241556
6.80774 47.9784 2
4.42678 48.7519 3.97102
7.52953 50.0084 0.0356105
5.21629 50.909 2
2.85457 51.8506 4
6.13999 53.0087 0.0300215
3.86727 54.0858 2
5.0241 56.25 0
12.7003 31.3605 3.97556
11.2573 28.53 3.97509
13.5854 29.1891 2
9.69353 25.8831 3.97499
11.852 26.6253 2
14.1128 27.0107 0.0253503
8.3319 23.0579 3.96386
10.4822 24.0655 2
12.4035 24.9514 0.0253311
7.20552 19.979 3.96951
9.37247 21.1843 2
11.4441 22.3529 0.0302705
10.5223 19.3735 0.0417139
8.42333 18.0353 2
6.31992 16.6661 4
9.76775 16.1631 0.0334514
7.74926 14.6714 2
9.30607 12.7746 0
12.7468 34.3579 3.97659
15.3689 32.9783 2
19.0779 33.2719 0.0242566
16.3976 29.8602 0.0250042
11.3942 36.6318 3.97641
13.6421 36.2392 2
15.8693 36.0667 0.0228997
13.3298 37.8311 0.022952
11.8762 38.3035 2
9.7917 38.8136 3.97645
12.5741 40.0988 0.0236234
10.224 40.7184 2
7.82331 41.1868 3.97625
10.6581 42.7148 0.0242502
8.22728 43.2254 2
5.69577 43.7592 3.96776
8.68362 45.2606 0.0236189
6.19889 45.8897 2
3.77185 46.5371 3.97161
6.80917 47.9793 0.034613
4.42737 48.7499 2
1.99014 49.554 4
5.21604 50.9116 0.0295678
2.85451 51.8506 2
3.86727 54.0858 0
11.4705 32.9922 3.97634
10.5504 30.4657 3.97561
12.6992 31.3608 2
8.99648 27.803 3.97562
11.2574 28.5298 2
13.5855 29.1894 0.0258043
7.44257 25.0095 3.96462
9.69467 25.8825 2
11.8517 26.625 0.0251146
6.12184 22.0016 3.97023
8.3325 23.0584 2
10.4806 24.0667 0.0261516
5.02411 18.75 4
7.20559 19.9823 2
9.36712 21.1837 0.0380339
8.42361 18.0313 0.0315361
6.3199 16.6661 2
7.74928 14.6715 0
10.9639 35.0377 3.97609
12.7458 34.3575 2
15.369 32.9782 0.0237123
9.43746 36.9953 3.97655
11.3929 36.6321 2
13.643 36.239 0.0232817
11.8772 38.3034 0.0235582
9.79214 38.8137 2
7.48575 39.1738 3.97652
10.2239 40.7186 0.0238047
7.8267 41.1861 2
5.30005 41.6096 3.96814
8.22504 43.2268 0.0237464
5.69441 43.7586 2
3.2493 44.2819 3.97256
6.20122 45.8904 0.033286
3.77273 46.5356 2
1.27781 47.2057 4
4.42678 48.7519 0.0289767
1.99012 49.554 2
2.85457 51.8506 0
10.578 33.9296 3.97582
9.80671 32.2136 3.97625
11.4697 32.9923 2
8.33096 29.7512 3.97634
10.5507 30.4661 2
12.7003 31.3605 0.0244393
6.67017 27.0291 3.96517
8.99865 27.803 2
11.2573 28.53 0.0249065
5.17627 24.0947 3.9707
7.44111 25.0099 2
9.69353 25.8831 0.0250111
3.86728 20.9142 4
6.12222 22.0039 2
8.3319 23.0579 0.0361373
5.02406 18.75 2
7.20552 19.979 0.0304868
6.31992 16.6661 0
9.24228 35.3069 3.97671
10.9631 35.0374 2
12.7468 34.3579 0.0234096
7.25249 37.2113 3.97659
9.4383 36.9954 2
11.3942 36.6318 0.0235915
9.7917 38.8136 0.0235461
7.48896 39.1736 2
5.02249 39.467 3.96804
7.82331 41.1868 0.0237484
5.29853 41.6091 2
2.85949 42.0024 3.97313
5.69577 43.7592 0.0322436
3.24998 44.2807 2
0.720592 44.8159 4
3.77185 46.5371 0.0283896
1.27778 47.2057 2
1.99014 49.554 0
9.27623 33.7386 3.97688
10.5777 33.9294 2
7.75415 31.6495 3.97649
9.80836 32.2136 2
11.4705 32.9922 0.0236629
6.00193 29.0853 3.96547
8.33363 29.7516 2
10.5504 30.4657 0.0243899
4.36317 26.2482 3.97098
6.6679 27.0295 2
8.99648 27.803 0.0243792
2.85458 23.1494 4
5.17696 24.0962 2
7.44257 25.0095 0.0353846
3.86728 20.9142 2
6.12184 22.0016 0.0297691
5.02411 18.75 0
7.19244 35.3234 3.97674
9.24394 35.3069 2
10.9639 35.0377 0.0239134
4.86684 37.3428 3.96762
7.2555 37.2113 2
9.43746 36.9953 0.0234528
7.48575 39.1738 0.0234825
5.02062 39.4667 2
2.60726 39.7143 3.97362
5.30005 41.6096 0.0318577
2.86048 42.0016 2
0.320823 42.3947 4
3.2493 44.2819 0.0274422
0.720551 44.8159 2
1.27781 47.2057 0
7.35422 33.4888 3.97692
9.27805 33.7388 2
10.578 33.9296 0.024185
5.45965 31.1453 3.96595
7.75673 31.6499 2
9.80671 32.2136 0.0237501
3.68429 28.4449 3.97174
5.99865 29.0855 2
8.33096 29.7512 0.0236562
1.99015 25.446 4
4.36399 26.2492 2
6.67017 27.0291 0.0348277
2.85453 23.1494 2
5.17627 24.0947 0.0292959
3.86728 20.9142 0
4.88012 35.2573 3.96689
7.19437 35.3237 2
9.24228 35.3069 0.0232882
2.49869 37.4293 3.97431
4.86348 37.3427 2
7.25249 37.2113 0.0234127
5.02249 39.467 0.0319646
2.60841 39.7141 2
0.080333 39.9526 4
2.85949 42.0024 0.0268667
0.320817 42.3947 2
0.720592 44.8159 0
5.07939 33.1987 3.96637
7.35601 33.4893 2
9.27623 33.7386 0.0231222
3.14833 30.668 3.97258
5.45529 31.1454 2
7.75415 31.6495 0.0235128
1.27793 27.7943 4
3.68532 28.4458 2
6.00193 29.0853 0.0345311
1.99013 25.446 2
4.36317 26.2482 0.0290244
2.85458 23.1494 0
2.55068 35.1604 3.97401
4.87698 35.2575 2
7.19244 35.3234 0.0232579
0 37.5 4
2.49952 37.4294 2
4.86684 37.3428 0.0323819
2.60726 39.7143 0.0263782
0.0802903 39.9526 2
0.320823 42.3947 0
2.76837 32.9075 3.97365
5.07621 33.1989 2
7.35422 33.4888 0.0230754
0.721173 30.1842 4
3.14959 30.6688 2
5.45965 31.1453 0.0340491
1.27779 27.7943 2
3.68429 28.4449 0.0282572
1.99015 25.446 0
0.0806499 35.0474 4
2.55208 35.1606 2
4.88012 35.2573 0.0331085
0 37.5 2
2.49869 37.4293 0.0256925
0.080333 39.9526 0
0.32156 32.6054 4
2.76928 32.9081 2
5.07939 33.1987 0.0336316
0.72056 30.1841 2
3.14833 30.668 0.0274156
1.27793 27.7943 0
0.0802889 35.0474 2
2.55068 35.1604 0.0259895
0 37.5 0
0.320817 32.6053 2
2.76837 32.9075 0.0263506
0.721173 30.1842 0
0.0806499 35.0474 0
0.32156 32.6054 0
CELLS 1910 17190
8 18 6 25 56 2 0 5 16
8 57 23 6 18 17 4 0 2
8 78 36 9 29 31 11 1 7
8 31 11 1 7 79 37 10 30
8 110 57 18 50 48 17 2 14
8 50 18 56 111 14 2 16 49
8 116 62 22 55 52 20 3 15
8 56 25 67 118 16 5 24 53
8 119 63 23 57 54 21 4 17
8 55 22 63 119 15 3 21 54
8 58 26 68 121 18 6 25 56
8 122 65 26 58 57 23 6 18
8 73 31 7 27 142 79 30 71
8 143 78 29 72 73 31 7 27
8 83 147 76 34 32 74 28 8
8 84 148 78 36 33 75 29 9
8 76 34 8 28 148 84 33 75
8 37 79 150 86 10 30 77 35
8 151 87 36 78 80 38 11 31
8 80 38 11 31 152 88 37 79
8 175 100 42 94 96 44 12 40
8 44 96 176 101 12 40 95 43
8 101 176 98 46 43 95 41 13
8 46 98 178 103 13 41 97 45
8 178 103 45 97 147 83 32 74
8 189 116 55 109 106 52 15 47
8 111 56 118 191 49 16 53 107
8 192 119 57 110 108 54 17 48
8 109 55 119 192 47 15 54 108
8 194 122 58 112 110 57 18 50
8 112 58 121 195 50 18 56 111
8 115 61 19 51 197 124 59 113
8 115 61 125 198 51 19 60 114
8 198 125 62 116 114 60 20 52
8 200 127 64 120 116 62 22 55
8 118 67 132 202 53 24 66 117
8 121 68 133 203 56 25 67 118
8 120 64 128 204 55 22 63 119
8 204 128 65 122 119 63 23 57
8 206 134 68 121 123 69 26 58
8 123 69 26 58 207 131 65 122
8 226 147 74 138 140 76 28 70
8 229 148 75 139 143 78 29 72
8 140 76 28 70 229 148 75 139
8 142 79 30 71 231 150 77 141
8 144 80 31 73 232 152 79 142
8 233 151 78 143 144 80 31 73
8 150 86 35 77 235 154 81 145
8 235 154 81 145 146 82 39 91
8 146 82 39 91 236 155 90 165
8 238 157 83 147 149 85 34 76
8 239 158 84 148 151 87 36 78
8 149 85 34 76 239 158 84 148
8 152 88 37 79 241 160 86 150
8 242 161 87 151 153 89 38 80
8 153 89 38 80 243 162 88 152
8 171 98 41 92 265 178 97 169
8 265 178 97 169 226 147 74 138
8 172 96 40 93 266 176 95 170
8 266 176 95 170 171 98 41 92
8 269 175 94 173 172 96 40 93
8 271 180 99 174 175 100 42 94
8 197 124 59 113 271 180 99 174
8 272 181 100 175 177 102 44 96
8 273 182 101 176 179 104 46 98
8 177 102 44 96 273 182 101 176
8 179 104 46 98 275 184 103 178
8 275 184 103 178 238 157 83 147
8 188 115 51 105 283 197 113 186
8 188 115 198 284 105 51 114 187
8 284 198 116 189 187 114 52 106
8 286 200 120 193 189 116 55 109
8 191 118 202 288 107 53 117 190
8 195 121 203 289 111 56 118 191
8 193 120 204 290 109 55 119 192
8 290 204 122 194 192 119 57 110
8 196 123 58 112 292 207 122 194
8 293 206 121 195 196 123 58 112
8 199 126 61 115 297 211 124 197
8 298 212 127 200 198 125 62 116
8 199 126 212 298 115 61 125 198
8 205 129 64 120 300 214 127 200
8 301 217 130 201 202 132 66 117
8 209 136 168 264 301 217 130 201
8 302 219 132 202 203 133 67 118
8 303 220 133 203 206 134 68 121
8 205 129 215 304 120 64 128 204
8 304 215 131 207 204 128 65 122
8 306 221 134 206 208 135 69 123
8 208 135 69 123 307 218 131 207
8 210 137 167 263 309 223 136 209
8 328 238 147 226 230 149 76 140
8 228 146 91 166 329 236 165 260
8 231 150 77 141 330 235 145 227
8 330 235 145 227 228 146 91 166
8 332 239 148 229 233 151 78 143
8 230 149 76 140 332 239 148 229
8 232 152 79 142 334 241 150 231
8 234 153 80 144 335 243 152 232
8 336 242 151 233 234 153 80 144
8 236 155 90 165 338 245 164 259
8 241 160 86 150 339 246 154 235
8 339 246 154 235 237 156 82 146
8 237 156 82 146 340 247 155 236
8 342 249 157 238 240 159 85 149
8 343 250 158 239 242 161 87 151
8 240 159 85 149 343 250 158 239
8 243 162 88 152 345 252 160 241
8 244 163 253 346 153 89 161 242
8 244 163 89 153 347 254 162 243
8 311 224 261 371 210 137 167 263
8 263 167 262 372 209 136 168 264
8 267 179 98 171 375 275 178 265
8 375 275 178 265 328 238 147 226
8 376 273 176 266 267 179 98 171
8 268 177 96 172 376 273 176 266
8 379 272 175 269 268 177 96 172
8 380 271 174 270 269 175 94 173
8 283 197 113 186 380 271 174 270
8 381 277 180 271 272 181 100 175
8 297 211 124 197 381 277 180 271
8 382 278 181 272 274 183 102 177
8 274 183 102 177 383 279 182 273
8 383 279 182 273 276 185 104 179
8 385 281 184 275 342 249 157 238
8 276 185 104 179 385 281 184 275
8 285 199 115 188 393 297 197 283
8 394 298 200 286 284 198 116 189
8 285 199 298 394 188 115 198 284
8 291 205 120 193 396 300 200 286
8 397 301 201 287 288 202 117 190
8 295 209 264 374 397 301 201 287
8 398 302 202 288 289 203 118 191
8 399 303 203 289 293 206 121 195
8 291 205 304 400 193 120 204 290
8 400 304 207 292 290 204 122 194
8 294 208 123 196 402 307 207 292
8 403 306 206 293 294 208 123 196
8 296 210 263 373 405 309 209 295
8 408 312 213 299 297 211 126 199
8 299 213 313 409 199 126 212 298
8 409 313 214 300 298 212 127 200
8 305 216 129 205 411 315 214 300
8 412 318 217 301 302 219 132 202
8 309 223 136 209 412 318 217 301
8 413 320 219 302 303 220 133 203
8 306 221 321 414 206 134 220 303
8 307 218 131 207 415 316 215 304
8 305 216 316 415 205 129 215 304
8 417 322 221 306 308 222 135 208
8 308 222 135 208 418 319 218 307
8 310 225 137 210 420 325 223 309
8 423 326 224 311 310 225 137 210
8 329 236 165 260 441 338 259 368
8 442 342 238 328 333 240 149 230
8 331 237 146 228 443 340 236 329
8 334 241 150 231 444 339 235 330
8 444 339 235 330 331 237 146 228
8 446 343 239 332 336 242 151 233
8 333 240 149 230 446 343 239 332
8 335 243 152 232 448 345 241 334
8 337 244 153 234 449 347 243 335
8 337 244 346 450 234 153 242 336
8 338 245 164 259 452 349 258 367
8 340 247 155 236 453 350 245 338
8 345 252 160 241 454 351 246 339
8 454 351 246 339 341 248 156 237
8 341 248 156 237 455 352 247 340
8 240 159 251 344 342 249 354 457
8 242 161 253 346 343 250 355 458
8 343 250 355 458 240 159 251 344
8 347 254 162 243 460 357 252 345
8 348 255 358 461 244 163 253 346
8 348 255 163 244 462 359 254 347
8 473 360 257 365 363 256 364 482
8 452 349 258 367 365 257 366 485
8 422 324 369 488 311 224 261 371
8 371 261 370 490 263 167 262 372
8 407 311 371 491 296 210 263 373
8 373 263 372 492 295 209 264 374
8 493 385 275 375 442 342 238 328
8 377 276 179 267 493 385 275 375
8 378 274 177 268 494 383 273 376
8 494 383 273 376 377 276 179 267
8 497 382 272 379 378 274 177 268
8 498 381 271 380 379 272 175 269
8 393 297 197 283 498 381 271 380
8 499 387 277 381 382 278 181 272
8 408 312 211 297 499 387 277 381
8 500 388 278 382 384 280 183 274
8 501 389 279 383 386 282 185 276
8 384 280 183 274 501 389 279 383
8 386 282 185 276 503 391 281 385
8 503 391 281 385 457 354 249 342
8 511 408 299 395 393 297 199 285
8 395 299 409 512 285 199 298 394
8 512 409 300 396 394 298 200 286
8 401 305 205 291 514 411 300 396
8 515 412 301 397 398 302 202 288
8 405 309 209 295 515 412 301 397
8 516 413 302 398 399 303 203 289
8 403 306 414 517 293 206 303 399
8 402 307 207 292 518 415 304 400
8 401 305 415 518 291 205 304 400
8 404 308 208 294 520 418 307 402
8 521 417 306 403 404 308 208 294
8 406 310 210 296 523 420 309 405
8 526 423 311 407 406 310 210 296
8 410 314 213 299 527 424 312 408
8 528 425 315 411 409 313 214 300
8 410 314 425 528 299 213 313 409
8 416 317 216 305 530 427 315 411
8 531 430 318 412 413 320 219 302
8 420 325 223 309 531 430 318 412
8 532 432 320 413 414 321 220 303
8 417 322 433 533 306 221 321 414
8 418 319 218 307 534 428 316 415
8 416 317 428 534 305 216 316 415
8 419 323 434 536 308 222 322 417
8 419 323 222 308 537 431 319 418
8 421 327 225 310 539 438 325 420
8 421 327 439 541 310 225 326 423
8 543 437 324 422 423 326 224 311
8 441 338 259 368 559 452 367 486
8 443 340 236 329 560 453 338 441
8 333 240 344 447 442 342 457 561
8 445 341 237 331 562 455 340 443
8 448 345 241 334 563 454 339 444
8 563 454 339 444 445 341 237 331
8 336 242 346 450 446 343 458 565
8 446 343 458 565 333 240 344 447
8 449 347 243 335 567 460 345 448
8 451 348 244 337 568 462 347 449
8 451 348 461 569 337 244 346 450
8 570 463 349 452 473 360 257 365
8 453 350 245 338 570 463 349 452
8 455 352 247 340 571 464 350 453
8 460 357 252 345 572 465 351 454
8 572 465 351 454 456 353 248 341
8 456 353 248 341 573 466 352 455
8 344 251 356 459 457 354 468 575
8 458 355 469 576 344 251 356 459
8 346 253 358 461 458 355 469 576
8 462 359 254 347 578 471 357 460
8 348 255 359 462 461 358 472 579
8 591 474 360 473 475 361 256 363
8 475 361 256 363 594 477 362 479
8 363 256 364 482 479 362 480 603
8 590 473 365 484 481 363 482 605
8 482 364 257 365 606 483 366 485
8 559 452 367 486 484 365 485 607
8 542 436 487 609 422 324 369 488
8 525 422 488 611 407 311 371 491
8 488 369 489 612 371 261 370 490
8 491 371 490 613 373 263 372 492
8 495 386 276 377 614 503 385 493
8 614 503 385 493 561 457 342 442
8 615 501 383 494 495 386 276 377
8 496 384 274 378 615 501 383 494
8 618 500 382 497 496 384 274 378
8 619 499 381 498 497 382 272 379
8 511 408 297 393 619 499 381 498
8 620 505 387 499 500 388 278 382
8 527 424 312 408 620 505 387 499
8 502 390 506 621 384 280 388 500
8 622 507 389 501 504 392 282 386
8 502 390 280 384 622 507 389 501
8 504 392 282 386 624 509 391 503
8 624 509 391 503 575 468 354 457
8 513 410 299 395 630 527 408 511
8 631 528 411 514 512 409 300 396
8 513 410 528 631 395 299 409 512
8 519 416 305 401 633 530 411 514
8 634 531 412 515 516 413 302 398
8 523 420 309 405 634 531 412 515
8 635 532 413 516 517 414 303 399
8 521 417 533 636 403 306 414 517
8 520 418 307 402 637 534 415 518
8 519 416 534 637 401 305 415 518
8 522 419 308 404 639 537 418 520
8 522 419 536 640 404 308 417 521
8 524 421 310 406 642 539 420 523
8 524 421 541 644 406 310 423 526
8 646 543 422 525 526 423 311 407
8 529 426 314 410 647 544 424 527
8 528 425 545 648 411 315 427 530
8 529 426 545 648 410 314 425 528
8 535 429 317 416 649 546 427 530
8 650 548 430 531 532 432 320 413
8 539 438 325 420 650 548 430 531
8 533 433 550 651 414 321 432 532
8 536 434 551 652 417 322 433 533
8 537 431 319 418 653 547 428 534
8 535 429 547 653 416 317 428 534
8 538 435 552 654 419 323 434 536
8 538 435 323 419 655 549 431 537
8 540 440 327 421 657 556 438 539
8 540 440 557 659 421 327 439 541
8 541 439 555 660 423 326 437 543
8 661 554 436 542 543 437 324 422
8 676 570 452 559 590 473 365 484
8 560 453 338 441 676 570 452 559
8 562 455 340 443 677 571 453 560
8 447 344 459 566 561 457 575 678
8 564 456 341 445 679 573 455 562
8 567 460 345 448 680 572 454 563
8 680 572 454 563 564 456 341 445
8 565 458 576 682 447 344 459 566
8 450 346 461 569 565 458 576 682
8 568 462 347 449 684 578 460 567
8 451 348 462 568 569 461 579 685
8 686 580 463 570 591 474 360 473
8 571 464 350 453 686 580 463 570
8 573 466 352 455 687 581 464 571
8 572 465 582 688 460 357 471 578
8 574 467 582 688 456 353 465 572
8 574 467 353 456 689 583 466 573
8 459 356 470 577 575 468 585 691
8 576 469 586 692 459 356 470 577
8 461 358 472 579 576 469 586 692
8 462 359 471 578 579 472 588 694
8 704 591 473 590 593 475 363 481
8 595 476 592 705 475 361 474 591
8 593 475 363 481 707 594 479 602
8 594 477 362 479 709 598 478 600
8 595 476 361 475 711 597 477 594
8 479 362 480 603 600 478 601 720
8 481 363 482 605 602 479 603 722
8 603 480 364 482 723 604 483 606
8 605 482 365 484 724 606 485 607
8 656 553 608 726 542 436 487 609
8 645 542 609 728 525 422 488 611
8 609 487 610 729 488 369 489 612
8 611 488 612 730 491 371 490 613
8 616 504 386 495 731 624 503 614
8 731 624 503 614 678 575 457 561
8 732 622 501 615 616 504 386 495
8 617 502 384 496 732 622 501 615
8 617 502 621 735 496 384 500 618
8 736 620 499 619 618 500 382 497
8 630 527 408 511 736 620 499 619
8 621 506 626 737 500 388 505 620
8 647 544 424 527 737 626 505 620
8 623 508 627 738 502 390 506 621
8 623 508 390 502 739 628 507 622
8 625 510 628 739 504 392 507 622
8 740 629 509 624 691 585 468 575
8 625 510 392 504 740 629 509 624
8 632 529 410 513 744 647 527 630
8 631 528 648 745 514 411 530 633
8 632 529 648 745 513 410 528 631
8 638 535 416 519 746 649 530 633
8 747 650 531 634 635 532 413 516
8 642 539 420 523 747 650 531 634
8 636 533 651 748 517 414 532 635
8 640 536 652 749 521 417 533 636
8 639 537 418 520 750 653 534 637
8 638 535 653 750 519 416 534 637
8 641 538 419 522 751 655 537 639
8 641 538 654 752 522 419 536 640
8 643 540 421 524 753 657 539 642
8 643 540 659 755 524 421 541 644
8 644 541 660 757 526 423 543 646
8 758 661 542 645 646 543 422 525
8 529 426 544 647 648 545 662 759
8 530 427 545 648 649 546 663 760
8 535 429 546 649 653 547 664 761
8 762 666 548 650 651 550 432 532
8 657 556 438 539 762 666 548 650
8 652 551 668 763 533 433 550 651
8 654 552 669 764 536 434 551 652
8 655 549 431 537 765 665 547 653
8 538 435 549 655 654 552 667 766
8 661 554 671 768 542 436 553 656
8 658 558 440 540 769 674 556 657
8 658 558 675 770 540 440 557 659
8 659 557 673 771 541 439 555 660
8 660 555 672 772 543 437 554 661
8 788 686 570 676 704 591 473 590
8 677 571 453 560 788 686 570 676
8 679 573 455 562 789 687 571 677
8 566 459 577 683 678 575 691 790
8 681 574 456 564 791 689 573 679
8 680 572 688 792 567 460 578 684
8 681 574 688 792 564 456 572 680
8 682 576 692 794 566 459 577 683
8 569 461 579 685 682 576 692 794
8 568 462 578 684 685 579 694 796
8 687 581 464 571 798 696 580 686
8 798 696 580 686 705 592 474 591
8 689 583 466 573 799 697 581 687
8 688 582 698 800 578 471 588 694
8 690 584 698 800 574 467 582 688
8 690 584 467 574 801 699 583 689
8 693 587 701 803 577 470 585 691
8 693 587 470 577 804 702 586 692
8 695 589 702 804 579 472 586 692
8 695 589 472 579 805 703 588 694
8 708 595 705 813 593 475 591 704
8 710 596 706 814 595 476 592 705
8 707 594 479 602 816 709 600 719
8 708 595 475 593 817 711 594 707
8 709 598 478 600 819 715 599 717
8 711 597 477 594 820 714 598 709
8 710 596 476 595 822 713 597 711
8 600 478 601 720 717 599 718 832
8 602 479 603 722 719 600 720 834
8 720 601 480 603 835 721 604 723
8 722 603 482 605 836 723 606 724
8 767 670 725 839 656 553 608 726
8 756 656 726 841 645 542 609 728
8 726 608 727 842 609 487 610 729
8 728 609 729 843 611 488 612 730
8 844 740 624 731 790 691 575 678
8 733 625 504 616 844 740 624 731
8 734 623 502 617 845 739 622 732
8 733 625 739 845 616 504 622 732
8 734 623 738 846 617 502 621 735
8 735 621 737 847 618 500 620 736
8 744 647 527 630 847 737 620 736
8 621 506 627 738 737 626 741 848
8 647 544 626 737 759 662 741 848
8 623 508 628 739 738 627 742 849
8 740 629 585 691 850 743 700 802
8 625 510 629 740 739 628 743 850
8 632 529 647 744 745 648 759 854
8 633 530 648 745 746 649 760 855
8 638 535 649 746 750 653 761 856
8 857 762 650 747 748 651 532 635
8 753 657 539 642 857 762 650 747
8 749 652 763 858 636 533 651 748
8 752 654 764 859 640 536 652 749
8 751 655 537 639 860 765 653 750
8 641 538 655 751 752 654 766 861
8 754 658 540 643 862 769 657 753
8 754 658 770 863 643 540 659 755
8 755 659 771 864 644 541 660 757
8 758 661 768 866 645 542 656 756
8 757 660 772 867 646 543 661 758
8 759 662 773 868 648 545 663 760
8 649 546 663 760 761 664 774 871
8 765 665 547 653 872 775 664 761
8 873 777 666 762 763 668 550 651
8 769 674 556 657 873 777 666 762
8 764 669 779 874 652 551 668 763
8 654 552 667 766 764 669 778 875
8 655 549 665 765 766 667 776 876
8 768 671 782 877 656 553 670 767
8 772 672 783 878 661 554 671 768
8 658 558 674 769 770 675 786 879
8 659 557 675 770 771 673 785 881
8 882 784 672 772 771 673 555 660
8 789 687 571 677 897 798 686 788
8 897 798 686 788 813 705 591 704
8 791 689 573 679 898 799 687 789
8 795 693 803 900 683 577 691 790
8 793 690 574 681 901 801 689 791
8 792 688 800 902 684 578 694 796
8 793 690 800 902 681 574 688 792
8 795 693 577 683 903 804 692 794
8 797 695 804 903 685 579 692 794
8 797 695 579 685 904 805 694 796
8 905 806 697 799 798 696 581 687
8 814 706 806 905 705 592 696 798
8 689 583 697 799 801 699 808 907
8 800 698 809 908 694 588 703 805
8 690 584 699 801 800 698 809 908
8 803 701 810 909 691 585 700 802
8 693 587 702 804 803 701 811 910
8 695 589 703 805 804 702 812 911
8 818 710 814 919 708 595 705 813
8 821 712 815 920 710 596 706 814
8 816 709 600 719 922 819 717 831
8 817 711 594 707 923 820 709 816
8 818 710 595 708 924 822 711 817
8 819 715 599 717 926 827 716 829
8 820 714 598 709 927 826 715 819
8 929 825 713 822 820 714 597 711
8 821 712 596 710 930 824 713 822
8 717 599 718 832 829 716 830 942
8 719 600 720 834 831 717 832 944
8 832 718 601 720 945 833 721 835
8 834 720 603 722 946 835 723 836
8 869 780 838 950 767 670 725 839
8 865 767 839 952 756 656 726 841
8 839 725 840 953 726 608 727 842
8 841 726 842 954 728 609 729 843
8 844 740 691 790 955 850 802 899
8 733 625 740 844 845 739 850 955
8 734 623 739 845 846 738 849 956
8 735 621 738 846 847 737 848 957
8 744 647 737 847 854 759 848 957
8 738 627 742 849 848 741 851 958
8 848 741 851 958 759 662 773 868
8 850 743 700 802 959 852 807 906
8 849 742 628 739 959 852 743 850
8 854 759 868 965 745 648 760 855
8 746 649 760 855 856 761 871 966
8 860 765 653 750 967 872 761 856
8 968 873 762 857 858 763 651 748
8 862 769 657 753 968 873 762 857
8 859 764 874 969 749 652 763 858
8 752 654 766 861 859 764 875 970
8 751 655 765 860 861 766 876 971
8 754 658 769 862 863 770 879 972
8 755 659 770 863 864 771 881 974
8 976 882 772 867 864 771 660 757
8 866 768 877 977 756 656 767 865
8 867 772 878 978 758 661 768 866
8 760 663 773 868 871 774 883 980
8 870 781 837 948 982 890 780 869
8 982 890 780 869 877 782 670 767
8 761 664 774 871 872 775 884 984
8 876 776 665 765 985 885 775 872
8 873 777 668 763 986 887 779 874
8 769 674 777 873 879 786 887 986
8 764 669 778 875 874 779 888 987
8 766 667 776 876 875 778 886 988
8 878 783 892 989 768 671 782 877
8 878 783 672 772 990 893 784 882
8 880 787 675 770 991 896 786 879
8 880 787 895 992 770 675 785 881
8 881 785 894 993 771 673 784 882
8 1006 905 799 898 897 798 687 789
8 919 814 905 1006 813 705 798 897
8 791 689 799 898 901 801 907 1007
8 900 803 909 1009 790 691 802 899
8 795 693 804 903 900 803 910 1010
8 902 800 908 1011 796 694 805 904
8 793 690 801 901 902 800 908 1011
8 797 695 805 904 903 804 911 1012
8 799 697 806 905 907 808 912 1013
8 920 815 912 1013 814 706 806 905
8 802 700 810 909 906 807 913 1014
8 801 699 808 907 908 809 914 1015
8 805 703 809 908 911 812 915 1016
8 803 701 811 910 909 810 916 1017
8 911 812 917 1018 804 702 811 910
8 925 821 920 1030 818 710 814 919
8 928 823 921 1031 821 712 815 920
8 922 819 717 831 1033 926 829 941
8 923 820 709 816 1034 927 819 922
8 1035 929 822 924 923 820 711 817
8 925 821 710 818 1036 930 822 924
8 1038 933 825 929 927 826 714 820
8 926 827 716 829 1039 935 828 939
8 927 826 715 819 1040 934 827 926
8 928 823 712 821 1041 931 824 930
8 1042 932 824 930 929 825 713 822
8 829 716 830 942 939 828 940 1058
8 831 717 832 944 941 829 942 1060
8 942 830 718 832 1061 943 833 945
8 944 832 720 834 1062 945 835 946
8 981 889 947 1064 870 781 837 948
8 948 837 949 1067 869 780 838 950
8 975 869 950 1069 865 767 839 952
8 950 838 951 1070 839 725 840 953
8 952 839 953 1071 841 726 842 954
8 955 850 802 899 1072 959 906 1008
8 956 849 739 845 1072 959 850 955
8 846 738 849 956 957 848 958 1073
8 957 848 958 1073 854 759 868 965
8 849 742 852 959 958 851 961 1076
8 960 853 961 1076 906 807 852 959
8 958 851 961 1076 868 773 883 980
8 960 853 807 906 1077 963 913 1014
8 855 760 868 965 966 871 980 1085
8 856 761 871 966 967 872 984 1086
8 971 876 765 860 1087 985 872 967
8 968 873 763 858 1088 986 874 969
8 862 769 873 968 972 879 986 1088
8 859 764 875 970 969 874 987 1089
8 861 766 876 971 970 875 988 1090
8 973 880 770 863 1091 991 879 972
8 973 880 992 1092 863 770 881 974
8 974 881 993 1093 864 771 882 976
8 979 870 948 1066 1094 982 869 975
8 1094 982 869 975 977 877 767 865
8 978 878 772 867 1095 990 882 976
8 978 878 989 1096 866 768 877 977
8 871 774 883 980 984 884 994 1099
8 983 891 999 1100 870 781 889 981
8 1101 1000 890 982 989 892 782 877
8 983 891 781 870 1101 1000 890 982
8 872 775 884 984 985 885 995 1103
8 876 776 885 985 988 886 996 1104
8 986 887 779 874 1105 998 888 987
8 879 786 887 986 991 896 998 1105
8 875 778 886 988 987 888 997 1106
8 990 893 1002 1107 878 783 892 989
8 1108 1003 893 990 993 894 784 882
8 880 787 896 991 992 895 1005 1109
8 993 894 785 881 1110 1004 895 992
8 898 799 905 1006 1007 907 1013 1120
8 1030 920 1013 1120 919 814 905 1006
8 901 801 907 1007 1011 908 1015 1121
8 899 802 909 1009 1008 906 1014 1122
8 900 803 910 1010 1009 909 1017 1123
8 1012 911 1018 1124 903 804 910 1010
8 904 805 908 1011 1012 911 1016 1125
8 1013 912 1020 1127 907 808 914 1015
8 1031 921 1020 1127 920 815 912 1013
8 1019 918 962 1075 1128 1021 913 1014
8 1128 1021 913 1014 1017 916 810 909
8 1015 914 1022 1129 908 809 915 1016
8 1016 915 1023 1130 911 812 917 1018
8 1018 917 1024 1131 910 811 916 1017
8 1037 928 1031 1148 925 821 920 1030
8 928 823 931 1041 1031 921 1032 1149
8 1033 926 829 941 1151 1039 939 1057
8 1034 927 819 922 1152 1040 926 1033
8 1153 1038 929 1035 1034 927 820 923
8 1154 1042 930 1036 1035 929 822 924
8 1037 928 821 925 1155 1041 930 1036
8 1039 935 828 939 1156 1047 938 1055
8 1157 1043 932 1042 1038 933 825 929
8 1038 933 826 927 1158 1045 934 1040
8 1040 934 827 926 1159 1046 935 1039
8 930 824 932 1042 1041 931 1044 1160
8 1051 936 1048 1165 1175 1052 937 1053
8 1156 1047 938 1055 1053 937 1054 1178
8 939 828 940 1058 1055 938 1056 1181
8 941 829 942 1060 1057 939 1058 1183
8 942 830 943 1061 1058 940 1059 1184
8 1060 942 832 944 1185 1061 945 1062
8 1082 964 1063 1188 981 889 947 1064
8 1097 981 1064 1190 979 870 948 1066
8 1064 947 1065 1191 948 837 949 1067
8 1066 948 1067 1193 975 869 950 1069
8 1067 949 1068 1194 950 838 951 1070
8 1069 950 1070 1195 952 839 953 1071
8 956 849 959 1072 1073 958 1076 1197
8 1074 960 1076 1197 1008 906 959 1072
8 1073 958 1076 1197 965 868 980 1085
8 1074 960 906 1008 1198 1077 1014 1122
8 1133 1026 1079 1199 1019 918 962 1075
8 1077 963 913 1014 1200 1080 962 1075
8 960 853 963 1077 1076 961 1078 1201
8 980 883 961 1076 1099 994 1078 1201
8 1210 1083 964 1082 1100 999 889 981
8 966 871 980 1085 1086 984 1099 1215
8 967 872 984 1086 1087 985 1103 1216
8 971 876 985 1087 1090 988 1104 1217
8 1088 986 874 969 1218 1105 987 1089
8 972 879 986 1088 1091 991 1105 1218
8 970 875 988 1090 1089 987 1106 1219
8 973 880 991 1091 1092 992 1109 1220
8 1093 993 881 974 1221 1110 992 1092
8 1222 1108 990 1095 1093 993 882 976
8 1223 1101 982 1094 1096 989 877 977
8 1098 983 870 979 1223 1101 982 1094
8 1095 990 1107 1224 978 878 989 1096
8 1098 983 1100 1225 979 870 981 1097
8 984 884 994 1099 1103 995 1111 1227
8 1102 1001 1115 1228 983 891 999 1100
8 1101 1000 892 989 1229 1116 1002 1107
8 1102 1001 891 983 1229 1116 1000 1101
8 985 885 995 1103 1104 996 1112 1230
8 988 886 996 1104 1106 997 1113 1231
8 1105 998 888 987 1232 1114 997 1106
8 991 896 998 1105 1109 1005 1114 1232
8 1108 1003 1117 1233 990 893 1002 1107
8 1108 1003 894 993 1233 1117 1004 1110
8 992 895 1005 1109 1110 1004 1118 1234
8 1120 1013 1127 1244 1007 907 1015 1121
8 1148 1031 1127 1244 1030 920 1013 1120
8 1121 1015 1129 1245 1011 908 1016 1125
8 1126 1019 1075 1196 1246 1128 1014 1122
8 1246 1128 1014 1122 1123 1017 909 1009
8 1124 1018 1131 1247 1010 910 1017 1123
8 1125 1016 1130 1248 1012 911 1018 1124
8 1127 1020 1137 1254 1015 914 1022 1129
8 1031 921 1032 1149 1127 1020 1137 1254
8 1134 1027 918 1019 1257 1140 1021 1128
8 1257 1140 1021 1128 1131 1024 916 1017
8 1129 1022 1141 1258 1016 915 1023 1130
8 1130 1023 1142 1259 1018 917 1024 1131
8 1261 1144 1025 1132 1133 1026 1079 1199
8 1255 1138 1025 1132 1135 1028 1144 1261
8 1133 1026 918 1019 1262 1145 1027 1134
8 1136 1029 1139 1256 1263 1146 1028 1135
8 1037 928 1041 1155 1148 1031 1149 1275
8 1041 931 1044 1160 1149 1032 1150 1276
8 1151 1039 939 1057 1278 1156 1055 1180
8 1152 1040 926 1033 1279 1159 1039 1151
8 1153 1038 927 1034 1280 1158 1040 1152
8 1281 1157 1042 1154 1153 1038 929 1035
8 1036 930 1042 1154 1155 1041 1160 1282
8 1283 1164 1046 1159 1156 1047 935 1039
8 1165 1048 1164 1283 1053 937 1047 1156
8 1157 1043 933 1038 1284 1161 1045 1158
8 1157 1043 1161 1284 1042 932 1044 1160
8 1040 934 1046 1159 1158 1045 1163 1285
8 1166 1049 1167 1292 1051 936 1048 1165
8 1166 1049 936 1051 1293 1168 1050 1172
8 1051 936 1052 1175 1172 1050 1173 1306
8 1174 1051 1165 1290 1308 1175 1053 1177
8 1053 937 1054 1178 1175 1052 1176 1309
8 1278 1156 1055 1180 1177 1053 1178 1311
8 1055 938 1056 1181 1178 1054 1179 1312
8 1057 939 1058 1183 1180 1055 1181 1314
8 1058 940 1059 1184 1181 1056 1182 1315
8 1060 942 1061 1185 1183 1058 1184 1316
8 1208 1081 1187 1321 1082 964 1063 1188
8 1209 1082 1188 1322 1097 981 1064 1190
8 1188 1063 1189 1323 1064 947 1065 1191
8 1190 1064 1191 1325 1066 948 1067 1193
8 1191 1065 1192 1326 1067 949 1068 1194
8 1067 1193 1069 950 1194 1327 1195 1070
8 1250 1133 1199 1330 1126 1019 1075 1196
8 1198 1077 1014 1122 1331 1200 1075 1196
8 1074 960 1077 1198 1197 1076 1201 1332
8 1085 980 1076 1197 1215 1099 1201 1332
8 1199 1079 1203 1333 1075 962 1080 1200
8 1132 1025 1119 1243 1199 1079 1203 1333
8 1201 1078 963 1077 1334 1202 1080 1200
8 1099 994 1078 1201 1227 1111 1202 1334
8 1343 1207 1081 1208 1210 1083 964 1082
8 1214 1084 1186 1319 1343 1207 1081 1208
8 1345 1210 1082 1209 1225 1100 981 1097
8 1346 1211 1083 1210 1228 1115 999 1100
8 1086 984 1099 1215 1216 1103 1227 1352
8 1087 985 1103 1216 1217 1104 1230 1353
8 1090 988 1104 1217 1219 1106 1231 1354
8 1218 1105 987 1089 1355 1232 1106 1219
8 1091 991 1105 1218 1220 1109 1232 1355
8 1092 992 1109 1220 1221 1110 1234 1356
8 1222 1108 1233 1357 1095 990 1107 1224
8 1222 1108 993 1093 1357 1233 1110 1221
8 1223 1101 989 1096 1358 1229 1107 1224
8 1226 1102 983 1098 1358 1229 1101 1223
8 1226 1102 1228 1359 1098 983 1100 1225
8 1103 995 1111 1227 1230 1112 1235 1360
8 1107 1002 1117 1233 1229 1116 1240 1362
8 1102 1001 1116 1229 1228 1115 1240 1362
8 1104 996 1112 1230 1231 1113 1236 1363
8 1364 1237 1114 1232 1231 1113 997 1106
8 1109 1005 1114 1232 1234 1118 1238 1365
8 1110 1004 1118 1234 1233 1117 1241 1366
8 1242 1374 1255 1138 1119 1243 1132 1025
8 1244 1127 1254 1376 1121 1015 1129 1245
8 1148 1031 1149 1275 1244 1127 1254 1376
8 1245 1129 1258 1377 1125 1016 1130 1248
8 1251 1134 1019 1126 1378 1257 1128 1246
8 1378 1257 1128 1246 1247 1131 1017 1123
8 1248 1130 1259 1379 1124 1018 1131 1247
8 1261 1381 1250 1133 1132 1249 1330 1199
8 1255 1380 1252 1135 1132 1249 1381 1261
8 1250 1133 1019 1126 1382 1262 1134 1251
8 1253 1136 1256 1385 1384 1263 1135 1252
8 1254 1137 1265 1387 1129 1022 1141 1258
8 1149 1032 1150 1276 1254 1137 1265 1387
8 1028 1135 1255 1138 1139 1256 1388 1266
8 1136 1029 1147 1264 1256 1139 1267 1389
8 1390 1268 1140 1257 1259 1142 1024 1131
8 1260 1143 1027 1134 1390 1268 1140 1257
8 1258 1141 1269 1391 1130 1023 1142 1259
8 1262 1145 1027 1134 1393 1271 1143 1260
8 1261 1144 1026 1133 1394 1272 1145 1262
8 1135 1028 1144 1261 1263 1146 1272 1394
8 1136 1029 1146 1263 1264 1147 1273 1395
8 1155 1041 1160 1282 1275 1149 1276 1405
8 1276 1150 1044 1160 1406 1277 1162 1286
8 1408 1283 1159 1279 1278 1156 1039 1151
8 1290 1165 1283 1408 1177 1053 1156 1278
8 1152 1040 1159 1279 1280 1158 1285 1409
8 1281 1157 1038 1153 1410 1284 1158 1280
8 1281 1157 1284 1410 1154 1042 1160 1282
8 1159 1046 1164 1283 1285 1163 1289 1412
8 1292 1167 1289 1412 1165 1048 1164 1283
8 1158 1045 1163 1285 1284 1161 1288 1413
8 1284 1161 1288 1413 1160 1044 1162 1286
8 1291 1166 1292 1418 1174 1051 1165 1290
8 1291 1166 1051 1174 1419 1293 1172 1305
8 1294 1169 1296 1421 1166 1049 1167 1292
8 1293 1168 1050 1172 1422 1295 1171 1303
8 1294 1169 1049 1166 1423 1297 1168 1293
8 1422 1295 1171 1303 1301 1170 1302 1435
8 1172 1050 1173 1306 1303 1171 1304 1438
8 1174 1051 1175 1308 1305 1172 1306 1440
8 1175 1052 1176 1309 1306 1173 1307 1441
8 1177 1053 1178 1311 1308 1175 1309 1443
8 1178 1054 1179 1312 1309 1176 1310 1444
8 1180 1055 1181 1314 1311 1178 1312 1446
8 1056 1181 1312 1179 1182 1315 1447 1313
8 1183 1058 1184 1316 1314 1181 1315 1448
8 1319 1186 1084 1214 1451 1317 1213 1350
8 1319 1186 1318 1453 1208 1081 1187 1321
8 1321 1187 1320 1456 1188 1063 1189 1323
8 1344 1208 1321 1457 1209 1082 1188 1322
8 1322 1188 1323 1458 1190 1064 1191 1325
8 1323 1189 1324 1459 1191 1065 1192 1326
8 1191 1325 1193 1067 1326 1460 1327 1194
8 1242 1374 1243 1119 1328 1462 1335 1204
8 1330 1199 1333 1465 1196 1075 1200 1331
8 1132 1249 1330 1199 1243 1375 1465 1333
8 1332 1201 1077 1198 1466 1334 1200 1331
8 1215 1099 1201 1332 1352 1227 1334 1466
8 1119 1243 1333 1203 1204 1335 1470 1338
8 1333 1203 1338 1470 1200 1080 1202 1334
8 1227 1111 1202 1334 1360 1235 1338 1470
8 1328 1462 1335 1204 1205 1336 1471 1339
8 1337 1206 1340 1472 1464 1329 1205 1336
8 1346 1211 1342 1479 1210 1083 1207 1343
8 1346 1211 1115 1228 1479 1342 1239 1361
8 1348 1212 1084 1214 1479 1342 1207 1343
8 1480 1343 1208 1344 1345 1210 1082 1209
8 1351 1214 1319 1454 1480 1343 1208 1344
8 1481 1346 1210 1345 1359 1228 1100 1225
8 1348 1212 1347 1483 1214 1084 1213 1350
8 1216 1103 1227 1352 1353 1230 1360 1488
8 1217 1104 1230 1353 1354 1231 1363 1489
8 1490 1364 1232 1355 1354 1231 1106 1219
8 1220 1109 1232 1355 1356 1234 1365 1491
8 1221 1110 1234 1356 1357 1233 1366 1492
8 1224 1107 1233 1357 1358 1229 1362 1493
8 1226 1102 1229 1358 1359 1228 1362 1493
8 1230 1112 1235 1360 1363 1236 1367 1496
8 1361 1239 1115 1228 1497 1371 1240 1362
8 1366 1241 1372 1498 1233 1117 1240 1362
8 1364 1237 1113 1231 1499 1368 1236 1363
8 1364 1237 1368 1499 1232 1114 1238 1365
8 1234 1118 1238 1365 1366 1241 1369 1500
8 1507 1373 1242 1374 1388 1266 1138 1255
8 1508 1374 1243 1375 1380 1255 1132 1249
8 1376 1254 1387 1509 1245 1129 1258 1377
8 1275 1149 1276 1405 1376 1254 1387 1509
8 1377 1258 1391 1510 1248 1130 1259 1379
8 1511 1390 1257 1378 1379 1259 1131 1247
8 1383 1260 1134 1251 1511 1390 1257 1378
8 1252 1135 1256 1385 1380 1255 1388 1512
8 1261 1381 1513 1394 1133 1250 1382 1262
8 1135 1252 1384 1263 1261 1381 1513 1394
8 1382 1262 1134 1251 1514 1393 1260 1383
8 1253 1136 1263 1384 1386 1264 1395 1516
8 1253 1136 1264 1386 1385 1256 1389 1517
8 1387 1265 1397 1519 1258 1141 1269 1391
8 1276 1150 1277 1406 1387 1265 1397 1519
8 1256 1139 1267 1389 1388 1266 1398 1520
8 1264 1147 1274 1396 1389 1267 1399 1521
8 1392 1270 1143 1260 1522 1400 1268 1390
8 1390 1268 1142 1259 1522 1400 1269 1391
8 1392 1270 1401 1523 1260 1143 1271 1393
8 1272 1394 1524 1402 1145 1262 1393 1271
8 1395 1273 1146 1263 1524 1402 1272 1394
8 1273 1395 1264 1147 1403 1526 1396 1274
8 1405 1276 1160 1282 1534 1406 1286 1411
8 1414 1287 1407 1535 1286 1162 1277 1406
8 1279 1159 1283 1408 1409 1285 1412 1537
8 1418 1292 1412 1537 1290 1165 1283 1408
8 1280 1158 1285 1409 1410 1284 1413 1538
8 1410 1284 1413 1538 1282 1160 1286 1411
8 1285 1163 1289 1412 1413 1288 1417 1540
8 1421 1296 1417 1540 1292 1167 1289 1412
8 1414 1287 1162 1286 1541 1416 1288 1413
8 1420 1294 1421 1545 1291 1166 1292 1418
8 1419 1293 1172 1305 1546 1422 1303 1437
8 1420 1294 1166 1291 1547 1423 1293 1419
8 1294 1169 1297 1423 1421 1296 1425 1548
8 1423 1297 1168 1293 1549 1424 1295 1422
8 1301 1170 1298 1427 1422 1295 1424 1549
8 1432 1300 1428 1554 1301 1170 1298 1427
8 1431 1299 1428 1554 1560 1430 1300 1432
8 1563 1433 1300 1432 1435 1302 1170 1301
8 1546 1422 1303 1437 1434 1301 1435 1565
8 1303 1171 1304 1438 1435 1302 1436 1566
8 1305 1172 1306 1440 1437 1303 1438 1568
8 1306 1173 1307 1441 1438 1304 1439 1569
8 1308 1175 1309 1443 1440 1306 1441 1571
8 1309 1176 1310 1444 1441 1307 1442 1572
8 1311 1178 1312 1446 1443 1309 1444 1574
8 1179 1312 1444 1310 1313 1447 1575 1445
8 1314 1181 1315 1448 1446 1312 1447 1576
8 1350 1213 1349 1486 1451 1317 1449 1579
8 1451 1317 1450 1581 1319 1186 1318 1453
8 1454 1319 1214 1351 1582 1451 1350 1487
8 1453 1318 1452 1584 1321 1187 1320 1456
8 1454 1319 1453 1585 1344 1208 1321 1457
8 1456 1320 1455 1586 1323 1189 1324 1459
8 1457 1321 1456 1587 1322 1188 1323 1458
8 1458 1323 1459 1588 1325 1191 1326 1460
8 1205 1336 1464 1329 1328 1462 1590 1461
8 1507 1373 1461 1590 1374 1242 1328 1462
8 1508 1374 1462 1591 1375 1243 1335 1467
8 1337 1206 1329 1464 1473 1341 1463 1594
8 1375 1243 1335 1467 1465 1333 1470 1596
8 1465 1333 1470 1596 1331 1200 1334 1466
8 1352 1227 1334 1466 1488 1360 1470 1596
8 1591 1462 1336 1468 1467 1335 1471 1597
8 1469 1337 1472 1598 1595 1464 1336 1468
8 1471 1339 1474 1600 1335 1204 1338 1470
8 1600 1474 1367 1496 1470 1338 1235 1360
8 1336 1205 1340 1472 1471 1339 1475 1601
8 1337 1206 1341 1473 1472 1340 1476 1602
8 1495 1370 1478 1609 1361 1239 1342 1479
8 1348 1212 1342 1479 1483 1347 1478 1609
8 1481 1346 1479 1610 1345 1210 1343 1480
8 1481 1346 1228 1359 1610 1479 1361 1494
8 1484 1348 1214 1351 1610 1479 1343 1480
8 1483 1347 1482 1612 1350 1213 1349 1486
8 1484 1348 1483 1613 1351 1214 1350 1487
8 1353 1230 1360 1488 1489 1363 1496 1616
8 1490 1364 1231 1354 1617 1499 1363 1489
8 1490 1364 1499 1617 1355 1232 1365 1491
8 1356 1234 1365 1491 1492 1366 1500 1619
8 1492 1366 1498 1620 1357 1233 1362 1493
8 1494 1361 1228 1359 1621 1497 1362 1493
8 1495 1370 1239 1361 1622 1504 1371 1497
8 1363 1236 1367 1496 1499 1368 1501 1623
8 1497 1371 1240 1362 1624 1505 1372 1498
8 1625 1503 1372 1498 1500 1369 1241 1366
8 1365 1238 1368 1499 1500 1369 1502 1626
8 1520 1398 1506 1633 1388 1266 1373 1507
8 1634 1507 1374 1508 1512 1388 1255 1380
8 1509 1387 1519 1635 1377 1258 1391 1510
8 1405 1276 1406 1534 1509 1387 1519 1635
8 1515 1392 1260 1383 1636 1522 1390 1511
8 1511 1390 1259 1379 1636 1522 1391 1510
8 1385 1256 1389 1517 1512 1388 1520 1637
8 1513 1394 1262 1382 1638 1524 1393 1514
8 1395 1516 1638 1524 1263 1384 1513 1394
8 1515 1392 1523 1639 1383 1260 1393 1514
8 1516 1395 1526 1640 1386 1264 1396 1518
8 1386 1264 1396 1518 1517 1389 1521 1641
8 1519 1397 1527 1643 1391 1269 1400 1522
8 1535 1407 1527 1643 1406 1277 1397 1519
8 1389 1267 1399 1521 1520 1398 1528 1644
8 1645 1529 1399 1521 1525 1404 1274 1396
8 1392 1270 1400 1522 1523 1401 1531 1646
8 1524 1402 1271 1393 1648 1532 1401 1523
8 1403 1526 1648 1532 1273 1395 1524 1402
8 1525 1404 1274 1396 1649 1533 1403 1526
8 1539 1414 1535 1657 1411 1286 1406 1534
8 1542 1415 1536 1658 1414 1287 1407 1535
8 1409 1285 1412 1537 1538 1413 1540 1660
8 1545 1421 1540 1660 1418 1292 1412 1537
8 1539 1414 1286 1411 1661 1541 1413 1538
8 1540 1417 1544 1663 1413 1288 1416 1541
8 1421 1296 1425 1548 1540 1417 1544 1663
8 1542 1415 1287 1414 1664 1543 1416 1541
8 1420 1294 1423 1547 1545 1421 1548 1666
8 1547 1423 1293 1419 1667 1549 1422 1546
8 1434 1301 1427 1553 1546 1422 1549 1667
8 1423 1297 1424 1549 1548 1425 1550 1668
8 1551 1426 1550 1668 1427 1298 1424 1549
8 1551 1426 1298 1427 1671 1552 1428 1554
8 1562 1432 1554 1674 1434 1301 1427 1553
8 1431 1299 1429 1558 1554 1428 1555 1675
8 1431 1299 1430 1560 1558 1429 1557 1680
8 1560 1430 1300 1432 1683 1559 1433 1563
8 1561 1431 1554 1674 1684 1560 1432 1562
8 1685 1563 1432 1562 1565 1435 1301 1434
8 1435 1302 1436 1566 1563 1433 1564 1686
8 1437 1303 1438 1568 1565 1435 1566 1688
8 1438 1304 1439 1569 1566 1436 1567 1689
8 1440 1306 1441 1571 1568 1438 1569 1691
8 1441 1307 1442 1572 1569 1439 1570 1692
8 1443 1309 1444 1574 1571 1441 1572 1694
8 1310 1444 1572 1442 1445 1575 1695 1573
8 1446 1312 1447 1576 1574 1444 1575 1696
8 1486 1349 1485 1614 1579 1449 1577 1699
8 1451 1317 1449 1579 1581 1450 1578 1701
8 1487 1350 1486 1615 1582 1451 1579 1702
8 1581 1450 1580 1704 1453 1318 1452 1584
8 1582 1451 1581 1705 1454 1319 1453 1585
8 1584 1452 1583 1706 1456 1320 1455 1586
8 1585 1453 1584 1707 1457 1321 1456 1587
8 1587 1456 1586 1708 1458 1323 1459 1588
8 1633 1506 1589 1710 1507 1373 1461 1590
8 1464 1329 1461 1590 1594 1463 1589 1710
8 1468 1336 1462 1591 1595 1464 1590 1711
8 1634 1507 1590 1711 1508 1374 1462 1591
8 1473 1341 1463 1594 1603 1477 1593 1716
8 1469 1337 1464 1595 1599 1473 1594 1717
8 1471 1597 1467 1335 1600 1718 1596 1470
8 1718 1600 1496 1616 1596 1470 1360 1488
8 1336 1468 1597 1471 1472 1598 1719 1601
8 1469 1337 1473 1599 1598 1472 1602 1720
8 1722 1604 1501 1623 1600 1474 1367 1496
8 1475 1601 1471 1339 1604 1722 1600 1474
8 1602 1476 1605 1723 1472 1340 1475 1601
8 1476 1602 1724 1606 1341 1473 1603 1477
8 1483 1347 1478 1609 1612 1482 1608 1731
8 1495 1370 1504 1622 1609 1478 1608 1731
8 1618 1495 1609 1732 1494 1361 1479 1610
8 1484 1348 1479 1610 1613 1483 1609 1732
8 1486 1349 1482 1612 1614 1485 1611 1733
8 1613 1483 1612 1734 1487 1350 1486 1615
8 1489 1363 1496 1616 1617 1499 1623 1736
8 1491 1365 1499 1617 1619 1500 1626 1737
8 1618 1495 1361 1494 1738 1622 1497 1621
8 1739 1625 1498 1620 1619 1500 1366 1492
8 1621 1497 1362 1493 1740 1624 1498 1620
8 1742 1631 1504 1622 1624 1505 1371 1497
8 1743 1628 1502 1626 1623 1501 1368 1499
8 1744 1630 1505 1624 1625 1503 1372 1498
8 1745 1629 1503 1625 1626 1502 1369 1500
8 1520 1398 1528 1644 1633 1506 1632 1751
8 1637 1520 1633 1752 1512 1388 1507 1634
8 1635 1519 1643 1753 1510 1391 1522 1636
8 1657 1535 1643 1753 1534 1406 1519 1635
8 1515 1392 1522 1636 1639 1523 1646 1754
8 1517 1389 1521 1641 1637 1520 1644 1755
8 1524 1638 1756 1648 1393 1514 1639 1523
8 1640 1526 1395 1516 1756 1648 1524 1638
8 1642 1525 1396 1518 1757 1649 1526 1640
8 1758 1645 1521 1641 1642 1525 1396 1518
8 1646 1531 1400 1522 1760 1650 1527 1643
8 1535 1407 1536 1658 1643 1527 1650 1760
8 1521 1399 1529 1645 1644 1528 1651 1761
8 1647 1530 1652 1762 1525 1404 1529 1645
8 1401 1523 1648 1532 1531 1646 1763 1655
8 1525 1404 1533 1649 1647 1530 1654 1765
8 1533 1649 1766 1656 1403 1526 1648 1532
8 1662 1542 1658 1774 1539 1414 1535 1657
8 1542 1415 1543 1664 1658 1536 1659 1775
8 1660 1540 1663 1777 1538 1413 1541 1661
8 1545 1421 1548 1666 1660 1540 1663 1777
8 1662 1542 1414 1539 1778 1664 1541 1661
8 1664 1543 1416 1541 1779 1665 1544 1663
8 1548 1425 1550 1668 1663 1544 1665 1779
8 1547 1423 1549 1667 1666 1548 1668 1781
8 1670 1551 1668 1781 1553 1427 1549 1667
8 1551 1426 1552 1671 1668 1550 1669 1782
8 1670 1551 1427 1553 1784 1671 1554 1674
8 1675 1555 1672 1785 1554 1428 1552 1671
8 1678 1556 1673 1789 1558 1429 1555 1675
8 1561 1431 1558 1681 1674 1554 1675 1790
8 1794 1677 1556 1678 1680 1557 1429 1558
8 1560 1430 1559 1683 1680 1557 1679 1797
8 1561 1431 1560 1684 1681 1558 1680 1798
8 1563 1433 1564 1686 1683 1559 1682 1800
8 1684 1560 1432 1562 1801 1683 1563 1685
8 1565 1435 1566 1688 1685 1563 1686 1802
8 1566 1436 1567 1689 1686 1564 1687 1803
8 1568 1438 1569 1691 1688 1566 1689 1805
8 1569 1439 1570 1692 1689 1567 1690 1806
8 1571 1441 1572 1694 1691 1569 1692 1808
8 1442 1572 1692 1570 1573 1695 1809 1693
8 1574 1444 1575 1696 1694 1572 1695 1810
8 1614 1485 1592 1712 1699 1577 1697 1813
8 1579 1449 1577 1699 1701 1578 1698 1815
8 1615 1486 1614 1735 1702 1579 1699 1816
8 1701 1578 1700 1818 1581 1450 1580 1704
8 1582 1451 1579 1702 1705 1581 1701 1819
8 1704 1580 1703 1820 1584 1452 1583 1706
8 1705 1581 1704 1821 1585 1453 1584 1707
8 1707 1584 1706 1822 1587 1456 1586 1708
8 1710 1589 1506 1633 1824 1709 1632 1751
8 1594 1463 1589 1710 1716 1593 1709 1824
8 1752 1633 1710 1825 1634 1507 1590 1711
8 1595 1464 1590 1711 1717 1594 1710 1825
8 1830 1714 1592 1712 1733 1611 1485 1614
8 1603 1477 1593 1716 1725 1607 1715 1834
8 1599 1473 1594 1717 1721 1603 1716 1835
8 1837 1722 1623 1736 1718 1600 1496 1616
8 1719 1601 1722 1837 1597 1471 1600 1718
8 1602 1720 1598 1472 1723 1838 1719 1601
8 1720 1602 1473 1599 1839 1724 1603 1721
8 1723 1605 1726 1840 1601 1475 1604 1722
8 1840 1726 1628 1743 1722 1604 1501 1623
8 1724 1606 1727 1841 1602 1476 1605 1723
8 1725 1607 1728 1842 1603 1477 1606 1724
8 1612 1482 1608 1731 1733 1611 1730 1849
8 1741 1627 1730 1849 1622 1504 1608 1731
8 1613 1483 1609 1732 1734 1612 1731 1850
8 1618 1495 1622 1738 1732 1609 1731 1850
8 1615 1486 1612 1734 1735 1614 1733 1851
8 1852 1743 1626 1737 1736 1623 1499 1617
8 1853 1745 1625 1739 1737 1626 1500 1619
8 1855 1742 1622 1738 1740 1624 1497 1621
8 1856 1744 1624 1740 1739 1625 1498 1620
8 1741 1627 1504 1622 1857 1746 1631 1742
8 1742 1631 1505 1624 1858 1749 1630 1744
8 1859 1747 1629 1745 1743 1628 1502 1626
8 1860 1748 1630 1744 1745 1629 1503 1625
8 1644 1528 1651 1761 1751 1632 1750 1865
8 1637 1520 1644 1755 1752 1633 1751 1866
8 1754 1646 1522 1636 1867 1760 1643 1753
8 1657 1535 1658 1774 1753 1643 1760 1867
8 1639 1523 1646 1754 1756 1648 1763 1868
8 1641 1521 1645 1758 1755 1644 1761 1869
8 1757 1649 1526 1640 1870 1766 1648 1756
8 1642 1525 1649 1757 1759 1647 1765 1871
8 1759 1647 1762 1872 1642 1525 1645 1758
8 1760 1650 1767 1874 1646 1531 1655 1763
8 1658 1536 1659 1775 1760 1650 1767 1874
8 1762 1652 1768 1875 1645 1529 1651 1761
8 1764 1653 1769 1876 1647 1530 1652 1762
8 1656 1766 1877 1773 1532 1648 1763 1655
8 1771 1879 1765 1654 1653 1764 1647 1530
8 1533 1649 1765 1654 1656 1766 1880 1772
8 1662 1542 1664 1778 1774 1658 1775 1887
8 1664 1543 1665 1779 1775 1659 1776 1888
8 1778 1664 1541 1661 1890 1779 1663 1777
8 1666 1548 1668 1781 1777 1663 1779 1890
8 1782 1669 1780 1891 1668 1550 1665 1779
8 1670 1551 1671 1784 1781 1668 1782 1893
8 1671 1552 1672 1785 1782 1669 1783 1894
8 1790 1675 1785 1896 1674 1554 1671 1784
8 1675 1555 1673 1789 1785 1672 1786 1897
8 1792 1676 1788 1903 1678 1556 1673 1789
8 1795 1678 1789 1904 1681 1558 1675 1790
8 1792 1676 1556 1678 1906 1791 1677 1794
8 1680 1557 1679 1797 1794 1677 1793 1909
8 1910 1794 1678 1795 1798 1680 1558 1681
8 1683 1559 1682 1800 1797 1679 1796 1912
8 1684 1560 1683 1801 1798 1680 1797 1913
8 1686 1564 1687 1803 1800 1682 1799 1915
8 1685 1563 1686 1802 1801 1683 1800 1916
8 1688 1566 1689 1805 1802 1686 1803 1917
8 1689 1567 1690 1806 1803 1687 1804 1918
8 1691 1569 1692 1808 1805 1689 1806 1920
8 1692 1570 1693 1809 1806 1690 1807 1921
8 1694 1572 1695 1810 1808 1692 1809 1922
8 1829 1713 1811 1926 1712 1592 1697 1813
8 1813 1697 1812 1928 1699 1577 1698 1815
8 1735 1614 1712 1828 1816 1699 1813 1929
8 1815 1698 1814 1931 1701 1578 1700 1818
8 1702 1579 1699 1816 1819 1701 1815 1932
8 1818 1700 1817 1933 1704 1580 1703 1820
8 1819 1701 1818 1934 1705 1581 1704 1821
8 1821 1704 1820 1935 1707 1584 1706 1822
8 1824 1709 1632 1751 1937 1823 1750 1865
8 1716 1593 1709 1824 1834 1715 1823 1937
8 1825 1710 1633 1752 1938 1824 1751 1866
8 1717 1594 1710 1825 1835 1716 1824 1938
8 1945 1830 1712 1828 1851 1733 1614 1735
8 1830 1714 1831 1946 1712 1592 1713 1829
8 1947 1832 1714 1830 1849 1730 1611 1733
8 1843 1729 1607 1725 1950 1833 1715 1834
8 1721 1603 1716 1835 1836 1725 1834 1951
8 1836 1725 1842 1953 1721 1603 1724 1839
8 1723 1838 1719 1601 1840 1954 1837 1722
8 1954 1840 1743 1852 1837 1722 1623 1736
8 1724 1839 1720 1602 1841 1955 1838 1723
8 1841 1727 1844 1956 1723 1605 1726 1840
8 1956 1844 1747 1859 1840 1726 1628 1743
8 1728 1842 1724 1606 1845 1957 1841 1727
8 1725 1607 1729 1843 1842 1728 1846 1958
8 1741 1627 1746 1857 1849 1730 1848 1965
8 1734 1612 1731 1850 1851 1733 1849 1966
8 1854 1741 1849 1966 1738 1622 1731 1850
8 1967 1859 1745 1853 1852 1743 1626 1737
8 1968 1860 1744 1856 1853 1745 1625 1739
8 1854 1741 1622 1738 1969 1857 1742 1855
8 1855 1742 1624 1740 1970 1858 1744 1856
8 1857 1746 1631 1742 1971 1861 1749 1858
8 1858 1749 1630 1744 1972 1863 1748 1860
8 1859 1747 1862 1973 1745 1629 1748 1860
8 1875 1768 1864 1977 1761 1651 1750 1865
8 1755 1644 1761 1869 1866 1751 1865 1978
8 1867 1760 1874 1979 1754 1646 1763 1868
8 1774 1658 1775 1887 1867 1760 1874 1979
8 1870 1766 1648 1756 1980 1877 1763 1868
8 1872 1762 1875 1981 1758 1645 1761 1869
8 1757 1649 1766 1870 1871 1765 1880 1982
8 1983 1879 1764 1873 1871 1765 1647 1759
8 1873 1764 1876 1984 1759 1647 1762 1872
8 1877 1773 1655 1763 1986 1881 1767 1874
8 1775 1659 1776 1888 1874 1767 1881 1986
8 1876 1769 1882 1987 1762 1652 1768 1875
8 1878 1770 1883 1988 1764 1653 1769 1876
8 1880 1772 1656 1766 1989 1886 1773 1877
8 1878 1770 1653 1764 1990 1884 1771 1879
8 1765 1654 1772 1880 1879 1771 1885 1991
8 1778 1664 1779 1890 1887 1775 1888 1997
8 1998 1889 1776 1888 1891 1780 1665 1779
8 1893 1782 1891 2000 1781 1668 1779 1890
8 1894 1783 1892 2001 1782 1669 1780 1891
8 1784 1671 1785 1896 1893 1782 1894 2003
8 1897 1786 1895 2004 1785 1672 1783 1894
8 1790 1675 1789 1904 1896 1785 1897 2006
8 1901 1787 1898 2007 1789 1673 1786 1897
8 1903 1788 1900 2013 1789 1673 1787 1901
8 1792 1676 1791 1906 1903 1788 1902 2016
8 1907 1792 1903 2017 1795 1678 1789 1904
8 1906 1791 1677 1794 2019 1905 1793 1909
8 1907 1792 1678 1795 2020 1906 1794 1910
8 1797 1679 1796 1912 1909 1793 1908 2022
8 1798 1680 1797 1913 1910 1794 1909 2023
8 1800 1682 1799 1915 1912 1796 1911 2025
8 1801 1683 1800 1916 1913 1797 1912 2026
8 1803 1687 1804 1918 1915 1799 1914 2028
8 1802 1686 1803 1917 1916 1800 1915 2029
8 1805 1689 1806 1920 1917 1803 1918 2030
8 1806 1690 1807 1921 1918 1804 1919 2031
8 1808 1692 1809 1922 1920 1806 1921 2032
8 1939 1826 1924 2037 1829 1713 1811 1926
8 1926 1811 1925 2039 1813 1697 1812 1928
8 1944 1829 1926 2040 1828 1712 1813 1929
8 1928 1812 1927 2042 1815 1698 1814 1931
8 1929 1813 1928 2043 1816 1699 1815 1932
8 1931 1814 1930 2044 1818 1700 1817 1933
8 1932 1815 1931 2045 1819 1701 1818 1934
8 1934 1818 1933 2046 1821 1704 1820 1935
8 2048 1936 1823 1937 1977 1864 1750 1865
8 1950 1833 1715 1834 2048 1936 1823 1937
8 1938 1824 1751 1866 2049 1937 1865 1978
8 1835 1716 1824 1938 1951 1834 1937 2049
8 1939 1826 1713 1829 2053 1942 1831 1946
8 1940 1827 1923 2035 2053 1942 1826 1939
8 1945 1830 1946 2058 1828 1712 1829 1944
8 2059 1947 1830 1945 1966 1849 1733 1851
8 1947 1832 1730 1849 2060 1948 1848 1965
8 1947 1832 1948 2060 1830 1714 1831 1946
8 1959 1847 1729 1843 2063 1949 1833 1950
8 1952 1843 1725 1836 2064 1950 1834 1951
8 1836 1725 1843 1952 1953 1842 1958 2066
8 1953 1842 1957 2067 1839 1724 1841 1955
8 1841 1955 1838 1723 1956 2068 1954 1840
8 2068 1956 1859 1967 1954 1840 1743 1852
8 1956 1844 1960 2069 1859 1747 1862 1973
8 1845 1957 1841 1727 1960 2069 1956 1844
8 1728 1842 1957 1845 1846 1958 2071 1961
8 1962 2072 1959 1847 1846 1958 1843 1729
8 1971 1861 1964 2077 1857 1746 1848 1965
8 1854 1741 1857 1969 1966 1849 1965 2078
8 1967 1859 1973 2079 1853 1745 1860 1968
8 1970 1858 1744 1856 2080 1972 1860 1968
8 1969 1857 1742 1855 2081 1971 1858 1970
8 1971 1861 1749 1858 2082 1974 1863 1972
8 1973 1862 1975 2083 1860 1748 1863 1972
8 1987 1882 1976 2086 1875 1768 1864 1977
8 1981 1875 1977 2087 1869 1761 1865 1978
8 1980 1877 1763 1868 2088 1986 1874 1979
8 1887 1775 1888 1997 1979 1874 1986 2088
8 1880 1982 2089 1989 1766 1870 1980 1877
8 1984 1876 1987 2090 1872 1762 1875 1981
8 1765 1871 1983 1879 1880 1982 2091 1991
8 1985 1878 1764 1873 2092 1990 1879 1983
8 1985 1878 1988 2093 1873 1764 1876 1984
8 2094 1992 1881 1986 1998 1889 1776 1888
8 1986 1881 1992 2094 1877 1773 1886 1989
8 1988 1883 1993 2095 1876 1769 1882 1987
8 1878 1770 1884 1990 1988 1883 1994 2096
8 1991 1885 1772 1880 2097 1996 1886 1989
8 1879 1771 1885 1991 1990 1884 1995 2098
8 2103 1998 1888 1997 2000 1891 1779 1890
8 2104 1999 1889 1998 2001 1892 1780 1891
8 2003 1894 2001 2106 1893 1782 1891 2000
8 2004 1895 2002 2107 1894 1783 1892 2001
8 2006 1897 2004 2109 1896 1785 1894 2003
8 2007 1898 2005 2110 1897 1786 1895 2004
8 2014 1901 2007 2112 1904 1789 1897 2006
8 2011 1899 2008 2113 1901 1787 1898 2007
8 2119 2010 1899 2011 2013 1900 1787 1901
8 2016 1902 2012 2122 1903 1788 1900 2013
8 2017 1903 2013 2123 1904 1789 1901 2014
8 1906 1791 1905 2019 2016 1902 2015 2125
8 1907 1792 1906 2020 2017 1903 2016 2126
8 1909 1793 1908 2022 2019 1905 2018 2128
8 2020 1906 1794 1910 2129 2019 1909 2023
8 1912 1796 1911 2025 2022 1908 2021 2131
8 1913 1797 1912 2026 2023 1909 2022 2132
8 1915 1799 1914 2028 2025 1911 2024 2134
8 1916 1800 1915 2029 2026 1912 2025 2135
8 1918 1804 1919 2031 2028 1914 2027 2136
8 1917 1803 1918 2030 2029 1915 2028 2137
8 1920 1806 1921 2032 2030 1918 2031 2138
8 1940 1827 1941 2054 2035 1923 2033 2140
8 2035 1923 2034 2143 1939 1826 1924 2037
8 2037 1924 2036 2146 1926 1811 1925 2039
8 2051 1939 2037 2147 1944 1829 1926 2040
8 2039 1925 2038 2149 1928 1812 1927 2042
8 2040 1926 2039 2150 1929 1813 1928 2043
8 2042 1927 2041 2151 1931 1814 1930 2044
8 2043 1928 2042 2152 1932 1815 1931 2045
8 2045 1931 2044 2153 1934 1818 1933 2046
8 2155 2047 1936 2048 2086 1976 1864 1977
8 2063 1949 1833 1950 2155 2047 1936 2048
8 2156 2048 1937 2049 2087 1977 1865 1978
8 2064 1950 1834 1951 2156 2048 1937 2049
8 2051 1939 1829 1944 2160 2053 1946 2058
8 2052 1940 2035 2144 2160 2053 1939 2051
8 2053 1942 1831 1946 2163 2057 1948 2060
8 2055 1943 1827 1940 2163 2057 1942 2053
8 2055 1943 2056 2164 1940 1827 1941 2054
8 2059 1947 1849 1966 2167 2060 1965 2078
8 2059 1947 2060 2167 1945 1830 1946 2058
8 2077 1964 2061 2168 1965 1848 1948 2060
8 2070 1963 1847 1959 2170 2062 1949 2063
8 2065 1959 1843 1952 2171 2063 1950 2064
8 2173 2072 1958 2066 2065 1959 1843 1952
8 1953 1842 1958 2066 2067 1957 2071 2174
8 2068 1956 2069 2175 1967 1859 1973 2079
8 2067 1957 2069 2175 1955 1841 1956 2068
8 1845 1957 2069 1960 1961 2071 2176 2073
8 2069 1960 2073 2176 1973 1862 1975 2083
8 2070 1963 2075 2177 1959 1847 1962 2072
8 1846 1958 2071 1961 1962 2072 2178 2074
8 2077 1964 1861 1971 2182 2076 1974 2082
8 2081 1971 2077 2183 1969 1857 1965 2078
8 2079 1973 2083 2184 1968 1860 1972 2080
8 2081 1971 1858 1970 2185 2082 1972 2080
8 2083 1975 2084 2186 1972 1863 1974 2082
8 2086 1976 1882 1987 2189 2085 1993 2095
8 2090 1987 2086 2190 1981 1875 1977 2087
8 2191 2094 1986 2088 2103 1998 1888 1997
8 2088 1986 2094 2191 1980 1877 1989 2089
8 1991 2091 2192 2097 1880 1982 2089 1989
8 2093 1988 2095 2193 1984 1876 1987 2090
8 1879 1983 2092 1990 1991 2091 2194 2098
8 1985 1878 1990 2092 2093 1988 2096 2195
8 2097 1996 1886 1989 2196 2099 1992 2094
8 2196 2099 1992 2094 2104 1999 1889 1998
8 1994 2096 1988 1883 2100 2197 2095 1993
8 2096 1994 1884 1990 2198 2101 1995 2098
8 1995 2098 2199 2102 1885 1991 2097 1996
8 2203 2104 1998 2103 2106 2001 1891 2000
8 2107 2002 2105 2204 2001 1892 1999 2104
8 2109 2004 2107 2206 2003 1894 2001 2106
8 2110 2005 2108 2207 2004 1895 2002 2107
8 2112 2007 2110 2209 2006 1897 2004 2109
8 2113 2008 2111 2210 2007 1898 2005 2110
8 2120 2011 2113 2212 2014 1901 2007 2112
8 2117 2009 2114 2213 2011 1899 2008 2113
8 2219 2116 2009 2117 2119 2010 1899 2011
8 2222 2118 2010 2119 2122 2012 1900 2013
8 2223 2119 2011 2120 2123 2013 1901 2014
8 2016 1902 2015 2125 2122 2012 2121 2225
8 2126 2016 2122 2226 2017 1903 2013 2123
8 2019 1905 2018 2128 2125 2015 2124 2228
8 2020 1906 2019 2129 2126 2016 2125 2229
8 2022 1908 2021 2131 2128 2018 2127 2231
8 2023 1909 2022 2132 2129 2019 2128 2232
8 2025 1911 2024 2134 2131 2021 2130 2234
8 2026 1912 2025 2135 2132 2022 2131 2235
8 1914 2028 2134 2024 2027 2136 2236 2133
8 2029 1915 2028 2137 2135 2025 2134 2237
8 2030 1918 2031 2138 2137 2028 2136 2238
8 2157 2050 2139 2240 2054 1941 2033 2140
8 2052 1940 2054 2161 2144 2035 2140 2242
8 2140 2033 2141 2243 2035 1923 2034 2143
8 2143 2034 2142 2246 2037 1924 2036 2146
8 2144 2035 2143 2247 2051 1939 2037 2147
8 2146 2036 2145 2249 2039 1925 2038 2149
8 2147 2037 2146 2250 2040 1926 2039 2150
8 2149 2038 2148 2251 2042 1927 2041 2151
8 2150 2039 2149 2252 2043 1928 2042 2152
8 2152 2042 2151 2253 2045 1931 2044 2153
8 2255 2154 2047 2155 2189 2085 1976 2086
8 2170 2062 1949 2063 2255 2154 2047 2155
8 2256 2155 2048 2156 2190 2086 1977 2087
8 2171 2063 1950 2064 2256 2155 2048 2156
8 2258 2159 2050 2157 2164 2056 1941 2054
8 2160 2053 1946 2058 2262 2163 2060 2167
8 2162 2055 1940 2052 2262 2163 2053 2160
8 2162 2055 2164 2263 2052 1940 2054 2161
8 2163 2057 1948 2060 2264 2165 2061 2168
8 2055 1943 2057 2163 2164 2056 2165 2264
8 2182 2076 2166 2268 2077 1964 2061 2168
8 2183 2077 2168 2269 2078 1965 2060 2167
8 2070 1963 2062 2170 2177 2075 2169 2271
8 2172 2070 1959 2065 2272 2170 2063 2171
8 2172 2070 2177 2273 2065 1959 2072 2173
8 2066 1958 2072 2173 2174 2071 2178 2274
8 2067 1957 2071 2174 2175 2069 2176 2275
8 2175 2069 2176 2275 2079 1973 2083 2184
8 2071 1961 2074 2178 2176 2073 2179 2276
8 2176 2073 2179 2276 2083 1975 2084 2186
8 2072 1962 2075 2177 2178 2074 2180 2277
8 2182 2076 1974 2082 2280 2181 2084 2186
8 2183 2077 1971 2081 2281 2182 2082 2185
8 2184 2083 2186 2282 2080 1972 2082 2185
8 2189 2085 1993 2095 2285 2188 2100 2197
8 2190 2086 1987 2090 2286 2189 2095 2193
8 2192 2097 1989 2089 2287 2196 2094 2191
8 2287 2196 2094 2191 2203 2104 1998 2103
8 2194 2098 1991 2091 2288 2199 2097 2192
8 2195 2096 2197 2289 2093 1988 2095 2193
8 2096 2195 2290 2198 1990 2092 2194 2098
8 2097 1996 2099 2196 2199 2102 2200 2291
8 2196 2099 1999 2104 2291 2200 2105 2204
8 2100 2197 2292 2201 1994 2096 2198 2101
8 1995 2098 2198 2101 2102 2199 2293 2202
8 2206 2107 2204 2296 2106 2001 2104 2203
8 2207 2108 2205 2297 2107 2002 2105 2204
8 2209 2110 2207 2299 2109 2004 2107 2206
8 2210 2111 2208 2300 2110 2005 2108 2207
8 2212 2113 2210 2302 2112 2007 2110 2209
8 2213 2114 2211 2303 2113 2008 2111 2210
8 2220 2117 2213 2305 2120 2011 2113 2212
8 2216 2115 2214 2306 2117 2009 2114 2213
8 2216 2115 2009 2117 2311 2217 2116 2219
8 2219 2116 2010 2119 2314 2218 2118 2222
8 2315 2219 2117 2220 2223 2119 2011 2120
8 2122 2012 2121 2225 2222 2118 2221 2317
8 2318 2222 2119 2223 2226 2122 2013 2123
8 2125 2015 2124 2228 2225 2121 2224 2320
8 2126 2016 2125 2229 2226 2122 2225 2321
8 2128 2018 2127 2231 2228 2124 2227 2323
8 2129 2019 2128 2232 2229 2125 2228 2324
8 2131 2021 2130 2234 2231 2127 2230 2326
8 2132 2022 2131 2235 2232 2128 2231 2327
8 2134 2024 2133 2236 2234 2130 2233 2328
8 2135 2025 2134 2237 2235 2131 2234 2329
8 2137 2028 2136 2238 2237 2134 2236 2330
8 2157 2050 2158 2259 2240 2139 2239 2332
8 2257 2157 2240 2334 2161 2054 2140 2242
8 2240 2139 2241 2335 2140 2033 2141 2243
8 2242 2140 2243 2337 2144 2035 2143 2247
8 2243 2141 2244 2338 2143 2034 2142 2246
8 2246 2142 2245 2341 2146 2036 2145 2249
8 2247 2143 2246 2342 2147 2037 2146 2250
8 2249 2145 2248 2343 2149 2038 2148 2251
8 2250 2146 2249 2344 2150 2039 2149 2252
8 2252 2149 2251 2345 2152 2042 2151 2253
8 2169 2271 2347 2254 2062 2170 2255 2154
8 2189 2085 2188 2285 2255 2154 2254 2347
8 2348 2255 2155 2256 2286 2189 2086 2190
8 2272 2170 2063 2171 2348 2255 2155 2256
8 2349 2258 2157 2257 2263 2164 2054 2161
8 2258 2159 2261 2351 2157 2050 2158 2259
8 2258 2159 2056 2164 2351 2261 2165 2264
8 2262 2163 2060 2167 2355 2264 2168 2269
8 2162 2055 2163 2262 2263 2164 2264 2355
8 2357 2266 2165 2264 2268 2166 2061 2168
8 2268 2166 2076 2182 2361 2267 2181 2280
8 2281 2182 2268 2362 2183 2077 2168 2269
8 2271 2169 2270 2364 2177 2075 2180 2277
8 2172 2070 2170 2272 2273 2177 2271 2365
8 2072 2173 2274 2178 2177 2273 2366 2277
8 2071 2174 2275 2176 2178 2274 2367 2276
8 2275 2176 2276 2367 2184 2083 2186 2282
8 2283 2187 2084 2186 2368 2278 2179 2276
8 2178 2074 2180 2277 2276 2179 2278 2368
8 2283 2187 2279 2370 2186 2084 2181 2280
8 2281 2182 2082 2185 2371 2280 2186 2282
8 2188 2285 2374 2284 2100 2197 2292 2201
8 2286 2189 2095 2193 2375 2285 2197 2289
8 2192 2097 2196 2287 2288 2199 2291 2376
8 2287 2196 2104 2203 2376 2291 2204 2296
8 2194 2098 2199 2288 2290 2198 2293 2377
8 2289 2197 2096 2195 2378 2292 2198 2290
8 2291 2200 2105 2204 2379 2294 2205 2297
8 2199 2102 2200 2291 2293 2202 2294 2379
8 2198 2101 2202 2293 2292 2201 2295 2380
8 2299 2207 2297 2383 2206 2107 2204 2296
8 2300 2208 2298 2384 2207 2108 2205 2297
8 2302 2210 2300 2386 2209 2110 2207 2299
8 2303 2211 2301 2387 2210 2111 2208 2300
8 2305 2213 2303 2389 2212 2113 2210 2302
8 2306 2214 2304 2390 2213 2114 2211 2303
8 2310 2216 2306 2392 2220 2117 2213 2305
8 2308 2215 2307 2393 2216 2115 2214 2306
8 2308 2215 2115 2216 2396 2309 2217 2311
8 2310 2216 2117 2220 2398 2311 2219 2315
8 2311 2217 2116 2219 2399 2312 2218 2314
8 2314 2218 2118 2222 2402 2313 2221 2317
8 2315 2219 2119 2223 2403 2314 2222 2318
8 2225 2121 2224 2320 2317 2221 2316 2405
8 2226 2122 2225 2321 2318 2222 2317 2406
8 2228 2124 2227 2323 2320 2224 2319 2408
8 2229 2125 2228 2324 2321 2225 2320 2409
8 2231 2127 2230 2326 2323 2227 2322 2411
8 2232 2128 2231 2327 2324 2228 2323 2412
8 2234 2130 2233 2328 2326 2230 2325 2413
8 2235 2131 2234 2329 2327 2231 2326 2414
8 2237 2134 2236 2330 2329 2234 2328 2415
8 2259 2158 2260 2352 2332 2239 2331 2417
8 2257 2157 2259 2350 2334 2240 2332 2419
8 2240 2139 2239 2332 2335 2241 2333 2420
8 2334 2240 2335 2422 2242 2140 2243 2337
8 2335 2241 2336 2423 2243 2141 2244 2338
8 2337 2243 2338 2425 2247 2143 2246 2342
8 2338 2244 2339 2426 2246 2142 2245 2341
8 2341 2245 2340 2428 2249 2145 2248 2343
8 2342 2246 2341 2429 2250 2146 2249 2344
8 2344 2249 2343 2430 2252 2149 2251 2345
8 2188 2285 2347 2254 2284 2374 2432 2346
8 2347 2254 2346 2432 2271 2169 2270 2364
8 2365 2271 2170 2272 2433 2347 2255 2348
8 2286 2189 2285 2375 2348 2255 2347 2433
8 2349 2258 2351 2435 2257 2157 2259 2350
8 2349 2258 2164 2263 2435 2351 2264 2355
8 2259 2158 2261 2351 2352 2260 2354 2437
8 2356 2265 2354 2437 2264 2165 2261 2351
8 2441 2357 2264 2355 2362 2268 2168 2269
8 2356 2265 2165 2264 2442 2358 2266 2357
8 2443 2359 2266 2357 2361 2267 2166 2268
8 2370 2279 2360 2446 2280 2181 2267 2361
8 2362 2268 2182 2281 2447 2361 2280 2371
8 2180 2277 2368 2278 2270 2364 2449 2363
8 2271 2365 2273 2177 2364 2450 2366 2277
8 2372 2283 2186 2282 2451 2368 2276 2367
8 2178 2274 2367 2276 2277 2366 2451 2368
8 2283 2187 2278 2368 2370 2279 2369 2452
8 2372 2283 2370 2453 2282 2186 2280 2371
8 2284 2374 2455 2373 2201 2292 2380 2295
8 2375 2285 2197 2289 2456 2374 2292 2378
8 2376 2291 2204 2296 2457 2379 2297 2383
8 2288 2199 2291 2376 2377 2293 2379 2457
8 2198 2290 2378 2292 2293 2377 2458 2380
8 2293 2202 2294 2379 2380 2295 2381 2459
8 2384 2298 2381 2459 2297 2205 2294 2379
8 2386 2300 2384 2463 2299 2207 2297 2383
8 2387 2301 2385 2464 2300 2208 2298 2384
8 2389 2303 2387 2466 2302 2210 2300 2386
8 2390 2304 2388 2467 2303 2211 2301 2387
8 2392 2306 2390 2469 2305 2213 2303 2389
8 2393 2307 2391 2470 2306 2214 2304 2390
8 2395 2308 2393 2472 2310 2216 2306 2392
8 2308 2215 2309 2396 2393 2307 2394 2473
8 2395 2308 2216 2310 2475 2396 2311 2398
8 2396 2309 2217 2311 2476 2397 2312 2399
8 2398 2311 2219 2315 2478 2399 2314 2403
8 2399 2312 2218 2314 2479 2400 2313 2402
8 2317 2221 2316 2405 2402 2313 2401 2482
8 2403 2314 2222 2318 2483 2402 2317 2406
8 2320 2224 2319 2408 2405 2316 2404 2485
8 2321 2225 2320 2409 2406 2317 2405 2486
8 2323 2227 2322 2411 2408 2319 2407 2488
8 2324 2228 2323 2412 2409 2320 2408 2489
8 2326 2230 2325 2413 2411 2322 2410 2490
8 2327 2231 2326 2414 2412 2323 2411 2491
8 2329 2234 2328 2415 2414 2326 2413 2492
8 2417 2331 2260 2352 2494 2416 2353 2438
8 2350 2259 2352 2436 2419 2332 2417 2496
8 2332 2239 2331 2417 2420 2333 2418 2497
8 2334 2240 2332 2419 2422 2335 2420 2499
8 2420 2333 2421 2500 2335 2241 2336 2423
8 2422 2335 2423 2502 2337 2243 2338 2425
8 2423 2336 2424 2503 2338 2244 2339 2426
8 2425 2338 2426 2505 2342 2246 2341 2429
8 2426 2339 2427 2506 2341 2245 2340 2428
8 2429 2341 2428 2507 2344 2249 2343 2430
8 2432 2346 2284 2374 2509 2431 2373 2455
8 2432 2346 2431 2509 2364 2270 2363 2449
8 2375 2285 2374 2456 2433 2347 2432 2510
8 2347 2433 2365 2271 2432 2510 2450 2364
8 2350 2259 2351 2435 2436 2352 2437 2514
8 2440 2356 2437 2514 2355 2264 2351 2435
8 2352 2260 2354 2437 2438 2353 2439 2516
8 2356 2265 2358 2442 2437 2354 2439 2516
8 2440 2356 2264 2355 2518 2442 2357 2441
8 2519 2443 2357 2441 2447 2361 2268 2362
8 2443 2359 2444 2520 2357 2266 2358 2442
8 2443 2359 2267 2361 2520 2444 2360 2446
8 2446 2360 2279 2370 2523 2445 2369 2452
8 2453 2370 2446 2524 2371 2280 2361 2447
8 2449 2363 2448 2525 2368 2278 2369 2452
8 2366 2277 2364 2450 2451 2368 2449 2526
8 2372 2283 2368 2451 2453 2370 2452 2527
8 2455 2373 2295 2380 2529 2454 2382 2460
8 2456 2374 2292 2378 2530 2455 2380 2458
8 2377 2293 2379 2457 2458 2380 2459 2531
8 2463 2384 2459 2531 2383 2297 2379 2457
8 2533 2461 2382 2460 2459 2381 2295 2380
8 2464 2385 2461 2533 2384 2298 2381 2459
8 2466 2387 2464 2537 2386 2300 2384 2463
8 2467 2388 2465 2538 2387 2301 2385 2464
8 2469 2390 2467 2540 2389 2303 2387 2466
8 2470 2391 2468 2541 2390 2304 2388 2467
8 2472 2393 2470 2543 2392 2306 2390 2469
8 2393 2307 2394 2473 2470 2391 2471 2544
8 2395 2308 2396 2475 2472 2393 2473 2546
8 2396 2309 2397 2476 2473 2394 2474 2547
8 2475 2396 2311 2398 2549 2476 2399 2478
8 2476 2397 2312 2399 2550 2477 2400 2479
8 2478 2399 2314 2403 2552 2479 2402 2483
8 2479 2400 2313 2402 2553 2480 2401 2482
8 2405 2316 2404 2485 2482 2401 2481 2556
8 2406 2317 2405 2486 2483 2402 2482 2557
8 2408 2319 2407 2488 2485 2404 2484 2559
8 2409 2320 2408 2489 2486 2405 2485 2560
8 2411 2322 2410 2490 2488 2407 2487 2561
8 2412 2323 2411 2491 2489 2408 2488 2562
8 2414 2326 2413 2492 2491 2411 2490 2563
8 2513 2434 2493 2565 2438 2353 2416 2494
8 2496 2417 2352 2436 2567 2494 2438 2515
8 2494 2416 2495 2568 2417 2331 2418 2497
8 2419 2332 2417 2496 2499 2420 2497 2570
8 2497 2418 2498 2571 2420 2333 2421 2500
8 2499 2420 2500 2573 2422 2335 2423 2502
8 2500 2421 2501 2574 2423 2336 2424 2503
8 2502 2423 2503 2576 2425 2338 2426 2505
8 2503 2424 2504 2577 2426 2339 2427 2506
8 2505 2426 2506 2578 2429 2341 2428 2507
8 2509 2431 2373 2455 2580 2508 2454 2529
8 2509 2431 2508 2580 2449 2363 2448 2525
8 2432 2510 2581 2509 2374 2456 2530 2455
8 2432 2510 2450 2364 2509 2581 2526 2449
8 2583 2511 2434 2513 2516 2439 2353 2438
8 2436 2352 2437 2514 2515 2438 2516 2588
8 2440 2356 2442 2518 2514 2437 2516 2588
8 2442 2358 2444 2520 2516 2439 2517 2589
8 2519 2443 2520 2591 2441 2357 2442 2518
8 2519 2443 2361 2447 2591 2520 2446 2524
8 2446 2360 2445 2523 2520 2444 2521 2592
8 2525 2448 2522 2593 2452 2369 2445 2523
8 2524 2446 2370 2453 2594 2523 2452 2527
8 2526 2449 2525 2595 2451 2368 2452 2527
8 2534 2462 2528 2597 2460 2382 2454 2529
8 2530 2455 2380 2458 2598 2529 2460 2532
8 2599 2533 2460 2532 2531 2459 2380 2458
8 2537 2464 2533 2599 2463 2384 2459 2531
8 2534 2462 2382 2460 2601 2535 2461 2533
8 2538 2465 2535 2601 2464 2385 2461 2533
8 2540 2467 2538 2604 2466 2387 2464 2537
8 2541 2468 2539 2605 2467 2388 2465 2538
8 2543 2470 2541 2607 2469 2390 2467 2540
8 2470 2391 2471 2544 2541 2468 2542 2608
8 2472 2393 2473 2546 2543 2470 2544 2610
8 2473 2394 2474 2547 2544 2471 2545 2611
8 2475 2396 2476 2549 2546 2473 2547 2613
8 2476 2397 2477 2550 2547 2474 2548 2614
8 2549 2476 2399 2478 2616 2550 2479 2552
8 2479 2400 2480 2553 2550 2477 2551 2617
8 2552 2479 2402 2483 2619 2553 2482 2557
8 2482 2401 2481 2556 2553 2480 2554 2620
8 2485 2404 2484 2559 2556 2481 2555 2623
8 2486 2405 2485 2560 2557 2482 2556 2624
8 2488 2407 2487 2561 2559 2484 2558 2625
8 2489 2408 2488 2562 2560 2485 2559 2626
8 2491 2411 2490 2563 2562 2488 2561 2627
8 2513 2434 2512 2585 2565 2493 2564 2630
8 2586 2513 2565 2632 2515 2438 2494 2567
8 2565 2493 2566 2633 2494 2416 2495 2568
8 2567 2494 2568 2635 2496 2417 2497 2570
8 2568 2495 2569 2636 2497 2418 2498 2571
8 2570 2497 2571 2638 2499 2420 2500 2573
8 2571 2498 2572 2639 2500 2421 2501 2574
8 2573 2500 2574 2641 2502 2423 2503 2576
8 2574 2501 2575 2642 2503 2424 2504 2577
8 2576 2503 2577 2643 2505 2426 2506 2578
8 2597 2528 2579 2645 2529 2454 2508 2580
8 2580 2508 2579 2645 2525 2448 2522 2593
8 2581 2509 2455 2530 2646 2580 2529 2598
8 2581 2509 2580 2646 2526 2449 2525 2595
8 2583 2511 2582 2648 2513 2434 2512 2585
8 2583 2511 2439 2516 2648 2582 2517 2589
8 2649 2583 2513 2586 2588 2516 2438 2515
8 2589 2517 2444 2520 2653 2587 2521 2592
8 2518 2442 2520 2591 2588 2516 2589 2654
8 2593 2522 2590 2655 2523 2445 2521 2592
8 2524 2446 2523 2594 2591 2520 2592 2656
8 2595 2525 2593 2657 2527 2452 2523 2594
8 2602 2536 2596 2659 2534 2462 2528 2597
8 2600 2534 2597 2660 2532 2460 2529 2598
8 2600 2534 2460 2532 2661 2601 2533 2599
8 2604 2538 2601 2661 2537 2464 2533 2599
8 2602 2536 2462 2534 2663 2603 2535 2601
8 2601 2535 2465 2538 2663 2603 2539 2605
8 2607 2541 2605 2665 2540 2467 2538 2604
8 2608 2542 2606 2666 2541 2468 2539 2605
8 2543 2470 2544 2610 2607 2541 2608 2668
8 2544 2471 2545 2611 2608 2542 2609 2669
8 2546 2473 2547 2613 2610 2544 2611 2671
8 2547 2474 2548 2614 2611 2545 2612 2672
8 2549 2476 2550 2616 2613 2547 2614 2674
8 2550 2477 2551 2617 2614 2548 2615 2675
8 2552 2479 2553 2619 2616 2550 2617 2677
8 2553 2480 2554 2620 2617 2551 2618 2678
8 2557 2482 2556 2624 2619 2553 2620 2680
8 2556 2481 2555 2623 2620 2554 2621 2681
8 2559 2484 2558 2625 2623 2555 2622 2683
8 2560 2485 2559 2626 2624 2556 2623 2684
8 2562 2488 2561 2627 2626 2559 2625 2685
8 2690 2629 2564 2630 2650 2584 2512 2585
8 2586 2513 2585 2651 2632 2565 2630 2691
8 2630 2564 2631 2692 2565 2493 2566 2633
8 2632 2565 2633 2694 2567 2494 2568 2635
8 2633 2566 2634 2695 2568 2495 2569 2636
8 2635 2568 2636 2697 2570 2497 2571 2638
8 2636 2569 2637 2698 2571 2498 2572 2639
8 2638 2571 2639 2700 2573 2500 2574 2641
8 2639 2572 2640 2701 2574 2501 2575 2642
8 2641 2574 2642 2702 2576 2503 2577 2643
8 2597 2528 2596 2659 2645 2579 2644 2704
8 2645 2579 2644 2704 2593 2522 2590 2655
8 2660 2597 2645 2705 2598 2529 2580 2646
8 2646 2580 2645 2705 2595 2525 2593 2657
8 2650 2584 2512 2585 2707 2647 2582 2648
8 2648 2582 2517 2589 2707 2647 2587 2653
8 2649 2583 2648 2708 2586 2513 2585 2651
8 2649 2583 2516 2588 2708 2648 2589 2654
8 2655 2590 2652 2710 2592 2521 2587 2653
8 2654 2589 2520 2591 2711 2653 2592 2656
8 2657 2593 2655 2712 2594 2523 2592 2656
8 2602 2536 2603 2663 2659 2596 2658 2714
8 2662 2602 2659 2715 2600 2534 2597 2660
8 2662 2602 2534 2600 2717 2663 2601 2661
8 2661 2601 2538 2604 2717 2663 2605 2665
8 2666 2606 2664 2718 2605 2539 2603 2663
8 2668 2608 2666 2720 2607 2541 2605 2665
8 2608 2542 2609 2669 2666 2606 2667 2721
8 2610 2544 2611 2671 2668 2608 2669 2723
8 2611 2545 2612 2672 2669 2609 2670 2724
8 2613 2547 2614 2674 2671 2611 2672 2726
8 2614 2548 2615 2675 2672 2612 2673 2727
8 2616 2550 2617 2677 2674 2614 2675 2729
8 2617 2551 2618 2678 2675 2615 2676 2730
8 2619 2553 2620 2680 2677 2617 2678 2732
8 2620 2554 2621 2681 2678 2618 2679 2733
8 2624 2556 2623 2684 2680 2620 2681 2735
8 2681 2621 2555 2623 2736 2682 2622 2683
8 2626 2559 2625 2685 2684 2623 2683 2737
8 2688 2628 2584 2650 2740 2686 2647 2707
8 2688 2628 2687 2742 2650 2584 2629 2690
8 2690 2629 2689 2745 2630 2564 2631 2692
8 2746 2690 2630 2691 2709 2650 2585 2651
8 2691 2630 2692 2747 2632 2565 2633 2694
8 2692 2631 2693 2748 2633 2566 2634 2695
8 2694 2633 2695 2750 2635 2568 2636 2697
8 2695 2634 2696 2751 2636 2569 2637 2698
8 2697 2636 2698 2753 2638 2571 2639 2700
8 2698 2637 2699 2754 2639 2572 2640 2701
8 2700 2639 2701 2755 2641 2574 2642 2702
8 2659 2596 2658 2714 2704 2644 2703 2757
8 2704 2644 2703 2757 2655 2590 2652 2710
8 2660 2597 2659 2715 2705 2645 2704 2758
8 2705 2645 2704 2758 2657 2593 2655 2712
8 2759 2706 2647 2707 2710 2652 2587 2653
8 2709 2650 2585 2651 2760 2707 2648 2708
8 2708 2648 2589 2654 2760 2707 2653 2711
8 2712 2655 2710 2761 2656 2592 2653 2711
8 2763 2713 2658 2714 2718 2664 2603 2663
8 2662 2602 2663 2717 2715 2659 2714 2764
8 2720 2666 2718 2767 2665 2605 2663 2717
8 2768 2719 2664 2718 2721 2667 2606 2666
8 2668 2608 2669 2723 2720 2666 2721 2770
8 2669 2609 2670 2724 2721 2667 2722 2771
8 2671 2611 2672 2726 2723 2669 2724 2773
8 2672 2612 2673 2727 2724 2670 2725 2774
8 2674 2614 2675 2729 2726 2672 2727 2776
8 2675 2615 2676 2730 2727 2673 2728 2777
8 2677 2617 2678 2732 2729 2675 2730 2779
8 2678 2618 2679 2733 2730 2676 2731 2780
8 2680 2620 2681 2735 2732 2678 2733 2782
8 2733 2679 2621 2681 2783 2734 2682 2736
8 2735 2681 2623 2684 2784 2736 2683 2737
8 2740 2686 2647 2707 2787 2738 2706 2759
8 2688 2628 2686 2740 2742 2687 2739 2789
8 2743 2688 2650 2709 2790 2740 2707 2760
8 2742 2687 2741 2792 2690 2629 2689 2745
8 2743 2688 2742 2793 2709 2650 2690 2746
8 2745 2689 2744 2795 2692 2631 2693 2748
8 2746 2690 2745 2796 2691 2630 2692 2747
8 2747 2692 2748 2797 2694 2633 2695 2750
8 2748 2693 2749 2798 2695 2634 2696 2751
8 2750 2695 2751 2800 2697 2636 2698 2753
8 2751 2696 2752 2801 2698 2637 2699 2754
8 2753 2698 2754 2802 2700 2639 2701 2755
8 2763 2713 2756 2804 2714 2658 2703 2757
8 2759 2706 2652 2710 2804 2756 2703 2757
8 2715 2659 2714 2764 2758 2704 2757 2805
8 2758 2704 2757 2805 2712 2655 2710 2761
8 2806 2759 2707 2760 2761 2710 2653 2711
8 2765 2716 2762 2808 2718 2664 2713 2763
8 2809 2763 2714 2764 2767 2718 2663 2717
8 2765 2716 2664 2718 2811 2766 2719 2768
8 2813 2768 2718 2767 2770 2721 2666 2720
8 2814 2769 2719 2768 2771 2722 2667 2721
8 2723 2669 2724 2773 2770 2721 2771 2816
8 2724 2670 2725 2774 2771 2722 2772 2817
8 2726 2672 2727 2776 2773 2724 2774 2819
8 2727 2673 2728 2777 2774 2725 2775 2820
8 2729 2675 2730 2779 2776 2727 2777 2822
8 2730 2676 2731 2780 2777 2728 2778 2823
8 2732 2678 2733 2782 2779 2730 2780 2825
8 2780 2731 2679 2733 2826 2781 2734 2783
8 2782 2733 2681 2735 2827 2783 2736 2784
8 2830 2785 2738 2787 2804 2756 2706 2759
8 2789 2739 2686 2740 2832 2786 2738 2787
8 2790 2740 2707 2760 2833 2787 2759 2806
8 2742 2687 2739 2789 2792 2741 2788 2835
8 2743 2688 2740 2790 2793 2742 2789 2836
8 2792 2741 2791 2838 2745 2689 2744 2795
8 2793 2742 2792 2839 2746 2690 2745 2796
8 2795 2744 2794 2841 2748 2693 2749 2798
8 2796 2745 2795 2842 2747 2692 2748 2797
8 2797 2748 2798 2843 2750 2695 2751 2800
8 2798 2749 2799 2844 2751 2696 2752 2801
8 2800 2751 2801 2845 2753 2698 2754 2802
8 2808 2762 2803 2847 2763 2713 2756 2804
8 2809 2763 2804 2848 2764 2714 2757 2805
8 2806 2759 2710 2761 2848 2804 2757 2805
8 2765 2716 2766 2811 2808 2762 2807 2850
8 2810 2765 2808 2851 2767 2718 2763 2809
8 2810 2765 2718 2767 2852 2811 2768 2813
8 2811 2766 2719 2768 2853 2812 2769 2814
8 2855 2814 2768 2813 2816 2771 2721 2770
8 2856 2815 2769 2814 2817 2772 2722 2771
8 2773 2724 2774 2819 2816 2771 2817 2858
8 2774 2725 2775 2820 2817 2772 2818 2859
8 2776 2727 2777 2822 2819 2774 2820 2861
8 2777 2728 2778 2823 2820 2775 2821 2862
8 2779 2730 2780 2825 2822 2777 2823 2864
8 2823 2778 2731 2780 2865 2824 2781 2826
8 2825 2780 2733 2782 2866 2826 2783 2827
8 2869 2828 2785 2830 2847 2803 2756 2804
8 2871 2829 2786 2832 2830 2785 2738 2787
8 2872 2830 2787 2833 2848 2804 2759 2806
8 2789 2739 2786 2832 2835 2788 2831 2874
8 2836 2789 2740 2790 2875 2832 2787 2833
8 2792 2741 2788 2835 2838 2791 2834 2877
8 2793 2742 2789 2836 2839 2792 2835 2878
8 2838 2791 2837 2880 2795 2744 2794 2841
8 2839 2792 2838 2881 2796 2745 2795 2842
8 2841 2794 2840 2882 2798 2749 2799 2844
8 2842 2795 2841 2883 2797 2748 2798 2843
8 2843 2798 2844 2884 2800 2751 2801 2845
8 2886 2846 2803 2847 2850 2807 2762 2808
8 2851 2808 2847 2887 2809 2763 2804 2848
8 2850 2807 2766 2811 2889 2849 2812 2853
8 2810 2765 2811 2852 2851 2808 2850 2890
8 2852 2811 2768 2813 2891 2853 2814 2855
8 2853 2812 2769 2814 2892 2854 2815 2856
8 2894 2856 2814 2855 2858 2817 2771 2816
8 2817 2772 2818 2859 2856 2815 2857 2895
8 2819 2774 2820 2861 2858 2817 2859 2897
8 2820 2775 2821 2862 2859 2818 2860 2898
8 2822 2777 2823 2864 2861 2820 2862 2900
8 2823 2778 2824 2865 2862 2821 2863 2901
8 2864 2823 2780 2825 2902 2865 2826 2866
8 2904 2867 2828 2869 2886 2846 2803 2847
8 2869 2828 2868 2906 2830 2785 2829 2871
8 2907 2869 2830 2872 2887 2847 2804 2848
8 2871 2829 2870 2909 2832 2786 2831 2874
8 2910 2871 2832 2875 2872 2830 2787 2833
8 2835 2788 2831 2874 2877 2834 2873 2912
8 2836 2789 2832 2875 2878 2835 2874 2913
8 2877 2834 2876 2915 2838 2791 2837 2880
8 2839 2792 2835 2878 2881 2838 2877 2916
8 2880 2837 2879 2917 2841 2794 2840 2882
8 2881 2838 2880 2918 2842 2795 2841 2883
8 2883 2841 2882 2919 2843 2798 2844 2884
8 2921 2885 2846 2886 2889 2849 2807 2850
8 2922 2886 2847 2887 2890 2850 2808 2851
8 2889 2849 2812 2853 2924 2888 2854 2892
8 2890 2850 2811 2852 2925 2889 2853 2891
8 2891 2853 2814 2855 2926 2892 2856 2894
8 2892 2854 2815 2856 2927 2893 2857 2895
8 2858 2817 2859 2897 2894 2856 2895 2929
8 2859 2818 2860 2898 2895 2857 2896 2930
8 2861 2820 2862 2900 2897 2859 2898 2932
8 2862 2821 2863 2901 2898 2860 2899 2933
8 2864 2823 2865 2902 2900 2862 2901 2934
8 2904 2867 2846 2886 2936 2903 2885 2921
8 2904 2867 2903 2936 2869 2828 2868 2906
8 2937 2904 2869 2907 2922 2886 2847 2887
8 2906 2868 2905 2939 2871 2829 2870 2909
8 2907 2869 2906 2940 2872 2830 2871 2910
8 2909 2870 2908 2942 2874 2831 2873 2912
8 2910 2871 2909 2943 2875 2832 2874 2913
8 2912 2873 2911 2945 2877 2834 2876 2915
8 2878 2835 2874 2913 2916 2877 2912 2946
8 2915 2876 2914 2947 2880 2837 2879 2917
8 2916 2877 2915 2948 2881 2838 2880 2918
8 2918 2880 2917 2949 2883 2841 2882 2919
8 2921 2885 2849 2889 2951 2920 2888 2924
8 2952 2921 2886 2922 2925 2889 2850 2890
8 2924 2888 2854 2892 2954 2923 2893 2927
8 2925 2889 2853 2891 2955 2924 2892 2926
8 2926 2892 2856 2894 2956 2927 2895 2929
8 2895 2857 2896 2930 2927 2893 2928 2957
8 2897 2859 2898 2932 2929 2895 2930 2959
8 2898 2860 2899 2933 2930 2896 2931 2960
8 2900 2862 2901 2934 2932 2898 2933 2961
8 2936 2903 2885 2921 2963 2935 2920 2951
8 2936 2903 2935 2963 2906 2868 2905 2939
8 2937 2904 2886 2922 2964 2936 2921 2952
8 2937 2904 2936 2964 2907 2869 2906 2940
8 2939 2905 2938 2966 2909 2870 2908 2942
8 2940 2906 2939 2967 2910 2871 2909 2943
8 2942 2908 2941 2969 2912 2873 2911 2945
8 2943 2909 2942 2970 2913 2874 2912 2946
8 2945 2911 2944 2971 2915 2876 2914 2947
8 2946 2912 2945 2972 2916 2877 2915 2948
8 2948 2915 2947 2973 2918 2880 2917 2949
8 2951 2920 2888 2924 2975 2950 2923 2954
8 2952 2921 2889 2925 2976 2951 2924 2955
8 2927 2893 2928 2957 2954 2923 2953 2978
8 2955 2924 2892 2926 2979 2954 2927 2956
8 2929 2895 2930 2959 2956 2927 2957 2980
8 2930 2896 2931 2960 2957 2928 2958 2981
8 2932 2898 2933 2961 2959 2930 2960 2982
8 2951 2920 2950 2975 2963 2935 2962 2984
8 2963 2935 2962 2984 2939 2905 2938 2966
8 2964 2936 2921 2952 2985 2963 2951 2976
8 2964 2936 2963 2985 2940 2906 2939 2967
8 2966 2938 2965 2987 2942 2908 2941 2969
8 2967 2939 2966 2988 2943 2909 2942 2970
8 2969 2941 2968 2989 2945 2911 2944 2971
8 2970 2942 2969 2990 2946 2912 2945 2972
8 2972 2945 2971 2991 2948 2915 2947 2973
8 2954 2923 2953 2978 2975 2950 2974 2993
8 2976 2951 2924 2955 2994 2975 2954 2979
8 2957 2928 2958 2981 2978 2953 2977 2995
8 2956 2927 2957 2980 2979 2954 2978 2996
8 2959 2930 2960 2982 2980 2957 2981 2997
8 2984 2962 2983 2999 2966 2938 2965 2987
8 2975 2950 2974 2993 2984 2962 2983 2999
8 2976 2951 2975 2994 2985 2963 2984 3000
8 2985 2963 2984 3000 2967 2939 2966 2988
8 2987 2965 2986 3001 2969 2941 2968 2989
8 2988 2966 2987 3002 2970 2942 2969 2990
8 2990 2969 2989 3003 2972 2945 2971 2991
8 2978 2953 2977 2995 2993 2974 2992 3004
8 2979 2954 2978 2996 2994 2975 2993 3005
8 2980 2957 2981 2997 2996 2978 2995 3006
8 2974 2993 2999 2983 2992 3004 3007 2998
8 2983 2999 2987 2965 2998 3007 3001 2986
8 3000 2984 2999 3008 2988 2966 2987 3002
8 2994 2975 2993 3005 3000 2984 2999 3008
8 3002 2987 3001 3009 2990 2969 2989 3003
8 2996 2978 2995 3006 3005 2993 3004 3010
8 3005 2993 3004 3010 3008 2999 3007 3011
8 3008 2999 3007 3011 3002 2987 3001 3009

CELL_TYPES 1910
12
12
12
12
12
12
12
12
12
12
12
12
12
12
12
12
12
12
12
12
12
12
12
12
12
12
12
12
12
12
12
12
12
12
12
12
12
12
12
12
12
12
12
12
12
12
12
12
12
12
12
12
12
12
12
12
12
12
12
12
12
12
12
12
12
12
12
12
12
12
12
12
12
12
12
12
12
12
12
12
12
12
12
12
12
12
12
12
12
12
12
12
12
12
12
12
12
12
12
12
12
12
12
12
12
12
12
12
12
12
12
12
12
12
12
12
12
12
12
12
12
12
12
12
12
12
12
12
12
12
12
12
12
12
12
12
12
12
12
12
12
12
12
12
12
12
12
12
12
12
12
12
12
12
12
12
12
12
12
12
12
12
12
12
12
12
12
12
12
12
12
12
12
12
12
12
12
12
12
12
12
12
12
12
12
12
12
12
12
12
12
12
12
12
12
12
12
12
12
12
12
12
12
12
12
12
12
12
12
12
12
12
12
12
12
12
12
12
12
12
12
12
12
12
12
12
12
12
12
12
12
12
12
12
12
12
12
12
12
12
12
12
12
12
12
12
12
12
12
12
12
12
12
12
12
12
12
12
12
12
12
12
12
12
12
12
12
12
12
12
12
12
12
12
12
12
12
12
12
12
12
12
12
12
12
12
12
12
12
12
12
12
12
12
12
12
12
12
12
12
12
12
12
12
12
12
12
12
12
12
12
12
12
12
12
12
12
12
12
12
12
12
12
12
12
12
12
12
12
12
12
12
12
12
12
12
12
12
12
12
12
12
12
12
12
12
12
12
12
12
12
12
12
12
12
12
12
12
12
12
12
12
12
12
12
12
12
12
12
12
12
12
12
12
12
12
12
12
12
12
12
12
12
12
12
12
12
12
12
12
12
12
12
12
12
12
12
12
12
12
12
12
12
12
12
12
12
12
12
12
12
12
12
12
12
12
12
12
12
12
12
12
12
12
12
12
12
12
12
12
12
12
12
12
12
12
12
12
12
12
12
12
12
12
12
12
12
12
12
12
12
12
12
12
12
12
12
12
12
12
12
12
12
12
12
12
12
12
12
12
12
12
12
12
12
12
12
12
12
12
12
12
12
12
12
12
12
12
12
12
12
12
12
12
12
12
12
12
12
12
12
12
12
12
12
12
12
12
12
12
12
12
12
12
12
12
12
12
12
12
12
12
12
12
12
12
12
12
12
12
12
12
12
12
12
12
12
12
12
12
12
12
12
12
12
12
12
12
12
12
12
12
12
12
12
12
12
12
12
12
12
12
12
12
12
12
12
12
12
12
12
12
12
12
12
12
12
12
12
12
12
12
12
12
12
12
12
12
12
12
12
12
12
12
12
12
12
12
12
12
12
12
12
12
12
12
12
12
12
12
12
12
12
12
12
12
12
12
12
12
12
12
12
12
12
12
12
12
12
12
12
12
12
12
12
12
12
12
12
12
12
12
12
12
12
12
12
12
12
12
12
12
12
12
12
12
12
12
12
12
12
12
12
12
12
12
12
12
12
12
12
12
12
12
12
12
12
12
12
12
12
12
12
12
12
12
12
12
12
12
12
12
12
12
12
12
12
12
12
12
12
12
12
12
12
12
12
12
12
12
12
12
12
12
12
12
12
12
12
12
12
12
12
12
12
12
12
12
12
12
12
12
12
12
12
12
12
12
12
12
12
12
12
12
12
12
12
12
12
12
12
12
12
12
12
12
12
12
12
12
12
12
12
12
12
12
12
12
12
12
12
12
12
12
12
12
12
12
12
12
12
12
12
12
12
12
12
12
12
12
12
12
12
12
12
12
12
12
12
12
12
12
12
12
12
12
12
12
12
12
12
12
12
12
12
12
12
12
12
12
12
12
12
12
12
12
12
12
12
12
12
12
12
12
12
12
12
12
12
12
12
12
12
12
12
12
12
12
12
12
12
12
12
12
12
12
12
12
12
12
12
12
12
12
12
12
12
12
12
12
12
12
12
12
12
12
12
12
12
12
12
12
12
12
12
12
12
12
12
12
12
12
12
12
12
12
12
12
12
12
12
12
12
12
12
12
12
12
12
12
12
12
12
12
12
12
12
12
12
12
12
12
12
12
12
12
12
12
12
12
12
12
12
12
12
12
12
12
12
12
12
12
12
12
12
12
12
12
12
12
12
12
12
12
12
12
12
12
12
12
12
12
12
12
12
12
12
12
12
12
12
12
12
12
12
12
12
12
12
12
12
12
12
12
12
12
12
12
12
12
12
12
12
12
12
12
12
12
12
12
12
12
12
12
12
12
12
12
12
12
12
12
12
12
12
12
12
12
12
12
12
12
12
12
12
12
12
12
12
12
12
12
12
12
12
12
12
12
12
12
12
12
12
12
12
12
12
12
12
12
12
12
12
12
12
12
12
12
12
12
12
12
12
12
12
12
12
12
12
12
12
12
12
12
12
12
12
12
12
12
12
12
12
12
12
12
12
12
12
12
12
12
12
12
12
12
12
12
12
12
12
12
12
12
12
12
12
12
12
12
12
12
12
12
12
12
12
12
12
12
12
12
12
12
12
12
12
12
12
12
12
12
12
12
12
12
12
12
12
12
12
12
12
12
12
12
12
12
12
12
12
12
12
12
12
12
12
12
12
12
12
12
12
12
12
12
12
12
12
12
12
12
12
12
12
12
12
12
12
12
12
12
12
12
12
12
12
12
12
12
12
12
12
12
12
12
12
12
12
12
12
12
12
12
12
12
12
12
12
12
12
12
12
12
12
12
12
12
12
12
12
12
12
12
12
12
12
12
12
12
12
12
12
12
12
12
12
12
12
12
12
12
12
12
12
12
12
12
12
12
12
12
12
12
12
12
12
12
12
12
12
12
12
12
12
12
12
12
12
12
12
12
12
12
12
12
12
12
12
12
12
12
12
12
12
12
12
12
12
12
12
12
12
12
12
12
12
12
12
12
12
12
12
12
12
12
12
12
12
12
12
12
12
12
12
12
12
12
12
12
12
12
12
12
12
12
12
12
12
12
12
12
12
12
12
12
12
12
12
12
12
12
12
12
12
12
12
12
12
12
12
12
12
12
12
12
12
12
12
12
12
12
12
12
12
12
12
12
12
12
12
12
12
12
12
12
12
12
12
12
12
12
12
12
12
12
12
12
12
12
12
12
12
12
12
12
12
12
12
12
12
12
12
12
12
12
12
12
12
12
12
12
12
12
12
12
12
12
12
12
12
12
12
12
12
12
12
12
12
12
12
12
12
12
12
12
12
12
12
12
12
12
12
12
12
12
12
12
12
12
12
12
12
12
12
12
12
12
12
12
12
12
12
12
12
12
12
12
12
12
12
12
12
12
12
12
12
12
12
12
12
12
12
12
12
12
12
12
12
12
12
12
12
12
12
12
12
12
12
12
12
12
12
12
12
12
12
12
12
12
12
12
12
12
12
12
12
12
12
12
12
12
12
12
12
12
12
12
12
12
12
12
12
12
12
12
12
12
12
12
12
12
12
12
12
12
12
12
12
12
12
12
12
12
12
12
12
12
12
12
12
12
12
12
12
12
12
12
12
12
12
12
12
12
12
12
12
12
12
12
12
12
12
12
12
12
12
12
12
12
12
12
12
12
12
12
12
12
12
12
12
12
12
12
12
12
12
12
12
12
12
12
12
12
12
12
12
12
12
12
12
12
12
12
12
12
12
12
12
12
12
12
12
12
12
12
12
12
12
12
12
12
12
12
12
12
12
12
12
12
12
12
12
12
12
12
12
12
12
12
12
12
12
12
12
12
12
12
12
12
12
12
12
12
12
12
12
12
12
12
12
12
12
12
12
12
12
12
12
12
12
12
12
12
12
12
12
12
12
12
12
12
12
12
12
12
12
12
12
12
12
12
12
12
12
12
12
12
12
12
12
12
12
12
12
12
12
12
12
12
12
12
12
12
12
12
12
12
12
12
12
12
12
12
12
12
12
12
12
12
12
12
12
12
12
12
12
12
12
12
12
12
12
12
12
12
12
12
12
12
12
12
12
12
12
12
12
12
12
12
12
12
12
12
12
12
12
12
12
12
12
12
12
12
12
12
12
12
12
12
12
12
12
12
12
12
12
12
12
12
12
12
12
12
12
12
12
12
12
12
12
12
12
12
12
12
12
12
12
12
12
12
12
12
12
12
12
12
12
12
12
12
12
12
12
12
12
12
12
12
12
12
12
12
12
12
12
12
12
12
12
12
12
12
12
12
12
12
12
12
12
12
12
12
12
12
12
12
12
12
12
12
12
12
12
12
12
12
12
12
12
12
12
12
12
12
12
12
12
12
12
12
12
12
12
12
12
12
12
12

POINT_DATA 3012
SCALARS Jp_lamdaP float 4
LOOKUP_TABLE default
0.999317 1 1 0.999317
1 1 1 1
0.999339 1 1 0.999339
0.999264 1 1 0.999264
0.99932 1 1 0.99932
0.999283 1 1 0.999283
1.0201 1.02206 1 0.99808
1 1 1 1
1 1 1 1
1 1 1 1
0.999342 1 1 0.999342
1.01601 1.01805 1 0.998003
0.999341 1 1 0.999341
0.99931 1 1 0.99931
0.999349 1 1 0.999349
0.999307 1 1 0.999307
0.999297 1 1 0.999297
0.999353 1 1 0.999353
1.01994 1.02191 1 0.998073
1 1 1 1
0.999259 1 1 0.999259
0.999295 1 1 0.999295
1.01213 1.01414 1 0.998016
1.01723 1.01918 1 0.998085
0.999265 1 1 0.999265
1.02132 1.02332 1 0.998045
1.05502 1.05896 1 0.996279
0.999999 1 1 0.999999
0.999666 1 1 0.999666
0.999676 1 1 0.999676
0.999999 1 1 0.999999
1.01374 1.01576 1 0.99801
0.999323 1 1 0.999323
0.99935 1 1 0.99935
1.01822 1.01993 1 0.998324
1 1 1 1
1.01996 1.02163 1 0.998368
1.00802 1.00978 1.00022 0.998032
1.04018 1.04426 1 0.996093
1 1 1 1
1 1 1 1
0.999659 1 1 0.999659
1 1 1 1
0.999339 1 1 0.999339
1.00284 1.00492 1 0.997931
1 1 1 1
1.00902 1.01079 1 0.998258
0.999344 1 1 0.999344
0.999378 1 1 0.999378
0.999303 1 1 0.999303
1.01987 1.02184 1 0.998073
0.999643 1 1 0.999643
0.999298 1 1 0.999298
0.999279 1 1 0.999279
0.999335 1 1 0.999335
1.01186 1.01389 1 0.998003
1.02123 1.02323 1 0.998041
1.01704 1.01899 1 0.998078
1.05584 1.05979 1 0.996276
1 1 1 1
0.999287 1 1 0.999287
1.00389 1.00553 1 0.998371
1.0092 1.01121 1 0.998012
1.01454 1.01652 1 0.998054
1.05377 1.05778 1 0.9962
1.05556 1.05953 1 0.99625
0.999274 1 1 0.999274
1.01173 1.01369 1 0.998063
1.05401 1.05795 1 0.996274
1.07467 1.0795 1 0.995521
1 1 1 1
1 1 1 1
1 1 1 1
1.01162 1.01363 1 0.998016
1 1 1 1
1 1 1 1
1.01832 1.02039 1 0.99797
0.999725 1 1 0.999725
1.01906 1.02107 1 0.998032
1.00625 1.00746 1.00053 0.998278
1.0441 1.04821 1 0.996087
1 1 1 1
1.00454 1 1.00538 0.999164
1.01588 1.01803 1 0.997886
1.01926 1.02132 1 0.997985
1.06068 1.06506 1 0.995889
1.00307 1.00276 1.00161 0.998705
1.05304 1.0572 1 0.996072
1.03308 1.03621 1.00075 0.996232
1.06952 1.07447 1 0.995394
1 1 1 1
1 1 1 1
1 1 1 1
1 1 1 1
1 1 1 1
0.999671 1 1 0.999671
1.00368 1.00555 1 0.998139
0.999654 1 1 0.999654
1.01022 1.01216 1 0.998082
1 1 1 1
1.00177 1.00378 1 0.997989
1.00555 1.00728 1 0.998285
1.05227 1.05654 1 0.995961
1.01327 1.01502 1 0.998282
1.05947 1.06381 1 0.995921
0.999366 1 1 0.999366
0.999333 1 1 0.999333
0.999287 1 1 0.999287
0.99937 1 1 0.99937
1.01159 1.01363 1 0.997993
1.01685 1.01881 1 0.998074
1.02077 1.02277 1 0.998042
1.05704 1.06099 1 0.996272
1 1 1 1
0.999322 1 1 0.999322
1.00342 1.00538 1 0.998043
1.00889 1.01091 1 0.997997
0.999645 1 1 0.999645
1.01348 1.0152 1.00012 0.998181
1.01431 1.0163 1 0.998045
1.05424 1.05826 1 0.996202
1.05385 1.0578 1 0.99627
1.05645 1.06042 1 0.996254
1.07391 1.07873 1 0.995531
1.00263 1.00462 1 0.998011
1.00613 1.0081 1 0.998047
1.04912 1.05322 0.999787 0.996315
1.05174 1.05571 1 0.996232
1.05481 1.0588 1 0.996231
1.08722 1.09301 0.998895 0.9958
1 1 1 1
1.07992 1.08466 1 0.995624
1.00254 1.00353 1.00093 0.998097
1.04605 1.05016 1 0.99608
1.0703 1.07523 1 0.995412
1.07658 1.08173 0.999514 0.995727
1.00262 1.00001 1.00395 0.99867
1.01141 1.00194 1.01227 0.997211
1 1 1 1
1 1 1 1
1.01871 1.02078 1 0.997973
1 1 1 1
1.00403 1.00496 1.00094 0.998136
1.01868 1.02068 1 0.998038
1.04748 1.0516 1 0.99608
1 1 1 1
1.00509 1 1.00591 0.999188
1.01674 1.01868 1 0.998093
1.01977 1.02163 1 0.998176
1.05981 1.06419 1 0.995885
1.00252 1.00183 1.00221 0.99848
1.05265 1.0568 1 0.99607
1.03354 1.03685 1.00058 0.996227
1.06867 1.07359 1 0.995414
1.00313 1.00034 1.00397 0.99883
1.00637 1 1.00694 0.999431
1.01316 1.00385 1.01163 0.997662
1.06077 1.06519 1 0.995856
1.05984 1.06412 1 0.995979
1.08431 1.08925 0.99991 0.995556
1.02483 1.02568 1.00254 0.996642
1.06886 1.0736 1 0.995585
1.05795 1.06211 1.00072 0.99536
1.0782 1.08313 1 0.995448
1 1 1 1
1 1 1 1
1 1 1 1
1.00402 1 1.00509 0.998935
1 1 1 1
1 1 1 1
1 1 1 1
1.01121 1.01333 1 0.997914
1.0041 1.00614 1 0.997975
1 1 1 1
1 1 1 1
1.00198 1.004 1 0.997989
1.00634 1.00825 1 0.998114
1.05177 1.05603 1 0.995963
1.0138 1.01593 1 0.997899
1.0575 1.06183 1 0.995919
1.00176 1.00377 1 0.997997
1.04962 1.05389 1 0.995948
1.05568 1.05997 1 0.99596
1.08656 1.09413 0.997063 0.996004
1.06073 1.06512 1 0.995873
1.08645 1.09333 0.997788 0.995918
1 1 1 1
0.999359 1 1 0.999359
1.00288 1.00522 1 0.997672
1.00859 1.01063 1 0.997983
1 1 1 1
1.01538 1.01711 1 0.998304
1.0141 1.01609 1 0.998038
1.05465 1.05866 1 0.996203
1.05744 1.06141 1 0.996258
1.05298 1.05692 1 0.996267
1.07247 1.07727 1 0.995542
1.00231 1.00431 1 0.998009
1.00589 1.00787 1 0.998032
1.04963 1.05397 0.999721 0.996161
1.05274 1.05673 1 0.996216
1 1 1 1
1.0055 1.00678 1.00047 0.998257
1.04294 1.04662 1.00028 0.996208
1.05533 1.05934 1 0.99622
1.0854 1.09192 0.998175 0.995839
1.06992 1.07484 1 0.995417
1.08003 1.08476 1 0.995645
1.07619 1.08138 0.999466 0.995735
1.00234 1.00024 1.00344 0.998656
1.01128 1.00375 1.01033 0.997205
1.04838 1.05263 1 0.995961
1.05075 1.05496 0.99973 0.996286
1.08616 1.09281 0.997943 0.995958
1.08613 1.09335 0.997463 0.995919
1.08239 1.08888 0.998245 0.995779
1.07898 1.09082 0.992977 0.996138
1.0016 1.00093 1.00231 0.998371
1.07731 1.0849 0.997035 0.995955
1.03544 1.0387 1.0006 0.996269
1.06865 1.07368 1 0.995319
1.07681 1.08172 1 0.995459
1.07189 1.08119 0.995273 0.996104
1.01179 1.00876 1.00622 0.996805
1.01116 1.00033 1.01314 0.997715
1.01504 1.0112 1.00746 0.996359
1.01719 1.0193 1 0.997926
1 1 1 1
1.00514 1 1.00593 0.999212
1.01979 1.02181 1 0.998023
1.05912 1.0635 1 0.995881
1.00217 1.00102 1.00268 0.998479
1.03529 1.03881 1.00039 0.996223
1.05185 1.056 1 0.996069
1.06918 1.07408 1 0.995435
1.00338 1.00021 1.00432 0.998856
1.00569 1 1.00624 0.99945
1.01138 1.00207 1.01166 0.997663
1.05969 1.06411 1 0.995849
1.05825 1.06252 1 0.995978
1.08417 1.08907 0.999948 0.99555
1.02066 1.02196 1.00209 0.996643
1.07024 1.075 1 0.995576
1.06226 1.06657 1.00062 0.995345
1.07858 1.08348 1 0.995478
1.00501 1 1.0054 0.999618
1.01522 1.01134 1.00672 0.997135
1.01412 1.0006 1.01541 0.998134
1.01449 1.01165 1.00579 0.997037
1.0859 1.09159 0.999131 0.995652
1.07748 1.0823 1 0.995546
1.08042 1.08879 0.996548 0.995754
1.03846 1.03908 1.00376 0.995663
1.0726 1.07733 0.99983 0.99578
1.06721 1.07065 1.00158 0.995224
1.09142 1.09629 1 0.995556
1.00185 1 1.00269 0.999166
1.00027 1 1.00044 0.999823
1 1 1 1
1 1 1 1
1 1 1 1
1.00444 1 1.0052 0.99924
1 1 1 1
1.0042 1 1.00529 0.998913
1 1 1 1
1.01488 1.01702 1 0.9979
1.00725 1.00932 1 0.997948
1.05598 1.06031 1 0.995917
1.05132 1.05558 1 0.995964
1.00225 1.00426 1 0.997991
1 1 1 1
1.00172 1.00373 1 0.997996
1.04961 1.05388 1 0.995949
1.05479 1.05907 1 0.995959
1.0865 1.09403 0.997101 0.996002
1.05933 1.06372 1 0.995868
1.08781 1.09463 0.997841 0.995916
1.04825 1.05251 1 0.995948
1.08635 1.09383 0.997161 0.995985
1.08695 1.09415 0.997424 0.995987
1.07404 1.08688 0.991776 0.996376
1.0862 1.09273 0.998224 0.995794
1.07774 1.09102 0.991553 0.996241
1.00208 1.00408 1 0.998008
1.00565 1.00764 1 0.998016
1.05014 1.05474 0.999622 0.996008
1.05378 1.0578 1 0.996199
1 1 1 1
1.00831 1.00959 1.00032 0.998424
1.04043 1.04389 1.00035 0.996334
1.05584 1.05986 1 0.99621
1.08368 1.09096 0.997435 0.995877
1.08003 1.08473 1 0.995666
1.07095 1.07588 1 0.995421
1.07623 1.08145 0.999427 0.995744
1.00224 1.0005 1.0031 0.998641
1.01248 1.00565 1.00962 0.997199
1.04864 1.053 0.999879 0.995981
1.05147 1.05556 0.999846 0.996279
1.08546 1.0925 0.997552 0.995987
1.08591 1.09259 0.998002 0.995877
1.00168 1.00153 1.0018 0.998357
1.03357 1.0368 1.00062 0.996271
1.0713 1.07634 1 0.995325
1.08324 1.08904 0.998915 0.99575
1.07866 1.09131 0.992192 0.996193
1.07635 1.08125 1 0.995474
1.077 1.08469 0.996933 0.995956
1.07202 1.08143 0.995195 0.996087
1.01491 1.01201 1.00608 0.996803
1.01564 1.0099 1.00937 0.996355
1.01306 1.00046 1.01491 0.997719
1.08621 1.09287 0.997954 0.995948
1.08615 1.09352 0.997284 0.99597
1.07383 1.0851 0.99328 0.996305
1.07689 1.09038 0.991367 0.996232
1.07695 1.08869 0.993078 0.99612
1.07053 1.08943 0.986103 0.996492
1.01942 1.02151 1.00143 0.996531
1.06751 1.08445 0.988032 0.996297
1.06236 1.06723 1 0.995437
1.07287 1.07812 1 0.995124
1.07106 1.07632 0.999487 0.99562
1.06316 1.07882 0.989074 0.996377
1.01628 1.00296 1.01522 0.998079
1.02596 1.02297 1.00694 0.996013
1.01419 1.00111 1.01632 0.996804
1.02356 1.01815 1.00944 0.995906
1.0587 1.06312 1 0.995843
1.0055 1 1.00604 0.999467
1.00374 1 1.00486 0.998882
1.01176 1.0009 1.01322 0.997663
1.057 1.06127 1 0.995978
1.08393 1.0888 0.999989 0.995545
1.01447 1.01628 1.00158 0.996645
1.06286 1.06736 1.00046 0.995329
1.07166 1.07643 1 0.995566
1.07682 1.08168 1 0.995508
1.00418 1 1.00455 0.999632
1.01187 1.00751 1.0072 0.99715
1.01502 1.00073 1.01618 0.998131
1.01271 1.00887 1.00679 0.997039
1.08634 1.09189 0.999266 0.995645
1.0781 1.08293 1 0.995543
1.08021 1.08857 0.996555 0.995753
1.0378 1.03819 1.00398 0.995659
1.07154 1.07632 0.999814 0.995746
1.0632 1.06648 1.00173 0.99521
1.09112 1.09587 1 0.995669
1.00182 1 1.00208 0.999735
1.01222 1 1.01375 0.99849
1.02042 1.01953 1.00454 0.996354
1.01769 1.00562 1.01464 0.997393
1.01258 1.01181 1.00394 0.996832
1.07957 1.09222 0.992493 0.995898
1.0767 1.08228 0.999115 0.995725
1.07097 1.08498 0.991102 0.995946
1.03304 1.03482 1.00298 0.995316
1.07675 1.08285 0.998484 0.995876
1.05291 1.0571 1.00086 0.995175
1.00335 1 1.00436 0.998995
1.00674 1 1.00833 0.998423
0.999701 1 1.00039 0.999312
1.00093 1 1.00176 0.999169
0.999894 1 1 0.999894
1.0001 1 1.00027 0.999836
0.999992 1 1 0.999992
1 1 1 1
1 1 1 1
1.00251 1 1.00297 0.999535
1 1 1 1
1.00458 1 1.00537 0.999215
1 1 1 1
1.00367 1 1.00479 0.998891
1 1 1 1
1.05763 1.06202 1 0.995862
1.05361 1.05789 1 0.995959
1.0888 1.09554 0.99793 0.995914
1.08637 1.09386 0.997143 0.996001
1.04953 1.0538 1 0.99595
1.00157 1.00358 1 0.997995
1.04845 1.05271 1 0.995948
1.08611 1.09361 0.997149 0.995985
1.08702 1.09427 0.997375 0.995986
1.07352 1.08704 0.991142 0.996392
1.08723 1.09362 0.998357 0.99579
1.07743 1.09059 0.991661 0.996241
1.08594 1.09319 0.997383 0.995973
1.07307 1.08668 0.991048 0.996401
1.07587 1.08826 0.992249 0.996336
1.0752 1.0924 0.987622 0.99659
1.07729 1.09216 0.990268 0.996086
1.07503 1.09584 0.984404 0.996558
1.04876 1.05324 0.999744 0.996
1.05222 1.05617 0.999988 0.996273
1.08482 1.09221 0.99721 0.996016
1.08558 1.09172 0.998535 0.995836
1.00211 1.00241 1.00136 0.998344
1.0328 1.03577 1.00086 0.996273
1.07437 1.07941 1 0.995331
1.0841 1.08919 0.999605 0.99572
1.07829 1.09171 0.991422 0.996248
1.0766 1.08442 0.996817 0.995958
1.07554 1.08041 1 0.995489
1.07192 1.08152 0.995035 0.996069
1.01811 1.01564 1.00566 0.9968
1.01464 1.00891 1.00936 0.996351
1.01338 1.00078 1.01491 0.997723
1.08573 1.0925 0.99783 0.995965
1.08547 1.09303 0.997107 0.995968
1.07347 1.08553 0.992511 0.99635
1.07752 1.09044 0.991914 0.996206
1.02456 1.02618 1.0019 0.996534
1.06252 1.06737 1.00002 0.995441
1.07292 1.07814 1.00003 0.99513
1.07735 1.08837 0.993782 0.996067
1.0703 1.08982 0.985495 0.996537
1.0718 1.07699 0.999604 0.995581
1.06787 1.08484 0.98802 0.996297
1.06299 1.07927 0.98846 0.996416
1.02437 1.02314 1.00521 0.996016
1.02015 1.01566 1.00861 0.995848
1.01354 1.00238 1.01307 0.998083
1.01201 1.0013 1.01387 0.996868
1.07353 1.08539 0.992689 0.996355
1.0764 1.08886 0.992257 0.996268
1.07045 1.08728 0.987967 0.996507
1.06809 1.09093 0.982429 0.996572
1.0685 1.08765 0.985887 0.996453
1.07212 1.09512 0.982237 0.996697
1.04307 1.04641 1.00112 0.995686
1.05987 1.08421 0.980834 0.996654
1.05684 1.062 1 0.995145
1.06635 1.07148 1.00018 0.995035
1.06849 1.07602 0.997324 0.995666
1.06495 1.08303 0.986813 0.996445
1.01298 1.00367 1.01099 0.998294
1.02292 1.00926 1.01646 0.997127
1.02654 1.02791 1.00307 0.995612
1.01332 1.00508 1.01179 0.996454
1.01997 1.01293 1.01132 0.995677
1.003 1 1.00336 0.999646
1.08679 1.09221 0.999398 0.995639
1.01419 1.00083 1.01524 0.998128
1.00912 1.00416 1.0078 0.997166
1.01001 1.00574 1.00723 0.99704
1.07865 1.08348 1 0.99554
1.07995 1.0883 0.996562 0.995752
1.04092 1.04244 1.0029 0.995655
1.06282 1.06589 1.00193 0.995196
1.07085 1.07568 0.9998 0.995713
1.09175 1.09637 1 0.995782
1.00106 1 1.00131 0.999746
1.01295 1 1.01447 0.9985
1.01937 1.01888 1.00413 0.996367
1.01753 1.00471 1.01542 0.997381
1.01381 1.01236 1.00473 0.996715
1.07933 1.09201 0.992468 0.995894
1.07643 1.08205 0.99908 0.995726
1.07014 1.08433 0.99095 0.995935
1.03392 1.0359 1.00279 0.995312
1.08135 1.08742 0.998562 0.995846
1.05339 1.05742 1.00096 0.995231
1.00672 1 1.00795 0.998781
1.01675 1.00197 1.01708 0.99771
1.01154 1.01379 1.00183 0.995956
1.02379 1.01358 1.01311 0.996998
1.02135 1.0211 1.00377 0.996489
1.07343 1.09325 0.985684 0.99613
1.07099 1.07904 0.996641 0.995882
1.06094 1.07922 0.986853 0.996161
1.00919 1.01013 1.00379 0.995304
1.04875 1.05385 0.999865 0.995291
1.00348 1 1.00449 0.998998
1.0066 1 1.00835 0.998272
1.00715 1 1.00876 0.998404
1.00641 1 1.00821 0.998218
1.00306 1 1.00452 0.998553
0.999417 1 1.00002 0.9994
0.999867 1 1.00055 0.999316
0.999939 1 1 0.999939
1.00079 1 1.00162 0.999171
0.999908 1 1 0.999908
1 1 1 1
0.99987 1 1.00002 0.999849
0.999996 1 1 0.999996
1 1 1 1
1.00186 1 1.00213 0.999737
1.00367 1 1.00416 0.99952
1 1 1 1
1 1 1 1
1.00536 1 1.00617 0.999189
1 1 1 1
1.08842 1.09469 0.998479 0.995786
1.08738 1.09472 0.997299 0.995984
1.07725 1.0903 0.991765 0.996241
1.07308 1.08727 0.990508 0.996408
1.08586 1.09337 0.997135 0.995986
1.04884 1.05311 1 0.995948
1.08575 1.093 0.997383 0.995974
1.07325 1.08658 0.991303 0.996396
1.07607 1.08847 0.992249 0.996336
1.07422 1.09219 0.986884 0.996617
1.07712 1.09213 0.990133 0.996082
1.07501 1.09595 0.984256 0.99658
1.0732 1.08617 0.991652 0.996372
1.07385 1.09236 0.986437 0.996574
1.07551 1.09348 0.986883 0.996644
1.0766 1.10008 0.981867 0.996733
1.07449 1.09589 0.984034 0.996381
1.07942 1.10381 0.98107 0.996773
1.08531 1.09218 0.997718 0.995982
1.08474 1.09252 0.9969 0.995967
1.07303 1.08592 0.991708 0.996394
1.07817 1.09052 0.992468 0.996181
1.02786 1.02882 1.00254 0.996538
1.05974 1.06459 1 0.995445
1.07234 1.07739 1.00018 0.995136
1.07772 1.08804 0.994477 0.996013
1.07015 1.09022 0.984959 0.996582
1.06839 1.08536 0.988024 0.996297
1.07262 1.07765 0.99979 0.995543
1.0628 1.07968 0.987866 0.996456
1.02418 1.02225 1.00589 0.996019
1.01887 1.0125 1.01055 0.99579
1.01247 1.00197 1.01241 0.998086
1.0103 1.00181 1.01158 0.996931
1.07375 1.0856 0.992704 0.996355
1.07615 1.08862 0.992266 0.996252
1.06994 1.08706 0.987666 0.996536
1.06939 1.09124 0.983365 0.996555
1.04205 1.04334 1.00308 0.995685
1.05579 1.06089 1.00003 0.995168
1.06577 1.07069 1.00039 0.995022
1.06935 1.08788 0.986517 0.996405
1.06976 1.09367 0.981326 0.996752
1.06677 1.07396 0.997641 0.995652
1.06094 1.08528 0.980851 0.996654
1.06321 1.08193 0.986124 0.99652
1.02651 1.02639 1.00452 0.99562
1.01795 1.01114 1.01113 0.995661
1.01578 1.0047 1.01462 0.996454
1.01278 1.00247 1.01203 0.998277
1.01883 1.00456 1.0171 0.997158
1.07255 1.0908 0.986673 0.996552
1.07285 1.09363 0.984393 0.996557
1.06875 1.09965 0.975087 0.996737
1.06509 1.09082 0.979594 0.996747
1.03659 1.04137 1.00002 0.995394
1.06199 1.08805 0.979161 0.99682
1.03803 1.04301 1.00029 0.99494
1.05558 1.06094 1.00003 0.994914
1.0625 1.07526 0.992418 0.995678
1.00754 1 1.00888 0.998669
1.01841 1.0004 1.02056 0.997494
1.02115 1.013 1.01126 0.996825
1.01874 1.01778 1.00545 0.995523
1.02078 1.00613 1.0187 0.995939
1.01967 1.00933 1.01476 0.995542
1.00056 1 1.00081 0.999756
1.01404 1 1.01556 0.99851
1.07902 1.09173 0.992444 0.995891
1.01844 1.00338 1.01768 0.997368
1.01753 1.01603 1.00511 0.996381
1.01592 1.01373 1.00559 0.996599
1.07589 1.08154 0.999045 0.995726
1.06952 1.08387 0.990799 0.995924
1.03273 1.03475 1.00275 0.995309
1.05258 1.05675 1.00077 0.995287
1.08623 1.09228 0.998637 0.995817
1.00675 1 1.00798 0.998787
1.0173 1.00081 1.01881 0.997714
1.01675 1.01818 1.00274 0.995867
1.02457 1.01219 1.01528 0.997004
1.02271 1.02253 1.00372 0.996464
1.07213 1.09179 0.985812 0.996126
1.07417 1.08219 0.996716 0.995868
1.06393 1.08265 0.986482 0.996182
1.01166 1.01316 1.00324 0.995289
1.04619 1.05128 0.999912 0.99525
1.01039 1.00016 1.01218 0.998068
1.02211 1.00302 1.0218 0.997297
1.00852 1.01013 1.00261 0.995802
1.03203 1.02291 1.01232 0.996631
1.04277 1.04548 1.00111 0.996303
1.0614 1.09206 0.975235 0.996612
1.07569 1.08567 0.995101 0.995685
1.07268 1.08839 0.98943 0.996093
1.01433 1.0147 1.00433 0.995328
1.02047 1.02558 1 0.995016
1.00308 1 1.00409 0.999001
1.00591 1 1.00765 0.998276
1.00134 1 1.00311 0.998237
1.0052 1 1.00683 0.998384
1.00234 1 1.0038 0.998549
1.00756 1 1.00936 0.998216
1.00269 1 1.0044 0.998303
1.00654 1 1.0084 0.998158
1.00001 1 1.00137 0.998642
0.999405 1 1 0.999405
0.9994 1 1 0.9994
0.999968 1 1 0.999968
0.999586 1 1.00027 0.99932
0.999948 1 1 0.999948
1 1 1 1
0.999921 1 1 0.999921
0.999999 1 1 0.999999
1 1 1 1
1.00022 1 1.00036 0.999868
1.00177 1 1.00206 0.999716
1 1 1 1
1.00394 1 1.00444 0.999504
1 1 1 1
1 1 1 1
1.07693 1.0921 0.989992 0.996078
1.07609 1.08847 0.99226 0.996337
1.07498 1.09609 0.984084 0.996603
1.07317 1.09194 0.986117 0.996644
1.07346 1.0865 0.991569 0.996391
1.08548 1.09272 0.997385 0.995974
1.07345 1.08612 0.991951 0.996356
1.0744 1.09235 0.986958 0.996567
1.07509 1.0929 0.987035 0.99663
1.07437 1.09896 0.980818 0.996742
1.07477 1.0959 0.984279 0.996383
1.07651 1.10217 0.979846 0.996808
1.07482 1.09225 0.987449 0.996546
1.07774 1.10261 0.980647 0.996737
1.07632 1.10276 0.979144 0.996816
1.07041 1.10336 0.97325 0.996805
1.07401 1.08585 0.99272 0.996354
1.07597 1.08842 0.99229 0.996237
1.06953 1.08694 0.987373 0.996564
1.07073 1.09161 0.984282 0.996538
1.04278 1.04374 1.00341 0.995684
1.05597 1.06107 1 0.995192
1.06503 1.06975 1.00058 0.995009
1.07006 1.08802 0.987085 0.996357
1.06738 1.09222 0.980383 0.996807
1.06175 1.08608 0.980883 0.996653
1.06505 1.07201 0.997857 0.995638
1.06248 1.08159 0.985688 0.996594
1.0233 1.02301 1.00468 0.995628
1.01472 1.00994 1.00913 0.995645
1.01913 1.00489 1.01778 0.996453
1.01048 1.00171 1.01051 0.998265
1.01566 1.00068 1.01783 0.99719
1.07234 1.09054 0.986716 0.996553
1.07349 1.09421 0.984461 0.996554
1.06986 1.09908 0.976607 0.996731
1.03641 1.04099 1.00021 0.995393
1.03881 1.04379 1.00026 0.99497
1.05367 1.05863 1.00042 0.994903
1.06534 1.09055 0.980087 0.996735
1.06416 1.07695 0.992283 0.995811
1.05917 1.08544 0.97895 0.996787
1.00745 1 1.00872 0.99874
1.01558 1.01457 1.0055 0.995521
1.01895 1.00783 1.01547 0.995626
1.02415 1.00872 1.01946 0.995922
1.02234 1.01282 1.01258 0.996857
1.02125 1.00405 1.01974 0.997444
1.07652 1.10051 0.981521 0.996619
1.07385 1.10649 0.973712 0.996696
1.06271 1.09866 0.970374 0.996802
1.0552 1.09092 0.970236 0.996932
1.02066 1.0252 1.00031 0.995268
1.05265 1.07369 0.983972 0.996373
1.02289 1.02671 1.00165 0.994642
1.03955 1.04631 0.998736 0.994798
1.00148 1 1.00229 0.999193
1.01642 1 1.01846 0.998
1.01807 1.00694 1.01395 0.997142
1.02889 1.00956 1.02294 0.996288
1.01168 1.00595 1.0102 0.995552
1.02471 1.00751 1.02183 0.995347
1.00672 1 1.00794 0.998793
1.01689 1 1.01922 0.997718
1.07085 1.09035 0.985937 0.996122
1.02354 1.01017 1.01627 0.99701
1.02182 1.02278 1.0033 0.995778
1.02241 1.02254 1.00345 0.996438
1.07751 1.08548 0.996794 0.995853
1.0666 1.08583 0.986038 0.996202
1.01468 1.01672 1.00273 0.995274
1.04343 1.04833 1.00012 0.99521
1.01023 1.00011 1.01206 0.998076
1.02202 1.0028 1.02198 0.997251
1.00909 1.0104 1.00292 0.995794
1.03208 1.02419 1.01113 0.996616
1.04799 1.05126 1.00056 0.996329
1.06429 1.09463 0.975542 0.996658
1.07548 1.08539 0.995101 0.99574
1.07326 1.08817 0.990079 0.996186
1.01659 1.01674 1.00458 0.995291
1.0195 1.02468 1.00003 0.994912
1.0073 1 1.00945 0.997873
1.02185 1.00329 1.02155 0.997008
1.02614 1.02651 1.00378 0.995871
1.04045 1.04125 1.00301 0.996236
1.06425 1.1193 0.953779 0.996892
1.05971 1.08882 0.976541 0.996648
1.05588 1.06211 0.998932 0.995189
1.028 1.02887 1.00426 0.994922
1.00554 1 1.00727 0.99828
1.00258 1 1.00437 0.998217
1.00058 0.999511 1.0026 0.998482
1.00331 1 1.00477 0.998546
1.00981 1 1.01162 0.998214
1.00018 1 1.00154 0.998635
1.00255 0.999711 1.00451 0.99834
1.00842 1 1.01027 0.99817
1.00021 1 1.0016 0.998611
1.00837 1 1.01032 0.998073
1.00371 1 1.00561 0.998115
0.999287 1 1.00069 0.998601
0.999359 1 1 0.999359
0.999402 1 1 0.999402
0.999981 1 1 0.999981
0.9994 1 1 0.9994
0.999972 1 1 0.999972
1 1 1 1
0.999957 1 1 0.999957
1 1 1 1
0.999998 1 1 0.999998
0.999938 1 1 0.999938
1.0014 1 1.00156 0.999844
1 1 1 1
1.00328 1 1.00359 0.999696
1 1 1 1
1 1 1 1
1.07495 1.09581 0.984523 0.996386
1.07477 1.0924 0.987201 0.996617
1.07369 1.10058 0.978658 0.996843
1.07224 1.09792 0.979791 0.996751
1.07494 1.09231 0.987492 0.99656
1.07369 1.08607 0.992232 0.996339
1.07439 1.09203 0.987249 0.996548
1.07698 1.1018 0.980686 0.996727
1.07559 1.10229 0.978899 0.99681
1.06996 1.10282 0.973301 0.996818
1.07937 1.10314 0.981707 0.996683
1.07495 1.10798 0.973225 0.996881
1.07749 1.11453 0.96977 0.996897
1.07207 1.0902 0.986767 0.996554
1.0741 1.09473 0.984553 0.99655
1.07085 1.09848 0.978048 0.996725
1.03716 1.04127 1.00066 0.995393
1.03863 1.04367 1.00018 0.994998
1.05227 1.05693 1.00071 0.994892
1.06577 1.09051 0.980526 0.996722
1.05588 1.0828 0.97831 0.996754
1.0658 1.07877 0.992007 0.995944
1.0136 1.01168 1.0064 0.995518
1.01631 1.0061 1.0145 0.995712
1.02634 1.01103 1.01931 0.995906
1.00858 1 1.00978 0.998812
1.02003 1.01094 1.01214 0.996888
1.02421 1.00681 1.01995 0.997391
1.07783 1.10129 0.982007 0.996628
1.07267 1.10645 0.97268 0.996698
1.0632 1.09853 0.970953 0.996794
1.01988 1.02432 1.00041 0.995259
1.02194 1.02594 1.0014 0.994718
1.04247 1.04958 0.998299 0.994917
1.05626 1.09143 0.970751 0.996932
1.04948 1.07119 0.98332 0.996347
1.00211 1 1.00283 0.999284
1.01539 1 1.01743 0.997993
1.00907 1.00506 1.00846 0.995574
1.02768 1.00722 1.02487 0.995547
1.02681 1.01023 1.02017 0.996309
1.02012 1.01011 1.01284 0.997106
1.07478 1.10881 0.972428 0.996795
1.06411 1.11294 0.959231 0.996763
1.05662 1.09853 0.964769 0.996976
1.03905 1.07302 0.97134 0.996914
1.00429 1.00781 1.00133 0.99518
1.03289 1.04931 0.988889 0.995409
1.01783 1.02071 1.00264 0.994552
0.999557 1 1 0.999557
0.999454 1 1.00051 0.998945
1.0086 1 1.01011 0.998503
1.01189 1 1.0145 0.997432
1.01427 1 1.01754 0.996782
1.03593 1.01456 1.02531 0.995852
1.00908 1.00206 1.01115 0.995908
1.04893 1.00546 1.04725 0.996164
1.0107 1 1.01264 0.998084
1.02402 1.00314 1.02368 0.997203
1.06753 1.09749 0.975923 0.996705
1.035 1.02806 1.01018 0.996601
1.00966 1.01038 1.00351 0.995786
1.05273 1.0563 1.00026 0.996356
1.07526 1.08512 0.9951 0.995795
1.07405 1.08812 0.990752 0.99628
1.01818 1.01813 1.00482 0.995255
1.01822 1.02354 1 0.994807
1.00866 1.00007 1.01081 0.9978
1.02026 1.00329 1.02001 0.99696
1.033 1.033 1.00415 0.995867
1.03844 1.03998 1.00228 0.996258
1.06538 1.12111 0.953236 0.996911
1.0664 1.09334 0.978695 0.996592
1.05139 1.05783 0.998651 0.995254
1.02952 1.03094 1.00377 0.994873
1.00632 0.999319 1.00918 0.997844
1.07626 1.13148 0.954126 0.996937
1.01282 1.00373 1.01247 0.996629
1.03313 1.03436 1.00315 0.995677
1.04239 1.10015 0.950302 0.997054
1.04185 1.05169 0.995296 0.995322
1.01976 1.02198 1.00323 0.994615
1.00414 1 1.00595 0.998197
0.998861 0.998326 1.00206 0.998474
1.00084 0.997854 1.00427 0.998723
0.999825 1 1.0012 0.998628
1.00924 1 1.01108 0.998183
1.00277 0.999135 1.00527 0.998378
0.999034 1 1.00044 0.998597
1.00389 1 1.00577 0.998127
1.00062 0.999567 1.00239 0.998665
1.00715 1 1.0091 0.998074
0.997555 0.998658 1.00008 0.998815
1.00362 1 1.0052 0.998422
1.0082 1 1.0103 0.99792
0.999151 1 1.00121 0.997946
0.998597 1 1.00011 0.998486
0.99931 1 1 0.99931
0.999354 1 1 0.999354
0.999987 1 1 0.999987
0.999398 1 1 0.999398
0.999983 1 1 0.999983
1 1 1 1
0.999976 1 1 0.999976
1 1 1 1
1 1 1 1
0.999683 1 1.00006 0.999624
0.999969 1 1 0.999969
0.999928 1 1 0.999928
1 1 1 1
1.00118 1 1.00136 0.999821
1 1 1 1
1 1 1 1
1.06938 1.10215 0.97335 0.996831
1.07485 1.10177 0.978696 0.996803
1.07612 1.1009 0.980714 0.996717
1.07402 1.09185 0.987071 0.996549
1.079 1.10319 0.981309 0.996701
1.07455 1.10768 0.97313 0.996872
1.07393 1.11089 0.969739 0.996899
1.07598 1.10994 0.972449 0.996863
1.08594 1.12625 0.967147 0.996962
1.10042 1.1513 0.958479 0.997218
1.07902 1.10198 0.982467 0.996638
1.07164 1.10638 0.971803 0.9967
1.06393 1.09838 0.971762 0.996787
1.02002 1.0244 1.00047 0.99525
1.02205 1.0261 1.00126 0.994798
1.04555 1.05294 0.997937 0.995035
1.0572 1.09142 0.971628 0.996932
1.0459 1.0678 0.983105 0.996322
1.00949 1.00456 1.00936 0.995596
1.03299 1.00796 1.02921 0.995739
1.02592 1.00955 1.01996 0.99633
1.00082 1 1.00145 0.999375
1.01428 1 1.01632 0.997987
1.02287 1.0136 1.01211 0.997071
1.07405 1.10865 0.971894 0.996803
0.999593 1 1.00004 0.99955
0.999934 1 1.00104 0.998895
1.06563 1.11223 0.961215 0.996766
1.05543 1.09714 0.964926 0.996947
1.00557 1.00842 1.00192 0.995258
1.01906 1.02147 1.00307 0.994589
1.02986 1.04602 0.989109 0.995393
1.03805 1.07249 0.970917 0.996881
1.00755 1 1.00896 0.998604
1.01247 1 1.0151 0.997415
1.01011 1.00217 1.0122 0.995777
1.04401 1.0066 1.04115 0.99617
1.03357 1.01115 1.02643 0.995853
1.01449 1.00241 1.01528 0.996825
1.08326 1.1319 0.960011 0.996897
1.04829 1.11112 0.946412 0.996871
1.03941 1.08589 0.959967 0.997121
1.02201 1.04865 0.977942 0.996576
1.00786 1.00487 1.00737 0.99563
1.01644 1.02264 0.999108 0.99483
0.999561 1 1.00073 0.998828
1.00227 1 1.00337 0.998909
1.00058 1.00021 1.00183 0.998543
1.00667 1 1.00893 0.997759
1.01433 1 1.01723 0.997151
1.01006 1.0004 1.01315 0.996543
1.07577 1.00641 1.07311 0.996096
0.993385 1.00049 0.995731 0.997152
1.00839 1 1.01068 0.997728
1.01742 1.00271 1.01781 0.996912
1.06546 1.12122 0.953203 0.99693
1.07259 1.09732 0.98086 0.996537
1.03689 1.03867 1.00202 0.99628
1.0412 1.04093 1.00441 0.995862
1.04734 1.0539 0.998446 0.995319
1.03205 1.03395 1.00335 0.994825
1.00631 0.999046 1.00946 0.997831
1.07722 1.13474 0.952153 0.997019
1.01373 1.00209 1.01495 0.996718
1.02818 1.02957 1.00306 0.9956
1.0433 1.10084 0.950554 0.997035
1.0374 1.04848 0.993975 0.995429
1.02156 1.02351 1.00348 0.994626
1.01553 0.998071 1.01987 0.997672
1.00234 1.07603 0.933971 0.997375
1.00608 0.999908 1.00978 0.996426
1.01011 1.01118 1.00397 0.994998
1.00786 1.04508 0.967715 0.996559
1.00421 1.00708 1.00221 0.994943
0.931506 1.00076 0.934999 0.995503
0.996229 0.996206 1.00156 0.998466
0.998922 0.995069 1.00515 0.998728
1.00145 0.996222 1.00659 0.998668
0.999125 1 1.00053 0.998592
1.00569 1 1.00756 0.99814
1.00593 1 1.00787 0.998075
1.00147 0.999328 1.00343 0.998721
0.998707 1 1.00022 0.998486
0.999783 1 1.00182 0.997966
0.995782 0.996537 1.00046 0.998781
1.00903 1 1.01114 0.997917
1.00402 1 1.00565 0.998379
0.999855 0.995676 1.00543 0.99877
1.008 1 1.01023 0.997796
1.00698 1 1.00912 0.997882
0.998174 1 1.00034 0.997831
0.99837 1 1.00008 0.998291
1.00621 1 1.00819 0.998028
1.0004 1 1.00214 0.998263
0.999291 1 1 0.999291
0.999306 1 1 0.999306
0.999993 1 1 0.999993
0.999348 1 1 0.999348
0.999989 1 1 0.999989
1 1 1 1
0.999985 1 1 0.999985
1 1 1 1
1 1 1 1
0.99971 1 1 0.99971
0.999628 1 1 0.999628
0.999987 1 1 0.999987
0.999963 1 1 0.999963
1 1 1 1
1.0004 1 1.00049 0.999918
1 1 1 1
1 1 1 1
1.07063 1.10773 0.96951 0.996901
1.07425 1.10761 0.972933 0.996863
1.07874 1.10335 0.98091 0.99672
1.07571 1.10973 0.972395 0.996861
1.08314 1.12413 0.966488 0.996953
1.10201 1.15142 0.959849 0.997129
1.09461 1.14297 0.960543 0.997029
0.927559 1.01623 0.919134 0.99305
1.04411 1.0987 0.952372 0.997844
0.99957 1 1.00052 0.99905
1.07345 1.10874 0.971266 0.996812
1.06684 1.11135 0.963065 0.996768
1.05381 1.09565 0.964778 0.996918
1.00297 1.00685 1.00082 0.995331
1.02004 1.02203 1.00345 0.994622
1.0269 1.04267 0.989453 0.995375
1.03755 1.07272 0.970271 0.996849
1.00578 1.00221 1.00794 0.995655
1.03733 1.00745 1.03359 0.996188
1.03162 1.00769 1.02801 0.995852
1.00076 1 1.00121 0.999543
1.01417 1.00386 1.01345 0.996865
1.00753 1 1.00884 0.998701
1.01323 1 1.01587 0.997399
1.0004 1 1.00156 0.998845
1.08221 1.13218 0.958829 0.996904
0.999238 1 1.00034 0.998894
1.0031 1 1.00419 0.998913
1.00056 1.00053 1.00152 0.998504
1.05193 1.11155 0.94934 0.996869
1.03644 1.08316 0.95968 0.997069
1.00331 1.0032 1.00446 0.995669
1.01859 1.02462 0.999123 0.994982
1.02191 1.04822 0.978271 0.996557
1.00652 1 1.00872 0.997825
1.01309 1 1.01602 0.997113
1.00432 1.00031 1.00712 0.99691
1.06339 1.0048 1.06249 0.99607
1.01031 1.00355 1.01018 0.996598
1.0577 1.12544 0.942649 0.996988
1.01795 1.09414 0.93313 0.997039
1.02785 1.06069 0.97221 0.996737
1.00629 1.02773 0.982753 0.996325
1.00041 1.00045 1.00332 0.996661
0.99851 1 1.00006 0.998454
1.00417 1.00038 1.00563 0.998173
1.00295 0.999503 1.00513 0.998334
1.01505 1 1.01751 0.997588
1.01385 1 1.01666 0.997235
1.04639 0.999932 1.04974 0.99687
1.02775 1.00297 1.02749 0.997284
1.00694 0.999362 1.00979 0.997816
1.01425 1.00044 1.01705 0.996809
1.07756 1.13906 0.948766 0.997098
1.04495 1.10265 0.950505 0.997013
1.03319 1.0456 0.992562 0.995536
1.02149 1.02332 1.0027 0.995523
1.02247 1.02429 1.0036 0.994639
1.0161 0.998466 1.01991 0.997798
1.00477 1.07804 0.934434 0.997438
1.00324 1.00055 1.00628 0.99643
1.00761 1.00841 1.00424 0.994989
1.00606 1.04257 0.968164 0.996711
1.0053 1.00766 1.00273 0.994944
0.928636 0.998456 0.935614 0.994077
1.01684 0.995475 1.02386 0.997653
0.973557 1.02862 0.948981 0.997358
1.00054 1.00137 1.00312 0.996053
1.00423 1.00253 1.00614 0.995584
0.988368 1.00759 0.984378 0.996492
0.866371 0.969357 0.928824 0.962247
0.83307 0.945196 0.899286 0.980081
0.931871 0.972674 0.961817 0.996084
0.59901 0.765613 0.857992 0.911888
0.5119 0.68961 0.841712 0.881897
0.997748 0.992497 1.00657 0.998733
1.00329 0.99377 1.01087 0.998721
1.00325 0.994959 1.00964 0.998703
0.998486 1 1 0.998486
0.999617 1 1.00163 0.997987
1.00857 1 1.01068 0.997913
1.0035 1 1.00517 0.998336
0.993246 0.994492 1 0.998747
1.00748 1 1.00962 0.997881
0.998333 1 1 0.998333
0.998344 1 1.0005 0.997846
0.999279 0.996482 1.00412 0.998693
1.00808 1 1.01021 0.997888
1.01287 1 1.01497 0.997933
1.01238 0.998589 1.01557 0.998266
1.00732 1 1.00948 0.997869
0.998972 1 1.00128 0.997697
0.998997 1 1.00075 0.998252
1.00232 1 1.00445 0.997878
1.00658 1 1.00851 0.998085
1.00628 1 1.0081 0.998187
1.00587 1 1.00788 0.998003
1.00093 1 1.00252 0.998414
1.00116 1 1.00291 0.998259
0.999288 1 1 0.999288
0.999292 1 1 0.999292
0.999997 1 1 0.999997
0.999301 1 1 0.999301
0.999995 1 1 0.999995
1 1 1 1
0.999991 1 1 0.999991
1 1 1 1
1 1 1 1
0.999796 1 1 0.999796
0.999787 1 1.00008 0.999708
0.999996 1 1 0.999996
0.99979 1 1.00016 0.999633
0.999983 1 1 0.999983
1 1 1 1
0.999958 1 1 0.999958
1 1 1 1
1 1 1 1
1.08015 1.12172 0.965896 0.996944
1.075 1.10905 0.972347 0.99686
1.10609 1.15277 0.962354 0.997042
0.933172 1.01576 0.925042 0.993132
1.09342 1.14298 0.959491 0.997025
1.05116 1.10119 0.956753 0.997718
1.0676 1.11917 0.956658 0.997146
0.88189 0.967758 0.930359 0.979484
0.969463 1.02791 0.948983 0.99384
0.999113 1 1 0.999113
0.999354 1 1.00031 0.999043
0.999542 1 1.00099 0.99855
0.998662 1 1 0.998662
1.08096 1.13247 0.957469 0.996911
1.05529 1.11223 0.951791 0.996868
1.0337 1.08056 0.959493 0.997017
1.00278 1.003 1.00409 0.995707
1.02 1.02668 0.998352 0.995139
1.02084 1.04695 0.978441 0.99654
1.01695 1 1.02036 0.996658
1.05303 1.00439 1.05259 0.996043
1.01271 1.00691 1.00914 0.996656
1.00302 1 1.00411 0.998917
1.01232 1.00061 1.01467 0.997079
1.006 1 1.00813 0.997892
0.998961 1 1 0.998961
1.00046 1.0005 1.0015 0.998464
1.05756 1.12737 0.94089 0.997002
0.999079 0.999999 1.00063 0.998454
1.00304 1.0006 1.00417 0.998275
1.00252 0.998436 1.00543 0.998666
1.02616 1.09824 0.937152 0.997026
1.02738 1.06021 0.972202 0.996736
0.999207 1.00314 0.999424 0.996654
1.00722 1.02727 0.984036 0.996394
1.0142 1 1.01679 0.997458
1.01404 1.00003 1.01702 0.997042
1.03476 1.00389 1.03358 0.997267
1.04797 1.0031 1.04815 0.996736
1.00804 1.077 0.93868 0.997121
0.996445 1.06085 0.942071 0.997049
1.01172 1.02587 0.989815 0.996357
0.971961 1.00278 0.971627 0.997573
1.00805 0.99955 1.01006 0.998454
1.00817 1 1.0105 0.9977
1.02138 0.999165 1.02415 0.998121
1.06877 1.0014 1.07015 0.997307
0.85934 0.967463 0.929575 0.955535
1.01673 0.998192 1.02069 0.997925
1.00158 1.00091 1.00426 0.996432
1.00722 1.07952 0.935358 0.997509
1.00408 1.0398 0.968689 0.996862
1.00658 1.00838 1.0033 0.99494
1.00608 1.00629 1.00483 0.994977
0.927714 0.998218 0.93631 0.992589
1.01303 0.99547 1.01997 0.997715
0.972328 1.02887 0.947574 0.997329
1.00073 1.00151 1.00317 0.996064
1.00613 1.00469 1.00585 0.995606
0.991092 1.00866 0.986067 0.996471
0.85534 0.970829 0.921866 0.955715
0.834656 0.944293 0.905267 0.976392
0.934554 0.972806 0.96438 0.996162
0.596227 0.763421 0.854095 0.91441
0.508038 0.694755 0.834995 0.875751
1.00464 0.99553 1.01142 0.997756
0.641504 0.790235 0.883758 0.918565
0.551624 0.71895 0.870529 0.881377
0.977785 1.00558 0.974649 0.997651
1.01074 1.00199 1.01179 0.996973
1.01612 1.00634 1.01269 0.997059
0.925278 0.958943 0.968022 0.996769
0.803779 0.936217 0.894337 0.959973
0.800926 0.911705 0.902288 0.973627
0.570627 0.740932 0.835432 0.921856
0.557498 0.767996 0.831295 0.873231
1.00458 0.991303 1.01464 0.998773
1.00368 0.993576 1.01151 0.998676
1.01388 0.995996 1.01915 0.998837
0.998375 1 1 0.998375
0.998744 1 1.00088 0.997861
1.00774 1 1.00988 0.997881
1.00914 1 1.01118 0.997979
0.99907 0.997262 1.0032 0.998616
0.998895 1 1.00065 0.998251
1.01302 1 1.01513 0.99792
1.00734 1 1.00952 0.997841
0.998751 1 1.001 0.997751
1.01259 0.998417 1.0159 0.998325
1.01257 1 1.0144 0.998193
1.02902 0.997798 1.03285 0.998495
1.0058 1 1.00814 0.997677
0.999425 1 1.00164 0.997789
1.00134 1 1.00348 0.997869
1.00573 0.999849 1.00776 0.998145
1.00139 0.999955 1.00356 0.997885
1.00119 0.999821 1.00314 0.998237
1.01042 0.998603 1.01347 0.99839
1.0124 0.999713 1.01469 0.998034
1.00849 1 1.01029 0.998215
1.00822 1 1.01005 0.99819
1.00612 1 1.00768 0.998449
1.00761 1 1.00965 0.997977
1.00133 1 1.00296 0.998374
0.99926 1 1 0.99926
1.00186 1 1.00361 0.998254
0.999292 1 1 0.999292
0.999992 1 1 0.999992
0.999293 1 1 0.999293
0.999996 1 1 0.999996
1 1 1 1
0.999996 1 1 0.999996
1 1 1 1
1 1 1 1
0.999037 1 1 0.999037
0.999825 1 1 0.999825
0.999792 1 1 0.999792
1 1 1 1
0.999706 1 1 0.999706
0.999994 1 1 0.999994
1 1 1 1
0.999978 1 1 0.999978
1 1 1 1
1 1 1 1
0.935995 1.01504 0.928426 0.993215
1.0924 1.14254 0.958976 0.997021
1.05624 1.10291 0.959999 0.997589
0.868056 0.966284 0.915948 0.980782
0.964258 1.02735 0.944155 0.9941
1.07004 1.12185 0.956584 0.997105
0.975557 1.04638 0.93672 0.995303
0.887986 0.975117 0.926921 0.982442
0.865966 0.974317 0.926083 0.959734
0.610603 0.772707 0.855994 0.923152
0.47757 0.659095 0.822621 0.880824
0.999487 1 1.00084 0.998648
0.999275 1 1.00017 0.99911
0.999364 1 1.00033 0.999034
0.99969 1 1.00111 0.998579
1.00057 1 1.0021 0.998469
0.998688 1 1.0004 0.998292
0.999215 1 1.0008 0.998416
0.998632 1 1.00002 0.998614
1.05931 1.12914 0.940966 0.997014
1.03486 1.10242 0.941534 0.997012
1.02728 1.06045 0.971897 0.996734
0.997589 1.0046 0.996363 0.996649
1.00884 1.02702 0.985786 0.996462
1.04207 1.00452 1.04025 0.997248
1.04872 1.0058 1.04623 0.996603
1.01149 1.00036 1.01432 0.996847
1.002 1.00077 1.00286 0.998374
1.01479 1 1.01752 0.997321
0.999811 1 1.00136 0.998456
1.00195 0.998335 1.00463 0.999002
1.00358 1.07676 0.934663 0.997186
1.00729 0.999384 1.00951 0.998413
1.01016 1 1.01226 0.99793
0.995434 1.05894 0.942839 0.997021
1.01145 1.02832 0.987031 0.996523
0.974586 1.00249 0.974664 0.997431
1.03089 0.999877 1.03335 0.997735
1.06061 1.00334 1.05988 0.997356
0.957785 1.03499 0.928309 0.996875
0.997191 1.02075 0.979822 0.997037
0.974249 1.00266 0.974464 0.997124
0.971152 0.996207 0.976891 0.997911
1.01145 1 1.01367 0.997812
1.02092 0.997869 1.02516 0.997999
1.05593 0.999159 1.05926 0.997698
0.666324 0.79937 0.904518 0.921553
0.868499 0.97269 0.926724 0.963484
1.00959 0.996752 1.01514 0.997779
1.00044 1.00132 1.00306 0.996077
0.972466 1.02911 0.947516 0.997298
0.993905 1.01004 0.987526 0.996455
1.00826 1.00693 1.00571 0.995637
0.858175 0.971853 0.919963 0.959852
0.840837 0.956093 0.900137 0.977018
0.935131 0.970936 0.966737 0.996261
0.611417 0.763338 0.867408 0.923417
0.504009 0.701079 0.826932 0.869365
1.00482 0.997427 1.00966 0.997767
0.656667 0.800944 0.891596 0.919549
0.52187 0.689029 0.863777 0.876845
0.977531 1.00671 0.973333 0.99762
1.01081 1.00273 1.01112 0.99697
1.01389 1.0041 1.01258 0.997203
0.92103 0.95314 0.969129 0.997093
0.80529 0.943307 0.893456 0.95549
0.799949 0.908572 0.901701 0.976428
0.589934 0.751712 0.853209 0.919806
0.566234 0.783453 0.829069 0.871751
1.00535 0.99658 1.01035 0.998459
0.558721 0.728356 0.872536 0.87916
0.606675 0.802408 0.854622 0.884682
0.984014 0.989201 0.996155 0.998596
1.01846 1.00264 1.01728 0.998525
0.931861 0.941526 0.993657 0.996053
0.82156 0.900724 0.932066 0.978591
0.742277 0.883006 0.882762 0.952267
0.621129 0.754175 0.894003 0.921234
0.643793 0.85857 0.853005 0.879061
1.00586 0.995284 1.01199 0.99865
1.01166 0.997309 1.01562 0.998787
1.01031 0.995044 1.01629 0.999074
0.998559 1 1.00031 0.998251
0.998552 1 1.00075 0.997804
1.00832 1 1.01053 0.997812
1.01319 1 1.01532 0.997907
1.01203 0.997981 1.01572 0.998385
0.998925 1 1.00115 0.997783
1.0133 1 1.0152 0.998126
1.00506 1 1.0074 0.997679
1.02598 0.995659 1.03194 0.998559
1.04313 0.993273 1.05115 0.999094
1.0205 1 1.02236 0.998176
1.00308 1 1.00544 0.997649
1.00015 1 1.00229 0.99786
1.00366 0.999855 1.00561 0.998204
1.00153 1 1.00366 0.997874
1.00103 1.00001 1.0028 0.998211
1.005 0.996385 1.01014 0.998518
1.00445 0.999371 1.00689 0.9982
1.01599 0.997895 1.01994 0.998232
0.999951 0.992455 1.009 0.998564
1.01442 1.00024 1.0162 0.997999
1.00565 1.00757 1.00093 0.997169
1.0168 1 1.01904 0.997806
1.01244 0.999754 1.01468 0.998037
1.01376 1 1.01584 0.997955
1.00855 0.999999 1.01035 0.998219
1.00485 1 1.00647 0.998391
1.00685 1 1.00867 0.998193
1.00289 1 1.00443 0.998462
0.999359 1 1.00015 0.999204
1.00044 1 1.00211 0.998333
0.999264 1 1 0.999264
0.999973 1 1 0.999973
0.999295 1 1 0.999295
0.999988 1 1 0.999988
1 1 1 1
0.999995 1 1 0.999995
1 1 1 1
1 1 1 1
0.999009 1 1 0.999009
0.999778 1 1 0.999778
0.99904 1 1 0.99904
1 1 1 1
0.999824 1 1 0.999824
0.999787 1 1 0.999787
0.999999 1 1 0.999999
1 1 1 1
0.999991 1 1 0.999991
1 1 1 1
1 1 1 1
0.640068 0.789564 0.888764 0.912121
0.534542 0.711962 0.856757 0.876329
0.867343 0.964316 0.916383 0.98151
0.961963 1.02664 0.942289 0.994387
1.07172 1.12565 0.954894 0.997066
0.882336 0.959844 0.934619 0.983556
0.977976 1.04347 0.941384 0.995597
0.872769 0.980475 0.927393 0.959839
0.592076 0.766472 0.844586 0.914612
0.490942 0.68093 0.824241 0.87473
0.898945 0.991613 0.917416 0.988154
0.830232 0.952153 0.907499 0.960829
0.578564 0.748808 0.83855 0.921407
0.568085 0.775228 0.837098 0.875401
1.00109 1 1.00292 0.998182
0.998972 1 1.00028 0.998689
0.999369 1 1.00026 0.999109
0.999601 1 1.00099 0.998608
0.999982 1 1.00137 0.998614
1.00018 1 1.00226 0.99793
0.998959 1 1.00067 0.99829
1.00019 1 1.00227 0.997925
0.998932 1 1.00057 0.99836
0.998567 1 1 0.998565
0.996911 1.07642 0.928692 0.997249
0.993836 1.05669 0.943356 0.996996
1.01177 1.0307 0.984895 0.996689
0.977176 1.00249 0.977399 0.997289
1.05127 1.00531 1.04844 0.997405
1.04165 1.00047 1.04392 0.997356
1.01107 1 1.01293 0.998158
1.00634 0.998968 1.00902 0.998371
0.957389 1.03558 0.927242 0.997039
1.01474 1 1.01702 0.99775
1.02085 0.997442 1.02554 0.997977
0.986393 1.01636 0.973463 0.996975
0.972037 1.00206 0.972767 0.997198
0.974118 0.997934 0.978193 0.997896
1.04822 0.998197 1.05259 0.997642
0.938984 1.00188 0.940057 0.996981
0.969989 0.997028 0.974714 0.998119
1.01371 0.988918 1.02695 0.998168
1.01112 1 1.01349 0.997661
1.0262 0.998382 1.03022 0.99771
1.02846 0.997163 1.03362 0.997838
0.582219 0.73904 0.881601 0.893607
0.662158 0.796448 0.900842 0.922902
0.863185 0.973575 0.927663 0.955749
1.00366 0.996379 1.00956 0.997774
1.01048 1.00293 1.0106 0.99696
0.97879 1.00796 0.973412 0.997586
1.01191 1.00245 1.01213 0.99734
0.663759 0.794573 0.903458 0.924632
0.813142 0.946724 0.898805 0.955602
0.793701 0.906577 0.899087 0.973757
0.922095 0.950251 0.972917 0.997382
0.585453 0.758696 0.845706 0.912441
0.509458 0.676366 0.856255 0.879678
0.575975 0.788333 0.830848 0.87937
1.00487 0.996269 1.01025 0.998401
0.562186 0.727531 0.873561 0.884576
0.626208 0.822982 0.860531 0.884222
0.980537 0.986428 0.995307 0.998715
1.01739 1.00114 1.01779 0.998466
0.929075 0.939271 0.992147 0.996974
0.808965 0.906387 0.914973 0.975456
0.770602 0.891703 0.901565 0.958546
0.621355 0.761705 0.893419 0.913056
0.637254 0.849723 0.847928 0.884457
1.00599 0.993861 1.01278 0.999431
0.649994 0.825401 0.880748 0.894113
0.642419 0.837867 0.863089 0.888356
0.968544 0.946338 1.02376 0.999715
0.861457 0.899514 0.97238 0.984895
0.777868 0.860178 0.945912 0.956019
0.718781 0.853686 0.92585 0.909406
0.693338 0.905119 0.862097 0.888553
1.00958 0.998068 1.01282 0.998736
1.01296 0.994921 1.01909 0.999059
1.02314 0.982183 1.04238 0.999354
0.999098 1 1.00133 0.997776
1.0038 1 1.00613 0.997681
1.01335 1 1.01532 0.998058
1.02397 0.994069 1.0315 0.998624
1.00346 1 1.00582 0.997649
1.01931 0.9994 1.0218 0.998164
1.04844 0.993115 1.05658 0.999173
1.04059 0.98009 1.06232 0.999446
1.04569 0.994124 1.05285 0.999068
1.01394 0.999499 1.01642 0.998063
1.00118 1 1.00332 0.997862
1.00085 1.00012 1.00255 0.998186
0.998218 0.992529 1.0071 0.998643
1.01429 0.997815 1.01828 0.998258
1.00217 0.999825 1.00416 0.998191
1.00298 0.991598 1.0129 0.998598
1.01875 0.999117 1.02142 0.998269
1.01991 0.986626 1.03481 0.998962
1.0051 1.0026 1.00428 0.998221
1.01039 1.00115 1.01123 0.998025
1.00105 1.00167 1.00194 0.997447
1.01087 1.01336 1.00153 0.996028
1.00903 1.0039 1.00766 0.997473
1.00347 1.00519 1.00075 0.997535
1.01474 0.999924 1.01706 0.997799
1.02349 1 1.02586 0.997688
1.01113 0.999814 1.0133 0.998041
1.01405 1 1.01612 0.997958
1.00814 1 1.01 0.998157
1.00983 1 1.01163 0.998223
1.0072 1 1.00882 0.998389
1.00225 1 1.00315 0.999101
1.00316 1 1.00469 0.998474
1.00017 1 1.00097 0.999205
0.999938 1 1 0.999938
0.999276 1 1.00001 0.999269
0.999963 1 1 0.999963
1 1 1 1
0.999984 1 1 0.999984
1 1 1 1
1 1 1 1
0.998967 1 1.00034 0.998626
0.999689 1 1 0.999689
0.99891 1 1 0.99891
0.999999 1 1 0.999999
0.999785 1 1 0.999785
0.999043 1 1 0.999043
1 1 1 1
1 1 1 1
0.999824 1 1 0.999824
0.999998 1 1 0.999998
1 1 1 1
1 1 1 1
0.542929 0.716287 0.859944 0.881426
0.651456 0.796848 0.890732 0.917831
0.626304 0.826448 0.857278 0.88399
0.532443 0.715048 0.850953 0.875049
0.88124 0.963302 0.93275 0.980768
0.980835 1.04034 0.94668 0.995908
0.867649 0.983384 0.919576 0.959474
0.605973 0.761044 0.862713 0.922947
0.505468 0.708132 0.821806 0.868581
0.905543 0.986116 0.930429 0.986955
0.801899 0.939057 0.896658 0.952359
0.593582 0.756074 0.854012 0.91929
0.555508 0.766257 0.83246 0.870869
0.856386 0.95487 0.91278 0.982561
0.73727 0.862526 0.898788 0.951036
0.649544 0.801139 0.892006 0.908935
0.634272 0.847296 0.853523 0.877051
1.00512 1 1.00741 0.997727
1.00108 1 1.00284 0.998243
0.998766 1 1.00004 0.998728
0.999615 1 1.00086 0.998759
0.999591 1 1.00211 0.997489
0.999769 1 1.00177 0.998
0.999124 1 1.00084 0.998288
0.999982 1 1.00209 0.997893
0.999742 1 1.00178 0.997963
0.998625 1 1.00032 0.998304
0.958003 1.03654 0.926827 0.997197
0.97755 1.01237 0.968592 0.996919
0.968346 1.00129 0.969745 0.997271
0.976535 0.999613 0.978985 0.997883
1.03777 0.997401 1.043 0.997583
1.02103 0.998102 1.02507 0.997958
1.01675 1 1.0191 0.997689
1.01063 1 1.01305 0.997606
0.940584 1.00137 0.942024 0.997104
1.02087 0.998765 1.02452 0.997668
1.02849 0.997703 1.03312 0.997816
0.968982 0.998467 0.972298 0.99812
1.00654 0.992108 1.01646 0.998124
0.937124 0.968511 0.970282 0.997228
0.954639 0.95462 1.00079 0.999226
1.04317 0.981358 1.06471 0.998377
1.00956 0.999004 1.01277 0.997827
1.03351 0.996542 1.03917 0.998004
0.664852 0.840475 0.878858 0.900081
0.574783 0.73867 0.872841 0.891494
0.651764 0.790602 0.900848 0.915127
1.00498 0.996802 1.00987 0.998349
1.0165 0.999205 1.01893 0.998405
0.97485 0.983815 0.992037 0.998841
0.554385 0.721573 0.868745 0.88438
0.7421 0.87075 0.89563 0.951568
0.813706 0.903757 0.921345 0.977223
0.91838 0.932765 0.986598 0.997953
0.632138 0.774452 0.885833 0.921438
0.641289 0.837197 0.866371 0.884142
0.634123 0.844981 0.847827 0.885155
1.00345 0.993656 1.01048 0.999376
0.653779 0.829089 0.87998 0.896101
0.638155 0.831875 0.863148 0.888757
0.97105 0.951786 1.02077 0.999484
0.873109 0.911973 0.972109 0.984854
0.751798 0.85994 0.921119 0.949112
0.685341 0.898468 0.859401 0.887581
0.735272 0.854357 0.942254 0.913357
0.98844 0.952006 1.03857 0.999711
0.646665 0.821182 0.876398 0.898542
0.687707 0.88093 0.872732 0.894503
0.632119 0.845994 0.851761 0.877231
0.921317 0.912401 1.01385 0.995979
0.847605 0.894756 0.988812 0.958022
0.798084 0.924813 0.939098 0.918932
1.01641 0.995159 1.02233 0.999043
1.02655 0.987224 1.04059 0.99927
1.03958 0.976745 1.06479 0.999566
1.00408 1 1.00645 0.997649
1.01813 0.998992 1.02104 0.998152
1.05289 0.991536 1.06267 0.999251
1.01669 0.999416 1.01925 0.998073
1.04564 0.99401 1.05291 0.999079
1.04841 0.981353 1.06895 0.999421
1.03346 0.971483 1.06434 0.999489
1.02994 0.991814 1.03942 0.999058
1.01316 0.998057 1.01687 0.998287
1.00137 1.00018 1.00302 0.998181
1.00841 0.993239 1.01666 0.998633
1.02116 0.990609 1.03194 0.998933
1.02477 1.00004 1.0265 0.99828
1.01137 0.999744 1.01284 0.998804
1.00599 0.999962 1.00741 0.998623
1.00361 1.002 1.00472 0.996901
1.00756 1.00307 1.00643 0.998062
1.00265 1.00375 1.00159 0.997323
1.0035 1.00566 1.00227 0.995592
1.02759 1.03103 1.00129 0.995377
1.0109 1.01135 1.00258 0.996979
1.00737 1.00993 1.00138 0.996092
1.01632 1.00026 1.01875 0.99735
1.00973 1.00454 1.00768 0.997501
1.0018 1.00332 1.00059 0.997897
1.01389 1.00017 1.01597 0.997793
1.02272 1 1.02507 0.997706
1.01399 1 1.01613 0.997889
1.01531 0.999998 1.01738 0.997961
1.0075 1.00012 1.00925 0.998155
1.00414 1 1.00524 0.9989
1.00544 1 1.00706 0.998386
1.00202 1 1.00292 0.999096
0.999904 1 1 0.999904
1.00023 1 1.00102 0.999207
0.999929 1 1 0.999929
1 1 1 1
0.999953 1 1 0.999953
1 1 1 1
1 1 1 1
1.00005 1 1.0018 0.998253
0.999381 1 1 0.999381
0.999181 1 1.00056 0.998625
0.999996 1 1 0.999996
0.999616 1 1 0.999616
0.998812 1 1 0.998812
1 1 1 1
1 1 1 1
0.999791 1 1 0.999791
1 1 1 1
1 1 1 1
1 1 1 1
0.667396 0.851413 0.876779 0.894032
0.555826 0.719858 0.869405 0.888116
0.638316 0.789184 0.882382 0.916644
1.0005 1 1.00271 0.997794
0.637265 0.827496 0.863 0.892367
0.627398 0.82508 0.86039 0.883796
0.550678 0.736456 0.848237 0.881522
0.912361 0.991543 0.933535 0.985654
0.80702 0.932689 0.901361 0.95995
0.583133 0.760393 0.841265 0.911584
0.543423 0.743445 0.834666 0.875742
0.85221 0.951072 0.915445 0.978816
0.765523 0.882027 0.906003 0.957959
0.636702 0.778858 0.898048 0.910287
0.636387 0.848425 0.853679 0.878645
0.794301 0.896933 0.909135 0.974085
0.757984 0.849135 0.935942 0.953749
0.744384 0.860155 0.946175 0.914636
0.69164 0.899827 0.865037 0.888559
1.00246 1 1.00479 0.997681
1.00545 1 1.00776 0.997707
1.00095 1 1.00265 0.998304
0.999402 1 1.00171 0.997695
1.00027 1 1.00271 0.997567
0.999929 1 1.00186 0.99807
1.0002 1 1.00232 0.997892
0.999684 1 1.00169 0.998
0.943263 1.00248 0.943572 0.997195
0.96948 1.00115 0.970183 0.998131
1.00931 1 1.01179 0.997549
0.998989 0.995152 1.00579 0.998079
1.02841 0.996548 1.03426 0.997793
1.02134 1 1.02378 0.997623
1.01473 0.999782 1.01719 0.997802
0.939057 0.967482 0.97315 0.9974
1.03069 0.997121 1.03574 0.998003
1.03406 0.987427 1.04888 0.998422
0.95899 0.959061 1.00066 0.999269
1.01801 0.999175 1.02082 0.998065
0.9218 0.930139 0.994451 0.996565
0.984813 0.954424 1.03238 0.999476
1.07137 0.991735 1.08188 0.998536
1.06233 0.995574 1.06897 0.998211
0.644827 0.815145 0.875999 0.903034
0.66343 0.839378 0.87922 0.898959
0.56798 0.736958 0.86664 0.889306
0.999913 0.993507 1.00713 0.999322
0.974565 0.955981 1.0202 0.999254
0.660816 0.835958 0.880291 0.897986
0.770448 0.842929 0.954689 0.957393
0.862012 0.909766 0.966451 0.980401
0.723749 0.844956 0.940153 0.911078
0.636695 0.829628 0.863199 0.889072
0.682546 0.896198 0.859028 0.886586
0.997885 0.964489 1.03497 0.999669
0.647947 0.823227 0.875899 0.898599
0.692778 0.881248 0.876849 0.896543
0.938513 0.924583 1.0164 0.99869
0.634537 0.84698 0.852569 0.878728
0.815344 0.873074 0.979209 0.953706
0.794722 0.914469 0.946221 0.918446
0.991763 0.95469 1.03924 0.999609
0.691874 0.865477 0.8838 0.904518
0.639778 0.826466 0.866685 0.893188
0.564872 0.771881 0.835959 0.875418
0.738758 0.855005 0.945411 0.913931
0.922239 0.923586 1.00844 0.990182
0.862753 0.903184 1.00798 0.947672
1.02839 0.993179 1.03629 0.999188
1.03422 0.970257 1.06642 0.999534
1.01601 0.948571 1.07154 0.999581
1.0184 0.998778 1.02161 0.998083
1.04688 0.992707 1.05553 0.999091
1.05762 0.983718 1.07577 0.999396
1.02543 0.991723 1.03498 0.999045
1.02865 0.971845 1.059 0.999488
0.987247 0.968319 1.02033 0.999234
1.02168 0.993331 1.02967 0.998903
1.02942 0.998048 1.0332 0.998294
1.01767 0.999006 1.01993 0.998775
1.00297 0.998444 1.00658 0.997966
1.00666 0.998328 1.00934 0.999021
0.997672 1.00198 0.99853 0.997162
1.00783 1.00353 1.00945 0.994879
1.00902 1.01157 1.00283 0.994659
1.00318 1.00571 1.0003 0.997186
1.00369 1.00632 1.00205 0.995347
1.02513 1.02933 1.00053 0.995397
1.02293 1.02423 1.00261 0.996123
1.02395 1.0273 1.00125 0.995493
1.01325 1.00606 1.01004 0.997139
1.01474 1.01453 1.00328 0.996934
1.0031 1.00568 1.00128 0.996159
1.02095 1 1.02334 0.997666
1.01595 1.00047 1.01814 0.997382
1.01027 1.00485 1.00789 0.997529
1.02131 1 1.02364 0.997725
1.01347 1.00005 1.01556 0.997891
1.00986 1 1.01125 0.998629
1.00798 1.0001 1.00975 0.998153
1.00483 1 1.00595 0.998894
0.999882 1 1.00003 0.999849
1.00322 1 1.00413 0.999092
0.999895 1 1 0.999895
1 1 1 1
0.999919 1 1 0.999919
1 1 1 1
1 1 1 1
1.00065 1 1.0025 0.998157
1.00049 1 1.00137 0.999116
1.0004 1 1.00208 0.998323
0.999982 1 1 0.999982
0.999352 1 1 0.999352
0.999248 1 1.00063 0.998622
1 1 1 1
0.999997 1 1 0.999997
0.999543 1 1 0.999543
1 1 1 1
1 1 1 1
1 1 1 1
0.651016 0.823442 0.876078 0.902434
0.666407 0.84867 0.878245 0.894098
0.557366 0.718153 0.873911 0.888088
1.0007 1 1.00287 0.997839
1.00673 1 1.00903 0.997721
0.999467 1 1.00159 0.997883
0.693156 0.885463 0.875767 0.893865
0.636851 0.83021 0.859247 0.892754
0.625041 0.82647 0.855846 0.883662
0.855362 0.956103 0.911891 0.981076
0.736065 0.874607 0.884859 0.951106
0.648527 0.76887 0.915901 0.920929
0.63878 0.856032 0.852416 0.875407
0.800749 0.901112 0.909137 0.977437
0.772445 0.859709 0.942687 0.953122
0.73762 0.855107 0.94207 0.915648
0.685725 0.896693 0.861704 0.887459
0.819923 0.894649 0.940404 0.974553
0.814658 0.876362 0.973139 0.95525
0.80014 0.921263 0.944718 0.919348
0.64785 0.860177 0.856315 0.879535
0.999558 0.999685 1.00192 0.997955
1.00193 1 1.0043 0.997638
1.00482 1 1.00715 0.997687
0.999096 1 1.00142 0.997675
1.0004 1 1.00276 0.997645
0.999707 1 1.00182 0.99789
0.934839 0.960134 0.975995 0.997602
0.961119 0.958829 1.0031 0.999286
1.01348 1 1.01574 0.997779
1.03041 0.995578 1.03657 0.998466
1.02641 0.998669 1.02984 0.998
1.0166 0.998316 1.02027 0.998083
1.0429 0.989639 1.05567 0.998248
0.923371 0.927671 0.998678 0.996682
1.06473 0.986713 1.08049 0.998678
0.98525 0.942407 1.04627 0.999227
1.02914 0.986551 1.04482 0.998418
0.941019 0.924767 1.02155 0.996107
1.00853 0.954058 1.05814 0.999014
1.02794 0.957858 1.07446 0.998792
0.711491 0.880443 0.892749 0.905189
0.651183 0.819421 0.879731 0.903329
0.661188 0.838471 0.878284 0.897845
1.00789 0.976709 1.03231 0.999627
0.926774 0.923789 1.0067 0.996552
0.647939 0.823291 0.875762 0.898658
0.811681 0.858576 0.986625 0.958196
0.786104 0.918355 0.938187 0.912389
0.695356 0.883282 0.876105 0.89857
0.638449 0.855026 0.852722 0.875667
0.984375 0.947856 1.03883 0.999713
0.688564 0.859615 0.884831 0.905274
0.643257 0.835495 0.861564 0.89362
0.917411 0.919252 1.01308 0.985114
0.551985 0.760965 0.832715 0.871096
0.737829 0.85384 0.944953 0.914469
0.852916 0.900007 0.990778 0.956498
1.00454 0.942711 1.06813 0.997624
0.653502 0.822812 0.879473 0.903075
0.637604 0.832636 0.865593 0.884672
0.479686 0.657256 0.827936 0.881507
0.636182 0.788877 0.887766 0.908392
0.82322 0.872814 0.98793 0.954703
0.882344 0.902304 0.996892 0.980928
1.02848 0.966462 1.06471 0.999501
1.02674 0.963416 1.06618 0.999572
0.997191 0.956718 1.0429 0.999425
1.02127 0.992951 1.02952 0.999032
1.02389 0.972764 1.0531 0.999487
0.99219 0.96562 1.02822 0.999318
1.0115 0.992825 1.02009 0.998743
1.02546 0.998985 1.02779 0.998743
1.00006 1.00024 1.0022 0.99763
1.03107 1.00147 1.03423 0.995488
0.991285 1.00115 0.992696 0.997433
1.00909 1.00318 1.01098 0.994965
1.00836 1.00453 1.00985 0.99402
1.01711 1.02095 1.00191 0.994342
1.01646 1.02041 1.00108 0.995054
1.00902 1.01134 1.00312 0.9946
1.00379 1.00703 1.00169 0.995104
1.01726 1.02052 1.0011 0.995719
1.02766 1.03182 1.00048 0.995494
1.01345 1.01196 1.00497 0.996512
1.02428 1.02536 1.00274 0.996216
1.02193 1.02524 1.00117 0.99561
1.02046 1.00334 1.0197 0.997416
1.01458 1.0071 1.01034 0.997123
1.01837 1.01758 1.0039 0.996886
1.01773 1.00022 1.01918 0.99836
1.01982 1 1.02221 0.997665
1.01648 1.0008 1.01829 0.997416
1.01383 1.00023 1.01574 0.997894
1.00895 1 1.01034 0.998626
1.00072 1 1.00097 0.999745
1.0044 1 1.00552 0.998887
0.999994 1 1.00016 0.999836
1 1 1 1
0.999887 1 1 0.999887
1 1 1 1
1 1 1 1
1.00117 1 1.00311 0.998074
1.00127 1 1.00224 0.999039
1.00148 1 1.0033 0.998185
0.99995 1 1 0.99995
0.999967 1 1.0008 0.99917
1.00049 1 1.0021 0.998395
1 1 1 1
0.999987 1 1 0.999987
0.999323 1 1 0.999323
1 1 1 1
0.999998 1 1 0.999998
1 1 1 1
0.688714 0.862906 0.883191 0.903693
0.658212 0.825309 0.883688 0.902506
0.668571 0.848655 0.881016 0.894195
1.024 1 1.02648 0.997587
1.0075 1.00115 1.00865 0.997719
1.00077 1 1.00289 0.997885
1.00641 1 1.00873 0.997696
0.99974 1 1.00182 0.99792
1.00654 1 1.0087 0.997854
0.996978 0.998836 1 0.99814
0.649583 0.846795 0.86325 0.888627
0.695899 0.883729 0.87893 0.895928
0.644036 0.829564 0.869244 0.893138
0.683497 0.896144 0.860508 0.886347
0.805233 0.908645 0.909421 0.974456
0.780916 0.859524 0.954243 0.95211
0.743196 0.869728 0.928528 0.920291
0.807738 0.89803 0.924096 0.973336
0.818976 0.869855 0.993186 0.947968
0.794174 0.912198 0.947248 0.9191
0.641115 0.853798 0.848596 0.884871
0.857975 0.90103 0.974632 0.976999
0.840945 0.884866 1.00269 0.947814
0.722183 0.856232 0.9268 0.91006
0.563176 0.775347 0.831587 0.873455
1.05082 0.997365 1.05532 0.998375
1.00213 0.999446 1.0047 0.997991
1.0031 1 1.00552 0.997594
0.999458 1 1.00181 0.997656
0.931793 0.930734 1.00434 0.996813
0.984863 0.934474 1.05501 0.998972
1.01529 0.997647 1.01962 0.998101
1.03283 0.99012 1.04492 0.998285
1.04631 0.969768 1.0802 0.998821
1.03129 0.992699 1.04052 0.99842
1.03874 0.958054 1.08554 0.998779
0.941863 0.925034 1.02427 0.994071
1.01024 0.947191 1.06743 0.999187
1.01298 0.966541 1.04919 0.998906
0.93439 0.912999 1.03093 0.992728
0.982538 0.929687 1.05767 0.999228
0.651749 0.816539 0.883128 0.903815
0.706128 0.873618 0.890234 0.907941
0.659965 0.823873 0.8865 0.903612
0.973964 0.936032 1.04073 0.999805
0.925376 0.923479 1.0114 0.990755
0.683589 0.852904 0.884597 0.906044
0.869925 0.91099 1.00646 0.948794
0.739482 0.86469 0.93027 0.919301
0.650521 0.836053 0.870353 0.893989
0.540895 0.737541 0.837342 0.875838
1.00428 0.944228 1.0658 0.997937
0.65951 0.829039 0.8808 0.903169
0.63169 0.823919 0.866803 0.884502
0.885332 0.90244 0.997077 0.983918
0.493903 0.681368 0.827949 0.8755
0.626805 0.767977 0.897492 0.909397
0.822245 0.875417 0.98993 0.948816
0.986542 0.943853 1.05041 0.995069
0.674362 0.859418 0.877301 0.894418
0.530853 0.703772 0.85994 0.87715
0.577684 0.74743 0.838269 0.922012
0.762668 0.837486 0.953203 0.955373
0.832214 0.876078 0.973583 0.975706
1.03378 0.968828 1.06748 0.99959
1.00246 0.955344 1.0499 0.99944
0.982545 0.964873 1.01915 0.999179
0.997104 0.96268 1.03638 0.999402
1.01262 0.980213 1.03423 0.998864
1.02165 1.0008 1.02334 0.99755
0.996723 1.00204 0.997394 0.997297
1.03086 1.00172 1.03397 0.995283
1.01788 1.00341 1.0202 0.99433
1.01053 1.003 1.01252 0.99505
1.00975 1.00484 1.01104 0.993923
1.00617 1.00784 1.00448 0.993892
1.05411 1.06028 0.999434 0.994742
1.03202 1.0367 1.00077 0.994723
1.01706 1.02068 1.00218 0.994286
1.01846 1.02307 1.00013 0.99537
1.01425 1.01846 1.00074 0.995119
1.00901 1.01094 1.00357 0.99454
1.02142 1.02386 1.00191 0.995721
1.01768 1.02098 1.00108 0.995693
1.02898 1.03309 1.00043 0.995591
1.01252 1.00659 1.00897 0.996949
1.01367 1.01092 1.00609 0.996645
1.02498 1.02581 1.00289 0.996309
1.0186 1.00296 1.01757 0.998048
1.01898 1.0043 1.01723 0.997422
1.01504 1.00827 1.00964 0.997107
1.0042 1 1.00459 0.999612
1.01665 1.00043 1.01789 0.99836
1.01777 1 1.02016 0.997663
1.00791 1 1.0093 0.998623
1.00157 1 1.00184 0.999731
1 1 1 1
1.0001 1 1.00027 0.999824
1 1 1 1
1 1 1 1
1.01737 1.00049 1.01931 0.997607
1.01175 1.00005 1.01389 0.997835
1.0014 1 1.0026 0.998807
1.00284 1 1.00478 0.998069
0.999906 1 1 0.999906
1.00117 1 1.00213 0.999041
1.00307 1 1.00487 0.998212
1 1 1 1
0.999961 1 1 0.999961
0.999629 1 1.0004 0.999225
1 1 1 1
0.999992 1 1 0.999992
1 1 1 1
0.653321 0.825335 0.880587 0.898926
0.68259 0.857486 0.880099 0.904485
0.657791 0.828887 0.879249 0.902568
1.02549 1 1.02799 0.997573
1.01095 1.00084 1.01238 0.997752
0.998093 1.00131 0.999304 0.997478
1.0277 0.99993 1.0301 0.997736
1.00887 1.00276 1.00831 0.997805
1.00843 1 1.01079 0.99767
0.999997 0.999968 1.00208 0.997955
1.00765 0.999583 1.01023 0.997861
0.998368 0.999844 1.00032 0.998204
1.02746 0.999381 1.02992 0.99823
0.613442 0.811514 0.85432 0.884824
0.645982 0.838599 0.866387 0.889107
0.693386 0.882879 0.874585 0.89799
0.637717 0.851614 0.845602 0.885563
0.788747 0.91585 0.943426 0.912862
0.802516 0.891037 0.92706 0.971517
0.819969 0.86893 0.988661 0.954476
0.848447 0.905294 0.963661 0.972547
0.844327 0.899012 0.983685 0.954748
0.73883 0.853828 0.946046 0.914666
0.570888 0.788985 0.829876 0.871903
0.875144 0.902811 0.99377 0.975432
0.823513 0.861764 1.00002 0.955596
0.630273 0.759044 0.901376 0.921203
0.51622 0.694414 0.843158 0.881674
1.03981 0.998635 1.04235 0.998928
1.05187 0.996404 1.05738 0.998382
1.00732 1 1.00931 0.998029
0.939277 0.92342 1.02547 0.991906
1.01309 0.944381 1.07349 0.999317
1.03194 0.995941 1.03778 0.998422
1.0526 0.956153 1.10223 0.998767
1.01848 0.972433 1.04849 0.998912
0.988065 0.938855 1.05321 0.999249
0.930917 0.911147 1.02913 0.992773
1.0051 0.979431 1.02688 0.999345
0.950815 0.937049 1.02051 0.994293
0.674146 0.847695 0.883865 0.899763
0.663394 0.826332 0.888005 0.904069
0.699248 0.867156 0.885382 0.910758
1.00821 0.955683 1.0569 0.998169
0.880655 0.903858 0.995672 0.978564
0.669497 0.838077 0.884413 0.903253
0.826158 0.875404 0.991528 0.951809
0.63424 0.756238 0.911866 0.919738
0.622118 0.821613 0.856113 0.884453
0.506985 0.707791 0.823869 0.869424
0.983273 0.942277 1.04828 0.99545
0.670902 0.852166 0.880237 0.894407
0.531011 0.709404 0.854618 0.875867
0.846257 0.891486 0.970991 0.977625
0.59213 0.754904 0.852823 0.919743
0.756105 0.850252 0.935012 0.951081
0.926267 0.92391 1.00951 0.993105
0.544104 0.715909 0.861666 0.882033
0.613467 0.774673 0.857191 0.923837
0.740096 0.867416 0.897122 0.951063
0.80291 0.883897 0.92831 0.978525
1.00725 0.956797 1.0533 0.999459
0.985108 0.954731 1.0327 0.999148
0.99777 0.986675 1.01288 0.998381
1.01358 0.965967 1.05037 0.998979
1.01369 0.998937 1.01716 0.997649
0.991192 1.00446 0.990365 0.996395
1.03013 1.00166 1.03351 0.995073
1.0165 1.00477 1.01745 0.994323
1.00381 1.00819 1.00076 0.994896
1.01065 1.00505 1.01182 0.993826
1.00541 1.00782 1.0037 0.993935
1.04246 1.0528 0.995125 0.995027
1.07583 1.08939 0.991897 0.995622
1.06832 1.07384 1.00002 0.994845
1.05482 1.06133 0.999089 0.994777
1.04262 1.04783 1 0.995024
1.03055 1.03497 1.00107 0.994661
1.01751 1.02093 1.00244 0.994229
1.03747 1.04212 1.00012 0.995421
1.01619 1.02082 1.00002 0.995437
1.01186 1.01643 1.00032 0.995184
1.02112 1.01786 1.00701 0.996216
1.0181 1.01946 1.00287 0.995809
1.01894 1.02226 1.0011 0.995667
1.02007 1.00451 1.01792 0.997603
1.01699 1.00838 1.01163 0.996943
1.01452 1.01069 1.00703 0.996777
1.00663 1 1.00717 0.999471
1.02036 1.00406 1.01823 0.998049
1.01876 1.00523 1.01607 0.997429
0.999893 1 1 0.999893
1.00572 1 1.00613 0.999594
1.01656 1.00055 1.01766 0.998361
1.0027 1 1.00299 0.999717
1 1 1 1
1 1 1 1
1.01098 1.00337 1.0102 0.997409
1.01743 1.00044 1.01943 0.9976
1.02016 1.00025 1.02237 0.997581
1.00533 1 1.00678 0.998568
1.00997 1.00022 1.01194 0.99783
1.0003 1 1.00045 0.999849
1.00239 1 1.00358 0.998812
1.00383 1 1.00577 0.998063
1 1 1 1
0.999919 1 1 0.999919
1.00064 1 1.00159 0.999043
1 1 1 1
0.999971 1 1 0.999971
1 1 1 1
0.658554 0.833455 0.878619 0.899309
0.657247 0.829776 0.881055 0.899011
0.683216 0.849266 0.888684 0.905248
1.01018 1.00441 1.00859 0.997182
1.023 1 1.0255 0.997561
1.00836 1 1.01059 0.997788
1.02197 1 1.02436 0.997661
1.00109 1.00363 0.999971 0.997498
1.00299 1.00122 1.00375 0.998029
1.0171 1.00324 1.0169 0.996967
1.02089 0.991579 1.03155 0.998071
1.00768 0.999203 1.01063 0.997869
0.998267 1 1 0.998267
1.02919 0.997516 1.0336 0.998215
1.04697 1.00082 1.04771 0.998473
0.552019 0.720628 0.86937 0.881127
0.631061 0.829808 0.859918 0.884375
0.645546 0.83493 0.869245 0.889477
0.580208 0.793577 0.831388 0.879409
0.727698 0.846721 0.941421 0.912908
0.845858 0.89111 1.00134 0.94795
0.854167 0.905212 0.969419 0.973377
0.870938 0.89922 0.990482 0.977855
0.512348 0.699242 0.836842 0.875576
0.816145 0.868846 0.988825 0.949959
0.630999 0.766948 0.90129 0.912848
0.870297 0.906652 0.979104 0.980389
0.781626 0.856936 0.952327 0.957777
0.578176 0.744973 0.842777 0.920887
0.985236 1.00094 0.984757 0.99955
1.04233 0.999063 1.04442 0.998934
1.05055 0.995349 1.05717 0.998386
0.935809 0.915439 1.02964 0.992828
0.9959 0.951223 1.04773 0.999273
1.02705 0.982649 1.04632 0.998919
1.0014 0.976212 1.02646 0.999354
0.947388 0.937306 1.01649 0.99436
0.971786 0.971726 1.00362 0.996455
0.576135 0.734373 0.88244 0.889042
0.670273 0.844471 0.880242 0.901706
0.668756 0.834443 0.886304 0.904249
0.981665 0.939565 1.04936 0.995662
0.840791 0.888692 0.966862 0.978527
0.665917 0.843148 0.882903 0.894547
0.773407 0.849444 0.957465 0.950935
0.583667 0.761218 0.840531 0.912225
0.552435 0.733621 0.853576 0.8822
0.925916 0.917809 1.01581 0.993131
0.557533 0.719452 0.872069 0.888624
0.595019 0.767231 0.847339 0.915266
0.801867 0.891416 0.923671 0.973879
0.768624 0.888702 0.902812 0.957989
0.920057 0.942134 0.979669 0.996835
0.640316 0.787784 0.890818 0.912427
0.834407 0.955196 0.909179 0.960807
0.794894 0.904689 0.902608 0.973443
0.988899 0.947506 1.0446 0.999123
0.983628 0.985704 0.999436 0.998457
0.987163 1.00027 0.989597 0.997273
1.00556 0.997559 1.0103 0.997748
0.993616 1.00436 0.992927 0.996349
0.994996 1.01032 0.988568 0.996218
1.01604 1.00668 1.01507 0.994316
1.00371 1.00799 1.00087 0.99489
1.03487 1.05332 0.986355 0.996073
1.00497 1.00784 1.00319 0.993977
1.04127 1.05191 0.994832 0.995032
1.07058 1.09161 0.984374 0.9963
1.06634 1.08588 0.985506 0.996444
1.07933 1.08939 0.995204 0.995533
1.07809 1.09151 0.992003 0.995673
1.07582 1.08114 1 0.995081
1.06596 1.07141 0.999988 0.994928
1.05454 1.06138 0.99873 0.994811
1.06199 1.06706 1 0.995249
1.04285 1.0479 1.00014 0.995041
1.0287 1.03276 1.00148 0.994598
1.04281 1.04501 1.00224 0.995663
1.03464 1.03916 1.00024 0.995417
1.01427 1.01885 1 0.995504
1.01529 1.00843 1.00976 0.997076
1.02419 1.02094 1.007 0.996205
1.01378 1.01386 1.00404 0.995898
1.00588 1 1.00674 0.999144
1.0191 1.00669 1.01477 0.997595
1.01971 1.01007 1.01265 0.996936
1 1 1 1
1.00639 1 1.00704 0.999356
1.02126 1.00514 1.01802 0.998048
1 1 1 1
1.00682 1 1.00727 0.999554
1 1 1 1
1.01006 1.00907 1.00393 0.997065
1.00922 1.00314 1.00874 0.997351
1.01783 1.0021 1.01832 0.997433
1.01216 1 1.01383 0.998348
1.01978 1.00034 1.02189 0.997597
1.02568 1 1.02819 0.997555
1.00176 1 1.002 0.999762
1.00486 1 1.0063 0.998574
1.00826 1 1.01046 0.997824
1 1 1 1
1.00023 1 1.00037 0.999862
1.0031 1 1.00429 0.998816
1 1 1 1
0.999932 1 1 0.999932
1 1 1 1
0.556091 0.725098 0.871292 0.880208
0.663092 0.839927 0.877758 0.899409
0.661348 0.83513 0.880763 0.899119
1.0167 1.00316 1.01639 0.997155
1.03129 1.01291 1.02151 0.996709
1.03381 1.0024 1.03436 0.997072
1.02257 1 1.02504 0.997584
1.00379 1.0068 0.999489 0.997518
1.0002 0.999015 1.00294 0.998246
1.0228 0.99664 1.02834 0.997966
1.01923 1.00314 1.01893 0.997165
1.01943 0.998831 1.02328 0.9974
0.971239 1.00001 0.972234 0.998964
1.03059 0.998751 1.03374 0.998199
1.04178 0.999393 1.04404 0.998436
0.603048 0.768078 0.861802 0.911045
0.524011 0.692158 0.863549 0.876694
0.644264 0.841756 0.865526 0.884295
0.50854 0.705126 0.829695 0.869239
0.641016 0.777111 0.895436 0.921194
0.804345 0.863536 0.979146 0.951293
0.86527 0.892355 0.994905 0.974613
0.855677 0.897481 0.975663 0.977202
0.597191 0.755313 0.860395 0.918942
0.762809 0.853816 0.939076 0.951373
0.833913 0.905366 0.940212 0.97965
0.741828 0.892085 0.873327 0.952181
0.993404 1 0.994313 0.999086
0.985568 1.00077 0.985313 0.999488
1.04321 0.998115 1.04629 0.998939
0.935236 0.929109 1.01221 0.994454
0.994738 0.969993 1.02617 0.999362
0.97437 0.975111 1.00283 0.996417
0.953304 0.983134 0.974476 0.995057
0.669303 0.799808 0.908507 0.921103
0.570351 0.733537 0.875058 0.888553
0.673804 0.846267 0.881227 0.903521
0.928552 0.925861 1.00958 0.993389
0.806254 0.891169 0.928617 0.974261
0.558915 0.718776 0.875181 0.888494
0.73881 0.880782 0.881453 0.951624
0.606994 0.759829 0.864899 0.92364
0.917646 0.945633 0.975217 0.995065
0.654359 0.798086 0.892914 0.91824
0.805029 0.941859 0.897131 0.952729
0.798458 0.903442 0.905065 0.976499
0.921973 0.969944 0.953962 0.996415
0.867602 0.974079 0.927882 0.959917
0.853421 0.954204 0.911937 0.980748
0.96889 0.98287 0.987246 0.998511
0.982281 1.00036 0.98465 0.997233
0.972525 1.00912 0.966636 0.996999
0.99562 1.00393 0.995404 0.996306
0.994324 1.00959 0.988631 0.996205
1.01372 1.05616 0.962811 0.996888
1.00303 1.00734 1.00084 0.994886
1.0311 1.05105 0.984919 0.996042
1.04899 1.08996 0.965387 0.99692
1.0405 1.05141 0.994556 0.995036
1.06916 1.09117 0.983484 0.996287
1.05665 1.08664 0.975387 0.99694
1.06433 1.08633 0.982869 0.996827
1.0661 1.08626 0.984859 0.996522
1.06916 1.08342 0.990512 0.996294
1.08341 1.09063 0.997763 0.9956
1.08034 1.08964 0.995876 0.995569
1.08095 1.09424 0.992089 0.995725
1.08155 1.0867 1 0.995264
1.07708 1.08239 0.999988 0.995105
1.06417 1.06953 0.999976 0.995012
1.06288 1.06776 1 0.995431
1.06379 1.06887 1 0.995247
1.04311 1.04811 1.00017 0.995058
1.01699 1.01889 1.00158 0.996565
1.04292 1.04582 1.00157 0.995673
1.03155 1.03595 1.00034 0.995413
1.00511 1.00015 1.00621 0.998758
1.01778 1.01128 1.00939 0.997068
1.02879 1.02519 1.00735 0.996195
1 1 1 1
1.00609 1 1.00698 0.999121
1.01961 1.00887 1.01309 0.997586
0.999915 1 1 0.999915
1.00685 1 1.0075 0.999355
1 1 1 1
1.02142 1.01646 1.00822 0.996689
1.00893 1.00459 1.00726 0.997074
1.01053 1.00448 1.0088 0.997251
1.00672 1.00298 1.00645 0.997293
1.01662 1.00141 1.01779 0.997439
1.01788 1 1.0198 0.998117
1.00335 1 1.00372 0.999631
1.01116 1 1.01283 0.998347
1.01998 1 1.02244 0.997595
1 1 1 1
1.00079 1 1.00102 0.999779
1.00421 1 1.00564 0.99858
1 1 1 1
0.999878 1 1 0.999878
1 1 1 1
0.64085 0.78989 0.883698 0.918092
0.558607 0.72577 0.872023 0.882631
0.664564 0.843142 0.876224 0.899541
1.02152 1.00179 1.02263 0.997128
1.04174 1.00195 1.04308 0.996777
1.02521 1.01138 1.01699 0.996736
1.01741 1.01928 1.00242 0.995766
1.03137 1.00405 1.03002 0.997269
1.02054 0.999899 1.02282 0.997867
1.02015 1.00328 1.01951 0.997362
1.02025 1.00074 1.02202 0.997525
0.996727 1.00903 0.990709 0.997071
0.961978 1.00141 0.962125 0.998436
0.969179 1.00086 0.97064 0.997636
0.977637 1.00089 0.977757 0.998984
1.03598 0.998419 1.03928 0.998402
0.808209 0.93939 0.898279 0.957781
0.598443 0.765287 0.855815 0.913731
0.5119 0.679532 0.856623 0.879397
0.592236 0.763322 0.851005 0.911706
0.76762 0.856553 0.939202 0.954186
0.865483 0.898627 0.982367 0.980404
0.830396 0.901309 0.938247 0.981961
0.774536 0.892293 0.904627 0.959543
0.845446 0.950371 0.906941 0.980875
0.987226 1.00052 0.988446 0.998243
0.995004 0.999446 0.996495 0.999057
0.985991 1.00037 0.986188 0.999427
0.979638 0.980434 1.00274 0.996455
0.962897 0.986534 0.980071 0.995887
0.859569 0.964245 0.932973 0.955486
0.664415 0.797416 0.903086 0.922625
0.563129 0.730226 0.868304 0.888134
0.921423 0.954587 0.971901 0.993165
0.802639 0.914152 0.901676 0.973758
0.642576 0.791765 0.884945 0.917089
0.811703 0.938456 0.900989 0.959984
0.931638 0.971867 0.961944 0.99653
0.874053 0.980854 0.928519 0.959716
0.850313 0.95094 0.914781 0.977481
0.927089 0.99908 0.931856 0.9958
0.897622 0.9872 0.921514 0.986703
0.980085 1.00217 0.980684 0.997223
0.966468 1.00903 0.960744 0.996957
0.971264 1.04442 0.932476 0.997297
0.993377 1.00895 0.988335 0.99619
1.01745 1.05829 0.964452 0.996851
1.03747 1.09405 0.950907 0.997243
1.02745 1.04881 0.983554 0.996012
1.04908 1.08951 0.965894 0.996891
1.04679 1.08953 0.963513 0.997157
1.06723 1.0902 0.982587 0.996274
1.05633 1.08594 0.975743 0.996917
1.06028 1.09113 0.97464 0.99701
1.06209 1.08503 0.981912 0.996884
1.06586 1.08635 0.984447 0.996634
1.06559 1.0863 0.984282 0.996599
1.06837 1.08321 0.989977 0.996286
1.07128 1.0815 0.994481 0.996048
1.08355 1.08906 0.999398 0.995535
1.08412 1.09088 0.998209 0.995588
1.08123 1.08976 0.996553 0.995605
1.07551 1.08053 1 0.995354
1.08382 1.08899 1 0.995251
1.0782 1.08351 0.999977 0.995129
1.03096 1.03396 1.00093 0.996176
1.06203 1.0669 1 0.995439
1.06587 1.07096 1 0.995245
1.00236 1.00103 1.00301 0.998323
1.01973 1.02125 1.00195 0.996571
1.04307 1.04615 1.00137 0.995682
1 1 1 1
1.00456 1.00027 1.00557 0.998729
1.01892 1.01381 1.008 0.997061
1 1 1 1
1.00563 1 1.00654 0.999098
1 1 1 1
1.03009 1.03355 1.00086 0.995792
1.02012 1.01879 1.00464 0.996682
1.01319 1.00776 1.0086 0.996821
1.0087 1.00047 1.01117 0.997084
1.01022 1.00279 1.01023 0.997199
1.01698 1.00281 1.0164 0.997774
1.0185 1.00105 1.02004 0.997443
1.01922 1 1.02116 0.99811
1.00799 1 1.00857 0.999427
1 1 1 1
1.00342 1 1.00377 0.999646
1.0127 1 1.01438 0.998346
1 1 1 1
1.00085 1 1.00106 0.999792
1 1 1 1
0.864898 0.971327 0.925533 0.962072
0.655937 0.799983 0.892056 0.919155
0.552286 0.723523 0.868051 0.879359
1.05197 1.00153 1.05408 0.99648
1.01973 1.01144 1.01147 0.996764
1.0277 1.00553 1.02504 0.997079
1.01643 1.01837 1.00224 0.995862
1.03984 1.04428 1.00016 0.995584
1.00207 1.01306 0.992393 0.99673
1.02405 1.00315 1.02325 0.997644
0.997977 1.01043 0.990809 0.996836
0.970413 1.00214 0.969877 0.998417
0.999491 1.0072 0.995263 0.997066
0.972675 1.00348 0.971695 0.997535
0.990878 1.00171 0.992071 0.997096
0.967841 1.00107 0.968996 0.997738
0.984419 0.999961 0.985439 0.999004
0.857017 0.962466 0.907931 0.980734
0.811559 0.947307 0.895539 0.956631
0.615129 0.765388 0.871306 0.922389
0.744999 0.880038 0.889791 0.951407
0.842234 0.903608 0.948066 0.983137
0.852371 0.938919 0.920891 0.985808
0.950671 1.00342 0.951126 0.996119
0.984008 0.999956 0.985892 0.998134
0.996174 0.998712 0.998428 0.999029
0.97038 0.989404 0.984018 0.996701
0.887028 0.973369 0.928525 0.981445
0.868071 0.97005 0.928927 0.96334
0.654051 0.791748 0.903064 0.914758
0.930013 0.967195 0.964768 0.996671
0.849536 0.951781 0.911414 0.979331
0.869101 0.982242 0.922398 0.959254
0.92653 0.997321 0.932788 0.995959
0.901966 0.98469 0.929351 0.985623
0.941334 1.02555 0.921225 0.996371
0.950876 1.02566 0.932131 0.994585
0.959998 1.009 0.954383 0.996907
0.968772 1.04111 0.933038 0.997301
1.0064 1.08872 0.926965 0.997216
1.0219 1.06092 0.96629 0.996814
1.03741 1.0936 0.951258 0.997217
1.05573 1.09985 0.962664 0.997106
1.04938 1.08937 0.966326 0.996861
1.04816 1.0894 0.964901 0.997138
1.0667 1.10025 0.972459 0.996965
1.0562 1.08551 0.97603 0.996894
1.05891 1.08899 0.975299 0.997005
1.06671 1.09229 0.979774 0.996739
1.06 1.08396 0.980899 0.99694
1.06533 1.08618 0.984078 0.99668
1.07065 1.08541 0.990055 0.996308
1.06765 1.08309 0.989427 0.996278
1.07182 1.08208 0.994455 0.996038
1.07799 1.0849 0.997793 0.99583
1.0772 1.08212 1 0.995457
1.08447 1.08981 0.999592 0.995498
1.08481 1.09106 0.998694 0.995575
1.04778 1.052 1 0.995992
1.07401 1.07902 1 0.995361
1.08623 1.09143 1 0.995237
1.00431 1.0053 1.00099 0.998022
1.03072 1.0335 1.00114 0.996177
1.06013 1.06498 1 0.995447
1 1 1 1
1.00276 1.00212 1.00234 0.998296
1.02252 1.02361 1.00237 0.996578
1 1 1 1
1.00432 1.00035 1.00527 0.998702
1 1 1 1
1.05244 1.05719 1 0.995504
1.03031 1.03414 1.00049 0.995814
1.03134 1.03243 1.00285 0.996114
1.0193 1.0203 1.00235 0.996674
1.0156 1.01187 1.00697 0.996741
1.01789 1.01212 1.00841 0.997322
1.00886 1.00014 1.0116 0.997148
1.01569 1.00195 1.01597 0.997778
1.00759 1 1.00844 0.99916
1.01729 1 1.01923 0.998104
1.00602 1 1.00659 0.999439
1 1 1 1
1 1 1 1
1.00202 1 1.00236 0.999662
1 1 1 1
0.881963 0.963262 0.932174 0.982221
0.856754 0.967526 0.927576 0.95465
0.662613 0.792477 0.904702 0.924204
1.06701 1.07193 0.999801 0.995611
1.02281 1.00627 1.01961 0.996894
1.01585 1.01785 1.00208 0.995959
1.0032 1.01431 0.992274 0.996742
1.04017 1.04439 1.00039 0.995568
1.02654 1.03097 0.999032 0.99667
1.00084 1.01194 0.992396 0.996602
0.976807 1.00201 0.97641 0.998395
0.997878 1.00886 0.992012 0.997081
0.964505 1.0028 0.964335 0.997385
1.02343 1.02517 1.00198 0.996327
0.971843 1.00784 0.966979 0.997209
0.990318 1.00228 0.990947 0.997096
0.967912 1.00134 0.968715 0.997838
0.936304 1.00509 0.934583 0.996771
0.844262 0.954103 0.903905 0.978947
0.814928 0.952966 0.894764 0.955725
0.849988 0.932262 0.927225 0.983309
0.95298 1.0033 0.952334 0.997389
0.981403 0.999948 0.983411 0.998011
0.958859 1.01474 0.951646 0.992941
0.885147 0.959312 0.938956 0.982675
0.860755 0.970259 0.928296 0.955664
0.931307 0.996505 0.938224 0.996109
0.909426 0.987347 0.935673 0.984404
0.943689 1.02747 0.921598 0.996597
0.958228 1.02606 0.938581 0.995003
0.990634 1.05928 0.938061 0.996948
1.05553 1.11656 0.948295 0.996888
0.965101 1.03708 0.93311 0.997305
1.01281 1.09039 0.931463 0.997197
1.05178 1.11545 0.945797 0.996958
1.03723 1.09277 0.951846 0.997191
1.05213 1.09753 0.961419 0.997104
1.0691 1.1103 0.965941 0.996847
1.0494 1.08906 0.966366 0.997118
1.06409 1.09816 0.971907 0.996979
1.07093 1.09738 0.979139 0.996691
1.05754 1.08676 0.976035 0.997
1.06733 1.09286 0.979836 0.996736
1.07058 1.08971 0.985959 0.996435
1.06473 1.08591 0.983714 0.996726
1.07017 1.08545 0.989525 0.996353
1.07927 1.08849 0.995489 0.996023
1.07233 1.08268 0.994385 0.996029
1.07799 1.08468 0.997996 0.995832
1.07842 1.08319 1 0.995593
1.0549 1.05917 1 0.995968
1.07645 1.08138 1 0.995441
1.08536 1.09054 0.999788 0.995461
1.01359 1.01571 1 0.997919
1.04567 1.04987 1 0.995992
1.07299 1.07798 1 0.995368
1 1 1 1
1.00726 1.0088 1.00046 0.998004
1.03146 1.03446 1.00093 0.996177
1 1 1 1
1.00327 1.00364 1.00137 0.99827
1 1 1 1
1.06935 1.07429 1 0.995402
1.05055 1.0553 1 0.995496
1.05791 1.06248 1 0.995705
1.02969 1.03372 1.00026 0.995836
1.03646 1.03734 1.00309 0.996077
1.02731 1.02634 1.00407 0.99689
1.01726 1.01603 1.00456 0.996661
1.01425 1.00777 1.00913 0.997328
1.00456 1.00014 1.00556 0.998876
1.01636 1.00068 1.01792 0.997776
1.00754 1.00007 1.0083 0.999176
1 1 1 1
1.00544 1 1.00599 0.999451
1 1 1 1
1 1 1 1
0.938888 1.0103 0.932893 0.996169
0.871621 0.962922 0.925106 0.978464
0.856012 0.967138 0.919661 0.962417
1.06393 1.06897 0.999061 0.996227
1.07231 1.08323 0.993981 0.995915
1.06628 1.07131 0.999591 0.995711
1.00448 1.01593 0.991952 0.996752
1.04029 1.04424 1.00066 0.995552
1.02959 1.03486 0.998234 0.996661
1.05162 1.07109 0.98553 0.996243
0.99714 1.01058 0.989573 0.997097
0.959111 1.00253 0.959338 0.997236
1.02716 1.02894 1.00179 0.99649
1.02517 1.06197 0.96896 0.996269
0.979649 1.03147 0.95232 0.997315
0.983998 1.01134 0.975763 0.997131
0.993793 1.00275 0.993955 0.997095
0.933854 1.00592 0.93101 0.997147
0.853755 0.958651 0.91138 0.977178
0.953772 1.00196 0.953143 0.998707
1.03829 1.0842 0.96019 0.997359
0.954323 1.01375 0.94791 0.993111
0.885641 0.964889 0.936416 0.980193
0.946303 1.0298 0.921865 0.996806
0.963541 1.02655 0.942913 0.995447
0.984467 1.05938 0.931937 0.99716
1.0519 1.11495 0.946361 0.996925
1.05931 1.12983 0.940473 0.996925
1.10588 1.15782 0.957923 0.997101
1.01931 1.09319 0.935052 0.997178
1.05759 1.11886 0.948118 0.996959
1.07117 1.12035 0.959187 0.99678
1.0482 1.09527 0.959809 0.997101
1.06918 1.10986 0.966386 0.99685
1.06948 1.10277 0.973055 0.996665
1.06143 1.09609 0.971302 0.996993
1.07198 1.09835 0.979227 0.996687
1.0724 1.0928 0.98483 0.996451
1.06797 1.09346 0.979893 0.996733
1.0712 1.09029 0.986005 0.996433
1.07913 1.09144 0.992582 0.996109
1.06966 1.08547 0.988996 0.996399
1.07835 1.08793 0.995141 0.996032
1.08298 1.08781 0.999874 0.995682
1.07798 1.08441 0.998225 0.995834
1.0782 1.08296 1 0.995607
1.05549 1.05974 1 0.995982
1.01959 1.0217 1 0.997936
1.05507 1.05933 1 0.99597
1.07598 1.08092 1 0.995426
0.999999 1 1 0.999999
1.01505 1.01705 1.00012 0.997911
1.04276 1.04663 1.00031 0.995993
0.999999 1 1 0.999999
1.00944 1.01111 1.00037 0.997986
0.999999 1 1 0.999999
1.07606 1.08207 0.998832 0.995609
1.06856 1.07349 0.999979 0.995425
1.07046 1.07527 1 0.995535
1.04889 1.05365 1 0.995487
1.05901 1.06358 1 0.995701
1.0314 1.03374 1.00124 0.996508
1.04257 1.04334 1.00324 0.996039
1.02254 1.02149 1.00415 0.996891
1.00241 1.00127 1.00262 0.998515
1.01102 1.00463 1.00905 0.997336
1.00508 1.00012 1.00607 0.998896
1 1 1 1
1.00675 1 1.00757 0.999192
1 1 1 1
1 1 1 1
0.984372 1.05793 0.932683 0.99763
0.940089 1.00866 0.936871 0.99482
0.874502 0.966706 0.923595 0.979456
1.06501 1.08205 0.98804 0.996161
1.0622 1.06761 0.998481 0.996449
1.07823 1.09577 0.987843 0.996103
1.07162 1.08391 0.992739 0.995893
1.06523 1.07045 0.99931 0.995811
1.07251 1.10582 0.973699 0.996072
1.03274 1.03883 0.99747 0.996652
1.04954 1.06788 0.986586 0.996181
1.04873 1.10703 0.95076 0.996405
1.02542 1.03254 0.996434 0.996652
1.02535 1.06345 0.96788 0.996166
0.973275 1.03727 0.940784 0.997363
0.991677 1.01334 0.981518 0.99705
0.931789 1.00649 0.928135 0.997462
1.09145 1.14599 0.955131 0.997144
1.04384 1.08954 0.960567 0.997388
0.95573 1.01224 0.95055 0.99329
0.97845 1.05874 0.926605 0.997368
1.04882 1.11309 0.945127 0.996963
1.05161 1.12527 0.9374 0.996945
1.11401 1.16439 0.959521 0.997103
1.08763 1.13611 0.96023 0.996983
1.06324 1.12174 0.950747 0.99696
1.07177 1.11919 0.960718 0.996791
1.07012 1.10696 0.969905 0.996723
1.06937 1.1094 0.966963 0.996852
1.07021 1.1029 0.973622 0.996645
1.07181 1.09439 0.982856 0.996451
1.07305 1.09935 0.979325 0.996684
1.07288 1.09326 0.984854 0.996447
1.07765 1.0918 0.990839 0.996171
1.07184 1.09089 0.986053 0.99643
1.07949 1.09175 0.992627 0.996108
1.08758 1.09293 0.999333 0.995763
1.07743 1.0874 0.994768 0.996041
1.083 1.08788 0.999824 0.995689
1.05611 1.06038 1 0.995976
1.07778 1.08252 1 0.995622
1.05661 1.06087 1 0.995984
1.01974 1.02143 1 0.998354
0.999274 1 1 0.999274
1.01971 1.02164 1 0.99811
1.0549 1.05917 1 0.995972
1 1 1 1
1.01711 1.01925 1 0.997903
1 1 1 1
1.08306 1.09799 0.990141 0.99623
1.07752 1.08795 0.994482 0.99591
1.07519 1.08222 0.997857 0.995642
1.06944 1.07422 1 0.99555
1.06812 1.07301 0.999994 0.995449
1.06832 1.07312 1 0.995525
1.03499 1.03859 1.00033 0.996215
1.05924 1.06382 1 0.995697
1.03138 1.03391 1.00105 0.996505
1.00584 1.00727 1.00045 0.998138
1.01708 1.0159 1.00428 0.996892
1.00299 1.00097 1.00348 0.998536
1 1 1 1
1.00562 1.00015 1.00657 0.998918
1 1 1 1
1 1 1 1
1.07754 1.13554 0.951895 0.996874
0.997247 1.0693 0.934852 0.997608
0.938074 1.00857 0.936187 0.993499
1.07272 1.0976 0.981118 0.996141
1.06118 1.07836 0.987825 0.996203
1.0607 1.06636 0.998015 0.99667
1.07773 1.09374 0.989201 0.996118
1.07095 1.08444 0.991653 0.995871
1.07752 1.1224 0.963495 0.996384
1.0658 1.10009 0.972689 0.996028
1.04775 1.06505 0.987586 0.996118
1.04279 1.10043 0.951046 0.996407
1.03118 1.06718 0.970085 0.996063
0.968958 1.04705 0.92781 0.997421
1.08313 1.12455 0.965974 0.997093
1.09248 1.14644 0.955627 0.997183
1.04855 1.09547 0.959644 0.997417
1.0441 1.12146 0.933854 0.996961
1.12199 1.17165 0.960395 0.997104
1.08987 1.13857 0.960122 0.996986
1.07813 1.1081 0.976026 0.996856
1.07233 1.11796 0.962263 0.996801
1.07091 1.10682 0.97076 0.996705
1.07335 1.09568 0.983055 0.996507
1.07096 1.10306 0.974188 0.996626
1.07242 1.09496 0.982904 0.99645
1.07629 1.09104 0.990237 0.996208
1.07338 1.09375 0.984879 0.996442
1.07828 1.09237 0.990899 0.996169
1.08946 1.09558 0.998593 0.995821
1.07978 1.09201 0.992671 0.996107
1.0869 1.09234 0.999247 0.995767
1.05675 1.06106 1 0.995939
1.08306 1.08799 0.999773 0.995695
1.05724 1.06151 1 0.99598
1.01794 1.01959 1 0.998383
1.05812 1.06239 1 0.995986
1.01922 1.02091 1 0.998347
0.99931 1 1 0.99931
0.999656 1 1 0.999656
1.01996 1.02169 1 0.998302
1 1 1 1
1.07403 1.09449 0.985006 0.996246
1.08033 1.0906 0.994523 0.996032
1.08129 1.09642 0.989798 0.996362
1.07892 1.08367 0.999961 0.995655
1.07982 1.08971 0.994997 0.995907
1.0743 1.08242 0.99681 0.995675
1.06995 1.07474 1 0.995539
1.05114 1.05528 1 0.996078
1.06692 1.07172 1 0.995514
1.0399 1.04366 1.00018 0.996215
1.01536 1.01743 1 0.997964
1.03156 1.03448 1.00068 0.996504
1.00422 1.00491 1.00116 0.998163
1 1 1 1
1.00332 1.00049 1.00427 0.998558
1 1 1 1
1 1 1 1
1.07715 1.11929 0.96549 0.996751
1.0681 1.12506 0.952343 0.996878
1.00952 1.07805 0.938707 0.99758
1.07477 1.10491 0.976315 0.996321
1.0698 1.0952 0.980596 0.996135
1.0569 1.07431 0.987499 0.996246
1.07691 1.09162 0.990363 0.996133
1.078 1.12146 0.964764 0.996357
1.05866 1.09364 0.971917 0.995984
1.03337 1.08895 0.952377 0.996409
1.08188 1.11093 0.976854 0.996922
1.08183 1.12248 0.966636 0.997049
1.09337 1.14602 0.956714 0.99722
1.07701 1.10029 0.982018 0.996765
1.09189 1.14071 0.960093 0.996989
1.07775 1.10782 0.975936 0.996841
1.07581 1.09646 0.984493 0.996626
1.07171 1.10666 0.971638 0.996687
1.07365 1.09601 0.983031 0.99651
1.07622 1.09028 0.990827 0.996243
1.07298 1.09548 0.982953 0.996449
1.0766 1.09138 0.990213 0.996208
1.08919 1.0961 0.997817 0.995869
1.0789 1.09294 0.990959 0.996166
1.08838 1.09453 0.998554 0.995824
1.05673 1.06108 1 0.995899
1.08621 1.09173 0.999162 0.995771
1.05797 1.06228 1 0.995943
1.01622 1.01788 1 0.998363
1.05835 1.06262 1 0.995983
1.01738 1.01904 1 0.998367
0.999312 1 1 0.999312
1.01855 1.02024 1 0.998344
0.999329 1 1 0.999329
1 1 1 1
1.07333 1.09338 0.985454 0.99616
1.078 1.09205 0.991045 0.996058
1.07604 1.09564 0.985814 0.996245
1.08606 1.09129 0.999441 0.995759
1.08022 1.09235 0.992783 0.996087
1.07976 1.09501 0.989542 0.996494
1.06182 1.06606 1 0.996026
1.07954 1.08426 1 0.995644
1.08255 1.09179 0.995612 0.995903
1.07056 1.07537 1 0.995528
1.05181 1.05596 1 0.996076
1.02178 1.02388 1 0.997955
1.04396 1.04792 1 0.996215
1.01227 1.01426 1.00006 0.997979
1 1 1 1
1.0028 1.00284 1.00178 0.998185
1 1 1 1
1 1 1 1
1.07668 1.10492 0.977721 0.996644
1.07835 1.12151 0.964679 0.996726
1.0606 1.11786 0.95175 0.996882
1.07432 1.10426 0.976462 0.996338
1.06684 1.09285 0.979994 0.996129
1.0793 1.12167 0.965773 0.99633
1.07953 1.10178 0.982992 0.996763
1.08195 1.11076 0.97708 0.996917
1.08105 1.12098 0.967279 0.997005
1.0774 1.10033 0.982316 0.996787
1.07428 1.09211 0.987041 0.996594
1.07734 1.10755 0.975824 0.996826
1.07625 1.09627 0.985091 0.99659
1.07489 1.08909 0.990584 0.996338
1.07397 1.09635 0.983009 0.996513
1.07611 1.0902 0.990798 0.996246
1.08801 1.09601 0.996792 0.995898
1.07699 1.09181 0.990187 0.996207
1.08846 1.09545 0.99774 0.99587
1.05582 1.06019 1 0.995886
1.0873 1.09349 0.998506 0.995827
1.05818 1.06253 1 0.995903
1.01402 1.01573 1 0.998318
1.05922 1.06353 1 0.995948
1.01556 1.01724 1 0.99834
0.999287 1 1 0.999287
1.01681 1.01849 1 0.998355
0.999345 1 1 0.999345
0.999342 1 1 0.999342
1.07459 1.09436 0.985452 0.996437
1.07856 1.09145 0.992138 0.996024
1.07272 1.09428 0.984057 0.996184
1.08632 1.09398 0.99715 0.995834
1.07867 1.09171 0.991982 0.996042
1.07805 1.09681 0.986595 0.996244
1.0606 1.06486 1 0.995999
1.08513 1.0912 0.998654 0.99578
1.07993 1.09399 0.990968 0.996143
1.02072 1.02277 1 0.99799
1.05991 1.06414 1 0.996024
1.07983 1.08456 1 0.995633
1.05235 1.0565 1 0.996074
1.02062 1.0227 1 0.997963
1 1 1 1
1.00937 1.01115 1.00025 0.997996
1 1 1 1
1 1 1 1
1.07558 1.09663 0.984097 0.996653
1.07672 1.10498 0.977713 0.996631
1.07876 1.12285 0.963916 0.9967
1.07427 1.10379 0.976808 0.996356
1.07482 1.08958 0.989862 0.996553
1.07965 1.1021 0.9828 0.996774
1.08209 1.11057 0.977369 0.996913
1.07781 1.10037 0.982632 0.996808
1.07431 1.09251 0.986691 0.996604
1.07536 1.08802 0.992009 0.996326
1.07672 1.09611 0.985706 0.996553
1.07589 1.08931 0.991363 0.996287
1.08634 1.09509 0.99602 0.995977
1.07603 1.09014 0.990769 0.996248
1.08741 1.09534 0.996839 0.9959
1.05401 1.05836 1 0.995882
1.08755 1.09459 0.997689 0.995871
1.05707 1.06144 1 0.995887
1.01073 1.01283 1 0.997924
1.05954 1.0639 1 0.995906
1.01296 1.01487 1 0.998127
1 1 1 1
1.01488 1.01659 1 0.99832
0.999326 1 1 0.999326
0.999369 1 1 0.999369
1.07421 1.09023 0.988716 0.996545
1.07638 1.08987 0.991414 0.996172
1.07512 1.09374 0.986491 0.996431
1.0863 1.09328 0.997778 0.995833
1.07778 1.09082 0.991985 0.996024
1.07213 1.09518 0.982675 0.996209
1.05781 1.06211 1 0.995952
1.08669 1.09383 0.997623 0.995835
1.07944 1.09139 0.992992 0.996026
1.01689 1.01891 1 0.998021
1.05904 1.0633 1 0.99599
1.084 1.09082 0.997936 0.995801
1 1 1 1
1.02163 1.02368 1 0.997998
1.05805 1.06228 1 0.996022
1.01952 1.02159 1 0.997972
1 1 1 1
0.999999 1 1 0.999999
1.07345 1.08716 0.990802 0.996554
1.07664 1.09725 0.98451 0.996658
1.07661 1.10493 0.977681 0.996618
1.07581 1.08667 0.99371 0.996271
1.07391 1.08924 0.989325 0.996563
1.07974 1.10243 0.982577 0.996786
1.0743 1.09292 0.986307 0.996614
1.07529 1.08807 0.991896 0.996327
1.08648 1.094 0.997158 0.995963
1.0768 1.08944 0.992133 0.996237
1.08672 1.09488 0.996611 0.995927
1.05166 1.05635 0.999649 0.995914
1.0869 1.0948 0.996868 0.995902
1.05503 1.05939 1 0.995883
1.00761 1.00971 1 0.997924
1.05851 1.06288 1 0.995889
1.0098 1.0119 1 0.997923
1 1 1 1
1.01194 1.01407 1 0.997904
0.999635 1 1 0.999635
0.999361 1 1 0.999361
1.06996 1.08362 0.990843 0.996517
1.07611 1.08687 0.993813 0.996266
1.0736 1.08942 0.98888 0.996554
1.08558 1.09208 0.998203 0.995836
1.0768 1.09 0.991697 0.99616
1.07555 1.09304 0.987526 0.996425
1.0558 1.06015 1 0.995902
1.08672 1.09326 0.998203 0.995803
1.07691 1.09015 0.991795 0.996023
1.0133 1.01533 1 0.998002
1.05686 1.06117 1 0.995944
1.08699 1.09369 0.99803 0.995836
1 1 1 1
1.01809 1.02011 1 0.998028
1.05783 1.0621 1 0.995981
1 1 1 1
1.02255 1.02459 1 0.998007
1 1 1 1
1.07664 1.08665 0.994465 0.996304
1.07256 1.08644 0.990651 0.996542
1.0777 1.09783 0.984955 0.996664
1.08664 1.09378 0.997498 0.995956
1.0753 1.0866 0.993292 0.996289
1.07301 1.0889 0.988793 0.996572
1.07523 1.08811 0.991809 0.996328
1.08579 1.0935 0.996974 0.995963
1.04907 1.05363 0.99975 0.995926
1.08708 1.09468 0.99717 0.995877
1.05251 1.05705 0.999812 0.995893
1.005 1.0071 1 0.997915
1.05588 1.06025 1 0.995883
1.00674 1.00883 1 0.997923
1 1 1 1
1.00878 1.01089 1 0.997921
1 1 1 1
0.999335 1 1 0.999335
1.07623 1.08577 0.994912 0.996278
1.06864 1.08327 0.989928 0.996531
1.08583 1.09203 0.998417 0.995902
1.07667 1.08738 0.993862 0.996265
1.07297 1.08864 0.989004 0.996562
1.05353 1.05789 1 0.995876
1.08623 1.09268 0.998255 0.995833
1.07734 1.09026 0.991971 0.996149
1.01009 1.01216 1 0.997954
1.0552 1.05956 1 0.995887
1.08723 1.09329 0.998671 0.995773
1 1 1 1
1.0143 1.01633 1 0.998008
1.05595 1.06026 1 0.995936
1 1 1 1
1.01922 1.02122 1 0.998035
1 1 1 1
1.08668 1.09316 0.998099 0.995969
1.07664 1.08649 0.994619 0.996295
1.07167 1.08571 0.990514 0.996529
1.04743 1.05191 0.999804 0.995942
1.08603 1.09323 0.997441 0.995956
1.07478 1.0865 0.992886 0.996307
1.0851 1.09299 0.996805 0.995964
1.0497 1.05435 0.999657 0.995923
1.00349 1.00558 1 0.997924
1.05343 1.0578 1 0.995872
1.00453 1.00663 1 0.997914
1 1 1 1
1.00592 1.00801 1 0.997922
1 1 1 1
1 1 1 1
1.08693 1.09266 0.998806 0.99594
1.07589 1.08591 0.994425 0.996326
1.06742 1.08301 0.989021 0.996544
1.05118 1.05551 1 0.995905
1.0862 1.09239 0.998434 0.995899
1.07721 1.08785 0.993931 0.996265
1.00718 1.00927 1 0.997926
1.0526 1.05697 1 0.995874
1.08681 1.09321 0.998307 0.995829
1 1 1 1
1.01099 1.01306 1 0.997958
1.05453 1.0589 1 0.995872
1 1 1 1
1.01527 1.01729 1 0.998013
1 1 1 1
1.04765 1.05194 1 0.99592
1.08614 1.09283 0.99789 0.995981
1.07662 1.08637 0.994724 0.996286
1.00247 1.00451 1 0.997966
1.04801 1.05256 0.999737 0.99594
1.08541 1.09269 0.997363 0.995957
1.05028 1.05506 0.999552 0.995919
1.00317 1.00525 1 0.997924
1 1 1 1
1.00406 1.00617 1 0.997912
1 1 1 1
1 1 1 1
1.04889 1.05319 1 0.995925
1.08651 1.09254 0.998506 0.995971
1.07549 1.08597 0.993956 0.996374
1.00501 1.00671 1 0.998316
1.0503 1.05462 1 0.995904
1.08647 1.09264 0.998446 0.995896
1 1 1 1
1.00797 1.01007 1 0.997927
1.05169 1.05605 1 0.995871
1 1 1 1
1.01191 1.01398 1 0.997961
1 1 1 1
1.00202 1.00409 1 0.997939
1.04731 1.05171 0.999883 0.995936
1.08565 1.0925 0.99773 0.995993
1 1 1 1
1.0023 1.00434 1 0.997964
1.04861 1.05323 0.999672 0.995937
1.00287 1.00496 1 0.997924
1 1 1 1
1 1 1 1
1.0032 1.00491 1 0.998302
1.04848 1.05277 1 0.995926
1.08619 1.09252 0.998198 0.996003
1 1 1 1
1.00539 1.00746 1 0.997938
1.04964 1.05396 1 0.995904
1 1 1 1
1.00878 1.01087 1 0.997928
1 1 1 1
0.999356 1 1 0.999356
1.00242 1.00428 1 0.998146
1.04699 1.05151 0.999748 0.995952
1 1 1 1
1.0021 1.00414 1 0.997965
1 1 1 1
0.999359 1 1 0.999359
1.00351 1.00539 1 0.998136
1.04794 1.05222 1 0.995927
0.99967 1 1 0.99967
1.00605 1.00813 1 0.997942
1 1 1 1
1 1 1 1
1.00241 1.00444 1 0.997985
1 1 1 1
0.999681 1 1 0.999681
1.00388 1.00592 1 0.997975
1 1 1 1
1 1 1 1
1 1 1 1

VECTORS lamdaE float
1.00321 0.999663 0.991956
1.00275 1.00054 0.995893
1.00263 0.999816 0.992417
1.00262 1.00013 0.992235
1.00304 0.999831 0.992011
1.00337 0.999611 0.991855
1.00372 1.00079 0.989228
1.00283 1.00063 0.995813
1.00211 1 0.996665
1.00195 1.0006 0.996643
1.00244 1.00125 0.991276
1.00377 1.0017 0.986798
1.00191 0.999963 0.993199
1.00156 1.0001 0.993456
1.00208 1 0.992852
1.00217 1.00014 0.992699
1.00267 0.999939 0.992288
1.00253 0.999881 0.99248
1.004 1.00072 0.988959
1.00198 1.00001 0.996358
1.00242 1.00016 0.992426
1.00286 1 0.992079
1.00352 1.00029 0.990086
1.00367 1.00056 0.989584
1.00333 0.999777 0.991753
1.00376 1.00119 0.988736
1.00534 1.00153 0.985117
1.00293 1.00067 0.995706
1.00243 0.99991 0.994503
1.00238 1.00028 0.994408
1.00282 1.00119 0.995605
1.00376 1.0018 0.986738
1.00251 0.999862 0.992434
1.00272 0.999792 0.992261
1.00404 1.00053 0.989583
1.00108 1.00284 0.996405
1.00404 1.00117 0.989111
1.00391 1.00246 0.985793
1.00541 1.00315 0.982854
1.00122 1.00144 0.996548
1.00195 0.999985 0.996372
1.00186 1.00004 0.994857
1.00187 0.999963 0.996438
1.00138 1.00008 0.993672
1.00347 0.999838 0.989442
1.0018 1 0.99676
1.00383 1.00019 0.990294
1.00175 1.00011 0.993163
1.00205 0.999917 0.992935
1.00205 1.00023 0.992707
1.00426 1.00062 0.988705
1.00175 1.00003 0.994968
1.00197 1.00021 0.992895
1.0027 1.00022 0.992116
1.00239 1.00001 0.992545
1.00375 1.00026 0.989822
1.00407 1.00104 0.988485
1.00392 1.0005 0.989314
1.00535 1.00146 0.985268
1.00187 0.99999 0.996414
1.00223 1.00009 0.992737
1.00321 0.999902 0.991279
1.0034 1.00013 0.99042
1.00363 1.00042 0.989819
1.00539 0.999526 0.987213
1.00532 1.00011 0.986613
1.00338 1.00033 0.991175
1.00372 1.00214 0.987903
1.00534 1.00255 0.984025
1.00534 0.998179 0.987741
1.00287 0.999836 0.995986
1.00276 1.00127 0.995663
1.00288 1.00019 0.99594
1.00377 1.00183 0.986677
1.0026 0.99989 0.996036
1.00286 0.999884 0.99599
1.00386 1.00057 0.987919
1.0015 1.00216 0.993952
1.00382 1.00111 0.987405
1.00393 1.0026 0.986831
1.00545 1.00304 0.982824
1.00174 1.00172 0.996061
1.00191 1.00338 0.988342
1.00394 1.00039 0.988104
1.00405 1.0006 0.987653
1.00532 0.999932 0.986333
1.00348 1.0035 0.987869
1.00541 1.00168 0.984281
1.00529 1.00441 0.981708
1.00556 1.00043 0.984996
1.00075 1.00101 0.997019
1.00092 1.00141 0.996741
1.00228 0.999995 0.996163
1.00201 0.999983 0.996338
1.00191 0.999966 0.99643
1.00174 1 0.995008
1.0035 0.999837 0.99018
1.00209 0.999998 0.994709
1.0037 1.0002 0.989559
1.00188 0.999968 0.99645
1.00331 0.999696 0.989754
1.00373 1.00004 0.990592
1.00535 0.997832 0.988686
1.00386 1.00026 0.990086
1.00538 0.998304 0.988118
1.00192 0.999954 0.993194
1.00152 1.00024 0.993367
1.002 1.00068 0.99247
1.00193 1.00001 0.993006
1.00397 1.00026 0.989558
1.00416 1.00047 0.989052
1.00434 1.00099 0.988239
1.00536 1.0014 0.985414
1.00191 0.999972 0.996432
1.0018 1.00009 0.993199
1.00344 0.999759 0.990168
1.00363 1.0001 0.990151
1.00293 1.00101 0.993405
1.00401 1.00186 0.988117
1.00386 1.00037 0.989555
1.00539 0.999179 0.987633
1.00536 1.00252 0.984181
1.00531 1.0004 0.986382
1.00534 0.998236 0.987734
1.00332 0.999732 0.989721
1.00329 0.999887 0.990822
1.00536 0.997727 0.989191
1.0054 0.99841 0.988375
1.0053 0.999359 0.987509
1.00529 0.996014 0.990392
1.00217 1.00166 0.995991
1.00535 0.996986 0.988903
1.00367 1.00303 0.985539
1.00539 1.00365 0.982118
1.00532 0.999498 0.986524
1.00531 0.99539 0.990375
1.00259 1.00355 0.986962
1.00377 1.0038 0.985252
1.00272 0.99987 0.996008
1.00296 0.999912 0.995969
1.00383 1.00062 0.987903
1.00201 1.00176 0.995968
1.00357 1.0029 0.985897
1.00385 1.00103 0.987378
1.00548 1.00295 0.982791
1.00156 1.00173 0.996254
1.00204 1.00348 0.988299
1.00395 1.00043 0.988937
1.00408 1.0007 0.988464
1.00532 0.999937 0.986298
1.00299 1.00362 0.986109
1.00541 1.00173 0.984239
1.00528 1.00429 0.981679
1.00555 1.00012 0.985311
1.00256 1.00352 0.987155
1.00167 1.00299 0.989403
1.00282 1.00282 0.986605
1.00536 0.999292 0.987018
1.00538 1.0007 0.985388
1.00536 0.996367 0.989637
1.00415 1.00485 0.982884
1.0054 0.998466 0.987447
1.00563 1.00261 0.983309
1.0056 0.997892 0.987063
1.00043 1.00021 0.997573
1.00055 1.00084 0.997233
1.00073 1.00134 0.996907
1.00173 1.004 0.988277
1.00129 1.00203 0.996288
1.00251 0.99993 0.996071
1.00211 0.999993 0.996247
1.00349 1.00026 0.988885
1.00333 0.999848 0.989546
1.00189 0.999964 0.996416
1.00185 0.99996 0.99645
1.00329 0.999706 0.989752
1.00359 1.00001 0.989882
1.00534 0.997845 0.988696
1.00367 1.00035 0.988518
1.00537 0.998315 0.988123
1.00328 0.99966 0.989809
1.00534 0.997796 0.988734
1.00535 0.997979 0.988504
1.00532 0.994955 0.991777
1.0054 0.998759 0.987581
1.0053 0.994982 0.991602
1.00187 0.999969 0.996439
1.00134 1.00017 0.99366
1.00348 0.999681 0.989244
1.00385 1.00009 0.989882
1.00192 1.00187 0.996212
1.00436 1.00132 0.988342
1.00409 1.00035 0.989295
1.00539 0.99882 0.988052
1.00531 1.00066 0.986148
1.00537 1.0024 0.984349
1.00533 0.998295 0.987725
1.0033 0.999722 0.989723
1.00349 0.999899 0.990562
1.00536 0.997632 0.989115
1.0054 0.998754 0.98804
1.00237 1.00155 0.995853
1.00371 1.00283 0.986758
1.00535 1.00379 0.982554
1.0053 0.999405 0.987484
1.00528 0.995703 0.990757
1.00531 0.999387 0.986613
1.00535 0.997274 0.988686
1.00531 0.995441 0.990336
1.00258 1.00358 0.986895
1.00335 1.00421 0.985145
1.00535 0.997937 0.988596
1.00539 0.998064 0.988866
1.00533 0.995528 0.991086
1.00529 0.995089 0.991374
1.00531 0.996607 0.98951
1.00517 0.994931 0.991462
1.0033 1.00318 0.986065
1.00532 0.994904 0.990968
1.0054 1.00461 0.98126
1.00539 1.00062 0.984966
1.00533 0.996923 0.988915
1.00534 0.994847 0.990858
1.00447 1.00394 0.983281
1.00118 1.0051 0.988569
1.00476 1.00364 0.983488
1.00375 1.0005 0.988181
1.00119 1.0017 0.996466
1.00188 1.00357 0.988262
1.00388 1.00073 0.98766
1.00533 0.999934 0.986266
1.00307 1.00346 0.986211
1.00545 1.00416 0.981645
1.0054 1.00177 0.984193
1.00554 0.999801 0.98563
1.00234 1.00367 0.987247
1.00143 1.00315 0.989398
1.00301 1.00349 0.986671
1.00534 0.9993 0.987001
1.00538 1.00073 0.985348
1.00536 0.996326 0.98966
1.00463 1.0043 0.982814
1.0054 0.998524 0.987371
1.0056 1.00248 0.983251
1.00559 0.997578 0.987329
1.00113 1.00259 0.990771
1.00301 1.00403 0.985383
1.00271 1.00411 0.986681
1.00268 1.00203 0.987317
1.00526 0.995644 0.99061
1.00541 0.997445 0.988427
1.00538 0.994884 0.99079
1.00541 1.00454 0.981792
1.00541 0.995729 0.989866
1.00553 1.00067 0.985196
1.00558 0.996555 0.988417
1.00074 1.00414 0.989977
1.00041 1.00168 0.992582
1.0003 0.999401 0.997979
1.00032 1.00001 0.997746
1.00034 1.00066 0.997463
1.00038 1.00233 0.991596
1.00047 1.00138 0.996926
1.00184 1.00365 0.988222
1.00159 1.00193 0.996191
1.00363 1.00039 0.988523
1.00342 1.00001 0.989238
1.00536 0.998324 0.988135
1.00533 0.997858 0.988707
1.0033 0.999718 0.989757
1.0019 0.999949 0.996447
1.0033 0.999659 0.989816
1.00534 0.997807 0.988741
1.00534 0.997995 0.988517
1.00533 0.994956 0.991777
1.00538 0.99877 0.987581
1.00529 0.994978 0.991614
1.00534 0.997847 0.988693
1.00533 0.994952 0.991798
1.0053 0.99496 0.991727
1.00522 0.994931 0.991722
1.00526 0.995201 0.99126
1.00518 0.99497 0.991548
1.00332 0.999719 0.989732
1.00372 0.999849 0.990302
1.00536 0.997518 0.989046
1.0054 0.999081 0.987705
1.00256 1.00148 0.995703
1.00399 1.00271 0.987698
1.00531 1.00373 0.982975
1.0053 0.999439 0.987458
1.00528 0.995389 0.991123
1.00536 0.997565 0.98847
1.00531 0.999299 0.986701
1.00531 0.995491 0.990297
1.00256 1.00352 0.986821
1.00312 1.00418 0.985041
1.00535 0.997654 0.988896
1.00539 0.997982 0.988881
1.00533 0.995536 0.991059
1.00528 0.995479 0.991037
1.0032 1.00332 0.986003
1.00536 1.00454 0.981293
1.00541 1.00097 0.984659
1.00531 0.996604 0.989572
1.00519 0.994931 0.991415
1.00533 0.996666 0.989193
1.00532 0.994919 0.990918
1.00534 0.994825 0.990778
1.00437 1.0043 0.983264
1.00438 1.00418 0.983631
1.00121 1.00423 0.988669
1.00533 0.995514 0.991162
1.00531 0.995668 0.990878
1.00519 0.994927 0.991844
1.00515 0.994953 0.991547
1.00531 0.99488 0.99109
1.00531 0.994908 0.991094
1.00509 1.0049 0.981576
1.00533 0.994822 0.990879
1.00547 1.00287 0.982906
1.00543 0.998145 0.987231
1.00532 0.995602 0.990164
1.00542 0.994783 0.990658
1.00114 1.00096 0.990794
1.00517 1.00528 0.981526
1.00159 1.00413 0.987003
1.00522 1.0039 0.982214
1.00532 0.999305 0.986986
1.00127 1.00335 0.98939
1.00224 1.00389 0.987324
1.0029 1.00401 0.986728
1.00538 1.00075 0.98531
1.00536 0.996286 0.989683
1.00488 1.00386 0.982734
1.00556 1.00237 0.983187
1.00541 0.998598 0.987294
1.00557 0.997301 0.987595
1.00086 1.00274 0.990789
1.00349 1.00383 0.985508
1.00239 1.00416 0.986526
1.00353 1.00155 0.987428
1.00531 0.995578 0.990622
1.0054 0.997384 0.988448
1.00538 0.994882 0.990824
1.00545 1.00454 0.9816
1.0054 0.996005 0.989648
1.00548 1.00054 0.985189
1.00558 0.996525 0.988719
1.00067 1.00219 0.99181
1.00206 1.0052 0.98695
1.0038 1.00455 0.98348
1.0033 1.00243 0.98734
1.00308 1.00239 0.987921
1.00533 0.994898 0.991046
1.00539 0.995052 0.990413
1.0054 0.994865 0.990578
1.00526 1.00362 0.982808
1.00547 0.995294 0.990072
1.00522 0.999375 0.986543
1.00111 1.00476 0.988679
1.00043 1.00508 0.989425
1.00026 1.00355 0.991163
1.00041 1.00426 0.989985
1.00029 1.00073 0.994594
1.00033 1.00163 0.993212
1.00047 0.99869 0.996099
1.00024 0.999412 0.998057
1.00028 0.9999 0.997868
1.00029 1.00073 0.993581
0.999818 0.999798 0.998194
1.00065 1.00248 0.99142
1.00086 1.00162 0.996645
1.00193 1.00338 0.988167
1.00183 1.00186 0.996078
1.00536 0.998786 0.987576
1.00533 0.998011 0.988527
1.00529 0.994961 0.991627
1.00533 0.994957 0.991777
1.00533 0.99782 0.988747
1.00329 0.999651 0.989818
1.00534 0.997852 0.988692
1.00534 0.994952 0.991795
1.00531 0.994959 0.991735
1.00522 0.994929 0.991711
1.00529 0.995142 0.991272
1.00518 0.994973 0.991547
1.00534 0.994952 0.991801
1.00521 0.994936 0.991751
1.0052 0.994952 0.991673
1.00534 0.994915 0.991515
1.00523 0.994937 0.991314
1.0053 0.994944 0.991197
1.00535 0.997386 0.989192
1.00538 0.997922 0.988897
1.00533 0.995544 0.991032
1.00527 0.995877 0.9907
1.00315 1.00348 0.985956
1.00535 1.00473 0.981325
1.00543 1.00124 0.984357
1.00531 0.996598 0.989634
1.0052 0.99493 0.991368
1.00532 0.994934 0.990869
1.00533 0.99639 0.98947
1.00533 0.99481 0.990697
1.00414 1.00477 0.983257
1.00378 1.00515 0.983775
1.00126 1.00385 0.988766
1.00533 0.995239 0.991476
1.00531 0.995633 0.990888
1.0052 0.994927 0.991782
1.00516 0.994953 0.991595
1.00493 1.00498 0.981655
1.00553 1.00282 0.982958
1.00542 0.998395 0.986859
1.00531 0.99488 0.991079
1.0053 0.994909 0.99105
1.00532 0.995445 0.990211
1.00532 0.994822 0.990877
1.00542 0.994768 0.990647
1.00495 1.00521 0.981634
1.00519 1.00426 0.982092
1.00164 1.00124 0.990873
1.00205 1.00397 0.987471
1.0052 0.99493 0.9918
1.00517 0.994945 0.991694
1.00533 0.994932 0.991529
1.00532 0.994901 0.991136
1.00531 0.99491 0.990864
1.00536 0.994885 0.990861
1.00546 1.0044 0.981557
1.00537 0.99483 0.990628
1.00542 1.00062 0.984827
1.00537 0.997131 0.988217
1.0054 0.995029 0.990456
1.00539 0.994778 0.990611
1.00308 1.00082 0.98849
1.00188 1.00116 0.988269
1.00513 1.00426 0.981973
1.00391 1.00491 0.985436
1.00524 1.00408 0.982048
1.00061 1.00282 0.990815
1.00536 0.995515 0.990635
1.00283 1.00432 0.986368
1.00357 1.00355 0.985657
1.00417 1.00089 0.987544
1.00539 0.997322 0.988469
1.00538 0.994879 0.990858
1.0055 1.00451 0.981422
1.00546 1.00045 0.985182
1.00539 0.996256 0.989429
1.00559 0.996484 0.989021
1.00053 1.00227 0.991834
1.00185 1.00521 0.98689
1.00438 1.00409 0.983527
1.00325 1.00239 0.987253
1.00364 1.00167 0.98696
1.0053 0.994897 0.991065
1.00539 0.995069 0.990454
1.00539 0.994864 0.990579
1.00528 1.00366 0.98282
1.00549 0.995369 0.989949
1.00522 0.999533 0.986898
1.00148 1.00513 0.987696
1.00322 1.00503 0.985733
1.00361 1.00494 0.983982
1.00394 1.00235 0.98646
1.00466 1.00341 0.985251
1.00537 0.994868 0.990789
1.00541 0.994883 0.990399
1.00538 0.994794 0.990474
1.00505 1.00175 0.984545
1.00517 0.998042 0.987871
1.00093 1.00483 0.988707
1.00093 1.00512 0.988149
0.99965 1.00509 0.989552
0.999997 1.00493 0.991005
1.00022 1.0048 0.990529
0.999944 1.00318 0.991935
1.00003 1.00376 0.991183
1.00011 1.00028 0.995267
1.00021 1.00448 0.98999
1.00026 1.00069 0.994709
1.00032 0.997931 0.99679
1.00028 1.00167 0.993826
1.00024 0.998858 0.997223
1.00016 0.999272 0.998137
1.0004 1.00228 0.99237
1.0003 1.00068 0.99362
0.99985 0.999665 0.998361
1.0002 1.00013 0.997674
1.00102 1.00255 0.991268
1.00114 1.00195 0.996435
1.00532 0.995094 0.991283
1.0053 0.994957 0.991741
1.00518 0.994975 0.991545
1.00522 0.994927 0.9917
1.00534 0.994952 0.991793
1.00535 0.997854 0.988692
1.00534 0.994952 0.991797
1.00521 0.994934 0.991758
1.0052 0.994952 0.991669
1.00533 0.994914 0.9915
1.00521 0.994937 0.991324
1.0053 0.994938 0.991207
1.00521 0.994937 0.991786
1.00534 0.994918 0.991608
1.00531 0.994925 0.991418
1.00534 0.994901 0.991505
1.00533 0.994917 0.99102
1.00532 0.994922 0.991149
1.00533 0.99495 0.991792
1.00531 0.995599 0.990898
1.0052 0.994926 0.99172
1.00518 0.994953 0.991644
1.00471 1.00501 0.981723
1.00556 1.00288 0.983004
1.00541 0.998617 0.98649
1.00531 0.994882 0.991069
1.0053 0.99491 0.991007
1.00531 0.994822 0.990874
1.00533 0.995275 0.990258
1.00542 0.994758 0.990636
1.00478 1.00517 0.981734
1.00516 1.0048 0.981961
1.00211 1.00153 0.990943
1.00196 1.00302 0.987924
1.0052 0.99493 0.991803
1.00518 0.994944 0.991713
1.00533 0.994927 0.991496
1.00531 0.994903 0.991137
1.00539 1.00448 0.981648
1.00543 1.00073 0.984651
1.00538 0.997039 0.98822
1.00531 0.994908 0.990902
1.00536 0.99488 0.990851
1.0054 0.994992 0.990478
1.00537 0.99483 0.990625
1.00539 0.994785 0.990636
1.00515 1.00447 0.982025
1.00517 1.00458 0.982111
1.00319 1.0041 0.985515
1.00263 1.00178 0.988535
1.00209 1.00333 0.988064
1.00534 0.994918 0.991545
1.00534 0.99491 0.99137
1.00537 0.994856 0.99089
1.00535 0.994892 0.990691
1.00533 1.00307 0.983091
1.00536 0.994817 0.990435
1.00535 0.999679 0.985156
1.0053 0.996304 0.988979
1.00545 0.99478 0.990462
1.00105 1.00508 0.988004
1.00405 1.00363 0.987137
1.00255 1.00081 0.988427
1.00491 1.00506 0.982384
1.0043 1.00343 0.985515
1.00496 1.00385 0.983049
1.0004 1.00241 0.991855
1.00161 1.00522 0.986835
1.00528 0.994897 0.991084
1.00268 1.00264 0.987161
1.00523 1.00392 0.983569
1.0043 1.0009 0.986011
1.0054 0.995088 0.990496
1.00539 0.994864 0.990581
1.00528 1.00366 0.982845
1.0052 0.9997 0.987254
1.00551 0.995436 0.989826
1.00141 1.00515 0.987704
1.00268 1.0052 0.98573
1.00421 1.00495 0.98311
1.004 1.00164 0.986608
1.00452 1.00236 0.985107
1.00537 0.994869 0.990789
1.00543 0.994881 0.99038
1.0054 0.994774 0.990477
1.00503 1.00179 0.984796
1.00517 0.998161 0.987718
1.00279 1.00516 0.986254
1.00179 1.00512 0.986119
1.00454 1.00301 0.984551
1.00303 1.00221 0.985136
1.00529 1.00151 0.985593
1.00538 0.994803 0.990606
1.00546 0.995485 0.989452
1.0054 0.994816 0.989937
1.00501 1.0006 0.986208
1.00508 0.999002 0.987257
1.0008 1.0048 0.988738
1.00134 1.00512 0.987972
0.99906 1.00454 0.991278
0.999373 1.00508 0.989657
0.999721 1.00492 0.990497
0.998996 1.00475 0.991351
0.998756 1.00449 0.992902
0.998908 1.00504 0.991444
0.999646 1.00464 0.991084
1.00004 1.00277 0.992135
0.999944 1.00306 0.991922
1.00002 0.999949 0.995679
0.999807 1.00376 0.991196
1.00013 1.00018 0.995336
1.0002 0.997737 0.997182
1.00027 1.00056 0.994825
1.00027 0.99804 0.996743
0.999958 0.998993 0.998375
1.0002 1.00229 0.992327
1.00069 1.00127 0.992498
0.999682 1.00007 0.998176
1.00065 1.00038 0.993637
0.999816 0.999404 0.998411
1.00057 1.00053 0.997192
1.00519 0.994937 0.991334
1.0052 0.994952 0.991666
1.00531 0.994933 0.991217
1.00533 0.994912 0.991485
1.00521 0.994933 0.991764
1.00534 0.994952 0.991793
1.0052 0.994939 0.991802
1.00534 0.994918 0.9916
1.00531 0.994929 0.991425
1.00533 0.994896 0.991492
1.00533 0.994918 0.991018
1.00533 0.994915 0.991144
1.00532 0.994915 0.991617
1.00536 0.9949 0.991551
1.00532 0.994888 0.99146
1.00537 0.994881 0.990807
1.0052 0.99493 0.991806
1.00518 0.994943 0.991732
1.00532 0.994923 0.991463
1.00531 0.994905 0.991138
1.00538 1.00449 0.981746
1.00547 1.00085 0.984472
1.00538 0.996976 0.988222
1.00531 0.994905 0.990941
1.00535 0.994875 0.990842
1.00537 0.99483 0.990623
1.0054 0.99496 0.9905
1.00539 0.994789 0.990664
1.00519 1.00459 0.982079
1.00475 1.00462 0.982175
1.00324 1.0036 0.985601
1.00223 1.00261 0.988611
1.00264 1.00525 0.987878
1.00534 0.994919 0.991531
1.00534 0.994913 0.991376
1.00537 0.994861 0.990902
1.00529 1.00328 0.983092
1.00537 0.999916 0.985039
1.00532 0.996136 0.989024
1.00535 0.994895 0.990707
1.00541 0.994785 0.990528
1.00537 0.994819 0.990452
1.00069 1.00471 0.988316
1.00485 1.00454 0.9824
1.00507 1.00396 0.982563
1.00407 1.00335 0.985315
1.00278 1.00209 0.988144
1.00357 1.00332 0.986662
1.00536 0.9949 0.991476
1.00538 0.994859 0.991199
1.00538 0.994844 0.990703
1.00535 0.994832 0.990501
1.00521 1.00304 0.983452
1.00534 0.994827 0.990314
1.00532 0.998693 0.986699
1.00532 0.995388 0.989368
1.00006 1.00404 0.989876
1.00153 1.00509 0.987914
1.00342 1.00282 0.988178
1.00155 1.00162 0.990509
1.00444 1.00395 0.984026
1.00501 1.00337 0.983586
1.00122 1.00518 0.987711
1.0023 1.00494 0.985721
1.00536 0.99487 0.990789
1.00412 1.00084 0.986749
1.00489 1.00496 0.982228
1.00394 1.00265 0.984953
1.00545 0.99488 0.990361
1.00542 0.994755 0.990479
1.00502 1.00186 0.985048
1.00517 0.998303 0.987565
1.00223 1.00514 0.986314
1.00267 1.00494 0.985862
1.00447 1.00324 0.984314
1.00417 1.00316 0.984709
1.00521 1.00206 0.98528
1.00538 0.99481 0.990606
1.00546 0.995333 0.989717
1.00538 0.994835 0.990248
1.00504 1.00049 0.986115
1.005 0.999399 0.986962
1.00017 1.00452 0.988539
1.00006 1.00482 0.987727
1.00487 1.00081 0.986262
1.00506 1.00125 0.985864
1.00545 0.994792 0.99049
1.00536 0.994706 0.990435
1.00529 0.997468 0.987874
1.00512 0.999844 0.986271
1.00177 1.00511 0.987803
0.999415 1.00481 0.990883
0.996897 1.00488 0.994601
0.999288 1.0051 0.990475
0.997635 1.00503 0.991691
0.999696 1.00458 0.991013
0.998316 1.00452 0.993267
0.999067 1.00505 0.991507
0.998676 1.00141 0.996005
0.99855 1.005 0.992319
0.998843 1.00507 0.991206
0.999986 1.00444 0.990764
0.999961 1.00294 0.992055
0.99995 1.00287 0.992109
0.999924 0.999721 0.995949
0.999845 1.00317 0.991912
1.00001 0.999886 0.995718
1.00008 0.997654 0.997405
1.00011 1.0001 0.995403
1.00017 0.997781 0.997151
1.00015 0.998184 0.996683
1.0004 1.00087 0.99339
1.00028 1.00215 0.992255
0.999866 0.998894 0.998376
1.00056 1.00058 0.992629
0.999842 0.999916 0.998211
1.00001 0.99898 0.998324
1.00534 0.994918 0.991017
1.00531 0.994933 0.991433
1.00534 0.994908 0.991138
1.00533 0.994891 0.991479
1.00534 0.994919 0.991591
1.0052 0.994942 0.991819
1.00533 0.994915 0.991617
1.00535 0.9949 0.991545
1.00533 0.994891 0.991401
1.00536 0.994878 0.990854
1.00536 0.994898 0.991564
1.00535 0.994872 0.991498
1.00536 0.994857 0.991137
1.00534 0.994922 0.991518
1.00533 0.994916 0.991381
1.00537 0.994865 0.990913
1.00519 1.00351 0.983098
1.00536 1.00014 0.984924
1.00535 0.995919 0.989066
1.00535 0.994898 0.990724
1.00539 0.994813 0.990468
1.00536 0.994797 0.9906
1.00506 1.00417 0.982417
1.00518 1.00442 0.982094
1.00389 1.00364 0.985117
1.00074 1.00477 0.988626
1.00315 1.00329 0.987838
1.00289 1.00313 0.986166
1.00537 0.994903 0.991493
1.00537 0.994858 0.99117
1.00538 0.994848 0.990717
1.00505 1.00308 0.983448
1.0053 0.998536 0.986563
1.00535 0.995316 0.989546
1.00536 0.994826 0.99047
1.00538 0.994824 0.990306
0.999956 1.00447 0.990098
1.0013 1.00509 0.987829
1.00447 1.00369 0.983795
1.00467 1.00332 0.983735
1.00247 1.0023 0.989347
1.00276 1.00212 0.98827
1.00538 0.994863 0.99142
1.00541 0.994834 0.990839
1.00537 0.994808 0.990523
1.00532 0.994796 0.990276
1.00465 1.00133 0.98572
1.00536 0.994811 0.990275
1.00492 0.997773 0.988107
0.99996 1.00421 0.990757
1.00042 1.00363 0.990825
0.999463 1.00509 0.989442
1.00103 1.0051 0.988322
1.00151 1.00452 0.990462
1.00442 1.00066 0.986215
1.00379 1.00374 0.985414
1.00389 1.00444 0.985381
1.00204 1.00517 0.986383
1.00311 1.00514 0.985604
1.00539 0.994816 0.990604
1.00527 1.00249 0.984292
1.00447 1.00333 0.984079
1.00538 1.00236 0.984979
1.00545 0.995162 0.989982
1.00536 0.994846 0.990556
1.00506 1.00036 0.986023
1.00491 0.99974 0.986667
1.00085 1.00422 0.988121
1.00144 1.00485 0.987161
1.00485 1.00092 0.985912
1.00508 1.00162 0.985672
1.00544 0.994794 0.990494
1.00538 0.99474 0.990445
1.00522 0.997362 0.987988
1.00512 0.999949 0.986309
0.998713 1.00373 0.992046
1.00549 0.99475 0.990886
1.00278 1.00364 0.988661
1.00473 1.00059 0.986266
1.00539 0.994732 0.99069
1.00511 0.996828 0.987798
1.00512 1.00074 0.985887
0.999699 1.0048 0.990492
0.997321 1.00457 0.994727
0.996097 1.00266 0.997308
0.999469 1.00449 0.990937
0.998936 1.00505 0.991562
0.997153 1.00499 0.993642
0.999894 1.00434 0.990747
0.998978 1.00507 0.991307
0.99687 1.00316 0.996523
0.998751 1.00492 0.992135
0.996581 1.00266 0.998271
0.996695 1.00463 0.995213
0.998797 1.00495 0.992197
1.00017 1.00487 0.989867
1.00018 1.00426 0.990389
0.999983 1.00285 0.99206
0.999932 1.00296 0.992037
0.999798 0.999796 0.996107
0.999862 1.00302 0.992086
0.999937 0.99977 0.995964
0.999955 0.997758 0.997592
1.00002 0.99981 0.995764
1.00009 0.997684 0.997385
1.00018 0.997827 0.997113
1.00022 1.0036 0.990958
0.999965 1.00086 0.993954
1.00025 1.00106 0.99335
1.00004 0.998688 0.998541
1.00036 1.00185 0.992186
0.99985 0.999605 0.998273
0.999931 0.999737 0.998299
1.00535 0.994876 0.990901
1.00534 0.994895 0.991342
1.00534 0.9949 0.99154
1.00533 0.994915 0.991616
1.00536 0.994895 0.991572
1.00535 0.994869 0.991488
1.00536 0.994858 0.991078
1.00539 0.994866 0.991451
1.00536 0.994834 0.991498
1.0056 0.994718 0.991386
1.00537 0.994904 0.99151
1.00537 0.994855 0.991141
1.00537 0.994849 0.990731
1.00503 1.0031 0.983446
1.0053 0.998501 0.986439
1.00538 0.995253 0.989715
1.00536 0.994828 0.990439
1.00542 0.994821 0.990295
1.00472 1.00366 0.983559
1.00421 1.00323 0.983842
1.0026 1.00383 0.988191
1.00019 1.00444 0.990325
1.00099 1.00496 0.98774
1.0023 1.00168 0.988365
1.00538 0.994859 0.991412
1.00043 1.00361 0.99074
0.999928 1.00425 0.990722
1.00542 0.994826 0.99084
1.00538 0.994819 0.990545
1.00471 1.00158 0.985533
1.00525 0.997222 0.98839
1.00532 0.9948 0.990263
1.00531 0.994787 0.990217
1.00003 1.00508 0.989537
1.00113 1.00506 0.98821
1.00341 1.00416 0.985188
1.00419 1.00389 0.983848
1.00427 1.00194 0.986031
1.00075 1.00295 0.991045
1.00545 0.994745 0.991346
1.0054 0.995093 0.990465
1.00536 0.994748 0.99051
1.00527 0.994775 0.98984
1.0035 1.00077 0.987711
1.0053 0.995798 0.989958
1.00015 1.00437 0.990257
0.9995 1.00398 0.990905
1.00056 1.00425 0.990683
1.00075 1.00472 0.988856
1.001 1.00439 0.989563
1.00096 1.00095 0.991529
1.00265 1.0024 0.986569
1.00183 1.00239 0.990086
1.00114 1.00478 0.98772
1.00332 1.00501 0.986587
1.00542 0.994799 0.990498
1.0054 0.994774 0.990455
1.00505 1.00237 0.985474
1.00479 1.00116 0.985551
1.00516 0.997274 0.988102
1.00512 1.00005 0.986348
0.999248 1.0041 0.991986
1.00548 0.994737 0.991054
1.00168 1.00383 0.98926
1.00462 1.00071 0.986091
1.0054 0.994726 0.990769
1.00515 0.996985 0.988018
1.00511 1.00046 0.985802
0.998183 1.00443 0.994368
1.005 0.994686 0.99031
1.0016 1.00356 0.988841
1.00416 1.00284 0.98443
1.00499 0.995207 0.991089
1.0039 1.00064 0.986867
0.998726 0.994767 0.981311
0.997557 1.00452 0.994835
0.996934 1.00257 0.997251
0.995987 1.00259 0.99819
0.999893 1.00423 0.990725
0.998636 1.00506 0.99142
0.99942 1.0049 0.991958
0.995651 1.00349 0.997066
1.00018 1.00421 0.990406
0.999762 1.00491 0.990281
0.995894 1.00142 0.999795
0.998447 1.00496 0.992135
0.99717 1.00466 0.994708
0.994923 1.0052 0.997961
0.998188 1.00501 0.99308
0.998821 1.0049 0.992123
1.00033 1.00426 0.990341
1.00002 1.00443 0.990172
1.00031 1.00469 0.990472
1.00004 1.0041 0.990524
0.999855 1.00287 0.992161
0.999921 1.00296 0.992044
0.999689 0.999756 0.995575
0.999959 1.00284 0.992022
0.999793 0.999783 0.995767
0.999965 0.997692 0.999013
0.999932 0.999775 0.995985
0.999985 0.997671 0.997577
1.00011 0.997703 0.997358
0.999951 1.00298 0.991895
1.00044 1.00332 0.991024
1.0001 1.0001 0.994604
1.00011 1.00071 0.994415
0.99996 0.99825 0.998713
1.00008 1.00154 0.993309
0.999951 0.998467 0.998518
0.999873 0.999886 0.998125
1.00536 0.994857 0.99102
1.00535 0.994867 0.991477
1.00536 0.994892 0.99158
1.00538 0.994868 0.991451
1.00538 0.994831 0.99143
1.00561 0.994732 0.991391
1.00548 0.994815 0.991474
1.00048 0.99462 0.979867
1.00547 0.994734 0.989777
1.00021 1.00375 0.99079
1.00538 0.994857 0.991404
1.00541 0.994828 0.99084
1.00538 0.994832 0.990568
1.00459 1.00178 0.985333
1.00529 0.996418 0.988651
1.00528 0.994808 0.990228
1.0053 0.994787 0.990156
1.0037 1.00424 0.985022
1.00471 1.00506 0.982385
1.00384 1.00221 0.985828
1.00061 1.00325 0.990725
1.00089 1.00216 0.991603
1.00067 1.00502 0.989611
1.00081 1.00509 0.988105
0.999931 1.00436 0.99062
1.00543 0.994776 0.991362
1.00038 1.00409 0.990288
1.00006 1.00415 0.990899
0.999778 1.00425 0.991151
1.00539 0.99491 0.99049
1.00534 0.994751 0.990471
1.00345 1.0017 0.987733
1.00507 0.995538 0.989942
1.0053 0.994817 0.989867
1.00061 1.00483 0.988914
1.00082 1.00435 0.989968
1.00288 1.00236 0.989244
1.00317 1.00428 0.985856
1.00267 0.999717 0.991767
1.00546 0.994737 0.990925
1.00535 0.994886 0.990522
1.00529 0.994742 0.99033
1.00461 0.997478 0.989368
1.00327 0.999963 0.989116
0.999627 1.00347 0.992243
1.00019 1.00436 0.989513
0.999145 1.00345 0.992669
1.00072 1.00361 0.991214
1.00041 1.00128 0.99355
0.999667 1.001 0.993788
1.00202 0.999885 0.99259
1.00066 1.00361 0.991862
1.00011 1.00407 0.989867
1.00549 0.994713 0.991211
1.00542 0.99472 0.990831
1.00518 0.997152 0.988238
1.00453 1.00094 0.985918
1.0051 1.00018 0.985728
0.997989 1.0046 0.995333
1.00455 0.99467 0.990437
1.00175 1.00351 0.988666
1.00455 1.00267 0.984278
1.00476 0.995154 0.991327
1.0042 1.00051 0.98692
0.998614 0.994734 0.979639
0.997354 1.00505 0.994309
1.00338 0.99467 0.990386
1.00219 1.00401 0.986295
1.00365 1.00099 0.987118
1.00351 0.997336 0.992107
0.999915 0.994851 0.934733
0.994851 0.994679 0.957195
0.997027 0.994671 0.984752
0.994947 0.995844 0.842245
0.99473 0.998529 0.801719
0.997905 1.00277 0.9972
0.996418 1.00255 0.998396
0.994899 1.00518 0.998469
1.00026 1.00413 0.990429
0.999579 1.00496 0.990697
0.998563 1.00494 0.99206
0.99749 1.00494 0.994175
0.995353 1.00073 1.00128
0.998624 1.00479 0.992485
1.00028 1.00422 0.990179
1.00025 1.00449 0.990232
0.995248 1.00466 0.997902
0.997742 1.005 0.993468
0.997919 1.005 0.993937
0.996332 1.00516 0.995741
0.998477 1.00457 0.992966
1.00011 1.0046 0.989977
1.00008 1.00438 0.990098
0.999182 1.00451 0.991189
0.998233 1.00417 0.994069
0.998915 1.005 0.99194
0.999904 1.00472 0.990793
1.0001 1.00366 0.991041
0.999862 1.00407 0.990482
0.999955 1.00259 0.992402
0.999985 1.00278 0.992177
0.999672 0.999684 0.995698
0.999882 1.00307 0.992026
0.999678 0.999777 0.99558
0.999934 0.997672 0.999051
0.999778 0.9998 0.995435
0.999913 0.997696 0.998345
1.00004 0.997597 0.997559
0.999911 1.00224 0.992791
1.00009 1.00284 0.991925
1.00003 0.999593 0.995251
1.00063 1.00293 0.991085
1.00007 1.00015 0.995021
0.999995 0.997843 0.998863
1.0003 1.00047 0.993871
0.999996 0.998479 0.998636
0.999908 0.998939 0.998489
1.0054 0.994827 0.991362
1.00538 0.994869 0.991452
1.00564 0.994754 0.991421
0.999281 0.994677 0.979633
1.00551 0.99479 0.99147
1.00548 0.994729 0.989863
1.00547 0.994677 0.991278
0.994924 0.994776 0.96028
1.00465 0.994715 0.975739
1.00026 1.00326 0.9912
1.00038 1.00362 0.990788
0.999108 1.00396 0.992295
1.00033 1.00375 0.990622
1.00543 0.994798 0.991377
1.00539 0.994836 0.990518
1.00532 0.994745 0.990434
1.0038 1.00157 0.987762
1.00513 0.995618 0.989973
1.00532 0.994822 0.989918
1.00284 1.00113 0.988338
1.00408 1.00476 0.985153
1.0027 0.997516 0.992056
1.00004 1.00483 0.990901
0.99998 1.00362 0.990406
1.00055 1.00499 0.988969
1.0006 1.00372 0.990315
0.999034 1.00477 0.991724
1.00549 0.994749 0.990901
0.999452 1.00388 0.9917
1.00057 1.00424 0.989701
0.996629 1.00454 0.995267
1.00536 0.994899 0.990511
1.00528 0.994733 0.990303
1.0039 0.998708 0.989295
1.00455 0.997486 0.989354
1.00109 1.00343 0.990586
0.99934 1.00167 0.992884
1.00156 0.999677 0.992675
1.00159 1.00002 0.992847
1.00384 0.996906 0.989678
1.00523 0.994662 0.990828
1.00396 0.998845 0.989554
1.00455 0.998241 0.989486
0.996233 1.00484 0.995952
1.00118 1.00355 0.989522
0.9979 0.999637 0.999196
0.997891 1.0035 0.9944
0.999609 0.997392 0.917579
0.998016 1.00448 0.996349
1.0014 1.0037 0.988482
1.00399 0.994663 0.99061
1.00449 0.995091 0.991556
1.00439 1.00029 0.986942
1.0048 1.00262 0.984111
0.998275 0.994716 0.977644
0.997673 1.00478 0.994616
1.003 0.994669 0.990327
1.00245 1.00423 0.986272
1.00398 1.00081 0.987301
1.00348 0.997657 0.992011
0.998484 0.994869 0.92015
0.995102 0.994719 0.953953
0.996825 0.995183 0.985203
0.996207 0.995572 0.849195
0.994777 0.997625 0.799014
0.997837 1.00433 0.993774
0.99738 0.994841 0.852999
0.994825 0.997194 0.797625
1.00144 0.994793 0.993867
1.00171 1.00228 0.989833
1.00145 1.00091 0.992504
0.995269 0.995742 0.988507
0.997409 0.994657 0.932421
0.994935 0.994741 0.948466
0.994736 0.997298 0.858004
0.994792 0.995623 0.778118
0.996712 1.00219 0.998612
0.995017 1.00521 0.998252
0.995295 1.00503 0.999219
1.00046 1.00402 0.990179
1.00002 1.00465 0.990118
0.997982 1.00496 0.992851
0.997554 1.00504 0.993857
0.995618 1.004 0.997857
1.00018 1.00444 0.99006
0.99755 1.00495 0.994236
0.998364 1.00486 0.992531
1.00028 1.00459 0.989994
0.996073 1.00515 0.996154
0.996599 1.00513 0.995412
0.995163 1.00515 0.997274
0.998747 1.0051 0.991543
1.00013 1.00458 0.990007
0.999793 1.00432 0.991116
0.997447 1.00419 0.994812
0.997697 1.0038 0.994223
0.998193 1.00278 0.994892
0.995602 1.00346 0.9989
0.998753 1.002 0.994178
0.997414 1.00505 0.993218
0.998824 1.00508 0.991932
0.998915 1.00491 0.991254
0.999487 1.0048 0.991119
1.00004 1.00417 0.990919
1.00006 1.00269 0.992362
1.00007 1.00419 0.990431
0.999926 1.00261 0.99243
0.999869 0.999527 0.996309
0.999762 1.00308 0.992194
0.999741 0.999627 0.995995
0.999915 0.997553 0.997855
0.999666 0.999777 0.995576
0.999924 0.997673 0.999062
0.999918 0.997735 0.997673
1.00036 1.00361 0.99085
0.999862 1.00198 0.993103
0.999956 1.0022 0.99278
0.999973 0.999196 0.995721
1.00017 1.00283 0.99196
1.00005 0.999613 0.995228
0.999997 0.997556 0.998989
1.00004 1.00035 0.995322
0.999964 0.997997 0.997995
0.999963 0.998288 0.996829
0.998577 0.994703 0.97937
1.00552 0.994772 0.991468
1.00548 0.994757 0.989937
0.996086 0.994747 0.960154
1.00454 0.994666 0.975852
1.00547 0.994737 0.991384
1.00413 0.994577 0.984567
0.999439 0.994727 0.957999
0.998169 0.995102 0.933916
0.996529 0.994821 0.869237
0.994853 0.998783 0.801926
0.999307 1.00389 0.991701
1.00026 1.00337 0.991239
1.00054 1.0036 0.990783
0.999161 1.00383 0.992468
0.997612 1.00491 0.993934
1.00001 1.00451 0.99073
1.00014 1.00489 0.989774
1.00011 1.00407 0.990678
1.0055 0.994763 0.990874
1.00538 0.994799 0.990497
1.00527 0.994744 0.990274
1.00417 0.998507 0.989467
1.00461 0.997393 0.989321
1.0012 1.00004 0.992753
1.00395 0.998588 0.991911
1.00064 1.00276 0.992209
1.00087 1.00362 0.989843
1.00122 1.0035 0.989903
0.999296 1.00469 0.991157
0.995034 1.00501 0.997527
1.00421 0.995742 0.990087
0.996464 1.0049 0.995631
1.00046 1.00307 0.991372
1.00502 0.99468 0.990798
1.00385 0.999174 0.989494
1.00385 0.998369 0.989845
0.998582 1.00014 0.997201
0.998977 1.00233 0.994633
1.00269 0.996514 0.988086
1.00273 0.999424 0.990681
1.00367 1.00078 0.989498
1.00166 0.9989 0.993434
0.997933 1.00479 0.993783
0.996423 1.00347 0.996431
0.996883 1.00234 0.997452
0.999832 0.999965 0.846204
1.00066 0.994874 0.93411
0.998241 1.00411 0.994923
1.00294 1.00427 0.986266
1.00258 0.994675 0.990255
1.00352 0.997807 0.991937
1.00417 1.00059 0.987527
0.999976 0.994829 0.932142
0.995613 0.994734 0.953413
0.99658 0.995738 0.98591
0.994814 0.996263 0.868135
0.994827 0.996317 0.795929
0.998242 1.00426 0.993858
0.999646 0.995213 0.850016
0.994776 0.995794 0.791609
1.00109 0.995392 0.99366
1.00156 1.00248 0.989874
1.00145 1.00062 0.993405
0.995685 0.996456 0.989592
0.995848 0.994635 0.925598
0.995116 0.994743 0.949512
0.994786 0.99667 0.862381
0.994827 0.996159 0.775264
0.996733 1.00501 0.99683
0.994794 0.994811 0.784889
0.994733 0.994733 0.769994
0.997208 1.00074 0.99675
0.999071 1.00234 0.997124
0.99487 0.998199 0.986867
0.994965 0.994788 0.95482
0.994884 0.994582 0.915426
0.99482 0.996028 0.865942
0.994898 0.994901 0.793689
0.995222 1.00522 0.99806
0.995102 1.00473 0.999473
0.994912 1.00493 0.99923
1.00031 1.00433 0.990017
1.0005 1.00462 0.990015
0.998446 1.00503 0.992096
0.997132 1.00473 0.994532
0.995789 1.00513 0.996567
1.00035 1.00465 0.989928
0.996775 1.00505 0.995011
0.999037 1.00506 0.991555
0.995252 1.00512 0.99741
0.995011 1.00511 0.998134
0.996452 1.00485 0.995461
0.999648 1.00491 0.99157
1.00033 1.00391 0.991049
0.997561 1.00382 0.995532
0.998022 1.00385 0.994167
0.999247 1.0018 0.994679
0.99521 1.00353 0.998697
0.999612 0.999745 0.995134
0.995337 1.00504 0.996272
0.996909 1.00164 0.999796
1.00152 1.00494 0.988284
1.0052 1.00007 0.98804
0.997938 1.00453 0.991503
0.998545 1.00269 0.994258
0.998685 1.00479 0.991167
0.998193 1.00482 0.993335
0.999716 1.0049 0.990664
0.999157 1.0051 0.991922
0.999363 1.00445 0.991389
0.999477 1.00346 0.991936
1.00003 1.00438 0.990789
0.999877 1.00262 0.992398
0.999962 0.999516 0.996109
1.00007 1.00235 0.992455
0.999854 0.999469 0.995986
1.00003 0.997275 0.99781
0.99972 0.999641 0.995698
0.999964 0.997517 0.999091
0.999921 0.997643 0.999075
1.00067 1.00382 0.990523
0.999908 1.0022 0.992874
1.00049 1.00335 0.990858
0.999998 0.999008 0.995889
0.999979 1.00186 0.993085
1.00007 1.00206 0.992768
0.999994 0.99921 0.995704
0.999992 0.997305 0.999085
1.00005 0.999693 0.995895
1.00001 0.997611 0.998216
0.999987 0.997978 0.99729
0.999126 0.997495 0.83557
0.994832 0.995084 0.781536
0.995471 0.994763 0.961095
1.00439 0.994637 0.976189
1.00549 0.994752 0.991481
1.00212 0.994762 0.954898
1.00331 0.994662 0.98533
0.999587 0.994955 0.929179
0.994803 0.994984 0.848271
0.994848 0.997256 0.799632
0.998722 0.994736 0.967778
0.994888 0.99469 0.934989
0.994727 0.99576 0.859776
0.99497 0.997212 0.790965
0.999822 1.00439 0.991916
0.999847 1.00366 0.991501
1.00025 1.00331 0.99129
0.999171 1.00338 0.992657
0.997153 1.00429 0.995007
1.0003 1.00478 0.989686
0.999371 1.00469 0.991197
1.00087 1.00509 0.988484
1.00028 1.00483 0.989697
0.999451 1.00486 0.990749
1.00441 0.994807 0.990467
1.00489 0.994698 0.990765
1.00351 0.999481 0.989432
1.00298 0.998571 0.990207
0.999571 1.0023 0.994859
0.998977 1.00055 0.995269
0.999345 1.0028 0.99346
0.996621 1.0049 0.995299
1.00219 0.995736 0.988776
0.997862 1.00498 0.993567
0.996507 1.00339 0.996933
1.00257 0.99924 0.990761
1.00332 1.00167 0.9885
1.00079 0.999187 0.99428
0.997229 1.00261 0.997695
0.999478 0.995189 0.986996
1.00083 1.00163 0.992857
0.996735 1.00403 0.996359
0.99867 1.00409 0.993424
0.996101 1.00511 0.995431
0.995171 1.00469 0.998022
0.994779 0.994774 0.796788
0.999741 0.995168 0.857079
0.999809 0.997463 0.917849
0.998478 1.00429 0.993921
1.00173 1.00279 0.989858
1.00073 0.995977 0.993435
1.00129 1.00009 0.994315
0.999462 0.998426 0.864933
0.995052 0.994678 0.919398
0.994946 0.994692 0.948627
0.995969 0.997188 0.990434
0.994761 0.996106 0.845444
0.994732 0.995056 0.797836
0.994904 0.997385 0.790674
0.996844 1.00474 0.996524
0.994799 0.9949 0.791053
0.994769 0.994757 0.769731
0.997521 0.998985 0.997408
0.998758 1.00226 0.997027
0.994865 0.997095 0.988628
0.99524 0.994778 0.95127
0.995135 0.994599 0.92846
0.994803 0.996486 0.845157
0.995308 0.994894 0.802257
0.995789 1.00434 1.00063
0.994728 0.994773 0.77768
0.994818 0.994832 0.77565
0.994819 1.0021 1.00042
0.994855 0.996679 0.963307
0.994801 0.994768 0.926446
0.994939 0.994904 0.848701
0.995764 0.994908 0.823817
0.994884 1.00445 0.999719
0.994924 1.00508 0.999557
0.994881 1.00494 0.999906
1.00011 1.00497 0.989851
0.999388 1.005 0.991567
0.99692 1.00499 0.994613
0.995329 1.00506 0.997547
0.999082 1.0049 0.991547
0.996686 1.00489 0.995352
0.995137 1.00497 0.998193
0.995133 1.00502 0.998674
0.995588 1.00472 0.997953
0.997536 1.00482 0.994461
0.998378 1.00431 0.994095
0.999152 1.00122 0.994492
0.994942 1.00407 0.998551
0.995874 1.00451 0.99663
0.999637 1.00046 0.994819
0.995781 1.00129 1.00016
1.00131 1.00246 0.992887
0.994599 1.00532 0.999488
1.00277 0.999887 0.990506
1.00119 1.00383 0.98978
1.00272 1.00226 0.987715
1.00506 1.00014 0.98662
1.00391 1.00112 0.98827
1.00452 0.999743 0.988469
0.999485 1.00414 0.991525
0.999034 1.0052 0.989102
0.998497 1.00365 0.994345
0.999395 1.00478 0.991226
1.00116 1.00483 0.988426
0.99856 1.00462 0.993442
0.999373 1.00502 0.990728
0.999865 1.00404 0.990728
0.999926 1.00436 0.991525
0.999909 1.0033 0.991957
1.00021 0.999955 0.995432
0.999797 1.00281 0.992441
0.999947 0.999673 0.995614
1.00013 0.997424 0.997597
0.999867 0.999414 0.995694
1.00004 0.997327 0.998455
0.99998 0.997455 0.99909
1.00039 1.0047 0.989339
1.00002 1.00257 0.992402
1.00026 1.00419 0.990321
1.00003 0.999117 0.99573
0.999889 1.00218 0.992896
1.00034 1.00345 0.990861
1.00001 0.997249 0.999097
0.999978 0.999049 0.995884
0.999931 1.002 0.993076
1.00002 0.999203 0.995689
0.999997 0.997375 0.999059
1 0.997625 0.998946
0.994766 0.994832 0.777492
0.998618 0.995405 0.850059
0.99481 0.994778 0.774293
0.994853 0.995106 0.783698
0.99937 0.995015 0.956151
1.00233 0.994727 0.986134
0.999142 0.994746 0.923859
0.995474 0.995073 0.868237
0.994854 0.995701 0.797639
0.998435 0.994776 0.96642
0.996093 0.994657 0.918957
0.994754 0.996401 0.863642
0.994827 0.996424 0.783694
0.994904 0.994775 0.959258
0.994774 0.994641 0.912711
0.9948 0.995824 0.839361
0.994864 0.9949 0.800111
1.00034 1.00431 0.990708
0.998819 1.00446 0.992109
0.999799 1.004 0.991296
0.99651 1.00371 0.996045
1.00081 1.00408 0.989219
1.00012 1.00487 0.989862
0.998898 1.00457 0.991654
1.00137 1.00494 0.988106
1.00108 1.00507 0.988459
1.00043 1.00465 0.989612
1.00238 0.994731 0.989382
1.00229 0.999149 0.99086
1.00307 1.00269 0.987513
1.00013 0.999197 0.995133
0.997288 1.00382 0.997922
0.996998 1.00282 0.997427
0.998247 1.00506 0.993346
0.999081 1.00323 0.99343
0.999496 0.996238 0.987683
0.997166 1.00505 0.994952
0.996542 1.00318 0.998181
1.00056 1.00122 0.992901
0.997523 1.00298 0.996417
0.996662 0.999587 0.986265
0.996755 1.00292 0.997557
0.994671 1.0055 0.998265
0.996076 1.00425 0.997295
0.995238 1.00468 0.997674
0.994741 0.994761 0.78313
0.99479 0.994725 0.791729
0.999799 1.0003 0.835621
0.996897 1.00446 0.996267
0.998891 1.0021 0.996953
0.998076 0.997942 0.998041
0.994785 0.994811 0.786097
0.994789 0.994597 0.9133
0.994942 0.994769 0.952124
0.994942 0.995633 0.990881
0.994792 0.99646 0.863314
0.994809 0.994777 0.770378
0.996005 0.994883 0.804444
0.996113 1.0042 1.00061
0.994742 0.994794 0.778095
0.994797 0.994832 0.77686
0.99491 1.0026 0.999094
0.994854 0.99569 0.965013
0.995305 0.994773 0.911835
0.995702 0.994901 0.818208
0.995431 0.995985 0.858196
0.99474 1.00487 1.00173
0.994763 0.994831 0.764851
0.994865 0.994847 0.795605
0.994868 0.994892 0.799573
0.994728 1.00006 0.987457
0.994832 0.995586 0.93219
0.997333 0.994882 0.872827
0.994965 1.00519 0.999885
0.995181 1.00472 0.999681
0.994963 1.0051 0.999424
0.998906 1.00469 0.991542
0.996874 1.0049 0.995243
0.995246 1.00476 0.998256
0.99697 1.00491 0.994565
0.995421 1.00443 0.998081
0.995178 1.00466 0.998595
0.995074 1.00465 0.999567
0.995258 1.00504 0.998026
0.996039 1.00363 0.99705
0.999698 1.00109 0.994488
0.994721 1.00091 1.00041
0.994709 1.00487 0.999229
0.999597 1.00153 0.993609
1.00077 1.00123 0.994284
0.999996 1.0013 0.994067
1.00344 1.00025 0.988414
1.00085 1.00235 0.991183
1.00301 1.00187 0.987843
1.00489 1.00138 0.985652
1.0051 1.00114 0.9853
1.00495 0.999151 0.987585
1.0049 1.00012 0.986634
1.00262 1.00413 0.987404
1.00302 1.00168 0.988392
1.00376 0.999382 0.988906
1.00087 1.00342 0.991541
1.0002 1.00519 0.988647
1.00197 1.0052 0.986222
0.999918 1.00476 0.991288
1.00126 1.00508 0.988354
1.00085 1.00478 0.988414
0.99976 1.00507 0.990771
1.00031 1.00372 0.990669
1.00029 1.00033 0.994964
1.00023 1.00271 0.99197
1.0002 0.999985 0.994968
1.00037 0.997655 0.996961
0.999894 0.99981 0.995282
1.00012 0.997385 0.998365
1.00008 0.997272 0.999065
1.00114 1.00509 0.987821
1.00022 1.00296 0.991279
1.0007 1.00455 0.989349
1.00007 0.99938 0.995401
1.00009 1.00248 0.992178
1.00041 1.00409 0.99012
1.00003 0.997318 0.999052
1.00003 0.999105 0.995746
1 1.00196 0.992912
1 0.997275 0.999099
0.99996 0.999076 0.99588
1 0.997382 0.999035
0.994792 0.994817 0.776703
0.994786 0.994979 0.792409
0.999306 0.995097 0.849402
1.001 1.00509 0.988246
0.994779 0.9948 0.778289
0.994794 0.994794 0.774226
0.994869 0.995172 0.797177
0.997901 0.994724 0.966341
0.994876 0.994696 0.933881
0.994705 0.997228 0.846468
0.994805 0.995696 0.795513
0.995283 0.994764 0.956537
0.994944 0.994643 0.927917
0.994803 0.996394 0.845162
0.994891 0.994904 0.800644
0.994945 0.994754 0.950344
0.994816 0.99483 0.923821
0.996487 0.994914 0.861133
0.995284 0.99491 0.824165
0.998435 1.00359 0.9937
0.999488 1.00451 0.991227
0.998812 1.00385 0.992303
1.00124 1.00279 0.990281
1.00097 1.00456 0.989181
1.00001 1.00491 0.990036
1.00152 1.00512 0.988086
1.00133 1.00483 0.988433
0.998783 0.99721 0.988236
0.999847 1.00085 0.992879
0.997939 1.00384 0.993425
0.998024 1.002 0.996408
0.997235 1.00278 0.998307
0.99772 1.00471 0.994385
0.996233 1.00402 0.996263
0.996352 0.999929 0.986349
0.996005 1.00487 0.997453
0.99549 1.00435 0.998257
0.996205 1.00311 0.997704
0.994948 1.00523 0.997015
0.995478 1.00413 0.983326
0.994709 1.00387 0.999196
0.994792 1.00514 0.999012
0.995245 1.00522 0.997446
0.994729 0.994805 0.765462
0.994733 0.994759 0.779529
0.994797 0.994671 0.786418
0.996042 1.00455 1.00057
0.994921 1.00186 0.99772
0.99476 0.994815 0.778379
0.994757 0.994823 0.92754
0.99485 0.995457 0.961275
0.995687 0.994906 0.857368
0.99478 0.994833 0.777834
0.994892 0.994894 0.812408
0.994794 1.00498 1.00156
0.994766 0.994825 0.76537
0.994876 0.994858 0.793401
0.994727 1.00078 0.991089
0.994884 0.994913 0.800008
0.994836 0.996758 0.925671
0.996682 0.996616 0.874181
0.994754 1.00428 0.997114
0.994833 0.994842 0.781417
0.99479 0.994815 0.780241
0.994829 0.997307 0.789484
0.996591 0.994908 0.860983
0.994848 1.00149 0.969404
0.994876 0.995188 0.918549
0.99539 1.00486 0.999488
0.995003 1.00519 0.999442
0.994705 1.00529 0.998024
0.996491 1.00505 0.994646
0.995354 1.00415 0.998211
0.995261 1.0046 0.998561
0.99531 1.00466 0.997934
0.994954 1.00488 0.999391
0.997246 1.00291 0.999885
0.994793 1.00422 0.998982
0.997726 1.00053 0.994449
0.999292 1.00136 0.995109
1.00105 0.99958 0.992027
0.996478 1.00314 0.997202
1.00282 1.00013 0.989155
1.00465 1.00263 0.984038
1.00477 1.00192 0.984894
1.00364 1.00187 0.987873
1.00482 1.00147 0.985297
1.00513 1.00158 0.984861
1.0049 1.00093 0.985944
1.00504 1.00109 0.985364
1.00415 1.00121 0.987763
1.00411 1.00013 0.987484
1.00489 0.999977 0.986661
1.00173 1.00516 0.986337
1.0018 1.00451 0.987378
1.00181 1.0025 0.98849
1.00128 1.00521 0.988198
1.00254 1.00495 0.986203
1.00157 1.0051 0.986469
1.00105 1.00514 0.988284
1.00111 1.00473 0.988396
1.00031 1.00134 0.993057
1.00091 1.00367 0.990645
1.00043 1.0002 0.994063
1.00013 0.99774 0.99872
1.00023 0.999974 0.994617
1.00026 0.997659 0.99793
1.00017 0.997568 0.998905
1.00099 1.0051 0.98788
1.00053 1.00363 0.99005
1.001 1.00508 0.988107
1.0002 0.999647 0.994958
1.00024 1.00303 0.991149
1.00069 1.00472 0.989354
1.00005 0.997464 0.998977
1.00011 0.999302 0.995426
1.00003 1.0025 0.991956
1.00002 0.997306 0.999068
1.00002 0.99911 0.995762
0.999993 0.997284 0.999102
0.994742 0.99481 0.77301
0.994784 0.9948 0.777066
0.994783 0.995399 0.790969
1.00106 1.00503 0.988448
1.00035 1.00512 0.988441
1.00136 1.00332 0.990897
0.994879 0.99486 0.79431
0.994798 0.994799 0.779471
0.994788 0.994786 0.774336
0.99603 0.99475 0.957108
0.994871 0.994625 0.913999
0.994805 0.996977 0.864312
0.994888 0.994884 0.795177
0.994943 0.994781 0.952661
0.995008 0.994795 0.919455
0.996014 0.994915 0.861643
0.99539 0.994907 0.818409
0.994936 0.994849 0.952161
0.994792 0.995431 0.927631
0.996819 0.994898 0.873018
0.994894 0.994906 0.796095
0.997448 1.00327 0.995204
0.998394 1.00392 0.993663
0.999225 1.00504 0.991746
1.00084 1.00329 0.990178
1.00066 1.00502 0.989148
1.00141 1.00512 0.988061
0.995991 0.999881 0.986785
0.996335 1.00327 0.997887
0.997611 1.00301 0.995294
0.996565 1.00348 0.998125
0.997221 1.00434 0.99727
0.995195 1.00515 0.997096
0.995486 1.00524 0.997068
0.995251 1.00316 0.98338
0.994753 1.00525 0.999131
0.994695 1.00469 0.997614
0.995138 1.0054 0.998155
0.994733 1.00235 0.982363
0.994816 1.00495 0.994685
0.99491 1.00311 0.999022
0.994862 0.994854 0.768526
0.994737 0.994812 0.765068
0.994723 0.994758 0.775893
0.994863 1.00492 1.00136
0.994748 1.00164 0.98646
0.994761 0.99482 0.765904
0.994823 0.996715 0.926502
0.996277 0.994885 0.860555
0.994889 0.994853 0.791189
0.994885 0.994875 0.794715
0.994725 1.00441 0.997638
0.994812 0.994844 0.780088
0.994812 0.994796 0.781626
0.994866 1.00214 0.965736
0.99481 0.996834 0.782251
0.995952 0.996245 0.860433
0.994861 0.997355 0.932358
0.994802 1.00515 0.987995
0.994758 0.994813 0.776035
0.994788 0.994785 0.774369
0.99485 0.99987 0.80042
0.99478 0.996355 0.837112
0.994805 0.994906 0.930044
0.994799 1.00171 0.959165
0.995233 1.00494 0.999391
0.994773 1.00524 0.998166
0.99503 1.00499 0.998473
0.995248 1.00431 0.99784
0.994828 1.00488 0.999067
0.996163 1.00228 1.00035
0.998415 1.00258 0.998097
0.998078 1.00105 0.995878
1.00293 0.999253 0.991192
1.00188 1.00418 0.986275
1.00223 1.00031 0.990438
1.00451 1.0027 0.984189
1.00449 1.00273 0.983933
1.00521 0.999627 0.985993
1.00509 1.00135 0.985052
1.00482 1.00194 0.984813
1.00474 1.00173 0.98495
1.00498 1.00268 0.984368
1.00513 1.0014 0.98492
1.00504 1.00076 0.986074
1.00493 1.00126 0.986078
1.00481 1.00103 0.985424
1.00232 1.00269 0.9882
1.00363 1.00098 0.987636
1.00383 1.00083 0.987366
1.00246 1.00522 0.985512
1.00227 1.00518 0.986345
1.00101 1.00438 0.987358
1.00286 1.00489 0.986203
1.0023 1.00515 0.986478
1.00061 1.00217 0.991662
1.00191 1.00454 0.988348
1.00043 1.00127 0.992983
1.00029 0.998268 0.998538
1.00067 0.999973 0.99399
1.00035 0.997831 0.997803
1.00028 0.997597 0.99874
1.00181 1.00515 0.987671
1.00104 1.00404 0.989414
1.00124 1.00513 0.987843
1.00025 1.00013 0.99441
1.0005 1.00372 0.990219
1.00097 1.00507 0.988402
1.00008 0.997565 0.998872
1.00019 0.999618 0.994979
1.00041 1.00306 0.991021
1.00004 0.997399 0.999
1.00013 0.999243 0.995449
1.00002 0.997319 0.999084
0.994833 0.994844 0.778464
0.994748 0.994828 0.773558
0.994796 0.994782 0.777123
1.00051 1.00481 0.988259
1.00281 1.00229 0.99182
1.00054 1.00514 0.988659
1.00057 1.0051 0.988371
1.00026 1.00209 0.991658
1.0009 1.00255 0.991117
0.998317 1.00213 0.995138
0.994833 0.994838 0.778327
0.994876 0.994859 0.791955
0.994816 0.994824 0.780568
0.994892 0.994905 0.812415
0.995054 0.994763 0.950201
0.99484 0.994831 0.914822
0.995969 0.994912 0.872135
0.995165 0.994862 0.950622
0.994809 0.997386 0.913706
0.996389 0.995634 0.873338
0.995134 0.994897 0.804423
0.99486 0.99566 0.955026
0.994852 0.998455 0.91488
0.994956 0.994903 0.849412
0.994814 0.996156 0.780838
0.995396 1.00519 0.996982
0.997098 1.0037 0.995758
0.998047 1.00421 0.993628
1.0005 1.00429 0.990074
0.99529 1.00234 0.983291
0.994689 1.00523 0.996175
0.995238 1.00532 0.997207
0.99648 1.00526 0.996767
0.994618 1.00534 0.999602
0.995046 1.00538 0.998097
0.995891 1.00377 0.999396
0.994935 1.00231 0.979456
0.994885 1.00526 0.99456
0.995731 1.00287 1.00007
0.996262 1.00061 0.974404
0.9948 1.00394 0.998816
0.994735 0.99483 0.769358
0.994838 0.994856 0.775041
0.994748 0.994832 0.764668
0.994626 1.0049 0.998159
0.994869 1.00153 0.970356
0.99479 0.994845 0.778741
0.994874 0.995183 0.919727
0.99584 0.994906 0.871748
0.9948 0.994823 0.782716
0.994781 0.996235 0.793769
0.994773 1.00502 0.989109
0.994754 0.994827 0.776698
0.994783 0.99481 0.774359
0.994815 1.00201 0.959371
0.994841 0.997443 0.798189
0.994778 0.996729 0.843005
0.994842 0.995323 0.916184
0.995314 1.00405 0.982345
0.994817 0.994822 0.777441
0.994819 0.995134 0.780353
0.994716 0.995926 0.858317
0.994811 0.994878 0.925871
0.994843 0.999078 0.954952
0.994753 1.0051 0.998939
0.994935 1.00478 0.998539
0.99495 1.00514 0.997868
0.994995 1.00166 1.00082
0.996893 1.00263 0.998698
1.00082 1.0015 0.993643
1.00483 0.998824 0.990369
1.00305 1.00451 0.985462
1.00429 1.00183 0.985536
1.00442 1.00259 0.984337
1.00464 1.00271 0.98387
1.00502 1.00107 0.985373
1.00538 0.996931 0.988191
1.00526 0.999444 0.986609
1.0052 0.999822 0.986012
1.00508 1.00178 0.985126
1.00512 1.00115 0.98508
1.00494 1.00186 0.984729
1.00521 1.00408 0.982726
1.00501 1.00263 0.984477
1.00523 1.00143 0.984991
1.00419 1.00231 0.987425
1.00398 1.00153 0.98688
1.00462 1.00185 0.986214
1.00359 1.0029 0.986312
1.00249 1.00266 0.988163
1.00322 1.00159 0.987506
1.00121 1.00224 0.990593
1.00269 1.00515 0.98564
1.00268 1.00514 0.986352
1.00236 1.0051 0.986487
1.00069 1.00208 0.991649
1.00035 0.99895 0.998178
1.0004 1.00132 0.992918
1.0003 0.99835 0.998423
1.00034 0.997663 0.998626
1.00306 1.00456 0.988021
1.00293 1.00518 0.986817
1.00132 1.00469 0.988354
1.00164 1.00477 0.98766
1.00022 1.00082 0.993771
1.00095 1.00418 0.989381
1.00137 1.00516 0.9878
1.00007 0.997932 0.99874
1.00024 1.0001 0.994433
1.00053 1.00382 0.990384
1.00006 0.997625 0.998904
1.00017 0.999624 0.995005
1.00005 0.997377 0.999024
0.994779 0.994846 0.767579
0.994822 0.994834 0.777203
0.994746 0.994822 0.774112
1.00131 1.00503 0.987836
0.999799 1.00213 0.992636
1.00206 1.00111 0.989681
0.997948 1.00447 0.992141
1.00179 0.998529 0.994302
1.00077 1.00511 0.988275
0.999492 1.00287 0.992501
1.00057 1.00336 0.99111
0.998693 1.00072 0.996814
0.999133 1.00286 0.995423
0.99477 0.994745 0.773482
0.994814 0.994844 0.779688
0.99487 0.994842 0.789722
0.9954 0.994882 0.806725
0.996296 0.9949 0.860757
0.995006 0.994875 0.949182
0.994765 0.996038 0.926767
0.99487 0.996517 0.94962
0.994857 0.99828 0.927265
0.995118 0.995804 0.859046
0.994842 0.996355 0.778047
0.994877 0.999111 0.950463
0.9948 0.996435 0.926708
0.994824 0.996204 0.867434
0.994752 0.99894 0.80424
0.998372 1.00027 0.99795
0.995419 1.005 0.997293
0.997413 1.0032 0.996342
0.994809 1.00227 0.976012
0.994868 1.00527 0.993441
0.995164 1.00534 0.997945
0.994783 1.00434 0.999646
0.995377 1.00366 0.999918
0.99477 1.00237 0.999396
0.994809 1.00218 0.975291
0.995091 1.00205 1.00326
0.994747 1.00027 0.983307
0.994765 0.994779 0.785808
0.994754 0.994841 0.768671
0.99482 0.994847 0.781924
0.994808 1.00496 0.989432
0.994844 0.999751 0.957032
0.994768 0.994833 0.777348
0.994828 0.99491 0.928069
0.994786 0.997242 0.861611
0.994818 0.994787 0.774708
0.994847 0.995816 0.79632
0.995087 1.0043 0.983258
0.994814 0.994805 0.777415
0.994836 0.995597 0.782344
0.994855 0.998333 0.956331
0.994741 0.996648 0.862635
0.995086 0.994806 0.916301
0.994748 1.00254 0.981187
0.994755 0.99483 0.776646
0.99599 0.994977 0.869055
0.994793 0.99464 0.912257
0.994955 0.994884 0.955533
0.994964 1.00466 0.998633
0.994867 1.00517 0.997625
0.997981 1.00012 0.996598
0.9955 1.00266 0.999274
0.99973 1.0018 0.994497
1.0043 0.995799 0.992711
1.00417 1.00496 0.984628
1.00418 1.00175 0.985508
1.00504 0.997391 0.988525
1.00463 1.00284 0.98381
1.00492 1.00074 0.985418
1.00521 0.997244 0.988463
1.00542 0.994831 0.990335
1.00541 0.996659 0.988184
1.00537 0.996867 0.988231
1.00537 0.999285 0.986765
1.00525 0.999456 0.986559
1.00518 0.999952 0.986032
1.00535 1.0028 0.983608
1.00505 1.00162 0.984993
1.00507 1.00092 0.985107
1.00526 1.00501 0.983168
1.00424 1.00409 0.983468
1.005 1.00238 0.984586
1.00242 1.0038 0.987666
1.00302 1.00246 0.987313
1.00287 1.00196 0.987685
1.00188 1.00301 0.990706
1.00309 1.00329 0.986423
1.00258 1.00261 0.988123
1.00063 1.00002 0.994716
1.00137 1.00263 0.990809
1.00296 1.00517 0.98578
1.00091 1.00208 0.991615
1.00044 0.999114 0.99806
1.00035 0.998741 0.998302
1.002 1.00183 0.987689
1.00295 1.00505 0.986352
1.00074 1.00448 0.988214
1.00132 1.00515 0.987884
1.0018 1.00516 0.986843
0.999966 1.00152 0.993309
1.00117 1.00475 0.988351
1.0015 1.00516 0.98764
1.00004 0.998328 0.998597
1.00021 1.0007 0.993824
1.00075 1.00424 0.98935
1.00006 0.997814 0.998781
1.00025 0.999994 0.994454
1.00005 0.997531 0.998936
0.99476 0.994825 0.783843
0.994784 0.994841 0.768207
0.994798 0.994855 0.775717
1.00269 1.00434 0.985838
1.00081 1.00497 0.987453
0.998251 1.00258 0.993717
0.999813 1.00499 0.991382
1.00326 1.00019 0.989342
0.999926 0.99775 0.997656
1.00332 1.00029 0.989754
0.995198 1.00518 0.996047
0.999666 1.00382 0.991048
0.998552 0.997638 0.998382
0.997272 1.00329 0.995538
0.997679 1.00237 0.996148
0.994833 0.99752 0.798986
0.994793 0.994767 0.773157
0.994799 0.994851 0.780714
0.994934 0.99739 0.793214
0.995323 0.994898 0.857798
0.994839 0.998451 0.915292
0.995184 0.995286 0.950474
0.995554 0.998919 0.951435
0.994798 0.99797 0.801537
0.994832 0.996489 0.918062
0.994817 0.996747 0.846713
0.994865 0.996723 0.958255
0.994786 0.994813 0.928424
0.994729 0.997264 0.860438
0.999164 0.996297 1.00252
0.998232 1.00029 0.997862
0.994896 1.00541 0.997577
0.995 1.00248 0.97572
0.995718 1.00093 0.999971
0.995741 1.0029 0.999888
0.995796 1.00003 1.00364
0.994932 0.999563 0.983464
0.995476 0.997212 0.994867
0.994753 0.994747 0.792853
0.994761 0.994796 0.785023
0.994781 0.994833 0.767676
0.994747 1.00482 0.983307
0.994827 0.999781 0.955833
0.994796 0.994806 0.777691
0.994828 0.994826 0.913071
0.994687 0.997236 0.845275
0.994858 0.996116 0.795911
0.994784 1.00448 0.980906
0.994774 0.994949 0.791803
0.994862 0.995013 0.847525
0.995113 0.994839 0.949847
0.995017 0.994637 0.927457
0.995796 0.998348 0.988026
0.998977 0.998143 0.835009
0.994898 0.994707 0.935225
0.994943 0.994738 0.947758
0.99481 1.0052 0.997446
0.997664 1.00185 0.996283
1.00117 0.997614 0.993809
0.998619 1.00258 0.995354
1.00342 0.996883 0.992497
1.00488 0.994754 0.9921
1.00413 1.0016 0.985484
1.00503 0.997251 0.988395
1.0052 0.995321 0.990215
1.00482 1.00029 0.985465
1.00514 0.997091 0.98839
1.00537 0.994717 0.990455
1.00534 0.994744 0.991075
1.00541 0.994911 0.990275
1.00542 0.994849 0.990323
1.00548 0.996434 0.988373
1.00542 0.996578 0.988364
1.00538 0.99681 0.98827
1.00551 0.999606 0.985915
1.00536 0.999142 0.986637
1.00525 0.999484 0.986505
1.0054 1.00357 0.982025
1.00536 1.00279 0.983531
1.00503 1.00147 0.984858
1.00345 1.0029 0.986265
1.00414 1.00492 0.983144
1.00344 1.00414 0.984223
1.00186 1.00319 0.988565
1.00288 1.0028 0.987523
1.00188 1.00257 0.987182
1.00013 1.00214 0.997094
1.00187 1.00325 0.988732
1.00332 1.00272 0.986504
1.00055 0.999514 0.997725
1.0015 1.00258 0.990073
1.0005 0.999038 0.997939
1.00467 1.00333 0.985106
1.00344 1.00176 0.987329
1.00239 1.00441 0.986644
1.00167 1.00519 0.987784
1.0025 1.00508 0.986355
1.0005 1.00478 0.988396
1.0001 1.00205 0.99281
1.0012 1.00518 0.987905
1.00183 1.0044 0.986866
1.00002 0.998921 0.998493
0.999975 1.00163 0.993307
1.00109 1.0049 0.988345
1.00002 0.998329 0.998641
1.00019 1.00078 0.993866
1.00005 0.997837 0.998821
0.994774 0.994817 0.784348
0.994769 0.994814 0.784026
0.994787 0.994833 0.768948
1.00272 1.00428 0.986113
1.00458 1.00288 0.98619
1.00144 1.00482 0.987824
0.999552 1.00499 0.990593
1.00457 1.00009 0.989033
0.996287 0.997977 1.00066
0.997701 1.00199 0.995874
1.00165 1.00113 0.991407
1.00081 1.00042 0.99334
0.998558 1.0014 0.995696
0.997308 1.00314 0.995628
0.998707 1.00239 0.996134
0.995413 0.99587 0.842813
0.994786 0.995912 0.793378
0.994818 0.994785 0.773705
0.994842 0.99633 0.798392
0.994791 0.996819 0.864946
0.994838 0.995837 0.915469
0.994825 0.999586 0.950465
0.994888 0.997593 0.954565
0.994788 0.996904 0.863545
0.994954 0.994794 0.914165
0.994925 0.995384 0.96026
0.994896 0.994572 0.915771
0.99842 0.99568 1.0059
0.999148 0.996136 1.00228
0.998002 1.00031 0.99784
0.994814 0.999723 0.983766
0.995985 0.999429 1.00395
0.995437 0.997388 0.994454
0.994965 0.995207 0.992076
0.999446 0.999979 0.845657
0.994778 0.994714 0.789098
0.994757 0.994818 0.783979
0.994826 1.00428 0.981428
0.995022 0.994842 0.949592
0.994773 0.995109 0.790064
0.994887 0.99461 0.914437
0.995458 0.995641 0.867621
0.995627 0.998328 0.984374
0.998681 0.995069 0.850204
0.995865 0.994652 0.919299
0.995043 0.994777 0.949315
0.997065 0.996576 0.98386
0.998157 0.994862 0.934296
0.994906 0.994758 0.957464
0.997263 1.00255 0.995989
1.00064 0.997056 0.99371
1.00346 0.996492 0.992702
1.00262 0.997478 0.992294
1.0046 0.99477 0.992036
1.00506 0.994608 0.991414
1.00506 0.997167 0.988268
1.00519 0.995412 0.990082
1.00534 0.994697 0.990472
1.00505 0.996948 0.988316
1.00538 0.99472 0.990407
1.00534 0.994812 0.990706
1.00536 0.994854 0.990789
1.00532 0.994744 0.991054
1.00535 0.994787 0.991052
1.00535 0.995045 0.990551
1.00541 0.994985 0.990396
1.00541 0.994862 0.990311
1.00549 0.9969 0.988247
1.00548 0.996391 0.988375
1.00542 0.996486 0.988544
1.00552 1.0011 0.984263
1.00554 0.999632 0.985916
1.00535 0.999038 0.986513
1.00512 1.00291 0.983201
1.00544 1.0037 0.982223
1.0054 1.00279 0.98345
1.00199 1.00414 0.987207
1.00328 1.00357 0.986198
1.00314 1.00488 0.983136
1.00105 1.00104 0.996898
1.00197 1.00315 0.988607
1.00273 1.00272 0.987392
1.00062 1.00123 0.99529
1.00178 1.00285 0.989054
1.00071 1.00044 0.997346
1.00486 1.00414 0.982714
1.00369 1.00378 0.98508
1.0032 1.00281 0.986116
1.00411 1.00233 0.986975
1.00285 1.00419 0.98671
1.0019 1.00517 0.987337
1.00072 1.00234 0.991766
1.00138 1.00518 0.987718
1.00113 1.00508 0.986369
1.0001 0.998834 0.998274
1 1.00202 0.992794
1.00124 1.00518 0.987926
0.999962 0.998632 0.998519
1.00003 1.00139 0.993337
1 0.998151 0.998685
0.99738 0.994846 0.85209
0.994789 0.994953 0.789805
0.994776 0.994808 0.784355
1.0027 1.00375 0.986394
1.00177 1.00486 0.987528
1.00438 1.00248 0.985579
1.00501 0.998845 0.987884
1.00279 0.999862 0.990833
0.999625 1.00211 0.995732
1.00174 1.00022 0.993036
1.00142 1.00028 0.993429
1.00477 0.996259 0.991127
1.00182 0.998886 0.993955
1.00207 0.998854 0.993869
1.00025 0.99965 0.99574
0.99925 1.00196 0.996196
0.997434 0.99466 0.930446
0.99642 0.995735 0.849029
0.99475 0.995094 0.799106
0.994753 0.99662 0.847473
0.994789 0.994816 0.925438
0.995087 0.997396 0.957611
0.994985 0.995303 0.962387
0.994905 0.99462 0.93044
0.995605 0.99477 0.958471
0.997149 0.995707 1.00524
0.997458 0.996491 1.00601
0.999387 0.99588 1.00201
0.995197 0.997055 0.994241
0.996257 0.99478 0.993707
0.999648 0.997457 0.917447
0.99974 0.995486 0.85569
0.994799 0.994681 0.785261
0.995523 0.997376 0.980208
0.994913 0.994746 0.948244
0.999091 0.994888 0.849353
0.994892 0.994673 0.934133
0.997241 0.995248 0.984019
0.999497 0.99484 0.929432
0.995315 0.994769 0.954712
0.999801 0.994642 0.983292
0.998022 0.994768 0.966915
1.00025 0.997276 0.993579
1.00252 0.995535 0.992768
1.00483 0.994692 0.992054
1.00423 0.994798 0.991966
1.005 0.994625 0.991311
1.00531 0.994695 0.99069
1.00515 0.995499 0.989949
1.00533 0.994711 0.990432
1.00537 0.994813 0.990423
1.00539 0.994721 0.990359
1.00534 0.994803 0.990712
1.00538 0.994837 0.990538
1.00535 0.994857 0.990766
1.00537 0.994843 0.99077
1.00531 0.994743 0.991034
1.00535 0.994772 0.991057
1.00531 0.994839 0.991039
1.00536 0.995622 0.990174
1.00536 0.995101 0.990552
1.00542 0.995069 0.990517
1.00546 0.999603 0.985931
1.00551 0.996964 0.988134
1.00547 0.996327 0.988374
1.00534 1.00448 0.981846
1.00549 1.00136 0.984352
1.00558 0.999643 0.985916
1.0032 1.00371 0.98573
1.00466 1.00354 0.983316
1.00548 1.00379 0.982418
1.00113 1.00144 0.996581
1.00236 1.00382 0.987103
1.00305 1.00414 0.986145
1.00102 1.00094 0.996857
1.00226 1.00304 0.988656
1.00097 1.00071 0.997011
1.0051 1.00253 0.984919
1.00492 1.00457 0.982869
1.00324 1.00515 0.982966
1.00332 1.00377 0.985037
1.0027 1.00412 0.985707
1.00216 1.00439 0.985897
1.00248 1.00362 0.986754
1.00159 1.00515 0.987221
1.00147 1.00302 0.989907
1.00021 0.999858 0.997824
1.00039 1.00259 0.991749
1.00097 1.0052 0.987658
1 0.999243 0.998362
0.999757 1.00243 0.992732
0.999942 0.99867 0.998553
0.999956 0.994828 0.934605
0.999817 0.995968 0.848504
0.994782 0.994775 0.783888
1.00159 1.00502 0.987231
1.0043 1.00277 0.984964
1.00331 1.00004 0.989983
1.00497 0.999252 0.987463
1.00517 0.997043 0.988913
1.00494 0.995719 0.990562
1.00234 0.998472 0.993476
1.00495 0.996438 0.99042
1.00199 0.99926 0.99372
1.0044 0.998402 0.989994
1.00238 0.999712 0.991715
1.00242 0.998635 0.994195
1.002 0.999598 0.994099
1.00108 0.999053 0.995775
0.994938 0.99476 0.957965
0.996358 0.994639 0.925259
0.99483 0.996356 0.867391
0.994803 0.994592 0.914748
0.994855 0.995723 0.963214
0.995711 0.994807 0.965072
0.998568 0.994735 0.989875
0.998455 0.995172 1.00376
0.99672 0.997234 1.00613
0.99739 0.994774 0.995374
0.999237 0.994698 0.957476
1.00087 0.994863 0.933894
0.999418 1.00108 0.834167
0.997246 0.994916 0.984444
0.995841 0.994765 0.954953
0.998595 0.994765 0.924209
0.99969 0.994772 0.983918
0.997693 0.994774 0.965584
1.00179 0.996389 0.987106
1.00381 0.994651 0.983929
1.00138 0.994832 0.992849
1.00411 0.994679 0.992197
1.00524 0.994831 0.990778
1.00494 0.994633 0.991207
1.00531 0.994688 0.990662
1.00541 0.994782 0.990455
1.00531 0.994719 0.990391
1.00538 0.994807 0.990433
1.0054 0.994827 0.990524
1.00534 0.994793 0.990719
1.00539 0.994837 0.990559
1.00538 0.994862 0.990705
1.00533 0.994858 0.990744
1.00537 0.994846 0.990761
1.00534 0.994855 0.990938
1.00535 0.994756 0.991061
1.00531 0.994824 0.991045
1.00534 0.995402 0.990525
1.00539 0.997952 0.987764
1.00536 0.995869 0.98984
1.00537 0.995164 0.990553
1.00537 1.00284 0.982867
1.00544 0.99975 0.985934
1.00553 0.997037 0.988021
1.00362 1.00316 0.985611
1.00498 1.00447 0.981878
1.00543 1.00169 0.984451
1.00203 1.00205 0.995719
1.00314 1.00379 0.985592
1.00407 1.00429 0.983433
1.00153 1.00172 0.996172
1.00271 1.00351 0.986995
1.00121 1.0009 0.996649
1.00541 0.999648 0.986069
1.00498 1.00257 0.984525
1.00523 1.00381 0.982802
1.00483 1.00371 0.983017
1.00465 1.00453 0.982707
1.00354 1.00432 0.98416
1.00369 1.00518 0.985319
1.00312 1.00443 0.985978
1.00201 1.00364 0.987855
1.00175 1.00506 0.987135
1.00108 1.00322 0.989925
1.00044 1.00105 0.997101
1.00011 0.999511 0.998005
1.00016 1.00254 0.991753
0.999899 0.998983 0.998421
0.994936 0.994811 0.962317
0.998563 0.994995 0.91791
0.999557 0.999118 0.864074
1.00537 0.995703 0.989583
1.00405 1.00004 0.989149
1.00498 0.999347 0.987044
1.00516 0.995997 0.990532
1.00529 0.99691 0.988991
1.00535 0.99562 0.989992
1.00497 0.996485 0.989732
1.00146 0.99924 0.993525
1.00449 0.997415 0.990039
1.00217 0.999858 0.991242
1.00344 0.999068 0.990154
1.00348 0.994555 0.994533
1.00151 0.998319 0.994678
1.00154 0.999742 0.994342
0.997845 0.994721 0.988031
0.995287 0.994748 0.956134
0.995534 0.994679 0.919573
0.995101 0.994786 0.966283
0.998568 0.994706 0.991981
0.999314 0.994745 1.00225
1.00438 0.994647 0.975037
1.00089 0.994793 0.954689
0.999865 0.997244 0.91782
0.999251 0.994829 0.984491
0.996659 0.994764 0.965363
1.00133 0.9956 0.987879
1.00263 0.994651 0.984528
1.00315 0.996464 0.990174
1.00547 0.994526 0.990674
1.00352 0.994684 0.99234
1.00524 0.994805 0.990757
1.00542 0.994935 0.990493
1.00532 0.994693 0.990635
1.00541 0.994797 0.990467
1.00541 0.99484 0.990626
1.00538 0.994806 0.990444
1.0054 0.994829 0.990513
1.00538 0.99487 0.990783
1.00539 0.994838 0.990581
1.00538 0.994863 0.990699
1.00533 0.99489 0.990933
1.00538 0.994849 0.990752
1.00534 0.994854 0.990909
1.00533 0.994859 0.991082
1.00531 0.994808 0.991051
1.00534 0.995182 0.990709
1.00538 0.997155 0.98886
1.00535 1.00154 0.98447
1.0054 0.998269 0.987467
1.00538 0.996102 0.989506
1.00374 1.00213 0.986351
1.00539 1.00295 0.982867
1.00544 0.999882 0.985933
1.00274 1.00161 0.995564
1.00359 1.00308 0.985591
1.0048 1.00456 0.981899
1.00222 1.00203 0.995629
1.00311 1.00379 0.985459
1.00176 1.00205 0.995871
1.00548 0.997233 0.987963
1.00536 0.999739 0.986102
1.00555 1.0021 0.983864
1.00482 1.0031 0.98414
1.00509 1.00412 0.982628
1.00426 1.0043 0.982902
1.00529 1.00473 0.982455
1.00362 1.00442 0.984194
1.00247 1.00405 0.986649
1.00285 1.00455 0.985979
1.00195 1.00397 0.987912
1.0008 1.00233 0.996462
1.00085 1.00357 0.989941
1.00018 1.0009 0.997388
0.999986 0.999713 0.998164
0.998607 0.994657 0.985458
0.996396 0.994777 0.956631
0.999986 0.994842 0.934205
1.0054 0.994922 0.990067
1.00537 0.994881 0.990395
1.0054 0.995475 0.98971
1.00522 0.99637 0.990494
1.00538 0.996674 0.989075
1.00533 0.995751 0.989995
1.00538 0.995097 0.990003
1.00472 0.996579 0.990075
1.00291 1.00055 0.990777
1.00364 0.998332 0.990556
1.00524 0.994736 0.991242
1.00353 0.994813 0.993081
1.00256 0.994644 0.99449
1.00145 0.998033 0.995169
0.998781 0.994678 0.987863
0.995937 0.994784 0.955303
0.999413 0.994701 0.99422
1.00532 0.994705 0.989271
1.00436 0.994645 0.975014
0.999217 0.994792 0.955881
1.00152 0.994793 0.988533
1.00144 0.994643 0.985159
1.00358 0.995656 0.990508
1.00538 0.994544 0.990886
1.0055 0.994716 0.990982
1.00554 0.994644 0.991422
1.00526 0.994774 0.990736
1.00543 0.994886 0.990511
1.00542 0.994843 0.990934
1.00541 0.994806 0.990479
1.00541 0.994838 0.990636
1.00537 0.99486 0.990937
1.0054 0.994829 0.990502
1.00538 0.994871 0.990785
1.00533 0.994907 0.991017
1.00538 0.994864 0.990694
1.00533 0.99489 0.990928
1.00524 0.994893 0.99128
1.00534 0.994853 0.99088
1.00534 0.994861 0.991033
1.00537 0.996172 0.989861
1.00533 0.994968 0.990892
1.00539 0.997035 0.988944
1.00533 1.00058 0.985574
1.0038 1.0013 0.987164
1.00534 1.00152 0.984501
1.0054 0.9986 0.987171
1.00295 1.00089 0.995642
1.00372 1.00213 0.986428
1.00541 1.00298 0.982865
1.00273 1.00153 0.995557
1.00354 1.00315 0.985573
1.00236 1.00215 0.995545
1.00537 0.995442 0.989867
1.00547 0.997099 0.988221
1.00543 1.00028 0.985645
1.00533 0.999851 0.986134
1.00554 1.00205 0.98377
1.00492 1.0043 0.982152
1.00541 1.00414 0.982451
1.00458 1.00438 0.982852
1.00264 1.00414 0.985939
1.0044 1.0043 0.984272
1.00235 1.00409 0.986713
1.00116 1.00271 0.996093
1.00159 1.00426 0.987972
1.00058 1.00209 0.996674
1.0001 1.00041 0.997645
1.00375 0.994709 0.992111
0.998061 0.99474 0.982808
0.995832 0.994774 0.95837
1.00542 0.994791 0.990258
1.00538 0.99501 0.990104
1.00531 0.994833 0.990797
1.00537 0.994941 0.990365
1.00543 0.995315 0.989825
1.00542 0.994778 0.990478
1.00532 0.995807 0.989991
1.00536 0.995014 0.990025
1.00532 0.994729 0.990926
1.00368 0.99753 0.990958
1.00524 0.994683 0.990862
1.00294 0.994785 0.993281
1.00135 0.994681 0.994476
0.999475 0.994637 0.987484
1.00547 0.994709 0.99163
1.00534 0.994617 0.9893
1.00414 0.994671 0.975084
1.00383 0.994862 0.990807
1.0054 0.994563 0.991088
1.00546 0.994722 0.990912
1.0056 0.994649 0.991564
1.00547 0.994771 0.991459
1.00543 0.994834 0.99053
1.00542 0.994836 0.990932
1.00537 0.994855 0.991241
1.00541 0.994838 0.990647
1.00537 0.994862 0.990935
1.00534 0.994907 0.99116
1.00538 0.994872 0.990787
1.00532 0.994907 0.991018
1.00517 0.994939 0.991452
1.00533 0.99489 0.990923
1.00526 0.994894 0.991255
1.00535 0.995458 0.99079
1.00535 0.994863 0.990984
1.00536 0.996225 0.98984
1.00533 0.999853 0.986401
1.0054 0.996912 0.989029
1.00533 1.00056 0.985606
1.00365 1.00108 0.989635
1.00333 0.999897 0.991837
1.00381 1.00132 0.988188
1.00533 1.00148 0.984531
1.00286 1.00083 0.995734
1.0037 1.00198 0.986504
1.00271 1.0015 0.995598
1.00532 0.994886 0.991028
1.00539 0.994855 0.990677
1.00537 0.995484 0.990031
1.00538 0.998502 0.987339
1.00545 0.996912 0.98848
1.00542 1.00016 0.985603
1.00527 1.00354 0.982476
1.0055 1.00208 0.983673
1.00512 1.00417 0.982104
1.00316 1.00358 0.985633
1.00472 1.00472 0.982803
1.00283 1.00406 0.985984
1.00184 1.00268 0.995713
1.00254 1.00406 0.986788
1.0011 1.00252 0.996239
1.00016 1.00198 0.996939
1.0054 0.994773 0.991415
1.00326 0.994778 0.991599
0.998046 0.994794 0.980143
1.00533 0.994862 0.990744
1.00542 0.99481 0.990215
1.00536 0.994994 0.99015
1.00531 0.994841 0.990841
1.00537 0.994998 0.990336
1.00538 0.994803 0.990999
1.00538 0.994764 0.990436
1.00532 0.995034 0.990046
1.00529 0.994712 0.990975
1.00521 0.994684 0.99048
1.00243 0.994527 0.993411
1.00542 0.994793 0.991492
1.00546 0.994705 0.991629
1.00536 0.994569 0.989332
1.00542 0.99472 0.990833
1.00566 0.994635 0.991703
1.00548 0.994771 0.991435
1.00537 0.994865 0.991504
1.00542 0.99483 0.99093
1.00537 0.994861 0.991199
1.00534 0.994906 0.991358
1.00537 0.994864 0.990932
1.00534 0.994906 0.991164
1.00519 0.99495 0.991547
1.00532 0.994907 0.99102
1.00519 0.994939 0.991441
1.00531 0.995084 0.991403
1.00529 0.994895 0.99123
1.00531 0.995515 0.990779
1.00535 0.999264 0.987037
1.00535 0.996277 0.989821
1.00532 0.999843 0.986432
1.00366 1.00076 0.989904
1.00533 1.00053 0.985641
1.00393 1.00089 0.989473
1.00315 0.999693 0.992057
1.00286 1.00025 0.993975
1.00404 1.00131 0.988981
1.00281 1.00071 0.995805
1.00528 0.994904 0.991044
1.00533 0.994899 0.991073
1.00531 0.994906 0.991068
1.00536 0.996905 0.98895
1.00537 0.994855 0.990767
1.00536 0.995534 0.990195
1.00537 0.998383 0.98736
1.00535 1.00198 0.983947
1.0054 1.00001 0.985565
1.00522 1.00366 0.982458
1.00353 1.00252 0.986303
1.0054 1.00404 0.982062
1.00318 1.00357 0.985676
1.00237 1.00208 0.995604
1.00283 1.00388 0.986035
1.00165 1.00245 0.995871
1.00089 1.00258 0.996341
1.00538 0.994817 0.991257
1.00535 0.994779 0.991463
1.00229 0.995054 0.991125
1.00532 0.994873 0.99105
1.00533 0.994847 0.990704
1.00543 0.994827 0.990176
1.00531 0.994853 0.990884
1.00539 0.994813 0.990951
1.00535 0.994751 0.990395
1.00527 0.994698 0.99102
1.00538 0.994859 0.991516
1.00541 0.994801 0.991471
1.00545 0.994713 0.991625
1.00533 0.994886 0.99157
1.00549 0.994771 0.991411
1.00537 0.994865 0.991494
1.00534 0.994905 0.991511
1.00537 0.994865 0.991156
1.00534 0.994906 0.991363
1.00521 0.994932 0.991642
1.00533 0.994906 0.991169
1.00518 0.99495 0.991551
1.00529 0.994951 0.991678
1.0052 0.994939 0.99143
1.00529 0.995108 0.991387
1.00538 0.998752 0.987612
1.00526 0.995573 0.990768
1.00536 0.999258 0.987052
1.00362 1.00054 0.990133
1.00531 0.999827 0.986465
1.00391 1.00063 0.989715
1.00303 0.999762 0.992127
1.0042 1.0007 0.989318
1.00257 0.99987 0.99249
1.00201 1.00064 0.996566
1.00527 0.994928 0.991147
1.00517 0.994915 0.991368
1.00528 0.994909 0.991069
1.00531 0.996576 0.989514
1.00532 0.994885 0.991087
1.00531 0.994923 0.99111
1.00533 1.00053 0.985556
1.00539 0.996824 0.988986
1.00537 0.994852 0.990857
1.00537 0.998249 0.987381
1.00534 1.00207 0.983917
1.00364 1.00157 0.987215
1.00536 1.00377 0.982428
1.00353 1.00253 0.986266
1.00252 1.00125 0.995787
1.00323 1.00361 0.985704
1.0023 1.00208 0.995625
1.00163 1.00235 0.996052
1.00532 0.994879 0.991387
1.00538 0.994814 0.9912
1.00532 0.99478 0.991516
1.00531 0.994878 0.991059
1.00533 0.994832 0.990666
1.0054 0.994822 0.990903
1.00534 0.994894 0.991578
1.00538 0.994861 0.991526
1.0054 0.994806 0.991449
1.00534 0.994888 0.991593
1.00532 0.994915 0.991621
1.00537 0.994868 0.991484
1.00534 0.994905 0.991529
1.00521 0.99492 0.991709
1.00534 0.994907 0.991368
1.00521 0.994932 0.991651
1.00532 0.994945 0.991731
1.00518 0.994949 0.991555
1.0053 0.994955 0.991661
1.00536 0.99829 0.988173
1.00527 0.995141 0.99137
1.0054 0.998745 0.987615
1.00348 1.00041 0.990443
1.00538 0.999253 0.987069
1.00385 1.00045 0.989945
1.00284 0.999877 0.992246
1.00415 1.0005 0.989534
1.00251 0.999845 0.992578
1.002 1.00008 0.99291
1.00527 0.994918 0.991378
1.00514 0.994953 0.991493
1.00528 0.99492 0.991118
1.00528 0.995996 0.990301
1.00517 0.994923 0.991368
1.00528 0.994914 0.991093
1.00532 0.999712 0.986555
1.00532 0.996205 0.989891
1.00531 0.994875 0.991101
1.00369 1.00096 0.987776
1.00532 1.0006 0.985509
1.00539 0.996789 0.989022
1.00533 1.00214 0.983886
1.00363 1.00155 0.987146
1.00255 1.00068 0.995944
1.00349 1.00258 0.986235
1.00257 1.00136 0.995712
1.00218 1.00199 0.995688
1.00531 0.994914 0.991549
1.00532 0.994876 0.991346
1.00539 0.994815 0.991144
1.0053 0.994883 0.991068
1.0053 0.994928 0.991635
1.00534 0.994894 0.991584
1.00538 0.994866 0.991537
1.00534 0.99489 0.991616
1.00532 0.994914 0.991631
1.00519 0.994932 0.991866
1.00534 0.994905 0.991547
1.00521 0.994922 0.991761
1.00533 0.994948 0.99168
1.0052 0.994933 0.991659
1.00532 0.994946 0.991724
1.00534 0.997943 0.988597
1.0053 0.99495 0.991645
1.00538 0.998282 0.988161
1.00348 1.00027 0.988913
1.00542 0.99874 0.987616
1.0037 1.00035 0.989375
1.00235 0.999968 0.996139
1.00408 1.00037 0.989757
1.00237 0.999912 0.992686
1.00202 0.99991 0.993011
1.00528 0.994933 0.991516
1.00511 0.994943 0.991627
1.00527 0.994923 0.991415
1.00526 0.995098 0.991384
1.00513 0.994951 0.991501
1.00528 0.994914 0.991089
1.00538 0.998417 0.987863
1.00529 0.995978 0.990296
1.00517 0.99493 0.991369
1.00374 1.00059 0.988094
1.00531 0.999336 0.986926
1.00534 0.995791 0.990267
1.00256 1.0003 0.996028
1.0037 1.00094 0.98773
1.00532 1.00066 0.985462
1.00365 1.00156 0.987083
1.00262 1.00073 0.995897
1.00264 1.00141 0.995645
1.00529 0.994945 0.991543
1.00532 0.994914 0.99154
1.00532 0.994871 0.991305
1.00516 0.99494 0.991972
1.0053 0.994927 0.991616
1.00534 0.994894 0.991589
1.00532 0.994913 0.991641
1.0052 0.99493 0.991868
1.00532 0.995403 0.991187
1.00521 0.994925 0.991813
1.00533 0.9952 0.991435
1.00533 0.997268 0.989357
1.00532 0.994946 0.991716
1.00535 0.99792 0.988584
1.0034 1.00002 0.989271
1.00539 0.998272 0.988151
1.0035 1.00023 0.988931
1.00223 1.00002 0.996186
1.00377 1.0003 0.9885
1.00216 1 0.994586
1.00191 0.999926 0.993123
1.00526 0.994955 0.991626
1.00507 0.99495 0.991828
1.00527 0.994934 0.991521
1.00525 0.995021 0.991638
1.00511 0.994944 0.991663
1.00527 0.994928 0.991452
1.00541 0.99804 0.988236
1.00527 0.995417 0.99105
1.00513 0.994948 0.991509
1.0037 1.00045 0.988328
1.00538 0.998358 0.987915
1.00529 0.995965 0.990291
1.00251 1.0001 0.996067
1.00372 1.00061 0.988076
1.0053 0.998965 0.987301
1.00263 1.00032 0.996
1.00371 1.00093 0.987681
1.00264 1.00078 0.995848
1.00512 0.994957 0.991937
1.00529 0.994945 0.991569
1.00532 0.994913 0.991532
1.00531 0.995443 0.991186
1.00516 0.994937 0.991952
1.0053 0.994925 0.991597
1.0052 0.994927 0.99187
1.00532 0.99545 0.991179
1.00533 0.997187 0.989384
1.00533 0.995465 0.99119
1.00533 0.997515 0.989075
1.00334 0.999821 0.989562
1.00536 0.997901 0.98857
1.00339 1.00002 0.989281
1.00209 0.999999 0.996263
1.00351 1.0002 0.988946
1.00217 1.00003 0.99621
1.00226 0.999989 0.992652
1.00505 0.994966 0.992004
1.00525 0.994948 0.99154
1.00525 0.994956 0.991769
1.00508 0.994952 0.991832
1.00527 0.994936 0.991526
1.0054 0.998589 0.987722
1.00526 0.994976 0.991638
1.00512 0.994944 0.991698
1.00361 1.0004 0.988562
1.0054 0.998397 0.987891
1.00528 0.995744 0.990715
1.00239 1.00007 0.99608
1.00367 1.0005 0.988318
1.00538 0.998295 0.987968
1.00258 1.00011 0.996052
1.00371 1.00064 0.988052
1.00271 1.00032 0.995972
1.00526 0.995528 0.99115
1.00512 0.99496 0.991975
1.00529 0.994944 0.991595
1.00535 0.997305 0.989247
1.00531 0.995491 0.991173
1.00516 0.994935 0.991934
1.00532 0.995497 0.99117
1.00533 0.997244 0.989387
1.00329 0.999704 0.989772
1.00533 0.997749 0.988795
1.00335 0.999816 0.989563
1.00201 0.999982 0.996345
1.0034 1.00003 0.989294
1.00205 1.00003 0.996301
1.00213 1.00004 0.996242
1.00522 0.99499 0.991868
1.00506 0.994964 0.991928
1.00525 0.994943 0.991453
1.00537 0.998471 0.987921
1.00524 0.994952 0.99177
1.0051 0.994953 0.991835
1.0035 1.00029 0.988863
1.00539 0.998623 0.987732
1.00527 0.994935 0.991638
1.00224 1.00011 0.99611
1.00358 1.00044 0.988559
1.00539 0.998741 0.987546
1.00245 1.00006 0.996076
1.00365 1.00055 0.988307
1.00267 1.00009 0.996033
1.00536 0.998134 0.988346
1.00527 0.995254 0.991485
1.00512 0.994964 0.992012
1.00326 0.99968 0.98987
1.00535 0.997339 0.989268
1.00531 0.995538 0.991161
1.00533 0.997299 0.98939
1.00331 0.999682 0.989766
1.00193 0.999967 0.996395
1.00335 0.999811 0.989564
1.00197 0.999987 0.996359
1.00199 1.00004 0.996329
1.00536 0.998345 0.988136
1.00522 0.994987 0.991833
1.00507 0.99496 0.991853
1.00357 1.00014 0.990632
1.00537 0.998496 0.987931
1.00523 0.994948 0.99177
1.0021 1.00012 0.996183
1.00348 1.00033 0.988863
1.00538 0.998659 0.987741
1.0023 1.0001 0.996099
1.00356 1.00049 0.988554
1.00253 1.00005 0.996068
1.00343 0.999698 0.989653
1.00535 0.997838 0.988709
1.00527 0.994964 0.991821
1.00184 0.99997 0.996454
1.00327 0.999651 0.989853
1.00534 0.997376 0.989291
1.00332 0.999658 0.989758
1.0019 0.999961 0.996416
1.00193 0.999997 0.996379
1.00365 0.999919 0.990812
1.00536 0.99835 0.988145
1.00521 0.994984 0.991797
1.0014 1.00015 0.996959
1.00339 1.00015 0.989188
1.00538 0.99852 0.987944
1.00213 1.00013 0.996163
1.00345 1.00038 0.988863
1.00236 1.00008 0.99609
1.00187 0.999851 0.993372
1.00345 0.999734 0.990369
1.00534 0.997555 0.989069
1.00187 0.999966 0.996454
1.0033 0.999631 0.989844
1.0019 0.999957 0.99643
1.00121 1.00006 0.993913
1.00351 0.999859 0.990141
1.00535 0.998359 0.988152
1.00166 1.00012 0.995001
1.00336 1.00015 0.989211
1.00218 1.00012 0.996143
1.00188 0.999973 0.996431
1.00328 0.999734 0.989756
1.00185 0.999953 0.996444
1.00163 0.999952 0.995163
1.00337 0.999836 0.989531
1.00202 1.00012 0.996231
1.00188 1 0.996416
1.00192 1.00003 0.996333

TENSORS stress float
0.00290858 -0.000203509 0.000334397
-0.000203509 0.00157334 -6.43803e-05
0.000334397 -6.43803e-05 0.00154507
0.00879836 0.000222316 0.000423131
0.000222316 0.00544661 5.7944e-05
0.000423131 5.7944e-05 0.00546852
0.00248221 -0.000132064 0.000129905
-0.000132064 0.00128628 -2.41637e-05
0.000129905 -2.41637e-05 0.00124113
0.00260708 -0.000112454 0.00030677
-0.000112454 0.00137084 -3.56403e-05
0.00030677 -3.56403e-05 0.00135581
0.00283112 -0.000176068 0.000323025
-0.000176068 0.00152038 -5.55983e-05
0.000323025 -5.55983e-05 0.00149558
0.00305512 -0.000216049 0.000351264
-0.000216049 0.0016632 -6.86849e-05
0.000351264 -6.86849e-05 0.00163653
0.00233436 -0.000269592 6.60893e-05
-0.000269592 0.000985205 -1.68082e-05
6.60893e-05 -1.68082e-05 0.000812382
0.00901345 0.00022067 -8.49628e-06
0.00022067 0.00557808 -3.90019e-06
-8.49628e-06 -3.90019e-06 0.00560475
0.00763131 0.000305619 0.000203904
0.000305619 0.00471884 2.49661e-05
0.000203904 2.49661e-05 0.00468074
0.00816565 0.000139644 0.000150037
0.000139644 0.00500918 1.24146e-05
0.000150037 1.24146e-05 0.00498631
0.00246877 0.000278708 0.000379806
0.000278708 0.00131718 6.50551e-05
0.000379806 6.50551e-05 0.00128885
0.000202418 0.000343659 2.6331e-05
0.000343659 -0.000330662 2.67457e-05
2.6331e-05 2.67457e-05 -0.00055696
0.00210073 -2.46491e-05 0.000291516
-2.46491e-05 0.00103855 6.34974e-06
0.000291516 6.34974e-06 0.00104695
0.00185658 1.20766e-05 8.51179e-05
1.20766e-05 0.00090605 4.11843e-06
8.51179e-05 4.11843e-06 0.000851447
0.00212458 -0.000127174 -8.57365e-05
-0.000127174 0.00106785 1.66479e-05
-8.57365e-05 1.66479e-05 0.000995032
0.00225342 -0.000108238 9.80958e-05
-0.000108238 0.00115971 -6.88439e-06
9.80958e-05 -6.88439e-06 0.00111902
0.00258936 -0.000127231 0.000143291
-0.000127231 0.00135245 -2.79303e-05
0.000143291 -2.79303e-05 0.00130643
0.00242322 -0.00013121 0.000116748
-0.00013121 0.00125492 -1.78398e-05
0.000116748 -1.78398e-05 0.00121073
0.00246768 -0.000306013 -5.17859e-05
-0.000306013 0.00107469 9.48234e-06
-5.17859e-05 9.48234e-06 0.000912825
0.00687179 -0.000180082 0.000389992
-0.000180082 0.00422658 -2.18088e-05
0.000389992 -2.18088e-05 0.00425826
0.00245723 -8.56552e-05 0.000298111
-8.56552e-05 0.001275 -2.6894e-05
0.000298111 -2.6894e-05 0.00126427
0.00274547 -0.00014412 0.000315921
-0.00014412 0.001461 -4.55038e-05
0.000315921 -4.55038e-05 0.00144136
0.00215874 -0.000197307 7.94186e-05
-0.000197307 0.000919973 -1.30677e-05
7.94186e-05 -1.30677e-05 0.000795817
0.00230389 -0.000253291 7.27198e-05
-0.000253291 0.000984253 -1.64001e-05
7.27198e-05 -1.64001e-05 0.000830631
0.00305988 -0.000200358 0.000361553
-0.000200358 0.00165755 -6.70395e-05
0.000361553 -6.70395e-05 0.00163657
0.00239897 -0.000289622 6.44216e-05
-0.000289622 0.00102308 -1.83638e-05
6.44216e-05 -1.83638e-05 0.000825519
0.00229214 -0.000538875 1.47438e-05
-0.000538875 0.000592827 -5.46149e-06
1.47438e-05 -5.46149e-06 0.000267238
0.00916365 0.000222095 -0.000463121
0.000222095 0.00566231 -5.23195e-05
-0.000463121 -5.23195e-05 0.00569656
0.00511645 0.000224115 -0.000177732
0.000224115 0.00304298 -2.31209e-05
-0.000177732 -2.31209e-05 0.00301565
0.00544069 0.000178868 -0.000190816
0.000178868 0.00324138 -2.54471e-05
-0.000190816 -2.54471e-05 0.00321825
0.00949607 0.000167187 -6.60126e-06
0.000167187 0.00589087 -3.14267e-06
-6.60126e-06 -3.14267e-06 0.00591968
0.00024617 0.000329762 -8.75352e-07
0.000329762 -0.000291993 -1.05914e-06
-8.75352e-07 -1.05914e-06 -0.000516215
0.00226031 8.75899e-05 0.000306607
8.75899e-05 0.00113773 3.31085e-05
0.000306607 3.31085e-05 0.00112786
0.00241411 0.000181712 0.000327087
0.000181712 0.00126005 5.33169e-05
0.000327087 5.33169e-05 0.0012363
0.00312193 0.000301434 0.000188026
0.000301434 0.00152671 3.07486e-05
0.000188026 3.07486e-05 0.00140359
0.00911671 -0.000155715 8.61782e-05
-0.000155715 0.00568249 4.92531e-06
8.61782e-05 4.92531e-06 0.0056413
0.00337764 0.000419146 0.000208848
0.000419146 0.00173609 4.22253e-05
0.000208848 4.22253e-05 0.00157279
0.000152694 0.000310258 2.48687e-05
0.000310258 -0.000332117 3.68713e-05
2.48687e-05 3.68713e-05 -0.00056297
0.00166259 0.000609372 3.05384e-05
0.000609372 0.000296744 4.37753e-06
3.05384e-05 4.37753e-06 -0.00012301
0.00746931 -4.49116e-05 0.000308696
-4.49116e-05 0.00468892 4.1226e-05
0.000308696 4.1226e-05 0.00469087
0.00679613 9.62374e-05 2.70807e-06
9.62374e-05 0.00416002 -2.31808e-06
2.70807e-06 -2.31808e-06 0.00420181
0.00450039 0.00011219 -0.000147068
0.00011219 0.00264479 -7.65056e-06
-0.000147068 -7.65056e-06 0.0026358
0.00667023 5.81359e-05 0.000378378
5.81359e-05 0.00407917 5.67426e-06
0.000378378 5.67426e-06 0.00412247
0.00174153 9.28423e-05 8.68303e-05
9.28423e-05 0.000836357 7.345e-06
8.68303e-05 7.345e-06 0.000785128
0.000372647 2.02977e-05 1.19462e-05
2.02977e-05 -0.000227451 3.15208e-06
1.19462e-05 3.15208e-06 -0.00032814
0.00701977 0.000260261 0.000219669
0.000260261 0.00434446 2.34507e-05
0.000219669 2.34507e-05 0.00431718
0.00300137 0.000117098 0.000168211
0.000117098 0.00146642 1.33534e-05
0.000168211 1.33534e-05 0.00139794
0.00188319 -0.000108791 -0.000101217
-0.000108791 0.000938907 1.43429e-05
-0.000101217 1.43429e-05 0.000871941
0.00200333 -0.000143966 -9.74363e-05
-0.000143966 0.00100831 1.871e-05
-9.74363e-05 1.871e-05 0.000932654
0.00221698 -9.46903e-05 -7.40886e-05
-9.46903e-05 0.00111098 1.42882e-05
-7.40886e-05 1.42882e-05 0.00104159
0.00255578 -0.000307092 -0.000176732
-0.000307092 0.00112011 3.57275e-05
-0.000176732 3.57275e-05 0.00097521
0.00438557 -5.08031e-05 -0.000149133
-5.08031e-05 0.00257664 -4.02457e-07
-0.000149133 -4.02457e-07 0.00256911
0.0021611 -8.61553e-05 0.000100659
-8.61553e-05 0.00109832 -5.43614e-06
0.000100659 -5.43614e-06 0.00106317
0.00282432 -0.000105455 0.000148834
-0.000105455 0.00149896 -2.69424e-05
0.000148834 -2.69424e-05 0.00145334
0.00235595 -0.000120259 0.000106248
-0.000120259 0.00121863 -1.16187e-05
0.000106248 -1.16187e-05 0.0011759
0.00226416 -0.000177485 -4.20564e-05
-0.000177485 0.000974187 3.97795e-06
-4.20564e-05 3.97795e-06 0.000866209
0.00251942 -0.000338596 -5.97103e-05
-0.000338596 0.00110319 1.10618e-05
-5.97103e-05 1.10618e-05 0.000917756
0.00240358 -0.000266521 -4.64048e-05
-0.000266521 0.00104521 7.23118e-06
-4.64048e-05 7.23118e-06 0.00090431
0.00244229 -0.000551206 -1.0176e-05
-0.000551206 0.000690671 2.65958e-06
-1.0176e-05 2.65958e-06 0.000365791
0.00668902 -2.6815e-05 0.000376734
-2.6815e-05 0.00408759 -6.41089e-06
0.000376734 -6.41089e-06 0.00413224
0.00236506 -5.87083e-05 0.000291009
-5.87083e-05 0.00121812 -1.92002e-05
0.000291009 -1.92002e-05 0.00121317
0.00250107 -3.99972e-05 6.16252e-05
-3.99972e-05 0.00118619 -1.42277e-06
6.16252e-05 -1.42277e-06 0.00110772
0.00209624 -0.000154237 7.13744e-05
-0.000154237 0.000889575 -8.83271e-06
7.13744e-05 -8.83271e-06 0.000782311
0.00226515 -0.000228456 7.78065e-05
-0.000228456 0.000975877 -1.53657e-05
7.78065e-05 -1.53657e-05 0.000837399
0.00215231 -0.000338039 1.38157e-06
-0.000338039 0.000428277 -1.41896e-06
1.38157e-06 -1.41896e-06 0.000225323
0.00227655 -0.000479408 9.723e-06
-0.000479408 0.000535928 -2.37372e-06
9.723e-06 -2.37372e-06 0.000267016
0.00316204 -0.00017911 0.000374697
-0.00017911 0.00171947 -6.29178e-05
0.000374697 -6.29178e-05 0.00169791
0.00253207 -0.000255651 5.43006e-05
-0.000255651 0.00115157 -1.64181e-05
5.43006e-05 -1.64181e-05 0.000945796
0.00231882 -0.000614665 1.61338e-05
-0.000614665 0.000646147 -5.26082e-06
1.61338e-05 -5.26082e-06 0.000260486
0.00227229 -0.000718255 -2.55008e-06
-0.000718255 0.000319031 3.76087e-06
-2.55008e-06 3.76087e-06 -3.58487e-05
0.00815729 0.000361176 -0.000452114
0.000361176 0.00505352 -6.0721e-05
-0.000452114 -6.0721e-05 0.00506646
0.00953916 0.000134327 -0.000439843
0.000134327 0.00592135 -4.63053e-05
-0.000439843 -4.63053e-05 0.00595248
0.00866251 0.000275208 -0.000447426
0.000275208 0.00534659 -5.55371e-05
-0.000447426 -5.55371e-05 0.00537532
0.000218449 0.000315902 -2.63421e-05
0.000315902 -0.000300598 -2.66524e-05
-2.63421e-05 -2.66524e-05 -0.000524582
0.00768539 0.000293006 -2.06796e-06
0.000293006 0.00474185 -2.99454e-06
-2.06796e-06 -2.99454e-06 0.00476309
0.00821919 0.00033658 -7.40347e-06
0.00033658 0.00507984 -4.29102e-06
-7.40347e-06 -4.29102e-06 0.00509494
0.000375498 0.000207203 -9.9516e-08
0.000207203 -0.000287641 -3.5286e-07
-9.9516e-08 -3.5286e-07 -0.000457436
0.00549591 2.37452e-05 -0.000192439
2.37452e-05 0.00331908 -1.6127e-05
-0.000192439 -1.6127e-05 0.00328562
0.000358757 0.000301553 1.59037e-06
0.000301553 -0.000255918 -4.07011e-07
1.59037e-06 -4.07011e-07 -0.000465846
0.00188924 0.000347946 9.67291e-05
0.000347946 0.000814074 7.77192e-06
9.67291e-05 7.77192e-06 0.000619404
0.0015542 0.000625166 7.65997e-08
0.000625166 0.000200406 3.88754e-07
7.65997e-08 3.88754e-07 -0.000230166
0.00840384 -8.91182e-06 0.000360151
-8.91182e-06 0.00527005 4.82533e-05
0.000360151 4.82533e-05 0.00527655
0.000407904 0.000244147 3.29091e-05
0.000244147 -0.000125501 1.8705e-05
3.29091e-05 1.8705e-05 -0.000257548
0.000492425 0.000166759 1.46536e-05
0.000166759 -0.000215194 1.28115e-05
1.46536e-05 1.28115e-05 -0.000366273
0.000480216 0.000244993 1.84381e-05
0.000244993 -0.000213854 2.22654e-05
1.84381e-05 2.22654e-05 -0.000399669
0.00169635 0.000460053 1.21608e-05
0.000460053 9.03087e-05 3.94454e-06
1.21608e-05 3.94454e-06 -0.000185627
0.00364043 0.000388603 0.000222421
0.000388603 0.00198834 4.25694e-05
0.000222421 4.25694e-05 0.00183845
0.00167544 0.000578404 2.6305e-05
0.000578404 0.000189422 5.52935e-06
2.6305e-05 5.52935e-06 -0.000184109
0.00138693 0.000590858 3.14676e-05
0.000590858 0.000222301 3.58469e-06
3.14676e-05 3.58469e-06 -0.000233945
0.00213966 0.000849258 -2.94749e-06
0.000849258 0.000367097 -8.59722e-06
-2.94749e-06 -8.59722e-06 -0.000127484
0.00642934 -0.000171539 0.000200112
-0.000171539 0.00403711 2.76623e-05
0.000200112 2.76623e-05 0.00401151
0.00703022 -0.000138438 9.49061e-06
-0.000138438 0.0044125 5.27372e-06
9.49061e-06 5.27372e-06 0.00439673
0.00727635 9.60008e-05 -0.000400138
9.60008e-05 0.00445646 -2.40996e-05
-0.000400138 -2.40996e-05 0.00449626
0.00689533 8.89551e-05 -0.000390601
8.89551e-05 0.00421994 -1.48527e-05
-0.000390601 -1.48527e-05 0.00426324
0.0067548 8.40832e-05 -3.99157e-07
8.40832e-05 0.00413829 -4.73711e-06
-3.99157e-07 -4.73711e-06 0.00417959
0.00436866 5.58277e-05 -0.000157513
5.58277e-05 0.00255701 -9.60873e-06
-0.000157513 -9.60873e-06 0.00255445
0.00150242 4.97244e-05 7.4923e-05
4.97244e-05 0.000514444 2.5553e-06
7.4923e-05 2.5553e-06 0.000436774
0.00473822 0.000177483 -0.00015154
0.000177483 0.00280586 -1.03139e-05
-0.00015154 -1.03139e-05 0.00278716
0.00164617 0.00012857 7.61925e-05
0.00012857 0.000573656 4.61005e-06
7.61925e-05 4.61005e-06 0.000476162
0.00671444 0.000101998 0.000382227
0.000101998 0.00411859 7.16299e-06
0.000382227 7.16299e-06 0.00415606
0.000224575 1.08553e-05 1.47444e-05
1.08553e-05 -0.000314637 1.89911e-06
1.47444e-05 1.89911e-06 -0.000410664
0.00291359 6.66624e-05 0.000166397
6.66624e-05 0.00142727 9.37686e-06
0.000166397 9.37686e-06 0.0013699
0.00150772 0.000109382 5.00268e-06
0.000109382 -6.16892e-05 1.29007e-06
5.00268e-06 1.29007e-06 -0.000187813
0.0029197 0.000178187 0.000174031
0.000178187 0.00139654 1.7274e-05
0.000174031 1.7274e-05 0.00131169
0.00159111 0.000233161 3.55151e-06
0.000233161 -3.39281e-05 1.20515e-06
3.55151e-06 1.20515e-06 -0.000195769
0.00211633 2.98103e-05 -0.000291609
2.98103e-05 0.00104336 5.80334e-06
-0.000291609 5.80334e-06 0.00105498
0.00183591 -3.83517e-05 -8.72239e-05
-3.83517e-05 0.000897538 5.60302e-06
-8.72239e-05 5.60302e-06 0.000840285
0.00242134 -6.62503e-05 -6.95961e-05
-6.62503e-05 0.0012368 1.30357e-05
-6.95961e-05 1.30357e-05 0.001168
0.00193876 -0.000128738 -0.000104292
-0.000128738 0.000972815 1.75667e-05
-0.000104292 1.75667e-05 0.000901291
0.00239705 -0.000156589 -0.000158421
-0.000156589 0.00104734 1.6945e-05
-0.000158421 1.6945e-05 0.000955572
0.00253292 -0.000252322 -0.000169333
-0.000252322 0.00111351 2.93839e-05
-0.000169333 2.93839e-05 0.000991012
0.00270173 -0.000370835 -0.000187794
-0.000370835 0.00122831 3.98946e-05
-0.000187794 3.98946e-05 0.0010539
0.0026018 -0.000566886 -3.22642e-05
-0.000566886 0.000794278 9.85467e-06
-3.22642e-05 9.85467e-06 0.000468952
0.00676948 -0.000129118 2.54027e-06
-0.000129118 0.00415694 -2.22072e-06
2.54027e-06 -2.22072e-06 0.00419223
0.00205537 3.94123e-06 0.000106628
3.94123e-06 0.00101763 -6.38969e-06
0.000106628 -6.38969e-06 0.000995519
0.0012367 -2.90457e-05 -7.81428e-05
-2.90457e-05 0.000336929 3.53796e-06
-7.81428e-05 3.53796e-06 0.000260637
0.00219003 -0.000120624 -4.37466e-05
-0.000120624 0.000938381 4.51082e-06
-4.37466e-05 4.51082e-06 0.000846025
0.00634297 -0.000174562 0.000364994
-0.000174562 0.00381508 -4.06249e-05
0.000364994 -4.06249e-05 0.00381725
0.00301571 -0.000339853 -5.63122e-05
-0.000339853 0.0014812 7.26774e-06
-5.63122e-05 7.26774e-06 0.00129362
0.00235339 -0.000222917 -4.32911e-05
-0.000222917 0.00102282 5.31005e-06
-4.32911e-05 5.31005e-06 0.000899559
0.00225777 -0.000342976 -8.63598e-06
-0.000342976 0.000494656 1.57769e-06
-8.63598e-06 1.57769e-06 0.000299426
0.00258252 -0.000646452 -7.74095e-06
-0.000646452 0.000832927 2.56317e-06
-7.74095e-06 2.56317e-06 0.000441395
0.00233513 -0.000483705 -1.08237e-05
-0.000483705 0.000577459 3.37267e-06
-1.08237e-05 3.37267e-06 0.000303674
0.0023213 -0.000721505 1.12045e-06
-0.000721505 0.000359549 -1.28515e-07
1.12045e-06 -1.28515e-07 3.68518e-06
0.000254896 -1.40499e-06 1.57267e-05
-1.40499e-06 -0.000304882 9.39863e-08
1.57267e-05 9.39863e-08 -0.000398399
0.00203333 -4.26945e-05 6.33124e-05
-4.26945e-05 0.000851673 -3.28377e-06
6.33124e-05 -3.28377e-06 0.000766084
0.0021105 -0.000124077 5.04514e-07
-0.000124077 0.000370478 3.0268e-07
5.04514e-07 3.0268e-07 0.000258069
0.00215199 -0.000272675 -6.01525e-07
-0.000272675 0.000417458 -1.033e-07
-6.01525e-07 -1.033e-07 0.000256577
0.00227945 -0.000412199 4.57015e-06
-0.000412199 0.000523065 -1.43143e-06
4.57015e-06 -1.43143e-06 0.00029907
0.00224193 -0.000466307 1.60262e-06
-0.000466307 0.000124423 -8.94331e-07
1.60262e-06 -8.94331e-07 -5.01834e-05
0.00923592 -8.25201e-05 0.000392144
-8.25201e-05 0.0057477 -4.16713e-05
0.000392144 -4.16713e-05 0.00576906
0.00215252 -0.000637806 3.21205e-07
-0.000637806 0.000158377 2.53999e-06
3.21205e-07 2.53999e-06 -0.000131843
0.000141112 -0.000264596 1.98285e-05
-0.000264596 -0.000362251 -3.07145e-05
1.98285e-05 -3.07145e-05 -0.000565729
0.00139012 -0.000667395 4.67988e-06
-0.000667395 8.39479e-05 -2.17048e-06
4.67988e-06 -2.17048e-06 -0.000388962
0.00244746 -0.000796095 -6.65803e-06
-0.000796095 0.000518383 5.736e-06
-6.65803e-06 5.736e-06 9.4342e-05
0.00233471 -0.000786376 -1.96256e-06
-0.000786376 0.000275088 2.03286e-06
-1.96256e-06 2.03286e-06 -4.85561e-05
0.000371982 -0.000258275 2.37889e-05
-0.000258275 -0.000165022 -2.52877e-05
2.37889e-05 -2.52877e-05 -0.000342902
0.00128605 -0.000272638 2.97187e-06
-0.000272638 0.000497097 4.29899e-06
2.97187e-06 4.29899e-06 0.000155788
0.00787439 0.000322653 -0.000446208
0.000322653 0.00486954 -5.34282e-05
-0.000446208 -5.34282e-05 0.00488797
0.00845254 0.000341058 -0.000455722
0.000341058 0.00522954 -6.13791e-05
-0.000455722 -6.13791e-05 0.00524926
0.000343414 0.00020871 -1.72119e-05
0.00020871 -0.000308873 -1.60289e-05
-1.72119e-05 -1.60289e-05 -0.000480936
0.00895597 3.76586e-05 -0.000375478
3.76586e-05 0.00558262 -3.80766e-05
-0.000375478 -3.80766e-05 0.00560318
0.000173247 0.000283812 -2.54014e-05
0.000283812 -0.000316347 -3.09917e-05
-2.54014e-05 -3.09917e-05 -0.000526911
0.000280405 0.000292728 -2.05885e-05
0.000292728 -0.000305992 -2.46453e-05
-2.05885e-05 -2.46453e-05 -0.000517254
0.0014577 0.00063624 -3.42693e-05
0.00063624 0.00011314 -4.09118e-06
-3.42693e-05 -4.09118e-06 -0.00032634
0.00826841 -3.60514e-06 -1.42988e-05
-3.60514e-06 0.00517687 6.74174e-07
-1.42988e-05 6.74174e-07 0.00518721
0.000777055 0.000214407 1.26205e-06
0.000214407 0.000107176 6.48265e-07
1.26205e-06 6.48265e-07 -2.08785e-05
0.00179259 0.000218059 8.2017e-05
0.000218059 0.000643333 8.29841e-06
8.2017e-05 8.29841e-06 0.000512117
0.0018812 0.000309008 8.78737e-05
0.000309008 0.000717929 1.09635e-05
8.78737e-05 1.09635e-05 0.00054995
0.00166572 0.000458211 -3.41063e-07
0.000458211 7.59098e-05 -1.82005e-07
-3.41063e-07 -1.82005e-07 -0.000201217
0.000170129 0.000279259 7.8649e-07
0.000279259 -0.000296788 -1.01847e-06
7.8649e-07 -1.01847e-06 -0.00049555
0.00166315 0.000574915 3.83046e-07
0.000574915 0.000185291 -1.10059e-07
3.83046e-07 -1.10059e-07 -0.000188577
0.00112017 0.000571282 2.75945e-06
0.000571282 3.80578e-05 -1.88857e-06
2.75945e-06 -1.88857e-06 -0.000412478
0.00216076 0.00085546 -2.37573e-07
0.00085546 0.000376898 5.88872e-07
-2.37573e-07 5.88872e-07 -0.00011376
0.000500983 0.000259088 2.09174e-05
0.000259088 -7.20883e-05 2.82663e-05
2.09174e-05 2.82663e-05 -0.000245727
0.000738104 0.00015944 2.28142e-05
0.00015944 0.000129174 1.98382e-05
2.28142e-05 1.98382e-05 3.82782e-06
-0.0006126 0.000355617 5.04894e-06
0.000355617 -0.000678009 -2.6854e-06
5.04894e-06 -2.6854e-06 -0.00100142
0.00171413 0.000394927 8.91652e-06
0.000394927 7.71014e-05 2.96508e-06
8.91652e-06 2.96508e-06 -0.000157292
0.00172283 0.00052454 1.90091e-05
0.00052454 0.000142523 4.91324e-06
1.90091e-05 4.91324e-06 -0.000180873
0.00239148 0.000669368 2.62056e-06
0.000669368 0.000293552 -1.77651e-06
2.62056e-06 -1.77651e-06 6.92319e-06
0.000671455 0.000469395 1.37774e-05
0.000469395 -5.27619e-05 5.07608e-06
1.37774e-05 5.07608e-06 -0.000479197
0.00250274 0.000854638 -3.33625e-06
0.000854638 0.000552304 -6.57674e-06
-3.33625e-06 -6.57674e-06 0.000121577
0.00261322 0.00105453 -8.58512e-06
0.00105453 0.000853982 -1.15836e-05
-8.58512e-06 -1.15836e-05 0.000202433
0.00201448 0.000859408 -1.11561e-05
0.000859408 0.000155347 -8.50453e-06
-1.11561e-05 -8.50453e-06 -0.000299914
0.0053767 -0.000156722 0.000144335
-0.000156722 0.00331875 1.66649e-05
0.000144335 1.66649e-05 0.00330087
0.00606009 -0.000176021 8.93423e-06
-0.000176021 0.00377314 1.91968e-06
8.93423e-06 1.91968e-06 0.0037502
0.00673863 -0.000172616 -0.000192236
-0.000172616 0.00420658 -1.64716e-05
-0.000192236 -1.64716e-05 0.00418723
0.000790903 -0.000249862 2.64338e-05
-0.000249862 0.00016387 -2.38561e-05
2.64338e-05 -2.38561e-05 5.5779e-06
0.00816968 -2.20506e-06 0.000314989
-2.20506e-06 0.0051038 -3.6634e-05
0.000314989 -3.6634e-05 0.0051096
0.00756659 0.000257294 -0.000432173
0.000257294 0.00466279 -4.24418e-05
-0.000432173 -4.24418e-05 0.00469043
0.00700244 0.000122033 -0.000392308
0.000122033 0.00428701 -2.08332e-05
-0.000392308 -2.08332e-05 0.00432703
0.000293054 0.000128974 -1.54494e-05
0.000128974 -0.000319529 -7.81272e-06
-1.54494e-05 -7.81272e-06 -0.000441875
0.000208648 5.15691e-05 -1.47578e-05
5.15691e-05 -0.000336032 -4.0122e-06
-1.47578e-05 -4.0122e-06 -0.000438228
0.00670262 2.10912e-06 -0.000376576
2.10912e-06 0.00409571 -4.52809e-06
-0.000376576 -4.52809e-06 0.00414031
0.00664918 -6.90536e-06 7.13251e-08
-6.90536e-06 0.00406184 -1.42785e-06
7.13251e-08 -1.42785e-06 0.00410682
0.000201558 4.1749e-06 -1.0991e-07
4.1749e-06 -0.000333314 2.23204e-07
-1.0991e-07 2.23204e-07 -0.000427902
0.00155029 6.49379e-05 7.5898e-05
6.49379e-05 0.000527479 3.9628e-06
7.5898e-05 3.9628e-06 0.000444117
0.00150892 0.000112295 8.23375e-08
0.000112295 -5.04977e-05 -1.55159e-08
8.23375e-08 -1.55159e-08 -0.000177485
0.000368581 0.000135083 -8.74749e-07
0.000135083 -0.000283276 -3.5894e-07
-8.74749e-07 -3.5894e-07 -0.000419378
0.0015904 0.000233642 -1.31094e-07
0.000233642 -1.44881e-05 -4.1196e-08
-1.31094e-07 -4.1196e-08 -0.000177345
0.000198125 -3.27412e-05 1.55603e-05
-3.27412e-05 -0.000337177 -5.41681e-09
1.55603e-05 -5.41681e-09 -0.000429006
0.00146848 5.06414e-05 3.9488e-06
5.06414e-05 -7.12115e-05 9.49816e-07
3.9488e-06 9.49816e-07 -0.000190356
0.00153714 0.000171698 4.17246e-06
0.000171698 -5.65081e-05 1.46808e-06
4.17246e-06 1.46808e-06 -0.000196621
0.00231907 0.000170103 2.3952e-06
0.000170103 9.90495e-05 8.92517e-07
2.3952e-06 8.92517e-07 4.70562e-05
0.0016835 0.000316713 5.98182e-06
0.000316713 3.72474e-05 1.74829e-06
5.98182e-06 1.74829e-06 -0.000158222
0.00233693 0.000364342 3.38381e-06
0.000364342 0.000146895 1.22733e-06
3.38381e-06 1.22733e-06 3.99332e-05
0.00668157 -9.23477e-05 -0.000380233
-9.23477e-05 0.00409374 6.8795e-06
-0.000380233 6.8795e-06 0.00413264
0.00173348 -0.000168513 -8.66162e-05
-0.000168513 0.00085739 1.20265e-05
-8.66162e-05 1.20265e-05 0.000790841
-0.000123932 -1.64705e-05 -8.41425e-06
-1.64705e-05 -0.000557074 1.16589e-06
-8.41425e-06 1.16589e-06 -0.000663434
0.0023055 -0.00011103 -0.000153427
-0.00011103 0.0010045 1.20602e-05
-0.000153427 1.20602e-05 0.000925886
0.00937127 9.66999e-05 -0.000105158
9.66999e-05 0.00578103 5.06462e-06
-0.000105158 5.06462e-06 0.00574906
0.00325916 -0.000400789 -0.000190785
-0.000400789 0.00165483 4.12366e-05
-0.000190785 4.12366e-05 0.00147967
0.00247051 -0.000202374 -0.000164003
-0.000202374 0.00108258 2.28745e-05
-0.000164003 2.28745e-05 0.000977052
0.00234988 -0.000346893 -2.13418e-05
-0.000346893 0.000551899 4.14543e-06
-2.13418e-05 4.14543e-06 0.00036464
0.00236351 -0.000486083 -2.80288e-05
-0.000486083 0.00059673 8.83008e-06
-2.80288e-05 8.83008e-06 0.000318562
0.00269671 -0.000659191 -3.72716e-05
-0.000659191 0.000918542 1.14246e-05
-3.72716e-05 1.14246e-05 0.000526719
0.00235135 -0.000720766 3.17887e-06
-0.000720766 0.000392436 -3.6174e-06
3.17887e-06 -3.6174e-06 3.67589e-05
0.000209655 -3.85535e-06 7.7733e-08
-3.85535e-06 -0.000331316 4.04419e-07
7.7733e-08 4.04419e-07 -0.000425461
0.00213622 -0.000116206 -4.2247e-05
-0.000116206 0.000928185 1.17409e-06
-4.2247e-05 1.17409e-06 0.000845131
0.00188046 -0.00012092 -1.38115e-05
-0.00012092 0.000209886 8.23257e-07
-1.38115e-05 8.23257e-07 9.61394e-05
0.00215651 -0.000269959 -1.31188e-05
-0.000269959 0.000414767 2.29467e-06
-1.31188e-05 2.29467e-06 0.00024888
0.00936205 -8.00477e-05 5.32662e-06
-8.00477e-05 0.00582381 -1.17467e-06
5.32662e-06 -1.17467e-06 0.00584438
0.00170054 -0.000277916 1.2158e-05
-0.000277916 0.000672992 5.31944e-07
1.2158e-05 5.31944e-07 0.000463518
0.00209185 -0.000673743 5.15264e-06
-0.000673743 0.000566117 -2.53913e-06
5.15264e-06 -2.53913e-06 0.00011536
0.00232454 -0.000417785 -1.12837e-05
-0.000417785 0.000550856 3.35931e-06
-1.12837e-05 3.35931e-06 0.000325231
0.00232593 -0.000473599 3.12056e-06
-0.000473599 0.000180801 -1.04196e-06
3.12056e-06 -1.04196e-06 1.81841e-05
0.00238506 -0.000789355 1.765e-06
-0.000789355 0.000479409 -1.2392e-07
1.765e-06 -1.2392e-07 5.83481e-05
0.0022358 -0.000640285 1.54029e-07
-0.000640285 0.000221001 -1.34652e-07
1.54029e-07 -1.34652e-07 -7.29681e-05
0.00233423 -0.000784595 3.21408e-07
-0.000784595 0.000277853 9.2653e-07
3.21408e-07 9.2653e-07 -4.57828e-05
0.00031211 -0.000282034 1.286e-06
-0.000282034 -0.000208078 4.06735e-08
1.286e-06 4.06735e-08 -0.000385466
0.000743819 -0.000329004 1.16117e-06
-0.000329004 0.000163118 -7.59239e-07
1.16117e-06 -7.59239e-07 -0.000190708
0.00146311 -5.7848e-05 3.38899e-06
-5.7848e-05 -5.74982e-05 -2.13033e-10
3.38899e-06 -2.13033e-10 -0.000179186
0.00226567 -0.000198945 -9.91465e-07
-0.000198945 0.000476813 9.35411e-08
-9.91465e-07 9.35411e-08 0.000347192
0.002195 -0.000182834 2.01131e-06
-0.000182834 2.79146e-05 -7.40385e-07
2.01131e-06 -7.40385e-07 -4.71875e-05
0.00222175 -0.000385395 1.27581e-07
-0.000385395 6.08361e-05 6.29825e-08
1.27581e-07 6.29825e-08 -5.20027e-05
0.00216873 -0.000560805 -8.61866e-07
-0.000560805 0.000112532 6.95783e-07
-8.61866e-07 6.95783e-07 -0.00011166
0.00234218 -0.000493796 4.92934e-06
-0.000493796 0.000103613 -1.12638e-06
4.92934e-06 -1.12638e-06 -7.13476e-07
0.000247123 -0.000258259 1.77953e-05
-0.000258259 -0.000277081 -3.06345e-05
1.77953e-05 -3.06345e-05 -0.000472676
0.00241534 -0.000711248 -2.69999e-07
-0.000711248 0.000255802 -6.09998e-07
-2.69999e-07 -6.09998e-07 1.17818e-05
0.0013791 -0.000589133 5.30698e-06
-0.000589133 0.000144957 -6.15648e-06
5.30698e-06 -6.15648e-06 -0.000310873
0.0021434 -0.000885792 7.96901e-07
-0.000885792 0.000366801 5.5141e-06
7.96901e-07 5.5141e-06 -0.000154706
0.00259515 -0.000868318 -4.07477e-06
-0.000868318 0.000515064 2.45917e-06
-4.07477e-06 2.45917e-06 0.000110219
0.00247772 -0.000818613 1.0072e-06
-0.000818613 0.00030725 -1.11254e-06
1.0072e-06 -1.11254e-06 2.90583e-05
0.000468053 -0.000314358 4.15053e-06
-0.000314358 -6.52046e-05 1.15283e-06
4.15053e-06 1.15283e-06 -0.000447393
0.00168882 -0.000211343 -6.76367e-06
-0.000211343 0.000881884 -7.47537e-06
-6.76367e-06 -7.47537e-06 0.000579954
0.00116683 -0.000464565 1.79424e-06
-0.000464565 0.00038528 1.02012e-05
1.79424e-06 1.02012e-05 -7.47925e-05
0.000343406 0.00017516 -1.58448e-05
0.00017516 -0.0003112 -1.22341e-05
-1.58448e-05 -1.22341e-05 -0.000466874
0.00769636 -5.26696e-05 -0.000294425
-5.26696e-05 0.00480491 -2.70467e-05
-0.000294425 -2.70467e-05 0.00481223
0.000436302 0.000168116 -2.06546e-05
0.000168116 -9.3411e-05 -2.02632e-05
-2.06546e-05 -2.02632e-05 -0.000224319
0.000313159 0.000248979 -1.89123e-05
0.000248979 -0.00031572 -2.04277e-05
-1.89123e-05 -2.04277e-05 -0.000506265
0.00163122 0.000456918 -1.42215e-05
0.000456918 5.73618e-05 -4.06122e-06
-1.42215e-05 -4.06122e-06 -0.000221109
0.000278732 0.000266572 -1.99526e-05
0.000266572 -0.000243333 -3.12339e-05
-1.99526e-05 -3.12339e-05 -0.000435159
0.00128032 0.000583504 -2.91142e-05
0.000583504 0.000109701 -8.22576e-06
-2.91142e-05 -8.22576e-06 -0.000338263
0.00161746 0.000567475 -2.78225e-05
0.000567475 0.000161309 -5.69213e-06
-2.78225e-05 -5.69213e-06 -0.00021193
0.00218485 0.000866768 -2.81369e-06
0.000866768 0.000379602 7.44964e-06
-2.81369e-06 7.44964e-06 -0.000109267
0.000335555 0.000262071 -7.19655e-06
0.000262071 -0.000182654 1.57264e-06
-7.19655e-06 1.57264e-06 -0.000347039
0.000395735 0.000126361 -1.36558e-06
0.000126361 -8.01447e-05 1.342e-06
-1.36558e-06 1.342e-06 -0.000202059
0.000904355 0.000344712 6.97845e-08
0.000344712 0.000244723 2.73453e-08
6.97845e-08 2.73453e-08 -3.69327e-05
0.00165131 0.000391294 -3.54328e-07
0.000391294 4.26528e-05 -2.44325e-07
-3.54328e-07 -2.44325e-07 -0.000192631
0.00168658 0.000518166 -1.52431e-07
0.000518166 0.000130339 -3.71916e-07
-1.52431e-07 -3.71916e-07 -0.000192712
0.00236568 0.000666396 -1.11961e-06
0.000666396 0.00027708 -3.5464e-07
-1.11961e-06 -3.5464e-07 -8.6377e-06
0.000878223 0.000437053 4.38266e-06
0.000437053 5.35392e-05 -3.91199e-07
4.38266e-06 -3.91199e-07 -0.000343663
0.00248243 0.000848542 -1.74539e-06
0.000848542 0.000533568 -7.57312e-07
-1.74539e-06 -7.57312e-07 0.000103957
0.00233292 0.0010282 -2.83799e-06
0.0010282 0.000638733 -2.3409e-06
-2.83799e-06 -2.3409e-06 -7.39253e-06
0.00198521 0.000859033 -2.90461e-07
0.000859033 0.000116933 4.69985e-06
-2.90461e-07 4.69985e-06 -0.000332155
0.000804001 9.35533e-05 1.25749e-05
9.35533e-05 0.000222468 1.82876e-05
1.25749e-05 1.82876e-05 0.000114354
2.59528e-05 0.000426392 9.69446e-07
0.000426392 -0.000326326 1.32718e-06
9.69446e-07 1.32718e-06 -0.000673612
0.00100598 0.000238284 -2.17711e-06
0.000238284 0.000390374 8.10985e-07
-2.17711e-06 8.10985e-07 8.61596e-05
-0.000926278 0.000225165 -8.40929e-06
0.000225165 -0.000901575 5.69844e-06
-8.40929e-06 5.69844e-06 -0.00123542
0.00230791 0.000575414 2.64447e-06
0.000575414 0.000183379 -1.18993e-06
2.64447e-06 -1.18993e-06 -3.42837e-05
0.00243294 0.000763124 -2.16378e-07
0.000763124 0.000411333 -3.724e-06
-2.16378e-07 -3.724e-06 5.02102e-05
0.00239712 0.000729697 6.50814e-07
0.000729697 0.000213995 -5.20994e-08
6.50814e-07 -5.20994e-08 -4.00915e-05
0.00220559 0.000931632 -1.49194e-05
0.000931632 0.000814818 -1.26706e-05
-1.49194e-05 -1.26706e-05 0.000148695
0.00261935 0.000933603 -5.86398e-06
0.000933603 0.00051984 -3.08799e-06
-5.86398e-06 -3.08799e-06 0.000109051
0.00269175 0.00116197 -1.67541e-05
0.00116197 0.000780332 -1.66532e-05
-1.67541e-05 -1.66532e-05 9.94049e-05
0.002201 0.000876883 -3.75794e-06
0.000876883 0.000132668 -2.99292e-06
-3.75794e-06 -2.99292e-06 -0.000288001
0.00101591 0.000149874 -2.92588e-06
0.000149874 0.000438858 7.57557e-06
-2.92588e-06 7.57557e-06 0.000283242
0.000423181 5.73637e-05 5.8987e-06
5.73637e-05 -3.40771e-06 1.51168e-05
5.8987e-06 1.51168e-05 -7.08773e-05
0.00448697 -0.000139642 9.28701e-05
-0.000139642 0.00271303 1.11045e-05
9.28701e-05 1.11045e-05 0.00270056
0.00506661 -0.000198722 2.10286e-05
-0.000198722 0.00312412 -2.0729e-06
2.10286e-05 -2.0729e-06 0.00309431
0.00563844 -0.000248429 -0.000106216
-0.000248429 0.0035253 -1.57658e-05
-0.000106216 -1.57658e-05 0.00347941
-5.15065e-05 -0.000199394 2.13693e-05
-0.000199394 -0.000328837 -1.7297e-05
2.13693e-05 -1.7297e-05 -0.000443036
0.00626108 6.12763e-05 0.000205062
6.12763e-05 0.00387958 -2.71767e-05
0.000205062 -2.71767e-05 0.00387367
0.000508191 -0.000250772 2.60036e-06
-0.000250772 -3.12675e-05 1.12824e-06
2.60036e-06 1.12824e-06 -0.000192482
0.00858838 -4.53397e-05 4.96236e-06
-4.53397e-05 0.00536783 -6.12831e-07
4.96236e-06 -6.12831e-07 0.00538014
0.000336783 0.000157809 -1.60551e-05
0.000157809 -0.000305688 -9.83453e-06
-1.60551e-05 -9.83453e-06 -0.000445738
0.000239547 5.48417e-05 -1.36138e-05
5.48417e-05 -0.000337579 -4.89201e-06
-1.36138e-05 -4.89201e-06 -0.000446093
0.00159223 0.000233792 -3.74914e-06
0.000233792 1.78521e-06 -8.82108e-07
-3.74914e-06 -8.82108e-07 -0.000162026
0.00151658 0.000114748 -4.68876e-06
0.000114748 -3.56637e-05 -1.15524e-06
-4.68876e-06 -1.15524e-06 -0.000163344
0.00024641 -1.56836e-06 -1.51987e-05
-1.56836e-06 -0.000307491 -1.84615e-06
-1.51987e-05 -1.84615e-06 -0.000400837
0.00674338 -0.000104942 -0.000387869
-0.000104942 0.00413754 7.22807e-06
-0.000387869 7.22807e-06 0.00417612
0.000239327 -4.1323e-06 -3.96426e-08
-4.1323e-06 -0.000310469 -6.70422e-07
-3.96426e-08 -6.70422e-07 -0.000402035
0.00147863 5.58909e-05 -3.01058e-09
5.58909e-05 -5.97507e-05 4.15283e-08
-3.01058e-09 4.15283e-08 -0.000179359
0.00154838 0.00017147 -8.90772e-09
0.00017147 -3.69478e-05 1.35976e-07
-8.90772e-09 1.35976e-07 -0.000177647
0.00233348 0.000167946 -9.5017e-08
0.000167946 0.000109851 1.36492e-07
-9.5017e-08 1.36492e-07 5.79382e-05
0.00163883 0.000313162 -4.34447e-07
0.000313162 1.90173e-05 -2.96218e-07
-4.34447e-07 -2.96218e-07 -0.000177101
0.00232876 0.000365371 -1.70082e-07
0.000365371 0.000133118 2.89177e-07
-1.70082e-07 2.89177e-07 2.56726e-05
0.00145689 -5.31743e-06 3.02686e-06
-5.31743e-06 -6.54524e-05 3.89475e-07
3.02686e-06 3.89475e-07 -0.000183947
0.00232325 8.12336e-05 2.81115e-06
8.12336e-05 9.85994e-05 4.80877e-07
2.81115e-06 4.80877e-07 5.57502e-05
0.00231211 0.000262031 2.34126e-06
0.000262031 0.0001091 1.29329e-06
2.34126e-06 1.29329e-06 3.52663e-05
0.00218772 0.000173355 4.07333e-06
0.000173355 -1.46671e-05 5.25974e-07
4.07333e-06 5.25974e-07 -1.37045e-05
0.00231608 0.000471921 3.55161e-06
0.000471921 0.000155883 4.45592e-07
3.55161e-06 4.45592e-07 1.06822e-06
0.00226122 0.000352011 4.36857e-06
0.000352011 1.62331e-05 7.27372e-07
4.36857e-06 7.27372e-07 -2.61402e-05
0.000248835 -9.14349e-06 -1.47465e-05
-9.14349e-06 -0.000300983 6.73059e-08
-1.47465e-05 6.73059e-08 -0.000397053
0.00221284 -7.23514e-05 -0.000150657
-7.23514e-05 0.000962934 8.27278e-06
-0.000150657 8.27278e-06 0.000895869
0.00163006 -0.000117662 -1.47621e-05
-0.000117662 3.50942e-05 1.25843e-06
-1.47621e-05 1.25843e-06 -8.00938e-05
0.00214539 -0.000267695 -1.92359e-05
-0.000267695 0.000399681 3.16856e-06
-1.92359e-05 3.16856e-06 0.00022864
0.00948401 -0.000109252 -0.000421193
-0.000109252 0.00589237 5.1254e-05
-0.000421193 5.1254e-05 0.00591441
0.00350715 -0.000391615 -0.000220214
-0.000391615 0.0018611 4.08756e-05
-0.000220214 4.08756e-05 0.00168955
0.00246604 -0.000683457 -2.06428e-05
-0.000683457 0.000867707 8.04083e-06
-2.06428e-05 8.04083e-06 0.000426566
0.00235557 -0.000422436 -2.62259e-05
-0.000422436 0.000568307 6.95375e-06
-2.62259e-05 6.95375e-06 0.000341287
0.00240554 -0.000480734 4.97238e-07
-0.000480734 0.000232815 -1.05524e-06
4.97238e-07 -1.05524e-06 8.24003e-05
0.00233237 -0.000643807 2.58579e-07
-0.000643807 0.000293982 -1.35423e-06
2.58579e-07 -1.35423e-06 -3.95862e-06
0.00240934 -0.000794736 7.88513e-06
-0.000794736 0.000489771 -5.37558e-06
7.88513e-06 -5.37558e-06 6.84227e-05
0.0023501 -0.000785932 3.37168e-06
-0.000785932 0.000288449 -5.56939e-07
3.37168e-06 -5.56939e-07 -3.61357e-05
8.50995e-05 -0.000295508 -2.46783e-05
-0.000295508 -0.000350852 2.7148e-05
-2.46783e-05 2.7148e-05 -0.000531421
2.62546e-05 -0.000329439 -5.09054e-06
-0.000329439 -0.000270495 -2.6029e-06
-5.09054e-06 -2.6029e-06 -0.00064369
0.00151583 -5.49098e-05 8.63138e-07
-5.49098e-05 -2.7178e-05 -8.02184e-08
8.63138e-07 -8.02184e-08 -0.000141748
0.0021603 -0.000198043 -1.22971e-05
-0.000198043 0.000398769 1.46478e-06
-1.22971e-05 1.46478e-06 0.000268338
0.00218472 -0.000178181 2.58292e-06
-0.000178181 1.64258e-05 -3.89203e-07
2.58292e-06 -3.89203e-07 -5.38727e-05
0.00222836 -0.000383065 -1.38576e-06
-0.000383065 8.61951e-05 4.32569e-07
-1.38576e-06 4.32569e-07 -3.86668e-05
0.000142243 -0.000273121 -1.69275e-06
-0.000273121 -0.000329166 -3.2638e-07
-1.69275e-06 -3.2638e-07 -0.000529567
0.00122951 -0.000587919 -1.65278e-06
-0.000587919 8.71911e-05 -3.6616e-07
-1.65278e-06 -3.6616e-07 -0.000375664
0.00227151 -0.000906156 -2.46241e-07
-0.000906156 0.000441032 1.5926e-06
-2.46241e-07 1.5926e-06 -9.24363e-05
0.00223022 -0.000560558 5.07162e-07
-0.000560558 0.000161109 -1.71857e-07
5.07162e-07 -1.71857e-07 -6.76949e-05
0.002354 -0.000498391 4.15964e-07
-0.000498391 9.57195e-05 -2.17186e-07
4.15964e-07 -2.17186e-07 -2.11331e-06
0.00264345 -0.000873064 1.96489e-06
-0.000873064 0.000545701 -2.0765e-06
1.96489e-06 -2.0765e-06 0.000144978
0.00236731 -0.0007051 -4.65826e-07
-0.0007051 0.000223138 6.5706e-07
-4.65826e-07 6.5706e-07 -1.90729e-05
0.00235207 -0.000818343 1.27531e-07
-0.000818343 0.000215096 8.69152e-07
1.27531e-07 8.69152e-07 -6.5046e-05
0.000727904 -0.000341888 -3.4711e-07
-0.000341888 8.16927e-05 8.75921e-07
-3.4711e-07 8.75921e-07 -0.000305597
0.00125848 -0.000434633 -4.48146e-07
-0.000434633 0.000434284 1.21041e-06
-4.48146e-07 1.21041e-06 -1.23982e-05
0.00059436 -0.000189234 -4.90613e-06
-0.000189234 0.000230091 -3.52645e-07
-4.90613e-06 -3.52645e-07 -0.000105791
0.00219941 -8.97666e-05 2.44597e-06
-8.97666e-05 2.84932e-05 -3.79982e-07
2.44597e-06 -3.79982e-07 -3.44231e-05
0.00221599 -0.000273784 3.38584e-07
-0.000273784 3.86068e-05 -8.84626e-07
3.38584e-07 -8.84626e-07 -5.03583e-05
0.00227555 -0.000168408 6.38518e-06
-0.000168408 7.70236e-05 -6.18289e-07
6.38518e-06 -6.18289e-07 6.47762e-05
0.00228704 -0.000390966 3.23491e-06
-0.000390966 3.33314e-05 -6.75476e-07
3.23491e-06 -6.75476e-07 -1.7612e-05
0.00241776 -0.00062967 1.14693e-06
-0.00062967 0.000177612 -9.82647e-07
1.14693e-06 -9.82647e-07 1.46607e-05
0.00247531 -0.000525696 1.3022e-06
-0.000525696 9.63209e-05 1.82485e-07
1.3022e-06 1.82485e-07 4.86368e-05
0.00115402 -0.000462499 6.75135e-06
-0.000462499 0.000227617 -1.03789e-05
6.75135e-06 -1.03789e-05 -0.000189156
0.0024814 -0.000755794 1.24974e-06
-0.000755794 0.000194917 -1.86986e-06
1.24974e-06 -1.86986e-06 2.22666e-05
0.00228903 -0.00102153 -2.94267e-06
-0.00102153 0.00061253 2.76675e-06
-2.94267e-06 2.76675e-06 -3.5707e-05
0.00258028 -0.00099662 7.21682e-06
-0.00099662 0.000545413 3.49562e-06
7.21682e-06 3.49562e-06 2.51455e-05
0.00266184 -0.000889297 4.20755e-06
-0.000889297 0.000538299 -1.01706e-06
4.20755e-06 -1.01706e-06 0.000159306
0.00256174 -0.000872767 4.48994e-06
-0.000872767 0.000289036 -2.59704e-06
4.48994e-06 -2.59704e-06 4.87117e-05
-0.0014299 1.16827e-05 8.30484e-06
1.16827e-05 -0.00111757 3.76631e-07
8.30484e-06 3.76631e-07 -0.00140772
0.00204888 -0.000702626 -1.86881e-06
-0.000702626 0.00083707 1.06951e-05
-1.86881e-06 1.06951e-05 0.000260383
-0.00105863 -0.000218216 1.97038e-05
-0.000218216 -0.000679844 4.96492e-06
1.97038e-05 4.96492e-06 -0.00116761
0.00112646 -0.000660886 1.62719e-05
-0.000660886 0.000366638 2.17764e-05
1.62719e-05 2.17764e-05 -0.000265613
0.00158671 0.000387908 -1.04978e-05
0.000387908 6.25496e-06 -3.33075e-06
-1.04978e-05 -3.33075e-06 -0.000229939
0.000273707 0.000123 -1.57066e-05
0.000123 -0.000157788 -1.98501e-05
-1.57066e-05 -1.98501e-05 -0.000275999
0.000486156 0.000222279 -2.58172e-05
0.000222279 -8.38264e-05 -2.42757e-05
-2.58172e-05 -2.42757e-05 -0.000240818
0.00150318 0.000292404 -2.90087e-06
0.000292404 0.000625958 7.15781e-06
-2.90087e-06 7.15781e-06 0.000351708
0.00163902 0.000512538 -2.03672e-05
0.000512538 0.0001075 -5.11142e-06
-2.03672e-05 -5.11142e-06 -0.000215628
0.00234011 0.000663212 -2.52964e-06
0.000663212 0.000261386 1.86467e-06
-2.52964e-06 1.86467e-06 -2.33642e-05
0.000678505 0.00038421 -1.37326e-05
0.00038421 -5.97227e-05 -1.12322e-05
-1.37326e-05 -1.12322e-05 -0.00042809
0.00204627 0.000981485 2.34128e-06
0.000981485 0.000442015 7.36588e-06
2.34128e-06 7.36588e-06 -0.000188145
0.00248461 0.000845328 4.40864e-06
0.000845328 0.000530527 6.4986e-06
4.40864e-06 6.4986e-06 0.000101156
0.00196198 0.000854286 1.00745e-05
0.000854286 9.61475e-05 1.52875e-05
1.00745e-05 1.52875e-05 -0.000344974
0.000401137 7.55614e-05 -2.12357e-06
7.55614e-05 -2.76402e-05 5.66714e-07
-2.12357e-06 5.66714e-07 -0.000135457
0.000996564 0.00034424 -4.0907e-06
0.00034424 0.000308417 2.86206e-06
-4.0907e-06 2.86206e-06 -2.47586e-05
9.30377e-05 0.000229391 4.09356e-06
0.000229391 -0.000188906 -1.83128e-06
4.09356e-06 -1.83128e-06 -0.000502495
0.00060472 0.000303995 -5.26613e-06
0.000303995 4.91776e-05 8.64812e-06
-5.26613e-06 8.64812e-06 -0.000287137
0.00234834 0.000579945 -1.42769e-06
0.000579945 0.000208833 -9.15937e-07
-1.42769e-06 -9.15937e-07 -1.02268e-05
0.00236407 0.000758823 -1.16146e-06
0.000758823 0.0003601 -4.15633e-07
-1.16146e-06 -4.15633e-07 -6.52527e-08
0.00244109 0.000733378 3.39866e-07
0.000733378 0.00024629 1.6963e-07
3.39866e-07 1.6963e-07 -8.26349e-06
0.00198157 0.000929318 1.49979e-06
0.000929318 0.000674823 -1.82481e-06
1.49979e-06 -1.82481e-06 -3.01485e-06
0.00262405 0.000929885 1.16235e-06
0.000929885 0.000538574 7.54435e-07
1.16235e-06 7.54435e-07 0.000124469
0.00243001 0.00111214 -1.3092e-06
0.00111214 0.000634891 -2.52863e-06
-1.3092e-06 -2.52863e-06 -3.00716e-05
0.00248953 0.000876066 -8.7497e-06
0.000876066 0.000349804 3.32291e-06
-8.7497e-06 3.32291e-06 -5.80119e-05
0.000635572 6.85945e-05 8.94657e-06
6.85945e-05 0.000128319 1.67487e-05
8.94657e-06 1.67487e-05 4.57973e-05
0.00136195 0.000194797 -2.27352e-06
0.000194797 0.000667567 1.25046e-05
-2.27352e-06 1.25046e-05 0.000385294
0.000293132 0.000551791 -8.34249e-06
0.000551791 -0.000196555 -7.66437e-06
-8.34249e-06 -7.66437e-06 -0.000697951
0.00104804 0.000381813 1.13696e-05
0.000381813 0.000411528 -2.20652e-06
1.13696e-05 -2.20652e-06 5.55989e-05
0.00154012 0.000285162 1.06475e-06
0.000285162 0.000524348 1.81539e-05
1.06475e-06 1.81539e-05 0.00018261
0.00248996 0.000629144 1.15093e-06
0.000629144 0.00019122 -4.29439e-07
1.15093e-06 -4.29439e-07 3.15984e-05
0.00232304 0.000833033 -1.62362e-06
0.000833033 0.00025119 -1.43175e-06
-1.62362e-06 -1.43175e-06 -9.20275e-05
0.00250137 0.000803711 -2.06076e-06
0.000803711 0.000225726 -1.07204e-08
-2.06076e-06 -1.07204e-08 -7.98834e-06
0.00236084 0.00124467 -2.6102e-06
0.00124467 0.00090236 -1.19252e-05
-2.6102e-06 -1.19252e-05 7.2031e-05
0.00284163 0.000983137 -5.8695e-06
0.000983137 0.000569476 -2.23684e-06
-5.8695e-06 -2.23684e-06 0.000164349
0.00206338 0.00116083 6.34341e-06
0.00116083 0.000290061 -7.74728e-06
6.34341e-06 -7.74728e-06 -0.000368121
0.000892074 0.000154559 -8.4957e-07
0.000154559 0.000355576 1.235e-05
-8.4957e-07 1.235e-05 0.000170939
0.000860343 0.00018712 -8.88245e-06
0.00018712 0.000480331 5.37914e-06
-8.88245e-06 5.37914e-06 0.000198483
0.000758226 0.000110086 -2.36546e-06
0.000110086 0.000269598 4.61646e-06
-2.36546e-06 4.61646e-06 0.00014735
0.000435938 5.83949e-05 -2.74691e-06
5.83949e-05 5.78612e-05 -2.12206e-08
-2.74691e-06 -2.12206e-08 -8.75396e-05
0.00163142 1.21765e-05 1.15375e-06
1.21765e-05 0.000799899 8.32467e-06
1.15375e-06 8.32467e-06 0.00075171
0.00104464 3.66815e-05 -6.39494e-07
3.66815e-05 0.000411286 -4.36442e-07
-6.39494e-07 -4.36442e-07 0.000348409
0.0011795 -8.1961e-06 8.93994e-05
-8.1961e-06 0.000495703 1.77384e-05
8.93994e-05 1.77384e-05 0.000485856
0.00448646 -0.000151308 1.53715e-05
-0.000151308 0.0027195 -1.74155e-06
1.53715e-05 -1.74155e-06 0.0027031
0.00500141 -0.000213565 -8.76544e-05
-0.000213565 0.00308728 -1.28997e-05
-8.76544e-05 -1.28997e-05 0.00305329
0.000224991 -0.000134837 3.04967e-05
-0.000134837 -0.000138812 -7.69688e-06
3.04967e-05 -7.69688e-06 -0.000211435
0.00429326 0.000144468 9.54057e-05
0.000144468 0.00261532 -1.43297e-05
9.54057e-05 -1.43297e-05 0.0025955
0.000554511 -0.00017372 -1.94608e-06
-0.00017372 7.35591e-05 1.54179e-06
-1.94608e-06 1.54179e-06 -5.2911e-05
0.00707586 2.82672e-05 -3.79612e-07
2.82672e-05 0.00442429 1.61042e-06
-3.79612e-07 1.61042e-06 0.00442112
0.000246559 -0.000246712 -2.2828e-05
-0.000246712 -0.000204938 2.28073e-05
-2.2828e-05 2.28073e-05 -0.000369328
0.00887074 -3.6897e-05 -0.000371579
-3.6897e-05 0.0055467 4.75413e-05
-0.000371579 4.75413e-05 0.00555802
0.00159956 0.00030899 -7.09673e-06
0.00030899 7.32939e-06 -2.143e-06
-7.09673e-06 -2.143e-06 -0.000189162
0.00155242 0.000172248 -3.99717e-06
0.000172248 -1.88211e-05 -8.67662e-07
-3.99717e-06 -8.67662e-07 -0.000160364
0.00232395 0.000363488 -3.58376e-06
0.000363488 0.000121472 -6.84439e-07
-3.58376e-06 -6.84439e-07 1.42084e-05
0.00234711 0.000166023 -2.61997e-06
0.000166023 0.00012093 -5.96944e-07
-2.61997e-06 -5.96944e-07 6.90042e-05
0.00148767 6.12784e-05 -3.88306e-06
6.12784e-05 -4.85614e-05 -7.73703e-07
-3.88306e-06 -7.73703e-07 -0.000168638
0.000205274 2.65902e-05 -1.53806e-05
2.65902e-05 -0.000334684 -1.62506e-06
-1.53806e-05 -1.62506e-06 -0.000424282
0.00146333 1.80589e-07 -3.91622e-08
1.80589e-07 -6.04086e-05 -1.40043e-08
-3.91622e-08 -1.40043e-08 -0.000178904
0.0023294 7.9777e-05 -1.15806e-07
7.9777e-05 0.000104571 1.04675e-07
-1.15806e-07 1.04675e-07 6.19928e-05
0.00233723 0.000260972 5.44899e-08
0.000260972 0.000122918 1.35327e-07
5.44899e-08 1.35327e-07 5.03029e-05
0.00217662 0.000169211 -3.89574e-07
0.000169211 -3.15887e-05 -5.6561e-08
-3.89574e-07 -5.6561e-08 -2.37699e-05
0.00233495 0.000476621 -7.25801e-07
0.000476621 0.000161517 1.56287e-07
-7.25801e-07 1.56287e-07 5.14255e-06
0.00226504 0.000352794 -4.66402e-08
0.000352794 2.34168e-05 1.77276e-07
-4.66402e-08 1.77276e-07 -2.00156e-05
0.002322 -5.77197e-06 2.38749e-06
-5.77197e-06 0.000102512 2.76069e-08
2.38749e-06 2.76069e-08 6.05535e-05
0.00213987 7.92759e-05 2.48199e-06
7.92759e-05 -5.76888e-05 4.29781e-08
2.48199e-06 4.29781e-08 -3.8117e-05
0.0021999 0.000247267 4.66856e-06
0.000247267 -3.96076e-06 7.59891e-07
4.66856e-06 7.59891e-07 -2.24371e-05
0.00228848 0.00016736 1.26268e-06
0.00016736 -4.69071e-05 1.01416e-08
1.26268e-06 1.01416e-08 -3.9327e-06
0.00243339 0.000503509 2.99783e-06
0.000503509 0.000115138 5.65493e-07
2.99783e-06 5.65493e-07 3.1709e-05
0.00236331 0.00037762 1.2261e-07
0.00037762 -5.94834e-05 -5.56166e-07
1.2261e-07 -5.56166e-07 -3.80518e-05
0.00157856 -5.22635e-05 -5.56759e-06
-5.22635e-05 1.26926e-05 2.20335e-07
-5.56759e-06 2.20335e-07 -9.46568e-05
0.00207734 -0.000197049 -2.21795e-05
-0.000197049 0.000336429 2.62775e-06
-2.21795e-05 2.62775e-06 0.000205005
0.00218607 -0.000172183 3.4055e-06
-0.000172183 1.14413e-05 -2.43064e-07
3.4055e-06 -2.43064e-07 -5.41211e-05
0.00224142 -0.000379937 -6.51583e-08
-0.000379937 0.000117348 7.47628e-07
-6.51583e-08 7.47628e-07 -1.92364e-05
0.000179217 -0.000300056 -2.42232e-05
-0.000300056 -0.00029668 3.0876e-05
-2.42232e-05 3.0876e-05 -0.000500806
0.00157297 -0.000609963 -8.3647e-06
-0.000609963 0.000316291 4.6287e-06
-8.3647e-06 4.6287e-06 -0.000150102
0.00227894 -0.00091752 7.89625e-06
-0.00091752 0.000429265 -4.1372e-06
7.89625e-06 -4.1372e-06 -0.000114697
0.0022819 -0.000559415 3.14112e-07
-0.000559415 0.000202968 -1.1374e-06
3.14112e-07 -1.1374e-06 -3.04115e-05
0.00236357 -0.00050274 -2.28417e-06
-0.00050274 8.6888e-05 1.77213e-07
-2.28417e-06 1.77213e-07 -4.55829e-06
0.00230715 -0.000697446 4.29724e-07
-0.000697446 0.000182632 1.26407e-06
4.29724e-07 1.26407e-06 -5.72842e-05
0.00265177 -0.000872826 3.74015e-06
-0.000872826 0.000551829 -5.26543e-06
3.74015e-06 -5.26543e-06 0.000156605
0.00222052 -0.000815661 -7.76774e-07
-0.000815661 0.000120466 2.79989e-06
-7.76774e-07 2.79989e-06 -0.000159896
0.000851606 -0.000359774 -3.34101e-06
-0.000359774 0.000146965 1.12574e-06
-3.34101e-06 1.12574e-06 -0.000243874
0.00140932 -0.00038409 -8.15505e-06
-0.00038409 0.000541645 -1.50485e-05
-8.15505e-06 -1.50485e-05 0.000119962
0.000311321 -0.000258623 -3.07668e-07
-0.000258623 7.03874e-05 2.70645e-06
-3.07668e-07 2.70645e-06 -0.000289285
0.00226654 -8.64653e-05 3.89416e-06
-8.64653e-05 7.52484e-05 -1.72173e-07
3.89416e-06 -1.72173e-07 1.9948e-05
0.0021612 -0.00027719 2.10091e-06
-0.00027719 4.41679e-06 -6.68228e-07
2.10091e-06 -6.68228e-07 -8.37108e-05
0.00222994 -0.000162219 -7.05264e-09
-0.000162219 2.74126e-05 9.01972e-08
-7.05264e-09 9.01972e-08 2.36019e-05
0.0023495 -0.000386894 -5.43937e-07
-0.000386894 8.50775e-05 7.63342e-08
-5.43937e-07 7.63342e-08 3.03299e-05
0.00107965 -0.000481093 -2.40307e-06
-0.000481093 0.000153071 -1.25218e-06
-2.40307e-06 -1.25218e-06 -0.000278849
0.00242461 -0.00105646 1.18062e-06
-0.00105646 0.000693303 -1.00291e-06
1.18062e-06 -1.00291e-06 3.32382e-05
0.00237089 -0.000976845 7.33843e-07
-0.000976845 0.000410382 2.26229e-06
7.33843e-07 2.26229e-06 -0.00011398
0.00235707 -0.000619635 -9.02192e-07
-0.000619635 0.000147968 3.59193e-07
-9.02192e-07 3.59193e-07 -1.98304e-05
0.00244765 -0.000528124 7.19276e-08
-0.000528124 6.39599e-05 1.98625e-09
7.19276e-08 1.98625e-09 2.16294e-05
0.00255948 -0.00087999 -6.27322e-07
-0.00087999 0.000461119 -2.9265e-07
-6.27322e-07 -2.9265e-07 8.37666e-05
0.00245081 -0.000754034 -7.44706e-07
-0.000754034 0.000171289 3.10514e-07
-7.44706e-07 3.10514e-07 -3.23331e-07
0.00247854 -0.00086985 1.45535e-06
-0.00086985 0.000225871 -4.32103e-07
1.45535e-06 -4.32103e-07 -6.20425e-06
0.00159153 -0.000678047 -3.55196e-06
-0.000678047 0.000562861 -1.77823e-06
-3.55196e-06 -1.77823e-06 -8.47333e-06
0.00141317 -0.000680618 -3.24507e-06
-0.000680618 0.000557006 -3.0858e-07
-3.24507e-06 -3.0858e-07 -6.60649e-05
0.000310217 -3.87503e-05 6.44964e-06
-3.87503e-05 -7.46268e-06 2.84072e-06
6.44964e-06 2.84072e-06 -0.000272651
0.000486175 -0.000210109 2.62254e-06
-0.000210109 0.000187492 -7.99226e-06
2.62254e-06 -7.99226e-06 -0.000216959
0.00217488 -9.21166e-05 5.14768e-06
-9.21166e-05 -6.1648e-06 -3.17493e-07
5.14768e-06 -3.17493e-07 -3.76023e-06
0.00225335 -0.000268626 3.73006e-06
-0.000268626 2.18886e-05 -1.08142e-06
3.73006e-06 -1.08142e-06 -2.04295e-06
0.0023035 -0.000168603 1.90711e-06
-0.000168603 8.48903e-06 -2.11971e-07
1.90711e-06 -2.11971e-07 4.67031e-05
0.00240367 -0.000415807 -1.17393e-06
-0.000415807 -1.83072e-05 5.82886e-07
-1.17393e-06 5.82886e-07 9.19838e-06
0.00242053 -0.000649815 -6.14294e-07
-0.000649815 8.75691e-05 1.34396e-07
-6.14294e-07 1.34396e-07 -1.30695e-05
0.00253183 -0.000568863 1.39384e-06
-0.000568863 2.74333e-05 6.6961e-08
1.39384e-06 6.6961e-08 4.84294e-06
0.001909 -0.000977448 -8.98775e-06
-0.000977448 0.000590611 9.03642e-06
-8.98775e-06 9.03642e-06 -0.000100118
0.0025835 -0.000824442 1.44041e-06
-0.000824442 0.000158421 -6.72173e-07
1.44041e-06 -6.72173e-07 2.91699e-05
0.00237019 -0.0011649 -7.07779e-08
-0.0011649 0.000613938 5.37586e-06
-7.07779e-08 5.37586e-06 -7.80674e-05
0.00274278 -0.00103022 9.84928e-06
-0.00103022 0.000628192 1.26792e-07
9.84928e-06 1.26792e-07 0.000115684
0.00264353 -0.000917028 1.32497e-06
-0.000917028 0.00047071 -1.79904e-06
1.32497e-06 -1.79904e-06 0.000110309
0.00253073 -0.000940988 7.48893e-07
-0.000940988 0.000188976 -3.61401e-06
7.48893e-07 -3.61401e-06 -5.10593e-05
-0.000371669 -0.000223787 1.27523e-05
-0.000223787 -0.000560807 -9.55927e-06
1.27523e-05 -9.55927e-06 -0.000816448
-0.00284499 7.88043e-05 8.82477e-06
7.88043e-05 -0.00205371 9.99279e-07
8.82477e-06 9.99279e-07 -0.00245265
0.00140921 -0.000907764 1.59023e-05
-0.000907764 0.000440406 1.18206e-05
1.59023e-05 1.18206e-05 -0.000267635
0.00352986 -0.00071729 1.38238e-05
-0.00071729 0.0021261 1.52054e-05
1.38238e-05 1.52054e-05 0.00160442
0.00141607 -0.000835091 -7.54598e-06
-0.000835091 0.00060169 1.1982e-05
-7.54598e-06 1.1982e-05 -0.000149396
-1.85681e-05 5.96629e-05 -8.38761e-06
5.96629e-05 -0.000293853 -1.8245e-05
-8.38761e-06 -1.8245e-05 -0.000396004
0.00239591 0.000584773 -3.94234e-06
0.000584773 0.000239465 -1.13218e-08
-3.94234e-06 -1.13218e-08 1.90037e-05
0.00112121 0.000140055 3.07737e-06
0.000140055 0.000446401 -5.73767e-06
3.07737e-06 -5.73767e-06 0.000146235
0.00100444 0.000374234 -5.89874e-06
0.000374234 0.0002822 7.89604e-06
-5.89874e-06 7.89604e-06 -2.02947e-05
0.00132815 0.000316182 -3.88383e-06
0.000316182 0.00049883 9.60762e-06
-3.88383e-06 9.60762e-06 0.000168604
0.00229364 0.000754287 4.68113e-07
0.000754287 0.000308465 3.61039e-06
4.68113e-07 3.61039e-06 -5.07265e-05
0.00248268 0.000736813 -7.67308e-07
0.000736813 0.00027727 -9.91368e-08
-7.67308e-07 -9.91368e-08 2.229e-05
0.00173494 0.000971358 1.49732e-05
0.000971358 0.000521145 1.14427e-05
1.49732e-05 1.14427e-05 -0.000192471
0.00232068 0.00110121 7.04245e-06
0.00110121 0.000567519 1.03957e-05
7.04245e-06 1.03957e-05 -9.6536e-05
0.00260242 0.000920703 6.17003e-06
0.000920703 0.000536891 5.94236e-06
6.17003e-06 5.94236e-06 0.000121667
0.00282808 0.000887238 1.36242e-05
0.000887238 0.000597044 1.72521e-05
1.36242e-05 1.72521e-05 0.000197435
0.000462593 7.62877e-05 -1.94214e-06
7.62877e-05 1.80052e-05 3.41732e-07
-1.94214e-06 3.41732e-07 -6.03097e-05
0.000745622 0.000171647 -1.00671e-06
0.000171647 0.000288519 -6.25787e-07
-1.00671e-06 -6.25787e-07 -5.99988e-06
0.00105032 0.000598591 9.87231e-06
0.000598591 0.000288726 -2.79435e-06
9.87231e-06 -2.79435e-06 -0.000217343
0.000704461 0.000218602 -7.19283e-07
0.000218602 0.000179919 -4.77342e-06
-7.19283e-07 -4.77342e-06 -0.00016159
0.000474689 0.000294331 -1.48901e-06
0.000294331 -0.00015647 4.61973e-06
-1.48901e-06 4.61973e-06 -0.000532898
0.00246963 0.000627552 -7.69103e-07
0.000627552 0.000178301 -6.84077e-07
-7.69103e-07 -6.84077e-07 1.94773e-05
0.00240529 0.000838935 5.00446e-07
0.000838935 0.000310355 -1.16628e-07
5.00446e-07 -1.16628e-07 -3.31169e-05
0.00248962 0.000803992 1.29398e-06
0.000803992 0.000222138 5.34678e-07
1.29398e-06 5.34678e-07 -1.10646e-05
0.00245931 0.00125536 1.88402e-06
0.00125536 0.000983838 -1.78527e-06
1.88402e-06 -1.78527e-06 0.000151449
0.00281113 0.000980113 3.4219e-06
0.000980113 0.000523559 1.05596e-07
3.4219e-06 1.05596e-07 0.000117394
0.00274562 0.00123734 -5.76795e-06
0.00123734 0.000765366 7.97902e-07
-5.76795e-06 7.97902e-07 9.37027e-05
0.000923463 0.000177908 -1.07004e-06
0.000177908 0.000374183 1.32242e-05
-1.07004e-06 1.32242e-05 0.000150721
0.00219723 0.000512669 2.37491e-06
0.000512669 0.00127034 6.2648e-06
2.37491e-06 6.2648e-06 0.00084979
0.00127317 0.000851395 1.41085e-06
0.000851395 0.000475536 -3.22917e-07
1.41085e-06 -3.22917e-07 -0.00017693
0.00156233 0.000282292 9.51711e-06
0.000282292 0.000467261 2.21495e-07
9.51711e-06 2.21495e-07 0.000159185
0.00350305 0.000857742 2.91408e-06
0.000857742 0.0016064 4.45014e-07
2.91408e-06 4.45014e-07 0.00107699
0.00251591 0.000667599 -3.04633e-06
0.000667599 0.000102115 -1.53687e-06
-3.04633e-06 -1.53687e-06 -6.68502e-06
0.00253757 0.000917124 -3.26681e-06
0.000917124 0.000342795 8.13644e-08
-3.26681e-06 8.13644e-08 -7.46014e-06
0.00256418 0.000905809 -4.8249e-07
0.000905809 0.000228196 -6.84579e-07
-4.8249e-07 -6.84579e-07 -6.82779e-06
0.00181906 0.00127417 1.19685e-05
0.00127417 0.000638213 -6.97722e-06
1.19685e-05 -6.97722e-06 -0.000200681
0.00246294 0.00117829 1.66001e-05
0.00117829 0.000448008 -3.66199e-06
1.66001e-05 -3.66199e-06 -0.000143558
0.000631521 0.000129237 -2.15377e-07
0.000129237 0.000186877 -3.45467e-07
-2.15377e-07 -3.45467e-07 3.77977e-06
0.000263029 0.000268257 -5.90482e-06
0.000268257 3.10143e-05 2.47489e-07
-5.90482e-06 2.47489e-07 -0.000252994
-0.000744131 0.000106347 4.55857e-07
0.000106347 -0.000569375 -2.52968e-06
4.55857e-07 -2.52968e-06 -0.000839632
0.00193696 0.000333491 -1.19493e-05
0.000333491 0.0012406 -2.29075e-07
-1.19493e-05 -2.29075e-07 0.000924987
0.0015881 0.000280413 -5.25805e-06
0.000280413 0.000931233 8.23363e-08
-5.25805e-06 8.23363e-08 0.000695608
0.000596564 0.000109705 -4.21792e-07
0.000109705 0.000173519 2.30557e-06
-4.21792e-07 2.30557e-06 6.21008e-05
0.000558215 5.63787e-05 -1.69855e-06
5.63787e-05 0.0001434 -3.05936e-07
-1.69855e-06 -3.05936e-07 2.18341e-05
0.00153934 2.43098e-05 1.62124e-06
2.43098e-05 0.000743521 6.05284e-06
1.62124e-06 6.05284e-06 0.000703517
0.000309 7.1352e-05 5.99981e-06
7.1352e-05 -3.15816e-05 -6.85498e-06
5.99981e-06 -6.85498e-06 -0.000168994
0.0016648 9.66341e-06 -1.81208e-05
9.66341e-06 0.000821913 -2.45583e-06
-1.81208e-05 -2.45583e-06 0.000778448
0.000744277 -8.03947e-06 6.3272e-05
-8.03947e-06 0.000207121 1.34871e-05
6.3272e-05 1.34871e-05 0.000203917
0.00187373 4.16314e-05 -3.69231e-05
4.16314e-05 0.00096261 -1.17043e-05
-3.69231e-05 -1.17043e-05 0.000909574
0.00251583 -7.40647e-05 7.83941e-05
-7.40647e-05 0.00139785 1.6577e-06
7.83941e-05 1.6577e-06 0.00138532
0.00421624 -0.00015927 -7.00175e-05
-0.00015927 0.0025456 -1.05449e-05
-7.00175e-05 -1.05449e-05 0.00252628
0.00097456 3.04979e-05 2.52882e-06
3.04979e-05 0.000361386 -9.30994e-06
2.52882e-06 -9.30994e-06 0.000278444
0.000248124 -0.000106062 4.63141e-06
-0.000106062 -0.000118338 1.48049e-06
4.63141e-06 1.48049e-06 -0.000201163
0.00441128 0.000178695 6.03875e-05
0.000178695 0.00269975 -1.14262e-05
6.03875e-05 -1.14262e-05 0.00266875
0.00488203 9.40085e-05 -1.81668e-05
9.40085e-05 0.00300055 2.59984e-06
-1.81668e-05 2.59984e-06 0.00298887
0.00132228 -0.000176923 -1.71013e-05
-0.000176923 0.000565724 2.0781e-05
-1.71013e-05 2.0781e-05 0.000427835
0.0079006 1.14098e-05 -0.000323519
1.14098e-05 0.00496615 4.61208e-05
-0.000323519 4.61208e-05 0.00496445
0.00235901 0.000482066 -3.49217e-06
0.000482066 0.000170003 2.12307e-07
-3.49217e-06 2.12307e-07 1.19284e-05
0.00234696 0.000261588 -2.86893e-06
0.000261588 0.000125853 -1.07313e-06
-2.86893e-06 -1.07313e-06 5.40053e-05
0.00226543 0.000354213 -4.07851e-06
0.000354213 2.77307e-05 -3.49922e-07
-4.07851e-06 -3.49922e-07 -1.68976e-05
0.00216577 0.000164801 -3.42066e-06
0.000164801 -4.90732e-05 -2.66414e-07
-3.42066e-06 -2.66414e-07 -3.43814e-05
0.00233712 7.89728e-05 -2.86362e-06
7.89728e-05 0.00011183 -2.3635e-07
-2.86362e-06 -2.3635e-07 6.95215e-05
0.0014759 5.59326e-06 -2.99115e-06
5.59326e-06 -5.32811e-05 -4.24395e-07
-2.99115e-06 -4.24395e-07 -0.000171746
0.00231996 -5.23561e-06 -1.34936e-08
-5.23561e-06 0.000102533 4.98345e-08
-1.34936e-08 4.98345e-08 6.0517e-05
0.00214137 7.13111e-05 -4.45911e-07
7.13111e-05 -5.37245e-05 -4.60197e-08
-4.45911e-07 -4.60197e-08 -3.60822e-05
0.00219938 0.000246849 -1.47326e-07
0.000246849 -6.58628e-06 4.0901e-08
-1.47326e-07 4.0901e-08 -2.49167e-05
0.00227958 0.000169513 9.95051e-08
0.000169513 -6.00828e-05 4.12811e-08
9.95051e-08 4.12811e-08 -1.0282e-05
0.00240525 0.000500882 1.17271e-07
0.000500882 9.4666e-05 1.17169e-07
1.17271e-07 1.17169e-07 1.35057e-05
0.0023658 0.000368078 2.30827e-07
0.000368078 -6.17301e-05 2.76245e-07
2.30827e-07 2.76245e-07 -3.58356e-05
0.00214152 -1.08934e-05 3.18894e-06
-1.08934e-05 -4.66551e-05 -1.51902e-07
3.18894e-06 -1.51902e-07 -3.01798e-05
0.0023241 7.13256e-05 4.57651e-07
7.13256e-05 -2.9185e-05 -5.19001e-07
4.57651e-07 -5.19001e-07 3.47989e-05
0.00229549 0.000241832 -7.93658e-07
0.000241832 -6.34994e-05 -5.52946e-07
-7.93658e-07 -5.52946e-07 -2.77415e-05
0.00241043 0.000180116 -7.7112e-08
0.000180116 -8.21714e-05 -5.50466e-07
-7.7112e-08 -5.50466e-07 1.45442e-05
0.00246185 0.000508744 -4.94303e-07
0.000508744 1.41036e-05 -5.16442e-07
-4.94303e-07 -5.16442e-07 -7.87312e-06
0.00247341 0.000361547 1.24715e-07
0.000361547 -9.8358e-05 -8.53487e-08
1.24715e-07 -8.53487e-08 -3.78072e-05
0.00231731 -8.30912e-05 1.05281e-06
-8.30912e-05 0.000109337 1.29888e-07
1.05281e-06 1.29888e-07 6.15148e-05
0.00212529 -0.000280227 3.96556e-06
-0.000280227 -1.89266e-05 -2.66021e-07
3.96556e-06 -2.66021e-07 -0.000105759
0.00217861 -0.000156117 -3.21012e-06
-0.000156117 -2.5233e-05 2.44174e-07
-3.21012e-06 2.44174e-07 -2.04134e-05
0.00241264 -0.00038354 -5.25959e-06
-0.00038354 0.000137808 1.35891e-06
-5.25959e-06 1.35891e-06 7.90317e-05
0.000706299 -0.00047326 -8.63723e-06
-0.00047326 -9.70759e-05 6.88883e-06
-8.63723e-06 6.88883e-06 -0.000539728
0.00263379 -0.00108491 2.24676e-06
-0.00108491 0.000844998 -3.62315e-06
2.24676e-06 -3.62315e-06 0.000177647
0.00212896 -0.000949275 3.00309e-06
-0.000949275 0.000258248 -2.39903e-06
3.00309e-06 -2.39903e-06 -0.000267867
0.00230287 -0.000610205 -3.35537e-06
-0.000610205 0.000122777 1.54422e-06
-3.35537e-06 1.54422e-06 -4.99163e-05
0.00241775 -0.000530046 7.50237e-08
-0.000530046 3.06719e-05 -7.0831e-07
7.50237e-08 -7.0831e-07 -6.81962e-06
0.00242412 -0.00075351 -1.22995e-06
-0.00075351 0.000149461 1.87142e-06
-1.22995e-06 1.87142e-06 -2.16033e-05
0.00246463 -0.000875244 -2.4253e-06
-0.000875244 0.000386935 5.00626e-07
-2.4253e-06 5.00626e-07 8.61232e-06
0.00243539 -0.000876951 -1.9676e-06
-0.000876951 0.000186668 1.46435e-06
-1.9676e-06 1.46435e-06 -4.12248e-05
0.00129968 -0.000645565 1.29589e-06
-0.000645565 0.000357985 -1.64279e-05
1.29589e-06 -1.64279e-05 -0.000206136
0.00192986 -0.000704914 -2.31019e-05
-0.000704914 0.000877151 -1.28724e-05
-2.31019e-05 -1.28724e-05 0.00026025
0.00193945 -8.03757e-05 8.5249e-06
-8.03757e-05 0.00105573 6.42495e-06
8.5249e-06 6.42495e-06 0.00079192
-0.000456752 -3.69304e-05 -1.27003e-05
-3.69304e-05 -0.000492803 -8.50921e-06
-1.27003e-05 -8.50921e-06 -0.000820457
0.00217384 -9.15397e-05 -1.16028e-07
-9.15397e-05 -8.29731e-06 3.00989e-08
-1.16028e-07 3.00989e-08 -5.96351e-06
0.00229767 -0.000271297 1.31659e-06
-0.000271297 5.50431e-05 -2.27817e-07
1.31659e-06 -2.27817e-07 3.05241e-05
0.00225512 -0.000166096 -3.64116e-08
-0.000166096 -2.97639e-05 -1.41881e-07
-3.64116e-08 -1.41881e-07 1.20915e-05
0.00237438 -0.000414261 -2.86386e-07
-0.000414261 -3.05123e-05 2.75086e-07
-2.86386e-07 2.75086e-07 -1.14576e-05
0.00202605 -0.000935218 -1.53231e-06
-0.000935218 0.000656764 -6.83012e-07
-1.53231e-06 -6.83012e-07 -1.19394e-05
0.00226726 -0.00115281 2.57848e-06
-0.00115281 0.00054427 3.75448e-07
2.57848e-06 3.75448e-07 -0.000146992
0.00266552 -0.00103805 -6.7577e-07
-0.00103805 0.000574243 8.86135e-07
-6.7577e-07 8.86135e-07 5.40851e-05
0.00244097 -0.000651197 -9.85453e-07
-0.000651197 0.000109972 1.36627e-07
-9.85453e-07 1.36627e-07 2.67102e-06
0.00250381 -0.000565194 7.13009e-07
-0.000565194 9.85196e-06 -4.63132e-07
7.13009e-07 -4.63132e-07 -2.68393e-06
0.002658 -0.000923762 -1.9e-06
-0.000923762 0.000490784 6.11968e-07
-1.9e-06 6.11968e-07 0.000123694
0.00259024 -0.000828754 -1.14313e-06
-0.000828754 0.000155797 5.06559e-07
-1.14313e-06 5.06559e-07 2.5089e-05
0.00255801 -0.0009385 7.73028e-06
-0.0009385 0.00020409 -2.64318e-06
7.73028e-06 -2.64318e-06 -2.68408e-05
0.00182643 -0.000973229 1.59178e-06
-0.000973229 0.000726775 -6.79278e-07
1.59178e-06 -6.79278e-07 -1.56329e-05
0.00209653 -0.000920019 -4.33372e-06
-0.000920019 0.00101953 -1.34767e-06
-4.33372e-06 -1.34767e-06 0.000263594
0.000758565 -0.000490904 -3.83074e-06
-0.000490904 0.000358752 3.13319e-06
-3.83074e-06 3.13319e-06 -0.000153614
3.78674e-07 -0.000170311 -7.19062e-06
-0.000170311 -0.000259973 -2.45699e-07
-7.19062e-06 -2.45699e-07 -0.000534844
0.000450344 0.000144737 -4.56823e-06
0.000144737 0.000123804 -3.72832e-06
-4.56823e-06 -3.72832e-06 -0.000263226
0.00226909 -0.000105048 -2.12783e-07
-0.000105048 -5.69133e-05 3.21888e-07
-2.12783e-07 3.21888e-07 2.07333e-06
0.00232855 -0.000250826 -1.3334e-06
-0.000250826 -6.89906e-05 -1.97805e-07
-1.3334e-06 -1.97805e-07 -1.21309e-05
0.00253729 -0.000506015 -4.61833e-07
-0.000506015 -8.28057e-05 -3.13128e-08
-4.61833e-07 -3.13128e-08 -1.12394e-05
0.00252527 -0.000692255 1.22852e-06
-0.000692255 3.62602e-05 5.72777e-07
1.22852e-06 5.72777e-07 -1.41039e-05
0.00225149 -0.00122097 -2.33692e-06
-0.00122097 0.000795005 1.69754e-06
-2.33692e-06 1.69754e-06 7.53855e-06
0.00273828 -0.00096074 -8.78713e-07
-0.00096074 0.000149081 -2.32143e-06
-8.78713e-07 -2.32143e-06 -1.55903e-05
0.00178607 -0.00115146 -3.21524e-06
-0.00115146 0.000258199 6.56776e-06
-3.21524e-06 6.56776e-06 -0.000438905
0.00281865 -0.00110104 -7.6895e-07
-0.00110104 0.00065938 1.40967e-07
-7.6895e-07 1.40967e-07 0.000132629
0.00259612 -0.000956992 -1.15778e-05
-0.000956992 0.000364125 -3.22723e-06
-1.15778e-05 -3.22723e-06 3.81324e-05
0.000277232 -0.000192217 -3.01239e-07
-0.000192217 1.28459e-05 -9.81074e-07
-3.01239e-07 -9.81074e-07 -0.000247213
0.00412373 -0.000402073 -5.86039e-06
-0.000402073 0.00251603 3.55386e-06
-5.86039e-06 3.55386e-06 0.00209527
-0.00142183 -9.708e-05 -8.4939e-06
-9.708e-05 -0.00127559 7.26886e-06
-8.4939e-06 7.26886e-06 -0.00159091
0.00274618 -0.00118985 -9.35887e-06
-0.00118985 0.00133073 7.62737e-06
-9.35887e-06 7.62737e-06 0.000502658
0.00287917 -0.000743377 4.82213e-06
-0.000743377 0.00161419 9.45984e-06
4.82213e-06 9.45984e-06 0.00101261
0.00212383 -0.000979739 -1.26812e-05
-0.000979739 0.00101166 1.43208e-05
-1.26812e-05 1.43208e-05 0.000213311
0.000406912 7.87226e-05 -1.10235e-05
7.87226e-05 -1.6104e-05 -1.66884e-05
-1.10235e-05 -1.66884e-05 -9.16706e-05
8.37705e-05 0.000162505 6.4108e-07
0.000162505 -0.000116393 -1.33161e-05
6.4108e-07 -1.33161e-05 -0.000427764
0.00244722 0.000625774 -3.6455e-06
0.000625774 0.000164443 -1.2956e-06
-3.6455e-06 -1.2956e-06 6.43707e-06
-0.000483953 -4.72372e-06 -3.8792e-06
-4.72372e-06 -0.000539069 -1.10679e-06
-3.8792e-06 -1.10679e-06 -0.00089816
0.00286472 0.000677128 1.83253e-05
0.000677128 0.00141405 -4.43802e-06
1.83253e-05 -4.43802e-06 0.00091529
-0.000355793 0.000365014 -1.61163e-05
0.000365014 -0.000703786 -5.11917e-06
-1.61163e-05 -5.11917e-06 -0.00113275
0.00248512 0.000843698 1.41813e-06
0.000843698 0.000370078 5.41494e-07
1.41813e-06 5.41494e-07 2.67498e-05
0.00247677 0.000804498 2.42181e-06
0.000804498 0.000216535 4.87235e-07
2.42181e-06 4.87235e-07 -1.62023e-05
0.00246887 0.00124471 7.07031e-06
0.00124471 0.00101635 9.00035e-06
7.07031e-06 9.00035e-06 0.000188301
0.00335364 0.00129572 -5.64757e-06
0.00129572 0.00119238 7.93518e-06
-5.64757e-06 7.93518e-06 0.000514985
0.00277097 0.000979889 3.17665e-06
0.000979889 0.000466854 2.88532e-06
3.17665e-06 2.88532e-06 5.83339e-05
0.000790082 0.00017968 1.09118e-08
0.00017968 0.000295128 -2.05741e-08
1.09118e-08 -2.05741e-08 6.76231e-05
0.00106322 0.000313955 -3.78994e-06
0.000313955 0.000541535 -5.29638e-07
-3.78994e-06 -5.29638e-07 0.000137761
0.00154748 0.000910311 7.58642e-08
0.000910311 0.000624533 -4.75769e-08
7.58642e-08 -4.75769e-08 -6.83045e-05
0.000882253 0.000241087 -1.03702e-08
0.000241087 3.71799e-05 -7.87115e-07
-1.03702e-08 -7.87115e-07 -0.000274555
0.00149951 0.000635089 1.87348e-06
0.000635089 0.000229729 -5.97983e-06
1.87348e-06 -5.97983e-06 -0.000244888
0.00250531 0.000666014 -2.04324e-06
0.000666014 0.000108932 -1.09466e-06
-2.04324e-06 -1.09466e-06 -1.61317e-06
0.00257631 0.00092522 2.65145e-06
0.00092522 0.000346865 4.57903e-07
2.65145e-06 4.57903e-07 -5.87491e-06
0.00261165 0.000912339 1.03937e-06
0.000912339 0.0002267 1.06627e-06
1.03937e-06 1.06627e-06 -4.37515e-06
0.00219803 0.00134477 2.64313e-06
0.00134477 0.000842648 1.10986e-06
2.64313e-06 1.10986e-06 -9.15949e-06
0.00240979 0.00119282 -3.09432e-06
0.00119282 0.000457026 -3.4595e-06
-3.09432e-06 -3.4595e-06 -0.000150917
0.00197297 0.000490969 2.86422e-06
0.000490969 0.00111759 7.31169e-06
2.86422e-06 7.31169e-06 0.00076854
-0.000403075 0.000300041 -4.08736e-08
0.000300041 -0.000429251 -2.48809e-06
-4.08736e-08 -2.48809e-06 -0.000848221
0.0018657 0.00105788 8.86479e-06
0.00105788 0.000805154 -5.34951e-06
8.86479e-06 -5.34951e-06 7.78235e-05
-0.00230862 0.000480663 1.13361e-05
0.000480663 -0.00211383 -2.83152e-06
1.13361e-05 -2.83152e-06 -0.00256646
0.00321001 0.00111237 1.06049e-05
0.00111237 0.0012532 -6.86189e-06
1.06049e-05 -6.86189e-06 0.000637102
0.00266604 0.000784598 -3.10713e-06
0.000784598 5.3092e-05 -7.05718e-07
-3.10713e-06 -7.05718e-07 5.31056e-06
0.0026199 0.000988929 9.43103e-06
0.000988929 0.000301753 -2.94276e-06
9.43103e-06 -2.94276e-06 -8.38993e-05
0.00233792 0.000870682 6.94885e-06
0.000870682 -2.81752e-05 5.52788e-08
6.94885e-06 5.52788e-08 -0.000276107
0.00260858 0.00142305 2.3618e-05
0.00142305 0.000997548 3.23767e-06
2.3618e-05 3.23767e-06 0.000158831
0.00283466 0.00143314 9.78967e-06
0.00143314 0.000803255 -7.80626e-07
9.78967e-06 -7.80626e-07 7.63268e-05
0.000324043 9.37169e-05 7.08599e-06
9.37169e-05 -1.39412e-05 -1.19155e-05
7.08599e-06 -1.19155e-05 -0.000193174
0.000962781 0.000245301 -1.05755e-06
0.000245301 0.000472483 6.84502e-07
-1.05755e-06 6.84502e-07 0.000197423
-0.000369855 0.000125462 -7.70838e-06
0.000125462 -0.000387674 -2.25196e-05
-7.70838e-06 -2.25196e-05 -0.000578547
-0.00123213 -3.61333e-05 1.00317e-05
-3.61333e-05 -0.000929844 -2.76542e-06
1.00317e-05 -2.76542e-06 -0.00115539
0.000566784 0.000131063 -2.32222e-06
0.000131063 0.00023483 1.07558e-07
-2.32222e-06 1.07558e-07 3.22605e-05
-0.000137057 0.000109553 4.91215e-06
0.000109553 -0.00015098 9.41263e-07
4.91215e-06 9.41263e-07 -0.000407364
0.00114823 0.000273908 -5.02188e-06
0.000273908 0.00070644 -7.98015e-07
-5.02188e-06 -7.98015e-07 0.000458628
0.000246389 -4.97035e-06 -1.12686e-05
-4.97035e-06 7.69145e-05 5.98387e-06
-1.12686e-05 5.98387e-06 -0.000158942
0.000845024 0.000149842 -3.27216e-06
0.000149842 0.000380898 -2.67525e-06
-3.27216e-06 -2.67525e-06 0.000218917
0.000509319 0.000103369 1.3429e-06
0.000103369 0.000110275 2.35051e-06
1.3429e-06 2.35051e-06 3.43746e-06
0.000406812 4.4641e-05 -3.27426e-06
4.4641e-05 3.83495e-05 1.77322e-07
-3.27426e-06 1.77322e-07 -6.60903e-05
0.00145183 8.14165e-06 1.62882e-06
8.14165e-06 0.000684864 4.96973e-06
1.62882e-06 4.96973e-06 0.000652081
7.00744e-05 -8.21681e-05 9.95728e-06
-8.21681e-05 -0.00016904 -3.35573e-06
9.95728e-06 -3.35573e-06 -0.000289533
0.00153629 1.04065e-05 -1.5985e-05
1.04065e-05 0.000738159 -2.37465e-06
-1.5985e-05 -2.37465e-06 0.000703029
0.000759389 -7.36909e-06 5.05586e-05
-7.36909e-06 0.00021771 1.20886e-05
5.05586e-05 1.20886e-05 0.000216998
0.00165745 1.24231e-05 -2.32197e-05
1.24231e-05 0.000813476 -1.13767e-05
-2.32197e-05 -1.13767e-05 0.000774477
0.00073744 -2.81125e-05 2.63706e-05
-2.81125e-05 0.000202971 4.94354e-06
2.63706e-05 4.94354e-06 0.000192384
0.00371712 -0.000167272 1.42485e-05
-0.000167272 0.00220484 -6.69838e-06
1.42485e-05 -6.69838e-06 0.0021826
0.000425604 0.00011167 -3.62852e-06
0.00011167 5.86006e-05 -1.0071e-05
-3.62852e-06 -1.0071e-05 -4.33173e-05
0.000346427 -4.75789e-05 -6.92306e-06
-4.75789e-05 -4.86955e-05 -1.95033e-06
-6.92306e-06 -1.95033e-06 -0.000137669
0.00434863 0.000254066 -3.31082e-05
0.000254066 0.00267752 -1.53664e-05
-3.31082e-05 -1.53664e-05 0.00262797
0.000636156 -0.000154632 -1.46587e-05
-0.000154632 0.000131119 1.41075e-05
-1.46587e-05 1.41075e-05 4.24458e-05
0.0040194 0.000154317 -1.42745e-05
0.000154317 0.00244439 -1.19118e-07
-1.42745e-05 -1.19118e-07 0.00242049
0.0055972 5.8696e-05 -0.000238005
5.8696e-05 0.00349701 4.34994e-05
-0.000238005 4.34994e-05 0.00348174
0.00237974 0.000498276 -3.8403e-06
0.000498276 7.5952e-05 -6.4408e-07
-3.8403e-06 -6.4408e-07 -2.87674e-06
0.00220192 0.000245989 -4.38118e-06
0.000245989 -5.88109e-06 -5.01838e-07
-4.38118e-06 -5.01838e-07 -2.4061e-05
0.00236898 0.000358807 1.06846e-06
0.000358807 -6.39208e-05 8.70378e-07
1.06846e-06 8.70378e-07 -3.34313e-05
0.00227021 0.000172165 1.11504e-06
0.000172165 -7.35012e-05 4.4464e-07
1.11504e-06 4.4464e-07 -1.66467e-05
0.00214144 6.41856e-05 -3.40048e-06
6.41856e-05 -5.0751e-05 1.25546e-07
-3.40048e-06 1.25546e-07 -3.51545e-05
0.00231585 -5.09783e-06 -2.27996e-06
-5.09783e-06 0.000101547 1.41714e-07
-2.27996e-06 1.41714e-07 5.95029e-05
0.002153 -1.23345e-05 2.71954e-07
-1.23345e-05 -3.40816e-05 -2.6009e-08
2.71954e-07 -2.6009e-08 -2.0493e-05
0.00230512 7.36257e-05 4.70177e-07
7.36257e-05 -3.74818e-05 2.14868e-08
4.70177e-07 2.14868e-08 2.16071e-05
0.00231612 0.000242532 -6.49244e-07
0.000242532 -4.34315e-05 -5.21605e-08
-6.49244e-07 -5.21605e-08 -9.4501e-06
0.00238268 0.000182304 6.2574e-07
0.000182304 -0.00010492 1.61285e-07
6.2574e-07 1.61285e-07 2.28519e-06
0.00246646 0.000511193 -2.82809e-07
0.000511193 2.05039e-05 2.08116e-08
-2.82809e-07 2.08116e-08 -4.5179e-06
0.00248931 0.000365764 1.87971e-06
0.000365764 -8.78187e-05 7.55271e-07
1.87971e-06 7.55271e-07 -1.71104e-05
0.00226268 -1.68136e-05 -1.37585e-06
-1.68136e-05 -6.19131e-05 5.36979e-08
-1.37585e-06 5.36979e-08 -4.86108e-06
0.00242767 9.11833e-05 -8.63251e-07
9.11833e-05 -9.88734e-05 -9.91526e-07
-8.63251e-07 -9.91526e-07 1.9829e-05
0.00248585 0.00025415 -4.43945e-07
0.00025415 -8.39659e-05 -4.3003e-07
-4.43945e-07 -4.3003e-07 2.68916e-05
0.0025942 0.000526063 -1.40252e-06
0.000526063 -9.12081e-05 1.15103e-07
-1.40252e-06 1.15103e-07 -1.16445e-05
0.00217092 -9.09724e-05 -5.10257e-06
-9.09724e-05 -1.22086e-05 4.39908e-07
-5.10257e-06 4.39908e-07 -9.93102e-06
0.00233494 -0.000274362 -3.8436e-06
-0.000274362 8.4106e-05 1.10597e-06
-3.8436e-06 1.10597e-06 5.88237e-05
0.00220267 -0.000164485 6.27742e-08
-0.000164485 -7.12545e-05 -1.47659e-07
6.27742e-08 -1.47659e-07 -2.5879e-05
0.00235191 -0.000413391 -1.82302e-06
-0.000413391 -3.92508e-05 -2.77882e-07
-1.82302e-06 -2.77882e-07 -2.87575e-05
0.00215279 -0.000928203 8.57727e-06
-0.000928203 0.000739868 -9.17898e-06
8.57727e-06 -9.17898e-06 7.81463e-05
0.00226163 -0.00115835 1.03134e-05
-0.00115835 0.000530181 -4.47787e-06
1.03134e-05 -4.47787e-06 -0.000165416
0.00260137 -0.00105146 -8.13425e-06
-0.00105146 0.000530716 -8.01303e-07
-8.13425e-06 -8.01303e-07 8.81754e-08
0.00246348 -0.000652476 -2.80066e-06
-0.000652476 0.000133806 1.08096e-06
-2.80066e-06 1.08096e-06 2.04469e-05
0.00247895 -0.0005623 1.94197e-06
-0.0005623 -5.51515e-06 -8.38493e-07
1.94197e-06 -8.38493e-07 -7.98813e-06
0.00258902 -0.000831246 -4.11452e-06
-0.000831246 0.000150294 1.70778e-06
-4.11452e-06 1.70778e-06 1.86215e-05
0.00263652 -0.000922688 -2.33222e-06
-0.000922688 0.000490394 2.5753e-06
-2.33222e-06 2.5753e-06 0.000120298
0.00254695 -0.000932217 1.52305e-06
-0.000932217 0.000192364 5.45997e-07
1.52305e-06 5.45997e-07 -2.99065e-05
0.00218907 -0.00101333 -1.78179e-05
-0.00101333 0.000974719 -9.60977e-06
-1.78179e-05 -9.60977e-06 0.000225339
0.00118469 -0.000786646 1.52641e-05
-0.000786646 0.000457384 -1.37899e-05
1.52641e-05 -1.37899e-05 -0.000254374
0.000212916 -0.000366598 -1.7997e-05
-0.000366598 -4.21309e-06 -6.83366e-06
-1.7997e-05 -6.83366e-06 -0.000520782
0.000375994 -0.000110387 -6.59242e-06
-0.000110387 1.21326e-05 1.7694e-06
-6.59242e-06 1.7694e-06 -0.000255372
0.00427101 0.000153103 2.43957e-06
0.000153103 0.00257287 -3.59624e-07
2.43957e-06 -3.59624e-07 0.00221197
0.00226151 -0.000113031 2.20575e-07
-0.000113031 -5.96892e-05 -9.5385e-08
2.20575e-07 -9.5385e-08 -2.13671e-06
0.00233898 -0.000252553 1.91124e-06
-0.000252553 -6.42465e-05 6.82256e-09
1.91124e-06 6.82256e-09 -8.99308e-06
0.00251791 -0.00049961 -1.00951e-06
-0.00049961 -7.55398e-05 1.61802e-07
-1.00951e-06 1.61802e-07 -1.69402e-05
0.00247365 -0.00122867 -2.30584e-06
-0.00122867 0.00093847 8.59093e-09
-2.30584e-06 8.59093e-09 0.000152631
0.00193187 -0.00116174 5.0839e-06
-0.00116174 0.000342673 -1.13008e-07
5.0839e-06 -1.13008e-07 -0.000356172
0.00271669 -0.00110775 -1.31152e-06
-0.00110775 0.000595697 -7.59204e-07
-1.31152e-06 -7.59204e-07 6.01889e-05
0.00253174 -0.0006836 2.33516e-07
-0.0006836 4.8103e-05 -3.62296e-07
2.33516e-07 -3.62296e-07 -3.89978e-06
0.00261764 -0.000975904 5.51224e-06
-0.000975904 0.000358063 -3.15993e-06
5.51224e-06 -3.15993e-06 2.8774e-05
0.00273731 -0.000949686 -6.31624e-07
-0.000949686 0.000175408 -6.71618e-07
-6.31624e-07 -6.71618e-07 1.4806e-05
-0.000654267 -3.06769e-05 -1.78636e-06
-3.06769e-05 -0.000628527 -2.27515e-07
-1.78636e-06 -2.27515e-07 -0.000852674
0.00188052 -0.00105439 1.06217e-06
-0.00105439 0.000793978 1.68231e-07
1.06217e-06 1.68231e-07 2.9727e-06
0.00195064 -0.000979567 -6.04729e-06
-0.000979567 0.000910065 2.75389e-06
-6.04729e-06 2.75389e-06 8.77481e-05
0.00187957 -0.000673894 2.18864e-06
-0.000673894 0.00101591 3.05481e-06
2.18864e-06 3.05481e-06 0.000387482
0.000562748 -0.000212101 -5.62336e-06
-0.000212101 2.56266e-05 6.25353e-07
-5.62336e-06 6.25353e-07 -0.000323121
0.00189727 -0.000149326 -4.06413e-06
-0.000149326 0.00102314 5.18854e-06
-4.06413e-06 5.18854e-06 0.000606064
0.0023639 -0.000145966 -1.49203e-06
-0.000145966 -0.000121882 6.33159e-07
-1.49203e-06 6.33159e-07 -1.78504e-05
0.00253201 -0.000332972 1.46003e-06
-0.000332972 -0.000147213 4.73933e-07
1.46003e-06 4.73933e-07 -4.84086e-06
0.00263746 -0.000631043 -2.86e-07
-0.000631043 -6.07804e-05 7.09605e-07
-2.86e-07 7.09605e-07 8.77432e-06
0.00267222 -0.000823335 1.21548e-07
-0.000823335 1.64272e-05 1.17259e-06
1.21548e-07 1.17259e-06 2.96737e-06
0.00275049 -0.00134117 -6.48261e-06
-0.00134117 0.00112358 4.93371e-06
-6.48261e-06 4.93371e-06 0.000294652
0.00272332 -0.00109263 -1.3198e-06
-0.00109263 0.000255424 -7.44159e-06
-1.3198e-06 -7.44159e-06 -3.05768e-05
0.00277106 -0.0013972 -4.6536e-05
-0.0013972 0.000858753 1.14987e-05
-4.6536e-05 1.14987e-05 8.85284e-05
0.00235168 -0.00113492 -3.18214e-05
-0.00113492 0.000381908 1.63436e-06
-3.18214e-05 1.63436e-06 -0.000152068
-0.000856208 -5.91895e-06 -1.52127e-06
-5.91895e-06 -0.000786729 -1.95401e-06
-1.52127e-06 -1.95401e-06 -0.000930159
0.00129891 -0.000215596 -2.561e-06
-0.000215596 0.000806127 6.31283e-06
-2.561e-06 6.31283e-06 0.000404271
0.00309855 -0.000427512 -1.50356e-05
-0.000427512 0.00176026 1.00115e-05
-1.50356e-05 1.00115e-05 0.00138766
0.000375455 -0.00024275 -3.86085e-07
-0.00024275 1.73217e-05 -4.87563e-06
-3.86085e-07 -4.87563e-06 -0.000390917
0.00254393 -0.00114639 -9.25307e-06
-0.00114639 0.00121488 2.09299e-05
-9.25307e-06 2.09299e-05 0.00039463
0.00226767 -0.00101339 -7.22134e-06
-0.00101339 0.00113694 1.73852e-05
-7.22134e-06 1.73852e-05 0.000274464
0.000382889 0.000160166 2.08686e-06
0.000160166 3.60868e-05 -1.2664e-05
2.08686e-06 -1.2664e-05 -0.000191808
-0.000250843 0.000130216 3.84849e-07
0.000130216 -0.000331844 -4.04295e-06
3.84849e-07 -4.04295e-06 -0.000706786
0.00249477 0.000664505 -9.19235e-07
0.000664505 0.000115512 -4.73467e-07
-9.19235e-07 -4.73467e-07 3.22156e-06
0.000176065 0.000194722 -7.06521e-06
0.000194722 -0.000399275 2.47038e-06
-7.06521e-06 2.47038e-06 -0.000711309
0.00202242 0.000992485 5.52198e-06
0.000992485 0.000908466 -3.09214e-06
5.52198e-06 -3.09214e-06 0.000171613
0.000214695 0.000425746 -1.73537e-05
0.000425746 -0.000544686 -1.63253e-06
-1.73537e-05 -1.63253e-06 -0.000954717
0.00262097 0.000933816 3.75e-06
0.000933816 0.000354041 -3.90408e-07
3.75e-06 -3.90408e-07 -1.29804e-06
0.0026598 0.000917801 -3.51038e-06
0.000917801 0.000227374 5.19778e-08
-3.51038e-06 5.19778e-08 1.13258e-06
0.00263573 0.00142314 -9.69305e-06
0.00142314 0.00108283 4.74483e-06
-9.69305e-06 4.74483e-06 0.000216199
0.00239476 0.00120938 -1.01857e-05
0.00120938 0.000498945 2.6774e-06
-1.01857e-05 2.6774e-06 -0.000126948
0.000686763 0.000302445 -2.93911e-07
0.000302445 0.00028995 -7.65513e-07
-2.93911e-07 -7.65513e-07 -5.10959e-05
0.00107154 0.000406585 -2.98759e-07
0.000406585 0.000503895 -3.58567e-06
-2.98759e-07 -3.58567e-06 7.41013e-05
0.00163947 0.00100513 -3.53485e-06
0.00100513 0.000672631 -5.2513e-07
-3.53485e-06 -5.2513e-07 -4.31419e-05
0.00128109 0.000544717 -2.4409e-06
0.000544717 0.000116914 2.93382e-07
-2.4409e-06 2.93382e-07 -0.00028359
0.00333559 0.00104662 4.63584e-07
0.00104662 0.00136017 1.73498e-06
4.63584e-07 1.73498e-06 0.000770397
0.00270652 0.000794723 -2.57502e-06
0.000794723 6.15404e-05 -4.01583e-07
-2.57502e-06 -4.01583e-07 8.21407e-06
0.0027231 0.000957645 2.86055e-06
0.000957645 0.00037789 -9.3562e-07
2.86055e-06 -9.3562e-07 1.49318e-05
0.00272213 0.000903167 5.79166e-07
0.000903167 0.000235511 2.8784e-06
5.79166e-07 2.8784e-06 -2.15374e-05
0.0024809 0.00142067 6.13616e-06
0.00142067 0.00090859 1.77923e-06
6.13616e-06 1.77923e-06 6.35624e-05
0.00272831 0.00149507 -5.91004e-06
0.00149507 0.000746249 1.31273e-06
-5.91004e-06 1.31273e-06 -2.11089e-05
-0.00173736 0.000125599 -9.84055e-06
0.000125599 -0.00128989 -6.03151e-06
-9.84055e-06 -6.03151e-06 -0.00154671
-0.0027867 0.000470679 -1.665e-06
0.000470679 -0.00158897 -4.11142e-06
-1.665e-06 -4.11142e-06 -0.00222933
0.00225575 0.0011417 1.99683e-05
0.0011417 0.000895803 -3.38841e-06
1.99683e-05 -3.38841e-06 0.000180446
0.00273348 0.000792115 5.71876e-06
0.000792115 0.000917465 -1.07874e-05
5.71876e-06 -1.07874e-05 0.000468717
0.00285514 0.000721216 8.56047e-07
0.000721216 -0.000203187 2.89385e-06
8.56047e-07 2.89385e-06 -1.53165e-05
0.00275076 0.000968714 6.57146e-06
0.000968714 8.43639e-05 3.83153e-07
6.57146e-06 3.83153e-07 -4.8664e-05
0.00297972 0.00124754 1.16778e-05
0.00124754 0.000553634 -5.24154e-06
1.16778e-05 -5.24154e-06 -1.79474e-05
0.00250572 0.00154815 9.18745e-06
0.00154815 0.000700194 -1.55638e-06
9.18745e-06 -1.55638e-06 -0.000175857
0.00165506 0.000288161 8.02574e-06
0.000288161 0.000971377 -1.54639e-06
8.02574e-06 -1.54639e-06 0.000658902
0.000242584 0.000235237 -5.02766e-06
0.000235237 5.4941e-05 1.56823e-06
-5.02766e-06 1.56823e-06 -0.000175601
-0.000240101 9.81601e-05 -1.64564e-06
9.81601e-05 -0.000222981 -9.14117e-06
-1.64564e-06 -9.14117e-06 -0.000365991
-0.000189321 3.62935e-05 5.20783e-06
3.62935e-05 -0.000285461 -1.17504e-07
5.20783e-06 -1.17504e-07 -0.000467615
-0.00245688 1.98665e-05 3.39665e-06
1.98665e-05 -0.0015899 -2.92483e-06
3.39665e-06 -2.92483e-06 -0.00186126
0.000758297 9.77958e-05 -1.28479e-06
9.77958e-05 0.000326892 -2.64154e-07
-1.28479e-06 -2.64154e-07 0.000161463
0.000668456 0.000256613 8.45701e-06
0.000256613 0.000430339 3.08291e-06
8.45701e-06 3.08291e-06 0.000185748
0.000701203 0.000100761 1.77644e-06
0.000100761 0.00041333 2.21014e-06
1.77644e-06 2.21014e-06 0.000139906
0.00102986 0.000191104 -8.89326e-06
0.000191104 0.000483668 -9.92106e-06
-8.89326e-06 -9.92106e-06 0.000363284
0.000593379 5.00301e-05 -7.74002e-06
5.00301e-05 0.00036179 2.33155e-06
-7.74002e-06 2.33155e-06 8.78701e-05
-0.00019703 8.26296e-05 -5.87721e-06
8.26296e-05 -0.000250072 2.65118e-06
-5.87721e-06 2.65118e-06 -0.00045177
0.00085688 0.000165344 8.63016e-07
0.000165344 0.000385929 1.01255e-06
8.63016e-07 1.01255e-06 0.000219034
0.000459156 0.000106488 2.62024e-06
0.000106488 8.52007e-05 3.61406e-06
2.62024e-06 3.61406e-06 -2.67021e-05
0.000412185 2.36156e-05 -2.02962e-06
2.36156e-05 4.21577e-05 -4.92957e-07
-2.02962e-06 -4.92957e-07 -6.06819e-05
0.00129543 2.9607e-05 6.63285e-07
2.9607e-05 0.000587059 3.34275e-06
6.63285e-07 3.34275e-06 0.000556041
0.000338286 -5.29753e-05 4.10842e-06
-5.29753e-05 -1.12287e-05 -1.96307e-06
4.10842e-06 -1.96307e-06 -0.000110982
0.00139921 1.19137e-05 -1.42595e-05
1.19137e-05 0.00065371 -2.08393e-06
-1.42595e-05 -2.08393e-06 0.000621448
0.00068558 -1.97236e-08 4.53352e-05
-1.97236e-08 0.000171743 1.14898e-05
4.53352e-05 1.14898e-05 0.000172758
0.00146973 -3.99993e-05 -1.40953e-05
-3.99993e-05 0.000698074 -9.64479e-06
-1.40953e-05 -9.64479e-06 0.000663471
0.000715172 -1.87489e-05 2.2127e-05
-1.87489e-05 0.000187251 4.47519e-06
2.2127e-05 4.47519e-06 0.000182281
0.000608074 -3.58761e-05 5.869e-06
-3.58761e-05 0.000120142 -5.3312e-06
5.869e-06 -5.3312e-06 0.000105797
0.000386313 1.80783e-05 3.51374e-06
1.80783e-05 -2.73128e-05 -1.02581e-05
3.51374e-06 -1.02581e-05 -8.06578e-05
0.000318249 2.51503e-05 -1.98928e-06
2.51503e-05 -5.02881e-05 5.17857e-07
-1.98928e-06 5.17857e-07 -0.000135081
0.0033451 0.000187496 -2.69091e-05
0.000187496 0.00198001 -1.35655e-05
-2.69091e-05 -1.35655e-05 0.00195205
-0.000742838 -7.92211e-05 -2.37501e-05
-7.92211e-05 -0.000762855 5.32285e-06
-2.37501e-05 5.32285e-06 -0.000852552
0.00455312 0.000166354 -2.82306e-05
0.000166354 0.00277908 -1.71208e-06
-2.82306e-05 -1.71208e-06 0.00275178
0.00370371 7.23612e-05 -0.0001255
7.23612e-05 0.00222311 2.49478e-05
-0.0001255 2.49478e-05 0.00222046
0.00246875 0.000513176 9.50028e-07
0.000513176 2.61435e-05 7.58864e-07
9.50028e-07 7.58864e-07 -1.78325e-06
0.00233859 0.000243236 -1.46754e-07
0.000243236 -2.25748e-05 2.58696e-08
-1.46754e-07 2.58696e-08 9.50345e-06
0.00250406 0.000369099 1.75821e-06
0.000369099 -7.8215e-05 1.96612e-06
1.75821e-06 1.96612e-06 2.65177e-06
0.00235404 0.000184428 1.76846e-06
0.000184428 -0.000128644 5.63751e-07
1.76846e-06 5.63751e-07 -1.11084e-05
0.00228716 7.59429e-05 5.47779e-07
7.59429e-05 -4.45964e-05 5.87175e-07
5.47779e-07 5.87175e-07 9.47e-06
0.0021671 -1.4711e-05 -5.03738e-06
-1.4711e-05 -1.99396e-05 1.5785e-07
-5.03738e-06 1.5785e-07 -9.06894e-06
0.00226973 -1.63689e-05 6.82322e-07
-1.63689e-05 -5.62544e-05 -3.53166e-08
6.82322e-07 -3.53166e-08 2.33452e-06
0.00239158 9.6434e-05 4.46993e-07
9.6434e-05 -0.000117549 2.15026e-07
4.46993e-07 2.15026e-07 6.83843e-07
0.00247806 0.000259295 7.10835e-07
0.000259295 -9.24257e-05 2.83395e-08
7.10835e-07 2.83395e-08 1.8635e-05
0.00259874 0.000508544 5.28476e-07
0.000508544 -8.66322e-05 2.83926e-07
5.28476e-07 2.83926e-07 -1.36157e-06
0.00239584 -1.57272e-05 -2.22706e-06
-1.57272e-05 -0.000113285 -4.93619e-08
-2.22706e-06 -4.93619e-08 -1.59414e-06
0.00253561 0.00015902 -3.46902e-07
0.00015902 -0.000146232 -8.78979e-07
-3.46902e-07 -8.78979e-07 3.68202e-05
0.00271392 0.000357886 8.11755e-07
0.000357886 -0.000134629 -1.05023e-07
8.11755e-07 -1.05023e-07 3.21008e-05
0.0022579 -0.00012071 6.91883e-07
-0.00012071 -5.90634e-05 -5.90397e-07
6.91883e-07 -5.90397e-07 -3.02243e-06
0.0023501 -0.000253241 -6.47412e-07
-0.000253241 -5.82676e-05 -3.70942e-07
-6.47412e-07 -3.70942e-07 -4.72251e-06
0.00249223 -0.000492343 -2.58188e-07
-0.000492343 -7.31907e-05 -2.46828e-08
-2.58188e-07 -2.46828e-08 -2.63967e-05
0.00256473 -0.00122653 3.18348e-09
-0.00122653 0.000993427 -3.85699e-06
3.18348e-09 -3.85699e-06 0.000207194
0.0019895 -0.00114679 1.04232e-05
-0.00114679 0.000378726 -4.96946e-06
1.04232e-05 -4.96946e-06 -0.000311396
0.00258798 -0.00110011 3.05482e-06
-0.00110011 0.000514237 -5.02541e-07
3.05482e-06 -5.02541e-07 -2.28005e-05
0.00254431 -0.0006759 -9.71014e-07
-0.0006759 6.16226e-05 9.59097e-08
-9.71014e-07 9.59097e-08 8.1235e-06
0.00275038 -0.000937486 -5.98975e-07
-0.000937486 0.000207492 2.52367e-06
-5.98975e-07 2.52367e-06 5.49207e-05
0.00266711 -0.000997981 8.52095e-06
-0.000997981 0.000368391 -2.47182e-06
8.52095e-06 -2.47182e-06 3.58682e-05
0.00189558 -0.00105704 5.55307e-07
-0.00105704 0.000805611 -7.64259e-06
5.55307e-07 -7.64259e-06 1.6473e-05
0.00232281 -0.00105481 2.25775e-05
-0.00105481 0.00115093 -2.2773e-05
2.25775e-05 -2.2773e-05 0.000300611
0.00154774 -0.000804889 -7.06197e-06
-0.000804889 0.00088475 -6.46781e-06
-7.06197e-06 -6.46781e-06 0.000189109
-1.50152e-05 1.69678e-05 5.78432e-06
1.69678e-05 -0.000179692 -3.26725e-06
5.78432e-06 -3.26725e-06 -0.000421741
0.00277081 -0.000327005 9.60575e-06
-0.000327005 0.00143213 -1.14841e-06
9.60575e-06 -1.14841e-06 0.00109379
-0.000655932 0.000117684 7.91934e-06
0.000117684 -0.000671132 4.42325e-08
7.91934e-06 4.42325e-08 -0.00108146
0.00239466 -0.000137051 -3.93418e-07
-0.000137051 -0.000100253 1.53698e-07
-3.93418e-07 1.53698e-07 -2.07505e-07
0.00252514 -0.000348271 1.14067e-07
-0.000348271 -0.000160636 -4.33239e-07
1.14067e-07 -4.33239e-07 -1.25959e-05
0.00263006 -0.000616525 -4.15638e-07
-0.000616525 -5.96595e-05 -2.13403e-07
-4.15638e-07 -2.13403e-07 9.23596e-06
0.00239614 -0.00128472 -2.51574e-06
-0.00128472 0.000901861 4.43666e-07
-2.51574e-06 4.43666e-07 8.91636e-05
0.0022684 -0.00131315 9.73904e-06
-0.00131315 0.000568161 -3.20594e-06
9.73904e-06 -3.20594e-06 -0.00017505
0.00255479 -0.00115089 -1.30159e-06
-0.00115089 0.000480608 -1.92532e-06
-1.30159e-06 -1.92532e-06 -4.49504e-05
0.0026706 -0.000836889 5.2221e-07
-0.000836889 1.17774e-05 -5.57774e-07
5.2221e-07 -5.57774e-07 -1.21004e-05
0.00277522 -0.0010855 2.27707e-06
-0.0010855 0.000300101 -1.6035e-06
2.27707e-06 -1.6035e-06 2.2194e-05
-0.000125881 2.81012e-05 -9.59246e-09
2.81012e-05 -0.000295338 -5.36261e-06
-9.59246e-09 -5.36261e-06 -0.000443111
0.000648509 -0.000173522 -2.54799e-06
-0.000173522 0.00036025 1.18397e-06
-2.54799e-06 1.18397e-06 -1.9841e-05
0.00190417 -0.00106855 -6.62311e-06
-0.00106855 0.00082408 2.09143e-07
-6.62311e-06 2.09143e-07 3.13569e-05
0.00140727 -0.000835315 7.69083e-07
-0.000835315 0.000661914 6.87819e-07
7.69083e-07 6.87819e-07 -0.000178997
0.00200278 -0.00032257 -2.56923e-06
-0.00032257 0.00101294 -6.76404e-06
-2.56923e-06 -6.76404e-06 0.000596947
0.00065862 -0.000294092 3.77012e-06
-0.000294092 0.000171614 -2.33989e-06
3.77012e-06 -2.33989e-06 -0.000202837
0.00248953 -0.000183331 1.65112e-06
-0.000183331 -0.000192131 1.00279e-06
1.65112e-06 1.00279e-06 -4.38308e-06
0.00275837 -0.000514193 2.78822e-06
-0.000514193 -0.000186283 6.14436e-07
2.78822e-06 6.14436e-07 3.42936e-05
0.00268821 -0.000778838 9.9167e-07
-0.000778838 -0.000103986 1.74379e-06
9.9167e-07 1.74379e-06 -3.36937e-05
0.00289801 -0.00107825 3.01497e-06
-0.00107825 0.000189703 -9.45956e-07
3.01497e-06 -9.45956e-07 4.419e-05
0.00225616 -0.00132517 -5.60639e-06
-0.00132517 0.000842323 -4.41064e-06
-5.60639e-06 -4.41064e-06 4.45409e-05
0.0030872 -0.00137554 4.9663e-06
-0.00137554 0.000637208 -1.17764e-05
4.9663e-06 -1.17764e-05 0.000137474
0.0024633 -0.00146053 -5.65578e-05
-0.00146053 0.000655128 5.60599e-06
-5.65578e-05 5.60599e-06 -0.000134823
0.000437794 3.10636e-05 2.17586e-06
3.10636e-05 4.84209e-05 -5.21013e-06
2.17586e-06 -5.21013e-06 -5.83469e-05
0.000717372 -0.000190516 4.97383e-06
-0.000190516 0.000322786 -7.63118e-06
4.97383e-06 -7.63118e-06 0.000138577
-0.00132155 1.20697e-05 -7.36497e-06
1.20697e-05 -0.00094526 2.0343e-06
-7.36497e-06 2.0343e-06 -0.00121837
0.000754229 -0.00032738 -1.04435e-05
-0.00032738 0.000482443 1.61026e-05
-1.04435e-05 1.61026e-05 7.83243e-05
0.00428286 -7.29413e-05 -1.31928e-05
-7.29413e-05 0.00257946 -1.83027e-06
-1.31928e-05 -1.83027e-06 0.00226033
-0.000116785 -0.00031373 -5.79791e-06
-0.00031373 -0.000344213 -3.55191e-06
-5.79791e-06 -3.55191e-06 -0.000917355
0.00245605 -0.0012282 -2.81258e-05
-0.0012282 0.00106986 4.27106e-05
-2.81258e-05 4.27106e-05 0.000246667
0.00362005 -0.00121005 -3.51342e-05
-0.00121005 0.00202177 2.52874e-05
-3.51342e-05 2.52874e-05 0.000994218
0.000380692 0.00016718 7.74172e-06
0.00016718 5.69869e-05 -5.44876e-06
7.74172e-06 -5.44876e-06 -0.000252664
0.00209764 0.000541423 4.12092e-06
0.000541423 0.00114745 9.01438e-06
4.12092e-06 9.01438e-06 0.00070086
0.00275162 0.000806685 7.21722e-08
0.000806685 7.06297e-05 -6.10094e-07
7.21722e-08 -6.10094e-07 1.06749e-05
0.00248088 0.000431821 1.40006e-06
0.000431821 0.000752511 -3.29934e-07
1.40006e-06 -3.29934e-07 0.000396647
0.00141215 0.000955292 -3.97906e-06
0.000955292 0.000539462 -2.52206e-06
-3.97906e-06 -2.52206e-06 -0.000167304
0.00380075 0.00106132 -1.11367e-05
0.00106132 0.00165971 1.20797e-05
-1.11367e-05 1.20797e-05 0.00106895
0.00279487 0.000921358 -5.43521e-06
0.000921358 0.000433716 -8.48412e-07
-5.43521e-06 -8.48412e-07 9.53664e-05
0.00309682 0.000935396 -3.51753e-06
0.000935396 0.000492159 6.85779e-06
-3.51753e-06 6.85779e-06 0.000225759
0.00230462 0.00141167 -1.10173e-05
0.00141167 0.000789506 9.92375e-07
-1.10173e-05 9.92375e-07 -5.86572e-05
0.00252568 0.00155005 -1.83922e-05
0.00155005 0.000629416 -2.91558e-07
-1.83922e-05 -2.91558e-07 -0.000176075
-0.0012133 0.000202449 5.08973e-07
0.000202449 -0.000892838 1.53231e-07
5.08973e-07 1.53231e-07 -0.00121419
-0.000212239 0.000546519 4.79237e-06
0.000546519 -2.50831e-05 -1.15436e-06
4.79237e-06 -1.15436e-06 -0.000619547
0.0019373 0.00113196 6.60039e-07
0.00113196 0.000639492 -7.6605e-07
6.60039e-07 -7.6605e-07 -8.69691e-05
0.00293817 0.00081711 -8.2587e-06
0.00081711 0.00115195 -4.58128e-07
-8.2587e-06 -4.58128e-07 0.000676472
0.00278814 0.000683364 5.7739e-08
0.000683364 -0.000284 1.27578e-07
5.7739e-08 1.27578e-07 -6.82474e-05
0.00292796 0.00097592 3.5067e-06
0.00097592 0.000194712 -1.00041e-06
3.5067e-06 -1.00041e-06 3.63023e-05
0.00271694 0.00119139 -4.52968e-06
0.00119139 0.000456949 -6.87698e-07
-4.52968e-06 -6.87698e-07 -9.33272e-05
0.00275241 0.0015474 1.38957e-06
0.0015474 0.000839333 6.81929e-07
1.38957e-06 6.81929e-07 -2.0292e-05
-0.00138675 5.29068e-06 -7.12989e-06
5.29068e-06 -0.000969972 -4.16394e-06
-7.12989e-06 -4.16394e-06 -0.00119692
0.00276863 0.000470628 1.41683e-06
0.000470628 -0.000328655 4.68727e-06
1.41683e-06 4.68727e-06 -6.10004e-05
0.00372384 0.000987423 -9.41853e-06
0.000987423 0.00241629 1.00013e-05
-9.41853e-06 1.00013e-05 0.00173524
0.00204122 0.00101763 7.36518e-06
0.00101763 0.00061681 -4.40102e-06
7.36518e-06 -4.40102e-06 -2.30458e-05
0.00291995 0.000962754 -2.35749e-05
0.000962754 -4.94771e-05 -1.46252e-05
-2.35749e-05 -1.46252e-05 4.15258e-05
0.00186378 0.00111616 8.12088e-06
0.00111616 -0.000166593 -1.27307e-05
8.12088e-06 -1.27307e-05 -0.00065133
0.00372879 0.00170846 5.4902e-06
0.00170846 0.00134681 3.24143e-06
5.4902e-06 3.24143e-06 0.000445955
0.000301258 0.000200313 4.29222e-06
0.000200313 0.00011776 9.3579e-06
4.29222e-06 9.3579e-06 -0.000138884
0.00049028 0.000171563 -4.01503e-06
0.000171563 0.000255526 -2.20541e-07
-4.01503e-06 -2.20541e-07 9.71044e-05
-0.00157178 1.63234e-05 -1.1805e-05
1.63234e-05 -0.00103782 1.51472e-06
-1.1805e-05 1.51472e-06 -0.00115365
1.03663e-05 1.83579e-06 3.88666e-06
1.83579e-06 -0.000179821 5.75648e-07
3.88666e-06 5.75648e-07 -0.000327318
0.00047788 0.000137171 6.5522e-06
0.000137171 0.000262919 -7.77939e-06
6.5522e-06 -7.77939e-06 -6.95159e-06
-0.000837473 0.000133121 -6.24867e-06
0.000133121 -0.000530589 5.06486e-06
-6.24867e-06 5.06486e-06 -0.000739852
0.000473778 4.07747e-05 -1.6672e-06
4.07747e-05 0.000129347 -4.12458e-07
-1.6672e-06 -4.12458e-07 -3.01238e-05
0.000240942 1.05488e-05 2.56246e-07
1.05488e-05 6.28666e-05 -9.11044e-07
2.56246e-07 -9.11044e-07 -0.000159903
3.66935e-05 0.000117838 -5.97356e-06
0.000117838 -8.3615e-05 3.75244e-06
-5.97356e-06 3.75244e-06 -0.00019451
0.000676307 0.00016775 2.76194e-06
0.00016775 0.000423234 -3.95827e-06
2.76194e-06 -3.95827e-06 0.000141673
0.00108236 0.000186388 -4.02887e-06
0.000186388 0.000580783 -5.21138e-06
-4.02887e-06 -5.21138e-06 0.000499629
-0.000107539 7.7671e-05 4.35302e-06
7.7671e-05 -0.000149842 -1.03448e-05
4.35302e-06 -1.03448e-05 -0.000301591
0.000910294 0.000107054 -6.70534e-06
0.000107054 0.000573066 6.45062e-06
-6.70534e-06 6.45062e-06 0.000291386
0.000622864 5.76e-05 -5.60345e-06
5.76e-05 0.000279563 1.82335e-06
-5.60345e-06 1.82335e-06 5.62494e-05
0.000501158 5.22465e-05 3.131e-07
5.22465e-05 0.000125408 2.09965e-06
3.131e-07 2.09965e-06 -2.93261e-05
0.000402431 -8.75939e-05 -2.52459e-06
-8.75939e-05 3.57103e-05 3.31622e-06
-2.52459e-06 3.31622e-06 -7.03931e-05
0.000418473 1.74264e-05 6.92346e-07
1.74264e-05 3.86716e-05 -4.48263e-07
6.92346e-07 -4.48263e-07 -6.1333e-05
0.00134496 3.47655e-05 4.28424e-06
3.47655e-05 0.000624079 4.15528e-06
4.28424e-06 4.15528e-06 0.000593653
0.000417035 1.65806e-05 2.62557e-06
1.65806e-05 2.63193e-05 -2.09381e-06
2.62557e-06 -2.09381e-06 -6.41326e-05
0.00140846 2.21503e-05 -1.36734e-05
2.21503e-05 0.000665256 -2.22174e-06
-1.36734e-05 -2.22174e-06 0.000633174
0.000822759 5.64483e-06 4.10411e-05
5.64483e-06 0.000266431 1.02978e-05
4.10411e-05 1.02978e-05 0.000267369
0.00135913 -2.41896e-05 -1.26279e-05
-2.41896e-05 0.000625514 -8.59014e-06
-1.26279e-05 -8.59014e-06 0.000596119
0.000745272 -1.03329e-05 1.83545e-05
-1.03329e-05 0.000207179 4.43023e-06
1.83545e-05 4.43023e-06 0.000204936
0.000765866 -2.80426e-05 4.30028e-06
-2.80426e-05 0.000216872 -4.02846e-06
4.30028e-06 -4.02846e-06 0.000209632
0.000445271 -3.42966e-05 -7.21459e-08
-3.42966e-05 3.78448e-05 -5.80877e-06
-7.21459e-08 -5.80877e-06 -6.12589e-05
0.000181598 3.5446e-05 -3.18049e-07
3.5446e-05 -0.000142556 -9.42585e-06
-3.18049e-07 -9.42585e-06 -0.000195275
0.000246368 3.18196e-05 1.87847e-06
3.18196e-05 -0.000106536 1.14426e-06
1.87847e-06 1.14426e-06 -0.000167399
0.00369328 0.000147466 1.80724e-06
0.000147466 0.00218716 -9.23919e-06
1.80724e-06 -9.23919e-06 0.00217161
-1.91234e-05 -8.18057e-06 -3.31943e-06
-8.18057e-06 -0.000284447 9.97668e-06
-3.31943e-06 9.97668e-06 -0.000365337
0.00419907 0.000222064 -1.58735e-05
0.000222064 0.00255653 -2.19475e-06
-1.58735e-05 -2.19475e-06 0.0025194
0.00461616 0.000155159 -7.0459e-05
0.000155159 0.00282122 1.00481e-05
-7.0459e-05 1.00481e-05 0.0027996
0.00260341 0.000492376 1.48724e-06
0.000492376 -8.07849e-05 5.54591e-07
1.48724e-06 5.54591e-07 9.63806e-06
0.00246886 0.000265397 -1.78347e-08
0.000265397 -0.000100912 5.76297e-07
-1.78347e-08 5.76297e-07 9.68886e-06
0.00234848 0.000101916 1.74539e-06
0.000101916 -0.000140546 7.48413e-07
1.74539e-06 7.48413e-07 -2.25148e-05
0.00227391 -1.60847e-05 1.47363e-07
-1.60847e-05 -5.28487e-05 -1.01635e-07
1.47363e-07 -1.01635e-07 7.11223e-06
0.00238914 -1.24751e-05 -5.88806e-07
-1.24751e-05 -0.000121839 -9.22776e-08
-5.88806e-07 -9.22776e-08 -5.82151e-06
0.00249481 0.000158291 8.49702e-07
0.000158291 -0.000173075 2.30786e-07
8.49702e-07 2.30786e-07 1.20271e-05
0.00263125 0.000374024 -6.48766e-07
0.000374024 -0.000166448 -4.42583e-08
-6.48766e-07 -4.42583e-08 -1.98793e-06
0.00245668 -1.18137e-05 8.21425e-07
-1.18137e-05 -0.000228428 4.3134e-09
8.21425e-07 4.3134e-09 -2.66823e-05
0.00277175 0.000195748 2.67015e-06
0.000195748 -0.000193438 -1.5663e-06
2.67015e-06 -1.5663e-06 4.73399e-05
0.00256205 0.000202005 -1.62456e-06
0.000202005 -0.00047796 9.94117e-06
-1.62456e-06 9.94117e-06 -0.000179302
0.0024162 -0.000128924 1.24058e-06
-0.000128924 -8.50464e-05 -6.32227e-07
1.24058e-06 -6.32227e-07 1.14076e-05
0.00251806 -0.000364387 -2.16063e-06
-0.000364387 -0.000173034 -1.47033e-07
-2.16063e-06 -1.47033e-07 -2.09713e-05
0.00261456 -0.000602123 5.59946e-07
-0.000602123 -6.13831e-05 3.44291e-07
5.59946e-07 3.44291e-07 4.86478e-06
0.00241686 -0.00128936 -1.73427e-06
-0.00128936 0.000896974 -3.07591e-06
-1.73427e-06 -3.07591e-06 8.31168e-05
0.00196743 -0.00127524 2.89247e-05
-0.00127524 0.00038951 -5.42081e-06
2.89247e-05 -5.42081e-06 -0.000344768
0.00271114 -0.00116864 2.18373e-05
-0.00116864 0.000551854 -1.4776e-06
2.18373e-05 -1.4776e-06 3.14004e-05
0.00265277 -0.000847446 1.46001e-06
-0.000847446 3.2477e-06 -1.3115e-06
1.46001e-06 -1.3115e-06 -3.31562e-05
0.00282054 -0.00107237 5.11952e-06
-0.00107237 0.0003495 4.58135e-06
5.11952e-06 4.58135e-06 7.87669e-05
0.00221608 -0.00111885 6.8721e-06
-0.00111885 0.00101225 -2.29449e-05
6.8721e-06 -2.29449e-05 0.000199403
9.70548e-05 -0.000591496 1.37458e-05
-0.000591496 -7.38135e-05 -1.60859e-05
1.37458e-05 -1.60859e-05 -0.000901111
0.00291151 -0.000462822 4.21742e-06
-0.000462822 0.00156873 -9.7109e-07
4.21742e-06 -9.7109e-07 0.00115496
0.000683472 -8.36514e-05 -3.59618e-06
-8.36514e-05 0.000238439 9.02322e-06
-3.59618e-06 9.02322e-06 9.60363e-05
-0.000387169 -1.92249e-05 8.64183e-06
-1.92249e-05 -0.000349045 -8.03092e-06
8.64183e-06 -8.03092e-06 -0.000699515
-0.00091953 -0.00014391 6.25294e-06
-0.00014391 -0.000862522 -1.49396e-05
6.25294e-06 -1.49396e-05 -0.00124295
0.00250192 -0.000184701 4.71693e-08
-0.000184701 -0.000189035 -5.55464e-07
4.71693e-08 -5.55464e-07 2.1609e-06
0.000594591 -5.52889e-05 1.95054e-06
-5.52889e-05 0.000149074 4.17355e-07
1.95054e-06 4.17355e-07 3.55039e-05
0.000358843 -0.000122067 -3.67456e-06
-0.000122067 5.86525e-05 -2.05075e-07
-3.67456e-06 -2.05075e-07 -0.000102269
0.00269565 -0.000504181 -1.44434e-08
-0.000504181 -0.000208313 1.58263e-07
-1.44434e-08 1.58263e-07 -6.1592e-07
0.00270164 -0.000766286 -1.6726e-06
-0.000766286 -7.71464e-05 3.7251e-07
-1.6726e-06 3.7251e-07 -5.33257e-06
0.00251036 -0.00138175 6.15334e-07
-0.00138175 0.000991345 1.48092e-06
6.15334e-07 1.48092e-06 0.000163492
0.00303999 -0.00157105 1.05225e-05
-0.00157105 0.000956817 -2.72505e-06
1.05225e-05 -2.72505e-06 0.000140803
0.00288074 -0.00133676 3.73465e-06
-0.00133676 0.000538801 -8.1994e-07
3.73465e-06 -8.1994e-07 5.09492e-05
0.00278809 -0.00107066 2.46534e-06
-0.00107066 0.000124809 -1.27736e-06
2.46534e-06 -1.27736e-06 -1.41513e-05
0.000117501 -5.18254e-05 -3.14889e-06
-5.18254e-05 -1.18348e-05 -2.08197e-06
-3.14889e-06 -2.08197e-06 -0.000283877
0.000771763 -0.000240454 -5.29664e-07
-0.000240454 0.000486594 4.73053e-07
-5.29664e-07 4.73053e-07 8.0653e-05
0.00169136 -0.00105601 1.56879e-05
-0.00105601 0.00068503 6.67071e-06
1.56879e-05 6.67071e-06 -0.000102012
0.00128877 -0.000841409 1.61894e-05
-0.000841409 0.000700569 -1.75028e-05
1.61894e-05 -1.75028e-05 -0.000309619
0.000952437 -0.000395794 -2.56049e-06
-0.000395794 0.000426338 3.08608e-07
-2.56049e-06 3.08608e-07 -0.000169781
0.0010244 -0.000219736 8.61717e-06
-0.000219736 0.000478987 -2.93576e-06
8.61717e-06 -2.93576e-06 0.000182879
0.00255528 -0.000223 2.3109e-06
-0.000223 -0.00043812 -2.05401e-06
2.3109e-06 -2.05401e-06 -0.000123946
0.00292617 -0.000680889 -1.18064e-06
-0.000680889 -0.00016316 4.38356e-06
-1.18064e-06 4.38356e-06 0.000105408
0.00312038 -0.0011312 4.68695e-08
-0.0011312 0.000106925 -2.98839e-07
4.68695e-08 -2.98839e-07 6.92966e-05
0.00262448 -0.0012694 4.52373e-06
-0.0012694 0.00017054 -7.387e-06
4.52373e-06 -7.387e-06 -0.000149604
0.00099903 -0.00122672 4.86278e-06
-0.00122672 0.000144985 -8.54728e-06
4.86278e-06 -8.54728e-06 -0.000653723
0.00379658 -0.00184498 2.65099e-06
-0.00184498 0.00120785 -1.45459e-05
2.65099e-06 -1.45459e-05 0.000367922
0.000382839 7.36585e-05 -3.89666e-06
7.36585e-05 5.70699e-05 -5.87963e-06
-3.89666e-06 -5.87963e-06 -9.9712e-05
-0.000769218 -9.37551e-05 4.98949e-06
-9.37551e-05 -0.000655233 -2.13405e-06
4.98949e-06 -2.13405e-06 -0.000832581
0.00184178 -0.000275585 -1.0694e-05
-0.000275585 0.00104831 1.51664e-05
-1.0694e-05 1.51664e-05 0.000833537
0.000300858 -8.95265e-05 -6.89119e-06
-8.95265e-05 0.000115037 1.79333e-05
-6.89119e-06 1.79333e-05 -0.000198786
0.0015001 -0.000373756 -1.42669e-05
-0.000373756 0.000923906 2.97148e-05
-1.42669e-05 2.97148e-05 0.000538131
-0.000718979 -9.89531e-05 -1.06166e-05
-9.89531e-05 -0.000661988 -1.8004e-05
-1.06166e-05 -1.8004e-05 -0.000904953
-0.00140497 -0.000392284 -2.4745e-05
-0.000392284 -0.000480279 1.22149e-05
-2.4745e-05 1.22149e-05 -0.00162386
0.00158376 -0.00138542 -6.87236e-05
-0.00138542 0.00038502 2.76088e-05
-6.87236e-05 2.76088e-05 -0.000281756
-0.000373267 0.000416331 2.76116e-06
0.000416331 -0.000251649 3.00517e-06
2.76116e-06 3.00517e-06 -0.000648725
0.00378305 0.000732394 -3.52837e-06
0.000732394 0.00239505 -1.58731e-06
-3.52837e-06 -1.58731e-06 0.00188639
0.0026979 0.000642619 -2.61759e-06
0.000642619 -0.000367685 -3.77996e-06
-2.61759e-06 -3.77996e-06 -0.00012799
0.00309544 0.00098133 -5.17361e-06
0.00098133 0.000302687 -3.82729e-07
-5.17361e-06 -3.82729e-07 0.000119424
0.00356841 0.000820362 -8.13339e-06
0.000820362 0.00162254 4.45167e-06
-8.13339e-06 4.45167e-06 0.00115531
0.00166641 0.00112897 -1.96979e-05
0.00112897 0.000414405 -4.1894e-06
-1.96979e-05 -4.1894e-06 -0.000325631
0.00250058 0.00113933 -6.30022e-06
0.00113933 0.0003883 3.59273e-06
-6.30022e-06 3.59273e-06 -0.000142311
0.00300381 0.00153985 -1.39732e-05
0.00153985 0.000978686 -7.80339e-07
-1.39732e-05 -7.80339e-07 0.000137506
0.000357827 0.000342324 2.52375e-06
0.000342324 0.000241183 4.97339e-07
2.52375e-06 4.97339e-07 -8.41619e-05
0.00273678 0.000462299 -4.1999e-06
0.000462299 -0.00034898 -4.78827e-06
-4.1999e-06 -4.78827e-06 -6.32094e-05
0.00208281 0.000720215 2.35343e-06
0.000720215 0.00141267 6.28058e-06
2.35343e-06 6.28058e-06 0.000825863
0.00159926 0.000939362 2.88808e-06
0.000939362 0.000404171 2.32745e-06
2.88808e-06 2.32745e-06 -0.000217826
0.0030155 0.000925068 2.6916e-07
0.000925068 5.91996e-05 5.49518e-07
2.6916e-07 5.49518e-07 0.000148833
0.00244136 0.00121072 -3.33886e-06
0.00121072 0.000180164 -6.66162e-06
-3.33886e-06 -6.66162e-06 -0.000318706
0.00323122 0.00158961 -1.88193e-06
0.00158961 0.00108246 -5.05889e-07
-1.88193e-06 -5.05889e-07 0.000220457
0.00172926 0.000554015 -1.08508e-05
0.000554015 0.00122562 -1.78897e-06
-1.08508e-05 -1.78897e-06 0.000771048
0.00466422 0.000984255 -0.000142241
0.000984255 0.000580932 -5.68564e-05
-0.000142241 -5.68564e-05 0.00108369
0.00109004 0.000749762 -9.6601e-06
0.000749762 0.000650876 1.87526e-05
-9.6601e-06 1.87526e-05 2.93584e-05
0.00154056 0.00105141 3.06292e-07
0.00105141 0.000398138 -1.1376e-05
3.06292e-07 -1.1376e-05 -0.000328379
0.00378447 0.00134243 -5.25261e-05
0.00134243 0.000782552 -2.63094e-05
-5.25261e-05 -2.63094e-05 0.00051679
0.00187552 0.00137484 -3.37689e-05
0.00137484 0.000312707 -7.76745e-06
-3.37689e-05 -7.76745e-06 -0.000453021
0.00125619 0.00212664 -5.11294e-06
0.00212664 -0.0035121 -7.7995e-05
-5.11294e-06 -7.7995e-05 -0.00149857
0.00109574 0.000284593 1.27394e-05
0.000284593 0.000696793 1.41094e-05
1.27394e-05 1.41094e-05 0.00051064
0.000211632 0.000179322 -3.05412e-06
0.000179322 0.000140112 -8.37119e-07
-3.05412e-06 -8.37119e-07 -1.38987e-05
-0.000808568 8.54155e-05 -8.11904e-06
8.54155e-05 -0.000500893 3.7423e-06
-8.11904e-06 3.7423e-06 -0.000651659
0.000285493 -6.31368e-05 4.04346e-06
-6.31368e-05 6.54693e-06 -1.20314e-06
4.04346e-06 -1.20314e-06 -0.000153452
-0.000397515 1.5457e-05 5.006e-06
1.5457e-05 -0.000348434 -3.90381e-06
5.006e-06 -3.90381e-06 -0.000570646
0.00193327 0.00034861 8.0242e-07
0.00034861 0.00126093 -9.76973e-06
8.0242e-07 -9.76973e-06 0.000951645
-0.00160283 8.45705e-06 -6.93657e-06
8.45705e-06 -0.00107229 1.09267e-05
-6.93657e-06 1.09267e-05 -0.00117666
0.000450295 -4.31253e-06 -1.47981e-07
-4.31253e-06 0.000107272 -4.26865e-07
-1.47981e-07 -4.26865e-07 -5.69262e-05
0.000359049 9.65714e-05 5.62271e-07
9.65714e-05 6.76242e-05 -5.65709e-07
5.62271e-07 -5.65709e-07 -0.000118705
-0.000172863 0.00011817 1.69863e-06
0.00011817 -0.000183829 3.43309e-06
1.69863e-06 3.43309e-06 -0.000241648
3.53467e-05 9.00661e-05 7.85644e-07
9.00661e-05 -2.40443e-05 8.73815e-08
7.85644e-07 8.73815e-08 -0.00028114
0.000327554 9.56656e-05 5.5949e-07
9.56656e-05 0.000127819 9.70445e-07
5.5949e-07 9.70445e-07 -3.61025e-05
0.000240879 0.000118946 1.17278e-05
0.000118946 0.000186837 -1.13451e-05
1.17278e-05 -1.13451e-05 4.46573e-05
0.000865507 0.000163166 -5.73032e-06
0.000163166 0.000512935 6.4089e-06
-5.73032e-06 6.4089e-06 0.000269679
0.000816994 0.000132665 -4.7194e-06
0.000132665 0.000440799 2.46978e-06
-4.7194e-06 2.46978e-06 0.000210701
0.000781797 0.000146593 -7.66805e-06
0.000146593 0.000359654 -3.59916e-06
-7.66805e-06 -3.59916e-06 0.00015774
7.28178e-05 3.2707e-06 -3.09922e-06
3.2707e-06 -0.000168872 -1.05145e-07
-3.09922e-06 -1.05145e-07 -0.000315658
0.00152273 -0.000225463 8.06547e-06
-0.000225463 0.000976138 -1.05008e-05
8.06547e-06 -1.05008e-05 0.00065576
0.000143314 -7.51943e-05 -2.83304e-06
-7.51943e-05 -9.79757e-05 3.07755e-06
-2.83304e-06 3.07755e-06 -0.000267389
0.000285384 2.20629e-06 -2.8307e-06
2.20629e-06 -3.40196e-05 2.74602e-06
-2.8307e-06 2.74602e-06 -0.000141594
0.00038947 5.11801e-05 2.34147e-06
5.11801e-05 3.37651e-05 -9.17891e-08
2.34147e-06 -9.17891e-08 -7.54839e-05
0.000292734 1.95615e-05 -3.54079e-06
1.95615e-05 -6.19326e-05 5.5608e-06
-3.54079e-06 5.5608e-06 -9.89566e-05
0.00027352 -2.26016e-06 -6.13094e-07
-2.26016e-06 -4.44067e-05 -3.74202e-06
-6.13094e-07 -3.74202e-06 -0.000152422
0.000831404 1.82168e-05 -5.34819e-06
1.82168e-05 0.000289563 -1.60232e-06
-5.34819e-06 -1.60232e-06 0.000255851
0.0027628 1.05606e-05 3.68139e-05
1.05606e-05 0.00154685 6.85807e-06
3.68139e-05 6.85807e-06 0.00155787
0.00142764 7.05199e-05 -2.29777e-05
7.05199e-05 0.00068385 -8.71666e-06
-2.29777e-05 -8.71666e-06 0.000649757
0.00075934 -1.65684e-06 1.73825e-05
-1.65684e-06 0.000219941 4.25738e-06
1.73825e-05 4.25738e-06 0.000219382
0.000786444 -1.77856e-05 3.42971e-06
-1.77856e-05 0.00023015 -3.46387e-06
3.42971e-06 -3.46387e-06 0.000226508
0.000260343 9.04013e-06 -3.28212e-06
9.04013e-06 -6.14679e-05 -6.93674e-06
-3.28212e-06 -6.93674e-06 -0.000158122
0.000619502 -6.92419e-05 4.41828e-07
-6.92419e-05 0.000166815 -5.91344e-07
4.41828e-07 -5.91344e-07 5.68108e-05
0.000309807 2.69702e-05 -8.51704e-07
2.69702e-05 -6.99055e-05 -7.12474e-06
-8.51704e-07 -7.12474e-06 -0.000110465
0.000952835 4.49502e-05 -1.13038e-08
4.49502e-05 0.000359503 1.0635e-07
-1.13038e-08 1.0635e-07 0.000311495
0.00312201 0.00011668 -1.1618e-05
0.00011668 0.00180237 -8.81791e-06
-1.1618e-05 -8.81791e-06 0.00179536
0.000506928 3.56077e-05 2.90564e-07
3.56077e-05 7.3082e-05 1.08263e-05
2.90564e-07 1.08263e-05 8.46613e-06
0.00312703 0.000147156 -1.91849e-06
0.000147156 0.00181741 -6.36636e-08
-1.91849e-06 -6.36636e-08 0.00180177
0.00446423 0.000149174 -2.98266e-05
0.000149174 0.00270645 9.88913e-06
-2.98266e-05 9.88913e-06 0.0026829
0.00255802 0.000388892 -1.25791e-06
0.000388892 -0.00019714 -6.6972e-07
-1.25791e-06 -6.6972e-07 -3.25828e-05
0.0024476 0.000157612 6.70665e-08
0.000157612 -0.000207441 7.93201e-07
6.70665e-08 7.93201e-07 -1.88009e-05
0.00239588 -8.9994e-06 1.63841e-06
-8.9994e-06 -0.000121634 5.06123e-08
1.63841e-06 5.06123e-08 -1.52312e-06
0.00243798 -3.40307e-06 -3.55259e-08
-3.40307e-06 -0.000241247 -2.79502e-08
-3.55259e-08 -2.79502e-08 -3.81158e-05
0.00275021 0.000209808 1.15781e-06
0.000209808 -0.000195354 2.23233e-07
1.15781e-06 2.23233e-07 4.58742e-05
0.00273832 0.000170312 5.49211e-06
0.000170312 -0.000361976 -2.89507e-06
5.49211e-06 -2.89507e-06 -7.47419e-05
0.00288735 5.79235e-05 2.94327e-06
5.79235e-05 -0.000260697 1.55337e-06
2.94327e-06 1.55337e-06 4.89358e-05
0.00680097 0.00235811 1.75329e-05
0.00235811 -0.00157115 2.16577e-05
1.75329e-05 2.16577e-05 0.000801332
0.00287713 0.000211447 -7.52488e-05
0.000211447 -0.000388977 1.52365e-05
-7.52488e-05 1.52365e-05 0.000154385
0.000357991 0.0001227 -4.48322e-06
0.0001227 4.42328e-05 -2.86773e-06
-4.48322e-06 -2.86773e-06 -0.000105686
0.00251254 -0.000184516 -1.20987e-06
-0.000184516 -0.00019009 -5.71261e-07
-1.20987e-06 -5.71261e-07 5.7581e-06
0.00263741 -0.00049241 -3.16868e-06
-0.00049241 -0.000227689 -9.23493e-07
-3.16868e-06 -9.23493e-07 -3.17001e-05
0.00272661 -0.000750781 1.28766e-06
-0.000750781 -4.34099e-05 -1.45659e-06
1.28766e-06 -1.45659e-06 3.27495e-05
0.00212097 -0.00133705 -9.04254e-06
-0.00133705 0.000775631 1.14339e-06
-9.04254e-06 1.14339e-06 -4.49998e-05
0.00240153 -0.00145414 2.76805e-05
-0.00145414 0.000590917 3.06313e-06
2.76805e-05 3.06313e-06 -0.00018351
0.0027054 -0.00130485 -4.63157e-06
-0.00130485 0.000459531 1.11233e-05
-4.63157e-06 1.11233e-05 -2.03082e-05
0.00269569 -0.00107001 1.33825e-06
-0.00107001 6.3206e-05 -1.64819e-06
1.33825e-06 -1.64819e-06 -6.99623e-05
0.00241433 -0.00111682 4.83144e-05
-0.00111682 0.00106752 -5.71719e-05
4.83144e-05 -5.71719e-05 0.000308996
0.00221665 -0.00101258 4.05096e-05
-0.00101258 0.00117105 -4.74492e-05
4.05096e-05 -4.74492e-05 0.000194456
-4.39556e-05 -0.000367664 1.81414e-05
-0.000367664 -0.000120691 7.96067e-06
1.81414e-05 7.96067e-06 -0.000768564
0.000458563 -2.92057e-05 -1.16371e-07
-2.92057e-05 5.5301e-05 6.33707e-06
-1.16371e-07 6.33707e-06 -6.33269e-05
0.00108076 -0.000265995 -3.33384e-06
-0.000265995 0.000520007 4.06321e-07
-3.33384e-06 4.06321e-07 0.000206618
0.00157885 -0.000187552 9.81208e-06
-0.000187552 0.00100162 -4.22574e-06
9.81208e-06 -4.22574e-06 0.000686042
-6.44483e-05 -0.000127564 6.28069e-06
-0.000127564 -0.000100013 -1.54212e-05
6.28069e-06 -1.54212e-05 -0.000475331
0.000377257 -0.000101831 -7.33774e-06
-0.000101831 7.93126e-05 5.20417e-06
-7.33774e-06 5.20417e-06 -8.83568e-05
0.00266882 -0.000244707 -8.99218e-07
-0.000244707 -0.000361599 -1.23267e-06
-8.99218e-07 -1.23267e-06 -4.87126e-05
0.000532565 6.88131e-05 1.12167e-06
6.88131e-05 0.000172548 -2.37295e-06
1.12167e-06 -2.37295e-06 3.73729e-06
0.000730965 -0.000195334 2.18385e-06
-0.000195334 0.00040589 2.84246e-06
2.18385e-06 2.84246e-06 0.000167547
0.000724992 -0.000160595 9.83158e-06
-0.000160595 0.000307064 8.82713e-07
9.83158e-06 8.82713e-07 0.000122135
0.0027613 -0.000678787 2.66129e-06
-0.000678787 -0.000282127 -6.02796e-07
2.66129e-06 -6.02796e-07 -2.42544e-05
0.00302361 -0.0010992 -8.42713e-07
-0.0010992 7.54411e-05 -1.15956e-07
-8.42713e-07 -1.15956e-07 5.07659e-05
0.00220578 -0.00132575 -3.90828e-06
-0.00132575 0.00079686 2.18885e-06
-3.90828e-06 2.18885e-06 3.63098e-05
0.00262398 -0.0016659 1.17434e-05
-0.0016659 0.00056175 -9.77633e-07
1.17434e-05 -9.77633e-07 -0.000225391
0.00283038 -0.00131129 4.76583e-07
-0.00131129 0.000292678 3.83281e-07
4.76583e-07 3.83281e-07 -5.07744e-05
0.0002104 -9.31077e-05 -1.2678e-06
-9.31077e-05 5.04115e-05 -8.57167e-07
-1.2678e-06 -8.57167e-07 -0.000254183
0.00158812 -0.000347231 8.8949e-06
-0.000347231 0.00099587 -7.45927e-07
8.8949e-06 -7.45927e-07 0.000609065
0.00337154 -0.0016717 -3.93904e-06
-0.0016717 0.00143431 1.06214e-05
-3.93904e-06 1.06214e-05 0.000566103
0.00185741 -0.000671272 -3.41428e-06
-0.000671272 0.00111092 8.79562e-06
-3.41428e-06 8.79562e-06 0.000232682
0.00196794 -0.000234026 1.18744e-05
-0.000234026 0.00102658 1.17014e-05
1.18744e-05 1.17014e-05 0.000737026
0.00297289 -0.00047548 -2.38508e-05
-0.00047548 -0.000314381 4.92305e-06
-2.38508e-05 4.92305e-06 7.38493e-05
0.00265534 -0.000799426 -2.40314e-05
-0.000799426 -0.000356928 1.21038e-05
-2.40314e-05 1.21038e-05 6.30981e-06
0.00307911 -0.00134277 -4.80846e-06
-0.00134277 0.000283134 -7.4572e-06
-4.80846e-06 -7.4572e-06 1.35214e-05
0.0033858 -0.00161415 1.16177e-05
-0.00161415 0.000873649 -8.20279e-06
1.16177e-05 -8.20279e-06 0.000268763
0.00171634 -0.00149804 8.10128e-06
-0.00149804 0.000328286 4.18664e-06
8.10128e-06 4.18664e-06 -0.000458715
0.000750956 1.79916e-06 -3.05883e-06
1.79916e-06 0.000336667 1.42636e-06
-3.05883e-06 1.42636e-06 0.000178104
-0.000550349 -8.05481e-05 -6.43927e-06
-8.05481e-05 -0.000553728 2.05063e-05
-6.43927e-06 2.05063e-05 -0.000762644
0.000247336 -0.000222041 -6.31833e-06
-0.000222041 5.86116e-05 5.44247e-06
-6.31833e-06 5.44247e-06 -0.00013797
0.00209828 -0.000465615 -5.30893e-05
-0.000465615 0.00127623 5.17964e-05
-5.30893e-05 5.17964e-05 0.000909093
0.00133189 -0.000282868 4.21565e-06
-0.000282868 0.000764673 2.6203e-05
4.21565e-06 2.6203e-05 0.00047404
-0.000932467 -0.000135008 -9.92219e-06
-0.000135008 -0.000191881 1.3794e-06
-9.92219e-06 1.3794e-06 -0.000903489
0.00259227 -0.00178596 -2.66462e-05
-0.00178596 0.00131009 -1.63952e-05
-2.66462e-05 -1.63952e-05 0.000270319
0.00289995 0.000775927 7.59149e-06
0.000775927 0.00187448 3.84587e-06
7.59149e-06 3.84587e-06 0.00146328
-0.000717886 0.000318687 -5.39624e-07
0.000318687 -0.000291953 -3.87071e-06
-5.39624e-07 -3.87071e-06 -0.000776489
0.002694 0.0004475 1.44378e-05
0.0004475 -0.000389579 3.37416e-06
1.44378e-05 3.37416e-06 -7.22654e-05
0.00312297 0.000889149 2.22518e-05
0.000889149 0.000164235 1.38252e-05
2.22518e-05 1.38252e-05 0.000259206
0.00300602 0.00130204 4.53576e-06
0.00130204 0.000518334 5.01347e-06
4.53576e-06 5.01347e-06 7.26215e-06
0.00139443 0.000891983 -6.47118e-06
0.000891983 0.000346513 1.74485e-06
-6.47118e-06 1.74485e-06 -0.000263801
0.00272778 0.00147569 2.9158e-06
0.00147569 0.000818384 7.25849e-06
2.9158e-06 7.25849e-06 -6.19316e-06
0.00280759 0.000625716 -4.40815e-07
0.000625716 0.00189831 -8.33902e-07
-4.40815e-07 -8.33902e-07 0.00145763
0.00327825 0.000777551 2.12528e-05
0.000777551 -0.000216218 6.55199e-06
2.12528e-05 6.55199e-06 0.000398223
0.00113561 0.000694609 -7.10698e-06
0.000694609 0.000614919 7.90333e-06
-7.10698e-06 7.90333e-06 5.46592e-05
0.00219662 0.00117398 3.92697e-06
0.00117398 0.000806157 -2.45283e-06
3.92697e-06 -2.45283e-06 3.09989e-05
0.00314685 0.00123455 -3.7801e-06
0.00123455 0.000481988 -4.11109e-06
-3.7801e-06 -4.11109e-06 0.000268657
0.00266431 0.00150202 -4.34687e-06
0.00150202 0.000742779 8.32913e-06
-4.34687e-06 8.32913e-06 -6.03808e-05
0.00300389 0.00257987 5.64533e-05
0.00257987 -0.00286145 6.20517e-06
5.64533e-05 6.20517e-06 -0.00100882
0.000261106 0.000417018 1.62027e-06
0.000417018 0.000444568 5.0127e-06
1.62027e-06 5.0127e-06 -0.000114109
0.00461069 0.00163788 -0.000142382
0.00163788 0.000624876 -5.94715e-05
-0.000142382 -5.94715e-05 0.000762908
0.000196589 0.00070807 -2.039e-05
0.00070807 -0.000191267 8.91735e-06
-2.039e-05 8.91735e-06 -0.000777376
0.00143446 0.00121666 -7.57013e-06
0.00121666 0.00029225 -2.56805e-05
-7.57013e-06 -2.56805e-05 -0.000481839
0.00367011 0.00176813 -6.10738e-05
0.00176813 0.000993201 -3.40614e-05
-6.10738e-05 -3.40614e-05 0.000381741
0.0158561 0.0011459 -0.00095198
0.0011459 -0.00104219 -7.43971e-05
-0.00095198 -7.43971e-05 0.00115412
0.00271834 0.00396727 -0.000212811
0.00396727 -0.00568593 -0.000197739
-0.000212811 -0.000197739 -0.000476201
0.00073024 0.00296456 3.23078e-05
0.00296456 -0.00180974 -1.04721e-05
3.23078e-05 -1.04721e-05 -0.00149329
0.00656419 -0.0078804 0.00406342
-0.0078804 0.00530598 -0.000311697
0.00406342 -0.000311697 -0.003958
0.0375793 -0.0199079 -0.000209393
-0.0199079 0.0267151 -1.50201e-05
-0.000209393 -1.50201e-05 0.0101846
0.00274682 0.000355929 1.76952e-05
0.000355929 0.00177335 6.20389e-06
1.76952e-05 6.20389e-06 0.0015805
0.00048949 0.000162168 1.79728e-06
0.000162168 0.000364963 2.05449e-06
1.79728e-06 2.05449e-06 0.000174848
0.000288809 0.000236081 9.77208e-06
0.000236081 0.000317678 -3.47496e-06
9.77208e-06 -3.47496e-06 6.19234e-05
0.00055036 -5.95675e-05 2.54084e-06
-5.95675e-05 0.000185686 -5.49107e-07
2.54084e-06 -5.49107e-07 1.30848e-05
0.000595248 8.82566e-05 6.51024e-06
8.82566e-05 0.000246004 -2.57145e-06
6.51024e-06 -2.57145e-06 5.48194e-05
0.000169603 -2.92226e-05 4.0001e-06
-2.92226e-05 5.61269e-05 -6.03275e-06
4.0001e-06 -6.03275e-06 -0.000196878
0.000729174 0.000130716 6.98885e-06
0.000130716 0.000370859 3.99448e-06
6.98885e-06 3.99448e-06 0.000202811
-0.00034057 0.000109277 8.48966e-06
0.000109277 -0.000267301 1.12092e-05
8.48966e-06 1.12092e-05 -0.000303428
0.000692396 0.000150086 -2.91936e-06
0.000150086 0.000407894 1.94165e-06
-2.91936e-06 1.94165e-06 0.000153476
0.000370731 -5.28603e-06 4.05109e-07
-5.28603e-06 3.81661e-05 6.12818e-07
4.05109e-07 6.12818e-07 -0.00012059
0.000771444 8.66117e-05 -9.8886e-07
8.66117e-05 0.0003557 2.94339e-07
-9.8886e-07 2.94339e-07 0.000152919
0.00017086 0.000121796 -1.94617e-06
0.000121796 0.000112476 -4.84908e-06
-1.94617e-06 -4.84908e-06 -1.34215e-05
0.000362455 9.865e-05 1.15549e-06
9.865e-05 0.000186822 2.71402e-07
1.15549e-06 2.71402e-07 -4.08627e-05
0.00141978 0.000199316 -2.44407e-06
0.000199316 0.000916352 9.55886e-06
-2.44407e-06 9.55886e-06 0.00063865
0.000262508 9.85628e-05 1.25138e-06
9.85628e-05 0.000240327 -2.94412e-06
1.25138e-06 -2.94412e-06 -2.1684e-05
0.000731646 0.000114504 -1.20735e-06
0.000114504 0.000423974 -3.43826e-07
-1.20735e-06 -3.43826e-07 0.000185985
0.000270917 9.20224e-06 -3.97479e-06
9.20224e-06 -8.09316e-06 -4.6107e-06
-3.97479e-06 -4.6107e-06 -0.000192438
3.80177e-05 -4.94559e-05 -1.75184e-06
-4.94559e-05 -0.000181354 -1.61181e-06
-1.75184e-06 -1.61181e-06 -0.000340489
-0.000254169 -2.51618e-05 2.46417e-06
-2.51618e-05 -0.000312098 -6.09878e-06
2.46417e-06 -6.09878e-06 -0.00050236
0.00118599 -0.00015634 1.37161e-05
-0.00015634 0.000699662 7.95262e-06
1.37161e-05 7.95262e-06 0.000482403
0.000883359 -0.000109961 2.09546e-06
-0.000109961 0.000549955 -5.52253e-06
2.09546e-06 -5.52253e-06 0.000277757
0.00112973 -0.000236461 2.96236e-06
-0.000236461 0.000660586 1.02006e-06
2.96236e-06 1.02006e-06 0.000391952
0.00038025 -0.000145887 -4.3e-06
-0.000145887 9.05212e-05 -3.45714e-06
-4.3e-06 -3.45714e-06 -9.57991e-05
-0.000364014 -5.13975e-05 -1.00566e-06
-5.13975e-05 -0.000426792 1.8653e-06
-1.00566e-06 1.8653e-06 -0.00059816
0.000455362 -8.76736e-05 -2.66668e-06
-8.76736e-05 6.33655e-05 2.3824e-06
-2.66668e-06 2.3824e-06 -3.53161e-05
0.000464375 -5.66851e-05 2.83438e-06
-5.66851e-05 8.14977e-05 6.68788e-08
2.83438e-06 6.68788e-08 -2.74561e-05
0.000318164 4.01703e-06 5.18414e-06
4.01703e-06 -4.21938e-05 7.42836e-06
5.18414e-06 7.42836e-06 -7.9797e-05
0.00044517 7.70786e-05 -1.49254e-06
7.70786e-05 6.05206e-05 -3.93227e-06
-1.49254e-06 -3.93227e-06 -4.25432e-05
0.000304309 3.18943e-05 5.17686e-07
3.18943e-05 -5.50198e-05 1.92172e-07
5.17686e-07 1.92172e-07 -9.1524e-05
0.00271732 1.761e-05 2.35975e-05
1.761e-05 0.00151778 6.44861e-06
2.35975e-05 6.44861e-06 0.00152773
0.000341279 8.02129e-05 -6.52901e-06
8.02129e-05 -2.55783e-05 -9.08108e-06
-6.52901e-06 -9.08108e-06 -6.83939e-05
0.00171158 2.39933e-06 -1.41789e-05
2.39933e-06 0.000850998 -1.16722e-07
-1.41789e-05 -1.16722e-07 0.000855356
0.000765826 -7.82572e-06 2.27441e-06
-7.82572e-06 0.000217165 -2.29012e-06
2.27441e-06 -2.29012e-06 0.000216237
0.000393494 2.39058e-05 -1.14184e-07
2.39058e-05 3.28987e-06 -3.95213e-06
-1.14184e-07 -3.95213e-06 -6.8271e-05
0.000422404 -5.45719e-05 1.43733e-06
-5.45719e-05 4.30933e-05 1.2006e-07
1.43733e-06 1.2006e-07 -5.48248e-05
0.000366269 -9.02351e-07 2.26225e-06
-9.02351e-07 -3.78904e-05 -6.46632e-06
2.26225e-06 -6.46632e-06 -6.85496e-05
0.000538998 -8.7365e-05 -1.273e-06
-8.7365e-05 0.000113278 2.93889e-06
-1.273e-06 2.93889e-06 7.86936e-07
0.000931667 3.88075e-05 8.95631e-07
3.88075e-05 0.000342213 -1.02894e-06
8.95631e-07 -1.02894e-06 0.000303069
0.00282828 8.22916e-05 -6.21785e-06
8.22916e-05 0.00159693 -7.54473e-06
-6.21785e-06 -7.54473e-06 0.00159829
0.000263113 2.6961e-05 -1.55615e-06
2.6961e-05 -0.00010459 8.82798e-06
-1.55615e-06 8.82798e-06 -0.000154587
0.00341923 0.000130983 -4.85938e-06
0.000130983 0.00200596 1.78055e-06
-4.85938e-06 1.78055e-06 0.00199575
0.00367482 0.000173583 3.36029e-05
0.000173583 0.00219123 1.44648e-05
3.36029e-05 1.44648e-05 0.00216913
0.00271745 0.000226163 -2.81585e-06
0.000226163 -0.0002035 -7.46381e-07
-2.81585e-06 -7.46381e-07 3.77438e-05
0.00243035 2.36331e-06 -4.92456e-07
2.36331e-06 -0.000241717 -2.93773e-07
-4.92456e-07 -2.93773e-07 -3.80175e-05
0.00297328 0.000136407 3.75214e-06
0.000136407 -0.000188989 -1.90105e-06
3.75214e-06 -1.90105e-06 6.93543e-05
0.00273195 0.00177588 0.000164153
0.00177588 -0.00373367 6.51736e-05
0.000164153 6.51736e-05 -0.00125282
0.00287144 1.824e-05 -1.83159e-06
1.824e-05 -0.000267222 3.26547e-07
-1.83159e-06 3.26547e-07 4.67314e-05
0.00292056 0.000169901 1.10117e-06
0.000169901 -0.000334236 -3.61499e-06
1.10117e-06 -3.61499e-06 0.000144405
0.00317404 -0.000110319 -5.14135e-05
-0.000110319 4.05511e-06 8.24999e-07
-5.14135e-05 8.24999e-07 0.000353494
0.00336748 0.00150983 -0.000238635
0.00150983 -0.00386856 1.05926e-05
-0.000238635 1.05926e-05 -0.000527833
0.00424073 0.000593489 0.00013726
0.000593489 -0.00171372 6.71797e-05
0.00013726 6.71797e-05 -0.000166826
0.000350523 8.29196e-05 1.1078e-06
8.29196e-05 3.79242e-05 -3.60229e-06
1.1078e-06 -3.60229e-06 -0.000104015
0.000549399 -4.05149e-05 2.18463e-07
-4.05149e-05 0.000185125 -2.14611e-07
2.18463e-07 -2.14611e-07 2.28971e-05
0.000367869 -0.000120309 -5.68795e-08
-0.000120309 8.17372e-05 3.61903e-06
-5.68795e-08 3.61903e-06 -6.90661e-05
0.00041085 -9.62563e-05 3.22854e-08
-9.62563e-05 0.000102127 5.22884e-07
3.22854e-08 5.22884e-07 -7.10606e-05
0.00279538 -0.000267575 -3.74113e-06
-0.000267575 -0.00027643 3.53542e-06
-3.74113e-06 3.53542e-06 3.62637e-05
0.00271798 -0.000680339 -5.71192e-07
-0.000680339 -0.00030367 -2.35184e-06
-5.71192e-07 -2.35184e-06 -6.7491e-05
0.0029163 -0.00106905 -2.42023e-06
-0.00106905 3.381e-05 -1.13781e-07
-2.42023e-06 -1.13781e-07 2.22038e-05
0.00308394 -0.00144977 1.33563e-05
-0.00144977 0.00131733 5.51173e-06
1.33563e-05 5.51173e-06 0.00051927
0.00285958 -0.001755 -2.06685e-05
-0.001755 0.000667793 1.85841e-05
-2.06685e-05 1.85841e-05 -0.000135756
0.00300024 -0.00134201 7.27416e-07
-0.00134201 0.00039838 3.19171e-06
7.27416e-07 3.19171e-06 3.78115e-05
0.000270798 -0.00120719 2.92311e-05
-0.00120719 -0.000214762 -2.29441e-05
2.92311e-05 -2.29441e-05 -0.00113133
0.00399165 -0.000754888 3.52226e-05
-0.000754888 0.00216397 -1.68362e-05
3.52226e-05 -1.68362e-05 0.00148787
-0.000720384 -0.000233858 1.46536e-05
-0.000233858 -0.000723795 7.56413e-06
1.46536e-05 7.56413e-06 -0.00102126
0.00172052 -0.000122195 9.36409e-06
-0.000122195 0.00103413 1.87591e-06
9.36409e-06 1.87591e-06 0.000807199
-0.000866773 -2.46507e-05 -1.57739e-05
-2.46507e-05 -0.000536074 -2.12152e-05
-1.57739e-05 -2.12152e-05 -0.000922347
0.0003975 -6.95095e-05 2.25579e-06
-6.95095e-05 0.000154171 -1.45141e-05
2.25579e-06 -1.45141e-05 -0.000133976
0.000525637 -3.65791e-05 5.89565e-07
-3.65791e-05 0.000174634 4.65828e-06
5.89565e-07 4.65828e-06 -1.07517e-06
0.000603041 -0.00013495 -1.02219e-05
-0.00013495 0.000237129 4.25084e-06
-1.02219e-05 4.25084e-06 5.65964e-05
0.00288031 -0.000468 4.22839e-06
-0.000468 -0.000379636 1.28608e-08
4.22839e-06 1.28608e-08 3.15393e-05
0.000154753 -5.62388e-05 -1.60693e-06
-5.62388e-05 -5.6003e-05 5.37943e-06
-1.60693e-06 5.37943e-06 -0.000215001
0.000456225 -0.000161075 4.9094e-06
-0.000161075 0.000127823 -5.02694e-06
4.9094e-06 -5.02694e-06 -0.000106769
-0.000320331 -9.47103e-05 1.77378e-05
-9.47103e-05 -0.000243494 -6.43232e-06
1.77378e-05 -6.43232e-06 -0.000394327
0.002683 -0.000847318 1.56061e-06
-0.000847318 -0.000343896 -9.91926e-07
1.56061e-06 -9.91926e-07 -3.55547e-05
0.00300547 -0.00132789 1.52586e-06
-0.00132789 0.000236319 -2.0483e-06
1.52586e-06 -2.0483e-06 -2.43532e-05
0.00204606 -0.00160641 -1.07232e-05
-0.00160641 0.000491877 2.75568e-07
-1.07232e-05 2.75568e-07 -0.000311621
0.00325784 -0.00165421 -3.95098e-06
-0.00165421 0.000779409 -4.60482e-07
-3.95098e-06 -4.60482e-07 0.000152618
0.0018229 -0.00032102 2.33564e-05
-0.00032102 0.0011053 -9.43423e-06
2.33564e-05 -9.43423e-06 0.000735907
-0.00167666 -5.07698e-05 1.365e-05
-5.07698e-05 -0.00107614 1.73071e-06
1.365e-05 1.73071e-06 -0.00142596
0.000946681 -0.00149856 1.51864e-07
-0.00149856 0.000526925 1.62699e-06
1.51864e-07 1.62699e-06 -0.000516725
0.00157926 -0.00060584 -2.03907e-05
-0.00060584 0.000888944 1.57504e-06
-2.03907e-05 1.57504e-06 0.000280828
0.00398357 -0.000708868 -8.65739e-05
-0.000708868 0.000356111 2.9287e-05
-8.65739e-05 2.9287e-05 0.000742225
0.0030708 -0.00119114 -4.27494e-05
-0.00119114 4.78478e-05 2.29204e-05
-4.27494e-05 2.29204e-05 0.000172871
0.00328001 -0.00151456 1.00757e-05
-0.00151456 0.000837271 -2.18299e-05
1.00757e-05 -2.18299e-05 0.000237898
0.00355237 -0.00195661 -4.33642e-06
-0.00195661 0.00111102 1.3253e-05
-4.33642e-06 1.3253e-05 0.000398627
0.000105055 -0.000219074 3.41028e-06
-0.000219074 0.000145584 -1.7208e-05
3.41028e-06 -1.7208e-05 -9.64958e-05
0.000793078 -0.000396649 -1.55836e-05
-0.000396649 0.000383277 2.83281e-05
-1.55836e-05 2.83281e-05 3.32327e-05
0.000837037 -0.000362983 -2.53039e-05
-0.000362983 0.000709684 7.03711e-05
-2.53039e-05 7.03711e-05 0.000320552
-0.000796893 -0.000945862 8.46305e-06
-0.000945862 0.000196052 -4.4234e-05
8.46305e-06 -4.4234e-05 -0.000924782
0.00766048 -0.000575065 1.47141e-05
-0.000575065 -0.00710407 3.57746e-05
1.47141e-05 3.57746e-05 -0.00769156
0.00413947 0.000617998 1.70834e-05
0.000617998 0.00270535 -3.93111e-06
1.70834e-05 -3.93111e-06 0.00227446
0.000200553 0.000539096 -1.33515e-06
0.000539096 3.15047e-05 -1.09428e-05
-1.33515e-06 -1.09428e-05 -0.00048003
0.00172233 0.00060587 8.95936e-05
0.00060587 -0.00116139 4.02419e-05
8.95936e-05 4.02419e-05 -0.000427768
0.00235426 0.00111106 3.12597e-05
0.00111106 9.39543e-05 1.45549e-05
3.12597e-05 1.45549e-05 -5.79659e-05
0.00298367 0.00155246 1.39897e-05
0.00155246 0.000917763 1.84649e-05
1.39897e-05 1.84649e-05 9.70501e-05
0.00261503 0.00126145 1.47527e-05
0.00126145 0.00106606 1.52316e-05
1.47527e-05 1.52316e-05 0.000249498
0.00382917 0.00293976 0.000132445
0.00293976 -0.00275896 7.02895e-05
0.000132445 7.02895e-05 -0.0011077
0.00108223 0.000457663 2.75249e-06
0.000457663 0.000873653 -6.78383e-06
2.75249e-06 -6.78383e-06 0.000387443
0.00321022 0.00143327 -7.36185e-06
0.00143327 -0.000188406 4.11888e-06
-7.36185e-06 4.11888e-06 0.000123418
0.00112511 0.000855119 -1.17565e-05
0.000855119 0.000385142 9.30969e-06
-1.17565e-05 9.30969e-06 -0.000251779
0.00237218 0.00138745 2.3572e-06
0.00138745 0.000823332 -9.81271e-06
2.3572e-06 -9.81271e-06 4.10707e-06
0.00388363 0.0017227 -1.30862e-05
0.0017227 0.00116351 -1.10598e-06
-1.30862e-05 -1.10598e-06 0.000544212
0.00397231 0.000539234 -0.000268486
0.000539234 -0.0100074 -0.000190276
-0.000268486 -0.000190276 -0.00873029
0.00670907 0.00435894 -0.000222651
0.00435894 -0.00314325 -0.000117694
-0.000222651 -0.000117694 0.000942928
0.0011514 0.00286376 -2.01114e-05
0.00286376 -0.00151382 -9.1168e-06
-2.01114e-05 -9.1168e-06 -0.001267
0.0140304 -0.00534544 0.00109245
-0.00534544 0.00852075 0.000202143
0.00109245 0.000202143 0.00170266
0.0376871 -0.0231474 -0.000437087
-0.0231474 0.0265476 -0.000541112
-0.000437087 -0.000541112 0.00874851
-0.000208388 0.000388931 -6.88537e-07
0.000388931 -0.000138981 -4.34005e-06
-6.88537e-07 -4.34005e-06 -0.000554362
0.00234884 -0.00251929 0.00254064
-0.00251929 0.00464724 -9.62419e-05
0.00254064 -9.62419e-05 0.000841249
0.0153474 -0.012708 0.000290196
-0.012708 0.0175821 -0.000259707
0.000290196 -0.000259707 0.00125889
0.00448183 0.00254659 -9.4079e-05
0.00254659 0.00080655 -3.4281e-05
-9.4079e-05 -3.4281e-05 0.000294113
0.00147587 0.000963811 -3.8628e-05
0.000963811 0.000491028 -5.74088e-06
-3.8628e-05 -5.74088e-06 -0.000145995
0.00222119 0.0014514 -6.0285e-05
0.0014514 0.000706385 -5.27463e-05
-6.0285e-05 -5.27463e-05 -4.42832e-05
-0.000385301 0.00265705 0.000173248
0.00265705 -0.00149503 0.000141259
0.000173248 0.000141259 -0.00155477
0.0162014 0.00673138 0.00034062
0.00673138 -0.00332599 -1.75552e-05
0.00034062 -1.75552e-05 0.0008369
0.0069666 0.00662588 -0.000188128
0.00662588 -0.00152779 -0.000211151
-0.000188128 -0.000211151 0.000875147
0.0287637 -0.0108123 0.00133097
-0.0108123 0.0149361 2.33394e-05
0.00133097 2.33394e-05 0.00317824
0.0240851 -0.00247307 -0.000955393
-0.00247307 0.0127646 0.00085517
-0.000955393 0.00085517 0.00607318
0.00104558 0.000179597 1.11052e-05
0.000179597 0.00075097 -2.01418e-07
1.11052e-05 -2.01418e-07 0.000541212
0.000380991 0.000243057 2.34281e-06
0.000243057 0.000392576 8.47425e-07
2.34281e-06 8.47425e-07 0.000128585
0.00145214 0.000479393 7.22542e-06
0.000479393 0.0010624 -8.98411e-06
7.22542e-06 -8.98411e-06 0.000659145
0.000477446 4.38817e-06 3.90239e-06
4.38817e-06 0.000133217 1.33719e-06
3.90239e-06 1.33719e-06 -4.36622e-05
0.000326355 0.000108859 5.80912e-06
0.000108859 3.48662e-05 1.574e-06
5.80912e-06 1.574e-06 -0.000146794
8.21262e-06 3.45173e-05 4.90402e-06
3.45173e-05 -7.13024e-05 1.51089e-06
4.90402e-06 1.51089e-06 -0.000286165
0.000520976 0.000117253 -3.00165e-06
0.000117253 0.000307879 -3.40116e-06
-3.00165e-06 -3.40116e-06 7.21315e-05
8.3059e-05 0.000116714 -5.27547e-06
0.000116714 2.8889e-05 4.10105e-06
-5.27547e-06 4.10105e-06 -8.351e-05
0.000292263 1.72264e-05 -1.67448e-07
1.72264e-05 1.45329e-07 8.84016e-07
-1.67448e-07 8.84016e-07 -0.000170345
0.000920948 0.000116529 2.92965e-06
0.000116529 0.000579533 2.12322e-06
2.92965e-06 2.12322e-06 0.000321702
0.000270552 7.17457e-05 -3.32668e-07
7.17457e-05 0.00010637 -2.97614e-06
-3.32668e-07 -2.97614e-06 -0.000123602
0.000638304 8.53051e-05 1.19219e-06
8.53051e-05 0.00027918 6.22971e-08
1.19219e-06 6.22971e-08 6.27206e-05
0.000221743 9.13755e-05 -2.28101e-06
9.13755e-05 0.000223838 -2.00431e-06
-2.28101e-06 -2.00431e-06 -3.66541e-05
0.000590775 7.83513e-05 -6.05966e-07
7.83513e-05 0.000389809 6.4567e-06
-6.05966e-07 6.4567e-06 0.00015497
-0.000630703 2.72604e-05 2.07212e-06
2.72604e-05 -9.99356e-05 -4.2994e-06
2.07212e-06 -4.2994e-06 -0.000528768
6.88816e-05 -8.76009e-05 -5.12592e-06
-8.76009e-05 -2.79864e-05 1.74017e-06
-5.12592e-06 1.74017e-06 -0.000271755
0.000310713 -5.62025e-05 -6.27327e-06
-5.62025e-05 4.5265e-05 -7.86838e-06
-6.27327e-06 -7.86838e-06 -0.000157016
0.000739822 -1.81067e-05 6.99689e-07
-1.81067e-05 0.000374581 -5.56606e-06
6.99689e-07 -5.56606e-06 0.000152463
0.000465453 -0.000146222 2.72641e-07
-0.000146222 0.000239448 3.07955e-06
2.72641e-07 3.07955e-06 4.61469e-05
-0.000367638 0.000128701 -1.10744e-05
0.000128701 -0.000346706 6.53995e-07
-1.10744e-05 6.53995e-07 -0.000496336
0.000296003 -0.00020871 1.00002e-05
-0.00020871 3.07907e-05 4.61987e-06
1.00002e-05 4.61987e-06 -0.000103247
0.000931791 -7.91209e-05 -5.29592e-06
-7.91209e-05 0.000633841 1.10456e-05
-5.29592e-06 1.10456e-05 0.000456201
-0.000669618 -2.52799e-05 2.44003e-06
-2.52799e-05 -0.000456108 -9.95733e-06
2.44003e-06 -9.95733e-06 -0.000751535
-0.000684751 -1.66922e-05 -1.61459e-06
-1.66922e-05 -0.000479059 -1.00877e-05
-1.61459e-06 -1.00877e-05 -0.000708106
0.000776506 -0.000253014 -4.8173e-07
-0.000253014 0.000482468 9.76114e-07
-4.8173e-07 9.76114e-07 0.000200879
-0.000210223 -1.79056e-05 -1.96606e-06
-1.79056e-05 -0.000256975 -2.56077e-06
-1.96606e-06 -2.56077e-06 -0.000462902
0.000784326 -0.000270972 -2.76824e-06
-0.000270972 0.0003902 -5.24131e-07
-2.76824e-06 -5.24131e-07 0.000154668
0.000823694 -0.000172264 2.29532e-06
-0.000172264 0.000389376 2.92581e-08
2.29532e-06 2.92581e-08 0.000195521
0.000773974 -8.82762e-05 -1.32999e-06
-8.82762e-05 0.000273675 1.68555e-06
-1.32999e-06 1.68555e-06 0.000171855
0.000205999 2.27052e-05 1.36191e-06
2.27052e-05 -1.61102e-05 -1.82744e-08
1.36191e-06 -1.82744e-08 -0.000217741
0.000455558 -9.25166e-06 3.15512e-06
-9.25166e-06 7.77867e-05 1.28207e-07
3.15512e-06 1.28207e-07 -2.86527e-05
0.00139907 -4.31846e-05 -1.94674e-05
-4.31846e-05 0.000659533 7.49463e-06
-1.94674e-05 7.49463e-06 0.000632048
0.000430997 9.85706e-05 -1.87571e-06
9.85706e-05 6.54004e-05 -2.34631e-06
-1.87571e-06 -2.34631e-06 -4.293e-05
0.000809633 -3.43068e-05 -7.26491e-06
-3.43068e-05 0.000282776 8.88247e-07
-7.26491e-06 8.88247e-07 0.000247199
0.000837043 -7.04439e-06 -1.89419e-05
-7.04439e-06 0.000275109 5.10426e-06
-1.89419e-05 5.10426e-06 0.000277423
0.000270245 -5.74671e-05 7.16192e-06
-5.74671e-05 -7.61563e-05 -6.23042e-06
7.16192e-06 -6.23042e-06 -0.000112885
0.00271311 2.25442e-06 2.11485e-05
2.25442e-06 0.00151487 4.29394e-08
2.11485e-05 4.29394e-08 0.00152467
0.000840404 1.06361e-05 -2.03293e-05
1.06361e-05 0.000279303 -6.06733e-06
-2.03293e-05 -6.06733e-06 0.000278886
0.000585067 8.40651e-05 2.77829e-06
8.40651e-05 0.000210752 -3.6648e-06
2.77829e-06 -3.6648e-06 5.11954e-05
0.000336594 7.58718e-05 -1.73022e-06
7.58718e-05 -9.70292e-06 -5.1194e-06
-1.73022e-06 -5.1194e-06 -9.13547e-05
0.000417028 3.51342e-06 2.87304e-06
3.51342e-06 4.08099e-05 2.33824e-07
2.87304e-06 2.33824e-07 -4.4989e-05
0.000335291 1.36835e-05 1.10218e-06
1.36835e-05 -5.88677e-05 -5.3359e-06
1.10218e-06 -5.3359e-06 -8.35484e-05
0.000617339 -0.000110827 -2.40316e-06
-0.000110827 0.000190226 5.82847e-06
-2.40316e-06 5.82847e-06 8.0265e-05
0.000410172 4.97155e-06 1.56579e-06
4.97155e-06 -9.44554e-06 -9.83964e-07
1.56579e-06 -9.83964e-07 -4.07358e-05
0.00259776 5.39349e-05 -2.84758e-06
5.39349e-05 0.00143812 -6.5063e-06
-2.84758e-06 -6.5063e-06 0.0014452
0.00156294 5.27913e-05 2.87269e-06
5.27913e-05 0.000764157 4.86512e-06
2.87269e-06 4.86512e-06 0.000723712
0.00174765 6.30493e-05 -2.46802e-06
6.30493e-05 0.000885498 2.40123e-06
-2.46802e-06 2.40123e-06 0.000880685
0.000496364 5.14421e-05 1.35912e-05
5.14421e-05 6.57915e-05 1.65542e-05
1.35912e-05 1.65542e-05 4.91177e-05
3.01342e-05 0.00139084 0.00018308
0.00139084 -0.0052959 4.00782e-05
0.00018308 4.00782e-05 -0.00256452
0.00280394 -1.87205e-05 -2.40459e-06
-1.87205e-05 -0.000304869 -1.9524e-06
-2.40459e-06 -1.9524e-06 1.18198e-05
0.00289216 0.000128623 6.62806e-05
0.000128623 -0.000296696 -1.10497e-05
6.62806e-05 -1.10497e-05 0.000110557
0.00577254 0.00173154 -0.000119847
0.00173154 -0.00366041 -4.68745e-05
-0.000119847 -4.68745e-05 0.000815043
0.00378711 0.000318275 0.00014002
0.000318275 -0.0023007 -1.24294e-05
0.00014002 -1.24294e-05 -0.000443018
0.00321299 -0.000132274 1.22816e-07
-0.000132274 4.16491e-05 2.82091e-06
1.22816e-07 2.82091e-06 0.000361882
0.00657473 -0.00107982 -9.9363e-05
-0.00107982 0.000274855 -3.32482e-05
-9.9363e-05 -3.32482e-05 0.00167399
0.00495291 -0.000772342 -0.000158676
-0.000772342 -0.0037268 -5.86596e-05
-0.000158676 -5.86596e-05 0.00020346
0.0189081 -0.00163098 5.81998e-05
-0.00163098 -0.000842546 -0.00015714
5.81998e-05 -0.00015714 0.000651663
0.0258329 0.0119091 0.0027234
0.0119091 0.0127106 6.57105e-05
0.0027234 6.57105e-05 0.00243831
0.0485718 0.018119 0.000198128
0.018119 0.03116 0.00029168
0.000198128 0.00029168 0.0147289
-0.000152032 -9.63462e-05 6.6086e-06
-9.63462e-05 -0.000257895 4.33202e-07
6.6086e-06 4.33202e-07 -0.00040997
0.000568859 -3.64782e-05 2.27768e-06
-3.64782e-05 0.000198968 -1.67093e-08
2.27768e-06 -1.67093e-08 4.62038e-05
0.000862183 -0.000157632 -9.15462e-07
-0.000157632 0.000419407 3.98121e-06
-9.15462e-07 3.98121e-06 0.000236781
0.000555741 -0.000108062 6.49066e-06
-0.000108062 0.000190623 -8.23567e-07
6.49066e-06 -8.23567e-07 4.83658e-05
0.000645246 0.000135085 -1.9813e-06
0.000135085 0.000338723 -6.98641e-06
-1.9813e-06 -6.98641e-06 0.000172144
0.000958886 0.000205111 9.99086e-07
0.000205111 0.00049436 2.33899e-06
9.99086e-07 2.33899e-06 0.000300071
0.000442905 2.39812e-05 4.41796e-06
2.39812e-05 0.000124222 -3.73455e-06
4.41796e-06 -3.73455e-06 -6.47942e-05
0.000463439 -1.23356e-05 -7.92429e-07
-1.23356e-05 0.000127393 6.08515e-07
-7.92429e-07 6.08515e-07 -3.82571e-05
0.00278549 -0.000465127 2.05937e-05
-0.000465127 -0.000434813 -5.71002e-06
2.05937e-05 -5.71002e-06 -1.92059e-05
0.00259894 -0.000896916 2.21857e-05
-0.000896916 -0.000426195 -9.91319e-06
2.21857e-05 -9.91319e-06 -0.000162845
0.00295284 -0.00131713 -1.21848e-06
-0.00131713 0.000198812 8.326e-06
-1.21848e-06 8.326e-06 -5.26098e-05
0.00279736 -0.00167755 6.28282e-06
-0.00167755 0.000869671 8.26988e-06
6.28282e-06 8.26988e-06 0.00010897
0.00330562 -0.00169789 -2.76244e-05
-0.00169789 0.000801451 1.79645e-05
-2.76244e-05 1.79645e-05 0.000135587
0.00040567 -0.00139951 2.74644e-05
-0.00139951 0.000271284 1.89943e-05
2.74644e-05 1.89943e-05 -0.000799037
0.00442391 -0.00101241 2.37143e-05
-0.00101241 0.00228463 1.67385e-06
2.37143e-05 1.67385e-06 0.00172691
0.00214601 -0.000507976 3.14607e-05
-0.000507976 0.00139054 -5.24322e-05
3.14607e-05 -5.24322e-05 0.000939152
0.000476822 -5.55355e-05 -2.60547e-07
-5.55355e-05 0.000118338 -1.41662e-06
-2.60547e-07 -1.41662e-06 -9.80668e-05
0.00125485 -0.000158948 1.92626e-05
-0.000158948 0.000693267 -4.24407e-05
1.92626e-05 -4.24407e-05 0.000350851
0.000229408 -0.000156708 1.42211e-07
-0.000156708 -1.35544e-05 4.16736e-06
1.42211e-07 4.16736e-06 -0.00017957
-9.0319e-05 4.75024e-06 -2.27388e-05
4.75024e-06 -7.9782e-05 -6.16155e-06
-2.27388e-05 -6.16155e-06 -0.000178195
0.00293028 -0.000640432 1.28995e-06
-0.000640432 -0.000330499 5.46503e-06
1.28995e-06 5.46503e-06 0.000182708
0.00028318 -9.7319e-05 -7.64272e-06
-9.7319e-05 0.000201366 4.80203e-06
-7.64272e-06 4.80203e-06 -1.07687e-05
0.000979394 -0.000312356 -3.08615e-06
-0.000312356 0.000510326 1.09648e-06
-3.08615e-06 1.09648e-06 0.000211309
0.00230709 -0.00112521 1.00291e-05
-0.00112521 -0.000400125 -5.75183e-06
1.00291e-05 -5.75183e-06 -0.000217363
0.00317341 -0.00149469 6.7635e-07
-0.00149469 0.000743828 5.56939e-06
6.7635e-07 5.56939e-06 0.000186808
0.00220305 -0.00170584 4.39219e-06
-0.00170584 0.000369577 -1.44076e-05
4.39219e-06 -1.44076e-05 -0.000265898
0.000534544 -0.000420285 -5.20359e-06
-0.000420285 0.000453586 -2.55335e-05
-5.20359e-06 -2.55335e-05 -5.96183e-05
0.000689389 -0.000966574 1.69761e-05
-0.000966574 0.000950124 -1.21615e-06
1.69761e-05 -1.21615e-06 -5.74556e-05
0.0063873 -0.00162419 -6.01131e-05
-0.00162419 0.00115135 4.8455e-05
-6.01131e-05 4.8455e-05 0.00175908
0.00268625 -0.00153984 -3.67652e-05
-0.00153984 0.00037548 2.29749e-05
-3.67652e-05 2.29749e-05 -7.81387e-05
0.00406078 -0.00201457 3.10724e-06
-0.00201457 0.00130189 6.93801e-06
3.10724e-06 6.93801e-06 0.000594335
0.00131363 -0.00128894 -4.1092e-05
-0.00128894 0.000326243 1.51765e-05
-4.1092e-05 1.51765e-05 -4.04651e-05
0.000811407 -0.000237626 1.25109e-05
-0.000237626 0.000636266 -3.30267e-06
1.25109e-05 -3.30267e-06 0.000272819
-0.00112183 -2.23226e-05 1.43311e-05
-2.23226e-05 -0.000496413 1.95306e-05
1.43311e-05 1.95306e-05 -0.000886028
-0.000768365 -0.00034173 -1.57806e-05
-0.00034173 9.42392e-05 -2.02517e-05
-1.57806e-05 -2.02517e-05 -0.000708741
-0.00706125 -0.000923432 0.00169798
-0.000923432 0.00133037 -1.43892e-05
0.00169798 -1.43892e-05 -0.00581016
0.014539 -0.000505246 -4.36198e-05
-0.000505246 -0.00256395 4.9068e-05
-4.36198e-05 4.9068e-05 -8.25905e-05
0.00197372 0.000512648 9.52153e-06
0.000512648 0.00129745 -1.75089e-05
9.52153e-06 -1.75089e-05 0.000887297
0.00243153 0.0010583 -5.25213e-06
0.0010583 0.00119719 7.84801e-06
-5.25213e-06 7.84801e-06 0.00049366
0.00167059 0.00116737 0.000141949
0.00116737 -0.00105211 6.8967e-05
0.000141949 6.8967e-05 -0.000580209
0.00405444 0.00167791 3.91974e-05
0.00167791 0.00130733 2.27463e-05
3.91974e-05 2.27463e-05 0.000673052
0.00290246 0.00149136 2.45024e-05
0.00149136 0.00110948 9.85744e-06
2.45024e-05 9.85744e-06 0.000264474
0.0203698 0.00116661 5.09376e-05
0.00116661 -0.000191917 -0.000279786
5.09376e-05 -0.000279786 0.00210904
0.00843073 0.00518301 -0.000362532
0.00518301 -0.00417417 2.38753e-05
-0.000362532 2.38753e-05 0.000615246
0.00167623 0.0028545 -3.05727e-05
0.0028545 -0.00104284 -4.26622e-05
-3.05727e-05 -4.26622e-05 -0.000950007
0.0196158 -0.00966585 -0.00166234
-0.00966585 0.0112695 0.000487302
-0.00166234 0.000487302 0.00151709
0.0348431 -0.0271572 -0.00247786
-0.0271572 0.026258 -0.00174707
-0.00247786 -0.00174707 0.00759281
0.000623784 0.000528833 8.92095e-06
0.000528833 0.00041903 -7.43205e-06
8.92095e-06 -7.43205e-06 -4.28577e-05
0.00397688 -0.00793984 0.00145884
-0.00793984 0.0019955 -2.45706e-06
0.00145884 -2.45706e-06 -0.00674535
0.00708645 -0.00959256 -0.00135314
-0.00959256 0.0177295 9.50021e-05
-0.00135314 9.50021e-05 0.00400926
0.00410728 0.0023085 -1.48799e-05
0.0023085 0.000560447 9.20694e-06
-1.48799e-05 9.20694e-06 0.000169539
0.00123365 0.000975675 -1.49924e-05
0.000975675 0.000416838 1.08258e-05
-1.49924e-05 1.08258e-05 -0.000259967
0.00322205 0.00167888 -4.12866e-06
0.00167888 0.00121718 -1.47848e-06
-4.12866e-06 -1.47848e-06 0.000391668
0.00226445 0.00285832 0.000104332
0.00285832 0.000233127 6.94007e-05
0.000104332 6.94007e-05 4.04816e-05
0.0137729 0.00746054 -0.000352429
0.00746054 -0.00538499 -0.000134958
-0.000352429 -0.000134958 -0.00209456
0.00360391 0.00634188 -8.76818e-05
0.00634188 -0.00174107 -0.000105537
-8.76818e-05 -0.000105537 0.000410134
0.033879 -0.0101907 0.00112157
-0.0101907 0.0168779 -0.000357412
0.00112157 -0.000357412 0.00496561
0.0331114 -0.00719121 -0.000464929
-0.00719121 0.01366 0.00108847
-0.000464929 0.00108847 0.00320313
0.00125628 0.000715576 -1.67186e-05
0.000715576 0.000732374 -1.48316e-05
-1.67186e-05 -1.48316e-05 0.000265703
-0.000215601 -0.000609109 0.000362183
-0.000609109 0.00884533 -0.00024612
0.000362183 -0.00024612 -0.00218035
0.0108959 0.00466922 -0.00122243
0.00466922 0.00805266 -0.000636835
-0.00122243 -0.000636835 0.00226979
0.00324044 0.00185774 -6.37328e-05
0.00185774 0.000607183 -3.79812e-05
-6.37328e-05 -3.79812e-05 0.000296516
0.0028453 0.00166083 -9.82501e-05
0.00166083 0.00128353 -4.32201e-05
-9.82501e-05 -4.32201e-05 0.000461219
0.00128585 0.00213841 -0.000128963
0.00213841 0.00108271 -6.09014e-05
-0.000128963 -6.09014e-05 9.599e-05
-0.00199093 0.00487298 0.000102066
0.00487298 -0.000459669 -6.50599e-05
0.000102066 -6.50599e-05 -0.000665482
0.00593744 0.0107913 0.0013581
0.0107913 -0.00496435 0.000197308
0.0013581 0.000197308 -0.00339974
0.0343614 -0.0125035 -0.00137683
-0.0125035 0.0210285 0.0013379
-0.00137683 0.0013379 0.00729512
0.0102293 0.00129127 -9.23002e-05
0.00129127 -0.00133189 -0.000287602
-9.23002e-05 -0.000287602 -0.00363104
0.000612548 0.000295163 -7.69637e-06
0.000295163 0.00054243 5.62106e-06
-7.69637e-06 5.62106e-06 0.000252212
0.000911663 0.000428268 7.95388e-06
0.000428268 0.000719164 4.72953e-07
7.95388e-06 4.72953e-07 0.000348877
-1.69275e-05 0.000365682 1.2778e-06
0.000365682 0.000209369 -1.32124e-07
1.2778e-06 -1.32124e-07 -0.000184074
0.000356319 8.94111e-05 5.78486e-06
8.94111e-05 4.64529e-05 3.43534e-06
5.78486e-06 3.43534e-06 -0.000128078
0.00119946 0.000177286 1.81457e-06
0.000177286 0.000674331 3.05012e-06
1.81457e-06 3.05012e-06 0.000437019
9.08115e-05 3.90648e-05 1.99923e-06
3.90648e-05 -1.05128e-05 2.37547e-06
1.99923e-06 2.37547e-06 -0.000249364
2.8432e-05 3.87862e-05 8.78555e-06
3.87862e-05 2.33331e-05 -3.9727e-06
8.78555e-06 -3.9727e-06 -0.000233489
0.000111254 8.10447e-05 -4.58989e-06
8.10447e-05 0.000155776 4.06039e-06
-4.58989e-06 4.06039e-06 -9.39257e-05
0.000795957 8.31905e-05 -9.89842e-07
8.31905e-05 0.000388826 -1.29414e-06
-9.89842e-07 -1.29414e-06 0.000165547
0.000319079 5.18515e-05 1.6872e-06
5.18515e-05 0.000219202 -3.20295e-06
1.6872e-06 -3.20295e-06 -2.92766e-05
0.000705479 -3.19671e-06 -1.08289e-07
-3.19671e-06 0.000393451 3.26166e-06
-1.08289e-07 3.26166e-06 0.000142381
-0.000259238 7.9435e-05 -2.32671e-06
7.9435e-05 0.000131784 -6.96459e-07
-2.32671e-06 -6.96459e-07 -0.000280998
-0.000170178 4.92846e-05 2.37546e-06
4.92846e-05 0.000353272 -7.00172e-07
2.37546e-06 -7.00172e-07 -0.000206623
-0.000130749 -5.43268e-05 5.95267e-07
-5.43268e-05 5.62708e-05 3.08998e-06
5.95267e-07 3.08998e-06 -0.000287087
0.00188837 -0.00011348 -1.08717e-05
-0.00011348 0.00122863 -3.99361e-06
-1.08717e-05 -3.99361e-06 0.000927264
0.00127181 -0.000195648 -3.67857e-06
-0.000195648 0.000736407 -1.925e-06
-3.67857e-06 -1.925e-06 0.000496648
0.00123512 -0.000205061 -1.33297e-05
-0.000205061 0.000709093 2.19125e-06
-1.33297e-05 2.19125e-06 0.000542885
0.000361619 -0.00012726 8.92116e-07
-0.00012726 0.000143638 1.78232e-06
8.92116e-07 1.78232e-06 -2.58852e-05
0.00105468 -0.000358975 2.12086e-06
-0.000358975 0.000476566 -2.45736e-06
2.12086e-06 -2.45736e-06 0.000336089
-0.000284043 -3.64792e-05 -1.00321e-05
-3.64792e-05 -9.36e-05 9.42626e-06
-1.00321e-05 9.42626e-06 -0.000263166
-0.000493495 -0.000116619 1.3341e-05
-0.000116619 -0.000471421 -1.48046e-05
1.3341e-05 -1.48046e-05 -0.000644529
-0.00123628 -1.73158e-05 -1.83054e-05
-1.73158e-05 -0.000689604 7.35535e-06
-1.83054e-05 7.35535e-06 -0.000954351
0.00237375 -0.000321921 8.2684e-06
-0.000321921 0.00148375 -1.87735e-06
8.2684e-06 -1.87735e-06 0.00133596
0.00187426 -2.85781e-05 1.37251e-05
-2.85781e-05 0.000974837 -1.6788e-05
1.37251e-05 -1.6788e-05 0.000675758
0.00399795 -0.000801481 -2.80161e-06
-0.000801481 0.00213707 7.73281e-06
-2.80161e-06 7.73281e-06 0.00171141
-0.00279851 -0.000317842 3.53384e-06
-0.000317842 -0.00174159 3.03556e-06
3.53384e-06 3.03556e-06 -0.00213399
-4.16849e-05 1.05042e-05 8.35094e-07
1.05042e-05 -1.84915e-05 -4.78455e-07
8.35094e-07 -4.78455e-07 -0.000331764
-0.00108761 -4.78988e-06 1.38046e-05
-4.78988e-06 -0.00073269 -1.85023e-05
1.38046e-05 -1.85023e-05 -0.00104107
0.000991927 -0.000218854 -3.65625e-06
-0.000218854 0.000607692 -1.75611e-06
-3.65625e-06 -1.75611e-06 0.000350854
0.000778404 -7.91592e-05 8.9073e-06
-7.91592e-05 0.000383624 7.46053e-06
8.9073e-06 7.46053e-06 0.000153997
0.00155936 -0.000156258 1.16856e-06
-0.000156258 0.000969928 3.11816e-06
1.16856e-06 3.11816e-06 0.000701697
0.000341621 -7.05225e-05 -2.25319e-06
-7.05225e-05 8.49695e-05 3.64496e-07
-2.25319e-06 3.64496e-07 -0.000103576
-4.59581e-05 4.80084e-05 5.50525e-06
4.80084e-05 -0.000248671 -6.52136e-07
5.50525e-06 -6.52136e-07 -0.000355223
0.000927551 -0.000179513 1.01044e-06
-0.000179513 0.000447014 6.22068e-06
1.01044e-06 6.22068e-06 0.000260426
0.000319154 -5.24481e-05 -1.17607e-06
-5.24481e-05 -3.37197e-05 1.4678e-08
-1.17607e-06 1.4678e-08 -0.000125862
0.00130506 4.23432e-05 -9.12738e-06
4.23432e-05 0.000592031 8.07161e-06
-9.12738e-06 8.07161e-06 0.000564688
0.000454827 -9.82717e-05 2.10511e-06
-9.82717e-05 6.48556e-05 -1.54906e-06
2.10511e-06 -1.54906e-06 -3.62859e-05
0.000828457 -2.99513e-05 -1.37155e-05
-2.99513e-05 0.000283649 1.07449e-06
-1.37155e-05 1.07449e-06 0.000253298
0.000646568 7.56812e-06 2.24314e-06
7.56812e-06 0.000136143 1.74979e-06
2.24314e-06 1.74979e-06 0.000139408
0.000375261 -5.67499e-05 5.96564e-06
-5.67499e-05 -1.16578e-05 -5.3105e-06
5.96564e-06 -5.3105e-06 -4.58521e-05
0.00261885 -5.12211e-08 6.46494e-06
-5.12211e-08 0.00144967 -8.26079e-09
6.46494e-06 -8.26079e-09 0.00146102
0.00268199 -9.84622e-06 1.88539e-05
-9.84622e-06 0.0014935 -5.5793e-06
1.88539e-05 -5.5793e-06 0.00150349
0.00111557 8.48336e-05 -7.38264e-07
8.48336e-05 0.000553384 -4.52281e-06
-7.38264e-07 -4.52281e-06 0.000386198
0.000434667 8.71912e-05 -3.89956e-07
8.71912e-05 6.27573e-05 -6.7797e-06
-3.89956e-07 -6.7797e-06 -2.79851e-05
0.000506813 -2.1893e-05 -8.47398e-07
-2.1893e-05 0.000152186 9.11937e-07
-8.47398e-07 9.11937e-07 -5.49971e-06
0.000361694 1.67139e-05 1.35108e-06
1.67139e-05 -4.35366e-05 -5.3852e-06
1.35108e-06 -5.3852e-06 -6.60061e-05
0.000401872 -1.83084e-05 2.51365e-06
-1.83084e-05 2.78498e-05 -2.62869e-07
2.51365e-06 -2.62869e-07 -5.26217e-05
0.000441236 -8.86308e-05 -4.07764e-06
-8.86308e-05 6.05679e-05 5.2221e-06
-4.07764e-06 5.2221e-06 -2.96613e-05
0.000381581 -5.96027e-06 -4.03266e-07
-5.96027e-06 -2.98622e-05 1.55336e-07
-4.03266e-07 1.55336e-07 -5.44084e-05
0.00235949 3.34479e-05 -7.55092e-06
3.34479e-05 0.00127697 -6.13796e-06
-7.55092e-06 -6.13796e-06 0.00128808
0.00146199 2.00822e-05 -9.48547e-07
2.00822e-05 0.000685772 4.89767e-06
-9.48547e-07 4.89767e-06 0.000658403
0.00160783 3.87477e-05 -7.38572e-06
3.87477e-05 0.000781446 6.32039e-08
-7.38572e-06 6.32039e-08 0.000783363
0.00077801 4.77275e-05 8.7222e-06
4.77275e-05 0.000243062 1.33224e-05
8.7222e-06 1.33224e-05 0.000233618
-5.34095e-05 0.00545643 0.00170313
0.00545643 0.00281508 -4.75529e-05
0.00170313 -4.75529e-05 -0.00616942
0.00857272 0.00665512 0.00321953
0.00665512 0.0153738 3.7346e-06
0.00321953 3.7346e-06 0.00335449
0.00165038 0.00180195 -5.56795e-05
0.00180195 -0.00539377 -9.10031e-05
-5.56795e-05 -9.10031e-05 -0.000428526
0.00339505 3.11448e-05 0.000110079
3.11448e-05 -0.00275104 7.25545e-06
0.000110079 7.25545e-06 -0.000697059
0.00331039 -0.000150454 4.59732e-05
-0.000150454 7.9022e-05 -4.46455e-06
4.59732e-05 -4.46455e-06 0.000387161
0.00299187 0.000135874 -6.14237e-05
0.000135874 -0.00281017 -3.9574e-05
-6.14237e-05 -3.9574e-05 0.000518803
0.00495374 -0.000989345 2.63452e-05
-0.000989345 -0.000442693 9.82927e-07
2.63452e-05 9.82927e-07 0.00073313
0.0130175 -0.00139366 0.000454424
-0.00139366 -0.00476164 -0.000175963
0.000454424 -0.000175963 -0.00356824
0.0111673 0.00779233 -7.87833e-05
0.00779233 0.00491717 -0.000117096
-7.87833e-05 -0.000117096 -0.00264642
0.0428754 0.0224063 -0.000763455
0.0224063 0.0289854 0.000286354
-0.000763455 0.000286354 0.0116459
0.00404425 -0.00244209 -0.000106818
-0.00244209 -0.00407465 -1.76675e-05
-0.000106818 -1.76675e-05 -7.26666e-05
0.0137788 -0.00638856 0.000615857
-0.00638856 -0.00441236 -9.7094e-05
0.000615857 -9.7094e-05 -0.00254843
0.0298011 0.0106488 0.000331369
0.0106488 0.0148822 -0.000506293
0.000331369 -0.000506293 0.00289323
0.0362479 0.00697878 -0.000536143
0.00697878 0.0170297 0.00046829
-0.000536143 0.00046829 0.00807836
0.00206783 0.000211581 -4.73423e-06
0.000211581 0.00133067 2.12085e-08
-4.73423e-06 2.12085e-08 0.00104319
0.000467851 4.66935e-05 1.46326e-06
4.66935e-05 0.000129113 -8.65736e-07
1.46326e-06 -8.65736e-07 -2.41931e-05
0.000517147 -0.000134505 1.96943e-06
-0.000134505 0.000172828 2.03669e-06
1.96943e-06 2.03669e-06 1.55722e-05
0.000173819 -1.16101e-05 4.60579e-06
-1.16101e-05 -5.3443e-05 -1.71754e-06
4.60579e-06 -1.71754e-06 -0.00019298
0.000254847 8.76687e-05 4.30889e-06
8.76687e-05 7.15972e-05 -4.10791e-07
4.30889e-06 -4.10791e-07 -5.86269e-05
0.000576222 0.000143088 1.32992e-06
0.000143088 0.000236358 2.22883e-06
1.32992e-06 2.22883e-06 1.01165e-05
0.000434841 7.58023e-05 -2.4446e-06
7.58023e-05 0.000153366 5.70459e-07
-2.4446e-06 5.70459e-07 -2.85392e-05
0.00057006 0.000133041 6.73265e-06
0.000133041 0.000198757 9.82114e-07
6.73265e-06 9.82114e-07 -2.58236e-05
0.000543962 1.80644e-05 9.41488e-07
1.80644e-05 0.00020421 -7.23497e-07
9.41488e-07 -7.23497e-07 3.44473e-06
0.000235598 -2.97619e-05 -1.30741e-07
-2.97619e-05 -3.03403e-05 1.14942e-06
-1.30741e-07 1.14942e-06 -0.000177488
0.00172275 -0.000560023 6.75943e-05
-0.000560023 -0.00115469 -2.79207e-05
6.75943e-05 -2.79207e-05 -0.000470084
0.00173613 -0.00105445 2.72528e-05
-0.00105445 -0.000694546 -1.75146e-05
2.72528e-05 -1.75146e-05 -0.000474976
0.00235822 -0.00137233 3.21225e-06
-0.00137233 0.000269813 1.05484e-05
3.21225e-06 1.05484e-05 -0.000213376
0.00046814 -0.00139323 -8.53829e-06
-0.00139323 -0.00058128 2.77961e-06
-8.53829e-06 2.77961e-06 -0.00113702
0.00261347 -0.00102305 8.30107e-07
-0.00102305 0.00197073 6.17326e-05
8.30107e-07 6.17326e-05 0.0010557
-0.000545773 -0.000707729 -1.67559e-05
-0.000707729 -0.000142679 -2.39062e-05
-1.67559e-05 -2.39062e-05 -0.00086042
0.000903647 -0.000321004 1.62756e-05
-0.000321004 0.000500708 -2.12605e-05
1.62756e-05 -2.12605e-05 0.000240158
0.000184422 -4.73277e-05 -3.88759e-06
-4.73277e-05 9.10742e-05 3.23067e-06
-3.88759e-06 3.23067e-06 -9.41344e-05
0.00357347 -0.00131283 9.26607e-06
-0.00131283 -0.000520514 -1.08015e-05
9.26607e-06 -1.08015e-05 0.000315399
0.00058621 -0.000108462 -8.0358e-07
-0.000108462 0.000489605 2.00412e-06
-8.0358e-07 2.00412e-06 0.000119737
-0.000246221 -0.000208036 -1.40856e-05
-0.000208036 5.52151e-05 1.7307e-06
-1.40856e-05 1.7307e-06 -0.000329558
0.00195738 -0.00137053 2.21895e-05
-0.00137053 -5.05939e-05 -1.21706e-06
2.21895e-05 -1.21706e-06 -0.00033478
0.00301715 -0.00179345 -1.3122e-06
-0.00179345 0.000781972 -6.96274e-06
-1.3122e-06 -6.96274e-06 0.000119743
0.000449031 -0.00115606 2.30062e-05
-0.00115606 -0.000125904 -1.61465e-05
2.30062e-05 -1.61465e-05 -0.000518439
0.00106709 -0.000621268 3.30649e-05
-0.000621268 0.00117409 -3.52253e-05
3.30649e-05 -3.52253e-05 0.000420863
0.00185512 -0.00209491 -3.49572e-05
-0.00209491 -0.00123038 5.06095e-05
-3.49572e-05 5.06095e-05 -0.000792124
0.00257226 -0.0015734 -4.35677e-05
-0.0015734 0.000771992 3.32074e-05
-4.35677e-05 3.32074e-05 0.000231189
-0.000340921 -0.000640969 -6.56556e-05
-0.000640969 0.000146266 2.19321e-05
-6.56556e-05 2.19321e-05 -0.000401109
0.00107636 0.000130798 9.86629e-07
0.000130798 0.000742309 -2.57544e-06
9.86629e-07 -2.57544e-06 0.000404553
-0.000883186 7.47023e-06 -2.40345e-06
7.47023e-06 -0.000284746 1.85012e-05
-2.40345e-06 1.85012e-05 -0.000747246
-0.000178721 -5.31153e-05 9.06561e-06
-5.31153e-05 0.000180398 8.87688e-06
9.06561e-06 8.87688e-06 -0.000238294
-0.00266749 0.00177143 -0.000843143
0.00177143 0.00892853 -3.27279e-05
-0.000843143 -3.27279e-05 0.000686578
0.000597876 -0.00263124 -7.04586e-06
-0.00263124 0.00639698 -7.75673e-05
-7.04586e-06 -7.75673e-05 0.0013265
0.0082465 0.000198125 -9.67582e-05
0.000198125 -0.00757881 -2.62678e-05
-9.67582e-05 -2.62678e-05 -0.0076914
0.00119939 0.000605723 1.82369e-05
0.000605723 0.000824925 -1.17176e-05
1.82369e-05 -1.17176e-05 0.000339038
0.00201747 0.00115346 2.44604e-05
0.00115346 0.000930041 3.25765e-05
2.44604e-05 3.25765e-05 0.000168791
0.00370788 0.00199286 0.000109669
0.00199286 0.0003061 5.63384e-05
0.000109669 5.63384e-05 6.10947e-05
0.00329236 0.0017732 4.4909e-05
0.0017732 0.00127266 4.11287e-05
4.4909e-05 4.11287e-05 0.000395977
0.0192253 -0.00939754 0.000342946
-0.00939754 0.0133503 0.000149155
0.000342946 0.000149155 0.00305967
0.00244332 0.005665 -0.000968454
0.005665 -0.0122458 -0.000168077
-0.000968454 -0.000168077 -0.00951384
0.00658052 0.00682448 -3.3521e-05
0.00682448 -0.00076771 3.029e-05
-3.3521e-05 3.029e-05 0.00126009
0.0043099 0.00285442 0.000122707
0.00285442 0.0015892 3.27415e-05
0.000122707 3.27415e-05 0.00132387
0.0246376 -0.00699838 -0.000713233
-0.00699838 0.0114791 -0.00019015
-0.000713233 -0.00019015 0.00114498
0.00729054 -0.0103519 -0.00212527
-0.0103519 0.0191138 -2.62591e-05
-0.00212527 -2.62591e-05 0.00618459
0.0455271 -0.0122791 0.00193125
-0.0122791 0.0181684 0.00048313
0.00193125 0.00048313 0.00555056
0.000714321 0.000667157 1.60354e-05
0.000667157 0.00045204 -4.51088e-06
1.60354e-05 -4.51088e-06 -3.09051e-05
0.00204385 -0.00243527 -2.99453e-05
-0.00243527 0.0115422 1.01915e-05
-2.99453e-05 1.01915e-05 0.000605489
0.0105367 0.00504272 -0.000349578
0.00504272 0.00544572 -0.000210504
-0.000349578 -0.000210504 -0.00150246
0.0030064 0.00202012 1.32338e-05
0.00202012 0.000642249 5.43579e-06
1.32338e-05 5.43579e-06 0.000174743
0.00145851 0.00139131 6.41265e-06
0.00139131 0.000651474 7.78032e-06
6.41265e-06 7.78032e-06 -0.000136078
0.000414237 0.00214174 -0.000166614
0.00214174 0.000557975 -0.000112644
-0.000166614 -0.000112644 -0.000226697
0.00419072 0.00723236 0.000112518
0.00723236 0.000941315 5.94812e-05
0.000112518 5.94812e-05 0.000731304
0.0118414 0.0112601 -3.887e-05
0.0112601 -0.00114753 -1.72295e-05
-3.887e-05 -1.72295e-05 -0.00165259
0.0170444 -0.00732556 7.3832e-05
-0.00732556 0.014184 -0.000191655
7.3832e-05 -0.000191655 0.00136468
0.0209029 -0.00242674 -0.000166595
-0.00242674 0.0043694 -3.3169e-05
-0.000166595 -3.3169e-05 0.00232237
0.00146958 0.00123661 -1.60842e-05
0.00123661 0.00087782 -1.35298e-05
-1.60842e-05 -1.35298e-05 0.000181503
0.0018299 0.00133847 -0.000771584
0.00133847 0.00458346 -0.000207194
-0.000771584 -0.000207194 -0.00289586
0.00464118 0.0016065 -8.21567e-05
0.0016065 0.00157065 -0.000211913
-8.21567e-05 -0.000211913 -0.00247804
-0.00107614 0.000821524 -4.03231e-06
0.000821524 -2.55727e-05 -3.38661e-05
-4.03231e-06 -3.38661e-05 -0.000630962
-0.00269795 0.00217596 -9.22409e-05
0.00217596 0.000858815 4.64312e-05
-9.22409e-05 4.64312e-05 -0.000249706
0.00720253 0.00964765 0.000480971
0.00964765 0.00423646 5.77765e-05
0.000480971 5.77765e-05 -0.00151945
0.0137645 -0.0066003 4.70623e-05
-0.0066003 0.00510998 0.000223257
4.70623e-05 0.000223257 -0.00488078
0.0200384 -0.00116763 0.000129052
-0.00116763 0.000800072 -0.000340889
0.000129052 -0.000340889 0.000524707
0.000376746 0.000356635 -2.9192e-06
0.000356635 0.000374222 2.01162e-05
-2.9192e-06 2.01162e-05 4.94345e-05
0.00081035 0.000444317 -2.30443e-06
0.000444317 0.000723978 -5.2817e-06
-2.30443e-06 -5.2817e-06 0.000303706
0.000416004 0.000418277 7.19257e-06
0.000418277 0.000645596 -2.86409e-06
7.19257e-06 -2.86409e-06 8.79424e-05
0.000628412 0.000128523 2.00399e-06
0.000128523 0.000255013 5.5685e-06
2.00399e-06 5.5685e-06 5.08594e-05
0.0014459 -2.88745e-05 2.85626e-07
-2.88745e-05 0.000891894 5.10544e-06
2.85626e-07 5.10544e-06 0.000628772
-6.56847e-06 5.46975e-05 4.42422e-06
5.46975e-05 1.57202e-05 -4.49053e-06
4.42422e-06 -4.49053e-06 -0.000246667
2.69669e-05 0.000128665 4.89765e-07
0.000128665 0.000310229 1.30179e-06
4.89765e-07 1.30179e-06 -9.66267e-05
0.000561541 -2.65824e-05 4.04937e-06
-2.65824e-05 0.000288757 1.22075e-06
4.04937e-06 1.22075e-06 4.71315e-05
0.000327039 -9.82005e-06 1.72973e-07
-9.82005e-06 0.000325326 -4.31195e-06
1.72973e-07 -4.31195e-06 4.89516e-07
4.54074e-05 6.30179e-05 -2.67761e-07
6.30179e-05 0.000515229 9.13673e-07
-2.67761e-07 9.13673e-07 -7.62717e-05
-0.000267072 0.000108759 3.80708e-07
0.000108759 0.000451407 3.52547e-06
3.80708e-07 3.52547e-06 -0.000191858
0.000882208 -9.54765e-05 8.12011e-06
-9.54765e-05 0.000995149 -1.03315e-05
8.12011e-06 -1.03315e-05 0.000456421
0.000944188 -5.76245e-05 -2.00758e-05
-5.76245e-05 0.000735305 4.67949e-06
-2.00758e-05 4.67949e-06 0.000389175
0.00174388 -0.000260027 4.88901e-06
-0.000260027 0.00107673 5.66314e-06
4.88901e-06 5.66314e-06 0.000871403
-0.000263303 -0.000409364 -8.30157e-06
-0.000409364 -0.000401148 -5.36302e-06
-8.30157e-06 -5.36302e-06 -0.000527753
-0.000405996 -4.87863e-05 2.2399e-05
-4.87863e-05 -0.000115764 -2.40245e-06
2.2399e-05 -2.40245e-06 -0.000277381
-0.00026666 -1.33941e-05 2.60409e-06
-1.33941e-05 -4.57485e-05 5.19924e-08
2.60409e-06 5.19924e-08 -0.000321975
0.000183966 -0.000166861 -2.283e-06
-0.000166861 -8.47226e-05 5.03383e-06
-2.283e-06 5.03383e-06 -0.000227728
-0.000295889 -0.000213847 -1.07149e-05
-0.000213847 -0.000163107 -6.88039e-07
-1.07149e-05 -6.88039e-07 -0.000299693
0.0040501 -0.000334348 1.52209e-05
-0.000334348 0.00240654 5.97225e-06
1.52209e-05 5.97225e-06 0.00206675
0.00164623 -0.000170992 2.16254e-06
-0.000170992 0.00134523 7.26766e-06
2.16254e-06 7.26766e-06 0.000994246
0.00100484 -0.000579156 -1.12513e-05
-0.000579156 0.000445441 8.80957e-06
-1.12513e-05 8.80957e-06 -2.87008e-05
0.00168668 -0.000203178 -2.19786e-05
-0.000203178 0.00084139 2.19638e-06
-2.19786e-05 2.19638e-06 0.000551927
0.000627639 -0.000445631 2.29765e-05
-0.000445631 5.83432e-05 3.5273e-06
2.29765e-05 3.5273e-06 -0.00027252
0.00209567 -0.000984179 -1.84397e-05
-0.000984179 0.000916127 2.0092e-05
-1.84397e-05 2.0092e-05 0.000292282
0.00234483 -0.000382385 2.03523e-05
-0.000382385 0.00110049 -7.6337e-06
2.03523e-05 -7.6337e-06 0.000824197
0.00236418 -0.000617734 9.78168e-07
-0.000617734 0.00113608 -8.62526e-06
9.78168e-07 -8.62526e-06 0.000772083
0.000428096 -0.000332883 6.89355e-07
-0.000332883 0.000221069 -1.65269e-06
6.89355e-07 -1.65269e-06 -0.000133215
-0.00270126 -0.000266742 9.98779e-06
-0.000266742 -0.0017015 -1.3324e-05
9.98779e-06 -1.3324e-05 -0.00214088
0.00138679 -6.42223e-05 5.45574e-07
-6.42223e-05 0.000895144 4.1606e-06
5.45574e-07 4.1606e-06 0.000589007
0.000768246 -0.00039251 6.29963e-06
-0.00039251 0.000404138 -2.80674e-06
6.29963e-06 -2.80674e-06 9.69182e-05
0.000805466 -0.000138605 1.46708e-05
-0.000138605 0.000352493 6.778e-06
1.46708e-05 6.778e-06 8.41241e-05
0.00174999 -0.000525597 -9.99148e-06
-0.000525597 0.00109861 1.31919e-05
-9.99148e-06 1.31919e-05 0.000813318
0.000225496 -0.000195629 -3.098e-07
-0.000195629 8.10869e-05 -9.60393e-07
-3.098e-07 -9.60393e-07 -0.000187901
-5.1416e-05 -4.46428e-05 6.09817e-06
-4.46428e-05 -0.000245774 4.79009e-06
6.09817e-06 4.79009e-06 -0.00039028
0.00167613 -0.000286679 -3.26649e-06
-0.000286679 0.00100981 6.81211e-06
-3.26649e-06 6.81211e-06 0.000779063
0.000746344 -0.000115169 1.59424e-07
-0.000115169 0.000272103 6.19374e-07
1.59424e-07 6.19374e-07 0.000153565
0.00151625 -6.79057e-06 -1.77878e-05
-6.79057e-06 0.000728556 8.517e-06
-1.77878e-05 8.517e-06 0.000692047
0.000461724 -0.000106013 -2.01751e-07
-0.000106013 8.7393e-05 -4.94767e-07
-2.01751e-07 -4.94767e-07 -2.01973e-05
0.000800159 -2.02042e-05 -1.65159e-05
-2.02042e-05 0.000260392 7.93211e-07
-1.65159e-05 7.93211e-07 0.000227396
0.00077107 1.68131e-05 3.52533e-06
1.68131e-05 0.000216101 3.07125e-06
3.52533e-06 3.07125e-06 0.000216279
0.000375913 -5.97992e-05 5.033e-06
-5.97992e-05 -1.73335e-05 -5.37204e-06
5.033e-06 -5.37204e-06 -5.04302e-05
0.00162147 1.04164e-05 1.90135e-05
1.04164e-05 0.000784704 -1.93287e-06
1.90135e-05 -1.93287e-06 0.000792973
0.0025619 -3.94744e-06 2.73842e-05
-3.94744e-06 0.00141107 -5.51279e-06
2.73842e-05 -5.51279e-06 0.00142323
0.000107163 0.000112578 1.61944e-06
0.000112578 -0.000160367 -5.16115e-06
1.61944e-06 -5.16115e-06 -0.000310353
0.000530272 9.00969e-05 8.01863e-07
9.00969e-05 0.000124079 -7.29382e-06
8.01863e-07 -7.29382e-06 2.61725e-05
0.000452111 2.51329e-05 1.11778e-06
2.51329e-05 0.000103904 8.19342e-07
1.11778e-06 8.19342e-07 -5.06242e-05
0.000371145 1.39664e-05 3.21574e-06
1.39664e-05 -3.8204e-05 -6.28583e-06
3.21574e-06 -6.28583e-06 -6.21933e-05
0.000404128 7.31377e-05 4.00076e-07
7.31377e-05 3.30979e-05 1.84568e-08
4.00076e-07 1.84568e-08 -5.10485e-05
0.0003318 -0.000121311 -4.42105e-06
-0.000121311 1.64033e-05 5.9387e-06
-4.42105e-06 5.9387e-06 -0.000125781
0.00233265 1.70239e-05 -1.28721e-05
1.70239e-05 0.00125726 -6.30249e-06
-1.28721e-05 -6.30249e-06 0.0012699
0.000372547 1.0843e-05 -4.90969e-07
1.0843e-05 -3.6006e-05 -2.44518e-08
-4.90969e-07 -2.44518e-08 -5.84109e-05
0.000497343 -2.66858e-06 -3.32439e-06
-2.66858e-06 7.81238e-05 4.66495e-06
-3.32439e-06 4.66495e-06 5.73368e-06
0.000409558 -1.09018e-05 -3.40182e-06
-1.09018e-05 -1.28085e-05 5.63424e-06
-3.40182e-06 5.63424e-06 -3.7554e-05
0.00243669 3.52078e-05 -6.71676e-06
3.52078e-05 0.00132864 -2.0855e-07
-6.71676e-06 -2.0855e-07 0.00133897
0.00264571 5.79321e-05 6.05382e-06
5.79321e-05 0.00147124 7.40037e-06
6.05382e-06 7.40037e-06 0.00147715
0.00321179 -0.00111706 -0.00050982
-0.00111706 0.0125217 7.34669e-05
-0.00050982 7.34669e-05 0.0049896
0.00774967 0.00619641 -0.000552722
0.00619641 0.00587079 0.000192537
-0.000552722 0.000192537 -0.00272131
0.00709297 -0.00259188 -0.000540495
-0.00259188 0.00267419 0.000360989
-0.000540495 0.000360989 -0.00300687
0.0138256 0.007516 0.00172491
0.007516 0.0154065 -4.76476e-05
0.00172491 -4.76476e-05 0.002956
0.00550564 0.000962659 6.34437e-05
0.000962659 -0.00200067 9.66427e-06
6.34437e-05 9.66427e-06 0.000903979
0.0029112 -0.000972814 0.000127602
-0.000972814 -0.0014793 1.57254e-06
0.000127602 1.57254e-06 -0.000447216
0.00328463 -0.0010768 0.000664707
-0.0010768 -0.0116077 -2.44892e-05
0.000664707 -2.44892e-05 -0.0088837
0.0235217 0.00842037 -0.00266366
0.00842037 0.0153915 -0.000333232
-0.00266366 -0.000333232 0.00584551
0.0349767 0.0265269 -0.00265348
0.0265269 0.0247707 0.00175247
-0.00265348 0.00175247 0.00675248
0.00581579 -0.00175739 9.02777e-05
-0.00175739 -0.00264206 -5.22405e-06
9.02777e-05 -5.22405e-06 0.000292151
0.00878282 -0.00679411 0.000408775
-0.00679411 -0.00787314 -0.00024122
0.000408775 -0.00024122 -0.00565129
0.0326767 0.0105348 -0.000670116
0.0105348 0.0164587 -0.000388505
-0.000670116 -0.000388505 0.00405207
0.0272402 0.00642562 0.000524492
0.00642562 0.0132576 0.000610821
0.000524492 0.000610821 0.00451512
0.00283415 -0.00406974 -0.000104999
-0.00406974 -0.00491345 0.000135337
-0.000104999 0.000135337 -0.00113027
0.000832036 -0.00991604 0.00123286
-0.00991604 -0.00441545 -0.00030602
0.00123286 -0.00030602 -0.00447064
0.0186514 0.00456031 -0.00076826
0.00456031 0.00995149 -0.00142077
-0.00076826 -0.00142077 -0.00114592
0.0124184 -0.0014796 -0.00040431
-0.0014796 0.00215733 5.03704e-05
-0.00040431 5.03704e-05 -0.000648209
0.00149421 -2.18432e-05 1.82149e-06
-2.18432e-05 0.000916929 1.29712e-05
1.82149e-06 1.29712e-05 0.00060329
0.000150897 1.37398e-05 -3.26924e-07
1.37398e-05 -1.20498e-05 -7.19073e-07
-3.26924e-07 -7.19073e-07 -0.000201249
0.00055751 0.00013536 -7.86412e-07
0.00013536 0.000181579 9.86268e-07
-7.86412e-07 9.86268e-07 3.29638e-05
-0.000520096 -0.000105481 -1.18015e-05
-0.000105481 -0.000526088 1.17756e-06
-1.18015e-05 1.17756e-06 -0.0005644
7.35248e-05 0.000154035 4.6619e-06
0.000154035 -0.000134549 1.72621e-05
4.6619e-06 1.72621e-05 -0.000355821
0.000509711 9.81019e-05 -1.31312e-06
9.81019e-05 0.000209536 -1.26789e-06
-1.31312e-06 -1.26789e-06 -1.67362e-05
-0.00015007 -4.48296e-05 7.71393e-07
-4.48296e-05 -0.000239865 1.83658e-06
7.71393e-07 1.83658e-06 -0.000401835
0.000911204 0.000222497 1.05685e-05
0.000222497 0.000470717 7.41014e-06
1.05685e-05 7.41014e-06 0.000203244
0.000963117 0.000230517 -4.657e-07
0.000230517 0.000505384 -2.47824e-06
-4.657e-07 -2.47824e-06 0.000245608
0.000512355 5.4121e-05 -4.16841e-06
5.4121e-05 0.000183535 7.8645e-07
-4.16841e-06 7.8645e-07 -2.0377e-05
0.00212328 -0.00119426 0.000152532
-0.00119426 -0.0013538 -9.17053e-05
0.000152532 -9.17053e-05 -0.000465761
0.00104594 -0.00122874 -4.01539e-06
-0.00122874 -0.000620434 -1.48157e-05
-4.01539e-06 -1.48157e-05 -0.000741298
0.0023763 -0.00164643 8.82058e-06
-0.00164643 0.000486619 1.52209e-05
8.82058e-06 1.52209e-05 -0.000145309
-0.000234278 -0.00109993 1.08887e-05
-0.00109993 -0.000511013 -4.62151e-06
1.08887e-05 -4.62151e-06 -0.000920073
0.00350225 -0.000780204 -7.35831e-05
-0.000780204 0.00247188 7.91987e-05
-7.35831e-05 7.91987e-05 0.00192615
0.000836146 -0.000329172 -1.73278e-06
-0.000329172 0.000754545 -1.71812e-05
-1.73278e-06 -1.71812e-05 0.000331975
0.00131521 7.10228e-05 -2.7077e-06
7.10228e-05 0.000945071 -9.72246e-06
-2.7077e-06 -9.72246e-06 0.000557599
0.00085142 5.75898e-05 -7.23494e-06
5.75898e-05 0.000553496 -6.79262e-07
-7.23494e-06 -6.79262e-07 0.00023087
0.00354416 -0.00217673 -3.72245e-05
-0.00217673 -0.000280252 5.80899e-06
-3.72245e-05 5.80899e-06 0.000233021
0.000978441 -9.0495e-05 -2.1079e-06
-9.0495e-05 0.000808768 7.53072e-06
-2.1079e-06 7.53072e-06 0.000384768
0.00113581 -0.000342379 1.22241e-05
-0.000342379 0.000940749 -7.15743e-06
1.22241e-05 -7.15743e-06 0.00049659
0.00141035 -0.00143367 1.80461e-05
-0.00143367 9.27378e-05 -3.77728e-06
1.80461e-05 -3.77728e-06 -0.00036741
0.0002556 -0.000696155 -1.23657e-05
-0.000696155 0.000335695 6.298e-06
-1.23657e-05 6.298e-06 -0.000113558
0.00221194 -0.00317919 1.82444e-05
-0.00317919 0.00021383 -5.36704e-06
1.82444e-05 -5.36704e-06 -0.000550086
0.000289845 -0.00101589 -9.01388e-06
-0.00101589 0.000438995 1.43894e-05
-9.01388e-06 1.43894e-05 -8.89291e-05
-0.00111107 -0.000204306 -9.90197e-07
-0.000204306 -1.44615e-05 -4.04279e-06
-9.90197e-07 -4.04279e-06 -0.000698424
0.000703591 0.000144669 1.36334e-05
0.000144669 0.000536881 -5.04643e-06
1.36334e-05 -5.04643e-06 0.000285782
-0.000552594 -0.000175236 -7.36296e-06
-0.000175236 -2.93115e-05 3.01435e-05
-7.36296e-06 3.01435e-05 -0.000497107
0.00316511 0.000382632 -0.000223045
0.000382632 0.00267235 -8.65083e-05
-0.000223045 -8.65083e-05 -0.00269581
-0.00671734 0.000409424 -0.00108852
0.000409424 0.00770927 3.13237e-05
-0.00108852 3.13237e-05 0.00121798
-0.00845466 -0.0046597 -0.0020291
-0.0046597 0.00105817 8.67791e-05
-0.0020291 8.67791e-05 -0.00635925
-7.27057e-07 0.000608301 1.90749e-05
0.000608301 8.3872e-05 -8.77854e-06
1.90749e-05 -8.77854e-06 -0.000427396
0.00137675 0.00132635 7.9149e-06
0.00132635 0.00069341 1.33414e-05
7.9149e-06 1.33414e-05 -9.58334e-05
0.00460956 0.00251243 8.13245e-05
0.00251243 0.00151736 7.99503e-05
8.13245e-05 7.99503e-05 0.000821093
0.000710572 -8.4202e-05 0.000244823
-8.4202e-05 0.01257 9.27087e-05
0.000244823 9.27087e-05 0.00403312
0.00155679 0.010366 -0.00117376
0.010366 -0.00528691 -0.000228739
-0.00117376 -0.000228739 -0.00469626
0.000851419 0.0052219 0.00061762
0.0052219 -0.000708185 0.000322015
0.00061762 0.000322015 -0.000311156
-0.000109784 0.00200611 -6.38064e-06
0.00200611 0.00026977 -5.7331e-05
-6.38064e-06 -5.7331e-05 -9.91203e-05
0.0349167 -0.00734889 0.000339372
-0.00734889 0.0166497 -0.000773818
0.000339372 -0.000773818 0.00577833
0.0109236 0.00581462 0.00155342
0.00581462 0.00443743 0.000433702
0.00155342 0.000433702 -0.00359182
0.0150015 -0.000859353 4.3716e-05
-0.000859353 0.00398291 8.67458e-05
4.3716e-05 8.67458e-05 0.00375843
0.00213729 0.00129291 9.21446e-06
0.00129291 0.00128428 -8.87474e-07
9.21446e-06 -8.87474e-07 0.000589723
0.00420845 0.00255168 -0.000175188
0.00255168 0.00566342 -4.70105e-05
-0.000175188 -4.70105e-05 -0.000986086
0.00425565 0.00119154 0.000204824
0.00119154 0.00238276 -2.60406e-05
0.000204824 -2.60406e-05 -0.00129665
0.000374769 0.00138561 -3.04967e-05
0.00138561 0.000597461 -1.16976e-05
-3.04967e-05 -1.16976e-05 -0.000224023
-0.00144551 0.00335529 -0.000185534
0.00335529 0.000468677 -0.000138294
-0.000185534 -0.000138294 -0.00121964
0.00315225 0.0106816 0.000647595
0.0106816 0.0024806 0.000234975
0.000647595 0.000234975 -0.00312855
0.015166 -0.000955941 3.05957e-05
-0.000955941 -0.00147841 -0.000212779
3.05957e-05 -0.000212779 -0.00134122
0.0110127 -0.00411667 -0.00014154
-0.00411667 0.00723468 -0.000279984
-0.00014154 -0.000279984 -0.00209245
0.00150995 0.0010651 -1.62602e-06
0.0010651 0.00140099 -1.57009e-05
-1.62602e-06 -1.57009e-05 0.000596347
-0.0033671 0.00139771 0.000139815
0.00139771 0.00316437 0.000109671
0.000139815 0.000109671 -0.00138711
0.00955872 -0.00185823 0.00055201
-0.00185823 0.00107869 -1.90631e-05
0.00055201 -1.90631e-05 -0.00190548
0.0126717 -0.00161044 0.000403494
-0.00161044 0.00204733 -3.25467e-05
0.000403494 -3.25467e-05 -0.000486255
-0.00320537 0.000886333 7.39777e-05
0.000886333 0.000769134 -6.67141e-06
7.39777e-05 -6.67141e-06 -0.000782251
0.00671976 0.00503059 0.000544479
0.00503059 0.0066519 0.000303447
0.000544479 0.000303447 -0.00149263
0.0131669 -0.000929136 -5.22677e-05
-0.000929136 0.0040572 0.000457546
-5.22677e-05 0.000457546 -0.000927183
0.0016059 0.000524953 1.5932e-05
0.000524953 0.00122591 1.21891e-05
1.5932e-05 1.21891e-05 0.000769378
0.000364447 0.000464792 -8.36793e-06
0.000464792 0.000596768 -2.73711e-06
-8.36793e-06 -2.73711e-06 -9.79813e-06
-7.86368e-05 0.00030537 1.03158e-05
0.00030537 0.000601089 -8.99891e-06
1.03158e-05 -8.99891e-06 -0.000223919
-0.000161198 7.16006e-05 7.74153e-06
7.16006e-05 -0.000187506 4.56566e-06
7.74153e-06 4.56566e-06 -0.000419205
0.000644015 9.59191e-05 5.75723e-06
9.59191e-05 0.000509282 -5.16931e-06
5.75723e-06 -5.16931e-06 0.000198823
0.000235972 6.01455e-05 2.40309e-06
6.01455e-05 0.000682166 1.95113e-06
2.40309e-06 1.95113e-06 6.36511e-05
-7.5252e-05 -4.70498e-05 -1.38305e-06
-4.70498e-05 7.54231e-05 -4.53779e-07
-1.38305e-06 -4.53779e-07 -0.000262396
0.000147013 -4.59691e-05 -1.78069e-06
-4.59691e-05 0.000578401 -1.41874e-06
-1.78069e-06 -1.41874e-06 1.62873e-05
-0.000297245 3.33649e-05 3.40576e-06
3.33649e-05 0.000500069 1.60505e-06
3.40576e-06 1.60505e-06 -0.000172227
0.000679254 -0.000158177 -1.46614e-05
-0.000158177 0.000978991 1.42362e-05
-1.46614e-05 1.42362e-05 0.000436058
0.000781737 -8.6724e-05 1.46766e-06
-8.6724e-05 0.000867524 -9.50843e-06
1.46766e-06 -9.50843e-06 0.000429106
-0.000547896 1.58872e-06 1.77623e-05
1.58872e-06 -0.000242504 -6.47625e-06
1.77623e-05 -6.47625e-06 -0.000499743
0.000820194 -0.000166074 -6.39619e-06
-0.000166074 0.000293506 7.39443e-06
-6.39619e-06 7.39443e-06 0.000158603
-0.00300411 -0.000102574 1.73172e-06
-0.000102574 -0.00184559 -1.5325e-05
1.73172e-06 -1.5325e-05 -0.00198504
0.000923544 -0.000128518 -1.76134e-07
-0.000128518 0.000869245 5.80424e-06
-1.76134e-07 5.80424e-06 0.00052283
-0.000495778 -7.43594e-05 -1.62794e-05
-7.43594e-05 -0.000259026 1.58702e-06
-1.62794e-05 1.58702e-06 -0.000705515
0.00339465 -0.000858489 3.79608e-06
-0.000858489 0.00201096 1.68785e-05
3.79608e-06 1.68785e-05 0.00153265
0.00120799 -0.000479805 9.51689e-06
-0.000479805 0.000618504 -3.43349e-06
9.51689e-06 -3.43349e-06 0.000297174
0.000662832 -0.000547755 7.10711e-06
-0.000547755 7.34921e-05 1.60992e-05
7.10711e-06 1.60992e-05 -0.000322239
0.000727702 -0.000237202 -6.22509e-06
-0.000237202 0.00022203 7.08634e-07
-6.22509e-06 7.08634e-07 -2.30649e-05
0.000925956 -0.00049141 -6.45347e-06
-0.00049141 0.000263126 4.61832e-06
-6.45347e-06 4.61832e-06 -8.77744e-05
0.00251586 -0.0010521 -1.75018e-05
-0.0010521 0.00112189 1.56427e-05
-1.75018e-05 1.56427e-05 0.000460003
0.00194115 -0.001132 -8.35314e-06
-0.001132 0.000679555 7.22682e-07
-8.35314e-06 7.22682e-07 -4.9302e-05
0.00130156 -0.00055031 7.3e-06
-0.00055031 0.000383307 -2.54377e-07
7.3e-06 -2.54377e-07 1.19165e-05
0.00160058 -0.000888675 5.24604e-06
-0.000888675 0.000625583 -1.02626e-06
5.24604e-06 -1.02626e-06 3.6618e-05
0.00204977 -0.000369093 4.50637e-06
-0.000369093 0.0011659 -1.16112e-05
4.50637e-06 -1.16112e-05 0.00075111
0.00113437 -0.000317853 -5.1478e-06
-0.000317853 0.000390927 3.40283e-06
-5.1478e-06 3.40283e-06 9.51813e-05
0.000492251 -0.000425369 1.35324e-05
-0.000425369 -1.80103e-05 -1.73921e-05
1.35324e-05 -1.73921e-05 -0.000321601
0.00275999 -0.000323382 -5.94098e-06
-0.000323382 0.00164385 4.78893e-06
-5.94098e-06 4.78893e-06 0.00130153
-0.000512462 -0.000409389 1.17648e-06
-0.000409389 -0.000381143 -2.3186e-06
1.17648e-06 -2.3186e-06 -0.000794657
5.50955e-05 -8.03413e-05 1.29907e-05
-8.03413e-05 -0.000105135 4.69857e-06
1.29907e-05 4.69857e-06 -0.000467368
0.00221456 -0.000876238 -1.25155e-05
-0.000876238 0.00125483 1.71059e-05
-1.25155e-05 1.71059e-05 0.000962239
0.00130998 -0.000323603 2.77092e-09
-0.000323603 0.000696866 -6.50322e-07
2.77092e-09 -6.50322e-07 0.000408278
-3.96104e-05 -0.000132153 9.19058e-06
-0.000132153 -0.000254792 1.5071e-05
9.19058e-06 1.5071e-05 -0.000444334
0.00127533 -0.000252102 -8.34326e-06
-0.000252102 0.000743536 -5.92594e-06
-8.34326e-06 -5.92594e-06 0.00049318
0.000398435 -5.94598e-05 -3.36618e-06
-5.94598e-05 5.02384e-05 -8.24871e-07
-3.36618e-06 -8.24871e-07 -0.000102189
0.00158061 -4.96403e-05 -2.86149e-05
-4.96403e-05 0.000767099 7.63331e-06
-2.86149e-05 7.63331e-06 0.000727316
0.000619456 -0.000108072 -1.63122e-06
-0.000108072 0.000180162 -5.60551e-07
-1.63122e-06 -5.60551e-07 6.13688e-05
0.000898359 -3.89907e-05 -1.54289e-05
-3.89907e-05 0.000318335 1.04431e-06
-1.54289e-05 1.04431e-06 0.000279393
0.000749802 2.52153e-05 3.36241e-06
2.52153e-05 0.000196478 2.97389e-06
3.36241e-06 2.97389e-06 0.000189617
0.00042297 -4.99335e-05 3.22407e-06
-4.99335e-05 1.01626e-05 -6.23097e-06
3.22407e-06 -6.23097e-06 -2.61585e-05
0.00177244 2.29469e-05 2.20722e-05
2.29469e-05 0.000881418 -1.4531e-06
2.20722e-05 -1.4531e-06 0.000888478
0.0024765 7.60247e-06 3.07151e-05
7.60247e-06 0.00134964 -5.69878e-06
3.07151e-05 -5.69878e-06 0.00136337
0.000184681 2.4399e-05 1.26066e-06
2.4399e-05 -6.64045e-05 1.58351e-06
1.26066e-06 1.58351e-06 -0.00028543
-4.88048e-05 3.78207e-05 4.70553e-07
3.78207e-05 -0.000275849 -8.84886e-06
4.70553e-07 -8.84886e-06 -0.000382211
0.000603738 8.11896e-05 2.86334e-07
8.11896e-05 0.000204831 1.09857e-06
2.86334e-07 1.09857e-06 2.37718e-05
0.000371649 1.63997e-05 3.94764e-06
1.63997e-05 -3.69376e-05 -6.8678e-06
3.94764e-06 -6.8678e-06 -6.53647e-05
0.000267833 5.57569e-06 1.59733e-06
5.57569e-06 -6.806e-05 1.40923e-07
1.59733e-06 1.40923e-07 -0.000158502
0.00034168 -0.000137017 -4.76082e-07
-0.000137017 4.08168e-05 6.66207e-06
-4.76082e-07 6.66207e-06 -0.000125456
0.00241284 1.3305e-06 -1.75022e-05
1.3305e-06 0.00130977 -6.56024e-06
-1.75022e-05 -6.56024e-06 0.00132218
0.000364071 1.28914e-05 1.13738e-06
1.28914e-05 -4.22554e-05 -7.70004e-08
1.13738e-06 -7.70004e-08 -6.63566e-05
0.000359362 -1.73828e-05 -6.67071e-06
-1.73828e-05 -5.64254e-06 5.95884e-06
-6.67071e-06 5.95884e-06 -8.52658e-05
0.0023554 1.77963e-05 -6.09758e-06
1.77963e-05 0.00127299 -2.46734e-08
-6.09758e-06 -2.46734e-08 0.0012853
0.000362486 -3.10075e-06 -4.16225e-06
-3.10075e-06 -4.20252e-05 5.3949e-06
-4.16225e-06 5.3949e-06 -6.44238e-05
0.00242288 3.74091e-05 1.06534e-05
3.74091e-05 0.00132003 7.10302e-06
1.06534e-05 7.10302e-06 0.0013299
-0.00166271 -0.00266992 -0.000366803
-0.00266992 3.72549e-05 0.000148609
-0.000366803 0.000148609 -0.00539515
0.00752459 0.00466599 -0.000460467
0.00466599 0.0152376 8.23404e-05
-0.000460467 8.23404e-05 0.00506457
0.0100042 0.00283123 -0.0022739
0.00283123 0.0078094 0.000331745
-0.0022739 0.000331745 0.00336857
0.00048708 0.000133503 1.05177e-05
0.000133503 0.000179542 1.93024e-06
1.05177e-05 1.93024e-06 -7.30174e-05
0.00882753 -0.00222066 -0.000278565
-0.00222066 0.00633529 0.00038854
-0.000278565 0.00038854 0.0021689
0.00546151 -0.00207407 -0.000287657
-0.00207407 0.00316889 3.41782e-05
-0.000287657 3.41782e-05 -0.00273072
0.0277188 0.0144438 -1.24688e-05
0.0144438 0.0182446 -0.000765236
-1.24688e-05 -0.000765236 0.00299766
0.00682781 -0.00272822 0.000216572
-0.00272822 -0.00261286 -4.34157e-05
0.000216572 -4.34157e-05 9.79867e-05
0.0115861 -0.0057966 0.000431328
-0.0057966 -0.00495639 -0.000368682
0.000431328 -0.000368682 -0.00183088
0.0235575 0.00831109 -0.00131546
0.00831109 0.01118 0.000143536
-0.00131546 0.000143536 -0.000144505
0.02028 0.00591253 0.000656913
0.00591253 0.0145374 0.00040982
0.000656913 0.00040982 0.0080466
0.00748341 -0.00499869 -9.83197e-05
-0.00499869 -0.00206929 1.81118e-06
-9.83197e-05 1.81118e-06 0.000612149
0.0108712 -0.0102409 3.91467e-05
-0.0102409 -0.0006528 -9.54836e-05
3.91467e-05 -9.54836e-05 -0.00149172
0.0162534 0.00220876 6.21616e-05
0.00220876 0.012023 -0.000599119
6.21616e-05 -0.000599119 0.00173626
0.0185933 0.00140361 -4.05101e-05
0.00140361 0.00469025 0.000101207
-4.05101e-05 0.000101207 0.000147643
0.00486549 -0.00655625 9.8735e-06
-0.00655625 0.000438235 5.27575e-05
9.8735e-06 5.27575e-05 0.00142014
0.00791849 -0.0091778 0.000449629
-0.0091778 0.00456981 -0.000269367
0.000449629 -0.000269367 0.000115387
0.00849126 0.000876139 -0.000172571
0.000876139 0.00789588 -0.000515117
-0.000172571 -0.000515117 0.00118767
0.0185384 -0.00100147 -0.000322145
-0.00100147 0.0016403 0.000346688
-0.000322145 0.000346688 0.000696833
0.00024897 0.000280466 2.28561e-05
0.000280466 9.7779e-05 2.0926e-05
2.28561e-05 2.0926e-05 -0.000131884
0.000500339 -0.000117071 -1.12578e-06
-0.000117071 0.000269154 -3.35657e-06
-1.12578e-06 -3.35657e-06 -8.75156e-06
-0.000468004 -4.01313e-05 2.93907e-06
-4.01313e-05 -0.000463406 2.21971e-06
2.93907e-06 2.21971e-06 -0.000611291
0.000749552 0.000258093 1.58876e-05
0.000258093 0.000287539 2.31464e-05
1.58876e-05 2.31464e-05 7.90472e-05
0.00106926 0.000286171 -3.60413e-06
0.000286171 0.000583978 -4.3503e-06
-3.60413e-06 -4.3503e-06 0.0003083
0.000552725 0.000105097 1.5082e-06
0.000105097 0.000243791 -1.53974e-07
1.5082e-06 -1.53974e-07 1.6032e-05
0.00146217 0.000257053 -1.93981e-06
0.000257053 0.000860312 -1.97032e-07
-1.93981e-06 -1.97032e-07 0.000570267
0.00114724 0.000229816 5.49738e-07
0.000229816 0.000643797 7.4586e-06
5.49738e-07 7.4586e-06 0.000368284
0.00293604 -0.00199573 0.000183273
-0.00199573 -0.000682435 -0.00011664
0.000183273 -0.00011664 7.39656e-05
-0.00105872 -0.00110859 -1.23938e-05
-0.00110859 -0.00132996 -1.64464e-05
-1.23938e-05 -1.64464e-05 -0.00163265
-0.000998231 6.22844e-05 -1.17046e-05
6.22844e-05 -0.000704045 -8.0709e-06
-1.17046e-05 -8.0709e-06 -0.000927002
4.80875e-05 -0.000653109 2.01337e-05
-0.000653109 7.10036e-05 -1.23349e-05
2.01337e-05 -1.23349e-05 -0.000271281
0.00249222 -0.000576949 -3.93081e-05
-0.000576949 0.00168544 1.05486e-05
-3.93081e-05 1.05486e-05 0.0012561
0.0010002 -0.000118895 1.35139e-05
-0.000118895 0.000808789 -3.14572e-05
1.35139e-05 -3.14572e-05 0.000355158
-0.000799159 0.000198683 3.05036e-06
0.000198683 -0.000427243 1.93684e-05
3.05036e-06 1.93684e-05 -0.0007046
0.00194776 -0.00304112 -2.137e-05
-0.00304112 3.38825e-05 -4.49844e-06
-2.137e-05 -4.49844e-06 -0.000644677
0.00119807 -0.000254815 -6.14426e-06
-0.000254815 0.00104083 5.16999e-06
-6.14426e-06 5.16999e-06 0.000562674
-0.000573802 -0.000194992 -1.73641e-06
-0.000194992 0.000116272 8.35622e-06
-1.73641e-06 8.35622e-06 -0.000454809
-0.000752629 -0.000870692 1.04476e-05
-0.000870692 -0.000318701 1.46665e-06
1.04476e-05 1.46665e-06 -0.00068952
-0.000963792 -5.02982e-05 2.38494e-05
-5.02982e-05 -0.000452834 -3.72075e-06
2.38494e-05 -3.72075e-06 -0.000747553
0.00296544 -0.00312889 -0.000105752
-0.00312889 0.00242991 -1.20462e-05
-0.000105752 -1.20462e-05 0.000871358
-0.000744857 -0.00078601 8.21214e-06
-0.00078601 7.0606e-05 -1.5091e-05
8.21214e-06 -1.5091e-05 -0.00057323
0.000100008 -5.01771e-06 2.21087e-05
-5.01771e-06 0.000682812 -1.05034e-05
2.21087e-05 -1.05034e-05 -4.24825e-05
-0.000459338 -9.17838e-05 1.77853e-05
-9.17838e-05 0.00035224 2.74013e-05
1.77853e-05 2.74013e-05 -0.000421666
0.0012859 -0.000277067 0.000420935
-0.000277067 0.00669237 0.000100223
0.000420935 0.000100223 0.00179946
-0.000338166 9.52722e-05 0.000212003
9.52722e-05 0.00132226 -8.15496e-06
0.000212003 -8.15496e-06 -0.00426969
-0.0131151 -0.000753648 -0.0011767
-0.000753648 0.00584331 2.37442e-05
-0.0011767 2.37442e-05 0.00083363
0.0023416 0.00124586 2.76414e-05
0.00124586 0.00144624 6.50073e-06
2.76414e-05 6.50073e-06 0.000795502
-0.000508186 0.0016309 3.05275e-05
0.0016309 0.00016659 1.74942e-05
3.05275e-05 1.74942e-05 -0.000844736
0.00554209 0.00312098 0.000894112
0.00312098 0.00558444 0.000220883
0.000894112 0.000220883 -0.000526208
0.00305252 0.00649149 0.00024031
0.00649149 0.00349756 0.000276917
0.00024031 0.000276917 -0.000546114
0.000938911 0.00492199 -0.000286157
0.00492199 0.00172273 -0.000249955
-0.000286157 -0.000249955 -0.000818225
0.00862737 -0.00172003 -0.000134467
-0.00172003 0.00758082 -0.000545959
-0.000134467 -0.000545959 0.000700753
0.00494211 0.000423064 3.94232e-05
0.000423064 0.00308703 9.46067e-05
3.94232e-05 9.46067e-05 -0.000426976
0.011561 -0.000128176 -4.15611e-05
-0.000128176 -0.00342621 -0.000306876
-4.15611e-05 -0.000306876 -0.00362439
0.000763294 0.00114931 5.26081e-06
0.00114931 0.000906047 -8.85425e-07
5.26081e-06 -8.85425e-07 2.16092e-05
-0.00194622 0.000928489 1.94338e-05
0.000928489 0.00352182 1.2805e-06
1.94338e-05 1.2805e-06 -0.00119955
0.00832522 -0.000665756 0.000325285
-0.000665756 0.000996945 6.90957e-06
0.000325285 6.90957e-06 -0.00230812
-0.00221928 0.00137959 -3.85959e-05
0.00137959 0.000389792 -2.00711e-05
-3.85959e-05 -2.00711e-05 -0.00110313
0.0197106 0.00180385 4.25844e-05
0.00180385 0.00463711 -0.000113329
4.25844e-05 -0.000113329 -3.9722e-06
0.00387424 0.00353465 0.000450672
0.00353465 0.0067459 0.000297217
0.000450672 0.000297217 -0.00104723
0.0164252 0.000718547 -0.000240053
0.000718547 0.0061294 -3.32758e-05
-0.000240053 -3.32758e-05 1.16494e-05
9.57735e-05 0.000992012 6.71596e-08
0.000992012 0.000814676 -1.59113e-05
6.71596e-08 -1.59113e-05 -0.000267568
0.0052839 2.29118e-05 0.000165089
2.29118e-05 0.00372954 7.97852e-05
0.000165089 7.97852e-05 9.90062e-05
0.0038281 -0.00429262 0.000433793
-0.00429262 0.00511774 -0.000262607
0.000433793 -0.000262607 0.00162437
0.0384004 0.00844832 0.000699625
0.00844832 0.0177878 -0.000448637
0.000699625 -0.000448637 0.00768263
0.0105644 -3.19112e-05 1.84165e-05
-3.19112e-05 0.00907724 0.000655461
1.84165e-05 0.000655461 0.00216795
-0.00202819 0.00125639 -0.000213604
0.00125639 0.00145574 -0.000136553
-0.000213604 -0.000136553 -0.000233832
0.00115947 -0.000196746 0.000174762
-0.000196746 0.00601376 -4.73623e-05
0.000174762 -4.73623e-05 -0.00462338
0.000627166 0.000575547 2.60232e-06
0.000575547 0.000713271 1.36113e-05
2.60232e-06 1.36113e-05 6.34412e-05
0.000453434 0.000365969 4.21775e-06
0.000365969 0.00095374 5.46887e-06
4.21775e-06 5.46887e-06 0.000179734
0.00042306 -0.000165216 -1.11655e-05
-0.000165216 0.00139463 2.25216e-05
-1.11655e-05 2.25216e-05 0.000626491
-0.000868574 4.4213e-05 1.70361e-05
4.4213e-05 -0.000449092 -3.69235e-06
1.70361e-05 -3.69235e-06 -0.000771157
-0.000311176 9.94886e-06 6.15543e-06
9.94886e-06 0.00032546 8.6821e-06
6.15543e-06 8.6821e-06 -0.000251542
0.000112377 4.75781e-05 -8.53228e-06
4.75781e-05 0.000756878 -2.86409e-06
-8.53228e-06 -2.86409e-06 7.23416e-05
0.000190801 -2.96089e-05 -5.59379e-06
-2.96089e-05 0.000464792 1.43893e-06
-5.59379e-06 1.43893e-06 6.23514e-05
0.000258117 -0.000111508 1.01882e-06
-0.000111508 0.000771209 2.71561e-06
1.01882e-06 2.71561e-06 0.000205839
0.00430677 -0.000839761 2.07735e-05
-0.000839761 0.0028058 -9.53437e-06
2.07735e-05 -9.53437e-06 0.00235957
-0.000146202 -4.85986e-05 -5.77037e-07
-4.85986e-05 0.000176417 -7.01671e-06
-5.77037e-07 -7.01671e-06 -0.000162828
-0.00535927 0.000107232 -4.21364e-08
0.000107232 -0.00308229 -6.55034e-06
-4.21364e-08 -6.55034e-06 -0.00364384
0.000994748 -0.000605781 -2.35722e-06
-0.000605781 0.000700308 5.02807e-06
-2.35722e-06 5.02807e-06 9.66528e-05
-0.00197214 -0.000216214 2.22738e-05
-0.000216214 -0.00124608 1.86759e-05
2.22738e-05 1.86759e-05 -0.00166657
-0.000406967 -0.000262016 2.04366e-06
-0.000262016 -0.000306087 -6.03732e-06
2.04366e-06 -6.03732e-06 -0.000508611
0.000107576 -0.00055277 -1.40175e-05
-0.00055277 -0.000269396 -5.54383e-06
-1.40175e-05 -5.54383e-06 -0.000642909
0.00203144 -0.00109072 -1.3939e-05
-0.00109072 0.000815665 5.55003e-06
-1.3939e-05 5.55003e-06 1.44749e-05
0.00238211 -0.00133392 -1.60616e-05
-0.00133392 0.000864986 5.59478e-06
-1.60616e-05 5.59478e-06 4.59955e-05
0.00253984 -0.000653899 4.70454e-06
-0.000653899 0.00126399 -1.37573e-05
4.70454e-06 -1.37573e-05 0.000885816
0.00200589 -0.000987079 -2.92467e-06
-0.000987079 0.000813476 2.61136e-06
-2.92467e-06 2.61136e-06 0.000160985
0.00202467 -0.00120578 9.75519e-06
-0.00120578 0.000658539 -6.3716e-06
9.75519e-06 -6.3716e-06 -8.95652e-05
0.00158296 -0.000843265 5.23611e-06
-0.000843265 0.000568342 2.34848e-06
5.23611e-06 2.34848e-06 -1.50451e-05
0.00175527 -0.00110615 5.03656e-06
-0.00110615 0.000579127 -4.36152e-06
5.03656e-06 -4.36152e-06 -0.000140462
0.00216323 -0.000371428 -2.60081e-06
-0.000371428 0.00100499 -9.1346e-06
-2.60081e-06 -9.1346e-06 0.000693087
0.000559102 -0.00049613 -7.42692e-07
-0.00049613 -7.14922e-05 3.34715e-07
-7.42692e-07 3.34715e-07 -0.000458364
0.00137357 -0.00083116 9.96406e-06
-0.00083116 0.000501979 -1.15412e-05
9.96406e-06 -1.15412e-05 -6.2529e-05
-0.000371458 -0.00017237 7.04993e-06
-0.00017237 -0.000334618 -2.07014e-07
7.04993e-06 -2.07014e-07 -0.000764687
0.000549707 -0.000312798 -1.0933e-08
-0.000312798 0.000266365 -6.79953e-07
-1.0933e-08 -6.79953e-07 -0.000165532
-0.000479496 -0.000214567 -4.76587e-07
-0.000214567 -0.000554963 -9.15625e-07
-4.76587e-07 -9.15625e-07 -0.000871568
0.00151244 -0.000501747 -1.07263e-05
-0.000501747 0.000851669 1.8415e-05
-1.07263e-05 1.8415e-05 0.000457104
0.00107029 -0.000336643 1.99548e-06
-0.000336643 0.000523005 1.0401e-06
1.99548e-06 1.0401e-06 0.000159458
-0.000715034 -9.03491e-05 5.45823e-06
-9.03491e-05 -0.000667198 1.28684e-05
5.45823e-06 1.28684e-05 -0.00094501
0.000856934 -0.000552751 -1.42529e-05
-0.000552751 0.000447709 -7.36083e-06
-1.42529e-05 -7.36083e-06 0.000111663
0.000462144 -0.000115196 -8.06085e-07
-0.000115196 7.1186e-05 -1.07644e-07
-8.06085e-07 -1.07644e-07 -0.000125702
0.000369085 2.56868e-05 2.91994e-06
2.56868e-05 -3.10996e-05 1.37002e-05
2.91994e-06 1.37002e-05 -9.40225e-05
0.00168897 -0.000201514 -7.29883e-06
-0.000201514 0.000889736 -6.30992e-06
-7.29883e-06 -6.30992e-06 0.000724853
0.000452395 -5.42298e-05 -2.80199e-06
-5.42298e-05 1.23425e-05 2.08444e-07
-2.80199e-06 2.08444e-07 -3.4874e-05
0.00279816 9.62999e-05 5.37398e-06
9.62999e-05 0.00156609 3.89351e-06
5.37398e-06 3.89351e-06 0.00156509
0.000471659 -6.40922e-05 3.25413e-06
-6.40922e-05 3.36157e-05 -6.6877e-06
3.25413e-06 -6.6877e-06 -1.07273e-05
0.00184143 3.39756e-05 2.9652e-05
3.39756e-05 0.000928275 -1.77598e-06
2.9652e-05 -1.77598e-06 0.000930304
0.00287907 2.21257e-05 4.36682e-05
2.21257e-05 0.00161576 -6.84924e-06
4.36682e-05 -6.84924e-06 0.00162718
-5.79369e-05 9.63881e-05 1.7437e-06
9.63881e-05 -0.000236093 4.32343e-06
1.7437e-06 4.32343e-06 -0.000451371
-0.000122055 3.91656e-05 2.71744e-06
3.91656e-05 -0.000317375 -8.66585e-06
2.71744e-06 -8.66585e-06 -0.000455624
0.000256435 0.000103508 -3.7074e-07
0.000103508 -9.51355e-06 5.06494e-07
-3.7074e-07 5.06494e-07 -0.000228838
0.000401846 1.83066e-05 4.2411e-06
1.83066e-05 -1.96948e-05 -7.90199e-06
4.2411e-06 -7.90199e-06 -5.32508e-05
-6.9276e-05 3.62406e-05 -8.62569e-07
3.62406e-05 -0.000287391 -2.69634e-06
-8.62569e-07 -2.69634e-06 -0.000396793
0.000808858 0.000116186 -4.4834e-07
0.000116186 0.000374674 7.3742e-06
-4.4834e-07 7.3742e-06 0.000171283
0.00256443 -1.46043e-05 -2.40602e-05
-1.46043e-05 0.0014105 -6.71322e-06
-2.40602e-05 -6.71322e-06 0.0014217
0.000375126 1.48953e-05 -6.01279e-07
1.48953e-05 -3.64841e-05 -2.00339e-07
-6.01279e-07 -2.00339e-07 -6.40852e-05
-0.00017953 2.23853e-05 -3.99993e-07
2.23853e-05 -0.000365594 6.8355e-06
-3.99993e-07 6.8355e-06 -0.000456272
0.00240339 1.58366e-06 -4.93639e-06
1.58366e-06 0.00130371 1.1232e-07
-4.93639e-06 1.1232e-07 0.00131614
0.000374912 1.90816e-05 -2.46976e-06
1.90816e-05 -3.46019e-05 5.98368e-06
-2.46976e-06 5.98368e-06 -5.86343e-05
0.00235654 1.87215e-05 1.31873e-05
1.87215e-05 0.00127433 6.40236e-06
1.31873e-05 6.40236e-06 0.0012864
0.00104484 -0.000358072 0.000397104
-0.000358072 0.00669123 0.000227087
0.000397104 0.000227087 0.00341781
-0.00191479 -0.000894852 -6.58254e-05
-0.000894852 0.000360572 9.91469e-06
-6.58254e-05 9.91469e-06 -0.00549786
0.00357347 0.00461543 -0.000857244
0.00461543 0.0139834 -0.000221845
-0.000857244 -0.000221845 0.00372563
0.00081938 0.000210825 -4.55593e-07
0.000210825 0.000391586 5.59508e-07
-4.55593e-07 5.59508e-07 0.000142745
-0.000699431 0.000155797 9.47761e-06
0.000155797 -0.000536317 -6.86357e-07
9.47761e-06 -6.86357e-07 -0.000835006
0.00258797 0.000388831 3.0702e-05
0.000388831 0.00158086 6.04222e-06
3.0702e-05 6.04222e-06 0.00132762
0.0106301 -0.00142396 -0.000537109
-0.00142396 0.00088804 6.88398e-05
-0.000537109 6.88398e-05 -0.00299797
0.00985076 -0.00400377 0.000236859
-0.00400377 0.00558366 5.80594e-05
0.000236859 5.80594e-05 0.00256721
0.00483759 -0.00542858 0.000391451
-0.00542858 0.00220986 -0.000365268
0.000391451 -0.000365268 -0.00302881
0.00873184 -0.00565307 4.79164e-05
-0.00565307 -0.00212185 -0.000124159
4.79164e-05 -0.000124159 0.000823456
0.00361576 -0.00993993 -0.00130062
-0.00993993 -0.00475243 0.00010696
-0.00130062 0.00010696 -0.00355732
0.0331664 0.00889534 0.00108385
0.00889534 0.0196014 0.000401406
0.00108385 0.000401406 0.00623461
0.0103037 -0.00200105 0.000535123
-0.00200105 -0.000278788 -0.000334226
0.000535123 -0.000334226 -0.0040463
0.00374602 -0.00609011 8.44863e-06
-0.00609011 -0.000443397 1.23988e-05
8.44863e-06 1.23988e-05 0.0010389
0.00399748 -0.00981035 -0.000357437
-0.00981035 0.00306272 1.55954e-05
-0.000357437 1.55954e-05 -0.0027986
0.0105818 0.00518082 -0.000225301
0.00518082 0.00879077 -0.000446672
-0.000225301 -0.000446672 0.000636941
0.0151218 -0.000625348 -0.000215526
-0.000625348 -0.000575093 0.00019292
-0.000215526 0.00019292 -0.00114129
0.000840274 -0.00521411 -0.000231283
-0.00521411 0.00201555 0.000134718
-0.000231283 0.000134718 0.000481318
0.00829992 -0.00486651 -0.000435946
-0.00486651 0.00696853 0.000341624
-0.000435946 0.000341624 0.000306824
0.0125318 -0.000301388 4.69848e-05
-0.000301388 0.00480062 -0.000400998
4.69848e-05 -0.000400998 -0.000761009
0.0104736 0.001289 -8.84174e-05
0.001289 -0.000378442 0.000266451
-8.84174e-05 0.000266451 -0.00340622
-0.000393018 0.000133824 1.83104e-05
0.000133824 -0.00030436 3.37216e-05
1.83104e-05 3.37216e-05 -0.000472286
0.00057873 1.33321e-05 -6.3435e-06
1.33321e-05 0.000321158 2.20413e-06
-6.3435e-06 2.20413e-06 9.51881e-05
0.00139413 -0.00039688 1.23145e-05
-0.00039688 0.000868362 -1.05319e-05
1.23145e-05 -1.05319e-05 0.000576059
0.000399776 0.000203106 5.9694e-07
0.000203106 5.79644e-05 5.05222e-06
5.9694e-07 5.05222e-06 -0.000138454
0.000945476 0.000303291 -2.15645e-06
0.000303291 0.000523289 -1.19154e-05
-2.15645e-06 -1.19154e-05 0.000243643
0.00118456 0.000314386 -8.08365e-06
0.000314386 0.000678975 -4.31288e-06
-8.08365e-06 -4.31288e-06 0.000390642
0.00134377 -0.0025473 8.15022e-05
-0.0025473 -3.69623e-05 -3.77876e-05
8.15022e-05 -3.77876e-05 -0.000487442
0.00040799 -0.00091514 1.2475e-05
-0.00091514 0.000164392 -3.0787e-05
1.2475e-05 -3.0787e-05 -0.000117637
-0.000375137 0.000256535 -1.15338e-05
0.000256535 -0.00021123 -3.52141e-05
-1.15338e-05 -3.52141e-05 -0.000505328
0.000812519 -0.000354944 4.0806e-05
-0.000354944 0.000736663 -2.31623e-05
4.0806e-05 -2.31623e-05 0.000217324
0.00313413 -0.000185957 8.15515e-07
-0.000185957 0.00218537 -4.32596e-05
8.15515e-07 -4.32596e-05 0.0017209
-0.000415384 5.16886e-05 8.81566e-06
5.16886e-05 -0.0001015 8.46026e-06
8.81566e-06 8.46026e-06 -0.000394257
-0.000479637 1.95054e-05 5.02034e-06
1.95054e-05 0.000332111 2.05542e-05
5.02034e-06 2.05542e-05 -0.000377029
0.0014515 -0.00271955 -2.00938e-05
-0.00271955 0.00169492 -1.22527e-05
-2.00938e-05 -1.22527e-05 0.00028689
5.93979e-05 -2.05651e-05 -6.60959e-06
-2.05651e-05 0.000712984 -1.33431e-06
-6.60959e-06 -1.33431e-06 -6.15867e-05
0.000259567 -0.000755241 -2.39145e-06
-0.000755241 0.000957879 5.56898e-06
-2.39145e-06 5.56898e-06 9.21982e-05
0.00025467 0.000254048 5.54559e-05
0.000254048 0.000638592 -4.63922e-05
5.54559e-05 -4.63922e-05 4.81976e-05
-0.00338894 -0.000473301 -0.000246826
-0.000473301 0.000304617 1.97892e-05
-0.000246826 1.97892e-05 -0.00101422
-0.000811673 -0.000311109 -7.23654e-05
-0.000311109 0.00115316 -2.53547e-05
-7.23654e-05 -2.53547e-05 0.000126465
-0.003391 -0.000115683 1.04693e-05
-0.000115683 -0.00102451 -6.58165e-06
1.04693e-05 -6.58165e-06 -0.00184562
0.00203516 0.000864925 1.31918e-05
0.000864925 0.000207661 -1.95687e-05
1.31918e-05 -1.95687e-05 -0.0062888
-0.000952544 0.00156836 0.000281938
0.00156836 0.00620764 3.33742e-05
0.000281938 3.33742e-05 0.00173783
-0.00253391 0.000471574 0.00053209
0.000471574 0.000607747 4.8915e-05
0.00053209 4.8915e-05 -0.00455604
-0.000241993 0.00118806 1.56822e-05
0.00118806 0.000265832 2.94678e-05
1.56822e-05 2.94678e-05 -0.000695698
0.00160728 0.00213099 7.11201e-06
0.00213099 0.0018161 -4.78147e-05
7.11201e-06 -4.78147e-05 0.000302083
-0.00130598 0.00101124 -0.000385098
0.00101124 0.0040491 -0.000113708
-0.000385098 -0.000113708 -0.000785672
-0.00263505 0.00185994 0.000320049
0.00185994 0.00556316 0.000318979
0.000320049 0.000318979 -0.00141769
0.00945603 0.000250114 -0.000227069
0.000250114 0.000158722 -0.00054001
-0.000227069 -0.00054001 -0.00655455
0.00855562 0.000143242 0.000105133
0.000143242 0.000331948 -2.94347e-05
0.000105133 -2.94347e-05 -0.00225368
0.00924608 -0.00190217 -0.000552775
-0.00190217 -0.00089958 0.000320676
-0.000552775 0.000320676 -0.00428087
0.00059158 0.000901467 -2.0537e-05
0.000901467 0.00112355 -4.53003e-06
-2.0537e-05 -4.53003e-06 0.000166272
0.00279114 0.000876353 0.000113046
0.000876353 0.00370434 6.63941e-05
0.000113046 6.63941e-05 0.000187927
0.00905092 -0.00284571 -0.000232462
-0.00284571 0.00508281 -4.69286e-05
-0.000232462 -4.69286e-05 0.00236237
-0.00024378 0.00137495 -0.000190994
0.00137495 0.00329734 -3.09884e-05
-0.000190994 -3.09884e-05 0.00031445
0.0279859 0.00809058 -0.000584516
0.00809058 0.014305 -0.000612204
-0.000584516 -0.000612204 0.00479873
0.0148876 0.00405878 0.000145978
0.00405878 0.0102655 0.00051059
0.000145978 0.00051059 0.000812339
0.00795619 0.00316441 0.000126299
0.00316441 0.00856837 -1.32797e-06
0.000126299 -1.32797e-06 0.000577163
7.46375e-05 4.46281e-05 5.73136e-05
4.46281e-05 0.00201851 -1.72446e-05
5.73136e-05 -1.72446e-05 9.00944e-05
0.00254237 0.000435666 -0.000422409
0.000435666 0.00858308 -1.03659e-05
-0.000422409 -1.03659e-05 0.0049718
0.00143295 -0.00148237 0.000779128
-0.00148237 0.00127512 -0.000278767
0.000779128 -0.000278767 -0.00522162
0.0468421 0.0192687 -4.28969e-05
0.0192687 0.0318424 -0.00025643
-4.28969e-05 -0.00025643 0.0144661
0.0197281 0.00661712 0.00101737
0.00661712 0.0108381 0.00147106
0.00101737 0.00147106 -0.000725648
0.0121518 -0.00702699 0.000707842
-0.00702699 0.00916427 -0.000477487
0.000707842 -0.000477487 -3.70432e-05
5.56948e-05 -0.000932199 -9.43214e-05
-0.000932199 0.00413637 6.79256e-05
-9.43214e-05 6.79256e-05 0.0020335
0.0010451 0.000392752 -7.54445e-06
0.000392752 0.00129688 1.40384e-06
-7.54445e-06 1.40384e-06 0.000592717
-0.000228936 -0.000123837 -1.28648e-05
-0.000123837 0.000778541 -7.86455e-06
-1.28648e-05 -7.86455e-06 -7.61297e-05
0.00120336 -0.000965788 6.80347e-05
-0.000965788 0.0013444 -1.69781e-05
6.80347e-05 -1.69781e-05 0.000324146
-0.000680822 1.9661e-05 1.74806e-07
1.9661e-05 -8.96653e-05 5.84787e-06
1.74806e-07 5.84787e-06 -0.000477149
-0.000695142 -8.35306e-05 1.85132e-05
-8.35306e-05 0.000256449 -1.6327e-05
1.85132e-05 -1.6327e-05 -0.000331406
0.00114469 -0.000508167 -1.08793e-05
-0.000508167 0.00107031 1.22053e-06
-1.08793e-05 1.22053e-06 0.000679642
0.0027396 -0.00129722 5.15846e-05
-0.00129722 0.00165932 -1.499e-05
5.15846e-05 -1.499e-05 0.000823796
-0.0014792 -0.000337824 5.98716e-06
-0.000337824 -0.000685547 -5.94277e-06
5.98716e-06 -5.94277e-06 -0.00140851
0.00196437 -0.000976716 2.10659e-05
-0.000976716 0.000829856 -7.46252e-06
2.10659e-05 -7.46252e-06 0.000273711
-0.000683461 -0.000710881 -7.50159e-06
-0.000710881 -0.000474085 -2.03465e-06
-7.50159e-06 -2.03465e-06 -0.00149521
0.000843571 -0.000642955 -1.00948e-05
-0.000642955 0.000196537 1.64971e-07
-1.00948e-05 1.64971e-07 -0.000153706
0.0019542 -0.00107495 3.82115e-07
-0.00107495 0.00075786 -1.38855e-06
3.82115e-07 -1.38855e-06 -3.39319e-05
0.00232548 -0.0014118 -2.38785e-05
-0.0014118 0.000758846 3.80033e-06
-2.38785e-05 3.80033e-06 -0.000187823
0.00286811 -0.00155126 -1.44465e-05
-0.00155126 0.000852036 2.59392e-07
-1.44465e-05 2.59392e-07 1.04261e-05
0.00245189 -0.00146494 -3.5364e-06
-0.00146494 0.000829849 5.39469e-08
-3.5364e-06 5.39469e-08 -2.43809e-05
0.00252339 -0.00134473 -5.0392e-06
-0.00134473 0.000936254 1.38629e-06
-5.0392e-06 1.38629e-06 0.000114553
0.00171224 -0.000953256 7.92649e-06
-0.000953256 0.000628866 -1.10136e-05
7.92649e-06 -1.10136e-05 -2.09686e-05
0.00224884 -0.00120579 1.61622e-05
-0.00120579 0.000907257 -7.70945e-06
1.61622e-05 -7.70945e-06 0.000144759
0.00184516 -0.00119728 1.13746e-05
-0.00119728 0.000545724 -3.789e-06
1.13746e-05 -3.789e-06 -0.000200978
0.00148716 -0.000550131 -2.66076e-06
-0.000550131 0.000492283 -3.57591e-06
-2.66076e-06 -3.57591e-06 6.62126e-05
0.00233383 -0.000933005 5.33703e-06
-0.000933005 0.00102689 -5.50196e-06
5.33703e-06 -5.50196e-06 0.000426877
0.00108563 -0.00101611 3.79285e-06
-0.00101611 0.000170103 -5.48089e-06
3.79285e-06 -5.48089e-06 -0.000523006
0.000289797 -1.7818e-06 1.21506e-06
-1.7818e-06 -3.57652e-05 -2.40123e-06
1.21506e-06 -2.40123e-06 -0.000386905
0.000413032 -0.000391131 1.01286e-06
-0.000391131 -0.000108976 2.20945e-07
1.01286e-06 2.20945e-07 -0.000438364
0.000750893 -0.000533623 -1.24653e-05
-0.000533623 3.8208e-05 2.92193e-06
-1.24653e-05 2.92193e-06 -0.000373049
0.00021401 -0.000232938 5.71332e-06
-0.000232938 -5.56868e-05 9.60372e-06
5.71332e-06 9.60372e-06 -0.000410826
0.000989008 -0.000361571 -1.86574e-07
-0.000361571 0.000528061 1.10097e-06
-1.86574e-07 1.10097e-06 9.42601e-05
-0.00160752 -0.000452639 -4.46048e-06
-0.000452639 -0.00111831 1.06386e-05
-4.46048e-06 1.06386e-05 -0.00154597
0.00178998 -0.000526866 -7.67377e-06
-0.000526866 0.000975088 -3.70495e-06
-7.67377e-06 -3.70495e-06 0.000605968
0.00109861 -0.000191373 -8.19861e-07
-0.000191373 0.000479498 5.84128e-07
-8.19861e-07 5.84128e-07 0.000218771
0.000256779 -2.04359e-05 1.38889e-06
-2.04359e-05 -0.000100161 1.89957e-05
1.38889e-06 1.89957e-05 -0.000191125
0.00196716 -0.000195763 -1.99747e-06
-0.000195763 0.0010334 -1.45244e-05
-1.99747e-06 -1.45244e-05 0.000838767
0.000429905 -2.50148e-05 -7.59957e-06
-2.50148e-05 1.05008e-05 -9.23468e-07
-7.59957e-06 -9.23468e-07 -5.79225e-05
0.00363877 0.000107362 -5.41174e-05
0.000107362 0.00213231 7.8451e-06
-5.41174e-05 7.8451e-06 0.00212933
0.000553996 -6.11029e-05 2.58503e-06
-6.11029e-05 6.96909e-05 -1.12862e-05
2.58503e-06 -1.12862e-05 2.19489e-05
0.00211711 6.14372e-05 3.41846e-05
6.14372e-05 0.00111042 -6.24189e-07
3.41846e-05 -6.24189e-07 0.00110783
0.00293141 4.16222e-05 4.83687e-05
4.16222e-05 0.00164779 -6.55096e-06
4.83687e-05 -6.55096e-06 0.00165753
0.00159278 0.000247175 6.0545e-07
0.000247175 0.000898261 -1.03969e-05
6.0545e-07 -1.03969e-05 0.000622658
0.000696074 0.000124528 3.74208e-06
0.000124528 0.000234485 -7.12163e-06
3.74208e-06 -7.12163e-06 6.8018e-05
0.00047378 0.000115177 -1.41416e-06
0.000115177 0.000161597 2.48832e-06
-1.41416e-06 2.48832e-06 -9.01225e-05
0.000423578 4.10241e-05 -8.74574e-07
4.10241e-05 1.90045e-06 -1.08247e-05
-8.74574e-07 -1.08247e-05 -4.20058e-05
0.000170206 6.24292e-05 -2.64064e-06
6.24292e-05 -0.000121017 -4.07513e-06
-2.64064e-06 -4.07513e-06 -0.000256264
0.000580671 0.000104643 -1.38102e-06
0.000104643 0.000219084 -2.23105e-06
-1.38102e-06 -2.23105e-06 -5.41501e-06
0.00261952 -3.1563e-05 -2.80322e-05
-3.1563e-05 0.00144783 -7.1928e-06
-2.80322e-05 -7.1928e-06 0.00145745
0.000362521 3.55675e-06 8.32159e-07
3.55675e-06 -4.30734e-05 -3.61588e-07
8.32159e-07 -3.61588e-07 -7.67346e-05
0.00014537 2.19161e-05 -3.23703e-06
2.19161e-05 -0.000140428 4.00243e-06
-3.23703e-06 4.00243e-06 -0.000257521
0.00249405 -1.4762e-05 -7.12243e-06
-1.4762e-05 0.00136372 1.56825e-07
-7.12243e-06 1.56825e-07 0.00137526
0.000380583 8.77212e-06 -5.54711e-06
8.77212e-06 -3.37259e-05 6.52037e-06
-5.54711e-06 6.52037e-06 -6.06609e-05
0.00243305 2.77287e-06 1.7957e-05
2.77287e-06 0.00132385 6.46939e-06
1.7957e-05 6.46939e-06 0.00133609
0.00408792 -0.000137735 -0.000328545
-0.000137735 0.00317301 -1.63863e-05
-0.000328545 -1.63863e-05 -0.000498992
-0.00229842 0.000257596 0.000270795
0.000257596 0.00640992 -5.23985e-07
0.000270795 -5.23985e-07 0.00208308
-4.1e-05 -0.000609796 1.46896e-05
-0.000609796 0.0016049 -0.000301774
1.46896e-05 -0.000301774 -0.00491595
-0.00104691 -5.19097e-05 8.29555e-06
-5.19097e-05 -0.0006736 -8.39988e-06
8.29555e-06 -8.39988e-06 -0.00112188
0.00609261 0.000592408 1.92528e-05
0.000592408 0.00373208 1.98851e-05
1.92528e-05 1.98851e-05 0.00339899
9.32349e-05 0.000171474 -6.50975e-06
0.000171474 -5.68873e-05 -2.01026e-06
-6.50975e-06 -2.01026e-06 -0.000308636
-0.000278563 9.50365e-05 1.90613e-06
9.50365e-05 -0.000309885 -3.11414e-06
1.90613e-06 -3.11414e-06 -0.00059231
-0.000553823 5.79118e-05 7.22245e-07
5.79118e-05 -0.00057643 -6.15413e-06
7.22245e-07 -6.15413e-06 -0.000728423
0.000811996 0.000188753 1.11033e-05
0.000188753 0.000370876 -2.37943e-06
1.11033e-05 -2.37943e-06 0.000129727
-6.78488e-05 9.68689e-05 2.40832e-05
9.68689e-05 -0.000176252 -1.56706e-05
2.40832e-05 -1.56706e-05 -0.000294764
0.00668831 0.00226252 0.000198222
0.00226252 0.000990718 0.000222978
0.000198222 0.000222978 -0.00260141
0.00932953 -0.000449483 -0.000199098
-0.000449483 0.00118801 2.91328e-05
-0.000199098 2.91328e-05 -0.00295253
0.00755305 -0.00125494 0.000633018
-0.00125494 0.00646657 -0.000122308
0.000633018 -0.000122308 0.00227952
0.0121399 0.0002844 -6.36568e-05
0.0002844 -0.00287283 0.000242251
-6.36568e-05 0.000242251 -0.00345661
0.0064621 -0.00732991 -0.000126416
-0.00732991 0.0002426 1.83064e-05
-0.000126416 1.83064e-05 0.00105509
1.32038e-05 -0.00818245 -0.000523548
-0.00818245 0.00284124 0.000231123
-0.000523548 0.000231123 -0.00490901
0.0280261 0.00437634 0.000390508
0.00437634 0.0112809 -0.000398684
0.000390508 -0.000398684 0.0030476
0.00399335 -0.00690073 -0.000141272
-0.00690073 0.0018032 9.22532e-05
-0.000141272 9.22532e-05 0.000874784
-0.000373311 -0.00233111 -0.000172405
-0.00233111 0.00647815 8.61352e-05
-0.000172405 8.61352e-05 -0.00294214
0.0156481 0.000212824 0.000520278
0.000212824 0.00621374 -4.78892e-05
0.000520278 -4.78892e-05 -0.000458538
0.0209794 -0.00199295 -4.74656e-05
-0.00199295 0.00406126 4.22894e-06
-4.74656e-05 4.22894e-06 0.00218267
-0.00570749 -0.000943172 -0.000241481
-0.000943172 0.000213088 0.000260938
-0.000241481 0.000260938 -0.000990496
0.00111129 8.20438e-05 -0.000225411
8.20438e-05 0.0066331 -0.000230216
-0.000225411 -0.000230216 -0.00257372
0.0144305 -0.00599774 -0.000116029
-0.00599774 0.00539988 -0.000250087
-0.000116029 -0.000250087 -0.00451152
0.0250468 -0.00202806 0.000890442
-0.00202806 0.0124269 -0.000836112
0.000890442 -0.000836112 0.0059714
-0.000319419 0.000138312 5.12877e-05
0.000138312 0.000300636 -2.05479e-05
5.12877e-05 -2.05479e-05 -0.000351419
0.000213418 0.000196468 -3.5815e-06
0.000196468 0.0001169 -7.23582e-06
-3.5815e-06 -7.23582e-06 -7.38065e-05
0.000123362 -2.56288e-05 1.1417e-06
-2.56288e-05 4.60765e-05 -1.53461e-05
1.1417e-06 -1.53461e-05 -0.000190425
0.000882718 0.000172218 -7.95477e-06
0.000172218 0.00041241 -1.19452e-05
-7.95477e-06 -1.19452e-05 0.000194378
0.000612678 -0.00264454 5.82046e-05
-0.00264454 0.00114832 2.46776e-05
5.82046e-05 2.46776e-05 -0.000296308
0.00121596 -0.000724025 -4.63778e-06
-0.000724025 0.00171763 2.18621e-06
-4.63778e-06 2.18621e-06 0.000694773
0.000112827 5.85098e-05 -4.26169e-05
5.85098e-05 0.000210195 -1.73845e-05
-4.26169e-05 -1.73845e-05 -6.00861e-05
0.00152349 -0.000324513 8.60545e-06
-0.000324513 0.00125763 -7.58717e-05
8.60545e-06 -7.58717e-05 0.000747761
0.000800481 2.53974e-05 -1.6075e-05
2.53974e-05 0.00124971 1.54504e-05
-1.6075e-05 1.54504e-05 0.000590871
0.000327688 0.000181111 -5.80775e-06
0.000181111 0.000567363 1.35217e-05
-5.80775e-06 1.35217e-05 5.7584e-05
0.00093654 -0.00021044 1.86915e-06
-0.00021044 0.00128183 -1.24785e-06
1.86915e-06 -1.24785e-06 0.000567616
1.07617e-05 -0.00150047 5.07261e-05
-0.00150047 0.00200059 -1.57923e-05
5.07261e-05 -1.57923e-05 -6.84536e-05
0.000236784 -0.000133239 -1.80002e-05
-0.000133239 0.00161864 -1.83793e-05
-1.80002e-05 -1.83793e-05 0.000689991
0.000213091 0.000136988 4.19667e-05
0.000136988 0.000463637 -2.19744e-05
4.19667e-05 -2.19744e-05 -9.00808e-06
-0.00169644 -0.000159206 -0.00031033
-0.000159206 0.00247543 1.59451e-05
-0.00031033 1.59451e-05 -0.000349642
0.00154455 0.000634349 4.32642e-05
0.000634349 0.00187559 -5.75341e-06
4.32642e-05 -5.75341e-06 0.00108335
-0.00490295 -0.000460663 -2.32822e-05
-0.000460663 0.00602754 -0.000152771
-2.32822e-05 -0.000152771 0.00204448
0.00324761 0.000124061 5.49154e-05
0.000124061 0.00233557 3.19632e-05
5.49154e-05 3.19632e-05 -0.00222612
-0.00482047 0.00270611 -0.000185051
0.00270611 0.00555518 -0.000118551
-0.000185051 -0.000118551 0.00045209
0.00130138 0.00079711 -2.07617e-06
0.00079711 0.00164663 -9.37846e-07
-2.07617e-06 -9.37846e-07 0.000828782
-0.0012142 0.00175372 0.000354099
0.00175372 0.00187501 0.000126776
0.000354099 0.000126776 5.18797e-05
0.00101831 -7.79525e-05 9.17825e-05
-7.79525e-05 0.00430592 -5.37905e-06
9.17825e-05 -5.37905e-06 0.000934602
0.00549736 -0.00162645 0.000454418
-0.00162645 0.00653383 -0.000245272
0.000454418 -0.000245272 -0.00422376
0.0301712 0.00405947 -0.000516413
0.00405947 0.012014 0.000382411
-0.000516413 0.000382411 0.00259383
0.00393852 -0.00111676 -0.000627474
-0.00111676 0.00459682 6.67933e-06
-0.000627474 6.67933e-06 0.000860892
0.0203295 0.00695403 -0.000761771
0.00695403 0.0159459 -0.000406411
-0.000761771 -0.000406411 0.00835653
0.000651098 0.000286314 -7.75393e-05
0.000286314 0.00212093 4.40124e-06
-7.75393e-05 4.40124e-06 0.000229351
-0.00147834 -0.0011559 -0.000228604
-0.0011559 0.00611735 8.85878e-06
-0.000228604 8.85878e-06 0.00275023
0.00126877 -0.00266351 0.000263656
-0.00266351 0.00289649 -6.92896e-05
0.000263656 -6.92896e-05 -0.00355039
-0.00409475 9.91702e-05 0.000101672
9.91702e-05 0.0016246 5.35199e-05
0.000101672 5.35199e-05 0.00014943
0.0417139 0.0229505 0.000860604
0.0229505 0.0295139 -0.000249161
0.000860604 -0.000249161 0.0111741
0.0172719 0.00385552 -6.76803e-05
0.00385552 0.0129905 0.000589603
-6.76803e-05 0.000589603 0.00197305
-0.000159856 -0.00227586 0.000429314
-0.00227586 0.00553213 -0.000269587
0.000429314 -0.000269587 -0.00451908
-0.00181868 -0.00115878 -3.82198e-05
-0.00115878 0.00134821 -5.48288e-05
-3.82198e-05 -5.48288e-05 -0.000688003
0.0021967 -0.00167057 0.000485014
-0.00167057 0.000444172 -0.000120492
0.000485014 -0.000120492 -0.00547014
0.00672815 0.00729015 -0.00325301
0.00729015 0.0167413 3.45901e-05
-0.00325301 3.45901e-05 0.00425567
0.0291739 0.0112705 -0.000361928
0.0112705 0.0149896 0.00048503
-0.000361928 0.00048503 0.00291774
0.00546016 -0.00720802 -0.000400509
-0.00720802 0.00450188 0.000209205
-0.000400509 0.000209205 -0.000130418
0.00284224 -0.00382574 6.46742e-05
-0.00382574 0.00520927 7.94119e-05
6.46742e-05 7.94119e-05 0.00239074
-0.000257955 -0.000143611 2.27905e-05
-0.000143611 0.000692812 -2.34344e-05
2.27905e-05 -2.34344e-05 -0.000248324
0.000663351 -0.000764225 -1.72828e-05
-0.000764225 0.0011535 3.00612e-06
-1.72828e-05 3.00612e-06 8.06695e-05
7.74457e-05 -0.00163009 2.20865e-05
-0.00163009 0.000481197 1.72388e-05
2.20865e-05 1.72388e-05 -0.000634792
-0.00223446 -0.000191542 8.11591e-06
-0.000191542 -0.000738333 1.10884e-06
8.11591e-06 1.10884e-06 -0.0010854
-0.000297758 -0.000754136 -1.51025e-05
-0.000754136 0.000132067 4.97711e-06
-1.51025e-05 4.97711e-06 -0.000548604
0.00245077 -0.00129781 3.9406e-05
-0.00129781 0.00110935 -9.30883e-06
3.9406e-05 -9.30883e-06 0.000275674
0.00576861 -0.00174076 -1.08698e-05
-0.00174076 0.00282213 7.71152e-06
-1.08698e-05 7.71152e-06 0.00213567
0.0022876 -0.00125168 1.11623e-05
-0.00125168 0.00103889 -3.70585e-06
1.11623e-05 -3.70585e-06 -1.59637e-05
0.00286215 -0.00168764 -1.10891e-07
-0.00168764 0.000974439 -1.92909e-05
-1.10891e-07 -1.92909e-05 -0.000123143
0.00174521 -0.00104657 2.38111e-06
-0.00104657 0.000599702 -1.0534e-05
2.38111e-06 -1.0534e-05 -0.000181485
0.00263459 -0.00146679 1.73636e-06
-0.00146679 0.000926842 -2.8464e-06
1.73636e-06 -2.8464e-06 -4.01476e-05
0.00391827 -0.00177584 -5.65344e-06
-0.00177584 0.00142687 -1.12903e-05
-5.65344e-06 -1.12903e-05 0.000472686
0.00267917 -0.00113931 -1.12785e-06
-0.00113931 0.000451551 -4.49151e-06
-1.12785e-06 -4.49151e-06 -9.15164e-05
0.00351113 -0.00159007 -6.20076e-06
-0.00159007 0.00118544 -2.00403e-06
-6.20076e-06 -2.00403e-06 0.000368814
0.00319122 -0.00160664 -4.29842e-06
-0.00160664 0.00102441 -8.28902e-07
-4.29842e-06 -8.28902e-07 0.000164174
0.0029369 -0.00149667 1.40729e-05
-0.00149667 0.00115222 -7.83664e-06
1.40729e-05 -7.83664e-06 0.000304038
0.00223505 -0.00139522 4.18473e-06
-0.00139522 0.000717878 -1.73815e-06
4.18473e-06 -1.73815e-06 -0.000103175
0.00266649 -0.00135433 1.22092e-05
-0.00135433 0.00100394 -5.89054e-06
1.22092e-05 -5.89054e-06 0.00018081
0.00237754 -0.00108965 1.67668e-05
-0.00108965 0.00106792 3.34402e-06
1.67668e-05 3.34402e-06 0.000326878
0.00241284 -0.00122521 -2.05092e-06
-0.00122521 0.00101362 -2.53843e-06
-2.05092e-06 -2.53843e-06 0.000247369
0.00225701 -0.00126891 -5.73864e-06
-0.00126891 0.000807924 4.71233e-06
-5.73864e-06 4.71233e-06 3.95156e-05
0.00327877 -0.000310489 1.14351e-05
-0.000310489 0.00177127 2.54681e-06
1.14351e-05 2.54681e-06 0.00140568
0.00108705 -0.000410838 -1.0056e-05
-0.000410838 0.000311627 4.24944e-06
-1.0056e-05 4.24944e-06 -9.9417e-05
0.00260814 -0.000979665 -8.62537e-06
-0.000979665 0.00121487 -7.27936e-06
-8.62537e-06 -7.27936e-06 0.000597601
0.000808424 -0.000277863 1.24377e-07
-0.000277863 0.000179243 -2.76195e-06
1.24377e-07 -2.76195e-06 -0.000128199
0.000634777 -0.000180485 -3.56658e-06
-0.000180485 0.000164568 2.43133e-07
-3.56658e-06 2.43133e-07 -0.000184799
9.5491e-05 -0.000173528 7.73584e-06
-0.000173528 -0.000273586 7.80858e-06
7.73584e-06 7.80858e-06 -0.000625588
0.000184073 -0.000117656 -1.8577e-05
-0.000117656 -0.000183537 2.42075e-05
-1.8577e-05 2.42075e-05 -0.000292981
0.000883894 -0.000246898 4.47579e-06
-0.000246898 0.000333754 2.36857e-06
4.47579e-06 2.36857e-06 1.01619e-05
0.00196702 -0.000502027 -4.50817e-06
-0.000502027 0.00113075 -1.40494e-06
-4.50817e-06 -1.40494e-06 0.000712436
0.00119315 -0.00015987 -5.85765e-06
-0.00015987 0.000532036 -1.35513e-05
-5.85765e-06 -1.35513e-05 0.000279035
0.000311566 -6.68521e-05 -2.58909e-07
-6.68521e-05 -8.34116e-05 -6.50344e-07
-2.58909e-07 -6.50344e-07 -0.000168528
0.00423955 0.000144609 -6.6492e-05
0.000144609 0.00254194 8.92605e-06
-6.6492e-05 8.92605e-06 0.00252854
0.000351092 -6.70084e-05 5.8185e-06
-6.70084e-05 -5.02585e-05 -1.56538e-05
5.8185e-06 -1.56538e-05 -0.000114003
0.00361577 0.00010424 1.14e-05
0.00010424 0.00211689 1.05592e-06
1.14e-05 1.05592e-06 0.00211419
0.00300666 6.35104e-05 5.46196e-05
6.35104e-05 0.00169921 -7.45652e-06
5.46196e-05 -7.45652e-06 0.0017068
0.00439778 0.000320241 1.5686e-05
0.000320241 0.0028494 -1.0165e-05
1.5686e-05 -1.0165e-05 0.00233673
0.00305335 0.000310217 1.32871e-05
0.000310217 0.00198154 -3.25585e-05
1.32871e-05 -3.25585e-05 0.00154531
0.000777967 0.00011319 4.99076e-06
0.00011319 0.000285263 -1.23862e-05
4.99076e-06 -1.23862e-05 9.90215e-05
0.000629975 0.000186573 1.50212e-06
0.000186573 0.000266018 1.27145e-06
1.50212e-06 1.27145e-06 -8.95418e-06
0.000436996 -2.92318e-05 8.0434e-06
-2.92318e-05 1.36132e-05 -1.29945e-05
8.0434e-06 -1.29945e-05 -3.84376e-05
0.000663612 0.000122823 -8.36449e-07
0.000122823 0.000213933 -5.29348e-07
-8.36449e-07 -5.29348e-07 4.88563e-05
0.000765542 0.000109651 -4.72614e-06
0.000109651 0.000346378 -9.74374e-06
-4.72614e-06 -9.74374e-06 9.10072e-05
0.00294945 -4.87332e-05 -4.06362e-05
-4.87332e-05 0.00167142 -8.06348e-06
-4.06362e-05 -8.06348e-06 0.00167819
0.000395475 1.84643e-06 -3.29019e-06
1.84643e-06 -1.77457e-05 -3.36282e-07
-3.29019e-06 -3.36282e-07 -5.99925e-05
0.000617369 0.00011458 -5.93123e-06
0.00011458 0.000182495 5.72053e-06
-5.93123e-06 5.72053e-06 4.54161e-05
0.00272583 -3.52953e-05 -7.16773e-06
-3.52953e-05 0.00151901 4.77436e-07
-7.16773e-06 4.77436e-07 0.00152777
0.00037643 -6.02933e-06 -6.57992e-06
-6.02933e-06 -3.48783e-05 7.62673e-06
-6.57992e-06 7.62673e-06 -6.76152e-05
0.00250237 -1.50045e-05 2.14684e-05
-1.50045e-05 0.00136895 6.61895e-06
2.14684e-05 6.61895e-06 0.00138042
-0.00131306 0.00166595 -0.000102648
0.00166595 0.00470174 -0.000189333
-0.000102648 -0.000189333 -0.000265999
0.00667311 -0.000631508 -6.55873e-05
-0.000631508 0.00477967 -0.00010427
-6.55873e-05 -0.00010427 0.00125888
0.000125689 -0.000672853 0.000142794
-0.000672853 0.00652083 -9.65787e-05
0.000142794 -9.65787e-05 0.00268526
0.000556114 9.27817e-05 2.89441e-06
9.27817e-05 0.000468483 -9.8344e-06
2.89441e-06 -9.8344e-06 -8.40209e-05
-0.000253159 0.000383292 -8.67913e-07
0.000383292 -0.000224899 -1.13586e-05
-8.67913e-07 -1.13586e-05 -0.000556975
-0.000550615 0.000263754 2.62331e-05
0.000263754 -0.000687189 -2.65651e-05
2.62331e-05 -2.65651e-05 -0.000892191
-0.00207533 1.50206e-05 4.8161e-06
1.50206e-05 -0.00110478 3.28391e-05
4.8161e-06 3.28391e-05 -0.00167258
0.00198782 0.000649949 5.59874e-06
0.000649949 0.0010876 -9.132e-06
5.59874e-06 -9.132e-06 0.000667185
3.32826e-05 0.00010708 -9.44554e-06
0.00010708 -9.29012e-05 5.77987e-06
-9.44554e-06 5.77987e-06 -0.000400961
8.02492e-06 0.000113302 -1.81392e-05
0.000113302 -0.000171518 5.84047e-07
-1.81392e-05 5.84047e-07 -0.000330787
0.00117089 2.45498e-05 1.07238e-05
2.45498e-05 0.000622853 1.60569e-06
1.07238e-05 1.60569e-06 0.000367188
0.00122594 0.000227609 -8.64401e-06
0.000227609 0.00066118 -9.53554e-06
-8.64401e-06 -9.53554e-06 0.000541568
0.00314172 0.000307323 -5.09097e-06
0.000307323 0.00211866 -3.89533e-05
-5.09097e-06 -3.89533e-05 0.00169115
0.0124926 0.00507377 0.00119305
0.00507377 0.00750609 0.000653086
0.00119305 0.000653086 0.00202805
0.00572473 0.00186522 2.91363e-05
0.00186522 0.00275502 6.43626e-05
2.91363e-05 6.43626e-05 -0.0013194
0.00997671 -0.000469857 0.000273693
-0.000469857 0.000937966 7.2284e-06
0.000273693 7.2284e-06 -0.00204372
0.0163297 -0.000372107 -0.00023622
-0.000372107 0.00292913 -0.000125278
-0.00023622 -0.000125278 0.00351919
0.00900559 0.000627329 0.000197733
0.000627329 0.000828283 0.000472536
0.000197733 0.000472536 -0.00622513
0.00387133 -0.00684374 -0.000165937
-0.00684374 0.00236455 7.23449e-05
-0.000165937 7.23449e-05 0.00112521
0.00351071 -0.00249986 -0.000595921
-0.00249986 0.00667056 0.000182646
-0.000595921 0.000182646 -0.000213754
-0.00156184 -0.00246307 -0.000143014
-0.00246307 0.00162426 0.00017891
-0.000143014 0.00017891 -0.000173722
0.0124217 -0.000386315 -0.000469445
-0.000386315 0.00976877 -1.13765e-05
-0.000469445 -1.13765e-05 0.000893093
0.0100191 -0.00409584 0.00015853
-0.00409584 0.007168 0.000291668
0.00015853 0.000291668 -0.00168789
0.0335663 -0.00680435 0.000451337
-0.00680435 0.0134419 -0.00110375
0.000451337 -0.00110375 0.00324956
-0.00121791 0.000627008 -0.000280661
0.000627008 0.00313341 0.000123979
-0.000280661 0.000123979 0.000292899
0.00364441 0.00204986 -0.000423916
0.00204986 0.00754114 -0.000169454
-0.000423916 -0.000169454 0.000148088
0.0340908 -0.0123716 0.00142127
-0.0123716 0.0208569 -0.00134843
0.00142127 -0.00134843 0.00701268
0.0382906 -0.0197807 0.000174199
-0.0197807 0.0265736 -5.06456e-05
0.000174199 -5.06456e-05 0.0101822
0.000900627 0.000622156 5.82928e-05
0.000622156 0.000840014 1.65427e-05
5.82928e-05 1.65427e-05 0.000145337
-0.000190461 0.000104491 1.65611e-05
0.000104491 0.000419355 3.43176e-06
1.65611e-05 3.43176e-06 -0.000259495
0.0010799 0.000196081 -4.32163e-05
0.000196081 0.000679581 -1.47311e-05
-4.32163e-05 -1.47311e-05 0.000469747
0.00160054 -0.00203136 9.35227e-05
-0.00203136 0.00259928 1.01935e-05
9.35227e-05 1.01935e-05 3.53888e-05
-0.00189825 -0.000208752 0.000180152
-0.000208752 0.000622263 2.8749e-05
0.000180152 2.8749e-05 -0.000437089
0.000559534 0.00020731 -4.43824e-05
0.00020731 0.000661767 1.48773e-05
-4.43824e-05 1.48773e-05 0.000185392
-0.000554127 -0.00019297 -3.81739e-05
-0.00019297 0.000659798 -2.34319e-06
-3.81739e-05 -2.34319e-06 -0.000249635
0.000193695 0.000290283 -1.4674e-05
0.000290283 0.000505404 3.68237e-06
-1.4674e-05 3.68237e-06 1.38953e-05
-0.000247504 0.000504163 3.10445e-05
0.000504163 0.000700045 7.088e-06
3.10445e-05 7.088e-06 -8.77389e-05
-0.00323718 3.79814e-05 0.000191639
3.79814e-05 0.00172309 -0.000117914
0.000191639 -0.000117914 -0.00074437
0.00227958 0.0011824 7.9278e-05
0.0011824 0.00132269 7.77153e-05
7.9278e-05 7.77153e-05 0.000695585
0.000712603 0.00135632 -0.000105332
0.00135632 0.00197415 -0.000146046
-0.000105332 -0.000146046 -0.00029274
-0.000261764 -0.00129321 0.00037926
-0.00129321 0.0013444 0.000144644
0.00037926 0.000144644 -0.00415877
-0.00395645 0.00110517 -0.000287148
0.00110517 0.00595862 -2.25196e-05
-0.000287148 -2.25196e-05 0.000853104
0.00676381 -0.000780501 -0.000223398
-0.000780501 0.00508291 1.85633e-05
-0.000223398 1.85633e-05 0.002599
0.000262824 0.000935369 0.000101335
0.000935369 0.00155618 1.99328e-05
0.000101335 1.99328e-05 -0.000447286
-0.000593473 0.000529711 -5.11795e-05
0.000529711 0.00342542 0.00011759
-5.11795e-05 0.00011759 0.000697392
-0.00190427 -7.89653e-05 -0.0001148
-7.89653e-05 0.00482023 -0.000110822
-0.0001148 -0.000110822 0.000834914
0.0139153 -0.0074953 0.000607483
-0.0074953 0.0106144 -0.000353751
0.000607483 -0.000353751 0.000453087
0.0328992 0.0109257 -0.00112845
0.0109257 0.0201868 -0.000452668
-0.00112845 -0.000452668 0.00640093
0.00845286 -0.00379668 -0.000614261
-0.00379668 0.00452845 0.000364436
-0.000614261 0.000364436 -0.000644449
0.0344211 0.0271383 0.0024245
0.0271383 0.0252698 -0.00177713
0.0024245 -0.00177713 0.00659073
-0.00107084 -0.000963639 2.17095e-05
-0.000963639 0.00153876 -1.2403e-06
2.17095e-05 -1.2403e-06 -0.000574668
0.000786088 -0.00117341 0.00013769
-0.00117341 0.00149991 3.83357e-06
0.00013769 3.83357e-06 -0.004746
0.0124212 0.00783766 -0.00171617
0.00783766 0.0163222 2.33121e-05
-0.00171617 2.33121e-05 0.00337687
6.96912e-06 -0.00242818 4.77168e-05
-0.00242818 0.00281404 3.97128e-05
4.77168e-05 3.97128e-05 0.000748689
0.0331857 0.011296 0.000689793
0.011296 0.016733 0.000391135
0.000689793 0.000391135 0.00430328
0.0045346 -0.010447 0.000568933
-0.010447 0.00352952 -0.000190772
0.000568933 -0.000190772 -0.00227753
-0.000726864 -0.00277403 4.1157e-05
-0.00277403 0.00101317 5.61068e-05
4.1157e-05 5.61068e-05 -0.00102576
0.00282472 -0.000499651 0.000195794
-0.000499651 0.0129353 -0.00017139
0.000195794 -0.00017139 0.00530042
0.0251113 0.0121367 -0.00271246
0.0121367 0.0125065 -7.46953e-06
-0.00271246 -7.46953e-06 0.00196881
0.00178962 -0.00975157 -0.00122675
-0.00975157 -0.00481143 0.000291461
-0.00122675 0.000291461 -0.00445236
-0.000132231 -0.00421621 0.000270134
-0.00421621 0.00032125 -0.0002203
0.000270134 -0.0002203 0.000825649
0.000481556 -0.000641777 -9.25391e-05
-0.000641777 0.000984208 3.28477e-05
-9.25391e-05 3.28477e-05 -8.10871e-05
-9.83067e-05 -0.00127022 -2.59188e-05
-0.00127022 0.000527814 1.80601e-05
-2.59188e-05 1.80601e-05 -0.000534006
-0.000457118 -0.00125657 -6.15523e-06
-0.00125657 -0.00036468 -1.11541e-05
-6.15523e-06 -1.11541e-05 -0.00116794
-0.00298756 -0.000235865 1.93666e-05
-0.000235865 -0.00118696 -2.03098e-06
1.93666e-05 -2.03098e-06 -0.00172945
0.000840326 -0.0010897 5.97744e-06
-0.0010897 0.000248498 -7.07805e-06
5.97744e-06 -7.07805e-06 -0.00049314
0.00394739 -0.00190089 -2.62952e-06
-0.00190089 0.00125362 -1.67267e-06
-2.62952e-06 -1.67267e-06 0.00052857
0.00521479 -0.00176051 -2.9102e-05
-0.00176051 0.00255717 6.33645e-06
-2.9102e-05 6.33645e-06 0.00147042
0.00241145 -0.00155735 -2.19481e-06
-0.00155735 0.000721645 -1.92668e-06
-2.19481e-06 -1.92668e-06 -0.000309287
0.00351047 -0.00183909 3.06624e-06
-0.00183909 0.00094293 -1.05352e-05
3.06624e-06 -1.05352e-05 0.000105954
0.00272463 -0.00147337 1.15752e-05
-0.00147337 0.000990368 9.58295e-07
1.15752e-05 9.58295e-07 1.30912e-05
0.00315471 -0.00164289 2.99207e-06
-0.00164289 0.00101039 -4.80358e-06
2.99207e-06 -4.80358e-06 0.000104086
0.00333302 -0.0013044 -1.17025e-06
-0.0013044 0.000766648 -5.87526e-06
-1.17025e-06 -5.87526e-06 0.000219231
0.00231841 -0.000753632 -1.63572e-06
-0.000753632 5.81193e-05 6.29019e-08
-1.63572e-06 6.29019e-08 -0.000165521
0.00235889 -0.00109967 1.93393e-06
-0.00109967 0.000204426 -2.48794e-06
1.93393e-06 -2.48794e-06 -0.00033409
0.00266527 -0.00114661 4.78045e-06
-0.00114661 0.00042218 -1.6332e-06
4.78045e-06 -1.6332e-06 -0.000119862
0.00341258 -0.00142686 -4.21871e-08
-0.00142686 0.00117881 -3.7992e-06
-4.21871e-08 -3.7992e-06 0.000444488
0.00343601 -0.00158954 -4.65796e-06
-0.00158954 0.00114591 -5.98419e-07
-4.65796e-06 -5.98419e-07 0.000321576
0.00337111 -0.00164354 7.81999e-06
-0.00164354 0.00111274 -5.55528e-06
7.81999e-06 -5.55528e-06 0.000238268
0.00268888 -0.00133347 -1.14812e-06
-0.00133347 0.00102993 -1.19433e-05
-1.14812e-06 -1.19433e-05 0.000221371
0.00239566 -0.0014175 2.42261e-06
-0.0014175 0.000837172 -9.89464e-07
2.42261e-06 -9.89464e-07 1.12988e-05
0.00177469 -0.00129799 2.05494e-06
-0.00129799 0.000460891 1.25265e-06
2.05494e-06 1.25265e-06 -0.000320512
0.00410121 -0.000830617 1.51247e-05
-0.000830617 0.00224341 1.41735e-05
1.51247e-05 1.41735e-05 0.00168048
0.000991389 -0.000911482 4.35475e-06
-0.000911482 0.000250908 4.88968e-06
4.35475e-06 4.88968e-06 -0.000451784
0.00223545 -0.00119037 -1.68526e-05
-0.00119037 0.00089645 9.17657e-06
-1.68526e-05 9.17657e-06 0.000145018
0.00146757 -0.000359635 6.75999e-06
-0.000359635 0.000564255 -8.07833e-06
6.75999e-06 -8.07833e-06 0.000290998
0.000529617 -0.000393711 -1.38267e-06
-0.000393711 5.63261e-05 -7.53037e-06
-1.38267e-06 -7.53037e-06 -0.000337984
3.44865e-05 -0.00026077 -2.43258e-06
-0.00026077 -0.000265157 -1.94953e-06
-2.43258e-06 -1.94953e-06 -0.000669579
0.00309501 -0.000140332 -0.000117854
-0.000140332 0.00169469 1.68573e-05
-0.000117854 1.68573e-05 0.00159489
0.000406471 -0.000254434 -4.93849e-06
-0.000254434 -5.13696e-05 8.23608e-07
-4.93849e-06 8.23608e-07 -0.000373473
0.000747206 -0.00045034 -4.51954e-06
-0.00045034 0.000217555 8.94011e-07
-4.51954e-06 8.94011e-07 -0.000143016
0.00148554 -2.67289e-06 -0.000114657
-2.67289e-06 0.000699707 1.1934e-05
-0.000114657 1.1934e-05 0.000675108
0.00145547 -9.8399e-05 -3.24679e-05
-9.8399e-05 0.000664506 -8.83651e-07
-3.24679e-05 -8.83651e-07 0.000545984
0.00179286 -0.00031475 2.35957e-06
-0.00031475 0.000877779 -5.44266e-06
2.35957e-06 -5.44266e-06 0.000581707
0.00078035 -9.2495e-05 1.48903e-05
-9.2495e-05 0.000214027 -1.76711e-05
1.48903e-05 -1.76711e-05 0.000125506
0.0045159 0.000133173 1.33926e-05
0.000133173 0.00272255 9.18643e-07
1.33926e-05 9.18643e-07 0.00271272
0.0041255 9.85333e-05 8.34888e-05
9.85333e-05 0.00245369 -8.73821e-06
8.34888e-05 -8.73821e-06 0.00245199
-0.00245613 8.12374e-05 5.83191e-06
8.12374e-05 -0.00178685 7.67859e-06
5.83191e-06 7.67859e-06 -0.00212859
0.0023414 0.000433555 5.58383e-06
0.000433555 0.00150967 -2.43572e-05
5.58383e-06 -2.43572e-05 0.00102733
-0.00102064 9.83627e-05 3.99648e-06
9.83627e-05 -0.000635543 -7.41692e-08
3.99648e-06 -7.41692e-08 -0.00111291
0.000815452 0.000146301 -5.72585e-07
0.000146301 0.000318325 -1.52573e-05
-5.72585e-07 -1.52573e-05 9.68617e-05
0.000415587 0.000223012 6.71386e-06
0.000223012 0.000211326 -1.06445e-06
6.71386e-06 -1.06445e-06 -0.000176916
0.000214791 3.53356e-05 -7.30561e-06
3.53356e-05 -0.00011059 -1.57953e-05
-7.30561e-06 -1.57953e-05 -0.000178474
0.000514046 0.000106489 -3.88512e-08
0.000106489 0.000123168 1.06439e-06
-3.88512e-08 1.06439e-06 -7.21974e-05
0.000826821 0.000216587 -3.5991e-06
0.000216587 0.000442982 7.93142e-06
-3.5991e-06 7.93142e-06 0.000138994
0.00325039 -6.78869e-05 -5.60568e-05
-6.78869e-05 0.00187848 -8.77381e-06
-5.60568e-05 -8.77381e-06 0.00188196
0.000315229 1.88877e-05 -9.69834e-07
1.88877e-05 -6.17788e-05 -3.53415e-08
-9.69834e-07 -3.53415e-08 -0.000114658
0.000227274 0.00010415 -3.49365e-06
0.00010415 -7.84484e-05 8.90079e-06
-3.49365e-06 8.90079e-06 -0.000235164
0.00280964 -5.42497e-05 -9.57707e-06
-5.42497e-05 0.00157858 6.33207e-07
-9.57707e-06 6.33207e-07 0.00158446
0.00028243 -2.1194e-05 -9.30974e-06
-2.1194e-05 -9.19288e-05 9.74441e-06
-9.30974e-06 9.74441e-06 -0.000132617
0.00260656 -3.35665e-05 2.62635e-05
-3.35665e-05 0.00144 6.91358e-06
2.62635e-05 6.91358e-06 0.00144949
0.00620954 0.00204642 0.000760359
0.00204642 0.00604619 0.000185653
0.000760359 0.000185653 0.00121867
-0.00136306 0.00162134 -4.49677e-05
0.00162134 0.0040042 -8.81712e-06
-4.49677e-05 -8.81712e-06 -0.00113661
0.00061018 0.00215285 3.55218e-06
0.00215285 0.00486654 -3.22413e-05
3.55218e-06 -3.22413e-05 0.000337491
0.000339056 0.000509457 -2.2079e-05
0.000509457 3.39705e-05 4.43519e-06
-2.2079e-05 4.43519e-06 -0.000433651
-0.00122214 5.32281e-06 -2.12179e-05
5.32281e-06 -0.000785528 3.55598e-05
-2.12179e-05 3.55598e-05 -0.00126397
-0.00178323 6.81622e-05 -2.40543e-05
6.81622e-05 -0.00121575 -1.70482e-05
-2.40543e-05 -1.70482e-05 -0.00144847
0.00218301 0.000156681 1.25704e-05
0.000156681 0.00138911 1.95765e-08
1.25704e-05 1.95765e-08 0.00100398
0.000638474 0.000369132 4.27512e-06
0.000369132 1.58104e-05 -8.08657e-06
4.27512e-06 -8.08657e-06 -0.00021243
0.000941374 0.000546768 -2.59358e-05
0.000546768 0.000422825 -1.09152e-05
-2.59358e-05 -1.09152e-05 0.000164925
0.00166427 0.000560244 1.46664e-05
0.000560244 0.00075249 -4.05256e-05
1.46664e-05 -4.05256e-05 0.000319491
-0.00216614 0.000154681 -2.38965e-05
0.000154681 -0.000975967 9.1153e-06
-2.38965e-05 9.1153e-06 -0.001437
-0.000417963 5.68079e-05 -6.4161e-06
5.68079e-05 -0.000315369 -5.98441e-06
-6.4161e-06 -5.98441e-06 -0.00060579
-0.00131989 3.64553e-05 -1.6644e-05
3.64553e-05 -0.00108917 1.67617e-05
-1.6644e-05 1.67617e-05 -0.00111765
-0.000614844 6.74697e-05 -8.62508e-06
6.74697e-05 -0.000143256 4.22233e-06
-8.62508e-06 4.22233e-06 -0.000600531
-0.000399152 0.000430932 -1.11225e-06
0.000430932 0.000132138 2.18649e-05
-1.11225e-06 2.18649e-05 -0.000650494
0.0169487 -0.0128921 -0.000355569
-0.0128921 0.017544 0.000253546
-0.000355569 0.000253546 0.00136846
0.0118879 0.00536585 0.000343525
0.00536585 0.00507163 0.000212439
0.000343525 0.000212439 -0.00143253
0.00574057 0.00113183 0.000235914
0.00113183 0.0040089 -5.40452e-05
0.000235914 -5.40452e-05 -0.000555346
0.0456455 -0.0118865 -0.00182339
-0.0118865 0.0178649 -0.000499825
-0.00182339 -0.000499825 0.00562727
0.00853228 -0.000914097 0.000362944
-0.000914097 0.00682591 0.000647826
0.000362944 0.000647826 0.000361965
0.00187607 -0.000308634 -0.000282448
-0.000308634 0.00656993 0.000202394
-0.000282448 0.000202394 -0.00270872
-0.000632673 -0.00288836 -4.27273e-05
-0.00288836 0.00269215 0.000133421
-4.27273e-05 0.000133421 3.50372e-05
-0.00129725 -0.000500717 0.000237674
-0.000500717 0.00282958 4.71613e-05
0.000237674 4.71613e-05 0.000694497
0.0390517 -0.0230082 0.000360887
-0.0230082 0.0266453 0.000548203
0.000360887 0.000548203 0.00886175
0.00303793 0.00288907 -0.000254912
0.00288907 0.0067839 -0.000156753
-0.000254912 -0.000156753 -0.00205616
0.0165349 -0.00689056 -0.000114443
-0.00689056 0.0141237 0.000219416
-0.000114443 0.000219416 0.000949378
-0.000370057 0.00174153 2.24596e-05
0.00174153 0.00238615 -2.23659e-05
2.24596e-05 -2.23659e-05 0.000485069
0.0049835 0.00784981 -0.00030978
0.00784981 0.00351877 1.1362e-05
-0.00030978 1.1362e-05 -0.0011864
0.0300093 -0.0107009 -0.00116474
-0.0107009 0.0153417 -0.000119467
-0.00116474 -0.000119467 0.00287755
0.00218144 0.00121325 1.63634e-05
0.00121325 0.00100759 4.9488e-05
1.63634e-05 4.9488e-05 0.000619702
0.000271716 0.000532381 6.80639e-06
0.000532381 0.000542535 2.46408e-06
6.80639e-06 2.46408e-06 -0.000217566
-0.000624183 4.82809e-05 -7.14532e-05
4.82809e-05 0.000199573 1.57609e-05
-7.14532e-05 1.57609e-05 -0.000514199
-0.001827 -0.000371352 -0.000190319
-0.000371352 0.00242754 -3.60464e-05
-0.000190319 -3.60464e-05 0.000103071
0.00112309 0.000569025 -7.94597e-05
0.000569025 0.000964897 -7.98668e-07
-7.94597e-05 -7.98668e-07 0.000323889
-8.89111e-05 0.000300941 -2.53964e-05
0.000300941 0.000327421 5.69033e-06
-2.53964e-05 5.69033e-06 -0.000197806
0.00136726 0.0010389 -5.32082e-06
0.0010389 0.000771033 -1.52408e-06
-5.32082e-06 -1.52408e-06 0.000167161
0.000190534 0.00144828 -7.5046e-05
0.00144828 0.00168049 -8.3481e-05
-7.5046e-05 -8.3481e-05 -0.000378984
0.00337045 0.00333586 0.000147023
0.00333586 0.00174617 5.17747e-05
0.000147023 5.17747e-05 -3.75919e-05
-0.00688607 0.00141317 0.000758227
0.00141317 0.00672012 -6.99383e-05
0.000758227 -6.99383e-05 -0.00296466
0.00109948 -0.00135468 -6.76357e-05
-0.00135468 0.00266557 0.000100545
-6.76357e-05 0.000100545 -0.00144397
-0.00241729 0.000443502 -8.2409e-05
0.000443502 0.00492028 0.000141634
-8.2409e-05 0.000141634 -3.6662e-05
-0.0019381 -0.000616825 -6.66834e-05
-0.000616825 0.00105685 2.69472e-06
-6.66834e-05 2.69472e-06 -0.00105162
-0.00143703 -0.0015839 -1.48463e-05
-0.0015839 0.00156039 6.74419e-06
-1.48463e-05 6.74419e-06 0.000673718
-0.00346552 -0.00224156 -0.000291466
-0.00224156 0.0012484 0.000206177
-0.000291466 0.000206177 -0.00505579
-0.00105008 -0.00812955 0.000468224
-0.00812955 0.00380774 -0.000298614
0.000468224 -0.000298614 -0.00475749
0.0239802 0.00925057 0.00116975
0.00925057 0.0112788 -0.000220391
0.00116975 -0.000220391 -0.000199781
0.0277094 0.0144654 -0.000260686
0.0144654 0.019478 0.000731189
-0.000260686 0.000731189 0.00306032
0.000212567 -0.00199952 -4.95062e-05
-0.00199952 0.00198723 1.63304e-05
-4.95062e-05 1.63304e-05 0.000127375
0.00815143 0.00431113 0.000572737
0.00431113 0.0157215 -7.11327e-05
0.000572737 -7.11327e-05 0.00508223
0.0108554 0.00809789 7.75408e-05
0.00809789 0.00538639 0.000127247
7.75408e-05 0.000127247 -0.00261796
0.00265778 -0.0065354 8.44244e-05
-0.0065354 0.00126498 -5.62593e-05
8.44244e-05 -5.62593e-05 0.000500034
0.0117829 -0.0102941 3.32248e-06
-0.0102941 -0.00133861 2.34343e-05
3.32248e-06 2.34343e-05 -0.00155829
0.00248125 -0.00332219 4.39383e-05
-0.00332219 0.00117195 2.10972e-06
4.39383e-05 2.10972e-06 0.000314748
0.000104334 0.00550147 -0.00194185
0.00550147 0.00354935 9.76175e-05
-0.00194185 9.76175e-05 -0.00579872
0.0144212 -0.00662493 -0.000580243
-0.00662493 -0.00388043 8.65495e-05
-0.000580243 8.65495e-05 -0.00222063
0.00504057 -0.00662492 0.000121641
-0.00662492 -0.00100501 -0.000101578
0.000121641 -0.000101578 0.000820213
3.00592e-05 -0.000931436 -1.56444e-05
-0.000931436 0.000723785 -1.0675e-05
-1.56444e-05 -1.0675e-05 -0.000314992
0.00249298 -0.00196032 3.8123e-05
-0.00196032 0.000998553 -1.82876e-05
3.8123e-05 -1.82876e-05 0.000133838
0.00304023 -0.00172661 5.18126e-06
-0.00172661 0.000700796 -1.55733e-05
5.18126e-06 -1.55733e-05 8.70533e-05
-0.000156823 -0.00100499 -2.62559e-06
-0.00100499 -0.000304105 1.721e-06
-2.62559e-06 1.721e-06 -0.000978287
0.00240228 -0.00171958 -7.1743e-06
-0.00171958 0.000453523 1.44513e-06
-7.1743e-06 1.44513e-06 -0.000228681
0.00414173 -0.00186174 -1.93993e-06
-0.00186174 0.00110252 -2.38122e-06
-1.93993e-06 -2.38122e-06 0.00047847
0.00210482 -0.00147028 5.03053e-06
-0.00147028 0.000535417 8.50536e-06
5.03053e-06 8.50536e-06 -0.000439546
0.00312475 -0.00178332 -1.11845e-06
-0.00178332 0.000732994 3.76477e-06
-1.11845e-06 3.76477e-06 -9.37022e-05
0.00306099 -0.00137052 -1.1311e-06
-0.00137052 0.000402097 -1.34541e-06
-1.1311e-06 -1.34541e-06 -1.71219e-05
0.00224169 -0.00149026 7.51755e-06
-0.00149026 0.000506445 2.46777e-06
7.51755e-06 2.46777e-06 -0.000348985
0.00277157 -0.00121588 -3.01238e-06
-0.00121588 0.000447477 3.97408e-06
-3.01238e-06 3.97408e-06 -7.12077e-05
0.00256092 -0.000846974 6.8377e-08
-0.000846974 7.66101e-05 -2.86317e-07
6.8377e-08 -2.86317e-07 -9.36353e-05
0.00256926 -0.000821553 -3.25601e-06
-0.000821553 0.000208863 1.089e-06
-3.25601e-06 1.089e-06 4.71091e-05
0.00217948 -0.000745687 -3.98823e-06
-0.000745687 2.83662e-05 1.4139e-07
-3.98823e-06 1.4139e-07 -0.000235804
0.00227964 -0.000745265 8.48371e-07
-0.000745265 1.88913e-05 2.6838e-06
8.48371e-07 2.6838e-06 -0.000202421
0.00221243 -0.000953446 -3.43485e-06
-0.000953446 0.000179315 -4.20873e-06
-3.43485e-06 -4.20873e-06 -0.000289409
0.00248659 -0.00109945 4.23657e-06
-0.00109945 0.000312395 5.32434e-07
4.23657e-06 5.32434e-07 -0.000219544
0.00269351 -0.00115473 3.17851e-06
-0.00115473 0.000422861 3.6987e-06
3.17851e-06 3.6987e-06 -0.000117529
0.00265139 -0.00124729 -5.20012e-06
-0.00124729 0.000716181 -7.09861e-06
-5.20012e-06 -7.09861e-06 3.07958e-05
0.00300585 -0.00138477 1.73281e-06
-0.00138477 0.000919928 -1.14647e-06
1.73281e-06 -1.14647e-06 0.000191117
0.00337582 -0.00158621 -2.21624e-06
-0.00158621 0.00111881 -1.0026e-06
-2.21624e-06 -1.0026e-06 0.000288239
0.00145359 -0.000875463 -5.80511e-06
-0.000875463 0.000231906 -6.07629e-06
-5.80511e-06 -6.07629e-06 -0.000402461
0.00260825 -0.00132205 2.09018e-06
-0.00132205 0.000970601 -7.82213e-07
2.09018e-06 -7.82213e-07 0.000165783
0.00192318 -0.00134811 -2.51069e-06
-0.00134811 0.000562179 5.03473e-06
-2.51069e-06 5.03473e-06 -0.000244477
0.000868223 -0.000472099 -1.22925e-05
-0.000472099 6.67643e-05 -5.84742e-06
-1.22925e-05 -5.84742e-06 -0.000201209
0.00130726 -0.000796576 3.41711e-06
-0.000796576 0.000465313 3.8505e-06
3.41711e-06 3.8505e-06 -9.20276e-05
0.000106626 -0.000791061 -4.80812e-06
-0.000791061 -0.000253093 9.60401e-06
-4.80812e-06 9.60401e-06 -0.000921251
0.000308488 -0.000208534 -3.21751e-05
-0.000208534 -0.000192512 1.59819e-05
-3.21751e-05 1.59819e-05 -0.000317161
0.000858633 -0.000471594 3.29081e-06
-0.000471594 0.000246444 2.69689e-07
3.29081e-06 2.69689e-07 -8.58903e-05
-0.00220964 -0.000452311 -8.83746e-06
-0.000452311 -0.00165972 -1.08761e-05
-8.83746e-06 -1.08761e-05 -0.00207047
0.00681523 0.000413197 3.7177e-05
0.000413197 0.00433594 1.37327e-05
3.7177e-05 1.37327e-05 0.00423972
0.000622639 -0.000195286 7.15489e-06
-0.000195286 4.08543e-05 1.87388e-06
7.15489e-06 1.87388e-06 -8.94737e-05
0.000255802 -0.000214582 -6.09168e-06
-0.000214582 -0.000172009 3.79403e-06
-6.09168e-06 3.79403e-06 -0.000486566
0.00484062 0.000164231 2.50425e-05
0.000164231 0.00295219 1.35327e-06
2.50425e-05 1.35327e-06 0.00293344
0.000630037 -0.000124462 1.23794e-05
-0.000124462 0.000114622 -1.84469e-05
1.23794e-05 -1.84469e-05 -2.14526e-05
0.00436642 0.000122033 9.12494e-05
0.000122033 0.00261824 -1.15085e-05
9.12494e-05 -1.15085e-05 0.002611
0.00267842 0.000577424 -6.99562e-07
0.000577424 0.0013388 1.2101e-05
-6.99562e-07 1.2101e-05 0.000943338
0.000398049 0.000270543 4.46965e-06
0.000270543 -2.77385e-05 7.84118e-07
4.46965e-06 7.84118e-07 -0.000358581
0.000662112 0.000823924 -2.928e-06
0.000823924 0.00030437 -5.69164e-08
-2.928e-06 -5.69164e-08 -0.000142065
0.001679 0.000363526 -2.90171e-06
0.000363526 0.000839196 -1.34521e-05
-2.90171e-06 -1.34521e-05 0.000590847
0.00129442 0.000243519 -1.31568e-07
0.000243519 0.000855572 1.42131e-06
-1.31568e-07 1.42131e-06 0.000351442
-0.000948557 0.00017723 -3.89468e-06
0.00017723 -0.000510368 9.12869e-06
-3.89468e-06 9.12869e-06 -0.00102034
0.000572399 2.77794e-05 -5.53534e-06
2.77794e-05 0.000127882 -1.72314e-05
-5.53534e-06 -1.72314e-05 4.13212e-05
0.000617528 0.000151231 1.14684e-07
0.000151231 0.000188256 1.11422e-06
1.14684e-07 1.11422e-06 -3.0015e-05
-0.000590815 6.40007e-05 -1.18436e-05
6.40007e-05 -0.000534365 3.19186e-05
-1.18436e-05 3.19186e-05 -0.000855467
0.00391894 -9.80572e-05 -7.08621e-05
-9.80572e-05 0.00233282 -9.5639e-06
-7.08621e-05 -9.5639e-06 0.00233094
0.000386241 -3.01559e-05 9.35915e-07
-3.01559e-05 1.46117e-06 -2.38741e-07
9.35915e-07 -2.38741e-07 -6.57646e-05
0.000530728 9.99431e-05 -4.01896e-06
9.99431e-05 0.00014635 1.14384e-05
-4.01896e-06 1.14384e-05 -5.77309e-05
0.00327404 -7.91804e-05 -1.18812e-05
-7.91804e-05 0.00189578 1.00289e-06
-1.18812e-05 1.00289e-06 0.00189642
0.000436791 3.92226e-05 8.04414e-07
3.92226e-05 1.68016e-05 1.22898e-05
8.04414e-07 1.22898e-05 -3.48709e-05
0.00287924 -5.82799e-05 2.70976e-05
-5.82799e-05 0.00162504 7.47709e-06
2.70976e-05 7.47709e-06 0.00162996
-0.00157028 -0.00138987 -0.000702798
-0.00138987 0.00785674 0.000138927
-0.000702798 0.000138927 -0.00252013
0.00674597 0.00190007 0.00012905
0.00190007 0.00503841 7.99753e-06
0.00012905 7.99753e-06 0.000638348
-0.000253339 0.00189727 0.000368318
0.00189727 0.00392705 0.000147624
0.000368318 0.000147624 -0.00115612
0.000671669 0.000427971 -8.79271e-06
0.000427971 0.000306125 5.06735e-06
-8.79271e-06 5.06735e-06 -0.000233147
0.00400163 0.00127842 3.79588e-06
0.00127842 0.00220274 3.16948e-05
3.79588e-06 3.16948e-05 0.00143981
0.000572617 0.000402252 -2.6241e-05
0.000402252 0.000588963 1.19894e-06
-2.6241e-05 1.19894e-06 -0.000184057
0.000325115 0.000251637 -9.68738e-06
0.000251637 0.000273811 -1.78056e-05
-9.68738e-06 -1.78056e-05 -0.000155728
0.00331367 0.00062587 -3.19107e-06
0.00062587 0.00167197 -1.65137e-06
-3.19107e-06 -1.65137e-06 0.00138197
-0.00341748 9.43866e-05 5.66111e-06
9.43866e-05 -0.00237192 3.02493e-05
5.66111e-06 3.02493e-05 -0.00240687
-0.000860618 0.000311766 -1.2238e-06
0.000311766 -0.00037168 8.10944e-06
-1.2238e-06 8.10944e-06 -0.000811254
0.000933404 0.000424324 -1.27397e-05
0.000424324 0.000483987 5.17348e-07
-1.27397e-05 5.17348e-07 5.8504e-06
0.00112695 0.00108196 -3.63375e-05
0.00108196 0.000707362 -8.90401e-06
-3.63375e-05 -8.90401e-06 -5.05617e-05
-0.00107152 0.000877624 -5.57085e-05
0.000877624 -0.000901229 8.57133e-05
-5.57085e-05 8.57133e-05 -0.0012794
-0.000661679 0.000134398 -1.37814e-05
0.000134398 -0.000257156 2.45884e-05
-1.37814e-05 2.45884e-05 -0.000681499
0.00207092 0.000869665 2.91151e-05
0.000869665 0.00148026 1.23645e-07
2.91151e-05 1.23645e-07 0.000785744
0.00913981 -0.00771967 -0.00396906
-0.00771967 0.00638986 0.000326605
-0.00396906 0.000326605 -0.00373426
0.0089795 -0.00991243 0.00126925
-0.00991243 0.0174973 -8.56855e-05
0.00126925 -8.56855e-05 0.00374558
0.0117396 0.00587569 -0.00148126
0.00587569 0.00406722 -0.000416114
-0.00148126 -0.000416114 -0.00336226
0.0362253 -0.0268238 0.00238544
-0.0268238 0.0263126 0.00174582
0.00238544 0.00174582 0.00751714
0.0338377 -0.00698538 -0.00035672
-0.00698538 0.0166422 0.000687485
-0.00035672 0.000687485 0.00573334
0.000288302 0.00255943 -0.000228479
0.00255943 0.0056245 -0.000274658
-0.000228479 -0.000274658 -0.00200748
8.37373e-05 -0.000323019 -0.000188305
-0.000323019 0.00466431 7.31242e-05
-0.000188305 7.31242e-05 0.00185211
7.77378e-05 0.00178958 5.53131e-05
0.00178958 0.00295675 5.21539e-05
5.53131e-05 5.21539e-05 0.00109155
0.034125 -0.010055 -0.00114016
-0.010055 0.0169975 0.00036596
-0.00114016 0.00036596 0.00455265
-0.00109248 0.00800117 -0.000437788
0.00800117 0.00164068 -5.38911e-05
-0.000437788 -5.38911e-05 -0.00383388
0.0018313 0.00502492 1.81306e-05
0.00502492 0.00106035 -0.0001426
1.81306e-05 -0.0001426 0.000850084
0.00730025 0.0133065 -0.00128505
0.0133065 -0.00397306 -0.000156211
-0.00128505 -0.000156211 -0.00396251
0.0040191 0.00208628 3.85739e-05
0.00208628 0.00176194 2.49715e-05
3.85739e-05 2.49715e-05 0.00105843
0.00170855 0.0010992 -1.3238e-05
0.0010992 0.000702057 -5.52733e-06
-1.3238e-05 -5.52733e-06 0.000401443
-0.000289637 0.000401466 -6.30295e-05
0.000401466 0.000178465 -1.47139e-05
-6.30295e-05 -1.47139e-05 -0.000530033
-0.000236072 0.00149535 -0.000179473
0.00149535 0.00161698 -9.75328e-05
-0.000179473 -9.75328e-05 -0.000238184
0.0012074 0.00111306 -8.92075e-05
0.00111306 0.0006957 -7.79156e-05
-8.92075e-05 -7.79156e-05 0.000124635
0.00296661 0.00332042 8.18444e-07
0.00332042 0.00131939 -1.76957e-05
8.18444e-07 -1.76957e-05 -0.000335553
-0.000244177 0.00355316 0.00019257
0.00355316 -0.00169821 0.000127748
0.00019257 0.000127748 -0.00230033
-0.00746993 -0.000745071 -0.00166913
-0.000745071 0.0015781 3.96692e-05
-0.00166913 3.96692e-05 -0.00630977
-0.00996746 0.000788199 0.0011381
0.000788199 0.00718892 -3.78612e-05
0.0011381 -3.78612e-05 -0.000421484
0.00100104 0.000739154 -0.000291112
0.000739154 0.00281696 4.93336e-05
-0.000291112 4.93336e-05 -0.000322906
0.000994241 -0.00232633 -0.000119497
-0.00232633 0.00177834 -7.80073e-05
-0.000119497 -7.80073e-05 -0.000106013
0.00122151 -0.00564888 0.000182955
-0.00564888 0.000956969 5.84787e-05
0.000182955 5.84787e-05 7.18897e-05
0.00463768 0.00440877 0.00101465
0.00440877 0.0146711 0.000271625
0.00101465 0.000271625 0.00412336
0.00592031 -0.0104302 0.00136377
-0.0104302 -0.00491603 -0.000208603
0.00136377 -0.000208603 -0.00334331
0.0232292 0.00873221 0.00262432
0.00873221 0.0157517 0.000286945
0.00262432 0.000286945 0.00601062
0.0037484 -0.00432198 -2.05336e-05
-0.00432198 0.00149368 -7.56474e-06
-2.05336e-05 -7.56474e-06 0.000138734
0.00819924 0.00647157 0.000590807
0.00647157 0.00625164 -0.000186462
0.000590807 -0.000186462 -0.00277721
0.0088144 -0.00688552 -0.000418503
-0.00688552 -0.00789904 0.000230534
-0.000418503 0.000230534 -0.00568484
0.00300013 -0.00573489 -7.40767e-05
-0.00573489 -0.00166648 7.80429e-05
-7.40767e-05 7.80429e-05 0.000563566
0.00377622 -0.00330414 6.26938e-05
-0.00330414 0.000131459 -3.46208e-05
6.26938e-05 -3.46208e-05 0.000235178
0.0180986 -0.00171737 -0.000125648
-0.00171737 -0.000803945 0.000163171
-0.000125648 0.000163171 0.000646959
0.00346267 -0.00409772 0.000146663
-0.00409772 -0.0051857 -0.000194877
0.000146663 -0.000194877 -0.00106776
0.00358092 -0.0023601 -9.22732e-05
-0.0023601 0.00150852 5.09016e-05
-9.22732e-05 5.09016e-05 0.00064167
0.000506455 -0.00138506 -1.92724e-05
-0.00138506 -0.000662067 2.99664e-06
-1.92724e-05 2.99664e-06 -0.00104848
0.00639671 -0.00191667 5.86275e-05
-0.00191667 0.00216201 -2.81163e-05
5.86275e-05 -2.81163e-05 0.00176013
0.00038192 -0.00143551 -5.88844e-06
-0.00143551 -0.000584068 6.77749e-07
-5.88844e-06 6.77749e-07 -0.00121065
0.00309219 -0.00170782 2.12176e-06
-0.00170782 0.000571815 -1.15341e-06
2.12176e-06 -1.15341e-06 3.49415e-06
0.00340701 -0.00135747 -3.31848e-07
-0.00135747 0.000421482 -1.62542e-06
-3.31848e-07 -1.62542e-06 0.000249143
0.00294453 -0.00175437 9.52052e-06
-0.00175437 0.000634092 1.0866e-05
9.52052e-06 1.0866e-05 -0.000187543
0.00303847 -0.00135274 -3.98905e-06
-0.00135274 0.00038716 2.57216e-06
-3.98905e-06 2.57216e-06 -1.43495e-05
0.00272004 -0.000915054 -6.07258e-07
-0.000915054 -9.18062e-06 2.12301e-07
-6.07258e-07 2.12301e-07 -1.86455e-05
0.00216808 -0.00112259 8.23374e-06
-0.00112259 0.000105667 6.97558e-06
8.23374e-06 6.97558e-06 -0.000383628
0.00249411 -0.000833841 -1.75171e-08
-0.000833841 3.07535e-05 2.56164e-06
-1.75171e-08 2.56164e-06 -0.000128159
0.00265273 -0.000883585 -2.31337e-06
-0.000883585 8.74932e-05 9.58618e-07
-2.31337e-06 9.58618e-07 4.86982e-06
0.00257393 -0.000849328 -4.36112e-06
-0.000849328 0.000130319 2.7391e-07
-4.36112e-06 2.7391e-07 -8.92725e-06
0.00250871 -0.000819749 -3.69252e-06
-0.000819749 0.000158829 1.86519e-06
-3.69252e-06 1.86519e-06 5.30569e-06
0.00252253 -0.000783684 -8.77301e-07
-0.000783684 0.000267809 -1.0525e-06
-8.77301e-07 -1.0525e-06 6.51856e-05
0.00248165 -0.000792185 -5.99171e-06
-0.000792185 0.000285808 -1.41216e-06
-5.99171e-06 -1.41216e-06 -1.82088e-05
0.00242509 -0.000756512 1.43613e-06
-0.000756512 0.000205248 1.2994e-06
1.43613e-06 1.2994e-06 -6.38406e-05
0.00224509 -0.000740544 2.81746e-06
-0.000740544 -2.35441e-05 5.79212e-06
2.81746e-06 5.79212e-06 -0.000243508
0.00238243 -0.000949927 -5.08736e-06
-0.000949927 0.000332574 -7.54157e-06
-5.08736e-06 -7.54157e-06 -0.000136971
0.00216628 -0.000966732 -4.33312e-07
-0.000966732 0.000129615 -1.14863e-07
-4.33312e-07 -1.14863e-07 -0.000345489
0.00260365 -0.00110211 6.83715e-06
-0.00110211 0.000407631 4.26924e-06
6.83715e-06 4.26924e-06 -0.000119142
0.00187758 -0.00105056 -7.36312e-06
-0.00105056 0.000247957 -5.99232e-06
-7.36312e-06 -5.99232e-06 -0.000382235
0.00279907 -0.00127186 -1.61345e-06
-0.00127186 0.000780762 8.487e-07
-1.61345e-06 8.487e-07 8.87225e-05
0.00268121 -0.00135538 2.88747e-06
-0.00135538 0.000709679 3.08307e-06
2.88747e-06 3.08307e-06 -1.72074e-05
0.00073448 -0.000379978 -6.94751e-06
-0.000379978 -0.000134103 8.13766e-06
-6.94751e-06 8.13766e-06 -0.000478596
0.00197538 -0.000945956 -2.34766e-06
-0.000945956 0.000573488 2.94452e-06
-2.34766e-06 2.94452e-06 -7.18799e-05
0.00259559 -0.00132061 5.61149e-06
-0.00132061 0.000952871 9.46048e-06
5.61149e-06 9.46048e-06 0.000148822
0.000130771 -0.000221608 -1.82101e-05
-0.000221608 -0.00028175 2.63928e-05
-1.82101e-05 2.63928e-05 -0.000469961
0.0013384 -0.000496413 -1.18675e-05
-0.000496413 0.00042044 -3.31041e-07
-1.18675e-05 -3.31041e-07 0.000107638
-0.00111391 -0.000765608 -2.33537e-06
-0.000765608 -0.00106242 -1.84634e-06
-2.33537e-06 -1.84634e-06 -0.00163373
0.00700739 0.000187027 -0.000206058
0.000187027 0.00438189 1.76264e-05
-0.000206058 1.76264e-05 0.00436029
0.000601063 -0.000216154 -6.67234e-06
-0.000216154 7.0981e-06 -1.68684e-06
-6.67234e-06 -1.68684e-06 -0.000133272
0.000174293 -0.000479126 1.77413e-05
-0.000479126 -0.000112927 -5.88226e-07
1.77413e-05 -5.88226e-07 -0.000493847
0.00402475 0.000147082 0.000103909
0.000147082 0.0024207 -3.1054e-06
0.000103909 -3.1054e-06 0.00237012
0.000308189 -0.000204725 3.07695e-05
-0.000204725 -0.000156196 -1.6094e-05
3.07695e-05 -1.6094e-05 -0.000295023
0.00600807 0.000115094 0.000194946
0.000115094 0.0037149 -1.6598e-05
0.000194946 -1.6598e-05 0.00370911
0.00119506 0.000660153 -2.23188e-05
0.000660153 0.000293184 1.67831e-05
-2.23188e-05 1.67831e-05 -0.000258049
0.000848867 0.000397477 -8.7583e-06
0.000397477 0.000251322 1.72058e-06
-8.7583e-06 1.72058e-06 -0.000146181
-0.000308698 0.000222304 1.42025e-05
0.000222304 -0.000515066 1.12542e-05
1.42025e-05 1.12542e-05 -0.000837868
0.0022953 0.000453285 3.01245e-06
0.000453285 0.00119821 -4.80945e-06
3.01245e-06 -4.80945e-06 0.000838404
0.0015118 0.000266394 1.4826e-06
0.000266394 0.000830575 -4.77588e-07
1.4826e-06 -4.77588e-07 0.00042105
0.0015766 0.000225766 3.43252e-06
0.000225766 0.000844572 -1.59461e-05
3.43252e-06 -1.59461e-05 0.000503489
0.000923454 0.00014518 -2.06812e-05
0.00014518 0.000328507 -2.2929e-05
-2.06812e-05 -2.2929e-05 0.000225147
0.000811612 0.000210399 -2.23508e-06
0.000210399 0.000347797 8.91276e-07
-2.23508e-06 8.91276e-07 6.75723e-05
-0.00193241 -2.53125e-06 -1.9384e-05
-2.53125e-06 -0.00125972 2.84335e-05
-1.9384e-05 2.84335e-05 -0.00173991
0.00365142 -9.31711e-05 -9.22344e-05
-9.31711e-05 0.00215978 -1.32594e-05
-9.22344e-05 -1.32594e-05 0.0021601
0.000278146 7.93156e-05 1.29912e-06
7.93156e-05 -6.28088e-05 -6.60464e-07
1.29912e-06 -6.60464e-07 -0.000144421
0.000716464 0.000186561 -3.10335e-06
0.000186561 0.000263619 1.34776e-05
-3.10335e-06 1.34776e-05 4.2082e-05
0.00339662 -9.33309e-05 -1.0695e-05
-9.33309e-05 0.00198704 9.24885e-07
-1.0695e-05 9.24885e-07 0.00198475
0.000213015 -3.18177e-06 2.20999e-06
-3.18177e-06 -0.000109349 1.44803e-05
2.20999e-06 1.44803e-05 -0.000175376
0.00303035 -8.00409e-05 3.44624e-05
-8.00409e-05 0.00173345 8.42193e-06
3.44624e-05 8.42193e-06 0.0017337
0.00264151 -0.00315464 -0.00267729
-0.00315464 0.00476885 9.70983e-05
-0.00267729 9.70983e-05 0.000596059
-0.000213711 -0.00278156 -0.000207368
-0.00278156 0.00977313 -8.61814e-05
-0.000207368 -8.61814e-05 -0.00129032
0.00724203 0.00145816 -0.000754624
0.00145816 0.00450033 -0.000198054
-0.000754624 -0.000198054 0.000360912
0.000197217 0.000245466 1.15202e-06
0.000245466 -9.38674e-07 1.17174e-05
1.15202e-06 1.17174e-05 -0.000512513
0.00112579 0.00034974 1.5961e-05
0.00034974 0.000818822 1.55692e-06
1.5961e-05 1.55692e-06 9.91477e-05
0.00201149 0.00100649 -4.22095e-06
0.00100649 0.000954585 -2.13561e-06
-4.22095e-06 -2.13561e-06 0.000221042
0.00233501 0.00133401 1.09585e-05
0.00133401 0.00091092 2.11511e-05
1.09585e-05 2.11511e-05 0.000138261
0.00162323 0.00112752 -3.24844e-05
0.00112752 0.00101367 1.95781e-05
-3.24844e-05 1.95781e-05 0.000134294
0.00376779 0.000638774 5.87472e-06
0.000638774 0.00237838 5.20764e-06
5.87472e-06 5.20764e-06 0.00201185
0.00205598 0.000556218 2.78385e-05
0.000556218 0.00129042 1.96761e-05
2.78385e-05 1.96761e-05 0.000769856
0.00248371 0.00110526 -5.19095e-06
0.00110526 0.00147515 2.43786e-07
-5.19095e-06 2.43786e-07 0.000745001
0.00251389 0.00156691 -2.42349e-05
0.00156691 0.000965559 4.44253e-06
-2.42349e-05 4.44253e-06 0.000230993
0.00225932 0.00147142 -2.12527e-05
0.00147142 0.000743706 6.07586e-05
-2.12527e-05 6.07586e-05 0.00031532
0.00194724 0.00196525 4.45546e-05
0.00196525 0.000107441 -9.92082e-06
4.45546e-05 -9.92082e-06 -0.000415839
0.00128353 0.00122127 2.08237e-05
0.00122127 0.000449915 9.57988e-06
2.08237e-05 9.57988e-06 -5.0076e-05
0.00314683 0.00106469 -1.51642e-05
0.00106469 0.00212992 -5.59946e-06
-1.51642e-05 -5.59946e-06 0.00129386
0.0185771 0.00737135 -0.000211002
0.00737135 -0.001011 9.11988e-05
-0.000211002 9.11988e-05 0.00107897
0.0158472 -0.00569943 -0.00103306
-0.00569943 0.00898417 -0.000210244
-0.00103306 -0.000210244 0.00156715
0.00895494 -0.0106118 0.00209847
-0.0106118 0.0190561 5.5293e-05
0.00209847 5.5293e-05 0.00591961
0.0258326 -0.00644392 0.000727527
-0.00644392 0.0118044 0.000163224
0.000727527 0.000163224 0.000994333
0.00913208 0.00978038 -0.000315777
0.00978038 0.00476407 -0.000129086
-0.000315777 -0.000129086 -0.000194336
-0.000289978 0.00187092 3.45105e-05
0.00187092 0.00292433 4.61624e-05
3.45105e-05 4.61624e-05 0.000925974
0.00163064 0.00470378 -0.000169778
0.00470378 0.000933512 -9.88767e-05
-0.000169778 -9.88767e-05 0.00115928
0.0106658 0.0109941 9.15574e-05
0.0109941 -0.000976911 0.000105392
9.15574e-05 0.000105392 -0.0019636
0.008218 0.00781499 -0.00022168
0.00781499 -0.000967958 -0.000165924
-0.00022168 -0.000165924 0.000320584
0.00190497 0.00214663 5.49756e-06
0.00214663 0.000226852 -2.34268e-05
5.49756e-06 -2.34268e-05 -0.000314053
0.00228256 0.00175743 1.94412e-05
0.00175743 0.000840543 4.35456e-06
1.94412e-05 4.35456e-06 0.000241913
0.00158062 0.00101371 -2.09234e-05
0.00101371 0.000675885 -4.78979e-05
-2.09234e-05 -4.78979e-05 0.000397174
0.00178383 0.00324192 -0.000110719
0.00324192 0.00048244 -6.02988e-05
-0.000110719 -6.02988e-05 -0.00109355
0.00436399 0.00414634 0.000128514
0.00414634 0.000516141 4.49726e-05
0.000128514 4.49726e-05 -0.000550032
0.0075205 -0.000326859 -5.20062e-05
-0.000326859 -0.00647795 1.82484e-05
-5.20062e-05 1.82484e-05 -0.00726976
0.000455834 -0.00292839 -3.75974e-05
-0.00292839 0.00650096 0.000103677
-3.75974e-05 0.000103677 0.000910727
-0.0134306 -6.50447e-05 0.00148518
-6.50447e-05 0.00835846 3.17584e-05
0.00148518 3.17584e-05 0.00280939
0.00287665 -0.00499806 -0.000170834
-0.00499806 0.000547993 0.000106849
-0.000170834 0.000106849 -0.00107596
0.0068032 -0.00736349 -2.196e-05
-0.00736349 -0.000884277 0.000135824
-2.196e-05 0.000135824 0.000848924
0.00970816 0.0030143 0.00261654
0.0030143 0.00773848 -0.000360682
0.00261654 -0.000360682 0.00295435
0.0124875 -0.00623357 -0.000481574
-0.00623357 -0.00515134 0.000378034
-0.000481574 0.000378034 -0.00191197
0.00272584 -0.00325308 -4.82246e-05
-0.00325308 -0.000519487 1.53825e-05
-4.82246e-05 1.53825e-05 -0.000515677
0.0134095 -0.00135737 -0.000450842
-0.00135737 -0.00441377 0.00015607
-0.000450842 0.00015607 -0.00331778
0.00783152 -0.00484221 0.000121021
-0.00484221 -0.00240074 -7.07711e-06
0.000121021 -7.07711e-06 0.000627868
0.00390887 -0.00254846 6.80479e-05
-0.00254846 -0.0009869 -8.0384e-05
6.80479e-05 -8.0384e-05 -0.000124033
0.00401889 -0.00199748 0.00015159
-0.00199748 -0.00423689 -4.35997e-05
0.00015159 -4.35997e-05 -0.000201448
-0.000466144 -0.0012917 5.99083e-06
-0.0012917 -0.00128771 1.76872e-05
5.99083e-06 1.76872e-05 -0.0015195
0.00223881 -0.00142867 -3.51843e-05
-0.00142867 -0.000289208 1.13248e-05
-3.51843e-05 1.13248e-05 -0.000263368
0.00472129 -0.00134248 5.30353e-05
-0.00134248 0.000967919 -2.73052e-05
5.30353e-05 -2.73052e-05 0.00110328
0.00179226 -0.00151514 -4.95955e-06
-0.00151514 -9.04963e-05 9.96505e-06
-4.95955e-06 9.96505e-06 -0.000586074
0.00305485 -0.00134119 -5.43704e-06
-0.00134119 0.000211459 2.02271e-06
-5.43704e-06 2.02271e-06 4.1542e-05
0.00307236 -0.00100223 4.63381e-06
-0.00100223 2.27359e-06 -1.60815e-06
4.63381e-06 -1.60815e-06 0.000108236
0.00288728 -0.00131433 -1.14506e-05
-0.00131433 0.000309201 9.27854e-06
-1.14506e-05 9.27854e-06 -7.00881e-05
0.00264499 -0.000907089 -2.00078e-07
-0.000907089 -5.57063e-05 1.29837e-06
-2.00078e-07 1.29837e-06 -6.4043e-05
0.00279251 -0.000875355 -1.0719e-06
-0.000875355 7.88798e-06 -4.29267e-07
-1.0719e-06 -4.29267e-07 4.03513e-05
0.0024163 -0.000816651 2.50875e-06
-0.000816651 -1.7991e-05 4.16381e-06
2.50875e-06 4.16381e-06 -0.000164264
0.00263305 -0.000874173 -2.48807e-07
-0.000874173 8.90396e-05 5.53289e-07
-2.48807e-07 5.53289e-07 5.70303e-06
0.00271113 -0.000848269 -2.27928e-06
-0.000848269 7.12913e-05 -1.17163e-08
-2.27928e-06 -1.17163e-08 9.70064e-06
0.00253465 -0.000849556 -5.02569e-06
-0.000849556 0.000102081 4.19424e-07
-5.02569e-06 4.19424e-07 -2.84671e-05
0.00248398 -0.000795603 -1.16897e-06
-0.000795603 0.000118886 -4.30448e-07
-1.16897e-06 -4.30448e-07 -2.39429e-05
0.00244635 -0.000817574 3.70254e-07
-0.000817574 0.000111001 2.78482e-06
3.70254e-07 2.78482e-06 -3.50339e-05
0.00251219 -0.000781896 9.36638e-07
-0.000781896 0.000258743 -5.70796e-07
9.36638e-07 -5.70796e-07 6.13705e-05
0.00246898 -0.00077289 -2.53886e-06
-0.00077289 0.000295424 3.44253e-07
-2.53886e-06 3.44253e-07 5.10504e-05
0.00253818 -0.00081444 -6.74586e-07
-0.00081444 0.000397067 -5.6067e-06
-6.74586e-07 -5.6067e-06 5.44788e-05
0.00260035 -0.000800943 -4.08645e-07
-0.000800943 0.000368733 8.63788e-08
-4.08645e-07 8.63788e-08 5.83887e-05
0.00267644 -0.000766105 7.68233e-06
-0.000766105 0.000389923 2.29252e-06
7.68233e-06 2.29252e-06 0.000116389
0.00227643 -0.000942151 -4.3431e-06
-0.000942151 0.00037025 -3.08361e-06
-4.3431e-06 -3.08361e-06 -0.000146787
0.00236381 -0.000966114 -3.43596e-06
-0.000966114 0.000300844 -9.63225e-07
-3.43596e-06 -9.63225e-07 -0.0001789
0.00205828 -0.000970603 4.20304e-06
-0.000970603 4.19656e-05 4.0274e-06
4.20304e-06 4.0274e-06 -0.000436694
0.00187722 -0.000657731 -1.36438e-05
-0.000657731 0.000533097 8.18502e-06
-1.36438e-05 8.18502e-06 6.39249e-05
0.00226149 -0.00108839 -1.50553e-06
-0.00108839 0.000518536 1.45869e-07
-1.50553e-06 1.45869e-07 -0.000120493
0.00293253 -0.00129572 5.30374e-06
-0.00129572 0.000833541 7.15054e-06
5.30374e-06 7.15054e-06 0.000135148
0.000320509 -0.000287287 -1.6853e-05
-0.000287287 -0.000212256 2.95798e-05
-1.6853e-05 2.95798e-05 -0.000427032
0.000740105 -0.000404607 4.6947e-06
-0.000404607 -0.000103436 -2.03715e-06
4.6947e-06 -2.03715e-06 -0.000471117
0.00245574 -0.000998059 7.15859e-06
-0.000998059 0.000881272 5.55008e-06
7.15859e-06 5.55008e-06 0.000233091
0.00736281 3.43962e-05 -0.000269224
3.43962e-05 0.00456927 2.38471e-05
-0.000269224 2.38471e-05 0.00457618
0.000404976 -0.000252681 -4.87374e-06
-0.000252681 -0.000115592 -4.4564e-08
-4.87374e-06 -4.4564e-08 -0.000307856
0.00149852 -0.000610092 5.62332e-06
-0.000610092 0.000629273 -1.33839e-06
5.62332e-06 -1.33839e-06 0.000244242
0.00676031 0.000128765 1.53589e-05
0.000128765 0.00420759 -4.09988e-06
1.53589e-05 -4.09988e-06 0.00419632
0.00122292 -0.000247205 2.45646e-05
-0.000247205 0.000401161 -2.12916e-05
2.45646e-05 -2.12916e-05 0.000257139
0.0064995 0.000193936 0.000168193
0.000193936 0.00406213 -2.2465e-05
0.000168193 -2.2465e-05 0.00403449
0.00328746 0.00131194 -9.77621e-06
0.00131194 0.00151871 1.89859e-05
-9.77621e-06 1.89859e-05 0.000743598
0.00215019 0.000846112 -1.33247e-06
0.000846112 0.000971242 1.88279e-06
-1.33247e-06 1.88279e-06 0.000352192
-0.00121649 0.000399818 -3.19215e-06
0.000399818 -0.00103668 1.08533e-05
-3.19215e-06 1.08533e-05 -0.00151397
-0.00021528 0.000242213 5.51325e-06
0.000242213 -0.000363248 -8.28623e-06
5.51325e-06 -8.28623e-06 -0.000752395
-0.000191125 0.000432623 3.27755e-06
0.000432623 -0.0004199 -5.93876e-06
3.27755e-06 -5.93876e-06 -0.000751712
-0.000879533 0.000571513 -1.14309e-05
0.000571513 -0.000874182 -5.70197e-06
-1.14309e-05 -5.70197e-06 -0.00121086
-0.000144719 0.000120232 -1.33674e-05
0.000120232 -0.000230819 -1.22271e-06
-1.33674e-05 -1.22271e-06 -0.00065052
0.000666489 0.000384455 4.37018e-06
0.000384455 0.000231915 3.89507e-07
4.37018e-06 3.89507e-07 -0.000109526
0.00104656 0.000213448 -2.8611e-05
0.000213448 0.000359409 -2.62493e-05
-2.8611e-05 -2.62493e-05 0.000224836
0.00471634 -0.000132885 -0.000122573
-0.000132885 0.00288767 -2.11146e-05
-0.000122573 -2.11146e-05 0.00287635
0.000504147 9.59098e-05 4.69997e-06
9.59098e-05 7.4586e-05 -3.58666e-07
4.69997e-06 -3.58666e-07 -3.40864e-05
-0.000257465 7.14098e-05 -6.30234e-06
7.14098e-05 -0.000293245 1.66136e-05
-6.30234e-06 1.66136e-05 -0.00060757
0.00414579 -0.00013495 -1.51598e-05
-0.00013495 0.0024991 1.83458e-06
-1.51598e-05 1.83458e-06 0.00248784
0.000214164 -7.65752e-05 -1.32587e-05
-7.65752e-05 -7.9309e-05 1.81118e-05
-1.32587e-05 1.81118e-05 -0.000172907
0.00345774 -0.00010648 4.67006e-05
-0.00010648 0.00202962 9.7408e-06
4.67006e-05 9.7408e-06 0.00202372
0.0162198 0.00111783 0.000873053
0.00111783 -0.00138221 0.000171394
0.000873053 0.000171394 0.0011617
0.00505793 -0.00823855 -0.00150424
-0.00823855 0.00283092 2.05069e-05
-0.00150424 2.05069e-05 -0.00649034
-0.00298693 -0.000288256 -0.00032063
-0.000288256 0.0091619 -7.3163e-05
-0.00032063 -7.3163e-05 -0.000472209
0.000494132 0.000174199 7.05243e-06
0.000174199 0.000382535 -1.72151e-05
7.05243e-06 -1.72151e-05 -0.000339132
0.00125555 0.000920522 2.0326e-05
0.000920522 0.000517416 -2.09336e-05
2.0326e-05 -2.09336e-05 -0.000235806
0.00204216 0.00108315 -1.06e-05
0.00108315 0.00110405 -1.05733e-05
-1.06e-05 -1.05733e-05 0.000327614
0.0021696 0.00133181 -4.13473e-06
0.00133181 0.000823483 -7.73331e-07
-4.13473e-06 -7.73331e-07 3.64218e-05
0.00215865 0.00125055 2.78973e-05
0.00125055 0.000547521 2.7849e-05
2.78973e-05 2.7849e-05 -0.00011895
0.00139345 0.00143701 -8.92169e-06
0.00143701 0.000238339 1.64721e-05
-8.92169e-06 1.64721e-05 -0.000446873
0.00213643 0.00101217 -8.2576e-06
0.00101217 0.00115392 -1.47412e-05
-8.2576e-06 -1.47412e-05 0.000434488
0.00227812 0.00155499 8.62695e-07
0.00155499 0.00078427 3.22659e-06
8.62695e-07 3.22659e-06 6.11233e-05
0.00291179 0.00148061 3.42546e-05
0.00148061 0.00127186 8.28486e-06
3.42546e-05 8.28486e-06 0.000671976
0.00361688 0.00157651 7.329e-06
0.00157651 0.00147635 9.65305e-06
7.329e-06 9.65305e-06 0.000758114
0.0016174 0.00153871 1.06047e-06
0.00153871 0.000136478 9.25607e-06
1.06047e-06 9.25607e-06 -0.000368058
0.00396329 0.00210991 1.83532e-05
0.00210991 0.00124434 2.17593e-05
1.83532e-05 2.17593e-05 0.000476726
0.00305737 0.00203612 1.55742e-05
0.00203612 0.000813948 4.04894e-06
1.55742e-05 4.04894e-06 0.000225155
0.00285008 0.00131066 -4.22792e-05
0.00131066 0.00131855 -0.000119293
-4.22792e-05 -0.000119293 0.000766669
0.0052045 0.00394316 3.44092e-05
0.00394316 -0.00483886 8.36971e-05
3.44092e-05 8.36971e-05 -0.000130134
0.0134571 0.00842691 0.000622741
0.00842691 -0.00490943 0.000291755
0.000622741 0.000291755 -0.00269944
0.0201346 -0.00988926 0.0016575
-0.00988926 0.0114773 -0.000493174
0.0016575 -0.000493174 0.0010786
0.00435021 0.0130504 0.00151553
0.0130504 -0.00355707 0.00051822
0.00151553 0.00051822 -0.00490538
-0.000667467 0.00362833 -3.31433e-05
0.00362833 0.000476749 4.12971e-05
-3.31433e-05 4.12971e-05 0.00047206
0.0036104 0.00471123 -0.000130337
0.00471123 -0.00164015 -0.000112696
-0.000130337 -0.000112696 0.000382202
0.0075317 0.00400586 5.27855e-05
0.00400586 0.000871494 2.62245e-05
5.27855e-05 2.62245e-05 0.000710667
0.00593122 0.00297365 2.47626e-05
0.00297365 0.00202527 6.1934e-06
2.47626e-05 6.1934e-06 0.00125644
0.00117428 0.00151153 -2.97323e-05
0.00151153 0.000256288 -2.44775e-05
-2.97323e-05 -2.44775e-05 -0.000262564
0.00903714 0.00476955 -0.000176967
0.00476955 0.00264618 7.34204e-05
-0.000176967 7.34204e-05 0.001261
0.00619738 -0.00110896 0.000181786
-0.00110896 -0.00339919 7.73989e-05
0.000181786 7.73989e-05 0.000451827
0.0152282 -0.000394915 3.65884e-06
-0.000394915 -0.00186146 -5.22629e-05
3.65884e-06 -5.22629e-05 0.000375805
-0.0085478 -0.00507243 0.00204358
-0.00507243 0.00137571 -0.000115827
0.00204358 -0.000115827 -0.00696679
0.0027637 -0.00318061 -0.000150878
-0.00318061 -0.000470328 8.47686e-05
-0.000150878 8.47686e-05 -0.000388257
0.00795859 -0.00518461 -0.000153598
-0.00518461 -0.00277599 0.000203356
-0.000153598 0.000203356 0.000645375
0.00302348 -0.000877659 -0.00057708
-0.000877659 -0.0111749 2.21567e-05
-0.00057708 2.21567e-05 -0.00887274
0.00387506 -0.00240201 4.86092e-05
-0.00240201 -0.000966942 9.25513e-07
4.86092e-05 9.25513e-07 9.45677e-05
0.00529359 -0.00201583 -0.000113432
-0.00201583 -0.00320647 1.55497e-05
-0.000113432 1.55497e-05 4.00107e-06
0.00643735 -0.00173334 7.24864e-05
-0.00173334 0.0006377 -6.9293e-05
7.24864e-05 -6.9293e-05 0.00160282
0.00903274 -0.00133056 0.000198493
-0.00133056 0.00142326 1.02292e-05
0.000198493 1.02292e-05 0.00295927
-0.0019495 -0.000997814 4.39226e-05
-0.000997814 -0.0029047 1.1467e-05
4.39226e-05 1.1467e-05 -0.00235955
0.0026829 -0.00115074 -1.70059e-05
-0.00115074 -0.000316367 2.5686e-06
-1.70059e-05 2.5686e-06 7.91644e-05
0.00289554 -0.000804051 3.34437e-05
-0.000804051 -0.000314475 -1.78966e-05
3.34437e-05 -1.78966e-05 0.000128142
0.00269819 -0.00133098 -4.17126e-06
-0.00133098 -6.17107e-06 4.14684e-06
-4.17126e-06 4.14684e-06 -0.000177534
0.00303097 -0.00100105 4.01829e-07
-0.00100105 -1.37325e-05 1.12509e-06
4.01829e-07 1.12509e-06 9.08892e-05
0.00291296 -0.000816547 -2.33283e-07
-0.000816547 -8.60574e-05 -1.36518e-06
-2.33283e-07 -1.36518e-06 2.30585e-06
0.00255927 -0.000901126 1.18459e-06
-0.000901126 -0.000114946 2.54257e-06
1.18459e-06 2.54257e-06 -0.000121176
0.00276256 -0.000873617 -5.31006e-08
-0.000873617 -4.06728e-07 2.31213e-07
-5.31006e-08 2.31213e-07 2.22448e-05
0.00268205 -0.000727165 -1.6808e-06
-0.000727165 -4.34634e-05 -7.05827e-07
-1.6808e-06 -7.05827e-07 -2.94996e-05
0.00261755 -0.000867251 1.68383e-06
-0.000867251 8.88739e-05 6.28567e-07
1.68383e-06 6.28567e-07 5.07343e-06
0.00271227 -0.000848406 -1.8466e-07
-0.000848406 9.85543e-05 -1.68426e-07
-1.8466e-07 -1.68426e-07 2.95964e-05
0.00261524 -0.000729715 1.04214e-06
-0.000729715 0.000101081 -6.86339e-07
1.04214e-06 -6.86339e-07 3.17703e-05
0.0024919 -0.000849809 -1.91048e-06
-0.000849809 6.95948e-05 4.74032e-07
-1.91048e-06 4.74032e-07 -5.16506e-05
0.00247259 -0.000801392 -1.49387e-06
-0.000801392 0.00010407 2.10681e-07
-1.49387e-06 2.10681e-07 -3.5233e-05
0.00245657 -0.000741045 -1.71543e-06
-0.000741045 0.00019147 5.39553e-07
-1.71543e-06 5.39553e-07 1.13509e-05
0.00249579 -0.000778335 3.30965e-06
-0.000778335 0.000245781 3.32213e-07
3.30965e-06 3.32213e-07 5.44651e-05
0.00246351 -0.000764025 3.88525e-07
-0.000764025 0.000288259 -1.96495e-07
3.88525e-07 -1.96495e-07 4.73361e-05
0.00248555 -0.000769391 -1.17125e-06
-0.000769391 0.000341993 -4.96274e-07
-1.17125e-06 -4.96274e-07 5.39939e-05
0.00220289 -0.00076942 -3.54226e-07
-0.00076942 0.00027137 -6.26745e-06
-3.54226e-07 -6.26745e-06 -0.00011389
0.00246471 -0.000814267 -4.61852e-07
-0.000814267 0.000343095 -1.55994e-06
-4.61852e-07 -1.55994e-06 -9.50047e-06
0.00272932 -0.000811388 4.71307e-06
-0.000811388 0.000459313 1.69026e-06
4.71307e-06 1.69026e-06 0.000141701
0.00135656 -0.00063071 -2.01472e-05
-0.00063071 1.52244e-05 1.43069e-06
-2.01472e-05 1.43069e-06 -0.000421928
0.00242689 -0.000949474 -1.77456e-07
-0.000949474 0.000486758 3.31127e-07
-1.77456e-07 3.31127e-07 -3.05387e-05
0.00235453 -0.000984166 -6.32828e-07
-0.000984166 0.000274303 5.1746e-06
-6.32828e-07 5.1746e-06 -0.000216337
0.0003142 -0.000292079 -1.89228e-05
-0.000292079 -0.000236625 2.91664e-05
-1.89228e-05 2.91664e-05 -0.000456053
0.00106571 -0.000586482 7.4884e-06
-0.000586482 3.36277e-05 1.5811e-06
7.4884e-06 1.5811e-06 -0.00042847
0.00268874 -0.00112654 3.73368e-06
-0.00112654 0.000825628 5.24748e-06
3.73368e-06 5.24748e-06 0.000178168
0.00907891 -7.65195e-05 -0.000369177
-7.65195e-05 0.00564584 3.72816e-05
-0.000369177 3.72816e-05 0.00566069
8.25056e-05 -0.000296327 3.2868e-06
-0.000296327 -0.000356468 9.56838e-07
3.2868e-06 9.56838e-07 -0.00057568
0.0005994 -0.000399761 -2.10796e-06
-0.000399761 -0.000163628 -2.29176e-06
-2.10796e-06 -2.29176e-06 -0.000550658
0.00809288 4.00808e-06 -2.37668e-05
4.00808e-06 0.00505559 -1.48647e-06
-2.37668e-05 -1.48647e-06 0.00505711
0.00064049 -0.000244285 1.03701e-05
-0.000244285 2.90508e-05 -2.88333e-05
1.03701e-05 -2.88333e-05 -0.000169111
0.00681797 5.65625e-05 0.00028213
5.65625e-05 0.00425883 -4.01374e-05
0.00028213 -4.01374e-05 0.0042538
0.00234615 0.00115401 -1.26988e-05
0.00115401 0.000640427 1.92456e-05
-1.26988e-05 1.92456e-05 -2.07815e-05
0.00245503 0.00118453 7.56904e-07
0.00118453 0.0009932 4.11296e-07
7.56904e-07 4.11296e-07 0.000255574
0.00203183 0.000909959 -5.18286e-06
0.000909959 0.000720697 1.58514e-05
-5.18286e-06 1.58514e-05 9.64908e-05
0.000922894 0.000762251 2.32014e-05
0.000762251 0.000169278 -1.20553e-05
2.32014e-05 -1.20553e-05 -0.000440404
0.00106581 0.000485412 -2.42477e-06
0.000485412 0.00021816 -1.13542e-06
-2.42477e-06 -1.13542e-06 -0.00022661
-0.000105872 0.000350641 -5.44849e-06
0.000350641 -0.000371258 -1.12117e-07
-5.44849e-06 -1.12117e-07 -0.000774547
0.00317998 0.000362024 -8.12042e-07
0.000362024 0.00170941 -8.58272e-06
-8.12042e-07 -8.58272e-06 0.00137754
0.00157183 0.000289857 4.70021e-06
0.000289857 0.000721978 -2.00377e-06
4.70021e-06 -2.00377e-06 0.000388148
0.000352551 0.000256881 -3.37002e-05
0.000256881 -0.000149829 -2.81307e-05
-3.37002e-05 -2.81307e-05 -0.000309748
0.000747129 0.000279684 -1.52244e-06
0.000279684 0.000301475 1.84027e-05
-1.52244e-06 1.84027e-05 -4.12756e-05
0.000420533 0.00019431 -2.84059e-06
0.00019431 -2.51588e-05 -4.57817e-07
-2.84059e-06 -4.57817e-07 -0.000158651
0.00591538 -0.000135232 -0.000196893
-0.000135232 0.00369852 -3.13362e-05
-0.000196893 -3.13362e-05 0.00367813
0.00423681 -0.000149505 -1.85197e-05
-0.000149505 0.00257344 2.17054e-06
-1.85197e-05 2.17054e-06 0.00255642
-9.66867e-05 0.000163853 2.46515e-05
0.000163853 -0.000320758 2.23056e-05
2.46515e-05 2.23056e-05 -0.00041674
0.00361919 -0.000126864 6.03326e-05
-0.000126864 0.00214985 1.08001e-05
6.03326e-05 1.08001e-05 0.00213872
0.0013634 0.00108803 0.00018299
0.00108803 -0.00442599 5.30395e-05
0.00018299 5.30395e-05 -0.00066869
0.00406088 0.000421363 0.00031632
0.000421363 -0.00924325 0.00020237
0.00031632 0.00020237 -0.00885555
0.0203199 -0.00950362 -0.000387614
-0.00950362 0.0144096 -0.000173977
-0.000387614 -0.000173977 0.0035131
0.00222062 0.00104112 1.53468e-05
0.00104112 0.000332513 1.69736e-05
1.53468e-05 1.69736e-05 -0.00016876
0.00283462 0.0011458 1.31472e-05
0.0011458 0.00143997 -1.70009e-05
1.31472e-05 -1.70009e-05 0.000697117
0.00168876 0.00128973 -5.68712e-07
0.00128973 0.000527484 -2.39622e-05
-5.68712e-07 -2.39622e-05 -0.000261252
0.00237886 0.00154723 3.59421e-06
0.00154723 0.000838228 1.95583e-06
3.59421e-06 1.95583e-06 0.000109441
0.00242874 0.00129419 1.01125e-06
0.00129419 0.000716466 3.10554e-06
1.01125e-06 3.10554e-06 3.44835e-05
0.00271435 0.00141992 9.2051e-06
0.00141992 0.000784892 1.58852e-05
9.2051e-06 1.58852e-05 0.000119613
0.00145798 0.00143226 4.27648e-06
0.00143226 0.000270273 -4.00768e-06
4.27648e-06 -4.00768e-06 -0.000419901
0.00121293 0.00118866 1.94244e-05
0.00118866 0.000331267 -6.05216e-05
1.94244e-05 -6.05216e-05 -0.00020134
0.00247653 0.00153785 1.35372e-06
0.00153785 0.00071404 -1.06842e-06
1.35372e-06 -1.06842e-06 4.97185e-05
0.000413064 0.00142311 1.21453e-05
0.00142311 -0.000599084 -3.191e-05
1.21453e-05 -3.191e-05 -0.000971036
0.00290192 0.00144736 1.4375e-05
0.00144736 0.000809481 -8.86012e-07
1.4375e-05 -8.86012e-07 9.66914e-05
0.00337427 0.00137949 6.13673e-05
0.00137949 0.000805746 7.64514e-05
6.13673e-05 7.64514e-05 0.000593193
0.00135947 0.00161012 -1.53261e-05
0.00161012 -7.6037e-05 -1.90058e-05
-1.53261e-05 -1.90058e-05 -0.000632967
0.00229277 0.0018305 -3.32379e-05
0.0018305 0.000444918 -1.42423e-05
-3.32379e-05 -1.42423e-05 -2.77507e-05
0.00272562 0.00182943 1.9603e-05
0.00182943 -0.00224417 6.66031e-05
1.9603e-05 6.66031e-05 -0.000414063
0.00651549 0.00430387 -0.000175707
0.00430387 -0.00407407 -7.95443e-05
-0.000175707 -7.95443e-05 0.000609537
0.00360862 0.00616616 0.00117884
0.00616616 -0.0115866 0.000334457
0.00117884 0.000334457 -0.009142
0.00259209 0.00438445 -0.000291844
0.00438445 -0.0011169 -0.000146585
-0.000291844 -0.000146585 0.000406184
0.00580281 0.00325643 -2.73908e-05
0.00325643 0.000458522 -1.62882e-05
-2.73908e-05 -1.62882e-05 0.000583955
0.00885942 0.00359133 -0.000252834
0.00359133 0.00324604 -7.95663e-05
-0.000252834 -7.95663e-05 0.00233734
0.00498193 -5.24603e-05 -4.32406e-05
-5.24603e-05 -0.00119794 -2.79426e-05
-4.32406e-05 -2.79426e-05 0.000185339
0.00214396 -0.000478583 0.000113166
-0.000478583 -0.00316803 3.21178e-05
0.000113166 3.21178e-05 -0.000108449
0.00941975 -0.000215063 0.000205116
-0.000215063 -0.00666879 -4.21601e-05
0.000205116 -4.21601e-05 -0.00691737
0.0028038 -0.00216342 -8.32716e-05
-0.00216342 -0.00143833 0.000137161
-8.32716e-05 0.000137161 -0.000291364
0.00520369 -0.00202816 -0.000264585
-0.00202816 -0.00375839 9.71326e-05
-0.000264585 9.71326e-05 -0.000847312
0.00381757 -0.00146099 -1.39876e-05
-0.00146099 -0.000852252 1.30555e-05
-1.39876e-05 1.30555e-05 0.000283378
0.00512901 -0.00106605 -7.23819e-05
-0.00106605 -0.000566752 2.93487e-07
-7.23819e-05 2.93487e-07 0.000780663
0.00441159 -0.000709577 0.000128447
-0.000709577 0.00047787 -3.02314e-05
0.000128447 -3.02314e-05 0.000968835
0.00322032 -0.00014767 6.8879e-05
-0.00014767 -0.000131448 -2.68359e-06
6.8879e-05 -2.68359e-06 0.000313027
0.000926506 -0.000938387 -1.96432e-05
-0.000938387 -0.00132231 1.89326e-05
-1.96432e-05 1.89326e-05 -0.000727585
0.00285759 -0.000832961 -5.62178e-06
-0.000832961 -0.000310489 1.14513e-06
-5.62178e-06 1.14513e-06 7.87015e-05
0.00287673 -0.000597231 4.9522e-06
-0.000597231 -0.000276835 -3.87794e-06
4.9522e-06 -3.87794e-06 4.26595e-05
0.00298776 -0.000996568 -3.40744e-06
-0.000996568 -2.23432e-05 2.22662e-06
-3.40744e-06 2.22662e-06 7.90334e-05
0.0029159 -0.000790367 -3.41682e-07
-0.000790367 -4.42956e-05 -3.72645e-07
-3.41682e-07 -3.72645e-07 5.43172e-05
0.00268658 -0.000584506 -1.40599e-06
-0.000584506 -0.000171528 -6.65315e-07
-1.40599e-06 -6.65315e-07 -3.69035e-05
0.00273344 -0.000870023 -9.03368e-08
-0.000870023 -3.60871e-06 6.57461e-07
-9.03368e-08 6.57461e-07 8.46858e-06
0.00266867 -0.000729033 -6.4322e-07
-0.000729033 -3.53707e-05 -1.27794e-09
-6.4322e-07 -1.27794e-09 -1.94487e-05
0.00256703 -0.00059795 5.33787e-07
-0.00059795 1.25565e-05 -3.43179e-07
5.33787e-07 -3.43179e-07 5.6386e-06
0.00271379 -0.000847258 7.12005e-07
-0.000847258 0.00012805 2.13809e-07
7.12005e-07 2.13809e-07 5.12823e-05
0.00261795 -0.000730836 1.04753e-06
-0.000730836 9.9333e-05 -1.61272e-07
1.04753e-06 -1.61272e-07 2.9223e-05
0.00245395 -0.000649834 1.40086e-07
-0.000649834 0.000106145 -1.17903e-07
1.40086e-07 -1.17903e-07 5.84159e-06
0.00246292 -0.000807746 -1.24228e-06
-0.000807746 9.057e-05 1.18215e-06
-1.24228e-06 1.18215e-06 -4.54645e-05
0.00241997 -0.000744066 -1.10118e-06
-0.000744066 0.000156857 2.72343e-07
-1.10118e-06 2.72343e-07 -1.82152e-05
0.00246328 -0.000713516 -1.58628e-06
-0.000713516 0.000248226 2.18721e-07
-1.58628e-06 2.18721e-07 2.53423e-05
0.0024607 -0.000755493 3.34894e-06
-0.000755493 0.000282209 -7.36601e-07
3.34894e-06 -7.36601e-07 4.50468e-05
0.00243425 -0.000762437 -4.23213e-07
-0.000762437 0.000307339 7.24575e-07
-4.23213e-07 7.24575e-07 2.27459e-05
0.00240436 -0.000707877 -1.23132e-06
-0.000707877 0.000371613 -2.97546e-06
-1.23132e-06 -2.97546e-06 5.03487e-05
0.0016625 -0.000564199 -2.07918e-05
-0.000564199 0.000147211 4.96638e-06
-2.07918e-05 4.96638e-06 -0.000216521
0.00223596 -0.00077095 3.62862e-07
-0.00077095 0.000304725 -1.89189e-06
3.62862e-07 -1.89189e-06 -8.69062e-05
0.0023916 -0.000813719 -1.01592e-06
-0.000813719 0.000288585 3.27987e-06
-1.01592e-06 3.27987e-06 -7.37349e-05
0.000203266 -0.000327504 -2.21231e-05
-0.000327504 -0.000331804 2.5741e-05
-2.21231e-05 2.5741e-05 -0.000565455
0.0015733 -0.000641842 -9.3724e-07
-0.000641842 0.0001679 -7.0522e-08
-9.3724e-07 -7.0522e-08 -0.000267344
0.00258835 -0.000960093 4.57121e-07
-0.000960093 0.00060706 5.67225e-06
4.57121e-07 5.67225e-06 8.84333e-05
0.00987866 -0.000150178 -0.000449235
-0.000150178 0.00613386 4.69412e-05
-0.000449235 4.69412e-05 0.00616102
8.61326e-05 -0.000325569 1.24488e-07
-0.000325569 -0.000368842 2.04866e-06
1.24488e-07 2.04866e-06 -0.000606442
0.000836148 -0.000573928 1.33107e-05
-0.000573928 -0.00011354 -8.0345e-07
1.33107e-05 -8.0345e-07 -0.000575018
0.0093805 -0.00011535 -5.55545e-06
-0.00011535 0.00584482 1.46879e-06
-5.55545e-06 1.46879e-06 0.00586385
-0.000209462 -0.000340805 2.45046e-05
-0.000340805 -0.000534491 -3.2234e-05
2.45046e-05 -3.2234e-05 -0.000758843
0.00868082 -2.90509e-05 0.00037119
-2.90509e-05 0.00543982 -5.05587e-05
0.00037119 -5.05587e-05 0.00544418
0.00208097 0.000966431 -5.65721e-06
0.000966431 0.000277916 1.64895e-05
-5.65721e-06 1.64895e-05 -0.000227533
0.0023668 0.00113753 -7.41628e-07
0.00113753 0.000678442 2.36668e-06
-7.41628e-07 2.36668e-06 2.48924e-05
0.00247623 0.00104928 4.02891e-06
0.00104928 0.000767575 2.00763e-05
4.02891e-06 2.00763e-05 0.000133467
0.00219617 0.00111889 5.05036e-06
0.00111889 0.000855192 -1.87147e-05
5.05036e-06 -1.87147e-05 0.000136423
0.00185856 0.000915115 2.04448e-06
0.000915115 0.000617126 1.89165e-06
2.04448e-06 1.89165e-06 -2.07534e-05
8.07948e-05 0.000424965 -1.7746e-05
0.000424965 -0.000456713 3.91242e-06
-1.7746e-05 3.91242e-06 -0.000873298
0.00259479 0.000632805 2.49122e-06
0.000632805 0.00116464 -1.01208e-05
2.49122e-06 -1.01208e-05 0.000689777
0.000305406 0.000376761 3.49371e-06
0.000376761 -0.000169748 -1.69198e-06
3.49371e-06 -1.69198e-06 -0.000522436
0.00039096 0.00031204 -4.12981e-05
0.00031204 -0.000185372 -2.99833e-05
-4.12981e-05 -2.99833e-05 -0.000342206
0.00111763 0.000365125 2.9646e-06
0.000365125 0.000418884 4.70743e-06
2.9646e-06 4.70743e-06 8.58174e-05
0.000760774 0.000269291 2.38505e-06
0.000269291 0.000105403 -2.07138e-06
2.38505e-06 -2.07138e-06 -3.95024e-05
0.00768207 -0.00022584 -0.000233702
-0.00022584 0.00490113 -4.13181e-05
-0.000233702 -4.13181e-05 0.00484694
0.000392116 0.000184446 2.58717e-05
0.000184446 -2.82043e-05 2.66657e-05
2.58717e-05 2.66657e-05 -0.000162154
0.00553084 -0.000215457 -2.33604e-05
-0.000215457 0.00346944 2.46671e-06
-2.33604e-05 2.46671e-06 0.00342753
0.00449554 -0.000182435 7.56998e-05
-0.000182435 0.00275354 1.44313e-05
7.56998e-05 1.44313e-05 0.00272763
0.000886334 0.000875264 3.99294e-05
0.000875264 -0.0037357 6.70586e-05
3.99294e-05 6.70586e-05 -0.00127268
0.00605027 0.00104585 8.22258e-05
0.00104585 -0.00317196 2.70002e-05
8.22258e-05 2.70002e-05 0.000924235
0.018034 0.00115734 4.53453e-05
0.00115734 -0.00104985 0.000200643
4.53453e-05 0.000200643 0.00179849
0.00240603 0.00114678 5.44314e-07
0.00114678 0.000347416 8.50846e-06
5.44314e-07 8.50846e-06 -0.000162668
0.00267186 0.0010713 3.34569e-06
0.0010713 0.000371723 8.40779e-06
3.34569e-06 8.40779e-06 -2.58419e-05
0.00221293 0.00104806 -1.46061e-06
0.00104806 0.000322866 -4.11416e-06
-1.46061e-06 -4.11416e-06 -0.000176403
0.0030975 0.00161003 1.70455e-05
0.00161003 0.00127103 -8.15727e-06
1.70455e-05 -8.15727e-06 0.000522762
0.0025057 0.001307 -1.5298e-05
0.001307 0.000763948 -1.81102e-05
-1.5298e-05 -1.81102e-05 7.68985e-05
0.00287078 0.00148333 8.0048e-06
0.00148333 0.000829927 2.32485e-06
8.0048e-06 2.32485e-06 0.000150362
0.00324259 0.00137878 -1.39727e-05
0.00137878 0.00056047 -2.60806e-07
-1.39727e-05 -2.60806e-07 0.000114788
0.00192498 0.00156843 8.59974e-06
0.00156843 0.000318574 -8.42142e-06
8.59974e-06 -8.42142e-06 -0.000335186
0.00253529 0.00176397 2.84266e-06
0.00176397 0.000633433 9.324e-05
2.84266e-06 9.324e-05 7.32586e-05
0.0028264 0.00153529 6.85447e-06
0.00153529 0.000687642 -3.95776e-06
6.85447e-06 -3.95776e-06 -3.26457e-05
0.00362627 0.00134223 3.3119e-06
0.00134223 0.000618629 2.86674e-05
3.3119e-06 2.86674e-05 0.000378193
0.00249612 0.00066831 8.90057e-05
0.00066831 0.000111516 9.65935e-06
8.90057e-05 9.65935e-06 0.000395496
0.000446655 0.00102233 -3.27815e-06
0.00102233 -0.000748393 -2.89753e-05
-3.27815e-06 -2.89753e-05 -0.000857524
0.0012942 0.00153739 -4.6441e-05
0.00153739 -4.1842e-05 4.98913e-06
-4.6441e-05 4.98913e-06 -0.000598306
0.00490119 0.00203967 4.9195e-05
0.00203967 -0.00099745 1.76922e-05
4.9195e-05 1.76922e-05 0.000710369
0.0104263 0.00432561 -0.000110072
0.00432561 -0.00154014 -7.97622e-05
-0.000110072 -7.97622e-05 0.00205676
0.00683669 0.00288175 -0.000129539
0.00288175 0.00160533 -0.000118117
-0.000129539 -0.000118117 0.00173807
0.0037862 1.6757e-05 0.000102104
1.6757e-05 0.000245588 6.6379e-06
0.000102104 6.6379e-06 0.000701739
0.00442198 -0.000222143 -0.000159393
-0.000222143 -0.00200088 1.28552e-05
-0.000159393 1.28552e-05 -9.42331e-05
0.0052573 0.000388564 -7.48016e-05
0.000388564 -0.00211534 -4.9036e-05
-7.48016e-05 -4.9036e-05 0.000726536
0.00271371 -0.00138271 -0.000145715
-0.00138271 -0.00145133 0.000104758
-0.000145715 0.000104758 -0.000298014
0.00130042 -0.000937076 -0.000114528
-0.000937076 -0.0026885 2.02594e-05
-0.000114528 2.02594e-05 -0.00138322
0.00373019 -0.000668012 8.65577e-06
-0.000668012 2.5089e-05 -9.68071e-06
8.65577e-06 -9.68071e-06 0.00063291
0.00269428 -0.000151853 -2.17438e-05
-0.000151853 -0.000435319 -2.20963e-06
-2.17438e-05 -2.20963e-06 2.55797e-05
0.00285826 -0.000379292 1.20501e-05
-0.000379292 -0.000395021 -5.50603e-06
1.20501e-05 -5.50603e-06 2.17507e-05
0.00255226 0.000141906 6.04627e-06
0.000141906 -0.000612548 -1.6301e-06
6.04627e-06 -1.6301e-06 -0.000273845
0.00286549 -0.000871084 -2.3881e-05
-0.000871084 -0.000294712 1.40997e-05
-2.3881e-05 1.40997e-05 4.68211e-05
0.00290984 -0.000628291 -3.33627e-06
-0.000628291 -0.000282138 8.58405e-07
-3.33627e-06 8.58405e-07 5.91318e-06
0.00277054 -0.00043549 -1.26785e-06
-0.00043549 -0.000234725 -9.03677e-07
-1.26785e-06 -9.03677e-07 1.69947e-05
0.00292201 -0.000764189 -2.62713e-06
-0.000764189 -6.71069e-06 1.04791e-06
-2.62713e-06 1.04791e-06 0.000106254
0.00269415 -0.000589241 2.96893e-07
-0.000589241 -0.000158983 -2.33616e-07
2.96893e-07 -2.33616e-07 -3.1005e-05
0.00258901 -0.000481415 8.67675e-07
-0.000481415 -8.83435e-05 -3.04734e-07
8.67675e-07 -3.04734e-07 1.0025e-05
0.00265825 -0.000731591 -4.81451e-07
-0.000731591 -2.68587e-05 9.50525e-07
-4.81451e-07 9.50525e-07 -8.61167e-06
0.00256318 -0.000595856 3.81415e-07
-0.000595856 2.793e-06 -6.36636e-08
3.81415e-07 -6.36636e-08 -3.56713e-06
0.00242156 -0.000527698 3.23918e-07
-0.000527698 3.11509e-05 9.31602e-08
3.23918e-07 9.31602e-08 -6.71339e-06
0.00262102 -0.000732289 1.61547e-06
-0.000732289 9.74377e-05 2.37461e-07
1.61547e-06 2.37461e-07 2.65011e-05
0.00245987 -0.000650698 6.01814e-07
-0.000650698 0.000105817 -2.30919e-07
6.01814e-07 -2.30919e-07 5.03448e-06
0.00240973 -0.000612465 -3.01085e-06
-0.000612465 0.000160348 5.6394e-07
-3.01085e-06 5.6394e-07 1.07652e-05
0.00238618 -0.000747437 4.92415e-07
-0.000747437 0.000124086 1.67442e-07
4.92415e-07 1.67442e-07 -4.60608e-05
0.00242064 -0.000713782 6.17249e-07
-0.000713782 0.000218829 -2.31959e-07
6.17249e-07 -2.31959e-07 -2.06231e-06
0.00233347 -0.000647599 -1.6387e-06
-0.000647599 0.000252975 -2.26633e-06
-1.6387e-06 -2.26633e-06 -1.54845e-05
0.00238438 -0.000755934 -5.23993e-07
-0.000755934 0.000274613 2.04607e-06
-5.23993e-07 2.04607e-06 -7.0556e-06
0.00237459 -0.00070879 -3.74524e-07
-0.00070879 0.000350922 4.73362e-08
-3.74524e-07 4.73362e-08 3.04616e-05
0.00162615 -0.000486219 -1.395e-05
-0.000486219 9.64143e-05 4.39643e-06
-1.395e-05 4.39643e-06 -0.000208113
0.000296433 -0.000297486 -1.7885e-05
-0.000297486 -0.000312258 2.28416e-05
-1.7885e-05 2.28416e-05 -0.000527105
0.00165879 -0.000564194 4.90886e-08
-0.000564194 0.000143169 1.29975e-07
4.90886e-08 1.29975e-07 -0.000219459
0.00227513 -0.000774276 -7.97945e-07
-0.000774276 0.000341093 3.2162e-06
-7.97945e-07 3.2162e-06 -5.76195e-05
0.00943728 -0.0002179 -0.000453125
-0.0002179 0.00583297 4.9238e-05
-0.000453125 4.9238e-05 0.00586163
0.000271918 -0.000331546 -6.09578e-07
-0.000331546 -0.000301597 1.31893e-06
-6.09578e-07 1.31893e-06 -0.000530358
0.00165418 -0.000631508 1.92686e-05
-0.000631508 0.000237312 -3.2248e-06
1.92686e-05 -3.2248e-06 -0.000191529
0.00974045 -0.000170929 -5.46622e-06
-0.000170929 0.00604442 2.96965e-06
-5.46622e-06 2.96965e-06 0.00606837
5.50965e-05 -0.000337145 2.15859e-05
-0.000337145 -0.000391848 -2.94292e-05
2.15859e-05 -2.94292e-05 -0.000634093
0.00977094 -0.000150531 0.000435287
-0.000150531 0.00608988 -5.25833e-05
0.000435287 -5.25833e-05 0.00610874
0.00221363 0.000973109 4.65908e-06
0.000973109 0.000213375 1.42727e-05
4.65908e-06 1.42727e-05 -0.000220684
0.00225208 0.000985523 2.95751e-06
0.000985523 0.000401442 -1.85073e-07
2.95751e-06 -1.85073e-07 -0.000104704
0.00253334 0.000966148 6.98408e-06
0.000966148 0.000644639 1.79844e-05
6.98408e-06 1.79844e-05 0.000108109
0.00247081 0.00113266 1.2164e-05
0.00113266 0.00077397 -1.44374e-05
1.2164e-05 -1.44374e-05 0.000124139
0.00224946 0.00101706 4.11789e-07
0.00101706 0.000611598 1.57123e-06
4.11789e-07 1.57123e-06 -1.35405e-05
0.000914714 0.000521581 -3.15875e-05
0.000521581 -7.39078e-05 3.5976e-06
-3.15875e-05 3.5976e-06 -0.000506119
0.00244147 0.0009416 -1.2586e-05
0.0009416 0.000904409 -1.80605e-05
-1.2586e-05 -1.80605e-05 0.000278168
0.000875584 0.000416895 -1.04101e-06
0.000416895 5.2329e-05 -3.56195e-07
-1.04101e-06 -3.56195e-07 -0.000340349
-8.52735e-05 0.000303174 -3.26932e-05
0.000303174 -0.000458435 -3.32499e-05
-3.26932e-05 -3.32499e-05 -0.000651252
0.00209682 0.00026428 3.0076e-06
0.00026428 0.000914846 4.12934e-07
3.0076e-06 4.12934e-07 0.000613864
0.00022712 0.00027447 5.4601e-06
0.00027447 -0.000272466 -8.14042e-07
5.4601e-06 -8.14042e-07 -0.00043597
0.00855759 -0.000127795 -0.000294982
-0.000127795 0.00540089 -4.07961e-05
-0.000294982 -4.07961e-05 0.00537861
0.000387153 0.000250074 3.43376e-05
0.000250074 -0.000106436 2.9444e-05
3.43376e-05 2.9444e-05 -0.000256764
0.00713887 -0.000183839 -3.22856e-06
-0.000183839 0.00450477 -2.08685e-06
-3.22856e-06 -2.08685e-06 0.00447193
0.00499025 -0.000227045 9.77779e-05
-0.000227045 0.00311085 2.15731e-05
9.77779e-05 2.15731e-05 0.00306682
0.00160103 0.000478564 6.53345e-05
0.000478564 -0.000858368 4.3865e-05
6.53345e-05 4.3865e-05 -0.000246735
0.00142691 0.000986774 4.49045e-05
0.000986774 -0.00376264 -1.23303e-05
4.49045e-05 -1.23303e-05 -0.00138642
0.00601671 0.00189225 0.000309164
0.00189225 -0.00340653 0.000141106
0.000309164 0.000141106 0.00115355
0.0028728 0.00111898 -6.65855e-06
0.00111898 0.000379567 1.17623e-06
-6.65855e-06 1.17623e-06 2.85553e-05
0.00257334 0.00118614 -1.02236e-05
0.00118614 0.000447077 -3.92215e-06
-1.02236e-05 -3.92215e-06 -6.98708e-05
0.00255654 0.000825623 7.1645e-06
0.000825623 0.000166555 3.5392e-06
7.1645e-06 3.5392e-06 -4.63543e-05
0.00267354 0.00106325 1.10717e-06
0.00106325 0.000368325 2.1706e-07
1.10717e-06 2.1706e-07 -1.45162e-05
0.00226857 0.00105534 -8.53956e-06
0.00105534 0.000361587 -1.72425e-05
-8.53956e-06 -1.72425e-05 -0.000134787
0.00304928 0.00100472 -4.57553e-06
0.00100472 0.000194678 2.25546e-06
-4.57553e-06 2.25546e-06 5.06047e-05
0.0029034 0.00153269 3.26059e-06
0.00153269 0.000804568 -7.7972e-06
3.26059e-06 -7.7972e-06 0.000115233
0.00310507 0.0013114 -8.00284e-07
0.0013114 0.000514011 -1.34783e-06
-8.00284e-07 -1.34783e-06 8.60335e-05
0.00242904 0.000624343 -5.0478e-06
0.000624343 -0.00040799 3.74797e-06
-5.0478e-06 3.74797e-06 -0.000172848
0.00212504 0.00153931 -9.55029e-06
0.00153931 0.000216431 1.96861e-05
-9.55029e-06 1.96861e-05 -0.000465362
0.00310849 0.00127786 4.09978e-06
0.00127786 0.00032757 -6.37016e-06
4.09978e-06 -6.37016e-06 0.000106682
0.000909062 0.000675282 -4.18402e-05
0.000675282 -0.00102654 -4.24003e-06
-4.18402e-05 -4.24003e-06 -0.000545346
-0.00338399 0.000597185 -1.85187e-05
0.000597185 -0.00280028 -1.71034e-05
-1.85187e-05 -1.71034e-05 -0.00278071
0.00616417 0.0021942 -0.000247449
0.0021942 -0.000268661 -0.000101346
-0.000247449 -0.000101346 0.00131765
0.00281657 0.000252228 -4.87338e-07
0.000252228 -0.000317116 -1.87884e-06
-4.87338e-07 -1.87884e-06 1.33115e-05
0.00347337 4.49053e-05 -3.44446e-06
4.49053e-05 -2.52653e-05 -7.4973e-06
-3.44446e-06 -7.4973e-06 0.000443038
0.00349381 -0.000442846 -0.00021299
-0.000442846 -0.00259794 -2.15388e-05
-0.00021299 -2.15388e-05 -0.000608115
0.00261924 -0.000594185 -0.000132125
-0.000594185 -0.000694096 3.51432e-05
-0.000132125 3.51432e-05 5.23647e-05
0.0024255 -0.00016829 -2.5376e-05
-0.00016829 -0.000552339 2.09092e-06
-2.5376e-05 2.09092e-06 -9.73318e-05
0.00274013 -0.000403309 6.96121e-06
-0.000403309 -0.000506493 -1.15553e-06
6.96121e-06 -1.15553e-06 -3.63253e-05
0.00291011 0.000160543 -1.29676e-06
0.000160543 -0.000346847 2.95261e-06
-1.29676e-06 2.95261e-06 -4.01736e-05
0.00277654 -7.38772e-05 1.20653e-07
-7.38772e-05 -0.000303605 -1.35258e-06
1.20653e-07 -1.35258e-06 1.16654e-05
0.00290488 -0.000653225 -3.47556e-06
-0.000653225 -0.000305396 3.18017e-06
-3.47556e-06 3.18017e-06 -4.76401e-05
0.00269692 -0.000416486 3.39903e-07
-0.000416486 -0.000268414 -3.01621e-07
3.39903e-07 -3.01621e-07 -2.38314e-05
0.00259738 -0.000311089 1.04428e-06
-0.000311089 -0.000144956 -9.11993e-07
1.04428e-06 -9.11993e-07 3.69037e-05
0.00270155 -0.000594045 4.82596e-07
-0.000594045 -0.000144623 9.05966e-07
4.82596e-07 9.05966e-07 -2.47664e-05
0.00257415 -0.000480516 2.94608e-07
-0.000480516 -9.42894e-05 1.74198e-07
2.94608e-07 1.74198e-07 -6.68374e-07
0.00240799 -0.000403891 7.1946e-07
-0.000403891 -2.87912e-05 5.37238e-08
7.1946e-07 5.37238e-08 -1.92751e-06
0.00255984 -0.000593539 1.20977e-07
-0.000593539 -6.74843e-06 1.93898e-07
1.20977e-07 1.93898e-07 -1.25367e-05
0.00242304 -0.000528084 3.55634e-07
-0.000528084 2.79159e-05 -3.09167e-08
3.55634e-07 -3.09167e-08 -1.01066e-05
0.00233407 -0.000489174 -3.76556e-06
-0.000489174 7.60487e-05 8.7077e-07
-3.76556e-06 8.7077e-07 -6.35581e-06
0.00246668 -0.000651662 9.54962e-07
-0.000651662 0.000106012 -3.8007e-07
9.54962e-07 -3.8007e-07 4.70537e-06
0.00243741 -0.000615276 4.94709e-07
-0.000615276 0.000177268 -2.62923e-07
4.94709e-07 -2.62923e-07 2.62751e-05
0.00238015 -0.000573836 -2.07901e-06
-0.000573836 0.000233105 -8.50609e-07
-2.07901e-06 -8.50609e-07 2.17743e-05
0.00237636 -0.000713995 1.44058e-06
-0.000713995 0.000187723 -4.55665e-08
1.44058e-06 -4.55665e-08 -3.08859e-05
0.0023545 -0.000649078 -9.28782e-07
-0.000649078 0.000267609 -8.97653e-08
-9.28782e-07 -8.97653e-08 -1.17176e-06
0.00159964 -0.000429557 -1.02764e-05
-0.000429557 5.47791e-05 3.68816e-06
-1.02764e-05 3.68816e-06 -0.00020835
0.00234208 -0.000708225 8.95058e-07
-0.000708225 0.000329558 2.9135e-06
8.95058e-07 2.9135e-06 1.04862e-05
0.00164074 -0.000489003 -5.57864e-08
-0.000489003 9.75477e-05 1.8116e-07
-5.57864e-08 1.8116e-07 -0.00020656
0.00314915 -0.000312925 -6.49651e-05
-0.000312925 0.00155475 1.7191e-05
-6.49651e-05 1.7191e-05 0.00138587
0.00336009 -0.00017983 -0.000365335
-0.00017983 0.00184665 6.01975e-05
-0.000365335 6.01975e-05 0.00182953
0.00181536 -0.000327504 -2.19866e-05
-0.000327504 0.000683835 6.20117e-07
-2.19866e-05 6.20117e-07 0.000482833
0.00162837 -0.000561283 1.839e-05
-0.000561283 0.000122973 -4.69731e-06
1.839e-05 -4.69731e-06 -0.000237865
0.00928337 -0.000223084 -7.41841e-06
-0.000223084 0.00574513 3.37957e-06
-7.41841e-06 3.37957e-06 0.00576952
0.000114719 -0.000352429 2.39725e-05
-0.000352429 -0.000404112 -2.54728e-05
2.39725e-05 -2.54728e-05 -0.000638767
0.00970374 -0.000182848 0.000435939
-0.000182848 0.00602733 -5.37243e-05
0.000435939 -5.37243e-05 0.0060468
0.00240886 0.000643752 4.19105e-06
0.000643752 8.98855e-05 1.46282e-06
4.19105e-06 1.46282e-06 -5.14025e-05
0.00240754 0.000845975 8.99832e-06
0.000845975 0.000236161 9.09266e-06
8.99832e-06 9.09266e-06 -6.33425e-05
0.00249807 0.000997568 7.71651e-07
0.000997568 0.00039953 -1.73153e-07
7.71651e-07 -1.73153e-07 -2.75562e-05
0.00246803 0.000890457 7.73926e-06
0.000890457 0.000524831 1.52358e-05
7.73926e-06 1.52358e-05 7.12112e-05
0.00234734 0.00100048 3.94611e-06
0.00100048 0.000467974 -1.71089e-05
3.94611e-06 -1.71089e-05 -3.86707e-05
0.00228545 0.000935581 1.08601e-06
0.000935581 0.000481296 1.46701e-07
1.08601e-06 1.46701e-07 -4.67083e-05
0.00142103 0.000618173 -3.863e-05
0.000618173 0.000170083 4.65852e-07
-3.863e-05 4.65852e-07 -0.000269494
0.00207756 0.000986395 -1.92491e-06
0.000986395 0.000498667 -1.75732e-05
-1.92491e-06 -1.75732e-05 -0.00011724
0.00112205 0.000548042 -4.40189e-06
0.000548042 4.90706e-05 3.74295e-07
-4.40189e-06 3.74295e-07 -0.000384266
-0.000113956 0.000335864 -3.0979e-05
0.000335864 -0.000479276 -2.91915e-05
-3.0979e-05 -2.91915e-05 -0.000705502
0.0015799 0.000409019 2.09492e-05
0.000409019 0.000532361 -3.48249e-06
2.09492e-05 -3.48249e-06 0.000160189
0.000307275 0.000277207 3.10154e-06
0.000277207 -0.000219975 -3.30282e-07
3.10154e-06 -3.30282e-07 -0.000409104
0.00959412 3.10796e-05 -0.00038812
3.10796e-05 0.00600487 -4.77141e-05
-0.00038812 -4.77141e-05 0.00600892
0.000737224 0.00027175 3.5617e-05
0.00027175 3.66371e-05 3.07192e-05
3.5617e-05 3.07192e-05 -0.000114969
0.00838183 -0.00011655 1.26619e-05
-0.00011655 0.00527077 -3.49624e-06
1.26619e-05 -3.49624e-06 0.00525637
0.0064094 -0.000222877 0.000155052
-0.000222877 0.00403753 2.43966e-05
0.000155052 2.43966e-05 0.00399508
0.00258146 0.000286278 -1.87257e-06
0.000286278 -0.000452638 2.72801e-06
-1.87257e-06 2.72801e-06 -9.87419e-05
0.00149986 0.000396916 -4.62503e-06
0.000396916 -0.00129186 -1.02404e-05
-4.62503e-06 -1.02404e-05 -0.000447436
0.00317047 0.00119586 -0.000198104
0.00119586 -0.00326994 -7.3137e-05
-0.000198104 -7.3137e-05 -0.000757794
0.0026582 0.000778768 3.95204e-07
0.000778768 0.000116011 -4.81086e-08
3.95204e-07 -4.81086e-08 -2.12523e-06
0.00276306 0.00109667 -5.04728e-06
0.00109667 0.000343961 -6.41077e-07
-5.04728e-06 -6.41077e-07 2.20145e-06
0.00262644 0.00121447 -1.17432e-06
0.00121447 0.000470419 -9.08472e-06
-1.17432e-06 -9.08472e-06 -4.99738e-05
0.00256137 0.00080989 1.69114e-06
0.00080989 0.000193634 1.13729e-06
1.69114e-06 1.13729e-06 -2.35493e-05
0.0026653 0.00105711 -2.82423e-06
0.00105711 0.00035987 -1.05054e-05
-2.82423e-06 -1.05054e-05 -1.06417e-05
0.0029009 0.000613704 4.81143e-06
0.000613704 -5.97165e-05 5.40132e-07
4.81143e-06 5.40132e-07 8.12794e-05
0.00292585 0.000991153 -1.65249e-06
0.000991153 0.000140118 1.08206e-06
-1.65249e-06 1.08206e-06 9.33134e-06
0.00307251 0.00126059 6.82761e-06
0.00126059 0.000527108 -3.03256e-06
6.82761e-06 -3.03256e-06 0.000112329
0.00233831 0.00056728 -2.13958e-07
0.00056728 -0.000383371 7.83317e-07
-2.13958e-07 7.83317e-07 -0.000135288
0.00258361 0.0011724 4.44242e-06
0.0011724 3.26115e-05 -9.27201e-06
4.44242e-06 -9.27201e-06 -0.000162497
-0.000821017 0.000574427 -3.9745e-05
0.000574427 -0.0023528 -6.40462e-06
-3.9745e-05 -6.40462e-06 -0.00148432
0.00268478 0.000137546 1.80471e-06
0.000137546 -0.000235238 5.91678e-07
1.80471e-06 5.91678e-07 2.32739e-05
0.0027621 0.000231451 1.45623e-06
0.000231451 -0.000358005 -7.19466e-07
1.45623e-06 -7.19466e-07 -2.48892e-05
0.00322954 5.61817e-05 -7.121e-05
5.61817e-05 -0.000211909 1.33375e-05
-7.121e-05 1.33375e-05 0.000235163
0.00262086 -0.000435609 -3.05327e-05
-0.000435609 -0.000636833 8.78958e-06
-3.05327e-05 8.78958e-06 -0.000107564
0.0032267 0.000184655 -1.71993e-06
0.000184655 -0.000126823 -1.00063e-06
-1.71993e-06 -1.00063e-06 0.000158227
0.0027782 -7.53967e-05 -1.00372e-06
-7.53967e-05 -0.000311508 -5.51569e-07
-1.00372e-06 -5.51569e-07 -6.89518e-07
0.00246527 -8.64997e-05 1.04981e-06
-8.64997e-05 -0.000169021 -5.35879e-07
1.04981e-06 -5.35879e-07 -4.91579e-06
0.00261829 -0.000396607 1.45154e-06
-0.000396607 -0.000304921 -3.37637e-08
1.45154e-06 -3.37637e-08 -6.70325e-05
0.00256121 -0.000321482 -3.05342e-08
-0.000321482 -0.000161954 8.8097e-08
-3.05342e-08 8.8097e-08 8.9454e-06
0.00235513 -0.000265974 1.84771e-06
-0.000265974 -7.83932e-05 -7.29898e-07
1.84771e-06 -7.29898e-07 -1.32779e-05
0.00255542 -0.000479397 -1.22915e-06
-0.000479397 -0.000103001 4.72678e-07
-1.22915e-06 4.72678e-07 -1.39262e-05
0.00240077 -0.000402472 1.8693e-08
-0.000402472 -3.74845e-05 1.02786e-07
1.8693e-08 1.02786e-07 -1.04309e-05
0.00230275 -0.000370281 -4.09342e-06
-0.000370281 3.18192e-05 9.91774e-07
-4.09342e-06 9.91774e-07 -2.62129e-06
0.00242513 -0.000528586 3.35462e-07
-0.000528586 2.48754e-05 -2.71293e-07
3.35462e-07 -2.71293e-07 -1.33343e-05
0.00236092 -0.000492654 3.10797e-07
-0.000492654 9.09738e-05 -1.74741e-07
3.10797e-07 -1.74741e-07 6.91726e-06
0.0023604 -0.000475627 -2.67688e-06
-0.000475627 0.000183731 -1.44796e-08
-2.67688e-06 -1.44796e-08 2.82795e-05
0.00246551 -0.000618044 3.17397e-06
-0.000618044 0.000195053 -8.63787e-07
3.17397e-06 -8.63787e-07 4.26636e-05
0.00233675 -0.000568922 -7.90835e-07
-0.000568922 0.000207477 -8.85473e-08
-7.90835e-07 -8.85473e-08 -2.72144e-06
0.00155072 -0.000367118 -7.82528e-06
-0.000367118 3.84001e-07 2.98197e-06
-7.82528e-06 2.98197e-06 -0.000226409
0.0023747 -0.000650528 1.85228e-06
-0.000650528 0.0002815 1.11684e-06
1.85228e-06 1.11684e-06 1.24065e-05
0.00161789 -0.000432117 -9.77163e-08
-0.000432117 5.83383e-05 3.31068e-08
-9.77163e-08 3.31068e-08 -0.00020425
0.00300928 -0.000279832 -7.01234e-05
-0.000279832 0.00146481 1.58919e-05
-7.01234e-05 1.58919e-05 0.00131617
0.00164787 -0.000492821 1.241e-05
-0.000492821 9.06337e-05 -4.24024e-06
1.241e-05 -4.24024e-06 -0.000213543
0.00324969 -0.000341917 6.1652e-05
-0.000341917 0.00162435 -1.11992e-05
6.1652e-05 -1.11992e-05 0.00146903
0.0029517 -0.000187854 -0.000335363
-0.000187854 0.00159665 6.02091e-05
-0.000335363 6.02091e-05 0.00157394
0.00588323 -0.000222925 -0.000324584
-0.000222925 0.00352688 4.40689e-05
-0.000324584 4.40689e-05 0.00352693
0.00344209 -0.000410461 0.000204562
-0.000410461 0.00176259 -3.89438e-05
0.000204562 -3.89438e-05 0.00159903
0.00908081 -0.000226626 0.000424222
-0.000226626 0.00562173 -5.5919e-05
0.000424222 -5.5919e-05 0.00564136
0.00247904 0.000616614 -1.05431e-09
0.000616614 8.80287e-05 -1.03135e-06
-1.05431e-09 -1.03135e-06 1.03237e-05
0.00241301 0.000686752 3.23459e-06
0.000686752 0.00022319 4.14732e-06
3.23459e-06 4.14732e-06 1.347e-05
0.00242582 0.000632102 7.20198e-07
0.000632102 0.000111202 -9.28518e-08
7.20198e-07 -9.28518e-08 -2.14732e-05
0.00230622 0.000753833 2.32747e-06
0.000753833 0.000306492 1.101e-05
2.32747e-06 1.101e-05 -4.25273e-05
0.00249283 0.000850384 -1.64131e-07
0.000850384 0.000284689 -3.7228e-07
-1.64131e-07 -3.7228e-07 -1.69678e-05
0.0027794 0.00102191 -4.53898e-06
0.00102191 0.000582334 -1.35472e-05
-4.53898e-06 -1.35472e-05 0.000162761
0.00230698 0.000876808 7.35966e-07
0.000876808 0.000410026 2.45693e-07
7.35966e-07 2.45693e-07 -4.04553e-05
0.00164755 0.000617847 -3.39236e-05
0.000617847 0.000167615 -9.91054e-07
-3.39236e-05 -9.91054e-07 -0.000231243
0.0019868 0.000901821 -3.50697e-06
0.000901821 0.000280763 -1.7445e-05
-3.50697e-06 -1.7445e-05 -0.000238432
0.00143917 0.000646942 -3.75124e-06
0.000646942 0.000158137 1.12574e-07
-3.75124e-06 1.12574e-07 -0.000294163
0.000221001 0.000362085 -2.91459e-05
0.000362085 -0.000314076 -2.41237e-05
-2.91459e-05 -2.41237e-05 -0.000551626
0.00152836 0.000559027 3.40088e-05
0.000559027 0.00027658 -3.21487e-07
3.40088e-05 -3.21487e-07 -0.000145673
-8.82588e-06 0.000299463 1.55309e-06
0.000299463 -0.000423764 2.20712e-06
1.55309e-06 2.20712e-06 -0.000638437
0.00978291 0.000136419 -0.000415118
0.000136419 0.00609154 -5.34111e-05
-0.000415118 -5.34111e-05 0.00610165
0.000103307 0.000229279 2.7266e-05
0.000229279 -0.000360819 3.18135e-05
2.7266e-05 3.18135e-05 -0.000542396
0.0090371 -1.98235e-05 1.46496e-05
-1.98235e-05 0.00564307 -1.4797e-06
1.46496e-05 -1.4797e-06 0.0056453
0.00812477 -0.000142658 0.000257755
-0.000142658 0.00509942 2.54327e-05
0.000257755 2.54327e-05 0.00508415
0.00273612 0.000371811 2.52664e-06
0.000371811 -0.000168878 1.52394e-07
2.52664e-06 1.52394e-07 3.93264e-05
0.00246141 0.000299698 2.70934e-06
0.000299698 -0.000446455 -2.1908e-06
2.70934e-06 -2.1908e-06 -9.56099e-05
0.000510014 0.000352431 -6.27175e-05
0.000352431 -0.00226012 -1.22358e-05
-6.27175e-05 -1.22358e-05 -0.00120203
0.00257705 0.000536829 3.34514e-06
0.000536829 -4.33806e-05 4.33225e-07
3.34514e-06 4.33225e-07 -9.94389e-08
0.00259184 0.000772484 -1.20799e-06
0.000772484 8.25548e-05 8.76623e-07
-1.20799e-06 8.76623e-07 -2.78562e-05
0.00265453 0.00107089 6.57081e-06
0.00107089 0.000310608 -4.0322e-06
6.57081e-06 -4.0322e-06 -1.9502e-05
0.002577 0.000795409 -5.98646e-06
0.000795409 0.000225499 -3.48861e-06
-5.98646e-06 -3.48861e-06 5.70535e-06
0.00281947 0.000601816 -2.09169e-06
0.000601816 -0.000102501 5.8244e-07
-2.09169e-06 5.8244e-07 3.2173e-05
0.00282068 0.00097744 3.0622e-07
0.00097744 0.000104637 -3.70366e-06
3.0622e-07 -3.70366e-06 -1.55138e-05
0.00219128 0.000562992 3.16135e-06
0.000562992 -0.000356812 -6.56187e-06
3.16135e-06 -6.56187e-06 -0.000116842
0.00251778 0.00010916 2.45028e-06
0.00010916 -0.000145869 3.4535e-07
2.45028e-06 3.4535e-07 8.71734e-06
0.00264338 0.000140137 -4.42124e-08
0.000140137 -0.000243595 -3.449e-07
-4.42124e-08 -3.449e-07 7.09648e-06
0.00271302 0.000225634 -9.65494e-06
0.000225634 -0.000379875 2.88312e-06
-9.65494e-06 2.88312e-06 -5.31299e-05
0.00231799 -1.16761e-05 9.14949e-07
-1.16761e-05 -0.000149049 -2.91834e-07
9.14949e-07 -2.91834e-07 -3.68386e-05
0.00279807 -8.10644e-05 7.18958e-07
-8.10644e-05 -0.000304283 1.1238e-07
7.18958e-07 1.1238e-07 5.82805e-07
0.0024742 -9.11456e-05 -1.11485e-07
-9.11456e-05 -0.000162364 3.81944e-07
-1.11485e-07 3.81944e-07 4.50181e-07
0.00232422 -0.000137936 7.56985e-07
-0.000137936 -8.86341e-05 -3.84701e-07
7.56985e-07 -3.84701e-07 -1.25321e-05
0.00252254 -0.000331644 -7.82701e-07
-0.000331644 -0.000180841 8.23672e-07
-7.82701e-07 8.23672e-07 -2.09159e-05
0.00235817 -0.000262358 6.1142e-07
-0.000262358 -7.81451e-05 -4.48228e-07
6.1142e-07 -4.48228e-07 -1.21003e-05
0.00225158 -0.00025362 -3.10753e-06
-0.00025362 -7.6317e-06 5.74072e-07
-3.10753e-06 5.74072e-07 -1.49601e-05
0.00239511 -0.000400737 -3.87079e-07
-0.000400737 -4.51789e-05 9.26345e-08
-3.87079e-07 9.26345e-08 -1.78847e-05
0.00230434 -0.000369802 1.09934e-07
-0.000369802 2.98356e-05 -4.38966e-08
1.09934e-07 -4.38966e-08 -4.27412e-06
0.00232786 -0.000364676 -2.87006e-06
-0.000364676 0.000130322 9.42325e-07
-2.87006e-06 9.42325e-07 2.39589e-05
0.00239031 -0.000496104 4.04547e-06
-0.000496104 0.000107601 -1.19507e-06
4.04547e-06 -1.19507e-06 2.19292e-05
0.00231864 -0.000469851 -4.67998e-07
-0.000469851 0.000161675 -2.5588e-07
-4.67998e-07 -2.5588e-07 7.31244e-06
0.00157144 -0.000302125 -5.76427e-06
-0.000302125 -5.78256e-07 1.90383e-06
-5.76427e-06 1.90383e-06 -0.000193631
0.00229133 -0.000563736 2.00714e-06
-0.000563736 0.000180474 9.83718e-08
2.00714e-06 9.83718e-08 -2.85282e-05
0.0016079 -0.000370795 -2.56616e-07
-0.000370795 2.984e-05 1.88853e-07
-2.56616e-07 1.88853e-07 -0.000196248
0.00286942 -0.000248219 -7.44026e-05
-0.000248219 0.00137944 1.45491e-05
-7.44026e-05 1.45491e-05 0.00124697
0.0016319 -0.000434657 8.43189e-06
-0.000434657 5.89434e-05 -3.62642e-06
8.43189e-06 -3.62642e-06 -0.000203062
0.00311581 -0.000295734 5.60695e-05
-0.000295734 0.00153443 -8.61992e-06
5.60695e-05 -8.61992e-06 0.00139965
0.00287179 -0.000157295 -0.00032368
-0.000157295 0.00154013 5.10823e-05
-0.00032368 5.10823e-05 0.00152141
0.00334235 -0.000342115 0.000191364
-0.000342115 0.00167972 -3.75599e-05
0.000191364 -3.75599e-05 0.00154226
0.0025128 -0.000121725 -0.000126407
-0.000121725 0.00130796 2.13358e-05
-0.000126407 2.13358e-05 0.00126578
0.00824326 -0.000155833 0.000158034
-0.000155833 0.0050649 -1.3264e-05
0.000158034 -1.3264e-05 0.00504061
0.00245788 0.000515945 -2.48334e-08
0.000515945 6.08338e-05 2.26757e-07
-2.48334e-08 2.26757e-07 1.96591e-05
0.00241941 0.000594764 -2.0336e-06
0.000594764 0.000151653 -5.32767e-07
-2.0336e-06 -5.32767e-07 2.27151e-05
0.00249593 0.000612547 -2.28518e-06
0.000612547 0.000102345 1.36785e-07
-2.28518e-06 1.36785e-07 1.88703e-05
0.00219804 0.000632361 -1.45201e-06
0.000632361 0.000165118 4.25499e-06
-1.45201e-06 4.25499e-06 -0.000106259
0.00245957 0.000700387 -8.50368e-07
0.000700387 0.000225523 -1.81799e-06
-8.50368e-07 -1.81799e-06 2.8375e-05
0.0024416 0.000619267 -7.42051e-06
0.000619267 0.000133447 -3.36634e-06
-7.42051e-06 -3.36634e-06 9.13544e-06
0.00167969 0.000528297 -2.36482e-05
0.000528297 8.75026e-05 -1.66044e-06
-2.36482e-05 -1.66044e-06 -0.000235114
0.00230692 0.000754829 1.62005e-06
0.000754829 0.000304225 4.2646e-07
1.62005e-06 4.2646e-07 -4.47768e-05
0.00260429 0.00085799 -4.27991e-06
0.00085799 0.000350454 -8.21756e-06
-4.27991e-06 -8.21756e-06 4.48274e-05
0.00215576 0.000864037 -6.5179e-06
0.000864037 0.000301728 -1.48263e-05
-6.5179e-06 -1.48263e-05 -0.000145637
0.0017177 0.000625109 -6.93987e-07
0.000625109 0.000215599 2.88832e-07
-6.93987e-07 2.88832e-07 -0.000186734
0.000429749 0.000341916 -2.60248e-05
0.000341916 -0.000215485 -2.02493e-05
-2.60248e-05 -2.02493e-05 -0.000441516
0.00185716 0.000702623 4.26275e-05
0.000702623 0.000401562 1.85953e-06
4.26275e-05 1.85953e-06 -6.50854e-05
0.000164102 0.000338445 8.43868e-07
0.000338445 -0.000340094 1.54847e-06
8.43868e-07 1.54847e-06 -0.000572993
0.00920108 0.000219445 -0.000409146
0.000219445 0.00571137 -5.9136e-05
-0.000409146 -5.9136e-05 0.00571815
0.000214088 0.000278766 2.80415e-05
0.000278766 -0.000285345 2.85651e-05
2.80415e-05 2.85651e-05 -0.00049404
0.00965383 9.48531e-05 8.60604e-06
9.48531e-05 0.00600205 1.65735e-06
8.60604e-06 1.65735e-06 0.00601728
0.0090995 -4.69288e-05 0.000333807
-4.69288e-05 0.00567824 2.8544e-05
0.000333807 2.8544e-05 0.00568499
0.00248622 0.000298275 1.14276e-06
0.000298275 -0.000110647 1.12262e-06
1.14276e-06 1.12262e-06 -1.54634e-06
0.00268503 0.000379187 -8.85647e-07
0.000379187 -0.000234337 7.54899e-07
-8.85647e-07 7.54899e-07 -1.53306e-05
0.00239273 0.000278447 -4.93078e-06
0.000278447 -0.000445081 -3.27775e-07
-4.93078e-06 -3.27775e-07 -8.4061e-05
0.00256638 0.000531903 -6.85122e-07
0.000531903 -4.65281e-05 2.84961e-07
-6.85122e-07 2.84961e-07 -1.83726e-06
0.00253362 0.000768499 -1.96152e-06
0.000768499 5.39549e-05 -1.82484e-06
-1.96152e-06 -1.82484e-06 -4.89341e-05
0.00274561 0.000586207 -4.11912e-07
0.000586207 -0.000151703 -1.7901e-06
-4.11912e-07 -1.7901e-06 -1.91038e-05
0.00240617 0.000101216 2.31902e-06
0.000101216 -8.69328e-05 2.81444e-07
2.31902e-06 2.81444e-07 8.72856e-06
0.00251044 0.000108425 1.55755e-07
0.000108425 -0.000144861 -8.36453e-08
1.55755e-07 -8.36453e-08 8.14289e-06
0.00257264 0.000141008 -1.7402e-06
0.000141008 -0.000279438 -8.00875e-08
-1.7402e-06 -8.00875e-08 -3.43607e-05
0.00236191 -7.57492e-06 -6.81521e-07
-7.57492e-06 -0.000114138 1.52689e-08
-6.81521e-07 1.52689e-08 -5.29741e-06
0.00229575 -3.10333e-05 -3.12604e-07
-3.10333e-05 -4.41796e-05 -3.70408e-07
-3.12604e-07 -3.70408e-07 1.6647e-05
0.00248157 -9.57684e-05 -1.87203e-06
-9.57684e-05 -0.000157201 7.79864e-07
-1.87203e-06 7.79864e-07 4.46526e-06
0.00232935 -0.000140198 -8.99155e-07
-0.000140198 -7.57545e-05 2.62316e-07
-8.99155e-07 2.62316e-07 -5.61846e-06
0.002168 -0.000154644 -3.34213e-06
-0.000154644 -6.41588e-05 5.2499e-07
-3.34213e-06 5.2499e-07 -4.89987e-05
0.002358 -0.000258993 -2.79472e-07
-0.000258993 -7.9646e-05 -1.32394e-07
-2.79472e-07 -1.32394e-07 -1.2704e-05
0.00224161 -0.000251759 9.62195e-07
-0.000251759 -1.29976e-05 -2.8632e-07
9.62195e-07 -2.8632e-07 -1.97982e-05
0.00236923 -0.000266616 -2.36233e-06
-0.000266616 0.000127014 1.42564e-06
-2.36233e-06 1.42564e-06 5.81816e-05
0.00230024 -0.000370053 4.19167e-06
-0.000370053 2.42386e-05 -1.0446e-06
4.19167e-06 -1.0446e-06 -9.72631e-06
0.00232074 -0.000362969 -3.61774e-08
-0.000362969 0.000128418 -2.36514e-07
-3.61774e-08 -2.36514e-07 2.28834e-05
0.00158045 -0.000236121 -4.22993e-06
-0.000236121 -4.4021e-06 1.04918e-06
-4.22993e-06 1.04918e-06 -0.000167733
0.00228121 -0.000464288 2.68732e-06
-0.000464288 0.000142839 -7.0883e-07
2.68732e-06 -7.0883e-07 -1.04238e-05
0.0016105 -0.000304723 -3.49997e-07
-0.000304723 1.457e-05 2.137e-07
-3.49997e-07 2.137e-07 -0.000177868
0.00274479 -0.000223628 -7.43252e-05
-0.000223628 0.00130855 1.23034e-05
-7.43252e-05 1.23034e-05 0.00119106
0.00166765 -0.000374795 6.64612e-06
-0.000374795 6.07508e-05 -2.70846e-06
6.64612e-06 -2.70846e-06 -0.000164633
0.00299346 -0.00024607 5.27673e-05
-0.00024607 0.00145509 -6.53969e-06
5.27673e-05 -6.53969e-06 0.0013382
0.00277605 -0.000127421 -0.000313886
-0.000127421 0.0014755 4.15489e-05
-0.000313886 4.15489e-05 0.00146057
0.00323083 -0.000284991 0.000184473
-0.000284991 0.00159949 -3.09751e-05
0.000184473 -3.09751e-05 0.00148274
0.00245043 -0.00011315 -0.000115014
-0.00011315 0.00126968 1.63213e-05
-0.000115014 1.63213e-05 0.00123012
0.00211641 -0.000112587 8.9328e-05
-0.000112587 0.00106645 -1.62529e-05
8.9328e-05 -1.62529e-05 0.000996874
0.00235352 0.000325268 9.37402e-07
0.000325268 -4.26482e-05 5.35567e-07
9.37402e-07 5.35567e-07 -1.80544e-05
0.00233703 0.00046522 -3.30747e-06
0.00046522 8.01271e-05 -4.31939e-08
-3.30747e-06 -4.31939e-08 -6.2903e-06
0.00244719 0.000517263 -7.56781e-07
0.000517263 3.15516e-05 -2.68635e-07
-7.56781e-07 -2.68635e-07 3.66095e-06
0.00232464 0.000569088 -1.59258e-07
0.000569088 0.000178108 1.52834e-06
-1.59258e-07 1.52834e-06 -2.2099e-05
0.00240965 0.000590894 -4.19885e-07
0.000590894 0.000155103 -2.13447e-07
-4.19885e-07 -2.13447e-07 1.84001e-05
0.00251461 0.00060979 -3.9597e-07
0.00060979 0.000117193 3.73627e-07
-3.9597e-07 3.73627e-07 2.75857e-05
0.00162166 0.000442707 -1.5231e-05
0.000442707 4.54772e-05 -2.01766e-06
-1.5231e-05 -2.01766e-06 -0.000220621
0.00227873 0.000645595 -1.09286e-07
0.000645595 0.000209029 -1.68047e-06
-1.09286e-07 -1.68047e-06 -5.17692e-05
0.00250328 0.000714545 -4.39027e-06
0.000714545 0.000224627 -4.91154e-06
-4.39027e-06 -4.91154e-06 4.02861e-05
0.000412081 0.000272186 -2.18756e-05
0.000272186 -0.000243379 -1.6166e-05
-2.18756e-05 -1.6166e-05 -0.00043839
0.00166069 0.000519178 1.99983e-07
0.000519178 9.19538e-05 2.51854e-08
1.99983e-07 2.51854e-08 -0.000229083
0.00231793 0.00075508 -2.08112e-06
0.00075508 0.000312335 -1.15946e-05
-2.08112e-06 -1.15946e-05 -3.61603e-05
0.00172711 0.000628278 3.65457e-05
0.000628278 0.000222137 1.39981e-06
3.65457e-05 1.39981e-06 -0.000183233
0.000299165 0.000327985 3.6518e-07
0.000327985 -0.000297196 1.00683e-06
3.6518e-07 1.00683e-06 -0.000522909
0.00866129 0.000303284 -0.000404475
0.000303284 0.0053638 -6.26497e-05
-0.000404475 -6.26497e-05 0.00536596
0.00010648 0.000311436 2.58809e-05
0.000311436 -0.000371747 2.30648e-05
2.58809e-05 2.30648e-05 -0.000598315
0.00935407 0.000202108 9.47276e-06
0.000202108 0.00579695 2.56144e-06
9.47276e-06 2.56144e-06 0.00581321
0.00932042 5.84306e-05 0.000376839
5.84306e-05 0.00577935 3.56169e-05
0.000376839 3.56169e-05 0.00579538
0.00239614 0.000185403 1.56662e-06
0.000185403 -4.38292e-05 5.00536e-07
1.56662e-06 5.00536e-07 3.05413e-05
0.00245434 0.000303281 4.66608e-07
0.000303281 -0.000139322 3.57949e-07
4.66608e-07 3.57949e-07 -3.01772e-05
0.00265527 0.000391239 -6.49931e-07
0.000391239 -0.000275166 -5.61719e-07
-6.49931e-07 -5.61719e-07 -4.84783e-05
0.00254742 0.000524908 3.18476e-07
0.000524908 -5.57295e-05 -7.18134e-07
3.18476e-07 -7.18134e-07 -1.04645e-05
0.0022518 4.63379e-05 -4.89746e-07
4.63379e-05 -2.76508e-05 1.6436e-08
-4.89746e-07 1.6436e-08 5.47449e-06
0.00240816 8.96348e-05 1.30592e-07
8.96348e-05 -8.9386e-05 -1.38537e-07
1.30592e-07 -1.38537e-07 9.47688e-06
0.00251519 0.000107389 -1.81168e-06
0.000107389 -0.000133886 -3.66731e-07
-1.81168e-06 -3.66731e-07 1.65595e-05
0.00239679 -3.14156e-06 -3.36214e-06
-3.14156e-06 -8.56042e-05 4.0838e-07
-3.36214e-06 4.0838e-07 1.98961e-05
0.00230704 -2.49522e-05 -6.28632e-07
-2.49522e-05 -4.23046e-05 -1.55728e-07
-6.28632e-07 -1.55728e-07 2.21031e-05
0.0022275 -5.72563e-05 -4.22086e-06
-5.72563e-05 6.82543e-06 -9.10822e-09
-4.22086e-06 -9.10822e-09 1.87094e-05
0.00233411 -0.00014235 -6.40431e-07
-0.00014235 -6.32959e-05 5.74159e-07
-6.40431e-07 5.74159e-07 7.21296e-07
0.00222575 -0.000155803 -1.59947e-06
-0.000155803 -1.38862e-05 3.15627e-07
-1.59947e-06 3.15627e-07 -6.62294e-06
0.00228635 -0.000175222 -2.25549e-06
-0.000175222 4.65951e-05 7.34539e-07
-2.25549e-06 7.34539e-07 3.3323e-06
0.0022383 -0.000249301 5.04691e-06
-0.000249301 -1.50186e-05 -1.14146e-06
5.04691e-06 -1.14146e-06 -2.11397e-05
0.00235652 -0.000264327 7.03554e-07
-0.000264327 0.000122035 -1.22021e-07
7.03554e-07 -1.22021e-07 5.32387e-05
0.00157038 -0.000174354 -4.55431e-06
-0.000174354 -1.5954e-05 9.22334e-07
-4.55431e-06 9.22334e-07 -0.000156815
0.00231636 -0.000359874 2.95499e-06
-0.000359874 0.000127989 -1.4563e-06
2.95499e-06 -1.4563e-06 2.35725e-05
0.00158424 -0.0002365 -9.19697e-08
-0.0002365 -1.24021e-05 5.80045e-08
-9.19697e-08 5.80045e-08 -0.000175134
0.00030041 -0.00012019 -1.60613e-05
-0.00012019 -0.00031032 7.21405e-06
-1.60613e-05 7.21405e-06 -0.000431393
0.00165657 -0.000307399 4.99827e-06
-0.000307399 3.54933e-05 -1.71453e-06
4.99827e-06 -1.71453e-06 -0.000156231
0.00162867 -0.000164733 7.75352e-05
-0.000164733 0.000557828 -6.77647e-06
7.75352e-05 -6.77647e-06 0.000447501
0.00737329 -0.000200921 -0.000408274
-0.000200921 0.00453119 3.52644e-05
-0.000408274 3.52644e-05 0.00456338
0.00312839 -0.000228362 0.00017759
-0.000228362 0.00153225 -2.38987e-05
0.00017759 -2.38987e-05 0.00143303
0.00237042 -0.000101371 -0.000104041
-0.000101371 0.00122288 1.04886e-05
-0.000104041 1.04886e-05 0.00118513
0.00201827 -0.000122597 9.94963e-05
-0.000122597 0.00101284 -1.72437e-05
9.94963e-05 -1.72437e-05 0.000943796
0.00229821 0.000218785 5.37879e-07
0.000218785 -1.7949e-05 -1.85945e-07
5.37879e-07 -1.85945e-07 4.45663e-06
0.00225492 0.000350722 -2.67947e-06
0.000350722 4.77738e-06 7.40086e-08
-2.67947e-06 7.40086e-08 -3.48387e-05
0.00237822 0.000317086 -4.22865e-07
0.000317086 -9.29189e-06 -7.66035e-08
-4.22865e-07 -7.66035e-08 7.47832e-06
0.00229023 0.000452698 1.10398e-07
0.000452698 0.000130672 1.74662e-06
1.10398e-07 1.74662e-06 -9.94629e-06
0.00233327 0.000466464 1.55856e-07
0.000466464 8.15789e-05 -9.17883e-08
1.55856e-07 -9.17883e-08 -3.63768e-06
0.00243335 0.000518319 -4.70917e-07
0.000518319 4.25415e-07 -5.16779e-07
-4.70917e-07 -5.16779e-07 -1.43023e-05
0.00170064 0.000390754 -6.99762e-06
0.000390754 8.65171e-05 2.05288e-07
-6.99762e-06 2.05288e-07 -0.000130923
0.00229367 0.000562568 -1.42317e-06
0.000562568 0.000160032 -8.25699e-07
-1.42317e-06 -8.25699e-07 -4.24112e-05
0.00238617 0.000585266 1.61414e-06
0.000585266 0.000150437 -5.17674e-07
1.61414e-06 -5.17674e-07 5.91925e-06
0.000379503 0.000202031 -1.82786e-05
0.000202031 -0.000270284 -1.19058e-05
-1.82786e-05 -1.19058e-05 -0.000436155
0.00160124 0.000439192 5.35292e-07
0.000439192 3.8981e-05 2.47765e-07
5.35292e-07 2.47765e-07 -0.000219918
0.002315 0.000654592 -1.20511e-06
0.000654592 0.000223021 -9.10887e-06
-1.20511e-06 -9.10887e-06 -2.65652e-05
0.00823322 0.0003481 -0.000404189
0.0003481 0.00509093 -6.02887e-05
-0.000404189 -6.02887e-05 0.00509273
0.000359649 0.000271209 3.51526e-07
0.000271209 -0.000283898 7.76393e-07
3.51526e-07 7.76393e-07 -0.000481687
0.00164352 0.000511019 2.64137e-05
0.000511019 9.74604e-05 1.51799e-06
2.64137e-05 1.51799e-06 -0.000222298
0.000235958 0.000315991 2.37958e-05
0.000315991 -0.000335123 2.06122e-05
2.37958e-05 2.06122e-05 -0.000560962
0.00882154 0.000302513 9.43619e-06
0.000302513 0.0054643 3.54625e-06
9.43619e-06 3.54625e-06 0.00547225
0.00949364 0.000176721 0.000432751
0.000176721 0.00586896 4.47267e-05
0.000432751 4.47267e-05 0.00589401
0.0022072 0.000117207 -1.42332e-06
0.000117207 -3.88585e-05 2.33469e-07
-1.42332e-06 2.33469e-07 -2.08492e-05
0.00239064 0.000179504 -7.81716e-08
0.000179504 -4.97284e-05 -2.88575e-08
-7.81716e-08 -2.88575e-08 2.18102e-05
0.00242259 0.00030835 -5.3623e-07
0.00030835 -0.0001674 -6.52121e-07
-5.3623e-07 -6.52121e-07 -5.80773e-05
0.00224622 2.54648e-05 -6.08679e-06
2.54648e-05 5.18126e-05 -2.94782e-07
-6.08679e-06 -2.94782e-07 4.90849e-05
0.00223426 5.42923e-05 9.07914e-07
5.42923e-05 -4.39457e-05 5.27099e-08
9.07914e-07 5.27099e-08 -6.10769e-06
0.00241127 7.72702e-05 -2.49332e-06
7.72702e-05 -9.14731e-05 -3.79312e-08
-2.49332e-06 -3.79312e-08 1.08877e-05
0.00232388 -1.8983e-05 -6.39847e-07
-1.8983e-05 -3.6852e-05 4.49586e-07
-6.39847e-07 4.49586e-07 3.1375e-05
0.0022312 -5.65809e-05 -2.83198e-07
-5.65809e-05 8.26873e-06 2.0998e-08
-2.83198e-07 2.0998e-08 2.14545e-05
0.00208386 -7.99827e-05 -2.14184e-06
-7.99827e-05 -7.89719e-05 1.21318e-07
-2.14184e-06 1.21318e-07 -0.000132392
0.00228232 -0.000157205 4.01335e-06
-0.000157205 3.63632e-05 -4.08218e-07
4.01335e-06 -4.08218e-07 3.58198e-05
0.00226984 -0.000177912 6.05016e-07
-0.000177912 4.71412e-05 1.80466e-09
6.05016e-07 1.80466e-09 -7.5532e-06
0.00165906 -0.000112916 -4.99778e-06
-0.000112916 4.36202e-05 5.52582e-07
-4.99778e-06 5.52582e-07 -6.84364e-05
0.0023351 -0.000263159 3.26327e-06
-0.000263159 0.000111784 -1.62966e-06
3.26327e-06 -1.62966e-06 4.27245e-05
0.00154911 -0.00017074 5.68491e-08
-0.00017074 -4.30688e-05 -3.69127e-08
5.68491e-08 -3.69127e-08 -0.000182928
0.00025688 -4.73318e-05 -1.44262e-05
-4.73318e-05 -0.000329874 4.163e-06
-1.44262e-05 4.163e-06 -0.000436904
0.00158626 -0.000235391 4.05586e-06
-0.000235391 -2.44875e-05 -1.2954e-06
4.05586e-06 -1.2954e-06 -0.000186325
0.000311343 -0.000104669 -3.96721e-07
-0.000104669 -0.00029812 4.80663e-07
-3.96721e-07 4.80663e-07 -0.000417879
0.00723357 -9.32813e-05 -0.000395003
-9.32813e-05 0.00443131 2.29269e-05
-0.000395003 2.29269e-05 0.00447086
0.000448643 -0.000122618 1.25428e-05
-0.000122618 -0.000220691 -9.35834e-06
1.25428e-05 -9.35834e-06 -0.000353033
0.0047357 -0.000133165 0.000166643
-0.000133165 0.00279634 -1.06013e-05
0.000166643 -1.06013e-05 0.00278166
0.00193837 -0.000106444 0.00010274
-0.000106444 0.000964463 -1.56132e-05
0.00010274 -1.56132e-05 0.00089946
0.00232566 0.000183907 -4.13185e-06
0.000183907 7.8341e-05 -2.3585e-07
-4.13185e-06 -2.3585e-07 8.66323e-05
0.00220994 0.000248743 -5.6165e-06
0.000248743 1.5494e-05 -1.96581e-07
-5.6165e-06 -1.96581e-07 -1.75453e-05
0.00228472 0.000209271 -7.64959e-07
0.000209271 -2.03254e-05 -3.36121e-07
-7.64959e-07 -3.36121e-07 2.593e-06
0.00237403 0.00036588 -4.17826e-07
0.00036588 0.000181703 8.86362e-07
-4.17826e-07 8.86362e-07 7.10874e-05
0.00229451 0.000348002 -1.33858e-07
0.000348002 3.50827e-05 -2.02123e-07
-1.33858e-07 -2.02123e-07 -5.81683e-06
0.00240228 0.000309233 4.63876e-08
0.000309233 2.4051e-05 -5.50026e-07
4.63876e-08 -5.50026e-07 3.30054e-05
0.0016076 0.000311918 -3.00949e-06
0.000311918 1.29275e-05 3.14092e-07
-3.00949e-06 3.14092e-07 -0.000169337
0.00226665 0.00045114 1.24843e-06
0.00045114 0.000123768 2.7093e-07
1.24843e-06 2.7093e-07 -2.73652e-05
0.00232988 0.000467819 3.27108e-06
0.000467819 8.31418e-05 -1.55844e-07
3.27108e-06 -1.55844e-07 -5.00025e-07
0.000344217 0.000150665 -1.58777e-05
0.000150665 -0.000288767 -8.6685e-06
-1.58777e-05 -8.6685e-06 -0.000434315
0.00166993 0.000382456 2.32208e-06
0.000382456 7.3615e-05 1.28663e-06
2.32208e-06 1.28663e-06 -0.000140713
0.00227326 0.000556879 -2.21562e-06
0.000556879 0.000148661 -3.11773e-06
-2.21562e-06 -3.11773e-06 -5.56328e-05
0.00784029 0.000363195 -0.000409906
0.000363195 0.00485104 -5.56866e-05
-0.000409906 -5.56866e-05 0.00485321
0.000355481 0.000206758 5.22583e-07
0.000206758 -0.000291231 5.46796e-07
5.22583e-07 5.46796e-07 -0.000460379
0.00159866 0.000438537 1.58663e-05
0.000438537 4.23043e-05 9.46856e-07
1.58663e-05 9.46856e-07 -0.000210162
0.00835122 0.000371824 1.14012e-05
0.000371824 0.00517846 5.86655e-06
1.14012e-05 5.86655e-06 0.00517698
0.000304778 0.000269458 1.97057e-05
0.000269458 -0.0003265 1.68715e-05
1.97057e-05 1.68715e-05 -0.000527086
0.00887662 0.000282073 0.000433459
0.000282073 0.00548351 5.41321e-05
0.000433459 5.41321e-05 0.00550217
0.00219568 9.38227e-05 -6.06937e-06
9.38227e-05 1.89227e-05 -2.717e-08
-6.06937e-06 -2.717e-08 5.56484e-06
0.00223396 0.000125589 -7.52155e-07
0.000125589 -1.26419e-05 -3.13865e-07
-7.52155e-07 -3.13865e-07 5.86245e-06
0.0023886 0.000174004 -1.30864e-06
0.000174004 -5.24135e-05 -3.7916e-07
-1.30864e-06 -3.7916e-07 1.58574e-05
0.00208297 2.75497e-06 -8.08594e-07
2.75497e-06 -7.35623e-05 -1.35126e-07
-8.08594e-07 -1.35126e-07 -0.00012735
0.00223251 2.83867e-05 -2.78954e-07
2.83867e-05 3.72417e-05 6.20136e-08
-2.78954e-07 6.20136e-08 3.85481e-05
0.00221661 6.27517e-05 2.30076e-07
6.27517e-05 -6.01504e-05 2.79149e-07
2.30076e-07 2.79149e-07 -1.76496e-05
0.00223307 -5.60738e-05 3.47012e-06
-5.60738e-05 8.65944e-06 1.3065e-07
3.47012e-06 1.3065e-07 2.29437e-05
0.00213113 -7.88449e-05 -1.66334e-06
-7.88449e-05 -3.99335e-05 1.98193e-07
-1.66334e-06 1.98193e-07 -9.13231e-05
0.00152425 -4.69421e-05 -3.34603e-06
-4.69421e-05 -3.16772e-05 2.57974e-07
-3.34603e-06 2.57974e-07 -0.000137057
0.00226723 -0.000180807 1.37574e-06
-0.000180807 5.79174e-05 -1.03537e-06
1.37574e-06 -1.03537e-06 -7.93331e-06
0.00160572 -0.000114625 3.21789e-06
-0.000114625 7.87512e-07 -2.90283e-07
3.21789e-06 -2.90283e-07 -0.000118097
0.000217535 -2.1743e-05 -1.43853e-05
-2.1743e-05 -0.000341492 2.70151e-06
-1.43853e-05 2.70151e-06 -0.000441433
0.00152687 -0.000169006 4.65105e-06
-0.000169006 -6.82944e-05 -1.25421e-06
4.65105e-06 -1.25421e-06 -0.000207469
0.000249324 -5.59419e-05 4.37062e-07
-5.59419e-05 -0.000329256 -3.84986e-07
4.37062e-07 -3.84986e-07 -0.000435337
0.00699143 -0.000179789 -0.000391979
-0.000179789 0.00429447 2.45518e-05
-0.000391979 2.45518e-05 0.00432605
0.000305493 -8.88723e-05 1.41119e-05
-8.88723e-05 -0.00029746 -5.69971e-06
1.41119e-05 -5.69971e-06 -0.000415136
0.00714334 -0.000127341 6.51848e-06
-0.000127341 0.00437837 3.11863e-07
6.51848e-06 3.11863e-07 0.004416
0.00216821 -5.6579e-05 0.00029818
-5.6579e-05 0.00108267 -2.40954e-05
0.00029818 -2.40954e-05 0.00107677
0.00223809 0.000174976 -7.83777e-06
0.000174976 6.39234e-05 -6.22194e-07
-7.83777e-06 -6.22194e-07 3.59946e-05
0.00221881 0.000184749 -6.36012e-07
0.000184749 -7.88868e-06 7.24208e-08
-6.36012e-07 7.24208e-08 9.05684e-06
0.00237253 0.000270301 8.48047e-07
0.000270301 0.000159997 6.53561e-07
8.48047e-07 6.53561e-07 7.56699e-05
0.00224699 0.000249845 6.43648e-07
0.000249845 3.77784e-05 3.76696e-08
6.43648e-07 3.76696e-08 4.42376e-06
0.00227213 0.000199576 2.94319e-08
0.000199576 -2.27204e-05 -4.51584e-07
2.94319e-08 -4.51584e-07 1.09416e-06
0.00152277 0.000234813 -1.03761e-06
0.000234813 -3.89036e-05 -3.22357e-07
-1.03761e-06 -3.22357e-07 -0.000208066
0.00234093 0.000365075 4.29259e-07
0.000365075 0.000151087 -1.15941e-07
4.29259e-07 -1.15941e-07 4.03262e-05
0.00233702 0.000345258 3.98757e-06
0.000345258 6.64066e-05 3.02252e-07
3.98757e-06 3.02252e-07 2.43141e-05
0.000329715 0.000112673 -1.46939e-05
0.000112673 -0.000287118 -6.32102e-06
-1.46939e-05 -6.32102e-06 -0.000418046
0.00158217 0.000307025 3.20566e-06
0.000307025 8.4027e-06 1.10667e-06
3.20566e-06 1.10667e-06 -0.00017974
0.00225983 0.000450977 -1.31677e-07
0.000450977 0.000128847 -1.36982e-06
-1.31677e-07 -1.36982e-06 -3.34921e-05
0.00752259 0.000340048 -0.000417265
0.000340048 0.00465768 -4.93999e-05
-0.000417265 -4.93999e-05 0.00466389
0.0003557 0.000158246 5.1552e-07
0.000158246 -0.000284462 2.43238e-07
5.1552e-07 2.43238e-07 -0.000433097
0.00163142 0.000373491 9.22112e-06
0.000373491 5.48722e-05 2.00756e-06
9.22112e-06 2.00756e-06 -0.000156072
0.00798676 0.000393008 8.42468e-06
0.000393008 0.00495777 6.03501e-06
8.42468e-06 6.03501e-06 0.00495456
0.00034024 0.000210403 1.67414e-05
0.000210403 -0.000306507 1.26795e-05
1.67414e-05 1.26795e-05 -0.000478812
0.00850574 0.000389182 0.000439026
0.000389182 0.00527606 6.4427e-05
0.000439026 6.4427e-05 0.00527801
0.00205374 9.13535e-05 9.29592e-07
9.13535e-05 -7.94611e-05 -3.64488e-07
9.29592e-07 -3.64488e-07 -0.000143929
0.0022402 9.44263e-05 -2.13196e-06
9.44263e-05 5.60677e-05 -3.26118e-08
-2.13196e-06 -3.26118e-08 4.13989e-05
0.00225673 0.000133828 2.43419e-06
0.000133828 1.09173e-05 -1.03347e-07
2.43419e-06 -1.03347e-07 2.98343e-05
0.00151155 -3.18913e-06 -1.98731e-06
-3.18913e-06 -2.3991e-05 2.05796e-07
-1.98731e-06 2.05796e-07 -0.000129774
0.0021172 4.63263e-06 -1.66073e-06
4.63263e-06 -4.17499e-05 3.31769e-08
-1.66073e-06 3.31769e-08 -9.51005e-05
0.0022195 3.08098e-05 3.99354e-06
3.08098e-05 2.3438e-05 3.40007e-07
3.99354e-06 3.40007e-07 2.86645e-05
0.00217816 -7.79873e-05 -1.74806e-06
-7.79873e-05 -9.24045e-07 2.11525e-07
-1.74806e-06 2.11525e-07 -5.04275e-05
0.0016106 -5.05152e-05 2.53399e-06
-5.05152e-05 2.1581e-05 -1.04084e-07
2.53399e-06 -1.04084e-07 -8.28379e-05
0.000235075 -3.39445e-05 -1.5134e-05
-3.39445e-05 -0.000321957 1.81135e-06
-1.5134e-05 1.81135e-06 -0.000417017
0.0015406 -0.0001153 7.86448e-06
-0.0001153 -5.20163e-05 -1.45337e-06
7.86448e-06 -1.45337e-06 -0.000177847
0.000230628 -1.07228e-05 -5.90031e-08
-1.07228e-05 -0.000332507 6.03625e-08
-5.90031e-08 6.03625e-08 -0.000430686
0.00688534 -0.000144522 -0.000391478
-0.000144522 0.00422318 1.88034e-05
-0.000391478 1.88034e-05 0.0042594
0.00027954 -6.14258e-05 1.49621e-05
-6.14258e-05 -0.000302602 -4.14038e-06
1.49621e-05 -4.14038e-06 -0.000408791
0.00698341 -8.03464e-05 -2.62036e-06
-8.03464e-05 0.00427419 3.84491e-06
-2.62036e-06 3.84491e-06 0.00431525
0.0071066 -0.000140486 0.000391357
-0.000140486 0.00435759 -2.2543e-05
0.000391357 -2.2543e-05 0.00439477
0.00230367 0.000176997 1.65578e-06
0.000176997 0.00011218 -2.86093e-07
1.65578e-06 -2.86093e-07 4.32054e-05
0.00218922 0.000176469 -7.32154e-07
0.000176469 1.73691e-05 8.23621e-08
-7.32154e-07 8.23621e-08 -6.05614e-06
0.00211432 0.000185815 2.54455e-06
0.000185815 -9.2946e-05 2.27481e-07
2.54455e-06 2.27481e-07 -6.74729e-05
0.00147054 0.000160854 -1.46363e-09
0.000160854 -6.81923e-05 -2.54819e-08
-1.46363e-09 -2.54819e-08 -0.000216718
0.00234183 0.000267987 2.53283e-07
0.000267987 0.000134625 -2.10539e-08
2.53283e-07 -2.10539e-08 5.04897e-05
0.00228487 0.000251102 5.09328e-06
0.000251102 6.11781e-05 1.55815e-08
5.09328e-06 1.55815e-08 2.7302e-05
0.000301542 7.82944e-05 -1.37962e-05
7.82944e-05 -0.000292528 -4.63774e-06
-1.37962e-05 -4.63774e-06 -0.000411049
0.00155634 0.000236067 6.8532e-08
0.000236067 -2.01731e-06 1.98368e-07
6.8532e-08 1.98368e-07 -0.000172163
0.00231163 0.000364282 5.60679e-07
0.000364282 0.000123928 -1.24798e-06
5.60679e-07 -1.24798e-06 1.30186e-05
0.00725748 0.000275188 -0.000419084
0.000275188 0.00448211 -3.959e-05
-0.000419084 -3.959e-05 0.00450087
0.000340415 0.000121658 4.93978e-07
0.000121658 -0.000282362 2.33668e-07
4.93978e-07 2.33668e-07 -0.000416262
0.00153141 0.000300178 5.0113e-06
0.000300178 -1.39844e-05 1.73577e-06
5.0113e-06 1.73577e-06 -0.000207581
0.00764125 0.000360675 4.91866e-06
0.000360675 0.00473907 3.78031e-06
4.91866e-06 3.78031e-06 0.00474292
0.000363036 0.000167004 1.5406e-05
0.000167004 -0.000281523 9.53024e-06
1.5406e-05 9.53024e-06 -0.000433847
0.00813229 0.000435674 0.000441705
0.000435674 0.00506688 6.83475e-05
0.000441705 6.83475e-05 0.00505693
0.00141036 5.1563e-05 -2.56217e-06
5.1563e-05 -8.31504e-05 2.12897e-07
-2.56217e-06 2.12897e-07 -0.0002091
0.00215452 8.89871e-05 -2.90424e-06
8.89871e-05 -8.17203e-06 -2.58433e-07
-2.90424e-06 -2.58433e-07 -6.38224e-05
0.00228703 9.55234e-05 4.99312e-06
9.55234e-05 9.40754e-05 3.13926e-07
4.99312e-06 3.13926e-07 7.85301e-05
0.000270545 3.25688e-05 -1.58838e-05
3.25688e-05 -0.000300447 -3.23022e-07
-1.58838e-05 -3.23022e-07 -0.000387867
0.00158567 -2.69051e-07 2.73795e-06
-2.69051e-07 2.16264e-05 4.72005e-08
2.73795e-06 4.72005e-08 -8.31938e-05
0.00215358 8.28567e-06 -2.92581e-06
8.28567e-06 -8.93949e-06 1.44996e-07
-2.92581e-06 1.44996e-07 -6.16686e-05
0.00169074 -5.35643e-05 9.55446e-06
-5.35643e-05 7.09348e-05 -9.63606e-07
9.55446e-06 -9.63606e-07 -3.24148e-05
0.00023537 -8.76534e-06 1.93165e-07
-8.76534e-06 -0.000320519 3.90664e-07
1.93165e-07 3.90664e-07 -0.000415337
0.00676932 -4.6448e-06 -0.000392339
-4.6448e-06 0.00413705 4.72252e-06
-0.000392339 4.72252e-06 0.00418266
0.000229234 7.31633e-07 1.47444e-05
7.31633e-07 -0.000333168 -1.76896e-06
1.47444e-05 -1.76896e-06 -0.000429523
0.00683076 -0.00014129 -6.96194e-06
-0.00014129 0.00418987 2.39963e-06
-6.96194e-06 2.39963e-06 0.00422545
0.00691162 -6.39386e-05 0.000377259
-6.39386e-05 0.0042273 -1.35141e-05
0.000377259 -1.35141e-05 0.00426867
0.0014708 0.000101512 -1.43814e-06
0.000101512 -4.7313e-05 -1.82522e-07
-1.43814e-06 -1.82522e-07 -0.000181767
0.00225639 0.000171916 -2.67452e-07
0.000171916 7.2709e-05 -3.23068e-07
-2.67452e-07 -3.23068e-07 7.21322e-06
0.00213546 0.000177566 3.40573e-06
0.000177566 -3.19624e-05 -2.12416e-07
3.40573e-06 -2.12416e-07 -5.1027e-05
0.00276121 9.05861e-05 -0.00017087
9.05861e-05 0.00133748 -7.64851e-06
-0.00017087 -7.64851e-06 0.00127777
0.00152103 0.000162986 -2.98251e-08
0.000162986 -2.0993e-05 1.1154e-07
-2.98251e-08 1.1154e-07 -0.000170234
0.00230889 0.000265298 8.65988e-08
0.000265298 0.000108417 -6.23511e-07
8.65988e-08 -6.23511e-07 2.45689e-05
0.007066 0.000204634 -0.000415177
0.000204634 0.00434916 -2.89861e-05
-0.000415177 -2.89861e-05 0.00438005
0.000318762 9.82159e-05 6.50991e-07
9.82159e-05 -0.000281764 4.58261e-07
6.50991e-07 4.58261e-07 -0.000403502
0.00159452 0.000236972 1.30462e-06
0.000236972 3.81509e-05 4.65125e-07
1.30462e-06 4.65125e-07 -0.000132942
0.00737171 0.00029272 2.23245e-06
0.00029272 0.00455714 2.03649e-06
2.23245e-06 2.03649e-06 0.00457412
0.000362073 0.000132917 1.51712e-05
0.000132917 -0.00026951 7.53033e-06
1.51712e-05 7.53033e-06 -0.000407021
0.00776652 0.000396388 0.000437812
0.000396388 0.00483338 6.2142e-05
0.000437812 6.2142e-05 0.00483129
0.000371538 2.00698e-05 -1.21294e-05
2.00698e-05 -0.00022255 -1.41964e-06
-1.21294e-05 -1.41964e-06 -0.000319905
0.00149591 5.1839e-05 -9.41852e-07
5.1839e-05 -2.57338e-05 -1.77482e-08
-9.41852e-07 -1.77482e-08 -0.000144167
0.00223323 8.52104e-05 -2.6893e-06
8.52104e-05 4.67248e-05 1.95602e-07
-2.6893e-06 1.95602e-07 -5.55543e-07
0.00664451 -0.000101764 -0.000376272
-0.000101764 0.00407298 6.82304e-06
-0.000376272 6.82304e-06 0.00410826
0.000231079 1.35747e-05 -7.22532e-07
1.35747e-05 -0.000321937 -2.85767e-07
-7.22532e-07 -2.85767e-07 -0.000411931
0.00166414 1.17575e-06 8.47615e-06
1.17575e-06 6.99901e-05 -5.19398e-07
8.47615e-06 -5.19398e-07 -3.3879e-05
0.000217563 1.59495e-05 1.50503e-05
1.59495e-05 -0.000332883 -4.18894e-07
1.50503e-05 -4.18894e-07 -0.000426341
0.00671459 -3.6907e-05 1.58609e-06
-3.6907e-05 0.00410872 -2.11974e-06
1.58609e-06 -2.11974e-06 0.00414872
0.00679851 -7.04529e-05 0.000380129
-7.04529e-05 0.00415535 -1.01353e-05
0.000380129 -1.01353e-05 0.00419742
0.00286444 3.68722e-05 -0.000165769
3.68722e-05 0.00140938 -4.00818e-06
-0.000165769 -4.00818e-06 0.00135717
0.00148075 0.000104252 -1.62638e-07
0.000104252 -3.59689e-05 -3.5305e-08
-1.62638e-07 -3.5305e-08 -0.000171104
0.00221354 0.000167122 -5.5146e-07
0.000167122 3.56965e-05 -5.61587e-07
-5.5146e-07 -5.61587e-07 -2.62603e-05
0.00662359 9.75475e-06 -0.000184484
9.75475e-06 0.00406986 -2.14354e-06
-0.000184484 -2.14354e-06 0.00406164
0.000285018 7.76879e-05 5.44779e-07
7.76879e-05 -0.000293084 2.15837e-07
5.44779e-07 2.15837e-07 -0.000402896
0.00157233 0.000166167 5.78299e-07
0.000166167 2.45896e-05 4.35483e-09
5.78299e-07 4.35483e-09 -0.000125507
0.00713273 0.000182874 -7.37832e-06
0.000182874 0.00438511 -1.69008e-06
-7.37832e-06 -1.69008e-06 0.00441737
0.000333673 0.00011947 1.60979e-05
0.00011947 -0.000273653 6.34467e-06
1.60979e-05 6.34467e-06 -0.000397885
0.00745171 0.000313885 0.000431783
0.000313885 0.00461319 5.00908e-05
0.000431783 5.00908e-05 0.00462868
0.00208747 -4.72485e-05 -0.000289287
-4.72485e-05 0.00103246 1.90276e-06
-0.000289287 1.90276e-06 0.001041
0.00149994 4.1955e-05 -7.42379e-05
4.1955e-05 0.000512704 -4.2159e-07
-7.42379e-05 -4.2159e-07 0.000443535
0.00159659 5.47765e-05 4.53989e-06
5.47765e-05 4.3541e-05 -5.77894e-08
4.53989e-06 -5.77894e-08 -6.72402e-05
0.00669865 -4.84099e-05 6.39758e-06
-4.84099e-05 0.00410192 3.73066e-06
6.39758e-06 3.73066e-06 0.00414321
0.000235541 -3.54961e-06 1.56805e-05
-3.54961e-06 -0.000312231 1.31679e-07
1.56805e-05 1.31679e-07 -0.000405838
0.00672521 -9.46202e-05 0.000392305
-9.46202e-05 0.00412129 -8.17013e-06
0.000392305 -8.17013e-06 0.00416081
0.00166035 3.34429e-05 -8.6012e-05
3.34429e-05 0.000788024 -2.27595e-06
-8.6012e-05 -2.27595e-06 0.000741028
0.00150761 3.7803e-05 -7.49209e-05
3.7803e-05 0.00051473 -2.41709e-06
-7.49209e-05 -2.41709e-06 0.000438791
0.00149392 0.000105254 1.67989e-06
0.000105254 -2.13836e-05 -1.0778e-07
1.67989e-06 -1.0778e-07 -0.000157085
0.00435123 9.35158e-05 0.000148081
9.35158e-05 0.00255197 5.90971e-06
0.000148081 5.90971e-06 0.00254747
0.000258869 8.88576e-05 1.60543e-05
8.88576e-05 -0.00031338 4.91114e-06
1.60543e-05 4.91114e-06 -0.00042383
0.00719692 0.000171083 0.000410017
0.000171083 0.00441774 3.12141e-05
0.000410017 3.12141e-05 0.00445383
0.00669358 -6.84401e-06 -7.79935e-06
-6.84401e-06 0.00410374 -4.19576e-06
-7.79935e-06 -4.19576e-06 0.00414283
0.00024111 5.78271e-05 1.75408e-05
5.78271e-05 -0.000319551 2.28191e-06
1.75408e-05 2.28191e-06 -0.00040848
0.00663132 3.37297e-05 0.000382833
3.37297e-05 0.00405361 6.62784e-07
0.000382833 6.62784e-07 0.00409809
0.00426208 5.36635e-05 0.000158267
5.36635e-05 0.00249433 7.63442e-06
0.000158267 7.63442e-06 0.00249431
0.00026584 2.63782e-05 1.55212e-05
2.63782e-05 -0.000303205 2.54286e-06
1.55212e-05 2.54286e-06 -0.000402852
0.00695978 4.11771e-05 0.000394113
4.11771e-05 0.00425947 1.56618e-05
0.000394113 1.56618e-05 0.00430102
0.00671999 -9.59373e-05 0.000383221
-9.59373e-05 0.00412215 -3.75714e-06
0.000383221 -3.75714e-06 0.00415844
0.00675929 4.071e-05 0.000386341
4.071e-05 0.00412918 1.01712e-05
0.000386341 1.01712e-05 0.00417394
