# vtk DataFile Version 2.0
Wound Healing Simulation
ASCII
DATASET UNSTRUCTURED_GRID
POINTS 3012 float
69.9759 18.75 4
67.2507 60.3285 4
69.976 18.75 2
73.0099 25.446 4
71.1327 20.9142 4
68.6801 16.6661 4
67.8215 19.9262 3.9736
67.2507 60.3286 2
71.1327 54.0858 4
68.6801 58.3339 4
65.6939 62.2254 4
65.3082 58.9988 3.97229
74.6784 42.3946 4
73.7221 47.2057 4
69.9759 18.75 0
73.0099 25.446 2
68.6801 16.6661 2
71.1327 20.9142 2
67.8221 19.9299 2
74.6792 32.6053 4
73.7222 27.7943 4
72.1454 23.1494 4
70.6113 26.2216 3.97357
68.8819 21.9578 3.97384
67.2507 14.6715 4
66.6328 17.9732 3.97244
65.758 21.0387 3.96242
67.2507 60.3285 0
71.1327 54.0858 2
68.6801 58.3339 2
65.694 62.2255 2
65.3096 58.9943 2
72.1454 51.8506 4
69.9759 56.25 4
68.8323 53.1143 3.97364
64.0165 64.0165 4
66.6065 57.1329 3.97347
63.8813 60.762 3.96982
63.4868 57.7618 3.96232
60.3285 67.2507 4
74.6792 42.3947 2
73.7222 47.2057 2
74.9194 39.9526 4
74.2788 44.8158 4
72.1659 42.0857 3.97498
73.0099 49.554 4
71.2465 46.5985 3.97353
73.0099 25.446 0
71.1327 20.9142 0
68.6801 16.6661 0
67.8215 19.9262 0.0264039
74.6792 32.6053 2
73.7222 27.7943 2
67.2508 14.6715 2
72.1455 23.1494 2
70.6107 26.2224 2
66.6339 17.9775 2
68.882 21.9604 2
65.7561 21.0405 2
74.9197 35.0474 4
74.2794 30.1841 4
72.1827 32.9448 3.9755
71.2758 28.4327 3.97368
69.8122 24.0596 3.97365
68.3269 26.9589 3.96408
66.7279 22.9446 3.96298
65.694 12.7746 4
65.3192 16.1064 3.97119
64.6762 19.2099 3.96161
63.7463 22.0902 3.96426
71.1327 54.0858 0
65.6939 62.2254 0
68.6801 58.3339 0
65.3082 58.9988 0.0277101
72.1455 51.8506 2
69.9759 56.25 2
68.8325 53.1112 2
64.0165 64.0165 2
66.6077 57.1283 2
63.8823 60.7572 2
63.4793 57.76 2
62.2254 65.694 4
58.891 65.4122 3.98082
69.7652 50.9901 3.97332
67.7794 55.1678 3.97375
66.6066 52.1989 3.96304
62.3319 62.4242 3.975
64.6298 56.0213 3.96266
62.1925 59.3885 3.96311
61.7229 56.6339 3.96061
58.3339 68.6801 4
60.3285 67.2508 2
73.7221 47.2057 0
74.6784 42.3946 0
74.9197 39.9526 2
74.2794 44.8159 2
72.165 42.0855 2
73.0099 49.554 2
71.2457 46.5976 2
75 37.5 4
72.4033 39.8027 3.9762
71.78 44.353 3.97443
69.7972 41.7892 3.96599
70.5719 48.8144 3.97329
68.8936 46.0109 3.96546
74.6792 32.6053 0
73.7222 27.7943 0
67.2507 14.6715 0
72.1454 23.1494 0
70.6113 26.2216 0.0264316
68.8819 21.9578 0.0261647
66.6328 17.9732 0.0275624
65.758 21.0387 0.0375819
74.9197 35.0474 2
74.2794 30.1841 2
72.1819 32.9447 2
71.2748 28.4329 2
65.694 12.7745 2
65.3203 16.1111 2
69.8119 24.0612 2
68.3305 26.9596 2
64.6704 19.2122 2
66.7286 22.9461 2
63.745 22.091 2
72.4113 35.2253 3.97633
71.8016 30.6779 3.9747
69.8339 33.2725 3.96615
68.955 29.044 3.9648
67.5828 24.9215 3.96346
66.0403 27.6763 3.9701
64.0165 10.9835 4
64.6087 23.8815 3.96649
63.8847 14.3321 3.9683
63.4925 17.4619 3.96031
62.771 20.3794 3.96214
61.8398 23.0416 3.96978
60.6803 11.1026 3.97576
57.6048 11.4791 3.96741
72.1454 51.8506 0
69.9759 56.25 0
68.8323 53.1143 0.0263593
64.0165 64.0165 0
63.8813 60.762 0.0301821
66.6065 57.1329 0.026535
63.4868 57.7618 0.0376823
62.2255 65.694 2
58.8932 65.4074 2
69.765 50.988 2
67.7802 55.1638 2
66.6069 52.1975 2
62.3338 62.4185 2
64.6232 56.0191 2
62.1889 59.3884 2
61.7193 56.6338 2
60.6652 63.9728 3.9778
57.0214 66.7328 3.98311
57.5503 63.6675 3.97213
67.4675 50.1677 3.96366
65.663 54.163 3.96264
64.3667 51.3343 3.96646
60.7664 60.9149 3.96678
62.6923 55.0187 3.96334
60.5825 58.1121 3.95833
60.148 55.7042 3.96528
56.25 69.9759 4
58.3339 68.6801 2
60.3285 67.2507 0
58.9177 9.65991 3.97794
62.2254 9.30607 4
73.0099 49.554 0
74.2788 44.8158 0
71.2465 46.5985 0.0264712
72.1659 42.0857 0.0250164
74.9194 39.9526 0
75 37.5 2
72.403 39.8025 2
71.7795 44.3524 2
69.7966 41.789 2
70.5714 48.813 2
68.8978 46.0105 2
72.4868 37.5129 3.97589
70.0351 39.6581 3.96659
69.4218 43.9058 3.96594
67.4706 41.4854 3.97492
68.2338 48.1004 3.96446
66.5452 45.4085 3.97287
74.9197 35.0474 0
74.2794 30.1841 0
72.1827 32.9448 0.0244967
71.2758 28.4327 0.0263243
65.694 12.7746 0
65.3192 16.1064 0.0288124
69.8122 24.0596 0.0263492
68.3269 26.9589 0.0359195
66.7279 22.9446 0.0370161
64.6762 19.2099 0.0383939
63.7463 22.0902 0.0357401
72.411 35.2251 2
71.8011 30.6779 2
69.8331 33.273 2
68.9581 29.0445 2
64.0165 10.9835 2
63.886 14.3376 2
63.487 17.4632 2
67.5851 24.9226 2
66.0379 27.6775 2
62.7712 20.3795 2
64.6064 23.8827 2
61.8381 23.0421 2
60.6826 11.1077 2
57.6044 11.472 2
70.0521 35.3951 3.96677
69.4602 31.1543 3.96523
67.5366 33.6074 3.97433
66.6289 29.6562 3.9722
65.3704 25.7467 3.96833
63.8496 28.3338 3.976
62.337 12.6595 3.97382
62.5854 24.7302 3.97245
62.1862 15.8046 3.96292
61.6925 18.7466 3.95955
60.9767 21.4463 3.96603
60.0692 23.8666 3.97333
59.2377 12.8144 3.96325
55.8676 10.2649 3.97369
56.3921 13.1792 3.9666
69.7652 50.9901 0.0266778
62.2254 65.694 0
58.891 65.4122 0.0191796
67.7794 55.1678 0.0262488
66.6066 52.1989 0.0369615
62.3319 62.4242 0.0250001
62.1925 59.3885 0.0368922
64.6298 56.0213 0.0373442
61.7229 56.6339 0.0393891
60.6676 63.9695 2
57.0245 66.729 2
57.5512 63.6716 2
67.4692 50.1666 2
65.6606 54.1611 2
64.3651 51.3335 2
60.7634 60.9157 2
62.6923 55.0189 2
60.5797 58.1129 2
60.1467 55.7041 2
55.0675 67.9302 3.98559
59.212 62.3323 3.96688
55.7972 64.8881 3.97276
56.3153 62.0388 3.97631
65.1513 49.3607 3.96849
63.5505 53.2406 3.96481
62.1297 50.5595 3.97115
59.2953 59.5136 3.95907
60.8488 54.2219 3.96796
59.1139 56.9241 3.96055
58.9945 55.0775 3.96844
48.0993 68.5721 3.98188
50.9452 69.9306 3.98818
54.0858 71.1327 4
56.25 69.976 2
58.3339 68.6801 0
57.0548 8.33918 3.97921
60.3285 7.74928 4
58.9205 9.66448 2
62.2255 9.30602 2
70.5719 48.8144 0.026707
71.78 44.353 0.0255728
68.8936 46.0109 0.0345427
69.7972 41.7892 0.0340123
72.4033 39.8027 0.0237968
75 37.5 0
72.486 37.5126 2
70.0348 39.658 2
69.4226 43.9054 2
67.4676 41.4849 2
68.2359 48.0995 2
66.5422 45.4074 2
70.1232 37.5234 3.96679
67.716 39.5081 3.9748
67.0798 43.4486 3.97453
65.2625 41.1837 3.97658
65.8898 47.3772 3.97069
64.3267 44.7854 3.97609
72.4113 35.2253 0.0236699
71.8016 30.6779 0.025301
69.8339 33.2725 0.0338456
68.955 29.044 0.035201
64.0165 10.9835 0
63.8847 14.3321 0.0316987
63.4925 17.4619 0.0396933
67.5828 24.9215 0.0365381
66.0403 27.6763 0.0298991
64.6087 23.8815 0.0335133
62.771 20.3794 0.0378636
61.8398 23.0416 0.0302161
60.6803 11.1026 0.0242381
57.6048 11.4791 0.032591
70.0518 35.3953 2
69.4601 31.1547 2
67.5344 33.608 2
66.6275 29.6571 2
62.3391 12.6649 2
62.1837 15.8052 2
61.692 18.7464 2
65.368 25.7479 2
63.8468 28.3349 2
60.9763 21.4461 2
62.5832 24.731 2
60.0687 23.8674 2
59.2368 12.8138 2
56.3916 13.1761 2
55.8686 10.2672 2
67.7559 35.557 3.97447
67.1412 31.6468 3.97402
65.4222 33.9582 3.97643
64.362 30.2589 3.97581
63.2545 26.5005 3.97478
61.8355 28.8886 3.97563
60.7663 14.2504 3.96438
60.6601 25.4732 3.97491
60.5361 17.1851 3.95769
59.987 19.9287 3.962
59.3148 22.4056 3.96885
58.5385 24.4961 3.97411
54.0318 9.15825 3.97051
57.8888 14.3882 3.9608
54.7751 12.0733 3.97109
55.2826 14.7321 3.95912
67.4675 50.1677 0.0363432
57.0214 66.7328 0.0168942
60.6652 63.9728 0.0221964
57.5503 63.6675 0.0278748
65.663 54.163 0.0373559
64.3667 51.3343 0.0335364
60.7664 60.9149 0.0332189
60.5825 58.1121 0.0416739
62.6923 55.0187 0.036662
60.148 55.7042 0.0347249
55.0708 67.9273 2
59.2111 62.3359 2
55.7988 64.8876 2
56.3134 62.039 2
65.149 49.3596 2
63.5497 53.2403 2
62.1286 50.5589 2
59.3035 59.5197 2
60.8496 54.2222 2
59.122 56.9264 2
59.0011 55.0789 2
53.0393 68.9986 3.98665
53.962 66.0016 3.97459
57.8602 60.8251 3.96538
54.6668 63.1553 3.9692
55.1878 60.5583 3.97512
62.8672 48.5751 3.97364
61.4684 52.4835 3.9695
59.8323 49.8861 3.97297
57.9013 58.1873 3.9589
59.0251 53.8309 3.97054
57.8388 55.6891 3.96295
50.1052 67.8482 3.97961
47.4591 66.5663 3.97616
46.0534 69.1518 3.98388
48.1008 68.5713 2
48.7993 70.7224 3.98938
50.9479 69.9295 2
51.8506 72.1454 4
54.0858 71.1327 2
56.25 69.9759 0
55.0994 7.14353 3.98345
58.3339 6.31992 4
57.0581 8.3444 2
60.3286 7.74926 2
58.9177 9.65991 0.0220604
62.2254 9.30607 0
68.2338 48.1004 0.0355373
69.4218 43.9058 0.0340554
66.5452 45.4085 0.0271339
67.4706 41.4854 0.025083
70.0351 39.6581 0.0334128
72.4868 37.5129 0.0241057
70.1225 37.5235 2
67.7126 39.5079 2
67.0785 43.4478 2
65.2601 41.1835 2
65.8874 47.3761 2
64.3245 44.7844 2
67.8173 37.5249 3.9746
65.5043 39.3593 3.97663
64.8703 42.9796 3.97619
63.3407 40.8922 3.97668
63.631 46.6402 3.97542
62.3489 44.1337 3.97584
70.0521 35.3951 0.0332313
69.4602 31.1543 0.0347749
67.5366 33.6074 0.0256675
66.6289 29.6562 0.0278037
62.337 12.6595 0.0261754
62.1862 15.8046 0.0370811
61.6925 18.7466 0.0404492
65.3704 25.7467 0.0316658
63.8496 28.3338 0.0239972
62.5854 24.7302 0.0275491
60.9767 21.4463 0.0339745
60.0692 23.8666 0.0266716
59.2377 12.8144 0.0367456
56.3921 13.1792 0.0334035
55.8676 10.2649 0.0263115
67.7531 35.5573 2
67.1399 31.6475 2
65.4186 33.9586 2
64.3597 30.2598 2
60.7645 14.2505 2
60.5268 17.1864 2
59.9845 19.9286 2
63.2525 26.5015 2
61.834 28.8888 2
59.3182 22.4055 2
60.6588 25.4744 2
58.5358 24.4987 2
57.8885 14.3881 2
55.2816 14.728 2
54.0346 9.15536 2
54.7724 12.0756 2
65.6034 35.6842 3.9764
64.8903 32.2015 3.97577
63.9157 34.2873 3.97631
62.1545 30.7228 3.97566
61.244 27.1982 3.97528
60.3381 29.2717 3.9758
59.266 15.7247 3.95735
58.8477 25.9743 3.9755
58.9481 18.4613 3.95917
58.4131 21.0074 3.96348
57.8608 23.2749 3.97018
57.4874 24.8644 3.97555
52.1085 8.16498 3.97326
53.0436 11.0751 3.96755
56.6253 15.8271 3.95713
53.7922 13.7581 3.97734
54.3117 16.1067 3.96018
55.0675 67.9302 0.0144053
65.1513 49.3607 0.0315107
55.7972 64.8881 0.0272419
59.212 62.3323 0.0331185
56.3153 62.0388 0.023695
63.5505 53.2406 0.035188
62.1297 50.5595 0.0288509
59.2953 59.5136 0.0409346
59.1139 56.9241 0.0394525
60.8488 54.2219 0.0320416
58.9945 55.0775 0.0315624
53.0425 68.9967 2
53.9638 66.0001 2
57.8612 60.8276 2
54.666 63.1568 2
55.1854 60.5579 2
62.8657 48.5742 2
61.4683 52.4833 2
59.8336 49.8858 2
57.9048 58.1898 2
59.0302 53.8317 2
57.8355 55.6877 2
52.0659 66.9895 3.97762
52.9419 64.1866 3.97395
56.5967 59.4291 3.96005
53.6503 61.5493 3.97141
54.2099 59.2519 3.96585
60.5073 47.75 3.9744
59.3279 51.9767 3.97125
57.4808 49.4441 3.97449
56.5972 56.8837 3.96173
56.7334 53.9697 3.96645
50.1071 67.8482 2
49.3312 65.9029 3.97515
47.4602 66.5647 2
46.8857 64.7064 3.97665
45.556 67.0846 3.97916
43.9713 69.5843 3.98496
46.0551 69.1524 2
46.606 71.3666 3.99043
48.0993 68.5721 0.0181249
48.8017 70.7214 2
49.554 73.0099 4
50.9452 69.9306 0.0118173
51.8506 72.1455 2
54.0858 71.1327 0
53.0622 6.07424 3.98724
55.1033 7.14569 2
56.25 5.02411 4
58.3339 6.3199 2
57.0548 8.33918 0.0207882
60.3285 7.74928 0
65.8898 47.3772 0.0293139
67.0798 43.4486 0.0254746
64.3267 44.7854 0.0239056
65.2625 41.1837 0.0234221
67.716 39.5081 0.0251972
70.1232 37.5234 0.0332143
67.8142 37.5249 2
65.5014 39.3592 2
64.8675 42.979 2
63.3409 40.8917 2
63.6291 46.6392 2
62.3482 44.1335 2
65.6138 37.5054 3.97651
63.4924 39.2512 3.97664
62.8904 42.496 3.97622
61.9213 40.6538 3.97656
61.4901 45.808 3.97562
60.8854 43.5911 3.97591
67.7559 35.557 0.0255278
67.1412 31.6468 0.0259757
65.4222 33.9582 0.0235739
64.362 30.2589 0.0241883
60.7663 14.2504 0.0356185
60.5361 17.1851 0.0423099
59.987 19.9287 0.0380045
63.2545 26.5005 0.025221
61.8355 28.8886 0.0243672
60.6601 25.4732 0.0250948
59.3148 22.4056 0.031151
58.5385 24.4961 0.0258944
57.8888 14.3882 0.0392045
55.2826 14.7321 0.0408775
54.0318 9.15825 0.0294924
54.7751 12.0733 0.0289075
65.6003 35.6844 2
64.8873 32.2019 2
63.9152 34.2876 2
62.1537 30.7228 2
59.27 15.7211 2
58.9529 18.4589 2
58.4133 21.0081 2
61.2423 27.1987 2
60.3383 29.272 2
57.8529 23.2788 2
58.8459 25.975 2
57.488 24.8666 2
56.6101 15.8291 2
54.3106 16.0975 2
53.7853 13.7542 2
52.1109 8.16633 2
53.0458 11.0712 2
63.703 35.6557 3.97641
62.4793 33.1085 3.97611
60.0487 30.7344 3.97564
59.025 28.0743 3.97556
57.8268 17.0792 3.95719
57.186 25.9427 3.97556
57.4437 19.6246 3.95863
56.9515 22.0346 3.96401
56.6827 24.1631 3.9721
50.1092 7.29407 3.98012
51.2221 10.1577 3.97083
52.1472 12.885 3.96535
55.4337 17.0849 3.95649
52.9344 15.3583 3.96007
53.66 17.1052 3.95873
53.0393 68.9986 0.0133543
53.962 66.0016 0.0254123
62.8672 48.5751 0.0263625
54.6668 63.1553 0.0308014
57.8602 60.8251 0.0346209
55.1878 60.5583 0.0248835
61.4684 52.4835 0.0305013
59.8323 49.8861 0.0270282
57.9013 58.1873 0.041103
57.8388 55.6891 0.0370536
59.0251 53.8309 0.0294583
52.0677 66.9886 2
52.9419 64.1897 2
56.595 59.4295 2
53.6485 61.5493 2
54.2044 59.2536 2
60.5071 47.7493 2
59.3302 51.9767 2
57.482 49.4437 2
56.5932 56.887 2
56.7307 53.9686 2
51.1607 65.1094 3.97548
52.0222 62.4858 3.97088
55.3757 58.1676 3.96058
52.781 60.0441 3.96784
53.5606 58.3876 3.96191
57.6402 46.6639 3.97563
57.0908 51.6218 3.97126
55.6155 49.3486 3.97335
55.2314 55.664 3.96194
54.9105 53.2093 3.96209
50.1052 67.8482 0.0203882
49.3321 65.9037 2
48.6082 64.0967 3.97835
47.4591 66.5663 0.0238439
45.5566 67.0868 2
46.8858 64.7076 2
46.3701 63.0142 3.98185
45.1282 65.1762 3.9784
43.6302 67.4577 3.98081
41.8591 69.8712 3.98472
43.9724 69.5845 2
44.3737 71.8612 3.99077
46.0534 69.1518 0.016119
46.608 71.3664 2
47.2057 73.7222 4
48.7993 70.7224 0.0106216
49.554 73.0099 2
51.8506 72.1454 0
50.9534 5.13419 3.98961
53.0651 6.07563 2
54.0858 3.86728 4
55.0994 7.14353 0.0165495
56.25 5.02406 2
58.3339 6.31992 0
63.631 46.6402 0.0245767
64.8703 42.9796 0.0238106
62.3489 44.1337 0.024157
63.3407 40.8922 0.0233247
65.5043 39.3593 0.0233695
67.8173 37.5249 0.0253951
65.6107 37.5054 2
63.4926 39.2512 2
62.8908 42.4954 2
61.9229 40.6536 2
61.4894 45.8075 2
60.886 43.5914 2
63.5569 37.4607 3.97652
61.6267 39.3302 3.97685
60.6291 41.8839 3.97672
59.6271 44.6376 3.9757
65.6034 35.6842 0.0235953
64.8903 32.2015 0.0242273
63.9157 34.2873 0.0236912
62.1545 30.7228 0.0243351
59.266 15.7247 0.042647
58.9481 18.4613 0.0408301
58.4131 21.0074 0.0365157
61.244 27.1982 0.024717
60.3381 29.2717 0.0242015
58.8477 25.9743 0.0245036
57.8608 23.2749 0.0298217
57.4874 24.8644 0.0244499
56.6253 15.8271 0.0428679
54.3117 16.1067 0.039819
53.7922 13.7581 0.0226623
52.1085 8.16498 0.026742
53.0436 11.0751 0.0324538
63.7032 35.6559 2
62.4804 33.1089 2
60.0495 30.7343 2
57.8339 17.0758 2
57.4558 19.6212 2
56.9494 22.0375 2
59.025 28.0741 2
56.6894 24.1649 2
57.188 25.9429 2
50.112 7.29172 2
55.4315 17.0893 2
53.6652 17.0994 2
52.9253 15.3591 2
52.1498 12.886 2
51.224 10.1551 2
61.6699 35.3933 3.97658
59.6608 32.8375 3.97596
57.9436 30.237 3.97548
56.6527 27.5982 3.97592
56.4651 18.2858 3.95849
55.7044 25.3493 3.97494
56.0235 20.7058 3.95923
55.6169 23.0991 3.96467
48.0553 6.53354 3.98463
49.3184 9.35198 3.97509
50.4137 12.0606 3.96923
51.3282 14.6016 3.96272
54.2701 18.0656 3.96017
52.2803 17.1782 3.9552
52.0659 66.9895 0.0223819
52.9419 64.1866 0.0260516
60.5073 47.75 0.0255964
53.6503 61.5493 0.0285918
56.5967 59.4291 0.0399476
54.2099 59.2519 0.0341479
59.3279 51.9767 0.0287473
57.4808 49.4441 0.0255113
56.5972 56.8837 0.0382731
56.7334 53.9697 0.0335531
51.1609 65.1082 2
52.0216 62.4884 2
55.3722 58.1679 2
52.7792 60.0458 2
53.5571 58.3901 2
57.6406 46.6631 2
57.089 51.6209 2
55.6135 49.3477 2
55.2294 55.6641 2
54.9095 53.2092 2
50.3309 63.3543 3.97517
51.1974 60.8569 3.97279
54.0785 57.1682 3.96572
52.1958 58.532 3.9644
55.8411 43.999 3.97597
54.7463 47.6661 3.97545
54.4749 51.1822 3.96527
53.6874 54.3929 3.96432
49.3312 65.9029 0.024853
48.607 64.0968 2
47.9426 62.4433 3.98448
45.556 67.0846 0.020842
46.8857 64.7064 0.0233472
43.6305 67.4579 2
46.3701 63.0176 2
45.1293 65.1727 2
45.9674 61.5421 3.99171
44.7596 63.4157 3.97649
43.3559 65.489 3.97817
41.6629 67.676 3.98019
39.7015 70.0175 3.98407
41.86 69.8718 2
42.1086 72.2053 3.99115
43.9713 69.5843 0.0150439
44.3752 71.8609 2
44.8159 74.2794 4
46.606 71.3666 0.00957344
47.2057 73.7222 2
49.554 73.0099 0
48.7848 4.32445 3.99044
50.9554 5.13403 2
51.8506 2.85458 4
53.0622 6.07424 0.012764
54.0858 3.86728 2
56.25 5.02411 0
61.4901 45.808 0.0243849
62.8904 42.496 0.0237827
60.8854 43.5911 0.024093
61.9213 40.6538 0.0234447
63.4924 39.2512 0.0233635
65.6138 37.5054 0.023487
63.557 37.4607 2
61.6282 39.33 2
60.6314 41.884 2
59.6282 44.6377 2
61.453 37.4475 3.97687
59.5699 39.8022 3.97675
58.2362 42.8031 3.97585
63.703 35.6557 0.0235871
62.4793 33.1085 0.0238903
60.0487 30.7344 0.0243629
57.8268 17.0792 0.0428083
57.4437 19.6246 0.0413709
56.9515 22.0346 0.0359905
59.025 28.0743 0.0244381
57.186 25.9427 0.0244404
56.6827 24.1631 0.0279038
55.4337 17.0849 0.0435117
53.66 17.1052 0.0412731
52.9344 15.3583 0.0399251
50.1092 7.29407 0.0198826
52.1472 12.885 0.034645
51.2221 10.1577 0.02917
61.6716 35.3936 2
59.6614 32.8367 2
57.9447 30.2362 2
56.465 18.2852 2
56.0469 20.7005 2
55.6256 23.102 2
56.6542 27.5996 2
55.7128 25.353 2
48.0563 6.5339 2
49.3196 9.35099 2
54.278 18.0693 2
52.2696 17.1789 2
51.327 14.6034 2
50.416 12.0606 2
59.2006 35.1665 3.97654
57.2029 32.3972 3.97541
55.7831 29.5508 3.97562
54.7443 26.8814 3.97504
55.1293 19.3486 3.96188
54.393 24.3167 3.97238
54.6069 21.7829 3.96082
45.9619 5.88743 3.98669
43.3739 7.48264 3.98212
47.3526 8.63617 3.9787
48.5864 11.3354 3.9715
49.6729 13.8161 3.96797
50.5569 16.2588 3.96128
52.9662 18.8455 3.96547
51.199 18.2554 3.95842
51.1607 65.1094 0.0245226
52.0222 62.4858 0.0291167
57.6402 46.6639 0.0243681
52.781 60.0441 0.032157
55.3757 58.1676 0.0394156
53.5606 58.3876 0.0380866
57.0908 51.6218 0.0287444
55.6155 49.3486 0.0266542
55.2314 55.664 0.038058
54.9105 53.2093 0.0379115
50.3298 63.3539 2
51.1965 60.8572 2
54.0767 57.1693 2
52.1889 58.5334 2
55.8432 44.0004 2
54.7457 47.6652 2
54.4711 51.181 2
53.6818 54.3937 2
49.56 61.7122 3.97437
54.5476 41.6038 3.97378
50.4799 59.241 3.96589
51.9727 56.3677 3.96327
53.2263 45.2978 3.97399
52.5851 49.0847 3.96999
52.1912 52.6648 3.9591
48.6082 64.0967 0.0216525
47.9426 62.4411 2
47.2976 60.9716 3.99316
43.6302 67.4577 0.0191897
45.1282 65.1762 0.021601
46.3701 63.0142 0.0181498
41.6637 67.6754 2
43.3581 65.4895 2
45.9675 61.5463 2
44.7597 63.4139 2
45.7328 60.5879 3.99335
44.4697 61.7877 3.97858
43.1422 63.6941 3.97854
41.5464 65.6275 3.97509
39.6327 67.7536 3.97912
37.526 70.0418 3.98359
39.7022 70.0176 2
39.8162 72.4022 3.99136
41.8591 69.8712 0.0152821
42.1097 72.2056 2
42.3947 74.6792 4
44.3737 71.8612 0.0092303
44.8159 74.2794 2
47.2057 73.7222 0
43.8514 5.3638 3.98609
46.571 3.64905 3.99116
48.7857 4.32488 2
49.554 1.99015 4
50.9534 5.13419 0.0103859
51.8506 2.85453 2
54.0858 3.86728 0
59.6271 44.6376 0.0243005
60.6291 41.8839 0.0232753
61.6267 39.3302 0.0231501
63.5569 37.4607 0.0234838
61.4538 37.4476 2
59.5726 39.8013 2
58.2384 42.804 2
59.0574 37.567 3.9774
57.1523 40.578 3.97738
53.9471 39.6275 3.97546
61.6699 35.3933 0.0234156
59.6608 32.8375 0.0240367
57.9436 30.237 0.0245202
56.4651 18.2858 0.0415059
56.0235 20.7058 0.0407727
55.6169 23.0991 0.0353348
56.6527 27.5982 0.0240809
55.7044 25.3493 0.0250637
54.2701 18.0656 0.0398312
52.2803 17.1782 0.0447972
51.3282 14.6016 0.0372849
48.0553 6.53354 0.0153651
49.3184 9.35198 0.02491
50.4137 12.0606 0.0307742
59.2025 35.1666 2
45.9627 5.88661 2
43.3743 7.48087 2
57.203 32.3975 2
55.7821 29.5496 2
55.1177 19.3535 2
54.6434 21.7803 2
54.395 24.323 2
54.7464 26.8811 2
47.3532 8.63524 2
48.5881 11.3313 2
52.9633 18.8097 2
51.1949 18.2491 2
50.5602 16.2618 2
49.6726 13.8216 2
56.5142 34.8312 3.97699
54.823 31.6981 3.97517
53.6873 28.6669 3.9766
53.1237 25.7987 3.97413
53.7174 20.3314 3.96361
53.1376 22.9741 3.96232
41.4001 7.08543 3.98271
45.3592 8.00199 3.98652
42.8663 9.4314 3.97248
46.6604 10.6778 3.97756
47.7117 13.1482 3.97033
48.8668 15.4863 3.96749
49.9018 17.8271 3.95857
51.4825 19.5431 3.9839
50.3309 63.3543 0.0248298
51.1974 60.8569 0.0272075
55.8411 43.999 0.0240271
54.7463 47.6661 0.0245505
52.1958 58.532 0.0355987
54.0785 57.1682 0.0342823
54.4749 51.1822 0.034733
53.6874 54.3929 0.0356788
49.5597 61.7099 2
54.5452 41.6009 2
50.4766 59.2452 2
51.9787 56.3724 2
53.2215 45.2945 2
52.5826 49.0827 2
52.1945 52.6652 2
48.79 60.161 3.98644
51.2641 42.472 3.98343
49.6451 57.5341 3.96402
50.2648 54.2821 3.96079
50.8942 46.9896 3.97597
50.6111 50.7312 3.95371
46.9771 43.4783 3.96878
47.9426 62.4433 0.0155234
47.2983 60.9711 2
46.5707 59.7581 3.99326
41.6629 67.676 0.0198148
43.3559 65.489 0.0218283
44.7596 63.4157 0.0235106
45.9674 61.5421 0.00828675
39.6337 67.7541 2
41.5479 65.625 2
45.7327 60.592 2
43.1413 63.6923 2
44.4682 61.7894 2
44.5898 60.2422 3.9939
42.9394 62.0446 3.97567
41.5979 63.7952 3.97793
39.6471 65.5924 3.97463
37.5639 67.7347 3.97753
31.6989 65.1104 3.97357
33.3939 67.4735 3.97793
35.3344 69.9528 3.98401
37.526 70.0437 2
37.5092 72.4563 3.99187
39.7015 70.0175 0.0159251
39.817 72.4022 2
39.9526 74.9197 4
42.1086 72.2053 0.00884979
42.3947 74.6792 2
44.8159 74.2794 0
41.7363 4.9715 3.98761
43.8518 5.36237 2
44.3267 3.1119 3.99199
46.5718 3.64892 2
47.2057 1.27793 4
48.7848 4.32445 0.00955727
49.554 1.99013 2
51.8506 2.85458 0
58.2362 42.8031 0.0241478
59.5699 39.8022 0.0232505
61.453 37.4475 0.0231296
59.0584 37.567 2
57.1573 40.5794 2
53.945 39.6357 2
55.8687 37.8732 3.97709
48.2877 41.1858 3.96835
51.8426 39.2503 3.9799
39.4436 6.80882 3.98245
59.2006 35.1665 0.0234555
57.2029 32.3972 0.0245871
55.7831 29.5508 0.0243846
55.1293 19.3486 0.0381186
54.6069 21.7829 0.0391759
54.393 24.3167 0.0276172
54.7443 26.8814 0.0249602
52.9662 18.8455 0.0345264
51.199 18.2554 0.0415807
50.5569 16.2588 0.0387186
45.9619 5.88743 0.0133112
49.6729 13.8161 0.0320326
47.3526 8.63617 0.0212978
48.5864 11.3354 0.028497
43.3739 7.48264 0.0178784
56.5177 34.8285 2
41.4005 7.08582 2
45.3595 8.00098 2
42.8661 9.43062 2
54.8249 31.6987 2
53.6856 28.6704 2
53.7188 20.3385 2
53.1203 22.9794 2
53.1233 25.7976 2
46.6611 10.6728 2
47.7137 13.1465 2
51.4891 19.5398 2
49.8981 17.8312 2
48.8655 15.51 2
53.766 34.04 3.97498
52.5033 30.7665 3.97501
51.8032 27.5328 3.97473
51.6302 24.4242 3.97559
52.1039 21.2965 3.98079
41.0132 9.05952 3.97628
44.7273 10.0041 3.9863
42.4545 10.9171 4.00705
45.9737 12.7503 3.96542
47.6307 14.6709 3.96634
48.0119 17.0752 3.9651
49.703 19.9384 3.98466
49.56 61.7122 0.0256268
50.4799 59.241 0.0341109
54.5476 41.6038 0.0262194
53.2263 45.2978 0.0260116
52.5851 49.0847 0.0300109
51.9727 56.3677 0.0367341
52.1912 52.6648 0.0408971
48.7879 60.1574 2
51.2765 42.4902 2
49.6434 57.5326 2
50.2674 54.2857 2
50.8964 46.99 2
50.6161 50.7311 2
46.9865 43.5174 2
47.8976 58.6676 3.99047
48.975 45.0251 3.9819
48.3825 55.8107 3.95537
48.7026 52.4266 3.97769
48.9516 48.8009 3.96975
44.684 39.7383 3.83609
45.2076 42.4088 3.87991
45.5113 45.4565 3.98291
42.5445 40.9692 3.62812
41.4095 41.6635 3.42599
47.2976 60.9716 0.00684471
46.5681 59.7605 2
45.4068 58.7521 3.99552
39.6327 67.7536 0.0208827
41.5464 65.6275 0.0249056
43.1422 63.6941 0.0214605
44.4697 61.7877 0.0214179
45.7328 60.5879 0.00665343
41.5984 63.7912 2
37.5645 67.7372 2
39.6493 65.5929 2
44.5913 60.2444 2
42.9373 62.0462 2
41.7441 62.4516 3.97711
42.4536 59.9397 3.98588
39.8936 63.5283 3.97688
37.6419 65.4886 3.97399
35.4644 67.6448 3.97753
33.5768 65.3212 3.97419
31.9623 63.2649 3.97772
29.8875 64.6984 3.97905
31.6983 65.1099 2
31.3794 67.184 3.97828
33.3931 67.4751 2
33.1582 69.7464 3.98399
35.3337 69.9544 2
35.1963 72.3712 3.992
37.526 70.0418 0.0164117
37.5096 72.4569 2
37.5 75 4
39.8162 72.4022 0.00864265
39.9526 74.9197 2
42.3947 74.6792 0
39.6246 4.71903 3.98859
41.7365 4.9714 2
42.0634 2.71886 3.99246
43.8514 5.3638 0.0139083
44.3271 3.11121 2
44.8158 0.721173 4
46.571 3.64905 0.00884252
47.2057 1.27779 2
49.554 1.99015 0
57.1523 40.578 0.0226188
59.0574 37.567 0.0225977
53.9471 39.6275 0.0245362
48.3115 41.1995 2
55.8736 37.8725 2
51.8373 39.2242 2
52.6971 36.6162 3.97704
46.2182 40.2652 3.889
49.2158 38.4933 3.97955
37.5176 6.6774 3.9849
39.4445 6.80793 2
39.2112 8.70275 3.98033
35.9437 8.49912 3.98232
56.5142 34.8312 0.0230129
54.823 31.6981 0.0248262
53.6873 28.6669 0.023401
53.7174 20.3314 0.0363932
53.1376 22.9741 0.0376782
53.1237 25.7987 0.0258701
51.4825 19.5431 0.0160982
49.9018 17.8271 0.0414315
48.8668 15.4863 0.0325058
45.3592 8.00199 0.013479
47.7117 13.1482 0.0296693
46.6604 10.6778 0.0224373
41.4001 7.08543 0.0172905
42.8663 9.4314 0.0275247
53.7612 34.0302 2
41.014 9.06183 2
44.7257 10.003 2
42.4566 10.9206 2
52.4936 30.7644 2
51.8163 27.5327 2
52.1052 21.302 2
51.6114 24.4255 2
45.9765 12.7458 2
47.6241 14.6431 2
49.7189 19.9567 2
48.0078 17.0806 2
51.2367 32.9861 3.9803
50.3352 29.4974 3.97613
50.114 26.0226 3.97051
49.6661 22.5468 3.98321
40.5587 11.6205 3.98535
43.8282 11.9151 3.9691
45.7512 15.5345 3.99072
47.4083 19.5621 3.98174
45.125 37.486 3.83779
48.79 60.161 0.0135614
49.6451 57.5341 0.0359833
51.2641 42.472 0.0165709
50.8942 46.9896 0.0240295
50.6111 50.7312 0.0462936
50.2648 54.2821 0.0392121
46.9771 43.4783 0.0312201
47.893 58.6724 2
48.9904 45.0374 2
48.3791 55.8125 2
48.7052 52.4323 2
48.9567 48.8039 2
44.7996 39.7654 2
45.2377 42.4289 2
45.5211 45.4771 2
42.6096 41.0268 2
41.4519 41.6888 2
46.7109 57.2712 3.98324
43.231 39.3487 3.62171
41.7939 40.6276 3.41823
47.1964 47.0421 3.98337
46.8832 54.1062 3.95909
47.0611 50.5635 3.97725
44.1074 47.0865 3.98761
43.8629 41.7588 3.83658
44.0204 44.1956 3.8693
41.6735 42.3154 3.67907
40.4857 41.9482 3.37833
46.5707 59.7581 0.00673855
45.4056 58.7514 2
43.8141 57.6232 3.98271
37.5639 67.7347 0.0224749
39.6471 65.5924 0.0253726
41.5979 63.7952 0.0220737
42.9394 62.0446 0.0243256
44.5898 60.2422 0.00610023
35.4642 67.6473 2
41.7418 62.455 2
39.8928 63.5291 2
37.6432 65.4919 2
42.4559 59.9399 2
40.6142 61.5922 3.98483
40.4178 58.1113 3.98574
37.8372 63.1848 3.97245
35.5731 65.4122 3.97621
33.5766 65.3212 2
31.9647 63.2675 2
33.6305 63.3126 3.97709
30.3829 62.8287 3.98171
32.1337 61.9679 3.98812
26.8894 61.4362 3.98504
28.0702 64.1269 3.98153
29.8874 64.6979 2
29.4096 66.7475 3.97762
31.6989 65.1104 0.0264327
31.3785 67.1842 2
31.0162 69.4118 3.98356
33.3939 67.4735 0.0220683
33.1571 69.7477 2
32.8945 72.1456 3.99135
35.3344 69.9528 0.0159894
35.1958 72.372 2
35.0474 74.9194 4
37.5092 72.4563 0.00813149
37.5 75 2
39.9526 74.9197 0
35.622 6.72927 3.98343
37.5246 4.61794 3.98923
39.6247 4.71804 2
39.79 2.47541 3.99267
41.7363 4.9715 0.0123891
42.0632 2.71871 2
42.3946 0.32156 4
44.3267 3.1119 0.00801082
44.8159 0.72056 2
47.2057 1.27793 0
48.2877 41.1858 0.0316515
55.8687 37.8732 0.0229084
51.8426 39.2503 0.020096
46.2408 40.2721 2
49.2158 38.4809 2
52.7262 36.6366 2
50.0275 35.5506 3.9759
46.8614 37.7373 3.88703
44.7132 35.2174 3.83696
42.5947 33.9728 3.6278
41.4485 33.2762 3.42497
37.4591 8.53766 3.98401
37.5184 6.67753 2
39.4436 6.80882 0.0175539
39.2128 8.70178 2
38.9737 10.1392 3.98848
35.8994 9.78224 3.98041
34.1537 8.83153 3.98012
35.9449 8.49772 2
53.766 34.04 0.0250228
52.5033 30.7665 0.0249926
51.8032 27.5328 0.0252651
52.1039 21.2965 0.0192091
51.6302 24.4242 0.0244133
49.703 19.9384 0.0153355
48.0119 17.0752 0.0349035
47.6307 14.6709 0.0336638
44.7273 10.0041 0.0136996
45.9737 12.7503 0.0345798
41.0132 9.05952 0.0237234
42.4545 10.9171 -0.00704996
51.2491 32.976 2
40.5638 11.6271 2
43.8293 11.9095 2
50.3477 29.4996 2
50.113 26.0348 2
49.6488 22.5096 2
45.7357 15.4662 2
47.4183 19.5986 2
48.8304 31.5764 3.98369
48.4624 27.7941 3.97443
48.8992 24.6575 3.98049
47.0111 22.3443 3.99247
38.2974 12.7602 3.97808
42.0747 14.3548 3.98343
44.7282 18.6583 3.97584
43.6314 37.4789 3.63746
45.2265 37.4818 2
47.8976 58.6676 0.00953205
48.3825 55.8107 0.0446278
48.975 45.0251 0.0181008
48.9516 48.8009 0.0302524
48.7026 52.4266 0.0223095
44.684 39.7383 0.163909
45.2076 42.4088 0.120093
45.5113 45.4565 0.0170876
42.5445 40.9692 0.371884
41.4095 41.6635 0.574006
46.7079 57.2771 2
43.3137 39.3728 2
41.8083 40.64 2
47.2045 47.0436 2
46.878 54.1103 2
47.0633 50.5753 2
44.1472 47.0913 2
43.9332 41.802 2
44.0774 44.2269 2
41.7237 42.3894 2
40.5258 41.9681 2
45.2344 55.8378 4.00109
42.1333 39.1494 3.42851
40.3719 40.5208 3.51892
45.4572 48.6873 4.00201
45.1454 52.3585 3.98796
42.8945 48.0718 3.99092
42.7594 45.7126 3.86927
42.8403 43.5185 3.82496
40.6609 43.2661 3.64478
39.1501 42.2116 3.44727
45.4068 58.7521 0.00448428
43.8111 57.6349 2
42.0344 56.1912 3.99093
35.4644 67.6448 0.0224686
37.6419 65.4886 0.0260073
39.8936 63.5283 0.0231202
41.7441 62.4516 0.022889
42.4536 59.9397 0.0141239
35.5742 65.4161 2
40.6134 61.5906 2
37.8377 63.1831 2
40.4169 58.1181 2
38.8991 56.327 3.99498
38.2432 60.2741 3.98403
35.6075 63.1794 3.97212
33.5768 65.3212 0.0258112
31.9623 63.2649 0.0222752
33.6332 63.3151 2
30.3846 62.8314 2
32.1362 61.9701 2
28.6909 62.1684 3.98034
33.3522 61.4749 3.98149
31.0865 61.1973 3.99106
27.6128 59.533 3.97797
23.8515 59.0005 3.98847
25.064 60.801 3.97768
26.8904 61.4388 2
26.2412 63.4571 3.97404
28.0695 64.1247 2
27.4671 66.1672 3.97651
29.8875 64.6984 0.0209503
29.4084 66.7448 2
28.9088 68.9373 3.98238
31.3794 67.184 0.0217195
31.0148 69.4116 2
30.6176 71.7772 3.99054
33.1582 69.7464 0.0160111
32.8933 72.1461 2
32.6054 74.6784 4
35.1963 72.3712 0.00799737
35.0474 74.9197 2
37.5 75 0
33.7251 6.98566 3.98203
35.4367 4.68797 3.9886
35.6229 6.72862 2
37.5158 2.38785 3.99283
37.5246 4.61756 2
39.6246 4.71903 0.0114076
39.7896 2.47488 2
39.9526 0.0806499 4
42.0634 2.71886 0.00753771
42.3947 0.320817 2
44.8158 0.721173 0
43.2569 35.6031 3.62815
41.8229 34.3071 3.40207
46.2182 40.2652 0.111
49.2158 38.4933 0.0204472
52.6971 36.6162 0.022959
46.8595 37.7206 2
50.0409 35.5543 2
44.8091 35.1989 2
42.6483 33.9132 2
41.4766 33.2515 2
47.0928 34.3972 3.93559
43.9184 33.1903 3.83084
41.7295 32.6278 3.67593
40.5131 33.0019 3.37763
37.3105 10.6351 3.98129
37.4607 8.53882 2
37.5176 6.6774 0.0150981
39.2112 8.70275 0.0196746
38.9786 10.1391 2
34.7568 10.3933 3.97776
35.9035 9.7785 2
32.3813 9.37924 3.97564
34.1534 8.82791 2
35.9437 8.49912 0.0176753
51.2367 32.9861 0.0197036
50.3352 29.4974 0.0238676
50.114 26.0226 0.0294875
49.6661 22.5468 0.0167901
47.4083 19.5621 0.0182645
45.7512 15.5345 0.00928137
43.8282 11.9151 0.030896
40.5587 11.6205 0.0146477
48.8475 31.5582 2
38.3005 12.7564 2
42.0818 14.3682 2
48.4588 27.7934 2
48.8963 24.6622 2
47 22.3454 2
44.7405 18.7299 2
46.7821 29.7995 3.98173
46.5844 25.3699 3.97716
44.1788 21.6701 3.98348
36.587 12.9759 3.97574
38.6733 14.8805 3.97707
41.7039 17.9867 3.97901
42.3072 37.4549 3.46222
43.702 37.4803 2
45.125 37.486 0.162208
46.7109 57.2712 0.0167554
46.8832 54.1062 0.0409091
47.1964 47.0421 0.0166263
47.0611 50.5635 0.0227522
43.231 39.3487 0.37829
43.8629 41.7588 0.163416
44.0204 44.1956 0.130703
44.1074 47.0865 0.0123883
41.6735 42.3154 0.32093
41.7939 40.6276 0.581774
40.4857 41.9482 0.621673
45.2309 55.8421 2
42.1446 39.1575 2
40.4278 40.5104 2
45.4587 48.7091 2
45.1405 52.3612 2
42.9307 48.0903 2
42.8248 45.7733 2
42.881 43.5521 2
40.7152 43.344 2
39.139 42.2361 2
43.5528 54.2848 4.00078
40.4613 38.9937 3.54499
39.046 40.6046 3.4916
43.2122 50.168 4.00311
41.5554 47.2088 3.9198
41.4661 44.8063 3.82927
39.3606 43.9166 3.61601
37.5097 42.3463 3.50095
43.8141 57.6232 0.0172945
42.0416 56.1789 2
40.3453 54.7484 3.99438
35.5731 65.4122 0.0237901
37.8372 63.1848 0.0275478
40.6142 61.5922 0.0151652
40.4178 58.1113 0.0142621
35.6094 63.1756 2
38.2399 60.2726 2
38.9019 56.3085 2
37.9731 55.0068 3.99513
36.922 57.5291 3.99229
35.3657 60.8744 3.98339
33.6305 63.3126 0.0229055
30.3829 62.8287 0.0182897
32.1337 61.9679 0.0118823
33.3542 61.4745 2
28.692 62.1733 2
31.0889 61.2022 2
29.4354 60.2573 3.98046
32.3701 59.6701 3.99571
28.0911 58.3227 4.0172
27.6136 59.532 2
25.4413 58.5237 3.97796
22.8459 58.1555 3.97044
23.4367 60.2672 3.97549
23.8529 59.001 2
25.0655 60.8012 2
24.449 62.7302 3.97594
26.8894 61.4362 0.0149615
26.2413 63.4551 2
25.5522 65.477 3.97601
28.0702 64.1269 0.0184738
27.4666 66.1682 2
26.839 68.3232 3.98118
29.4096 66.7475 0.0223812
28.9077 68.9358 2
28.3729 71.2627 3.98965
31.0162 69.4118 0.0164412
30.616 71.7768 2
30.1842 74.2788 4
32.8945 72.1456 0.00864789
32.6053 74.6792 2
35.0474 74.9194 0
31.7896 7.42586 3.97996
33.3493 4.92786 3.98742
33.7252 6.98362 2
35.2463 2.46365 3.9929
35.4366 4.68771 2
35.622 6.72927 0.0165716
37.5 0 4
37.5151 2.38761 2
37.5246 4.61794 0.0107691
39.79 2.47541 0.00732976
39.9526 0.0802889 2
42.3946 0.32156 0
42.1288 35.758 3.40162
43.3487 35.5776 2
40.424 34.4102 3.52197
41.8271 34.2897 2
46.8614 37.7373 0.112968
50.0275 35.5506 0.0241017
44.7132 35.2174 0.163041
42.5947 33.9728 0.372205
41.4485 33.2762 0.575033
47.1255 34.4073 2
43.9751 33.1428 2
41.7805 32.5558 2
40.5482 32.9826 2
45.2385 31.8387 3.89134
42.899 31.4279 3.81678
40.7084 31.6797 3.64594
39.1623 32.7565 3.44371
35.6975 11.7922 3.97488
37.317 10.6363 2
37.4591 8.53766 0.0159898
38.9737 10.1392 0.0115196
33.1028 11.2335 3.97215
34.7581 10.3858 2
35.8994 9.78224 0.0195938
30.4874 10.0314 3.97617
32.3807 9.37811 2
34.1537 8.83153 0.0198769
48.8304 31.5764 0.0163071
48.4624 27.7941 0.025568
48.8992 24.6575 0.0195111
47.0111 22.3443 0.00753353
44.7282 18.6583 0.024159
42.0747 14.3548 0.0165726
38.2974 12.7602 0.0219241
36.5845 12.9552 2
46.774 29.7415 2
38.673 14.8635 2
41.7001 17.9884 2
46.5865 25.3554 2
44.1578 21.6468 2
44.8021 27.9391 3.99313
43.4802 24.3069 4.02269
41.26 21.0121 3.99423
35.7705 14.8169 3.98211
38.648 17.7179 3.98589
40.5168 37.4279 3.56662
42.3242 37.46 2
43.6314 37.4789 0.362536
45.2344 55.8378 -0.00108895
45.1454 52.3585 0.0120377
45.4572 48.6873 -0.0020051
42.1333 39.1494 0.571492
42.8403 43.5185 0.175044
42.7594 45.7126 0.130733
42.8945 48.0718 0.00908154
40.6609 43.2661 0.35522
40.3719 40.5208 0.481079
39.1501 42.2116 0.552735
43.5488 54.2786 2
40.4863 38.9957 2
39.0389 40.605 2
43.2037 50.1866 2
41.55 47.2382 2
41.4959 44.8505 2
37.5047 42.3701 2
39.3789 43.9932 2
41.7052 52.7354 4.00018
39.0556 39.0462 3.48994
37.5084 40.6541 3.53967
35.8721 42.2217 3.44327
40.7246 49.3043 3.99224
39.662 45.4998 3.79157
37.5037 44.1925 3.66014
42.0344 56.1912 0.009072
40.3473 54.7564 2
38.7091 53.5149 3.99682
35.6075 63.1794 0.0278841
38.2432 60.2741 0.0159691
38.8991 56.327 0.00501663
35.3644 60.8594 2
36.9235 57.5392 2
37.968 54.9999 2
36.3111 55.0979 3.99828
34.4947 58.4547 3.99429
33.3522 61.4749 0.0185051
28.6909 62.1684 0.0196573
31.0865 61.1973 0.00893765
32.3685 59.6739 2
29.4368 60.2585 2
30.3547 57.7593 3.99096
28.093 58.3207 2
27.0755 56.7625 3.96937
27.6128 59.533 0.0220306
25.4429 58.5237 2
23.9929 56.7071 3.96003
21.4885 57.2893 3.95764
22.0403 59.5436 3.97771
22.8474 58.1568 2
22.7581 61.9614 3.97272
23.438 60.2676 2
23.8515 59.0005 0.011527
25.064 60.801 0.0223217
24.4495 62.7304 2
23.6888 64.6894 3.97328
26.2412 63.4571 0.0259585
25.5524 65.4785 2
24.8113 67.5848 3.98017
27.4671 66.1672 0.0234879
26.8375 68.3252 2
26.1684 70.6028 3.98887
28.9088 68.9373 0.0176164
28.3713 71.2618 2
27.7943 73.7221 4
30.6176 71.7772 0.0094607
30.1841 74.2794 2
32.6054 74.6784 0
29.8126 8.00273 3.97797
31.2547 5.33498 3.98616
31.7893 7.42451 2
32.9824 2.70188 3.99236
33.3487 4.9268 2
33.7251 6.98566 0.0179687
35.0474 0.080333 4
35.2454 2.46365 2
35.4367 4.68797 0.0114008
37.5 0 2
37.5158 2.38785 0.00716593
39.9526 0.0806499 0
40.5389 35.8988 3.55842
42.1469 35.7571 2
43.2569 35.6031 0.371851
28.548 10.7058 3.97667
39.0579 34.3653 3.48474
40.4378 34.4116 2
41.8229 34.3071 0.597932
47.0928 34.3972 0.0644136
43.9184 33.1903 0.169155
41.7295 32.6278 0.324065
40.5131 33.0019 0.622373
45.269 31.823 2
42.9421 31.3894 2
40.7584 31.6017 2
39.1594 32.7276 2
43.6716 30.0929 3.87714
41.4944 30.1317 3.82923
39.3824 31.0387 3.61706
37.5306 32.633 3.49866
34.1024 12.9573 3.97509
35.6987 11.7803 2
37.3105 10.6351 0.0187131
31.1933 12.0043 3.97731
33.1049 11.2313 2
34.7568 10.3933 0.0222397
30.4849 10.0265 2
32.3813 9.37924 0.0243577
46.7821 29.7995 0.0182657
46.5844 25.3699 0.0228374
36.587 12.9759 0.0242626
44.1788 21.6701 0.0165172
41.7039 17.9867 0.0209905
38.6733 14.8805 0.0229308
35.7734 14.8205 2
44.7985 27.9432 2
38.6511 17.7144 2
41.2446 20.9921 2
43.4702 24.2855 2
33.6214 15.916 3.99076
42.6186 26.7645 3.97753
40.767 23.6371 3.99396
38.3728 20.5088 3.99332
35.8431 17.5937 3.98677
39.0771 37.4839 3.4942
40.5315 37.4346 2
42.3072 37.4549 0.537778
43.5528 54.2848 -0.000784023
43.2122 50.168 -0.00311038
40.4613 38.9937 0.455009
41.4661 44.8063 0.170734
41.5554 47.2088 0.0802027
39.3606 43.9166 0.383985
39.046 40.6046 0.508402
37.5097 42.3463 0.499051
41.6907 52.7314 2
39.0434 39.0358 2
37.5017 40.6504 2
40.7062 49.3128 2
35.8793 42.2449 2
39.6857 45.5669 2
37.5011 44.2728 2
39.7004 51.5081 4.00074
37.5132 39.0446 3.53719
35.9822 40.6216 3.49247
34.5304 41.9692 3.37975
35.6494 43.9345 3.61331
38.6363 48.1594 3.9279
37.5283 45.7967 3.82635
40.3453 54.7484 0.00562346
38.7071 53.5271 2
36.7767 52.8626 3.99701
35.3657 60.8744 0.0166057
36.922 57.5291 0.00770897
37.9731 55.0068 0.00486695
34.493 58.4629 2
36.3134 55.0882 2
33.2862 55.2946 3.99322
32.3701 59.6701 0.00428587
29.4354 60.2573 0.0195396
30.356 57.7556 2
28.8806 55.2685 3.99278
28.0911 58.3227 -0.0171988
27.0777 56.7605 2
25.5472 55.036 3.95431
22.0771 55.2089 3.96057
25.4413 58.5237 0.0220398
23.995 56.7084 2
20.37 56.9189 3.9624
20.7116 58.6943 3.96217
21.4907 57.2911 2
21.1947 61.0938 3.97257
22.0412 59.5442 2
22.8459 58.1555 0.0295642
21.9062 63.8015 3.9731
22.7591 61.9628 2
23.4367 60.2672 0.024514
24.449 62.7302 0.0240557
23.6889 64.6914 2
22.8399 66.7271 3.97717
25.5522 65.477 0.0239934
24.8099 67.5851 2
24.0128 69.8047 3.98862
26.839 68.3232 0.0188223
26.166 70.603 2
25.446 73.0099 4
28.3729 71.2627 0.0103508
27.7943 73.7222 2
30.1842 74.2788 0
27.8225 8.66272 3.97871
29.1569 5.88222 3.98392
29.8111 7.99903 2
30.728 3.0988 3.99193
31.2538 5.33367 2
31.7896 7.42586 0.0200361
32.6053 0.320823 4
32.9811 2.70162 2
33.3493 4.92786 0.0125769
35.0474 0.0802903 2
35.2463 2.46365 0.0071035
37.5 0 0
39.0178 35.927 3.50261
40.5198 35.8958 2
42.1288 35.758 0.598383
28.5454 10.7026 2
26.6285 11.4052 3.97626
29.2344 12.6549 3.98095
37.533 34.3298 3.5399
39.0816 34.3794 2
40.424 34.4102 0.478033
45.2385 31.8387 0.108662
42.899 31.4279 0.183216
40.7084 31.6797 0.354061
39.1623 32.7565 0.556294
43.6986 30.0638 2
41.5312 30.0897 2
39.3956 30.9627 2
37.5354 32.6046 2
41.9106 28.8053 3.85876
39.6649 29.4415 3.81215
37.5261 30.7795 3.66287
35.8871 32.7602 3.44992
31.9345 14.5013 3.9825
34.1032 12.9623 2
35.6975 11.7922 0.0251169
31.1931 11.9953 2
33.1028 11.2335 0.0278536
30.4874 10.0314 0.0238339
44.8021 27.9391 0.00686991
43.4802 24.3069 -0.0226928
35.7705 14.8169 0.0178941
41.26 21.0121 0.00576962
38.648 17.7179 0.0141131
33.6118 15.9005 2
35.8378 17.5776 2
42.6867 26.7377 2
38.3603 20.5513 2
40.7552 23.6299 2
33.557 17.4603 3.98808
40.2093 26.1165 3.96587
38.0216 23.3789 3.99694
35.5372 20.2897 3.99646
37.5242 37.4794 3.55369
39.0553 37.474 2
40.5168 37.4279 0.433383
41.7052 52.7354 -0.000184563
40.7246 49.3043 0.00776276
39.0556 39.0462 0.510061
39.662 45.4998 0.208427
37.5037 44.1925 0.339857
37.5084 40.6541 0.460334
35.8721 42.2217 0.556727
39.6832 51.5038 2
37.512 39.0443 2
35.9765 40.6072 2
38.6559 48.2222 2
34.497 41.9887 2
35.635 44.0039 2
37.5141 45.8553 2
37.6831 50.4778 3.99125
36.0074 39.0575 3.50376
34.6399 40.551 3.52474
33.5988 41.6891 3.42855
34.3676 43.2863 3.6371
35.303 45.5406 3.81561
36.919 47.7741 3.88995
38.7091 53.5149 0.00317835
36.7729 52.8153 2
34.4907 52.1779 4.00093
34.4947 58.4547 0.0057138
36.3111 55.0979 0.00172284
33.2878 55.3008 2
30.7295 53.2251 3.99953
30.3547 57.7593 0.0090376
28.8817 55.2642 2
27.2015 53.3111 3.95617
27.0755 56.7625 0.0306337
25.5496 55.0371 2
23.9487 53.3126 3.95386
20.9283 53.0375 3.95857
20.1781 55.6987 3.9611
22.0764 55.2107 2
23.9929 56.7071 0.0399686
19.5402 57.7946 3.96111
20.3665 56.9217 2
19.7351 60.1276 3.97174
20.7075 58.6975 2
21.4885 57.2893 0.0423635
20.2234 62.801 3.97187
21.1962 61.0957 2
22.0403 59.5436 0.0222933
20.9421 65.7526 3.97418
21.9065 63.8058 2
22.7581 61.9614 0.027281
23.6888 64.6894 0.0267204
22.8388 66.7265 2
21.9154 68.872 3.98764
24.8113 67.5848 0.0198277
24.0097 69.8034 2
23.1494 72.1454 4
26.1684 70.6028 0.0111269
25.446 73.0099 2
27.7943 73.7221 0
25.8624 9.39307 3.97678
27.0717 6.54686 3.98239
27.82 8.66047 2
28.4905 3.64477 3.99088
29.1554 5.88028 2
29.8126 8.00273 0.0220344
30.1841 0.720592 4
30.726 3.09863 2
31.2547 5.33498 0.0138422
32.6053 0.320817 2
32.9824 2.70188 0.0076379
35.0474 0.080333 0
37.5185 35.9201 3.5293
38.999 35.9092 2
40.5389 35.8988 0.441575
24.7874 12.0869 3.97552
23.7752 14.4267 3.97958
28.548 10.7058 0.0233337
26.6243 11.4003 2
29.2338 12.6526 2
27.3019 13.3948 3.97474
29.8023 14.2122 3.98623
35.9856 34.3655 3.49604
37.5433 34.3297 2
39.0579 34.3653 0.515261
37.5306 32.633 0.50134
43.6716 30.0929 0.122855
41.4944 30.1317 0.170773
39.3824 31.0387 0.382945
41.9475 28.7318 2
39.6891 29.3782 2
37.528 30.704 2
35.8962 32.737 2
39.8325 28.068 3.86226
37.4977 29.1691 3.81704
35.6777 31.0585 3.61914
34.5425 33.0182 3.38231
30.9575 16.8555 3.99778
31.9274 14.4885 2
34.1024 12.9573 0.0249062
31.1933 12.0043 0.0226864
42.6186 26.7645 0.0224654
40.767 23.6371 0.00603802
33.6214 15.916 0.00924081
35.8431 17.5937 0.0132294
38.3728 20.5088 0.00667954
33.5464 17.4685 2
35.5418 20.3047 2
40.2611 26.0806 2
38.0203 23.3607 2
32.9217 19.8959 3.99646
37.6906 25.7462 3.96224
35.3001 23.0392 4.00757
35.9821 37.4744 3.49761
37.5107 37.4786 2
39.0771 37.4839 0.505796
39.7004 51.5081 -0.000737741
38.6363 48.1594 0.0720993
37.5132 39.0446 0.462811
37.5283 45.7967 0.173646
35.6494 43.9345 0.386687
35.9822 40.6216 0.507528
34.5304 41.9692 0.62025
37.6603 50.519 2
36.0379 39.0445 2
34.5899 40.5551 2
36.9191 47.8371 2
33.557 41.7164 2
34.3081 43.3602 2
35.2822 45.5982 2
35.5701 49.6814 3.98254
34.5337 39.0463 3.55422
33.22 40.661 3.40801
33.3332 42.3381 3.68327
33.5881 44.8179 3.81756
34.5665 46.9367 3.8633
36.7767 52.8626 0.00298558
34.4729 52.1987 2
32.3027 51.004 3.99898
33.2862 55.2946 0.00678235
30.7338 53.2252 2
28.8202 51.3994 3.98089
28.8806 55.2685 0.0072165
27.2037 53.3103 2
25.5466 51.545 3.95331
25.5472 55.036 0.0456943
23.9514 53.3192 2
22.5083 51.5953 3.95398
19.8169 51.4207 3.96291
19.3017 54.1458 3.96173
20.9335 53.0353 2
18.6372 56.6082 3.96244
20.1767 55.7005 2
22.0771 55.2089 0.0394288
18.4137 59.0362 3.96125
19.5389 57.7967 2
20.37 56.9189 0.0376002
18.6372 61.6995 3.97225
19.7354 60.1312 2
20.7116 58.6943 0.0378263
19.1334 64.656 3.97301
20.224 62.805 2
21.1947 61.0938 0.0274337
19.8897 67.8075 3.98482
20.9412 65.7513 2
21.9062 63.8015 0.0269031
22.8399 66.7271 0.0228254
21.9118 68.8698 2
20.9142 71.1327 4
24.0128 69.8047 0.0113778
23.1494 72.1455 2
25.446 73.0099 0
23.1101 12.8389 3.97723
23.9751 10.1809 3.97476
25.0253 7.31828 3.98032
25.8587 9.39092 2
26.2824 4.32901 3.98984
27.0693 6.54606 2
27.8225 8.66272 0.021287
27.7943 1.27781 4
28.4876 3.645 2
29.1569 5.88222 0.0160771
30.1841 0.720551 2
30.728 3.0988 0.00806577
32.6053 0.320823 0
35.979 35.9096 3.49227
37.5478 35.9297 2
39.0178 35.927 0.497385
24.7815 12.1042 2
23.7749 14.4326 2
22.5145 15.1188 3.97719
25.374 13.9701 3.97246
24.0708 15.6841 3.99
26.6285 11.4052 0.0237423
29.2344 12.6549 0.0190467
27.3063 13.387 2
29.7944 14.212 2
28.3964 15.9772 3.9896
34.6604 34.4403 3.51819
35.9908 34.365 2
37.533 34.3298 0.460095
35.8871 32.7602 0.550077
37.5261 30.7795 0.33713
41.9106 28.8053 0.141244
39.6649 29.4415 0.187851
39.873 28.018 2
37.4975 29.1128 2
35.6611 30.979 2
34.5032 33.0006 2
37.6223 27.8014 3.86573
35.3665 29.4621 3.81136
34.3629 31.7006 3.64338
33.6111 33.2986 3.42638
30.2638 19.5055 3.97807
30.9439 16.8468 2
31.9345 14.5013 0.0175039
40.2093 26.1165 0.0341332
38.0216 23.3789 0.00305851
33.557 17.4603 0.0119155
35.5372 20.2897 0.0035408
32.9262 19.9183 2
35.2772 23.0229 2
37.7138 25.7298 2
32.5103 22.6409 3.99876
35.1735 25.6383 3.98532
34.5038 37.5044 3.57466
35.9793 37.4899 2
37.5242 37.4794 0.446313
37.6831 50.4778 0.00874914
36.919 47.7741 0.110052
36.0074 39.0575 0.49624
35.303 45.5406 0.18439
34.3676 43.2863 0.362902
34.6399 40.551 0.475257
33.5988 41.6891 0.571452
35.5549 49.6931 2
34.5198 39.0483 2
33.2075 40.6721 2
34.5168 47.002 2
33.2875 42.4123 2
33.5461 44.8644 2
33.4824 48.7999 3.97297
32.8963 39.1982 3.40725
32.4467 40.996 3.62884
32.1615 43.5411 3.82327
32.7969 45.935 3.86195
34.4907 52.1779 -0.000927255
32.3252 51.0043 2
30.387 49.5344 4.00385
30.7295 53.2251 0.000466659
28.8255 51.4053 2
27.0882 49.7642 3.9741
27.2015 53.3111 0.0438317
25.5493 51.5473 2
23.977 49.9485 3.96664
23.9487 53.3126 0.0461449
22.5141 51.5919 2
21.1605 50.0759 3.96563
18.5777 50.1308 3.97187
18.3428 52.6073 3.96519
19.8099 51.4208 2
17.7498 55.2003 3.96257
19.3017 54.1455 2
20.9283 53.0375 0.0414263
17.2563 57.7847 3.96091
18.6356 56.6094 2
20.1781 55.6987 0.0389
17.1503 60.4945 3.96403
18.4137 59.0376 2
19.5402 57.7946 0.0388872
17.4176 63.4291 3.96784
18.6385 61.702 2
19.7351 60.1276 0.0282569
17.9456 66.6155 3.9825
19.1326 64.6564 2
20.2234 62.801 0.0281299
18.75 69.9759 4
19.886 67.8043 2
20.9421 65.7526 0.0258248
21.9154 68.872 0.0123592
20.9142 71.1327 2
23.1494 72.1454 0
21.6078 13.6764 3.97148
22.1966 11.0546 3.97093
23.1086 12.8395 2
23.0422 8.18543 3.97678
23.9737 10.1857 2
24.1202 5.14383 3.98951
25.0218 7.31723 2
25.8624 9.39307 0.0232229
25.446 1.99014 4
26.2787 4.33007 2
27.0717 6.54686 0.017606
27.7943 1.27778 2
28.4905 3.64477 0.00911862
30.1841 0.720592 0
34.5772 35.9509 3.54511
35.9957 35.9239 2
37.5185 35.9201 0.470705
21.3526 15.9206 3.96742
24.7874 12.0869 0.0244761
23.7752 14.4267 0.0204159
25.3731 13.9452 2
22.5139 15.1097 2
24.0752 15.6912 2
23.3267 16.3268 3.96445
25.4287 16.1559 3.98782
27.3019 13.3948 0.0252588
29.8023 14.2122 0.0137692
28.3876 15.9976 2
27.5019 18.9381 3.9823
33.2299 34.3339 3.42144
34.6046 34.4506 2
35.9856 34.3655 0.503961
34.5425 33.0182 0.617693
35.6777 31.0585 0.380861
37.4977 29.1691 0.182961
39.8325 28.068 0.137742
37.594 27.7625 2
33.5755 33.2731 2
35.3598 29.3965 2
34.3161 31.6247 2
35.25 27.8893 3.87773
33.5719 30.1564 3.82194
33.3432 32.6455 3.68156
29.8285 22.1157 4.00813
30.2665 19.5136 2
30.9575 16.8555 0.00221825
37.6906 25.7462 0.0377605
35.3001 23.0392 -0.00757
32.9217 19.8959 0.00354259
32.5046 22.6192 2
35.1982 25.6298 2
32.1174 25.9271 4.00939
32.7166 37.4993 3.45842
34.5079 37.4968 2
35.9821 37.4744 0.502395
35.5701 49.6814 0.0174613
34.5665 46.9367 0.136699
34.5337 39.0463 0.445777
33.5881 44.8179 0.182438
33.3332 42.3381 0.316727
33.22 40.661 0.591988
33.4766 48.7935 2
32.9004 39.2075 2
32.3907 41.0515 2
32.7786 45.9898 2
32.1155 43.5762 2
31.7494 47.6337 3.98625
31.7813 39.3695 3.62849
31.1292 41.7865 3.832
31.263 44.5741 3.86982
32.3027 51.004 0.00102431
30.3908 49.5687 2
28.5907 47.9353 3.9733
28.8202 51.3994 0.0191097
27.0867 49.7666 2
25.4189 48.2016 3.9691
25.5466 51.545 0.0466914
23.9832 49.946 2
22.4669 48.5164 3.97176
22.5083 51.5953 0.0460162
21.1626 50.0743 2
19.7146 48.8671 3.97433
17.447 49.1496 3.97579
17.2734 51.2339 3.97074
18.5791 50.1292 2
16.7723 53.7216 3.96633
18.338 52.6077 2
19.8169 51.4207 0.0370865
16.1826 56.3717 3.96191
17.7495 55.2007 2
19.3017 54.1458 0.0382694
15.7835 59.1585 3.95991
17.2508 57.7869 2
18.6372 56.6082 0.0375569
15.7933 62.098 3.9706
17.1531 60.4958 2
18.4137 59.0362 0.0387541
16.0922 65.2956 3.97876
17.4166 63.433 2
18.6372 61.6995 0.0277544
16.6661 68.6801 4
17.9424 66.6114 2
19.1334 64.656 0.0269917
18.75 69.9759 2
19.8897 67.8075 0.0151832
20.9142 71.1327 0
20.245 14.6756 3.97091
21.6069 13.6813 2
20.5407 12.0517 3.97321
21.1453 9.15901 3.97517
22.1936 11.0589 2
23.1101 12.8389 0.0227681
22.0195 6.08227 3.98832
23.0395 8.1877 2
23.9751 10.1809 0.0252442
23.1494 2.85457 4
24.1155 5.14529 2
25.0253 7.31828 0.0196801
25.446 1.99012 2
26.2824 4.32901 0.0101586
27.7943 1.27781 0
32.8845 35.8089 3.42932
34.546 35.9506 2
35.979 35.9096 0.507728
21.3569 15.9136 2
20.3795 17.0492 3.96351
22.161 16.7219 3.96089
25.374 13.9701 0.0275399
22.5145 15.1188 0.0228144
24.0708 15.6841 0.00999572
25.431 16.1563 2
23.3324 16.3226 2
24.2877 18.6114 3.97613
27.2659 21.7342 3.9933
28.3964 15.9772 0.0104033
27.5008 18.9706 2
32.4788 33.9887 3.62392
33.219 34.3196 2
34.6604 34.4403 0.481812
33.6111 33.2986 0.573619
34.3629 31.7006 0.356619
35.3665 29.4621 0.188644
37.6223 27.8014 0.134267
35.2468 27.8439 2
33.274 32.5739 2
33.5343 30.111 2
33.033 28.5285 3.88543
32.1614 31.4409 3.81412
29.26 24.5965 4.01301
29.8058 22.1334 2
30.2638 19.5055 0.0219297
35.1735 25.6383 0.0146779
32.5103 22.6409 0.0012366
32.1051 25.8987 2
30.3132 27.5981 3.97638
31.397 37.4862 3.63378
32.7156 37.4992 2
34.5038 37.5044 0.425343
33.4824 48.7999 0.0270253
32.7969 45.935 0.138052
32.8963 39.1982 0.592748
32.1615 43.5411 0.176733
32.4467 40.996 0.371162
31.6907 47.6667 2
31.6936 39.3868 2
31.068 41.8359 2
31.2129 44.6153 2
30.0361 46.2456 3.98803
30.3189 39.7621 3.8394
29.8108 42.884 3.88622
30.387 49.5344 -0.00385089
28.5879 47.9384 2
26.8574 46.365 3.98102
27.0882 49.7642 0.0258997
25.4191 48.1992 2
23.7397 46.7785 3.97364
23.977 49.9485 0.0333621
22.4678 48.5169 2
20.7457 47.3694 3.97606
21.1605 50.0759 0.0343741
19.7143 48.8656 2
18.3044 47.9763 3.9766
16.6821 48.512 3.97653
17.4459 49.1489 2
16.3296 50.0111 3.97464
15.7724 52.2743 3.97069
17.2746 51.2329 2
18.5777 50.1308 0.0281252
15.1429 54.8648 3.96443
16.7721 53.7215 2
18.3428 52.6073 0.0348074
14.5461 57.6814 3.95937
16.1824 56.3721 2
17.7498 55.2003 0.0374335
14.2747 60.6639 3.96521
15.786 59.1591 2
17.2563 57.7847 0.0390918
14.3371 63.8537 3.97658
15.7948 62.0993 2
17.1503 60.4945 0.035967
14.6715 67.2507 4
16.0894 65.2915 2
17.4176 63.4291 0.0321605
16.6661 68.6801 2
17.9456 66.6155 0.0174956
18.75 69.9759 0
18.9722 15.8575 3.96922
20.2477 14.6709 2
18.995 13.174 3.97095
21.6078 13.6764 0.0285215
20.5386 12.0507 2
19.347 10.2531 3.97275
19.9944 7.14795 3.98615
21.1424 9.16062 2
22.1966 11.0546 0.0290691
20.9142 3.86727 4
22.0143 6.08572 2
23.0422 8.18543 0.0232209
23.1494 2.85451 2
24.1202 5.14383 0.0104949
25.446 1.99014 0
31.8076 35.618 3.62136
32.8832 35.7998 2
34.5772 35.9509 0.454886
21.3526 15.9206 0.0325787
22.165 16.7154 2
20.3826 17.046 2
19.4189 18.5307 3.95883
21.8652 17.9838 3.97903
25.4287 16.1559 0.0121839
23.3267 16.3268 0.0355499
24.2775 18.6309 2
22.5102 20.064 3.97642
24.8503 21.5847 3.98821
26.889 23.8841 3.98458
27.2644 21.6421 2
27.5019 18.9381 0.017703
31.1758 33.2022 3.83216
32.4267 33.9318 2
33.2299 34.3339 0.578563
33.3432 32.6455 0.318443
33.5719 30.1564 0.17806
35.25 27.8893 0.122266
32.9959 28.4937 2
32.1087 31.3914 2
30.9485 29.9017 3.90893
28.587 26.7741 4.00057
29.2485 24.5963 2
29.8285 22.1157 -0.00812653
32.1174 25.9271 -0.00938505
30.3043 27.5742 2
29.8949 37.4805 3.83844
31.3184 37.484 2
32.7166 37.4993 0.541576
31.7494 47.6337 0.0137523
31.263 44.5741 0.130182
31.7813 39.3695 0.371513
31.1292 41.7865 0.168004
30.0374 46.2537 2
30.2293 39.7762 2
29.7796 42.9089 2
28.3514 44.5766 3.96657
28.069 40.4668 3.92663
28.5907 47.9353 0.0266982
26.8557 46.3655 2
25.0667 44.8919 3.98047
25.4189 48.2016 0.0309036
23.7379 46.7773 2
21.7931 45.6684 3.97773
22.4669 48.5164 0.0282411
20.7458 47.3684 2
19.0587 46.5356 3.97611
19.7146 48.8671 0.0256711
18.3045 47.9753 2
16.9351 47.5394 3.97589
16.6829 48.5112 2
15.6831 48.8629 3.97551
17.447 49.1496 0.0242149
16.3312 50.0102 2
14.8814 50.8547 3.97393
14.1073 53.3302 3.96788
15.7737 52.2736 2
17.2734 51.2339 0.0292601
13.4028 56.1019 3.96108
15.1426 54.8648 2
16.7723 53.7216 0.0336689
12.8647 59.1043 3.96244
14.5477 57.6816 2
16.1826 56.3717 0.0380896
12.6832 62.2958 3.97343
14.2766 60.6645 2
15.7835 59.1585 0.0400948
12.7746 65.6939 4
14.3347 63.8491 2
15.7933 62.098 0.0293952
14.6714 67.2507 2
16.0922 65.2956 0.0212394
16.6661 68.6801 0
17.7744 17.2493 3.96086
18.9734 15.8541 2
17.5323 14.4355 3.96892
20.245 14.6756 0.0290905
18.9954 13.176 2
17.6468 11.4872 3.97297
20.5407 12.0517 0.0267904
19.3436 10.2548 2
18.0543 8.34103 3.98359
18.75 5.0241 4
19.9887 7.15185 2
21.1453 9.15901 0.0248283
20.9142 3.86727 2
22.0195 6.08227 0.0116761
23.1494 2.85457 0
30.3411 35.2308 3.83694
31.7208 35.5951 2
32.8845 35.8089 0.570682
22.161 16.7219 0.0391103
20.3795 17.0492 0.0364887
21.8658 17.9797 2
19.4128 18.5244 2
18.2864 20.092 3.96231
21.0875 19.5345 3.9677
24.2877 18.6114 0.0238654
22.5031 20.0661 2
24.861 21.5641 2
22.7214 21.9176 3.97999
25.1804 23.2914 3.97682
26.2002 26.1515 3.97985
26.8907 23.8763 2
27.2659 21.7342 0.00669676
29.5749 32.5565 3.88596
31.0965 33.1646 2
32.4788 33.9887 0.376078
32.1614 31.4409 0.185884
33.033 28.5285 0.114574
30.927 29.8894 2
27.9868 29.3689 4.01209
28.5735 26.7789 2
29.26 24.5965 -0.0130051
30.3132 27.5981 0.0236164
28.245 37.3825 3.88247
29.8155 37.4813 2
31.397 37.4862 0.366218
30.0361 46.2456 0.0119684
29.8108 42.884 0.113785
30.3189 39.7621 0.160601
28.3483 44.6295 2
28.0341 40.47 2
26.4637 42.9977 3.98131
25.3612 39.4346 3.9753
26.8574 46.365 0.0189806
25.0565 44.8935 2
22.9953 43.7038 3.97532
23.7397 46.7785 0.0263565
21.7898 45.6697 2
19.8571 44.7755 3.97562
20.7457 47.3694 0.0239436
19.0581 46.5361 2
17.3049 46.0413 3.97571
18.3044 47.9763 0.0234031
16.9355 47.5391 2
15.4576 47.522 3.97555
16.6821 48.512 0.023472
15.6846 48.8621 2
14.1954 49.4225 3.97509
16.3296 50.0111 0.02536
14.8826 50.854 2
13.1756 51.7789 3.97079
12.3032 54.465 3.96327
14.108 53.3297 2
15.7724 52.2743 0.0293116
11.5652 57.4398 3.96122
13.4028 56.1018 2
15.1429 54.8648 0.0355728
11.1393 60.6212 3.96805
12.8672 59.1037 2
14.5461 57.6814 0.0406255
10.9835 64.0165 4
12.6814 62.2908 2
14.2747 60.6639 0.0347922
12.7745 65.694 2
14.3371 63.8537 0.0234234
14.6715 67.2507 0
16.5957 18.7603 3.96124
17.7681 17.2441 2
16.1348 15.8386 3.96074
18.9722 15.8575 0.0307764
17.5331 14.4317 2
16.0299 12.8518 3.96714
18.995 13.174 0.0290533
17.6439 11.4952 2
16.2054 9.6661 3.98017
19.347 10.2531 0.0272474
18.0493 8.3477 2
16.6661 6.31991 4
18.75 5.02404 2
19.9944 7.14795 0.0138536
20.9142 3.86727 0
28.7379 34.8706 3.89147
30.2404 35.191 2
31.8076 35.618 0.378637
17.034 21.5278 3.96874
21.8652 17.9838 0.0209738
19.4189 18.5307 0.0411716
21.0786 19.5294 2
18.2863 20.0891 2
20.1386 21.7639 3.97232
22.5102 20.064 0.0235797
24.8503 21.5847 0.0117859
22.7221 21.9188 2
25.166 23.3252 2
23.5108 24.814 3.97182
25.5475 28.742 3.98412
26.1915 26.1589 2
26.889 23.8841 0.015422
27.436 31.9143 3.98109
29.5342 32.5329 2
31.1758 33.2022 0.167835
30.9485 29.9017 0.0910678
28.0004 29.3405 2
28.587 26.7741 -0.000566425
26.066 36.857 3.97122
28.2201 37.3839 2
29.8949 37.4805 0.161563
28.3514 44.5766 0.0334343
28.069 40.4668 0.0733709
26.4416 43.0227 2
25.3307 39.437 2
24.2245 41.7156 3.97995
23.0726 38.5157 3.97668
25.0667 44.8919 0.0195295
22.9935 43.7053 2
20.7505 42.7348 3.97512
21.7931 45.6684 0.0222677
19.8581 44.7756 2
17.7241 44.2281 3.97532
19.0587 46.5356 0.0238939
17.3049 46.0417 2
15.4255 45.9536 3.97535
16.9351 47.5394 0.0241077
15.4584 47.5216 2
13.7284 47.8898 3.97552
15.6831 48.8629 0.0244922
14.1968 49.4217 2
12.4108 50.164 3.97306
14.8814 50.8547 0.0260661
13.1767 51.7781 2
11.2969 52.7811 3.96526
10.3743 55.6931 3.96224
12.3032 54.4645 2
14.1073 53.3302 0.0321175
9.70501 58.8454 3.97144
11.5696 57.4381 2
13.4028 56.1019 0.0389227
9.30605 62.2254 4
11.138 60.6162 2
12.8647 59.1043 0.0375649
10.9835 64.0165 2
12.6832 62.2958 0.0265715
12.7746 65.6939 0
15.4015 20.3006 3.96442
16.6025 18.7593 2
14.8315 17.368 3.96027
17.7744 17.2493 0.0391417
16.1366 15.8358 2
14.4905 14.3284 3.96789
17.5323 14.4355 0.0310844
16.0304 12.8477 2
14.4484 11.1192 3.97733
17.6468 11.4872 0.0270269
16.201 9.67284 2
14.6715 7.74927 4
18.0543 8.34103 0.0164141
16.6661 6.31988 2
18.75 5.0241 0
26.6948 34.3908 3.973
28.7184 34.8773 2
30.3411 35.2308 0.163062
18.3125 22.5043 3.97522
15.9374 23.0692 3.97229
17.0357 21.5267 2
21.0875 19.5345 0.0322987
18.2864 20.092 0.0376879
20.1347 21.7607 2
20.2802 24.61 3.97198
22.7214 21.9176 0.0200058
25.1804 23.2914 0.0231817
23.5047 24.8133 2
22.9094 28.0954 3.97116
25.0018 31.4342 3.98235
25.5538 28.7244 2
26.2002 26.1515 0.0201524
27.405 31.8756 2
29.5749 32.5565 0.114036
27.9868 29.3689 -0.0120866
23.8104 36.3209 3.97763
26.0417 36.8507 2
28.245 37.3825 0.117532
26.4637 42.9977 0.018695
25.3612 39.4346 0.0247032
24.2017 41.7152 2
23.0628 38.516 2
21.8852 40.5627 3.97503
21.2103 37.7967 3.97733
22.9953 43.7038 0.0246843
20.7515 42.7338 2
18.2068 41.9906 3.97568
19.8571 44.7755 0.024378
17.7244 44.2284 2
15.4755 44.0811 3.97532
17.3049 46.0413 0.0242923
15.4253 45.9537 2
13.4275 46.1884 3.97533
15.4576 47.522 0.0244528
13.7295 47.8892 2
11.8009 48.4668 3.97485
14.1954 49.4225 0.0249086
12.4124 50.163 2
10.4284 51.0297 3.96717
13.1756 51.7789 0.029208
11.2976 52.7802 2
9.28331 53.8747 3.96287
8.38894 56.9802 3.97284
10.3766 55.6914 2
12.3032 54.465 0.0367349
7.74927 60.3285 4
9.70378 58.841 2
11.5652 57.4398 0.0387762
9.306 62.2255 2
11.1393 60.6212 0.031946
10.9835 64.0165 0
14.2394 21.8614 3.96821
15.4012 20.2988 2
13.571 18.9668 3.96129
16.5957 18.7603 0.0387571
14.8323 17.3659 2
13.0391 15.9129 3.96671
16.1348 15.8386 0.0392612
14.4949 14.3258 2
12.7862 12.6934 3.97492
16.0299 12.8518 0.0328637
14.4452 11.1267 2
12.7746 9.30605 4
16.2054 9.6661 0.019835
14.6715 7.74924 2
16.6661 6.31991 0
24.3681 33.9001 3.98091
26.6731 34.3904 2
28.7379 34.8706 0.108529
18.1902 24.2398 3.97321
18.3204 22.5045 2
14.7627 24.594 3.97429
15.9379 23.0682 2
17.034 21.5278 0.0312593
19.8397 27.4402 3.97356
20.1386 21.7639 0.0276811
20.277 24.6073 2
22.2966 30.8845 3.97417
23.5108 24.814 0.0281818
22.9095 28.0974 2
24.9608 31.4412 2
25.5475 28.742 0.0158763
27.436 31.9143 0.0189083
21.3164 35.9687 3.97689
23.8048 36.3162 2
26.066 36.857 0.0287794
24.2245 41.7156 0.0200485
23.0726 38.5157 0.0233164
21.8897 40.5647 2
21.2137 37.7971 2
18.9765 38.9735 3.97711
20.7505 42.7348 0.0248794
18.2066 41.9907 2
15.4598 41.8428 3.97593
17.7241 44.2281 0.0246793
15.4748 44.0811 2
13.1891 44.3052 3.97537
15.4255 45.9536 0.0246519
13.4281 46.1883 2
11.3153 46.6579 3.97574
13.7284 47.8898 0.0244759
11.803 48.4657 2
9.70016 49.1939 3.96909
12.4108 50.164 0.0269361
10.4297 51.0286 2
8.31089 51.9908 3.96348
11.2969 52.7811 0.0347408
9.28342 53.8731 2
7.19793 55.0326 3.97385
6.31991 58.3339 4
8.3877 56.9759 2
10.3743 55.6931 0.037757
7.74924 60.3285 2
9.70501 58.8454 0.028564
9.30605 62.2254 0
13.6191 25.4821 3.97635
13.139 23.3843 3.97187
14.2389 21.86 2
12.3967 20.6157 3.96372
15.4015 20.3006 0.0355829
13.5708 18.9651 2
11.6748 17.5841 3.96203
14.8315 17.368 0.0397255
13.0444 15.9105 2
11.2244 14.3808 3.96897
14.4905 14.3284 0.0321086
12.7845 12.7007 2
10.9835 10.9835 4
14.4484 11.1192 0.0226653
12.7745 9.306 2
14.6715 7.74927 0
21.673 33.5309 3.97627
24.3713 33.8802 2
26.6948 34.3908 0.0270011
16.5129 26.5807 3.97435
18.1943 24.2394 2
18.3125 22.5043 0.0247752
14.7616 24.5933 2
15.9374 23.0692 0.0277056
19.2422 30.3636 3.97449
19.8401 27.4414 2
20.2802 24.61 0.0280157
22.3194 30.884 2
22.9094 28.0954 0.02884
25.0018 31.4342 0.0176492
18.564 36.0094 3.9779
21.3175 35.9705 2
23.8104 36.3209 0.0223711
21.8852 40.5627 0.0249731
21.2103 37.7967 0.0226668
18.9767 38.972 2
14.9474 39.1524 3.97699
18.2068 41.9906 0.0243214
15.4589 41.8423 2
12.8821 42.2193 3.97606
15.4755 44.0811 0.0246821
13.1892 44.3049 2
10.9006 44.7387 3.97568
13.4275 46.1884 0.0246682
11.3179 46.6568 2
9.08458 47.2792 3.97104
11.8009 48.4668 0.0251452
9.70203 49.1928 2
7.4714 50.0266 3.96388
10.4284 51.0297 0.0328263
8.3095 51.9894 2
6.1385 53.0084 3.97389
9.28331 53.8747 0.0371276
7.19716 55.0287 2
5.0241 56.25 4
6.31988 58.3339 2
8.38894 56.9802 0.0271592
7.74927 60.3285 0
13.9115 26.9386 3.97528
12.2454 24.8794 3.97478
13.6182 25.4815 2
11.322 22.2964 3.96608
13.14 23.3838 2
14.2394 21.8614 0.0317931
12.3959 20.6144 2
10.434 19.3387 3.96264
13.571 18.9668 0.0387057
11.6843 17.585 2
9.7655 16.1631 3.97114
13.0391 15.9129 0.0332943
11.2241 14.3865 2
9.30607 12.7746 4
12.7862 12.6934 0.0250799
10.9835 10.9835 2
12.7746 9.30605 0
18.73 33.2083 3.97583
21.669 33.5341 2
24.3681 33.9001 0.0190923
16.1415 29.7827 3.97513
16.5121 26.5802 2
18.1902 24.2398 0.0267857
14.7627 24.594 0.0257133
19.2403 30.3636 2
19.8397 27.4402 0.0264385
22.2966 30.8845 0.0258264
15.5863 36.0445 3.97747
18.5633 36.0104 2
21.3164 35.9687 0.023108
13.1114 37.8286 3.9771
18.9765 38.9735 0.0228888
14.9473 39.1524 2
12.3752 40.1105 3.97655
15.4598 41.8428 0.0240694
12.8815 42.2187 2
10.4971 42.7337 3.97586
13.1891 44.3052 0.0246263
10.9028 44.7378 2
8.55044 45.2901 3.97325
11.3153 46.6579 0.0242622
9.08659 47.2781 2
6.75272 47.9944 3.96439
9.70016 49.1939 0.0309105
7.46907 50.0256 2
5.21491 50.9119 3.97358
8.31089 51.9908 0.0365161
6.1382 53.0055 2
3.86727 54.0858 4
7.19793 55.0326 0.0261475
5.02404 56.25 2
6.31991 58.3339 0
13.3891 29.1339 3.97466
11.694 26.5729 3.9754
13.9109 26.9385 2
10.372 24.0204 3.96862
12.2483 24.8795 2
13.6191 25.4821 0.0236453
9.2986 21.1551 3.96343
11.3218 22.2959 2
13.139 23.3843 0.0281326
12.3967 20.6157 0.0362825
10.4453 19.3407 2
8.42138 18.0318 3.97262
11.6748 17.5841 0.0379702
9.76489 16.1671 2
7.74928 14.6715 4
11.2244 14.3808 0.0310289
9.30602 12.7745 2
10.9835 10.9835 0
15.1213 32.9354 3.97622
18.7294 33.2077 2
21.673 33.5309 0.023733
16.1412 29.7824 2
16.5129 26.5807 0.0256506
19.2422 30.3636 0.0255122
13.4181 36.2251 3.97674
15.5859 36.0446 2
18.564 36.0094 0.0221028
13.1108 37.8287 2
11.6923 38.3038 3.97671
14.9474 39.1524 0.0230122
12.375 40.1103 2
10.069 40.73 3.97637
12.8821 42.2193 0.023943
10.4996 42.7333 2
8.08347 43.2484 3.97439
10.9006 44.7387 0.0243191
8.55279 45.2891 2
6.14833 45.9016 3.96489
9.08458 47.2792 0.0289634
6.74992 47.9935 2
4.42586 48.7522 3.97337
7.4714 50.0266 0.0361176
5.215 50.9098 2
2.85457 51.8506 4
6.1385 53.0084 0.0261054
3.86727 54.0858 2
5.0241 56.25 0
12.5153 31.3233 3.97578
11.1025 28.4877 3.97539
13.3889 29.1335 2
9.58667 25.8437 3.9702
11.6963 26.573 2
13.9115 26.9386 0.0247205
8.27661 23.0353 3.96406
10.3743 24.0207 2
12.2454 24.8794 0.0252165
7.20377 19.9794 3.97378
9.30425 21.1568 2
11.322 22.2964 0.0339221
10.434 19.3387 0.0373573
8.4207 18.0356 2
6.31992 16.6661 4
9.7655 16.1631 0.028864
7.74926 14.6714 2
9.30607 12.7746 0
12.5504 34.3338 3.97657
15.1208 32.9361 2
18.73 33.2083 0.0241728
16.1415 29.7827 0.0248659
11.2224 36.6231 3.97653
13.4175 36.2251 2
15.5863 36.0445 0.0225255
13.1114 37.8286 0.0228952
11.6924 38.3036 2
9.64415 38.8157 3.97649
12.3752 40.1105 0.0234459
10.0712 40.7296 2
7.68518 41.1988 3.97449
10.4971 42.7337 0.0241386
8.08475 43.2476 2
5.6552 43.7657 3.96497
8.55044 45.2901 0.026754
6.14515 45.901 2
3.77111 46.5372 3.97331
6.75272 47.9944 0.0356142
4.42639 48.7508 2
1.99014 49.554 4
5.21491 50.9119 0.0264171
2.85451 51.8506 2
3.86727 54.0858 0
11.3082 32.9664 3.97638
10.4035 30.4357 3.97548
12.5149 31.3239 2
8.88529 27.7692 3.97139
11.1047 28.4881 2
13.3891 29.1339 0.0253394
7.39115 24.9907 3.96447
9.58925 25.8443 2
11.694 26.5729 0.0245968
6.12061 22.0013 3.97428
8.27808 23.0366 2
10.372 24.0204 0.0313787
5.02411 18.75 4
7.20335 19.9826 2
9.2986 21.1551 0.0365697
8.42138 18.0318 0.0273792
6.3199 16.6661 2
7.74928 14.6715 0
10.8013 35.0231 3.97633
12.5494 34.3338 2
15.1213 32.9354 0.0237781
9.29721 36.9902 3.97649
11.2227 36.6233 2
13.4181 36.2251 0.0232583
11.6923 38.3038 0.0232883
9.64672 38.8152 2
7.35771 39.1773 3.97412
10.069 40.73 0.0236285
7.6878 41.1984 2
5.26769 41.6122 3.9653
8.08347 43.2484 0.0256052
5.65383 43.7652 2
3.24854 44.2816 3.97401
6.14833 45.9016 0.0351055
3.77188 46.5364 2
1.27781 47.2057 4
4.42586 48.7522 0.0266324
1.99012 49.554 2
2.85457 51.8506 0
10.429 33.9122 3.97604
9.67089 32.1921 3.97611
11.3087 32.9668 2
8.21506 29.7237 3.97272
10.4058 30.4369 2
12.5153 31.3233 0.0242176
6.62255 27.0138 3.96477
8.88833 27.7699 2
11.1025 28.4877 0.024612
5.17553 24.0937 3.97408
7.38948 24.9914 2
9.58667 25.8437 0.0298043
3.86728 20.9142 4
6.12054 22.0037 2
8.27661 23.0353 0.0359405
5.02406 18.75 2
7.20377 19.9794 0.0262201
6.31992 16.6661 0
9.10828 35.2955 3.97659
10.8021 35.0231 2
12.5504 34.3338 0.0234324
7.13469 37.2076 3.97384
9.3001 36.9899 2
11.2224 36.6231 0.0234708
9.64415 38.8157 0.0235082
7.3607 39.1772 2
4.99414 39.4667 3.96619
7.68518 41.1988 0.0255062
5.26785 41.612 2
2.8588 42.0017 3.97457
5.6552 43.7657 0.0350257
3.24913 44.2812 2
0.720592 44.8159 4
3.77111 46.5372 0.0266912
1.27778 47.2057 2
1.99014 49.554 0
9.14592 33.723 3.9766
10.4306 33.9124 2
7.64116 31.6293 3.97313
9.67367 32.1928 2
11.3082 32.9664 0.0236176
5.95928 29.0733 3.96497
8.2171 29.7242 2
10.4035 30.4357 0.0245199
4.36265 26.2467 3.97371
6.61933 27.0143 2
8.88529 27.7692 0.0286127
2.85458 23.1494 4
5.17584 24.0952 2
7.39115 24.9907 0.0355348
3.86728 20.9142 2
6.12061 22.0013 0.0257195
5.02411 18.75 0
7.08381 35.3135 3.97346
9.11182 35.2954 2
10.8013 35.0231 0.0236668
4.84413 37.3401 3.96676
7.13782 37.2076 2
9.29721 36.9902 0.0235111
7.35771 39.1773 0.0258778
4.99498 39.4665 2
2.60663 39.7134 3.97521
5.26769 41.6122 0.0347037
2.85958 42.0018 2
0.320823 42.3947 4
3.24854 44.2816 0.0259946
0.720551 44.8159 2
1.27781 47.2057 0
7.24719 33.4742 3.97333
9.14931 33.7233 2
10.429 33.9122 0.0239566
5.42379 31.1362 3.9654
7.64299 31.6296 2
9.67089 32.1921 0.0238914
3.68387 28.4434 3.9738
5.95576 29.0735 2
8.21506 29.7237 0.0272819
1.99015 25.446 4
4.36324 26.2475 2
6.62255 27.0138 0.035232
2.85453 23.1494 2
5.17553 24.0937 0.0259191
3.86728 20.9142 0
4.85825 35.2528 3.96665
7.08612 35.3136 2
9.10828 35.2955 0.0234082
2.49798 37.4282 3.97626
4.84435 37.3402 2
7.13469 37.2076 0.0261616
4.99414 39.4667 0.0338059
2.6074 39.7139 2
0.080333 39.9526 4
2.8588 42.0017 0.0254307
0.320817 42.3947 2
0.720592 44.8159 0
5.05176 33.1921 3.96617
7.24937 33.4744 2
9.14592 33.723 0.0233998
3.14791 30.6666 3.97452
5.42334 31.1365 2
7.64116 31.6293 0.0268733
1.27793 27.7943 4
3.68473 28.4438 2
5.95928 29.0733 0.0350311
1.99013 25.446 2
4.36265 26.2467 0.026285
2.85458 23.1494 0
2.55 35.1591 3.97606
4.85912 35.2531 2
7.08381 35.3135 0.0265395
0 37.5 4
2.49825 37.4287 2
4.84413 37.3401 0.0332422
2.60663 39.7134 0.0247912
0.0802903 39.9526 2
0.320823 42.3947 0
2.76777 32.906 3.97585
5.0523 33.1926 2
7.24719 33.4742 0.0266674
0.721173 30.1842 4
3.14866 30.6668 2
5.42379 31.1362 0.0345958
1.27779 27.7943 2
3.68387 28.4434 0.0262021
1.99015 25.446 0
0.0806499 35.0474 4
2.55088 35.1595 2
4.85825 35.2528 0.033353
0 37.5 2
2.49798 37.4282 0.0237446
0.080333 39.9526 0
0.32156 32.6054 4
2.76811 32.9065 2
5.05176 33.1921 0.0338347
0.72056 30.1841 2
3.14791 30.6666 0.0254823
1.27793 27.7943 0
0.0802889 35.0474 2
2.55 35.1591 0.0239373
0 37.5 0
0.320817 32.6053 2
2.76777 32.906 0.0241501
0.721173 30.1842 0
0.0806499 35.0474 0
0.32156 32.6054 0
CELLS 1910 17190
8 18 6 25 56 2 0 5 16
8 57 23 6 18 17 4 0 2
8 78 36 9 29 31 11 1 7
8 31 11 1 7 79 37 10 30
8 110 57 18 50 48 17 2 14
8 50 18 56 111 14 2 16 49
8 116 62 22 55 52 20 3 15
8 56 25 67 118 16 5 24 53
8 119 63 23 57 54 21 4 17
8 55 22 63 119 15 3 21 54
8 58 26 68 121 18 6 25 56
8 122 65 26 58 57 23 6 18
8 73 31 7 27 142 79 30 71
8 143 78 29 72 73 31 7 27
8 83 147 76 34 32 74 28 8
8 84 148 78 36 33 75 29 9
8 76 34 8 28 148 84 33 75
8 37 79 150 86 10 30 77 35
8 151 87 36 78 80 38 11 31
8 80 38 11 31 152 88 37 79
8 175 100 42 94 96 44 12 40
8 44 96 176 101 12 40 95 43
8 101 176 98 46 43 95 41 13
8 46 98 178 103 13 41 97 45
8 178 103 45 97 147 83 32 74
8 189 116 55 109 106 52 15 47
8 111 56 118 191 49 16 53 107
8 192 119 57 110 108 54 17 48
8 109 55 119 192 47 15 54 108
8 194 122 58 112 110 57 18 50
8 112 58 121 195 50 18 56 111
8 115 61 19 51 197 124 59 113
8 115 61 125 198 51 19 60 114
8 198 125 62 116 114 60 20 52
8 200 127 64 120 116 62 22 55
8 118 67 132 202 53 24 66 117
8 121 68 133 203 56 25 67 118
8 120 64 128 204 55 22 63 119
8 204 128 65 122 119 63 23 57
8 206 134 68 121 123 69 26 58
8 123 69 26 58 207 131 65 122
8 226 147 74 138 140 76 28 70
8 229 148 75 139 143 78 29 72
8 140 76 28 70 229 148 75 139
8 142 79 30 71 231 150 77 141
8 144 80 31 73 232 152 79 142
8 233 151 78 143 144 80 31 73
8 150 86 35 77 235 154 81 145
8 235 154 81 145 146 82 39 91
8 146 82 39 91 236 155 90 165
8 238 157 83 147 149 85 34 76
8 239 158 84 148 151 87 36 78
8 149 85 34 76 239 158 84 148
8 152 88 37 79 241 160 86 150
8 242 161 87 151 153 89 38 80
8 153 89 38 80 243 162 88 152
8 171 98 41 92 265 178 97 169
8 265 178 97 169 226 147 74 138
8 172 96 40 93 266 176 95 170
8 266 176 95 170 171 98 41 92
8 269 175 94 173 172 96 40 93
8 271 180 99 174 175 100 42 94
8 197 124 59 113 271 180 99 174
8 272 181 100 175 177 102 44 96
8 273 182 101 176 179 104 46 98
8 177 102 44 96 273 182 101 176
8 179 104 46 98 275 184 103 178
8 275 184 103 178 238 157 83 147
8 188 115 51 105 283 197 113 186
8 188 115 198 284 105 51 114 187
8 284 198 116 189 187 114 52 106
8 286 200 120 193 189 116 55 109
8 191 118 202 288 107 53 117 190
8 195 121 203 289 111 56 118 191
8 193 120 204 290 109 55 119 192
8 290 204 122 194 192 119 57 110
8 196 123 58 112 292 207 122 194
8 293 206 121 195 196 123 58 112
8 199 126 61 115 297 211 124 197
8 298 212 127 200 198 125 62 116
8 199 126 212 298 115 61 125 198
8 205 129 64 120 300 214 127 200
8 301 217 130 201 202 132 66 117
8 209 136 168 264 301 217 130 201
8 302 219 132 202 203 133 67 118
8 303 220 133 203 206 134 68 121
8 205 129 215 304 120 64 128 204
8 304 215 131 207 204 128 65 122
8 306 221 134 206 208 135 69 123
8 208 135 69 123 307 218 131 207
8 210 137 167 263 309 223 136 209
8 328 238 147 226 230 149 76 140
8 228 146 91 166 329 236 165 260
8 231 150 77 141 330 235 145 227
8 330 235 145 227 228 146 91 166
8 332 239 148 229 233 151 78 143
8 230 149 76 140 332 239 148 229
8 232 152 79 142 334 241 150 231
8 234 153 80 144 335 243 152 232
8 336 242 151 233 234 153 80 144
8 236 155 90 165 338 245 164 259
8 241 160 86 150 339 246 154 235
8 339 246 154 235 237 156 82 146
8 237 156 82 146 340 247 155 236
8 342 249 157 238 240 159 85 149
8 343 250 158 239 242 161 87 151
8 240 159 85 149 343 250 158 239
8 243 162 88 152 345 252 160 241
8 244 163 253 346 153 89 161 242
8 244 163 89 153 347 254 162 243
8 311 224 261 371 210 137 167 263
8 263 167 262 372 209 136 168 264
8 267 179 98 171 375 275 178 265
8 375 275 178 265 328 238 147 226
8 376 273 176 266 267 179 98 171
8 268 177 96 172 376 273 176 266
8 379 272 175 269 268 177 96 172
8 380 271 174 270 269 175 94 173
8 283 197 113 186 380 271 174 270
8 381 277 180 271 272 181 100 175
8 297 211 124 197 381 277 180 271
8 382 278 181 272 274 183 102 177
8 274 183 102 177 383 279 182 273
8 383 279 182 273 276 185 104 179
8 385 281 184 275 342 249 157 238
8 276 185 104 179 385 281 184 275
8 285 199 115 188 393 297 197 283
8 394 298 200 286 284 198 116 189
8 285 199 298 394 188 115 198 284
8 291 205 120 193 396 300 200 286
8 397 301 201 287 288 202 117 190
8 295 209 264 374 397 301 201 287
8 398 302 202 288 289 203 118 191
8 399 303 203 289 293 206 121 195
8 291 205 304 400 193 120 204 290
8 400 304 207 292 290 204 122 194
8 294 208 123 196 402 307 207 292
8 403 306 206 293 294 208 123 196
8 296 210 263 373 405 309 209 295
8 408 312 213 299 297 211 126 199
8 299 213 313 409 199 126 212 298
8 409 313 214 300 298 212 127 200
8 305 216 129 205 411 315 214 300
8 412 318 217 301 302 219 132 202
8 309 223 136 209 412 318 217 301
8 413 320 219 302 303 220 133 203
8 306 221 321 414 206 134 220 303
8 307 218 131 207 415 316 215 304
8 305 216 316 415 205 129 215 304
8 417 322 221 306 308 222 135 208
8 308 222 135 208 418 319 218 307
8 310 225 137 210 420 325 223 309
8 423 326 224 311 310 225 137 210
8 329 236 165 260 441 338 259 368
8 442 342 238 328 333 240 149 230
8 331 237 146 228 443 340 236 329
8 334 241 150 231 444 339 235 330
8 444 339 235 330 331 237 146 228
8 446 343 239 332 336 242 151 233
8 333 240 149 230 446 343 239 332
8 335 243 152 232 448 345 241 334
8 337 244 153 234 449 347 243 335
8 337 244 346 450 234 153 242 336
8 338 245 164 259 452 349 258 367
8 340 247 155 236 453 350 245 338
8 345 252 160 241 454 351 246 339
8 454 351 246 339 341 248 156 237
8 341 248 156 237 455 352 247 340
8 240 159 251 344 342 249 354 457
8 242 161 253 346 343 250 355 458
8 343 250 355 458 240 159 251 344
8 347 254 162 243 460 357 252 345
8 348 255 358 461 244 163 253 346
8 348 255 163 244 462 359 254 347
8 473 360 257 365 363 256 364 482
8 452 349 258 367 365 257 366 485
8 422 324 369 488 311 224 261 371
8 371 261 370 490 263 167 262 372
8 407 311 371 491 296 210 263 373
8 373 263 372 492 295 209 264 374
8 493 385 275 375 442 342 238 328
8 377 276 179 267 493 385 275 375
8 378 274 177 268 494 383 273 376
8 494 383 273 376 377 276 179 267
8 497 382 272 379 378 274 177 268
8 498 381 271 380 379 272 175 269
8 393 297 197 283 498 381 271 380
8 499 387 277 381 382 278 181 272
8 408 312 211 297 499 387 277 381
8 500 388 278 382 384 280 183 274
8 501 389 279 383 386 282 185 276
8 384 280 183 274 501 389 279 383
8 386 282 185 276 503 391 281 385
8 503 391 281 385 457 354 249 342
8 511 408 299 395 393 297 199 285
8 395 299 409 512 285 199 298 394
8 512 409 300 396 394 298 200 286
8 401 305 205 291 514 411 300 396
8 515 412 301 397 398 302 202 288
8 405 309 209 295 515 412 301 397
8 516 413 302 398 399 303 203 289
8 403 306 414 517 293 206 303 399
8 402 307 207 292 518 415 304 400
8 401 305 415 518 291 205 304 400
8 404 308 208 294 520 418 307 402
8 521 417 306 403 404 308 208 294
8 406 310 210 296 523 420 309 405
8 526 423 311 407 406 310 210 296
8 410 314 213 299 527 424 312 408
8 528 425 315 411 409 313 214 300
8 410 314 425 528 299 213 313 409
8 416 317 216 305 530 427 315 411
8 531 430 318 412 413 320 219 302
8 420 325 223 309 531 430 318 412
8 532 432 320 413 414 321 220 303
8 417 322 433 533 306 221 321 414
8 418 319 218 307 534 428 316 415
8 416 317 428 534 305 216 316 415
8 419 323 434 536 308 222 322 417
8 419 323 222 308 537 431 319 418
8 421 327 225 310 539 438 325 420
8 421 327 439 541 310 225 326 423
8 543 437 324 422 423 326 224 311
8 441 338 259 368 559 452 367 486
8 443 340 236 329 560 453 338 441
8 333 240 344 447 442 342 457 561
8 445 341 237 331 562 455 340 443
8 448 345 241 334 563 454 339 444
8 563 454 339 444 445 341 237 331
8 336 242 346 450 446 343 458 565
8 446 343 458 565 333 240 344 447
8 449 347 243 335 567 460 345 448
8 451 348 244 337 568 462 347 449
8 451 348 461 569 337 244 346 450
8 570 463 349 452 473 360 257 365
8 453 350 245 338 570 463 349 452
8 455 352 247 340 571 464 350 453
8 460 357 252 345 572 465 351 454
8 572 465 351 454 456 353 248 341
8 456 353 248 341 573 466 352 455
8 344 251 356 459 457 354 468 575
8 458 355 469 576 344 251 356 459
8 346 253 358 461 458 355 469 576
8 462 359 254 347 578 471 357 460
8 348 255 359 462 461 358 472 579
8 591 474 360 473 475 361 256 363
8 475 361 256 363 594 477 362 479
8 363 256 364 482 479 362 480 603
8 590 473 365 484 481 363 482 605
8 482 364 257 365 606 483 366 485
8 559 452 367 486 484 365 485 607
8 542 436 487 609 422 324 369 488
8 525 422 488 611 407 311 371 491
8 488 369 489 612 371 261 370 490
8 491 371 490 613 373 263 372 492
8 495 386 276 377 614 503 385 493
8 614 503 385 493 561 457 342 442
8 615 501 383 494 495 386 276 377
8 496 384 274 378 615 501 383 494
8 618 500 382 497 496 384 274 378
8 619 499 381 498 497 382 272 379
8 511 408 297 393 619 499 381 498
8 620 505 387 499 500 388 278 382
8 527 424 312 408 620 505 387 499
8 502 390 506 621 384 280 388 500
8 622 507 389 501 504 392 282 386
8 502 390 280 384 622 507 389 501
8 504 392 282 386 624 509 391 503
8 624 509 391 503 575 468 354 457
8 513 410 299 395 630 527 408 511
8 631 528 411 514 512 409 300 396
8 513 410 528 631 395 299 409 512
8 519 416 305 401 633 530 411 514
8 634 531 412 515 516 413 302 398
8 523 420 309 405 634 531 412 515
8 635 532 413 516 517 414 303 399
8 521 417 533 636 403 306 414 517
8 520 418 307 402 637 534 415 518
8 519 416 534 637 401 305 415 518
8 522 419 308 404 639 537 418 520
8 522 419 536 640 404 308 417 521
8 524 421 310 406 642 539 420 523
8 524 421 541 644 406 310 423 526
8 646 543 422 525 526 423 311 407
8 529 426 314 410 647 544 424 527
8 528 425 545 648 411 315 427 530
8 529 426 545 648 410 314 425 528
8 535 429 317 416 649 546 427 530
8 650 548 430 531 532 432 320 413
8 539 438 325 420 650 548 430 531
8 533 433 550 651 414 321 432 532
8 536 434 551 652 417 322 433 533
8 537 431 319 418 653 547 428 534
8 535 429 547 653 416 317 428 534
8 538 435 552 654 419 323 434 536
8 538 435 323 419 655 549 431 537
8 540 440 327 421 657 556 438 539
8 540 440 557 659 421 327 439 541
8 541 439 555 660 423 326 437 543
8 661 554 436 542 543 437 324 422
8 676 570 452 559 590 473 365 484
8 560 453 338 441 676 570 452 559
8 562 455 340 443 677 571 453 560
8 447 344 459 566 561 457 575 678
8 564 456 341 445 679 573 455 562
8 567 460 345 448 680 572 454 563
8 680 572 454 563 564 456 341 445
8 565 458 576 682 447 344 459 566
8 450 346 461 569 565 458 576 682
8 568 462 347 449 684 578 460 567
8 451 348 462 568 569 461 579 685
8 686 580 463 570 591 474 360 473
8 571 464 350 453 686 580 463 570
8 573 466 352 455 687 581 464 571
8 572 465 582 688 460 357 471 578
8 574 467 582 688 456 353 465 572
8 574 467 353 456 689 583 466 573
8 459 356 470 577 575 468 585 691
8 576 469 586 692 459 356 470 577
8 461 358 472 579 576 469 586 692
8 462 359 471 578 579 472 588 694
8 704 591 473 590 593 475 363 481
8 595 476 592 705 475 361 474 591
8 593 475 363 481 707 594 479 602
8 594 477 362 479 709 598 478 600
8 595 476 361 475 711 597 477 594
8 479 362 480 603 600 478 601 720
8 481 363 482 605 602 479 603 722
8 603 480 364 482 723 604 483 606
8 605 482 365 484 724 606 485 607
8 656 553 608 726 542 436 487 609
8 645 542 609 728 525 422 488 611
8 609 487 610 729 488 369 489 612
8 611 488 612 730 491 371 490 613
8 616 504 386 495 731 624 503 614
8 731 624 503 614 678 575 457 561
8 732 622 501 615 616 504 386 495
8 617 502 384 496 732 622 501 615
8 617 502 621 735 496 384 500 618
8 736 620 499 619 618 500 382 497
8 630 527 408 511 736 620 499 619
8 621 506 626 737 500 388 505 620
8 647 544 424 527 737 626 505 620
8 623 508 627 738 502 390 506 621
8 623 508 390 502 739 628 507 622
8 625 510 628 739 504 392 507 622
8 740 629 509 624 691 585 468 575
8 625 510 392 504 740 629 509 624
8 632 529 410 513 744 647 527 630
8 631 528 648 745 514 411 530 633
8 632 529 648 745 513 410 528 631
8 638 535 416 519 746 649 530 633
8 747 650 531 634 635 532 413 516
8 642 539 420 523 747 650 531 634
8 636 533 651 748 517 414 532 635
8 640 536 652 749 521 417 533 636
8 639 537 418 520 750 653 534 637
8 638 535 653 750 519 416 534 637
8 641 538 419 522 751 655 537 639
8 641 538 654 752 522 419 536 640
8 643 540 421 524 753 657 539 642
8 643 540 659 755 524 421 541 644
8 644 541 660 757 526 423 543 646
8 758 661 542 645 646 543 422 525
8 529 426 544 647 648 545 662 759
8 530 427 545 648 649 546 663 760
8 535 429 546 649 653 547 664 761
8 762 666 548 650 651 550 432 532
8 657 556 438 539 762 666 548 650
8 652 551 668 763 533 433 550 651
8 654 552 669 764 536 434 551 652
8 655 549 431 537 765 665 547 653
8 538 435 549 655 654 552 667 766
8 661 554 671 768 542 436 553 656
8 658 558 440 540 769 674 556 657
8 658 558 675 770 540 440 557 659
8 659 557 673 771 541 439 555 660
8 660 555 672 772 543 437 554 661
8 788 686 570 676 704 591 473 590
8 677 571 453 560 788 686 570 676
8 679 573 455 562 789 687 571 677
8 566 459 577 683 678 575 691 790
8 681 574 456 564 791 689 573 679
8 680 572 688 792 567 460 578 684
8 681 574 688 792 564 456 572 680
8 682 576 692 794 566 459 577 683
8 569 461 579 685 682 576 692 794
8 568 462 578 684 685 579 694 796
8 687 581 464 571 798 696 580 686
8 798 696 580 686 705 592 474 591
8 689 583 466 573 799 697 581 687
8 688 582 698 800 578 471 588 694
8 690 584 698 800 574 467 582 688
8 690 584 467 574 801 699 583 689
8 693 587 701 803 577 470 585 691
8 693 587 470 577 804 702 586 692
8 695 589 702 804 579 472 586 692
8 695 589 472 579 805 703 588 694
8 708 595 705 813 593 475 591 704
8 710 596 706 814 595 476 592 705
8 707 594 479 602 816 709 600 719
8 708 595 475 593 817 711 594 707
8 709 598 478 600 819 715 599 717
8 711 597 477 594 820 714 598 709
8 710 596 476 595 822 713 597 711
8 600 478 601 720 717 599 718 832
8 602 479 603 722 719 600 720 834
8 720 601 480 603 835 721 604 723
8 722 603 482 605 836 723 606 724
8 767 670 725 839 656 553 608 726
8 756 656 726 841 645 542 609 728
8 726 608 727 842 609 487 610 729
8 728 609 729 843 611 488 612 730
8 844 740 624 731 790 691 575 678
8 733 625 504 616 844 740 624 731
8 734 623 502 617 845 739 622 732
8 733 625 739 845 616 504 622 732
8 734 623 738 846 617 502 621 735
8 735 621 737 847 618 500 620 736
8 744 647 527 630 847 737 620 736
8 621 506 627 738 737 626 741 848
8 647 544 626 737 759 662 741 848
8 623 508 628 739 738 627 742 849
8 740 629 585 691 850 743 700 802
8 625 510 629 740 739 628 743 850
8 632 529 647 744 745 648 759 854
8 633 530 648 745 746 649 760 855
8 638 535 649 746 750 653 761 856
8 857 762 650 747 748 651 532 635
8 753 657 539 642 857 762 650 747
8 749 652 763 858 636 533 651 748
8 752 654 764 859 640 536 652 749
8 751 655 537 639 860 765 653 750
8 641 538 655 751 752 654 766 861
8 754 658 540 643 862 769 657 753
8 754 658 770 863 643 540 659 755
8 755 659 771 864 644 541 660 757
8 758 661 768 866 645 542 656 756
8 757 660 772 867 646 543 661 758
8 759 662 773 868 648 545 663 760
8 649 546 663 760 761 664 774 871
8 765 665 547 653 872 775 664 761
8 873 777 666 762 763 668 550 651
8 769 674 556 657 873 777 666 762
8 764 669 779 874 652 551 668 763
8 654 552 667 766 764 669 778 875
8 655 549 665 765 766 667 776 876
8 768 671 782 877 656 553 670 767
8 772 672 783 878 661 554 671 768
8 658 558 674 769 770 675 786 879
8 659 557 675 770 771 673 785 881
8 882 784 672 772 771 673 555 660
8 789 687 571 677 897 798 686 788
8 897 798 686 788 813 705 591 704
8 791 689 573 679 898 799 687 789
8 795 693 803 900 683 577 691 790
8 793 690 574 681 901 801 689 791
8 792 688 800 902 684 578 694 796
8 793 690 800 902 681 574 688 792
8 795 693 577 683 903 804 692 794
8 797 695 804 903 685 579 692 794
8 797 695 579 685 904 805 694 796
8 905 806 697 799 798 696 581 687
8 814 706 806 905 705 592 696 798
8 689 583 697 799 801 699 808 907
8 800 698 809 908 694 588 703 805
8 690 584 699 801 800 698 809 908
8 803 701 810 909 691 585 700 802
8 693 587 702 804 803 701 811 910
8 695 589 703 805 804 702 812 911
8 818 710 814 919 708 595 705 813
8 821 712 815 920 710 596 706 814
8 816 709 600 719 922 819 717 831
8 817 711 594 707 923 820 709 816
8 818 710 595 708 924 822 711 817
8 819 715 599 717 926 827 716 829
8 820 714 598 709 927 826 715 819
8 929 825 713 822 820 714 597 711
8 821 712 596 710 930 824 713 822
8 717 599 718 832 829 716 830 942
8 719 600 720 834 831 717 832 944
8 832 718 601 720 945 833 721 835
8 834 720 603 722 946 835 723 836
8 869 780 838 950 767 670 725 839
8 865 767 839 952 756 656 726 841
8 839 725 840 953 726 608 727 842
8 841 726 842 954 728 609 729 843
8 844 740 691 790 955 850 802 899
8 733 625 740 844 845 739 850 955
8 734 623 739 845 846 738 849 956
8 735 621 738 846 847 737 848 957
8 744 647 737 847 854 759 848 957
8 738 627 742 849 848 741 851 958
8 848 741 851 958 759 662 773 868
8 850 743 700 802 959 852 807 906
8 849 742 628 739 959 852 743 850
8 854 759 868 965 745 648 760 855
8 746 649 760 855 856 761 871 966
8 860 765 653 750 967 872 761 856
8 968 873 762 857 858 763 651 748
8 862 769 657 753 968 873 762 857
8 859 764 874 969 749 652 763 858
8 752 654 766 861 859 764 875 970
8 751 655 765 860 861 766 876 971
8 754 658 769 862 863 770 879 972
8 755 659 770 863 864 771 881 974
8 976 882 772 867 864 771 660 757
8 866 768 877 977 756 656 767 865
8 867 772 878 978 758 661 768 866
8 760 663 773 868 871 774 883 980
8 870 781 837 948 982 890 780 869
8 982 890 780 869 877 782 670 767
8 761 664 774 871 872 775 884 984
8 876 776 665 765 985 885 775 872
8 873 777 668 763 986 887 779 874
8 769 674 777 873 879 786 887 986
8 764 669 778 875 874 779 888 987
8 766 667 776 876 875 778 886 988
8 878 783 892 989 768 671 782 877
8 878 783 672 772 990 893 784 882
8 880 787 675 770 991 896 786 879
8 880 787 895 992 770 675 785 881
8 881 785 894 993 771 673 784 882
8 1006 905 799 898 897 798 687 789
8 919 814 905 1006 813 705 798 897
8 791 689 799 898 901 801 907 1007
8 900 803 909 1009 790 691 802 899
8 795 693 804 903 900 803 910 1010
8 902 800 908 1011 796 694 805 904
8 793 690 801 901 902 800 908 1011
8 797 695 805 904 903 804 911 1012
8 799 697 806 905 907 808 912 1013
8 920 815 912 1013 814 706 806 905
8 802 700 810 909 906 807 913 1014
8 801 699 808 907 908 809 914 1015
8 805 703 809 908 911 812 915 1016
8 803 701 811 910 909 810 916 1017
8 911 812 917 1018 804 702 811 910
8 925 821 920 1030 818 710 814 919
8 928 823 921 1031 821 712 815 920
8 922 819 717 831 1033 926 829 941
8 923 820 709 816 1034 927 819 922
8 1035 929 822 924 923 820 711 817
8 925 821 710 818 1036 930 822 924
8 1038 933 825 929 927 826 714 820
8 926 827 716 829 1039 935 828 939
8 927 826 715 819 1040 934 827 926
8 928 823 712 821 1041 931 824 930
8 1042 932 824 930 929 825 713 822
8 829 716 830 942 939 828 940 1058
8 831 717 832 944 941 829 942 1060
8 942 830 718 832 1061 943 833 945
8 944 832 720 834 1062 945 835 946
8 981 889 947 1064 870 781 837 948
8 948 837 949 1067 869 780 838 950
8 975 869 950 1069 865 767 839 952
8 950 838 951 1070 839 725 840 953
8 952 839 953 1071 841 726 842 954
8 955 850 802 899 1072 959 906 1008
8 956 849 739 845 1072 959 850 955
8 846 738 849 956 957 848 958 1073
8 957 848 958 1073 854 759 868 965
8 849 742 852 959 958 851 961 1076
8 960 853 961 1076 906 807 852 959
8 958 851 961 1076 868 773 883 980
8 960 853 807 906 1077 963 913 1014
8 855 760 868 965 966 871 980 1085
8 856 761 871 966 967 872 984 1086
8 971 876 765 860 1087 985 872 967
8 968 873 763 858 1088 986 874 969
8 862 769 873 968 972 879 986 1088
8 859 764 875 970 969 874 987 1089
8 861 766 876 971 970 875 988 1090
8 973 880 770 863 1091 991 879 972
8 973 880 992 1092 863 770 881 974
8 974 881 993 1093 864 771 882 976
8 979 870 948 1066 1094 982 869 975
8 1094 982 869 975 977 877 767 865
8 978 878 772 867 1095 990 882 976
8 978 878 989 1096 866 768 877 977
8 871 774 883 980 984 884 994 1099
8 983 891 999 1100 870 781 889 981
8 1101 1000 890 982 989 892 782 877
8 983 891 781 870 1101 1000 890 982
8 872 775 884 984 985 885 995 1103
8 876 776 885 985 988 886 996 1104
8 986 887 779 874 1105 998 888 987
8 879 786 887 986 991 896 998 1105
8 875 778 886 988 987 888 997 1106
8 990 893 1002 1107 878 783 892 989
8 1108 1003 893 990 993 894 784 882
8 880 787 896 991 992 895 1005 1109
8 993 894 785 881 1110 1004 895 992
8 898 799 905 1006 1007 907 1013 1120
8 1030 920 1013 1120 919 814 905 1006
8 901 801 907 1007 1011 908 1015 1121
8 899 802 909 1009 1008 906 1014 1122
8 900 803 910 1010 1009 909 1017 1123
8 1012 911 1018 1124 903 804 910 1010
8 904 805 908 1011 1012 911 1016 1125
8 1013 912 1020 1127 907 808 914 1015
8 1031 921 1020 1127 920 815 912 1013
8 1019 918 962 1075 1128 1021 913 1014
8 1128 1021 913 1014 1017 916 810 909
8 1015 914 1022 1129 908 809 915 1016
8 1016 915 1023 1130 911 812 917 1018
8 1018 917 1024 1131 910 811 916 1017
8 1037 928 1031 1148 925 821 920 1030
8 928 823 931 1041 1031 921 1032 1149
8 1033 926 829 941 1151 1039 939 1057
8 1034 927 819 922 1152 1040 926 1033
8 1153 1038 929 1035 1034 927 820 923
8 1154 1042 930 1036 1035 929 822 924
8 1037 928 821 925 1155 1041 930 1036
8 1039 935 828 939 1156 1047 938 1055
8 1157 1043 932 1042 1038 933 825 929
8 1038 933 826 927 1158 1045 934 1040
8 1040 934 827 926 1159 1046 935 1039
8 930 824 932 1042 1041 931 1044 1160
8 1051 936 1048 1165 1175 1052 937 1053
8 1156 1047 938 1055 1053 937 1054 1178
8 939 828 940 1058 1055 938 1056 1181
8 941 829 942 1060 1057 939 1058 1183
8 942 830 943 1061 1058 940 1059 1184
8 1060 942 832 944 1185 1061 945 1062
8 1082 964 1063 1188 981 889 947 1064
8 1097 981 1064 1190 979 870 948 1066
8 1064 947 1065 1191 948 837 949 1067
8 1066 948 1067 1193 975 869 950 1069
8 1067 949 1068 1194 950 838 951 1070
8 1069 950 1070 1195 952 839 953 1071
8 956 849 959 1072 1073 958 1076 1197
8 1074 960 1076 1197 1008 906 959 1072
8 1073 958 1076 1197 965 868 980 1085
8 1074 960 906 1008 1198 1077 1014 1122
8 1133 1026 1079 1199 1019 918 962 1075
8 1077 963 913 1014 1200 1080 962 1075
8 960 853 963 1077 1076 961 1078 1201
8 980 883 961 1076 1099 994 1078 1201
8 1210 1083 964 1082 1100 999 889 981
8 966 871 980 1085 1086 984 1099 1215
8 967 872 984 1086 1087 985 1103 1216
8 971 876 985 1087 1090 988 1104 1217
8 1088 986 874 969 1218 1105 987 1089
8 972 879 986 1088 1091 991 1105 1218
8 970 875 988 1090 1089 987 1106 1219
8 973 880 991 1091 1092 992 1109 1220
8 1093 993 881 974 1221 1110 992 1092
8 1222 1108 990 1095 1093 993 882 976
8 1223 1101 982 1094 1096 989 877 977
8 1098 983 870 979 1223 1101 982 1094
8 1095 990 1107 1224 978 878 989 1096
8 1098 983 1100 1225 979 870 981 1097
8 984 884 994 1099 1103 995 1111 1227
8 1102 1001 1115 1228 983 891 999 1100
8 1101 1000 892 989 1229 1116 1002 1107
8 1102 1001 891 983 1229 1116 1000 1101
8 985 885 995 1103 1104 996 1112 1230
8 988 886 996 1104 1106 997 1113 1231
8 1105 998 888 987 1232 1114 997 1106
8 991 896 998 1105 1109 1005 1114 1232
8 1108 1003 1117 1233 990 893 1002 1107
8 1108 1003 894 993 1233 1117 1004 1110
8 992 895 1005 1109 1110 1004 1118 1234
8 1120 1013 1127 1244 1007 907 1015 1121
8 1148 1031 1127 1244 1030 920 1013 1120
8 1121 1015 1129 1245 1011 908 1016 1125
8 1126 1019 1075 1196 1246 1128 1014 1122
8 1246 1128 1014 1122 1123 1017 909 1009
8 1124 1018 1131 1247 1010 910 1017 1123
8 1125 1016 1130 1248 1012 911 1018 1124
8 1127 1020 1137 1254 1015 914 1022 1129
8 1031 921 1032 1149 1127 1020 1137 1254
8 1134 1027 918 1019 1257 1140 1021 1128
8 1257 1140 1021 1128 1131 1024 916 1017
8 1129 1022 1141 1258 1016 915 1023 1130
8 1130 1023 1142 1259 1018 917 1024 1131
8 1261 1144 1025 1132 1133 1026 1079 1199
8 1255 1138 1025 1132 1135 1028 1144 1261
8 1133 1026 918 1019 1262 1145 1027 1134
8 1136 1029 1139 1256 1263 1146 1028 1135
8 1037 928 1041 1155 1148 1031 1149 1275
8 1041 931 1044 1160 1149 1032 1150 1276
8 1151 1039 939 1057 1278 1156 1055 1180
8 1152 1040 926 1033 1279 1159 1039 1151
8 1153 1038 927 1034 1280 1158 1040 1152
8 1281 1157 1042 1154 1153 1038 929 1035
8 1036 930 1042 1154 1155 1041 1160 1282
8 1283 1164 1046 1159 1156 1047 935 1039
8 1165 1048 1164 1283 1053 937 1047 1156
8 1157 1043 933 1038 1284 1161 1045 1158
8 1157 1043 1161 1284 1042 932 1044 1160
8 1040 934 1046 1159 1158 1045 1163 1285
8 1166 1049 1167 1292 1051 936 1048 1165
8 1166 1049 936 1051 1293 1168 1050 1172
8 1051 936 1052 1175 1172 1050 1173 1306
8 1174 1051 1165 1290 1308 1175 1053 1177
8 1053 937 1054 1178 1175 1052 1176 1309
8 1278 1156 1055 1180 1177 1053 1178 1311
8 1055 938 1056 1181 1178 1054 1179 1312
8 1057 939 1058 1183 1180 1055 1181 1314
8 1058 940 1059 1184 1181 1056 1182 1315
8 1060 942 1061 1185 1183 1058 1184 1316
8 1208 1081 1187 1321 1082 964 1063 1188
8 1209 1082 1188 1322 1097 981 1064 1190
8 1188 1063 1189 1323 1064 947 1065 1191
8 1190 1064 1191 1325 1066 948 1067 1193
8 1191 1065 1192 1326 1067 949 1068 1194
8 1067 1193 1069 950 1194 1327 1195 1070
8 1250 1133 1199 1330 1126 1019 1075 1196
8 1198 1077 1014 1122 1331 1200 1075 1196
8 1074 960 1077 1198 1197 1076 1201 1332
8 1085 980 1076 1197 1215 1099 1201 1332
8 1199 1079 1203 1333 1075 962 1080 1200
8 1132 1025 1119 1243 1199 1079 1203 1333
8 1201 1078 963 1077 1334 1202 1080 1200
8 1099 994 1078 1201 1227 1111 1202 1334
8 1343 1207 1081 1208 1210 1083 964 1082
8 1214 1084 1186 1319 1343 1207 1081 1208
8 1345 1210 1082 1209 1225 1100 981 1097
8 1346 1211 1083 1210 1228 1115 999 1100
8 1086 984 1099 1215 1216 1103 1227 1352
8 1087 985 1103 1216 1217 1104 1230 1353
8 1090 988 1104 1217 1219 1106 1231 1354
8 1218 1105 987 1089 1355 1232 1106 1219
8 1091 991 1105 1218 1220 1109 1232 1355
8 1092 992 1109 1220 1221 1110 1234 1356
8 1222 1108 1233 1357 1095 990 1107 1224
8 1222 1108 993 1093 1357 1233 1110 1221
8 1223 1101 989 1096 1358 1229 1107 1224
8 1226 1102 983 1098 1358 1229 1101 1223
8 1226 1102 1228 1359 1098 983 1100 1225
8 1103 995 1111 1227 1230 1112 1235 1360
8 1107 1002 1117 1233 1229 1116 1240 1362
8 1102 1001 1116 1229 1228 1115 1240 1362
8 1104 996 1112 1230 1231 1113 1236 1363
8 1364 1237 1114 1232 1231 1113 997 1106
8 1109 1005 1114 1232 1234 1118 1238 1365
8 1110 1004 1118 1234 1233 1117 1241 1366
8 1242 1374 1255 1138 1119 1243 1132 1025
8 1244 1127 1254 1376 1121 1015 1129 1245
8 1148 1031 1149 1275 1244 1127 1254 1376
8 1245 1129 1258 1377 1125 1016 1130 1248
8 1251 1134 1019 1126 1378 1257 1128 1246
8 1378 1257 1128 1246 1247 1131 1017 1123
8 1248 1130 1259 1379 1124 1018 1131 1247
8 1261 1381 1250 1133 1132 1249 1330 1199
8 1255 1380 1252 1135 1132 1249 1381 1261
8 1250 1133 1019 1126 1382 1262 1134 1251
8 1253 1136 1256 1385 1384 1263 1135 1252
8 1254 1137 1265 1387 1129 1022 1141 1258
8 1149 1032 1150 1276 1254 1137 1265 1387
8 1028 1135 1255 1138 1139 1256 1388 1266
8 1136 1029 1147 1264 1256 1139 1267 1389
8 1390 1268 1140 1257 1259 1142 1024 1131
8 1260 1143 1027 1134 1390 1268 1140 1257
8 1258 1141 1269 1391 1130 1023 1142 1259
8 1262 1145 1027 1134 1393 1271 1143 1260
8 1261 1144 1026 1133 1394 1272 1145 1262
8 1135 1028 1144 1261 1263 1146 1272 1394
8 1136 1029 1146 1263 1264 1147 1273 1395
8 1155 1041 1160 1282 1275 1149 1276 1405
8 1276 1150 1044 1160 1406 1277 1162 1286
8 1408 1283 1159 1279 1278 1156 1039 1151
8 1290 1165 1283 1408 1177 1053 1156 1278
8 1152 1040 1159 1279 1280 1158 1285 1409
8 1281 1157 1038 1153 1410 1284 1158 1280
8 1281 1157 1284 1410 1154 1042 1160 1282
8 1159 1046 1164 1283 1285 1163 1289 1412
8 1292 1167 1289 1412 1165 1048 1164 1283
8 1158 1045 1163 1285 1284 1161 1288 1413
8 1284 1161 1288 1413 1160 1044 1162 1286
8 1291 1166 1292 1418 1174 1051 1165 1290
8 1291 1166 1051 1174 1419 1293 1172 1305
8 1294 1169 1296 1421 1166 1049 1167 1292
8 1293 1168 1050 1172 1422 1295 1171 1303
8 1294 1169 1049 1166 1423 1297 1168 1293
8 1422 1295 1171 1303 1301 1170 1302 1435
8 1172 1050 1173 1306 1303 1171 1304 1438
8 1174 1051 1175 1308 1305 1172 1306 1440
8 1175 1052 1176 1309 1306 1173 1307 1441
8 1177 1053 1178 1311 1308 1175 1309 1443
8 1178 1054 1179 1312 1309 1176 1310 1444
8 1180 1055 1181 1314 1311 1178 1312 1446
8 1056 1181 1312 1179 1182 1315 1447 1313
8 1183 1058 1184 1316 1314 1181 1315 1448
8 1319 1186 1084 1214 1451 1317 1213 1350
8 1319 1186 1318 1453 1208 1081 1187 1321
8 1321 1187 1320 1456 1188 1063 1189 1323
8 1344 1208 1321 1457 1209 1082 1188 1322
8 1322 1188 1323 1458 1190 1064 1191 1325
8 1323 1189 1324 1459 1191 1065 1192 1326
8 1191 1325 1193 1067 1326 1460 1327 1194
8 1242 1374 1243 1119 1328 1462 1335 1204
8 1330 1199 1333 1465 1196 1075 1200 1331
8 1132 1249 1330 1199 1243 1375 1465 1333
8 1332 1201 1077 1198 1466 1334 1200 1331
8 1215 1099 1201 1332 1352 1227 1334 1466
8 1119 1243 1333 1203 1204 1335 1470 1338
8 1333 1203 1338 1470 1200 1080 1202 1334
8 1227 1111 1202 1334 1360 1235 1338 1470
8 1328 1462 1335 1204 1205 1336 1471 1339
8 1337 1206 1340 1472 1464 1329 1205 1336
8 1346 1211 1342 1479 1210 1083 1207 1343
8 1346 1211 1115 1228 1479 1342 1239 1361
8 1348 1212 1084 1214 1479 1342 1207 1343
8 1480 1343 1208 1344 1345 1210 1082 1209
8 1351 1214 1319 1454 1480 1343 1208 1344
8 1481 1346 1210 1345 1359 1228 1100 1225
8 1348 1212 1347 1483 1214 1084 1213 1350
8 1216 1103 1227 1352 1353 1230 1360 1488
8 1217 1104 1230 1353 1354 1231 1363 1489
8 1490 1364 1232 1355 1354 1231 1106 1219
8 1220 1109 1232 1355 1356 1234 1365 1491
8 1221 1110 1234 1356 1357 1233 1366 1492
8 1224 1107 1233 1357 1358 1229 1362 1493
8 1226 1102 1229 1358 1359 1228 1362 1493
8 1230 1112 1235 1360 1363 1236 1367 1496
8 1361 1239 1115 1228 1497 1371 1240 1362
8 1366 1241 1372 1498 1233 1117 1240 1362
8 1364 1237 1113 1231 1499 1368 1236 1363
8 1364 1237 1368 1499 1232 1114 1238 1365
8 1234 1118 1238 1365 1366 1241 1369 1500
8 1507 1373 1242 1374 1388 1266 1138 1255
8 1508 1374 1243 1375 1380 1255 1132 1249
8 1376 1254 1387 1509 1245 1129 1258 1377
8 1275 1149 1276 1405 1376 1254 1387 1509
8 1377 1258 1391 1510 1248 1130 1259 1379
8 1511 1390 1257 1378 1379 1259 1131 1247
8 1383 1260 1134 1251 1511 1390 1257 1378
8 1252 1135 1256 1385 1380 1255 1388 1512
8 1261 1381 1513 1394 1133 1250 1382 1262
8 1135 1252 1384 1263 1261 1381 1513 1394
8 1382 1262 1134 1251 1514 1393 1260 1383
8 1253 1136 1263 1384 1386 1264 1395 1516
8 1253 1136 1264 1386 1385 1256 1389 1517
8 1387 1265 1397 1519 1258 1141 1269 1391
8 1276 1150 1277 1406 1387 1265 1397 1519
8 1256 1139 1267 1389 1388 1266 1398 1520
8 1264 1147 1274 1396 1389 1267 1399 1521
8 1392 1270 1143 1260 1522 1400 1268 1390
8 1390 1268 1142 1259 1522 1400 1269 1391
8 1392 1270 1401 1523 1260 1143 1271 1393
8 1272 1394 1524 1402 1145 1262 1393 1271
8 1395 1273 1146 1263 1524 1402 1272 1394
8 1273 1395 1264 1147 1403 1526 1396 1274
8 1405 1276 1160 1282 1534 1406 1286 1411
8 1414 1287 1407 1535 1286 1162 1277 1406
8 1279 1159 1283 1408 1409 1285 1412 1537
8 1418 1292 1412 1537 1290 1165 1283 1408
8 1280 1158 1285 1409 1410 1284 1413 1538
8 1410 1284 1413 1538 1282 1160 1286 1411
8 1285 1163 1289 1412 1413 1288 1417 1540
8 1421 1296 1417 1540 1292 1167 1289 1412
8 1414 1287 1162 1286 1541 1416 1288 1413
8 1420 1294 1421 1545 1291 1166 1292 1418
8 1419 1293 1172 1305 1546 1422 1303 1437
8 1420 1294 1166 1291 1547 1423 1293 1419
8 1294 1169 1297 1423 1421 1296 1425 1548
8 1423 1297 1168 1293 1549 1424 1295 1422
8 1301 1170 1298 1427 1422 1295 1424 1549
8 1432 1300 1428 1554 1301 1170 1298 1427
8 1431 1299 1428 1554 1560 1430 1300 1432
8 1563 1433 1300 1432 1435 1302 1170 1301
8 1546 1422 1303 1437 1434 1301 1435 1565
8 1303 1171 1304 1438 1435 1302 1436 1566
8 1305 1172 1306 1440 1437 1303 1438 1568
8 1306 1173 1307 1441 1438 1304 1439 1569
8 1308 1175 1309 1443 1440 1306 1441 1571
8 1309 1176 1310 1444 1441 1307 1442 1572
8 1311 1178 1312 1446 1443 1309 1444 1574
8 1179 1312 1444 1310 1313 1447 1575 1445
8 1314 1181 1315 1448 1446 1312 1447 1576
8 1350 1213 1349 1486 1451 1317 1449 1579
8 1451 1317 1450 1581 1319 1186 1318 1453
8 1454 1319 1214 1351 1582 1451 1350 1487
8 1453 1318 1452 1584 1321 1187 1320 1456
8 1454 1319 1453 1585 1344 1208 1321 1457
8 1456 1320 1455 1586 1323 1189 1324 1459
8 1457 1321 1456 1587 1322 1188 1323 1458
8 1458 1323 1459 1588 1325 1191 1326 1460
8 1205 1336 1464 1329 1328 1462 1590 1461
8 1507 1373 1461 1590 1374 1242 1328 1462
8 1508 1374 1462 1591 1375 1243 1335 1467
8 1337 1206 1329 1464 1473 1341 1463 1594
8 1375 1243 1335 1467 1465 1333 1470 1596
8 1465 1333 1470 1596 1331 1200 1334 1466
8 1352 1227 1334 1466 1488 1360 1470 1596
8 1591 1462 1336 1468 1467 1335 1471 1597
8 1469 1337 1472 1598 1595 1464 1336 1468
8 1471 1339 1474 1600 1335 1204 1338 1470
8 1600 1474 1367 1496 1470 1338 1235 1360
8 1336 1205 1340 1472 1471 1339 1475 1601
8 1337 1206 1341 1473 1472 1340 1476 1602
8 1495 1370 1478 1609 1361 1239 1342 1479
8 1348 1212 1342 1479 1483 1347 1478 1609
8 1481 1346 1479 1610 1345 1210 1343 1480
8 1481 1346 1228 1359 1610 1479 1361 1494
8 1484 1348 1214 1351 1610 1479 1343 1480
8 1483 1347 1482 1612 1350 1213 1349 1486
8 1484 1348 1483 1613 1351 1214 1350 1487
8 1353 1230 1360 1488 1489 1363 1496 1616
8 1490 1364 1231 1354 1617 1499 1363 1489
8 1490 1364 1499 1617 1355 1232 1365 1491
8 1356 1234 1365 1491 1492 1366 1500 1619
8 1492 1366 1498 1620 1357 1233 1362 1493
8 1494 1361 1228 1359 1621 1497 1362 1493
8 1495 1370 1239 1361 1622 1504 1371 1497
8 1363 1236 1367 1496 1499 1368 1501 1623
8 1497 1371 1240 1362 1624 1505 1372 1498
8 1625 1503 1372 1498 1500 1369 1241 1366
8 1365 1238 1368 1499 1500 1369 1502 1626
8 1520 1398 1506 1633 1388 1266 1373 1507
8 1634 1507 1374 1508 1512 1388 1255 1380
8 1509 1387 1519 1635 1377 1258 1391 1510
8 1405 1276 1406 1534 1509 1387 1519 1635
8 1515 1392 1260 1383 1636 1522 1390 1511
8 1511 1390 1259 1379 1636 1522 1391 1510
8 1385 1256 1389 1517 1512 1388 1520 1637
8 1513 1394 1262 1382 1638 1524 1393 1514
8 1395 1516 1638 1524 1263 1384 1513 1394
8 1515 1392 1523 1639 1383 1260 1393 1514
8 1516 1395 1526 1640 1386 1264 1396 1518
8 1386 1264 1396 1518 1517 1389 1521 1641
8 1519 1397 1527 1643 1391 1269 1400 1522
8 1535 1407 1527 1643 1406 1277 1397 1519
8 1389 1267 1399 1521 1520 1398 1528 1644
8 1645 1529 1399 1521 1525 1404 1274 1396
8 1392 1270 1400 1522 1523 1401 1531 1646
8 1524 1402 1271 1393 1648 1532 1401 1523
8 1403 1526 1648 1532 1273 1395 1524 1402
8 1525 1404 1274 1396 1649 1533 1403 1526
8 1539 1414 1535 1657 1411 1286 1406 1534
8 1542 1415 1536 1658 1414 1287 1407 1535
8 1409 1285 1412 1537 1538 1413 1540 1660
8 1545 1421 1540 1660 1418 1292 1412 1537
8 1539 1414 1286 1411 1661 1541 1413 1538
8 1540 1417 1544 1663 1413 1288 1416 1541
8 1421 1296 1425 1548 1540 1417 1544 1663
8 1542 1415 1287 1414 1664 1543 1416 1541
8 1420 1294 1423 1547 1545 1421 1548 1666
8 1547 1423 1293 1419 1667 1549 1422 1546
8 1434 1301 1427 1553 1546 1422 1549 1667
8 1423 1297 1424 1549 1548 1425 1550 1668
8 1551 1426 1550 1668 1427 1298 1424 1549
8 1551 1426 1298 1427 1671 1552 1428 1554
8 1562 1432 1554 1674 1434 1301 1427 1553
8 1431 1299 1429 1558 1554 1428 1555 1675
8 1431 1299 1430 1560 1558 1429 1557 1680
8 1560 1430 1300 1432 1683 1559 1433 1563
8 1561 1431 1554 1674 1684 1560 1432 1562
8 1685 1563 1432 1562 1565 1435 1301 1434
8 1435 1302 1436 1566 1563 1433 1564 1686
8 1437 1303 1438 1568 1565 1435 1566 1688
8 1438 1304 1439 1569 1566 1436 1567 1689
8 1440 1306 1441 1571 1568 1438 1569 1691
8 1441 1307 1442 1572 1569 1439 1570 1692
8 1443 1309 1444 1574 1571 1441 1572 1694
8 1310 1444 1572 1442 1445 1575 1695 1573
8 1446 1312 1447 1576 1574 1444 1575 1696
8 1486 1349 1485 1614 1579 1449 1577 1699
8 1451 1317 1449 1579 1581 1450 1578 1701
8 1487 1350 1486 1615 1582 1451 1579 1702
8 1581 1450 1580 1704 1453 1318 1452 1584
8 1582 1451 1581 1705 1454 1319 1453 1585
8 1584 1452 1583 1706 1456 1320 1455 1586
8 1585 1453 1584 1707 1457 1321 1456 1587
8 1587 1456 1586 1708 1458 1323 1459 1588
8 1633 1506 1589 1710 1507 1373 1461 1590
8 1464 1329 1461 1590 1594 1463 1589 1710
8 1468 1336 1462 1591 1595 1464 1590 1711
8 1634 1507 1590 1711 1508 1374 1462 1591
8 1473 1341 1463 1594 1603 1477 1593 1716
8 1469 1337 1464 1595 1599 1473 1594 1717
8 1471 1597 1467 1335 1600 1718 1596 1470
8 1718 1600 1496 1616 1596 1470 1360 1488
8 1336 1468 1597 1471 1472 1598 1719 1601
8 1469 1337 1473 1599 1598 1472 1602 1720
8 1722 1604 1501 1623 1600 1474 1367 1496
8 1475 1601 1471 1339 1604 1722 1600 1474
8 1602 1476 1605 1723 1472 1340 1475 1601
8 1476 1602 1724 1606 1341 1473 1603 1477
8 1483 1347 1478 1609 1612 1482 1608 1731
8 1495 1370 1504 1622 1609 1478 1608 1731
8 1618 1495 1609 1732 1494 1361 1479 1610
8 1484 1348 1479 1610 1613 1483 1609 1732
8 1486 1349 1482 1612 1614 1485 1611 1733
8 1613 1483 1612 1734 1487 1350 1486 1615
8 1489 1363 1496 1616 1617 1499 1623 1736
8 1491 1365 1499 1617 1619 1500 1626 1737
8 1618 1495 1361 1494 1738 1622 1497 1621
8 1739 1625 1498 1620 1619 1500 1366 1492
8 1621 1497 1362 1493 1740 1624 1498 1620
8 1742 1631 1504 1622 1624 1505 1371 1497
8 1743 1628 1502 1626 1623 1501 1368 1499
8 1744 1630 1505 1624 1625 1503 1372 1498
8 1745 1629 1503 1625 1626 1502 1369 1500
8 1520 1398 1528 1644 1633 1506 1632 1751
8 1637 1520 1633 1752 1512 1388 1507 1634
8 1635 1519 1643 1753 1510 1391 1522 1636
8 1657 1535 1643 1753 1534 1406 1519 1635
8 1515 1392 1522 1636 1639 1523 1646 1754
8 1517 1389 1521 1641 1637 1520 1644 1755
8 1524 1638 1756 1648 1393 1514 1639 1523
8 1640 1526 1395 1516 1756 1648 1524 1638
8 1642 1525 1396 1518 1757 1649 1526 1640
8 1758 1645 1521 1641 1642 1525 1396 1518
8 1646 1531 1400 1522 1760 1650 1527 1643
8 1535 1407 1536 1658 1643 1527 1650 1760
8 1521 1399 1529 1645 1644 1528 1651 1761
8 1647 1530 1652 1762 1525 1404 1529 1645
8 1401 1523 1648 1532 1531 1646 1763 1655
8 1525 1404 1533 1649 1647 1530 1654 1765
8 1533 1649 1766 1656 1403 1526 1648 1532
8 1662 1542 1658 1774 1539 1414 1535 1657
8 1542 1415 1543 1664 1658 1536 1659 1775
8 1660 1540 1663 1777 1538 1413 1541 1661
8 1545 1421 1548 1666 1660 1540 1663 1777
8 1662 1542 1414 1539 1778 1664 1541 1661
8 1664 1543 1416 1541 1779 1665 1544 1663
8 1548 1425 1550 1668 1663 1544 1665 1779
8 1547 1423 1549 1667 1666 1548 1668 1781
8 1670 1551 1668 1781 1553 1427 1549 1667
8 1551 1426 1552 1671 1668 1550 1669 1782
8 1670 1551 1427 1553 1784 1671 1554 1674
8 1675 1555 1672 1785 1554 1428 1552 1671
8 1678 1556 1673 1789 1558 1429 1555 1675
8 1561 1431 1558 1681 1674 1554 1675 1790
8 1794 1677 1556 1678 1680 1557 1429 1558
8 1560 1430 1559 1683 1680 1557 1679 1797
8 1561 1431 1560 1684 1681 1558 1680 1798
8 1563 1433 1564 1686 1683 1559 1682 1800
8 1684 1560 1432 1562 1801 1683 1563 1685
8 1565 1435 1566 1688 1685 1563 1686 1802
8 1566 1436 1567 1689 1686 1564 1687 1803
8 1568 1438 1569 1691 1688 1566 1689 1805
8 1569 1439 1570 1692 1689 1567 1690 1806
8 1571 1441 1572 1694 1691 1569 1692 1808
8 1442 1572 1692 1570 1573 1695 1809 1693
8 1574 1444 1575 1696 1694 1572 1695 1810
8 1614 1485 1592 1712 1699 1577 1697 1813
8 1579 1449 1577 1699 1701 1578 1698 1815
8 1615 1486 1614 1735 1702 1579 1699 1816
8 1701 1578 1700 1818 1581 1450 1580 1704
8 1582 1451 1579 1702 1705 1581 1701 1819
8 1704 1580 1703 1820 1584 1452 1583 1706
8 1705 1581 1704 1821 1585 1453 1584 1707
8 1707 1584 1706 1822 1587 1456 1586 1708
8 1710 1589 1506 1633 1824 1709 1632 1751
8 1594 1463 1589 1710 1716 1593 1709 1824
8 1752 1633 1710 1825 1634 1507 1590 1711
8 1595 1464 1590 1711 1717 1594 1710 1825
8 1830 1714 1592 1712 1733 1611 1485 1614
8 1603 1477 1593 1716 1725 1607 1715 1834
8 1599 1473 1594 1717 1721 1603 1716 1835
8 1837 1722 1623 1736 1718 1600 1496 1616
8 1719 1601 1722 1837 1597 1471 1600 1718
8 1602 1720 1598 1472 1723 1838 1719 1601
8 1720 1602 1473 1599 1839 1724 1603 1721
8 1723 1605 1726 1840 1601 1475 1604 1722
8 1840 1726 1628 1743 1722 1604 1501 1623
8 1724 1606 1727 1841 1602 1476 1605 1723
8 1725 1607 1728 1842 1603 1477 1606 1724
8 1612 1482 1608 1731 1733 1611 1730 1849
8 1741 1627 1730 1849 1622 1504 1608 1731
8 1613 1483 1609 1732 1734 1612 1731 1850
8 1618 1495 1622 1738 1732 1609 1731 1850
8 1615 1486 1612 1734 1735 1614 1733 1851
8 1852 1743 1626 1737 1736 1623 1499 1617
8 1853 1745 1625 1739 1737 1626 1500 1619
8 1855 1742 1622 1738 1740 1624 1497 1621
8 1856 1744 1624 1740 1739 1625 1498 1620
8 1741 1627 1504 1622 1857 1746 1631 1742
8 1742 1631 1505 1624 1858 1749 1630 1744
8 1859 1747 1629 1745 1743 1628 1502 1626
8 1860 1748 1630 1744 1745 1629 1503 1625
8 1644 1528 1651 1761 1751 1632 1750 1865
8 1637 1520 1644 1755 1752 1633 1751 1866
8 1754 1646 1522 1636 1867 1760 1643 1753
8 1657 1535 1658 1774 1753 1643 1760 1867
8 1639 1523 1646 1754 1756 1648 1763 1868
8 1641 1521 1645 1758 1755 1644 1761 1869
8 1757 1649 1526 1640 1870 1766 1648 1756
8 1642 1525 1649 1757 1759 1647 1765 1871
8 1759 1647 1762 1872 1642 1525 1645 1758
8 1760 1650 1767 1874 1646 1531 1655 1763
8 1658 1536 1659 1775 1760 1650 1767 1874
8 1762 1652 1768 1875 1645 1529 1651 1761
8 1764 1653 1769 1876 1647 1530 1652 1762
8 1656 1766 1877 1773 1532 1648 1763 1655
8 1771 1879 1765 1654 1653 1764 1647 1530
8 1533 1649 1765 1654 1656 1766 1880 1772
8 1662 1542 1664 1778 1774 1658 1775 1887
8 1664 1543 1665 1779 1775 1659 1776 1888
8 1778 1664 1541 1661 1890 1779 1663 1777
8 1666 1548 1668 1781 1777 1663 1779 1890
8 1782 1669 1780 1891 1668 1550 1665 1779
8 1670 1551 1671 1784 1781 1668 1782 1893
8 1671 1552 1672 1785 1782 1669 1783 1894
8 1790 1675 1785 1896 1674 1554 1671 1784
8 1675 1555 1673 1789 1785 1672 1786 1897
8 1792 1676 1788 1903 1678 1556 1673 1789
8 1795 1678 1789 1904 1681 1558 1675 1790
8 1792 1676 1556 1678 1906 1791 1677 1794
8 1680 1557 1679 1797 1794 1677 1793 1909
8 1910 1794 1678 1795 1798 1680 1558 1681
8 1683 1559 1682 1800 1797 1679 1796 1912
8 1684 1560 1683 1801 1798 1680 1797 1913
8 1686 1564 1687 1803 1800 1682 1799 1915
8 1685 1563 1686 1802 1801 1683 1800 1916
8 1688 1566 1689 1805 1802 1686 1803 1917
8 1689 1567 1690 1806 1803 1687 1804 1918
8 1691 1569 1692 1808 1805 1689 1806 1920
8 1692 1570 1693 1809 1806 1690 1807 1921
8 1694 1572 1695 1810 1808 1692 1809 1922
8 1829 1713 1811 1926 1712 1592 1697 1813
8 1813 1697 1812 1928 1699 1577 1698 1815
8 1735 1614 1712 1828 1816 1699 1813 1929
8 1815 1698 1814 1931 1701 1578 1700 1818
8 1702 1579 1699 1816 1819 1701 1815 1932
8 1818 1700 1817 1933 1704 1580 1703 1820
8 1819 1701 1818 1934 1705 1581 1704 1821
8 1821 1704 1820 1935 1707 1584 1706 1822
8 1824 1709 1632 1751 1937 1823 1750 1865
8 1716 1593 1709 1824 1834 1715 1823 1937
8 1825 1710 1633 1752 1938 1824 1751 1866
8 1717 1594 1710 1825 1835 1716 1824 1938
8 1945 1830 1712 1828 1851 1733 1614 1735
8 1830 1714 1831 1946 1712 1592 1713 1829
8 1947 1832 1714 1830 1849 1730 1611 1733
8 1843 1729 1607 1725 1950 1833 1715 1834
8 1721 1603 1716 1835 1836 1725 1834 1951
8 1836 1725 1842 1953 1721 1603 1724 1839
8 1723 1838 1719 1601 1840 1954 1837 1722
8 1954 1840 1743 1852 1837 1722 1623 1736
8 1724 1839 1720 1602 1841 1955 1838 1723
8 1841 1727 1844 1956 1723 1605 1726 1840
8 1956 1844 1747 1859 1840 1726 1628 1743
8 1728 1842 1724 1606 1845 1957 1841 1727
8 1725 1607 1729 1843 1842 1728 1846 1958
8 1741 1627 1746 1857 1849 1730 1848 1965
8 1734 1612 1731 1850 1851 1733 1849 1966
8 1854 1741 1849 1966 1738 1622 1731 1850
8 1967 1859 1745 1853 1852 1743 1626 1737
8 1968 1860 1744 1856 1853 1745 1625 1739
8 1854 1741 1622 1738 1969 1857 1742 1855
8 1855 1742 1624 1740 1970 1858 1744 1856
8 1857 1746 1631 1742 1971 1861 1749 1858
8 1858 1749 1630 1744 1972 1863 1748 1860
8 1859 1747 1862 1973 1745 1629 1748 1860
8 1875 1768 1864 1977 1761 1651 1750 1865
8 1755 1644 1761 1869 1866 1751 1865 1978
8 1867 1760 1874 1979 1754 1646 1763 1868
8 1774 1658 1775 1887 1867 1760 1874 1979
8 1870 1766 1648 1756 1980 1877 1763 1868
8 1872 1762 1875 1981 1758 1645 1761 1869
8 1757 1649 1766 1870 1871 1765 1880 1982
8 1983 1879 1764 1873 1871 1765 1647 1759
8 1873 1764 1876 1984 1759 1647 1762 1872
8 1877 1773 1655 1763 1986 1881 1767 1874
8 1775 1659 1776 1888 1874 1767 1881 1986
8 1876 1769 1882 1987 1762 1652 1768 1875
8 1878 1770 1883 1988 1764 1653 1769 1876
8 1880 1772 1656 1766 1989 1886 1773 1877
8 1878 1770 1653 1764 1990 1884 1771 1879
8 1765 1654 1772 1880 1879 1771 1885 1991
8 1778 1664 1779 1890 1887 1775 1888 1997
8 1998 1889 1776 1888 1891 1780 1665 1779
8 1893 1782 1891 2000 1781 1668 1779 1890
8 1894 1783 1892 2001 1782 1669 1780 1891
8 1784 1671 1785 1896 1893 1782 1894 2003
8 1897 1786 1895 2004 1785 1672 1783 1894
8 1790 1675 1789 1904 1896 1785 1897 2006
8 1901 1787 1898 2007 1789 1673 1786 1897
8 1903 1788 1900 2013 1789 1673 1787 1901
8 1792 1676 1791 1906 1903 1788 1902 2016
8 1907 1792 1903 2017 1795 1678 1789 1904
8 1906 1791 1677 1794 2019 1905 1793 1909
8 1907 1792 1678 1795 2020 1906 1794 1910
8 1797 1679 1796 1912 1909 1793 1908 2022
8 1798 1680 1797 1913 1910 1794 1909 2023
8 1800 1682 1799 1915 1912 1796 1911 2025
8 1801 1683 1800 1916 1913 1797 1912 2026
8 1803 1687 1804 1918 1915 1799 1914 2028
8 1802 1686 1803 1917 1916 1800 1915 2029
8 1805 1689 1806 1920 1917 1803 1918 2030
8 1806 1690 1807 1921 1918 1804 1919 2031
8 1808 1692 1809 1922 1920 1806 1921 2032
8 1939 1826 1924 2037 1829 1713 1811 1926
8 1926 1811 1925 2039 1813 1697 1812 1928
8 1944 1829 1926 2040 1828 1712 1813 1929
8 1928 1812 1927 2042 1815 1698 1814 1931
8 1929 1813 1928 2043 1816 1699 1815 1932
8 1931 1814 1930 2044 1818 1700 1817 1933
8 1932 1815 1931 2045 1819 1701 1818 1934
8 1934 1818 1933 2046 1821 1704 1820 1935
8 2048 1936 1823 1937 1977 1864 1750 1865
8 1950 1833 1715 1834 2048 1936 1823 1937
8 1938 1824 1751 1866 2049 1937 1865 1978
8 1835 1716 1824 1938 1951 1834 1937 2049
8 1939 1826 1713 1829 2053 1942 1831 1946
8 1940 1827 1923 2035 2053 1942 1826 1939
8 1945 1830 1946 2058 1828 1712 1829 1944
8 2059 1947 1830 1945 1966 1849 1733 1851
8 1947 1832 1730 1849 2060 1948 1848 1965
8 1947 1832 1948 2060 1830 1714 1831 1946
8 1959 1847 1729 1843 2063 1949 1833 1950
8 1952 1843 1725 1836 2064 1950 1834 1951
8 1836 1725 1843 1952 1953 1842 1958 2066
8 1953 1842 1957 2067 1839 1724 1841 1955
8 1841 1955 1838 1723 1956 2068 1954 1840
8 2068 1956 1859 1967 1954 1840 1743 1852
8 1956 1844 1960 2069 1859 1747 1862 1973
8 1845 1957 1841 1727 1960 2069 1956 1844
8 1728 1842 1957 1845 1846 1958 2071 1961
8 1962 2072 1959 1847 1846 1958 1843 1729
8 1971 1861 1964 2077 1857 1746 1848 1965
8 1854 1741 1857 1969 1966 1849 1965 2078
8 1967 1859 1973 2079 1853 1745 1860 1968
8 1970 1858 1744 1856 2080 1972 1860 1968
8 1969 1857 1742 1855 2081 1971 1858 1970
8 1971 1861 1749 1858 2082 1974 1863 1972
8 1973 1862 1975 2083 1860 1748 1863 1972
8 1987 1882 1976 2086 1875 1768 1864 1977
8 1981 1875 1977 2087 1869 1761 1865 1978
8 1980 1877 1763 1868 2088 1986 1874 1979
8 1887 1775 1888 1997 1979 1874 1986 2088
8 1880 1982 2089 1989 1766 1870 1980 1877
8 1984 1876 1987 2090 1872 1762 1875 1981
8 1765 1871 1983 1879 1880 1982 2091 1991
8 1985 1878 1764 1873 2092 1990 1879 1983
8 1985 1878 1988 2093 1873 1764 1876 1984
8 2094 1992 1881 1986 1998 1889 1776 1888
8 1986 1881 1992 2094 1877 1773 1886 1989
8 1988 1883 1993 2095 1876 1769 1882 1987
8 1878 1770 1884 1990 1988 1883 1994 2096
8 1991 1885 1772 1880 2097 1996 1886 1989
8 1879 1771 1885 1991 1990 1884 1995 2098
8 2103 1998 1888 1997 2000 1891 1779 1890
8 2104 1999 1889 1998 2001 1892 1780 1891
8 2003 1894 2001 2106 1893 1782 1891 2000
8 2004 1895 2002 2107 1894 1783 1892 2001
8 2006 1897 2004 2109 1896 1785 1894 2003
8 2007 1898 2005 2110 1897 1786 1895 2004
8 2014 1901 2007 2112 1904 1789 1897 2006
8 2011 1899 2008 2113 1901 1787 1898 2007
8 2119 2010 1899 2011 2013 1900 1787 1901
8 2016 1902 2012 2122 1903 1788 1900 2013
8 2017 1903 2013 2123 1904 1789 1901 2014
8 1906 1791 1905 2019 2016 1902 2015 2125
8 1907 1792 1906 2020 2017 1903 2016 2126
8 1909 1793 1908 2022 2019 1905 2018 2128
8 2020 1906 1794 1910 2129 2019 1909 2023
8 1912 1796 1911 2025 2022 1908 2021 2131
8 1913 1797 1912 2026 2023 1909 2022 2132
8 1915 1799 1914 2028 2025 1911 2024 2134
8 1916 1800 1915 2029 2026 1912 2025 2135
8 1918 1804 1919 2031 2028 1914 2027 2136
8 1917 1803 1918 2030 2029 1915 2028 2137
8 1920 1806 1921 2032 2030 1918 2031 2138
8 1940 1827 1941 2054 2035 1923 2033 2140
8 2035 1923 2034 2143 1939 1826 1924 2037
8 2037 1924 2036 2146 1926 1811 1925 2039
8 2051 1939 2037 2147 1944 1829 1926 2040
8 2039 1925 2038 2149 1928 1812 1927 2042
8 2040 1926 2039 2150 1929 1813 1928 2043
8 2042 1927 2041 2151 1931 1814 1930 2044
8 2043 1928 2042 2152 1932 1815 1931 2045
8 2045 1931 2044 2153 1934 1818 1933 2046
8 2155 2047 1936 2048 2086 1976 1864 1977
8 2063 1949 1833 1950 2155 2047 1936 2048
8 2156 2048 1937 2049 2087 1977 1865 1978
8 2064 1950 1834 1951 2156 2048 1937 2049
8 2051 1939 1829 1944 2160 2053 1946 2058
8 2052 1940 2035 2144 2160 2053 1939 2051
8 2053 1942 1831 1946 2163 2057 1948 2060
8 2055 1943 1827 1940 2163 2057 1942 2053
8 2055 1943 2056 2164 1940 1827 1941 2054
8 2059 1947 1849 1966 2167 2060 1965 2078
8 2059 1947 2060 2167 1945 1830 1946 2058
8 2077 1964 2061 2168 1965 1848 1948 2060
8 2070 1963 1847 1959 2170 2062 1949 2063
8 2065 1959 1843 1952 2171 2063 1950 2064
8 2173 2072 1958 2066 2065 1959 1843 1952
8 1953 1842 1958 2066 2067 1957 2071 2174
8 2068 1956 2069 2175 1967 1859 1973 2079
8 2067 1957 2069 2175 1955 1841 1956 2068
8 1845 1957 2069 1960 1961 2071 2176 2073
8 2069 1960 2073 2176 1973 1862 1975 2083
8 2070 1963 2075 2177 1959 1847 1962 2072
8 1846 1958 2071 1961 1962 2072 2178 2074
8 2077 1964 1861 1971 2182 2076 1974 2082
8 2081 1971 2077 2183 1969 1857 1965 2078
8 2079 1973 2083 2184 1968 1860 1972 2080
8 2081 1971 1858 1970 2185 2082 1972 2080
8 2083 1975 2084 2186 1972 1863 1974 2082
8 2086 1976 1882 1987 2189 2085 1993 2095
8 2090 1987 2086 2190 1981 1875 1977 2087
8 2191 2094 1986 2088 2103 1998 1888 1997
8 2088 1986 2094 2191 1980 1877 1989 2089
8 1991 2091 2192 2097 1880 1982 2089 1989
8 2093 1988 2095 2193 1984 1876 1987 2090
8 1879 1983 2092 1990 1991 2091 2194 2098
8 1985 1878 1990 2092 2093 1988 2096 2195
8 2097 1996 1886 1989 2196 2099 1992 2094
8 2196 2099 1992 2094 2104 1999 1889 1998
8 1994 2096 1988 1883 2100 2197 2095 1993
8 2096 1994 1884 1990 2198 2101 1995 2098
8 1995 2098 2199 2102 1885 1991 2097 1996
8 2203 2104 1998 2103 2106 2001 1891 2000
8 2107 2002 2105 2204 2001 1892 1999 2104
8 2109 2004 2107 2206 2003 1894 2001 2106
8 2110 2005 2108 2207 2004 1895 2002 2107
8 2112 2007 2110 2209 2006 1897 2004 2109
8 2113 2008 2111 2210 2007 1898 2005 2110
8 2120 2011 2113 2212 2014 1901 2007 2112
8 2117 2009 2114 2213 2011 1899 2008 2113
8 2219 2116 2009 2117 2119 2010 1899 2011
8 2222 2118 2010 2119 2122 2012 1900 2013
8 2223 2119 2011 2120 2123 2013 1901 2014
8 2016 1902 2015 2125 2122 2012 2121 2225
8 2126 2016 2122 2226 2017 1903 2013 2123
8 2019 1905 2018 2128 2125 2015 2124 2228
8 2020 1906 2019 2129 2126 2016 2125 2229
8 2022 1908 2021 2131 2128 2018 2127 2231
8 2023 1909 2022 2132 2129 2019 2128 2232
8 2025 1911 2024 2134 2131 2021 2130 2234
8 2026 1912 2025 2135 2132 2022 2131 2235
8 1914 2028 2134 2024 2027 2136 2236 2133
8 2029 1915 2028 2137 2135 2025 2134 2237
8 2030 1918 2031 2138 2137 2028 2136 2238
8 2157 2050 2139 2240 2054 1941 2033 2140
8 2052 1940 2054 2161 2144 2035 2140 2242
8 2140 2033 2141 2243 2035 1923 2034 2143
8 2143 2034 2142 2246 2037 1924 2036 2146
8 2144 2035 2143 2247 2051 1939 2037 2147
8 2146 2036 2145 2249 2039 1925 2038 2149
8 2147 2037 2146 2250 2040 1926 2039 2150
8 2149 2038 2148 2251 2042 1927 2041 2151
8 2150 2039 2149 2252 2043 1928 2042 2152
8 2152 2042 2151 2253 2045 1931 2044 2153
8 2255 2154 2047 2155 2189 2085 1976 2086
8 2170 2062 1949 2063 2255 2154 2047 2155
8 2256 2155 2048 2156 2190 2086 1977 2087
8 2171 2063 1950 2064 2256 2155 2048 2156
8 2258 2159 2050 2157 2164 2056 1941 2054
8 2160 2053 1946 2058 2262 2163 2060 2167
8 2162 2055 1940 2052 2262 2163 2053 2160
8 2162 2055 2164 2263 2052 1940 2054 2161
8 2163 2057 1948 2060 2264 2165 2061 2168
8 2055 1943 2057 2163 2164 2056 2165 2264
8 2182 2076 2166 2268 2077 1964 2061 2168
8 2183 2077 2168 2269 2078 1965 2060 2167
8 2070 1963 2062 2170 2177 2075 2169 2271
8 2172 2070 1959 2065 2272 2170 2063 2171
8 2172 2070 2177 2273 2065 1959 2072 2173
8 2066 1958 2072 2173 2174 2071 2178 2274
8 2067 1957 2071 2174 2175 2069 2176 2275
8 2175 2069 2176 2275 2079 1973 2083 2184
8 2071 1961 2074 2178 2176 2073 2179 2276
8 2176 2073 2179 2276 2083 1975 2084 2186
8 2072 1962 2075 2177 2178 2074 2180 2277
8 2182 2076 1974 2082 2280 2181 2084 2186
8 2183 2077 1971 2081 2281 2182 2082 2185
8 2184 2083 2186 2282 2080 1972 2082 2185
8 2189 2085 1993 2095 2285 2188 2100 2197
8 2190 2086 1987 2090 2286 2189 2095 2193
8 2192 2097 1989 2089 2287 2196 2094 2191
8 2287 2196 2094 2191 2203 2104 1998 2103
8 2194 2098 1991 2091 2288 2199 2097 2192
8 2195 2096 2197 2289 2093 1988 2095 2193
8 2096 2195 2290 2198 1990 2092 2194 2098
8 2097 1996 2099 2196 2199 2102 2200 2291
8 2196 2099 1999 2104 2291 2200 2105 2204
8 2100 2197 2292 2201 1994 2096 2198 2101
8 1995 2098 2198 2101 2102 2199 2293 2202
8 2206 2107 2204 2296 2106 2001 2104 2203
8 2207 2108 2205 2297 2107 2002 2105 2204
8 2209 2110 2207 2299 2109 2004 2107 2206
8 2210 2111 2208 2300 2110 2005 2108 2207
8 2212 2113 2210 2302 2112 2007 2110 2209
8 2213 2114 2211 2303 2113 2008 2111 2210
8 2220 2117 2213 2305 2120 2011 2113 2212
8 2216 2115 2214 2306 2117 2009 2114 2213
8 2216 2115 2009 2117 2311 2217 2116 2219
8 2219 2116 2010 2119 2314 2218 2118 2222
8 2315 2219 2117 2220 2223 2119 2011 2120
8 2122 2012 2121 2225 2222 2118 2221 2317
8 2318 2222 2119 2223 2226 2122 2013 2123
8 2125 2015 2124 2228 2225 2121 2224 2320
8 2126 2016 2125 2229 2226 2122 2225 2321
8 2128 2018 2127 2231 2228 2124 2227 2323
8 2129 2019 2128 2232 2229 2125 2228 2324
8 2131 2021 2130 2234 2231 2127 2230 2326
8 2132 2022 2131 2235 2232 2128 2231 2327
8 2134 2024 2133 2236 2234 2130 2233 2328
8 2135 2025 2134 2237 2235 2131 2234 2329
8 2137 2028 2136 2238 2237 2134 2236 2330
8 2157 2050 2158 2259 2240 2139 2239 2332
8 2257 2157 2240 2334 2161 2054 2140 2242
8 2240 2139 2241 2335 2140 2033 2141 2243
8 2242 2140 2243 2337 2144 2035 2143 2247
8 2243 2141 2244 2338 2143 2034 2142 2246
8 2246 2142 2245 2341 2146 2036 2145 2249
8 2247 2143 2246 2342 2147 2037 2146 2250
8 2249 2145 2248 2343 2149 2038 2148 2251
8 2250 2146 2249 2344 2150 2039 2149 2252
8 2252 2149 2251 2345 2152 2042 2151 2253
8 2169 2271 2347 2254 2062 2170 2255 2154
8 2189 2085 2188 2285 2255 2154 2254 2347
8 2348 2255 2155 2256 2286 2189 2086 2190
8 2272 2170 2063 2171 2348 2255 2155 2256
8 2349 2258 2157 2257 2263 2164 2054 2161
8 2258 2159 2261 2351 2157 2050 2158 2259
8 2258 2159 2056 2164 2351 2261 2165 2264
8 2262 2163 2060 2167 2355 2264 2168 2269
8 2162 2055 2163 2262 2263 2164 2264 2355
8 2357 2266 2165 2264 2268 2166 2061 2168
8 2268 2166 2076 2182 2361 2267 2181 2280
8 2281 2182 2268 2362 2183 2077 2168 2269
8 2271 2169 2270 2364 2177 2075 2180 2277
8 2172 2070 2170 2272 2273 2177 2271 2365
8 2072 2173 2274 2178 2177 2273 2366 2277
8 2071 2174 2275 2176 2178 2274 2367 2276
8 2275 2176 2276 2367 2184 2083 2186 2282
8 2283 2187 2084 2186 2368 2278 2179 2276
8 2178 2074 2180 2277 2276 2179 2278 2368
8 2283 2187 2279 2370 2186 2084 2181 2280
8 2281 2182 2082 2185 2371 2280 2186 2282
8 2188 2285 2374 2284 2100 2197 2292 2201
8 2286 2189 2095 2193 2375 2285 2197 2289
8 2192 2097 2196 2287 2288 2199 2291 2376
8 2287 2196 2104 2203 2376 2291 2204 2296
8 2194 2098 2199 2288 2290 2198 2293 2377
8 2289 2197 2096 2195 2378 2292 2198 2290
8 2291 2200 2105 2204 2379 2294 2205 2297
8 2199 2102 2200 2291 2293 2202 2294 2379
8 2198 2101 2202 2293 2292 2201 2295 2380
8 2299 2207 2297 2383 2206 2107 2204 2296
8 2300 2208 2298 2384 2207 2108 2205 2297
8 2302 2210 2300 2386 2209 2110 2207 2299
8 2303 2211 2301 2387 2210 2111 2208 2300
8 2305 2213 2303 2389 2212 2113 2210 2302
8 2306 2214 2304 2390 2213 2114 2211 2303
8 2310 2216 2306 2392 2220 2117 2213 2305
8 2308 2215 2307 2393 2216 2115 2214 2306
8 2308 2215 2115 2216 2396 2309 2217 2311
8 2310 2216 2117 2220 2398 2311 2219 2315
8 2311 2217 2116 2219 2399 2312 2218 2314
8 2314 2218 2118 2222 2402 2313 2221 2317
8 2315 2219 2119 2223 2403 2314 2222 2318
8 2225 2121 2224 2320 2317 2221 2316 2405
8 2226 2122 2225 2321 2318 2222 2317 2406
8 2228 2124 2227 2323 2320 2224 2319 2408
8 2229 2125 2228 2324 2321 2225 2320 2409
8 2231 2127 2230 2326 2323 2227 2322 2411
8 2232 2128 2231 2327 2324 2228 2323 2412
8 2234 2130 2233 2328 2326 2230 2325 2413
8 2235 2131 2234 2329 2327 2231 2326 2414
8 2237 2134 2236 2330 2329 2234 2328 2415
8 2259 2158 2260 2352 2332 2239 2331 2417
8 2257 2157 2259 2350 2334 2240 2332 2419
8 2240 2139 2239 2332 2335 2241 2333 2420
8 2334 2240 2335 2422 2242 2140 2243 2337
8 2335 2241 2336 2423 2243 2141 2244 2338
8 2337 2243 2338 2425 2247 2143 2246 2342
8 2338 2244 2339 2426 2246 2142 2245 2341
8 2341 2245 2340 2428 2249 2145 2248 2343
8 2342 2246 2341 2429 2250 2146 2249 2344
8 2344 2249 2343 2430 2252 2149 2251 2345
8 2188 2285 2347 2254 2284 2374 2432 2346
8 2347 2254 2346 2432 2271 2169 2270 2364
8 2365 2271 2170 2272 2433 2347 2255 2348
8 2286 2189 2285 2375 2348 2255 2347 2433
8 2349 2258 2351 2435 2257 2157 2259 2350
8 2349 2258 2164 2263 2435 2351 2264 2355
8 2259 2158 2261 2351 2352 2260 2354 2437
8 2356 2265 2354 2437 2264 2165 2261 2351
8 2441 2357 2264 2355 2362 2268 2168 2269
8 2356 2265 2165 2264 2442 2358 2266 2357
8 2443 2359 2266 2357 2361 2267 2166 2268
8 2370 2279 2360 2446 2280 2181 2267 2361
8 2362 2268 2182 2281 2447 2361 2280 2371
8 2180 2277 2368 2278 2270 2364 2449 2363
8 2271 2365 2273 2177 2364 2450 2366 2277
8 2372 2283 2186 2282 2451 2368 2276 2367
8 2178 2274 2367 2276 2277 2366 2451 2368
8 2283 2187 2278 2368 2370 2279 2369 2452
8 2372 2283 2370 2453 2282 2186 2280 2371
8 2284 2374 2455 2373 2201 2292 2380 2295
8 2375 2285 2197 2289 2456 2374 2292 2378
8 2376 2291 2204 2296 2457 2379 2297 2383
8 2288 2199 2291 2376 2377 2293 2379 2457
8 2198 2290 2378 2292 2293 2377 2458 2380
8 2293 2202 2294 2379 2380 2295 2381 2459
8 2384 2298 2381 2459 2297 2205 2294 2379
8 2386 2300 2384 2463 2299 2207 2297 2383
8 2387 2301 2385 2464 2300 2208 2298 2384
8 2389 2303 2387 2466 2302 2210 2300 2386
8 2390 2304 2388 2467 2303 2211 2301 2387
8 2392 2306 2390 2469 2305 2213 2303 2389
8 2393 2307 2391 2470 2306 2214 2304 2390
8 2395 2308 2393 2472 2310 2216 2306 2392
8 2308 2215 2309 2396 2393 2307 2394 2473
8 2395 2308 2216 2310 2475 2396 2311 2398
8 2396 2309 2217 2311 2476 2397 2312 2399
8 2398 2311 2219 2315 2478 2399 2314 2403
8 2399 2312 2218 2314 2479 2400 2313 2402
8 2317 2221 2316 2405 2402 2313 2401 2482
8 2403 2314 2222 2318 2483 2402 2317 2406
8 2320 2224 2319 2408 2405 2316 2404 2485
8 2321 2225 2320 2409 2406 2317 2405 2486
8 2323 2227 2322 2411 2408 2319 2407 2488
8 2324 2228 2323 2412 2409 2320 2408 2489
8 2326 2230 2325 2413 2411 2322 2410 2490
8 2327 2231 2326 2414 2412 2323 2411 2491
8 2329 2234 2328 2415 2414 2326 2413 2492
8 2417 2331 2260 2352 2494 2416 2353 2438
8 2350 2259 2352 2436 2419 2332 2417 2496
8 2332 2239 2331 2417 2420 2333 2418 2497
8 2334 2240 2332 2419 2422 2335 2420 2499
8 2420 2333 2421 2500 2335 2241 2336 2423
8 2422 2335 2423 2502 2337 2243 2338 2425
8 2423 2336 2424 2503 2338 2244 2339 2426
8 2425 2338 2426 2505 2342 2246 2341 2429
8 2426 2339 2427 2506 2341 2245 2340 2428
8 2429 2341 2428 2507 2344 2249 2343 2430
8 2432 2346 2284 2374 2509 2431 2373 2455
8 2432 2346 2431 2509 2364 2270 2363 2449
8 2375 2285 2374 2456 2433 2347 2432 2510
8 2347 2433 2365 2271 2432 2510 2450 2364
8 2350 2259 2351 2435 2436 2352 2437 2514
8 2440 2356 2437 2514 2355 2264 2351 2435
8 2352 2260 2354 2437 2438 2353 2439 2516
8 2356 2265 2358 2442 2437 2354 2439 2516
8 2440 2356 2264 2355 2518 2442 2357 2441
8 2519 2443 2357 2441 2447 2361 2268 2362
8 2443 2359 2444 2520 2357 2266 2358 2442
8 2443 2359 2267 2361 2520 2444 2360 2446
8 2446 2360 2279 2370 2523 2445 2369 2452
8 2453 2370 2446 2524 2371 2280 2361 2447
8 2449 2363 2448 2525 2368 2278 2369 2452
8 2366 2277 2364 2450 2451 2368 2449 2526
8 2372 2283 2368 2451 2453 2370 2452 2527
8 2455 2373 2295 2380 2529 2454 2382 2460
8 2456 2374 2292 2378 2530 2455 2380 2458
8 2377 2293 2379 2457 2458 2380 2459 2531
8 2463 2384 2459 2531 2383 2297 2379 2457
8 2533 2461 2382 2460 2459 2381 2295 2380
8 2464 2385 2461 2533 2384 2298 2381 2459
8 2466 2387 2464 2537 2386 2300 2384 2463
8 2467 2388 2465 2538 2387 2301 2385 2464
8 2469 2390 2467 2540 2389 2303 2387 2466
8 2470 2391 2468 2541 2390 2304 2388 2467
8 2472 2393 2470 2543 2392 2306 2390 2469
8 2393 2307 2394 2473 2470 2391 2471 2544
8 2395 2308 2396 2475 2472 2393 2473 2546
8 2396 2309 2397 2476 2473 2394 2474 2547
8 2475 2396 2311 2398 2549 2476 2399 2478
8 2476 2397 2312 2399 2550 2477 2400 2479
8 2478 2399 2314 2403 2552 2479 2402 2483
8 2479 2400 2313 2402 2553 2480 2401 2482
8 2405 2316 2404 2485 2482 2401 2481 2556
8 2406 2317 2405 2486 2483 2402 2482 2557
8 2408 2319 2407 2488 2485 2404 2484 2559
8 2409 2320 2408 2489 2486 2405 2485 2560
8 2411 2322 2410 2490 2488 2407 2487 2561
8 2412 2323 2411 2491 2489 2408 2488 2562
8 2414 2326 2413 2492 2491 2411 2490 2563
8 2513 2434 2493 2565 2438 2353 2416 2494
8 2496 2417 2352 2436 2567 2494 2438 2515
8 2494 2416 2495 2568 2417 2331 2418 2497
8 2419 2332 2417 2496 2499 2420 2497 2570
8 2497 2418 2498 2571 2420 2333 2421 2500
8 2499 2420 2500 2573 2422 2335 2423 2502
8 2500 2421 2501 2574 2423 2336 2424 2503
8 2502 2423 2503 2576 2425 2338 2426 2505
8 2503 2424 2504 2577 2426 2339 2427 2506
8 2505 2426 2506 2578 2429 2341 2428 2507
8 2509 2431 2373 2455 2580 2508 2454 2529
8 2509 2431 2508 2580 2449 2363 2448 2525
8 2432 2510 2581 2509 2374 2456 2530 2455
8 2432 2510 2450 2364 2509 2581 2526 2449
8 2583 2511 2434 2513 2516 2439 2353 2438
8 2436 2352 2437 2514 2515 2438 2516 2588
8 2440 2356 2442 2518 2514 2437 2516 2588
8 2442 2358 2444 2520 2516 2439 2517 2589
8 2519 2443 2520 2591 2441 2357 2442 2518
8 2519 2443 2361 2447 2591 2520 2446 2524
8 2446 2360 2445 2523 2520 2444 2521 2592
8 2525 2448 2522 2593 2452 2369 2445 2523
8 2524 2446 2370 2453 2594 2523 2452 2527
8 2526 2449 2525 2595 2451 2368 2452 2527
8 2534 2462 2528 2597 2460 2382 2454 2529
8 2530 2455 2380 2458 2598 2529 2460 2532
8 2599 2533 2460 2532 2531 2459 2380 2458
8 2537 2464 2533 2599 2463 2384 2459 2531
8 2534 2462 2382 2460 2601 2535 2461 2533
8 2538 2465 2535 2601 2464 2385 2461 2533
8 2540 2467 2538 2604 2466 2387 2464 2537
8 2541 2468 2539 2605 2467 2388 2465 2538
8 2543 2470 2541 2607 2469 2390 2467 2540
8 2470 2391 2471 2544 2541 2468 2542 2608
8 2472 2393 2473 2546 2543 2470 2544 2610
8 2473 2394 2474 2547 2544 2471 2545 2611
8 2475 2396 2476 2549 2546 2473 2547 2613
8 2476 2397 2477 2550 2547 2474 2548 2614
8 2549 2476 2399 2478 2616 2550 2479 2552
8 2479 2400 2480 2553 2550 2477 2551 2617
8 2552 2479 2402 2483 2619 2553 2482 2557
8 2482 2401 2481 2556 2553 2480 2554 2620
8 2485 2404 2484 2559 2556 2481 2555 2623
8 2486 2405 2485 2560 2557 2482 2556 2624
8 2488 2407 2487 2561 2559 2484 2558 2625
8 2489 2408 2488 2562 2560 2485 2559 2626
8 2491 2411 2490 2563 2562 2488 2561 2627
8 2513 2434 2512 2585 2565 2493 2564 2630
8 2586 2513 2565 2632 2515 2438 2494 2567
8 2565 2493 2566 2633 2494 2416 2495 2568
8 2567 2494 2568 2635 2496 2417 2497 2570
8 2568 2495 2569 2636 2497 2418 2498 2571
8 2570 2497 2571 2638 2499 2420 2500 2573
8 2571 2498 2572 2639 2500 2421 2501 2574
8 2573 2500 2574 2641 2502 2423 2503 2576
8 2574 2501 2575 2642 2503 2424 2504 2577
8 2576 2503 2577 2643 2505 2426 2506 2578
8 2597 2528 2579 2645 2529 2454 2508 2580
8 2580 2508 2579 2645 2525 2448 2522 2593
8 2581 2509 2455 2530 2646 2580 2529 2598
8 2581 2509 2580 2646 2526 2449 2525 2595
8 2583 2511 2582 2648 2513 2434 2512 2585
8 2583 2511 2439 2516 2648 2582 2517 2589
8 2649 2583 2513 2586 2588 2516 2438 2515
8 2589 2517 2444 2520 2653 2587 2521 2592
8 2518 2442 2520 2591 2588 2516 2589 2654
8 2593 2522 2590 2655 2523 2445 2521 2592
8 2524 2446 2523 2594 2591 2520 2592 2656
8 2595 2525 2593 2657 2527 2452 2523 2594
8 2602 2536 2596 2659 2534 2462 2528 2597
8 2600 2534 2597 2660 2532 2460 2529 2598
8 2600 2534 2460 2532 2661 2601 2533 2599
8 2604 2538 2601 2661 2537 2464 2533 2599
8 2602 2536 2462 2534 2663 2603 2535 2601
8 2601 2535 2465 2538 2663 2603 2539 2605
8 2607 2541 2605 2665 2540 2467 2538 2604
8 2608 2542 2606 2666 2541 2468 2539 2605
8 2543 2470 2544 2610 2607 2541 2608 2668
8 2544 2471 2545 2611 2608 2542 2609 2669
8 2546 2473 2547 2613 2610 2544 2611 2671
8 2547 2474 2548 2614 2611 2545 2612 2672
8 2549 2476 2550 2616 2613 2547 2614 2674
8 2550 2477 2551 2617 2614 2548 2615 2675
8 2552 2479 2553 2619 2616 2550 2617 2677
8 2553 2480 2554 2620 2617 2551 2618 2678
8 2557 2482 2556 2624 2619 2553 2620 2680
8 2556 2481 2555 2623 2620 2554 2621 2681
8 2559 2484 2558 2625 2623 2555 2622 2683
8 2560 2485 2559 2626 2624 2556 2623 2684
8 2562 2488 2561 2627 2626 2559 2625 2685
8 2690 2629 2564 2630 2650 2584 2512 2585
8 2586 2513 2585 2651 2632 2565 2630 2691
8 2630 2564 2631 2692 2565 2493 2566 2633
8 2632 2565 2633 2694 2567 2494 2568 2635
8 2633 2566 2634 2695 2568 2495 2569 2636
8 2635 2568 2636 2697 2570 2497 2571 2638
8 2636 2569 2637 2698 2571 2498 2572 2639
8 2638 2571 2639 2700 2573 2500 2574 2641
8 2639 2572 2640 2701 2574 2501 2575 2642
8 2641 2574 2642 2702 2576 2503 2577 2643
8 2597 2528 2596 2659 2645 2579 2644 2704
8 2645 2579 2644 2704 2593 2522 2590 2655
8 2660 2597 2645 2705 2598 2529 2580 2646
8 2646 2580 2645 2705 2595 2525 2593 2657
8 2650 2584 2512 2585 2707 2647 2582 2648
8 2648 2582 2517 2589 2707 2647 2587 2653
8 2649 2583 2648 2708 2586 2513 2585 2651
8 2649 2583 2516 2588 2708 2648 2589 2654
8 2655 2590 2652 2710 2592 2521 2587 2653
8 2654 2589 2520 2591 2711 2653 2592 2656
8 2657 2593 2655 2712 2594 2523 2592 2656
8 2602 2536 2603 2663 2659 2596 2658 2714
8 2662 2602 2659 2715 2600 2534 2597 2660
8 2662 2602 2534 2600 2717 2663 2601 2661
8 2661 2601 2538 2604 2717 2663 2605 2665
8 2666 2606 2664 2718 2605 2539 2603 2663
8 2668 2608 2666 2720 2607 2541 2605 2665
8 2608 2542 2609 2669 2666 2606 2667 2721
8 2610 2544 2611 2671 2668 2608 2669 2723
8 2611 2545 2612 2672 2669 2609 2670 2724
8 2613 2547 2614 2674 2671 2611 2672 2726
8 2614 2548 2615 2675 2672 2612 2673 2727
8 2616 2550 2617 2677 2674 2614 2675 2729
8 2617 2551 2618 2678 2675 2615 2676 2730
8 2619 2553 2620 2680 2677 2617 2678 2732
8 2620 2554 2621 2681 2678 2618 2679 2733
8 2624 2556 2623 2684 2680 2620 2681 2735
8 2681 2621 2555 2623 2736 2682 2622 2683
8 2626 2559 2625 2685 2684 2623 2683 2737
8 2688 2628 2584 2650 2740 2686 2647 2707
8 2688 2628 2687 2742 2650 2584 2629 2690
8 2690 2629 2689 2745 2630 2564 2631 2692
8 2746 2690 2630 2691 2709 2650 2585 2651
8 2691 2630 2692 2747 2632 2565 2633 2694
8 2692 2631 2693 2748 2633 2566 2634 2695
8 2694 2633 2695 2750 2635 2568 2636 2697
8 2695 2634 2696 2751 2636 2569 2637 2698
8 2697 2636 2698 2753 2638 2571 2639 2700
8 2698 2637 2699 2754 2639 2572 2640 2701
8 2700 2639 2701 2755 2641 2574 2642 2702
8 2659 2596 2658 2714 2704 2644 2703 2757
8 2704 2644 2703 2757 2655 2590 2652 2710
8 2660 2597 2659 2715 2705 2645 2704 2758
8 2705 2645 2704 2758 2657 2593 2655 2712
8 2759 2706 2647 2707 2710 2652 2587 2653
8 2709 2650 2585 2651 2760 2707 2648 2708
8 2708 2648 2589 2654 2760 2707 2653 2711
8 2712 2655 2710 2761 2656 2592 2653 2711
8 2763 2713 2658 2714 2718 2664 2603 2663
8 2662 2602 2663 2717 2715 2659 2714 2764
8 2720 2666 2718 2767 2665 2605 2663 2717
8 2768 2719 2664 2718 2721 2667 2606 2666
8 2668 2608 2669 2723 2720 2666 2721 2770
8 2669 2609 2670 2724 2721 2667 2722 2771
8 2671 2611 2672 2726 2723 2669 2724 2773
8 2672 2612 2673 2727 2724 2670 2725 2774
8 2674 2614 2675 2729 2726 2672 2727 2776
8 2675 2615 2676 2730 2727 2673 2728 2777
8 2677 2617 2678 2732 2729 2675 2730 2779
8 2678 2618 2679 2733 2730 2676 2731 2780
8 2680 2620 2681 2735 2732 2678 2733 2782
8 2733 2679 2621 2681 2783 2734 2682 2736
8 2735 2681 2623 2684 2784 2736 2683 2737
8 2740 2686 2647 2707 2787 2738 2706 2759
8 2688 2628 2686 2740 2742 2687 2739 2789
8 2743 2688 2650 2709 2790 2740 2707 2760
8 2742 2687 2741 2792 2690 2629 2689 2745
8 2743 2688 2742 2793 2709 2650 2690 2746
8 2745 2689 2744 2795 2692 2631 2693 2748
8 2746 2690 2745 2796 2691 2630 2692 2747
8 2747 2692 2748 2797 2694 2633 2695 2750
8 2748 2693 2749 2798 2695 2634 2696 2751
8 2750 2695 2751 2800 2697 2636 2698 2753
8 2751 2696 2752 2801 2698 2637 2699 2754
8 2753 2698 2754 2802 2700 2639 2701 2755
8 2763 2713 2756 2804 2714 2658 2703 2757
8 2759 2706 2652 2710 2804 2756 2703 2757
8 2715 2659 2714 2764 2758 2704 2757 2805
8 2758 2704 2757 2805 2712 2655 2710 2761
8 2806 2759 2707 2760 2761 2710 2653 2711
8 2765 2716 2762 2808 2718 2664 2713 2763
8 2809 2763 2714 2764 2767 2718 2663 2717
8 2765 2716 2664 2718 2811 2766 2719 2768
8 2813 2768 2718 2767 2770 2721 2666 2720
8 2814 2769 2719 2768 2771 2722 2667 2721
8 2723 2669 2724 2773 2770 2721 2771 2816
8 2724 2670 2725 2774 2771 2722 2772 2817
8 2726 2672 2727 2776 2773 2724 2774 2819
8 2727 2673 2728 2777 2774 2725 2775 2820
8 2729 2675 2730 2779 2776 2727 2777 2822
8 2730 2676 2731 2780 2777 2728 2778 2823
8 2732 2678 2733 2782 2779 2730 2780 2825
8 2780 2731 2679 2733 2826 2781 2734 2783
8 2782 2733 2681 2735 2827 2783 2736 2784
8 2830 2785 2738 2787 2804 2756 2706 2759
8 2789 2739 2686 2740 2832 2786 2738 2787
8 2790 2740 2707 2760 2833 2787 2759 2806
8 2742 2687 2739 2789 2792 2741 2788 2835
8 2743 2688 2740 2790 2793 2742 2789 2836
8 2792 2741 2791 2838 2745 2689 2744 2795
8 2793 2742 2792 2839 2746 2690 2745 2796
8 2795 2744 2794 2841 2748 2693 2749 2798
8 2796 2745 2795 2842 2747 2692 2748 2797
8 2797 2748 2798 2843 2750 2695 2751 2800
8 2798 2749 2799 2844 2751 2696 2752 2801
8 2800 2751 2801 2845 2753 2698 2754 2802
8 2808 2762 2803 2847 2763 2713 2756 2804
8 2809 2763 2804 2848 2764 2714 2757 2805
8 2806 2759 2710 2761 2848 2804 2757 2805
8 2765 2716 2766 2811 2808 2762 2807 2850
8 2810 2765 2808 2851 2767 2718 2763 2809
8 2810 2765 2718 2767 2852 2811 2768 2813
8 2811 2766 2719 2768 2853 2812 2769 2814
8 2855 2814 2768 2813 2816 2771 2721 2770
8 2856 2815 2769 2814 2817 2772 2722 2771
8 2773 2724 2774 2819 2816 2771 2817 2858
8 2774 2725 2775 2820 2817 2772 2818 2859
8 2776 2727 2777 2822 2819 2774 2820 2861
8 2777 2728 2778 2823 2820 2775 2821 2862
8 2779 2730 2780 2825 2822 2777 2823 2864
8 2823 2778 2731 2780 2865 2824 2781 2826
8 2825 2780 2733 2782 2866 2826 2783 2827
8 2869 2828 2785 2830 2847 2803 2756 2804
8 2871 2829 2786 2832 2830 2785 2738 2787
8 2872 2830 2787 2833 2848 2804 2759 2806
8 2789 2739 2786 2832 2835 2788 2831 2874
8 2836 2789 2740 2790 2875 2832 2787 2833
8 2792 2741 2788 2835 2838 2791 2834 2877
8 2793 2742 2789 2836 2839 2792 2835 2878
8 2838 2791 2837 2880 2795 2744 2794 2841
8 2839 2792 2838 2881 2796 2745 2795 2842
8 2841 2794 2840 2882 2798 2749 2799 2844
8 2842 2795 2841 2883 2797 2748 2798 2843
8 2843 2798 2844 2884 2800 2751 2801 2845
8 2886 2846 2803 2847 2850 2807 2762 2808
8 2851 2808 2847 2887 2809 2763 2804 2848
8 2850 2807 2766 2811 2889 2849 2812 2853
8 2810 2765 2811 2852 2851 2808 2850 2890
8 2852 2811 2768 2813 2891 2853 2814 2855
8 2853 2812 2769 2814 2892 2854 2815 2856
8 2894 2856 2814 2855 2858 2817 2771 2816
8 2817 2772 2818 2859 2856 2815 2857 2895
8 2819 2774 2820 2861 2858 2817 2859 2897
8 2820 2775 2821 2862 2859 2818 2860 2898
8 2822 2777 2823 2864 2861 2820 2862 2900
8 2823 2778 2824 2865 2862 2821 2863 2901
8 2864 2823 2780 2825 2902 2865 2826 2866
8 2904 2867 2828 2869 2886 2846 2803 2847
8 2869 2828 2868 2906 2830 2785 2829 2871
8 2907 2869 2830 2872 2887 2847 2804 2848
8 2871 2829 2870 2909 2832 2786 2831 2874
8 2910 2871 2832 2875 2872 2830 2787 2833
8 2835 2788 2831 2874 2877 2834 2873 2912
8 2836 2789 2832 2875 2878 2835 2874 2913
8 2877 2834 2876 2915 2838 2791 2837 2880
8 2839 2792 2835 2878 2881 2838 2877 2916
8 2880 2837 2879 2917 2841 2794 2840 2882
8 2881 2838 2880 2918 2842 2795 2841 2883
8 2883 2841 2882 2919 2843 2798 2844 2884
8 2921 2885 2846 2886 2889 2849 2807 2850
8 2922 2886 2847 2887 2890 2850 2808 2851
8 2889 2849 2812 2853 2924 2888 2854 2892
8 2890 2850 2811 2852 2925 2889 2853 2891
8 2891 2853 2814 2855 2926 2892 2856 2894
8 2892 2854 2815 2856 2927 2893 2857 2895
8 2858 2817 2859 2897 2894 2856 2895 2929
8 2859 2818 2860 2898 2895 2857 2896 2930
8 2861 2820 2862 2900 2897 2859 2898 2932
8 2862 2821 2863 2901 2898 2860 2899 2933
8 2864 2823 2865 2902 2900 2862 2901 2934
8 2904 2867 2846 2886 2936 2903 2885 2921
8 2904 2867 2903 2936 2869 2828 2868 2906
8 2937 2904 2869 2907 2922 2886 2847 2887
8 2906 2868 2905 2939 2871 2829 2870 2909
8 2907 2869 2906 2940 2872 2830 2871 2910
8 2909 2870 2908 2942 2874 2831 2873 2912
8 2910 2871 2909 2943 2875 2832 2874 2913
8 2912 2873 2911 2945 2877 2834 2876 2915
8 2878 2835 2874 2913 2916 2877 2912 2946
8 2915 2876 2914 2947 2880 2837 2879 2917
8 2916 2877 2915 2948 2881 2838 2880 2918
8 2918 2880 2917 2949 2883 2841 2882 2919
8 2921 2885 2849 2889 2951 2920 2888 2924
8 2952 2921 2886 2922 2925 2889 2850 2890
8 2924 2888 2854 2892 2954 2923 2893 2927
8 2925 2889 2853 2891 2955 2924 2892 2926
8 2926 2892 2856 2894 2956 2927 2895 2929
8 2895 2857 2896 2930 2927 2893 2928 2957
8 2897 2859 2898 2932 2929 2895 2930 2959
8 2898 2860 2899 2933 2930 2896 2931 2960
8 2900 2862 2901 2934 2932 2898 2933 2961
8 2936 2903 2885 2921 2963 2935 2920 2951
8 2936 2903 2935 2963 2906 2868 2905 2939
8 2937 2904 2886 2922 2964 2936 2921 2952
8 2937 2904 2936 2964 2907 2869 2906 2940
8 2939 2905 2938 2966 2909 2870 2908 2942
8 2940 2906 2939 2967 2910 2871 2909 2943
8 2942 2908 2941 2969 2912 2873 2911 2945
8 2943 2909 2942 2970 2913 2874 2912 2946
8 2945 2911 2944 2971 2915 2876 2914 2947
8 2946 2912 2945 2972 2916 2877 2915 2948
8 2948 2915 2947 2973 2918 2880 2917 2949
8 2951 2920 2888 2924 2975 2950 2923 2954
8 2952 2921 2889 2925 2976 2951 2924 2955
8 2927 2893 2928 2957 2954 2923 2953 2978
8 2955 2924 2892 2926 2979 2954 2927 2956
8 2929 2895 2930 2959 2956 2927 2957 2980
8 2930 2896 2931 2960 2957 2928 2958 2981
8 2932 2898 2933 2961 2959 2930 2960 2982
8 2951 2920 2950 2975 2963 2935 2962 2984
8 2963 2935 2962 2984 2939 2905 2938 2966
8 2964 2936 2921 2952 2985 2963 2951 2976
8 2964 2936 2963 2985 2940 2906 2939 2967
8 2966 2938 2965 2987 2942 2908 2941 2969
8 2967 2939 2966 2988 2943 2909 2942 2970
8 2969 2941 2968 2989 2945 2911 2944 2971
8 2970 2942 2969 2990 2946 2912 2945 2972
8 2972 2945 2971 2991 2948 2915 2947 2973
8 2954 2923 2953 2978 2975 2950 2974 2993
8 2976 2951 2924 2955 2994 2975 2954 2979
8 2957 2928 2958 2981 2978 2953 2977 2995
8 2956 2927 2957 2980 2979 2954 2978 2996
8 2959 2930 2960 2982 2980 2957 2981 2997
8 2984 2962 2983 2999 2966 2938 2965 2987
8 2975 2950 2974 2993 2984 2962 2983 2999
8 2976 2951 2975 2994 2985 2963 2984 3000
8 2985 2963 2984 3000 2967 2939 2966 2988
8 2987 2965 2986 3001 2969 2941 2968 2989
8 2988 2966 2987 3002 2970 2942 2969 2990
8 2990 2969 2989 3003 2972 2945 2971 2991
8 2978 2953 2977 2995 2993 2974 2992 3004
8 2979 2954 2978 2996 2994 2975 2993 3005
8 2980 2957 2981 2997 2996 2978 2995 3006
8 2974 2993 2999 2983 2992 3004 3007 2998
8 2983 2999 2987 2965 2998 3007 3001 2986
8 3000 2984 2999 3008 2988 2966 2987 3002
8 2994 2975 2993 3005 3000 2984 2999 3008
8 3002 2987 3001 3009 2990 2969 2989 3003
8 2996 2978 2995 3006 3005 2993 3004 3010
8 3005 2993 3004 3010 3008 2999 3007 3011
8 3008 2999 3007 3011 3002 2987 3001 3009

CELL_TYPES 1910
12
12
12
12
12
12
12
12
12
12
12
12
12
12
12
12
12
12
12
12
12
12
12
12
12
12
12
12
12
12
12
12
12
12
12
12
12
12
12
12
12
12
12
12
12
12
12
12
12
12
12
12
12
12
12
12
12
12
12
12
12
12
12
12
12
12
12
12
12
12
12
12
12
12
12
12
12
12
12
12
12
12
12
12
12
12
12
12
12
12
12
12
12
12
12
12
12
12
12
12
12
12
12
12
12
12
12
12
12
12
12
12
12
12
12
12
12
12
12
12
12
12
12
12
12
12
12
12
12
12
12
12
12
12
12
12
12
12
12
12
12
12
12
12
12
12
12
12
12
12
12
12
12
12
12
12
12
12
12
12
12
12
12
12
12
12
12
12
12
12
12
12
12
12
12
12
12
12
12
12
12
12
12
12
12
12
12
12
12
12
12
12
12
12
12
12
12
12
12
12
12
12
12
12
12
12
12
12
12
12
12
12
12
12
12
12
12
12
12
12
12
12
12
12
12
12
12
12
12
12
12
12
12
12
12
12
12
12
12
12
12
12
12
12
12
12
12
12
12
12
12
12
12
12
12
12
12
12
12
12
12
12
12
12
12
12
12
12
12
12
12
12
12
12
12
12
12
12
12
12
12
12
12
12
12
12
12
12
12
12
12
12
12
12
12
12
12
12
12
12
12
12
12
12
12
12
12
12
12
12
12
12
12
12
12
12
12
12
12
12
12
12
12
12
12
12
12
12
12
12
12
12
12
12
12
12
12
12
12
12
12
12
12
12
12
12
12
12
12
12
12
12
12
12
12
12
12
12
12
12
12
12
12
12
12
12
12
12
12
12
12
12
12
12
12
12
12
12
12
12
12
12
12
12
12
12
12
12
12
12
12
12
12
12
12
12
12
12
12
12
12
12
12
12
12
12
12
12
12
12
12
12
12
12
12
12
12
12
12
12
12
12
12
12
12
12
12
12
12
12
12
12
12
12
12
12
12
12
12
12
12
12
12
12
12
12
12
12
12
12
12
12
12
12
12
12
12
12
12
12
12
12
12
12
12
12
12
12
12
12
12
12
12
12
12
12
12
12
12
12
12
12
12
12
12
12
12
12
12
12
12
12
12
12
12
12
12
12
12
12
12
12
12
12
12
12
12
12
12
12
12
12
12
12
12
12
12
12
12
12
12
12
12
12
12
12
12
12
12
12
12
12
12
12
12
12
12
12
12
12
12
12
12
12
12
12
12
12
12
12
12
12
12
12
12
12
12
12
12
12
12
12
12
12
12
12
12
12
12
12
12
12
12
12
12
12
12
12
12
12
12
12
12
12
12
12
12
12
12
12
12
12
12
12
12
12
12
12
12
12
12
12
12
12
12
12
12
12
12
12
12
12
12
12
12
12
12
12
12
12
12
12
12
12
12
12
12
12
12
12
12
12
12
12
12
12
12
12
12
12
12
12
12
12
12
12
12
12
12
12
12
12
12
12
12
12
12
12
12
12
12
12
12
12
12
12
12
12
12
12
12
12
12
12
12
12
12
12
12
12
12
12
12
12
12
12
12
12
12
12
12
12
12
12
12
12
12
12
12
12
12
12
12
12
12
12
12
12
12
12
12
12
12
12
12
12
12
12
12
12
12
12
12
12
12
12
12
12
12
12
12
12
12
12
12
12
12
12
12
12
12
12
12
12
12
12
12
12
12
12
12
12
12
12
12
12
12
12
12
12
12
12
12
12
12
12
12
12
12
12
12
12
12
12
12
12
12
12
12
12
12
12
12
12
12
12
12
12
12
12
12
12
12
12
12
12
12
12
12
12
12
12
12
12
12
12
12
12
12
12
12
12
12
12
12
12
12
12
12
12
12
12
12
12
12
12
12
12
12
12
12
12
12
12
12
12
12
12
12
12
12
12
12
12
12
12
12
12
12
12
12
12
12
12
12
12
12
12
12
12
12
12
12
12
12
12
12
12
12
12
12
12
12
12
12
12
12
12
12
12
12
12
12
12
12
12
12
12
12
12
12
12
12
12
12
12
12
12
12
12
12
12
12
12
12
12
12
12
12
12
12
12
12
12
12
12
12
12
12
12
12
12
12
12
12
12
12
12
12
12
12
12
12
12
12
12
12
12
12
12
12
12
12
12
12
12
12
12
12
12
12
12
12
12
12
12
12
12
12
12
12
12
12
12
12
12
12
12
12
12
12
12
12
12
12
12
12
12
12
12
12
12
12
12
12
12
12
12
12
12
12
12
12
12
12
12
12
12
12
12
12
12
12
12
12
12
12
12
12
12
12
12
12
12
12
12
12
12
12
12
12
12
12
12
12
12
12
12
12
12
12
12
12
12
12
12
12
12
12
12
12
12
12
12
12
12
12
12
12
12
12
12
12
12
12
12
12
12
12
12
12
12
12
12
12
12
12
12
12
12
12
12
12
12
12
12
12
12
12
12
12
12
12
12
12
12
12
12
12
12
12
12
12
12
12
12
12
12
12
12
12
12
12
12
12
12
12
12
12
12
12
12
12
12
12
12
12
12
12
12
12
12
12
12
12
12
12
12
12
12
12
12
12
12
12
12
12
12
12
12
12
12
12
12
12
12
12
12
12
12
12
12
12
12
12
12
12
12
12
12
12
12
12
12
12
12
12
12
12
12
12
12
12
12
12
12
12
12
12
12
12
12
12
12
12
12
12
12
12
12
12
12
12
12
12
12
12
12
12
12
12
12
12
12
12
12
12
12
12
12
12
12
12
12
12
12
12
12
12
12
12
12
12
12
12
12
12
12
12
12
12
12
12
12
12
12
12
12
12
12
12
12
12
12
12
12
12
12
12
12
12
12
12
12
12
12
12
12
12
12
12
12
12
12
12
12
12
12
12
12
12
12
12
12
12
12
12
12
12
12
12
12
12
12
12
12
12
12
12
12
12
12
12
12
12
12
12
12
12
12
12
12
12
12
12
12
12
12
12
12
12
12
12
12
12
12
12
12
12
12
12
12
12
12
12
12
12
12
12
12
12
12
12
12
12
12
12
12
12
12
12
12
12
12
12
12
12
12
12
12
12
12
12
12
12
12
12
12
12
12
12
12
12
12
12
12
12
12
12
12
12
12
12
12
12
12
12
12
12
12
12
12
12
12
12
12
12
12
12
12
12
12
12
12
12
12
12
12
12
12
12
12
12
12
12
12
12
12
12
12
12
12
12
12
12
12
12
12
12
12
12
12
12
12
12
12
12
12
12
12
12
12
12
12
12
12
12
12
12
12
12
12
12
12
12
12
12
12
12
12
12
12
12
12
12
12
12
12
12
12
12
12
12
12
12
12
12
12
12
12
12
12
12
12
12
12
12
12
12
12
12
12
12
12
12
12
12
12
12
12
12
12
12
12
12
12
12
12
12
12
12
12
12
12
12
12
12
12
12
12
12
12
12
12
12
12
12
12
12
12
12
12
12
12
12
12
12
12
12
12
12
12
12
12
12
12
12
12
12
12
12
12
12
12
12
12
12
12
12
12
12
12
12
12
12
12
12
12
12
12
12
12
12
12
12
12
12
12
12
12
12
12
12
12
12
12
12
12
12
12
12
12
12
12
12
12
12
12
12
12
12
12
12
12
12
12
12
12
12
12
12
12
12
12
12
12
12
12
12
12
12
12
12
12
12
12
12
12
12
12
12
12
12
12
12
12
12
12
12
12
12
12
12
12
12
12
12
12
12
12
12
12
12
12
12
12
12
12
12
12
12
12
12
12
12
12
12
12
12
12
12
12
12
12
12
12
12
12
12
12
12
12
12
12
12
12
12
12
12
12
12
12
12
12
12
12
12
12
12
12
12
12
12
12
12
12
12
12
12
12
12
12
12
12
12
12
12
12
12
12
12
12
12
12
12
12
12
12
12
12
12
12
12
12
12
12
12
12
12
12
12
12
12
12
12
12
12
12
12
12
12
12
12
12
12
12
12
12
12
12
12
12
12
12
12
12
12
12
12
12
12
12
12
12
12
12
12
12
12
12
12
12
12
12
12
12
12
12
12
12
12
12
12
12
12
12
12
12
12
12
12
12
12
12
12
12
12
12
12
12
12
12
12
12
12
12
12
12
12
12
12
12
12
12
12
12
12
12
12
12
12
12
12
12
12
12
12
12
12
12
12
12
12
12
12
12
12
12
12
12
12
12
12
12
12
12
12
12
12
12
12
12
12
12
12
12
12
12
12
12
12
12
12
12
12
12
12
12
12
12
12
12
12
12
12
12
12
12
12
12
12
12
12
12
12
12
12
12
12
12
12
12
12
12
12
12
12
12
12
12
12
12
12
12
12
12
12
12
12
12

POINT_DATA 3012
SCALARS Jp_lamdaP float 4
LOOKUP_TABLE default
0.999551 1 1 0.999551
1 1 1 1
0.999565 1 1 0.999565
0.999493 1 1 0.999493
0.999553 1 1 0.999553
0.999525 1 1 0.999525
1.00496 1.0064 1 0.998567
1 1 1 1
1 1 1 1
1 1 1 1
0.999618 1 1 0.999618
1.00117 1.00255 1 0.998625
0.999516 1 1 0.999516
0.99951 1 1 0.99951
0.999569 1 1 0.999569
0.999526 1 1 0.999526
0.999534 1 1 0.999534
0.999575 1 1 0.999575
1.005 1.00644 1 0.998567
1 1 1 1
0.999479 1 1 0.999479
0.999527 1 1 0.999527
1.00108 1.00263 1 0.998456
1.00412 1.00558 1 0.998552
0.999519 1 1 0.999519
1.00407 1.00551 1 0.998567
1.02688 1.02987 1 0.997094
1 1 1 1
0.999771 1 1 0.999771
0.999784 1 1 0.999784
1 1 1 1
1.00041 1.00178 1 0.998635
0.999534 1 1 0.999534
0.999563 1 1 0.999563
1.0054 1.00666 1 0.998751
1 1 1 1
1.00396 1.00514 1 0.998824
0.999093 1.00038 1 0.998717
1.0163 1.01931 1 0.997047
1 1 1 1
1 1 1 1
0.999757 1 1 0.999757
1 1 1 1
0.999524 1 1 0.999524
0.998388 1 1 0.998388
1 1 1 1
1.00012 1.00146 1 0.998658
0.999554 1 1 0.999554
0.999592 1 1 0.999592
0.999536 1 1 0.999536
1.00505 1.00649 1 0.998571
0.999742 1 1 0.999742
0.999509 1 1 0.999509
0.999533 1 1 0.999533
0.999557 1 1 0.999557
1.00081 1.00237 1 0.99845
1.00418 1.00562 1 0.998569
1.00405 1.00551 1 0.998551
1.02703 1.03003 1 0.997082
1 1 1 1
0.99949 1 1 0.99949
0.998722 1 1 0.998722
0.999335 1.0009 1 0.998436
1.00282 1.00432 1 0.998506
1.02908 1.03231 1 0.996874
1.02747 1.03059 1 0.996972
0.999575 1 1 0.999575
0.999704 1.00106 1 0.998649
1.02469 1.02761 1 0.997163
1.04722 1.0512 1 0.996212
1 1 1 1
1 1 1 1
1 1 1 1
0.999879 1.00124 1 0.998644
1 1 1 1
1 1 1 1
1.00517 1.00666 1 0.998514
0.999852 1 1 0.999852
1.00291 1.00431 1 0.998607
0.999344 1.00038 1.00009 0.998877
1.01616 1.01917 1 0.997043
1 1 1 1
1.00182 1 1.00223 0.999594
1.00419 1.00577 1 0.998429
1.00504 1.00651 1 0.998543
1.03221 1.03568 1 0.996649
0.999685 1 1.00049 0.999194
1.0223 1.02543 1 0.996951
1.01152 1.01433 1.00002 0.99721
1.03257 1.03642 1 0.996283
1 1 1 1
1 1 1 1
1 1 1 1
1 1 1 1
1 1 1 1
0.999762 1 1 0.999762
0.998584 1.00004 1 0.998544
0.999755 1 1 0.999755
1.00079 1.00226 1 0.998535
1 1 1 1
0.99842 1 1 0.99842
0.998902 1.00024 1 0.998665
1.02297 1.0265 1 0.996553
1.00254 1.00386 1 0.998689
1.03148 1.03505 1 0.996552
0.999541 1 1 0.999541
0.999535 1 1 0.999535
0.999543 1 1 0.999543
0.999582 1 1 0.999582
1.00057 1.00212 1 0.998446
1.00398 1.00544 1 0.998553
1.00421 1.00564 1 0.998574
1.02723 1.03024 1 0.99707
1 1 1 1
0.999517 1 1 0.999517
0.998455 1 1 0.998455
0.999115 1.00069 1 0.998427
0.99979 1 1 0.99979
1.00046 1.00172 1 0.998738
1.00263 1.00413 1 0.998503
1.02912 1.03237 1 0.996848
1.02422 1.02715 1 0.997148
1.02806 1.03116 1 0.996993
1.04708 1.05105 1 0.996221
0.998444 1 1 0.998444
0.998563 1.00012 1 0.998447
1.02194 1.02517 1 0.996843
1.0266 1.02988 1 0.996822
1.02896 1.03217 1 0.996891
1.06007 1.06405 1 0.996256
1 1 1 1
1.051 1.05498 1 0.996228
0.999317 1.00007 1.00043 0.998817
1.01597 1.01892 1 0.997104
1.04374 1.04773 1 0.996194
1.05184 1.05585 1 0.996199
1.00155 1 1.00232 0.999231
1.00645 1 1.00849 0.997983
1 1 1 1
1 1 1 1
1.00512 1.00661 1 0.998519
1 1 1 1
0.999328 1.00019 1.00034 0.998801
1.00222 1.00361 1 0.998614
1.01579 1.0188 1 0.997039
1 1 1 1
1.00164 1 1.00203 0.999618
1.00467 1.0061 1 0.998575
1.00485 1.00618 1 0.998677
1.03152 1.03499 1 0.996648
0.999991 1 1.0009 0.999089
1.02235 1.02548 1 0.996952
1.00938 1.01214 1.00007 0.997207
1.03381 1.03767 1 0.99628
1.00125 1 1.0019 0.999344
1.00118 1 1.00141 0.999775
1.0049 1.00022 1.00637 0.998323
1.03414 1.03771 1 0.996564
1.02874 1.03205 1 0.996797
1.05473 1.05884 1 0.996112
1.00542 1.00704 1.00088 0.997522
1.04134 1.0452 1 0.996298
1.02294 1.0261 1.00057 0.996352
1.04063 1.04463 1 0.996174
1 1 1 1
1 1 1 1
1 1 1 1
1.00176 1 1.00235 0.999411
1 1 1 1
1 1 1 1
1 1 1 1
1.00126 1.00284 1 0.998416
0.99854 1.00012 1 0.998425
1 1 1 1
1 1 1 1
0.998421 1 1 0.998421
0.999091 1.00055 1 0.998544
1.02373 1.02727 1 0.996553
1.00286 1.00444 1 0.998421
1.03091 1.03448 1 0.99655
0.998422 1 1 0.998422
1.02145 1.02501 1 0.996531
1.02637 1.02991 1 0.996566
1.06384 1.06816 0.999649 0.996303
1.03413 1.03772 1 0.996539
1.06672 1.07073 1 0.996256
1 1 1 1
0.999545 1 1 0.999545
0.998158 1 1 0.998158
0.998918 1.0005 1 0.99842
1 1 1 1
1.00151 1.00268 1 0.998829
1.00244 1.00395 1 0.998503
1.02919 1.03247 1 0.996821
1.02878 1.03186 1 0.997013
1.0236 1.02654 1 0.997134
1.04689 1.05085 1 0.99623
0.998442 1 1 0.998442
0.998516 1.00008 1 0.998439
1.02187 1.02525 1 0.996703
1.02697 1.03024 1 0.996834
1 1 1 1
0.999714 1.0006 1.00022 0.998898
1.01735 1.02021 1 0.997197
1.02939 1.03261 1 0.996884
1.06017 1.06415 1 0.996263
1.0438 1.04779 1 0.996191
1.05114 1.05509 1 0.99626
1.05141 1.05541 1 0.996209
1.00137 1 1.00215 0.999218
1.0054 1.00006 1.00737 0.997984
1.02114 1.02467 1 0.996553
1.0229 1.02614 1 0.996842
1.06104 1.065 0.999952 0.99633
1.06048 1.06531 0.999178 0.996281
1.05573 1.05964 1 0.99631
1.0613 1.06652 0.998627 0.996468
1.00045 1 1.00142 0.999025
1.05471 1.05858 1 0.996342
1.00879 1.01141 1.00011 0.997306
1.03827 1.04221 1 0.996222
1.04956 1.0537 1 0.996066
1.05115 1.05486 1 0.996484
1.0036 1.00106 1.00484 0.997701
1.00638 1 1.00808 0.998317
1.00466 1.00175 1.00566 0.997265
1.00486 1.00641 1 0.998462
1 1 1 1
1.00124 1 1.0016 0.999643
1.00436 1.00579 1 0.998579
1.03094 1.03441 1 0.996647
1.0002 1 1.00111 0.999087
1.00789 1.01068 1.00004 0.997205
1.02196 1.02508 1 0.996954
1.03539 1.03926 1 0.996278
1.00136 1 1.00199 0.999367
1.00076 1 1.00097 0.999794
1.00561 1 1.0073 0.998323
1.03327 1.03683 1 0.99656
1.02805 1.03135 1 0.996799
1.05486 1.05899 1 0.996106
1.00365 1.0055 1.00064 0.997526
1.04193 1.04581 1 0.996297
1.02558 1.02886 1.00047 0.996343
1.04194 1.04594 1 0.99618
1.00054 1 1.00066 0.999877
1.00358 1.00204 1.00365 0.99789
1.00505 1 1.00629 0.998766
1.00679 1.00236 1.0068 0.997639
1.05911 1.06324 1 0.996121
1.04874 1.05275 1 0.996193
1.05651 1.06059 1 0.996152
1.01442 1.01728 1.00049 0.996705
1.04379 1.04768 1 0.996291
1.03778 1.04023 1.00158 0.99607
1.05082 1.05488 1 0.996152
0.999522 1 1 0.999522
0.999958 1 1 0.999958
1 1 1 1
1 1 1 1
1 1 1 1
1.00146 1 1.00187 0.999588
1 1 1 1
1.00196 1 1.00257 0.999394
1 1 1 1
1.00351 1.00509 1 0.998423
0.99936 1.00094 1 0.998424
1.03081 1.03438 1 0.996549
1.02444 1.02798 1 0.996554
0.998431 1.00001 1 0.998422
1 1 1 1
0.998422 1 1 0.998422
1.0218 1.02536 1 0.996532
1.02715 1.03069 1 0.996565
1.06311 1.06736 0.999716 0.996301
1.03335 1.03695 1 0.996535
1.06611 1.07012 1 0.996253
1.02095 1.0245 1 0.996532
1.06156 1.06575 0.999789 0.996283
1.06668 1.07085 0.999805 0.996296
1.06478 1.07349 0.995222 0.99665
1.06379 1.06786 1 0.996187
1.0648 1.07168 0.997025 0.996538
0.99844 1 1 0.99844
0.998456 1.00003 1 0.99843
1.02181 1.02534 1 0.996563
1.02725 1.0305 1 0.996845
1 1 1 1
0.999862 1.00084 1.00004 0.998981
1.01839 1.02116 1 0.997289
1.02981 1.03304 1 0.996877
1.0602 1.06417 1 0.996269
1.05113 1.05504 1 0.996293
1.04412 1.04811 1 0.996188
1.05106 1.05505 1 0.996218
1.00134 1 1.00213 0.999205
1.00513 1.00034 1.00682 0.997986
1.02105 1.02459 1 0.996546
1.02309 1.02634 1 0.996836
1.06057 1.06487 0.999602 0.996358
1.06148 1.06591 0.999572 0.996271
1.00006 1 1.00105 0.999014
1.01035 1.01293 1.00014 0.997305
1.03774 1.04165 1 0.996248
1.05553 1.05947 1 0.996285
1.06057 1.06612 0.998271 0.996519
1.04925 1.05341 1 0.996059
1.05475 1.05862 1 0.996346
1.05121 1.05492 1 0.996476
1.00416 1.00187 1.0046 0.997701
1.00544 1.00224 1.00596 0.997261
1.00689 1 1.00858 0.998317
1.06032 1.06428 0.999969 0.99631
1.06159 1.06611 0.999399 0.996358
1.06465 1.07178 0.996757 0.996579
1.06204 1.0693 0.996664 0.996537
1.0568 1.06154 0.999062 0.99647
1.05284 1.06358 0.993053 0.996826
1.00257 1.0044 1.00067 0.997513
1.05237 1.05763 0.998368 0.996652
1.02513 1.02875 1 0.996485
1.04143 1.04575 1 0.995874
1.0469 1.05099 1 0.996105
1.04424 1.0485 0.99918 0.996756
1.00645 1 1.00784 0.998618
1.00343 1.00569 1.00067 0.997083
1.00863 1.00022 1.01098 0.997457
1.00491 1.00528 1.00271 0.996939
1.03246 1.03602 1 0.996557
1.00037 1 1.00055 0.999812
1.00159 1 1.0022 0.99939
1.00712 1 1.00881 0.998322
1.02748 1.03078 1 0.996801
1.05491 1.05904 1 0.996101
1.00114 1.00318 1.00044 0.997531
1.02664 1.03008 1.00033 0.996335
1.04287 1.04675 1 0.996296
1.04187 1.04586 1 0.996185
1.00017 1 1.00028 0.99989
1.00363 1.00128 1.00447 0.997894
1.00519 1 1.00642 0.998773
1.00631 1.00166 1.00703 0.997634
1.05919 1.06333 1 0.996114
1.04895 1.05296 1 0.99619
1.05599 1.06007 1 0.996149
1.01213 1.01501 1.00045 0.996711
1.04336 1.04726 1 0.996279
1.03557 1.03788 1.00173 0.996056
1.05021 1.05417 1 0.996241
0.999932 1 1 0.999932
1.00263 1 1.00353 0.999106
1.00688 1.00777 1.00191 0.997214
1.00878 1.00084 1.00993 0.99802
1.00449 1.0039 1.00322 0.997386
1.06141 1.0655 0.999905 0.996251
1.04966 1.05369 1 0.996184
1.05101 1.05491 0.999977 0.996325
1.01641 1.01814 1.00199 0.996316
1.0435 1.04734 1 0.996328
1.03012 1.03347 1.00086 0.995894
0.999449 1 1 0.999449
0.999953 1 1.00108 0.998869
0.999585 1 1 0.999585
0.999524 1 1 0.999524
0.999974 1 1 0.999974
0.999963 1 1 0.999963
1 1 1 1
1 1 1 1
1 1 1 1
1.0005 1 1.00073 0.999769
1 1 1 1
1.00171 1 1.00214 0.999571
1 1 1 1
1.00176 1 1.00238 0.999377
1 1 1 1
1.03246 1.03605 1 0.996531
1.02765 1.03119 1 0.996564
1.06511 1.06912 1 0.99625
1.06232 1.0665 0.999783 0.9963
1.02221 1.02576 1 0.996532
0.998421 1 1 0.998421
1.02105 1.0246 1 0.996532
1.06137 1.06552 0.999817 0.996283
1.06523 1.06937 0.999831 0.996294
1.06456 1.07376 0.994748 0.996668
1.06332 1.06739 1 0.996182
1.06528 1.07203 0.997149 0.996537
1.06038 1.06445 0.999898 0.996274
1.06437 1.07313 0.995141 0.996674
1.06454 1.07325 0.99525 0.996617
1.05866 1.06979 0.992683 0.996883
1.06306 1.06796 0.999007 0.996408
1.05757 1.07183 0.989787 0.996882
1.02098 1.02453 1 0.996539
1.02332 1.02658 1 0.996829
1.06015 1.06477 0.99927 0.996386
1.06261 1.0666 1 0.996261
0.999697 1 1.00069 0.999004
1.0127 1.01529 1.00015 0.997305
1.03824 1.04213 1 0.996273
1.05533 1.05929 1 0.996261
1.05984 1.06574 0.997893 0.996571
1.05481 1.05867 1 0.99635
1.04883 1.05299 1 0.996051
1.05136 1.05508 1 0.996469
1.00446 1.00265 1.00411 0.9977
1.00585 1.00232 1.00629 0.997256
1.007 1 1.0087 0.998318
1.06028 1.06426 0.999959 0.996298
1.06143 1.06615 0.999214 0.996357
1.06406 1.07178 0.996159 0.996625
1.06197 1.06885 0.997045 0.996512
1.00486 1.00649 1.00088 0.997511
1.02509 1.02871 1 0.996483
1.0403 1.04455 1.00003 0.995906
1.05727 1.06173 0.999378 0.996426
1.0525 1.06396 0.992333 0.996874
1.04802 1.05216 1 0.996066
1.05259 1.0578 0.998421 0.996653
1.04541 1.04947 0.999333 0.996794
1.00488 1.00649 1.00131 0.997083
1.00481 1.00477 1.00315 0.996895
1.00594 1 1.00733 0.998616
1.00817 1.00008 1.01061 0.997498
1.06397 1.07164 0.996206 0.996625
1.06543 1.07306 0.996308 0.996561
1.05366 1.06533 0.992228 0.9968
1.05131 1.06591 0.989366 0.996902
1.05276 1.06101 0.995409 0.996801
1.05151 1.06546 0.989827 0.997049
1.01107 1.01431 1 0.996802
1.04446 1.05328 0.994589 0.997022
1.02763 1.03169 1 0.996067
1.0375 1.04179 1.00018 0.995715
1.04704 1.05112 1 0.996114
1.04782 1.05187 0.999325 0.996822
1.00209 1 1.0032 0.998891
1.01144 1.00029 1.01343 0.997745
1.00705 1.01036 1 0.996726
1.00705 1.00328 1.00663 0.997145
1.00763 1.0059 1.005 0.996742
0.999904 1 1 0.999904
1.05923 1.06337 1 0.996107
1.00507 1 1.0063 0.998781
1.00376 1.00066 1.0052 0.997897
1.00556 1.00091 1.00703 0.997629
1.0491 1.05311 1 0.996188
1.05553 1.05961 1 0.996146
1.01184 1.01466 1.00051 0.996717
1.03564 1.03775 1.00193 0.996043
1.04302 1.04692 1 0.996268
1.05047 1.05434 1 0.99633
0.99994 1 1 0.99994
1.00246 1 1.00335 0.999116
1.00466 1.00611 1.00134 0.99722
1.00986 1.00071 1.01115 0.998016
1.00416 1.00319 1.00363 0.997346
1.06114 1.06522 0.999922 0.996246
1.04945 1.05347 1 0.996182
1.05084 1.0548 0.999934 0.996313
1.01761 1.0192 1.00213 0.996315
1.04661 1.05048 1 0.996314
1.03033 1.03355 1.00096 0.995925
1.00021 1 1.00089 0.999327
1.00549 1 1.00709 0.998408
1.00271 1.00541 1.00048 0.996842
1.01076 1.00305 1.01005 0.997663
1.00566 1.00637 1.00203 0.997265
1.05797 1.06356 0.998255 0.996484
1.04492 1.04881 1 0.996294
1.04918 1.05355 0.999312 0.996542
1.00577 1.00583 1.00379 0.996164
1.0274 1.03163 1 0.995903
0.999452 1 1 0.999452
0.998861 1 1.00008 0.99878
1.00006 1 1.00122 0.998844
0.999996 1 1.00141 0.998589
0.999864 1 1.00094 0.998922
0.999624 1 1 0.999624
0.999588 1 1 0.999588
0.999986 1 1 0.999986
0.999526 1 1 0.999526
0.999977 1 1 0.999977
1 1 1 1
0.999967 1 1 0.999967
1 1 1 1
1 1 1 1
0.99991 1 1 0.99991
1.00112 1 1.00137 0.999749
1 1 1 1
1 1 1 1
1.00225 1 1.00269 0.999554
1 1 1 1
1.06293 1.06701 1 0.996178
1.06416 1.06827 0.999856 0.996292
1.06589 1.07254 0.997254 0.996536
1.06444 1.07414 0.99426 0.996685
1.06109 1.06521 0.999846 0.996284
1.02111 1.02466 1 0.996532
1.06035 1.06442 0.999908 0.996274
1.06414 1.07279 0.995249 0.996669
1.06518 1.07391 0.995233 0.996618
1.0581 1.06978 0.992142 0.996913
1.064 1.0688 0.9991 0.996402
1.05785 1.07194 0.989918 0.996904
1.06416 1.07238 0.995684 0.996644
1.05618 1.06864 0.991449 0.996862
1.05882 1.07121 0.991454 0.99695
1.05859 1.074 0.988584 0.997033
1.05891 1.06939 0.993464 0.996716
1.05884 1.07612 0.9868 0.997105
1.06018 1.06419 0.999944 0.996286
1.06121 1.06614 0.999016 0.996355
1.06341 1.07173 0.995542 0.996672
1.06177 1.0683 0.997394 0.996486
1.00649 1.0079 1.00109 0.997509
1.02306 1.02667 1 0.996481
1.03853 1.04258 1.00018 0.995937
1.05778 1.06192 0.999714 0.996382
1.05221 1.06432 0.991679 0.996923
1.05277 1.05792 0.998467 0.996654
1.04897 1.05315 1 0.996027
1.0462 1.05007 0.999477 0.996831
1.00691 1.00787 1.00197 0.997082
1.0045 1.00475 1.00291 0.996851
1.00581 1 1.0072 0.998614
1.00758 1.00012 1.00995 0.997539
1.06403 1.0717 0.996213 0.996624
1.06504 1.07262 0.996381 0.996542
1.05379 1.06561 0.992051 0.996831
1.05229 1.06604 0.990187 0.996885
1.01174 1.01491 1.00008 0.996795
1.0262 1.03018 1.00003 0.996104
1.03742 1.04149 1.00039 0.995704
1.05338 1.06104 0.996026 0.99675
1.05009 1.06447 0.989356 0.997105
1.04404 1.04813 1 0.996099
1.04557 1.05449 0.994498 0.997022
1.0483 1.05237 0.999238 0.996888
1.00622 1.00952 1 0.996729
1.00583 1.00598 1.00313 0.99673
1.00698 1.00248 1.00737 0.997141
1.0028 1 1.00395 0.998859
1.01095 1.00012 1.01307 0.997789
1.05496 1.06749 0.991386 0.996846
1.05507 1.06866 0.990383 0.996867
1.05069 1.06984 0.984974 0.997089
1.04569 1.06091 0.988513 0.99711
1.01382 1.01744 1 0.996444
1.04961 1.05893 0.99399 0.997195
1.01593 1.01988 1.00029 0.995835
1.0313 1.03539 1.00051 0.995541
1.04091 1.04497 1 0.99611
1.00003 1 1.00088 0.999151
1.00913 1 1.01098 0.998167
1.00752 1 1.01007 0.99747
1.00558 1.00856 1.00046 0.996586
1.00811 1.0044 1.00693 0.996782
1.00872 1.00683 1.00532 0.996572
0.999947 1 1 0.999947
1.00192 1 1.0028 0.999126
1.06084 1.06491 0.999942 0.996241
1.0111 1.00054 1.01257 0.998011
1.00164 1.00368 1.00074 0.997227
1.00387 1.00267 1.0039 0.997307
1.04912 1.05315 1 0.99618
1.05076 1.05477 0.999895 0.996302
1.01763 1.01906 1.00229 0.996315
1.02931 1.03269 1.00077 0.995956
1.04985 1.05375 1 0.996299
0.999778 1 1.00045 0.999333
1.00624 1 1.00784 0.998411
1.00508 1.00787 1.00041 0.996823
1.011 1.00247 1.01088 0.997657
1.00603 1.00705 1.00174 0.997255
1.0571 1.0626 0.998346 0.996478
1.04639 1.05029 1 0.99628
1.04994 1.05428 0.999318 0.996566
1.00734 1.00798 1.00324 0.996131
1.02571 1.0299 1.00006 0.995872
1.00119 1 1.0025 0.998691
1.01062 1 1.01267 0.997973
1.0049 1.00625 1.002 0.996671
1.01186 1.0072 1.00726 0.997389
1.01698 1.01894 1.001 0.997078
1.04979 1.06192 0.991576 0.996976
1.04752 1.05155 1 0.996167
1.05086 1.05507 0.999478 0.996529
1.00869 1.00831 1.00433 0.99606
1.01307 1.01747 1 0.995673
0.999454 1 1 0.999454
0.998839 1 1.00004 0.998796
0.998667 1 1.00012 0.998544
0.999592 1 1.00077 0.998818
0.99951 1 1.00059 0.998921
1.00052 1 1.00196 0.998567
0.999437 1 1.0009 0.998541
1.0011 1 1.00259 0.998509
0.999117 1 1.00015 0.998967
0.999619 1 1 0.999619
0.999624 1 1 0.999624
0.999995 1 1 0.999995
0.99959 1 1 0.99959
0.999989 1 1 0.999989
1 1 1 1
0.999981 1 1 0.999981
1 1 1 1
1 1 1 1
0.999977 1 1 0.999977
1.00002 1 1.00013 0.999888
1 1 1 1
1.00145 1 1.00172 0.999729
1 1 1 1
1 1 1 1
1.06494 1.06965 0.999193 0.996396
1.06556 1.0743 0.995229 0.996618
1.05808 1.072 0.990058 0.996926
1.05753 1.06972 0.991638 0.996942
1.06394 1.07247 0.995373 0.996664
1.06039 1.06444 0.999918 0.996275
1.06418 1.07217 0.995914 0.996626
1.05677 1.06881 0.991852 0.996855
1.05819 1.07063 0.991417 0.996935
1.05721 1.07338 0.987853 0.997044
1.05852 1.06875 0.99369 0.996718
1.0565 1.07457 0.986005 0.997142
1.05702 1.0686 0.992305 0.996837
1.05816 1.07506 0.987207 0.997034
1.05924 1.07658 0.98673 0.997125
1.05151 1.07207 0.983621 0.997161
1.06414 1.07179 0.99622 0.996624
1.06476 1.07226 0.996467 0.996524
1.05396 1.06594 0.991877 0.996862
1.05332 1.06626 0.990965 0.996868
1.01319 1.01637 1.00008 0.996788
1.02527 1.02924 1 0.99614
1.03736 1.04124 1.00058 0.995692
1.05387 1.06097 0.996596 0.996699
1.04865 1.06351 0.988834 0.997161
1.04662 1.05564 0.994419 0.997022
1.04168 1.04577 1 0.996084
1.0495 1.05338 0.999359 0.996953
1.00343 1.00652 1.0002 0.996731
1.00526 1.00641 1.00215 0.996717
1.00761 1.00178 1.00871 0.997136
1.00312 1 1.0043 0.998827
1.0107 1 1.0129 0.997832
1.05512 1.06759 0.991441 0.996848
1.0556 1.06925 0.990343 0.996863
1.05095 1.06908 0.985918 0.997081
1.01393 1.01755 1 0.996442
1.01611 1.02006 1.00026 0.995872
1.02972 1.03355 1.00076 0.99553
1.046 1.06081 0.988909 0.997096
1.044 1.04805 0.99991 0.99623
1.04584 1.05547 0.993689 0.997161
1.00023 1 1.00104 0.999198
1.00564 1.00731 1.00177 0.99658
1.00848 1.00536 1.00643 0.996683
1.01099 1.0058 1.00841 0.996777
1.00912 1.0011 1.01054 0.997493
1.0093 1 1.01119 0.998133
1.05692 1.0732 0.987877 0.996921
1.05492 1.07685 0.982566 0.997024
1.04425 1.06757 0.980929 0.997167
1.04138 1.06268 0.982601 0.997306
1.00954 1.01305 1.00027 0.996262
1.04086 1.04708 0.997289 0.996756
1.00673 1.00966 1.00165 0.995463
1.01871 1.02236 1.00104 0.99539
0.999519 1 1 0.999519
1.00322 1 1.00467 0.998553
1.00847 1 1.01068 0.99781
1.00976 1.00188 1.01092 0.996979
1.00624 1.00491 1.00489 0.996458
1.01293 1.00509 1.01144 0.9964
0.999503 1 1.00016 0.999339
1.0072 1 1.0088 0.998415
1.05636 1.06176 0.998437 0.996473
1.01099 1.00172 1.01163 0.997652
1.00742 1.01038 1.00027 0.996804
1.00546 1.0067 1.00152 0.997245
1.04797 1.0519 1 0.996267
1.05061 1.05492 0.999323 0.99659
1.00931 1.0105 1.00273 0.996097
1.02392 1.02792 1.00027 0.995841
1.00112 1 1.00243 0.998694
1.01105 1 1.01313 0.997951
1.0053 1.00665 1.00198 0.996678
1.01163 1.00758 1.00664 0.997395
1.01852 1.02096 1.00048 0.997138
1.05204 1.06395 0.991751 0.997024
1.04693 1.05092 1 0.9962
1.05167 1.05587 0.999411 0.996607
1.00929 1.00869 1.00458 0.996026
1.0127 1.01716 1.00003 0.995591
1.00236 1 1.00399 0.998381
1.01142 1.00193 1.01192 0.99759
1.01219 1.0118 1.00378 0.996613
1.01554 1.01701 1.00161 0.996958
1.04942 1.08208 0.972462 0.997272
1.04863 1.05686 0.995161 0.997035
1.03329 1.03764 1 0.995805
1.01545 1.01556 1.00426 0.99565
0.998854 1 1.00004 0.998812
0.998722 1 1.00017 0.998552
0.99859 1 1 0.99859
0.999723 1 1.0008 0.998919
1.00147 1 1.00293 0.998545
0.999196 1 1.00023 0.998964
0.999295 1 1.00074 0.998561
1.00158 1 1.00307 0.998517
0.998681 1 1 0.998681
1.00152 1 1.00314 0.998385
1.0007 1 1.00222 0.998477
0.998945 1 1 0.998945
0.99958 1 1 0.99958
0.999617 1 1 0.999617
0.999999 1 1 0.999999
0.999625 1 1 0.999625
0.999996 1 1 0.999996
1 1 1 1
0.999992 1 1 0.999992
1 1 1 1
1 1 1 1
0.999997 1 1 0.999997
0.999963 1 1 0.999963
1 1 1 1
1.00036 1 1.00049 0.999866
1 1 1 1
1 1 1 1
1.05805 1.06804 0.993912 0.99672
1.05767 1.07017 0.991375 0.99692
1.05425 1.07308 0.985231 0.997179
1.0558 1.07279 0.98707 0.997054
1.05735 1.06901 0.992218 0.996848
1.06419 1.07195 0.99614 0.996607
1.05679 1.06848 0.992193 0.996837
1.05795 1.07471 0.987347 0.997024
1.05773 1.07573 0.9861 0.997122
1.05238 1.07275 0.983795 0.997171
1.05913 1.075 0.98823 0.996979
1.05917 1.08152 0.982108 0.997182
1.05895 1.08389 0.979707 0.997233
1.05527 1.06768 0.991497 0.996849
1.05607 1.06975 0.990324 0.996859
1.05128 1.0683 0.986958 0.997074
1.01568 1.01931 1 0.996439
1.01588 1.01987 1.00018 0.995908
1.02789 1.03165 1.00085 0.995518
1.04638 1.06081 0.989285 0.997083
1.04176 1.05218 0.992952 0.997127
1.04675 1.05092 0.999678 0.996349
1.00518 1.006 1.00263 0.996574
1.00372 1.00202 1.00491 0.996796
1.01268 1.00677 1.00912 0.996771
1.00034 1 1.00109 0.999245
1.00938 1.00202 1.00986 0.997515
1.0097 1 1.01162 0.998098
1.05763 1.0736 0.98816 0.996929
1.05414 1.07655 0.9821 0.997029
1.04456 1.06747 0.981323 0.997159
1.00715 1.01084 1.00009 0.996255
1.00653 1.00963 1.0014 0.995537
1.0188 1.0225 1.0009 0.995484
1.04186 1.06245 0.98326 0.997309
1.03674 1.04376 0.996528 0.996734
0.999592 1 1 0.999592
1.00302 1 1.00448 0.99855
1.00318 1.0035 1.0032 0.996499
1.01541 1.00425 1.01461 0.996564
1.01024 1.00305 1.01016 0.997031
1.00848 1.00016 1.01058 0.997766
1.05701 1.07996 0.981601 0.997102
1.04478 1.07907 0.971014 0.997122
1.04119 1.06743 0.978008 0.997352
1.03063 1.0485 0.985611 0.997305
1.00217 1.00485 1.00133 0.996009
1.02022 1.0233 1.00115 0.995837
1.00736 1.00948 1.00264 0.995269
0.999785 1 1 0.999785
0.999232 1 1 0.999232
0.999643 1 1.00073 0.998917
1.00336 1 1.00533 0.998041
1.00938 1 1.01201 0.997397
1.01399 1.0029 1.01437 0.996736
1.00375 1.00192 1.00519 0.996661
1.03893 1.00234 1.03973 0.996891
1.00086 1 1.00216 0.998698
1.01155 1 1.01365 0.99793
1.05443 1.06607 0.991988 0.997071
1.01339 1.00966 1.0063 0.997402
1.00578 1.00696 1.00215 0.996686
1.01969 1.02252 1.00004 0.997199
1.04623 1.05019 1 0.996234
1.05243 1.05662 0.999344 0.996686
1.00969 1.00889 1.00482 0.995993
1.01212 1.01668 1 0.995509
1.00268 1 1.00435 0.998338
1.00992 1.00095 1.01141 0.997587
1.01544 1.01466 1.00415 0.996633
1.0156 1.01722 1.00142 0.996999
1.05085 1.08451 0.971595 0.997291
1.05114 1.05856 0.995996 0.996981
1.03196 1.03625 1 0.99586
1.01738 1.01803 1.00377 0.995599
1.00351 1 1.00535 0.998169
1.05714 1.09045 0.972085 0.997298
1.00533 1.00195 1.00617 0.997211
1.01546 1.01642 1.00268 0.996393
1.03726 1.06828 0.973483 0.99741
1.02769 1.0324 0.999491 0.995947
1.01246 1.01388 1.00323 0.995379
0.998617 1 1.00006 0.998559
0.998398 0.999668 1.00015 0.99858
0.999068 0.99954 1.0008 0.998729
0.99907 1 1.00011 0.998961
1.00157 1 1.00305 0.998525
0.999384 1 1.00081 0.99858
0.998941 1 1 0.998941
1.00084 1 1.00236 0.998483
0.99878 1 1.00007 0.998709
1.00088 1 1.00249 0.998396
0.998815 1 1 0.998815
0.99902 1 1.00047 0.998548
1.00144 1 1.0032 0.998245
0.998863 1 1.00047 0.998391
0.99886 1 1 0.99886
0.999533 1 1 0.999533
0.999576 1 1 0.999576
0.999999 1 1 0.999999
0.999615 1 1 0.999615
0.999999 1 1 0.999999
1 1 1 1
0.999998 1 1 0.999998
1 1 1 1
1 1 1 1
0.999817 1 1 0.999817
1 1 1 1
0.999993 1 1 0.999993
1 1 1 1
0.99995 1 1 0.99995
1 1 1 1
1 1 1 1
1.05326 1.07344 0.983977 0.997182
1.05624 1.07487 0.985505 0.99712
1.05779 1.07436 0.987519 0.997015
1.05651 1.06832 0.992084 0.996837
1.05876 1.07498 0.987873 0.996998
1.05911 1.08113 0.982405 0.997173
1.05614 1.08106 0.979653 0.997239
1.05869 1.08168 0.981523 0.997165
1.0707 1.09617 0.979447 0.997267
1.07134 1.09946 0.976839 0.997533
1.05836 1.07401 0.988454 0.996938
1.05314 1.07625 0.981435 0.997034
1.04492 1.06739 0.981746 0.997151
1.00592 1.00965 1.00006 0.996249
1.00734 1.0105 1.00126 0.995614
1.02067 1.02441 1.00078 0.995579
1.04253 1.06194 0.98437 0.997312
1.03234 1.03978 0.996126 0.996711
1.00453 1.00369 1.00432 0.996541
1.02005 1.00466 1.01865 0.996724
1.01191 1.00413 1.0107 0.997082
0.999664 1 1 0.999664
1.00283 1 1.00429 0.998547
1.00855 1.00012 1.01073 0.997721
1.05676 1.08029 0.981049 0.997112
0.99978 1 1 0.99978
0.999192 1 1 0.999192
1.04602 1.07809 0.973059 0.997124
1.03928 1.06585 0.97769 0.997321
1.00307 1.00507 1.00192 0.996091
1.00703 1.00846 1.00332 0.995274
1.01931 1.02356 1.00002 0.995825
1.02964 1.04836 0.984834 0.997278
0.999824 1 1.00082 0.999005
1.00363 1 1.00561 0.998031
1.0039 1.00187 1.00549 0.996551
1.03328 1.00215 1.03415 0.997019
1.01112 1.00207 1.01232 0.996753
1.00844 1 1.01106 0.997413
1.06773 1.09674 0.976264 0.997217
1.02636 1.07679 0.955793 0.997254
1.02642 1.05668 0.973805 0.997499
1.01228 1.02835 0.987339 0.996997
1.00549 1.0028 1.00646 0.99625
1.00727 1.00645 1.0055 0.995333
0.99914 1 1 0.99914
0.999205 1 1 0.999205
0.998985 1.0001 1 0.998883
0.99915 1 1.00087 0.998278
1.00822 1 1.01049 0.997759
1.0067 1.00036 1.00932 0.997047
1.05564 1.00014 1.05887 0.996804
0.997062 1.00049 0.999164 0.997405
1.00344 1 1.00515 0.998296
1.00786 1 1.0103 0.997584
1.05175 1.08604 0.971037 0.997311
1.05325 1.05989 0.9968 0.996927
1.01583 1.01768 1.00115 0.997039
1.01936 1.01829 1.00441 0.996652
1.031 1.03519 1.00004 0.995913
1.01995 1.02109 1.00335 0.995548
1.00363 1 1.00549 0.998147
1.06009 1.09414 0.971439 0.997363
1.00547 1.00112 1.00711 0.997252
1.01349 1.01449 1.00269 0.996329
1.03703 1.06778 0.973753 0.997385
1.02641 1.03107 0.999448 0.996037
1.01366 1.01482 1.00348 0.995393
1.00692 0.999602 1.00946 0.997881
1.01067 1.05397 0.961049 0.997783
1.00449 1.00269 1.00486 0.996953
1.00509 1.00547 1.00379 0.995851
1.01733 1.03346 0.987424 0.996928
1.00282 1.005 1.00221 0.995627
0.964949 1.00304 0.965029 0.996886
0.99795 0.999062 1.00032 0.998571
0.998961 0.998543 1.00169 0.998732
1.00032 0.999785 1.00187 0.998668
0.998938 1 1 0.998938
1.00162 1 1.00313 0.998489
0.999914 1 1.00151 0.998408
0.998885 1 1.00015 0.998737
0.998859 1 1 0.998859
0.998983 1 1.0006 0.998389
0.998781 1 1 0.998781
1.00129 1 1.00305 0.998246
0.99892 1 1.0004 0.998522
0.999548 1 1.00078 0.99877
0.998735 1 1.00067 0.998068
1.00209 1 1.00388 0.998211
0.998495 1 1.00023 0.998262
0.998698 1 1 0.998698
1.00007 1 1.00162 0.998452
0.999037 1 1.00037 0.998663
0.999512 1 1 0.999512
0.99953 1 1 0.99953
1 1 1 1
0.999572 1 1 0.999572
1 1 1 1
1 1 1 1
0.999999 1 1 0.999999
1 1 1 1
1 1 1 1
0.999852 1 1 0.999852
0.999818 1 1 0.999818
1 1 1 1
1 1 1 1
1 1 1 1
0.999989 1 1 0.999989
1 1 1 1
1 1 1 1
1.05343 1.07846 0.979491 0.997246
1.05885 1.08065 0.982612 0.997164
1.05839 1.07498 0.987514 0.997017
1.05853 1.08148 0.981566 0.997163
1.06773 1.09334 0.979258 0.997263
1.07006 1.09778 0.977236 0.997451
1.07468 1.10522 0.974965 0.997333
0.964002 1.01605 0.95363 0.994903
1.02213 1.05792 0.967864 0.99825
0.999309 1 1 0.999309
1.05655 1.08057 0.980591 0.997122
1.04738 1.0773 0.975023 0.997126
1.03709 1.06451 0.976889 0.997291
1.00005 1.00307 1.00082 0.996171
1.00551 1.00624 1.00402 0.995277
1.01765 1.02256 0.999388 0.995813
1.02823 1.04814 0.983709 0.99725
0.998806 1.00199 1.00038 0.996446
1.02728 1.00122 1.02897 0.997152
1.00778 1.00094 1.01009 0.99677
0.999775 1 1 0.999775
1.00891 1 1.01151 0.997429
0.99979 1 1.0007 0.999092
1.00392 1 1.00591 0.99802
0.999152 1 1 0.999152
1.06424 1.09698 0.972859 0.997224
0.999191 1 1 0.999191
0.999247 1 1.00004 0.999206
0.998757 1.00044 0.999475 0.998845
1.03079 1.07731 0.959455 0.997252
1.02591 1.05639 0.973625 0.997451
1.00187 1.00217 1.00343 0.996283
1.01195 1.0111 1.00539 0.995471
1.01091 1.02601 0.988271 0.996978
0.999168 1 1.00083 0.998341
1.00786 1 1.01018 0.997705
1.00782 1.00031 1.01027 0.997259
1.04474 1.0004 1.04765 0.996821
1.00663 1.00059 1.00896 0.997102
1.04043 1.08564 0.960916 0.997334
1.00551 1.06374 0.947711 0.997413
1.01793 1.0378 0.983665 0.997139
0.993129 1.01193 0.984623 0.996744
1.00341 1 1.0064 0.997021
0.998711 1 1 0.998711
0.998867 1.00024 1 0.998632
1.00001 1 1.0014 0.998614
1.00912 1 1.01107 0.998068
1.01021 1 1.01261 0.997634
1.04096 0.999899 1.04399 0.997201
1.03187 1.00173 1.03277 0.997399
1.00359 1 1.00548 0.998123
1.00506 1 1.00779 0.997293
1.06185 1.09843 0.969198 0.997426
1.03733 1.06805 0.973808 0.997359
1.02541 1.03009 0.99933 0.996127
1.01038 1.01146 1.00268 0.996266
1.01431 1.01533 1.0036 0.995409
1.00701 0.999857 1.00924 0.997934
1.01149 1.05493 0.960911 0.99783
1.00151 1.00173 1.00283 0.996961
1.00402 1.00411 1.00408 0.995851
1.01584 1.03291 0.986383 0.997055
1.0035 1.00517 1.00273 0.995623
0.965762 1.00286 0.967092 0.995779
1.00708 0.999639 1.00965 0.997813
0.997019 1.02525 0.97463 0.997776
1.0008 1.00137 1.00269 0.996754
1.00422 1.00162 1.00644 0.996181
0.991885 1.00632 0.988802 0.996815
0.903569 0.974829 0.953592 0.972009
0.894894 0.964195 0.94182 0.98546
0.962846 0.982211 0.983124 0.997111
0.700931 0.82408 0.90308 0.941846
0.614473 0.774541 0.859172 0.923375
0.99899 0.99772 1.00254 0.998735
1.00114 0.998468 1.00396 0.998721
1.00167 1 1.00297 0.998703
0.998858 1 1 0.998858
0.998884 1 1.0005 0.998386
1.00062 1 1.00238 0.998247
0.99888 1 1.00039 0.998494
0.998747 1 1 0.998747
1.0028 1 1.00462 0.99819
0.998736 1 1 0.998736
0.998473 1 1.00019 0.998282
0.999286 1 1.00057 0.998715
0.999201 1 1.00108 0.998124
1.00383 1 1.0057 0.998142
1.00522 1 1.00691 0.998327
1.0034 1 1.00528 0.998138
0.998983 1 1.00081 0.99817
0.998664 1 1 0.998664
0.999248 1 1.00097 0.998276
0.999787 1 1.00146 0.998328
0.999682 1 1.00118 0.998506
1.00001 1 1.0016 0.998413
0.998914 1 1.00013 0.998788
0.999141 1 1.00048 0.99866
0.999507 1 1 0.999507
0.999513 1 1 0.999513
1 1 1 1
0.999527 1 1 0.999527
1 1 1 1
1 1 1 1
1 1 1 1
1 1 1 1
1 1 1 1
0.999896 1 1 0.999896
0.999849 1 1 0.999849
1 1 1 1
0.999819 1 1 0.999819
1 1 1 1
1 1 1 1
0.999999 1 1 0.999999
1 1 1 1
1 1 1 1
1.06453 1.09033 0.979024 0.997258
1.05853 1.08139 0.981654 0.997161
1.06892 1.09548 0.978323 0.99737
0.965246 1.01582 0.954999 0.994988
1.07186 1.10273 0.974606 0.997332
1.03288 1.06088 0.975449 0.998118
1.05305 1.07637 0.980822 0.997464
0.91875 0.977589 0.954518 0.984594
0.986514 1.0195 0.971659 0.995871
0.999342 1 1 0.999342
0.999303 1 1 0.999303
0.998821 1 1 0.998821
0.998937 1 1 0.998937
1.06137 1.0968 0.970385 0.997231
1.0351 1.07702 0.963735 0.997249
1.02617 1.05616 0.974131 0.997402
1.00057 1.00121 1.00306 0.996315
1.01675 1.01655 1.00461 0.995609
1.00986 1.02396 0.989237 0.99696
1.01911 1 1.02207 0.997111
1.03496 1.00092 1.03729 0.996836
1.00552 1.00037 1.00801 0.997155
0.999479 1 1.00027 0.999207
1.00585 1 1.00822 0.997653
0.999191 1 1.00079 0.998404
0.999242 1 1 0.999242
0.998811 1.0008 0.999204 0.998807
1.03922 1.08544 0.959964 0.997349
0.99874 1 1 0.99874
0.998846 1.00045 0.999689 0.998706
0.999512 0.999654 1.00105 0.998808
1.0121 1.06699 0.951026 0.997402
1.01854 1.03778 0.984277 0.997138
1.00204 1.0008 1.00425 0.997004
0.996319 1.01141 0.988221 0.996821
1.00726 1 1.0093 0.997984
1.00985 1 1.01239 0.997494
1.03712 1.00222 1.03754 0.997378
1.04077 1.00048 1.04329 0.997102
0.99549 1.05201 0.948605 0.997541
0.996745 1.04089 0.960076 0.997408
1.00755 1.01519 0.995668 0.996796
0.978295 1.00095 0.979501 0.997819
1.00244 1 1.00394 0.998503
1.00283 1 1.00456 0.998274
1.01678 0.999516 1.01912 0.998185
1.06237 1.00078 1.0643 0.997403
0.883533 0.96809 0.942767 0.968061
1.0077 1 1.00973 0.997988
0.999526 1.00091 1.00166 0.996968
1.01308 1.05571 0.961654 0.997879
1.01412 1.03185 0.985595 0.997182
1.00409 1.0052 1.0033 0.995615
1.00352 1.00322 1.00447 0.995849
0.966181 1.00391 0.967603 0.994639
1.00542 0.99923 1.00834 0.99787
0.995458 1.0261 0.972323 0.997756
1.00066 1.00148 1.00243 0.996769
1.00472 1.00244 1.00611 0.99619
0.995242 1.00745 0.991045 0.996803
0.898465 0.979991 0.947003 0.968116
0.888753 0.959868 0.942467 0.982435
0.967207 0.982882 0.986863 0.997152
0.695853 0.818371 0.901447 0.943251
0.601204 0.765601 0.855223 0.918206
1.00233 0.999078 1.00527 0.998
0.726927 0.836877 0.917992 0.946217
0.649255 0.783786 0.896436 0.924055
0.986921 1.00586 0.983315 0.99782
1.00856 1.00153 1.00967 0.997374
1.01422 1.0054 1.01157 0.99724
0.955061 0.972333 0.984691 0.997507
0.875919 0.952181 0.948293 0.970067
0.857017 0.930847 0.938999 0.980496
0.685611 0.811666 0.891563 0.947432
0.668731 0.831714 0.873565 0.920413
1.00198 0.997336 1.00589 0.998773
1.00147 0.998952 1.00385 0.998676
1.00903 1 1.01021 0.998837
0.998773 1 1 0.998773
0.998302 1 1 0.998302
1.00342 1 1.00526 0.99817
1.0001 1 1.00192 0.99818
0.998659 1 1 0.998659
0.998676 1 1.00001 0.998665
1.0043 1 1.00619 0.998121
1.00369 1 1.00557 0.998139
0.998521 1 1.00031 0.998214
1.00579 0.999972 1.00747 0.998364
1.00639 1 1.00814 0.998269
1.01878 1 1.02031 0.998501
1.00192 1 1.00389 0.99804
0.999018 1 1.00078 0.998241
0.998841 1 1.00057 0.998271
1.00033 1 1.00198 0.99835
1.00035 1 1.00222 0.998127
0.999476 1 1.00107 0.998409
1.00326 1 1.00482 0.99844
1.00745 1 1.00928 0.998189
1.00008 1 1.00161 0.998476
0.99933 1 1.00082 0.998508
0.998927 1 1.0001 0.998824
0.999759 1 1.00139 0.998374
0.998854 1 1.0001 0.998757
0.999488 1 1 0.999488
0.999226 1 1.00057 0.998657
0.999508 1 1 0.999508
0.999998 1 1 0.999998
0.999513 1 1 0.999513
1 1 1 1
1 1 1 1
1 1 1 1
1 1 1 1
1 1 1 1
0.999288 1 1 0.999288
0.999907 1 1 0.999907
0.999891 1 1 0.999891
1 1 1 1
0.999846 1 1 0.999846
1 1 1 1
1 1 1 1
1 1 1 1
1 1 1 1
1 1 1 1
0.967399 1.01546 0.957382 0.995077
1.07029 1.10087 0.974819 0.997331
1.04148 1.06463 0.980232 0.997983
0.909719 0.972882 0.948563 0.985783
0.986785 1.01976 0.97148 0.996073
1.05063 1.07978 0.975523 0.997419
0.994468 1.02976 0.969243 0.996375
0.925575 0.975191 0.961308 0.987324
0.901916 0.976638 0.952334 0.969714
0.701031 0.821958 0.900113 0.947525
0.574602 0.728391 0.855228 0.922403
0.998885 1 1 0.998885
0.999339 1 1 0.999339
0.999297 1 1 0.999297
0.998823 1 1 0.998823
0.998821 1 1.0002 0.99862
0.998601 1 1 0.998601
0.998779 1 1 0.998779
0.998892 1 1 0.998892
1.03752 1.08661 0.957347 0.997363
1.01874 1.07137 0.953369 0.997391
1.01775 1.03741 0.983861 0.997138
1.00236 1.00189 1.00349 0.996988
0.999152 1.01075 0.991605 0.996899
1.04578 1.00252 1.04592 0.997354
1.04162 1.0015 1.04319 0.997004
1.01019 1 1.01287 0.997355
0.998368 1.00064 0.998949 0.99878
1.00746 1 1.00959 0.997896
0.99877 1 1 0.99877
0.998562 0.99956 1 0.999002
0.993688 1.05294 0.946022 0.99757
1.00183 0.999868 1.00347 0.9985
1.00418 1 1.00584 0.998352
0.993973 1.03879 0.959365 0.997381
1.00462 1.01586 0.99196 0.996949
0.981919 1.00131 0.982909 0.997682
1.02704 1.00008 1.02911 0.997908
1.05791 1.00213 1.05837 0.997445
0.973014 1.02922 0.9478 0.997457
0.990252 1.01275 0.980342 0.997393
0.974069 1.00166 0.974925 0.997467
0.9813 1.0004 0.982877 0.998001
1.00669 1 1.00869 0.998011
1.01491 1 1.01681 0.998131
1.0538 1 1.05616 0.997759
0.737188 0.8464 0.91817 0.948592
0.900549 0.976279 0.947955 0.973074
1.00308 0.999012 1.00616 0.997928
1.00036 1.00132 1.00226 0.996785
0.995545 1.02723 0.971356 0.997737
0.998295 1.00888 0.992689 0.996792
1.00537 1.00347 1.00571 0.996202
0.898259 0.973962 0.950709 0.97009
0.892851 0.968293 0.937988 0.983048
0.968853 0.981993 0.989398 0.99719
0.705188 0.820289 0.906547 0.948304
0.589104 0.75763 0.851783 0.912862
1.00207 0.999445 1.00464 0.998003
0.731871 0.845727 0.913682 0.947129
0.631094 0.767117 0.893312 0.920935
0.986975 1.00695 0.982312 0.997813
1.00842 1.00208 1.00897 0.997386
1.01229 1.00359 1.01131 0.99739
0.948646 0.966299 0.983975 0.99772
0.887715 0.965023 0.951308 0.966975
0.853182 0.926609 0.93661 0.983075
0.693496 0.811492 0.903979 0.94537
0.669329 0.839403 0.867368 0.919319
1.0041 0.999781 1.00576 0.998569
0.676528 0.796177 0.919285 0.924328
0.746248 0.872276 0.917792 0.932148
0.985343 0.992483 0.994151 0.998647
1.01562 1.00257 1.01447 0.998564
0.958372 0.958449 1.00276 0.997164
0.868143 0.917074 0.961563 0.984486
0.833118 0.912113 0.946403 0.965121
0.700483 0.805172 0.919204 0.946449
0.726407 0.890881 0.882307 0.924146
1.00208 0.998738 1.00471 0.99865
1.00723 1 1.00845 0.99879
1.0085 0.999047 1.01039 0.999074
0.998666 1 1 0.998666
0.998258 1 1 0.998258
1.00455 1 1.00642 0.998139
1.00521 1 1.00713 0.998101
1.00586 0.999863 1.00761 0.998402
0.998846 1 1.00061 0.998239
1.00504 1 1.00683 0.99823
1.00192 1 1.00388 0.998043
1.01775 0.999592 1.01963 0.998564
1.03647 0.998043 1.03945 0.999094
1.01101 1 1.01275 0.998279
1.00099 1 1.003 0.997998
0.998619 1 1.00035 0.998266
1.00085 1 1.00249 0.998371
1.0009 1 1.00279 0.998117
0.999994 1 1.0016 0.998393
1.00124 1 1.0027 0.998548
1.0041 1 1.00577 0.998343
1.00548 1 1.00719 0.998304
1.0035 0.999034 1.0059 0.998581
0.99958 1 1.00131 0.998272
0.999539 1.00102 1.00093 0.997598
1.00565 1 1.00759 0.998071
1.00622 1 1.00805 0.998191
1.00645 1 1.00813 0.998332
1.00127 1 1.0028 0.998474
0.999076 1 1.00028 0.9988
0.999349 1 1.00084 0.99851
0.999107 1 1.00028 0.998828
0.999466 1 1 0.999466
0.998888 1 1.00016 0.998726
0.999491 1 1 0.999491
0.99999 1 1 0.99999
0.99951 1 1 0.99951
0.999996 1 1 0.999996
1 1 1 1
1 1 1 1
1 1 1 1
1 1 1 1
0.999287 1 1 0.999287
0.999877 1 1 0.999877
0.99929 1 1 0.99929
1 1 1 1
0.999907 1 1 0.999907
0.999887 1 1 0.999887
1 1 1 1
1 1 1 1
1 1 1 1
1 1 1 1
1 1 1 1
0.72369 0.836876 0.917214 0.942803
0.636464 0.776937 0.88821 0.9223
0.909106 0.973638 0.946636 0.986357
0.988579 1.01984 0.972963 0.996286
1.04915 1.08157 0.972578 0.997375
0.910044 0.957984 0.960821 0.988693
0.995863 1.02944 0.970716 0.996562
0.914043 0.988452 0.952795 0.970536
0.694397 0.822531 0.895053 0.943206
0.580844 0.743527 0.851709 0.917216
0.937314 0.995574 0.949469 0.991587
0.895425 0.96539 0.955611 0.97061
0.688742 0.815547 0.89204 0.946724
0.660034 0.827097 0.867297 0.920114
1.00073 1 1.0023 0.998431
0.998925 1 1 0.998925
0.999337 1 1 0.999337
0.998826 1 1 0.998826
0.998898 1 1.0002 0.998697
0.999426 1 1.00109 0.998341
0.998575 1 1 0.998575
0.998539 1 1.00013 0.998405
0.998733 1 1 0.998733
0.998847 1 1 0.998847
0.991808 1.05265 0.944467 0.997598
0.990817 1.03613 0.958799 0.997358
1.00365 1.01721 0.989535 0.997103
0.983759 1.00177 0.984433 0.997545
1.04888 1.00338 1.04798 0.997485
1.03779 1.00051 1.03971 0.997633
1.00409 1 1.00567 0.998432
1.00128 0.999585 1.0032 0.998495
0.973006 1.02958 0.947367 0.997552
1.00795 1 1.01001 0.997964
1.01488 1 1.01683 0.998083
0.984856 1.01084 0.976897 0.997334
0.972255 1.00159 0.973078 0.99757
0.980086 1.00108 0.981045 0.997943
1.04671 0.99986 1.04927 0.997698
0.968994 1.00328 0.968045 0.997709
0.964009 0.998498 0.967112 0.998291
1.01307 0.999698 1.01524 0.99817
1.0097 1 1.01182 0.997895
1.01219 1 1.01438 0.997837
1.02888 1 1.03107 0.997873
0.705191 0.811822 0.929393 0.934644
0.740864 0.844929 0.923974 0.948982
0.888852 0.973113 0.943398 0.968214
1.00125 0.998963 1.0043 0.998003
1.00823 1.00223 1.00861 0.997395
0.989323 1.00814 0.983491 0.997805
1.01086 1.00227 1.01106 0.997536
0.731715 0.841012 0.916244 0.949574
0.882297 0.961255 0.948088 0.968117
0.851703 0.92328 0.940721 0.980604
0.947359 0.962556 0.986262 0.997922
0.689794 0.815432 0.898652 0.941327
0.628235 0.765092 0.890263 0.922339
0.667854 0.835918 0.865271 0.92335
1.00415 0.999495 1.00612 0.998545
0.678601 0.797187 0.917282 0.928007
0.759814 0.885422 0.920925 0.931821
0.984605 0.990389 0.995408 0.998747
1.01591 1.00183 1.01556 0.998515
0.955429 0.956412 1.00121 0.997764
0.858939 0.922133 0.948562 0.981981
0.862432 0.926524 0.960559 0.969046
0.713644 0.821618 0.921728 0.942342
0.717906 0.882281 0.877483 0.927305
1.00762 0.99823 1.00998 0.999431
0.781749 0.892575 0.932335 0.9394
0.753878 0.887294 0.907744 0.935988
0.980705 0.964982 1.01658 0.999715
0.898 0.920018 0.986651 0.989274
0.86325 0.907279 0.983519 0.967415
0.778973 0.877799 0.944478 0.939584
0.763438 0.926722 0.887998 0.927711
1.00673 1 1.00799 0.998743
1.00995 0.998574 1.01234 0.999062
1.02491 0.99245 1.03337 0.999354
0.999041 1 1.00081 0.998236
1.00195 1 1.00391 0.998046
1.00311 1 1.00493 0.998191
1.01712 0.999315 1.01921 0.998626
1.00163 1 1.00363 0.997998
1.01032 1 1.01207 0.998269
1.04185 0.999199 1.04355 0.999173
1.04464 0.994335 1.05117 0.999446
1.04031 0.998852 1.04248 0.999068
1.00465 1 1.00648 0.998188
1.0011 1 1.003 0.998107
1.0003 1 1.00193 0.998377
0.999258 1 1.0006 0.998654
1.00499 1 1.00667 0.998326
1.00299 1 1.00465 0.998342
1.0054 0.999571 1.00724 0.998607
1.00348 0.999727 1.00538 0.998383
1.01139 0.998123 1.01435 0.998962
0.996606 1.00085 0.997339 0.998421
1.00009 1.00064 1.00117 0.998283
0.998599 1.00007 1.00069 0.99784
1.00352 1.00537 1.00153 0.996636
1.00344 1.00071 1.0048 0.997937
0.999174 1.00048 1.00079 0.997899
1.00569 1 1.00762 0.998076
1.01105 1 1.01293 0.998147
1.00459 1 1.00641 0.998193
1.0058 1 1.00748 0.998331
0.999714 1 1.00104 0.998675
1.00198 1 1.00351 0.998472
0.99881 1 1.00001 0.998797
0.999436 1 1 0.999436
0.998945 1 1.00011 0.998832
0.999467 1 1 0.999467
0.999975 1 1 0.999975
0.999494 1 1 0.999494
0.999985 1 1 0.999985
1 1 1 1
0.999995 1 1 0.999995
1 1 1 1
1 1 1 1
0.999011 1 1 0.999011
0.999824 1 1 0.999824
0.999207 1 1 0.999207
1 1 1 1
0.999882 1 1 0.999882
0.999292 1 1 0.999292
1 1 1 1
1 1 1 1
0.999908 1 1 0.999908
1 1 1 1
1 1 1 1
1 1 1 1
0.667081 0.791959 0.908219 0.92744
0.730911 0.843751 0.915957 0.945747
0.752613 0.883402 0.914883 0.93121
0.633356 0.775413 0.887021 0.920833
0.909755 0.966608 0.954489 0.986059
0.99563 1.02991 0.96986 0.996762
0.916315 0.985805 0.95721 0.971061
0.708075 0.825381 0.905317 0.947598
0.589774 0.761734 0.849018 0.911937
0.938327 0.989814 0.956952 0.990627
0.884864 0.962694 0.952417 0.965075
0.70234 0.822967 0.903363 0.944719
0.654744 0.824836 0.865495 0.917147
0.905608 0.970303 0.945087 0.987554
0.844319 0.911655 0.960395 0.964331
0.732723 0.849759 0.917653 0.939649
0.721718 0.887667 0.88252 0.921283
1.00277 1 1.00469 0.99809
0.999819 1 1.00134 0.998482
0.998965 1 1 0.998965
0.998774 1 1 0.998774
0.998461 1 1.00051 0.997948
0.998745 1 1.00035 0.998395
0.998551 1 1 0.998551
0.998377 1 1 0.998377
0.99849 1 1.00004 0.998447
0.998688 1 1 0.998688
0.973331 1.03062 0.946646 0.997646
0.981587 1.00922 0.975272 0.997279
0.968355 1.00129 0.969365 0.997672
0.981934 1.0022 0.981856 0.997888
1.03837 1 1.04083 0.997636
1.01488 1 1.01687 0.998037
1.00862 1 1.01073 0.997917
1.00931 1 1.01149 0.997844
0.967467 1.0035 0.966266 0.997754
1.01134 1 1.01356 0.997813
1.02889 1 1.0311 0.99785
0.96345 0.999038 0.966028 0.998292
1.00795 1.00103 1.0088 0.998127
0.948854 0.978395 0.971684 0.998068
0.972104 0.978906 0.993812 0.999234
1.04246 0.999272 1.04492 0.99838
1.00509 1 1.00723 0.997868
1.02263 1 1.02467 0.998012
0.794147 0.902139 0.932839 0.943671
0.703599 0.810484 0.929869 0.933596
0.731586 0.84065 0.920893 0.94502
1.00351 0.99939 1.00561 0.998523
1.01654 1.00083 1.01726 0.998465
0.980496 0.988056 0.993491 0.998849
0.67752 0.796384 0.916126 0.928634
0.846984 0.915593 0.958882 0.964734
0.864029 0.919286 0.95565 0.983511
0.945328 0.950712 0.995957 0.998373
0.721063 0.831272 0.916081 0.946883
0.767572 0.891741 0.923897 0.931658
0.720905 0.883323 0.879821 0.927608
1.00601 0.998405 1.00824 0.999376
0.780261 0.892606 0.928793 0.941155
0.753036 0.885968 0.90794 0.93614
0.982451 0.968785 1.01458 0.999532
0.91139 0.931695 0.988973 0.989113
0.831746 0.899381 0.96023 0.963101
0.761026 0.924936 0.886674 0.927948
0.795456 0.884331 0.955274 0.941615
0.999047 0.972941 1.02713 0.999711
0.76626 0.880626 0.919039 0.946783
0.786125 0.916784 0.913504 0.938673
0.719839 0.885891 0.881751 0.92153
0.949253 0.939139 1.01363 0.99718
0.901259 0.927765 1.00267 0.96884
0.84888 0.931821 0.964697 0.944328
1.0117 0.998013 1.01468 0.999048
1.02522 0.994047 1.03211 0.99927
1.0283 0.983061 1.04647 0.999566
1.00177 1 1.00378 0.997998
1.00855 1 1.01032 0.998258
1.04626 0.999355 1.04772 0.999251
1.00497 1 1.00679 0.998194
1.04045 0.998932 1.04252 0.999079
1.04745 0.994373 1.05399 0.999421
1.03818 0.989182 1.05007 0.999489
1.02529 0.997755 1.02857 0.999058
1.00409 1 1.00575 0.99835
1.0022 1 1.00387 0.998342
1.00734 1 1.00872 0.998635
1.01058 0.998717 1.01296 0.998933
1.0033 0.999858 1.00506 0.998388
1.00337 0.999773 1.00477 0.99883
0.997438 1.00015 0.998566 0.998725
1.00314 1.00024 1.00556 0.997348
1.00051 1.00131 1.00091 0.998301
0.999673 1.00135 1.00059 0.997735
1.00002 1.00226 1.00145 0.996325
1.01538 1.01794 1.00129 0.996203
1.00403 1.00373 1.00276 0.997545
1.00177 1.0037 1.00138 0.996702
1.0106 1 1.01272 0.997909
1.00476 1.00136 1.00546 0.997947
0.998842 1 1.00065 0.998198
1.00605 1 1.00798 0.998081
1.01005 1 1.01189 0.998182
1.00353 1 1.00502 0.998511
1.00538 1 1.00706 0.998331
0.999928 1 1.00125 0.998676
0.999353 1 1 0.999353
0.998793 1 1 0.998793
0.999433 1 1 0.999433
0.999964 1 1 0.999964
0.999468 1 1 0.999468
0.999971 1 1 0.999971
1 1 1 1
0.999981 1 1 0.999981
1 1 1 1
1 1 1 1
0.99873 1 1 0.99873
0.999602 1 1 0.999602
0.999009 1 1 0.999009
1 1 1 1
0.999767 1 1 0.999767
0.999126 1 1 0.999126
1 1 1 1
1 1 1 1
0.999888 1 1 0.999888
1 1 1 1
1 1 1 1
1 1 1 1
0.782653 0.90129 0.92407 0.939723
0.670311 0.792485 0.908666 0.930853
0.723459 0.838415 0.913048 0.945065
0.99826 1 1 0.99826
0.759987 0.885251 0.914251 0.939019
0.751696 0.883128 0.914215 0.931045
0.642207 0.786464 0.883524 0.924225
0.947653 0.993456 0.96407 0.989447
0.877308 0.951083 0.951074 0.969883
0.704895 0.836844 0.895641 0.940471
0.647197 0.809299 0.86974 0.91947
0.902902 0.965572 0.949929 0.984384
0.858524 0.921183 0.962172 0.968621
0.731062 0.839025 0.926637 0.940306
0.719165 0.883988 0.882056 0.92233
0.851271 0.916908 0.946576 0.980813
0.841443 0.896901 0.971623 0.965567
0.807376 0.89326 0.959179 0.94232
0.764089 0.925247 0.89021 0.927671
1.00143 1 1.00355 0.997892
1.00391 1 1.00587 0.998046
0.99923 1 1.0007 0.998533
0.99822 1 1.00015 0.998073
0.99872 1 1.0007 0.998025
0.998447 1 1 0.998447
0.99838 1 1 0.99838
0.998512 1 1.00003 0.998487
0.966095 1.00409 0.964293 0.997784
0.963268 1.00076 0.964175 0.998301
1.00923 1 1.01146 0.997792
1.00232 1.00229 1.00195 0.998083
1.03028 1 1.03253 0.997826
1.01115 1 1.01339 0.99779
1.0059 1 1.00804 0.997877
0.951509 0.977564 0.975101 0.998202
1.02032 1 1.02233 0.998026
1.03192 1.00006 1.03348 0.998424
0.971072 0.981932 0.989649 0.999283
1.00729 1 1.00923 0.998074
0.937447 0.955049 0.983793 0.997741
1.00086 0.978757 1.02312 0.999477
1.0575 0.996938 1.0623 0.998536
1.0249 0.999304 1.02745 0.998215
0.773713 0.881846 0.923329 0.950233
0.793885 0.902461 0.932536 0.943329
0.703402 0.808663 0.932775 0.932523
1.00355 0.998461 1.00578 0.999323
0.985496 0.97209 1.01445 0.999352
0.781741 0.895411 0.925968 0.942855
0.856212 0.897065 0.985657 0.968349
0.900394 0.93029 0.982095 0.98551
0.789869 0.878995 0.955997 0.939966
0.754062 0.887116 0.907891 0.936252
0.760244 0.924787 0.885677 0.928188
1.00411 0.98089 1.02402 0.999669
0.767809 0.88228 0.919194 0.946759
0.787136 0.91481 0.914475 0.940907
0.960756 0.946635 1.01571 0.999215
0.716972 0.882212 0.881 0.922473
0.873221 0.908875 0.994643 0.965946
0.849873 0.932828 0.965237 0.943883
0.995852 0.967217 1.02989 0.999719
0.796667 0.907846 0.923853 0.949865
0.757306 0.881191 0.91485 0.939402
0.656937 0.824947 0.865294 0.920309
0.805487 0.892297 0.958587 0.941711
0.940717 0.941153 1.00608 0.993497
0.908513 0.926061 1.02021 0.961618
1.02376 0.996028 1.02868 0.999188
1.02856 0.981479 1.04846 0.999534
1.01698 0.968536 1.05046 0.999582
1.00633 1 1.00814 0.9982
1.04418 0.99897 1.04621 0.999091
1.05384 0.995223 1.05954 0.999396
1.02114 0.998094 1.02407 0.999045
1.0364 0.990991 1.04636 0.999488
1.00932 0.986653 1.02375 0.999235
1.01047 0.999385 1.01221 0.998903
1.00329 1 1.00491 0.998394
1.00683 0.999891 1.00815 0.998807
1.01231 0.998949 1.01532 0.998089
0.99848 0.999452 1 0.999028
1.00002 1.0002 1.00227 0.997565
1.00418 1.00153 1.00682 0.995859
1.00525 1.00752 1.00222 0.995538
1.00068 1.00266 1.0004 0.997624
1.00049 1.00292 1.00147 0.996116
1.01696 1.02022 1.00053 0.996279
1.0109 1.0114 1.00261 0.996898
1.01408 1.01656 1.00125 0.996307
1.00794 1.00062 1.00962 0.997713
1.00674 1.00589 1.00335 0.997511
0.999523 1.00148 1.00128 0.996769
1.00964 1 1.01136 0.998296
1.00991 1 1.012 0.997935
1.00607 1.00199 1.00613 0.997956
1.00893 1 1.01073 0.998216
1.00357 1 1.00507 0.998511
0.99984 1 1.00064 0.999196
1.00008 1 1.00141 0.998676
0.999435 1 1.00009 0.999348
0.999953 1 1 0.999953
0.99943 1 1 0.99943
0.999962 1 1 0.999962
1 1 1 1
0.999968 1 1 0.999968
1 1 1 1
1 1 1 1
0.99864 1 1 0.99864
0.999425 1 1 0.999425
0.998782 1 1 0.998782
1 1 1 1
0.999583 1 1 0.999583
0.999006 1 1 0.999006
1 1 1 1
1 1 1 1
0.999711 1 1 0.999711
1 1 1 1
1 1 1 1
1 1 1 1
0.773305 0.884184 0.922033 0.948553
0.784618 0.90038 0.927321 0.939729
0.671351 0.791788 0.910725 0.931008
0.9983 1 1 0.9983
0.998766 1 1.00055 0.998215
0.998212 1 1 0.998212
0.787197 0.91913 0.912744 0.938334
0.756754 0.884888 0.910596 0.939162
0.749948 0.882562 0.912814 0.930902
0.909638 0.972752 0.947955 0.986458
0.829905 0.908621 0.947253 0.964228
0.729327 0.826492 0.932377 0.946438
0.726987 0.891607 0.885885 0.920398
0.855006 0.922586 0.94206 0.983748
0.855837 0.905219 0.97908 0.965648
0.791524 0.87649 0.957562 0.943083
0.761457 0.925084 0.887161 0.927817
0.864775 0.915847 0.962284 0.981245
0.877957 0.91238 0.995143 0.966968
0.848266 0.928818 0.966721 0.944714
0.73086 0.894355 0.884187 0.924231
0.998683 1 1.00064 0.998041
1.00175 1 1.00391 0.997853
1.00363 1 1.00564 0.998002
0.998102 1 1.00004 0.99806
0.998462 1 1.00036 0.998104
0.998384 1 1 0.998384
0.950138 0.972582 0.978558 0.99833
0.968917 0.981407 0.987955 0.99931
1.00659 1 1.00872 0.997886
1.02359 1.00049 1.02467 0.998466
1.02051 1 1.02251 0.998041
1.00941 1 1.01135 0.998087
1.02074 0.99705 1.02555 0.998252
0.944763 0.954781 0.991653 0.997837
1.05366 0.995524 1.0598 0.998678
1.00452 0.97356 1.0325 0.999327
1.01315 0.995695 1.01914 0.998418
0.969745 0.953324 1.0198 0.997473
1.01283 0.973214 1.04146 0.99928
1.03596 0.979643 1.05876 0.998792
0.810832 0.915015 0.93058 0.952246
0.776768 0.883192 0.925114 0.950694
0.793152 0.902674 0.931789 0.942991
1.00983 0.988772 1.02168 0.999627
0.950011 0.944437 1.00821 0.997715
0.768676 0.882872 0.919637 0.946736
0.870166 0.896785 1.00021 0.970118
0.846775 0.933041 0.964723 0.940729
0.78808 0.91376 0.914458 0.943136
0.727088 0.890444 0.886892 0.920681
0.991133 0.963395 1.02903 0.999766
0.796683 0.906253 0.924663 0.95072
0.759459 0.885658 0.912674 0.939555
0.936147 0.936979 1.00985 0.989371
0.651857 0.821748 0.864583 0.917502
0.788269 0.87493 0.956293 0.942129
0.915504 0.93169 1.0156 0.967529
1.00449 0.954251 1.05421 0.998517
0.774085 0.882566 0.924448 0.948766
0.762811 0.890534 0.919345 0.931725
0.574889 0.726322 0.857421 0.923125
0.721447 0.839336 0.914918 0.939476
0.882316 0.911483 1.00187 0.966193
0.912785 0.930298 0.994892 0.986212
1.0261 0.980666 1.04685 0.999501
1.02287 0.977301 1.04706 0.999585
1.00958 0.979437 1.0313 0.999491
1.01519 0.99851 1.01769 0.999032
1.03183 0.992401 1.04026 0.999487
1.01272 0.983149 1.03078 0.999319
1.00563 0.997029 1.00986 0.998775
1.01019 1 1.01142 0.998783
1.00959 0.999496 1.01227 0.997854
1.02226 1.00093 1.0252 0.996202
0.996719 1.00005 0.99888 0.997784
1.0053 1.00158 1.00785 0.995896
1.0054 1.00253 1.00791 0.994989
1.00822 1.01122 1.00191 0.995141
1.00971 1.01277 1.00108 0.995909
1.00528 1.00737 1.00245 0.995481
1.00074 1.00349 1.00136 0.995909
1.01187 1.0142 1.0011 0.996607
1.0179 1.02112 1.00048 0.996368
1.0046 1.00273 1.00464 0.997244
1.01321 1.01351 1.00274 0.996979
1.01376 1.01622 1.00117 0.996412
1.0114 1 1.01345 0.997976
1.00818 1.00145 1.00903 0.997708
1.00965 1.00834 1.00383 0.997475
1.00211 1 1.00311 0.999005
1.00834 1 1.01006 0.998295
1.00918 1 1.01124 0.997961
1.00347 1 1.00496 0.998512
1.00024 1 1.00105 0.999192
0.999922 1 1 0.999922
0.999558 1 1.00021 0.999343
0.999947 1 1 0.999947
1 1 1 1
0.99996 1 1 0.99996
1 1 1 1
1 1 1 1
0.998587 1 1 0.998587
0.999392 1 1 0.999392
0.99867 1 1 0.99867
0.999993 1 1 0.999993
0.999471 1 1 0.999471
0.998835 1 1 0.998835
1 1 1 1
1 1 1 1
0.999564 1 1 0.999564
1 1 1 1
1 1 1 1
1 1 1 1
0.795106 0.907154 0.923044 0.949558
0.777148 0.885206 0.925559 0.948539
0.786686 0.899142 0.931 0.939774
1.00615 1 1.00808 0.998085
1.00251 1 1.00454 0.997984
0.998342 1 1 0.998342
0.999256 1 1.00106 0.998199
0.998216 1 1 0.998216
1.00028 1 1.0021 0.998186
0.998246 1 1 0.998246
0.757227 0.892303 0.906806 0.935835
0.790391 0.917621 0.91574 0.940602
0.757484 0.882919 0.913364 0.93931
0.760081 0.92526 0.885234 0.92798
0.855447 0.924088 0.943491 0.981165
0.856586 0.901389 0.984188 0.965563
0.801094 0.890717 0.951188 0.945534
0.850181 0.916649 0.946188 0.980237
0.879762 0.906822 1.00801 0.962452
0.847623 0.930201 0.96466 0.944608
0.720017 0.884714 0.877574 0.927376
0.892207 0.926644 0.979293 0.983196
0.894162 0.916775 1.01364 0.962207
0.783159 0.880676 0.94598 0.940052
0.670551 0.835075 0.872573 0.920247
1.02518 0.999995 1.02685 0.998384
1.00027 1 1.00221 0.998068
1.00266 1 1.00486 0.997815
0.998047 1 1 0.998047
0.955258 0.957587 0.999602 0.997965
1.00615 0.971361 1.03667 0.999171
1.00886 1 1.01078 0.998101
1.01591 0.996487 1.02124 0.998289
1.04322 0.990815 1.05413 0.998821
1.01299 0.99844 1.01618 0.99842
1.03844 0.979474 1.06149 0.998779
0.968883 0.95275 1.02109 0.995934
1.01151 0.964285 1.04956 0.999437
1.01215 0.982859 1.03093 0.998906
0.953578 0.926864 1.03368 0.995297
1.00452 0.955288 1.05229 0.999285
0.775728 0.881475 0.925941 0.950421
0.808378 0.913174 0.92812 0.953799
0.780416 0.884557 0.92758 0.95115
0.986701 0.957928 1.03024 0.999805
0.942019 0.940932 1.0073 0.993905
0.794788 0.903967 0.923954 0.951588
0.91707 0.9361 1.01793 0.962417
0.792285 0.883733 0.949016 0.944685
0.763059 0.888193 0.914249 0.939693
0.64601 0.806747 0.870609 0.919769
1.00536 0.956535 1.05237 0.99873
0.776841 0.886879 0.923235 0.948758
0.75605 0.884595 0.917467 0.93157
0.914908 0.93061 0.994205 0.988858
0.582072 0.743218 0.853131 0.918004
0.719754 0.829325 0.923463 0.939809
0.879133 0.908264 1.00528 0.962842
0.99304 0.960755 1.03703 0.996696
0.785124 0.904436 0.923461 0.940029
0.636107 0.77437 0.889913 0.923069
0.691989 0.818426 0.892434 0.947422
0.832991 0.882033 0.97671 0.966918
0.870866 0.906233 0.978638 0.98195
1.0307 0.982109 1.04991 0.99959
1.01276 0.97707 1.03705 0.999496
0.980047 0.974805 1.00611 0.999272
1.01739 0.980132 1.03863 0.999402
1.00319 0.989002 1.01548 0.998879
1.00312 1.0008 1.00466 0.997674
1.00702 1.00003 1.0094 0.997619
1.02056 1.00093 1.02364 0.996062
1.01046 1.00091 1.01445 0.995166
1.00684 1.00186 1.00907 0.995933
1.00616 1.00235 1.00895 0.994897
1.00173 1.00255 1.00448 0.994728
1.03094 1.03574 1 0.995369
1.01821 1.02207 1.00077 0.995463
1.00859 1.01137 1.00218 0.995083
1.00986 1.01357 1.00013 0.996213
1.00835 1.01167 1.00074 0.995973
1.0054 1.00718 1.00282 0.995424
1.00982 1.01205 1.00112 0.99668
1.01128 1.01366 1.00108 0.996578
1.01842 1.0216 1.00043 0.996458
1.00652 1.00095 1.00803 0.997557
1.00562 1.00366 1.00463 0.997329
1.01486 1.01494 1.00288 0.99706
1.0074 1 1.00871 0.998703
1.01028 1 1.01232 0.997983
1.00848 1.00237 1.00841 0.997703
0.999863 1 1 0.999863
1.00289 1 1.0039 0.998999
1.00736 1 1.00908 0.998294
1.0007 1 1.00151 0.999188
0.999911 1 1 0.999911
1 1 1 1
0.999941 1 1 0.999941
1 1 1 1
1 1 1 1
1.00769 1 1.00962 0.998084
1.00139 1 1.00299 0.998405
0.99924 1 1 0.99924
0.998844 1 1.00026 0.998583
0.999973 1 1 0.999973
0.999395 1 1 0.999395
0.998699 1 1 0.998699
1 1 1 1
0.999995 1 1 0.999995
0.999517 1 1 0.999517
1 1 1 1
1 1 1 1
1 1 1 1
0.767438 0.881666 0.919434 0.946713
0.792068 0.90382 0.922058 0.950435
0.777786 0.888257 0.923157 0.948519
1.00759 1 1.00951 0.998096
1.00483 1.00004 1.00681 0.997996
1.00038 1 1.00243 0.997954
1.00849 1 1.01051 0.998005
1.00781 1.0001 1.00975 0.997971
1.00067 1 1.00249 0.998182
0.998219 1 1 0.998219
0.999926 1 1.00174 0.99819
0.998259 1 1 0.998259
1.0155 1 1.01721 0.99832
0.74723 0.875033 0.916368 0.93188
0.756471 0.889599 0.908467 0.936028
0.791432 0.917189 0.915185 0.942857
0.721405 0.885781 0.877917 0.927683
0.846835 0.930881 0.966574 0.941173
0.84536 0.912239 0.94682 0.978736
0.885446 0.910674 1.00601 0.966493
0.88267 0.927394 0.97144 0.979755
0.90084 0.927282 1.00499 0.966662
0.79864 0.884259 0.958147 0.942627
0.671732 0.843085 0.866919 0.919065
0.898203 0.9169 0.997254 0.982306
0.885917 0.906945 1.00979 0.967348
0.707564 0.810078 0.923176 0.946137
0.614431 0.774149 0.860185 0.922693
1.02356 0.999686 1.02495 0.998955
1.02594 0.999752 1.02784 0.998398
1.00309 1 1.005 0.998096
0.968999 0.952733 1.02288 0.994321
1.01275 0.95799 1.05759 0.999598
1.01391 0.999987 1.01553 0.998422
1.04375 0.979092 1.06735 0.998767
1.01513 0.987015 1.02961 0.998912
1.01083 0.963333 1.05006 0.999278
0.956478 0.93409 1.02886 0.99524
1.01406 0.989054 1.02595 0.999345
0.967233 0.952428 1.01958 0.996041
0.794477 0.902836 0.932977 0.943195
0.781132 0.885083 0.928149 0.950873
0.805349 0.910939 0.925391 0.955365
1.00661 0.964109 1.04522 0.998909
0.909697 0.927297 0.996648 0.984318
0.782374 0.891304 0.92521 0.948742
0.881655 0.912602 1.0024 0.963781
0.716286 0.814726 0.929548 0.945809
0.747435 0.879015 0.912879 0.93146
0.589472 0.760104 0.849621 0.912778
0.990324 0.959372 1.03541 0.996961
0.784835 0.900051 0.927634 0.940015
0.63409 0.774605 0.888205 0.921632
0.882899 0.918072 0.977784 0.983538
0.70338 0.824195 0.902829 0.945267
0.832181 0.892877 0.966646 0.964181
0.946169 0.945391 1.0058 0.99505
0.668469 0.793044 0.908296 0.928018
0.702493 0.822323 0.900951 0.948197
0.842696 0.913117 0.956907 0.964439
0.848352 0.907002 0.950116 0.984444
1.01249 0.974839 1.03914 0.999502
0.982568 0.970929 1.01275 0.999246
0.993392 0.989448 1.00558 0.998419
0.999751 0.979149 1.02209 0.998979
1.00234 1.00038 1.0042 0.997767
0.998259 1.0025 0.999119 0.996652
1.01871 1.00073 1.02214 0.995919
1.00926 1.00126 1.01288 0.995167
0.99944 1.00258 1.00137 0.995502
1.00628 1.002 1.00952 0.994805
1.00206 1.00362 1.0037 0.994766
1.02736 1.03189 1 0.995608
1.05613 1.06032 0.999991 0.996059
1.04184 1.04657 1.00002 0.995466
1.03119 1.03596 1 0.9954
1.02252 1.02688 1 0.995755
1.01698 1.02058 1.00107 0.995406
1.00962 1.01221 1.00244 0.995024
1.0158 1.01952 1 0.996359
1.00822 1.01196 1.00002 0.996287
1.00671 1.0104 1.00032 0.996037
1.00351 1.00434 1.00208 0.997094
1.00731 1.00932 1.0013 0.996725
1.01121 1.01361 1.0011 0.996549
1.0099 1.00005 1.01164 0.998226
1.00799 1.00177 1.00868 0.997559
1.00661 1.0044 1.0048 0.997414
1.0006 1 1.00083 0.999773
1.00687 1 1.00819 0.998696
1.00948 1.00004 1.01147 0.997991
0.99998 1 1 0.99998
0.999973 1 1.00013 0.999848
1.00341 1 1.00442 0.998993
0.9999 1 1 0.9999
1 1 1 1
1 1 1 1
1.00706 1.00067 1.00846 0.997941
1.00577 1 1.00756 0.998225
1.00867 1 1.01063 0.998061
0.999845 1 1.00077 0.999073
1.001 1 1.0026 0.998402
0.999941 1 1 0.999941
0.999245 1 1 0.999245
0.998622 1 1.00004 0.998578
1 1 1 1
0.99998 1 1 0.99998
0.999397 1 1 0.999397
1 1 1 1
0.999998 1 1 0.999998
1 1 1 1
0.779119 0.894131 0.923691 0.943357
0.771273 0.884783 0.920788 0.9467
0.792722 0.900094 0.925786 0.951311
0.999587 1.00128 1.00039 0.997918
1.00634 1 1.00825 0.998107
1.00351 1 1.00551 0.99801
1.00449 1 1.00652 0.997982
1.00041 1.00002 1.00241 0.997982
1.00445 1 1.00635 0.998116
1.01276 1.00027 1.01501 0.997514
1.01765 1 1.01958 0.998104
0.999903 1 1.00171 0.998193
0.998272 1 1 0.998272
1.01669 1 1.01842 0.998302
1.03181 1.00046 1.03287 0.998514
0.649296 0.78313 0.897708 0.923577
0.759875 0.887558 0.919035 0.931565
0.757258 0.889052 0.909827 0.936177
0.670176 0.839735 0.86463 0.923032
0.795493 0.882997 0.956915 0.941464
0.89621 0.919217 1.01318 0.962292
0.882892 0.921638 0.977026 0.980484
0.898078 0.918155 0.993659 0.984375
0.602916 0.767607 0.855978 0.917603
0.87721 0.907523 1.0032 0.963512
0.719809 0.826116 0.925079 0.941885
0.89787 0.926726 0.98266 0.985959
0.861024 0.90408 0.983039 0.968808
0.691073 0.816406 0.894789 0.946014
0.992123 1.00007 0.992519 0.99953
1.02328 1.00003 1.02431 0.99896
1.02604 1 1.02768 0.998409
0.95751 0.937126 1.02661 0.995267
1.01784 0.972109 1.0478 0.999273
1.0175 0.992293 1.02651 0.998919
1.01286 0.988676 1.02513 0.999344
0.963354 0.951184 1.01677 0.996087
0.988284 0.982746 1.00824 0.997418
0.704594 0.810592 0.933698 0.930958
0.791113 0.901687 0.92823 0.945208
0.782604 0.887263 0.927194 0.951304
0.991571 0.959122 1.03681 0.997132
0.87369 0.914808 0.970163 0.984425
0.782774 0.89578 0.929561 0.940064
0.844824 0.88864 0.985331 0.964846
0.708407 0.840318 0.895718 0.94117
0.644735 0.78687 0.885855 0.924943
0.945678 0.940241 1.01072 0.995115
0.671881 0.793325 0.90933 0.931364
0.69682 0.823193 0.896797 0.943897
0.844618 0.908694 0.947687 0.980794
0.859592 0.925467 0.958825 0.968706
0.941282 0.956949 0.985928 0.997667
0.721802 0.833741 0.917887 0.943187
0.897255 0.967712 0.955308 0.970569
0.849401 0.920281 0.941321 0.980516
0.98601 0.968616 1.01875 0.999226
0.98448 0.989725 0.996192 0.998504
0.995212 1.00086 0.996899 0.997453
1.00248 1.00044 1.00418 0.99786
1.00086 1.00261 1.00164 0.996621
1.00116 1.00518 0.999428 0.996562
1.00825 1.00175 1.01138 0.995167
0.999273 1.00211 1.00167 0.995507
1.02935 1.03546 0.997569 0.996518
1.00235 1.00439 1.00319 0.994803
1.02586 1.03038 1 0.995618
1.05587 1.06113 0.998334 0.9967
1.05638 1.06067 0.999174 0.996784
1.05736 1.06163 1 0.995974
1.0569 1.0611 0.999931 0.996108
1.04374 1.04825 1 0.995695
1.03991 1.04458 1 0.995533
1.03026 1.03499 1 0.995432
1.03169 1.03577 1 0.996065
1.02321 1.0274 1.00014 0.995779
1.01578 1.01902 1.00148 0.995349
1.01098 1.01433 1 0.996694
1.01445 1.01816 1 0.996355
1.00638 1.01006 1 0.996361
1.00387 1.00089 1.00523 0.997759
1.00593 1.00651 1.00234 0.997087
1.00438 1.00618 1.00145 0.996771
1.00222 1 1.00264 0.999578
1.00824 1.00048 1.00955 0.998224
1.0087 1.0026 1.00855 0.99756
1 1 1 1
1.00125 1 1.00152 0.999734
1.00618 1 1.0075 0.99869
1 1 1 1
1.00025 1 1.00042 0.999832
1 1 1 1
1.00148 1.00187 1.00185 0.99777
1.00582 1.00039 1.00752 0.997919
1.00823 1 1.01018 0.998066
1.00257 1 1.00367 0.9989
1.00685 1 1.00864 0.998222
1.01088 1 1.01286 0.998038
0.999893 1 1 0.999893
0.999599 1 1.00052 0.999078
1.00139 1 1.003 0.998398
1 1 1 1
0.99995 1 1 0.99995
0.99925 1 1 0.99925
1 1 1 1
0.999986 1 1 0.999986
1 1 1 1
0.676658 0.796399 0.918444 0.925094
0.782207 0.897204 0.924133 0.9434
0.77531 0.888279 0.921971 0.946692
1.00236 1.00067 1.00381 0.997891
1.00729 1.00396 1.00583 0.997505
1.01105 1.00089 1.01247 0.997709
1.00532 1 1.00737 0.99796
1.00131 1.00095 1.00236 0.998009
1.00534 1 1.0071 0.998258
1.01695 1 1.01894 0.998045
1.0131 1.00068 1.01483 0.997615
1.01775 1.00168 1.0185 0.997588
0.982288 1.00148 0.981853 0.998966
1.01544 1 1.01719 0.998284
1.02723 1.00017 1.02861 0.998494
0.699562 0.820399 0.906232 0.94094
0.630652 0.766171 0.894227 0.920484
0.767978 0.894472 0.921803 0.931417
0.591858 0.7606 0.852899 0.912354
0.727449 0.834027 0.921623 0.946387
0.863627 0.900272 0.993866 0.965216
0.902909 0.922419 0.997222 0.981576
0.885375 0.918585 0.980054 0.983462
0.695646 0.812185 0.906986 0.94435
0.840784 0.894391 0.97418 0.964978
0.867553 0.923098 0.954069 0.985073
0.83483 0.919614 0.940704 0.965027
0.999235 1 1.00021 0.999023
0.993279 1.00008 0.993714 0.999478
1.02352 1 1.02458 0.998965
0.957152 0.947762 1.01382 0.996142
1.01118 0.987086 1.02508 0.999344
0.989646 0.984721 1.00765 0.997368
0.974776 0.989161 0.989079 0.996339
0.739385 0.848513 0.91876 0.948441
0.701922 0.808071 0.932674 0.931343
0.793183 0.903826 0.926539 0.947164
0.949034 0.946999 1.00688 0.995301
0.847338 0.906349 0.952775 0.98123
0.673092 0.793371 0.910811 0.931471
0.828964 0.910381 0.943921 0.964665
0.712239 0.828512 0.906513 0.948316
0.943546 0.960238 0.986167 0.996401
0.732334 0.843709 0.917404 0.946141
0.887553 0.964849 0.952864 0.965393
0.850519 0.921733 0.938481 0.983226
0.953393 0.981151 0.974154 0.99749
0.906197 0.977781 0.955604 0.969847
0.901227 0.968451 0.943734 0.986068
0.975361 0.988733 0.987886 0.998571
0.990454 1.00095 0.992073 0.997424
0.982366 1.00852 0.976732 0.997274
1.00239 1.00293 1.00287 0.996593
1.00053 1.00535 0.998648 0.996556
1.02467 1.04287 0.985257 0.997244
0.999136 1.00177 1.00186 0.995513
1.02756 1.03485 0.996439 0.996496
1.04365 1.06128 0.98604 0.997311
1.02521 1.02972 1 0.995628
1.05435 1.06053 0.997473 0.996691
1.04997 1.06158 0.991746 0.997294
1.05111 1.05823 0.996081 0.997175
1.05716 1.06189 0.998689 0.996859
1.05466 1.05827 0.999955 0.996633
1.05837 1.06258 1 0.996037
1.05746 1.06171 1 0.995997
1.05842 1.06264 0.999868 0.996157
1.04621 1.0505 1 0.995919
1.0455 1.04999 1 0.995723
1.03809 1.04268 1 0.995601
1.02773 1.03146 1 0.996384
1.03152 1.0356 1 0.996063
1.02378 1.02792 1.00017 0.995803
1.00076 1.00304 1.00029 0.997427
1.01253 1.01589 1 0.996692
1.01405 1.01777 1 0.996352
1.00216 1 1.00287 0.999291
1.00434 1.00145 1.00514 0.997758
1.00894 1.00887 1.003 0.997081
1 1 1 1
1.00267 1 1.00312 0.999552
1.00716 1.00068 1.00827 0.998221
0.999982 1 1 0.999982
1.00187 1 1.00215 0.999721
1 1 1 1
1.00049 1.00286 1 0.997633
1.00165 1.00097 1.00289 0.997788
1.00552 1 1.00763 0.997908
1.0037 1 1.00581 0.997896
1.00868 1 1.01063 0.998068
1.0057 1 1.00701 0.998705
1.00005 1 1.00022 0.999826
1.00174 1 1.00284 0.998901
1.0072 1 1.009 0.998219
1 1 1 1
0.999908 1 1 0.999908
0.99934 1 1.00026 0.999084
1 1 1 1
0.999961 1 1 0.999961
1 1 1 1
0.726633 0.836965 0.917793 0.945939
0.678885 0.796951 0.919674 0.926256
0.783037 0.898577 0.923659 0.943443
1.00472 1.00004 1.00683 0.997865
1.01367 1.00035 1.01584 0.997518
1.00452 1.00289 1.00406 0.997576
1.00557 1.00756 1.00145 0.996586
1.01397 1.00212 1.01426 0.997598
1.01527 1 1.01732 0.99799
1.01102 1.00025 1.01308 0.997717
1.0191 1.00137 1.02005 0.997695
0.999741 1.00377 0.99863 0.997355
0.97381 1.00123 0.974089 0.998487
0.971626 1.00035 0.97354 0.997684
0.983841 1.00089 0.983953 0.998997
1.02225 1.00031 1.02349 0.998474
0.877364 0.954282 0.949449 0.968347
0.692847 0.814624 0.902301 0.942603
0.627078 0.763653 0.890783 0.921837
0.69353 0.818732 0.900888 0.940272
0.849841 0.904307 0.973123 0.965726
0.890539 0.915359 0.986688 0.986011
0.867444 0.921418 0.953892 0.986929
0.867425 0.930089 0.961669 0.969798
0.891467 0.961352 0.940433 0.986041
0.993256 1.00132 0.993719 0.998218
0.998413 1 0.999412 0.999
0.993836 1 0.994407 0.999426
0.992595 0.988449 1.00684 0.997368
0.980565 0.991633 0.992102 0.99671
0.88553 0.966027 0.946906 0.968072
0.74308 0.846972 0.924499 0.948986
0.697976 0.803602 0.932155 0.931775
0.946767 0.966011 0.98495 0.995055
0.858346 0.932037 0.93903 0.98073
0.726642 0.839542 0.915439 0.945471
0.87908 0.952463 0.951598 0.9699
0.96053 0.981278 0.981228 0.997582
0.915786 0.988165 0.955012 0.97041
0.898858 0.9648 0.947432 0.983345
0.964566 1.00313 0.964505 0.996946
0.933564 0.991894 0.950363 0.990351
0.989707 1.00289 0.989406 0.997421
0.979877 1.00826 0.974547 0.997227
0.992874 1.03912 0.957809 0.997584
0.99955 1.0049 0.998123 0.996548
1.02701 1.04426 0.986225 0.997212
1.03946 1.06868 0.974992 0.997606
1.02544 1.03406 0.995171 0.996474
1.0436 1.06144 0.985871 0.997285
1.03662 1.06045 0.979942 0.997535
1.05217 1.0593 0.996577 0.996682
1.04975 1.06155 0.991586 0.997272
1.04658 1.06177 0.988285 0.997375
1.05035 1.05822 0.995315 0.997232
1.04995 1.05625 0.997043 0.996986
1.05753 1.06272 0.998176 0.996935
1.05452 1.05813 0.999964 0.996625
1.05567 1.05948 1 0.996407
1.05556 1.05976 1 0.996037
1.0581 1.06233 1 0.996024
1.05746 1.06168 1 0.996021
1.04252 1.0465 1 0.996191
1.04646 1.05075 1 0.995921
1.04755 1.05202 1 0.995751
1.00784 1.0107 1 0.997169
1.0262 1.02993 1 0.996384
1.03095 1.03503 1 0.99606
1.0003 1 1.00133 0.99897
1.00303 1.00504 1.00057 0.997428
1.01353 1.01689 1 0.996689
1 1 1 1
1.00178 1 1.00251 0.999266
1.00462 1.00225 1.00461 0.997757
1 1 1 1
1.00294 1 1.00342 0.999527
1 1 1 1
1.01194 1.01493 1.00033 0.996733
1.0011 1.00349 1 0.997618
1.00124 1.00133 1.00226 0.997656
1.00241 1 1.00461 0.997808
1.00481 1 1.00695 0.99787
1.00696 1 1.00853 0.998439
1.01026 1 1.01221 0.998069
1.006 1 1.00731 0.998703
1.00131 1 1.00158 0.999729
1 1 1 1
0.999875 1 1.00003 0.99984
1.00095 1 1.00205 0.998902
1 1 1 1
0.99992 1 1 0.99992
1 1 1 1
0.906556 0.977451 0.95429 0.971895
0.731861 0.845288 0.914318 0.946949
0.679749 0.797758 0.921822 0.924336
1.01617 1.00001 1.01889 0.997327
1.00241 1.00256 1.00221 0.997648
1.01169 1.00217 1.01201 0.997521
1.00663 1.00844 1.00153 0.996684
1.02191 1.02557 1.00016 0.996268
1.00079 1.00367 1 0.997129
1.02171 1.00138 1.02255 0.997798
1.00063 1.00455 0.998917 0.99717
0.980713 1.00229 0.979975 0.998469
0.99582 1.0028 0.995604 0.997421
0.970572 1.00345 0.969476 0.997689
0.993052 1.00152 0.994312 0.997222
0.973269 1.00082 0.974625 0.997792
0.987868 1.00027 0.988563 0.99903
0.903172 0.971419 0.942967 0.985978
0.88717 0.963854 0.95076 0.96811
0.702803 0.815404 0.909717 0.947447
0.853327 0.924434 0.957096 0.96446
0.878213 0.923227 0.962837 0.987958
0.892573 0.953261 0.945872 0.989919
0.97401 1.00377 0.97322 0.997056
0.990963 1.00051 0.992296 0.998149
0.997175 0.999679 0.998516 0.998978
0.982104 0.992914 0.992028 0.997062
0.923856 0.973163 0.962347 0.986477
0.900289 0.973335 0.950616 0.973003
0.73261 0.8421 0.92065 0.944963
0.958592 0.976728 0.983716 0.997678
0.904161 0.971113 0.945167 0.985071
0.916627 0.985934 0.957634 0.970834
0.958796 1.0012 0.960509 0.997025
0.934882 0.988178 0.956117 0.989488
0.960863 1.02481 0.940295 0.997136
0.979748 1.01888 0.965683 0.995761
0.976047 1.00801 0.971036 0.997174
0.98987 1.03678 0.957073 0.99758
1.00682 1.06826 0.944786 0.997566
1.03 1.04628 0.98722 0.997181
1.03883 1.06826 0.974807 0.997584
1.03965 1.06671 0.977087 0.997486
1.04408 1.06188 0.985943 0.997259
1.03741 1.06005 0.981082 0.997516
1.04963 1.06857 0.984904 0.997339
1.04984 1.06175 0.991516 0.99725
1.04498 1.05948 0.98892 0.997368
1.04967 1.06124 0.991978 0.997097
1.04988 1.05844 0.994606 0.997288
1.0501 1.0563 0.997087 0.997032
1.05462 1.05892 0.999289 0.996652
1.05454 1.05814 0.999983 0.996616
1.0559 1.05972 1 0.996396
1.05656 1.06052 1 0.996266
1.04895 1.053 1 0.996151
1.05577 1.05998 1 0.996027
1.05778 1.06202 1 0.996012
1.01975 1.02286 1 0.99696
1.04105 1.04502 1 0.996197
1.04671 1.051 1 0.995923
0.999428 1.00045 1.00027 0.99871
1.01026 1.01312 1.00001 0.997168
1.0248 1.02852 1 0.996384
1 1 1 1
0.999902 1 1.00095 0.998952
1.00529 1.00707 1.00081 0.997429
1 1 1 1
1.00152 1 1.00228 0.999241
1 1 1 1
1.02537 1.02913 1 0.996341
1.01366 1.01681 1.00014 0.996765
1.00962 1.0119 1.00066 0.997083
1.00087 1.00327 1 0.997603
1.00092 1.00113 1.0022 0.997602
1.00466 1.00153 1.00504 0.998091
1.00392 1 1.0061 0.997832
1.00748 1 1.00906 0.998441
1.00318 1 1.00359 0.999596
1.00664 1 1.00795 0.998703
1.00101 1 1.00127 0.99974
1 1 1 1
1 1 1 1
0.999855 1 1 0.999855
1 1 1 1
0.914538 0.971936 0.953456 0.986879
0.89572 0.975815 0.948836 0.967416
0.72904 0.838315 0.916076 0.94932
1.04141 1.04535 1.00007 0.996167
1.00919 1.00186 1.0099 0.997445
1.0078 1.00952 1.00151 0.996783
1.00116 1.00404 1 0.997133
1.0206 1.02401 1.00042 0.996248
1.00742 1.01058 0.999761 0.997111
1.00103 1.00431 0.999744 0.996985
0.983682 1.00241 0.982843 0.998451
0.99369 1.00319 0.993084 0.997434
0.964281 1.00246 0.964288 0.997539
1.00995 1.01613 0.997183 0.996726
0.994269 1.00725 0.989799 0.997283
0.993104 1.00213 0.993782 0.997195
0.975558 1.00134 0.976307 0.997899
0.969607 1.00613 0.966045 0.997576
0.896355 0.966678 0.941821 0.984533
0.884509 0.965149 0.946499 0.96825
0.88915 0.946456 0.95129 0.987556
0.976889 1.00489 0.974139 0.997947
0.990912 1.0002 0.992629 0.99807
0.97701 1.00753 0.974477 0.995105
0.909331 0.956937 0.961875 0.987915
0.887836 0.970742 0.944622 0.968212
0.957586 0.998956 0.961373 0.997102
0.942997 0.990274 0.963439 0.988395
0.964667 1.02653 0.942298 0.99728
0.9839 1.01903 0.969324 0.996081
0.991377 1.04626 0.950027 0.997384
1.05174 1.07692 0.979303 0.997252
0.986348 1.0338 0.956414 0.997576
1.0125 1.06975 0.948806 0.997548
1.03095 1.08088 0.956354 0.997337
1.03754 1.06738 0.974421 0.997562
1.03635 1.06472 0.975811 0.997482
1.05 1.07636 0.97823 0.99722
1.03785 1.05945 0.982076 0.997496
1.04743 1.06691 0.984352 0.997352
1.05249 1.06744 0.988909 0.997046
1.04325 1.05711 0.9895 0.997361
1.05006 1.06161 0.992003 0.997095
1.05554 1.06269 0.996484 0.996776
1.05014 1.05627 0.997112 0.997078
1.05508 1.05932 0.999293 0.996697
1.05876 1.0626 1 0.996379
1.05612 1.05995 1 0.996385
1.05626 1.06024 1 0.996253
1.05111 1.05511 1 0.996211
1.02759 1.03084 1 0.996846
1.04877 1.05282 1 0.996158
1.05592 1.06014 1 0.996018
1.0015 1.00294 1 0.998564
1.02015 1.02326 1 0.99696
1.03979 1.04376 1 0.996202
1 1 1 1
0.999879 1.00108 1.0001 0.998695
1.01282 1.0157 1 0.997167
1 1 1 1
0.999395 1 1.00046 0.998935
1 1 1 1
1.04006 1.04414 1 0.996094
1.02688 1.03065 1 0.996335
1.02368 1.0271 1 0.996664
1.01581 1.01906 1.00001 0.996798
1.01055 1.01296 1.00056 0.997071
1.0065 1.00638 1.00239 0.99774
1.00042 1.00092 1.00196 0.997547
1.00473 1.00084 1.00581 0.998093
1.00228 1 1.00287 0.999413
1.00734 1 1.00892 0.998442
1.0023 1 1.00269 0.999609
1 1 1 1
1.00037 1 1.00062 0.999751
1 1 1 1
1 1 1 1
0.972108 1.01057 0.96465 0.997195
0.909021 0.970062 0.952267 0.984047
0.895063 0.968914 0.950147 0.972249
1.03204 1.03547 1.00001 0.996675
1.0512 1.05523 0.999848 0.996336
1.03944 1.04323 1.00012 0.996249
1.00196 1.00484 1 0.997135
1.01906 1.02217 1.00073 0.996227
1.00966 1.01373 0.998883 0.997096
1.0316 1.03906 0.99614 0.996667
0.993043 1.00437 0.991253 0.997447
0.961076 1.00189 0.961776 0.997389
1.01098 1.01836 0.995902 0.996838
1.02464 1.04148 0.987194 0.996595
0.996967 1.02716 0.973068 0.99747
0.999334 1.0095 0.992678 0.997229
0.994017 1.00267 0.994186 0.997167
0.973376 1.00765 0.968044 0.997877
0.901496 0.970607 0.944847 0.983012
0.977115 1.00476 0.973582 0.99887
1.03109 1.05965 0.975151 0.997838
0.975082 1.00625 0.973657 0.995247
0.912433 0.967084 0.957311 0.985561
0.967558 1.02864 0.943052 0.997415
0.987978 1.01945 0.972613 0.996419
0.986688 1.04675 0.944935 0.997554
1.05013 1.0771 0.977623 0.997274
1.04639 1.0894 0.963158 0.997264
1.08645 1.11272 0.978921 0.99741
1.01807 1.07209 0.951966 0.99753
1.03714 1.08304 0.960171 0.997337
1.05316 1.0861 0.972465 0.997131
1.03326 1.06288 0.97459 0.997479
1.04984 1.0755 0.978859 0.997221
1.05304 1.07322 0.984135 0.997012
1.04531 1.06529 0.983839 0.997366
1.05315 1.06809 0.988944 0.997043
1.0559 1.06684 0.992943 0.996787
1.05045 1.06198 0.992027 0.997093
1.05617 1.06331 0.996505 0.996774
1.06182 1.06596 0.999681 0.996439
1.05552 1.05971 0.999295 0.996743
1.05834 1.06217 1 0.996394
1.05497 1.05897 1 0.996225
1.05597 1.05995 1 0.996241
1.05104 1.05503 1 0.996214
1.02918 1.03249 1 0.996793
1.00473 1.00621 1 0.998526
1.02693 1.03018 1 0.996846
1.04867 1.05271 1 0.996165
1 1 1 1
1.00233 1.00378 1 0.998551
1.02021 1.02332 1 0.996959
1 1 1 1
1.00017 1.00149 1 0.998681
1 1 1 1
1.04885 1.05293 1 0.996123
1.03962 1.04369 1 0.996095
1.03567 1.03943 1 0.996379
1.02754 1.03133 1 0.996329
1.02376 1.02718 1 0.996669
1.01187 1.01409 1.00038 0.997437
1.01089 1.0134 1.00046 0.99706
1.00489 1.00449 1.00267 0.997742
1.00051 1 1.00136 0.999148
1.00548 1.00021 1.00719 0.998096
1.0025 1 1.00307 0.999431
1 1 1 1
1.00192 1 1.0023 0.999621
1 1 1 1
1 1 1 1
1.00155 1.04618 0.959377 0.997878
0.969237 1.00952 0.963719 0.996241
0.911024 0.97201 0.951739 0.984784
1.04629 1.05106 0.998892 0.996561
1.0331 1.03635 0.999973 0.996885
1.06419 1.06923 0.99882 0.99646
1.05151 1.05576 0.99965 0.996318
1.03761 1.04128 1.00014 0.996332
1.05523 1.06936 0.990298 0.996458
1.01184 1.01691 0.997929 0.997082
1.03142 1.03836 0.996709 0.996604
1.04586 1.07734 0.973942 0.996754
1.00944 1.02038 0.992308 0.996949
1.02567 1.0422 0.98757 0.996521
0.997876 1.03046 0.970793 0.997509
1.0015 1.00983 0.994561 0.997171
0.977885 1.00926 0.970709 0.998148
1.07327 1.10362 0.974989 0.997444
1.03556 1.06038 0.978685 0.997863
0.973779 1.00507 0.973358 0.995389
0.982927 1.04656 0.941345 0.997723
1.04714 1.07642 0.975443 0.997298
1.04113 1.08724 0.960188 0.997288
1.09009 1.1164 0.978981 0.997402
1.07116 1.10098 0.975558 0.997288
1.04304 1.08481 0.964069 0.997337
1.05388 1.0853 0.973838 0.997141
1.05372 1.0778 0.980549 0.997048
1.04966 1.07461 0.979507 0.997221
1.05329 1.07319 0.984422 0.996993
1.05547 1.06937 0.990193 0.996775
1.05384 1.06874 0.988983 0.997039
1.05636 1.0673 0.992944 0.996782
1.06435 1.06979 0.998426 0.996481
1.05679 1.06391 0.996525 0.996772
1.06174 1.06588 0.999673 0.996441
1.06008 1.0641 1 0.996221
1.05795 1.06176 1 0.996408
1.05475 1.05874 1 0.996232
1.02987 1.03324 1 0.996734
1.05094 1.05493 1 0.996218
1.02963 1.03295 1 0.996793
1.00651 1.00772 1 0.998798
0.999511 1 1 0.999511
1.00537 1.00674 1 0.99864
1.02621 1.02946 1 0.996846
1 1 1 1
1.00346 1.00493 1 0.998539
1 1 1 1
1.06834 1.0733 0.998813 0.996565
1.05685 1.06076 1 0.996311
1.04954 1.05361 1 0.996138
1.04289 1.04679 1 0.99627
1.03978 1.04385 1 0.996096
1.03655 1.04032 1 0.996373
1.01615 1.01903 1 0.997172
1.02445 1.02787 1 0.996675
1.00943 1.01146 1.00055 0.997438
0.999261 1.0003 1.00012 0.998838
1.00315 1.00259 1.00282 0.997744
1.00091 1 1.00174 0.999167
1 1 1 1
1.00232 1 1.00287 0.999449
1 1 1 1
1 1 1 1
1.0615 1.09971 0.967978 0.99719
1.0081 1.05491 0.957627 0.99791
0.966252 1.00962 0.961562 0.995305
1.05966 1.06971 0.994092 0.996499
1.04216 1.04707 0.9987 0.996607
1.03393 1.03698 0.999971 0.997093
1.06272 1.06759 0.99896 0.996474
1.05179 1.05628 0.99945 0.9963
1.06182 1.08964 0.977662 0.996734
1.05154 1.06603 0.989949 0.996417
1.03137 1.03764 0.997407 0.996542
1.04309 1.07431 0.974103 0.996753
1.03023 1.04571 0.988716 0.996448
1.00307 1.03875 0.96801 0.997558
1.06947 1.09467 0.979531 0.997393
1.07565 1.10596 0.975046 0.997482
1.03984 1.06149 0.981671 0.997889
1.03705 1.08622 0.957306 0.997309
1.09485 1.12072 0.979472 0.997394
1.07164 1.10234 0.974792 0.997294
1.06029 1.07922 0.985259 0.997158
1.0546 1.08444 0.975259 0.997151
1.05421 1.07765 0.981168 0.997033
1.05724 1.07145 0.989883 0.996817
1.05358 1.0732 0.9847 0.996973
1.05607 1.06996 0.990206 0.996774
1.06551 1.07341 0.996119 0.996504
1.05685 1.0678 0.992948 0.996778
1.06403 1.06948 0.998413 0.996481
1.06355 1.0676 1 0.996207
1.06169 1.06583 0.999666 0.996443
1.05982 1.06383 1 0.996225
1.03111 1.03457 1 0.996652
1.0545 1.05848 1 0.996238
1.03096 1.03434 1 0.996735
1.00582 1.00702 1 0.998814
1.03016 1.03347 1 0.996792
1.00635 1.00757 1 0.998792
0.99954 1 1 0.99954
0.999767 1 1 0.999767
1.00605 1.00729 1 0.998765
1 1 1 1
1.06092 1.07007 0.994853 0.99658
1.06133 1.06539 0.999798 0.996398
1.06686 1.07208 0.998429 0.996694
1.05281 1.05677 1 0.996253
1.05888 1.06281 1 0.996299
1.0502 1.05426 1 0.996153
1.04342 1.04734 1 0.99626
1.02316 1.02628 1 0.996965
1.03729 1.04107 1 0.996368
1.01581 1.01869 1 0.997173
1.00173 1.00311 1 0.998621
1.0071 1.00916 1.00052 0.99744
0.999653 1.00029 1.00051 0.998858
1 1 1 1
1.00141 1 1.00223 0.999187
1 1 1 1
1 1 1 1
1.0609 1.08917 0.976905 0.997077
1.05562 1.09327 0.968283 0.997188
1.01257 1.06021 0.957042 0.997934
1.05965 1.07849 0.985823 0.99666
1.05691 1.06707 0.99396 0.996497
1.03819 1.04319 0.998543 0.996655
1.06109 1.06581 0.999086 0.996489
1.06023 1.08755 0.9781 0.996709
1.04743 1.06228 0.9896 0.996377
1.03505 1.06548 0.974607 0.996751
1.06405 1.08179 0.986346 0.997222
1.06789 1.09278 0.979816 0.997352
1.07731 1.10777 0.974925 0.997519
1.05903 1.07326 0.989646 0.997061
1.07173 1.10341 0.973927 0.997299
1.0601 1.07913 0.985184 0.997144
1.05896 1.07205 0.990838 0.996925
1.05475 1.07746 0.981853 0.997019
1.05722 1.07148 0.989845 0.996819
1.06613 1.07518 0.995034 0.996527
1.05661 1.0705 0.990223 0.996773
1.06483 1.07269 0.996149 0.996504
1.06475 1.0688 1 0.996206
1.06362 1.06909 0.998398 0.99648
1.064 1.06805 1 0.99621
1.0313 1.03485 1 0.996576
1.0595 1.06351 1 0.99623
1.03224 1.03571 1 0.996654
1.00446 1.00568 1 0.998787
1.0321 1.03548 1 0.996735
1.00545 1.00666 1 0.998801
0.999543 1 1 0.999543
1.00616 1.00738 1 0.998789
0.999551 1 1 0.999551
1 1 1 1
1.05834 1.07046 0.992162 0.996488
1.06288 1.06822 0.998608 0.996391
1.06254 1.07147 0.995066 0.996577
1.05945 1.06338 1 0.996306
1.06237 1.06669 0.999513 0.996443
1.06555 1.07105 0.998038 0.996822
1.0323 1.03559 1 0.996822
1.05269 1.05666 1 0.996241
1.06103 1.06498 1 0.996287
1.04424 1.04818 1 0.99625
1.02391 1.02703 1 0.996966
1.0059 1.00737 1 0.99854
1.0153 1.01817 1 0.997174
1.00075 1.00212 1 0.998638
1 1 1 1
0.999744 1.00001 1.00086 0.998876
1 1 1 1
1 1 1 1
1.05924 1.07789 0.985698 0.996958
1.06124 1.08987 0.9766 0.997057
1.05296 1.09052 0.968289 0.997187
1.05939 1.0782 0.985832 0.996677
1.05385 1.06412 0.993831 0.996494
1.06011 1.08695 0.978546 0.996685
1.06096 1.07483 0.990006 0.997059
1.06403 1.08177 0.986344 0.997216
1.06631 1.09096 0.980041 0.997311
1.05951 1.07343 0.989913 0.997082
1.05778 1.06906 0.992543 0.996881
1.05989 1.07906 0.985071 0.997129
1.05934 1.07204 0.99124 0.996886
1.06611 1.07503 0.995069 0.996617
1.05725 1.07155 0.989806 0.996822
1.0657 1.07478 0.99501 0.996529
1.06465 1.06879 0.99991 0.996211
1.06425 1.07209 0.996168 0.996504
1.06618 1.07027 0.99997 0.996207
1.02958 1.03316 1 0.996533
1.0645 1.06855 1 0.996213
1.03202 1.03557 1 0.996578
1.00265 1.00392 1 0.998731
1.03343 1.0369 1 0.996656
1.00396 1.0052 1 0.998767
0.999517 1 1 0.999517
1.00506 1.00628 1 0.998791
0.999565 1 1 0.999565
0.999557 1 1 0.999557
1.05944 1.07214 0.991377 0.996748
1.06385 1.0707 0.99726 0.996336
1.05814 1.07136 0.991121 0.996514
1.06399 1.06796 1 0.996288
1.06256 1.06766 0.998842 0.996377
1.06415 1.07287 0.995286 0.996575
1.03466 1.03806 1 0.996731
1.05937 1.06331 1 0.996294
1.06331 1.06786 0.999247 0.996489
1.00722 1.0087 1 0.998536
1.03172 1.035 1 0.996823
1.05264 1.05663 1 0.99623
1.02406 1.02718 1 0.996967
1.0046 1.00605 1 0.998552
1 1 1 1
0.999938 1.00129 1 0.998654
1 1 1 1
1 1 1 1
1.05815 1.07201 0.990085 0.996951
1.05965 1.0781 0.985891 0.996948
1.06073 1.08964 0.976358 0.997038
1.05912 1.07794 0.985805 0.996694
1.05845 1.06766 0.994514 0.996839
1.06098 1.07492 0.989932 0.99707
1.0641 1.08177 0.986413 0.997211
1.05998 1.07359 0.990194 0.997102
1.05795 1.06945 0.992336 0.996891
1.06623 1.07366 0.996472 0.996599
1.05972 1.07202 0.991649 0.996847
1.06676 1.07504 0.995721 0.996564
1.06339 1.06821 0.999203 0.996283
1.06528 1.07436 0.994993 0.996532
1.06549 1.06971 0.99984 0.996213
1.0265 1.0301 1 0.996505
1.06741 1.07152 0.999955 0.996209
1.02933 1.03291 1 0.996534
1.00039 1.00196 1 0.998435
1.03275 1.03629 1 0.99658
1.00192 1.00333 1 0.998597
1 1 1 1
1.00345 1.0047 1 0.99875
0.999546 1 1 0.999546
0.999581 1 1 0.999581
1.05839 1.06879 0.993398 0.996845
1.06381 1.07167 0.996185 0.996471
1.05982 1.0717 0.992151 0.99674
1.06523 1.06948 0.999834 0.996195
1.06319 1.07037 0.996945 0.996339
1.05798 1.07228 0.99009 0.996541
1.03397 1.03751 1 0.99659
1.06377 1.0678 0.999939 0.996289
1.06223 1.06713 0.999041 0.996363
1.00565 1.00711 1 0.998548
1.03364 1.03706 1 0.996698
1.05907 1.06302 1 0.996283
1 1 1 1
1.00714 1.0086 1 0.998547
1.03115 1.03444 1 0.996824
1.00358 1.00502 1 0.998565
1 1 1 1
1 1 1 1
1.05677 1.06567 0.99478 0.996848
1.05858 1.07212 0.990381 0.996958
1.05999 1.0783 0.986035 0.996939
1.06575 1.07206 0.997562 0.996539
1.05787 1.06749 0.994114 0.996851
1.06102 1.07504 0.989845 0.997082
1.05811 1.06985 0.992103 0.996901
1.06592 1.07349 0.996337 0.996599
1.062 1.06656 0.999402 0.996324
1.06734 1.07496 0.996391 0.99651
1.06372 1.06823 0.99952 0.996262
1.02411 1.02775 1 0.99646
1.06641 1.07072 0.999758 0.996215
1.02607 1.02967 1 0.996506
0.999121 1.00071 1 0.998409
1.0293 1.03288 1 0.996535
0.999978 1.00155 1 0.998433
1 1 1 1
1.00116 1.00273 1 0.998441
0.999749 1 1 0.999749
0.999571 1 1 0.999571
1.05568 1.06462 0.994784 0.996806
1.06516 1.0716 0.997433 0.996549
1.05808 1.06831 0.993553 0.996853
1.06515 1.06923 1 0.996186
1.06476 1.07245 0.996366 0.996457
1.06016 1.07122 0.992921 0.996731
1.03096 1.03456 1 0.996513
1.06469 1.06884 0.999924 0.996196
1.06257 1.07006 0.996648 0.996343
1.00316 1.00464 1 0.998525
1.03339 1.03694 1 0.996578
1.06355 1.06763 0.999892 0.996289
1 1 1 1
1.00625 1.0077 1 0.998557
1.03285 1.03631 1 0.996666
1 1 1 1
1.007 1.00846 1 0.998558
1 1 1 1
1.06479 1.07093 0.99767 0.99658
1.0564 1.06536 0.994743 0.996833
1.05896 1.07215 0.990701 0.996964
1.06129 1.06572 0.999523 0.99632
1.06505 1.07174 0.997187 0.996559
1.05729 1.06731 0.993724 0.996862
1.06559 1.07332 0.996187 0.9966
1.06174 1.0664 0.999306 0.996324
1.02284 1.02647 1 0.996462
1.06411 1.06831 0.999821 0.99624
1.02407 1.0277 1 0.99647
0.998596 1.00022 1 0.998377
1.02552 1.02911 1 0.996507
0.998894 1.00049 1 0.998407
1 1 1 1
0.999483 1.00105 1 0.998431
1 1 1 1
0.999544 1 1 0.999544
1.06543 1.07144 0.997824 0.996556
1.05501 1.06457 0.994174 0.996825
1.06367 1.06768 1 0.996238
1.06549 1.07196 0.997405 0.996548
1.0578 1.06786 0.993695 0.99686
1.02771 1.03129 1 0.99653
1.06439 1.06847 1 0.996182
1.0657 1.07321 0.996545 0.996443
1.00083 1.00237 1 0.998471
1.03097 1.03457 1 0.996525
1.06404 1.0681 1 0.996197
1 1 1 1
1.00387 1.00534 1 0.99853
1.03288 1.03644 1 0.996566
1 1 1 1
1.00682 1.00827 1 0.998566
1 1 1 1
1.06143 1.06574 0.999611 0.99634
1.06465 1.07069 0.997781 0.996569
1.05605 1.06505 0.994715 0.996819
1.02242 1.02604 1 0.996479
1.06103 1.06553 0.999449 0.99632
1.06432 1.0714 0.996799 0.99658
1.06151 1.06624 0.999236 0.996324
1.023 1.02663 1 0.996459
0.998399 1.00003 1 0.998366
1.02402 1.02764 1 0.996479
0.998488 1.00011 1 0.998375
1 1 1 1
0.998688 1.00028 1 0.998406
1 1 1 1
1 1 1 1
1.06276 1.06674 1 0.996268
1.06491 1.07127 0.997443 0.996605
1.05436 1.06456 0.993552 0.996845
1.02514 1.0287 1 0.996543
1.06337 1.06738 1 0.996235
1.06581 1.07232 0.997376 0.996547
0.99918 1.00075 1 0.998427
1.02765 1.03124 1 0.996527
1.06357 1.06765 1 0.996179
1 1 1 1
1.00145 1.00299 1 0.998474
1.03107 1.03465 1 0.996538
1 1 1 1
1.00452 1.006 1 0.998536
1 1 1 1
1.02309 1.02666 1 0.996522
1.06113 1.06555 0.999522 0.996325
1.06452 1.07048 0.997862 0.996557
0.998394 1 1 0.998394
1.02261 1.02622 1 0.996476
1.06078 1.06536 0.99938 0.996321
1.02312 1.02676 1 0.996457
0.998366 1 1 0.998366
1 1 1 1
0.998392 1.00002 1 0.998373
1 1 1 1
1 1 1 1
1.02379 1.02734 1 0.996544
1.06227 1.06643 0.9998 0.996297
1.06441 1.07108 0.997108 0.996654
0.998756 1.00007 1 0.99869
1.02542 1.02898 1 0.996541
1.06317 1.06719 1 0.996232
1 1 1 1
0.999667 1.00124 1 0.998429
1.02781 1.03139 1 0.996525
1 1 1 1
1.00204 1.00357 1 0.998477
1 1 1 1
0.998378 1 1 0.998378
1.02325 1.02683 1 0.99651
1.06085 1.06536 0.999451 0.996309
1 1 1 1
0.998392 1 1 0.998392
1.02279 1.02641 1 0.996474
0.998366 1 1 0.998366
1 1 1 1
1 1 1 1
0.998661 1 1 0.998661
1.02413 1.02769 1 0.996544
1.06177 1.06615 0.999567 0.996326
1 1 1 1
0.998682 1.00027 1 0.998416
1.02554 1.0291 1 0.99654
1 1 1 1
1.00003 1.0016 1 0.99843
1 1 1 1
0.999518 1 1 0.999518
0.998535 1 1 0.998535
1.02339 1.02699 1 0.996498
1 1 1 1
0.998394 1 1 0.998394
1 1 1 1
0.999529 1 1 0.999529
0.998542 1 1 0.998542
1.02442 1.02797 1 0.996544
0.999759 1 1 0.999759
0.998944 1.00053 1 0.998418
1 1 1 1
1 1 1 1
0.998415 1 1 0.998415
1 1 1 1
0.999764 1 1 0.999764
0.998474 1.00005 1 0.998423
1 1 1 1
1 1 1 1
1 1 1 1

VECTORS lamdaE float
1.002 1.00001 0.993025
1.00157 1.00077 0.996494
1.00149 1.00021 0.993389
1.00195 1.00011 0.992951
1.00206 0.999915 0.99303
1.00197 1.00025 0.992846
1.00316 1.00057 0.990026
1.00163 1.00079 0.996427
1.00137 1.00006 0.997111
1.00087 1.00087 0.997129
1.00136 1.00123 0.992567
1.00316 1.00122 0.988213
1.00144 0.999977 0.993614
1.0012 1.00002 0.993796
1.00101 1.00042 0.993726
1.00158 1.00007 0.993348
1.00138 1.0006 0.993179
1.00162 0.999966 0.99341
1.0034 1.00045 0.989843
1.00144 1.00002 0.996725
1.00185 1.00016 0.993001
1.00205 0.999981 0.992972
1.00319 1.00022 0.990373
1.00325 1.0003 0.990184
1.00197 1.00054 0.992571
1.00308 1.00105 0.989657
1.00528 1.00121 0.98546
1.00164 1.0008 0.996355
1.00162 0.999939 0.995175
1.00125 1.00057 0.995151
1.00155 1.00102 0.996352
1.00309 1.00135 0.98822
1.00188 0.999751 0.993164
1.00172 1.00003 0.993258
1.00356 1.00015 0.99046
1.00031 1.00143 0.997318
1.00341 1.00074 0.990225
1.00294 1.00207 0.987764
1.00509 1.00173 0.984569
1.00047 1.0001 0.99757
1.00149 0.999986 0.996694
1.00145 1.00001 0.995188
1.00137 0.999965 0.996782
1.00103 1.00005 0.993979
1.00317 0.999912 0.989695
1.00138 0.999941 0.997049
1.00354 1.00014 0.990546
1.00123 0.999998 0.993745
1.00121 1.00001 0.993777
1.00084 1.00096 0.993493
1.00362 1.00032 0.989676
1.00124 1.00004 0.995374
1.00148 1.00017 0.993404
1.00139 1.00098 0.992851
1.00166 0.99995 0.99336
1.00337 1.00017 0.990166
1.00335 1.00087 0.98948
1.00345 1.00022 0.989995
1.00529 1.00118 0.985526
1.00134 1 0.996782
1.00172 1.00009 0.993244
1.00284 0.999985 0.991582
1.00311 1.00019 0.990524
1.00327 1.0002 0.99026
1.00526 1.00008 0.986653
1.00528 1.00039 0.986225
1.0018 1.00071 0.992293
1.00298 1.00196 0.988986
1.00531 1.00178 0.984827
1.00529 0.99992 0.986015
1.00196 0.999949 0.996574
1.00141 1.00089 0.996582
1.00166 1.0005 0.996531
1.00307 1.00146 0.988228
1.00196 0.999865 0.996515
1.00184 1.00011 0.996596
1.00342 1.0001 0.98896
1.00059 1.00116 0.995353
1.00319 1.0007 0.988721
1.00279 1.00226 0.988917
1.00519 1.00156 0.984565
1.00078 1.00045 0.997174
1.00074 1.00247 0.991203
1.00357 1.00007 0.988834
1.00349 1.00016 0.988868
1.00533 1.00044 0.985605
1.00204 1.00286 0.990527
1.0053 1.00117 0.984854
1.00419 1.00288 0.984832
1.00537 1.00154 0.984192
1.00024 0.999414 0.997956
1.00031 0.999862 0.997733
1.00179 0.999968 0.99652
1.00156 0.999986 0.996655
1.00142 0.999972 0.996771
1.00132 1 0.99532
1.00321 0.999913 0.990413
1.00161 0.999942 0.995123
1.00342 1.00016 0.989837
1.00136 0.999981 0.996804
1.00297 0.999796 0.990076
1.00344 1.00007 0.990789
1.00521 0.998981 0.987371
1.00354 1.00011 0.990509
1.00523 0.999383 0.986923
1.00139 0.999998 0.993697
1.00109 1.00016 0.993811
1.00081 1.00141 0.993118
1.00128 0.999907 0.993745
1.00355 1.00016 0.989959
1.00365 1.00016 0.989814
1.0036 1.0007 0.989312
1.0053 1.00115 0.98559
1.00138 0.999981 0.996794
1.00133 1.00011 0.993635
1.00304 0.99993 0.990412
1.00328 1.00016 0.990315
1.00159 1.00123 0.994233
1.00328 1.00174 0.989165
1.00345 1.00016 0.990062
1.00526 0.999872 0.9869
1.0053 1.00177 0.984918
1.00529 1.00059 0.986075
1.00529 0.999921 0.986044
1.00292 0.999838 0.990123
1.00299 1.00005 0.990797
1.00503 0.998806 0.988418
1.0052 0.999411 0.987529
1.0053 0.999929 0.986722
1.00535 0.997707 0.988466
1.00094 1.00109 0.996862
1.00529 0.999022 0.986912
1.00255 1.00302 0.987354
1.00525 1.00223 0.98378
1.0053 1.00089 0.985104
1.00526 0.997364 0.988387
1.00133 1.00318 0.989374
1.00249 1.00427 0.986442
1.00199 0.999879 0.996534
1.00183 1.00017 0.996584
1.00344 1.00007 0.988936
1.00085 1.00079 0.99705
1.00233 1.00259 0.988127
1.00322 1.00063 0.988724
1.00531 1.00141 0.984555
1.00061 1.00048 0.997327
1.00068 1.00259 0.99122
1.00358 1.00011 0.989644
1.00352 1.00022 0.989618
1.00532 1.00046 0.985573
1.00157 1.003 0.989135
1.00531 1.00116 0.98483
1.00445 1.00251 0.984803
1.00536 1.0014 0.984401
1.00113 1.00274 0.990174
1.00039 1.00217 0.992143
1.00223 1.00399 0.987712
1.00532 1.00006 0.986036
1.00533 1.00079 0.985211
1.00532 0.998778 0.987213
1.00339 1.00347 0.985542
1.00532 1.00024 0.985747
1.0053 1.00243 0.983575
1.00532 0.999974 0.985585
1.00013 0.998926 0.998283
1.00015 0.999348 0.998095
1.00023 0.99975 0.997888
1.00101 1.003 0.99019
1.00054 1.00087 0.9972
1.00194 0.999907 0.996502
1.00165 0.999989 0.996571
1.00325 1.00021 0.989169
1.00306 0.999928 0.989773
1.00141 0.99997 0.996749
1.00134 0.99997 0.996799
1.00295 0.999811 0.990065
1.00331 1.00006 0.990086
1.00518 0.999 0.987385
1.00339 1.00016 0.988993
1.00523 0.999396 0.986901
1.00289 0.999794 0.990182
1.00513 0.998899 0.987571
1.00522 0.99914 0.987194
1.00531 0.995728 0.990692
1.00529 0.999703 0.986493
1.00533 0.996427 0.98985
1.00135 0.99998 0.996794
1.00092 1.00015 0.994024
1.00307 0.999909 0.989404
1.00347 1.00015 0.990103
1.00077 1.00194 0.996716
1.00359 1.00132 0.989353
1.00364 1.00013 0.989868
1.00525 0.999655 0.987149
1.0053 1.00077 0.985921
1.00529 1.00174 0.98501
1.00528 0.999924 0.986074
1.0029 0.999834 0.990127
1.00316 1.00006 0.990592
1.00506 0.998752 0.988179
1.0052 0.999628 0.987258
1.0011 1.00116 0.996705
1.00267 1.00277 0.988434
1.00507 1.00251 0.984135
1.0053 0.999992 0.98668
1.00535 0.997294 0.988883
1.0053 1.00079 0.985176
1.00528 0.999196 0.98683
1.00526 0.997423 0.98839
1.00139 1.00311 0.989349
1.00262 1.00421 0.986385
1.00503 0.998996 0.987643
1.00511 0.999098 0.988012
1.00531 0.996397 0.989867
1.00534 0.996572 0.989686
1.0053 0.998105 0.987874
1.00527 0.995439 0.990698
1.00178 1.00329 0.988342
1.00525 0.99624 0.989622
1.00461 1.00315 0.984083
1.0053 1.00187 0.983929
1.0053 0.999079 0.986807
1.00526 0.995913 0.989989
1.00335 1.00414 0.985013
1.00222 1.00393 0.987631
1.00393 1.00339 0.985297
1.00344 1.0001 0.988929
1.00039 1.00031 0.997492
1.00057 1.00261 0.99124
1.00337 1.00021 0.98891
1.00532 1.00047 0.985542
1.00153 1.00311 0.989013
1.00465 1.00224 0.984781
1.00533 1.00116 0.984802
1.00536 1.00125 0.984608
1.00106 1.00284 0.990209
1.00025 1.00225 0.992143
1.00201 1.00397 0.987705
1.00531 1.00009 0.986004
1.00533 1.00081 0.985184
1.00532 0.998778 0.987195
1.00359 1.00324 0.985532
1.00532 1.00035 0.985647
1.00536 1.00241 0.983506
1.00533 0.999653 0.985834
1.00021 1.00154 0.992937
1.00304 1.00375 0.986494
1.00143 1.00445 0.988294
1.00309 1.00128 0.988076
1.0053 0.997958 0.988128
1.00531 0.999606 0.986342
1.00528 0.996496 0.98931
1.0049 1.00281 0.98375
1.00527 0.99817 0.987767
1.00534 1.00137 0.984592
1.00538 0.998541 0.987002
1.00012 1.00326 0.991496
1.00029 1.00022 0.994176
1.00013 0.998336 0.998504
1.00008 0.998816 0.99837
1.00006 0.999269 0.998213
1.00065 1.00273 0.99102
1.00037 1.00047 0.997456
1.00109 1.00291 0.990119
1.00069 1.00091 0.997085
1.00337 1.00019 0.988988
1.00317 1.00007 0.989445
1.00522 0.999407 0.986885
1.00514 0.999025 0.987395
1.00297 0.999829 0.990062
1.0014 0.999957 0.996795
1.00291 0.999786 0.990183
1.00512 0.998909 0.98758
1.0052 0.999158 0.987191
1.00532 0.995695 0.990694
1.00528 0.999721 0.986466
1.00531 0.996417 0.989858
1.00506 0.998903 0.987678
1.00533 0.995703 0.990727
1.0053 0.995921 0.990441
1.00524 0.994959 0.991479
1.00532 0.997166 0.989029
1.00527 0.994918 0.991208
1.00291 0.999834 0.990137
1.00335 1.00004 0.990388
1.0051 0.998668 0.987942
1.00521 0.999824 0.986988
1.00131 1.00123 0.996502
1.00305 1.00262 0.989258
1.00487 1.00267 0.984484
1.0053 1.00005 0.986638
1.00536 0.99688 0.989297
1.00528 0.999374 0.986749
1.00531 1.0007 0.985248
1.00526 0.997476 0.988394
1.00146 1.00301 0.989326
1.00261 1.00407 0.986332
1.00504 0.998746 0.987912
1.00513 0.999064 0.987994
1.00531 0.996376 0.989927
1.00535 0.996873 0.989294
1.00186 1.00326 0.988351
1.00435 1.00327 0.984112
1.00532 1.00202 0.983763
1.0053 0.998341 0.987723
1.00527 0.995218 0.990842
1.00529 0.998851 0.987055
1.00526 0.996263 0.989602
1.00526 0.995887 0.989863
1.00333 1.00423 0.984971
1.00357 1.00358 0.985329
1.00192 1.00404 0.987664
1.00532 0.996291 0.990019
1.00534 0.996536 0.989706
1.00528 0.99496 0.991312
1.00531 0.994918 0.991158
1.00525 0.995462 0.990411
1.00527 0.994928 0.990979
1.00385 1.00381 0.984469
1.00528 0.99511 0.990558
1.00531 1.00316 0.982724
1.00529 1.00041 0.985197
1.00525 0.997499 0.988362
1.00528 0.995588 0.990201
1.00129 1.00491 0.987752
1.00473 1.0039 0.983525
1.00265 1.00182 0.987856
1.00481 1.00377 0.983807
1.0053 1.00011 0.985973
1.00017 1.00238 0.992139
1.00088 1.00308 0.99025
1.00164 1.00398 0.987693
1.00533 1.00081 0.985156
1.00532 0.998778 0.987177
1.00377 1.00283 0.985523
1.00539 1.00237 0.983435
1.00531 1.00046 0.985549
1.00532 0.999356 0.986084
1.00015 1.00163 0.992959
1.0028 1.00358 0.986586
1.00127 1.00452 0.988231
1.00332 1.00124 0.988124
1.00531 0.997952 0.988113
1.00531 0.999596 0.986322
1.00528 0.996471 0.989317
1.00511 1.00278 0.983714
1.00526 0.998377 0.987518
1.00532 1.00124 0.98457
1.00537 0.998406 0.987201
1.00031 1.00077 0.993616
1.00112 1.00471 0.988762
1.00372 1.00269 0.985868
1.00281 1.0026 0.988145
1.00392 0.999893 0.988498
1.00527 0.995664 0.990218
1.00527 0.997344 0.988389
1.00528 0.995477 0.990065
1.00522 1.00251 0.983666
1.0053 0.997053 0.988605
1.00524 0.999859 0.985881
1.00045 1.00354 0.990627
1.00022 1.0048 0.989827
1.00009 1.0025 0.99231
1.00012 1.00318 0.991508
1.00017 0.999764 0.995557
1.00025 1.00017 0.994656
1.00029 0.997769 0.996997
1.00012 0.998236 0.998557
1.00004 0.998688 0.998438
1.00002 1.00254 0.992174
1.00015 1.00009 0.997839
1.00071 1.00268 0.991011
1.00045 1.00061 0.997362
1.00118 1.00283 0.990048
1.00083 1.00098 0.996977
1.00527 0.99974 0.986437
1.00518 0.999172 0.987187
1.00531 0.996427 0.989866
1.00533 0.995659 0.990697
1.0051 0.99892 0.987589
1.00291 0.999771 0.99018
1.00505 0.998905 0.987682
1.00532 0.995681 0.990733
1.00532 0.995913 0.990443
1.00524 0.994956 0.991465
1.00531 0.997146 0.989028
1.00528 0.994918 0.991234
1.00532 0.995751 0.990685
1.00523 0.994964 0.991509
1.00527 0.994947 0.991366
1.00524 0.994952 0.991358
1.00526 0.995087 0.990886
1.00528 0.994918 0.991012
1.00505 0.998495 0.988183
1.00515 0.999059 0.987977
1.00531 0.996375 0.989986
1.00536 0.997166 0.988903
1.00195 1.00322 0.988369
1.00412 1.00361 0.984156
1.00533 1.00216 0.983601
1.00529 0.998575 0.987573
1.00528 0.994994 0.990986
1.00527 0.996293 0.989582
1.00528 0.998603 0.987303
1.00526 0.995866 0.989736
1.00341 1.0045 0.984926
1.00334 1.00357 0.98536
1.00174 1.00413 0.987694
1.00531 0.996054 0.99032
1.00533 0.996554 0.989716
1.00529 0.994957 0.991338
1.00531 0.994974 0.991052
1.00378 1.00398 0.984502
1.00528 1.00322 0.982796
1.0053 1.0006 0.984946
1.00525 0.995681 0.990202
1.00526 0.994922 0.990932
1.00525 0.997369 0.988332
1.00528 0.995124 0.99053
1.00528 0.995482 0.990239
1.00435 1.00397 0.983533
1.00454 1.00376 0.983598
1.00151 1.00467 0.987819
1.00284 1.00198 0.987917
1.00527 0.994968 0.991459
1.00533 0.994943 0.991097
1.00526 0.994949 0.991324
1.00528 0.994922 0.990951
1.00529 0.994909 0.99079
1.00534 0.994905 0.990733
1.00519 1.0038 0.982527
1.0053 0.994913 0.990543
1.00528 1.00215 0.983492
1.00527 0.999607 0.985925
1.00518 0.99683 0.98889
1.00534 0.995234 0.990211
1.00103 1.00482 0.988288
1.00305 1.00328 0.986664
1.00516 1.00407 0.982198
1.00344 1.00104 0.987672
1.00449 1.00453 0.983052
1.00007 1.00168 0.992983
1.00531 0.997945 0.988098
1.00127 1.00445 0.988167
1.00254 1.00358 0.98668
1.00343 1.00105 0.988173
1.00531 0.999587 0.986304
1.00528 0.996446 0.989324
1.00528 1.00248 0.983677
1.0053 1.00116 0.984547
1.00526 0.998562 0.987271
1.00536 0.998279 0.987399
1.00028 1.00075 0.993648
1.00084 1.00478 0.988773
1.00394 1.00235 0.985939
1.00246 1.00263 0.988094
1.00412 0.999833 0.987832
1.00526 0.995641 0.990235
1.00527 0.997317 0.988396
1.00527 0.99548 0.990075
1.00521 1.00261 0.983587
1.00532 0.997156 0.988411
1.00522 0.999909 0.986103
1.00079 1.00405 0.989731
1.00163 1.0051 0.988188
1.00427 1.00258 0.984951
1.00368 1.00076 0.988148
1.00507 1.00151 0.986284
1.00531 0.994956 0.990641
1.00527 0.996138 0.989319
1.00522 0.995214 0.990196
1.00492 1.00158 0.984519
1.00522 0.99851 0.986956
1.00036 1.00373 0.990609
1.00051 1.00458 0.989468
0.99986 1.00488 0.989848
1.00052 1.00447 0.990178
1.0001 1.00434 0.990703
0.999956 1.0022 0.992782
0.999976 1.0026 0.992332
1.00014 0.999301 0.995971
1.0001 1.00319 0.99152
1.0002 0.999601 0.995627
1.00029 0.997313 0.997353
1.00023 1.0001 0.995124
1.00019 0.997836 0.997861
1.00011 0.998138 0.998607
0.999773 1.00149 0.993621
1.00016 1.00232 0.992201
0.999887 0.999369 0.998332
1.0003 1.00006 0.997673
1.00079 1.00255 0.991005
1.00055 1.00067 0.997261
1.0053 0.997124 0.989028
1.00533 0.995888 0.990445
1.00529 0.994918 0.99126
1.00523 0.994953 0.991451
1.00531 0.99566 0.990739
1.00506 0.998907 0.987685
1.00531 0.995745 0.990687
1.00523 0.994965 0.991509
1.00527 0.994943 0.991374
1.00524 0.994951 0.991335
1.00526 0.995072 0.990914
1.00528 0.994912 0.99101
1.00525 0.994967 0.991485
1.00524 0.994948 0.991437
1.00525 0.994962 0.991187
1.00527 0.994936 0.991283
1.0053 0.994849 0.99093
1.00533 0.994941 0.990882
1.0053 0.995819 0.990621
1.00533 0.996557 0.989725
1.0053 0.99495 0.991365
1.00531 0.995048 0.990946
1.00367 1.00405 0.984534
1.00523 1.00324 0.98286
1.00531 1.00073 0.984694
1.00526 0.995896 0.989993
1.00526 0.994917 0.990884
1.00527 0.995124 0.990502
1.00526 0.997254 0.988304
1.00529 0.99536 0.990281
1.004 1.00444 0.983545
1.00423 1.00416 0.98339
1.00162 1.00441 0.987886
1.00281 1.00173 0.987967
1.00527 0.99497 0.991459
1.00534 0.994945 0.991121
1.00526 0.994947 0.991295
1.00528 0.994926 0.990958
1.00503 1.00397 0.98255
1.00529 1.00228 0.983359
1.00527 0.999568 0.985905
1.00529 0.994915 0.990802
1.00534 0.9949 0.990704
1.00523 0.996713 0.988898
1.00531 0.994909 0.99053
1.00531 0.99521 0.990345
1.00514 1.00406 0.982256
1.00438 1.0047 0.982905
1.00374 1.00106 0.987697
1.0009 1.00472 0.988423
1.00261 1.00365 0.986549
1.00525 0.99495 0.991364
1.00529 0.994932 0.991154
1.00533 0.994889 0.990702
1.00532 0.994896 0.99064
1.00518 1.00372 0.982344
1.00531 0.994908 0.99049
1.00519 1.00158 0.983806
1.00522 0.998983 0.986522
1.00527 0.99613 0.989173
1.00007 1.00414 0.99027
1.00183 1.00507 0.987186
1.00406 1.00374 0.9859
1.00499 1.00446 0.98238
1.0047 1.00202 0.984844
1.00435 1.00479 0.98283
1.00025 1.00074 0.993678
1.00059 1.00487 0.988784
1.00526 0.995619 0.990252
1.00204 1.00277 0.988041
1.00436 1.00237 0.986013
1.00443 0.999949 0.987171
1.00527 0.997292 0.988402
1.00526 0.995485 0.990084
1.0052 1.00262 0.983516
1.00519 0.999975 0.986327
1.00534 0.997249 0.988215
1.00067 1.00415 0.989715
1.00103 1.00511 0.988175
1.00456 1.00268 0.984461
1.0036 1.00062 0.988227
1.00475 1.00101 0.98601
1.0053 0.994955 0.99067
1.00529 0.996164 0.989294
1.00525 0.995222 0.990132
1.00498 1.00157 0.984655
1.0052 0.998649 0.986889
1.00105 1.00479 0.988899
1.00112 1.00414 0.988192
1.00461 1.00277 0.984359
1.00397 1.00087 0.986468
1.00508 1.002 0.985144
1.0053 0.994828 0.990619
1.00531 0.996509 0.988683
1.00535 0.995457 0.989482
1.00504 1.00057 0.98565
1.00511 0.999179 0.986567
1.00028 1.00386 0.990593
1.00058 1.00469 0.98932
0.999732 1.00409 0.990933
0.999742 1.00485 0.989862
0.999867 1.00443 0.990689
0.999758 1.00475 0.990371
0.999997 1.00311 0.991787
0.999586 1.00495 0.990458
0.999838 1.00399 0.991264
0.999969 1.00214 0.992809
0.999978 1.00212 0.992781
1.00005 0.999204 0.996202
0.999944 1.00251 0.99235
1.00014 0.99928 0.996017
1.00022 0.997171 0.997596
1.00023 0.999498 0.995703
1.00023 0.99741 0.997333
1.00005 0.997845 0.998747
0.999842 1.00024 0.994774
0.99985 1.00148 0.993577
0.999768 0.99864 0.99871
1.00033 1.00219 0.992228
1.00005 0.99954 0.998145
1.0004 1.00028 0.997535
1.00527 0.995056 0.990942
1.00527 0.994938 0.991383
1.00529 0.994905 0.99101
1.00523 0.994951 0.991311
1.00524 0.994966 0.991509
1.0053 0.995742 0.99069
1.00526 0.994968 0.991498
1.00523 0.994951 0.991442
1.00525 0.994965 0.991203
1.00527 0.994936 0.991256
1.00531 0.994845 0.990945
1.00533 0.994938 0.990831
1.00525 0.994949 0.991412
1.00527 0.99493 0.991353
1.00529 0.994934 0.991129
1.00535 0.994873 0.990665
1.00528 0.994971 0.991459
1.00534 0.994947 0.991145
1.00527 0.994947 0.991265
1.00527 0.99493 0.990964
1.00489 1.00394 0.982573
1.00528 1.00248 0.983227
1.00527 0.999582 0.985885
1.00529 0.99492 0.990814
1.00533 0.994895 0.990675
1.00531 0.994907 0.990517
1.00527 0.996583 0.988903
1.00527 0.995226 0.990477
1.00488 1.00433 0.982309
1.00421 1.00475 0.98276
1.00436 1.001 0.987714
1.00084 1.00452 0.988573
1.00225 1.00415 0.986442
1.00525 0.99495 0.991352
1.00529 0.994933 0.991155
1.00533 0.994895 0.990718
1.00519 1.00379 0.982388
1.00515 1.0018 0.98371
1.00523 0.998861 0.986527
1.00532 0.994893 0.990649
1.00527 0.996016 0.989384
1.00531 0.9949 0.99048
1.00002 1.00382 0.990541
1.00461 1.00469 0.982426
1.00412 1.00513 0.98267
1.0045 1.00269 0.984841
1.00402 1.00304 0.985871
1.00152 1.00507 0.987217
1.00528 0.994932 0.991285
1.00531 0.994912 0.990954
1.00533 0.994882 0.990591
1.0053 0.994872 0.990524
1.0048 1.00399 0.982836
1.00524 0.995084 0.990366
1.00502 1.0011 0.984645
1.0052 0.998299 0.986943
0.999931 1.00225 0.992252
1.00057 1.0051 0.989185
1.00262 1.00485 0.98686
1.00361 1.00401 0.984591
1.00433 1.00443 0.984093
1.0048 1.00469 0.982315
1.00054 1.00431 0.989697
1.00051 1.0051 0.988165
1.00528 0.994955 0.990698
1.00354 1.00039 0.9883
1.00497 1.00271 0.983962
1.00409 1.00136 0.985732
1.0053 0.99619 0.98927
1.00528 0.995227 0.990068
1.00507 1.00163 0.984788
1.00518 0.998797 0.986823
1.00079 1.00488 0.988915
1.00152 1.00416 0.988031
1.00455 1.00287 0.984307
1.00439 1.00134 0.986519
1.00503 1.0023 0.98474
1.00531 0.994829 0.99062
1.00531 0.99638 0.988947
1.00534 0.995569 0.989572
1.00506 1.00047 0.985606
1.00507 0.999482 0.986312
0.999557 1.00473 0.98938
1.00099 1.00345 0.988096
1.0048 1.00154 0.985329
1.00509 1.0013 0.985219
1.00538 0.994806 0.990424
1.00535 0.994958 0.990285
1.00526 0.998026 0.98713
1.0051 0.999936 0.985667
1.00086 1.00473 0.989174
0.999869 1.00433 0.990697
0.998691 1.004 0.993459
0.999617 1.00469 0.99068
0.998976 1.00504 0.990563
0.999858 1.00398 0.991233
0.999615 1.00336 0.992198
0.999652 1.00502 0.990432
0.999758 1.0006 0.994711
0.999599 1.00463 0.990996
0.999525 1.00475 0.990486
1.00004 1.00381 0.991114
0.999944 1.00232 0.992616
0.999938 1.00215 0.992792
0.999941 0.999212 0.996322
0.999957 1.00211 0.992784
1.00007 0.99917 0.996218
1.00013 0.997194 0.997695
1.00015 0.999219 0.996064
1.00021 0.997195 0.997584
1.00019 0.997496 0.997304
0.999993 0.999381 0.995427
0.999852 1.00038 0.9947
0.999764 0.998015 0.998909
0.999876 1.00152 0.99353
0.999833 0.998765 0.998597
1.00022 0.999533 0.997937
1.00531 0.99484 0.990959
1.00524 0.994969 0.991219
1.00532 0.994936 0.990779
1.00527 0.994936 0.99123
1.00523 0.994952 0.991446
1.00526 0.994969 0.991511
1.00525 0.994948 0.991422
1.00527 0.99493 0.991342
1.00529 0.994936 0.991085
1.00534 0.994872 0.990676
1.00527 0.994926 0.991367
1.00527 0.994911 0.991271
1.00535 0.994904 0.990833
1.00525 0.994949 0.991339
1.00529 0.994933 0.991157
1.00533 0.9949 0.990734
1.00526 1.00368 0.982438
1.00517 1.00201 0.983612
1.00525 0.998713 0.986531
1.00532 0.994889 0.990658
1.00531 0.994883 0.990471
1.00528 0.995907 0.989596
1.00431 1.00487 0.982471
1.00467 1.00475 0.982526
1.00449 1.00345 0.98485
1.00011 1.00367 0.990817
1.00412 1.00279 0.985844
1.00119 1.00508 0.987235
1.00527 0.994932 0.991305
1.00531 0.99491 0.99092
1.00533 0.994882 0.990594
1.00497 1.00375 0.982825
1.005 1.00108 0.984623
1.0052 0.998121 0.987273
1.0053 0.994878 0.990494
1.00519 0.995099 0.990317
0.999927 1.00233 0.99247
1.00046 1.00509 0.989162
1.00405 1.00384 0.983941
1.00455 1.00458 0.982931
1.00401 1.00364 0.984765
1.00233 1.00494 0.986701
1.00529 0.99491 0.991226
1.00536 0.994848 0.990635
1.00533 0.994877 0.990499
1.00524 0.994893 0.990304
1.00405 1.00274 0.98456
1.00518 0.995877 0.989435
1.00494 1.00056 0.985482
1.00012 1.00136 0.993378
1.00022 1.00265 0.992099
0.999492 1.00415 0.991305
1.00128 1.00503 0.988065
1.00192 1.00501 0.986221
1.00413 1.00476 0.98344
1.00262 1.00439 0.986179
1.00344 1.00418 0.98577
1.00046 1.00488 0.98893
1.00205 1.00422 0.987869
1.00533 0.994831 0.99062
1.00475 1.0003 0.986571
1.00447 1.00299 0.984259
1.00509 1.00257 0.984343
1.00531 0.996236 0.989213
1.00534 0.995666 0.989663
1.00507 1.0003 0.985561
1.00501 0.999749 0.986057
1.00039 1.00455 0.989164
1.00196 1.00357 0.987799
1.00482 1.00155 0.985097
1.00515 1.0014 0.985291
1.00539 0.994803 0.990412
1.00538 0.994973 0.990231
1.0052 0.997916 0.987281
1.00511 1.00009 0.985728
0.999078 1.00479 0.990793
1.00544 0.994878 0.990448
1.0034 1.00286 0.987344
1.00502 1.001 0.985238
1.00532 0.99469 0.99082
1.0051 0.99715 0.987258
1.00507 1.0008 0.985479
0.999876 1.00464 0.990463
0.998703 1.00352 0.993451
0.997557 1.00251 0.996318
0.999834 1.00384 0.991203
0.999616 1.00507 0.990404
0.998237 1.00441 0.992612
1.00006 1.00367 0.991098
0.999585 1.00482 0.990529
0.998517 1.00181 0.995126
0.999769 1.0045 0.990883
0.99918 0.999764 0.997372
0.998539 1.00324 0.993623
0.999504 1.00505 0.990567
1.00035 1.00466 0.989617
1.00025 1.00382 0.990661
0.999961 1.00244 0.992497
0.999894 1.00243 0.992594
0.999819 0.999355 0.99642
0.999885 1.00226 0.992777
0.999956 0.999244 0.996326
1 0.997351 0.997788
1.00008 0.999136 0.996238
1.00013 0.997225 0.997691
1.00019 0.997234 0.997565
1.00009 1.00125 0.993561
1.00001 0.998978 0.995797
0.999965 0.999494 0.995381
0.999841 0.997699 0.999007
0.999862 1.0004 0.994629
0.9998 0.998196 0.998864
0.999947 0.998924 0.998461
1.00533 0.994871 0.990688
1.00529 0.994937 0.991041
1.00527 0.99493 0.991332
1.00525 0.994948 0.991433
1.00528 0.994924 0.991368
1.00528 0.994911 0.991273
1.00533 0.994897 0.990784
1.00527 0.994905 0.991315
1.00537 0.99487 0.991137
1.00558 0.995003 0.99099
1.00527 0.994932 0.991325
1.00532 0.994905 0.990886
1.00534 0.994885 0.990598
1.00482 1.00354 0.982819
1.00496 1.00121 0.984623
1.00518 0.997936 0.987592
1.00531 0.994885 0.990462
1.00521 0.995124 0.99027
1.00349 1.00472 0.983787
1.00402 1.0047 0.983502
1.00376 1.00298 0.984932
0.999955 1.00223 0.992688
1.00024 1.00507 0.989135
1.0022 1.00498 0.98654
1.00529 0.994905 0.991203
1.00014 1.00128 0.993367
1.00013 1.00263 0.991939
1.00536 0.994864 0.990645
1.00533 0.994885 0.990513
1.00437 1.00295 0.98453
1.00493 1.00016 0.985845
1.00516 0.99596 0.989363
1.00525 0.994883 0.990253
0.999662 1.00403 0.991442
1.0012 1.00505 0.987994
1.00267 1.00446 0.986017
1.00384 1.00374 0.984641
1.00404 1.00469 0.983532
1.00196 1.00479 0.986308
1.00539 0.994854 0.990964
1.00537 0.994872 0.990452
1.0053 0.994879 0.990408
1.00521 0.995097 0.990129
1.00311 1.00213 0.987004
1.00495 0.998556 0.988015
1.00013 1.00291 0.991561
0.999839 1.00264 0.992448
1.00195 1.00095 0.991592
1.00076 1.00402 0.989375
1.00165 1.0051 0.987341
1.00284 1.00399 0.986171
1.00205 1.00463 0.984726
1.00118 1.00088 0.992144
1.00081 1.00439 0.988952
1.00303 1.0039 0.987497
1.00539 0.994801 0.990401
1.00541 0.994999 0.990178
1.00516 1.00187 0.985358
1.00486 1.00161 0.98486
1.00515 0.997815 0.987433
1.00513 1.00027 0.985793
0.99975 1.00431 0.990668
1.00544 0.994869 0.990674
1.00259 1.00313 0.987896
1.00498 1.00103 0.985232
1.00534 0.99471 0.990844
1.00515 0.997272 0.987476
1.00494 1.00066 0.985432
0.998981 1.00509 0.992319
1.00497 0.994807 0.990613
1.00228 1.00272 0.987993
1.00445 1.00228 0.984436
1.00512 0.995601 0.990229
1.00364 1.00099 0.986476
0.99902 0.994721 0.984773
0.998663 1.00342 0.993441
0.997585 1.00247 0.99634
0.997499 1.00177 0.997426
0.999997 1.00371 0.99108
0.999501 1.00493 0.990575
1.00031 1.00425 0.990771
0.997903 1.00205 0.995558
1.00017 1.00392 0.990661
1.00021 1.00463 0.989798
0.998903 0.999314 0.997575
0.999508 1.00498 0.990552
0.999028 1.00333 0.993158
0.997595 1.00214 0.997131
1.00021 1.0039 0.990774
0.999939 1.00491 0.99034
1.00078 1.00439 0.989449
1.00023 1.00413 0.990158
1.00044 1.00504 0.989679
1.00006 1.00431 0.990143
0.999911 1.00245 0.992513
0.999917 1.00248 0.992483
0.999698 0.999382 0.995901
0.999889 1.0024 0.992572
0.9998 0.999383 0.996102
0.999981 0.997428 0.999088
0.999964 0.999281 0.996332
1.00002 0.997322 0.997782
1.00015 0.997247 0.997681
0.999985 1.001 0.993879
1.00012 1.00112 0.993599
1.00007 0.998648 0.996106
1.00002 0.998991 0.996099
0.999872 0.997429 0.99909
0.999926 0.999674 0.995333
0.999836 0.997738 0.998986
0.999837 0.99825 0.99881
1.00532 0.994893 0.990734
1.00528 0.994913 0.991276
1.00528 0.994923 0.99137
1.00527 0.994902 0.991318
1.00534 0.994875 0.991095
1.0056 0.995087 0.990827
1.00544 0.994864 0.991141
1.00111 0.994831 0.980727
1.00506 0.995219 0.991143
1.00019 1.00216 0.992422
1.00529 0.994902 0.99118
1.00536 0.994875 0.990654
1.00532 0.994888 0.990527
1.00452 1.00257 0.984479
1.00497 0.999753 0.986191
1.00508 0.995829 0.989277
1.00525 0.994881 0.990204
1.00315 1.0036 0.985914
1.00477 1.00369 0.983599
1.00436 1.00439 0.983618
1.00014 1.00128 0.993357
1.00243 1.00492 0.98639
0.999767 1.00403 0.991565
1.00109 1.00505 0.987924
1.00001 1.00264 0.991785
1.0054 0.994864 0.990954
1.00013 1.0028 0.991777
0.999863 1.00269 0.992502
1.00109 1.00139 0.992046
1.00537 0.994857 0.990437
1.00529 0.994866 0.990372
1.00262 1.00282 0.987118
1.00484 0.997808 0.988361
1.00521 0.995028 0.990102
1.00068 1.00397 0.98956
1.00179 1.00502 0.987333
1.002 1.00129 0.990912
1.0033 1.00485 0.984489
1.00321 1.00369 0.986338
1.00543 0.994724 0.99095
1.00531 0.99486 0.99055
1.00524 0.994899 0.989997
1.00509 0.996582 0.990435
1.00181 0.999715 0.990983
0.999599 1.00341 0.991711
1.00206 1.00108 0.990784
1.00043 1.00079 0.992345
1.00136 1.00424 0.989247
1.00107 1.00444 0.988887
1.00099 1.00372 0.988228
1.00135 0.999297 0.99334
1.00092 1.0037 0.990507
1.00159 1.0034 0.988462
1.00543 0.994961 0.990892
1.00535 0.994733 0.990858
1.00518 0.997366 0.987695
1.00496 1.00104 0.985225
1.00479 1.00052 0.985394
0.999127 1.00479 0.992808
1.00463 0.994822 0.990826
1.00239 1.00281 0.987975
1.00461 1.0022 0.984414
1.00497 0.995491 0.99054
1.00391 1.00092 0.986554
0.998799 0.995028 0.982962
0.997845 1.00468 0.99373
1.00352 0.994731 0.991
1.00282 1.00306 0.985988
1.00303 1.001 0.987278
1.00354 0.997512 0.990689
0.999963 0.994892 0.940301
0.994961 0.994785 0.962197
0.995999 0.998342 0.987476
0.997842 0.994786 0.851416
0.994707 0.994882 0.8114
0.997875 1.00223 0.996364
0.997367 1.00203 0.997551
0.996868 1.00329 0.997259
1.00015 1.00396 0.990663
1.00015 1.00455 0.989978
0.999619 1.005 0.990537
0.999372 1.00358 0.992665
0.99869 0.999079 0.997769
0.999769 1.00496 0.990462
1.00029 1.00408 0.990229
1.00067 1.00448 0.989407
0.99804 1.00124 0.996758
0.999716 1.00424 0.991185
1.00039 1.00396 0.991464
0.998118 1.00411 0.993686
0.999633 1.00475 0.990967
1.00061 1.00465 0.988914
1.00016 1.00422 0.990242
1.00011 1.0049 0.989647
1.00041 1.00369 0.991044
0.999687 1.005 0.990665
1.00018 1.00501 0.989732
1.00016 1.00435 0.990303
1.0001 1.0043 0.990155
0.9999 1.00254 0.992495
0.999924 1.00247 0.992521
0.999676 0.999402 0.995953
0.999866 1.0026 0.992469
0.999681 0.999425 0.995902
0.999935 0.997418 0.999121
0.999771 0.99943 0.995787
0.999939 0.99743 0.998472
1.00005 0.997299 0.997773
0.999878 1.0007 0.994306
0.999971 1.00105 0.993885
1.00008 0.9984 0.996359
1.00016 1.00098 0.993635
1.00007 0.998605 0.996408
0.999922 0.997089 0.999163
1.00004 0.999057 0.995728
0.999881 0.997551 0.999054
0.999845 0.997859 0.998968
1.00533 0.994879 0.991053
1.00527 0.9949 0.991321
1.0056 0.99489 0.990666
1.00031 0.99485 0.980896
1.00545 0.994866 0.9911
1.00503 0.994933 0.991108
1.00549 0.994804 0.991138
0.995856 0.994893 0.962836
1.00233 0.994866 0.981645
1.00025 1.00173 0.992827
1.00016 1.00231 0.992386
0.999449 1.00401 0.991588
0.999897 1.00267 0.99226
1.00539 0.994869 0.990946
1.00537 0.994858 0.990422
1.00527 0.994859 0.990337
1.00363 1.00308 0.987229
1.00479 0.996488 0.988746
1.00521 0.994957 0.990092
1.00195 1.00101 0.989619
1.00463 1.00469 0.984247
1.00297 1.00284 0.9865
0.999864 1.00268 0.992556
1.00168 1.00471 0.987348
1.00064 1.00408 0.989747
1.00006 1.00285 0.991988
1.00035 1.00181 0.992493
1.00543 0.994756 0.990943
0.999941 1.00352 0.991377
1.00189 1.00067 0.991289
0.998104 1.00145 0.995521
1.00533 0.994872 0.990487
1.00524 0.99492 0.990005
1.00295 0.998962 0.991029
1.00479 0.996088 0.990424
1.00158 1.00451 0.988481
1.00105 1.00408 0.988135
1.00124 0.999966 0.993317
1.0026 1.00352 0.987661
1.00419 0.995703 0.99102
1.00521 0.995186 0.990605
1.00504 0.995884 0.989776
1.00359 0.995764 0.993471
0.997208 1.00494 0.994179
1.00216 1.00202 0.989273
0.998146 1.00426 0.9937
0.999072 1.00373 0.992644
1.00001 0.994915 0.925819
0.998936 1.00459 0.993321
1.00218 1.00311 0.98794
1.00421 0.994773 0.991073
1.00484 0.995402 0.990847
1.00417 1.00085 0.986605
1.00463 1.00221 0.984378
0.998719 0.995575 0.98097
0.998251 1.00439 0.993783
1.00326 0.995154 0.990873
1.00281 1.00371 0.985934
1.00366 1.00075 0.987419
1.00379 0.997769 0.990471
0.999858 0.994873 0.92633
0.995448 0.994824 0.958883
0.996056 0.997825 0.987847
0.997342 0.994764 0.855972
0.994727 0.994964 0.804312
0.998598 1.00449 0.992312
0.999447 0.994802 0.861503
0.994743 0.994832 0.802082
1.00085 0.998154 0.992668
1.00147 1.00179 0.989869
1.00151 0.999714 0.992745
0.994873 0.997051 0.991087
0.997431 0.994777 0.939806
0.994877 0.994784 0.955021
0.995526 0.994781 0.87694
0.994738 0.994838 0.790326
0.997048 1.00221 0.997683
0.99683 1.00303 0.997151
0.996669 1.00501 0.996291
1.0004 1.00399 0.990297
1.00064 1.00452 0.989366
0.999237 1.00503 0.990584
0.999379 1.00449 0.991595
0.998528 1.00039 0.9964
1.00027 1.00408 0.990228
1.00006 1.0042 0.99118
0.999543 1.00488 0.990662
1.0008 1.00467 0.989058
0.998097 1.00376 0.993939
0.999028 1.00378 0.993422
0.996784 1.00506 0.994715
0.999781 1.00501 0.989931
1.00049 1.00471 0.989491
1.00032 1.00491 0.989615
1.00015 1.0032 0.991475
0.999824 1.00487 0.990663
1.00036 1.00238 0.992161
0.999048 1.00173 0.993783
0.998398 1.00469 0.992305
0.999183 1.00493 0.991015
0.999713 1.00485 0.990697
1.00008 1.00455 0.990139
0.999991 1.00497 0.989787
1.00024 1.00429 0.990215
0.999966 1.00265 0.992282
1.00018 1.00427 0.990166
0.999918 1.00247 0.99251
0.999889 0.999351 0.99639
0.999862 1.00253 0.992527
0.999738 0.999355 0.996213
0.999895 0.997374 0.997967
0.99967 0.999421 0.9959
0.999926 0.997436 0.999131
0.999924 0.997471 0.997852
1.00032 1.00181 0.992613
0.999906 1.0005 0.994498
0.99988 1.00076 0.994296
1.00004 0.998292 0.99651
0.999945 1.00112 0.993892
1.00009 0.998379 0.996353
0.999967 0.996935 0.999207
1.00006 0.998622 0.996656
0.99992 0.997263 0.998547
0.999894 0.99757 0.997794
0.999782 0.994823 0.981031
1.00549 0.994854 0.991054
1.00497 0.994897 0.991069
0.996195 0.994827 0.963294
1.00239 0.994882 0.982044
1.00547 0.995222 0.99113
1.00355 0.995549 0.986087
0.997812 0.994817 0.965201
0.999834 0.994846 0.93961
0.996965 0.994796 0.877889
0.994673 0.994834 0.809731
0.999612 1.00276 0.992417
1.00024 1.00172 0.99281
1.00024 1.00224 0.992344
0.999756 1.0034 0.991894
0.9986 1.00476 0.99281
1.0005 1.0026 0.991555
1.00021 1.00352 0.991292
1.0002 1.00241 0.992158
1.00545 0.994793 0.990928
1.00534 0.994875 0.990431
1.00523 0.995113 0.99001
1.00291 0.99972 0.991082
1.00453 0.996273 0.990393
1.00119 0.999763 0.993288
1.00394 1.00353 0.987109
1.00234 1.00433 0.987386
1.00161 1.00038 0.991784
1.0018 1.00461 0.987662
1.00038 1.0035 0.99106
0.99635 1.00232 0.998541
1.00425 0.9951 0.991322
0.997629 1.00462 0.994034
1.00152 1.0021 0.99087
1.00497 0.994976 0.990576
1.00462 0.996312 0.990074
1.00307 0.99579 0.993308
0.999604 1.0045 0.991725
1.00005 1.00243 0.992852
1.00326 0.995423 0.990182
1.00342 0.998637 0.990624
1.00413 0.99644 0.991643
1.00094 0.997324 0.995201
0.998832 1.00501 0.991836
0.998187 1.00505 0.992724
0.998731 1.00483 0.992895
0.999804 0.994938 0.863061
1.00013 0.994875 0.941017
0.999189 1.00389 0.993847
1.00299 1.00423 0.985899
1.00298 0.995349 0.990732
1.00408 0.998042 0.990267
1.0041 1.00068 0.987596
0.999994 0.994855 0.938358
0.995809 0.994796 0.958442
0.996121 0.997927 0.988299
0.996974 0.994809 0.875372
0.994753 0.994853 0.796786
0.998937 1.00448 0.992277
0.999824 0.994853 0.859606
0.994711 0.994816 0.795443
1.00088 0.998291 0.992546
1.00145 1.00214 0.989899
1.00137 0.999872 0.993172
0.994874 0.998338 0.991909
0.997554 0.994778 0.933029
0.994913 0.994802 0.955459
0.994976 0.994795 0.876613
0.994757 0.994841 0.788385
0.997715 1.00479 0.994869
0.994736 0.994784 0.790289
0.994742 0.994772 0.794645
0.996853 1.00147 0.997195
0.999669 1.00185 0.995757
0.994897 0.99921 0.988447
0.994935 0.994815 0.958256
0.994926 0.994752 0.928597
0.994759 0.994885 0.880223
0.994844 0.994866 0.798768
0.997005 1.00251 0.997049
0.997353 1.0046 0.995871
0.996334 1.00391 0.996803
1.00035 1.00397 0.990213
1.00087 1.00465 0.989202
0.999686 1.00503 0.990355
0.999591 1.00444 0.990899
0.997811 1.00344 0.994193
1.00051 1.00474 0.989466
0.999105 1.00352 0.992907
1.0001 1.00498 0.989949
0.996369 1.00496 0.994994
0.99605 1.0051 0.997069
0.998259 1.00477 0.993176
1.00039 1.00498 0.990015
1.00055 1.00462 0.989585
0.999949 1.00275 0.991896
0.999738 1.00473 0.990621
1.00051 1.00209 0.992056
0.998671 1.0023 0.994178
0.998669 1.00392 0.992519
0.997899 1.00508 0.992926
0.99863 1.00124 0.995797
1.00017 1.00229 0.992622
1.00335 0.999458 0.990609
0.99872 1.00476 0.991556
0.998702 1.00466 0.992328
0.999325 1.00502 0.99009
0.999328 1.00497 0.991054
1.00019 1.00457 0.989907
0.999509 1.00498 0.990727
1.00011 1.00451 0.990214
1.00003 1.00287 0.991849
1.0003 1.00431 0.990128
0.999978 1.00262 0.992289
1.00003 0.99938 0.996125
0.999937 1.00244 0.992526
0.999871 0.999337 0.996026
1.00002 0.997272 0.997811
0.999732 0.999346 0.995924
0.999953 0.997349 0.999144
0.999922 0.997422 0.999141
1.00039 1.00228 0.992366
0.999953 1.00068 0.994297
1.00022 1.00194 0.992627
1.00004 0.998219 0.996578
0.99989 1.00053 0.99449
0.999857 1.00083 0.994287
1.00004 0.998295 0.996498
0.999992 0.996841 0.999231
1.00006 0.998412 0.996872
0.999973 0.996951 0.998646
0.999935 0.997245 0.998006
0.999557 0.994846 0.846811
0.994726 0.994807 0.789341
0.996239 0.994846 0.963794
1.00195 0.994896 0.982573
1.00539 0.994787 0.991139
0.997671 0.994871 0.964057
1.00344 0.994736 0.986645
0.99996 0.994861 0.935261
0.997077 0.994748 0.856831
0.994717 0.994865 0.802992
0.997667 0.994769 0.971892
0.997141 0.994811 0.940838
0.995924 0.994796 0.876606
0.994786 0.994862 0.799267
0.999872 1.00369 0.991834
0.999836 1.0025 0.992514
1.00015 1.00188 0.9928
0.999915 1.00297 0.992203
0.998266 1.00437 0.993516
1.00035 1.00404 0.990266
1.00002 1.00337 0.991594
1.00071 1.00377 0.989856
1.00018 1.0035 0.991162
0.999874 1.00296 0.992048
1.00406 0.99477 0.991607
1.00484 0.994897 0.990541
1.00393 0.996553 0.990375
1.0024 0.995928 0.993141
1.00048 1.00238 0.993037
0.999623 1.00473 0.989804
1.0005 1.00194 0.992633
0.997925 1.00428 0.993846
1.00228 0.995248 0.990725
0.998906 1.00509 0.991573
0.997927 1.00505 0.992873
1.00316 0.998462 0.990567
1.0038 0.996202 0.99181
1.00071 0.997595 0.995523
0.998753 1.00475 0.992597
0.999777 0.995579 0.989084
1.0008 0.999226 0.994752
0.997083 1.0025 0.996593
0.998554 1.00474 0.990999
0.997727 1.00511 0.992363
0.998219 1.00486 0.993249
0.994716 0.994815 0.812918
0.999801 0.994875 0.868994
1.00007 0.994877 0.926156
0.998995 1.00469 0.99222
1.00172 1.00233 0.989888
1.00088 0.997845 0.992416
1.0011 0.999787 0.993603
0.999829 0.994905 0.873981
0.997281 0.994806 0.92675
0.994873 0.994816 0.955044
0.994881 0.999061 0.992587
0.995512 0.9948 0.860763
0.994684 0.994801 0.801829
0.994808 0.99499 0.804148
0.997712 1.00417 0.994556
0.994721 0.994795 0.800164
0.994764 0.994778 0.793982
0.996993 0.999861 0.997844
0.999102 1.00167 0.995653
0.994899 0.997849 0.99037
0.995154 0.994794 0.95687
0.995487 0.994791 0.940227
0.994709 0.996263 0.861025
0.995128 0.994867 0.808805
0.996674 1.00373 0.998176
0.994764 0.994815 0.802691
0.994811 0.994814 0.792665
0.994828 1.00251 0.999904
0.995008 0.996729 0.966339
0.994793 0.994848 0.937839
0.994898 0.994907 0.855094
0.995774 0.9949 0.822134
0.997963 1.00351 0.995419
0.996736 1.00413 0.996939
0.995554 1.00397 0.998442
1.00035 1.0048 0.989437
1.00026 1.00502 0.989969
0.999196 1.0032 0.992392
0.996195 1.00478 0.995278
0.99987 1.00499 0.990033
0.998058 1.0049 0.993159
0.99557 1.00486 0.997334
0.994923 1.00434 0.998596
0.995677 1.00508 0.997327
0.998783 1.00513 0.992644
0.999808 1.00487 0.990572
1.00061 1.00158 0.991954
0.998194 1.00285 0.994565
0.997978 1.00504 0.993009
0.999182 1.00368 0.99246
0.998053 1.002 0.995835
0.998196 1.0036 0.994088
0.995672 1.00511 0.99742
1.00136 0.998812 0.994785
0.99971 1.00169 0.993585
1.00195 1.00036 0.991116
1.00474 1.00006 0.987661
1.00249 1.00137 0.990306
1.00239 0.999007 0.991968
0.99932 1.00455 0.991355
0.999543 1.0051 0.989545
0.999071 1.00458 0.992351
0.999871 1.00506 0.990092
1.00044 1.00463 0.989321
0.999813 1.00476 0.991089
1.00038 1.0045 0.989891
1.0001 1.00335 0.99135
1.00025 1.00437 0.990291
1.00012 1.00289 0.991848
1.00017 0.999487 0.995815
1.00008 1.00247 0.992297
1.00002 0.999399 0.995722
1.0001 0.997369 0.997606
0.999877 0.999306 0.995727
1.00001 0.99728 0.998478
0.999967 0.997306 0.999126
1.00034 1.00305 0.991252
1.0001 1.00085 0.993932
1.00028 1.00231 0.992164
1.00005 0.998266 0.996516
0.999972 1.00061 0.99431
1.00023 1.00184 0.992641
1.00002 0.996783 0.999244
1.00003 0.998225 0.996578
0.999891 1.00057 0.994485
1.00006 0.998288 0.996485
0.999993 0.996875 0.999225
0.999963 0.996948 0.9992
0.994706 0.994763 0.790785
0.999635 0.99484 0.859928
0.994764 0.994773 0.792332
0.994737 0.994799 0.789599
0.997804 0.994881 0.962691
1.00324 0.994777 0.987198
0.999722 0.994818 0.930141
0.998311 0.994794 0.877642
0.99476 0.994845 0.796154
0.998281 0.994806 0.970821
0.997401 0.994789 0.926392
0.995089 0.994802 0.875563
0.994731 0.994852 0.791661
0.9949 0.99479 0.963022
0.99585 0.994733 0.926985
0.994823 0.996909 0.853445
0.994834 0.994876 0.800436
1.00067 1.00476 0.990241
0.999359 1.00373 0.991976
1.00005 1.00224 0.992606
0.997685 1.00392 0.994233
1.00104 1.00372 0.989368
1.00024 1.00397 0.99049
0.999487 1.00373 0.991637
1.00124 1.00308 0.990065
1.00077 1.00401 0.989883
1.00031 1.00319 0.991033
1.00198 0.994792 0.991231
1.00283 0.998079 0.990525
1.00375 0.995863 0.991978
1.00027 0.997317 0.995846
1.00015 1.00471 0.992273
0.998204 1.00501 0.993029
0.998974 1.00511 0.991309
0.999655 1.00465 0.990772
0.999499 0.996503 0.989722
0.998657 1.00511 0.992081
0.99891 1.00481 0.993109
1.00047 0.999144 0.995073
0.99849 1.00121 0.99643
0.996103 1.00088 0.98868
0.996648 1.0001 1.00042
0.995132 1.00509 0.997034
0.998194 1.00476 0.992997
0.996925 1.00511 0.994684
0.994791 0.994803 0.809277
0.994713 0.99479 0.808365
0.999822 0.994917 0.850162
0.997856 1.00424 0.994308
0.998885 1.00109 0.99555
0.997221 0.999412 0.99849
0.994693 0.99478 0.797936
0.995601 0.994741 0.928288
0.995272 0.994798 0.956324
0.994877 0.996081 0.99269
0.994767 0.995543 0.880802
0.994774 0.994781 0.794226
0.995578 0.994865 0.810516
0.996801 1.00363 0.998283
0.994776 0.994819 0.805215
0.994798 0.994815 0.793808
0.99502 1.00207 0.998907
0.995114 0.995878 0.968125
0.994803 0.995363 0.925669
0.995475 0.994886 0.817323
0.995269 0.998245 0.863827
0.994849 1.00496 1.00024
0.994789 0.994832 0.79311
0.994864 0.994833 0.805351
0.994831 0.994868 0.800406
0.994781 0.999084 0.989013
0.9949 0.996623 0.941058
0.997712 0.995122 0.875119
0.997113 1.00482 0.997097
0.995715 1.00472 0.998164
0.99506 1.00524 0.999006
0.999769 1.00496 0.990054
0.997945 1.00509 0.993139
0.995244 1.00504 0.997594
0.998241 1.00511 0.992649
0.995818 1.00505 0.997312
0.994938 1.005 0.998495
0.99491 1.00499 0.998791
0.99546 1.0051 0.997462
0.997765 1.00502 0.993116
0.999617 1.00364 0.992398
0.997657 1.00277 0.995875
0.99571 1.00484 0.997326
0.997978 1.00386 0.994127
0.998327 1.00135 0.996787
0.998496 0.998753 0.998603
1.00203 1.00004 0.990287
0.999286 1.00115 0.994483
1.00234 1.00024 0.990778
1.00443 1.00152 0.986185
1.00475 1.00266 0.984481
1.00428 0.99919 0.989172
1.00383 1.00014 0.987805
1.00146 1.00404 0.988712
1.00163 1.00174 0.99063
1.00139 0.998596 0.993297
0.999929 1.00437 0.991155
0.999954 1.0051 0.989497
1.00045 1.00508 0.988607
1.0004 1.00506 0.9901
1.00061 1.00467 0.989309
1.00023 1.00369 0.990732
1.00054 1.00431 0.989872
1.00017 1.0032 0.991346
1.0002 0.999757 0.99551
1.00008 1.00297 0.991846
1.00013 0.999555 0.995379
1.00022 0.997451 0.997389
1.00003 0.999409 0.995393
1.0001 0.997333 0.998337
1.00005 0.997275 0.999057
1.00071 1.00312 0.990412
1.00014 1.00131 0.993051
1.00047 1.00292 0.991255
1.00012 0.998356 0.996314
1.00009 1.00086 0.993754
1.00022 1.00236 0.991963
1.00005 0.996792 0.999226
1.00006 0.998233 0.99653
0.999994 1.00052 0.994322
1.00002 0.996813 0.999241
1.00002 0.998245 0.996578
0.999994 0.996863 0.99922
0.994816 0.994811 0.799369
0.994713 0.994807 0.805048
0.999536 0.994814 0.858602
1.00108 1.0029 0.990278
0.994799 0.994801 0.798657
0.994765 0.994776 0.792278
0.994771 0.994804 0.803939
0.998668 0.994815 0.970231
0.997043 0.994787 0.940498
0.995838 0.994828 0.858309
0.994699 0.994843 0.802169
0.995872 0.994806 0.960735
0.995636 0.994784 0.939018
0.994733 0.995291 0.85696
0.994851 0.994876 0.803371
0.994836 0.994789 0.95511
0.994769 0.994798 0.935706
0.996029 0.998767 0.867413
0.995381 0.994897 0.822333
0.999295 1.00457 0.991243
0.99995 1.00467 0.990323
0.999582 1.00351 0.992121
1.00115 1.0023 0.99066
1.00093 1.00403 0.989517
1.00015 1.00431 0.990712
1.00131 1.00318 0.989984
1.00081 1.00408 0.989907
0.998478 0.997362 0.990211
0.999755 0.999125 0.995312
0.999872 1.00463 0.990537
0.999868 0.999871 0.996276
0.999193 1.00465 0.992975
0.999288 1.00511 0.991797
0.998317 1.00444 0.99289
0.995694 1.00009 0.989064
0.997603 1.00502 0.994624
0.996366 1.00368 0.997312
0.995934 1.00056 1.00048
0.997581 1.00424 0.994764
0.994797 1.00082 0.986715
0.995223 1.00282 0.998871
0.9957 1.00501 0.997529
0.996944 1.0053 0.995767
0.994767 0.994812 0.797927
0.994791 0.994806 0.806211
0.994707 0.994768 0.803645
0.996886 1.00381 0.998367
0.995215 1.00101 0.997882
0.994792 0.994825 0.807538
0.994751 0.99484 0.939266
0.995325 0.995911 0.965194
0.995384 0.996935 0.862116
0.994793 0.994817 0.794704
0.994893 0.994868 0.812482
0.995115 1.00499 1.00005
0.99479 0.994829 0.793351
0.994867 0.99485 0.805121
0.994824 0.999682 0.992752
0.994853 0.994868 0.803386
0.994855 0.996642 0.933251
0.996387 0.997434 0.87686
0.995006 1.00361 0.997695
0.994841 0.994839 0.802791
0.994803 0.994808 0.800336
0.994788 0.994862 0.798976
0.996117 0.998754 0.866966
0.994876 1.00113 0.972382
0.995259 0.997378 0.926159
0.99613 1.00507 0.997901
0.995234 1.0052 0.999014
0.994827 1.00529 0.998268
0.997601 1.00512 0.992652
0.995231 1.00497 0.997302
0.994919 1.00509 0.998425
0.995329 1.00491 0.997433
0.994909 1.00492 0.998791
0.997495 1.00214 0.998594
0.995562 1.00467 0.997224
0.997478 1.00417 0.994203
0.997832 1.00162 0.99721
0.998135 1.00073 0.994709
0.995942 0.998735 1.00214
1.00166 0.999767 0.991583
1.0044 1.00444 0.982526
1.00435 1.00298 0.984371
1.00276 1.00007 0.990368
1.00426 1.00186 0.985674
1.00507 1.00242 0.983988
1.00508 1.0009 0.985902
1.00434 1.00247 0.984767
1.00313 1.00124 0.988595
1.00369 0.999793 0.988981
1.00307 1.0002 0.987979
1.00062 1.00512 0.988226
1.00095 1.00421 0.988898
1.00072 1.00209 0.990944
1.00038 1.00509 0.989449
1.00077 1.00507 0.988642
1.00035 1.00445 0.989729
1.00075 1.00488 0.989295
1.00033 1.00365 0.990723
1.00018 1.00005 0.99444
1.00038 1.00309 0.991345
1.00022 0.999801 0.994689
1.00014 0.997491 0.99883
1.0001 0.999697 0.995015
1.00017 0.997416 0.998179
1.00013 0.997303 0.998964
1.00061 1.00332 0.990396
1.00033 1.00184 0.992263
1.00065 1.00319 0.990602
1.0002 0.998569 0.995988
1.00025 1.00129 0.992954
1.00051 1.0029 0.991253
1.00008 0.996813 0.999179
1.00013 0.998318 0.996332
1.0001 1.00085 0.993576
1.00004 0.99678 0.999233
1.00006 0.998199 0.996543
1.00001 0.996846 0.999238
0.994793 0.994825 0.801916
0.994811 0.99481 0.799755
0.994705 0.994817 0.804544
1.00116 1.00287 0.990349
1.00034 1.00424 0.98988
1.00161 1.00139 0.991436
0.99487 0.994849 0.80434
0.994806 0.9948 0.799662
0.994765 0.994766 0.792364
0.996875 0.994802 0.960836
0.994876 0.994743 0.926965
0.994759 0.996495 0.879182
0.994836 0.994861 0.797609
0.994979 0.994783 0.9564
0.994785 0.996214 0.93158
0.995976 0.997404 0.864456
0.995236 0.994895 0.817336
0.994862 0.995288 0.954422
0.994848 0.996506 0.935486
0.997043 0.994912 0.875529
0.99484 0.99487 0.800276
0.999248 1.00241 0.993257
0.999965 1.00398 0.991023
0.999895 1.00442 0.990403
1.0012 1.00238 0.990589
1.00059 1.00446 0.989664
1.00134 1.00329 0.989902
0.995561 1.00009 0.989732
0.995736 1.00108 1.00066
0.998935 1.0036 0.992787
0.998084 1.00253 0.997491
0.998182 1.00462 0.994563
0.997032 1.00379 0.995401
0.996319 1.005 0.995912
0.994773 1.00242 0.986644
0.99541 1.00514 0.997848
0.995 1.00337 0.998207
0.996129 1.00476 0.996992
0.995548 0.999639 0.985099
0.995208 1.00519 0.994849
0.994795 1.0036 0.999221
0.994863 0.994842 0.797058
0.994774 0.99482 0.796957
0.994791 0.994804 0.803193
0.995219 1.00489 0.999809
0.994848 0.999851 0.988399
0.994785 0.994825 0.793602
0.994835 0.997176 0.932786
0.996329 0.99513 0.861875
0.994877 0.994848 0.804863
0.994835 0.994856 0.797801
0.994918 1.00343 0.998205
0.994827 0.994839 0.802435
0.994817 0.994802 0.801435
0.994905 1.00063 0.969719
0.994716 0.994855 0.791775
0.995797 0.998076 0.863661
0.994846 0.995922 0.940089
0.994951 1.0052 0.989144
0.994787 0.994831 0.802818
0.994772 0.994789 0.793789
0.994667 0.994848 0.811166
0.99482 0.996705 0.852357
0.994886 0.997071 0.936069
0.994843 1.00133 0.963909
0.995205 1.00517 0.998971
0.99492 1.00525 0.998193
0.995713 1.00467 0.997423
0.995666 1.0046 0.997407
0.994924 1.00496 0.998804
0.996089 1.00381 0.998485
0.998854 1.00015 0.998163
0.997383 1.00193 0.997607
1.0008 1.00037 0.993641
1.00215 1.00484 0.986304
1.00099 0.999576 0.993251
1.00422 1.00426 0.983468
1.0043 1.00398 0.98279
1.00499 1.00099 0.984936
1.00508 1.00166 0.984591
1.00429 1.00305 0.98425
1.00425 1.00219 0.985176
1.00518 1.00189 0.984316
1.00509 1.00224 0.984124
1.00467 1.00063 0.986756
1.00462 1.00097 0.98613
1.0038 1.0023 0.98506
1.00138 1.00418 0.988089
1.0028 1.00185 0.988505
1.00296 1.00047 0.988775
1.00061 1.00499 0.98872
1.00102 1.00511 0.988234
1.00051 1.00434 0.989085
1.00107 1.00507 0.988678
1.0006 1.00425 0.989742
1.00014 1.0007 0.993857
1.00052 1.00345 0.990713
1.00023 1.00007 0.994419
1.00019 0.99768 0.998773
1.00024 0.999786 0.994698
1.00022 0.997532 0.998034
1.00018 0.997465 0.99887
1.00106 1.00341 0.989955
1.0005 1.00217 0.99192
1.00081 1.00307 0.990431
1.00028 0.998874 0.995545
1.00034 1.00184 0.992349
1.00061 1.00321 0.990797
1.00012 0.996905 0.999105
1.00021 0.998505 0.99601
1.00031 1.00126 0.992858
1.00008 0.996814 0.999194
1.00014 0.998282 0.996349
1.00004 0.996802 0.999241
0.994831 0.994839 0.801328
0.994794 0.994841 0.802192
0.994811 0.994816 0.800127
0.999679 1.0052 0.989686
1.00122 1.00358 0.990966
1.001 1.00287 0.990428
1.0004 1.00412 0.989783
1.00073 1.00164 0.991785
1.00038 1.00273 0.991229
0.999505 1.00127 0.993975
0.994827 0.994822 0.794018
0.994872 0.994852 0.804154
0.994807 0.994829 0.800674
0.994892 0.994894 0.812344
0.99555 0.994834 0.955147
0.994793 0.99687 0.926072
0.995923 0.994905 0.878261
0.994883 0.99535 0.953893
0.994866 0.998402 0.922076
0.996242 0.997405 0.876588
0.994994 0.994867 0.810164
0.995394 0.996131 0.958038
0.994869 0.998238 0.924511
0.994902 0.994911 0.85572
0.994749 0.994836 0.791641
0.996748 1.00441 0.995723
0.998943 1.00295 0.99379
0.999959 1.00426 0.990803
1.00112 1.00277 0.990526
0.994805 1.00185 0.986491
0.994778 1.00382 0.99748
0.996618 1.00457 0.996039
0.996565 1.00501 0.996069
0.995214 1.00513 0.998289
0.995659 1.00495 0.997027
0.995508 1.00382 0.999286
0.995476 1.0004 0.981929
0.995241 1.00521 0.994949
0.995683 1.00372 0.998531
0.995283 1.00244 0.978465
0.99469 1.00323 0.999343
0.994767 0.994824 0.799226
0.994848 0.994841 0.800976
0.994783 0.994836 0.795964
0.994828 1.00356 0.998701
0.994877 1.00074 0.973175
0.994816 0.994839 0.802115
0.994862 0.997867 0.92737
0.99612 0.994901 0.877695
0.994815 0.994833 0.802386
0.994685 0.994851 0.802034
0.994902 1.00499 0.99011
0.9948 0.994837 0.803129
0.994763 0.994791 0.793794
0.994835 1.00009 0.964039
0.994722 0.994861 0.804469
0.994719 0.996132 0.855373
0.994876 0.997422 0.923395
0.994854 1.00435 0.984267
0.994831 0.994813 0.799597
0.994713 0.994817 0.790917
0.995302 0.994799 0.878469
0.994756 0.995253 0.935743
0.994818 0.999975 0.958141
0.994939 1.00525 0.998548
0.995348 1.00464 0.997496
0.996807 1.00223 0.997403
0.995066 1.00503 0.998377
0.996938 1.00243 0.998503
1.00143 1.00108 0.992665
1.00338 0.999818 0.992582
1.00297 1.0049 0.985446
1.00433 1.00249 0.984255
1.00386 1.00408 0.984411
1.00444 1.00402 0.982734
1.00461 1.00262 0.984085
1.00525 0.998663 0.986648
1.00512 1.00037 0.98571
1.005 1.00113 0.984906
1.00514 1.00152 0.984642
1.00501 1.00152 0.984586
1.00419 1.00314 0.984126
1.00519 1.00187 0.984412
1.00518 1.00203 0.984264
1.00509 1.00207 0.984263
1.00352 1.00196 0.987475
1.00399 1.00101 0.987189
1.00431 1.00093 0.986362
1.00095 1.00511 0.987797
1.00173 1.00403 0.988122
1.00234 1.00254 0.988415
1.00025 1.00135 0.993028
1.00081 1.00487 0.988756
1.00135 1.0051 0.988241
1.00074 1.00413 0.989752
1.00017 1.00073 0.993828
1.00015 0.997932 0.998675
1.00025 1.00009 0.994399
1.0002 0.997644 0.998754
1.00021 0.997474 0.998802
1.0003 1.00511 0.989947
1.00095 1.00503 0.989029
1.00076 1.00266 0.991032
1.00077 1.00382 0.989926
1.00027 0.999289 0.995122
1.00049 1.00219 0.991915
1.0009 1.00304 0.990468
1.00013 0.997126 0.998996
1.00026 0.998868 0.995567
1.00036 1.00187 0.992431
1.00011 0.9969 0.999127
1.00022 0.998473 0.996036
1.00008 0.996793 0.99921
0.994799 0.994844 0.794301
0.994824 0.994833 0.801
0.994799 0.994831 0.802463
1.00006 1.00518 0.989655
1.00022 1.00293 0.991244
1.00147 1.00237 0.98831
0.998806 1.00412 0.991155
1.00168 1.00185 0.991554
1.00072 1.00417 0.989682
1.00027 1.0021 0.992134
1.00027 1.00358 0.991249
0.999971 1.00104 0.9942
0.998942 1.00372 0.994174
0.994755 0.99477 0.795455
0.994809 0.994825 0.795268
0.994874 0.994837 0.803925
0.99519 0.994863 0.811785
0.995861 0.994911 0.86209
0.994844 0.994878 0.952977
0.994802 0.996832 0.934657
0.995443 0.996145 0.95404
0.994868 0.996626 0.93689
0.995057 0.998351 0.864839
0.994764 0.994841 0.789714
0.994911 0.998092 0.956936
0.994845 0.99816 0.936549
0.994762 0.994893 0.8806
0.994707 0.994878 0.813068
0.998962 1.00051 0.99641
0.996394 1.00433 0.996274
0.998966 1.00272 0.994342
0.995241 1.00258 0.978435
0.995076 1.00519 0.994789
0.995358 1.00492 0.997039
0.99474 1.00435 0.999362
0.995724 1.00366 0.998423
0.994728 1.00244 0.999791
0.99486 1.00194 0.978393
0.996113 1.00129 1.00066
0.994909 1.00068 0.984909
0.994804 0.994819 0.80883
0.994789 0.994834 0.798231
0.994834 0.994834 0.804995
0.994949 1.00491 0.990409
0.99486 0.999946 0.96173
0.994818 0.994841 0.803443
0.994855 0.9975 0.935559
0.994749 0.99624 0.876477
0.994761 0.994768 0.794064
0.994766 0.994848 0.797596
0.995247 1.0048 0.984888
0.994816 0.994816 0.799817
0.99473 0.99481 0.791191
0.994974 0.998523 0.959227
0.994956 0.994795 0.876438
0.994801 0.996506 0.929413
0.995355 1.00252 0.981698
0.994706 0.994775 0.791633
0.997172 0.994803 0.878726
0.995525 0.99473 0.927343
0.994851 0.995355 0.959704
0.995541 1.00514 0.997602
0.995738 1.00381 0.997286
0.9983 1.00151 0.996771
0.994888 1.00509 0.998892
0.999976 1.00178 0.993857
1.00415 0.997898 0.990375
1.00386 1.00501 0.984569
1.00416 1.00266 0.98416
1.00463 0.999461 0.986786
1.00471 1.00412 0.982675
1.00471 1.00216 0.984164
1.00506 0.998629 0.987124
1.00535 0.996005 0.989007
1.00528 0.998228 0.986864
1.00525 0.998595 0.986703
1.00516 1.00036 0.985818
1.00512 1.00041 0.985642
1.00498 1.00121 0.984875
1.00518 1.00208 0.984183
1.00515 1.00142 0.984597
1.00496 1.00143 0.984581
1.00494 1.00152 0.985575
1.00481 1.00222 0.98469
1.0052 1.00224 0.98421
1.00197 1.00402 0.987185
1.00321 1.00205 0.987407
1.0036 1.00127 0.987618
1.00035 1.00243 0.992932
1.00122 1.00509 0.987842
1.00204 1.00384 0.988156
1.00017 0.998575 0.996195
1.00028 1.00155 0.993422
1.001 1.00475 0.988792
1.00021 1.00078 0.993795
1.00017 0.998035 0.998609
1.0002 0.997645 0.998731
1.0013 1.00385 0.98879
1.00145 1.00513 0.98827
0.999482 1.00513 0.989845
1.00072 1.00387 0.989942
1.00074 1.00479 0.988992
1.00021 0.99976 0.994737
1.00061 1.00289 0.991048
1.00058 1.00418 0.98989
1.00012 0.997423 0.998909
1.00028 0.99924 0.995144
1.00048 1.00219 0.99191
1.00012 0.997104 0.99903
1.00026 0.998828 0.995587
1.00011 0.996877 0.99915
0.994779 0.994821 0.80919
0.994803 0.994842 0.794591
0.994811 0.99485 0.800649
1.0033 1.00177 0.986809
0.999893 1.00502 0.989623
0.999668 1.00313 0.991572
0.999982 1.00497 0.990721
1.00268 1.00217 0.988408
1.00059 1.00225 0.992938
1.00358 1.0023 0.986951
0.996836 1.00482 0.993775
0.999734 1.00385 0.991267
0.999919 0.999959 0.994426
0.997861 1.00344 0.994126
0.99819 1.00336 0.994535
0.994744 0.994835 0.802836
0.994773 0.994775 0.794843
0.994802 0.994829 0.796264
0.994806 0.995272 0.805168
0.995106 0.997046 0.863282
0.994854 0.998372 0.924587
0.995669 0.995137 0.953306
0.995101 0.997704 0.957361
0.994731 0.99516 0.805734
0.994867 0.996712 0.927893
0.994716 0.996828 0.861527
0.99488 0.996533 0.962047
0.99478 0.995918 0.938571
0.995119 0.994816 0.878522
1.00018 0.994956 1.00073
0.998656 1.00105 0.996277
0.995881 1.00428 0.996791
0.994909 1.00171 0.978331
0.995413 1.00128 1.00017
0.996187 1.00351 0.998355
0.99677 1.00036 1.00102
0.994943 0.99967 0.98504
0.995812 0.998881 0.992315
0.994712 0.994812 0.807692
0.994799 0.994815 0.809558
0.994805 0.994836 0.797094
0.99493 1.00444 0.985084
0.994879 0.999893 0.95853
0.994799 0.994826 0.800275
0.994833 0.99668 0.923867
0.995511 0.994803 0.859828
0.994766 0.994817 0.805113
0.995029 1.00494 0.98147
0.994714 0.994817 0.805593
0.996946 0.994761 0.857662
0.99487 0.995506 0.955337
0.995339 0.994788 0.939363
0.994882 1.00089 0.990077
0.999663 0.994859 0.846825
0.997185 0.994815 0.940963
0.994871 0.994809 0.954057
0.994874 1.00499 0.997116
0.997508 1.00189 0.996644
1.00065 0.999927 0.993503
0.998877 1.00174 0.995036
1.00375 0.99806 0.990132
1.0047 0.99766 0.989259
1.00399 1.00279 0.984065
1.0046 0.999427 0.986685
1.0051 0.996196 0.989065
1.00471 1.00163 0.984251
1.00494 0.998577 0.987083
1.00535 0.995376 0.989701
1.00528 0.995056 0.990555
1.00532 0.996233 0.988949
1.00536 0.995984 0.98907
1.00529 0.998209 0.986965
1.00527 0.998202 0.98706
1.00523 0.998559 0.986757
1.00523 1.00099 0.98494
1.00517 1.00025 0.985756
1.00512 1.0004 0.985572
1.00516 1.00255 0.983874
1.00511 1.00214 0.984232
1.00515 1.00131 0.984551
1.00303 1.00302 0.986789
1.00438 1.00211 0.985513
1.00422 1.00261 0.98497
1.00074 1.00295 0.99063
1.00222 1.00405 0.987182
1.00299 1.00246 0.987332
0.999889 0.999687 0.998137
1.00048 1.00234 0.991684
1.00151 1.00508 0.987888
1.00018 0.998553 0.998375
1.00032 1.00156 0.99286
1.00019 0.998122 0.998533
1.00402 1.00187 0.987535
1.00172 1.0035 0.988545
1.00163 1.00468 0.98802
1.00091 1.00464 0.989046
1.001 1.00514 0.988273
0.999753 1.00518 0.989747
1.00006 1.00064 0.994162
1.00066 1.00389 0.989956
1.00069 1.00444 0.988952
1.0001 0.997622 0.99882
1.0002 0.999755 0.994757
1.00044 1.00309 0.99106
1.00011 0.997363 0.998932
1.00029 0.999215 0.995161
1.00011 0.997056 0.999064
0.994736 0.994785 0.792554
0.994797 0.994822 0.809562
0.994809 0.994837 0.794929
1.00329 1.00243 0.986648
1.00467 1.00291 0.985797
1.00251 1.00345 0.986791
0.999689 1.00497 0.990283
1.00375 1.00178 0.988515
0.998636 1.00144 0.994252
0.998261 1.00405 0.993253
1.00208 1.00277 0.988245
1.0017 1.00083 0.991212
0.998739 0.999731 0.996412
0.998622 1.00358 0.99405
0.998823 1.00361 0.99429
0.997864 0.994787 0.851417
0.994715 0.994815 0.796477
0.994781 0.99478 0.795077
0.994757 0.994866 0.797906
0.994768 0.996256 0.881094
0.994849 0.996505 0.923871
0.994862 0.996785 0.955777
0.994897 0.996782 0.959562
0.99535 0.995085 0.87656
0.994797 0.99575 0.925738
0.994847 0.997416 0.963413
0.995416 0.994719 0.927714
0.999284 0.995457 1.00353
0.999832 0.995354 1.00072
0.998275 1.00075 0.996274
0.994847 0.99934 0.985325
0.99715 0.999495 1.00137
0.996293 0.999012 0.99188
0.995865 0.996576 0.989974
0.999802 0.995063 0.861835
0.994705 0.994792 0.804566
0.994803 0.994818 0.810042
0.994833 1.00457 0.98192
0.994832 0.994872 0.953373
0.994707 0.994824 0.804899
0.994972 0.994743 0.928125
0.997696 0.99481 0.878651
0.994902 0.998828 0.986581
0.999662 0.994855 0.860051
0.997292 0.994796 0.92684
0.994852 0.994787 0.955069
0.996113 0.998174 0.98719
0.999818 0.994846 0.939751
0.995023 0.994833 0.961469
0.996332 1.00142 0.996539
0.999886 0.999694 0.993455
1.00335 0.998814 0.991635
1.00282 0.999012 0.989912
1.00439 0.997584 0.98918
1.00514 0.995814 0.98981
1.00462 0.99945 0.986587
1.00496 0.996639 0.988997
1.00531 0.994838 0.990171
1.00487 0.998554 0.987038
1.00535 0.995394 0.989645
1.0053 0.994858 0.990607
1.00531 0.994908 0.990719
1.00529 0.995038 0.990627
1.00525 0.995294 0.990563
1.00529 0.996692 0.988883
1.00532 0.99626 0.989098
1.00539 0.995941 0.989136
1.0053 0.999233 0.98639
1.00529 0.998268 0.986899
1.00527 0.998155 0.987256
1.00529 1.0022 0.98374
1.00524 1.00103 0.984963
1.00518 1.00016 0.985693
1.00386 1.00297 0.985534
1.00503 1.0025 0.983945
1.00498 1.00219 0.984285
1.00112 1.00318 0.989751
1.00301 1.00306 0.986723
1.00396 1.00219 0.985458
1.00017 1.00002 0.997749
1.00089 1.00277 0.990639
1.00246 1.00398 0.987172
1.00008 0.999615 0.996831
1.00068 1.00222 0.991713
1.00021 0.99878 0.998226
1.00484 1.00168 0.985918
1.00323 1.00199 0.987431
1.00201 1.00356 0.98774
1.00179 1.00361 0.988299
1.00134 1.00485 0.988055
1.00104 1.00506 0.988487
1.00015 1.0014 0.993324
1.00074 1.00471 0.989021
1.00031 1.00513 0.988281
1.00008 0.998103 0.998639
1.00007 1.00049 0.994189
1.00067 1.00392 0.98997
1.00008 0.99767 0.998849
1.00017 0.99971 0.994794
1.00011 0.997335 0.998956
0.999389 0.99481 0.860852
0.994721 0.994794 0.798609
0.994806 0.994821 0.810018
1.0032 1.00263 0.986497
1.00303 1.00363 0.98584
1.00436 1.0033 0.985576
1.00468 1.00337 0.984099
1.00193 1.00273 0.989004
0.999412 1.00433 0.992779
1.00203 1.00324 0.989526
1.00133 1.00112 0.991693
1.00458 0.995721 0.990521
1.00205 0.998468 0.994031
1.00171 0.997148 0.995328
1.00031 0.998814 0.996067
0.999915 1.00184 0.994035
0.997427 0.994821 0.937541
0.997951 0.994758 0.8558
0.994692 0.994805 0.802609
0.995542 0.994808 0.86171
0.994785 0.995871 0.936655
0.995035 0.996204 0.961166
0.994833 0.996757 0.965068
0.996091 0.994771 0.940376
0.995746 0.994782 0.963461
0.998425 0.996738 1.00135
0.998323 0.996121 1.00361
0.999539 0.996594 1.00058
0.996547 0.998367 0.991561
0.997028 0.997055 0.990202
1.00003 0.994927 0.925511
0.999803 0.994892 0.868109
0.994694 0.994775 0.801554
0.995033 0.998435 0.98271
0.994977 0.994771 0.954535
0.99965 0.994833 0.858953
0.997207 0.994813 0.940676
0.995969 0.997671 0.987428
0.999964 0.994862 0.93513
0.995643 0.994824 0.959291
1.0002 0.995022 0.985963
0.997705 0.994731 0.970433
0.999402 0.999022 0.993425
1.00244 0.997455 0.991645
1.00507 0.994838 0.991572
1.00439 0.997287 0.98909
1.0051 0.995648 0.989726
1.00528 0.994802 0.990493
1.00473 0.997011 0.988931
1.00531 0.994861 0.990129
1.00531 0.994805 0.990466
1.00533 0.995394 0.98959
1.00529 0.994863 0.990592
1.00534 0.994821 0.990608
1.0053 0.994889 0.990758
1.00532 0.994992 0.990701
1.00529 0.995025 0.990698
1.00525 0.995273 0.99057
1.00522 0.995751 0.990114
1.0053 0.997857 0.987938
1.00529 0.996745 0.988872
1.00532 0.996291 0.989246
1.00533 1.00128 0.984515
1.00532 0.999347 0.986212
1.00529 0.99833 0.986835
1.00473 1.00253 0.9844
1.00528 1.00219 0.983798
1.00524 1.00107 0.984985
1.00162 1.00326 0.988565
1.00355 1.00321 0.985561
1.00472 1.00268 0.984015
1.00043 1.00073 0.997322
1.00122 1.00304 0.989736
1.00296 1.00315 0.986664
1.00032 1.00024 0.997579
1.001 1.00259 0.990652
1.00028 0.999616 0.997837
1.00509 1.00334 0.983862
1.00445 1.00145 0.985943
1.00325 1.00278 0.986659
1.00284 1.00184 0.987323
1.00194 1.00372 0.987681
1.00158 1.00475 0.987718
1.00096 1.00483 0.988086
1.00086 1.00512 0.988439
1.00034 1.00217 0.992297
1.00008 0.998626 0.998354
1.00003 1.00146 0.993336
1.0005 1.00488 0.988996
1.00004 0.997987 0.998707
1.00009 1.00041 0.994192
1.00005 0.997615 0.998874
0.999968 0.994884 0.940169
0.999829 0.99486 0.859218
0.994699 0.994776 0.792429
1.00297 1.00464 0.984878
1.00377 1.00344 0.985351
1.00314 1.0027 0.988023
1.00423 1.00328 0.984291
1.00519 1.00012 0.985639
1.00364 0.999257 0.988124
1.0007 1.0018 0.99214
1.0045 0.995477 0.990742
1.002 0.998092 0.994058
1.00421 0.99571 0.990849
1.00293 0.998467 0.992915
1.00187 0.998463 0.994002
1.00123 0.997703 0.995268
1.00012 0.999412 0.995736
0.995365 0.994794 0.961998
0.997952 0.995077 0.932713
0.996915 0.994814 0.874378
0.995177 0.994712 0.927468
0.99485 0.996747 0.965367
0.995615 0.995696 0.969092
0.999141 0.994803 0.991335
0.999557 0.996074 1.0005
0.997783 0.996633 1.00372
0.998599 0.998854 0.990494
0.997489 0.994849 0.964085
1.00005 0.994886 0.940611
0.99982 0.995039 0.849207
0.995635 0.997814 0.987824
0.996173 0.994807 0.959381
0.99962 0.994823 0.930018
0.999467 0.996228 0.986453
0.997926 0.994786 0.969452
1.00283 0.996329 0.988241
1.00336 0.994895 0.985189
1.00149 0.996756 0.991642
1.00449 0.994871 0.991614
1.00525 0.994796 0.990837
1.00504 0.9956 0.989643
1.00527 0.994803 0.990441
1.00535 0.994853 0.990478
1.00531 0.994895 0.990086
1.00532 0.99482 0.990455
1.00536 0.994865 0.990489
1.00528 0.994869 0.990576
1.00534 0.994829 0.990631
1.00536 0.994853 0.990649
1.00529 0.994865 0.990797
1.00531 0.994975 0.990702
1.00527 0.99529 0.99063
1.00525 0.995253 0.990576
1.00523 0.995732 0.990128
1.00526 0.997038 0.988907
1.0053 0.999964 0.985899
1.0053 0.99807 0.987649
1.00529 0.996799 0.988861
1.0053 1.00166 0.984314
1.00532 1.00131 0.984557
1.00534 0.999463 0.986034
1.00259 1.0027 0.987562
1.00449 1.00279 0.98442
1.00528 1.00219 0.983855
1.0009 1.00107 0.996905
1.00183 1.00316 0.988507
1.00328 1.00351 0.985587
1.00063 1.0008 0.997175
1.00129 1.00292 0.989724
1.00049 1.0004 0.99741
1.00527 1.00142 0.984632
1.005 1.00291 0.983892
1.00458 1.00284 0.984429
1.0044 1.00179 0.98597
1.00341 1.00271 0.986384
1.00284 1.00354 0.986622
1.00184 1.00411 0.987627
1.00151 1.00474 0.98772
1.00076 1.00264 0.991095
1.00057 1.00511 0.988401
1.0002 1.00224 0.992303
1.00009 0.99952 0.997986
1.00004 0.998611 0.998464
0.999947 1.00147 0.993357
1.00002 0.997969 0.998767
0.996215 0.994923 0.964938
0.999808 0.994892 0.925002
0.999834 0.994923 0.873415
1.00526 0.997985 0.987407
1.00456 1.00273 0.987061
1.00379 1.00317 0.98448
1.00424 0.999196 0.988545
1.00518 1.00031 0.985627
1.00514 0.996702 0.988998
1.00483 0.996074 0.99096
1.00167 0.99759 0.994104
1.0047 0.995837 0.990893
1.00255 0.998471 0.992467
1.00414 0.997279 0.990038
1.00323 0.994831 0.994378
1.00178 0.997426 0.994173
1.00112 0.997907 0.995205
0.99852 0.99473 0.990104
0.995713 0.994791 0.960495
0.997784 0.994786 0.926527
0.995377 0.996132 0.969605
0.998844 0.994816 0.994041
0.999804 0.995591 0.999607
1.0023 0.994949 0.98049
0.997604 0.994886 0.963321
1.00008 0.994886 0.925627
0.998381 0.996693 0.986934
0.998103 0.994805 0.968866
1.00197 0.995493 0.988843
1.00308 0.994856 0.985755
1.00372 0.996279 0.990396
1.00551 0.995107 0.990729
1.00396 0.994824 0.991656
1.00521 0.994823 0.990797
1.00538 0.99488 0.990411
1.00526 0.994806 0.990391
1.00534 0.994844 0.990486
1.00538 0.99486 0.990472
1.00532 0.994831 0.990444
1.00535 0.99486 0.990497
1.00535 0.994884 0.990639
1.00534 0.994838 0.990654
1.00535 0.994854 0.990643
1.00529 0.994895 0.990868
1.0053 0.994965 0.990704
1.00527 0.995202 0.99067
1.00527 0.996019 0.99002
1.00523 0.99571 0.990141
1.00527 0.996892 0.989039
1.0053 0.99941 0.986648
1.00533 1.00118 0.984754
1.00531 1.00018 0.985674
1.00529 0.998282 0.98736
1.0032 1.00147 0.987861
1.00519 1.00181 0.984311
1.00532 1.00134 0.984599
1.00149 1.00117 0.996421
1.00279 1.00249 0.987536
1.00428 1.00298 0.984447
1.0011 1.00115 0.996704
1.00208 1.00308 0.98846
1.00078 1.00091 0.997026
1.00527 0.9997 0.985945
1.00524 1.00145 0.984571
1.0053 1.00196 0.984017
1.00492 1.00247 0.983926
1.00495 1.00262 0.984195
1.00338 1.00327 0.986017
1.0038 1.00227 0.986108
1.00267 1.00376 0.986651
1.00104 1.00304 0.990006
1.00141 1.0048 0.987696
1.00057 1.00279 0.99113
1.00018 1.00038 0.997576
1.00002 1.00231 0.99231
1.00003 0.999278 0.998127
0.999992 0.998447 0.998559
0.999807 0.9953 0.986053
0.996331 0.994901 0.960704
1 0.994852 0.939906
1.0053 0.996249 0.989105
1.00529 0.995919 0.989439
1.00527 0.997658 0.987674
1.00484 0.998728 0.988963
1.00517 1.00052 0.985619
1.00516 0.996681 0.989185
1.00532 0.995147 0.989727
1.00489 0.995587 0.990941
1.00228 0.9984 0.992035
1.00405 0.997469 0.99055
1.00519 0.994802 0.990904
1.00368 0.994804 0.993036
1.00283 0.994877 0.994104
1.00206 0.996801 0.994352
0.999133 0.994702 0.990098
0.996029 0.994804 0.959321
0.998949 0.994802 0.996894
1.00496 0.994954 0.990283
1.00235 0.99497 0.980641
0.997773 0.994894 0.962342
1.00166 0.994749 0.989375
1.00274 0.994684 0.986335
1.00383 0.995544 0.990908
1.00545 0.994856 0.990784
1.00547 0.994754 0.990828
1.00556 0.994799 0.991041
1.00521 0.99485 0.990754
1.00541 0.99486 0.990408
1.00537 0.994861 0.990666
1.00532 0.994833 0.990494
1.00538 0.994861 0.990493
1.00534 0.994883 0.990706
1.00535 0.994855 0.990504
1.00536 0.994884 0.990639
1.0053 0.994899 0.990894
1.00535 0.994854 0.990637
1.00529 0.994895 0.990848
1.00528 0.995365 0.990616
1.00527 0.99511 0.99071
1.00527 0.995978 0.989996
1.00531 0.998645 0.987401
1.00527 0.996746 0.989172
1.00529 0.999282 0.986789
1.0053 1.00079 0.985247
1.00328 1.0007 0.988535
1.00532 1.00117 0.98477
1.00532 1.00039 0.98545
1.00184 1.00091 0.996251
1.00323 1.00146 0.987862
1.005 1.00202 0.984301
1.00164 1.00117 0.996293
1.003 1.00236 0.987494
1.00134 1.00123 0.996483
1.00531 0.997533 0.987944
1.00527 0.999503 0.986183
1.00536 1.00122 0.984717
1.00522 1.00146 0.984503
1.00532 1.00205 0.983939
1.00402 1.00266 0.985457
1.00525 1.00245 0.983962
1.0035 1.00292 0.986022
1.00147 1.00343 0.988882
1.00265 1.00375 0.986695
1.00098 1.00317 0.990027
1.00037 1.00111 0.997197
1.00038 1.00296 0.99116
1.00007 1.0002 0.997733
0.999994 0.999183 0.99826
1.0041 0.995359 0.991842
0.999657 0.99517 0.983738
0.996413 0.994907 0.960827
1.00532 0.995263 0.990065
1.00529 0.995851 0.989407
1.00526 0.99514 0.990541
1.00529 0.99605 0.989394
1.00528 0.997317 0.987936
1.0054 0.994846 0.990241
1.00517 0.99684 0.989363
1.0053 0.995416 0.989721
1.00535 0.994786 0.990613
1.00403 0.997415 0.991057
1.00518 0.994893 0.990555
1.00322 0.994932 0.993294
1.0021 0.99524 0.993842
0.999399 0.994673 0.989827
1.00556 0.994834 0.990994
1.00509 0.995073 0.99025
1.00217 0.995004 0.980903
1.00383 0.994723 0.991411
1.00548 0.994754 0.990847
1.00546 0.99476 0.990834
1.0056 0.994835 0.991104
1.00538 0.994869 0.991179
1.00543 0.994845 0.990407
1.00537 0.994868 0.990673
1.00531 0.994903 0.990963
1.00538 0.994865 0.990513
1.00534 0.994888 0.990701
1.0053 0.994925 0.990967
1.00536 0.994885 0.990639
1.0053 0.994898 0.99089
1.0053 0.995003 0.991033
1.0053 0.994896 0.990828
1.00527 0.995384 0.990587
1.00532 0.997805 0.988291
1.00527 0.995938 0.989973
1.0053 0.998657 0.987417
1.0053 1.00044 0.98564
1.00529 0.999152 0.98693
1.00531 1.00077 0.985272
1.00325 1.00041 0.990666
1.00205 1.00009 0.99293
1.00328 1.00074 0.989425
1.00532 1.00117 0.984786
1.00175 1.00088 0.996346
1.00326 1.00131 0.987868
1.00165 1.00125 0.996251
1.0052 0.995116 0.990851
1.00525 0.996289 0.989532
1.00531 0.997509 0.988164
1.00533 1.00012 0.985757
1.00529 0.999301 0.986422
1.00535 1.00123 0.984636
1.00479 1.00185 0.984727
1.00534 1.0021 0.983861
1.00425 1.00218 0.985419
1.00236 1.00296 0.987809
1.00363 1.00256 0.986027
1.00141 1.00351 0.988865
1.00083 1.00169 0.996654
1.0009 1.00328 0.990061
1.00025 1.00092 0.997342
0.999976 0.999949 0.997885
1.00549 0.994835 0.990908
1.00396 0.995129 0.99144
0.999893 0.994903 0.981499
1.00532 0.994875 0.990636
1.00531 0.995313 0.989982
1.00529 0.995458 0.989719
1.00525 0.995261 0.990493
1.00529 0.996191 0.989348
1.00539 0.99485 0.990619
1.00539 0.994844 0.990218
1.0053 0.995589 0.989717
1.00532 0.994786 0.990663
1.00518 0.995019 0.990206
1.00298 0.994731 0.993544
1.0053 0.994881 0.99129
1.00554 0.994823 0.991019
1.00523 0.995167 0.99021
1.00542 0.994759 0.990825
1.00561 0.994862 0.991168
1.00539 0.994868 0.991134
1.00529 0.994911 0.991278
1.00536 0.994868 0.990681
1.00531 0.994901 0.99092
1.00527 0.994927 0.991151
1.00535 0.994892 0.990696
1.0053 0.994926 0.990972
1.00531 0.994919 0.991199
1.0053 0.994897 0.990886
1.0053 0.995005 0.991001
1.00533 0.996984 0.989185
1.00527 0.9954 0.990557
1.00532 0.997826 0.9883
1.0053 1.00011 0.986006
1.00529 0.998668 0.987434
1.00531 1.00041 0.985672
1.00332 1.00023 0.990754
1.00531 1.00074 0.985295
1.00348 1.00029 0.990521
1.00213 0.999746 0.993131
1.00172 1.00042 0.99481
1.00347 1.00075 0.990123
1.0017 1.00082 0.996425
1.00524 0.9949 0.990983
1.00523 0.996022 0.989963
1.0052 0.995095 0.99093
1.00528 0.999013 0.98695
1.00525 0.996301 0.989568
1.00531 0.997494 0.988384
1.00532 1.00012 0.985721
1.00527 1.00114 0.984872
1.00536 1.00126 0.984557
1.00505 1.00161 0.984734
1.003 1.00173 0.98786
1.00447 1.00196 0.98539
1.00219 1.0031 0.987866
1.00127 1.00181 0.996321
1.0013 1.00355 0.988858
1.00062 1.00148 0.996886
1.00009 1.0008 0.997485
1.00534 0.99489 0.990928
1.00541 0.994841 0.990974
1.00362 0.995055 0.991043
1.00531 0.994886 0.990806
1.00532 0.994877 0.990582
1.00529 0.995347 0.989905
1.00525 0.995385 0.990444
1.00539 0.994854 0.99061
1.00536 0.994844 0.990194
1.00526 0.994789 0.99071
1.00527 0.994915 0.991326
1.0053 0.994884 0.991251
1.00552 0.994817 0.99104
1.00528 0.994927 0.991348
1.00542 0.994869 0.991088
1.00529 0.994913 0.991268
1.00526 0.994935 0.991303
1.00532 0.994901 0.990877
1.00528 0.994927 0.991156
1.00529 0.994942 0.991323
1.00529 0.994927 0.990976
1.00532 0.994918 0.991178
1.00533 0.996304 0.989966
1.00529 0.995007 0.990968
1.00534 0.997008 0.989181
1.00527 0.999854 0.986369
1.00532 0.997849 0.988309
1.00531 1.00009 0.986038
1.00332 1.00023 0.990733
1.00532 1.00039 0.985704
1.00352 1.00014 0.990577
1.00219 0.999697 0.993081
1.0037 1.00016 0.990383
1.00163 0.999923 0.993476
1.00104 1.0008 0.997065
1.00525 0.994908 0.991021
1.00526 0.995344 0.990618
1.00524 0.994907 0.991001
1.00531 0.998531 0.987487
1.00523 0.995736 0.990181
1.00519 0.99507 0.991012
1.00533 1.00047 0.985498
1.00529 0.998994 0.986921
1.00525 0.996306 0.989605
1.0053 1.0001 0.985683
1.00527 1.00113 0.984854
1.0031 1.00098 0.988547
1.00529 1.0013 0.984737
1.00294 1.00189 0.987888
1.00144 1.00134 0.996417
1.00218 1.00317 0.9879
1.00115 1.00168 0.996415
1.00046 1.00132 0.99708
1.0053 0.994926 0.991096
1.00535 0.994888 0.990868
1.00535 0.994845 0.991047
1.00531 0.994888 0.990808
1.00533 0.994878 0.990529
1.00541 0.994857 0.990601
1.00527 0.994935 0.991335
1.00527 0.994915 0.991344
1.0053 0.994886 0.991211
1.00528 0.994927 0.99136
1.00525 0.994951 0.991424
1.00528 0.994914 0.991258
1.00526 0.994939 0.991324
1.00526 0.994953 0.991405
1.00528 0.994926 0.991161
1.00529 0.994943 0.99132
1.00534 0.995872 0.990436
1.00531 0.994917 0.991158
1.00533 0.996328 0.989961
1.00522 0.99964 0.986688
1.00536 0.997032 0.989176
1.00527 0.999833 0.986401
1.00323 1.0003 0.99074
1.00532 1.00007 0.98607
1.0035 1.00016 0.990549
1.00216 0.999816 0.992991
1.00371 1.00006 0.990409
1.00174 0.999756 0.993455
1.00115 1.00013 0.993807
1.00526 0.994937 0.991131
1.00528 0.994931 0.991091
1.00524 0.994907 0.990987
1.00534 0.997344 0.988685
1.00526 0.99537 0.990612
1.00523 0.994914 0.991019
1.00532 1.00009 0.98595
1.00531 0.998087 0.987874
1.00524 0.995453 0.990398
1.00321 1.00037 0.988986
1.00532 1.00049 0.985469
1.00529 0.998981 0.986894
1.00531 1.00112 0.984831
1.00311 1.00097 0.988528
1.00153 1.00086 0.996557
1.0028 1.00213 0.987922
1.00145 1.00139 0.996361
1.001 1.00158 0.996587
1.00528 0.994942 0.991265
1.0053 0.994925 0.991061
1.00536 0.994886 0.990808
1.00532 0.99489 0.990809
1.00525 0.994957 0.991408
1.00527 0.994933 0.991344
1.00527 0.994916 0.991362
1.00527 0.994926 0.991371
1.00525 0.994949 0.991422
1.00527 0.994965 0.991347
1.00526 0.994943 0.991345
1.00526 0.994955 0.991384
1.00533 0.99581 0.990656
1.00529 0.994943 0.991316
1.00532 0.995916 0.990436
1.00519 0.999448 0.986913
1.00533 0.996346 0.989956
1.00522 0.999617 0.986705
1.00324 1.00034 0.989053
1.00527 0.999812 0.986433
1.00341 1.00027 0.989714
1.00184 0.999921 0.99652
1.00369 1.00009 0.990366
1.00176 0.999806 0.99337
1.00132 0.999811 0.993813
1.00526 0.994948 0.991245
1.0053 0.994951 0.991148
1.00525 0.994937 0.991156
1.00533 0.996406 0.989713
1.00529 0.995086 0.990933
1.00524 0.994906 0.990953
1.00529 0.999374 0.986772
1.00533 0.997356 0.988686
1.00527 0.995398 0.990607
1.00333 1.00002 0.989169
1.00531 0.999869 0.98615
1.00531 0.997635 0.988259
1.00167 1.00038 0.996637
1.00325 1.00031 0.98897
1.00531 1.00051 0.985439
1.0031 1.00096 0.988515
1.00155 1.00089 0.996511
1.00143 1.00141 0.996308
1.00525 0.994958 0.991326
1.00528 0.994944 0.991259
1.0053 0.994924 0.991026
1.00528 0.994984 0.991353
1.00525 0.994955 0.99139
1.00528 0.994931 0.991353
1.00525 0.994948 0.99142
1.00528 0.995 0.991342
1.00533 0.996366 0.989993
1.00527 0.99496 0.991362
1.00533 0.996085 0.990284
1.00515 0.998781 0.987815
1.00529 0.995963 0.990435
1.00521 0.999424 0.986911
1.00319 1.0002 0.989275
1.00522 0.999596 0.986726
1.00327 1.00031 0.989057
1.00177 1 0.996514
1.00345 1.00025 0.988851
1.00167 0.999952 0.994998
1.00136 0.999787 0.993747
1.00523 0.994953 0.99135
1.00529 0.994959 0.991301
1.00525 0.994949 0.991252
1.0053 0.99644 0.989794
1.0053 0.994948 0.99117
1.00525 0.994938 0.991181
1.00522 0.999138 0.987134
1.00532 0.996825 0.989327
1.00529 0.995236 0.990774
1.00335 0.999996 0.989169
1.00528 0.99932 0.986811
1.00533 0.997368 0.988687
1.0018 1.00002 0.996633
1.00335 0.999988 0.98916
1.00529 0.99965 0.986349
1.00169 1.00041 0.99661
1.0033 1.00024 0.988955
1.00153 1.00095 0.996473
1.00528 0.995038 0.991257
1.00525 0.994957 0.99134
1.00528 0.994947 0.991254
1.00531 0.996374 0.989998
1.00528 0.995029 0.991332
1.00525 0.994953 0.991372
1.00528 0.995041 0.991337
1.00532 0.996375 0.990004
1.00508 0.998626 0.988066
1.00532 0.996348 0.989912
1.00519 0.998993 0.987446
1.00311 1.00005 0.98956
1.00523 0.999399 0.986909
1.00318 1.00021 0.989278
1.00167 1.00003 0.996538
1.00328 1.00029 0.989057
1.00173 1.00002 0.996514
1.00177 0.999935 0.993149
1.00527 0.99509 0.991228
1.00524 0.994951 0.991287
1.00531 0.996278 0.990022
1.00528 0.99496 0.991305
1.00525 0.994949 0.991259
1.0052 0.999496 0.986809
1.00532 0.996461 0.989796
1.0053 0.994944 0.991192
1.00333 1.0001 0.989137
1.00522 0.999371 0.986882
1.00531 0.997253 0.988943
1.00184 0.999908 0.99657
1.00336 1 0.989162
1.00528 0.999263 0.986852
1.00181 1.00006 0.996639
1.00337 0.999962 0.989149
1.00172 1.00044 0.996579
1.00531 0.996475 0.989885
1.00528 0.99507 0.991278
1.00525 0.994957 0.991354
1.00501 0.998606 0.988178
1.00531 0.996421 0.990001
1.00528 0.995078 0.991311
1.00532 0.996393 0.990015
1.0051 0.998598 0.988029
1.00299 0.999934 0.989888
1.00522 0.999217 0.987076
1.00311 1.00004 0.98957
1.00158 1.00002 0.996606
1.0032 1.0002 0.989282
1.00163 1.00005 0.996567
1.0017 1.00004 0.996526
1.00531 0.996252 0.990128
1.00527 0.995031 0.991284
1.00524 0.994947 0.991224
1.00519 0.999342 0.987017
1.00531 0.996296 0.990026
1.00528 0.994961 0.991308
1.00326 1.00014 0.989233
1.00519 0.999521 0.986803
1.00532 0.996491 0.989799
1.00179 0.999943 0.996515
1.00332 1.00012 0.989135
1.00522 0.999595 0.98663
1.00185 0.999929 0.996596
1.00336 1.00002 0.989154
1.00185 1.00007 0.996635
1.00502 0.999107 0.987548
1.00531 0.996275 0.990153
1.00528 0.995102 0.991298
1.00289 0.999858 0.990152
1.00502 0.998578 0.988167
1.00531 0.996458 0.990004
1.00513 0.998551 0.987991
1.003 0.999912 0.9899
1.00148 1.00001 0.996671
1.00311 1.00003 0.989579
1.00155 1.00003 0.996624
1.00158 1.00007 0.996591
1.00508 0.999256 0.987312
1.00531 0.996186 0.990225
1.00527 0.99496 0.991341
1.00329 1.00005 0.990948
1.00514 0.999387 0.987031
1.00532 0.996312 0.990029
1.00169 0.999996 0.996535
1.00325 1.00017 0.989237
1.00518 0.999546 0.986801
1.00182 0.999942 0.996536
1.00331 1.00015 0.989132
1.00188 0.999938 0.996617
1.003 0.999845 0.990063
1.00501 0.998886 0.987815
1.00531 0.996073 0.990421
1.00136 0.999982 0.996765
1.00288 0.999847 0.990148
1.00504 0.998557 0.988157
1.00299 0.999891 0.989909
1.00144 1 0.996705
1.00151 1.00004 0.99665
1.00321 0.99996 0.991216
1.00507 0.999246 0.987322
1.00531 0.996132 0.990323
1.00104 1.00003 0.997198
1.00313 1.00008 0.989512
1.0051 0.999431 0.987043
1.00172 0.999991 0.99653
1.00322 1.0002 0.989236
1.00185 0.999939 0.996557
1.00133 0.999934 0.99385
1.00302 0.999863 0.990759
1.00501 0.998662 0.98808
1.00138 0.999982 0.99678
1.00289 0.999839 0.990153
1.00144 0.999992 0.996734
1.00081 1.00001 0.994307
1.00311 0.999936 0.990535
1.00505 0.99924 0.98733
1.00128 1.00002 0.995349
1.00309 1.00012 0.989543
1.00176 0.999982 0.996532
1.00136 0.999971 0.996781
1.00287 0.999862 0.990158
1.00133 0.999979 0.996783
1.00112 0.99997 0.995545
1.00298 0.999925 0.989925
1.00161 1.00001 0.996577
1.00138 0.999978 0.996777
1.00145 0.999987 0.996688

TENSORS stress float
0.00244083 -0.00017215 0.000285005
-0.00017215 0.00122854 -5.08595e-05
0.000285005 -5.08595e-05 0.00120132
0.00754781 0.000115697 0.000340734
0.000115697 0.00449499 4.11594e-05
0.000340734 4.11594e-05 0.00450672
0.00205534 -0.000102476 0.000116207
-0.000102476 0.000978197 -1.97395e-05
0.000116207 -1.97395e-05 0.000937813
0.00233788 -9.6171e-05 0.000270899
-9.6171e-05 0.00114135 -2.89408e-05
0.000270899 -2.89408e-05 0.00112468
0.0024561 -0.000150949 0.000278672
-0.000150949 0.00122768 -4.47403e-05
0.000278672 -4.47403e-05 0.00120421
0.00244646 -0.000177939 0.000296471
-0.000177939 0.00123384 -5.28933e-05
0.000296471 -5.28933e-05 0.00120662
0.00199467 -0.000180686 5.71693e-05
-0.000180686 0.000817332 -1.50799e-05
5.71693e-05 -1.50799e-05 0.000686765
0.00762659 0.000109116 -8.74025e-06
0.000109116 0.00453602 -2.47545e-06
-8.74025e-06 -2.47545e-06 0.00455241
0.00691949 0.000250105 0.000168638
0.000250105 0.00410018 1.82549e-05
0.000168638 1.82549e-05 0.00406981
0.00700652 3.31783e-05 0.000105138
3.31783e-05 0.00412583 6.34663e-06
0.000105138 6.34663e-06 0.00410639
0.00205283 0.000236048 0.000315805
0.000236048 0.000994375 4.5058e-05
0.000315805 4.5058e-05 0.000977777
0.000255604 0.000269395 2.69747e-05
0.000269395 -0.000237722 2.12866e-05
2.69747e-05 2.12866e-05 -0.000397968
0.0018976 -3.28051e-05 0.000265351
-3.28051e-05 0.000856939 4.50478e-06
0.000265351 4.50478e-06 0.000860482
0.00164281 4.85214e-06 7.30396e-05
4.85214e-06 0.000717916 2.61494e-06
7.30396e-05 2.61494e-06 0.000667941
0.00175333 -0.000101378 -6.73965e-05
-0.000101378 0.000797782 1.22669e-05
-6.73965e-05 1.22669e-05 0.000736575
0.0019805 -9.46667e-05 8.73184e-05
-9.46667e-05 0.000931347 -5.6535e-06
8.73184e-05 -5.6535e-06 0.000894293
0.0020801 -9.23676e-05 0.000126627
-9.23676e-05 0.000998794 -2.17876e-05
0.000126627 -2.17876e-05 0.000955022
0.00205172 -0.000107036 0.000104081
-0.000107036 0.000971487 -1.4986e-05
0.000104081 -1.4986e-05 0.000933467
0.00210415 -0.000217694 -4.43691e-05
-0.000217694 0.000887309 7.11394e-06
-4.43691e-05 7.11394e-06 0.000765943
0.00645773 -0.000158877 0.00034835
-0.000158877 0.0038135 -1.64925e-05
0.00034835 -1.64925e-05 0.00383663
0.00224454 -7.2098e-05 0.00026757
-7.2098e-05 0.00108175 -2.14138e-05
0.00026757 -2.14138e-05 0.00106823
0.00243748 -0.000124467 0.000275689
-0.000124467 0.00120748 -3.70503e-05
0.000275689 -3.70503e-05 0.00118793
0.00193735 -0.000153131 7.40712e-05
-0.000153131 0.000798061 -1.16605e-05
7.40712e-05 -1.16605e-05 0.000691659
0.00200076 -0.000179721 6.5222e-05
-0.000179721 0.000818881 -1.47684e-05
6.5222e-05 -1.47684e-05 0.000698889
0.0024726 -0.000160799 0.000305681
-0.000160799 0.0012424 -5.00816e-05
0.000305681 -5.00816e-05 0.00121863
0.00200578 -0.000183063 5.21361e-05
-0.000183063 0.000842112 -1.55738e-05
5.21361e-05 -1.55738e-05 0.000696434
0.00208961 -0.00039108 1.93323e-05
-0.00039108 0.000600854 -7.59238e-06
1.93323e-05 -7.59238e-06 0.00034953
0.00757512 9.79966e-05 -0.000353456
9.79966e-05 0.00449229 -3.2615e-05
-0.000353456 -3.2615e-05 0.00451402
0.00455037 0.000183148 -0.000158302
0.000183148 0.00257494 -1.89131e-05
-0.000158302 -1.89131e-05 0.00255126
0.00458213 0.000109906 -0.000162332
0.000109906 0.00259893 -1.81797e-05
-0.000162332 -1.81797e-05 0.00257766
0.00766237 3.86733e-05 -3.24199e-06
3.86733e-05 0.00456539 -1.23947e-06
-3.24199e-06 -1.23947e-06 0.00457946
0.00030623 0.000256999 -7.40609e-07
0.000256999 -0.00020217 -1.38778e-06
-7.40609e-07 -1.38778e-06 -0.000362435
0.00198204 7.48053e-05 0.000274487
7.48053e-05 0.000909912 2.73473e-05
0.000274487 2.73473e-05 0.000899193
0.00213509 0.000167609 0.000284976
0.000167609 0.00104081 4.25647e-05
0.000284976 4.25647e-05 0.00101718
0.00292358 0.000237741 0.000168549
0.000237741 0.00140184 2.60136e-05
0.000168549 2.60136e-05 0.00130811
0.0067355 -0.00024929 3.56625e-05
-0.00024929 0.00403207 3.77892e-06
3.56625e-05 3.77892e-06 0.00398512
0.00303533 0.000323152 0.000178846
0.000323152 0.00152381 3.28183e-05
0.000178846 3.28183e-05 0.00140848
0.000309473 0.000250333 2.56665e-05
0.000250333 -0.000193904 2.97146e-05
2.56665e-05 2.97146e-05 -0.000358487
0.000997403 0.000349043 2.38117e-05
0.000349043 2.38505e-05 7.51236e-06
2.38117e-05 7.51236e-06 -0.000251855
0.00546131 -0.000121269 0.000203616
-0.000121269 0.00325521 2.487e-05
0.000203616 2.487e-05 0.0032454
0.00647488 8.81164e-05 3.27615e-06
8.81164e-05 0.0038078 -2.07967e-06
3.27615e-06 -2.07967e-06 0.00383968
0.00423793 9.90503e-05 -0.000132584
9.90503e-05 0.00237334 -6.31573e-06
-0.000132584 -6.31573e-06 0.00236258
0.00628927 5.73405e-05 0.000338607
5.73405e-05 0.00369301 4.80736e-06
0.000338607 4.80736e-06 0.00372571
0.0015624 9.21441e-05 7.53566e-05
9.21441e-05 0.000670228 5.28097e-06
7.53566e-05 5.28097e-06 0.000624485
0.000454625 1.31338e-05 1.42146e-05
1.31338e-05 -0.000167517 1.65039e-06
1.42146e-05 1.65039e-06 -0.000260714
0.0066468 0.000244417 0.000195778
0.000244417 0.00394879 1.96331e-05
0.000195778 1.96331e-05 0.0039229
0.00290704 8.51703e-05 0.000156366
8.51703e-05 0.00138473 1.09347e-05
0.000156366 1.09347e-05 0.00132222
0.00160076 -9.51158e-05 -8.75685e-05
-9.51158e-05 0.000707838 1.15292e-05
-8.75685e-05 1.15292e-05 0.000649863
0.00165766 -0.000125223 -8.05769e-05
-0.000125223 0.000745892 1.47044e-05
-8.05769e-05 1.47044e-05 0.000682081
0.00182116 -6.19438e-05 -5.5212e-05
-6.19438e-05 0.000834155 1.00651e-05
-5.5212e-05 1.00651e-05 0.000773765
0.00217441 -0.000220334 -0.000153545
-0.000220334 0.00092288 2.93287e-05
-0.000153545 2.93287e-05 0.000814515
0.00405521 -3.23075e-05 -0.000135185
-3.23075e-05 0.00226837 -1.11162e-06
-0.000135185 -1.11162e-06 0.00225808
0.001951 -7.51636e-05 9.21761e-05
-7.51636e-05 0.000909064 -4.6056e-06
9.21761e-05 -4.6056e-06 0.000876397
0.00220267 -6.85049e-05 0.000133101
-6.85049e-05 0.00107455 -2.04963e-05
0.000133101 -2.04963e-05 0.00102861
0.00202882 -0.000101362 9.41723e-05
-0.000101362 0.000957448 -9.71436e-06
9.41723e-05 -9.71436e-06 0.000920226
0.00201936 -0.000130953 -3.5935e-05
-0.000130953 0.000838404 2.89107e-06
-3.5935e-05 2.89107e-06 0.000745405
0.00210935 -0.000228798 -5.12794e-05
-0.000228798 0.000906223 8.21589e-06
-5.12794e-05 8.21589e-06 0.000772347
0.00209127 -0.000195537 -3.90487e-05
-0.000195537 0.000875112 5.1933e-06
-3.90487e-05 5.1933e-06 0.000764587
0.00217256 -0.000397761 -1.03727e-05
-0.000397761 0.00065228 2.76303e-06
-1.03727e-05 2.76303e-06 0.000401409
0.00626433 -7.79228e-06 0.000334275
-7.79228e-06 0.00367516 -3.63786e-06
0.000334275 -3.63786e-06 0.003709
0.00219949 -4.68819e-05 0.000264471
-4.68819e-05 0.00105527 -1.45687e-05
0.000264471 -1.45687e-05 0.00104692
0.00247339 -1.89178e-05 5.70356e-05
-1.89178e-05 0.00114257 -6.40833e-07
5.70356e-05 -6.40833e-07 0.00107005
0.00191116 -0.000123659 6.74277e-05
-0.000123659 0.000786219 -7.58177e-06
6.74277e-05 -7.58177e-06 0.000689863
0.00198048 -0.000168377 7.13287e-05
-0.000168377 0.000812027 -1.37729e-05
7.13287e-05 -1.37729e-05 0.000699124
0.00200393 -0.000249889 4.97068e-06
-0.000249889 0.000463701 -2.15407e-06
4.97068e-06 -2.15407e-06 0.000283752
0.00200663 -0.00034598 1.5648e-05
-0.00034598 0.00050713 -5.15518e-06
1.5648e-05 -5.15518e-06 0.000286993
0.0019136 -0.000121788 0.000279919
-0.000121788 0.000885723 -4.23999e-05
0.000279919 -4.23999e-05 0.000860283
0.00216068 -0.000154939 4.56324e-05
-0.000154939 0.000967362 -1.39614e-05
4.56324e-05 -1.39614e-05 0.000815069
0.00206928 -0.00043747 2.36188e-05
-0.00043747 0.000631021 -8.36714e-06
2.36188e-05 -8.36714e-06 0.000346472
0.00192436 -0.000522491 6.93299e-06
-0.000522491 0.000249984 6.34799e-07
6.93299e-06 6.34799e-07 -4.55225e-05
0.00737069 0.0003055 -0.000385455
0.0003055 0.00438455 -4.6729e-05
-0.000385455 -4.6729e-05 0.00439261
0.00746428 3.17762e-06 -0.000311768
3.17762e-06 0.00444196 -2.60034e-05
-0.000311768 -2.60034e-05 0.00445706
0.00744172 0.000170918 -0.000359991
0.000170918 0.00440828 -3.7422e-05
-0.000359991 -3.7422e-05 0.00442966
0.00041543 0.000253168 -2.67647e-05
0.000253168 -0.000127224 -2.1132e-05
-2.67647e-05 -2.1132e-05 -0.000290488
0.00715799 0.000262452 -1.79324e-06
0.000262452 0.00424286 -2.56462e-06
-1.79324e-06 -2.56462e-06 0.00425736
0.00737942 0.000264669 -8.39408e-06
0.000264669 0.0043805 -3.49333e-06
-8.39408e-06 -3.49333e-06 0.00439161
0.000347886 0.000152049 3.15706e-07
0.000152049 -0.000248727 -2.49292e-07
3.15706e-07 -2.49292e-07 -0.000378794
0.00413231 -5.80994e-05 -0.000135898
-5.80994e-05 0.0023566 -7.68658e-06
-0.000135898 -7.68658e-06 0.00232549
0.000298693 0.000227825 9.17619e-07
0.000227825 -0.000223868 -4.13419e-07
9.17619e-07 -4.13419e-07 -0.000376633
0.00190233 0.000269578 7.06462e-05
0.000269578 0.000827265 4.4504e-06
7.06462e-05 4.4504e-06 0.000690875
0.000989272 0.000349237 1.60946e-06
0.000349237 1.63488e-05 1.47514e-07
1.60946e-06 1.47514e-07 -0.000258606
0.0061432 -0.000106864 0.000239781
-0.000106864 0.0036773 2.9644e-05
0.000239781 2.9644e-05 0.00366768
0.000548368 0.000114569 2.40333e-05
0.000114569 1.11804e-05 1.50581e-05
2.40333e-05 1.50581e-05 -7.72493e-05
0.000448748 0.000118761 1.4351e-05
0.000118761 -0.000199168 1.17901e-05
1.4351e-05 1.17901e-05 -0.000320572
0.000455565 0.000182786 1.89609e-05
0.000182786 -0.000167142 1.98655e-05
1.89609e-05 1.98655e-05 -0.000306549
0.00135142 0.000319973 1.47834e-05
0.000319973 4.16153e-05 5.97334e-06
1.47834e-05 5.97334e-06 -0.000188203
0.00331185 0.00027525 0.000167674
0.00027525 0.00174118 2.58967e-05
0.000167674 2.58967e-05 0.00164494
0.00120896 0.000370279 2.47537e-05
0.000370279 8.34582e-05 8.61217e-06
2.47537e-05 8.61217e-06 -0.000186642
0.000793649 0.000320174 1.76127e-05
0.000320174 -4.91268e-06 6.7052e-06
1.76127e-05 6.7052e-06 -0.000279071
0.00158728 0.000569955 9.66504e-06
0.000569955 0.000235194 -2.72794e-06
9.66504e-06 -2.72794e-06 -0.000137471
0.0044973 -0.00013937 0.000137919
-0.00013937 0.00261826 1.22664e-05
0.000137919 1.22664e-05 0.00261055
0.00498664 -0.000166208 1.92785e-05
-0.000166208 0.00294591 9.75163e-07
1.92785e-05 9.75163e-07 0.00292968
0.00693149 7.38413e-05 -0.000358318
7.38413e-05 0.00408192 -1.92432e-05
-0.000358318 -1.92432e-05 0.00411184
0.0065779 7.97805e-05 -0.000352248
7.97805e-05 0.00386879 -1.178e-05
-0.000352248 -1.178e-05 0.00390183
0.00639085 8.36851e-05 3.98012e-08
8.36851e-05 0.00376208 -4.22388e-06
3.98012e-08 -4.22388e-06 0.003792
0.00411101 4.03363e-05 -0.000144639
4.03363e-05 0.00229187 -8.23841e-06
-0.000144639 -8.23841e-06 0.00228687
0.00157746 4.14205e-05 6.91558e-05
4.14205e-05 0.000551236 2.0891e-06
6.91558e-05 2.0891e-06 0.000477964
0.00441663 0.000161198 -0.000135693
0.000161198 0.00249303 -8.39727e-06
-0.000135693 -8.39727e-06 0.00247385
0.00164091 0.000100125 6.93776e-05
0.000100125 0.000578305 3.78302e-06
6.93776e-05 3.78302e-06 0.000491918
0.00631534 0.000113792 0.000340688
0.000113792 0.00372289 7.40427e-06
0.000340688 7.40427e-06 0.00374814
0.000340689 1.02885e-05 1.76672e-05
1.02885e-05 -0.00023386 9.21434e-07
1.76672e-05 9.21434e-07 -0.000322581
0.0028888 4.64149e-05 0.000155795
4.64149e-05 0.00138031 7.21904e-06
0.000155795 7.21904e-06 0.00132465
0.001159 8.00199e-05 9.92192e-06
8.00199e-05 -5.93196e-05 4.1986e-07
9.92192e-06 4.1986e-07 -0.000195622
0.00282964 0.000135783 0.000161383
0.000135783 0.0013295 1.46145e-05
0.000161383 1.46145e-05 0.00125824
0.00128039 0.000165051 4.96552e-06
0.000165051 -4.2367e-05 1.47813e-06
4.96552e-06 1.47813e-06 -0.000202365
0.00193079 3.97224e-05 -0.000263795
3.97224e-05 0.000876598 3.5705e-06
-0.000263795 3.5705e-06 0.000883001
0.00160147 -2.58551e-05 -7.44367e-05
-2.58551e-05 0.000698346 3.58482e-06
-7.44367e-05 3.58482e-06 0.000647294
0.0018687 -2.89311e-05 -4.91513e-05
-2.89311e-05 0.000860666 8.86956e-06
-4.91513e-05 8.86956e-06 0.000798474
0.00160479 -0.000113148 -8.89276e-05
-0.000113148 0.00071196 1.42605e-05
-8.89276e-05 1.42605e-05 0.000651167
0.00212925 -0.000108636 -0.000141029
-0.000108636 0.000896738 1.3955e-05
-0.000141029 1.3955e-05 0.000817221
0.00219144 -0.000181203 -0.000148278
-0.000181203 0.000925549 2.46398e-05
-0.000148278 2.46398e-05 0.000829837
0.00219208 -0.000250042 -0.000160269
-0.000250042 0.000956625 3.16349e-05
-0.000160269 3.16349e-05 0.000833889
0.00225601 -0.000405001 -3.64667e-05
-0.000405001 0.00070472 1.20227e-05
-3.64667e-05 1.20227e-05 0.000454208
0.00635728 -0.00011597 2.58638e-06
-0.00011597 0.00374846 -2.05939e-06
2.58638e-06 -2.05939e-06 0.00377382
0.00186375 2.07436e-05 9.98514e-05
2.07436e-05 0.000844404 -5.38773e-06
9.98514e-05 -5.38773e-06 0.00082238
0.00118463 -1.6044e-05 -7.1528e-05
-1.6044e-05 0.00030814 2.58563e-06
-7.1528e-05 2.58563e-06 0.000235206
0.00197886 -8.73175e-05 -3.88364e-05
-8.73175e-05 0.000820349 3.50494e-06
-3.88364e-05 3.50494e-06 0.000735773
0.00501852 -9.12497e-05 0.000294843
-9.12497e-05 0.0028767 -2.54212e-05
0.000294843 -2.54212e-05 0.00287079
0.00276111 -0.000233891 -4.98525e-05
-0.000233891 0.00134144 5.44826e-06
-4.98525e-05 5.44826e-06 0.00120609
0.00206947 -0.000164522 -3.62401e-05
-0.000164522 0.000861991 3.76235e-06
-3.62401e-05 3.76235e-06 0.000760886
0.00205505 -0.000250457 -9.12759e-06
-0.000250457 0.000493012 1.79234e-06
-9.12759e-06 1.79234e-06 0.000317935
0.00218536 -0.000449889 -9.22246e-06
-0.000449889 0.000711653 2.7083e-06
-9.22246e-06 2.7083e-06 0.000425777
0.00208851 -0.000349884 -9.97914e-06
-0.000349884 0.000559672 2.71529e-06
-9.97914e-06 2.71529e-06 0.000337257
0.00195032 -0.00052421 9.29515e-07
-0.00052421 0.000268381 -2.49908e-07
9.29515e-07 -2.49908e-07 -2.68711e-05
0.000360017 7.34876e-06 1.84287e-05
7.34876e-06 -0.000223808 -8.71534e-08
1.84287e-05 -8.71534e-08 -0.000308678
0.00183571 -1.48115e-05 5.95293e-05
-1.48115e-05 0.000728923 -2.31104e-06
5.95293e-05 -2.31104e-06 0.000647748
0.00196232 -8.69734e-05 7.47472e-06
-8.69734e-05 0.000468296 1.40309e-07
7.47472e-06 1.40309e-07 0.000349708
0.00205559 -0.000198417 5.14293e-06
-0.000198417 0.000506889 -3.77878e-07
5.14293e-06 -3.77878e-07 0.000354946
0.00203945 -0.000301664 1.02719e-05
-0.000301664 0.0004962 -3.14268e-06
1.02719e-05 -3.14268e-06 0.000301792
0.00209973 -0.000358264 -3.57599e-07
-0.000358264 0.000203343 -1.89313e-08
-3.57599e-07 -1.89313e-08 2.51104e-05
0.00703778 4.95775e-05 0.000265706
4.95775e-05 0.00419577 -2.31504e-05
0.000265706 -2.31504e-05 0.00419987
0.00186664 -0.000476917 5.95403e-06
-0.000476917 0.000153627 4.9555e-07
5.95403e-06 4.9555e-07 -0.000102867
0.000231478 -0.000217343 2.06903e-05
-0.000217343 -0.00026875 -2.47922e-05
2.06903e-05 -2.47922e-05 -0.000418777
0.00104635 -0.000373642 2.33357e-05
-0.000373642 5.68976e-05 -1.01376e-05
2.33357e-05 -1.01376e-05 -0.000241104
0.0020563 -0.000588635 8.67933e-06
-0.000588635 0.000401565 9.11528e-07
8.67933e-06 9.11528e-07 5.55852e-05
0.00203459 -0.00059013 2.48427e-06
-0.00059013 0.000216484 4.3451e-06
2.48427e-06 4.3451e-06 -5.7101e-05
0.000425632 -0.000177581 2.33178e-05
-0.000177581 -9.43087e-05 -2.02639e-05
2.33178e-05 -2.02639e-05 -0.000217203
0.000690909 -0.000157482 -7.4311e-07
-0.000157482 0.000126535 -2.96483e-06
-7.4311e-07 -2.96483e-06 -0.00013524
0.00727539 0.000289026 -0.000389782
0.000289026 0.00432364 -4.30213e-05
-0.000389782 -4.30213e-05 0.00433478
0.00740675 0.00025616 -0.000373467
0.00025616 0.00439629 -4.39194e-05
-0.000373467 -4.39194e-05 0.00441099
0.000316554 0.000150447 -1.77871e-05
0.000150447 -0.000269992 -1.45111e-05
-1.77871e-05 -1.45111e-05 -0.000400738
0.0066551 -7.74166e-05 -0.000251438
-7.74166e-05 0.00396492 -2.01438e-05
-0.000251438 -2.01438e-05 0.00396926
0.000166434 0.000215711 -2.17365e-05
0.000215711 -0.000280893 -2.33052e-05
-2.17365e-05 -2.33052e-05 -0.000428193
0.000275737 0.000214378 -2.12015e-05
0.000214378 -0.000237414 -2.01165e-05
-2.12015e-05 -2.01165e-05 -0.000390146
0.0010311 0.000350814 -2.57454e-05
0.000350814 3.96854e-05 -9.30355e-06
-2.57454e-05 -9.30355e-06 -0.000234133
0.00602352 -0.000102662 -1.1301e-05
-0.000102662 0.00359365 2.03279e-06
-1.1301e-05 2.03279e-06 0.00358908
0.000600268 9.40332e-05 6.0208e-07
9.40332e-05 4.78208e-05 5.46295e-07
6.0208e-07 5.46295e-07 -3.78695e-05
0.00171292 0.000165173 7.27388e-05
0.000165173 0.00061258 6.72569e-06
7.27388e-05 6.72569e-06 0.000508272
0.00169927 0.000233417 7.56421e-05
0.000233417 0.000637072 8.17228e-06
7.56421e-05 8.17228e-06 0.000513366
0.00131792 0.000318347 -8.60027e-08
0.000318347 2.57465e-05 -3.51594e-07
-8.60027e-08 -3.51594e-07 -0.000205128
0.000384524 0.00019936 -1.00356e-06
0.00019936 -0.000123496 -1.82436e-07
-1.00356e-06 -1.82436e-07 -0.000252231
0.00116164 0.000366313 9.04214e-07
0.000366313 5.27657e-05 1.70041e-07
9.04214e-07 1.70041e-07 -0.000217212
0.000790437 0.00030836 1.16467e-06
0.00030836 -4.58947e-06 -8.7206e-07
1.16467e-06 -8.7206e-07 -0.000272583
0.00170102 0.000588354 -1.71136e-06
0.000588354 0.000296218 -5.56763e-07
-1.71136e-06 -5.56763e-07 -7.83823e-05
0.00043992 0.000166013 2.07529e-05
0.000166013 -7.21115e-05 1.87716e-05
2.07529e-05 1.87716e-05 -0.000184568
0.000633643 5.87391e-05 1.5017e-05
5.87391e-05 8.94797e-05 1.40533e-05
1.5017e-05 1.40533e-05 1.64137e-05
0.00140901 0.000290118 2.75496e-06
0.000290118 0.000606081 3.23957e-06
2.75496e-06 3.23957e-06 0.000366735
0.00136896 0.000275341 1.05914e-05
0.000275341 1.64361e-05 4.1575e-06
1.05914e-05 4.1575e-06 -0.000189011
0.00131254 0.000354431 2.0253e-05
0.000354431 7.03226e-05 7.70935e-06
2.0253e-05 7.70935e-06 -0.000182187
0.00208884 0.000509039 4.8435e-06
0.000509039 0.000270078 -4.1255e-07
4.8435e-06 -4.1255e-07 8.53616e-06
0.000562676 0.00025939 1.11156e-05
0.00025939 -4.59652e-05 6.28533e-06
1.11156e-05 6.28533e-06 -0.0003028
0.00208767 0.000616778 5.44641e-06
0.000616778 0.000433496 -1.98209e-06
5.44641e-06 -1.98209e-06 8.88112e-05
0.00156146 0.000573597 4.64355e-06
0.000573597 0.000362266 -4.23873e-06
4.64355e-06 -4.23873e-06 -4.34868e-05
0.00168468 0.000641477 -6.65187e-06
0.000641477 0.000188251 -6.4324e-06
-6.65187e-06 -6.4324e-06 -0.000187615
0.0040088 -0.000143035 9.65036e-05
-0.000143035 0.00229498 6.95934e-06
9.65036e-05 6.95934e-06 0.00228692
0.0043871 -0.000181721 2.00815e-05
-0.000181721 0.0025564 -1.46082e-06
2.00815e-05 -1.46082e-06 0.00253733
0.00484545 -0.00022355 -0.000109954
-0.00022355 0.0028681 -1.07755e-05
-0.000109954 -1.07755e-05 0.00283696
0.000511343 -0.000166514 2.30618e-05
-0.000166514 -1.77891e-05 -1.73241e-05
2.30618e-05 -1.73241e-05 -0.000124272
0.00624073 0.000100589 0.000218989
0.000100589 0.00372431 -2.21244e-05
0.000218989 -2.21244e-05 0.00371752
0.00714119 0.000236926 -0.000385694
0.000236926 0.00423125 -3.50651e-05
-0.000385694 -3.50651e-05 0.00425027
0.00668982 0.000106483 -0.000353616
0.000106483 0.00393631 -1.66194e-05
-0.000353616 -1.66194e-05 0.00396691
0.000332917 0.000104384 -1.75912e-05
0.000104384 -0.000257238 -6.57581e-06
-1.75912e-05 -6.57581e-06 -0.000363543
0.000309309 4.45833e-05 -1.78644e-05
4.45833e-05 -0.000254313 -2.69748e-06
-1.78644e-05 -2.69748e-06 -0.000348476
0.00634004 -3.27571e-06 -0.00033787
-3.27571e-06 0.00372073 -3.23197e-06
-0.00033787 -3.23197e-06 0.0037549
0.00625999 -1.7422e-08 -8.80628e-10
-1.7422e-08 0.00367183 -1.22771e-06
-8.80628e-10 -1.22771e-06 0.00370608
0.000313989 9.71846e-07 -3.74792e-08
9.71846e-07 -0.000253552 2.37236e-07
-3.74792e-08 2.37236e-07 -0.000340577
0.00156513 4.48246e-05 6.93333e-05
4.48246e-05 0.000536153 3.33212e-06
6.93333e-05 3.33212e-06 0.000459217
0.00112607 8.29925e-05 -3.04536e-08
8.29925e-05 -8.47626e-05 -1.86315e-07
-3.04536e-08 -1.86315e-07 -0.000222092
0.000368303 9.65473e-05 -7.03166e-07
9.65473e-05 -0.000242565 -3.43388e-07
-7.03166e-07 -3.43388e-07 -0.000356603
0.00125817 0.000167158 -1.97107e-07
0.000167158 -4.96572e-05 -3.12506e-08
-1.97107e-07 -3.12506e-08 -0.000211126
0.000305165 -3.31283e-05 1.82004e-05
-3.31283e-05 -0.000259538 -6.05742e-07
1.82004e-05 -6.05742e-07 -0.000343408
0.00108465 3.53348e-05 1.02779e-05
3.53348e-05 -9.30779e-05 1.30503e-07
1.02779e-05 1.30503e-07 -0.000223083
0.00120904 0.000123402 7.14769e-06
0.000123402 -5.14324e-05 1.23796e-06
7.14769e-06 1.23796e-06 -0.000197616
0.00203186 0.000132062 1.79563e-06
0.000132062 7.81626e-05 3.70133e-07
1.79563e-06 3.70133e-07 -5.77564e-06
0.00134738 0.0002201 6.85069e-06
0.0002201 -1.1756e-05 2.44887e-06
6.85069e-06 2.44887e-06 -0.000192646
0.002126 0.00028958 1.82778e-06
0.00028958 0.000143452 -4.15636e-07
1.82778e-06 -4.15636e-07 1.01497e-05
0.00628098 -7.79456e-05 -0.000340056
-7.79456e-05 0.00369382 4.4963e-06
-0.000340056 4.4963e-06 0.00372324
0.00148548 -0.000165371 -7.42248e-05
-0.000165371 0.000645607 9.04779e-06
-7.42248e-05 9.04779e-06 0.000587622
-0.000227214 -9.55884e-06 -1.11272e-05
-9.55884e-06 -0.000589152 9.61318e-07
-1.11272e-05 9.61318e-07 -0.000690276
0.00209113 -7.76027e-05 -0.000139565
-7.76027e-05 0.000884397 9.62639e-06
-0.000139565 9.62639e-06 0.000811135
0.00773807 0.0002116 -5.79973e-05
0.0002116 0.00462096 3.34969e-06
-5.79973e-05 3.34969e-06 0.004577
0.00307288 -0.000299277 -0.000165706
-0.000299277 0.00154744 3.18953e-05
-0.000165706 3.18953e-05 0.00142076
0.00217764 -0.00014426 -0.000144515
-0.00014426 0.000917475 1.91758e-05
-0.000144515 1.91758e-05 0.000830831
0.00209125 -0.00025061 -2.59318e-05
-0.00025061 0.000512249 4.85992e-06
-2.59318e-05 4.85992e-06 0.000342109
0.002145 -0.000352254 -3.2124e-05
-0.000352254 0.000594347 1.03947e-05
-3.2124e-05 1.03947e-05 0.000370007
0.00226292 -0.000458068 -3.96661e-05
-0.000458068 0.000768451 1.31072e-05
-3.96661e-05 1.31072e-05 0.000482306
0.00196856 -0.000525071 -5.55235e-06
-0.000525071 0.000282331 -9.53689e-07
-5.55235e-06 -9.53689e-07 -1.251e-05
0.000311515 2.63952e-06 3.22659e-08
2.63952e-06 -0.000252963 3.96883e-07
3.22659e-08 3.96883e-07 -0.000338797
0.00194244 -9.66704e-05 -3.80136e-05
-9.66704e-05 0.000805409 6.40248e-07
-3.80136e-05 6.40248e-07 0.000725791
0.00163116 -8.32894e-05 -1.25881e-05
-8.32894e-05 0.000255553 7.179e-07
-1.25881e-05 7.179e-07 0.000133183
0.00199756 -0.000194899 -1.12728e-05
-0.000194899 0.000463365 1.93574e-06
-1.12728e-05 1.93574e-06 0.000307879
0.0073044 4.63821e-05 3.25782e-06
4.63821e-05 0.00436651 3.34223e-07
3.25782e-06 3.34223e-07 0.00436916
0.00170834 -0.000217753 7.98151e-06
-0.000217753 0.000694188 2.68845e-07
7.98151e-06 2.68845e-07 0.000536964
0.00152484 -0.000401946 -1.18479e-06
-0.000401946 0.000360534 -1.1363e-06
-1.18479e-06 -1.1363e-06 6.4077e-05
0.00209086 -0.000306532 -1.00012e-05
-0.000306532 0.000525872 2.69156e-06
-1.00012e-05 2.69156e-06 0.000330244
0.00214287 -0.000365656 1.16807e-06
-0.000365656 0.000224724 -7.30623e-07
1.16807e-06 -7.30623e-07 5.24959e-05
0.00203969 -0.000586957 1.52671e-06
-0.000586957 0.000389006 2.08185e-09
1.52671e-06 2.08185e-09 4.47104e-05
0.00196383 -0.000479311 1.83332e-07
-0.000479311 0.000220855 -1.32246e-07
1.83332e-07 -1.32246e-07 -3.65913e-05
0.00210876 -0.000595134 9.12582e-07
-0.000595134 0.00026946 2.60126e-07
9.12582e-07 2.60126e-07 -5.16834e-06
0.000439371 -0.000194001 1.68923e-06
-0.000194001 -9.25567e-05 1.92965e-07
1.68923e-06 1.92965e-07 -0.00021446
0.000837779 -0.000228388 5.78455e-07
-0.000228388 0.000213079 7.32987e-07
5.78455e-07 7.32987e-07 -4.88811e-05
0.00109498 -4.10315e-05 1.05674e-05
-4.10315e-05 -7.86356e-05 -2.02235e-07
1.05674e-05 -2.02235e-07 -0.00020839
0.0020348 -0.000139115 5.73461e-06
-0.000139115 0.000509618 1.01907e-07
5.73461e-06 1.01907e-07 0.000378013
0.00183925 -0.000142701 2.71391e-06
-0.000142701 -2.16514e-05 -3.93085e-07
2.71391e-06 -3.93085e-07 -0.000123774
0.00213958 -0.000294774 -7.12347e-07
-0.000294774 0.000188189 1.24163e-06
-7.12347e-07 1.24163e-06 5.91891e-05
0.00187603 -0.000424689 1.29113e-07
-0.000424689 0.000101962 6.94134e-07
1.29113e-07 6.94134e-07 -0.000112778
0.00223825 -0.000408431 5.34877e-06
-0.000408431 0.000202025 -1.28726e-06
5.34877e-06 -1.28726e-06 6.63755e-05
0.000195587 -0.000194951 2.08312e-05
-0.000194951 -0.000258805 -2.36009e-05
2.08312e-05 -2.36009e-05 -0.000399886
0.00208422 -0.000540354 2.06463e-06
-0.000540354 0.000197606 2.50014e-06
2.06463e-06 2.50014e-06 -2.57882e-05
0.00109082 -0.000328366 1.59805e-05
-0.000328366 0.000183751 -8.85758e-06
1.59805e-05 -8.85758e-06 -9.80583e-05
0.00173287 -0.000634974 1.64144e-05
-0.000634974 0.000282678 5.7018e-07
1.64144e-05 5.7018e-07 -0.000124428
0.00235904 -0.00066723 2.1923e-06
-0.00066723 0.000492981 3.64047e-06
2.1923e-06 3.64047e-06 0.000152469
0.0023739 -0.000634001 -1.09685e-06
-0.000634001 0.000403537 4.27237e-06
-1.09685e-06 4.27237e-06 0.000153307
0.00059224 -0.000220457 3.1592e-06
-0.000220457 2.84617e-05 -4.1038e-06
3.1592e-06 -4.1038e-06 -0.000250562
0.00117642 -0.000187749 3.46708e-06
-0.000187749 0.000437799 -2.47051e-06
3.46708e-06 -2.47051e-06 0.000207838
0.00135222 -0.000341161 -1.67972e-06
-0.000341161 0.000550713 -1.59901e-06
-1.67972e-06 -1.59901e-06 0.000213877
0.000336352 0.000126186 -1.66798e-05
0.000126186 -0.000266794 -1.13554e-05
-1.66798e-05 -1.13554e-05 -0.000390312
0.00547459 -0.000139897 -0.000181861
-0.000139897 0.00324472 -1.44415e-05
-0.000181861 -1.44415e-05 0.00323603
0.000376088 8.34523e-05 -1.82405e-05
8.34523e-05 -9.35203e-05 -1.44009e-05
-1.82405e-05 -1.44009e-05 -0.000172863
0.000295967 0.000182472 -1.95731e-05
0.000182472 -0.000259042 -1.78864e-05
-1.95731e-05 -1.78864e-05 -0.000399815
0.00128306 0.000317117 -1.61722e-05
0.000317117 8.10623e-06 -6.55487e-06
-1.61722e-05 -6.55487e-06 -0.00022393
0.000278196 0.00019541 -2.3159e-05
0.00019541 -0.000198414 -2.19032e-05
-2.3159e-05 -2.19032e-05 -0.000325046
0.000816321 0.000303397 -1.67524e-05
0.000303397 1.42749e-05 -9.08982e-06
-1.67524e-05 -9.08982e-06 -0.000249789
0.00115728 0.000364375 -2.56227e-05
0.000364375 5.30024e-05 -9.00556e-06
-2.56227e-05 -9.00556e-06 -0.000216905
0.00183961 0.000611213 -1.0096e-05
0.000611213 0.000369996 1.75949e-06
-1.0096e-05 1.75949e-06 -7.73983e-06
0.000450337 0.000167461 -3.65359e-06
0.000167461 -7.37243e-05 1.68324e-06
-3.65359e-06 1.68324e-06 -0.000177679
0.000394067 3.24485e-05 1.38765e-06
3.24485e-05 -5.33827e-05 3.28497e-07
1.38765e-06 3.28497e-07 -0.000125898
0.000830046 0.000205012 1.09382e-06
0.000205012 0.000208827 5.22866e-07
1.09382e-06 5.22866e-07 -4.88047e-06
0.00133392 0.000274005 -2.39956e-07
0.000274005 1.14767e-06 -3.33573e-07
-2.39956e-07 -3.33573e-07 -0.000205435
0.0012755 0.000351038 1.9525e-07
0.000351038 5.20528e-05 -3.08753e-07
1.9525e-07 -3.08753e-07 -0.000200736
0.00206951 0.0005074 -3.69618e-07
0.0005074 0.000256458 -1.56231e-07
-3.69618e-07 -1.56231e-07 -5.04053e-06
0.00065209 0.00025164 -5.37342e-07
0.00025164 6.7679e-06 9.75976e-08
-5.37342e-07 9.75976e-08 -0.00024187
0.00207637 0.000611501 -1.02971e-06
0.000611501 0.000426865 -4.86482e-07
-1.02971e-06 -4.86482e-07 8.22247e-05
0.00160363 0.000588391 -5.0485e-07
0.000588391 0.000368031 -1.6204e-06
-5.0485e-07 -1.6204e-06 -4.34437e-05
0.00167051 0.000651065 -1.31112e-06
0.000651065 0.000156848 2.52128e-06
-1.31112e-06 2.52128e-06 -0.000217753
0.000406901 1.43347e-05 5.35196e-06
1.43347e-05 -4.00221e-05 1.3126e-05
5.35196e-06 1.3126e-05 -0.000102646
0.00132786 0.000249888 5.44787e-06
0.000249888 0.000503571 2.29655e-06
5.44787e-06 2.29655e-06 0.000255775
0.000956009 0.000138337 4.21315e-06
0.000138337 0.000303401 2.65412e-06
4.21315e-06 2.65412e-06 0.000117938
0.000114964 0.000174099 -2.52556e-06
0.000174099 -0.000222604 3.58398e-06
-2.52556e-06 3.58398e-06 -0.000493927
0.00212059 0.000446745 2.27228e-06
0.000446745 0.000228042 -1.8621e-06
2.27228e-06 -1.8621e-06 1.15454e-05
0.002046 0.000564372 5.05111e-06
0.000564372 0.000321942 -6.35843e-07
5.05111e-06 -6.35843e-07 1.52753e-05
0.00220067 0.000573283 7.58768e-07
0.000573283 0.000257824 -1.35801e-06
7.58768e-07 -1.35801e-06 1.45555e-05
0.00108912 0.00045395 -1.38021e-06
0.00045395 0.000152387 -3.00345e-06
-1.38021e-06 -3.00345e-06 -0.00021057
0.00244151 0.000717806 -5.893e-06
0.000717806 0.000561746 -3.53592e-06
-5.893e-06 -3.53592e-06 0.000220268
0.0021095 0.000751772 -1.04346e-05
0.000751772 0.000575959 -1.13066e-05
-1.04346e-05 -1.13066e-05 0.000106471
0.00209444 0.000693578 -3.37797e-06
0.000693578 0.000321014 -3.28704e-06
-3.37797e-06 -3.28704e-06 -3.45001e-05
0.000614368 7.26667e-05 7.7614e-07
7.26667e-05 0.000125494 6.39242e-06
7.7614e-07 6.39242e-06 2.61619e-05
0.00046803 6.02894e-06 2.5002e-06
6.02894e-06 -8.82846e-06 9.70182e-06
2.5002e-06 9.70182e-06 -5.09183e-05
0.0034668 -0.000128553 6.6874e-05
-0.000128553 0.00193658 5.54923e-06
6.6874e-05 5.54923e-06 0.00193193
0.00384454 -0.000164323 1.11452e-05
-0.000164323 0.00219493 -1.08537e-06
1.11452e-05 -1.08537e-06 0.00218052
0.00424138 -0.0002076 -7.43009e-05
-0.0002076 0.00246859 -7.12798e-06
-7.43009e-05 -7.12798e-06 0.00244159
0.000449602 -0.000171243 2.60688e-05
-0.000171243 -3.9808e-05 -1.66984e-05
2.60688e-05 -1.66984e-05 -0.000130782
0.00562201 0.000130082 0.000181831
0.000130082 0.00334563 -2.03625e-05
0.000181831 -2.03625e-05 0.00333278
0.000495695 -0.000175798 2.38541e-06
-0.000175798 -3.48172e-05 7.93967e-07
2.38541e-06 7.93967e-07 -0.000143566
0.00649821 7.66757e-05 6.28271e-06
7.66757e-05 0.00388158 2.87187e-07
6.28271e-06 2.87187e-07 0.003878
0.000351632 0.000121829 -1.75443e-05
0.000121829 -0.000252903 -8.95221e-06
-1.75443e-05 -8.95221e-06 -0.000369803
0.000318527 3.67206e-05 -1.63295e-05
3.67206e-05 -0.000258415 -3.66804e-06
-1.63295e-05 -3.66804e-06 -0.000356195
0.00123693 0.000168878 -5.82438e-06
0.000168878 -6.12266e-05 -1.5144e-06
-5.82438e-06 -1.5144e-06 -0.000224126
0.0011021 8.52712e-05 -9.71326e-06
8.52712e-05 -0.00010379 -7.38776e-07
-9.71326e-06 -7.38776e-07 -0.000241962
0.000367088 -7.28104e-06 -1.82926e-05
-7.28104e-06 -0.000222665 -7.29596e-07
-1.82926e-05 -7.29596e-07 -0.000308078
0.00635776 -0.00010324 -0.000347328
-0.00010324 0.00374686 6.25821e-06
-0.000347328 6.25821e-06 0.00377472
0.000357425 -3.27983e-06 6.17685e-08
-3.27983e-06 -0.000227476 -7.23586e-07
6.17685e-08 -7.23586e-07 -0.000311148
0.00108873 4.08298e-05 -5.82867e-08
4.08298e-05 -9.22236e-05 1.07098e-07
-5.82867e-08 1.07098e-07 -0.000222635
0.00118474 0.000124955 -1.4074e-07
0.000124955 -7.19595e-05 8.17307e-08
-1.4074e-07 8.17307e-08 -0.000219294
0.00201264 0.000129945 -5.6822e-08
0.000129945 7.10767e-05 2.06416e-07
-5.6822e-08 2.06416e-07 -1.3169e-05
0.00132139 0.000220232 -3.66655e-07
0.000220232 -2.12726e-05 -2.85982e-07
-3.66655e-07 -2.85982e-07 -0.000203518
0.00208184 0.000285725 -4.21596e-07
0.000285725 0.000119643 9.64704e-08
-4.21596e-07 9.64704e-08 -1.32393e-05
0.00106113 -4.73052e-06 1.03861e-05
-4.73052e-06 -0.000101367 -2.4216e-07
1.03861e-05 -2.4216e-07 -0.000229495
0.00204066 6.47877e-05 3.23881e-06
6.47877e-05 9.87877e-05 2.89136e-07
3.23881e-06 2.89136e-07 2.06967e-05
0.00201516 0.000202378 6.80751e-07
0.000202378 5.62691e-05 1.91611e-07
6.80751e-07 1.91611e-07 -4.54016e-05
0.00221071 0.000157433 5.72247e-06
0.000157433 8.43752e-05 6.81011e-07
5.72247e-06 6.81011e-07 5.48395e-05
0.00216663 0.000375763 2.67671e-06
0.000375763 0.000206272 -7.61861e-07
2.67671e-06 -7.61861e-07 3.30472e-05
0.00210845 0.000311093 4.23361e-06
0.000311093 4.63941e-05 1.13012e-06
4.23361e-06 1.13012e-06 -3.68939e-05
0.0003472 -4.45027e-06 -1.74502e-05
-4.45027e-06 -0.000226937 3.61536e-07
-1.74502e-05 3.61536e-07 -0.000315028
0.0020463 -5.21841e-05 -0.000138956
-5.21841e-05 0.000860947 6.16343e-06
-0.000138956 6.16343e-06 0.0007939
0.00125163 -7.86246e-05 -1.92248e-05
-7.86246e-05 1.14603e-05 1.30242e-06
-1.92248e-05 1.30242e-06 -0.00011509
0.00191657 -0.000191363 -2.3661e-05
-0.000191363 0.000404641 3.49987e-06
-2.3661e-05 3.49987e-06 0.000245622
0.0076046 1.46243e-05 -0.000315841
1.46243e-05 0.00454964 3.34186e-05
-0.000315841 3.34186e-05 0.00455553
0.00356786 -0.000303834 -0.000183788
-0.000303834 0.00187717 2.94609e-05
-0.000183788 2.94609e-05 0.00175517
0.00178982 -0.000437 -3.22303e-05
-0.000437 0.000542136 1.10929e-05
-3.22303e-05 1.10929e-05 0.00024109
0.00213091 -0.000310519 -2.98702e-05
-0.000310519 0.0005479 7.93038e-06
-2.98702e-05 7.93038e-06 0.000351272
0.00218638 -0.000372907 -2.17282e-06
-0.000372907 0.000246728 -1.10667e-06
-2.17282e-06 -1.10667e-06 8.05268e-05
0.00207044 -0.000482254 -3.86552e-06
-0.000482254 0.000295787 5.20688e-08
-3.86552e-06 5.20688e-08 3.73271e-05
0.00204701 -0.000587923 -6.87201e-06
-0.000587923 0.000389696 -1.64496e-06
-6.87201e-06 -1.64496e-06 4.65436e-05
0.00217602 -0.000599944 -9.67931e-07
-0.000599944 0.00031692 -3.6071e-06
-9.67931e-07 -3.6071e-06 4.12494e-05
0.000426623 -0.000205606 -2.31353e-05
-0.000205606 -9.85895e-05 2.09471e-05
-2.31353e-05 2.09471e-05 -0.000225494
0.000540813 -0.000226762 -6.22873e-07
-0.000226762 3.62822e-05 2.83462e-06
-6.22873e-07 2.83462e-06 -0.000232002
0.00115148 -3.65165e-05 5.04998e-07
-3.65165e-05 -4.29793e-05 2.56195e-08
5.04998e-07 2.56195e-08 -0.000167676
0.00200819 -0.00013877 -1.12706e-05
-0.00013877 0.000490052 1.5191e-06
-1.12706e-05 1.5191e-06 0.000358817
0.00190473 -0.000140259 1.65494e-06
-0.000140259 1.94503e-05 -2.10709e-07
1.65494e-06 -2.10709e-07 -7.75119e-05
0.0020129 -0.000291486 -2.31666e-06
-0.000291486 0.000105756 8.73495e-07
-2.31666e-06 8.73495e-07 -3.37574e-05
0.000367734 -0.0002187 6.62287e-07
-0.0002187 -0.000149375 6.51128e-07
6.62287e-07 6.51128e-07 -0.000292167
0.00073507 -0.000321443 -2.04125e-06
-0.000321443 -3.72448e-05 1.85118e-07
-2.04125e-06 1.85118e-07 -0.000324102
0.00173645 -0.000632632 2.01772e-06
-0.000632632 0.000290435 -8.26377e-08
2.01772e-06 -8.26377e-08 -0.000118131
0.00196586 -0.000427169 -2.50801e-06
-0.000427169 0.000167544 7.38271e-07
-2.50801e-06 7.38271e-07 -5.03012e-05
0.00217394 -0.000406949 1.93987e-06
-0.000406949 0.000150934 -5.88935e-07
1.93987e-06 -5.88935e-07 2.21859e-05
0.00239596 -0.000673854 -4.191e-07
-0.000673854 0.000512528 -1.06461e-06
-4.191e-07 -1.06461e-06 0.000174254
0.0021121 -0.000543313 5.00389e-07
-0.000543313 0.000214527 1.48501e-07
5.00389e-07 1.48501e-07 -9.8373e-06
0.00218979 -0.000625096 6.09479e-07
-0.000625096 0.000279137 9.54175e-07
6.09479e-07 9.54175e-07 2.77122e-05
0.00059112 -0.00022356 -1.31363e-07
-0.00022356 3.20817e-05 -1.01013e-06
-1.31363e-07 -1.01013e-06 -0.000249705
0.000792312 -0.000242466 -1.27935e-06
-0.000242466 0.000162796 -1.24806e-06
-1.27935e-06 -1.24806e-06 -0.000142302
0.000673123 -0.000173873 2.61433e-06
-0.000173873 0.000143538 1.01394e-06
2.61433e-06 1.01394e-06 -9.72989e-05
0.00183513 -6.71671e-05 3.21697e-06
-6.71671e-05 -2.05771e-05 -2.91385e-07
3.21697e-06 -2.91385e-07 -0.000112783
0.00198535 -0.000210878 1.77162e-07
-0.000210878 6.59272e-05 4.41332e-07
1.77162e-07 4.41332e-07 -4.42122e-05
0.00205237 -0.000148668 7.98018e-06
-0.000148668 -1.79052e-06 -5.81479e-07
7.98018e-06 -5.81479e-07 -4.71304e-05
0.00218768 -0.000333431 3.17698e-06
-0.000333431 0.000107501 -1.17961e-06
3.17698e-06 -1.17961e-06 2.26765e-05
0.00203433 -0.000484454 1.1459e-06
-0.000484454 0.000109977 1.76555e-06
1.1459e-06 1.76555e-06 -6.42672e-05
0.00226442 -0.000426742 3.90009e-06
-0.000426742 0.000139951 -5.41417e-07
3.90009e-06 -5.41417e-07 6.1621e-05
0.000621041 -0.000256118 9.77975e-06
-0.000256118 -1.3957e-05 -6.07211e-06
9.77975e-06 -6.07211e-06 -0.000280565
0.00215878 -0.000581954 7.95272e-07
-0.000581954 0.000189629 5.74641e-07
7.95272e-07 5.74641e-07 -8.91835e-06
0.00155135 -0.000608994 1.43196e-05
-0.000608994 0.000334947 -1.49543e-06
1.43196e-05 -1.49543e-06 -9.79602e-05
0.0020823 -0.000770658 8.9584e-06
-0.000770658 0.000399918 5.35055e-06
8.9584e-06 5.35055e-06 -3.93732e-05
0.00245166 -0.000696706 3.88477e-06
-0.000696706 0.000516203 4.49492e-06
3.88477e-06 4.49492e-06 0.000196736
0.00245746 -0.000664898 4.1261e-08
-0.000664898 0.000455004 1.0098e-06
4.1261e-08 1.0098e-06 0.000210644
0.000473645 -0.000141111 1.34849e-08
-0.000141111 5.81518e-05 -5.15629e-06
1.34849e-08 -5.15629e-06 -0.000173046
0.0016763 -0.00039845 9.96499e-07
-0.00039845 0.000625928 -3.45467e-06
9.96499e-07 -3.45467e-06 0.000299582
-0.000527613 -0.000130447 1.51567e-06
-0.000130447 -0.000563302 1.62125e-06
1.51567e-06 1.62125e-06 -0.000872354
0.00207298 -0.000499637 -1.02491e-08
-0.000499637 0.000956853 1.66087e-07
-1.02491e-08 1.66087e-07 0.000567373
0.0012953 0.000272817 -1.20736e-05
0.000272817 -1.69993e-05 -4.74238e-06
-1.20736e-05 -4.74238e-06 -0.000224753
0.000371182 4.49433e-06 -3.22457e-06
4.49433e-06 -5.51579e-05 -1.55036e-05
-3.22457e-06 -1.55036e-05 -0.000130974
0.000424554 0.000130232 -2.31434e-05
0.000130232 -8.02932e-05 -1.60256e-05
-2.31434e-05 -1.60256e-05 -0.000182619
-6.72541e-05 0.000146371 -5.27953e-06
0.000146371 -0.000344597 6.81959e-07
-5.27953e-06 6.81959e-07 -0.000561519
0.00122141 0.000346998 -2.09982e-05
0.000346998 2.18277e-05 -8.2872e-06
-2.09982e-05 -8.2872e-06 -0.000231266
0.00204881 0.000505379 -4.678e-06
0.000505379 0.000242488 4.88694e-07
-4.678e-06 4.88694e-07 -1.88537e-05
0.000442794 0.000217366 -8.41834e-06
0.000217366 -0.000130028 -3.66026e-06
-8.41834e-06 -3.66026e-06 -0.000363768
0.00153847 0.000584505 -7.70129e-06
0.000584505 0.000314374 5.88793e-07
-7.70129e-06 5.88793e-07 -9.64502e-05
0.00207035 0.000607304 -5.12289e-06
0.000607304 0.000421495 1.71668e-06
-5.12289e-06 1.71668e-06 7.6563e-05
0.00164985 0.000654995 6.25885e-06
0.000654995 0.000131835 1.05744e-05
6.25885e-06 1.05744e-05 -0.000239439
0.000407733 -3.91863e-06 -3.88555e-06
-3.91863e-06 -3.15781e-05 8.21181e-07
-3.88555e-06 8.21181e-07 -9.52055e-05
0.000606637 0.000222713 -2.70086e-07
0.000222713 7.0665e-05 -1.18286e-06
-2.70086e-07 -1.18286e-06 -0.000182244
0.000554631 0.000122438 2.1618e-06
0.000122438 5.08928e-05 -1.25948e-06
2.1618e-06 -1.25948e-06 -0.000131796
0.000699735 0.000201636 -2.15622e-06
0.000201636 0.000130099 2.48141e-06
-2.15622e-06 2.48141e-06 -0.000138192
0.00209986 0.000444886 -1.75397e-06
0.000444886 0.00021368 -1.31949e-06
-1.75397e-06 -1.31949e-06 -2.69939e-06
0.00200666 0.000562086 -6.08923e-07
0.000562086 0.000295498 -2.739e-07
-6.08923e-07 -2.739e-07 -1.1384e-05
0.00217366 0.000569124 1.39243e-07
0.000569124 0.000244929 2.17086e-07
1.39243e-07 2.17086e-07 2.8782e-06
0.00143965 0.000477586 3.17008e-06
0.000477586 0.000392628 4.06365e-08
3.17008e-06 4.06365e-08 2.77956e-05
0.00233148 0.000700689 9.50742e-07
0.000700689 0.000502565 7.51282e-07
9.50742e-07 7.51282e-07 0.000161401
0.00186596 0.000720583 -1.00461e-06
0.000720583 0.000430844 -2.11724e-06
-1.00461e-06 -2.11724e-06 -3.23422e-05
0.00211821 0.000679352 -5.98097e-06
0.000679352 0.000345118 2.53973e-06
-5.98097e-06 2.53973e-06 1.12036e-06
0.000498312 2.32759e-06 3.33071e-06
2.32759e-06 1.1511e-05 1.14319e-05
3.33071e-06 1.14319e-05 -3.81526e-05
0.00116978 9.66822e-05 5.94215e-07
9.66822e-05 0.000464644 7.9457e-06
5.94215e-07 7.9457e-06 0.000300916
0.000731565 0.000309908 -4.94822e-06
0.000309908 5.71767e-05 7.04043e-07
-4.94822e-06 7.04043e-07 -0.000230428
0.00138994 0.000178478 3.51898e-06
0.000178478 0.000626265 -3.38686e-06
3.51898e-06 -3.38686e-06 0.000341945
0.000864955 0.000200152 -1.03457e-06
0.000200152 0.000148969 1.00741e-05
-1.03457e-06 1.00741e-05 -9.48213e-05
0.00221674 0.000500624 5.3163e-07
0.000500624 0.000197329 -2.85441e-06
5.3163e-07 -2.85441e-06 6.47489e-06
0.00218457 0.000645064 -1.59392e-06
0.000645064 0.000323058 -2.11495e-06
-1.59392e-06 -2.11495e-06 2.60543e-05
0.00215132 0.000619217 -3.54188e-06
0.000619217 0.000212893 -1.4356e-06
-3.54188e-06 -1.4356e-06 -3.02155e-05
0.00177169 0.000707233 -1.09717e-06
0.000707233 0.000581839 -4.85993e-06
-1.09717e-06 -4.85993e-06 8.87139e-05
0.0025119 0.000760632 -5.61763e-06
0.000760632 0.000545749 -3.2718e-06
-5.61763e-06 -3.2718e-06 0.000208123
0.00182622 0.00076273 5.57186e-06
0.00076273 0.000329304 -6.05834e-06
5.57186e-06 -6.05834e-06 -0.000118697
0.000530965 7.00652e-05 3.78567e-07
7.00652e-05 6.10997e-05 6.28743e-06
3.78567e-07 6.28743e-06 -4.82388e-05
0.000678077 0.000136039 -2.49168e-06
0.000136039 0.000227777 2.5212e-06
-2.49168e-06 2.5212e-06 5.57667e-05
0.000602437 6.94276e-05 6.2328e-07
6.94276e-05 0.00011612 5.3454e-06
6.2328e-07 5.3454e-06 2.79274e-05
0.000509079 2.28034e-05 -9.31497e-07
2.28034e-05 5.59913e-05 3.85139e-08
-9.31497e-07 3.85139e-08 -4.17933e-05
0.00150164 -2.01558e-05 1.95026e-06
-2.01558e-05 0.000657478 5.76268e-06
1.95026e-06 5.76268e-06 0.000625865
0.000963891 -8.24219e-06 1.77236e-07
-8.24219e-06 0.00031165 2.19195e-09
1.77236e-07 2.19195e-09 0.000272187
0.000890526 -3.98108e-05 4.83943e-05
-3.98108e-05 0.000263206 1.16946e-05
4.83943e-05 1.16946e-05 0.000257694
0.00338065 -0.000136763 1.06735e-05
-0.000136763 0.00188267 -1.0241e-06
1.06735e-05 -1.0241e-06 0.00187573
0.0036725 -0.000168318 -6.12968e-05
-0.000168318 0.00208616 -5.88764e-06
-6.12968e-05 -5.88764e-06 0.00207022
0.000330674 -0.000101829 1.51187e-05
-0.000101829 -8.0155e-05 -1.43615e-05
1.51187e-05 -1.43615e-05 -0.000156037
0.00510646 0.000185104 0.000125303
0.000185104 0.00303747 -1.64292e-05
0.000125303 -1.64292e-05 0.00300996
0.000487463 -0.000147622 8.18706e-07
-0.000147622 -7.95812e-06 9.53606e-07
8.18706e-07 9.53606e-07 -0.000106985
0.00587835 0.00012549 -3.74911e-07
0.00012549 0.00351523 1.11733e-06
-3.74911e-07 1.11733e-06 0.00349985
0.000498072 -0.000176055 -2.32555e-05
-0.000176055 -3.59336e-05 1.9048e-05
-2.32555e-05 1.9048e-05 -0.000147667
0.00677471 8.15731e-05 -0.000256439
8.15731e-05 0.00406105 2.97597e-05
-0.000256439 2.97597e-05 0.00405509
0.00128919 0.000219674 -8.05936e-06
0.000219674 -3.36545e-05 -2.94908e-06
-8.05936e-06 -2.94908e-06 -0.000217101
0.00115921 0.000127933 -7.58531e-06
0.000127933 -9.0246e-05 -1.05209e-06
-7.58531e-06 -1.05209e-06 -0.000238939
0.0020796 0.000279627 -1.85203e-06
0.000279627 0.00012542 1.0357e-06
-1.85203e-06 1.0357e-06 -6.21152e-06
0.00198397 0.000127746 -2.05369e-06
0.000127746 5.81914e-05 8.30877e-08
-2.05369e-06 8.30877e-08 -2.64058e-05
0.00108536 4.59841e-05 -1.02574e-05
4.59841e-05 -9.66494e-05 3.80445e-08
-1.02574e-05 3.80445e-08 -0.000227528
0.000321277 2.85768e-05 -1.8278e-05
2.85768e-05 -0.000253068 -9.76917e-07
-1.8278e-05 -9.76917e-07 -0.000335059
0.00106236 -6.58987e-07 -3.68304e-08
-6.58987e-07 -0.00010038 -4.22837e-09
-3.68304e-08 -4.22837e-09 -0.000228504
0.00199048 6.41934e-05 1.6645e-08
6.41934e-05 6.72956e-05 1.41306e-07
1.6645e-08 1.41306e-07 -1.11522e-05
0.0020521 0.000200197 -2.03537e-07
0.000200197 9.0938e-05 3.41721e-07
-2.03537e-07 3.41721e-07 -1.02417e-05
0.00218549 0.000152083 -4.27372e-07
0.000152083 5.84659e-05 1.88217e-07
-4.27372e-07 1.88217e-07 3.42147e-05
0.0021126 0.000370825 -7.39623e-07
0.000370825 0.000173241 -1.35625e-07
-7.39623e-07 -1.35625e-07 8.11524e-07
0.0021731 0.00031622 9.23475e-08
0.00031622 8.86125e-05 2.84832e-07
9.23475e-08 2.84832e-07 3.79973e-06
0.00201412 -2.22853e-06 3.36098e-06
-2.22853e-06 9.10684e-05 5.68839e-08
3.36098e-06 5.68839e-08 1.31866e-05
0.00213952 7.24564e-05 4.69515e-06
7.24564e-05 3.71794e-05 4.14998e-07
4.69515e-06 4.14998e-07 1.83367e-05
0.00219275 0.000228931 5.48104e-06
0.000228931 7.79878e-05 9.01746e-07
5.48104e-06 9.01746e-07 3.42241e-05
0.00212213 0.000133504 4.08835e-06
0.000133504 9.78779e-06 9.19682e-07
4.08835e-06 9.19682e-07 8.64524e-06
0.00215584 0.000414774 2.48613e-06
0.000414774 0.000114554 2.66804e-07
2.48613e-06 2.66804e-07 -2.355e-05
0.00221539 0.00033305 2.11725e-06
0.00033305 8.05739e-06 3.26228e-07
2.11725e-06 3.26228e-07 -1.01572e-05
0.00119866 -3.28318e-05 -1.13199e-05
-3.28318e-05 -1.2918e-05 5.32556e-07
-1.13199e-05 5.32556e-07 -0.000132673
0.00202442 -0.000138752 -2.74019e-05
-0.000138752 0.000499041 2.3825e-06
-2.74019e-05 2.3825e-06 0.000368177
0.0020038 -0.000136717 -1.175e-06
-0.000136717 8.15605e-05 -3.41047e-07
-1.175e-06 -3.41047e-07 -1.00084e-05
0.00187246 -0.000286866 -7.26659e-07
-0.000286866 1.33357e-05 4.14287e-07
-7.26659e-07 4.14287e-07 -0.000136759
0.000556934 -0.000256251 -2.72473e-05
-0.000256251 -2.94438e-05 2.39931e-05
-2.72473e-05 2.39931e-05 -0.000174028
0.000754741 -0.000331162 -1.49347e-05
-0.000331162 -3.21415e-05 7.94896e-06
-1.49347e-05 7.94896e-06 -0.000324111
0.00174159 -0.000635327 -1.18149e-05
-0.000635327 0.000291034 2.94433e-07
-1.18149e-05 2.94433e-07 -0.000121021
0.00204753 -0.000428802 -4.3473e-06
-0.000428802 0.000227677 5.01974e-07
-4.3473e-06 5.01974e-07 6.91725e-06
0.00210771 -0.000404951 -1.08783e-06
-0.000404951 9.8072e-05 -7.96217e-08
-1.08783e-06 -7.96217e-08 -2.34283e-05
0.00214919 -0.000547148 -2.44547e-06
-0.000547148 0.000237428 -1.80622e-06
-2.44547e-06 -1.80622e-06 1.18698e-05
0.00239174 -0.000675848 -9.74424e-07
-0.000675848 0.000507074 -7.00706e-06
-9.74424e-07 -7.00706e-06 0.000172168
0.00199086 -0.000612097 1.70652e-06
-0.000612097 0.00014569 -1.79588e-06
1.70652e-06 -1.79588e-06 -0.000105615
0.00110236 -0.000279668 -8.50941e-06
-0.000279668 0.000353391 4.19518e-06
-8.50941e-06 4.19518e-06 6.73838e-05
0.000272988 -0.000176544 -7.78383e-09
-0.000176544 -0.000167929 3.22865e-06
-7.78383e-09 3.22865e-06 -0.000461537
0.000426959 -0.000212894 4.85556e-08
-0.000212894 -5.2021e-06 3.81009e-06
4.85556e-08 3.81009e-06 -0.000249147
0.00190991 -6.38706e-05 1.92823e-06
-6.38706e-05 2.67876e-05 -1.74874e-07
1.92823e-06 -1.74874e-07 -5.99393e-05
0.00201028 -0.000219568 -1.65654e-07
-0.000219568 8.51317e-05 -2.53375e-07
-1.65654e-07 -2.53375e-07 -2.50559e-05
0.00212854 -0.000147109 1.40759e-06
-0.000147109 4.09315e-05 -1.21257e-07
1.40759e-06 -1.21257e-07 2.85042e-06
0.00209201 -0.000319977 -1.47891e-06
-0.000319977 5.04437e-05 2.89461e-07
-1.47891e-06 2.89461e-07 -3.7343e-05
0.000760935 -0.000282225 1.18916e-06
-0.000282225 7.32265e-05 -4.27302e-07
1.18916e-06 -4.27302e-07 -0.00020419
0.00165978 -0.000626611 -4.33614e-07
-0.000626611 0.000406023 -7.38492e-07
-4.33614e-07 -7.38492e-07 -3.13015e-05
0.00197873 -0.000757713 1.31251e-06
-0.000757713 0.000345848 1.11428e-06
1.31251e-06 1.11428e-06 -9.56934e-05
0.0020257 -0.00048036 -5.13984e-07
-0.00048036 0.000111387 7.76004e-07
-5.13984e-07 7.76004e-07 -6.92642e-05
0.00221289 -0.000428904 2.00031e-07
-0.000428904 9.28342e-05 -5.73818e-08
2.00031e-07 -5.73818e-08 2.07325e-05
0.00227574 -0.000688178 -7.12236e-07
-0.000688178 0.000388917 4.67685e-07
-7.12236e-07 4.67685e-07 6.92487e-05
0.002116 -0.000577811 -6.19185e-07
-0.000577811 0.000160432 7.73451e-07
-6.19185e-07 7.73451e-07 -3.79724e-05
0.00232974 -0.000645628 1.09626e-06
-0.000645628 0.000367285 -5.85827e-07
1.09626e-06 -5.85827e-07 0.000128953
0.000877776 -0.000357879 -2.10687e-06
-0.000357879 0.000151376 4.92134e-07
-2.10687e-06 4.92134e-07 -0.000187471
0.00111726 -0.000392742 1.0465e-07
-0.000392742 0.000348835 1.94952e-06
1.0465e-07 1.94952e-06 -2.56647e-05
0.000744897 -0.000168188 -1.36856e-06
-0.000168188 0.000215319 -1.71286e-06
-1.36856e-06 -1.71286e-06 -1.01457e-05
0.000257032 -0.000158245 2.18639e-06
-0.000158245 -0.000121002 1.60976e-06
2.18639e-06 1.60976e-06 -0.000397994
0.00217242 -8.01425e-05 7.33138e-06
-8.01425e-05 7.9994e-05 -3.58042e-07
7.33138e-06 -3.58042e-07 4.95359e-05
0.00203313 -0.000231458 4.60007e-06
-0.000231458 -3.78272e-05 -8.3552e-07
4.60007e-06 -8.3552e-07 -9.57996e-05
0.00209937 -0.000136272 5.40416e-06
-0.000136272 2.64872e-05 -7.52643e-07
5.40416e-06 -7.52643e-07 2.82601e-05
0.00221492 -0.000347315 4.84197e-07
-0.000347315 4.02021e-05 -2.93356e-08
4.84197e-07 -2.93356e-08 2.0908e-05
0.00216884 -0.000517758 3.98513e-07
-0.000517758 0.000124599 1.72357e-07
3.98513e-07 1.72357e-07 -1.1609e-05
0.00227443 -0.000454891 2.96047e-06
-0.000454891 7.15796e-05 -2.40214e-07
2.96047e-06 -2.40214e-07 1.7073e-05
0.00145596 -0.000522465 6.72446e-06
-0.000522465 0.000434216 -2.65691e-06
6.72446e-06 -2.65691e-06 2.90239e-05
0.00215987 -0.000619462 -1.53389e-06
-0.000619462 0.000144505 3.50691e-07
-1.53389e-06 3.50691e-07 -2.55359e-05
0.00179247 -0.000794053 -3.52267e-06
-0.000794053 0.000408238 7.47859e-06
-3.52267e-06 7.47859e-06 -0.000100074
0.00228059 -0.000824127 5.20173e-06
-0.000824127 0.000483982 4.5045e-06
5.20173e-06 4.5045e-06 3.97854e-05
0.00226156 -0.000695491 3.51561e-06
-0.000695491 0.000356138 3.39142e-06
3.51561e-06 3.39142e-06 4.57533e-05
0.00219566 -0.000677776 -4.56382e-06
-0.000677776 0.000228862 -2.00198e-06
-4.56382e-06 -2.00198e-06 -1.76243e-05
0.000448036 -0.000165768 -6.57133e-07
-0.000165768 2.46171e-05 -8.09663e-06
-6.57133e-07 -8.09663e-06 -0.000158174
0.000782489 -0.000171411 1.69894e-06
-0.000171411 0.000270271 1.20138e-06
1.69894e-06 1.20138e-06 -6.94236e-05
0.00138505 -0.000536906 8.84162e-06
-0.000536906 0.000434002 -2.06174e-07
8.84162e-06 -2.06174e-07 4.59019e-06
0.00015609 -0.000210737 1.40428e-05
-0.000210737 -0.000229031 -5.68685e-06
1.40428e-05 -5.68685e-06 -0.000514003
0.00150627 -0.00050292 -3.07493e-06
-0.00050292 0.000612868 7.31347e-06
-3.07493e-06 7.31347e-06 0.000161721
0.000338554 -1.43829e-05 -3.87483e-06
-1.43829e-05 -7.27914e-05 -1.27652e-05
-3.87483e-06 -1.27652e-05 -0.000134223
0.00207816 0.000442704 -5.06748e-06
0.000442704 0.000199182 -4.17788e-07
-5.06748e-06 -4.17788e-07 -1.69942e-05
0.000331913 6.1566e-05 -2.66788e-08
6.1566e-05 -7.42944e-05 -4.74133e-06
-2.66788e-08 -4.74133e-06 -0.000264594
0.000126933 0.000225661 -6.90901e-06
0.000225661 -0.000267352 7.43364e-07
-6.90901e-06 7.43364e-07 -0.000491705
0.000741119 0.000216136 -1.14304e-06
0.000216136 0.000152382 5.20579e-06
-1.14304e-06 5.20579e-06 -0.000113821
0.00197245 0.000560092 -4.74874e-06
0.000560092 0.000272976 6.0577e-07
-4.74874e-06 6.0577e-07 -3.41631e-05
0.00214371 0.000564855 4.45912e-07
0.000564855 0.000229804 1.99749e-06
4.45912e-07 1.99749e-06 -1.10389e-05
0.001316 0.000493683 2.01532e-06
0.000493683 0.000337566 -7.37262e-07
2.01532e-06 -7.37262e-07 -4.09054e-05
0.001743 0.000713911 4.83246e-06
0.000713911 0.000349565 6.86382e-06
4.83246e-06 6.86382e-06 -0.000115774
0.00219447 0.00068009 3.92068e-06
0.00068009 0.000425064 5.0257e-06
3.92068e-06 5.0257e-06 8.52081e-05
0.00218 0.000675217 8.97425e-06
0.000675217 0.000389565 1.36325e-05
8.97425e-06 1.36325e-05 5.33179e-05
0.000435652 5.43897e-06 -5.24115e-07
5.43897e-06 -2.60871e-05 1.26968e-07
-5.24115e-07 1.26968e-07 -7.53985e-05
0.000632847 8.02837e-05 -8.03707e-07
8.02837e-05 0.000130627 3.64027e-08
-8.03707e-07 3.64027e-08 -3.06058e-05
0.000848059 0.00034304 3.5535e-06
0.00034304 0.000153804 6.99982e-07
3.5535e-06 6.99982e-07 -0.000139372
0.000503488 0.000128786 4.95963e-07
0.000128786 6.23188e-05 -2.71047e-06
4.95963e-07 -2.71047e-06 -0.000215477
0.000316979 0.00014925 -1.07964e-07
0.00014925 -0.000210226 3.17111e-06
-1.07964e-07 3.17111e-06 -0.000450011
0.00219984 0.000499183 -1.97507e-06
0.000499183 0.000188664 -1.89746e-06
-1.97507e-06 -1.89746e-06 -1.8224e-06
0.00215779 0.000641552 4.35426e-07
0.000641552 0.000309234 1.21804e-07
4.35426e-07 1.21804e-07 1.3319e-05
0.00214269 0.000619336 1.52348e-06
0.000619336 0.000211725 1.93928e-07
1.52348e-06 1.93928e-07 -3.16697e-05
0.00176299 0.000708204 1.39262e-06
0.000708204 0.000583811 -1.26072e-06
1.39262e-06 -1.26072e-06 8.55749e-05
0.00240447 0.000749321 2.98023e-06
0.000749321 0.000459355 4.69388e-07
2.98023e-06 4.69388e-07 0.000121686
0.00215363 0.000794673 -4.33474e-06
0.000794673 0.000549777 2.00088e-07
-4.33474e-06 2.00088e-07 9.87656e-05
0.000796139 9.2314e-05 8.69132e-07
9.2314e-05 0.000222206 6.72425e-06
8.69132e-07 6.72425e-06 9.5102e-05
0.00219704 0.000310191 -3.17624e-07
0.000310191 0.00119559 5.53696e-07
-3.17624e-07 5.53696e-07 0.000928076
0.000895309 0.000466143 -3.16912e-07
0.000466143 0.000175608 4.05035e-06
-3.16912e-07 4.05035e-06 -0.000198398
0.000988386 0.000146611 5.69539e-06
0.000146611 0.000236385 3.34957e-07
5.69539e-06 3.34957e-07 -1.23808e-05
0.00314746 0.000526584 -8.6976e-07
0.000526584 0.00149698 1.58771e-07
-8.6976e-07 1.58771e-07 0.00116759
0.00216576 0.000526888 -3.86669e-06
0.000526888 0.000115805 -1.77948e-06
-3.86669e-06 -1.77948e-06 -5.55849e-05
0.0021664 0.000696451 -4.38535e-06
0.000696451 0.000280754 -1.45387e-06
-4.38535e-06 -1.45387e-06 -1.65581e-05
0.00213305 0.000680614 9.92483e-07
0.000680614 0.00016519 -8.30166e-07
9.92483e-07 -8.30166e-07 -8.91957e-05
0.00123962 0.000724239 9.78887e-06
0.000724239 0.000292357 -5.85817e-06
9.78887e-06 -5.85817e-06 -0.000231027
0.0018839 0.000785136 1.3039e-05
0.000785136 0.00026376 -2.85563e-06
1.3039e-05 -2.85563e-06 -0.000145426
0.000584988 6.50982e-05 -1.10499e-07
6.50982e-05 9.68043e-05 1.13093e-07
-1.10499e-07 1.13093e-07 -1.16659e-05
0.000535729 0.000132526 1.46008e-06
0.000132526 8.73317e-05 1.39684e-06
1.46008e-06 1.39684e-06 -6.22722e-05
-9.18881e-06 8.55977e-05 2.17345e-07
8.55977e-05 -0.000229481 -1.02277e-06
2.17345e-07 -1.02277e-06 -0.000382048
0.00144073 0.000233273 -2.65097e-06
0.000233273 0.000730527 -2.85857e-06
-2.65097e-06 -2.85857e-06 0.000531847
0.00100171 0.00016736 -7.51172e-07
0.00016736 0.000436486 2.3254e-06
-7.51172e-07 2.3254e-06 0.000275563
0.000536628 7.77655e-05 1.65191e-06
7.77655e-05 8.17673e-05 4.17391e-06
1.65191e-06 4.17391e-06 -2.82446e-06
0.000514542 2.53701e-05 -1.02924e-06
2.53701e-05 6.35207e-05 3.79552e-08
-1.02924e-06 3.79552e-08 -2.42174e-05
0.0013438 -4.5974e-06 1.7579e-06
-4.5974e-06 0.000554287 4.69074e-06
1.7579e-06 4.69074e-06 0.00052938
0.000498133 4.62392e-05 5.79884e-07
4.62392e-05 4.1745e-05 -6.10761e-06
5.79884e-07 -6.10761e-06 -5.1062e-05
0.00142719 -1.60329e-05 -1.08743e-05
-1.60329e-05 0.000607924 -1.78202e-06
-1.08743e-05 -1.78202e-06 0.000579559
0.000733295 -2.76245e-05 4.17188e-05
-2.76245e-05 0.000156392 1.07417e-05
4.17188e-05 1.07417e-05 0.000157395
0.00147525 -1.39575e-05 -2.1353e-05
-1.39575e-05 0.000643087 -7.5723e-06
-2.1353e-05 -7.5723e-06 0.00060848
0.00199717 -7.65026e-05 4.65636e-05
-7.65026e-05 0.000980482 1.34399e-06
4.65636e-05 1.34399e-06 0.000976757
0.00329393 -0.0001356 -5.07854e-05
-0.0001356 0.00182638 -5.66143e-06
-5.07854e-05 -5.66143e-06 0.00181946
0.00026742 5.21504e-05 -3.3947e-06
5.21504e-05 -9.53307e-05 -1.08836e-05
-3.3947e-06 -1.08836e-05 -0.000158242
0.000373263 -8.49671e-05 -1.44791e-06
-8.49671e-05 -5.15258e-05 4.34866e-07
-1.44791e-06 4.34866e-07 -0.000134099
0.00415755 0.000205035 2.6433e-05
0.000205035 0.00241527 -8.95999e-06
2.6433e-05 -8.95999e-06 0.00238381
0.00516587 0.00013369 -1.36815e-05
0.00013369 0.00306458 -1.23406e-06
-1.36815e-05 -1.23406e-06 0.00304888
0.000500775 -0.000151342 -2.1396e-05
-0.000151342 -3.05164e-06 1.67182e-05
-2.1396e-05 1.67182e-05 -0.000105755
0.0060434 0.000121049 -0.0002139
0.000121049 0.00362897 3.02215e-05
-0.0002139 3.02215e-05 0.00361055
0.00205818 0.000366265 -2.89585e-06
0.000366265 0.000139281 9.84344e-07
-2.89585e-06 9.84344e-07 -3.24666e-05
0.00204997 0.000200063 -1.18339e-06
0.000200063 9.78624e-05 6.78267e-07
-1.18339e-06 6.78267e-07 -3.57383e-06
0.00223003 0.000321882 -4.16862e-06
0.000321882 0.000124977 -6.60673e-07
-4.16862e-06 -6.60673e-07 3.86145e-05
0.00216597 0.000146938 -5.05802e-06
0.000146938 3.54216e-05 -3.26359e-07
-5.05802e-06 -3.26359e-07 1.65215e-05
0.00194693 6.48388e-05 -3.25209e-06
6.48388e-05 4.08866e-05 1.60267e-08
-3.25209e-06 1.60267e-08 -3.79128e-05
0.00108038 3.92938e-06 -1.00791e-05
3.92938e-06 -8.88951e-05 1.02597e-07
-1.00791e-05 1.02597e-07 -0.000216872
0.00198265 1.78439e-07 1.14524e-07
1.78439e-07 7.09366e-05 9.1811e-08
1.14524e-07 9.1811e-08 -7.21112e-06
0.00214417 6.403e-05 -6.22142e-07
6.403e-05 4.39929e-05 -1.13595e-08
-6.22142e-07 -1.13595e-08 2.45551e-05
0.0022032 0.000228133 5.4601e-08
0.000228133 7.86754e-05 1.85705e-08
5.4601e-08 1.85705e-08 3.55166e-05
0.00209629 0.000133954 -1.17348e-07
0.000133954 -1.47542e-05 8.87241e-08
-1.17348e-07 8.87241e-08 -1.07022e-05
0.00218924 0.000420282 -1.83596e-07
0.000420282 0.000131766 3.54302e-07
-1.83596e-07 3.54302e-07 -7.91139e-06
0.00219503 0.000323203 -5.3341e-08
0.000323203 -6.57907e-06 -7.25968e-08
-5.3341e-08 -7.25968e-08 -2.31808e-05
0.00212959 -7.34571e-06 5.61617e-06
-7.34571e-06 4.12743e-05 8.82701e-08
5.61617e-06 8.82701e-08 1.92344e-05
0.00211652 5.71504e-05 3.69132e-06
5.71504e-05 1.02743e-05 1.5125e-07
3.69132e-06 1.5125e-07 2.81988e-05
0.00214489 0.000209759 4.5517e-07
0.000209759 -9.83231e-06 5.09713e-08
4.5517e-07 5.09713e-08 -1.35544e-05
0.00221049 0.00013883 -8.39769e-07
0.00013883 -1.54453e-05 5.20495e-07
-8.39769e-07 5.20495e-07 2.14504e-05
0.00218717 0.00042377 6.95915e-07
0.00042377 4.1295e-05 3.85442e-07
6.95915e-07 3.85442e-07 -3.97243e-05
0.00235831 0.000324864 1.64338e-07
0.000324864 1.69967e-05 -1.68215e-07
1.64338e-07 -1.68215e-07 2.93032e-05
0.0019893 -6.06491e-05 -1.81181e-06
-6.06491e-05 7.78792e-05 2.2168e-08
-1.81181e-06 2.2168e-08 -3.30837e-06
0.00202403 -0.000226686 -7.05398e-07
-0.000226686 9.43565e-05 -6.86296e-07
-7.05398e-07 -6.86296e-07 -1.54149e-05
0.0021968 -0.000146026 -4.06594e-06
-0.000146026 7.92198e-05 1.49251e-07
-4.06594e-06 1.49251e-07 4.83646e-05
0.00201919 -0.000308038 -4.66657e-06
-0.000308038 1.03842e-05 8.87375e-07
-4.66657e-06 8.87375e-07 -8.03825e-05
0.000663685 -0.000284583 -1.19517e-05
-0.000284583 1.0056e-05 7.90057e-06
-1.19517e-05 7.90057e-06 -0.000272139
0.00162532 -0.000620514 -1.50928e-05
-0.000620514 0.000398973 5.52982e-07
-1.50928e-05 5.52982e-07 -3.55112e-05
0.00179407 -0.000733731 -3.49904e-07
-0.000733731 0.000246941 -4.25765e-06
-3.49904e-07 -4.25765e-06 -0.000194513
0.00201954 -0.000476694 -3.3715e-06
-0.000476694 0.000114322 -2.54978e-08
-3.3715e-06 -2.54978e-08 -7.29525e-05
0.00215968 -0.000430787 -1.90292e-06
-0.000430787 4.54819e-05 8.93677e-08
-1.90292e-06 8.93677e-08 -2.0975e-05
0.00207272 -0.000572933 -8.32776e-07
-0.000572933 0.000130833 2.47721e-07
-8.32776e-07 2.47721e-07 -6.70928e-05
0.00214957 -0.000690091 -1.41252e-06
-0.000690091 0.000293193 -4.82748e-06
-1.41252e-06 -4.82748e-06 -3.00567e-05
0.00223102 -0.000634811 3.57503e-06
-0.000634811 0.000297901 -2.32221e-06
3.57503e-06 -2.32221e-06 6.30431e-05
0.000754513 -0.000351553 -4.95647e-07
-0.000351553 8.24502e-05 5.51797e-07
-4.95647e-07 5.51797e-07 -0.000264683
0.000674502 -0.00032389 -4.62849e-06
-0.00032389 4.1884e-05 3.39838e-06
-4.62849e-06 3.39838e-06 -0.000309512
0.000737928 -0.000168327 -3.11941e-06
-0.000168327 0.000202517 4.04326e-06
-3.11941e-06 4.04326e-06 -2.03861e-05
-7.35438e-05 -0.000164612 -3.66822e-07
-0.000164612 -0.000371509 -1.21736e-06
-3.66822e-07 -1.21736e-06 -0.000619429
0.00217767 -8.0313e-05 -1.39967e-07
-8.0313e-05 8.3241e-05 2.44169e-08
-1.39967e-07 2.44169e-08 5.26691e-05
0.00207604 -0.000235857 2.2397e-06
-0.000235857 -4.01767e-06 -5.22472e-07
2.2397e-06 -5.22472e-07 -6.32587e-05
0.00207274 -0.000135324 6.49602e-07
-0.000135324 2.53163e-06 -2.83354e-07
6.49602e-07 -2.83354e-07 6.29696e-06
0.00218292 -0.000345152 -4.2951e-07
-0.000345152 2.86482e-05 9.50891e-08
-4.2951e-07 9.50891e-08 2.12432e-06
0.00139316 -0.00049294 -3.23513e-06
-0.00049294 0.000371493 1.96379e-07
-3.23513e-06 1.96379e-07 -1.80912e-05
0.00175776 -0.000786059 2.36088e-06
-0.000786059 0.000397908 3.28829e-08
2.36088e-06 3.28829e-08 -0.00010993
0.00220713 -0.000832552 -6.89306e-07
-0.000832552 0.000434325 5.71493e-07
-6.89306e-07 5.71493e-07 -1.76411e-05
0.00217268 -0.000513805 -1.16314e-06
-0.000513805 0.000135913 3.6669e-07
-1.16314e-06 3.6669e-07 -5.49798e-06
0.00223012 -0.000452629 9.71831e-07
-0.000452629 4.44851e-05 -4.2304e-07
9.71831e-07 -4.2304e-07 -4.89141e-06
0.0022587 -0.000700561 -8.13857e-07
-0.000700561 0.000367263 7.8418e-07
-8.13857e-07 7.8418e-07 5.50735e-05
0.00216955 -0.000623707 -1.05072e-06
-0.000623707 0.000139894 7.91635e-07
-1.05072e-06 7.91635e-07 -3.03451e-05
0.00223516 -0.000681997 4.98098e-06
-0.000681997 0.000249245 -4.15097e-06
4.98098e-06 -4.15097e-06 6.22463e-06
0.00140841 -0.000546364 -3.36575e-07
-0.000546364 0.000455643 -1.59569e-06
-3.36575e-07 -1.59569e-06 2.27104e-05
0.00132124 -0.000489266 3.37469e-06
-0.000489266 0.000479799 2.68007e-06
3.37469e-06 2.68007e-06 4.63095e-05
0.000926585 -0.000233855 2.22311e-07
-0.000233855 0.000258735 -4.94739e-06
2.22311e-07 -4.94739e-06 -3.54749e-05
0.000178099 -0.000114971 -2.77799e-06
-0.000114971 -0.00014305 1.05524e-06
-2.77799e-06 1.05524e-06 -0.000327635
0.000112949 -0.000163664 -1.57535e-06
-0.000163664 -0.000160883 -7.91366e-07
-1.57535e-06 -7.91366e-07 -0.000486367
0.00207303 -8.03653e-05 2.4459e-06
-8.03653e-05 -1.36405e-05 -4.00294e-07
2.4459e-06 -4.00294e-07 2.74429e-06
0.00213674 -0.000207678 1.14439e-06
-0.000207678 -1.00994e-05 -4.23221e-07
1.14439e-06 -4.23221e-07 -3.37271e-06
0.00227745 -0.000414733 -3.54125e-07
-0.000414733 -2.04023e-05 4.36862e-07
-3.54125e-07 4.36862e-07 -1.54502e-05
0.00223644 -0.000539177 1.08423e-06
-0.000539177 6.95147e-05 -2.05233e-08
1.08423e-06 -2.05233e-08 -4.05587e-06
0.00150822 -0.000677247 -1.56702e-07
-0.000677247 0.000426085 3.16542e-06
-1.56702e-07 3.16542e-06 -6.62796e-05
0.0024549 -0.000750733 -7.65383e-06
-0.000750733 0.000218391 -2.48864e-06
-7.65383e-06 -2.48864e-06 1.61108e-05
0.00152457 -0.00085031 -1.63443e-05
-0.00085031 0.000253575 7.74881e-06
-1.63443e-05 7.74881e-06 -0.000287168
0.00243635 -0.000905121 -7.01027e-07
-0.000905121 0.000544119 2.91995e-06
-7.01027e-07 2.91995e-06 7.80918e-05
0.00199876 -0.000671772 -8.16122e-06
-0.000671772 0.000192992 -2.04101e-07
-8.16122e-06 -2.04101e-07 -0.00010157
1.87582e-05 -5.24526e-05 -1.94817e-06
-5.24526e-05 -0.000232103 -7.46798e-06
-1.94817e-06 -7.46798e-06 -0.000367725
0.00114637 -0.000245614 -3.65693e-06
-0.000245614 0.000584489 -1.22024e-06
-3.65693e-06 -1.22024e-06 0.00024997
0.00288874 -0.000232791 -1.34002e-06
-0.000232791 0.00153858 -2.96866e-06
-1.34002e-06 -2.96866e-06 0.00121065
0.00202968 -0.000689437 -5.89589e-06
-0.000689437 0.000835401 6.41271e-07
-5.89589e-06 6.41271e-07 0.0003434
0.000848272 -0.00035726 1.28288e-05
-0.00035726 0.000147628 -2.12745e-06
1.28288e-05 -2.12745e-06 -0.000225143
0.00148044 -0.000566043 -3.48772e-06
-0.000566043 0.000568951 1.15445e-05
-3.48772e-06 1.15445e-05 8.47806e-05
0.000402158 7.86956e-06 -3.5527e-06
7.86956e-06 -4.60509e-05 -1.10709e-05
-3.5527e-06 -1.10709e-05 -9.49525e-05
0.000172647 6.76503e-05 -7.29234e-07
6.76503e-05 -0.000157414 -7.74168e-06
-7.29234e-07 -7.74168e-06 -0.000313603
0.002183 0.000497707 -3.67159e-06
0.000497707 0.00018048 -7.55883e-07
-3.67159e-06 -7.55883e-07 -9.66115e-06
-0.000415634 3.73992e-05 -1.08556e-06
3.73992e-05 -0.000515659 1.16865e-06
-1.08556e-06 1.16865e-06 -0.000789412
0.00195804 0.000415133 7.46366e-06
0.000415133 0.000858251 -2.84151e-06
7.46366e-06 -2.84151e-06 0.000565625
0.000325781 0.000146557 -6.28165e-06
0.000146557 -0.000218314 -2.18737e-06
-6.28165e-06 -2.18737e-06 -0.00046787
0.00213257 0.000637779 2.47549e-06
0.000637779 0.000297241 2.30775e-06
2.47549e-06 2.30775e-06 2.54647e-06
0.00214335 0.000620293 3.51067e-06
0.000620293 0.000215595 1.1447e-06
3.51067e-06 1.1447e-06 -2.82093e-05
0.00162354 0.000689102 4.77719e-06
0.000689102 0.000505309 3.71436e-06
4.77719e-06 3.71436e-06 8.05737e-06
0.00246409 0.000817702 -4.51134e-06
0.000817702 0.000761692 5.96533e-06
-4.51134e-06 5.96533e-06 0.000313023
0.00229413 0.000739674 4.10171e-06
0.000739674 0.000369023 3.86877e-06
4.10171e-06 3.86877e-06 3.0626e-05
0.000637643 8.52188e-05 4.33201e-07
8.52188e-05 0.000122153 4.05379e-07
4.33201e-07 4.05379e-07 -1.45476e-06
0.000732361 0.000147088 -1.25018e-06
0.000147088 0.000259008 5.45032e-08
-1.25018e-06 5.45032e-08 1.05764e-05
0.00102581 0.000490173 6.26335e-07
0.000490173 0.000238526 1.22502e-06
6.26335e-07 1.22502e-06 -0.000148625
0.000663964 8.2695e-05 1.24114e-07
8.2695e-05 3.75995e-05 -5.67564e-07
1.24114e-07 -5.67564e-07 -0.000209684
0.00128286 0.00033999 3.79245e-06
0.00033999 0.000282123 -4.81705e-06
3.79245e-06 -4.81705e-06 -7.2729e-06
0.00216358 0.000528565 -2.26003e-06
0.000528565 0.000126611 -1.23195e-06
-2.26003e-06 -1.23195e-06 -4.67352e-05
0.0022278 0.000702934 2.41633e-06
0.000702934 0.00030936 6.96777e-07
2.41633e-06 6.96777e-07 1.0664e-05
0.00215257 0.000680721 1.24627e-06
0.000680721 0.000166321 1.46198e-07
1.24627e-06 1.46198e-07 -8.7356e-05
0.00160199 0.000784002 2.15529e-06
0.000784002 0.000490641 9.38811e-07
2.15529e-06 9.38811e-07 -4.19721e-05
0.0019248 0.000793587 -2.00045e-06
0.000793587 0.000314905 -2.26748e-06
-2.00045e-06 -2.26748e-06 -0.000101689
0.0013354 0.00021421 1.55091e-06
0.00021421 0.000619209 2.45108e-06
1.55091e-06 2.45108e-06 0.000423254
-0.000358125 5.25843e-05 -1.27321e-07
5.25843e-05 -0.00041512 6.2175e-08
-1.27321e-07 6.2175e-08 -0.000708451
0.00142885 0.000610027 1.79213e-06
0.000610027 0.000496054 -5.00684e-06
1.79213e-06 -5.00684e-06 4.20342e-05
-0.00027656 0.000174589 6.39184e-06
0.000174589 -0.00070956 3.49052e-06
6.39184e-06 3.49052e-06 -0.000955361
0.00257302 0.000662426 2.61866e-06
0.000662426 0.0010398 -4.08635e-06
2.61866e-06 -4.08635e-06 0.000646077
0.00231036 0.000602944 -2.82732e-06
0.000602944 0.000103842 -5.11057e-07
-2.82732e-06 -5.11057e-07 -2.04733e-05
0.00225878 0.000762001 8.81735e-06
0.000762001 0.000283171 -3.28589e-06
8.81735e-06 -3.28589e-06 -5.12578e-05
0.00217441 0.000708989 7.1028e-06
0.000708989 0.000120803 8.20222e-07
7.1028e-06 8.20222e-07 -0.000152283
0.00193197 0.000846923 1.5078e-05
0.000846923 0.000631413 5.76018e-07
1.5078e-05 5.76018e-07 9.80082e-05
0.00220246 0.0009206 7.25205e-06
0.0009206 0.00051369 -4.00082e-07
7.25205e-06 -4.00082e-07 3.96314e-05
0.000554711 5.21809e-05 2.5733e-07
5.21809e-05 7.78622e-05 -6.96911e-06
2.5733e-07 -6.96911e-06 -2.93753e-05
0.000652761 0.000130203 8.92272e-07
0.000130203 0.000166667 -1.04674e-06
8.92272e-07 -1.04674e-06 1.15593e-05
0.000141113 9.71126e-05 -2.0492e-06
9.71126e-05 -0.000159003 -3.99215e-06
-2.0492e-06 -3.99215e-06 -0.000286483
-0.000321037 -2.15088e-05 3.25354e-06
-2.15088e-05 -0.000437695 -2.72814e-06
3.25354e-06 -2.72814e-06 -0.000580017
0.00055564 8.61184e-05 -1.24098e-06
8.61184e-05 0.000140687 4.01721e-07
-1.24098e-06 4.01721e-07 -6.51199e-06
0.000339773 0.000105169 1.37966e-06
0.000105169 5.57642e-06 -2.80248e-07
1.37966e-06 -2.80248e-07 -0.00015708
0.000570745 0.000164196 -1.67701e-06
0.000164196 0.000148122 -9.17303e-06
-1.67701e-06 -9.17303e-06 -4.93572e-06
0.000336203 4.04232e-05 -3.88644e-06
4.04232e-05 2.37964e-05 1.21297e-06
-3.88644e-06 1.21297e-06 -0.000150212
0.000682148 0.000113519 -4.29537e-08
0.000113519 0.000202916 2.3804e-06
-4.29537e-08 2.3804e-06 7.59242e-05
0.000518526 8.28818e-05 2.68066e-06
8.28818e-05 7.11225e-05 4.30907e-06
2.68066e-06 4.30907e-06 -1.43175e-05
0.000479204 3.06646e-05 -2.7989e-06
3.06646e-05 4.00976e-05 9.62813e-08
-2.7989e-06 9.62813e-08 -4.17912e-05
0.00131578 7.08358e-06 2.45738e-06
7.08358e-06 0.000539523 4.03143e-06
2.45738e-06 4.03143e-06 0.000517117
0.000333235 -7.50678e-05 4.78033e-06
-7.50678e-05 -4.33476e-05 -4.76025e-06
4.78033e-06 -4.76025e-06 -0.00013531
0.00138668 -1.52172e-06 -9.18971e-06
-1.52172e-06 0.000581412 -1.75225e-06
-9.18971e-06 -1.75225e-06 0.00055828
0.000732483 -2.00718e-05 3.54382e-05
-2.00718e-05 0.000155202 9.81096e-06
3.54382e-05 9.81096e-06 0.000159024
0.00144772 -5.45575e-06 -1.71402e-05
-5.45575e-06 0.000619359 -9.04602e-06
-1.71402e-05 -9.04602e-06 0.000592988
0.000738963 -3.65815e-05 1.55133e-05
-3.65815e-05 0.000160652 3.87705e-06
1.55133e-05 3.87705e-06 0.000157662
0.00293743 -0.000128685 1.01014e-06
-0.000128685 0.00158905 -3.75797e-06
1.01014e-06 -3.75797e-06 0.00158285
0.000281242 7.36566e-05 -5.06663e-06
7.36566e-05 -8.52912e-05 -7.69823e-06
-5.06663e-06 -7.69823e-06 -0.000137354
0.000388537 -1.67976e-05 -3.90218e-06
-1.67976e-05 -2.91137e-05 5.09682e-07
-3.90218e-06 5.09682e-07 -9.01312e-05
0.00336238 0.000187484 -1.68842e-05
0.000187484 0.00190046 -9.70895e-06
-1.68842e-05 -9.70895e-06 0.00187748
0.000636718 -0.000119362 -1.57295e-05
-0.000119362 0.000109654 1.37198e-05
-1.57295e-05 1.37198e-05 2.46604e-05
0.00451101 0.000152786 -4.167e-05
0.000152786 0.00263551 -4.36547e-08
-4.167e-05 -4.36547e-08 0.00261769
0.00550394 0.000124224 -0.000180414
0.000124224 0.00328316 2.62054e-05
-0.000180414 2.62054e-05 0.00326743
0.00222427 0.000425801 -3.48632e-06
0.000425801 0.000150023 2.55087e-07
-3.48632e-06 2.55087e-07 8.78658e-06
0.00221254 0.000226359 -5.20608e-06
0.000226359 8.02681e-05 -8.15416e-07
-5.20608e-06 -8.15416e-07 3.78523e-05
0.00217737 0.000313368 -9.05239e-08
0.000313368 -1.90099e-05 -1.07613e-07
-9.05239e-08 -1.07613e-07 -3.4122e-05
0.00207039 0.000134623 -2.39921e-07
0.000134623 -3.87026e-05 -3.54027e-07
-2.39921e-07 -3.54027e-07 -2.985e-05
0.00214828 5.68801e-05 -6.27022e-06
5.68801e-05 5.06481e-05 -1.40463e-07
-6.27022e-06 -1.40463e-07 3.04025e-05
0.00195212 1.92164e-06 -3.20724e-06
1.92164e-06 5.07903e-05 1.63134e-07
-3.20724e-06 1.63134e-07 -2.75636e-05
0.00214997 -8.9757e-06 1.2029e-07
-8.9757e-06 5.99596e-05 4.32598e-08
1.2029e-07 4.32598e-08 3.57015e-05
0.00210809 5.87549e-05 1.1276e-06
5.87549e-05 8.19665e-06 3.42556e-09
1.1276e-06 3.42556e-09 2.22602e-05
0.00216257 0.000210102 -3.22063e-07
0.000210102 6.34903e-06 -9.18645e-08
-3.22063e-07 -9.18645e-08 2.86691e-06
0.00218488 0.000139457 5.52229e-07
0.000139457 -3.70193e-05 1.07818e-07
5.52229e-07 1.07818e-07 6.86455e-06
0.00220707 0.000423787 -4.27002e-07
0.000423787 6.23124e-05 2.74837e-07
-4.27002e-07 2.74837e-07 -2.04602e-05
0.00230627 0.000326959 2.38738e-06
0.000326959 -1.71455e-05 5.4345e-07
2.38738e-06 5.4345e-07 1.8001e-06
0.00206626 -1.44612e-05 2.65922e-06
-1.44612e-05 -1.33231e-05 -3.32485e-08
2.65922e-06 -3.32485e-08 -2.38432e-06
0.00219074 6.7275e-05 -1.64499e-06
6.7275e-05 -4.25795e-05 1.11727e-07
-1.64499e-06 1.11727e-07 1.47934e-05
0.00227636 0.000214348 -3.68726e-06
0.000214348 -2.56525e-05 -5.30433e-07
-3.68726e-06 -5.30433e-07 1.63625e-05
0.00239865 0.000460067 -2.68202e-06
0.000460067 2.65169e-05 -6.27005e-07
-2.68202e-06 -6.27005e-07 2.8901e-05
0.00218267 -8.0604e-05 -7.52027e-06
-8.0604e-05 8.59146e-05 4.15953e-07
-7.52027e-06 4.15953e-07 5.52153e-05
0.0021103 -0.000240801 -3.32332e-06
-0.000240801 2.46164e-05 3.76386e-07
-3.32332e-06 3.76386e-07 -3.61454e-05
0.0020485 -0.000134995 -3.13252e-06
-0.000134995 -1.98181e-05 3.66189e-07
-3.13252e-06 3.66189e-07 -1.41848e-05
0.0021526 -0.000343044 -4.21549e-06
-0.000343044 1.63911e-05 4.165e-07
-4.21549e-06 4.165e-07 -1.69604e-05
0.00107338 -0.00046561 -6.25639e-06
-0.00046561 0.000156462 -6.89672e-08
-6.25639e-06 -6.89672e-08 -0.000227819
0.00176897 -0.000782622 9.41345e-06
-0.000782622 0.000414675 -7.4959e-06
9.41345e-06 -7.4959e-06 -9.32215e-05
0.00219239 -0.000849159 -2.23218e-06
-0.000849159 0.000419915 -4.16556e-06
-2.23218e-06 -4.16556e-06 -4.22805e-05
0.0021626 -0.000508988 -4.20966e-06
-0.000508988 0.000138575 8.52485e-07
-4.20966e-06 8.52485e-07 -7.44324e-06
0.00218359 -0.000450739 4.86363e-07
-0.000450739 1.55801e-05 1.73503e-08
4.86363e-07 1.73503e-08 -2.82779e-05
0.00215502 -0.000626141 -8.79475e-07
-0.000626141 0.000120988 1.22964e-06
-8.79475e-07 1.22964e-06 -4.9341e-05
0.00218571 -0.000688991 -4.72843e-06
-0.000688991 0.000333508 -2.23361e-06
-4.72843e-06 -2.23361e-06 2.49686e-05
0.00229757 -0.000684639 1.00511e-05
-0.000684639 0.000286378 -3.65891e-06
1.00511e-05 -3.65891e-06 4.56339e-05
0.00119686 -0.000515402 -1.11792e-05
-0.000515402 0.000350081 -1.44232e-07
-1.11792e-05 -1.44232e-07 -7.72117e-05
0.000797126 -0.000438236 6.38657e-06
-0.000438236 0.000128832 -6.0992e-06
6.38657e-06 -6.0992e-06 -0.00028983
0.00233263 -0.000303719 -4.39908e-06
-0.000303719 0.0011099 -4.04731e-06
-4.39908e-06 -4.04731e-06 0.00082289
-2.20868e-05 -8.58223e-05 1.79383e-06
-8.58223e-05 -0.000270285 5.72448e-06
1.79383e-06 5.72448e-06 -0.000454626
-0.000165679 -0.000165899 2.4932e-06
-0.000165899 -0.000332475 -3.19968e-06
2.4932e-06 -3.19968e-06 -0.000651778
0.00205787 -8.82452e-05 1.27853e-07
-8.82452e-05 -2.46074e-05 -1.04801e-07
1.27853e-07 -1.04801e-07 -9.48671e-06
0.0021457 -0.000208297 1.66407e-06
-0.000208297 -8.29478e-06 2.00916e-08
1.66407e-06 2.00916e-08 -1.9557e-06
0.00226178 -0.000407325 -7.03676e-07
-0.000407325 -1.25517e-05 1.30792e-07
-7.03676e-07 1.30792e-07 -1.48435e-05
0.00172304 -0.000693416 -1.6701e-06
-0.000693416 0.000556552 -4.02965e-07
-1.6701e-06 -4.02965e-07 6.38145e-05
0.00154665 -0.00083191 4.20111e-06
-0.00083191 0.000271177 -5.55532e-07
4.20111e-06 -5.55532e-07 -0.000261269
0.00229411 -0.000904121 -1.18841e-06
-0.000904121 0.000461579 -4.22158e-08
-1.18841e-06 -4.22158e-08 -9.55785e-06
0.00223658 -0.000535196 5.02834e-07
-0.000535196 7.43565e-05 -9.5394e-08
5.02834e-07 -9.5394e-08 -1.62811e-06
0.00217225 -0.000708769 3.04423e-06
-0.000708769 0.00026983 -4.37911e-06
3.04423e-06 -4.37911e-06 -2.87068e-05
0.00237448 -0.000728369 -9.78033e-07
-0.000728369 0.000201798 -4.19837e-07
-9.78033e-07 -4.19837e-07 7.21219e-06
-0.000173609 2.87887e-05 -2.09384e-06
2.87887e-05 -0.000370182 -6.38495e-07
-2.09384e-06 -6.38495e-07 -0.000491399
0.00142965 -0.000600948 -4.04098e-07
-0.000600948 0.000493085 -1.63014e-06
-4.04098e-07 -1.63014e-06 1.33087e-05
0.00119485 -0.000537899 -4.90992e-06
-0.000537899 0.000404103 -1.38012e-06
-4.90992e-06 -1.38012e-06 -9.61191e-05
0.00124266 -0.000348939 -4.4301e-06
-0.000348939 0.000418329 4.05156e-06
-4.4301e-06 4.05156e-06 3.45744e-05
0.00170823 -0.000395973 1.63083e-06
-0.000395973 0.000816809 -1.86001e-06
1.63083e-06 -1.86001e-06 0.000463961
0.000464172 -0.000125429 -4.58164e-07
-0.000125429 0.00013536 1.0332e-06
-4.58164e-07 1.0332e-06 -0.000182077
0.00215203 -0.000110523 -1.16456e-06
-0.000110523 -4.98956e-05 -1.495e-07
-1.16456e-06 -1.495e-07 -3.93779e-06
0.00231499 -0.000280617 -1.40014e-06
-0.000280617 -5.89738e-05 9.63771e-07
-1.40014e-06 9.63771e-07 6.30038e-06
0.00234046 -0.000502674 2.70522e-07
-0.000502674 -1.44386e-05 5.39145e-07
2.70522e-07 5.39145e-07 8.79244e-07
0.00237749 -0.000645661 -6.3176e-07
-0.000645661 5.43157e-05 -1.31619e-06
-6.3176e-07 -1.31619e-06 2.1173e-06
0.00194967 -0.000800946 -8.38284e-06
-0.000800946 0.000694323 3.64782e-06
-8.38284e-06 3.64782e-06 0.000155908
0.00246185 -0.000848145 -1.0013e-05
-0.000848145 0.000322213 -5.06666e-06
-1.0013e-05 -5.06666e-06 3.68481e-05
0.00191458 -0.00096373 -5.08437e-05
-0.00096373 0.000483225 8.94996e-06
-5.08437e-05 8.94996e-06 -9.60042e-05
0.00219113 -0.000940419 -2.76854e-05
-0.000940419 0.000418525 4.08552e-06
-2.76854e-05 4.08552e-06 -6.44506e-05
-0.00022063 4.53235e-05 -6.0087e-06
4.53235e-05 -0.000402461 -4.71239e-06
-6.0087e-06 -4.71239e-06 -0.000491661
0.00106143 -1.17783e-05 -2.94544e-06
-1.17783e-05 0.000496686 -1.25364e-06
-2.94544e-06 -1.25364e-06 0.000269406
0.00229826 -0.000430153 -8.27783e-06
-0.000430153 0.00132081 4.10896e-07
-8.27783e-06 4.10896e-07 0.000951463
0.000365428 -0.000235673 -8.75455e-07
-0.000235673 -5.76711e-05 -9.56126e-06
-8.75455e-07 -9.56126e-06 -0.000418257
0.00306724 -0.000834995 -1.09913e-05
-0.000834995 0.00147923 1.4348e-05
-1.09913e-05 1.4348e-05 0.000940246
0.0017181 -0.000603536 6.25395e-06
-0.000603536 0.000733879 1.23613e-05
6.25395e-06 1.23613e-05 0.000172827
0.000540623 7.29945e-05 -5.03367e-07
7.29945e-05 6.09901e-05 -7.53174e-06
-5.03367e-07 -7.53174e-06 -5.93361e-05
-0.00056942 4.73264e-05 1.20383e-06
4.73264e-05 -0.000568018 3.99475e-07
1.20383e-06 3.99475e-07 -0.000805019
0.00216043 0.000530593 -1.19854e-06
0.000530593 0.000135698 -8.56615e-07
-1.19854e-06 -8.56615e-07 -3.97274e-05
0.000277773 6.09127e-05 -4.41262e-06
6.09127e-05 -0.00019941 1.99704e-06
-4.41262e-06 1.99704e-06 -0.000445795
0.00134032 0.000537026 3.32507e-06
0.000537026 0.000418224 -4.93006e-06
3.32507e-06 -4.93006e-06 1.28896e-05
-0.000226226 0.000148017 -7.73513e-06
0.000148017 -0.000677127 -7.5485e-06
-7.73513e-06 -7.5485e-06 -0.00091088
0.00228347 0.00070912 4.82693e-06
0.00070912 0.00033354 1.91378e-06
4.82693e-06 1.91378e-06 3.34702e-05
0.00215466 0.000678548 -3.52764e-06
0.000678548 0.000157627 6.54689e-07
-3.52764e-06 6.54689e-07 -9.4901e-05
0.00212693 0.000863267 -5.34225e-06
0.000863267 0.000790173 4.88458e-06
-5.34225e-06 4.88458e-06 0.000243103
0.00199073 0.000803638 -8.10804e-06
0.000803638 0.000386486 2.11535e-06
-8.10804e-06 2.11535e-06 -3.90013e-05
0.000845164 0.000163488 -9.22564e-07
0.000163488 0.000299725 -2.00361e-07
-9.22564e-07 -2.00361e-07 0.000115721
0.000413606 0.000161078 2.20936e-06
0.000161078 6.8589e-05 -7.18634e-07
2.20936e-06 -7.18634e-07 -0.000237696
0.00130206 0.000585147 -3.39749e-06
0.000585147 0.000415085 -1.05672e-06
-3.39749e-06 -1.05672e-06 -3.04949e-05
0.00152471 0.000254967 -1.88164e-06
0.000254967 0.000418514 1.40529e-06
-1.88164e-06 1.40529e-06 0.000170747
0.0023133 0.000585401 2.94659e-07
0.000585401 0.000857678 -2.24237e-06
2.94659e-07 -2.24237e-06 0.000486871
0.00236498 0.000613727 -2.44831e-06
0.000613727 0.000120287 -7.54202e-07
-2.44831e-06 -7.54202e-07 -7.33861e-06
0.00242808 0.000760562 2.94116e-06
0.000760562 0.000394896 -7.74875e-07
2.94116e-06 -7.74875e-07 6.95971e-05
0.00245142 0.00073891 1.03941e-06
0.00073891 0.000287782 2.70285e-06
1.03941e-06 2.70285e-06 9.80265e-06
0.00180498 0.00084113 4.74403e-06
0.00084113 0.000551291 1.29808e-06
4.74403e-06 1.29808e-06 1.3831e-05
0.00216931 0.000951758 -4.94968e-06
0.000951758 0.000496858 8.5643e-07
-4.94968e-06 8.5643e-07 1.98474e-06
-0.00159438 2.6969e-05 -6.3341e-06
2.6969e-05 -0.00122664 3.59659e-06
-6.3341e-06 3.59659e-06 -0.0014021
-0.00182043 0.000106513 -6.97234e-07
0.000106513 -0.0012825 -4.81761e-08
-6.97234e-07 -4.81761e-08 -0.00162701
0.00173288 0.000680332 6.87791e-06
0.000680332 0.000612484 -3.61546e-06
6.87791e-06 -3.61546e-06 0.000143297
0.00169751 0.000454217 6.45271e-06
0.000454217 0.000440216 3.45526e-07
6.45271e-06 3.45526e-07 0.000128319
0.00258367 0.000605789 7.50133e-07
0.000605789 -7.33667e-05 5.12995e-07
7.50133e-07 5.12995e-07 -1.24035e-05
0.00261348 0.000740706 6.30416e-06
0.000740706 0.000289774 8.91482e-07
6.30416e-06 8.91482e-07 8.42213e-05
0.00245102 0.000904602 8.41934e-06
0.000904602 0.000416942 -4.42065e-06
8.41934e-06 -4.42065e-06 -7.47204e-06
0.00169505 0.000927896 5.34898e-06
0.000927896 0.000330629 -1.11159e-06
5.34898e-06 -1.11159e-06 -0.000233359
0.00114649 0.000175733 8.84536e-07
0.000175733 0.000498917 -1.44314e-06
8.84536e-07 -1.44314e-06 0.000325564
0.000450104 0.000174809 -2.92167e-06
0.000174809 5.9957e-05 -2.66876e-07
-2.92167e-06 -2.66876e-07 -8.67851e-05
0.00118133 0.000139015 -9.75354e-06
0.000139015 0.000534487 -5.71758e-06
-9.75354e-06 -5.71758e-06 0.000425404
0.000359385 5.28186e-05 4.11355e-07
5.28186e-05 -9.99007e-06 -2.62743e-06
4.11355e-07 -2.62743e-06 -0.00013663
-0.000830825 5.49944e-05 3.27843e-07
5.49944e-05 -0.000718814 1.07071e-06
3.27843e-07 1.07071e-06 -0.000876631
0.000667035 6.71336e-05 -8.06492e-07
6.71336e-05 0.000195334 3.2764e-08
-8.06492e-07 3.2764e-08 6.63112e-05
0.00059891 0.000182909 1.59581e-06
0.000182909 0.000198814 1.20763e-06
1.59581e-06 1.20763e-06 3.9292e-05
0.000548373 9.06239e-05 7.33869e-07
9.06239e-05 0.000179899 1.14539e-06
7.33869e-07 1.14539e-06 -1.17771e-05
0.000617243 0.000145285 2.83643e-06
0.000145285 0.000123505 -8.95504e-06
2.83643e-06 -8.95504e-06 3.55511e-05
0.000688796 4.91804e-05 7.97122e-07
4.91804e-05 0.000257279 -5.80687e-06
7.97122e-07 -5.80687e-06 7.29721e-05
-4.88839e-05 7.53142e-05 -4.27878e-07
7.53142e-05 -0.000229653 2.99543e-06
-4.27878e-07 2.99543e-06 -0.000394405
0.000686446 0.000126063 2.30415e-06
0.000126063 0.000204364 4.15538e-06
2.30415e-06 4.15538e-06 7.27919e-05
0.000444933 8.76726e-05 2.77628e-06
8.76726e-05 3.02476e-05 4.13644e-06
2.77628e-06 4.13644e-06 -6.11409e-05
0.000433904 2.05389e-05 -1.5671e-06
2.05389e-05 1.36705e-05 -4.15362e-07
-1.5671e-06 -4.15362e-07 -6.91285e-05
0.00125447 1.28975e-05 9.59471e-07
1.28975e-05 0.000505691 3.40032e-06
9.59471e-07 3.40032e-06 0.000483604
0.0004188 -4.11243e-05 1.11287e-06
-4.11243e-05 -2.453e-06 -3.67764e-06
1.11287e-06 -3.67764e-06 -8.12772e-05
0.00133052 -7.40546e-07 -8.88443e-06
-7.40546e-07 0.00054852 -1.74703e-06
-8.88443e-06 -1.74703e-06 0.00052723
0.000686342 -1.021e-05 3.2521e-05
-1.021e-05 0.000128612 9.88065e-06
3.2521e-05 9.88065e-06 0.000133226
0.0013686 -2.41953e-05 -1.1553e-05
-2.41953e-05 0.000570345 -7.7522e-06
-1.1553e-05 -7.7522e-06 0.000548088
0.00073298 -2.60298e-05 1.345e-05
-2.60298e-05 0.000153705 3.71538e-06
1.345e-05 3.71538e-06 0.000155197
0.000742273 -4.07217e-05 1.67846e-06
-4.07217e-05 0.000162437 -4.11325e-06
1.67846e-06 -4.11325e-06 0.00015752
0.000339621 4.8843e-05 -2.44193e-06
4.8843e-05 -7.40964e-05 -5.77753e-06
-2.44193e-06 -5.77753e-06 -0.000107542
0.000400643 6.63061e-05 -1.2902e-06
6.63061e-05 -1.54321e-05 1.47947e-07
-1.2902e-06 1.47947e-07 -6.54303e-05
0.0027347 0.000137898 -3.97676e-06
0.000137898 0.00148101 -7.05488e-06
-3.97676e-06 -7.05488e-06 0.00147197
0.000450666 -2.19182e-05 -1.00604e-05
-2.19182e-05 1.02256e-05 1.18948e-05
-1.00604e-05 1.18948e-05 -5.39069e-05
0.00353975 0.000165361 -2.42896e-05
0.000165361 0.00200536 -2.1759e-06
-2.42896e-05 -2.1759e-06 0.00198674
0.00459791 8.20702e-05 -0.000158782
8.20702e-05 0.00268331 1.983e-05
-0.000158782 1.983e-05 0.00268207
0.00222343 0.000423358 -4.78444e-07
0.000423358 8.17372e-05 2.24534e-07
-4.78444e-07 2.24534e-07 -2.64446e-06
0.0021803 0.000210695 -2.05415e-06
0.000210695 2.15918e-05 -8.3874e-07
-2.05415e-06 -8.3874e-07 1.83999e-05
0.00225284 0.000328633 2.65962e-06
0.000328633 -5.2598e-05 1.64971e-06
2.65962e-06 1.64971e-06 -2.70275e-05
0.00215235 0.000140164 2.67281e-06
0.000140164 -6.37702e-05 -1.14589e-07
2.67281e-06 -1.14589e-07 -1.22968e-05
0.00209871 6.03731e-05 -2.79747e-06
6.03731e-05 4.88977e-06 -3.40116e-07
-2.79747e-06 -3.40116e-07 1.54755e-05
0.00217266 -1.22168e-05 -8.02878e-06
-1.22168e-05 7.99286e-05 1.195e-07
-8.02878e-06 1.195e-07 5.35386e-05
0.002077 -1.31507e-05 2.65073e-07
-1.31507e-05 -5.41033e-06 -3.7255e-09
2.65073e-07 -3.7255e-09 6.4426e-06
0.00217213 7.0212e-05 9.90832e-07
7.0212e-05 -5.06637e-05 5.72799e-08
9.90832e-07 5.72799e-08 5.0891e-06
0.00225389 0.00022046 1.01699e-06
0.00022046 -4.34044e-05 2.10434e-07
1.01699e-06 2.10434e-07 2.67522e-06
0.00237146 0.000446634 5.10188e-07
0.000446634 2.90832e-06 1.62914e-07
5.10188e-07 1.62914e-07 8.54513e-06
0.00213854 -1.68588e-05 -2.13329e-06
-1.68588e-05 -6.26988e-05 -9.52575e-08
-2.13329e-06 -9.52575e-08 -1.27526e-05
0.00229825 0.000120133 -6.0643e-06
0.000120133 -8.7485e-05 -2.15634e-07
-6.0643e-06 -2.15634e-07 1.29027e-05
0.00252647 0.000334851 -3.13481e-06
0.000334851 -1.6426e-05 -1.48725e-06
-3.13481e-06 -1.48725e-06 5.79894e-05
0.00204204 -9.60305e-05 -1.95757e-06
-9.60305e-05 -3.59391e-05 3.39547e-07
-1.95757e-06 3.39547e-07 -2.20801e-05
0.00215171 -0.000208358 -1.84611e-06
-0.000208358 -7.58689e-06 -1.13539e-07
-1.84611e-06 -1.13539e-07 -1.69298e-06
0.00224501 -0.000399632 -1.01563e-06
-0.000399632 -4.45799e-06 -3.21867e-07
-1.01563e-06 -3.21867e-07 -1.47836e-05
0.00186233 -0.000709993 -6.59272e-07
-0.000709993 0.000620463 -4.29278e-06
-6.59272e-07 -4.29278e-06 0.000126661
0.00170988 -0.000826411 1.94525e-05
-0.000826411 0.000374715 -8.2269e-06
1.94525e-05 -8.2269e-06 -0.000150884
0.00214419 -0.000900287 2.82168e-06
-0.000900287 0.000380007 -1.83002e-06
2.82168e-06 -1.83002e-06 -9.40615e-05
0.00224044 -0.000531965 -1.37488e-06
-0.000531965 8.04527e-05 1.98168e-07
-1.37488e-06 1.98168e-07 2.08693e-06
0.00229077 -0.000706846 7.40687e-06
-0.000706846 0.000176963 1.26917e-06
7.40687e-06 1.26917e-06 -6.24785e-06
0.0023553 -0.000751534 7.394e-06
-0.000751534 0.000351586 -6.92769e-06
7.394e-06 -6.92769e-06 4.81286e-05
0.00100161 -0.000532911 -2.45771e-06
-0.000532911 0.000242967 -2.2311e-06
-2.45771e-06 -2.2311e-06 -0.00022594
0.00190415 -0.000647624 2.2992e-06
-0.000647624 0.000826785 -1.20313e-05
2.2992e-06 -1.20313e-05 0.0003174
0.00229388 -0.000404569 -1.18222e-05
-0.000404569 0.00112919 1.30676e-05
-1.18222e-05 1.30676e-05 0.000702786
0.000232581 3.66911e-05 5.1397e-06
3.66911e-05 -0.000111783 3.77633e-06
5.1397e-06 3.77633e-06 -0.000231514
0.0015575 -0.000445945 -4.01972e-07
-0.000445945 0.000716309 5.29639e-07
-4.01972e-07 5.29639e-07 0.000361692
-0.000270705 -5.23911e-06 7.27422e-06
-5.23911e-06 -0.000348454 3.54985e-08
7.27422e-06 3.54985e-08 -0.000648317
0.00216057 -0.000106638 -5.30357e-07
-0.000106638 -4.36288e-05 7.66882e-08
-5.30357e-07 7.66882e-08 3.13252e-07
0.00229368 -0.00029066 3.78167e-07
-0.00029066 -7.62928e-05 2.76931e-08
3.78167e-07 2.76931e-08 -9.10605e-06
0.00234303 -0.000494669 -7.0932e-07
-0.000494669 -9.00871e-06 3.25639e-07
-7.0932e-07 3.25639e-07 4.93473e-06
0.00204319 -0.00081533 -1.33154e-06
-0.00081533 0.000746174 1.24729e-06
-1.33154e-06 1.24729e-06 0.000207168
0.00177374 -0.000935324 8.21164e-06
-0.000935324 0.000406253 -1.85982e-06
8.21164e-06 -1.85982e-06 -0.000162196
0.00236692 -0.000935304 -1.83376e-06
-0.000935304 0.000528235 -1.6794e-06
-1.83376e-06 -1.6794e-06 6.03786e-05
0.00237835 -0.000656611 1.45626e-07
-0.000656611 5.78137e-05 -1.35017e-07
1.45626e-07 -1.35017e-07 -4.87587e-06
0.00226032 -0.00081057 2.17779e-06
-0.00081057 0.000224217 -1.35248e-06
2.17779e-06 -1.35248e-06 -4.55076e-05
0.000199522 6.37086e-05 -2.4417e-06
6.37086e-05 -0.000132371 -1.68141e-06
-2.4417e-06 -1.68141e-06 -0.000220114
0.000741862 -5.4032e-05 -1.32114e-06
-5.4032e-05 0.000278102 6.39288e-07
-1.32114e-06 6.39288e-07 6.44992e-05
0.00122824 -0.000609655 -3.17234e-06
-0.000609655 0.000372473 7.65203e-07
-3.17234e-06 7.65203e-07 -0.000108012
0.00169332 -0.000563689 -4.7438e-06
-0.000563689 0.000754172 2.65537e-06
-4.7438e-06 2.65537e-06 0.000200827
0.00110782 -0.000210578 8.23729e-07
-0.000210578 0.000386883 -2.09462e-06
8.23729e-07 -2.09462e-06 2.58907e-05
0.00149876 -0.000317226 -7.23214e-07
-0.000317226 0.000805304 1.84015e-06
-7.23214e-07 1.84015e-06 0.000446276
0.00228605 -0.000142625 -4.6711e-06
-0.000142625 -8.51745e-05 1.19255e-06
-4.6711e-06 1.19255e-06 1.63146e-05
0.00245994 -0.000424179 -1.84215e-06
-0.000424179 -0.000124696 2.06045e-06
-1.84215e-06 2.06045e-06 1.07267e-05
0.00241684 -0.000617814 3.01739e-06
-0.000617814 -2.3615e-05 -1.1536e-06
3.01739e-06 -1.1536e-06 -1.22828e-05
0.0025283 -0.000835727 1.85345e-06
-0.000835727 0.000175123 -2.10993e-06
1.85345e-06 -2.10993e-06 1.72071e-05
0.000973596 -0.00071017 -7.43043e-06
-0.00071017 0.000117085 -3.39123e-06
-7.43043e-06 -3.39123e-06 -0.000388959
0.00244752 -0.0010072 -4.22004e-06
-0.0010072 0.000481181 -1.40772e-06
-4.22004e-06 -1.40772e-06 4.46035e-05
0.00237412 -0.00111028 -5.86755e-05
-0.00111028 0.000677972 4.51581e-06
-5.86755e-05 4.51581e-06 5.5601e-05
0.000554938 4.54096e-05 -3.50544e-07
4.54096e-05 7.59339e-05 -1.69727e-06
-3.50544e-07 -1.69727e-06 9.18214e-06
0.000793389 -0.000168056 3.88079e-06
-0.000168056 0.000304306 -3.88637e-06
3.88079e-06 -3.88637e-06 0.000166868
0.00016626 8.4614e-05 -8.22812e-06
8.4614e-05 -0.00010171 -2.03811e-06
-8.22812e-06 -2.03811e-06 -0.000240335
0.00106459 -9.62847e-05 -4.88624e-06
-9.62847e-05 0.000508898 2.33276e-06
-4.88624e-06 2.33276e-06 0.000231791
5.97605e-06 -0.0001776 -1.98016e-06
-0.0001776 -0.000215213 -1.21933e-05
-1.98016e-06 -1.21933e-05 -0.000534333
0.00114958 -0.000304672 2.01835e-06
-0.000304672 0.000515952 -1.08746e-05
2.01835e-06 -1.08746e-05 4.91929e-05
0.00141228 -0.000665772 -2.18381e-05
-0.000665772 0.000487285 3.67914e-05
-2.18381e-05 3.67914e-05 7.89724e-07
0.00257995 -0.000621675 -1.78434e-05
-0.000621675 0.00146064 1.62175e-05
-1.78434e-05 1.62175e-05 0.000707171
9.66419e-05 7.48391e-05 4.39376e-07
7.48391e-05 -0.000199752 -1.22435e-07
4.39376e-07 -1.22435e-07 -0.000359242
0.00155436 0.00028807 1.09637e-08
0.00028807 0.000773181 1.59168e-06
1.09637e-08 1.59168e-06 0.000456492
0.00242179 0.000625597 -2.77197e-07
0.000625597 0.000137761 -8.26712e-07
-2.77197e-07 -8.26712e-07 6.0721e-06
0.000943931 0.000199397 -5.4575e-06
0.000199397 3.54528e-05 -3.07748e-06
-5.4575e-06 -3.07748e-06 -0.000216927
0.00118793 0.000561287 -2.45022e-06
0.000561287 0.000347157 -7.15542e-07
-2.45022e-06 -7.15542e-07 -9.25039e-05
0.00231987 0.000547277 -5.9394e-06
0.000547277 0.00084092 2.95425e-06
-5.9394e-06 2.95425e-06 0.000482276
0.00258522 0.000756083 -5.33858e-06
0.000756083 0.000500413 3.46526e-07
-5.33858e-06 3.46526e-07 0.000185428
0.0027088 0.000767653 -6.99559e-06
0.000767653 0.000443302 6.76258e-06
-6.99559e-06 6.76258e-06 0.000160811
0.00160615 0.000828707 -5.00481e-06
0.000828707 0.000422728 1.7196e-06
-5.00481e-06 1.7196e-06 -0.000116495
0.00202887 0.000973032 -1.22762e-05
0.000973032 0.00041597 -1.59234e-07
-1.22762e-05 -1.59234e-07 -9.70662e-05
-0.000199378 8.44031e-05 1.54923e-06
8.44031e-05 -0.000319929 1.52228e-06
1.54923e-06 1.52228e-06 -0.000536265
0.000294191 0.000317129 4.31709e-06
0.000317129 5.65339e-05 -2.41664e-06
4.31709e-06 -2.41664e-06 -0.000312387
0.00152001 0.000668953 1.12033e-06
0.000668953 0.000451745 -1.86564e-07
1.12033e-06 -1.86564e-07 -2.33974e-05
0.00203629 0.000496899 -5.51201e-06
0.000496899 0.000688831 1.04675e-06
-5.51201e-06 1.04675e-06 0.000359645
0.00253365 0.000582412 2.64336e-07
0.000582412 -0.000135422 -9.98492e-07
2.64336e-07 -9.98492e-07 -5.37059e-05
0.00267193 0.000754944 3.2582e-06
0.000754944 0.000320836 -3.08106e-07
3.2582e-06 -3.08106e-07 0.000101094
0.00228284 0.000868124 -3.12358e-06
0.000868124 0.000347861 -8.17224e-09
-3.12358e-06 -8.17224e-09 -6.33896e-05
0.00206011 0.000961114 2.09006e-06
0.000961114 0.00052881 3.44904e-07
2.09006e-06 3.44904e-07 -3.24647e-05
-0.000625617 3.55472e-05 -5.15592e-06
3.55472e-05 -0.000567394 2.63317e-07
-5.15592e-06 2.63317e-07 -0.000755159
0.00244981 0.000421588 2.83063e-06
0.000421588 -0.000211342 -7.83503e-07
2.83063e-06 -7.83503e-07 -9.45489e-05
0.00232577 0.000593018 -1.35415e-06
0.000593018 0.00128039 9.42632e-06
-1.35415e-06 9.42632e-06 0.000857016
0.00171035 0.000682887 1.16592e-06
0.000682887 0.00049064 -4.17266e-06
1.16592e-06 -4.17266e-06 3.38343e-05
0.00262337 0.000738132 -1.47165e-05
0.000738132 7.14851e-05 -9.54369e-06
-1.47165e-05 -9.54369e-06 5.79818e-05
0.00132709 0.00080415 4.0047e-06
0.00080415 -0.000307952 -1.05069e-05
4.0047e-06 -1.05069e-05 -0.000688226
0.00301378 0.00110309 2.69638e-06
0.00110309 0.00101568 3.36211e-06
2.69638e-06 3.36211e-06 0.000425289
0.000566721 0.000149152 -9.22622e-08
0.000149152 0.000149593 2.85577e-07
-9.22622e-08 2.85577e-07 -5.76684e-06
0.000468771 0.000131641 -2.74704e-06
0.000131641 0.000103965 -1.26603e-06
-2.74704e-06 -1.26603e-06 -1.10084e-05
0.00037769 9.7054e-05 -3.52215e-06
9.7054e-05 7.18374e-05 -1.11427e-06
-3.52215e-06 -1.11427e-06 -8.99412e-06
0.00035564 8.78473e-06 1.39402e-06
8.78473e-06 -7.42325e-06 -3.59809e-06
1.39402e-06 -3.59809e-06 -0.000132234
0.000502556 9.30246e-05 2.70072e-06
9.30246e-05 0.000147647 -3.4437e-06
2.70072e-06 -3.4437e-06 -4.11873e-05
-0.0005762 0.000137255 -4.45677e-06
0.000137255 -0.000498375 1.06825e-05
-4.45677e-06 1.06825e-05 -0.000646689
0.000507733 2.74808e-05 -1.6962e-06
2.74808e-05 9.28331e-05 -5.89959e-08
-1.6962e-06 -5.89959e-08 -4.01972e-05
0.000239309 3.17925e-07 -6.36757e-07
3.17925e-07 -2.625e-05 -3.93408e-07
-6.36757e-07 -3.93408e-07 -0.000205383
3.12789e-06 8.25532e-05 -4.35042e-06
8.25532e-05 -0.000228194 2.82574e-06
-4.35042e-06 2.82574e-06 -0.00030185
0.000733326 0.000138704 1.53132e-06
0.000138704 0.000296807 -1.33664e-06
1.53132e-06 -1.33664e-06 0.0001034
0.0018686 0.000192023 -1.35995e-06
0.000192023 0.000907482 -7.56525e-06
-1.35995e-06 -7.56525e-06 0.00085139
-5.01421e-05 2.44299e-05 1.214e-05
2.44299e-05 -0.00025039 -1.14529e-05
1.214e-05 -1.14529e-05 -0.000347005
0.000445114 0.000126142 7.17819e-07
0.000126142 0.000122991 3.01982e-06
7.17819e-07 3.01982e-06 -7.4718e-05
0.000506673 6.8498e-05 6.77315e-07
6.8498e-05 0.000122044 3.99618e-06
6.77315e-07 3.99618e-06 -6.36895e-05
0.000527714 2.37937e-05 2.25035e-06
2.37937e-05 9.09925e-05 3.42116e-06
2.25035e-06 3.42116e-06 -4.30039e-05
0.000486998 -7.15114e-05 -1.48073e-06
-7.15114e-05 4.94722e-05 3.06983e-06
-1.48073e-06 3.06983e-06 -4.01241e-05
0.000463904 1.57811e-05 7.17229e-07
1.57811e-05 2.95029e-05 -4.74666e-07
7.17229e-07 -4.74666e-07 -5.3711e-05
0.001317 2.88087e-05 3.67984e-06
2.88087e-05 0.000551773 3.64685e-06
3.67984e-06 3.64685e-06 0.000528906
0.000463722 1.47982e-05 6.72841e-07
1.47982e-05 1.9036e-05 -3.92319e-06
6.72841e-07 -3.92319e-06 -5.48824e-05
0.00133652 1.90253e-05 -9.00525e-06
1.90253e-05 0.000559479 -1.89895e-06
-9.00525e-06 -1.89895e-06 0.000536906
0.00075103 -3.84033e-06 2.79653e-05
-3.84033e-06 0.000175587 9.38758e-06
2.79653e-05 9.38758e-06 0.000179437
0.00133841 -1.27251e-05 -9.69816e-06
-1.27251e-05 0.000552909 -7.45816e-06
-9.69816e-06 -7.45816e-06 0.000532633
0.000753131 -1.63845e-05 1.1071e-05
-1.63845e-05 0.000168442 3.70348e-06
1.1071e-05 3.70348e-06 0.0001711
0.000736641 -2.95353e-05 1.23557e-06
-2.95353e-05 0.000154163 -3.24233e-06
1.23557e-06 -3.24233e-06 0.000154472
0.00058782 -2.03397e-05 8.10854e-07
-2.03397e-05 9.06804e-05 -2.65931e-06
8.10854e-07 -2.65931e-06 3.0287e-05
0.000338421 2.99574e-05 -6.87958e-07
2.99574e-05 -8.54268e-05 -5.00304e-06
-6.87958e-07 -5.00304e-06 -0.000110061
0.000371905 4.53704e-05 6.90162e-07
4.53704e-05 -5.24727e-05 3.89555e-07
6.90162e-07 3.89555e-07 -8.65789e-05
0.00260042 0.000109312 5.10632e-06
0.000109312 0.00138206 -5.76804e-06
5.10632e-06 -5.76804e-06 0.00138106
0.00036883 4.0758e-05 2.81528e-06
4.0758e-05 -4.82447e-05 9.052e-06
2.81528e-06 9.052e-06 -9.27894e-05
0.00301863 0.000153858 -4.76523e-06
0.000153858 0.0016671 -5.58521e-07
-4.76523e-06 -5.58521e-07 0.00165443
0.00384416 0.000117509 -6.8777e-05
0.000117509 0.0021881 8.33873e-06
-6.8777e-05 8.33873e-06 0.00217985
0.00234672 0.000433833 2.8861e-06
0.000433833 -1.91316e-05 1.0808e-06
2.8861e-06 1.0808e-06 -1.05203e-05
0.00223682 0.000227132 2.74355e-06
0.000227132 -5.7019e-05 5.70392e-07
2.74355e-06 5.70392e-07 -7.41327e-06
0.00215727 7.40308e-05 1.83044e-06
7.40308e-05 -5.56539e-05 -1.94487e-07
1.83044e-06 -1.94487e-07 -1.91645e-06
0.00208696 -1.16234e-05 -3.11042e-06
-1.16234e-05 2.45807e-06 -1.32912e-08
-3.11042e-06 -1.32912e-08 1.52199e-05
0.00215299 -1.17384e-05 -7.56534e-07
-1.17384e-05 -5.58454e-05 -3.24661e-09
-7.56534e-07 -3.24661e-09 -2.48351e-06
0.00229126 0.00011453 4.37641e-07
0.00011453 -8.37774e-05 6.62895e-07
4.37641e-07 6.62895e-07 1.4168e-05
0.00242412 0.000343596 -9.12798e-07
0.000343596 -6.50224e-05 -3.27511e-07
-9.12798e-07 -3.27511e-07 9.12253e-06
0.00226209 -1.2416e-05 -4.92162e-06
-1.2416e-05 -0.000112191 3.87552e-07
-4.92162e-06 3.87552e-07 9.60973e-07
0.0025891 0.000168201 -5.19447e-06
0.000168201 -5.47493e-05 -2.90017e-06
-5.19447e-06 -2.90017e-06 6.53165e-05
0.00245529 0.00013679 3.06023e-06
0.00013679 -0.000109846 6.60225e-06
3.06023e-06 6.60225e-06 1.39477e-05
0.00217726 -0.000103021 1.03685e-06
-0.000103021 -3.1771e-05 2.26949e-07
1.03685e-06 2.26949e-07 9.94522e-06
0.00227485 -0.00030112 4.76455e-07
-0.00030112 -9.41899e-05 -1.25781e-06
4.76455e-07 -1.25781e-06 -2.33141e-05
0.00234255 -0.000485218 2.54373e-07
-0.000485218 -4.35376e-06 -9.42907e-07
2.54373e-07 -9.42907e-07 8.21245e-06
0.00135581 -0.000736554 3.46213e-06
-0.000736554 0.000318506 -7.3341e-07
3.46213e-06 -7.3341e-07 -0.000200917
0.00181396 -0.000939953 3.53425e-05
-0.000939953 0.000423167 -4.81302e-06
3.53425e-05 -4.81302e-06 -0.000145384
0.00246194 -0.000925365 1.44773e-05
-0.000925365 0.000580264 -4.48339e-06
1.44773e-05 -4.48339e-06 0.000127185
0.00236626 -0.000663085 3.17273e-06
-0.000663085 5.96657e-05 9.06643e-07
3.17273e-06 9.06643e-07 -1.60713e-05
0.00225613 -0.000789289 1.30229e-05
-0.000789289 0.000247393 1.41003e-06
1.30229e-05 1.41003e-06 -1.19347e-05
0.000768313 -0.000541677 3.93175e-06
-0.000541677 0.000120322 -2.0489e-05
3.93175e-06 -2.0489e-05 -0.000364331
0.0012062 -0.000465722 3.73483e-06
-0.000465722 0.000521325 -1.89393e-05
3.73483e-06 -1.89393e-05 -3.12337e-05
-0.000259986 -0.000143202 -4.94335e-06
-0.000143202 -0.000508343 7.19914e-06
-4.94335e-06 7.19914e-06 -0.000847528
0.000440255 1.44477e-05 2.33141e-06
1.44477e-05 1.97048e-05 3.10939e-06
2.33141e-06 3.10939e-06 -6.42494e-05
0.000184545 -8.50524e-07 7.3866e-06
-8.50524e-07 -9.24538e-05 1.25842e-06
7.3866e-06 1.25842e-06 -0.000289475
0.00103837 -0.000253646 -2.9784e-07
-0.000253646 0.000505962 7.12462e-06
-2.9784e-07 7.12462e-06 0.000149924
0.00228289 -0.000145518 3.81064e-07
-0.000145518 -9.863e-05 3.52522e-07
3.81064e-07 3.52522e-07 6.84682e-06
0.000457774 2.18362e-06 1.924e-06
2.18362e-06 1.26418e-05 3.65524e-07
1.924e-06 3.65524e-07 -5.38195e-05
0.000333764 -8.63334e-05 -3.65727e-06
-8.63334e-05 -3.12232e-05 -1.05596e-06
-3.65727e-06 -1.05596e-06 -0.000142728
0.00242958 -0.000411076 -3.52775e-07
-0.000411076 -0.00011512 -2.09355e-07
-3.52775e-07 -2.09355e-07 4.18071e-06
0.00239313 -0.000601569 -1.94238e-06
-0.000601569 -2.10191e-05 6.7732e-07
-1.94238e-06 6.7732e-07 -3.28741e-06
0.0020371 -0.00086768 1.36586e-06
-0.00086768 0.000744721 1.87795e-06
1.36586e-06 1.87795e-06 0.000192228
0.00227778 -0.00109874 9.87093e-06
-0.00109874 0.00062998 -1.02926e-06
9.87093e-06 -1.02926e-06 1.00105e-05
0.00239941 -0.00100139 2.0931e-06
-0.00100139 0.000441281 -3.85222e-06
2.0931e-06 -3.85222e-06 1.52564e-05
0.00246327 -0.000832841 2.36491e-06
-0.000832841 0.000133736 -5.5499e-07
2.36491e-06 -5.5499e-07 -1.75034e-05
0.000573741 9.62089e-06 -1.54212e-06
9.62089e-06 0.000167744 -1.27097e-06
-1.54212e-06 -1.27097e-06 2.21105e-05
0.000793727 -8.51779e-05 1.40584e-06
-8.51779e-05 0.000332253 2.0606e-06
1.40584e-06 2.0606e-06 5.99672e-05
0.00143636 -0.000650539 1.10218e-05
-0.000650539 0.000543353 1.13551e-05
1.10218e-05 1.13551e-05 5.98749e-05
0.00131576 -0.000489952 2.01184e-05
-0.000489952 0.000661176 -1.1056e-05
2.01184e-05 -1.1056e-05 -6.4715e-06
0.000899165 -0.000216419 -2.78152e-06
-0.000216419 0.00031182 -2.95604e-07
-2.78152e-06 -2.95604e-07 -9.85054e-05
-0.000119947 -0.000178969 1.89789e-06
-0.000178969 -0.000278788 -2.37795e-06
1.89789e-06 -2.37795e-06 -0.000604384
0.00229923 -0.000169885 -4.65782e-06
-0.000169885 -0.000281106 5.272e-06
-4.65782e-06 5.272e-06 -0.00012911
0.00247417 -0.000537534 1.40836e-06
-0.000537534 -0.000248727 3.18835e-06
1.40836e-06 3.18835e-06 8.96018e-07
0.002754 -0.000855763 -5.99569e-06
-0.000855763 0.000125869 -3.66261e-06
-5.99569e-06 -3.66261e-06 8.44556e-05
0.00275235 -0.00108372 1.08272e-05
-0.00108372 0.000398366 -1.65159e-06
1.08272e-05 -1.65159e-06 0.000108443
0.000930984 -0.00079473 -1.13641e-06
-0.00079473 0.000172397 -9.4142e-06
-1.13641e-06 -9.4142e-06 -0.000386484
0.00360309 -0.00136446 -1.10099e-05
-0.00136446 0.0012386 4.24429e-06
-1.10099e-05 4.24429e-06 0.000583809
0.000209047 6.52082e-05 -3.72925e-06
6.52082e-05 -0.000111305 -6.69699e-06
-3.72925e-06 -6.69699e-06 -0.00022742
0.000406068 -5.46123e-05 6.11452e-06
-5.46123e-05 1.79242e-05 -1.49688e-06
6.11452e-06 -1.49688e-06 -8.39452e-05
0.00178002 -0.000226273 -7.38144e-06
-0.000226273 0.000850139 1.69854e-05
-7.38144e-06 1.69854e-05 0.000702681
0.000232696 2.26774e-05 -4.27253e-06
2.26774e-05 -7.71141e-05 2.39326e-06
-4.27253e-06 2.39326e-06 -0.000265466
0.00104701 -0.000187134 -7.82699e-06
-0.000187134 0.000485797 8.95729e-06
-7.82699e-06 8.95729e-06 0.000174098
0.000632813 -8.06525e-05 7.48592e-06
-8.06525e-05 0.000101687 -2.24141e-05
7.48592e-06 -2.24141e-05 -0.000179285
-0.00221758 -0.000238634 -2.48434e-06
-0.000238634 -0.00109251 -2.62989e-06
-2.48434e-06 -2.62989e-06 -0.00202803
0.00101386 -0.000818343 -4.88843e-05
-0.000818343 0.000154382 2.88933e-05
-4.88843e-05 2.88933e-05 -0.000233671
0.000258579 0.000182676 -1.12179e-07
0.000182676 1.25442e-05 -1.22895e-06
-1.12179e-07 -1.22895e-06 -0.000249768
0.00296329 0.000502471 -1.59838e-05
0.000502471 0.00169826 -7.81428e-06
-1.59838e-05 -7.81428e-06 0.00133599
0.0025003 0.000557053 -4.02567e-06
0.000557053 -0.000177182 -3.27814e-07
-4.02567e-06 -3.27814e-07 -7.83655e-05
0.00274956 0.000769727 -5.75775e-06
0.000769727 0.000366899 -1.05163e-06
-5.75775e-06 -1.05163e-06 0.000132967
0.00280514 0.000531945 -6.85422e-06
0.000531945 0.00118259 1.64933e-06
-6.85422e-06 1.64933e-06 0.000857378
0.00139681 0.000668667 -9.29283e-06
0.000668667 0.000349266 -1.19533e-06
-9.29283e-06 -1.19533e-06 -0.000134354
0.00216938 0.000837321 -5.72157e-06
0.000837321 0.000309235 2.75449e-06
-5.72157e-06 2.75449e-06 -9.03467e-05
0.00249028 0.000997415 -9.53282e-06
0.000997415 0.000766474 -5.51757e-07
-9.53282e-06 -5.51757e-07 0.0002074
7.89291e-05 0.000160207 1.97145e-06
0.000160207 -7.90047e-05 -4.38467e-07
1.97145e-06 -4.38467e-07 -0.000320991
0.0025035 0.000405387 -1.19715e-06
0.000405387 -0.000177436 -2.62996e-06
-1.19715e-06 -2.62996e-06 -5.00614e-05
0.00149751 0.000439693 3.07881e-06
0.000439693 0.000763904 5.27449e-06
3.07881e-06 5.27449e-06 0.000397517
0.0015748 0.000654498 3.00507e-06
0.000654498 0.000432655 1.97984e-06
3.00507e-06 1.97984e-06 -1.58604e-05
0.00272976 0.000723248 9.02623e-07
0.000723248 0.000164786 -3.05363e-07
9.02623e-07 -3.05363e-07 0.00014616
0.00191912 0.000872574 -2.26213e-06
0.000872574 3.81148e-05 -5.64795e-06
-2.26213e-06 -5.64795e-06 -0.000353217
0.00240522 0.0010016 -7.88103e-07
0.0010016 0.000688875 -2.37576e-07
-7.88103e-07 -2.37576e-07 0.000122328
0.00177229 0.000400383 -4.72133e-06
0.000400383 0.00109218 -2.18197e-06
-4.72133e-06 -2.18197e-06 0.000766802
0.00391479 0.00067158 -9.19648e-05
0.00067158 0.00061402 -3.18447e-05
-9.19648e-05 -3.18447e-05 0.000849693
0.000622232 0.000513952 -1.11317e-05
0.000513952 0.00017338 7.94486e-06
-1.11317e-05 7.94486e-06 -0.000240225
0.0014478 0.000729503 -6.78056e-06
0.000729503 0.000311908 -1.06241e-05
-6.78056e-06 -1.06241e-05 -0.000195708
0.00306447 0.00100526 -3.9357e-05
0.00100526 0.000525177 -2.35304e-05
-3.9357e-05 -2.35304e-05 0.000264001
0.00117518 0.000858426 -2.92863e-05
0.000858426 -3.22558e-05 -4.51485e-06
-2.92863e-05 -4.51485e-06 -0.000538683
0.00120838 0.00122797 2.18417e-05
0.00122797 -0.00197879 -4.95606e-05
2.18417e-05 -4.95606e-05 -0.00120916
0.000172461 0.000167514 7.07136e-06
0.000167514 -4.0785e-05 3.26452e-06
7.07136e-06 3.26452e-06 -0.000172762
0.000394299 0.000130578 3.14156e-06
0.000130578 0.000119041 1.80109e-06
3.14156e-06 1.80109e-06 2.1166e-05
0.000711726 0.000137613 1.82177e-06
0.000137613 0.000289959 -3.43599e-06
1.82177e-06 -3.43599e-06 0.000203715
0.000374475 -6.58468e-05 1.39578e-06
-6.58468e-05 1.4396e-05 -4.8334e-06
1.39578e-06 -4.8334e-06 -0.000121444
0.000275707 -1.81105e-05 -2.91986e-07
-1.81105e-05 -4.63677e-06 -2.88371e-06
-2.91986e-07 -2.88371e-06 -0.00018286
0.00149696 0.000255931 -2.23616e-07
0.000255931 0.000784798 -8.87877e-08
-2.23616e-07 -8.87877e-08 0.000578381
-0.000512511 5.19012e-05 -7.59857e-06
5.19012e-05 -0.000524045 2.05658e-05
-7.59857e-06 2.05658e-05 -0.000593337
0.000490024 -1.72162e-05 -1.32939e-07
-1.72162e-05 8.57435e-05 -2.59848e-07
-1.32939e-07 -2.59848e-07 -5.82045e-05
0.000408116 8.52331e-05 1.57352e-07
8.52331e-05 3.38348e-05 -6.69389e-07
1.57352e-07 -6.69389e-07 -0.000130415
0.000826245 0.000144122 4.10939e-06
0.000144122 0.000258312 3.84691e-06
4.10939e-06 3.84691e-06 0.0002118
0.000346074 8.09307e-05 1.30737e-06
8.09307e-05 3.28674e-05 8.62048e-07
1.30737e-06 8.62048e-07 -0.000147261
0.000598701 8.17865e-05 -6.23343e-08
8.17865e-05 0.000149894 -2.02945e-06
-6.23343e-08 -2.02945e-06 3.94572e-05
0.00110027 0.000148637 -3.28658e-06
0.000148637 0.00049255 -1.56581e-05
-3.28658e-06 -1.56581e-05 0.000420034
0.00083162 0.000158657 -2.91208e-06
0.000158657 0.000268177 -5.55487e-06
-2.91208e-06 -5.55487e-06 0.000118262
0.00097482 0.000148243 1.84121e-06
0.000148243 0.000421171 3.20299e-06
1.84121e-06 3.20299e-06 0.00022996
0.000882295 0.000126084 -8.78824e-07
0.000126084 0.000351984 8.00086e-07
-8.78824e-07 8.00086e-07 0.000160343
0.000212174 -2.54746e-05 -1.89605e-06
-2.54746e-05 -0.000117584 1.32559e-06
-1.89605e-06 1.32559e-06 -0.000253352
0.00135092 -0.000124299 1.22666e-06
-0.000124299 0.000722304 -2.18396e-06
1.22666e-06 -2.18396e-06 0.000489255
7.39558e-05 -5.1727e-05 -3.07997e-07
-5.1727e-05 -0.000196551 3.37009e-06
-3.07997e-07 3.37009e-06 -0.000337081
0.000405587 2.40079e-06 -1.99837e-06
2.40079e-06 4.2988e-06 2.90296e-06
-1.99837e-06 2.90296e-06 -8.86851e-05
0.000431106 4.22525e-05 2.49469e-06
4.22525e-05 1.91095e-05 -1.03285e-07
2.49469e-06 -1.03285e-07 -7.29936e-05
0.000342291 2.08301e-05 -1.36613e-06
2.08301e-05 -6.57639e-05 4.85669e-06
-1.36613e-06 4.85669e-06 -9.32112e-05
0.000372302 1.4251e-06 -1.59975e-06
1.4251e-06 -1.71499e-05 -4.22394e-06
-1.59975e-06 -4.22394e-06 -0.000107749
0.000862378 1.70691e-05 -4.19441e-06
1.70691e-05 0.000262343 -1.51449e-06
-4.19441e-06 -1.51449e-06 0.000237661
0.00265967 1.41134e-06 2.60365e-05
1.41134e-06 0.00139824 5.8492e-06
2.60365e-05 5.8492e-06 0.0014105
0.0014144 4.22074e-05 -1.48393e-05
4.22074e-05 0.000611367 -7.66302e-06
-1.48393e-05 -7.66302e-06 0.000587909
0.000765175 -7.08803e-06 1.03739e-05
-7.08803e-06 0.000180925 3.65522e-06
1.03739e-05 3.65522e-06 0.000183879
0.000832852 -1.98752e-05 1.17731e-06
-1.98752e-05 0.000215346 -3.05477e-06
1.17731e-06 -3.05477e-06 0.000217308
0.000433951 1.17707e-05 -2.56488e-06
1.17707e-05 1.28061e-06 -3.65262e-06
-2.56488e-06 -3.65262e-06 -5.87851e-05
0.000529174 -3.72983e-05 5.65008e-07
-3.72983e-05 5.78963e-05 -3.41891e-07
5.65008e-07 -3.41891e-07 -5.23372e-06
0.000451407 2.32952e-05 -5.21545e-08
2.32952e-05 -2.09758e-05 -4.27485e-06
-5.21545e-08 -4.27485e-06 -4.00933e-05
0.000790616 4.60245e-05 1.5809e-08
4.60245e-05 0.000206655 1.43344e-07
1.5809e-08 1.43344e-07 0.000182607
0.00240354 8.4079e-05 4.32792e-06
8.4079e-05 0.00124724 -5.30457e-06
4.32792e-06 -5.30457e-06 0.00125232
0.000468891 6.71275e-05 6.27028e-06
6.71275e-05 2.07493e-05 7.55284e-06
6.27028e-06 7.55284e-06 -2.00465e-05
0.00261449 0.000114706 -2.52662e-06
0.000114706 0.00139318 -2.52627e-07
-2.52662e-06 -2.52627e-07 0.0013908
0.00310641 0.000142852 3.83715e-06
0.000142852 0.00171833 8.15504e-06
3.83715e-06 8.15504e-06 0.00170758
0.00231473 0.000351747 2.69898e-06
0.000351747 -0.000121358 1.71955e-06
2.69898e-06 1.71955e-06 -4.62378e-05
0.00228227 0.000110038 6.57291e-06
0.000110038 -8.13886e-05 -3.10722e-07
6.57291e-06 -3.10722e-07 1.4997e-05
0.00216132 -7.39937e-06 1.58176e-06
-7.39937e-06 -5.35612e-05 -1.00408e-07
1.58176e-06 -1.00408e-07 3.33355e-06
0.00225156 -6.64352e-06 5.26285e-09
-6.64352e-06 -0.000116918 -4.43454e-07
5.26285e-09 -4.43454e-07 -3.8407e-06
0.0024983 0.000175843 9.15638e-07
0.000175843 -9.83834e-05 2.86438e-07
9.15638e-07 2.86438e-07 2.08873e-05
0.00262085 0.000119199 6.91626e-06
0.000119199 -3.39041e-06 -5.42562e-06
6.91626e-06 -5.42562e-06 0.000106834
0.00262526 1.48673e-05 -1.23729e-05
1.48673e-05 -0.000121544 -2.87278e-06
-1.23729e-05 -2.87278e-06 4.93133e-05
0.00508369 0.0012418 8.01272e-05
0.0012418 -0.000866928 9.38317e-06
8.01272e-05 9.38317e-06 0.000255343
0.00303304 0.000107711 -2.71735e-05
0.000107711 0.000383905 2.47823e-05
-2.71735e-05 2.47823e-05 0.000653216
0.000484769 0.000121455 -3.84666e-06
0.000121455 7.25029e-05 -2.8987e-06
-3.84666e-06 -2.8987e-06 -3.80589e-05
0.00227639 -0.0001483 4.35559e-06
-0.0001483 -0.000112694 -2.0941e-06
4.35559e-06 -2.0941e-06 -4.21436e-06
0.00240747 -0.000399934 2.13438e-06
-0.000399934 -0.000102905 -1.21681e-06
2.13438e-06 -1.21681e-06 7.44267e-07
0.00237972 -0.000590142 -3.24151e-07
-0.000590142 -1.93305e-05 4.45989e-07
-3.24151e-07 4.45989e-07 8.01742e-06
0.00175515 -0.000854657 -3.97476e-06
-0.000854657 0.000583144 7.59867e-06
-3.97476e-06 7.59867e-06 3.43557e-05
0.00230542 -0.00107636 3.53776e-05
-0.00107636 0.000664621 4.88036e-06
3.53776e-05 4.88036e-06 5.88554e-05
0.00185121 -0.000933861 1.45395e-06
-0.000933861 0.000132003 -5.10199e-07
1.45395e-06 -5.10199e-07 -0.000273074
0.00241858 -0.000832106 1.62306e-06
-0.000832106 0.000103385 -9.79556e-07
1.62306e-06 -9.79556e-07 -3.94896e-05
0.00136694 -0.000614987 2.68964e-05
-0.000614987 0.000411526 -4.80778e-05
2.68964e-05 -4.80778e-05 -2.89977e-07
0.00213978 -0.000622464 1.05644e-05
-0.000622464 0.00107578 -5.28379e-05
1.05644e-05 -5.28379e-05 0.000439312
0.00134319 -0.000212355 5.7467e-06
-0.000212355 0.000557164 1.25381e-05
5.7467e-06 1.25381e-05 0.000179559
0.000443238 8.01398e-06 3.2587e-06
8.01398e-06 5.03108e-06 2.67143e-06
3.2587e-06 2.67143e-06 -6.28526e-05
0.00138129 -0.00022527 2.36498e-06
-0.00022527 0.00067932 1.22431e-05
2.36498e-06 1.22431e-05 0.00033272
0.000979271 -3.91862e-05 7.73445e-06
-3.91862e-05 0.000449369 4.93907e-07
7.73445e-06 4.93907e-07 0.000291118
0.000454226 -6.72353e-05 3.09745e-06
-6.72353e-05 9.83854e-05 -1.54644e-06
3.09745e-06 -1.54644e-06 -0.000161681
-0.000132676 -3.40485e-05 -4.43276e-06
-3.40485e-05 -0.000344254 9.41033e-07
-4.43276e-06 9.41033e-07 -0.000445495
0.0024133 -0.0001943 1.08529e-07
-0.0001943 -0.000235138 1.01026e-06
1.08529e-07 1.01026e-06 -5.79427e-05
0.000343012 4.12259e-05 6.5732e-07
4.12259e-05 -1.22071e-05 -2.89603e-06
6.5732e-07 -2.89603e-06 -0.000134025
0.000605473 -7.98445e-05 3.29769e-06
-7.98445e-05 0.000172535 1.49188e-06
3.29769e-06 1.49188e-06 5.31918e-05
0.00106862 -0.000150873 6.71373e-06
-0.000150873 0.000394858 -1.00256e-06
6.71373e-06 -1.00256e-06 0.000270997
0.00246727 -0.00055294 2.15527e-06
-0.00055294 -0.000238194 -8.67538e-07
2.15527e-06 -8.67538e-07 -2.6883e-05
0.00264014 -0.000842454 -1.8429e-07
-0.000842454 6.4873e-05 5.39452e-07
-1.8429e-07 5.39452e-07 3.02562e-05
0.000756985 -0.000678576 6.50359e-06
-0.000678576 3.59955e-05 1.56093e-07
6.50359e-06 1.56093e-07 -0.000435753
0.00263175 -0.00123809 1.72751e-05
-0.00123809 0.000692451 1.48637e-06
1.72751e-05 1.48637e-06 7.52408e-05
0.00260122 -0.00107815 -5.38851e-08
-0.00107815 0.00032522 1.58447e-06
-5.38851e-08 1.58447e-06 2.75825e-05
0.000239031 -1.55691e-05 -4.49497e-07
-1.55691e-05 -7.3732e-05 1.89311e-07
-4.49497e-07 1.89311e-07 -0.00025599
0.0012691 -0.000190559 2.00172e-06
-0.000190559 0.000648575 3.90305e-06
2.00172e-06 3.90305e-06 0.000314643
0.00209315 -0.000968685 -1.15628e-06
-0.000968685 0.000789125 3.56296e-06
-1.15628e-06 3.56296e-06 0.000275318
0.0010256 -0.000361845 -4.20137e-07
-0.000361845 0.000582702 6.46951e-06
-4.20137e-07 6.46951e-06 -0.000119572
0.00133279 -0.000173683 2.70451e-06
-0.000173683 0.000559135 9.35468e-06
2.70451e-06 9.35468e-06 0.00026161
0.00282767 -0.000385579 -1.13286e-05
-0.000385579 -2.83912e-05 1.33889e-05
-1.13286e-05 1.33889e-05 0.000187268
0.00220915 -0.000620352 -1.08999e-05
-0.000620352 -0.000368385 6.39628e-06
-1.08999e-05 6.39628e-06 -7.90057e-05
0.00246847 -0.000990292 -1.37249e-05
-0.000990292 0.000113994 -5.1397e-06
-1.37249e-05 -5.1397e-06 -9.47411e-05
0.00460232 -0.00145612 4.05181e-06
-0.00145612 0.00160421 6.58722e-06
4.05181e-06 6.58722e-06 0.00115092
-0.000303532 -0.00076567 -1.22766e-05
-0.00076567 -0.000663769 1.34341e-05
-1.22766e-05 1.34341e-05 -0.00114379
-8.33101e-05 -2.75919e-05 -4.32067e-08
-2.75919e-05 -0.000283042 2.3676e-06
-4.32067e-08 2.3676e-06 -0.000403682
0.00107018 2.31125e-06 -3.7636e-06
2.31125e-06 0.000348059 1.52278e-05
-3.7636e-06 1.52278e-05 0.000220041
-0.000941116 -0.000201248 -9.52991e-06
-0.000201248 -0.000862227 -1.18071e-06
-9.52991e-06 -1.18071e-06 -0.000974128
0.00187221 -0.000312696 -3.8065e-05
-0.000312696 0.000970856 3.17148e-05
-3.8065e-05 3.17148e-05 0.000697845
0.00091241 -0.000158071 -5.46997e-06
-0.000158071 0.000394951 2.77041e-05
-5.46997e-06 2.77041e-05 0.000100789
-0.0018434 -0.000104887 8.64094e-06
-0.000104887 -0.000732847 1.38091e-06
8.64094e-06 1.38091e-06 -0.00153323
0.00101324 -0.00101989 -1.08058e-05
-0.00101989 0.00050146 -9.49252e-06
-1.08058e-05 -9.49252e-06 -0.000249981
0.0018129 0.000433622 -3.39844e-07
0.000433622 0.00101459 -3.58298e-06
-3.39844e-07 -3.58298e-06 0.000728529
0.000205336 0.000252172 -3.18654e-06
0.000252172 -1.52179e-05 -1.58362e-06
-3.18654e-06 -1.58362e-06 -0.000323997
0.00262617 0.000383907 9.422e-06
0.000383907 -0.000105367 6.03753e-06
9.422e-06 6.03753e-06 3.94951e-05
0.00282858 0.000709195 1.44641e-05
0.000709195 0.000244085 9.25102e-06
1.44641e-05 9.25102e-06 0.000225732
0.00240604 0.000929235 6.88258e-06
0.000929235 0.000324172 4.3959e-06
6.88258e-06 4.3959e-06 -7.49563e-05
0.00147123 0.000628782 -2.35473e-06
0.000628782 0.000405834 3.18342e-06
-2.35473e-06 3.18342e-06 -3.53168e-05
0.00174127 0.000896724 1.98588e-06
0.000896724 0.000331624 4.68007e-06
1.98588e-06 4.68007e-06 -0.00021065
0.00240734 0.00045074 1.65465e-07
0.00045074 0.00142098 5.32653e-08
1.65465e-07 5.32653e-08 0.00113649
0.00299495 0.000536053 1.05445e-05
0.000536053 0.000117167 4.48788e-06
1.05445e-05 4.48788e-06 0.000407229
0.000966077 0.000476892 -5.753e-06
0.000476892 0.00035415 5.43762e-06
-5.753e-06 5.43762e-06 -1.65886e-05
0.00170821 0.000773059 3.15158e-06
0.000773059 0.000507625 -2.05207e-06
3.15158e-06 -2.05207e-06 -2.38194e-05
0.00271502 0.000952617 -2.47362e-06
0.000952617 0.000361924 -4.19299e-06
-2.47362e-06 -4.19299e-06 0.000134655
0.0019904 0.000968556 -5.47038e-06
0.000968556 0.000422541 6.39458e-06
-5.47038e-06 6.39458e-06 -0.000111464
0.00294444 0.00154798 4.54586e-05
0.00154798 -0.00137222 9.98041e-06
4.54586e-05 9.98041e-06 -0.000776725
0.000393391 0.000333984 1.83827e-06
0.000333984 0.000295727 1.18632e-06
1.83827e-06 1.18632e-06 -3.47515e-05
0.00347251 0.00103642 -0.000101164
0.00103642 0.000479439 -4.50974e-05
-0.000101164 -4.50974e-05 0.000468677
0.000229423 0.000460265 -1.54424e-05
0.000460265 -0.00029666 5.15761e-06
-1.54424e-05 5.15761e-06 -0.000685734
0.000132002 0.000635803 -6.31858e-06
0.000635803 -0.000440827 -2.07639e-05
-6.31858e-06 -2.07639e-05 -0.000926544
0.00183788 0.00108571 -4.66233e-05
0.00108571 8.06425e-05 -2.10227e-05
-4.66233e-05 -2.10227e-05 -0.000283527
0.015657 0.000683504 -0.000687311
0.000683504 0.00159614 -0.000104801
-0.000687311 -0.000104801 0.00167572
0.00281161 0.00234522 -9.53309e-05
0.00234522 -0.00344088 -8.73339e-05
-9.53309e-05 -8.73339e-05 -0.0010308
0.00145593 0.00188775 1.95778e-05
0.00188775 -0.000634925 -3.12052e-06
1.95778e-05 -3.12052e-06 -0.000844248
0.0047909 -0.00357502 0.00234509
-0.00357502 0.00274485 0.000328116
0.00234509 0.000328116 -0.00222048
0.0281099 -0.0123207 -4.50052e-05
-0.0123207 0.0137168 7.12715e-05
-4.50052e-05 7.12715e-05 0.00719257
0.000756553 0.000170146 6.77551e-06
0.000170146 0.000361166 7.41691e-06
6.77551e-06 7.41691e-06 0.000248842
0.000946053 0.000147665 -2.4626e-06
0.000147665 0.000474482 -1.91273e-06
-2.4626e-06 -1.91273e-06 0.000369897
0.00100215 0.000233592 6.79155e-06
0.000233592 0.000526306 -2.92377e-06
6.79155e-06 -2.92377e-06 0.000381853
0.000507422 -6.11783e-05 5.25296e-07
-6.11783e-05 0.000107965 -2.88221e-06
5.25296e-07 -2.88221e-06 -4.25046e-05
0.000395468 7.32307e-05 -1.82921e-07
7.32307e-05 3.1978e-05 -3.88302e-06
-1.82921e-07 -3.88302e-06 -0.000132005
0.000620226 -1.25075e-05 -4.71028e-07
-1.25075e-05 0.000204905 -1.64079e-06
-4.71028e-07 -1.64079e-06 2.54758e-05
0.00108218 0.000111341 7.5156e-08
0.000111341 0.000439584 1.23942e-05
7.5156e-08 1.23942e-05 0.000323028
0.000247878 0.000111583 3.32886e-06
0.000111583 -0.000101858 1.27997e-05
3.32886e-06 1.27997e-05 -0.000140372
0.000795532 0.000171635 -1.21204e-06
0.000171635 0.00035118 6.18978e-08
-1.21204e-06 6.18978e-08 0.000134727
0.00039547 -2.15612e-05 2.76477e-07
-2.15612e-05 9.99807e-06 1.13269e-06
2.76477e-07 1.13269e-06 -0.000132963
0.000697535 6.98007e-05 -8.52192e-07
6.98007e-05 0.000228364 1.62022e-07
-8.52192e-07 1.62022e-07 4.36018e-05
0.000317759 0.000111854 -2.5055e-06
0.000111854 -1.36949e-05 -3.63946e-06
-2.5055e-06 -3.63946e-06 -7.89633e-05
0.000730731 0.000137958 -1.46263e-06
0.000137958 0.000227255 -4.50693e-07
-1.46263e-06 -4.50693e-07 7.83019e-05
0.0023179 0.000290592 -1.20092e-06
0.000290592 0.00127636 -1.5246e-06
-1.20092e-06 -1.5246e-06 0.00106019
0.000157768 0.000103871 -1.02645e-06
0.000103871 -2.24284e-06 -8.04953e-06
-1.02645e-06 -8.04953e-06 -0.00019326
0.000897428 0.000105872 3.49024e-06
0.000105872 0.000397816 -7.29357e-07
3.49024e-06 -7.29357e-07 0.000201356
0.000114069 8.22524e-06 -5.05051e-07
8.22524e-06 -0.000171947 -1.01864e-06
-5.05051e-07 -1.01864e-06 -0.000345959
0.000294735 -7.41237e-05 -4.73401e-07
-7.41237e-05 -5.12366e-05 -2.54493e-07
-4.73401e-07 -2.54493e-07 -0.000193785
0.000339378 -2.12889e-05 -2.22445e-07
-2.12889e-05 -3.04236e-06 -3.10628e-06
-2.22445e-07 -3.10628e-06 -0.00017427
0.00135068 -6.84215e-05 2.18079e-06
-6.84215e-05 0.000629999 -1.15442e-05
2.18079e-06 -1.15442e-05 0.00046029
0.000940401 -6.95843e-05 -2.24533e-06
-6.95843e-05 0.000438071 -1.69761e-06
-2.24533e-06 -1.69761e-06 0.000247829
0.000783282 -9.81699e-05 2.11863e-06
-9.81699e-05 0.000313139 -8.41955e-07
2.11863e-06 -8.41955e-07 0.000117353
0.000577179 -0.000129268 -1.21403e-06
-0.000129268 0.000142486 5.17228e-06
-1.21403e-06 5.17228e-06 -8.05021e-06
0.000161053 -2.78975e-05 1.31651e-07
-2.78975e-05 -0.000133527 1.05054e-06
1.31651e-07 1.05054e-06 -0.000279896
0.000493552 -6.87068e-05 -1.29806e-06
-6.87068e-05 5.0628e-05 3.90323e-06
-1.29806e-06 3.90323e-06 -3.65921e-05
0.000485955 -4.66252e-05 2.10103e-06
-4.66252e-05 5.33525e-05 1.23883e-07
2.10103e-06 1.23883e-07 -3.86389e-05
0.000387295 7.01684e-07 3.90294e-06
7.01684e-07 -3.28039e-05 6.69427e-06
3.90294e-06 6.69427e-06 -6.21394e-05
0.000464968 6.12968e-05 -1.53014e-06
6.12968e-05 3.33311e-05 -3.38945e-06
-1.53014e-06 -3.38945e-06 -5.36183e-05
0.000366503 3.11623e-05 4.93778e-07
3.11623e-05 -4.90597e-05 1.06528e-07
4.93778e-07 1.06528e-07 -7.70178e-05
0.00258741 9.77387e-06 1.19717e-05
9.77387e-06 0.00135364 5.54944e-06
1.19717e-05 5.54944e-06 0.00136528
0.000410041 5.60994e-05 -4.67409e-06
5.60994e-05 -2.14188e-05 -8.01875e-06
-4.67409e-06 -8.01875e-06 -5.2322e-05
0.00169785 -2.0096e-06 -7.46229e-06
-2.0096e-06 0.000781662 1.61085e-07
-7.46229e-06 1.61085e-07 0.000788545
0.000807284 -9.23032e-06 7.54377e-07
-9.23032e-06 0.000202858 -2.47289e-06
7.54377e-07 -2.47289e-06 0.000205634
0.000382961 1.76909e-05 -9.04707e-07
1.76909e-05 -4.08818e-05 -2.7852e-06
-9.04707e-07 -2.7852e-06 -8.83997e-05
0.000492068 -4.31251e-05 3.22287e-07
-4.31251e-05 4.21272e-05 1.17954e-07
3.22287e-07 1.17954e-07 -2.01937e-05
0.000487054 9.47224e-06 1.30458e-06
9.47224e-06 -2.36399e-06 -3.931e-06
1.30458e-06 -3.931e-06 -1.68982e-05
0.000467983 -5.05013e-05 -7.46455e-07
-5.05013e-05 2.02389e-05 1.02967e-06
-7.46455e-07 1.02967e-06 -4.40273e-05
0.000800671 2.88133e-05 -3.82153e-08
2.88133e-05 0.000203771 -8.27548e-07
-3.82153e-08 -8.27548e-07 0.000186857
0.00213085 6.05669e-05 2.59682e-06
6.05669e-05 0.00106445 -5.10707e-06
2.59682e-06 -5.10707e-06 0.00107508
0.000430904 3.43089e-05 1.41059e-06
3.43089e-05 -2.66289e-05 5.24136e-06
1.41059e-06 5.24136e-06 -5.25793e-05
0.00254709 9.23853e-05 -3.75588e-06
9.23853e-05 0.00134327 1.39593e-06
-3.75588e-06 1.39593e-06 0.00134635
0.00278404 0.000126452 1.33768e-05
0.000126452 0.00150598 8.04395e-06
1.33768e-05 8.04395e-06 0.00150107
0.0024284 0.000186617 5.47489e-06
0.000186617 -0.000124158 6.61265e-07
5.47489e-06 6.61265e-07 -6.05308e-06
0.00224208 -2.68919e-06 5.16006e-06
-2.68919e-06 -0.00012151 -7.77589e-07
5.16006e-06 -7.77589e-07 -8.78888e-06
0.00236833 8.62721e-05 1.88189e-06
8.62721e-05 -0.000189107 7.7397e-06
1.88189e-06 7.7397e-06 -7.78937e-05
0.00270506 0.000952907 0.000119661
0.000952907 -0.00209787 3.03288e-05
0.000119661 3.03288e-05 -0.000874372
0.00256282 -2.08303e-05 -1.07411e-06
-2.08303e-05 -0.000139137 -1.59768e-06
-1.07411e-06 -1.59768e-06 2.96721e-05
0.00253772 9.13475e-05 -5.3067e-06
9.13475e-05 6.93323e-05 -7.14836e-06
-5.3067e-06 -7.14836e-06 0.000278093
0.00242475 -5.1168e-05 -3.83048e-05
-5.1168e-05 6.74122e-05 -2.06783e-06
-3.83048e-05 -2.06783e-06 0.000167445
0.00330344 0.000518891 -6.68689e-05
0.000518891 -0.00244843 -4.80138e-05
-6.68689e-05 -4.80138e-05 -0.000812362
0.00276733 0.000308994 0.000155338
0.000308994 -0.0011243 6.3615e-05
0.000155338 6.3615e-05 -0.000407846
0.00057155 9.46368e-05 1.53861e-07
9.46368e-05 0.000129779 -2.51656e-06
1.53861e-07 -2.51656e-06 2.21327e-05
0.000563647 -3.51632e-06 -2.39251e-07
-3.51632e-06 0.000137152 -1.40627e-07
-2.39251e-07 -1.40627e-07 1.76942e-05
0.000277886 -9.60701e-05 -7.09929e-06
-9.60701e-05 -4.08505e-05 1.9624e-06
-7.09929e-06 1.9624e-06 -0.000168008
0.000314567 -5.78009e-05 -3.92713e-06
-5.78009e-05 -9.09593e-06 8.55447e-07
-3.92713e-06 8.55447e-07 -0.000138575
0.00247951 -0.000213442 1.22778e-06
-0.000213442 -0.000213239 -7.80683e-06
1.22778e-06 -7.80683e-06 -1.83553e-05
0.00244081 -0.000560072 -1.89547e-06
-0.000560072 -0.000225542 -1.92984e-06
-1.89547e-06 -1.92984e-06 -5.65678e-05
0.00252674 -0.000829993 3.91072e-07
-0.000829993 6.57099e-06 1.6017e-06
3.91072e-07 1.6017e-06 -2.71082e-05
0.0041524 -0.00107696 2.47067e-05
-0.00107696 0.00197379 3.6521e-06
2.47067e-05 3.6521e-06 0.00142331
0.001066 -0.00107595 -8.19484e-06
-0.00107595 -0.000212077 2.33208e-06
-8.19484e-06 2.33208e-06 -0.000787458
0.00247061 -0.00107844 -2.12429e-06
-0.00107844 0.000262434 -4.40766e-06
-2.12429e-06 -4.40766e-06 -4.50022e-05
-0.000257418 -0.000703675 2.82742e-06
-0.000703675 -0.000514622 -2.16945e-05
2.82742e-06 -2.16945e-05 -0.00109407
0.00406757 -0.000499024 1.19634e-05
-0.000499024 0.00208341 -4.89215e-06
1.19634e-05 -4.89215e-06 0.00162965
-0.000184168 -9.56604e-05 -3.14262e-06
-9.56604e-05 -0.000390377 1.05509e-05
-3.14262e-06 1.05509e-05 -0.000673708
0.000674148 -7.43251e-05 4.38519e-06
-7.43251e-05 0.000214162 8.07222e-07
4.38519e-06 8.07222e-07 9.44899e-05
0.000549956 -0.000130131 -8.53416e-06
-0.000130131 0.000214881 -1.1616e-05
-8.53416e-06 -1.1616e-05 -0.000123133
0.000567813 -4.71362e-05 5.16892e-06
-4.71362e-05 0.000136575 7.93175e-07
5.16892e-06 7.93175e-07 -4.42162e-05
0.000534794 -2.4763e-06 9.38605e-07
-2.4763e-06 0.000134598 3.27833e-06
9.38605e-07 3.27833e-06 1.1734e-06
0.000593652 -7.74639e-05 -1.07626e-05
-7.74639e-05 8.71532e-05 4.40969e-06
-1.07626e-05 4.40969e-06 -1.60337e-05
0.00273691 -0.000361295 2.29295e-06
-0.000361295 -6.71393e-05 1.00603e-06
2.29295e-06 1.00603e-06 0.000161224
0.000397493 -3.79186e-05 -8.47696e-07
-3.79186e-05 4.27799e-05 3.4901e-06
-8.47696e-07 3.4901e-06 -0.000100632
0.000835026 -7.49392e-05 9.00403e-06
-7.49392e-05 0.000210837 -1.41909e-06
9.00403e-06 -1.41909e-06 8.24582e-05
-0.00098451 -7.43745e-05 1.06848e-05
-7.43745e-05 -0.00081259 -4.67337e-07
1.06848e-05 -4.67337e-07 -0.00088839
0.00222131 -0.000639935 3.85241e-07
-0.000639935 -0.000374555 -1.08241e-06
3.85241e-07 -1.08241e-06 -0.000116724
0.00245871 -0.000997758 2.65719e-06
-0.000997758 0.000104072 -1.28387e-06
2.65719e-06 -1.28387e-06 -0.000107496
0.00189499 -0.00109093 -1.28672e-05
-0.00109093 0.000558513 5.25316e-07
-1.28672e-05 5.25316e-07 4.29477e-06
0.00306292 -0.00129705 -3.772e-06
-0.00129705 0.000756876 1.24532e-07
-3.772e-06 1.24532e-07 0.000324877
0.00165371 -0.000196606 1.00812e-05
-0.000196606 0.000849452 -5.87008e-06
1.00812e-05 -5.87008e-06 0.000563654
-0.000711114 -3.90992e-05 8.11395e-06
-3.90992e-05 -0.000625138 8.57885e-06
8.11395e-06 8.57885e-06 -0.000931766
0.00159767 -0.00121444 -4.87657e-07
-0.00121444 0.000918443 -1.27357e-06
-4.87657e-07 -1.27357e-06 7.21616e-05
0.00187087 -0.000551042 -1.09192e-05
-0.000551042 0.00100482 -1.89742e-06
-1.09192e-05 -1.89742e-06 0.000420073
0.00378198 -0.000536809 -5.10508e-05
-0.000536809 0.000525997 1.95611e-05
-5.10508e-05 1.95611e-05 0.00083606
0.00282766 -0.000838473 -3.48296e-05
-0.000838473 0.000198932 1.35943e-05
-3.48296e-05 1.35943e-05 0.000273112
0.00278732 -0.00115238 -2.3715e-06
-0.00115238 0.000530861 -1.75406e-05
-2.3715e-06 -1.75406e-05 0.000123837
0.00280515 -0.00128159 1.77208e-05
-0.00128159 0.000838424 3.73933e-05
1.77208e-05 3.73933e-05 0.000423761
-1.13932e-05 -0.000128816 -6.60091e-06
-0.000128816 -7.38636e-05 -1.04317e-05
-6.60091e-06 -1.04317e-05 -0.000240099
0.000549643 -0.000199855 -1.7052e-05
-0.000199855 0.000124846 -6.74991e-06
-1.7052e-05 -6.74991e-06 -0.000133601
0.000271216 -0.000240829 -1.06267e-05
-0.000240829 0.000285396 7.04723e-05
-1.06267e-05 7.04723e-05 -9.25491e-05
4.599e-05 -0.00100788 -4.53984e-06
-0.00100788 0.000725127 -4.5069e-05
-4.53984e-06 -4.5069e-05 -0.000467124
0.0045105 -0.000456112 7.99978e-05
-0.000456112 -0.00606722 -3.54523e-06
7.99978e-05 -3.54523e-06 -0.00623532
0.00238183 0.000357802 9.77695e-06
0.000357802 0.00139145 -3.74015e-06
9.77695e-06 -3.74015e-06 0.00111577
0.000794111 0.000399053 5.49285e-07
0.000399053 0.000239024 -2.75072e-06
5.49285e-07 -2.75072e-06 -9.82451e-05
0.00183831 0.000421877 5.52319e-05
0.000421877 -0.000558401 2.49879e-05
5.52319e-05 2.49879e-05 -0.000210018
0.00247899 0.000914561 2.65686e-05
0.000914561 0.000258032 1.31595e-05
2.65686e-05 1.31595e-05 5.9636e-05
0.00270552 0.00106286 1.37563e-05
0.00106286 0.00082466 1.48289e-05
1.37563e-05 1.48289e-05 0.000266049
0.00171143 0.000783279 1.37515e-05
0.000783279 0.00053988 1.17994e-05
1.37515e-05 1.17994e-05 -6.46218e-06
0.00531078 0.00197338 0.000104344
0.00197338 -0.000504292 3.56702e-05
0.000104344 3.56702e-05 -0.000125938
0.00107515 0.000346108 3.86387e-06
0.000346108 0.00066132 -2.96317e-06
3.86387e-06 -2.96317e-06 0.00035972
0.00297429 0.000958514 -1.63585e-05
0.000958514 0.000181697 2.27728e-06
-1.63585e-05 2.27728e-06 0.000243626
0.000985254 0.000557132 -7.35216e-06
0.000557132 0.000211998 5.65506e-06
-7.35216e-06 5.65506e-06 -0.000213126
0.00168694 0.000866235 1.11636e-06
0.000866235 0.000444394 -8.1404e-06
1.11636e-06 -8.1404e-06 -9.2797e-05
0.00266737 0.00114967 -1.25466e-05
0.00114967 0.000543615 -1.36163e-07
-1.25466e-05 -1.36163e-07 0.000150994
0.00538281 -0.000480688 -0.000203176
-0.000480688 -0.00591802 -0.000133654
-0.000203176 -0.000133654 -0.00634499
0.00681266 0.00255229 -0.000181176
0.00255229 -0.00117432 -7.60185e-05
-0.000181176 -7.60185e-05 0.000785327
0.00122257 0.00178183 -4.18707e-06
0.00178183 -0.000693415 1.60128e-06
-4.18707e-06 1.60128e-06 -0.000998984
0.00445482 -0.00320793 0.000760061
-0.00320793 0.00404391 0.000262751
0.000760061 0.000262751 0.000217671
0.0215339 -0.0130784 -0.000598145
-0.0130784 0.0123268 -0.000529663
-0.000598145 -0.000529663 0.00555591
0.000200139 0.000267277 -1.16855e-05
0.000267277 -4.81835e-05 -2.81731e-06
-1.16855e-05 -2.81731e-06 -0.000307914
0.00236401 0.000357488 0.00118324
0.000357488 0.00485602 8.6628e-05
0.00118324 8.6628e-05 0.00263092
0.00680802 -0.00544298 -0.000110429
-0.00544298 0.00833641 -0.000208709
-0.000110429 -0.000208709 0.000705445
0.00366363 0.00155939 -8.03071e-05
0.00155939 0.000727893 -2.84366e-05
-8.03071e-05 -2.84366e-05 0.000436677
0.000531231 0.000472716 -3.31997e-05
0.000472716 -0.00010345 -7.62873e-06
-3.31997e-05 -7.62873e-06 -0.00047766
0.00139066 0.000885915 -4.59996e-05
0.000885915 0.00030482 -3.76737e-05
-4.59996e-05 -3.76737e-05 -0.000155623
-0.000146254 0.00169557 0.000118338
0.00169557 -0.00105269 0.000116164
0.000118338 0.000116164 -0.00139691
0.0142329 0.00353934 0.000136183
0.00353934 0.000647688 -6.16735e-06
0.000136183 -6.16735e-06 0.000905303
0.00620479 0.00385492 -8.08545e-05
0.00385492 -0.000553289 -8.49049e-05
-8.08545e-05 -8.49049e-05 0.000977645
0.0213925 -0.00791456 0.0013372
-0.00791456 0.00831784 0.000472042
0.0013372 0.000472042 0.00189503
0.0164228 -0.00332038 -0.000229989
-0.00332038 0.006633 0.000721411
-0.000229989 0.000721411 0.00331328
0.000622367 0.000118961 1.68892e-06
0.000118961 0.000313753 2.81454e-06
1.68892e-06 2.81454e-06 0.00019473
0.000353697 0.000182136 5.89064e-06
0.000182136 0.000153876 7.93185e-07
5.89064e-06 7.93185e-07 6.78463e-06
0.00133791 0.000295957 3.61887e-06
0.000295957 0.000788378 -4.38936e-06
3.61887e-06 -4.38936e-06 0.000551995
0.00059989 -2.68586e-06 1.97314e-06
-2.68586e-06 0.000169216 1.019e-06
1.97314e-06 1.019e-06 6.93329e-06
0.000624559 7.7412e-05 7.86448e-07
7.7412e-05 0.000171821 -1.70235e-06
7.86448e-07 -1.70235e-06 -5.37808e-06
-0.000168681 3.6216e-05 -1.47304e-06
3.6216e-05 -0.000291065 1.92428e-06
-1.47304e-06 1.92428e-06 -0.000474902
0.00086024 0.000142128 -5.32435e-06
0.000142128 0.00033472 4.37175e-06
-5.32435e-06 4.37175e-06 0.000178032
-0.000237991 8.17163e-05 -3.43548e-06
8.17163e-05 -0.000383605 5.67385e-06
-3.43548e-06 5.67385e-06 -0.000439973
0.000336287 -1.24189e-05 -4.68141e-07
-1.24189e-05 -1.99382e-05 6.83246e-07
-4.68141e-07 6.83246e-07 -0.000168048
0.00149304 0.000184504 3.12484e-06
0.000184504 0.000731517 1.19189e-06
3.12484e-06 1.19189e-06 0.000533258
0.000430478 6.44157e-05 -6.46686e-07
6.44157e-05 0.000112258 -8.13082e-07
-6.46686e-07 -8.13082e-07 -9.39093e-05
0.000786144 4.2987e-05 1.63301e-06
4.2987e-05 0.000298152 -8.8599e-09
1.63301e-06 -8.8599e-09 9.63679e-05
-4.09427e-05 8.6176e-05 -9.25701e-07
8.6176e-05 -0.000122545 -3.52427e-06
-9.25701e-07 -3.52427e-06 -0.000315335
0.00163418 0.000170406 -1.83964e-06
0.000170406 0.00085258 -5.79085e-06
-1.83964e-06 -5.79085e-06 0.000670672
-0.000345644 8.04239e-05 -7.10674e-06
8.04239e-05 -0.000115165 -5.82583e-06
-7.10674e-06 -5.82583e-06 -0.000436171
0.000138145 -4.47727e-05 2.27676e-07
-4.47727e-05 -0.000102788 1.40306e-06
2.27676e-07 1.40306e-06 -0.000296721
0.00072362 -8.41678e-05 -3.20686e-06
-8.41678e-05 0.00026686 -1.85674e-06
-3.20686e-06 -1.85674e-06 7.03259e-05
0.00080759 -6.44844e-05 -4.39263e-07
-6.44844e-05 0.000324718 -1.29364e-06
-4.39263e-07 -1.29364e-06 0.000130452
0.000643101 -6.57817e-05 -4.74983e-06
-6.57817e-05 0.000170718 1.4908e-06
-4.74983e-06 1.4908e-06 1.9505e-05
0.00105732 1.85568e-05 -8.29378e-06
1.85568e-05 0.000534923 -6.85513e-06
-8.29378e-06 -6.85513e-06 0.000318743
0.000965918 -0.000140827 4.57321e-06
-0.000140827 0.000347418 -1.39714e-05
4.57321e-06 -1.39714e-05 0.00021799
-0.000821873 -1.99513e-05 -5.06785e-06
-1.99513e-05 -0.000710407 -8.81056e-06
-5.06785e-06 -8.81056e-06 -0.000843513
-0.000215925 -3.05004e-05 2.26717e-06
-3.05004e-05 -0.000241248 -4.67777e-06
2.26717e-06 -4.67777e-06 -0.000466445
0.000179883 -7.59085e-05 6.88998e-07
-7.59085e-05 -9.0547e-05 -4.19745e-07
6.88998e-07 -4.19745e-07 -0.000238685
0.000840669 -0.000141033 -1.10115e-06
-0.000141033 0.000349895 1.03847e-06
-1.10115e-06 1.03847e-06 0.000175402
0.000457335 -9.51192e-05 5.21055e-09
-9.51192e-05 4.41302e-05 4.7423e-06
5.21055e-09 4.7423e-06 -9.2769e-05
0.000374365 -9.86347e-05 3.84777e-06
-9.86347e-05 1.00836e-05 1.14149e-07
3.84777e-06 1.14149e-07 -0.000152784
0.000540203 -0.000129492 -1.56462e-08
-0.000129492 0.000116307 8.14809e-08
-1.56462e-08 8.14809e-08 -3.54363e-05
0.000500034 -6.76112e-05 -1.49802e-06
-6.76112e-05 5.36596e-05 5.73277e-06
-1.49802e-06 5.73277e-06 -3.64705e-05
0.000305205 -6.04459e-08 6.41075e-08
-6.04459e-08 -2.2589e-05 -3.99309e-07
6.41075e-08 -3.99309e-07 -0.000182732
0.000454185 -5.52986e-08 2.53173e-06
-5.52986e-08 3.44193e-05 1.29029e-07
2.53173e-06 1.29029e-07 -5.82862e-05
0.00142418 -4.10847e-05 -1.29522e-05
-4.10847e-05 0.000620641 7.2001e-06
-1.29522e-05 7.2001e-06 0.00059693
0.000432551 7.70227e-05 -2.51878e-06
7.70227e-05 2.00204e-05 -2.99394e-06
-2.51878e-06 -2.99394e-06 -7.0973e-05
0.000830777 -2.50633e-05 -5.15817e-06
-2.50633e-05 0.000249782 7.52146e-07
-5.15817e-06 7.52146e-07 0.000222704
0.000816102 1.88276e-06 -5.29158e-06
1.88276e-06 0.000220593 4.74974e-06
-5.29158e-06 4.74974e-06 0.000224456
0.000330981 -3.40107e-05 4.93891e-06
-3.40107e-05 -7.19162e-05 -5.28575e-06
4.93891e-06 -5.28575e-06 -9.93192e-05
0.00260695 4.5608e-06 1.0435e-05
4.5608e-06 0.00136661 1.91006e-08
1.0435e-05 1.91006e-08 0.0013781
0.000856409 5.75678e-06 -1.304e-05
5.75678e-06 0.000246014 -5.57462e-06
-1.304e-05 -5.57462e-06 0.000248508
0.000540729 7.83961e-05 2.34587e-06
7.83961e-05 0.000116071 -4.97753e-07
2.34587e-06 -4.97753e-07 4.76078e-07
0.000422353 6.15147e-05 -2.5996e-06
6.15147e-05 -2.24388e-06 -3.40764e-06
-2.5996e-06 -3.40764e-06 -5.6514e-05
0.000447476 1.91171e-06 1.4327e-06
1.91171e-06 1.46891e-05 2.59923e-07
1.4327e-06 2.59923e-07 -4.18541e-05
0.000439537 1.02899e-05 1.19799e-06
1.02899e-05 -3.18904e-05 -3.65291e-06
1.19799e-06 -3.65291e-06 -4.44789e-05
0.000540312 -7.47158e-05 -1.60899e-06
-7.47158e-05 8.37678e-05 3.21824e-06
-1.60899e-06 3.21824e-06 1.52641e-05
0.000458982 1.15021e-05 1.85194e-07
1.15021e-05 -2.06571e-05 -7.5329e-07
1.85194e-07 -7.5329e-07 -3.51579e-05
0.00207588 4.21313e-05 1.51846e-06
4.21313e-05 0.00102407 -5.04558e-06
1.51846e-06 -5.04558e-06 0.00103783
0.00116201 4.10352e-05 8.64146e-07
4.10352e-05 0.000437314 2.40015e-06
8.64146e-07 2.40015e-06 0.00042095
0.00151105 5.13494e-05 -7.69799e-07
5.13494e-05 0.000667889 1.58051e-06
-7.69799e-07 1.58051e-06 0.000673352
0.000826991 5.41914e-05 7.69107e-07
5.41914e-05 0.000235753 1.00433e-05
7.69107e-07 1.00433e-05 0.000232131
0.000943532 0.000698757 8.1073e-05
0.000698757 -0.0029255 2.74466e-05
8.1073e-05 2.74466e-05 -0.00167615
0.00252513 -5.08823e-05 1.0985e-05
-5.08823e-05 -0.000137051 5.10186e-06
1.0985e-05 5.10186e-06 2.49946e-05
0.00226815 8.44039e-05 4.29365e-05
8.44039e-05 -7.35944e-05 -1.15625e-05
4.29365e-05 -1.15625e-05 8.71489e-05
0.00351071 0.000655005 -8.11907e-05
0.000655005 -0.00253213 -4.56525e-05
-8.11907e-05 -4.56525e-05 -0.000304932
0.00315859 0.000117743 7.37485e-05
0.000117743 -0.000772555 -3.28161e-06
7.37485e-05 -3.28161e-06 -7.17161e-05
0.0029455 -5.75559e-05 -5.91802e-06
-5.75559e-05 0.000346554 -7.1259e-06
-5.91802e-06 -7.1259e-06 0.000482825
0.00521277 -0.000552757 -7.20003e-05
-0.000552757 0.000830558 -1.85016e-05
-7.20003e-05 -1.85016e-05 0.00133229
0.00457727 -0.000635712 4.71204e-05
-0.000635712 -0.000857834 -2.50101e-07
4.71204e-05 -2.50101e-07 0.00060464
0.0201722 -0.00112066 0.000101265
-0.00112066 0.00306057 -6.70359e-05
0.000101265 -6.70359e-05 0.00258766
0.0182222 0.00811603 0.00201207
0.00811603 0.00730743 -0.000450011
0.00201207 -0.000450011 0.00227763
0.0274395 0.0093863 0.000129382
0.0093863 0.0176905 5.26922e-05
0.000129382 5.26922e-05 0.0117431
1.5285e-05 -0.000106469 9.46331e-07
-0.000106469 -0.000197278 -2.08519e-06
9.46331e-07 -2.08519e-06 -0.000321577
0.000522417 -6.05212e-06 2.05607e-06
-6.05212e-06 9.79466e-05 3.32523e-08
2.05607e-06 3.32523e-08 -9.32841e-06
0.000602627 -9.5713e-05 -8.07652e-07
-9.5713e-05 0.000170455 5.07639e-06
-8.07652e-07 5.07639e-06 4.36946e-05
0.00053853 -3.85935e-05 1.96361e-06
-3.85935e-05 0.000114491 3.29493e-08
1.96361e-06 3.29493e-08 -9.61966e-06
0.00111014 0.000155781 -6.60973e-06
0.000155781 0.000565319 -1.35576e-06
-6.60973e-06 -1.35576e-06 0.000410009
0.000622628 0.000154598 -6.44258e-07
0.000154598 0.000165055 5.48304e-06
-6.44258e-07 5.48304e-06 2.39903e-05
0.000893416 1.60213e-05 2.29209e-06
1.60213e-05 0.000367214 2.23914e-06
2.29209e-06 2.23914e-06 0.000210646
0.000528648 -2.40851e-05 -1.48517e-06
-2.40851e-05 0.000111329 1.29136e-06
-1.48517e-06 1.29136e-06 -1.7737e-05
0.00273588 -0.000352443 1.47431e-05
-0.000352443 -7.29121e-05 -1.36511e-05
1.47431e-05 -1.36511e-05 0.000181294
0.00226293 -0.000669445 9.79236e-06
-0.000669445 -0.000378877 -5.70137e-06
9.79236e-06 -5.70137e-06 -0.000147776
0.00269634 -0.00102009 6.17034e-06
-0.00102009 0.000234984 6.6651e-06
6.17034e-06 6.6651e-06 2.51647e-05
0.00301099 -0.00120762 1.01696e-05
-0.00120762 0.00113503 -4.08848e-06
1.01696e-05 -4.08848e-06 0.000584324
0.00257011 -0.00124266 -3.26977e-05
-0.00124266 0.000506876 -3.28392e-06
-3.26977e-05 -3.28392e-06 5.83755e-05
0.00107732 -0.00118994 2.70063e-05
-0.00118994 0.000627316 1.05506e-05
2.70063e-05 1.05506e-05 -0.000260665
0.00490417 -0.000887268 8.10583e-06
-0.000887268 0.00252455 7.50874e-06
8.10583e-06 7.50874e-06 0.00203209
0.00167498 -0.000384837 2.02691e-05
-0.000384837 0.000956201 -5.3777e-05
2.02691e-05 -5.3777e-05 0.000534737
0.000461465 -0.000125111 -4.40741e-07
-0.000125111 -4.54705e-05 5.03614e-06
-4.40741e-07 5.03614e-06 -0.000148396
0.00115979 -9.35597e-05 1.47361e-05
-9.35597e-05 0.000502394 -2.28437e-05
1.47361e-05 -2.28437e-05 0.000231267
0.000949109 -6.38729e-05 4.95054e-06
-6.38729e-05 0.000389032 3.26474e-06
4.95054e-06 3.26474e-06 0.00023324
0.000498661 -5.39511e-06 9.79217e-06
-5.39511e-06 0.000147598 -4.99239e-06
9.79217e-06 -4.99239e-06 0.000118104
0.00260058 -0.000473375 -6.35568e-07
-0.000473375 -0.00016424 3.22842e-06
-6.35568e-07 3.22842e-06 0.00022338
0.000323114 -0.000112674 -5.78823e-06
-0.000112674 0.000105826 -8.15387e-07
-5.78823e-06 -8.15387e-07 -5.33179e-05
0.00146206 -0.000259708 -8.2385e-06
-0.000259708 0.000692003 5.99613e-06
-8.2385e-06 5.99613e-06 0.000469555
0.00173964 -0.000753968 8.66684e-06
-0.000753968 -0.000431202 -4.61768e-06
8.66684e-06 -4.61768e-06 -0.000291525
0.00237323 -0.0010596 1.86668e-06
-0.0010596 0.000314322 5.35443e-06
1.86668e-06 5.35443e-06 -2.30531e-05
0.00122792 -0.00107333 -3.6378e-06
-0.00107333 -9.36418e-05 -1.63327e-05
-3.6378e-06 -1.63327e-05 -0.000443213
0.00159231 -0.000418862 -2.79228e-06
-0.000418862 0.00098938 -3.33628e-05
-2.79228e-06 -3.33628e-05 0.000508248
0.00120912 -0.000758976 1.22308e-05
-0.000758976 0.00116922 2.81224e-06
1.22308e-05 2.81224e-06 0.000209417
0.00611945 -0.00110214 -5.19022e-05
-0.00110214 0.00157717 3.59861e-05
-5.19022e-05 3.59861e-05 0.0018494
0.00334627 -0.00111756 -3.95051e-05
-0.00111756 0.000838875 1.39724e-05
-3.95051e-05 1.39724e-05 0.000590975
0.00263406 -0.00126214 1.18337e-05
-0.00126214 0.000579913 1.72142e-05
1.18337e-05 1.72142e-05 0.00021924
-0.00016642 -0.000688232 -7.73724e-06
-0.000688232 -0.00052448 2.59789e-05
-7.73724e-06 2.59789e-05 -0.00068129
0.000570813 -0.000180117 7.16006e-07
-0.000180117 0.000318738 4.50214e-06
7.16006e-07 4.50214e-06 4.24485e-05
0.000276529 -0.000198857 4.0728e-06
-0.000198857 0.000218806 2.19864e-06
4.0728e-06 2.19864e-06 -0.000125979
0.00126525 -0.000332844 -1.76491e-05
-0.000332844 0.00118974 -2.13735e-05
-1.76491e-05 -2.13735e-05 0.000386865
-0.0076905 -0.000578788 0.000830101
-0.000578788 -0.00346802 -4.43849e-05
0.000830101 -4.43849e-05 -0.00474371
0.0121336 -0.000470071 8.23436e-05
-0.000470071 -0.000248795 4.52699e-05
8.23436e-05 4.52699e-05 0.000587615
0.00280288 0.000441642 1.04632e-05
0.000441642 0.00162998 -1.04844e-05
1.04632e-05 -1.04844e-05 0.00136656
0.00207076 0.000696337 2.97645e-07
0.000696337 0.000922513 7.77635e-06
2.97645e-07 7.77635e-06 0.000449864
0.00204843 0.000806206 0.000109044
0.000806206 -0.000314439 5.20348e-05
0.000109044 5.20348e-05 -0.000190316
0.00363619 0.00123779 3.23647e-05
0.00123779 0.00107802 1.77894e-05
3.23647e-05 1.77894e-05 0.000651194
0.00303401 0.00106075 2.53549e-05
0.00106075 0.00120636 8.43416e-06
2.53549e-05 8.43416e-06 0.00062923
0.0179016 0.000853309 0.000106109
0.000853309 0.00222758 -9.55513e-05
0.000106109 -9.55513e-05 0.00213968
0.00861753 0.0031524 -0.000277443
0.0031524 -0.0016473 -3.78913e-05
-0.000277443 -3.78913e-05 0.000817299
0.00192508 0.00178548 7.51799e-06
0.00178548 -0.000196402 -3.37677e-05
7.51799e-06 -3.37677e-05 -0.000636396
0.0166759 -0.00633147 -0.000768142
-0.00633147 0.00736875 4.64438e-05
-0.000768142 4.64438e-05 0.00269316
0.0130554 -0.0142106 -0.00311854
-0.0142106 0.0109135 -0.00176949
-0.00311854 -0.00176949 0.00372062
0.000802932 0.000369042 5.3835e-06
0.000369042 0.00038977 -2.76186e-06
5.3835e-06 -2.76186e-06 8.42819e-05
-0.000189538 -0.00371855 0.000748226
-0.00371855 -0.00200541 9.47677e-05
0.000748226 9.47677e-05 -0.00537659
0.000129981 -0.00428929 -0.000781185
-0.00428929 0.00871381 -0.000190375
-0.000781185 -0.000190375 0.001331
0.00395269 0.00147925 -1.92679e-05
0.00147925 0.000834423 2.23203e-06
-1.92679e-05 2.23203e-06 0.000598677
0.000891596 0.000576739 -1.10971e-05
0.000576739 0.000171449 8.88962e-06
-1.10971e-05 8.88962e-06 -0.000256564
0.00185442 0.00102817 5.11196e-06
0.00102817 0.00055804 1.74734e-06
5.11196e-06 1.74734e-06 3.68768e-05
0.00183282 0.00171081 6.96261e-05
0.00171081 0.000324792 4.89815e-05
6.96261e-05 4.89815e-05 -6.78193e-07
0.0142131 0.00387915 -0.000164797
0.00387915 -0.000358149 -0.000118496
-0.000164797 -0.000118496 -0.0012928
0.00336515 0.00368527 -1.53459e-05
0.00368527 -0.00127949 -4.24003e-05
-1.53459e-05 -4.24003e-05 0.000390308
0.0217636 -0.00666262 0.000736604
-0.00666262 0.00963244 -3.53271e-05
0.000736604 -3.53271e-05 0.00326765
0.0219056 -0.00550719 9.54051e-07
-0.00550719 0.00639211 0.000867984
9.54051e-07 0.000867984 0.001885
0.00156015 0.0004476 -1.75926e-05
0.0004476 0.000789441 -1.81554e-05
-1.75926e-05 -1.81554e-05 0.000510076
-0.00899999 0.00130178 -8.99541e-05
0.00130178 0.00514362 -0.000155933
-8.99541e-05 -0.000155933 -0.00299314
0.00654461 0.00150966 -0.000536202
0.00150966 0.00531913 -0.000593162
-0.000536202 -0.000593162 7.57306e-06
0.00272476 0.00110131 -4.35266e-05
0.00110131 0.000636818 -2.09589e-05
-4.35266e-05 -2.09589e-05 0.000528896
0.00314303 0.001099 -9.04116e-05
0.001099 0.00141665 -3.37163e-05
-9.04116e-05 -3.37163e-05 0.000919985
0.00226187 0.00132677 -0.000100671
0.00132677 0.00138753 -3.28668e-05
-0.000100671 -3.28668e-05 0.000586632
-0.00322145 0.00242271 4.63923e-05
0.00242271 -0.00114471 -3.12481e-05
4.63923e-05 -3.12481e-05 -0.0012193
0.00387032 0.00537597 0.000681348
0.00537597 -0.0019137 0.000115879
0.000681348 0.000115879 -0.00331331
0.0235947 -0.00841036 -6.04146e-05
-0.00841036 0.0131123 0.000890638
-6.04146e-05 0.000890638 0.00598341
0.00930179 9.78192e-05 -0.000208138
9.78192e-05 -0.00182946 -0.000202145
-0.000208138 -0.000202145 -0.00140608
-0.00014895 0.000179274 -1.02018e-06
0.000179274 -0.000120522 -2.36114e-06
-1.02018e-06 -2.36114e-06 -0.000290802
0.00187644 0.000379978 8.90724e-06
0.000379978 0.00109866 2.41785e-06
8.90724e-06 2.41785e-06 0.000847597
-0.000603654 0.00011968 -6.25073e-06
0.00011968 -0.000355473 2.8966e-06
-6.25073e-06 2.8966e-06 -0.00055929
0.000343088 5.44426e-05 2.30273e-06
5.44426e-05 -1.76598e-05 2.23836e-06
2.30273e-06 2.23836e-06 -0.000166143
0.00110199 8.74045e-05 3.90995e-07
8.74045e-05 0.000514634 -4.5992e-07
3.90995e-07 -4.5992e-07 0.000304829
0.000537695 3.68369e-05 -2.54032e-06
3.68369e-05 0.000185417 2.42724e-06
-2.54032e-06 2.42724e-06 -3.34766e-05
0.00030064 0.000111729 7.40193e-06
0.000111729 7.13379e-06 8.45363e-06
7.40193e-06 8.45363e-06 -0.000202024
-0.000867459 2.38353e-05 -5.16078e-06
2.38353e-05 -0.000619622 3.45382e-06
-5.16078e-06 3.45382e-06 -0.000806988
0.000770639 3.57252e-05 3.83316e-07
3.57252e-05 0.000301223 -6.79231e-07
3.83316e-07 -6.79231e-07 0.000101325
0.000683562 0.000100317 4.42784e-07
0.000100317 0.000250022 -1.0375e-07
4.42784e-07 -1.0375e-07 7.50532e-05
0.000856731 -4.10569e-05 -1.25501e-06
-4.10569e-05 0.00037591 2.36654e-06
-1.25501e-06 2.36654e-06 0.000160032
-0.00114553 4.72985e-05 1.61549e-06
4.72985e-05 -0.000583488 1.10847e-06
1.61549e-06 1.10847e-06 -0.000903146
0.00118901 9.70921e-05 -7.6749e-07
9.70921e-05 0.000926005 6.58784e-06
-7.6749e-07 6.58784e-06 0.000538479
0.000790339 -1.42181e-05 -3.67215e-09
-1.42181e-05 0.000455297 -6.65455e-06
-3.67215e-09 -6.65455e-06 0.000205051
0.00162275 -1.62437e-05 -2.78739e-06
-1.62437e-05 0.000916298 3.38935e-06
-2.78739e-06 3.38935e-06 0.000662685
0.000867386 -9.44297e-05 -7.02383e-07
-9.44297e-05 0.000365028 -7.06549e-07
-7.02383e-07 -7.06549e-07 0.000164764
0.000120681 -0.000118256 3.85737e-06
-0.000118256 -0.000169393 1.38744e-05
3.85737e-06 1.38744e-05 -0.000308433
0.000599805 -9.33353e-05 5.89981e-07
-9.33353e-05 0.000217541 -5.30979e-07
5.89981e-07 -5.30979e-07 1.79362e-05
0.000769983 -0.000124078 -2.84437e-06
-0.000124078 0.000213434 -1.28794e-06
-2.84437e-06 -1.28794e-06 8.26891e-05
-0.000333962 -7.07244e-05 1.20048e-06
-7.07244e-05 -0.000396164 6.17053e-06
1.20048e-06 6.17053e-06 -0.000517395
-0.000366906 -4.94563e-05 4.19914e-07
-4.94563e-05 -0.000383616 -8.23145e-06
4.19914e-07 -8.23145e-06 -0.000557531
2.2477e-05 -4.93568e-05 -8.23601e-06
-4.93568e-05 -4.81272e-05 -2.20414e-06
-8.23601e-06 -2.20414e-06 -0.000261825
0.000275989 -0.000132798 2.12504e-06
-0.000132798 -1.69874e-06 -1.13279e-05
2.12504e-06 -1.13279e-05 -0.00013062
0.00118589 -0.000146164 2.43408e-05
-0.000146164 0.000446805 -1.75635e-05
2.43408e-05 -1.75635e-05 0.000325042
0.00223956 -0.00041926 -1.13035e-06
-0.00041926 0.00103667 3.18977e-06
-1.13035e-06 3.18977e-06 0.000797782
-0.000402475 -9.12485e-05 -4.45215e-06
-9.12485e-05 -0.000402955 -2.40711e-06
-4.45215e-06 -2.40711e-06 -0.000608188
0.000528597 -4.79867e-05 2.42101e-06
-4.79867e-05 0.000205934 -6.68722e-07
2.42101e-06 -6.68722e-07 -8.24788e-06
-0.000708478 -1.38199e-05 4.78021e-06
-1.38199e-05 -0.000600696 -8.45208e-07
4.78021e-06 -8.45208e-07 -0.000822116
0.000651014 -0.00016737 -1.61007e-06
-0.00016737 0.00023102 -9.14538e-07
-1.61007e-06 -9.14538e-07 5.56594e-05
0.000429398 -4.79529e-05 1.3617e-06
-4.79529e-05 2.50755e-05 9.3679e-07
1.3617e-06 9.3679e-07 -0.000118058
0.000610587 -0.000161971 1.21666e-06
-0.000161971 0.000186226 3.48489e-07
1.21666e-06 3.48489e-07 2.61043e-05
0.000579857 -9.71982e-05 -4.75719e-07
-9.71982e-05 0.000140693 1.57517e-07
-4.75719e-07 1.57517e-07 -8.23777e-06
0.000345841 3.3026e-05 9.83551e-07
3.3026e-05 -4.67502e-05 5.68305e-06
9.83551e-07 5.68305e-06 -0.000141252
0.000603676 -0.00012966 -1.30463e-07
-0.00012966 0.000149332 -3.13895e-06
-1.30463e-07 -3.13895e-06 -9.68452e-07
0.000504839 -5.25189e-05 -6.10655e-07
-5.25189e-05 5.0683e-05 1.76457e-07
-6.10655e-07 1.76457e-07 -3.57784e-05
0.00140427 2.4649e-05 -8.29514e-06
2.4649e-05 0.000599191 7.90722e-06
-8.29514e-06 7.90722e-06 0.000575711
0.00047912 -7.50841e-05 7.38609e-07
-7.50841e-05 4.36625e-05 -3.49211e-06
7.38609e-07 -3.49211e-06 -4.51957e-05
0.000850196 -2.63039e-05 -9.84182e-06
-2.63039e-05 0.000254074 8.82928e-07
-9.84182e-06 8.82928e-07 0.000227616
0.000737197 1.07646e-05 1.69741e-06
1.07646e-05 0.000159741 2.23142e-06
1.69741e-06 2.23142e-06 0.000162911
0.000404772 -3.23443e-05 3.61027e-06
-3.23443e-05 -2.92721e-05 -4.84517e-06
3.61027e-06 -4.84517e-06 -5.54505e-05
0.00255943 8.78714e-06 7.09821e-06
8.78714e-06 0.00133456 2.32104e-09
7.09821e-06 2.32104e-09 0.00134685
0.00259082 -1.41021e-06 6.26219e-06
-1.41021e-06 0.00135605 -5.06442e-06
6.26219e-06 -5.06442e-06 0.00136763
0.00104601 8.18987e-05 -7.52986e-07
8.18987e-05 0.000438622 -3.77817e-07
-7.52986e-07 -3.77817e-07 0.000317209
0.000496605 7.15509e-05 -1.82543e-06
7.15509e-05 4.951e-05 -3.71976e-06
-1.82543e-06 -3.71976e-06 -1.11965e-05
0.000526684 -1.79108e-05 -7.25447e-07
-1.79108e-05 0.000109256 8.4204e-07
-7.25447e-07 8.4204e-07 -5.86239e-06
0.000433047 1.01996e-05 1.33842e-06
1.01996e-05 -3.6588e-05 -3.90453e-06
1.33842e-06 -3.90453e-06 -4.81187e-05
0.000413364 -8.89123e-06 1.59769e-06
-8.89123e-06 -1.02573e-05 -2.29816e-07
1.59769e-06 -2.29816e-07 -6.29139e-05
0.000485279 -6.56654e-05 -2.04929e-06
-6.56654e-05 4.43617e-05 3.37329e-06
-2.04929e-06 3.37329e-06 -1.53962e-05
0.000447038 6.60988e-06 -6.24154e-07
6.60988e-06 -2.75318e-05 1.63726e-08
-6.24154e-07 1.63726e-08 -4.00966e-05
0.00203146 2.70872e-05 -3.82684e-06
2.70872e-05 0.000992599 -5.07659e-06
-3.82684e-06 -5.07659e-06 0.00100825
0.00117813 2.40367e-05 -7.12254e-07
2.40367e-05 0.000442986 2.62727e-06
-7.12254e-07 2.62727e-06 0.000431319
0.00132773 3.2724e-05 -3.13619e-06
3.2724e-05 0.00054212 1.41425e-08
-3.13619e-06 1.41425e-08 0.000552268
0.000763432 3.869e-05 -4.46528e-06
3.869e-05 0.000186498 8.351e-06
-4.46528e-06 8.351e-06 0.000189061
-0.00717348 0.00215652 0.000837821
0.00215652 -0.00222265 -0.000102788
0.000837821 -0.000102788 -0.00632502
0.00152433 0.00147765 0.0018734
0.00147765 0.00888458 -0.000377114
0.0018734 -0.000377114 0.00340901
0.0022449 0.000662305 -0.000163194
0.000662305 -0.00306044 -3.67143e-05
-0.000163194 -3.67143e-05 -0.000582811
0.00236965 -4.66436e-05 1.66665e-05
-4.66436e-05 -0.00119188 -3.29081e-05
1.66665e-05 -3.29081e-05 -0.000409425
0.00216379 -8.17558e-05 4.45327e-05
-8.17558e-05 -0.000221422 1.70706e-05
4.45327e-05 1.70706e-05 -6.1772e-05
-0.00148423 -7.7651e-05 -0.000128492
-7.7651e-05 -0.00261709 -3.57001e-05
-0.000128492 -3.57001e-05 -0.000824434
0.00398916 -0.000596562 1.94031e-06
-0.000596562 1.74166e-05 4.18896e-06
1.94031e-06 4.18896e-06 0.000439843
0.0123527 -0.000308462 0.000256418
-0.000308462 -0.00232822 -0.000112224
0.000256418 -0.000112224 -0.00255323
0.00462486 0.00537798 -4.8946e-06
0.00537798 0.00178793 -8.3024e-05
-4.8946e-06 -8.3024e-05 -0.00276824
0.0221524 0.0113509 -0.000751049
0.0113509 0.014655 0.000306892
-0.000751049 0.000306892 0.00833034
0.00197722 -0.00123685 1.53243e-05
-0.00123685 -0.00328043 -3.14377e-05
1.53243e-05 -3.14377e-05 -0.00123609
0.0156243 -0.00364201 0.000272897
-0.00364201 0.000649513 -7.05432e-05
0.000272897 -7.05432e-05 -0.000263287
0.023953 0.00755524 0.000471604
0.00755524 0.00865453 -0.000524424
0.000471604 -0.000524424 0.00217786
0.0265107 0.00562258 -0.000358846
0.00562258 0.00956073 0.00034906
-0.000358846 0.00034906 0.00543161
0.00115385 0.000183252 -5.22099e-06
0.000183252 0.00059676 5.8896e-07
-5.22099e-06 5.8896e-07 0.000389135
0.000311093 4.09675e-05 8.34299e-07
4.09675e-05 -3.22735e-05 -8.23702e-07
8.34299e-07 -8.23702e-07 -0.000146425
0.000520991 -0.000101492 3.01912e-06
-0.000101492 0.000110311 2.98348e-06
3.01912e-06 2.98348e-06 -3.59097e-06
0.000737752 -1.09961e-06 7.22108e-06
-1.09961e-06 0.000251986 -3.17231e-07
7.22108e-06 -3.17231e-07 0.00012133
0.000770917 8.32307e-05 3.59244e-06
8.32307e-05 0.000344352 2.82921e-07
3.59244e-06 2.82921e-07 0.00020965
0.000563093 6.32939e-05 -5.24271e-07
6.32939e-05 0.000160249 7.29077e-06
-5.24271e-07 7.29077e-06 -2.48629e-05
0.000672486 8.72323e-05 -5.75915e-07
8.72323e-05 0.000222417 3.05668e-06
-5.75915e-07 3.05668e-06 7.43502e-05
0.000419742 9.5407e-05 4.49529e-06
9.5407e-05 1.61325e-05 3.2457e-06
4.49529e-06 3.2457e-06 -0.000139546
0.000618692 -7.88002e-06 2.02391e-06
-7.88002e-06 0.000189165 -1.19358e-06
2.02391e-06 -1.19358e-06 3.45711e-05
0.000404267 -2.70368e-05 2.8159e-06
-2.70368e-05 2.35638e-05 -1.10895e-06
2.8159e-06 -1.10895e-06 -9.44852e-05
0.00113998 -0.000381405 3.89375e-05
-0.000381405 -0.00101566 -1.95884e-05
3.89375e-05 -1.95884e-05 -0.000540811
0.00106817 -0.000692484 2.11851e-05
-0.000692484 -0.000790944 -8.75015e-06
2.11851e-05 -8.75015e-06 -0.000613587
0.000974071 -0.000863886 6.35898e-06
-0.000863886 -0.000457603 5.30863e-06
6.35898e-06 5.30863e-06 -0.000696132
-0.000635435 -0.00080474 -1.86037e-05
-0.00080474 -0.00112053 -1.13598e-05
-1.86037e-05 -1.13598e-05 -0.00140965
0.0027047 -0.000648266 9.72983e-06
-0.000648266 0.00183609 5.32819e-05
9.72983e-06 5.32819e-05 0.00106337
-0.000654205 -0.000683681 -8.15459e-06
-0.000683681 -0.000342307 -1.28066e-05
-8.15459e-06 -1.28066e-05 -0.00101243
0.00131094 -0.000320707 1.09834e-05
-0.000320707 0.000620789 -4.50009e-06
1.09834e-05 -4.50009e-06 0.000432168
0.000253835 -6.20453e-05 3.25238e-06
-6.20453e-05 3.1625e-05 4.604e-06
3.25238e-06 4.604e-06 -0.00011348
0.00270529 -0.000785494 1.53719e-05
-0.000785494 -0.000348991 -1.01465e-05
1.53719e-05 -1.01465e-05 9.83362e-05
0.000503337 -0.000102588 4.66974e-07
-0.000102588 0.000265383 2.47059e-06
4.66974e-07 2.47059e-06 -1.46003e-05
-0.000139746 -0.000239574 -4.84784e-06
-0.000239574 -3.43536e-05 -4.97863e-06
-4.84784e-06 -4.97863e-06 -0.000377467
0.00198044 -0.000947905 1.93955e-05
-0.000947905 6.96459e-05 -1.5316e-06
1.93955e-05 -1.5316e-06 -5.77543e-05
0.00184588 -0.00114634 -2.14477e-06
-0.00114634 8.35588e-05 -3.07522e-06
-2.14477e-06 -3.07522e-06 -0.000167226
3.90952e-05 -0.000799153 1.49641e-05
-0.000799153 -0.000366302 -1.99975e-05
1.49641e-05 -1.99975e-05 -0.000620548
0.000870155 -0.000426487 1.61616e-05
-0.000426487 0.000938566 -2.43719e-05
1.61616e-05 -2.43719e-05 0.000161612
0.0017103 -0.00118801 -5.38173e-05
-0.00118801 -0.000392857 4.62431e-05
-5.38173e-05 4.62431e-05 -0.000542596
0.00194285 -0.00101427 -3.64051e-05
-0.00101427 0.000288071 2.30576e-05
-3.64051e-05 2.30576e-05 0.000220262
-0.000974363 -0.000564567 -4.16168e-05
-0.000564567 -0.000455995 3.63527e-05
-4.16168e-05 3.63527e-05 -0.000878084
-0.00170365 -0.000155412 -1.00544e-05
-0.000155412 -0.00115009 1.18111e-05
-1.00544e-05 1.18111e-05 -0.00141249
-0.00123221 -6.88528e-06 -1.72842e-06
-6.88528e-06 -0.000732065 1.25653e-05
-1.72842e-06 1.25653e-05 -0.00105003
0.000877824 -7.86361e-05 2.36976e-06
-7.86361e-05 0.000609583 -1.22478e-05
2.36976e-06 -1.22478e-05 0.0002105
-0.00288776 0.00151463 -0.000575
0.00151463 0.00798601 2.54326e-05
-0.000575 2.54326e-05 0.00171826
-0.000231105 -0.002097 -2.3566e-05
-0.002097 0.00339825 -2.12523e-05
-2.3566e-05 -2.12523e-05 0.00166902
0.00469244 0.000895192 -0.00017308
0.000895192 -0.00634897 -3.63923e-05
-0.00017308 -3.63923e-05 -0.00642332
0.00103571 0.000412419 1.69144e-05
0.000412419 0.000591444 -5.6211e-06
1.69144e-05 -5.6211e-06 0.00026099
0.00179532 0.000761119 1.83952e-05
0.000761119 0.000756015 2.65184e-05
1.83952e-05 2.65184e-05 0.00025259
0.00331589 0.00128576 8.39428e-05
0.00128576 0.00046422 3.69285e-05
8.39428e-05 3.69285e-05 0.000301625
0.00149435 0.00107103 2.0909e-05
0.00107103 0.000405047 2.88776e-05
2.0909e-05 2.88776e-05 -0.000167149
0.0149056 -0.00440569 0.000325691
-0.00440569 0.00659626 9.73887e-05
0.000325691 9.73887e-05 0.00345078
0.00365177 0.00254861 -0.000484967
0.00254861 -0.00607824 -0.000121821
-0.000484967 -0.000121821 -0.00692272
0.00590378 0.00371726 4.94935e-05
0.00371726 0.000494966 3.09456e-05
4.94935e-05 3.09456e-05 0.0015181
0.00293069 0.00159981 8.11553e-05
0.00159981 0.00122318 5.60839e-06
8.11553e-05 5.60839e-06 0.000919416
0.0137562 -0.003839 -0.000663653
-0.003839 0.00585089 -0.000315645
-0.000663653 -0.000315645 0.00020537
0.00187304 -0.0056156 -0.00115663
-0.0056156 0.00960457 -0.000281959
-0.00115663 -0.000281959 0.00218895
0.0321212 -0.00775064 0.00108949
-0.00775064 0.0103141 0.00046899
0.00108949 0.00046899 0.00506599
0.000167606 0.000323632 1.57694e-05
0.000323632 -1.80962e-05 -5.48915e-06
1.57694e-05 -5.48915e-06 -0.000291483
-0.00325433 0.000312733 -0.000196308
0.000312733 0.00738166 -2.82338e-05
-0.000196308 -2.82338e-05 0.000301893
0.00718291 0.0020116 -0.000219282
0.0020116 0.00410736 -0.000199421
-0.000219282 -0.000199421 -0.00192004
0.00186586 0.00112627 9.71388e-06
0.00112627 0.00029602 3.17612e-06
9.71388e-06 3.17612e-06 0.000107419
0.000860374 0.00083285 1.84193e-05
0.00083285 0.000300277 7.58772e-06
1.84193e-05 7.58772e-06 -0.000201942
0.00115092 0.00137166 -9.43239e-05
0.00137166 0.000711861 -7.92409e-05
-9.43239e-05 -7.92409e-05 5.90145e-05
0.00374631 0.00423695 5.84591e-05
0.00423695 0.000906189 4.86855e-05
5.84591e-05 4.86855e-05 0.00102773
0.0143057 0.00636115 -5.75057e-06
0.00636115 0.00166955 1.53603e-06
-5.75057e-06 1.53603e-06 -0.000506489
0.0109356 -0.00458363 0.000103862
-0.00458363 0.00721382 -0.000135627
0.000103862 -0.000135627 -0.000205698
0.0176799 -0.00217173 -3.49365e-05
-0.00217173 0.00262063 -6.83249e-05
-3.49365e-05 -6.83249e-05 0.00319976
0.00115344 0.000707018 -1.82013e-05
0.000707018 0.000535604 -8.32957e-06
-1.82013e-05 -8.32957e-06 0.000142068
0.00152041 0.000356974 -0.000484378
0.000356974 0.00300704 -0.000131382
-0.000484378 -0.000131382 -0.00313101
0.00189639 0.00134916 -0.000175453
0.00134916 0.00014581 -0.000197008
-0.000175453 -0.000197008 -0.00185089
-0.000845936 0.000439676 -5.36064e-06
0.000439676 -0.000152486 -2.49741e-05
-5.36064e-06 -2.49741e-05 -0.000504369
-0.0018035 0.000947562 -0.000182993
0.000947562 0.000743817 -2.27919e-06
-0.000182993 -2.27919e-06 -1.6166e-05
0.00975872 0.0063921 0.000166644
0.0063921 0.00352696 -2.48437e-05
0.000166644 -2.48437e-05 -0.00150506
0.00241756 -0.00662968 -2.41557e-05
-0.00662968 0.000976725 0.000230217
-2.41557e-05 0.000230217 -0.00544257
0.0143967 -0.000251904 7.28229e-05
-0.000251904 -0.00123983 -0.000348441
7.28229e-05 -0.000348441 0.000723465
0.00123331 0.000283557 1.10157e-06
0.000283557 0.00065022 2.19455e-05
1.10157e-06 2.19455e-05 0.000444351
0.000983785 0.000292725 -8.78984e-06
0.000292725 0.000629079 -6.25667e-06
-8.78984e-06 -6.25667e-06 0.000371673
-0.000597856 0.000142885 1.56917e-06
0.000142885 -0.000111575 -1.09655e-06
1.56917e-06 -1.09655e-06 -0.000499333
0.00045033 8.47281e-05 3.28906e-08
8.47281e-05 7.14281e-05 -3.2431e-07
3.28906e-08 -3.2431e-07 -0.000109095
0.00131692 -2.89424e-05 -3.65133e-06
-2.89424e-05 0.000690392 4.66459e-06
-3.65133e-06 4.66459e-06 0.000456992
-0.000309103 7.83795e-05 2.81727e-06
7.83795e-05 -0.000380535 4.51799e-06
2.81727e-06 4.51799e-06 -0.000550332
-0.00146506 6.45757e-05 2.13227e-06
6.45757e-05 -0.000758327 1.71175e-06
2.13227e-06 1.71175e-06 -0.00108603
0.000454333 -2.14902e-05 1.64552e-06
-2.14902e-05 0.000122241 5.66562e-07
1.64552e-06 5.66562e-07 -8.78902e-05
0.000477898 8.81412e-05 8.5412e-07
8.81412e-05 0.000255822 -2.33153e-06
8.5412e-07 -2.33153e-06 1.12935e-05
-4.95092e-05 5.0953e-05 3.96313e-06
5.0953e-05 0.000299656 2.80198e-06
3.96313e-06 2.80198e-06 -0.000183568
-0.0013947 4.18987e-06 -7.45721e-07
4.18987e-06 -0.000342383 1.02427e-05
-7.45721e-07 1.02427e-05 -0.000915645
0.00081856 1.97965e-05 -1.25485e-06
1.97965e-05 0.000757503 -6.03802e-06
-1.25485e-06 -6.03802e-06 0.000337634
0.00181213 5.44802e-05 -1.74151e-06
5.44802e-05 0.00108519 1.77675e-06
-1.74151e-06 1.77675e-06 0.000849578
0.000901097 -0.000178164 4.19512e-06
-0.000178164 0.000413754 3.27208e-06
4.19512e-06 3.27208e-06 0.000208487
0.000121605 -8.72828e-05 9.29897e-07
-8.72828e-05 -0.00021555 7.92323e-06
9.29897e-07 7.92323e-06 -0.000336622
-0.00011534 -8.52104e-05 1.02513e-05
-8.52104e-05 -0.000260562 1.85954e-05
1.02513e-05 1.85954e-05 -0.000359393
0.000270152 -2.89531e-05 8.70769e-07
-2.89531e-05 9.24981e-05 1.36344e-06
8.70769e-07 1.36344e-06 -0.000108579
0.000444826 -4.27382e-05 -3.29349e-07
-4.27382e-05 9.89563e-05 1.8554e-06
-3.29349e-07 1.8554e-06 -6.67636e-05
7.71762e-05 -7.18021e-05 -3.55713e-06
-7.18021e-05 -9.29093e-05 -1.23598e-06
-3.55713e-06 -1.23598e-06 -0.000230926
0.000297427 -8.99486e-05 -3.59222e-06
-8.99486e-05 3.2504e-05 -5.96994e-06
-3.59222e-06 -5.96994e-06 -0.00011451
0.00106837 -0.000117283 9.46334e-06
-0.000117283 0.000713558 -1.09476e-05
9.46334e-06 -1.09476e-05 0.000510404
0.00231554 -0.000375779 6.55076e-06
-0.000375779 0.00108838 3.69593e-06
6.55076e-06 3.69593e-06 0.000969603
0.000633225 -0.000140963 -1.82885e-05
-0.000140963 0.000116426 9.66953e-08
-1.82885e-05 9.66953e-08 -1.75091e-06
0.00080509 -0.000310566 8.65821e-06
-0.000310566 0.000164736 4.80159e-06
8.65821e-06 4.80159e-06 -4.02674e-05
0.00261364 -0.000728762 -5.01487e-06
-0.000728762 0.00122045 2.10302e-05
-5.01487e-06 2.10302e-05 0.000800937
0.00218975 -0.000303701 8.44082e-06
-0.000303701 0.001051 -9.00001e-06
8.44082e-06 -9.00001e-06 0.000834988
0.00108389 -0.000308957 -3.59082e-06
-0.000308957 0.000341497 -6.48058e-06
-3.59082e-06 -6.48058e-06 0.000148962
0.000471288 -0.000119086 -6.3001e-07
-0.000119086 0.000119966 -1.10979e-06
-6.3001e-07 -1.10979e-06 -8.73758e-05
-0.000867297 -5.89382e-05 1.07993e-07
-5.89382e-05 -0.000668909 -2.50383e-06
1.07993e-07 -2.50383e-06 -0.000944
0.00135024 -5.02524e-05 1.96928e-06
-5.02524e-05 0.000705717 2.68724e-06
1.96928e-06 2.68724e-06 0.000499486
0.000686314 -0.00016959 1.56879e-06
-0.00016959 0.000264763 -9.38692e-07
1.56879e-06 -9.38692e-07 3.8096e-05
0.000285442 -7.00774e-05 7.08826e-07
-7.00774e-05 -8.68495e-05 -7.66283e-07
7.08826e-07 -7.66283e-07 -0.000234264
0.00154842 -0.000278391 -5.02077e-06
-0.000278391 0.000814801 9.85441e-07
-5.02077e-06 9.85441e-07 0.00061229
0.000741163 -0.00013963 -2.00702e-07
-0.00013963 0.00023072 1.96228e-07
-2.00702e-07 1.96228e-07 7.85678e-05
0.000495694 -5.78427e-06 -4.41349e-07
-5.78427e-06 3.9817e-05 4.28645e-06
-4.41349e-07 4.28645e-06 -5.64818e-05
0.000802995 -0.000151033 -7.32501e-07
-0.000151033 0.000289782 -2.82067e-06
-7.32501e-07 -2.82067e-06 0.000134934
0.000576912 -6.91097e-05 -2.29126e-07
-6.91097e-05 9.83688e-05 4.6674e-08
-2.29126e-07 4.6674e-08 3.19572e-06
0.00145338 5.38697e-06 -1.37627e-05
5.38697e-06 0.000626605 8.75447e-06
-1.37627e-05 8.75447e-06 0.000599828
0.000526209 -7.75548e-05 9.6629e-07
-7.75548e-05 7.21955e-05 -5.60104e-06
9.6629e-07 -5.60104e-06 -2.09386e-05
0.000844115 -1.77764e-05 -1.14608e-05
-1.77764e-05 0.000242366 8.25968e-07
-1.14608e-05 8.25968e-07 0.000214936
0.000786941 1.94577e-05 1.71199e-06
1.94577e-05 0.000189514 3.15467e-06
1.71199e-06 3.15467e-06 0.000190024
0.000402616 -4.45045e-05 3.06755e-06
-4.45045e-05 -3.46871e-05 -5.45934e-06
3.06755e-06 -5.45934e-06 -6.3372e-05
0.00166374 1.74371e-05 1.40119e-05
1.74371e-05 0.000756891 -1.55512e-06
1.40119e-05 -1.55512e-06 0.000765012
0.00250437 6.32606e-06 1.70065e-05
6.32606e-06 0.00129841 -5.2061e-06
1.70065e-05 -5.2061e-06 0.00131113
0.000466364 7.26603e-05 1.48593e-06
7.26603e-05 3.89059e-05 -1.53643e-06
1.48593e-06 -1.53643e-06 -7.82336e-05
0.000570882 7.3791e-05 -1.06421e-06
7.3791e-05 9.16182e-05 -3.22374e-06
-1.06421e-06 -3.22374e-06 2.68297e-05
0.000549064 1.28299e-05 5.44337e-07
1.28299e-05 0.000110098 8.34972e-07
5.44337e-07 8.34972e-07 -4.43934e-06
0.000433584 9.15277e-06 2.20177e-06
9.15277e-06 -3.59698e-05 -4.3062e-06
2.20177e-06 -4.3062e-06 -4.82121e-05
0.000464182 6.23232e-05 -8.53225e-08
6.23232e-05 2.29954e-05 -2.31325e-07
-8.53225e-08 -2.31325e-07 -3.40618e-05
0.000427123 -0.00011535 -2.7793e-06
-0.00011535 2.94385e-05 2.45476e-06
-2.7793e-06 2.45476e-06 -7.57939e-05
0.00203231 1.2639e-05 -8.86306e-06
1.2639e-05 0.000990822 -5.08772e-06
-8.86306e-06 -5.08772e-06 0.00100769
0.000420148 7.80013e-06 -2.71959e-07
7.80013e-06 -4.45451e-05 3.1232e-08
-2.71959e-07 3.1232e-08 -5.60436e-05
0.000481037 1.78352e-06 -8.57863e-07
1.78352e-06 2.51009e-05 3.1818e-06
-8.57863e-07 3.1818e-06 -2.2852e-05
0.000443027 3.27026e-06 -2.04462e-06
3.27026e-06 -3.0856e-05 3.93456e-06
-2.04462e-06 3.93456e-06 -4.34306e-05
0.00207543 2.85031e-05 -5.77622e-06
2.85031e-05 0.00102113 -1.39771e-07
-5.77622e-06 -1.39771e-07 0.00103641
0.00207543 4.35699e-05 -2.02487e-06
4.35699e-05 0.00102419 5.13221e-06
-2.02487e-06 5.13221e-06 0.00103771
-0.0045599 -0.00215929 -0.000289412
-0.00215929 0.00765118 7.09134e-05
-0.000289412 7.09134e-05 0.00278603
0.0042162 0.00233957 -0.000383906
0.00233957 0.00198329 0.000124154
-0.000383906 0.000124154 -0.00150543
0.0029704 -0.00117091 -0.000678341
-0.00117091 0.00139052 0.000299094
-0.000678341 0.000299094 -0.00361124
0.00340805 0.00218863 0.00143838
0.00218863 0.00866744 -0.000320047
0.00143838 -0.000320047 0.00261435
0.00458246 0.000874017 -5.43463e-05
0.000874017 -0.000642365 5.20218e-06
-5.43463e-05 5.20218e-06 0.000723572
0.00361946 -0.000658234 0.000105399
-0.000658234 -0.000159629 3.66314e-06
0.000105399 3.66314e-06 0.000170506
0.00176809 -0.000481723 0.000390054
-0.000481723 -0.00659561 -5.31154e-05
0.000390054 -5.31154e-05 -0.00730065
0.0272385 0.00470593 -0.00139647
0.00470593 0.0122727 4.49932e-05
-0.00139647 4.49932e-05 0.00742098
0.0146981 0.0135962 -0.00296271
0.0135962 0.0105228 0.00177666
-0.00296271 0.00177666 0.00360825
0.00544447 -0.00101363 5.21949e-05
-0.00101363 -0.000953393 3.52544e-06
5.21949e-05 3.52544e-06 0.000416222
0.00783212 -0.00351638 0.000219075
-0.00351638 -0.00384436 -0.000182866
0.000219075 -0.000182866 -0.00540861
0.0232349 0.00733886 -0.000428409
0.00733886 0.00865934 -0.000150756
-0.000428409 -0.000150756 0.00213997
0.0195194 0.00537195 0.000145858
0.00537195 0.00637428 0.000478344
0.000145858 0.000478344 0.002201
0.00162046 -0.00238222 -0.000104946
-0.00238222 -0.00415842 4.61835e-05
-0.000104946 4.61835e-05 -0.00196806
0.00737807 -0.00565725 0.000647843
-0.00565725 -0.000381404 -0.000269099
0.000647843 -0.000269099 -0.00346926
0.0136464 0.00397207 -5.3162e-05
0.00397207 0.00452906 -0.00103124
-5.3162e-05 -0.00103124 -0.00206719
0.0098038 9.44749e-07 -0.000392129
9.44749e-07 -0.00112983 4.81377e-05
-0.000392129 4.81377e-05 -0.0011871
0.00235303 -5.26593e-05 8.01992e-07
-5.26593e-05 0.00139796 1.67227e-05
8.01992e-07 1.67227e-05 0.0011008
0.000200527 8.18797e-05 -1.67299e-06
8.18797e-05 -5.29509e-05 -2.19171e-06
-1.67299e-06 -2.19171e-06 -0.000209154
0.000567029 0.000117738 3.95043e-06
0.000117738 0.000120429 1.34639e-06
3.95043e-06 1.34639e-06 9.39486e-06
-0.000190938 -5.35164e-05 4.69396e-06
-5.35164e-05 -0.000312183 -2.90386e-06
4.69396e-06 -2.90386e-06 -0.000390918
0.000461637 0.000138784 1.90912e-06
0.000138784 6.49237e-05 8.13735e-06
1.90912e-06 8.13735e-06 -0.000131844
0.000504899 7.36013e-05 -8.47948e-08
7.36013e-05 0.000117807 1.42787e-06
-8.47948e-08 1.42787e-06 -5.55955e-05
3.52103e-05 1.52725e-05 2.38615e-06
1.52725e-05 -0.000187691 -1.15872e-06
2.38615e-06 -1.15872e-06 -0.000321727
0.000909054 0.000188935 5.88996e-06
0.000188935 0.000371541 9.97854e-06
5.88996e-06 9.97854e-06 0.000178787
0.000930531 0.000161757 2.04167e-08
0.000161757 0.000397811 -5.3744e-07
2.04167e-08 -5.3744e-07 0.000203522
0.000297396 8.8196e-06 -3.01416e-06
8.8196e-06 -3.25266e-05 -5.61007e-06
-3.01416e-06 -5.61007e-06 -0.000180636
0.000658712 -0.000630717 9.66489e-05
-0.000630717 -0.00149309 -6.15595e-05
9.66489e-05 -6.15595e-05 -0.000961835
0.000204445 -0.000765901 1.41914e-06
-0.000765901 -0.000954816 -9.88409e-06
1.41914e-06 -9.88409e-06 -0.000961169
0.00159258 -0.00111668 -3.58166e-06
-0.00111668 -0.000115181 9.18761e-06
-3.58166e-06 9.18761e-06 -0.0002671
-0.00114168 -0.000803681 3.87193e-06
-0.000803681 -0.00102948 -6.52669e-06
3.87193e-06 -6.52669e-06 -0.00133672
0.0040862 -0.000601982 -4.01484e-05
-0.000601982 0.0026006 8.01643e-05
-4.01484e-05 8.01643e-05 0.00204121
0.000701729 -0.000259141 -1.94435e-06
-0.000259141 0.000503482 6.41923e-06
-1.94435e-06 6.41923e-06 0.000139069
0.00033133 0.000102795 -8.90432e-07
0.000102795 0.000129892 -1.4229e-05
-8.90432e-07 -1.4229e-05 -0.000137971
0.000559879 -1.3965e-05 -4.61996e-06
-1.3965e-05 0.000264784 8.10495e-06
-4.61996e-06 8.10495e-06 -3.22242e-05
0.00256425 -0.00118257 -2.32942e-05
-0.00118257 -2.76604e-06 1.1208e-06
-2.32942e-05 1.1208e-06 2.88115e-05
0.000656806 -5.21364e-05 2.0484e-06
-5.21364e-05 0.000389203 3.19728e-06
2.0484e-06 3.19728e-06 8.37186e-05
0.00233418 -0.000395968 6.62338e-06
-0.000395968 0.00147958 -3.70691e-06
6.62338e-06 -3.70691e-06 0.00106133
0.00150898 -0.000970223 1.56547e-05
-0.000970223 4.66494e-05 -4.82931e-06
1.56547e-05 -4.82931e-06 -2.79171e-05
0.000579687 -0.000722057 -3.77122e-05
-0.000722057 0.00036579 1.14906e-05
-3.77122e-05 1.14906e-05 -2.90757e-05
0.00242079 -0.00199977 5.80799e-05
-0.00199977 0.000214351 -3.33741e-05
5.80799e-05 -3.33741e-05 -0.000133411
0.00072916 -0.000733691 -1.43347e-05
-0.000733691 0.000252346 3.37494e-05
-1.43347e-05 3.37494e-05 9.35831e-05
-0.00180739 -0.000149099 1.09717e-05
-0.000149099 -0.000719412 5.35451e-06
1.09717e-05 5.35451e-06 -0.00125239
0.000367673 6.28861e-05 -3.88786e-06
6.28861e-05 0.000140373 8.67369e-06
-3.88786e-06 8.67369e-06 -7.18691e-05
0.000137383 -0.000105096 3.70383e-07
-0.000105096 0.000183271 5.47777e-06
3.70383e-07 5.47777e-06 -0.000173059
0.00156842 0.000256125 -8.84088e-05
0.000256125 0.00222814 -3.23171e-05
-8.84088e-05 -3.23171e-05 -0.00263389
-0.00769615 0.000436895 -0.000547378
0.000436895 0.00739199 -2.16915e-05
-0.000547378 -2.16915e-05 0.00142442
-0.013903 -0.00355958 -0.00104824
-0.00355958 -0.00440909 -6.40867e-06
-0.00104824 -6.40867e-06 -0.00663786
0.000190194 0.000375893 1.68177e-05
0.000375893 7.84962e-05 -2.29908e-06
1.68177e-05 -2.29908e-06 -0.000245386
-0.000914743 0.000636551 -1.28817e-06
0.000636551 -0.000592893 9.9802e-06
-1.28817e-06 9.9802e-06 -0.00109412
0.00297194 0.0013642 4.99345e-05
0.0013642 0.000902165 4.32366e-05
4.99345e-05 4.32366e-05 0.000623839
-0.00452959 0.00240889 0.000140691
0.00240889 0.00830897 6.81277e-05
0.000140691 6.81277e-05 0.00285764
0.00687801 0.00559218 -0.000522051
0.00559218 -0.000864283 -0.000209516
-0.000522051 -0.000209516 -0.00356852
0.000540611 0.00273642 0.000499687
0.00273642 -0.000234229 0.000204159
0.000499687 0.000204159 -0.000107809
-0.000168822 0.00121371 -1.23866e-05
0.00121371 -1.69323e-05 -4.57274e-05
-1.23866e-05 -4.57274e-05 -0.000321763
0.0304635 -0.0044234 -7.85556e-05
-0.0044234 0.0112219 -0.00049016
-7.85556e-05 -0.00049016 0.00552459
0.00779479 0.00259934 0.00082843
0.00259934 0.00386174 0.000289371
0.00082843 0.000289371 -0.00275254
0.014091 -0.00139474 0.00018177
-0.00139474 0.00270637 5.8842e-05
0.00018177 5.8842e-05 0.00389301
0.00140873 0.000721362 8.95651e-06
0.000721362 0.000764872 -1.12681e-06
8.95651e-06 -1.12681e-06 0.000372356
0.00389786 0.00104711 -4.49302e-05
0.00104711 0.00402371 4.6984e-06
-4.49302e-05 4.6984e-06 -0.000733422
0.00215563 0.00114511 0.000106755
0.00114511 0.000480499 -9.65602e-06
0.000106755 -9.65602e-06 -0.00147696
-0.000243149 0.00069904 -4.60468e-06
0.00069904 6.61901e-05 -5.81967e-06
-4.60468e-06 -5.81967e-06 -0.000374288
-0.000395545 0.00185731 -0.000147081
0.00185731 0.000585447 -8.07747e-05
-0.000147081 -8.07747e-05 -0.000762198
0.00262879 0.00648506 0.000327554
0.00648506 0.00144185 0.000128113
0.000327554 0.000128113 -0.00311373
0.0117437 -0.000414097 1.35094e-05
-0.000414097 -0.00321091 -0.000230551
1.35094e-05 -0.000230551 -0.000868221
0.00852239 -0.00287941 -0.000110438
-0.00287941 0.00479067 -0.000208813
-0.000110438 -0.000208813 -0.00151902
0.00102876 0.000598873 -2.45144e-06
0.000598873 0.000899766 -1.22542e-05
-2.45144e-06 -1.22542e-05 0.000424327
-0.00394618 0.000571072 3.7385e-05
0.000571072 0.000648248 5.69201e-05
3.7385e-05 5.69201e-05 -0.000709122
0.00674942 -0.00066903 0.000211585
-0.00066903 4.22402e-06 -0.000136646
0.000211585 -0.000136646 -0.00161202
0.00955525 0.000156576 0.000352919
0.000156576 -0.00106152 -1.47115e-05
0.000352919 -1.47115e-05 -0.0009962
-0.00290003 0.000280821 5.90857e-05
0.000280821 0.00010479 -1.59242e-05
5.90857e-05 -1.59242e-05 -0.000889256
0.0104972 0.00412241 0.000404267
0.00412241 0.00605573 0.000150456
0.000404267 0.000150456 -0.000301655
0.00493504 -0.000742218 -3.91987e-05
-0.000742218 0.00318181 0.000381505
-3.91987e-05 0.000381505 -0.00127206
0.00319612 0.00053601 2.78378e-05
0.00053601 0.00201249 1.06726e-05
2.78378e-05 1.06726e-05 0.00168604
0.000379787 0.000282016 -8.96686e-06
0.000282016 0.000484463 -2.19081e-06
-8.96686e-06 -2.19081e-06 4.99215e-05
0.000195491 0.000258812 1.35863e-06
0.000258812 0.000545305 -1.23904e-05
1.35863e-06 -1.23904e-05 -3.23913e-05
0.000197287 0.000116602 1.88731e-06
0.000116602 -3.26869e-05 -3.83851e-06
1.88731e-06 -3.83851e-06 -0.000245378
0.000449119 0.000125833 -7.06905e-08
0.000125833 0.000219828 1.92883e-07
-7.06905e-08 1.92883e-07 -5.70156e-06
-0.000140792 1.22091e-05 5.11948e-06
1.22091e-05 0.000272471 -4.19312e-06
5.11948e-06 -4.19312e-06 -0.000225106
0.000509784 3.86344e-05 5.69832e-07
3.86344e-05 0.000238276 -6.117e-07
5.69832e-07 -6.117e-07 3.06609e-05
0.00104275 -4.06114e-05 -7.97767e-07
-4.06114e-05 0.000921959 -2.84262e-06
-7.97767e-07 -2.84262e-06 0.000482579
-0.00020329 2.52966e-05 2.39195e-06
2.52966e-05 0.000345252 7.51617e-07
2.39195e-06 7.51617e-07 -0.000200347
-5.15862e-05 -5.74816e-05 2.58212e-06
-5.74816e-05 0.000403645 1.64078e-05
2.58212e-06 1.64078e-05 -7.93299e-05
0.000567975 -4.51557e-05 1.18236e-06
-4.51557e-05 0.000571467 -1.26745e-05
1.18236e-06 -1.26745e-05 0.000227694
-9.58013e-05 -4.43222e-05 5.24804e-06
-4.43222e-05 -0.000173183 8.75682e-06
5.24804e-06 8.75682e-06 -0.000343505
0.00136428 -4.02184e-05 1.27626e-06
-4.02184e-05 0.00065478 5.82484e-06
1.27626e-06 5.82484e-06 0.000494348
0.0003314 -6.66443e-05 -1.06837e-05
-6.66443e-05 9.221e-05 1.22145e-05
-1.06837e-05 1.22145e-05 -5.73878e-05
0.000654809 -9.30854e-05 1.58952e-06
-9.30854e-05 0.000446301 5.57559e-07
1.58952e-06 5.57559e-07 0.000252875
0.000162778 -4.81451e-05 -2.26287e-06
-4.81451e-05 -3.80554e-05 -1.86655e-06
-2.26287e-06 -1.86655e-06 -0.000184675
0.00113783 -0.000288187 2.81972e-06
-0.000288187 0.00054795 2.82103e-06
2.81972e-06 2.82103e-06 0.00039745
0.000559111 -0.000221314 -2.10841e-05
-0.000221314 0.000120111 2.67265e-07
-2.10841e-05 2.67265e-07 5.54258e-05
-0.00069234 -0.000316808 1.56597e-05
-0.000316808 -0.000596559 2.18512e-05
1.56597e-05 2.18512e-05 -0.000928969
0.00014434 -0.00012146 1.53297e-06
-0.00012146 -0.000163223 1.02415e-06
1.53297e-06 1.02415e-06 -0.000278793
0.00112849 -0.000346252 -5.91025e-06
-0.000346252 0.000349709 1.05768e-05
-5.91025e-06 1.05768e-05 0.000132058
0.0021342 -0.000698231 -6.52832e-06
-0.000698231 0.000912051 1.26124e-05
-6.52832e-06 1.26124e-05 0.000466792
0.00198867 -0.000721917 -5.44706e-06
-0.000721917 0.000731093 -1.87276e-06
-5.44706e-06 -1.87276e-06 0.000246446
0.00187867 -0.000471202 1.9436e-06
-0.000471202 0.000818848 1.40265e-06
1.9436e-06 1.40265e-06 0.00052644
0.000624098 -0.000457946 1.08657e-05
-0.000457946 -1.20894e-05 -4.00745e-06
1.08657e-05 -4.00745e-06 -0.000355412
0.00109912 -0.000208588 3.31458e-06
-0.000208588 0.000501007 -4.11186e-06
3.31458e-06 -4.11186e-06 0.000197459
0.00107276 -0.000242056 -8.02521e-06
-0.000242056 0.000401874 1.83674e-06
-8.02521e-06 1.83674e-06 0.000173912
-0.000107934 -0.00019447 2.11731e-05
-0.00019447 -0.000386767 -1.59881e-05
2.11731e-05 -1.59881e-05 -0.000531304
0.00141673 -0.000148209 -5.07638e-06
-0.000148209 0.000687903 3.24743e-06
-5.07638e-06 3.24743e-06 0.000476
6.58355e-05 -0.000113218 6.52445e-07
-0.000113218 -9.95573e-05 1.27087e-06
6.52445e-07 1.27087e-06 -0.00037062
-8.09805e-05 -4.63542e-05 1.22163e-06
-4.63542e-05 -0.000285971 -1.30695e-06
1.22163e-06 -1.30695e-06 -0.000481754
0.00200347 -0.000328683 -3.10404e-06
-0.000328683 0.00109012 -3.09856e-07
-3.10404e-06 -3.09856e-07 0.000850023
0.000707656 -0.000139278 -5.62416e-07
-0.000139278 0.000204014 -6.33703e-08
-5.62416e-07 -6.33703e-08 3.57272e-05
0.000410638 -1.73587e-06 3.12762e-06
-1.73587e-06 -9.97449e-07 4.89906e-06
3.12762e-06 4.89906e-06 -0.000116564
0.000809521 -0.000173542 -2.20344e-07
-0.000173542 0.000286718 -2.22173e-06
-2.20344e-07 -2.22173e-06 0.000122481
0.000436628 1.97253e-06 -2.12431e-06
1.97253e-06 1.77658e-05 -2.11549e-07
-2.12431e-06 -2.11549e-07 -8.95997e-05
0.00148153 -9.18538e-06 -2.15169e-05
-9.18538e-06 0.000644981 6.33389e-06
-2.15169e-05 6.33389e-06 0.000614896
0.000593114 -8.05187e-05 1.24594e-06
-8.05187e-05 0.0001179 -5.98533e-06
1.24594e-06 -5.98533e-06 1.80745e-05
0.000844379 -1.73051e-05 -1.07304e-05
-1.73051e-05 0.000237619 5.14435e-07
-1.07304e-05 5.14435e-07 0.000207683
0.00086176 3.03439e-05 9.53353e-07
3.03439e-05 0.000234248 3.6437e-06
9.53353e-07 3.6437e-06 0.000231715
0.000433793 -3.83863e-05 3.30138e-06
-3.83863e-05 -2.23438e-05 -6.88884e-06
3.30138e-06 -6.88884e-06 -5.31003e-05
0.00175315 2.96093e-05 1.72697e-05
2.96093e-05 0.000811581 -1.2881e-06
1.72697e-05 -1.2881e-06 0.000818
0.00255061 1.9478e-05 2.23121e-05
1.9478e-05 0.0013249 -5.61091e-06
2.23121e-05 -5.61091e-06 0.00133746
0.000212716 2.7645e-05 1.57102e-06
2.7645e-05 -0.000107858 2.43441e-06
1.57102e-06 2.43441e-06 -0.000254687
5.82207e-05 2.56092e-05 3.55898e-07
2.56092e-05 -0.000243039 -4.98887e-06
3.55898e-07 -4.98887e-06 -0.000316068
0.00058024 7.04952e-05 -9.73444e-08
7.04952e-05 0.000124929 4.24608e-07
-9.73444e-08 4.24608e-07 -3.46969e-06
0.000439772 1.03547e-05 2.06233e-06
1.03547e-05 -3.38664e-05 -4.56978e-06
2.06233e-06 -4.56978e-06 -4.82912e-05
0.000300182 9.15403e-06 1.75452e-06
9.15403e-06 -9.04267e-05 4.78885e-08
1.75452e-06 4.78885e-08 -0.000151507
0.000195113 -9.89221e-05 -4.48498e-07
-9.89221e-05 -0.000118738 8.05484e-07
-4.48498e-07 8.05484e-07 -0.00023298
0.00207993 -1.66334e-06 -1.34012e-05
-1.66334e-06 0.00102029 -5.16192e-06
-1.34012e-05 -5.16192e-06 0.00103729
0.000428375 6.91356e-06 6.43439e-08
6.91356e-06 -4.01851e-05 -7.64758e-08
6.43439e-08 -7.64758e-08 -5.20669e-05
0.000397773 -1.08894e-05 -3.35302e-06
-1.08894e-05 -2.60428e-05 3.42667e-06
-3.35302e-06 3.42667e-06 -7.89209e-05
0.00206127 1.39628e-05 -4.92073e-06
1.39628e-05 0.00100994 -4.8075e-09
-4.92073e-06 -4.8075e-09 0.00102647
0.000427733 6.57273e-06 -1.81573e-06
6.57273e-06 -3.91547e-05 3.81643e-06
-1.81573e-06 3.81643e-06 -5.07452e-05
0.00205233 2.94904e-05 3.97649e-06
2.94904e-05 0.00100633 5.26859e-06
3.97649e-06 5.26859e-06 0.00102152
-0.000734226 -0.00128484 -0.000322492
-0.00128484 -0.000129703 0.000138548
-0.000322492 0.000138548 -0.00415738
0.0031978 0.00135215 -0.000191318
0.00135215 0.00972181 4.85551e-05
-0.000191318 4.85551e-05 0.00399376
0.00397347 0.000490422 -0.00128793
0.000490422 0.00457115 0.000291533
-0.00128793 0.000291533 0.00235732
0.000603859 0.000127501 8.36384e-06
0.000127501 0.000147916 7.99494e-06
8.36384e-06 7.99494e-06 -2.02869e-05
0.00608814 -0.00131388 -0.00017694
-0.00131388 0.00378402 0.000309704
-0.00017694 0.000309704 0.00112729
0.00445872 -0.00156259 -0.000320895
-0.00156259 0.00208676 3.6232e-05
-0.000320895 3.6232e-05 -0.00298304
0.0167558 0.00600311 0.000325344
0.00600311 0.0103962 -0.000467679
0.000325344 -0.000467679 0.00379505
0.00783995 -0.00156824 0.000147038
-0.00156824 0.000166598 -3.1387e-05
0.000147038 -3.1387e-05 0.00105644
0.014915 -0.00334706 0.000346601
-0.00334706 0.000751723 -0.00020708
0.000346601 -0.00020708 0.000625899
0.0163851 0.0057043 -0.000945942
0.0057043 0.00406882 0.000441374
-0.000945942 0.000441374 -0.00210288
0.0157351 0.00477974 0.000223586
0.00477974 0.00801108 0.000275003
0.000223586 0.000275003 0.00430036
0.00777043 -0.0031368 -0.000102971
-0.0031368 -0.000513888 -5.57153e-06
-0.000102971 -5.57153e-06 0.000638018
0.0142872 -0.00601699 5.37643e-06
-0.00601699 0.00193808 -4.33124e-05
5.37643e-06 -4.33124e-05 -0.000507253
0.0105801 0.00300856 0.000129309
0.00300856 0.00578156 -0.000427556
0.000129309 -0.000427556 -0.000529261
0.0145986 0.00135203 -4.76045e-06
0.00135203 0.000944185 6.04661e-05
-4.76045e-06 6.04661e-05 -4.254e-05
0.00350465 -0.00326481 -5.83738e-05
-0.00326481 0.000359077 7.15943e-05
-5.83738e-05 7.15943e-05 0.000995403
0.0107757 -0.00594944 0.000254433
-0.00594944 0.00450493 -0.000155308
0.000254433 -0.000155308 0.000506165
0.00982999 -0.000244461 7.38013e-05
-0.000244461 0.00606994 -0.0004993
7.38013e-05 -0.0004993 0.00186223
0.0140661 -0.000134247 -0.000194659
-0.000134247 -0.000887062 0.000315761
-0.000194659 0.000315761 0.00061153
0.000226843 0.000146345 8.7226e-06
0.000146345 1.44523e-05 1.60313e-05
8.7226e-06 1.60313e-05 -0.000206008
0.000590447 -0.000114244 3.84474e-07
-0.000114244 0.000266755 7.24897e-08
3.84474e-07 7.24897e-08 4.63681e-06
0.000612349 8.51248e-05 4.62761e-06
8.51248e-05 0.000215664 -2.11914e-06
4.62761e-06 -2.11914e-06 5.55741e-05
0.000528786 0.000179572 3.20305e-06
0.000179572 5.4611e-05 1.68677e-05
3.20305e-06 1.68677e-05 -9.47531e-05
0.000869191 0.000241904 2.876e-07
0.000241904 0.000354784 -4.45924e-07
2.876e-07 -4.45924e-07 0.000140395
0.00108946 0.000135645 -2.10556e-06
0.000135645 0.000513144 -4.14298e-06
-2.10556e-06 -4.14298e-06 0.000330176
0.00111084 0.000202222 -1.85039e-06
0.000202222 0.000504878 -1.0288e-07
-1.85039e-06 -1.0288e-07 0.000306105
0.00112101 0.000223995 2.18142e-06
0.000223995 0.00054047 1.59624e-06
2.18142e-06 1.59624e-06 0.000331992
0.000936417 -0.000926413 0.000130815
-0.000926413 -0.000995775 -8.36171e-05
0.000130815 -8.36171e-05 -0.000680569
-7.70975e-05 -0.000799585 -3.2321e-05
-0.000799585 -0.000879233 -1.15906e-05
-3.2321e-05 -1.15906e-05 -0.000859453
0.000688442 -0.000199201 5.86001e-06
-0.000199201 0.000360945 -3.26861e-05
5.86001e-06 -3.26861e-05 4.79863e-05
0.00194892 -0.000822781 2.6425e-05
-0.000822781 0.00109675 -2.58516e-05
2.6425e-05 -2.58516e-05 0.00071866
0.00271804 -0.000563583 -2.17223e-05
-0.000563583 0.00164522 2.19859e-05
-2.17223e-05 2.19859e-05 0.00123212
0.00180023 -0.000191563 9.88018e-06
-0.000191563 0.00109459 -2.05324e-05
9.88018e-06 -2.05324e-05 0.000762529
5.93462e-05 3.39757e-05 3.66744e-06
3.39757e-05 -6.17237e-05 6.87463e-06
3.66744e-06 6.87463e-06 -0.000279431
0.000442837 -0.0016624 -1.09543e-05
-0.0016624 -0.000700021 -7.11542e-06
-1.09543e-05 -7.11542e-06 -0.000955792
0.0015326 -5.82789e-05 -1.45655e-06
-5.82789e-05 0.00104681 -1.71341e-06
-1.45655e-06 -1.71341e-06 0.000677874
-0.000228814 -0.000257343 -1.17487e-05
-0.000257343 0.000101059 9.23331e-06
-1.17487e-05 9.23331e-06 -0.000377988
-0.000557078 -0.000537232 3.05767e-05
-0.000537232 -0.000555032 -3.08203e-06
3.05767e-05 -3.08203e-06 -0.000555714
0.000693288 0.000118363 4.18983e-06
0.000118363 0.000351449 7.83762e-06
4.18983e-06 7.83762e-06 0.000163806
-0.00076286 -0.00164118 -0.00011515
-0.00164118 -0.000352359 -2.34581e-05
-0.00011515 -2.34581e-05 -0.000895783
-0.000986017 -0.000489951 -1.84743e-05
-0.000489951 -0.000316985 2.50512e-05
-1.84743e-05 2.50512e-05 -0.000737392
0.000403645 0.000139348 4.04122e-06
0.000139348 0.000624597 -1.41822e-05
4.04122e-06 -1.41822e-05 9.07234e-05
0.00190504 0.000301857 -3.81658e-06
0.000301857 0.00138481 2.74035e-06
-3.81658e-06 2.74035e-06 0.00097348
-0.00102978 0.000114558 0.000206805
0.000114558 0.002702 5.0479e-05
0.000206805 5.0479e-05 0.00102867
0.000102481 2.10098e-05 0.000200148
2.10098e-05 0.00130137 -3.72135e-05
0.000200148 -3.72135e-05 -0.00371226
-0.013647 -0.000497477 -0.000413615
-0.000497477 0.00678587 2.9045e-05
-0.000413615 2.9045e-05 0.000832987
0.00185686 0.000744056 2.18871e-05
0.000744056 0.00112757 -5.081e-07
2.18871e-05 -5.081e-07 0.0007339
-0.000651904 0.000920147 1.2789e-05
0.000920147 -0.000176009 1.11144e-05
1.2789e-05 1.11144e-05 -0.000756356
0.0059017 0.00142982 0.000482104
0.00142982 0.00448758 0.000113383
0.000482104 0.000113383 0.000965454
0.00688331 0.00487267 0.000266735
0.00487267 0.00297515 0.000220989
0.000266735 0.000220989 -0.00110717
0.00363391 0.00329777 -0.000159484
0.00329777 0.00210717 -0.000142005
-0.000159484 -0.000142005 0.000484912
0.00461812 -0.00233866 -0.000181504
-0.00233866 0.00520273 -0.000511351
-0.000181504 -0.000511351 0.000384657
0.00329107 0.00075375 0.000143013
0.00075375 0.000770765 0.000170721
0.000143013 0.000170721 -0.00116009
0.00927752 -0.00044044 -4.96446e-05
-0.00044044 -0.00549808 -0.000266675
-4.96446e-05 -0.000266675 -0.00262635
0.00101515 0.000698103 3.44968e-06
0.000698103 0.000840668 -3.4874e-07
3.44968e-06 -3.4874e-07 0.000318448
-0.00307621 0.000299808 -1.72762e-06
0.000299808 0.000827563 7.15551e-06
-1.72762e-06 7.15551e-06 -0.000697847
0.00564901 -0.000345768 0.00016554
-0.000345768 -4.56891e-05 1.59126e-05
0.00016554 1.59126e-05 -0.001237
-0.00191331 0.000661192 -1.96813e-05
0.000661192 -6.96897e-05 -1.23175e-05
-1.96813e-05 -1.23175e-05 -0.00098994
0.014719 0.00158551 5.71912e-06
0.00158551 0.000909447 -6.42693e-05
5.71912e-06 -6.42693e-05 -4.15245e-05
0.00374819 0.00252636 0.000302808
0.00252636 0.00488038 0.000182453
0.000302808 0.000182453 -0.0013999
0.0106074 0.000695828 -0.000196443
0.000695828 0.00410909 1.31544e-05
-0.000196443 1.31544e-05 -0.000297245
0.000538019 0.000632182 2.35977e-06
0.000632182 0.00075917 -2.20938e-05
2.35977e-06 -2.20938e-05 7.62048e-05
0.00237607 -3.55291e-05 2.43991e-06
-3.55291e-05 0.00113207 6.20839e-06
2.43991e-06 6.20839e-06 -5.23496e-05
0.00410126 -0.00198155 0.000178249
-0.00198155 0.0036788 -0.000278566
0.000178249 -0.000278566 0.00144575
0.0267218 0.00635062 0.00037198
0.00635062 0.00948313 -0.000342441
0.00037198 -0.000342441 0.00516627
0.0102308 -0.000422587 -0.000145497
-0.000422587 0.0065661 0.000561223
-0.000145497 0.000561223 0.00215513
-0.00104802 0.000646612 -9.25922e-05
0.000646612 0.000729688 -0.000134179
-9.25922e-05 -0.000134179 -0.00022341
0.00377485 0.00129504 0.000272257
0.00129504 0.00662717 2.28385e-05
0.000272257 2.28385e-05 -0.00264062
0.00149687 0.000463426 1.19322e-05
0.000463426 0.00111294 1.14247e-05
1.19322e-05 1.14247e-05 0.000649892
0.00084605 0.000324394 5.15627e-06
0.000324394 0.00093587 6.6012e-06
5.15627e-06 6.6012e-06 0.00038992
0.000588163 -7.57787e-05 -7.17948e-06
-7.57787e-05 0.00102702 1.38585e-05
-7.17948e-06 1.38585e-05 0.00052249
-0.00100662 -1.07065e-05 2.28811e-06
-1.07065e-05 -0.000721391 -3.23707e-06
2.28811e-06 -3.23707e-06 -0.000919257
-0.000642774 -2.83166e-05 1.56747e-06
-2.83166e-05 8.22746e-06 3.92136e-06
1.56747e-06 3.92136e-06 -0.000523132
-3.36557e-05 3.46099e-05 -2.00246e-06
3.46099e-05 0.000475115 -8.54876e-06
-2.00246e-06 -8.54876e-06 -9.21318e-05
-6.52041e-05 -1.63538e-05 3.05459e-07
-1.63538e-05 0.000135098 3.24892e-07
3.05459e-07 3.24892e-07 -0.000164382
-0.000205444 -7.07801e-05 2.64361e-06
-7.07801e-05 0.000302241 1.70532e-06
2.64361e-06 1.70532e-06 -0.000180348
0.00207787 -0.000493037 1.09995e-05
-0.000493037 0.00137274 -1.19614e-05
1.09995e-05 -1.19614e-05 0.00101328
-7.87766e-05 -5.30563e-05 -4.18362e-06
-5.30563e-05 -6.35951e-06 8.64472e-06
-4.18362e-06 8.64472e-06 -0.000196385
-0.00049191 2.46042e-05 8.21143e-07
2.46042e-05 -0.000424268 4.23752e-06
8.21143e-07 4.23752e-06 -0.000567274
0.000984599 -0.000323161 -1.10574e-06
-0.000323161 0.000465024 6.09986e-06
-1.10574e-06 6.09986e-06 0.000261473
-0.00407373 3.15343e-05 2.54596e-05
3.15343e-05 -0.0023624 2.33424e-05
2.54596e-05 2.33424e-05 -0.00272023
-0.000765854 -9.94863e-05 1.45838e-05
-9.94863e-05 -0.000608558 -3.56709e-07
1.45838e-05 -3.56709e-07 -0.000626711
-3.5329e-05 -0.000373253 -4.61011e-06
-0.000373253 -0.000254985 -5.65986e-06
-4.61011e-06 -5.65986e-06 -0.000548499
0.00162246 -0.000710208 9.25831e-07
-0.000710208 0.000567271 -8.01181e-08
9.25831e-07 -8.01181e-08 -7.41722e-06
0.00191753 -0.000839305 -1.00238e-05
-0.000839305 0.00062487 6.53787e-07
-1.00238e-05 6.53787e-07 8.10825e-05
0.00138562 -0.000382189 4.76291e-06
-0.000382189 0.000489263 -5.79344e-06
4.76291e-06 -5.79344e-06 0.00025915
0.00149432 -0.000618955 8.80885e-07
-0.000618955 0.000509929 1.08216e-06
8.80885e-07 1.08216e-06 7.54064e-05
0.00178264 -0.000735158 4.26199e-06
-0.000735158 0.000546494 -5.89263e-06
4.26199e-06 -5.89263e-06 6.13748e-05
0.00187715 -0.000567214 2.3133e-07
-0.000567214 0.000747778 5.45537e-06
2.3133e-07 5.45537e-06 0.00035616
0.00105662 -0.000597847 2.51652e-06
-0.000597847 0.000162473 -5.19352e-06
2.51652e-06 -5.19352e-06 -0.000284648
0.000939092 -0.000225643 8.84425e-07
-0.000225643 0.000290472 -5.91511e-06
8.84425e-07 -5.91511e-06 1.75904e-05
0.00107519 -0.000403202 -4.1701e-06
-0.000403202 0.00031861 2.05473e-06
-4.1701e-06 2.05473e-06 2.38336e-05
-0.000967706 -0.000234994 9.64531e-07
-0.000234994 -0.00098936 -9.26253e-06
9.64531e-07 -9.26253e-06 -0.00126745
-0.000161766 -8.21476e-05 5.63744e-07
-8.21476e-05 -0.000289562 -5.32757e-06
5.63744e-07 -5.32757e-06 -0.000554672
0.000361834 -0.000184301 6.04617e-07
-0.000184301 7.07189e-05 2.47235e-07
6.04617e-07 2.47235e-07 -0.000234699
-0.000171836 -0.000176251 9.18854e-06
-0.000176251 -0.000322489 9.51532e-07
9.18854e-06 9.51532e-07 -0.000563136
0.00104832 -0.000176433 -9.78878e-07
-0.000176433 0.000490462 1.54787e-06
-9.78878e-07 1.54787e-06 0.000231518
0.000726128 -0.000144003 3.74745e-07
-0.000144003 0.000232249 4.17981e-07
3.74745e-07 4.17981e-07 2.32013e-05
0.000375698 -3.01226e-05 1.38823e-06
-3.01226e-05 -4.00256e-05 6.89452e-06
1.38823e-06 6.89452e-06 -0.000164103
0.00133725 -0.000215338 -1.56547e-06
-0.000215338 0.000627525 3.29865e-07
-1.56547e-06 3.29865e-07 0.000437509
0.0005774 -3.27849e-05 -1.32634e-06
-3.27849e-05 8.72267e-05 -3.22078e-07
-1.32634e-06 -3.22078e-07 -2.02605e-05
0.000334125 4.81206e-05 3.28633e-06
4.81206e-05 -8.04217e-05 8.54285e-06
3.28633e-06 8.54285e-06 -0.000126141
0.000751615 -8.80245e-05 1.1291e-06
-8.80245e-05 0.000206225 -4.07378e-06
1.1291e-06 -4.07378e-06 0.000101684
0.000435299 -1.48191e-05 -1.60312e-06
-1.48191e-05 -2.75702e-05 -9.8918e-08
-1.60312e-06 -9.8918e-08 -6.47748e-05
0.00276086 9.48096e-05 -9.76476e-07
9.48096e-05 0.00146148 2.91845e-06
-9.76476e-07 2.91845e-06 0.00146353
0.000478674 -3.2813e-05 3.29498e-06
-3.2813e-05 3.68436e-06 -7.40076e-06
3.29498e-06 -7.40076e-06 -3.07356e-05
0.00181123 4.35604e-05 2.04289e-05
4.35604e-05 0.000848399 -9.81894e-07
2.04289e-05 -9.81894e-07 0.000852369
0.00264239 3.53368e-05 2.92626e-05
3.53368e-05 0.00138181 -6.00788e-06
2.92626e-05 -6.00788e-06 0.00139342
0.000250704 3.56549e-05 3.73786e-06
3.56549e-05 -9.97786e-05 1.98398e-06
3.73786e-06 1.98398e-06 -0.000235517
0.000139522 1.37462e-05 2.32938e-06
1.37462e-05 -0.000191829 -3.64663e-06
2.32938e-06 -3.64663e-06 -0.00027864
0.000458142 4.62487e-05 -3.93999e-07
4.62487e-05 4.796e-05 -1.08469e-06
-3.93999e-07 -1.08469e-06 -9.43255e-05
0.000466941 1.3599e-05 1.68149e-06
1.3599e-05 -1.67655e-05 -5.26711e-06
1.68149e-06 -5.26711e-06 -3.53713e-05
0.000130796 2.33183e-05 -7.85896e-07
2.33183e-05 -0.000196734 -2.06535e-06
-7.85896e-07 -2.06535e-06 -0.000272728
0.000630063 7.37074e-05 7.13246e-08
7.37074e-05 0.000173317 2.29684e-06
7.13246e-08 2.29684e-06 3.38407e-05
0.00212889 -1.56843e-05 -1.87837e-05
-1.56843e-05 0.00105054 -5.14314e-06
-1.87837e-05 -5.14314e-06 0.00106718
0.000440834 7.46739e-06 -8.46269e-07
7.46739e-06 -3.40846e-05 -1.20618e-07
-8.46269e-07 -1.20618e-07 -4.79741e-05
4.67981e-05 1.7904e-05 1.61247e-06
1.7904e-05 -0.000249349 3.02734e-06
1.61247e-06 3.02734e-06 -0.000314718
0.0020698 -7.51843e-07 -4.0974e-06
-7.51843e-07 0.00101375 6.09697e-08
-4.0974e-06 6.09697e-08 0.00103082
0.000418698 6.20619e-06 -2.23607e-06
6.20619e-06 -4.69308e-05 4.04234e-06
-2.23607e-06 4.04234e-06 -5.84133e-05
0.00209644 1.53243e-05 9.43353e-06
1.53243e-05 0.001033 5.26888e-06
9.43353e-06 5.26888e-06 0.00104912
0.000669414 -9.35468e-05 0.000207027
-9.35468e-05 0.00350935 0.000109438
0.000207027 0.000109438 0.00214318
-0.000500926 -0.000534167 -7.09313e-05
-0.000534167 0.00051823 -2.22763e-06
-7.09313e-05 -2.22763e-06 -0.00422256
0.000561548 0.00135936 -0.000171281
0.00135936 0.00923322 -7.7524e-05
-0.000171281 -7.7524e-05 0.00314191
0.000868072 0.000157373 1.11419e-06
0.000157373 0.000301157 1.02617e-07
1.11419e-06 1.02617e-07 0.000141094
0.000233664 0.0001136 8.13575e-06
0.0001136 -8.76796e-05 5.03322e-06
8.13575e-06 5.03322e-06 -0.000246601
0.00137024 0.000240595 1.28507e-05
0.000240595 0.000616495 1.23392e-05
1.28507e-05 1.23392e-05 0.000453448
0.00786735 -0.000822561 -0.000209028
-0.000822561 -9.24866e-05 0.00019808
-0.000209028 0.00019808 -0.00179599
0.00626752 -0.00180946 0.000136969
-0.00180946 0.00336542 2.53706e-05
0.000136969 2.53706e-05 0.00156201
0.00466515 -0.00275264 0.000294619
-0.00275264 0.00196218 -0.000323188
0.000294619 -0.000323188 -0.00303321
0.0098373 -0.00379545 -2.38572e-05
-0.00379545 -0.000187633 -4.22254e-05
-2.38572e-05 -4.22254e-05 0.00113614
0.00240237 -0.00515937 -0.000667554
-0.00515937 -0.00225855 7.06496e-05
-0.000667554 7.06496e-05 -0.00393312
0.0290362 0.00554204 0.000446415
0.00554204 0.0132712 0.000253466
0.000446415 0.000253466 0.00583368
0.00821486 -0.000666229 0.000401715
-0.000666229 -0.00200314 -0.000311128
0.000401715 -0.000311128 -0.00301531
0.00273189 -0.00341217 -2.25367e-05
-0.00341217 -0.000838955 1.84865e-05
-2.25367e-05 1.84865e-05 0.000375366
0.00697585 -0.00599342 -0.000195854
-0.00599342 0.00261289 1.51499e-05
-0.000195854 1.51499e-05 -0.00236546
0.00293011 0.00437772 -0.000111935
0.00437772 0.00604259 -0.00036792
-0.000111935 -0.00036792 7.94226e-07
0.0119209 -0.000212521 -0.00012001
-0.000212521 -0.00315582 0.000169702
-0.00012001 0.000169702 -0.000936802
-0.00108242 -0.002234 -0.000164867
-0.002234 0.000239171 8.19289e-05
-0.000164867 8.19289e-05 -0.000238077
0.00935882 -0.00354229 -0.000421566
-0.00354229 0.00598298 0.000239321
-0.000421566 0.000239321 0.000228775
0.00256478 -0.000202958 5.84135e-05
-0.000202958 0.00291393 -0.000341933
5.84135e-05 -0.000341933 -0.00164637
0.00972198 1.03036e-05 0.000115203
1.03036e-05 -0.00168232 0.000130428
0.000115203 0.000130428 -0.00154277
-0.000116526 0.000102196 1.10121e-05
0.000102196 -0.000264787 2.28937e-05
1.10121e-05 2.28937e-05 -0.000402537
0.000675515 1.91829e-05 2.04431e-06
1.91829e-05 0.000277939 -2.6947e-06
2.04431e-06 -2.6947e-06 4.78949e-05
0.000263919 -0.000185225 5.84603e-06
-0.000185225 -1.41683e-05 -1.15554e-05
5.84603e-06 -1.15554e-05 -0.000236794
0.000651063 0.000162695 -2.14147e-06
0.000162695 0.00014552 2.34668e-06
-2.14147e-06 2.34668e-06 -1.30285e-05
0.000892066 0.000182134 3.48061e-06
0.000182134 0.000379414 -8.47178e-06
3.48061e-06 -8.47178e-06 0.000171274
0.00124029 0.000229892 -5.58933e-06
0.000229892 0.000587394 -6.34108e-06
-5.58933e-06 -6.34108e-06 0.000386175
0.000906936 -0.00152489 6.60836e-05
-0.00152489 -0.000244188 -1.77742e-05
6.60836e-05 -1.77742e-05 -0.00049229
4.6718e-05 -0.000465795 1.34675e-05
-0.000465795 -0.00025584 -2.80806e-05
1.34675e-05 -2.80806e-05 -0.00021215
0.000189374 0.000133366 -2.9196e-06
0.000133366 3.53595e-05 -2.06271e-05
-2.9196e-06 -2.06271e-05 -0.000207639
0.00290628 -0.000569174 8.30311e-05
-0.000569174 0.0018347 -4.06539e-05
8.30311e-05 -4.06539e-05 0.00139142
0.00227608 -0.000167568 6.8852e-06
-0.000167568 0.00143623 -3.96686e-06
6.8852e-06 -3.96686e-06 0.0011049
-0.000418427 9.58504e-05 7.42819e-06
9.58504e-05 -0.000273333 2.72016e-06
7.42819e-06 2.72016e-06 -0.000488112
0.000159122 5.98751e-05 3.17882e-06
5.98751e-05 0.000291402 1.04566e-06
3.17882e-06 1.04566e-06 -7.10195e-05
0.00181288 -0.00176336 -5.48687e-05
-0.00176336 0.000890451 1.70231e-06
-5.48687e-05 1.70231e-06 0.000242576
0.000130033 -4.31153e-05 -6.24715e-06
-4.31153e-05 0.000542721 1.63222e-06
-6.24715e-06 1.63222e-06 -4.94599e-05
0.000194852 -0.00042556 -1.42996e-05
-0.00042556 0.0005046 -2.77405e-06
-1.42996e-05 -2.77405e-06 -4.86089e-05
0.000869399 0.000211546 5.04212e-06
0.000211546 0.000696871 -1.07631e-05
5.04212e-06 -1.07631e-05 0.000392202
-0.00246941 -0.000451704 -2.27027e-05
-0.000451704 -0.000138378 -2.02413e-05
-2.27027e-05 -2.02413e-05 -0.00115547
0.000395474 -0.000212254 -1.80023e-05
-0.000212254 0.000994195 -5.08048e-06
-1.80023e-05 -5.08048e-06 0.000344422
-0.00187712 -4.16917e-05 -2.08174e-05
-4.16917e-05 -0.000415374 -6.52295e-07
-2.08174e-05 -6.52295e-07 -0.00102371
0.000240494 0.000384306 -1.10321e-05
0.000384306 -0.000430039 1.92115e-06
-1.10321e-05 1.92115e-06 -0.00275281
-0.00205471 0.000464304 0.00011532
0.000464304 0.00243649 -5.89464e-06
0.00011532 -5.89464e-06 0.000700447
-0.00102353 -0.000112346 0.000414796
-0.000112346 0.000535188 4.39069e-05
0.000414796 4.39069e-05 -0.00443769
0.000300939 0.000696063 8.38474e-06
0.000696063 0.000389752 1.9164e-05
8.38474e-06 1.9164e-05 -0.000162597
0.000127428 0.00106673 -2.08131e-05
0.00106673 0.000579753 -2.5632e-05
-2.08131e-05 -2.5632e-05 -0.000283675
-0.002691 0.000260468 -0.000112172
0.000260468 0.0010246 -4.19295e-05
-0.000112172 -4.19295e-05 -0.000644847
-0.00450992 0.000844584 0.000125334
0.000844584 0.00341055 0.000222325
0.000125334 0.000222325 -0.0025452
0.0010264 0.000750975 -0.000154319
0.000750975 -0.00172513 -0.000493913
-0.000154319 -0.000493913 -0.00740602
0.00487687 -5.39625e-05 0.000107532
-5.39625e-05 -0.00022026 6.41162e-05
0.000107532 6.41162e-05 -0.000839302
0.00740858 -0.000417781 -0.000378633
-0.000417781 -0.00200686 0.000290564
-0.000378633 0.000290564 -0.00311199
0.000240472 0.000501059 -3.48897e-06
0.000501059 0.000650429 -3.94319e-07
-3.48897e-06 -3.94319e-07 5.25848e-05
0.00142531 0.000155917 4.52095e-05
0.000155917 0.00104683 1.19136e-05
4.52095e-05 1.19136e-05 -0.000100928
0.00518588 -0.0013505 -0.000127567
-0.0013505 0.00329659 -1.13028e-05
-0.000127567 -1.13028e-05 0.00150612
-0.000361694 0.000850596 -0.000151357
0.000850596 0.00182063 -1.35883e-05
-0.000151357 -1.35883e-05 -1.02908e-06
0.01883 0.00616385 -0.000126295
0.00616385 0.00649936 -0.000469875
-0.000126295 -0.000469875 0.00221024
0.0044499 0.00380685 9.80573e-05
0.00380685 0.00629043 0.000393593
9.80573e-05 0.000393593 -0.000242869
0.00551231 0.00131913 7.66078e-05
0.00131913 0.00654355 -1.1852e-05
7.66078e-05 -1.1852e-05 -0.00117613
0.000222728 3.2103e-05 2.91981e-05
3.2103e-05 0.00148937 -2.10982e-05
2.91981e-05 -2.10982e-05 0.000172238
0.000146896 -0.000132611 -0.00019373
-0.000132611 0.00391738 7.35322e-07
-0.00019373 7.35322e-07 0.00229795
0.0012454 -0.000960359 0.000844237
-0.000960359 0.000541873 -0.000278278
0.000844237 -0.000278278 -0.00490498
0.026225 0.0101842 -0.000112986
0.0101842 0.0179848 -4.34763e-05
-0.000112986 -4.34763e-05 0.0116191
0.0123761 0.00461612 9.70446e-05
0.00461612 0.0047662 0.00100575
9.70446e-05 0.00100575 -0.00178612
0.0122669 -0.00466713 0.000410911
-0.00466713 0.00692783 -0.000298238
0.000410911 -0.000298238 5.80669e-05
0.00225495 -0.000812998 -7.65689e-05
-0.000812998 0.00335942 4.46133e-05
-7.65689e-05 4.46133e-05 0.00213536
0.000946113 0.000287126 -4.85385e-06
0.000287126 0.00100324 3.54428e-06
-4.85385e-06 3.54428e-06 0.000503955
8.33292e-06 -8.39455e-05 -1.58957e-06
-8.39455e-05 0.00058317 -5.33903e-06
-1.58957e-06 -5.33903e-06 1.96333e-05
0.00113484 -0.000600901 5.09556e-05
-0.000600901 0.000964719 -1.45175e-05
5.09556e-05 -1.45175e-05 0.000321838
0.000246122 -7.41224e-05 -4.00246e-06
-7.41224e-05 0.000276602 1.13144e-05
-4.00246e-06 1.13144e-05 2.52972e-05
-9.75184e-05 -9.71589e-05 -5.30633e-06
-9.71589e-05 0.000307943 -1.96002e-05
-5.30633e-06 -1.96002e-05 -0.000134777
0.00073065 -0.000334562 -5.13036e-06
-0.000334562 0.000717629 1.14457e-06
-5.13036e-06 1.14457e-06 0.000342585
0.00131156 -0.000766353 3.03504e-05
-0.000766353 0.000644212 -1.84941e-05
3.03504e-05 -1.84941e-05 0.00022559
0.000933247 -0.000382364 2.45789e-06
-0.000382364 0.000466215 7.58274e-07
2.45789e-06 7.58274e-07 0.000181958
0.00140657 -0.000689012 1.77092e-05
-0.000689012 0.000641476 -3.70667e-06
1.77092e-05 -3.70667e-06 0.000186012
0.00144403 -0.000755759 1.18026e-05
-0.000755759 0.000633748 -7.32105e-07
1.18026e-05 -7.32105e-07 -0.000114927
0.000515096 -0.000393801 -8.94879e-06
-0.000393801 3.75632e-05 -6.57503e-06
-8.94879e-06 -6.57503e-06 -0.000201859
0.00230225 -0.000798975 -3.73003e-06
-0.000798975 0.000928502 -1.99486e-06
-3.73003e-06 -1.99486e-06 0.000357414
0.00179658 -0.00093046 -1.43772e-05
-0.00093046 0.000489052 -1.61997e-06
-1.43772e-05 -1.61997e-06 -0.000182368
0.00233782 -0.00107522 -1.43571e-05
-0.00107522 0.000628768 1.10315e-06
-1.43571e-05 1.10315e-06 2.89275e-05
0.00212969 -0.000935119 -4.81506e-06
-0.000935119 0.000690691 -8.4082e-07
-4.81506e-06 -8.4082e-07 0.000133578
0.00170728 -0.000810594 -5.32445e-06
-0.000810594 0.000496748 8.6895e-07
-5.32445e-06 8.6895e-07 -4.43873e-05
0.00126862 -0.000597585 6.62887e-07
-0.000597585 0.000345631 -7.43246e-06
6.62887e-07 -7.43246e-06 -9.01543e-05
0.00157731 -0.00068066 8.19796e-06
-0.00068066 0.000476905 -5.24176e-06
8.19796e-06 -5.24176e-06 1.5273e-05
0.00175112 -0.000743239 7.65343e-06
-0.000743239 0.000528483 -1.44369e-06
7.65343e-06 -1.44369e-06 4.2065e-05
0.00137615 -0.000344448 2.56483e-06
-0.000344448 0.000470153 1.59241e-07
2.56483e-06 1.59241e-07 0.000175476
0.00117839 -0.000503793 6.39445e-06
-0.000503793 0.000299383 -4.2453e-06
6.39445e-06 -4.2453e-06 -7.91493e-05
-0.000188268 -0.000435779 -1.00469e-05
-0.000435779 -0.000605433 -4.59938e-06
-1.00469e-05 -4.59938e-06 -0.00100664
0.000151768 -0.000123487 -2.16431e-09
-0.000123487 -0.000125643 -5.91946e-06
-2.16431e-09 -5.91946e-06 -0.000405502
0.000907832 -0.000268907 -9.01956e-07
-0.000268907 0.0002942 -5.15352e-07
-9.01956e-07 -5.15352e-07 1.13577e-05
2.35846e-05 -0.000315335 -6.00906e-06
-0.000315335 -0.000338058 -1.72602e-06
-6.00906e-06 -1.72602e-06 -0.000632458
0.000316688 -8.19469e-05 -5.3384e-07
-8.19469e-05 -6.87542e-05 6.84319e-06
-5.3384e-07 6.84319e-06 -0.000228031
0.000800171 -0.000149008 -2.61875e-08
-0.000149008 0.000305486 4.14169e-07
-2.61875e-08 4.14169e-07 4.32368e-05
-0.000262278 -0.000194619 -4.36677e-07
-0.000194619 -0.000304727 4.65188e-06
-4.36677e-07 4.65188e-06 -0.000602496
0.00151731 -0.000210175 1.26345e-07
-0.000210175 0.00074235 1.91623e-06
1.26345e-07 1.91623e-06 0.000521259
0.00067628 -8.48351e-05 -3.64383e-07
-8.48351e-05 0.00015234 -2.78713e-07
-3.64383e-07 -2.78713e-07 2.07233e-05
0.000335411 1.65857e-05 2.94086e-06
1.65857e-05 -7.64902e-05 1.157e-05
2.94086e-06 1.157e-05 -0.000129929
0.000725713 -8.5507e-05 5.0346e-07
-8.5507e-05 0.000182318 -4.83925e-06
5.0346e-07 -4.83925e-06 6.95852e-05
0.000445386 1.25944e-06 -4.22126e-06
1.25944e-06 -1.72899e-05 -3.36961e-07
-4.22126e-06 -3.36961e-07 -6.0092e-05
0.00305163 0.000100134 -4.60618e-05
0.000100134 0.00165547 5.35191e-06
-4.60618e-05 5.35191e-06 0.00165767
0.000477121 -2.51286e-05 3.00344e-06
-2.51286e-05 -3.59344e-06 -7.38612e-06
3.00344e-06 -7.38612e-06 -4.01676e-05
0.00187831 6.23357e-05 2.54225e-05
6.23357e-05 0.000893989 -7.33307e-07
2.54225e-05 -7.33307e-07 0.000894281
0.00285973 5.65144e-05 3.71733e-05
5.65144e-05 0.00152242 -5.74272e-06
3.71733e-05 -5.74272e-06 0.00153143
0.000813279 0.000115578 6.21439e-06
0.000115578 0.000268332 -1.76197e-06
6.21439e-06 -1.76197e-06 0.000109608
0.000499019 5.90241e-05 3.95198e-06
5.90241e-05 4.02142e-05 -3.19515e-06
3.95198e-06 -3.19515e-06 -5.52796e-05
0.000401383 5.80654e-05 -4.46227e-07
5.80654e-05 1.1548e-05 -1.2275e-06
-4.46227e-07 -1.2275e-06 -0.000136974
0.000455069 1.4319e-05 1.44142e-06
1.4319e-05 -2.34463e-05 -6.58273e-06
1.44142e-06 -6.58273e-06 -4.79517e-05
0.000278584 4.50602e-05 -2.46157e-06
4.50602e-05 -0.000100496 -2.19274e-06
-2.46157e-06 -2.19274e-06 -0.000187446
0.000662278 9.51622e-05 -2.0752e-06
9.51622e-05 0.000185004 -3.06102e-06
-2.0752e-06 -3.06102e-06 4.19387e-05
0.00223346 -3.19509e-05 -2.21569e-05
-3.19509e-05 0.0011179 -5.34494e-06
-2.21569e-05 -5.34494e-06 0.00113293
0.000432695 -5.20749e-07 5.44848e-07
-5.20749e-07 -3.98053e-05 -1.99089e-07
5.44848e-07 -1.99089e-07 -5.74897e-05
0.000104129 1.99818e-05 -2.12058e-06
1.99818e-05 -0.000213868 9.53257e-07
-2.12058e-06 9.53257e-07 -0.000292003
0.00214688 -1.52219e-05 -5.85987e-06
-1.52219e-05 0.00106227 1.29563e-07
-5.85987e-06 1.29563e-07 0.00107888
0.000433063 2.34803e-06 -3.55709e-06
2.34803e-06 -3.97741e-05 4.33218e-06
-3.55709e-06 4.33218e-06 -5.31811e-05
0.00211572 7.16722e-07 1.4304e-05
7.16722e-07 0.00104345 5.21873e-06
1.4304e-05 5.21873e-06 0.00106027
0.0021184 -0.00035559 -0.000105567
-0.00035559 0.000911936 2.9494e-05
-0.000105567 2.9494e-05 -0.000297349
-0.0013572 -0.000162514 0.000105655
-0.000162514 0.00302654 -5.19001e-06
0.000105655 -5.19001e-06 0.00122529
-0.000948249 -0.000389859 0.000170632
-0.000389859 0.00109278 -0.000223168
0.000170632 -0.000223168 -0.00435809
-0.00017951 1.90997e-05 4.86449e-06
1.90997e-05 -0.000293535 9.58267e-07
4.86449e-06 9.58267e-07 -0.00051019
0.00303338 0.000184414 5.19183e-06
0.000184414 0.0016941 6.40088e-06
5.19183e-06 6.40088e-06 0.00148419
0.000581562 0.000157527 -5.0378e-06
0.000157527 0.00012225 -7.67967e-06
-5.0378e-06 -7.67967e-06 -3.50277e-05
8.62924e-05 7.47213e-05 1.276e-06
7.47213e-05 -0.000197954 -6.1308e-07
1.276e-06 -6.1308e-07 -0.000352177
0.00017063 9.09486e-05 1.93484e-07
9.09486e-05 -0.000172358 -1.67446e-06
1.93484e-07 -1.67446e-06 -0.000293772
0.000122522 9.36253e-05 6.87459e-06
9.36253e-05 -0.000165801 4.65837e-06
6.87459e-06 4.65837e-06 -0.000317274
-0.000126127 8.77707e-05 1.7009e-05
8.77707e-05 -0.000303936 5.23959e-06
1.7009e-05 5.23959e-06 -0.00040957
0.00308929 0.00163578 0.000280338
0.00163578 -0.000220386 0.000262571
0.000280338 0.000262571 -0.00196064
0.00646488 -0.000458422 -8.34593e-05
-0.000458422 5.90809e-05 5.02633e-05
-8.34593e-05 5.02633e-05 -0.00162517
0.00475348 -0.000949482 0.000352243
-0.000949482 0.00362529 -0.000130501
0.000352243 -0.000130501 0.00158262
0.00966059 -0.000144207 -7.76962e-06
-0.000144207 -0.00554421 0.000188669
-7.76962e-06 0.000188669 -0.00259824
0.00705111 -0.00437235 -0.00015622
-0.00437235 0.00112113 3.42707e-05
-0.00015622 3.42707e-05 0.00170812
0.00116257 -0.00527434 -0.000378024
-0.00527434 0.00179383 0.000138794
-0.000378024 0.000138794 -0.00448049
0.0200301 0.00485483 0.00019748
0.00485483 0.00835851 -0.000225854
0.00019748 -0.000225854 0.00253595
0.00240738 -0.00329045 -6.53662e-05
-0.00329045 0.000228871 3.53193e-05
-6.53662e-05 3.53193e-05 0.000759629
-0.00132675 -0.00118933 -8.08683e-05
-0.00118933 0.00483466 5.43225e-05
-8.08683e-05 5.43225e-05 -0.00317589
0.0119492 0.000428384 0.000277482
0.000428384 0.00457058 -3.88134e-05
0.000277482 -3.88134e-05 0.000231386
0.017661 -0.00195878 -8.51978e-05
-0.00195878 0.0023965 -9.69544e-06
-8.51978e-05 -9.69544e-06 0.00315003
-0.00361259 -0.000563558 -0.000197311
-0.000563558 -0.000262462 0.000195276
-0.000197311 0.000195276 -0.000711283
0.00205266 0.00200648 -0.00025412
0.00200648 0.00562718 -0.000146969
-0.00025412 -0.000146969 -0.00246535
0.00233012 -0.00633907 3.1936e-06
-0.00633907 0.000907495 -0.00025032
3.1936e-06 -0.00025032 -0.00549065
0.0169179 -0.00308023 0.000248336
-0.00308023 0.00636601 -0.00072479
0.000248336 -0.00072479 0.00334638
0.000248009 -1.28561e-06 2.35286e-05
-1.28561e-06 0.000245145 -1.74171e-06
2.35286e-05 -1.74171e-06 -7.5702e-05
0.000722204 0.000198513 -2.39167e-06
0.000198513 0.000291922 -4.04941e-06
-2.39167e-06 -4.04941e-06 0.000135748
0.000769755 -1.39221e-06 -5.08318e-07
-1.39221e-06 0.000354741 -6.73137e-06
-5.08318e-07 -6.73137e-06 0.00010219
0.000925471 0.000177404 -3.82705e-06
0.000177404 0.00034628 -1.28065e-05
-3.82705e-06 -1.28065e-05 0.000169939
0.00104215 -0.0014365 9.53754e-05
-0.0014365 0.000454843 2.94347e-05
9.53754e-05 2.94347e-05 -0.000183328
0.00106981 -0.000408004 6.12011e-06
-0.000408004 0.00110952 -2.53909e-05
6.12011e-06 -2.53909e-05 0.000440181
0.000646756 0.000108375 -2.13606e-05
0.000108375 0.000380374 -2.35231e-05
-2.13606e-05 -2.35231e-05 0.000186523
0.000999455 -1.20269e-05 4.03565e-07
-1.20269e-05 0.000746404 -1.25978e-05
4.03565e-07 -1.25978e-05 0.000440004
0.000246297 -4.90115e-05 8.58508e-07
-4.90115e-05 0.000621869 9.20365e-06
8.58508e-07 9.20365e-06 0.000105924
0.000144863 9.30569e-05 2.21573e-06
9.30569e-05 0.000185126 3.73546e-06
2.21573e-06 3.73546e-06 -7.23422e-05
0.000454484 -3.59328e-05 5.13779e-07
-3.59328e-05 0.000835118 1.65543e-06
5.13779e-07 1.65543e-06 0.000288437
0.000306827 -0.000851286 3.63113e-07
-0.000851286 0.0011949 -2.31512e-06
3.63113e-07 -2.31512e-06 -0.000202957
0.000498729 -0.000142872 -3.90628e-06
-0.000142872 0.00119208 -1.04767e-05
-3.90628e-06 -1.04767e-05 0.000569029
-7.31718e-05 0.000121021 2.75364e-06
0.000121021 0.000205962 -8.26057e-06
2.75364e-06 -8.26057e-06 -0.000101652
-0.000306497 0.000315892 -0.000179826
0.000315892 0.00281975 -1.85069e-05
-0.000179826 -1.85069e-05 0.000659922
0.000419206 0.000356124 -1.64006e-05
0.000356124 0.0010486 5.68615e-06
-1.64006e-05 5.68615e-06 0.00043126
-0.00271951 -2.87663e-06 -9.7061e-05
-2.87663e-06 0.00263658 -5.97788e-05
-9.7061e-05 -5.97788e-05 0.000950973
0.00145643 0.000146125 2.63454e-05
0.000146125 0.000388207 1.26651e-05
2.63454e-05 1.26651e-05 -0.000916857
-0.00378327 0.000712064 -5.69957e-05
0.000712064 0.00186938 -8.5193e-05
-5.69957e-05 -8.5193e-05 -8.57157e-05
0.000356822 0.000403635 -2.10882e-05
0.000403635 0.000821682 3.02353e-06
-2.10882e-05 3.02353e-06 0.000313867
-0.00135188 0.00102778 0.000201002
0.00102778 0.000571299 0.000115649
0.000201002 0.000115649 -0.000437185
0.000960784 6.59333e-05 9.05963e-05
6.59333e-05 0.00107418 -9.36469e-06
9.05963e-05 -9.36469e-06 0.000207796
0.00671177 -0.00242093 0.000336641
-0.00242093 0.00659392 -0.00020015
0.000336641 -0.00020015 -0.00246925
0.0215836 0.00434289 -0.000229971
0.00434289 0.00879011 0.000209596
-0.000229971 0.000209596 0.00280733
0.00320594 -0.000844162 -0.000315032
-0.000844162 0.00247709 0.000105229
-0.000315032 0.000105229 0.000640648
0.0146861 0.0052791 -0.000175382
0.0052791 0.00829071 -0.000273384
-0.000175382 -0.000273384 0.00419991
0.00045237 0.000260673 -5.37163e-05
0.000260673 0.00144688 1.04786e-05
-5.37163e-05 1.04786e-05 0.000191361
-0.000179837 -0.000374295 -0.00011093
-0.000374295 0.00300198 1.42473e-06
-0.00011093 1.42473e-06 0.00169353
0.00279297 -0.00185922 0.000306429
-0.00185922 0.00180053 -5.45921e-05
0.000306429 -5.45921e-05 -0.00349259
-0.00355958 -5.27846e-05 6.03618e-05
-5.27846e-05 -0.000172749 3.62003e-05
6.03618e-05 3.62003e-05 -0.000836241
0.0210972 0.0120002 0.000823327
0.0120002 0.0148006 -0.00030159
0.000823327 -0.00030159 0.00812942
0.0106614 0.00338046 -0.000170415
0.00338046 0.00618898 0.000429616
-0.000170415 0.000429616 -0.000147982
-0.00253101 -0.00149419 0.000228006
-0.00149419 0.00347126 -0.000174217
0.000228006 -0.000174217 -0.00488787
-0.00169206 -0.000513211 -2.00211e-05
-0.000513211 0.00043911 -3.0993e-05
-2.00211e-05 -3.0993e-05 -0.000851193
0.000877871 -0.0010891 0.000375188
-0.0010891 -3.54539e-05 -9.73735e-05
0.000375188 -9.73735e-05 -0.00404687
0.00116893 0.00179393 -0.00176466
0.00179393 0.00936883 0.000386002
-0.00176466 0.000386002 0.00375447
0.0230018 0.00832628 -0.000679382
0.00832628 0.00824735 0.000497746
-0.000679382 0.000497746 0.00164347
0.00637702 -0.00436828 -0.000222899
-0.00436828 0.00339523 9.89761e-05
-0.000222899 9.89761e-05 -0.000135152
0.00345479 -0.00221247 5.15822e-05
-0.00221247 0.00373629 1.41453e-05
5.15822e-05 1.41453e-05 0.00245393
7.74339e-05 -6.72959e-05 2.29419e-06
-6.72959e-05 0.000577801 -1.60685e-05
2.29419e-06 -1.60685e-05 -4.05201e-05
1.83084e-05 -0.00043968 4.49587e-06
-0.00043968 0.000446706 -2.14853e-06
4.49587e-06 -2.14853e-06 -0.000231684
0.00104223 -0.00105314 -4.45676e-06
-0.00105314 0.000689036 -1.07207e-06
-4.45676e-06 -1.07207e-06 0.000167246
-0.00024882 -0.000199377 -4.1937e-06
-0.000199377 0.000263794 7.77108e-06
-4.1937e-06 7.77108e-06 -0.000118955
1.27439e-06 -0.000525594 -9.10788e-07
-0.000525594 6.72892e-05 5.98882e-06
-9.10788e-07 5.98882e-06 -0.000295592
0.00268017 -0.00102567 4.08238e-05
-0.00102567 0.00109623 -2.8085e-05
4.08238e-05 -2.8085e-05 0.000597786
0.00636382 -0.00135493 -1.44275e-05
-0.00135493 0.00334516 -2.85789e-07
-1.44275e-05 -2.85789e-07 0.0027936
0.00277629 -0.000948422 1.05734e-05
-0.000948422 0.001282 -3.60551e-06
1.05734e-05 -3.60551e-06 0.000539232
0.00228086 -0.00110332 3.06918e-06
-0.00110332 0.000670576 -1.95274e-05
3.06918e-06 -1.95274e-05 -6.84802e-05
0.00247051 -0.000815996 -1.29829e-05
-0.000815996 0.00099495 -7.39157e-06
-1.29829e-05 -7.39157e-06 0.00044024
0.0021944 -0.000988704 5.55552e-07
-0.000988704 0.000703482 -2.12196e-06
5.55552e-07 -2.12196e-06 1.44717e-05
0.00278943 -0.00116486 -8.89221e-06
-0.00116486 0.000897265 -1.05719e-05
-8.89221e-06 -1.05719e-05 0.000223975
0.00238076 -0.000887448 -2.40345e-06
-0.000887448 0.000438928 -5.68662e-06
-2.40345e-06 -5.68662e-06 -4.1512e-06
0.00276736 -0.00111198 -1.10594e-05
-0.00111198 0.000837088 5.49216e-07
-1.10594e-05 5.49216e-07 0.000259875
0.00259795 -0.00110993 -3.98115e-06
-0.00110993 0.000766782 3.30373e-08
-3.98115e-06 3.30373e-08 0.000155981
0.00191781 -0.000894319 6.32556e-06
-0.000894319 0.000579809 -5.66903e-06
6.32556e-06 -5.66903e-06 4.74035e-05
0.00167945 -0.000860597 3.23295e-06
-0.000860597 0.000432623 -1.35044e-06
3.23295e-06 -1.35044e-06 -9.84316e-05
0.00146063 -0.000775615 7.45119e-06
-0.000775615 0.00034054 -8.81009e-07
7.45119e-06 -8.81009e-07 -0.000196057
0.00148727 -0.000581264 8.19867e-06
-0.000581264 0.000463503 3.441e-06
8.19867e-06 3.441e-06 4.68492e-05
0.00171237 -0.000696044 -1.1056e-06
-0.000696044 0.000570167 -2.14821e-06
-1.1056e-06 -2.14821e-06 0.000103204
0.00171307 -0.000750682 4.53966e-06
-0.000750682 0.00050598 5.54106e-06
4.53966e-06 5.54106e-06 1.87626e-05
0.00133274 -0.000226069 5.32017e-07
-0.000226069 0.000481504 -5.12586e-06
5.32017e-07 -5.12586e-06 0.000229256
0.000858216 -0.000302454 -3.05904e-06
-0.000302454 0.000166893 2.50789e-06
-3.05904e-06 2.50789e-06 -0.000116269
0.000703937 -0.000454489 -4.12711e-06
-0.000454489 -1.24417e-05 -9.31116e-06
-4.12711e-06 -9.31116e-06 -0.00037754
4.53681e-06 -9.28226e-05 -1.84361e-06
-9.28226e-05 -0.000241704 3.07007e-06
-1.84361e-06 3.07007e-06 -0.000465249
0.000846743 -0.000231939 8.29043e-08
-0.000231939 0.000321481 7.9714e-07
8.29043e-08 7.9714e-07 2.87455e-05
0.000634694 -0.000288254 1.32387e-06
-0.000288254 0.000165246 1.40318e-06
1.32387e-06 1.40318e-06 -0.000137335
0.000344765 -3.6436e-05 -8.48406e-06
-3.6436e-05 -8.79124e-05 1.69126e-05
-8.48406e-06 1.69126e-05 -0.000144121
0.000677361 -0.000103193 6.44595e-07
-0.000103193 0.000150509 3.74589e-07
6.44595e-07 3.74589e-07 -9.93673e-06
0.00161438 -0.000239977 -5.68703e-07
-0.000239977 0.000807796 4.67796e-06
-5.68703e-07 4.67796e-06 0.000546989
0.000851575 -9.85815e-05 4.11788e-07
-9.85815e-05 0.000260419 -6.19918e-06
4.11788e-07 -6.19918e-06 0.00012596
0.000418444 -1.40067e-06 -8.78904e-07
-1.40067e-06 -3.17818e-05 -5.5662e-07
-8.78904e-07 -5.5662e-07 -8.20467e-05
0.00318402 0.000129072 -4.56081e-05
0.000129072 0.00175069 5.52481e-06
-4.56081e-05 5.52481e-06 0.00174614
0.00051925 -1.65093e-05 2.97753e-06
-1.65093e-05 2.29108e-05 -9.05583e-06
2.97753e-06 -9.05583e-06 -1.69824e-05
0.00298614 0.000101381 5.79256e-06
0.000101381 0.00161297 7.3801e-07
5.79256e-06 7.3801e-07 0.00161518
0.00284918 7.71327e-05 4.05479e-05
7.71327e-05 0.00151795 -5.29738e-06
4.05479e-05 -5.29738e-06 0.00152471
0.00153008 0.000103926 6.35983e-06
0.000103926 0.000874712 -7.46782e-06
6.35983e-06 -7.46782e-06 0.000582559
0.0015845 0.000199105 8.02801e-06
0.000199105 0.000859612 -7.15088e-06
8.02801e-06 -7.15088e-06 0.000614831
0.000545262 4.67104e-05 6.20321e-06
4.67104e-05 6.25556e-05 -5.98292e-06
6.20321e-06 -5.98292e-06 -4.54607e-05
0.000679625 0.000132457 -1.30431e-07
0.000132457 0.000202203 4.83927e-07
-1.30431e-07 4.83927e-07 3.71017e-05
0.000427097 -6.93182e-06 3.9296e-06
-6.93182e-06 -3.81275e-05 -7.89359e-06
3.9296e-06 -7.89359e-06 -6.79027e-05
0.000525044 6.24487e-05 1.87552e-07
6.24487e-05 5.73925e-05 -2.87305e-07
1.87552e-07 -2.87305e-07 -3.82607e-05
0.000621238 6.31052e-05 -6.4801e-06
6.31052e-05 0.000140137 -2.80493e-06
-6.4801e-06 -2.80493e-06 -2.26488e-06
0.00243699 -4.9591e-05 -2.8728e-05
-4.9591e-05 0.00125104 -5.65963e-06
-2.8728e-05 -5.65963e-06 0.00126322
0.000445077 6.53065e-06 -9.95981e-07
6.53065e-06 -2.90938e-05 -1.64046e-07
-9.95981e-07 -1.64046e-07 -5.30285e-05
0.000493613 6.7072e-05 -5.01228e-06
6.7072e-05 3.98618e-05 8.92885e-07
-5.01228e-06 8.92885e-07 -4.77144e-05
0.00224714 -3.18717e-05 -5.13925e-06
-3.18717e-05 0.00112675 2.80309e-07
-5.13925e-06 2.80309e-07 0.0011418
0.000444365 3.17682e-06 -3.63874e-06
3.17682e-06 -3.31607e-05 4.81717e-06
-3.63874e-06 4.81717e-06 -5.03251e-05
0.00214073 -1.49604e-05 1.77127e-05
-1.49604e-05 0.00105812 5.10061e-06
1.77127e-05 5.10061e-06 0.00107476
-0.00269608 0.000567012 -1.7867e-05
0.000567012 0.00121007 -9.15998e-05
-1.7867e-05 -9.15998e-05 -0.000188528
0.00251043 -0.000293852 -1.89255e-05
-0.000293852 0.00142723 -2.89489e-05
-1.89255e-05 -2.89489e-05 0.000431118
7.1453e-06 -0.000316248 2.16513e-05
-0.000316248 0.00283579 -5.27906e-05
2.16513e-05 -5.27906e-05 0.00138323
0.000596792 8.01583e-05 2.08525e-06
8.01583e-05 0.000268443 -5.0339e-06
2.08525e-06 -5.0339e-06 -8.1063e-06
8.77381e-05 0.000141377 6.87654e-06
0.000141377 -0.000149303 -3.2781e-06
6.87654e-06 -3.2781e-06 -0.00035406
-0.00194982 2.09236e-06 1.08205e-05
2.09236e-06 -0.00153041 -1.06748e-05
1.08205e-05 -1.06748e-05 -0.00170842
-0.00176776 -9.19687e-06 -4.13517e-06
-9.19687e-06 -0.00122123 1.82034e-05
-4.13517e-06 1.82034e-05 -0.00147014
0.00266082 0.000386725 3.30089e-06
0.000386725 0.00145279 -1.51454e-06
3.30089e-06 -1.51454e-06 0.00116485
0.000774075 4.78353e-05 -6.50523e-06
4.78353e-05 0.000234387 -2.42333e-06
-6.50523e-06 -2.42333e-06 6.69033e-05
0.000259858 0.000120753 -1.0692e-05
0.000120753 -9.22538e-05 -1.18669e-05
-1.0692e-05 -1.18669e-05 -0.000215326
0.00113482 2.53825e-05 3.24136e-06
2.53825e-05 0.000464019 4.30377e-07
3.24136e-06 4.30377e-07 0.000321849
0.000992716 0.000189859 -1.82325e-06
0.000189859 0.000404536 -4.75369e-06
-1.82325e-06 -4.75369e-06 0.000284452
0.00231608 0.000183028 1.68115e-06
0.000183028 0.00142419 -1.82459e-05
1.68115e-06 -1.82459e-05 0.00113982
0.0072651 0.00167037 0.000570783
0.00167037 0.00506339 0.000576802
0.000570783 0.000576802 -2.41282e-05
0.00317615 0.00127467 2.46595e-05
0.00127467 0.000524657 8.95101e-05
2.46595e-05 8.95101e-05 -0.00146123
0.00588957 -0.000319524 0.000101715
-0.000319524 -0.000200608 -1.66381e-05
0.000101715 -1.66381e-05 -0.00121815
0.0144616 -0.00118007 -0.000304222
-0.00118007 0.00211549 -0.000145481
-0.000304222 -0.000145481 0.00384796
-0.00144036 0.000995282 0.000107372
0.000995282 -0.00223443 0.000426494
0.000107372 0.000426494 -0.0078372
0.00269911 -0.00342945 -4.18695e-05
-0.00342945 0.000823311 -2.91733e-05
-4.18695e-05 -2.91733e-05 0.0010876
0.0055927 -0.00210891 -0.000251153
-0.00210891 0.00550232 6.33213e-05
-0.000251153 6.33213e-05 -0.0005482
0.000805226 -0.00146256 -0.00014374
-0.00146256 0.00131268 0.000139491
-0.00014374 0.000139491 0.000742655
0.0107827 -0.000146699 -0.000255235
-0.000146699 0.00787612 -2.70383e-06
-0.000255235 -2.70383e-06 0.000596656
0.00804214 -0.00286905 0.000117064
-0.00286905 0.0048718 0.000228087
0.000117064 0.000228087 -0.00122926
0.0222091 -0.00522144 -1.53235e-06
-0.00522144 0.00611196 -0.000861676
-1.53235e-06 -0.000861676 0.00183515
0.00074604 0.000364086 -0.000146918
0.000364086 0.00306004 0.000103168
-0.000146918 0.000103168 0.00148283
0.0094238 0.00270839 -0.000289489
0.00270839 0.00690172 -5.39176e-05
-0.000289489 -5.39176e-05 0.000782133
0.0231901 -0.00868301 0.000124604
-0.00868301 0.0127744 -0.00089449
0.000124604 -0.00089449 0.00549499
0.0286291 -0.0117673 0.000105377
-0.0117673 0.0139001 -7.74819e-05
0.000105377 -7.74819e-05 0.00752893
0.000903834 0.000328529 2.7033e-05
0.000328529 0.000594702 -1.07499e-06
2.7033e-05 -1.07499e-06 0.000187485
-2.61329e-05 5.01074e-05 6.47057e-06
5.01074e-05 0.000158165 1.62102e-06
6.47057e-06 1.62102e-06 -0.000215035
0.00122849 0.000214442 -2.35714e-05
0.000214442 0.000634102 -1.87424e-05
-2.35714e-05 -1.87424e-05 0.000459147
0.00448404 -0.00141935 0.000123256
-0.00141935 0.00303596 -1.45399e-05
0.000123256 -1.45399e-05 0.00128002
-0.000533018 -0.000156473 7.61179e-05
-0.000156473 0.000821549 -7.63867e-06
7.61179e-05 -7.63867e-06 0.000123888
-0.000529574 6.1348e-05 -6.22299e-06
6.1348e-05 -0.000242369 -1.85787e-06
-6.22299e-06 -1.85787e-06 -0.00048923
-0.000474634 -0.000152605 2.24544e-05
-0.000152605 0.000356811 -7.65977e-06
2.24544e-05 -7.65977e-06 -0.000269126
-0.000239255 0.000132228 -2.94762e-06
0.000132228 8.44892e-05 -4.57427e-07
-2.94762e-06 -4.57427e-07 -0.000228279
-0.000120376 0.000307582 1.87664e-05
0.000307582 0.00056443 5.00493e-06
1.87664e-05 5.00493e-06 -8.37362e-05
-0.00236646 9.09418e-05 0.000195527
9.09418e-05 0.00127248 -4.17344e-05
0.000195527 -4.17344e-05 -0.000850032
0.000535862 0.000667018 2.33639e-05
0.000667018 0.00032402 3.08594e-05
2.33639e-05 3.08594e-05 -0.000130825
0.00132964 0.000947252 -0.000135569
0.000947252 0.00174321 -0.000105542
-0.000135569 -0.000105542 5.48644e-05
0.000737383 3.6766e-05 0.000249591
3.6766e-05 0.00179742 9.02622e-05
0.000249591 9.02622e-05 -0.00320334
-0.00287048 0.000367862 -0.000125861
0.000367862 0.00239182 6.89534e-06
-0.000125861 6.89534e-06 0.000348903
0.00342467 -0.000346845 -6.74303e-05
-0.000346845 0.00162394 -2.16494e-06
-6.74303e-05 -2.16494e-06 0.00124918
0.000189489 0.000605644 9.48218e-05
0.000605644 0.00104165 1.81834e-05
9.48218e-05 1.81834e-05 -0.000270733
0.00110271 0.00031303 -0.000113152
0.00031303 0.0030735 0.000109081
-0.000113152 0.000109081 0.0013256
-0.000782977 -0.000276411 -9.06386e-06
-0.000276411 0.00238852 -3.82488e-05
-9.06386e-06 -3.82488e-05 0.000783523
0.0158024 -0.00521845 0.00030941
-0.00521845 0.00910138 -0.000176049
0.00030941 -0.000176049 0.00175546
0.0258184 0.00637495 -0.0004233
0.00637495 0.013017 -0.000245541
-0.0004233 -0.000245541 0.00551815
0.00571955 -0.00225914 -0.000422275
-0.00225914 0.0030973 0.000316211
-0.000422275 0.000316211 -0.00159761
0.0137483 0.0141642 0.00305704
0.0141642 0.0106252 -0.00180932
0.00305704 -0.00180932 0.00360082
0.000834335 -0.000677305 4.4732e-05
-0.000677305 0.00165998 -1.33521e-05
4.4732e-05 -1.33521e-05 0.000299495
-0.000314453 -0.000743307 6.80825e-05
-0.000743307 0.00075383 9.38616e-06
6.80825e-05 9.38616e-06 -0.00396425
0.00319248 0.00236444 -0.00148248
0.00236444 0.00885169 0.000313992
-0.00148248 0.000313992 0.00278431
1.523e-05 -0.0011557 3.86454e-05
-0.0011557 0.0015853 2.62177e-05
3.86454e-05 2.62177e-05 0.00052387
0.0233742 0.00800371 0.000440624
0.00800371 0.00864081 0.000133443
0.000440624 0.000133443 0.00206939
0.00776288 -0.00678156 0.000302379
-0.00678156 0.00287363 -8.94257e-05
0.000302379 -8.94257e-05 -0.00138456
0.00040066 -0.00173228 -7.3274e-06
-0.00173228 0.000645744 3.93792e-05
-7.3274e-06 3.93792e-05 -0.00054291
-0.00446066 -0.00203553 0.000195988
-0.00203553 0.00752415 -0.000104574
0.000195988 -0.000104574 0.00277961
0.0190957 0.00830982 -0.00201628
0.00830982 0.00777687 0.00051297
-0.00201628 0.00051297 0.00263148
0.00695778 -0.00534128 -0.000591395
-0.00534128 -0.000862654 0.000224224
-0.000591395 0.000224224 -0.0034714
-0.000451971 -0.00231803 0.000195231
-0.00231803 -0.000295783 -0.000141384
0.000195231 -0.000141384 0.000668857
0.00137789 -0.000654448 -0.000117043
-0.000654448 0.00104715 3.88589e-05
-0.000117043 3.88589e-05 0.000417077
0.000474486 -0.000803377 -1.83976e-05
-0.000803377 0.00045563 1.2368e-05
-1.83976e-05 1.2368e-05 -8.81639e-05
0.00243469 -0.00106524 2.40113e-05
-0.00106524 0.00110815 -3.31171e-05
2.40113e-05 -3.31171e-05 0.000599961
-0.00100931 -0.0002675 1.18987e-05
-0.0002675 -0.000330749 4.83402e-06
1.18987e-05 4.83402e-06 -0.000647743
0.00113799 -0.000811513 -1.18122e-06
-0.000811513 0.000318002 -3.10959e-06
-1.18122e-06 -3.10959e-06 -0.000144092
0.00336484 -0.0012679 1.03921e-05
-0.0012679 0.00106482 -1.19435e-05
1.03921e-05 -1.19435e-05 0.000554484
0.00434351 -0.00117645 -3.29861e-05
-0.00117645 0.00206128 3.83692e-06
-3.29861e-05 3.83692e-06 0.00132353
0.00183357 -0.00100905 -2.72867e-06
-0.00100905 0.000425104 -1.22314e-06
-2.72867e-06 -1.22314e-06 -0.000286241
0.00257542 -0.00122597 -2.27958e-06
-0.00122597 0.000566448 -1.09433e-05
-2.27958e-06 -1.09433e-05 -1.61592e-05
0.00303931 -0.00110831 7.03531e-06
-0.00110831 0.00115739 7.01869e-06
7.03531e-06 7.01869e-06 0.000445602
0.00251595 -0.00112938 2.48282e-06
-0.00112938 0.000721023 -3.97399e-06
2.48282e-06 -3.97399e-06 6.98279e-05
0.00275737 -0.000957787 -4.94873e-06
-0.000957787 0.000606831 -7.71478e-06
-4.94873e-06 -7.71478e-06 0.000161925
0.00189592 -0.000588995 -1.288e-06
-0.000588995 -6.94825e-06 -2.13475e-06
-1.288e-06 -2.13475e-06 -0.000264985
0.00202499 -0.000869122 1.95835e-06
-0.000869122 0.000174838 -3.04551e-06
1.95835e-06 -3.04551e-06 -0.0002641
0.00236493 -0.000895394 3.4432e-06
-0.000895394 0.000417359 -2.53086e-06
3.4432e-06 -2.53086e-06 -2.7131e-05
0.00260955 -0.000985666 -5.03895e-06
-0.000985666 0.000809381 -1.71284e-06
-5.03895e-06 -1.71284e-06 0.000288727
0.00275825 -0.00110895 -3.55514e-06
-0.00110895 0.000839552 -1.34454e-07
-3.55514e-06 -1.34454e-07 0.000257845
0.00264508 -0.00111903 1.10021e-05
-0.00111903 0.000782429 -4.96952e-06
1.10021e-05 -4.96952e-06 0.000165503
0.00181119 -0.000776838 6.9983e-06
-0.000776838 0.000565228 -3.80562e-06
6.9983e-06 -3.80562e-06 7.29521e-05
0.0017112 -0.000860497 2.1883e-06
-0.000860497 0.000468807 -8.16503e-07
2.1883e-06 -8.16503e-07 -5.28607e-05
0.00134446 -0.000803303 3.82578e-06
-0.000803303 0.000243674 3.10866e-06
3.82578e-06 3.10866e-06 -0.000265599
0.00160963 -0.00035107 9.81839e-07
-0.00035107 0.000580389 3.36517e-06
9.81839e-07 3.36517e-06 0.000287117
0.00143138 -0.000554837 1.57821e-06
-0.000554837 0.00045743 1.02029e-06
1.57821e-06 1.02029e-06 5.29378e-05
0.00199204 -0.000725054 -4.77206e-06
-0.000725054 0.000756955 4.37779e-06
-4.77206e-06 4.37779e-06 0.000281687
5.18468e-05 -0.000144468 -3.44663e-06
-0.000144468 -0.000271302 7.65809e-09
-3.44663e-06 7.65809e-09 -0.00051352
0.000626977 -0.000255234 -2.63967e-06
-0.000255234 7.24087e-05 -2.06987e-06
-2.63967e-06 -2.06987e-06 -0.000203704
0.000903381 -0.000306419 -4.31648e-06
-0.000306419 0.00021252 1.05112e-06
-4.31648e-06 1.05112e-06 -6.93586e-05
0.00200792 -1.33222e-05 -5.85787e-05
-1.33222e-05 0.000983153 1.12116e-05
-5.85787e-05 1.12116e-05 0.000920053
0.000726645 -0.000166029 8.00456e-07
-0.000166029 0.000184739 7.45771e-08
8.00456e-07 7.45771e-08 -2.66121e-05
0.00138388 -0.000323536 1.48943e-06
-0.000323536 0.000666222 6.08134e-06
1.48943e-06 6.08134e-06 0.000362053
0.000631943 1.44995e-05 -6.56144e-05
1.44995e-05 0.000107453 7.42376e-06
-6.56144e-05 7.42376e-06 9.53992e-05
0.00127394 -1.81186e-05 -2.11909e-05
-1.81186e-05 0.000509616 -7.20039e-07
-2.11909e-05 -7.20039e-07 0.00045558
0.00104355 -0.000122899 3.27742e-06
-0.000122899 0.000374165 -5.50112e-06
3.27742e-06 -5.50112e-06 0.000212887
0.000555465 -1.78093e-05 4.06335e-06
-1.78093e-05 4.87214e-05 -1.16999e-05
4.06335e-06 -1.16999e-05 3.45066e-07
0.00327819 0.00012824 1.07044e-05
0.00012824 0.00181124 8.90805e-07
1.07044e-05 8.90805e-07 0.00180711
0.00297208 9.98746e-05 4.48798e-05
9.98746e-05 0.00160346 -5.40839e-06
4.48798e-05 -5.40839e-06 0.00160629
0.000467957 0.000168214 8.98969e-06
0.000168214 9.94992e-05 2.3573e-06
8.98969e-06 2.3573e-06 -0.000168959
0.00184448 0.000191724 5.51723e-06
0.000191724 0.00104135 -7.44144e-06
5.51723e-06 -7.44144e-06 0.000742205
-0.000554503 3.66576e-05 2.75789e-06
3.66576e-05 -0.000473155 -2.64752e-07
2.75789e-06 -2.64752e-07 -0.000733879
0.000674761 7.52682e-05 2.34084e-06
7.52682e-05 0.000153202 -9.54971e-06
2.34084e-06 -9.54971e-06 2.19765e-05
0.000687889 0.000133378 1.22245e-06
0.000133378 0.000239239 -9.77661e-08
1.22245e-06 -9.77661e-08 2.95505e-05
0.000419398 1.19089e-05 -7.69927e-07
1.19089e-05 -3.47895e-05 -1.08788e-05
-7.69927e-07 -1.08788e-05 -7.26064e-05
0.000558443 6.26088e-05 -7.7239e-08
6.26088e-05 8.05669e-05 -5.13322e-07
-7.7239e-08 -5.13322e-07 -3.02151e-05
0.000698762 6.27181e-05 -6.19119e-06
6.27181e-05 0.000239603 1.78791e-06
-6.19119e-06 1.78791e-06 6.37363e-05
0.00271528 -6.97718e-05 -3.7824e-05
-6.97718e-05 0.00143492 -5.52739e-06
-3.7824e-05 -5.52739e-06 0.00144363
0.000411928 5.49728e-06 -2.40174e-07
5.49728e-06 -4.63566e-05 -2.03643e-08
-2.40174e-07 -2.03643e-08 -7.66088e-05
0.000487293 6.77787e-05 -2.77563e-06
6.77787e-05 3.42567e-05 3.62083e-06
-2.77563e-06 3.62083e-06 -6.17272e-05
0.00243333 -5.06707e-05 -6.89499e-06
-5.06707e-05 0.00124883 4.49839e-07
-6.89499e-06 4.49839e-07 0.00126085
0.000391519 -1.44799e-05 -7.06876e-06
-1.44799e-05 -6.31277e-05 6.12905e-06
-7.06876e-06 6.12905e-06 -8.64248e-05
0.00224405 -3.04213e-05 2.31329e-05
-3.04213e-05 0.00112472 5.17213e-06
2.31329e-05 5.17213e-06 0.00114007
0.00687704 0.00108427 0.000479612
0.00108427 0.00468491 0.000116864
0.000479612 0.000116864 0.00165205
-0.00237536 0.000433889 -9.39547e-06
0.000433889 0.00106937 -1.21417e-05
-9.39547e-06 -1.21417e-05 -0.000659492
0.000460488 0.000518211 -8.75552e-06
0.000518211 0.00154587 -1.71234e-05
-8.75552e-06 -1.71234e-05 0.0001996
-0.000443358 0.000183291 -9.2105e-06
0.000183291 -0.000635316 8.13361e-06
-9.2105e-06 8.13361e-06 -0.00085687
-3.71189e-05 4.14498e-05 -8.013e-06
4.14498e-05 -0.000205006 1.31189e-05
-8.013e-06 1.31189e-05 -0.000427002
-0.000458024 5.82031e-05 -9.26097e-06
5.82031e-05 -0.000485232 -1.0099e-05
-9.26097e-06 -1.0099e-05 -0.000669378
0.0017393 0.000103504 5.84418e-06
0.000103504 0.000905793 3.5519e-07
5.84418e-06 3.5519e-07 0.000698314
0.000881896 0.000194664 -3.38444e-06
0.000194664 0.000228372 -7.37051e-06
-3.38444e-06 -7.37051e-06 3.179e-05
0.00251779 0.000390091 -1.51002e-05
0.000390091 0.00137317 -5.71652e-06
-1.51002e-05 -5.71652e-06 0.00114844
0.0012972 0.000316063 1.58106e-06
0.000316063 0.000513814 -1.32152e-05
1.58106e-06 -1.32152e-05 0.00017009
-0.00188828 0.000164895 -4.67093e-06
0.000164895 -0.000995714 2.8488e-07
-4.67093e-06 2.8488e-07 -0.00140193
0.000256862 8.61707e-05 -6.49131e-06
8.61707e-05 -5.07796e-05 -7.44651e-06
-6.49131e-06 -7.44651e-06 -0.000204351
-0.000354178 5.71066e-05 -1.40176e-05
5.71066e-05 -0.000516667 -9.11765e-06
-1.40176e-05 -9.11765e-06 -0.000586187
-0.000821353 1.26408e-05 -3.13634e-06
1.26408e-05 -0.000497193 2.16385e-06
-3.13634e-06 2.16385e-06 -0.000793865
0.000452376 0.000339485 1.54369e-05
0.000339485 0.000436211 5.08614e-06
1.54369e-05 5.08614e-06 -0.000105383
0.00657064 -0.00533059 2.45049e-05
-0.00533059 0.00841802 0.00023416
2.45049e-05 0.00023416 0.000643594
0.00794129 0.00220929 0.000219002
0.00220929 0.00388734 0.000195562
0.000219002 0.000195562 -0.00183652
0.003962 0.000671763 -8.94179e-06
0.000671763 0.00121213 -8.34371e-05
-8.94179e-06 -8.34371e-05 -0.00106033
0.0324293 -0.00734047 -0.00107366
-0.00734047 0.0100555 -0.000462072
-0.00107366 -0.000462072 0.00506822
0.00540046 -0.00164104 0.000321125
-0.00164104 0.00463271 0.00057337
0.000321125 0.00057337 0.000156002
0.00233029 -0.00161671 -0.000270388
-0.00161671 0.00564368 0.000137032
-0.000270388 0.000137032 -0.00241892
-0.000624711 -0.00135508 9.04678e-05
-0.00135508 0.00152851 5.12641e-05
9.04678e-05 5.12641e-05 0.000289927
-0.00150809 -4.34746e-05 0.000175452
-4.34746e-05 0.00145456 5.27697e-05
0.000175452 5.27697e-05 0.000401248
0.0226447 -0.0128444 0.000543404
-0.0128444 0.0124541 0.000519774
0.000543404 0.000519774 0.00565363
0.00312495 0.0020942 -0.000151373
0.0020942 0.00520772 -0.000108329
-0.000151373 -0.000108329 -0.00199325
0.0114908 -0.00459835 -0.000155259
-0.00459835 0.00728739 0.000151803
-0.000155259 0.000151803 -0.000316743
-0.000197575 0.000896683 -1.2309e-05
0.000896683 0.00138782 3.52032e-05
-1.2309e-05 3.52032e-05 0.000642813
0.00851319 0.00525563 -0.000158374
0.00525563 0.00314675 -3.56282e-06
-0.000158374 -3.56282e-06 -0.000983904
0.0217104 -0.00800019 -0.00101285
-0.00800019 0.00801104 -0.000475818
-0.00101285 -0.000475818 0.00116749
0.00124251 0.00077492 1.29508e-05
0.00077492 0.000362783 1.05018e-06
1.29508e-05 1.05018e-06 0.000151192
0.000682787 0.000284099 8.33067e-06
0.000284099 0.00048826 6.56736e-06
8.33067e-06 6.56736e-06 7.95454e-05
-0.000658561 1.15645e-05 -2.30878e-05
1.15645e-05 -0.000214431 -1.32708e-06
-2.30878e-05 -1.32708e-06 -0.000601207
-0.0029888 -0.000269711 -0.000127997
-0.000269711 0.00072056 -5.19888e-05
-0.000127997 -5.19888e-05 -0.00129772
0.000458298 0.000293381 -4.49543e-06
0.000293381 0.000535589 -1.76506e-05
-4.49543e-06 -1.76506e-05 -4.05779e-05
0.000546747 0.000241522 -5.8593e-06
0.000241522 0.000521371 6.55922e-06
-5.8593e-06 6.55922e-06 0.000171157
0.00117564 0.000775645 1.41485e-05
0.000775645 0.00063599 3.2621e-06
1.41485e-05 3.2621e-06 0.000168835
-0.000256742 0.000749555 1.79989e-05
0.000749555 0.00100248 -4.09533e-05
1.79989e-05 -4.09533e-05 -0.000467688
0.00144034 0.00188023 9.01157e-05
0.00188023 0.000446623 8.57759e-06
9.01157e-05 8.57759e-06 -0.000689578
-0.00681243 0.00126158 0.000485555
0.00126158 0.00611778 -1.63455e-05
0.000485555 -1.63455e-05 -0.00235568
0.00221674 -0.000431835 -1.84136e-05
-0.000431835 0.00229585 8.60598e-05
-1.84136e-05 8.60598e-05 -0.00106262
-0.00315217 -1.16535e-05 -2.60821e-05
-1.16535e-05 0.00173578 8.45625e-05
-2.60821e-05 8.45625e-05 -7.53564e-05
-0.00100094 -0.000378216 -5.21402e-05
-0.000378216 0.000767639 1.19414e-05
-5.21402e-05 1.19414e-05 -0.000648613
-0.00165864 -0.000787418 -6.11852e-05
-0.000787418 8.73257e-05 4.96452e-05
-6.11852e-05 4.96452e-05 0.000123199
-0.00093803 -0.000767954 -0.000247575
-0.000767954 0.0012792 0.000165465
-0.000247575 0.000165465 -0.00386552
-0.00138116 -0.00510026 0.000255097
-0.00510026 0.00223563 -0.000142336
0.000255097 -0.000142336 -0.00445698
0.0169737 0.00634723 0.000905404
0.00634723 0.00395976 -0.000470372
0.000905404 -0.000470372 -0.00225084
0.0157775 0.00591252 -0.000460305
0.00591252 0.0103544 0.000443212
-0.000460305 0.000443212 0.00346954
0.000968187 -0.00121348 -3.53438e-05
-0.00121348 0.00156357 6.79247e-06
-3.53438e-05 6.79247e-06 0.000437983
0.00339184 0.00116594 0.000222876
0.00116594 0.00957786 -4.70114e-05
0.000222876 -4.70114e-05 0.003814
0.0042145 0.00575092 1.92302e-05
0.00575092 0.00189976 9.36721e-05
1.92302e-05 9.36721e-05 -0.00290863
0.00248573 -0.0036786 8.77684e-05
-0.0036786 0.000870591 -5.67485e-05
8.77684e-05 -5.67485e-05 0.00111225
0.0142407 -0.00584055 -3.62852e-07
-0.00584055 0.00123626 1.02852e-05
-3.62852e-07 1.02852e-05 -0.000616611
0.00331927 -0.00221826 9.87462e-06
-0.00221826 0.0014365 1.53393e-05
9.87462e-06 1.53393e-05 0.000840102
-0.00662922 0.00196524 -0.000878052
0.00196524 -0.001326 0.000153676
-0.000878052 0.000153676 -0.00550685
0.0159249 -0.00375969 -0.000240394
-0.00375969 0.000829365 6.81543e-05
-0.000240394 6.81543e-05 -6.20268e-05
0.00435587 -0.00349692 0.000136948
-0.00349692 3.44338e-05 -7.98629e-05
0.000136948 -7.98629e-05 0.00114139
-0.000298113 -0.000570519 1.04528e-05
-0.000570519 0.000167379 1.72487e-06
1.04528e-05 1.72487e-06 -0.000394625
0.00204066 -0.00117074 1.42044e-05
-0.00117074 0.000731406 -8.48002e-06
1.42044e-05 -8.48002e-06 0.000324413
0.00304517 -0.00112143 2.39451e-05
-0.00112143 0.000914124 -2.04711e-05
2.39451e-05 -2.04711e-05 0.000519892
-0.000395534 -0.000619189 -7.24678e-06
-0.000619189 -0.000483971 1.59257e-05
-7.24678e-06 1.59257e-05 -0.000915168
0.00201749 -0.00111813 -4.78341e-06
-0.00111813 0.000352052 1.38073e-06
-4.78341e-06 1.38073e-06 -0.000155622
0.00354772 -0.00131911 6.77151e-06
-0.00131911 0.000947875 -6.26202e-06
6.77151e-06 -6.26202e-06 0.000451825
0.00138659 -0.000915533 -8.34112e-06
-0.000915533 0.000169363 1.11589e-05
-8.34112e-06 1.11589e-05 -0.000515245
0.00231221 -0.00118506 -8.64434e-07
-0.00118506 0.000430209 2.70802e-06
-8.64434e-07 2.70802e-06 -0.00014959
0.00227692 -0.000927618 -3.98411e-06
-0.000927618 0.000164932 -4.54738e-06
-3.98411e-06 -4.54738e-06 -0.000182735
0.00184297 -0.00103959 9.14777e-06
-0.00103959 0.000337879 3.66814e-06
9.14777e-06 3.66814e-06 -0.000283816
0.00224803 -0.00088383 -1.7673e-06
-0.00088383 0.000331711 1.9145e-06
-1.7673e-06 1.9145e-06 -9.48286e-05
0.00227739 -0.000641409 -1.35807e-06
-0.000641409 0.00014558 -2.05953e-06
-1.35807e-06 -2.05953e-06 -8.25272e-05
0.00207762 -0.000553922 -2.46029e-06
-0.000553922 0.00010918 5.59083e-07
-2.46029e-06 5.59083e-07 -8.30898e-05
0.0018759 -0.000605051 -2.82806e-06
-0.000605051 1.0371e-05 -1.96166e-06
-2.82806e-06 -1.96166e-06 -0.000261489
0.00195563 -0.000588752 1.62271e-06
-0.000588752 2.66262e-05 2.90711e-06
1.62271e-06 2.90711e-06 -0.000227836
0.00184554 -0.00075377 -3.74475e-06
-0.00075377 0.000138975 -4.15706e-06
-3.74475e-06 -4.15706e-06 -0.000253233
0.00221215 -0.000880569 2.74996e-06
-0.000880569 0.000311832 6.45799e-08
2.74996e-06 6.45799e-08 -0.000124606
0.00234062 -0.000896543 3.10047e-06
-0.000896543 0.000399952 2.53072e-06
3.10047e-06 2.53072e-06 -4.37132e-05
0.00200775 -0.000847103 5.40315e-07
-0.000847103 0.000482153 -3.07199e-06
5.40315e-07 -3.07199e-06 -8.68098e-06
0.00240219 -0.000968701 1.99238e-06
-0.000968701 0.000676274 -6.36471e-07
1.99238e-06 -6.36471e-07 0.000156001
0.00266877 -0.00109411 3.93649e-06
-0.00109411 0.00079657 -1.95117e-06
3.93649e-06 -1.95117e-06 0.000212979
0.00155746 -0.000535781 -7.30631e-06
-0.000535781 0.000467845 4.05134e-06
-7.30631e-06 4.05134e-06 8.69074e-05
0.00179182 -0.000760748 7.506e-07
-0.000760748 0.000558002 5.88647e-07
7.506e-07 5.88647e-07 7.41445e-05
0.00145136 -0.00081817 -9.92662e-07
-0.00081817 0.000328305 3.28263e-06
-9.92662e-07 3.28263e-06 -0.000180546
0.00071142 -0.000241829 -6.33855e-06
-0.000241829 8.88707e-05 -8.17995e-07
-6.33855e-06 -8.17995e-07 -0.000146681
0.0010353 -0.000324228 2.90454e-06
-0.000324228 0.000222917 -6.42299e-07
2.90454e-06 -6.42299e-07 -7.20869e-05
0.000915668 -0.000489437 -6.15318e-06
-0.000489437 0.000170374 3.31341e-06
-6.15318e-06 3.31341e-06 -0.00021624
0.000428774 -0.000101699 -1.75078e-05
-0.000101699 -6.49441e-05 1.52672e-05
-1.75078e-05 1.52672e-05 -0.00015777
0.000706538 -0.000196817 1.0775e-06
-0.000196817 0.000163172 1.90757e-06
1.0775e-06 1.90757e-06 -9.53451e-05
0.000563433 -0.000301451 -3.25106e-06
-0.000301451 6.86695e-05 1.00453e-06
-3.25106e-06 1.00453e-06 -0.000231893
0.00434119 0.000279225 1.64183e-05
0.000279225 0.00255274 8.22872e-06
1.64183e-05 8.22872e-06 0.00250036
0.000410763 -6.65953e-05 1.43502e-07
-6.65953e-05 -5.22895e-05 -3.40692e-07
1.43502e-07 -3.40692e-07 -0.000132342
0.00148516 -0.000179857 1.00192e-06
-0.000179857 0.000658542 -3.87723e-06
1.00192e-06 -3.87723e-06 0.000447105
0.0037229 0.000144746 9.87755e-06
0.000144746 0.00210568 6.50588e-07
9.87755e-06 6.50588e-07 0.00209719
0.000604219 -3.78991e-05 7.84639e-06
-3.78991e-05 7.70449e-05 -1.35053e-05
7.84639e-06 -1.35053e-05 1.49416e-05
0.00335376 0.000115032 6.93031e-05
0.000115032 0.00185722 -6.10883e-06
6.93031e-05 -6.10883e-06 0.00185655
0.00242231 0.00042135 2.45258e-06
0.00042135 0.00121772 2.14087e-06
2.45258e-06 2.14087e-06 0.000941379
0.000590708 0.000205751 -2.3234e-07
0.000205751 0.000180333 -1.91157e-06
-2.3234e-07 -1.91157e-06 -0.000100271
0.00132157 0.000352797 -3.4427e-06
0.000352797 0.000674912 -3.39979e-06
-3.4427e-06 -3.39979e-06 0.000365342
0.00100811 0.000121626 1.0787e-06
0.000121626 0.000369218 -9.21793e-06
1.0787e-06 -9.21793e-06 0.000205364
0.000791573 0.000134618 1.37576e-07
0.000134618 0.000365036 1.07435e-06
1.37576e-07 1.07435e-06 7.45536e-05
1.06303e-05 0.000111861 -3.4432e-06
0.000111861 -7.42454e-05 6.5539e-06
-3.4432e-06 6.5539e-06 -0.00037316
0.000510014 1.73065e-06 -1.39046e-06
1.73065e-06 3.41189e-05 -1.34559e-05
-1.39046e-06 -1.34559e-05 -1.4714e-05
0.000568392 5.8731e-05 -4.11319e-07
5.8731e-05 9.0238e-05 4.64813e-08
-4.11319e-07 4.64813e-08 -4.11529e-05
2.21632e-05 8.67533e-05 -5.1388e-06
8.67533e-05 -0.000211822 8.20665e-06
-5.1388e-06 8.20665e-06 -0.000404461
0.00281755 -8.60019e-05 -4.70293e-05
-8.60019e-05 0.00150663 -5.90647e-06
-4.70293e-05 -5.90647e-06 0.00151272
0.000393749 -2.64047e-05 2.51386e-06
-2.64047e-05 -4.76237e-05 -3.40049e-07
2.51386e-06 -3.40049e-07 -8.61539e-05
0.000466758 5.33066e-05 -4.62506e-06
5.33066e-05 3.05069e-05 5.87378e-06
-4.62506e-06 5.87378e-06 -8.1566e-05
0.00263776 -6.99745e-05 -7.72359e-06
-6.99745e-05 0.00138513 5.94773e-07
-7.72359e-06 5.94773e-07 0.00139358
0.00041786 8.68017e-06 -2.39837e-06
8.68017e-06 -4.3252e-05 7.64046e-06
-2.39837e-06 7.64046e-06 -7.26409e-05
0.00239116 -5.01897e-05 2.43917e-05
-5.01897e-05 0.0012217 5.33325e-06
2.43917e-05 5.33325e-06 0.00123394
-0.00830398 0.0010224 -0.000238297
0.0010224 0.00497788 7.61795e-05
-0.000238297 7.61795e-05 -0.0027997
0.00648567 0.00088522 3.30728e-05
0.00088522 0.00417127 3.0997e-08
3.30728e-05 3.0997e-08 0.00127207
-0.00170994 0.000409045 0.000114208
0.000409045 0.00108379 6.0052e-05
0.000114208 6.0052e-05 -0.00089751
0.000237768 0.000210617 -3.24019e-06
0.000210617 -0.00017047 7.38518e-06
-3.24019e-06 7.38518e-06 -0.000439165
0.00352217 0.000852978 1.97282e-05
0.000852978 0.00186763 1.99296e-05
1.97282e-05 1.99296e-05 0.00140081
-0.00010659 0.00019202 -1.00201e-05
0.00019202 -0.000173363 7.72953e-06
-1.00201e-05 7.72953e-06 -0.000586715
0.000365657 8.98389e-05 -8.13961e-06
8.98389e-05 6.04455e-05 -1.78932e-05
-8.13961e-06 -1.78932e-05 -0.000156745
0.00308699 0.000391581 -2.24896e-08
0.000391581 0.00158518 -4.14272e-06
-2.24896e-08 -4.14272e-06 0.0013655
-0.00161655 8.46704e-07 -1.39048e-05
8.46704e-07 -0.00118405 1.58397e-05
-1.39048e-05 1.58397e-05 -0.00133334
-0.00018952 0.000219606 -3.36986e-07
0.000219606 -0.00010278 7.56059e-06
-3.36986e-07 7.56059e-06 -0.000431316
2.29225e-05 0.000135498 -5.03906e-06
0.000135498 -0.000183437 -5.52408e-06
-5.03906e-06 -5.52408e-06 -0.000523709
0.00108486 0.000713591 1.74722e-06
0.000713591 0.000520252 -1.96712e-05
1.74722e-06 -1.96712e-05 -2.40905e-05
-0.000971951 0.000563401 -2.57677e-05
0.000563401 -0.000905743 6.67307e-05
-2.57677e-05 6.67307e-05 -0.0010794
0.0011632 5.81203e-05 -1.63252e-05
5.81203e-05 0.000648484 1.709e-05
-1.63252e-05 1.709e-05 0.000404576
0.0019107 0.00043616 1.00566e-05
0.00043616 0.00125591 -8.26786e-06
1.00566e-05 -8.26786e-06 0.000796989
0.00398055 -0.00355802 -0.0023483
-0.00355802 0.00299123 -0.000268193
-0.0023483 -0.000268193 -0.00249825
0.000391921 -0.00415145 0.000775615
-0.00415145 0.00882541 0.000185511
0.000775615 0.000185511 0.00131787
0.00866896 0.00276934 -0.00084336
0.00276934 0.0035348 -0.000279768
-0.00084336 -0.000279768 -0.00273049
0.0139308 -0.0139882 0.00302204
-0.0139882 0.0108885 0.00173041
0.00302204 0.00173041 0.0035189
0.030448 -0.00456686 -1.91441e-05
-0.00456686 0.0113926 0.000473698
-1.91441e-05 0.000473698 0.00560523
-0.00309874 0.00149557 -6.96688e-05
0.00149557 0.0032524 -0.000208634
-6.96688e-05 -0.000208634 -0.00309162
-0.00249145 0.000267191 -0.000248587
0.000267191 0.00170393 -4.83571e-05
-0.000248587 -4.83571e-05 -0.000279913
0.000174641 0.000942228 7.32837e-05
0.000942228 0.00176772 5.84376e-05
7.32837e-05 5.84376e-05 0.00114306
0.0231886 -0.00646339 -0.00084558
-0.00646339 0.0101266 4.01643e-05
-0.00084558 4.01643e-05 0.00349772
-0.0017614 0.00447354 -0.000202201
0.00447354 0.00071596 -4.79912e-05
-0.000202201 -4.79912e-05 -0.00415361
0.00349988 0.00303121 5.1366e-05
0.00303121 0.00121903 -8.33132e-05
5.1366e-05 -8.33132e-05 0.00199376
0.0061631 0.00740988 -0.000673582
0.00740988 -0.0016796 -0.000109368
-0.000673582 -0.000109368 -0.00385356
0.00375885 0.00150685 3.04253e-05
0.00150685 0.00150612 -6.44334e-06
3.04253e-05 -6.44334e-06 0.0010513
0.00100267 0.000707806 -5.77263e-06
0.000707806 0.000221269 -3.58475e-06
-5.77263e-06 -3.58475e-06 4.33088e-05
-0.000718776 0.000174482 -2.19678e-05
0.000174482 -0.000368396 4.96987e-06
-2.19678e-05 4.96987e-06 -0.00075704
-0.00112818 0.000638195 -0.00011978
0.000638195 0.000634808 -7.48019e-05
-0.00011978 -7.48019e-05 -0.000641817
0.00124195 0.000842032 -5.59354e-05
0.000842032 0.000589594 -3.83293e-05
-5.59354e-05 -3.83293e-05 0.00012473
0.00252021 0.00204406 5.70238e-06
0.00204406 0.000866298 -1.14689e-05
5.70238e-06 -1.14689e-05 -0.00025236
-0.00142507 0.00200347 0.000109066
0.00200347 -0.00206431 5.88561e-05
0.000109066 5.88561e-05 -0.00255111
-0.00697714 -0.000684769 -0.000838973
-0.000684769 -0.00332831 6.50865e-05
-0.000838973 6.50865e-05 -0.00490174
-0.0101248 0.000515174 0.000580589
0.000515174 0.00658255 1.74079e-05
0.000580589 1.74079e-05 -0.000758083
0.002741 2.91586e-05 -0.000178065
2.91586e-05 0.00220639 3.54325e-05
-0.000178065 3.54325e-05 7.78973e-05
0.000777723 -0.00124021 -5.52165e-05
-0.00124021 0.000999438 -5.19548e-05
-5.52165e-05 -5.19548e-05 -8.01279e-05
-0.00123032 -0.00252313 0.000159617
-0.00252313 -0.000394439 1.81343e-05
0.000159617 1.81343e-05 -0.000178288
0.00131821 0.00132109 0.000209256
0.00132109 0.00917416 7.701e-05
0.000209256 7.701e-05 0.00313575
0.00490981 -0.00537106 0.000717819
-0.00537106 -0.00177644 -7.34555e-05
0.000717819 -7.34555e-05 -0.00303015
0.0255391 0.00510479 0.00134638
0.00510479 0.0116519 -7.87642e-05
0.00134638 -7.87642e-05 0.00668848
0.00184033 -0.00240313 -2.14966e-05
-0.00240313 0.000469821 3.81293e-06
-2.14966e-05 3.81293e-06 -0.000381327
0.00419913 0.00240036 0.000391841
0.00240036 0.0020435 -0.000115163
0.000391841 -0.000115163 -0.00163301
0.00757209 -0.00335282 -0.000211245
-0.00335282 -0.00394547 0.000186959
-0.000211245 0.000186959 -0.00546518
0.00262111 -0.00327477 -5.0897e-06
-0.00327477 -0.00119441 2.74796e-05
-5.0897e-06 2.74796e-05 0.000492175
0.00277205 -0.00194905 7.46049e-05
-0.00194905 0.000208649 -1.61629e-05
7.46049e-05 -1.61629e-05 -2.06927e-05
0.0194431 -0.00115278 -0.000116463
-0.00115278 0.00314725 7.99496e-05
-0.000116463 7.99496e-05 0.00243755
0.00276194 -0.00242806 0.000135288
-0.00242806 -0.00384953 -9.48662e-05
0.000135288 -9.48662e-05 -0.00149456
-0.000644218 -0.000942036 -3.63597e-05
-0.000942036 -0.000806936 4.78496e-05
-3.63597e-05 4.78496e-05 -0.00101264
0.000329973 -0.000815213 -3.62845e-05
-0.000815213 -0.000571539 4.33713e-06
-3.62845e-05 4.33713e-06 -0.000780838
0.00622643 -0.00140166 6.41957e-05
-0.00140166 0.00227697 -2.41724e-05
6.41957e-05 -2.41724e-05 0.00198759
0.000197875 -0.00088054 -1.34511e-05
-0.00088054 -0.000565626 1.05986e-05
-1.34511e-05 1.05986e-05 -0.00104862
0.00231273 -0.0011539 -1.7668e-06
-0.0011539 0.000316245 -1.83459e-06
-1.7668e-06 -1.83459e-06 -0.000137308
0.00301924 -0.00100635 3.00011e-06
-0.00100635 0.000381265 -3.65284e-06
3.00011e-06 -3.65284e-06 0.000164194
0.00228826 -0.00117654 1.04154e-05
-0.00117654 0.000416303 1.04876e-05
1.04154e-05 1.04876e-05 -0.000166888
0.00245398 -0.000938057 -2.45887e-06
-0.000938057 0.000263593 9.15876e-07
-2.45887e-06 9.15876e-07 -8.0771e-05
0.00232779 -0.000668021 2.35096e-07
-0.000668021 1.38329e-05 -9.15062e-07
2.35096e-07 -9.15062e-07 -8.58774e-05
0.00190582 -0.000833506 9.9296e-06
-0.000833506 0.000142289 6.46133e-06
9.9296e-06 6.46133e-06 -0.000271509
0.00218537 -0.000627139 -1.99065e-07
-0.000627139 8.68964e-05 2.55773e-06
-1.99065e-07 2.55773e-06 -0.000130413
0.00229378 -0.000624723 -1.41016e-06
-0.000624723 0.000103129 2.35618e-06
-1.41016e-06 2.35618e-06 -2.78642e-05
0.00221387 -0.000595838 -2.95799e-06
-0.000595838 0.000154809 1.57887e-06
-2.95799e-06 1.57887e-06 -8.04209e-06
0.0021607 -0.000561698 -3.1693e-06
-0.000561698 0.000149439 2.75213e-06
-3.1693e-06 2.75213e-06 -3.71899e-05
0.00221154 -0.000559274 -1.29483e-06
-0.000559274 0.000255147 -2.35185e-06
-1.29483e-06 -2.35185e-06 4.8274e-05
0.00220229 -0.000643135 -6.35688e-06
-0.000643135 0.000248328 -2.94065e-06
-6.35688e-06 -2.94065e-06 -3.71577e-05
0.00210297 -0.000621888 1.19008e-06
-0.000621888 0.000159335 1.28442e-06
1.19008e-06 1.28442e-06 -0.000112861
0.00202213 -0.000592026 2.29318e-06
-0.000592026 5.6897e-05 7.74275e-06
2.29318e-06 7.74275e-06 -0.00019493
0.00210939 -0.000759142 -6.03922e-06
-0.000759142 0.000362965 -4.28312e-06
-6.03922e-06 -4.28312e-06 -4.04749e-05
0.00183512 -0.000763376 -7.3971e-07
-0.000763376 0.000116204 1.98655e-07
-7.3971e-07 1.98655e-07 -0.000280985
0.00238245 -0.000892544 6.54727e-06
-0.000892544 0.000435209 2.99868e-06
6.54727e-06 2.99868e-06 8.47646e-07
0.00160345 -0.000660004 -9.41661e-06
-0.000660004 0.000317499 1.67981e-06
-9.41661e-06 1.67981e-06 -0.000113626
0.00211359 -0.000861223 -2.86068e-07
-0.000861223 0.000543337 8.63167e-07
-2.86068e-07 8.63167e-07 4.92563e-05
0.00225517 -0.000959972 5.08871e-06
-0.000959972 0.000577973 1.74636e-06
5.08871e-06 1.74636e-06 5.6281e-05
0.000961939 -0.000284773 -8.90109e-06
-0.000284773 0.000201075 8.40441e-06
-8.90109e-06 8.40441e-06 -4.93167e-05
0.00130187 -0.000517072 1.6945e-06
-0.000517072 0.000293879 7.58813e-07
1.6945e-06 7.58813e-07 -8.39773e-05
0.00162778 -0.000732518 -3.43365e-06
-0.000732518 0.000453154 3.76039e-06
-3.43365e-06 3.76039e-06 -2.04877e-05
0.000455186 -0.000173701 -2.91383e-05
-0.000173701 -8.0131e-05 1.6075e-05
-2.91383e-05 1.6075e-05 -0.000190409
0.000616014 -0.000231095 -2.48817e-06
-0.000231095 4.56776e-05 -7.32841e-07
-2.48817e-06 -7.32841e-07 -0.000202123
8.4591e-05 -0.00031162 2.26262e-06
-0.00031162 -0.000376347 -2.07105e-06
2.26262e-06 -2.07105e-06 -0.000677843
0.00491961 0.000225958 -0.000105647
0.000225958 0.00291604 1.11457e-05
-0.000105647 1.11457e-05 0.0028816
0.000552336 -0.000126316 2.58066e-06
-0.000126316 6.52062e-06 1.76176e-07
2.58066e-06 1.76176e-07 -9.07386e-05
0.00119865 -0.000267348 6.28387e-06
-0.000267348 0.000465217 -1.5154e-06
6.28387e-06 -1.5154e-06 0.000206312
0.00281314 0.000143529 6.65127e-05
0.000143529 0.00154337 1.60012e-06
6.65127e-05 1.60012e-06 0.00151033
0.000757402 -7.30703e-05 1.43017e-05
-7.30703e-05 0.000161538 -1.5481e-05
1.43017e-05 -1.5481e-05 7.74269e-05
0.00391309 0.000132679 9.61298e-05
0.000132679 0.00222638 -7.84014e-06
9.61298e-05 -7.84014e-06 0.00222063
0.00206474 0.000439857 2.5274e-07
0.000439857 0.000875393 2.40202e-07
2.5274e-07 2.40202e-07 0.00059015
0.000561077 0.000209701 -4.42873e-06
0.000209701 3.8764e-06 3.14231e-07
-4.42873e-06 3.14231e-07 -0.000217594
0.00027571 0.000207853 -1.11844e-07
0.000207853 -6.11122e-05 -3.33523e-06
-1.11844e-07 -3.33523e-06 -0.00033341
0.000578951 0.000200397 -8.53257e-07
0.000200397 0.000157605 3.00202e-06
-8.53257e-07 3.00202e-06 -0.000107288
0.000918579 0.000124525 -2.33575e-07
0.000124525 0.000413309 1.16904e-07
-2.33575e-07 1.16904e-07 0.000117834
0.00116092 0.000156432 -1.70816e-06
0.000156432 0.000472202 -1.01673e-05
-1.70816e-06 -1.01673e-05 0.000273631
0.000614111 6.05669e-05 -8.89146e-06
6.05669e-05 9.58711e-05 -1.60333e-05
-8.89146e-06 -1.60333e-05 3.53352e-05
0.000655639 0.000109429 -1.16863e-07
0.000109429 0.000150453 1.52177e-07
-1.16863e-07 1.52177e-07 -1.0155e-05
-0.000847986 9.69341e-06 -7.22118e-06
9.69341e-06 -0.000717665 7.57908e-06
-7.22118e-06 7.57908e-06 -0.000969096
0.00320194 -0.000100229 -7.08481e-05
-0.000100229 0.00176304 -7.0125e-06
-7.08481e-05 -7.0125e-06 0.00176633
0.000356655 2.79594e-05 1.44965e-06
2.79594e-05 -6.30564e-05 -3.08982e-07
1.44965e-06 -3.08982e-07 -0.000111438
0.000652717 7.83756e-05 -3.89706e-06
7.83756e-05 0.000149103 9.74598e-06
-3.89706e-06 9.74598e-06 1.56437e-05
0.00288148 -9.09611e-05 -8.50111e-06
-9.09611e-05 0.00154924 7.71823e-07
-8.50111e-06 7.71823e-07 0.0015536
0.000310749 -1.1781e-05 -1.42527e-06
-1.1781e-05 -9.76531e-05 9.61671e-06
-1.42527e-06 9.61671e-06 -0.000136369
0.00262219 -7.05113e-05 3.03875e-05
-7.05113e-05 0.00137489 5.69824e-06
3.03875e-05 5.69824e-06 0.00138303
0.00234881 -0.000289333 -0.00131343
-0.000289333 0.00445967 -7.56703e-05
-0.00131343 -7.56703e-05 0.00199188
-0.00528434 -0.000106153 9.92767e-06
-0.000106153 0.00628712 -2.52278e-05
9.92767e-06 -2.52278e-05 -0.00184791
0.00642726 0.000457174 -0.000408462
0.000457174 0.00394949 -0.000110487
-0.000408462 -0.000110487 0.00122284
9.09926e-05 0.000116731 6.41583e-06
0.000116731 -0.000269705 -8.8205e-07
6.41583e-06 -8.8205e-07 -0.000532521
0.000129678 0.000142349 6.99912e-06
0.000142349 -0.000139965 3.77179e-06
6.99912e-06 3.77179e-06 -0.000515354
0.0029543 0.000753953 -3.32427e-06
0.000753953 0.00153641 2.69849e-06
-3.32427e-06 2.69849e-06 0.00108341
0.00236692 0.000896517 1.87918e-05
0.000896517 0.00101603 1.26199e-05
1.87918e-05 1.26199e-05 0.000448122
0.000994002 0.000627161 9.85377e-06
0.000627161 0.000518323 1.45156e-05
9.85377e-06 1.45156e-05 1.58886e-05
0.0023677 0.000323733 -6.37778e-06
0.000323733 0.001425 6.34301e-06
-6.37778e-06 6.34301e-06 0.0011204
0.00236719 0.000334006 1.24064e-05
0.000334006 0.00131939 8.50295e-06
1.24064e-05 8.50295e-06 0.000985016
0.00116178 0.000654717 -4.69524e-06
0.000654717 0.000602307 1.30078e-06
-4.69524e-06 1.30078e-06 7.74334e-05
0.000380816 0.000853811 1.52755e-05
0.000853811 -0.00030291 -4.07884e-06
1.52755e-05 -4.07884e-06 -0.000734397
0.00293928 0.00109739 -6.44419e-06
0.00109739 0.00118339 3.3505e-05
-6.44419e-06 3.3505e-05 0.000864226
0.00159524 0.00112767 3.37522e-05
0.00112767 0.000109433 1.20603e-05
3.37522e-05 1.20603e-05 -9.17991e-05
0.00148183 0.000818279 1.97815e-06
0.000818279 0.00055071 -6.36879e-07
1.97815e-06 -6.36879e-07 0.000246226
0.00195958 0.000572764 -2.20328e-06
0.000572764 0.00119052 2.61363e-05
-2.20328e-06 2.61363e-05 0.000690717
0.0151916 0.00380225 -0.000151649
0.00380225 0.00139096 5.41525e-05
-0.000151649 5.41525e-05 0.00061867
0.00607989 -0.00308378 -0.000768136
-0.00308378 0.00492133 -0.000247903
-0.000768136 -0.000247903 0.000853358
0.00223013 -0.00564168 0.00123872
-0.00564168 0.009791 0.00025962
0.00123872 0.00025962 0.00219832
0.0150737 -0.00347603 0.000505468
-0.00347603 0.00598338 0.000282285
0.000505468 0.000282285 9.91766e-05
0.0128338 0.00673584 -0.000137489
0.00673584 0.00447498 -5.96243e-05
-0.000137489 -5.96243e-05 0.000245928
-0.00243687 0.000578862 -4.4278e-06
0.000578862 0.000876566 -1.3292e-05
-4.4278e-06 -1.3292e-05 0.000107529
0.00199996 0.00257547 -9.1809e-05
0.00257547 0.000538123 -3.78403e-05
-9.1809e-05 -3.78403e-05 0.00154935
0.0150273 0.00679668 1.72412e-05
0.00679668 0.001805 4.20008e-05
1.72412e-05 4.20008e-05 -0.000799134
0.00714135 0.00485963 -0.000154431
0.00485963 -0.000578766 -0.00013639
-0.000154431 -0.00013639 0.000404421
0.00167967 0.0014932 6.84492e-06
0.0014932 0.000134226 1.1681e-06
6.84492e-06 1.1681e-06 -0.000228073
0.00156263 0.00114778 1.32938e-05
0.00114778 0.000438433 -3.64969e-06
1.32938e-05 -3.64969e-06 7.69531e-05
0.00181819 0.000722474 -3.64839e-05
0.000722474 0.000819396 -7.0403e-06
-3.64839e-05 -7.0403e-06 0.000640664
0.0021282 0.00208202 -8.12869e-05
0.00208202 0.000490555 -3.16203e-05
-8.12869e-05 -3.16203e-05 -0.00058705
0.00172837 0.00240229 0.000104258
0.00240229 -0.000667883 5.51842e-05
0.000104258 5.51842e-05 -0.00132266
0.00422917 -0.000308055 -0.000147898
-0.000308055 -0.00564922 4.38606e-05
-0.000147898 4.38606e-05 -0.00600858
0.00018313 -0.00229441 1.56764e-05
-0.00229441 0.00320569 4.3637e-05
1.56764e-05 4.3637e-05 0.00125432
-0.0138028 -0.00042491 0.000483954
-0.00042491 0.00746009 -1.69307e-05
0.000483954 -1.69307e-05 0.00137808
0.0020829 -0.00291464 -9.73339e-05
-0.00291464 0.000209866 4.80289e-05
-9.73339e-05 4.80289e-05 -0.000919938
0.00653996 -0.00442866 2.52806e-05
-0.00442866 -4.49345e-05 5.88717e-05
2.52806e-05 5.88717e-05 0.00107476
0.0043109 0.000512724 0.00137676
0.000512724 0.00483858 -0.000325961
0.00137676 -0.000325961 0.00241361
0.0155551 -0.00351142 -0.00039339
-0.00351142 0.00104786 0.000222127
-0.00039339 0.000222127 0.000911353
0.00185705 -0.00190697 -3.03431e-05
-0.00190697 -0.000231007 5.91315e-06
-3.03431e-05 5.91315e-06 -0.000578851
0.0122972 -0.000296907 -0.000264893
-0.000296907 -0.00215688 9.27219e-05
-0.000264893 9.27219e-05 -0.00255865
0.00727974 -0.00280409 9.93352e-05
-0.00280409 -0.00106273 1.0992e-05
9.93352e-05 1.0992e-05 0.000488084
0.00374652 -0.0016155 6.33063e-05
-0.0016155 2.94428e-05 -4.08587e-05
6.33063e-05 -4.08587e-05 1.9306e-05
0.00262334 -0.0010937 2.67355e-05
-0.0010937 -0.00298068 -1.1811e-06
2.67355e-05 -1.1811e-06 -0.000899444
-0.00219887 -0.000573441 -6.32201e-06
-0.000573441 -0.00196859 2.21472e-05
-6.32201e-06 2.21472e-05 -0.00203523
0.00141758 -0.000931698 -2.25642e-05
-0.000931698 -0.00041334 4.54568e-06
-2.25642e-05 4.54568e-06 -0.000418731
0.00395426 -0.000955192 4.31896e-05
-0.000955192 0.000755851 -1.3587e-05
4.31896e-05 -1.3587e-05 0.0008164
0.00173132 -0.00108236 -1.39814e-05
-0.00108236 1.52057e-05 7.94089e-06
-1.39814e-05 7.94089e-06 -0.000417324
0.00248813 -0.00096039 -4.56578e-06
-0.00096039 8.82061e-05 2.74352e-06
-4.56578e-06 2.74352e-06 -0.000125083
0.00264664 -0.000763113 6.5074e-06
-0.000763113 -4.98635e-06 -5.00218e-07
6.5074e-06 -5.00218e-07 -6.18676e-06
0.00224231 -0.000895933 -2.45331e-06
-0.000895933 0.000159309 9.2299e-06
-2.45331e-06 9.2299e-06 -0.0001683
0.00226976 -0.000663359 1.66659e-07
-0.000663359 -2.31292e-05 1.2861e-06
1.66659e-07 1.2861e-06 -0.000121017
0.00244465 -0.000666028 2.86324e-07
-0.000666028 4.78476e-05 4.27544e-07
2.86324e-07 4.27544e-07 1.79729e-05
0.00202541 -0.000603239 3.68939e-06
-0.000603239 -7.76097e-06 5.28151e-06
3.68939e-06 5.28151e-06 -0.000211639
0.00224033 -0.000618346 -4.45594e-08
-0.000618346 7.29659e-05 1.00587e-06
-4.45594e-08 1.00587e-06 -5.61994e-05
0.00238706 -0.000652903 -1.26883e-06
-0.000652903 0.000114472 1.74273e-06
-1.26883e-06 1.74273e-06 1.07069e-05
0.00221874 -0.000603441 -4.76587e-06
-0.000603441 0.000148548 1.3718e-06
-4.76587e-06 1.3718e-06 -8.72396e-06
0.00224864 -0.000581759 -6.33355e-07
-0.000581759 0.000223367 1.25484e-07
-6.33355e-07 1.25484e-07 4.99178e-05
0.00224205 -0.00056947 3.94123e-07
-0.00056947 0.000192011 3.43415e-06
3.94123e-07 3.43415e-06 1.11079e-05
0.00221722 -0.00055837 7.88869e-07
-0.00055837 0.000257359 -4.46406e-07
7.88869e-07 -4.46406e-07 5.09731e-05
0.00214175 -0.000575159 -2.87138e-06
-0.000575159 0.000220429 -1.54831e-06
-2.87138e-06 -1.54831e-06 -6.56341e-06
0.0022414 -0.000633433 -3.19057e-06
-0.000633433 0.000346754 -5.08754e-06
-3.19057e-06 -5.08754e-06 4.42745e-05
0.00226879 -0.000652502 -6.09526e-07
-0.000652502 0.000293637 8.99781e-08
-6.09526e-07 8.99781e-08 4.84603e-06
0.00233153 -0.000637795 7.12009e-06
-0.000637795 0.000312387 4.75652e-06
7.12009e-06 4.75652e-06 4.01519e-05
0.00184402 -0.000668194 -9.38912e-06
-0.000668194 0.000297865 2.2617e-07
-9.38912e-06 2.2617e-07 -0.000105449
0.00204857 -0.00075453 -1.81407e-06
-0.00075453 0.000321121 -6.60373e-07
-1.81407e-06 -6.60373e-07 -8.49986e-05
0.00183649 -0.000773956 4.4517e-06
-0.000773956 9.90925e-05 3.4521e-06
4.4517e-06 3.4521e-06 -0.00030326
0.000971344 -0.000332796 -1.38806e-05
-0.000332796 9.81334e-05 8.48843e-06
-1.38806e-05 8.48843e-06 -0.000178841
0.00165029 -0.000659665 5.503e-07
-0.000659665 0.000358419 8.40312e-07
5.503e-07 8.40312e-07 -7.06485e-05
0.00221655 -0.000872632 9.15482e-07
-0.000872632 0.000606168 3.98851e-06
9.15482e-07 3.98851e-06 0.000109973
6.84347e-05 -0.000205336 -1.85804e-05
-0.000205336 -0.000321499 2.17645e-05
-1.85804e-05 2.17645e-05 -0.000465869
0.000644284 -0.000274879 7.9367e-07
-0.000274879 2.93612e-06 5.26794e-07
7.9367e-07 5.26794e-07 -0.000252805
0.000931033 -0.000480186 7.83121e-06
-0.000480186 5.52313e-05 -1.48999e-06
7.83121e-06 -1.48999e-06 -0.000313944
0.00595661 0.000132474 -0.000189887
0.000132474 0.00354193 1.28118e-05
-0.000189887 1.28118e-05 0.00353331
0.000485217 -0.000196995 -7.56929e-06
-0.000196995 -5.75603e-05 -1.2347e-06
-7.56929e-06 -1.2347e-06 -0.000174049
0.000549517 -0.000259713 4.76222e-06
-0.000259713 2.84222e-05 -5.00002e-06
4.76222e-06 -5.00002e-06 -0.000236425
0.00533431 0.000170227 1.55372e-05
0.000170227 0.0031651 -1.03181e-06
1.55372e-05 -1.03181e-06 0.00314678
0.000572612 -0.00015541 2.88171e-05
-0.00015541 1.68708e-05 -1.49538e-05
2.88171e-05 -1.49538e-05 -8.554e-05
0.00471238 0.000141379 0.000145194
0.000141379 0.00275303 -1.15159e-05
0.000145194 -1.15159e-05 0.00274434
0.00269232 0.000815661 3.58249e-06
0.000815661 0.00121877 5.29134e-06
3.58249e-06 5.29134e-06 0.000713194
0.000802629 0.000356579 -2.8481e-06
0.000356579 9.79348e-05 -1.36232e-06
-2.8481e-06 -1.36232e-06 -0.000187133
0.000722043 0.000222564 6.34479e-06
0.000222564 8.20964e-05 1.66315e-07
6.34479e-06 1.66315e-07 -0.000147974
-0.000757107 8.59842e-05 -8.05216e-07
8.59842e-05 -0.000824748 -4.85637e-06
-8.05216e-07 -4.85637e-06 -0.0010425
0.00028259 0.000203289 2.6757e-06
0.000203289 -0.000103198 1.05698e-06
2.6757e-06 1.05698e-06 -0.00034268
0.00093661 0.000209611 -4.4166e-06
0.000209611 0.000301402 -9.88438e-06
-4.4166e-06 -9.88438e-06 8.0818e-05
1.95606e-05 7.73343e-05 -2.84501e-06
7.73343e-05 -0.000162669 1.8222e-06
-2.84501e-06 1.8222e-06 -0.000452639
0.000726195 0.000121713 4.54689e-07
0.000121713 0.00021419 7.65458e-07
4.54689e-07 7.65458e-07 7.98272e-06
0.000724485 8.31435e-05 -1.42074e-05
8.31435e-05 0.000160194 -1.84607e-05
-1.42074e-05 -1.84607e-05 8.10511e-05
0.00355309 -0.000108738 -9.71012e-05
-0.000108738 0.00199882 -1.00644e-05
-9.71012e-05 -1.00644e-05 0.00199939
0.00042722 3.34323e-05 1.98875e-06
3.34323e-05 -1.42725e-05 -5.38707e-07
1.98875e-06 -5.38707e-07 -7.52794e-05
0.000279199 7.17299e-05 -2.78571e-06
7.17299e-05 -7.88354e-05 1.05369e-05
-2.78571e-06 1.05369e-05 -0.000237242
0.00305921 -0.000111708 -1.03771e-05
-0.000111708 0.00167267 1.01897e-06
-1.03771e-05 1.01897e-06 0.00167227
0.000268978 -6.17949e-05 -9.61429e-06
-6.17949e-05 -0.000108212 1.31246e-05
-9.61429e-06 1.31246e-05 -0.000161829
0.00278154 -9.01146e-05 3.822e-05
-9.01146e-05 0.00148541 5.85881e-06
3.822e-05 5.85881e-06 0.00148943
0.0159677 0.000800148 0.000624622
0.000800148 0.00135172 0.000146629
0.000624622 0.000146629 0.00151962
0.000481377 -0.00411753 -0.000780064
-0.00411753 -0.00162645 -9.46656e-05
-0.000780064 -9.46656e-05 -0.00535386
-0.00905938 0.00173537 -0.000270485
0.00173537 0.00591916 -0.000128471
-0.000270485 -0.000128471 -0.0021324
5.01986e-05 7.87323e-05 1.12383e-05
7.87323e-05 -0.000195879 -2.22497e-05
1.12383e-05 -2.22497e-05 -0.000592335
0.00126523 0.000543436 -7.82773e-06
0.000543436 0.000501478 -5.35554e-06
-7.82773e-06 -5.35554e-06 8.16969e-05
0.00269127 0.000797336 -1.16918e-05
0.000797336 0.00146992 -4.57441e-06
-1.16918e-05 -4.57441e-06 0.000928419
0.00131299 0.000755418 1.07634e-06
0.000755418 0.000377692 -6.17014e-07
1.07634e-06 -6.17014e-07 -0.000154616
0.00171753 0.000847499 1.46781e-05
0.000847499 0.000370081 2.25919e-05
1.46781e-05 2.25919e-05 -0.000129423
-0.000428309 0.000653668 3.40636e-05
0.000653668 -0.00071894 1.2762e-05
3.40636e-05 1.2762e-05 -0.00115771
0.00101504 0.00055526 -1.22559e-05
0.00055526 0.00056625 4.6208e-06
-1.22559e-05 4.6208e-06 5.121e-05
0.000146003 0.000798342 7.21654e-06
0.000798342 -0.000441305 5.1264e-07
7.21654e-06 5.1264e-07 -0.000851315
0.00227901 0.00101386 1.78729e-05
0.00101386 0.000859473 4.74885e-06
1.78729e-05 4.74885e-06 0.000495024
0.000462061 0.000814536 8.00247e-06
0.000814536 -0.000389128 -2.49076e-06
8.00247e-06 -2.49076e-06 -0.000736
0.00384488 0.00127725 8.05644e-06
0.00127725 0.00135028 1.05249e-05
8.05644e-06 1.05249e-05 0.00108685
0.00229155 0.00120647 2.23747e-05
0.00120647 0.000510439 7.10973e-06
2.23747e-05 7.10973e-06 0.000104383
0.000893467 0.00103219 8.57391e-06
0.00103219 -0.000295057 -1.53351e-06
8.57391e-06 -1.53351e-06 -0.00042506
0.00140848 0.000740637 -1.52208e-05
0.000740637 0.000509708 -7.48996e-05
-1.52208e-05 -7.48996e-05 0.00022476
0.00413168 0.00235234 2.83329e-05
0.00235234 -0.00302545 4.37582e-05
2.83329e-05 4.37582e-05 -0.000578035
0.0136465 0.00456003 0.00035503
0.00456003 -0.000484666 0.000204902
0.00035503 0.000204902 -0.00167826
0.0144045 -0.00614453 0.000840454
-0.00614453 0.0071005 -8.52545e-05
0.000840454 -8.52545e-05 0.00199054
0.00586487 0.00720848 0.000790474
0.00720848 -0.0014917 0.000406522
0.000790474 0.000406522 -0.00538395
-0.000619162 0.00172267 -4.58053e-05
0.00172267 2.09235e-07 2.10832e-05
-4.58053e-05 2.10832e-05 0.000684104
0.00357812 0.00305665 -9.3275e-05
0.00305665 -0.00113818 -5.69774e-05
-9.3275e-05 -5.69774e-05 0.000355536
0.00675189 0.0027701 5.50379e-05
0.0027701 0.00108916 3.3629e-05
5.50379e-05 3.3629e-05 0.000883963
0.00537251 0.00209288 2.4119e-05
0.00209288 0.00179722 1.04557e-05
2.4119e-05 1.04557e-05 0.00128967
0.000708574 0.00099722 -3.45831e-05
0.00099722 -2.95583e-05 2.86882e-06
-3.45831e-05 2.86882e-06 -0.000319611
0.00849993 0.00333071 -0.000207601
0.00333071 0.00247995 -1.31501e-05
-0.000207601 -1.31501e-05 0.00153575
0.0040614 -0.000800758 -5.01581e-06
-0.000800758 -0.00137108 2.52922e-05
-5.01581e-06 2.52922e-05 0.000107998
0.0118912 -0.000625529 -6.16296e-05
-0.000625529 1.31016e-05 -3.55101e-05
-6.16296e-05 -3.55101e-05 0.000594688
-0.0131699 -0.00381896 0.00108888
-0.00381896 -0.0042045 -7.58404e-06
0.00108888 -7.58404e-06 -0.0067414
0.00142172 -0.00170496 -0.000142514
-0.00170496 -0.000334012 4.37751e-05
-0.000142514 4.37751e-05 -0.00060397
0.00826837 -0.00337258 -4.8075e-05
-0.00337258 -0.00132997 9.65917e-05
-4.8075e-05 9.65917e-05 0.000454366
0.00172192 -0.000388231 -0.000390812
-0.000388231 -0.00652206 3.52392e-05
-0.000390812 3.52392e-05 -0.00732742
0.00343466 -0.00143028 3.80689e-05
-0.00143028 -0.000132485 1.66967e-06
3.80689e-05 1.66967e-06 0.00015568
0.00529786 -0.00107162 -6.87158e-05
-0.00107162 -0.00125735 7.25777e-07
-6.87158e-05 7.25777e-07 0.000255728
0.00696236 -0.00117752 6.31708e-05
-0.00117752 0.00169513 -3.89436e-05
6.31708e-05 -3.89436e-05 0.00215041
0.00592328 -0.000681262 0.000125372
-0.000681262 0.00084171 -4.21735e-07
0.000125372 -4.21735e-07 0.00149979
-0.00248496 -0.000574263 1.08769e-05
-0.000574263 -0.00269173 1.11691e-05
1.08769e-05 1.11691e-05 -0.00239023
0.00223175 -0.000807029 -9.72678e-06
-0.000807029 -0.000257531 2.81725e-06
-9.72678e-06 2.81725e-06 -4.47005e-05
0.00253782 -0.000607315 2.66713e-05
-0.000607315 -0.000263212 -6.14152e-06
2.66713e-05 -6.14152e-06 5.88635e-05
0.002093 -0.000934191 -2.80398e-06
-0.000934191 -0.000137548 4.44876e-06
-2.80398e-06 4.44876e-06 -0.000353226
0.00257073 -0.000755427 1.08753e-06
-0.000755427 -4.17781e-05 1.66073e-06
1.08753e-06 1.66073e-06 -4.20031e-05
0.0026044 -0.000657952 1.25651e-06
-0.000657952 2.53462e-06 -2.39258e-07
1.25651e-06 -2.39258e-07 2.27652e-05
0.00224098 -0.000663898 1.8946e-06
-0.000663898 -4.39583e-05 4.60173e-06
1.8946e-06 4.60173e-06 -0.00014343
0.00241352 -0.000662 1.71569e-07
-0.000662 4.36894e-05 4.47409e-07
1.71569e-07 4.47409e-07 5.19301e-06
0.00239835 -0.000578145 -1.38209e-06
-0.000578145 2.86925e-05 -2.0311e-08
-1.38209e-06 -2.0311e-08 -1.52294e-05
0.00220157 -0.000614653 2.01664e-06
-0.000614653 4.96003e-05 2.56727e-07
2.01664e-06 2.56727e-07 -7.90544e-05
0.00239229 -0.000650302 1.71771e-08
-0.000650302 0.00014638 -2.54265e-08
1.71771e-08 -2.54265e-08 3.67803e-05
0.00227863 -0.000568771 1.00714e-06
-0.000568771 0.000128212 5.55862e-07
1.00714e-06 5.55862e-07 1.13568e-05
0.00221739 -0.000610577 -3.14243e-06
-0.000610577 0.000137049 -1.92729e-07
-3.14243e-06 -1.92729e-07 -1.49594e-05
0.00219547 -0.00057469 -1.61535e-06
-0.00057469 0.000187826 1.04394e-07
-1.61535e-06 1.04394e-07 1.70309e-05
0.00230105 -0.000563411 -2.2183e-06
-0.000563411 0.000293336 3.8124e-07
-2.2183e-06 3.8124e-07 9.74353e-05
0.00221827 -0.00055539 3.3444e-06
-0.00055539 0.000256138 1.57676e-06
3.3444e-06 1.57676e-06 5.08123e-05
0.00216267 -0.000575012 -3.27331e-07
-0.000575012 0.00023082 2.30253e-08
-3.27331e-07 2.30253e-08 4.32995e-06
0.00220012 -0.000574594 -8.25093e-07
-0.000574594 0.000288374 -2.32145e-06
-8.25093e-07 -2.32145e-06 3.6957e-05
0.0019265 -0.000571486 -6.83861e-06
-0.000571486 0.000254865 -1.9488e-06
-6.83861e-06 -1.9488e-06 -6.80083e-05
0.00214327 -0.000631509 -4.0667e-07
-0.000631509 0.000281948 -1.49806e-06
-4.0667e-07 -1.49806e-06 -2.72829e-05
0.00233457 -0.000662216 4.40198e-06
-0.000662216 0.000338935 3.38024e-06
4.40198e-06 3.38024e-06 4.66679e-05
0.00115819 -0.000394132 -2.05444e-05
-0.000394132 7.91341e-05 9.02036e-06
-2.05444e-05 9.02036e-06 -0.000213662
0.00191992 -0.000667572 -8.84505e-07
-0.000667572 0.000357752 6.90569e-07
-8.84505e-07 6.90569e-07 -4.27156e-05
0.00199682 -0.00075081 1.22541e-06
-0.00075081 0.000284985 3.01644e-06
1.22541e-06 3.01644e-06 -0.000123989
0.000159415 -0.000216482 -1.69887e-05
-0.000216482 -0.000300681 2.37495e-05
-1.69887e-05 2.37495e-05 -0.000457264
0.000810386 -0.000333098 2.62334e-06
-0.000333098 -1.03518e-05 9.91406e-08
2.62334e-06 9.91406e-08 -0.000292253
0.00172314 -0.000662524 1.03059e-05
-0.000662524 0.000414744 -2.56028e-07
1.03059e-05 -2.56028e-07 -1.30707e-05
0.006982 4.38623e-05 -0.000266497
4.38623e-05 0.00415991 1.92494e-05
-0.000266497 1.92494e-05 0.00416635
0.000353956 -0.000228897 -2.99215e-06
-0.000228897 -0.000146281 -4.96414e-07
-2.99215e-06 -4.96414e-07 -0.000293048
0.000471471 -0.000270438 9.03362e-06
-0.000270438 -0.000107669 -7.04075e-06
9.03362e-06 -7.04075e-06 -0.000368242
0.00631196 9.59566e-05 -1.21941e-05
9.59566e-05 0.00377123 -2.55409e-06
-1.21941e-05 -2.55409e-06 0.00376409
0.000456994 -0.000204892 2.3305e-05
-0.000204892 -7.09254e-05 -1.91102e-05
2.3305e-05 -1.91102e-05 -0.000192604
0.00571814 0.000130024 0.00020089
0.000130024 0.00341653 -2.35998e-05
0.00020089 -2.35998e-05 0.00340159
0.00200524 0.000796008 -7.95457e-06
0.000796008 0.000584068 8.41905e-06
-7.95457e-06 8.41905e-06 0.000101177
0.00187733 0.000711164 -1.33723e-06
0.000711164 0.000681826 -8.81014e-07
-1.33723e-06 -8.81014e-07 0.000209963
0.00115968 0.000462642 -3.78185e-06
0.000462642 0.000272038 7.50272e-07
-3.78185e-06 7.50272e-07 -8.43331e-05
0.00119154 0.00044142 -4.38589e-06
0.00044142 0.000385154 -3.71296e-06
-4.38589e-06 -3.71296e-06 6.16241e-05
0.000585359 0.000233185 1.14285e-09
0.000233185 1.23702e-05 -1.35944e-06
1.14285e-09 -1.35944e-06 -0.000231176
0.000681591 0.000242177 -4.30523e-06
0.000242177 0.000113563 -5.13077e-06
-4.30523e-06 -5.13077e-06 -0.000140704
0.00053063 0.000131421 1.09353e-06
0.000131421 4.79467e-05 6.51373e-07
1.09353e-06 6.51373e-07 -0.000178355
0.000743015 0.000172498 1.55161e-06
0.000172498 0.000216261 -1.03152e-06
1.55161e-06 -1.03152e-06 -3.00542e-05
0.00070194 0.000124356 -2.20835e-05
0.000124356 0.000119184 -1.99038e-05
-2.20835e-05 -1.99038e-05 2.05534e-05
-3.56981e-05 9.93296e-05 -1.0393e-06
9.93296e-05 -0.000244812 1.14009e-05
-1.0393e-06 1.14009e-05 -0.000462991
0.000489351 8.25859e-05 1.84241e-07
8.25859e-05 1.56236e-05 -2.52722e-07
1.84241e-07 -2.52722e-07 -6.17052e-05
0.00433732 -0.000136671 -0.000125132
-0.000136671 0.00251965 -1.41026e-05
-0.000125132 -1.41026e-05 0.00251072
0.00360352 -0.000137004 -1.3148e-05
-0.000137004 0.00203637 1.21578e-06
-1.3148e-05 1.21578e-06 0.00202955
0.000284517 6.48052e-05 8.78628e-06
6.48052e-05 -0.000103428 1.62551e-05
8.78628e-06 1.62551e-05 -0.000162765
0.00306913 -0.000115394 4.61133e-05
-0.000115394 0.0016798 6.2801e-06
4.61133e-05 6.2801e-06 0.00167814
0.00328283 0.000314646 0.00010397
0.000314646 -0.00187235 3.63758e-05
0.00010397 3.63758e-05 7.01834e-05
0.00592029 -0.000799701 0.000239069
-0.000799701 -0.00532956 0.000121737
0.000239069 0.000121737 -0.00602459
0.0150526 -0.00454316 -0.000294467
-0.00454316 0.00709703 -0.000126553
-0.000294467 -0.000126553 0.00380037
0.001704 0.000776002 7.51839e-06
0.000776002 0.00014157 1.1138e-05
7.51839e-06 1.1138e-05 -0.000263756
0.00504725 0.00103947 -1.46244e-05
0.00103947 0.00278383 -8.89591e-06
-1.46244e-05 -8.89591e-06 0.00221856
0.000259897 0.000612763 -9.66783e-06
0.000612763 -0.000259261 -1.1432e-05
-9.66783e-06 -1.1432e-05 -0.000754309
0.00167417 0.00092115 1.93059e-06
0.00092115 0.000544188 -2.32601e-06
1.93059e-06 -2.32601e-06 4.02454e-05
0.00193851 0.000873557 -1.31398e-06
0.000873557 0.000530193 4.10118e-06
-1.31398e-06 4.10118e-06 1.82683e-05
0.00191978 0.000957327 2.68136e-05
0.000957327 0.000446465 1.708e-05
2.68136e-05 1.708e-05 -5.53235e-06
0.00224719 0.00102953 -4.20896e-05
0.00102953 0.000822073 -5.67226e-06
-4.20896e-05 -5.67226e-06 0.000340373
0.000675947 0.000803354 9.53309e-06
0.000803354 -1.47519e-05 -3.71088e-05
9.53309e-06 -3.71088e-05 -0.000360383
0.00200636 0.0010762 -9.04627e-07
0.0010762 0.00046613 -1.12597e-06
-9.04627e-07 -1.12597e-06 6.4198e-05
0.00214429 0.00109023 1.3847e-05
0.00109023 0.000340642 -1.93001e-05
1.3847e-05 -1.93001e-05 0.000226848
0.00228544 0.00108842 2.14387e-05
0.00108842 0.000362699 -4.07188e-06
2.14387e-05 -4.07188e-06 -4.88225e-05
0.00204336 0.000914797 3.11331e-05
0.000914797 0.000274369 2.66785e-05
3.11331e-05 2.66785e-05 6.68855e-05
0.000725659 0.00100308 -8.89546e-06
0.00100308 -0.000329678 -6.86183e-06
-8.89546e-06 -6.86183e-06 -0.000655398
0.000713203 0.000984899 -2.96167e-05
0.000984899 -0.000338711 -2.08721e-05
-2.96167e-05 -2.08721e-05 -0.00047542
0.00218675 0.0010922 5.5061e-05
0.0010922 -0.00114605 4.08051e-05
5.5061e-05 4.08051e-05 -0.000433508
0.00628432 0.00253609 -0.00010655
0.00253609 -0.00195931 -3.51132e-05
-0.00010655 -3.51132e-05 0.000310683
0.00452128 0.0032303 0.000711012
0.0032303 -0.00605546 0.000189725
0.000711012 0.000189725 -0.00710151
0.00329977 0.00266345 -0.000253489
0.00266345 -0.000259025 -0.000108418
-0.000253489 -0.000108418 0.0008543
0.00527768 0.00227738 -3.21266e-05
0.00227738 0.000803745 -9.58264e-06
-3.21266e-05 -9.58264e-06 0.000714193
0.00635255 0.00226979 -0.000185385
0.00226979 0.00216564 -5.34001e-05
-0.000185385 -5.34001e-05 0.00161941
0.00321527 -0.00023776 -5.14697e-05
-0.00023776 -0.000644618 -2.11314e-05
-5.14697e-05 -2.11314e-05 -0.000109224
-0.000605777 -0.000468277 0.000116526
-0.000468277 -0.00202637 2.79988e-05
0.000116526 2.79988e-05 -0.00042586
0.00550189 0.000549803 0.000296068
0.000549803 -0.00573412 -1.64953e-05
0.000296068 -1.64953e-05 -0.00592802
0.00101416 -0.001109 -6.71366e-05
-0.001109 -0.0013219 8.27789e-05
-6.71366e-05 8.27789e-05 -0.000816498
0.00689356 -0.00118533 -0.000202459
-0.00118533 -0.00043584 5.72908e-05
-0.000202459 5.72908e-05 0.000608447
0.00305459 -0.000888942 -2.85434e-05
-0.000888942 -0.000558531 1.15883e-05
-2.85434e-05 1.15883e-05 7.92876e-05
0.00464944 -0.000646548 -1.60027e-05
-0.000646548 0.000249268 -1.43552e-06
-1.60027e-05 -1.43552e-06 0.000757658
0.00406852 -0.000485504 8.44384e-05
-0.000485504 0.000577496 -1.42365e-05
8.44384e-05 -1.42365e-05 0.000934135
0.00315832 -0.000116454 5.01939e-05
-0.000116454 0.000478585 -2.17815e-06
5.01939e-05 -2.17815e-06 0.000573399
0.000485419 -0.000636578 -2.09528e-05
-0.000636578 -0.00123357 1.09148e-05
-2.09528e-05 1.09148e-05 -0.000883247
0.0024647 -0.000633416 -3.23705e-06
-0.000633416 -0.000311257 6.15572e-07
-3.23705e-06 6.15572e-07 -1.48461e-05
0.0025998 -0.000499859 3.5321e-06
-0.000499859 -0.000216033 -6.334e-07
3.5321e-06 -6.334e-07 3.27326e-05
0.00248863 -0.000742312 -2.7918e-06
-0.000742312 -7.59186e-05 2.77912e-06
-2.7918e-06 2.77912e-06 -7.25554e-05
0.00259711 -0.000636989 -1.15545e-07
-0.000636989 2.60741e-05 -5.49185e-07
-1.15545e-07 -5.49185e-07 5.66985e-05
0.00244444 -0.000488412 -1.16437e-06
-0.000488412 -6.28497e-05 -2.56607e-07
-1.16437e-06 -2.56607e-07 -1.53697e-05
0.00237291 -0.000655453 -1.12359e-06
-0.000655453 3.58171e-05 4.77274e-07
-1.12359e-06 4.77274e-07 -9.56153e-06
0.00239097 -0.000581607 -7.23944e-07
-0.000581607 3.66129e-05 5.921e-08
-7.23944e-07 5.921e-08 -4.94465e-06
0.00228376 -0.000485308 -3.47946e-07
-0.000485308 5.11502e-05 5.00216e-07
-3.47946e-07 5.00216e-07 -7.05813e-06
0.00239881 -0.000646992 -5.67081e-07
-0.000646992 0.00017975 -1.49892e-06
-5.67081e-07 -1.49892e-06 6.49015e-05
0.00226243 -0.000568729 1.00184e-06
-0.000568729 0.000115696 -3.13099e-07
1.00184e-06 -3.13099e-07 -1.41758e-06
0.00218086 -0.000512202 -1.15295e-06
-0.000512202 0.000138885 3.77495e-07
-1.15295e-06 3.77495e-07 -5.07394e-06
0.00215129 -0.000568888 -2.25339e-06
-0.000568888 0.000158611 2.72845e-07
-2.25339e-06 2.72845e-07 -9.70014e-06
0.00224129 -0.000557746 -1.31871e-06
-0.000557746 0.000247628 7.15712e-07
-1.31871e-06 7.15712e-07 5.49559e-05
0.00230978 -0.00054865 -1.30855e-06
-0.00054865 0.000314856 -1.72031e-06
-1.30855e-06 -1.72031e-06 0.00010176
0.00218071 -0.000575051 2.72256e-06
-0.000575051 0.000238979 2.39867e-06
2.72256e-06 2.39867e-06 1.29025e-05
0.00219857 -0.000575932 3.91448e-09
-0.000575932 0.000287212 -1.65284e-07
3.91448e-09 -1.65284e-07 3.74103e-05
0.00205375 -0.000514277 -5.08687e-06
-0.000514277 0.000298247 -4.40949e-07
-5.08687e-06 -4.40949e-07 2.23694e-05
0.00123044 -0.00038212 -1.98082e-05
-0.00038212 3.74185e-05 7.96663e-06
-1.98082e-05 7.96663e-06 -0.000237385
0.00192186 -0.000570719 -6.70022e-07
-0.000570719 0.000256775 -9.39374e-07
-6.70022e-07 -9.39374e-07 -7.00413e-05
0.00204766 -0.000629972 1.62384e-06
-0.000629972 0.000218756 2.05947e-06
1.62384e-06 2.05947e-06 -9.73614e-05
0.000259425 -0.000243611 -2.22935e-05
-0.000243611 -0.000246135 1.96148e-05
-2.22935e-05 1.96148e-05 -0.00041307
0.00110913 -0.000391004 2.00105e-06
-0.000391004 4.85242e-05 -8.86308e-08
2.00105e-06 -8.86308e-08 -0.000244743
0.00199762 -0.000667901 7.63152e-06
-0.000667901 0.00041748 9.12539e-07
7.63152e-06 9.12539e-07 1.9509e-05
0.00785036 -2.85688e-06 -0.000314604
-2.85688e-06 0.00468041 2.55469e-05
-0.000314604 2.55469e-05 0.00469156
0.000277909 -0.000269782 -1.47379e-06
-0.000269782 -0.000215003 2.40647e-06
-1.47379e-06 2.40647e-06 -0.000384144
0.000675162 -0.000336034 1.43293e-05
-0.000336034 -0.000106143 -6.76827e-06
1.43293e-05 -6.76827e-06 -0.000393019
0.00727133 2.74718e-05 -6.29361e-06
2.74718e-05 0.00434454 1.43862e-07
-6.29361e-06 1.43862e-07 0.00434944
0.00077938 -0.000288001 2.63942e-05
-0.000288001 0.000120334 -2.41499e-05
2.63942e-05 -2.41499e-05 -3.25878e-05
0.00662085 9.40432e-05 0.00024962
9.40432e-05 0.00397715 -3.03673e-05
0.00024962 -3.03673e-05 0.00396585
0.00175684 0.000718929 -3.73897e-06
0.000718929 0.000245064 9.00176e-06
-3.73897e-06 9.00176e-06 -0.000165812
0.00189951 0.000785522 -1.61501e-06
0.000785522 0.000512057 9.98677e-07
-1.61501e-06 9.98677e-07 3.01948e-05
0.00146718 0.000586718 -9.05032e-06
0.000586718 0.00029669 3.11464e-06
-9.05032e-06 3.11464e-06 -0.000101931
0.001067 0.000609308 -4.52781e-06
0.000609308 0.000137746 -4.94805e-06
-4.52781e-06 -4.94805e-06 -0.000300929
0.00140831 0.000456345 -4.15586e-06
0.000456345 0.000392065 -2.23861e-06
-4.15586e-06 -2.23861e-06 4.51496e-05
0.000819095 0.000264478 -1.22979e-05
0.000264478 0.000138926 -1.84401e-06
-1.22979e-05 -1.84401e-06 -0.000118644
0.000515991 0.000203922 -1.35667e-06
0.000203922 -5.63431e-05 -4.30269e-06
-1.35667e-06 -4.30269e-06 -0.000294776
0.000638995 0.000205819 1.42137e-06
0.000205819 6.02388e-05 -3.1789e-07
1.42137e-06 -3.1789e-07 -0.000169718
0.00040696 0.000176105 -2.98601e-05
0.000176105 -0.00010187 -1.92469e-05
-2.98601e-05 -1.92469e-05 -0.000207024
0.000557556 0.000140685 1.45925e-06
0.000140685 8.63203e-05 9.8963e-06
1.45925e-06 9.8963e-06 -0.000148287
0.00049768 0.000116645 -1.17978e-06
0.000116645 -3.48926e-06 -3.24319e-07
-1.17978e-06 -3.24319e-07 -9.65009e-05
0.00520064 -0.00016154 -0.000163503
-0.00016154 0.00309154 -1.85857e-05
-0.000163503 -1.85857e-05 0.00307225
0.000180556 8.78956e-05 1.42308e-05
8.78956e-05 -0.000175988 1.86294e-05
1.42308e-05 1.86294e-05 -0.000248849
0.00405385 -0.000157783 -1.31088e-05
-0.000157783 0.00234304 1.46196e-06
-1.31088e-05 1.46196e-06 0.00232837
0.0033912 -0.000145068 5.64625e-05
-0.000145068 0.00190032 7.3366e-06
5.64625e-05 7.3366e-06 0.00189044
0.00103027 0.000283717 2.22916e-06
0.000283717 -0.00193272 1.15513e-05
2.22916e-06 1.15513e-05 -0.00093215
0.00488017 0.000204401 7.15634e-05
0.000204401 -0.0013396 2.85613e-05
7.15634e-05 2.85613e-05 0.000560166
0.0160577 0.000865999 1.98211e-05
0.000865999 0.00156804 5.48756e-05
1.98211e-05 5.48756e-05 0.00196639
0.00214751 0.000894561 1.69297e-06
0.000894561 0.000365996 7.09891e-06
1.69297e-06 7.09891e-06 -3.41646e-05
0.0022468 0.000824979 8.72855e-07
0.000824979 0.000270958 5.65676e-06
8.72855e-07 5.65676e-06 -7.39097e-05
0.00169248 0.000776571 -5.90118e-07
0.000776571 0.000143782 -4.50558e-06
-5.90118e-07 -4.50558e-06 -0.000257012
0.00320532 0.00111988 -1.6413e-05
0.00111988 0.00145142 -2.67159e-06
-1.6413e-05 -2.67159e-06 0.000904481
0.00218605 0.000900293 -7.21904e-06
0.000900293 0.0007088 -1.20672e-05
-7.21904e-06 -1.20672e-05 0.00018435
0.00221617 0.00102405 7.59226e-06
0.00102405 0.00057306 3.65165e-06
7.59226e-06 3.65165e-06 0.000113992
0.002313 0.00100883 -2.36823e-06
0.00100883 0.000221996 -1.4005e-06
-2.36823e-06 -1.4005e-06 -0.000139112
0.00220393 0.00114469 -1.52579e-05
0.00114469 0.000517147 -3.34026e-07
-1.52579e-05 -3.34026e-07 0.000108114
0.000580927 0.000927437 -2.71426e-05
0.000927437 -0.000592255 5.57841e-05
-2.71426e-05 5.57841e-05 -0.000576809
0.00289226 0.00116906 2.53685e-07
0.00116906 0.000703885 3.80604e-07
2.53685e-07 3.80604e-07 0.000274291
0.00291583 0.00098585 -4.86139e-06
0.00098585 0.000429621 7.31766e-06
-4.86139e-06 7.31766e-06 0.000192005
0.00159727 0.000465093 5.14817e-05
0.000465093 -0.000197944 1.52039e-05
5.14817e-05 1.52039e-05 -6.90079e-05
0.000384903 0.000750241 7.68631e-06
0.000750241 -0.000594068 -6.49905e-06
7.68631e-06 -6.49905e-06 -0.000781614
0.000795654 0.00100301 -3.92901e-05
0.00100301 -0.000288823 -4.64558e-06
-3.92901e-05 -4.64558e-06 -0.000611908
0.00366063 0.00123776 1.97246e-05
0.00123776 -0.000308594 1.12789e-05
1.97246e-05 1.12789e-05 0.000241151
0.00867047 0.0023505 -6.02212e-05
0.0023505 -0.000743529 -4.90669e-05
-6.02212e-05 -4.90669e-05 0.00105712
0.00514434 0.00192376 -6.3711e-05
0.00192376 0.0012144 -7.58042e-05
-6.3711e-05 -7.58042e-05 0.00120573
0.00290099 -8.34181e-05 5.80535e-05
-8.34181e-05 0.000203021 8.24463e-06
5.80535e-05 8.24463e-06 0.000457751
0.00322772 -0.000245092 -8.18546e-05
-0.000245092 -0.000688275 6.54769e-06
-8.18546e-05 6.54769e-06 2.61515e-06
0.00510488 0.000493859 1.57671e-05
0.000493859 -0.00013373 -2.12032e-05
1.57671e-05 -2.12032e-05 0.00100682
0.000618016 -0.000745728 -8.04841e-05
-0.000745728 -0.00197035 5.97625e-05
-8.04841e-05 5.97625e-05 -0.0012313
0.00297718 -0.00066695 -0.000104161
-0.00066695 -0.000580415 5.99113e-06
-0.000104161 5.99113e-06 -0.000215095
0.00301787 -0.000448118 3.81366e-06
-0.000448118 -5.05534e-05 -3.1866e-06
3.81366e-06 -3.1866e-06 0.000405711
0.00236013 -0.000105722 -1.48814e-05
-0.000105722 -4.46413e-05 -2.08568e-07
-1.48814e-05 -2.08568e-07 8.01704e-05
0.00254828 -0.000286661 1.22165e-05
-0.000286661 -0.000182089 -2.16718e-06
1.22165e-05 -2.16718e-06 4.02067e-05
0.00230704 4.95709e-05 7.77966e-06
4.95709e-05 -0.000313372 -4.53132e-07
7.77966e-06 -4.53132e-07 -0.000178741
0.00248886 -0.0006681 -1.99513e-05
-0.0006681 -0.000308948 4.60054e-06
-1.99513e-05 4.60054e-06 -4.05449e-05
0.00263117 -0.000523501 -2.80363e-06
-0.000523501 -0.000204961 7.309e-07
-2.80363e-06 7.309e-07 5.39402e-06
0.00250865 -0.000357483 -4.97893e-07
-0.000357483 -0.000137654 -2.90127e-07
-4.97893e-07 -2.90127e-07 3.09529e-06
0.00258157 -0.000616717 -3.72554e-06
-0.000616717 4.01854e-05 5.02106e-07
-3.72554e-06 5.02106e-07 8.17302e-05
0.00245572 -0.000488196 2.4006e-07
-0.000488196 -4.34029e-05 -1.61657e-07
2.4006e-07 -1.61657e-07 -1.99766e-06
0.00233836 -0.000399894 2.8407e-07
-0.000399894 -1.97761e-05 1.13698e-07
2.8407e-07 1.13698e-07 -4.23956e-06
0.00238542 -0.000585496 -1.21803e-06
-0.000585496 4.48275e-05 -2.87264e-07
-1.21803e-06 -2.87264e-07 5.30997e-06
0.00229312 -0.00048437 3.79208e-07
-0.00048437 5.21636e-05 -3.27909e-08
3.79208e-07 -3.27909e-08 -5.81075e-06
0.00222009 -0.00043411 -2.02357e-06
-0.00043411 8.87199e-05 8.80265e-07
-2.02357e-06 8.80265e-07 6.78596e-06
0.00224644 -0.000568749 1.59568e-06
-0.000568749 0.000103198 -1.17333e-06
1.59568e-06 -1.17333e-06 -1.41542e-05
0.00217833 -0.000512116 7.43503e-07
-0.000512116 0.000131873 -4.54186e-07
7.43503e-07 -4.54186e-07 -1.23099e-05
0.00218328 -0.000484945 -2.01118e-06
-0.000484945 0.000188645 -5.71837e-07
-2.01118e-06 -5.71837e-07 1.37352e-05
0.00217648 -0.00055182 -3.6574e-07
-0.00055182 0.000198417 8.18304e-07
-3.6574e-07 8.18304e-07 9.02657e-06
0.00222692 -0.000544444 -1.86573e-07
-0.000544444 0.00026133 -1.53877e-07
-1.86573e-07 -1.53877e-07 4.85213e-05
0.00202593 -0.000477914 -4.1508e-06
-0.000477914 0.000224687 -3.93665e-07
-4.1508e-06 -3.93665e-07 -1.89294e-05
0.00219545 -0.000577113 1.60921e-06
-0.000577113 0.00028525 2.83109e-06
1.60921e-06 2.83109e-06 3.70929e-05
0.002072 -0.00051836 -7.18675e-07
-0.00051836 0.000309303 -2.634e-08
-7.18675e-07 -2.634e-08 3.45561e-05
0.00126328 -0.000331401 -1.63291e-05
-0.000331401 2.37692e-05 7.31374e-06
-1.63291e-05 7.31374e-06 -0.000219198
0.000293836 -0.000224608 -1.94395e-05
-0.000224608 -0.000248281 1.93972e-05
-1.94395e-05 1.93972e-05 -0.000404723
0.00123536 -0.000379901 2.48964e-07
-0.000379901 4.49383e-05 2.07668e-08
2.48964e-07 2.07668e-08 -0.000228418
0.00190568 -0.000569172 5.03968e-06
-0.000569172 0.000250741 -2.14973e-07
5.03968e-06 -2.14973e-07 -7.99309e-05
0.00804036 -0.000100377 -0.00036607
-0.000100377 0.00477788 3.15562e-05
-0.00036607 3.15562e-05 0.00479896
0.000317178 -0.000250367 -1.27464e-06
-0.000250367 -0.000220071 1.22187e-06
-1.27464e-06 1.22187e-06 -0.000383826
0.000961814 -0.000380556 1.90855e-05
-0.000380556 -3.84824e-05 -7.26612e-06
1.90855e-05 -7.26612e-06 -0.000331352
0.00800112 -4.51864e-05 1.58395e-06
-4.51864e-05 0.00477338 1.23573e-06
1.58395e-06 1.23573e-06 0.00478754
0.000539125 -0.000284957 2.65783e-05
-0.000284957 -5.81098e-05 -2.25569e-05
2.65783e-05 -2.25569e-05 -0.000228336
0.0076468 -1.92406e-05 0.000328137
-1.92406e-05 0.0045719 -3.31238e-05
0.000328137 -3.31238e-05 0.00458178
0.0019696 0.000747577 1.14468e-06
0.000747577 0.0002197 9.06743e-06
1.14468e-06 9.06743e-06 -0.000142795
0.0018331 0.00073327 7.1454e-07
0.00073327 0.000297731 3.9447e-07
7.1454e-07 3.9447e-07 -0.000113741
0.00189786 0.000652238 -7.40764e-06
0.000652238 0.00042142 4.72337e-06
-7.40764e-06 4.72337e-06 2.63968e-05
0.00173453 0.000764481 4.62904e-06
0.000764481 0.000410415 -6.42861e-06
4.62904e-06 -6.42861e-06 -6.72765e-05
0.00150337 0.000588087 -6.33268e-07
0.000588087 0.000321786 5.89456e-07
-6.33268e-07 5.89456e-07 -7.797e-05
0.000911674 0.000305429 -1.56004e-05
0.000305429 7.08285e-05 -3.49011e-06
-1.56004e-05 -3.49011e-06 -0.000190372
0.00153484 0.000444949 2.08101e-06
0.000444949 0.000448814 -2.24368e-06
2.08101e-06 -2.24368e-06 0.00011022
0.00058466 0.00022662 1.0582e-06
0.00022662 -1.82678e-05 6.07448e-07
1.0582e-06 6.07448e-07 -0.00026376
0.000445857 0.000235075 -3.09678e-05
0.000235075 -9.24311e-05 -2.18584e-05
-3.09678e-05 -2.18584e-05 -0.00021794
0.000621792 0.000154896 2.88536e-06
0.000154896 6.12176e-05 5.77693e-06
2.88536e-06 5.77693e-06 -0.000176369
0.000492569 0.000160613 1.16735e-06
0.000160613 -4.42436e-05 -9.57751e-07
1.16735e-06 -9.57751e-07 -0.000148134
0.00618035 -0.000190152 -0.000197658
-0.000190152 0.00373772 -2.57556e-05
-0.000197658 -2.57556e-05 0.00370338
0.00034065 0.00010937 1.88181e-05
0.00010937 -9.39819e-05 2.02774e-05
1.88181e-05 2.02774e-05 -0.000185917
0.00491289 -0.00019702 -1.37012e-05
-0.00019702 0.00291708 1.64551e-06
-1.37012e-05 1.64551e-06 0.00288818
0.00402294 -0.000180566 8.06815e-05
-0.000180566 0.00232688 9.97451e-06
8.06815e-05 9.97451e-06 0.00230653
0.00166841 0.000259715 4.15182e-05
0.000259715 -0.000388833 2.17516e-05
4.15182e-05 2.17516e-05 -5.84827e-05
0.00233145 0.00034822 -2.64031e-05
0.00034822 -0.00158128 -3.53532e-06
-2.64031e-05 -3.53532e-06 -0.000514404
0.00490383 0.000579879 0.000258314
0.000579879 -0.00167742 7.97543e-05
0.000258314 7.97543e-05 0.000600175
0.00261026 0.000881721 -8.89539e-06
0.000881721 0.000426473 6.27899e-07
-8.89539e-06 6.27899e-07 9.79478e-05
0.0020492 0.000908122 -8.04515e-06
0.000908122 0.000287536 -5.48099e-06
-8.04515e-06 -5.48099e-06 -0.000110426
0.00236082 0.000671721 2.24286e-06
0.000671721 0.000229186 5.45889e-06
2.24286e-06 5.45889e-06 -1.27259e-05
0.00234254 0.000823779 1.51873e-06
0.000823779 0.000334927 5.0142e-07
1.51873e-06 5.0142e-07 -7.43659e-06
0.00166049 0.000775115 1.37669e-06
0.000775115 0.000132495 -1.42166e-05
1.37669e-06 -1.42166e-05 -0.000263319
0.00254915 0.000782141 -4.57569e-06
0.000782141 0.000150063 1.12398e-06
-4.57569e-06 1.12398e-06 -4.40076e-05
0.00273842 0.00111805 -9.73935e-06
0.00111805 0.00083605 -7.70826e-06
-9.73935e-06 -7.70826e-06 0.000360828
0.00263751 0.00101378 -7.05772e-08
0.00101378 0.000430475 -5.43771e-08
-7.05772e-08 -5.43771e-08 6.47451e-05
0.00218924 0.000488053 -1.78559e-05
0.000488053 -0.000248344 5.9717e-07
-1.78559e-05 5.9717e-07 -0.000179603
0.00338519 0.00125444 -8.49665e-06
0.00125444 0.000946201 1.30407e-05
-8.49665e-06 1.30407e-05 0.000527876
0.00262661 0.000956011 2.02009e-08
0.000956011 0.00027065 -1.03302e-06
2.02009e-08 -1.03302e-06 3.3013e-05
0.000634254 0.000452069 -7.39422e-06
0.000452069 -0.000785586 1.56662e-06
-7.39422e-06 1.56662e-06 -0.000609911
-0.0017291 0.000538342 -2.73144e-05
0.000538342 -0.00169644 -1.15241e-05
-2.73144e-05 -1.15241e-05 -0.00184007
0.00382766 0.0013271 -0.000146517
0.0013271 -0.000217834 -5.30705e-05
-0.000146517 -5.30705e-05 0.000209592
0.00251256 0.000157597 4.83446e-07
0.000157597 -0.000155396 -2.1322e-06
4.83446e-07 -2.1322e-06 -2.45906e-06
0.00290787 -6.19002e-05 -2.19228e-06
-6.19002e-05 0.0003033 5.37252e-07
-2.19228e-06 5.37252e-07 0.000475927
0.00287186 -0.000289078 -0.000110851
-0.000289078 -0.000956421 -1.9355e-06
-0.000110851 -1.9355e-06 -0.000116353
0.00159154 -0.00039457 -7.92907e-05
-0.00039457 -0.000904632 1.26169e-05
-7.92907e-05 1.26169e-05 -0.00035007
0.00204239 -0.000112224 -1.97952e-05
-0.000112224 -0.000260507 2.7123e-06
-1.97952e-05 2.7123e-06 -0.000110716
0.0025273 -0.000291213 3.24175e-06
-0.000291213 -0.000207203 -9.92624e-07
3.24175e-06 -9.92624e-07 4.44683e-05
0.00259358 5.93725e-05 -3.47762e-06
5.93725e-05 -0.000139372 2.10097e-07
-3.47762e-06 2.10097e-07 -1.04714e-05
0.00254722 -7.01914e-05 -1.53503e-06
-7.01914e-05 -0.000140101 -6.38712e-07
-1.53503e-06 -6.38712e-07 2.43074e-05
0.00265795 -0.000543566 -3.87855e-06
-0.000543566 -0.000188865 9.27719e-08
-3.87855e-06 9.27719e-08 -1.72096e-05
0.00246146 -0.000343561 3.29683e-07
-0.000343561 -0.000147755 -2.59851e-07
3.29683e-07 -2.59851e-07 -1.64204e-05
0.00238129 -0.000261015 8.48611e-07
-0.000261015 -5.17508e-05 -6.50838e-08
8.48611e-07 -6.50838e-08 3.51351e-05
0.0024726 -0.000488577 -1.46655e-07
-0.000488577 -1.91252e-05 2.46913e-07
-1.46655e-07 2.46913e-07 1.55373e-05
0.00233815 -0.00039734 1.66295e-07
-0.00039734 -1.64612e-05 1.10912e-07
1.66295e-07 1.10912e-07 -2.97962e-06
0.00222964 -0.000336064 -1.73409e-06
-0.000336064 3.71876e-05 6.93148e-07
-1.73409e-06 6.93148e-07 1.23235e-05
0.0023018 -0.00048325 1.07846e-06
-0.00048325 5.26499e-05 -4.59922e-07
1.07846e-06 -4.59922e-07 -5.07448e-06
0.00221364 -0.000434901 4.83921e-07
-0.000434901 8.02587e-05 -6.08314e-08
4.83921e-07 -6.08314e-08 -1.72684e-06
0.00222075 -0.000410832 -3.31511e-06
-0.000410832 0.000158886 7.61338e-07
-3.31511e-06 7.61338e-07 3.06641e-05
0.00217503 -0.000511998 2.06435e-06
-0.000511998 0.000124491 -1.08339e-06
2.06435e-06 -1.08339e-06 -1.99054e-05
0.00216033 -0.00048296 -4.77504e-08
-0.00048296 0.000172884 -4.02058e-07
-4.77504e-08 -4.02058e-07 -2.10659e-06
0.00204765 -0.000428281 -2.73566e-06
-0.000428281 0.000182925 -4.99612e-07
-2.73566e-06 -4.99612e-07 -2.38195e-05
0.00214889 -0.000540481 1.065e-06
-0.000540481 0.000210675 1.11916e-06
1.065e-06 1.11916e-06 -1.84277e-06
0.00204415 -0.000478853 -6.76517e-07
-0.000478853 0.000239119 1.05938e-07
-6.76517e-07 1.05938e-07 -4.36324e-06
0.00124373 -0.000289761 -1.29027e-05
-0.000289761 -1.13666e-05 6.01507e-06
-1.29027e-05 6.01507e-06 -0.000230966
0.00209161 -0.000522374 4.10808e-06
-0.000522374 0.000321214 6.87216e-07
4.10808e-06 6.87216e-07 4.76646e-05
0.00128586 -0.000332862 1.15495e-07
-0.000332862 3.36109e-05 1.75775e-07
1.15495e-07 1.75775e-07 -0.000208589
0.00286437 -0.000224148 -5.52661e-05
-0.000224148 0.00136936 1.42072e-05
-5.52661e-05 1.42072e-05 0.0012472
0.00254521 -0.000126941 -0.00029027
-0.000126941 0.00127426 4.29458e-05
-0.00029027 4.29458e-05 0.00125608
0.00163811 -0.000243425 -1.61691e-05
-0.000243425 0.000604511 1.78944e-07
-1.61691e-05 1.78944e-07 0.00045886
0.00126037 -0.00037902 1.85691e-05
-0.00037902 6.62369e-05 -7.52741e-06
1.85691e-05 -7.52741e-06 -0.00020586
0.00793325 -0.000105351 -1.13259e-05
-0.000105351 0.00472082 2.39049e-06
-1.13259e-05 2.39049e-06 0.00473553
0.000157751 -0.000272636 2.4088e-05
-0.000272636 -0.000319012 -2.08711e-05
2.4088e-05 -2.08711e-05 -0.000486691
0.00808443 -5.75392e-05 0.00034313
-5.75392e-05 0.00483265 -3.60564e-05
0.00034313 -3.60564e-05 0.00484138
0.00217627 0.000517599 5.13505e-08
0.000517599 0.000118265 1.51493e-06
5.13505e-08 1.51493e-06 -5.63183e-05
0.0022619 0.000674478 3.79719e-06
0.000674478 0.000312087 7.46064e-06
3.79719e-06 7.46064e-06 2.62836e-05
0.00227737 0.000771705 6.04234e-07
0.000771705 0.000411676 9.36647e-08
6.04234e-07 9.36647e-08 4.92346e-05
0.00204091 0.000652881 -5.12597e-06
0.000652881 0.000391833 4.85611e-06
-5.12597e-06 4.85611e-06 2.93142e-05
0.00193485 0.000753408 6.57244e-06
0.000753408 0.000360898 -7.4169e-06
6.57244e-06 -7.4169e-06 -5.3068e-05
0.00178739 0.000645653 -5.52376e-08
0.000645653 0.000340732 9.51837e-07
-5.52376e-08 9.51837e-07 -5.49332e-05
0.000732591 0.000349643 -2.57391e-05
0.000349643 -0.000135029 -4.94518e-06
-2.57391e-05 -4.94518e-06 -0.000414251
0.00150242 0.000588881 9.62514e-06
0.000588881 0.000316324 -1.84816e-06
9.62514e-06 -1.84816e-06 -8.48305e-05
0.000667362 0.000295833 -6.4611e-07
0.000295833 -6.75605e-05 -4.21913e-07
-6.4611e-07 -4.21913e-07 -0.000325461
0.000352034 0.000290114 -3.00368e-05
0.000290114 -0.000158011 -2.23312e-05
-3.00368e-05 -2.23312e-05 -0.000315458
0.000379847 0.00020017 8.61216e-06
0.00020017 -0.000150819 -9.73252e-07
8.61216e-06 -9.73252e-07 -0.000386459
0.000382809 0.000208559 3.98131e-06
0.000208559 -0.000131516 -1.59429e-06
3.98131e-06 -1.59429e-06 -0.000255859
0.00734857 -8.02249e-05 -0.00028266
-8.02249e-05 0.00442548 -3.03287e-05
-0.00028266 -3.03287e-05 0.00441528
0.00049707 0.000145979 2.65038e-05
0.000145979 -3.66255e-05 1.96542e-05
2.65038e-05 1.96542e-05 -0.000136989
0.00583119 -0.000172324 3.21409e-06
-0.000172324 0.00348916 -2.04275e-06
3.21409e-06 -2.04275e-06 0.00346705
0.00454313 -0.000211452 0.000103892
-0.000211452 0.00268477 1.39655e-05
0.000103892 1.39655e-05 0.00265174
0.00247441 0.000238446 -7.16464e-06
0.000238446 -0.000228296 -2.83992e-07
-7.16464e-06 -2.83992e-07 -2.41517e-05
0.00182415 0.000207651 1.38009e-05
0.000207651 -0.000515396 -3.51973e-06
1.38009e-05 -3.51973e-06 -8.56408e-05
0.0045143 0.000471126 -0.000134659
0.000471126 -0.000703686 -5.86696e-06
-0.000134659 -5.86696e-06 0.000413043
0.00241057 0.000624614 -2.58049e-06
0.000624614 0.000163384 1.48909e-06
-2.58049e-06 1.48909e-06 -4.31533e-06
0.00245529 0.000853127 -4.34193e-06
0.000853127 0.000376631 -4.93547e-07
-4.34193e-06 -4.93547e-07 5.50042e-05
0.00200228 0.000924106 -3.4995e-06
0.000924106 0.000240623 -1.11606e-05
-3.4995e-06 -1.11606e-05 -0.000154584
0.00238999 0.000660109 2.37316e-06
0.000660109 0.000263886 1.52818e-06
2.37316e-06 1.52818e-06 2.48212e-05
0.0024443 0.000823872 -8.29568e-07
0.000823872 0.000402886 -6.7893e-06
-8.29568e-07 -6.7893e-06 6.25303e-05
0.00261671 0.000494285 -4.14588e-07
0.000494285 -1.04638e-05 5.98543e-07
-4.14588e-07 5.98543e-07 3.30568e-05
0.00251508 0.000782636 -6.69769e-07
0.000782636 0.000146889 -1.28547e-07
-6.69769e-07 -1.28547e-07 -4.58005e-05
0.00287459 0.00101123 -4.47096e-06
0.00101123 0.000586859 -4.11721e-06
-4.47096e-06 -4.11721e-06 0.000217745
0.00218137 0.000468066 1.0807e-07
0.000468066 -0.000212779 -2.74163e-07
1.0807e-07 -2.74163e-07 -0.000141379
0.00243697 0.000926451 1.64025e-05
0.000926451 0.000159052 3.35777e-07
1.64025e-05 3.35777e-07 -7.90827e-05
-0.000241265 0.00040672 -4.42081e-05
0.00040672 -0.00132449 -1.73006e-05
-4.42081e-05 -1.73006e-05 -0.00109828
0.00247962 0.000103558 2.96112e-07
0.000103558 -0.000100035 -2.57065e-07
2.96112e-07 -2.57065e-07 2.81444e-05
0.00238897 0.000159177 -8.84512e-07
0.000159177 -0.000244903 1.40974e-06
-8.84512e-07 1.40974e-06 -8.8926e-05
0.00295513 -4.66169e-05 -5.81518e-05
-4.66169e-05 0.000413544 -6.31099e-06
-5.81518e-05 -6.31099e-06 0.000514982
0.00241004 -0.000290626 -2.37746e-05
-0.000290626 -0.000303886 4.4618e-06
-2.37746e-05 4.4618e-06 -1.84146e-05
0.00279668 7.38419e-05 -2.6076e-07
7.38419e-05 -2.81949e-05 1.25107e-06
-2.6076e-07 1.25107e-06 9.45284e-05
0.00252112 -7.98477e-05 -5.8395e-07
-7.98477e-05 -0.000171725 -7.00424e-07
-5.8395e-07 -7.00424e-07 -2.28508e-06
0.00223794 -7.54245e-05 1.81697e-07
-7.54245e-05 -7.42801e-05 -1.12369e-07
1.81697e-07 -1.12369e-07 4.2333e-07
0.00240148 -0.000328576 6.92904e-07
-0.000328576 -0.000165796 -5.58657e-07
6.92904e-07 -5.58657e-07 -4.35398e-05
0.002334 -0.000267795 -3.33515e-08
-0.000267795 -7.70204e-05 -2.61135e-09
-3.33515e-08 -2.61135e-09 2.51206e-06
0.00216711 -0.000224122 -2.4612e-07
-0.000224122 -1.87717e-05 -6.70414e-08
-2.4612e-07 -6.70414e-08 -1.15209e-05
0.00233798 -0.000394792 -2.97378e-07
-0.000394792 -1.3465e-05 3.26332e-07
-2.97378e-07 3.26332e-07 -1.92197e-06
0.00222252 -0.00033615 5.42155e-08
-0.00033615 2.86974e-05 1.98354e-07
5.42155e-08 1.98354e-07 3.80764e-06
0.00225865 -0.000325231 -4.74329e-06
-0.000325231 0.00012019 1.33723e-06
-4.74329e-06 1.33723e-06 4.29551e-05
0.00220924 -0.000435884 2.63107e-06
-0.000435884 7.286e-05 -9.27624e-07
2.63107e-06 -9.27624e-07 -9.21929e-06
0.00216026 -0.000405876 2.71562e-07
-0.000405876 0.000119577 -3.64626e-07
2.71562e-07 -3.64626e-07 -8.1754e-06
0.00202875 -0.000353605 -1.78904e-06
-0.000353605 0.000125902 -6.12704e-07
-1.78904e-06 -6.12704e-07 -3.97854e-05
0.00213136 -0.000480713 2.42066e-06
-0.000480713 0.000152967 -3.24315e-07
2.42066e-06 -3.24315e-07 -2.20956e-05
0.00208725 -0.000430687 -6.43253e-07
-0.000430687 0.00021187 7.45973e-08
-6.43253e-07 7.45973e-08 4.95056e-06
0.00124723 -0.000252164 -9.8528e-06
-0.000252164 -3.10732e-05 4.60296e-06
-9.8528e-06 4.60296e-06 -0.000231423
0.00206106 -0.000479616 3.19518e-06
-0.000479616 0.0002529 3.23937e-07
3.19518e-06 3.23937e-07 9.59284e-06
0.00128901 -0.000293319 -1.12406e-07
-0.000293319 8.48326e-06 2.08561e-07
-1.12406e-07 2.08561e-07 -0.000210606
0.00286555 -0.000211137 -6.30223e-05
-0.000211137 0.00136571 1.38279e-05
-6.30223e-05 1.38279e-05 0.00125424
0.0013001 -0.000334272 1.53361e-05
-0.000334272 3.77139e-05 -6.85198e-06
1.53361e-05 -6.85198e-06 -0.000203834
0.00300447 -0.000259986 5.3785e-05
-0.000259986 0.00146122 -8.99291e-06
5.3785e-05 -8.99291e-06 0.00134831
0.00250066 -0.000157196 -0.000285764
-0.000157196 0.00125359 4.74596e-05
-0.000285764 4.74596e-05 0.00123302
0.0049676 -0.000156354 -0.000280925
-0.000156354 0.00283969 3.27291e-05
-0.000280925 3.27291e-05 0.00283685
0.00308356 -0.000322688 0.000178338
-0.000322688 0.00153323 -3.09005e-05
0.000178338 -3.09005e-05 0.00141678
0.00783376 -0.000119441 0.000344811
-0.000119441 0.00466751 -3.98225e-05
0.000344811 -3.98225e-05 0.0046787
0.00230841 0.000501509 -1.68982e-06
0.000501509 0.000155733 -2.60885e-07
-1.68982e-06 -2.60885e-07 3.13691e-05
0.00213205 0.000534781 -1.68028e-07
0.000534781 0.000196072 2.46038e-06
-1.68028e-07 2.46038e-06 -1.76775e-05
0.00220425 0.000510471 3.18774e-07
0.000510471 0.000144017 -9.10957e-07
3.18774e-07 -9.10957e-07 -2.18306e-05
0.00204511 0.000577627 -3.73049e-06
0.000577627 0.000284255 4.33185e-06
-3.73049e-06 4.33185e-06 -1.66904e-05
0.00233501 0.000682956 4.96969e-07
0.000682956 0.000344064 1.74523e-07
4.96969e-07 1.74523e-07 5.77371e-05
0.00258406 0.000796458 -1.11169e-06
0.000796458 0.000603694 -8.07191e-06
-1.11169e-06 -8.07191e-06 0.000241029
0.00195092 0.000647003 8.33217e-07
0.000647003 0.000329927 3.66515e-07
8.33217e-07 3.66515e-07 -3.28336e-05
0.00123854 0.000409523 -3.04167e-05
0.000409523 8.95109e-05 -6.73759e-06
-3.04167e-05 -6.73759e-06 -0.000195443
0.00173876 0.000644115 9.59381e-06
0.000644115 0.000302204 -2.62319e-06
9.59381e-06 -2.62319e-06 -9.50815e-05
0.00100109 0.000367247 -3.25834e-06
0.000367247 2.82504e-05 1.80126e-07
-3.25834e-06 1.80126e-07 -0.000251081
0.000150047 0.000281328 -2.81564e-05
0.000281328 -0.000306295 -2.03092e-05
-2.81564e-05 -2.03092e-05 -0.000471544
0.00079135 0.000293148 1.61799e-05
0.000293148 2.13052e-05 3.29995e-06
1.61799e-05 3.29995e-06 -0.000232067
0.000232411 0.000245524 1.82119e-06
0.000245524 -0.000237827 1.34992e-06
1.82119e-06 1.34992e-06 -0.000388304
0.00810738 1.26173e-05 -0.000326415
1.26173e-05 0.00487191 -3.62891e-05
-0.000326415 -3.62891e-05 0.00486993
0.000157807 0.000169734 2.64028e-05
0.000169734 -0.000274995 2.08729e-05
2.64028e-05 2.08729e-05 -0.000394299
0.00687835 -0.000122251 6.34076e-06
-0.000122251 0.00412786 -2.64378e-06
6.34076e-06 -2.64378e-06 0.00411476
0.00547236 -0.000208042 0.000146184
-0.000208042 0.00327097 1.44148e-05
0.000146184 1.44148e-05 0.00324018
0.00251911 0.00028474 7.71622e-07
0.00028474 -8.26273e-05 6.34593e-07
7.71622e-07 6.34593e-07 3.27027e-05
0.0023425 0.000241147 2.19696e-06
0.000241147 -0.000258279 -6.81608e-07
2.19696e-06 -6.81608e-07 -5.48491e-05
0.00168348 0.000155676 -6.85264e-05
0.000155676 -0.000806444 -1.1548e-05
-6.85264e-05 -1.1548e-05 -0.000272603
0.00235577 0.000439419 1.59764e-06
0.000439419 1.50417e-06 8.14394e-07
1.59764e-06 8.14394e-07 -1.544e-05
0.00234595 0.000617015 -9.80556e-07
0.000617015 0.000141328 3.91557e-08
-9.80556e-07 3.91557e-08 -2.40593e-05
0.00224423 0.000818454 6.95577e-06
0.000818454 0.000293127 -3.26311e-06
6.95577e-06 -3.26311e-06 -2.04614e-05
0.00243126 0.000648943 -1.02618e-06
0.000648943 0.000306252 -3.51663e-06
-1.02618e-06 -3.51663e-06 7.02221e-05
0.00255161 0.000475546 -1.15409e-06
0.000475546 -3.36168e-05 -1.69304e-07
-1.15409e-06 -1.69304e-07 1.12734e-05
0.00243502 0.00077939 -1.49677e-06
0.00077939 0.000118465 -2.3993e-07
-1.49677e-06 -2.3993e-07 -7.1703e-05
0.00204318 0.000446831 1.62269e-05
0.000446831 -0.000214855 -1.32545e-06
1.62269e-05 -1.32545e-06 -0.000141792
0.00228268 7.80092e-05 2.24817e-06
7.80092e-05 -5.45896e-05 1.59143e-07
2.24817e-06 1.59143e-07 1.05303e-05
0.00243232 9.96034e-05 2.32385e-07
9.96034e-05 -0.000114316 1.46099e-07
2.32385e-07 1.46099e-07 1.02422e-05
0.00229427 0.000166362 -8.30396e-06
0.000166362 -0.00031015 -1.38721e-06
-8.30396e-06 -1.38721e-06 -0.000151371
0.00213635 -1.29968e-05 -1.40041e-06
-1.29968e-05 -4.13068e-05 5.12808e-08
-1.40041e-06 5.12808e-08 -3.73114e-06
0.0025325 -9.57065e-05 2.21383e-06
-9.57065e-05 -0.000175091 3.94322e-07
2.21383e-06 3.94322e-07 -1.0317e-06
0.00224444 -7.91326e-05 -3.63411e-07
-7.91326e-05 -7.22338e-05 4.2809e-07
-3.63411e-07 4.2809e-07 1.7041e-06
0.00210927 -0.000118638 -1.72059e-06
-0.000118638 -4.06213e-05 3.35168e-07
-1.72059e-06 3.35168e-07 -2.31732e-05
0.00228546 -0.000274442 -5.43591e-07
-0.000274442 -0.000102344 9.72631e-08
-5.43591e-07 9.72631e-08 -3.08027e-05
0.00217429 -0.000220925 9.06558e-07
-0.000220925 -1.37451e-05 -4.2041e-07
9.06558e-07 -4.2041e-07 -5.65427e-06
0.00225756 -0.000228551 -3.70046e-06
-0.000228551 9.0802e-05 3.03305e-07
-3.70046e-06 3.03305e-07 4.84441e-05
0.00221708 -0.000335907 2.02883e-06
-0.000335907 2.13466e-05 -5.02094e-07
2.02883e-06 -5.02094e-07 -3.51284e-06
0.00222812 -0.000321019 3.85346e-07
-0.000321019 0.000104788 -5.05984e-08
3.85346e-07 -5.05984e-08 2.78218e-05
0.00203027 -0.000271244 -1.03101e-06
-0.000271244 9.89699e-05 -6.61847e-07
-1.03101e-06 -6.61847e-07 -2.92026e-05
0.00210251 -0.000400748 3.65921e-06
-0.000400748 8.27008e-05 -1.42359e-06
3.65921e-06 -1.42359e-06 -4.44937e-05
0.00209573 -0.000357753 -6.03791e-07
-0.000357753 0.000168118 1.12811e-07
-6.03791e-07 1.12811e-07 2.00492e-06
0.0012696 -0.000209471 -7.3185e-06
-0.000209471 -2.84146e-05 3.11229e-06
-7.3185e-06 3.11229e-06 -0.000209954
0.00212791 -0.000432949 2.297e-06
-0.000432949 0.000241985 2.43728e-07
2.297e-06 2.43728e-07 3.4949e-05
0.00129643 -0.000254498 -3.17395e-07
-0.000254498 -9.67207e-06 2.65902e-07
-3.17395e-07 2.65902e-07 -0.000209058
0.00279754 -0.000194119 -6.92888e-05
-0.000194119 0.00132704 1.3078e-05
-6.92888e-05 1.3078e-05 0.00122241
0.0013281 -0.000296747 1.20022e-05
-0.000296747 2.39589e-05 -5.68738e-06
1.20022e-05 -5.68738e-06 -0.000194597
0.00294916 -0.000230015 4.93891e-05
-0.000230015 0.00141945 -7.04116e-06
4.93891e-05 -7.04116e-06 0.00131761
0.00250234 -0.000133305 -0.000279209
-0.000133305 0.00124506 4.14035e-05
-0.000279209 4.14035e-05 0.00122729
0.00312407 -0.000265502 0.000169402
-0.000265502 0.00153237 -3.12873e-05
0.000169402 -3.12873e-05 0.001432
0.00209786 -9.35146e-05 -0.000112877
-9.35146e-05 0.000996987 1.75333e-05
-0.000112877 1.75333e-05 0.00096138
0.00720392 -5.65934e-05 0.000115977
-5.65934e-05 0.00424973 -7.18236e-06
0.000115977 -7.18236e-06 0.00423033
0.00229456 0.000424939 -1.05294e-06
0.000424939 0.000104762 -2.22776e-08
-1.05294e-06 -2.22776e-08 3.19524e-05
0.00221365 0.00047624 -3.69625e-06
0.00047624 0.000171916 -4.85039e-07
-3.69625e-06 -4.85039e-07 9.04911e-06
0.00230698 0.000501461 -3.1652e-06
0.000501461 0.000150756 -3.33423e-09
-3.1652e-06 -3.33423e-09 2.45621e-05
0.00203636 0.000493139 -2.71238e-06
0.000493139 0.000211839 1.57742e-06
-2.71238e-06 1.57742e-06 -3.79055e-05
0.00208753 0.000540567 -1.315e-06
0.000540567 0.000146382 -2.48199e-06
-1.315e-06 -2.48199e-06 -6.22838e-05
0.0022184 0.000502123 -3.35952e-06
0.000502123 0.000160656 -3.56313e-06
-3.35952e-06 -3.56313e-06 3.90612e-06
0.00135633 0.000375864 -2.51217e-05
0.000375864 5.98354e-05 -6.39032e-06
-2.51217e-05 -6.39032e-06 -0.000194501
0.00200286 0.00057455 1.42098e-06
0.00057455 0.000257211 4.27429e-07
1.42098e-06 4.27429e-07 -4.37524e-05
0.00239747 0.000690273 1.60006e-06
0.000690273 0.000368729 -6.70362e-06
1.60006e-06 -6.70362e-06 8.21403e-05
0.00183332 0.000639764 6.71308e-06
0.000639764 0.000247937 -4.18333e-06
6.71308e-06 -4.18333e-06 -0.000115052
0.00118665 0.000405441 -1.14809e-06
0.000405441 5.07825e-05 -8.92003e-08
-1.14809e-06 -8.92003e-08 -0.000233929
0.000297337 0.000265906 -2.55025e-05
0.000265906 -0.000232357 -1.84944e-05
-2.55025e-05 -1.84944e-05 -0.000395236
0.00111596 0.000374653 2.6837e-05
0.000374653 9.47398e-05 8.15267e-06
2.6837e-05 8.15267e-06 -0.000182896
0.000281967 0.000273846 1.1488e-06
0.000273846 -0.000219301 1.48024e-06
1.1488e-06 1.48024e-06 -0.000384611
0.00796076 0.000103646 -0.000332817
0.000103646 0.00476379 -4.25386e-05
-0.000332817 -4.25386e-05 0.00476287
0.000355427 0.000225839 2.4399e-05
0.000225839 -0.000167103 2.25457e-05
2.4399e-05 2.25457e-05 -0.00031398
0.00777006 -3.1231e-05 6.77292e-06
-3.1231e-05 0.00465366 1.8364e-08
6.77292e-06 1.8364e-08 0.00465414
0.00656063 -0.000152753 0.000208082
-0.000152753 0.00392413 1.43621e-05
0.000208082 1.43621e-05 0.00391034
0.00228309 0.00023005 8.48569e-07
0.00023005 -4.07824e-05 9.48629e-08
8.48569e-07 9.48629e-08 3.63829e-06
0.00248316 0.000290701 -6.44213e-07
0.000290701 -0.000118419 7.87158e-07
-6.44213e-07 7.87158e-07 -7.50217e-08
0.0022866 0.000240869 2.51495e-06
0.000240869 -0.000272661 2.04065e-08
2.51495e-06 2.04065e-08 -6.80589e-05
0.00235298 0.000433861 1.14563e-07
0.000433861 8.81677e-07 2.1022e-07
1.14563e-07 2.1022e-07 -1.35502e-05
0.00229213 0.000609731 2.07159e-07
0.000609731 0.000128282 -1.30085e-06
2.07159e-07 -1.30085e-06 -3.49431e-05
0.00252278 0.000459406 2.60027e-06
0.000459406 -4.25337e-05 -4.00138e-07
2.60027e-06 -4.00138e-07 2.78133e-06
0.00218113 7.18807e-05 8.10375e-07
7.18807e-05 -2.36981e-05 1.38772e-07
8.10375e-07 1.38772e-07 6.95443e-06
0.00226871 7.57329e-05 3.92878e-07
7.57329e-05 -6.05016e-05 -2.14351e-07
3.92878e-07 -2.14351e-07 5.4967e-06
0.0023611 9.56383e-05 -8.65437e-07
9.56383e-05 -0.0001468 -1.50229e-08
-8.65437e-07 -1.50229e-08 -2.44467e-05
0.00214619 -1.04995e-05 -7.84437e-07
-1.04995e-05 -3.40942e-05 9.68757e-09
-7.84437e-07 9.68757e-09 1.32625e-06
0.00210696 -3.55969e-05 -4.30107e-06
-3.55969e-05 9.42712e-06 4.21469e-07
-4.30107e-06 4.21469e-07 1.81521e-05
0.00224992 -8.2465e-05 -6.20739e-07
-8.2465e-05 -7.15282e-05 1.53311e-07
-6.20739e-07 1.53311e-07 2.04419e-06
0.00212667 -0.000118977 -1.41896e-06
-0.000118977 -2.27002e-05 2.57922e-07
-1.41896e-06 2.57922e-07 -9.20783e-06
0.00216171 -0.000144978 -5.9285e-06
-0.000144978 2.99008e-05 7.31752e-07
-5.9285e-06 7.31752e-07 3.05193e-06
0.00217952 -0.000217975 2.37212e-06
-0.000217975 -9.84678e-06 -8.43924e-07
2.37212e-06 -8.43924e-07 -9.88166e-07
0.002244 -0.000229282 2.0605e-06
-0.000229282 8.62357e-05 -4.82247e-07
2.0605e-06 -4.82247e-07 4.3659e-05
0.00204118 -0.00020306 2.8893e-07
-0.00020306 8.60183e-05 -3.13055e-07
2.8893e-07 -3.13055e-07 -1.67791e-05
0.00218371 -0.000317447 4.70405e-06
-0.000317447 8.02206e-05 -1.34959e-06
4.70405e-06 -1.34959e-06 3.37205e-06
0.00207223 -0.000275312 -4.48121e-07
-0.000275312 0.000115764 -2.11957e-07
-4.48121e-07 -2.11957e-07 -1.27842e-05
0.00123282 -0.000166057 -6.327e-06
-0.000166057 -4.82296e-05 1.99587e-06
-6.327e-06 1.99587e-06 -0.000213526
0.00216423 -0.000362072 1.95748e-06
-0.000362072 0.00021101 3.51034e-07
1.95748e-06 3.51034e-07 4.44389e-05
0.00128778 -0.000208467 -3.6594e-07
-0.000208467 -2.45174e-05 2.21669e-07
-3.6594e-07 2.21669e-07 -0.000204668
0.00268714 -0.000184533 -7.07154e-05
-0.000184533 0.00126576 1.10617e-05
-7.07154e-05 1.10617e-05 0.00116682
0.00134673 -0.000257038 9.0353e-06
-0.000257038 1.20475e-05 -4.17691e-06
9.0353e-06 -4.17691e-06 -0.000186369
0.00287218 -0.000192381 4.70281e-05
-0.000192381 0.00136962 -5.4104e-06
4.70281e-05 -5.4104e-06 0.00127652
0.00246735 -0.000109278 -0.000274923
-0.000109278 0.00121732 3.44366e-05
-0.000274923 3.44366e-05 0.00120114
0.00303401 -0.000220364 0.000165093
-0.000220364 0.00146481 -2.65859e-05
0.000165093 -2.65859e-05 0.00137665
0.0020831 -9.2005e-05 -0.000102848
-9.2005e-05 0.000983135 1.38534e-05
-0.000102848 1.38534e-05 0.000949597
0.00175399 -8.91874e-05 7.1288e-05
-8.91874e-05 0.000792221 -1.2008e-05
7.1288e-05 -1.2008e-05 0.000735656
0.00219083 0.000266074 -5.69064e-07
0.000266074 5.30734e-06 -5.02524e-07
-5.69064e-07 -5.02524e-07 -1.22855e-05
0.00222118 0.000388872 -4.39156e-06
0.000388872 0.000127009 -4.08551e-07
-4.39156e-06 -4.08551e-07 1.64273e-05
0.0022687 0.000425228 -3.67838e-07
0.000425228 6.87888e-05 -1.73574e-07
-3.67838e-07 -1.73574e-07 5.61942e-06
0.00212415 0.000447842 -2.94853e-07
0.000447842 0.00019172 1.29371e-06
-2.94853e-07 1.29371e-06 -1.29803e-05
0.00222924 0.000475565 -1.73295e-06
0.000475565 0.000190262 -6.1248e-07
-1.73295e-06 -6.1248e-07 2.5362e-05
0.00230723 0.000502505 2.16732e-06
0.000502505 0.000146673 -7.33846e-08
2.16732e-06 -7.33846e-08 1.8202e-05
0.0013577 0.00031963 -1.84789e-05
0.00031963 2.2074e-05 -5.39702e-06
-1.84789e-05 -5.39702e-06 -0.000201053
0.00199258 0.000496713 1.35418e-06
0.000496713 0.000174721 -6.37187e-07
1.35418e-06 -6.37187e-07 -6.97338e-05
0.00206711 0.000548834 -2.13356e-06
0.000548834 0.000112221 -6.0707e-06
-2.13356e-06 -6.0707e-06 -9.20774e-05
0.00031447 0.000213061 -2.24147e-05
0.000213061 -0.000250013 -1.57141e-05
-2.24147e-05 -1.57141e-05 -0.000395912
0.00130969 0.000370821 -2.92926e-07
0.000370821 3.51065e-05 1.20975e-07
-2.92926e-07 1.20975e-07 -0.000219063
0.00196281 0.00057175 5.58186e-06
0.00057175 0.000231343 -3.70334e-06
5.58186e-06 -3.70334e-06 -6.97218e-05
0.00120621 0.000405805 3.15412e-05
0.000405805 6.2048e-05 7.39739e-06
3.15412e-05 7.39739e-06 -0.000222861
0.000284159 0.000252516 4.22503e-07
0.000252516 -0.000236067 9.37743e-07
4.22503e-07 9.37743e-07 -0.000398683
0.00768644 0.000201811 -0.000336362
0.000201811 0.00458052 -4.69921e-05
-0.000336362 -4.69921e-05 0.00457976
0.00037479 0.000257336 2.52665e-05
0.000257336 -0.000156323 1.86514e-05
2.52665e-05 1.86514e-05 -0.000320062
0.00799386 8.05226e-05 8.457e-06
8.05226e-05 0.00477257 1.05007e-06
8.457e-06 1.05007e-06 0.00478036
0.00751512 -6.69207e-05 0.000273121
-6.69207e-05 0.00448792 1.92741e-05
0.000273121 1.92741e-05 0.00448872
0.00219941 0.000139232 -9.19199e-07
0.000139232 5.18809e-06 -2.30091e-07
-9.19199e-07 -2.30091e-07 2.73506e-05
0.00226248 0.000234551 6.61503e-07
0.000234551 -5.82387e-05 4.33701e-07
6.61503e-07 4.33701e-07 -1.64091e-05
0.00243868 0.000296832 7.40078e-08
0.000296832 -0.000152966 -8.30147e-07
7.40078e-08 -8.30147e-07 -3.23205e-05
0.00235004 0.000427402 5.55287e-07
0.000427402 -1.15927e-07 -9.26716e-07
5.55287e-07 -9.26716e-07 -1.14407e-05
0.00207469 2.7879e-05 -4.3263e-06
2.7879e-05 1.79085e-05 3.56168e-07
-4.3263e-06 3.56168e-07 7.85121e-06
0.0021791 6.30477e-05 -1.69578e-08
6.30477e-05 -2.55364e-05 -8.37552e-08
-1.69578e-08 -8.37552e-08 6.73101e-06
0.00226025 7.32809e-05 -1.54918e-06
7.32809e-05 -6.19876e-05 9.09922e-08
-1.54918e-06 9.09922e-08 4.09119e-06
0.00215313 -7.4009e-06 -1.55235e-06
-7.4009e-06 -2.83411e-05 -4.17898e-08
-1.55235e-06 -4.17898e-08 4.80817e-06
0.00211383 -2.99649e-05 -7.49027e-07
-2.99649e-05 8.47613e-06 -2.01019e-07
-7.49027e-07 -2.01019e-07 1.93392e-05
0.0019955 -6.25592e-05 -5.45184e-06
-6.25592e-05 -5.65151e-05 6.71312e-07
-5.45184e-06 6.71312e-07 -9.01692e-05
0.00214413 -0.000119495 2.01595e-06
-0.000119495 -4.6806e-06 -1.3362e-07
2.01595e-06 -1.3362e-07 4.80469e-06
0.00213014 -0.000146425 -1.80399e-06
-0.000146425 1.55751e-05 3.45721e-07
-1.80399e-06 3.45721e-07 -1.88099e-05
0.0022213 -0.000143082 -1.64171e-06
-0.000143082 0.000195936 1.87734e-07
-1.64171e-06 1.87734e-07 0.000114916
0.00224345 -0.00022939 7.58774e-06
-0.00022939 8.92768e-05 -1.26639e-06
7.58774e-06 -1.26639e-06 4.66353e-05
0.00206014 -0.00020192 9.90691e-07
-0.00020192 9.10377e-05 -4.21689e-07
9.90691e-07 -4.21689e-07 -1.08371e-05
0.0011733 -0.000124449 -7.373e-06
-0.000124449 -7.22583e-05 1.37857e-06
-7.373e-06 1.37857e-06 -0.000224991
0.00212305 -0.000277611 1.46002e-06
-0.000277611 0.000138547 -1.29083e-07
1.46002e-06 -1.29083e-07 1.0042e-05
0.00122339 -0.000163485 -1.65173e-07
-0.000163485 -5.39566e-05 -5.11447e-10
-1.65173e-07 -5.11447e-10 -0.000218041
0.000314117 -9.49521e-05 -1.82114e-05
-9.49521e-05 -0.00026124 6.45712e-06
-1.82114e-05 6.45712e-06 -0.000368529
0.00129907 -0.000207107 6.39306e-06
-0.000207107 -2.51162e-05 -2.73483e-06
6.39306e-06 -2.73483e-06 -0.000203839
0.00157448 -0.000123503 6.91452e-05
-0.000123503 0.000540335 -5.66655e-06
6.91452e-05 -5.66655e-06 0.000446262
0.00695496 -0.00017975 -0.00036343
-0.00017975 0.00410614 2.88738e-05
-0.00036343 2.88738e-05 0.00412977
0.00295234 -0.000173805 0.000160641
-0.000173805 0.00141011 -2.08239e-05
0.000160641 -2.08239e-05 0.00133091
0.00205368 -8.55492e-05 -9.29901e-05
-8.55492e-05 0.000965058 8.97121e-06
-9.29901e-05 8.97121e-06 0.000931419
0.00167289 -0.000108099 8.33205e-05
-0.000108099 0.000745563 -1.38484e-05
8.33205e-05 -1.38484e-05 0.000687897
0.00213366 0.000176174 -2.11852e-06
0.000176174 1.84978e-05 -9.05372e-07
-2.11852e-06 -9.05372e-07 2.87452e-06
0.00221303 0.000300591 -2.88359e-06
0.000300591 9.03111e-05 -4.03578e-07
-2.88359e-06 -4.03578e-07 1.78934e-05
0.00219247 0.000258705 -2.5017e-07
0.000258705 1.82895e-05 -9.07493e-08
-2.5017e-07 -9.07493e-08 -4.96096e-06
0.00208585 0.000355599 -1.00564e-06
0.000355599 0.000126586 1.3224e-06
-1.00564e-06 1.3224e-06 -2.70024e-05
0.00221972 0.000388812 6.21413e-07
0.000388812 0.000127397 5.11669e-08
6.21413e-07 5.11669e-08 1.7163e-05
0.00224112 0.000425423 2.13891e-07
0.000425423 3.18021e-05 -5.96449e-07
2.13891e-07 -5.96449e-07 -2.18648e-05
0.00139886 0.0002785 -1.30038e-05
0.0002785 3.02687e-05 -2.97054e-06
-1.30038e-05 -2.97054e-06 -0.000163498
0.00212426 0.000443846 1.6859e-06
0.000443846 0.00019341 2.10161e-07
1.6859e-06 2.10161e-07 -9.41761e-06
0.00223686 0.000473632 1.47551e-06
0.000473632 0.000203985 -1.52177e-06
1.47551e-06 -1.52177e-06 3.76554e-05
0.000335684 0.000152374 -1.92542e-05
0.000152374 -0.000255911 -1.20852e-05
-1.92542e-05 -1.20852e-05 -0.000383108
0.0013004 0.000315774 4.93912e-07
0.000315774 -1.03078e-05 5.39691e-07
4.93912e-07 5.39691e-07 -0.000230034
0.00193033 0.000497478 5.62755e-06
0.000497478 0.000126567 -3.73824e-06
5.62755e-06 -3.73824e-06 -0.000111829
0.00744066 0.000267471 -0.000342115
0.000267471 0.00441782 -4.63824e-05
-0.000342115 -4.63824e-05 0.00441955
0.000299801 0.000207136 -5.86306e-08
0.000207136 -0.000261791 7.09355e-07
-5.86306e-08 7.09355e-07 -0.000408375
0.00124804 0.000364945 2.6431e-05
0.000364945 7.55756e-07 6.90561e-06
2.6431e-05 6.90561e-06 -0.000253177
0.000227636 0.000235827 2.25249e-05
0.000235827 -0.000268885 1.81481e-05
2.25249e-05 1.81481e-05 -0.000430923
0.00772971 0.000194558 1.11951e-05
0.000194558 0.00460279 2.29767e-06
1.11951e-05 2.29767e-06 0.00460808
0.00789095 4.45481e-05 0.000329772
4.45481e-05 0.00469398 2.6649e-05
0.000329772 2.6649e-05 0.00470712
0.00206204 8.44625e-05 -5.8447e-06
8.44625e-05 1.67777e-05 -7.35797e-08
-5.8447e-06 -7.35797e-08 4.84465e-07
0.00218845 0.00013448 -2.1576e-09
0.00013448 -4.67249e-07 -3.36293e-08
-2.1576e-09 -3.36293e-08 1.96368e-05
0.00224036 0.000238911 -3.76512e-07
0.000238911 -7.73021e-05 -9.04208e-08
-3.76512e-07 -9.04208e-08 -3.75431e-05
0.00199092 7.54697e-06 -7.16888e-06
7.54697e-06 -3.39867e-05 3.50897e-07
-7.16888e-06 3.50897e-07 -7.67013e-05
0.00206123 3.34238e-05 7.23297e-07
3.34238e-05 4.92862e-06 -1.0606e-08
7.23297e-07 -1.0606e-08 -1.67901e-06
0.0021785 5.32371e-05 -1.26913e-06
5.32371e-05 -2.68651e-05 2.51009e-08
-1.26913e-06 2.51009e-08 7.16743e-06
0.00212253 -2.45949e-05 2.37109e-06
-2.45949e-05 8.28162e-06 -2.93932e-07
2.37109e-06 -2.93932e-07 2.15209e-05
0.00204081 -6.1558e-05 -8.6415e-07
-6.1558e-05 -2.40883e-05 2.34844e-08
-8.6415e-07 2.34844e-08 -5.64829e-05
0.00197018 -7.03543e-05 -2.11856e-06
-7.03543e-05 4.67688e-05 9.5596e-08
-2.11856e-06 9.5596e-08 -4.02157e-05
0.00209937 -0.000147943 4.01162e-06
-0.000147943 2.78493e-06 -3.84914e-07
4.01162e-06 -3.84914e-07 -3.92528e-05
0.0020551 -0.000143146 7.89925e-07
-0.000143146 8.91118e-05 -4.91497e-08
7.89925e-07 -4.91497e-08 -1.77829e-06
0.00139695 -8.04526e-05 -9.04759e-06
-8.04526e-05 8.66619e-05 3.04651e-07
-9.04759e-06 3.04651e-07 -4.35177e-05
0.00206689 -0.000202563 1.86648e-06
-0.000202563 8.87663e-05 -6.60583e-07
1.86648e-06 -6.60583e-07 -1.26273e-05
0.00116982 -0.0001196 6.20687e-09
-0.0001196 -7.3149e-05 1.07306e-07
6.20687e-09 1.07306e-07 -0.000224638
0.000300756 -2.61408e-05 -1.69305e-05
-2.61408e-05 -0.000269359 3.19584e-06
-1.69305e-05 3.19584e-06 -0.000368328
0.00121978 -0.000159847 5.36626e-06
-0.000159847 -5.86561e-05 -1.95782e-06
5.36626e-06 -1.95782e-06 -0.000221302
0.000331256 -7.93496e-05 -4.51458e-07
-7.93496e-05 -0.000248172 5.18664e-07
-4.51458e-07 5.18664e-07 -0.00035542
0.00690505 -7.02793e-05 -0.000353702
-7.02793e-05 0.0040673 1.82521e-05
-0.000353702 1.82521e-05 0.00409686
0.000411528 -8.45142e-05 1.30724e-05
-8.45142e-05 -0.000205159 -8.78298e-06
1.30724e-05 -8.78298e-06 -0.000318587
0.00440959 -0.000117575 0.000152744
-0.000117575 0.00248105 -8.66973e-06
0.000152744 -8.66973e-06 0.00246544
0.00162757 -9.57922e-05 8.86399e-05
-9.57922e-05 0.00071638 -1.31278e-05
8.86399e-05 -1.31278e-05 0.000660226
0.00211907 0.000142627 -7.27242e-06
0.000142627 6.20303e-05 -7.12186e-07
-7.27242e-06 -7.12186e-07 3.88616e-05
0.00221593 0.000219078 -4.56483e-06
0.000219078 0.000106576 -5.73534e-07
-4.56483e-06 -5.73534e-07 4.41001e-05
0.00212379 0.000170151 -7.28813e-07
0.000170151 1.71229e-05 -2.00875e-07
-7.28813e-07 -2.00875e-07 1.3345e-06
0.00203985 0.000280637 -6.61155e-07
0.000280637 8.66674e-05 6.65392e-07
-6.61155e-07 6.65392e-07 -4.5478e-05
0.00223702 0.000299606 -1.36661e-07
0.000299606 0.000101979 -1.94858e-07
-1.36661e-07 -1.94858e-07 2.86515e-05
0.00219561 0.000251561 2.08204e-06
0.000251561 3.25467e-05 6.95702e-07
2.08204e-06 6.95702e-07 3.6831e-06
0.00131637 0.00021693 -8.17135e-06
0.00021693 -1.3929e-05 -1.58497e-06
-8.17135e-06 -1.58497e-06 -0.000183844
0.00207879 0.000352371 2.54249e-06
0.000352371 0.000135288 8.38856e-07
2.54249e-06 8.38856e-07 -2.56974e-05
0.00221205 0.000388676 3.32096e-06
0.000388676 0.000123162 -2.88038e-07
3.32096e-06 -2.88038e-07 1.31505e-05
0.000332693 0.000107617 -1.73835e-05
0.000107617 -0.00026168 -8.90902e-06
-1.73835e-05 -8.90902e-06 -0.000376952
0.00135539 0.000271725 3.84208e-07
0.000271725 7.2543e-06 8.21807e-07
3.84208e-07 8.21807e-07 -0.000184453
0.00212602 0.000440468 4.22372e-06
0.000440468 0.000196356 -6.03964e-07
4.22372e-06 -6.03964e-07 -4.9271e-06
0.00720365 0.000307419 -0.000355527
0.000307419 0.00427442 -4.41222e-05
-0.000355527 -4.41222e-05 0.00427668
0.000329285 0.000153521 2.75744e-07
0.000153521 -0.00026422 4.28663e-07
2.75744e-07 4.28663e-07 -0.000392713
0.00124511 0.00031365 1.84473e-05
0.00031365 -4.29361e-05 5.04594e-06
1.84473e-05 5.04594e-06 -0.000259792
0.00747668 0.000287625 1.2857e-05
0.000287625 0.00445073 4.62088e-06
1.2857e-05 4.62088e-06 0.00444956
0.000300454 0.000201641 2.03211e-05
0.000201641 -0.000264154 1.58933e-05
2.03211e-05 1.58933e-05 -0.000411414
0.00772362 0.00016691 0.000351647
0.00016691 0.00458447 3.60188e-05
0.000351647 3.60188e-05 0.00459983
0.00198305 6.54159e-05 -7.29629e-06
6.54159e-05 -3.46243e-05 1.91789e-07
-7.29629e-06 1.91789e-07 -8.09674e-05
0.00206871 9.09962e-05 -1.03103e-06
9.09962e-05 2.57973e-05 -1.87658e-07
-1.03103e-06 -1.87658e-07 9.18809e-06
0.00217797 0.000130183 8.53976e-07
0.000130183 -4.84643e-06 2.15307e-07
8.53976e-07 2.15307e-07 1.29054e-05
0.00191121 -1.02304e-05 -1.57252e-06
-1.02304e-05 1.59044e-05 -9.67881e-08
-1.57252e-06 -9.67881e-08 -7.00126e-05
0.00203343 9.14398e-06 -1.04107e-06
9.14398e-06 -5.12286e-06 1.52394e-08
-1.04107e-06 1.52394e-08 -4.43734e-05
0.00204727 3.987e-05 4.51126e-06
3.987e-05 -8.18027e-06 -1.47151e-08
4.51126e-06 -1.47151e-08 -1.14597e-05
0.00209332 -6.08098e-05 3.54845e-06
-6.08098e-05 1.35598e-05 -4.67631e-07
3.54845e-06 -4.67631e-07 -1.74556e-05
0.00198262 -7.0291e-05 3.68215e-07
-7.0291e-05 5.6935e-05 1.99124e-07
3.68215e-07 1.99124e-07 -2.89616e-05
0.00132201 -3.65307e-05 -1.0319e-05
-3.65307e-05 4.88215e-05 -5.57627e-07
-1.0319e-05 -5.57627e-07 -7.36785e-05
0.00187284 -0.000142998 5.59385e-07
-0.000142998 -2.94941e-05 -1.36871e-08
5.59385e-07 -1.36871e-08 -0.000130131
0.00126288 -7.94906e-05 2.1716e-06
-7.94906e-05 -3.15414e-06 -2.97418e-07
2.1716e-06 -2.97418e-07 -0.000139048
0.000307495 -9.77268e-06 -1.75443e-05
-9.77268e-06 -0.000262134 1.5526e-06
-1.75443e-05 1.5526e-06 -0.000356495
0.00116585 -0.00011645 6.82227e-06
-0.00011645 -7.2438e-05 -1.14051e-06
6.82227e-06 -1.14051e-06 -0.000222914
0.000301784 -3.89294e-05 5.64079e-07
-3.89294e-05 -0.000268056 -2.87658e-07
5.64079e-07 -2.87658e-07 -0.00036647
0.00672175 -0.000166497 -0.000356096
-0.000166497 0.00396959 1.9937e-05
-0.000356096 1.9937e-05 0.00399217
0.000324245 -6.29249e-05 1.6682e-05
-6.29249e-05 -0.000251324 -4.90964e-06
1.6682e-05 -4.90964e-06 -0.00035756
0.00683899 -0.000107247 7.45828e-06
-0.000107247 0.00402956 7.38697e-08
7.45828e-06 7.38697e-08 0.00405814
0.0019509 -4.33657e-05 0.000271846
-4.33657e-05 0.000890772 -1.98188e-05
0.000271846 -1.98188e-05 0.000882509
0.00208731 0.000148005 -7.49939e-06
0.000148005 3.39388e-05 -6.09916e-07
-7.49939e-06 -6.09916e-07 -2.3112e-05
0.00206735 0.000143575 -1.57895e-06
0.000143575 1.7362e-05 -1.51756e-07
-1.57895e-06 -1.51756e-07 -5.46131e-07
0.00204798 0.00021023 4.04789e-07
0.00021023 8.99435e-05 6.9268e-07
4.04789e-07 6.9268e-07 -2.11143e-05
0.00222157 0.000218589 8.1867e-07
0.000218589 0.000106894 -3.18556e-09
8.1867e-07 -3.18556e-09 4.50244e-05
0.0021078 0.000163788 2.93503e-06
0.000163788 1.12041e-05 3.14277e-07
2.93503e-06 3.14277e-07 -4.58293e-06
0.00122863 0.000162043 -6.07018e-06
0.000162043 -4.92841e-05 -1.14332e-06
-6.07018e-06 -1.14332e-06 -0.000210884
0.00209979 0.00028128 3.44034e-07
0.00028128 0.00013376 -1.0615e-07
3.44034e-07 -1.0615e-07 1.78349e-06
0.00226958 0.000298641 4.2083e-06
0.000298641 0.00011956 1.08162e-06
4.2083e-06 1.08162e-06 4.54047e-05
0.000339502 7.74147e-05 -1.66625e-05
7.74147e-05 -0.000252215 -6.38306e-06
-1.66625e-05 -6.38306e-06 -0.000360843
0.00128426 0.0002151 1.55806e-06
0.0002151 -2.97423e-05 7.46764e-07
1.55806e-06 7.46764e-07 -0.000203958
0.00209429 0.00035024 1.94915e-06
0.00035024 0.000160098 -8.45705e-08
1.94915e-06 -8.45705e-08 -8.22666e-06
0.00701921 0.000304756 -0.000370033
0.000304756 0.00416898 -4.02576e-05
-0.000370033 -4.02576e-05 0.00417236
0.000351249 0.000113 4.78726e-07
0.000113 -0.000253378 2.01275e-07
4.78726e-07 2.01275e-07 -0.000370257
0.00130728 0.000264418 1.07381e-05
0.000264418 -1.93907e-05 3.91124e-06
1.07381e-05 3.91124e-06 -0.000208823
0.00728673 0.00033389 9.51126e-06
0.00033389 0.00433957 5.3546e-06
9.51126e-06 5.3546e-06 0.00433612
0.000336798 0.000154142 1.78917e-05
0.000154142 -0.000264065 1.26452e-05
1.78917e-05 1.26452e-05 -0.000393663
0.0075413 0.00029463 0.000364086
0.00029463 0.00448527 4.63704e-05
0.000364086 4.63704e-05 0.00448895
0.00191127 6.20041e-05 7.17186e-10
6.20041e-05 1.86624e-05 -2.15559e-08
7.17186e-10 -2.15559e-08 -7.16999e-05
0.00203769 6.69056e-05 -3.05532e-06
6.69056e-05 9.47901e-06 -9.1946e-08
-3.05532e-06 -9.1946e-08 -3.79016e-05
0.00207409 9.70705e-05 5.93526e-06
9.70705e-05 3.40195e-05 1.22127e-07
5.93526e-06 1.22127e-07 1.70854e-05
0.0012549 -1.26038e-05 -1.06194e-05
-1.26038e-05 1.33551e-05 -5.15581e-07
-1.06194e-05 -5.15581e-07 -0.000106963
0.00197076 -6.9578e-06 8.809e-07
-6.9578e-06 5.96373e-05 9.10329e-08
8.809e-07 9.10329e-08 -2.55482e-05
0.00208127 1.02187e-05 3.74661e-06
1.02187e-05 2.76989e-05 -1.78577e-07
3.74661e-06 -1.78577e-07 -7.97475e-06
0.00200782 -7.07457e-05 2.51273e-06
-7.07457e-05 7.59773e-05 2.38774e-07
2.51273e-06 2.38774e-07 -9.06706e-06
0.00127949 -3.83206e-05 1.65622e-06
-3.83206e-05 1.7797e-05 -1.16991e-07
1.65622e-06 -1.16991e-07 -0.00010516
0.000324152 -3.25534e-05 -1.82643e-05
-3.25534e-05 -0.000248361 4.94697e-07
-1.82643e-05 4.94697e-07 -0.00033805
0.00111867 -7.77459e-05 1.07567e-05
-7.77459e-05 -9.81218e-05 -6.27483e-07
1.07567e-05 -6.27483e-07 -0.000239792
0.000302258 1.45069e-06 2.26206e-07
1.45069e-06 -0.000267151 1.13263e-07
2.26206e-07 1.13263e-07 -0.000359984
0.0066139 -0.000134631 -0.000356207
-0.000134631 0.00390012 1.50163e-05
-0.000356207 1.50163e-05 0.00392643
0.000336914 -4.72134e-05 1.78355e-05
-4.72134e-05 -0.000243037 -2.97257e-06
1.78355e-05 -2.97257e-06 -0.000342478
0.00671833 -6.09997e-05 -2.80183e-06
-6.09997e-05 0.00395339 3.31322e-06
-2.80183e-06 3.31322e-06 0.00398472
0.00681657 -0.000121559 0.000355321
-0.000121559 0.00401716 -1.79452e-05
0.000355321 -1.79452e-05 0.00404574
0.00202754 0.000135366 -1.70654e-07
0.000135366 8.80537e-05 2.39526e-07
-1.70654e-07 2.39526e-07 -9.2918e-06
0.00211518 0.00014675 -2.4637e-06
0.00014675 4.61931e-05 -2.92239e-07
-2.4637e-06 -2.92239e-07 -5.204e-06
0.0020212 0.000145006 5.23425e-06
0.000145006 -2.40118e-05 5.50477e-07
5.23425e-06 5.50477e-07 -3.66258e-05
0.00119898 0.000113561 -8.60221e-06
0.000113561 -5.18968e-05 -4.18741e-07
-8.60221e-06 -4.18741e-07 -0.00019984
0.00208373 0.000209652 1.67322e-07
0.000209652 0.000117725 -1.47439e-07
1.67322e-07 -1.47439e-07 6.74524e-06
0.00222016 0.000217752 4.5854e-06
0.000217752 0.000102473 2.83958e-07
4.5854e-06 2.83958e-07 4.12086e-05
0.000331318 5.22343e-05 -1.62492e-05
5.22343e-05 -0.000250171 -4.21042e-06
-1.62492e-05 -4.21042e-06 -0.000353289
0.00121939 0.000164387 2.11977e-07
0.000164387 -5.10898e-05 2.1546e-07
2.11977e-07 2.1546e-07 -0.000214071
0.00214474 0.000281392 1.12034e-06
0.000281392 0.000171606 -1.18562e-06
1.12034e-06 -1.18562e-06 3.96689e-05
0.00686411 0.000250635 -0.000378207
0.000250635 0.00406835 -3.26151e-05
-0.000378207 -3.26151e-05 0.00408148
0.000348695 8.49702e-05 8.16621e-07
8.49702e-05 -0.000247995 2.08717e-07
8.16621e-07 2.08717e-07 -0.000358582
0.00123005 0.000211883 6.28939e-06
0.000211883 -6.13788e-05 2.82279e-06
6.28939e-06 2.82279e-06 -0.000239705
0.0071112 0.000323464 4.95919e-06
0.000323464 0.00423226 3.49699e-06
4.95919e-06 3.49699e-06 0.00423337
0.000371267 0.00012017 1.68409e-05
0.00012017 -0.000242827 9.7965e-06
1.68409e-05 9.7965e-06 -0.000361897
0.00738595 0.000372657 0.000377465
0.000372657 0.00441418 5.28515e-05
0.000377465 5.28515e-05 0.00440499
0.00110468 3.30037e-05 -1.13652e-05
3.30037e-05 -8.61704e-05 -5.26904e-07
-1.13652e-05 -5.26904e-07 -0.000218004
0.00201144 5.95255e-05 8.76609e-07
5.95255e-05 8.48877e-05 -1.43518e-08
8.76609e-07 -1.43518e-08 1.11364e-07
0.00209502 6.88808e-05 3.4444e-06
6.88808e-05 5.47423e-05 -7.23421e-08
3.4444e-06 -7.23421e-08 6.54054e-06
0.000366736 3.21598e-05 -1.88449e-05
3.21598e-05 -0.000227025 -1.1858e-06
-1.88449e-05 -1.1858e-06 -0.000307419
0.00123469 -7.65278e-06 1.27457e-06
-7.65278e-06 -3.12677e-06 -3.29645e-08
1.27457e-06 -3.29645e-08 -0.000123493
0.00201821 -2.1699e-06 3.09657e-06
-2.1699e-06 9.47533e-05 8.14603e-08
3.09657e-06 8.14603e-08 1.02489e-05
0.00122494 -3.9482e-05 1.29963e-05
-3.9482e-05 -2.21659e-05 -1.12982e-07
1.29963e-05 -1.12982e-07 -0.000145499
0.000325294 -6.02823e-06 4.43922e-07
-6.02823e-06 -0.000247733 4.10882e-07
4.43922e-07 4.10882e-07 -0.000337188
0.00646587 4.40313e-06 -0.000356706
4.40313e-06 0.00379781 2.8104e-06
-0.000356706 2.8104e-06 0.00383259
0.000303418 1.28229e-05 1.74537e-05
1.28229e-05 -0.000268934 -4.53994e-07
1.74537e-05 -4.53994e-07 -0.000360044
0.00656969 -0.000132049 -7.42754e-06
-0.000132049 0.00387409 2.21006e-06
-7.42754e-06 2.21006e-06 0.00389993
0.0066612 -4.34141e-05 0.000342417
-4.34141e-05 0.00391709 -9.99555e-06
0.000342417 -9.99555e-06 0.00394873
0.00115177 7.03994e-05 -1.07744e-05
7.03994e-05 -6.28828e-05 -6.12357e-07
-1.07744e-05 -6.12357e-07 -0.000200708
0.00207977 0.000132224 -3.49751e-07
0.000132224 0.00012235 -3.18981e-07
-3.49751e-07 -3.18981e-07 2.91787e-05
0.00212675 0.000144961 1.55774e-06
0.000144961 4.74955e-05 -2.98514e-07
1.55774e-06 -2.98514e-07 1.3632e-06
0.00274748 7.09299e-05 -0.000160606
7.09299e-05 0.00129654 -5.80005e-06
-0.000160606 -5.80005e-06 0.00124095
0.00117914 0.000114458 1.40845e-07
0.000114458 -6.3662e-05 1.95251e-07
1.40845e-07 1.95251e-07 -0.000212631
0.00212964 0.000209545 9.07685e-07
0.000209545 0.000151526 -8.13633e-07
9.07685e-07 -8.13633e-07 4.06204e-05
0.00673904 0.000182963 -0.000377187
0.000182963 0.00398191 -2.33404e-05
-0.000377187 -2.33404e-05 0.00400555
0.000352253 7.22243e-05 1.14687e-06
7.22243e-05 -0.000236056 5.29527e-07
1.14687e-06 5.29527e-07 -0.000341607
0.00123178 0.000167204 6.52619e-06
0.000167204 -4.11153e-05 1.50239e-06
6.52619e-06 1.50239e-06 -0.000205394
0.00697077 0.000267747 1.27884e-06
0.000267747 0.00413731 1.6646e-06
1.27884e-06 1.6646e-06 0.00414879
0.000367672 9.50284e-05 1.66875e-05
9.50284e-05 -0.00023636 7.58746e-06
1.66875e-05 7.58746e-06 -0.000349525
0.0072052 0.00035988 0.000383617
0.00035988 0.00430577 5.05377e-05
0.000383617 5.05377e-05 0.00430001
0.00046269 1.37849e-05 -1.46775e-05
1.37849e-05 -0.000155081 -1.95469e-06
-1.46775e-05 -1.95469e-06 -0.000244511
0.001159 3.25145e-05 -1.88005e-07
3.25145e-05 -5.42554e-05 9.22783e-08
-1.88005e-07 9.22783e-08 -0.000181828
0.00210474 5.56098e-05 3.32495e-06
5.56098e-05 0.000146591 -1.74955e-07
3.32495e-06 -1.74955e-07 6.7266e-05
0.00626582 -0.00010499 -0.000337449
-0.00010499 0.00369063 5.23341e-06
-0.000337449 5.23341e-06 0.00371402
0.00032687 1.06358e-05 -6.19617e-07
1.06358e-05 -0.000248438 -2.13585e-07
-6.19617e-07 -2.13585e-07 -0.000331409
0.00124355 -4.05811e-06 1.31643e-05
-4.05811e-06 -1.21787e-06 1.88006e-07
1.31643e-05 1.88006e-07 -0.000121519
0.0002925 2.04069e-05 1.7692e-05
2.04069e-05 -0.000270355 8.72298e-07
1.7692e-05 8.72298e-07 -0.000358399
0.00640431 -3.07814e-05 2.06871e-06
-3.07814e-05 0.00376598 -1.83293e-06
2.06871e-06 -1.83293e-06 0.00379549
0.00654847 -5.58452e-05 0.000345689
-5.58452e-05 0.0038476 -7.27936e-06
0.000345689 -7.27936e-06 0.00387997
0.00280265 2.15803e-05 -0.000153437
2.15803e-05 0.00133388 -3.03288e-06
-0.000153437 -3.03288e-06 0.00128324
0.00115075 7.36582e-05 3.62102e-08
7.36582e-05 -6.78426e-05 -7.65526e-08
3.62102e-08 -7.65526e-08 -0.000206286
0.00215597 0.00012968 1.81365e-06
0.00012968 0.000172867 -6.07031e-07
1.81365e-06 -6.07031e-07 8.41798e-05
0.00620191 -2.2846e-05 -0.000156382
-2.2846e-05 0.00365322 -5.64636e-08
-0.000156382 -5.64636e-08 0.00364317
0.000327104 6.19619e-05 5.75793e-07
6.19619e-05 -0.000246506 3.26055e-07
5.75793e-07 3.26055e-07 -0.000344447
0.00116313 0.000115854 8.66294e-06
0.000115854 -7.16943e-05 7.22613e-07
8.66294e-06 7.22613e-07 -0.000221703
0.00679076 0.000159318 -1.00878e-05
0.000159318 0.00400868 -1.87671e-06
-1.00878e-05 -1.87671e-06 0.00403343
0.000347689 9.48634e-05 1.79256e-05
9.48634e-05 -0.000238682 6.04929e-06
1.79256e-05 6.04929e-06 -0.000345791
0.0070531 0.000291066 0.00038729
0.000291066 0.00419491 4.18445e-05
0.00038729 4.18445e-05 0.00420434
0.00190616 -5.32954e-05 -0.00026207
-5.32954e-05 0.000869177 1.75547e-06
-0.00026207 1.75547e-06 0.000872212
0.00155283 3.41107e-05 -6.66517e-05
3.41107e-05 0.000534356 -9.78057e-08
-6.66517e-05 -9.78057e-08 0.000469808
0.00122798 3.48537e-05 1.21426e-05
3.48537e-05 -1.30831e-05 4.62592e-07
1.21426e-05 4.62592e-07 -0.000136352
0.00632524 -5.15534e-05 6.5177e-06
-5.15534e-05 0.00372186 3.12197e-06
6.5177e-06 3.12197e-06 0.00375101
0.000337139 -9.98248e-06 1.81396e-05
-9.98248e-06 -0.000235262 1.02369e-06
1.81396e-05 1.02369e-06 -0.000322177
0.00641766 -9.18221e-05 0.000355108
-9.18221e-05 0.00378003 -6.44193e-06
0.000355108 -6.44193e-06 0.00380867
0.00145078 2.56619e-05 -7.22616e-05
2.56619e-05 0.00060814 -1.20903e-06
-7.22616e-05 -1.20903e-06 0.000565886
0.00153864 2.30758e-05 -6.80036e-05
2.30758e-05 0.000527065 -1.81405e-06
-6.80036e-05 -1.81405e-06 0.00045697
0.0011147 7.47111e-05 1.09558e-05
7.47111e-05 -9.41103e-05 4.09795e-07
1.09558e-05 4.09795e-07 -0.000233266
0.00409377 7.66755e-05 0.000132976
7.66755e-05 0.00228497 4.57007e-06
0.000132976 4.57007e-06 0.00227896
0.000335096 7.20103e-05 1.86358e-05
7.20103e-05 -0.000241117 4.19005e-06
1.86358e-05 4.19005e-06 -0.000339225
0.00689152 0.000146848 0.000370134
0.000146848 0.00406387 2.53221e-05
0.000370134 2.53221e-05 0.00409245
0.00625835 -1.83631e-05 -8.41259e-06
-1.83631e-05 0.00368369 -3.6233e-06
-8.41259e-06 -3.6233e-06 0.00371116
0.000323693 5.26102e-05 1.98246e-05
5.26102e-05 -0.000253818 2.50442e-06
1.98246e-05 2.50442e-06 -0.000333712
0.00622483 3.20092e-05 0.000341447
3.20092e-05 0.00365346 1.78501e-07
0.000341447 1.78501e-07 0.00368629
0.00391525 3.68156e-05 0.000143882
3.68156e-05 0.00217739 6.13907e-06
0.000143882 6.13907e-06 0.00217442
0.000351532 1.23749e-05 1.80046e-05
1.23749e-05 -0.000228675 2.2017e-06
1.80046e-05 2.2017e-06 -0.000318591
0.00663496 1.42197e-05 0.000355726
1.42197e-05 0.00390185 1.15992e-05
0.000355726 1.15992e-05 0.00393336
0.00632136 -0.000112402 0.000341247
-0.000112402 0.00372684 -4.52458e-06
0.000341247 -4.52458e-06 0.00375046
0.00637916 1.91284e-05 0.000346212
1.91284e-05 0.00374145 6.91143e-06
0.000346212 6.91143e-06 0.00377606
