# vtk DataFile Version 2.0
Wound Healing Simulation
ASCII
DATASET UNSTRUCTURED_GRID
POINTS 3012 float
69.9759 18.75 4
67.2507 60.3285 4
69.976 18.75 2
73.0099 25.446 4
71.1327 20.9142 4
68.6801 16.6661 4
67.8238 19.9264 3.97842
67.2507 60.3286 2
71.1327 54.0858 4
68.6801 58.3339 4
65.6939 62.2254 4
65.3105 59.0004 3.9776
74.6784 42.3946 4
73.7221 47.2057 4
69.9759 18.75 0
73.0099 25.446 2
68.6801 16.6661 2
71.1327 20.9142 2
67.8244 19.93 2
74.6792 32.6053 4
73.7222 27.7943 4
72.1454 23.1494 4
70.6128 26.2213 3.97811
68.8841 21.9582 3.97888
67.2507 14.6715 4
66.6352 17.9727 3.97747
65.7921 21.0282 3.9675
67.2507 60.3285 0
71.1327 54.0858 2
68.6801 58.3339 2
65.694 62.2255 2
65.3118 58.9958 2
72.1454 51.8506 4
69.9759 56.25 4
68.8347 53.1131 3.97812
64.0165 64.0165 4
66.609 57.1332 3.97818
63.8835 60.7644 3.97784
63.4957 57.7665 3.96848
60.3285 67.2507 4
74.6792 42.3947 2
73.7222 47.2057 2
74.9194 39.9526 4
74.2788 44.8158 4
72.1672 42.0857 3.97838
73.0099 49.554 4
71.248 46.598 3.97769
73.0099 25.446 0
71.1327 20.9142 0
68.6801 16.6661 0
67.8238 19.9264 0.0215794
74.6792 32.6053 2
73.7222 27.7943 2
67.2508 14.6715 2
72.1455 23.1494 2
70.6126 26.2219 2
66.6362 17.9774 2
68.8843 21.9605 2
65.7913 21.0293 2
74.9197 35.0474 4
74.2794 30.1841 4
72.1839 32.9439 3.97872
71.277 28.4318 3.97799
69.814 24.0597 3.97866
68.3426 26.9533 3.96704
66.7578 22.9355 3.96721
65.694 12.7746 4
65.3215 16.105 3.97683
64.7084 19.1995 3.96791
63.8494 22.0507 3.96513
71.1327 54.0858 0
65.6939 62.2254 0
68.6801 58.3339 0
65.3105 59.0004 0.0223962
72.1455 51.8506 2
69.9759 56.25 2
68.8348 53.111 2
64.0165 64.0165 2
66.6099 57.129 2
63.8854 60.7603 2
63.4945 57.7662 2
62.2254 65.694 4
58.8931 65.4134 3.98725
69.7673 50.9889 3.97785
67.782 55.1671 3.97825
66.6445 52.2076 3.96686
62.3338 62.4255 3.98014
64.6559 56.0284 3.9681
62.1978 59.3952 3.96815
61.8105 56.6694 3.96389
58.3339 68.6801 4
60.3285 67.2508 2
73.7221 47.2057 0
74.6784 42.3946 0
74.9197 39.9526 2
74.2794 44.8159 2
72.1666 42.0855 2
73.0099 49.554 2
71.2477 46.5977 2
75 37.5 4
72.4045 39.8025 3.97922
71.7814 44.3529 3.97838
69.8005 41.7901 3.96795
70.5736 48.8135 3.97752
68.908 46.0144 3.96735
74.6792 32.6053 0
73.7222 27.7943 0
67.2507 14.6715 0
72.1454 23.1494 0
70.6128 26.2213 0.0218906
68.8841 21.9582 0.0211194
66.6352 17.9727 0.0225332
65.7921 21.0282 0.0325029
74.9197 35.0474 2
74.2794 30.1841 2
72.1833 32.9442 2
71.2768 28.4323 2
65.694 12.7745 2
65.3231 16.1101 2
69.814 24.061 2
68.3423 26.9541 2
64.7075 19.2004 2
66.7572 22.9365 2
63.8495 22.0512 2
72.4124 35.2246 3.97917
71.8029 30.6768 3.97865
69.8368 33.2699 3.96813
68.9623 29.0399 3.96741
67.6068 24.914 3.96705
66.1446 27.6473 3.96708
64.0165 10.9835 4
64.7121 23.8448 3.96587
63.8875 14.3298 3.97745
63.5077 17.4547 3.96837
62.875 20.337 3.9642
61.9956 22.9787 3.96731
60.6822 11.1005 3.98192
57.6091 11.4572 3.973
72.1454 51.8506 0
69.9759 56.25 0
68.8347 53.1131 0.021878
64.0165 64.0165 0
63.8835 60.7644 0.022158
66.609 57.1332 0.0218159
63.4957 57.7665 0.0315248
62.2255 65.694 2
58.8953 65.4115 2
69.7672 50.9879 2
67.7824 55.1639 2
66.6438 52.2069 2
62.3358 62.4217 2
64.6548 56.0278 2
62.1968 59.3958 2
61.8113 56.6698 2
60.6667 63.9751 3.98308
57.0241 66.7347 3.98912
57.5557 63.6855 3.97524
67.5026 50.1755 3.96668
65.6969 54.1712 3.96732
64.4862 51.3708 3.96548
60.7689 60.9252 3.97085
62.7962 55.056 3.96457
60.6476 58.1436 3.96399
60.2917 55.762 3.9643
56.25 69.9759 4
58.3339 68.6801 2
60.3285 67.2507 0
58.9197 9.65811 3.98404
62.2254 9.30607 4
73.0099 49.554 0
74.2788 44.8158 0
71.248 46.598 0.0223083
72.1672 42.0857 0.0216203
74.9194 39.9526 0
75 37.5 2
72.4044 39.8025 2
71.7813 44.3525 2
69.7998 41.7898 2
70.5734 48.8131 2
68.9079 46.0139 2
72.4879 37.5124 3.9788
70.0381 39.6581 3.96822
69.4267 43.9076 3.96787
67.5504 41.4938 3.96937
68.2612 48.1063 3.96681
66.65 45.43 3.96829
74.9197 35.0474 0
74.2794 30.1841 0
72.1839 32.9439 0.0212821
71.277 28.4318 0.022011
65.694 12.7746 0
65.3215 16.105 0.0231704
69.814 24.0597 0.0213421
68.3426 26.9533 0.032959
66.7578 22.9355 0.0327876
64.7084 19.1995 0.0320929
63.8494 22.0507 0.0348661
72.4123 35.2247 2
71.8028 30.6774 2
69.8361 33.2704 2
68.9621 29.0406 2
64.0165 10.9835 2
63.8897 14.3347 2
63.5067 17.4556 2
67.6064 24.9149 2
66.1447 27.6478 2
62.8755 20.3373 2
64.7119 23.8454 2
61.9948 22.9794 2
60.6849 11.1041 2
57.6111 11.4563 2
70.0548 35.3932 3.96817
69.4637 31.1511 3.96779
67.6135 33.597 3.96897
66.7216 29.6338 3.96769
65.4752 25.7132 3.96651
64.0143 28.2853 3.97159
62.3393 12.6582 3.9795
62.7462 24.6715 3.96884
62.1934 15.7976 3.96913
61.7942 18.7026 3.96356
61.1309 21.3791 3.96518
60.2655 23.7825 3.97038
59.242 12.8002 3.97105
55.872 10.2424 3.97572
56.3991 13.1495 3.97018
69.7673 50.9889 0.022147
62.2254 65.694 0
58.8931 65.4134 0.0127475
67.782 55.1671 0.0217509
66.6445 52.2076 0.0331404
62.3338 62.4255 0.0198621
62.1978 59.3952 0.0318538
64.6559 56.0284 0.0318972
61.8105 56.6694 0.0361087
60.6689 63.9722 2
57.0258 66.7335 2
57.5564 63.686 2
67.5022 50.1748 2
65.696 54.1704 2
64.4863 51.3705 2
60.7678 60.9264 2
62.7967 55.0561 2
60.6474 58.1439 2
60.2926 55.7622 2
55.07 67.9316 3.99071
59.2151 62.3501 3.97193
55.8027 64.9048 3.97973
56.3207 62.0659 3.97269
65.2717 49.394 3.96635
63.6666 53.2789 3.96486
62.3158 50.6182 3.96783
59.3235 59.5377 3.96499
61.01 54.2815 3.96606
59.2573 56.9852 3.96283
59.1798 55.1499 3.96668
48.1006 68.5765 3.98636
50.9477 69.9314 3.9912
54.0858 71.1327 4
56.25 69.976 2
58.3339 68.6801 0
57.0571 8.33736 3.98591
60.3285 7.74928 4
58.9227 9.66095 2
62.2255 9.30602 2
70.5736 48.8135 0.0224773
71.7814 44.3529 0.0216227
68.908 46.0144 0.0326545
69.8005 41.7901 0.03205
72.4045 39.8025 0.02078
75 37.5 0
72.4873 37.5125 2
70.0379 39.658 2
69.4264 43.9072 2
67.55 41.4936 2
68.2609 48.1056 2
66.6492 45.4296 2
70.1261 37.5226 3.96824
67.7927 39.5112 3.96934
67.169 43.4631 3.96892
65.4224 41.1985 3.97589
66.006 47.4054 3.96743
64.4976 44.8239 3.97253
72.4124 35.2246 0.0208254
71.8029 30.6768 0.0213489
69.8368 33.2699 0.0318672
68.9623 29.0399 0.0325881
64.0165 10.9835 0
63.8875 14.3298 0.0225544
63.5077 17.4547 0.0316334
67.6068 24.914 0.0329487
66.1446 27.6473 0.0329228
64.7121 23.8448 0.0341251
62.875 20.337 0.0357994
61.9956 22.9787 0.0326866
60.6822 11.1005 0.0180846
57.6091 11.4572 0.0269953
70.0546 35.3935 2
69.4635 31.1516 2
67.6133 33.5973 2
66.7213 29.6343 2
62.342 12.6626 2
62.1923 15.7982 2
61.795 18.7026 2
65.4752 25.7138 2
64.0125 28.2859 2
61.1297 21.3797 2
62.7452 24.6722 2
60.2652 23.7835 2
59.2436 12.7994 2
56.4 13.1473 2
55.8733 10.2419 2
67.8331 35.5512 3.96936
67.2207 31.6309 3.96854
65.5732 33.9403 3.97507
64.5276 30.2175 3.97255
63.4169 26.4466 3.97028
62.048 28.823 3.97596
60.7704 14.2413 3.97015
60.8679 25.3907 3.97277
60.5995 17.1491 3.96428
60.1487 19.8558 3.96285
59.5092 22.3169 3.96685
58.7667 24.3921 3.97331
54.0358 9.14343 3.97804
57.9013 14.3643 3.96905
54.7814 12.0362 3.9729
55.3011 14.6935 3.96728
67.5026 50.1755 0.0333152
57.0241 66.7347 0.010879
60.6667 63.9751 0.016923
57.5557 63.6855 0.0247604
65.6969 54.1712 0.0326772
64.4862 51.3708 0.0345223
60.7689 60.9252 0.0291542
60.6476 58.1436 0.0360119
62.7962 55.056 0.0354256
60.2917 55.762 0.0356986
55.0714 67.931 2
59.2158 62.3532 2
55.8033 64.9052 2
56.3201 62.0682 2
65.2717 49.3936 2
63.6669 53.2788 2
62.3152 50.6178 2
59.3222 59.5388 2
61.0103 54.2815 2
59.2606 56.9858 2
59.182 55.15 2
53.042 68.9996 3.99106
53.9651 66.0098 3.98263
57.8721 60.8463 3.97024
54.6799 63.1973 3.975
55.2001 60.5835 3.97015
63.053 48.6284 3.96947
61.6415 52.5434 3.9669
60.0728 49.967 3.96998
57.9982 58.237 3.96522
59.2206 53.9061 3.96775
58.0401 55.7708 3.96215
50.1073 67.8548 3.98572
47.4618 66.5756 3.98213
46.0544 69.1556 3.9868
48.1008 68.5772 2
48.8017 70.7226 3.99141
50.9487 69.931 2
51.8506 72.1454 4
54.0858 71.1327 2
56.25 69.9759 0
55.1019 7.14172 3.98848
58.3339 6.31992 4
57.0596 8.33898 2
60.3286 7.74926 2
58.9197 9.65811 0.0159647
62.2254 9.30607 0
68.2612 48.1063 0.0331934
69.4267 43.9076 0.0321273
66.65 45.43 0.0317104
67.5504 41.4938 0.030628
70.0381 39.6581 0.0317779
72.4879 37.5124 0.0211964
70.1256 37.5226 2
67.7918 39.5111 2
67.1696 43.4628 2
65.4203 41.198 2
66.0062 47.405 2
64.4956 44.8233 2
67.8937 37.5234 3.96941
65.6618 39.3654 3.97618
65.0323 43.0073 3.9743
63.5374 40.9093 3.97681
63.8116 46.6871 3.97089
62.5711 44.1786 3.9765
70.0548 35.3932 0.0318264
69.4637 31.1511 0.0322098
67.6135 33.597 0.0310281
66.7216 29.6338 0.0323112
62.3393 12.6582 0.0205031
62.1934 15.7976 0.0308678
61.7942 18.7026 0.0364382
65.4752 25.7132 0.0334938
64.0143 28.2853 0.0284055
62.7462 24.6715 0.0311631
61.1309 21.3791 0.0348228
60.2655 23.7825 0.02962
59.242 12.8002 0.0289544
56.3991 13.1495 0.0298151
55.872 10.2424 0.0242823
67.832 35.5514 2
67.2213 31.6312 2
65.5705 33.9408 2
64.5255 30.2181 2
60.7706 14.242 2
60.5985 17.1496 2
60.1491 19.856 2
63.4156 26.4473 2
62.0456 28.8239 2
59.5109 22.3177 2
60.8672 25.3917 2
58.7659 24.3936 2
57.9016 14.3631 2
55.3017 14.6926 2
54.0371 9.14182 2
54.7824 12.0333 2
65.7564 35.6743 3.9759
65.0492 32.1741 3.97346
64.0943 34.2697 3.97674
62.3685 30.6763 3.97686
61.453 27.1225 3.97399
60.5891 29.1997 3.97718
59.2992 15.6955 3.96612
59.0898 25.8684 3.97593
59.0854 18.3923 3.96181
58.6131 20.9135 3.96356
58.0796 23.1689 3.96808
57.7323 24.7486 3.97454
52.1112 8.1587 3.98133
53.0542 11.0341 3.9742
56.6605 15.7845 3.96725
53.8001 13.7206 3.97097
54.3556 16.0527 3.96646
55.07 67.9316 0.00928912
65.2717 49.394 0.0336487
55.8027 64.9048 0.0202727
59.2151 62.3501 0.0280721
56.3207 62.0659 0.0273143
63.6666 53.2789 0.0351351
62.3158 50.6182 0.0321683
59.3235 59.5377 0.0350089
59.2573 56.9852 0.0371731
61.01 54.2815 0.0339351
59.1798 55.1499 0.0333217
53.0431 68.9992 2
53.9657 66.0104 2
57.8714 60.8486 2
54.6796 63.198 2
55.1997 60.5854 2
63.0519 48.6279 2
61.6417 52.5432 2
60.073 49.9664 2
57.9974 58.238 2
59.2229 53.9061 2
58.0376 55.7697 2
52.0685 66.9976 3.98507
52.9511 64.2105 3.97936
56.6324 59.4602 3.96791
53.6726 61.601 3.97494
54.2402 59.2857 3.97147
60.7549 47.8283 3.97137
59.5452 52.0556 3.96842
57.7656 49.5488 3.972
56.735 56.9519 3.96594
56.9828 54.068 3.96593
50.1075 67.8551 2
49.3357 65.9161 3.98219
47.462 66.5762 2
46.8906 64.7277 3.9808
45.5569 67.0925 3.98225
43.9719 69.5875 3.98729
46.0546 69.1561 2
46.6082 71.367 3.99157
48.1006 68.5765 0.0136438
48.8026 70.7226 2
49.554 73.0099 4
50.9477 69.9314 0.00879587
51.8506 72.1455 2
54.0858 71.1327 0
53.0639 6.07259 3.99064
55.104 7.14215 2
56.25 5.02411 4
58.3339 6.3199 2
57.0571 8.33736 0.0140937
60.3285 7.74928 0
66.006 47.4054 0.0325725
67.169 43.4631 0.0310751
64.4976 44.8239 0.0274689
65.4224 41.1985 0.0241128
67.7927 39.5112 0.0306587
70.1261 37.5226 0.031758
67.8933 37.5234 2
65.6593 39.3652 2
65.0296 43.0067 2
63.5348 40.909 2
63.8098 46.6864 2
62.5689 44.1778 2
65.7685 37.5034 3.97612
63.687 39.2579 3.97693
63.0977 42.52 3.97673
62.1534 40.673 3.97673
61.7248 45.8736 3.97364
61.1502 43.6346 3.97656
67.8331 35.5512 0.030635
67.2207 31.6309 0.0314573
65.5732 33.9403 0.0249311
64.5276 30.2175 0.0274476
60.7704 14.2413 0.0298522
60.5995 17.1491 0.0357247
60.1487 19.8558 0.0371471
63.4169 26.4466 0.0297217
62.048 28.823 0.0240379
60.8679 25.3907 0.0272329
59.5092 22.3169 0.0331505
58.7667 24.3921 0.0266855
57.9013 14.3643 0.0309471
55.3011 14.6935 0.032724
54.0358 9.14343 0.0219597
54.7814 12.0362 0.0270965
65.7542 35.6747 2
65.0469 32.1746 2
64.0917 34.2702 2
62.3666 30.6771 2
59.2983 15.6959 2
59.0865 18.3921 2
58.6175 20.914 2
61.4513 27.1235 2
60.5882 29.2007 2
58.0766 23.1709 2
59.0896 25.8697 2
57.7332 24.7507 2
56.6605 15.7831 2
54.3565 16.0542 2
53.7999 13.7136 2
52.112 8.15746 2
53.0554 11.0321 2
63.8923 35.6448 3.97673
62.6947 33.0786 3.9769
60.316 30.6712 3.97654
59.2977 27.9818 3.9765
57.9177 17.0206 3.96374
57.467 25.8166 3.97632
57.6308 19.532 3.96111
57.1858 21.9208 3.96372
56.9272 24.0418 3.9687
50.1119 7.28825 3.98518
51.2305 10.1356 3.97623
52.1639 12.8241 3.97522
55.5105 17.0225 3.96654
52.9621 15.3146 3.9687
53.73 17.0421 3.9712
53.042 68.9996 0.00894453
53.9651 66.0098 0.0173721
63.053 48.6284 0.030529
54.6799 63.1973 0.0250004
57.8721 60.8463 0.0297573
55.2001 60.5835 0.029846
61.6415 52.5434 0.0330987
60.0728 49.967 0.0300154
57.9982 58.237 0.0347799
58.0401 55.7708 0.0378515
59.2206 53.9061 0.0322532
52.069 66.9981 2
52.9512 64.2112 2
56.6321 59.4617 2
53.6717 61.6006 2
54.24 59.2878 2
60.7543 47.8276 2
59.5461 52.0552 2
57.7628 49.5474 2
56.7336 56.9562 2
56.98 54.0664 2
51.1667 65.1224 3.98152
52.0406 62.527 3.97669
55.4531 58.2174 3.9693
52.8183 60.0999 3.97645
53.6118 58.4353 3.97483
57.97 46.7747 3.97509
57.3556 51.7234 3.9686
55.9347 49.4734 3.97107
55.3987 55.746 3.96465
55.1859 53.3211 3.96288
50.1073 67.8548 0.0142814
49.3359 65.9162 2
48.6161 64.115 3.98102
47.4618 66.5756 0.0178696
45.557 67.0932 2
46.891 64.7282 2
46.3792 63.0424 3.98249
45.1312 65.188 3.98016
43.6302 67.4635 3.98303
41.8596 69.8746 3.98688
43.9719 69.588 2
44.3754 71.8617 3.9916
46.0544 69.1556 0.013197
46.6089 71.3671 2
47.2057 73.7222 4
48.8017 70.7226 0.0085943
49.554 73.0099 2
51.8506 72.1454 0
50.9544 5.13296 3.99166
53.0654 6.07275 2
54.0858 3.86728 4
55.1019 7.14172 0.0115181
56.25 5.02406 2
58.3339 6.31992 0
63.8116 46.6871 0.0291072
65.0323 43.0073 0.0256969
62.5711 44.1786 0.0235006
63.5374 40.9093 0.0231877
65.6618 39.3654 0.0238185
67.8937 37.5234 0.0305885
65.7659 37.5034 2
63.6844 39.2579 2
63.0955 42.5193 2
62.1522 40.6726 2
61.7229 45.8727 2
61.1485 43.6338 2
63.7496 37.4588 3.97678
61.8674 39.3406 3.977
60.8967 41.9189 3.97679
59.9329 44.7107 3.97681
65.7564 35.6743 0.0240992
65.0492 32.1741 0.0265374
64.0943 34.2697 0.0232591
62.3685 30.6763 0.0231388
59.2992 15.6955 0.033878
59.0854 18.3923 0.038186
58.6131 20.9135 0.0364398
61.453 27.1225 0.026009
60.5891 29.1997 0.0228185
59.0898 25.8684 0.0240736
58.0796 23.1689 0.0319212
57.7323 24.7486 0.0254639
56.6605 15.7845 0.03275
54.3556 16.0527 0.0335445
53.8001 13.7206 0.029032
52.1112 8.1587 0.0186693
53.0542 11.0341 0.0257983
63.8898 35.6449 2
62.6931 33.0792 2
60.3152 30.6718 2
57.9167 17.0205 2
57.6358 19.5312 2
57.1861 21.9224 2
59.2968 27.9832 2
56.9319 24.0437 2
57.4667 25.8192 2
50.1126 7.28656 2
55.5121 17.0222 2
53.7301 17.0403 2
52.9622 15.3119 2
52.1651 12.8257 2
51.2318 10.134 2
61.9072 35.3776 3.9767
59.9475 32.7942 3.97663
58.2669 30.1534 3.9766
56.9622 27.4829 3.97699
56.5946 18.2065 3.9621
56.0004 25.2118 3.9748
56.2348 20.5964 3.96112
55.8748 22.9695 3.9623
48.0566 6.52941 3.98832
49.3239 9.33903 3.97961
50.4278 12.0146 3.97591
51.3638 14.5352 3.96935
54.3746 17.9817 3.96269
52.3361 17.1117 3.96051
52.0685 66.9976 0.0149274
52.9511 64.2105 0.0206427
60.7549 47.8283 0.0286283
53.6726 61.601 0.025059
56.6324 59.4602 0.0320887
54.2402 59.2857 0.0285271
59.5452 52.0556 0.0315751
57.7656 49.5488 0.0280039
56.735 56.9519 0.0340619
56.9828 54.068 0.0340652
51.1668 65.1231 2
52.0401 62.5282 2
55.453 58.2189 2
52.8177 60.1032 2
53.6115 58.4369 2
57.969 46.7738 2
57.3549 51.7222 2
55.9306 49.472 2
55.398 55.7462 2
55.1889 53.3215 2
50.3435 63.3726 3.98087
51.2331 60.9139 3.97624
54.1762 57.2318 3.97054
52.2857 58.5936 3.97318
56.2448 44.0873 3.97715
55.1184 47.8043 3.97419
54.8106 51.313 3.96542
53.8894 54.4902 3.96512
49.3357 65.9161 0.0178117
48.6163 64.115 2
47.9579 62.4646 3.98121
45.5569 67.0925 0.0177504
46.8906 64.7277 0.0192014
43.6303 67.464 2
46.3795 63.043 2
45.1315 65.1887 2
45.9832 61.5735 3.98663
44.7652 63.4405 3.97911
43.3559 65.498 3.98033
41.6624 67.6816 3.98255
39.7018 70.0205 3.98676
41.8595 69.8751 2
42.1098 72.2064 3.99192
43.9719 69.5875 0.0127086
44.376 71.8618 2
44.8159 74.2794 4
46.6082 71.367 0.00843376
47.2057 73.7222 2
49.554 73.0099 0
48.7854 4.32354 3.99242
50.9554 5.13254 2
51.8506 2.85458 4
53.0639 6.07259 0.00936107
54.0858 3.86728 2
56.25 5.02411 0
61.7248 45.8736 0.026365
63.0977 42.52 0.0232736
61.1502 43.6346 0.0234392
62.1534 40.673 0.0232653
63.687 39.2579 0.0230699
65.7685 37.5034 0.0238836
63.747 37.4586 2
61.8668 39.3406 2
60.8964 41.9186 2
59.9324 44.7099 2
61.7 37.4432 3.97693
59.8711 39.8204 3.97694
58.5788 42.8548 3.9766
63.8923 35.6448 0.0232687
62.6947 33.0786 0.0231016
60.316 30.6712 0.0234628
57.9177 17.0206 0.0362556
57.6308 19.532 0.038888
57.1858 21.9208 0.0362759
59.2977 27.9818 0.0234988
57.467 25.8166 0.0236847
56.9272 24.0418 0.0313015
55.5105 17.0225 0.0334612
53.73 17.0421 0.0288035
52.9621 15.3146 0.0312965
50.1119 7.28825 0.0148178
52.1639 12.8241 0.024783
51.2305 10.1356 0.0237666
61.9066 35.3778 2
59.9468 32.7942 2
58.2672 30.1532 2
56.5955 18.2063 2
56.2392 20.5943 2
55.8784 22.9722 2
56.9615 27.4844 2
55.9983 25.2146 2
48.0569 6.52727 2
49.3249 9.33696 2
54.3759 17.9818 2
52.3348 17.1069 2
51.3629 14.5314 2
50.4294 12.0123 2
59.5122 35.1433 3.97676
57.5604 32.3358 3.97604
56.1535 29.4446 3.977
55.0727 26.7333 3.97664
55.2744 19.2541 3.96046
54.6545 24.1821 3.96511
54.8364 21.6572 3.96015
45.963 5.88328 3.98901
43.3744 7.47539 3.98535
47.3555 8.6281 3.98349
48.5973 11.3063 3.97564
49.7017 13.7667 3.97379
50.6094 16.1788 3.97295
53.0743 18.7392 3.96103
51.2664 18.1485 3.97515
51.1667 65.1224 0.0184823
52.0406 62.527 0.023312
57.97 46.7747 0.0249135
52.8183 60.0999 0.0235515
55.4531 58.2174 0.0306963
53.6118 58.4353 0.0251698
57.3556 51.7234 0.0313991
55.9347 49.4734 0.0289288
55.3987 55.746 0.0353522
55.1859 53.3211 0.037125
50.3434 63.3727 2
51.2322 60.9128 2
54.1774 57.2338 2
52.2848 58.5951 2
56.245 44.0864 2
55.117 47.803 2
54.8135 51.3131 2
53.8899 54.492 2
49.5857 61.7354 3.97912
55.039 41.6563 3.97482
50.5454 59.2999 3.97133
52.1288 56.4521 3.96835
53.6848 45.451 3.97464
52.9797 49.2339 3.96936
52.4778 52.7866 3.96142
48.6161 64.115 0.0189803
47.9577 62.464 2
47.3212 60.9972 3.9865
43.6302 67.4635 0.0169654
45.1312 65.188 0.0198384
46.3792 63.0424 0.0175051
41.6628 67.6816 2
43.3561 65.4987 2
45.9831 61.5745 2
44.7656 63.4412 2
45.7572 60.6185 3.98468
44.4805 61.818 3.98041
43.1453 63.7132 3.97866
41.5456 65.6348 3.97883
39.632 67.7597 3.98238
37.5259 70.0451 3.98556
39.7017 70.0211 2
39.8168 72.4028 3.99168
41.8596 69.8746 0.0131166
42.1103 72.2066 2
42.3947 74.6792 4
44.3754 71.8617 0.00839805
44.8159 74.2794 2
47.2057 73.7222 0
43.852 5.36052 3.9886
46.5715 3.64769 3.99264
48.7858 4.32271 2
49.554 1.99015 4
50.9544 5.13296 0.00834341
51.8506 2.85453 2
54.0858 3.86728 0
59.9329 44.7107 0.0231887
60.8967 41.9189 0.0232071
61.8674 39.3406 0.0230006
63.7496 37.4588 0.0232178
61.6993 37.4432 2
59.8715 39.8201 2
58.579 42.8542 2
59.3681 37.5667 3.97732
57.5203 40.6148 3.97709
54.448 39.6711 3.97526
61.9072 35.3776 0.0232985
59.9475 32.7942 0.0233699
58.2669 30.1534 0.0234022
56.5946 18.2065 0.0379012
56.2348 20.5964 0.0388849
55.8748 22.9695 0.037696
56.9622 27.4829 0.0230137
56.0004 25.2118 0.0252034
54.3746 17.9817 0.0373132
52.3361 17.1117 0.0394888
51.3638 14.5352 0.0306482
48.0566 6.52941 0.0116825
49.3239 9.33903 0.02039
50.4278 12.0146 0.0240886
59.5129 35.1433 2
45.9627 5.88283 2
43.3743 7.47466 2
57.561 32.3366 2
56.1534 29.4449 2
55.2691 19.2559 2
54.846 21.6589 2
54.6518 24.1843 2
55.0703 26.7355 2
47.3561 8.62402 2
48.5988 11.3035 2
53.0735 18.7326 2
51.2674 18.1485 2
50.6101 16.1798 2
49.7018 13.7667 2
56.9057 34.7933 3.97717
55.249 31.6024 3.97624
54.0738 28.5415 3.97726
53.4475 25.6516 3.97657
53.8729 20.2208 3.95944
53.3791 22.8383 3.95474
41.3996 7.08132 3.98522
45.3609 7.99543 3.987
42.8667 9.41911 3.98143
46.6662 10.6611 3.98095
47.7358 13.1185 3.97638
48.9119 15.4324 3.97133
49.9691 17.7442 3.96826
51.5871 19.4274 3.9686
50.3435 63.3726 0.0191288
51.2331 60.9139 0.0237588
56.2448 44.0873 0.0228496
55.1184 47.8043 0.0258104
52.2857 58.5936 0.0268233
54.1762 57.2318 0.0294636
54.8106 51.313 0.0345781
53.8894 54.4902 0.0348773
49.5849 61.7351 2
55.0329 41.6528 2
50.5445 59.3001 2
52.1299 56.4548 2
53.6835 45.4497 2
52.9889 49.2338 2
52.4794 52.7873 2
48.8342 60.1898 3.976
51.8467 42.5285 3.9829
49.7479 57.5962 3.9672
50.474 54.3842 3.96401
51.3487 47.158 3.97537
50.9456 50.8679 3.95486
47.5228 43.6453 3.97958
47.9579 62.4646 0.0187898
47.3208 60.9966 2
46.6047 59.7853 3.98995
41.6624 67.6816 0.0174504
43.3559 65.498 0.0196706
44.7652 63.4405 0.0208851
45.9832 61.5735 0.0133741
39.6324 67.7606 2
41.5456 65.6341 2
45.7572 60.6193 2
43.1456 63.7138 2
44.4801 61.8191 2
44.6137 60.2762 3.99025
42.9478 62.0655 3.97451
41.5996 63.8055 3.97868
39.6471 65.6006 3.97808
37.5631 67.7402 3.98045
31.6977 65.1172 3.97843
33.3924 67.4781 3.98037
35.3338 69.9551 3.98566
37.5258 70.0461 2
37.5091 72.4574 3.9921
39.7018 70.0205 0.0132422
39.8172 72.4032 2
39.9526 74.9197 4
42.1098 72.2064 0.00808313
42.3947 74.6792 2
44.8159 74.2794 0
41.7365 4.96953 3.98891
43.8521 5.35959 2
44.3267 3.11094 3.99295
46.5716 3.64745 2
47.2057 1.27793 4
48.7854 4.32354 0.0075768
49.554 1.99013 2
51.8506 2.85458 0
58.5788 42.8548 0.0233982
59.8711 39.8204 0.0230628
61.7 37.4432 0.023069
59.3684 37.5675 2
57.52 40.6153 2
54.4422 39.6755 2
56.2785 37.8832 3.97703
48.8737 41.2372 3.98021
52.4379 39.308 3.98388
39.4433 6.80519 3.98562
59.5122 35.1433 0.0232387
57.5604 32.3358 0.0239635
56.1535 29.4446 0.0229994
55.2744 19.2541 0.0395351
54.8364 21.6572 0.0398548
54.6545 24.1821 0.034892
55.0727 26.7333 0.0233594
53.0743 18.7392 0.0389702
51.2664 18.1485 0.024849
50.6094 16.1788 0.0270454
45.963 5.88328 0.0109947
49.7017 13.7667 0.0262063
47.3555 8.6281 0.0165074
48.5973 11.3063 0.0243599
43.3744 7.47539 0.0146545
56.9053 34.7938 2
41.3997 7.08021 2
45.3602 7.99545 2
42.8662 9.41902 2
55.2518 31.6011 2
54.0743 28.5417 2
53.875 20.226 2
53.3763 22.8365 2
53.4447 25.6526 2
46.667 10.6538 2
47.737 13.1132 2
51.5904 19.4283 2
49.9682 17.7413 2
48.9103 15.435 2
54.2673 33.9898 3.9755
52.9793 30.635 3.97675
52.1687 27.3733 3.97512
51.8983 24.2629 3.97802
52.2685 21.1694 3.97089
41.0138 9.05405 3.98057
44.7268 9.99492 3.98533
42.4667 10.9045 3.99197
45.9979 12.7393 3.976
47.6639 14.6059 3.97078
48.076 17.0131 3.96921
49.776 19.7942 3.97065
49.5857 61.7354 0.0208781
50.5454 59.2999 0.0286704
55.039 41.6563 0.0251841
53.6848 45.451 0.0253577
52.9797 49.2339 0.0306406
52.1288 56.4521 0.0316469
52.4778 52.7866 0.0385769
48.8329 60.188 2
51.8639 42.5377 2
49.746 57.5969 2
50.4745 54.387 2
51.3552 47.1582 2
50.9486 50.8675 2
47.5351 43.6733 2
47.9591 58.7204 3.97831
49.4898 45.1683 3.97963
48.5229 55.8874 3.96541
48.9535 52.544 3.97614
49.328 48.9547 3.97318
45.2719 39.8178 3.86926
45.7535 42.5244 3.90134
45.9668 45.6603 3.98181
43.0892 41.0504 3.72164
41.6974 41.9016 3.53755
47.3212 60.9972 0.0134957
46.6035 59.7844 2
45.4478 58.7853 3.99042
39.632 67.7597 0.0176163
41.5456 65.6348 0.0211746
43.1453 63.7132 0.0213422
44.4805 61.818 0.0195916
45.7572 60.6185 0.0153191
41.5997 63.8053 2
37.5633 67.7412 2
39.6471 65.6018 2
44.6143 60.2775 2
42.9474 62.066 2
41.7511 62.4758 3.97705
42.4744 59.9569 3.97866
39.8941 63.5374 3.97673
37.642 65.4966 3.97729
35.4634 67.6496 3.98043
33.5756 65.3299 3.97712
31.9602 63.2835 3.97738
29.8846 64.7088 3.98087
31.6976 65.1182 2
31.3773 67.188 3.98083
33.3925 67.4791 2
33.1572 69.7489 3.98576
35.3336 69.9561 2
35.1954 72.3717 3.99198
37.5259 70.0451 0.0144376
37.5092 72.4579 2
37.5 75 4
39.8168 72.4028 0.00831816
39.9526 74.9197 2
42.3947 74.6792 0
39.6244 4.71734 3.98943
41.7367 4.96867 2
42.0631 2.71828 3.99326
43.852 5.36052 0.0114038
44.3268 3.11028 2
44.8158 0.721173 4
46.5715 3.64769 0.00735764
47.2057 1.27779 2
49.554 1.99015 0
57.5203 40.6148 0.0229063
59.3681 37.5667 0.022683
54.448 39.6711 0.0247418
48.9016 41.2537 2
56.2779 37.8813 2
52.4365 39.2787 2
53.2912 36.6281 3.97794
46.7988 40.3367 3.90479
49.8178 38.5166 3.98682
37.5173 6.67619 3.98564
39.4433 6.80354 2
39.2115 8.69627 3.98308
35.9435 8.49552 3.98425
56.9057 34.7933 0.0228341
55.249 31.6024 0.0237561
54.0738 28.5415 0.0227423
53.8729 20.2208 0.0405636
53.3791 22.8383 0.0452571
53.4475 25.6516 0.0234293
51.5871 19.4274 0.031398
49.9691 17.7442 0.0317424
48.9119 15.4324 0.0286683
45.3609 7.99543 0.0129996
47.7358 13.1185 0.0236198
46.6662 10.6611 0.0190531
41.3996 7.08132 0.014777
42.8667 9.41911 0.0185712
54.2634 33.9901 2
41.014 9.05306 2
44.7248 9.99571 2
42.4665 10.9058 2
52.9756 30.6342 2
52.1769 27.3733 2
52.2734 21.1713 2
51.8973 24.2691 2
45.9989 12.7281 2
47.6628 14.5991 2
49.7807 19.7975 2
48.073 17.0103 2
51.7898 32.8984 3.98217
50.7874 29.3314 3.97678
50.4519 25.8839 3.97188
49.8239 22.39 3.98536
40.568 11.6154 3.98131
43.8541 11.9116 3.97967
45.7823 15.4422 3.98599
47.4727 19.4001 3.97814
45.7098 37.4799 3.86365
48.8342 60.1898 0.0240018
49.7479 57.5962 0.0328009
51.8467 42.5285 0.0171001
51.3487 47.158 0.0246342
50.9456 50.8679 0.0451427
50.474 54.3842 0.0359918
47.5228 43.6453 0.0204153
47.9575 58.7228 2
49.5045 45.1808 2
48.5195 55.889 2
48.9539 52.5491 2
49.3343 48.9532 2
45.339 39.8345 2
45.7819 42.5655 2
45.9754 45.6693 2
43.1197 41.0839 2
41.7256 41.9242 2
46.7951 57.324 3.97691
43.8291 39.3556 3.72444
42.054 40.797 3.57347
47.6187 47.1925 3.98031
47.0569 54.2008 3.96611
47.3547 50.6923 3.97811
44.426 47.2812 3.97549
44.4016 41.8691 3.85333
44.453 44.4018 3.91123
42.0492 42.5112 3.75109
40.668 42.2064 3.55318
46.6047 59.7853 0.0100546
45.4473 58.7843 2
43.8542 57.6847 3.97956
37.5631 67.7402 0.0195518
39.6471 65.6006 0.021919
41.5996 63.8055 0.0213177
42.9478 62.0655 0.0254949
44.6137 60.2762 0.009754
35.4637 67.6505 2
41.7506 62.4776 2
39.8938 63.5383 2
37.6421 65.4973 2
42.4752 59.9565 2
40.6219 61.6216 3.9792
40.4367 58.1529 3.97939
37.8378 63.1945 3.97527
35.5729 65.419 3.97776
33.5757 65.3308 2
31.9601 63.285 2
33.6295 63.322 3.97552
30.3795 62.8439 3.98019
32.126 61.9866 3.98501
26.8755 61.478 3.97709
28.0645 64.1369 3.97833
29.8841 64.7099 2
29.4072 66.7519 3.98172
31.6977 65.1172 0.0215726
31.3774 67.1889 2
31.0149 69.4139 3.9855
33.3924 67.4781 0.0196261
33.157 69.7498 2
32.8931 72.1462 3.99177
35.3338 69.9551 0.0143423
35.1951 72.3723 2
35.0474 74.9194 4
37.5091 72.4574 0.00789845
37.5 75 2
39.9526 74.9197 0
35.6219 6.72703 3.98538
37.5241 4.61675 3.98958
39.6244 4.71596 2
39.7896 2.47494 3.99318
41.7365 4.96953 0.0110899
42.063 2.71775 2
42.3946 0.32156 4
44.3267 3.11094 0.00704613
44.8159 0.72056 2
47.2057 1.27793 0
48.8737 41.2372 0.0197879
56.2785 37.8832 0.0229655
52.4379 39.308 0.0161201
46.8253 40.3316 2
49.8206 38.5101 2
53.293 36.6441 2
50.6153 35.5737 3.97501
47.4706 37.7679 3.92103
45.2853 35.1607 3.86753
43.1066 33.9212 3.71935
41.7156 33.075 3.53567
37.4589 8.53749 3.98449
37.5172 6.67487 2
39.4433 6.80519 0.0143831
39.2119 8.69432 2
38.9768 10.1316 3.98333
35.8997 9.77765 3.98033
34.153 8.82705 3.98235
35.9432 8.49373 2
54.2673 33.9898 0.0244992
52.9793 30.635 0.0232522
52.1687 27.3733 0.0248776
52.2685 21.1694 0.0291146
51.8983 24.2629 0.0219809
49.776 19.7942 0.0293529
48.076 17.0131 0.0307858
47.6639 14.6059 0.0292242
44.7268 9.99492 0.0146717
45.9979 12.7393 0.024
41.0138 9.05405 0.0194339
42.4667 10.9045 0.00803354
51.7948 32.8953 2
40.5692 11.6156 2
43.8522 11.9156 2
50.8087 29.3297 2
50.4524 25.8843 2
49.8265 22.3902 2
45.7777 15.4165 2
47.4749 19.418 2
49.355 31.5219 3.98748
48.8511 27.6517 3.97753
49.1586 24.5474 3.97601
47.119 22.1562 3.98611
38.3015 12.7439 3.97724
42.0945 14.3085 3.97988
44.7795 18.5549 3.97524
44.2258 37.4875 3.73204
45.7949 37.4832 2
47.9591 58.7204 0.0216865
48.5229 55.8874 0.0345866
49.4898 45.1683 0.0203709
49.328 48.9547 0.0268221
48.9535 52.544 0.0238646
45.2719 39.8178 0.130743
45.7535 42.5244 0.0986573
45.9668 45.6603 0.0181929
43.0892 41.0504 0.278362
41.6974 41.9016 0.462451
46.7926 57.326 2
43.877 39.3772 2
42.0533 40.811 2
47.6264 47.194 2
47.0532 54.2051 2
47.3585 50.6989 2
44.4489 47.2639 2
44.4338 41.8961 2
44.4917 44.424 2
42.0995 42.5524 2
40.6919 42.213 2
45.3365 55.9067 3.99152
42.392 39.2403 3.58336
40.5527 40.6773 3.68783
45.7822 48.8434 3.9985
45.3726 52.4762 3.98156
43.157 48.2738 3.99553
43.0711 45.9203 3.8987
43.198 43.6392 3.84225
40.7813 43.576 3.72781
39.2093 42.4727 3.57582
45.4478 58.7853 0.00958308
43.8528 57.6885 2
42.0815 56.2739 3.98371
35.4634 67.6496 0.0195727
37.642 65.4966 0.0227053
39.8941 63.5374 0.0232655
41.7511 62.4758 0.0229536
42.4744 59.9569 0.0213423
35.5731 65.4199 2
40.622 61.6211 2
37.8377 63.1948 2
40.4372 58.1542 2
38.9114 56.4485 3.99265
38.2499 60.3065 3.97953
35.6075 63.1886 3.97519
33.5756 65.3299 0.0228756
31.9602 63.2835 0.0226212
33.6296 63.323 2
30.3793 62.845 2
32.1266 61.9882 2
28.6853 62.1836 3.97908
33.347 61.4948 3.97743
31.0728 61.2068 3.9804
27.5824 59.57 3.98019
23.8115 59.0584 3.9844
25.0425 60.8525 3.97718
26.8757 61.4782 2
26.2325 63.4664 3.97765
28.0643 64.1361 2
27.4641 66.1763 3.98119
29.8846 64.7088 0.0191288
29.4071 66.7523 2
28.9075 68.9396 3.98514
31.3773 67.188 0.0191686
31.0146 69.4145 2
30.6159 71.7774 3.99121
33.1572 69.7489 0.0142388
32.8925 72.1466 2
32.6054 74.6784 4
35.1954 72.3717 0.00801938
35.0474 74.9197 2
37.5 75 0
33.7249 6.98285 3.9843
35.4361 4.68682 3.98946
35.6218 6.72594 2
37.5153 2.38739 3.99325
37.524 4.61577 2
39.6244 4.71734 0.010566
39.7893 2.4742 2
39.9526 0.0806499 4
42.0631 2.71828 0.00674085
42.3947 0.320817 2
44.8158 0.721173 0
43.8364 35.6204 3.72526
42.0656 34.1747 3.56575
46.7988 40.3367 0.0952054
49.8178 38.5166 0.0131777
53.2912 36.6281 0.0220554
47.4666 37.739 2
50.6241 35.5679 2
45.3474 35.137 2
43.144 33.8851 2
41.7413 33.0525 2
47.6528 34.3119 3.95132
44.4239 33.089 3.84273
42.0746 32.4685 3.74659
40.6842 32.7796 3.55138
37.3115 10.6349 3.98096
37.4591 8.53576 2
37.5173 6.67619 0.0143554
39.2115 8.69627 0.0169152
38.9783 10.1301 2
34.7559 10.3866 3.98123
35.9003 9.77414 2
32.38 9.37451 3.97918
34.1517 8.82416 2
35.9435 8.49552 0.0157529
51.7898 32.8984 0.0178298
50.7874 29.3314 0.0232196
50.4519 25.8839 0.0281238
49.8239 22.39 0.014641
47.4727 19.4001 0.0218642
45.7823 15.4422 0.0140124
43.8541 11.9116 0.0203275
40.568 11.6154 0.0186923
49.3712 31.5187 2
38.3017 12.7421 2
42.0962 14.3151 2
48.8608 27.6521 2
49.1596 24.5438 2
47.1116 22.1499 2
44.7808 18.5935 2
47.2243 29.6436 3.9849
46.8461 25.285 3.97503
44.2438 21.5223 3.97915
36.5846 12.9485 3.97492
38.6824 14.836 3.97542
41.7414 17.9017 3.97744
42.5326 37.4754 3.61504
44.2723 37.4859 2
45.7098 37.4799 0.136349
46.7951 57.324 0.0230875
47.0569 54.2008 0.0338891
47.6187 47.1925 0.0196923
47.3547 50.6923 0.0218943
43.8291 39.3556 0.275564
44.4016 41.8691 0.146673
44.453 44.4018 0.0887703
44.426 47.2812 0.0245119
42.0492 42.5112 0.248909
42.054 40.797 0.426528
40.668 42.2064 0.446819
45.3333 55.9078 2
42.3881 39.2444 2
40.5671 40.6606 2
45.7877 48.8535 2
45.3704 52.4812 2
43.1682 48.2919 2
43.125 45.9602 2
43.2426 43.6694 2
40.8155 43.6292 2
39.2072 42.481 2
43.6639 54.3841 3.99935
40.6581 39.0996 3.70226
39.0917 40.7468 3.66489
43.4779 50.3475 4.00554
41.7795 47.4515 3.93477
41.6871 45.0238 3.85662
39.3368 44.2351 3.71038
37.504 42.5721 3.60825
43.8542 57.6847 0.0204446
42.0812 56.2754 2
40.3909 54.8508 3.98653
35.5729 65.419 0.0222416
37.8378 63.1945 0.0247338
40.6219 61.6216 0.020804
40.4367 58.1529 0.0206058
35.6075 63.1888 2
38.2501 60.3072 2
38.9125 56.44 2
37.9872 55.1437 3.9935
36.9329 57.6036 3.98941
35.3648 60.8936 3.97793
33.6295 63.322 0.0244773
30.3795 62.8439 0.0198104
32.126 61.9866 0.0149893
33.3478 61.496 2
28.6853 62.1846 2
31.0736 61.2091 2
29.4138 60.2665 3.97614
32.3637 59.7191 3.98817
28.0474 58.3524 3.99995
27.5841 59.5705 2
25.4001 58.5743 3.97813
22.7877 58.2118 3.96885
23.4109 60.3256 3.97917
23.8129 59.0589 2
25.0429 60.8524 2
24.4368 62.7574 3.97722
26.8755 61.478 0.0229129
26.2327 63.4673 2
25.5489 65.4845 3.97971
28.0645 64.1369 0.0216736
27.4641 66.1764 2
26.8371 68.3283 3.98517
29.4072 66.7519 0.0182828
28.9072 68.9397 2
28.371 71.2627 3.99073
31.0149 69.4139 0.0144982
30.615 71.7776 2
30.1842 74.2788 4
32.8931 72.1462 0.00823431
32.6053 74.6792 2
35.0474 74.9194 0
31.7896 7.4228 3.98285
33.3487 4.9265 3.98866
33.7245 6.98088 2
35.2456 2.46333 3.99321
35.4359 4.68622 2
35.6219 6.72703 0.0146206
37.5 0 4
37.5148 2.3869 2
37.5241 4.61675 0.010422
39.7896 2.47494 0.00681608
39.9526 0.0802889 2
42.3946 0.32156 0
42.3823 35.7109 3.57841
43.8979 35.5914 2
40.5715 34.3035 3.68745
42.0615 34.1596 2
47.4706 37.7679 0.0789711
50.6153 35.5737 0.0249918
45.2853 35.1607 0.132474
43.1066 33.9212 0.280649
41.7156 33.075 0.464334
47.6667 34.3306 2
44.4565 33.0688 2
42.1278 32.4243 2
40.7079 32.7722 2
45.718 31.7011 3.91739
43.2224 31.3397 3.83937
40.8007 31.4084 3.72811
39.2221 32.5271 3.57296
35.695 11.7833 3.97911
37.3137 10.6322 2
37.4589 8.53749 0.0155065
38.9768 10.1316 0.0166728
33.1012 11.2259 3.97524
34.7547 10.3814 2
35.8997 9.77765 0.0196671
30.485 10.0242 3.9791
32.3787 9.37321 2
34.153 8.82705 0.0176535
49.355 31.5219 0.0125219
48.8511 27.6517 0.0224706
49.1586 24.5474 0.023994
47.119 22.1562 0.0138896
44.7795 18.5549 0.0247614
42.0945 14.3085 0.020119
38.3015 12.7439 0.0227585
36.5816 12.9345 2
47.2415 29.6049 2
38.68 14.8206 2
41.7349 17.8945 2
46.8502 25.282 2
44.237 21.5045 2
45.1491 27.7786 4.00475
43.6483 24.2147 4.01895
41.3101 20.8957 3.98176
35.7736 14.7869 3.97736
38.679 17.6369 3.97915
40.7113 37.4671 3.71569
42.5381 37.4789 2
44.2258 37.4875 0.267963
45.3365 55.9067 0.00848246
45.3726 52.4762 0.018437
45.7822 48.8434 0.00150213
42.392 39.2403 0.416642
43.198 43.6392 0.157755
43.0711 45.9203 0.101297
43.157 48.2738 0.00446936
40.7813 43.576 0.272195
40.5527 40.6773 0.312172
39.2093 42.4727 0.424177
43.6594 54.3837 2
40.6535 39.097 2
39.0934 40.7345 2
43.476 50.3675 2
41.7724 47.4813 2
41.7122 45.0626 2
37.5005 42.5842 2
39.3498 44.2884 2
41.8202 52.8872 3.99626
39.1045 39.1206 3.6825
37.5065 40.7989 3.68665
35.8008 42.4812 3.5764
40.8424 49.5158 3.99509
39.7619 45.812 3.83322
37.5027 44.4795 3.72906
42.0815 56.2739 0.0162936
40.3863 54.8625 2
38.7204 53.7003 3.99634
35.6075 63.1886 0.0248146
38.2499 60.3065 0.0204667
38.9114 56.4485 0.00734844
35.3652 60.893 2
36.9339 57.6039 2
37.9868 55.1414 2
36.3204 55.2119 3.99553
34.4924 58.4997 3.98986
33.347 61.4948 0.02257
28.6853 62.1836 0.0209197
31.0728 61.2068 0.0196016
32.3646 59.7224 2
29.4149 60.2658 2
30.3218 57.7913 3.98519
28.0494 58.3523 2
26.9948 56.8069 3.97081
27.5824 59.57 0.0198137
25.4022 58.5749 2
23.8942 56.7722 3.96064
21.3795 57.3616 3.9622
22.0092 59.5935 3.97496
22.789 58.2133 2
22.7419 62.0087 3.9756
23.4115 60.3257 2
23.8115 59.0584 0.015605
25.0425 60.8525 0.0228211
24.4371 62.7586 2
23.6836 64.7014 3.97866
26.2325 63.4664 0.0223509
25.5488 65.4858 2
24.8096 67.589 3.98431
27.4641 66.1763 0.0188099
26.8369 68.3289 2
26.1662 70.6037 3.99081
28.9075 68.9396 0.0148578
28.3701 71.2626 2
27.7943 73.7221 4
30.6159 71.7774 0.00878932
30.1841 74.2794 2
32.6054 74.6784 0
29.8123 7.9975 3.98159
31.2542 5.3334 3.98769
31.7888 7.4213 2
32.9815 2.7016 3.99286
33.3481 4.92524 2
33.7249 6.98285 0.0156968
35.0474 0.080333 4
35.245 2.46311 2
35.4361 4.68682 0.0105362
37.5 0 2
37.5153 2.38739 0.00675365
39.9526 0.0806499 0
40.6775 35.852 3.70104
42.3808 35.7133 2
43.8364 35.6204 0.274738
28.5453 10.6991 3.97832
39.0944 34.2524 3.66422
40.5743 34.3176 2
42.0656 34.1747 0.43425
47.6528 34.3119 0.0486831
44.4239 33.089 0.157274
42.0746 32.4685 0.253415
40.6842 32.7796 0.448623
45.7491 31.6793 2
43.2638 31.308 2
40.8383 31.3536 2
39.2255 32.5205 2
44.0333 29.8971 3.91253
41.6911 29.9529 3.85833
39.3523 30.7581 3.70975
37.5216 32.4384 3.60787
34.0968 12.9489 3.97447
35.6933 11.7742 2
37.3115 10.6349 0.0190358
31.1895 11.9948 3.97781
33.1005 11.2244 2
34.7559 10.3866 0.0187695
30.4832 10.0216 2
32.38 9.37451 0.0208163
47.2243 29.6436 0.0151008
46.8461 25.285 0.0249653
36.5846 12.9485 0.0250759
44.2438 21.5223 0.0208453
41.7414 17.9017 0.0225567
38.6824 14.836 0.0245789
35.7753 14.7927 2
45.1531 27.7741 2
38.6746 17.644 2
41.3024 20.8919 2
43.6463 24.2023 2
33.612 15.8983 3.97873
42.8085 26.628 3.99204
40.8234 23.4806 3.99828
38.4074 20.4099 3.99098
35.8493 17.5406 3.97939
39.1159 37.4875 3.70186
40.7021 37.4689 2
42.5326 37.4754 0.384956
43.6639 54.3841 0.000645864
43.4779 50.3475 -0.00553564
40.6581 39.0996 0.297745
41.6871 45.0238 0.143383
41.7795 47.4515 0.0652332
39.3368 44.2351 0.289617
39.0917 40.7468 0.335112
37.504 42.5721 0.39175
41.8113 52.8889 2
39.0977 39.1065 2
37.5053 40.7825 2
40.838 49.536 2
35.7978 42.488 2
39.7852 45.8639 2
37.4929 44.5244 2
39.7577 51.7183 4.00216
37.5073 39.1274 3.71372
35.9261 40.7599 3.66535
34.3396 42.2225 3.55367
35.6727 44.2486 3.70387
38.6661 48.4573 3.94874
37.5192 46.1004 3.85758
40.3909 54.8508 0.013466
38.719 53.6863 2
36.748 53.0118 3.99683
35.3648 60.8936 0.0220735
36.9329 57.6036 0.0105902
37.9872 55.1437 0.00650199
34.4929 58.4988 2
36.3211 55.2129 2
33.2497 55.4023 3.99236
32.3637 59.7191 0.0118323
29.4138 60.2665 0.0238583
30.324 57.7897 2
28.7679 55.2896 3.98185
28.0474 58.3524 4.59914e-05
26.9966 56.8071 2
25.4003 55.1066 3.96325
21.8937 55.3053 3.96172
25.4001 58.5743 0.0218699
23.8954 56.7747 2
20.2581 56.9925 3.96479
20.6674 58.7445 3.96913
21.3808 57.3632 2
21.175 61.1479 3.97431
22.0099 59.5939 2
22.7877 58.2118 0.03115
21.8979 63.8283 3.97786
22.7423 62.0096 2
23.4109 60.3256 0.0208315
24.4368 62.7574 0.0227833
23.6835 64.7023 2
22.8382 66.7319 3.98274
25.5489 65.4845 0.0202935
24.8093 67.59 2
24.0104 69.8049 3.99065
26.8371 68.3283 0.0148336
26.1651 70.6037 2
25.446 73.0099 4
28.371 71.2627 0.00926915
27.7943 73.7222 2
30.1842 74.2788 0
27.822 8.65697 3.98157
29.1564 5.87966 3.98628
29.8111 7.99528 2
30.727 3.09852 3.9926
31.2535 5.33212 2
31.7896 7.4228 0.0171502
32.6053 0.320823 4
32.9808 2.70108 2
33.3487 4.9265 0.0113351
35.0474 0.0802903 2
35.2456 2.46333 0.00679413
37.5 0 0
39.1013 35.8667 3.68634
40.6623 35.8545 2
42.3823 35.7109 0.421586
28.5437 10.6978 2
26.6235 11.3953 3.97847
29.2289 12.6492 3.98003
37.5126 34.2135 3.68504
39.1016 34.2689 2
40.5715 34.3035 0.312548
45.718 31.7011 0.0826071
43.2224 31.3397 0.160626
40.8007 31.4084 0.271894
39.2221 32.5271 0.42704
44.0586 29.8739 2
41.7166 29.9168 2
39.3593 30.7042 2
37.5224 32.4255 2
42.1254 28.5847 3.88381
39.758 29.1715 3.85406
37.5191 30.5297 3.72746
35.8158 32.531 3.57622
31.921 14.4938 3.97889
34.0966 12.9506 2
35.695 11.7833 0.0208864
31.1883 11.9912 2
33.1012 11.2259 0.0247636
30.485 10.0242 0.0208983
45.1491 27.7786 -0.00475081
43.6483 24.2147 -0.0189522
35.7736 14.7869 0.0226438
41.3101 20.8957 0.0182393
38.679 17.6369 0.0208496
33.6096 15.8928 2
35.8456 17.5429 2
42.8137 26.6221 2
38.3963 20.4286 2
40.8135 23.4598 2
33.5532 17.4158 3.97967
40.2498 25.8598 3.95963
38.0545 23.1924 4.0003
35.5831 20.1275 3.99211
37.5089 37.4951 3.73087
39.1087 37.4837 2
40.7113 37.4671 0.284313
41.8202 52.8872 0.0037358
40.8424 49.5158 0.00491174
39.1045 39.1206 0.317495
39.7619 45.812 0.166782
37.5027 44.4795 0.270937
37.5065 40.7989 0.313351
35.8008 42.4812 0.423597
39.7516 51.7256 2
37.5084 39.1196 2
35.9243 40.7475 2
38.6762 48.5073 2
34.3165 42.2298 2
35.6519 44.3026 2
37.5124 46.1481 2
37.6707 50.7548 3.9984
35.9184 39.1365 3.68563
34.4647 40.7012 3.68971
33.3052 41.9211 3.53951
34.2202 43.584 3.72563
35.212 45.82 3.84847
36.9247 48.0668 3.91568
38.7204 53.7003 0.00366055
36.7541 53.0144 2
34.4239 52.3388 3.99987
34.4924 58.4997 0.0101423
36.3204 55.2119 0.00447318
33.252 55.4059 2
30.6041 53.2961 3.99671
30.3218 57.7913 0.0148108
28.7693 55.2897 2
27.0139 53.3974 3.9651
26.9948 56.8069 0.0291854
25.4015 55.1101 2
23.723 53.4285 3.95814
20.651 53.1582 3.96008
19.9983 55.7899 3.96254
21.891 55.3074 2
23.8942 56.7722 0.0393642
19.4638 57.8561 3.96919
20.2573 56.9939 2
19.7172 60.1684 3.97221
20.6674 58.7452 2
21.3795 57.3616 0.0377965
20.2114 62.849 3.97498
21.1756 61.15 2
22.0092 59.5935 0.0250415
20.9395 65.7602 3.98108
21.8978 63.8294 2
22.7419 62.0087 0.0244012
23.6836 64.7014 0.0213446
22.8378 66.7324 2
21.9129 68.872 3.99011
24.8096 67.589 0.0156922
24.009 69.8047 2
23.1494 72.1454 4
26.1662 70.6037 0.00918642
25.446 73.0099 2
27.7943 73.7221 0
25.861 9.38591 3.9806
27.0711 6.54372 3.98519
27.8206 8.65583 2
28.4894 3.64441 3.99191
29.1554 5.87824 2
29.8123 7.9975 0.018406
30.1841 0.720592 4
30.7259 3.09811 2
31.2542 5.3334 0.0123147
32.6053 0.320817 2
32.9815 2.7016 0.00713699
35.0474 0.080333 0
37.5089 35.8688 3.71181
39.0876 35.8717 2
40.6775 35.852 0.298963
24.7792 12.0828 3.97747
23.7574 14.3758 3.97519
28.5453 10.6991 0.0216836
26.6223 11.3946 2
29.2278 12.6482 2
27.2955 13.3823 3.97867
29.7875 14.2101 3.98029
35.9272 34.2549 3.66411
37.518 34.2305 2
39.0944 34.2524 0.335784
37.5216 32.4384 0.392133
44.0333 29.8971 0.0874658
41.6911 29.9529 0.141666
39.3523 30.7581 0.290254
42.1539 28.5388 2
39.7728 29.123 2
37.5222 30.4804 2
35.8151 32.5224 2
39.9248 27.8102 3.89108
37.4933 28.9011 3.85538
35.688 30.7748 3.7134
34.3566 32.79 3.55365
30.9347 16.8531 3.98254
31.9193 14.4878 2
34.0968 12.9489 0.0255274
31.1895 11.9948 0.02219
42.8085 26.628 0.00796496
40.8234 23.4806 0.00172226
33.612 15.8983 0.0212697
35.8493 17.5406 0.0206129
38.4074 20.4099 0.0090209
33.5491 17.4243 2
35.5839 20.1289 2
40.307 25.8564 2
38.0401 23.1645 2
32.8759 19.8191 3.99282
37.6851 25.4995 3.97307
35.2047 22.8672 3.99947
35.9013 37.4977 3.70376
37.5063 37.4956 2
39.1159 37.4875 0.298141
39.7577 51.7183 -0.00215967
38.6661 48.4573 0.051257
37.5073 39.1274 0.286275
37.5192 46.1004 0.142425
35.6727 44.2486 0.296132
35.9261 40.7599 0.334651
34.3396 42.2225 0.446328
37.6604 50.7814 2
35.9296 39.1232 2
34.4502 40.6866 2
36.9038 48.1199 2
33.2761 41.9429 2
34.1911 43.6366 2
35.1912 45.8654 2
35.535 49.9336 3.98645
34.359 39.1357 3.70181
32.9538 40.8203 3.57015
32.9518 42.5273 3.75041
33.3384 45.0307 3.85185
34.3996 47.1954 3.88869
36.748 53.0118 0.00316517
34.42 52.3456 2
32.1443 51.1104 4.01841
33.2497 55.4023 0.00764096
30.6057 53.2998 2
28.5938 51.5243 3.98971
28.7679 55.2896 0.01815
27.0149 53.4006 2
25.2792 51.6765 3.95498
25.4003 55.1066 0.0367525
23.7216 53.4324 2
22.2008 51.7277 3.95233
19.4671 51.5567 3.96135
19.0528 54.2537 3.96244
20.6497 53.1578 2
18.4901 56.6864 3.96446
19.9961 55.7916 2
21.8937 55.3053 0.0382751
18.3844 59.0776 3.96904
19.4631 57.8572 2
20.2581 56.9925 0.0352067
18.6254 61.7415 3.97218
19.7178 60.1699 2
20.6674 58.7445 0.0308744
19.1286 64.6691 3.97971
20.2114 62.85 2
21.175 61.1479 0.0256926
19.8871 67.8086 3.98974
20.9389 65.7608 2
21.8979 63.8283 0.022144
22.8382 66.7319 0.0172565
21.9114 68.8713 2
20.9142 71.1327 4
24.0104 69.8049 0.00934691
23.1494 72.1455 2
25.446 73.0099 0
23.0997 12.7994 3.97673
23.9737 10.1751 3.97884
25.0246 7.31449 3.98403
25.8597 9.38518 2
26.2812 4.32847 3.99127
27.0699 6.54295 2
27.822 8.65697 0.0184301
27.7943 1.27781 4
28.4878 3.64422 2
29.1564 5.87966 0.0137159
30.1841 0.720551 2
30.727 3.09852 0.0074023
32.6053 0.320823 0
35.9082 35.8642 3.68005
37.5143 35.8797 2
39.1013 35.8667 0.313659
24.7772 12.0798 2
23.7574 14.3779 2
22.4883 15.0554 3.98033
25.3625 13.9222 3.97402
24.0396 15.6383 3.98274
26.6235 11.3953 0.0215279
29.2289 12.6492 0.0199656
27.2958 13.3819 2
29.7847 14.2087 2
28.3682 15.9823 3.98118
34.4723 34.3179 3.6875
35.9237 34.2665 2
37.5126 34.2135 0.314956
35.8158 32.531 0.423783
37.5191 30.5297 0.272538
42.1254 28.5847 0.11619
39.758 29.1715 0.145937
39.9445 27.7736 2
37.4938 28.8489 2
35.6721 30.715 2
34.3305 32.7861 2
37.5898 27.5383 3.89765
35.2364 29.19 3.85314
34.2318 31.4263 3.72575
33.3214 33.0895 3.53857
30.2224 19.3932 3.98177
30.9313 16.8458 2
31.921 14.4938 0.0211063
40.2498 25.8598 0.0403666
38.0545 23.1924 -0.000303979
33.5532 17.4158 0.0203274
35.5831 20.1275 0.0078918
32.8709 19.8286 2
35.199 22.8551 2
37.7413 25.4762 2
32.3577 22.5377 3.99624
35.0593 25.4255 3.99822
34.3072 37.5106 3.71708
35.9061 37.5008 2
37.5089 37.4951 0.269129
37.6707 50.7548 0.00160168
36.9247 48.0668 0.0843223
35.9184 39.1365 0.314373
35.212 45.82 0.151529
34.2202 43.584 0.274366
34.4647 40.7012 0.310292
33.3052 41.9211 0.460489
35.5228 49.9433 2
34.3671 39.1313 2
32.9539 40.8325 2
34.3966 47.2389 2
32.9103 42.5675 2
33.3159 45.0688 2
33.3604 48.9808 3.97816
32.6279 39.2762 3.58065
31.9096 41.0699 3.72162
31.7964 43.6532 3.8426
32.5255 46.1611 3.89033
34.4239 52.3388 0.000129604
32.1462 51.121 2
30.101 49.6901 4.00263
30.6041 53.2961 0.00328523
28.5931 51.5205 2
26.7661 49.8984 3.96822
27.0139 53.3974 0.0348975
25.2774 51.6756 2
23.6304 50.0917 3.9624
23.723 53.4285 0.0418643
22.1993 51.7263 2
20.7764 50.2225 3.96494
18.2733 50.2523 3.96861
18.0476 52.7256 3.96373
19.465 51.5561 2
17.5335 55.2941 3.96249
19.0478 54.2542 2
20.651 53.1582 0.0399176
17.157 57.8434 3.96408
18.4886 56.6872 2
19.9983 55.7899 0.037456
17.1447 60.5177 3.96837
18.3842 59.0787 2
19.4638 57.8561 0.0308077
17.4098 63.46 3.97436
18.6257 61.7418 2
19.7172 60.1684 0.0277887
17.9434 66.6169 3.98804
19.1279 64.6692 2
20.2114 62.849 0.0250179
18.75 69.9759 4
19.8854 67.8076 2
20.9395 65.7602 0.0189183
21.9129 68.872 0.00989155
20.9142 71.1327 2
23.1494 72.1454 0
21.5927 13.6261 3.97707
22.1921 11.0367 3.97669
23.0987 12.8013 2
23.0424 8.18114 3.98258
23.9719 10.1734 2
24.1188 5.14328 3.99066
25.0233 7.31389 2
25.861 9.38591 0.0194008
25.446 1.99014 4
26.2793 4.32877 2
27.0711 6.54372 0.0148106
27.7943 1.27778 2
28.4894 3.64441 0.00809328
30.1841 0.720592 0
34.3648 35.883 3.70119
35.9169 35.8784 2
37.5089 35.8688 0.288185
21.3204 15.8572 3.98383
24.7792 12.0828 0.0225326
23.7574 14.3758 0.0248097
25.3621 13.9165 2
22.4888 15.0551 2
24.0407 15.6417 2
23.2845 16.267 3.97433
25.3957 16.1087 3.9818
27.2955 13.3823 0.0213285
29.7875 14.2101 0.0197109
28.3648 15.9881 2
27.4578 18.8379 3.97995
32.9598 34.1965 3.57371
34.4581 34.3338 2
35.9272 34.2549 0.335892
34.3566 32.79 0.446353
35.688 30.7748 0.286601
37.4933 28.9011 0.144619
39.9248 27.8102 0.10892
37.5709 27.503 2
33.2965 33.071 2
35.2332 29.1329 2
34.1938 31.3702 2
35.1317 27.6374 3.90046
33.3343 29.9768 3.85304
32.9716 32.4789 3.73564
29.6588 21.9958 3.9985
30.2204 19.399 2
30.9347 16.8531 0.0174615
37.6851 25.4995 0.0269315
35.2047 22.8672 0.000526811
32.8759 19.8191 0.00717719
32.3598 22.5307 2
35.0882 25.4164 2
31.8938 25.7854 4.00398
32.4726 37.5101 3.61607
34.3229 37.5074 2
35.9013 37.4977 0.296242
35.535 49.9336 0.0135498
34.3996 47.1954 0.11131
34.359 39.1357 0.298194
33.3384 45.0307 0.148149
32.9518 42.5273 0.249585
32.9538 40.8203 0.429846
33.3487 48.9801 2
32.6397 39.2783 2
31.8732 41.1026 2
32.4862 46.2039 2
31.7568 43.6838 2
31.4362 47.8255 3.98023
31.1801 39.3765 3.72558
30.5954 41.9069 3.84737
30.8382 44.7856 3.90838
32.1443 51.1104 -0.0184088
30.1024 49.7089 2
28.2171 48.0765 3.95961
28.5938 51.5243 0.0102939
26.7649 49.8984 2
25.01 48.3524 3.96878
25.2792 51.6765 0.0450223
23.6291 50.0904 2
22.042 48.6788 3.97132
22.2008 51.7277 0.0476667
20.7737 50.2214 2
19.3656 49.0034 3.97266
17.1583 49.2617 3.97408
17.001 51.3421 3.96763
18.2757 50.2509 2
16.5283 53.8195 3.96485
18.0459 52.7252 2
19.4671 51.5567 0.038654
16.0204 56.4441 3.96279
17.5294 55.2949 2
19.0528 54.2537 0.0375585
15.7604 59.1862 3.96773
17.1573 57.8445 2
18.4901 56.6864 0.0355422
15.7921 62.1168 3.9712
17.1448 60.52 2
18.3844 59.0776 0.0309589
16.0902 65.2986 3.98663
17.4089 63.4612 2
18.6254 61.7415 0.027822
16.6661 68.6801 4
17.9414 66.6155 2
19.1286 64.6691 0.0202855
18.75 69.9759 2
19.8871 67.8086 0.0102611
20.9142 71.1327 0
20.2275 14.6239 3.97341
21.5922 13.6262 2
20.5327 12.0103 3.97544
21.1451 9.15202 3.98099
22.1907 11.037 2
23.0997 12.7994 0.0232717
22.0179 6.08228 3.99017
23.0406 8.18011 2
23.9737 10.1751 0.0211566
23.1494 2.85457 4
24.1166 5.14386 2
25.0246 7.31449 0.0159727
25.446 1.99012 2
26.2812 4.32847 0.008729
27.7943 1.27781 0
32.6192 35.7473 3.58213
34.3705 35.8853 2
35.9082 35.8642 0.319953
21.3212 15.8551 2
20.3271 16.9882 3.97738
22.1166 16.6592 3.96926
25.3625 13.9222 0.0259816
22.4883 15.0554 0.0196728
24.0396 15.6383 0.0172569
25.396 16.1031 2
23.2857 16.2667 2
24.2273 18.5138 3.97064
27.0963 21.5473 3.99386
28.3682 15.9823 0.0188244
27.456 18.8471 2
31.9351 33.9552 3.71884
32.9645 34.1804 2
34.4723 34.3179 0.312495
33.3214 33.0895 0.461427
34.2318 31.4263 0.274249
35.2364 29.19 0.146863
37.5898 27.5383 0.102348
35.1393 27.5931 2
32.9007 32.4379 2
33.3132 29.9427 2
32.7679 28.3161 3.91087
31.8025 31.3626 3.83857
29.01 24.4882 3.98921
29.6548 22.0052 2
30.2224 19.3932 0.0182272
35.0593 25.4255 0.00177934
32.3577 22.5377 0.0037557
31.8881 25.762 2
29.9523 27.4332 3.97766
30.7791 37.5097 3.73082
32.4817 37.5085 2
34.3072 37.5106 0.28292
33.3604 48.9808 0.0218416
32.5255 46.1611 0.109673
32.6279 39.2762 0.419348
31.7964 43.6532 0.157399
31.9096 41.0699 0.278379
31.4173 47.84 2
31.1186 39.4007 2
30.5635 41.9248 2
30.7994 44.8211 2
29.6154 46.4388 3.99738
29.7258 39.8436 3.87003
29.2883 43.0277 3.91073
30.101 49.6901 -0.00262585
28.2121 48.0699 2
26.3946 46.5267 3.98061
26.7661 49.8984 0.0317761
25.0086 48.3521 2
23.2678 46.9481 3.9751
23.6304 50.0917 0.0376
22.0393 48.6774 2
20.3522 47.5185 3.97685
20.7764 50.2225 0.0350577
19.3667 49.002 2
17.974 48.1004 3.977
16.3939 48.6194 3.9764
17.1597 49.2606 2
16.0779 50.1094 3.97169
15.5428 52.3643 3.96732
17.0023 51.3412 2
18.2733 50.2523 0.0313946
14.9543 54.9407 3.96369
16.5297 53.819 2
18.0476 52.7256 0.0362675
14.4744 57.7198 3.96432
16.0201 56.4445 2
17.5335 55.2941 0.0375127
14.2714 60.6759 3.97007
15.7614 59.187 2
17.157 57.8434 0.035918
14.3354 63.8567 3.98256
15.7918 62.1195 2
17.1447 60.5177 0.0316304
14.6715 67.2507 4
16.0876 65.2966 2
17.4098 63.46 0.025638
16.6661 68.6801 2
17.9434 66.6169 0.0119581
18.75 69.9759 0
18.9451 15.8098 3.97484
20.2276 14.6218 2
18.9846 13.1285 3.97523
21.5927 13.6261 0.0229271
20.532 12.0117 2
19.3449 10.2428 3.97873
19.9925 7.14704 3.98928
21.1434 9.15248 2
22.1921 11.0367 0.0233108
20.9142 3.86727 4
22.0152 6.08318 2
23.0424 8.18114 0.0174195
23.1494 2.85451 2
24.1188 5.14328 0.00933941
25.446 1.99014 0
31.1988 35.6395 3.72207
32.6289 35.7425 2
34.3648 35.883 0.298814
21.3204 15.8572 0.0161667
22.1175 16.658 2
20.3278 16.9849 2
19.291 18.4405 3.96156
21.8061 17.8931 3.98298
25.3957 16.1087 0.018196
23.2845 16.267 0.0256724
24.2235 18.5215 2
22.3556 19.9526 3.96397
24.6795 21.4388 3.98738
26.62 23.788 3.9784
27.0992 21.5184 2
27.4578 18.8379 0.0200502
30.6421 33.1214 3.85893
31.9012 33.9098 2
32.9598 34.1965 0.42629
32.9716 32.4789 0.264358
33.3343 29.9768 0.146963
35.1317 27.6374 0.0995383
32.7338 28.2887 2
31.7502 31.3282 2
30.5311 29.7136 3.93687
28.2067 26.6389 3.99343
28.9996 24.4965 2
29.6588 21.9958 0.0014993
31.8938 25.7854 -0.00397693
29.9434 27.4112 2
29.2885 37.5113 3.86438
30.7338 37.5099 2
32.4726 37.5101 0.38393
31.4362 47.8255 0.0197678
30.8382 44.7856 0.0916249
31.1801 39.3765 0.274417
30.5954 41.9069 0.152633
29.6162 46.4377 2
29.6651 39.8609 2
29.2583 43.0678 2
27.8491 44.7586 3.973
27.49 40.5807 3.94165
28.2171 48.0765 0.0403936
26.3904 46.5303 2
24.5534 45.0664 3.97711
25.01 48.3524 0.0312194
23.2657 46.948 2
21.3547 45.7889 3.97791
22.042 48.6788 0.0286754
20.3508 47.5172 2
18.6825 46.6497 3.9771
19.3656 49.0034 0.0273415
17.9745 48.0993 2
16.6179 47.6451 3.97686
16.3955 48.6184 2
15.4217 48.9591 3.97542
17.1583 49.2617 0.0259207
16.0799 50.1084 2
14.6618 50.9367 3.97007
13.9305 53.3988 3.96558
15.5437 52.3637 2
17.001 51.3421 0.032375
13.2815 56.1494 3.96367
14.9547 54.9406 2
16.5283 53.8195 0.0351467
12.8558 59.1134 3.96811
14.4758 57.7197 2
16.0204 56.4441 0.0372128
12.6815 62.2982 3.97881
14.2721 60.6763 2
15.7604 59.1862 0.0322677
12.7746 65.6939 4
14.3332 63.8532 2
15.7921 62.1168 0.0287992
14.6714 67.2507 2
16.0902 65.2986 0.0133686
16.6661 68.6801 0
17.6919 17.1871 3.96954
18.9453 15.8083 2
17.5188 14.3948 3.9733
20.2275 14.6239 0.0265897
18.984 13.1284 2
17.6411 11.4631 3.97674
20.5327 12.0103 0.0245593
19.3433 10.2435 2
18.0528 8.34045 3.98773
18.75 5.0241 4
19.9896 7.14891 2
21.1451 9.15202 0.0190105
20.9142 3.86727 2
22.0179 6.08228 0.009825
23.1494 2.85457 0
29.747 35.19 3.86972
31.1411 35.6174 2
32.6192 35.7473 0.417866
22.1166 16.6592 0.0307422
20.3271 16.9882 0.0226246
21.8057 17.8913 2
19.2902 18.4372 2
18.0865 19.9911 3.959
20.9449 19.4255 3.96276
24.2273 18.5138 0.0293574
22.3515 19.955 2
24.6808 21.4304 2
22.4905 21.7915 3.98154
24.8896 23.2292 3.97519
25.8021 26.0221 3.97914
26.6184 23.7877 2
27.0963 21.5473 0.006135
29.0261 32.4697 3.91436
30.5884 33.0892 2
31.9351 33.9552 0.28116
31.8025 31.3626 0.161433
32.7679 28.3161 0.0891302
30.5106 29.7082 2
27.5058 29.2225 4.01001
28.1949 26.6461 2
29.01 24.4882 0.0107939
29.9523 27.4332 0.0223422
27.6075 37.358 3.91793
29.223 37.5032 2
30.7791 37.5097 0.269176
29.6154 46.4388 0.00261712
29.2883 43.0277 0.0892739
29.7258 39.8436 0.129972
27.8367 44.792 2
27.4672 40.5712 2
25.9011 43.0662 3.98927
24.7487 39.4493 3.97296
26.3946 46.5267 0.0193943
24.542 45.068 2
22.4483 43.8305 3.97737
23.2678 46.9481 0.0248963
21.3509 45.7888 2
19.418 44.8856 3.97689
20.3522 47.5185 0.0231467
18.6824 46.6496 2
16.9584 46.1397 3.97683
17.974 48.1004 0.0230033
16.6191 47.6441 2
15.1782 47.6139 3.97637
16.3939 48.6194 0.0236033
15.4236 48.9582 2
13.9679 49.501 3.97251
16.0779 50.1094 0.0283104
14.6628 50.936 2
13.0031 51.841 3.96745
12.1841 54.5092 3.96442
13.9304 53.3986 2
15.5428 52.3643 0.0326813
11.5415 57.4495 3.96778
13.2823 56.1494 2
14.9543 54.9407 0.036308
11.1362 60.6243 3.97733
12.857 59.1128 2
14.4744 57.7198 0.0356838
10.9835 64.0165 4
12.6797 62.2944 2
14.2714 60.6759 0.029928
12.7745 65.694 2
14.3354 63.8567 0.0174407
14.6715 67.2507 0
16.4488 18.6845 3.96204
17.6909 17.1852 2
16.1143 15.8081 3.96778
18.9451 15.8098 0.0251553
17.5184 14.3937 2
16.0237 12.8185 3.97361
18.9846 13.1285 0.0247701
17.6399 11.465 2
16.2037 9.66384 3.9864
19.3449 10.2428 0.0212698
18.0497 8.34309 2
16.6661 6.31991 4
18.75 5.02404 2
19.9925 7.14704 0.0107223
20.9142 3.86727 0
28.1412 34.8287 3.90805
29.6848 35.1629 2
31.1988 35.6395 0.27793
16.8063 21.4273 3.96566
21.8061 17.8931 0.0170172
19.291 18.4405 0.0384403
20.9426 19.4236 2
18.084 19.9894 2
19.8749 21.6373 3.96915
22.3556 19.9526 0.0360346
24.6795 21.4388 0.0126186
22.4875 21.7942 2
24.8865 23.2319 2
23.1295 24.6839 3.97463
25.0502 28.6116 3.97977
25.7937 26.03 2
26.62 23.788 0.0215978
26.8777 31.8142 3.97866
28.9971 32.4533 2
30.6421 33.1214 0.141066
30.5311 29.7136 0.0631258
27.5185 29.2031 2
28.2067 26.6389 0.00657205
25.4365 36.8563 3.97384
27.5949 37.3625 2
29.2885 37.5113 0.135616
27.8491 44.7586 0.0269973
27.49 40.5807 0.0583524
25.882 43.0836 2
24.7306 39.4531 2
23.6388 41.8093 3.98199
22.4665 38.5192 3.97814
24.5534 45.0664 0.0228875
22.4485 43.8298 2
20.2713 42.8274 3.97619
21.3547 45.7889 0.0220914
19.4187 44.8856 2
17.3491 44.3135 3.97617
18.6825 46.6497 0.022902
16.9599 46.1393 2
15.1305 46.0338 3.9763
16.6179 47.6451 0.0231362
15.18 47.6131 2
13.4945 47.9655 3.97428
15.4217 48.9591 0.0245827
13.9692 49.5003 2
12.231 50.2218 3.969
14.6618 50.9367 0.0299309
13.0037 51.8405 2
11.1831 52.8208 3.96527
10.3323 55.7052 3.9676
12.1843 54.509 2
13.9305 53.3988 0.034417
9.70285 58.8471 3.97682
11.5421 57.4491 2
13.2815 56.1494 0.0363333
9.30605 62.2254 4
11.1346 60.6203 2
12.8558 59.1134 0.0318914
10.9835 64.0165 2
12.6815 62.2982 0.0211911
12.7746 65.6939 0
15.2282 20.2236 3.96292
16.4508 18.6845 2
14.7638 17.3282 3.96538
17.6919 17.1871 0.0304631
16.1136 15.8063 2
14.4882 14.3114 3.97099
17.5188 14.3948 0.0266973
16.023 12.8202 2
14.4465 11.1161 3.98454
17.6411 11.4631 0.0232645
16.2008 9.66742 2
14.6715 7.74927 4
18.0528 8.34045 0.0122701
16.6661 6.31988 2
18.75 5.0241 0
26.1018 34.3284 3.98228
28.1203 34.8366 2
29.747 35.19 0.13028
18.0352 22.3842 3.97194
15.6948 22.9716 3.96917
16.8059 21.4272 2
20.9449 19.4255 0.0372437
18.0865 19.9911 0.0410038
19.8726 21.6359 2
19.965 24.4667 3.97064
22.4905 21.7915 0.0184592
24.8896 23.2292 0.0248076
23.1262 24.6825 2
22.4123 27.9299 3.97271
24.4372 31.2959 3.9771
25.0557 28.6082 2
25.8021 26.0221 0.0208624
26.8595 31.7816 2
29.0261 32.4697 0.0856382
27.5058 29.2225 -0.010013
23.1899 36.286 3.98264
25.4216 36.8578 2
27.6075 37.358 0.0820739
25.9011 43.0662 0.010729
24.7487 39.4493 0.0270419
23.6254 41.8102 2
22.4582 38.5173 2
21.3388 40.6253 3.97513
20.7117 37.8021 3.97706
22.4483 43.8305 0.0226263
20.2701 42.8283 2
17.8186 42.0492 3.97596
19.418 44.8856 0.0231075
17.35 44.3141 2
15.1736 44.1452 3.97606
16.9584 46.1397 0.0231687
15.1318 46.0332 2
13.1901 46.2547 3.97541
15.1782 47.6139 0.023628
13.4961 47.9648 2
11.6163 48.5206 3.97047
13.9679 49.501 0.0274925
12.2321 50.2213 2
10.3126 51.0662 3.966
13.0031 51.841 0.0325545
11.1837 52.8203 2
9.24111 53.8859 3.96748
8.38631 56.9808 3.97743
10.333 55.7044 2
12.1841 54.5092 0.0355789
7.74927 60.3285 4
9.7016 58.8431 2
11.5415 57.4495 0.0322167
9.306 62.2255 2
11.1362 60.6243 0.0226654
10.9835 64.0165 0
14.0559 21.7887 3.96566
15.2272 20.2232 2
13.4712 18.9224 3.96444
16.4488 18.6845 0.0379634
14.7656 17.328 2
13.0344 15.9028 3.96953
16.1143 15.8081 0.0322154
14.4878 14.3073 2
12.7843 12.6905 3.9815
16.0237 12.8185 0.0263875
14.4438 11.1202 2
12.7746 9.30605 4
16.2037 9.66384 0.0136033
14.6715 7.74924 2
16.6661 6.31991 0
23.7785 33.8637 3.98299
26.079 34.3185 2
28.1412 34.8287 0.0919494
17.8949 24.1146 3.97073
18.0404 22.3849 2
14.537 24.5056 3.9708
15.6959 22.9718 2
16.8063 21.4273 0.034344
19.4445 27.298 3.97302
19.8749 21.6373 0.0308544
19.9608 24.4666 2
21.7667 30.7692 3.97519
23.1295 24.6839 0.0253742
22.4144 27.9312 2
24.4138 31.2939 2
25.0502 28.6116 0.0202282
26.8777 31.8142 0.0213446
20.8349 35.9572 3.97652
23.1909 36.2867 2
25.4365 36.8563 0.0261605
23.6388 41.8093 0.0180081
22.4665 38.5192 0.0218575
21.3456 40.6263 2
20.712 37.8008 2
18.5691 38.9972 3.97704
20.2713 42.8274 0.0238052
17.8184 42.0493 2
15.1583 41.8809 3.97632
17.3491 44.3135 0.0238272
15.1743 44.145 2
12.9532 44.3547 3.97627
15.1305 46.0338 0.0237013
13.1917 46.2541 2
11.1308 46.707 3.972
13.4945 47.9655 0.0257225
11.6177 48.52 2
9.58039 49.2273 3.96661
12.231 50.2218 0.0309984
10.313 51.0657 2
8.27388 52.0002 3.96727
11.1831 52.8208 0.0347309
9.24175 53.8849 2
7.19531 55.0319 3.97832
6.31991 58.3339 4
8.3854 56.9769 2
10.3323 55.7052 0.0324043
7.74924 60.3285 2
9.70285 58.8471 0.0231819
9.30605 62.2254 0
13.4133 25.4072 3.97449
12.9568 23.3183 3.96821
14.055 21.7884 2
12.2724 20.5697 3.96488
15.2282 20.2236 0.0370816
13.4713 18.9217 2
11.6649 17.578 3.96961
14.7638 17.3282 0.0346154
13.0362 15.902 2
11.2225 14.3771 3.97718
14.4882 14.3114 0.0290078
12.782 12.695 2
10.9835 10.9835 4
14.4465 11.1161 0.0154569
12.7745 9.306 2
14.6715 7.74927 0
21.1992 33.467 3.97561
23.7803 33.8535 2
26.1018 34.3284 0.0177186
16.2236 26.4721 3.97303
17.8963 24.1148 2
18.0352 22.3842 0.0280626
14.537 24.506 2
15.6948 22.9716 0.0308303
18.8371 30.2668 3.97509
19.4425 27.2984 2
19.965 24.4667 0.0293565
21.7778 30.7701 2
22.4123 27.9299 0.0272874
24.4372 31.2959 0.0229011
18.1789 35.9885 3.97768
20.8373 35.958 2
23.1899 36.286 0.0173556
21.3388 40.6253 0.0248673
20.7117 37.8021 0.0229405
18.5676 38.9964 2
14.6615 39.1662 3.97713
17.8186 42.0492 0.0240425
15.1584 41.8806 2
12.6495 42.2478 3.97663
15.1736 44.1452 0.0239417
12.9545 44.3541 2
10.7195 44.7798 3.97332
13.1901 46.2547 0.0245903
11.1326 46.7064 2
8.96655 47.3077 3.96712
11.6163 48.5206 0.0295297
9.58057 49.2268 2
7.44062 50.0341 3.96699
10.3126 51.0662 0.0340047
8.27433 51.9993 2
6.13593 53.0073 3.97873
9.24111 53.8859 0.0325204
7.19478 55.0288 2
5.0241 56.25 4
6.31988 58.3339 2
8.38631 56.9808 0.0225683
7.74927 60.3285 0
13.6839 26.8614 3.97478
12.0672 24.821 3.97047
13.4126 25.4074 2
11.1953 22.2536 3.96557
12.9576 23.3185 2
14.0559 21.7887 0.0343444
12.2729 20.5694 2
10.397 19.3283 3.96848
13.4712 18.9224 0.035556
11.6669 17.578 2
9.76317 16.1602 3.97703
13.0344 15.9028 0.0304731
11.2207 14.382 2
9.30607 12.7746 4
12.7843 12.6905 0.0184962
10.9835 10.9835 2
12.7746 9.30605 0
18.3471 33.1731 3.97664
21.2 33.4695 2
23.7785 33.8637 0.0170068
15.8471 29.7047 3.9755
16.2242 26.4727 2
17.8949 24.1146 0.0292731
14.537 24.5056 0.0292003
18.8362 30.2675 2
19.4445 27.298 0.0269813
21.7667 30.7692 0.02481
15.2852 36.0345 3.97736
18.1786 35.9888 2
20.8349 35.9572 0.0234793
12.8798 37.8297 3.97726
18.5691 38.9972 0.022961
14.6614 39.1661 2
12.1535 40.1261 3.9767
15.1583 41.8809 0.0236844
12.6508 42.2473 2
10.3212 42.7613 3.97403
12.9532 44.3547 0.0237302
10.7212 44.7794 2
8.44544 45.3115 3.96776
11.1308 46.707 0.028002
8.9663 47.3074 2
6.73162 47.9995 3.96685
9.58039 49.2273 0.0333864
7.44093 50.0332 2
5.21269 50.9108 3.97845
8.27388 52.0002 0.0327268
6.13569 53.0052 2
3.86727 54.0858 4
7.19531 55.0319 0.0216811
5.02404 56.25 2
6.31991 58.3339 0
13.1665 29.0757 3.9747
11.5122 26.5189 3.97091
13.6834 26.8616 2
10.2552 23.9839 3.96667
12.0689 24.8214 2
13.4133 25.4072 0.0255125
9.24956 21.1433 3.9679
11.1953 22.2535 2
12.9568 23.3183 0.0317945
12.2724 20.5697 0.0351199
10.3987 19.3286 2
8.4189 18.031 3.97702
11.6649 17.578 0.030387
9.76186 16.1653 2
7.74928 14.6715 4
11.2225 14.3771 0.0228245
9.30602 12.7745 2
10.9835 10.9835 0
14.8368 32.9097 3.97683
18.3457 33.1724 2
21.1992 33.467 0.0243877
15.8485 29.7053 2
16.2236 26.4721 0.0269679
18.8371 30.2668 0.0249082
13.1739 36.221 3.97694
15.2845 36.0342 2
18.1789 35.9885 0.0223179
12.881 37.8294 2
11.4905 38.3084 3.977
14.6615 39.1662 0.0228658
12.1558 40.1258 2
9.89663 40.7447 3.97537
12.6495 42.2478 0.023369
10.3238 42.7608 2
7.99194 43.2628 3.96849
10.7195 44.7798 0.0266798
8.44623 45.311 2
6.13734 45.9047 3.96707
8.96655 47.3077 0.0328825
6.73193 47.9987 2
4.4241 48.7514 3.9779
7.44062 50.0341 0.0330054
5.21264 50.9096 2
2.85457 51.8506 4
6.13593 53.0073 0.021272
3.86727 54.0858 2
5.0241 56.25 0
12.3006 31.2897 3.97597
10.9311 28.4431 3.9714
13.1674 29.0761 2
9.47255 25.8123 3.96735
11.5135 26.5192 2
13.6839 26.8614 0.0252168
8.23637 23.0259 3.96761
10.2556 23.984 2
12.0672 24.821 0.0295312
7.20109 19.9802 3.97793
9.25096 21.1438 2
11.1953 22.2536 0.0344327
10.397 19.3283 0.0315246
8.41826 18.0355 2
6.31992 16.6661 4
9.76317 16.1602 0.0229708
7.74926 14.6714 2
9.30607 12.7746 0
12.3373 34.3182 3.97676
14.8371 32.9104 2
18.3471 33.1731 0.0233577
15.8471 29.7047 0.0244965
11.0324 36.6185 3.97679
13.1747 36.2209 2
15.2852 36.0345 0.0226409
12.8798 37.8297 0.0227408
11.4933 38.308 2
9.47931 38.8205 3.97554
12.1535 40.1261 0.0233009
9.8986 40.7444 2
7.60031 41.2068 3.9689
10.3212 42.7613 0.025968
7.99143 43.2624 2
5.64891 43.7677 3.96736
8.44544 45.3115 0.0322356
6.13757 45.9041 2
3.76952 46.537 3.97778
6.73162 47.9995 0.0331451
4.42429 48.7507 2
1.99014 49.554 4
5.21269 50.9108 0.021554
2.85451 51.8506 2
3.86727 54.0858 0
11.1209 32.9417 3.97682
10.2405 30.4049 3.9723
12.302 31.2903 2
8.78292 27.7443 3.96762
10.9325 28.4435 2
13.1665 29.0757 0.025303
7.36158 24.9839 3.96734
9.4725 25.8124 2
11.5122 26.5189 0.0290943
6.11807 22.0029 3.97876
8.23724 23.0264 2
10.2552 23.9839 0.0333255
5.02411 18.75 4
7.20089 19.9835 2
9.24956 21.1433 0.0321046
8.4189 18.031 0.0229754
6.3199 16.6661 2
7.74928 14.6715 0
10.6274 35.0127 3.97664
12.3387 34.3186 2
14.8368 32.9097 0.0231721
9.14394 36.9875 3.97532
11.0353 36.6184 2
13.1739 36.221 0.0230558
11.4905 38.3084 0.0229986
9.48128 38.8203 2
7.27661 39.1802 3.96916
9.89663 40.7447 0.0246343
7.60073 41.2066 2
5.2639 41.6136 3.96746
7.99194 43.2628 0.0315071
5.6491 43.7673 2
3.24711 44.2817 3.97806
6.13734 45.9047 0.0329274
3.7698 46.5365 2
1.27781 47.2057 4
4.4241 48.7514 0.0220951
1.99012 49.554 2
2.85457 51.8506 0
10.2654 33.8974 3.97655
9.52064 32.171 3.97305
11.1232 32.9421 2
8.12699 29.7054 3.968
10.2423 30.4053 2
12.3006 31.2897 0.0240293
6.60488 27.0095 3.96724
8.78269 27.7445 2
10.9311 28.4431 0.0285992
5.17344 24.0952 3.97872
7.36208 24.9843 2
9.47255 25.8123 0.0326514
3.86728 20.9142 4
6.11809 22.0048 2
8.23637 23.0259 0.0323935
5.02406 18.75 2
7.20109 19.9802 0.0220688
6.31992 16.6661 0
8.96502 35.2867 3.97507
10.6302 35.0128 2
12.3373 34.3182 0.0232411
7.05408 37.2064 3.96933
9.14576 36.9875 2
11.0324 36.6185 0.0232079
9.47931 38.8205 0.0244582
7.27765 39.18 2
4.99129 39.4672 3.9678
7.60031 41.2068 0.0310993
5.26447 41.6132 2
2.85748 42.002 3.97819
5.64891 43.7677 0.0326414
3.24725 44.2813 2
0.720592 44.8159 4
3.76952 46.537 0.0222155
1.27778 47.2057 2
1.99014 49.554 0
9.00862 33.7092 3.9743
10.2682 33.8978 2
7.55878 31.6164 3.96859
9.52292 32.1714 2
11.1209 32.9417 0.0231797
5.94965 29.0703 3.96737
8.12668 29.7056 2
10.2405 30.4049 0.0277035
4.36101 26.2476 3.97829
6.60518 27.0098 2
8.78292 27.7443 0.0323781
2.85458 23.1494 4
5.17358 24.096 2
7.36158 24.9839 0.0326583
3.86728 20.9142 2
6.11807 22.0029 0.0212388
5.02411 18.75 0
7.00272 35.3087 3.96929
8.9669 35.2867 2
10.6274 35.0127 0.0233637
4.84131 37.3399 3.96823
7.05528 37.2063 2
9.14394 36.9875 0.0246824
7.27661 39.1802 0.0308425
4.99185 39.467 2
2.60544 39.7136 3.97836
5.2639 41.6136 0.0325429
2.85792 42.0018 2
0.320823 42.3947 4
3.24711 44.2817 0.0219416
0.720551 44.8159 2
1.27781 47.2057 0
7.16815 33.4658 3.969
9.01069 33.7094 2
10.2654 33.8974 0.0234524
5.42 31.1341 3.96791
7.55894 31.6165 2
9.52064 32.171 0.026952
3.68255 28.4435 3.97804
5.94994 29.0707 2
8.12699 29.7054 0.032004
1.99015 25.446 4
4.36123 26.2478 2
6.60488 27.0095 0.0327585
2.85453 23.1494 2
5.17344 24.0952 0.0212804
3.86728 20.9142 0
4.85565 35.2518 3.9682
7.00297 35.3087 2
8.96502 35.2867 0.0249257
2.49684 37.4283 3.97917
4.84141 37.3399 2
7.05408 37.2064 0.03067
4.99129 39.4672 0.0321996
2.60598 39.7139 2
0.080333 39.9526 4
2.85748 42.002 0.0218145
0.320817 42.3947 2
0.720592 44.8159 0
5.04909 33.1906 3.96818
7.16853 33.4658 2
9.00862 33.7092 0.0256976
3.14666 30.6662 3.97833
5.42026 31.1345 2
7.55878 31.6164 0.0314087
1.27793 27.7943 4
3.68289 28.4437 2
5.94965 29.0703 0.0326307
1.99013 25.446 2
4.36101 26.2476 0.0217069
2.85458 23.1494 0
2.54895 35.1589 3.97889
4.85634 35.252 2
7.00272 35.3087 0.0307057
0 37.5 4
2.49693 37.4286 2
4.84131 37.3399 0.0317652
2.60544 39.7136 0.0216437
0.0802903 39.9526 2
0.320823 42.3947 0
2.7666 32.9057 3.97902
5.04933 33.1909 2
7.16815 33.4658 0.030998
0.721173 30.1842 4
3.14701 30.6666 2
5.42 31.1341 0.0320928
1.27779 27.7943 2
3.68255 28.4435 0.0219612
1.99015 25.446 0
0.0806499 35.0474 4
2.54959 35.1593 2
4.85565 35.2518 0.0317982
0 37.5 2
2.49684 37.4283 0.0208303
0.080333 39.9526 0
0.32156 32.6054 4
2.76678 32.9062 2
5.04909 33.1906 0.0318215
0.72056 30.1841 2
3.14666 30.6662 0.0216673
1.27793 27.7943 0
0.0802889 35.0474 2
2.54895 35.1589 0.0211073
0 37.5 0
0.320817 32.6053 2
2.7666 32.9057 0.0209838
0.721173 30.1842 0
0.0806499 35.0474 0
0.32156 32.6054 0
CELLS 1910 17190
8 18 6 25 56 2 0 5 16
8 57 23 6 18 17 4 0 2
8 78 36 9 29 31 11 1 7
8 31 11 1 7 79 37 10 30
8 110 57 18 50 48 17 2 14
8 50 18 56 111 14 2 16 49
8 116 62 22 55 52 20 3 15
8 56 25 67 118 16 5 24 53
8 119 63 23 57 54 21 4 17
8 55 22 63 119 15 3 21 54
8 58 26 68 121 18 6 25 56
8 122 65 26 58 57 23 6 18
8 73 31 7 27 142 79 30 71
8 143 78 29 72 73 31 7 27
8 83 147 76 34 32 74 28 8
8 84 148 78 36 33 75 29 9
8 76 34 8 28 148 84 33 75
8 37 79 150 86 10 30 77 35
8 151 87 36 78 80 38 11 31
8 80 38 11 31 152 88 37 79
8 175 100 42 94 96 44 12 40
8 44 96 176 101 12 40 95 43
8 101 176 98 46 43 95 41 13
8 46 98 178 103 13 41 97 45
8 178 103 45 97 147 83 32 74
8 189 116 55 109 106 52 15 47
8 111 56 118 191 49 16 53 107
8 192 119 57 110 108 54 17 48
8 109 55 119 192 47 15 54 108
8 194 122 58 112 110 57 18 50
8 112 58 121 195 50 18 56 111
8 115 61 19 51 197 124 59 113
8 115 61 125 198 51 19 60 114
8 198 125 62 116 114 60 20 52
8 200 127 64 120 116 62 22 55
8 118 67 132 202 53 24 66 117
8 121 68 133 203 56 25 67 118
8 120 64 128 204 55 22 63 119
8 204 128 65 122 119 63 23 57
8 206 134 68 121 123 69 26 58
8 123 69 26 58 207 131 65 122
8 226 147 74 138 140 76 28 70
8 229 148 75 139 143 78 29 72
8 140 76 28 70 229 148 75 139
8 142 79 30 71 231 150 77 141
8 144 80 31 73 232 152 79 142
8 233 151 78 143 144 80 31 73
8 150 86 35 77 235 154 81 145
8 235 154 81 145 146 82 39 91
8 146 82 39 91 236 155 90 165
8 238 157 83 147 149 85 34 76
8 239 158 84 148 151 87 36 78
8 149 85 34 76 239 158 84 148
8 152 88 37 79 241 160 86 150
8 242 161 87 151 153 89 38 80
8 153 89 38 80 243 162 88 152
8 171 98 41 92 265 178 97 169
8 265 178 97 169 226 147 74 138
8 172 96 40 93 266 176 95 170
8 266 176 95 170 171 98 41 92
8 269 175 94 173 172 96 40 93
8 271 180 99 174 175 100 42 94
8 197 124 59 113 271 180 99 174
8 272 181 100 175 177 102 44 96
8 273 182 101 176 179 104 46 98
8 177 102 44 96 273 182 101 176
8 179 104 46 98 275 184 103 178
8 275 184 103 178 238 157 83 147
8 188 115 51 105 283 197 113 186
8 188 115 198 284 105 51 114 187
8 284 198 116 189 187 114 52 106
8 286 200 120 193 189 116 55 109
8 191 118 202 288 107 53 117 190
8 195 121 203 289 111 56 118 191
8 193 120 204 290 109 55 119 192
8 290 204 122 194 192 119 57 110
8 196 123 58 112 292 207 122 194
8 293 206 121 195 196 123 58 112
8 199 126 61 115 297 211 124 197
8 298 212 127 200 198 125 62 116
8 199 126 212 298 115 61 125 198
8 205 129 64 120 300 214 127 200
8 301 217 130 201 202 132 66 117
8 209 136 168 264 301 217 130 201
8 302 219 132 202 203 133 67 118
8 303 220 133 203 206 134 68 121
8 205 129 215 304 120 64 128 204
8 304 215 131 207 204 128 65 122
8 306 221 134 206 208 135 69 123
8 208 135 69 123 307 218 131 207
8 210 137 167 263 309 223 136 209
8 328 238 147 226 230 149 76 140
8 228 146 91 166 329 236 165 260
8 231 150 77 141 330 235 145 227
8 330 235 145 227 228 146 91 166
8 332 239 148 229 233 151 78 143
8 230 149 76 140 332 239 148 229
8 232 152 79 142 334 241 150 231
8 234 153 80 144 335 243 152 232
8 336 242 151 233 234 153 80 144
8 236 155 90 165 338 245 164 259
8 241 160 86 150 339 246 154 235
8 339 246 154 235 237 156 82 146
8 237 156 82 146 340 247 155 236
8 342 249 157 238 240 159 85 149
8 343 250 158 239 242 161 87 151
8 240 159 85 149 343 250 158 239
8 243 162 88 152 345 252 160 241
8 244 163 253 346 153 89 161 242
8 244 163 89 153 347 254 162 243
8 311 224 261 371 210 137 167 263
8 263 167 262 372 209 136 168 264
8 267 179 98 171 375 275 178 265
8 375 275 178 265 328 238 147 226
8 376 273 176 266 267 179 98 171
8 268 177 96 172 376 273 176 266
8 379 272 175 269 268 177 96 172
8 380 271 174 270 269 175 94 173
8 283 197 113 186 380 271 174 270
8 381 277 180 271 272 181 100 175
8 297 211 124 197 381 277 180 271
8 382 278 181 272 274 183 102 177
8 274 183 102 177 383 279 182 273
8 383 279 182 273 276 185 104 179
8 385 281 184 275 342 249 157 238
8 276 185 104 179 385 281 184 275
8 285 199 115 188 393 297 197 283
8 394 298 200 286 284 198 116 189
8 285 199 298 394 188 115 198 284
8 291 205 120 193 396 300 200 286
8 397 301 201 287 288 202 117 190
8 295 209 264 374 397 301 201 287
8 398 302 202 288 289 203 118 191
8 399 303 203 289 293 206 121 195
8 291 205 304 400 193 120 204 290
8 400 304 207 292 290 204 122 194
8 294 208 123 196 402 307 207 292
8 403 306 206 293 294 208 123 196
8 296 210 263 373 405 309 209 295
8 408 312 213 299 297 211 126 199
8 299 213 313 409 199 126 212 298
8 409 313 214 300 298 212 127 200
8 305 216 129 205 411 315 214 300
8 412 318 217 301 302 219 132 202
8 309 223 136 209 412 318 217 301
8 413 320 219 302 303 220 133 203
8 306 221 321 414 206 134 220 303
8 307 218 131 207 415 316 215 304
8 305 216 316 415 205 129 215 304
8 417 322 221 306 308 222 135 208
8 308 222 135 208 418 319 218 307
8 310 225 137 210 420 325 223 309
8 423 326 224 311 310 225 137 210
8 329 236 165 260 441 338 259 368
8 442 342 238 328 333 240 149 230
8 331 237 146 228 443 340 236 329
8 334 241 150 231 444 339 235 330
8 444 339 235 330 331 237 146 228
8 446 343 239 332 336 242 151 233
8 333 240 149 230 446 343 239 332
8 335 243 152 232 448 345 241 334
8 337 244 153 234 449 347 243 335
8 337 244 346 450 234 153 242 336
8 338 245 164 259 452 349 258 367
8 340 247 155 236 453 350 245 338
8 345 252 160 241 454 351 246 339
8 454 351 246 339 341 248 156 237
8 341 248 156 237 455 352 247 340
8 240 159 251 344 342 249 354 457
8 242 161 253 346 343 250 355 458
8 343 250 355 458 240 159 251 344
8 347 254 162 243 460 357 252 345
8 348 255 358 461 244 163 253 346
8 348 255 163 244 462 359 254 347
8 473 360 257 365 363 256 364 482
8 452 349 258 367 365 257 366 485
8 422 324 369 488 311 224 261 371
8 371 261 370 490 263 167 262 372
8 407 311 371 491 296 210 263 373
8 373 263 372 492 295 209 264 374
8 493 385 275 375 442 342 238 328
8 377 276 179 267 493 385 275 375
8 378 274 177 268 494 383 273 376
8 494 383 273 376 377 276 179 267
8 497 382 272 379 378 274 177 268
8 498 381 271 380 379 272 175 269
8 393 297 197 283 498 381 271 380
8 499 387 277 381 382 278 181 272
8 408 312 211 297 499 387 277 381
8 500 388 278 382 384 280 183 274
8 501 389 279 383 386 282 185 276
8 384 280 183 274 501 389 279 383
8 386 282 185 276 503 391 281 385
8 503 391 281 385 457 354 249 342
8 511 408 299 395 393 297 199 285
8 395 299 409 512 285 199 298 394
8 512 409 300 396 394 298 200 286
8 401 305 205 291 514 411 300 396
8 515 412 301 397 398 302 202 288
8 405 309 209 295 515 412 301 397
8 516 413 302 398 399 303 203 289
8 403 306 414 517 293 206 303 399
8 402 307 207 292 518 415 304 400
8 401 305 415 518 291 205 304 400
8 404 308 208 294 520 418 307 402
8 521 417 306 403 404 308 208 294
8 406 310 210 296 523 420 309 405
8 526 423 311 407 406 310 210 296
8 410 314 213 299 527 424 312 408
8 528 425 315 411 409 313 214 300
8 410 314 425 528 299 213 313 409
8 416 317 216 305 530 427 315 411
8 531 430 318 412 413 320 219 302
8 420 325 223 309 531 430 318 412
8 532 432 320 413 414 321 220 303
8 417 322 433 533 306 221 321 414
8 418 319 218 307 534 428 316 415
8 416 317 428 534 305 216 316 415
8 419 323 434 536 308 222 322 417
8 419 323 222 308 537 431 319 418
8 421 327 225 310 539 438 325 420
8 421 327 439 541 310 225 326 423
8 543 437 324 422 423 326 224 311
8 441 338 259 368 559 452 367 486
8 443 340 236 329 560 453 338 441
8 333 240 344 447 442 342 457 561
8 445 341 237 331 562 455 340 443
8 448 345 241 334 563 454 339 444
8 563 454 339 444 445 341 237 331
8 336 242 346 450 446 343 458 565
8 446 343 458 565 333 240 344 447
8 449 347 243 335 567 460 345 448
8 451 348 244 337 568 462 347 449
8 451 348 461 569 337 244 346 450
8 570 463 349 452 473 360 257 365
8 453 350 245 338 570 463 349 452
8 455 352 247 340 571 464 350 453
8 460 357 252 345 572 465 351 454
8 572 465 351 454 456 353 248 341
8 456 353 248 341 573 466 352 455
8 344 251 356 459 457 354 468 575
8 458 355 469 576 344 251 356 459
8 346 253 358 461 458 355 469 576
8 462 359 254 347 578 471 357 460
8 348 255 359 462 461 358 472 579
8 591 474 360 473 475 361 256 363
8 475 361 256 363 594 477 362 479
8 363 256 364 482 479 362 480 603
8 590 473 365 484 481 363 482 605
8 482 364 257 365 606 483 366 485
8 559 452 367 486 484 365 485 607
8 542 436 487 609 422 324 369 488
8 525 422 488 611 407 311 371 491
8 488 369 489 612 371 261 370 490
8 491 371 490 613 373 263 372 492
8 495 386 276 377 614 503 385 493
8 614 503 385 493 561 457 342 442
8 615 501 383 494 495 386 276 377
8 496 384 274 378 615 501 383 494
8 618 500 382 497 496 384 274 378
8 619 499 381 498 497 382 272 379
8 511 408 297 393 619 499 381 498
8 620 505 387 499 500 388 278 382
8 527 424 312 408 620 505 387 499
8 502 390 506 621 384 280 388 500
8 622 507 389 501 504 392 282 386
8 502 390 280 384 622 507 389 501
8 504 392 282 386 624 509 391 503
8 624 509 391 503 575 468 354 457
8 513 410 299 395 630 527 408 511
8 631 528 411 514 512 409 300 396
8 513 410 528 631 395 299 409 512
8 519 416 305 401 633 530 411 514
8 634 531 412 515 516 413 302 398
8 523 420 309 405 634 531 412 515
8 635 532 413 516 517 414 303 399
8 521 417 533 636 403 306 414 517
8 520 418 307 402 637 534 415 518
8 519 416 534 637 401 305 415 518
8 522 419 308 404 639 537 418 520
8 522 419 536 640 404 308 417 521
8 524 421 310 406 642 539 420 523
8 524 421 541 644 406 310 423 526
8 646 543 422 525 526 423 311 407
8 529 426 314 410 647 544 424 527
8 528 425 545 648 411 315 427 530
8 529 426 545 648 410 314 425 528
8 535 429 317 416 649 546 427 530
8 650 548 430 531 532 432 320 413
8 539 438 325 420 650 548 430 531
8 533 433 550 651 414 321 432 532
8 536 434 551 652 417 322 433 533
8 537 431 319 418 653 547 428 534
8 535 429 547 653 416 317 428 534
8 538 435 552 654 419 323 434 536
8 538 435 323 419 655 549 431 537
8 540 440 327 421 657 556 438 539
8 540 440 557 659 421 327 439 541
8 541 439 555 660 423 326 437 543
8 661 554 436 542 543 437 324 422
8 676 570 452 559 590 473 365 484
8 560 453 338 441 676 570 452 559
8 562 455 340 443 677 571 453 560
8 447 344 459 566 561 457 575 678
8 564 456 341 445 679 573 455 562
8 567 460 345 448 680 572 454 563
8 680 572 454 563 564 456 341 445
8 565 458 576 682 447 344 459 566
8 450 346 461 569 565 458 576 682
8 568 462 347 449 684 578 460 567
8 451 348 462 568 569 461 579 685
8 686 580 463 570 591 474 360 473
8 571 464 350 453 686 580 463 570
8 573 466 352 455 687 581 464 571
8 572 465 582 688 460 357 471 578
8 574 467 582 688 456 353 465 572
8 574 467 353 456 689 583 466 573
8 459 356 470 577 575 468 585 691
8 576 469 586 692 459 356 470 577
8 461 358 472 579 576 469 586 692
8 462 359 471 578 579 472 588 694
8 704 591 473 590 593 475 363 481
8 595 476 592 705 475 361 474 591
8 593 475 363 481 707 594 479 602
8 594 477 362 479 709 598 478 600
8 595 476 361 475 711 597 477 594
8 479 362 480 603 600 478 601 720
8 481 363 482 605 602 479 603 722
8 603 480 364 482 723 604 483 606
8 605 482 365 484 724 606 485 607
8 656 553 608 726 542 436 487 609
8 645 542 609 728 525 422 488 611
8 609 487 610 729 488 369 489 612
8 611 488 612 730 491 371 490 613
8 616 504 386 495 731 624 503 614
8 731 624 503 614 678 575 457 561
8 732 622 501 615 616 504 386 495
8 617 502 384 496 732 622 501 615
8 617 502 621 735 496 384 500 618
8 736 620 499 619 618 500 382 497
8 630 527 408 511 736 620 499 619
8 621 506 626 737 500 388 505 620
8 647 544 424 527 737 626 505 620
8 623 508 627 738 502 390 506 621
8 623 508 390 502 739 628 507 622
8 625 510 628 739 504 392 507 622
8 740 629 509 624 691 585 468 575
8 625 510 392 504 740 629 509 624
8 632 529 410 513 744 647 527 630
8 631 528 648 745 514 411 530 633
8 632 529 648 745 513 410 528 631
8 638 535 416 519 746 649 530 633
8 747 650 531 634 635 532 413 516
8 642 539 420 523 747 650 531 634
8 636 533 651 748 517 414 532 635
8 640 536 652 749 521 417 533 636
8 639 537 418 520 750 653 534 637
8 638 535 653 750 519 416 534 637
8 641 538 419 522 751 655 537 639
8 641 538 654 752 522 419 536 640
8 643 540 421 524 753 657 539 642
8 643 540 659 755 524 421 541 644
8 644 541 660 757 526 423 543 646
8 758 661 542 645 646 543 422 525
8 529 426 544 647 648 545 662 759
8 530 427 545 648 649 546 663 760
8 535 429 546 649 653 547 664 761
8 762 666 548 650 651 550 432 532
8 657 556 438 539 762 666 548 650
8 652 551 668 763 533 433 550 651
8 654 552 669 764 536 434 551 652
8 655 549 431 537 765 665 547 653
8 538 435 549 655 654 552 667 766
8 661 554 671 768 542 436 553 656
8 658 558 440 540 769 674 556 657
8 658 558 675 770 540 440 557 659
8 659 557 673 771 541 439 555 660
8 660 555 672 772 543 437 554 661
8 788 686 570 676 704 591 473 590
8 677 571 453 560 788 686 570 676
8 679 573 455 562 789 687 571 677
8 566 459 577 683 678 575 691 790
8 681 574 456 564 791 689 573 679
8 680 572 688 792 567 460 578 684
8 681 574 688 792 564 456 572 680
8 682 576 692 794 566 459 577 683
8 569 461 579 685 682 576 692 794
8 568 462 578 684 685 579 694 796
8 687 581 464 571 798 696 580 686
8 798 696 580 686 705 592 474 591
8 689 583 466 573 799 697 581 687
8 688 582 698 800 578 471 588 694
8 690 584 698 800 574 467 582 688
8 690 584 467 574 801 699 583 689
8 693 587 701 803 577 470 585 691
8 693 587 470 577 804 702 586 692
8 695 589 702 804 579 472 586 692
8 695 589 472 579 805 703 588 694
8 708 595 705 813 593 475 591 704
8 710 596 706 814 595 476 592 705
8 707 594 479 602 816 709 600 719
8 708 595 475 593 817 711 594 707
8 709 598 478 600 819 715 599 717
8 711 597 477 594 820 714 598 709
8 710 596 476 595 822 713 597 711
8 600 478 601 720 717 599 718 832
8 602 479 603 722 719 600 720 834
8 720 601 480 603 835 721 604 723
8 722 603 482 605 836 723 606 724
8 767 670 725 839 656 553 608 726
8 756 656 726 841 645 542 609 728
8 726 608 727 842 609 487 610 729
8 728 609 729 843 611 488 612 730
8 844 740 624 731 790 691 575 678
8 733 625 504 616 844 740 624 731
8 734 623 502 617 845 739 622 732
8 733 625 739 845 616 504 622 732
8 734 623 738 846 617 502 621 735
8 735 621 737 847 618 500 620 736
8 744 647 527 630 847 737 620 736
8 621 506 627 738 737 626 741 848
8 647 544 626 737 759 662 741 848
8 623 508 628 739 738 627 742 849
8 740 629 585 691 850 743 700 802
8 625 510 629 740 739 628 743 850
8 632 529 647 744 745 648 759 854
8 633 530 648 745 746 649 760 855
8 638 535 649 746 750 653 761 856
8 857 762 650 747 748 651 532 635
8 753 657 539 642 857 762 650 747
8 749 652 763 858 636 533 651 748
8 752 654 764 859 640 536 652 749
8 751 655 537 639 860 765 653 750
8 641 538 655 751 752 654 766 861
8 754 658 540 643 862 769 657 753
8 754 658 770 863 643 540 659 755
8 755 659 771 864 644 541 660 757
8 758 661 768 866 645 542 656 756
8 757 660 772 867 646 543 661 758
8 759 662 773 868 648 545 663 760
8 649 546 663 760 761 664 774 871
8 765 665 547 653 872 775 664 761
8 873 777 666 762 763 668 550 651
8 769 674 556 657 873 777 666 762
8 764 669 779 874 652 551 668 763
8 654 552 667 766 764 669 778 875
8 655 549 665 765 766 667 776 876
8 768 671 782 877 656 553 670 767
8 772 672 783 878 661 554 671 768
8 658 558 674 769 770 675 786 879
8 659 557 675 770 771 673 785 881
8 882 784 672 772 771 673 555 660
8 789 687 571 677 897 798 686 788
8 897 798 686 788 813 705 591 704
8 791 689 573 679 898 799 687 789
8 795 693 803 900 683 577 691 790
8 793 690 574 681 901 801 689 791
8 792 688 800 902 684 578 694 796
8 793 690 800 902 681 574 688 792
8 795 693 577 683 903 804 692 794
8 797 695 804 903 685 579 692 794
8 797 695 579 685 904 805 694 796
8 905 806 697 799 798 696 581 687
8 814 706 806 905 705 592 696 798
8 689 583 697 799 801 699 808 907
8 800 698 809 908 694 588 703 805
8 690 584 699 801 800 698 809 908
8 803 701 810 909 691 585 700 802
8 693 587 702 804 803 701 811 910
8 695 589 703 805 804 702 812 911
8 818 710 814 919 708 595 705 813
8 821 712 815 920 710 596 706 814
8 816 709 600 719 922 819 717 831
8 817 711 594 707 923 820 709 816
8 818 710 595 708 924 822 711 817
8 819 715 599 717 926 827 716 829
8 820 714 598 709 927 826 715 819
8 929 825 713 822 820 714 597 711
8 821 712 596 710 930 824 713 822
8 717 599 718 832 829 716 830 942
8 719 600 720 834 831 717 832 944
8 832 718 601 720 945 833 721 835
8 834 720 603 722 946 835 723 836
8 869 780 838 950 767 670 725 839
8 865 767 839 952 756 656 726 841
8 839 725 840 953 726 608 727 842
8 841 726 842 954 728 609 729 843
8 844 740 691 790 955 850 802 899
8 733 625 740 844 845 739 850 955
8 734 623 739 845 846 738 849 956
8 735 621 738 846 847 737 848 957
8 744 647 737 847 854 759 848 957
8 738 627 742 849 848 741 851 958
8 848 741 851 958 759 662 773 868
8 850 743 700 802 959 852 807 906
8 849 742 628 739 959 852 743 850
8 854 759 868 965 745 648 760 855
8 746 649 760 855 856 761 871 966
8 860 765 653 750 967 872 761 856
8 968 873 762 857 858 763 651 748
8 862 769 657 753 968 873 762 857
8 859 764 874 969 749 652 763 858
8 752 654 766 861 859 764 875 970
8 751 655 765 860 861 766 876 971
8 754 658 769 862 863 770 879 972
8 755 659 770 863 864 771 881 974
8 976 882 772 867 864 771 660 757
8 866 768 877 977 756 656 767 865
8 867 772 878 978 758 661 768 866
8 760 663 773 868 871 774 883 980
8 870 781 837 948 982 890 780 869
8 982 890 780 869 877 782 670 767
8 761 664 774 871 872 775 884 984
8 876 776 665 765 985 885 775 872
8 873 777 668 763 986 887 779 874
8 769 674 777 873 879 786 887 986
8 764 669 778 875 874 779 888 987
8 766 667 776 876 875 778 886 988
8 878 783 892 989 768 671 782 877
8 878 783 672 772 990 893 784 882
8 880 787 675 770 991 896 786 879
8 880 787 895 992 770 675 785 881
8 881 785 894 993 771 673 784 882
8 1006 905 799 898 897 798 687 789
8 919 814 905 1006 813 705 798 897
8 791 689 799 898 901 801 907 1007
8 900 803 909 1009 790 691 802 899
8 795 693 804 903 900 803 910 1010
8 902 800 908 1011 796 694 805 904
8 793 690 801 901 902 800 908 1011
8 797 695 805 904 903 804 911 1012
8 799 697 806 905 907 808 912 1013
8 920 815 912 1013 814 706 806 905
8 802 700 810 909 906 807 913 1014
8 801 699 808 907 908 809 914 1015
8 805 703 809 908 911 812 915 1016
8 803 701 811 910 909 810 916 1017
8 911 812 917 1018 804 702 811 910
8 925 821 920 1030 818 710 814 919
8 928 823 921 1031 821 712 815 920
8 922 819 717 831 1033 926 829 941
8 923 820 709 816 1034 927 819 922
8 1035 929 822 924 923 820 711 817
8 925 821 710 818 1036 930 822 924
8 1038 933 825 929 927 826 714 820
8 926 827 716 829 1039 935 828 939
8 927 826 715 819 1040 934 827 926
8 928 823 712 821 1041 931 824 930
8 1042 932 824 930 929 825 713 822
8 829 716 830 942 939 828 940 1058
8 831 717 832 944 941 829 942 1060
8 942 830 718 832 1061 943 833 945
8 944 832 720 834 1062 945 835 946
8 981 889 947 1064 870 781 837 948
8 948 837 949 1067 869 780 838 950
8 975 869 950 1069 865 767 839 952
8 950 838 951 1070 839 725 840 953
8 952 839 953 1071 841 726 842 954
8 955 850 802 899 1072 959 906 1008
8 956 849 739 845 1072 959 850 955
8 846 738 849 956 957 848 958 1073
8 957 848 958 1073 854 759 868 965
8 849 742 852 959 958 851 961 1076
8 960 853 961 1076 906 807 852 959
8 958 851 961 1076 868 773 883 980
8 960 853 807 906 1077 963 913 1014
8 855 760 868 965 966 871 980 1085
8 856 761 871 966 967 872 984 1086
8 971 876 765 860 1087 985 872 967
8 968 873 763 858 1088 986 874 969
8 862 769 873 968 972 879 986 1088
8 859 764 875 970 969 874 987 1089
8 861 766 876 971 970 875 988 1090
8 973 880 770 863 1091 991 879 972
8 973 880 992 1092 863 770 881 974
8 974 881 993 1093 864 771 882 976
8 979 870 948 1066 1094 982 869 975
8 1094 982 869 975 977 877 767 865
8 978 878 772 867 1095 990 882 976
8 978 878 989 1096 866 768 877 977
8 871 774 883 980 984 884 994 1099
8 983 891 999 1100 870 781 889 981
8 1101 1000 890 982 989 892 782 877
8 983 891 781 870 1101 1000 890 982
8 872 775 884 984 985 885 995 1103
8 876 776 885 985 988 886 996 1104
8 986 887 779 874 1105 998 888 987
8 879 786 887 986 991 896 998 1105
8 875 778 886 988 987 888 997 1106
8 990 893 1002 1107 878 783 892 989
8 1108 1003 893 990 993 894 784 882
8 880 787 896 991 992 895 1005 1109
8 993 894 785 881 1110 1004 895 992
8 898 799 905 1006 1007 907 1013 1120
8 1030 920 1013 1120 919 814 905 1006
8 901 801 907 1007 1011 908 1015 1121
8 899 802 909 1009 1008 906 1014 1122
8 900 803 910 1010 1009 909 1017 1123
8 1012 911 1018 1124 903 804 910 1010
8 904 805 908 1011 1012 911 1016 1125
8 1013 912 1020 1127 907 808 914 1015
8 1031 921 1020 1127 920 815 912 1013
8 1019 918 962 1075 1128 1021 913 1014
8 1128 1021 913 1014 1017 916 810 909
8 1015 914 1022 1129 908 809 915 1016
8 1016 915 1023 1130 911 812 917 1018
8 1018 917 1024 1131 910 811 916 1017
8 1037 928 1031 1148 925 821 920 1030
8 928 823 931 1041 1031 921 1032 1149
8 1033 926 829 941 1151 1039 939 1057
8 1034 927 819 922 1152 1040 926 1033
8 1153 1038 929 1035 1034 927 820 923
8 1154 1042 930 1036 1035 929 822 924
8 1037 928 821 925 1155 1041 930 1036
8 1039 935 828 939 1156 1047 938 1055
8 1157 1043 932 1042 1038 933 825 929
8 1038 933 826 927 1158 1045 934 1040
8 1040 934 827 926 1159 1046 935 1039
8 930 824 932 1042 1041 931 1044 1160
8 1051 936 1048 1165 1175 1052 937 1053
8 1156 1047 938 1055 1053 937 1054 1178
8 939 828 940 1058 1055 938 1056 1181
8 941 829 942 1060 1057 939 1058 1183
8 942 830 943 1061 1058 940 1059 1184
8 1060 942 832 944 1185 1061 945 1062
8 1082 964 1063 1188 981 889 947 1064
8 1097 981 1064 1190 979 870 948 1066
8 1064 947 1065 1191 948 837 949 1067
8 1066 948 1067 1193 975 869 950 1069
8 1067 949 1068 1194 950 838 951 1070
8 1069 950 1070 1195 952 839 953 1071
8 956 849 959 1072 1073 958 1076 1197
8 1074 960 1076 1197 1008 906 959 1072
8 1073 958 1076 1197 965 868 980 1085
8 1074 960 906 1008 1198 1077 1014 1122
8 1133 1026 1079 1199 1019 918 962 1075
8 1077 963 913 1014 1200 1080 962 1075
8 960 853 963 1077 1076 961 1078 1201
8 980 883 961 1076 1099 994 1078 1201
8 1210 1083 964 1082 1100 999 889 981
8 966 871 980 1085 1086 984 1099 1215
8 967 872 984 1086 1087 985 1103 1216
8 971 876 985 1087 1090 988 1104 1217
8 1088 986 874 969 1218 1105 987 1089
8 972 879 986 1088 1091 991 1105 1218
8 970 875 988 1090 1089 987 1106 1219
8 973 880 991 1091 1092 992 1109 1220
8 1093 993 881 974 1221 1110 992 1092
8 1222 1108 990 1095 1093 993 882 976
8 1223 1101 982 1094 1096 989 877 977
8 1098 983 870 979 1223 1101 982 1094
8 1095 990 1107 1224 978 878 989 1096
8 1098 983 1100 1225 979 870 981 1097
8 984 884 994 1099 1103 995 1111 1227
8 1102 1001 1115 1228 983 891 999 1100
8 1101 1000 892 989 1229 1116 1002 1107
8 1102 1001 891 983 1229 1116 1000 1101
8 985 885 995 1103 1104 996 1112 1230
8 988 886 996 1104 1106 997 1113 1231
8 1105 998 888 987 1232 1114 997 1106
8 991 896 998 1105 1109 1005 1114 1232
8 1108 1003 1117 1233 990 893 1002 1107
8 1108 1003 894 993 1233 1117 1004 1110
8 992 895 1005 1109 1110 1004 1118 1234
8 1120 1013 1127 1244 1007 907 1015 1121
8 1148 1031 1127 1244 1030 920 1013 1120
8 1121 1015 1129 1245 1011 908 1016 1125
8 1126 1019 1075 1196 1246 1128 1014 1122
8 1246 1128 1014 1122 1123 1017 909 1009
8 1124 1018 1131 1247 1010 910 1017 1123
8 1125 1016 1130 1248 1012 911 1018 1124
8 1127 1020 1137 1254 1015 914 1022 1129
8 1031 921 1032 1149 1127 1020 1137 1254
8 1134 1027 918 1019 1257 1140 1021 1128
8 1257 1140 1021 1128 1131 1024 916 1017
8 1129 1022 1141 1258 1016 915 1023 1130
8 1130 1023 1142 1259 1018 917 1024 1131
8 1261 1144 1025 1132 1133 1026 1079 1199
8 1255 1138 1025 1132 1135 1028 1144 1261
8 1133 1026 918 1019 1262 1145 1027 1134
8 1136 1029 1139 1256 1263 1146 1028 1135
8 1037 928 1041 1155 1148 1031 1149 1275
8 1041 931 1044 1160 1149 1032 1150 1276
8 1151 1039 939 1057 1278 1156 1055 1180
8 1152 1040 926 1033 1279 1159 1039 1151
8 1153 1038 927 1034 1280 1158 1040 1152
8 1281 1157 1042 1154 1153 1038 929 1035
8 1036 930 1042 1154 1155 1041 1160 1282
8 1283 1164 1046 1159 1156 1047 935 1039
8 1165 1048 1164 1283 1053 937 1047 1156
8 1157 1043 933 1038 1284 1161 1045 1158
8 1157 1043 1161 1284 1042 932 1044 1160
8 1040 934 1046 1159 1158 1045 1163 1285
8 1166 1049 1167 1292 1051 936 1048 1165
8 1166 1049 936 1051 1293 1168 1050 1172
8 1051 936 1052 1175 1172 1050 1173 1306
8 1174 1051 1165 1290 1308 1175 1053 1177
8 1053 937 1054 1178 1175 1052 1176 1309
8 1278 1156 1055 1180 1177 1053 1178 1311
8 1055 938 1056 1181 1178 1054 1179 1312
8 1057 939 1058 1183 1180 1055 1181 1314
8 1058 940 1059 1184 1181 1056 1182 1315
8 1060 942 1061 1185 1183 1058 1184 1316
8 1208 1081 1187 1321 1082 964 1063 1188
8 1209 1082 1188 1322 1097 981 1064 1190
8 1188 1063 1189 1323 1064 947 1065 1191
8 1190 1064 1191 1325 1066 948 1067 1193
8 1191 1065 1192 1326 1067 949 1068 1194
8 1067 1193 1069 950 1194 1327 1195 1070
8 1250 1133 1199 1330 1126 1019 1075 1196
8 1198 1077 1014 1122 1331 1200 1075 1196
8 1074 960 1077 1198 1197 1076 1201 1332
8 1085 980 1076 1197 1215 1099 1201 1332
8 1199 1079 1203 1333 1075 962 1080 1200
8 1132 1025 1119 1243 1199 1079 1203 1333
8 1201 1078 963 1077 1334 1202 1080 1200
8 1099 994 1078 1201 1227 1111 1202 1334
8 1343 1207 1081 1208 1210 1083 964 1082
8 1214 1084 1186 1319 1343 1207 1081 1208
8 1345 1210 1082 1209 1225 1100 981 1097
8 1346 1211 1083 1210 1228 1115 999 1100
8 1086 984 1099 1215 1216 1103 1227 1352
8 1087 985 1103 1216 1217 1104 1230 1353
8 1090 988 1104 1217 1219 1106 1231 1354
8 1218 1105 987 1089 1355 1232 1106 1219
8 1091 991 1105 1218 1220 1109 1232 1355
8 1092 992 1109 1220 1221 1110 1234 1356
8 1222 1108 1233 1357 1095 990 1107 1224
8 1222 1108 993 1093 1357 1233 1110 1221
8 1223 1101 989 1096 1358 1229 1107 1224
8 1226 1102 983 1098 1358 1229 1101 1223
8 1226 1102 1228 1359 1098 983 1100 1225
8 1103 995 1111 1227 1230 1112 1235 1360
8 1107 1002 1117 1233 1229 1116 1240 1362
8 1102 1001 1116 1229 1228 1115 1240 1362
8 1104 996 1112 1230 1231 1113 1236 1363
8 1364 1237 1114 1232 1231 1113 997 1106
8 1109 1005 1114 1232 1234 1118 1238 1365
8 1110 1004 1118 1234 1233 1117 1241 1366
8 1242 1374 1255 1138 1119 1243 1132 1025
8 1244 1127 1254 1376 1121 1015 1129 1245
8 1148 1031 1149 1275 1244 1127 1254 1376
8 1245 1129 1258 1377 1125 1016 1130 1248
8 1251 1134 1019 1126 1378 1257 1128 1246
8 1378 1257 1128 1246 1247 1131 1017 1123
8 1248 1130 1259 1379 1124 1018 1131 1247
8 1261 1381 1250 1133 1132 1249 1330 1199
8 1255 1380 1252 1135 1132 1249 1381 1261
8 1250 1133 1019 1126 1382 1262 1134 1251
8 1253 1136 1256 1385 1384 1263 1135 1252
8 1254 1137 1265 1387 1129 1022 1141 1258
8 1149 1032 1150 1276 1254 1137 1265 1387
8 1028 1135 1255 1138 1139 1256 1388 1266
8 1136 1029 1147 1264 1256 1139 1267 1389
8 1390 1268 1140 1257 1259 1142 1024 1131
8 1260 1143 1027 1134 1390 1268 1140 1257
8 1258 1141 1269 1391 1130 1023 1142 1259
8 1262 1145 1027 1134 1393 1271 1143 1260
8 1261 1144 1026 1133 1394 1272 1145 1262
8 1135 1028 1144 1261 1263 1146 1272 1394
8 1136 1029 1146 1263 1264 1147 1273 1395
8 1155 1041 1160 1282 1275 1149 1276 1405
8 1276 1150 1044 1160 1406 1277 1162 1286
8 1408 1283 1159 1279 1278 1156 1039 1151
8 1290 1165 1283 1408 1177 1053 1156 1278
8 1152 1040 1159 1279 1280 1158 1285 1409
8 1281 1157 1038 1153 1410 1284 1158 1280
8 1281 1157 1284 1410 1154 1042 1160 1282
8 1159 1046 1164 1283 1285 1163 1289 1412
8 1292 1167 1289 1412 1165 1048 1164 1283
8 1158 1045 1163 1285 1284 1161 1288 1413
8 1284 1161 1288 1413 1160 1044 1162 1286
8 1291 1166 1292 1418 1174 1051 1165 1290
8 1291 1166 1051 1174 1419 1293 1172 1305
8 1294 1169 1296 1421 1166 1049 1167 1292
8 1293 1168 1050 1172 1422 1295 1171 1303
8 1294 1169 1049 1166 1423 1297 1168 1293
8 1422 1295 1171 1303 1301 1170 1302 1435
8 1172 1050 1173 1306 1303 1171 1304 1438
8 1174 1051 1175 1308 1305 1172 1306 1440
8 1175 1052 1176 1309 1306 1173 1307 1441
8 1177 1053 1178 1311 1308 1175 1309 1443
8 1178 1054 1179 1312 1309 1176 1310 1444
8 1180 1055 1181 1314 1311 1178 1312 1446
8 1056 1181 1312 1179 1182 1315 1447 1313
8 1183 1058 1184 1316 1314 1181 1315 1448
8 1319 1186 1084 1214 1451 1317 1213 1350
8 1319 1186 1318 1453 1208 1081 1187 1321
8 1321 1187 1320 1456 1188 1063 1189 1323
8 1344 1208 1321 1457 1209 1082 1188 1322
8 1322 1188 1323 1458 1190 1064 1191 1325
8 1323 1189 1324 1459 1191 1065 1192 1326
8 1191 1325 1193 1067 1326 1460 1327 1194
8 1242 1374 1243 1119 1328 1462 1335 1204
8 1330 1199 1333 1465 1196 1075 1200 1331
8 1132 1249 1330 1199 1243 1375 1465 1333
8 1332 1201 1077 1198 1466 1334 1200 1331
8 1215 1099 1201 1332 1352 1227 1334 1466
8 1119 1243 1333 1203 1204 1335 1470 1338
8 1333 1203 1338 1470 1200 1080 1202 1334
8 1227 1111 1202 1334 1360 1235 1338 1470
8 1328 1462 1335 1204 1205 1336 1471 1339
8 1337 1206 1340 1472 1464 1329 1205 1336
8 1346 1211 1342 1479 1210 1083 1207 1343
8 1346 1211 1115 1228 1479 1342 1239 1361
8 1348 1212 1084 1214 1479 1342 1207 1343
8 1480 1343 1208 1344 1345 1210 1082 1209
8 1351 1214 1319 1454 1480 1343 1208 1344
8 1481 1346 1210 1345 1359 1228 1100 1225
8 1348 1212 1347 1483 1214 1084 1213 1350
8 1216 1103 1227 1352 1353 1230 1360 1488
8 1217 1104 1230 1353 1354 1231 1363 1489
8 1490 1364 1232 1355 1354 1231 1106 1219
8 1220 1109 1232 1355 1356 1234 1365 1491
8 1221 1110 1234 1356 1357 1233 1366 1492
8 1224 1107 1233 1357 1358 1229 1362 1493
8 1226 1102 1229 1358 1359 1228 1362 1493
8 1230 1112 1235 1360 1363 1236 1367 1496
8 1361 1239 1115 1228 1497 1371 1240 1362
8 1366 1241 1372 1498 1233 1117 1240 1362
8 1364 1237 1113 1231 1499 1368 1236 1363
8 1364 1237 1368 1499 1232 1114 1238 1365
8 1234 1118 1238 1365 1366 1241 1369 1500
8 1507 1373 1242 1374 1388 1266 1138 1255
8 1508 1374 1243 1375 1380 1255 1132 1249
8 1376 1254 1387 1509 1245 1129 1258 1377
8 1275 1149 1276 1405 1376 1254 1387 1509
8 1377 1258 1391 1510 1248 1130 1259 1379
8 1511 1390 1257 1378 1379 1259 1131 1247
8 1383 1260 1134 1251 1511 1390 1257 1378
8 1252 1135 1256 1385 1380 1255 1388 1512
8 1261 1381 1513 1394 1133 1250 1382 1262
8 1135 1252 1384 1263 1261 1381 1513 1394
8 1382 1262 1134 1251 1514 1393 1260 1383
8 1253 1136 1263 1384 1386 1264 1395 1516
8 1253 1136 1264 1386 1385 1256 1389 1517
8 1387 1265 1397 1519 1258 1141 1269 1391
8 1276 1150 1277 1406 1387 1265 1397 1519
8 1256 1139 1267 1389 1388 1266 1398 1520
8 1264 1147 1274 1396 1389 1267 1399 1521
8 1392 1270 1143 1260 1522 1400 1268 1390
8 1390 1268 1142 1259 1522 1400 1269 1391
8 1392 1270 1401 1523 1260 1143 1271 1393
8 1272 1394 1524 1402 1145 1262 1393 1271
8 1395 1273 1146 1263 1524 1402 1272 1394
8 1273 1395 1264 1147 1403 1526 1396 1274
8 1405 1276 1160 1282 1534 1406 1286 1411
8 1414 1287 1407 1535 1286 1162 1277 1406
8 1279 1159 1283 1408 1409 1285 1412 1537
8 1418 1292 1412 1537 1290 1165 1283 1408
8 1280 1158 1285 1409 1410 1284 1413 1538
8 1410 1284 1413 1538 1282 1160 1286 1411
8 1285 1163 1289 1412 1413 1288 1417 1540
8 1421 1296 1417 1540 1292 1167 1289 1412
8 1414 1287 1162 1286 1541 1416 1288 1413
8 1420 1294 1421 1545 1291 1166 1292 1418
8 1419 1293 1172 1305 1546 1422 1303 1437
8 1420 1294 1166 1291 1547 1423 1293 1419
8 1294 1169 1297 1423 1421 1296 1425 1548
8 1423 1297 1168 1293 1549 1424 1295 1422
8 1301 1170 1298 1427 1422 1295 1424 1549
8 1432 1300 1428 1554 1301 1170 1298 1427
8 1431 1299 1428 1554 1560 1430 1300 1432
8 1563 1433 1300 1432 1435 1302 1170 1301
8 1546 1422 1303 1437 1434 1301 1435 1565
8 1303 1171 1304 1438 1435 1302 1436 1566
8 1305 1172 1306 1440 1437 1303 1438 1568
8 1306 1173 1307 1441 1438 1304 1439 1569
8 1308 1175 1309 1443 1440 1306 1441 1571
8 1309 1176 1310 1444 1441 1307 1442 1572
8 1311 1178 1312 1446 1443 1309 1444 1574
8 1179 1312 1444 1310 1313 1447 1575 1445
8 1314 1181 1315 1448 1446 1312 1447 1576
8 1350 1213 1349 1486 1451 1317 1449 1579
8 1451 1317 1450 1581 1319 1186 1318 1453
8 1454 1319 1214 1351 1582 1451 1350 1487
8 1453 1318 1452 1584 1321 1187 1320 1456
8 1454 1319 1453 1585 1344 1208 1321 1457
8 1456 1320 1455 1586 1323 1189 1324 1459
8 1457 1321 1456 1587 1322 1188 1323 1458
8 1458 1323 1459 1588 1325 1191 1326 1460
8 1205 1336 1464 1329 1328 1462 1590 1461
8 1507 1373 1461 1590 1374 1242 1328 1462
8 1508 1374 1462 1591 1375 1243 1335 1467
8 1337 1206 1329 1464 1473 1341 1463 1594
8 1375 1243 1335 1467 1465 1333 1470 1596
8 1465 1333 1470 1596 1331 1200 1334 1466
8 1352 1227 1334 1466 1488 1360 1470 1596
8 1591 1462 1336 1468 1467 1335 1471 1597
8 1469 1337 1472 1598 1595 1464 1336 1468
8 1471 1339 1474 1600 1335 1204 1338 1470
8 1600 1474 1367 1496 1470 1338 1235 1360
8 1336 1205 1340 1472 1471 1339 1475 1601
8 1337 1206 1341 1473 1472 1340 1476 1602
8 1495 1370 1478 1609 1361 1239 1342 1479
8 1348 1212 1342 1479 1483 1347 1478 1609
8 1481 1346 1479 1610 1345 1210 1343 1480
8 1481 1346 1228 1359 1610 1479 1361 1494
8 1484 1348 1214 1351 1610 1479 1343 1480
8 1483 1347 1482 1612 1350 1213 1349 1486
8 1484 1348 1483 1613 1351 1214 1350 1487
8 1353 1230 1360 1488 1489 1363 1496 1616
8 1490 1364 1231 1354 1617 1499 1363 1489
8 1490 1364 1499 1617 1355 1232 1365 1491
8 1356 1234 1365 1491 1492 1366 1500 1619
8 1492 1366 1498 1620 1357 1233 1362 1493
8 1494 1361 1228 1359 1621 1497 1362 1493
8 1495 1370 1239 1361 1622 1504 1371 1497
8 1363 1236 1367 1496 1499 1368 1501 1623
8 1497 1371 1240 1362 1624 1505 1372 1498
8 1625 1503 1372 1498 1500 1369 1241 1366
8 1365 1238 1368 1499 1500 1369 1502 1626
8 1520 1398 1506 1633 1388 1266 1373 1507
8 1634 1507 1374 1508 1512 1388 1255 1380
8 1509 1387 1519 1635 1377 1258 1391 1510
8 1405 1276 1406 1534 1509 1387 1519 1635
8 1515 1392 1260 1383 1636 1522 1390 1511
8 1511 1390 1259 1379 1636 1522 1391 1510
8 1385 1256 1389 1517 1512 1388 1520 1637
8 1513 1394 1262 1382 1638 1524 1393 1514
8 1395 1516 1638 1524 1263 1384 1513 1394
8 1515 1392 1523 1639 1383 1260 1393 1514
8 1516 1395 1526 1640 1386 1264 1396 1518
8 1386 1264 1396 1518 1517 1389 1521 1641
8 1519 1397 1527 1643 1391 1269 1400 1522
8 1535 1407 1527 1643 1406 1277 1397 1519
8 1389 1267 1399 1521 1520 1398 1528 1644
8 1645 1529 1399 1521 1525 1404 1274 1396
8 1392 1270 1400 1522 1523 1401 1531 1646
8 1524 1402 1271 1393 1648 1532 1401 1523
8 1403 1526 1648 1532 1273 1395 1524 1402
8 1525 1404 1274 1396 1649 1533 1403 1526
8 1539 1414 1535 1657 1411 1286 1406 1534
8 1542 1415 1536 1658 1414 1287 1407 1535
8 1409 1285 1412 1537 1538 1413 1540 1660
8 1545 1421 1540 1660 1418 1292 1412 1537
8 1539 1414 1286 1411 1661 1541 1413 1538
8 1540 1417 1544 1663 1413 1288 1416 1541
8 1421 1296 1425 1548 1540 1417 1544 1663
8 1542 1415 1287 1414 1664 1543 1416 1541
8 1420 1294 1423 1547 1545 1421 1548 1666
8 1547 1423 1293 1419 1667 1549 1422 1546
8 1434 1301 1427 1553 1546 1422 1549 1667
8 1423 1297 1424 1549 1548 1425 1550 1668
8 1551 1426 1550 1668 1427 1298 1424 1549
8 1551 1426 1298 1427 1671 1552 1428 1554
8 1562 1432 1554 1674 1434 1301 1427 1553
8 1431 1299 1429 1558 1554 1428 1555 1675
8 1431 1299 1430 1560 1558 1429 1557 1680
8 1560 1430 1300 1432 1683 1559 1433 1563
8 1561 1431 1554 1674 1684 1560 1432 1562
8 1685 1563 1432 1562 1565 1435 1301 1434
8 1435 1302 1436 1566 1563 1433 1564 1686
8 1437 1303 1438 1568 1565 1435 1566 1688
8 1438 1304 1439 1569 1566 1436 1567 1689
8 1440 1306 1441 1571 1568 1438 1569 1691
8 1441 1307 1442 1572 1569 1439 1570 1692
8 1443 1309 1444 1574 1571 1441 1572 1694
8 1310 1444 1572 1442 1445 1575 1695 1573
8 1446 1312 1447 1576 1574 1444 1575 1696
8 1486 1349 1485 1614 1579 1449 1577 1699
8 1451 1317 1449 1579 1581 1450 1578 1701
8 1487 1350 1486 1615 1582 1451 1579 1702
8 1581 1450 1580 1704 1453 1318 1452 1584
8 1582 1451 1581 1705 1454 1319 1453 1585
8 1584 1452 1583 1706 1456 1320 1455 1586
8 1585 1453 1584 1707 1457 1321 1456 1587
8 1587 1456 1586 1708 1458 1323 1459 1588
8 1633 1506 1589 1710 1507 1373 1461 1590
8 1464 1329 1461 1590 1594 1463 1589 1710
8 1468 1336 1462 1591 1595 1464 1590 1711
8 1634 1507 1590 1711 1508 1374 1462 1591
8 1473 1341 1463 1594 1603 1477 1593 1716
8 1469 1337 1464 1595 1599 1473 1594 1717
8 1471 1597 1467 1335 1600 1718 1596 1470
8 1718 1600 1496 1616 1596 1470 1360 1488
8 1336 1468 1597 1471 1472 1598 1719 1601
8 1469 1337 1473 1599 1598 1472 1602 1720
8 1722 1604 1501 1623 1600 1474 1367 1496
8 1475 1601 1471 1339 1604 1722 1600 1474
8 1602 1476 1605 1723 1472 1340 1475 1601
8 1476 1602 1724 1606 1341 1473 1603 1477
8 1483 1347 1478 1609 1612 1482 1608 1731
8 1495 1370 1504 1622 1609 1478 1608 1731
8 1618 1495 1609 1732 1494 1361 1479 1610
8 1484 1348 1479 1610 1613 1483 1609 1732
8 1486 1349 1482 1612 1614 1485 1611 1733
8 1613 1483 1612 1734 1487 1350 1486 1615
8 1489 1363 1496 1616 1617 1499 1623 1736
8 1491 1365 1499 1617 1619 1500 1626 1737
8 1618 1495 1361 1494 1738 1622 1497 1621
8 1739 1625 1498 1620 1619 1500 1366 1492
8 1621 1497 1362 1493 1740 1624 1498 1620
8 1742 1631 1504 1622 1624 1505 1371 1497
8 1743 1628 1502 1626 1623 1501 1368 1499
8 1744 1630 1505 1624 1625 1503 1372 1498
8 1745 1629 1503 1625 1626 1502 1369 1500
8 1520 1398 1528 1644 1633 1506 1632 1751
8 1637 1520 1633 1752 1512 1388 1507 1634
8 1635 1519 1643 1753 1510 1391 1522 1636
8 1657 1535 1643 1753 1534 1406 1519 1635
8 1515 1392 1522 1636 1639 1523 1646 1754
8 1517 1389 1521 1641 1637 1520 1644 1755
8 1524 1638 1756 1648 1393 1514 1639 1523
8 1640 1526 1395 1516 1756 1648 1524 1638
8 1642 1525 1396 1518 1757 1649 1526 1640
8 1758 1645 1521 1641 1642 1525 1396 1518
8 1646 1531 1400 1522 1760 1650 1527 1643
8 1535 1407 1536 1658 1643 1527 1650 1760
8 1521 1399 1529 1645 1644 1528 1651 1761
8 1647 1530 1652 1762 1525 1404 1529 1645
8 1401 1523 1648 1532 1531 1646 1763 1655
8 1525 1404 1533 1649 1647 1530 1654 1765
8 1533 1649 1766 1656 1403 1526 1648 1532
8 1662 1542 1658 1774 1539 1414 1535 1657
8 1542 1415 1543 1664 1658 1536 1659 1775
8 1660 1540 1663 1777 1538 1413 1541 1661
8 1545 1421 1548 1666 1660 1540 1663 1777
8 1662 1542 1414 1539 1778 1664 1541 1661
8 1664 1543 1416 1541 1779 1665 1544 1663
8 1548 1425 1550 1668 1663 1544 1665 1779
8 1547 1423 1549 1667 1666 1548 1668 1781
8 1670 1551 1668 1781 1553 1427 1549 1667
8 1551 1426 1552 1671 1668 1550 1669 1782
8 1670 1551 1427 1553 1784 1671 1554 1674
8 1675 1555 1672 1785 1554 1428 1552 1671
8 1678 1556 1673 1789 1558 1429 1555 1675
8 1561 1431 1558 1681 1674 1554 1675 1790
8 1794 1677 1556 1678 1680 1557 1429 1558
8 1560 1430 1559 1683 1680 1557 1679 1797
8 1561 1431 1560 1684 1681 1558 1680 1798
8 1563 1433 1564 1686 1683 1559 1682 1800
8 1684 1560 1432 1562 1801 1683 1563 1685
8 1565 1435 1566 1688 1685 1563 1686 1802
8 1566 1436 1567 1689 1686 1564 1687 1803
8 1568 1438 1569 1691 1688 1566 1689 1805
8 1569 1439 1570 1692 1689 1567 1690 1806
8 1571 1441 1572 1694 1691 1569 1692 1808
8 1442 1572 1692 1570 1573 1695 1809 1693
8 1574 1444 1575 1696 1694 1572 1695 1810
8 1614 1485 1592 1712 1699 1577 1697 1813
8 1579 1449 1577 1699 1701 1578 1698 1815
8 1615 1486 1614 1735 1702 1579 1699 1816
8 1701 1578 1700 1818 1581 1450 1580 1704
8 1582 1451 1579 1702 1705 1581 1701 1819
8 1704 1580 1703 1820 1584 1452 1583 1706
8 1705 1581 1704 1821 1585 1453 1584 1707
8 1707 1584 1706 1822 1587 1456 1586 1708
8 1710 1589 1506 1633 1824 1709 1632 1751
8 1594 1463 1589 1710 1716 1593 1709 1824
8 1752 1633 1710 1825 1634 1507 1590 1711
8 1595 1464 1590 1711 1717 1594 1710 1825
8 1830 1714 1592 1712 1733 1611 1485 1614
8 1603 1477 1593 1716 1725 1607 1715 1834
8 1599 1473 1594 1717 1721 1603 1716 1835
8 1837 1722 1623 1736 1718 1600 1496 1616
8 1719 1601 1722 1837 1597 1471 1600 1718
8 1602 1720 1598 1472 1723 1838 1719 1601
8 1720 1602 1473 1599 1839 1724 1603 1721
8 1723 1605 1726 1840 1601 1475 1604 1722
8 1840 1726 1628 1743 1722 1604 1501 1623
8 1724 1606 1727 1841 1602 1476 1605 1723
8 1725 1607 1728 1842 1603 1477 1606 1724
8 1612 1482 1608 1731 1733 1611 1730 1849
8 1741 1627 1730 1849 1622 1504 1608 1731
8 1613 1483 1609 1732 1734 1612 1731 1850
8 1618 1495 1622 1738 1732 1609 1731 1850
8 1615 1486 1612 1734 1735 1614 1733 1851
8 1852 1743 1626 1737 1736 1623 1499 1617
8 1853 1745 1625 1739 1737 1626 1500 1619
8 1855 1742 1622 1738 1740 1624 1497 1621
8 1856 1744 1624 1740 1739 1625 1498 1620
8 1741 1627 1504 1622 1857 1746 1631 1742
8 1742 1631 1505 1624 1858 1749 1630 1744
8 1859 1747 1629 1745 1743 1628 1502 1626
8 1860 1748 1630 1744 1745 1629 1503 1625
8 1644 1528 1651 1761 1751 1632 1750 1865
8 1637 1520 1644 1755 1752 1633 1751 1866
8 1754 1646 1522 1636 1867 1760 1643 1753
8 1657 1535 1658 1774 1753 1643 1760 1867
8 1639 1523 1646 1754 1756 1648 1763 1868
8 1641 1521 1645 1758 1755 1644 1761 1869
8 1757 1649 1526 1640 1870 1766 1648 1756
8 1642 1525 1649 1757 1759 1647 1765 1871
8 1759 1647 1762 1872 1642 1525 1645 1758
8 1760 1650 1767 1874 1646 1531 1655 1763
8 1658 1536 1659 1775 1760 1650 1767 1874
8 1762 1652 1768 1875 1645 1529 1651 1761
8 1764 1653 1769 1876 1647 1530 1652 1762
8 1656 1766 1877 1773 1532 1648 1763 1655
8 1771 1879 1765 1654 1653 1764 1647 1530
8 1533 1649 1765 1654 1656 1766 1880 1772
8 1662 1542 1664 1778 1774 1658 1775 1887
8 1664 1543 1665 1779 1775 1659 1776 1888
8 1778 1664 1541 1661 1890 1779 1663 1777
8 1666 1548 1668 1781 1777 1663 1779 1890
8 1782 1669 1780 1891 1668 1550 1665 1779
8 1670 1551 1671 1784 1781 1668 1782 1893
8 1671 1552 1672 1785 1782 1669 1783 1894
8 1790 1675 1785 1896 1674 1554 1671 1784
8 1675 1555 1673 1789 1785 1672 1786 1897
8 1792 1676 1788 1903 1678 1556 1673 1789
8 1795 1678 1789 1904 1681 1558 1675 1790
8 1792 1676 1556 1678 1906 1791 1677 1794
8 1680 1557 1679 1797 1794 1677 1793 1909
8 1910 1794 1678 1795 1798 1680 1558 1681
8 1683 1559 1682 1800 1797 1679 1796 1912
8 1684 1560 1683 1801 1798 1680 1797 1913
8 1686 1564 1687 1803 1800 1682 1799 1915
8 1685 1563 1686 1802 1801 1683 1800 1916
8 1688 1566 1689 1805 1802 1686 1803 1917
8 1689 1567 1690 1806 1803 1687 1804 1918
8 1691 1569 1692 1808 1805 1689 1806 1920
8 1692 1570 1693 1809 1806 1690 1807 1921
8 1694 1572 1695 1810 1808 1692 1809 1922
8 1829 1713 1811 1926 1712 1592 1697 1813
8 1813 1697 1812 1928 1699 1577 1698 1815
8 1735 1614 1712 1828 1816 1699 1813 1929
8 1815 1698 1814 1931 1701 1578 1700 1818
8 1702 1579 1699 1816 1819 1701 1815 1932
8 1818 1700 1817 1933 1704 1580 1703 1820
8 1819 1701 1818 1934 1705 1581 1704 1821
8 1821 1704 1820 1935 1707 1584 1706 1822
8 1824 1709 1632 1751 1937 1823 1750 1865
8 1716 1593 1709 1824 1834 1715 1823 1937
8 1825 1710 1633 1752 1938 1824 1751 1866
8 1717 1594 1710 1825 1835 1716 1824 1938
8 1945 1830 1712 1828 1851 1733 1614 1735
8 1830 1714 1831 1946 1712 1592 1713 1829
8 1947 1832 1714 1830 1849 1730 1611 1733
8 1843 1729 1607 1725 1950 1833 1715 1834
8 1721 1603 1716 1835 1836 1725 1834 1951
8 1836 1725 1842 1953 1721 1603 1724 1839
8 1723 1838 1719 1601 1840 1954 1837 1722
8 1954 1840 1743 1852 1837 1722 1623 1736
8 1724 1839 1720 1602 1841 1955 1838 1723
8 1841 1727 1844 1956 1723 1605 1726 1840
8 1956 1844 1747 1859 1840 1726 1628 1743
8 1728 1842 1724 1606 1845 1957 1841 1727
8 1725 1607 1729 1843 1842 1728 1846 1958
8 1741 1627 1746 1857 1849 1730 1848 1965
8 1734 1612 1731 1850 1851 1733 1849 1966
8 1854 1741 1849 1966 1738 1622 1731 1850
8 1967 1859 1745 1853 1852 1743 1626 1737
8 1968 1860 1744 1856 1853 1745 1625 1739
8 1854 1741 1622 1738 1969 1857 1742 1855
8 1855 1742 1624 1740 1970 1858 1744 1856
8 1857 1746 1631 1742 1971 1861 1749 1858
8 1858 1749 1630 1744 1972 1863 1748 1860
8 1859 1747 1862 1973 1745 1629 1748 1860
8 1875 1768 1864 1977 1761 1651 1750 1865
8 1755 1644 1761 1869 1866 1751 1865 1978
8 1867 1760 1874 1979 1754 1646 1763 1868
8 1774 1658 1775 1887 1867 1760 1874 1979
8 1870 1766 1648 1756 1980 1877 1763 1868
8 1872 1762 1875 1981 1758 1645 1761 1869
8 1757 1649 1766 1870 1871 1765 1880 1982
8 1983 1879 1764 1873 1871 1765 1647 1759
8 1873 1764 1876 1984 1759 1647 1762 1872
8 1877 1773 1655 1763 1986 1881 1767 1874
8 1775 1659 1776 1888 1874 1767 1881 1986
8 1876 1769 1882 1987 1762 1652 1768 1875
8 1878 1770 1883 1988 1764 1653 1769 1876
8 1880 1772 1656 1766 1989 1886 1773 1877
8 1878 1770 1653 1764 1990 1884 1771 1879
8 1765 1654 1772 1880 1879 1771 1885 1991
8 1778 1664 1779 1890 1887 1775 1888 1997
8 1998 1889 1776 1888 1891 1780 1665 1779
8 1893 1782 1891 2000 1781 1668 1779 1890
8 1894 1783 1892 2001 1782 1669 1780 1891
8 1784 1671 1785 1896 1893 1782 1894 2003
8 1897 1786 1895 2004 1785 1672 1783 1894
8 1790 1675 1789 1904 1896 1785 1897 2006
8 1901 1787 1898 2007 1789 1673 1786 1897
8 1903 1788 1900 2013 1789 1673 1787 1901
8 1792 1676 1791 1906 1903 1788 1902 2016
8 1907 1792 1903 2017 1795 1678 1789 1904
8 1906 1791 1677 1794 2019 1905 1793 1909
8 1907 1792 1678 1795 2020 1906 1794 1910
8 1797 1679 1796 1912 1909 1793 1908 2022
8 1798 1680 1797 1913 1910 1794 1909 2023
8 1800 1682 1799 1915 1912 1796 1911 2025
8 1801 1683 1800 1916 1913 1797 1912 2026
8 1803 1687 1804 1918 1915 1799 1914 2028
8 1802 1686 1803 1917 1916 1800 1915 2029
8 1805 1689 1806 1920 1917 1803 1918 2030
8 1806 1690 1807 1921 1918 1804 1919 2031
8 1808 1692 1809 1922 1920 1806 1921 2032
8 1939 1826 1924 2037 1829 1713 1811 1926
8 1926 1811 1925 2039 1813 1697 1812 1928
8 1944 1829 1926 2040 1828 1712 1813 1929
8 1928 1812 1927 2042 1815 1698 1814 1931
8 1929 1813 1928 2043 1816 1699 1815 1932
8 1931 1814 1930 2044 1818 1700 1817 1933
8 1932 1815 1931 2045 1819 1701 1818 1934
8 1934 1818 1933 2046 1821 1704 1820 1935
8 2048 1936 1823 1937 1977 1864 1750 1865
8 1950 1833 1715 1834 2048 1936 1823 1937
8 1938 1824 1751 1866 2049 1937 1865 1978
8 1835 1716 1824 1938 1951 1834 1937 2049
8 1939 1826 1713 1829 2053 1942 1831 1946
8 1940 1827 1923 2035 2053 1942 1826 1939
8 1945 1830 1946 2058 1828 1712 1829 1944
8 2059 1947 1830 1945 1966 1849 1733 1851
8 1947 1832 1730 1849 2060 1948 1848 1965
8 1947 1832 1948 2060 1830 1714 1831 1946
8 1959 1847 1729 1843 2063 1949 1833 1950
8 1952 1843 1725 1836 2064 1950 1834 1951
8 1836 1725 1843 1952 1953 1842 1958 2066
8 1953 1842 1957 2067 1839 1724 1841 1955
8 1841 1955 1838 1723 1956 2068 1954 1840
8 2068 1956 1859 1967 1954 1840 1743 1852
8 1956 1844 1960 2069 1859 1747 1862 1973
8 1845 1957 1841 1727 1960 2069 1956 1844
8 1728 1842 1957 1845 1846 1958 2071 1961
8 1962 2072 1959 1847 1846 1958 1843 1729
8 1971 1861 1964 2077 1857 1746 1848 1965
8 1854 1741 1857 1969 1966 1849 1965 2078
8 1967 1859 1973 2079 1853 1745 1860 1968
8 1970 1858 1744 1856 2080 1972 1860 1968
8 1969 1857 1742 1855 2081 1971 1858 1970
8 1971 1861 1749 1858 2082 1974 1863 1972
8 1973 1862 1975 2083 1860 1748 1863 1972
8 1987 1882 1976 2086 1875 1768 1864 1977
8 1981 1875 1977 2087 1869 1761 1865 1978
8 1980 1877 1763 1868 2088 1986 1874 1979
8 1887 1775 1888 1997 1979 1874 1986 2088
8 1880 1982 2089 1989 1766 1870 1980 1877
8 1984 1876 1987 2090 1872 1762 1875 1981
8 1765 1871 1983 1879 1880 1982 2091 1991
8 1985 1878 1764 1873 2092 1990 1879 1983
8 1985 1878 1988 2093 1873 1764 1876 1984
8 2094 1992 1881 1986 1998 1889 1776 1888
8 1986 1881 1992 2094 1877 1773 1886 1989
8 1988 1883 1993 2095 1876 1769 1882 1987
8 1878 1770 1884 1990 1988 1883 1994 2096
8 1991 1885 1772 1880 2097 1996 1886 1989
8 1879 1771 1885 1991 1990 1884 1995 2098
8 2103 1998 1888 1997 2000 1891 1779 1890
8 2104 1999 1889 1998 2001 1892 1780 1891
8 2003 1894 2001 2106 1893 1782 1891 2000
8 2004 1895 2002 2107 1894 1783 1892 2001
8 2006 1897 2004 2109 1896 1785 1894 2003
8 2007 1898 2005 2110 1897 1786 1895 2004
8 2014 1901 2007 2112 1904 1789 1897 2006
8 2011 1899 2008 2113 1901 1787 1898 2007
8 2119 2010 1899 2011 2013 1900 1787 1901
8 2016 1902 2012 2122 1903 1788 1900 2013
8 2017 1903 2013 2123 1904 1789 1901 2014
8 1906 1791 1905 2019 2016 1902 2015 2125
8 1907 1792 1906 2020 2017 1903 2016 2126
8 1909 1793 1908 2022 2019 1905 2018 2128
8 2020 1906 1794 1910 2129 2019 1909 2023
8 1912 1796 1911 2025 2022 1908 2021 2131
8 1913 1797 1912 2026 2023 1909 2022 2132
8 1915 1799 1914 2028 2025 1911 2024 2134
8 1916 1800 1915 2029 2026 1912 2025 2135
8 1918 1804 1919 2031 2028 1914 2027 2136
8 1917 1803 1918 2030 2029 1915 2028 2137
8 1920 1806 1921 2032 2030 1918 2031 2138
8 1940 1827 1941 2054 2035 1923 2033 2140
8 2035 1923 2034 2143 1939 1826 1924 2037
8 2037 1924 2036 2146 1926 1811 1925 2039
8 2051 1939 2037 2147 1944 1829 1926 2040
8 2039 1925 2038 2149 1928 1812 1927 2042
8 2040 1926 2039 2150 1929 1813 1928 2043
8 2042 1927 2041 2151 1931 1814 1930 2044
8 2043 1928 2042 2152 1932 1815 1931 2045
8 2045 1931 2044 2153 1934 1818 1933 2046
8 2155 2047 1936 2048 2086 1976 1864 1977
8 2063 1949 1833 1950 2155 2047 1936 2048
8 2156 2048 1937 2049 2087 1977 1865 1978
8 2064 1950 1834 1951 2156 2048 1937 2049
8 2051 1939 1829 1944 2160 2053 1946 2058
8 2052 1940 2035 2144 2160 2053 1939 2051
8 2053 1942 1831 1946 2163 2057 1948 2060
8 2055 1943 1827 1940 2163 2057 1942 2053
8 2055 1943 2056 2164 1940 1827 1941 2054
8 2059 1947 1849 1966 2167 2060 1965 2078
8 2059 1947 2060 2167 1945 1830 1946 2058
8 2077 1964 2061 2168 1965 1848 1948 2060
8 2070 1963 1847 1959 2170 2062 1949 2063
8 2065 1959 1843 1952 2171 2063 1950 2064
8 2173 2072 1958 2066 2065 1959 1843 1952
8 1953 1842 1958 2066 2067 1957 2071 2174
8 2068 1956 2069 2175 1967 1859 1973 2079
8 2067 1957 2069 2175 1955 1841 1956 2068
8 1845 1957 2069 1960 1961 2071 2176 2073
8 2069 1960 2073 2176 1973 1862 1975 2083
8 2070 1963 2075 2177 1959 1847 1962 2072
8 1846 1958 2071 1961 1962 2072 2178 2074
8 2077 1964 1861 1971 2182 2076 1974 2082
8 2081 1971 2077 2183 1969 1857 1965 2078
8 2079 1973 2083 2184 1968 1860 1972 2080
8 2081 1971 1858 1970 2185 2082 1972 2080
8 2083 1975 2084 2186 1972 1863 1974 2082
8 2086 1976 1882 1987 2189 2085 1993 2095
8 2090 1987 2086 2190 1981 1875 1977 2087
8 2191 2094 1986 2088 2103 1998 1888 1997
8 2088 1986 2094 2191 1980 1877 1989 2089
8 1991 2091 2192 2097 1880 1982 2089 1989
8 2093 1988 2095 2193 1984 1876 1987 2090
8 1879 1983 2092 1990 1991 2091 2194 2098
8 1985 1878 1990 2092 2093 1988 2096 2195
8 2097 1996 1886 1989 2196 2099 1992 2094
8 2196 2099 1992 2094 2104 1999 1889 1998
8 1994 2096 1988 1883 2100 2197 2095 1993
8 2096 1994 1884 1990 2198 2101 1995 2098
8 1995 2098 2199 2102 1885 1991 2097 1996
8 2203 2104 1998 2103 2106 2001 1891 2000
8 2107 2002 2105 2204 2001 1892 1999 2104
8 2109 2004 2107 2206 2003 1894 2001 2106
8 2110 2005 2108 2207 2004 1895 2002 2107
8 2112 2007 2110 2209 2006 1897 2004 2109
8 2113 2008 2111 2210 2007 1898 2005 2110
8 2120 2011 2113 2212 2014 1901 2007 2112
8 2117 2009 2114 2213 2011 1899 2008 2113
8 2219 2116 2009 2117 2119 2010 1899 2011
8 2222 2118 2010 2119 2122 2012 1900 2013
8 2223 2119 2011 2120 2123 2013 1901 2014
8 2016 1902 2015 2125 2122 2012 2121 2225
8 2126 2016 2122 2226 2017 1903 2013 2123
8 2019 1905 2018 2128 2125 2015 2124 2228
8 2020 1906 2019 2129 2126 2016 2125 2229
8 2022 1908 2021 2131 2128 2018 2127 2231
8 2023 1909 2022 2132 2129 2019 2128 2232
8 2025 1911 2024 2134 2131 2021 2130 2234
8 2026 1912 2025 2135 2132 2022 2131 2235
8 1914 2028 2134 2024 2027 2136 2236 2133
8 2029 1915 2028 2137 2135 2025 2134 2237
8 2030 1918 2031 2138 2137 2028 2136 2238
8 2157 2050 2139 2240 2054 1941 2033 2140
8 2052 1940 2054 2161 2144 2035 2140 2242
8 2140 2033 2141 2243 2035 1923 2034 2143
8 2143 2034 2142 2246 2037 1924 2036 2146
8 2144 2035 2143 2247 2051 1939 2037 2147
8 2146 2036 2145 2249 2039 1925 2038 2149
8 2147 2037 2146 2250 2040 1926 2039 2150
8 2149 2038 2148 2251 2042 1927 2041 2151
8 2150 2039 2149 2252 2043 1928 2042 2152
8 2152 2042 2151 2253 2045 1931 2044 2153
8 2255 2154 2047 2155 2189 2085 1976 2086
8 2170 2062 1949 2063 2255 2154 2047 2155
8 2256 2155 2048 2156 2190 2086 1977 2087
8 2171 2063 1950 2064 2256 2155 2048 2156
8 2258 2159 2050 2157 2164 2056 1941 2054
8 2160 2053 1946 2058 2262 2163 2060 2167
8 2162 2055 1940 2052 2262 2163 2053 2160
8 2162 2055 2164 2263 2052 1940 2054 2161
8 2163 2057 1948 2060 2264 2165 2061 2168
8 2055 1943 2057 2163 2164 2056 2165 2264
8 2182 2076 2166 2268 2077 1964 2061 2168
8 2183 2077 2168 2269 2078 1965 2060 2167
8 2070 1963 2062 2170 2177 2075 2169 2271
8 2172 2070 1959 2065 2272 2170 2063 2171
8 2172 2070 2177 2273 2065 1959 2072 2173
8 2066 1958 2072 2173 2174 2071 2178 2274
8 2067 1957 2071 2174 2175 2069 2176 2275
8 2175 2069 2176 2275 2079 1973 2083 2184
8 2071 1961 2074 2178 2176 2073 2179 2276
8 2176 2073 2179 2276 2083 1975 2084 2186
8 2072 1962 2075 2177 2178 2074 2180 2277
8 2182 2076 1974 2082 2280 2181 2084 2186
8 2183 2077 1971 2081 2281 2182 2082 2185
8 2184 2083 2186 2282 2080 1972 2082 2185
8 2189 2085 1993 2095 2285 2188 2100 2197
8 2190 2086 1987 2090 2286 2189 2095 2193
8 2192 2097 1989 2089 2287 2196 2094 2191
8 2287 2196 2094 2191 2203 2104 1998 2103
8 2194 2098 1991 2091 2288 2199 2097 2192
8 2195 2096 2197 2289 2093 1988 2095 2193
8 2096 2195 2290 2198 1990 2092 2194 2098
8 2097 1996 2099 2196 2199 2102 2200 2291
8 2196 2099 1999 2104 2291 2200 2105 2204
8 2100 2197 2292 2201 1994 2096 2198 2101
8 1995 2098 2198 2101 2102 2199 2293 2202
8 2206 2107 2204 2296 2106 2001 2104 2203
8 2207 2108 2205 2297 2107 2002 2105 2204
8 2209 2110 2207 2299 2109 2004 2107 2206
8 2210 2111 2208 2300 2110 2005 2108 2207
8 2212 2113 2210 2302 2112 2007 2110 2209
8 2213 2114 2211 2303 2113 2008 2111 2210
8 2220 2117 2213 2305 2120 2011 2113 2212
8 2216 2115 2214 2306 2117 2009 2114 2213
8 2216 2115 2009 2117 2311 2217 2116 2219
8 2219 2116 2010 2119 2314 2218 2118 2222
8 2315 2219 2117 2220 2223 2119 2011 2120
8 2122 2012 2121 2225 2222 2118 2221 2317
8 2318 2222 2119 2223 2226 2122 2013 2123
8 2125 2015 2124 2228 2225 2121 2224 2320
8 2126 2016 2125 2229 2226 2122 2225 2321
8 2128 2018 2127 2231 2228 2124 2227 2323
8 2129 2019 2128 2232 2229 2125 2228 2324
8 2131 2021 2130 2234 2231 2127 2230 2326
8 2132 2022 2131 2235 2232 2128 2231 2327
8 2134 2024 2133 2236 2234 2130 2233 2328
8 2135 2025 2134 2237 2235 2131 2234 2329
8 2137 2028 2136 2238 2237 2134 2236 2330
8 2157 2050 2158 2259 2240 2139 2239 2332
8 2257 2157 2240 2334 2161 2054 2140 2242
8 2240 2139 2241 2335 2140 2033 2141 2243
8 2242 2140 2243 2337 2144 2035 2143 2247
8 2243 2141 2244 2338 2143 2034 2142 2246
8 2246 2142 2245 2341 2146 2036 2145 2249
8 2247 2143 2246 2342 2147 2037 2146 2250
8 2249 2145 2248 2343 2149 2038 2148 2251
8 2250 2146 2249 2344 2150 2039 2149 2252
8 2252 2149 2251 2345 2152 2042 2151 2253
8 2169 2271 2347 2254 2062 2170 2255 2154
8 2189 2085 2188 2285 2255 2154 2254 2347
8 2348 2255 2155 2256 2286 2189 2086 2190
8 2272 2170 2063 2171 2348 2255 2155 2256
8 2349 2258 2157 2257 2263 2164 2054 2161
8 2258 2159 2261 2351 2157 2050 2158 2259
8 2258 2159 2056 2164 2351 2261 2165 2264
8 2262 2163 2060 2167 2355 2264 2168 2269
8 2162 2055 2163 2262 2263 2164 2264 2355
8 2357 2266 2165 2264 2268 2166 2061 2168
8 2268 2166 2076 2182 2361 2267 2181 2280
8 2281 2182 2268 2362 2183 2077 2168 2269
8 2271 2169 2270 2364 2177 2075 2180 2277
8 2172 2070 2170 2272 2273 2177 2271 2365
8 2072 2173 2274 2178 2177 2273 2366 2277
8 2071 2174 2275 2176 2178 2274 2367 2276
8 2275 2176 2276 2367 2184 2083 2186 2282
8 2283 2187 2084 2186 2368 2278 2179 2276
8 2178 2074 2180 2277 2276 2179 2278 2368
8 2283 2187 2279 2370 2186 2084 2181 2280
8 2281 2182 2082 2185 2371 2280 2186 2282
8 2188 2285 2374 2284 2100 2197 2292 2201
8 2286 2189 2095 2193 2375 2285 2197 2289
8 2192 2097 2196 2287 2288 2199 2291 2376
8 2287 2196 2104 2203 2376 2291 2204 2296
8 2194 2098 2199 2288 2290 2198 2293 2377
8 2289 2197 2096 2195 2378 2292 2198 2290
8 2291 2200 2105 2204 2379 2294 2205 2297
8 2199 2102 2200 2291 2293 2202 2294 2379
8 2198 2101 2202 2293 2292 2201 2295 2380
8 2299 2207 2297 2383 2206 2107 2204 2296
8 2300 2208 2298 2384 2207 2108 2205 2297
8 2302 2210 2300 2386 2209 2110 2207 2299
8 2303 2211 2301 2387 2210 2111 2208 2300
8 2305 2213 2303 2389 2212 2113 2210 2302
8 2306 2214 2304 2390 2213 2114 2211 2303
8 2310 2216 2306 2392 2220 2117 2213 2305
8 2308 2215 2307 2393 2216 2115 2214 2306
8 2308 2215 2115 2216 2396 2309 2217 2311
8 2310 2216 2117 2220 2398 2311 2219 2315
8 2311 2217 2116 2219 2399 2312 2218 2314
8 2314 2218 2118 2222 2402 2313 2221 2317
8 2315 2219 2119 2223 2403 2314 2222 2318
8 2225 2121 2224 2320 2317 2221 2316 2405
8 2226 2122 2225 2321 2318 2222 2317 2406
8 2228 2124 2227 2323 2320 2224 2319 2408
8 2229 2125 2228 2324 2321 2225 2320 2409
8 2231 2127 2230 2326 2323 2227 2322 2411
8 2232 2128 2231 2327 2324 2228 2323 2412
8 2234 2130 2233 2328 2326 2230 2325 2413
8 2235 2131 2234 2329 2327 2231 2326 2414
8 2237 2134 2236 2330 2329 2234 2328 2415
8 2259 2158 2260 2352 2332 2239 2331 2417
8 2257 2157 2259 2350 2334 2240 2332 2419
8 2240 2139 2239 2332 2335 2241 2333 2420
8 2334 2240 2335 2422 2242 2140 2243 2337
8 2335 2241 2336 2423 2243 2141 2244 2338
8 2337 2243 2338 2425 2247 2143 2246 2342
8 2338 2244 2339 2426 2246 2142 2245 2341
8 2341 2245 2340 2428 2249 2145 2248 2343
8 2342 2246 2341 2429 2250 2146 2249 2344
8 2344 2249 2343 2430 2252 2149 2251 2345
8 2188 2285 2347 2254 2284 2374 2432 2346
8 2347 2254 2346 2432 2271 2169 2270 2364
8 2365 2271 2170 2272 2433 2347 2255 2348
8 2286 2189 2285 2375 2348 2255 2347 2433
8 2349 2258 2351 2435 2257 2157 2259 2350
8 2349 2258 2164 2263 2435 2351 2264 2355
8 2259 2158 2261 2351 2352 2260 2354 2437
8 2356 2265 2354 2437 2264 2165 2261 2351
8 2441 2357 2264 2355 2362 2268 2168 2269
8 2356 2265 2165 2264 2442 2358 2266 2357
8 2443 2359 2266 2357 2361 2267 2166 2268
8 2370 2279 2360 2446 2280 2181 2267 2361
8 2362 2268 2182 2281 2447 2361 2280 2371
8 2180 2277 2368 2278 2270 2364 2449 2363
8 2271 2365 2273 2177 2364 2450 2366 2277
8 2372 2283 2186 2282 2451 2368 2276 2367
8 2178 2274 2367 2276 2277 2366 2451 2368
8 2283 2187 2278 2368 2370 2279 2369 2452
8 2372 2283 2370 2453 2282 2186 2280 2371
8 2284 2374 2455 2373 2201 2292 2380 2295
8 2375 2285 2197 2289 2456 2374 2292 2378
8 2376 2291 2204 2296 2457 2379 2297 2383
8 2288 2199 2291 2376 2377 2293 2379 2457
8 2198 2290 2378 2292 2293 2377 2458 2380
8 2293 2202 2294 2379 2380 2295 2381 2459
8 2384 2298 2381 2459 2297 2205 2294 2379
8 2386 2300 2384 2463 2299 2207 2297 2383
8 2387 2301 2385 2464 2300 2208 2298 2384
8 2389 2303 2387 2466 2302 2210 2300 2386
8 2390 2304 2388 2467 2303 2211 2301 2387
8 2392 2306 2390 2469 2305 2213 2303 2389
8 2393 2307 2391 2470 2306 2214 2304 2390
8 2395 2308 2393 2472 2310 2216 2306 2392
8 2308 2215 2309 2396 2393 2307 2394 2473
8 2395 2308 2216 2310 2475 2396 2311 2398
8 2396 2309 2217 2311 2476 2397 2312 2399
8 2398 2311 2219 2315 2478 2399 2314 2403
8 2399 2312 2218 2314 2479 2400 2313 2402
8 2317 2221 2316 2405 2402 2313 2401 2482
8 2403 2314 2222 2318 2483 2402 2317 2406
8 2320 2224 2319 2408 2405 2316 2404 2485
8 2321 2225 2320 2409 2406 2317 2405 2486
8 2323 2227 2322 2411 2408 2319 2407 2488
8 2324 2228 2323 2412 2409 2320 2408 2489
8 2326 2230 2325 2413 2411 2322 2410 2490
8 2327 2231 2326 2414 2412 2323 2411 2491
8 2329 2234 2328 2415 2414 2326 2413 2492
8 2417 2331 2260 2352 2494 2416 2353 2438
8 2350 2259 2352 2436 2419 2332 2417 2496
8 2332 2239 2331 2417 2420 2333 2418 2497
8 2334 2240 2332 2419 2422 2335 2420 2499
8 2420 2333 2421 2500 2335 2241 2336 2423
8 2422 2335 2423 2502 2337 2243 2338 2425
8 2423 2336 2424 2503 2338 2244 2339 2426
8 2425 2338 2426 2505 2342 2246 2341 2429
8 2426 2339 2427 2506 2341 2245 2340 2428
8 2429 2341 2428 2507 2344 2249 2343 2430
8 2432 2346 2284 2374 2509 2431 2373 2455
8 2432 2346 2431 2509 2364 2270 2363 2449
8 2375 2285 2374 2456 2433 2347 2432 2510
8 2347 2433 2365 2271 2432 2510 2450 2364
8 2350 2259 2351 2435 2436 2352 2437 2514
8 2440 2356 2437 2514 2355 2264 2351 2435
8 2352 2260 2354 2437 2438 2353 2439 2516
8 2356 2265 2358 2442 2437 2354 2439 2516
8 2440 2356 2264 2355 2518 2442 2357 2441
8 2519 2443 2357 2441 2447 2361 2268 2362
8 2443 2359 2444 2520 2357 2266 2358 2442
8 2443 2359 2267 2361 2520 2444 2360 2446
8 2446 2360 2279 2370 2523 2445 2369 2452
8 2453 2370 2446 2524 2371 2280 2361 2447
8 2449 2363 2448 2525 2368 2278 2369 2452
8 2366 2277 2364 2450 2451 2368 2449 2526
8 2372 2283 2368 2451 2453 2370 2452 2527
8 2455 2373 2295 2380 2529 2454 2382 2460
8 2456 2374 2292 2378 2530 2455 2380 2458
8 2377 2293 2379 2457 2458 2380 2459 2531
8 2463 2384 2459 2531 2383 2297 2379 2457
8 2533 2461 2382 2460 2459 2381 2295 2380
8 2464 2385 2461 2533 2384 2298 2381 2459
8 2466 2387 2464 2537 2386 2300 2384 2463
8 2467 2388 2465 2538 2387 2301 2385 2464
8 2469 2390 2467 2540 2389 2303 2387 2466
8 2470 2391 2468 2541 2390 2304 2388 2467
8 2472 2393 2470 2543 2392 2306 2390 2469
8 2393 2307 2394 2473 2470 2391 2471 2544
8 2395 2308 2396 2475 2472 2393 2473 2546
8 2396 2309 2397 2476 2473 2394 2474 2547
8 2475 2396 2311 2398 2549 2476 2399 2478
8 2476 2397 2312 2399 2550 2477 2400 2479
8 2478 2399 2314 2403 2552 2479 2402 2483
8 2479 2400 2313 2402 2553 2480 2401 2482
8 2405 2316 2404 2485 2482 2401 2481 2556
8 2406 2317 2405 2486 2483 2402 2482 2557
8 2408 2319 2407 2488 2485 2404 2484 2559
8 2409 2320 2408 2489 2486 2405 2485 2560
8 2411 2322 2410 2490 2488 2407 2487 2561
8 2412 2323 2411 2491 2489 2408 2488 2562
8 2414 2326 2413 2492 2491 2411 2490 2563
8 2513 2434 2493 2565 2438 2353 2416 2494
8 2496 2417 2352 2436 2567 2494 2438 2515
8 2494 2416 2495 2568 2417 2331 2418 2497
8 2419 2332 2417 2496 2499 2420 2497 2570
8 2497 2418 2498 2571 2420 2333 2421 2500
8 2499 2420 2500 2573 2422 2335 2423 2502
8 2500 2421 2501 2574 2423 2336 2424 2503
8 2502 2423 2503 2576 2425 2338 2426 2505
8 2503 2424 2504 2577 2426 2339 2427 2506
8 2505 2426 2506 2578 2429 2341 2428 2507
8 2509 2431 2373 2455 2580 2508 2454 2529
8 2509 2431 2508 2580 2449 2363 2448 2525
8 2432 2510 2581 2509 2374 2456 2530 2455
8 2432 2510 2450 2364 2509 2581 2526 2449
8 2583 2511 2434 2513 2516 2439 2353 2438
8 2436 2352 2437 2514 2515 2438 2516 2588
8 2440 2356 2442 2518 2514 2437 2516 2588
8 2442 2358 2444 2520 2516 2439 2517 2589
8 2519 2443 2520 2591 2441 2357 2442 2518
8 2519 2443 2361 2447 2591 2520 2446 2524
8 2446 2360 2445 2523 2520 2444 2521 2592
8 2525 2448 2522 2593 2452 2369 2445 2523
8 2524 2446 2370 2453 2594 2523 2452 2527
8 2526 2449 2525 2595 2451 2368 2452 2527
8 2534 2462 2528 2597 2460 2382 2454 2529
8 2530 2455 2380 2458 2598 2529 2460 2532
8 2599 2533 2460 2532 2531 2459 2380 2458
8 2537 2464 2533 2599 2463 2384 2459 2531
8 2534 2462 2382 2460 2601 2535 2461 2533
8 2538 2465 2535 2601 2464 2385 2461 2533
8 2540 2467 2538 2604 2466 2387 2464 2537
8 2541 2468 2539 2605 2467 2388 2465 2538
8 2543 2470 2541 2607 2469 2390 2467 2540
8 2470 2391 2471 2544 2541 2468 2542 2608
8 2472 2393 2473 2546 2543 2470 2544 2610
8 2473 2394 2474 2547 2544 2471 2545 2611
8 2475 2396 2476 2549 2546 2473 2547 2613
8 2476 2397 2477 2550 2547 2474 2548 2614
8 2549 2476 2399 2478 2616 2550 2479 2552
8 2479 2400 2480 2553 2550 2477 2551 2617
8 2552 2479 2402 2483 2619 2553 2482 2557
8 2482 2401 2481 2556 2553 2480 2554 2620
8 2485 2404 2484 2559 2556 2481 2555 2623
8 2486 2405 2485 2560 2557 2482 2556 2624
8 2488 2407 2487 2561 2559 2484 2558 2625
8 2489 2408 2488 2562 2560 2485 2559 2626
8 2491 2411 2490 2563 2562 2488 2561 2627
8 2513 2434 2512 2585 2565 2493 2564 2630
8 2586 2513 2565 2632 2515 2438 2494 2567
8 2565 2493 2566 2633 2494 2416 2495 2568
8 2567 2494 2568 2635 2496 2417 2497 2570
8 2568 2495 2569 2636 2497 2418 2498 2571
8 2570 2497 2571 2638 2499 2420 2500 2573
8 2571 2498 2572 2639 2500 2421 2501 2574
8 2573 2500 2574 2641 2502 2423 2503 2576
8 2574 2501 2575 2642 2503 2424 2504 2577
8 2576 2503 2577 2643 2505 2426 2506 2578
8 2597 2528 2579 2645 2529 2454 2508 2580
8 2580 2508 2579 2645 2525 2448 2522 2593
8 2581 2509 2455 2530 2646 2580 2529 2598
8 2581 2509 2580 2646 2526 2449 2525 2595
8 2583 2511 2582 2648 2513 2434 2512 2585
8 2583 2511 2439 2516 2648 2582 2517 2589
8 2649 2583 2513 2586 2588 2516 2438 2515
8 2589 2517 2444 2520 2653 2587 2521 2592
8 2518 2442 2520 2591 2588 2516 2589 2654
8 2593 2522 2590 2655 2523 2445 2521 2592
8 2524 2446 2523 2594 2591 2520 2592 2656
8 2595 2525 2593 2657 2527 2452 2523 2594
8 2602 2536 2596 2659 2534 2462 2528 2597
8 2600 2534 2597 2660 2532 2460 2529 2598
8 2600 2534 2460 2532 2661 2601 2533 2599
8 2604 2538 2601 2661 2537 2464 2533 2599
8 2602 2536 2462 2534 2663 2603 2535 2601
8 2601 2535 2465 2538 2663 2603 2539 2605
8 2607 2541 2605 2665 2540 2467 2538 2604
8 2608 2542 2606 2666 2541 2468 2539 2605
8 2543 2470 2544 2610 2607 2541 2608 2668
8 2544 2471 2545 2611 2608 2542 2609 2669
8 2546 2473 2547 2613 2610 2544 2611 2671
8 2547 2474 2548 2614 2611 2545 2612 2672
8 2549 2476 2550 2616 2613 2547 2614 2674
8 2550 2477 2551 2617 2614 2548 2615 2675
8 2552 2479 2553 2619 2616 2550 2617 2677
8 2553 2480 2554 2620 2617 2551 2618 2678
8 2557 2482 2556 2624 2619 2553 2620 2680
8 2556 2481 2555 2623 2620 2554 2621 2681
8 2559 2484 2558 2625 2623 2555 2622 2683
8 2560 2485 2559 2626 2624 2556 2623 2684
8 2562 2488 2561 2627 2626 2559 2625 2685
8 2690 2629 2564 2630 2650 2584 2512 2585
8 2586 2513 2585 2651 2632 2565 2630 2691
8 2630 2564 2631 2692 2565 2493 2566 2633
8 2632 2565 2633 2694 2567 2494 2568 2635
8 2633 2566 2634 2695 2568 2495 2569 2636
8 2635 2568 2636 2697 2570 2497 2571 2638
8 2636 2569 2637 2698 2571 2498 2572 2639
8 2638 2571 2639 2700 2573 2500 2574 2641
8 2639 2572 2640 2701 2574 2501 2575 2642
8 2641 2574 2642 2702 2576 2503 2577 2643
8 2597 2528 2596 2659 2645 2579 2644 2704
8 2645 2579 2644 2704 2593 2522 2590 2655
8 2660 2597 2645 2705 2598 2529 2580 2646
8 2646 2580 2645 2705 2595 2525 2593 2657
8 2650 2584 2512 2585 2707 2647 2582 2648
8 2648 2582 2517 2589 2707 2647 2587 2653
8 2649 2583 2648 2708 2586 2513 2585 2651
8 2649 2583 2516 2588 2708 2648 2589 2654
8 2655 2590 2652 2710 2592 2521 2587 2653
8 2654 2589 2520 2591 2711 2653 2592 2656
8 2657 2593 2655 2712 2594 2523 2592 2656
8 2602 2536 2603 2663 2659 2596 2658 2714
8 2662 2602 2659 2715 2600 2534 2597 2660
8 2662 2602 2534 2600 2717 2663 2601 2661
8 2661 2601 2538 2604 2717 2663 2605 2665
8 2666 2606 2664 2718 2605 2539 2603 2663
8 2668 2608 2666 2720 2607 2541 2605 2665
8 2608 2542 2609 2669 2666 2606 2667 2721
8 2610 2544 2611 2671 2668 2608 2669 2723
8 2611 2545 2612 2672 2669 2609 2670 2724
8 2613 2547 2614 2674 2671 2611 2672 2726
8 2614 2548 2615 2675 2672 2612 2673 2727
8 2616 2550 2617 2677 2674 2614 2675 2729
8 2617 2551 2618 2678 2675 2615 2676 2730
8 2619 2553 2620 2680 2677 2617 2678 2732
8 2620 2554 2621 2681 2678 2618 2679 2733
8 2624 2556 2623 2684 2680 2620 2681 2735
8 2681 2621 2555 2623 2736 2682 2622 2683
8 2626 2559 2625 2685 2684 2623 2683 2737
8 2688 2628 2584 2650 2740 2686 2647 2707
8 2688 2628 2687 2742 2650 2584 2629 2690
8 2690 2629 2689 2745 2630 2564 2631 2692
8 2746 2690 2630 2691 2709 2650 2585 2651
8 2691 2630 2692 2747 2632 2565 2633 2694
8 2692 2631 2693 2748 2633 2566 2634 2695
8 2694 2633 2695 2750 2635 2568 2636 2697
8 2695 2634 2696 2751 2636 2569 2637 2698
8 2697 2636 2698 2753 2638 2571 2639 2700
8 2698 2637 2699 2754 2639 2572 2640 2701
8 2700 2639 2701 2755 2641 2574 2642 2702
8 2659 2596 2658 2714 2704 2644 2703 2757
8 2704 2644 2703 2757 2655 2590 2652 2710
8 2660 2597 2659 2715 2705 2645 2704 2758
8 2705 2645 2704 2758 2657 2593 2655 2712
8 2759 2706 2647 2707 2710 2652 2587 2653
8 2709 2650 2585 2651 2760 2707 2648 2708
8 2708 2648 2589 2654 2760 2707 2653 2711
8 2712 2655 2710 2761 2656 2592 2653 2711
8 2763 2713 2658 2714 2718 2664 2603 2663
8 2662 2602 2663 2717 2715 2659 2714 2764
8 2720 2666 2718 2767 2665 2605 2663 2717
8 2768 2719 2664 2718 2721 2667 2606 2666
8 2668 2608 2669 2723 2720 2666 2721 2770
8 2669 2609 2670 2724 2721 2667 2722 2771
8 2671 2611 2672 2726 2723 2669 2724 2773
8 2672 2612 2673 2727 2724 2670 2725 2774
8 2674 2614 2675 2729 2726 2672 2727 2776
8 2675 2615 2676 2730 2727 2673 2728 2777
8 2677 2617 2678 2732 2729 2675 2730 2779
8 2678 2618 2679 2733 2730 2676 2731 2780
8 2680 2620 2681 2735 2732 2678 2733 2782
8 2733 2679 2621 2681 2783 2734 2682 2736
8 2735 2681 2623 2684 2784 2736 2683 2737
8 2740 2686 2647 2707 2787 2738 2706 2759
8 2688 2628 2686 2740 2742 2687 2739 2789
8 2743 2688 2650 2709 2790 2740 2707 2760
8 2742 2687 2741 2792 2690 2629 2689 2745
8 2743 2688 2742 2793 2709 2650 2690 2746
8 2745 2689 2744 2795 2692 2631 2693 2748
8 2746 2690 2745 2796 2691 2630 2692 2747
8 2747 2692 2748 2797 2694 2633 2695 2750
8 2748 2693 2749 2798 2695 2634 2696 2751
8 2750 2695 2751 2800 2697 2636 2698 2753
8 2751 2696 2752 2801 2698 2637 2699 2754
8 2753 2698 2754 2802 2700 2639 2701 2755
8 2763 2713 2756 2804 2714 2658 2703 2757
8 2759 2706 2652 2710 2804 2756 2703 2757
8 2715 2659 2714 2764 2758 2704 2757 2805
8 2758 2704 2757 2805 2712 2655 2710 2761
8 2806 2759 2707 2760 2761 2710 2653 2711
8 2765 2716 2762 2808 2718 2664 2713 2763
8 2809 2763 2714 2764 2767 2718 2663 2717
8 2765 2716 2664 2718 2811 2766 2719 2768
8 2813 2768 2718 2767 2770 2721 2666 2720
8 2814 2769 2719 2768 2771 2722 2667 2721
8 2723 2669 2724 2773 2770 2721 2771 2816
8 2724 2670 2725 2774 2771 2722 2772 2817
8 2726 2672 2727 2776 2773 2724 2774 2819
8 2727 2673 2728 2777 2774 2725 2775 2820
8 2729 2675 2730 2779 2776 2727 2777 2822
8 2730 2676 2731 2780 2777 2728 2778 2823
8 2732 2678 2733 2782 2779 2730 2780 2825
8 2780 2731 2679 2733 2826 2781 2734 2783
8 2782 2733 2681 2735 2827 2783 2736 2784
8 2830 2785 2738 2787 2804 2756 2706 2759
8 2789 2739 2686 2740 2832 2786 2738 2787
8 2790 2740 2707 2760 2833 2787 2759 2806
8 2742 2687 2739 2789 2792 2741 2788 2835
8 2743 2688 2740 2790 2793 2742 2789 2836
8 2792 2741 2791 2838 2745 2689 2744 2795
8 2793 2742 2792 2839 2746 2690 2745 2796
8 2795 2744 2794 2841 2748 2693 2749 2798
8 2796 2745 2795 2842 2747 2692 2748 2797
8 2797 2748 2798 2843 2750 2695 2751 2800
8 2798 2749 2799 2844 2751 2696 2752 2801
8 2800 2751 2801 2845 2753 2698 2754 2802
8 2808 2762 2803 2847 2763 2713 2756 2804
8 2809 2763 2804 2848 2764 2714 2757 2805
8 2806 2759 2710 2761 2848 2804 2757 2805
8 2765 2716 2766 2811 2808 2762 2807 2850
8 2810 2765 2808 2851 2767 2718 2763 2809
8 2810 2765 2718 2767 2852 2811 2768 2813
8 2811 2766 2719 2768 2853 2812 2769 2814
8 2855 2814 2768 2813 2816 2771 2721 2770
8 2856 2815 2769 2814 2817 2772 2722 2771
8 2773 2724 2774 2819 2816 2771 2817 2858
8 2774 2725 2775 2820 2817 2772 2818 2859
8 2776 2727 2777 2822 2819 2774 2820 2861
8 2777 2728 2778 2823 2820 2775 2821 2862
8 2779 2730 2780 2825 2822 2777 2823 2864
8 2823 2778 2731 2780 2865 2824 2781 2826
8 2825 2780 2733 2782 2866 2826 2783 2827
8 2869 2828 2785 2830 2847 2803 2756 2804
8 2871 2829 2786 2832 2830 2785 2738 2787
8 2872 2830 2787 2833 2848 2804 2759 2806
8 2789 2739 2786 2832 2835 2788 2831 2874
8 2836 2789 2740 2790 2875 2832 2787 2833
8 2792 2741 2788 2835 2838 2791 2834 2877
8 2793 2742 2789 2836 2839 2792 2835 2878
8 2838 2791 2837 2880 2795 2744 2794 2841
8 2839 2792 2838 2881 2796 2745 2795 2842
8 2841 2794 2840 2882 2798 2749 2799 2844
8 2842 2795 2841 2883 2797 2748 2798 2843
8 2843 2798 2844 2884 2800 2751 2801 2845
8 2886 2846 2803 2847 2850 2807 2762 2808
8 2851 2808 2847 2887 2809 2763 2804 2848
8 2850 2807 2766 2811 2889 2849 2812 2853
8 2810 2765 2811 2852 2851 2808 2850 2890
8 2852 2811 2768 2813 2891 2853 2814 2855
8 2853 2812 2769 2814 2892 2854 2815 2856
8 2894 2856 2814 2855 2858 2817 2771 2816
8 2817 2772 2818 2859 2856 2815 2857 2895
8 2819 2774 2820 2861 2858 2817 2859 2897
8 2820 2775 2821 2862 2859 2818 2860 2898
8 2822 2777 2823 2864 2861 2820 2862 2900
8 2823 2778 2824 2865 2862 2821 2863 2901
8 2864 2823 2780 2825 2902 2865 2826 2866
8 2904 2867 2828 2869 2886 2846 2803 2847
8 2869 2828 2868 2906 2830 2785 2829 2871
8 2907 2869 2830 2872 2887 2847 2804 2848
8 2871 2829 2870 2909 2832 2786 2831 2874
8 2910 2871 2832 2875 2872 2830 2787 2833
8 2835 2788 2831 2874 2877 2834 2873 2912
8 2836 2789 2832 2875 2878 2835 2874 2913
8 2877 2834 2876 2915 2838 2791 2837 2880
8 2839 2792 2835 2878 2881 2838 2877 2916
8 2880 2837 2879 2917 2841 2794 2840 2882
8 2881 2838 2880 2918 2842 2795 2841 2883
8 2883 2841 2882 2919 2843 2798 2844 2884
8 2921 2885 2846 2886 2889 2849 2807 2850
8 2922 2886 2847 2887 2890 2850 2808 2851
8 2889 2849 2812 2853 2924 2888 2854 2892
8 2890 2850 2811 2852 2925 2889 2853 2891
8 2891 2853 2814 2855 2926 2892 2856 2894
8 2892 2854 2815 2856 2927 2893 2857 2895
8 2858 2817 2859 2897 2894 2856 2895 2929
8 2859 2818 2860 2898 2895 2857 2896 2930
8 2861 2820 2862 2900 2897 2859 2898 2932
8 2862 2821 2863 2901 2898 2860 2899 2933
8 2864 2823 2865 2902 2900 2862 2901 2934
8 2904 2867 2846 2886 2936 2903 2885 2921
8 2904 2867 2903 2936 2869 2828 2868 2906
8 2937 2904 2869 2907 2922 2886 2847 2887
8 2906 2868 2905 2939 2871 2829 2870 2909
8 2907 2869 2906 2940 2872 2830 2871 2910
8 2909 2870 2908 2942 2874 2831 2873 2912
8 2910 2871 2909 2943 2875 2832 2874 2913
8 2912 2873 2911 2945 2877 2834 2876 2915
8 2878 2835 2874 2913 2916 2877 2912 2946
8 2915 2876 2914 2947 2880 2837 2879 2917
8 2916 2877 2915 2948 2881 2838 2880 2918
8 2918 2880 2917 2949 2883 2841 2882 2919
8 2921 2885 2849 2889 2951 2920 2888 2924
8 2952 2921 2886 2922 2925 2889 2850 2890
8 2924 2888 2854 2892 2954 2923 2893 2927
8 2925 2889 2853 2891 2955 2924 2892 2926
8 2926 2892 2856 2894 2956 2927 2895 2929
8 2895 2857 2896 2930 2927 2893 2928 2957
8 2897 2859 2898 2932 2929 2895 2930 2959
8 2898 2860 2899 2933 2930 2896 2931 2960
8 2900 2862 2901 2934 2932 2898 2933 2961
8 2936 2903 2885 2921 2963 2935 2920 2951
8 2936 2903 2935 2963 2906 2868 2905 2939
8 2937 2904 2886 2922 2964 2936 2921 2952
8 2937 2904 2936 2964 2907 2869 2906 2940
8 2939 2905 2938 2966 2909 2870 2908 2942
8 2940 2906 2939 2967 2910 2871 2909 2943
8 2942 2908 2941 2969 2912 2873 2911 2945
8 2943 2909 2942 2970 2913 2874 2912 2946
8 2945 2911 2944 2971 2915 2876 2914 2947
8 2946 2912 2945 2972 2916 2877 2915 2948
8 2948 2915 2947 2973 2918 2880 2917 2949
8 2951 2920 2888 2924 2975 2950 2923 2954
8 2952 2921 2889 2925 2976 2951 2924 2955
8 2927 2893 2928 2957 2954 2923 2953 2978
8 2955 2924 2892 2926 2979 2954 2927 2956
8 2929 2895 2930 2959 2956 2927 2957 2980
8 2930 2896 2931 2960 2957 2928 2958 2981
8 2932 2898 2933 2961 2959 2930 2960 2982
8 2951 2920 2950 2975 2963 2935 2962 2984
8 2963 2935 2962 2984 2939 2905 2938 2966
8 2964 2936 2921 2952 2985 2963 2951 2976
8 2964 2936 2963 2985 2940 2906 2939 2967
8 2966 2938 2965 2987 2942 2908 2941 2969
8 2967 2939 2966 2988 2943 2909 2942 2970
8 2969 2941 2968 2989 2945 2911 2944 2971
8 2970 2942 2969 2990 2946 2912 2945 2972
8 2972 2945 2971 2991 2948 2915 2947 2973
8 2954 2923 2953 2978 2975 2950 2974 2993
8 2976 2951 2924 2955 2994 2975 2954 2979
8 2957 2928 2958 2981 2978 2953 2977 2995
8 2956 2927 2957 2980 2979 2954 2978 2996
8 2959 2930 2960 2982 2980 2957 2981 2997
8 2984 2962 2983 2999 2966 2938 2965 2987
8 2975 2950 2974 2993 2984 2962 2983 2999
8 2976 2951 2975 2994 2985 2963 2984 3000
8 2985 2963 2984 3000 2967 2939 2966 2988
8 2987 2965 2986 3001 2969 2941 2968 2989
8 2988 2966 2987 3002 2970 2942 2969 2990
8 2990 2969 2989 3003 2972 2945 2971 2991
8 2978 2953 2977 2995 2993 2974 2992 3004
8 2979 2954 2978 2996 2994 2975 2993 3005
8 2980 2957 2981 2997 2996 2978 2995 3006
8 2974 2993 2999 2983 2992 3004 3007 2998
8 2983 2999 2987 2965 2998 3007 3001 2986
8 3000 2984 2999 3008 2988 2966 2987 3002
8 2994 2975 2993 3005 3000 2984 2999 3008
8 3002 2987 3001 3009 2990 2969 2989 3003
8 2996 2978 2995 3006 3005 2993 3004 3010
8 3005 2993 3004 3010 3008 2999 3007 3011
8 3008 2999 3007 3011 3002 2987 3001 3009

CELL_TYPES 1910
12
12
12
12
12
12
12
12
12
12
12
12
12
12
12
12
12
12
12
12
12
12
12
12
12
12
12
12
12
12
12
12
12
12
12
12
12
12
12
12
12
12
12
12
12
12
12
12
12
12
12
12
12
12
12
12
12
12
12
12
12
12
12
12
12
12
12
12
12
12
12
12
12
12
12
12
12
12
12
12
12
12
12
12
12
12
12
12
12
12
12
12
12
12
12
12
12
12
12
12
12
12
12
12
12
12
12
12
12
12
12
12
12
12
12
12
12
12
12
12
12
12
12
12
12
12
12
12
12
12
12
12
12
12
12
12
12
12
12
12
12
12
12
12
12
12
12
12
12
12
12
12
12
12
12
12
12
12
12
12
12
12
12
12
12
12
12
12
12
12
12
12
12
12
12
12
12
12
12
12
12
12
12
12
12
12
12
12
12
12
12
12
12
12
12
12
12
12
12
12
12
12
12
12
12
12
12
12
12
12
12
12
12
12
12
12
12
12
12
12
12
12
12
12
12
12
12
12
12
12
12
12
12
12
12
12
12
12
12
12
12
12
12
12
12
12
12
12
12
12
12
12
12
12
12
12
12
12
12
12
12
12
12
12
12
12
12
12
12
12
12
12
12
12
12
12
12
12
12
12
12
12
12
12
12
12
12
12
12
12
12
12
12
12
12
12
12
12
12
12
12
12
12
12
12
12
12
12
12
12
12
12
12
12
12
12
12
12
12
12
12
12
12
12
12
12
12
12
12
12
12
12
12
12
12
12
12
12
12
12
12
12
12
12
12
12
12
12
12
12
12
12
12
12
12
12
12
12
12
12
12
12
12
12
12
12
12
12
12
12
12
12
12
12
12
12
12
12
12
12
12
12
12
12
12
12
12
12
12
12
12
12
12
12
12
12
12
12
12
12
12
12
12
12
12
12
12
12
12
12
12
12
12
12
12
12
12
12
12
12
12
12
12
12
12
12
12
12
12
12
12
12
12
12
12
12
12
12
12
12
12
12
12
12
12
12
12
12
12
12
12
12
12
12
12
12
12
12
12
12
12
12
12
12
12
12
12
12
12
12
12
12
12
12
12
12
12
12
12
12
12
12
12
12
12
12
12
12
12
12
12
12
12
12
12
12
12
12
12
12
12
12
12
12
12
12
12
12
12
12
12
12
12
12
12
12
12
12
12
12
12
12
12
12
12
12
12
12
12
12
12
12
12
12
12
12
12
12
12
12
12
12
12
12
12
12
12
12
12
12
12
12
12
12
12
12
12
12
12
12
12
12
12
12
12
12
12
12
12
12
12
12
12
12
12
12
12
12
12
12
12
12
12
12
12
12
12
12
12
12
12
12
12
12
12
12
12
12
12
12
12
12
12
12
12
12
12
12
12
12
12
12
12
12
12
12
12
12
12
12
12
12
12
12
12
12
12
12
12
12
12
12
12
12
12
12
12
12
12
12
12
12
12
12
12
12
12
12
12
12
12
12
12
12
12
12
12
12
12
12
12
12
12
12
12
12
12
12
12
12
12
12
12
12
12
12
12
12
12
12
12
12
12
12
12
12
12
12
12
12
12
12
12
12
12
12
12
12
12
12
12
12
12
12
12
12
12
12
12
12
12
12
12
12
12
12
12
12
12
12
12
12
12
12
12
12
12
12
12
12
12
12
12
12
12
12
12
12
12
12
12
12
12
12
12
12
12
12
12
12
12
12
12
12
12
12
12
12
12
12
12
12
12
12
12
12
12
12
12
12
12
12
12
12
12
12
12
12
12
12
12
12
12
12
12
12
12
12
12
12
12
12
12
12
12
12
12
12
12
12
12
12
12
12
12
12
12
12
12
12
12
12
12
12
12
12
12
12
12
12
12
12
12
12
12
12
12
12
12
12
12
12
12
12
12
12
12
12
12
12
12
12
12
12
12
12
12
12
12
12
12
12
12
12
12
12
12
12
12
12
12
12
12
12
12
12
12
12
12
12
12
12
12
12
12
12
12
12
12
12
12
12
12
12
12
12
12
12
12
12
12
12
12
12
12
12
12
12
12
12
12
12
12
12
12
12
12
12
12
12
12
12
12
12
12
12
12
12
12
12
12
12
12
12
12
12
12
12
12
12
12
12
12
12
12
12
12
12
12
12
12
12
12
12
12
12
12
12
12
12
12
12
12
12
12
12
12
12
12
12
12
12
12
12
12
12
12
12
12
12
12
12
12
12
12
12
12
12
12
12
12
12
12
12
12
12
12
12
12
12
12
12
12
12
12
12
12
12
12
12
12
12
12
12
12
12
12
12
12
12
12
12
12
12
12
12
12
12
12
12
12
12
12
12
12
12
12
12
12
12
12
12
12
12
12
12
12
12
12
12
12
12
12
12
12
12
12
12
12
12
12
12
12
12
12
12
12
12
12
12
12
12
12
12
12
12
12
12
12
12
12
12
12
12
12
12
12
12
12
12
12
12
12
12
12
12
12
12
12
12
12
12
12
12
12
12
12
12
12
12
12
12
12
12
12
12
12
12
12
12
12
12
12
12
12
12
12
12
12
12
12
12
12
12
12
12
12
12
12
12
12
12
12
12
12
12
12
12
12
12
12
12
12
12
12
12
12
12
12
12
12
12
12
12
12
12
12
12
12
12
12
12
12
12
12
12
12
12
12
12
12
12
12
12
12
12
12
12
12
12
12
12
12
12
12
12
12
12
12
12
12
12
12
12
12
12
12
12
12
12
12
12
12
12
12
12
12
12
12
12
12
12
12
12
12
12
12
12
12
12
12
12
12
12
12
12
12
12
12
12
12
12
12
12
12
12
12
12
12
12
12
12
12
12
12
12
12
12
12
12
12
12
12
12
12
12
12
12
12
12
12
12
12
12
12
12
12
12
12
12
12
12
12
12
12
12
12
12
12
12
12
12
12
12
12
12
12
12
12
12
12
12
12
12
12
12
12
12
12
12
12
12
12
12
12
12
12
12
12
12
12
12
12
12
12
12
12
12
12
12
12
12
12
12
12
12
12
12
12
12
12
12
12
12
12
12
12
12
12
12
12
12
12
12
12
12
12
12
12
12
12
12
12
12
12
12
12
12
12
12
12
12
12
12
12
12
12
12
12
12
12
12
12
12
12
12
12
12
12
12
12
12
12
12
12
12
12
12
12
12
12
12
12
12
12
12
12
12
12
12
12
12
12
12
12
12
12
12
12
12
12
12
12
12
12
12
12
12
12
12
12
12
12
12
12
12
12
12
12
12
12
12
12
12
12
12
12
12
12
12
12
12
12
12
12
12
12
12
12
12
12
12
12
12
12
12
12
12
12
12
12
12
12
12
12
12
12
12
12
12
12
12
12
12
12
12
12
12
12
12
12
12
12
12
12
12
12
12
12
12
12
12
12
12
12
12
12
12
12
12
12
12
12
12
12
12
12
12
12
12
12
12
12
12
12
12
12
12
12
12
12
12
12
12
12
12
12
12
12
12
12
12
12
12
12
12
12
12
12
12
12
12
12
12
12
12
12
12
12
12
12
12
12
12
12
12
12
12
12
12
12
12
12
12
12
12
12
12
12
12
12
12
12
12
12
12
12
12
12
12
12
12
12
12
12
12
12
12
12
12
12
12
12
12
12
12
12
12
12
12
12
12
12
12
12
12
12
12
12
12
12
12
12
12
12
12
12
12
12
12
12
12
12
12
12
12
12
12
12
12
12
12
12
12
12
12
12
12
12
12
12
12
12
12
12
12
12
12
12
12
12
12
12
12
12
12
12
12
12
12
12
12
12
12
12
12
12
12
12
12
12
12
12
12
12
12
12
12
12
12
12
12
12
12
12
12
12
12
12
12
12
12
12
12
12
12
12
12
12
12
12
12
12
12
12
12
12
12
12
12
12
12
12
12
12
12
12
12
12
12
12
12
12
12
12
12
12
12
12
12
12
12
12
12
12
12
12
12
12
12
12
12
12
12
12
12
12
12
12
12
12
12
12
12
12
12
12
12
12
12
12
12
12
12
12
12
12
12
12
12
12
12
12
12
12
12
12
12
12
12
12
12
12
12
12
12
12
12
12
12
12
12
12
12
12
12
12
12
12
12
12
12
12
12
12
12
12
12
12
12
12
12
12
12
12
12
12
12
12
12
12
12
12
12
12
12
12
12
12
12
12
12
12
12
12
12
12
12
12
12
12
12
12
12
12
12
12
12
12
12
12
12
12
12
12
12
12
12
12
12
12
12
12
12
12
12
12
12
12
12
12
12
12
12
12
12
12
12
12
12
12
12
12
12
12
12
12
12
12
12
12
12
12
12
12
12
12
12
12
12
12
12
12
12
12
12
12
12
12
12

POINT_DATA 3012
SCALARS Jp_lamdaP float 4
LOOKUP_TABLE default
0.999776 1 1 0.999776
1 1 1 1
0.999782 1 1 0.999782
0.999725 1 1 0.999725
0.999776 1 1 0.999776
0.999764 1 1 0.999764
0.999103 1 1 0.999103
1 1 1 1
1 1 1 1
1 1 1 1
0.999849 1 1 0.999849
0.999242 1 1 0.999242
0.999701 1 1 0.999701
0.999722 1 1 0.999722
0.999783 1 1 0.999783
0.999746 1 1 0.999746
0.999769 1 1 0.999769
0.999788 1 1 0.999788
0.999106 1 1 0.999106
1 1 1 1
0.999705 1 1 0.999705
0.999755 1 1 0.999755
0.998973 1 1 0.998973
0.999076 1 1 0.999076
0.999778 1 1 0.999778
0.999128 1 1 0.999128
1.0041 1.00606 1 0.998058
1 1 1 1
0.999877 1 1 0.999877
0.999891 1 1 0.999891
1 1 1 1
0.99925 1 1 0.99925
0.999748 1 1 0.999748
0.999773 1 1 0.999773
0.999218 1 1 0.999218
1 1 1 1
0.999304 1 1 0.999304
0.999342 1 1 0.999342
0.999511 1.00145 1 0.998065
1 1 1 1
1 1 1 1
0.99986 1 1 0.99986
1 1 1 1
0.999719 1 1 0.999719
0.9989 1 1 0.9989
1 1 1 1
0.999119 1 1 0.999119
0.999764 1 1 0.999764
0.999796 1 1 0.999796
0.999771 1 1 0.999771
0.999111 1 1 0.999111
0.999843 1 1 0.999843
0.999724 1 1 0.999724
0.999789 1 1 0.999789
0.999773 1 1 0.999773
0.998972 1 1 0.998972
0.999132 1 1 0.999132
0.999078 1 1 0.999078
1.00451 1.00648 1 0.998043
1 1 1 1
0.999698 1 1 0.999698
0.999115 1 1 0.999115
0.998937 1 1 0.998937
0.999027 1 1 0.999027
1.00722 1.00948 1 0.997767
1.00549 1.00761 1 0.997893
0.999839 1 1 0.999839
0.999238 1 1 0.999238
1.00186 1.00371 1 0.998157
1.01715 1.01998 1 0.997222
1 1 1 1
1 1 1 1
1 1 1 1
0.999258 1 1 0.999258
1 1 1 1
1 1 1 1
0.999095 1 1 0.999095
0.999952 1 1 0.999952
0.999201 1 1 0.999201
0.999424 1 1 0.999424
0.999053 1.00099 1 0.998062
1 1 1 1
1.00034 1 1.00045 0.999882
0.999027 1 1 0.999027
0.99913 1 1 0.99913
1.00739 1.00978 1 0.997639
0.999625 1 1 0.999622
1.00216 1.0042 1 0.997964
0.998459 1.00025 1 0.998206
1.00265 1.00524 1 0.997423
1 1 1 1
1 1 1 1
1 1 1 1
1 1 1 1
1 1 1 1
0.999857 1 1 0.999857
0.999001 1 1 0.999001
0.999864 1 1 0.999864
0.999052 1 1 0.999052
1 1 1 1
0.998899 1 1 0.998899
0.999099 1 1 0.999099
1.00638 1.00902 1 0.997386
0.999155 1 1 0.999155
1.0088 1.01138 1 0.997452
0.999721 1 1 0.999721
0.999742 1 1 0.999742
0.999799 1 1 0.999799
0.999788 1 1 0.999788
0.998972 1 1 0.998972
0.999083 1 1 0.999083
0.999138 1 1 0.999138
1.00491 1.0069 1 0.998028
1 1 1 1
0.999717 1 1 0.999717
0.998925 1 1 0.998925
0.998934 1 1 0.998934
0.99992 1 1 0.99992
0.999303 1 1 0.999303
0.999028 1 1 0.999028
1.00721 1.0095 1 0.997726
1.0025 1.00437 1 0.998139
1.00574 1.00783 1 0.997923
1.01705 1.01988 1 0.997227
0.998921 1 1 0.998921
0.998923 1 1 0.998923
1.00581 1.00824 1 0.997587
1.00728 1.00964 1 0.997655
1.0069 1.00914 1 0.99778
1.02531 1.02832 1 0.997073
1 1 1 1
1.01986 1.02275 1 0.997169
0.999601 1 1.00014 0.999464
0.999384 1.00122 1 0.998163
1.01385 1.01662 1 0.997274
1.02654 1.0296 1 0.997019
1.00039 1 1.00067 0.999719
1.00298 1 1.00415 0.998834
1 1 1 1
1 1 1 1
0.999101 1 1 0.999101
1 1 1 1
0.999404 1 1 0.999404
0.999206 1 1 0.999206
0.998519 1.00046 1 0.998058
1 1 1 1
1.00001 1 1.00011 0.999902
0.999109 1 1 0.999109
0.999207 1 1 0.999207
1.00679 1.00917 1 0.99764
0.999702 1 1.00009 0.999609
1.00128 1.00332 1 0.997967
0.9983 1.0001 1 0.998205
1.0025 1.0051 1 0.997406
1.0001 1 1.00035 0.999757
0.999957 1 1 0.999957
1.00093 1 1.00186 0.999073
1.00876 1.01126 1 0.99753
1.00513 1.00734 1 0.997802
1.02141 1.02445 1 0.997029
0.998583 1 1.00013 0.998458
1.00902 1.01172 1 0.99733
1.00162 1.00355 1.00057 0.997513
1.0098 1.0126 1 0.997231
1 1 1 1
1 1 1 1
1 1 1 1
0.999854 1 1.00003 0.999819
1 1 1 1
1 1 1 1
1 1 1 1
0.998984 1 1 0.998984
0.998929 1 1 0.998929
1 1 1 1
1 1 1 1
0.9989 1 1 0.9989
0.999032 1 1 0.999032
1.00679 1.00942 1 0.997386
0.999009 1 1 0.999009
1.00896 1.01153 1 0.997451
0.998894 1 1 0.998894
1.00536 1.00804 1 0.997343
1.00766 1.01025 1 0.997429
1.0277 1.03086 1 0.996925
1.00916 1.01171 1 0.997475
1.03023 1.03337 1 0.996963
1 1 1 1
0.999736 1 1 0.999736
0.998716 1 1 0.998716
0.998932 1 1 0.998932
1 1 1 1
0.999371 1 1 0.999371
0.999031 1 1 0.999031
1.00717 1.00951 1 0.997684
1.00601 1.00808 1 0.997953
1.00313 1.00502 1 0.998121
1.01694 1.01976 1 0.997233
0.998919 1 1 0.998919
0.998919 1 1 0.998919
1.00565 1.00819 1 0.997477
1.00729 1.00963 1 0.997683
1 1 1 1
0.999527 1 1.00005 0.999481
1.00019 1.00196 1 0.998228
1.00685 1.00909 1 0.997778
1.02521 1.02825 1 0.997043
1.01324 1.01602 1 0.997264
1.02005 1.02291 1 0.997203
1.02612 1.02918 1 0.997027
1.00059 1 1.00088 0.999709
1.00263 1 1.0038 0.998836
1.00487 1.00753 1 0.997366
1.00633 1.00872 1 0.997627
1.02615 1.02922 1 0.997012
1.02589 1.029 1 0.996986
1.02249 1.0254 1 0.997161
1.03547 1.03855 1 0.997032
1.00026 1 1.00066 0.999598
1.02857 1.03161 1 0.997047
0.998619 1.00018 1.00011 0.998338
1.0071 1.00974 1 0.997383
1.02417 1.02723 1 0.99702
1.02827 1.03126 1 0.99711
1.00233 1 1.00369 0.998645
1.0004 1 1.00133 0.999072
1.0027 1 1.00449 0.998218
0.99905 1 1 0.99905
1 1 1 1
0.999922 1 1 0.999922
0.999161 1 1 0.999161
1.0062 1.00857 1 0.997642
0.999816 1 1.0002 0.999615
0.998244 1 1.00004 0.998203
1.0004 1.00243 1 0.99797
1.00259 1.00522 1 0.99739
1.00011 1 1.00033 0.999778
0.999967 1 1 0.999967
1.00117 1 1.00209 0.999075
1.00843 1.01093 1 0.99753
1.00428 1.00649 1 0.997806
1.02151 1.02455 1 0.997025
0.99869 1 1.00023 0.998461
1.00964 1.01234 1 0.997338
1.00103 1.00306 1.00047 0.997508
1.01058 1.0134 1 0.997218
0.999988 1 1 0.999988
0.999817 1 1.00107 0.998746
1.00039 1 1.001 0.999391
1.00146 1 1.00301 0.998453
1.0255 1.02863 1 0.996964
1.01612 1.01899 1 0.99718
1.02899 1.0322 1 0.996888
0.999589 1.0013 1.00049 0.997805
1.01741 1.0203 1 0.997171
1.00969 1.01095 1.00158 0.99718
1.02014 1.02311 1 0.997096
0.999782 1 1 0.999782
1 1 1 1
1 1 1 1
1 1 1 1
1 1 1 1
0.999899 1 1 0.999899
1 1 1 1
1.00022 1 1.00041 0.999806
1 1 1 1
0.999009 1 1 0.999009
0.99896 1 1 0.99896
1.00921 1.01178 1 0.99745
1.00716 1.0098 1 0.997386
0.998902 1 1 0.998902
1 1 1 1
0.998893 1 1 0.998893
1.00562 1.0083 1 0.997344
1.00806 1.01066 1 0.997429
1.02752 1.03069 1 0.996924
1.00916 1.01172 1 0.997473
1.03009 1.03323 1 0.996961
1.00475 1.00744 1 0.997338
1.02621 1.02942 1 0.996888
1.02957 1.03271 1 0.996954
1.04186 1.045 0.999929 0.997068
1.02909 1.03223 1 0.996958
1.03996 1.04306 1 0.997028
0.998916 1 1 0.998916
0.998915 1 1 0.998915
1.0055 1.00816 1 0.997368
1.00731 1.00962 1 0.99771
1 1 1 1
0.999497 1 1 0.999497
1.00091 1.00262 1 0.998292
1.00679 1.00904 1 0.997775
1.02514 1.02821 1 0.997012
1.0202 1.02303 1 0.997238
1.01263 1.01542 1 0.997254
1.02581 1.02886 1 0.997034
1.00075 1 1.00105 0.999698
1.00228 1 1.00345 0.998838
1.00481 1.00749 1 0.997341
1.0063 1.0087 1 0.997623
1.02612 1.02919 1 0.99702
1.02606 1.02914 1 0.997014
1.00011 1 1.00052 0.999587
0.998788 1.00039 1.00006 0.998335
1.00758 1.01018 1 0.997419
1.02279 1.02571 1 0.997153
1.03552 1.03858 1 0.997058
1.0236 1.02669 1 0.99699
1.02856 1.0316 1 0.997052
1.02859 1.03157 1 0.997109
1.0016 1 1.00296 0.998647
1.00283 1 1.00462 0.99822
1.00093 1 1.00187 0.999069
1.02524 1.02836 1 0.996968
1.02682 1.02987 1 0.997041
1.04041 1.0435 0.999999 0.997034
1.03697 1.04007 1 0.997022
1.03133 1.03436 1 0.997075
1.03466 1.03761 0.999872 0.997286
0.999023 1 1.00052 0.998508
1.0303 1.0332 1 0.997192
1.0008 1.0031 1 0.997704
1.01532 1.01841 1 0.996964
1.02533 1.02851 1 0.996903
1.02491 1.02767 1 0.997314
0.99962 1 1.00033 0.999288
0.998746 1 1.00059 0.998153
1.00468 1 1.00635 0.998343
1.0005 1 1.00249 0.998014
1.00811 1.01061 1 0.997529
0.999978 1 1 0.999978
0.999861 1 1.00006 0.999799
1.00115 1 1.00208 0.999077
1.00344 1.00564 1 0.997811
1.02158 1.02464 1 0.997022
0.998709 1 1.00024 0.998465
1.00004 1.00221 1.00033 0.997503
1.01027 1.01296 1 0.997346
1.0109 1.01374 1 0.997205
0.999992 1 1 0.999992
1.0003 1 1.00155 0.998747
0.999998 1 1.0006 0.999399
1.00186 1 1.00342 0.998448
1.0254 1.02853 1 0.99696
1.01611 1.01899 1 0.99718
1.02877 1.03199 1 0.996885
0.999035 1.00078 1.00045 0.997812
1.01743 1.02031 1 0.997181
1.00932 1.01044 1.00173 0.997169
1.02023 1.02313 1 0.997168
0.999998 1 1 0.999998
0.999599 1 1 0.999599
0.999265 1.00005 1.00106 0.998161
1.00134 1 1.00259 0.998753
1.00033 1 1.00218 0.998154
1.03299 1.0362 1 0.996897
1.02333 1.0264 1 0.997006
1.02621 1.02934 1 0.996955
1.0044 1.00499 1.00199 0.997429
1.01825 1.02118 1 0.997128
1.01216 1.01443 1.00086 0.996903
0.999756 1 1 0.999756
0.999312 1 1 0.999312
0.999801 1 1 0.999801
0.999784 1 1 0.999784
1 1 1 1
1 1 1 1
1 1 1 1
1 1 1 1
1 1 1 1
0.999958 1 1 0.999958
1 1 1 1
0.999884 1 1 0.999884
1 1 1 1
1.00058 1 1.00078 0.999793
1 1 1 1
1.00913 1.01168 1 0.997472
1.00839 1.01099 1 0.997428
1.02973 1.03287 1 0.996959
1.02732 1.03049 1 0.996922
1.00596 1.00864 1 0.997344
0.998892 1 1 0.998892
1.00493 1.00761 1 0.997338
1.02603 1.02923 1 0.996888
1.02923 1.03237 1 0.996952
1.0413 1.04474 0.999619 0.997086
1.02851 1.03165 1 0.996955
1.03971 1.04281 1 0.997026
1.0254 1.02861 1 0.996879
1.04028 1.04414 0.999223 0.997084
1.04196 1.04504 1 0.997059
1.04085 1.04597 0.997805 0.997292
1.03599 1.03914 1 0.996968
1.03941 1.04258 0.999633 0.997332
1.00479 1.00749 1 0.997317
1.00629 1.00869 1 0.997619
1.02614 1.0292 1 0.997028
1.02622 1.02927 1 0.997042
0.99996 1 1.00038 0.999576
0.999001 1.00067 1 0.998333
1.00825 1.01082 1 0.997455
1.02311 1.02603 1 0.997145
1.03561 1.03864 1 0.997084
1.02855 1.03159 1 0.997056
1.02289 1.02601 1 0.996961
1.02891 1.03189 1 0.997108
1.00095 1 1.0023 0.99865
1.00301 1 1.00479 0.998223
1.00137 1 1.0023 0.999067
1.02526 1.02841 1 0.996935
1.02703 1.03008 1 0.997039
1.0401 1.04324 0.999929 0.997064
1.03708 1.04018 1 0.997017
0.999083 1 1.00058 0.998506
1.00232 1.00463 1 0.997698
1.01405 1.01705 1.00003 0.997013
1.03157 1.03461 1 0.99706
1.03469 1.03758 0.99989 0.997331
1.0256 1.02882 1 0.996867
1.03003 1.03293 1 0.997196
1.02527 1.028 1 0.997345
0.999176 1.00003 1.00099 0.998154
1.00061 1 1.00262 0.997992
0.999857 1 1.00057 0.999284
1.00425 1 1.00588 0.998375
1.04025 1.04343 0.999911 0.997034
1.03963 1.0427 1 0.997052
1.03817 1.04335 0.997823 0.997207
1.03581 1.03994 0.998681 0.997343
1.03219 1.03499 1 0.997288
1.03243 1.03636 0.998689 0.997508
0.998429 1.00044 1 0.997986
1.02607 1.0287 0.999934 0.99751
1.00553 1.00827 1 0.997282
1.01613 1.01927 1.00018 0.996737
1.02665 1.02989 1 0.996857
1.02521 1.0279 1 0.997384
0.999453 1 1 0.999453
1.00189 1 1.00332 0.998573
0.997965 1.00003 1 0.997932
1.00321 1 1.00511 0.998104
0.999938 1.00004 1.00194 0.997962
0.999996 1 1 0.999996
1.02524 1.02837 1 0.996955
0.999622 1 1.00021 0.999407
1.00106 1 1.00232 0.998748
1.00241 1 1.00397 0.998443
1.01614 1.01902 1 0.997179
1.0286 1.03181 1 0.996883
0.998659 1.00034 1.00051 0.997817
1.00982 1.01074 1.00193 0.997159
1.01754 1.0204 1 0.99719
1.02059 1.02342 1 0.99724
0.999999 1 1 0.999999
0.999607 1 1 0.999607
0.999091 1 1.00093 0.998163
1.00167 1 1.00292 0.998752
1.00068 1 1.00255 0.998133
1.03304 1.03626 1 0.996891
1.02348 1.02656 1 0.997004
1.02612 1.02926 1 0.996944
1.0034 1.00385 1.00213 0.997434
1.02087 1.02381 1 0.997131
1.01193 1.01408 1.00096 0.996922
0.999705 1 1 0.999705
0.999543 1 1.00051 0.999031
0.999358 1.00105 1.00048 0.997839
1.00271 1 1.00433 0.998393
0.999692 1 1.00164 0.998051
1.03086 1.03393 1 0.997036
1.0214 1.02446 1 0.997014
1.02472 1.02766 1 0.997144
1.00244 1.00143 1.00379 0.997232
1.01002 1.01325 1 0.996815
0.999759 1 1 0.999759
0.999243 1 1 0.999243
0.999289 1 1 0.999289
0.999055 1 1 0.999055
0.999323 1 1 0.999323
0.999808 1 1 0.999808
0.999802 1 1 0.999802
1 1 1 1
0.999786 1 1 0.999786
1 1 1 1
1 1 1 1
1 1 1 1
1 1 1 1
1 1 1 1
0.999991 1 1 0.999991
0.999943 1 1 0.999943
1 1 1 1
1 1 1 1
0.999869 1 1 0.999869
1 1 1 1
1.02803 1.03118 1 0.996951
1.02912 1.03226 1 0.99695
1.0396 1.04271 1 0.997023
1.04084 1.04459 0.999306 0.997104
1.02573 1.02893 1 0.996888
1.00502 1.0077 1 0.997338
1.02517 1.02838 1 0.99688
1.04029 1.04408 0.999287 0.997078
1.04164 1.04471 1 0.997058
1.04028 1.04585 0.997344 0.997324
1.03664 1.0398 1 0.996961
1.03886 1.04243 0.999221 0.997354
1.03979 1.04346 0.999425 0.997053
1.03991 1.04582 0.997084 0.997262
1.0396 1.04447 0.997948 0.997377
1.03728 1.04496 0.995178 0.997454
1.03588 1.03878 1 0.997207
1.03721 1.04222 0.997631 0.997557
1.02515 1.02833 1 0.996903
1.02721 1.03026 1 0.997037
1.03971 1.04289 0.999857 0.997094
1.03715 1.04025 1 0.997012
0.999136 1.00001 1.00063 0.998504
1.00361 1.00593 1 0.997692
1.01278 1.01558 1.00018 0.997063
1.03182 1.03487 1 0.997045
1.03467 1.03749 0.999899 0.997376
1.02975 1.03264 1 0.997199
1.02591 1.02917 1 0.996832
1.0253 1.028 1 0.997375
0.999637 1.00012 1.00136 0.998156
1.00076 1.00003 1.00277 0.99797
1.00011 1 1.00083 0.999279
1.00352 1 1.00512 0.998408
1.04024 1.04341 0.999927 0.997035
1.03921 1.0423 0.999999 0.99703
1.03799 1.04309 0.99787 0.997239
1.03631 1.04002 0.999109 0.997325
0.998975 1.001 1 0.997978
1.0049 1.00756 1.00003 0.997327
1.01656 1.01951 1.00039 0.996728
1.03159 1.03444 1 0.997246
1.03189 1.03577 0.998693 0.997565
1.02488 1.02812 1 0.996843
1.02703 1.02961 0.999978 0.997512
1.02603 1.02867 1 0.997436
0.998394 1.00047 1 0.997929
0.999559 1.00027 1.00132 0.997969
1.0038 1 1.00571 0.998097
0.999485 1 1.00007 0.999416
1.00165 1 1.00305 0.998605
1.03835 1.04473 0.996633 0.997251
1.037 1.04236 0.997562 0.997291
1.03272 1.03947 0.995942 0.997553
1.02853 1.03258 0.998499 0.997577
0.999693 1.00199 1 0.997708
1.0308 1.03327 0.999922 0.997687
1.0038 1.0065 1.00029 0.997026
1.01449 1.01752 1.00051 0.996513
1.02281 1.02606 1 0.996834
0.999545 1 1 0.999545
1.0002 1 1.00133 0.998865
1.00208 1 1.00376 0.998335
0.998674 1.0008 1 0.997874
1.00392 1 1.00605 0.997884
0.998915 1.00032 1.00073 0.997867
1 1 1 1
0.999615 1 1 0.999615
1.0331 1.03633 1 0.996885
1.00211 1 1.00336 0.998752
0.998773 1 1.00061 0.998165
1.0012 1 1.00309 0.998112
1.02351 1.02659 1 0.997003
1.02585 1.02901 1 0.996933
1.00209 1.00237 1.00229 0.99744
1.01092 1.01324 1.00077 0.996941
1.02341 1.02635 1 0.997134
0.999711 1 1 0.999711
0.999422 1 1.00039 0.999035
0.998878 1.00063 1.00041 0.997836
1.0035 1 1.00512 0.998389
0.999691 1 1.00164 0.998052
1.0309 1.03397 1 0.997029
1.0217 1.02477 1 0.997003
1.02442 1.02733 1 0.997171
1.00267 1.00224 1.00324 0.997193
1.00889 1.01208 1.00006 0.996786
0.999205 1 1 0.999205
1.00187 1 1.00326 0.998615
1.00115 1.00145 1.002 0.997708
1.00246 1 1.00433 0.99814
0.999043 1.0001 1.001 0.997948
1.03099 1.03376 0.99983 0.99749
1.01983 1.02298 1 0.996919
1.02099 1.02387 1 0.997188
1.00413 1.00278 1.00433 0.997032
1.00208 1.00551 1 0.996597
0.999762 1 1 0.999762
0.999261 1 1 0.999261
0.998974 1 1 0.998974
0.999266 1 1 0.999266
0.999322 1 1 0.999322
0.999024 1 1 0.999024
0.998891 1 1 0.998891
0.99898 1 1 0.99898
0.999329 1 1 0.999329
0.999804 1 1 0.999804
0.999808 1 1 0.999808
1 1 1 1
0.999803 1 1 0.999803
1 1 1 1
1 1 1 1
1 1 1 1
1 1 1 1
1 1 1 1
1 1 1 1
0.999983 1 1 0.999983
1 1 1 1
0.999929 1 1 0.999929
1 1 1 1
1 1 1 1
1.03724 1.04041 1 0.996955
1.04109 1.04416 1 0.997058
1.0383 1.04228 0.998802 0.997376
1.03964 1.04566 0.996881 0.997357
1.04035 1.04406 0.999371 0.997073
1.02509 1.0283 1 0.99688
1.04019 1.04367 0.999629 0.997032
1.04021 1.04586 0.997336 0.997255
1.03975 1.04438 0.998209 0.99736
1.03666 1.04468 0.994849 0.997467
1.03528 1.03818 1 0.997206
1.03575 1.04126 0.9971 0.9976
1.03971 1.04537 0.997344 0.997237
1.03805 1.04631 0.994644 0.997447
1.03717 1.04551 0.99445 0.997563
1.03425 1.03934 0.997457 0.997636
1.04037 1.04353 0.999936 0.997034
1.03883 1.04194 1 0.997008
1.03787 1.04285 0.997946 0.997271
1.03687 1.04017 0.999523 0.997307
0.999549 1.00158 1 0.997971
1.00429 1.00693 1 0.997373
1.01691 1.01966 1.00058 0.996718
1.03095 1.03384 1 0.997205
1.03136 1.03518 0.998684 0.997622
1.02815 1.03071 1 0.997514
1.02346 1.02671 1 0.996829
1.02753 1.03012 1 0.997487
0.998817 1.00089 1 0.997927
0.99911 1.00048 1.00066 0.997975
1.00515 1 1.00707 0.99809
0.999548 1 1.00017 0.99938
1.00154 1 1.00291 0.998636
1.03882 1.04504 0.996783 0.997254
1.03704 1.04251 0.997464 0.997287
1.03258 1.03885 0.996412 0.997543
1.00055 1.00286 1 0.997701
1.00427 1.00696 1.00026 0.997071
1.01385 1.01664 1.00076 0.996502
1.02908 1.0331 0.998537 0.997564
1.02367 1.02682 1 0.996925
1.02801 1.0307 0.999731 0.997659
0.999567 1 1 0.999567
0.999436 1.00158 1 0.997862
0.998477 1.00011 1.00038 0.997986
1.00449 1 1.00663 0.997869
1.0023 1 1.00395 0.998353
1.00011 1 1.00128 0.998834
1.03624 1.04491 0.994351 0.997338
1.03493 1.04522 0.992667 0.997472
1.02684 1.03689 0.992643 0.99764
1.03048 1.03682 0.9961 0.997781
1.00138 1.00386 1 0.997527
1.02288 1.02565 1 0.997298
1.00315 1.00492 1.00165 0.996597
1.00755 1.01019 1.00104 0.996354
0.999719 1 1 0.999719
0.999157 1 1.00007 0.999083
1.00034 1 1.0018 0.998545
1.00373 1 1.00575 0.997995
0.999526 1.00161 1.00021 0.997716
1.00493 1 1.00726 0.997688
0.999716 1 1 0.999716
0.999197 1 1.00016 0.999038
1.03113 1.03421 1 0.997023
1.00379 1 1.00541 0.998385
0.998322 1.00022 1.00027 0.997834
0.999574 1 1.00152 0.998052
1.02227 1.02535 1 0.996993
1.02443 1.02731 1 0.997197
1.00314 1.00326 1.00273 0.997154
1.00775 1.01076 1.00027 0.996757
0.999208 1 1 0.999208
1.00178 1 1.00317 0.998617
1.00088 1.00118 1.00198 0.997719
1.00242 1 1.00428 0.998147
0.998551 1.00004 1.00048 0.998034
1.03156 1.03449 0.999642 0.997531
1.01921 1.02235 1 0.996931
1.02242 1.02523 1 0.997261
1.00356 1.00199 1.00458 0.996994
1.00262 1.00607 1.00003 0.996539
0.998883 1 1 0.998883
1.00291 1 1.00466 0.998256
1.00264 1.0013 1.00378 0.997566
0.999431 1 1.00161 0.997827
1.03188 1.04531 0.989348 0.997775
1.02523 1.02784 0.999872 0.997591
1.01139 1.01475 1 0.996686
1.0038 1.00293 1.00426 0.996619
0.999279 1 1 0.999279
0.998987 1 1 0.998987
0.99887 1 1 0.99887
0.999322 1 1 0.999322
0.998993 1 1 0.998993
0.999328 1 1 0.999328
0.998881 1 1 0.998881
0.998993 1 1 0.998993
0.99883 1 1 0.99883
0.998809 1 1 0.998809
0.998949 1 1 0.998949
0.999312 1 1 0.999312
0.999789 1 1 0.999789
0.999803 1 1 0.999803
1 1 1 1
0.999809 1 1 0.999809
1 1 1 1
1 1 1 1
1 1 1 1
1 1 1 1
1 1 1 1
1 1 1 1
0.999999 1 1 0.999999
1 1 1 1
0.999975 1 1 0.999975
1 1 1 1
1 1 1 1
1.03457 1.03747 1 0.997206
1.03999 1.04437 0.998466 0.997342
1.03435 1.04035 0.996583 0.997643
1.03609 1.04445 0.994505 0.99748
1.0405 1.0459 0.997579 0.997247
1.04047 1.04378 0.999816 0.997012
1.03952 1.04529 0.997237 0.997236
1.03769 1.04582 0.994772 0.997438
1.03647 1.04483 0.994421 0.997563
1.03594 1.04082 0.997666 0.997644
1.03817 1.04611 0.995004 0.99739
1.03868 1.05072 0.990915 0.997608
1.03881 1.04897 0.992611 0.997693
1.03924 1.04532 0.99692 0.997256
1.03706 1.04263 0.997363 0.997284
1.03252 1.03821 0.996977 0.997533
1.00141 1.00372 1 0.997694
1.00461 1.00733 1.00018 0.997116
1.01296 1.01567 1.00085 0.996491
1.02966 1.03362 0.998613 0.997552
1.02498 1.02779 0.999633 0.997631
1.02393 1.02699 1 0.997017
0.99981 1.00196 1 0.997851
0.998106 1 1 0.998106
1.00486 1 1.00702 0.997854
0.999589 1 1 0.999589
1.00183 1 1.00347 0.99837
0.99997 1 1.00117 0.998803
1.03691 1.04529 0.99462 0.997345
1.03466 1.04518 0.992429 0.99748
1.02706 1.03649 0.993255 0.997632
1.00079 1.00328 1 0.997517
1.00281 1.00475 1.0014 0.996679
1.00735 1.01007 1.0009 0.996412
1.03062 1.03664 0.996396 0.997788
1.02261 1.02554 0.999861 0.997282
0.999768 1 1 0.999768
0.999112 1 1.00003 0.999083
0.998583 1.00082 1 0.997765
1.00692 1.00016 1.00898 0.997803
1.0038 1 1.00579 0.998028
1.00029 1 1.00177 0.998519
1.03653 1.04834 0.991182 0.997529
1.02721 1.04364 0.986626 0.9976
1.02509 1.03678 0.990877 0.99783
1.02134 1.02816 0.995555 0.997805
1.00116 1.00306 1.00091 0.997201
1.00637 1.00842 1.0014 0.996571
1.00277 1.00376 1.00264 0.996391
0.999882 1 1 0.999882
0.999459 1 1 0.999459
0.99923 1 1 0.99923
0.998877 1 1.0002 0.99868
1.0009 1 1.00267 0.998233
1.00725 1 1.00939 0.997882
0.998068 1.00026 1 0.997806
1.02712 1.0002 1.02898 0.997989
0.99921 1 1 0.99921
1.00196 1 1.00335 0.998618
1.03205 1.03513 0.999457 0.997573
1.00283 1 1.00469 0.998153
1.00086 1.00098 1.00215 0.99773
0.998156 1 1.00004 0.99812
1.0182 1.02133 1 0.996943
1.02362 1.02636 1 0.997334
1.00314 1.00138 1.00482 0.996957
1.00332 1.00687 1 0.996482
0.998975 1 1.00012 0.998858
1.00289 1 1.00462 0.998271
1.00301 1.00127 1.00415 0.997595
0.999317 1.00004 1.00142 0.997862
1.03362 1.04655 0.989832 0.997792
1.02505 1.02762 0.999949 0.997546
1.01249 1.01581 1 0.996728
1.00465 1.00432 1.00377 0.99657
0.999509 1 1.00086 0.998655
1.03113 1.04962 0.984552 0.997797
1.00138 1 1.00342 0.997965
1.00187 1.00188 1.00268 0.997315
1.03111 1.03779 0.995668 0.997882
1.012 1.01522 1 0.996826
1.00525 1.00563 1.00323 0.996402
0.999 1 1 0.999
0.998863 1 1 0.998863
0.998824 1 1 0.998824
0.999327 1 1 0.999327
0.999006 1 1 0.999006
0.998871 1 1 0.998871
0.99931 1 1 0.99931
0.998953 1 1 0.998953
0.998824 1 1 0.998824
0.99883 1 1 0.99883
0.998819 1 1 0.998819
0.998759 1 1 0.998759
0.998806 1 1.00006 0.998748
0.998918 1 1 0.998918
0.99927 1 1 0.99927
0.999769 1 1 0.999769
0.999788 1 1 0.999788
1 1 1 1
0.999802 1 1 0.999802
1 1 1 1
1 1 1 1
1 1 1 1
1 1 1 1
1 1 1 1
0.999909 1 1 0.999909
1 1 1 1
1 1 1 1
1 1 1 1
0.999997 1 1 0.999997
1 1 1 1
1 1 1 1
1.03766 1.04232 0.997866 0.997652
1.03572 1.04406 0.994438 0.997562
1.0373 1.04531 0.9949 0.997429
1.03935 1.04521 0.99715 0.997236
1.03775 1.04603 0.994654 0.997409
1.03876 1.05037 0.991335 0.997598
1.03776 1.04823 0.992283 0.997703
1.03845 1.0506 0.990833 0.997586
1.04436 1.05777 0.989578 0.997713
1.03004 1.04941 0.983548 0.997953
1.0376 1.04569 0.994899 0.997352
1.03434 1.04519 0.992104 0.997488
1.02707 1.03605 0.993694 0.997625
1.00083 1.00328 1.00006 0.997507
1.00287 1.00486 1.00126 0.996762
1.00771 1.01049 1.00078 0.99647
1.03086 1.0366 0.996667 0.997795
1.02248 1.02564 0.99965 0.997266
0.998083 1.00027 1 0.997814
1.00921 1.00051 1.01081 0.997916
1.00462 1 1.00657 0.998061
0.999817 1 1 0.999817
0.999094 1 1.00001 0.999082
1.0005 1 1.00201 0.998493
1.03652 1.04865 0.990873 0.997541
0.999877 1 1 0.999877
0.999433 1 1 0.999433
1.02703 1.04283 0.987222 0.997601
1.02465 1.0368 0.990464 0.997798
1.00068 1.00236 1.00104 0.997292
1.00333 1.00367 1.0033 0.996373
1.00706 1.00968 1.00084 0.996568
1.02018 1.02721 0.99536 0.997785
0.9993 1 1 0.9993
0.998905 1 1.00023 0.998675
0.998869 1.0006 1.00055 0.997716
1.02178 1.00019 1.02349 0.998132
1.00577 1 1.0079 0.99789
1.00133 1 1.00309 0.998251
1.04312 1.05639 0.989742 0.997672
1.01211 1.04107 0.974377 0.99774
1.01898 1.0326 0.988792 0.997994
1.00397 1.01169 0.994862 0.997501
1.00172 1.00111 1.0033 0.997319
1.00357 1.00183 1.00547 0.99629
0.99943 1 1 0.99943
0.999409 1 1 0.999409
0.999147 1 1 0.999147
0.998773 1 1 0.998773
0.999391 1 1.00094 0.998451
1.00059 1 1.00264 0.997959
1.03623 1 1.03844 0.99788
1.00198 1.00029 1.00355 0.998148
0.999133 1 1.0003 0.998832
1.00245 1 1.00417 0.998287
1.03483 1.04704 0.990504 0.997809
1.02487 1.02744 1 0.997501
0.999113 1.00007 1.00115 0.997896
1.00329 1.00126 1.00441 0.997624
1.01393 1.01718 1.00004 0.99677
1.00532 1.00546 1.00335 0.99652
0.999661 1 1.00102 0.998643
1.03276 1.05192 0.983914 0.997838
1.00136 1 1.00338 0.997984
1.00152 1.00157 1.00269 0.997268
1.02976 1.03711 0.995055 0.997856
1.01215 1.01531 1 0.996893
1.00545 1.00556 1.00348 0.996418
1.00084 1 1.0025 0.998338
1.01772 1.03616 0.983941 0.998239
1.00155 1.00185 1.00198 0.99772
1.00313 1.00243 1.00379 0.996928
1.01507 1.0218 0.99592 0.997482
1.00211 1.00333 1.00221 0.996583
0.994651 1.00584 0.990801 0.998054
0.998857 1 1 0.998857
0.999016 1 1.0002 0.998821
0.998816 1 1.0001 0.998713
0.999308 1 1 0.999308
0.998957 1 1 0.998957
0.998852 1 1 0.998852
0.998818 1 1 0.998818
0.999269 1 1 0.999269
0.998907 1 1 0.998907
0.99879 1 1 0.99879
0.998763 1 1.00001 0.998749
0.998762 1 1 0.998762
0.998772 1 1 0.998772
0.998871 1 1.00028 0.998591
0.998886 1 1.00015 0.998734
0.998824 1 1 0.998824
0.999173 1 1 0.999173
0.998976 1 1 0.998976
0.999159 1 1 0.999159
0.999758 1 1 0.999758
0.999768 1 1 0.999768
1 1 1 1
0.999786 1 1 0.999786
1 1 1 1
1 1 1 1
1 1 1 1
1 1 1 1
1 1 1 1
0.999929 1 1 0.999929
0.999907 1 1 0.999907
1 1 1 1
1 1 1 1
1 1 1 1
1 1 1 1
1 1 1 1
1 1 1 1
1.03684 1.04773 0.991875 0.997713
1.0388 1.05006 0.991673 0.997588
1.03733 1.04596 0.994307 0.997428
1.03842 1.0505 0.990896 0.997584
1.04242 1.0558 0.989597 0.99771
1.03052 1.04876 0.98468 0.997901
1.04434 1.06022 0.987222 0.997776
0.984801 1.01604 0.972321 0.996842
1.00843 1.03327 0.977377 0.998558
0.999528 1 1 0.999528
1.03649 1.04891 0.990587 0.997553
1.02717 1.0421 0.988042 0.997601
1.02438 1.03689 0.990141 0.997767
0.99948 1.00128 1.00082 0.997382
1.0036 1.00324 1.00402 0.996356
1.00761 1.01062 1.00045 0.996565
1.01881 1.026 0.995219 0.997764
0.998431 1.0008 1 0.997627
1.016 1 1.01775 0.998278
1.004 1 1.00612 0.997897
0.999873 1 1 0.999873
1.00159 1 1.00332 0.998269
0.99937 1 1 0.99937
0.998826 1 1.00016 0.99867
0.999407 1 1 0.999407
1.04083 1.05667 0.987301 0.997679
0.999466 1 1 0.999466
0.999408 1 1 0.999408
0.999109 1 1 0.999109
1.01493 1.04082 0.97733 0.997741
1.01935 1.03314 0.988683 0.997948
1.00037 1.00102 1.00202 0.997343
1.00374 1.00182 1.00556 0.996373
1.00314 1.00987 0.995829 0.99749
0.998815 1 1 0.998815
0.999436 1 1.00102 0.998414
1.00668 1.00017 1.00846 0.998063
1.0294 1 1.03155 0.997917
1.00046 1 1.00247 0.997994
1.02916 1.04833 0.983911 0.99777
1.00652 1.03901 0.970793 0.99787
1.01123 1.02037 0.993338 0.997682
0.996239 1.004 0.994987 0.99727
1.00324 1 1.00557 0.997689
0.999046 1 1 0.999046
0.998954 1 1 0.998954
0.99889 1 1.00005 0.998836
0.999005 1 1.00045 0.998554
1.00032 1 1.00207 0.998252
1.02468 1 1.02679 0.997948
1.02432 1 1.02648 0.997898
0.999706 1 1.00108 0.998631
1.00133 1 1.00333 0.998003
1.03373 1.05485 0.982061 0.997877
1.02851 1.0367 0.994258 0.997829
1.01199 1.01508 1 0.996959
1.00125 1.00136 1.00268 0.997221
1.00535 1.00532 1.0036 0.996434
1.00078 1 1.0024 0.998379
1.01563 1.03611 0.981936 0.998261
1.00037 1.00122 1.00141 0.997739
1.00265 1.00165 1.00408 0.996935
1.01538 1.02201 0.995919 0.99758
1.00206 1.00277 1.00273 0.996571
0.993949 1.0055 0.991157 0.997329
1.0005 1.00017 1.00214 0.998194
1.00708 1.02044 0.988668 0.998221
1.00052 1.00086 1.00194 0.997717
1.0044 1.00093 1.00644 0.997042
0.995707 1.0058 0.992669 0.997276
0.941658 0.982645 0.976243 0.981609
0.950486 0.980208 0.978737 0.990743
0.983352 0.993058 0.992129 0.998082
0.804115 0.873881 0.948333 0.970298
0.742302 0.857598 0.898923 0.962885
0.999045 1 1.00023 0.998817
0.999143 1 1.0004 0.998745
0.998918 1 1.00018 0.998736
0.999268 1 1 0.999268
0.998897 1 1 0.998897
0.998749 1 1 0.998749
0.998764 1 1 0.998764
0.998762 1 1 0.998762
0.99937 1 1.00066 0.99871
0.999202 1 1 0.999202
0.998841 1 1 0.998841
0.998757 1 1 0.998757
0.99923 1 1.00062 0.99861
1.00053 1 1.00191 0.99862
1.00057 1 1.00194 0.998637
0.99948 1 1.00084 0.99864
0.998788 1 1 0.998788
0.999152 1 1 0.999152
0.998864 1 1 0.998864
0.998804 1 1 0.998804
0.998968 1 1 0.998968
0.998942 1 1 0.998942
0.999247 1 1 0.999247
0.999156 1 1 0.999156
0.999753 1 1 0.999753
0.999758 1 1 0.999758
1 1 1 1
0.999767 1 1 0.999767
1 1 1 1
1 1 1 1
1 1 1 1
1 1 1 1
1 1 1 1
0.999943 1 1 0.999943
0.999926 1 1 0.999926
1 1 1 1
0.999905 1 1 0.999905
1 1 1 1
1 1 1 1
1 1 1 1
1 1 1 1
1 1 1 1
1.04028 1.05364 0.989589 0.997707
1.03843 1.05042 0.990984 0.997582
1.03156 1.04832 0.98614 0.997849
0.988886 1.01587 0.976461 0.996901
1.04165 1.05775 0.986978 0.997775
1.01732 1.03605 0.983445 0.998449
1.03446 1.04399 0.992978 0.997871
0.946005 0.982879 0.972304 0.9899
0.998413 1.01935 0.981924 0.99749
0.999535 1 1 0.999535
0.999526 1 1 0.999526
0.999148 1 1 0.999148
0.999193 1 1 0.999193
1.03886 1.05685 0.985251 0.997687
1.01702 1.04009 0.980032 0.997741
1.01945 1.03341 0.988566 0.997903
0.999264 1.00073 1.00117 0.997366
1.00383 1.00203 1.00536 0.996455
1.00241 1.00858 0.996399 0.997479
1.01199 1 1.01404 0.997977
1.02289 1 1.02499 0.997954
1.00012 1 1.0021 0.998028
0.999406 1 1 0.999406
0.999348 1 1.00097 0.998377
0.998858 1 1 0.998858
0.999502 1 1 0.999502
0.999071 1 1 0.999071
1.02665 1.04796 0.98184 0.997784
0.999092 1 1 0.999092
0.998998 1 1 0.998998
0.998919 1 1 0.998919
1.00968 1.04123 0.971769 0.997868
1.01004 1.01984 0.992694 0.997681
1.00289 1.00005 1.00517 0.997673
0.997382 1.00444 0.995651 0.997316
0.999165 1 1.00063 0.998533
0.999965 1 1.00177 0.998194
1.02726 1.00009 1.02934 0.997887
1.02572 1 1.02788 0.997908
1.0021 1.03652 0.968813 0.997916
1.00056 1.02767 0.975733 0.997832
1.00356 1.00817 0.998047 0.997375
0.990934 1.00034 0.992532 0.998052
0.998712 1 1 0.998712
0.999534 1 1.00088 0.998654
1.00841 1 1.01002 0.998398
1.04213 1 1.0444 0.997823
0.918205 0.971609 0.964344 0.979978
1.00104 1 1.00263 0.99842
0.999401 1.00055 1.00109 0.997758
1.01455 1.03592 0.981055 0.998284
1.01591 1.02247 0.995899 0.997678
1.00234 1.0025 1.0033 0.996557
1.00231 1.00091 1.00447 0.996942
0.994465 1.00539 0.992514 0.99659
1.00033 1.00008 1.00202 0.998239
1.00765 1.02094 0.98876 0.99821
0.999997 1.00083 1.00144 0.99773
1.00417 1.00104 1.00611 0.997041
0.998338 1.0068 0.994284 0.997292
0.940655 0.98711 0.97233 0.980056
0.945855 0.977918 0.978478 0.988487
0.983385 0.991353 0.99385 0.998101
0.803788 0.871611 0.950054 0.970668
0.727044 0.846617 0.894716 0.959817
0.99973 1 1.00129 0.998438
0.831433 0.894553 0.956218 0.971996
0.784808 0.862317 0.943727 0.964384
0.989003 1.00713 0.983857 0.998109
1.0057 1.0009 1.00683 0.997981
1.01217 1.00419 1.01047 0.997507
0.974618 0.987104 0.989049 0.998283
0.935865 0.970523 0.983786 0.980182
0.926711 0.95449 0.983286 0.987399
0.784098 0.872826 0.924537 0.971669
0.803482 0.905202 0.920753 0.964023
0.999659 1 1.00088 0.998776
0.999695 1 1.00098 0.998718
1.00034 1 1.00142 0.998922
0.99923 1 1 0.99923
0.998858 1 1 0.998858
0.999612 1 1.00093 0.998687
0.999692 1 1.00106 0.998629
0.998743 1 1 0.998743
0.999153 1 1 0.999153
1.00022 1 1.00161 0.998613
0.999856 1 1.0012 0.998657
0.998818 1 1 0.998818
1.00022 1 1.00158 0.998646
1.00188 1 1.00326 0.998617
1.00312 1 1.00442 0.998703
0.998687 1 1.00007 0.998618
0.998826 1 1 0.998826
0.99886 1 1 0.99886
0.998797 1 1 0.998797
0.998686 1 1 0.998686
0.999059 1 1.00026 0.9988
0.999025 1 1.00027 0.998759
0.99991 1 1.00129 0.99862
0.999215 1 1.00028 0.998938
0.998993 1 1.00002 0.998968
0.999272 1 1 0.999272
0.998907 1 1 0.998907
0.999223 1 1 0.999223
0.999747 1 1 0.999747
0.999154 1 1 0.999154
0.999754 1 1 0.999754
1 1 1 1
0.999757 1 1 0.999757
1 1 1 1
1 1 1 1
1 1 1 1
1 1 1 1
1 1 1 1
0.999503 1 1 0.999503
0.999943 1 1 0.999943
0.99994 1 1 0.99994
1 1 1 1
0.999922 1 1 0.999922
1 1 1 1
1 1 1 1
1 1 1 1
1 1 1 1
1 1 1 1
0.992031 1.01579 0.979582 0.996965
1.03962 1.05516 0.987465 0.997773
1.02294 1.03879 0.986378 0.998338
0.940411 0.976738 0.971638 0.990913
0.998787 1.01907 0.982437 0.997618
1.03565 1.04723 0.991091 0.997828
1.01398 1.02572 0.991061 0.997476
0.955063 0.978192 0.984312 0.991917
0.940988 0.980452 0.979541 0.979795
0.7915 0.868829 0.938077 0.971131
0.718316 0.825704 0.90409 0.962231
0.999143 1 1 0.999143
0.999534 1 1 0.999534
0.999524 1 1 0.999524
0.999136 1 1 0.999136
0.998905 1 1 0.998905
0.998938 1 1 0.998938
0.999112 1 1 0.999112
0.999162 1 1 0.999162
1.02368 1.04797 0.978979 0.997798
1.01391 1.04451 0.972774 0.997866
1.00914 1.01927 0.992365 0.99768
1.00278 1.0002 1.00493 0.997658
0.99864 1.0045 0.996795 0.997362
1.02967 1 1.03186 0.997876
1.02728 1 1.02948 0.997867
0.999829 1 1.0017 0.998136
0.999043 1 1 0.999043
0.999043 1 1.00053 0.998513
0.999138 1 1 0.999138
0.999002 1 1 0.999002
1.00301 1.0371 0.969149 0.997913
0.998757 1 1.00002 0.998741
0.999026 1 1.00034 0.998687
1.00055 1.02697 0.97641 0.997809
1.00075 1.00767 0.995625 0.997494
0.993274 1.00075 0.994561 0.997958
1.01204 1 1.01377 0.998296
1.03781 1 1.04005 0.997841
0.995905 1.02671 0.972039 0.9979
0.985649 1.00833 0.979597 0.997867
0.985946 1.00092 0.98712 0.997892
0.998062 1.00031 0.999595 0.998152
1.00001 1 1.00156 0.998452
1.00424 1 1.00582 0.998429
1.03659 1 1.03857 0.998097
0.822402 0.90197 0.937122 0.972962
0.934539 0.976872 0.973756 0.982448
0.999791 1 1.00151 0.998285
0.999562 1.00075 1.00107 0.997744
1.0084 1.02162 0.988833 0.9982
1.00068 1.00776 0.995656 0.997308
1.00399 1.00125 1.00571 0.997041
0.935479 0.977068 0.976905 0.98007
0.951853 0.984542 0.97744 0.989112
0.983767 0.98984 0.995744 0.998113
0.802418 0.873231 0.94524 0.972142
0.71441 0.83582 0.893447 0.956678
0.999782 1 1.00135 0.998436
0.826623 0.898974 0.945518 0.972503
0.776464 0.854456 0.94376 0.962876
0.990107 1.00796 0.984155 0.998105
1.00555 1.00107 1.00649 0.998007
1.01033 1.00253 1.01014 0.99766
0.966899 0.98102 0.987177 0.998408
0.940758 0.979463 0.981719 0.978369
0.927297 0.958655 0.977496 0.98956
0.787135 0.868197 0.934578 0.970097
0.80086 0.908198 0.915504 0.963199
1.0013 1 1.00253 0.998774
0.815014 0.873049 0.966348 0.966034
0.887494 0.938513 0.972577 0.972302
0.990144 0.999394 0.992023 0.998711
1.01367 1.00257 1.0124 0.99868
0.977212 0.971297 1.00772 0.998384
0.915191 0.941663 0.981086 0.990624
0.916074 0.946784 0.98963 0.977703
0.797104 0.87387 0.939676 0.970712
0.836456 0.936152 0.924148 0.966841
1.00041 1 1.00171 0.998702
1.00024 1 1.00135 0.998892
1.0039 1 1.00479 0.999116
0.999154 1 1 0.999154
0.998847 1 1 0.998847
1.00036 1 1.00169 0.998674
1.0002 1 1.0016 0.998606
1.00007 1 1.00141 0.998654
0.998824 1 1 0.998824
1.00082 1 1.00221 0.998613
0.998687 1 1.00007 0.99862
1.0041 1 1.00536 0.998745
1.01912 0.999748 1.02027 0.99912
1.00081 1 1.0022 0.998608
0.998584 1 1 0.998584
0.998857 1 1 0.998857
0.99879 1 1 0.99879
0.998699 1 1.00002 0.998682
0.999094 1 1.0003 0.998793
0.999005 1 1.00021 0.998796
0.999917 1 1.00119 0.998731
0.998994 1 1.00031 0.998681
0.999833 1 1.00104 0.99879
0.99874 1 1.00018 0.998558
0.99899 1 1.00093 0.998063
0.999845 1 1.00134 0.998502
0.99986 1 1.00124 0.998618
0.999833 1 1.00097 0.998862
0.999419 1 1.00048 0.998936
0.999263 1 1 0.999263
0.999099 1 1.00013 0.998967
0.999273 1 1 0.999273
0.999745 1 1 0.999745
0.999199 1 1 0.999199
0.999748 1 1 0.999748
1 1 1 1
0.999754 1 1 0.999754
1 1 1 1
1 1 1 1
1 1 1 1
1 1 1 1
1 1 1 1
0.999519 1 1 0.999519
0.999929 1 1 0.999929
0.999503 1 1 0.999503
1 1 1 1
0.999943 1 1 0.999943
0.999938 1 1 0.999938
1 1 1 1
1 1 1 1
1 1 1 1
1 1 1 1
1 1 1 1
0.822911 0.88951 0.952753 0.971006
0.783756 0.861557 0.943044 0.964639
0.942858 0.981074 0.969381 0.991403
1.00026 1.01871 0.984099 0.997748
1.03859 1.05052 0.99084 0.997784
0.939374 0.96527 0.979758 0.993279
1.01279 1.02512 0.990379 0.99757
0.948934 0.989169 0.97784 0.981065
0.799605 0.873341 0.943452 0.970447
0.713245 0.829266 0.896754 0.959117
0.969516 0.99648 0.977835 0.994994
0.938984 0.973553 0.98347 0.980703
0.778635 0.869599 0.922099 0.971041
0.789611 0.895428 0.916088 0.962599
0.999082 1 1.00029 0.99879
0.99917 1 1 0.99917
0.999533 1 1 0.999533
0.999123 1 1 0.999123
0.998946 1 1 0.998946
0.99928 1 1.00049 0.998793
0.998928 1 1 0.998928
0.998898 1 1 0.998898
0.99908 1 1 0.99908
0.999132 1 1 0.999132
1.00441 1.03719 0.970428 0.997911
0.998592 1.02501 0.976384 0.997788
0.998026 1.00757 0.992894 0.997614
0.995065 1.00098 0.99622 0.997863
1.03278 1.00017 1.03481 0.997859
1.01651 1 1.01835 0.998194
0.99872 1 1 0.99872
0.99877 1 1 0.99877
0.995763 1.027 0.971594 0.997936
1.0007 1 1.00227 0.998429
1.00438 1 1.00599 0.998393
0.984987 1.00673 0.980574 0.997788
0.984353 1.00044 0.985897 0.997993
0.999463 1.00101 1.0004 0.99806
1.03246 1 1.03446 0.998065
0.992733 1.00431 0.990219 0.998233
0.979985 1 0.981323 0.998636
1.01448 1.00051 1.01575 0.998249
1.00401 1 1.00562 0.998402
1.00326 1 1.00501 0.998264
1.02 1 1.02185 0.998189
0.83156 0.884931 0.967972 0.970782
0.832496 0.901106 0.949624 0.972869
0.924078 0.974587 0.967485 0.98004
0.999758 1 1.00133 0.998434
1.00536 1.00108 1.00625 0.998032
0.992136 1.00862 0.985527 0.998102
1.00887 1.00098 1.01009 0.99781
0.819076 0.89363 0.94213 0.972872
0.9394 0.976571 0.981361 0.980207
0.918453 0.955153 0.973756 0.987493
0.963054 0.976223 0.98796 0.998533
0.786303 0.867857 0.934931 0.969086
0.778343 0.858495 0.941379 0.963094
0.78865 0.898416 0.910481 0.964131
1.00196 1 1.00318 0.998777
0.816415 0.876474 0.962717 0.967551
0.895625 0.94527 0.974621 0.972153
0.991755 0.999336 0.993606 0.998801
1.01341 1.00118 1.01359 0.998649
0.974077 0.969863 1.0058 0.998553
0.913949 0.944717 0.978614 0.988574
0.919818 0.951371 0.987065 0.979503
0.815334 0.892878 0.941369 0.970026
0.823711 0.92454 0.920648 0.967734
1.00551 0.999692 1.00638 0.999442
0.900409 0.946991 0.973541 0.976652
0.875554 0.935248 0.958846 0.976354
0.996214 0.982404 1.01435 0.999715
0.935795 0.942212 0.999357 0.993829
0.924938 0.944056 1.00121 0.978567
0.852584 0.912946 0.963439 0.969321
0.849504 0.953689 0.921316 0.96683
0.999987 1 1.00113 0.998861
1.00334 1 1.00423 0.999118
1.01903 1 1.01969 0.999355
0.998823 1 1 0.998823
0.99864 1 1.00002 0.998621
0.999545 1 1.00094 0.99861
1.00491 1 1.00613 0.998787
0.998582 1 1 0.998582
1.00124 1 1.00264 0.998601
1.02228 0.999985 1.02313 0.999186
1.03378 0.997217 1.03724 0.999446
1.02238 1 1.02334 0.999068
0.998574 1 1 0.998574
0.998699 1 1.00002 0.998677
0.998948 1 1.00016 0.998787
0.998834 1 1 0.998834
0.998807 1 1.00011 0.998696
0.999666 1 1.00094 0.998731
1.00009 1 1.00129 0.998801
0.999535 1 1.00084 0.998694
1.00362 1 1.00462 0.999012
0.998631 1 1 0.998631
0.998938 1.0001 1.00026 0.998587
0.998929 1 1.00069 0.998236
0.999011 1 1.00153 0.997489
1.00066 1 1.00225 0.998413
0.998981 1 1.00079 0.99819
0.999733 1 1.0012 0.998531
1.00005 1 1.00133 0.998722
0.999752 1 1.00114 0.998615
0.999573 1 1.00071 0.998861
0.999203 1 1 0.999203
0.999399 1 1.00047 0.998933
0.999261 1 1 0.999261
0.999738 1 1 0.999738
0.999274 1 1 0.999274
0.999745 1 1 0.999745
0.999999 1 1 0.999999
0.99975 1 1 0.99975
1 1 1 1
1 1 1 1
1 1 1 1
1 1 1 1
1 1 1 1
0.999343 1 1 0.999343
0.999904 1 1 0.999904
0.999457 1 1 0.999457
1 1 1 1
0.999932 1 1 0.999932
0.999504 1 1 0.999504
1 1 1 1
1 1 1 1
0.999944 1 1 0.999944
1 1 1 1
1 1 1 1
1 1 1 1
0.814452 0.874779 0.961502 0.968316
0.827845 0.896968 0.949956 0.971558
0.893273 0.945821 0.971748 0.9719
0.776823 0.856147 0.941664 0.963558
0.938336 0.972035 0.973984 0.991117
1.01042 1.02451 0.988546 0.997671
0.955901 0.988773 0.984257 0.982218
0.805283 0.877088 0.945172 0.971392
0.712835 0.83634 0.891594 0.955959
0.967708 0.992895 0.980297 0.994222
0.935737 0.974009 0.982442 0.977876
0.791179 0.877748 0.929587 0.96965
0.791613 0.899759 0.915343 0.961177
0.948981 0.980672 0.97487 0.99263
0.928046 0.95108 0.998413 0.977332
0.816117 0.898085 0.937888 0.968911
0.830569 0.935667 0.920218 0.964637
0.999931 1 1.00135 0.998583
0.99883 1 1 0.998829
0.999197 1 1 0.999197
0.998988 1 1 0.998988
0.998681 1 1.00014 0.99854
0.998895 1 1.00007 0.998824
0.998919 1 1 0.998919
0.998863 1 1 0.998863
0.99893 1 1 0.99893
0.999047 1 1 0.999047
0.997109 1.02823 0.971707 0.99797
0.986795 1.00605 0.983109 0.997711
0.98319 1.00032 0.984748 0.998093
1.00216 1.00195 1.00225 0.99797
1.02707 1 1.02909 0.998033
1.00363 1 1.00528 0.998358
1.00099 1 1.00258 0.998406
1.00319 1 1.00482 0.99838
0.989105 1.00485 0.986069 0.998239
1.00247 1 1.00421 0.998265
1.01976 1 1.02162 0.99818
0.979354 1.00038 0.980378 0.998573
1.01344 1.00128 1.01395 0.998216
0.961985 0.988086 0.974844 0.998708
0.997756 0.996688 1.00183 0.999239
1.03213 0.999998 1.03372 0.998464
1.00146 1 1.00319 0.998278
1.00943 1 1.01125 0.998205
0.906644 0.948065 0.976853 0.978971
0.835466 0.884968 0.972667 0.970592
0.822168 0.895436 0.944564 0.972062
1.00253 1 1.00376 0.99878
1.0131 0.999826 1.01467 0.998618
0.991037 0.99885 0.993283 0.998887
0.823239 0.881056 0.964868 0.9684
0.928462 0.950572 0.999252 0.977472
0.914484 0.943121 0.979478 0.989952
0.963812 0.965423 0.999633 0.998698
0.815333 0.892231 0.941234 0.970867
0.901588 0.949554 0.976812 0.972025
0.826837 0.927188 0.921401 0.967839
1.00419 0.999222 1.00557 0.999411
0.896944 0.945203 0.97052 0.977768
0.876885 0.936475 0.959033 0.976367
0.9988 0.985915 1.01351 0.999563
0.944709 0.949361 1.00162 0.993493
0.907567 0.938808 0.98992 0.976567
0.851977 0.954724 0.922161 0.967705
0.860115 0.917696 0.96647 0.969771
1.00498 0.988863 1.01659 0.999711
0.878763 0.930799 0.959719 0.983721
0.890872 0.951671 0.957764 0.977394
0.831498 0.935707 0.921085 0.964766
0.979088 0.966549 1.01463 0.998371
0.948877 0.958037 1.01116 0.97951
0.88437 0.931839 0.977921 0.970486
1.00324 1 1.00412 0.999119
1.01911 1 1.01985 0.999277
1.02026 0.992131 1.0288 0.999566
0.998581 1 1 0.998581
1.00153 1 1.00294 0.998594
1.02647 1 1.02724 0.999251
0.998584 1 1 0.998584
1.02133 1 1.02227 0.999079
1.03592 0.997227 1.0394 0.999421
1.02262 0.995782 1.02748 0.999489
1.01562 1 1.01658 0.999062
0.998746 1 1.00003 0.998711
0.999631 1 1.0009 0.998731
1.00045 1 1.00164 0.998812
1.00282 1 1.00383 0.998989
0.999288 1 1.00059 0.998698
1.00163 1 1.00271 0.998928
0.99883 1 1 0.99883
1.00095 1 1.003 0.99796
0.999113 1.0002 1.0003 0.998616
0.998887 1.00014 1.00057 0.998178
0.998303 1 1.00101 0.997293
1.00296 1.00434 1.00129 0.997347
1.00069 1 1.00255 0.998144
0.998959 1.00006 1.00138 0.997521
1.00227 1 1.00371 0.998569
1.00105 1 1.00267 0.998387
0.998962 1 1.00065 0.998317
0.999647 1 1.00109 0.99856
0.999856 1 1.0011 0.998756
0.999113 1 1 0.999113
0.99948 1 1.00062 0.998859
0.999203 1 1 0.999203
0.999709 1 1 0.999709
0.999259 1 1 0.999259
0.999736 1 1 0.999736
0.999998 1 1 0.999998
0.999745 1 1 0.999745
0.999999 1 1 0.999999
1 1 1 1
0.999999 1 1 0.999999
1 1 1 1
1 1 1 1
0.999151 1 1 0.999151
0.99976 1 1 0.99976
0.999341 1 1 0.999341
1 1 1 1
0.999864 1 1 0.999864
0.999397 1 1 0.999397
1 1 1 1
1 1 1 1
0.999936 1 1 0.999936
1 1 1 1
1 1 1 1
1 1 1 1
0.893953 0.945502 0.967332 0.97741
0.807002 0.873412 0.953523 0.969001
0.82637 0.893425 0.952249 0.971328
0.998749 1 1 0.998749
0.879531 0.932479 0.964529 0.977906
0.892193 0.945538 0.970966 0.971797
0.775598 0.859967 0.935285 0.964297
0.973213 0.994925 0.984823 0.993253
0.935964 0.970441 0.983893 0.980262
0.797785 0.889808 0.925647 0.9686
0.78622 0.890853 0.917773 0.961619
0.948542 0.979359 0.978237 0.990081
0.917061 0.947296 0.988441 0.979404
0.827023 0.902384 0.945703 0.969106
0.827872 0.930307 0.922412 0.964743
0.920183 0.951533 0.979017 0.98778
0.921616 0.939037 1.00434 0.977211
0.87005 0.927076 0.967751 0.969762
0.84981 0.952565 0.922763 0.966801
0.999895 1 1.00152 0.998376
1.00059 1 1.00205 0.998549
0.998867 1 1 0.998867
0.998555 1 1 0.998555
0.998834 1 1.00024 0.99859
0.998855 1 1 0.998855
0.998871 1 1 0.998871
0.998962 1 1 0.998962
0.983791 1.00531 0.980315 0.998244
0.977255 1.00019 0.978521 0.998513
1.00265 1 1.0043 0.998357
1.01295 1.00209 1.01269 0.99818
1.02145 1 1.02332 0.998171
1.00226 1 1.004 0.998266
1.00177 1 1.00349 0.998284
0.968162 0.990486 0.978666 0.998769
1.01081 1 1.01259 0.998243
1.02542 1.00031 1.02667 0.99848
0.992775 0.996538 0.996939 0.999284
1.00074 1 1.00241 0.998342
0.959857 0.978508 0.982098 0.99882
1.00647 0.992659 1.01447 0.999454
1.04509 0.999159 1.04746 0.998569
1.0023 1 1.00392 0.998386
0.890828 0.934103 0.967848 0.985354
0.905638 0.947417 0.976346 0.97906
0.840758 0.885097 0.978879 0.970402
1.00236 0.998658 1.00432 0.999383
1.0029 0.989499 1.01414 0.999415
0.894843 0.944581 0.967795 0.978869
0.93256 0.942939 1.01003 0.979167
0.936923 0.947247 0.998368 0.990719
0.863046 0.920955 0.967359 0.968741
0.877775 0.937411 0.959039 0.976374
0.855524 0.956635 0.923317 0.968579
1.00733 0.992729 1.01505 0.999669
0.880014 0.93157 0.960304 0.983706
0.889043 0.949662 0.956241 0.979008
0.988705 0.973408 1.01607 0.999655
0.828095 0.930128 0.922768 0.964817
0.931383 0.944622 1.00795 0.978209
0.893696 0.94272 0.977358 0.969958
1.00711 0.98725 1.02035 0.999769
0.896609 0.947411 0.960626 0.985168
0.878728 0.931869 0.964161 0.978025
0.788314 0.895086 0.914801 0.962738
0.869693 0.9281 0.96667 0.969378
0.963406 0.961227 1.00554 0.99674
0.950773 0.951603 1.02417 0.975545
1.01647 1 1.01728 0.9992
1.0206 0.99231 1.02899 0.999534
1.00617 0.980952 1.02614 0.999582
0.998593 1 1 0.998593
1.0209 1 1.02183 0.999091
1.03661 0.998282 1.03902 0.999396
1.01136 1 1.01233 0.999047
1.02234 0.99677 1.02617 0.999488
1.01123 0.994795 1.01729 0.999241
1.00181 1 1.00284 0.998965
0.999092 1 1.00039 0.998703
1.003 1 1.0041 0.998904
1.0067 1 1.00839 0.998324
0.999028 1 1 0.999028
1.00032 1 1.00222 0.998102
1.00163 1.00036 1.00413 0.997146
1.00303 1.00443 1.00188 0.996735
0.998832 1.00031 1.0004 0.998119
0.99871 1.00046 1.00109 0.997154
1.00419 1.00624 1.00053 0.99744
1.00214 1.00173 1.00261 0.997807
1.00298 1.00432 1.00125 0.997415
1.00451 1 1.00613 0.998389
1.00118 1.00017 1.00287 0.998132
0.998845 1.00002 1.00128 0.997554
0.999176 1 1.00021 0.998963
1.00211 1 1.00355 0.998571
1.00152 1 1.00317 0.99836
0.999637 1 1.00085 0.998789
0.999111 1 1 0.999111
0.999651 1 1 0.999651
0.999203 1 1 0.999203
0.999706 1 1 0.999706
0.999997 1 1 0.999997
0.999734 1 1 0.999734
0.999998 1 1 0.999998
1 1 1 1
0.999999 1 1 0.999999
1 1 1 1
1 1 1 1
0.999072 1 1 0.999072
0.999656 1 1 0.999656
0.999187 1 1 0.999187
1 1 1 1
0.99975 1 1 0.99975
0.999339 1 1 0.999339
1 1 1 1
1 1 1 1
0.999824 1 1 0.999824
1 1 1 1
1 1 1 1
1 1 1 1
0.882737 0.932394 0.962131 0.984006
0.896766 0.945335 0.970566 0.977391
0.807021 0.874209 0.952542 0.969138
0.998773 1 1 0.998773
0.99871 1 1 0.99871
0.998614 1 1 0.998614
0.888736 0.951941 0.955315 0.977273
0.876842 0.932067 0.961983 0.977927
0.892737 0.945338 0.971865 0.971697
0.953146 0.982275 0.978267 0.991902
0.913269 0.946331 0.987517 0.977263
0.816246 0.886803 0.948163 0.970757
0.840347 0.938645 0.928669 0.964042
0.924646 0.954042 0.978905 0.990073
0.920712 0.939779 1.00188 0.977877
0.851695 0.906447 0.967803 0.970856
0.851002 0.954163 0.921708 0.967642
0.913706 0.943401 0.979938 0.988352
0.935571 0.947215 1.00928 0.978626
0.884779 0.929977 0.980127 0.97069
0.83864 0.937069 0.925747 0.966744
0.998451 1 1.00007 0.998378
1.00034 1 1.00198 0.998359
1.00044 1 1.00193 0.998514
0.998548 1 1 0.998548
0.998641 1 1 0.998641
0.998879 1 1 0.998879
0.974927 0.992628 0.983332 0.998815
0.98793 0.996612 0.991963 0.999321
1.00201 1 1.00372 0.998291
1.01847 1.00055 1.01944 0.998496
1.01207 1 1.01381 0.99828
1.00106 1 1.00275 0.998315
1.00158 1 1.00318 0.998408
0.968218 0.980067 0.989004 0.998894
1.03993 0.999375 1.04194 0.998696
1.00793 0.988618 1.0201 0.999444
1.00098 1 1.00244 0.998536
0.981157 0.96805 1.01468 0.998879
1.00702 0.984531 1.02336 0.999492
1.03181 0.998824 1.03424 0.99882
0.909832 0.951489 0.968817 0.986998
0.890938 0.934227 0.967397 0.985804
0.905006 0.946771 0.976245 0.979146
1.01118 0.99711 1.01449 0.999627
0.980061 0.972306 1.00915 0.998838
0.88158 0.932533 0.961035 0.983691
0.927532 0.934866 1.01031 0.98203
0.889821 0.939767 0.976375 0.969764
0.888465 0.947996 0.955724 0.980622
0.841497 0.938756 0.929704 0.964174
1.00318 0.984966 1.01871 0.999788
0.897772 0.947641 0.961099 0.985721
0.877848 0.932521 0.962501 0.978047
0.961758 0.958039 1.01042 0.993533
0.790402 0.899106 0.914412 0.96138
0.848679 0.907534 0.963669 0.970404
0.959753 0.95559 1.02637 0.978553
1.00043 0.967884 1.03433 0.999311
0.883599 0.932742 0.962607 0.984113
0.896945 0.948502 0.972763 0.972121
0.716847 0.823459 0.904359 0.962595
0.814131 0.896454 0.937306 0.968913
0.93393 0.945009 1.01041 0.978092
0.940993 0.953551 0.995357 0.991433
1.02345 0.992786 1.0314 0.999501
1.00963 0.986452 1.02392 0.999586
1.01458 0.992033 1.02321 0.999529
1.00724 1 1.00822 0.999032
1.02224 0.99747 1.02536 0.999487
1.01355 0.993755 1.02061 0.999322
1.01001 1 1.01121 0.998815
1.00443 1 1.00555 0.998881
1.00665 1 1.00847 0.998193
1.01498 1.00043 1.01743 0.997163
0.999691 1 1.00145 0.998247
1.00305 1.00086 1.00509 0.997116
1.00468 1.0024 1.00596 0.996335
1.00366 1.00546 1.00191 0.996305
1.00232 1.00419 1.00108 0.997063
1.0028 1.00424 1.00189 0.996687
0.999041 1.00079 1.00124 0.997016
1.0009 1.00213 1.0011 0.997678
1.00406 1.00607 1.00048 0.997529
1.0025 1 1.00446 0.998052
1.00252 1.00193 1.00274 0.997857
1.00316 1.00452 1.00117 0.997483
1.00254 1 1.00384 0.998709
1.00361 1 1.00523 0.99839
1.00165 1.00045 1.00309 0.998119
0.999557 1 1 0.999557
0.999402 1 1.00044 0.998961
1.0018 1 1.00323 0.998573
0.99911 1 1 0.99911
0.999647 1 1 0.999647
0.999993 1 1 0.999993
0.999702 1 1 0.999702
0.999996 1 1 0.999996
1 1 1 1
0.999998 1 1 0.999998
1 1 1 1
1 1 1 1
0.999051 1 1 0.999051
0.999651 1 1 0.999651
0.999095 1 1 0.999095
1 1 1 1
0.999693 1 1 0.999693
0.999222 1 1 0.999222
1 1 1 1
1 1 1 1
0.999739 1 1 0.999739
1 1 1 1
1 1 1 1
1 1 1 1
0.896381 0.94717 0.960711 0.98508
0.883545 0.93303 0.962367 0.983995
0.897508 0.944946 0.971767 0.977393
0.998797 1 1.00014 0.998653
0.998626 1 1.00011 0.998516
0.998798 1 1 0.998798
0.998704 1 1 0.998704
0.998597 1 1 0.998597
0.998595 1 1 0.998595
0.998511 1 1 0.998511
0.873732 0.935866 0.956391 0.976179
0.889023 0.949599 0.956388 0.978901
0.873989 0.931222 0.959701 0.97795
0.852623 0.955959 0.920923 0.968489
0.914324 0.945311 0.978922 0.988046
0.921246 0.938202 1.00335 0.97865
0.85904 0.913474 0.968777 0.970719
0.906302 0.942446 0.97379 0.987533
0.929613 0.939686 1.01293 0.976649
0.895035 0.943543 0.977406 0.970518
0.824025 0.925015 0.920602 0.967653
0.91961 0.94521 0.982978 0.989764
0.940652 0.948475 1.01588 0.976248
0.856433 0.916446 0.963813 0.969602
0.803008 0.905897 0.919792 0.963721
1.00405 1 1.00553 0.998534
0.998788 1 1.00041 0.998383
1.00104 1 1.0027 0.998342
0.998542 1 1 0.998542
0.973845 0.979367 0.995375 0.998982
1.00887 0.985317 1.02448 0.999431
1.0002 1 1.00191 0.998288
1.00132 1 1.00289 0.998431
1.03306 0.999024 1.03529 0.998821
1.00048 1 1.00196 0.998528
1.03215 0.997869 1.03559 0.998807
0.978901 0.9667 1.0147 0.997949
1.00807 0.979656 1.0294 0.999615
1.01265 0.996003 1.01781 0.99893
0.970504 0.952688 1.02101 0.997735
1.02358 0.984506 1.04042 0.999296
0.89148 0.934042 0.968566 0.985408
0.906871 0.950405 0.966094 0.987682
0.890423 0.934072 0.966558 0.986252
0.997668 0.981173 1.01701 0.999805
0.967374 0.962275 1.00835 0.996977
0.897425 0.947093 0.960739 0.986279
0.956446 0.957849 1.02307 0.976022
0.852068 0.910587 0.964438 0.970238
0.875545 0.933008 0.959452 0.978069
0.785866 0.890057 0.91799 0.961818
1.00384 0.971101 1.03429 0.99944
0.88328 0.933558 0.961426 0.984105
0.893891 0.946687 0.971413 0.972018
0.943288 0.953065 0.995939 0.993777
0.712941 0.827966 0.897399 0.959524
0.821697 0.898365 0.943977 0.968942
0.931587 0.939985 1.01439 0.97701
0.999708 0.975578 1.0265 0.998279
0.894663 0.946072 0.967291 0.977638
0.784549 0.861514 0.943664 0.965029
0.78016 0.870189 0.922947 0.97139
0.916446 0.93306 1.00373 0.978548
0.915619 0.94107 0.984151 0.988623
1.01147 0.990112 1.02199 0.99959
1.01468 0.989783 1.02564 0.999522
0.996673 0.990505 1.00688 0.999347
1.01573 0.992685 1.02383 0.999402
1.00887 0.996027 1.01401 0.998895
1.00255 1.0008 1.00385 0.997906
1.00691 1 1.00886 0.998061
1.01403 1.0004 1.01658 0.997099
1.00891 1.00036 1.01222 0.996377
1.00472 1.00161 1.00604 0.997086
1.0051 1.00223 1.00664 0.99625
1.00258 1.00213 1.00445 0.996013
1.0101 1.01376 1 0.996387
1.00747 1.0102 1.00077 0.996535
1.0042 1.00579 1.00218 0.996251
1.0007 1.00325 1.00013 0.997331
1.00168 1.00382 1.00074 0.997125
1.00262 1.00409 1.0019 0.99664
0.998989 1.00018 1.00112 0.9977
1.00119 1.00244 1.00108 0.997665
1.00374 1.00571 1.00043 0.997618
1.00377 1 1.0054 0.998374
1.00235 1 1.00426 0.998105
1.00275 1.00197 1.00288 0.997908
0.999541 1 1.00018 0.999363
1.0021 1 1.00339 0.998711
1.00292 1 1.00453 0.998391
0.999985 1 1 0.999985
0.99955 1 1 0.99955
0.999665 1 1.00071 0.998959
0.999642 1 1 0.999642
0.999991 1 1 0.999991
1 1 1 1
0.999995 1 1 0.999995
1 1 1 1
1 1 1 1
0.999245 1 1.00061 0.998639
0.998963 1 1 0.998963
0.99957 1 1 0.99957
0.999048 1 1 0.999048
0.999997 1 1 0.999997
0.999654 1 1 0.999654
0.999118 1 1 0.999118
1 1 1 1
1 1 1 1
0.999729 1 1 0.999729
1 1 1 1
1 1 1 1
1 1 1 1
0.877593 0.930696 0.958628 0.983638
0.896343 0.946916 0.960379 0.985644
0.884497 0.934126 0.962286 0.983981
0.998754 1 1.00009 0.998665
0.998946 1 1.00044 0.998508
0.998692 1 1.00019 0.998501
0.998541 1 1.00003 0.998515
1.00132 1 1.00288 0.99844
0.998698 1 1 0.998698
0.99858 1 1 0.99858
0.998596 1 1 0.998596
0.998515 1 1 0.998515
1.00254 1 1.00399 0.99856
0.887668 0.939019 0.97251 0.972035
0.876379 0.937018 0.958078 0.97621
0.89031 0.94844 0.957355 0.980524
0.824932 0.927039 0.919489 0.967773
0.890797 0.938454 0.978562 0.970013
0.898657 0.938206 0.971071 0.98638
0.937269 0.947433 1.01117 0.978345
0.91911 0.948372 0.981653 0.987257
0.951881 0.957539 1.01613 0.978307
0.862677 0.918584 0.967771 0.970413
0.801636 0.909508 0.915434 0.962817
0.934585 0.947627 0.997081 0.989125
0.938497 0.946696 1.01276 0.978845
0.797986 0.875552 0.939217 0.970392
0.744383 0.858738 0.901003 0.962077
1.00529 1 1.00626 0.999034
1.0051 1 1.00658 0.998533
0.999701 1 1.00131 0.998389
0.980325 0.969333 1.01439 0.996993
1.01127 0.97621 1.03618 0.999744
1.00048 1 1.00196 0.998521
1.03318 0.996947 1.0376 0.998793
1.01384 0.99789 1.01706 0.998938
1.027 0.988788 1.03939 0.999285
0.973236 0.95716 1.0191 0.997738
1.01834 0.996179 1.02291 0.999345
0.982065 0.968928 1.01584 0.997758
0.905855 0.94807 0.976203 0.978765
0.891851 0.934316 0.96825 0.98585
0.904167 0.949376 0.963591 0.988366
1.00859 0.976155 1.03369 0.999554
0.94362 0.95516 0.997761 0.990134
0.884965 0.934421 0.962383 0.984091
0.935801 0.948722 1.01067 0.975967
0.810809 0.882152 0.946967 0.9706
0.892399 0.944895 0.971727 0.971922
0.713359 0.835772 0.892438 0.956406
0.999158 0.974431 1.02698 0.998437
0.896923 0.945639 0.970197 0.977619
0.77767 0.856653 0.941741 0.963959
0.919345 0.945593 0.982187 0.989875
0.792217 0.877908 0.930332 0.969968
0.904765 0.932579 0.993106 0.976911
0.967975 0.968354 1.00244 0.997172
0.814783 0.875618 0.96061 0.968679
0.79259 0.868926 0.938879 0.97153
0.926378 0.951656 0.995941 0.977405
0.900494 0.937217 0.970033 0.9905
1.01425 0.98803 1.02703 0.999515
1.0003 0.989633 1.01147 0.99932
0.999726 0.999047 1.00212 0.998559
1.00762 0.991739 1.01706 0.998973
1.00226 1.00093 1.00333 0.997996
0.999018 1.00199 0.999809 0.997229
1.0127 1.00031 1.01539 0.997035
1.00725 1.00052 1.01037 0.99639
0.999428 1.00155 1.00137 0.996518
1.00507 1.00195 1.00697 0.996165
1.00275 1.00303 1.0037 0.99604
1.01013 1.0136 1 0.996572
1.02567 1.02892 1 0.996835
1.01703 1.02064 1.00002 0.996446
1.00974 1.01337 1 0.99641
1.00665 1.00987 1 0.996811
1.00568 1.00814 1.00107 0.996487
1.00484 1.00623 1.00244 0.996196
1.00001 1.00253 1 0.997486
0.999779 1.00236 1.00002 0.997403
1.00098 1.00348 1.00032 0.997188
1.00007 1 1.00203 0.998046
0.999673 1.00065 1.0013 0.997733
1.00153 1.00279 1.0011 0.997651
1.00195 1 1.00293 0.999018
1.00344 1 1.00507 0.998376
1.00217 1 1.00402 0.998158
0.999966 1 1 0.999966
0.999898 1 1.00054 0.999355
1.00169 1 1.00298 0.998714
1 1 1 1
0.999981 1 1 0.999981
0.999543 1 1 0.999543
0.99999 1 1 0.99999
1 1 1 1
1 1 1 1
0.999526 1 1.00097 0.998558
0.998982 1 1.00012 0.998864
0.999202 1 1.00058 0.998624
0.999495 1 1 0.999495
0.998962 1 1 0.998962
0.999985 1 1 0.999985
0.999573 1 1 0.999573
0.999046 1 1 0.999046
1 1 1 1
0.999998 1 1 0.999998
0.999658 1 1 0.999658
1 1 1 1
1 1 1 1
1 1 1 1
0.896902 0.947377 0.966939 0.97909
0.879325 0.931718 0.959477 0.983627
0.896189 0.945972 0.96062 0.98621
0.998551 1 1.00003 0.998517
0.998796 1 1.00012 0.998677
0.99897 1 1.00047 0.998499
0.998655 1 1.00013 0.998523
0.998572 1 1.00005 0.99852
1.00036 1 1.00188 0.998475
1.00507 1 1.00679 0.998285
1.00559 1 1.00716 0.998436
0.998597 1 1 0.998597
0.998518 1 1 0.998518
1.00241 1 1.00386 0.998549
1.00834 1 1.0096 0.998753
0.785368 0.862882 0.944216 0.963941
0.895527 0.945975 0.974054 0.971887
0.877907 0.937115 0.959624 0.976235
0.791711 0.90134 0.911404 0.963755
0.868451 0.925825 0.967307 0.969733
0.942282 0.949402 1.01659 0.976307
0.92227 0.944977 0.987837 0.987988
0.932426 0.944643 0.996006 0.991025
0.729637 0.848507 0.896565 0.959113
0.933122 0.942288 1.01387 0.976725
0.813687 0.892269 0.940517 0.969605
0.928976 0.94812 0.988041 0.991669
0.924613 0.940679 1.00329 0.979696
0.783301 0.87383 0.923879 0.970257
1.00058 1 1.00102 0.999555
1.00523 1 1.00619 0.99904
1.0057 1 1.00717 0.998531
0.969503 0.953726 1.01881 0.99777
1.0305 0.993266 1.03824 0.999273
1.01466 0.999116 1.01663 0.998946
1.01852 0.99756 1.02168 0.999344
0.980366 0.969006 1.01395 0.997807
0.996385 0.989115 1.0089 0.998464
0.834055 0.88586 0.972202 0.968441
0.903499 0.947199 0.973065 0.980268
0.890766 0.934155 0.966808 0.98629
0.999331 0.97277 1.02879 0.998558
0.911438 0.942251 0.976386 0.990692
0.896551 0.945135 0.970315 0.977616
0.910932 0.928479 1.00279 0.978373
0.801194 0.891815 0.927148 0.968979
0.775951 0.860055 0.935229 0.964694
0.969562 0.9676 1.0048 0.997239
0.807121 0.873893 0.952797 0.969349
0.800922 0.873851 0.944033 0.97088
0.904339 0.938821 0.975128 0.987841
0.917295 0.950412 0.985434 0.979421
0.9597 0.977512 0.983168 0.998586
0.820462 0.887944 0.951295 0.971309
0.940211 0.975849 0.982628 0.980513
0.917114 0.95257 0.974843 0.987624
1.00423 0.98888 1.01624 0.999296
0.991175 0.997936 0.994554 0.998664
0.99356 1.00246 0.993231 0.997879
1.0025 1.0011 1.00332 0.998085
1.00176 1.00242 1.00214 0.997215
1.00021 1.00348 0.999428 0.99731
1.00596 1.00075 1.00884 0.996402
0.999352 1.00116 1.00167 0.996531
1.01626 1.01913 0.999939 0.997243
1.00319 1.00395 1.00319 0.996068
1.00936 1.01282 1 0.996582
1.02557 1.02831 1 0.997338
1.02985 1.03258 1 0.997353
1.02829 1.03163 1 0.996758
1.0251 1.02832 1 0.996872
1.01716 1.02057 1 0.996658
1.01591 1.01948 1 0.996494
1.00909 1.01271 1 0.996433
1.00699 1.00983 1 0.997184
1.0066 1.00966 1.00014 0.996839
1.00394 1.00605 1.00148 0.996438
0.99837 1.00059 1 0.997777
1.00104 1.00357 1 0.99748
0.998813 1.00134 1 0.997475
1.00167 1 1.00304 0.998643
1.00017 1.00014 1.00199 0.998046
1.0003 1.0011 1.00145 0.997767
0.999899 1 1 0.999899
1.0017 1 1.00269 0.999014
1.00281 1 1.00444 0.998378
1 1 1 1
0.999954 1 1 0.999954
1.00019 1 1.00085 0.999347
1 1 1 1
0.999976 1 1 0.999976
1 1 1 1
0.999015 1 1.00052 0.9985
0.999615 1 1.00106 0.998552
0.999687 1 1.00094 0.998748
0.99942 1 1 0.99942
0.998906 1 1.00004 0.998863
0.999014 1 1.00041 0.998609
0.999968 1 1 0.999968
0.999499 1 1 0.999499
0.998961 1 1 0.998961
1 1 1 1
0.999989 1 1 0.999989
0.999576 1 1 0.999576
1 1 1 1
1 1 1 1
1 1 1 1
0.814232 0.872644 0.965615 0.96629
0.895668 0.946046 0.966966 0.979092
0.881659 0.933283 0.960421 0.983616
0.999428 1 1.00093 0.998499
1.0004 1.00027 1.00178 0.998359
1.00342 1 1.00504 0.998387
0.999012 1 1.00048 0.998532
0.998573 1 1.00003 0.998538
1.00039 1 1.00188 0.998509
1.00521 1 1.0068 0.998422
1.00464 1 1.00635 0.998302
1.00636 1 1.00817 0.998198
0.995723 1 0.996721 0.998999
1.0017 1 1.00317 0.998539
1.00634 1 1.00763 0.998722
0.798274 0.870183 0.946133 0.969592
0.775927 0.853841 0.944247 0.962406
0.901587 0.950689 0.975903 0.971769
0.716344 0.836961 0.895194 0.956091
0.814032 0.890593 0.941864 0.970452
0.927326 0.941534 1.00609 0.978949
0.938711 0.949172 1.00026 0.988726
0.923777 0.945141 0.987544 0.989724
0.785931 0.867005 0.935212 0.969289
0.911774 0.93374 0.998176 0.97826
0.91688 0.949043 0.975275 0.990603
0.912382 0.950779 0.981368 0.977834
1.00652 1 1.0075 0.999021
1.0002 1 1.00071 0.999493
1.00497 1 1.00593 0.999045
0.979738 0.970093 1.01212 0.997851
1.01849 0.998843 1.02034 0.999344
0.996769 0.98986 1.00861 0.99838
0.987451 0.994171 0.995684 0.997546
0.824008 0.903997 0.936817 0.972992
0.836542 0.885431 0.974709 0.9693
0.903243 0.947364 0.971148 0.981753
0.970749 0.972209 1.00114 0.997363
0.905221 0.939409 0.974847 0.988471
0.8073 0.874926 0.951762 0.969471
0.911667 0.946056 0.985881 0.97745
0.808058 0.880052 0.944832 0.971807
0.963444 0.978358 0.986891 0.997837
0.827405 0.896868 0.949265 0.971857
0.938787 0.977055 0.982494 0.977954
0.924212 0.955232 0.977462 0.989835
0.969011 0.98979 0.980518 0.998458
0.943855 0.982491 0.980496 0.979785
0.947681 0.981042 0.974284 0.991492
0.981877 0.996291 0.986756 0.99876
0.990899 1.00305 0.990011 0.997854
0.982425 1.00721 0.977598 0.997744
1.00354 1.00278 1.00356 0.997201
0.999501 1.00356 0.998648 0.997306
1.01924 1.02665 0.994911 0.997859
0.999109 1.00071 1.00186 0.996544
1.01584 1.01915 0.99953 0.997227
1.02802 1.03242 0.997884 0.997851
1.0085 1.01195 1 0.996592
1.02504 1.02787 0.999908 0.997335
1.03079 1.03338 0.999705 0.997792
1.0276 1.03 1 0.997669
1.03075 1.03342 1 0.997413
1.03009 1.03296 1 0.997218
1.02841 1.03169 1 0.996828
1.02868 1.03201 1 0.996768
1.0247 1.02787 1 0.996908
1.01615 1.01929 1 0.996923
1.0185 1.02188 1 0.996691
1.01487 1.01839 1 0.996543
1.00149 1.00398 1 0.997524
1.0067 1.00955 1 0.997178
1.00671 1.0097 1.00017 0.996867
0.998526 1 1.00015 0.998378
0.999185 1.00141 1 0.997775
1.00208 1.00462 1 0.997473
1.00003 1 1.00029 0.999742
1.00104 1 1.0024 0.998644
1.00058 1.00036 1.00217 0.998047
1 1 1 1
1.00014 1 1.00026 0.999877
1.00155 1 1.00255 0.99901
1 1 1 1
0.999943 1 1 0.999943
1 1 1 1
0.99843 1 1 0.99843
0.9993 1 1.0008 0.998504
1.00003 1 1.00141 0.998631
0.999652 1 1.00111 0.998547
0.999883 1 1.00114 0.998747
0.999664 1 1.00035 0.999315
0.99995 1 1 0.99995
0.999423 1 1 0.999423
0.999047 1 1.00018 0.998863
1 1 1 1
0.999973 1 1 0.999973
0.999502 1 1 0.999502
1 1 1 1
0.999993 1 1 0.999993
1 1 1 1
0.829132 0.893008 0.955322 0.971894
0.816939 0.876548 0.964473 0.966326
0.894379 0.944944 0.966704 0.979088
1.00018 1 1.0017 0.998481
1.00437 1 1.00609 0.998292
0.999443 1.00015 1.00087 0.998421
0.998582 1.00049 1.00027 0.997828
1.00378 1 1.00551 0.998281
1.00506 1 1.00666 0.998409
1.00351 1 1.0052 0.998319
1.00716 1 1.00893 0.998248
0.998024 1 1 0.998024
0.989841 1.00065 0.990461 0.998725
0.993198 1.00035 0.995011 0.997828
0.997265 1 0.998214 0.999049
1.00405 1 1.00536 0.99869
0.930793 0.97149 0.978708 0.978952
0.800412 0.867648 0.950839 0.970205
0.776653 0.856781 0.941684 0.962613
0.783584 0.868491 0.931959 0.968107
0.922174 0.94163 1.00212 0.977265
0.925864 0.940937 0.992131 0.991786
0.91887 0.948214 0.97686 0.992009
0.921297 0.95245 0.986785 0.980246
0.945219 0.977455 0.975726 0.991078
0.997749 1.00132 0.998214 0.998218
1.00561 1 1.00662 0.998999
0.999885 1 1.00045 0.99943
0.997921 0.991622 1.00804 0.998324
0.992416 0.997916 0.996901 0.99758
0.920474 0.970462 0.96785 0.979997
0.833947 0.902697 0.949487 0.972988
0.839225 0.88435 0.978143 0.970179
0.969484 0.981314 0.990866 0.997051
0.922795 0.953903 0.979366 0.98777
0.827866 0.894002 0.953088 0.971603
0.937141 0.971542 0.984154 0.980122
0.97512 0.989772 0.986662 0.998514
0.950113 0.989232 0.979163 0.980894
0.945145 0.978915 0.975921 0.989324
0.991026 1.0043 0.988861 0.997898
0.966379 0.994358 0.977625 0.994105
0.990518 1.00465 0.988069 0.997842
0.983466 1.0067 0.979178 0.997693
1.00367 1.03082 0.975644 0.997967
0.998995 1.00358 0.998123 0.997301
1.01945 1.02662 0.995161 0.997839
1.02837 1.04055 0.990167 0.998105
1.01547 1.01919 0.99914 0.997212
1.02754 1.03255 0.997313 0.997831
1.02536 1.03224 0.995307 0.998023
1.02455 1.02755 0.999754 0.997332
1.03097 1.03381 0.999477 0.997773
1.02933 1.03219 0.999372 0.997851
1.02824 1.03059 1 0.997719
1.02716 1.02975 1 0.997486
1.0316 1.03421 1 0.997473
1.03003 1.03291 1 0.997209
1.03116 1.0342 1 0.997059
1.02449 1.02766 1 0.996911
1.02826 1.03154 1 0.996817
1.029 1.03233 1 0.996778
1.00878 1.0115 1 0.99731
1.01527 1.01839 1 0.99694
1.01982 1.02317 1 0.996724
0.99856 1.00038 1 0.998178
1.00283 1.00532 1 0.99752
1.00627 1.00912 1 0.997172
0.999937 1 1.0004 0.99954
0.998629 1.00001 1.00024 0.998379
0.99995 1.00218 1 0.997773
1 1 1 1
1.00028 1 1.00057 0.999718
1.00044 1 1.0018 0.998644
1 1 1 1
1.00053 1 1.00067 0.999854
1 1 1 1
1.0008 1.00293 1 0.997877
0.998425 1 1 0.998425
0.999605 1 1.00113 0.998473
0.999644 1 1.00114 0.998508
1.00007 1 1.00146 0.998608
0.999811 1 1.00067 0.999145
0.999754 1 1.00101 0.998746
0.999481 1 1.00016 0.999318
0.999928 1 1 0.999928
1 1 1 1
0.999955 1 1 0.999955
0.999425 1 1 0.999425
1 1 1 1
0.999978 1 1 0.999978
1 1 1 1
0.94363 0.983511 0.977473 0.981562
0.824584 0.897421 0.944853 0.972466
0.825841 0.881952 0.969647 0.965689
1.00534 1 1.00716 0.998197
0.998483 1 1 0.998483
1.00289 1 1.00463 0.99827
0.999539 1.00136 1.00032 0.99787
1.00637 1.00884 1.00016 0.997383
0.998014 1 1 0.998014
1.00822 1 1.00994 0.998297
0.997867 1 1 0.997867
0.993031 1.00043 0.993901 0.998698
0.997426 1.00059 0.998915 0.997919
0.991079 1.00303 0.990071 0.997995
0.996036 1.00129 0.997305 0.997443
0.993078 1.00082 0.99429 0.997964
0.99972 1 1.00062 0.999099
0.946114 0.980782 0.973212 0.991205
0.934014 0.973619 0.979413 0.979486
0.79744 0.86896 0.944499 0.971621
0.931258 0.958082 0.994435 0.977443
0.920633 0.947079 0.979003 0.992924
0.949788 0.977189 0.978013 0.993811
0.991029 1.00377 0.989434 0.997853
0.995946 1.00067 0.997043 0.998232
1.0046 1 1.00563 0.998978
0.993965 1.00057 0.995792 0.997595
0.952858 0.976591 0.984212 0.991349
0.934649 0.976045 0.974727 0.982416
0.822959 0.896658 0.944113 0.972137
0.977243 0.988336 0.990199 0.998563
0.94783 0.981585 0.974517 0.990862
0.956719 0.989125 0.984982 0.981985
0.984566 1.003 0.983665 0.997923
0.964399 0.991197 0.979424 0.993405
0.987592 1.02425 0.966371 0.997768
1.00392 1.01616 0.990842 0.997088
0.983971 1.0062 0.980224 0.997638
1.00217 1.02974 0.975216 0.997961
1.00813 1.04409 0.967481 0.998009
1.02007 1.02712 0.995304 0.99782
1.02818 1.04043 0.990122 0.998088
1.02111 1.03478 0.988795 0.997972
1.02714 1.0327 0.996796 0.997811
1.02472 1.03159 0.995329 0.998006
1.02937 1.03587 0.995898 0.997822
1.03118 1.0342 0.999326 0.997754
1.02789 1.03081 0.999323 0.997844
1.02836 1.03105 0.999824 0.997572
1.02885 1.03115 1 0.997769
1.02741 1.02996 1 0.997528
1.0303 1.03318 1 0.997206
1.03006 1.03295 1 0.997201
1.0311 1.03415 1 0.997048
1.02787 1.03093 1 0.997041
1.01532 1.0182 1 0.997173
1.02443 1.02759 1 0.996924
1.02806 1.03135 1 0.996807
1.00009 1.0021 1 0.997995
1.00902 1.01174 1 0.997311
1.01453 1.01763 1 0.996956
0.999356 1 1 0.999356
0.998932 1.00076 1 0.998177
1.00409 1.00659 1 0.997516
1 1 1 1
0.999736 1 1.00021 0.999523
0.998678 1.00004 1.00026 0.998379
1 1 1 1
1.00036 1 1.00066 0.999694
1 1 1 1
1.00547 1.00803 1 0.997468
1.00059 1.0027 1 0.997894
1.00028 1.00164 1.00052 0.998116
0.998419 1 1 0.998419
0.999464 1 1.00102 0.998441
1.00007 1 1.00116 0.998911
1.0003 1 1.00172 0.998586
0.999627 1 1.00048 0.999146
0.999891 1 1 0.999891
0.999383 1 1.00006 0.99932
0.999934 1 1 0.999934
1 1 1 1
1 1 1 1
0.999961 1 1 0.999961
1 1 1 1
0.945846 0.98063 0.972574 0.991729
0.937933 0.983214 0.97383 0.979582
0.817445 0.891199 0.9429 0.972788
1.01623 1.01912 1.00007 0.997098
1.00199 1 1.00374 0.998259
1.00074 1.0025 1.00033 0.997913
0.99798 1 1 0.99798
1.00611 1.00834 1.00042 0.997369
1.00147 1.00363 1 0.997851
0.997711 1 1 0.997711
0.995292 1.00023 0.996382 0.998672
0.996728 1.00082 0.997965 0.997946
0.987051 1.0021 0.98702 0.997932
1.00121 1.00506 0.998892 0.997279
1.00132 1.00657 0.997351 0.997429
0.996898 1.00195 0.99755 0.997397
0.992785 1.00134 0.993347 0.998101
0.991025 1.00613 0.986606 0.99836
0.942792 0.980477 0.971154 0.990126
0.937195 0.975433 0.979996 0.980411
0.942539 0.972687 0.976882 0.991937
0.994137 1.00574 0.990079 0.99837
0.996432 1.0002 0.997988 0.998242
0.991159 1.00668 0.987538 0.997004
0.942111 0.965531 0.982898 0.992721
0.922571 0.973492 0.966928 0.980107
0.979161 1.00139 0.979815 0.997946
0.969864 0.992811 0.984275 0.992494
0.98964 1.02526 0.967351 0.997835
1.00287 1.01534 0.990411 0.997279
0.998879 1.03557 0.96667 0.99783
1.03489 1.0422 0.995273 0.997707
1.00014 1.02801 0.974888 0.997955
1.01095 1.04547 0.968917 0.998001
1.01227 1.0431 0.972551 0.997831
1.02732 1.03972 0.989988 0.998071
1.02047 1.03434 0.988602 0.997969
1.02773 1.0396 0.990859 0.99771
1.0239 1.03088 0.995236 0.997988
1.02863 1.03516 0.995848 0.997835
1.03171 1.03536 0.998956 0.997516
1.0265 1.02948 0.999266 0.997838
1.02887 1.03152 0.999862 0.997571
1.03221 1.03504 1 0.997264
1.02764 1.03014 1 0.997571
1.03041 1.03326 1 0.99724
1.02987 1.03291 1 0.997053
1.03101 1.03407 1 0.997038
1.02763 1.0307 1 0.99702
1.01873 1.02161 1 0.997174
1.00291 1.00505 1 0.997873
1.01477 1.01763 1 0.997196
1.02436 1.02751 1 0.996938
0.999214 1 1 0.999214
1.00093 1.00294 1 0.997994
1.00927 1.01199 1 0.997312
1 1 1 1
0.999343 1 1 0.999343
0.999291 1.00112 1 0.998175
1 1 1 1
0.999568 1 1.00006 0.999507
1 1 1 1
1.0115 1.01439 1 0.997144
1.00587 1.00842 1 0.997471
1.00384 1.00608 1 0.997766
1.00011 1.0022 1.00001 0.997911
0.999603 1.00094 1.00055 0.998117
0.999603 1 1.00096 0.998642
0.999405 1 1.001 0.99841
1.00041 1 1.0015 0.998911
1.00031 1 1.0005 0.999817
0.999452 1 1.0003 0.999148
0.9999 1 1 0.9999
1 1 1 1
0.999941 1 1 0.999941
1 1 1 1
1 1 1 1
0.989267 1.01057 0.980633 0.998257
0.940218 0.977669 0.97174 0.989662
0.93385 0.973638 0.976812 0.981903
1.01223 1.01485 1.00001 0.997409
1.02316 1.02619 1 0.997043
1.01408 1.01684 1.00013 0.997151
0.997946 1 1 0.997946
1.00561 1.00754 1.00073 0.997354
1.00257 1.00491 0.999862 0.997806
1.01379 1.01657 0.999989 0.99727
0.996333 1.00099 0.997366 0.997974
0.983653 1.00105 0.984723 0.997868
1.00212 1.00652 0.998272 0.99735
1.01615 1.02104 0.998154 0.997053
1.01017 1.02194 0.990753 0.997712
1.00286 1.00779 0.997699 0.9974
0.998187 1.00262 0.998218 0.997351
0.995127 1.00826 0.988423 0.998534
0.94651 0.981816 0.974843 0.988917
0.994573 1.00662 0.989112 0.998903
1.01837 1.03213 0.988335 0.998319
0.990637 1.00539 0.988183 0.997108
0.944967 0.973915 0.979323 0.990763
0.992615 1.02666 0.968874 0.9979
1.00174 1.01488 0.989547 0.997479
0.998734 1.03607 0.965971 0.997926
1.03562 1.04381 0.994425 0.997717
1.03075 1.04997 0.983944 0.99771
1.05333 1.063 0.993057 0.997832
1.01434 1.04774 0.970067 0.997992
1.01582 1.04326 0.975815 0.997833
1.03102 1.04754 0.986586 0.997613
1.02021 1.0341 0.988578 0.997965
1.02773 1.039 0.991425 0.997708
1.03347 1.04053 0.995719 0.997481
1.02791 1.03444 0.995839 0.997848
1.03212 1.03566 0.999062 0.997513
1.03515 1.03805 0.999963 0.997244
1.02933 1.03194 0.999904 0.99757
1.03215 1.03498 1 0.997264
1.03288 1.03595 1 0.997039
1.03055 1.03337 1 0.997273
1.02955 1.03258 1 0.997063
1.02087 1.0238 1 0.997133
1.02743 1.03052 1 0.996999
1.01858 1.02148 1 0.997165
1.00496 1.00718 1 0.997802
0.999144 1 1 0.999144
1.00353 1.00567 1 0.997872
1.01427 1.0171 1 0.997219
1 1 1 1
0.999203 1 1 0.999203
1.00179 1.00381 1 0.997993
1 1 1 1
0.99933 1 1 0.99933
1 1 1 1
1.01907 1.02215 1 0.996987
1.01214 1.01506 1 0.997124
1.0078 1.01037 1 0.997459
1.00629 1.00884 1 0.997474
1.00248 1.00472 1 0.997772
0.999258 1.00058 1.00031 0.998369
0.998795 1.00021 1.00046 0.998118
1.00009 1 1.00145 0.998644
1.00007 1 1.0004 0.999667
1.00038 1 1.00147 0.998912
0.999955 1 1.00012 0.999831
1 1 1 1
0.99991 1 1 0.99991
1 1 1 1
1 1 1 1
1.00847 1.03046 0.980423 0.9982
0.987004 1.00952 0.979945 0.997705
0.939222 0.979272 0.968386 0.990413
1.02265 1.02555 1 0.997172
1.01296 1.01542 1 0.997586
1.03709 1.04018 1 0.997037
1.02386 1.02691 1 0.997028
1.01217 1.01482 1.00018 0.997206
1.03166 1.03494 0.999836 0.996994
1.00358 1.00626 0.999575 0.997762
1.0121 1.015 0.999931 0.997209
1.03459 1.04483 0.992943 0.997237
1.00241 1.00796 0.99707 0.997421
1.01703 1.02203 0.998093 0.997012
1.01055 1.02252 0.990544 0.997738
1.00308 1.00798 0.99776 0.997368
0.999366 1.01021 0.990557 0.998702
1.04184 1.05666 0.98806 0.997892
1.01845 1.03205 0.988468 0.99833
0.990338 1.00409 0.989066 0.997207
0.998988 1.03591 0.966269 0.998021
1.03536 1.04453 0.993482 0.997728
1.02778 1.04958 0.981468 0.997728
1.05367 1.06437 0.992095 0.997829
1.04554 1.05903 0.989509 0.997727
1.01885 1.04304 0.97893 0.997835
1.03132 1.04702 0.987349 0.997622
1.03463 1.04613 0.991488 0.997499
1.02759 1.03838 0.991884 0.997706
1.03304 1.04002 0.995809 0.997462
1.03728 1.04088 0.999322 0.997216
1.0326 1.03605 0.999163 0.99751
1.03523 1.03812 0.999983 0.997242
1.03635 1.03946 1 0.997006
1.03208 1.03491 1 0.997265
1.03274 1.0358 1 0.997042
1.02365 1.02666 1 0.997062
1.02923 1.03225 1 0.997073
1.02105 1.02399 1 0.997137
1.00588 1.00817 1 0.997726
1.01839 1.02129 1 0.997157
1.00518 1.0074 1 0.9978
0.999268 1 1 0.999268
0.999746 1 1 0.999746
0.9992 1 1 0.9992
1.00411 1.00625 1 0.997871
1 1 1 1
0.999191 1 1 0.999191
1 1 1 1
1.04417 1.04721 1 0.997101
1.02909 1.03216 1 0.997019
1.01991 1.023 1 0.996981
1.01201 1.01477 1 0.997287
1.01299 1.01593 1 0.997104
1.00731 1.00988 1 0.99746
1.00047 1.00234 1 0.998138
1.00114 1.00337 1 0.997779
0.999153 1.00034 1.00044 0.998372
0.999564 1 1.00011 0.999457
1.00092 1 1.00227 0.998646
1.00017 1 1.00048 0.999688
1 1 1 1
0.999846 1 1 0.999846
1 1 1 1
1 1 1 1
1.03817 1.05518 0.986204 0.997644
1.01245 1.03461 0.980275 0.998273
0.985077 1.00962 0.978472 0.99716
1.03512 1.03821 1 0.997024
1.02171 1.02455 1 0.997231
1.01346 1.01574 1 0.997761
1.03601 1.03907 1 0.997055
1.02451 1.02757 1 0.997014
1.04184 1.04981 0.99518 0.997215
1.02819 1.03149 0.999846 0.996953
1.01064 1.01353 1 0.997147
1.03379 1.04404 0.992936 0.997231
1.01982 1.0245 0.998458 0.996971
1.01354 1.02615 0.989919 0.997768
1.04542 1.05863 0.989677 0.997822
1.04383 1.05796 0.988709 0.997916
1.01864 1.03209 0.988601 0.998342
1.02599 1.05015 0.979196 0.997746
1.05482 1.06644 0.991257 0.997827
1.04565 1.06006 0.988637 0.997736
1.03908 1.04859 0.993338 0.997579
1.03156 1.04638 0.988183 0.997631
1.03461 1.04563 0.99196 0.997488
1.03925 1.04442 0.997808 0.997242
1.03259 1.03948 0.99592 0.997443
1.0379 1.04149 0.999332 0.997216
1.03939 1.04255 1 0.996975
1.0353 1.03816 1 0.99724
1.03637 1.03948 1 0.997007
1.02626 1.02936 1 0.996984
1.03262 1.03568 1 0.997045
1.02393 1.02695 1 0.997065
1.00675 1.00915 1 0.997627
1.02124 1.02417 1 0.99714
1.00611 1.00841 1 0.997725
0.999274 1 1 0.999274
1.00542 1.00764 1 0.997798
0.999264 1 1 0.999264
0.999762 1 1 0.999762
0.999878 1 1 0.999878
0.999261 1 1 0.999261
1 1 1 1
1.04036 1.04344 1 0.997043
1.03505 1.0381 1 0.997065
1.04345 1.04636 1 0.997214
1.0198 1.02268 1 0.997184
1.03098 1.03407 1 0.997008
1.02082 1.02392 1 0.996975
1.01249 1.01525 1 0.997283
1.00375 1.00581 1 0.997955
1.00688 1.00944 1 0.997462
0.999853 1.00172 1 0.998139
0.999271 1 1 0.999271
0.999067 1.00017 1.00052 0.998376
0.99969 1 1.00021 0.999476
1 1 1 1
0.99998 1 1.00027 0.999707
1 1 1 1
1 1 1 1
1.04062 1.05387 0.989868 0.997532
1.03722 1.05407 0.986344 0.997639
1.01486 1.03678 0.98049 0.998338
1.04237 1.04665 0.998774 0.997126
1.03348 1.03657 1 0.997025
1.02078 1.02355 1 0.997292
1.03475 1.03779 1 0.997073
1.0408 1.04881 0.99515 0.997192
1.02455 1.02788 0.999856 0.996912
1.03033 1.04045 0.993028 0.997225
1.04094 1.05134 0.992443 0.997642
1.04455 1.0575 0.989947 0.997784
1.04569 1.05907 0.989407 0.99794
1.03829 1.04577 0.995365 0.997471
1.04544 1.06085 0.987704 0.997746
1.03881 1.04857 0.993103 0.997566
1.04069 1.04674 0.996877 0.997339
1.03466 1.04517 0.992439 0.997477
1.03946 1.04467 0.997767 0.997245
1.04066 1.04383 1 0.996967
1.0385 1.04208 0.999349 0.997216
1.03918 1.04233 1 0.996977
1.02796 1.03113 1 0.996926
1.0363 1.03941 1 0.997008
1.02652 1.02962 1 0.996986
1.00747 1.00997 1 0.997527
1.0242 1.02721 1 0.997067
1.00696 1.00936 1 0.997626
0.999249 1 1 0.999249
1.00635 1.00865 1 0.997723
0.999265 1 1 0.999265
0.999766 1 1 0.999766
0.999261 1 1 0.999261
0.999767 1 1 0.999767
1 1 1 1
1.04095 1.04415 0.999989 0.996944
1.03626 1.03942 1 0.996964
1.04169 1.04477 1 0.99705
1.02487 1.02776 1 0.997188
1.0358 1.03883 1 0.997084
1.04286 1.04565 1 0.997326
1.00678 1.009 1 0.9978
1.01985 1.02274 1 0.997176
1.03296 1.03607 1 0.996997
1.01284 1.01561 1 0.997279
1.00263 1.00468 1 0.997956
0.999162 1 1 0.999162
0.999139 1.001 1 0.99814
0.999285 1 1 0.999285
1 1 1 1
0.999852 1 1.00036 0.999495
1 1 1 1
1 1 1 1
1.04087 1.04844 0.995376 0.99739
1.0408 1.05441 0.989549 0.997516
1.03758 1.05442 0.986353 0.997635
1.04139 1.0458 0.998641 0.997141
1.03178 1.03485 1 0.997026
1.04023 1.04831 0.995114 0.997168
1.03895 1.04699 0.994839 0.997475
1.04138 1.0514 0.992823 0.997635
1.04372 1.05648 0.990157 0.997745
1.03887 1.04622 0.995471 0.997492
1.04228 1.04733 0.997894 0.997278
1.03852 1.04856 0.992848 0.997553
1.0408 1.0466 0.997151 0.997298
1.0407 1.04432 0.999492 0.997043
1.03959 1.04484 0.997724 0.997247
1.04099 1.04416 1 0.99697
1.02853 1.03174 1 0.996884
1.03912 1.04227 1 0.996978
1.02846 1.03163 1 0.996927
1.00783 1.0104 1 0.997454
1.02691 1.03001 1 0.996988
1.00761 1.01011 1 0.997527
0.999196 1 1 0.999196
1.00719 1.00959 1 0.997625
0.999235 1 1 0.999235
0.999748 1 1 0.999748
0.999258 1 1 0.999258
0.999779 1 1 0.999779
0.999768 1 1 0.999768
1.04232 1.0459 0.999403 0.997179
1.03865 1.04193 1 0.996849
1.04172 1.04513 0.99976 0.996969
1.02717 1.03019 1 0.997071
1.03561 1.03877 1 0.996959
1.04295 1.04602 1 0.997058
1.00789 1.01022 1 0.997689
1.02491 1.02785 1 0.997146
1.0364 1.03941 1 0.997103
0.999119 1 1 0.999119
1.00607 1.00829 1 0.997803
1.02002 1.02291 1 0.997169
1.00153 1.00358 1 0.997958
0.999172 1 1 0.999172
1 1 1 1
0.999298 1 1 0.999298
1 1 1 1
1 1 1 1
1.03803 1.04445 0.996478 0.997369
1.04022 1.04801 0.995169 0.997384
1.04075 1.05466 0.989284 0.997501
1.04041 1.04494 0.998505 0.997156
1.04106 1.04519 0.998805 0.997239
1.03957 1.04735 0.99507 0.997485
1.04185 1.05141 0.993261 0.997628
1.03947 1.04668 0.99558 0.997513
1.04182 1.04699 0.997764 0.997289
1.04109 1.0446 0.999592 0.997049
1.04099 1.04655 0.997422 0.997256
1.04123 1.04462 0.999746 0.997007
1.02818 1.03138 1 0.996895
1.04132 1.04448 1 0.996973
1.02874 1.03195 1 0.996887
1.0075 1.01013 1 0.997394
1.02874 1.03191 1 0.996928
1.00773 1.0103 1 0.997454
0.999008 1 1 0.999008
1.0077 1.0102 1 0.997527
0.999121 1 1 0.999121
1 1 1 1
0.999223 1 1 0.999223
0.999766 1 1 0.999766
0.999786 1 1 0.999786
1.03966 1.04341 0.999137 0.997265
1.03923 1.04241 1 0.996951
1.04212 1.04561 0.999488 0.997172
1.02858 1.03178 1 0.996904
1.03823 1.04149 1 0.996869
1.04256 1.0462 0.999526 0.996994
1.00839 1.01092 1 0.997502
1.02736 1.03038 1 0.99707
1.03501 1.03817 1 0.996954
0.999108 1 1 0.999108
1.00774 1.01012 1 0.997645
1.02494 1.02792 1 0.997105
1 1 1 1
0.999129 1 1 0.999129
1.00533 1.00754 1 0.997806
0.999184 1 1 0.999184
1 1 1 1
1 1 1 1
1.0395 1.04343 0.998973 0.997255
1.03862 1.04501 0.996504 0.997376
1.03951 1.04756 0.994923 0.997378
1.0408 1.04398 0.999972 0.996987
1.04031 1.04474 0.998504 0.997252
1.04015 1.04768 0.9953 0.997495
1.04133 1.04666 0.997604 0.9973
1.04088 1.04452 0.999456 0.99705
1.02649 1.02963 1 0.99696
1.04165 1.04481 1 0.99697
1.02795 1.03114 1 0.996912
1.00697 1.00972 1 0.997278
1.02904 1.03225 1 0.996889
1.00738 1.01001 1 0.997395
0.99896 1 1 0.99896
1.0077 1.01028 1 0.997454
0.999005 1 1 0.999005
1 1 1 1
0.999034 1 1 0.999034
0.999866 1 1 0.999866
0.99978 1 1 0.99978
1.0386 1.04205 0.999471 0.997217
1.0394 1.04252 1 0.997008
1.04005 1.04368 0.999246 0.997271
1.02894 1.03214 1 0.996904
1.03968 1.04288 1 0.996937
1.04195 1.04535 0.999581 0.997165
1.0085 1.01113 1 0.997402
1.02852 1.03168 1 0.99694
1.03778 1.04101 1 0.99689
0.999082 1 1 0.999082
1.00835 1.01089 1 0.997488
1.02754 1.03056 1 0.99707
1 1 1 1
0.999117 1 1 0.999117
1.00762 1.01004 1 0.997601
1 1 1 1
0.99914 1 1 0.99914
1 1 1 1
1.04138 1.04456 0.999915 0.997037
1.03873 1.04264 0.999004 0.99724
1.03922 1.04557 0.996529 0.997382
1.02645 1.02959 1 0.996952
1.04064 1.044 0.999773 0.997009
1.03961 1.04433 0.998207 0.997265
1.04069 1.04445 0.999352 0.99705
1.02656 1.02969 1 0.996959
1.0063 1.00907 1 0.997252
1.02776 1.03093 1 0.996929
1.0069 1.00962 1 0.997311
0.998903 1 1 0.998903
1.00721 1.00983 1 0.997396
0.998957 1 1 0.998957
1 1 1 1
0.999003 1 1 0.999003
1 1 1 1
0.999758 1 1 0.999758
1.04094 1.04404 1 0.997031
1.03809 1.04165 0.999346 0.99724
1.02867 1.03184 1 0.996927
1.03968 1.04281 1 0.997006
1.0405 1.04402 0.999348 0.997278
1.00786 1.01046 1 0.99743
1.02859 1.03178 1 0.996901
1.04012 1.04333 1 0.996923
0.999032 1 1 0.999032
1.00865 1.01125 1 0.997431
1.02843 1.03155 1 0.996976
1 1 1 1
0.999088 1 1 0.999088
1.0083 1.01086 1 0.997475
1 1 1 1
0.999125 1 1 0.999125
1 1 1 1
1.02732 1.03043 1 0.996984
1.0412 1.04437 0.999944 0.997024
1.03793 1.04185 0.999016 0.997225
1.00537 1.00813 1 0.99726
1.02645 1.02959 1 0.996952
1.04045 1.044 0.999565 0.997031
1.02663 1.02976 1 0.996959
1.00632 1.00909 1 0.997253
0.998864 1 1 0.998864
1.00686 1.00954 1 0.997343
0.9989 1 1 0.9989
1 1 1 1
0.998955 1 1 0.998955
1 1 1 1
1 1 1 1
1.02851 1.03168 1 0.996934
1.04063 1.04378 0.999922 0.997061
1.03754 1.04115 0.999263 0.997263
1.0071 1.00971 1 0.997415
1.02833 1.0315 1 0.996924
1.03991 1.04304 1 0.997005
0.99898 1 1 0.99898
1.00815 1.01074 1 0.997428
1.02826 1.03146 1 0.996897
1 1 1 1
0.999035 1 1 0.999035
1.0088 1.01137 1 0.99746
1 1 1 1
0.999094 1 1 0.999094
1 1 1 1
1.00531 1.00799 1 0.997347
1.02717 1.03031 1 0.99695
1.04106 1.04418 1 0.997012
0.998871 1 1 0.998871
1.00544 1.0082 1 0.997258
1.02646 1.0296 1 0.996952
1.00634 1.00911 1 0.997254
0.998864 1 1 0.998864
1 1 1 1
0.998897 1 1 0.998897
1 1 1 1
1 1 1 1
1.00611 1.00875 1 0.997387
1.02808 1.03123 1 0.996943
1.04034 1.04357 0.999812 0.997092
0.99911 1 1 0.99911
1.00735 1.00996 1 0.997414
1.028 1.03118 1 0.996921
1 1 1 1
0.998982 1 1 0.998982
1.00841 1.01101 1 0.997426
1 1 1 1
0.999039 1 1 0.999039
1 1 1 1
0.998867 1 1 0.998867
1.00551 1.00821 1 0.997317
1.02704 1.03022 1 0.996915
1 1 1 1
0.99887 1 1 0.99887
1.00551 1.00827 1 0.997256
0.998862 1 1 0.998862
1 1 1 1
1 1 1 1
0.999065 1 1 0.999065
1.00642 1.00906 1 0.997387
1.0276 1.03074 1 0.996952
1 1 1 1
0.998946 1 1 0.998946
1.0076 1.01022 1 0.997412
1 1 1 1
0.998983 1 1 0.998983
1 1 1 1
0.999687 1 1 0.999687
0.998971 1 1 0.998971
1.00568 1.00841 1 0.997287
1 1 1 1
0.998871 1 1 0.998871
1 1 1 1
0.999703 1 1 0.999703
0.998994 1 1 0.998994
1.00676 1.0094 1 0.997388
0.999853 1 1 0.999853
0.998946 1 1 0.998946
1 1 1 1
1 1 1 1
0.998893 1 1 0.998893
1 1 1 1
0.999849 1 1 0.999849
0.998919 1 1 0.998919
1 1 1 1
1 1 1 1
1 1 1 1

VECTORS lamdaE float
1.00083 1.00015 0.994284
1.0005 1.00061 0.997245
1.00043 1.00036 0.994534
1.00103 0.999996 0.994143
1.00092 0.999971 0.994343
1.00077 1.00036 0.99413
1.00215 1.00048 0.991357
1.00052 1.00051 0.997249
1.00046 1.00018 0.997622
0.999979 1.00085 0.997663
1.0005 1.00053 0.994309
1.00188 1.00129 0.990268
1.00073 0.999986 0.994448
1.00046 0.999991 0.994657
1.00007 1.00058 0.994757
1.00074 0.999978 0.994433
1.00033 1.00071 0.994355
1.00059 1.00003 0.994606
1.00235 1.0003 0.991247
1.00073 1.00002 0.997247
1.00099 1.00005 0.994133
1.001 0.999935 0.994268
1.00239 1.00007 0.991369
1.0023 1.00014 0.991447
1.00077 1.00044 0.994034
1.00191 1.00103 0.991181
1.00479 1.00045 0.986888
1.00052 1.00047 0.997271
1.00064 1.00007 0.995973
1.00026 1.00061 0.995994
1.00049 1.00042 0.997325
1.00178 1.00142 0.990276
1.00094 0.999824 0.994247
1.00066 1.00029 0.994352
1.0026 1.00009 0.991717
0.999847 1.00043 0.997914
1.00226 1.00079 0.991677
1.00161 1.00169 0.990296
1.00405 1.0015 0.986321
0.999935 0.999023 0.998323
1.00076 0.999993 0.997228
1.00066 1 0.99593
1.00069 0.999981 0.997268
1.00035 1.00003 0.994806
1.00241 0.999964 0.990704
1.0006 0.99996 0.997539
1.00268 1.00005 0.991654
1.00045 0.999916 0.994723
1.00028 1.00008 0.994856
0.999898 1.0011 0.994564
1.00253 1.00011 0.99115
1.00057 1.00004 0.995997
1.00068 1.00006 0.994426
1.00029 1.00087 0.994234
1.00071 0.999916 0.994546
1.00252 1.00003 0.991236
1.00216 1.00077 0.991076
1.00245 1.00004 0.991333
1.00476 1.00047 0.986894
1.00066 1.00001 0.997272
1.00088 1.00006 0.994271
1.00218 1.00001 0.992332
1.00233 1.0001 0.991436
1.00237 1.00004 0.991426
1.00478 1.00011 0.987132
1.0048 1.00013 0.986976
1.00061 1.00031 0.994277
1.00144 1.00188 0.99106
1.00467 1.00079 0.986769
1.00525 1.0003 0.985485
1.00087 1.0001 0.99723
1.00042 1.0003 0.99745
1.00056 1.00046 0.997247
1.00172 1.0015 0.990278
1.00098 0.999957 0.997174
1.00074 1.00029 0.997253
1.00247 1.00004 0.990403
1.00006 1.00027 0.996369
1.00202 1.00085 0.990379
1.00149 1.0019 0.991075
1.00415 1.00136 0.986322
1.00019 0.9997 0.997877
0.999944 1.00139 0.993511
1.00267 0.999944 0.990234
1.00242 1.00027 0.990384
1.00485 1.0002 0.986302
1.00099 1.0023 0.992326
1.00447 1.0008 0.986335
1.00326 1.00274 0.986467
1.00507 1.00122 0.984775
0.999798 0.998315 0.998699
0.999801 0.998888 0.998482
1.00092 0.999984 0.997152
1.00079 0.999991 0.997221
1.00072 0.999986 0.997266
1.00058 0.999997 0.996018
1.00245 0.999953 0.991379
1.00076 0.999965 0.995882
1.00261 1.00007 0.991004
1.0007 0.999992 0.997275
1.00228 0.999887 0.990951
1.00258 1.00004 0.991832
1.00476 0.999537 0.987181
1.0027 0.999983 0.991636
1.00486 0.999781 0.986773
1.0007 1.00001 0.994495
1.00037 1.00007 0.994722
0.999822 1.00134 0.994434
1.00042 0.999871 0.994821
1.00264 1.00004 0.991104
1.0026 0.999953 0.991226
1.00241 1.00047 0.990979
1.00473 1.0005 0.9869
1.00072 0.999993 0.997272
1.00057 1.00006 0.994565
1.00233 0.999981 0.991209
1.00245 1.00008 0.991293
1.00038 1.00071 0.995775
1.00178 1.00166 0.991187
1.00251 0.999984 0.991305
1.0048 1.00005 0.987157
1.00462 1.00083 0.98678
1.0048 1.00023 0.986971
1.00525 1.00029 0.985513
1.00227 0.999938 0.990949
1.00221 1.00005 0.991629
1.00465 0.999495 0.987883
1.00474 0.999845 0.987365
1.00479 1.00001 0.987109
1.00528 0.999293 0.986712
1.00006 1.00042 0.997684
1.00526 0.999891 0.985886
1.00103 1.00266 0.990193
1.00422 1.00126 0.986255
1.00524 1.00077 0.985089
1.0052 0.999244 0.986534
1.0002 1.00276 0.991629
1.00083 1.00506 0.988181
1.00097 0.999984 0.997192
1.0007 1.0003 0.997252
1.00248 1.00003 0.990396
1.00019 0.999995 0.997777
1.00115 1.00229 0.990426
1.002 1.00087 0.990391
1.00423 1.00122 0.986323
1.00003 0.999574 0.998046
0.999865 1.00148 0.993552
1.00269 0.999981 0.99095
1.00242 1.00031 0.991057
1.00484 1.0002 0.986285
1.00069 1.00245 0.991122
1.00449 1.00076 0.986329
1.00336 1.00259 0.986461
1.00513 1.00113 0.984823
1.00018 1.0023 0.992199
0.999929 1.00038 0.994577
1.0009 1.00448 0.989136
1.0049 1.00006 0.986379
1.00471 1.00042 0.986294
1.00528 0.999858 0.985929
1.00229 1.00389 0.987016
1.0052 1.00065 0.985245
1.00478 1.00182 0.98479
1.0052 1.00096 0.984849
0.999796 0.997832 0.998913
0.999756 0.998205 0.998787
0.999714 0.998693 0.998616
1.00002 1.00223 0.992481
0.999883 0.999987 0.997979
1.00099 0.999964 0.997151
1.00083 0.999992 0.997186
1.0025 1.00008 0.990392
1.00234 0.999954 0.990782
1.0007 0.999985 0.997259
1.00068 0.999988 0.997275
1.00227 0.999899 0.990945
1.0025 1.00003 0.991194
1.00474 0.999539 0.987185
1.00258 1.00002 0.990279
1.00484 0.999785 0.986768
1.00224 0.999904 0.990992
1.00472 0.999466 0.98731
1.00479 0.999642 0.987012
1.00526 0.998041 0.987943
1.00491 0.99993 0.986534
1.0053 0.998583 0.987315
1.00069 0.999992 0.997268
1.00026 1.00009 0.994859
1.00235 0.99998 0.990211
1.00258 1.00007 0.991148
0.999779 1.0012 0.997632
1.0022 1.00127 0.991317
1.00264 0.999956 0.991187
1.00481 0.999962 0.987182
1.00479 1.00033 0.986966
1.00457 1.00089 0.98679
1.00525 1.00028 0.985541
1.00225 0.999928 0.990951
1.00235 1.00006 0.991484
1.00468 0.999481 0.987578
1.00476 0.999937 0.987318
1.0002 1.00047 0.997573
1.00124 1.00241 0.990961
1.0041 1.00157 0.986496
1.0048 1.00005 0.987075
1.00528 0.999062 0.986902
1.00523 1.00073 0.985126
1.00526 0.999954 0.985937
1.0052 0.999251 0.986559
1.00028 1.00266 0.991611
1.00099 1.00492 0.98818
1.00468 0.999534 0.987303
1.00467 0.999699 0.987678
1.00525 0.998437 0.987647
1.00528 0.99852 0.987376
1.00526 0.999389 0.986557
1.00524 0.997449 0.988451
1.00057 1.00294 0.990782
1.00521 0.998449 0.987344
1.00342 1.00232 0.986438
1.0052 1.00117 0.984664
1.0052 1.00028 0.985649
1.00518 0.997784 0.988132
1.00162 1.00463 0.987404
1.00057 1.00466 0.989117
1.00204 1.00474 0.986844
1.00258 0.999968 0.990318
0.999852 0.999458 0.998226
0.999813 1.00142 0.993591
1.00227 1.00034 0.990438
1.00484 1.0002 0.986268
1.00062 1.00256 0.991078
1.00341 1.00241 0.986453
1.00453 1.00072 0.986323
1.00517 1.00104 0.98487
1.00012 1.00232 0.992214
0.999923 1.00028 0.994623
1.00063 1.0046 0.989122
1.00489 1.00008 0.986361
1.00472 1.00041 0.986282
1.00528 0.999867 0.985908
1.00238 1.00371 0.98702
1.00522 1.00068 0.985196
1.00481 1.00175 0.984783
1.00521 1.00081 0.984931
0.999983 0.999583 0.995261
1.00154 1.00449 0.987892
1.00053 1.00345 0.990557
1.00141 1.00469 0.987914
1.00528 0.999417 0.986398
1.00525 1.00028 0.985509
1.00522 0.998714 0.98706
1.00405 1.00263 0.985367
1.00521 0.999954 0.985979
1.005 1.0015 0.984733
1.00517 1.00041 0.985407
1.00024 1.001 0.993423
1.00021 0.998658 0.99576
0.999848 0.997519 0.999017
0.999781 0.997776 0.998956
0.999732 0.998099 0.998861
1 1.00136 0.993363
0.999795 0.99944 0.998241
1.0001 1.00213 0.992459
0.999981 1.00008 0.99787
1.00258 1.00005 0.99028
1.00242 1.00002 0.990589
1.00482 0.999789 0.986764
1.00473 0.999544 0.987188
1.00228 0.999915 0.990944
1.00072 0.999979 0.997273
1.00226 0.999899 0.990994
1.0047 0.999475 0.987312
1.00478 0.999652 0.987009
1.00526 0.998051 0.987933
1.00489 0.999943 0.986519
1.0053 0.998583 0.987299
1.00468 0.999482 0.987348
1.00527 0.997921 0.988049
1.00526 0.998266 0.987694
1.00523 0.995602 0.990399
1.0053 0.998977 0.986872
1.00526 0.996734 0.989179
1.00226 0.999923 0.990956
1.00249 1.00003 0.99134
1.0047 0.999452 0.987275
1.00478 1.00002 0.987271
1.0003 1.00055 0.997461
1.00153 1.00221 0.991558
1.00409 1.00181 0.986736
1.00481 1.00008 0.987041
1.00528 0.998827 0.987092
1.00526 1.00002 0.985988
1.00523 1.00068 0.985164
1.0052 0.999255 0.986584
1.00033 1.00257 0.991597
1.00114 1.00483 0.988178
1.00468 0.999418 0.987366
1.00469 0.999676 0.987657
1.00525 0.998251 0.987866
1.00528 0.998775 0.987162
1.00066 1.0028 0.990776
1.00343 1.00247 0.986438
1.00517 1.00122 0.984642
1.00526 0.999528 0.986442
1.00524 0.997178 0.988739
1.0052 1.00016 0.985774
1.00522 0.998451 0.987356
1.00518 0.997713 0.988117
1.00166 1.00456 0.987404
1.00183 1.00464 0.986856
1.00066 1.00462 0.989123
1.00525 0.998248 0.98783
1.00526 0.998374 0.987726
1.00525 0.996137 0.989836
1.00525 0.996737 0.989119
1.00523 0.997522 0.988203
1.00518 0.995688 0.99021
1.00259 1.00347 0.986835
1.00519 0.996704 0.988975
1.00504 1.0016 0.984669
1.0052 1.00114 0.984624
1.00517 0.999161 0.986715
1.00514 0.996802 0.989087
1.00024 1.00425 0.990163
1.00309 1.00344 0.986154
1.00103 1.0051 0.987728
1.00334 1.00359 0.986057
1.00488 1.00009 0.986341
0.999922 1.00018 0.994668
0.999992 1.00248 0.992232
1.00038 1.00474 0.989108
1.00474 1.00039 0.986269
1.00528 0.999876 0.985887
1.00244 1.00356 0.987029
1.00491 1.00173 0.984777
1.00524 1.00073 0.985146
1.00521 1.00067 0.985013
0.999994 0.999476 0.995298
1.00139 1.00455 0.987902
1.00037 1.0036 0.990573
1.00127 1.00479 0.987914
1.00528 0.999426 0.986379
1.00526 1.00029 0.985486
1.00522 0.99871 0.987051
1.00408 1.00249 0.985374
1.00521 1.00004 0.985855
1.00504 1.00137 0.984731
1.00516 1.00035 0.985551
1.00013 0.998951 0.995619
1.00036 1.00242 0.991841
1.00275 1.00357 0.986646
1.00076 1.00483 0.989128
1.0023 1.00371 0.987531
1.00524 0.998055 0.987742
1.00522 0.999337 0.986414
1.00519 0.997642 0.988011
1.00449 1.00156 0.985247
1.00515 0.999313 0.986574
1.00466 1.00129 0.98518
1.0003 1.00114 0.993193
1.00032 1.00241 0.991918
1.00015 1.00098 0.993616
1.00023 1.00101 0.993419
1.00021 0.998467 0.996489
1.0002 0.99863 0.996092
1.00002 0.997266 0.997785
0.999852 0.997474 0.999026
0.999772 0.997708 0.998987
0.999851 1.00059 0.994354
0.999783 0.99886 0.998528
1.00003 1.00135 0.99334
0.999884 0.999543 0.998148
1.00021 1.00197 0.992435
1.0001 1.00016 0.997759
1.00487 0.999953 0.986505
1.00477 0.999657 0.987007
1.00529 0.998602 0.987283
1.00526 0.99806 0.987923
1.00469 0.999485 0.987315
1.00225 0.999891 0.990994
1.00468 0.999482 0.987348
1.00526 0.997926 0.988049
1.00527 0.998283 0.987675
1.00523 0.995592 0.990424
1.0053 0.998982 0.986857
1.00526 0.996732 0.989169
1.00525 0.997918 0.988066
1.00522 0.995436 0.990683
1.00526 0.996059 0.989879
1.00523 0.994947 0.990938
1.00524 0.997417 0.988456
1.00524 0.995228 0.990392
1.00469 0.999305 0.987429
1.00472 0.999667 0.987636
1.00524 0.998081 0.988085
1.00529 0.999034 0.986949
1.00076 1.0027 0.990773
1.00328 1.00275 0.986441
1.00514 1.00128 0.984618
1.00526 0.999668 0.986326
1.00524 0.996907 0.989027
1.00522 0.998453 0.987369
1.0052 1.00004 0.985898
1.00518 0.997643 0.988102
1.00175 1.00449 0.987403
1.00175 1.00458 0.986869
1.00072 1.00452 0.989129
1.00525 0.998139 0.987922
1.00526 0.998364 0.987715
1.00525 0.995907 0.990089
1.00525 0.996901 0.988976
1.00257 1.00358 0.986832
1.00496 1.00166 0.984682
1.00519 1.00121 0.984545
1.00523 0.997805 0.987941
1.00518 0.995466 0.99036
1.00517 0.999105 0.986664
1.00518 0.996736 0.988973
1.00515 0.996664 0.989183
1.00321 1.00337 0.986147
1.00319 1.00362 0.98595
1.00034 1.00407 0.990179
1.00088 1.0051 0.987877
1.00523 0.995528 0.990525
1.00526 0.996456 0.98941
1.00523 0.995142 0.990853
1.00519 0.995013 0.990739
1.00519 0.995912 0.98973
1.00516 0.995147 0.990663
1.00456 1.00188 0.985285
1.00516 0.995482 0.990059
1.00516 1.00204 0.98397
1.00512 1.00075 0.985018
1.00517 0.998478 0.987128
1.00517 0.996717 0.989137
1.00014 1.00328 0.991236
1.00049 1.00509 0.988703
1.00451 1.00203 0.985297
1.00152 1.00505 0.9873
1.00398 1.00314 0.985624
0.999999 0.999386 0.995334
1.00529 0.999434 0.986359
1.00025 1.00373 0.990589
1.00126 1.00462 0.98791
1.00112 1.00484 0.987914
1.00527 1.00029 0.985463
1.00522 0.998707 0.987042
1.0043 1.00213 0.985378
1.00515 1.00125 0.98473
1.0052 1.00013 0.985732
1.00515 1.00029 0.985695
1.00013 0.998913 0.995642
1.00028 1.00249 0.991868
1.0028 1.00354 0.986646
1.00049 1.00489 0.989121
1.00206 1.00365 0.987538
1.00523 0.998047 0.987735
1.00521 0.999328 0.986405
1.00519 0.997608 0.987992
1.00476 1.00145 0.985246
1.00515 0.999367 0.986432
1.00484 1.00127 0.985194
1.00035 1.00156 0.99274
1.00044 1.00394 0.990474
1.00381 1.00187 0.986302
1.00089 1.00503 0.988815
1.0027 1.0024 0.988121
1.0052 0.996911 0.988791
1.00517 0.998394 0.987221
1.0052 0.996827 0.988422
1.00422 1.00109 0.985852
1.00495 1.00002 0.985806
1.0003 1.00112 0.993192
1.00032 1.0024 0.991817
1.00019 1.00255 0.991882
1.00042 1.00282 0.991513
1.00023 1.00249 0.992013
1.00006 1.00097 0.993738
1.00014 1.00096 0.99362
1.0002 0.998399 0.996567
1.00022 1.00103 0.993415
1.00022 0.99848 0.996501
1.00009 0.997062 0.99784
1.00019 0.998623 0.996417
0.999962 0.997267 0.99842
0.999861 0.997414 0.999035
0.999823 0.999716 0.995279
0.999877 1.00064 0.994326
0.999719 0.998274 0.998827
0.99984 0.998967 0.998418
1.00008 1.0014 0.993316
0.999967 0.999658 0.998049
1.00529 0.998985 0.986842
1.00528 0.998281 0.987656
1.00526 0.996726 0.989159
1.00523 0.995579 0.990449
1.00526 0.997931 0.98805
1.00468 0.999483 0.987348
1.00526 0.997923 0.988066
1.00522 0.995414 0.990693
1.00525 0.996059 0.989885
1.00523 0.994946 0.99095
1.00525 0.997399 0.988438
1.00524 0.995247 0.990408
1.00524 0.995425 0.990692
1.0052 0.994956 0.991067
1.00524 0.994939 0.990798
1.00522 0.994941 0.990945
1.00523 0.996058 0.989631
1.00525 0.994925 0.990671
1.00524 0.998025 0.988013
1.00526 0.998367 0.987705
1.00525 0.99567 0.990342
1.00525 0.997059 0.988833
1.00259 1.00365 0.986829
1.0049 1.0017 0.984695
1.00519 1.00122 0.984467
1.00523 0.998088 0.987679
1.00518 0.995248 0.990509
1.00517 0.996768 0.988972
1.00518 0.999064 0.986614
1.00516 0.996529 0.98928
1.00308 1.00344 0.986141
1.00283 1.00364 0.985843
1.00045 1.00394 0.990195
1.00076 1.00509 0.988029
1.00523 0.99553 0.990522
1.00526 0.996563 0.989338
1.00524 0.995054 0.990906
1.00519 0.99501 0.990747
1.0043 1.00224 0.985264
1.00506 1.00207 0.983921
1.00513 1.00068 0.985
1.00519 0.99613 0.989545
1.00516 0.995047 0.99072
1.00515 0.998532 0.987101
1.00517 0.995464 0.990049
1.00516 0.996478 0.989282
1.00442 1.00208 0.985296
1.00373 1.00317 0.985588
1.0015 1.00503 0.987298
1.00015 1.00322 0.9912
1.00035 1.00509 0.988822
1.00521 0.99496 0.991052
1.0052 0.994938 0.990966
1.00518 0.994912 0.99073
1.00518 0.995071 0.990538
1.00505 1.00213 0.984387
1.00519 0.9953 0.990222
1.00509 1.00196 0.983744
1.00513 1.00035 0.985234
1.00514 0.998378 0.987176
0.99997 1.0021 0.992431
1.00018 1.0048 0.989755
1.0009 1.00507 0.988454
1.00497 1.00217 0.984838
1.00197 1.00502 0.986244
1.00425 1.00302 0.984557
1.00014 0.998884 0.995664
1.00021 1.00255 0.991895
1.00523 0.998039 0.987727
1.00017 1.00495 0.989111
1.00264 1.00375 0.986649
1.00184 1.00362 0.987544
1.0052 0.99932 0.986395
1.00519 0.997575 0.987973
1.00497 1.00133 0.985246
1.00504 1.00128 0.985208
1.00515 0.999413 0.986289
1.00031 1.00156 0.992752
1.00018 1.00411 0.990474
1.00404 1.00184 0.986159
1.00063 1.00505 0.988804
1.00255 1.00219 0.988224
1.0052 0.996884 0.988784
1.00517 0.998408 0.987198
1.0052 0.996877 0.98843
1.00449 1.00104 0.98578
1.00497 1.00015 0.985811
1.00035 1.00293 0.991468
0.999767 1.0048 0.990062
1.00443 1.00042 0.986682
1.00079 1.00427 0.989067
1.00348 1.00065 0.988119
1.00521 0.995734 0.989645
1.00519 0.998343 0.987107
1.0052 0.996986 0.988131
1.00454 1.00047 0.986092
1.005 0.999998 0.985832
1.00031 1.00111 0.993191
1.00032 1.00243 0.991835
1.00011 1.0029 0.991612
1.0001 1.00264 0.991847
1.00016 1.00258 0.992004
1.00019 1.003 0.99152
1.00012 1.00278 0.991941
1.00007 1.00333 0.991225
1.00011 1.00257 0.992117
1.00003 1.00109 0.993703
1.00007 1.00096 0.993737
1.00015 0.998425 0.996621
1.00013 1.00092 0.993625
1.00021 0.998413 0.996576
1.00013 0.996944 0.997881
1.00022 0.998479 0.996516
1.00007 0.997052 0.997846
0.999896 0.997253 0.999071
0.999883 0.998978 0.995946
0.999814 0.999829 0.995234
0.999693 0.997842 0.999017
0.999904 1.0007 0.994298
0.99977 0.998416 0.998726
0.999902 0.99906 0.998318
1.00525 0.99738 0.98842
1.00524 0.996066 0.989891
1.00525 0.995263 0.990422
1.00523 0.994944 0.990962
1.00522 0.995392 0.990703
1.00526 0.997927 0.988067
1.00522 0.995418 0.990686
1.0052 0.994957 0.991077
1.00524 0.994941 0.990845
1.00522 0.99494 0.990917
1.00523 0.996073 0.989642
1.00524 0.994918 0.990646
1.00521 0.994955 0.991104
1.00521 0.994948 0.99101
1.00523 0.994926 0.990798
1.00523 0.995134 0.99038
1.00522 0.995538 0.990519
1.00527 0.996666 0.989265
1.00524 0.994958 0.99096
1.00519 0.995009 0.990756
1.00422 1.00243 0.985243
1.00499 1.00212 0.983871
1.00515 1.00065 0.984983
1.00518 0.996352 0.989359
1.00515 0.994944 0.990775
1.00518 0.995465 0.990038
1.00513 0.998574 0.987072
1.00518 0.996197 0.989426
1.0043 1.00215 0.985297
1.00357 1.00295 0.985548
1.00141 1.00503 0.987296
1.00018 1.00308 0.99117
1.00029 1.00508 0.988941
1.00522 0.994952 0.99104
1.0052 0.995023 0.990859
1.00518 0.994916 0.990762
1.00484 1.00223 0.984389
1.00502 1.00211 0.983732
1.00511 1.00031 0.985225
1.00517 0.995114 0.9905
1.00516 0.9981 0.987501
1.00517 0.995381 0.990113
1.00001 1.00192 0.992623
1.0047 1.00201 0.984799
1.00387 1.00286 0.98527
1.00214 1.00506 0.986304
1.00089 1.00507 0.98858
1.00015 1.00482 0.989642
1.00519 0.994952 0.991022
1.00521 0.994921 0.99081
1.0052 0.994897 0.990655
1.00516 0.994927 0.990613
1.00508 1.00266 0.983853
1.00513 0.99632 0.989128
1.00499 1.00184 0.983892
1.00507 1.00075 0.984966
1.00008 1.0006 0.993834
0.999977 1.00388 0.99101
1.00044 1.00507 0.989336
1.00157 1.00504 0.987214
1.00478 1.00295 0.983626
1.00383 1.00424 0.984194
1.00027 1.00154 0.992765
0.999975 1.00422 0.990476
1.0052 0.996858 0.988778
1.00035 1.00507 0.988794
1.00427 1.00178 0.986014
1.00212 1.00218 0.988331
1.00516 0.998423 0.987175
1.0052 0.996941 0.988436
1.00474 1.00103 0.985705
1.00502 1.00027 0.985815
1.00025 1.00299 0.991474
0.999949 1.00483 0.989915
1.00471 1.00039 0.986586
1.00054 1.00454 0.98914
1.00334 1.00047 0.988395
1.00522 0.99572 0.989772
1.00519 0.998267 0.987258
1.0052 0.997132 0.988106
1.00454 1.0006 0.986098
1.005 1.00014 0.985608
0.999743 1.00357 0.991225
0.999876 1.00502 0.989462
1.00462 0.999526 0.987041
1.00226 1.0018 0.988285
1.00525 0.99494 0.990205
1.00519 0.996333 0.989371
1.00503 0.999304 0.986209
1.00496 0.999893 0.98579
1.00036 1.0024 0.991853
1.00018 1.0029 0.991607
0.999751 1.00319 0.992279
1.00008 1.0027 0.991994
0.999951 1.00319 0.991527
1.00008 1.00261 0.992106
0.999958 1.00278 0.992117
1.00011 1.00337 0.991217
0.999885 1.00186 0.993202
0.999973 1.00363 0.99129
1.00004 1.00362 0.990997
1.00012 1.00262 0.992047
0.999985 1.00129 0.993514
1 1.00108 0.993699
1.00007 0.998487 0.996675
1.00006 1.00095 0.993737
1.00015 0.998448 0.996627
1.00011 0.996939 0.997906
1.00021 0.998429 0.996587
1.00012 0.99693 0.997885
1.00005 0.99705 0.997845
0.999998 0.998416 0.996338
0.999883 0.999064 0.995894
0.999724 0.997469 0.99913
0.999802 0.999953 0.995187
0.999723 0.997918 0.998968
0.999839 0.9985 0.998604
1.00523 0.996093 0.989653
1.00524 0.994941 0.990893
1.00524 0.99491 0.990621
1.00522 0.994938 0.99089
1.0052 0.994958 0.991087
1.00521 0.99541 0.990679
1.00521 0.994959 0.991086
1.00521 0.994949 0.991005
1.00523 0.994926 0.990794
1.00522 0.995115 0.99044
1.00522 0.994959 0.991029
1.00525 0.994933 0.990869
1.00526 0.994902 0.990639
1.00522 0.994943 0.991029
1.0052 0.995107 0.990753
1.00517 0.994917 0.990794
1.00461 1.00232 0.984392
1.00491 1.00224 0.983717
1.0051 1.00024 0.985215
1.00517 0.99514 0.990462
1.00514 0.995419 0.990005
1.00517 0.997824 0.987825
1.00459 1.00198 0.984756
1.00337 1.00274 0.985977
1.00245 1.00507 0.986364
1.00006 1.00175 0.992817
1.00073 1.00506 0.988705
1.00008 1.00486 0.989525
1.0052 0.994944 0.991021
1.0052 0.994918 0.990787
1.0052 0.994894 0.990651
1.00483 1.00266 0.983894
1.00504 1.00184 0.983798
1.00507 1.0005 0.985294
1.00516 0.99493 0.990565
1.00511 0.996326 0.989054
1.00009 1.00052 0.994036
0.999977 1.00391 0.990992
1.00456 1.00255 0.983838
1.00343 1.00427 0.985064
1.00153 1.00504 0.98747
1.00038 1.00506 0.989217
1.00523 0.99493 0.990896
1.00525 0.994878 0.990528
1.00519 0.994896 0.990613
1.0051 0.994936 0.990423
1.00473 1.00296 0.983117
1.00503 0.999212 0.986483
1.00496 1.00247 0.983685
1.00025 0.999887 0.994542
1.00031 1.00103 0.993358
0.999962 1.0021 0.992657
1.00012 1.00481 0.989871
1.00063 1.00505 0.98845
1.00143 1.00466 0.986681
1.00446 1.00289 0.984053
1.0036 1.00396 0.98585
1.00013 1.00313 0.991481
1.0001 1.00495 0.989768
1.00522 0.995705 0.989899
1.00063 1.00451 0.989208
1.00496 1.00042 0.986492
1.00312 1.00031 0.988665
1.00519 0.998168 0.987411
1.0052 0.997237 0.988085
1.00467 1.00068 0.986105
1.00497 1.00025 0.985385
0.999871 1.00364 0.991099
1.00004 1.00503 0.989463
1.00485 0.999531 0.987111
1.00252 1.00193 0.988387
1.00527 0.994934 0.990262
1.00519 0.996288 0.989226
1.00502 0.999246 0.986302
1.00498 1.00004 0.985699
0.999772 1.00404 0.99081
1.00529 0.994878 0.990333
1.00176 1.00411 0.988401
1.00454 0.99989 0.987019
1.0052 0.995282 0.990402
1.00502 0.998213 0.986347
1.00478 1.00115 0.985205
1.00021 1.00294 0.991602
0.999728 1.0031 0.992204
0.999257 1.00279 0.993705
1.00008 1.00258 0.992097
1.00014 1.00342 0.991209
0.99951 1.00308 0.992293
1.0001 1.00263 0.992037
0.999965 1.0037 0.991021
0.999453 1.00213 0.993405
1.0001 1.00348 0.991261
0.999729 1.00078 0.995026
0.999585 1.00277 0.992715
0.999992 1.00443 0.990344
1.00034 1.00359 0.99065
1.00011 1.00293 0.991732
0.999925 1.00166 0.993248
0.99994 1.0014 0.993499
0.999982 0.998679 0.996677
0.999978 1.00113 0.993695
1.00008 0.998539 0.996671
1.00006 0.996961 0.997963
1.00016 0.998475 0.996635
1.00012 0.996919 0.997906
1.00011 0.996919 0.997885
1.00019 1.00003 0.99452
1.0001 0.998092 0.996515
1 0.998469 0.996309
0.99981 0.997116 0.999193
0.99988 0.999159 0.995842
0.999741 0.997541 0.999103
0.999759 0.998024 0.998911
1.00521 0.995096 0.990499
1.00523 0.994926 0.990789
1.00522 0.994951 0.991
1.00521 0.994963 0.991067
1.00522 0.994963 0.991021
1.00524 0.994935 0.990883
1.00524 0.994902 0.990614
1.00524 0.99493 0.990927
1.0053 0.99492 0.990681
1.00532 0.994953 0.991111
1.0052 0.994936 0.99102
1.00519 0.994917 0.990764
1.0052 0.994894 0.990648
1.00451 1.00267 0.983937
1.00507 1.00198 0.983714
1.00497 1.0003 0.985622
1.00516 0.99493 0.990518
1.00511 0.996418 0.988981
1.0045 1.00257 0.984057
1.00309 1.00433 0.985935
1.00129 1.00502 0.987725
1.00008 1.00038 0.994238
1.00012 1.0038 0.990976
1.0004 1.00506 0.989095
1.00523 0.994929 0.990886
1.0002 0.999928 0.994536
1.00024 1.00109 0.993263
1.00525 0.99489 0.99054
1.00518 0.994893 0.990624
1.00496 1.00297 0.98311
1.00481 1.00232 0.983783
1.00498 0.999076 0.986402
1.0051 0.995037 0.990347
1.00002 1.00205 0.992845
1.00014 1.00477 0.989838
1.00457 1.00329 0.98374
1.00277 1.00379 0.986659
1.00162 1.0048 0.986985
1.00071 1.00506 0.988481
1.00529 0.99492 0.990654
1.00525 0.994808 0.990532
1.00513 0.994888 0.990335
1.00482 0.995187 0.990317
1.00435 1.00329 0.983677
1.00438 1.00261 0.984435
1.00007 1.00161 0.992907
1.00029 1.00092 0.993469
1.00072 1.00101 0.992872
1.00034 1.00289 0.991278
1.00027 1.00501 0.989419
1.00202 1.00429 0.987629
1.00064 1.00519 0.98734
1.0037 1.00062 0.986531
1.00005 1.00359 0.990976
1.00032 1.00503 0.989465
1.00528 0.994922 0.99032
1.00519 0.996292 0.989081
1.00281 1.00212 0.988491
1.00496 0.999502 0.987183
1.00501 0.999215 0.986392
1.00507 1.00021 0.985608
1.00002 1.00393 0.990737
1.0053 0.994884 0.990536
1.00151 1.00417 0.988446
1.00468 0.999936 0.986819
1.0052 0.995257 0.9904
1.00501 0.998389 0.986605
1.00475 1.00102 0.98525
1.00014 1.00468 0.990176
1.00465 0.994862 0.991353
1.00302 1.00258 0.987632
1.00456 1.00116 0.985546
1.00482 0.996649 0.989563
1.00358 1.00166 0.985769
0.998552 0.997338 0.987682
0.999613 1.00313 0.992132
0.998908 1.00297 0.99368
0.999492 1.00222 0.994157
1.00004 1.00269 0.992026
0.999933 1.00378 0.991045
1.00035 1.0032 0.991234
0.999174 1.00223 0.993611
1.00008 1.00295 0.991731
1.00023 1.00371 0.990678
0.999693 1.0009 0.994663
1.00004 1.00441 0.99036
0.999817 1.00269 0.992467
0.999232 1.00151 0.995083
1.00035 1.00471 0.989723
1.0001 1.00445 0.990348
1.00051 1.00381 0.990242
1.00012 1.00331 0.991142
1.00026 1.00393 0.990694
1.00011 1.00346 0.990964
0.999935 1.00176 0.993124
0.999949 1.00164 0.993232
0.999892 0.998826 0.996095
0.999952 1.00137 0.993482
0.999977 0.998741 0.996362
1.00001 0.997097 0.999127
1.00008 0.998587 0.996669
1.00007 0.996932 0.997964
1.00012 0.9969 0.997902
1.0001 1.00005 0.994583
1.00021 0.999935 0.99454
1.0001 0.998008 0.996627
1.00007 0.998116 0.996776
0.999888 0.996932 0.999229
0.999999 0.998513 0.996279
0.999806 0.997226 0.999178
0.999761 0.997603 0.999076
1.00523 0.994901 0.99059
1.00524 0.994935 0.990896
1.00522 0.994966 0.991013
1.00524 0.99493 0.990926
1.0053 0.994918 0.990684
1.00531 0.994946 0.990752
1.00532 0.994916 0.990717
1.00122 0.994895 0.984026
1.00447 0.994918 0.992819
1.00001 1.00148 0.993315
1.00523 0.994927 0.990876
1.00525 0.994897 0.990553
1.00516 0.994886 0.990634
1.00484 1.00273 0.983095
1.005 1.00217 0.983878
1.00502 0.999044 0.986327
1.0051 0.995148 0.990269
1.00492 1.00325 0.983423
1.00195 1.00363 0.987462
1.00172 1.00498 0.987294
1.00014 1.00004 0.99453
1.00081 1.00506 0.988513
0.999982 1.00202 0.993025
1.00022 1.00478 0.989803
1.00024 1.00105 0.993167
1.00529 0.994906 0.990647
1.00008 1.00157 0.993017
1.00018 1.00108 0.993472
1.0006 1.001 0.992968
1.00526 0.994828 0.990498
1.00514 0.99489 0.99035
1.004 1.00364 0.983745
1.00459 1.00169 0.985033
1.00479 0.995711 0.99021
1.00002 1.0031 0.991441
1.0004 1.00499 0.989281
1.00357 1.00202 0.98636
1.00133 1.00497 0.987273
1.00172 1.00406 0.987796
1.00525 0.994865 0.990882
1.00514 0.994803 0.990788
1.00507 0.995164 0.989935
1.0046 0.99756 0.989579
1.00229 1.00322 0.987416
0.999836 1.00276 0.992113
1.00071 1.00105 0.992434
0.999923 1.00183 0.992581
1.00001 1.00445 0.991235
1.00023 1.00491 0.989692
1.00037 1.00459 0.988629
1.00185 1.00177 0.988684
1.00038 1.00377 0.990663
1.00107 1.00424 0.988489
1.00532 0.994879 0.990729
1.00521 0.9952 0.990393
1.00499 0.998578 0.986864
1.0047 0.999966 0.986617
1.00473 1.00085 0.9853
1.00041 1.00456 0.990185
1.00457 0.99486 0.991533
1.00301 1.00234 0.987492
1.00462 1.00106 0.985557
1.00491 0.996031 0.989829
1.00374 1.00179 0.985828
0.998599 0.997689 0.985713
1.00045 1.00436 0.990005
1.00258 0.998447 0.991064
1.0035 1.00165 0.986674
1.00284 1.0012 0.987295
1.00309 0.997808 0.990584
0.999981 0.994905 0.948653
0.996491 0.99482 0.96805
0.995786 1.0011 0.988129
0.999713 0.994818 0.876666
0.994701 0.994797 0.844189
0.998655 1.00316 0.993659
0.99881 1.0027 0.994441
0.998975 1.0028 0.994585
1.00007 1.00296 0.99173
1.00031 1.00353 0.990704
1.00007 1.00438 0.990376
1.00002 1.0026 0.992214
0.999663 1.00101 0.994299
1.00016 1.0043 0.990297
1.00012 1.00331 0.991228
1.00045 1.00379 0.990302
0.99945 1.00103 0.994705
1.00013 1.00464 0.989999
1.00025 1.00457 0.990108
0.999448 1.00473 0.990827
1.00006 1.00461 0.990207
1.00046 1.00417 0.989822
1.0002 1.00335 0.990979
1.00036 1.00429 0.989984
1.00034 1.00389 0.990596
0.999859 1.00412 0.990895
1.00019 1.004 0.990608
1.00017 1.00323 0.991349
1.00015 1.00346 0.990954
0.99997 1.00173 0.993116
0.999952 1.00175 0.993126
0.99987 0.998924 0.996082
0.999935 1.0017 0.993217
0.999887 0.99886 0.996086
0.999977 0.997099 0.999147
0.999966 0.998812 0.996047
1.00001 0.997091 0.998538
1.00009 0.996903 0.997963
1.00001 1.00005 0.994734
1.00012 1.00004 0.994587
1.0001 0.997911 0.996728
1.00024 0.999846 0.99456
1.0001 0.997947 0.996889
0.999934 0.996747 0.999263
1.00007 0.998186 0.996492
0.999875 0.996998 0.999214
0.999809 0.997271 0.999164
1.00529 0.994916 0.990687
1.00525 0.994929 0.990925
1.0053 0.994942 0.990403
1.00081 0.994889 0.984154
1.00532 0.994913 0.990726
1.00433 0.995254 0.992463
1.00502 0.996351 0.991278
0.996413 0.994905 0.967333
1.00055 0.996669 0.986318
1.00006 1.00136 0.993386
1.00006 1.00146 0.993292
0.999822 1.00276 0.992313
0.999866 1.00228 0.992732
1.00529 0.994898 0.990641
1.00527 0.994854 0.990464
1.00515 0.994892 0.990366
1.00474 1.00356 0.98381
1.00445 1.00029 0.985626
1.0047 0.99618 0.990097
1.00317 1.00326 0.986207
1.00228 1.00476 0.987204
1.00152 1.00368 0.987961
1.00005 1.00134 0.993475
1.00035 1.00505 0.989143
1.00007 1.00322 0.991606
1.00009 1.0016 0.993127
1.00044 1.00099 0.993052
1.00525 0.994857 0.990888
1.00001 1.0027 0.99211
1.00078 1.00102 0.992629
0.999357 1.00176 0.993739
1.00514 0.994811 0.990686
1.00502 0.995219 0.989941
1.00318 1.00209 0.987367
1.0043 0.997021 0.990021
1.0002 1.00396 0.990913
1.00037 1.0049 0.989072
1.0019 1.00308 0.988532
1.00155 1.00415 0.988278
1.00442 0.994795 0.991842
1.00495 0.995248 0.990987
1.00495 0.995927 0.989643
1.00257 0.998488 0.992076
0.999298 1.00373 0.992119
1.00044 1.00197 0.99184
0.99864 1.00444 0.99243
0.999269 1.00517 0.990093
0.999974 0.994894 0.937833
1.00055 1.0045 0.990191
1.00297 1.00223 0.987351
1.0044 0.994877 0.991732
1.00499 0.995666 0.99009
1.00384 1.00188 0.985872
1.00462 1.00099 0.985563
0.998724 0.997376 0.983646
1.00043 1.00413 0.990356
1.00264 0.997738 0.991063
1.00338 1.00198 0.9867
1.00346 1.00097 0.987321
1.00349 0.99784 0.990319
1.00069 0.994897 0.937069
0.996643 0.994835 0.963964
0.996105 1.00179 0.988145
0.99945 0.994809 0.880974
0.994706 0.994801 0.833335
1.00029 1.00403 0.990622
0.999797 0.994861 0.887877
0.994696 0.994785 0.839847
1.00083 1.00007 0.991674
1.00187 1.0015 0.989572
1.00143 0.999632 0.9922
0.995477 1.00179 0.989572
0.999541 0.994906 0.945355
0.994894 0.994812 0.961142
0.997198 0.995852 0.892924
0.994732 0.994804 0.832519
0.998243 1.00304 0.994726
0.998682 1.00253 0.994452
0.998935 1.00421 0.993206
1.00015 1.00327 0.991313
1.00039 1.00385 0.990364
0.999866 1.00459 0.990248
0.999939 1.00458 0.990275
0.999686 1.00045 0.994328
1.00019 1.00338 0.990979
1.00006 1.00489 0.99005
1.00001 1.00468 0.990165
1.00057 1.00398 0.989949
0.999374 1.00482 0.991022
0.999657 1.00506 0.990685
0.998696 1.00483 0.991683
1.00028 1.00461 0.989809
1.00044 1.00415 0.990033
1.00042 1.00424 0.989975
1.00024 1.00378 0.99074
1.00044 1.00447 0.989724
0.999895 1.0041 0.99095
0.999619 1.00351 0.991226
0.9998 1.00489 0.990208
0.999759 1.00453 0.990575
0.999958 1.00403 0.990906
1.00008 1.00315 0.991513
1.00013 1.00401 0.990522
1.00017 1.00321 0.99129
1.00002 1.00175 0.993035
1.0002 1.00343 0.990944
0.999958 1.00174 0.993124
0.999978 0.998881 0.996586
0.999937 1.00177 0.993129
0.999892 0.998887 0.996362
0.999957 0.997102 0.997991
0.99988 0.99888 0.996078
0.999975 0.997108 0.999151
1.00002 0.997098 0.997948
1.00013 1.00138 0.993218
0.999957 1.00006 0.9948
1.00001 1.00004 0.994733
1.00008 0.997895 0.996768
1.00013 1.00001 0.994589
1.00011 0.997866 0.99673
0.999974 0.996652 0.99928
1.00009 0.997934 0.997125
0.999951 0.996855 0.998737
0.999918 0.997077 0.99816
1.00043 0.994883 0.98429
1.00531 0.994916 0.990735
1.00402 0.996092 0.9921
0.99659 0.994895 0.968227
1.00052 0.99629 0.986665
1.00502 0.995785 0.991211
1.00306 0.996962 0.9875
0.996641 0.99604 0.971194
0.999976 0.994886 0.946256
0.999437 0.995457 0.895698
0.994663 0.994768 0.842893
0.999798 1.00239 0.992608
1.00007 1.00136 0.993378
1.00014 1.0014 0.993269
0.999892 1.00267 0.992333
0.999551 1.00358 0.992024
1.00032 1.0022 0.991963
1.00006 1.00279 0.992176
0.999976 1.00223 0.992582
1.00525 0.994837 0.990891
1.00515 0.994817 0.990587
1.00504 0.995165 0.989947
1.00328 1.00184 0.987325
1.00409 0.996777 0.99047
1.00213 1.00407 0.988368
1.00256 1.00386 0.98793
1.0007 1.00504 0.988457
1.00053 1.00107 0.992829
1.00014 1.00399 0.990584
1.00019 1.00264 0.992113
0.998974 1.00166 0.994887
1.00435 0.994784 0.992056
0.999402 1.00363 0.992164
1.00032 1.00232 0.992184
1.00484 0.995053 0.990953
1.00485 0.995537 0.989858
1.00233 0.998471 0.991627
0.999483 1.00496 0.991257
1.00034 1.00447 0.990256
1.00313 0.994794 0.991993
1.00423 0.997285 0.990814
1.00474 0.995242 0.990942
1.00103 0.999118 0.993102
0.999727 1.00469 0.990512
0.999377 1.00409 0.991728
0.999429 1.0053 0.991166
0.999819 0.994892 0.890208
1.00031 0.9949 0.949695
1.00049 1.00384 0.990707
1.00337 1.00219 0.986731
1.0026 0.997418 0.991061
1.00397 0.997994 0.990064
1.00403 1.00079 0.987366
0.999976 0.994892 0.947244
0.996603 0.994856 0.963406
0.996269 1.00249 0.988145
0.999157 0.994837 0.895069
0.994711 0.994803 0.821955
1.00029 1.00387 0.99056
0.999811 0.99486 0.887665
0.994669 0.994786 0.833526
1.00095 1.00006 0.991731
1.00199 1.0014 0.98962
1.00152 0.999769 0.992513
0.995612 1.00224 0.990223
1.00091 0.99593 0.938615
0.994879 0.994796 0.964227
0.997544 0.99815 0.891961
0.994752 0.994794 0.831285
0.999558 1.0039 0.992712
0.994698 0.994833 0.834084
0.994751 0.994806 0.846865
0.998153 1.00151 0.995634
0.999767 1.00177 0.994258
0.994931 1.00211 0.988984
0.994909 0.996408 0.964609
0.997045 0.996066 0.934592
0.994731 0.999319 0.896914
0.994827 0.994812 0.834441
0.998563 1.00234 0.994326
0.999244 1.00367 0.992925
0.998231 1.00373 0.993658
1.00017 1.00341 0.990979
1.00064 1.00381 0.990077
0.999999 1.00472 0.990121
0.999886 1.00502 0.989992
0.999156 1.00477 0.991217
1.00042 1.00418 0.990031
0.999668 1.00495 0.99052
1.00034 1.00454 0.989814
0.998372 1.00487 0.992066
0.996416 1.00495 0.995224
0.999451 1.00475 0.991134
1.00053 1.00447 0.989655
1.00047 1.00418 0.989965
1.00022 1.00363 0.990881
1.0004 1.00457 0.989679
0.999974 1.00404 0.99089
0.999489 1.00343 0.991858
0.999474 1.00492 0.990626
0.999578 1.00455 0.990712
0.998999 1.00417 0.992035
1.00056 1.00221 0.991806
1.00097 1.00235 0.989988
0.999546 1.00479 0.990406
0.999913 1.00476 0.990234
0.999804 1.00488 0.990083
0.999806 1.00464 0.990568
1 1.00344 0.991321
0.999972 1.00413 0.990915
1.00011 1.00316 0.991515
1.00007 1.00167 0.99296
1.00018 1.00321 0.991232
1.00001 1.00173 0.993052
1.00006 0.998884 0.996431
0.999955 1.00174 0.993133
0.999967 0.998863 0.996257
1.00002 0.997043 0.997921
0.999892 0.998872 0.996073
0.999976 0.997108 0.999153
0.999974 0.997111 0.999156
1.00017 1.0017 0.993131
0.999952 1.00019 0.994696
1.00009 1.00147 0.993229
1.00008 0.997891 0.996773
0.999954 1.00007 0.994801
1.00002 1.00006 0.994732
1.00009 0.997882 0.996762
1 0.9966 0.999283
1.00009 0.99784 0.997206
0.99999 0.996657 0.998787
0.999969 0.996865 0.998244
0.999823 0.994866 0.877561
0.994667 0.994773 0.834704
0.997569 0.994875 0.96818
1.00057 0.9954 0.987061
1.00506 0.99508 0.991144
0.996274 0.9957 0.971697
1.00336 0.996087 0.987946
1.00111 0.994892 0.944005
0.999701 0.994809 0.880955
0.994691 0.994782 0.83222
0.998501 0.994844 0.976167
0.999888 0.995254 0.945508
0.997262 0.996625 0.892015
0.994729 0.994769 0.835599
1.00009 1.00323 0.991561
0.999865 1.00221 0.992725
1.00009 1.00135 0.993371
0.999907 1.00262 0.992353
0.999549 1.00341 0.992187
1.00006 1.00358 0.991161
1.00026 1.00271 0.991772
1.00034 1.00331 0.990882
1.00007 1.00275 0.99206
1.00001 1.00231 0.992432
1.00431 0.994785 0.992258
1.00473 0.99486 0.990928
1.00455 0.995287 0.990071
1.00206 0.998771 0.991178
1.00097 1.00424 0.99042
0.999631 1.00518 0.990087
1.00042 1.0021 0.992545
0.999471 1.00366 0.992204
1.00276 0.995084 0.992353
0.999786 1.00475 0.990351
0.999118 1.00426 0.99162
1.00419 0.996397 0.990944
1.00467 0.995393 0.990585
1.00097 0.999174 0.993291
0.999487 1.00524 0.990974
1.00049 0.995413 0.992351
1.0025 0.996825 0.993743
0.999985 1.00161 0.993574
0.998936 1.00486 0.990208
0.999397 1.00496 0.990353
0.999129 1.00514 0.991223
0.994728 0.994855 0.854979
0.999816 0.994895 0.894774
0.99997 0.99491 0.938107
1.00005 1.00386 0.990489
1.00216 1.00126 0.989657
1.00117 1.00004 0.99179
1.00156 0.99969 0.992825
0.99982 0.994862 0.897397
0.999614 0.994883 0.936408
0.99487 0.994818 0.961342
0.995672 1.0026 0.990856
0.997217 0.996053 0.879193
0.994652 0.994793 0.837562
0.994741 0.994801 0.841746
0.999318 1.00343 0.992511
0.994695 0.994832 0.842885
0.994778 0.994809 0.84642
0.997986 1.00117 0.996007
0.999413 1.00162 0.994208
0.995171 0.999438 0.991599
0.994942 0.995972 0.9632
0.997244 0.999075 0.945259
0.995577 0.999439 0.882572
0.994822 0.994806 0.843865
0.997305 1.00343 0.996021
0.994793 0.994853 0.855159
0.994811 0.994792 0.844982
0.995134 1.0021 1.00018
0.994889 0.998538 0.971089
0.994899 0.999941 0.945582
0.995205 0.997655 0.875948
0.99488 0.994848 0.846169
0.999485 1.00328 0.992627
0.998523 1.0037 0.993952
0.996743 1.00431 0.996126
1.00037 1.00424 0.99003
1.00046 1.00445 0.989819
0.999747 1.00486 0.990355
0.998028 1.00481 0.992455
1.00041 1.00455 0.989671
0.999447 1.00474 0.991087
0.996453 1.00486 0.995667
0.995144 1.00513 0.997536
0.99645 1.00498 0.995706
1 1.00419 0.990765
1.00038 1.00468 0.989633
1.00002 1.00396 0.990829
0.999274 1.00353 0.992479
0.999586 1.00456 0.990785
0.999554 1.00492 0.990649
0.99902 1.0043 0.99213
0.999348 1.00454 0.991469
0.997505 1.00491 0.993992
1.0021 0.998228 0.99249
1.00047 1.00198 0.992087
1.00092 1.00223 0.990646
1.00368 1.00208 0.986807
1.0006 1.00405 0.990404
1.0004 1.00254 0.991032
0.999895 1.00463 0.990271
0.999786 1.0049 0.989882
1.00005 1.0046 0.99026
0.999948 1.0049 0.990089
1.00003 1.00394 0.990804
1.00003 1.00455 0.990563
1.00013 1.00334 0.991305
1.00013 1.00173 0.992843
1.00022 1.00302 0.991517
1.00012 1.00167 0.992965
1.00014 0.998911 0.996278
1.00003 1.00169 0.993069
1.00006 0.99889 0.996078
1.00007 0.997109 0.997789
0.999972 0.998851 0.995962
1 0.997066 0.998537
0.999983 0.997089 0.999145
1.0002 1.00224 0.992268
1.00004 1.00033 0.994462
1.00011 1.00173 0.992952
1.00007 0.997949 0.996718
0.999962 1.00017 0.994699
1.00004 1.00154 0.993236
1.00002 0.996569 0.999284
1.00007 0.997895 0.996773
0.999958 1.00007 0.994802
1.00009 0.997865 0.996757
1 0.996619 0.999283
0.999973 0.99664 0.999282
0.994685 0.99481 0.839203
0.999818 0.994866 0.887374
0.994767 0.994796 0.844615
0.994691 0.994782 0.832937
0.996077 0.995366 0.969315
1.00354 0.995125 0.988417
0.999997 0.994919 0.94123
0.999761 0.994951 0.895887
0.994725 0.994798 0.821196
0.998393 0.995099 0.975475
1.00135 0.995984 0.932854
0.997574 0.998442 0.890952
0.994748 0.99477 0.829434
0.995466 0.994884 0.968932
0.997239 0.997456 0.93414
0.994788 0.998845 0.876484
0.994819 0.994826 0.831099
1.00021 1.00427 0.990818
0.999974 1.00317 0.991684
0.999894 1.00215 0.992839
0.999533 1.00324 0.992352
1.00051 1.00401 0.989873
0.999957 1.00356 0.991327
1.00004 1.00311 0.991583
1.00073 1.00287 0.990898
1.00042 1.00332 0.990955
1.00008 1.00264 0.991945
1.00256 0.994826 0.992712
1.00423 0.995343 0.991092
1.00456 0.995579 0.99023
1.00094 0.998608 0.993498
1.0001 1.00517 0.990781
0.9993 1.00453 0.991521
0.999765 1.00491 0.990191
0.999898 1.00505 0.989925
1.00015 0.995455 0.992692
0.999785 1.00496 0.990235
0.999549 1.00517 0.991146
1.00254 0.996268 0.994077
1.0006 1.00037 0.993418
0.997736 0.996953 0.99332
0.998026 0.998031 0.99988
0.998145 1.00349 0.993881
0.999909 1.00468 0.990288
0.998985 1.00509 0.991718
0.99483 0.994833 0.860459
0.994726 0.994852 0.851749
0.99981 0.994884 0.880793
0.999236 1.00293 0.992333
0.999221 1.00143 0.994136
0.998024 1.00061 0.996387
0.994677 0.994825 0.842318
0.997285 0.997383 0.935131
0.994974 0.996099 0.963683
0.995478 0.997204 0.994416
0.994799 0.998369 0.898287
0.994789 0.994812 0.846268
0.994837 0.994816 0.844395
0.997482 1.00326 0.996354
0.994798 0.994846 0.857986
0.994801 0.994789 0.845381
0.995306 1.00178 0.999111
0.994945 0.998078 0.972872
0.995341 0.999014 0.934528
0.994865 0.994847 0.843873
0.994896 0.99954 0.883706
0.995304 1.00487 0.999087
0.994787 0.994826 0.858083
0.994843 0.994806 0.849699
0.994813 0.994826 0.831852
0.994954 0.999457 0.991271
0.994912 0.998934 0.949244
0.995393 0.998452 0.889031
0.998941 1.00385 0.994251
0.997177 1.00463 0.99547
0.994993 1.00518 0.998699
1.00033 1.0046 0.989687
0.999359 1.00474 0.991038
0.996535 1.00491 0.996101
0.999797 1.0044 0.990702
0.996701 1.00501 0.995694
0.995398 1.00517 0.997521
0.99517 1.00528 0.997847
0.996912 1.00474 0.995186
0.99953 1.00458 0.990865
0.999614 1.00493 0.990672
0.999064 1.00446 0.992237
0.997786 1.00485 0.993849
0.999316 1.00459 0.99139
0.999042 1.00284 0.993522
1.00048 0.998907 0.994705
1.00199 1.00108 0.98909
1.00036 1.00178 0.992365
1.00151 1.00224 0.99024
1.00389 1.00224 0.986133
1.00489 1.00153 0.984832
1.00171 1.00299 0.989048
1.003 1.00205 0.987012
1.00041 1.00498 0.989373
1.00033 1.00403 0.990579
0.999793 1.00273 0.992068
1.00023 1.00449 0.990136
0.999839 1.00495 0.989883
1.00018 1.00417 0.990345
1.00004 1.00491 0.990095
1.00013 1.00382 0.990814
1.00013 1.00208 0.99248
1.00019 1.00333 0.991289
1.00015 1.00172 0.99283
1.00015 0.998915 0.996225
1.00014 1.00163 0.99297
1.00014 0.998897 0.995939
1.0001 0.997176 0.997691
1.00007 0.998873 0.99577
1.00005 0.997107 0.998452
1.00002 0.997081 0.999108
1.00042 1.00235 0.991607
1.0001 1.00065 0.993784
1.00025 1.00221 0.992266
1.00011 0.99803 0.996578
1.00003 1.00033 0.994316
1.0001 1.00174 0.992777
1.00004 0.996613 0.999268
1.00008 0.997931 0.996725
0.999965 1.00013 0.994703
1.00002 0.996593 0.999284
1.00006 0.997901 0.996772
1 0.996607 0.999284
0.994826 0.994836 0.852405
0.994697 0.994832 0.849228
0.999815 0.994856 0.887196
1.00086 1.00276 0.990673
0.994816 0.994801 0.851975
0.994763 0.994792 0.844536
0.994711 0.994795 0.842311
0.99873 0.995535 0.974474
0.999562 0.995473 0.944033
0.997172 0.99637 0.877366
0.994735 0.994792 0.835197
0.996661 0.994893 0.965847
0.997287 0.999327 0.944075
0.99542 0.999637 0.880024
0.994811 0.994816 0.835527
0.994901 0.99488 0.96125
0.994882 0.999006 0.943357
0.994887 0.999978 0.886079
0.994877 0.994846 0.845848
1.00001 1.00472 0.990185
1.00011 1.00416 0.990601
1.00008 1.00295 0.991807
1.00063 1.00333 0.99043
1.0004 1.00411 0.990113
0.999974 1.0036 0.991491
1.00075 1.00295 0.99088
1.00045 1.00335 0.991022
0.999264 0.996414 0.992899
1.00268 0.995863 0.994348
1.00018 1.00506 0.989639
1.00111 0.999964 0.99326
0.999792 1.00518 0.991065
0.999998 1.00504 0.990122
0.999768 1.00469 0.990264
0.996812 0.996379 0.994041
0.999146 1.00475 0.991934
0.998688 1.00341 0.994032
0.997876 0.998466 1.00006
0.999712 1.0048 0.990988
0.99587 0.99964 0.990341
0.995787 1.00245 0.999189
0.99688 1.00475 0.995038
0.999081 1.00413 0.992592
0.994783 0.994801 0.863751
0.994831 0.994829 0.85913
0.994724 0.994849 0.848482
0.997545 1.00328 0.996704
0.995376 1.00112 0.998045
0.994807 0.994837 0.860678
0.994893 0.99993 0.945604
0.994931 0.997656 0.970304
0.994841 0.999634 0.882789
0.994799 0.994785 0.845671
0.994854 0.994847 0.841604
0.995516 1.00469 0.99879
0.994789 0.994827 0.857954
0.994841 0.994806 0.852241
0.994833 1.00016 0.994807
0.994802 0.994821 0.836034
0.994908 0.997494 0.942494
0.995146 0.998851 0.891962
0.994904 1.00379 0.998396
0.994809 0.994843 0.862354
0.994797 0.994801 0.852634
0.994716 0.994776 0.836161
0.995061 0.99998 0.885684
0.994912 1.00023 0.978271
0.99524 0.998762 0.93548
0.997841 1.00475 0.994829
0.995392 1.00517 0.998408
0.994927 1.00515 0.998594
0.999625 1.00449 0.99064
0.99684 1.00508 0.995686
0.995598 1.00515 0.997514
0.99708 1.00464 0.995134
0.995245 1.00507 0.997886
0.997678 1.00196 0.997577
0.998034 1.00471 0.993697
0.999253 1.00459 0.991318
0.999088 1.00297 0.993877
0.998958 1.00344 0.992001
0.998896 0.999547 0.996855
1.00193 1.00072 0.989975
1.00401 1.00285 0.984636
1.00493 1.00204 0.983996
1.00209 1.00223 0.989816
1.004 1.0024 0.985396
1.00517 1.00125 0.984895
1.00387 1.00118 0.986787
1.00459 1.00148 0.985128
1.00047 1.00507 0.98875
1.00176 1.00314 0.988919
1.0023 1.00203 0.987218
1.00021 1.00452 0.989809
1.00013 1.00503 0.989515
1.00009 1.00399 0.990758
0.999897 1.00505 0.989885
1.00023 1.00412 0.990356
1.00021 1.00252 0.991894
1.00022 1.00375 0.990825
1.00014 1.00211 0.992469
1.00012 0.999092 0.995459
1.00018 1.00176 0.992818
1.00017 0.998914 0.995562
1.00001 0.997167 0.999026
1.00015 0.998903 0.995619
1.00007 0.997175 0.998367
1.00005 0.997128 0.999052
1.00043 1.00249 0.991433
1.00023 1.00097 0.99324
1.00038 1.0024 0.991736
1.00016 0.998166 0.996365
1.00013 1.00065 0.993717
1.00025 1.00221 0.992261
1.00005 0.996641 0.999236
1.00011 0.998005 0.996592
1.00004 1.00033 0.99417
1.00004 0.996588 0.999274
1.00008 0.997913 0.996732
1.00002 0.996614 0.999284
0.994794 0.994833 0.86184
0.994824 0.994841 0.852492
0.99469 0.994836 0.849332
1.00077 1.00281 0.990813
1.00065 1.00304 0.990608
1.00084 1.00268 0.990949
0.994857 0.994807 0.849061
0.994816 0.994793 0.852281
0.994759 0.994785 0.844482
0.996829 0.99487 0.967417
0.997299 0.996898 0.932966
0.994779 0.999926 0.896916
0.994825 0.994824 0.830704
0.994991 0.99501 0.964636
0.995256 0.999896 0.939881
0.994831 0.999194 0.883727
0.99487 0.994841 0.843392
0.99489 0.995692 0.961086
0.994877 0.99841 0.945123
0.995382 0.99879 0.888741
0.994842 0.994816 0.834698
1.00015 1.00364 0.990796
1.00025 1.00448 0.989983
1.00032 1.00406 0.990383
1.00072 1.00325 0.990384
1.0002 1.00422 0.990359
1.00077 1.00304 0.990863
0.996185 0.996059 0.994766
0.997403 0.998933 1.00032
0.999858 1.00445 0.990238
0.99918 1.00258 0.994169
0.999182 1.00459 0.992147
0.999473 1.00471 0.991017
0.99875 1.00447 0.992666
0.995405 0.999867 0.990304
0.99668 1.00502 0.995658
0.996222 1.00266 0.998403
0.998724 1.00441 0.992923
0.995238 1.00215 0.986643
0.99566 1.00423 0.996132
0.996408 1.00477 0.996535
0.994807 0.994815 0.864999
0.994782 0.994807 0.863834
0.994832 0.994826 0.857803
0.995498 1.00439 0.99845
0.994784 1.00048 0.991177
0.994793 0.994829 0.857835
0.994824 0.999035 0.942739
0.995363 0.998447 0.87836
0.994838 0.994804 0.854765
0.994823 0.994832 0.831523
0.994925 1.00363 0.998903
0.994807 0.994844 0.863368
0.994807 0.994797 0.852945
0.994903 0.999689 0.975472
0.994744 0.994777 0.830266
0.995184 0.999941 0.882309
0.994941 0.997761 0.947665
0.994982 1.00506 0.992487
0.994786 0.99484 0.862012
0.994777 0.994801 0.845586
0.994665 0.994757 0.844151
0.994886 0.998382 0.876212
0.995053 0.99981 0.94366
0.994902 1.00072 0.969494
0.995784 1.00515 0.998106
0.995115 1.00484 0.998599
0.997191 1.00213 0.99813
0.997281 1.00459 0.995083
0.995372 1.00497 0.997888
0.996462 1.00355 0.997549
0.999106 0.997191 0.999832
0.999129 1.0032 0.994225
1.00103 1.00246 0.991412
1.00245 1.00393 0.986878
1.00176 1.00045 0.990941
1.00405 1.00273 0.984883
1.00441 1.004 0.983002
1.00491 1.00177 0.984047
1.00512 1.00165 0.984241
1.00491 1.00212 0.983916
1.00432 1.00249 0.984665
1.00507 1.00082 0.986102
1.00509 1.00135 0.98481
1.00213 1.00308 0.987643
1.00372 1.0013 0.98702
1.00431 1.00144 0.985427
1.00029 1.00492 0.9889
1.00078 1.005 0.988716
1.0017 1.00332 0.988786
1.00031 1.00309 0.991264
1.00042 1.0044 0.989812
0.999919 1.00508 0.989657
1.00032 1.00398 0.990367
1.00028 1.00248 0.991892
1.00007 0.999407 0.995235
1.00019 1.00207 0.992459
1.00014 0.999114 0.995441
0.999995 0.997301 0.998997
1.00018 0.998937 0.995553
1.00006 0.997199 0.998351
1.00005 0.99717 0.99902
1.00045 1.00292 0.991228
1.00033 1.00119 0.993055
1.00049 1.00243 0.991502
1.00021 0.998362 0.996074
1.00023 1.00098 0.993325
1.00037 1.00242 0.991866
1.00007 0.996717 0.999188
1.00016 0.998138 0.996382
1.00016 1.00063 0.99365
1.00005 0.996643 0.999246
1.00011 0.997984 0.996605
1.00004 0.996602 0.99928
0.994813 0.994839 0.861892
0.994795 0.994843 0.861708
0.994817 0.994853 0.852672
1.00038 1.00413 0.989865
1.00106 1.00395 0.989645
1.00064 1.00288 0.990956
1.00057 1.00324 0.990531
1.00055 1.00282 0.991027
1.00038 1.00323 0.990894
1.00039 1.00268 0.991482
0.994826 0.994788 0.844595
0.994854 0.994808 0.85169
0.994812 0.994798 0.852598
0.994861 0.994836 0.841021
0.994984 0.99508 0.961603
0.99487 0.999945 0.935813
0.994889 0.997852 0.895285
0.994888 0.996203 0.960053
0.994881 0.999327 0.934126
0.994971 0.998519 0.892227
0.994829 0.994808 0.844144
0.99618 0.9964 0.963169
0.994904 0.999445 0.935488
0.995203 0.998295 0.876319
0.994748 0.994798 0.832802
0.998848 1.0048 0.992139
1 1.00392 0.990908
1.00028 1.00459 0.98978
1.00075 1.00336 0.99034
0.995009 0.999976 0.990557
0.99655 1.00297 0.997512
0.999332 1.0049 0.991047
0.998666 1.00442 0.992741
0.996757 1.00524 0.996257
0.998731 1.00413 0.992865
0.996407 1.00475 0.996523
0.996457 1.00199 0.983445
0.99493 1.00508 0.996693
0.996631 1.00441 0.996099
0.994726 1.00306 0.983774
0.995472 1.00365 0.998843
0.994779 0.994802 0.863907
0.994813 0.994814 0.867826
0.994778 0.994814 0.863909
0.994838 1.0035 0.99936
0.994937 0.998802 0.97903
0.9948 0.994841 0.864432
0.995553 0.998022 0.936314
0.995162 0.998579 0.894387
0.994815 0.994799 0.853242
0.994735 0.994796 0.835927
0.994907 1.00436 0.993256
0.994795 0.994835 0.861898
0.994758 0.994793 0.845528
0.994904 1.00041 0.969747
0.994694 0.994763 0.83362
0.995465 0.999624 0.87919
0.995085 0.999552 0.933355
0.995394 1.00445 0.987162
0.994826 0.994828 0.852798
0.994654 0.994763 0.835986
0.997313 0.996125 0.893132
0.994864 0.999794 0.943124
0.994881 0.999987 0.962733
0.995238 1.00474 0.99888
0.996204 1.00299 0.998264
0.996592 0.999293 1.00121
0.995361 1.00501 0.99751
0.99762 0.998561 1.00001
1.00197 0.998203 0.994175
1.00311 1.00135 0.990825
1.00314 1.00348 0.986426
1.00336 1.00436 0.984002
1.0039 1.00269 0.985128
1.00455 1.00393 0.982848
1.00431 1.00434 0.982772
1.00506 1.00067 0.984994
1.00507 1.00108 0.984758
1.00487 1.00197 0.984022
1.00505 1.00155 0.984946
1.00503 1.00154 0.984333
1.00479 1.0023 0.983834
1.0045 1.00108 0.986388
1.00479 1.00087 0.98594
1.00498 1.00144 0.984727
1.00115 1.00508 0.987702
1.00214 1.00328 0.987776
1.00367 1.00139 0.987255
1.0003 1.00385 0.990311
1.00059 1.00489 0.988923
1.00102 1.00492 0.988682
1.00004 0.999735 0.994961
1.00037 1.00296 0.991259
1.00057 1.00437 0.989814
1.0003 1.00247 0.99189
1.00008 0.99944 0.995212
0.999934 0.997517 0.998954
1.00015 0.999133 0.995424
0.99999 0.997335 0.998986
1.00003 0.997202 0.999009
1.0001 1.00488 0.989776
1.0006 1.00337 0.990546
1.00039 1.00162 0.992561
1.00047 1.00285 0.991217
1.00023 0.998633 0.995763
1.00033 1.00122 0.99305
1.00047 1.00246 0.991571
1.00008 0.996861 0.999118
1.0002 0.998356 0.996093
1.00022 1.001 0.993407
1.00007 0.996713 0.999203
1.00015 0.998121 0.9964
1.00005 0.996619 0.999256
0.994788 0.994823 0.857687
0.9948 0.994835 0.862949
0.994803 0.994838 0.861564
1.00044 1.00426 0.989883
1.00073 1.0037 0.98979
1.00005 1.00256 0.990967
1.0001 1.00446 0.989882
1.00111 1.00364 0.990393
1.00063 1.00335 0.990451
1.00044 1.00294 0.991104
1.00046 1.0032 0.99091
1.00041 1.00282 0.99152
0.999552 1.00414 0.991566
0.994764 0.994795 0.846933
0.994815 0.994785 0.845049
0.994853 0.994803 0.854265
0.994839 0.994816 0.844633
0.995369 0.99879 0.878461
0.99488 0.996577 0.958539
0.994862 0.99907 0.945093
0.995046 0.996733 0.95997
0.9949 0.996813 0.946483
0.994847 0.999683 0.884847
0.994764 0.994783 0.831476
0.994785 0.997336 0.964352
0.99487 0.999976 0.945993
0.994739 0.999548 0.895965
0.99468 0.994767 0.843229
0.998275 1.00352 0.994157
0.998735 1.00469 0.992228
0.999992 1.00394 0.991023
0.996732 1.00188 0.979965
0.994811 1.00528 0.997327
0.998676 1.00413 0.992804
0.996186 1.00496 0.996514
0.996892 1.00415 0.996049
0.995261 1.00338 0.999083
0.995172 1.00139 0.983016
0.995837 1.00216 0.999018
0.995737 0.999786 0.988407
0.99482 0.994823 0.859484
0.994782 0.99481 0.86399
0.994818 0.994816 0.870662
0.994907 1.00333 0.993662
0.994883 0.99997 0.966864
0.994804 0.994839 0.861756
0.995081 0.999877 0.943403
0.994752 0.999876 0.895755
0.99474 0.994779 0.845528
0.994721 0.994773 0.822718
0.995561 1.00427 0.987847
0.994814 0.994837 0.852833
0.994681 0.994767 0.834354
0.994949 0.999778 0.963702
0.997483 0.998155 0.891792
0.995296 0.999815 0.938202
0.994956 1.00384 0.985664
0.994683 0.994803 0.83985
0.999533 0.994903 0.896723
0.997124 0.997386 0.934309
0.994869 0.997074 0.965612
0.995608 1.00379 0.998379
0.996324 0.999418 1.00118
0.998851 1.00249 0.995909
0.996137 0.999911 1.00015
1.00082 0.998743 0.994713
1.00329 0.999936 0.989091
1.00388 1.0029 0.985963
1.00338 1.00429 0.983913
1.00419 1.00176 0.9849
1.00477 1.00391 0.982697
1.00431 1.00397 0.982872
1.00481 1.00066 0.985504
1.00521 0.998272 0.986966
1.00518 0.999998 0.985352
1.00503 1.00057 0.985087
1.00511 1.00126 0.984752
1.00508 1.00112 0.984706
1.00486 1.00213 0.983995
1.00508 1.00141 0.98511
1.00475 1.00146 0.985019
1.00497 1.00144 0.984426
1.003 1.00317 0.986644
1.00407 1.0014 0.986422
1.00453 1.00099 0.985775
1.00038 1.0048 0.988861
1.00126 1.00496 0.987726
1.00224 1.00348 0.987905
0.999997 1.00048 0.995086
1.00047 1.00377 0.990298
1.00089 1.00488 0.988946
0.999911 0.997825 0.997349
1.00003 0.999875 0.995219
1.00043 1.00285 0.991254
1.00008 0.999478 0.995189
0.999934 0.997554 0.998936
0.999985 0.997348 0.998974
1.00011 1.00503 0.989883
1.00044 1.00448 0.989819
1.00002 1.0049 0.989746
1.00044 1.00216 0.99195
1.00042 1.00366 0.990539
1.0002 0.998969 0.995477
1.00039 1.00159 0.99257
1.00058 1.00272 0.991204
1.00007 0.997072 0.999045
1.00022 0.998616 0.995778
1.00032 1.00125 0.993045
1.00007 0.996852 0.999139
1.00019 0.99834 0.996111
1.00007 0.996701 0.999218
0.994791 0.994827 0.861442
0.994796 0.994827 0.857556
0.994789 0.994841 0.864039
1.00047 1.00249 0.990992
1.00022 1.0046 0.989901
1.0006 1.00354 0.989938
1.00046 1.00448 0.989716
1.00065 1.00252 0.991002
1.00065 1.00332 0.99107
1.00192 1.0025 0.989249
0.999077 1.00484 0.990916
1.00049 1.00316 0.990927
1.00013 1.00277 0.991556
0.999442 1.00404 0.991516
0.998591 1.00525 0.992361
0.994684 0.994808 0.839818
0.994787 0.994798 0.84649
0.994809 0.994781 0.84541
0.994752 0.994777 0.841754
0.994834 0.999638 0.884286
0.995291 0.998669 0.935514
0.994871 0.997345 0.959306
0.995083 0.997118 0.964647
0.994699 0.994772 0.832838
0.994878 0.997994 0.939314
0.995593 0.99993 0.881579
0.994886 0.996187 0.967962
0.994878 0.999927 0.946407
0.997809 0.997425 0.889161
0.999311 0.999544 0.996542
0.99835 1.00352 0.994118
0.998624 1.00455 0.992312
0.995345 1.00111 0.982868
0.994965 1.00302 0.999316
0.997169 1.00372 0.996012
0.99685 1.00199 0.999029
0.995229 0.999087 0.988514
0.996824 0.998834 0.992032
0.994725 0.994864 0.84954
0.99482 0.994813 0.861722
0.994781 0.994809 0.864045
0.995333 1.00419 0.988224
0.99486 0.999973 0.963627
0.994803 0.994842 0.853008
0.994836 0.999928 0.934673
0.997189 0.995831 0.87851
0.994708 0.99478 0.843509
0.994826 1.00401 0.985705
0.994695 0.994827 0.849795
0.999513 0.99479 0.881943
0.994857 0.996378 0.961439
0.997169 0.999039 0.944376
0.994793 1.00348 0.99057
0.999803 0.994861 0.877874
0.999836 0.994951 0.946286
0.994882 0.994864 0.960754
0.995999 0.99939 1.00123
0.998333 1.00162 0.99564
1.00175 1.0031 0.990256
0.999668 0.999419 0.995254
1.00278 1.00057 0.988948
1.00437 0.999351 0.987591
1.00334 1.00427 0.983824
1.00406 1.00198 0.984887
1.00496 0.99719 0.987889
1.00431 1.00353 0.982971
1.0047 1.00044 0.985538
1.00523 0.996538 0.988597
1.00519 0.996524 0.988998
1.00521 0.998497 0.986806
1.00522 0.998159 0.987102
1.00519 0.999991 0.98541
1.00518 0.999981 0.985492
1.00502 1.00046 0.98518
1.00516 1.00143 0.984508
1.00507 1.00117 0.984776
1.00508 1.00112 0.984653
1.00466 1.00116 0.985775
1.00487 1.00138 0.985097
1.00448 1.00134 0.985091
1.00143 1.00461 0.987618
1.00305 1.00317 0.986613
1.00361 1.00167 0.986457
0.999852 1.00168 0.993306
1.00081 1.00464 0.98886
1.00142 1.00491 0.987749
0.999736 0.998325 0.998739
1.00001 1.00054 0.994186
1.00064 1.00362 0.990287
0.999894 0.997798 0.998872
1.00002 0.999959 0.994827
0.999936 0.997602 0.998917
1.00129 1.00372 0.989269
1.00012 1.00488 0.989781
1.00051 1.00495 0.989279
1.00033 1.00309 0.99121
1.00035 1.00449 0.989794
1.00013 1.00473 0.989718
1.00016 0.999339 0.995172
1.0004 1.00219 0.991967
1.00027 1.00381 0.990531
1.00004 0.997286 0.998977
1.00021 0.998912 0.995492
1.0004 1.00156 0.992579
1.00006 0.997037 0.999067
1.00022 0.998603 0.995793
1.00007 0.996826 0.999161
0.994706 0.99483 0.835834
0.994808 0.994829 0.861565
0.994806 0.994831 0.857434
1.00038 1.00271 0.990967
1.00331 1.00212 0.988722
1.00083 1.00317 0.990505
1.0005 1.00448 0.989549
1.00129 1.00233 0.991032
0.999877 1.00278 0.991739
0.999562 1.00471 0.990667
1.00131 1.00293 0.989547
1.00105 1.00428 0.989077
0.999718 0.999886 0.994884
0.999885 1.00396 0.991466
0.998756 1.0052 0.992102
0.999702 0.996005 0.875545
0.994662 0.994788 0.833603
0.994795 0.994801 0.846365
0.994717 0.994779 0.822
0.995591 0.998863 0.896876
0.994836 0.999576 0.935436
0.995605 0.9954 0.962041
0.994848 0.996129 0.966462
0.997569 0.998396 0.890061
0.995291 0.999396 0.935272
0.994876 0.99753 0.96834
0.99731 0.997194 0.934068
1.0015 0.996554 0.99689
0.999244 1.00015 0.996507
0.998446 1.0036 0.994085
0.994815 0.99894 0.988698
0.99758 1.00174 0.999011
0.997255 0.998929 0.991795
0.997835 0.996574 0.990642
0.999824 0.994881 0.889683
0.994719 0.994855 0.848084
0.99483 0.994809 0.863851
0.994857 1.00399 0.985987
0.99487 0.995809 0.959731
0.994691 0.994833 0.849785
0.997511 0.996199 0.933907
0.999526 0.99483 0.897104
0.99496 1.00189 0.987626
0.999812 0.994866 0.887727
1.00095 0.995775 0.933986
0.994888 0.994845 0.963705
0.997506 0.998114 0.989444
0.999981 0.994902 0.947014
0.995542 0.994909 0.967113
0.997998 1.00081 0.995308
1.00126 1.00108 0.990335
1.00439 0.998468 0.98978
1.00232 1.00101 0.988816
1.00412 0.999362 0.987604
1.00505 0.99612 0.989373
1.00402 1.00219 0.984876
1.00492 0.997617 0.987817
1.00519 0.995254 0.989851
1.00462 1.0002 0.985572
1.00523 0.996593 0.988546
1.0052 0.995282 0.990106
1.00518 0.995725 0.990077
1.00519 0.996396 0.989195
1.00519 0.997052 0.988659
1.00524 0.998908 0.986652
1.00521 0.998569 0.986895
1.00522 0.998053 0.98724
1.00523 1.00061 0.985111
1.00521 1.00003 0.985365
1.00517 0.999947 0.985633
1.00505 1.00125 0.985023
1.00512 1.00145 0.984548
1.00498 1.00114 0.984804
1.00272 1.00327 0.986872
1.00451 1.00138 0.985752
1.00468 1.00139 0.985084
1.00008 1.0026 0.991953
1.00156 1.00448 0.987638
1.00312 1.00298 0.986583
0.999786 0.998747 0.99853
0.999948 1.0016 0.993264
1.00114 1.00455 0.988857
0.999817 0.998335 0.997871
1.00003 1.0006 0.994193
0.999903 0.997905 0.9988
1.00241 1.00212 0.988858
1.00076 1.00388 0.989513
1.00045 1.00505 0.988944
1.00018 1.00486 0.989678
1.00033 1.00499 0.989273
1.00034 1.0039 0.990399
1.00007 0.999988 0.994716
1.0003 1.00312 0.991215
1.0002 1.00459 0.989769
0.999997 0.997515 0.998894
1.00015 0.999325 0.99519
1.00034 1.00224 0.991983
1.00004 0.997251 0.998998
1.00022 0.998876 0.995508
1.00006 0.997016 0.999088
0.999824 0.99487 0.88748
0.994698 0.994844 0.840514
0.994818 0.994828 0.86166
1.00029 1.00317 0.990936
1.00083 1.00403 0.989454
1.00254 1.00249 0.989077
1.00451 1.00339 0.984044
1.00086 1.00365 0.989515
0.999752 1.00475 0.990428
1.00094 1.00342 0.989847
1.00055 1.0043 0.989379
1.00246 1.00155 0.987815
1.00157 0.999792 0.992772
1.00378 0.995024 0.992687
1.00037 0.999443 0.994774
0.999493 1.00427 0.991845
0.998613 0.995718 0.944923
0.999805 0.99488 0.880613
0.994654 0.994787 0.837421
0.997817 0.998126 0.876737
0.994893 0.999914 0.943579
0.994806 0.995625 0.967232
0.994883 0.997211 0.969966
0.997293 0.999196 0.945805
0.995881 0.99564 0.97002
1.00097 0.995981 0.997109
1.00074 0.997242 0.996931
0.999101 1.00082 0.99647
0.997889 0.99841 0.991658
0.99838 0.997258 0.990887
0.999961 0.994899 0.93783
0.999815 0.994884 0.894388
0.994704 0.994844 0.846725
0.994887 1.00053 0.984518
0.994907 0.994852 0.96089
0.999807 0.994854 0.887639
0.99966 0.994947 0.944741
0.996849 0.998039 0.989839
1.00079 0.994903 0.944265
0.996512 0.994895 0.964553
1.00095 0.995803 0.989459
0.99875 0.994849 0.974228
1.00068 0.999155 0.99051
1.00403 0.997349 0.989747
1.00488 0.995522 0.991097
1.00377 0.999447 0.987615
1.0049 0.996184 0.989256
1.00518 0.99492 0.990335
1.00481 0.998071 0.987747
1.00519 0.99532 0.989792
1.00521 0.994916 0.990431
1.00523 0.99666 0.988495
1.0052 0.995333 0.990066
1.00519 0.995062 0.990508
1.00518 0.995564 0.99015
1.00518 0.995972 0.98986
1.00519 0.996263 0.989392
1.00519 0.997064 0.988647
1.00522 0.997829 0.987832
1.00525 0.999726 0.986008
1.00524 0.998964 0.98663
1.00521 0.998638 0.986985
1.00524 1.001 0.984825
1.00523 1.00067 0.985011
1.00522 1.00008 0.985317
1.00366 1.00205 0.986356
1.00492 1.00134 0.985041
1.00501 1.00146 0.984587
1.00078 1.00261 0.990755
1.00267 1.00335 0.986879
1.00428 1.0017 0.985731
0.999908 0.999533 0.998169
1.00022 1.00246 0.991938
1.00178 1.00436 0.987659
0.999872 0.998946 0.998415
1.00009 1.00142 0.99322
0.999893 0.998378 0.998609
1.00414 1.00203 0.985468
1.00251 1.00185 0.988754
1.00088 1.00462 0.988293
1.00028 1.00384 0.989761
1.00045 1.00503 0.988862
1.00055 1.00443 0.989514
1.00021 1.00505 0.989267
1.00026 1.00396 0.990385
1.00008 1.00062 0.994102
0.999945 0.997923 0.998755
1.00006 0.999914 0.994739
1.00026 1.0031 0.99122
0.999992 0.997506 0.998923
1.00013 0.99929 0.995205
1.00004 0.997217 0.999018
0.999989 0.994915 0.948756
0.999838 0.99488 0.886885
0.994683 0.994835 0.835699
1.00079 1.00475 0.988405
1.00194 1.00258 0.989438
1.00159 1.00361 0.989037
1.00405 1.00355 0.984709
1.00458 1.00262 0.983854
1.00268 1.00295 0.986054
1.00014 1.00441 0.989672
1.00341 1.00132 0.986826
1.00149 0.999627 0.99297
1.00317 0.998332 0.989906
1.00433 0.995516 0.99204
1.00354 0.995737 0.992575
1.00343 0.995179 0.992891
1.00005 0.999906 0.994664
0.996037 0.994875 0.968537
0.999762 0.995959 0.941242
0.998496 0.995705 0.894872
0.997092 0.998491 0.933928
0.994887 0.997332 0.970424
0.995519 0.996073 0.975505
0.999538 0.996459 0.992257
1.00146 0.995521 0.996758
1.00014 0.997925 0.996983
0.999235 0.99843 0.991156
0.996819 0.996512 0.969512
1.00008 0.994915 0.949613
0.999815 0.994871 0.88033
0.996253 0.998074 0.990137
0.996861 0.994868 0.965796
1 0.994933 0.94132
1.00032 0.995181 0.989636
0.998457 0.995189 0.973645
1.00318 0.994798 0.990898
1.0029 0.997492 0.985877
1.00358 0.996095 0.989684
1.00468 0.995325 0.991111
1.00515 0.994779 0.990849
1.00483 0.996271 0.989141
1.00518 0.99492 0.990301
1.00523 0.994904 0.990475
1.0052 0.995388 0.989733
1.00521 0.994923 0.990403
1.00523 0.994925 0.990515
1.00521 0.995368 0.990025
1.00518 0.995075 0.990476
1.0052 0.995168 0.99041
1.00518 0.995409 0.990222
1.00518 0.995844 0.989948
1.0052 0.997024 0.988825
1.00519 0.99708 0.988634
1.00522 0.99789 0.987808
1.00524 0.999028 0.986813
1.00528 1.0004 0.985301
1.00526 0.999834 0.985874
1.00524 0.999021 0.986608
1.00439 1.00106 0.98616
1.0052 1.00102 0.98485
1.00523 1.00072 0.984911
1.00133 1.00227 0.990132
1.00362 1.00223 0.986338
1.00478 1.00144 0.985059
1.00026 1.0001 0.997692
1.00087 1.0025 0.990739
1.0026 1.00343 0.986886
1.00007 0.999652 0.997981
1.00027 1.00236 0.991929
0.999984 0.999049 0.998271
1.0046 1.00198 0.98455
1.00441 1.00198 0.985597
1.00308 1.00277 0.986365
1.00246 1.00184 0.988648
1.00109 1.00437 0.988094
1.00115 1.00478 0.988413
1.00035 1.00498 0.988778
1.00049 1.00452 0.989504
1.00009 1.00127 0.99341
1.00021 1.00407 0.990373
1.00003 1.00059 0.994129
0.999894 0.99839 0.998575
0.999936 0.99785 0.998807
1.00005 0.999872 0.994764
0.999985 0.997456 0.998949
0.996945 0.994878 0.969747
0.999987 0.994976 0.937117
0.999826 0.994876 0.896963
1.00517 1.00025 0.985127
1.00236 1.00363 0.988569
1.00357 1.00372 0.985373
1.0033 1.00266 0.986303
1.00465 1.00287 0.983753
1.0042 1.00014 0.986968
1.0043 1.00157 0.985837
1.00119 0.999245 0.99317
1.00362 0.998579 0.989566
1.00424 0.995523 0.991401
1.00478 0.995364 0.990277
1.00387 0.995467 0.992568
1.00349 0.99542 0.992606
1.00314 0.995358 0.99309
0.999511 0.996515 0.990816
0.995887 0.994866 0.966856
0.999257 0.995091 0.937745
0.995086 0.996514 0.973859
0.999362 0.996243 0.994537
1.00142 0.994941 0.996368
1.00113 0.997041 0.983951
0.996782 0.995685 0.970365
0.999962 0.994913 0.937823
0.999414 0.995015 0.989861
0.998684 0.995484 0.972764
1.00236 0.99527 0.991323
1.00293 0.99709 0.986593
1.00416 0.994794 0.991305
1.00464 0.997474 0.990637
1.00445 0.995105 0.991114
1.00514 0.994788 0.99074
1.00528 0.994784 0.990463
1.00518 0.994915 0.990266
1.00522 0.994895 0.990468
1.00527 0.994894 0.990449
1.0052 0.994926 0.990374
1.00522 0.994923 0.99052
1.00522 0.994992 0.990584
1.00517 0.995086 0.990444
1.0052 0.995158 0.990392
1.00521 0.996019 0.989697
1.00518 0.995715 0.990037
1.0052 0.996864 0.989003
1.00524 0.998364 0.987523
1.00522 0.99795 0.987785
1.00524 0.998997 0.986841
1.00528 1.00013 0.985682
1.00468 1.00051 0.98624
1.00528 1.0005 0.985221
1.00526 0.999938 0.98574
1.00189 1.00144 0.99002
1.00433 1.00116 0.98616
1.00517 1.00104 0.984874
1.0005 1.0004 0.997362
1.00153 1.00198 0.990122
1.0036 1.00234 0.986321
1.00038 1.00018 0.997547
1.00101 1.00235 0.990724
1.00023 0.999837 0.997795
1.00523 1.0011 0.984528
1.00495 1.00191 0.984492
1.00466 1.00161 0.985166
1.00483 1.00195 0.985728
1.00335 1.00289 0.98617
1.00202 1.00433 0.987352
1.00135 1.00412 0.987896
1.00087 1.00489 0.988432
1.00018 1.00197 0.99254
1.00035 1.00459 0.989495
1.00004 1.00124 0.99344
0.999854 0.998972 0.99837
0.999987 1.00054 0.994156
0.999888 0.998308 0.998641
0.999931 0.99779 0.998854
1.001 0.994875 0.988164
0.996743 0.994891 0.966554
0.999965 0.99488 0.948781
1.00512 0.998829 0.98691
1.0052 0.998336 0.987286
1.00517 1.00009 0.985356
1.00385 1.00224 0.986546
1.00472 1.00315 0.983649
1.00426 0.99995 0.987298
1.00515 0.996187 0.988779
1.0042 0.998554 0.989237
1.00427 0.995892 0.990759
1.00472 0.995983 0.990399
1.00519 0.995021 0.990472
1.00402 0.995631 0.991786
1.00353 0.995726 0.992514
1.0037 0.995076 0.992645
1.00005 0.996242 0.990954
0.995649 0.994856 0.965277
0.999505 0.996072 0.996912
1.00441 0.995327 0.991155
1.00101 0.997051 0.984136
0.996741 0.9952 0.968274
1.00202 0.994815 0.991724
1.00291 0.996661 0.987338
1.00419 0.994824 0.991889
1.00467 0.996669 0.990701
1.00528 0.994892 0.99066
1.00537 0.994948 0.990849
1.00515 0.994799 0.990634
1.00529 0.994818 0.990436
1.0053 0.994875 0.990433
1.00521 0.994888 0.990459
1.00527 0.994891 0.990472
1.00524 0.994905 0.990607
1.00521 0.994922 0.990526
1.00523 0.994969 0.990566
1.00521 0.995442 0.990293
1.0052 0.995143 0.990374
1.00521 0.996046 0.98968
1.00525 0.997688 0.988142
1.00521 0.996701 0.989181
1.00524 0.998292 0.987592
1.00528 0.999781 0.986011
1.00524 0.998971 0.986869
1.00528 1.00006 0.985751
1.00478 1.00027 0.986323
1.00218 1.00076 0.990161
1.00465 1.00056 0.986242
1.00527 1.00059 0.985141
1.00062 1.0005 0.997221
1.00193 1.00138 0.99002
1.00424 1.00133 0.986161
1.00056 1.00045 0.997294
1.00165 1.00182 0.990113
1.00047 1.00029 0.997424
1.00525 0.999566 0.986006
1.00523 1.00101 0.984675
1.00517 1.00089 0.985094
1.00517 1.00182 0.984431
1.00481 1.00142 0.985201
1.003 1.00301 0.986782
1.00362 1.00295 0.985975
1.00179 1.00439 0.987358
1.00048 1.00266 0.991367
1.00066 1.00502 0.988451
1.00008 1.00207 0.99257
0.999903 0.999621 0.998068
1 1.00123 0.99347
0.999831 0.998836 0.998448
0.999871 0.998219 0.998703
1.00428 0.994865 0.992163
1.00101 0.994879 0.986159
0.996607 0.994894 0.965541
1.00515 0.997603 0.988257
1.00513 0.998387 0.987192
1.00524 0.997015 0.988542
1.0052 0.998327 0.987269
1.00517 0.999895 0.985583
1.00524 0.995531 0.989475
1.00436 0.999828 0.987623
1.00515 0.996591 0.988696
1.00529 0.994875 0.990323
1.00464 0.996367 0.990522
1.00512 0.995079 0.990274
1.00393 0.995652 0.991975
1.00297 0.995944 0.99246
1.0004 0.995919 0.990973
1.00533 0.99493 0.990618
1.00436 0.996222 0.991299
1.00097 0.996949 0.984343
1.00415 0.994884 0.992457
1.00467 0.995926 0.99077
1.00527 0.994864 0.990722
1.00538 0.994946 0.990794
1.00532 0.994928 0.990736
1.0053 0.994847 0.990409
1.00529 0.994888 0.990445
1.00524 0.994902 0.990688
1.00527 0.994891 0.990494
1.00524 0.994903 0.990603
1.00523 0.99506 0.990691
1.00523 0.994954 0.990548
1.00522 0.995447 0.990271
1.00524 0.997006 0.988854
1.00522 0.996073 0.989664
1.00524 0.997704 0.988152
1.0053 0.999421 0.986395
1.00524 0.99822 0.98766
1.00528 0.999778 0.986034
1.00481 1.0002 0.986367
1.00528 0.999997 0.985821
1.00478 1.00028 0.986328
1.00226 1.00037 0.991932
1.0009 1.00016 0.994124
1.00222 1.00074 0.990924
1.00463 1.00061 0.986244
1.00064 1.00053 0.997195
1.00205 1.0012 0.990017
1.00059 1.00051 0.997233
1.00525 0.996753 0.988973
1.00523 0.99848 0.987276
1.00525 0.999575 0.98617
1.00521 1.00043 0.985425
1.00522 1.00093 0.984822
1.00518 1.00088 0.985056
1.00386 1.00151 0.986644
1.00494 1.00126 0.985237
1.00309 1.00273 0.986773
1.0011 1.00256 0.990342
1.0016 1.00449 0.987362
1.00039 1.00273 0.991375
1.0001 1.00035 0.997619
1 1.00205 0.992599
0.999826 0.999465 0.998192
0.999824 0.99872 0.998519
1.00534 0.994881 0.990563
1.00455 0.994862 0.991932
1.00125 0.994884 0.984205
1.00522 0.996061 0.989339
1.00513 0.997532 0.988103
1.00514 0.997965 0.987477
1.00524 0.997153 0.988535
1.0052 0.998322 0.987251
1.00529 0.995017 0.990386
1.00523 0.995543 0.989466
1.00514 0.997018 0.988613
1.00528 0.994874 0.990334
1.00509 0.995146 0.990076
1.00396 0.995704 0.992169
1.00528 0.994938 0.990816
1.00534 0.994932 0.990797
1.00432 0.996899 0.991448
1.00527 0.99484 0.990773
1.00539 0.994941 0.990743
1.00532 0.994922 0.990693
1.00523 0.994957 0.990926
1.00529 0.994899 0.990458
1.00524 0.994905 0.990666
1.00526 0.994915 0.990889
1.00525 0.9949 0.9906
1.00522 0.995056 0.990676
1.00523 0.996428 0.989451
1.00522 0.995457 0.990249
1.00524 0.997027 0.98886
1.0053 0.999074 0.986775
1.00524 0.997719 0.988163
1.0053 0.999416 0.986418
1.00482 1.00016 0.986394
1.00528 0.999773 0.986057
1.00482 1.00018 0.986378
1.00236 1.00009 0.99205
1.00479 1.00028 0.986332
1.00244 1.00027 0.991829
1.00093 0.999991 0.994279
1.00066 1.00043 0.995703
1.00241 1.00068 0.991534
1.00064 1.00058 0.997179
1.00523 0.995789 0.99004
1.00523 0.998091 0.987631
1.00524 0.996554 0.989181
1.00528 0.999849 0.985906
1.00524 0.998551 0.987244
1.00524 0.999586 0.986335
1.00524 1.00043 0.985375
1.00441 1.00062 0.98657
1.00522 1.00089 0.985017
1.00397 1.00129 0.986645
1.00163 1.0019 0.99002
1.00314 1.00242 0.986766
1.00093 1.00274 0.990341
1.00026 1.00092 0.997278
1.00019 1.00291 0.991389
0.999946 1.00019 0.997801
0.999769 0.999303 0.998298
1.00528 0.994863 0.990669
1.00532 0.994883 0.990546
1.00471 0.994871 0.991682
1.00525 0.995153 0.990368
1.00522 0.996136 0.989316
1.00511 0.997461 0.987955
1.00523 0.997294 0.988529
1.00528 0.995011 0.99035
1.00521 0.995565 0.989456
1.00524 0.994874 0.990345
1.00523 0.994955 0.990943
1.00528 0.994936 0.990804
1.00534 0.994935 0.990973
1.0052 0.994974 0.991032
1.00532 0.994918 0.990652
1.00523 0.994957 0.990913
1.00526 0.994939 0.99095
1.00524 0.994909 0.990645
1.00524 0.994916 0.990878
1.00523 0.996043 0.989923
1.00521 0.995048 0.99066
1.00525 0.996451 0.989449
1.00528 0.998758 0.987164
1.00524 0.997049 0.988865
1.0053 0.999067 0.986794
1.00482 1.0001 0.986472
1.00529 0.999412 0.986442
1.00483 1.00015 0.986411
1.00241 1.00006 0.992009
1.00484 1.00017 0.986389
1.00252 1.00003 0.991921
1.00099 0.999882 0.994319
1.00261 1.00016 0.991734
1.00057 1.00016 0.994521
1.00014 1.00075 0.997588
1.00523 0.995636 0.990049
1.00524 0.997312 0.988518
1.00524 0.995874 0.989851
1.00531 0.999526 0.986327
1.00524 0.997797 0.987872
1.00523 0.996361 0.989388
1.00477 1.00007 0.986537
1.00528 0.999855 0.98587
1.00524 0.998617 0.987213
1.00526 1.00042 0.985324
1.00446 1.00052 0.986566
1.00194 1.00123 0.990132
1.00406 1.00105 0.986648
1.0015 1.00208 0.990024
1.00032 1.00111 0.997179
1.00086 1.00289 0.99034
1.00019 1.00076 0.997393
0.999838 0.999999 0.997969
1.00523 0.994906 0.990877
1.00528 0.994866 0.990652
1.00532 0.994884 0.99053
1.00525 0.995139 0.990414
1.00521 0.996203 0.989294
1.00529 0.994996 0.990313
1.00521 0.994961 0.991002
1.00523 0.994952 0.990952
1.00528 0.994932 0.990792
1.00519 0.994972 0.991041
1.00523 0.994958 0.991005
1.00523 0.994956 0.990901
1.00526 0.99495 0.990925
1.00522 0.995766 0.990314
1.00523 0.994917 0.990868
1.00525 0.996015 0.989914
1.00525 0.998489 0.987519
1.00526 0.996464 0.989446
1.00528 0.998744 0.987175
1.00479 0.999998 0.986635
1.0053 0.99906 0.986813
1.00483 1.00009 0.986487
1.00241 1.00013 0.991913
1.00485 1.00013 0.986427
1.00255 1.00001 0.991864
1.00104 0.999895 0.994234
1.00266 0.999975 0.991801
1.00067 0.999934 0.994583
1.00022 1.00034 0.994747
1.00521 0.995239 0.990666
1.00523 0.997038 0.988816
1.00523 0.995494 0.990161
1.00529 0.998913 0.986992
1.00524 0.997439 0.988368
1.00524 0.995958 0.989661
1.00488 0.999857 0.986596
1.0053 0.999314 0.986457
1.00525 0.997507 0.988115
1.00219 1.00051 0.990372
1.00478 1.00004 0.986533
1.00528 0.999865 0.985833
1.00452 1.00043 0.986563
1.00189 1.0013 0.990144
1.0004 1.00105 0.997192
1.00139 1.00225 0.990029
1.00031 1.00102 0.997207
1.00005 1.00066 0.997537
1.0052 0.99494 0.990994
1.00523 0.994912 0.99084
1.00527 0.994868 0.990635
1.00525 0.995134 0.990461
1.00523 0.994968 0.990964
1.0052 0.994963 0.991007
1.00524 0.99495 0.990961
1.00519 0.994972 0.99105
1.00523 0.994974 0.990996
1.00523 0.995979 0.990058
1.00525 0.99497 0.990898
1.00523 0.995949 0.990065
1.00521 0.997971 0.988195
1.00527 0.995995 0.989905
1.00524 0.998483 0.987529
1.00476 0.999872 0.986826
1.00528 0.998742 0.987185
1.0048 0.999987 0.986644
1.00243 1.0002 0.990386
1.00484 1.00008 0.9865
1.00254 1.0001 0.991038
1.0009 0.999957 0.997197
1.00269 0.999974 0.991719
1.00075 0.999883 0.994508
1.00037 0.999973 0.99483
1.0052 0.99519 0.990823
1.00523 0.996572 0.989384
1.00522 0.995314 0.990566
1.00527 0.998528 0.987361
1.00522 0.997044 0.988798
1.00524 0.995352 0.990273
1.00488 0.999644 0.986718
1.00529 0.998909 0.987003
1.00523 0.997563 0.988218
1.00238 0.99998 0.990587
1.00486 0.999778 0.986604
1.0053 0.999092 0.986588
1.00055 1.0007 0.997265
1.0022 1.0005 0.99038
1.00478 1 0.986529
1.00182 1.00136 0.990159
1.0004 1.00098 0.997182
1.00028 1.00096 0.997244
1.00522 0.994973 0.990974
1.00519 0.994942 0.990993
1.00524 0.994919 0.990803
1.00524 0.99605 0.989964
1.00524 0.994966 0.990996
1.0052 0.994964 0.991013
1.00524 0.995003 0.990987
1.00523 0.995998 0.990058
1.00522 0.998019 0.988198
1.00524 0.99612 0.989816
1.00521 0.998242 0.987903
1.00472 0.999532 0.987162
1.00523 0.998466 0.98754
1.00476 0.999864 0.986831
1.00239 1.00014 0.990498
1.00481 0.999978 0.986654
1.00244 1.00018 0.990392
1.00086 1 0.997182
1.00257 1.00008 0.990282
1.00077 0.999956 0.995854
1.00046 0.999851 0.99478
1.00524 0.99521 0.990689
1.00525 0.996509 0.989478
1.0052 0.995121 0.990843
1.00527 0.998612 0.987282
1.00522 0.996654 0.989294
1.00522 0.99539 0.990467
1.00486 0.999579 0.986826
1.00527 0.998745 0.987173
1.00522 0.997048 0.98878
1.00247 0.9998 0.990619
1.00486 0.999634 0.986728
1.00529 0.998909 0.987013
1.00073 1.00028 0.997296
1.0024 0.999957 0.990592
1.00485 0.999696 0.98661
1.00055 1.00068 0.997232
1.00221 1.00049 0.990387
1.00037 1.00095 0.997193
1.00524 0.996066 0.989944
1.00522 0.995041 0.990927
1.00518 0.994943 0.990993
1.00522 0.997928 0.98827
1.00524 0.996032 0.989991
1.00524 0.994963 0.991028
1.00523 0.996005 0.990059
1.00522 0.998002 0.988206
1.00469 0.999391 0.98736
1.0052 0.998517 0.987611
1.00474 0.999629 0.987068
1.00238 1.00004 0.990631
1.00476 0.999853 0.986836
1.00238 1.00015 0.990504
1.00081 1.00002 0.997177
1.00243 1.00017 0.990396
1.00084 1.00002 0.997175
1.00086 0.999917 0.994269
1.00527 0.996479 0.989442
1.00524 0.995103 0.990768
1.00527 0.998418 0.987523
1.00525 0.996508 0.989483
1.00521 0.995056 0.990862
1.00483 0.999725 0.986854
1.00527 0.99862 0.987278
1.00521 0.996735 0.989204
1.00251 0.999844 0.990544
1.00484 0.999681 0.986774
1.00527 0.998967 0.986985
1.00087 1.00002 0.997254
1.00249 0.999795 0.99062
1.00484 0.999616 0.986737
1.00071 1.00031 0.997286
1.00242 0.99995 0.990595
1.00056 1.00067 0.997202
1.00524 0.997969 0.988174
1.00524 0.996138 0.989891
1.00522 0.995122 0.990879
1.00465 0.99933 0.987484
1.00522 0.997924 0.988277
1.00523 0.996018 0.990018
1.00522 0.997986 0.988214
1.00471 0.999384 0.987332
1.0023 0.999992 0.990806
1.00474 0.999726 0.986975
1.00236 1.00005 0.990636
1.0008 1.00002 0.99719
1.00238 1.00016 0.99051
1.0008 1.00004 0.997186
1.00083 1.00002 0.997174
1.00526 0.998249 0.987729
1.00527 0.996245 0.989688
1.00524 0.994968 0.990846
1.00476 0.999664 0.987048
1.00526 0.998424 0.987518
1.00524 0.996507 0.989488
1.00247 0.999948 0.990537
1.00481 0.99974 0.986849
1.00526 0.998627 0.987274
1.00092 0.999942 0.997189
1.00251 0.99986 0.990543
1.00483 0.999777 0.986723
1.00084 1.00006 0.997273
1.0025 0.999808 0.990621
1.00073 1.00031 0.997268
1.00466 0.999551 0.987322
1.00524 0.997846 0.988263
1.00524 0.996195 0.989838
1.00226 0.999923 0.990973
1.00466 0.999315 0.987472
1.00522 0.997915 0.988285
1.00473 0.999373 0.987303
1.00231 0.999969 0.990813
1.00077 1.00002 0.997201
1.00234 1.00006 0.990641
1.00078 1.00003 0.997188
1.00077 1.00005 0.99719
1.00469 0.999598 0.987227
1.00526 0.998074 0.987917
1.00526 0.996028 0.989933
1.00249 0.999993 0.991963
1.00474 0.999669 0.987049
1.00526 0.998432 0.987512
1.00087 0.999957 0.997167
1.00247 0.999966 0.990536
1.00478 0.999755 0.986844
1.00091 0.999971 0.997214
1.00252 0.999883 0.990542
1.00083 1.00008 0.997286
1.00233 0.999925 0.990891
1.00466 0.999438 0.987392
1.00523 0.997724 0.988352
1.00069 0.999987 0.997254
1.00224 0.999923 0.990969
1.00467 0.999302 0.98746
1.0023 0.999949 0.990817
1.00074 1.00001 0.997218
1.00077 1.00004 0.997193
1.00248 0.999962 0.992061
1.00469 0.999599 0.987226
1.00526 0.997897 0.988105
1.00038 0.999995 0.997642
1.00239 0.999995 0.990671
1.00472 0.999672 0.987051
1.00089 0.999968 0.997179
1.00248 0.999986 0.990533
1.0009 0.999991 0.997237
1.00068 0.999964 0.994566
1.00235 0.999925 0.991554
1.00465 0.999326 0.98746
1.00071 0.99999 0.99726
1.00225 0.999927 0.990973
1.00075 1 0.997231
1.00025 0.999989 0.994978
1.00239 0.999952 0.991457
1.00467 0.999605 0.987225
1.00058 0.999987 0.996033
1.00238 0.999996 0.990685
1.0009 0.999978 0.997194
1.0007 0.999978 0.997256
1.00225 0.999917 0.990984
1.00068 0.999991 0.997259
1.00049 0.999974 0.996122
1.0023 0.999946 0.990881
1.00082 0.999982 0.997193
1.00072 0.999976 0.997266
1.00073 0.999979 0.997237

TENSORS stress float
0.00196157 -0.000126432 0.000221722
-0.000126432 0.00086771 -3.46731e-05
0.000221722 -3.46731e-05 0.000843853
0.00611266 -1.58844e-05 0.000237363
-1.58844e-05 0.00342786 2.53235e-05
0.000237363 2.53235e-05 0.00342339
0.00167958 -5.84559e-05 9.67391e-05
-5.84559e-05 0.000696502 -1.38543e-05
9.67391e-05 -1.38543e-05 0.000662743
0.00204173 -7.3297e-05 0.000218553
-7.3297e-05 0.000891427 -2.06186e-05
0.000218553 -2.06186e-05 0.000874706
0.00202024 -0.000112317 0.000217418
-0.000112317 0.000893913 -3.07299e-05
0.000217418 -3.07299e-05 0.00087287
0.00190228 -0.000125865 0.000227726
-0.000125865 0.000832479 -3.54328e-05
0.000227726 -3.54328e-05 0.000809545
0.00166539 -0.000110001 4.03406e-05
-0.000110001 0.000603995 -1.17328e-05
4.03406e-05 -1.17328e-05 0.000505818
0.00603845 -2.36326e-05 -7.01799e-06
-2.36326e-05 0.00337237 -6.04152e-07
-7.01799e-06 -6.04152e-07 0.00337296
0.00597426 0.000153031 0.000117831
0.000153031 0.00331564 9.69522e-06
0.000117831 9.69522e-06 0.00329578
0.00583256 -0.000106122 5.25031e-05
-0.000106122 0.00323845 2.6651e-06
5.25031e-05 2.6651e-06 0.00321529
0.00175806 0.000161042 0.000230041
0.000161042 0.000731413 2.52768e-05
0.000230041 2.52768e-05 0.000728652
0.00056799 0.000231715 2.6029e-05
0.000231715 -4.45319e-05 1.7418e-05
2.6029e-05 1.7418e-05 -0.000157686
0.00171737 -3.44844e-05 0.000221212
-3.44844e-05 0.000688964 3.37139e-06
0.000221212 3.37139e-06 0.00068627
0.00136833 -3.04842e-06 5.11717e-05
-3.04842e-06 0.000498332 1.39152e-06
5.11717e-05 1.39152e-06 0.000456793
0.00144999 -5.6259e-05 -4.50131e-05
-5.6259e-05 0.000561757 7.89583e-06
-4.50131e-05 7.89583e-06 0.000516839
0.00170539 -7.50774e-05 7.32352e-05
-7.50774e-05 0.000701157 -4.32224e-06
7.32352e-05 -4.32224e-06 0.000670226
0.00167527 -4.38184e-05 0.000104443
-4.38184e-05 0.000701514 -1.4264e-05
0.000104443 -1.4264e-05 0.000664133
0.00169573 -6.99908e-05 8.62096e-05
-6.99908e-05 0.000697371 -1.1084e-05
8.62096e-05 -1.1084e-05 0.000667165
0.00172307 -0.00014754 -3.6266e-05
-0.00014754 0.000634638 4.63012e-06
-3.6266e-05 4.63012e-06 0.000545214
0.00582328 -0.000127087 0.000278753
-0.000127087 0.00323263 -1.0338e-05
0.000278753 -1.0338e-05 0.00324441
0.00199053 -5.26012e-05 0.000218093
-5.26012e-05 0.000859383 -1.53128e-05
0.000218093 -1.53128e-05 0.000844626
0.00205406 -9.42419e-05 0.00021742
-9.42419e-05 0.000905012 -2.59438e-05
0.00021742 -2.59438e-05 0.000886614
0.00165998 -0.000123043 6.17578e-05
-0.000123043 0.000581928 -9.36319e-06
6.17578e-05 -9.36319e-06 0.000494537
0.00167041 -0.000120112 4.98274e-05
-0.000120112 0.000593332 -1.10752e-05
4.98274e-05 -1.10752e-05 0.000502587
0.00186643 -0.00010122 0.00022571
-0.00010122 0.000802319 -3.18824e-05
0.00022571 -3.18824e-05 0.000783342
0.00163649 -0.000101315 3.25658e-05
-0.000101315 0.000606256 -1.25673e-05
3.25658e-05 -1.25673e-05 0.000498226
0.00204015 -0.000268124 1.57593e-05
-0.000268124 0.000660374 -6.95543e-06
1.57593e-05 -6.95543e-06 0.000484681
0.00602208 -3.86785e-05 -0.000235417
-3.86785e-05 0.0033532 -1.63991e-05
-0.000235417 -1.63991e-05 0.00335833
0.00385777 0.000119819 -0.000127298
0.000119819 0.00202121 -1.29303e-05
-0.000127298 -1.29303e-05 0.00200109
0.00374725 2.10805e-05 -0.000122373
2.10805e-05 0.00196912 -9.45072e-06
-0.000122373 -9.45072e-06 0.00194771
0.00592428 -9.2661e-05 -3.37641e-06
-9.2661e-05 0.0033154 1.77371e-07
-3.37641e-06 1.77371e-07 0.0033097
0.000523094 0.000212579 -1.61119e-06
0.000212579 -6.86514e-05 -1.02247e-06
-1.61119e-06 -1.02247e-06 -0.000181568
0.00172482 6.15207e-05 0.000223145
6.15207e-05 0.000700002 1.90692e-05
0.000223145 1.90692e-05 0.00068608
0.00185236 0.000144546 0.000226758
0.000144546 0.000807939 2.92621e-05
0.000226758 2.92621e-05 0.000784808
0.002721 0.000193762 0.000137319
0.000193762 0.00122927 1.87192e-05
0.000137319 1.87192e-05 0.00115519
0.00518374 -0.000356335 -1.49419e-05
-0.000356335 0.00293956 8.1048e-06
-1.49419e-05 8.1048e-06 0.00286883
0.00281494 0.000257559 0.000139211
0.000257559 0.00132227 2.27089e-05
0.000139211 2.27089e-05 0.00123725
0.000514883 0.000191149 2.74382e-05
0.000191149 -7.30277e-05 2.23605e-05
2.74382e-05 2.23605e-05 -0.000182829
0.000842999 0.000206298 1.18639e-05
0.000206298 1.91572e-05 5.76587e-06
1.18639e-05 5.76587e-06 -0.0001676
0.00394516 -0.00010386 0.000145826
-0.00010386 0.00212193 9.50373e-06
0.000145826 9.50373e-06 0.00212444
0.00583358 7.66899e-05 3.7024e-06
7.66899e-05 0.00322742 -1.64145e-06
3.7024e-06 -1.64145e-06 0.00324529
0.00372301 7.78705e-05 -0.000106082
7.78705e-05 0.00193467 -4.35917e-06
-0.000106082 -4.35917e-06 0.00192232
0.00570003 5.95393e-05 0.000272484
5.95393e-05 0.00314875 3.68104e-06
0.000272484 3.68104e-06 0.00316692
0.00134891 8.21843e-05 5.41113e-05
8.21843e-05 0.000486879 3.34281e-06
5.41113e-05 3.34281e-06 0.000450099
0.000590565 1.04796e-05 1.58501e-05
1.04796e-05 -0.000101333 1.79137e-06
1.58501e-05 1.79137e-06 -0.000180938
0.00584668 0.000213509 0.000150424
0.000213509 0.00326225 1.3906e-05
0.000150424 1.3906e-05 0.00323822
0.00275196 6.82543e-05 0.000131095
6.82543e-05 0.00121591 8.04933e-06
0.000131095 8.04933e-06 0.00116096
0.00131707 -7.8809e-05 -6.52574e-05
-7.8809e-05 0.000480222 8.09861e-06
-6.52574e-05 8.09861e-06 0.00043417
0.00135976 -9.07929e-05 -5.75379e-05
-9.07929e-05 0.000509734 9.43445e-06
-5.75379e-05 9.43445e-06 0.00046283
0.00151009 -1.02509e-05 -3.31643e-05
-1.02509e-05 0.000601413 7.23288e-06
-3.31643e-05 7.23288e-06 0.000554938
0.00175682 -0.000152524 -0.00011985
-0.000152524 0.000648139 2.085e-05
-0.00011985 2.085e-05 0.000567877
0.00365282 -5.60325e-06 -0.000109878
-5.60325e-06 0.00189998 -1.97549e-06
-0.000109878 -1.97549e-06 0.00188623
0.00167885 -5.7587e-05 7.87477e-05
-5.7587e-05 0.000680793 -3.52735e-06
7.87477e-05 -3.52735e-06 0.000653215
0.00163547 -2.06048e-05 0.000108065
-2.06048e-05 0.000679814 -1.23656e-05
0.000108065 -1.23656e-05 0.000641617
0.0017067 -7.38623e-05 7.83671e-05
-7.38623e-05 0.00070077 -7.42538e-06
7.83671e-05 -7.42538e-06 0.00067109
0.00172322 -0.000101975 -2.91973e-05
-0.000101975 0.000611488 1.69591e-06
-2.91973e-05 1.69591e-06 0.000533629
0.00170024 -0.000144899 -4.18269e-05
-0.000144899 0.000634159 5.04701e-06
-4.18269e-05 5.04701e-06 0.00053857
0.00172671 -0.00013976 -3.10994e-05
-0.00013976 0.000626588 3.288e-06
-3.10994e-05 3.288e-06 0.000542333
0.00202704 -0.000267447 -8.50056e-06
-0.000267447 0.000648519 2.28228e-06
-8.50056e-06 2.28228e-06 0.000472957
0.00568211 2.22455e-05 0.000267438
2.22455e-05 0.00313647 -9.85884e-07
0.000267438 -9.85884e-07 0.00315567
0.00193419 -3.05489e-05 0.000215297
-3.05489e-05 0.000828276 -1.05294e-05
0.000215297 -1.05294e-05 0.000816119
0.00242948 3.06651e-06 4.5067e-05
3.06651e-06 0.00104065 -9.41773e-07
4.5067e-05 -9.41773e-07 0.000976082
0.00164001 -9.9602e-05 5.47058e-05
-9.9602e-05 0.000563208 -6.21928e-06
5.47058e-05 -6.21928e-06 0.000482438
0.00166327 -0.000123438 5.72993e-05
-0.000123438 0.000584466 -1.05638e-05
5.72993e-05 -1.05638e-05 0.000496126
0.00189595 -0.000171237 1.15026e-05
-0.000171237 0.00050468 -2.99408e-06
1.15026e-05 -2.99408e-06 0.000359006
0.00177622 -0.0002282 1.64274e-05
-0.0002282 0.000463932 -5.64713e-06
1.64274e-05 -5.64713e-06 0.0002998
0.00163684 -5.99025e-05 0.000202759
-5.99025e-05 0.000661555 -2.43913e-05
0.000202759 -2.43913e-05 0.000646423
0.00154503 -6.34041e-05 2.37311e-05
-6.34041e-05 0.000569307 -1.22848e-05
2.37311e-05 -1.22848e-05 0.000460492
0.00202908 -0.000287404 1.53798e-05
-0.000287404 0.000693959 -7.84683e-06
1.53798e-05 -7.84683e-06 0.000507388
0.00145245 -0.000319062 6.30478e-06
-0.000319062 0.000128565 -1.49778e-06
6.30478e-06 -1.49778e-06 -9.12125e-05
0.00627478 0.000212435 -0.000291442
0.000212435 0.00350083 -2.90522e-05
-0.000291442 -2.90522e-05 0.00350479
0.0057536 -0.00011673 -0.00020439
-0.00011673 0.00321227 -1.3127e-05
-0.00020439 -1.3127e-05 0.00320758
0.00606926 3.83054e-05 -0.00025211
3.83054e-05 0.00337209 -2.01511e-05
-0.00025211 -2.01511e-05 0.00338208
0.000483547 0.000205741 -2.47807e-05
0.000205741 -8.79424e-05 -1.79827e-05
-2.47807e-05 -1.79827e-05 -0.000202934
0.00625975 0.000206892 -2.64073e-06
0.000206892 0.00348887 -2.14552e-06
-2.64073e-06 -2.14552e-06 0.00349499
0.00627852 0.000153045 -8.88526e-06
0.000153045 0.00349953 -2.19489e-06
-8.88526e-06 -2.19489e-06 0.00350555
0.000440476 0.000126773 8.36535e-08
0.000126773 -0.000167331 -2.75973e-07
8.36535e-08 -2.75973e-07 -0.000267825
0.00326065 -0.000120348 -9.04449e-05
-0.000120348 0.00170599 -3.23344e-06
-9.04449e-05 -3.23344e-06 0.00167367
0.00044742 0.000196642 -1.08581e-07
0.000196642 -0.000120897 -4.11168e-07
-1.08581e-07 -4.11168e-07 -0.00023436
0.00165538 0.000190423 4.75642e-05
0.000190423 0.000628803 2.36389e-06
4.75642e-05 2.36389e-06 0.000537341
0.000860601 0.000205477 3.47094e-07
0.000205477 2.83936e-05 -1.66783e-08
3.47094e-07 -1.66783e-08 -0.00015724
0.00491463 -0.0001229 0.000179147
-0.0001229 0.00271897 1.43625e-05
0.000179147 1.43625e-05 0.00271369
0.000558855 1.44299e-05 8.89783e-06
1.44299e-05 1.8666e-05 1.15296e-05
8.89783e-06 1.15296e-05 -3.83241e-05
0.000541628 9.68039e-05 1.61337e-05
9.68039e-05 -0.000126402 9.41566e-06
1.61337e-05 9.41566e-06 -0.000221523
0.000584443 0.000154165 2.10347e-05
0.000154165 -6.55397e-05 1.65387e-05
2.10347e-05 1.65387e-05 -0.000172541
0.00104061 0.000192135 1.45516e-05
0.000192135 -4.18643e-06 5.28522e-06
1.45516e-05 5.28522e-06 -0.000174974
0.00281226 0.000142481 0.000118287
0.000142481 0.00135748 1.57077e-05
0.000118287 1.57077e-05 0.00129011
0.000913797 0.000210209 1.34615e-05
0.000210209 9.49693e-06 6.49488e-06
1.34615e-05 6.49488e-06 -0.000172655
0.000830402 0.000208651 1.1211e-05
0.000208651 7.42276e-05 5.35706e-06
1.1211e-05 5.35706e-06 -0.000118902
0.00101582 0.000285239 3.29516e-06
0.000285239 4.61386e-05 4.22902e-07
3.29516e-06 4.22902e-07 -0.00018927
0.00312245 -0.000120833 8.68927e-05
-0.000120833 0.00161293 3.82398e-06
8.68927e-05 3.82398e-06 0.00161296
0.00364888 -0.000150589 1.58059e-05
-0.000150589 0.00194842 -2.05331e-07
1.58059e-05 -2.05331e-07 0.00193966
0.00612515 4.47796e-05 -0.00028166
4.47796e-05 0.00339484 -1.29739e-05
-0.00028166 -1.29739e-05 0.00341139
0.00590306 6.71144e-05 -0.000279934
6.71144e-05 0.00326674 -8.01477e-06
-0.000279934 -8.01477e-06 0.00328551
0.00578916 8.45024e-05 -2.12529e-08
8.45024e-05 0.0032086 -3.33025e-06
-2.12529e-08 -3.33025e-06 0.00322312
0.0036394 2.42683e-05 -0.000118561
2.42683e-05 0.00188251 -5.62206e-06
-0.000118561 -5.62206e-06 0.00187451
0.00163162 3.63913e-05 5.66482e-05
3.63913e-05 0.000536625 1.32216e-06
5.66482e-05 1.32216e-06 0.00047193
0.00385559 0.000131477 -0.000108568
0.000131477 0.00202011 -5.9766e-06
-0.000108568 -5.9766e-06 0.00200129
0.00167531 8.6221e-05 5.68025e-05
8.6221e-05 0.000561515 2.57161e-06
5.68025e-05 2.57161e-06 0.000489236
0.00575461 0.000130934 0.000275884
0.000130934 0.00319709 6.8921e-06
0.000275884 6.8921e-06 0.00320607
0.000507018 1.0695e-05 1.88063e-05
1.0695e-05 -0.000147574 7.27893e-07
1.88063e-05 7.27893e-07 -0.000224658
0.00276039 3.36634e-05 0.000130221
3.36634e-05 0.00122178 5.4959e-06
0.000130221 5.4959e-06 0.00117116
0.00105116 4.82539e-05 1.2375e-05
4.82539e-05 -2.55679e-05 1.03059e-06
1.2375e-05 1.03059e-06 -0.000154458
0.00268747 0.000111538 0.000135248
0.000111538 0.0011823 1.0531e-05
0.000135248 1.0531e-05 0.00112191
0.00110779 0.000112819 1.22632e-05
0.000112819 -3.55388e-06 2.17287e-06
1.22632e-05 2.17287e-06 -0.000146589
0.00175237 4.28827e-05 -0.000220615
4.28827e-05 0.000710657 2.32124e-06
-0.000220615 2.32124e-06 0.000709032
0.00133122 -8.35128e-06 -5.19538e-05
-8.35128e-06 0.000480867 2.19455e-06
-5.19538e-05 2.19455e-06 0.000439559
0.0014857 2.6605e-05 -2.48907e-05
2.6605e-05 0.000592164 7.14915e-06
-2.48907e-05 7.14915e-06 0.000543531
0.00131941 -9.10445e-05 -6.60283e-05
-9.10445e-05 0.000484498 9.66395e-06
-6.60283e-05 9.66395e-06 0.000437877
0.00184077 -8.15115e-05 -0.000116399
-8.15115e-05 0.00067419 1.04948e-05
-0.000116399 1.04948e-05 0.000606017
0.00180857 -0.000129205 -0.000117391
-0.000129205 0.000667608 1.7652e-05
-0.000117391 1.7652e-05 0.000593237
0.00171241 -0.000163174 -0.00012203
-0.000163174 0.000633057 2.21987e-05
-0.00012203 2.21987e-05 0.000547381
0.00200891 -0.000266212 -3.04045e-05
-0.000266212 0.000633968 1.0579e-05
-3.04045e-05 1.0579e-05 0.0004588
0.00578516 -9.51101e-05 2.19708e-06
-9.51101e-05 0.00320864 -1.72238e-06
2.19708e-06 -1.72238e-06 0.00322163
0.00159836 3.72987e-05 8.64294e-05
3.72987e-05 0.000628104 -3.81878e-06
8.64294e-05 -3.81878e-06 0.000606414
0.0011389 -6.27697e-06 -5.96383e-05
-6.27697e-06 0.000241698 1.46812e-06
-5.96383e-05 1.46812e-06 0.000175439
0.00170218 -6.41582e-05 -3.262e-05
-6.41582e-05 0.000595207 2.31157e-06
-3.262e-05 2.31157e-06 0.000522035
0.00384426 7.82363e-06 0.000210584
7.82363e-06 0.00203801 -9.3308e-06
0.000210584 -9.3308e-06 0.00202683
0.00221014 -0.000140203 -3.75348e-05
-0.000140203 0.000959462 2.21924e-06
-3.75348e-05 2.21924e-06 0.000863394
0.00173026 -0.000123034 -2.86223e-05
-0.000123034 0.000621139 2.25054e-06
-2.86223e-05 2.25054e-06 0.000540527
0.00188636 -0.000168325 -9.62293e-06
-0.000168325 0.000494967 1.69194e-06
-9.62293e-06 1.69194e-06 0.000350455
0.00200749 -0.000288633 -7.22878e-06
-0.000288633 0.000676619 2.15669e-06
-7.22878e-06 2.15669e-06 0.000489242
0.0019035 -0.000233894 -6.29135e-06
-0.000233894 0.000542325 1.62258e-06
-6.29135e-06 1.62258e-06 0.000377988
0.00147637 -0.000319967 4.79854e-07
-0.000319967 0.000144388 -1.62992e-07
4.79854e-07 -1.62992e-07 -7.48386e-05
0.000545326 1.17029e-05 1.94461e-05
1.17029e-05 -0.000127413 -9.68464e-07
1.94461e-05 -9.68464e-07 -0.000201331
0.00155838 6.25352e-06 4.55155e-05
6.25352e-06 0.000506978 -2.64293e-06
4.55155e-05 -2.64293e-06 0.000435229
0.00172049 -4.82168e-05 1.18483e-05
-4.82168e-05 0.000387802 -8.76758e-07
1.18483e-05 -8.76758e-07 0.000270008
0.00172311 -0.000130988 1.18803e-05
-0.000130988 0.000388237 -1.9707e-06
1.18803e-05 -1.9707e-06 0.000252592
0.00175688 -0.00019709 1.43737e-05
-0.00019709 0.000427172 -4.10916e-06
1.43737e-05 -4.10916e-06 0.000273678
0.00179964 -0.000230169 6.11897e-07
-0.000230169 0.000227693 -3.71367e-07
6.11897e-07 -3.71367e-07 6.3082e-05
0.00537813 0.000163994 0.000166577
0.000163994 0.00301277 -1.22134e-05
0.000166577 -1.22134e-05 0.0029948
0.0014799 -0.00029404 5.1484e-06
-0.00029404 0.000102236 -1.19347e-06
5.1484e-06 -1.19347e-06 -9.95894e-05
0.000361817 -0.000150494 2.07976e-05
-0.000150494 -0.000165341 -1.76191e-05
2.07976e-05 -1.76191e-05 -0.000259978
0.000838528 -0.000212935 1.18352e-05
-0.000212935 1.06227e-05 -7.90588e-06
1.18352e-05 -7.90588e-06 -0.00017777
0.0014814 -0.000351167 7.23407e-06
-0.000351167 0.000203418 -2.15972e-06
7.23407e-06 -2.15972e-06 -3.84536e-05
0.00173632 -0.000394448 2.81078e-06
-0.000394448 0.000183068 1.33495e-06
2.81078e-06 1.33495e-06 -3.94854e-05
0.000474849 -9.57046e-05 1.774e-05
-9.57046e-05 -4.98471e-05 -1.43456e-05
1.774e-05 -1.43456e-05 -0.000127686
0.000465796 -7.83921e-05 -6.75056e-07
-7.83921e-05 -1.82766e-05 -4.95932e-06
-6.75056e-07 -4.95932e-06 -0.000199999
0.00629513 0.000227117 -0.000302953
0.000227117 0.00351594 -2.86458e-05
-0.000302953 -2.86458e-05 0.00351914
0.00617991 0.00013636 -0.000272454
0.00013636 0.00343769 -2.52654e-05
-0.000272454 -2.52654e-05 0.00344708
0.000440264 0.000122643 -1.85821e-05
0.000122643 -0.000169237 -1.14899e-05
-1.85821e-05 -1.14899e-05 -0.000269796
0.00520851 -0.000184483 -0.0001581
-0.000184483 0.00291044 -1.13864e-05
-0.0001581 -1.13864e-05 0.00289159
0.00045298 0.000167979 -2.32049e-05
0.000167979 -0.000108262 -1.67606e-05
-2.32049e-05 -1.67606e-05 -0.000204245
0.000427946 0.000182091 -2.10008e-05
0.000182091 -0.000130202 -1.66072e-05
-2.10008e-05 -1.66072e-05 -0.000244966
0.000853767 0.000203167 -1.28439e-05
0.000203167 2.36521e-05 -6.13283e-06
-1.28439e-05 -6.13283e-06 -0.000160676
0.00457397 -0.000147374 1.24985e-05
-0.000147374 0.00251826 -9.59153e-07
1.24985e-05 -9.59153e-07 0.00250869
0.000548255 1.25761e-06 1.19772e-06
1.25761e-06 1.63044e-05 6.75431e-07
1.19772e-06 6.75431e-07 -3.82927e-05
0.0016654 0.000132449 5.80245e-05
0.000132449 0.000564802 4.54679e-06
5.80245e-05 4.54679e-06 0.000482364
0.00162701 0.000188537 5.71381e-05
0.000188537 0.000577477 4.67977e-06
5.71381e-05 4.67977e-06 0.000482649
0.00101077 0.000190864 9.36748e-08
0.000190864 -1.6583e-05 -2.56034e-07
9.36748e-08 -2.56034e-07 -0.000187829
0.000523034 0.000131784 -4.66343e-07
0.000131784 -4.6774e-05 -2.13051e-07
-4.66343e-07 -2.13051e-07 -0.000130158
0.000902957 0.000207481 6.8889e-07
0.000207481 8.42004e-06 9.62414e-08
6.8889e-07 9.62414e-08 -0.000172971
0.000825259 0.000204397 3.22772e-07
0.000204397 6.71126e-05 -7.62997e-07
3.22772e-07 -7.62997e-07 -0.000124381
0.00114721 0.000301263 1.46133e-07
0.000301263 0.00012271 -3.60098e-07
1.46133e-07 -3.60098e-07 -0.000115221
0.000589144 8.24718e-05 1.69226e-05
8.24718e-05 2.41863e-05 1.3808e-05
1.69226e-05 1.3808e-05 -4.96208e-05
0.000582019 -2.96251e-05 3.49957e-06
-2.96251e-05 3.58595e-05 9.48975e-06
3.49957e-06 9.48975e-06 -6.82213e-06
0.00115808 0.000119933 2.74085e-06
0.000119933 0.00040807 5.93467e-06
2.74085e-06 5.93467e-06 0.000243731
0.00108519 0.000169911 1.36874e-05
0.000169911 -2.89714e-06 4.15703e-06
1.36874e-05 4.15703e-06 -0.000165124
0.000975884 0.000207044 1.45279e-05
0.000207044 -3.13759e-06 6.15734e-06
1.45279e-05 6.15734e-06 -0.000181084
0.00160144 0.000314643 4.72071e-06
0.000314643 0.000162577 6.6534e-07
4.72071e-06 6.6534e-07 -4.50785e-05
0.000776676 0.000210121 8.7767e-06
0.000210121 0.000110231 5.3745e-06
8.7767e-06 5.3745e-06 -8.3619e-05
0.001379 0.000338959 4.03865e-06
0.000338959 0.000182128 3.66024e-07
4.03865e-06 3.66024e-07 -5.44028e-05
0.00111567 0.000287962 4.26881e-06
0.000287962 0.00015809 1.08843e-06
4.26881e-06 1.08843e-06 -8.7734e-05
0.00137458 0.00038085 -5.26418e-06
0.00038085 0.000185436 -2.81251e-06
-5.26418e-06 -2.81251e-06 -7.84879e-05
0.00272366 -0.000126185 4.74378e-05
-0.000126185 0.00136307 3.20501e-06
4.74378e-05 3.20501e-06 0.00136149
0.002987 -0.000145801 1.1307e-05
-0.000145801 0.00153413 -8.06344e-07
1.1307e-05 -8.06344e-07 0.00152701
0.00334464 -0.000172337 -6.44352e-05
-0.000172337 0.00176589 -3.45807e-06
-6.44352e-05 -3.45807e-06 0.00175066
0.000476656 -6.37285e-05 1.25916e-05
-6.37285e-05 -3.59048e-05 -1.2691e-05
1.25916e-05 -1.2691e-05 -0.000101261
0.00472301 0.000175617 0.000132938
0.000175617 0.00262636 -1.18718e-05
0.000132938 -1.18718e-05 0.00260466
0.0062631 0.000198412 -0.000304299
0.000198412 0.00349252 -2.43221e-05
-0.000304299 -2.43221e-05 0.0035
0.00594351 8.1934e-05 -0.00027938
8.1934e-05 0.00328909 -1.1128e-05
-0.00027938 -1.1128e-05 0.00330671
0.000522515 9.46285e-05 -1.97653e-05
9.46285e-05 -0.000142045 -5.20241e-06
-1.97653e-05 -5.20241e-06 -0.000228096
0.000505244 4.24619e-05 -1.93258e-05
4.24619e-05 -0.000148217 -2.64881e-06
-1.93258e-05 -2.64881e-06 -0.000228514
0.00573379 -8.74419e-06 -0.000269413
-8.74419e-06 0.00316537 -2.06744e-06
-0.000269413 -2.06744e-06 0.00318525
0.00568955 1.24127e-05 -3.34748e-07
1.24127e-05 0.00313986 -7.6842e-07
-3.34748e-07 -7.6842e-07 0.00315959
0.000490282 7.85239e-07 -1.04139e-07
7.85239e-07 -0.000160487 7.27826e-08
-1.04139e-07 7.27826e-08 -0.000235739
0.00161531 3.63189e-05 5.66537e-05
3.63189e-05 0.000523439 2.34626e-06
5.66537e-05 2.34626e-06 0.000457606
0.00101872 5.18133e-05 -5.83516e-08
5.18133e-05 -4.70568e-05 -1.7744e-07
-5.83516e-08 -1.7744e-07 -0.000176578
0.000483239 8.02066e-05 -3.9745e-07
8.02066e-05 -0.000163669 -3.76486e-07
-3.9745e-07 -3.76486e-07 -0.000254975
0.00104994 0.000113704 -2.11152e-07
0.000113704 -3.83828e-05 -1.44113e-07
-2.11152e-07 -1.44113e-07 -0.000182302
0.000484198 -3.02275e-05 1.93727e-05
-3.02275e-05 -0.000165855 -7.69879e-07
1.93727e-05 -7.69879e-07 -0.000238667
0.00101661 2.0268e-05 1.21373e-05
2.0268e-05 -3.92444e-05 4.60613e-07
1.21373e-05 4.60613e-07 -0.000165096
0.00105609 8.00138e-05 1.19789e-05
8.00138e-05 -2.87981e-05 1.79164e-06
1.19789e-05 1.79164e-06 -0.000163497
0.00160436 8.03678e-05 -5.96386e-07
8.03678e-05 5.66871e-05 -1.06755e-07
-5.96386e-07 -1.06755e-07 -6.21969e-05
0.00111325 0.000142423 1.28859e-05
0.000142423 1.63921e-06 2.99362e-06
1.28859e-05 2.99362e-06 -0.00015098
0.00170999 0.000187132 1.15519e-06
0.000187132 0.000112949 -4.23767e-07
1.15519e-06 -4.23767e-07 -3.23028e-05
0.00570839 -5.58801e-05 -0.000274678
-5.58801e-05 0.00315612 1.76166e-06
-0.000274678 1.76166e-06 0.00317305
0.00128925 -0.000146836 -5.36532e-05
-0.000146836 0.000465697 6.04534e-06
-5.36532e-05 6.04534e-06 0.00042241
-0.000268305 -4.04083e-06 -1.255e-05
-4.04083e-06 -0.000614995 2.05877e-06
-1.255e-05 2.05877e-06 -0.000703931
0.00180129 -5.68696e-05 -0.000115257
-5.68696e-05 0.000649675 7.39846e-06
-0.000115257 7.39846e-06 0.000584401
0.00576726 0.00032624 -3.85152e-06
0.00032624 0.00327372 5.63592e-06
-3.85152e-06 5.63592e-06 0.00320994
0.00285401 -0.000226309 -0.000124651
-0.000226309 0.00134588 2.26943e-05
-0.000124651 2.26943e-05 0.00125565
0.00183954 -0.000105456 -0.000116723
-0.000105456 0.000677853 1.40118e-05
-0.000116723 1.40118e-05 0.000607422
0.0018507 -0.000164083 -2.91539e-05
-0.000164083 0.00046912 5.50586e-06
-2.91539e-05 5.50586e-06 0.000326034
0.0020081 -0.000238011 -2.91032e-05
-0.000238011 0.000606422 8.91821e-06
-2.91032e-05 8.91821e-06 0.000442287
0.00201187 -0.000291412 -2.80426e-05
-0.000291412 0.000676095 1.13284e-05
-2.80426e-05 1.13284e-05 0.000487661
0.00150427 -0.000321142 -4.88999e-06
-0.000321142 0.000162808 1.1483e-06
-4.88999e-06 1.1483e-06 -5.59106e-05
0.000485 6.0371e-06 -4.81742e-08
6.0371e-06 -0.000162217 1.69006e-07
-4.81742e-08 1.69006e-07 -0.000237112
0.00168854 -7.66208e-05 -3.15156e-05
-7.66208e-05 0.000589534 3.64746e-07
-3.15156e-05 3.64746e-07 0.000520011
0.00132715 -4.39255e-05 -8.96685e-06
-4.39255e-05 0.000148588 5.16031e-07
-8.96685e-06 5.16031e-07 2.63316e-05
0.00184827 -0.000132345 -7.12049e-06
-0.000132345 0.000464529 1.10981e-06
-7.12049e-06 1.10981e-06 0.000329107
0.00562627 0.000151698 8.53739e-07
0.000151698 0.00316079 2.3059e-07
8.53739e-07 2.3059e-07 0.00314462
0.00163823 -0.000142674 8.00571e-07
-0.000142674 0.000629503 3.07099e-07
8.00571e-07 3.07099e-07 0.000523698
0.00133293 -0.000246078 1.42636e-06
-0.000246078 0.000316942 -9.90189e-07
1.42636e-06 -9.90189e-07 0.000126241
0.00179878 -0.000198815 -7.32101e-06
-0.000198815 0.00045251 1.76655e-06
-7.32101e-06 1.76655e-06 0.000298654
0.00176465 -0.000231218 -1.58691e-06
-0.000231218 0.000202391 2.51858e-07
-1.58691e-06 2.51858e-07 4.0523e-05
0.00146609 -0.000349295 8.17793e-07
-0.000349295 0.000198374 -1.95714e-07
8.17793e-07 -1.95714e-07 -4.2618e-05
0.00163889 -0.000300912 5.12952e-07
-0.000300912 0.000200749 -1.81509e-07
5.12952e-07 -1.81509e-07 -4.5715e-07
0.00177189 -0.000395391 6.97669e-07
-0.000395391 0.000209333 7.28327e-08
6.97669e-07 7.28327e-08 -1.27757e-05
0.000528948 -0.000101051 1.48515e-08
-0.000101051 -1.8082e-05 5.95592e-07
1.48515e-08 5.95592e-07 -9.96678e-05
0.000648879 -0.000109313 2.12705e-07
-0.000109313 8.63523e-05 1.03869e-08
2.12705e-07 1.03869e-08 -9.46289e-05
0.00099795 -2.13832e-05 1.20888e-05
-2.13832e-05 -4.35078e-05 -8.02114e-07
1.20888e-05 -8.02114e-07 -0.000169532
0.00177035 -8.5652e-05 1.08664e-05
-8.5652e-05 0.000418771 -1.33404e-06
1.08664e-05 -1.33404e-06 0.000294619
0.00171095 -7.92853e-05 -4.99281e-07
-7.92853e-05 0.000140451 2.2204e-07
-4.99281e-07 2.2204e-07 1.76971e-05
0.00164879 -0.000183936 1.2052e-06
-0.000183936 0.00010939 4.77193e-07
1.2052e-06 4.77193e-07 -3.41176e-05
0.00173241 -0.000273945 2.0108e-06
-0.000273945 0.000219121 -1.86247e-07
2.0108e-06 -1.86247e-07 3.92542e-05
0.00190336 -0.000273115 1.70521e-07
-0.000273115 0.00016081 4.43471e-07
1.70521e-07 4.43471e-07 1.77011e-05
0.000459032 -0.000132731 1.92828e-05
-0.000132731 -7.99957e-05 -1.67619e-05
1.92828e-05 -1.67619e-05 -0.000169729
0.00179212 -0.000361846 9.72091e-07
-0.000361846 0.000174792 1.12043e-06
9.72091e-07 1.12043e-06 -1.79691e-05
0.000557697 -0.000194751 7.87186e-06
-0.000194751 -9.60961e-05 -7.62776e-06
7.87186e-06 -7.62776e-06 -0.000286184
0.00125318 -0.000343584 9.67404e-06
-0.000343584 0.00015055 -3.67665e-06
9.67404e-06 -3.67665e-06 -0.000104834
0.00190602 -0.000448153 2.44183e-06
-0.000448153 0.000346714 6.70173e-07
2.44183e-06 6.70173e-07 8.52351e-05
0.0020913 -0.000430487 -2.51503e-06
-0.000430487 0.000348149 3.54387e-06
-2.51503e-06 3.54387e-06 0.000149104
0.000684749 -0.000177083 1.04233e-06
-0.000177083 0.00011128 -5.35061e-06
1.04233e-06 -5.35061e-06 -0.00010325
0.00056933 -6.87704e-05 -3.51878e-07
-6.87704e-05 3.50945e-05 -4.78656e-06
-3.51878e-07 -4.78656e-06 -0.00010614
0.00112298 -0.000235375 -2.22337e-06
-0.000235375 0.0003999 2.20909e-07
-2.22337e-06 2.20909e-07 0.000140961
0.000468753 0.000101875 -1.79604e-05
0.000101875 -0.00016566 -8.79439e-06
-1.79604e-05 -8.79439e-06 -0.000261687
0.00423102 -0.000188727 -0.000106285
-0.000188727 0.00231964 -6.93922e-06
-0.000106285 -6.93922e-06 0.00229959
0.000380254 -1.38205e-05 -3.55185e-06
-1.38205e-05 -7.91289e-05 -1.10055e-05
-3.55185e-06 -1.10055e-05 -0.000134059
0.000423275 0.000152406 -1.98101e-05
0.000152406 -0.000156478 -1.44755e-05
-1.98101e-05 -1.44755e-05 -0.000264121
0.000981923 0.000189883 -1.51563e-05
0.000189883 -2.85173e-05 -5.78315e-06
-1.51563e-05 -5.78315e-06 -0.000200241
0.00045647 0.000124033 -2.17893e-05
0.000124033 -9.00558e-05 -1.53087e-05
-2.17893e-05 -1.53087e-05 -0.000169649
0.000684523 0.000192424 -9.88984e-06
0.000192424 -2.12147e-05 -6.87134e-06
-9.88984e-06 -6.87134e-06 -0.000210586
0.000914862 0.000206441 -1.35715e-05
0.000206441 2.1091e-05 -6.7083e-06
-1.35715e-05 -6.7083e-06 -0.000159767
0.00119893 0.000311145 -4.59398e-06
0.000311145 0.000149593 -1.58477e-06
-4.59398e-06 -1.58477e-06 -9.00709e-05
0.00049985 7.12199e-05 1.78072e-06
7.12199e-05 -2.95431e-05 8.34558e-07
1.78072e-06 8.34558e-07 -0.000100443
0.000481394 -4.86634e-05 3.34053e-08
-4.86634e-05 -1.80383e-05 3.82314e-07
3.34053e-08 3.82314e-07 -6.37027e-05
0.000644313 7.13914e-05 1.44693e-06
7.13914e-05 7.98571e-05 -1.47423e-08
1.44693e-06 -1.47423e-08 -6.72404e-05
0.00104718 0.000169537 -8.47838e-08
0.000169537 -2.20509e-05 -2.67827e-07
-8.47838e-08 -2.67827e-07 -0.000185098
0.000963754 0.000205188 3.5493e-07
0.000205188 -3.8317e-06 -2.04725e-07
3.5493e-07 -2.04725e-07 -0.00018166
0.00158789 0.000314112 3.00956e-09
0.000314112 0.000153047 -6.95854e-08
3.00956e-09 -6.95854e-08 -5.50193e-05
0.000760537 0.000203219 -5.71823e-07
0.000203219 9.69565e-05 -1.69418e-07
-5.71823e-07 -1.69418e-07 -9.62915e-05
0.00140887 0.000339337 -7.54183e-08
0.000339337 0.000196642 -1.3692e-07
-7.54183e-08 -1.3692e-07 -4.02497e-05
0.00107561 0.000283352 -4.80666e-08
0.000283352 0.00013562 -6.07828e-07
-4.80666e-08 -6.07828e-07 -0.000108386
0.00134842 0.000392015 -7.90637e-07
0.000392015 0.000155889 6.69338e-07
-7.90637e-07 6.69338e-07 -0.000110805
0.000544669 -5.14964e-05 -7.84626e-07
-5.14964e-05 1.22774e-05 7.77439e-06
-7.84626e-07 7.77439e-06 -2.31786e-05
0.000997897 0.000150924 5.35444e-06
0.000150924 0.000286714 4.31751e-06
5.35444e-06 4.31751e-06 0.000102542
0.000765717 3.72681e-05 1.39037e-06
3.72681e-05 0.000141712 5.78212e-06
1.39037e-06 5.78212e-06 3.18276e-05
0.000984669 0.00014263 8.96377e-07
0.00014263 0.000330654 2.16486e-07
8.96377e-07 2.16486e-07 0.000103969
0.00166165 0.000279745 2.91312e-06
0.000279745 0.000144057 -5.09812e-07
2.91312e-06 -5.09812e-07 -4.19419e-05
0.00149887 0.000335982 5.0514e-06
0.000335982 0.000170562 9.89025e-07
5.0514e-06 9.89025e-07 -5.55076e-05
0.00189151 0.000389575 1.11468e-06
0.000389575 0.000229312 -5.54654e-07
1.11468e-06 -5.54654e-07 2.1385e-05
0.0011534 0.000264548 5.38727e-06
0.000264548 0.000246046 1.85695e-06
5.38727e-06 1.85695e-06 1.24143e-05
0.00196513 0.000472756 -2.38008e-06
0.000472756 0.000422019 -1.26589e-06
-2.38008e-06 -1.26589e-06 0.000159847
0.00140013 0.000379026 -2.8507e-06
0.000379026 0.000266919 -2.63048e-06
-2.8507e-06 -2.63048e-06 -2.21951e-05
0.00158483 0.000441171 -8.20196e-07
0.000441171 0.000195872 -1.02519e-06
-8.20196e-07 -1.02519e-06 -7.45623e-05
0.00057725 2.55247e-05 2.29465e-06
2.55247e-05 2.69577e-05 2.89052e-06
2.29465e-06 2.89052e-06 -3.22698e-05
0.000497817 -3.69704e-05 6.32141e-07
-3.69704e-05 -3.83347e-05 5.65413e-06
6.32141e-07 5.65413e-06 -6.14934e-05
0.00255016 -0.000115716 3.19034e-05
-0.000115716 0.00124887 3.53804e-06
3.19034e-05 3.53804e-06 0.00125016
0.00266882 -0.000133098 5.11844e-06
-0.000133098 0.001331 -5.7359e-07
5.11844e-06 -5.7359e-07 0.0013274
0.00287919 -0.000155296 -4.0144e-05
-0.000155296 0.00147012 -3.23146e-06
-4.0144e-05 -3.23146e-06 0.00146002
0.000438508 -4.31641e-05 8.98205e-06
-4.31641e-05 -5.5508e-05 -1.09397e-05
8.98205e-06 -1.09397e-05 -0.000110549
0.00408969 0.000148778 0.000114134
0.000148778 0.00222658 -8.88141e-06
0.000114134 -8.88141e-06 0.00221391
0.000512933 -6.61532e-05 -1.19062e-06
-6.61532e-05 -1.71074e-05 2.65224e-07
-1.19062e-06 2.65224e-07 -8.52598e-05
0.00494907 0.000151254 -7.72127e-06
0.000151254 0.00275469 -1.11698e-06
-7.72127e-06 -1.11698e-06 0.00273905
0.000515124 0.000105489 -1.93395e-05
0.000105489 -0.00014213 -7.01181e-06
-1.93395e-05 -7.01181e-06 -0.000235197
0.000523501 3.38849e-05 -1.8449e-05
3.38849e-05 -0.00014221 -3.4077e-06
-1.8449e-05 -3.4077e-06 -0.000223299
0.00101397 0.000114545 -1.21182e-05
0.000114545 -6.13186e-05 -2.41915e-06
-1.21182e-05 -2.41915e-06 -0.000205976
0.000987758 5.39573e-05 -1.21266e-05
5.39573e-05 -6.75413e-05 -1.33094e-06
-1.21266e-05 -1.33094e-06 -0.000197531
0.000544989 -7.53276e-06 -1.95032e-05
-7.53276e-06 -0.000130609 -7.6281e-07
-1.95032e-05 -7.6281e-07 -0.000203937
0.00577572 -9.67612e-05 -0.000281235
-9.67612e-05 0.00320247 4.57442e-06
-0.000281235 4.57442e-06 0.0032168
0.000530591 -1.43445e-06 8.21596e-08
-1.43445e-06 -0.000138283 -5.90311e-07
8.21596e-08 -5.90311e-07 -0.000211149
0.0010006 2.5301e-05 -8.82362e-08
2.5301e-05 -4.98991e-05 -1.68529e-08
-8.82362e-08 -1.68529e-08 -0.000176075
0.00104213 8.20565e-05 -1.56993e-07
8.20565e-05 -3.9636e-05 -1.15311e-08
-1.56993e-07 -1.15311e-08 -0.000174975
0.00160734 7.94388e-05 -6.27744e-08
7.94388e-05 5.98478e-05 2.03791e-07
-6.27744e-08 2.03791e-07 -5.91893e-05
0.00106266 0.000143356 -2.4417e-07
0.000143356 -2.75155e-05 -2.73361e-07
-2.4417e-07 -2.73361e-07 -0.000181262
0.00167839 0.000186017 -1.25231e-07
0.000186017 9.46688e-05 2.19807e-08
-1.25231e-07 2.19807e-08 -5.10168e-05
0.000989586 -2.3444e-06 1.2041e-05
-2.3444e-06 -4.88733e-05 -2.38134e-07
1.2041e-05 -2.38134e-07 -0.00017416
0.0015884 3.88759e-05 1.76117e-08
3.88759e-05 5.51509e-05 -4.1569e-08
1.76117e-08 -4.1569e-08 -5.88545e-05
0.00163717 0.000130361 -3.87275e-07
0.000130361 6.79951e-05 -4.46367e-07
-3.87275e-07 -4.46367e-07 -6.13285e-05
0.00186359 0.000106973 4.94443e-07
0.000106973 5.4938e-05 -1.30614e-07
4.94443e-07 -1.30614e-07 -2.26416e-05
0.00170987 0.000238482 2.1622e-06
0.000238482 0.000130901 -2.92789e-07
2.1622e-06 -2.92789e-07 -3.39505e-05
0.00195721 0.000230649 1.01687e-06
0.000230649 0.000143289 -1.43314e-06
1.01687e-06 -1.43314e-06 2.38375e-05
0.000513086 -1.16762e-06 -1.86321e-05
-1.16762e-06 -0.000142352 9.71962e-07
-1.86321e-05 9.71962e-07 -0.000219323
0.00177853 -3.34181e-05 -0.000113916
-3.34181e-05 0.000636981 4.91977e-06
-0.000113916 4.91977e-06 0.000575653
0.000902066 -3.85654e-05 -1.60394e-05
-3.85654e-05 -0.000109402 1.79911e-06
-1.60394e-05 1.79911e-06 -0.000236431
0.00195271 -0.000132589 -2.64512e-05
-0.000132589 0.000527701 4.01661e-06
-2.64512e-05 4.01661e-06 0.000392664
0.00583357 0.00014614 -0.000197777
0.00014614 0.00329006 1.87535e-05
-0.000197777 1.87535e-05 0.00327146
0.00291214 -0.00020758 -0.000130032
-0.00020758 0.00139669 1.8137e-05
-0.000130032 1.8137e-05 0.00131681
0.00200767 -0.000296123 -2.32773e-05
-0.000296123 0.000729734 1.0158e-05
-2.32773e-05 1.0158e-05 0.000533781
0.0018197 -0.000199031 -2.8493e-05
-0.000199031 0.000464672 7.20384e-06
-2.8493e-05 7.20384e-06 0.000310813
0.00172699 -0.000232234 -4.14688e-06
-0.000232234 0.000175001 3.70283e-07
-4.14688e-06 3.70283e-07 1.58756e-05
0.00179792 -0.000307793 -5.15177e-06
-0.000307793 0.000299858 1.39396e-06
-5.15177e-06 1.39396e-06 9.92622e-05
0.00144556 -0.000347358 -6.14396e-06
-0.000347358 0.000189496 1.36488e-06
-6.14396e-06 1.36488e-06 -5.06415e-05
0.00180554 -0.000396568 -9.74035e-07
-0.000396568 0.000233223 -1.33616e-06
-9.74035e-07 -1.33616e-06 1.14784e-05
0.00049712 -0.000113589 -1.71204e-05
-0.000113589 -3.55006e-05 1.52609e-05
-1.71204e-05 1.52609e-05 -0.000121229
0.000897907 -0.000141406 -7.55484e-07
-0.000141406 0.000235336 4.82377e-06
-7.55484e-07 4.82377e-06 5.2452e-05
0.000937818 -1.59714e-05 -5.69208e-09
-1.59714e-05 -8.19465e-05 -4.83119e-08
-5.69208e-09 -4.83119e-08 -0.000206891
0.00177041 -8.62782e-05 -7.4994e-06
-8.62782e-05 0.00041723 8.73451e-07
-7.4994e-06 8.73451e-07 0.000293234
0.00175054 -7.57103e-05 -8.10943e-07
-7.57103e-05 0.000163007 2.4655e-07
-8.10943e-07 2.4655e-07 4.45083e-05
0.00169653 -0.0001847 -1.43313e-06
-0.0001847 0.000142301 4.7369e-07
-1.43313e-06 4.7369e-07 -4.6339e-06
0.00048473 -0.000148156 5.97671e-07
-0.000148156 -6.62787e-05 2.37667e-07
5.97671e-07 2.37667e-07 -0.000158021
0.000810436 -0.000210808 -3.10923e-07
-0.000210808 5.54574e-05 -1.7846e-07
-3.10923e-07 -1.7846e-07 -0.000136923
0.0011758 -0.000337036 1.61964e-06
-0.000337036 0.000103062 -6.5095e-07
1.61964e-06 -6.5095e-07 -0.000151485
0.00175901 -0.000273525 -3.07726e-06
-0.000273525 0.000235474 8.32136e-07
-3.07726e-06 8.32136e-07 5.38327e-05
0.00194981 -0.000277282 1.6087e-06
-0.000277282 0.000183086 -4.08675e-07
1.6087e-06 -4.08675e-07 4.47315e-05
0.00195465 -0.000456752 -1.13799e-06
-0.000456752 0.000375144 -2.63777e-07
-1.13799e-06 -2.63777e-07 0.00011319
0.0018191 -0.000363353 5.14475e-07
-0.000363353 0.000191488 2.19056e-09
5.14475e-07 2.19056e-09 -1.22541e-06
0.00197603 -0.000425288 8.23275e-07
-0.000425288 0.000271226 6.94616e-07
8.23275e-07 6.94616e-07 7.24004e-05
0.000699162 -0.000177894 1.38019e-07
-0.000177894 0.000114333 -2.60964e-07
1.38019e-07 -2.60964e-07 -9.45299e-05
0.000460691 -0.000147648 -8.59196e-07
-0.000147648 -2.20304e-05 -2.29601e-07
-8.59196e-07 -2.29601e-07 -0.000260732
0.000720219 -8.86515e-05 4.36015e-07
-8.86515e-05 0.000126201 1.18662e-07
4.36015e-07 1.18662e-07 -1.98021e-05
0.00167255 -3.3533e-05 -6.76797e-07
-3.3533e-05 0.000119902 9.38681e-08
-6.76797e-07 9.38681e-08 2.98964e-06
0.00181745 -0.000127435 -1.33692e-06
-0.000127435 0.000201821 1.01988e-06
-1.33692e-06 1.01988e-06 7.53272e-05
0.00182098 -9.81661e-05 1.27007e-06
-9.81661e-05 4.66282e-05 6.03358e-07
1.27007e-06 6.03358e-07 -4.02655e-05
0.00185139 -0.000224449 -1.87764e-06
-0.000224449 9.73734e-05 1.20492e-06
-1.87764e-06 1.20492e-06 -2.18026e-05
0.00173213 -0.000323399 -7.66136e-07
-0.000323399 9.11683e-05 2.02999e-06
-7.66136e-07 2.02999e-06 -7.19046e-05
0.0020493 -0.000300797 1.42452e-06
-0.000300797 0.00020038 -2.20706e-08
1.42452e-06 -2.20706e-08 8.77613e-05
0.000640215 -0.000208016 4.48255e-06
-0.000208016 2.04313e-05 -6.59836e-06
4.48255e-06 -6.59836e-06 -0.000178617
0.00184893 -0.000391912 -2.20527e-06
-0.000391912 0.000145309 1.77703e-06
-2.20527e-06 1.77703e-06 -2.32672e-05
0.0012508 -0.000317022 6.41122e-06
-0.000317022 0.000240653 -5.07372e-06
6.41122e-06 -5.07372e-06 -8.57856e-06
0.00162839 -0.000484867 4.15514e-06
-0.000484867 0.000278929 4.85335e-07
4.15514e-06 4.85335e-07 -2.8723e-05
0.00204324 -0.000489232 1.54514e-06
-0.000489232 0.000370733 3.39713e-06
1.54514e-06 3.39713e-06 0.000116704
0.00214044 -0.000448378 -3.24683e-06
-0.000448378 0.000367619 2.77792e-06
-3.24683e-06 2.77792e-06 0.000183685
0.00063542 -6.0981e-05 -5.90755e-08
-6.0981e-05 8.9617e-05 -4.71482e-06
-5.90755e-08 -4.71482e-06 -3.20711e-05
0.000909582 -0.00023493 -1.21619e-07
-0.00023493 0.0001734 -8.21369e-07
-1.21619e-07 -8.21369e-07 -5.00925e-05
0.000342164 -0.000125804 -1.70038e-06
-0.000125804 -3.84113e-05 1.98405e-06
-1.70038e-06 1.98405e-06 -0.000281417
0.00163637 -0.000309331 -4.58005e-06
-0.000309331 0.000639691 1.66215e-06
-4.58005e-06 1.66215e-06 0.000380291
0.00100621 0.000169312 -1.43501e-05
0.000169312 -4.31629e-05 -4.65271e-06
-1.43501e-05 -4.65271e-06 -0.000207046
0.000396066 -5.81341e-05 3.29457e-06
-5.81341e-05 -6.42587e-05 -9.67145e-06
3.29457e-06 -9.67145e-06 -0.000112076
0.000429045 5.13784e-05 -1.30779e-05
5.13784e-05 -7.06238e-05 -1.32674e-05
-1.30779e-05 -1.32674e-05 -0.000136536
0.000189367 4.09381e-05 -8.59681e-07
4.09381e-05 -0.00019528 -5.55488e-06
-8.59681e-07 -5.55488e-06 -0.000335573
0.000946338 0.00020332 -1.4757e-05
0.00020332 -7.73077e-06 -6.66904e-06
-1.4757e-05 -6.66904e-06 -0.000185485
0.00157656 0.000313614 -4.6492e-06
0.000313614 0.000144967 -6.55797e-07
-4.6492e-06 -6.55797e-07 -6.34861e-05
0.000682186 0.00019234 -6.16855e-06
0.00019234 4.51822e-05 -4.15245e-06
-6.16855e-06 -4.15245e-06 -0.000145516
0.00126678 0.000298692 -6.26717e-06
0.000298692 0.000256129 -2.56589e-06
-6.26717e-06 -2.56589e-06 1.10349e-05
0.00143191 0.000338953 -4.01086e-06
0.000338953 0.00020749 -8.71628e-07
-4.01086e-06 -8.71628e-07 -2.96489e-05
0.00131197 0.000400029 1.38455e-06
0.000400029 0.000124004 2.59797e-06
1.38455e-06 2.59797e-06 -0.000144545
0.000464276 -5.69496e-05 -2.27575e-06
-5.69496e-05 -3.38011e-05 6.96611e-07
-2.27575e-06 6.96611e-07 -7.04719e-05
0.000708341 0.00016111 1.3235e-07
0.00016111 0.000123041 -7.4571e-07
1.3235e-07 -7.4571e-07 -6.58908e-05
0.000605577 1.7263e-05 5.83813e-07
1.7263e-05 4.76861e-05 4.58886e-07
5.83813e-07 4.58886e-07 -5.7808e-05
0.000777127 0.000126444 1.46834e-06
0.000126444 0.000201236 -5.04975e-07
1.46834e-06 -5.04975e-07 -2.092e-05
0.00164859 0.000278738 -5.55535e-07
0.000278738 0.000136444 -6.82105e-07
-5.55535e-07 -6.82105e-07 -4.98284e-05
0.0014867 0.000335802 7.96132e-09
0.000335802 0.000163036 -1.16117e-07
7.96132e-09 -1.16117e-07 -6.36e-05
0.00186488 0.000387074 2.90206e-07
0.000387074 0.000215027 2.2569e-07
2.90206e-07 2.2569e-07 7.36995e-06
0.0010298 0.000256251 1.89375e-06
0.000256251 0.000174209 -1.4052e-07
1.89375e-06 -1.4052e-07 -5.71888e-05
0.00186996 0.000456786 -8.08527e-07
0.000456786 0.000369299 2.68991e-08
-8.08527e-07 2.68991e-08 0.000109268
0.00131821 0.000373266 9.24123e-08
0.000373266 0.000215195 -1.43173e-06
9.24123e-08 -1.43173e-06 -7.41105e-05
0.00167239 0.000442556 -3.68444e-06
0.000442556 0.000250886 1.34112e-06
-3.68444e-06 1.34112e-06 -1.53511e-05
0.000502522 -4.60408e-05 1.37307e-07
-4.60408e-05 -2.62516e-05 6.38837e-06
1.37307e-07 6.38837e-06 -5.38606e-05
0.00067254 1.19507e-05 4.00674e-07
1.19507e-05 8.83734e-05 5.02198e-06
4.00674e-07 5.02198e-06 4.12362e-06
0.000935898 0.000227477 1.01481e-06
0.000227477 0.000202919 6.70001e-07
1.01481e-06 6.70001e-07 -1.54888e-05
0.0012961 0.000111787 -1.5895e-06
0.000111787 0.000533208 2.66702e-06
-1.5895e-06 2.66702e-06 0.00033892
0.00131031 0.000248249 -2.53436e-06
0.000248249 0.000483966 -1.13081e-06
-2.53436e-06 -1.13081e-06 0.000247978
0.00194584 0.000345587 5.132e-07
0.000345587 0.000205098 -2.27434e-06
5.132e-07 -2.27434e-06 2.79078e-05
0.00184357 0.000432842 4.11249e-07
0.000432842 0.00026825 -5.85261e-07
4.11249e-07 -5.85261e-07 2.98057e-05
0.00193295 0.000425466 -9.86514e-07
0.000425466 0.000225768 -7.09553e-07
-9.86514e-07 -7.09553e-07 2.60127e-05
0.000815513 0.00030464 1.8732e-06
0.00030464 -9.6561e-06 1.44229e-06
1.8732e-06 1.44229e-06 -0.000281625
0.0021045 0.000526019 -5.72495e-07
0.000526019 0.000448312 -7.6695e-07
-5.72495e-07 -7.6695e-07 0.000181412
0.00113701 0.000401192 4.6701e-06
0.000401192 4.74108e-05 -2.64869e-06
4.6701e-06 -2.64869e-06 -0.00024568
0.000593439 2.05297e-05 2.41945e-06
2.05297e-05 3.56114e-05 3.1587e-06
2.41945e-06 3.1587e-06 -2.6902e-05
0.00064876 6.48396e-05 -2.15585e-07
6.48396e-05 0.000102493 1.27347e-06
-2.15585e-07 1.27347e-06 -4.44852e-08
0.000599312 3.56942e-05 2.2897e-06
3.56942e-05 4.5609e-05 2.90646e-06
2.2897e-06 2.90646e-06 -1.26435e-05
0.000558939 -3.32679e-06 -5.73454e-07
-3.32679e-06 1.69647e-05 5.2534e-09
-5.73454e-07 5.2534e-09 -4.26997e-05
0.0012502 -4.73776e-05 8.31929e-07
-4.73776e-05 0.000421342 3.18888e-06
8.31929e-07 3.18888e-06 0.000404383
0.000888578 -4.6668e-05 4.76767e-07
-4.6668e-05 0.000202548 -1.50108e-07
4.76767e-07 -1.50108e-07 0.000181256
0.00085463 -5.3196e-05 2.55947e-05
-5.3196e-05 0.000190438 8.2345e-06
2.55947e-05 8.2345e-06 0.000190469
0.00250925 -0.000113159 5.34866e-06
-0.000113159 0.00122268 -5.03166e-07
5.34866e-06 -5.03166e-07 0.00122452
0.00259337 -0.000129286 -3.62696e-05
-0.000129286 0.00128395 -3.29612e-06
-3.62696e-05 -3.29612e-06 0.00128134
0.000371537 -1.67302e-05 4.01586e-06
-1.67302e-05 -8.94269e-05 -8.42024e-06
4.01586e-06 -8.42024e-06 -0.000132597
0.00363532 0.000144344 8.20873e-05
0.000144344 0.00193583 -5.22351e-06
8.20873e-05 -5.22351e-06 0.00192629
0.000478419 -4.35239e-05 -1.04898e-06
-4.35239e-05 -3.30555e-05 2.93537e-07
-1.04898e-06 2.93537e-07 -8.87923e-05
0.00432768 0.00013461 -9.35609e-06
0.00013461 0.00236818 -1.03989e-06
-9.35609e-06 -1.03989e-06 0.00235853
0.000516906 -6.80497e-05 -1.30568e-05
-6.80497e-05 -1.88599e-05 1.29453e-05
-1.30568e-05 1.29453e-05 -8.98822e-05
0.00521485 0.000136127 -0.000177383
0.000136127 0.00291225 1.56479e-05
-0.000177383 1.56479e-05 0.00289984
0.00101522 0.000144201 -1.30474e-05
0.000144201 -5.47001e-05 -3.48411e-06
-1.30474e-05 -3.48411e-06 -0.000209467
0.00100855 8.56374e-05 -1.20211e-05
8.56374e-05 -6.1165e-05 -1.78038e-06
-1.20211e-05 -1.78038e-06 -0.000197428
0.00167405 0.00018204 -2.18876e-06
0.00018204 9.40958e-05 3.71587e-07
-2.18876e-06 3.71587e-07 -5.13894e-05
0.00160854 7.87231e-05 -1.68658e-07
7.87231e-05 6.2232e-05 4.7971e-07
-1.68658e-07 4.7971e-07 -5.69863e-05
0.000990746 2.9616e-05 -1.20978e-05
2.9616e-05 -5.75578e-05 -5.27281e-07
-1.20978e-05 -5.27281e-07 -0.000184066
0.000492635 2.89769e-05 -1.93525e-05
2.89769e-05 -0.000162404 -4.33082e-07
-1.93525e-05 -4.33082e-07 -0.000234359
0.0009891 7.90201e-07 -1.6656e-08
7.90201e-07 -5.04044e-05 -9.55086e-08
-1.6656e-08 -9.55086e-08 -0.000175744
0.00158145 3.96133e-05 -7.02474e-08
3.96133e-05 5.29714e-05 7.44517e-08
-7.02474e-08 7.44517e-08 -6.11578e-05
0.00165668 0.000128279 -5.49349e-08
0.000128279 8.1294e-05 7.42698e-08
-5.49349e-08 7.42698e-08 -4.80028e-05
0.0019043 0.000105833 -1.4371e-07
0.000105833 7.80685e-05 3.87907e-07
-1.4371e-07 3.87907e-07 4.04283e-06
0.00168276 0.000236112 -3.47123e-07
0.000236112 0.000118072 -6.65101e-08
-3.47123e-07 -6.65101e-08 -4.67959e-05
0.00193301 0.00022794 -5.08927e-07
0.00022794 0.000130548 2.46101e-08
-5.08927e-07 2.46101e-08 1.1337e-05
0.00155465 4.6625e-07 2.67388e-07
4.6625e-07 4.08583e-05 -2.24809e-08
2.67388e-07 -2.24809e-08 -7.20878e-05
0.00193516 5.51814e-05 -1.70766e-07
5.51814e-05 0.000102681 3.64473e-08
-1.70766e-07 3.64473e-08 4.06499e-05
0.00193378 0.000168573 1.22106e-06
0.000168573 0.000103623 -1.14695e-06
1.22106e-06 -1.14695e-06 8.12385e-06
0.00186573 0.000107429 6.32414e-06
0.000107429 2.66844e-06 7.34239e-07
6.32414e-06 7.34239e-07 -4.33729e-05
0.00197306 0.000292415 5.19787e-07
0.000292415 0.000186491 -1.55825e-06
5.19787e-07 -1.55825e-06 3.93841e-05
0.00184143 0.000243402 1.7477e-06
0.000243402 1.02522e-05 1.21694e-07
1.7477e-06 1.21694e-07 -8.22584e-05
0.00087867 -1.20148e-05 -1.22382e-05
-1.20148e-05 -0.000119808 6.35762e-07
-1.22382e-05 6.35762e-07 -0.000243755
0.00179214 -8.7826e-05 -2.57279e-05
-8.7826e-05 0.000428925 2.96415e-06
-2.57279e-05 2.96415e-06 0.000305023
0.00181394 -7.03616e-05 -2.98747e-06
-7.03616e-05 0.000199408 -2.34435e-07
-2.98747e-06 -2.34435e-07 8.5462e-05
0.00174696 -0.000185243 -3.18731e-06
-0.000185243 0.000177072 7.29803e-07
-3.18731e-06 7.29803e-07 2.67463e-05
0.000588458 -0.00016396 -2.24396e-05
-0.00016396 -2.2002e-06 1.71285e-05
-2.24396e-05 1.71285e-05 -9.84737e-05
0.000850876 -0.000212807 -1.02227e-05
-0.000212807 8.43756e-05 7.62887e-06
-1.02227e-05 7.62887e-06 -0.000108777
0.00115684 -0.000336129 -4.66817e-06
-0.000336129 9.03374e-05 2.37175e-06
-4.66817e-06 2.37175e-06 -0.00016454
0.00178656 -0.000272982 -6.57482e-06
-0.000272982 0.000252325 1.73426e-06
-6.57482e-06 1.73426e-06 6.89491e-05
0.00199597 -0.000281295 9.22915e-07
-0.000281295 0.000204947 -1.37329e-06
9.22915e-07 -1.37329e-06 7.13827e-05
0.00184736 -0.000364947 -4.1968e-07
-0.000364947 0.000208889 -1.00236e-06
-4.1968e-07 -1.00236e-06 1.6217e-05
0.00198218 -0.000463008 -3.31043e-06
-0.000463008 0.00039223 -1.95375e-06
-3.31043e-06 -1.95375e-06 0.000130301
0.00186175 -0.000418601 3.75129e-06
-0.000418601 0.000195218 -2.6144e-06
3.75129e-06 -2.6144e-06 -2.86444e-06
0.000804861 -0.000172103 -3.22144e-06
-0.000172103 0.00016513 5.85217e-06
-3.22144e-06 5.85217e-06 -3.47469e-05
0.000198182 -0.000118021 1.0756e-06
-0.000118021 -0.00018006 -1.00729e-06
1.0756e-06 -1.00729e-06 -0.000417789
0.000748036 -0.000108889 -8.19059e-07
-0.000108889 0.000142493 4.41017e-06
-8.19059e-07 4.41017e-06 -7.24007e-06
0.00164727 -3.0448e-05 -1.09269e-06
-3.0448e-05 0.00010292 1.70687e-07
-1.09269e-06 1.70687e-07 -1.2584e-05
0.00179765 -0.000135122 -2.89788e-06
-0.000135122 0.000187904 4.54782e-07
-2.89788e-06 4.54782e-07 6.00753e-05
0.00187134 -9.66086e-05 2.56488e-06
-9.66086e-05 7.51629e-05 -3.28593e-07
2.56488e-06 -3.28593e-07 -5.93367e-06
0.0018727 -0.000220532 -2.12498e-06
-0.000220532 0.000111587 5.9206e-07
-2.12498e-06 5.9206e-07 -9.37086e-06
0.000759841 -0.000216536 6.38932e-07
-0.000216536 9.54993e-05 -3.80051e-07
6.38932e-07 -3.80051e-07 -0.00010584
0.00115435 -0.000312677 -1.28988e-06
-0.000312677 0.000172117 -1.13451e-07
-1.28988e-06 -1.13451e-07 -7.72112e-05
0.00156921 -0.000473032 2.01499e-06
-0.000473032 0.00025746 6.94477e-08
2.01499e-06 6.94477e-08 -4.85441e-05
0.00174847 -0.000322799 -1.41559e-06
-0.000322799 0.000104755 8.71356e-07
-1.41559e-06 8.71356e-07 -6.31031e-05
0.00197175 -0.000298425 1.74935e-06
-0.000298425 0.000147229 -5.53911e-07
1.74935e-06 -5.53911e-07 3.81691e-05
0.0019318 -0.000488119 -5.57117e-07
-0.000488119 0.000295817 4.1034e-07
-5.57117e-07 4.1034e-07 3.94953e-05
0.00187453 -0.000392008 4.39058e-08
-0.000392008 0.000163035 4.99964e-07
4.39058e-08 4.99964e-07 -5.48091e-06
0.00211148 -0.000439049 1.93871e-06
-0.000439049 0.000342184 -4.97691e-07
1.93871e-06 -4.97691e-07 0.000163349
0.00109351 -0.000257688 -4.80158e-08
-0.000257688 0.000288935 5.68888e-07
-4.80158e-08 5.68888e-07 5.61212e-05
0.00114321 -0.000271044 -6.59558e-07
-0.000271044 0.000345156 2.13051e-07
-6.59558e-07 2.13051e-07 8.56244e-05
0.00062971 -7.33216e-05 -1.59797e-07
-7.33216e-05 8.31245e-05 6.0701e-08
-1.59797e-07 6.0701e-08 -4.03289e-05
0.000193507 -7.01275e-05 1.2062e-07
-7.01275e-05 -0.000147774 -1.19015e-06
1.2062e-07 -1.19015e-06 -0.000369508
0.00187192 -4.98693e-05 2.91047e-07
-4.98693e-05 7.44884e-05 4.85391e-07
2.91047e-07 4.85391e-07 3.54879e-06
0.00178555 -0.000159848 8.83604e-07
-0.000159848 3.02206e-05 4.66477e-07
8.83604e-07 4.66477e-07 -7.14883e-05
0.00197284 -0.000103374 5.83483e-06
-0.000103374 9.73601e-05 -6.06385e-07
5.83483e-06 -6.06385e-07 4.92972e-05
0.00190833 -0.000244743 -1.3744e-06
-0.000244743 6.143e-05 -8.43011e-08
-1.3744e-06 -8.43011e-08 -1.68586e-05
0.00177562 -0.000346108 -2.97775e-06
-0.000346108 6.37466e-05 1.40138e-06
-2.97775e-06 1.40138e-06 -7.40115e-05
0.0020066 -0.00031163 3.99364e-06
-0.00031163 0.000145138 -1.77262e-06
3.99364e-06 -1.77262e-06 5.26823e-05
0.00115382 -0.000287824 2.91524e-06
-0.000287824 0.00024362 -4.2865e-06
2.91524e-06 -4.2865e-06 8.89156e-06
0.00179524 -0.000404348 -4.39602e-06
-0.000404348 0.000102815 9.92614e-07
-4.39602e-06 9.92614e-07 -4.50346e-05
0.00157966 -0.000457537 2.95249e-06
-0.000457537 0.000386236 -2.31588e-06
2.95249e-06 -2.31588e-06 6.98159e-05
0.00179957 -0.000549061 -3.76392e-07
-0.000549061 0.000328386 1.69032e-06
-3.76392e-07 1.69032e-06 4.63654e-06
0.00188572 -0.000496194 1.65929e-06
-0.000496194 0.000220931 4.14931e-06
1.65929e-06 4.14931e-06 -2.81298e-05
0.00220971 -0.000449145 -1.95336e-06
-0.000449145 0.000384509 -8.49324e-07
-1.95336e-06 -8.49324e-07 0.00020452
0.000504315 -5.99291e-05 -1.99812e-07
-5.99291e-05 1.03225e-05 -4.52906e-06
-1.99812e-07 -4.52906e-06 -9.30654e-05
0.000383872 -8.81875e-05 -3.39607e-06
-8.81875e-05 -1.70062e-05 -6.9456e-08
-3.39607e-06 -6.9456e-08 -0.00021423
0.00129196 -0.000320097 -1.89665e-06
-0.000320097 0.000347143 2.52926e-07
-1.89665e-06 2.52926e-07 9.74659e-05
0.000948851 -0.000197628 -2.97246e-06
-0.000197628 0.000313632 3.98283e-06
-2.97246e-06 3.98283e-06 6.0847e-05
0.00205722 -0.00039105 -9.0913e-06
-0.00039105 0.000876599 3.29403e-06
-9.0913e-06 3.29403e-06 0.000595336
0.00039178 -5.94023e-05 -1.94423e-07
-5.94023e-05 -7.64206e-05 -6.93921e-06
-1.94423e-07 -6.93921e-06 -0.000113235
0.00163256 0.000277378 -3.91877e-06
0.000277378 0.000127473 -7.38698e-07
-3.91877e-06 -7.38698e-07 -5.90226e-05
0.000494017 -5.19958e-06 7.71657e-07
-5.19958e-06 -1.42627e-05 -5.84227e-06
7.71657e-07 -5.84227e-06 -0.000117912
0.000510299 0.000160574 -3.74278e-06
0.000160574 -5.45287e-06 -2.91721e-06
-3.74278e-06 -2.91721e-06 -0.000188492
0.000482664 0.000110883 2.17094e-06
0.000110883 1.93123e-05 6.0128e-07
2.17094e-06 6.0128e-07 -0.000198804
0.00147753 0.000336018 -4.92843e-06
0.000336018 0.000156963 -1.05076e-06
-4.92843e-06 -1.05076e-06 -7.03274e-05
0.00183668 0.000384563 9.30268e-08
0.000384563 0.000199535 1.15245e-06
9.30268e-08 1.15245e-06 -7.87954e-06
0.00101839 0.000262702 -3.75927e-06
0.000262702 0.000168863 -3.37627e-06
-3.75927e-06 -3.37627e-06 -6.5097e-05
0.00146764 0.000395911 2.70948e-07
0.000395911 0.00029734 -9.249e-07
2.70948e-07 -9.249e-07 1.43762e-06
0.00177096 0.000440921 1.81821e-07
0.000440921 0.000313274 1.56254e-06
1.81821e-07 1.56254e-06 5.5327e-05
0.00177663 0.000448879 6.01341e-07
0.000448879 0.000315659 6.98379e-06
6.01341e-07 6.98379e-06 5.19746e-05
0.00049747 -4.12369e-05 1.42379e-07
-4.12369e-05 -3.09817e-05 5.02432e-08
1.42379e-07 5.02432e-08 -5.74293e-05
0.000606063 1.57364e-06 -6.07426e-07
1.57364e-06 5.19453e-05 4.94604e-07
-6.07426e-07 4.94604e-07 -3.2238e-05
0.00101339 0.00023934 4.58542e-07
0.00023934 0.000253973 8.91308e-07
4.58542e-07 8.91308e-07 3.27857e-05
0.000685307 5.84145e-05 -8.41763e-07
5.84145e-05 0.000152303 -2.71159e-07
-8.41763e-07 -2.71159e-07 -2.86919e-05
0.000656201 0.000173267 7.71001e-07
0.000173267 6.54184e-05 -8.52275e-08
7.71001e-07 -8.52275e-08 -0.000148947
0.00191828 0.000344955 -9.13151e-07
0.000344955 0.000187442 -1.32291e-06
-9.13151e-07 -1.32291e-06 1.00117e-05
0.001805 0.000430168 5.60974e-07
0.000430168 0.000244309 1.57133e-07
5.60974e-07 1.57133e-07 6.07805e-06
0.00186899 0.000422483 1.63989e-06
0.000422483 0.000189561 2.68097e-07
1.63989e-06 2.68097e-07 -1.04485e-05
0.00131756 0.000353259 1.36091e-06
0.000353259 0.000304384 7.22582e-07
1.36091e-06 7.22582e-07 2.29185e-05
0.00195621 0.000510639 1.66714e-06
0.000510639 0.000343001 8.79256e-08
1.66714e-06 8.79256e-08 7.72495e-05
0.00160749 0.0004457 -2.25451e-06
0.0004457 0.000332475 -2.25323e-07
-2.25451e-06 -2.25323e-07 3.24195e-05
0.000677621 1.47668e-05 1.14911e-06
1.47668e-05 8.81574e-05 3.73918e-06
1.14911e-06 3.73918e-06 1.82621e-05
0.00111375 0.0001163 4.30929e-07
0.0001163 0.000400901 2.74042e-06
4.30929e-07 2.74042e-06 0.000258814
0.000839349 0.000265717 -2.5051e-06
0.000265717 7.4229e-05 -1.53895e-06
-2.5051e-06 -1.53895e-06 -0.000155989
0.00152176 0.00014237 -1.72019e-06
0.00014237 0.000672843 8.27875e-07
-1.72019e-06 8.27875e-07 0.000452248
0.00133038 0.00021487 -9.28287e-06
0.00021487 0.000416782 -5.79666e-06
-9.28287e-06 -5.79666e-06 0.00022107
0.00191565 0.000358433 -3.65963e-06
0.000358433 0.000161259 -2.80894e-06
-3.65963e-06 -2.80894e-06 1.49561e-06
0.0019268 0.000481848 -2.66173e-07
0.000481848 0.000272347 -5.49457e-08
-2.66173e-07 -5.49457e-08 3.43481e-05
0.00170177 0.000454756 4.2729e-06
0.000454756 5.41268e-05 -3.24778e-07
4.2729e-06 -3.24778e-07 -0.000146203
0.000538064 0.000321477 8.33793e-07
0.000321477 -0.000143418 -1.40525e-06
8.33793e-07 -1.40525e-06 -0.000441838
0.00142776 0.000468938 8.03672e-06
0.000468938 0.000129978 -8.15747e-07
8.03672e-06 -8.15747e-07 -0.000151862
0.000586489 1.35533e-05 -2.07116e-07
1.35533e-05 2.96927e-05 8.58607e-08
-2.07116e-07 8.58607e-08 -3.18256e-05
0.000486494 4.20459e-05 7.44096e-07
4.20459e-05 -8.98511e-06 1.91534e-06
7.44096e-07 1.91534e-06 -0.000105472
0.000481744 3.64668e-05 -6.28069e-07
3.64668e-05 -1.14691e-05 -2.00051e-07
-6.28069e-07 -2.00051e-07 -0.000103899
0.000935762 0.000121739 -6.52809e-07
0.000121739 0.000280388 -1.33424e-06
-6.52809e-07 -1.33424e-06 0.000162775
0.000665882 9.35266e-05 1.86049e-06
9.35266e-05 0.000114835 1.81917e-06
1.86049e-06 1.81917e-06 1.42931e-05
0.00056136 4.70963e-05 2.57278e-06
4.70963e-05 2.88238e-05 2.95536e-06
2.57278e-06 2.95536e-06 -3.007e-05
0.000558743 3.43552e-06 -6.26523e-07
3.43552e-06 2.11971e-05 -1.37181e-08
-6.26523e-07 -1.37181e-08 -3.69593e-05
0.00123855 -3.29642e-05 8.07819e-07
-3.29642e-05 0.000411877 2.89577e-06
8.07819e-07 2.89577e-06 0.000397333
0.000571369 4.76199e-06 -1.44249e-06
4.76199e-06 2.11665e-05 -3.01074e-06
-1.44249e-06 -3.01074e-06 -3.62593e-05
0.00129876 -4.34297e-05 -6.44204e-06
-4.34297e-05 0.000450805 -1.46889e-06
-6.44204e-06 -1.46889e-06 0.00043468
0.000831541 -4.03296e-05 2.68477e-05
-4.03296e-05 0.000168311 8.16178e-06
2.68477e-05 8.16178e-06 0.000172099
0.00131945 -5.28354e-05 -1.06958e-05
-5.28354e-05 0.000468603 -4.50785e-06
-1.06958e-05 -4.50785e-06 0.000449884
0.00162631 -7.36801e-05 2.47498e-05
-7.36801e-05 0.000668093 1.70126e-06
2.47498e-05 1.70126e-06 0.000671086
0.00245647 -0.000109456 -3.21237e-05
-0.000109456 0.00118883 -3.78067e-06
-3.21237e-05 -3.78067e-06 0.0011915
0.00035452 7.68728e-05 -4.79757e-06
7.68728e-05 -8.11772e-05 -6.86209e-06
-4.79757e-06 -6.86209e-06 -0.000124794
0.000473347 -5.12538e-06 4.40845e-07
-5.12538e-06 -2.36713e-05 5.3864e-07
4.40845e-07 5.3864e-07 -7.10695e-05
0.00306041 0.000153852 2.13049e-05
0.000153852 0.00157956 -4.84694e-06
2.13049e-05 -4.84694e-06 0.00156787
0.0037707 0.000117941 -1.04051e-05
0.000117941 0.00201649 -7.72266e-07
-1.04051e-05 -7.72266e-07 0.00201304
0.000614905 -4.5103e-05 -9.34673e-06
-4.5103e-05 4.73359e-05 1.1006e-05
-9.34673e-06 1.1006e-05 -9.31779e-06
0.00455837 0.0001138 -0.000153672
0.0001138 0.00250324 1.27644e-05
-0.000153672 1.27644e-05 0.00249806
0.00165651 0.000234179 -2.95584e-06
0.000234179 0.000104972 1.93996e-07
-2.95584e-06 1.93996e-07 -6.0009e-05
0.00164688 0.00012868 -8.03196e-07
0.00012868 7.54717e-05 5.18178e-07
-8.03196e-07 5.18178e-07 -5.43821e-05
0.00189985 0.000226269 -1.49778e-06
0.000226269 0.000111553 1.60369e-06
-1.49778e-06 1.60369e-06 -7.67031e-06
0.00194154 0.000104541 -8.11371e-07
0.000104541 9.80192e-05 1.22967e-06
-8.11371e-07 1.22967e-06 2.76016e-05
0.00157838 4.17598e-05 -1.25113e-07
4.17598e-05 5.42499e-05 1.80787e-07
-1.25113e-07 1.80787e-07 -6.00032e-05
0.000996668 5.51204e-06 -1.19217e-05
5.51204e-06 -4.67192e-05 -6.37094e-08
-1.19217e-05 -6.37094e-08 -0.00017202
0.00157045 4.02776e-06 5.57719e-08
4.02776e-06 5.32086e-05 1.14629e-07
5.57719e-08 1.14629e-07 -5.9723e-05
0.00191289 4.60192e-05 -1.11426e-06
4.60192e-05 8.93502e-05 -1.86073e-08
-1.11426e-06 -1.86073e-08 2.73159e-05
0.00191026 0.000165655 -5.32132e-07
0.000165655 9.16653e-05 5.64026e-08
-5.32132e-07 5.64026e-08 -3.36478e-06
0.00190177 0.000106794 1.47186e-06
0.000106794 2.00114e-05 2.21204e-07
1.47186e-06 2.21204e-07 -2.10713e-05
0.00193897 0.000292724 -3.55626e-07
0.000292724 0.000159845 -1.54952e-07
-3.55626e-07 -1.54952e-07 1.2173e-05
0.00187962 0.00024025 -2.47612e-07
0.00024025 3.29185e-05 6.64582e-07
-2.47612e-07 6.64582e-07 -5.45018e-05
0.00194452 -2.6247e-06 4.82755e-07
-2.6247e-06 0.000117152 1.4805e-07
4.82755e-07 1.4805e-07 5.48842e-05
0.00188198 4.96216e-05 6.30306e-06
4.96216e-05 1.68706e-05 1.33288e-07
6.30306e-06 1.33288e-07 -1.67888e-05
0.00185479 0.000168189 2.53678e-06
0.000168189 -5.30499e-06 4.46977e-07
2.53678e-06 4.46977e-07 -6.2106e-05
0.00196185 0.00010718 5.49829e-06
0.00010718 3.31837e-05 6.51722e-07
5.49829e-06 6.51722e-07 1.2869e-05
0.00185598 0.000287967 9.26216e-07
0.000287967 7.17883e-05 -1.76135e-06
9.26216e-07 -1.76135e-06 -4.95124e-05
0.00200202 0.000246147 3.99545e-06
0.000246147 6.63158e-05 1.23668e-06
3.99545e-06 1.23668e-06 -5.70421e-08
0.00161356 -2.74443e-05 -1.55434e-06
-2.74443e-05 8.19828e-05 -3.04767e-08
-1.55434e-06 -3.04767e-08 -3.21007e-05
0.00179875 -0.000140934 -4.41648e-06
-0.000140934 0.000186515 2.94406e-07
-4.41648e-06 2.94406e-07 5.7662e-05
0.00191715 -9.6285e-05 1.29113e-06
-9.6285e-05 0.000101602 -1.52751e-06
1.29113e-06 -1.52751e-06 2.61667e-05
0.0018848 -0.000217031 -1.21913e-06
-0.000217031 0.000120741 -3.12524e-08
-1.21913e-06 -3.12524e-08 -2.10895e-06
0.000898684 -0.000233586 -7.12477e-06
-0.000233586 0.000182481 7.32401e-06
-7.12477e-06 7.32401e-06 -2.25719e-05
0.00109662 -0.000311737 -6.7104e-06
-0.000311737 0.000128676 4.13187e-06
-6.7104e-06 4.13187e-06 -0.000121286
0.00141992 -0.000451943 8.76946e-07
-0.000451943 0.000181745 -1.19539e-07
8.76946e-07 -1.19539e-07 -0.000121391
0.00176349 -0.000322233 -9.77265e-07
-0.000322233 0.000117396 3.26422e-08
-9.77265e-07 3.26422e-08 -5.52718e-05
0.00189983 -0.000295938 1.24115e-06
-0.000295938 9.8216e-05 -8.97871e-07
1.24115e-06 -8.97871e-07 -7.17404e-06
0.00189142 -0.000391528 2.33169e-06
-0.000391528 0.000175755 -7.11059e-07
2.33169e-06 -7.11059e-07 7.34755e-06
0.0018549 -0.000491479 -5.00661e-07
-0.000491479 0.000240966 -2.18399e-06
-5.00661e-07 -2.18399e-06 -1.8686e-05
0.00207443 -0.000431269 6.84318e-06
-0.000431269 0.000315098 -5.36405e-06
6.84318e-06 -5.36405e-06 0.000140698
0.000862615 -0.000237516 2.5373e-07
-0.000237516 0.000150896 1.49343e-06
2.5373e-07 1.49343e-06 -8.13545e-05
0.000123292 -0.000160336 1.98551e-06
-0.000160336 -0.000285978 7.68823e-07
1.98551e-06 7.68823e-07 -0.000528513
0.000745335 -8.54309e-05 -7.7676e-07
-8.54309e-05 0.000149932 3.88486e-06
-7.7676e-07 3.88486e-06 2.45378e-05
0.000107617 -4.05726e-05 3.00815e-06
-4.05726e-05 -0.000213397 -3.68931e-06
3.00815e-06 -3.68931e-06 -0.000416983
0.00185917 -4.94087e-05 1.03798e-07
-4.94087e-05 6.70221e-05 3.08477e-07
1.03798e-07 3.08477e-07 -4.14972e-06
0.00184349 -0.000161235 1.71368e-06
-0.000161235 7.04202e-05 -6.12945e-07
1.71368e-06 -6.12945e-07 -3.27903e-05
0.0019472 -0.000103129 1.88559e-06
-0.000103129 8.11137e-05 -5.86096e-07
1.88559e-06 -5.86096e-07 3.42731e-05
0.00187968 -0.000241405 -1.97177e-06
-0.000241405 5.0333e-05 5.04446e-07
-1.97177e-06 5.04446e-07 -3.15876e-05
0.00101667 -0.00026906 -1.50223e-06
-0.00026906 0.000159516 2.57931e-07
-1.50223e-06 2.57931e-07 -7.14178e-05
0.00127887 -0.000419196 1.74257e-06
-0.000419196 0.000212191 -1.01814e-06
1.74257e-06 -1.01814e-06 -9.55613e-05
0.00172633 -0.000549244 -9.56866e-08
-0.000549244 0.000279154 3.68152e-07
-9.56866e-08 3.68152e-07 -4.81007e-05
0.00178483 -0.000344215 -1.48319e-06
-0.000344215 7.88474e-05 8.05357e-07
-1.48319e-06 8.05357e-07 -6.24568e-05
0.00194495 -0.000310828 1.36453e-06
-0.000310828 0.000110242 -8.17791e-07
1.36453e-06 -8.17791e-07 1.92982e-05
0.00186825 -0.000498757 -6.99179e-08
-0.000498757 0.000224774 5.17678e-07
-6.99179e-08 5.17678e-07 -2.64483e-05
0.00179042 -0.000405698 -8.54348e-07
-0.000405698 9.03756e-05 1.11842e-06
-8.54348e-07 1.11842e-06 -5.82336e-05
0.00206106 -0.000435568 3.90265e-06
-0.000435568 0.000288545 -5.64706e-06
3.90265e-06 -5.64706e-06 0.000115164
0.00113275 -0.00030364 2.10259e-07
-0.00030364 0.000246457 9.85243e-07
2.10259e-07 9.85243e-07 1.90949e-07
0.0014318 -0.00032359 5.20417e-06
-0.00032359 0.000483954 1.08713e-06
5.20417e-06 1.08713e-06 0.000219443
0.00086346 -0.000170571 -1.61665e-07
-0.000170571 0.000258652 -7.1674e-09
-1.61665e-07 -7.1674e-09 5.24717e-06
0.000392829 -3.37342e-05 -1.9924e-06
-3.37342e-05 -5.92796e-05 5.61783e-07
-1.9924e-06 5.61783e-07 -0.000163114
0.000199164 -3.95503e-05 -4.09674e-07
-3.95503e-05 -0.000137153 -6.93239e-07
-4.09674e-07 -6.93239e-07 -0.000322418
0.0019119 -5.67836e-05 5.41893e-06
-5.67836e-05 3.78399e-05 -1.85699e-07
5.41893e-06 -1.85699e-07 7.88452e-06
0.00190648 -0.00015135 4.67496e-06
-0.00015135 4.5658e-05 -1.12849e-06
4.67496e-06 -1.12849e-06 -2.66907e-06
0.00196187 -0.000287706 2.38766e-06
-0.000287706 4.50494e-05 -1.36785e-06
2.38766e-06 -1.36785e-06 -1.35876e-05
0.00186328 -0.000351588 3.95515e-07
-0.000351588 8.21305e-05 -1.77659e-06
3.95515e-07 -1.77659e-06 -2.2578e-05
0.00166792 -0.000390116 -7.16796e-07
-0.000390116 0.000531711 -3.17436e-06
-7.16796e-07 -3.17436e-06 0.000250039
0.00212797 -0.000487924 -7.85227e-07
-0.000487924 0.000217478 -2.29593e-06
-7.85227e-07 -2.29593e-06 5.67952e-05
0.00129735 -0.000503917 2.46517e-07
-0.000503917 0.000195732 -1.33404e-07
2.46517e-07 -1.33404e-07 -0.000153774
0.00188189 -0.00061033 1.52549e-06
-0.00061033 0.000330368 2.95028e-07
1.52549e-06 2.95028e-07 -1.21954e-05
0.0018592 -0.000484865 -2.0945e-06
-0.000484865 0.000203675 2.72505e-06
-2.0945e-06 2.72505e-06 -3.92574e-05
7.88214e-05 -2.03558e-06 -1.09442e-06
-2.03558e-06 -0.000249617 -4.48734e-06
-1.09442e-06 -4.48734e-06 -0.000333443
0.00070262 -8.88786e-05 -1.40309e-06
-8.88786e-05 0.00018181 6.28081e-07
-1.40309e-06 6.28081e-07 1.45165e-05
0.00105159 -0.000125682 -2.39223e-06
-0.000125682 0.000384108 -4.21305e-07
-2.39223e-06 -4.21305e-07 0.00016798
0.00213968 -0.000431394 -9.66922e-06
-0.000431394 0.00084207 6.36099e-07
-9.66922e-06 6.36099e-07 0.00055884
0.000573044 -0.000162304 2.28291e-06
-0.000162304 5.11337e-05 5.52393e-06
2.28291e-06 5.52393e-06 -0.000217181
0.00117712 -0.000329355 -2.89325e-06
-0.000329355 0.000288433 2.14325e-06
-2.89325e-06 2.14325e-06 1.1918e-05
0.000489573 -4.4442e-05 -6.36947e-07
-4.4442e-05 -3.55143e-05 -5.84184e-06
-6.36947e-07 -5.84184e-06 -6.21697e-05
0.000555923 -3.05647e-06 -5.90421e-07
-3.05647e-06 2.5351e-05 -4.60002e-06
-5.90421e-07 -4.60002e-06 -5.8881e-05
0.00189088 0.000344332 -2.16071e-06
0.000344332 0.000169875 -3.1035e-07
-2.16071e-06 -3.1035e-07 -7.79549e-06
-2.52667e-05 -3.72307e-05 1.95673e-06
-3.72307e-05 -0.000279463 -2.40472e-06
1.95673e-06 -2.40472e-06 -0.000452233
0.000909055 0.000229945 -1.38965e-06
0.000229945 0.000195997 -7.36608e-08
-1.38965e-06 -7.36608e-08 -2.17876e-05
6.31701e-05 0.000104517 3.41755e-06
0.000104517 -0.000312723 5.6857e-07
3.41755e-06 5.6857e-07 -0.000508694
0.00176718 0.000427176 5.50296e-07
0.000427176 0.000221816 8.89703e-07
5.50296e-07 8.89703e-07 -1.60866e-05
0.0018023 0.000418872 1.51908e-06
0.000418872 0.000153103 7.00641e-07
1.51908e-06 7.00641e-07 -4.70102e-05
0.00165673 0.000383281 1.11314e-06
0.000383281 0.00052379 6.26464e-07
1.11314e-06 6.26464e-07 0.000235629
0.00214124 0.000493523 -1.79294e-06
0.000493523 0.000655687 6.25919e-07
-1.79294e-06 6.25919e-07 0.00035084
0.00180007 0.000494658 -6.03625e-07
0.000494658 0.000232987 1.35224e-06
-6.03625e-07 1.35224e-06 -3.15478e-05
0.000587281 1.5364e-05 -4.59524e-07
1.5364e-05 3.44155e-05 4.76748e-07
-4.59524e-07 4.76748e-07 -3.50294e-05
0.000726598 3.77889e-05 -8.70735e-07
3.77889e-05 0.000161108 3.19459e-07
-8.70735e-07 3.19459e-07 3.00635e-05
0.00115064 0.000298431 -6.73071e-07
0.000298431 0.000265246 -2.604e-07
-6.73071e-07 -2.604e-07 2.70935e-05
0.000879199 8.93318e-05 4.70892e-07
8.93318e-05 0.000272346 6.28086e-07
4.70892e-07 6.28086e-07 6.46272e-05
0.000790519 0.000206721 3.86277e-06
0.000206721 0.000107985 1.2308e-06
3.86277e-06 1.2308e-06 -9.14231e-05
0.00187578 0.000359132 -2.26144e-06
0.000359132 0.000138883 -1.66499e-06
-2.26144e-06 -1.66499e-06 -2.18311e-05
0.00190685 0.000478977 1.74053e-06
0.000478977 0.000260443 5.68163e-07
1.74053e-06 5.68163e-07 2.28085e-05
0.0017914 0.000454778 3.99475e-07
0.000454778 0.00010918 -1.54716e-07
3.99475e-07 -1.54716e-07 -8.97211e-05
0.00106699 0.000388147 2.51577e-06
0.000388147 0.000158775 2.7821e-06
2.51577e-06 2.7821e-06 -0.000148991
0.00167325 0.000494331 -2.72209e-06
0.000494331 0.00028995 -1.80639e-06
-2.72209e-06 -1.80639e-06 1.07796e-06
0.000837883 6.14631e-05 -9.0808e-08
6.14631e-05 0.000220339 2.31158e-06
-9.0808e-08 2.31158e-06 0.000107661
0.000144345 4.16057e-06 -2.25871e-06
4.16057e-06 -0.000167517 1.64676e-06
-2.25871e-06 1.64676e-06 -0.000327419
0.00100943 0.0003105 -5.33544e-06
0.0003105 0.000139387 -3.19283e-06
-5.33544e-06 -3.19283e-06 -0.000107056
0.000552119 0.000177674 -8.0188e-06
0.000177674 8.13387e-05 -3.5981e-06
-8.0188e-06 -3.5981e-06 -0.000139166
0.000878434 0.000266763 -3.86578e-06
0.000266763 0.000107533 -3.65483e-06
-3.86578e-06 -3.65483e-06 -9.62685e-05
0.00181423 0.000388073 -2.31911e-07
0.000388073 3.34845e-05 -1.48263e-06
-2.31911e-07 -1.48263e-06 -0.00010853
0.00202037 0.000529628 3.99223e-06
0.000529628 0.000307008 -1.69707e-06
3.99223e-06 -1.69707e-06 5.14444e-05
0.00170763 0.000473731 3.07998e-06
0.000473731 4.64756e-05 5.36404e-07
3.07998e-06 5.36404e-07 -0.000162493
0.00101166 0.000397467 4.27852e-06
0.000397467 8.90459e-05 3.90814e-06
4.27852e-06 3.90814e-06 -0.000227436
0.00181936 0.00054566 -1.75284e-06
0.00054566 0.000383031 -8.50362e-07
-1.75284e-06 -8.50362e-07 7.77852e-05
0.000560097 4.50743e-06 -1.56672e-06
4.50743e-06 1.30576e-05 -3.24318e-06
-1.56672e-06 -3.24318e-06 -4.80256e-05
0.000565072 4.76601e-05 1.20817e-06
4.76601e-05 4.08958e-05 4.16546e-07
1.20817e-06 4.16546e-07 -5.65219e-05
0.000437885 3.35243e-05 -7.00336e-07
3.35243e-05 -4.39356e-05 7.41086e-07
-7.00336e-07 7.41086e-07 -0.000140348
0.000336582 -2.18109e-05 -3.55194e-07
-2.18109e-05 -9.62203e-05 -1.80045e-06
-3.55194e-07 -1.80045e-06 -0.00018938
0.000620912 5.12226e-05 -3.1512e-07
5.12226e-05 8.68604e-05 1.68263e-08
-3.1512e-07 1.68263e-08 -1.18063e-05
0.000642005 7.29142e-05 -7.06347e-07
7.29142e-05 8.91525e-05 -2.07606e-07
-7.06347e-07 -2.07606e-07 -1.49428e-05
0.000762897 0.000108139 -2.73125e-06
0.000108139 0.000173982 -3.68438e-06
-2.73125e-06 -3.68438e-06 6.42898e-05
0.000385317 1.26976e-06 3.88124e-07
1.26976e-06 -4.80327e-05 -3.8985e-07
3.88124e-07 -3.8985e-07 -0.000164726
0.000674307 8.16288e-05 9.20739e-07
8.16288e-05 0.000114528 2.22116e-06
9.20739e-07 2.22116e-06 2.09677e-05
0.000588793 5.54651e-05 3.08418e-06
5.54651e-05 4.96181e-05 2.94329e-06
3.08418e-06 2.94329e-06 -1.1451e-05
0.000558268 1.2862e-05 -1.90516e-06
1.2862e-05 2.55594e-05 -7.25052e-09
-1.90516e-06 -7.25052e-09 -3.25726e-05
0.00123324 -1.92738e-05 1.08982e-06
-1.92738e-05 0.000409861 2.73388e-06
1.08982e-06 2.73388e-06 0.000396404
0.000497493 -5.4754e-05 9.9823e-07
-5.4754e-05 -1.10812e-05 -2.95697e-06
9.9823e-07 -2.95697e-06 -7.21104e-05
0.00128957 -2.90295e-05 -5.64604e-06
-2.90295e-05 0.000442827 -1.51676e-06
-5.64604e-06 -1.51676e-06 0.000428865
0.000805959 -3.10411e-05 2.31447e-05
-3.10411e-05 0.000148507 8.45916e-06
2.31447e-05 8.45916e-06 0.000154161
0.00133454 -4.06674e-05 -9.70048e-06
-4.06674e-05 0.000472407 -6.08721e-06
-9.70048e-06 -6.08721e-06 0.000456728
0.000780783 -4.24285e-05 8.62244e-06
-4.24285e-05 0.000136662 3.15999e-06
8.62244e-06 3.15999e-06 0.000139328
0.00236703 -0.000102707 -3.37085e-06
-0.000102707 0.00112589 -2.32467e-06
-3.37085e-06 -2.32467e-06 0.00112977
0.000405076 5.32289e-05 -2.22535e-06
5.32289e-05 -7.05443e-05 -4.33208e-06
-2.22535e-06 -4.33208e-06 -9.76856e-05
0.000445204 3.0089e-05 -2.58258e-06
3.0089e-05 -3.87361e-05 2.62259e-08
-2.58258e-06 2.62259e-08 -7.56584e-05
0.00264183 0.000123257 1.90562e-05
0.000123257 0.00131475 -4.21269e-06
1.90562e-05 -4.21269e-06 0.00131166
0.00059765 -2.96604e-05 -7.0853e-06
-2.96604e-05 4.48474e-05 8.87721e-06
-7.0853e-06 8.87721e-06 -1.69468e-07
0.00324616 0.00013031 -2.92842e-05
0.00013031 0.00168904 -8.09418e-07
-2.92842e-05 -8.09418e-07 0.00168345
0.00391589 9.65449e-05 -0.000130546
9.65449e-05 0.00210133 9.90721e-06
-0.000130546 9.90721e-06 0.00210243
0.00190394 0.00029282 -2.34003e-06
0.00029282 0.00013298 1.04149e-06
-2.34003e-06 1.04149e-06 -1.52097e-05
0.00190324 0.000162018 -2.98787e-07
0.000162018 9.14559e-05 1.63795e-06
-2.98787e-07 1.63795e-06 -2.88309e-06
0.00192035 0.000236951 -7.68828e-07
0.000236951 5.69097e-05 1.89706e-06
-7.68828e-07 1.89706e-06 -2.52967e-05
0.00193988 0.000106322 -3.19726e-06
0.000106322 3.90794e-05 -3.04679e-07
-3.19726e-06 -3.04679e-07 2.96256e-06
0.00188601 3.88197e-05 -2.25643e-06
3.88197e-05 7.32486e-05 2.30461e-07
-2.25643e-06 2.30461e-07 1.09337e-05
0.00159053 6.85101e-06 8.17608e-09
6.85101e-06 6.67204e-05 2.4631e-07
8.17608e-09 2.4631e-07 -4.6132e-05
0.0018836 -2.12823e-06 -9.32968e-07
-2.12823e-06 7.99935e-05 6.86233e-08
-9.32968e-07 6.86233e-08 1.54369e-05
0.00188745 4.80607e-05 1.52959e-06
4.80607e-05 2.39349e-05 -9.81599e-09
1.52959e-06 -9.81599e-09 -1.19234e-05
0.00192862 0.000169132 -1.73874e-07
0.000169132 4.31801e-05 9.31405e-08
-1.73874e-07 9.31405e-08 -1.53623e-05
0.00194575 0.000108469 9.99973e-07
0.000108469 1.96726e-05 2.60507e-07
9.99973e-07 2.60507e-07 2.19649e-06
0.00187828 0.000286505 -8.01899e-07
0.000286505 9.36585e-05 -3.87233e-07
-8.01899e-07 -3.87233e-07 -2.71003e-05
0.00197812 0.000249889 3.24763e-06
0.000249889 5.01417e-05 9.03889e-07
3.24763e-06 9.03889e-07 -1.19047e-05
0.00191534 -7.77521e-06 5.98736e-06
-7.77521e-06 4.88179e-05 2.65075e-07
5.98736e-06 2.65075e-07 1.42058e-05
0.0019359 5.0702e-05 4.1987e-06
5.0702e-05 1.14562e-05 1.13799e-08
4.1987e-06 1.13799e-08 8.19244e-07
0.00199454 0.000171274 3.01454e-06
0.000171274 2.14778e-05 8.50294e-07
3.01454e-06 8.50294e-07 -9.80578e-07
0.00200799 0.000323806 -7.45294e-08
0.000323806 7.8066e-05 4.12018e-07
-7.45294e-08 4.12018e-07 -7.41097e-06
0.00185228 -4.89412e-05 -1.03467e-06
-4.89412e-05 6.2207e-05 1.3513e-07
-1.03467e-06 1.3513e-07 -9.16892e-06
0.00189398 -0.000163512 1.88957e-06
-0.000163512 0.00010593 -1.2917e-06
1.88957e-06 -1.2917e-06 1.06219e-06
0.00190239 -0.00010228 -1.84016e-06
-0.00010228 5.30842e-05 -2.03846e-07
-1.84016e-06 -2.03846e-07 7.22338e-06
0.00185794 -0.000237932 -3.91594e-06
-0.000237932 4.22818e-05 1.41975e-06
-3.91594e-06 1.41975e-06 -4.3073e-05
0.00106817 -0.000274235 -4.29164e-06
-0.000274235 0.000190598 4.17314e-06
-4.29164e-06 4.17314e-06 -4.26844e-05
0.00106066 -0.000389555 -3.72617e-07
-0.000389555 8.7218e-05 6.21951e-07
-3.72617e-07 6.21951e-07 -0.000213118
0.00168982 -0.000553998 1.17328e-06
-0.000553998 0.000253245 -1.09798e-06
1.17328e-06 -1.09798e-06 -7.87861e-05
0.00180157 -0.000342911 -9.46727e-07
-0.000342911 9.87738e-05 1.6188e-07
-9.46727e-07 1.6188e-07 -4.61666e-05
0.00187603 -0.000309882 6.21191e-08
-0.000309882 7.07898e-05 1.10571e-06
6.21191e-08 1.10571e-06 -1.85467e-05
0.00181794 -0.000409429 2.87095e-06
-0.000409429 9.55563e-05 1.14855e-06
2.87095e-06 1.14855e-06 -5.40201e-05
0.00184206 -0.00049679 -1.60347e-06
-0.00049679 0.0002209 -2.22399e-06
-1.60347e-06 -2.22399e-06 -3.10173e-05
0.00190202 -0.000421328 4.2244e-06
-0.000421328 0.000179763 -8.68843e-06
4.2244e-06 -8.68843e-06 1.33482e-05
0.000948731 -0.000285451 2.2981e-06
-0.000285451 0.000131585 1.54842e-06
2.2981e-06 1.54842e-06 -0.000111395
0.000643141 -0.00023924 3.93093e-06
-0.00023924 -2.1577e-05 6.68532e-07
3.93093e-06 6.68532e-07 -0.000260446
0.00061858 -0.000143649 3.91442e-06
-0.000143649 0.000111216 -5.16029e-06
3.91442e-06 -5.16029e-06 -0.000145019
0.000226965 -1.43275e-05 -1.87005e-07
-1.43275e-05 -0.000161175 3.82174e-06
-1.87005e-07 3.82174e-06 -0.000266676
0.000200378 1.86671e-06 3.21464e-06
1.86671e-06 -0.000140881 -6.46118e-07
3.21464e-06 -6.46118e-07 -0.000319158
0.00191335 -6.44336e-05 -2.98313e-07
-6.44336e-05 3.65198e-05 -1.16069e-07
-2.98313e-07 -1.16069e-07 4.6122e-06
0.00189192 -0.000150459 1.2997e-06
-0.000150459 3.51828e-05 -2.84421e-07
1.2997e-06 -2.84421e-07 -1.42388e-05
0.00196542 -0.000282382 -1.21672e-06
-0.000282382 6.11888e-05 1.18661e-07
-1.21672e-06 1.18661e-07 -7.31416e-07
0.00128683 -0.000353574 -1.5457e-06
-0.000353574 0.000293776 -9.04633e-08
-1.5457e-06 -9.04633e-08 1.86155e-05
0.00127383 -0.000488781 2.4821e-06
-0.000488781 0.000183035 -1.01508e-06
2.4821e-06 -1.01508e-06 -0.000160561
0.00177839 -0.000602813 -1.85031e-08
-0.000602813 0.000275728 -3.68386e-07
-1.85031e-08 -3.68386e-07 -6.90515e-05
0.00185619 -0.000350396 4.67132e-07
-0.000350396 7.50201e-05 8.20681e-08
4.67132e-07 8.20681e-08 -3.05931e-05
0.00197653 -0.000499824 8.26308e-07
-0.000499824 0.000264787 -3.0934e-06
8.26308e-07 -3.0934e-06 2.61678e-05
0.00198979 -0.000470665 -7.26733e-07
-0.000470665 0.000162316 -7.6471e-07
-7.26733e-07 -7.6471e-07 4.014e-06
0.000209589 4.44658e-05 -1.17761e-06
4.44658e-05 -0.000177159 -8.20769e-07
-1.17761e-06 -8.20769e-07 -0.000255376
0.00116121 -0.000329427 3.95538e-07
-0.000329427 0.000231259 7.89089e-07
3.95538e-07 7.89089e-07 -2.93328e-05
0.00100534 -0.000308978 1.0393e-06
-0.000308978 0.000189737 2.5018e-06
1.0393e-06 2.5018e-06 -6.98864e-05
0.00113903 -0.000231232 -3.15391e-07
-0.000231232 0.000408942 2.28095e-07
-3.15391e-07 2.28095e-07 0.00012285
0.00121136 -0.000131925 7.96676e-07
-0.000131925 0.000481497 -2.4617e-06
7.96676e-07 -2.4617e-06 0.000266159
0.000486409 -2.31492e-05 -6.96237e-07
-2.31492e-05 3.98035e-05 1.25878e-06
-6.96237e-07 1.25878e-06 -0.000121416
0.00193187 -7.77068e-05 4.14875e-06
-7.77068e-05 1.81354e-05 -3.8354e-07
4.14875e-06 -3.8354e-07 7.46551e-06
0.00204967 -0.000196108 2.06937e-06
-0.000196108 3.09279e-05 -7.25988e-07
2.06937e-06 -7.25988e-07 2.04301e-05
0.00203706 -0.000341597 1.78663e-06
-0.000341597 6.79211e-05 -1.5712e-06
1.78663e-06 -1.5712e-06 2.66691e-05
0.00209181 -0.000425718 1.98835e-06
-0.000425718 0.00012472 -2.68489e-06
1.98835e-06 -2.68489e-06 2.77898e-05
0.00197912 -0.00048066 -4.19223e-06
-0.00048066 0.000691859 -4.48641e-06
-4.19223e-06 -4.48641e-06 0.000368556
0.00195776 -0.00053253 3.95368e-06
-0.00053253 0.000183867 1.04483e-06
3.95368e-06 1.04483e-06 -2.25605e-05
0.00149359 -0.000582289 -5.61512e-06
-0.000582289 0.000273045 1.10335e-06
-5.61512e-06 1.10335e-06 -0.000114269
0.00210001 -0.000657377 -5.86127e-06
-0.000657377 0.000471718 1.07384e-06
-5.86127e-06 1.07384e-06 0.00010559
0.000189739 5.87543e-05 -3.27759e-06
5.87543e-05 -0.000194049 -1.67198e-06
-3.27759e-06 -1.67198e-06 -0.000255433
0.000651382 8.1948e-06 -1.45817e-06
8.1948e-06 0.000131245 -1.29661e-07
-1.45817e-06 -1.29661e-07 4.17456e-06
0.00114159 -0.000153984 -4.21798e-06
-0.000153984 0.000452524 2.84436e-06
-4.21798e-06 2.84436e-06 0.000262087
0.000930096 -4.76384e-05 -3.20861e-06
-4.76384e-05 0.000278945 2.31779e-06
-3.20861e-06 2.31779e-06 3.55843e-05
0.00128678 -0.000389989 -2.63713e-06
-0.000389989 0.000291125 -3.84758e-06
-2.63713e-06 -3.84758e-06 -1.39686e-05
0.00136747 -0.000337744 -1.1277e-05
-0.000337744 0.000466726 9.81449e-06
-1.1277e-05 9.81449e-06 0.00013235
0.000485714 7.66952e-06 -1.67798e-06
7.66952e-06 -2.71895e-05 -3.44212e-06
-1.67798e-06 -3.44212e-06 -9.54925e-05
0.000394287 -8.61554e-06 1.83777e-06
-8.61554e-06 -5.54504e-05 -2.075e-06
1.83777e-06 -2.075e-06 -0.000170345
0.00184294 0.000360873 -2.12005e-06
0.000360873 0.000118924 -6.89631e-07
-2.12005e-06 -6.89631e-07 -4.29377e-05
0.000183217 3.45236e-05 1.34555e-06
3.45236e-05 -0.00016301 -1.86999e-07
1.34555e-06 -1.86999e-07 -0.000353723
0.00139149 0.000323275 1.16887e-06
0.000323275 0.000411291 9.43895e-07
1.16887e-06 9.43895e-07 0.000168263
-0.000121527 9.93575e-05 6.20236e-06
9.93575e-05 -0.000461952 1.98239e-06
6.20236e-06 1.98239e-06 -0.000631479
0.00188874 0.000476694 1.2532e-06
0.000476694 0.000247606 6.73061e-07
1.2532e-06 6.73061e-07 1.01851e-05
0.00191149 0.000457305 -3.53292e-06
0.000457305 0.000179221 6.04366e-07
-3.53292e-06 6.04366e-07 -1.87284e-05
0.00160085 0.000454725 -4.90961e-07
0.000454725 0.000467994 2.41409e-06
-4.90961e-07 2.41409e-06 0.000149251
0.00198609 0.000525832 -2.89118e-06
0.000525832 0.000491449 3.23591e-07
-2.89118e-06 3.23591e-07 0.000193412
0.000680317 3.12864e-05 -9.85596e-07
3.12864e-05 0.000119114 2.07016e-07
-9.85596e-07 2.07016e-07 1.28293e-05
0.000420508 4.7346e-05 8.70886e-07
4.7346e-05 2.94318e-06 4.39339e-07
8.70886e-07 4.39339e-07 -0.000165349
0.00151178 0.000362081 -1.22541e-06
0.000362081 0.000449619 -1.39372e-06
-1.22541e-06 -1.39372e-06 0.000191693
0.000422107 7.6665e-05 -1.55684e-06
7.6665e-05 -3.80802e-05 -1.00577e-07
-1.55684e-06 -1.00577e-07 -0.000221472
0.000652066 0.000233483 7.09324e-07
0.000233483 -4.0354e-05 -1.40768e-06
7.09324e-07 -1.40768e-06 -0.000225644
0.00201343 0.000401403 -2.98437e-06
0.000401403 0.000144616 -1.22442e-06
-2.98437e-06 -1.22442e-06 4.63881e-06
0.00212392 0.000529519 2.30582e-06
0.000529519 0.000372176 -2.64527e-07
2.30582e-06 -2.64527e-07 0.00012117
0.00191399 0.000496038 2.45137e-06
0.000496038 0.000157371 2.76484e-06
2.45137e-06 2.76484e-06 -5.63332e-05
0.00121092 0.000420532 4.47231e-06
0.000420532 0.000218399 2.8838e-06
4.47231e-06 2.8838e-06 -0.000104381
0.00172367 0.000550421 -4.20859e-06
0.000550421 0.000325172 3.42434e-08
-4.20859e-06 3.42434e-08 1.16074e-05
-4.91668e-05 4.41299e-07 -1.53409e-06
4.41299e-07 -0.00031749 2.89562e-06
-1.53409e-06 2.89562e-06 -0.000425102
-0.000132842 0.000110587 1.06077e-06
0.000110587 -0.000285816 1.62366e-06
1.06077e-06 1.62366e-06 -0.000500442
0.000801434 0.000300345 -4.44631e-07
0.000300345 7.8349e-06 8.64848e-07
-4.44631e-07 8.64848e-07 -0.000251242
-0.00029635 0.000134465 3.25208e-06
0.000134465 -0.000562111 -3.75263e-07
3.25208e-06 -3.75263e-07 -0.000750219
0.0020304 0.000404956 1.17857e-06
0.000404956 -8.09069e-05 1.46846e-06
1.17857e-06 1.46846e-06 -0.000110669
0.00263504 0.000509185 2.55988e-06
0.000509185 0.000515235 -1.21396e-07
2.55988e-06 -1.21396e-07 0.000340184
0.00192675 0.000579744 -5.00533e-06
0.000579744 0.000285264 -4.45341e-06
-5.00533e-06 -4.45341e-06 -9.44336e-06
0.00126276 0.000486238 -1.57039e-08
0.000486238 0.000162045 2.35006e-07
-1.57039e-08 2.35006e-07 -0.000181851
0.000632394 8.31882e-05 -6.44948e-07
8.31882e-05 8.73349e-05 -1.13398e-06
-6.44948e-07 -1.13398e-06 -1.37851e-05
0.000604617 6.38203e-05 -3.87859e-07
6.38203e-05 6.97039e-05 -3.19985e-08
-3.87859e-07 -3.19985e-08 -3.59636e-05
0.000974924 6.32044e-05 -4.86372e-06
6.32044e-05 0.000293375 -2.16909e-06
-4.86372e-06 -2.16909e-06 0.000199982
0.000606628 2.98342e-05 -1.26365e-06
2.98342e-05 6.11952e-05 -2.02871e-06
-1.26365e-06 -2.02871e-06 -2.53215e-05
0.000333457 2.19336e-05 -2.0182e-07
2.19336e-05 -9.76185e-05 -2.15559e-08
-2.0182e-07 -2.15559e-08 -0.000196555
0.000627134 4.16239e-05 -3.32287e-07
4.16239e-05 8.82162e-05 7.73967e-08
-3.32287e-07 7.73967e-08 -6.21782e-06
0.000622424 0.000105787 -1.13867e-06
0.000105787 0.000102429 2.78382e-07
-1.13867e-06 2.78382e-07 -9.96624e-06
0.000532121 3.82325e-05 1.03315e-06
3.82325e-05 4.56573e-05 1.83022e-07
1.03315e-06 1.83022e-07 -7.49692e-05
0.00070391 7.82575e-05 1.36853e-06
7.82575e-05 0.000122184 -2.09377e-06
1.36853e-06 -2.09377e-06 3.73237e-05
0.000712336 1.7095e-06 3.30781e-06
1.7095e-06 0.000150166 -3.80258e-06
3.30781e-06 -3.80258e-06 3.20539e-05
0.00040565 6.0981e-05 4.11994e-07
6.0981e-05 -3.01269e-05 1.88737e-06
4.11994e-07 1.88737e-06 -0.000152697
0.000661546 9.38386e-05 1.9618e-06
9.38386e-05 0.00011234 2.67898e-06
1.9618e-06 2.67898e-06 1.39917e-05
0.000507773 6.36068e-05 2.8162e-06
6.36068e-05 6.8672e-06 2.79183e-06
2.8162e-06 2.79183e-06 -5.94546e-05
0.00051529 5.89088e-06 -1.47896e-06
5.89088e-06 5.54159e-06 -1.62166e-07
-1.47896e-06 -1.62166e-07 -5.55058e-05
0.001215 -3.53172e-06 1.18286e-06
-3.53172e-06 0.000402549 2.54976e-06
1.18286e-06 2.54976e-06 0.000389395
0.000510645 -4.72507e-05 1.55098e-07
-4.72507e-05 -1.62111e-06 -2.75696e-06
1.55098e-07 -2.75696e-06 -6.06913e-05
0.00128915 -1.49826e-05 -5.03047e-06
-1.49826e-05 0.000444195 -1.60363e-06
-5.03047e-06 -1.60363e-06 0.000431055
0.000798073 -2.17405e-05 2.03818e-05
-2.17405e-05 0.000143365 8.68587e-06
2.03818e-05 8.68587e-06 0.000149797
0.00133176 -2.62033e-05 -8.62416e-06
-2.62033e-05 0.000468918 -5.9605e-06
-8.62416e-06 -5.9605e-06 0.000455158
0.000768415 -3.26935e-05 7.31811e-06
-3.26935e-05 0.000124501 3.24324e-06
7.31811e-06 3.24324e-06 0.0001294
0.000724569 -4.17474e-05 -4.8783e-07
-4.17474e-05 0.000101661 -2.56678e-06
-4.8783e-07 -2.56678e-06 0.000104098
0.000452681 3.95555e-05 -2.19609e-07
3.95555e-05 -5.80223e-05 -3.19376e-06
-2.19609e-07 -3.19376e-06 -7.57638e-05
0.000455072 6.51937e-05 -8.73081e-08
6.51937e-05 -3.51622e-05 2.11644e-07
-8.73081e-08 2.11644e-07 -6.59139e-05
0.00233878 9.96437e-05 1.58318e-05
9.96437e-05 0.0011202 -3.95894e-06
1.58318e-05 -3.95894e-06 0.00112359
0.000528275 2.85825e-05 -3.80026e-06
2.85825e-05 1.4506e-05 7.30295e-06
-3.80026e-06 7.30295e-06 -2.47232e-05
0.00275534 0.000128856 -5.45168e-06
0.000128856 0.0013848 -5.6801e-07
-5.45168e-06 -5.6801e-07 0.00138023
0.00335822 8.6424e-05 -0.000103745
8.6424e-05 0.00175304 7.3334e-06
-0.000103745 7.3334e-06 0.0017579
0.00190163 0.000284817 -6.3997e-07
0.000284817 0.000117291 1.69444e-06
-6.3997e-07 1.69444e-06 -2.91052e-06
0.00199443 0.000169924 -4.45403e-06
0.000169924 8.59584e-05 -5.66189e-07
-4.45403e-06 -5.66189e-07 2.56969e-05
0.00195185 0.000253588 -5.30228e-07
0.000253588 3.24557e-05 -4.61414e-07
-5.30228e-07 -4.61414e-07 -2.53854e-05
0.00193254 0.000110056 -3.81479e-06
0.000110056 7.39676e-06 -5.74896e-07
-3.81479e-06 -5.74896e-07 -7.16415e-06
0.00189317 4.68931e-05 -4.35484e-06
4.68931e-05 3.09564e-05 -1.41979e-07
-4.35484e-06 -1.41979e-07 -7.03387e-06
0.00181843 -4.27749e-06 -2.17453e-06
-4.27749e-06 4.05499e-05 2.56737e-07
-2.17453e-06 2.56737e-07 -2.61062e-05
0.00189385 -5.77965e-06 -5.78464e-07
-5.77965e-06 3.52851e-05 -8.80918e-08
-5.78464e-07 -8.80918e-08 1.26985e-06
0.00193705 5.255e-05 1.15021e-06
5.255e-05 1.77515e-05 1.08412e-07
1.15021e-06 1.08412e-07 5.62341e-06
0.00200834 0.00017622 7.11311e-07
0.00017622 3.25779e-05 2.15194e-07
7.11311e-07 2.15194e-07 9.4448e-06
0.00204879 0.000320127 6.87276e-07
0.000320127 9.18872e-05 3.18925e-07
6.87276e-07 3.18925e-07 7.01161e-06
0.00191841 -1.18788e-05 3.04557e-06
-1.18788e-05 1.4127e-05 1.18334e-08
3.04557e-06 1.18334e-08 1.37871e-06
0.00205402 0.000101372 1.54362e-06
0.000101372 -6.49191e-06 -1.78323e-08
1.54362e-06 -1.78323e-08 1.23765e-05
0.00220719 0.000272124 2.467e-06
0.000272124 6.97634e-05 1.21349e-06
2.467e-06 1.21349e-06 4.4808e-05
0.00191788 -7.2291e-05 -4.66591e-06
-7.2291e-05 3.7183e-05 4.446e-07
-4.66591e-06 4.446e-07 3.43801e-06
0.00187324 -0.000149563 -1.95678e-06
-0.000149563 2.23532e-05 -9.20527e-08
-1.95678e-06 -9.20527e-08 -2.8135e-05
0.00196333 -0.00027694 -3.15235e-06
-0.00027694 7.49583e-05 1.42648e-06
-3.15235e-06 1.42648e-06 8.94539e-06
0.000857654 -0.00031126 -1.39781e-06
-0.00031126 2.61139e-05 2.57381e-06
-1.39781e-06 2.57381e-06 -0.000240985
0.00110658 -0.00045706 4.72697e-06
-0.00045706 8.55401e-05 -1.29023e-06
4.72697e-06 -1.29023e-06 -0.000248012
0.00164068 -0.000593426 5.37193e-08
-0.000593426 0.000201888 3.99464e-07
5.37193e-08 3.99464e-07 -0.00014378
0.00182612 -0.000347711 -7.753e-07
-0.000347711 5.40276e-05 1.12131e-06
-7.753e-07 1.12131e-06 -5.25334e-05
0.00177968 -0.000448007 4.19121e-08
-0.000448007 6.6563e-05 -3.25126e-08
4.19121e-08 -3.25126e-08 -8.92078e-05
0.00204556 -0.000511314 1.1652e-06
-0.000511314 0.000302641 -7.34764e-06
1.1652e-06 -7.34764e-06 6.84888e-05
0.000788046 -0.000291164 3.89452e-06
-0.000291164 -1.90612e-06 4.69494e-06
3.89452e-06 4.69494e-06 -0.000254667
0.000557263 -0.000260744 -1.10731e-05
-0.000260744 -7.43607e-05 5.33266e-06
-1.10731e-05 5.33266e-06 -0.000311586
0.00200558 -0.000323729 1.91624e-06
-0.000323729 0.000959809 -1.047e-06
1.91624e-06 -1.047e-06 0.000645231
0.000369717 4.38255e-05 1.79082e-06
4.38255e-05 -8.15947e-05 7.87699e-07
1.79082e-06 7.87699e-07 -0.00015754
0.000969151 -0.000135894 3.58601e-06
-0.000135894 0.000323138 -1.31664e-07
3.58601e-06 -1.31664e-07 0.000123333
0.000210797 3.53754e-05 4.576e-06
3.53754e-05 -0.000137604 1.01348e-06
4.576e-06 1.01348e-06 -0.000291869
0.00192569 -7.79187e-05 -5.34211e-07
-7.79187e-05 1.3823e-05 8.83678e-08
-5.34211e-07 8.83678e-08 8.67419e-07
0.00200552 -0.000201712 2.27077e-07
-0.000201712 9.79481e-07 -4.78648e-08
2.27077e-07 -4.78648e-08 -8.49869e-06
0.0020102 -0.000336539 -4.28034e-07
-0.000336539 5.93475e-05 4.31724e-07
-4.28034e-07 4.31724e-07 1.38644e-05
0.00142054 -0.000421641 -2.35701e-06
-0.000421641 0.000357037 -4.47664e-07
-2.35701e-06 -4.47664e-07 4.63566e-05
0.00145201 -0.000573732 1.62941e-06
-0.000573732 0.000248589 -1.0502e-06
1.62941e-06 -1.0502e-06 -0.000134832
0.00219174 -0.000657792 -5.02116e-06
-0.000657792 0.000522174 9.84342e-07
-5.02116e-06 9.84342e-07 0.000165511
0.00203657 -0.000429601 5.61225e-07
-0.000429601 9.40097e-05 -3.51729e-07
5.61225e-07 -3.51729e-07 -7.73724e-06
0.0018159 -0.00051804 1.42186e-06
-0.00051804 0.000100368 -3.21891e-06
1.42186e-06 -3.21891e-06 -0.000103283
0.00039001 5.74581e-05 -9.29316e-07
5.74581e-05 -7.5262e-05 -1.04467e-06
-9.29316e-07 -1.04467e-06 -0.000132088
0.000670273 -1.30673e-05 -7.407e-07
-1.30673e-05 0.000138911 4.27167e-07
-7.407e-07 4.27167e-07 1.42665e-05
0.000462791 -0.00030449 -5.00159e-06
-0.00030449 -0.00020508 4.14994e-06
-5.00159e-06 4.14994e-06 -0.000485907
0.00162311 -0.000335562 4.72579e-06
-0.000335562 0.000649208 -1.99884e-06
4.72579e-06 -1.99884e-06 0.000310034
0.00119427 -0.000107866 -1.84829e-07
-0.000107866 0.000453649 -2.12131e-06
-1.84829e-07 -2.12131e-06 0.000205084
0.000830091 -0.000114496 -6.33442e-07
-0.000114496 0.000258854 9.99891e-07
-6.33442e-07 9.99891e-07 7.12113e-05
0.002 -0.000105238 6.47284e-08
-0.000105238 -1.45533e-05 -1.601e-07
6.47284e-08 -1.601e-07 2.03128e-06
0.00210551 -0.000289016 -5.10429e-07
-0.000289016 -2.2415e-05 5.50252e-08
-5.10429e-07 5.50252e-08 3.68712e-06
0.00207527 -0.000383796 1.67364e-06
-0.000383796 6.08269e-05 -1.45758e-06
1.67364e-06 -1.45758e-06 2.72867e-05
0.00212186 -0.00056672 6.22256e-06
-0.00056672 0.000127056 -2.69345e-06
6.22256e-06 -2.69345e-06 -1.05899e-05
0.000845367 -0.00042403 2.76107e-07
-0.00042403 -7.11939e-06 -5.06013e-06
2.76107e-07 -5.06013e-06 -0.000355523
0.00217427 -0.000679985 -8.08284e-07
-0.000679985 0.000447342 1.23488e-05
-8.08284e-07 1.23488e-05 0.000110459
0.00230575 -0.000713115 -5.86076e-06
-0.000713115 0.000701524 -2.97722e-06
-5.86076e-06 -2.97722e-06 0.000269169
0.000598141 5.09943e-05 6.32331e-07
5.09943e-05 3.75648e-05 -9.43133e-07
6.32331e-07 -9.43133e-07 -7.28207e-06
0.000660167 -0.000125869 4.10749e-06
-0.000125869 0.000122893 -2.51276e-06
4.10749e-06 -2.51276e-06 3.02925e-05
0.000380037 7.35466e-05 -4.61284e-06
7.35466e-05 -4.87935e-05 9.85123e-07
-4.61284e-06 9.85123e-07 -0.000144895
0.000738546 -4.57923e-05 -3.36934e-06
-4.57923e-05 0.0002005 4.82843e-06
-3.36934e-06 4.82843e-06 3.7711e-05
0.000357919 -6.31173e-05 1.39511e-06
-6.31173e-05 -6.86847e-05 -8.56281e-07
1.39511e-06 -8.56281e-07 -0.000255132
-0.000758662 -5.98049e-06 5.0064e-07
-5.98049e-06 -0.000697534 -1.37114e-07
5.0064e-07 -1.37114e-07 -0.000992732
0.0011034 -0.000395937 -1.36382e-05
-0.000395937 0.00018328 2.46311e-06
-1.36382e-05 2.46311e-06 -0.000113782
0.00292106 -0.000481609 -1.55617e-05
-0.000481609 0.00152078 6.34569e-06
-1.55617e-05 6.34569e-06 0.00102802
0.000613427 6.96692e-06 -3.5933e-07
6.96692e-06 7.17292e-05 -1.27715e-06
-3.5933e-07 -1.27715e-06 -2.71068e-05
0.000752251 9.37858e-05 7.48093e-07
9.37858e-05 0.000210629 -8.57223e-07
7.48093e-07 -8.57223e-07 3.13628e-05
0.00220473 0.000413923 -1.97762e-06
0.000413923 0.000252173 -1.20971e-06
-1.97762e-06 -1.20971e-06 0.000114398
0.000704747 0.00012044 -1.07151e-06
0.00012044 0.000147738 2.48266e-06
-1.07151e-06 2.48266e-06 -4.91322e-05
0.00200151 0.000413085 1.0611e-06
0.000413085 0.000752621 1.65782e-06
1.0611e-06 1.65782e-06 0.000482017
0.000257805 0.000182467 -2.41768e-07
0.000182467 -0.000288054 -1.75698e-07
-2.41768e-07 -1.75698e-07 -0.000452285
0.00218606 0.000524056 -2.67267e-06
0.000524056 0.00041677 -3.11992e-07
-2.67267e-06 -3.11992e-07 0.000171613
0.00206062 0.000513684 -4.75216e-06
0.000513684 0.000234904 5.47628e-06
-4.75216e-06 5.47628e-06 1.74956e-05
0.00172448 0.000482955 -5.04734e-07
0.000482955 0.000529035 8.68326e-07
-5.04734e-07 8.68326e-07 0.000194135
0.00149905 0.000543686 5.70175e-07
0.000543686 0.000189606 4.36792e-07
5.70175e-07 4.36792e-07 -0.000129643
0.00018022 3.12439e-05 -1.31526e-07
3.12439e-05 -0.000172058 1.10408e-06
-1.31526e-07 1.10408e-06 -0.000288875
0.000286817 0.00014659 -9.24052e-07
0.00014659 -3.19912e-05 -2.98879e-06
-9.24052e-07 -2.98879e-06 -0.000250012
0.00153325 0.000383968 3.53287e-06
0.000383968 0.000444832 -4.94016e-07
3.53287e-06 -4.94016e-07 0.000170332
0.000694959 0.000213932 -2.93676e-06
0.000213932 3.71559e-05 -2.17868e-06
-2.93676e-06 -2.17868e-06 -0.000160339
0.00213962 0.000395744 9.16082e-07
0.000395744 -2.09326e-05 -7.90576e-07
9.16082e-07 -7.90576e-07 -4.99516e-05
0.00236343 0.000501374 3.21618e-06
0.000501374 0.000362092 5.31442e-07
3.21618e-06 5.31442e-07 0.000183051
0.00195097 0.000572118 -4.6355e-07
0.000572118 0.00029621 5.51057e-07
-4.6355e-07 5.51057e-07 6.43379e-06
0.00142299 0.000503502 5.97674e-07
0.000503502 0.000239615 5.03582e-07
5.97674e-07 5.03582e-07 -0.000103069
0.00013997 4.80686e-05 -1.83159e-06
4.80686e-05 -0.000202064 4.06651e-06
-1.83159e-06 4.06651e-06 -0.000324401
0.00208278 0.000319244 4.52862e-06
0.000319244 -0.000118981 3.73386e-06
4.52862e-06 3.73386e-06 -8.09374e-05
0.00183294 0.000354877 4.72593e-06
0.000354877 0.000856894 7.19652e-06
4.72593e-06 7.19652e-06 0.000589942
0.0013493 0.000382962 5.3479e-06
0.000382962 0.000305566 7.16165e-07
5.3479e-06 7.16165e-07 3.44947e-05
0.00247838 0.000493161 -1.76358e-05
0.000493161 0.000294345 -7.05371e-06
-1.76358e-05 -7.05371e-06 0.000186519
0.00100458 0.000524765 -9.66086e-06
0.000524765 -0.000342254 -9.32412e-06
-9.66086e-06 -9.32412e-06 -0.00061399
0.00209667 0.000601664 -3.46153e-06
0.000601664 0.000572629 2.33899e-06
-3.46153e-06 2.33899e-06 0.00020595
0.000726622 8.11145e-05 -9.81194e-07
8.11145e-05 0.000143177 -7.66154e-07
-9.81194e-07 -7.66154e-07 3.76811e-05
0.000665148 7.62689e-05 -2.45393e-06
7.62689e-05 0.000114572 -6.18642e-07
-2.45393e-06 -6.18642e-07 1.62862e-05
0.00123723 7.37927e-05 -3.64376e-06
7.37927e-05 0.000467217 -9.939e-07
-3.64376e-06 -9.939e-07 0.000386331
0.000559713 2.12062e-06 2.10321e-07
2.12062e-06 5.02689e-05 -2.8557e-06
2.10321e-07 -2.8557e-06 -4.59515e-05
0.000673989 6.86007e-05 1.5093e-06
6.86007e-05 0.00013493 1.03577e-07
1.5093e-06 1.03577e-07 1.14409e-05
0.000198491 5.17544e-05 -1.08559e-06
5.17544e-05 -0.000140897 3.7592e-06
-1.08559e-06 3.7592e-06 -0.000248196
0.000589892 1.29997e-05 -9.20841e-07
1.29997e-05 7.64822e-05 1.85852e-08
-9.20841e-07 1.85852e-08 -2.62737e-05
0.000372365 -1.50889e-05 -7.79218e-07
-1.50889e-05 -3.95061e-05 2.75517e-07
-7.79218e-07 2.75517e-07 -0.0001666
0.000316482 3.06483e-05 5.41398e-07
3.06483e-05 -0.000101303 5.83403e-07
5.41398e-07 5.83403e-07 -0.000178842
0.000751408 6.98427e-05 8.82211e-07
6.98427e-05 0.000187997 -7.98549e-07
8.82211e-07 -7.98549e-07 5.78065e-05
0.00140831 8.84933e-05 -5.13295e-07
8.84933e-05 0.000536545 -2.77375e-06
-5.13295e-07 -2.77375e-06 0.000478377
0.000579584 8.07884e-06 5.75115e-06
8.07884e-06 5.71232e-05 -4.74061e-06
5.75115e-06 -4.74061e-06 -3.19668e-05
0.000540522 7.40598e-05 1.69146e-07
7.40598e-05 6.83452e-05 2.01598e-06
1.69146e-07 2.01598e-06 -7.54226e-05
0.000610464 4.22939e-05 2.49292e-06
4.22939e-05 0.000105215 2.03797e-06
2.49292e-06 2.03797e-06 -3.57671e-05
0.00061242 3.21762e-05 2.08251e-06
3.21762e-05 8.3899e-05 2.48146e-06
2.08251e-06 2.48146e-06 -1.89639e-05
0.000508731 -4.42671e-05 -7.66979e-08
-4.42671e-05 6.52777e-06 2.69111e-06
-7.66979e-08 2.69111e-06 -6.09455e-05
0.000530591 9.14973e-07 -2.83161e-07
9.14973e-07 1.62838e-05 -1.73145e-07
-2.83161e-07 -1.73145e-07 -4.65252e-05
0.00127635 1.18001e-05 1.92638e-06
1.18001e-05 0.000446146 2.53263e-06
1.92638e-06 2.53263e-06 0.000431448
0.00053107 -1.49242e-05 5.56669e-07
-1.49242e-05 1.06641e-05 -2.84189e-06
5.56669e-07 -2.84189e-06 -4.71049e-05
0.00129289 1.51981e-06 -3.87566e-06
1.51981e-06 0.000450794 -1.61646e-06
-3.87566e-06 -1.61646e-06 0.000437438
0.000767072 -1.33377e-05 1.56631e-05
-1.33377e-05 0.000126693 8.53939e-06
1.56631e-05 8.53939e-06 0.00013354
0.00135273 -1.06339e-05 -7.05298e-06
-1.06339e-05 0.000483419 -6.09242e-06
-7.05298e-06 -6.09242e-06 0.000470209
0.000789466 -2.38345e-05 5.21194e-06
-2.38345e-05 0.000135929 3.33835e-06
5.21194e-06 3.33835e-06 0.000141767
0.00075023 -3.26025e-05 -3.1108e-07
-3.26025e-05 0.000111504 -2.47263e-06
-3.1108e-07 -2.47263e-06 0.000116325
0.000643589 3.19373e-06 1.78742e-06
3.19373e-06 6.31572e-05 -1.75128e-06
1.78742e-06 -1.75128e-06 2.07236e-05
0.000487058 2.87228e-05 5.0585e-07
2.87228e-05 -4.73906e-05 -3.3839e-06
5.0585e-07 -3.3839e-06 -6.00528e-05
0.000495938 4.17885e-05 3.20462e-07
4.17885e-05 -3.02104e-05 1.95184e-07
3.20462e-07 1.95184e-07 -4.87604e-05
0.00212549 7.80323e-05 1.58288e-05
7.80323e-05 0.000979259 -3.95495e-06
1.58288e-05 -3.95495e-06 0.000988376
0.000513682 6.46549e-05 4.84488e-06
6.46549e-05 3.71591e-07 5.92539e-06
4.84488e-06 5.92539e-06 -3.09527e-05
0.00244699 0.000104617 -5.44169e-06
0.000104617 0.00118728 -5.07789e-07
-5.44169e-06 -5.07789e-07 0.0011895
0.00291822 0.000122168 -2.83479e-05
0.000122168 0.00148196 4.75092e-06
-2.83479e-05 4.75092e-06 0.00147853
0.0020897 0.000316906 -1.49988e-07
0.000316906 0.000105286 1.68824e-07
-1.49988e-07 1.68824e-07 2.10285e-05
0.00202157 0.000180884 -3.07559e-06
0.000180884 4.43996e-05 -8.4928e-07
-3.07559e-06 -8.4928e-07 2.02159e-05
0.00193535 5.58156e-05 -3.90114e-06
5.58156e-05 2.27802e-05 -2.65098e-07
-3.90114e-06 -2.65098e-07 9.17402e-06
0.00187431 -3.66953e-06 -4.88633e-06
-3.66953e-06 2.31231e-05 -1.03755e-07
-4.88633e-06 -1.03755e-07 -1.04326e-05
0.00191906 -7.04848e-06 -8.78917e-07
-7.04848e-06 1.17015e-05 2.56634e-08
-8.78917e-07 2.56634e-08 2.20649e-06
0.00203503 9.46274e-05 -5.95318e-08
9.46274e-05 -9.58178e-06 1.12086e-07
-5.95318e-08 1.12086e-07 6.28028e-06
0.0021352 0.000275263 -9.55981e-07
0.000275263 2.84737e-05 -1.033e-07
-9.55981e-07 -1.033e-07 5.80937e-06
0.00200664 -9.25877e-06 3.93095e-07
-9.25877e-06 -2.66536e-05 -5.45659e-07
3.93095e-07 -5.45659e-07 -1.98984e-06
0.0021936 0.00014754 4.22824e-06
0.00014754 -1.5391e-05 -1.67394e-08
4.22824e-06 -1.67394e-08 1.03492e-05
0.00238118 9.9236e-05 2.40031e-06
9.9236e-05 0.000160325 1.07472e-05
2.40031e-06 1.07472e-05 0.000224933
0.00191975 -7.82168e-05 -4.28807e-06
-7.82168e-05 9.65634e-06 4.46977e-07
-4.28807e-06 4.46977e-07 -5.68062e-06
0.00197106 -0.000208541 -2.63354e-06
-0.000208541 -2.45003e-05 5.84962e-07
-2.63354e-06 5.84962e-07 -3.24591e-05
0.00198958 -0.000331476 -2.05215e-06
-0.000331476 5.3862e-05 9.05528e-07
-2.05215e-06 9.05528e-07 5.51605e-06
0.000697925 -0.000346611 1.91748e-07
-0.000346611 -8.2717e-05 2.46496e-06
1.91748e-07 2.46496e-06 -0.000377947
0.00159953 -0.000584656 2.74497e-06
-0.000584656 0.000334075 2.05194e-07
2.74497e-06 2.05194e-07 -5.0446e-05
0.002074 -0.000632702 -1.18555e-06
-0.000632702 0.00046215 4.9161e-08
-1.18555e-06 4.9161e-08 0.000118834
0.00196614 -0.000431976 2.12591e-07
-0.000431976 5.4466e-05 2.26139e-06
2.12591e-07 2.26139e-06 -5.14089e-05
0.00180713 -0.000513106 -6.37382e-06
-0.000513106 9.55733e-05 -4.32976e-06
-6.37382e-06 -4.32976e-06 -0.000106221
0.000622152 -0.000315286 -6.94985e-06
-0.000315286 -0.000105488 3.79632e-06
-6.94985e-06 3.79632e-06 -0.000384168
0.0020782 -0.000360543 1.38847e-05
-0.000360543 0.000959696 -4.82129e-06
1.38847e-05 -4.82129e-06 0.000610565
0.000931763 -5.23987e-05 6.30347e-07
-5.23987e-05 0.000281473 8.3312e-07
6.30347e-07 8.3312e-07 5.08019e-05
0.000461811 1.69277e-05 9.64759e-07
1.69277e-05 -3.42444e-05 -3.59245e-07
9.64759e-07 -3.59245e-07 -8.65415e-05
0.000833903 3.47621e-05 4.31142e-06
3.47621e-05 0.000234204 5.77901e-07
4.31142e-06 5.77901e-07 0.000108245
0.000690219 -7.72508e-05 1.14035e-06
-7.72508e-05 0.000169466 1.63651e-06
1.14035e-06 1.63651e-06 -1.86309e-05
0.00201037 -0.000107719 5.14621e-07
-0.000107719 -1.62084e-05 4.55458e-08
5.14621e-07 4.55458e-08 2.50776e-06
0.000530084 1.61084e-05 1.27166e-06
1.61084e-05 -3.32374e-06 2.18508e-07
1.27166e-06 2.18508e-07 -4.77159e-05
0.000465966 -6.04792e-05 -1.84623e-06
-6.04792e-05 -2.07761e-05 -1.7726e-07
-1.84623e-06 -1.7726e-07 -9.74348e-05
0.00209655 -0.000279103 -2.38653e-07
-0.000279103 -9.8971e-06 1.63123e-07
-2.38653e-07 1.63123e-07 1.19877e-05
0.0020323 -0.000377222 -1.38088e-06
-0.000377222 3.59028e-05 1.26598e-07
-1.38088e-06 1.26598e-07 7.43708e-06
0.00147243 -0.000495049 -2.36729e-06
-0.000495049 0.000352672 5.01453e-07
-2.36729e-06 5.01453e-07 -8.97019e-06
0.00182257 -0.000660174 1.04108e-06
-0.000660174 0.000439331 1.16664e-06
1.04108e-06 1.16664e-06 9.70519e-06
0.00173164 -0.000635706 4.56717e-06
-0.000635706 0.000191679 -2.62081e-06
4.56717e-06 -2.62081e-06 -0.000134004
0.00216465 -0.000566043 2.636e-06
-0.000566043 0.000161809 -7.02781e-07
2.636e-06 -7.02781e-07 2.40018e-05
0.000720522 -2.6697e-06 2.59575e-07
-2.6697e-06 0.000165844 -1.41244e-06
2.59575e-07 -1.41244e-06 6.6704e-05
0.000688143 -3.51855e-05 1.16844e-07
-3.51855e-05 0.000169963 1.61484e-06
1.16844e-07 1.61484e-06 6.38414e-06
0.00147322 -0.000417483 1.92141e-06
-0.000417483 0.000400661 -2.023e-07
1.92141e-06 -2.023e-07 9.24443e-05
0.00167025 -0.000345575 1.68616e-05
-0.000345575 0.00076669 -4.22459e-06
1.68616e-05 -4.22459e-06 0.000350045
0.000384821 -5.35215e-05 -3.84919e-06
-5.35215e-05 -3.78133e-05 -1.27609e-06
-3.84919e-06 -1.27609e-06 -0.000306018
0.00060735 -4.13979e-05 9.59208e-07
-4.13979e-05 9.6253e-05 -1.26197e-06
9.59208e-07 -1.26197e-06 -0.000102152
0.00204929 -0.000125892 2.59174e-06
-0.000125892 -9.12737e-05 -1.06888e-06
2.59174e-06 -1.06888e-06 -6.45121e-05
0.00205334 -0.000350958 -5.12543e-07
-0.000350958 -0.000151159 1.23044e-06
-5.12543e-07 1.23044e-06 -1.89215e-05
0.00213891 -0.000508917 -5.33217e-06
-0.000508917 3.20267e-05 -3.08501e-07
-5.33217e-06 -3.08501e-07 -2.12197e-05
0.00162722 -0.000656306 4.34898e-06
-0.000656306 -3.28786e-05 -2.64249e-06
4.34898e-06 -2.64249e-06 -0.000216696
0.00120428 -0.000479605 -1.83557e-06
-0.000479605 0.000223062 -7.56772e-06
-1.83557e-06 -7.56772e-06 -0.000147504
0.0023711 -0.000780743 -1.07889e-05
-0.000780743 0.000687236 1.02267e-05
-1.07889e-05 1.02267e-05 0.000224835
0.00026605 4.89618e-05 -1.21602e-06
4.89618e-05 -0.000130569 -2.75931e-06
-1.21602e-06 -2.75931e-06 -0.000214582
0.00062747 -5.91133e-05 4.86634e-06
-5.91133e-05 7.43484e-05 -6.69414e-07
4.86634e-06 -6.69414e-07 5.69271e-07
0.000971909 -0.000122978 1.69331e-06
-0.000122978 0.000292443 4.12326e-06
1.69331e-06 4.12326e-06 0.000189715
0.000508119 2.38982e-05 -3.83414e-06
2.38982e-05 4.43915e-05 8.82013e-06
-3.83414e-06 8.82013e-06 -9.4949e-05
0.000783554 -8.44996e-05 -4.93368e-06
-8.44996e-05 0.000202666 7.37122e-06
-4.93368e-06 7.37122e-06 3.80267e-05
0.0015526 -4.8237e-05 4.56852e-06
-4.8237e-05 0.00059602 -1.07549e-06
4.56852e-06 -1.07549e-06 0.000395962
-0.00101104 -0.0001561 7.8101e-06
-0.0001561 -0.000564731 -7.18469e-07
7.8101e-06 -7.18469e-07 -0.00115391
-0.000247008 -0.000375454 -2.89293e-05
-0.000375454 -0.000637398 2.03412e-06
-2.89293e-05 2.03412e-06 -0.000928239
0.000357077 5.5486e-05 1.19696e-08
5.5486e-05 -5.60515e-05 -7.30998e-07
1.19696e-08 -7.30998e-07 -0.000185096
0.00100356 0.000193114 -7.69071e-06
0.000193114 0.000395175 -5.22023e-06
-7.69071e-06 -5.22023e-06 0.000174858
0.00221802 0.000385391 -5.62765e-06
0.000385391 2.70019e-05 -3.15508e-06
-5.62765e-06 -3.15508e-06 -2.78971e-06
0.00215449 0.0004969 -2.61733e-06
0.0004969 0.000246152 7.16145e-07
-2.61733e-06 7.16145e-07 6.25421e-05
0.0018615 0.000287435 -6.89395e-06
0.000287435 0.000727524 -1.14616e-06
-6.89395e-06 -1.14616e-06 0.000527294
0.00188788 0.000423383 -4.61848e-06
0.000423383 0.000657855 -4.10788e-06
-4.61848e-06 -4.10788e-06 0.000376191
0.00199235 0.000566765 2.65366e-06
0.000566765 0.000315298 2.48387e-06
2.65366e-06 2.48387e-06 2.94555e-05
0.00175921 0.000536554 -2.38647e-07
0.000536554 0.000421714 -3.02925e-07
-2.38647e-07 -3.02925e-07 7.74058e-05
0.000480419 8.46099e-05 7.24041e-07
8.46099e-05 1.95898e-05 -9.36018e-07
7.24041e-07 -9.36018e-07 -0.000121059
0.00222395 0.000303647 -1.77245e-06
0.000303647 -3.33254e-05 -1.44404e-06
-1.77245e-06 -1.44404e-06 8.55397e-06
0.00138609 0.000270863 1.47961e-06
0.000270863 0.000568089 1.60089e-06
1.47961e-06 1.60089e-06 0.00032529
0.00144742 0.000393534 1.39278e-06
0.000393534 0.000374523 6.89492e-07
1.39278e-06 6.89492e-07 9.69866e-05
0.0024237 0.000490893 1.89509e-06
0.000490893 0.000268504 4.87352e-07
1.89509e-06 4.87352e-07 0.000162541
0.00160873 0.00056926 -1.80658e-06
0.00056926 1.12185e-06 -4.42501e-06
-1.80658e-06 -4.42501e-06 -0.000273243
0.00188749 0.000576163 3.79059e-07
0.000576163 0.00046134 5.04267e-07
3.79059e-07 5.04267e-07 9.83129e-05
0.00111727 0.00020662 -4.44791e-06
0.00020662 0.000436356 4.56758e-06
-4.44791e-06 4.56758e-06 0.000242444
0.00276326 0.000382208 -6.2911e-05
0.000382208 0.00033774 -1.81222e-05
-6.2911e-05 -1.81222e-05 0.000397501
0.00192933 0.00043438 -5.29798e-06
0.00043438 0.000801056 2.31808e-06
-5.29798e-06 2.31808e-06 0.000526008
0.00157753 0.000474763 -3.88377e-06
0.000474763 0.000366559 -4.77635e-06
-3.88377e-06 -4.77635e-06 3.82146e-05
0.00240681 0.000644074 -3.4253e-05
0.000644074 0.000326059 -1.68241e-05
-3.4253e-05 -1.68241e-05 0.00012736
0.000921821 0.000506018 -2.49664e-05
0.000506018 -0.000137737 -3.30633e-06
-2.49664e-05 -3.30633e-06 -0.000476865
0.00070022 0.000543778 3.28792e-05
0.000543778 -0.000979141 -3.22755e-05
3.28792e-05 -3.22755e-05 -0.0010562
0.000293406 8.85117e-05 2.2451e-06
8.85117e-05 -9.503e-05 -3.03885e-07
2.2451e-06 -3.03885e-07 -0.000199291
0.000562538 7.86644e-05 -4.75931e-07
7.86644e-05 8.54979e-05 1.02212e-06
-4.75931e-07 1.02212e-06 -4.22753e-07
0.00165436 0.000121303 3.74714e-07
0.000121303 0.000709658 -1.77193e-06
3.74714e-07 -1.77193e-06 0.000626504
0.000506015 -6.42963e-05 6.73222e-07
-6.42963e-05 3.3892e-05 -3.30981e-06
6.73222e-07 -3.30981e-06 -7.28749e-05
0.000446266 -4.02998e-05 -1.16877e-06
-4.02998e-05 1.05425e-06 -4.46846e-07
-1.16877e-06 -4.46846e-07 -0.000122089
0.000930268 0.000157543 5.35301e-08
0.000157543 0.000299713 1.43323e-06
5.35301e-08 1.43323e-06 0.000160877
5.06333e-05 1.2866e-05 -2.56019e-06
1.2866e-05 -0.000246675 9.06252e-06
-2.56019e-06 9.06252e-06 -0.000323902
0.000573557 -1.83498e-05 -4.88015e-07
-1.83498e-05 7.45277e-05 -2.83512e-08
-4.88015e-07 -2.83512e-08 -3.66538e-05
0.000550096 5.53045e-05 1.11714e-07
5.53045e-05 5.15967e-05 -5.47976e-07
1.11714e-07 -5.47976e-07 -7.55496e-05
0.000956583 7.49713e-05 3.78087e-07
7.49713e-05 0.000264856 2.76098e-06
3.78087e-07 2.76098e-06 0.000203334
0.000662994 4.41238e-05 1.39875e-06
4.41238e-05 0.000127066 5.70501e-07
1.39875e-06 5.70501e-07 -7.93058e-06
0.000680501 3.21541e-05 -1.48105e-06
3.21541e-05 0.00011299 -1.23749e-06
-1.48105e-06 -1.23749e-06 1.87643e-05
0.00129639 8.82294e-05 2.72702e-07
8.82294e-05 0.00048885 -8.66934e-06
2.72702e-07 -8.66934e-06 0.000427192
0.000975392 8.64354e-05 -2.36481e-06
8.64354e-05 0.000298119 -2.17812e-06
-2.36481e-06 -2.17812e-06 0.000154116
0.000873766 0.000104839 9.24201e-07
0.000104839 0.000247066 9.07752e-07
9.24201e-07 9.07752e-07 0.000114377
0.000741686 6.12786e-05 3.93855e-07
6.12786e-05 0.000186671 1.27317e-06
3.93855e-07 1.27317e-06 3.53127e-05
0.000358402 -2.32222e-05 1.73315e-08
-2.32222e-05 -7.40671e-05 2.94783e-06
1.73315e-08 2.94783e-06 -0.000182807
0.000958033 -3.73042e-05 1.45081e-08
-3.73042e-05 0.000347692 -1.37117e-06
1.45081e-08 -1.37117e-06 0.000190505
0.000296079 -3.04633e-05 -1.62626e-06
-3.04633e-05 -0.000108381 2.63228e-06
-1.62626e-06 2.63228e-06 -0.000221552
0.000499742 3.35219e-06 -1.85822e-06
3.35219e-06 5.17285e-06 2.83801e-06
-1.85822e-06 2.83801e-06 -6.66135e-05
0.000519263 3.1539e-05 2.129e-06
3.1539e-05 1.49444e-05 -1.24277e-07
2.129e-06 -1.24277e-07 -5.45598e-05
0.000440334 2.15177e-05 1.32535e-06
2.15177e-05 -6.02705e-05 4.06722e-06
1.32535e-06 4.06722e-06 -8.01111e-05
0.000503692 5.4612e-06 -2.80104e-06
5.4612e-06 4.05067e-06 -2.85597e-06
-2.80104e-06 -2.85597e-06 -6.18666e-05
0.000904296 1.37398e-05 -2.9242e-06
1.37398e-05 0.000219094 -1.63298e-06
-2.9242e-06 -1.63298e-06 0.000202106
0.00251347 -1.06006e-05 1.24613e-05
-1.06006e-05 0.00119943 5.28313e-06
1.24613e-05 5.28313e-06 0.00121336
0.00136978 4.00535e-06 -5.78534e-06
4.00535e-06 0.000498457 -5.95135e-06
-5.78534e-06 -5.95135e-06 0.000484725
0.00077904 -1.44297e-05 3.74226e-06
-1.44297e-05 0.000131023 3.30827e-06
3.74226e-06 3.30827e-06 0.000137695
0.000778126 -2.32024e-05 2.2292e-07
-2.32024e-05 0.000126469 -2.42981e-06
2.2292e-07 -2.42981e-06 0.000132396
0.000537834 1.67659e-05 -1.13757e-06
1.67659e-05 3.29421e-06 -1.61896e-06
-1.13757e-06 -1.61896e-06 -3.89846e-05
0.00057884 -1.05684e-05 1.01526e-06
-1.05684e-05 2.46246e-05 -2.53888e-07
1.01526e-06 -2.53888e-07 -1.86071e-05
0.000534521 2.25769e-05 4.46188e-07
2.25769e-05 -2.08334e-05 -3.38466e-06
4.46188e-07 -3.38466e-06 -3.1449e-05
0.000819239 3.64729e-05 -2.26018e-07
3.64729e-05 0.00015903 8.21587e-08
-2.26018e-07 8.21587e-08 0.000147497
0.0021041 6.27141e-05 1.2351e-05
6.27141e-05 0.000958569 -4.1928e-06
1.2351e-05 -4.1928e-06 0.000970963
0.000508674 4.77802e-05 2.41219e-06
4.77802e-05 -1.96866e-05 4.02985e-06
2.41219e-06 4.02985e-06 -3.99733e-05
0.0022574 8.38453e-05 -2.95772e-06
8.38453e-05 0.00106175 -2.34219e-07
-2.95772e-06 -2.34219e-07 0.00106938
0.00254674 0.000109458 -1.31814e-05
0.000109458 0.00124912 4.66432e-06
-1.31814e-05 4.66432e-06 0.00125013
0.00207053 0.000278843 -2.86571e-06
0.000278843 -1.06438e-05 -1.44446e-06
-2.86571e-06 -1.44446e-06 -3.03743e-05
0.00201816 8.92866e-05 -2.56392e-07
8.92866e-05 -1.22412e-05 1.64793e-07
-2.56392e-07 1.64793e-07 1.28386e-06
0.0019191 -3.47542e-06 -3.59255e-06
-3.47542e-06 8.78048e-06 -1.01778e-07
-3.59255e-06 -1.01778e-07 2.5695e-06
0.00200381 -6.24019e-06 1.43016e-07
-6.24019e-06 -2.6394e-05 -1.89258e-07
1.43016e-07 -1.89258e-07 -2.1023e-06
0.0021724 0.000150151 -2.09667e-07
0.000150151 -1.19536e-05 2.72244e-07
-2.09667e-07 2.72244e-07 1.24047e-05
0.00208178 7.97664e-05 7.33241e-06
7.97664e-05 -3.70155e-05 -4.11247e-06
7.33241e-06 -4.11247e-06 2.21806e-05
0.00218446 -4.33297e-06 9.8757e-07
-4.33297e-06 -5.29619e-05 -8.57111e-07
9.8757e-07 -8.57111e-07 3.48646e-06
0.00382192 0.00053293 4.16537e-05
0.00053293 -0.000385268 8.06497e-06
4.16537e-05 8.06497e-06 8.44765e-05
0.00238051 5.74103e-05 -2.93904e-05
5.74103e-05 0.000303661 2.65121e-05
-2.93904e-05 2.65121e-05 0.000456016
0.000520281 9.62688e-05 -1.04293e-06
9.62688e-05 3.28733e-05 1.36924e-09
-1.04293e-06 1.36924e-09 -4.95437e-05
0.00201905 -0.00010895 -8.52634e-07
-0.00010895 -1.80052e-05 1.13944e-07
-8.52634e-07 1.13944e-07 2.74361e-06
0.00207236 -0.000268944 8.11732e-07
-0.000268944 -5.98181e-06 2.05774e-07
8.11732e-07 2.05774e-07 1.01191e-05
0.00198918 -0.000372824 -4.34257e-07
-0.000372824 9.70041e-06 1.36998e-06
-4.34257e-07 1.36998e-06 -1.47873e-05
0.000743369 -0.000421341 -8.88249e-06
-0.000421341 -7.38355e-05 6.05057e-06
-8.88249e-06 6.05057e-06 -0.000419125
0.00225083 -0.000704564 4.11032e-06
-0.000704564 0.000678313 6.88607e-06
4.11032e-06 6.88607e-06 0.000240643
0.00168993 -0.000635592 -2.27191e-06
-0.000635592 0.000150818 -9.01375e-06
-2.27191e-06 -9.01375e-06 -0.000172099
0.00222694 -0.000566404 -3.61558e-06
-0.000566404 0.000210032 -9.79195e-07
-3.61558e-06 -9.79195e-07 7.10956e-05
0.00187642 -0.000440695 1.7038e-05
-0.000440695 0.000614435 -1.06041e-05
1.7038e-05 -1.06041e-05 0.000306477
0.000426254 -0.000206661 1.47703e-05
-0.000206661 2.2668e-05 -6.35285e-06
1.47703e-05 -6.35285e-06 -0.000327528
0.00136773 -9.08629e-05 2.65213e-06
-9.08629e-05 0.000529867 -1.14551e-07
2.65213e-06 -1.14551e-07 0.000286709
0.000536648 7.39107e-06 -1.58362e-07
7.39107e-06 2.5314e-06 1.28384e-06
-1.58362e-07 1.28384e-06 -4.16464e-05
0.00091511 -2.24713e-05 2.45856e-06
-2.24713e-05 0.000293001 8.30471e-07
2.45856e-06 8.30471e-07 8.46667e-05
0.000833267 -2.10357e-05 4.07272e-06
-2.10357e-05 0.000242547 -2.34761e-06
4.07272e-06 -2.34761e-06 0.000143041
0.000857618 -3.50818e-05 2.32656e-06
-3.50818e-05 0.00026959 -3.33417e-06
2.32656e-06 -3.33417e-06 0.0001049
0.000272054 -3.74565e-05 -3.7484e-06
-3.74565e-05 -0.000146622 1.28808e-06
-3.7484e-06 1.28808e-06 -0.000219845
0.00209117 -0.000141804 -4.33931e-07
-0.000141804 -9.40579e-05 -1.4899e-08
-4.33931e-07 -1.4899e-08 -4.70335e-05
0.000415206 3.26923e-05 -8.42903e-08
3.26923e-05 -3.03356e-05 -1.74607e-06
-8.42903e-08 -1.74607e-06 -0.000119018
0.000597661 -5.31916e-05 1.71939e-06
-5.31916e-05 7.35026e-05 7.82711e-07
1.71939e-06 7.82711e-07 -8.5535e-06
0.000818393 -9.57457e-05 1.52393e-06
-9.57457e-05 0.00019531 5.09806e-07
1.52393e-06 5.09806e-07 9.7868e-05
0.00207962 -0.000357994 1.54482e-06
-0.000357994 -0.000114894 -5.76429e-07
1.54482e-06 -5.76429e-07 -1.20327e-05
0.00216249 -0.000513154 5.73168e-07
-0.000513154 4.67619e-05 -8.24523e-07
5.73168e-07 -8.24523e-07 -7.13385e-06
0.000839281 -0.000409937 7.10343e-06
-0.000409937 1.67302e-05 -3.5821e-08
7.10343e-06 -3.5821e-08 -0.00032673
0.00241411 -0.000788439 9.46093e-06
-0.000788439 0.000712387 -4.60261e-07
9.46093e-06 -4.60261e-07 0.000260164
0.00214343 -0.000696986 -2.25366e-06
-0.000696986 0.000275094 1.70513e-06
-2.25366e-06 1.70513e-06 7.16306e-05
0.000244861 -2.93528e-05 -5.49263e-07
-2.93528e-05 -0.000115099 -1.02881e-06
-5.49263e-07 -1.02881e-06 -0.000244088
0.000893361 -8.8412e-05 -1.44558e-06
-8.8412e-05 0.000282221 9.69658e-07
-1.44558e-06 9.69658e-07 0.000103129
0.00122075 -0.000529096 -6.69204e-06
-0.000529096 0.000214412 1.19809e-06
-6.69204e-06 1.19809e-06 -0.000135733
0.000438479 -0.000136487 4.42228e-07
-0.000136487 0.000135582 -3.06775e-06
4.42228e-07 -3.06775e-06 -0.000327098
0.000725234 -6.0729e-05 5.86442e-07
-6.0729e-05 9.8215e-05 1.51848e-06
5.86442e-07 1.51848e-06 -9.21204e-05
0.00250387 -0.000270573 -1.83577e-06
-0.000270573 0.000141693 1.44583e-07
-1.83577e-06 1.44583e-07 0.000192427
0.00189155 -0.000386281 -1.53777e-05
-0.000386281 -0.000220581 4.56244e-06
-1.53777e-05 4.56244e-06 -7.14764e-05
0.00215146 -0.000655368 -1.04964e-05
-0.000655368 0.000115877 1.12936e-06
-1.04964e-05 1.12936e-06 -3.76673e-05
0.00322911 -0.000848762 -2.12586e-05
-0.000848762 0.00100142 -1.19585e-06
-2.12586e-05 -1.19585e-06 0.000725359
0.000980082 -0.000513164 -2.46857e-05
-0.000513164 9.93496e-05 -2.90852e-06
-2.46857e-05 -2.90852e-06 -0.000267759
0.000250601 -1.58499e-05 1.93732e-06
-1.58499e-05 -0.000127556 7.48267e-07
1.93732e-06 7.48267e-07 -0.00022927
0.00041277 8.19854e-06 8.00254e-07
8.19854e-06 -7.21789e-05 3.5178e-06
8.00254e-07 3.5178e-06 -0.000166616
-0.000182377 -3.24219e-05 -6.84335e-07
-3.24219e-05 -0.000399289 -2.98161e-06
-6.84335e-07 -2.98161e-06 -0.000497048
0.00192174 -0.000240779 -1.05472e-05
-0.000240779 0.000932591 1.4819e-05
-1.05472e-05 1.4819e-05 0.000764371
0.000952548 -9.26975e-05 -5.20117e-06
-9.26975e-05 0.000286867 1.44345e-05
-5.20117e-06 1.44345e-05 0.000126939
-0.00101115 -8.88115e-05 2.29293e-06
-8.88115e-05 -0.000497369 4.9979e-06
2.29293e-06 4.9979e-06 -0.00103829
-0.000379678 -0.000623508 -3.93601e-06
-0.000623508 -0.000339246 -7.06732e-06
-3.93601e-06 -7.06732e-06 -0.000934499
0.00103132 0.000147289 -6.81609e-07
0.000147289 0.000366809 -5.41296e-06
-6.81609e-07 -5.41296e-06 0.000205151
0.000449906 0.000130489 -3.57293e-06
0.000130489 -2.13643e-05 -2.74199e-06
-3.57293e-06 -2.74199e-06 -0.000226634
0.00235297 0.000282208 6.50966e-06
0.000282208 3.65299e-05 2.88179e-07
6.50966e-06 2.88179e-07 9.07307e-05
0.00232862 0.000486674 1.60249e-05
0.000486674 0.000217712 5.3228e-06
1.60249e-05 5.3228e-06 0.000116597
0.00219475 0.000611055 1.80708e-05
0.000611055 0.000337689 4.9338e-06
1.80708e-05 4.9338e-06 6.13176e-05
0.0012172 0.00036951 -6.24389e-07
0.00036951 0.000244698 6.64454e-07
-6.24389e-07 6.64454e-07 -3.24978e-05
0.00165086 0.000548007 3.01128e-06
0.000548007 0.000334606 3.21592e-06
3.01128e-06 3.21592e-06 -2.31334e-05
0.00164391 0.000202617 1.14682e-07
0.000202617 0.00072058 -1.67625e-07
1.14682e-07 -1.67625e-07 0.000541852
0.00249839 0.000325689 -7.18934e-07
0.000325689 0.000220638 1.28977e-06
-7.18934e-07 1.28977e-06 0.000293113
0.00134374 0.000345189 -1.87474e-06
0.000345189 0.000429751 2.28674e-06
-1.87474e-06 2.28674e-06 0.000178839
0.00158306 0.000478939 1.88204e-06
0.000478939 0.000400862 -3.14855e-07
1.88204e-06 -3.14855e-07 6.14942e-05
0.00209985 0.000613833 -2.36814e-06
0.000613833 0.000157666 -3.22474e-06
-2.36814e-06 -3.22474e-06 -1.90128e-05
0.0016317 0.000581967 -4.42493e-06
0.000581967 0.00027111 4.89897e-06
-4.42493e-06 4.89897e-06 -8.49077e-05
0.00289034 0.000754182 5.76656e-05
0.000754182 -0.000133159 5.33025e-06
5.76656e-05 5.33025e-06 -0.000318178
0.00120776 0.000268883 -5.9954e-06
0.000268883 0.000488648 1.70958e-06
-5.9954e-06 1.70958e-06 0.000280031
0.00356033 0.000597873 -8.16657e-05
0.000597873 0.000956859 -3.23602e-05
-8.16657e-05 -3.23602e-05 0.000892611
0.000914705 0.000349614 -3.99868e-06
0.000349614 4.40923e-05 1.02014e-07
-3.99868e-06 1.02014e-07 -0.000218812
1.45695e-05 0.000344481 -3.11454e-06
0.000344481 -0.000510007 -1.26253e-05
-3.11454e-06 -1.26253e-05 -0.000831651
0.000648807 0.00058462 -3.41144e-05
0.00058462 -0.000437208 -7.31078e-06
-3.41144e-05 -7.31078e-06 -0.000638278
0.0128901 0.000382112 -0.000343385
0.000382112 0.00232518 -5.04577e-05
-0.000343385 -5.04577e-05 0.00154838
0.00540499 0.00124678 5.38615e-05
0.00124678 -0.000141117 -7.32098e-05
5.38615e-05 -7.32098e-05 0.000183128
-0.000578683 0.0008124 -1.39481e-06
0.0008124 -0.00120506 3.56517e-06
-1.39481e-06 3.56517e-06 -0.00152109
-0.00257161 -0.00137339 0.000892415
-0.00137339 0.000259442 0.00018786
0.000892415 0.00018786 -0.00216744
0.0150858 -0.00533991 -1.6854e-05
-0.00533991 0.00463956 5.39027e-05
-1.6854e-05 5.39027e-05 0.00452836
0.00015457 8.10811e-05 6.81553e-06
8.10811e-05 -0.000140936 1.27753e-06
6.81553e-06 1.27753e-06 -0.000230804
0.0010447 8.90348e-05 7.74073e-07
8.90348e-05 0.000375608 -2.21254e-06
7.74073e-07 -2.21254e-06 0.000294986
0.00179568 0.000203292 -1.20792e-06
0.000203292 0.000849487 -8.32455e-07
-1.20792e-06 -8.32455e-07 0.000739298
0.000546729 -5.94577e-05 -7.6669e-07
-5.94577e-05 6.69571e-05 -2.36981e-06
-7.6669e-07 -2.36981e-06 -4.93714e-05
0.000521422 6.22749e-05 -1.08031e-06
6.22749e-05 3.69789e-05 -1.92306e-06
-1.08031e-06 -1.92306e-06 -9.37382e-05
0.000708503 -1.5562e-05 -6.70792e-08
-1.5562e-05 0.000154885 -9.05068e-07
-6.70792e-08 -9.05068e-07 1.91758e-05
0.000690376 5.39624e-05 -3.75295e-06
5.39624e-05 0.000113971 7.21289e-06
-3.75295e-06 7.21289e-06 1.53324e-05
0.000504944 5.68493e-05 1.9826e-06
5.68493e-05 -8.5861e-06 7.03542e-06
1.9826e-06 7.03542e-06 -7.24575e-05
0.000715624 0.000103189 -1.9334e-06
0.000103189 0.000171039 -4.65739e-07
-1.9334e-06 -4.65739e-07 2.19519e-05
0.000456703 -6.48308e-06 3.65395e-07
-6.48308e-06 -5.66141e-06 9.1897e-07
3.65395e-07 9.1897e-07 -0.000118311
0.000658952 3.09906e-05 -4.06711e-07
3.09906e-05 0.000130949 -2.98968e-08
-4.06711e-07 -2.98968e-08 -1.46418e-05
0.000583148 6.96748e-05 -7.04344e-08
6.96748e-05 4.82301e-05 -4.98265e-07
-7.04344e-08 -4.98265e-07 -1.38934e-05
0.000732298 8.78442e-05 -1.34334e-06
8.78442e-05 0.000156083 -3.64573e-07
-1.34334e-06 -3.64573e-07 1.65183e-05
0.0010804 0.000132654 -1.76821e-06
0.000132654 0.000384723 -9.85791e-07
-1.76821e-06 -9.85791e-07 0.000227476
0.00034932 8.38426e-05 6.34505e-07
8.38426e-05 -3.92144e-05 -2.95674e-06
6.34505e-07 -2.95674e-06 -0.000181947
0.000784409 9.4224e-05 2.54658e-06
9.4224e-05 0.00020401 5.54623e-07
2.54658e-06 5.54623e-07 6.13875e-05
0.000556483 -3.16868e-05 1.74519e-06
-3.16868e-05 5.44727e-05 6.26289e-07
1.74519e-06 6.26289e-07 -8.82175e-05
0.000377849 -6.39984e-05 -1.38072e-06
-6.39984e-05 -5.6488e-05 2.56771e-06
-1.38072e-06 2.56771e-06 -0.000172948
0.000733116 -1.54434e-05 -8.37822e-07
-1.54434e-05 0.000174161 7.25243e-08
-8.37822e-07 7.25243e-08 2.85024e-05
0.000977867 2.53959e-05 -1.66674e-07
2.53959e-05 0.000320829 -6.87888e-06
-1.66674e-07 -6.87888e-06 0.000180201
0.000539811 -3.03402e-05 -7.90328e-07
-3.03402e-05 7.92386e-05 -2.15125e-07
-7.90328e-07 -2.15125e-07 -5.75866e-05
0.000779329 -3.84513e-05 1.5748e-06
-3.84513e-05 0.00021418 -6.14005e-07
1.5748e-06 -6.14005e-07 7.29188e-05
0.000661217 -0.000106752 -2.57152e-06
-0.000106752 0.000122642 1.67472e-06
-2.57152e-06 1.67472e-06 8.02396e-06
0.000358573 -1.95117e-05 1.54685e-07
-1.95117e-05 -6.7007e-05 1.07896e-06
1.54685e-07 1.07896e-06 -0.000183133
0.000532599 -4.06006e-05 -2.18431e-06
-4.06006e-05 1.68674e-05 3.04589e-06
-2.18431e-06 3.04589e-06 -5.07451e-05
0.000533371 -2.99935e-05 1.61623e-06
-2.99935e-05 2.32674e-05 5.63013e-08
1.61623e-06 5.63013e-08 -4.74522e-05
0.0005026 4.82868e-06 1.49351e-06
4.82868e-06 -2.06434e-05 5.951e-06
1.49351e-06 5.951e-06 -4.11584e-05
0.000550899 3.78079e-05 -1.52425e-06
3.78079e-05 2.95927e-05 -2.93018e-06
-1.52425e-06 -2.93018e-06 -3.69923e-05
0.000464666 1.97961e-05 4.16958e-07
1.97961e-05 -4.50449e-05 5.44553e-08
4.16958e-07 5.44553e-08 -6.51057e-05
0.00245443 2.13718e-07 4.35988e-07
2.13718e-07 0.00116475 5.27406e-06
4.35988e-07 5.27406e-06 0.0011786
0.000526922 2.13967e-05 -2.19466e-06
2.13967e-05 -1.13713e-05 -6.33437e-06
-2.19466e-06 -6.33437e-06 -3.14345e-05
0.00166559 -8.50291e-06 -7.14319e-07
-8.50291e-06 0.000678067 1.08748e-07
-7.14319e-07 1.08748e-07 0.000687715
0.000783308 -1.35682e-05 5.06174e-07
-1.35682e-05 0.00013045 -2.23729e-06
5.06174e-07 -2.23729e-06 0.000137352
0.000523525 -9.68205e-06 7.16374e-07
-9.68205e-06 -4.79127e-06 -1.21063e-06
7.16374e-07 -1.21063e-06 -4.37912e-05
0.000578702 -3.1642e-05 2.8261e-07
-3.1642e-05 2.97815e-05 -4.7343e-08
2.8261e-07 -4.7343e-08 -1.40619e-05
0.000548764 1.35054e-05 8.6547e-07
1.35054e-05 -1.42312e-05 -3.03334e-06
8.6547e-07 -3.03334e-06 -2.27909e-05
0.000534177 -2.69104e-05 -1.90341e-06
-2.69104e-05 -3.6402e-06 1.26195e-06
-1.90341e-06 1.26195e-06 -4.66027e-05
0.000807545 2.67179e-05 -4.92858e-08
2.67179e-05 0.000147283 -7.35455e-07
-4.92858e-08 -7.35455e-07 0.000138738
0.00199695 4.6593e-05 8.76674e-06
4.6593e-05 0.00088751 -4.30351e-06
8.76674e-06 -4.30351e-06 0.000902852
0.00051372 3.23276e-05 -3.08002e-07
3.23276e-05 -2.78953e-05 3.34112e-06
-3.08002e-07 3.34112e-06 -4.17055e-05
0.00214546 6.5516e-05 -6.57305e-06
6.5516e-05 0.000986595 1.11772e-06
-6.57305e-06 1.11772e-06 0.000998234
0.0023084 8.80316e-05 -1.05312e-05
8.80316e-05 0.00109428 4.36942e-06
-1.05312e-05 4.36942e-06 0.00110093
0.00214216 0.000153712 -2.92978e-06
0.000153712 -1.30712e-05 -1.22677e-06
-2.92978e-06 -1.22677e-06 1.02117e-05
0.00199885 -5.0542e-06 -1.92992e-07
-5.0542e-06 -2.75586e-05 1.23875e-07
-1.92992e-07 1.23875e-07 -3.81304e-06
0.00181718 5.89627e-05 2.44626e-06
5.89627e-05 -0.000220386 1.18944e-06
2.44626e-06 1.18944e-06 -0.000165361
0.00237357 0.000385152 6.20321e-05
0.000385152 -0.000960721 1.42592e-05
6.20321e-05 1.42592e-05 -0.000581137
0.00215283 -2.48637e-05 -1.71564e-06
-2.48637e-05 -5.48131e-05 -1.84411e-06
-1.71564e-06 -1.84411e-06 2.17886e-06
0.002063 6.15682e-05 2.04987e-06
6.15682e-05 0.000128456 -7.29606e-06
2.04987e-06 -7.29606e-06 0.000238941
0.00318234 -2.87453e-05 -2.75727e-05
-2.87453e-05 0.000879523 3.80201e-06
-2.75727e-05 3.80201e-06 0.000873039
0.00249663 -2.10363e-05 5.35256e-06
-2.10363e-05 -0.00172753 -2.81746e-05
5.35256e-06 -2.81746e-05 -0.00107475
0.00256989 0.000148887 7.77785e-05
0.000148887 -0.000466183 4.81413e-05
7.77785e-05 4.81413e-05 -9.09588e-05
0.000589402 7.91384e-05 4.18336e-07
7.91384e-05 7.71822e-05 -1.83313e-07
4.18336e-07 -1.83313e-07 -7.14789e-06
0.000595318 -6.26861e-06 4.70016e-07
-6.26861e-06 8.59219e-05 -1.41308e-07
4.70016e-07 -1.41308e-07 -2.68708e-06
0.000511787 -0.000100134 -2.20558e-06
-0.000100134 3.87278e-05 1.42129e-06
-2.20558e-06 1.42129e-06 -6.45851e-05
0.000506421 -4.77157e-05 -1.53178e-06
-4.77157e-05 5.47417e-05 1.11162e-06
-1.53178e-06 1.11162e-06 -5.5583e-05
0.00214675 -0.000157617 -4.38821e-06
-0.000157617 -8.39329e-05 5.69606e-07
-4.38821e-06 5.69606e-07 -2.0579e-05
0.00210943 -0.00036018 1.0711e-06
-0.00036018 -7.12844e-05 -8.06738e-07
1.0711e-06 -8.06738e-07 4.78945e-06
0.00217815 -0.000513095 -1.94003e-06
-0.000513095 5.95237e-05 1.25174e-06
-1.94003e-06 1.25174e-06 6.16192e-06
0.00284472 -0.000629661 1.06503e-05
-0.000629661 0.00115702 2.79053e-06
1.06503e-05 2.79053e-06 0.000783398
0.000757995 -0.000620459 9.6828e-06
-0.000620459 -0.000198107 -2.72733e-06
9.6828e-06 -2.72733e-06 -0.000618819
0.00240292 -0.00071251 5.43515e-06
-0.00071251 0.00044086 -3.1152e-06
5.43515e-06 -3.1152e-06 0.000225469
0.00176075 -0.000589367 -1.55623e-06
-0.000589367 0.000525523 -4.22369e-07
-1.55623e-06 -4.22369e-07 0.000137368
0.00257061 -0.000169421 2.76918e-06
-0.000169421 0.00123256 -1.18258e-09
2.76918e-06 -1.18258e-09 0.000897555
-9.69905e-05 -3.39897e-05 -4.85764e-07
-3.39897e-05 -0.000412614 -1.64047e-07
-4.85764e-07 -1.64047e-07 -0.000583605
0.000668843 -5.14698e-05 3.36138e-07
-5.14698e-05 0.000121401 8.03536e-07
3.36138e-07 8.03536e-07 3.89555e-05
0.000638882 -0.00011011 1.45394e-06
-0.00011011 0.000140906 -6.84055e-06
1.45394e-06 -6.84055e-06 -4.62367e-05
0.000789348 2.15654e-06 2.45704e-06
2.15654e-06 0.00022779 -4.63771e-06
2.45704e-06 -4.63771e-06 9.14727e-05
0.000623695 2.55001e-06 -3.82595e-08
2.55001e-06 0.000108461 1.06307e-07
-3.82595e-08 1.06307e-07 1.3965e-05
0.000537685 -3.26204e-05 -7.03253e-06
-3.26204e-05 1.68408e-05 3.21996e-06
-7.03253e-06 3.21996e-06 -7.13759e-05
0.00246184 -0.000253399 1.6198e-06
-0.000253399 0.000124121 1.10676e-06
1.6198e-06 1.10676e-06 0.000191539
0.00058966 -2.45949e-05 4.88766e-07
-2.45949e-05 9.37956e-05 4.41864e-07
4.88766e-07 4.41864e-07 -2.12162e-05
0.000803809 -1.70433e-05 4.40479e-06
-1.70433e-05 0.000185795 -7.55847e-07
4.40479e-06 -7.55847e-07 7.84695e-05
-1.09318e-05 -2.93803e-06 1.22014e-06
-2.93803e-06 -0.000286519 9.40248e-07
1.22014e-06 9.40248e-07 -0.000363285
0.00184705 -0.000389773 5.99035e-08
-0.000389773 -0.000274522 -1.28042e-06
5.99035e-08 -1.28042e-06 -0.000129976
0.00207698 -0.000644203 2.04497e-06
-0.000644203 8.12366e-05 -1.13135e-06
2.04497e-06 -1.13135e-06 -6.3752e-05
0.00173809 -0.000631809 -1.337e-06
-0.000631809 0.000511868 -7.29422e-08
-1.337e-06 -7.29422e-08 0.000127514
0.00224072 -0.000767299 -5.95982e-06
-0.000767299 0.000460709 1.41841e-06
-5.95982e-06 1.41841e-06 0.000192185
0.00124744 -9.9942e-05 -9.21788e-07
-9.9942e-05 0.000489038 1.17694e-06
-9.21788e-07 1.17694e-06 0.000338815
0.000403019 -5.90713e-05 3.02395e-06
-5.90713e-05 -5.59993e-05 8.58673e-07
3.02395e-06 8.58673e-07 -0.000217177
0.00145854 -0.000758272 4.31118e-06
-0.000758272 0.000696282 -1.18052e-06
4.31118e-06 -1.18052e-06 8.61629e-05
0.0011913 -0.000280189 -2.42944e-06
-0.000280189 0.000541899 -3.7721e-07
-2.42944e-06 -3.7721e-07 0.000126759
0.00283284 -0.000345739 -2.80455e-05
-0.000345739 0.000218782 -5.20424e-07
-2.80455e-05 -5.20424e-07 0.000427799
0.002389 -0.000525617 -3.92388e-05
-0.000525617 0.000172788 1.08701e-05
-3.92388e-05 1.08701e-05 0.000210734
0.0023842 -0.000775569 -7.21391e-06
-0.000775569 0.000383548 -1.9759e-06
-7.21391e-06 -1.9759e-06 0.000129213
0.00219416 -0.000711321 -1.38871e-05
-0.000711321 0.00061518 -1.39925e-07
-1.38871e-05 -1.39925e-07 0.000352782
0.000371721 -4.05615e-05 -5.3935e-07
-4.05615e-05 -1.20114e-05 -2.65247e-06
-5.3935e-07 -2.65247e-06 -0.000134466
0.000238176 -8.05256e-05 -3.5299e-06
-8.05256e-05 -0.000123396 -9.23818e-06
-3.5299e-06 -9.23818e-06 -0.000266743
0.000110368 -0.000146336 -4.5326e-06
-0.000146336 -4.19445e-06 2.38908e-05
-4.5326e-06 2.38908e-05 -0.000258962
-0.000746053 -0.000456756 -5.16748e-06
-0.000456756 -0.00011373 -2.09122e-05
-5.16748e-06 -2.09122e-05 -0.000906389
0.00165005 -0.000494071 3.44212e-05
-0.000494071 -0.0042626 2.13051e-06
3.44212e-05 2.13051e-06 -0.00435091
0.00190885 0.000193911 -2.19902e-07
0.000193911 0.000863775 -4.65091e-06
-2.19902e-07 -4.65091e-06 0.000691926
0.000851252 0.00027779 1.39795e-07
0.00027779 0.000130379 6.46432e-07
1.39795e-07 6.46432e-07 -0.000107909
0.00209003 0.00028426 6.4266e-05
0.00028426 3.16732e-06 1.64659e-05
6.4266e-05 1.64659e-05 8.7468e-05
0.00213405 0.000607178 2.67814e-05
0.000607178 0.000175108 9.37602e-06
2.67814e-05 9.37602e-06 1.30072e-05
0.00208323 0.00063131 1.33499e-05
0.00063131 0.0005401 1.15588e-05
1.33499e-05 1.15588e-05 0.00016987
0.00149505 0.000474396 7.12301e-06
0.000474396 0.000368675 6.80216e-06
7.12301e-06 6.80216e-06 2.15965e-05
0.00422043 0.000916392 0.000106928
0.000916392 0.000255156 4.18694e-05
0.000106928 4.18694e-05 -8.40148e-05
0.00134277 0.000247167 4.62192e-06
0.000247167 0.000560674 2.93517e-07
4.62192e-06 2.93517e-07 0.000361659
0.00255447 0.000526893 -1.27047e-05
0.000526893 0.0003794 -1.11483e-07
-1.27047e-05 -1.11483e-07 0.000344925
0.00107396 0.000367312 -2.03146e-06
0.000367312 0.000167179 2.10382e-06
-2.03146e-06 2.10382e-06 -0.00010249
0.00135004 0.000505577 1.70073e-06
0.000505577 0.000250356 -4.36114e-06
1.70073e-06 -4.36114e-06 -9.89052e-05
0.00154737 0.000657954 -8.1712e-06
0.000657954 3.2324e-05 -3.05702e-07
-8.1712e-06 -3.05702e-07 -0.00018726
0.00366992 -0.000521963 -0.000156685
-0.000521963 -0.00368005 -5.18117e-05
-0.000156685 -5.18117e-05 -0.0047129
0.00703984 0.00116287 -6.81909e-05
0.00116287 0.000517031 -6.29563e-05
-6.81909e-05 -6.29563e-05 0.000582044
0.00119737 0.00084964 -1.05275e-05
0.00084964 -0.000189165 7.83866e-06
-1.05275e-05 7.83866e-06 -0.000576999
-0.00102495 -0.00114231 0.000339655
-0.00114231 0.00200298 0.000145036
0.000339655 0.000145036 -0.000319761
0.00669834 -0.00530441 -0.000302561
-0.00530441 0.00231042 -0.000293287
-0.000302561 -0.000293287 0.00221153
0.00143184 0.0002724 -1.23261e-05
0.0002724 0.000563955 5.45636e-07
-1.23261e-05 5.45636e-07 0.000372516
0.000499924 0.000517968 0.000465659
0.000517968 0.00303573 4.5482e-05
0.000465659 4.5482e-05 0.0013981
0.00164323 -0.00163922 -0.000158226
-0.00163922 0.0040046 -0.000215705
-0.000158226 -0.000215705 0.000434386
0.00256197 0.000819187 -4.42904e-05
0.000819187 0.00041419 -1.02228e-05
-4.42904e-05 -1.02228e-05 0.000334243
0.000818586 0.000251424 -2.12693e-05
0.000251424 3.08518e-05 -6.872e-06
-2.12693e-05 -6.872e-06 -0.000199819
0.000670923 0.00052489 -3.21987e-05
0.00052489 -7.80244e-05 -2.29829e-05
-3.21987e-05 -2.29829e-05 -0.000379878
0.000280433 0.00084249 3.59413e-05
0.00084249 -0.000638424 8.63887e-05
3.59413e-05 8.63887e-05 -0.000916111
0.0122804 0.00161171 1.63485e-05
0.00161171 0.00223318 -5.18388e-05
1.63485e-05 -5.18388e-05 0.000732113
0.0026835 0.00158089 -4.74437e-06
0.00158089 1.31662e-05 -2.6611e-05
-4.74437e-06 -2.6611e-05 -0.00057639
0.00808402 -0.00459051 0.000708611
-0.00459051 0.00178239 0.000425523
0.000708611 0.000425523 0.000421272
0.00969121 -0.00219337 -4.96657e-05
-0.00219337 0.00135247 0.000435866
-4.96657e-05 0.000435866 0.000978365
0.000506459 7.33717e-05 6.3644e-06
7.33717e-05 8.00609e-05 -2.03405e-06
6.3644e-06 -2.03405e-06 -3.69063e-07
0.00045314 0.000117814 7.24507e-06
0.000117814 4.89394e-05 3.72934e-07
7.24507e-06 3.72934e-07 -5.377e-05
0.00172921 0.00023922 1.70174e-06
0.00023922 0.000825879 -3.26673e-06
1.70174e-06 -3.26673e-06 0.00067514
0.000596743 1.04445e-05 8.19072e-07
1.04445e-05 0.000101838 -7.12102e-07
8.19072e-07 -7.12102e-07 -2.42746e-05
0.000694026 5.40456e-05 -1.17728e-06
5.40456e-05 0.000150255 -1.56129e-06
-1.17728e-06 -1.56129e-06 8.17124e-06
0.000345237 1.31123e-05 -1.48373e-06
1.31123e-05 -6.81351e-05 5.83209e-07
-1.48373e-06 5.83209e-07 -0.000202029
0.000568105 8.30345e-05 -5.93089e-06
8.30345e-05 6.65388e-05 1.12701e-06
-5.93089e-06 1.12701e-06 -7.24682e-05
-0.000224795 4.89854e-05 -3.18645e-06
4.89854e-05 -0.000449636 1.04954e-06
-3.18645e-06 1.04954e-06 -0.000511806
0.00038738 -9.95018e-06 1.97064e-07
-9.95018e-06 -4.4473e-05 9.26138e-07
1.97064e-07 9.26138e-07 -0.000164409
0.00099712 8.3734e-05 1.38586e-06
8.3734e-05 0.000333155 -1.52683e-07
1.38586e-06 -1.52683e-07 0.00018178
0.000691138 4.42127e-05 6.13904e-07
4.42127e-05 0.000154309 3.16831e-07
6.13904e-07 3.16831e-07 7.0929e-06
0.000713858 2.3365e-05 1.12089e-06
2.3365e-05 0.000167775 -4.58912e-07
1.12089e-06 -4.58912e-07 1.31662e-05
0.000573002 9.40337e-05 -3.19226e-07
9.40337e-05 9.75126e-05 -1.78688e-06
-3.19226e-07 -1.78688e-06 -4.29046e-05
0.00115557 9.78371e-05 -2.01241e-06
9.78371e-05 0.000448789 -1.89581e-06
-2.01241e-06 -1.89581e-06 0.000295939
-0.000170223 3.62072e-05 -4.48561e-06
3.62072e-05 -0.000295354 -4.48158e-06
-4.48561e-06 -4.48158e-06 -0.000451656
0.000733253 -9.14806e-05 -1.43383e-07
-9.14806e-05 0.000172701 -1.38105e-07
-1.43383e-07 -1.38105e-07 2.4057e-05
0.000767512 -7.07033e-05 -5.79688e-07
-7.07033e-05 0.000210103 -2.61744e-08
-5.79688e-07 -2.61744e-08 5.36343e-05
0.00075491 -3.77334e-05 -1.59531e-07
-3.77334e-05 0.000199941 -3.13561e-07
-1.59531e-07 -3.13561e-07 4.51404e-05
0.000788244 -1.00543e-05 -2.28105e-06
-1.00543e-05 0.000193248 -1.35823e-07
-2.28105e-06 -1.35823e-07 6.43513e-05
0.000795934 2.29948e-05 -4.62771e-06
2.29948e-05 0.00023547 -3.59836e-06
-4.62771e-06 -3.59836e-06 6.68799e-05
0.000714049 -1.20617e-05 1.96143e-06
-1.20617e-05 0.000164488 -5.28799e-06
1.96143e-06 -5.28799e-06 3.47708e-05
-0.000437207 -2.33673e-05 -1.23015e-06
-2.33673e-05 -0.000551119 -4.81643e-06
-1.23015e-06 -4.81643e-06 -0.000659412
0.000604472 -3.1443e-05 1.52428e-06
-3.1443e-05 7.52173e-05 -9.53723e-07
1.52428e-06 -9.53723e-07 -5.70388e-05
0.000451442 -6.81714e-05 1.76753e-06
-6.81714e-05 -2.39577e-06 1.12921e-06
1.76753e-06 1.12921e-06 -0.00012562
0.000677646 -6.91625e-05 -9.5524e-07
-6.91625e-05 0.000156395 -3.0217e-07
-9.5524e-07 -3.0217e-07 2.06553e-05
0.000564079 -7.12275e-05 -2.11009e-06
-7.12275e-05 4.82577e-05 1.41377e-06
-2.11009e-06 1.41377e-06 -5.25175e-05
0.000522681 -5.554e-05 2.44113e-06
-5.554e-05 3.23858e-05 3.18693e-07
2.44113e-06 3.18693e-07 -9.25562e-05
0.000542901 -9.68185e-05 1.06269e-07
-9.68185e-05 4.72539e-05 2.49864e-07
1.06269e-07 2.49864e-07 -6.61987e-05
0.000572129 -3.9726e-05 -2.38641e-06
-3.9726e-05 3.91347e-05 3.37523e-06
-2.38641e-06 3.37523e-06 -2.93471e-05
0.000432359 -6.98042e-06 1.45196e-06
-6.98042e-06 -9.47167e-06 -7.80336e-07
1.45196e-06 -7.80336e-07 -0.000135015
0.000530385 1.0987e-06 1.75131e-06
1.0987e-06 2.21872e-05 4.79261e-08
1.75131e-06 4.79261e-08 -4.91781e-05
0.00142067 -9.01233e-06 -5.49715e-06
-9.01233e-06 0.000537156 6.08196e-06
-5.49715e-06 6.08196e-06 0.000520711
0.00053166 5.32734e-05 -1.07128e-06
5.32734e-05 2.26083e-05 -2.9143e-06
-1.07128e-06 -2.9143e-06 -4.79459e-05
0.000902873 -6.52724e-06 -2.77081e-06
-6.52724e-06 0.000224275 7.55913e-07
-2.77081e-06 7.55913e-07 0.000205984
0.000783233 2.86222e-06 -3.88861e-06
2.86222e-06 0.000141411 4.83313e-06
-3.88861e-06 4.83313e-06 0.000147351
0.000465047 -4.21834e-06 1.75361e-06
-4.21834e-06 -4.45648e-05 -4.33736e-06
1.75361e-06 -4.33736e-06 -6.46124e-05
0.00247053 1.19171e-06 5.389e-06
1.19171e-06 0.00117472 -1.35743e-08
5.389e-06 -1.35743e-08 0.00118856
0.000873136 -8.70186e-07 -5.25337e-06
-8.70186e-07 0.000192753 -5.13073e-06
-5.25337e-06 -5.13073e-06 0.000198442
0.000533611 6.36937e-05 2.61515e-06
6.36937e-05 4.78202e-05 5.60235e-07
2.61515e-06 5.60235e-07 -4.32205e-05
0.000509377 4.17338e-05 -1.76379e-06
4.17338e-05 -4.85662e-06 -1.74929e-06
-1.76379e-06 -1.74929e-06 -4.74819e-05
0.000528089 -6.17069e-06 1.28676e-06
-6.17069e-06 4.77363e-06 3.11091e-08
1.28676e-06 3.11091e-08 -3.86487e-05
0.000536637 8.43103e-06 8.22498e-07
8.43103e-06 -2.13213e-05 -2.94938e-06
8.22498e-07 -2.94938e-06 -2.92136e-05
0.000574452 -4.82718e-05 -1.83662e-06
-4.82718e-05 3.0729e-05 1.57819e-06
-1.83662e-06 1.57819e-06 -1.57465e-05
0.000513244 1.37859e-05 5.90221e-08
1.37859e-05 -3.66931e-05 -7.52327e-07
5.90221e-08 -7.52327e-07 -4.49208e-05
0.00198279 3.18331e-05 6.01123e-06
3.18331e-05 0.000874972 -4.45681e-06
6.01123e-06 -4.45681e-06 0.000892108
0.00109994 3.39434e-05 -6.41278e-07
3.39434e-05 0.000328062 1.76957e-06
-6.41278e-07 1.76957e-06 0.000320777
0.00145533 4.04029e-05 -8.83939e-08
4.04029e-05 0.000554116 1.38201e-06
-8.83939e-08 1.38201e-06 0.0005652
0.000883381 4.4086e-05 -1.08935e-05
4.4086e-05 0.00020731 7.27839e-06
-1.08935e-05 7.27839e-06 0.000212082
0.00108858 0.000259955 8.7779e-05
0.000259955 -0.00151054 1.43222e-05
8.7779e-05 1.43222e-05 -0.00116799
0.00211393 -4.06811e-05 -1.27838e-06
-4.06811e-05 -5.23414e-05 3.12022e-06
-1.27838e-06 3.12022e-06 -1.62625e-06
0.00201414 7.25604e-05 3.63367e-05
7.25604e-05 0.000119476 -1.4837e-05
3.63367e-05 -1.4837e-05 0.00021933
0.00201694 0.000236595 -3.74186e-05
0.000236595 -0.00150918 -2.67917e-05
-3.74186e-05 -2.67917e-05 -0.000648466
0.00194538 9.14168e-05 2.89028e-05
9.14168e-05 -0.000622411 -1.78109e-06
2.89028e-05 -1.78109e-06 -0.000344875
0.00241826 -3.51197e-05 2.61565e-06
-3.51197e-05 0.000353699 -6.42059e-06
2.61565e-06 -6.42059e-06 0.000363174
0.00386493 -0.000194411 -4.77271e-05
-0.000194411 0.000886875 -1.06609e-05
-4.77271e-05 -1.06609e-05 0.000865198
0.00261541 -9.86174e-05 2.84484e-05
-9.86174e-05 2.57884e-06 2.35799e-05
2.84484e-05 2.35799e-05 9.76157e-05
0.0127924 -0.000695865 6.83886e-06
-0.000695865 0.00254387 3.06995e-05
6.83886e-06 3.06995e-05 0.00108197
0.0133039 0.00351353 0.000878155
0.00351353 0.00538778 -0.000357789
0.000878155 -0.000357789 0.00401772
0.0113522 0.0040272 -1.41223e-05
0.0040272 0.00778884 7.85299e-06
-1.41223e-05 7.85299e-06 0.00675174
0.000327776 -9.59425e-05 1.40368e-06
-9.59425e-05 -6.78547e-05 -2.98692e-07
1.40368e-06 -2.98692e-07 -0.000170129
0.000586951 -1.0536e-05 1.28782e-06
-1.0536e-05 7.7848e-05 -1.40198e-07
1.28782e-06 -1.40198e-07 -8.0473e-06
0.00066766 -8.6712e-05 -1.39237e-06
-8.6712e-05 0.000138016 1.39376e-06
-1.39237e-06 1.39376e-06 4.23068e-05
0.000584444 -4.51133e-05 1.00679e-07
-4.51133e-05 8.24481e-05 4.48132e-07
1.00679e-07 4.48132e-07 -2.20254e-05
0.000646107 6.78051e-05 -2.17152e-06
6.78051e-05 0.000145873 2.20707e-06
-2.17152e-06 2.20707e-06 2.44966e-05
0.000424489 0.000114285 2.05171e-06
0.000114285 -2.9562e-05 5.65303e-06
2.05171e-06 5.65303e-06 -0.000142036
0.00094395 -1.74231e-05 3.67452e-06
-1.74231e-05 0.000321607 1.76972e-06
3.67452e-06 1.76972e-06 0.000197861
0.000504076 -2.46855e-05 -1.46928e-06
-2.46855e-05 3.61942e-05 1.15639e-06
-1.46928e-06 1.15639e-06 -6.85458e-05
0.00239537 -0.000239437 5.36918e-06
-0.000239437 7.96095e-05 1.05541e-07
5.36918e-06 1.05541e-07 0.000171444
0.00184393 -0.000404751 1.31501e-05
-0.000404751 -0.000315269 -4.96839e-06
1.31501e-05 -4.96839e-06 -0.000178977
0.00203546 -0.000637268 5.89454e-06
-0.000637268 6.03273e-05 7.87149e-07
5.89454e-06 7.87149e-07 -7.90598e-05
0.00167379 -0.000620875 2.18072e-05
-0.000620875 0.000461868 6.79518e-07
2.18072e-05 6.79518e-07 8.44794e-05
0.00194916 -0.000756311 2.71304e-06
-0.000756311 0.000298059 5.63483e-06
2.71304e-06 5.63483e-06 2.84686e-05
0.00332575 -0.000896171 1.7242e-05
-0.000896171 0.00173834 1.10812e-06
1.7242e-05 1.10812e-06 0.00110457
0.00310119 -0.000454503 2.53208e-06
-0.000454503 0.00147861 -3.27964e-06
2.53208e-06 -3.27964e-06 0.00114127
0.000553004 -0.00013882 8.5955e-06
-0.00013882 5.70165e-05 -1.36852e-05
8.5955e-06 -1.36852e-05 -0.000134623
0.000552576 -4.94863e-05 -6.11752e-07
-4.94863e-05 3.24807e-05 3.96948e-06
-6.11752e-07 3.96948e-06 -6.59053e-05
0.000646573 -8.42013e-05 6.48829e-06
-8.42013e-05 9.97208e-05 -1.75359e-05
6.48829e-06 -1.75359e-05 -3.41485e-05
0.000948609 -3.23903e-05 1.96598e-06
-3.23903e-05 0.000313332 -2.45256e-07
1.96598e-06 -2.45256e-07 0.000193192
0.00057175 4.72851e-05 2.03482e-06
4.72851e-05 7.43999e-05 1.34376e-06
2.03482e-06 1.34376e-06 1.39278e-05
0.00217717 -0.000316793 -1.44e-06
-0.000316793 -7.63294e-05 3.2171e-06
-1.44e-06 3.2171e-06 0.000118375
0.000548621 -1.86947e-05 -2.03366e-06
-1.86947e-05 9.34629e-05 -1.01081e-06
-2.03366e-06 -1.01081e-06 -3.04364e-05
0.000948025 -0.000140418 -5.15046e-06
-0.000140418 0.000300823 5.39956e-06
-5.15046e-06 5.39956e-06 0.000168742
0.0017271 -0.000498895 4.71618e-06
-0.000498895 -0.000201416 -1.97841e-06
4.71618e-06 -1.97841e-06 -0.000148756
0.0016847 -0.000691111 5.05083e-07
-0.000691111 -9.84297e-07 -8.79159e-07
5.05083e-07 -8.79159e-07 -0.000205159
0.000881154 -0.000580351 -5.54899e-07
-0.000580351 -0.000117103 -1.20656e-06
-5.54899e-07 -1.20656e-06 -0.000363559
0.00142312 -0.000245737 9.76349e-07
-0.000245737 0.000709052 -1.23971e-05
9.76349e-07 -1.23971e-05 0.000431165
0.00142052 -0.000502448 -2.12126e-06
-0.000502448 0.000996138 2.46792e-06
-2.12126e-06 2.46792e-06 0.000316921
0.0035533 -0.000524352 -3.93796e-05
-0.000524352 0.00057712 7.40196e-06
-3.93796e-05 7.40196e-06 0.000700024
0.00347156 -0.000752461 -4.69842e-05
-0.000752461 0.000950821 1.42627e-05
-4.69842e-05 1.42627e-05 0.000850303
0.00209598 -0.000793585 -8.34985e-06
-0.000793585 0.000311601 1.09712e-06
-8.34985e-06 1.09712e-06 0.000101335
-0.000123979 -0.000393885 -1.56113e-05
-0.000393885 -0.000438726 1.5967e-05
-1.56113e-05 1.5967e-05 -0.000626527
0.000518608 -0.000139434 1.94087e-06
-0.000139434 8.99431e-05 5.21524e-06
1.94087e-06 5.21524e-06 -8.06368e-05
0.000516485 -0.000144267 4.06256e-06
-0.000144267 0.000131265 6.11425e-07
4.06256e-06 6.11425e-07 -6.44687e-05
0.00153668 -0.000176854 -2.03396e-06
-0.000176854 0.00102902 -1.21818e-05
-2.03396e-06 -1.21818e-05 0.000495498
-0.00618696 -0.000223547 0.000381797
-0.000223547 -0.00458648 1.74402e-07
0.000381797 1.74402e-07 -0.00335437
0.010882 -0.000226906 3.98914e-05
-0.000226906 0.00212338 4.27341e-06
3.98914e-05 4.27341e-06 0.00171217
0.00159173 0.000217546 7.83307e-06
0.000217546 0.000680437 -6.38639e-06
7.83307e-06 -6.38639e-06 0.000503969
0.00133794 0.000395441 -1.83149e-06
0.000395441 0.000356393 3.37944e-06
-1.83149e-06 3.37944e-06 7.68928e-05
0.00179161 0.000437808 7.12109e-05
0.000437808 -2.86457e-05 3.27936e-05
7.12109e-05 3.27936e-05 -3.68021e-05
0.00284252 0.000771152 2.60085e-05
0.000771152 0.000713001 8.1498e-06
2.60085e-05 8.1498e-06 0.0004668
0.00267303 0.000663028 1.68312e-05
0.000663028 0.000998995 5.02535e-06
1.68312e-05 5.02535e-06 0.00062503
0.0133948 0.000693317 7.00748e-05
0.000693317 0.00308295 1.91224e-06
7.00748e-05 1.91224e-06 0.00205004
0.00804399 0.00159542 -0.000192479
0.00159542 0.000231835 2.11091e-05
-0.000192479 2.11091e-05 0.000357934
0.00244697 0.000883956 5.1052e-06
0.000883956 0.000549136 -2.76423e-05
5.1052e-06 -2.76423e-05 8.03115e-05
0.011522 -0.0026945 -0.000301855
-0.0026945 0.00496178 -1.69597e-05
-0.000301855 -1.69597e-05 0.00333181
-0.00308572 -0.00540296 -0.00154127
-0.00540296 -0.000215579 -0.00107572
-0.00154127 -0.00107572 -0.000671248
0.000997243 0.000266201 6.67369e-07
0.000266201 0.000342992 3.62043e-07
6.67369e-07 3.62043e-07 0.000137107
-0.00236877 -0.00156117 0.000287109
-0.00156117 -0.00267544 5.05002e-05
0.000287109 5.05002e-05 -0.00363589
-0.00335934 -0.00119036 -0.000308954
-0.00119036 0.00332067 -0.000148795
-0.000308954 -0.000148795 -0.000586111
0.00303358 0.000772183 -1.67296e-05
0.000772183 0.000652055 -6.22498e-07
-1.67296e-05 -6.22498e-07 0.000593623
0.00101035 0.000336417 -5.66011e-06
0.000336417 0.000177079 4.28648e-06
-5.66011e-06 4.28648e-06 -8.90443e-05
0.00146776 0.000641337 4.12655e-06
0.000641337 0.000354016 2.28768e-06
4.12655e-06 2.28768e-06 1.95596e-05
0.00150933 0.000803256 3.5082e-05
0.000803256 0.000186931 2.13848e-05
3.5082e-05 2.13848e-05 2.19015e-05
0.0129726 0.00147303 -0.000113865
0.00147303 0.00175561 -6.30805e-05
-0.000113865 -6.30805e-05 -0.000179688
0.00546307 0.00222932 -6.72228e-05
0.00222932 0.000574429 -4.47871e-05
-6.72228e-05 -4.47871e-05 0.000359626
0.0154378 -0.00333888 0.000315974
-0.00333888 0.00629174 -2.38723e-05
0.000315974 -2.38723e-05 0.00475506
0.0103907 -0.00287599 0.000198386
-0.00287599 0.000527289 0.00053608
0.000198386 0.00053608 0.000208869
0.00224301 0.000312729 -1.92977e-05
0.000312729 0.00107119 -1.21826e-05
-1.92977e-05 -1.21826e-05 0.000894211
-0.00939478 0.000807172 -0.00011852
0.000807172 0.00224949 -0.000108008
-0.00011852 -0.000108008 -0.00254857
0.00417084 0.00058642 -0.000275375
0.00058642 0.00290356 -0.000363143
-0.000275375 -0.000363143 -0.00116485
0.00218845 0.000622044 -2.56294e-05
0.000622044 0.000445266 9.08351e-06
-2.56294e-05 9.08351e-06 0.000450544
0.00187974 0.000579362 -6.31326e-05
0.000579362 0.00073079 -2.44365e-05
-6.31326e-05 -2.44365e-05 0.000443375
0.00159282 0.000628232 -6.50864e-05
0.000628232 0.0010897 -1.487e-05
-6.50864e-05 -1.487e-05 0.000496264
0.000126207 0.0013882 -6.27922e-05
0.0013882 -0.000262697 -3.36359e-05
-6.27922e-05 -3.36359e-05 -0.000443503
-0.000631391 0.00175022 0.000271363
0.00175022 -0.00153496 0.000131386
0.000271363 0.000131386 -0.00455158
0.0148927 -0.00401414 0.000230817
-0.00401414 0.00651677 0.00050621
0.000230817 0.00050621 0.0043869
0.00732221 -0.00124107 -0.000105287
-0.00124107 -0.00203671 -0.000103453
-0.000105287 -0.000103453 -0.000873322
-0.000340612 0.000105399 2.7195e-06
0.000105399 -0.000396603 -5.63504e-06
2.7195e-06 -5.63504e-06 -0.000517202
0.00131867 0.00021718 9.38326e-06
0.00021718 0.000565074 3.62828e-06
9.38326e-06 3.62828e-06 0.000416742
-0.000188882 8.36042e-05 2.48121e-06
8.36042e-05 -0.000276365 -1.1511e-05
2.48121e-06 -1.1511e-05 -0.000421038
0.000369791 5.07945e-05 1.85243e-06
5.07945e-05 -5.46983e-05 -7.60239e-07
1.85243e-06 -7.60239e-07 -0.000174253
0.000824388 6.35607e-05 -8.32483e-07
6.35607e-05 0.000241611 -1.60695e-06
-8.32483e-07 -1.60695e-06 8.28253e-05
0.000661461 -1.35465e-06 -1.37255e-06
-1.35465e-06 0.000140941 1.77878e-06
-1.37255e-06 1.77878e-06 -1.09913e-05
0.000661391 3.46432e-05 4.71625e-06
3.46432e-05 0.000138792 8.95015e-07
4.71625e-06 8.95015e-07 -1.42544e-05
0.000240402 6.95499e-05 -2.71287e-06
6.95499e-05 -9.83812e-05 1.32788e-06
-2.71287e-06 1.32788e-06 -0.000232778
0.000746927 4.58149e-05 1.1616e-07
4.58149e-05 0.0001982 -8.95422e-07
1.1616e-07 -8.95422e-07 4.19423e-05
0.000777319 6.74857e-05 6.69294e-07
6.74857e-05 0.000210983 -9.52608e-08
6.69294e-07 -9.52608e-08 6.5825e-05
0.000798412 -5.29644e-05 -8.81602e-07
-5.29644e-05 0.000212412 1.35682e-06
-8.81602e-07 1.35682e-06 6.21215e-05
-0.000383818 2.95708e-05 1.57937e-06
2.95708e-05 -0.000397664 7.8424e-07
1.57937e-06 7.8424e-07 -0.000560945
-0.000761236 2.96714e-05 -1.73544e-06
2.96714e-05 -0.000382461 3.05447e-06
-1.73544e-06 3.05447e-06 -0.000665696
0.000818725 -1.17683e-05 -4.68633e-06
-1.17683e-05 0.000260255 -6.53008e-06
-4.68633e-06 -6.53008e-06 0.000114382
0.000920801 -9.05995e-06 1.35283e-07
-9.05995e-06 0.000310401 -7.35466e-07
1.35283e-07 -7.35466e-07 0.000138465
0.000789866 -6.71383e-05 -3.21906e-07
-6.71383e-05 0.000227807 -1.00699e-06
-3.21906e-07 -1.00699e-06 6.74811e-05
0.000745238 -5.95829e-05 1.84467e-06
-5.95829e-05 0.000158537 4.04868e-06
1.84467e-06 4.04868e-06 3.65245e-05
0.000788911 -5.84651e-05 9.37622e-07
-5.84651e-05 0.000218832 -1.18687e-06
9.37622e-07 -1.18687e-06 5.83955e-05
0.000737154 -1.78563e-05 -1.27941e-06
-1.78563e-05 0.000171284 4.31352e-08
-1.27941e-06 4.31352e-08 4.29637e-05
3.23387e-05 -6.03468e-05 1.30282e-06
-6.03468e-05 -0.000252413 2.55919e-06
1.30282e-06 2.55919e-06 -0.000359913
0.000408588 -1.75537e-05 1.63375e-06
-1.75537e-05 -1.51291e-05 -1.60701e-07
1.63375e-06 -1.60701e-07 -0.000146939
0.000213708 -6.07358e-06 -5.17524e-06
-6.07358e-06 -0.0001113 -4.56094e-06
-5.17524e-06 -4.56094e-06 -0.000253854
0.000136163 -6.05208e-05 2.99813e-06
-6.05208e-05 -0.000158382 -3.3803e-06
2.99813e-06 -3.3803e-06 -0.000275322
0.000950024 -7.83881e-05 5.5423e-06
-7.83881e-05 0.00022285 -1.14394e-05
5.5423e-06 -1.14394e-05 0.000124149
-0.000340178 -2.46457e-05 3.16013e-07
-2.46457e-05 -0.000557438 2.24576e-06
3.16013e-07 2.24576e-06 -0.000693339
0.000106929 -2.98566e-05 -3.52829e-06
-2.98566e-05 -0.000212698 -1.90579e-06
-3.52829e-06 -1.90579e-06 -0.000346032
0.000741482 -4.89877e-05 5.66531e-07
-4.89877e-05 0.000154345 -4.07264e-07
5.66531e-07 -4.07264e-07 2.0306e-05
0.000388086 -3.56394e-05 4.29667e-07
-3.56394e-05 -4.8768e-05 6.21467e-09
4.29667e-07 6.21467e-09 -0.000177952
0.000710873 -7.20003e-05 4.30593e-07
-7.20003e-05 0.000174295 4.33335e-08
4.30593e-07 4.33335e-08 3.64889e-05
0.000505253 -1.35469e-05 3.16224e-07
-1.35469e-05 1.93181e-05 1.63867e-06
3.16224e-07 1.63867e-06 -8.66381e-05
0.000869478 -6.4178e-05 -1.50037e-06
-6.4178e-05 0.000269785 2.92116e-07
-1.50037e-06 2.92116e-07 0.00013506
0.000635095 -6.59438e-05 -8.84274e-07
-6.59438e-05 0.000103006 4.4062e-08
-8.84274e-07 4.4062e-08 -5.67919e-06
0.000477172 3.54423e-05 -8.07891e-07
3.54423e-05 -1.9863e-05 3.09159e-06
-8.07891e-07 3.09159e-06 -8.9554e-05
0.000483062 -8.76708e-05 2.05984e-06
-8.76708e-05 5.00093e-06 -8.65624e-07
2.05984e-06 -8.65624e-07 -0.000105859
0.000547851 -2.32919e-05 -3.69725e-07
-2.32919e-05 2.21556e-05 8.65715e-08
-3.69725e-07 8.65715e-08 -4.45784e-05
0.00141319 9.70982e-06 -6.06971e-06
9.70982e-06 0.000528213 6.44009e-06
-6.06971e-06 6.44009e-06 0.000510878
0.000534365 -4.55878e-05 1.4949e-06
-4.55878e-05 2.09851e-05 -2.77261e-06
1.4949e-06 -2.77261e-06 -4.79413e-05
0.000902185 -6.42146e-06 -4.10493e-06
-6.42146e-06 0.000219455 7.21471e-07
-4.10493e-06 7.21471e-07 0.000201031
0.000757085 1.37522e-05 6.34058e-07
1.37522e-05 0.000119044 2.08241e-06
6.34058e-07 2.08241e-06 0.000124589
0.000474816 -6.52597e-06 1.62162e-06
-6.52597e-06 -3.98422e-05 -4.20218e-06
1.62162e-06 -4.20218e-06 -5.9568e-05
0.00247707 1.38259e-05 5.84304e-06
1.38259e-05 0.00117886 5.07887e-08
5.84304e-06 5.07887e-08 0.00119265
0.00247973 2.12054e-06 -4.14007e-07
2.12054e-06 0.00118041 -5.09568e-06
-4.14007e-07 -5.09568e-06 0.00119422
0.000995297 7.41813e-05 -4.41488e-07
7.41813e-05 0.000326368 -8.54919e-08
-4.41488e-07 -8.54919e-08 0.000234714
0.000540384 5.07377e-05 -1.29478e-06
5.07377e-05 1.81151e-05 -2.13285e-06
-1.29478e-06 -2.13285e-06 -2.83667e-05
0.00058331 -1.30681e-05 3.41987e-07
-1.30681e-05 7.9349e-05 8.56116e-07
3.41987e-07 8.56116e-07 -1.15e-05
0.00053115 4.90849e-06 8.49282e-07
4.90849e-06 -2.46377e-05 -3.20835e-06
8.49282e-07 -3.20835e-06 -3.2344e-05
0.000519563 -1.5019e-05 4.21361e-07
-1.5019e-05 1.49769e-06 -7.50454e-08
4.21361e-07 -7.50454e-08 -4.11629e-05
0.0005666 -4.84348e-05 -1.58276e-06
-4.84348e-05 3.00096e-05 1.31507e-06
-1.58276e-06 1.31507e-06 -1.4877e-05
0.000521808 7.48987e-06 -3.64777e-07
7.48987e-06 -3.06417e-05 -2.6398e-08
-3.64777e-07 -2.6398e-08 -3.84458e-05
0.00197769 1.84237e-05 1.17673e-06
1.84237e-05 0.000869374 -4.60029e-06
1.17673e-06 -4.60029e-06 0.000887491
0.00109807 2.20212e-05 -7.79767e-07
2.20212e-05 0.000324212 1.79638e-06
-7.79767e-07 1.79638e-06 0.000319068
0.00133995 2.65573e-05 -2.54222e-07
2.65573e-05 0.000477845 -1.58293e-08
-2.54222e-07 -1.58293e-08 0.000491702
0.000821742 3.15533e-05 -1.08978e-05
3.15533e-05 0.000163468 6.99092e-06
-1.08978e-05 6.99092e-06 0.000171732
-0.00933883 0.000779165 0.00032462
0.000779165 -0.0036768 -3.68219e-06
0.00032462 -3.68219e-06 -0.00555311
-0.00229618 -0.000104172 0.00061046
-0.000104172 0.00419461 -0.000140963
0.00061046 -0.000140963 0.00143115
0.00365798 0.000263441 -0.000199789
0.000263441 -0.000918794 -2.42645e-05
-0.000199789 -2.42645e-05 0.000150595
0.000867884 4.99748e-05 2.21885e-05
4.99748e-05 -0.00116305 -3.42514e-05
2.21885e-05 -3.42514e-05 -0.000890212
0.00156144 -5.24344e-05 1.1433e-05
-5.24344e-05 -0.000231178 8.18338e-06
1.1433e-05 8.18338e-06 -0.000220375
-0.000773558 5.51507e-05 -5.63516e-05
5.51507e-05 -0.00110751 -1.68192e-05
-5.63516e-05 -1.68192e-05 -0.000568711
0.00345214 -0.00024216 -2.05148e-07
-0.00024216 0.000484999 4.75616e-06
-2.05148e-07 4.75616e-06 0.000514667
0.0107721 1.62894e-05 0.000123256
1.62894e-05 0.000314984 -4.54439e-05
0.000123256 -4.54439e-05 -0.000663429
-0.00116596 0.00226993 -8.87875e-06
0.00226993 9.85599e-05 -4.13007e-05
-8.87875e-06 -4.13007e-05 -0.00231211
0.004822 0.0044983 -0.00031413
0.0044983 0.00404253 0.000169369
-0.00031413 0.000169369 0.00347337
0.00222984 -0.000477083 7.09268e-05
-0.000477083 -0.00123686 -3.34681e-05
7.09268e-05 -3.34681e-05 -0.000647993
0.0143809 -0.00126859 0.000165867
-0.00126859 0.00257084 -5.67975e-05
0.000165867 -5.67975e-05 0.000937229
0.00890897 0.00435272 0.000295616
0.00435272 0.00208703 -0.000439072
0.000295616 -0.000439072 0.000928536
0.0129822 0.0028732 -0.000295663
0.0028732 0.00306022 0.000208863
-0.000295663 0.000208863 0.00208065
0.000787482 0.0001236 -2.03755e-06
0.0001236 0.000237385 2.9281e-06
-2.03755e-06 2.9281e-06 9.02489e-05
0.00041478 2.7125e-05 5.22592e-08
2.7125e-05 -2.39713e-05 -8.86857e-07
5.22592e-08 -8.86857e-07 -0.000120774
0.00060329 -9.34873e-05 -3.51115e-07
-9.34873e-05 9.48721e-05 6.32507e-07
-3.51115e-07 6.32507e-07 4.08151e-06
0.000575761 -2.72692e-06 2.61685e-06
-2.72692e-06 8.42569e-05 -1.11628e-06
2.61685e-06 -1.11628e-06 -2.4643e-05
0.000611142 5.90528e-05 1.50448e-06
5.90528e-05 0.000130466 1.27083e-06
1.50448e-06 1.27083e-06 7.95384e-06
0.00063322 2.69002e-05 9.74183e-07
2.69002e-05 0.0001396 5.61912e-06
9.74183e-07 5.61912e-06 -7.21601e-06
0.0007373 9.33331e-05 1.22029e-06
9.33331e-05 0.000180147 2.33199e-06
1.22029e-06 2.33199e-06 5.42813e-05
0.00053532 4.22469e-05 5.02176e-06
4.22469e-05 4.17068e-05 9.39754e-07
5.02176e-06 9.39754e-07 -8.59135e-05
0.000728526 -3.36783e-05 2.19768e-06
-3.36783e-05 0.000189836 -1.05866e-06
2.19768e-06 -1.05866e-06 6.52238e-05
0.000495089 -7.8341e-06 4.04328e-08
-7.8341e-06 1.68659e-05 -1.27695e-06
4.04328e-08 -1.27695e-06 -8.20942e-05
0.00162375 -0.000284962 2.25266e-05
-0.000284962 -0.000301701 -1.8465e-06
2.25266e-05 -1.8465e-06 -0.000132903
0.0010585 -0.000457863 3.43897e-05
-0.000457863 -0.000570774 -8.76327e-06
3.43897e-05 -8.76327e-06 -0.000493569
0.000582484 -0.000568107 1.29995e-05
-0.000568107 -0.000605504 -1.41041e-06
1.29995e-05 -1.41041e-06 -0.000744018
-5.43295e-05 -0.000494088 5.97724e-06
-0.000494088 -0.000624277 1.89972e-06
5.97724e-06 1.89972e-06 -0.000857569
0.00311183 -0.000520308 6.06058e-06
-0.000520308 0.00185576 2.33485e-05
6.06058e-06 2.33485e-05 0.00127786
0.00049734 -0.000343491 6.46941e-06
-0.000343491 0.000144314 -3.98354e-06
6.46941e-06 -3.98354e-06 -0.000185299
0.00143167 -0.000174897 1.13236e-06
-0.000174897 0.000576458 -1.07659e-06
1.13236e-06 -1.07659e-06 0.00045864
0.000829038 -3.21435e-05 -2.70138e-06
-3.21435e-05 0.000262033 2.3888e-06
-2.70138e-06 2.3888e-06 0.000136769
0.00223724 -0.000424494 1.27227e-05
-0.000424494 -6.46335e-05 -6.50819e-06
1.27227e-05 -6.50819e-06 8.61995e-05
0.000526058 -6.53335e-05 -4.31974e-08
-6.53335e-05 9.78644e-05 2.5092e-07
-4.31974e-08 2.5092e-07 -8.17404e-05
-4.61523e-05 -0.000130892 8.19696e-07
-0.000130892 -0.00019624 -3.09199e-06
8.19696e-07 -3.09199e-06 -0.000392646
0.00198309 -0.000636904 1.15403e-05
-0.000636904 0.000135851 -1.75727e-06
1.15403e-05 -1.75727e-06 8.55446e-05
0.00181967 -0.00078654 2.56214e-07
-0.00078654 8.63723e-05 4.3744e-06
2.56214e-07 4.3744e-06 -7.11221e-05
0.000181907 -0.000487073 1.37705e-05
-0.000487073 -0.000255626 -8.69213e-06
1.37705e-05 -8.69213e-06 -0.000496555
0.00135802 -0.000245649 -1.21683e-07
-0.000245649 0.000910162 -1.03515e-05
-1.21683e-07 -1.03515e-05 0.000387846
0.0024193 -0.000658737 -6.11833e-05
-0.000658737 0.000497126 1.84123e-05
-6.11833e-05 1.84123e-05 0.000179691
0.00156201 -0.000615897 -4.38376e-05
-0.000615897 0.000126333 1.27938e-05
-4.38376e-05 1.27938e-05 5.99501e-05
0.00114694 -0.000483396 -6.69223e-05
-0.000483396 0.000560793 4.17103e-05
-6.69223e-05 4.17103e-05 0.000209472
-0.00167342 -0.000123077 -9.70918e-07
-0.000123077 -0.00121029 6.98769e-06
-9.70918e-07 6.98769e-06 -0.00139364
-0.000147354 -0.000110289 4.45277e-06
-0.000110289 -0.000254034 4.94374e-06
4.45277e-06 4.94374e-06 -0.000471307
0.000729819 -6.11121e-05 7.30627e-06
-6.11121e-05 0.000360791 -2.12486e-06
7.30627e-06 -2.12486e-06 4.27487e-05
-0.00143517 0.000770607 -0.00027348
0.000770607 0.00573555 1.38721e-05
-0.00027348 1.38721e-05 0.00233334
0.00108944 -0.00094327 1.18364e-06
-0.00094327 0.00172868 2.35925e-05
1.18364e-06 2.35925e-05 0.0015063
0.00158648 0.000977472 -8.25196e-05
0.000977472 -0.00424005 -3.12831e-05
-8.25196e-05 -3.12831e-05 -0.00454909
0.000195768 0.00019367 7.35386e-06
0.00019367 -0.000117201 -2.01538e-06
7.35386e-06 -2.01538e-06 -0.000314548
0.0013053 0.00043691 9.2368e-06
0.00043691 0.000375102 1.66014e-05
9.2368e-06 1.66014e-05 7.10024e-05
0.00377605 0.000723061 5.43783e-05
0.000723061 0.00106349 1.43245e-05
5.43783e-05 1.43245e-05 0.0010025
0.00175516 0.00069045 2.12849e-05
0.00069045 0.0005179 1.96721e-05
2.12849e-05 1.96721e-05 0.000163098
0.0100387 -0.00178361 0.000128127
-0.00178361 0.00337784 4.11376e-05
0.000128127 4.11376e-05 0.00332144
0.00371657 0.000629558 -0.000284042
0.000629558 -0.00308212 -2.92871e-05
-0.000284042 -2.92871e-05 -0.00503013
0.00421843 0.00205466 -2.55849e-05
0.00205466 -0.000112158 9.41263e-06
-2.55849e-05 9.41263e-06 -0.000189691
0.00235162 0.000678251 4.03853e-05
0.000678251 0.000885943 -2.58856e-05
4.03853e-05 -2.58856e-05 0.000764809
-0.000331015 -0.00218712 -0.000285305
-0.00218712 0.000775383 -0.000267774
-0.000285305 -0.000267774 -0.00103254
-0.000830251 -0.00191034 -0.000348892
-0.00191034 0.00351694 -0.000118311
-0.000348892 -0.000118311 -0.000457827
0.0163983 -0.00361333 0.000432243
-0.00361333 0.00368445 0.000270392
0.000432243 0.000270392 0.0034099
0.000610625 0.000194773 1.22486e-05
0.000194773 0.000128097 -3.42306e-06
1.22486e-05 -3.42306e-06 -4.75471e-05
-0.00357903 0.000304624 -0.000141282
0.000304624 0.00392306 -3.14643e-05
-0.000141282 -3.14643e-05 -0.000100087
0.00459794 0.000718831 -5.59703e-05
0.000718831 0.00261455 -0.00013062
-5.59703e-05 -0.00013062 -0.00173598
0.00169503 0.000622829 5.48982e-07
0.000622829 0.000259597 5.52062e-06
5.48982e-07 5.52062e-06 0.000204989
0.000463602 0.000427076 8.60003e-06
0.000427076 3.7795e-05 3.58493e-06
8.60003e-06 3.58493e-06 -0.000261651
3.57868e-05 0.000611204 -1.61453e-05
0.000611204 8.88923e-05 -5.10496e-05
-1.61453e-05 -5.10496e-05 -0.000352036
0.00359533 0.00211305 7.23252e-07
0.00211305 0.00111429 1.08356e-05
7.23252e-07 1.08356e-05 0.000763295
0.0157913 0.00233054 7.93601e-05
0.00233054 0.00461295 2.42058e-05
7.93601e-05 2.42058e-05 0.00250568
0.00599543 -0.0025551 6.42458e-05
-0.0025551 0.00121176 -6.45481e-05
6.42458e-05 -6.45481e-05 -0.00134839
0.0127175 -0.00188318 -3.10154e-06
-0.00188318 0.00171515 -5.73048e-05
-3.10154e-06 -5.73048e-05 0.00303323
0.000146528 0.000261415 -5.15385e-06
0.000261415 -9.49629e-05 -1.40936e-05
-5.15385e-06 -1.40936e-05 -0.000284282
0.00243409 0.000166873 -0.000226875
0.000166873 0.00156472 -4.60366e-05
-0.000226875 -4.60366e-05 -0.00170581
0.000260603 0.000347214 -6.07367e-05
0.000347214 -0.000149289 -0.000139186
-6.07367e-05 -0.000139186 -0.00166115
-0.000905369 0.000186847 -2.9203e-06
0.000186847 -0.000359798 -2.33845e-05
-2.9203e-06 -2.33845e-05 -0.000560957
-5.54588e-05 0.000370915 -9.56714e-05
0.000370915 0.00103386 1.55696e-05
-9.56714e-05 1.55696e-05 0.000245685
0.0124606 0.00291256 6.14626e-05
0.00291256 0.00442589 -1.18749e-05
6.14626e-05 -1.18749e-05 0.00075745
-0.00486014 -0.00363662 -1.4953e-05
-0.00363662 -0.0017886 0.000206425
-1.4953e-05 0.000206425 -0.00529024
0.0102041 0.000562183 4.43978e-05
0.000562183 -0.00142628 -0.000262653
4.43978e-05 -0.000262653 0.00112994
0.000933623 0.000168606 -9.65754e-07
0.000168606 0.000310807 1.26995e-05
-9.65754e-07 1.26995e-05 0.00017551
0.000933249 0.00019227 -8.57129e-06
0.00019227 0.000401697 -2.15322e-06
-8.57129e-06 -2.15322e-06 0.000237986
0.000153533 0.00011563 2.15559e-06
0.00011563 0.000122057 -5.99549e-06
2.15559e-06 -5.99549e-06 -0.000138113
0.000720841 8.24668e-05 -1.85866e-06
8.24668e-05 0.00016882 -1.94029e-06
-1.85866e-06 -1.94029e-06 2.2176e-05
0.000959903 -3.79719e-05 -7.80097e-07
-3.79719e-05 0.000316508 2.76124e-06
-7.80097e-07 2.76124e-06 0.000159663
0.000598578 6.4295e-05 2.72096e-06
6.4295e-05 9.42406e-05 1.85883e-06
2.72096e-06 1.85883e-06 -4.46731e-05
-0.000792106 1.54052e-05 2.34878e-06
1.54052e-05 -0.000616709 2.35812e-06
2.34878e-06 2.35812e-06 -0.000784004
0.000779857 -2.09033e-05 1.17674e-06
-2.09033e-05 0.000202454 1.58502e-07
1.17674e-06 1.58502e-07 4.7618e-05
0.000717621 1.88143e-05 -6.29151e-08
1.88143e-05 0.000203337 -2.02504e-06
-6.29151e-08 -2.02504e-06 5.3193e-05
-0.000155584 -8.40274e-06 4.39491e-07
-8.40274e-06 -2.34343e-05 2.35559e-06
4.39491e-07 2.35559e-06 -0.000304829
-0.000845408 1.91456e-05 -2.02446e-06
1.91456e-05 -0.000190439 6.18283e-06
-2.02446e-06 6.18283e-06 -0.000615261
0.000128869 7.86105e-06 -2.73437e-06
7.86105e-06 0.000154757 -3.75922e-06
-2.73437e-06 -3.75922e-06 -0.000134815
0.00083115 2.10779e-05 -1.30858e-06
2.10779e-05 0.000250959 -5.54372e-06
-1.30858e-06 -5.54372e-06 0.000106057
0.000847077 -0.000129524 1.22237e-06
-0.000129524 0.000239801 1.08054e-06
1.22237e-06 1.08054e-06 8.81584e-05
0.00063848 -9.93682e-06 -6.40216e-07
-9.93682e-06 0.000101894 1.07371e-06
-6.40216e-07 1.07371e-06 -2.18546e-05
0.00054966 -8.27714e-05 5.81027e-07
-8.27714e-05 7.15832e-05 8.17373e-06
5.81027e-07 8.17373e-06 -3.02302e-05
0.000359701 -3.28594e-05 2.01396e-06
-3.28594e-05 -3.76513e-05 2.76625e-06
2.01396e-06 2.76625e-06 -0.000169505
0.000654684 -2.73e-05 6.30144e-07
-2.73e-05 0.000130674 1.44799e-07
6.30144e-07 1.44799e-07 -8.88706e-07
0.000532549 -4.20629e-05 -9.08804e-08
-4.20629e-05 7.6198e-05 -1.41662e-06
-9.08804e-08 -1.41662e-06 -3.84383e-05
0.000768804 -4.6569e-05 -3.91939e-06
-4.6569e-05 0.000194443 -5.02395e-06
-3.91939e-06 -5.02395e-06 7.84925e-05
0.00028621 -4.9715e-05 5.55414e-06
-4.9715e-05 4.25285e-05 -6.49984e-06
5.55414e-06 -6.49984e-06 -9.56541e-05
0.000111321 -0.000120718 4.24193e-07
-0.000120718 -0.000353998 1.0515e-06
4.24193e-07 1.0515e-06 -0.000445532
0.000815593 -0.000117333 -6.42806e-06
-0.000117333 0.000156547 -6.29763e-07
-6.42806e-06 -6.29763e-07 4.92813e-05
0.000259554 -0.000126645 6.30694e-06
-0.000126645 -0.000176085 4.21499e-06
6.30694e-06 4.21499e-06 -0.000322359
0.00171497 -0.000375548 1.88435e-06
-0.000375548 0.000615357 1.31186e-05
1.88435e-06 1.31186e-05 0.000349483
0.00169632 -0.000183075 1.68149e-06
-0.000183075 0.000738029 -3.58004e-06
1.68149e-06 -3.58004e-06 0.000568006
-4.35155e-05 -6.678e-05 -6.36525e-06
-6.678e-05 -0.000340775 -4.66052e-06
-6.36525e-06 -4.66052e-06 -0.000475944
0.00056522 -4.96504e-05 -7.55441e-08
-4.96504e-05 4.49738e-05 1.89086e-07
-7.55441e-08 1.89086e-07 -8.8037e-05
7.5345e-05 -3.45401e-05 -6.02183e-07
-3.45401e-05 -0.00023325 -1.01637e-06
-6.02183e-07 -1.01637e-06 -0.000370932
0.000886531 -7.39893e-05 -1.24675e-06
-7.39893e-05 0.000237431 1.24117e-06
-1.24675e-06 1.24117e-06 0.000101906
0.000770587 -8.7536e-05 -7.89271e-07
-8.7536e-05 0.000197427 5.57636e-07
-7.89271e-07 5.57636e-07 5.53188e-05
0.000595316 -4.68164e-05 -2.69805e-07
-4.68164e-05 6.12435e-05 1.59528e-06
-2.69805e-07 1.59528e-06 -4.48146e-05
0.00112638 -0.000121347 -6.99865e-07
-0.000121347 0.000445917 -1.09434e-06
-6.99865e-07 -1.09434e-06 0.0002894
0.000656882 -8.0635e-05 -4.76031e-07
-8.0635e-05 0.000112771 -3.54033e-08
-4.76031e-07 -3.54033e-08 2.58584e-06
0.000527414 1.70941e-05 -2.14803e-06
1.70941e-05 7.89988e-06 2.65368e-06
-2.14803e-06 2.65368e-06 -6.25508e-05
0.000717056 -0.000111366 1.66074e-06
-0.000111366 0.000154829 -1.8829e-06
1.66074e-06 -1.8829e-06 4.20901e-05
0.000603778 -3.71006e-05 -2.33268e-07
-3.71006e-05 5.30728e-05 1.19628e-07
-2.33268e-07 1.19628e-07 -1.51868e-05
0.00142767 1.49771e-05 -1.05273e-05
1.49771e-05 0.000534002 6.65272e-06
-1.05273e-05 6.65272e-06 0.000515149
0.000562159 -5.35344e-05 2.359e-06
-5.35344e-05 3.63766e-05 -2.92003e-06
2.359e-06 -2.92003e-06 -3.40299e-05
0.000910278 8.1174e-09 -5.08003e-06
8.1174e-09 0.000220077 6.56572e-07
-5.08003e-06 6.56572e-07 0.000200319
0.000777756 2.2916e-05 6.23363e-07
2.2916e-05 0.000130848 2.48982e-06
6.23363e-07 2.48982e-06 0.000134415
0.000483331 -1.16768e-05 1.22364e-06
-1.16768e-05 -3.88708e-05 -4.42194e-06
1.22364e-06 -4.42194e-06 -5.92739e-05
0.00161505 2.32025e-05 7.70474e-06
2.32025e-05 0.000648387 -1.47657e-06
7.70474e-06 -1.47657e-06 0.000657905
0.00245106 1.5273e-05 6.64685e-06
1.5273e-05 0.00116254 -5.08687e-06
6.64685e-06 -5.08687e-06 0.00117636
0.000615825 3.183e-05 2.07819e-06
3.183e-05 7.93189e-05 -1.00476e-06
2.07819e-06 -1.00476e-06 -1.46594e-05
0.000609357 4.87648e-05 -6.75691e-07
4.87648e-05 5.62009e-05 -1.88144e-06
-6.75691e-07 -1.88144e-06 7.4037e-06
0.000637432 -1.67659e-06 1.1961e-06
-1.67659e-06 0.000103607 5.182e-07
1.1961e-06 5.182e-07 1.38317e-05
0.000517672 4.43372e-07 1.24278e-06
4.43372e-07 -3.17898e-05 -3.52784e-06
1.24278e-06 -3.52784e-06 -4.02476e-05
0.0005331 4.0454e-05 1.2657e-07
4.0454e-05 1.02675e-05 -7.24996e-08
1.2657e-07 -7.24996e-08 -3.41983e-05
0.000578207 -0.00010354 -3.60321e-06
-0.00010354 6.99184e-05 8.94407e-07
-3.60321e-06 8.94407e-07 -1.58667e-05
0.00199128 5.07795e-06 -3.79458e-06
5.07795e-06 0.000876051 -4.70502e-06
-3.79458e-06 -4.70502e-06 0.000894718
0.00051316 3.82461e-06 -2.20623e-07
3.82461e-06 -3.50961e-05 1.48092e-08
-2.20623e-07 1.48092e-08 -4.28237e-05
0.000539753 -1.8314e-05 -1.98753e-06
-1.8314e-05 1.18804e-05 1.6102e-06
-1.98753e-06 1.6102e-06 -2.96352e-05
0.000502147 6.69108e-06 -1.17297e-06
6.69108e-06 -4.29832e-05 3.07974e-06
-1.17297e-06 3.07974e-06 -5.07132e-05
0.00200484 1.99146e-05 -4.68138e-06
1.99146e-05 0.000886253 -7.48301e-08
-4.68138e-06 -7.48301e-08 0.000904204
0.00196645 3.28125e-05 -7.55465e-06
3.28125e-05 0.000864911 4.33782e-06
-7.55465e-06 4.33782e-06 0.000882187
-0.00615655 -0.00105988 -0.000118184
-0.00105988 0.00363607 4.06222e-05
-0.000118184 4.06222e-05 0.000313168
0.000671618 0.000863703 -0.00017117
0.000863703 -1.65328e-05 4.76844e-05
-0.00017117 4.76844e-05 -0.00124043
0.00296901 -0.000740049 -0.000466838
-0.000740049 0.00115855 0.000218702
-0.000466838 0.000218702 -0.00293694
-0.00256575 0.000139153 0.000741283
0.000139153 0.00418831 -0.00027527
0.000741283 -0.00027527 0.00123726
0.000913197 0.000396658 -1.44002e-05
0.000396658 -0.00133466 -2.32742e-05
-1.44002e-05 -2.32742e-05 -0.000829412
0.00247729 -0.000305864 9.25391e-05
-0.000305864 -0.000172453 2.63675e-06
9.25391e-05 2.63675e-06 -0.000133416
0.000646906 -0.000367386 0.000162164
-0.000367386 -0.00356894 -6.96851e-05
0.000162164 -6.96851e-05 -0.00551317
0.0155317 0.00211281 -0.00041476
0.00211281 0.007151 3.00073e-05
-0.00041476 3.00073e-05 0.00537446
-0.00271917 0.00518197 -0.00147128
0.00518197 -0.000322699 0.00106396
-0.00147128 0.00106396 -0.000710785
0.00370523 -0.000359095 7.9692e-06
-0.000359095 -0.000325149 6.92749e-06
7.9692e-06 6.92749e-06 5.56098e-06
0.00791537 -0.00125184 0.000103681
-0.00125184 -0.000493157 -9.28875e-05
0.000103681 -9.28875e-05 -0.00284785
0.0170953 0.00378504 -0.000199989
0.00378504 0.00501993 -9.72922e-05
-0.000199989 -9.72922e-05 0.00400616
0.00926626 0.00296185 -7.51088e-05
0.00296185 0.000564771 0.000287804
-7.51088e-05 0.000287804 -0.000625126
0.00167426 -0.00111852 -8.79327e-05
-0.00111852 -0.0022271 1.9245e-05
-8.79327e-05 1.9245e-05 -0.00162807
0.00374837 -0.00208229 0.000276305
-0.00208229 -0.000227328 -0.000188017
0.000276305 -0.000188017 -0.00407358
-0.000195446 0.00242454 1.2633e-05
0.00242454 -0.00186488 -0.000568647
1.2633e-05 -0.000568647 -0.00377857
0.00695645 0.00115844 -0.000168519
0.00115844 -0.00281297 2.77685e-06
-0.000168519 2.77685e-06 -0.00155079
0.0015212 -6.41573e-05 2.3785e-06
-6.41573e-05 0.000726164 1.00321e-05
2.3785e-06 1.00321e-05 0.00052835
0.000588905 0.000108089 -1.77241e-06
0.000108089 0.000103445 -2.00232e-06
-1.77241e-06 -2.00232e-06 -2.87429e-05
0.00056432 8.64973e-05 1.95338e-07
8.64973e-05 6.05827e-05 -1.94074e-06
1.95338e-07 -1.94074e-06 -3.14864e-05
0.00056209 4.69496e-05 4.77193e-06
4.69496e-05 0.000102423 1.72342e-07
4.77193e-06 1.72342e-07 -1.79294e-05
0.000533202 7.18468e-05 3.65305e-06
7.18468e-05 6.29896e-05 2.48841e-06
3.65305e-06 2.48841e-06 -0.000102904
0.000607936 4.90877e-05 -1.39906e-07
4.90877e-05 0.000119678 1.95447e-06
-1.39906e-07 1.95447e-06 -1.82862e-05
0.000512673 4.5349e-05 5.08596e-07
4.5349e-05 4.5193e-05 -1.3391e-06
5.08596e-07 -1.3391e-06 -7.89542e-05
0.000876018 0.000151996 2.72398e-06
0.000151996 0.000275007 3.39961e-06
2.72398e-06 3.39961e-06 0.000120471
0.000843128 0.000106058 -5.57494e-09
0.000106058 0.000260107 3.4001e-07
-5.57494e-09 3.4001e-07 0.00011111
0.000423325 -1.54411e-05 -4.62078e-06
-1.54411e-05 -4.42575e-06 -3.67773e-06
-4.62078e-06 -3.67773e-06 -0.000125373
0.00061438 -0.000330587 5.95432e-05
-0.000330587 -0.000906629 -2.35892e-05
5.95432e-05 -2.35892e-05 -0.000733936
0.000492576 -0.000538531 3.41985e-05
-0.000538531 -0.000685695 -1.07917e-05
3.41985e-05 -1.07917e-05 -0.000703328
0.00143539 -0.000754487 7.51372e-06
-0.000754487 -0.000156349 5.04476e-06
7.51372e-06 5.04476e-06 -0.000272166
-0.000314726 -0.00049858 1.01113e-05
-0.00049858 -0.000518112 -1.22447e-05
1.01113e-05 -1.22447e-05 -0.000818119
0.00265332 -0.000310855 -8.71638e-06
-0.000310855 0.00154175 3.76728e-05
-8.71638e-06 3.76728e-05 0.00112055
0.000669576 -0.000126109 -2.99823e-06
-0.000126109 0.000241449 2.3848e-06
-2.99823e-06 2.3848e-06 3.42504e-05
0.000478828 9.33699e-05 -1.86273e-06
9.33699e-05 7.2678e-05 -9.57483e-06
-1.86273e-06 -9.57483e-06 -0.000110979
0.000629409 -9.32593e-05 -1.36795e-06
-9.32593e-05 0.000183045 6.82041e-06
-1.36795e-06 6.82041e-06 -3.10582e-05
0.00149191 -0.00055516 8.15031e-07
-0.00055516 -0.000130364 -4.26902e-06
8.15031e-07 -4.26902e-06 -0.000257178
0.000667642 -3.84128e-05 4.58273e-07
-3.84128e-05 0.000204104 3.42672e-06
4.58273e-07 3.42672e-06 -1.88994e-06
0.00174168 -0.000204496 2.86032e-07
-0.000204496 0.00095986 -1.17007e-06
2.86032e-07 -1.17007e-06 0.000629542
0.00150331 -0.000619567 1.40179e-06
-0.000619567 6.61649e-05 3.8311e-06
1.40179e-06 3.8311e-06 1.46486e-05
0.000770328 -0.00051175 -1.73496e-05
-0.00051175 0.000284521 6.2743e-06
-1.73496e-05 6.2743e-06 -5.19589e-05
0.00270153 -0.00105146 2.05748e-05
-0.00105146 0.000461877 -1.99827e-05
2.05748e-05 -1.99827e-05 0.000414824
6.44366e-05 -0.000399518 -1.45082e-05
-0.000399518 -0.000255596 1.76994e-05
-1.45082e-05 1.76994e-05 -0.000350859
-0.000762276 -4.60478e-05 6.24267e-06
-4.60478e-05 -0.000330785 9.20738e-06
6.24267e-06 9.20738e-06 -0.000771692
0.000655116 9.00355e-06 -1.49775e-06
9.00355e-06 0.000160444 -1.49225e-06
-1.49775e-06 -1.49225e-06 -2.03833e-05
0.0010287 3.36599e-05 7.54341e-06
3.36599e-05 0.000510843 -5.19673e-06
7.54341e-06 -5.19673e-06 0.000255701
0.00146876 3.23166e-05 -2.34492e-05
3.23166e-05 0.00162939 -1.18119e-05
-2.34492e-05 -1.18119e-05 -0.00142953
-0.00483881 0.000277033 -0.000233258
0.000277033 0.00501315 -1.13383e-05
-0.000233258 -1.13383e-05 0.0011221
-0.0119343 -0.00146846 -0.000479072
-0.00146846 -0.00579118 -1.89466e-05
-0.000479072 -1.89466e-05 -0.0057336
-0.000610303 0.000131635 7.77032e-06
0.000131635 -0.000561565 -4.42783e-07
7.77032e-06 -4.42783e-07 -0.000751439
-0.000549494 0.000339879 -1.16946e-06
0.000339879 -0.000450658 1.10545e-05
-1.16946e-06 1.10545e-05 -0.000766244
0.00153518 0.000694659 3.15699e-05
0.000694659 0.000172066 1.24428e-05
3.15699e-05 1.24428e-05 9.51825e-05
-0.00505206 0.00119195 1.58848e-05
0.00119195 0.00391966 4.01121e-05
1.58848e-05 4.01121e-05 0.000273928
0.00341901 0.00195356 -0.000166566
0.00195356 -1.81757e-05 -0.000137451
-0.000166566 -0.000137451 -0.00383166
0.00243295 0.00156327 0.000293094
0.00156327 0.00059295 8.91866e-05
0.000293094 8.91866e-05 0.000388022
-0.000351576 0.000584923 9.5871e-06
0.000584923 -0.000292408 -3.76612e-05
9.5871e-06 -3.76612e-05 -0.000432228
0.0185883 -0.00265735 -0.000103783
-0.00265735 0.00573302 -0.000235642
-0.000103783 -0.000235642 0.00407635
0.00500566 0.000861287 0.000316153
0.000861287 0.00257853 0.000118119
0.000316153 0.000118119 -0.00207259
0.0125306 -0.00165008 0.00010428
-0.00165008 0.0019071 2.74083e-05
0.00010428 2.74083e-05 0.00328271
0.000816377 0.000325451 3.56601e-06
0.000325451 0.000359214 -2.4144e-06
3.56601e-06 -2.4144e-06 0.000156637
0.00376842 0.000294233 5.88018e-06
0.000294233 0.00232731 1.3598e-05
5.88018e-06 1.3598e-05 -0.000128978
0.000988251 0.000351661 3.95602e-05
0.000351661 -2.67996e-06 9.06485e-06
3.95602e-05 9.06485e-06 -0.00156643
-0.000713754 0.000331923 -2.26568e-06
0.000331923 -0.000356065 -2.42219e-06
-2.26568e-06 -2.42219e-06 -0.000613368
0.00111603 0.000850097 -9.44011e-05
0.000850097 0.00110506 -4.31117e-05
-9.44011e-05 -4.31117e-05 -7.68642e-06
0.00178492 0.00287736 0.000128008
0.00287736 0.000724291 8.06778e-05
0.000128008 8.06778e-05 -0.00310544
0.00795015 0.000181724 -1.31432e-05
0.000181724 -0.00322051 -0.000177137
-1.31432e-05 -0.000177137 -0.000358851
0.00386362 -0.00206301 -5.2826e-05
-0.00206301 0.00196501 -0.000108097
-5.2826e-05 -0.000108097 -0.00133039
0.00116727 0.000272404 -3.77618e-06
0.000272404 0.000806052 -1.8048e-05
-3.77618e-06 -1.8048e-05 0.000566172
-0.00148581 3.76126e-05 5.11955e-06
3.76126e-05 -0.000158097 3.70432e-06
5.11955e-06 3.70432e-06 -0.000142029
0.00363988 -1.1586e-06 6.23001e-05
-1.1586e-06 -0.000172402 -0.000133364
6.23001e-05 -0.000133364 -0.00117179
0.00698141 0.00122366 0.000175364
0.00122366 -0.00261603 -1.32648e-05
0.000175364 -1.32648e-05 -0.00147892
-0.00162073 0.000110089 1.15426e-05
0.000110089 -5.623e-05 -3.08436e-05
1.15426e-05 -3.08436e-05 -0.000734299
0.011929 0.0023344 0.000195514
0.0023344 0.00539892 5.66957e-05
0.000195514 5.66957e-05 0.000893673
-0.00487242 -0.00046302 8.85258e-05
-0.00046302 0.000912738 0.000327644
8.85258e-05 0.000327644 -0.00185559
0.00266085 0.000352019 2.14674e-05
0.000352019 0.00145324 1.74689e-05
2.14674e-05 1.74689e-05 0.00125711
0.00075108 0.000192618 -5.63555e-06
0.000192618 0.00048108 -1.93447e-06
-5.63555e-06 -1.93447e-06 0.000192809
-0.000141948 7.88105e-05 1.71442e-06
7.88105e-05 0.000191925 2.03912e-06
1.71442e-06 2.03912e-06 -0.000150286
0.00067396 0.000148964 8.0294e-07
0.000148964 0.000153192 7.78762e-07
8.0294e-07 7.78762e-07 -8.69686e-06
0.000438124 5.32195e-05 1.98921e-06
5.32195e-05 2.7542e-05 2.24198e-06
1.98921e-06 2.24198e-06 -0.00011776
0.00077571 -4.65859e-06 9.91095e-06
-4.65859e-06 0.000543588 4.56957e-07
9.91095e-06 4.56957e-07 0.000249102
0.000536317 3.4567e-05 1.97189e-07
3.4567e-05 6.55549e-05 -6.25009e-07
1.97189e-07 -6.25009e-07 -7.03575e-05
0.000777171 -1.65472e-05 -2.96904e-06
-1.65472e-05 0.000524361 -2.29581e-06
-2.96904e-06 -2.29581e-06 0.000245233
1.25877e-05 3.6391e-05 1.2966e-06
3.6391e-05 0.000290078 8.05214e-07
1.2966e-06 8.05214e-07 -0.000121139
-1.63306e-05 1.11944e-05 -9.25244e-06
1.11944e-05 0.000174645 -4.19444e-06
-9.25244e-06 -4.19444e-06 -0.000118368
0.000219619 -2.67437e-05 -6.51934e-07
-2.67437e-05 0.000145849 -6.88082e-06
-6.51934e-07 -6.88082e-06 -9.70875e-05
0.000387617 -6.16709e-05 1.53302e-06
-6.16709e-05 -3.55122e-05 7.24707e-06
1.53302e-06 7.24707e-06 -0.000155511
0.000855155 -3.55007e-05 -1.34836e-06
-3.55007e-05 0.000249635 1.00951e-06
-1.34836e-06 1.00951e-06 0.000117456
0.00104261 -4.33909e-05 -9.93447e-06
-4.33909e-05 0.000382773 8.02428e-06
-9.93447e-06 8.02428e-06 0.000267624
0.000709275 -6.53829e-05 3.11675e-06
-6.53829e-05 0.000273985 -3.05099e-07
3.11675e-06 -3.05099e-07 0.000144182
0.000648096 -4.41282e-05 -1.32285e-06
-4.41282e-05 0.000122474 -5.94957e-07
-1.32285e-06 -5.94957e-07 7.146e-06
0.00044648 -0.000121546 1.50553e-06
-0.000121546 4.27765e-05 7.49493e-07
1.50553e-06 7.49493e-07 -8.61547e-05
0.000150184 -0.000112664 -6.92592e-06
-0.000112664 -0.000257496 -1.2874e-06
-6.92592e-06 -1.2874e-06 -0.000326604
-0.000899043 -0.000204782 9.18869e-06
-0.000204782 -0.000843805 8.65276e-06
9.18869e-06 8.65276e-06 -0.00107103
0.000665271 -0.000163472 2.55268e-06
-0.000163472 8.0457e-05 8.09447e-07
2.55268e-06 8.09447e-07 -3.41506e-05
0.00123684 -0.000236614 -1.40766e-06
-0.000236614 0.000400774 6.48896e-06
-1.40766e-06 6.48896e-06 0.000228358
0.00171603 -0.000415622 -7.51167e-06
-0.000415622 0.000613841 8.28841e-06
-7.51167e-06 8.28841e-06 0.000323937
0.00123765 -0.000353578 -4.84677e-06
-0.000353578 0.000227998 8.8299e-08
-4.84677e-06 8.8299e-08 -5.38347e-05
0.00101713 -0.000246675 -2.00097e-06
-0.000246675 0.000320573 5.35295e-06
-2.00097e-06 5.35295e-06 9.88861e-05
0.000223879 -0.000206011 8.44696e-06
-0.000206011 -0.000278898 -2.49389e-06
8.44696e-06 -2.49389e-06 -0.00050625
0.00102872 -0.000123877 1.52853e-06
-0.000123877 0.000349942 -2.1464e-06
1.52853e-06 -2.1464e-06 0.000169878
0.00123982 -0.000174568 -4.55523e-06
-0.000174568 0.000488278 -3.27532e-07
-4.55523e-06 -3.27532e-07 0.000308539
0.000162702 -0.000100649 6.62467e-06
-0.000100649 -0.000182185 -1.29741e-05
6.62467e-06 -1.29741e-05 -0.000313667
0.00102177 -7.07998e-05 -8.62817e-08
-7.07998e-05 0.000302058 1.29726e-06
-8.62817e-08 1.29726e-06 0.000169296
0.000291435 -5.3198e-05 4.79247e-07
-5.3198e-05 -9.92539e-05 -4.16171e-07
4.79247e-07 -4.16171e-07 -0.000239913
0.000646331 -3.88434e-05 1.10754e-07
-3.88434e-05 8.28682e-05 7.55319e-07
1.10754e-07 7.55319e-07 -2.81415e-05
0.00100891 -0.000135697 -7.9055e-07
-0.000135697 0.000357097 9.41207e-08
-7.9055e-07 9.41207e-08 0.000202382
0.000665078 -6.67658e-05 -1.24124e-07
-6.67658e-05 0.000114872 4.00078e-08
-1.24124e-07 4.00078e-08 -7.58475e-07
0.000532989 2.09396e-05 7.81386e-07
2.09396e-05 1.89752e-05 3.0966e-06
7.81386e-07 3.0966e-06 -6.07234e-05
0.000757503 -0.000102777 3.13139e-07
-0.000102777 0.000184987 -2.1854e-06
3.13139e-07 -2.1854e-06 6.6076e-05
0.00054479 1.21221e-05 -1.6091e-06
1.21221e-05 2.28665e-05 -1.41088e-07
-1.6091e-06 -1.41088e-07 -5.09221e-05
0.00137544 3.01505e-05 -1.16555e-05
3.01505e-05 0.000503323 4.50518e-06
-1.16555e-05 4.50518e-06 0.000483387
0.000607616 -4.86052e-05 2.70497e-06
-4.86052e-05 5.79114e-05 -3.13187e-06
2.70497e-06 -3.13187e-06 -1.22045e-05
0.00091305 1.14761e-05 -6.20773e-06
1.14761e-05 0.000218359 6.35255e-07
-6.20773e-06 6.35255e-07 0.000197365
0.000820866 3.26001e-05 -1.36286e-07
3.26001e-05 0.0001572 2.70043e-06
-1.36286e-07 2.70043e-06 0.000158782
0.0004888 -2.92971e-06 1.26653e-06
-2.92971e-06 -4.06643e-05 -4.93234e-06
1.26653e-06 -4.93234e-06 -6.24653e-05
0.00165958 3.54951e-05 1.05792e-05
3.54951e-05 0.000675038 -1.3105e-06
1.05792e-05 -1.3105e-06 0.000683082
0.00246454 3.06959e-05 1.03061e-05
3.06959e-05 0.00117019 -5.26844e-06
1.03061e-05 -5.26844e-06 0.00118337
0.000353978 1.18324e-05 1.28997e-06
1.18324e-05 -6.95436e-05 -3.80078e-07
1.28997e-06 -3.80078e-07 -0.000185177
0.000242283 1.3425e-05 3.17902e-07
1.3425e-05 -0.000170683 -3.27558e-06
3.17902e-07 -3.27558e-06 -0.000227728
0.000670881 3.71064e-05 -7.54341e-10
3.71064e-05 0.00012121 1.17596e-07
-7.54341e-10 1.17596e-07 2.0744e-05
0.000515408 -1.86066e-06 1.10618e-06
-1.86066e-06 -3.37533e-05 -3.67309e-06
1.10618e-06 -3.67309e-06 -4.38218e-05
0.000378563 2.75786e-06 1.44226e-06
2.75786e-06 -8.86934e-05 -1.97838e-08
1.44226e-06 -1.97838e-08 -0.000136488
0.000356475 -9.18232e-05 -2.02349e-06
-9.18232e-05 -6.80281e-05 1.9011e-07
-2.02349e-06 1.9011e-07 -0.000159822
0.00206258 -8.66063e-06 -8.44297e-06
-8.66063e-06 0.000919552 -4.75012e-06
-8.44297e-06 -4.75012e-06 0.000937834
0.000512118 5.32842e-08 -5.56796e-08
5.32842e-08 -3.56103e-05 -4.81443e-08
-5.56796e-08 -4.81443e-08 -4.39177e-05
0.000497328 -1.88913e-05 -2.37891e-06
-1.88913e-05 -1.46241e-05 1.95852e-06
-2.37891e-06 1.95852e-06 -5.70082e-05
0.00201581 6.4846e-06 -4.31606e-06
6.4846e-06 0.00089145 1.58202e-08
-4.31606e-06 1.58202e-08 0.000909924
0.000498249 3.1718e-06 -1.09464e-06
3.1718e-06 -4.36645e-05 3.17128e-06
-1.09464e-06 3.17128e-06 -5.14347e-05
0.00198622 2.11866e-05 -8.36045e-07
2.11866e-05 0.000874828 4.54709e-06
-8.36045e-07 4.54709e-06 0.000892785
0.000181494 -0.000443073 -0.000173952
-0.000443073 -0.000230199 5.02714e-05
-0.000173952 5.02714e-05 -0.00248821
0.00129776 0.000308818 -6.28195e-05
0.000308818 0.0054733 3.1986e-06
-6.28195e-05 3.1986e-06 0.0027973
0.00131619 -0.000291341 -0.000503025
-0.000291341 0.00296098 7.29226e-05
-0.000503025 7.29226e-05 0.00150026
0.00071911 0.000105171 3.23972e-06
0.000105171 0.000151224 2.08495e-06
3.23972e-06 2.08495e-06 8.10968e-06
0.00398122 -0.000537417 -2.84081e-05
-0.000537417 0.00280121 0.000161528
-2.84081e-05 0.000161528 0.00111294
0.00383507 -0.000882671 -0.000199214
-0.000882671 0.00148629 1.52477e-05
-0.000199214 1.52477e-05 -0.00252537
0.00596146 0.00163243 0.000307589
0.00163243 0.00550198 -0.000236665
0.000307589 -0.000236665 0.00301691
0.00588062 -0.000565274 6.88508e-05
-0.000565274 0.000808629 -2.47225e-05
6.88508e-05 -2.47225e-05 0.00075492
0.0123081 -0.00133793 0.00019512
-0.00133793 0.001707 -8.31688e-05
0.00019512 -8.31688e-05 0.000140591
0.0022139 0.00328866 -0.000363248
0.00328866 -0.00225783 0.000302576
-0.000363248 0.000302576 -0.00315434
0.0098624 0.003037 3.23547e-05
0.003037 0.00224348 0.000131607
3.23547e-05 0.000131607 0.00057628
0.00608688 -0.00141042 -0.000116779
-0.00141042 0.000236117 -6.08192e-06
-0.000116779 -6.08192e-06 0.000269659
0.0154218 -0.00217091 4.7791e-05
-0.00217091 0.00457002 -2.27736e-05
4.7791e-05 -2.27736e-05 0.0023016
0.0082302 0.00199082 0.000131138
0.00199082 0.00150009 -0.000231831
0.000131138 -0.000231831 -0.00057389
0.00901105 0.00112176 1.34099e-05
0.00112176 -0.00117853 2.20049e-05
1.34099e-05 2.20049e-05 -0.000386296
0.00279184 -0.00180722 -1.94106e-05
-0.00180722 -0.000187357 3.08964e-05
-1.94106e-05 3.08964e-05 -0.000585467
0.0111675 -0.0027621 0.000132717
-0.0027621 0.00487753 -8.33381e-05
0.000132717 -8.33381e-05 0.000771379
0.00642485 -3.50267e-05 0.000117049
-3.50267e-05 0.00238252 -0.000328935
0.000117049 -0.000328935 0.000724241
0.0099934 0.000637598 -8.66963e-05
0.000637598 -0.00129695 0.000179044
-8.66963e-05 0.000179044 0.00101944
0.000785632 -1.3695e-05 3.75166e-06
-1.3695e-05 0.000259554 4.42091e-06
3.75166e-06 4.42091e-06 7.17186e-05
0.000821172 -0.000100532 -5.09347e-07
-0.000100532 0.000296677 3.24041e-07
-5.09347e-07 3.24041e-07 0.000101226
0.000698539 0.00012779 -3.87156e-07
0.00012779 0.000172809 -4.25258e-06
-3.87156e-07 -4.25258e-06 3.84352e-05
0.000663838 8.64113e-05 1.31138e-06
8.64113e-05 0.000104061 4.81161e-06
1.31138e-06 4.81161e-06 -3.35479e-05
0.000741388 0.000129258 -5.92426e-08
0.000129258 0.000202804 6.84586e-07
-5.92426e-08 6.84586e-07 3.39741e-05
0.000935801 7.467e-05 -4.82522e-06
7.467e-05 0.000321978 -2.4647e-06
-4.82522e-06 -2.4647e-06 0.000184129
0.00101312 0.000149539 -1.16507e-06
0.000149539 0.000359494 -2.96017e-09
-1.16507e-06 -2.96017e-09 0.00020365
0.00103981 0.000162297 3.73725e-07
0.000162297 0.000395705 1.99003e-06
3.73725e-07 1.99003e-06 0.000236875
1.95091e-05 -0.000372606 7.61625e-05
-0.000372606 -0.000988038 -3.72945e-05
7.61625e-05 -3.72945e-05 -0.000926941
0.00187334 -0.000665107 6.79479e-06
-0.000665107 0.000218223 -1.35299e-05
6.79479e-06 -1.35299e-05 0.00018513
0.000930897 -0.00020556 -8.1679e-07
-0.00020556 0.00037425 -1.50867e-05
-8.1679e-07 -1.50867e-05 0.000145085
0.00132448 -0.000580995 2.30493e-05
-0.000580995 0.000570266 -2.19293e-05
2.30493e-05 -2.19293e-05 0.000239217
0.00232746 -0.000341414 -1.16588e-05
-0.000341414 0.00127133 6.80232e-06
-1.16588e-05 6.80232e-06 0.000947299
0.00117634 -0.000106529 -1.44975e-06
-0.000106529 0.000498539 -1.37478e-05
-1.44975e-06 -1.37478e-05 0.000290463
0.00027669 -4.12347e-05 1.49605e-06
-4.12347e-05 -6.55488e-05 4.2783e-06
1.49605e-06 4.2783e-06 -0.000245517
9.86081e-05 -0.000792018 1.44192e-07
-0.000792018 -0.000892308 -2.56828e-06
1.44192e-07 -2.56828e-06 -0.000865817
0.00123277 3.95248e-05 -6.42603e-07
3.95248e-05 0.000638194 1.3704e-06
-6.42603e-07 1.3704e-06 0.000370727
0.000910705 -0.000212189 2.4471e-06
-0.000212189 0.000539022 1.98799e-06
2.4471e-06 1.98799e-06 0.000163149
0.000453915 -0.000352806 1.54723e-05
-0.000352806 -4.97102e-05 3.26762e-06
1.54723e-05 3.26762e-06 -9.32674e-05
0.00138011 0.000119278 1.3318e-08
0.000119278 0.000572168 -9.53074e-07
1.3318e-08 -9.53074e-07 0.000425416
0.00150522 -0.000785014 -7.45408e-06
-0.000785014 0.000239818 -3.5189e-05
-7.45408e-06 -3.5189e-05 0.000185928
-0.000530451 -0.000318884 -1.66067e-05
-0.000318884 -0.000323145 2.23295e-05
-1.66067e-05 2.23295e-05 -0.000522209
-0.000494238 6.51685e-05 1.34063e-05
6.51685e-05 1.29996e-05 -3.7621e-06
1.34063e-05 -3.7621e-06 -0.000525176
0.00112057 0.000204249 2.07251e-06
0.000204249 0.000508723 -4.05826e-06
2.07251e-06 -4.05826e-06 0.000322578
-0.000579202 3.9863e-05 3.79695e-05
3.9863e-05 0.000916559 2.4461e-07
3.79695e-05 2.4461e-07 0.000277129
0.000856222 -3.47419e-05 0.000113952
-3.47419e-05 0.00122295 -2.44715e-05
0.000113952 -2.44715e-05 -0.00180674
-0.00852098 -0.000198991 -0.000193911
-0.000198991 0.00442103 1.74261e-05
-0.000193911 1.74261e-05 -6.91579e-05
0.0014495 0.00037305 1.54339e-05
0.00037305 0.000814075 4.85836e-06
1.54339e-05 4.85836e-06 0.000599692
-0.00136972 0.000440655 4.09253e-06
0.000440655 -0.000756695 1.36709e-05
4.09253e-06 1.36709e-05 -0.00110514
0.00496335 0.000346002 0.000181054
0.000346002 0.00293057 2.55029e-05
0.000181054 2.55029e-05 0.00125653
0.00916836 0.00216413 0.000234227
0.00216413 0.0036168 0.000133247
0.000234227 0.000133247 -0.000392426
0.00307795 0.00140353 -7.97772e-05
0.00140353 0.00184817 -7.94732e-05
-7.97772e-05 -7.94732e-05 0.000609682
0.00523006 -0.00160411 -0.000102286
-0.00160411 0.00285089 -0.00034977
-0.000102286 -0.00034977 0.000210211
0.00173462 0.000336959 8.99568e-05
0.000336959 0.000138988 0.000164571
8.99568e-05 0.000164571 -0.00139884
0.00586032 -0.00011866 -3.30014e-05
-0.00011866 -0.00506968 -0.000197382
-3.30014e-05 -0.000197382 -0.001794
0.00076973 0.00029244 2.40187e-06
0.00029244 0.000574846 -9.03948e-07
2.40187e-06 -9.03948e-07 0.000313285
-0.00131421 -1.41275e-06 -9.35934e-07
-1.41275e-06 -0.000135875 -7.83233e-07
-9.35934e-07 -7.83233e-07 -0.000201758
0.00351434 5.28501e-05 7.19514e-05
5.28501e-05 -8.97282e-05 2.22654e-05
7.19514e-05 2.22654e-05 -0.000526909
-0.00128118 0.000283995 -9.05551e-06
0.000283995 -0.000342689 -6.98176e-06
-9.05551e-06 -6.98176e-06 -0.000920675
0.00892539 0.00122317 -9.07873e-06
0.00122317 -0.00111375 -1.89707e-05
-9.07873e-06 -1.89707e-05 -0.000399714
0.00360716 0.00137718 0.000162443
0.00137718 0.00326629 0.000100834
0.000162443 0.000100834 -0.00161293
0.00510939 0.000635481 -0.000127881
0.000635481 0.00290055 2.78519e-06
-0.000127881 2.78519e-06 0.000481314
0.000448607 0.000304441 -1.08255e-05
0.000304441 0.000419314 -2.17811e-05
-1.08255e-05 -2.17811e-05 3.33765e-05
0.0013195 6.15276e-05 1.51003e-05
6.15276e-05 -0.000286244 -2.21799e-05
1.51003e-05 -2.21799e-05 -0.000101003
0.00363083 -0.000543704 2.10692e-05
-0.000543704 0.00275598 -0.000164321
2.10692e-05 -0.000164321 0.00118762
0.0129176 0.0030774 0.000277562
0.0030774 0.00289802 -0.000209159
0.000277562 -0.000209159 0.00201399
0.00660214 -4.51158e-05 -9.54371e-05
-4.51158e-05 0.00257322 0.000334257
-9.54371e-05 0.000334257 0.000825642
0.000682276 0.000301529 -6.30158e-06
0.000301529 0.000411518 -0.000102881
-6.30158e-06 -0.000102881 3.31652e-05
0.00172246 0.00142081 0.000206273
0.00142081 0.00430424 4.25369e-05
0.000206273 4.25369e-05 -0.00272573
0.00175012 0.000318671 2.80015e-06
0.000318671 0.00101534 1.79131e-05
2.80015e-06 1.79131e-05 0.000734336
0.000645166 0.000179946 2.16182e-06
0.000179946 0.000617686 -5.16688e-07
2.16182e-06 -5.16688e-07 0.000289211
0.000159515 -2.35763e-05 -1.03794e-05
-2.35763e-05 0.000412394 -1.2163e-05
-1.03794e-05 -1.2163e-05 0.000158227
0.000154595 -3.96225e-05 8.96802e-07
-3.96225e-05 -0.000181026 5.58615e-06
8.96802e-07 5.58615e-06 -0.000303455
0.00123806 1.67624e-07 4.23007e-06
1.67624e-07 0.00077978 1.76875e-07
4.23007e-06 1.76875e-07 0.000512243
0.000553694 2.03251e-05 2.45024e-06
2.03251e-05 0.000572153 -2.23568e-06
2.45024e-06 -2.23568e-06 0.000183316
0.000448241 -4.06473e-05 8.00354e-07
-4.06473e-05 0.000234503 -1.74141e-07
8.00354e-07 -1.74141e-07 3.27158e-05
-8.74799e-05 -1.38094e-05 3.60487e-06
-1.38094e-05 0.00013432 1.35969e-06
3.60487e-06 1.35969e-06 -0.000166794
0.00116919 -0.000224964 1.77994e-06
-0.000224964 0.000709354 -1.23246e-05
1.77994e-06 -1.23246e-05 0.000453755
0.000926416 -7.86732e-05 -3.99967e-06
-7.86732e-05 0.00038345 7.39691e-06
-3.99967e-06 7.39691e-06 0.000262266
0.000378809 -1.35725e-05 -1.04837e-06
-1.35725e-05 -3.86329e-05 2.58308e-06
-1.04837e-06 2.58308e-06 -0.000152323
0.00132692 -0.000202791 2.6019e-06
-0.000202791 0.000553807 3.3983e-06
2.6019e-06 3.3983e-06 0.000407542
-0.00126002 -0.000201274 1.30258e-05
-0.000201274 -0.000869142 5.91888e-06
1.30258e-05 5.91888e-06 -0.00114082
0.000128906 -0.000102034 -8.53312e-07
-0.000102034 -0.000202866 9.4192e-08
-8.53312e-07 9.4192e-08 -0.000249521
-0.000245569 -0.00023868 2.32506e-06
-0.00023868 -0.000478911 -2.79639e-06
2.32506e-06 -2.79639e-06 -0.000687488
0.00113812 -0.000405381 6.11412e-06
-0.000405381 0.000215611 -4.45209e-06
6.11412e-06 -4.45209e-06 -0.000126298
0.00149076 -0.000468452 -2.48175e-06
-0.000468452 0.000314348 1.44763e-08
-2.48175e-06 1.44763e-08 -2.70061e-05
0.00212447 -0.000338659 9.57632e-07
-0.000338659 0.000923969 -3.49764e-07
9.57632e-07 -3.49764e-07 0.000726399
0.00120168 -0.000359824 1.39125e-06
-0.000359824 0.00028161 4.60156e-07
1.39125e-06 4.60156e-07 -7.31174e-06
0.001635 -0.000402015 2.29805e-06
-0.000402015 0.000448272 -1.92862e-06
2.29805e-06 -1.92862e-06 0.000167368
0.000713436 -0.000256754 -2.52758e-06
-0.000256754 2.50965e-06 4.41187e-06
-2.52758e-06 4.41187e-06 -0.00024124
0.000782313 -0.000297312 2.71935e-07
-0.000297312 -3.99222e-05 -3.36148e-06
2.71935e-07 -3.36148e-06 -0.000305421
0.000416618 -0.000109981 1.2359e-06
-0.000109981 6.32677e-06 -2.31617e-06
1.2359e-06 -2.31617e-06 -0.000211527
0.00117686 -0.000289694 -6.18361e-06
-0.000289694 0.000432639 3.70245e-06
-6.18361e-06 3.70245e-06 0.000192991
-0.00129541 -3.26748e-05 -3.52242e-06
-3.26748e-05 -0.00119008 -5.92531e-06
-3.52242e-06 -5.92531e-06 -0.00137907
0.000444557 -3.43999e-05 9.13442e-07
-3.43999e-05 -3.87111e-05 9.23403e-07
9.13442e-07 9.23403e-07 -0.000161553
0.000627895 -0.000101964 -5.76973e-09
-0.000101964 0.000120621 -1.21267e-07
-5.76973e-09 -1.21267e-07 -5.76511e-05
0.000825221 -0.000169461 5.74581e-06
-0.000169461 0.000262424 -1.9082e-06
5.74581e-06 -1.9082e-06 7.22352e-05
0.000580778 -7.11687e-05 4.4054e-07
-7.11687e-05 7.91176e-05 7.2654e-07
4.4054e-07 7.2654e-07 -6.45358e-05
0.000695771 -5.62555e-05 -5.03401e-07
-5.62555e-05 0.000127168 1.36133e-07
-5.03401e-07 1.36133e-07 5.55008e-06
0.000516968 1.50214e-05 5.94482e-07
1.50214e-05 1.89546e-06 3.80104e-06
5.94482e-07 3.80104e-06 -8.23139e-05
0.000796405 -8.4463e-05 6.59732e-09
-8.4463e-05 0.000205275 -1.21241e-06
6.59732e-09 -1.21241e-06 8.04811e-05
0.00056798 1.1777e-05 -1.17384e-06
1.1777e-05 3.58755e-05 -2.25956e-07
-1.17384e-06 -2.25956e-07 -4.14076e-05
0.000471586 3.16397e-05 -7.08518e-07
3.16397e-05 -4.76026e-05 5.58356e-06
-7.08518e-07 5.58356e-06 -7.53156e-05
0.000676613 -4.2866e-05 2.16775e-06
-4.2866e-05 9.73797e-05 -3.06467e-06
2.16775e-06 -3.06467e-06 2.61388e-05
0.000494782 1.65894e-05 -2.47779e-08
1.65894e-05 -4.00158e-05 -3.30051e-08
-2.47779e-08 -3.30051e-08 -6.42896e-05
0.00245758 8.56657e-05 -3.07138e-06
8.56657e-05 0.00117116 2.31801e-06
-3.07138e-06 2.31801e-06 0.00117808
0.000498092 6.78627e-06 1.56713e-06
6.78627e-06 -3.79439e-05 -5.16438e-06
1.56713e-06 -5.16438e-06 -6.12198e-05
0.001695 4.86585e-05 1.2797e-05
4.86585e-05 0.000697762 -1.10019e-06
1.2797e-05 -1.10019e-06 0.000703772
0.00252734 4.66558e-05 1.64904e-05
4.66558e-05 0.00120908 -5.34229e-06
1.64904e-05 -5.34229e-06 0.0012209
0.000319707 1.10333e-05 1.07067e-06
1.10333e-05 -0.000106383 -1.40359e-06
1.07067e-06 -1.40359e-06 -0.000214812
0.000253842 7.45877e-06 8.3939e-07
7.45877e-06 -0.000166704 -3.02143e-06
8.3939e-07 -3.02143e-06 -0.000231762
0.000517705 2.48219e-05 -4.87448e-07
2.48219e-05 3.00103e-05 -1.12926e-06
-4.87448e-07 -1.12926e-06 -8.25729e-05
0.000526719 -6.06341e-06 1.62368e-06
-6.06341e-06 -2.71868e-05 -4.04792e-06
1.62368e-06 -4.04792e-06 -3.9839e-05
0.000228998 1.09592e-05 -6.10062e-07
1.09592e-05 -0.000179202 -1.53485e-06
-6.10062e-07 -1.53485e-06 -0.00023752
0.000680762 4.54568e-05 -6.98401e-07
4.54568e-05 0.000137721 1.31035e-06
-6.98401e-07 1.31035e-06 3.04909e-05
0.00210055 -2.20122e-05 -1.37064e-05
-2.20122e-05 0.00094267 -4.65009e-06
-1.37064e-05 -4.65009e-06 0.000960377
0.00051278 -3.17374e-06 -4.00699e-07
-3.17374e-06 -3.58004e-05 -6.02683e-08
-4.00699e-07 -6.02683e-08 -4.56015e-05
0.000176966 9.80189e-06 7.34324e-07
9.80189e-06 -0.000209628 1.68292e-06
7.34324e-07 1.68292e-06 -0.000260733
0.0020354 -7.22898e-06 -3.89449e-06
-7.22898e-06 0.000902661 5.14035e-08
-3.89449e-06 5.14035e-08 0.000921166
0.000504519 -2.16748e-07 -1.21307e-06
-2.16748e-07 -4.05205e-05 3.42952e-06
-1.21307e-06 3.42952e-06 -4.863e-05
0.00203892 7.99133e-06 4.18767e-06
7.99133e-06 0.000905974 4.70113e-06
4.18767e-06 4.70113e-06 0.000924207
0.000404882 -2.11787e-05 6.31021e-05
-2.11787e-05 0.00105446 1.4259e-05
6.31021e-05 1.4259e-05 0.000874917
9.24026e-05 -0.000260763 -2.35711e-05
-0.000260763 0.000146232 -1.48766e-05
-2.35711e-05 -1.48766e-05 -0.00258344
0.000519634 0.000259503 3.33299e-05
0.000259503 0.00519661 -3.01222e-05
3.33299e-05 -3.01222e-05 0.00260502
0.000759875 0.000113581 6.44769e-08
0.000113581 0.000168656 2.56553e-07
6.44769e-08 2.56553e-07 3.42238e-05
0.000501837 7.75327e-05 3.37696e-06
7.75327e-05 -4.91225e-06 9.51671e-07
3.37696e-06 9.51671e-07 -0.000128664
0.000984142 0.000161241 4.58332e-06
0.000161241 0.000305668 3.6611e-06
4.58332e-06 3.6611e-06 0.000165522
0.00410984 -9.60904e-05 -1.82385e-05
-9.60904e-05 -0.000353473 0.000214369
-1.82385e-05 0.000214369 -0.00107945
0.00393208 -0.000515073 5.0797e-05
-0.000515073 0.00263556 -5.46788e-06
5.0797e-05 -5.46788e-06 0.00131658
0.00439951 -0.00102486 0.000109279
-0.00102486 0.00182759 -0.000182308
0.000109279 -0.000182308 -0.00231596
0.00780056 -0.00175235 -6.68714e-05
-0.00175235 0.000819006 -1.85662e-05
-6.68714e-05 -1.85662e-05 0.00102922
0.000717689 -0.00185922 -0.000241776
-0.00185922 -0.00136768 9.97716e-05
-0.000241776 9.97716e-05 -0.00433019
0.0184162 0.00283235 0.000129169
0.00283235 0.00716056 9.82667e-05
0.000129169 9.82667e-05 0.00469915
0.00533231 0.000167887 0.0001702
0.000167887 -0.00309322 -0.00016647
0.0001702 -0.00016647 -0.00276707
0.00492667 -0.00205854 -3.21756e-05
-0.00205854 0.000662258 1.18553e-05
-3.21756e-05 1.18553e-05 0.000410321
0.00729519 -0.00239036 -7.20095e-05
-0.00239036 0.00297416 2.27277e-05
-7.20095e-05 2.27277e-05 -0.00103756
-0.00343959 0.0025526 -6.87909e-05
0.0025526 0.0018015 -0.000226048
-6.87909e-05 -0.000226048 -0.00161924
0.00793572 0.000232143 -4.08151e-05
0.000232143 -0.00331237 0.000101374
-4.08151e-05 0.000101374 -0.000404323
0.000948456 -0.00118418 -9.30766e-05
-0.00118418 0.000177454 2.35541e-05
-9.30766e-05 2.35541e-05 -0.000148047
0.0109863 -0.00225125 -0.000173236
-0.00225125 0.0052314 0.000119012
-0.000173236 0.000119012 0.000857329
-0.00522905 -1.25394e-05 3.52681e-05
-1.25394e-05 0.00108867 -0.00028961
3.52681e-05 -0.00028961 -0.00191128
0.00709084 -0.00125279 7.8628e-05
-0.00125279 -0.00200203 2.55286e-05
7.8628e-05 2.55286e-05 -0.00102472
0.000469076 8.08482e-05 2.64251e-06
8.08482e-05 1.13903e-05 9.48718e-06
2.64251e-06 9.48718e-06 -0.000130412
0.00074203 -1.89204e-05 2.43267e-06
-1.89204e-05 0.000222666 -1.94502e-06
2.43267e-06 -1.94502e-06 2.98814e-05
0.000905511 -0.000106565 -8.01901e-07
-0.000106565 0.000319053 -6.90657e-06
-8.01901e-07 -6.90657e-06 0.000130127
0.000694881 0.000103224 -1.46025e-06
0.000103224 0.000126239 3.20095e-07
-1.46025e-06 3.20095e-07 -1.61371e-05
0.000782293 0.000136494 3.43462e-08
0.000136494 0.000231298 -2.49707e-06
3.43462e-08 -2.49707e-06 6.94311e-05
0.00113828 0.000163816 -3.57368e-06
0.000163816 0.000440904 -1.65587e-06
-3.57368e-06 -1.65587e-06 0.000281243
-0.00113425 -0.00067775 1.79736e-05
-0.00067775 -0.00158726 -3.11753e-07
1.79736e-05 -3.11753e-07 -0.00152713
0.000153979 -0.000262002 2.49015e-05
-0.000262002 -0.00022258 -2.19419e-05
2.49015e-05 -2.19419e-05 -0.000213825
0.000116454 2.10676e-05 -2.76347e-06
2.10676e-05 -0.000156253 -7.12703e-06
-2.76347e-06 -7.12703e-06 -0.000341938
0.0012991 -0.000342916 4.54031e-05
-0.000342916 0.000691335 -2.6886e-05
4.54031e-05 -2.6886e-05 0.000348992
0.00138489 -3.51805e-05 -5.82453e-06
-3.51805e-05 0.000723088 -2.84954e-06
-5.82453e-06 -2.84954e-06 0.000458817
0.000656497 9.48391e-05 1.86346e-06
9.48391e-05 0.000162877 2.02564e-06
1.86346e-06 2.02564e-06 5.46367e-06
0.000917169 0.000152091 -2.49522e-07
0.000152091 0.000378589 -2.46296e-06
-2.49522e-07 -2.46296e-06 0.000213566
0.000323193 -0.000805615 4.02134e-06
-0.000805615 -0.000422182 -4.25237e-06
4.02134e-06 -4.25237e-06 -0.000559139
0.000182707 7.90548e-06 -5.23908e-06
7.90548e-06 0.000342221 3.49142e-06
-5.23908e-06 3.49142e-06 -0.000105707
0.00126994 -0.000229771 9.63597e-06
-0.000229771 0.000653649 -6.19129e-06
9.63597e-06 -6.19129e-06 0.000426977
0.00114973 0.000151838 2.17964e-06
0.000151838 0.000503777 -5.64157e-06
2.17964e-06 -5.64157e-06 0.000357304
-0.00253761 -8.87972e-05 -0.000107041
-8.87972e-05 -0.000746078 -1.79664e-05
-0.000107041 -1.79664e-05 -0.00141557
1.57667e-05 -0.00012672 -1.93182e-05
-0.00012672 0.000246244 1.18092e-05
-1.93182e-05 1.18092e-05 -1.73743e-05
0.000279924 0.000118745 4.62894e-06
0.000118745 0.000357515 7.75665e-06
4.62894e-06 7.75665e-06 -1.56158e-06
0.000189773 4.40169e-05 -2.04928e-06
4.40169e-05 -0.000530439 3.53158e-07
-2.04928e-06 3.53158e-07 -0.00104945
-0.000952516 4.87833e-05 8.84973e-06
4.87833e-05 0.000615718 -1.55154e-05
8.84973e-06 -1.55154e-05 8.19275e-05
0.00013537 -0.000101157 0.000248828
-0.000101157 0.000799914 6.82282e-06
0.000248828 6.82282e-06 -0.00223872
-0.000516414 0.00021985 -4.41626e-06
0.00021985 -0.000166684 2.01799e-05
-4.41626e-06 2.01799e-05 -0.00045361
0.000847749 0.000613888 -3.43821e-06
0.000613888 0.000321198 -5.22948e-06
-3.43821e-06 -5.22948e-06 -0.000143377
-0.00120501 -2.01603e-05 -3.34562e-08
-2.01603e-05 -0.000139591 -5.48556e-06
-3.34562e-08 -5.48556e-06 -0.000298059
-0.00375572 0.000640553 5.33253e-05
0.000640553 0.00138935 0.000131186
5.33253e-05 0.000131186 -0.0033082
-0.00655897 0.00104371 -0.000162557
0.00104371 -0.00303007 -0.000379518
-0.000162557 -0.000379518 -0.00623967
0.00309772 8.43709e-05 6.0464e-05
8.43709e-05 -4.24135e-05 9.38185e-05
6.0464e-05 9.38185e-05 -5.71554e-05
0.00522261 0.000236413 -0.000175558
0.000236413 -0.00292704 0.00016626
-0.000175558 0.00016626 -0.00273373
0.00045902 0.000256851 3.97068e-06
0.000256851 0.000460539 -1.20013e-06
3.97068e-06 -1.20013e-06 0.000130384
0.0010622 6.71183e-06 2.26157e-05
6.71183e-06 -0.000399101 -2.83984e-05
2.26157e-05 -2.83984e-05 -0.000184868
0.0035821 -0.000409998 -5.25738e-05
-0.000409998 0.00257397 7.21336e-06
-5.25738e-05 7.21336e-06 0.00125978
0.00064827 0.000428606 -7.93765e-05
0.000428606 0.000944054 -6.2704e-06
-7.93765e-05 -6.2704e-06 -6.0976e-05
0.00898181 0.00311256 7.23544e-05
0.00311256 0.000469415 -0.000282189
7.23544e-05 -0.000282189 -0.000607797
-0.00168442 0.00202196 6.06949e-05
0.00202196 0.00175533 0.000225331
6.06949e-05 0.000225331 -0.00140632
0.0063432 0.000292226 4.74704e-05
0.000292226 0.00608597 -2.43801e-05
4.74704e-05 -2.43801e-05 -0.000318995
0.00106231 -1.91057e-05 3.71033e-05
-1.91057e-05 0.0013488 -2.52912e-05
3.71033e-05 -2.52912e-05 0.000608547
0.000323545 -3.98509e-05 -5.23546e-05
-3.98509e-05 0.00101066 3.45966e-06
-5.23546e-05 3.45966e-06 0.000806838
0.00263168 -0.000688282 0.00049552
-0.000688282 0.000941742 -0.000210433
0.00049552 -0.000210433 -0.00320586
0.0110839 0.00426659 -1.27643e-05
0.00426659 0.00788083 6.80023e-06
-1.27643e-05 6.80023e-06 0.00678822
-0.000703003 0.00248102 -6.24471e-05
0.00248102 -0.00194279 0.000552945
-6.24471e-05 0.000552945 -0.00378527
0.012243 -0.00234948 0.000194298
-0.00234948 0.00538733 -0.00016637
0.000194298 -0.00016637 0.000739754
0.00331235 -0.000634837 -5.95182e-05
-0.000634837 0.00218348 5.21199e-05
-5.95182e-05 5.21199e-05 0.001553
0.00139893 0.000247608 8.28636e-06
0.000247608 0.00104436 5.72166e-06
8.28636e-06 5.72166e-06 0.000715452
-5.96623e-05 -2.2527e-05 -1.02149e-05
-2.2527e-05 0.000225971 -1.2333e-06
-1.02149e-05 -1.2333e-06 -3.55618e-05
0.00169112 -0.000367483 2.52343e-05
-0.000367483 0.00104678 -1.08123e-05
2.52343e-05 -1.08123e-05 0.000678452
0.000810955 -8.70285e-05 4.85175e-07
-8.70285e-05 0.000415493 4.2267e-06
4.85175e-07 4.2267e-06 0.000246453
0.000120416 -3.93251e-05 -4.31307e-06
-3.93251e-05 0.000246312 3.43748e-06
-4.31307e-06 3.43748e-06 -5.3754e-05
0.000309979 -0.000205249 -2.26265e-06
-0.000205249 0.000301117 -3.66436e-07
-2.26265e-06 -3.66436e-07 3.7168e-05
0.000906688 -0.00040716 2.6709e-05
-0.00040716 0.000343894 -2.1406e-05
2.6709e-05 -2.1406e-05 0.000154972
0.00233053 -0.000290585 -4.12075e-06
-0.000290585 0.00114602 3.69776e-06
-4.12075e-06 3.69776e-06 0.000975648
0.00214909 -0.000539481 1.00057e-05
-0.000539481 0.000972812 -2.37792e-06
1.00057e-05 -2.37792e-06 0.000663348
0.00194664 -0.000535397 1.33748e-05
-0.000535397 0.00082479 -1.38148e-06
1.33748e-05 -1.38148e-06 0.000344775
0.000410671 -0.00025023 -3.85787e-06
-0.00025023 -0.000118054 -2.01485e-06
-3.85787e-06 -2.01485e-06 -0.000297002
0.0015203 -0.000445629 -2.54719e-06
-0.000445629 0.000395909 6.47297e-07
-2.54719e-06 6.47297e-07 4.96153e-05
0.00212409 -0.000603704 4.7071e-07
-0.000603704 0.000685065 1.10049e-06
4.7071e-07 1.10049e-06 0.000240748
0.00170774 -0.000604701 -3.82544e-06
-0.000604701 0.00033337 1.6612e-06
-3.82544e-06 1.6612e-06 -5.21502e-05
0.00156127 -0.000476658 -1.22347e-06
-0.000476658 0.000369491 9.79258e-07
-1.22347e-06 9.79258e-07 4.05791e-05
0.00145807 -0.000469159 -3.75883e-06
-0.000469159 0.000290097 1.30586e-06
-3.75883e-06 1.30586e-06 -5.36418e-05
0.0011318 -0.000353839 -5.37129e-06
-0.000353839 0.00020685 -2.84317e-08
-5.37129e-06 -2.84317e-08 -8.9951e-05
0.00235664 -0.000451551 4.05357e-06
-0.000451551 0.00094311 7.19376e-07
4.05357e-06 7.19376e-07 0.000669132
0.00144358 -0.000384494 4.72546e-06
-0.000384494 0.000337065 -2.76977e-06
4.72546e-06 -2.76977e-06 5.85795e-05
0.000180918 -0.000137851 4.10547e-07
-0.000137851 -0.00022843 7.90669e-08
4.10547e-07 7.90669e-08 -0.000450077
0.00084032 -0.000280902 3.52005e-06
-0.000280902 9.67934e-05 -1.25803e-06
3.52005e-06 -1.25803e-06 -0.0001522
0.000412276 -0.000251641 1.12648e-06
-0.000251641 -0.00025419 -6.23168e-06
1.12648e-06 -6.23168e-06 -0.000505893
-7.59878e-05 -1.50689e-05 5.2732e-07
-1.50689e-05 -0.000320518 1.70385e-06
5.2732e-07 1.70385e-06 -0.000495909
0.00105472 -0.000168176 -3.1486e-07
-0.000168176 0.000394875 4.62126e-09
-3.1486e-07 4.62126e-09 0.000167915
0.00109141 -0.000306307 -1.51586e-06
-0.000306307 0.000396049 -1.96496e-06
-1.51586e-06 -1.96496e-06 0.000143622
0.000691667 -7.06811e-06 -8.77389e-07
-7.06811e-06 0.000105597 4.37634e-06
-8.77389e-07 4.37634e-06 1.20252e-05
0.000804254 -8.18934e-05 -2.05164e-07
-8.18934e-05 0.000181439 -2.17528e-07
-2.05164e-07 -2.17528e-07 5.03548e-05
0.000354869 -7.94999e-05 -1.69082e-07
-7.94999e-05 -3.5635e-05 1.096e-06
-1.69082e-07 1.096e-06 -0.000210232
0.000721825 -7.80232e-05 5.5569e-07
-7.80232e-05 0.000148054 -9.84511e-07
5.5569e-07 -9.84511e-07 2.07855e-05
0.000614152 -2.6752e-05 -7.3942e-08
-2.6752e-05 5.64794e-05 -2.51575e-07
-7.3942e-08 -2.51575e-07 -2.65522e-05
0.000479848 3.65111e-05 2.63834e-07
3.65111e-05 -3.59075e-05 6.64165e-06
2.63834e-07 6.64165e-06 -6.82567e-05
0.000617151 -3.31992e-05 1.40054e-06
-3.31992e-05 6.12138e-05 -3.08162e-06
1.40054e-06 -3.08162e-06 -1.45064e-05
0.000511188 2.95602e-05 -1.05531e-06
2.95602e-05 -2.41001e-05 -1.41179e-07
-1.05531e-06 -1.41179e-07 -5.19221e-05
0.00256954 9.39604e-05 -3.03419e-05
9.39604e-05 0.00124669 4.3216e-06
-3.03419e-05 4.3216e-06 0.00125243
0.000527267 1.65327e-05 1.50888e-06
1.65327e-05 -2.05201e-05 -5.26829e-06
1.50888e-06 -5.26829e-06 -4.49313e-05
0.00166838 6.25202e-05 1.48839e-05
6.25202e-05 0.000684814 -8.63354e-07
1.48839e-05 -8.63354e-07 0.00068905
0.00255906 6.37941e-05 2.10246e-05
6.37941e-05 0.00123067 -5.01743e-06
2.10246e-05 -5.01743e-06 0.00124079
0.000704895 7.88052e-05 2.2027e-06
7.88052e-05 0.000139591 -5.12287e-07
2.2027e-06 -5.12287e-07 2.05011e-05
0.000551057 3.70928e-05 9.57775e-07
3.70928e-05 1.42676e-05 -2.63702e-06
9.57775e-07 -2.63702e-06 -5.46256e-05
0.000492689 4.44316e-05 -1.1367e-06
4.44316e-05 1.28004e-05 -1.19321e-06
-1.1367e-06 -1.19321e-06 -0.000105016
0.000514254 -6.65289e-06 9.79499e-07
-6.65289e-06 -3.44689e-05 -4.79624e-06
9.79499e-07 -4.79624e-06 -5.07436e-05
0.000379486 2.95647e-05 -1.95494e-06
2.95647e-05 -8.87276e-05 -1.53105e-06
-1.95494e-06 -1.53105e-06 -0.000153074
0.000713814 6.0399e-05 -9.38035e-07
6.0399e-05 0.000152016 -9.93886e-07
-9.38035e-07 -9.93886e-07 3.99581e-05
0.00217989 -3.66512e-05 -1.81015e-05
-3.66512e-05 0.000992081 -4.67913e-06
-1.81015e-05 -4.67913e-06 0.00100841
0.000510228 -7.54429e-06 -1.37073e-07
-7.54429e-06 -3.75046e-05 -9.66393e-08
-1.37073e-07 -9.66393e-08 -4.98888e-05
0.000179468 9.1727e-06 -1.60035e-06
9.1727e-06 -0.000209837 5.04974e-07
-1.60035e-06 5.04974e-07 -0.000269195
0.00211715 -2.10972e-05 -4.78925e-06
-2.10972e-05 0.000952836 1.10367e-07
-4.78925e-06 1.10367e-07 0.00097057
0.00050761 -4.95406e-06 -1.70212e-06
-4.95406e-06 -3.92882e-05 3.49924e-06
-1.70212e-06 3.49924e-06 -4.88775e-05
0.00206825 -5.76198e-06 9.02829e-06
-5.76198e-06 0.000922844 4.73638e-06
9.02829e-06 4.73638e-06 0.000941224
0.00121321 -0.000114895 -2.55679e-05
-0.000114895 -0.000327869 2.64397e-05
-2.55679e-05 2.64397e-05 -0.000178368
0.000149465 -0.000139767 3.37614e-05
-0.000139767 0.000908293 -2.17838e-06
3.37614e-05 -2.17838e-06 0.000722929
-2.25471e-05 -0.000270219 0.000137893
-0.000270219 0.000314646 -7.81209e-05
0.000137893 -7.81209e-05 -0.00260279
0.000397446 4.21702e-05 2.49871e-06
4.21702e-05 -7.64405e-05 1.07717e-06
2.49871e-06 1.07717e-06 -0.000199202
0.00154628 9.0577e-05 1.35587e-07
9.0577e-05 0.000607597 3.26633e-06
1.35587e-07 3.26633e-06 0.000465367
0.000754085 0.000122624 -1.36994e-06
0.000122624 0.000164707 -1.02248e-06
-1.36994e-06 -1.02248e-06 3.55475e-05
0.000517102 6.44506e-05 4.60859e-07
6.44506e-05 -6.13274e-06 6.57592e-07
4.60859e-07 6.57592e-07 -0.000122306
0.000577964 8.36536e-05 2.16134e-07
8.36536e-05 5.11195e-05 -1.07237e-07
2.16134e-07 -1.07237e-07 -7.57797e-05
0.000566958 7.33589e-05 2.94886e-06
7.33589e-05 3.36931e-05 -2.28919e-07
2.94886e-06 -2.28919e-07 -8.38685e-05
0.000621306 0.000164156 6.57933e-06
0.000164156 0.000115194 3.2361e-06
6.57933e-06 3.2361e-06 -2.8505e-05
0.000533178 0.00033793 0.000107013
0.00033793 -0.000371207 0.000218351
0.000107013 0.000218351 -0.00161929
0.00352524 -7.08626e-05 -2.44758e-05
-7.08626e-05 -9.63858e-05 5.68919e-05
-2.44758e-05 5.68919e-05 -0.000615356
0.00356431 -0.000397839 9.17824e-05
-0.000397839 0.00242521 -8.96204e-05
9.17824e-05 -8.96204e-05 0.00144102
0.00590748 -0.000125486 -6.89772e-06
-0.000125486 -0.00533958 0.000121218
-6.89772e-06 0.000121218 -0.00176124
0.0029046 -0.00171538 -9.09174e-05
-0.00171538 0.000582953 6.18123e-05
-9.09174e-05 6.18123e-05 0.000178636
-0.000592178 -0.00245459 -0.000103616
-0.00245459 0.000674313 8.81004e-05
-0.000103616 8.81004e-05 -0.00409886
0.0116468 0.00301964 8.54699e-05
0.00301964 0.00582682 -0.000105085
8.54699e-05 -0.000105085 0.00272435
0.00298177 -0.00156133 -3.48677e-05
-0.00156133 0.000604179 1.49256e-05
-3.48677e-05 1.49256e-05 0.000583045
-0.0011815 -0.000610994 -7.39822e-06
-0.000610994 0.00256485 4.18955e-05
-7.39822e-06 4.18955e-05 -0.00309932
0.00566905 0.000375341 0.000103203
0.000375341 0.00266948 -1.58422e-05
0.000103203 -1.58422e-05 0.000264146
0.0124851 -0.00186903 -4.99747e-05
-0.00186903 0.00163446 -3.06173e-05
-4.99747e-05 -3.06173e-05 0.00298045
-0.000553689 -0.000297884 -0.000101127
-0.000297884 -0.000226075 9.48985e-05
-0.000101127 9.48985e-05 -3.55296e-06
0.0023446 0.00188801 -0.000122351
0.00188801 0.00364671 -7.98586e-05
-0.000122351 -7.98586e-05 -0.00212047
-0.00439428 -0.00343187 4.43093e-05
-0.00343187 -0.00193047 -0.000203578
4.43093e-05 -0.000203578 -0.00535271
0.00964757 -0.00214951 7.89636e-05
-0.00214951 0.00122659 -0.000434056
7.89636e-05 -0.000434056 0.00100512
0.000877923 2.81859e-05 8.56181e-06
2.81859e-05 0.000320901 2.34585e-06
8.56181e-06 2.34585e-06 0.000169051
0.000664798 0.000121959 -9.69917e-07
0.000121959 0.000139342 -1.23078e-06
-9.69917e-07 -1.23078e-06 -5.19911e-06
0.000711587 -1.64054e-05 -7.65214e-07
-1.64054e-05 0.000213387 -2.91309e-06
-7.65214e-07 -2.91309e-06 7.96735e-06
0.000870139 0.000101681 -2.83334e-06
0.000101681 0.000256093 -5.49277e-06
-2.83334e-06 -5.49277e-06 9.71686e-05
-0.000451965 -0.000593445 -5.21724e-06
-0.000593445 -0.000746988 4.01943e-05
-5.21724e-06 4.01943e-05 -0.000888258
0.00262516 -0.000248387 8.2526e-07
-0.000248387 0.00154094 -2.22252e-05
8.2526e-07 -2.22252e-05 0.00123776
0.000638537 6.64511e-05 -4.07192e-06
6.64511e-05 0.000133595 -6.8569e-06
-4.07192e-06 -6.8569e-06 -5.21532e-06
0.00074705 0.000194625 -2.4701e-06
0.000194625 0.000287437 -9.24275e-07
-2.4701e-06 -9.24275e-07 0.00011729
0.00147624 7.50949e-05 -2.05593e-06
7.50949e-05 0.00102832 -7.41505e-06
-2.05593e-06 -7.41505e-06 0.000678237
0.000690136 7.1753e-05 3.8241e-06
7.1753e-05 0.000190661 2.81387e-06
3.8241e-06 2.81387e-06 6.9177e-05
0.000241677 0.000130268 -8.05526e-07
0.000130268 0.000355833 1.04877e-06
-8.05526e-07 1.04877e-06 -1.97345e-05
0.00152262 -0.000311586 -5.24351e-06
-0.000311586 0.00128224 4.47725e-06
-5.24351e-06 4.47725e-06 0.00042076
-0.000118962 -9.09415e-05 2.35409e-05
-9.09415e-05 0.00030649 -3.06769e-07
2.35409e-05 -3.06769e-07 -6.44786e-06
5.87725e-05 0.00011041 3.98593e-06
0.00011041 8.71646e-05 -2.1291e-06
3.98593e-06 -2.1291e-06 -0.000136623
0.00115501 -8.41918e-05 -3.09414e-05
-8.41918e-05 0.00210772 -3.93527e-05
-3.09414e-05 -3.93527e-05 0.000704164
0.00139987 0.000256922 -2.19693e-06
0.000256922 0.00109716 1.7716e-05
-2.19693e-06 1.7716e-05 0.000673625
-0.000709304 4.60243e-05 -3.48809e-05
4.60243e-05 0.000952383 1.1929e-05
-3.48809e-05 1.1929e-05 0.000253904
0.00096325 -2.39185e-06 2.81563e-06
-2.39185e-06 -0.000207904 1.01068e-06
2.81563e-06 1.01068e-06 -0.000276929
-0.00127384 5.40408e-05 2.16548e-06
5.40408e-05 0.000313803 -3.40305e-05
2.16548e-06 -3.40305e-05 -6.70806e-05
0.000146255 0.000160999 -7.66281e-06
0.000160999 0.000372499 8.29593e-06
-7.66281e-06 8.29593e-06 0.000112057
-0.00124095 0.000535739 8.97337e-05
0.000535739 -0.000602916 8.0519e-05
8.97337e-05 8.0519e-05 -0.00109954
0.000883463 -1.36295e-07 3.322e-05
-1.36295e-07 -0.000477426 -4.73218e-06
3.322e-05 -4.73218e-06 -0.000141006
0.0036601 -0.00163286 0.000128804
-0.00163286 0.00437037 -0.000160091
0.000128804 -0.000160091 -0.00253339
0.0133928 0.00270025 -0.000129679
0.00270025 0.00604379 9.63938e-05
-0.000129679 9.63938e-05 0.00325855
0.00349292 -0.000307918 -9.06511e-05
-0.000307918 0.00228032 9.55571e-05
-9.06511e-05 9.55571e-05 0.00138046
0.00938225 0.00309406 -1.49817e-05
0.00309406 0.00224309 -0.000122399
-1.49817e-05 -0.000122399 0.000532392
0.000374745 0.000125696 -4.33687e-05
0.000125696 0.000878868 1.00295e-05
-4.33687e-05 1.00295e-05 0.000133478
0.000402227 -6.73284e-05 -3.9181e-05
-6.73284e-05 0.000862125 1.58763e-06
-3.9181e-05 1.58763e-06 0.000796437
0.00357867 -0.000876158 0.00019708
-0.000876158 0.00140973 -1.81552e-05
0.00019708 -1.81552e-05 -0.00259068
-0.0011597 -0.00018217 2.39675e-05
-0.00018217 -0.000360035 2.85314e-05
2.39675e-05 2.85314e-05 -0.000653787
0.00443819 0.00469497 0.000334245
0.00469497 0.00410217 -0.000165355
0.000334245 -0.000165355 0.00348747
0.00756172 0.00199339 -0.000126637
0.00199339 0.00130434 0.000233724
-0.000126637 0.000233724 -0.00064372
-0.00292728 -0.000951664 9.92686e-05
-0.000951664 0.00183161 -0.000106786
9.92686e-05 -0.000106786 -0.00433724
-0.000113914 -0.000300946 2.15544e-05
-0.000300946 0.000446258 -1.91743e-05
2.15544e-05 -1.91743e-05 -0.000280826
0.000231104 -0.00041052 0.000175236
-0.00041052 -0.000306989 -3.88633e-05
0.000175236 -3.88633e-05 -0.00253643
-0.00226847 -1.41068e-05 -0.000591536
-1.41068e-05 0.00428188 0.00015273
-0.000591536 0.00015273 0.0015012
0.00915402 0.00445265 -0.000417192
0.00445265 0.00211796 0.000455203
-0.000417192 0.000455203 0.000940161
0.00848291 -0.00202548 -6.54969e-05
-0.00202548 0.00359438 2.36526e-05
-6.54969e-05 2.36526e-05 -3.71074e-05
0.00275443 -0.000970311 -4.00937e-05
-0.000970311 0.0016473 2.64157e-05
-4.00937e-05 2.64157e-05 0.0011473
0.000309785 -4.23838e-05 8.08226e-06
-4.23838e-05 0.000378171 1.3418e-05
8.08226e-06 1.3418e-05 0.000127563
0.000344525 -0.000262818 5.18588e-06
-0.000262818 0.000370473 -5.81006e-07
5.18588e-06 -5.81006e-07 1.5467e-06
0.00124368 -0.000533157 1.24757e-05
-0.000533157 0.000589159 -3.55924e-07
1.24757e-05 -3.55924e-07 0.000442256
-0.000447039 -0.000186077 -1.06587e-06
-0.000186077 -5.26473e-05 7.47444e-06
-1.06587e-06 7.47444e-06 -0.000319972
-0.000786082 -0.000254525 1.22988e-06
-0.000254525 -0.000487911 -1.61085e-06
1.22988e-06 -1.61085e-06 -0.000685126
0.00271756 -0.000650413 4.16946e-05
-0.000650413 0.00107893 -3.30298e-06
4.16946e-05 -3.30298e-06 0.000808189
0.00540673 -0.000886356 -1.38192e-05
-0.000886356 0.00272956 5.27813e-06
-1.38192e-05 5.27813e-06 0.00237514
0.00266421 -0.000622092 6.75682e-06
-0.000622092 0.00113824 2.28023e-07
6.75682e-06 2.28023e-07 0.000670388
0.00161642 -0.000596162 1.06381e-05
-0.000596162 0.000410812 -8.66238e-06
1.06381e-05 -8.66238e-06 -8.66544e-05
0.00150961 -0.000441997 -9.39196e-06
-0.000441997 0.000358419 -3.47528e-07
-9.39196e-06 -3.47528e-07 1.3806e-05
0.00225185 -0.000628418 2.26112e-06
-0.000628418 0.000728253 -1.31451e-07
2.26112e-06 -1.31451e-07 0.00027619
0.00228154 -0.0006721 3.49094e-06
-0.0006721 0.000690061 -8.62368e-06
3.49094e-06 -8.62368e-06 0.000235567
0.00202692 -0.000591038 -1.57875e-06
-0.000591038 0.000396169 -4.53465e-06
-1.57875e-06 -4.53465e-06 6.7916e-05
0.00199626 -0.000633373 -9.71949e-07
-0.000633373 0.000475963 1.3207e-06
-9.71949e-07 1.3207e-06 0.00011083
0.00190313 -0.000628014 -1.83953e-06
-0.000628014 0.000440924 -2.90532e-08
-1.83953e-06 -2.90532e-08 4.69939e-05
0.00205244 -0.000494346 7.46499e-06
-0.000494346 0.000698343 2.49268e-06
7.46499e-06 2.49268e-06 0.000391015
0.00125232 -0.000436165 1.24214e-06
-0.000436165 0.000190663 1.55626e-07
1.24214e-06 1.55626e-07 -0.000123281
0.00130386 -0.000454557 -4.09242e-07
-0.000454557 0.000198504 -3.44185e-08
-4.09242e-07 -3.44185e-08 -0.00014487
0.0016121 -0.000349791 3.91351e-06
-0.000349791 0.000526276 2.51189e-08
3.91351e-06 2.51189e-08 0.000277383
0.00151275 -0.000364957 -1.42254e-06
-0.000364957 0.000425799 -1.60735e-06
-1.42254e-06 -1.60735e-06 0.000167008
0.00115249 -0.000356072 1.0368e-05
-0.000356072 0.000166856 -5.87806e-06
1.0368e-05 -5.87806e-06 -0.000106737
0.000617958 -0.000158395 3.10658e-06
-0.000158395 0.000124768 6.14718e-07
3.10658e-06 6.14718e-07 -0.00012079
0.000675935 -0.000182576 -2.21326e-06
-0.000182576 9.00661e-05 1.74297e-06
-2.21326e-06 1.74297e-06 -0.000141689
0.00114268 -0.000324314 7.30235e-06
-0.000324314 0.000297418 -6.74715e-06
7.30235e-06 -6.74715e-06 3.99266e-05
0.000404634 -1.16082e-05 7.4282e-07
-1.16082e-05 -7.21614e-05 5.03016e-06
7.4282e-07 5.03016e-06 -0.000179087
0.000687329 -5.84867e-05 -8.97787e-07
-5.84867e-05 0.000148144 -1.98938e-08
-8.97787e-07 -1.98938e-08 -3.79979e-05
0.00148544 -0.000230133 1.13886e-06
-0.000230133 0.000661201 -2.39522e-07
1.13886e-06 -2.39522e-07 0.000424464
0.000474991 2.78881e-05 -2.91272e-06
2.78881e-05 -3.6989e-05 9.61853e-06
-2.91272e-06 9.61853e-06 -7.2203e-05
0.000635888 -1.3969e-05 -3.66933e-07
-1.3969e-05 6.72745e-05 -1.82517e-07
-3.66933e-07 -1.82517e-07 -2.53046e-05
0.0011402 -0.000118222 4.40931e-08
-0.000118222 0.000394487 -1.21305e-06
4.40931e-08 -1.21305e-06 0.000251574
0.000657545 -2.66868e-05 1.02579e-06
-2.66868e-05 8.20996e-05 -3.50054e-06
1.02579e-06 -3.50054e-06 -1.26147e-06
0.000503166 3.26126e-05 2.27099e-07
3.26126e-05 -2.28726e-05 -4.70646e-08
2.27099e-07 -4.70646e-08 -5.48118e-05
0.00267148 0.000114753 -3.181e-05
0.000114753 0.00131794 4.07053e-06
-3.181e-05 4.07053e-06 0.00131895
0.000548193 3.04714e-05 3.31325e-07
3.04714e-05 -2.52099e-06 -5.92787e-06
3.31325e-07 -5.92787e-06 -3.0436e-05
0.0025898 9.73342e-05 3.6738e-06
9.73342e-05 0.00126002 3.88222e-07
3.6738e-06 3.88222e-07 0.00126503
0.0025327 8.03721e-05 2.46172e-05
8.03721e-05 0.00121874 -4.58371e-06
2.46172e-05 -4.58371e-06 0.00122693
0.000655765 8.01251e-05 8.87147e-07
8.01251e-05 0.000144361 -1.08907e-06
8.87147e-07 -1.08907e-06 -1.56916e-05
0.000759722 0.000100588 3.45045e-06
0.000100588 0.00018542 -1.05897e-06
3.45045e-06 -1.05897e-06 4.53539e-05
0.000593043 2.92772e-05 1.55341e-06
2.92772e-05 3.94165e-05 -3.22415e-06
1.55341e-06 -3.22415e-06 -3.67397e-05
0.000650788 9.15969e-05 1.35525e-07
9.15969e-05 0.000103435 -1.79719e-07
1.35525e-07 -1.79719e-07 -1.42986e-05
0.000501824 -7.61343e-06 -1.06902e-07
-7.61343e-06 -3.93953e-05 -5.7505e-06
-1.06902e-07 -5.7505e-06 -6.01143e-05
0.000570181 3.99632e-05 2.07367e-07
3.99632e-05 2.63785e-05 -1.2095e-07
2.07367e-07 -1.2095e-07 -4.25863e-05
0.000598088 4.82554e-05 -3.14539e-06
4.82554e-05 6.52958e-05 -1.09091e-07
-3.14539e-06 -1.09091e-07 -4.37611e-05
0.0023046 -5.19788e-05 -2.36333e-05
-5.19788e-05 0.00107073 -4.72251e-06
-2.36333e-05 -4.72251e-06 0.00108484
0.000510259 -1.10859e-05 -5.58077e-07
-1.10859e-05 -3.63226e-05 -8.67609e-08
-5.58077e-07 -8.67609e-08 -5.25179e-05
0.000508211 4.53658e-05 -2.57201e-06
4.53658e-05 -8.84262e-06 8.63685e-07
-2.57201e-06 8.63685e-07 -7.23613e-05
0.00218902 -3.57764e-05 -4.48399e-06
-3.57764e-05 0.000997637 1.9993e-07
-4.48399e-06 1.9993e-07 0.00101406
0.000509749 -7.68332e-06 -1.80452e-06
-7.68332e-06 -3.79656e-05 3.78376e-06
-1.80452e-06 3.78376e-06 -5.01205e-05
0.00209972 -2.00718e-05 1.32332e-05
-2.00718e-05 0.000941847 4.65592e-06
1.32332e-05 4.65592e-06 0.000959738
-0.00113054 9.36009e-07 -9.22947e-06
9.36009e-07 -0.0001229 -4.06753e-06
-9.22947e-06 -4.06753e-06 -1.28864e-05
0.0012006 -0.000133169 -1.74814e-05
-0.000133169 -0.000358383 2.64469e-05
-1.74814e-05 2.64469e-05 -0.000101624
0.000315012 -0.000151419 7.76238e-06
-0.000151419 0.000868992 -2.4404e-05
7.76238e-06 -2.4404e-05 0.000684875
0.000749148 8.30526e-05 -3.18512e-07
8.30526e-05 0.00016934 3.71009e-07
-3.18512e-07 3.71009e-07 2.52315e-05
0.000570361 7.21039e-05 2.93195e-06
7.21039e-05 1.78867e-05 -8.76644e-07
2.93195e-06 -8.76644e-07 -0.000116198
-0.00108706 8.88781e-06 -4.28631e-06
8.88781e-06 -0.000971041 -6.48135e-06
-4.28631e-06 -6.48135e-06 -0.00107907
0.000218901 2.62208e-05 2.09484e-06
2.62208e-05 -0.000168882 6.79591e-06
2.09484e-06 6.79591e-06 -0.000297718
0.00232361 0.000291391 -1.12422e-06
0.000291391 0.00113274 6.18847e-07
-1.12422e-06 6.18847e-07 0.000935926
0.000710061 4.03623e-05 -3.59519e-06
4.03623e-05 0.000102628 -9.60291e-07
-3.59519e-06 -9.60291e-07 -1.09334e-05
0.000588737 7.66725e-05 -3.95658e-06
7.66725e-05 4.87121e-05 -4.51255e-06
-3.95658e-06 -4.51255e-06 -6.93403e-05
0.000739027 7.07844e-05 6.65737e-08
7.07844e-05 0.000141368 -3.10434e-07
6.65737e-08 -3.10434e-07 2.02039e-05
0.000957574 0.000131014 -5.59736e-08
0.000131014 0.000294199 -8.15144e-07
-5.59736e-08 -8.15144e-07 0.00016499
0.000791535 9.52169e-05 4.75462e-06
9.52169e-05 0.000265046 -5.15592e-06
4.75462e-06 -5.15592e-06 9.76774e-05
0.00423174 0.000530352 0.000268969
0.000530352 0.00290501 0.000356917
0.000268969 0.000356917 -0.00121323
0.00115795 0.000315651 1.38246e-05
0.000315651 -8.34128e-05 8.09449e-05
1.38246e-05 8.09449e-05 -0.00156336
0.00310907 -6.18149e-05 -1.49852e-06
-6.18149e-05 7.51332e-05 -1.3294e-05
-1.49852e-06 -1.3294e-05 -0.000193792
0.0124946 -0.00161084 -0.000167842
-0.00161084 0.00169884 -0.000133919
-0.000167842 -0.000133919 0.00334501
-0.00675459 0.00146254 2.88514e-05
0.00146254 -0.00271001 0.000356069
2.88514e-05 0.000356069 -0.00613827
0.00374124 -0.00167637 -9.53986e-05
-0.00167637 0.00118609 1.46443e-05
-9.53986e-05 1.46443e-05 0.00118932
0.0105335 -0.00154584 -0.000106321
-0.00154584 0.00520058 6.27439e-06
-0.000106321 6.27439e-06 0.00105357
0.000881826 -0.000399381 -2.28112e-05
-0.000399381 0.000223251 8.08069e-05
-2.28112e-05 8.08069e-05 0.000105407
0.0102005 -0.000284716 -7.24e-05
-0.000284716 0.00592043 -7.90599e-06
-7.24e-05 -7.90599e-06 0.000424475
0.0037695 -0.00203151 8.04514e-05
-0.00203151 0.00198029 0.00012432
8.04514e-05 0.00012432 -0.00121662
0.0102229 -0.00278789 -0.000176197
-0.00278789 0.000398271 -0.000513963
-0.000176197 -0.000513963 0.000122014
0.00330946 0.000108349 -0.000106373
0.000108349 0.00203822 7.75339e-05
-0.000106373 7.75339e-05 0.00138162
0.0117785 0.00186346 -0.000108216
0.00186346 0.00571747 2.6819e-05
-0.000108216 2.6819e-05 0.00149754
0.0143805 -0.00399476 -0.000172496
-0.00399476 0.00610096 -0.00047018
-0.000172496 -0.00047018 0.00416495
0.0142871 -0.00497533 7.89085e-05
-0.00497533 0.00450967 -3.13934e-05
7.89085e-05 -3.13934e-05 0.0042664
0.000328621 0.000120492 9.98822e-06
0.000120492 6.57036e-05 6.80997e-07
9.98822e-06 6.80997e-07 -0.000114336
0.000529361 3.81263e-05 1.45472e-06
3.81263e-05 0.000146297 2.22642e-06
1.45472e-06 2.22642e-06 -2.85229e-05
0.000831474 0.000142735 -5.35851e-06
0.000142735 0.000247838 -7.43936e-06
-5.35851e-06 -7.43936e-06 9.69131e-05
0.00290352 -0.000320572 -5.43174e-05
-0.000320572 0.00157806 3.75447e-05
-5.43174e-05 3.75447e-05 0.000601825
0.000595079 -6.11572e-05 -1.93694e-05
-6.11572e-05 0.000755906 -3.47633e-05
-1.93694e-05 -3.47633e-05 0.000441942
0.000464595 2.42395e-06 -7.60917e-06
2.42395e-06 4.54575e-05 -1.07487e-06
-7.60917e-06 -1.07487e-06 -6.86883e-05
4.38885e-05 4.48967e-05 -1.07222e-06
4.48967e-05 0.000248738 -4.43523e-06
-1.07222e-06 -4.43523e-06 -0.000125438
0.000287263 9.62001e-05 1.16138e-06
9.62001e-05 0.000194325 -1.13949e-06
1.16138e-06 -1.13949e-06 -3.46709e-05
0.000550971 0.000229063 8.34873e-06
0.000229063 0.000577966 1.39959e-06
8.34873e-06 1.39959e-06 0.000154239
-0.00136556 -8.5496e-05 0.000193531
-8.5496e-05 0.00064336 -1.9541e-05
0.000193531 -1.9541e-05 -0.000878673
-0.00169175 0.000144655 -1.30006e-05
0.000144655 -0.000861603 1.30355e-05
-1.30006e-05 1.30355e-05 -0.00116432
0.0025684 0.000554465 -0.000110364
0.000554465 0.00184653 -6.60293e-05
-0.000110364 -6.60293e-05 0.00077769
0.00164823 0.00015493 0.000124005
0.00015493 0.00152212 3.77069e-05
0.000124005 3.77069e-05 -0.0015495
-0.00102414 5.71004e-05 -8.00594e-06
5.71004e-05 0.000668774 1.75686e-05
-8.00594e-06 1.75686e-05 5.43699e-05
0.00174051 -0.000120176 -5.88105e-06
-0.000120176 0.000144143 1.12394e-06
-5.88105e-06 1.12394e-06 0.000475214
-0.0011892 0.000386317 0.000114798
0.000386317 -4.83793e-05 1.16578e-05
0.000114798 1.16578e-05 -0.000890213
0.00181184 0.000241126 -5.86994e-05
0.000241126 0.00142954 5.20423e-05
-5.86994e-05 5.20423e-05 0.00035097
0.000305153 -0.000132582 -1.4855e-05
-0.000132582 0.000840982 8.7555e-06
-1.4855e-05 8.7555e-06 0.000664392
0.0159909 -0.00275825 0.000150595
-0.00275825 0.00739784 -6.59763e-05
0.000150595 -6.59763e-05 0.00242683
0.0167352 0.00301807 -5.8739e-05
0.00301807 0.00686533 -8.85769e-05
-5.8739e-05 -8.85769e-05 0.00443467
0.00445648 -0.000951437 -0.000132511
-0.000951437 0.00198312 0.000174231
-0.000132511 0.000174231 -0.00206141
-0.00285291 0.00536171 0.00151754
0.00536171 -0.000237303 -0.001085
0.00151754 -0.001085 -0.000641789
0.000742149 -0.000319934 2.10761e-05
-0.000319934 0.000944372 -6.02391e-06
2.10761e-05 -6.02391e-06 0.000138465
0.000165758 -0.000296293 2.00157e-05
-0.000296293 8.645e-05 1.53127e-05
2.00157e-05 1.53127e-05 -0.0025556
-0.00243717 0.000253012 -0.000748848
0.000253012 0.00419624 0.000276697
-0.000748848 0.000276697 0.00130696
0.000940838 -0.000560269 -9.76855e-06
-0.000560269 0.000718308 3.44209e-05
-9.76855e-06 3.44209e-05 0.000276026
0.0168596 0.00400221 0.000209124
0.00400221 0.0048856 8.20341e-05
0.000209124 8.20341e-05 0.00384483
0.00780276 -0.00284948 0.000134466
-0.00284948 0.00292691 -6.41922e-05
0.000134466 -6.41922e-05 -0.000508815
0.00222239 -0.000868218 -1.09094e-05
-0.000868218 0.00113856 2.80787e-05
-1.09094e-05 2.80787e-05 0.000726207
-0.00606519 -0.00103817 8.46736e-05
-0.00103817 0.00347655 -4.62479e-05
8.46736e-05 -4.62479e-05 0.000327407
0.0131241 0.00363712 -0.000915396
0.00363712 0.00534025 0.000400554
-0.000915396 0.000400554 0.00398269
0.00358101 -0.001962 -0.000293105
-0.001962 -0.000541723 0.000168782
-0.000293105 0.000168782 -0.00411691
0.00224197 -0.00143764 0.000159403
-0.00143764 0.000438412 -8.74223e-05
0.000159403 -8.74223e-05 0.000975834
-6.21166e-05 -0.000275832 -6.32353e-05
-0.000275832 0.000128403 2.1197e-05
-6.32353e-05 2.1197e-05 -0.000217629
0.000694559 -0.000460952 -8.87716e-06
-0.000460952 0.000346849 1.20473e-05
-8.87716e-06 1.20473e-05 0.000125513
0.00329437 -0.000703023 2.65218e-05
-0.000703023 0.00149413 2.12904e-06
2.65218e-05 2.12904e-06 0.00122988
-0.00254526 -0.000108272 9.74938e-07
-0.000108272 -0.00134603 1.12673e-05
9.74938e-07 1.12673e-05 -0.00155248
0.00087301 -0.000441535 6.01955e-06
-0.000441535 0.000124614 8.86862e-07
6.01955e-06 8.86862e-07 -0.000134476
0.00221485 -0.000690347 8.43822e-06
-0.000690347 0.000543506 -1.23359e-06
8.43822e-06 -1.23359e-06 0.000241377
0.00325982 -0.000692815 -2.31398e-05
-0.000692815 0.00138619 7.1714e-06
-2.31398e-05 7.1714e-06 0.000933633
0.0014233 -0.000558759 -1.37008e-06
-0.000558759 0.000283885 -2.26197e-06
-1.37008e-06 -2.26197e-06 -0.00019022
0.00176614 -0.000693418 5.79849e-06
-0.000693418 0.00024731 -9.47911e-06
5.79849e-06 -9.47911e-06 -0.000135284
0.00267278 -0.000684023 -4.44324e-06
-0.000684023 0.000935257 1.96555e-06
-4.44324e-06 1.96555e-06 0.000474415
0.00187889 -0.000634533 2.66409e-07
-0.000634533 0.0004469 -4.71559e-06
2.66409e-07 -4.71559e-06 1.07274e-05
0.00237215 -0.000627396 2.67629e-06
-0.000627396 0.000533825 -8.36131e-06
2.67629e-06 -8.36131e-06 0.000214767
0.00167618 -0.000441378 -4.17883e-06
-0.000441378 5.27619e-05 -3.42776e-06
-4.17883e-06 -3.42776e-06 -0.000176409
0.00173246 -0.000580682 1.23266e-06
-0.000580682 0.00019075 -1.14956e-06
1.23266e-06 -1.14956e-06 -0.000132549
0.00192572 -0.000580355 2.39853e-06
-0.000580355 0.000337297 -2.86933e-06
2.39853e-06 -2.86933e-06 1.3179e-05
0.0019299 -0.000552391 8.81244e-07
-0.000552391 0.000504584 -2.04052e-07
8.81244e-07 -2.04052e-07 0.000174408
0.00199964 -0.000633525 -2.11653e-06
-0.000633525 0.000492898 1.25874e-07
-2.11653e-06 1.25874e-07 0.000122914
0.00209005 -0.000652337 5.25958e-07
-0.000652337 0.000542227 -2.99987e-06
5.25958e-07 -2.99987e-06 0.000139887
0.00187665 -0.000413892 4.36625e-06
-0.000413892 0.000626466 1.71389e-06
4.36625e-06 1.71389e-06 0.000352506
0.00122326 -0.000404446 1.7002e-06
-0.000404446 0.000212387 8.98943e-07
1.7002e-06 8.98943e-07 -7.36936e-05
0.00103728 -0.00040714 2.71569e-06
-0.00040714 6.51831e-05 1.57262e-07
2.71569e-06 1.57262e-07 -0.000235588
0.00104739 -0.000284463 -9.74963e-07
-0.000284463 0.000277771 3.42342e-07
-9.74963e-07 3.42342e-07 3.69423e-05
0.00103532 -0.00028692 -8.53047e-07
-0.00028692 0.000182119 -9.04991e-07
-8.53047e-07 -9.04991e-07 -5.53748e-05
0.000810374 -0.00029258 -3.85834e-06
-0.00029258 -3.74796e-06 -2.82445e-06
-3.85834e-06 -2.82445e-06 -0.000250674
-8.21054e-05 -3.83419e-05 -1.13169e-06
-3.83419e-05 -0.000356251 5.272e-06
-1.13169e-06 5.272e-06 -0.000506201
0.000760385 -0.000166225 2.27397e-06
-0.000166225 0.000209271 2.06331e-07
2.27397e-06 2.06331e-07 -3.68296e-05
0.00138426 -0.000235437 -1.80192e-06
-0.000235437 0.000538131 1.34772e-06
-1.80192e-06 1.34772e-06 0.000292763
0.00162094 6.54893e-05 -2.74271e-05
6.54893e-05 0.000678156 6.47077e-06
-2.74271e-05 6.47077e-06 0.000637516
0.000699951 -5.06249e-05 5.84373e-07
-5.06249e-05 0.000101655 -5.25138e-07
5.84373e-07 -5.25138e-07 -8.55036e-06
0.00144946 -0.000101865 -3.20285e-06
-0.000101865 0.000618259 -2.2154e-06
-3.20285e-06 -2.2154e-06 0.000420035
0.000776684 4.82354e-05 -3.74818e-05
4.82354e-05 0.000153596 4.62967e-06
-3.74818e-05 4.62967e-06 0.0001477
0.00102161 4.43994e-05 -1.19278e-05
4.43994e-05 0.000301944 -4.54618e-07
-1.19278e-05 -4.54618e-07 0.000267099
0.000619265 -2.19909e-05 9.01217e-07
-2.19909e-05 5.2446e-05 -4.49604e-06
9.01217e-07 -4.49604e-06 -3.90704e-05
0.000529782 3.2848e-05 1.15287e-06
3.2848e-05 -6.72851e-06 -6.92769e-06
1.15287e-06 -6.92769e-06 -3.89844e-05
0.0026966 0.000116019 6.11196e-06
0.000116019 0.001334 5.66601e-07
6.11196e-06 5.66601e-07 0.00133484
0.00257997 9.89449e-05 2.70949e-05
9.89449e-05 0.00125479 -4.40784e-06
2.70949e-05 -4.40784e-06 0.00125944
0.00108517 0.000117651 5.10082e-06
0.000117651 0.000386255 4.11638e-06
5.10082e-06 4.11638e-06 0.000233272
0.000958354 0.000120542 2.51505e-06
0.000120542 0.000319189 -2.41011e-06
2.51505e-06 -2.41011e-06 0.000163161
0.000445649 6.56332e-05 -6.70909e-07
6.56332e-05 -1.02387e-05 1.3138e-06
-6.70909e-07 1.3138e-06 -0.000151315
0.000637424 2.10341e-05 1.6082e-06
2.10341e-05 6.58689e-05 -4.18458e-06
1.6082e-06 -4.18458e-06 -1.89035e-05
0.000752335 8.58903e-05 5.93345e-07
8.58903e-05 0.000171193 2.06294e-09
5.93345e-07 2.06294e-09 4.14187e-05
0.000499097 -5.90652e-06 -9.05442e-07
-5.90652e-06 -3.63776e-05 -6.62491e-06
-9.05442e-07 -6.62491e-06 -6.1665e-05
0.000566383 3.08657e-05 -5.46753e-08
3.08657e-05 2.46001e-05 -2.60432e-07
-5.46753e-08 -2.60432e-07 -5.2149e-05
0.000704925 6.78177e-05 -2.04159e-06
6.78177e-05 0.000155362 1.22185e-06
-2.04159e-06 1.22185e-06 2.31795e-05
0.00248021 -6.86978e-05 -3.08958e-05
-6.86978e-05 0.00118252 -4.61158e-06
-3.08958e-05 -4.61158e-06 0.00119372
0.000490737 -9.54588e-06 -7.60777e-07
-9.54588e-06 -4.59373e-05 -8.53491e-08
-7.60777e-07 -8.53491e-08 -6.6428e-05
0.000573294 4.45384e-05 -2.38791e-07
4.45384e-05 2.9101e-05 2.87517e-06
-2.38791e-07 2.87517e-06 -3.99821e-05
0.00231499 -5.16857e-05 -5.19283e-06
-5.16857e-05 0.00107705 3.03224e-07
-5.19283e-06 3.03224e-07 0.00109122
0.0004912 -1.40977e-05 -2.56007e-06
-1.40977e-05 -4.75692e-05 4.61117e-06
-2.56007e-06 4.61117e-06 -6.36671e-05
0.00219143 -3.44205e-05 1.85617e-05
-3.44205e-05 0.000999002 4.56612e-06
1.85617e-05 4.56612e-06 0.00101559
0.00593489 0.000318131 0.00020084
0.000318131 0.0028444 3.67027e-05
0.00020084 3.67027e-05 0.00123255
-0.00100727 -2.01237e-05 -8.0362e-07
-2.01237e-05 -0.000125827 -3.36303e-06
-8.0362e-07 -3.36303e-06 -0.000125159
0.000984921 -5.08138e-05 -2.40976e-05
-5.08138e-05 -0.00035501 1.20025e-06
-2.40976e-05 1.20025e-06 -3.85793e-05
-0.000111792 9.17992e-05 -6.61837e-06
9.17992e-05 -0.00037408 -1.91312e-06
-6.61837e-06 -1.91312e-06 -0.000499968
0.000730108 7.73362e-05 -3.52285e-06
7.73362e-05 0.000152862 -1.09437e-06
-3.52285e-06 -1.09437e-06 1.77278e-05
0.000225758 5.75596e-05 4.02359e-07
5.75596e-05 -0.000194152 -2.77101e-06
4.02359e-07 -2.77101e-06 -0.000321337
0.000920743 5.67005e-05 4.50395e-07
5.67005e-05 0.000243324 -4.13064e-07
4.50395e-07 -4.13064e-07 0.000109932
0.000397445 8.74214e-05 -1.32804e-06
8.74214e-05 -8.62407e-05 7.63691e-08
-1.32804e-06 7.63691e-08 -0.00020242
0.00168495 0.000226678 5.2844e-07
0.000226678 0.000741515 -2.5197e-06
5.2844e-07 -2.5197e-06 0.000576078
0.00102058 0.000180221 -2.96101e-06
0.000180221 0.000308005 -1.13462e-05
-2.96101e-06 -1.13462e-05 9.14131e-05
-0.000316793 4.28746e-05 2.31283e-06
4.28746e-05 -0.000366131 4.74614e-06
2.31283e-06 4.74614e-06 -0.000569447
0.000770277 0.000129774 -2.92743e-06
0.000129774 0.000178904 -8.22167e-07
-2.92743e-06 -8.22167e-07 4.54211e-05
0.00025754 4.10979e-05 -4.50313e-06
4.10979e-05 -0.000163279 -3.44008e-06
-4.50313e-06 -3.44008e-06 -0.000263168
0.000300159 5.48639e-05 1.31699e-07
5.48639e-05 -4.25768e-05 1.02429e-06
1.31699e-07 1.02429e-06 -0.000200006
0.00118116 0.000212491 1.35732e-05
0.000212491 0.000588682 7.25894e-06
1.35732e-05 7.25894e-06 0.000352187
0.0014881 -0.00167681 0.000147125
-0.00167681 0.0039226 0.000238875
0.000147125 0.000238875 0.000166148
0.00481186 0.00069458 5.93534e-05
0.00069458 0.00260664 0.000132193
5.93534e-05 0.000132193 -0.0017268
0.00166194 0.000241815 -2.75804e-05
0.000241815 0.000263936 -6.685e-05
-2.75804e-05 -6.685e-05 -0.00142804
0.016191 -0.00344665 -0.000449974
-0.00344665 0.00355346 -0.000279455
-0.000449974 -0.000279455 0.00320524
0.00629843 -0.0012526 0.00016298
-0.0012526 0.00252561 0.000368821
0.00016298 0.000368821 0.000150666
0.00259843 -0.00111718 -0.000151535
-0.00111718 0.00360791 8.48896e-05
-0.000151535 8.48896e-05 -0.00225591
0.000999035 -0.000534277 4.58796e-05
-0.000534277 0.00108347 2.83711e-05
4.58796e-05 2.83711e-05 0.000388406
0.00131215 -0.000103975 1.61669e-05
-0.000103975 0.000962592 5.17545e-05
1.61669e-05 5.17545e-05 0.000614007
0.0063024 -0.00513054 0.000274328
-0.00513054 0.00219155 0.00026737
0.000274328 0.00026737 0.00188531
0.00311295 0.00123802 -5.42362e-05
0.00123802 0.00378 -5.49046e-05
-5.42362e-05 -5.49046e-05 -0.00171285
0.00532955 -0.00242871 -8.14214e-05
-0.00242871 0.00104323 7.61056e-05
-8.14214e-05 7.61056e-05 -0.00135355
0.000425041 0.000458406 -2.20049e-05
0.000458406 0.000556055 6.13511e-05
-2.20049e-05 6.13511e-05 0.000396844
0.0100675 0.00226769 -8.2881e-05
0.00226769 0.00403215 -4.15672e-06
-8.2881e-05 -4.15672e-06 0.00057225
0.00915348 -0.00422765 -0.000538955
-0.00422765 0.0019761 -0.000375498
-0.000538955 -0.000375498 0.000631119
0.000302123 0.000382175 4.03832e-06
0.000382175 -0.000158312 -5.31808e-06
4.03832e-06 -5.31808e-06 -0.000320116
0.000506026 0.000109231 5.56666e-06
0.000109231 0.000159834 1.61336e-06
5.56666e-06 1.61336e-06 -8.01921e-06
0.000150172 4.71571e-05 -6.23866e-06
4.71571e-05 -7.86498e-05 -3.56648e-06
-6.23866e-06 -3.56648e-06 -0.000255483
-0.00212675 -0.00025161 -9.67702e-05
-0.00025161 0.00035292 -4.93921e-05
-9.67702e-05 -4.93921e-05 -0.00114054
-0.000720999 0.00017171 7.06942e-06
0.00017171 -0.000188533 -1.67689e-05
7.06942e-06 -1.67689e-05 -0.000614186
0.000293929 9.06168e-05 -8.85258e-06
9.06168e-05 0.000177928 1.10406e-06
-8.85258e-06 1.10406e-06 -5.93119e-05
0.000767775 0.000444732 1.40484e-05
0.000444732 0.000412991 3.37402e-06
1.40484e-05 3.37402e-06 8.063e-05
-0.000172576 0.000318687 4.16639e-05
0.000318687 0.000487092 -2.83489e-05
4.16639e-05 -2.83489e-05 -0.000444982
0.000371247 0.000833769 4.13734e-05
0.000833769 -0.000188553 3.83348e-06
4.13734e-05 3.83348e-06 -0.000754774
-0.00397116 0.000728611 0.000237061
0.000728611 0.00442798 1.19174e-05
0.000237061 1.19174e-05 -0.000292562
0.00224742 -2.65654e-05 -5.15906e-06
-2.65654e-05 0.00170725 4.4525e-05
-5.15906e-06 4.4525e-05 -0.000532321
-0.00136673 -3.62253e-05 -6.22748e-06
-3.62253e-05 0.000297534 2.87341e-05
-6.22748e-06 2.87341e-05 -9.65968e-05
-8.38432e-05 -0.000193944 -6.05897e-05
-0.000193944 0.000625399 1.22181e-05
-6.05897e-05 1.22181e-05 -0.000195423
-0.00107827 -0.000228675 -6.27843e-05
-0.000228675 -0.000765735 3.63717e-05
-6.27843e-05 3.63717e-05 -0.000458063
0.000376864 -0.000228027 -0.000132353
-0.000228027 0.000268882 6.893e-05
-0.000132353 6.893e-05 -0.0024647
-0.00151593 -0.00235414 0.00014843
-0.00235414 0.0010956 -0.000102404
0.00014843 -0.000102404 -0.00375115
0.00256209 0.00344851 0.000412151
0.00344851 -0.00225161 -0.000326813
0.000412151 -0.000326813 -0.00323214
0.0055791 0.00170416 -0.000320851
0.00170416 0.00540331 0.00021602
-0.000320851 0.00021602 0.00296238
0.00131168 -0.000496434 -4.9332e-06
-0.000496434 0.000893055 -3.27331e-06
-4.9332e-06 -3.27331e-06 0.000511648
0.00135104 0.000302965 6.75775e-05
0.000302965 0.0053077 -3.74883e-06
6.75775e-05 -3.74883e-06 0.00275748
-0.00149336 0.00239118 1.65241e-05
0.00239118 -8.69945e-06 4.01085e-05
1.65241e-05 4.01085e-05 -0.00244007
0.00272311 -0.00166993 7.52337e-05
-0.00166993 0.000863278 -2.69638e-05
7.52337e-05 -2.69638e-05 0.000716997
0.0155319 -0.0020676 2.60207e-05
-0.0020676 0.00411089 -1.21675e-05
2.60207e-05 -1.21675e-05 0.00220712
0.0029699 -0.0010766 -1.36334e-05
-0.0010766 0.00104335 2.44111e-05
-1.36334e-05 2.44111e-05 0.000923203
-0.00909258 0.000782143 -0.000345725
0.000782143 -0.00354499 3.21756e-05
-0.000345725 3.21756e-05 -0.00525526
0.0146498 -0.00133026 -0.000165579
-0.00133026 0.00274157 5.55219e-05
-0.000165579 5.55219e-05 0.00119424
0.00346863 -0.0019234 6.69327e-05
-0.0019234 -0.000198432 -5.4561e-05
6.69327e-05 -5.4561e-05 -0.000263791
-0.000126643 -0.000337928 -1.42811e-05
-0.000337928 -2.15838e-05 1.50158e-05
-1.42811e-05 1.50158e-05 -0.000315254
0.00115261 -0.000564247 -2.95945e-06
-0.000564247 0.000227457 5.66625e-07
-2.95945e-06 5.66625e-07 8.80469e-05
0.00445582 -0.000760818 1.90872e-05
-0.000760818 0.00178619 -3.95732e-06
1.90872e-05 -3.95732e-06 0.00151881
-0.000774971 -0.000259557 -1.03698e-05
-0.000259557 -0.000713252 5.19132e-06
-1.03698e-05 5.19132e-06 -0.000970087
0.00138935 -0.000603712 -6.64879e-06
-0.000603712 0.000140667 -3.34225e-06
-6.64879e-06 -3.34225e-06 -0.000178852
0.00263341 -0.000789776 5.9071e-06
-0.000789776 0.000576885 -7.4459e-06
5.9071e-06 -7.4459e-06 0.000266885
0.00115814 -0.00051604 -1.62282e-05
-0.00051604 0.000119568 2.28198e-06
-1.62282e-05 2.28198e-06 -0.000332847
0.00170418 -0.000671511 -8.25337e-07
-0.000671511 0.000228261 -3.4155e-07
-8.25337e-07 -3.4155e-07 -0.000157549
0.00151661 -0.000561202 4.02773e-06
-0.000561202 -9.39849e-05 -5.49022e-06
4.02773e-06 -5.49022e-06 -0.000337306
0.00135952 -0.000586243 -7.50861e-06
-0.000586243 0.000137821 1.05535e-06
-7.50861e-06 1.05535e-06 -0.000280593
0.00176857 -0.000561045 -4.71302e-07
-0.000561045 0.000205607 1.17889e-06
-4.71302e-07 1.17889e-06 -0.000100301
0.0018375 -0.000442653 -4.59214e-07
-0.000442653 8.30023e-05 -4.83311e-06
-4.59214e-07 -4.83311e-06 -0.000103663
0.0017276 -0.000355326 -4.93719e-06
-0.000355326 5.6526e-05 -1.88644e-06
-4.93719e-06 -1.88644e-06 -9.96281e-05
0.0015829 -0.000440199 -4.57542e-06
-0.000440199 1.5669e-05 -2.14235e-06
-4.57542e-06 -2.14235e-06 -0.000220728
0.00168961 -0.000434192 1.26793e-06
-0.000434192 6.81781e-05 2.30178e-06
1.26793e-06 2.30178e-06 -0.000155859
0.00153073 -0.000499068 -3.20264e-06
-0.000499068 0.000126703 -1.90186e-06
-3.20264e-06 -1.90186e-06 -0.000168653
0.00187395 -0.000585195 2.14446e-06
-0.000585195 0.000286974 -5.04286e-07
2.14446e-06 -5.04286e-07 -3.29228e-05
0.00189565 -0.000575617 1.57546e-06
-0.000575617 0.000318918 9.55146e-07
1.57546e-06 9.55146e-07 -1.71962e-06
0.00150602 -0.000445133 -1.83956e-06
-0.000445133 0.00030673 1.01999e-06
-1.83956e-06 1.01999e-06 7.48265e-06
0.00175958 -0.000538862 7.4677e-07
-0.000538862 0.000403901 -2.08181e-07
7.4677e-07 -2.08181e-07 7.49171e-05
0.00194119 -0.0006262 -3.85101e-06
-0.0006262 0.000474062 -7.63091e-07
-3.85101e-06 -7.63091e-07 0.000100249
0.00114723 -0.000284018 -3.25359e-06
-0.000284018 0.000211457 9.03103e-07
-3.25359e-06 9.03103e-07 -1.1866e-05
0.00128085 -0.000356375 1.75207e-06
-0.000356375 0.000255105 2.78997e-07
1.75207e-06 2.78997e-07 -7.49402e-06
0.00040609 -0.000314938 -9.63623e-07
-0.000314938 -0.000267412 -1.55063e-06
-9.63623e-07 -1.55063e-06 -0.000532399
0.0005167 -0.000154823 -2.97816e-06
-0.000154823 -7.56642e-06 3.28845e-06
-2.97816e-06 3.28845e-06 -0.000202099
0.0011375 -0.000288729 -1.17759e-07
-0.000288729 0.00031975 4.14375e-07
-1.17759e-07 4.14375e-07 8.3374e-05
0.0003225 -0.00021469 -5.0468e-06
-0.00021469 -0.000244775 -5.2204e-07
-5.0468e-06 -5.2204e-07 -0.000468938
0.000450785 3.40138e-06 -4.32827e-06
3.40138e-06 -4.03532e-05 1.08673e-05
-4.32827e-06 1.08673e-05 -9.76858e-05
0.000754506 -0.000106931 8.60299e-09
-0.000106931 0.000156591 1.52521e-07
8.60299e-09 1.52521e-07 -8.8681e-06
0.0011132 -0.000173161 9.1015e-07
-0.000173161 0.000419873 -1.26922e-06
9.1015e-07 -1.26922e-06 0.000174059
0.00305209 0.000178176 -2.494e-06
0.000178176 0.00157748 3.26006e-06
-2.494e-06 3.26006e-06 0.001559
0.000449183 1.82381e-05 -1.2498e-07
1.82381e-05 -4.89131e-05 -9.08553e-08
-1.2498e-07 -9.08553e-08 -9.44435e-05
0.000899415 -7.92314e-05 2.76387e-06
-7.92314e-05 0.000223202 -5.86711e-06
2.76387e-06 -5.86711e-06 0.00010598
0.00285964 0.000132277 5.77806e-06
0.000132277 0.00144174 4.5846e-07
5.77806e-06 4.5846e-07 0.00143887
0.000552507 2.54666e-05 1.86232e-06
2.54666e-05 1.15525e-05 -7.94994e-06
1.86232e-06 -7.94994e-06 -2.57413e-05
0.00274488 0.000116789 3.69402e-05
0.000116789 0.00136406 -3.79074e-06
3.69402e-05 -3.79074e-06 0.00136488
0.00122934 0.000188943 5.50397e-06
0.000188943 0.000439222 5.61971e-06
5.50397e-06 5.61971e-06 0.0002689
0.000736801 0.000108781 5.81211e-07
0.000108781 0.000180842 6.34308e-08
5.81211e-07 6.34308e-08 2.3313e-05
0.00104796 0.000103183 1.27547e-06
0.000103183 0.00038586 -3.53129e-06
1.27547e-06 -3.53129e-06 0.000207584
0.000650031 2.45218e-05 1.30264e-06
2.45218e-05 8.19529e-05 -5.84671e-06
1.30264e-06 -5.84671e-06 -1.54315e-05
0.000714888 7.17213e-05 1.0034e-07
7.17213e-05 0.000157599 4.59691e-07
1.0034e-07 4.59691e-07 1.275e-05
0.000418176 8.40571e-05 -2.73033e-07
8.40571e-05 -2.09991e-05 1.59599e-06
-2.73033e-07 1.59599e-06 -0.000168077
0.000515618 -6.76949e-06 -1.73035e-06
-6.76949e-06 -2.24832e-05 -7.72656e-06
-1.73035e-06 -7.72656e-06 -5.25351e-05
0.000595868 2.80945e-05 -6.40117e-08
2.80945e-05 4.52035e-05 -2.30364e-07
-6.40117e-08 -2.30364e-07 -4.10362e-05
0.000574609 7.45885e-05 -2.01367e-06
7.45885e-05 5.59807e-05 1.20086e-06
-2.01367e-06 1.20086e-06 -6.53059e-05
0.00262402 -8.45112e-05 -3.93199e-05
-8.45112e-05 0.00127621 -4.31465e-06
-3.93199e-05 -4.31465e-06 0.00128455
0.000466342 -1.78571e-05 1.771e-06
-1.78571e-05 -5.59697e-05 -1.12075e-07
1.771e-06 -1.12075e-07 -8.14222e-05
0.000564124 3.51614e-05 -1.12479e-06
3.51614e-05 2.41179e-05 3.28196e-06
-1.12479e-06 3.28196e-06 -5.30872e-05
0.00245816 -6.82336e-05 -5.58931e-06
-6.82336e-05 0.00116862 3.84208e-07
-5.58931e-06 3.84208e-07 0.00117992
0.000483573 -1.49883e-05 -1.99768e-06
-1.49883e-05 -4.99848e-05 5.5398e-06
-1.99768e-06 5.5398e-06 -7.04243e-05
0.00230073 -5.07595e-05 2.21203e-05
-5.07595e-05 0.00106814 4.53118e-06
2.21203e-05 4.53118e-06 0.00108251
-0.00864983 0.000719565 -4.66137e-05
0.000719565 0.00251502 7.34e-05
-4.66137e-05 7.34e-05 -0.00206244
0.0056271 0.000181134 -6.79257e-06
0.000181134 0.00293412 -2.77384e-06
-6.79257e-06 -2.77384e-06 0.00138805
-0.000834452 -4.29486e-05 4.02031e-06
-4.29486e-05 -0.000144888 -2.73843e-06
4.02031e-06 -2.73843e-06 -0.000265042
-4.96178e-05 7.0263e-05 -2.4503e-06
7.0263e-05 -0.000336702 2.2968e-06
-2.4503e-06 2.2968e-06 -0.000464828
0.00335757 0.000528026 5.79303e-06
0.000528026 0.00169779 7.95214e-06
5.79303e-06 7.95214e-06 0.00143119
0.00108481 0.000108174 -4.99894e-06
0.000108174 0.000371561 -1.15265e-07
-4.99894e-06 -1.15265e-07 0.000194804
0.000775949 6.17724e-05 -4.15638e-06
6.17724e-05 0.000150893 -7.18829e-06
-4.15638e-06 -7.18829e-06 1.70937e-05
0.00177421 0.000190829 2.45542e-06
0.000190829 0.000735367 -1.50102e-06
2.45542e-06 -1.50102e-06 0.000606677
-9.53558e-05 5.89975e-05 -6.21733e-06
5.89975e-05 -0.000346473 2.38794e-06
-6.21733e-06 2.38794e-06 -0.000468024
0.000362516 7.30822e-05 -1.17724e-06
7.30822e-05 2.08847e-05 3.26027e-06
-1.17724e-06 3.26027e-06 -0.000180462
0.000540308 0.000125493 -3.45566e-06
0.000125493 4.19525e-05 -4.39986e-06
-3.45566e-06 -4.39986e-06 -0.000168203
0.00134981 0.000275149 6.89323e-06
0.000275149 0.000577014 -1.21896e-05
6.89323e-06 -1.21896e-05 0.000283427
0.000351949 0.000346948 -6.07103e-06
0.000346948 -0.000148055 1.60188e-05
-6.07103e-06 1.60188e-05 -0.000284599
0.00123645 7.47814e-05 -5.68008e-06
7.47814e-05 0.000517797 4.35104e-06
-5.68008e-06 4.35104e-06 0.000353098
0.00109812 0.000183868 2.18007e-06
0.000183868 0.000547482 -2.43615e-07
2.18007e-06 -2.43615e-07 0.000315277
-0.00260961 -0.00149191 -0.00086445
-0.00149191 0.000406638 -0.000141502
-0.00086445 -0.000141502 -0.00199922
-0.00354202 -0.00122748 0.000319769
-0.00122748 0.00332767 0.000151028
0.000319769 0.000151028 -0.000734566
0.00538273 0.000828475 -0.000311536
0.000828475 0.00254124 -0.000113239
-0.000311536 -0.000113239 -0.00204268
-0.0034802 -0.0053505 0.00139811
-0.0053505 -0.000277795 0.000998115
0.00139811 0.000998115 -0.000997007
0.0195347 -0.00257624 8.19586e-06
-0.00257624 0.00625881 0.000242127
8.19586e-06 0.000242127 0.00477169
-0.0019701 0.00142778 -4.94952e-07
0.00142778 0.00128082 -0.000143035
-4.94952e-07 -0.000143035 -0.00364362
-0.000407613 0.000163701 -0.000276358
0.000163701 0.000435282 -3.27339e-05
-0.000276358 -3.27339e-05 -0.000708111
0.00147794 0.000569941 4.51053e-05
0.000569941 0.00105395 3.96992e-05
4.51053e-05 3.96992e-05 0.000870451
0.0140659 -0.00312056 -0.000369715
-0.00312056 0.00605609 3.4919e-05
-0.000369715 3.4919e-05 0.00442086
-0.00143483 0.00189454 -5.67545e-05
0.00189454 0.000482966 -4.43596e-05
-5.67545e-05 -4.43596e-05 -0.00367157
0.002446 0.00137948 -2.21071e-05
0.00137948 0.000657418 -6.0139e-05
-2.21071e-05 -6.0139e-05 0.00102468
0.00293584 0.00283637 -0.000253933
0.00283637 -0.00114618 -0.000126303
-0.000253933 -0.000126303 -0.00384126
0.00279025 0.000895763 1.71025e-05
0.000895763 0.00091501 -1.24399e-05
1.71025e-05 -1.24399e-05 0.000615767
0.000967767 0.00042436 -5.54793e-06
0.00042436 0.000261164 -2.82284e-07
-5.54793e-06 -2.82284e-07 9.52515e-05
0.000872367 0.00015587 -7.30802e-06
0.00015587 0.000376627 -7.29533e-07
-7.30802e-06 -7.29533e-07 0.000205325
-0.00156684 0.000219107 -6.06725e-05
0.000219107 -0.000305347 -5.87691e-05
-6.06725e-05 -5.87691e-05 -0.00111764
0.00219781 0.00063527 -3.08376e-05
0.00063527 0.0011278 -1.88149e-05
-3.08376e-05 -1.88149e-05 0.000780528
0.00148086 0.000959604 1.39294e-05
0.000959604 0.000301873 -5.78988e-06
1.39294e-05 -5.78988e-06 -0.000254671
0.000738945 0.00121112 0.000102052
0.00121112 -0.000840975 3.80663e-05
0.000102052 3.80663e-05 -0.00107293
-0.0055172 -0.000237866 -0.000400826
-0.000237866 -0.00456679 1.89596e-05
-0.000400826 1.89596e-05 -0.00339507
-0.00606927 0.00035156 0.000239207
0.00035156 0.00425073 8.68745e-06
0.000239207 8.68745e-06 -0.000387904
0.00282129 -9.97687e-05 -9.2789e-05
-9.97687e-05 0.00188796 3.28461e-05
-9.2789e-05 3.28461e-05 0.000345781
0.00188233 -0.000582526 -3.99331e-05
-0.000582526 0.000866188 -4.82143e-05
-3.99331e-05 -4.82143e-05 0.00050154
0.000537414 -0.00143889 -1.62926e-05
-0.00143889 -0.000408891 4.07321e-05
-1.62926e-05 4.07321e-05 -0.000409423
0.000800443 0.000318128 -7.59476e-06
0.000318128 0.00505498 2.82303e-05
-7.59476e-06 2.82303e-05 0.00256669
0.0017501 -0.00192663 0.000299536
-0.00192663 -0.00108882 -0.000136788
0.000299536 -0.000136788 -0.00375929
0.0154704 0.00218735 0.000417997
0.00218735 0.00693005 -5.9609e-05
0.000417997 -5.9609e-05 0.00518764
0.00231448 -0.00120705 -2.50281e-05
-0.00120705 0.000615737 7.73047e-06
-2.50281e-05 7.73047e-06 0.000225817
0.000680628 0.000883291 0.00016253
0.000883291 -0.000121069 -4.52567e-05
0.00016253 -4.52567e-05 -0.00124867
0.0074588 -0.00119548 -0.000104982
-0.00119548 -0.000822267 9.50407e-05
-0.000104982 9.50407e-05 -0.00311389
0.00503564 -0.00203942 -2.54704e-05
-0.00203942 0.000497212 2.26786e-05
-2.54704e-05 2.26786e-05 0.000396529
0.00279176 -0.000975495 7.77394e-05
-0.000975495 0.000574105 -9.6626e-06
7.77394e-05 -9.6626e-06 0.000383268
0.01332 -0.000652817 -5.70793e-06
-0.000652817 0.00293121 -1.71477e-06
-5.70793e-06 -1.71477e-06 0.00142226
0.00220322 -0.00114777 9.77032e-05
-0.00114777 -0.00222346 -7.50494e-05
9.77032e-05 -7.50494e-05 -0.00159867
-0.000417657 -0.000443189 -3.11093e-05
-0.000443189 -0.000716988 1.67966e-05
-3.11093e-05 1.67966e-05 -0.000742888
0.000170413 -0.000418964 -2.17314e-05
-0.000418964 -0.000580693 9.21514e-07
-2.17314e-05 9.21514e-07 -0.00068011
0.00452923 -0.000820573 4.90141e-05
-0.000820573 0.00144424 -2.16803e-05
4.90141e-05 -2.16803e-05 0.00132869
0.000456719 -0.000502363 -2.02929e-05
-0.000502363 -0.000328096 -5.27149e-06
-2.02929e-05 -5.27149e-06 -0.000653013
0.00189751 -0.000707544 -4.84376e-07
-0.000707544 0.000201523 -1.77711e-06
-4.84376e-07 -1.77711e-06 -8.83988e-05
0.00254742 -0.000659952 2.60206e-06
-0.000659952 0.000299791 -3.72763e-06
2.60206e-06 -3.72763e-06 0.000129042
0.00186294 -0.000672539 -6.07303e-06
-0.000672539 0.000322272 5.7519e-06
-6.07303e-06 5.7519e-06 -6.87213e-05
0.00193788 -0.000596897 -7.23356e-07
-0.000596897 0.000132887 1.56211e-06
-7.23356e-07 1.56211e-06 -0.000115441
0.00198556 -0.000455308 2.42368e-06
-0.000455308 5.77881e-05 -2.42273e-07
2.42368e-06 -2.42273e-07 -7.60392e-05
0.00121505 -0.000499042 2.87093e-06
-0.000499042 -9.60739e-05 6.56924e-06
2.87093e-06 6.56924e-06 -0.00038941
0.00182724 -0.000435269 -5.83485e-07
-0.000435269 8.19683e-05 1.57488e-06
-5.83485e-07 1.57488e-06 -0.000102379
0.00187685 -0.000385137 -2.40133e-06
-0.000385137 7.08612e-05 3.11336e-07
-2.40133e-06 3.11336e-07 -5.92559e-05
0.00205523 -0.000368125 -4.13143e-06
-0.000368125 0.000255864 4.17417e-07
-4.13143e-06 4.17417e-07 0.000123616
0.00182573 -0.00036023 -2.74055e-06
-0.00036023 0.000107958 3.3321e-06
-2.74055e-06 3.3321e-06 -4.42904e-05
0.00187908 -0.000379284 -2.31828e-06
-0.000379284 0.00017559 -4.81949e-06
-2.31828e-06 -4.81949e-06 3.79976e-06
0.0018167 -0.000454132 -5.00987e-06
-0.000454132 0.000187945 -2.24283e-06
-5.00987e-06 -2.24283e-06 -5.40015e-05
0.00177933 -0.000455831 1.54578e-06
-0.000455831 0.000135712 6.2277e-07
1.54578e-06 6.2277e-07 -0.00010207
0.00171193 -0.000427937 5.16252e-06
-0.000427937 8.73956e-05 6.99943e-06
5.16252e-06 6.99943e-06 -0.00013171
0.00166304 -0.000471852 -6.56304e-06
-0.000471852 0.000273965 -7.83582e-07
-6.56304e-06 -7.83582e-07 -1.55301e-05
0.00155347 -0.000505615 -6.96253e-07
-0.000505615 0.000129525 2.07681e-07
-6.96253e-07 2.07681e-07 -0.000168233
0.00199738 -0.000589382 3.81943e-06
-0.000589382 0.000371216 4.10418e-07
3.81943e-06 4.10418e-07 5.45504e-05
0.00131587 -0.000322439 -6.20034e-06
-0.000322439 0.000259571 4.46455e-06
-6.20034e-06 4.46455e-06 1.59919e-05
0.00149307 -0.000441182 2.73594e-07
-0.000441182 0.000300049 9.87428e-07
2.73594e-07 9.87428e-07 2.5764e-06
0.00152957 -0.000519819 1.10715e-06
-0.000519819 0.000265518 3.77875e-07
1.10715e-06 3.77875e-07 -6.07792e-05
0.000774723 -0.000200866 -6.4935e-06
-0.000200866 8.03625e-05 4.82531e-06
-6.4935e-06 4.82531e-06 -0.0001109
0.00105413 -0.00027765 1.87565e-07
-0.00027765 0.000155666 -6.10002e-07
1.87565e-07 -6.10002e-07 -6.87276e-05
0.000828394 -0.000313226 4.06088e-07
-0.000313226 -2.8814e-05 -1.1268e-06
4.06088e-07 -1.1268e-06 -0.000283163
0.000431762 -7.63727e-05 -1.45103e-05
-7.63727e-05 -7.61537e-05 1.36202e-05
-1.45103e-05 1.36202e-05 -0.00014638
0.000680294 -0.000155052 5.3794e-07
-0.000155052 9.94596e-05 9.52117e-07
5.3794e-07 9.52117e-07 -0.000100928
0.00101137 -0.000298527 1.46393e-06
-0.000298527 0.000231219 -1.49119e-07
1.46393e-06 -1.49119e-07 -2.74803e-06
0.00347799 0.000174196 -6.72083e-05
0.000174196 0.00184382 3.61225e-06
-6.72083e-05 3.61225e-06 0.00182809
0.000522673 -1.69406e-05 7.03214e-07
-1.69406e-05 -4.21908e-06 -5.61873e-07
7.03214e-07 -5.61873e-07 -6.22941e-05
0.00147263 -0.000153124 2.02235e-06
-0.000153124 0.000595388 -6.14394e-06
2.02235e-06 -6.14394e-06 0.000418144
0.0020223 0.000113771 3.55201e-05
0.000113771 0.000935485 1.02531e-06
3.55201e-05 1.02531e-06 0.000922238
0.000591899 1.25858e-05 4.63087e-06
1.25858e-05 3.5284e-05 -9.7016e-06
4.63087e-06 -9.7016e-06 -9.99695e-06
0.00293582 0.000127332 5.46508e-05
0.000127332 0.00148804 -3.47276e-06
5.46508e-05 -3.47276e-06 0.00148638
0.00114729 0.000219722 6.63862e-06
0.000219722 0.000326821 8.37944e-07
6.63862e-06 8.37944e-07 0.000156343
0.000508747 0.000105408 -9.29034e-07
0.000105408 -4.78947e-06 -4.52914e-07
-9.29034e-07 -4.52914e-07 -0.000153433
0.000613219 0.000114005 1.04915e-06
0.000114005 8.60393e-05 -2.05979e-06
1.04915e-06 -2.05979e-06 -7.81013e-05
0.000712443 0.00011194 -1.44158e-06
0.00011194 0.000167039 -9.48511e-07
-1.44158e-06 -9.48511e-07 6.32577e-06
0.00065224 7.56241e-05 2.19799e-07
7.56241e-05 0.000116924 4.12745e-07
2.19799e-07 4.12745e-07 -3.91631e-05
0.000706041 5.03476e-05 -3.65842e-07
5.03476e-05 0.000115747 -6.67399e-06
-3.65842e-07 -6.67399e-06 4.61594e-06
0.000562872 2.07274e-06 -3.11698e-06
2.07274e-06 1.37086e-05 -9.47099e-06
-3.11698e-06 -9.47099e-06 -2.36965e-05
0.000624284 2.39132e-05 4.59204e-07
2.39132e-05 7.0113e-05 -1.65576e-07
4.59204e-07 -1.65576e-07 -2.85854e-05
0.000467834 3.96221e-05 -2.65595e-06
3.96221e-05 -1.93972e-05 2.71956e-06
-2.65595e-06 2.71956e-06 -0.000144116
0.00273668 -9.80853e-05 -5.08962e-05
-9.80853e-05 0.00135201 -4.12702e-06
-5.08962e-05 -4.12702e-06 0.0013578
0.000476484 -5.28339e-06 5.47593e-07
-5.28339e-06 -4.38263e-05 -1.69933e-07
5.47593e-07 -1.69933e-07 -7.43229e-05
0.000540119 2.83282e-05 -1.46051e-06
2.83282e-05 1.71194e-05 4.11463e-06
-1.46051e-06 4.11463e-06 -7.11228e-05
0.00259884 -8.47118e-05 -6.05764e-06
-8.47118e-05 0.00126053 4.53609e-07
-6.05764e-06 4.53609e-07 0.0012687
0.000457066 -2.18398e-05 -2.03953e-07
-2.18398e-05 -6.02715e-05 6.4256e-06
-2.03953e-07 6.4256e-06 -8.62065e-05
0.00245771 -6.76703e-05 2.76548e-05
-6.76703e-05 0.00116801 4.57217e-06
2.76548e-05 4.57217e-06 0.00117938
0.000371817 0.000285879 -0.000481672
0.000285879 0.00283437 -1.72265e-05
-0.000481672 -1.72265e-05 0.00118029
-0.00468002 0.000137018 3.39503e-05
0.000137018 0.00330281 6.87327e-06
3.39503e-05 6.87327e-06 -0.00135444
0.00528003 6.37507e-05 -0.000136882
6.37507e-05 0.00295185 -3.34479e-05
-0.000136882 -3.34479e-05 0.00149903
0.000356991 5.23223e-05 1.69871e-07
5.23223e-05 -9.28853e-05 -5.04868e-06
1.69871e-07 -5.04868e-06 -0.000220748
0.000827 7.13866e-05 4.7013e-06
7.13866e-05 0.000213996 3.12498e-06
4.7013e-06 3.12498e-06 2.20603e-05
0.00242278 0.000420619 -2.29045e-06
0.000420619 0.00115337 2.69163e-06
-2.29045e-06 2.69163e-06 0.000915364
0.00179636 0.000451027 6.77257e-06
0.000451027 0.000640589 -2.45754e-06
6.77257e-06 -2.45754e-06 0.000319929
0.000581537 0.000237547 -7.02693e-07
0.000237547 0.000120159 -2.10265e-06
-7.02693e-07 -2.10265e-06 -0.000128122
0.000544729 0.000109675 -3.06598e-06
0.000109675 0.000133091 3.88809e-06
-3.06598e-06 3.88809e-06 -7.77015e-05
0.000738127 0.000145069 8.48601e-06
0.000145069 0.000185319 6.1685e-06
8.48601e-06 6.1685e-06 -2.193e-05
0.000502314 0.000249851 -6.6449e-06
0.000249851 0.000104714 -3.48556e-06
-6.6449e-06 -3.48556e-06 -0.000192253
-0.000641648 0.000266107 6.32584e-06
0.000266107 -0.000767996 -2.68405e-06
6.32584e-06 -2.68405e-06 -0.00101437
0.00205226 0.000559946 3.55946e-06
0.000559946 0.00071595 1.12298e-05
3.55946e-06 1.12298e-05 0.000560431
0.00140537 0.000667449 1.80151e-05
0.000667449 6.0584e-05 -7.99872e-06
1.80151e-05 -7.99872e-06 -0.000123752
0.00115561 0.000435745 -8.60433e-06
0.000435745 0.000330183 -7.35799e-07
-8.60433e-06 -7.35799e-07 0.00015751
0.00128588 0.000182675 -6.43761e-06
0.000182675 0.000578163 4.9518e-06
-6.43761e-06 4.9518e-06 0.000372965
0.0132955 0.00161961 -8.12436e-05
0.00161961 0.00242329 5.75768e-05
-8.12436e-05 5.75768e-05 0.00100182
-0.000277411 -0.00123991 -0.000361895
-0.00123991 0.00273833 -0.000135266
-0.000361895 -0.000135266 0.000298189
-0.00110627 -0.00198473 0.000368028
-0.00198473 0.00356929 9.42656e-05
0.000368028 9.42656e-05 -0.00051691
0.00237874 -0.00184042 0.000147619
-0.00184042 0.0013722 0.000269542
0.000147619 0.000269542 -0.000213595
0.0118903 0.0026703 -4.55187e-05
0.0026703 0.00465423 -2.9683e-05
-4.55187e-05 -2.9683e-05 0.000862843
-0.00233527 0.000183556 -5.01895e-05
0.000183556 -0.000572876 -4.39092e-05
-5.01895e-05 -4.39092e-05 -0.000792698
0.00173393 0.00120605 -3.39875e-05
0.00120605 0.000416274 -1.19585e-05
-3.39875e-05 -1.19585e-05 0.000759253
0.0148582 0.00248895 2.39911e-05
0.00248895 0.00419972 3.06131e-05
2.39911e-05 3.06131e-05 0.00199948
0.00642003 0.00243297 -2.81763e-05
0.00243297 0.000699039 -8.00403e-05
-2.81763e-05 -8.00403e-05 0.000552696
0.00171411 0.000889448 8.81851e-06
0.000889448 0.000194018 -1.93999e-06
8.81851e-06 -1.93999e-06 -7.73469e-06
0.00131521 0.00068652 6.15164e-06
0.00068652 0.000265242 -1.49928e-06
6.15164e-06 -1.49928e-06 -6.27473e-06
0.00148675 0.000434237 -2.06701e-05
0.000434237 0.000598962 6.94391e-06
-2.06701e-05 6.94391e-06 0.000435754
0.00253882 0.00112233 -5.29292e-05
0.00112233 0.000753102 -1.842e-05
-5.29292e-05 -1.842e-05 0.000211404
0.00194211 0.00132705 2.96107e-05
0.00132705 -0.000384852 2.144e-05
2.96107e-05 2.144e-05 -0.000640627
0.00135035 -0.000378401 -7.56063e-05
-0.000378401 -0.00393928 3.58257e-05
-7.56063e-05 3.58257e-05 -0.00427206
0.00144795 -0.0010175 6.11669e-06
-0.0010175 0.00152583 -1.92977e-05
6.11669e-06 -1.92977e-05 0.00128794
-0.00862118 -0.000108464 0.000227154
-0.000108464 0.00421039 -1.89346e-05
0.000227154 -1.89346e-05 -0.000343166
0.000635477 -0.00120097 -2.65928e-05
-0.00120097 -0.000403548 2.92654e-06
-2.65928e-05 2.92654e-06 -0.000972484
0.00354061 -0.0019482 3.49145e-05
-0.0019482 0.000225385 2.45146e-05
3.49145e-05 2.45146e-05 -0.000219359
0.00138601 -0.000256059 0.000522701
-0.000256059 0.00300485 -0.00010322
0.000522701 -0.00010322 0.00154172
0.0124928 -0.0014305 -0.000203566
-0.0014305 0.00189729 9.41453e-05
-0.000203566 9.41453e-05 0.000363549
0.00124411 -0.000926629 -3.18021e-05
-0.000926629 -0.000221221 -7.0914e-07
-3.18021e-05 -7.0914e-07 -0.000456637
0.00995402 -1.5839e-05 -0.000134623
-1.5839e-05 4.58711e-05 3.86123e-05
-0.000134623 3.86123e-05 -0.00100694
0.00611834 -0.00133592 9.42178e-05
-0.00133592 -2.66435e-05 1.35749e-05
9.42178e-05 1.35749e-05 0.000187051
0.00488907 -0.000927845 7.70872e-05
-0.000927845 0.00146605 -1.7154e-05
7.70872e-05 -1.7154e-05 0.00113555
0.00292165 -0.000508155 -6.22942e-05
-0.000508155 -0.000934365 1.6865e-05
-6.22942e-05 1.6865e-05 -0.000393865
-0.00408153 -8.43716e-05 -7.68831e-06
-8.43716e-05 -0.00291483 4.35462e-06
-7.68831e-06 4.35462e-06 -0.0028831
0.00161901 -0.00059956 -6.91975e-06
-0.00059956 -0.000127502 1.05127e-07
-6.91975e-06 1.05127e-07 -0.000161606
0.00291981 -0.000572847 2.70174e-05
-0.000572847 0.000386122 -1.23135e-05
2.70174e-05 -1.23135e-05 0.000427858
0.000953675 -0.000610544 -6.44176e-06
-0.000610544 -0.000275338 8.39591e-06
-6.44176e-06 8.39591e-06 -0.000545054
0.00195249 -0.000605658 -2.32099e-06
-0.000605658 -2.36229e-07 2.35573e-06
-2.32099e-06 2.35573e-06 -0.000166531
0.00220591 -0.000486358 4.91448e-06
-0.000486358 2.14327e-05 3.74221e-07
4.91448e-06 3.74221e-07 -2.71647e-05
0.00222442 -0.000617716 -6.82104e-06
-0.000617716 0.000290397 8.61732e-06
-6.82104e-06 8.61732e-06 3.90472e-05
0.00197435 -0.000453093 1.52639e-07
-0.000453093 5.05784e-05 1.4482e-06
1.52639e-07 1.4482e-06 -7.91992e-05
0.0020885 -0.000431873 -2.60469e-07
-0.000431873 0.000114015 1.23959e-06
-2.60469e-07 1.23959e-06 2.56349e-05
0.00181891 -0.000428364 2.39695e-06
-0.000428364 8.20715e-05 6.10998e-06
2.39695e-06 6.10998e-06 -9.96343e-05
0.00188901 -0.000388684 -1.92998e-07
-0.000388684 7.55038e-05 1.47351e-06
-1.92998e-07 1.47351e-06 -5.46071e-05
0.0020248 -0.000409073 -1.96747e-06
-0.000409073 0.000162469 1.26072e-06
-1.96747e-06 1.26072e-06 3.91593e-05
0.00194896 -0.000366817 -4.10098e-06
-0.000366817 0.000183923 3.22039e-06
-4.10098e-06 3.22039e-06 5.34549e-05
0.00203308 -0.000372963 -3.5939e-07
-0.000372963 0.000265056 -2.24012e-06
-3.5939e-07 -2.24012e-06 0.000123984
0.00191992 -0.000365711 3.81339e-06
-0.000365711 0.000157459 7.37724e-06
3.81339e-06 7.37724e-06 8.90539e-06
0.00188818 -0.000379808 3.73064e-07
-0.000379808 0.000179871 -7.90955e-07
3.73064e-07 -7.90955e-07 7.83465e-06
0.00178838 -0.000388819 -2.20791e-06
-0.000388819 0.000134367 -3.51338e-06
-2.20791e-06 -3.51338e-06 -5.81604e-05
0.00180987 -0.000425612 -4.35504e-06
-0.000425612 0.000259404 -2.41386e-06
-4.35504e-06 -2.41386e-06 1.36144e-05
0.00187196 -0.000460215 -1.05233e-07
-0.000460215 0.000222679 -1.38084e-07
-1.05233e-07 -1.38084e-07 -2.13311e-05
0.00197611 -0.00047109 6.30385e-06
-0.00047109 0.000257044 3.44748e-06
6.30385e-06 3.44748e-06 1.7999e-05
0.00133696 -0.000348337 -8.46737e-06
-0.000348337 0.000178471 2.91138e-06
-8.46737e-06 2.91138e-06 -7.27817e-05
0.0015795 -0.000459791 -1.57308e-06
-0.000459791 0.000231612 -2.3384e-08
-1.57308e-06 -2.3384e-08 -5.66231e-05
0.00156364 -0.000509956 3.58461e-06
-0.000509956 0.000125771 1.32796e-06
3.58461e-06 1.32796e-06 -0.000173922
0.000639487 -0.000190302 -8.28805e-06
-0.000190302 -6.91432e-05 6.81813e-06
-8.28805e-06 6.81813e-06 -0.000256098
0.00117514 -0.000314124 1.37957e-06
-0.000314124 0.000167638 3.64067e-07
1.37957e-06 3.64067e-07 -7.57542e-05
0.00131119 -0.000419154 3.79565e-06
-0.000419154 0.000193405 2.2762e-07
3.79565e-06 2.2762e-07 -9.86235e-05
0.0004513 -0.000145165 -2.07576e-05
-0.000145165 -9.36483e-05 1.61936e-05
-2.07576e-05 1.61936e-05 -0.000183864
0.000758511 -0.00020992 -7.35832e-07
-0.00020992 7.57143e-05 2.87128e-07
-7.35832e-07 2.87128e-07 -0.000118219
0.000940561 -0.000263489 2.85244e-06
-0.000263489 8.60142e-05 -2.04414e-06
2.85244e-06 -2.04414e-06 -0.000136458
0.00439792 0.000202014 -0.00010007
0.000202014 0.00242051 6.58182e-06
-0.00010007 6.58182e-06 0.00239676
0.000533931 -9.23978e-05 -4.73277e-08
-9.23978e-05 -1.24667e-05 -7.87197e-07
-4.73277e-08 -7.87197e-07 -8.97922e-05
0.00109268 -0.000187369 4.1502e-06
-0.000187369 0.000354685 -3.6862e-06
4.1502e-06 -3.6862e-06 0.000147106
0.00381366 0.000160108 1.36012e-05
0.000160108 0.00204628 3.20329e-07
1.36012e-05 3.20329e-07 0.00203511
0.000560345 -3.67608e-05 1.13923e-05
-3.67608e-05 1.24733e-05 -1.19326e-05
1.13923e-05 -1.19326e-05 -4.87232e-05
0.00332071 0.000129866 8.70555e-05
0.000129866 0.00173058 -3.51356e-06
8.70555e-05 -3.51356e-06 0.00172858
0.000706208 0.000280049 5.075e-06
0.000280049 -3.46977e-05 -5.61731e-06
5.075e-06 -5.61731e-06 -0.000278136
0.000870844 0.000209729 2.32606e-06
0.000209729 0.000159422 -9.01025e-07
2.32606e-06 -9.01025e-07 -1.29026e-05
0.000108962 0.000101085 3.68184e-06
0.000101085 -0.000240021 -7.59498e-07
3.68184e-06 -7.59498e-07 -0.000412621
-0.000394735 3.0537e-05 -3.41692e-06
3.0537e-05 -0.000546983 -2.88497e-06
-3.41692e-06 -2.88497e-06 -0.000683067
0.000434207 5.71813e-05 -3.8799e-08
5.71813e-05 -3.18266e-05 9.2255e-07
-3.8799e-08 9.2255e-07 -0.000190487
0.000741085 7.38351e-05 -8.72746e-07
7.38351e-05 0.000125692 -7.66228e-06
-8.72746e-07 -7.66228e-06 4.21873e-07
0.000449394 3.9549e-05 -1.58157e-06
3.9549e-05 -2.28548e-05 2.99767e-06
-1.58157e-06 2.99767e-06 -0.000164505
0.000575275 3.48659e-05 -7.71664e-08
3.48659e-05 4.02736e-05 -8.55638e-08
-7.71664e-08 -8.55638e-08 -7.03394e-05
0.00062432 2.90448e-06 -4.61666e-06
2.90448e-06 5.25567e-05 -1.12211e-05
-4.61666e-06 -1.12211e-05 6.81387e-06
0.00300105 -0.000112277 -6.79667e-05
-0.000112277 0.00152323 -4.2775e-06
-6.79667e-05 -4.2775e-06 0.00152565
0.00046596 -6.36968e-06 9.23637e-07
-6.36968e-06 -4.36112e-05 -2.67522e-07
9.23637e-07 -2.67522e-07 -8.1103e-05
0.000519152 2.46056e-05 -1.0935e-06
2.46056e-05 8.55067e-06 5.86566e-06
-1.0935e-06 5.86566e-06 -9.04265e-05
0.00275572 -0.000101683 -6.77272e-06
-0.000101683 0.00136406 5.59742e-07
-6.77272e-06 5.59742e-07 0.00136868
0.000405367 -3.83491e-05 -2.9123e-06
-3.83491e-05 -8.31948e-05 7.43273e-06
-2.9123e-06 7.43273e-06 -0.000115328
0.00258989 -8.4792e-05 3.41495e-05
-8.4792e-05 0.00125441 4.46016e-06
3.41495e-05 4.46016e-06 0.00126249
0.0132616 0.000518427 0.000343318
0.000518427 0.00240488 9.06155e-05
0.000343318 9.06155e-05 0.00166552
-0.0024498 -0.00175607 -0.000289622
-0.00175607 -0.00276761 -5.16881e-05
-0.000289622 -5.16881e-05 -0.0037811
-0.00792759 0.000948101 -0.000126971
0.000948101 0.00241987 -9.36501e-05
-0.000126971 -9.36501e-05 -0.00277292
0.000258208 2.66723e-05 1.69178e-05
2.66723e-05 -0.000128179 6.80717e-07
1.69178e-05 6.80717e-07 -0.000338459
0.00150371 0.000311488 -1.27756e-05
0.000311488 0.000604985 2.7856e-06
-1.27756e-05 2.7856e-06 0.000399432
0.00170214 0.000358676 -5.57594e-06
0.000358676 0.000766956 -2.5264e-06
-5.57594e-06 -2.5264e-06 0.000491638
0.00177492 0.000442683 -7.0385e-07
0.000442683 0.000653197 8.59134e-07
-7.0385e-07 8.59134e-07 0.000339593
0.000917623 0.000404738 1.0649e-05
0.000404738 -1.27338e-05 9.7005e-06
1.0649e-05 9.7005e-06 -0.000329133
-0.000500275 0.000248549 1.42797e-05
0.000248549 -0.000701455 -7.49254e-07
1.42797e-05 -7.49254e-07 -0.00096426
-7.20557e-06 0.000213772 -7.52911e-06
0.000213772 -0.000156603 -1.18066e-06
-7.52911e-06 -1.18066e-06 -0.000466107
0.000150039 0.000361403 4.90994e-06
0.000361403 -0.000341569 -1.8789e-08
4.90994e-06 -1.8789e-08 -0.000619198
0.00190027 0.00054734 1.59152e-06
0.00054734 0.000661945 2.41979e-06
1.59152e-06 2.41979e-06 0.000471676
0.000142329 0.000421171 7.82365e-06
0.000421171 -0.000467924 3.72494e-06
7.82365e-06 3.72494e-06 -0.000686249
0.00277725 0.000747153 2.55131e-06
0.000747153 0.000787974 2.16818e-06
2.55131e-06 2.16818e-06 0.000614443
0.00165454 0.00071499 1.17851e-05
0.00071499 0.000150273 -3.69741e-08
1.17851e-05 -3.69741e-08 -6.71379e-05
0.000922015 0.000609668 3.08183e-06
0.000609668 -0.000206229 -1.29089e-06
3.08183e-06 -1.29089e-06 -0.000359163
0.00079548 0.000392335 -5.65378e-07
0.000392335 0.000144871 -1.91742e-05
-5.65378e-07 -1.91742e-05 -3.31528e-05
0.00542546 0.00111512 3.68417e-06
0.00111512 -0.000411886 5.99922e-06
3.68417e-06 5.99922e-06 0.000342154
0.0117471 0.00163121 0.000188306
0.00163121 0.00159789 9.0401e-05
0.000188306 9.0401e-05 -0.000142708
0.00978322 -0.00261637 0.000250494
-0.00261637 0.00468067 -4.60454e-05
0.000250494 -4.60454e-05 0.0029644
0.00464177 0.00279431 0.000416229
0.00279431 -0.000422149 0.000237307
0.000416229 0.000237307 -0.00440136
0.000178414 0.000830188 -5.56104e-05
0.000830188 -2.89012e-05 -7.03071e-06
-5.56104e-05 -7.03071e-06 0.000375253
0.00341065 0.00177673 -0.000106999
0.00177673 -0.000315663 -4.13561e-05
-0.000106999 -4.13561e-05 -0.000200132
0.0054116 0.00156435 6.61821e-05
0.00156435 0.0011386 2.10928e-05
6.61821e-05 2.10928e-05 0.000957467
0.00356603 0.001115 1.52514e-05
0.001115 0.00101063 4.2951e-06
1.52514e-05 4.2951e-06 0.000778391
0.000443813 0.000558569 -1.7101e-05
0.000558569 -0.000141995 1.09328e-05
-1.7101e-05 1.09328e-05 -0.000383028
0.00514787 0.00165497 -0.000149399
0.00165497 0.00107601 -1.77631e-05
-0.000149399 -1.77631e-05 0.000761594
0.00283661 -0.000333308 -9.54578e-08
-0.000333308 0.00018292 4.40264e-06
-9.54578e-08 4.40264e-06 0.000255833
0.0106835 -0.0004147 -2.13092e-05
-0.0004147 0.00206809 3.80946e-06
-2.13092e-05 3.80946e-06 0.00158131
-0.0112924 -0.00152983 0.000499111
-0.00152983 -0.00570757 2.18907e-06
0.000499111 2.18907e-06 -0.00570541
-6.13362e-05 -0.000786454 -6.26767e-05
-0.000786454 -0.000912534 7.40483e-06
-6.26767e-05 7.40483e-06 -0.00110726
0.00837503 -0.00174208 6.22231e-05
-0.00174208 0.000736548 7.49559e-05
6.22231e-05 7.49559e-05 0.00119973
0.00106477 -0.000296177 -0.000169036
-0.000296177 -0.00329809 4.4475e-05
-0.000169036 4.4475e-05 -0.00530888
0.00188947 -0.000655162 1.21265e-05
-0.000655162 -0.000228892 2.7578e-06
1.21265e-05 2.7578e-06 -0.000295909
0.00413316 -0.000394024 -2.41816e-05
-0.000394024 -0.000235633 -2.83752e-06
-2.41816e-05 -2.83752e-06 9.88828e-05
0.00470021 -0.000605895 3.22092e-05
-0.000605895 0.000985972 -1.6375e-05
3.22092e-05 -1.6375e-05 0.00118183
0.00410302 -0.000231357 7.48812e-05
-0.000231357 0.000915897 5.86439e-06
7.48812e-05 5.86439e-06 0.00086509
-0.00175099 -0.000370338 -5.0011e-06
-0.000370338 -0.00199065 1.15923e-05
-5.0011e-06 1.15923e-05 -0.0018996
0.0019629 -0.000513471 -2.413e-06
-0.000513471 -0.000143734 7.08306e-09
-2.413e-06 7.08306e-09 -6.28623e-05
0.00200558 -0.000377395 1.83536e-05
-0.000377395 -0.000246596 -3.97021e-06
1.83536e-05 -3.97021e-06 -5.96733e-05
0.00167067 -0.000581115 -2.16046e-06
-0.000581115 -0.000146569 5.83384e-06
-2.16046e-06 5.83384e-06 -0.000313059
0.00216359 -0.000486684 1.54098e-06
-0.000486684 1.08155e-06 8.42797e-07
1.54098e-06 8.42797e-07 -4.8953e-05
0.00212583 -0.000414747 1.32373e-06
-0.000414747 3.28759e-05 6.84999e-07
1.32373e-06 6.84999e-07 1.89631e-05
0.00198577 -0.000452551 -8.57344e-08
-0.000452551 5.57266e-05 3.63847e-06
-8.57344e-08 3.63847e-06 -7.0453e-05
0.00201401 -0.000421501 3.89049e-07
-0.000421501 8.15616e-05 3.38698e-07
3.89049e-07 3.38698e-07 -5.56572e-06
0.00200651 -0.000378305 -3.1332e-06
-0.000378305 7.37416e-05 8.93021e-07
-3.1332e-06 8.93021e-07 -5.74533e-06
0.00188441 -0.000390942 3.81585e-06
-0.000390942 7.01393e-05 2.5607e-06
3.81585e-06 2.5607e-06 -6.03063e-05
0.00193942 -0.000401997 -7.86295e-08
-0.000401997 0.000127495 1.42168e-07
-7.86295e-08 1.42168e-07 4.54117e-06
0.0018647 -0.000367816 8.12401e-07
-0.000367816 0.000114742 -2.71502e-07
8.12401e-07 -2.71502e-07 -9.97536e-06
0.00184725 -0.000365599 -1.81416e-07
-0.000365599 0.000115209 4.23733e-06
-1.81416e-07 4.23733e-06 -1.34968e-05
0.00197772 -0.000365584 -2.18951e-06
-0.000365584 0.000226255 4.25971e-07
-2.18951e-06 4.25971e-07 8.90662e-05
0.00197248 -0.000369863 -1.34402e-08
-0.000369863 0.000236441 -1.84393e-06
-1.34402e-08 -1.84393e-06 7.33976e-05
0.00189615 -0.000379296 3.88481e-06
-0.000379296 0.000183585 3.54192e-06
3.88481e-06 3.54192e-06 1.15984e-05
0.00184801 -0.000394194 1.84046e-07
-0.000394194 0.000171582 -4.22667e-07
1.84046e-07 -4.22667e-07 -2.2562e-05
0.00186965 -0.000378413 -1.42325e-06
-0.000378413 0.000248877 -2.26412e-06
-1.42325e-06 -2.26412e-06 4.02669e-05
0.00140218 -0.000339512 -8.86764e-06
-0.000339512 0.000127101 1.06159e-06
-8.86764e-06 1.06159e-06 -0.000106601
0.00178065 -0.000426516 -9.27746e-07
-0.000426516 0.000242726 -6.59643e-07
-9.27746e-07 -6.59643e-07 -6.32065e-06
0.0019265 -0.00046646 4.08183e-06
-0.00046646 0.000257557 1.76277e-06
4.08183e-06 1.76277e-06 1.14148e-05
0.000841275 -0.00020839 -1.20798e-05
-0.00020839 -8.30543e-06 6.82088e-06
-1.20798e-05 6.82088e-06 -0.000195401
0.00129758 -0.000344733 2.39158e-07
-0.000344733 0.000153428 4.15835e-07
2.39158e-07 4.15835e-07 -9.68271e-05
0.00149768 -0.0004484 3.00123e-06
-0.0004484 0.000188911 6.92747e-07
3.00123e-06 6.92747e-07 -9.82199e-05
0.000448841 -0.000161339 -2.08238e-05
-0.000161339 -0.000118056 1.66267e-05
-2.08238e-05 1.66267e-05 -0.00021829
0.000809979 -0.000204091 4.4529e-07
-0.000204091 3.47063e-05 4.04538e-07
4.4529e-07 4.04538e-07 -0.000155442
0.000990895 -0.000301608 6.89755e-06
-0.000301608 5.03248e-05 -2.62537e-06
6.89755e-06 -2.62537e-06 -0.000192158
0.00540677 0.000163955 -0.000164331
0.000163955 0.00301446 9.10919e-06
-0.000164331 9.10919e-06 0.00300043
0.000509477 -0.000152774 -8.33629e-07
-0.000152774 -5.88209e-05 -9.72123e-08
-8.33629e-07 -9.72123e-08 -0.000151582
0.000715088 -0.000216616 7.62341e-06
-0.000216616 5.2007e-05 -5.48266e-06
7.62341e-06 -5.48266e-06 -0.00014253
0.00469511 0.000145514 9.80131e-06
0.000145514 0.00258454 2.28966e-07
9.80131e-06 2.28966e-07 0.00257454
0.000533979 -0.000103514 1.68912e-05
-0.000103514 -1.30208e-05 -1.44683e-05
1.68912e-05 -1.44683e-05 -9.30254e-05
0.00403292 0.000110894 0.000138436
0.000110894 0.00217109 -8.67612e-06
0.000138436 -8.67612e-06 0.00217097
0.000732009 0.00033261 -4.72566e-06
0.00033261 -0.000101225 -2.59618e-06
-4.72566e-06 -2.59618e-06 -0.000375917
0.00150008 0.000355314 -5.58032e-07
0.000355314 0.000457216 -8.67655e-07
-5.58032e-07 -8.67655e-07 0.000201106
0.000264815 0.000172922 -2.41851e-07
0.000172922 -0.000259413 -2.73355e-06
-2.41851e-07 -2.73355e-06 -0.000463182
0.000563335 0.000198816 -5.05238e-06
0.000198816 -1.4908e-05 -1.80417e-06
-5.05238e-06 -1.80417e-06 -0.000191966
-6.22434e-07 0.000101133 8.85687e-07
0.000101133 -0.000315087 -7.55418e-07
8.85687e-07 -7.55418e-07 -0.000489829
0.00115952 0.000187696 -3.09129e-06
0.000187696 0.000403447 -7.1318e-06
-3.09129e-06 -7.1318e-06 0.000227672
1.49374e-05 2.83752e-05 -1.13203e-06
2.83752e-05 -0.000292117 5.08507e-07
-1.13203e-06 5.08507e-07 -0.000446173
0.00073024 6.90148e-05 3.2867e-07
6.90148e-05 0.000125007 -4.07897e-07
3.2867e-07 -4.07897e-07 -1.57227e-06
0.000599787 1.55208e-05 -6.9873e-06
1.55208e-05 3.6507e-05 -1.30436e-05
-6.9873e-06 -1.30436e-05 -1.76144e-05
0.000602713 2.34797e-05 -9.33957e-07
2.34797e-05 6.03024e-05 7.62347e-06
-9.33957e-07 7.62347e-06 -5.05477e-05
0.000492145 7.42213e-06 1.63186e-07
7.42213e-06 -2.53287e-05 -1.93018e-07
1.63186e-07 -1.93018e-07 -7.03868e-05
0.00329338 -0.000125702 -8.48938e-05
-0.000125702 0.00171224 -4.74666e-06
-8.48938e-05 -4.74666e-06 0.00171079
0.00294673 -0.000118829 -6.6435e-06
-0.000118829 0.00149055 6.17788e-07
-6.6435e-06 6.17788e-07 0.00149097
0.000407465 1.14881e-05 3.92705e-06
1.14881e-05 -7.94941e-05 9.17568e-06
3.92705e-06 9.17568e-06 -0.000115663
0.0027013 -0.000101154 4.18228e-05
-0.000101154 0.00133052 4.2206e-06
4.18228e-05 4.2206e-06 0.00133499
0.00398499 0.000109829 7.40328e-05
0.000109829 -0.000739184 1.76048e-05
7.40328e-05 1.76048e-05 0.000156766
0.00385107 -0.000781184 0.000111471
-0.000781184 -0.00329213 5.62875e-05
0.000111471 5.62875e-05 -0.0044622
0.0100196 -0.00188272 -0.00015173
-0.00188272 0.00370979 -7.35883e-05
-0.00015173 -7.35883e-05 0.00351525
0.00114083 0.00045238 8.797e-06
0.00045238 -4.7121e-05 6.85336e-06
8.797e-06 6.85336e-06 -0.000338977
0.00305396 0.000502712 -5.91467e-06
0.000502712 0.00155644 6.50479e-06
-5.91467e-06 6.50479e-06 0.00125033
0.00172855 0.000433628 -2.75549e-06
0.000433628 0.000647477 2.49232e-06
-2.75549e-06 2.49232e-06 0.000341283
0.00105887 0.000421054 3.21554e-06
0.000421054 0.000222924 1.88455e-06
3.21554e-06 1.88455e-06 -7.3979e-05
0.00132928 0.000447005 -2.4053e-06
0.000447005 0.000251563 1.32853e-06
-2.4053e-06 1.32853e-06 -7.95186e-05
0.00126564 0.000525606 1.5988e-05
0.000525606 0.000158391 1.26699e-05
1.5988e-05 1.26699e-05 -0.000134723
0.00146849 0.000506055 -2.38848e-05
0.000506055 0.000409378 -7.24167e-06
-2.38848e-05 -7.24167e-06 8.8018e-05
0.000843926 0.000467666 1.25705e-05
0.000467666 8.47195e-05 -1.08496e-05
1.25705e-05 -1.08496e-05 -0.00011607
0.00118786 0.000539891 2.11762e-06
0.000539891 0.000113767 -1.83053e-06
2.11762e-06 -1.83053e-06 -0.00012607
0.00158727 0.000634629 3.9535e-06
0.000634629 9.39377e-05 2.41797e-06
3.9535e-06 2.41797e-06 -1.41465e-05
0.00166459 0.000675112 1.03105e-05
0.000675112 8.78629e-05 -1.42383e-07
1.03105e-05 -1.42383e-07 -0.000147882
0.00161217 0.000625561 1.94996e-05
0.000625561 8.68302e-05 1.00329e-05
1.94996e-05 1.00329e-05 -7.86778e-05
0.00107434 0.000661422 -4.02502e-06
0.000661422 -0.000161734 -5.66051e-06
-4.02502e-06 -5.66051e-06 -0.000364671
0.000599485 0.000567832 -9.18792e-06
0.000567832 -0.000373586 -2.88953e-06
-9.18792e-06 -2.88953e-06 -0.000503943
0.00158736 0.000599897 4.15505e-05
0.000599897 -0.000562202 3.64908e-05
4.15505e-05 3.64908e-05 -0.000423867
0.00568618 0.00119025 -7.71434e-05
0.00119025 -0.000653454 -2.22361e-05
-7.71434e-05 -2.22361e-05 0.000175494
0.00356347 0.00107183 0.000397619
0.00107183 -0.00298755 6.24414e-05
0.000397619 6.24414e-05 -0.00487943
0.000373918 0.00131455 -8.90023e-05
0.00131455 -0.00142543 -3.19358e-05
-8.90023e-05 -3.19358e-05 -0.00117494
0.00393375 0.00126457 -3.23176e-05
0.00126457 0.000719954 -7.54367e-06
-3.23176e-05 -7.54367e-06 0.000581177
0.00341834 0.00110511 -0.000103579
0.00110511 0.000886946 -3.09898e-05
-0.000103579 -3.09898e-05 0.000647453
0.00269506 -0.000252743 -4.22763e-05
-0.000252743 -0.000151582 -1.79538e-05
-4.22763e-05 -1.79538e-05 3.60978e-05
0.000333621 -0.000167302 4.35637e-05
-0.000167302 -0.000372059 1.06645e-05
4.35637e-05 1.06645e-05 -0.000125441
0.00175907 0.000841111 0.00014108
0.000841111 -0.00421704 -7.89859e-06
0.00014108 -7.89859e-06 -0.00443034
-0.0012592 -0.000419728 -2.83838e-05
-0.000419728 -0.00188044 3.76341e-05
-2.83838e-05 3.76341e-05 -0.00174895
0.00569127 -0.000402842 -0.000102833
-0.000402842 0.000667052 3.60882e-05
-0.000102833 3.60882e-05 0.000618806
0.00248424 -0.000457951 -2.51774e-05
-0.000457951 -0.000173011 9.46686e-06
-2.51774e-05 9.46686e-06 7.99748e-05
0.00387651 -0.000271595 1.69936e-06
-0.000271595 0.000698397 -3.88234e-06
1.69936e-06 -3.88234e-06 0.000695552
0.00206448 -0.000268299 4.20941e-05
-0.000268299 -0.000315864 -4.69551e-06
4.20941e-05 -4.69551e-06 -4.07448e-05
0.00345942 -7.95402e-05 3.07471e-05
-7.95402e-05 0.00103851 -1.28451e-06
3.07471e-05 -1.28451e-06 0.00100409
0.00086202 -0.000436746 -2.44232e-05
-0.000436746 -0.000740789 1.21181e-05
-2.44232e-05 1.21181e-05 -0.000615893
0.00193369 -0.000388842 -6.11285e-07
-0.000388842 -0.000311689 2.14375e-06
-6.11285e-07 2.14375e-06 -0.000132263
0.00218467 -0.000353281 2.68147e-06
-0.000353281 -0.000132715 -6.84092e-07
2.68147e-06 -6.84092e-07 1.21824e-05
0.00210454 -0.000481373 -2.9909e-06
-0.000481373 -2.22147e-05 1.8425e-06
-2.9909e-06 1.8425e-06 -7.21586e-05
0.00212009 -0.000412661 3.17378e-07
-0.000412661 3.59403e-05 -1.30023e-07
3.17378e-07 -1.30023e-07 2.17814e-05
0.00208703 -0.000340952 -1.80116e-06
-0.000340952 3.21943e-05 -6.68431e-09
-1.80116e-06 -6.68431e-09 8.21434e-06
0.0019291 -0.000410021 -1.47575e-07
-0.000410021 4.31709e-05 5.3069e-07
-1.47575e-07 5.3069e-07 -4.16597e-05
0.00199348 -0.000384208 -6.73033e-07
-0.000384208 7.293e-05 1.26221e-07
-6.73033e-07 1.26221e-07 -8.22524e-06
0.00193914 -0.000336551 -1.66012e-06
-0.000336551 0.000102686 1.10015e-06
-1.66012e-06 1.10015e-06 3.33889e-07
0.00185203 -0.000394585 5.66991e-07
-0.000394585 9.11643e-05 -3.1872e-07
5.66991e-07 -3.1872e-07 -3.13263e-05
0.00182961 -0.000366613 1.07841e-06
-0.000366613 8.92516e-05 -6.84488e-07
1.07841e-06 -6.84488e-07 -3.59435e-05
0.00185818 -0.000346334 1.12521e-06
-0.000346334 0.000124705 -1.71121e-06
1.12521e-06 -1.71121e-06 -1.38827e-05
0.00192163 -0.000358159 -3.06234e-06
-0.000358159 0.000187438 3.76051e-06
-3.06234e-06 3.76051e-06 5.41258e-05
0.00201247 -0.00036949 -1.82135e-06
-0.00036949 0.000256169 5.08239e-07
-1.82135e-06 5.08239e-07 9.72604e-05
0.00191847 -0.000352752 -1.06044e-06
-0.000352752 0.000244592 -1.76551e-06
-1.06044e-06 -1.76551e-06 6.02962e-05
0.0019098 -0.000400173 2.56734e-06
-0.000400173 0.000209879 2.3946e-06
2.56734e-06 2.3946e-06 1.39657e-05
0.00187121 -0.000380847 7.22522e-07
-0.000380847 0.000250546 -5.61706e-07
7.22522e-07 -5.61706e-07 4.13863e-05
0.00153293 -0.000308658 -6.87515e-06
-0.000308658 0.00015816 1.13873e-06
-6.87515e-06 1.13873e-06 -5.27716e-05
0.000907001 -0.000208536 -1.34205e-05
-0.000208536 -1.74161e-05 6.77439e-06
-1.34205e-05 6.77439e-06 -0.000198573
0.00139323 -0.000336515 -1.21216e-06
-0.000336515 0.000128536 -5.41141e-08
-1.21216e-06 -5.41141e-08 -0.000105636
0.0017497 -0.000427599 2.8055e-06
-0.000427599 0.00022457 5.4245e-07
2.8055e-06 5.4245e-07 -2.78101e-05
0.000468612 -0.000204925 -2.2675e-05
-0.000204925 -0.000107513 1.72446e-05
-2.2675e-05 1.72446e-05 -0.000224408
0.000835696 -0.00021051 4.88077e-07
-0.00021051 -1.45224e-05 1.09867e-07
4.88077e-07 1.09867e-07 -0.000202774
0.00130788 -0.00034555 7.75973e-06
-0.00034555 0.000158122 -1.61856e-06
7.75973e-06 -1.61856e-06 -9.18366e-05
0.00598183 0.000122117 -0.000206459
0.000122117 0.00334594 1.21802e-05
-0.000206459 1.21802e-05 0.00333928
0.000495605 -0.000204198 -1.14591e-06
-0.000204198 -8.45539e-05 4.31799e-07
-1.14591e-06 4.31799e-07 -0.000193241
0.00090808 -0.000217595 1.10096e-05
-0.000217595 9.59665e-05 -6.60961e-06
1.10096e-05 -6.60961e-06 -9.79169e-05
0.0056267 0.000137968 -1.00384e-06
0.000137968 0.00314644 -2.40767e-07
-1.00384e-06 -2.40767e-07 0.00313487
0.000628481 -0.000174302 2.23159e-05
-0.000174302 1.54261e-05 -1.68232e-05
2.23159e-05 -1.68232e-05 -8.29232e-05
0.0050999 0.000121711 0.000179011
0.000121711 0.00282957 -1.49295e-05
0.000179011 -1.49295e-05 0.00282179
0.00131204 0.000409752 -2.69023e-06
0.000409752 0.000135862 2.7012e-06
-2.69023e-06 2.7012e-06 -0.00014904
0.00141487 0.000403979 -3.69201e-06
0.000403979 0.000309141 -1.34939e-06
-3.69201e-06 -1.34939e-06 1.93924e-05
0.000970734 0.000284919 -5.92232e-06
0.000284919 6.26267e-05 -1.56382e-06
-5.92232e-06 -1.56382e-06 -0.000172757
0.00265265 0.000465841 -1.19898e-06
0.000465841 0.00116994 3.83409e-06
-1.19898e-06 3.83409e-06 0.00089426
0.000828572 0.000230526 -1.79247e-06
0.000230526 9.43189e-05 -1.12858e-06
-1.79247e-06 -1.12858e-06 -0.000124035
0.00118869 0.00021826 -5.48794e-06
0.00021826 0.000388416 -3.83128e-06
-5.48794e-06 -3.83128e-06 0.000191695
-1.56511e-05 9.70746e-05 -2.65666e-06
9.70746e-05 -0.000334465 -8.74712e-07
-2.65666e-06 -8.74712e-07 -0.000511902
0.000666727 0.000106691 -5.32771e-07
0.000106691 8.95918e-05 -2.85414e-07
-5.32771e-07 -2.85414e-07 -6.9957e-05
0.000595564 4.82507e-05 -1.20929e-05
4.82507e-05 2.72704e-05 -1.41281e-05
-1.20929e-05 -1.41281e-05 -3.96891e-05
0.000467339 3.79427e-05 3.61979e-07
3.79427e-05 -3.35424e-05 8.20454e-06
3.61979e-07 8.20454e-06 -0.000155978
0.000484281 1.1427e-05 1.88359e-07
1.1427e-05 -3.05655e-05 -2.4588e-07
1.88359e-07 -2.4588e-07 -8.43036e-05
0.00374334 -0.000137337 -0.000109361
-0.000137337 0.00199876 -5.58924e-06
-0.000109361 -5.58924e-06 0.00199355
0.000343386 1.08029e-05 4.55965e-06
1.08029e-05 -0.000113723 1.11295e-05
4.55965e-06 1.11295e-05 -0.00015812
0.00325496 -0.000135854 -6.35935e-06
-0.000135854 0.00168995 6.35119e-07
-6.35935e-06 6.35119e-07 0.00168583
0.00291569 -0.000120687 5.11691e-05
-0.000120687 0.00147138 4.05691e-06
5.11691e-05 4.05691e-06 0.00147114
0.000531626 9.16946e-05 8.59069e-06
9.16946e-05 -0.00133399 1.51819e-05
8.59069e-06 1.51819e-05 -0.000980618
0.00525774 2.35768e-05 6.06621e-05
2.35768e-05 2.75041e-05 7.31179e-06
6.06621e-05 7.31179e-06 0.000765427
0.012318 0.000756188 -6.07002e-05
0.000756188 0.00276034 -6.81186e-06
-6.07002e-05 -6.81186e-06 0.00203654
0.00185256 0.000585119 4.26302e-06
0.000585119 0.000331845 3.88452e-06
4.26302e-06 3.88452e-06 4.18914e-05
0.00196576 0.000571458 2.3189e-06
0.000571458 0.000288928 2.85713e-06
2.3189e-06 2.85713e-06 2.10977e-05
0.00126838 0.000469265 5.54689e-07
0.000469265 4.27578e-05 -3.08175e-06
5.54689e-07 -3.08175e-06 -0.000249594
0.00222792 0.000552831 -5.37451e-06
0.000552831 0.000912695 5.88313e-06
-5.37451e-06 5.88313e-06 0.000591101
0.00175925 0.000488428 -4.29754e-06
0.000488428 0.00053199 -5.0286e-06
-4.29754e-06 -5.0286e-06 0.000185909
0.00167014 0.000570169 7.03811e-06
0.000570169 0.000368889 2.98414e-06
7.03811e-06 2.98414e-06 7.44174e-05
0.00163278 0.00062337 7.62784e-07
0.00062337 2.41643e-05 -1.95222e-06
7.62784e-07 -1.95222e-06 -0.000227956
0.00225233 0.000657441 -1.51461e-05
0.000657441 0.000689863 -1.10727e-06
-1.51461e-05 -1.10727e-06 0.000425624
0.00127886 0.000597725 8.64876e-07
0.000597725 -0.000108074 1.56549e-05
8.64876e-07 1.56549e-05 -0.000173599
0.00250002 0.000754216 -1.43887e-06
0.000754216 0.000554197 2.75365e-07
-1.43887e-06 2.75365e-07 0.000304762
0.00247059 0.000665063 -5.84095e-06
0.000665063 0.000375175 7.29346e-07
-5.84095e-06 7.29346e-07 0.000174875
0.000920599 0.000333384 2.24382e-05
0.000333384 -0.000432591 1.54022e-05
2.24382e-05 1.54022e-05 -0.000445521
0.00093493 0.000564079 1.07541e-05
0.000564079 -0.000250978 -2.016e-06
1.07541e-05 -2.016e-06 -0.000411491
0.00121597 0.00067202 -2.64781e-05
0.00067202 -8.8547e-05 3.22587e-06
-2.64781e-05 3.22587e-06 -0.000296336
0.00265116 0.000660768 3.98732e-06
0.000660768 -3.43945e-06 8.88755e-06
3.98732e-06 8.88755e-06 6.28103e-05
0.00546776 0.000809704 -4.25275e-06
0.000809704 -0.000690587 -2.39079e-05
-4.25275e-06 -2.39079e-05 -0.00027745
0.00357933 0.00105742 -1.72049e-05
0.00105742 0.000865986 -3.90531e-05
-1.72049e-05 -3.90531e-05 0.000772233
0.00141304 -5.49134e-05 2.65402e-05
-5.49134e-05 -0.000218087 5.82717e-07
2.65402e-05 5.82717e-07 -0.000161553
0.00229014 -0.000183794 -4.0779e-05
-0.000183794 -0.000263132 2.09373e-06
-4.0779e-05 2.09373e-06 -0.000149778
0.00199867 0.000255375 1.69793e-05
0.000255375 -0.000591853 -4.65602e-06
1.69793e-05 -4.65602e-06 -0.000479194
0.000212376 -0.00032647 -4.18545e-05
-0.00032647 -0.00136077 3.186e-05
-4.18545e-05 3.186e-05 -0.00109341
0.00345602 -0.000345066 -9.86672e-05
-0.000345066 0.00038151 -5.61029e-06
-9.86672e-05 -5.61029e-06 0.000420995
0.00222734 -0.00029061 6.79069e-06
-0.00029061 -0.000137315 -3.79118e-06
6.79069e-06 -3.79118e-06 0.000110794
0.00245442 -8.02148e-05 -1.01019e-05
-8.02148e-05 0.000394716 4.25762e-07
-1.01019e-05 4.25762e-07 0.000370492
0.00223232 -0.000217197 6.0533e-06
-0.000217197 -9.2971e-06 -2.09538e-07
6.0533e-06 -2.09538e-07 5.105e-05
0.00215571 -1.31127e-05 6.38554e-06
-1.31127e-05 -9.94437e-06 6.89447e-07
6.38554e-06 6.89447e-07 -2.93643e-06
0.00191048 -0.000408272 -1.17144e-05
-0.000408272 -0.000358345 3.57011e-06
-1.17144e-05 3.57011e-06 -0.000187315
0.00221528 -0.00035923 -2.20475e-06
-0.00035923 -0.000100046 4.72584e-07
-2.20475e-06 4.72584e-07 1.58958e-05
0.00216164 -0.000258821 -5.84919e-07
-0.000258821 -3.08885e-05 -5.24387e-07
-5.84919e-07 -5.24387e-07 1.24083e-06
0.00211171 -0.000411924 -2.89401e-06
-0.000411924 3.53326e-05 -1.49101e-07
-2.89401e-06 -1.49101e-07 1.97815e-05
0.00208652 -0.000337989 -1.1611e-07
-0.000337989 4.30558e-05 6.95445e-08
-1.1611e-07 6.95445e-08 1.46819e-05
0.00200218 -0.000290726 -1.9559e-06
-0.000290726 4.63649e-05 5.71969e-07
-1.9559e-06 5.71969e-07 -1.26466e-05
0.00198311 -0.00039058 2.10111e-07
-0.00039058 7.37226e-05 -1.35517e-06
2.10111e-07 -1.35517e-06 -9.47841e-06
0.00190056 -0.000332826 6.58053e-07
-0.000332826 7.65394e-05 -1.9487e-07
6.58053e-07 -1.9487e-07 -2.61688e-05
0.00191144 -0.000308128 -2.15219e-07
-0.000308128 0.000114247 -3.78015e-07
-2.15219e-07 -3.78015e-07 -8.00185e-07
0.00178712 -0.000365173 1.00725e-06
-0.000365173 5.94627e-05 -9.89379e-07
1.00725e-06 -9.89379e-07 -6.61921e-05
0.00189382 -0.000348174 2.00589e-07
-0.000348174 0.000145602 -4.23458e-07
2.00589e-07 -4.23458e-07 6.59097e-06
0.00184745 -0.0003221 -4.16398e-07
-0.0003221 0.000162098 -1.55861e-06
-4.16398e-07 -1.55861e-06 -1.39816e-06
0.00204988 -0.000369034 -1.96448e-06
-0.000369034 0.000273907 3.64495e-06
-1.96448e-06 3.64495e-06 0.000119146
0.00191684 -0.000353117 -5.66713e-07
-0.000353117 0.000244425 -1.33483e-07
-5.66713e-07 -1.33483e-07 6.12511e-05
0.00151901 -0.000281137 -5.65814e-06
-0.000281137 0.000115738 8.98802e-07
-5.65814e-06 8.98802e-07 -7.90491e-05
0.00187555 -0.000383357 3.34723e-06
-0.000383357 0.000253913 1.30284e-06
3.34723e-06 1.30284e-06 4.42002e-05
0.0015558 -0.000311518 -4.07512e-07
-0.000311518 0.000172384 -4.79653e-09
-4.07512e-07 -4.79653e-09 -3.80499e-05
0.000948518 -0.000194644 -1.42286e-05
-0.000194644 -2.56509e-05 6.4654e-06
-1.42286e-05 6.4654e-06 -0.000198229
0.000387003 -0.000183325 -2.00284e-05
-0.000183325 -0.000169301 1.60808e-05
-2.00284e-05 1.60808e-05 -0.000283911
0.000933577 -0.000211632 2.50228e-07
-0.000211632 -4.65545e-06 7.52976e-08
2.50228e-07 7.52976e-08 -0.000186627
0.00139414 -0.000334277 5.81093e-06
-0.000334277 0.000135823 -1.33266e-06
5.81093e-06 -1.33266e-06 -9.89475e-05
0.00622513 4.59992e-05 -0.000234623
4.59992e-05 0.00347147 1.44024e-05
-0.000234623 1.44024e-05 0.00347547
0.000476025 -0.000200264 -1.48187e-06
-0.000200264 -0.000110416 9.43038e-07
-1.48187e-06 9.43038e-07 -0.000223027
0.000879792 -0.000214816 1.22586e-05
-0.000214816 9.72129e-06 -6.39028e-06
1.22586e-05 -6.39028e-06 -0.000179932
0.00609332 9.77771e-05 -1.50511e-06
9.77771e-05 0.00341224 7.25182e-08
-1.50511e-06 7.25182e-08 0.00340653
0.000559957 -0.00020867 2.46851e-05
-0.00020867 -5.04484e-05 -1.72217e-05
2.46851e-05 -1.72217e-05 -0.000159598
0.00582153 0.00012003 0.000204265
0.00012003 0.00326281 -1.7266e-05
0.000204265 -1.7266e-05 0.00325189
0.00160029 0.00047738 -1.10015e-06
0.00047738 0.000183636 3.77405e-06
-1.10015e-06 3.77405e-06 -8.77021e-05
0.00138458 0.00042479 3.51659e-07
0.00042479 0.000177115 8.74135e-07
3.51659e-07 8.74135e-07 -0.000110281
0.0012701 0.000332256 -6.99753e-06
0.000332256 0.000165253 -8.76195e-07
-6.99753e-06 -8.76195e-07 -7.78102e-05
0.00175497 0.000440513 1.13892e-06
0.000440513 0.000510966 2.25904e-06
1.13892e-06 2.25904e-06 0.000213237
0.00111687 0.000292722 -1.47434e-06
0.000292722 0.000155415 1.20925e-07
-1.47434e-06 1.20925e-07 -7.85919e-05
0.000960692 0.000222056 -9.73982e-06
0.000222056 0.000177719 -3.19629e-06
-9.73982e-06 -3.19629e-06 -1.65754e-05
0.00128626 0.000275215 -2.7785e-06
0.000275215 0.00037842 -2.50457e-07
-2.7785e-06 -2.50457e-07 0.000149622
0.000692712 0.000183883 4.97399e-07
0.000183883 9.44933e-05 5.27565e-07
4.97399e-07 5.27565e-07 -0.000101225
0.000663791 0.000122036 -2.08173e-05
0.000122036 5.42401e-05 -1.56391e-05
-2.08173e-05 -1.56391e-05 -3.00917e-05
0.000366809 5.49547e-05 4.58534e-07
5.49547e-05 -9.7972e-05 6.37633e-06
4.58534e-07 6.37633e-06 -0.000247401
0.000536469 3.80993e-05 -1.09416e-06
3.80993e-05 -4.88452e-06 -4.7244e-07
-1.09416e-06 -4.7244e-07 -6.86608e-05
0.00437449 -0.000145278 -0.000140064
-0.000145278 0.00239411 -8.39218e-06
-0.000140064 -8.39218e-06 0.00238448
0.000401299 1.10637e-05 6.0794e-06
1.10637e-05 -7.84573e-05 1.2676e-05
6.0794e-06 1.2676e-05 -0.000131685
0.0036019 -0.000153795 -6.43027e-06
-0.000153795 0.00191471 6.25898e-07
-6.43027e-06 6.25898e-07 0.00190507
0.00317377 -0.000141383 6.3044e-05
-0.000141383 0.00164094 4.07085e-06
6.3044e-05 4.07085e-06 0.00163497
0.000768753 9.9727e-05 2.14019e-05
9.9727e-05 -0.000596114 1.55242e-05
2.14019e-05 1.55242e-05 -0.000462053
0.00234013 9.65789e-05 -1.00807e-05
9.65789e-05 -0.000610552 -3.8741e-06
-1.00807e-05 -3.8741e-06 -0.000224595
0.00389498 0.000147295 0.000172616
0.000147295 -0.00121901 5.15902e-05
0.000172616 5.15902e-05 -3.16905e-06
0.00253142 0.000639476 -4.38058e-06
0.000639476 0.000549902 -1.93606e-07
-4.38058e-06 -1.93606e-07 0.000291477
0.00170874 0.000591304 -5.03393e-06
0.000591304 0.000231816 -4.4432e-06
-5.03393e-06 -4.4432e-06 -5.45076e-05
0.00203332 0.000479059 -4.55662e-07
0.000479059 0.000185058 3.96772e-06
-4.55662e-07 3.96772e-06 -2.15697e-05
0.00192512 0.000559352 1.03099e-06
0.000559352 0.000263423 3.28081e-07
1.03099e-06 3.28081e-07 -1.27997e-06
0.00137256 0.000483614 -9.09193e-08
0.000483614 0.000116324 -9.69706e-06
-9.09193e-08 -9.69706e-06 -0.000175947
0.0018399 0.000494706 -1.07776e-06
0.000494706 1.91579e-06 1.05218e-06
-1.07776e-06 1.05218e-06 -0.000185097
0.0022344 0.000633103 -7.28999e-06
0.000633103 0.00067577 -3.27867e-06
-7.28999e-06 -3.27867e-06 0.000376602
0.00204845 0.000649103 1.31184e-07
0.000649103 0.000279539 -4.90148e-07
1.31184e-07 -4.90148e-07 2.16907e-05
0.00197356 0.000373224 -9.04053e-06
0.000373224 -5.95482e-05 -1.61148e-07
-9.04053e-06 -1.61148e-07 -0.000123469
0.00291478 0.000800746 -4.06113e-06
0.000800746 0.000776765 6.29331e-06
-4.06113e-06 6.29331e-06 0.000526535
0.0022158 0.000647764 -9.32105e-07
0.000647764 0.00022698 -3.14113e-07
-9.32105e-07 -3.14113e-07 2.68911e-05
0.000790471 0.000334013 4.83191e-06
0.000334013 -0.000467994 3.17914e-06
4.83191e-06 3.17914e-06 -0.000487303
-0.000444248 0.000451414 -1.76366e-05
0.000451414 -0.000963472 -2.99267e-06
-1.76366e-05 -2.99267e-06 -0.00110421
0.00297595 0.000703324 -8.40767e-05
0.000703324 0.00014422 -3.07245e-05
-8.40767e-05 -3.07245e-05 0.000149493
0.00199669 5.86022e-05 -1.51698e-06
5.86022e-05 -0.000133404 -1.22496e-06
-1.51698e-06 -1.22496e-06 -8.76001e-05
0.00239082 -5.65727e-05 4.52104e-06
-5.65727e-05 0.000409692 3.5318e-07
4.52104e-06 3.5318e-07 0.000455461
0.00201457 -0.000148754 -6.66356e-05
-0.000148754 -0.00031922 6.32005e-06
-6.66356e-05 6.32005e-06 -0.0002858
0.00229689 -0.000309948 -4.85711e-05
-0.000309948 -1.36953e-05 6.05547e-06
-4.85711e-05 6.05547e-06 0.000198498
0.00147417 -9.2606e-05 -8.86016e-06
-9.2606e-05 -0.000230575 2.48833e-06
-8.86016e-06 2.48833e-06 -0.00024406
0.00218677 -0.000213869 4.69429e-09
-0.000213869 -4.33147e-05 -1.37149e-06
4.69429e-09 -1.37149e-06 3.40482e-05
0.00221107 -1.44966e-05 -1.98843e-06
-1.44966e-05 -3.24906e-06 1.37463e-06
-1.98843e-06 1.37463e-06 1.09535e-05
0.00221953 -7.32525e-05 -1.16213e-06
-7.32525e-05 -4.37411e-06 -1.71721e-07
-1.16213e-06 -1.71721e-07 2.84923e-05
0.00223986 -0.000361792 -4.64427e-06
-0.000361792 -6.64699e-05 1.3134e-07
-4.64427e-06 1.3134e-07 2.21276e-05
0.00213503 -0.000249547 4.45405e-07
-0.000249547 -3.09218e-05 -2.07069e-07
4.45405e-07 -2.07069e-07 -4.18483e-06
0.00207799 -0.000197015 -1.16381e-06
-0.000197015 1.07755e-05 2.19807e-08
-1.16381e-06 2.19807e-08 9.71356e-06
0.00209019 -0.000335184 9.7975e-07
-0.000335184 5.60259e-05 -3.8373e-07
9.7975e-07 -3.8373e-07 2.39887e-05
0.00199708 -0.000287433 1.71773e-07
-0.000287433 4.89762e-05 1.10123e-07
1.71773e-07 1.10123e-07 -1.03752e-05
0.00197122 -0.000247186 -1.38539e-06
-0.000247186 0.000103366 1.64727e-07
-1.38539e-06 1.64727e-07 1.70267e-05
0.00186915 -0.000329327 2.24068e-06
-0.000329327 5.41839e-05 -1.25085e-06
2.24068e-06 -1.25085e-06 -4.88799e-05
0.00190081 -0.000307454 2.79153e-07
-0.000307454 0.000105397 -2.21364e-07
2.79153e-07 -2.21364e-07 -9.96389e-06
0.0018665 -0.000281337 -1.56516e-08
-0.000281337 0.00012935 -1.36015e-06
-1.56516e-08 -1.36015e-06 -9.39032e-06
0.00192704 -0.000349922 -2.97387e-08
-0.000349922 0.000165117 7.17624e-07
-2.97387e-08 7.17624e-07 2.56805e-05
0.00187313 -0.000323058 -3.52743e-07
-0.000323058 0.000179098 -3.70455e-08
-3.52743e-07 -3.70455e-08 1.56658e-05
0.00156968 -0.000256449 -3.71783e-06
-0.000256449 0.000111181 5.27473e-07
-3.71783e-06 5.27473e-07 -6.85119e-05
0.00191425 -0.000353315 5.20991e-07
-0.000353315 0.000243538 1.62987e-06
5.20991e-07 1.62987e-06 6.15393e-05
0.00155077 -0.000283125 -3.79443e-07
-0.000283125 0.000134268 9.87812e-08
-3.79443e-07 9.87812e-08 -6.02769e-05
0.000971868 -0.000175675 -1.43956e-05
-0.000175675 -3.03174e-05 5.84958e-06
-1.43956e-05 5.84958e-06 -0.000195496
0.00157542 -0.000314159 5.87222e-06
-0.000314159 0.000184702 -7.88739e-07
5.87222e-06 -7.88739e-07 -2.52025e-05
0.000981852 -0.000195832 1.28259e-07
-0.000195832 -8.01049e-06 8.28128e-08
1.28259e-07 8.28128e-08 -0.000180377
0.00259629 -0.000150938 -4.03516e-05
-0.000150938 0.00116528 1.02845e-05
-4.03516e-05 1.02845e-05 0.00107455
0.00191949 -7.48185e-05 -0.000219026
-7.48185e-05 0.000825685 2.72869e-05
-0.000219026 2.72869e-05 0.000807416
0.00156833 -0.000179767 -9.72521e-06
-0.000179767 0.000547346 -3.17441e-07
-9.72521e-06 -3.17441e-07 0.000441475
0.000947492 -0.000213891 1.32463e-05
-0.000213891 8.84388e-07 -6.28861e-06
1.32463e-05 -6.28861e-06 -0.000181823
0.00627902 2.90238e-05 -6.80068e-06
2.90238e-05 0.00351127 3.1579e-07
-6.80068e-06 3.1579e-07 0.00351181
0.000503735 -0.000226471 2.48349e-05
-0.000226471 -9.41856e-05 -1.68092e-05
2.48349e-05 -1.68092e-05 -0.000208885
0.00617721 7.71387e-05 0.000227231
7.71387e-05 0.00346833 -2.0295e-05
0.000227231 -2.0295e-05 0.00346018
0.00204895 0.000368393 1.77636e-07
0.000368393 0.000170027 7.98022e-07
1.77636e-07 7.98022e-07 1.00151e-05
0.00189518 0.000466534 2.34616e-06
0.000466534 0.000242958 4.35563e-06
2.34616e-06 4.35563e-06 9.07084e-06
0.00186373 0.000500855 9.83302e-08
0.000500855 0.000335203 2.24716e-07
9.83302e-08 2.24716e-07 6.23332e-05
0.00139586 0.000360123 -6.06018e-06
0.000360123 0.000170651 6.1249e-08
-6.06018e-06 6.1249e-08 -7.10581e-05
0.00147335 0.000442933 4.63825e-06
0.000442933 0.000225881 -7.02299e-07
4.63825e-06 -7.02299e-07 -6.49172e-05
0.00122355 0.000326355 -4.64713e-07
0.000326355 0.000138572 2.99957e-07
-4.64713e-07 2.99957e-07 -0.000103416
0.000822657 0.000203021 -1.16064e-05
0.000203021 9.65438e-06 -5.20192e-06
-1.16064e-05 -5.20192e-06 -0.00017261
0.00124291 0.000298541 4.78711e-06
0.000298541 0.000236921 2.23657e-06
4.78711e-06 2.23657e-06 4.58122e-06
0.000760452 0.000200309 6.06385e-07
0.000200309 5.03393e-05 8.54084e-07
6.06385e-07 8.54084e-07 -0.000140447
0.000603078 0.000199677 -2.51593e-05
0.000199677 -6.29727e-07 -1.6914e-05
-2.51593e-05 -1.6914e-05 -0.000105946
0.000376774 0.00014945 2.13005e-06
0.00014945 -9.49898e-05 2.95092e-06
2.13005e-06 2.95092e-06 -0.000289822
0.000551613 0.00010551 -1.42547e-06
0.00010551 -1.26617e-05 -7.21472e-07
-1.42547e-06 -7.21472e-07 -9.39223e-05
0.00527161 -0.00014368 -0.000182877
-0.00014368 0.0029492 -1.46491e-05
-0.000182877 -1.46491e-05 0.00293292
0.00034573 2.82251e-05 8.76944e-06
2.82251e-05 -0.000115702 1.39882e-05
8.76944e-06 1.39882e-05 -0.000178234
0.00413293 -0.000172881 -8.09806e-06
-0.000172881 0.00225254 6.9809e-07
-8.09806e-06 6.9809e-07 0.0022364
0.00351841 -0.000161849 7.96582e-05
-0.000161849 0.00186432 4.248e-06
7.96582e-05 4.248e-06 0.00185252
0.00212399 0.000190722 -3.68623e-06
0.000190722 -7.79518e-05 -6.3491e-07
-3.68623e-06 -6.3491e-07 -3.10857e-05
0.00202573 7.07117e-05 2.31594e-05
7.07117e-05 5.18303e-05 -2.6907e-06
2.31594e-05 -2.6907e-06 0.000177494
0.00485249 0.000145849 -0.000108143
0.000145849 0.000493849 -1.35933e-05
-0.000108143 -1.35933e-05 0.000907672
0.00194266 0.000429033 -4.37856e-06
0.000429033 8.66651e-05 1.45733e-06
-4.37856e-06 1.45733e-06 -8.44849e-05
0.00209398 0.000595004 -3.07986e-06
0.000595004 0.000315679 -2.13783e-07
-3.07986e-06 -2.13783e-07 6.317e-05
0.00160476 0.000600715 -7.53736e-06
0.000600715 0.000155599 -8.5814e-06
-7.53736e-06 -8.5814e-06 -0.000127094
0.00216281 0.000474166 3.01148e-06
0.000474166 0.000280182 1.27874e-06
3.01148e-06 1.27874e-06 7.63778e-05
0.00188361 0.000548189 -1.35118e-06
0.000548189 0.000238426 -3.80833e-06
-1.35118e-06 -3.80833e-06 -2.35782e-05
0.00227177 0.000358459 -7.49319e-07
0.000358459 0.00012067 1.05843e-07
-7.49319e-07 1.05843e-07 4.45533e-05
0.00181256 0.000493853 1.7174e-07
0.000493853 1.32311e-05 8.49244e-07
1.7174e-07 8.49244e-07 -0.000174731
0.00251107 0.000679679 -5.95618e-06
0.000679679 0.000561391 -1.33606e-06
-5.95618e-06 -1.33606e-06 0.000295492
0.00199518 0.000370192 -5.64247e-07
0.000370192 -3.93057e-05 -4.85555e-07
-5.64247e-07 -4.85555e-07 -0.000102256
0.00208373 0.000637737 1.28455e-05
0.000637737 0.000139943 2.13541e-06
1.28455e-05 2.13541e-06 -6.29812e-05
0.000976689 0.000335891 -3.60238e-05
0.000335891 -0.000341582 -1.36625e-05
-3.60238e-05 -1.36625e-05 -0.00036825
0.00218545 6.69187e-05 -4.9841e-07
6.69187e-05 -8.93809e-06 3.23943e-07
-4.9841e-07 3.23943e-07 2.47939e-05
0.00212612 6.9852e-05 -1.95373e-06
6.9852e-05 -3.96548e-05 2.80106e-07
-1.95373e-06 2.80106e-07 1.54554e-06
0.00308706 -5.04226e-05 -3.98908e-05
-5.04226e-05 0.000875488 3.04227e-06
-3.98908e-05 3.04227e-06 0.000908255
0.00211856 -0.000207934 -1.14428e-05
-0.000207934 -9.41343e-05 1.71519e-06
-1.14428e-05 1.71519e-06 -8.35041e-07
0.00225438 -1.22704e-05 -3.09816e-06
-1.22704e-05 -8.61801e-06 -2.06097e-06
-3.09816e-06 -2.06097e-06 1.25129e-05
0.00218055 -7.86879e-05 -5.86058e-07
-7.86879e-05 -4.68416e-05 -1.00458e-07
-5.86058e-07 -1.00458e-07 -6.74308e-06
0.00198478 -6.268e-05 -1.33958e-06
-6.268e-05 -5.18955e-07 2.61551e-07
-1.33958e-06 2.61551e-07 -2.41518e-07
0.0021019 -0.000238971 6.42153e-07
-0.000238971 -3.29603e-05 8.38742e-08
6.42153e-07 8.38742e-08 -1.2006e-05
0.00203408 -0.00020025 -1.45979e-07
-0.00020025 -6.21348e-06 1.6112e-08
-1.45979e-07 1.6112e-08 -1.2422e-05
0.00200479 -0.000168464 -7.67393e-07
-0.000168464 8.23403e-05 8.0196e-08
-7.67393e-07 8.0196e-08 2.80369e-05
0.00199331 -0.000284243 2.25262e-06
-0.000284243 5.28785e-05 -4.52378e-07
2.25262e-06 -4.52378e-07 -7.00682e-06
0.00192285 -0.000244708 1.08165e-07
-0.000244708 6.86254e-05 -1.83201e-07
1.08165e-07 -1.83201e-07 -1.78377e-05
0.00186914 -0.000226827 -2.64036e-07
-0.000226827 8.59446e-05 -9.40623e-07
-2.64036e-07 -9.40623e-07 -2.88318e-05
0.00189962 -0.000307134 1.3716e-06
-0.000307134 0.000102391 -6.92774e-08
1.3716e-06 -6.92774e-08 -1.32689e-05
0.00189919 -0.0002829 -3.06936e-07
-0.0002829 0.000149457 -7.32827e-08
-3.06936e-07 -7.32827e-08 1.058e-05
0.00161355 -0.000223759 -2.46835e-06
-0.000223759 0.000103536 2.20059e-07
-2.46835e-06 2.20059e-07 -6.04364e-05
0.00189896 -0.000324076 2.13959e-07
-0.000324076 0.00019609 1.31779e-06
2.13959e-07 1.31779e-06 3.27071e-05
0.00159762 -0.000258122 -3.12486e-07
-0.000258122 0.000126744 5.39209e-08
-3.12486e-07 5.39209e-08 -5.26552e-05
0.000988282 -0.000156847 -1.38274e-05
-0.000156847 -3.59156e-05 4.92515e-06
-1.38274e-05 4.92515e-06 -0.000195517
0.00158229 -0.000285133 4.69742e-06
-0.000285133 0.000152632 -7.16869e-07
4.69742e-06 -7.16869e-07 -4.16779e-05
0.00101004 -0.000176345 3.01923e-08
-0.000176345 -1.06512e-05 1.43442e-07
3.01923e-08 1.43442e-07 -0.000175213
0.00261612 -0.000151358 -4.83746e-05
-0.000151358 0.00116626 9.70257e-06
-4.83746e-05 9.70257e-06 0.0010834
0.00101393 -0.00019731 1.42385e-05
-0.00019731 8.88286e-06 -6.18438e-06
1.42385e-05 -6.18438e-06 -0.00016335
0.00273804 -0.00019203 4.32216e-05
-0.00019203 0.00125049 -6.24824e-06
4.32216e-05 -6.24824e-06 0.00116652
0.00197975 -0.000113364 -0.000221561
-0.000113364 0.000868846 3.19451e-05
-0.000221561 3.19451e-05 0.000848496
0.00401083 -7.00702e-05 -0.000216971
-7.00702e-05 0.00212293 1.87687e-05
-0.000216971 1.87687e-05 0.0021142
0.00282866 -0.000246924 0.000139052
-0.000246924 0.0013182 -2.11298e-05
0.000139052 -2.11298e-05 0.00123462
0.00632404 1.40318e-05 0.00024261
1.40318e-05 0.00354771 -2.40634e-05
0.00024261 -2.40634e-05 0.00354408
0.002266 0.000368274 -2.36742e-06
0.000368274 0.000292968 -2.10826e-07
-2.36742e-06 -2.10826e-07 0.000155916
0.00173509 0.000359331 2.9227e-06
0.000359331 9.24874e-05 1.6673e-06
2.9227e-06 1.6673e-06 -9.53915e-05
0.00203114 0.000360833 5.43413e-07
0.000360833 0.000162645 -1.73957e-06
5.43413e-07 -1.73957e-06 9.39848e-06
0.00155406 0.000356506 -4.99031e-06
0.000356506 0.000169767 6.87773e-07
-4.99031e-06 6.87773e-07 -5.5554e-05
0.00197838 0.000471748 5.12365e-07
0.000471748 0.000280569 4.37895e-07
5.12365e-07 4.37895e-07 4.59458e-05
0.00213203 0.000525277 1.28601e-06
0.000525277 0.000489575 -3.07018e-06
1.28601e-06 -3.07018e-06 0.00021497
0.00138097 0.000360908 1.3048e-07
0.000360908 0.000157021 2.92531e-07
1.3048e-07 2.92531e-07 -8.59283e-05
0.000902442 0.000220721 -1.34091e-05
0.000220721 -8.0519e-06 -5.56821e-06
-1.34091e-05 -5.56821e-06 -0.000190655
0.00126233 0.000328226 8.05299e-06
0.000328226 0.000164237 2.41471e-06
8.05299e-06 2.41471e-06 -7.81928e-05
0.000777299 0.000198231 -2.19025e-07
0.000198231 -1.98004e-05 -1.92431e-07
-2.19025e-07 -1.92431e-07 -0.000199746
0.000490435 0.000228962 -2.5758e-05
0.000228962 -8.57873e-05 -1.74248e-05
-2.5758e-05 -1.74248e-05 -0.00019932
0.000408579 0.00017774 6.5386e-06
0.00017774 -0.000167081 3.39111e-06
6.5386e-06 3.39111e-06 -0.00035425
0.000441832 0.000169816 1.82157e-06
0.000169816 -0.000101647 4.62877e-07
1.82157e-06 4.62877e-07 -0.000199836
0.00601627 -0.000120341 -0.000209703
-0.000120341 0.00340319 -2.07668e-05
-0.000209703 -2.07668e-05 0.00338157
0.000348688 7.33927e-05 1.50034e-05
7.33927e-05 -0.000132636 1.48804e-05
1.50034e-05 1.48804e-05 -0.000208015
0.00492682 -0.000178381 -8.47741e-06
-0.000178381 0.00274151 9.08385e-08
-8.47741e-06 9.08385e-08 0.00272134
0.00391002 -0.000185422 9.38723e-05
-0.000185422 0.00211893 5.10442e-06
9.38723e-05 5.10442e-06 0.00209942
0.00219545 0.000214263 -1.05755e-06
0.000214263 1.07504e-06 2.67314e-07
-1.05755e-06 2.67314e-07 1.19855e-05
0.00205899 0.000194509 1.18341e-06
0.000194509 -0.000108863 3.20069e-09
1.18341e-06 3.20069e-09 -6.32894e-05
0.00298154 4.74281e-05 -7.86101e-05
4.74281e-05 0.000539059 -1.20767e-05
-7.86101e-05 -1.20767e-05 0.000663817
0.0020192 0.00031217 -5.789e-07
0.00031217 5.7318e-05 1.95324e-07
-5.789e-07 1.95324e-07 -4.55709e-05
0.00198135 0.000429482 -9.87295e-08
0.000429482 0.000130858 4.75212e-07
-9.87295e-08 4.75212e-07 -4.08213e-05
0.00165089 0.000548404 2.18019e-06
0.000548404 7.8522e-05 -2.09594e-06
2.18019e-06 -2.09594e-06 -0.000167471
0.00229368 0.000469042 4.03609e-09
0.000469042 0.000376697 -2.98787e-06
4.03609e-09 -2.98787e-06 0.000175833
0.00216775 0.000345517 -6.16988e-07
0.000345517 6.70768e-05 2.10128e-08
-6.16988e-07 2.10128e-08 -7.18514e-06
0.00177701 0.000492327 -3.97182e-06
0.000492327 2.06344e-05 4.25245e-08
-3.97182e-06 4.25245e-08 -0.000168203
0.00190574 0.00036095 1.06497e-05
0.00036095 -6.15197e-05 3.36433e-07
1.06497e-05 3.36433e-07 -0.00012322
0.0020323 5.70312e-05 4.80603e-07
5.70312e-05 8.70247e-07 5.18708e-07
4.80603e-07 5.18708e-07 1.03589e-05
0.00213746 6.44284e-05 7.06605e-08
6.44284e-05 -2.67364e-05 1.38116e-09
7.06605e-08 1.38116e-09 4.37965e-06
0.00224062 8.43671e-05 -7.51006e-06
8.43671e-05 4.77609e-05 -1.20139e-07
-7.51006e-06 -1.20139e-07 8.42018e-05
0.00190355 -1.13084e-05 -4.551e-06
-1.13084e-05 8.60828e-06 4.87062e-07
-4.551e-06 4.87062e-07 -6.93194e-06
0.00215402 -8.95936e-05 1.92402e-06
-8.95936e-05 -8.07141e-05 -5.11928e-07
1.92402e-06 -5.11928e-07 -3.33865e-05
0.0019981 -6.53753e-05 -7.96855e-07
-6.53753e-05 2.95807e-06 3.12124e-07
-7.96855e-07 3.12124e-07 4.39645e-06
0.00197368 -9.76051e-05 -3.97684e-06
-9.76051e-05 5.08965e-05 3.61247e-07
-3.97684e-06 3.61247e-07 1.54672e-05
0.00199272 -0.000203447 1.79775e-06
-0.000203447 -2.20728e-05 -8.16936e-08
1.79775e-06 -8.16936e-08 -3.35141e-05
0.00195518 -0.000165659 1.87226e-06
-0.000165659 5.00155e-05 -4.04389e-07
1.87226e-06 -4.04389e-07 -3.85285e-06
0.00191888 -0.000157276 2.06891e-06
-0.000157276 9.65602e-05 -1.71327e-06
2.06891e-06 -1.71327e-06 2.91457e-06
0.00186886 -0.000241408 1.80344e-06
-0.000241408 3.02676e-05 -5.09083e-07
1.80344e-06 -5.09083e-07 -5.622e-05
0.00192896 -0.000227579 -1.61207e-07
-0.000227579 0.000124346 -1.78423e-07
-1.61207e-07 -1.78423e-07 9.7172e-06
0.00165311 -0.000178162 -1.58096e-06
-0.000178162 0.000101647 -1.07232e-07
-1.58096e-06 -1.07232e-07 -4.54607e-05
0.00193064 -0.000284212 1.34068e-07
-0.000284212 0.000169416 1.01389e-06
1.34068e-07 1.01389e-06 3.04512e-05
0.00163337 -0.000224055 -2.53593e-07
-0.000224055 0.000114296 7.92072e-08
-2.53593e-07 7.92072e-08 -4.91816e-05
0.00100519 -0.00013516 -1.30974e-05
-0.00013516 -3.98521e-05 3.86596e-06
-1.30974e-05 3.86596e-06 -0.00019329
0.00162468 -0.00025964 2.91582e-06
-0.00025964 0.000141905 -4.30305e-07
2.91582e-06 -4.30305e-07 -3.71665e-05
0.00102775 -0.000156583 -1.06505e-07
-0.000156583 -1.55357e-05 2.16239e-07
-1.06505e-07 2.16239e-07 -0.000174215
0.00261566 -0.000151671 -5.60527e-05
-0.000151671 0.00116233 9.50935e-06
-5.60527e-05 9.50935e-06 0.00108241
0.00104891 -0.000177093 1.43019e-05
-0.000177093 9.21191e-06 -5.57193e-06
1.43019e-05 -5.57193e-06 -0.000154689
0.00270474 -0.000176822 3.95283e-05
-0.000176822 0.00122002 -5.01187e-06
3.95283e-05 -5.01187e-06 0.00114286
0.00201996 -9.75678e-05 -0.000216754
-9.75678e-05 0.000886614 2.81912e-05
-0.000216754 2.81912e-05 0.000868281
0.00286075 -0.000202882 0.000135948
-0.000202882 0.00132122 -2.25121e-05
0.000135948 -2.25121e-05 0.00124488
0.00169616 -5.21695e-05 -9.34581e-05
-5.21695e-05 0.000698603 1.24708e-05
-9.34581e-05 1.24708e-05 0.000667324
0.00597377 8.31713e-05 6.31009e-05
8.31713e-05 0.00331752 -2.69009e-06
6.31009e-05 -2.69009e-06 0.00329662
0.00197976 0.000305637 8.10175e-07
0.000305637 9.94833e-05 6.17016e-07
8.10175e-07 6.17016e-07 -2.1796e-05
0.00203255 0.000339246 3.39017e-07
0.000339246 0.000224029 -1.85178e-07
3.39017e-07 -1.85178e-07 6.33346e-05
0.00212466 0.000362896 -3.90511e-06
0.000362896 0.00019853 -5.79587e-08
-3.90511e-06 -5.79587e-08 5.87195e-05
0.00176267 0.000323124 -2.28072e-06
0.000323124 0.000236526 3.88111e-07
-2.28072e-06 3.88111e-07 3.61804e-05
0.00173932 0.00036516 -3.6275e-07
0.00036516 8.03971e-05 -1.87584e-06
-3.6275e-07 -1.87584e-06 -0.000104265
0.00201829 0.000353633 -3.84626e-06
0.000353633 0.00015827 -5.45077e-06
-3.84626e-06 -5.45077e-06 1.1757e-05
0.00101016 0.000220617 -1.46151e-05
0.000220617 -2.49579e-07 -5.27601e-06
-1.46151e-05 -5.27601e-06 -0.000177492
0.00150438 0.000353688 4.8196e-07
0.000353688 0.000138493 3.48232e-07
4.8196e-07 3.48232e-07 -8.72708e-05
0.00205887 0.000476496 2.71574e-06
0.000476496 0.000315831 -3.02183e-06
2.71574e-06 -3.02183e-06 8.05777e-05
0.00134747 0.000359772 7.1086e-06
0.000359772 0.000133031 8.87287e-07
7.1086e-06 8.87287e-07 -0.000110795
0.000866386 0.000214493 -8.52955e-07
0.000214493 -2.42103e-05 2.50223e-08
-8.52955e-07 2.50223e-08 -0.000204837
0.000455979 0.000228106 -2.50939e-05
0.000228106 -0.000110958 -1.66891e-05
-2.50939e-05 -1.66891e-05 -0.000228878
0.000654664 0.000186961 1.12817e-05
0.000186961 -9.52278e-05 4.89246e-06
1.12817e-05 4.89246e-06 -0.000271844
0.000447679 0.000214791 2.20614e-06
0.000214791 -0.000106035 5.92739e-07
2.20614e-06 5.92739e-07 -0.000220151
0.00631977 -3.94078e-05 -0.00023084
-3.94078e-05 0.00357296 -2.59916e-05
-0.00023084 -2.59916e-05 0.00355634
0.000482376 0.000155333 2.25551e-05
0.000155333 -8.11904e-05 1.66938e-05
2.25551e-05 1.66938e-05 -0.000174841
0.00578818 -0.000150387 1.43396e-06
-0.000150387 0.00325795 -9.16174e-07
1.43396e-06 -9.16174e-07 0.00323913
0.00461391 -0.000221979 0.000113626
-0.000221979 0.00256598 7.37938e-06
0.000113626 7.37938e-06 0.00253445
0.00202777 0.000170979 -1.48198e-06
0.000170979 3.05405e-05 4.28855e-08
-1.48198e-06 4.28855e-08 -1.29872e-06
0.00219114 0.000217223 2.26551e-07
0.000217223 -9.77846e-06 5.37452e-07
2.26551e-07 5.37452e-07 3.51868e-06
0.00206495 0.000199043 3.80543e-06
0.000199043 -0.000111006 4.43051e-07
3.80543e-06 4.43051e-07 -6.62609e-05
0.00204734 0.000308651 -1.62785e-07
0.000308651 8.14308e-05 2.03415e-09
-1.62785e-07 2.03415e-09 -1.78043e-05
0.00200302 0.000428332 1.00381e-07
0.000428332 0.00016629 -7.03204e-07
1.00381e-07 -7.03204e-07 -5.69154e-06
0.00209553 0.000334255 1.02596e-06
0.000334255 2.85979e-05 -3.76188e-07
1.02596e-06 -3.76188e-07 -4.39299e-05
0.00195615 5.877e-05 -2.49125e-06
5.877e-05 1.9721e-05 3.5954e-07
-2.49125e-06 3.5954e-07 7.11564e-06
0.00202146 5.28125e-05 3.98887e-07
5.28125e-05 -7.57734e-07 -8.35187e-08
3.98887e-07 -8.35187e-08 5.70574e-06
0.00208961 6.21599e-05 5.9169e-07
6.21599e-05 -4.58892e-05 -3.07616e-07
5.9169e-07 -3.07616e-07 -1.67753e-05
0.00191697 -1.27634e-05 -1.35942e-06
-1.27634e-05 1.38497e-05 8.98451e-08
-1.35942e-06 8.98451e-08 -2.25408e-06
0.00184967 -3.83178e-05 -5.63019e-06
-3.83178e-05 -8.67737e-06 4.09084e-07
-5.63019e-06 4.09084e-07 -4.96531e-05
0.00201157 -6.78283e-05 1.41685e-06
-6.78283e-05 6.25097e-06 -8.92641e-08
1.41685e-06 -8.92641e-08 9.02425e-06
0.00192565 -9.57415e-05 -1.45578e-06
-9.57415e-05 2.61804e-05 2.25458e-07
-1.45578e-06 2.25458e-07 -1.24563e-05
0.00196814 -9.76519e-05 -2.62516e-06
-9.76519e-05 0.000121868 -1.83563e-08
-2.62516e-06 -1.83563e-08 4.77362e-05
0.00190444 -0.000163221 4.22931e-06
-0.000163221 1.80437e-05 -7.99228e-07
4.22931e-06 -7.99228e-07 -3.54826e-05
0.00191662 -0.000159027 2.60523e-06
-0.000159027 9.18087e-05 -9.63528e-07
2.60523e-06 -9.63528e-07 -2.09186e-06
0.00166954 -0.000127017 7.14013e-07
-0.000127017 9.59138e-05 -7.3269e-07
7.14013e-07 -7.3269e-07 -3.66251e-05
0.00197363 -0.000229515 2.88932e-07
-0.000229515 0.000152551 5.05917e-07
2.88932e-07 5.05917e-07 3.77541e-05
0.00165526 -0.000178825 -1.80748e-07
-0.000178825 9.88299e-05 3.32804e-08
-1.80748e-07 3.32804e-08 -4.80997e-05
0.00102037 -0.000108019 -1.25758e-05
-0.000108019 -4.14826e-05 2.80048e-06
-1.25758e-05 2.80048e-06 -0.00018725
0.00165702 -0.000224693 1.71471e-06
-0.000224693 0.000126342 -5.60168e-08
1.71471e-06 -5.60168e-08 -3.66826e-05
0.00103917 -0.000133974 -2.31988e-07
-0.000133974 -2.1866e-05 2.7876e-07
-2.31988e-07 2.7876e-07 -0.000174367
0.00257482 -0.000157827 -5.9067e-05
-0.000157827 0.00113569 8.42637e-06
-5.9067e-05 8.42637e-06 0.00105698
0.00106717 -0.000156362 1.37339e-05
-0.000156362 4.59672e-06 -4.57231e-06
1.37339e-05 -4.57231e-06 -0.000153137
0.00267943 -0.000154792 3.79687e-05
-0.000154792 0.00119693 -3.81413e-06
3.79687e-05 -3.81413e-06 0.00112381
0.002046 -8.22461e-05 -0.000215916
-8.22461e-05 0.000895684 2.39344e-05
-0.000215916 2.39344e-05 0.000878469
0.00279336 -0.000172003 0.00013341
-0.000172003 0.00126767 -1.92825e-05
0.00013341 -1.92825e-05 0.00119899
0.00169572 -5.95775e-05 -8.47657e-05
-5.95775e-05 0.000692747 1.02258e-05
-8.47657e-05 1.02258e-05 0.000664178
0.00145295 -4.90873e-05 4.84113e-05
-4.90873e-05 0.000557676 -7.35473e-06
4.84113e-05 -7.35473e-06 0.000514375
0.00202675 0.000193909 -4.84057e-07
0.000193909 0.00010719 1.07984e-06
-4.84057e-07 1.07984e-06 2.91262e-05
0.00197933 0.000281392 -6.64045e-07
0.000281392 0.00016007 7.96028e-07
-6.64045e-07 7.96028e-07 2.03788e-05
0.00198299 0.000306955 -1.84783e-07
0.000306955 8.71558e-05 1.2945e-07
-1.84783e-07 1.2945e-07 -2.98948e-05
0.00186354 0.000295625 -1.27676e-06
0.000295625 0.000248997 3.80538e-07
-1.27676e-06 3.80538e-07 7.13619e-05
0.00196978 0.000333913 -4.23101e-07
0.000333913 0.00019417 -2.7016e-07
-4.23101e-07 -2.7016e-07 3.17427e-05
0.00197889 0.000357649 3.01652e-07
0.000357649 0.000101544 -2.80482e-07
3.01652e-07 -2.80482e-07 -4.11186e-05
0.00108141 0.000202946 -1.51862e-05
0.000202946 1.43618e-05 -4.85283e-06
-1.51862e-05 -4.85283e-06 -0.0001537
0.00166755 0.000322173 2.8472e-06
0.000322173 0.000170992 2.88098e-07
2.8472e-06 2.88098e-07 -2.79206e-05
0.00175443 0.000371833 -8.4809e-07
0.000371833 7.52832e-05 -3.47954e-06
-8.4809e-07 -3.47954e-06 -0.000106275
0.000382078 0.000183521 -2.24893e-05
0.000183521 -0.000174296 -1.39842e-05
-2.24893e-05 -1.39842e-05 -0.000284612
0.00096888 0.000215803 -5.64046e-07
0.000215803 -2.0394e-05 8.92123e-08
-5.64046e-07 8.92123e-08 -0.000196639
0.00146198 0.000351773 6.6562e-06
0.000351773 0.000110873 2.45461e-07
6.6562e-06 2.45461e-07 -0.000115536
0.000865986 0.000211225 1.35099e-05
0.000211225 -1.91146e-05 6.22344e-06
1.35099e-05 6.22344e-06 -0.000198268
0.000446359 0.000211838 1.06944e-06
0.000211838 -0.000113765 8.29939e-07
1.06944e-06 8.29939e-07 -0.000232827
0.00646691 6.02769e-05 -0.000246057
6.02769e-05 0.0036431 -2.97123e-05
-0.000246057 -2.97123e-05 0.0036327
0.000429418 0.000199233 2.29441e-05
0.000199233 -0.000115337 1.66528e-05
2.29441e-05 1.66528e-05 -0.0002281
0.00620976 -6.5428e-05 6.53147e-06
-6.5428e-05 0.00349355 -5.6044e-07
6.53147e-06 -5.6044e-07 0.00348412
0.00549528 -0.000185108 0.000161475
-0.000185108 0.00308148 8.68783e-06
0.000161475 8.68783e-06 0.00305946
0.00196448 0.000117714 -4.75424e-06
0.000117714 5.23347e-05 -7.92944e-07
-4.75424e-06 -7.92944e-07 1.90995e-05
0.00201185 0.000172906 9.57061e-07
0.000172906 2.07775e-05 3.99646e-07
9.57061e-07 3.99646e-07 -9.7995e-06
0.00217032 0.000220136 2.72225e-07
0.000220136 -2.824e-05 -5.1227e-07
2.72225e-07 -5.1227e-07 -1.29507e-05
0.00208531 0.000305051 3.36444e-06
0.000305051 0.000111705 1.17573e-07
3.36444e-06 1.17573e-07 1.61984e-05
0.00177772 6.95512e-06 -4.07399e-06
6.95512e-06 -2.65899e-05 2.32492e-07
-4.07399e-06 2.32492e-07 -7.62958e-05
0.00193894 4.93754e-05 1.31051e-07
4.93754e-05 9.51976e-06 6.99781e-08
1.31051e-07 6.99781e-08 -4.58486e-06
0.0020114 4.85658e-05 2.49455e-07
4.85658e-05 -1.02731e-06 -3.45745e-07
2.49455e-07 -3.45745e-07 1.8346e-06
0.00193196 -1.26563e-05 1.80368e-06
-1.26563e-05 2.02911e-05 -6.2549e-07
1.80368e-06 -6.2549e-07 3.51123e-06
0.00187947 -3.3488e-05 -1.21628e-06
-3.3488e-05 1.13045e-05 -6.27536e-08
-1.21628e-06 -6.27536e-08 -2.84395e-05
0.00183346 -4.21371e-05 -8.62113e-07
-4.21371e-05 4.36424e-05 -5.65202e-09
-8.62113e-07 -5.65202e-09 -3.18856e-05
0.00189102 -9.41962e-05 2.12478e-06
-9.41962e-05 9.36104e-06 -2.42575e-08
2.12478e-06 -2.42575e-08 -3.24842e-05
0.00188685 -9.73925e-05 -1.495e-06
-9.73925e-05 7.24557e-05 7.1184e-07
-1.495e-06 7.1184e-07 -8.51899e-06
0.00178394 -7.84333e-05 -7.99955e-07
-7.84333e-05 0.000162484 -2.09137e-07
-7.99955e-07 -2.09137e-07 4.75319e-05
0.00192881 -0.000159864 3.95054e-06
-0.000159864 9.53813e-05 -3.34425e-07
3.95054e-06 -3.34425e-07 1.48957e-06
0.00165502 -0.000124607 1.50383e-06
-0.000124607 8.49065e-05 -5.04778e-07
1.50383e-06 -5.04778e-07 -4.70584e-05
0.00101705 -7.77177e-05 -1.22503e-05
-7.77177e-05 -4.77374e-05 2.05073e-06
-1.22503e-05 2.05073e-06 -0.000186235
0.00166915 -0.000177507 1.27104e-06
-0.000177507 0.000104571 1.24977e-07
1.27104e-06 1.24977e-07 -4.17659e-05
0.00102865 -0.000107096 -1.32414e-07
-0.000107096 -3.61736e-05 1.62594e-07
-1.32414e-07 1.62594e-07 -0.000181397
0.000499582 -8.63775e-05 -2.00042e-05
-8.63775e-05 -0.000151704 5.44845e-06
-2.00042e-05 5.44845e-06 -0.000237282
0.00107081 -0.000132604 1.30663e-05
-0.000132604 -4.95292e-06 -3.39735e-06
1.30663e-05 -3.39735e-06 -0.000156471
0.00158213 -0.000102446 5.52677e-05
-0.000102446 0.000515819 -3.92637e-06
5.52677e-05 -3.92637e-06 0.000439855
0.00608834 -0.00014251 -0.000284424
-0.00014251 0.00337983 1.96387e-05
-0.000284424 1.96387e-05 0.00339225
0.00275975 -0.000139528 0.000131683
-0.000139528 0.0012366 -1.54402e-05
0.000131683 -1.54402e-05 0.0011727
0.00170652 -6.35039e-05 -7.66357e-05
-6.35039e-05 0.000697162 6.7621e-06
-7.66357e-05 6.7621e-06 0.000668535
0.00137053 -8.14456e-05 5.99417e-05
-8.14456e-05 0.000510629 -8.80285e-06
5.99417e-05 -8.80285e-06 0.000466184
0.00200728 0.000146264 -2.32238e-06
0.000146264 0.000122666 4.32955e-07
-2.32238e-06 4.32955e-07 5.82152e-05
0.00198456 0.000206406 3.91347e-07
0.000206406 0.000150303 1.56505e-06
3.91347e-07 1.56505e-06 3.89723e-05
0.00199557 0.000189422 9.70085e-07
0.000189422 9.25354e-05 5.20487e-07
9.70085e-07 5.20487e-07 1.24526e-05
0.00175551 0.0002384 -1.19507e-06
0.0002384 0.000152213 6.5416e-07
-1.19507e-06 6.5416e-07 -4.79261e-06
0.0019456 0.000277206 6.65906e-07
0.000277206 0.000142481 5.16701e-08
6.65906e-07 5.16701e-08 3.45368e-06
0.00198531 0.000308758 9.13345e-07
0.000308758 7.36629e-05 1.73398e-07
9.13345e-07 1.73398e-07 -3.92528e-05
0.000971993 0.000172779 -1.59986e-05
0.000172779 -7.62505e-05 -3.91578e-06
-1.59986e-05 -3.91578e-06 -0.000234778
0.00186863 0.000295224 2.55417e-06
0.000295224 0.000251612 6.63516e-07
2.55417e-06 6.63516e-07 7.43324e-05
0.00189619 0.000327711 -1.09361e-06
0.000327711 0.000158137 -1.28518e-06
-1.09361e-06 -1.28518e-06 -5.93204e-06
0.000382346 0.00013161 -1.95096e-05
0.00013161 -0.000197757 -1.0452e-05
-1.95096e-05 -1.0452e-05 -0.000296537
0.000941384 0.000195818 3.76637e-07
0.000195818 -7.19995e-05 3.62217e-07
3.76637e-07 3.62217e-07 -0.000239705
0.00155997 0.000320283 7.74058e-06
0.000320283 9.76045e-05 -6.29674e-08
7.74058e-06 -6.29674e-08 -9.96863e-05
0.00643486 0.000142533 -0.000257517
0.000142533 0.00360361 -2.94799e-05
-0.000257517 -2.94799e-05 0.00360106
0.000405257 0.000174412 5.6581e-07
0.000174412 -0.000160752 7.63388e-07
5.6581e-07 7.63388e-07 -0.000271949
0.00091797 0.000210476 1.47181e-05
0.000210476 -4.59503e-05 5.76082e-06
1.47181e-05 5.76082e-06 -0.000221143
0.000380672 0.000195327 2.10322e-05
0.000195327 -0.000150009 1.64694e-05
2.10322e-05 1.64694e-05 -0.000269958
0.00634531 4.92978e-05 9.86359e-06
4.92978e-05 0.00356072 2.9714e-07
9.86359e-06 2.9714e-07 0.00355725
0.00610092 -9.8411e-05 0.000214094
-9.8411e-05 0.00341936 1.21421e-05
0.000214094 1.21421e-05 0.00341345
0.00188284 6.41639e-05 -6.9847e-06
6.41639e-05 4.32966e-05 -2.95111e-07
-6.9847e-06 -2.95111e-07 -9.83432e-06
0.00194876 0.000115024 2.71174e-07
0.000115024 3.89139e-05 1.02663e-07
2.71174e-07 1.02663e-07 5.65277e-06
0.00199599 0.000174953 1.9557e-06
0.000174953 1.09253e-05 3.9675e-07
1.9557e-06 3.9675e-07 -1.80412e-05
0.00178853 1.16727e-06 -1.83646e-07
1.16727e-06 2.65981e-05 2.1908e-08
-1.83646e-07 2.1908e-08 -5.35979e-05
0.00184687 1.20804e-05 8.89071e-09
1.20804e-05 1.659e-05 -1.57032e-09
8.89071e-09 -1.57032e-09 -2.97849e-05
0.00192251 3.88073e-05 1.95055e-06
3.88073e-05 -2.74387e-07 -4.086e-07
1.95055e-06 -4.086e-07 -1.58174e-05
0.00192629 -2.95651e-05 2.41919e-06
-2.95651e-05 4.20309e-05 -2.24579e-07
2.41919e-06 -2.24579e-07 3.78982e-06
0.00185185 -4.06588e-05 -6.27979e-07
-4.06588e-05 5.51624e-05 1.71339e-07
-6.27979e-07 1.71339e-07 -1.91051e-05
0.00183361 -3.4165e-05 1.65358e-06
-3.4165e-05 0.000209175 -4.74776e-07
1.65358e-06 -4.74776e-07 9.8206e-05
0.00178738 -9.66612e-05 -1.32647e-06
-9.66612e-05 1.23534e-05 1.19621e-06
-1.32647e-06 1.19621e-06 -7.54145e-05
0.00173239 -7.86785e-05 4.22536e-07
-7.86785e-05 0.000134762 5.94638e-08
4.22536e-07 5.94638e-08 1.49826e-05
0.000938249 -4.29653e-05 -1.31888e-05
-4.29653e-05 -0.000100917 1.26232e-06
-1.31888e-05 1.26232e-06 -0.000231271
0.00162527 -0.00012406 2.06795e-06
-0.00012406 6.43529e-05 -2.99774e-07
2.06795e-06 -2.99774e-07 -6.74297e-05
0.00101768 -7.40544e-05 -5.65593e-08
-7.40544e-05 -4.71726e-05 8.54037e-08
-5.65593e-08 8.54037e-08 -0.000184976
0.000501366 -2.20701e-05 -1.8586e-05
-2.20701e-05 -0.000154101 3.39037e-06
-1.8586e-05 3.39037e-06 -0.000235878
0.00105572 -0.000105679 1.23915e-05
-0.000105679 -2.06982e-05 -2.49609e-06
1.23915e-05 -2.49609e-06 -0.000165189
0.000502172 -7.04011e-05 -1.78063e-07
-7.04011e-05 -0.000148424 3.88605e-07
-1.78063e-07 3.88605e-07 -0.000235001
0.00604468 -3.60075e-05 -0.000274679
-3.60075e-05 0.00334874 1.19586e-05
-0.000274679 1.19586e-05 0.00336481
0.000535413 -7.2466e-05 1.52873e-05
-7.2466e-05 -0.000128829 -7.33666e-06
1.52873e-05 -7.33666e-06 -0.000219159
0.0038233 -9.31881e-05 0.000123809
-9.31881e-05 0.00199596 -5.68501e-06
0.000123809 -5.68501e-06 0.00198013
0.00133579 -8.18085e-05 6.60898e-05
-8.18085e-05 0.000489905 -8.98234e-06
6.60898e-05 -8.98234e-06 0.000444847
0.00189049 0.000113579 -5.04825e-06
0.000113579 6.33308e-05 -1.30648e-07
-5.04825e-06 -1.30648e-07 -3.14053e-06
0.00193266 0.000148061 1.09688e-06
0.000148061 0.000122829 2.14481e-06
1.09688e-06 2.14481e-06 2.43948e-05
0.00194655 0.00014034 -2.37847e-07
0.00014034 8.19681e-05 5.29707e-08
-2.37847e-07 5.29707e-08 1.78059e-05
0.00167687 0.000176041 -4.94895e-07
0.000176041 9.31951e-05 7.70115e-07
-4.94895e-07 7.70115e-07 -5.10016e-05
0.00195692 0.000205287 4.72956e-07
0.000205287 0.00013026 1.03875e-07
4.72956e-07 1.03875e-07 1.74141e-05
0.00196615 0.00018468 2.07107e-06
0.00018468 7.896e-05 -1.85364e-07
2.07107e-06 -1.85364e-07 -3.15775e-06
0.000977206 0.000141517 -1.46129e-05
0.000141517 -8.50387e-05 -2.92918e-06
-1.46129e-05 -2.92918e-06 -0.000234253
0.00177578 0.000237107 8.00998e-07
0.000237107 0.00016981 4.48405e-07
8.00998e-07 4.48405e-07 1.01845e-05
0.00191331 0.000273006 -1.27686e-07
0.000273006 0.000125873 -1.0164e-06
-1.27686e-07 -1.0164e-06 -1.24481e-05
0.000407258 9.36642e-05 -1.81398e-05
9.36642e-05 -0.000200781 -7.49227e-06
-1.81398e-05 -7.49227e-06 -0.00029133
0.000911392 0.000169219 -1.96214e-06
0.000169219 -0.000111752 -9.81476e-08
-1.96214e-06 -9.81476e-08 -0.000270018
0.00187902 0.000295282 6.46967e-06
0.000295282 0.000257463 9.72369e-07
6.46967e-06 9.72369e-07 8.04548e-05
0.006314 0.000209553 -0.000274834
0.000209553 0.00352362 -2.84717e-05
-0.000274834 -2.84717e-05 0.00352489
0.000412164 0.000129128 4.58019e-08
0.000129128 -0.000181068 4.22045e-07
4.58019e-08 4.22045e-07 -0.000280327
0.000809461 0.000189557 1.45587e-05
0.000189557 -0.000153769 4.83472e-06
1.45587e-05 4.83472e-06 -0.000321219
0.00636066 0.0001579 1.34468e-05
0.0001579 0.0035635 2.56766e-06
1.34468e-05 2.56766e-06 0.00356009
0.000417103 0.000164203 1.99186e-05
0.000164203 -0.000154094 1.38277e-05
1.99186e-05 1.38277e-05 -0.000266005
0.00623836 1.54332e-05 0.000241153
1.54332e-05 0.00348384 1.82308e-05
0.000241153 1.82308e-05 0.00348783
0.00184799 4.39024e-05 -1.39941e-06
4.39024e-05 5.11689e-05 -2.57662e-08
-1.39941e-06 -2.57662e-08 -2.94288e-05
0.0018939 6.57076e-05 -1.23221e-06
6.57076e-05 6.01577e-05 4.64415e-09
-1.23221e-06 4.64415e-09 5.53683e-06
0.00192663 0.000112218 4.10587e-06
0.000112218 2.16808e-05 4.99214e-07
4.10587e-06 4.99214e-07 -1.15827e-05
0.00180446 -4.13641e-06 2.18798e-06
-4.13641e-06 0.000189734 -3.59027e-07
2.18798e-06 -3.59027e-07 8.06996e-05
0.00179504 1.48104e-06 -1.21564e-06
1.48104e-06 2.79484e-05 1.40756e-07
-1.21564e-06 1.40756e-07 -4.98652e-05
0.00191095 1.85333e-05 6.23916e-06
1.85333e-05 5.63594e-05 -1.46053e-08
6.23916e-06 -1.46053e-08 1.32199e-05
0.00185351 -3.95801e-05 -6.71337e-07
-3.95801e-05 5.62374e-05 4.70698e-07
-6.71337e-07 4.70698e-07 -1.70442e-05
0.00181872 -3.29895e-05 3.1545e-06
-3.29895e-05 0.000198779 -2.46645e-07
3.1545e-06 -2.46645e-07 8.80258e-05
0.000921717 -1.58821e-05 -1.29007e-05
-1.58821e-05 -0.000106727 3.72038e-07
-1.29007e-05 3.72038e-07 -0.00023273
0.0016882 -7.92761e-05 5.11474e-07
-7.92761e-05 0.000111414 2.90372e-07
5.11474e-07 2.90372e-07 -1.32223e-05
0.000971453 -4.2813e-05 -1.26263e-06
-4.2813e-05 -7.91194e-05 1.02536e-07
-1.26263e-06 1.02536e-07 -0.000210477
0.000504966 -7.43746e-06 -1.8821e-05
-7.43746e-06 -0.000154015 2.19573e-06
-1.8821e-05 2.19573e-06 -0.000233579
0.00102058 -7.16242e-05 1.16981e-05
-7.16242e-05 -4.45809e-05 -1.8662e-06
1.16981e-05 -1.8662e-06 -0.000181826
0.000481834 -3.40144e-05 8.35168e-07
-3.40144e-05 -0.00016668 -1.78679e-07
8.35168e-07 -1.78679e-07 -0.000247521
0.00592499 -0.000132724 -0.000279699
-0.000132724 0.00328823 1.30007e-05
-0.000279699 1.30007e-05 0.00329957
0.000469709 -5.36616e-05 1.79814e-05
-5.36616e-05 -0.000168055 -4.21634e-06
1.79814e-05 -4.21634e-06 -0.000254262
0.00600185 -7.21932e-05 7.58615e-06
-7.21932e-05 0.00332464 -6.80398e-08
7.58615e-06 -6.80398e-08 0.0033405
0.00167302 -2.82662e-05 0.000219297
-2.82662e-05 0.000667694 -1.34373e-05
0.000219297 -1.34373e-05 0.000656522
0.00181699 9.98286e-05 -1.48935e-08
9.98286e-05 3.89064e-05 6.41788e-07
-1.48935e-08 6.41788e-07 -5.47024e-05
0.00188915 0.000117234 -3.4136e-06
0.000117234 5.92503e-05 -9.28536e-07
-3.4136e-06 -9.28536e-07 -4.55614e-06
0.00167134 0.000120332 3.40639e-07
0.000120332 8.59088e-05 8.83775e-07
3.40639e-07 8.83775e-07 -4.41036e-05
0.00192561 0.000146966 7.84816e-07
0.000146966 0.000116 1.81167e-07
7.84816e-07 1.81167e-07 1.77003e-05
0.00189646 0.000134784 2.77354e-06
0.000134784 4.71965e-05 -8.21657e-07
2.77354e-06 -8.21657e-07 -1.6664e-05
0.00108881 0.000106751 -1.27179e-05
0.000106751 -1.29308e-05 -1.92209e-06
-1.27179e-05 -1.92209e-06 -0.000154014
0.00167539 0.000175105 1.45515e-07
0.000175105 9.5253e-05 1.12234e-07
1.45515e-07 1.12234e-07 -4.89842e-05
0.0019267 0.000204029 4.79469e-07
0.000204029 0.000108784 -1.35582e-06
4.79469e-07 -1.35582e-06 -5.57447e-06
0.000448824 6.8118e-05 -1.78019e-05
6.8118e-05 -0.000185965 -5.388e-06
-1.78019e-05 -5.388e-06 -0.000272272
0.000990678 0.000142234 -1.98022e-06
0.000142234 -7.35071e-05 -4.09595e-08
-1.98022e-06 -4.09595e-08 -0.000223732
0.00180054 0.000235816 2.88469e-06
0.000235816 0.000190567 4.6475e-07
2.88469e-06 4.6475e-07 2.83442e-05
0.00620464 0.000238026 -0.000292486
0.000238026 0.00346377 -2.70051e-05
-0.000292486 -2.70051e-05 0.00346388
0.000446844 9.53443e-05 -7.70429e-08
9.53443e-05 -0.000178127 1.62175e-07
-7.70429e-08 1.62175e-07 -0.000269051
0.000852362 0.000165722 1.07029e-05
0.000165722 -0.000146624 3.50176e-06
1.07029e-05 3.50176e-06 -0.000304551
0.0062918 0.000231382 1.10802e-05
0.000231382 0.00352156 4.02132e-06
1.10802e-05 4.02132e-06 0.0035175
0.000447651 0.000125049 1.87166e-05
0.000125049 -0.000161467 1.05702e-05
1.87166e-05 1.05702e-05 -0.000260805
0.00632002 0.000155064 0.000266919
0.000155064 0.00352863 2.63134e-05
0.000266919 2.63134e-05 0.00353209
0.00178038 3.59828e-05 3.21116e-06
3.59828e-05 0.000166585 2.50757e-07
3.21116e-06 2.50757e-07 5.56047e-05
0.00185186 4.17507e-05 -2.14699e-06
4.17507e-05 5.88314e-05 7.38374e-09
-2.14699e-06 7.38374e-09 -2.30153e-05
0.00193043 6.71293e-05 3.65219e-06
6.71293e-05 9.31067e-05 -5.0262e-09
3.65219e-06 -5.0262e-09 3.72014e-05
0.000912525 -8.16891e-06 -1.32691e-05
-8.16891e-06 -0.000103346 -1.5484e-07
-1.32691e-05 -1.5484e-07 -0.00022735
0.00180605 1.01428e-06 3.42852e-06
1.01428e-06 0.000190882 -9.1006e-08
3.42852e-06 -9.1006e-08 8.19285e-05
0.00180912 1.33639e-06 -1.07613e-06
1.33639e-06 3.41312e-05 2.80055e-07
-1.07613e-06 2.80055e-07 -4.11917e-05
0.00180517 -3.20598e-05 4.52273e-06
-3.20598e-05 0.000189197 1.2124e-07
4.52273e-06 1.2124e-07 7.86606e-05
0.000919722 -1.6593e-05 -9.44918e-07
-1.6593e-05 -0.000109354 4.74061e-08
-9.44918e-07 4.74061e-08 -0.000235629
0.000510937 -3.13419e-05 -1.93323e-05
-3.13419e-05 -0.000150216 9.58291e-07
-1.93323e-05 9.58291e-07 -0.000227008
0.000985541 -4.17357e-05 1.09564e-05
-4.17357e-05 -6.88369e-05 -1.26311e-06
1.09564e-05 -1.26311e-06 -0.000201222
0.000484926 3.80566e-06 3.4828e-07
3.80566e-06 -0.000166967 8.33242e-08
3.4828e-07 8.33242e-08 -0.000245584
0.00590808 -0.000106767 -0.000283786
-0.000106767 0.00327592 9.53822e-06
-0.000283786 9.53822e-06 0.00328999
0.000495806 -4.02682e-05 1.88145e-05
-4.02682e-05 -0.000156133 -2.96538e-06
1.88145e-05 -2.96538e-06 -0.000238109
0.00594084 -2.72868e-05 -3.02517e-06
-2.72868e-05 0.00328691 2.24932e-06
-3.02517e-06 2.24932e-06 0.00330489
0.00598468 -8.78051e-05 0.000279228
-8.78051e-05 0.00331415 -1.14839e-05
0.000279228 -1.14839e-05 0.00333069
0.0016254 7.20826e-05 5.09932e-07
7.20826e-05 6.07521e-05 4.87185e-07
5.09932e-07 4.87185e-07 -6.07078e-05
0.00186161 0.000100494 -2.65071e-06
0.000100494 6.25239e-05 -1.10839e-06
-2.65071e-06 -1.10839e-06 -2.56329e-05
0.00184665 0.00012036 -2.348e-07
0.00012036 3.00098e-05 -5.50434e-07
-2.348e-07 -5.50434e-07 -3.14416e-05
0.00108243 6.67766e-05 -1.22785e-05
6.67766e-05 -1.26913e-05 -1.40426e-06
-1.22785e-05 -1.40426e-06 -0.000145404
0.00165905 0.00011899 2.33572e-07
0.00011899 8.12717e-05 -3.97913e-08
2.33572e-07 -3.97913e-08 -4.89471e-05
0.00191799 0.00014573 -1.64427e-07
0.00014573 0.000109385 -1.89376e-06
-1.64427e-07 -1.89376e-06 1.1238e-05
0.000475876 4.4681e-05 -1.73913e-05
4.4681e-05 -0.000172245 -3.78672e-06
-1.73913e-05 -3.78672e-06 -0.000255547
0.00105079 0.000107933 3.17665e-07
0.000107933 -3.64195e-05 3.1114e-07
3.17665e-07 3.1114e-07 -0.000178369
0.00167348 0.000174174 1.11944e-06
0.000174174 9.67353e-05 -4.8396e-07
1.11944e-06 -4.8396e-07 -4.7562e-05
0.0060899 0.000209617 -0.000303229
0.000209617 0.00339467 -2.27384e-05
-0.000303229 -2.27384e-05 0.003399
0.000478632 7.29681e-05 3.79429e-07
7.29681e-05 -0.000167736 1.54443e-07
3.79429e-07 1.54443e-07 -0.000254937
0.00100267 0.000142857 1.073e-05
0.000142857 -6.3169e-05 2.94861e-06
1.073e-05 2.94861e-06 -0.000214349
0.00621933 0.000252415 6.34248e-06
0.000252415 0.00347882 3.19294e-06
6.34248e-06 3.19294e-06 0.00347643
0.000490372 9.8867e-05 1.81076e-05
9.8867e-05 -0.000152055 8.03969e-06
1.81076e-05 8.03969e-06 -0.000243777
0.00629447 0.00025936 0.000285223
0.00025936 0.00352737 3.2491e-05
0.000285223 3.2491e-05 0.00352127
0.00101006 1.90858e-05 -1.26667e-05
1.90858e-05 -3.92644e-05 -5.74015e-07
-1.26667e-05 -5.74015e-07 -0.000165512
0.00172944 3.195e-05 3.7559e-06
3.195e-05 0.000134508 1.22684e-07
3.7559e-06 1.22684e-07 2.48498e-05
0.00183287 3.90742e-05 -3.88498e-06
3.90742e-05 5.19264e-05 -2.68017e-07
-3.88498e-06 -2.68017e-07 -3.14204e-05
0.000545403 3.10935e-05 -1.99081e-05
3.10935e-05 -0.000136496 -5.89434e-07
-1.99081e-05 -5.89434e-07 -0.000205636
0.000896121 -2.30411e-06 -1.12494e-06
-2.30411e-06 -0.00011471 -5.19405e-09
-1.12494e-06 -5.19405e-09 -0.000238879
0.00180184 7.26102e-06 4.68974e-06
7.26102e-06 0.000188201 1.43353e-07
4.68974e-06 1.43353e-07 7.93149e-05
0.000916983 -1.69394e-05 1.11356e-05
-1.69394e-05 -0.000112653 -4.91081e-07
1.11356e-05 -4.91081e-07 -0.000239173
0.000505294 -5.24321e-06 3.67411e-07
-5.24321e-06 -0.000153461 3.75858e-07
3.67411e-07 3.75858e-07 -0.000230422
0.00584799 2.61196e-05 -0.000288131
2.61196e-05 0.00323321 4.58204e-07
-0.000288131 4.58204e-07 0.00325293
0.000464289 1.5324e-05 1.83565e-05
1.5324e-05 -0.000180965 -1.24484e-06
1.83565e-05 -1.24484e-06 -0.000258342
0.00588135 -0.000104881 -7.76667e-06
-0.000104881 0.00326072 1.79087e-06
-7.76667e-06 1.79087e-06 0.00327445
0.00589362 -8.68842e-06 0.000269215
-8.68842e-06 0.00325819 -5.6526e-06
0.000269215 -5.6526e-06 0.0032762
0.00104666 3.7408e-05 -1.24961e-05
3.7408e-05 -2.4723e-05 -1.18876e-06
-1.24961e-05 -1.18876e-06 -0.000152562
0.00165054 6.97735e-05 -2.35336e-07
6.97735e-05 7.71998e-05 -1.36684e-07
-2.35336e-07 -1.36684e-07 -4.08241e-05
0.00193018 0.000101475 -3.88436e-06
0.000101475 0.000100788 -2.34493e-06
-3.88436e-06 -2.34493e-06 1.83051e-05
0.00265075 5.80562e-05 -0.000134631
5.80562e-05 0.00115861 -4.47946e-06
-0.000134631 -4.47946e-06 0.0011083
0.0010356 6.83879e-05 3.54865e-07
6.83879e-05 -4.15354e-05 1.08084e-07
3.54865e-07 1.08084e-07 -0.000174931
0.00164941 0.000117637 9.94621e-07
0.000117637 7.81576e-05 -8.43444e-07
9.94621e-07 -8.43444e-07 -5.22731e-05
0.00597378 0.000156432 -0.000302928
0.000156432 0.00331905 -1.64487e-05
-0.000302928 -1.64487e-05 0.00333024
0.000511005 6.33702e-05 8.44322e-07
6.33702e-05 -0.000148729 4.30044e-07
8.44322e-07 4.30044e-07 -0.000233926
0.00101584 0.000109124 1.25367e-05
0.000109124 -5.79524e-05 2.44896e-06
1.25367e-05 2.44896e-06 -0.000200739
0.00615457 0.000223208 1.68987e-06
0.000223208 0.0034357 1.638e-06
1.68987e-06 1.638e-06 0.00343885
0.000519096 8.07165e-05 1.82735e-05
8.07165e-05 -0.000141856 6.3346e-06
1.82735e-05 6.3346e-06 -0.000230616
0.00622773 0.000283973 0.000296422
0.000283973 0.00349557 3.33271e-05
0.000296422 3.33271e-05 0.00348694
0.000601816 1.07373e-05 -1.6125e-05
1.07373e-05 -9.11762e-05 -1.79311e-06
-1.6125e-05 -1.79311e-06 -0.000169114
0.000947876 1.80106e-05 4.79627e-07
1.80106e-05 -8.06954e-05 2.29751e-07
4.79627e-07 2.29751e-07 -0.00020612
0.00167763 2.69257e-05 3.73383e-06
2.69257e-05 0.000101757 -1.08706e-07
3.73383e-06 -1.08706e-07 -6.53237e-06
0.00569342 -9.78262e-05 -0.000271082
-9.78262e-05 0.00315661 2.63481e-06
-0.000271082 2.63481e-06 0.00316581
0.000501213 8.63929e-06 -5.64199e-07
8.63929e-06 -0.000158832 -3.31034e-09
-5.64199e-07 -3.31034e-09 -0.000230563
0.0008941 2.54801e-06 1.0995e-05
2.54801e-06 -0.000117487 1.72525e-09
1.0995e-05 1.72525e-09 -0.000241774
0.000459938 2.09375e-05 1.8599e-05
2.09375e-05 -0.000182036 1.97169e-07
1.8599e-05 1.97169e-07 -0.000258072
0.00579114 -9.82435e-06 2.22101e-06
-9.82435e-06 0.00320403 -1.33463e-06
2.22101e-06 -1.33463e-06 0.00321966
0.00588072 -2.44349e-05 0.00027682
-2.44349e-05 0.00324935 -3.62006e-06
0.00027682 -3.62006e-06 0.00326859
0.002727 1.27264e-05 -0.00012986
1.27264e-05 0.00120368 -2.62959e-06
-0.00012986 -2.62959e-06 0.00115578
0.00102875 4.05651e-05 9.05291e-08
4.05651e-05 -3.73718e-05 1.87241e-08
9.05291e-08 1.87241e-08 -0.000165719
0.00167129 6.7561e-05 1.0893e-06
6.7561e-05 9.12651e-05 -7.89194e-07
1.0893e-06 -7.89194e-07 -2.33104e-05
0.00550581 -4.3386e-05 -0.000110404
-4.3386e-05 0.00304466 5.28825e-07
-0.000110404 5.28825e-07 0.00303226
0.000525075 5.55425e-05 5.04438e-08
5.55425e-05 -0.000139836 2.16872e-07
5.04438e-08 2.16872e-07 -0.000220637
0.00100546 7.06178e-05 1.21759e-05
7.06178e-05 -6.08427e-05 1.61321e-06
1.21759e-05 1.61321e-06 -0.000194865
0.006041 0.000130255 -1.0665e-05
0.000130255 0.00335499 -1.58548e-06
-1.0665e-05 -1.58548e-06 0.00336767
0.00054226 8.63929e-05 1.96402e-05
8.63929e-05 -0.000129118 5.36163e-06
1.96402e-05 5.36163e-06 -0.000215215
0.00618918 0.000247148 0.000306047
0.000247148 0.00346396 2.92654e-05
0.000306047 2.92654e-05 0.00346389
0.00172657 -5.2366e-05 -0.000219675
-5.2366e-05 0.000698899 1.11413e-06
-0.000219675 1.11413e-06 0.00069499
0.00162284 2.89459e-05 -5.51251e-05
2.89459e-05 0.00052632 1.62137e-07
-5.51251e-05 1.62137e-07 0.000468317
0.000881633 1.95602e-05 1.24065e-05
1.95602e-05 -0.000124156 7.8358e-07
1.24065e-05 7.8358e-07 -0.000248831
0.00576194 -4.46296e-05 7.22456e-06
-4.46296e-05 0.00319234 2.11283e-06
7.22456e-06 2.11283e-06 0.00320645
0.000517066 -1.237e-05 1.92092e-05
-1.237e-05 -0.000142972 7.13173e-07
1.92092e-05 7.13173e-07 -0.000218429
0.00582549 -7.47764e-05 0.000289615
-7.47764e-05 0.00322767 -3.65345e-06
0.000289615 -3.65345e-06 0.0032433
0.00130426 1.8461e-05 -5.26555e-05
1.8461e-05 0.000466089 -8.13535e-07
-5.26555e-05 -8.13535e-07 0.000429995
0.00161288 1.62084e-05 -5.57063e-05
1.62084e-05 0.000523249 -1.07495e-06
-5.57063e-05 -1.07495e-06 0.000461532
0.0010006 4.23175e-05 1.22976e-05
4.23175e-05 -5.60843e-05 1.25833e-06
1.22976e-05 1.25833e-06 -0.000184966
0.00364048 6.11512e-05 0.000107019
6.11512e-05 0.00188537 2.93312e-06
0.000107019 2.93312e-06 0.00187636
0.000536775 6.61055e-05 1.99572e-05
6.61055e-05 -0.000132814 4.039e-06
1.99572e-05 4.039e-06 -0.000213609
0.00611299 0.000118285 0.000292956
0.000118285 0.00339193 1.75692e-05
0.000292956 1.75692e-05 0.00340805
0.00571013 -2.05063e-05 -8.88763e-06
-2.05063e-05 0.00316377 -2.71833e-06
-8.88763e-06 -2.71833e-06 0.00317674
0.000516407 4.7722e-05 2.0718e-05
4.7722e-05 -0.000153509 2.1943e-06
2.0718e-05 2.1943e-06 -0.000222154
0.00567191 4.23948e-05 0.000277024
4.23948e-05 0.00313367 2.11269e-07
0.000277024 2.11269e-07 0.00315111
0.00353752 2.9651e-05 0.000119631
2.9651e-05 0.00182725 4.35145e-06
0.000119631 4.35145e-06 0.0018195
0.000547462 7.29762e-06 1.91223e-05
7.29762e-06 -0.000126049 2.56894e-06
1.91223e-05 2.56894e-06 -0.000202385
0.00593512 -9.34227e-06 0.000281999
-9.34227e-06 0.00328523 7.67377e-06
0.000281999 7.67377e-06 0.00330227
0.00575526 -0.000121607 0.000274128
-0.000121607 0.00319599 -3.8263e-06
0.000274128 -3.8263e-06 0.00320439
0.00576097 1.66213e-06 0.000275432
1.66213e-06 0.0031788 4.27717e-06
0.000275432 4.27717e-06 0.00319886
